
 stresses (elem, integ.pnt.,sxx,syy,szz,sxy,sxz,syz) for set ELALL and time  0.1000000E+01

         1   1 -5.193581E+06 -6.191655E+05 -8.027131E+05 -1.005118E+05 -5.462295E+05  8.913976E+01
         1   2 -5.072332E+06  1.340432E+05 -3.438296E+05 -2.618704E+04 -3.588037E+05  1.525374E+01
         1   3 -5.192013E+06  2.350616E+04 -2.235230E+05  4.815145E+04 -1.713856E+05 -1.339979E+01
         1   4 -5.193592E+06 -6.191847E+05 -8.027158E+05  4.817948E-08 -5.462295E+05 -3.155888E-10
         1   5 -5.072332E+06  1.340419E+05 -3.438298E+05  3.097123E-08 -3.588037E+05 -4.622699E-10
         1   6 -5.192016E+06  2.350177E+04 -2.235236E+05 -5.603965E-09 -1.713856E+05 -5.562928E-10
         1   7 -5.193581E+06 -6.191655E+05 -8.027131E+05  1.005118E+05 -5.462295E+05 -8.913976E+01
         1   8 -5.072332E+06  1.340432E+05 -3.438296E+05  2.618704E+04 -3.588037E+05 -1.525374E+01
         1   9 -5.192013E+06  2.350616E+04 -2.235230E+05 -4.815145E+04 -1.713856E+05  1.339979E+01
         1  10 -5.193904E+06 -6.192465E+05 -8.032784E+05 -1.005118E+05 -1.104736E-09 -1.868921E-10
         1  11 -5.072471E+06  1.340083E+05 -3.440735E+05 -2.618704E+04  4.367698E-09  5.976021E-10
         1  12 -5.192045E+06  2.349819E+04 -2.235786E+05  4.815145E+04  1.937782E-09 -1.583556E-10
         1  13 -5.193914E+06 -6.192656E+05 -8.032812E+05  3.101572E-08  6.702388E-11  6.739693E-11
         1  14 -5.072471E+06  1.340070E+05 -3.440737E+05 -3.425781E-09 -1.102842E-09  8.940924E-25
         1  15 -5.192048E+06  2.349380E+04 -2.235793E+05  3.093977E-08  3.558678E-09  6.797439E-11
         1  16 -5.193904E+06 -6.192465E+05 -8.032784E+05  1.005118E+05 -1.315004E-10  5.491401E-11
         1  17 -5.072471E+06  1.340083E+05 -3.440735E+05  2.618704E+04  2.137161E-09  4.788403E-10
         1  18 -5.192045E+06  2.349819E+04 -2.235786E+05 -4.815145E+04  1.584336E-09  7.627812E-10
         1  19 -5.193581E+06 -6.191655E+05 -8.027131E+05 -1.005118E+05  5.462295E+05 -8.913976E+01
         1  20 -5.072332E+06  1.340432E+05 -3.438296E+05 -2.618704E+04  3.588037E+05 -1.525374E+01
         1  21 -5.192013E+06  2.350616E+04 -2.235230E+05  4.815145E+04  1.713856E+05  1.339979E+01
         1  22 -5.193592E+06 -6.191847E+05 -8.027158E+05  3.098441E-08  5.462295E+05  2.753290E-10
         1  23 -5.072332E+06  1.340419E+05 -3.438298E+05 -3.430335E-09  3.588037E+05  5.544942E-10
         1  24 -5.192016E+06  2.350177E+04 -2.235236E+05  4.382213E-08  1.713856E+05  5.914139E-10
         1  25 -5.193581E+06 -6.191655E+05 -8.027131E+05  1.005118E+05  5.462295E+05  8.913976E+01
         1  26 -5.072332E+06  1.340432E+05 -3.438296E+05  2.618704E+04  3.588037E+05  1.525374E+01
         1  27 -5.192013E+06  2.350616E+04 -2.235230E+05 -4.815145E+04  1.713856E+05 -1.339979E+01
         2   1 -5.147104E+06 -8.819619E+04 -1.845027E+05 -1.355639E+04 -1.350186E+05  2.971800E+00
         2   2 -5.128469E+06  1.916918E+04 -8.906181E+04 -3.256941E+03 -8.857379E+04  4.683713E-01
         2   3 -5.146807E+06  3.268136E+03 -5.485314E+04  7.042529E+03 -4.212779E+04 -4.817098E-01
         2   4 -5.147104E+06 -8.819654E+04 -1.845028E+05  3.317219E-08 -1.350186E+05  4.457212E-10
         2   5 -5.128469E+06  1.916916E+04 -8.906182E+04  5.890265E-08 -8.857379E+04  1.689416E-09
         2   6 -5.146807E+06  3.268042E+03 -5.485315E+04  8.676486E-08 -4.212779E+04  5.712392E-10
         2   7 -5.147104E+06 -8.819619E+04 -1.845027E+05  1.355639E+04 -1.350186E+05 -2.971800E+00
         2   8 -5.128469E+06  1.916918E+04 -8.906181E+04  3.256941E+03 -8.857379E+04 -4.683713E-01
         2   9 -5.146807E+06  3.268136E+03 -5.485314E+04 -7.042529E+03 -4.212779E+04  4.817098E-01
         2  10 -5.147123E+06 -8.820114E+04 -1.845373E+05 -1.355639E+04  3.197780E-12 -4.392431E-10
         2  11 -5.128477E+06  1.916705E+04 -8.907668E+04 -3.256940E+03 -9.886745E-10 -4.050748E-10
         2  12 -5.146809E+06  3.267655E+03 -5.485650E+04  7.042529E+03  1.557456E-09  1.725039E-09
         2  13 -5.147124E+06 -8.820148E+04 -1.845373E+05 -1.191138E-09  2.264876E-09 -3.847490E-12
         2  14 -5.128477E+06  1.916703E+04 -8.907668E+04 -1.287025E-09 -4.009502E-09  3.858259E-10
         2  15 -5.146809E+06  3.267561E+03 -5.485651E+04  2.872247E-08 -2.594055E-09  8.219303E-10
         2  16 -5.147123E+06 -8.820114E+04 -1.845373E+05  1.355639E+04 -8.767193E-10  1.367651E-10
         2  17 -5.128477E+06  1.916705E+04 -8.907668E+04  3.256940E+03 -8.038222E-10  2.273811E-09
         2  18 -5.146809E+06  3.267655E+03 -5.485650E+04 -7.042529E+03 -1.102525E-09  8.262396E-10
         2  19 -5.147104E+06 -8.819619E+04 -1.845027E+05 -1.355639E+04  1.350186E+05 -2.971800E+00
         2  20 -5.128469E+06  1.916918E+04 -8.906181E+04 -3.256941E+03  8.857379E+04 -4.683713E-01
         2  21 -5.146807E+06  3.268136E+03 -5.485314E+04  7.042529E+03  4.212779E+04  4.817098E-01
         2  22 -5.147104E+06 -8.819654E+04 -1.845028E+05 -1.166062E-09  1.350186E+05 -5.656041E-10
         2  23 -5.128469E+06  1.916916E+04 -8.906182E+04 -2.706969E-08  8.857379E+04 -8.661698E-10
         2  24 -5.146807E+06  3.268042E+03 -5.485315E+04  1.512454E-07  4.212779E+04  1.071122E-09
         2  25 -5.147104E+06 -8.819619E+04 -1.845027E+05  1.355639E+04  1.350186E+05  2.971800E+00
         2  26 -5.128469E+06  1.916918E+04 -8.906181E+04  3.256941E+03  8.857379E+04  4.683713E-01
         2  27 -5.146807E+06  3.268136E+03 -5.485314E+04 -7.042529E+03  4.212779E+04 -4.817098E-01
         3   1 -5.139959E+06 -1.247995E+04 -4.374893E+04 -1.731229E+03 -3.329339E+04  9.358275E-02
         3   2 -5.136972E+06  2.736733E+03 -2.283251E+04 -3.446469E+02 -2.167737E+04  1.213007E-02
         3   3 -5.139901E+06  4.216850E+02 -1.390789E+04  1.041907E+03 -1.006140E+04 -1.702049E-02
         3   4 -5.139959E+06 -1.247995E+04 -4.374893E+04 -6.170769E-08 -3.329339E+04  2.664630E-10
         3   5 -5.136972E+06  2.736733E+03 -2.283251E+04 -3.685234E-08 -2.167737E+04 -5.983443E-10
         3   6 -5.139901E+06  4.216830E+02 -1.390789E+04 -3.564935E-08 -1.006140E+04 -7.329843E-10
         3   7 -5.139959E+06 -1.247995E+04 -4.374893E+04  1.731229E+03 -3.329339E+04 -9.358275E-02
         3   8 -5.136972E+06  2.736733E+03 -2.283251E+04  3.446469E+02 -2.167737E+04 -1.213008E-02
         3   9 -5.139901E+06  4.216850E+02 -1.390789E+04 -1.041907E+03 -1.006140E+04  1.702049E-02
         3  10 -5.139960E+06 -1.248025E+04 -4.375103E+04 -1.731229E+03 -3.573302E-09  1.734131E-09
         3  11 -5.136972E+06  2.736606E+03 -2.283340E+04 -3.446469E+02 -1.079585E-09 -2.022798E-09
         3  12 -5.139901E+06  4.216576E+02 -1.390809E+04  1.041907E+03 -3.568421E-09  2.041262E-10
         3  13 -5.139960E+06 -1.248026E+04 -4.375103E+04 -2.735767E-08 -1.520457E-10  5.284916E-10
         3  14 -5.136972E+06  2.736606E+03 -2.283340E+04 -1.106457E-08 -4.298877E-09 -6.346798E-10
         3  15 -5.139901E+06  4.216555E+02 -1.390809E+04 -1.627880E-08 -6.038386E-10  8.193688E-11
         3  16 -5.139960E+06 -1.248025E+04 -4.375103E+04  1.731229E+03 -1.582144E-10  7.970527E-10
         3  17 -5.136972E+06  2.736606E+03 -2.283340E+04  3.446469E+02  4.192160E-09 -1.779040E-10
         3  18 -5.139901E+06  4.216576E+02 -1.390809E+04 -1.041907E+03 -4.957849E-10 -4.417892E-11
         3  19 -5.139959E+06 -1.247995E+04 -4.374893E+04 -1.731229E+03  3.329339E+04 -9.358274E-02
         3  20 -5.136972E+06  2.736733E+03 -2.283251E+04 -3.446469E+02  2.167737E+04 -1.213007E-02
         3  21 -5.139901E+06  4.216850E+02 -1.390789E+04  1.041907E+03  1.006140E+04  1.702049E-02
         3  22 -5.139959E+06 -1.247995E+04 -4.374893E+04  7.581597E-08  3.329339E+04  7.946024E-10
         3  23 -5.136972E+06  2.736733E+03 -2.283251E+04  1.473156E-08  2.167737E+04 -1.070338E-09
         3  24 -5.139901E+06  4.216830E+02 -1.390789E+04 -1.841572E-08  1.006140E+04  1.039799E-09
         3  25 -5.139959E+06 -1.247995E+04 -4.374893E+04  1.731229E+03  3.329339E+04  9.358275E-02
         3  26 -5.136972E+06  2.736733E+03 -2.283251E+04  3.446469E+02  2.167737E+04  1.213007E-02
         3  27 -5.139901E+06  4.216850E+02 -1.390789E+04 -1.041907E+03  1.006140E+04 -1.702050E-02
         4   1 -5.138840E+06 -1.740779E+03 -1.107579E+04 -2.112938E+02 -7.816006E+03  2.681365E-03
         4   2 -5.138277E+06  4.250346E+02 -6.667015E+03 -2.184039E+01 -4.473973E+03  1.586500E-04
         4   3 -5.138830E+06 -1.112111E+02 -5.123136E+03  1.676155E+02 -1.131880E+03 -3.080336E-04
         4   4 -5.138840E+06 -1.740779E+03 -1.107579E+04  9.587269E-08 -7.816006E+03  5.981830E-11
         4   5 -5.138277E+06  4.250346E+02 -6.667015E+03  2.418289E-08 -4.473973E+03  1.905171E-09
         4   6 -5.138830E+06 -1.112112E+02 -5.123136E+03  3.419659E-08 -1.131880E+03  1.022325E-09
         4   7 -5.138840E+06 -1.740779E+03 -1.107579E+04  2.112938E+02 -7.816006E+03 -2.681365E-03
         4   8 -5.138277E+06  4.250346E+02 -6.667015E+03  2.184039E+01 -4.473973E+03 -1.586499E-04
         4   9 -5.138830E+06 -1.112111E+02 -5.123136E+03 -1.676155E+02 -1.131880E+03  3.080344E-04
         4  10 -5.138840E+06 -1.740795E+03 -1.107591E+04 -2.112938E+02 -1.072000E-09  3.521412E-10
         4  11 -5.138277E+06  4.250292E+02 -6.667053E+03 -2.184039E+01  4.976473E-09 -3.227738E-10
         4  12 -5.138830E+06 -1.112115E+02 -5.123138E+03  1.676155E+02  2.764409E-10 -2.281423E-11
         4  13 -5.138840E+06 -1.740795E+03 -1.107591E+04  4.427457E-08 -2.582899E-09  3.162235E-10
         4  14 -5.138277E+06  4.250292E+02 -6.667053E+03 -1.598366E-09  1.307079E-09 -1.741022E-11
         4  15 -5.138830E+06 -1.112115E+02 -5.123138E+03 -2.599313E-08  5.306315E-10  6.090851E-10
         4  16 -5.138840E+06 -1.740795E+03 -1.107591E+04  2.112938E+02 -3.559812E-09 -2.543821E-10
         4  17 -5.138277E+06  4.250292E+02 -6.667053E+03  2.184039E+01  8.910657E-10 -7.893896E-10
         4  18 -5.138830E+06 -1.112115E+02 -5.123138E+03 -1.676155E+02  3.894225E-10  8.087298E-10
         4  19 -5.138840E+06 -1.740779E+03 -1.107579E+04 -2.112938E+02  7.816006E+03 -2.681363E-03
         4  20 -5.138277E+06  4.250346E+02 -6.667015E+03 -2.184039E+01  4.473973E+03 -1.586467E-04
         4  21 -5.138830E+06 -1.112111E+02 -5.123136E+03  1.676155E+02  1.131880E+03  3.080358E-04
         4  22 -5.138840E+06 -1.740779E+03 -1.107579E+04  7.868519E-08  7.816006E+03  5.119436E-10
         4  23 -5.138277E+06  4.250346E+02 -6.667015E+03 -2.738382E-08  4.473973E+03 -9.865840E-10
         4  24 -5.138830E+06 -1.112112E+02 -5.123136E+03  1.975290E-09  1.131880E+03  1.434094E-10
         4  25 -5.138840E+06 -1.740779E+03 -1.107579E+04  2.112938E+02  7.816006E+03  2.681362E-03
         4  26 -5.138277E+06  4.250346E+02 -6.667015E+03  2.184039E+01  4.473973E+03  1.586467E-04
         4  27 -5.138830E+06 -1.112111E+02 -5.123136E+03 -1.676155E+02  1.131880E+03 -3.080336E-04
         5   1 -5.138777E+06 -1.985389E+02 -4.897564E+03 -1.254538E+02 -2.298922E+02  4.683006E-05
         5   2 -5.138342E+06  3.269690E+02 -5.412738E+03  1.793494E+01  2.481022E+03  7.224470E-05
         5   3 -5.138783E+06 -1.224281E+03 -8.223019E+03  1.613237E+02  5.191932E+03  1.359913E-03
         5   4 -5.138777E+06 -1.985389E+02 -4.897564E+03  1.070647E-08 -2.298922E+02  9.485761E-10
         5   5 -5.138342E+06  3.269690E+02 -5.412738E+03  4.908772E-08  2.481022E+03  4.088095E-10
         5   6 -5.138783E+06 -1.224281E+03 -8.223019E+03 -7.106281E-09  5.191932E+03  7.401557E-10
         5   7 -5.138777E+06 -1.985389E+02 -4.897564E+03  1.254538E+02 -2.298922E+02 -4.682508E-05
         5   8 -5.138342E+06  3.269690E+02 -5.412738E+03 -1.793494E+01  2.481022E+03 -7.224657E-05
         5   9 -5.138783E+06 -1.224281E+03 -8.223019E+03 -1.613237E+02  5.191932E+03 -1.359914E-03
         5  10 -5.138777E+06 -1.985389E+02 -4.897564E+03 -1.254538E+02 -1.631571E-09  8.825967E-10
         5  11 -5.138342E+06  3.269673E+02 -5.412749E+03  1.793494E+01 -2.100792E-09 -2.653854E-09
         5  12 -5.138783E+06 -1.224288E+03 -8.223070E+03  1.613237E+02 -5.378704E-10 -1.729994E-09
         5  13 -5.138777E+06 -1.985389E+02 -4.897564E+03  2.790652E-08  3.306548E-10  4.598509E-10
         5  14 -5.138342E+06  3.269673E+02 -5.412749E+03  5.768566E-08  2.323590E-10 -5.576169E-10
         5  15 -5.138783E+06 -1.224288E+03 -8.223070E+03 -3.719696E-08 -1.512142E-09  1.819217E-10
         5  16 -5.138777E+06 -1.985389E+02 -4.897564E+03  1.254538E+02 -8.351738E-10 -4.981663E-10
         5  17 -5.138342E+06  3.269673E+02 -5.412749E+03 -1.793494E+01 -5.364261E-09 -8.308646E-11
         5  18 -5.138783E+06 -1.224288E+03 -8.223070E+03 -1.613237E+02 -1.309118E-09  1.216223E-09
         5  19 -5.138777E+06 -1.985389E+02 -4.897564E+03 -1.254538E+02  2.298922E+02 -4.682681E-05
         5  20 -5.138342E+06  3.269690E+02 -5.412738E+03  1.793494E+01 -2.481022E+03 -7.224543E-05
         5  21 -5.138783E+06 -1.224281E+03 -8.223019E+03  1.613237E+02 -5.191932E+03 -1.359915E-03
         5  22 -5.138777E+06 -1.985389E+02 -4.897564E+03  4.505001E-08  2.298922E+02 -3.001692E-11
         5  23 -5.138342E+06  3.269690E+02 -5.412738E+03  4.907934E-08 -2.481022E+03 -1.075054E-09
         5  24 -5.138783E+06 -1.224281E+03 -8.223019E+03 -2.801030E-09 -5.191932E+03 -5.566231E-10
         5  25 -5.138777E+06 -1.985389E+02 -4.897564E+03  1.254538E+02  2.298922E+02  4.682545E-05
         5  26 -5.138342E+06  3.269690E+02 -5.412738E+03 -1.793494E+01 -2.481022E+03  7.224120E-05
         5  27 -5.138783E+06 -1.224281E+03 -8.223019E+03 -1.613237E+02 -5.191932E+03  1.359913E-03
         6   1 -5.139515E+06  2.815823E+02 -1.012281E+04 -7.341370E+02  6.840807E+03 -8.153966E-03
         6   2 -5.137440E+06  1.933715E+03 -1.627849E+04  2.443636E+02  1.512015E+04  5.998956E-03
         6   3 -5.139556E+06 -8.800641E+03 -3.095430E+04  1.222853E+03  2.339930E+04  4.645804E-02
         6   4 -5.139515E+06  2.815813E+02 -1.012281E+04 -2.041746E-08  6.840807E+03  1.201853E-09
         6   5 -5.137440E+06  1.933715E+03 -1.627849E+04  7.972185E-08  1.512015E+04  1.358154E-09
         6   6 -5.139556E+06 -8.800643E+03 -3.095430E+04  2.078578E-08  2.339930E+04 -1.564673E-09
         6   7 -5.139515E+06  2.815823E+02 -1.012281E+04  7.341370E+02  6.840807E+03  8.153967E-03
         6   8 -5.137440E+06  1.933715E+03 -1.627849E+04 -2.443636E+02  1.512015E+04 -5.998955E-03
         6   9 -5.139556E+06 -8.800641E+03 -3.095430E+04 -1.222853E+03  2.339930E+04 -4.645804E-02
         6  10 -5.139515E+06  2.815697E+02 -1.012290E+04 -7.341370E+02  1.996635E-09  2.520012E-10
         6  11 -5.137440E+06  1.933653E+03 -1.627892E+04  2.443636E+02 -1.093486E-09  1.496535E-09
         6  12 -5.139556E+06 -8.800789E+03 -3.095534E+04  1.222853E+03  2.282129E-09 -8.946862E-10
         6  13 -5.139515E+06  2.815686E+02 -1.012290E+04  3.115766E-08 -2.546898E-09  4.100213E-10
         6  14 -5.137440E+06  1.933653E+03 -1.627892E+04  5.391529E-08 -5.838089E-09  2.678752E-10
         6  15 -5.139556E+06 -8.800792E+03 -3.095534E+04  1.217947E-08  9.944986E-10 -2.763344E-10
         6  16 -5.139515E+06  2.815697E+02 -1.012290E+04  7.341370E+02 -1.221171E-09  1.105118E-09
         6  17 -5.137440E+06  1.933653E+03 -1.627892E+04 -2.443636E+02  2.241110E-09  1.184950E-10
         6  18 -5.139556E+06 -8.800789E+03 -3.095534E+04 -1.222853E+03  7.440276E-10  5.473549E-10
         6  19 -5.139515E+06  2.815823E+02 -1.012281E+04 -7.341370E+02 -6.840807E+03  8.153966E-03
         6  20 -5.137440E+06  1.933715E+03 -1.627849E+04  2.443636E+02 -1.512015E+04 -5.998951E-03
         6  21 -5.139556E+06 -8.800641E+03 -3.095430E+04  1.222853E+03 -2.339930E+04 -4.645803E-02
         6  22 -5.139515E+06  2.815813E+02 -1.012281E+04  1.394291E-08 -6.840807E+03 -3.678533E-10
         6  23 -5.137440E+06  1.933715E+03 -1.627849E+04  6.250073E-08 -1.512015E+04 -1.529023E-09
         6  24 -5.139556E+06 -8.800643E+03 -3.095430E+04  8.742207E-08 -2.339930E+04  6.558206E-10
         6  25 -5.139515E+06  2.815823E+02 -1.012281E+04  7.341370E+02 -6.840807E+03 -8.153968E-03
         6  26 -5.137440E+06  1.933715E+03 -1.627849E+04 -2.443636E+02 -1.512015E+04  5.998952E-03
         6  27 -5.139556E+06 -8.800641E+03 -3.095430E+04 -1.222853E+03 -2.339930E+04  4.645803E-02
         7   1 -5.144382E+06  2.302831E+03 -3.876112E+04 -4.965920E+03  2.964618E+04 -2.390317E-01
         7   2 -5.131448E+06  1.351847E+04 -6.285431E+04  2.297256E+03  6.242091E+04  2.328184E-01
         7   3 -5.144593E+06 -6.219720E+04 -1.301454E+05  9.560529E+03  9.519555E+04  1.477682E+00
         7   4 -5.144382E+06  2.302784E+03 -3.876113E+04  1.616765E-08  2.964618E+04 -1.586490E-09
         7   5 -5.131448E+06  1.351846E+04 -6.285432E+04  1.397386E-08  6.242091E+04  1.436647E-09
         7   6 -5.144593E+06 -6.219738E+04 -1.301454E+05  1.149530E-07  9.519555E+04 -9.020647E-10
         7   7 -5.144382E+06  2.302831E+03 -3.876112E+04  4.965920E+03  2.964618E+04  2.390317E-01
         7   8 -5.131448E+06  1.351847E+04 -6.285431E+04 -2.297256E+03  6.242091E+04 -2.328184E-01
         7   9 -5.144593E+06 -6.219720E+04 -1.301454E+05 -9.560529E+03  9.519555E+04 -1.477682E+00
         7  10 -5.144383E+06  2.302593E+03 -3.876279E+04 -4.965920E+03 -3.205757E-09  9.559142E-10
         7  11 -5.131452E+06  1.351741E+04 -6.286170E+04  2.297256E+03 -4.620779E-09 -2.632079E-10
         7  12 -5.144602E+06 -6.219966E+04 -1.301625E+05  9.560529E+03  1.525499E-09  3.535179E-10
         7  13 -5.144383E+06  2.302546E+03 -3.876279E+04  1.620120E-08  4.829110E-09 -3.346988E-10
         7  14 -5.131452E+06  1.351740E+04 -6.286170E+04  3.976855E-08  1.917732E-09  1.586969E-10
         7  15 -5.144602E+06 -6.219983E+04 -1.301626E+05  1.177805E-08  2.774529E-09  3.672508E-11
         7  16 -5.144383E+06  2.302593E+03 -3.876279E+04  4.965920E+03  1.525558E-09 -8.100508E-10
         7  17 -5.131452E+06  1.351741E+04 -6.286170E+04 -2.297256E+03  3.587837E-09 -2.636333E-10
         7  18 -5.144602E+06 -6.219966E+04 -1.301625E+05 -9.560529E+03  2.404940E-09  2.030009E-10
         7  19 -5.144382E+06  2.302831E+03 -3.876112E+04 -4.965920E+03 -2.964618E+04  2.390317E-01
         7  20 -5.131448E+06  1.351847E+04 -6.285431E+04  2.297256E+03 -6.242091E+04 -2.328184E-01
         7  21 -5.144593E+06 -6.219720E+04 -1.301454E+05  9.560529E+03 -9.519555E+04 -1.477682E+00
         7  22 -5.144382E+06  2.302784E+03 -3.876113E+04  6.778317E-08 -2.964618E+04  9.572090E-10
         7  23 -5.131448E+06  1.351846E+04 -6.285432E+04  4.837527E-08 -6.242091E+04 -1.796193E-09
         7  24 -5.144593E+06 -6.219738E+04 -1.301454E+05  2.465814E-08 -9.519555E+04  3.483335E-10
         7  25 -5.144382E+06  2.302831E+03 -3.876112E+04  4.965920E+03 -2.964618E+04 -2.390317E-01
         7  26 -5.131448E+06  1.351847E+04 -6.285431E+04 -2.297256E+03 -6.242091E+04  2.328184E-01
         7  27 -5.144593E+06 -6.219720E+04 -1.301454E+05 -9.560529E+03 -9.519555E+04  1.477682E+00
         8   1 -5.176265E+06  1.657358E+04 -1.576641E+05 -3.395586E+04  1.208519E+05 -6.663059E+00
         8   2 -5.091872E+06  9.452463E+04 -2.425430E+05  1.846529E+04  2.530173E+05  7.584980E+00
         8   3 -5.177394E+06 -4.366449E+05 -5.662156E+05  7.088016E+04  3.851878E+05  4.432798E+01
         8   4 -5.176266E+06  1.657139E+04 -1.576644E+05 -4.122657E-08  1.208519E+05 -3.611430E-10
         8   5 -5.091872E+06  9.452398E+04 -2.425431E+05 -5.027027E-09  2.530173E+05  2.474868E-09
         8   6 -5.177400E+06 -4.366545E+05 -5.662170E+05  3.217870E-09  3.851878E+05  6.200449E-10
         8   7 -5.176265E+06  1.657358E+04 -1.576641E+05  3.395586E+04  1.208519E+05  6.663059E+00
         8   8 -5.091872E+06  9.452463E+04 -2.425430E+05 -1.846529E+04  2.530173E+05 -7.584980E+00
         8   9 -5.177394E+06 -4.366449E+05 -5.662156E+05 -7.088016E+04  3.851878E+05 -4.432798E+01
         8  10 -5.176281E+06  1.656962E+04 -1.576918E+05 -3.395586E+04  2.927800E-09 -2.081323E-10
         8  11 -5.091941E+06  9.450727E+04 -2.426643E+05  1.846529E+04  3.029624E-09 -2.183935E-10
         8  12 -5.177555E+06 -4.366852E+05 -5.664968E+05  7.088015E+04 -4.508664E-10  3.069588E-10
         8  13 -5.176282E+06  1.656743E+04 -1.576921E+05 -4.121606E-08 -6.702508E-11  1.028074E-10
         8  14 -5.091941E+06  9.450662E+04 -2.426644E+05 -1.362082E-08 -8.456049E-10  6.243116E-10
         8  15 -5.177560E+06 -4.366947E+05 -5.664981E+05  2.685236E-08  7.683117E-11  2.381904E-10
         8  16 -5.176281E+06  1.656962E+04 -1.576918E+05  3.395586E+04  1.063483E-09 -3.349845E-10
         8  17 -5.091941E+06  9.450727E+04 -2.426643E+05 -1.846529E+04 -4.253609E-09  1.015220E-09
         8  18 -5.177555E+06 -4.366852E+05 -5.664968E+05 -7.088015E+04 -6.849554E-10  6.896784E-10
         8  19 -5.176265E+06  1.657358E+04 -1.576641E+05 -3.395586E+04 -1.208519E+05  6.663059E+00
         8  20 -5.091872E+06  9.452463E+04 -2.425430E+05  1.846529E+04 -2.530173E+05 -7.584980E+00
         8  21 -5.177394E+06 -4.366449E+05 -5.662156E+05  7.088016E+04 -3.851878E+05 -4.432798E+01
         8  22 -5.176266E+06  1.657139E+04 -1.576644E+05 -9.279422E-08 -1.208519E+05  6.460312E-10
         8  23 -5.091872E+06  9.452398E+04 -2.425431E+05 -4.802303E-08 -2.530173E+05 -1.334999E-09
         8  24 -5.177400E+06 -4.366545E+05 -5.662170E+05 -3.117963E-08 -3.851878E+05 -1.029001E-10
         8  25 -5.176265E+06  1.657358E+04 -1.576641E+05  3.395586E+04 -1.208519E+05 -6.663059E+00
         8  26 -5.091872E+06  9.452463E+04 -2.425430E+05 -1.846529E+04 -2.530173E+05  7.584980E+00
         8  27 -5.177394E+06 -4.366449E+05 -5.662156E+05 -7.088016E+04 -3.851878E+05  4.432798E+01
         9   1  2.254676E+06  8.048359E+06  2.148414E+06 -1.535004E+06  1.014414E+05  8.341107E+05
         9   2  1.789179E+06  6.871248E+06  1.441374E+06 -1.389433E+06  3.403702E+05  3.905803E+05
         9   3  1.470456E+06  5.792000E+06  1.058215E+06 -1.429697E+06  3.965518E+05 -5.187053E+04
         9   4  1.604054E+05 -4.824692E+05  1.704370E+05 -1.409236E+06  1.035645E+05  1.157869E+05
         9   5  5.067381E+04 -4.940003E+05  8.763416E+04 -1.316610E+06  3.418906E+05  7.229344E+04
         9   6  1.964815E+04 -4.771258E+05  5.333010E+04 -1.409764E+06  3.965444E+05  2.895457E+04
         9   7 -1.938650E+06 -8.945503E+06 -1.810504E+06 -1.285080E+06  1.054228E+05 -5.928405E+05
         9   8 -1.690841E+06 -7.806745E+06 -1.267967E+06 -1.244572E+06  3.433503E+05 -2.423514E+05
         9   9 -1.433127E+06 -6.707415E+06 -9.525778E+05 -1.389955E+06  3.965419E+05  1.089973E+05
         9  10  2.254481E+06  8.047617E+06  2.147102E+06 -1.535072E+06  3.698023E-09 -1.248715E-07
         9  11  1.789014E+06  6.871054E+06  1.440871E+06 -1.389540E+06  7.157444E-09  3.483833E-09
         9  12  1.470287E+06  5.791955E+06  1.057914E+06 -1.429681E+06  2.902187E-10  1.321710E-07
         9  13  1.603902E+05 -4.824865E+05  1.703915E+05 -1.409246E+06  1.212497E-10 -6.952810E-12
         9  14  5.054685E+04 -4.940373E+05  8.740449E+04 -1.316630E+06 -9.859450E-10 -7.311556E-11
         9  15  1.947908E+04 -4.771690E+05  5.303298E+04 -1.409773E+06  5.066664E-10 -2.118820E-10
         9  16 -1.938758E+06 -8.945888E+06 -1.811195E+06 -1.285030E+06 -3.447460E-09  1.230566E-07
         9  17 -1.690983E+06 -7.806840E+06 -1.268299E+06 -1.244505E+06  1.197559E-09 -3.745580E-09
         9  18 -1.433299E+06 -6.707470E+06 -9.528962E+05 -1.389990E+06 -3.041669E-10 -1.308021E-07
         9  19  2.254676E+06  8.048359E+06  2.148414E+06 -1.535004E+06 -1.014414E+05 -8.341107E+05
         9  20  1.789179E+06  6.871248E+06  1.441374E+06 -1.389433E+06 -3.403702E+05 -3.905803E+05
         9  21  1.470456E+06  5.792000E+06  1.058215E+06 -1.429697E+06 -3.965518E+05  5.187053E+04
         9  22  1.604054E+05 -4.824692E+05  1.704370E+05 -1.409236E+06 -1.035645E+05 -1.157869E+05
         9  23  5.067381E+04 -4.940003E+05  8.763416E+04 -1.316610E+06 -3.418906E+05 -7.229344E+04
         9  24  1.964815E+04 -4.771258E+05  5.333010E+04 -1.409764E+06 -3.965444E+05 -2.895457E+04
         9  25 -1.938650E+06 -8.945503E+06 -1.810504E+06 -1.285080E+06 -1.054228E+05  5.928405E+05
         9  26 -1.690841E+06 -7.806745E+06 -1.267967E+06 -1.244572E+06 -3.433503E+05  2.423514E+05
         9  27 -1.433127E+06 -6.707415E+06 -9.525778E+05 -1.389955E+06 -3.965419E+05 -1.089973E+05
        10   1  1.299446E+06  5.070768E+06  9.114302E+05 -1.438310E+06  3.677400E+05 -6.247502E+04
        10   2  1.027761E+06  3.936389E+06  6.914326E+05 -1.329700E+06  3.184300E+05 -1.287392E+05
        10   3  7.780855E+05  2.817148E+06  5.197979E+05 -1.420101E+06  2.469677E+05 -1.951235E+05
        10   4  1.866858E+04 -4.806556E+05  4.413257E+04 -1.412715E+06  3.676145E+05  2.130629E+04
        10   5  1.483856E+04 -4.817815E+05  3.595405E+04 -1.313171E+06  3.178904E+05  3.265114E+03
        10   6  2.479479E+04 -4.773104E+05  4.285203E+04 -1.412717E+06  2.459326E+05 -1.500917E+04
        10   7 -1.263615E+06 -6.001475E+06 -8.238778E+05 -1.387288E+06  3.674950E+05  1.043705E+05
        10   8 -9.989884E+05 -4.880365E+06 -6.198241E+05 -1.296719E+06  3.173551E+05  1.343725E+05
        10   9 -7.289763E+05 -3.760778E+06 -4.341481E+05 -1.405346E+06  2.448978E+05  1.641929E+05
        10  10  1.299299E+06  5.070728E+06  9.111690E+05 -1.438291E+06 -2.150571E-09  4.850902E-09
        10  11  1.027648E+06  3.936344E+06  6.912115E+05 -1.329668E+06 -3.106185E-09  3.408437E-09
        10  12  7.780100E+05  2.817091E+06  5.196126E+05 -1.420062E+06 -2.683412E-09  2.108124E-09
        10  13  1.852336E+04 -4.806924E+05  4.387774E+04 -1.412722E+06 -2.903766E-09 -1.396457E-10
        10  14  1.473007E+04 -4.818086E+05  3.576417E+04 -1.313172E+06  3.020999E-09 -7.856763E-11
        10  15  2.472981E+04 -4.773269E+05  4.273802E+04 -1.412714E+06  6.991246E-10 -1.557390E-10
        10  16 -1.263763E+06 -6.001523E+06 -8.241526E+05 -1.387319E+06 -3.219286E-09 -5.110803E-09
        10  17 -9.991016E+05 -4.880411E+06 -6.200479E+05 -1.296753E+06  5.184748E-10 -3.582448E-09
        10  18 -7.290481E+05 -3.760823E+06 -4.343122E+05 -1.405379E+06 -4.832098E-09 -2.616479E-09
        10  19  1.299446E+06  5.070768E+06  9.114302E+05 -1.438310E+06 -3.677400E+05  6.247502E+04
        10  20  1.027761E+06  3.936389E+06  6.914326E+05 -1.329700E+06 -3.184300E+05  1.287392E+05
        10  21  7.780855E+05  2.817148E+06  5.197979E+05 -1.420101E+06 -2.469677E+05  1.951235E+05
        10  22  1.866858E+04 -4.806556E+05  4.413257E+04 -1.412715E+06 -3.676145E+05 -2.130629E+04
        10  23  1.483856E+04 -4.817815E+05  3.595405E+04 -1.313171E+06 -3.178904E+05 -3.265114E+03
        10  24  2.479479E+04 -4.773104E+05  4.285203E+04 -1.412717E+06 -2.459326E+05  1.500917E+04
        10  25 -1.263615E+06 -6.001475E+06 -8.238778E+05 -1.387288E+06 -3.674950E+05 -1.043705E+05
        10  26 -9.989884E+05 -4.880365E+06 -6.198241E+05 -1.296719E+06 -3.173551E+05 -1.343725E+05
        10  27 -7.289763E+05 -3.760778E+06 -4.341481E+05 -1.405346E+06 -2.448978E+05 -1.641929E+05
        11   1  6.203266E+05  2.115717E+06  4.212925E+05 -1.423135E+06  1.977895E+05 -2.028287E+05
        11   2  3.957362E+05  9.795295E+05  2.914193E+05 -1.268113E+06  1.137596E+05 -2.502977E+05
        11   3  2.423958E+05 -1.331786E+05  2.097097E+05 -1.313677E+06  2.765244E+04 -2.977726E+05
        11   4  2.900577E+04 -4.730353E+05  5.093254E+04 -1.413087E+06  1.966588E+05 -2.244098E+04
        11   5  6.248948E+04 -4.831295E+05  8.349708E+04 -1.312454E+06  1.125400E+05 -6.552047E+04
        11   6  1.665373E+05 -4.718825E+05  1.610873E+05 -1.412336E+06  2.635014E+04 -1.086790E+05
        11   7 -5.626018E+05 -3.054958E+06 -3.194059E+05 -1.403066E+06  1.955307E+05  1.572287E+05
        11   8 -2.708269E+05 -1.943547E+06 -1.243263E+05 -1.356681E+06  1.112920E+05  1.188408E+05
        11   9  9.073012E+04 -8.103720E+05  1.126029E+05 -1.510939E+06  2.498721E+04  8.031584E+04
        11  10  6.202738E+05  2.115662E+06  4.211424E+05 -1.423103E+06 -1.780241E-10  6.304121E-09
        11  11  3.957056E+05  9.794589E+05  2.912777E+05 -1.268090E+06  1.288587E-10  3.172887E-09
        11  12  2.423712E+05 -1.332740E+05  2.095417E+05 -1.313670E+06 -2.007710E-09 -4.827953E-10
        11  13  2.896413E+04 -4.730462E+05  5.085899E+04 -1.413084E+06 -1.385971E-09 -2.379333E-10
        11  14  6.247475E+04 -4.831375E+05  8.346528E+04 -1.312448E+06 -1.066781E-10 -8.805167E-12
        11  15  1.665334E+05 -4.718954E+05  1.610638E+05 -1.412334E+06  4.378585E-10 -5.991675E-12
        11  16 -5.626496E+05 -3.054995E+06 -3.195248E+05 -1.403091E+06 -2.596677E-09 -6.785222E-09
        11  17 -2.708440E+05 -1.943566E+06 -1.243763E+05 -1.356692E+06 -3.012188E-10 -3.133429E-09
        11  18  9.072771E+04 -8.103791E+05  1.125895E+05 -1.510941E+06  1.624993E-09  7.074064E-10
        11  19  6.203266E+05  2.115717E+06  4.212925E+05 -1.423135E+06 -1.977895E+05  2.028287E+05
        11  20  3.957362E+05  9.795295E+05  2.914193E+05 -1.268113E+06 -1.137596E+05  2.502977E+05
        11  21  2.423958E+05 -1.331786E+05  2.097097E+05 -1.313677E+06 -2.765244E+04  2.977726E+05
        11  22  2.900577E+04 -4.730353E+05  5.093254E+04 -1.413087E+06 -1.966588E+05  2.244098E+04
        11  23  6.248948E+04 -4.831295E+05  8.349708E+04 -1.312454E+06 -1.125400E+05  6.552047E+04
        11  24  1.665373E+05 -4.718825E+05  1.610873E+05 -1.412336E+06 -2.635014E+04  1.086790E+05
        11  25 -5.626018E+05 -3.054958E+06 -3.194059E+05 -1.403066E+06 -1.955307E+05 -1.572287E+05
        11  26 -2.708269E+05 -1.943547E+06 -1.243263E+05 -1.356681E+06 -1.112920E+05 -1.188408E+05
        11  27  9.073012E+04 -8.103720E+05  1.126029E+05 -1.510939E+06 -2.498721E+04 -8.031584E+04
        12   1 -5.906267E+06 -1.748142E+06 -1.136152E+06 -2.049173E+06 -6.460790E+05 -2.382417E+05
        12   2 -5.705372E+06 -7.814310E+05 -5.235513E+05 -2.194254E+06 -4.163167E+05 -1.453615E+05
        12   3 -5.869104E+06 -8.438866E+05 -3.560527E+05 -2.126653E+06 -1.834063E+05 -6.085478E+04
        12   4 -5.573731E+06 -1.482851E+06 -1.016524E+06 -1.815746E+06 -6.433631E+05 -2.374081E+05
        12   5 -5.339869E+06 -6.065503E+05 -4.167456E+05 -2.057276E+06 -4.159425E+05 -1.452531E+05
        12   6 -5.469932E+06 -7.586317E+05 -2.600036E+05 -2.086205E+06 -1.853603E+05 -6.156113E+04
        12   7 -5.241038E+06 -1.217386E+06 -8.969012E+05 -1.582167E+06 -6.406455E+05 -2.365722E+05
        12   8 -4.974232E+06 -4.316363E+05 -3.099531E+05 -1.920217E+06 -4.155679E+05 -1.451445E+05
        12   9 -5.070597E+06 -6.733808E+05 -1.639627E+05 -2.045745E+06 -1.873157E+05 -6.226748E+04
        12  10 -5.906735E+06 -1.748317E+06 -1.137053E+06 -2.049298E+06 -3.449012E-10 -3.305417E-10
        12  11 -5.705565E+06 -7.815010E+05 -5.239206E+05 -2.194303E+06 -7.598052E-10 -2.262107E-10
        12  12 -5.869141E+06 -8.438997E+05 -3.561237E+05 -2.126662E+06  5.681150E-09  1.230525E-09
        12  13 -5.574195E+06 -1.483024E+06 -1.017417E+06 -1.815869E+06  2.026997E-09 -3.724161E-10
        12  14 -5.340062E+06 -6.066202E+05 -4.171141E+05 -2.057325E+06 -2.991496E-10 -1.276782E-09
        12  15 -5.469970E+06 -7.586451E+05 -2.600760E+05 -2.086214E+06  6.836938E-09 -1.267167E-09
        12  16 -5.241497E+06 -1.217558E+06 -8.977859E+05 -1.582290E+06  1.245461E-10  8.667984E-11
        12  17 -4.974424E+06 -4.317060E+05 -3.103207E+05 -1.920266E+06 -3.209707E-09  8.709488E-10
        12  18 -5.070636E+06 -6.733946E+05 -1.640367E+05 -2.045755E+06 -2.329962E-09  6.594527E-10
        12  19 -5.906267E+06 -1.748142E+06 -1.136152E+06 -2.049173E+06  6.460790E+05  2.382417E+05
        12  20 -5.705372E+06 -7.814310E+05 -5.235513E+05 -2.194254E+06  4.163167E+05  1.453615E+05
        12  21 -5.869104E+06 -8.438866E+05 -3.560527E+05 -2.126653E+06  1.834063E+05  6.085478E+04
        12  22 -5.573731E+06 -1.482851E+06 -1.016524E+06 -1.815746E+06  6.433631E+05  2.374081E+05
        12  23 -5.339869E+06 -6.065503E+05 -4.167456E+05 -2.057276E+06  4.159425E+05  1.452531E+05
        12  24 -5.469932E+06 -7.586317E+05 -2.600036E+05 -2.086205E+06  1.853603E+05  6.156113E+04
        12  25 -5.241038E+06 -1.217386E+06 -8.969012E+05 -1.582167E+06  6.406455E+05  2.365722E+05
        12  26 -4.974232E+06 -4.316363E+05 -3.099531E+05 -1.920217E+06  4.155679E+05  1.451445E+05
        12  27 -5.070597E+06 -6.733808E+05 -1.639627E+05 -2.045745E+06  1.873157E+05  6.226748E+04
        13   1 -5.627520E+06 -9.687925E+05 -2.699184E+05 -2.096037E+06 -1.458469E+05 -4.944502E+04
        13   2 -5.571543E+06 -7.946033E+05 -1.390411E+05 -2.074604E+06 -9.336210E+04 -3.113078E+04
        13   3 -5.520705E+06 -8.082783E+05 -8.411952E+04 -2.079634E+06 -4.043261E+04 -1.398880E+04
        13   4 -5.433562E+06 -8.776745E+05 -2.134936E+05 -2.025073E+06 -1.460341E+05 -4.952039E+04
        13   5 -5.423975E+06 -7.345319E+05 -9.795899E+04 -2.030157E+06 -9.387410E+04 -3.132284E+04
        13   6 -5.419447E+06 -7.791657E+05 -5.809964E+04 -2.061707E+06 -4.127377E+04 -1.430193E+04
        13   7 -5.239567E+06 -7.865479E+05 -1.570726E+05 -1.954087E+06 -1.462214E+05 -4.959579E+04
        13   8 -5.276386E+06 -6.744583E+05 -5.687904E+04 -1.985700E+06 -9.438623E+04 -3.151496E+04
        13   9 -5.318179E+06 -7.500535E+05 -3.208061E+04 -2.043778E+06 -4.211509E+04 -1.461507E+04
        13  10 -5.627544E+06 -9.688009E+05 -2.699634E+05 -2.096043E+06 -1.487470E-09 -3.944842E-10
        13  11 -5.571552E+06 -7.946068E+05 -1.390595E+05 -2.074607E+06 -2.298542E-09  7.211611E-10
        13  12 -5.520707E+06 -8.082789E+05 -8.412299E+04 -2.079635E+06  7.009132E-09 -1.252118E-09
        13  13 -5.433586E+06 -8.776829E+05 -2.135388E+05 -2.025079E+06 -2.438594E-09 -6.694327E-10
        13  14 -5.423985E+06 -7.345354E+05 -9.797758E+04 -2.030160E+06 -5.972271E-09 -1.014807E-09
        13  15 -5.419449E+06 -7.791664E+05 -5.810326E+04 -2.061708E+06  1.740465E-09 -3.031391E-09
        13  16 -5.239591E+06 -7.865563E+05 -1.571178E+05 -1.954093E+06  4.860166E-09  1.984776E-09
        13  17 -5.276396E+06 -6.744618E+05 -5.689783E+04 -1.985703E+06 -7.815735E-09  3.480458E-10
        13  18 -5.318181E+06 -7.500542E+05 -3.208439E+04 -2.043779E+06 -7.937100E-09 -4.420371E-09
        13  19 -5.627520E+06 -9.687925E+05 -2.699184E+05 -2.096037E+06  1.458469E+05  4.944502E+04
        13  20 -5.571543E+06 -7.946033E+05 -1.390411E+05 -2.074604E+06  9.336210E+04  3.113078E+04
        13  21 -5.520705E+06 -8.082783E+05 -8.411952E+04 -2.079634E+06  4.043261E+04  1.398880E+04
        13  22 -5.433562E+06 -8.776745E+05 -2.134936E+05 -2.025073E+06  1.460341E+05  4.952039E+04
        13  23 -5.423975E+06 -7.345319E+05 -9.795899E+04 -2.030157E+06  9.387410E+04  3.132284E+04
        13  24 -5.419447E+06 -7.791657E+05 -5.809964E+04 -2.061707E+06  4.127377E+04  1.430193E+04
        13  25 -5.239567E+06 -7.865479E+05 -1.570726E+05 -1.954087E+06  1.462214E+05  4.959579E+04
        13  26 -5.276386E+06 -6.744583E+05 -5.687904E+04 -1.985700E+06  9.438623E+04  3.151496E+04
        13  27 -5.318179E+06 -7.500535E+05 -3.208061E+04 -2.043778E+06  4.211509E+04  1.461507E+04
        14   1 -5.339395E+06 -7.687551E+05 -2.590251E+04 -2.035008E+06 -3.154535E+04 -1.241474E+04
        14   2 -5.305236E+06 -7.038149E+05  1.256429E+04 -1.992358E+06 -1.898843E+04 -1.017504E+04
        14   3 -5.226581E+06 -7.102779E+05  3.721375E+04 -2.006254E+06 -6.464415E+03 -7.840767E+03
        14   4 -5.414290E+06 -7.948041E+05 -4.608462E+04 -2.052927E+06 -3.217744E+04 -1.265073E+04
        14   5 -5.435582E+06 -7.525015E+05 -2.287441E+04 -2.027100E+06 -1.959450E+04 -1.040138E+04
        14   6 -5.412383E+06 -7.816100E+05 -1.350207E+04 -2.057821E+06 -7.045650E+03 -8.057936E+03
        14   7 -5.489180E+06 -8.208530E+05 -6.626730E+04 -2.070845E+06 -3.280944E+04 -1.288669E+04
        14   8 -5.565911E+06 -8.011874E+05 -5.831474E+04 -2.061836E+06 -2.020044E+04 -1.062766E+04
        14   9 -5.598153E+06 -8.529399E+05 -6.422113E+04 -2.109373E+06 -7.626694E+03 -8.275031E+03
        14  10 -5.339397E+06 -7.687556E+05 -2.590469E+04 -2.035008E+06  4.983518E-09 -3.177222E-09
        14  11 -5.305237E+06 -7.038151E+05  1.256341E+04 -1.992358E+06 -2.980344E-09 -8.438141E-10
        14  12 -5.226581E+06 -7.102780E+05  3.721355E+04 -2.006254E+06 -2.217544E-09  8.266179E-10
        14  13 -5.414292E+06 -7.948045E+05 -4.608689E+04 -2.052928E+06  5.087907E-09 -2.634676E-09
        14  14 -5.435582E+06 -7.525017E+05 -2.287534E+04 -2.027100E+06 -2.810103E-11  1.618628E-09
        14  15 -5.412384E+06 -7.816101E+05 -1.350228E+04 -2.057821E+06  5.867291E-09  1.940376E-10
        14  16 -5.489181E+06 -8.208535E+05 -6.626966E+04 -2.070845E+06  6.572602E-10 -2.530433E-09
        14  17 -5.565911E+06 -8.011876E+05 -5.831573E+04 -2.061836E+06 -1.536858E-09  1.693727E-10
        14  18 -5.598153E+06 -8.529400E+05 -6.422137E+04 -2.109373E+06  1.373645E-09  6.115271E-10
        14  19 -5.339395E+06 -7.687551E+05 -2.590251E+04 -2.035008E+06  3.154535E+04  1.241474E+04
        14  20 -5.305236E+06 -7.038149E+05  1.256429E+04 -1.992358E+06  1.898843E+04  1.017504E+04
        14  21 -5.226581E+06 -7.102779E+05  3.721375E+04 -2.006254E+06  6.464415E+03  7.840767E+03
        14  22 -5.414290E+06 -7.948041E+05 -4.608462E+04 -2.052927E+06  3.217744E+04  1.265073E+04
        14  23 -5.435582E+06 -7.525015E+05 -2.287441E+04 -2.027100E+06  1.959450E+04  1.040138E+04
        14  24 -5.412383E+06 -7.816100E+05 -1.350207E+04 -2.057821E+06  7.045650E+03  8.057936E+03
        14  25 -5.489180E+06 -8.208530E+05 -6.626730E+04 -2.070845E+06  3.280944E+04  1.288669E+04
        14  26 -5.565911E+06 -8.011874E+05 -5.831474E+04 -2.061836E+06  2.020044E+04  1.062766E+04
        14  27 -5.598153E+06 -8.529399E+05 -6.422113E+04 -2.109373E+06  7.626694E+03  8.275031E+03
        15   1 -5.079957E+06 -6.547195E+05  8.062123E+04 -1.963098E+06 -3.969482E+03 -8.319346E+03
        15   2 -5.056879E+06 -6.163480E+05  9.632238E+04 -1.928947E+06 -1.786443E+02 -9.059022E+03
        15   3 -4.994866E+06 -6.205739E+05  1.090803E+05 -1.939835E+06  3.403344E+03 -9.233236E+03
        15   4 -5.414417E+06 -7.806527E+05 -1.070240E+04 -2.053248E+06 -4.597176E+03 -8.554168E+03
        15   5 -5.433762E+06 -7.586342E+05 -6.423574E+03 -2.030987E+06 -6.441329E+02 -9.233599E+03
        15   6 -5.414207E+06 -7.792484E+05 -5.218387E+03 -2.053767E+06  3.099774E+03 -9.347484E+03
        15   7 -5.748768E+06 -9.065793E+05 -1.020359E+05 -2.143354E+06 -5.224492E+03 -8.788849E+03
        15   8 -5.810508E+06 -9.009121E+05 -1.091823E+05 -2.132971E+06 -1.109307E+03 -9.408059E+03
        15   9 -5.833378E+06 -9.379128E+05 -1.195332E+05 -2.167628E+06  2.796432E+03 -9.461647E+03
        15  10 -5.079957E+06 -6.547196E+05  8.062107E+04 -1.963098E+06 -2.906323E-09  2.534983E-09
        15  11 -5.056879E+06 -6.163481E+05  9.632222E+04 -1.928947E+06 -2.804190E-09 -1.046176E-09
        15  12 -4.994866E+06 -6.205740E+05  1.090802E+05 -1.939835E+06  1.279235E-09  1.942798E-10
        15  13 -5.414417E+06 -7.806527E+05 -1.070258E+04 -2.053248E+06  6.884105E-09 -6.122224E-10
        15  14 -5.433762E+06 -7.586342E+05 -6.423735E+03 -2.030987E+06  5.816920E-10 -2.926769E-10
        15  15 -5.414207E+06 -7.792485E+05 -5.218569E+03 -2.053767E+06 -9.031185E-10 -7.639712E-10
        15  16 -5.748768E+06 -9.065793E+05 -1.020361E+05 -2.143354E+06 -8.279371E-10 -1.537419E-09
        15  17 -5.810508E+06 -9.009122E+05 -1.091825E+05 -2.132971E+06 -2.381195E-09  8.060845E-10
        15  18 -5.833378E+06 -9.379129E+05 -1.195334E+05 -2.167628E+06  2.757616E-09 -5.675667E-10
        15  19 -5.079957E+06 -6.547195E+05  8.062123E+04 -1.963098E+06  3.969482E+03  8.319346E+03
        15  20 -5.056879E+06 -6.163480E+05  9.632238E+04 -1.928947E+06  1.786443E+02  9.059022E+03
        15  21 -4.994866E+06 -6.205739E+05  1.090803E+05 -1.939835E+06 -3.403344E+03  9.233236E+03
        15  22 -5.414417E+06 -7.806527E+05 -1.070240E+04 -2.053248E+06  4.597176E+03  8.554168E+03
        15  23 -5.433762E+06 -7.586342E+05 -6.423574E+03 -2.030987E+06  6.441329E+02  9.233599E+03
        15  24 -5.414207E+06 -7.792484E+05 -5.218387E+03 -2.053767E+06 -3.099774E+03  9.347484E+03
        15  25 -5.748768E+06 -9.065793E+05 -1.020359E+05 -2.143354E+06  5.224492E+03  8.788849E+03
        15  26 -5.810508E+06 -9.009121E+05 -1.091823E+05 -2.132971E+06  1.109307E+03  9.408059E+03
        15  27 -5.833378E+06 -9.379128E+05 -1.195332E+05 -2.167628E+06 -2.796432E+03  9.461647E+03
        16   1 -4.910013E+06 -5.816077E+05  1.337876E+05 -1.909836E+06  4.656061E+03 -9.611958E+03
        16   2 -4.900847E+06 -5.657554E+05  1.370416E+05 -1.895263E+06  8.165272E+03 -9.515161E+03
        16   3 -4.875541E+06 -5.691575E+05  1.374480E+05 -1.898719E+06  1.137207E+04 -8.609483E+03
        16   4 -5.419291E+06 -7.739822E+05 -5.208050E+03 -2.047808E+06  4.228491E+03 -9.772981E+03
        16   5 -5.427460E+06 -7.651716E+05 -6.630873E+03 -2.038479E+06  7.969672E+03 -9.589423E+03
        16   6 -5.419537E+06 -7.756643E+05 -1.108835E+04 -2.047179E+06  1.140822E+04 -8.596689E+03
        16   7 -5.928316E+06 -9.663418E+05 -1.442270E+05 -2.185677E+06  3.801310E+03 -9.933860E+03
        16   8 -5.953805E+06 -9.645717E+05 -1.503285E+05 -2.181584E+06  7.774255E+03 -9.663618E+03
        16   9 -5.963249E+06 -9.821540E+05 -1.596519E+05 -2.195520E+06  1.144434E+04 -8.583909E+03
        16  10 -4.910013E+06 -5.816078E+05  1.337874E+05 -1.909836E+06 -1.409413E-09 -7.514501E-10
        16  11 -4.900847E+06 -5.657555E+05  1.370413E+05 -1.895263E+06 -5.467122E-09  9.977723E-10
        16  12 -4.875541E+06 -5.691576E+05  1.374476E+05 -1.898719E+06  2.207604E-09 -5.219993E-10
        16  13 -5.419291E+06 -7.739824E+05 -5.208262E+03 -2.047808E+06 -2.239522E-09  1.684015E-10
        16  14 -5.427460E+06 -7.651717E+05 -6.631165E+03 -2.038479E+06 -3.884210E-09  9.584632E-10
        16  15 -5.419538E+06 -7.756644E+05 -1.108873E+04 -2.047178E+06  2.913800E-09  7.789148E-10
        16  16 -5.928316E+06 -9.663419E+05 -1.442272E+05 -2.185677E+06 -2.011610E-10  1.377451E-09
        16  17 -5.953805E+06 -9.645719E+05 -1.503288E+05 -2.181584E+06 -3.406909E-09  1.788042E-09
        16  18 -5.963249E+06 -9.821541E+05 -1.596523E+05 -2.195520E+06 -7.018312E-10 -3.227159E-11
        16  19 -4.910013E+06 -5.816077E+05  1.337876E+05 -1.909836E+06 -4.656061E+03  9.611958E+03
        16  20 -4.900847E+06 -5.657554E+05  1.370416E+05 -1.895263E+06 -8.165272E+03  9.515161E+03
        16  21 -4.875541E+06 -5.691575E+05  1.374480E+05 -1.898719E+06 -1.137207E+04  8.609483E+03
        16  22 -5.419291E+06 -7.739822E+05 -5.208050E+03 -2.047808E+06 -4.228491E+03  9.772981E+03
        16  23 -5.427460E+06 -7.651716E+05 -6.630873E+03 -2.038479E+06 -7.969672E+03  9.589423E+03
        16  24 -5.419537E+06 -7.756643E+05 -1.108835E+04 -2.047179E+06 -1.140822E+04  8.596689E+03
        16  25 -5.928316E+06 -9.663418E+05 -1.442270E+05 -2.185677E+06 -3.801310E+03  9.933860E+03
        16  26 -5.953805E+06 -9.645717E+05 -1.503285E+05 -2.181584E+06 -7.774255E+03  9.663618E+03
        16  27 -5.963249E+06 -9.821540E+05 -1.596519E+05 -2.195520E+06 -1.144434E+04  8.583909E+03
        17   1 -4.872714E+06 -5.586796E+05  1.369550E+05 -1.891830E+06  1.359752E+04 -7.852118E+03
        17   2 -4.877669E+06 -5.646167E+05  1.237583E+05 -1.899548E+06  2.561268E+04 -3.270412E+03
        17   3 -4.901478E+06 -5.783102E+05  9.660787E+04 -1.889679E+06  3.730459E+04  2.163373E+03
        17   4 -5.426496E+06 -7.673980E+05 -1.397735E+04 -2.041419E+06  1.348151E+04 -7.896643E+03
        17   5 -5.418057E+06 -7.703480E+05 -2.388910E+04 -2.047635E+06  2.573370E+04 -3.225550E+03
        17   6 -5.428529E+06 -7.811124E+05 -4.795304E+04 -2.036264E+06  3.766277E+04  2.297983E+03
        17   7 -5.979980E+06 -9.760995E+05 -1.649376E+05 -2.190886E+06  1.336561E+04 -7.941128E+03
        17   8 -5.958162E+06 -9.760616E+05 -1.715630E+05 -2.195605E+06  2.585458E+04 -3.180735E+03
        17   9 -5.955310E+06 -9.838960E+05 -1.925392E+05 -2.182735E+06  3.802059E+04  2.432458E+03
        17  10 -4.872715E+06 -5.586797E+05  1.369546E+05 -1.891830E+06  3.929692E-09  1.864460E-11
        17  11 -4.877670E+06 -5.646169E+05  1.237571E+05 -1.899548E+06 -2.528769E-09  2.380464E-09
        17  12 -4.901479E+06 -5.783106E+05  9.660522E+04 -1.889680E+06 -1.640642E-09  1.584634E-10
        17  13 -5.426496E+06 -7.673981E+05 -1.397781E+04 -2.041419E+06 -4.131421E-11  8.976077E-10
        17  14 -5.418058E+06 -7.703482E+05 -2.389037E+04 -2.047635E+06  1.120998E-09  6.374588E-10
        17  15 -5.428530E+06 -7.811128E+05 -4.795574E+04 -2.036264E+06 -1.171730E-09  6.468123E-10
        17  16 -5.979980E+06 -9.760996E+05 -1.649380E+05 -2.190886E+06 -3.848828E-09  1.116794E-09
        17  17 -5.958163E+06 -9.760618E+05 -1.715643E+05 -2.195605E+06  3.197647E-09  1.958475E-09
        17  18 -5.955311E+06 -9.838964E+05 -1.925419E+05 -2.182735E+06  4.739798E-10  9.408533E-10
        17  19 -4.872714E+06 -5.586796E+05  1.369550E+05 -1.891830E+06 -1.359752E+04  7.852118E+03
        17  20 -4.877669E+06 -5.646167E+05  1.237583E+05 -1.899548E+06 -2.561268E+04  3.270412E+03
        17  21 -4.901478E+06 -5.783102E+05  9.660787E+04 -1.889679E+06 -3.730459E+04 -2.163373E+03
        17  22 -5.426496E+06 -7.673980E+05 -1.397735E+04 -2.041419E+06 -1.348151E+04  7.896643E+03
        17  23 -5.418057E+06 -7.703480E+05 -2.388910E+04 -2.047635E+06 -2.573370E+04  3.225550E+03
        17  24 -5.428529E+06 -7.811124E+05 -4.795304E+04 -2.036264E+06 -3.766277E+04 -2.297983E+03
        17  25 -5.979980E+06 -9.760995E+05 -1.649376E+05 -2.190886E+06 -1.336561E+04  7.941128E+03
        17  26 -5.958162E+06 -9.760616E+05 -1.715630E+05 -2.195605E+06 -2.585458E+04  3.180735E+03
        17  27 -5.955310E+06 -9.838960E+05 -1.925392E+05 -2.182735E+06 -3.802059E+04 -2.432458E+03
        18   1 -4.978006E+06 -5.935989E+05  6.356067E+04 -1.922825E+06  4.608055E+04  6.185091E+03
        18   2 -4.986411E+06 -5.965780E+05  1.157540E+04 -1.940618E+06  9.926438E+04  2.766252E+04
        18   3 -5.090601E+06 -7.037862E+05 -1.189153E+05 -1.881652E+06  1.521427E+05  4.992605E+04
        18   4 -5.439345E+06 -7.595353E+05 -6.050874E+04 -2.039385E+06  4.628308E+04  6.262024E+03
        18   5 -5.398964E+06 -7.583884E+05 -1.020914E+05 -2.058488E+06  9.966035E+04  2.781130E+04
        18   6 -5.454443E+06 -8.615647E+05 -2.223707E+05 -2.000819E+06  1.527367E+05  5.014553E+04
        18   7 -5.900478E+06 -9.254650E+05 -1.845971E+05 -2.155868E+06  4.648543E+04  6.338897E+03
        18   8 -5.811352E+06 -9.201859E+05 -2.157740E+05 -2.176286E+06  1.000560E+05  2.795995E+04
        18   9 -5.818156E+06 -1.019324E+06 -3.258389E+05 -2.119920E+06  1.533302E+05  5.036480E+04
        18  10 -4.978009E+06 -5.935995E+05  6.355657E+04 -1.922825E+06  1.768450E-09  1.039776E-09
        18  11 -4.986422E+06 -5.965815E+05  1.155526E+04 -1.940620E+06  7.177711E-11  1.618879E-09
        18  12 -5.090627E+06 -7.037952E+05 -1.189639E+05 -1.881658E+06  2.280675E-09 -1.374898E-09
        18  13 -5.439347E+06 -7.595360E+05 -6.051288E+04 -2.039385E+06 -3.279445E-10  2.352253E-10
        18  14 -5.398975E+06 -7.583919E+05 -1.021117E+05 -2.058491E+06 -9.408087E-12  7.660978E-10
        18  15 -5.454469E+06 -8.615738E+05 -2.224197E+05 -2.000826E+06  9.221860E-11 -8.958277E-10
        18  16 -5.900481E+06 -9.254656E+05 -1.846013E+05 -2.155868E+06  1.295166E-09  5.643615E-10
        18  17 -5.811363E+06 -9.201895E+05 -2.157945E+05 -2.176289E+06 -4.038239E-09  1.733301E-09
        18  18 -5.818182E+06 -1.019333E+06 -3.258884E+05 -2.119926E+06 -3.282584E-09  2.343222E-09
        18  19 -4.978006E+06 -5.935989E+05  6.356067E+04 -1.922825E+06 -4.608055E+04 -6.185091E+03
        18  20 -4.986411E+06 -5.965780E+05  1.157540E+04 -1.940618E+06 -9.926438E+04 -2.766252E+04
        18  21 -5.090601E+06 -7.037862E+05 -1.189153E+05 -1.881652E+06 -1.521427E+05 -4.992605E+04
        18  22 -5.439345E+06 -7.595353E+05 -6.050874E+04 -2.039385E+06 -4.628308E+04 -6.262024E+03
        18  23 -5.398964E+06 -7.583884E+05 -1.020914E+05 -2.058488E+06 -9.966035E+04 -2.781130E+04
        18  24 -5.454443E+06 -8.615647E+05 -2.223707E+05 -2.000819E+06 -1.527367E+05 -5.014553E+04
        18  25 -5.900478E+06 -9.254650E+05 -1.845971E+05 -2.155868E+06 -4.648543E+04 -6.338897E+03
        18  26 -5.811352E+06 -9.201859E+05 -2.157740E+05 -2.176286E+06 -1.000560E+05 -2.795995E+04
        18  27 -5.818156E+06 -1.019324E+06 -3.258389E+05 -2.119920E+06 -1.533302E+05 -5.036480E+04
        19   1 -5.202478E+06 -6.970200E+05 -2.056046E+05 -2.055879E+06  1.919649E+05  6.624247E+04
        19   2 -5.154209E+06 -5.268224E+05 -3.836821E+05 -2.004655E+06  4.297894E+05  1.589350E+05
        19   3 -5.579886E+06 -1.333469E+06 -1.023136E+06 -1.624897E+06  6.671259E+05  2.528767E+05
        19   4 -5.492031E+06 -7.382061E+05 -2.709027E+05 -2.065242E+06  1.923110E+05  6.640046E+04
        19   5 -5.310442E+06 -6.254047E+05 -4.341004E+05 -2.087080E+06  4.304255E+05  1.591430E+05
        19   6 -5.602991E+06 -1.489695E+06 -1.058981E+06 -1.780308E+06  6.681092E+05  2.530518E+05
        19   7 -5.781493E+06 -7.793898E+05 -3.362028E+05 -2.074610E+06  1.926568E+05  6.655849E+04
        19   8 -5.466646E+06 -7.239688E+05 -4.845207E+05 -2.169481E+06  4.310614E+05  1.593508E+05
        19   9 -5.626043E+06 -1.645802E+06 -1.094814E+06 -1.935698E+06  6.690924E+05  2.532263E+05
        19  10 -5.202519E+06 -6.970347E+05 -2.056829E+05 -2.055889E+06  9.027254E-10 -9.445967E-10
        19  11 -5.154416E+06 -5.268999E+05 -3.840806E+05 -2.004710E+06 -3.080514E-09  2.402843E-09
        19  12 -5.580385E+06 -1.333660E+06 -1.024102E+06 -1.625034E+06 -7.071032E-11  1.430823E-10
        19  13 -5.492072E+06 -7.382209E+05 -2.709813E+05 -2.065252E+06 -3.402086E-10  7.409091E-10
        19  14 -5.310649E+06 -6.254825E+05 -4.345002E+05 -2.087135E+06  1.387062E-09  6.569189E-09
        19  15 -5.603491E+06 -1.489886E+06 -1.059950E+06 -1.780445E+06  3.041173E-09 -7.827797E-10
        19  16 -5.781535E+06 -7.794047E+05 -3.362817E+05 -2.074620E+06 -2.547683E-09  3.072393E-09
        19  17 -5.466854E+06 -7.240468E+05 -4.849218E+05 -2.169537E+06  4.164467E-09 -2.269909E-11
        19  18 -5.626545E+06 -1.645993E+06 -1.095786E+06 -1.935835E+06  1.034904E-09 -2.823213E-10
        19  19 -5.202478E+06 -6.970200E+05 -2.056046E+05 -2.055879E+06 -1.919649E+05 -6.624247E+04
        19  20 -5.154209E+06 -5.268224E+05 -3.836821E+05 -2.004655E+06 -4.297894E+05 -1.589350E+05
        19  21 -5.579886E+06 -1.333469E+06 -1.023136E+06 -1.624897E+06 -6.671259E+05 -2.528767E+05
        19  22 -5.492031E+06 -7.382061E+05 -2.709027E+05 -2.065242E+06 -1.923110E+05 -6.640046E+04
        19  23 -5.310442E+06 -6.254047E+05 -4.341004E+05 -2.087080E+06 -4.304255E+05 -1.591430E+05
        19  24 -5.602991E+06 -1.489695E+06 -1.058981E+06 -1.780308E+06 -6.681092E+05 -2.530518E+05
        19  25 -5.781493E+06 -7.793898E+05 -3.362028E+05 -2.074610E+06 -1.926568E+05 -6.655849E+04
        19  26 -5.466646E+06 -7.239688E+05 -4.845207E+05 -2.169481E+06 -4.310614E+05 -1.593508E+05
        19  27 -5.626043E+06 -1.645802E+06 -1.094814E+06 -1.935698E+06 -6.690924E+05 -2.532263E+05
        20   1 -2.312461E+06  1.771308E+04  2.298409E+04  2.884887E+03  1.566556E+04  7.305570E-02
        20   2 -2.315914E+06 -3.832956E+03  9.851568E+03  7.514012E+02  1.029639E+04  1.250655E-02
        20   3 -2.312483E+06 -6.726672E+02  6.401012E+03 -1.382043E+03  4.927285E+03 -1.100797E-02
        20   4 -2.312461E+06  1.771306E+04  2.298409E+04  3.598980E-08  1.566556E+04 -8.212562E-10
        20   5 -2.315914E+06 -3.832957E+03  9.851568E+03  3.438876E-08  1.029639E+04 -5.334417E-10
        20   6 -2.312483E+06 -6.726708E+02  6.401012E+03  3.278633E-08  4.927285E+03  2.855915E-09
        20   7 -2.312461E+06  1.771308E+04  2.298409E+04 -2.884887E+03  1.566556E+04 -7.305570E-02
        20   8 -2.315914E+06 -3.832956E+03  9.851568E+03 -7.514012E+02  1.029639E+04 -1.250655E-02
        20   9 -2.312483E+06 -6.726672E+02  6.401012E+03  1.382043E+03  4.927285E+03  1.100798E-02
        20  10 -2.312461E+06  1.771301E+04  2.298363E+04  2.884887E+03 -7.083134E-10 -4.617031E-10
        20  11 -2.315914E+06 -3.832985E+03  9.851368E+03  7.514012E+02  7.510356E-10  4.374737E-11
        20  12 -2.312483E+06 -6.726737E+02  6.400967E+03 -1.382043E+03  1.619395E-09  3.230641E-11
        20  13 -2.312461E+06  1.771300E+04  2.298362E+04 -7.052355E-09  1.422850E-10  5.879634E-11
        20  14 -2.315914E+06 -3.832986E+03  9.851368E+03  3.439296E-08 -1.075979E-09  2.636796E-10
        20  15 -2.312483E+06 -6.726773E+02  6.400966E+03  1.558240E-08 -1.542824E-09  5.365005E-10
        20  16 -2.312461E+06  1.771301E+04  2.298363E+04 -2.884887E+03 -8.873895E-10  4.013042E-11
        20  17 -2.315914E+06 -3.832985E+03  9.851368E+03 -7.514012E+02 -2.431689E-09  2.138660E-10
        20  18 -2.312483E+06 -6.726737E+02  6.400967E+03  1.382043E+03  1.119457E-09  2.300667E-10
        20  19 -2.312461E+06  1.771308E+04  2.298409E+04  2.884887E+03 -1.566556E+04 -7.305570E-02
        20  20 -2.315914E+06 -3.832956E+03  9.851568E+03  7.514012E+02 -1.029639E+04 -1.250655E-02
        20  21 -2.312483E+06 -6.726672E+02  6.401012E+03 -1.382043E+03 -4.927285E+03  1.100797E-02
        20  22 -2.312461E+06  1.771306E+04  2.298409E+04  1.558588E-09 -1.566556E+04  7.259774E-10
        20  23 -2.315914E+06 -3.832957E+03  9.851568E+03  2.578841E-08 -1.029639E+04  9.145965E-10
        20  24 -2.312483E+06 -6.726708E+02  6.401012E+03  3.281152E-08 -4.927285E+03 -2.063955E-09
        20  25 -2.312461E+06  1.771308E+04  2.298409E+04 -2.884887E+03 -1.566556E+04  7.305570E-02
        20  26 -2.315914E+06 -3.832956E+03  9.851568E+03 -7.514012E+02 -1.029639E+04  1.250655E-02
        20  27 -2.312483E+06 -6.726672E+02  6.401012E+03  1.382043E+03 -4.927285E+03 -1.100798E-02
        21   1 -2.313772E+06  2.522729E+03  5.281388E+03  3.889138E+02  3.883030E+03  2.441202E-03
        21   2 -2.314302E+06 -5.480134E+02  2.544305E+03  9.332512E+01  2.555067E+03  3.854598E-04
        21   3 -2.313776E+06 -9.399650E+01  1.555425E+03 -2.022679E+02  1.227085E+03 -4.012175E-04
        21   4 -2.313772E+06  2.522729E+03  5.281388E+03 -1.781896E-09  3.883030E+03  2.636076E-09
        21   5 -2.314302E+06 -5.480134E+02  2.544305E+03 -2.549397E-08  2.555067E+03 -1.131082E-09
        21   6 -2.313776E+06 -9.399657E+01  1.555425E+03  2.287445E-08  1.227085E+03 -7.482132E-10
        21   7 -2.313772E+06  2.522729E+03  5.281388E+03 -3.889138E+02  3.883030E+03 -2.441198E-03
        21   8 -2.314302E+06 -5.480134E+02  2.544305E+03 -9.332512E+01  2.555067E+03 -3.854630E-04
        21   9 -2.313776E+06 -9.399650E+01  1.555425E+03  2.022679E+02  1.227085E+03  4.012171E-04
        21  10 -2.313773E+06  2.522725E+03  5.281359E+03  3.889138E+02 -3.052380E-10 -1.069535E-10
        21  11 -2.314302E+06 -5.480151E+02  2.544293E+03  9.332512E+01 -1.697710E-09  2.123634E-10
        21  12 -2.313776E+06 -9.399690E+01  1.555422E+03 -2.022679E+02  2.013370E-10 -5.882370E-10
        21  13 -2.313773E+06  2.522724E+03  5.281359E+03 -5.343263E-08  2.503254E-09  2.372392E-10
        21  14 -2.314302E+06 -5.480151E+02  2.544293E+03  8.929120E-09  2.389791E-10 -2.717589E-10
        21  15 -2.313776E+06 -9.399698E+01  1.555422E+03  4.116172E-08  5.231124E-10 -3.948157E-10
        21  16 -2.313773E+06  2.522725E+03  5.281359E+03 -3.889138E+02  8.600209E-10 -9.392626E-11
        21  17 -2.314302E+06 -5.480151E+02  2.544293E+03 -9.332512E+01  8.981640E-10 -4.912705E-10
        21  18 -2.313776E+06 -9.399690E+01  1.555422E+03  2.022679E+02  1.447174E-09 -1.319808E-10
        21  19 -2.313772E+06  2.522729E+03  5.281388E+03  3.889138E+02 -3.883030E+03 -2.441202E-03
        21  20 -2.314302E+06 -5.480134E+02  2.544305E+03  9.332512E+01 -2.555067E+03 -3.854584E-04
        21  21 -2.313776E+06 -9.399650E+01  1.555425E+03 -2.022679E+02 -1.227085E+03  4.012180E-04
        21  22 -2.313772E+06  2.522729E+03  5.281388E+03 -1.785573E-09 -3.883030E+03 -1.873498E-09
        21  23 -2.314302E+06 -5.480134E+02  2.544305E+03  6.057084E-08 -2.555067E+03  8.203431E-10
        21  24 -2.313776E+06 -9.399657E+01  1.555425E+03  2.394832E-08 -1.227085E+03 -1.234327E-10
        21  25 -2.313772E+06  2.522729E+03  5.281388E+03 -3.889138E+02 -3.883030E+03  2.441198E-03
        21  26 -2.314302E+06 -5.480134E+02  2.544305E+03 -9.332512E+01 -2.555067E+03  3.854612E-04
        21  27 -2.313776E+06 -9.399650E+01  1.555425E+03  2.022679E+02 -1.227085E+03 -4.012181E-04
        22   1 -2.313974E+06  3.569899E+02  1.231022E+03  4.916447E+01  9.768453E+02  7.763496E-05
        22   2 -2.314057E+06 -7.736276E+01  6.135118E+02  9.548146E+00  6.639062E+02  1.024622E-05
        22   3 -2.313974E+06 -1.581603E+01  3.242859E+02 -3.006819E+01  3.509671E+02 -1.705571E-05
        22   4 -2.313974E+06  3.569899E+02  1.231022E+03  8.456655E-08  9.768453E+02 -3.991676E-10
        22   5 -2.314057E+06 -7.736276E+01  6.135118E+02 -3.931475E-08  6.639062E+02 -1.094954E-09
        22   6 -2.313974E+06 -1.581603E+01  3.242859E+02  1.864326E-08  3.509671E+02  1.528563E-09
        22   7 -2.313974E+06  3.569899E+02  1.231022E+03 -4.916447E+01  9.768453E+02 -7.763613E-05
        22   8 -2.314057E+06 -7.736276E+01  6.135118E+02 -9.548146E+00  6.639062E+02 -1.024913E-05
        22   9 -2.313974E+06 -1.581603E+01  3.242859E+02  3.006819E+01  3.509671E+02  1.706014E-05
        22  10 -2.313974E+06  3.569897E+02  1.231020E+03  4.916447E+01  1.614134E-09 -6.354494E-10
        22  11 -2.314057E+06 -7.736288E+01  6.135110E+02  9.548146E+00  1.491983E-09  6.796183E-11
        22  12 -2.313974E+06 -1.581606E+01  3.242856E+02 -3.006819E+01 -1.426640E-09  8.270706E-10
        22  13 -2.313974E+06  3.569897E+02  1.231020E+03  5.874224E-08 -2.219126E-09 -3.195316E-10
        22  14 -2.314057E+06 -7.736288E+01  6.135110E+02  1.233963E-08 -2.633905E-09 -3.081007E-10
        22  15 -2.313974E+06 -1.581606E+01  3.242856E+02 -2.975699E-08 -1.419743E-09  7.046071E-10
        22  16 -2.313974E+06  3.569897E+02  1.231020E+03 -4.916447E+01 -5.251893E-10 -4.058598E-10
        22  17 -2.314057E+06 -7.736288E+01  6.135110E+02 -9.548146E+00 -1.491983E-09 -2.239034E-10
        22  18 -2.313974E+06 -1.581606E+01  3.242856E+02  3.006819E+01  2.653891E-09  7.806165E-11
        22  19 -2.313974E+06  3.569899E+02  1.231022E+03  4.916447E+01 -9.768453E+02 -7.763374E-05
        22  20 -2.314057E+06 -7.736276E+01  6.135118E+02  9.548146E+00 -6.639062E+02 -1.024534E-05
        22  21 -2.313974E+06 -1.581603E+01  3.242859E+02 -3.006819E+01 -3.509671E+02  1.705875E-05
        22  22 -2.313974E+06  3.569899E+02  1.231022E+03  4.152096E-08 -9.768453E+02 -2.885357E-10
        22  23 -2.314057E+06 -7.736276E+01  6.135118E+02 -3.929796E-08 -6.639062E+02  3.916812E-10
        22  24 -2.313974E+06 -1.581603E+01  3.242859E+02  2.083928E-08 -3.509671E+02 -6.621102E-11
        22  25 -2.313974E+06  3.569899E+02  1.231022E+03 -4.916447E+01 -9.768453E+02  7.763310E-05
        22  26 -2.314057E+06 -7.736276E+01  6.135118E+02 -9.548146E+00 -6.639062E+02  1.024619E-05
        22  27 -2.313974E+06 -1.581603E+01  3.242859E+02  3.006819E+01 -3.509671E+02 -1.706078E-05
        23   1 -2.314009E+06  5.056967E+01  2.196160E+02  3.107236E+00  3.020104E+02  1.520838E-06
        23   2 -2.314014E+06 -5.682057E+00  2.160037E+01  2.539094E-03  2.905998E+02 -8.905540E-11
        23   3 -2.314009E+06 -2.535475E+01 -1.598225E+02 -3.102112E+00  2.791894E+02 -1.399643E-06
        23   4 -2.314009E+06  5.056967E+01  2.196160E+02  6.262830E-09  3.020104E+02  1.588947E-09
        23   5 -2.314014E+06 -5.682057E+00  2.160037E+01 -6.248311E-08  2.905998E+02 -5.536707E-10
        23   6 -2.314009E+06 -2.535475E+01 -1.598225E+02  4.200045E-08  2.791894E+02 -1.874870E-10
        23   7 -2.314009E+06  5.056967E+01  2.196160E+02 -3.107236E+00  3.020104E+02 -1.515486E-06
        23   8 -2.314014E+06 -5.682057E+00  2.160037E+01 -2.539245E-03  2.905998E+02 -2.957139E-09
        23   9 -2.314009E+06 -2.535475E+01 -1.598225E+02  3.102112E+00  2.791894E+02  1.398689E-06
        23  10 -2.314009E+06  5.056965E+01  2.196158E+02  3.107236E+00  1.642951E-10  6.422693E-12
        23  11 -2.314014E+06 -5.682080E+00  2.160021E+01  2.538991E-03 -3.050132E-09 -5.465687E-10
        23  12 -2.314009E+06 -2.535477E+01 -1.598226E+02 -3.102112E+00  1.563264E-09 -1.332337E-10
        23  13 -2.314009E+06  5.056965E+01  2.196158E+02 -1.099257E-08 -4.519673E-10  4.933070E-10
        23  14 -2.314014E+06 -5.682080E+00  2.160021E+01 -1.083920E-08  2.570310E-09 -4.242420E-10
        23  15 -2.314009E+06 -2.535477E+01 -1.598226E+02  6.525482E-09  2.499442E-09 -4.223707E-11
        23  16 -2.314009E+06  5.056965E+01  2.196158E+02 -3.107236E+00  1.472818E-09  3.065780E-10
        23  17 -2.314014E+06 -5.682080E+00  2.160021E+01 -2.539012E-03  2.392534E-09 -7.065813E-10
        23  18 -2.314009E+06 -2.535477E+01 -1.598226E+02  3.102112E+00 -1.844339E-09 -5.470163E-10
        23  19 -2.314009E+06  5.056967E+01  2.196160E+02  3.107236E+00 -3.020104E+02 -1.517542E-06
        23  20 -2.314014E+06 -5.682057E+00  2.160037E+01  2.539361E-03 -2.905998E+02 -1.596140E-09
        23  21 -2.314009E+06 -2.535475E+01 -1.598225E+02 -3.102112E+00 -2.791894E+02  1.399136E-06
        23  22 -2.314009E+06  5.056967E+01  2.196160E+02  4.922602E-08 -3.020104E+02 -5.965912E-10
        23  23 -2.314014E+06 -5.682057E+00  2.160037E+01  2.358342E-08 -2.905998E+02 -4.444161E-11
        23  24 -2.314009E+06 -2.535475E+01 -1.598225E+02  7.002867E-08 -2.791894E+02  7.914718E-11
        23  25 -2.314009E+06  5.056967E+01  2.196160E+02 -3.107236E+00 -3.020104E+02  1.515615E-06
        23  26 -2.314014E+06 -5.682057E+00  2.160037E+01 -2.539245E-03 -2.905998E+02 -3.168042E-10
        23  27 -2.314009E+06 -2.535475E+01 -1.598225E+02  3.102112E+00 -2.791894E+02 -1.400414E-06
        24   1 -2.314032E+06  1.252210E+01 -2.582693E+02 -1.529090E+01  3.169167E+02 -7.832896E-06
        24   2 -2.313986E+06  3.684856E+01 -5.254715E+02  1.641793E+00  5.810368E+02  1.542274E-06
        24   3 -2.314033E+06 -1.734764E+02 -1.023769E+03  1.857474E+01  8.451607E+02  2.537744E-05
        24   4 -2.314032E+06  1.252210E+01 -2.582693E+02  6.890961E-09  3.169167E+02  5.189194E-10
        24   5 -2.313986E+06  3.684856E+01 -5.254715E+02 -6.398692E-08  5.810368E+02  9.141109E-10
        24   6 -2.314033E+06 -1.734764E+02 -1.023769E+03  6.096220E-08  8.451607E+02 -3.329956E-10
        24   7 -2.314032E+06  1.252210E+01 -2.582693E+02  1.529090E+01  3.169167E+02  7.833886E-06
        24   8 -2.313986E+06  3.684856E+01 -5.254715E+02 -1.641794E+00  5.810368E+02 -1.542405E-06
        24   9 -2.314033E+06 -1.734764E+02 -1.023769E+03 -1.857474E+01  8.451607E+02 -2.537727E-05
        24  10 -2.314032E+06  1.252207E+01 -2.582695E+02 -1.529090E+01  2.189947E-09  7.871715E-10
        24  11 -2.313986E+06  3.684847E+01 -5.254722E+02  1.641793E+00 -6.712815E-10  9.351998E-10
        24  12 -2.314033E+06 -1.734766E+02 -1.023771E+03  1.857474E+01  2.816408E-09 -5.329158E-10
        24  13 -2.314032E+06  1.252207E+01 -2.582695E+02 -7.056834E-08  3.359267E-11  3.482520E-10
        24  14 -2.313986E+06  3.684847E+01 -5.254722E+02 -2.956219E-08  1.524416E-09  1.753086E-10
        24  15 -2.314033E+06 -1.734766E+02 -1.023771E+03 -1.438559E-08 -3.571606E-09 -4.960543E-10
        24  16 -2.314032E+06  1.252207E+01 -2.582695E+02  1.529090E+01  2.414700E-09  3.145035E-10
        24  17 -2.313986E+06  3.684847E+01 -5.254722E+02 -1.641793E+00 -5.243240E-10  1.617184E-10
        24  18 -2.314033E+06 -1.734766E+02 -1.023771E+03 -1.857474E+01  1.925640E-09 -3.063523E-10
        24  19 -2.314032E+06  1.252210E+01 -2.582693E+02 -1.529090E+01 -3.169167E+02  7.833139E-06
        24  20 -2.313986E+06  3.684856E+01 -5.254715E+02  1.641793E+00 -5.810368E+02 -1.541240E-06
        24  21 -2.314033E+06 -1.734764E+02 -1.023769E+03  1.857474E+01 -8.451607E+02 -2.537674E-05
        24  22 -2.314032E+06  1.252210E+01 -2.582693E+02 -1.029516E-08 -3.169167E+02  4.210276E-10
        24  23 -2.313986E+06  3.684856E+01 -5.254715E+02 -3.746266E-09 -5.810368E+02 -3.419649E-10
        24  24 -2.314033E+06 -1.734764E+02 -1.023769E+03 -7.957592E-09 -8.451607E+02 -6.986675E-10
        24  25 -2.314032E+06  1.252210E+01 -2.582693E+02  1.529090E+01 -3.169167E+02 -7.834112E-06
        24  26 -2.313986E+06  3.684856E+01 -5.254715E+02 -1.641793E+00 -5.810368E+02  1.541292E-06
        24  27 -2.314033E+06 -1.734764E+02 -1.023769E+03 -1.857474E+01 -8.451607E+02  2.537539E-05
        25   1 -2.314141E+06  4.499618E+01 -1.325442E+03 -1.039758E+02  1.056757E+03 -1.776174E-04
        25   2 -2.313851E+06  2.709423E+02 -2.242094E+03  3.399330E+01  2.198843E+03  1.208269E-04
        25   3 -2.314144E+06 -1.239240E+03 -4.338402E+03  1.719625E+02  3.340927E+03  9.287107E-04
        25   4 -2.314141E+06  4.499616E+01 -1.325442E+03  6.959423E-08  1.056757E+03 -6.184618E-10
        25   5 -2.313851E+06  2.709423E+02 -2.242094E+03  3.719243E-08  2.198843E+03  2.791473E-10
        25   6 -2.314144E+06 -1.239240E+03 -4.338402E+03  2.953792E-08  3.340927E+03  9.992756E-10
        25   7 -2.314141E+06  4.499618E+01 -1.325442E+03  1.039758E+02  1.056757E+03  1.776167E-04
        25   8 -2.313851E+06  2.709423E+02 -2.242094E+03 -3.399330E+01  2.198843E+03 -1.208287E-04
        25   9 -2.314144E+06 -1.239240E+03 -4.338402E+03 -1.719625E+02  3.340927E+03 -9.287080E-04
        25  10 -2.314141E+06  4.499588E+01 -1.325444E+03 -1.039758E+02 -1.452545E-09 -3.921837E-10
        25  11 -2.313851E+06  2.709410E+02 -2.242103E+03  3.399330E+01 -3.846059E-09  3.223810E-10
        25  12 -2.314144E+06 -1.239243E+03 -4.338423E+03  1.719625E+02 -1.151718E-09 -5.886921E-10
        25  13 -2.314141E+06  4.499586E+01 -1.325444E+03 -7.840959E-09  4.518620E-10 -2.815625E-10
        25  14 -2.313851E+06  2.709410E+02 -2.242103E+03  2.858886E-08 -2.570204E-09  5.958947E-10
        25  15 -2.314144E+06 -1.239243E+03 -4.338423E+03  3.918911E-08 -1.688467E-09 -3.915243E-10
        25  16 -2.314141E+06  4.499588E+01 -1.325444E+03  1.039758E+02 -1.304561E-09 -1.706203E-10
        25  17 -2.313851E+06  2.709410E+02 -2.242103E+03 -3.399330E+01  1.463093E-09  9.398269E-10
        25  18 -2.314144E+06 -1.239243E+03 -4.338423E+03 -1.719625E+02  1.079034E-09 -2.157502E-10
        25  19 -2.314141E+06  4.499618E+01 -1.325442E+03 -1.039758E+02 -1.056757E+03  1.776198E-04
        25  20 -2.313851E+06  2.709423E+02 -2.242094E+03  3.399330E+01 -2.198843E+03 -1.208259E-04
        25  21 -2.314144E+06 -1.239240E+03 -4.338402E+03  1.719625E+02 -3.340927E+03 -9.287102E-04
        25  22 -2.314141E+06  4.499616E+01 -1.325442E+03  7.982937E-10 -1.056757E+03  1.658745E-10
        25  23 -2.313851E+06  2.709423E+02 -2.242094E+03 -2.306088E-08 -2.198843E+03  7.105108E-10
        25  24 -2.314144E+06 -1.239240E+03 -4.338402E+03  9.834228E-08 -3.340927E+03 -1.900008E-09
        25  25 -2.314141E+06  4.499618E+01 -1.325442E+03  1.039758E+02 -1.056757E+03 -1.776183E-04
        25  26 -2.313851E+06  2.709423E+02 -2.242094E+03 -3.399330E+01 -2.198843E+03  1.208276E-04
        25  27 -2.314144E+06 -1.239240E+03 -4.338402E+03 -1.719625E+02 -3.340927E+03  9.287063E-04
        26   1 -2.314827E+06  3.251548E+02 -5.449097E+03 -7.019181E+02  4.219959E+03 -4.788219E-03
        26   2 -2.313000E+06  1.902942E+03 -8.860659E+03  3.242898E+02  8.844115E+03  4.636239E-03
        26   3 -2.314840E+06 -8.758530E+03 -1.835090E+04  1.350482E+03  1.346819E+04  2.940201E-02
        26   4 -2.314827E+06  3.251538E+02 -5.449097E+03  2.103761E-08  4.219959E+03  7.811065E-10
        26   5 -2.313000E+06  1.902942E+03 -8.860659E+03  5.828528E-08  8.844115E+03 -3.741786E-10
        26   6 -2.314840E+06 -8.758533E+03 -1.835090E+04  9.122283E-08  1.346819E+04  1.958006E-10
        26   7 -2.314827E+06  3.251548E+02 -5.449097E+03  7.019181E+02  4.219959E+03  4.788221E-03
        26   8 -2.313000E+06  1.902942E+03 -8.860659E+03 -3.242898E+02  8.844115E+03 -4.636242E-03
        26   9 -2.314840E+06 -8.758530E+03 -1.835090E+04 -1.350482E+03  1.346819E+04 -2.940201E-02
        26  10 -2.314827E+06  3.251500E+02 -5.449130E+03 -7.019181E+02  1.875404E-09 -4.388292E-10
        26  11 -2.313000E+06  1.902921E+03 -8.860806E+03  3.242898E+02  9.382552E-10  1.672763E-10
        26  12 -2.314840E+06 -8.758579E+03 -1.835124E+04  1.350482E+03  1.421880E-09 -1.398445E-10
        26  13 -2.314827E+06  3.251490E+02 -5.449130E+03  1.246290E-08 -3.359257E-11 -5.220424E-10
        26  14 -2.313000E+06  1.902921E+03 -8.860806E+03  4.106862E-08 -2.400974E-10  5.626726E-10
        26  15 -2.314840E+06 -8.758582E+03 -1.835124E+04  7.398212E-08  1.494415E-11 -5.281169E-11
        26  16 -2.314827E+06  3.251500E+02 -5.449130E+03  7.019181E+02  2.177373E-10 -4.746860E-10
        26  17 -2.313000E+06  1.902921E+03 -8.860806E+03 -3.242898E+02 -5.936749E-10  4.138905E-10
        26  18 -2.314840E+06 -8.758579E+03 -1.835124E+04 -1.350482E+03 -1.104292E-09  1.129949E-11
        26  19 -2.314827E+06  3.251548E+02 -5.449097E+03 -7.019181E+02 -4.219959E+03  4.788220E-03
        26  20 -2.313000E+06  1.902942E+03 -8.860659E+03  3.242898E+02 -8.844115E+03 -4.636238E-03
        26  21 -2.314840E+06 -8.758530E+03 -1.835090E+04  1.350482E+03 -1.346819E+04 -2.940201E-02
        26  22 -2.314827E+06  3.251538E+02 -5.449097E+03  6.414576E-08 -4.219959E+03 -1.598923E-09
        26  23 -2.313000E+06  1.902942E+03 -8.860659E+03 -1.057400E-08 -8.844115E+03  1.301057E-09
        26  24 -2.314840E+06 -8.758533E+03 -1.835090E+04  5.134635E-08 -1.346819E+04 -2.569342E-10
        26  25 -2.314827E+06  3.251548E+02 -5.449097E+03  7.019181E+02 -4.219959E+03 -4.788224E-03
        26  26 -2.313000E+06  1.902942E+03 -8.860659E+03 -3.242898E+02 -8.844115E+03  4.636241E-03
        26  27 -2.314840E+06 -8.758530E+03 -1.835090E+04 -1.350482E+03 -1.346819E+04  2.940201E-02
        27   1 -2.319318E+06  2.335441E+03 -2.223348E+04 -4.798143E+03  1.709570E+04 -1.325996E-01
        27   2 -2.307405E+06  1.330767E+04 -3.420448E+04  2.608973E+03  3.573940E+04  1.507270E-01
        27   3 -2.319392E+06 -6.149685E+04 -7.979001E+04  1.001608E+04  5.438348E+04  8.805281E-01
        27   4 -2.319318E+06  2.335397E+03 -2.223348E+04  5.166008E-08  1.709570E+04  5.890515E-10
        27   5 -2.307405E+06  1.330765E+04 -3.420448E+04  9.766608E-09  3.573940E+04  1.676674E-10
        27   6 -2.319392E+06 -6.149704E+04 -7.979004E+04  3.565710E-08  5.438348E+04 -2.310684E-10
        27   7 -2.319318E+06  2.335441E+03 -2.223348E+04  4.798143E+03  1.709570E+04  1.325996E-01
        27   8 -2.307405E+06  1.330767E+04 -3.420448E+04 -2.608973E+03  3.573940E+04 -1.507270E-01
        27   9 -2.319392E+06 -6.149685E+04 -7.979001E+04 -1.001608E+04  5.438348E+04 -8.805281E-01
        27  10 -2.319318E+06  2.335362E+03 -2.223403E+04 -4.798143E+03 -8.957397E-10 -1.971345E-10
        27  11 -2.307407E+06  1.330732E+04 -3.420689E+04  2.608973E+03  1.773318E-09 -2.574031E-10
        27  12 -2.319395E+06 -6.149765E+04 -7.979559E+04  1.001608E+04  4.626953E-10 -1.254679E-11
        27  13 -2.319318E+06  2.335318E+03 -2.223404E+04  2.584761E-08 -8.328101E-10 -2.999852E-10
        27  14 -2.307407E+06  1.330731E+04 -3.420689E+04  1.159664E-09 -4.477023E-09  3.903203E-10
        27  15 -2.319396E+06 -6.149784E+04 -7.979561E+04  1.090295E-08 -9.769591E-11  1.764925E-10
        27  16 -2.319318E+06  2.335362E+03 -2.223403E+04  4.798143E+03 -2.351551E-09 -4.698885E-10
        27  17 -2.307407E+06  1.330732E+04 -3.420689E+04 -2.608973E+03 -2.635166E-10  8.096150E-10
        27  18 -2.319395E+06 -6.149765E+04 -7.979559E+04 -1.001608E+04  3.841538E-10  3.320115E-10
        27  19 -2.319318E+06  2.335441E+03 -2.223348E+04 -4.798143E+03 -1.709570E+04  1.325996E-01
        27  20 -2.307405E+06  1.330767E+04 -3.420448E+04  2.608973E+03 -3.573940E+04 -1.507270E-01
        27  21 -2.319392E+06 -6.149685E+04 -7.979001E+04  1.001608E+04 -5.438348E+04 -8.805281E-01
        27  22 -2.319318E+06  2.335397E+03 -2.223348E+04  5.168738E-08 -1.709570E+04 -9.516883E-10
        27  23 -2.307405E+06  1.330765E+04 -3.420448E+04  1.838246E-08 -3.573940E+04  1.621079E-10
        27  24 -2.319392E+06 -6.149704E+04 -7.979004E+04  1.950632E-08 -5.438348E+04  5.284199E-10
        27  25 -2.319318E+06  2.335441E+03 -2.223348E+04  4.798143E+03 -1.709570E+04 -1.325996E-01
        27  26 -2.307405E+06  1.330767E+04 -3.420448E+04 -2.608973E+03 -3.573940E+04  1.507270E-01
        27  27 -2.319392E+06 -6.149685E+04 -7.979001E+04 -1.001608E+04 -5.438348E+04  8.805281E-01
        28   1  5.734340E+05  1.094941E+06  7.321032E+05 -6.038462E+04  1.072163E+03  4.559934E+05
        28   2 -5.369757E+04  1.031636E+06  3.601696E+05 -2.752666E+04  3.875546E+03  2.923188E+05
        28   3  5.667809E+04  1.174299E+06  2.792158E+05  6.723630E+04  5.049327E+03  1.286242E+05
        28   4  5.225283E+05  8.909876E+05  6.813605E+05  2.564130E+04  1.135299E+03  4.550300E+05
        28   5 -1.144194E+05  7.880953E+05  2.999735E+05 -5.340857E+03  3.886237E+03  2.917842E+05
        28   6 -1.380309E+04  8.911475E+05  2.093307E+05  2.558780E+04  5.040896E+03  1.285285E+05
        28   7  4.716473E+05  6.870875E+05  6.306186E+05  1.116390E+05  1.198185E+03  4.540670E+05
        28   8 -1.751437E+05  5.446099E+05  2.397733E+05  1.683625E+04  3.896894E+03  2.912498E+05
        28   9 -8.428371E+04  6.080722E+05  1.394406E+05 -1.604170E+04  5.032474E+03  1.284328E+05
        28  10  5.733783E+05  1.094718E+06  7.317131E+05 -6.038502E+04 -9.833983E-10 -5.025178E-10
        28  11 -5.372047E+04  1.031544E+06  3.600093E+05 -2.752757E+04 -1.913928E-09 -2.681817E-09
        28  12  5.667363E+04  1.174281E+06  2.791848E+05  6.723578E+04  3.950384E-10 -2.104219E-09
        28  13  5.224728E+05  8.907656E+05  6.809719E+05  2.564088E+04  2.647453E-09 -1.919275E-11
        28  14 -1.144422E+05  7.880040E+05  2.998137E+05 -5.341770E+03  3.142569E-09 -3.369439E-11
        28  15 -1.380754E+04  8.911298E+05  2.092996E+05  2.558728E+04  8.164832E-09  9.990684E-11
        28  16  4.715920E+05  6.868664E+05  6.302316E+05  1.116386E+05  2.747873E-09  4.630022E-10
        28  17 -1.751665E+05  5.445189E+05  2.396140E+05  1.683533E+04  5.058475E-09  2.292029E-09
        28  18 -8.428816E+04  6.080545E+05  1.394095E+05 -1.604222E+04 -1.852179E-09  1.978000E-09
        28  19  5.734340E+05  1.094941E+06  7.321032E+05 -6.038462E+04 -1.072163E+03 -4.559934E+05
        28  20 -5.369757E+04  1.031636E+06  3.601696E+05 -2.752666E+04 -3.875546E+03 -2.923188E+05
        28  21  5.667809E+04  1.174299E+06  2.792158E+05  6.723630E+04 -5.049327E+03 -1.286242E+05
        28  22  5.225283E+05  8.909876E+05  6.813605E+05  2.564130E+04 -1.135299E+03 -4.550300E+05
        28  23 -1.144194E+05  7.880953E+05  2.999735E+05 -5.340857E+03 -3.886237E+03 -2.917842E+05
        28  24 -1.380309E+04  8.911475E+05  2.093307E+05  2.558780E+04 -5.040896E+03 -1.285285E+05
        28  25  4.716473E+05  6.870875E+05  6.306186E+05  1.116390E+05 -1.198185E+03 -4.540670E+05
        28  26 -1.751437E+05  5.446099E+05  2.397733E+05  1.683625E+04 -3.896894E+03 -2.912498E+05
        28  27 -8.428371E+04  6.080722E+05  1.394406E+05 -1.604170E+04 -5.032474E+03 -1.284328E+05
        29   1  1.837866E+05  1.301643E+06  2.922889E+05  1.149532E+04  5.871976E+03  9.407523E+04
        29   2  9.593310E+04  1.319255E+06  2.389300E+05 -8.492605E+03  7.709227E+03  3.181983E+04
        29   3  1.729696E+05  1.387594E+06  2.675639E+05  3.873001E+04  8.002446E+03 -3.043968E+04
        29   4  7.280334E+04  8.565513E+05  1.820833E+05  2.682220E+04  5.875118E+03  9.341467E+04
        29   5 -2.569158E+04  8.312208E+05  1.182867E+05 -6.777356E+03  7.710058E+03  3.156967E+04
        29   6  4.070025E+04  8.565790E+05  1.362397E+05  2.683604E+04  8.003148E+03 -3.027519E+04
        29   7 -3.819382E+04  4.116397E+05  7.186308E+04  4.213813E+04  5.878228E+03  9.275457E+04
        29   8 -1.473340E+05  3.434028E+05 -2.374204E+03 -5.063370E+03  7.710888E+03  3.131969E+04
        29   9 -9.158959E+04  3.258205E+05  4.894623E+03  1.495237E+04  8.003843E+03 -3.011083E+04
        29  10  1.837842E+05  1.301633E+06  2.922722E+05  1.149488E+04 -5.140977E-09  1.675806E-09
        29  11  9.593276E+04  1.319254E+06  2.389280E+05 -8.492803E+03 -7.031973E-10  6.980625E-10
        29  12  1.729693E+05  1.387593E+06  2.675621E+05  3.873020E+04  4.845101E-10  1.759933E-10
        29  13  7.280096E+04  8.565419E+05  1.820668E+05  2.682175E+04  5.753856E-09 -2.863555E-10
        29  14 -2.569191E+04  8.312197E+05  1.182847E+05 -6.777552E+03  5.281329E-09 -6.266395E-11
        29  15  4.069994E+04  8.565780E+05  1.362379E+05  2.683624E+04  1.457992E-09  4.438072E-10
        29  16 -3.819616E+04  4.116305E+05  7.184686E+04  4.213769E+04 -1.884030E-09 -1.693065E-09
        29  17 -1.473344E+05  3.434017E+05 -2.376158E+03 -5.063565E+03  8.627604E-10 -2.266820E-09
        29  18 -9.158990E+04  3.258195E+05  4.892800E+03  1.495256E+04  1.378385E-09 -5.769649E-10
        29  19  1.837866E+05  1.301643E+06  2.922889E+05  1.149532E+04 -5.871976E+03 -9.407523E+04
        29  20  9.593310E+04  1.319255E+06  2.389300E+05 -8.492605E+03 -7.709227E+03 -3.181983E+04
        29  21  1.729696E+05  1.387594E+06  2.675639E+05  3.873001E+04 -8.002446E+03  3.043968E+04
        29  22  7.280334E+04  8.565513E+05  1.820833E+05  2.682220E+04 -5.875118E+03 -9.341467E+04
        29  23 -2.569158E+04  8.312208E+05  1.182867E+05 -6.777356E+03 -7.710058E+03 -3.156967E+04
        29  24  4.070025E+04  8.565790E+05  1.362397E+05  2.683604E+04 -8.003148E+03  3.027519E+04
        29  25 -3.819382E+04  4.116397E+05  7.186308E+04  4.213813E+04 -5.878228E+03 -9.275457E+04
        29  26 -1.473340E+05  3.434028E+05 -2.374204E+03 -5.063370E+03 -7.710888E+03 -3.131969E+04
        29  27 -9.158959E+04  3.258205E+05  4.894623E+03  1.495237E+04 -8.003843E+03  3.011083E+04
        30   1  1.757766E+05  1.583335E+06  3.213883E+05  1.779240E+03  1.071742E+04 -5.364252E+04
        30   2  1.200350E+05  1.568454E+06  3.731658E+05  1.469020E+03  1.379383E+04 -1.573622E+05
        30   3  5.073264E+05  1.681235E+06  6.038258E+05  7.844238E+04  5.775867E+03 -2.611300E+05
        30   4 -1.259706E+03  8.735605E+05  1.458213E+05  2.862954E+04  1.072105E+04 -5.560484E+04
        30   5 -6.884350E+04  8.098592E+05  1.858772E+05 -9.330291E+03  1.379520E+04 -1.565513E+05
        30   6  3.064080E+05  8.734865E+05  4.030474E+05  2.999384E+04  5.781583E+03 -2.575374E+05
        30   7 -1.783310E+05  1.642444E+05 -2.978270E+04  5.544947E+04  1.072452E+04 -5.756488E+04
        30   8 -2.577644E+05  5.178695E+04 -1.453941E+03 -2.011595E+04  1.379655E+04 -1.557413E+05
        30   9  1.054499E+05  6.633441E+04  2.022217E+05 -1.839115E+04  5.786754E+03 -2.539492E+05
        30  10  1.757757E+05  1.583331E+06  3.213827E+05  1.779703E+03  2.626341E-09 -8.682310E-10
        30  11  1.200282E+05  1.568427E+06  3.731190E+05  1.470767E+03  2.478706E-09 -2.035299E-09
        30  12  5.073082E+05  1.681162E+06  6.036979E+05  7.844359E+04  1.468942E-09  4.856218E-11
        30  13 -1.260658E+03  8.735571E+05  1.458153E+05  2.863002E+04  2.517519E-09 -7.128761E-10
        30  14 -6.885028E+04  8.098329E+05  1.858308E+05 -9.328552E+03  1.580994E-09  1.516394E-11
        30  15  3.063902E+05  8.734154E+05  4.029229E+05  2.999504E+04 -1.818344E-09  8.972538E-10
        30  16 -1.783320E+05  1.642409E+05 -2.978914E+04  5.544996E+04  1.315628E-09  8.515477E-10
        30  17 -2.577711E+05  5.176086E+04 -1.499870E+03 -2.011422E+04  3.091417E-09 -1.262403E-09
        30  18  1.054325E+05  6.626516E+04  2.021005E+05 -1.838997E+04 -1.886272E-09 -8.728977E-10
        30  19  1.757766E+05  1.583335E+06  3.213883E+05  1.779240E+03 -1.071742E+04  5.364252E+04
        30  20  1.200350E+05  1.568454E+06  3.731658E+05  1.469020E+03 -1.379383E+04  1.573622E+05
        30  21  5.073264E+05  1.681235E+06  6.038258E+05  7.844238E+04 -5.775867E+03  2.611300E+05
        30  22 -1.259706E+03  8.735605E+05  1.458213E+05  2.862954E+04 -1.072105E+04  5.560484E+04
        30  23 -6.884350E+04  8.098592E+05  1.858772E+05 -9.330291E+03 -1.379520E+04  1.565513E+05
        30  24  3.064080E+05  8.734865E+05  4.030474E+05  2.999384E+04 -5.781583E+03  2.575374E+05
        30  25 -1.783310E+05  1.642444E+05 -2.978270E+04  5.544947E+04 -1.072452E+04  5.756488E+04
        30  26 -2.577644E+05  5.178695E+04 -1.453941E+03 -2.011595E+04 -1.379655E+04  1.557413E+05
        30  27  1.054499E+05  6.633441E+04  2.022217E+05 -1.839115E+04 -5.786754E+03  2.539492E+05
        31   1 -2.857099E+06 -5.475799E+05 -1.789931E+05 -1.036296E+06 -8.077079E+04 -2.893501E+04
        31   2 -2.828732E+06 -4.235051E+05 -1.014305E+05 -1.050824E+06 -5.255706E+04 -1.587831E+04
        31   3 -2.838402E+06 -4.365497E+05 -7.966092E+04 -1.047254E+06 -2.324147E+04 -5.761895E+03
        31   4 -2.673433E+06 -4.647153E+05 -1.257238E+05 -9.726203E+05 -7.997234E+04 -2.863790E+04
        31   5 -2.648190E+06 -3.518926E+05 -5.139274E+04 -9.982598E+05 -5.240879E+04 -1.582321E+04
        31   6 -2.660840E+06 -3.760377E+05 -3.232474E+04 -1.005805E+06 -2.374364E+04 -5.949604E+03
        31   7 -2.489735E+06 -3.818449E+05 -7.245802E+04 -9.089265E+05 -7.917363E+04 -2.834065E+04
        31   8 -2.467616E+06 -2.802775E+05 -1.358122E+03 -9.456814E+05 -5.226047E+04 -1.576809E+04
        31   9 -2.483248E+06 -3.155253E+05  1.500873E+04 -9.643455E+05 -2.424598E+04 -6.137360E+03
        31  10 -2.857107E+06 -5.475826E+05 -1.790070E+05 -1.036298E+06  7.425795E-10  3.919204E-10
        31  11 -2.828735E+06 -4.235061E+05 -1.014362E+05 -1.050825E+06  3.428595E-09  3.834904E-10
        31  12 -2.838403E+06 -4.365499E+05 -7.966200E+04 -1.047254E+06 -1.768086E-09  8.073536E-10
        31  13 -2.673440E+06 -4.647179E+05 -1.257374E+05 -9.726221E+05 -2.066093E-09  1.613106E-10
        31  14 -2.648193E+06 -3.518936E+05 -5.139840E+04 -9.982605E+05 -3.121853E-09  5.868094E-10
        31  15 -2.660841E+06 -3.760379E+05 -3.232587E+04 -1.005805E+06  3.328955E-10  6.694473E-10
        31  16 -2.489742E+06 -3.818474E+05 -7.247137E+04 -9.089283E+05 -1.552939E-09  2.156209E-10
        31  17 -2.467619E+06 -2.802785E+05 -1.363747E+03 -9.456820E+05 -4.539685E-09  7.659289E-10
        31  18 -2.483248E+06 -3.155255E+05  1.500755E+04 -9.643456E+05 -1.247194E-09 -5.319116E-10
        31  19 -2.857099E+06 -5.475799E+05 -1.789931E+05 -1.036296E+06  8.077079E+04  2.893501E+04
        31  20 -2.828732E+06 -4.235051E+05 -1.014305E+05 -1.050824E+06  5.255706E+04  1.587831E+04
        31  21 -2.838402E+06 -4.365497E+05 -7.966092E+04 -1.047254E+06  2.324147E+04  5.761895E+03
        31  22 -2.673433E+06 -4.647153E+05 -1.257238E+05 -9.726203E+05  7.997234E+04  2.863790E+04
        31  23 -2.648190E+06 -3.518926E+05 -5.139274E+04 -9.982598E+05  5.240879E+04  1.582321E+04
        31  24 -2.660840E+06 -3.760377E+05 -3.232474E+04 -1.005805E+06  2.374364E+04  5.949604E+03
        31  25 -2.489735E+06 -3.818449E+05 -7.245802E+04 -9.089265E+05  7.917363E+04  2.834065E+04
        31  26 -2.467616E+06 -2.802775E+05 -1.358122E+03 -9.456814E+05  5.226047E+04  1.576809E+04
        31  27 -2.483248E+06 -3.155253E+05  1.500873E+04 -9.643455E+05  2.424598E+04  6.137360E+03
        32   1 -2.769061E+06 -4.366737E+05 -5.807385E+04 -1.031866E+06 -1.862817E+04 -4.863898E+03
        32   2 -2.759425E+06 -4.053682E+05 -3.937974E+04 -1.020711E+06 -1.203833E+04 -2.599489E+03
        32   3 -2.739011E+06 -4.104303E+05 -3.046929E+04 -1.026072E+06 -5.259779E+03 -8.393076E+02
        32   4 -2.655420E+06 -3.919648E+05 -2.661182E+04 -9.991652E+05 -1.861355E+04 -4.858521E+03
        32   5 -2.659915E+06 -3.674020E+05 -1.207588E+04 -9.932931E+05 -1.213542E+04 -2.635828E+03
        32   6 -2.653609E+06 -3.791824E+05 -7.233396E+03 -1.003937E+06 -5.468780E+03 -9.174287E+02
        32   7 -2.541766E+06 -3.472547E+05  4.849081E+03 -9.664584E+05 -1.859891E+04 -4.853142E+03
        32   8 -2.560395E+06 -3.294351E+05  1.522705E+04 -9.658711E+05 -1.223253E+04 -2.672174E+03
        32   9 -2.568200E+06 -3.479343E+05  1.600176E+04 -9.817999E+05 -5.677813E+03 -9.955605E+02
        32  10 -2.769062E+06 -4.366738E+05 -5.807455E+04 -1.031867E+06 -2.729170E-09  8.696792E-10
        32  11 -2.759426E+06 -4.053683E+05 -3.938003E+04 -1.020711E+06  3.589771E-10  8.693346E-10
        32  12 -2.739011E+06 -4.104303E+05 -3.046934E+04 -1.026072E+06  4.192993E-10  1.216594E-09
        32  13 -2.655421E+06 -3.919649E+05 -2.661252E+04 -9.991653E+05  3.826370E-09 -1.827671E-10
        32  14 -2.659915E+06 -3.674020E+05 -1.207618E+04 -9.932931E+05  9.350087E-11  1.025520E-09
        32  15 -2.653609E+06 -3.791824E+05 -7.233454E+03 -1.003937E+06  2.933546E-09 -5.729069E-10
        32  16 -2.541767E+06 -3.472549E+05  4.848384E+03 -9.664585E+05  3.680272E-10  5.034033E-10
        32  17 -2.560395E+06 -3.294352E+05  1.522675E+04 -9.658711E+05  1.916404E-09  1.010012E-09
        32  18 -2.568200E+06 -3.479343E+05  1.600169E+04 -9.817999E+05  2.653918E-09  4.218745E-10
        32  19 -2.769061E+06 -4.366737E+05 -5.807385E+04 -1.031866E+06  1.862817E+04  4.863898E+03
        32  20 -2.759425E+06 -4.053682E+05 -3.937974E+04 -1.020711E+06  1.203833E+04  2.599489E+03
        32  21 -2.739011E+06 -4.104303E+05 -3.046929E+04 -1.026072E+06  5.259779E+03  8.393076E+02
        32  22 -2.655420E+06 -3.919648E+05 -2.661182E+04 -9.991652E+05  1.861355E+04  4.858521E+03
        32  23 -2.659915E+06 -3.674020E+05 -1.207588E+04 -9.932931E+05  1.213542E+04  2.635828E+03
        32  24 -2.653609E+06 -3.791824E+05 -7.233396E+03 -1.003937E+06  5.468780E+03  9.174287E+02
        32  25 -2.541766E+06 -3.472547E+05  4.849081E+03 -9.664584E+05  1.859891E+04  4.853142E+03
        32  26 -2.560395E+06 -3.294351E+05  1.522705E+04 -9.658711E+05  1.223253E+04  2.672174E+03
        32  27 -2.568200E+06 -3.479343E+05  1.600176E+04 -9.817999E+05  5.677813E+03  9.955605E+02
        33   1 -2.664340E+06 -3.863971E+05 -8.996382E+03 -1.006721E+06 -4.093395E+03 -9.262211E+02
        33   2 -2.657132E+06 -3.675615E+05 -1.518110E+03 -9.909751E+05 -2.391785E+03 -9.746061E+02
        33   3 -2.630784E+06 -3.716610E+05  4.144732E+03 -9.979745E+05 -6.738407E+02 -1.066517E+03
        33   4 -2.652527E+06 -3.817073E+05 -5.771851E+03 -1.003264E+06 -4.222978E+03 -9.746523E+02
        33   5 -2.661969E+06 -3.693318E+05 -2.831839E+03 -9.922299E+05 -2.531087E+03 -1.026671E+03
        33   6 -2.652269E+06 -3.798893E+05 -1.699425E+03 -1.003941E+06 -8.229043E+02 -1.122232E+03
        33   7 -2.640715E+06 -3.770176E+05 -2.547329E+03 -9.998067E+05 -4.352564E+03 -1.023085E+03
        33   8 -2.666807E+06 -3.711020E+05 -4.145573E+03 -9.934847E+05 -2.670389E+03 -1.078736E+03
        33   9 -2.673753E+06 -3.881176E+05 -7.543649E+03 -1.009908E+06 -9.719628E+02 -1.177945E+03
        33  10 -2.664340E+06 -3.863971E+05 -8.996415E+03 -1.006721E+06  2.331237E-10 -6.370985E-12
        33  11 -2.657132E+06 -3.675615E+05 -1.518122E+03 -9.909751E+05 -8.086640E-10  6.817008E-10
        33  12 -2.630784E+06 -3.716610E+05  4.144729E+03 -9.979745E+05 -1.212593E-09  6.312061E-10
        33  13 -2.652527E+06 -3.817073E+05 -5.771887E+03 -1.003264E+06 -2.881930E-09 -5.546009E-10
        33  14 -2.661969E+06 -3.693318E+05 -2.831853E+03 -9.922299E+05 -3.804165E-09  1.763884E-09
        33  15 -2.652269E+06 -3.798893E+05 -1.699429E+03 -1.003941E+06 -2.307027E-09 -7.261540E-10
        33  16 -2.640715E+06 -3.770176E+05 -2.547366E+03 -9.998067E+05 -6.237706E-10 -6.388120E-10
        33  17 -2.666807E+06 -3.711020E+05 -4.145589E+03 -9.934847E+05  2.810161E-10 -2.530036E-10
        33  18 -2.673753E+06 -3.881176E+05 -7.543653E+03 -1.009908E+06  2.083274E-09 -2.117220E-09
        33  19 -2.664340E+06 -3.863971E+05 -8.996382E+03 -1.006721E+06  4.093395E+03  9.262211E+02
        33  20 -2.657132E+06 -3.675615E+05 -1.518110E+03 -9.909751E+05  2.391785E+03  9.746061E+02
        33  21 -2.630784E+06 -3.716610E+05  4.144732E+03 -9.979745E+05  6.738407E+02  1.066517E+03
        33  22 -2.652527E+06 -3.817073E+05 -5.771851E+03 -1.003264E+06  4.222978E+03  9.746523E+02
        33  23 -2.661969E+06 -3.693318E+05 -2.831839E+03 -9.922299E+05  2.531087E+03  1.026671E+03
        33  24 -2.652269E+06 -3.798893E+05 -1.699425E+03 -1.003941E+06  8.229043E+02  1.122232E+03
        33  25 -2.640715E+06 -3.770176E+05 -2.547329E+03 -9.998067E+05  4.352564E+03  1.023085E+03
        33  26 -2.666807E+06 -3.711020E+05 -4.145573E+03 -9.934847E+05  2.670389E+03  1.078736E+03
        33  27 -2.673753E+06 -3.881176E+05 -7.543649E+03 -1.009908E+06  9.719628E+02  1.177945E+03
        34   1 -2.559358E+06 -3.444951E+05  2.422013E+04 -9.779437E+05 -2.631278E+02 -1.373392E+03
        34   2 -2.553443E+06 -3.295844E+05  2.874267E+04 -9.636516E+05  3.660754E+02 -1.857562E+03
        34   3 -2.529717E+06 -3.330706E+05  3.286661E+04 -9.698922E+05  9.463856E+02 -2.210232E+03
        34   4 -2.652676E+06 -3.796400E+05 -1.361267E+03 -1.003168E+06 -4.190721E+02 -1.431700E+03
        34   5 -2.661563E+06 -3.703436E+05 -8.317942E+02 -9.929368E+05  2.395073E+02 -1.904923E+03
        34   6 -2.652647E+06 -3.794501E+05 -7.242320E+02 -1.003238E+06  8.491794E+02 -2.246639E+03
        34   7 -2.745985E+06 -4.147842E+05 -2.694336E+04 -1.028389E+06 -5.749898E+02 -1.489998E+03
        34   8 -2.769673E+06 -4.111021E+05 -3.040725E+04 -1.022217E+06  1.129637E+02 -1.952275E+03
        34   9 -2.775563E+06 -4.258288E+05 -3.431643E+04 -1.036578E+06  7.519946E+02 -2.283039E+03
        34  10 -2.559358E+06 -3.444952E+05  2.422013E+04 -9.779437E+05 -9.689977E-10  1.659025E-10
        34  11 -2.553443E+06 -3.295844E+05  2.874266E+04 -9.636516E+05 -2.704582E-09 -8.935903E-10
        34  12 -2.529717E+06 -3.330706E+05  3.286660E+04 -9.698922E+05 -1.942993E-09 -1.011120E-09
        34  13 -2.652676E+06 -3.796400E+05 -1.361271E+03 -1.003168E+06  2.066156E-09 -2.011552E-09
        34  14 -2.661563E+06 -3.703436E+05 -8.318011E+02 -9.929368E+05 -2.513885E-10  6.921765E-10
        34  15 -2.652647E+06 -3.794501E+05 -7.242428E+02 -1.003238E+06  1.023071E-09 -5.438933E-10
        34  16 -2.745985E+06 -4.147842E+05 -2.694337E+04 -1.028389E+06  2.112232E-09 -1.008136E-09
        34  17 -2.769673E+06 -4.111021E+05 -3.040726E+04 -1.022217E+06  2.767261E-09 -4.965786E-11
        34  18 -2.775563E+06 -4.258288E+05 -3.431644E+04 -1.036578E+06  4.638499E-10 -1.091874E-10
        34  19 -2.559358E+06 -3.444951E+05  2.422013E+04 -9.779437E+05  2.631278E+02  1.373392E+03
        34  20 -2.553443E+06 -3.295844E+05  2.874267E+04 -9.636516E+05 -3.660754E+02  1.857562E+03
        34  21 -2.529717E+06 -3.330706E+05  3.286661E+04 -9.698922E+05 -9.463856E+02  2.210232E+03
        34  22 -2.652676E+06 -3.796400E+05 -1.361267E+03 -1.003168E+06  4.190721E+02  1.431700E+03
        34  23 -2.661563E+06 -3.703436E+05 -8.317942E+02 -9.929368E+05 -2.395073E+02  1.904923E+03
        34  24 -2.652647E+06 -3.794501E+05 -7.242320E+02 -1.003238E+06 -8.491794E+02  2.246639E+03
        34  25 -2.745985E+06 -4.147842E+05 -2.694336E+04 -1.028389E+06  5.749898E+02  1.489998E+03
        34  26 -2.769673E+06 -4.111021E+05 -3.040725E+04 -1.022217E+06 -1.129637E+02  1.952275E+03
        34  27 -2.775563E+06 -4.258288E+05 -3.431643E+04 -1.036578E+06 -7.519946E+02  2.283039E+03
        35   1 -2.475071E+06 -3.105827E+05  4.825712E+04 -9.531980E+05  1.223223E+03 -2.461207E+03
        35   2 -2.471287E+06 -3.008618E+05  5.061684E+04 -9.437392E+05  1.852992E+03 -2.789507E+03
        35   3 -2.455727E+06 -3.034406E+05  5.255468E+04 -9.476445E+05  2.390721E+03 -2.871213E+03
        35   4 -2.653988E+06 -3.780479E+05 -7.373999E+02 -1.001666E+06  1.084818E+03 -2.513075E+03
        35   5 -2.659893E+06 -3.720543E+05 -9.884723E+02 -9.949229E+05  1.769661E+03 -2.820802E+03
        35   6 -2.654033E+06 -3.783720E+05 -1.705345E+03 -1.001544E+06  2.362444E+03 -2.881901E+03
        35   7 -2.832874E+06 -4.455114E+05 -4.973490E+04 -1.050122E+06  9.464565E+02 -2.564927E+03
        35   8 -2.848465E+06 -4.432449E+05 -5.259706E+04 -1.046093E+06  1.686358E+03 -2.852087E+03
        35   9 -2.852301E+06 -4.533011E+05 -5.596895E+04 -1.055428E+06  2.334178E+03 -2.892585E+03
        35  10 -2.475071E+06 -3.105827E+05  4.825711E+04 -9.531979E+05 -8.890630E-10 -2.366622E-10
        35  11 -2.471287E+06 -3.008618E+05  5.061682E+04 -9.437392E+05 -2.678982E-09  1.435080E-09
        35  12 -2.455727E+06 -3.034406E+05  5.255465E+04 -9.476445E+05  3.461121E-09  2.575423E-11
        35  13 -2.653988E+06 -3.780479E+05 -7.374140E+02 -1.001666E+06 -2.072888E-09 -7.084314E-10
        35  14 -2.659893E+06 -3.720543E+05 -9.884931E+02 -9.949229E+05  3.464532E-10  1.215836E-09
        35  15 -2.654033E+06 -3.783720E+05 -1.705372E+03 -1.001544E+06  6.631040E-10  2.999084E-10
        35  16 -2.832874E+06 -4.455114E+05 -4.973492E+04 -1.050122E+06  1.774282E-09 -3.369195E-10
        35  17 -2.848465E+06 -4.432449E+05 -5.259708E+04 -1.046093E+06  4.097109E-09 -1.466915E-09
        35  18 -2.852301E+06 -4.533011E+05 -5.596897E+04 -1.055428E+06 -1.202070E-09  8.070744E-10
        35  19 -2.475071E+06 -3.105827E+05  4.825712E+04 -9.531980E+05 -1.223223E+03  2.461207E+03
        35  20 -2.471287E+06 -3.008618E+05  5.061684E+04 -9.437392E+05 -1.852992E+03  2.789507E+03
        35  21 -2.455727E+06 -3.034406E+05  5.255468E+04 -9.476445E+05 -2.390721E+03  2.871213E+03
        35  22 -2.653988E+06 -3.780479E+05 -7.373999E+02 -1.001666E+06 -1.084818E+03  2.513075E+03
        35  23 -2.659893E+06 -3.720543E+05 -9.884723E+02 -9.949229E+05 -1.769661E+03  2.820802E+03
        35  24 -2.654033E+06 -3.783720E+05 -1.705345E+03 -1.001544E+06 -2.362444E+03  2.881901E+03
        35  25 -2.832874E+06 -4.455114E+05 -4.973490E+04 -1.050122E+06 -9.464565E+02  2.564927E+03
        35  26 -2.848465E+06 -4.432449E+05 -5.259706E+04 -1.046093E+06 -1.686358E+03  2.852087E+03
        35  27 -2.852301E+06 -4.533011E+05 -5.596895E+04 -1.055428E+06 -2.334178E+03  2.892585E+03
        36   1 -2.429572E+06 -2.906773E+05  5.984050E+04 -9.382102E+05  2.829726E+03 -2.888494E+03
        36   2 -2.428356E+06 -2.874248E+05  5.899059E+04 -9.354487E+05  4.744304E+03 -2.453583E+03
        36   3 -2.425158E+06 -2.906185E+05  5.594625E+04 -9.353830E+05  6.536486E+03 -1.692486E+03
        36   4 -2.656071E+06 -3.760603E+05 -2.141962E+03 -9.995548E+05  2.737189E+03 -2.923314E+03
        36   5 -2.657224E+06 -3.740121E+05 -3.668347E+03 -9.977636E+05  4.724152E+03 -2.461262E+03
        36   6 -2.656410E+06 -3.784252E+05 -7.447340E+03 -9.986680E+05  6.588693E+03 -1.672971E+03
        36   7 -2.882520E+06 -4.614404E+05 -6.412902E+04 -1.060879E+06  2.644689E+03 -2.958120E+03
        36   8 -2.886041E+06 -4.605964E+05 -6.633205E+04 -1.060058E+06  4.704009E+03 -2.468938E+03
        36   9 -2.887611E+06 -4.662290E+05 -7.084589E+04 -1.061932E+06  6.640879E+03 -1.653463E+03
        36  10 -2.429572E+06 -2.906773E+05  5.984047E+04 -9.382102E+05 -5.679100E-10  9.680128E-12
        36  11 -2.428356E+06 -2.874248E+05  5.899053E+04 -9.354487E+05 -3.835112E-09  1.881102E-09
        36  12 -2.425158E+06 -2.906185E+05  5.594616E+04 -9.353830E+05  5.521305E-10  7.465456E-10
        36  13 -2.656071E+06 -3.760603E+05 -2.141992E+03 -9.995548E+05 -1.330146E-10  4.164976E-10
        36  14 -2.657224E+06 -3.740121E+05 -3.668400E+03 -9.977636E+05  2.759905E-10  7.144490E-10
        36  15 -2.656410E+06 -3.784253E+05 -7.447427E+03 -9.986680E+05  1.567964E-09  4.558882E-10
        36  16 -2.882520E+06 -4.614404E+05 -6.412905E+04 -1.060879E+06  9.577631E-10  1.929950E-12
        36  17 -2.886041E+06 -4.605965E+05 -6.633211E+04 -1.060058E+06  7.243192E-09  1.210452E-10
        36  18 -2.887611E+06 -4.662290E+05 -7.084598E+04 -1.061932E+06  8.043347E-10 -1.220516E-09
        36  19 -2.429572E+06 -2.906773E+05  5.984050E+04 -9.382102E+05 -2.829726E+03  2.888494E+03
        36  20 -2.428356E+06 -2.874248E+05  5.899059E+04 -9.354487E+05 -4.744304E+03  2.453583E+03
        36  21 -2.425158E+06 -2.906185E+05  5.594625E+04 -9.353830E+05 -6.536486E+03  1.692486E+03
        36  22 -2.656071E+06 -3.760603E+05 -2.141962E+03 -9.995548E+05 -2.737189E+03  2.923314E+03
        36  23 -2.657224E+06 -3.740121E+05 -3.668347E+03 -9.977636E+05 -4.724152E+03  2.461262E+03
        36  24 -2.656410E+06 -3.784252E+05 -7.447340E+03 -9.986680E+05 -6.588693E+03  1.672971E+03
        36  25 -2.882520E+06 -4.614404E+05 -6.412902E+04 -1.060879E+06 -2.644689E+03  2.958120E+03
        36  26 -2.886041E+06 -4.605964E+05 -6.633205E+04 -1.060058E+06 -4.704009E+03  2.468938E+03
        36  27 -2.887611E+06 -4.662290E+05 -7.084589E+04 -1.061932E+06 -6.640879E+03  1.653463E+03
        37   1 -2.432718E+06 -2.891365E+05  5.245646E+04 -9.373730E+05  8.022496E+03 -1.134220E+03
        37   2 -2.432495E+06 -2.894528E+05  4.474636E+04 -9.406692E+05  1.619664E+04  1.984890E+03
        37   3 -2.448053E+06 -3.067508E+05  2.462742E+04 -9.308571E+05  2.417898E+04  5.612141E+03
        37   4 -2.659345E+06 -3.736603E+05 -9.351524E+03 -9.978299E+05  7.972437E+03 -1.153142E+03
        37   5 -2.652628E+06 -3.733978E+05 -1.564898E+04 -1.001285E+06  1.625758E+04  2.007716E+03
        37   6 -2.661717E+06 -3.901442E+05 -3.444689E+04 -9.916311E+05  2.435096E+04  5.676773E+03
        37   7 -2.885922E+06 -4.581815E+05 -7.116415E+04 -1.058267E+06  7.922396E+03 -1.172057E+03
        37   8 -2.872715E+06 -4.573397E+05 -7.604872E+04 -1.061882E+06  1.631849E+04  2.030533E+03
        37   9 -2.875338E+06 -4.735340E+05 -9.352536E+04 -1.052386E+06  2.452288E+04  5.741378E+03
        37  10 -2.432718E+06 -2.891366E+05  5.245634E+04 -9.373730E+05  1.094311E-09 -2.044376E-10
        37  11 -2.432495E+06 -2.894529E+05  4.474586E+04 -9.406693E+05  1.118643E-09 -3.029719E-10
        37  12 -2.448053E+06 -3.067510E+05  2.462626E+04 -9.308572E+05  1.805135E-09 -9.376547E-10
        37  13 -2.659345E+06 -3.736603E+05 -9.351646E+03 -9.978299E+05  8.687956E-10 -4.307253E-10
        37  14 -2.652628E+06 -3.733979E+05 -1.564949E+04 -1.001285E+06 -2.204397E-09 -5.535243E-10
        37  15 -2.661718E+06 -3.901444E+05 -3.444807E+04 -9.916312E+05  8.167020E-10  5.776931E-10
        37  16 -2.885922E+06 -4.581815E+05 -7.116427E+04 -1.058267E+06 -1.378989E-09  1.886844E-10
        37  17 -2.872715E+06 -4.573398E+05 -7.604923E+04 -1.061882E+06 -1.472558E-09 -3.396954E-10
        37  18 -2.875339E+06 -4.735342E+05 -9.352656E+04 -1.052386E+06 -2.714274E-09  8.132293E-11
        37  19 -2.432718E+06 -2.891365E+05  5.245646E+04 -9.373730E+05 -8.022496E+03  1.134220E+03
        37  20 -2.432495E+06 -2.894528E+05  4.474636E+04 -9.406692E+05 -1.619664E+04 -1.984890E+03
        37  21 -2.448053E+06 -3.067508E+05  2.462742E+04 -9.308571E+05 -2.417898E+04 -5.612141E+03
        37  22 -2.659345E+06 -3.736603E+05 -9.351524E+03 -9.978299E+05 -7.972437E+03  1.153142E+03
        37  23 -2.652628E+06 -3.733978E+05 -1.564898E+04 -1.001285E+06 -1.625758E+04 -2.007716E+03
        37  24 -2.661717E+06 -3.901442E+05 -3.444689E+04 -9.916311E+05 -2.435096E+04 -5.676773E+03
        37  25 -2.885922E+06 -4.581815E+05 -7.116415E+04 -1.058267E+06 -7.922396E+03  1.172057E+03
        37  26 -2.872715E+06 -4.573397E+05 -7.604872E+04 -1.061882E+06 -1.631849E+04 -2.030533E+03
        37  27 -2.875338E+06 -4.735340E+05 -9.352536E+04 -1.052386E+06 -2.452288E+04 -5.741378E+03
        38   1 -2.485534E+06 -3.084754E+05  6.633798E+03 -9.587966E+05  3.080624E+04  8.082388E+03
        38   2 -2.475068E+06 -2.874089E+05 -2.126239E+04 -9.588896E+05  6.705249E+04  2.199514E+04
        38   3 -2.544373E+06 -4.130092E+05 -1.204317E+05 -9.005723E+05  1.026147E+05  3.771911E+04
        38   4 -2.668857E+06 -3.695141E+05 -4.187108E+04 -1.000212E+06  3.064471E+04  8.021900E+03
        38   5 -2.637184E+06 -3.534222E+05 -6.654314E+04 -1.007820E+06  6.728718E+04  2.208305E+04
        38   6 -2.685375E+06 -4.841015E+05 -1.628173E+05 -9.570120E+05  1.032469E+05  3.795424E+04
        38   7 -2.852149E+06 -4.305527E+05 -9.037883E+04 -1.041616E+06  3.048322E+04  7.961426E+03
        38   8 -2.799274E+06 -4.194329E+05 -1.118264E+05 -1.056738E+06  6.752181E+04  2.217093E+04
        38   9 -2.826357E+06 -5.551877E+05 -2.052048E+05 -1.013438E+06  1.038789E+05  3.818927E+04
        38  10 -2.485535E+06 -3.084757E+05  6.631883E+03 -9.587968E+05 -4.692468E-10 -4.259353E-10
        38  11 -2.475073E+06 -2.874106E+05 -2.127179E+04 -9.588907E+05 -1.990566E-09 -2.084141E-09
        38  12 -2.544385E+06 -4.130136E+05 -1.204543E+05 -9.005754E+05 -1.561606E-09 -6.546451E-10
        38  13 -2.668859E+06 -3.695144E+05 -4.187297E+04 -1.000212E+06 -3.472113E-09 -1.425153E-09
        38  14 -2.637189E+06 -3.534239E+05 -6.655261E+04 -1.007821E+06  2.543969E-09  2.996208E-10
        38  15 -2.685387E+06 -4.841060E+05 -1.628401E+05 -9.570151E+05 -3.471790E-09  4.871134E-10
        38  16 -2.852150E+06 -4.305530E+05 -9.038070E+04 -1.041617E+06 -2.751451E-10 -1.748029E-09
        38  17 -2.799279E+06 -4.194346E+05 -1.118359E+05 -1.056739E+06  3.856103E-09 -2.825955E-09
        38  18 -2.826369E+06 -5.551921E+05 -2.052279E+05 -1.013442E+06  1.727297E-10 -1.132084E-09
        38  19 -2.485534E+06 -3.084754E+05  6.633798E+03 -9.587966E+05 -3.080624E+04 -8.082388E+03
        38  20 -2.475068E+06 -2.874089E+05 -2.126239E+04 -9.588896E+05 -6.705249E+04 -2.199514E+04
        38  21 -2.544373E+06 -4.130092E+05 -1.204317E+05 -9.005723E+05 -1.026147E+05 -3.771911E+04
        38  22 -2.668857E+06 -3.695141E+05 -4.187108E+04 -1.000212E+06 -3.064471E+04 -8.021900E+03
        38  23 -2.637184E+06 -3.534222E+05 -6.654314E+04 -1.007820E+06 -6.728718E+04 -2.208305E+04
        38  24 -2.685375E+06 -4.841015E+05 -1.628173E+05 -9.570120E+05 -1.032469E+05 -3.795424E+04
        38  25 -2.852149E+06 -4.305527E+05 -9.037883E+04 -1.041616E+06 -3.048322E+04 -7.961426E+03
        38  26 -2.799274E+06 -4.194329E+05 -1.118264E+05 -1.056738E+06 -6.752181E+04 -2.217093E+04
        38  27 -2.826357E+06 -5.551877E+05 -2.052048E+05 -1.013438E+06 -1.038789E+05 -3.818927E+04
        39   1 -1.001291E+06  1.469771E+05  1.907555E+05  2.397452E+04  1.301187E+05  5.032645E+00
        39   2 -1.029877E+06 -3.179988E+04  8.180350E+04  6.244425E+03  8.552720E+04  8.616167E-01
        39   3 -1.001376E+06 -5.582500E+03  5.317507E+04 -1.148496E+04  4.093505E+04 -7.584428E-01
        39   4 -1.001291E+06  1.469760E+05  1.907553E+05  1.589072E-08  1.301187E+05  1.599839E-10
        39   5 -1.029877E+06 -3.179995E+04  8.180349E+04  4.495634E-09  8.552720E+04  1.854996E-09
        39   6 -1.001376E+06 -5.582748E+03  5.317503E+04  1.248215E-08  4.093505E+04 -3.448482E-10
        39   7 -1.001291E+06  1.469771E+05  1.907555E+05 -2.397452E+04  1.301187E+05 -5.032645E+00
        39   8 -1.029877E+06 -3.179988E+04  8.180350E+04 -6.244425E+03  8.552720E+04 -8.616167E-01
        39   9 -1.001376E+06 -5.582500E+03  5.317507E+04  1.148496E+04  4.093505E+04  7.584428E-01
        39  10 -1.001309E+06  1.469725E+05  1.907236E+05  2.397451E+04  1.499954E-10  4.588176E-10
        39  11 -1.029885E+06 -3.180185E+04  8.178974E+04  6.244425E+03 -5.578401E-10  1.415166E-09
        39  12 -1.001378E+06 -5.582950E+03  5.317191E+04 -1.148496E+04  5.766876E-10  3.038751E-10
        39  13 -1.001309E+06  1.469714E+05  1.907234E+05 -4.438436E-08 -3.362888E-11  4.430872E-10
        39  14 -1.029885E+06 -3.180192E+04  8.178973E+04 -8.424166E-09  5.639077E-10  1.092077E-09
        39  15 -1.001378E+06 -5.583199E+03  5.317188E+04  3.614282E-08 -5.954188E-10  3.711129E-11
        39  16 -1.001309E+06  1.469725E+05  1.907236E+05 -2.397451E+04  1.397708E-09  5.030218E-10
        39  17 -1.029885E+06 -3.180185E+04  8.178974E+04 -6.244425E+03 -1.979911E-09  1.290357E-09
        39  18 -1.001378E+06 -5.582950E+03  5.317191E+04  1.148496E+04 -1.515646E-09 -2.448442E-11
        39  19 -1.001291E+06  1.469771E+05  1.907555E+05  2.397452E+04 -1.301187E+05 -5.032645E+00
        39  20 -1.029877E+06 -3.179988E+04  8.180350E+04  6.244425E+03 -8.552720E+04 -8.616167E-01
        39  21 -1.001376E+06 -5.582500E+03  5.317507E+04 -1.148496E+04 -4.093505E+04  7.584428E-01
        39  22 -1.001291E+06  1.469760E+05  1.907553E+05  7.314731E-09 -1.301187E+05  7.689621E-10
        39  23 -1.029877E+06 -3.179995E+04  8.180349E+04 -4.120952E-09 -8.552720E+04  2.347207E-10
        39  24 -1.001376E+06 -5.582748E+03  5.317503E+04  3.826963E-09 -4.093505E+04  5.083173E-10
        39  25 -1.001291E+06  1.469771E+05  1.907555E+05 -2.397452E+04 -1.301187E+05  5.032645E+00
        39  26 -1.029877E+06 -3.179988E+04  8.180350E+04 -6.244425E+03 -8.552720E+04  8.616167E-01
        39  27 -1.001376E+06 -5.582500E+03  5.317507E+04  1.148496E+04 -4.093505E+04 -7.584428E-01
        40   1 -1.012097E+06  2.093180E+04  4.389013E+04  3.232262E+03  3.224908E+04  1.681627E-01
        40   2 -1.016483E+06 -4.547035E+03  2.120042E+04  7.760308E+02  2.118150E+04  2.651814E-02
        40   3 -1.012112E+06 -7.774217E+02  1.303756E+04 -1.680163E+03  1.011416E+04 -2.741482E-02
        40   4 -1.012097E+06  2.093178E+04  4.389013E+04  1.357886E-08  3.224908E+04 -1.038133E-09
        40   5 -1.016483E+06 -4.547036E+03  2.120042E+04  1.322296E-08  2.118150E+04 -3.781475E-11
        40   6 -1.012112E+06 -7.774271E+02  1.303756E+04 -4.203342E-08  1.011416E+04  1.454006E-09
        40   7 -1.012097E+06  2.093180E+04  4.389013E+04 -3.232262E+03  3.224908E+04 -1.681627E-01
        40   8 -1.016483E+06 -4.547035E+03  2.120042E+04 -7.760308E+02  2.118150E+04 -2.651815E-02
        40   9 -1.012112E+06 -7.774217E+02  1.303756E+04  1.680163E+03  1.011416E+04  2.741482E-02
        40  10 -1.012098E+06  2.093152E+04  4.388817E+04  3.232262E+03  2.254699E-09 -9.396892E-10
        40  11 -1.016484E+06 -4.547155E+03  2.119958E+04  7.760308E+02  1.717881E-09 -1.259701E-10
        40  12 -1.012112E+06 -7.774493E+02  1.303737E+04 -1.680163E+03  6.417952E-10  6.492935E-10
        40  13 -1.012098E+06  2.093150E+04  4.388817E+04 -1.225662E-08  5.044247E-11 -5.202422E-10
        40  14 -1.016484E+06 -4.547156E+03  2.119958E+04 -3.843976E-08  1.076553E-09 -1.267205E-10
        40  15 -1.012112E+06 -7.774546E+02  1.303737E+04 -8.643708E-09 -8.629527E-10  8.042623E-10
        40  16 -1.012098E+06  2.093152E+04  4.388817E+04 -3.232262E+03 -1.783364E-09 -4.072319E-10
        40  17 -1.016484E+06 -4.547155E+03  2.119958E+04 -7.760308E+02 -1.348171E-09 -2.541736E-11
        40  18 -1.012112E+06 -7.774493E+02  1.303737E+04  1.680163E+03 -1.604071E-09  6.490290E-10
        40  19 -1.012097E+06  2.093180E+04  4.389013E+04  3.232262E+03 -3.224908E+04 -1.681627E-01
        40  20 -1.016483E+06 -4.547035E+03  2.120042E+04  7.760308E+02 -2.118150E+04 -2.651815E-02
        40  21 -1.012112E+06 -7.774217E+02  1.303756E+04 -1.680163E+03 -1.011416E+04  2.741482E-02
        40  22 -1.012097E+06  2.093178E+04  4.389013E+04 -1.225898E-08 -3.224908E+04 -8.598235E-11
        40  23 -1.016483E+06 -4.547036E+03  2.120042E+04 -5.565593E-08 -2.118150E+04 -2.708729E-10
        40  24 -1.012112E+06 -7.774271E+02  1.303756E+04 -5.060967E-08 -1.011416E+04  1.491329E-10
        40  25 -1.012097E+06  2.093180E+04  4.389013E+04 -3.232262E+03 -3.224908E+04  1.681627E-01
        40  26 -1.016483E+06 -4.547035E+03  2.120042E+04 -7.760308E+02 -2.118150E+04  2.651814E-02
        40  27 -1.012112E+06 -7.774217E+02  1.303756E+04  1.680163E+03 -1.011416E+04 -2.741482E-02
        41   1 -1.013746E+06  2.961448E+03  1.037868E+04  4.113599E+02  8.008621E+03  5.314780E-03
        41   2 -1.014444E+06 -6.472470E+02  5.360822E+03  8.121309E+01  5.276767E+03  6.913511E-04
        41   3 -1.013748E+06 -1.082355E+02  3.160706E+03 -2.489391E+02  2.544880E+03 -1.022034E-03
        41   4 -1.013746E+06  2.961448E+03  1.037868E+04 -7.987096E-09  8.008621E+03  1.133473E-09
        41   5 -1.014444E+06 -6.472471E+02  5.360822E+03 -7.325248E-08  5.276767E+03 -6.888984E-10
        41   6 -1.013748E+06 -1.082356E+02  3.160706E+03  8.969796E-09  2.544880E+03  4.334175E-10
        41   7 -1.013746E+06  2.961448E+03  1.037868E+04 -4.113599E+02  8.008621E+03 -5.314778E-03
        41   8 -1.014444E+06 -6.472470E+02  5.360822E+03 -8.121309E+01  5.276767E+03 -6.913534E-04
        41   9 -1.013748E+06 -1.082355E+02  3.160706E+03  2.489391E+02  2.544880E+03  1.022035E-03
        41  10 -1.013746E+06  2.961431E+03  1.037856E+04  4.113599E+02 -1.389197E-09  4.210782E-10
        41  11 -1.014444E+06 -6.472545E+02  5.360769E+03  8.121309E+01 -2.610080E-09 -6.425030E-10
        41  12 -1.013748E+06 -1.082373E+02  3.160694E+03 -2.489391E+02 -1.568139E-09  1.986989E-10
        41  13 -1.013746E+06  2.961431E+03  1.037856E+04  9.207727E-09  2.119456E-09  5.771591E-10
        41  14 -1.014444E+06 -6.472545E+02  5.360769E+03 -4.360792E-09 -2.336603E-09 -4.120818E-10
        41  15 -1.013748E+06 -1.082374E+02  3.160694E+03 -3.945579E-08 -1.253913E-10 -1.301042E-10
        41  16 -1.013746E+06  2.961431E+03  1.037856E+04 -4.113599E+02  1.184655E-09  6.659690E-10
        41  17 -1.014444E+06 -6.472545E+02  5.360769E+03 -8.121309E+01 -4.463681E-10 -3.394964E-10
        41  18 -1.013748E+06 -1.082373E+02  3.160694E+03  2.489391E+02  6.786054E-10 -3.751967E-10
        41  19 -1.013746E+06  2.961448E+03  1.037868E+04  4.113599E+02 -8.008621E+03 -5.314779E-03
        41  20 -1.014444E+06 -6.472470E+02  5.360822E+03  8.121309E+01 -5.276767E+03 -6.913526E-04
        41  21 -1.013748E+06 -1.082355E+02  3.160706E+03 -2.489391E+02 -2.544880E+03  1.022034E-03
        41  22 -1.013746E+06  2.961448E+03  1.037868E+04  1.779319E-08 -8.008621E+03  1.914746E-10
        41  23 -1.014444E+06 -6.472471E+02  5.360822E+03 -4.364469E-09 -5.276767E+03 -2.520296E-10
        41  24 -1.013748E+06 -1.082356E+02  3.160706E+03  2.623136E-08 -2.544880E+03 -7.583975E-10
        41  25 -1.013746E+06  2.961448E+03  1.037868E+04 -4.113599E+02 -8.008621E+03  5.314779E-03
        41  26 -1.014444E+06 -6.472470E+02  5.360822E+03 -8.121309E+01 -5.276767E+03  6.913515E-04
        41  27 -1.013748E+06 -1.082355E+02  3.160706E+03  2.489391E+02 -2.544880E+03 -1.022036E-03
        42   1 -1.014009E+06  4.146680E+02  2.434137E+03  4.387152E+01  2.040402E+03  1.444130E-04
        42   2 -1.014119E+06 -8.688885E+01  1.228442E+03  3.778716E+00  1.422549E+03  8.670876E-06
        42   3 -1.014010E+06 -3.502386E+01  5.638487E+02 -3.631411E+01  8.046960E+02 -4.714151E-05
        42   4 -1.014009E+06  4.146679E+02  2.434137E+03 -2.941236E-09  2.040402E+03  4.523806E-10
        42   5 -1.014119E+06 -8.688885E+01  1.228442E+03 -4.519524E-08  1.422549E+03 -5.575949E-10
        42   6 -1.014010E+06 -3.502387E+01  5.638487E+02  8.272989E-10  8.046960E+02  9.701038E-10
        42   7 -1.014009E+06  4.146680E+02  2.434137E+03 -4.387152E+01  2.040402E+03 -1.444122E-04
        42   8 -1.014119E+06 -8.688885E+01  1.228442E+03 -3.778716E+00  1.422549E+03 -8.673057E-06
        42   9 -1.014010E+06 -3.502386E+01  5.638487E+02  3.631411E+01  8.046960E+02  4.714302E-05
        42  10 -1.014009E+06  4.146668E+02  2.434129E+03  4.387152E+01  1.260281E-09  3.910056E-10
        42  11 -1.014119E+06 -8.688939E+01  1.228439E+03  3.778716E+00  1.955469E-10 -3.525750E-10
        42  12 -1.014010E+06 -3.502404E+01  5.638475E+02 -3.631411E+01 -3.824241E-10  3.127746E-10
        42  13 -1.014009E+06  4.146668E+02  2.434129E+03 -1.062903E-07  2.587002E-09  1.145177E-10
        42  14 -1.014119E+06 -8.688939E+01  1.228439E+03  6.479681E-09  8.931984E-10 -7.153064E-11
        42  15 -1.014010E+06 -3.502404E+01  5.638475E+02 -5.631380E-09 -2.001507E-10 -4.027271E-12
        42  16 -1.014009E+06  4.146668E+02  2.434129E+03 -4.387152E+01 -1.039053E-09 -2.769277E-11
        42  17 -1.014119E+06 -8.688939E+01  1.228439E+03 -3.778716E+00  2.055063E-09  2.087574E-10
        42  18 -1.014010E+06 -3.502404E+01  5.638475E+02  3.631411E+01  1.134089E-09 -6.957247E-11
        42  19 -1.014009E+06  4.146680E+02  2.434137E+03  4.387152E+01 -2.040402E+03 -1.444121E-04
        42  20 -1.014119E+06 -8.688885E+01  1.228442E+03  3.778716E+00 -1.422549E+03 -8.671010E-06
        42  21 -1.014010E+06 -3.502386E+01  5.638487E+02 -3.631411E+01 -8.046960E+02  4.714087E-05
        42  22 -1.014009E+06  4.146679E+02  2.434137E+03  5.665252E-09 -2.040402E+03 -1.807085E-10
        42  23 -1.014119E+06 -8.688885E+01  1.228442E+03 -6.442399E-09 -1.422549E+03  3.803533E-10
        42  24 -1.014010E+06 -3.502387E+01  5.638487E+02 -8.863608E-09 -8.046960E+02 -9.491784E-10
        42  25 -1.014009E+06  4.146680E+02  2.434137E+03 -4.387152E+01 -2.040402E+03  1.444110E-04
        42  26 -1.014119E+06 -8.688885E+01  1.228442E+03 -3.778716E+00 -1.422549E+03  8.671706E-06
        42  27 -1.014010E+06 -3.502386E+01  5.638487E+02  3.631411E+01 -8.046960E+02 -4.714331E-05
        43   1 -1.014069E+06  6.180519E+01  3.114689E+02 -1.083237E+01  7.256270E+02 -1.267910E-05
        43   2 -1.014046E+06  2.183769E+01 -1.736572E+02  3.663548E-01  8.142413E+02  4.808075E-07
        43   3 -1.014069E+06 -1.581165E+02 -7.515458E+02  1.156492E+01  9.028543E+02  1.684393E-05
        43   4 -1.014069E+06  6.180519E+01  3.114689E+02  2.393926E-10  7.256270E+02  1.180660E-09
        43   5 -1.014046E+06  2.183769E+01 -1.736572E+02 -4.620823E-08  8.142413E+02 -5.418876E-10
        43   6 -1.014069E+06 -1.581165E+02 -7.515458E+02 -6.574487E-08  9.028543E+02 -7.808817E-10
        43   7 -1.014069E+06  6.180519E+01  3.114689E+02  1.083237E+01  7.256270E+02  1.268156E-05
        43   8 -1.014046E+06  2.183769E+01 -1.736572E+02 -3.663549E-01  8.142413E+02 -4.820076E-07
        43   9 -1.014069E+06 -1.581165E+02 -7.515458E+02 -1.156492E+01  9.028543E+02 -1.684553E-05
        43  10 -1.014069E+06  6.180505E+01  3.114679E+02 -1.083237E+01  7.242308E-11  4.247613E-10
        43  11 -1.014046E+06  2.183751E+01 -1.736584E+02  3.663546E-01 -2.530640E-09 -1.339103E-10
        43  12 -1.014069E+06 -1.581167E+02 -7.515474E+02  1.156492E+01 -2.587521E-09 -7.371175E-10
        43  13 -1.014069E+06  6.180505E+01  3.114679E+02 -5.142636E-08  3.329281E-10  1.949463E-10
        43  14 -1.014046E+06  2.183751E+01 -1.736584E+02 -7.457730E-09  1.443087E-09  1.419197E-10
        43  15 -1.014069E+06 -1.581167E+02 -7.515474E+02 -5.391692E-08 -2.501015E-09 -4.353467E-10
        43  16 -1.014069E+06  6.180505E+01  3.114679E+02  1.083237E+01  1.008315E-09 -2.036758E-10
        43  17 -1.014046E+06  2.183751E+01 -1.736584E+02 -3.663547E-01  2.709713E-09  4.851558E-10
        43  18 -1.014069E+06 -1.581167E+02 -7.515474E+02 -1.156492E+01  5.081491E-10  3.515262E-11
        43  19 -1.014069E+06  6.180519E+01  3.114689E+02 -1.083237E+01 -7.256270E+02  1.268013E-05
        43  20 -1.014046E+06  2.183769E+01 -1.736572E+02  3.663547E-01 -8.142413E+02 -4.798661E-07
        43  21 -1.014069E+06 -1.581165E+02 -7.515458E+02  1.156492E+01 -9.028543E+02 -1.684508E-05
        43  22 -1.014069E+06  6.180519E+01  3.114689E+02  4.331258E-08 -7.256270E+02 -6.843847E-10
        43  23 -1.014046E+06  2.183769E+01 -1.736572E+02  4.851785E-08 -8.142413E+02  7.030693E-10
        43  24 -1.014069E+06 -1.581165E+02 -7.515458E+02  1.173906E-08 -9.028543E+02 -4.467554E-11
        43  25 -1.014069E+06  6.180519E+01  3.114689E+02  1.083237E+01 -7.256270E+02 -1.268225E-05
        43  26 -1.014046E+06  2.183769E+01 -1.736572E+02 -3.663547E-01 -8.142413E+02  4.816776E-07
        43  27 -1.014069E+06 -1.581165E+02 -7.515458E+02 -1.156492E+01 -9.028543E+02  1.684517E-05
        44   1 -1.014174E+06  4.729688E+01 -1.066076E+03 -9.438661E+01  1.066682E+03 -1.624244E-04
        44   2 -1.013915E+06  2.431867E+02 -1.954299E+03  3.015740E+01  2.063557E+03  1.003958E-04
        44   3 -1.014175E+06 -1.119726E+03 -3.882014E+03  1.547033E+02  3.060447E+03  7.638170E-04
        44   4 -1.014174E+06  4.729686E+01 -1.066076E+03 -2.069458E-08  1.066682E+03 -3.861804E-11
        44   5 -1.013915E+06  2.431867E+02 -1.954299E+03 -2.951316E-08  2.063557E+03  5.580288E-10
        44   6 -1.014175E+06 -1.119726E+03 -3.882014E+03 -5.232902E-08  3.060447E+03 -6.536912E-10
        44   7 -1.014174E+06  4.729688E+01 -1.066076E+03  9.438661E+01  1.066682E+03  1.624237E-04
        44   8 -1.013915E+06  2.431867E+02 -1.954299E+03 -3.015740E+01  2.063557E+03 -1.003958E-04
        44   9 -1.014175E+06 -1.119726E+03 -3.882014E+03 -1.547033E+02  3.060447E+03 -7.638182E-04
        44  10 -1.014174E+06  4.729657E+01 -1.066078E+03 -9.438661E+01  1.181786E-09 -6.418562E-10
        44  11 -1.013915E+06  2.431856E+02 -1.954307E+03  3.015740E+01 -2.686666E-10  5.329717E-11
        44  12 -1.014175E+06 -1.119729E+03 -3.882031E+03  1.547033E+02 -2.852034E-09  2.173632E-10
        44  13 -1.014174E+06  4.729656E+01 -1.066078E+03 -3.790311E-08 -2.586712E-09 -3.701660E-10
        44  14 -1.013915E+06  2.431856E+02 -1.954307E+03 -5.534554E-08 -1.626121E-09  1.854175E-10
        44  15 -1.014175E+06 -1.119729E+03 -3.882031E+03 -5.556125E-08  6.344266E-09  3.344540E-10
        44  16 -1.014174E+06  4.729657E+01 -1.066078E+03  9.438661E+01  2.001162E-09 -1.995372E-10
        44  17 -1.013915E+06  2.431856E+02 -1.954307E+03 -3.015740E+01 -6.458568E-10  9.244459E-11
        44  18 -1.014175E+06 -1.119729E+03 -3.882031E+03 -1.547033E+02  3.031916E-09  2.220569E-10
        44  19 -1.014174E+06  4.729688E+01 -1.066076E+03 -9.438661E+01 -1.066682E+03  1.624232E-04
        44  20 -1.013915E+06  2.431867E+02 -1.954299E+03  3.015740E+01 -2.063557E+03 -1.003948E-04
        44  21 -1.014175E+06 -1.119726E+03 -3.882014E+03  1.547033E+02 -3.060447E+03 -7.638161E-04
        44  22 -1.014174E+06  4.729686E+01 -1.066076E+03 -3.443230E-09 -1.066682E+03 -6.697503E-10
        44  23 -1.013915E+06  2.431867E+02 -1.954299E+03 -2.519651E-08 -2.063557E+03 -5.075598E-11
        44  24 -1.014175E+06 -1.119726E+03 -3.882014E+03  2.517439E-08 -3.060447E+03  1.353727E-09
        44  25 -1.014174E+06  4.729688E+01 -1.066076E+03  9.438661E+01 -1.066682E+03 -1.624248E-04
        44  26 -1.013915E+06  2.431867E+02 -1.954299E+03 -3.015740E+01 -2.063557E+03  1.003952E-04
        44  27 -1.014175E+06 -1.119726E+03 -3.882014E+03 -1.547033E+02 -3.060447E+03  7.638186E-04
        45   1 -1.014794E+06  2.946789E+02 -4.897205E+03 -6.354192E+02  3.849745E+03 -3.946372E-03
        45   2 -1.013142E+06  1.718900E+03 -7.996755E+03  2.932085E+02  8.025196E+03  3.796092E-03
        45   3 -1.014800E+06 -7.913438E+03 -1.658209E+04  1.221836E+03  1.220064E+04  2.404920E-02
        45   4 -1.014794E+06  2.946781E+02 -4.897205E+03 -2.983898E-08  3.849745E+03 -1.986848E-10
        45   5 -1.013142E+06  1.718900E+03 -7.996755E+03 -6.283511E-09  8.025196E+03  1.289508E-09
        45   6 -1.014800E+06 -7.913440E+03 -1.658209E+04 -1.717561E-08  1.220064E+04 -1.005836E-09
        45   7 -1.014794E+06  2.946789E+02 -4.897205E+03  6.354192E+02  3.849745E+03  3.946372E-03
        45   8 -1.013142E+06  1.718900E+03 -7.996755E+03 -2.932085E+02  8.025196E+03 -3.796091E-03
        45   9 -1.014800E+06 -7.913438E+03 -1.658209E+04 -1.221836E+03  1.220064E+04 -2.404920E-02
        45  10 -1.014794E+06  2.946749E+02 -4.897233E+03 -6.354192E+02 -3.993980E-09  7.381603E-11
        45  11 -1.013142E+06  1.718882E+03 -7.996876E+03  2.932085E+02 -3.229468E-10 -1.310962E-10
        45  12 -1.014800E+06 -7.913478E+03 -1.658237E+04  1.221836E+03 -2.379827E-09 -6.743528E-11
        45  13 -1.014794E+06  2.946741E+02 -4.897233E+03 -2.122853E-08 -2.119431E-09  2.867812E-10
        45  14 -1.013142E+06  1.718882E+03 -7.996876E+03  1.955264E-08  1.970163E-09  1.333243E-10
        45  15 -1.014800E+06 -7.913481E+03 -1.658237E+04  8.660955E-09  3.366736E-09 -6.063984E-11
        45  16 -1.014794E+06  2.946749E+02 -4.897233E+03  6.354192E+02  1.462529E-09  3.653862E-10
        45  17 -1.013142E+06  1.718882E+03 -7.996876E+03 -2.932085E+02  1.929330E-09  1.946118E-10
        45  18 -1.014800E+06 -7.913478E+03 -1.658237E+04 -1.221836E+03  1.570591E-09 -5.854023E-11
        45  19 -1.014794E+06  2.946789E+02 -4.897205E+03 -6.354192E+02 -3.849745E+03  3.946373E-03
        45  20 -1.013142E+06  1.718900E+03 -7.996755E+03  2.932085E+02 -8.025196E+03 -3.796093E-03
        45  21 -1.014800E+06 -7.913438E+03 -1.658209E+04  1.221836E+03 -1.220064E+04 -2.404920E-02
        45  22 -1.014794E+06  2.946781E+02 -4.897205E+03  4.766611E-08 -3.849745E+03  6.829885E-10
        45  23 -1.013142E+06  1.718900E+03 -7.996755E+03  2.816207E-08 -8.025196E+03 -1.051943E-09
        45  24 -1.014800E+06 -7.913440E+03 -1.658209E+04  3.556957E-08 -1.220064E+04  8.765368E-10
        45  25 -1.014794E+06  2.946789E+02 -4.897205E+03  6.354192E+02 -3.849745E+03 -3.946372E-03
        45  26 -1.013142E+06  1.718900E+03 -7.996755E+03 -2.932085E+02 -8.025196E+03  3.796091E-03
        45  27 -1.014800E+06 -7.913438E+03 -1.658209E+04 -1.221836E+03 -1.220064E+04  2.404920E-02
        46   1 -1.018853E+06  2.111015E+03 -2.009391E+04 -4.342200E+03  1.548203E+04 -1.084541E-01
        46   2 -1.008077E+06  1.202282E+04 -3.091444E+04  2.361022E+03  3.233999E+04  1.231802E-01
        46   3 -1.018882E+06 -5.556578E+04 -7.209773E+04  9.064043E+03  4.919780E+04  7.194034E-01
        46   4 -1.018853E+06  2.110980E+03 -2.009392E+04  1.392242E-08  1.548203E+04 -1.326009E-09
        46   5 -1.008077E+06  1.202281E+04 -3.091444E+04 -2.826730E-08  3.233999E+04  6.724293E-10
        46   6 -1.018882E+06 -5.556594E+04 -7.209775E+04 -1.559895E-09  4.919780E+04  3.352302E-10
        46   7 -1.018853E+06  2.111015E+03 -2.009391E+04  4.342200E+03  1.548203E+04  1.084541E-01
        46   8 -1.008077E+06  1.202282E+04 -3.091444E+04 -2.361022E+03  3.233999E+04 -1.231802E-01
        46   9 -1.018882E+06 -5.556578E+04 -7.209773E+04 -9.064043E+03  4.919780E+04 -7.194034E-01
        46  10 -1.018853E+06  2.110951E+03 -2.009436E+04 -4.342200E+03 -3.560660E-09 -4.950024E-11
        46  11 -1.008078E+06  1.202254E+04 -3.091640E+04  2.361022E+03 -2.881841E-09  7.233729E-11
        46  12 -1.018884E+06 -5.556644E+04 -7.210229E+04  9.064043E+03 -1.948111E-09  1.770746E-10
        46  13 -1.018853E+06  2.110915E+03 -2.009437E+04  3.976077E-08 -3.336324E-10 -6.627345E-11
        46  14 -1.008078E+06  1.202253E+04 -3.091641E+04 -1.534912E-08  1.068098E-09 -2.134346E-11
        46  15 -1.018884E+06 -5.556659E+04 -7.210231E+04 -2.739653E-08  4.472910E-10 -1.433638E-11
        46  16 -1.018853E+06  2.110951E+03 -2.009436E+04  4.342200E+03  1.101332E-09 -4.520999E-10
        46  17 -1.008078E+06  1.202254E+04 -3.091640E+04 -2.361022E+03  2.077608E-09 -2.705028E-10
        46  18 -1.018884E+06 -5.556644E+04 -7.210229E+04 -9.064043E+03  9.678387E-10 -4.119737E-11
        46  19 -1.018853E+06  2.111015E+03 -2.009391E+04 -4.342200E+03 -1.548203E+04  1.084541E-01
        46  20 -1.008077E+06  1.202282E+04 -3.091444E+04  2.361022E+03 -3.233999E+04 -1.231802E-01
        46  21 -1.018882E+06 -5.556578E+04 -7.209773E+04  9.064043E+03 -4.919780E+04 -7.194034E-01
        46  22 -1.018853E+06  2.110980E+03 -2.009392E+04  8.282535E-08 -1.548203E+04  1.147092E-09
        46  23 -1.008077E+06  1.202281E+04 -3.091444E+04  3.632686E-08 -3.233999E+04 -7.685448E-10
        46  24 -1.018882E+06 -5.556594E+04 -7.209775E+04 -1.340288E-08 -4.919780E+04 -3.231408E-10
        46  25 -1.018853E+06  2.111015E+03 -2.009391E+04  4.342200E+03 -1.548203E+04 -1.084541E-01
        46  26 -1.008077E+06  1.202282E+04 -3.091444E+04 -2.361022E+03 -3.233999E+04  1.231802E-01
        46  27 -1.018882E+06 -5.556578E+04 -7.209773E+04 -9.064043E+03 -4.919780E+04  7.194034E-01
        47   1 -1.128401E+05 -2.615732E+06 -1.426328E+05  7.528190E+04 -1.725388E+01 -8.987479E+04
        47   2  3.357201E+04 -2.505408E+06 -4.525355E+04  1.170947E+04  1.249710E+03 -5.689592E+04
        47   3  4.104275E+04 -2.434149E+06 -4.147010E+03  3.703338E+04  4.482086E+03 -2.391155E+04
        47   4 -1.046671E+05 -2.583110E+06 -1.344549E+05  4.899822E+04 -1.344262E+01 -8.998008E+04
        47   5  1.905236E+04 -2.563572E+06 -5.952318E+04  4.546428E+03  1.250370E+03 -5.775207E+04
        47   6  3.956033E+03 -2.582974E+06 -4.033771E+04  4.899515E+04  4.481698E+03 -2.552335E+04
        47   7 -9.649146E+04 -2.550486E+06 -1.262766E+05  2.271316E+04 -9.622583E+00 -9.008538E+04
        47   8  4.532638E+03 -2.621734E+06 -7.379302E+04 -2.615943E+03  1.251050E+03 -5.860814E+04
        47   9 -3.313178E+04 -2.731779E+06 -7.652994E+04  6.095404E+04  4.481248E+03 -2.713477E+04
        47  10 -1.128423E+05 -2.615741E+06 -1.426481E+05  7.528190E+04 -4.529679E-09 -2.407596E-09
        47  11  3.357114E+04 -2.505411E+06 -4.525966E+04  1.170953E+04 -5.416721E-09 -1.065595E-09
        47  12  4.104258E+04 -2.434149E+06 -4.148127E+03  3.703347E+04 -2.178077E-09  8.359019E-10
        47  13 -1.046692E+05 -2.583119E+06 -1.344701E+05  4.899822E+04 -1.871436E-09  5.033977E-11
        47  14  1.905145E+04 -2.563576E+06 -5.952947E+04  4.546486E+03  1.337729E-09 -2.175622E-11
        47  15  3.955835E+03 -2.582975E+06 -4.033898E+04  4.899524E+04  1.480204E-09 -2.815508E-11
        47  16 -9.649365E+04 -2.550495E+06 -1.262919E+05  2.271316E+04  2.855305E-09  2.196754E-09
        47  17  4.531709E+03 -2.621737E+06 -7.379951E+04 -2.615884E+03  8.827851E-10  1.112171E-09
        47  18 -3.313200E+04 -2.731779E+06 -7.653136E+04  6.095414E+04 -7.286483E-11 -7.574962E-10
        47  19 -1.128401E+05 -2.615732E+06 -1.426328E+05  7.528190E+04  1.725388E+01  8.987479E+04
        47  20  3.357201E+04 -2.505408E+06 -4.525355E+04  1.170947E+04 -1.249710E+03  5.689592E+04
        47  21  4.104275E+04 -2.434149E+06 -4.147010E+03  3.703338E+04 -4.482086E+03  2.391155E+04
        47  22 -1.046671E+05 -2.583110E+06 -1.344549E+05  4.899822E+04  1.344262E+01  8.998008E+04
        47  23  1.905236E+04 -2.563572E+06 -5.952318E+04  4.546428E+03 -1.250370E+03  5.775207E+04
        47  24  3.956033E+03 -2.582974E+06 -4.033771E+04  4.899515E+04 -4.481698E+03  2.552335E+04
        47  25 -9.649146E+04 -2.550486E+06 -1.262766E+05  2.271316E+04  9.622583E+00  9.008538E+04
        47  26  4.532638E+03 -2.621734E+06 -7.379302E+04 -2.615943E+03 -1.251050E+03  5.860814E+04
        47  27 -3.313178E+04 -2.731779E+06 -7.652994E+04  6.095404E+04 -4.481248E+03  2.713477E+04
        48   1  6.709616E+04 -2.256686E+06  4.362141E+04  5.191590E+04  6.972445E+03 -1.749983E+04
        48   2  1.048521E+05 -2.166021E+06  7.685494E+04  5.781735E+03  1.006750E+04 -6.456232E+03
        48   3  1.168770E+05 -2.082804E+06  9.653256E+04  4.481761E+04  1.167517E+04  4.590997E+03
        48   4 -1.261043E+04 -2.576055E+06 -3.469256E+04  4.816674E+04  6.972949E+03 -1.896290E+04
        48   5  3.526591E+03 -2.572274E+06 -2.245900E+04  5.578914E+03  1.006835E+04 -7.355316E+03
        48   6 -6.173862E+03 -2.576050E+06 -2.417869E+04  4.816512E+04  1.167605E+04  4.254375E+03
        48   7 -9.232457E+04 -2.895331E+06 -1.130140E+05  4.441951E+04  6.973470E+03 -2.042522E+04
        48   8 -9.781112E+04 -2.978376E+06 -1.217850E+05  5.376243E+03  1.006921E+04 -8.253809E+03
        48   9 -1.292428E+05 -3.069073E+06 -1.449078E+05  5.150998E+04  1.167693E+04  3.918020E+03
        48  10  6.709603E+04 -2.256686E+06  4.362074E+04  5.191600E+04  2.449940E-09  1.890063E-09
        48  11  1.048519E+05 -2.166021E+06  7.685467E+04  5.781788E+03 -7.176826E-10  6.394907E-10
        48  12  1.168769E+05 -2.082804E+06  9.653227E+04  4.481757E+04 -1.593687E-09 -2.850572E-09
        48  13 -1.261058E+04 -2.576056E+06 -3.469333E+04  4.816684E+04  6.383484E-10  5.778933E-11
        48  14  3.526468E+03 -2.572274E+06 -2.245929E+04  5.578974E+03 -1.969331E-09  2.129365E-10
        48  15 -6.174013E+03 -2.576050E+06 -2.417898E+04  4.816508E+04 -2.170981E-09 -9.341818E-10
        48  16 -9.232474E+04 -2.895332E+06 -1.130149E+05  4.441962E+04  1.612126E-10 -1.953668E-09
        48  17 -9.781125E+04 -2.978376E+06 -1.217853E+05  5.376310E+03  2.690238E-09 -6.836670E-10
        48  18 -1.292429E+05 -3.069073E+06 -1.449081E+05  5.150995E+04 -4.946111E-10  2.905583E-09
        48  19  6.709616E+04 -2.256686E+06  4.362141E+04  5.191590E+04 -6.972445E+03  1.749983E+04
        48  20  1.048521E+05 -2.166021E+06  7.685494E+04  5.781735E+03 -1.006750E+04  6.456232E+03
        48  21  1.168770E+05 -2.082804E+06  9.653256E+04  4.481761E+04 -1.167517E+04 -4.590997E+03
        48  22 -1.261043E+04 -2.576055E+06 -3.469256E+04  4.816674E+04 -6.972949E+03  1.896290E+04
        48  23  3.526591E+03 -2.572274E+06 -2.245900E+04  5.578914E+03 -1.006835E+04  7.355316E+03
        48  24 -6.173862E+03 -2.576050E+06 -2.417869E+04  4.816512E+04 -1.167605E+04 -4.254375E+03
        48  25 -9.232457E+04 -2.895331E+06 -1.130140E+05  4.441951E+04 -6.973470E+03  2.042522E+04
        48  26 -9.781112E+04 -2.978376E+06 -1.217850E+05  5.376243E+03 -1.006921E+04  8.253809E+03
        48  27 -1.292428E+05 -3.069073E+06 -1.449078E+05  5.150998E+04 -1.167693E+04 -3.918020E+03
        49   1  1.631999E+05 -1.927316E+06  1.337803E+05  5.192177E+04  1.582709E+04  1.295254E+04
        49   2  1.914164E+05 -1.840586E+06  1.450995E+05  3.660766E+03  1.916403E+04  2.447082E+04
        49   3  1.483336E+05 -1.771844E+06  1.313586E+05  3.106147E+04  6.565772E+03  3.596057E+04
        49   4  7.706287E+02 -2.578651E+06 -2.549527E+04  4.608718E+04  1.583248E+04  8.609923E+03
        49   5  9.778971E+03 -2.569150E+06 -3.268696E+04  8.196690E+03  1.916279E+04  2.621656E+04
        49   6 -5.361739E+04 -2.578727E+06 -6.920128E+04  4.597435E+04  6.550039E+03  4.379295E+04
        49   7 -1.616900E+05 -3.229598E+06 -1.848018E+05  4.025883E+04  1.583796E+04  4.271858E+03
        49   8 -1.718978E+05 -3.297228E+06 -2.105121E+05  1.272746E+04  1.916158E+04  2.796022E+04
        49   9 -2.556166E+05 -3.385017E+06 -2.698097E+05  6.086808E+04  6.534675E+03  5.161510E+04
        49  10  1.631996E+05 -1.927316E+06  1.337795E+05  5.192161E+04 -1.418688E-09 -5.071889E-10
        49  11  1.914159E+05 -1.840587E+06  1.450977E+05  3.660388E+03 -9.089895E-10 -6.367267E-10
        49  12  1.483332E+05 -1.771846E+06  1.313561E+05  3.106128E+04  6.603318E-10 -3.794798E-10
        49  13  7.703399E+02 -2.578651E+06 -2.549588E+04  4.608707E+04 -2.607251E-09  2.253368E-10
        49  14  9.778392E+03 -2.569151E+06 -3.268894E+04  8.196285E+03 -1.992424E-09 -3.160177E-11
        49  15 -5.361795E+04 -2.578729E+06 -6.920498E+04  4.597412E+04  1.206656E-09 -2.529415E-09
        49  16 -1.616902E+05 -3.229598E+06 -1.848023E+05  4.025877E+04  4.951174E-10  1.522980E-09
        49  17 -1.718984E+05 -3.297228E+06 -2.105143E+05  1.272702E+04 -4.546963E-09  1.412680E-10
        49  18 -2.556174E+05 -3.385019E+06 -2.698148E+05  6.086781E+04  1.811275E-10  7.762955E-10
        49  19  1.631999E+05 -1.927316E+06  1.337803E+05  5.192177E+04 -1.582709E+04 -1.295254E+04
        49  20  1.914164E+05 -1.840586E+06  1.450995E+05  3.660766E+03 -1.916403E+04 -2.447082E+04
        49  21  1.483336E+05 -1.771844E+06  1.313586E+05  3.106147E+04 -6.565772E+03 -3.596057E+04
        49  22  7.706287E+02 -2.578651E+06 -2.549527E+04  4.608718E+04 -1.583248E+04 -8.609923E+03
        49  23  9.778971E+03 -2.569150E+06 -3.268696E+04  8.196690E+03 -1.916279E+04 -2.621656E+04
        49  24 -5.361739E+04 -2.578727E+06 -6.920128E+04  4.597435E+04 -6.550039E+03 -4.379295E+04
        49  25 -1.616900E+05 -3.229598E+06 -1.848018E+05  4.025883E+04 -1.583796E+04 -4.271858E+03
        49  26 -1.718978E+05 -3.297228E+06 -2.105121E+05  1.272746E+04 -1.916158E+04 -2.796022E+04
        49  27 -2.556166E+05 -3.385017E+06 -2.698097E+05  6.086808E+04 -6.534675E+03 -5.161510E+04
        50   1 -1.315296E+06 -1.256350E+05  8.415047E+04 -5.072982E+05  6.392541E+04  2.441040E+04
        50   2 -1.333179E+06 -2.133089E+05  2.540194E+04 -4.833247E+05  4.094184E+04  1.658001E+04
        50   3 -1.304956E+06 -2.056474E+05  1.117027E+04 -4.915092E+05  1.832037E+04  7.782702E+03
        50   4 -1.243879E+06 -1.095589E+05  1.016098E+05 -4.991044E+05  6.419434E+04  2.450982E+04
        50   5 -1.272013E+06 -1.930582E+05  4.153333E+04 -4.696093E+05  4.099110E+04  1.659823E+04
        50   6 -1.254003E+06 -1.811849E+05  2.614412E+04 -4.722712E+05  1.815030E+04  7.719159E+03
        50   7 -1.172457E+06 -9.348301E+04  1.190689E+05 -4.909101E+05  6.446330E+04  2.460923E+04
        50   8 -1.210844E+06 -1.728074E+05  5.766438E+04 -4.558928E+05  4.104036E+04  1.661645E+04
        50   9 -1.203047E+06 -1.567217E+05  4.111775E+04 -4.530317E+05  1.798022E+04  7.655607E+03
        50  10 -1.315301E+06 -1.256367E+05  8.414165E+04 -5.072994E+05  5.446740E-10 -3.749665E-11
        50  11 -1.333181E+06 -2.133097E+05  2.539826E+04 -4.833252E+05  3.851067E-09 -2.154653E-10
        50  12 -1.304957E+06 -2.056476E+05  1.116952E+04 -4.915093E+05  6.107574E-10  4.900891E-10
        50  13 -1.243884E+06 -1.095607E+05  1.016010E+05 -4.991056E+05  1.887941E-11 -2.709662E-10
        50  14 -1.272015E+06 -1.930589E+05  4.152964E+04 -4.696098E+05 -1.081319E-09 -8.267477E-10
        50  15 -1.254003E+06 -1.811851E+05  2.614339E+04 -4.722713E+05 -3.422378E-09  2.245084E-10
        50  16 -1.172461E+06 -9.348478E+04  1.190599E+05 -4.909114E+05 -1.396492E-09 -2.740936E-10
        50  17 -1.210846E+06 -1.728081E+05  5.766069E+04 -4.558933E+05 -1.065619E-09 -7.034389E-10
        50  18 -1.203047E+06 -1.567218E+05  4.111703E+04 -4.530318E+05 -1.867362E-09  4.359696E-10
        50  19 -1.315296E+06 -1.256350E+05  8.415047E+04 -5.072982E+05 -6.392541E+04 -2.441040E+04
        50  20 -1.333179E+06 -2.133089E+05  2.540194E+04 -4.833247E+05 -4.094184E+04 -1.658001E+04
        50  21 -1.304956E+06 -2.056474E+05  1.117027E+04 -4.915092E+05 -1.832037E+04 -7.782702E+03
        50  22 -1.243879E+06 -1.095589E+05  1.016098E+05 -4.991044E+05 -6.419434E+04 -2.450982E+04
        50  23 -1.272013E+06 -1.930582E+05  4.153333E+04 -4.696093E+05 -4.099110E+04 -1.659823E+04
        50  24 -1.254003E+06 -1.811849E+05  2.614412E+04 -4.722712E+05 -1.815030E+04 -7.719159E+03
        50  25 -1.172457E+06 -9.348301E+04  1.190689E+05 -4.909101E+05 -6.446330E+04 -2.460923E+04
        50  26 -1.210844E+06 -1.728074E+05  5.766438E+04 -4.558928E+05 -4.104036E+04 -1.661645E+04
        50  27 -1.203047E+06 -1.567217E+05  4.111775E+04 -4.530317E+05 -1.798022E+04 -7.655607E+03
        51   1 -1.291905E+06 -1.811910E+05  1.232172E+04 -4.869789E+05  1.430944E+04  5.987665E+03
        51   2 -1.292874E+06 -1.894574E+05  1.950713E+03 -4.792603E+05  9.188192E+03  3.987151E+03
        51   3 -1.281573E+06 -1.893210E+05 -6.098180E+02 -4.822530E+05  4.122431E+03  1.838459E+03
        51   4 -1.257171E+06 -1.695913E+05  2.151256E+04 -4.790903E+05  1.431062E+04  5.988062E+03
        51   5 -1.264037E+06 -1.789487E+05  9.753549E+03 -4.718059E+05  9.155826E+03  3.975016E+03
        51   6 -1.258627E+06 -1.798971E+05  5.831257E+03 -4.752326E+05  4.056586E+03  1.813799E+03
        51   7 -1.222435E+06 -1.579915E+05  3.070331E+04 -4.712013E+05  1.431180E+04  5.988458E+03
        51   8 -1.235199E+06 -1.684400E+05  1.755629E+04 -4.643512E+05  9.123459E+03  3.962880E+03
        51   9 -1.235680E+06 -1.704731E+05  1.227225E+04 -4.682120E+05  3.990738E+03  1.789137E+03
        51  10 -1.291905E+06 -1.811911E+05  1.232127E+04 -4.869790E+05  1.953264E-10  6.717500E-10
        51  11 -1.292874E+06 -1.894575E+05  1.950524E+03 -4.792603E+05 -4.413946E-09 -2.920937E-10
        51  12 -1.281573E+06 -1.893210E+05 -6.098564E+02 -4.822530E+05 -4.819670E-10  8.640599E-10
        51  13 -1.257171E+06 -1.695914E+05  2.151211E+04 -4.790904E+05 -1.732986E-09  5.645506E-10
        51  14 -1.264037E+06 -1.789487E+05  9.753362E+03 -4.718059E+05 -1.124065E-09 -1.165797E-10
        51  15 -1.258627E+06 -1.798971E+05  5.831220E+03 -4.752326E+05 -1.854560E-09  8.321728E-10
        51  16 -1.222435E+06 -1.579916E+05  3.070286E+04 -4.712014E+05 -2.492302E-09  7.033612E-12
        51  17 -1.235199E+06 -1.684400E+05  1.755611E+04 -4.643512E+05  3.238479E-09  1.872044E-10
        51  18 -1.235680E+06 -1.704731E+05  1.227221E+04 -4.682120E+05 -3.731412E-10  6.142640E-10
        51  19 -1.291905E+06 -1.811910E+05  1.232172E+04 -4.869789E+05 -1.430944E+04 -5.987665E+03
        51  20 -1.292874E+06 -1.894574E+05  1.950713E+03 -4.792603E+05 -9.188192E+03 -3.987151E+03
        51  21 -1.281573E+06 -1.893210E+05 -6.098180E+02 -4.822530E+05 -4.122431E+03 -1.838459E+03
        51  22 -1.257171E+06 -1.695913E+05  2.151256E+04 -4.790903E+05 -1.431062E+04 -5.988062E+03
        51  23 -1.264037E+06 -1.789487E+05  9.753549E+03 -4.718059E+05 -9.155826E+03 -3.975016E+03
        51  24 -1.258627E+06 -1.798971E+05  5.831257E+03 -4.752326E+05 -4.056586E+03 -1.813799E+03
        51  25 -1.222435E+06 -1.579915E+05  3.070331E+04 -4.712013E+05 -1.431180E+04 -5.988458E+03
        51  26 -1.235199E+06 -1.684400E+05  1.755629E+04 -4.643512E+05 -9.123459E+03 -3.962880E+03
        51  27 -1.235680E+06 -1.704731E+05  1.227225E+04 -4.682120E+05 -3.990738E+03 -1.789137E+03
        52   1 -1.259507E+06 -1.782227E+05  4.583489E+03 -4.761586E+05  3.285938E+03  1.359872E+03
        52   2 -1.257889E+06 -1.749532E+05  3.598587E+03 -4.706751E+05  2.203695E+03  7.364745E+02
        52   3 -1.248968E+06 -1.759674E+05  4.041121E+03 -4.730058E+05  1.126604E+03  9.928878E+01
        52   4 -1.259107E+06 -1.782733E+05  4.635402E+03 -4.762532E+05  3.244593E+03  1.344383E+03
        52   5 -1.262862E+06 -1.768712E+05  2.230974E+03 -4.720694E+05  2.159257E+03  7.198266E+02
        52   6 -1.259316E+06 -1.797523E+05  1.256418E+03 -4.756998E+05  1.079084E+03  8.148581E+01
        52   7 -1.258706E+06 -1.783239E+05  4.687316E+03 -4.763477E+05  3.203248E+03  1.328893E+03
        52   8 -1.267836E+06 -1.787893E+05  8.633546E+02 -4.734637E+05  2.114818E+03  7.031788E+02
        52   9 -1.269663E+06 -1.835372E+05 -1.528303E+03 -4.783938E+05  1.031564E+03  6.368310E+01
        52  10 -1.259507E+06 -1.782227E+05  4.583465E+03 -4.761586E+05  1.575780E-09  1.196310E-09
        52  11 -1.257889E+06 -1.749532E+05  3.598576E+03 -4.706751E+05  3.013781E-12 -8.737196E-10
        52  12 -1.248968E+06 -1.759674E+05  4.041119E+03 -4.730058E+05 -6.256799E-10 -2.215652E-10
        52  13 -1.259107E+06 -1.782733E+05  4.635379E+03 -4.762532E+05  2.315316E-09  1.423763E-09
        52  14 -1.262862E+06 -1.768712E+05  2.230964E+03 -4.720694E+05 -2.451415E-09  6.255936E-11
        52  15 -1.259316E+06 -1.797523E+05  1.256416E+03 -4.756998E+05 -2.834476E-09 -5.787305E-10
        52  16 -1.258706E+06 -1.783239E+05  4.687293E+03 -4.763477E+05 -2.243277E-09  6.092904E-10
        52  17 -1.267836E+06 -1.787893E+05  8.633453E+02 -4.734637E+05 -2.016354E-09  1.168190E-09
        52  18 -1.269663E+06 -1.835372E+05 -1.528305E+03 -4.783938E+05 -1.379119E-09  5.255010E-10
        52  19 -1.259507E+06 -1.782227E+05  4.583489E+03 -4.761586E+05 -3.285938E+03 -1.359872E+03
        52  20 -1.257889E+06 -1.749532E+05  3.598587E+03 -4.706751E+05 -2.203695E+03 -7.364745E+02
        52  21 -1.248968E+06 -1.759674E+05  4.041121E+03 -4.730058E+05 -1.126604E+03 -9.928878E+01
        52  22 -1.259107E+06 -1.782733E+05  4.635402E+03 -4.762532E+05 -3.244593E+03 -1.344383E+03
        52  23 -1.262862E+06 -1.768712E+05  2.230974E+03 -4.720694E+05 -2.159257E+03 -7.198266E+02
        52  24 -1.259316E+06 -1.797523E+05  1.256418E+03 -4.756998E+05 -1.079084E+03 -8.148581E+01
        52  25 -1.258706E+06 -1.783239E+05  4.687316E+03 -4.763477E+05 -3.203248E+03 -1.328893E+03
        52  26 -1.267836E+06 -1.787893E+05  8.633546E+02 -4.734637E+05 -2.114818E+03 -7.031788E+02
        52  27 -1.269663E+06 -1.835372E+05 -1.528303E+03 -4.783938E+05 -1.031564E+03 -6.368310E+01
        53   1 -1.226527E+06 -1.669643E+05  9.980382E+03 -4.667661E+05  9.905116E+02 -9.395273E+01
        53   2 -1.224656E+06 -1.623930E+05  1.074565E+04 -4.619510E+05  8.607483E+02 -3.719774E+02
        53   3 -1.216697E+06 -1.635265E+05  1.173402E+04 -4.640274E+05  7.230390E+02 -6.287182E+02
        53   4 -1.259495E+06 -1.794199E+05  9.495546E+02 -4.757378E+05  9.429611E+02 -1.117695E+02
        53   5 -1.262556E+06 -1.766885E+05  3.910908E+02 -4.722466E+05  8.179811E+02 -3.880059E+02
        53   6 -1.259529E+06 -1.796629E+05  5.193251E+01 -4.756469E+05  6.850561E+02 -6.429576E+02
        53   7 -1.292462E+06 -1.918753E+05 -8.081326E+03 -4.847091E+05  8.954135E+02 -1.295852E+02
        53   8 -1.300454E+06 -1.909839E+05 -9.963588E+03 -4.825416E+05  7.752169E+02 -4.040333E+02
        53   9 -1.302359E+06 -1.957991E+05 -1.163034E+04 -4.872656E+05  6.470759E+02 -6.571960E+02
        53  10 -1.226527E+06 -1.669643E+05  9.980380E+03 -4.667661E+05 -1.388291E-09  8.263236E-11
        53  11 -1.224656E+06 -1.623930E+05  1.074565E+04 -4.619510E+05 -1.990739E-09 -1.270151E-10
        53  12 -1.216697E+06 -1.635265E+05  1.173402E+04 -4.640274E+05  1.638233E-10 -2.492951E-10
        53  13 -1.259495E+06 -1.794199E+05  9.495529E+02 -4.757378E+05 -2.511930E-09 -7.852529E-10
        53  14 -1.262556E+06 -1.766885E+05  3.910893E+02 -4.722466E+05 -1.184175E-10 -7.030309E-10
        53  15 -1.259529E+06 -1.796629E+05  5.193085E+01 -4.756469E+05 -1.126487E-09 -8.487494E-10
        53  16 -1.292462E+06 -1.918753E+05 -8.081328E+03 -4.847091E+05 -2.307153E-09 -5.154682E-10
        53  17 -1.300454E+06 -1.909839E+05 -9.963589E+03 -4.825416E+05 -1.875556E-09 -7.531544E-10
        53  18 -1.302359E+06 -1.957991E+05 -1.163035E+04 -4.872656E+05  4.711468E-10 -4.106870E-10
        53  19 -1.226527E+06 -1.669643E+05  9.980382E+03 -4.667661E+05 -9.905116E+02  9.395273E+01
        53  20 -1.224656E+06 -1.623930E+05  1.074565E+04 -4.619510E+05 -8.607483E+02  3.719774E+02
        53  21 -1.216697E+06 -1.635265E+05  1.173402E+04 -4.640274E+05 -7.230390E+02  6.287182E+02
        53  22 -1.259495E+06 -1.794199E+05  9.495546E+02 -4.757378E+05 -9.429611E+02  1.117695E+02
        53  23 -1.262556E+06 -1.766885E+05  3.910908E+02 -4.722466E+05 -8.179811E+02  3.880059E+02
        53  24 -1.259529E+06 -1.796629E+05  5.193251E+01 -4.756469E+05 -6.850561E+02  6.429576E+02
        53  25 -1.292462E+06 -1.918753E+05 -8.081326E+03 -4.847091E+05 -8.954135E+02  1.295852E+02
        53  26 -1.300454E+06 -1.909839E+05 -9.963588E+03 -4.825416E+05 -7.752169E+02  4.040333E+02
        53  27 -1.302359E+06 -1.957991E+05 -1.163034E+04 -4.872656E+05 -6.470759E+02  6.571960E+02
        54   1 -1.196838E+06 -1.556346E+05  1.712402E+04 -4.583445E+05  7.741707E+02 -7.339060E+02
        54   2 -1.195219E+06 -1.516138E+05  1.786430E+04 -4.543828E+05  1.056149E+03 -8.329872E+02
        54   3 -1.188783E+06 -1.527944E+05  1.837462E+04 -4.559955E+05  1.321308E+03 -8.870838E+02
        54   4 -1.259786E+06 -1.793633E+05 -8.909755E+01 -4.754249E+05  7.288152E+02 -7.509139E+02
        54   5 -1.262212E+06 -1.768903E+05 -4.399382E+02 -4.725895E+05  1.020861E+03 -8.462276E+02
        54   6 -1.259822E+06 -1.796207E+05 -1.028737E+03 -4.753285E+05  1.296085E+03 -8.965550E+02
        54   7 -1.322730E+06 -2.030918E+05 -1.730258E+04 -4.925038E+05  6.834647E+02 -7.679199E+02
        54   8 -1.329201E+06 -2.021665E+05 -1.874457E+04 -4.907944E+05  9.855775E+02 -8.594665E+02
        54   9 -1.330857E+06 -2.064466E+05 -2.043252E+04 -4.946595E+05  1.270865E+03 -9.060250E+02
        54  10 -1.196838E+06 -1.556346E+05  1.712402E+04 -4.583445E+05 -6.598197E-10 -1.813778E-09
        54  11 -1.195219E+06 -1.516138E+05  1.786430E+04 -4.543828E+05 -5.196800E-10 -2.015159E-09
        54  12 -1.188783E+06 -1.527944E+05  1.837461E+04 -4.559955E+05 -2.496404E-09 -1.160859E-09
        54  13 -1.259786E+06 -1.793633E+05 -8.909961E+01 -4.754249E+05 -1.755960E-09 -9.225627E-10
        54  14 -1.262212E+06 -1.768903E+05 -4.399415E+02 -4.725895E+05 -8.994564E-10 -1.737463E-09
        54  15 -1.259822E+06 -1.796207E+05 -1.028742E+03 -4.753285E+05 -2.805908E-09 -1.091179E-09
        54  16 -1.322730E+06 -2.030918E+05 -1.730258E+04 -4.925038E+05  3.125146E-10 -4.546284E-10
        54  17 -1.329201E+06 -2.021665E+05 -1.874457E+04 -4.907944E+05  4.165381E-09 -1.596169E-09
        54  18 -1.330857E+06 -2.064466E+05 -2.043253E+04 -4.946595E+05  2.809449E-09 -5.039393E-10
        54  19 -1.196838E+06 -1.556346E+05  1.712402E+04 -4.583445E+05 -7.741707E+02  7.339060E+02
        54  20 -1.195219E+06 -1.516138E+05  1.786430E+04 -4.543828E+05 -1.056149E+03  8.329872E+02
        54  21 -1.188783E+06 -1.527944E+05  1.837462E+04 -4.559955E+05 -1.321308E+03  8.870838E+02
        54  22 -1.259786E+06 -1.793633E+05 -8.909755E+01 -4.754249E+05 -7.288152E+02  7.509139E+02
        54  23 -1.262212E+06 -1.768903E+05 -4.399382E+02 -4.725895E+05 -1.020861E+03  8.462276E+02
        54  24 -1.259822E+06 -1.796207E+05 -1.028737E+03 -4.753285E+05 -1.296085E+03  8.965550E+02
        54  25 -1.322730E+06 -2.030918E+05 -1.730258E+04 -4.925038E+05 -6.834647E+02  7.679199E+02
        54  26 -1.329201E+06 -2.021665E+05 -1.874457E+04 -4.907944E+05 -9.855775E+02  8.594665E+02
        54  27 -1.330857E+06 -2.064466E+05 -2.043252E+04 -4.946595E+05 -1.270865E+03  9.060250E+02
        55   1 -1.173701E+06 -1.464795E+05  2.228528E+04 -4.516902E+05  1.566240E+03 -8.941057E+02
        55   2 -1.172362E+06 -1.432756E+05  2.198644E+04 -4.488182E+05  2.845327E+03 -5.734110E+02
        55   3 -1.168580E+06 -1.456992E+05  2.017501E+04 -4.492735E+05  4.093732E+03 -1.707665E+02
        55   4 -1.260253E+06 -1.790202E+05 -1.354644E+03 -4.750904E+05  1.525644E+03 -9.093491E+02
        55   5 -1.261586E+06 -1.769995E+05 -2.402853E+03 -4.731286E+05  2.822939E+03 -5.818295E+02
        55   6 -1.260479E+06 -1.806101E+05 -4.978279E+03 -4.744942E+05  4.089545E+03 -1.723576E+02
        55   7 -1.346798E+06 -2.115606E+05 -2.499528E+04 -4.984877E+05  1.485053E+03 -9.245901E+02
        55   8 -1.350802E+06 -2.107230E+05 -2.679288E+04 -4.974359E+05  2.800555E+03 -5.902466E+02
        55   9 -1.352369E+06 -2.155205E+05 -3.013234E+04 -4.997116E+05  4.085359E+03 -1.739484E+02
        55  10 -1.173701E+06 -1.464795E+05  2.228527E+04 -4.516902E+05 -9.332718E-10  1.198101E-10
        55  11 -1.172362E+06 -1.432756E+05  2.198642E+04 -4.488182E+05 -1.573921E-09 -9.161726E-10
        55  12 -1.168580E+06 -1.456992E+05  2.017498E+04 -4.492735E+05 -4.461626E-09 -5.165608E-10
        55  13 -1.260253E+06 -1.790202E+05 -1.354650E+03 -4.750904E+05  2.334086E-09 -6.333514E-10
        55  14 -1.261586E+06 -1.769995E+05 -2.402869E+03 -4.731286E+05 -4.716165E-09 -6.928411E-10
        55  15 -1.260479E+06 -1.806101E+05 -4.978310E+03 -4.744942E+05 -4.954516E-09 -5.998908E-10
        55  16 -1.346798E+06 -2.115606E+05 -2.499528E+04 -4.984877E+05  5.910199E-11 -1.220528E-09
        55  17 -1.350802E+06 -2.107230E+05 -2.679290E+04 -4.974359E+05  1.417942E-09 -1.325008E-09
        55  18 -1.352369E+06 -2.155205E+05 -3.013237E+04 -4.997116E+05 -2.363048E-10 -3.613248E-10
        55  19 -1.173701E+06 -1.464795E+05  2.228528E+04 -4.516902E+05 -1.566240E+03  8.941057E+02
        55  20 -1.172362E+06 -1.432756E+05  2.198644E+04 -4.488182E+05 -2.845327E+03  5.734110E+02
        55  21 -1.168580E+06 -1.456992E+05  2.017501E+04 -4.492735E+05 -4.093732E+03  1.707665E+02
        55  22 -1.260253E+06 -1.790202E+05 -1.354644E+03 -4.750904E+05 -1.525644E+03  9.093491E+02
        55  23 -1.261586E+06 -1.769995E+05 -2.402853E+03 -4.731286E+05 -2.822939E+03  5.818295E+02
        55  24 -1.260479E+06 -1.806101E+05 -4.978279E+03 -4.744942E+05 -4.089545E+03  1.723576E+02
        55  25 -1.346798E+06 -2.115606E+05 -2.499528E+04 -4.984877E+05 -1.485053E+03  9.245901E+02
        55  26 -1.350802E+06 -2.107230E+05 -2.679288E+04 -4.974359E+05 -2.800555E+03  5.902466E+02
        55  27 -1.352369E+06 -2.155205E+05 -3.013234E+04 -4.997116E+05 -4.085359E+03  1.739484E+02
        56   1 -1.159733E+06 -1.408081E+05  2.138414E+04 -4.482244E+05  5.097562E+03  1.189493E+02
        56   2 -1.157658E+06 -1.364096E+05  1.749472E+04 -4.458972E+05  1.064311E+04  2.091221E+03
        56   3 -1.160579E+06 -1.491255E+05  5.249513E+03 -4.413402E+05  1.609486E+04  4.313198E+03
        56   4 -1.261459E+06 -1.783935E+05 -6.260256E+03 -4.750513E+05  5.047317E+03  1.000677E+02
        56   5 -1.259741E+06 -1.753610E+05 -1.047894E+04 -4.740896E+05  1.064800E+04  2.093027E+03
        56   6 -1.263031E+06 -1.894554E+05 -2.309824E+04 -4.708978E+05  1.615488E+04  4.335686E+03
        56   7 -1.363175E+06 -2.159784E+05 -3.390554E+04 -5.018743E+05  4.997081E+03  8.118931E+01
        56   8 -1.361814E+06 -2.143118E+05 -3.845356E+04 -5.022778E+05  1.065289E+04  2.094833E+03
        56   9 -1.365474E+06 -2.297844E+05 -5.144700E+04 -5.004509E+05  1.621489E+04  4.358170E+03
        56  10 -1.159733E+06 -1.408081E+05  2.138409E+04 -4.482244E+05 -3.138412E-09 -4.251712E-10
        56  11 -1.157658E+06 -1.364097E+05  1.749450E+04 -4.458972E+05 -1.985869E-09  3.337876E-10
        56  12 -1.160580E+06 -1.491256E+05  5.248990E+03 -4.413402E+05  9.286063E-11  1.036786E-10
        56  13 -1.261459E+06 -1.783935E+05 -6.260304E+03 -4.750513E+05 -5.613355E-09 -3.938283E-10
        56  14 -1.259741E+06 -1.753611E+05 -1.047916E+04 -4.740896E+05 -1.957338E-10 -4.575182E-10
        56  15 -1.263032E+06 -1.894555E+05 -2.309876E+04 -4.708978E+05 -3.761891E-10 -1.216701E-10
        56  16 -1.363175E+06 -2.159784E+05 -3.390559E+04 -5.018743E+05  1.822195E-09 -9.940069E-10
        56  17 -1.361814E+06 -2.143118E+05 -3.845378E+04 -5.022778E+05  5.580213E-12 -9.118657E-10
        56  18 -1.365474E+06 -2.297845E+05 -5.144753E+04 -5.004510E+05 -1.782853E-09  2.433694E-10
        56  19 -1.159733E+06 -1.408081E+05  2.138414E+04 -4.482244E+05 -5.097562E+03 -1.189493E+02
        56  20 -1.157658E+06 -1.364096E+05  1.749472E+04 -4.458972E+05 -1.064311E+04 -2.091221E+03
        56  21 -1.160579E+06 -1.491255E+05  5.249513E+03 -4.413402E+05 -1.609486E+04 -4.313198E+03
        56  22 -1.261459E+06 -1.783935E+05 -6.260256E+03 -4.750513E+05 -5.047317E+03 -1.000677E+02
        56  23 -1.259741E+06 -1.753610E+05 -1.047894E+04 -4.740896E+05 -1.064800E+04 -2.093027E+03
        56  24 -1.263031E+06 -1.894554E+05 -2.309824E+04 -4.708978E+05 -1.615488E+04 -4.335686E+03
        56  25 -1.363175E+06 -2.159784E+05 -3.390554E+04 -5.018743E+05 -4.997081E+03 -8.118931E+01
        56  26 -1.361814E+06 -2.143118E+05 -3.845356E+04 -5.022778E+05 -1.065289E+04 -2.094833E+03
        56  27 -1.365474E+06 -2.297844E+05 -5.144700E+04 -5.004509E+05 -1.621489E+04 -4.358170E+03
        57   1 -1.157504E+06 -1.406004E+05  7.545287E+02 -4.534316E+05  2.064507E+04  5.784153E+03
        57   2 -1.147545E+06 -1.191522E+05 -1.592304E+04 -4.462693E+05  4.501914E+04  1.479729E+04
        57   3 -1.181905E+06 -2.050975E+05 -8.031000E+04 -4.103698E+05  6.886761E+04  2.520703E+04
        57   4 -1.267074E+06 -1.763567E+05 -2.806918E+04 -4.774799E+05  2.045601E+04  5.713276E+03
        57   5 -1.250349E+06 -1.610454E+05 -4.459801E+04 -4.774029E+05  4.513945E+04  1.484225E+04
        57   6 -1.278010E+06 -2.531999E+05 -1.090879E+05 -4.485865E+05  6.929752E+04  2.536718E+04
        57   7 -1.376633E+06 -2.121130E+05 -5.689388E+04 -5.015248E+05  2.026699E+04  5.642409E+03
        57   8 -1.353142E+06 -2.029373E+05 -7.327394E+04 -5.085316E+05  4.525974E+04  1.488720E+04
        57   9 -1.374106E+06 -3.012993E+05 -1.378666E+05 -4.867970E+05  6.972734E+04  2.552728E+04
        57  10 -1.157504E+06 -1.406005E+05  7.536630E+02 -4.534317E+05 -9.087703E-10  1.485003E-10
        57  11 -1.147547E+06 -1.191530E+05 -1.592727E+04 -4.462699E+05  1.210526E-09  6.449116E-10
        57  12 -1.181910E+06 -2.050995E+05 -8.032013E+04 -4.103712E+05 -1.569909E-09  6.767275E-10
        57  13 -1.267074E+06 -1.763569E+05 -2.807003E+04 -4.774800E+05 -7.153152E-10  1.332825E-09
        57  14 -1.250351E+06 -1.610461E+05 -4.460226E+04 -4.774034E+05 -2.841673E-09  1.583473E-09
        57  15 -1.278016E+06 -2.532018E+05 -1.090981E+05 -4.485879E+05  2.158732E-11  1.049023E-09
        57  16 -1.376633E+06 -2.121132E+05 -5.689472E+04 -5.015249E+05  9.107876E-12  1.774142E-09
        57  17 -1.353145E+06 -2.029381E+05 -7.327822E+04 -5.085321E+05  2.501654E-09  2.815680E-09
        57  18 -1.374112E+06 -3.013014E+05 -1.378770E+05 -4.867984E+05  1.230181E-09  2.000555E-09
        57  19 -1.157504E+06 -1.406004E+05  7.545287E+02 -4.534316E+05 -2.064507E+04 -5.784153E+03
        57  20 -1.147545E+06 -1.191522E+05 -1.592304E+04 -4.462693E+05 -4.501914E+04 -1.479729E+04
        57  21 -1.181905E+06 -2.050975E+05 -8.031000E+04 -4.103698E+05 -6.886761E+04 -2.520703E+04
        57  22 -1.267074E+06 -1.763567E+05 -2.806918E+04 -4.774799E+05 -2.045601E+04 -5.713276E+03
        57  23 -1.250349E+06 -1.610454E+05 -4.459801E+04 -4.774029E+05 -4.513945E+04 -1.484225E+04
        57  24 -1.278010E+06 -2.531999E+05 -1.090879E+05 -4.485865E+05 -6.929752E+04 -2.536718E+04
        57  25 -1.376633E+06 -2.121130E+05 -5.689388E+04 -5.015248E+05 -2.026699E+04 -5.642409E+03
        57  26 -1.353142E+06 -2.029373E+05 -7.327394E+04 -5.085316E+05 -4.525974E+04 -1.488720E+04
        57  27 -1.374106E+06 -3.012993E+05 -1.378666E+05 -4.867970E+05 -6.972734E+04 -2.552728E+04
        58   1 -3.003021E+05  5.796233E+04  7.521946E+04  9.462779E+03  5.135204E+04  7.830808E-01
        58   2 -3.115597E+05 -1.254013E+04  3.225822E+04  2.464768E+03  3.376091E+04  1.340987E-01
        58   3 -3.003125E+05 -2.202311E+03  2.096539E+04 -4.533237E+03  1.616943E+04 -1.181218E-01
        58   4 -3.003022E+05  5.796216E+04  7.521943E+04  3.082823E-08  5.135204E+04 -8.216269E-10
        58   5 -3.115598E+05 -1.254014E+04  3.225822E+04 -1.090719E-08  3.376091E+04 -8.110260E-10
        58   6 -3.003125E+05 -2.202350E+03  2.096538E+04  7.659706E-09  1.616943E+04  3.399460E-10
        58   7 -3.003021E+05  5.796233E+04  7.521946E+04 -9.462779E+03  5.135204E+04 -7.830808E-01
        58   8 -3.115597E+05 -1.254013E+04  3.225822E+04 -2.464768E+03  3.376091E+04 -1.340987E-01
        58   9 -3.003125E+05 -2.202311E+03  2.096539E+04  4.533237E+03  1.616943E+04  1.181218E-01
        58  10 -3.003049E+05  5.796162E+04  7.521450E+04  9.462779E+03  7.879949E-11  1.064723E-10
        58  11 -3.115610E+05 -1.254043E+04  3.225608E+04  2.464768E+03 -9.653395E-10 -2.543946E-10
        58  12 -3.003128E+05 -2.202381E+03  2.096489E+04 -4.533237E+03 -8.780540E-10 -5.806951E-11
        58  13 -3.003050E+05  5.796145E+04  7.521448E+04  2.221232E-08 -1.182508E-09 -4.484243E-11
        58  14 -3.115610E+05 -1.254044E+04  3.225608E+04  1.924258E-08 -1.190908E-09 -1.506800E-10
        58  15 -3.003128E+05 -2.202420E+03  2.096489E+04  4.642490E-08  2.376622E-10 -1.302089E-10
        58  16 -3.003049E+05  5.796162E+04  7.521450E+04 -9.462779E+03  1.475303E-09 -6.459678E-12
        58  17 -3.115610E+05 -1.254043E+04  3.225608E+04 -2.464768E+03  6.844559E-10 -1.131120E-10
        58  18 -3.003128E+05 -2.202381E+03  2.096489E+04  4.533237E+03  2.411675E-09 -2.304193E-10
        58  19 -3.003021E+05  5.796233E+04  7.521946E+04  9.462779E+03 -5.135204E+04 -7.830808E-01
        58  20 -3.115597E+05 -1.254013E+04  3.225822E+04  2.464768E+03 -3.376091E+04 -1.340987E-01
        58  21 -3.003125E+05 -2.202311E+03  2.096539E+04 -4.533237E+03 -1.616943E+04  1.181218E-01
        58  22 -3.003022E+05  5.796216E+04  7.521943E+04  6.528518E-08 -5.135204E+04  7.224979E-10
        58  23 -3.115598E+05 -1.254014E+04  3.225822E+04  4.939310E-08 -3.376091E+04  5.167037E-10
        58  24 -3.003125E+05 -2.202350E+03  2.096538E+04  6.580763E-08 -1.616943E+04 -5.879418E-10
        58  25 -3.003021E+05  5.796233E+04  7.521946E+04 -9.462779E+03 -5.135204E+04  7.830808E-01
        58  26 -3.115597E+05 -1.254013E+04  3.225822E+04 -2.464768E+03 -3.376091E+04  1.340987E-01
        58  27 -3.003125E+05 -2.202311E+03  2.096539E+04  4.533237E+03 -1.616943E+04 -1.181218E-01
        59   1 -3.045445E+05  8.254458E+03  1.729966E+04  1.275440E+03  1.274359E+04  2.619280E-02
        59   2 -3.062707E+05 -1.792740E+03  8.338755E+03  3.059811E+02  8.388572E+03  4.136310E-03
        59   3 -3.045462E+05 -3.077883E+02  5.097342E+03 -6.634779E+02  4.033564E+03 -4.312655E-03
        59   4 -3.045445E+05  8.254455E+03  1.729965E+04 -2.014880E-08  1.274359E+04  4.587380E-10
        59   5 -3.062707E+05 -1.792741E+03  8.338755E+03  1.996518E-08  8.388572E+03 -2.087872E-10
        59   6 -3.045462E+05 -3.077891E+02  5.097342E+03 -1.206985E-08  4.033564E+03 -1.761220E-11
        59   7 -3.045445E+05  8.254458E+03  1.729966E+04 -1.275440E+03  1.274359E+04 -2.619280E-02
        59   8 -3.062707E+05 -1.792740E+03  8.338755E+03 -3.059811E+02  8.388572E+03 -4.136311E-03
        59   9 -3.045462E+05 -3.077883E+02  5.097342E+03  6.634779E+02  4.033564E+03  4.312656E-03
        59  10 -3.045447E+05  8.254414E+03  1.729935E+04  1.275440E+03 -1.591291E-09 -5.150621E-11
        59  11 -3.062708E+05 -1.792759E+03  8.338623E+03  3.059811E+02  1.270593E-09 -1.719319E-10
        59  12 -3.045463E+05 -3.077926E+02  5.097312E+03 -6.634779E+02 -1.739234E-09 -4.932166E-10
        59  13 -3.045447E+05  8.254411E+03  1.729935E+04  1.431381E-08 -9.434538E-11 -4.710397E-11
        59  14 -3.062708E+05 -1.792760E+03  8.338623E+03  3.288524E-08  9.143023E-10 -7.760864E-11
        59  15 -3.045463E+05 -3.077935E+02  5.097312E+03 -1.315313E-08 -1.538374E-10 -3.280518E-10
        59  16 -3.045447E+05  8.254414E+03  1.729935E+04 -1.275440E+03  5.426831E-10 -2.616036E-11
        59  17 -3.062708E+05 -1.792759E+03  8.338623E+03 -3.059811E+02 -8.918115E-11  1.176896E-10
        59  18 -3.045463E+05 -3.077926E+02  5.097312E+03  6.634779E+02  8.458151E-10 -2.393265E-10
        59  19 -3.045445E+05  8.254458E+03  1.729966E+04  1.275440E+03 -1.274359E+04 -2.619280E-02
        59  20 -3.062707E+05 -1.792740E+03  8.338755E+03  3.059811E+02 -8.388572E+03 -4.136311E-03
        59  21 -3.045462E+05 -3.077883E+02  5.097342E+03 -6.634779E+02 -4.033564E+03  4.312654E-03
        59  22 -3.045445E+05  8.254455E+03  1.729965E+04  2.293065E-08 -1.274359E+04 -5.965422E-10
        59  23 -3.062707E+05 -1.792741E+03  8.338755E+03  1.996150E-08 -8.388572E+03 -1.078940E-11
        59  24 -3.045462E+05 -3.077891E+02  5.097342E+03  3.206730E-08 -4.033564E+03 -6.372028E-10
        59  25 -3.045445E+05  8.254458E+03  1.729966E+04 -1.275440E+03 -1.274359E+04  2.619280E-02
        59  26 -3.062707E+05 -1.792740E+03  8.338755E+03 -3.059811E+02 -8.388572E+03  4.136311E-03
        59  27 -3.045462E+05 -3.077883E+02  5.097342E+03  6.634779E+02 -4.033564E+03 -4.312656E-03
        60   1 -3.051930E+05  1.167994E+03  4.032951E+03  1.610888E+02  3.212227E+03  8.338762E-04
        60   2 -3.054626E+05 -2.529382E+02  2.006723E+03  3.120519E+01  2.187913E+03  1.100244E-04
        60   3 -3.051934E+05 -5.231015E+01  1.052991E+03 -9.867659E+01  1.163616E+03 -1.850356E-04
        60   4 -3.051930E+05  1.167994E+03  4.032951E+03  3.145344E-10  3.212227E+03  4.485082E-10
        60   5 -3.054626E+05 -2.529382E+02  2.006723E+03  1.644859E-08  2.187913E+03  4.915587E-10
        60   6 -3.051934E+05 -5.231017E+01  1.052991E+03  2.073690E-08  1.163616E+03 -7.238129E-10
        60   7 -3.051930E+05  1.167994E+03  4.032951E+03 -1.610888E+02  3.212227E+03 -8.338752E-04
        60   8 -3.054626E+05 -2.529382E+02  2.006723E+03 -3.120519E+01  2.187913E+03 -1.100237E-04
        60   9 -3.051934E+05 -5.231015E+01  1.052991E+03  9.867659E+01  1.163616E+03  1.850341E-04
        60  10 -3.051930E+05  1.167992E+03  4.032932E+03  1.610888E+02 -1.890276E-10 -4.964147E-11
        60  11 -3.054626E+05 -2.529395E+02  2.006714E+03  3.120519E+01 -6.376890E-10  7.509360E-10
        60  12 -3.051934E+05 -5.231051E+01  1.052988E+03 -9.867659E+01  4.190662E-10  3.943406E-11
        60  13 -3.051930E+05  1.167992E+03  4.032932E+03 -8.284292E-09  1.204199E-09 -8.114055E-11
        60  14 -3.054626E+05 -2.529395E+02  2.006714E+03 -9.394662E-09  2.153687E-09  5.117723E-10
        60  15 -3.051934E+05 -5.231053E+01  1.052988E+03  8.876527E-09  3.447379E-09  9.605620E-11
        60  16 -3.051930E+05  1.167992E+03  4.032932E+03 -1.610888E+02 -1.457462E-10 -1.464137E-10
        60  17 -3.054626E+05 -2.529395E+02  2.006714E+03 -3.120519E+01  1.871739E-10  2.121412E-10
        60  18 -3.051934E+05 -5.231051E+01  1.052988E+03  9.867659E+01 -6.648506E-10  1.729165E-10
        60  19 -3.051930E+05  1.167994E+03  4.032951E+03  1.610888E+02 -3.212227E+03 -8.338759E-04
        60  20 -3.054626E+05 -2.529382E+02  2.006723E+03  3.120519E+01 -2.187913E+03 -1.100227E-04
        60  21 -3.051934E+05 -5.231015E+01  1.052991E+03 -9.867659E+01 -1.163616E+03  1.850356E-04
        60  22 -3.051930E+05  1.167994E+03  4.032951E+03  5.203629E-08 -3.212227E+03 -6.311794E-10
        60  23 -3.054626E+05 -2.529382E+02  2.006723E+03 -7.783612E-10 -2.187913E+03  5.441683E-10
        60  24 -3.051934E+05 -5.231017E+01  1.052991E+03  2.403124E-09 -1.163616E+03  9.189501E-10
        60  25 -3.051930E+05  1.167994E+03  4.032951E+03 -1.610888E+02 -3.212227E+03  8.338749E-04
        60  26 -3.054626E+05 -2.529382E+02  2.006723E+03 -3.120519E+01 -2.187913E+03  1.100237E-04
        60  27 -3.051934E+05 -5.231015E+01  1.052991E+03  9.867659E+01 -1.163616E+03 -1.850339E-04
        61   1 -3.053061E+05  1.655457E+02  7.059154E+02  9.714857E+00  1.005026E+03  1.573334E-05
        61   2 -3.053220E+05 -1.764400E+01  4.549343E+01 -1.301296E-01  9.802206E+02 -2.049939E-07
        61   3 -3.053062E+05 -8.709395E+01 -5.703324E+02 -9.975266E+00  9.554144E+02 -1.535813E-05
        61   4 -3.053061E+05  1.655457E+02  7.059154E+02  1.910519E-09  1.005026E+03 -6.692460E-10
        61   5 -3.053220E+05 -1.764400E+01  4.549343E+01 -7.130334E-09  9.802206E+02  6.249500E-10
        61   6 -3.053062E+05 -8.709395E+01 -5.703324E+02  4.305669E-08  9.554144E+02  2.978581E-10
        61   7 -3.053061E+05  1.655457E+02  7.059154E+02 -9.714857E+00  1.005026E+03 -1.573474E-05
        61   8 -3.053220E+05 -1.764400E+01  4.549343E+01  1.301296E-01  9.802206E+02  2.060244E-07
        61   9 -3.053062E+05 -8.709395E+01 -5.703324E+02  9.975266E+00  9.554144E+02  1.535887E-05
        61  10 -3.053061E+05  1.655455E+02  7.059135E+02  9.714857E+00  5.497812E-11 -4.911473E-10
        61  11 -3.053220E+05 -1.764426E+01  4.549162E+01 -1.301297E-01  1.355515E-09 -1.302844E-10
        61  12 -3.053062E+05 -8.709420E+01 -5.703341E+02 -9.975266E+00 -1.669054E-11  2.174545E-10
        61  13 -3.053061E+05  1.655455E+02  7.059135E+02 -6.706316E-09  2.162096E-09 -3.021474E-10
        61  14 -3.053220E+05 -1.764426E+01  4.549162E+01 -1.143218E-08  1.132019E-09 -2.271178E-10
        61  15 -3.053062E+05 -8.709420E+01 -5.703341E+02  6.568167E-08  6.708647E-10  3.224438E-10
        61  16 -3.053061E+05  1.655455E+02  7.059135E+02 -9.714857E+00 -1.153350E-09 -9.645223E-11
        61  17 -3.053220E+05 -1.764426E+01  4.549162E+01  1.301298E-01 -1.245162E-09 -3.508468E-10
        61  18 -3.053062E+05 -8.709420E+01 -5.703341E+02  9.975266E+00 -1.839605E-09  4.680193E-10
        61  19 -3.053061E+05  1.655457E+02  7.059154E+02  9.714857E+00 -1.005026E+03 -1.573420E-05
        61  20 -3.053220E+05 -1.764400E+01  4.549343E+01 -1.301296E-01 -9.802206E+02  2.048894E-07
        61  21 -3.053062E+05 -8.709395E+01 -5.703324E+02 -9.975266E+00 -9.554144E+02  1.535865E-05
        61  22 -3.053061E+05  1.655457E+02  7.059154E+02  1.906313E-09 -1.005026E+03  8.253449E-11
        61  23 -3.053220E+05 -1.764400E+01  4.549343E+01 -1.573560E-08 -9.802206E+02 -1.079742E-09
        61  24 -3.053062E+05 -8.709395E+01 -5.703324E+02  3.446456E-08 -9.554144E+02  3.289245E-10
        61  25 -3.053061E+05  1.655457E+02  7.059154E+02 -9.714857E+00 -1.005026E+03  1.573449E-05
        61  26 -3.053220E+05 -1.764400E+01  4.549343E+01  1.301296E-01 -9.802206E+02 -2.070155E-07
        61  27 -3.053062E+05 -8.709395E+01 -5.703324E+02  9.975266E+00 -9.554144E+02 -1.535813E-05
        62   1 -3.053848E+05  4.196569E+01 -9.072342E+02 -5.295591E+01  1.088966E+03 -9.293058E-05
        62   2 -3.052238E+05  1.272726E+02 -1.825878E+03  5.612379E+00  2.007297E+03  1.815478E-05
        62   3 -3.053851E+05 -5.979133E+02 -3.545234E+03  6.418071E+01  2.925627E+03  3.025885E-04
        62   4 -3.053848E+05  4.196569E+01 -9.072342E+02  3.028970E-08  1.088966E+03  1.251900E-10
        62   5 -3.052238E+05  1.272726E+02 -1.825878E+03 -1.712613E-09  2.007297E+03  4.065254E-10
        62   6 -3.053851E+05 -5.979133E+02 -3.545234E+03  2.443365E-08  2.925627E+03 -1.840142E-10
        62   7 -3.053848E+05  4.196569E+01 -9.072342E+02  5.295591E+01  1.088966E+03  9.293083E-05
        62   8 -3.052238E+05  1.272726E+02 -1.825878E+03 -5.612379E+00  2.007297E+03 -1.815442E-05
        62   9 -3.053851E+05 -5.979133E+02 -3.545234E+03 -6.418071E+01  2.925627E+03 -3.025889E-04
        62  10 -3.053848E+05  4.196537E+01 -9.072364E+02 -5.295591E+01  2.957526E-10  1.083973E-10
        62  11 -3.052238E+05  1.272715E+02 -1.825886E+03  5.612379E+00  1.098160E-09 -2.506417E-10
        62  12 -3.053851E+05 -5.979156E+02 -3.545250E+03  6.418071E+01  4.936529E-10 -2.936222E-10
        62  13 -3.053848E+05  4.196537E+01 -9.072364E+02  4.434051E-09  3.022754E-09  2.988868E-10
        62  14 -3.052238E+05  1.272715E+02 -1.825886E+03 -2.756025E-08 -1.297226E-09 -1.935223E-10
        62  15 -3.053851E+05 -5.979156E+02 -3.545250E+03 -5.524877E-08 -3.818670E-09 -1.011553E-10
        62  16 -3.053848E+05  4.196537E+01 -9.072364E+02  5.295591E+01 -1.429793E-09  4.554679E-10
        62  17 -3.052238E+05  1.272715E+02 -1.825886E+03 -5.612379E+00 -7.641616E-11 -1.688948E-10
        62  18 -3.053851E+05 -5.979156E+02 -3.545250E+03 -6.418071E+01 -4.416059E-10  1.446690E-10
        62  19 -3.053848E+05  4.196569E+01 -9.072342E+02 -5.295591E+01 -1.088966E+03  9.293088E-05
        62  20 -3.052238E+05  1.272726E+02 -1.825878E+03  5.612379E+00 -2.007297E+03 -1.815506E-05
        62  21 -3.053851E+05 -5.979133E+02 -3.545234E+03  6.418071E+01 -2.925627E+03 -3.025893E-04
        62  22 -3.053848E+05  4.196569E+01 -9.072342E+02  1.303722E-08 -1.088966E+03  4.703471E-10
        62  23 -3.052238E+05  1.272726E+02 -1.825878E+03 -2.325630E-08 -2.007297E+03 -8.110651E-10
        62  24 -3.053851E+05 -5.979133E+02 -3.545234E+03 -3.370626E-08 -2.925627E+03 -3.650263E-11
        62  25 -3.053848E+05  4.196569E+01 -9.072342E+02  5.295591E+01 -1.088966E+03 -9.293021E-05
        62  26 -3.052238E+05  1.272726E+02 -1.825878E+03 -5.612379E+00 -2.007297E+03  1.815371E-05
        62  27 -3.053851E+05 -5.979133E+02 -3.545234E+03 -6.418071E+01 -2.925627E+03  3.025887E-04
        63   1 -3.057603E+05  1.550438E+02 -4.587443E+03 -3.593995E+02  3.659385E+03 -2.119412E-03
        63   2 -3.047552E+05  9.339055E+02 -7.753925E+03  1.172778E+02  7.611638E+03  1.438544E-03
        63   3 -3.057614E+05 -4.271980E+03 -1.499055E+04  5.939489E+02  1.156382E+04  1.106827E-02
        63   4 -3.057603E+05  1.550436E+02 -4.587443E+03 -6.569843E-09  3.659385E+03 -7.994325E-11
        63   5 -3.047552E+05  9.339054E+02 -7.753925E+03 -2.432542E-09  7.611638E+03  4.533108E-10
        63   6 -3.057614E+05 -4.271980E+03 -1.499055E+04  6.270309E-10  1.156382E+04 -7.483469E-10
        63   7 -3.057603E+05  1.550438E+02 -4.587443E+03  3.593995E+02  3.659385E+03  2.119412E-03
        63   8 -3.047552E+05  9.339055E+02 -7.753925E+03 -1.172778E+02  7.611638E+03 -1.438544E-03
        63   9 -3.057614E+05 -4.271980E+03 -1.499055E+04 -5.939489E+02  1.156382E+04 -1.106827E-02
        63  10 -3.057603E+05  1.550402E+02 -4.587469E+03 -3.593995E+02  1.491833E-09 -3.732609E-11
        63  11 -3.047553E+05  9.338899E+02 -7.754034E+03  1.172778E+02 -1.570624E-09  4.946294E-10
        63  12 -3.057616E+05 -4.272016E+03 -1.499080E+04  5.939489E+02  9.572247E-10 -3.062857E-10
        63  13 -3.057603E+05  1.550400E+02 -4.587469E+03 -5.825361E-08 -1.068426E-09  1.366256E-10
        63  14 -3.047553E+05  9.338899E+02 -7.754034E+03  1.872737E-09  1.096528E-10  1.972793E-10
        63  15 -3.057616E+05 -4.272016E+03 -1.499080E+04 -3.060986E-08 -1.287006E-09 -1.975605E-10
        63  16 -3.057603E+05  1.550402E+02 -4.587469E+03  3.593995E+02 -1.429646E-09  2.762773E-10
        63  17 -3.047553E+05  9.338899E+02 -7.754034E+03 -1.172778E+02 -7.925050E-10 -4.726378E-11
        63  18 -3.057616E+05 -4.272016E+03 -1.499080E+04 -5.939489E+02 -1.273898E-09 -1.522736E-10
        63  19 -3.057603E+05  1.550438E+02 -4.587443E+03 -3.593995E+02 -3.659385E+03  2.119413E-03
        63  20 -3.047552E+05  9.339055E+02 -7.753925E+03  1.172778E+02 -7.611638E+03 -1.438543E-03
        63  21 -3.057614E+05 -4.271980E+03 -1.499055E+04  5.939489E+02 -1.156382E+04 -1.106827E-02
        63  22 -3.057603E+05  1.550436E+02 -4.587443E+03 -4.101964E-08 -3.659385E+03  3.468436E-10
        63  23 -3.047552E+05  9.339054E+02 -7.753925E+03  1.870372E-09 -7.611638E+03 -4.410893E-11
        63  24 -3.057614E+05 -4.271980E+03 -1.499055E+04 -1.985049E-08 -1.156382E+04  4.472063E-10
        63  25 -3.057603E+05  1.550438E+02 -4.587443E+03  3.593995E+02 -3.659385E+03 -2.119412E-03
        63  26 -3.047552E+05  9.339055E+02 -7.753925E+03 -1.172778E+02 -7.611638E+03  1.438542E-03
        63  27 -3.057614E+05 -4.271980E+03 -1.499055E+04 -5.939489E+02 -1.156382E+04  1.106827E-02
        64   1 -3.081202E+05  1.121678E+03 -1.882655E+04 -2.425866E+03  1.460625E+04 -5.710008E-02
        64   2 -3.018075E+05  6.559298E+03 -3.060265E+04  1.120387E+03  3.058751E+04  5.522540E-02
        64   3 -3.081256E+05 -3.019585E+04 -6.333376E+04  4.666690E+03  4.656888E+04  3.502141E-01
        64   4 -3.081202E+05  1.121667E+03 -1.882656E+04  2.445932E-08  1.460625E+04 -5.399753E-10
        64   5 -3.018075E+05  6.559296E+03 -3.060265E+04 -7.569767E-08  3.058751E+04  7.492131E-10
        64   6 -3.081256E+05 -3.019589E+04 -6.333376E+04 -6.708981E-08  4.656888E+04 -1.241849E-09
        64   7 -3.081202E+05  1.121678E+03 -1.882655E+04  2.425866E+03  1.460625E+04  5.710008E-02
        64   8 -3.018075E+05  6.559298E+03 -3.060265E+04 -1.120387E+03  3.058751E+04 -5.522540E-02
        64   9 -3.081256E+05 -3.019585E+04 -6.333376E+04 -4.666690E+03  4.656888E+04 -3.502141E-01
        64  10 -3.081205E+05  1.121621E+03 -1.882696E+04 -2.425866E+03 -2.421449E-10 -3.286946E-10
        64  11 -3.018085E+05  6.559047E+03 -3.060441E+04  1.120387E+03 -4.340708E-09  1.620903E-10
        64  12 -3.081279E+05 -3.019643E+04 -6.333783E+04  4.666690E+03 -1.911673E-09 -7.078062E-10
        64  13 -3.081205E+05  1.121610E+03 -1.882696E+04 -3.583321E-08  1.078927E-09 -1.255896E-10
        64  14 -3.018085E+05  6.559045E+03 -3.060441E+04 -9.723776E-08 -2.153628E-09  1.719895E-10
        64  15 -3.081279E+05 -3.019647E+04 -6.333784E+04 -8.326099E-08 -3.228693E-10 -5.282919E-10
        64  16 -3.081205E+05  1.121621E+03 -1.882696E+04  2.425866E+03  1.884756E-10  6.062768E-11
        64  17 -3.018085E+05  6.559047E+03 -3.060441E+04 -1.120387E+03  1.916627E-09  1.471064E-10
        64  18 -3.081279E+05 -3.019643E+04 -6.333783E+04 -4.666690E+03 -4.463025E-10 -3.455163E-10
        64  19 -3.081202E+05  1.121678E+03 -1.882655E+04 -2.425866E+03 -1.460625E+04  5.710007E-02
        64  20 -3.018075E+05  6.559298E+03 -3.060265E+04  1.120387E+03 -3.058751E+04 -5.522540E-02
        64  21 -3.081256E+05 -3.019585E+04 -6.333376E+04  4.666690E+03 -4.656888E+04 -3.502141E-01
        64  22 -3.081202E+05  1.121667E+03 -1.882656E+04 -9.977913E-09 -1.460625E+04  2.668132E-10
        64  23 -3.018075E+05  6.559296E+03 -3.060265E+04 -2.401460E-08 -3.058751E+04 -3.946315E-10
        64  24 -3.081256E+05 -3.019589E+04 -6.333376E+04 -2.513053E-08 -4.656888E+04  1.751637E-10
        64  25 -3.081202E+05  1.121678E+03 -1.882655E+04  2.425866E+03 -1.460625E+04 -5.710007E-02
        64  26 -3.018075E+05  6.559298E+03 -3.060265E+04 -1.120387E+03 -3.058751E+04  5.522540E-02
        64  27 -3.081256E+05 -3.019585E+04 -6.333376E+04 -4.666690E+03 -4.656888E+04  3.502141E-01
        65   1 -3.236030E+05  8.057479E+03 -7.672255E+04 -1.658270E+04  5.910549E+04 -1.579512E+00
        65   2 -2.824542E+05  4.587531E+04 -1.179781E+05  9.018192E+03  1.234713E+05  1.794311E+00
        65   3 -3.236237E+05 -2.120298E+05 -2.750684E+05  3.461761E+04  1.878385E+05  1.047875E+01
        65   4 -3.236033E+05  8.056962E+03 -7.672263E+04 -1.908195E-08  5.910549E+04 -4.203659E-10
        65   5 -2.824542E+05  4.587515E+04 -1.179781E+05 -3.145192E-09  1.234713E+05  3.187606E-09
        65   6 -3.236250E+05 -2.120321E+05 -2.750687E+05  2.355859E-08  1.878385E+05 -1.414129E-09
        65   7 -3.236030E+05  8.057479E+03 -7.672255E+04  1.658270E+04  5.910549E+04  1.579512E+00
        65   8 -2.824542E+05  4.587531E+04 -1.179781E+05 -9.018192E+03  1.234713E+05 -1.794311E+00
        65   9 -3.236237E+05 -2.120298E+05 -2.750684E+05 -3.461761E+04  1.878385E+05 -1.047875E+01
        65  10 -3.236067E+05  8.056541E+03 -7.672912E+04 -1.658270E+04 -2.370090E-09 -8.296944E-10
        65  11 -2.824705E+05  4.587121E+04 -1.180067E+05  9.018191E+03  3.016999E-10 -6.791348E-12
        65  12 -3.236616E+05 -2.120393E+05 -2.751347E+05  3.461761E+04 -6.170144E-10  2.078896E-10
        65  13 -3.236070E+05  8.056024E+03 -7.672920E+04 -4.491452E-08  2.729906E-10 -6.351652E-10
        65  14 -2.824706E+05  4.587106E+04 -1.180068E+05 -1.175546E-08 -1.373105E-09 -4.378796E-11
        65  15 -3.236629E+05 -2.120415E+05 -2.751351E+05 -2.166833E-08 -7.089892E-10  7.098062E-11
        65  16 -3.236067E+05  8.056541E+03 -7.672912E+04  1.658270E+04  1.720767E-10 -4.334643E-10
        65  17 -2.824705E+05  4.587121E+04 -1.180067E+05 -9.018191E+03 -1.477790E-09 -7.689001E-11
        65  18 -3.236616E+05 -2.120393E+05 -2.751347E+05 -3.461761E+04 -2.626749E-10  1.375932E-10
        65  19 -3.236030E+05  8.057479E+03 -7.672255E+04 -1.658270E+04 -5.910549E+04  1.579512E+00
        65  20 -2.824542E+05  4.587531E+04 -1.179781E+05  9.018192E+03 -1.234713E+05 -1.794311E+00
        65  21 -3.236237E+05 -2.120298E+05 -2.750684E+05  3.461761E+04 -1.878385E+05 -1.047875E+01
        65  22 -3.236033E+05  8.056962E+03 -7.672263E+04  1.540322E-08 -5.910549E+04 -8.375579E-10
        65  23 -2.824542E+05  4.587515E+04 -1.179781E+05 -3.134674E-09 -1.234713E+05 -3.212359E-09
        65  24 -3.236250E+05 -2.120321E+05 -2.750687E+05  2.786189E-08 -1.878385E+05  3.467285E-10
        65  25 -3.236030E+05  8.057479E+03 -7.672255E+04  1.658270E+04 -5.910549E+04 -1.579512E+00
        65  26 -2.824542E+05  4.587531E+04 -1.179781E+05 -9.018192E+03 -1.234713E+05  1.794311E+00
        65  27 -3.236237E+05 -2.120298E+05 -2.750684E+05 -3.461761E+04 -1.878385E+05  1.047875E+01
        66   1  2.921269E+04 -5.167986E+05  3.379723E+04  4.017855E+03  3.495635E+02  1.111066E+04
        66   2  1.447143E+04 -5.101172E+05  2.684926E+04 -1.743967E+03  1.176512E+03  5.958675E+03
        66   3  2.065625E+04 -4.975025E+05  2.849504E+04  7.609403E+03  1.424389E+03  8.065836E+02
        66   4  1.388158E+04 -5.781298E+05  1.850991E+04  6.387017E+03  3.496113E+02  1.084211E+04
        66   5 -3.244857E+03 -5.810860E+05  9.280329E+03 -1.170743E+03  1.176540E+03  5.829447E+03
        66   6  5.317801E+02 -5.781330E+05  8.548241E+03  6.386749E+03  1.424397E+03  8.167561E+02
        66   7 -1.449804E+03 -6.394575E+05  3.222318E+03  8.755946E+03  3.496570E+02  1.057359E+04
        66   8 -2.096152E+04 -6.520503E+05 -8.288976E+03 -5.975848E+02  1.176567E+03  5.700234E+03
        66   9 -1.959317E+04 -6.587576E+05 -1.139904E+04  5.164255E+03  1.424405E+03  8.269272E+02
        66  10  2.921266E+04 -5.167988E+05  3.379700E+04  4.017852E+03  2.212481E-09 -2.625703E-10
        66  11  1.447142E+04 -5.101172E+05  2.684919E+04 -1.743972E+03  9.026999E-10  2.291471E-10
        66  12  2.065625E+04 -4.975025E+05  2.849504E+04  7.609402E+03 -5.354293E-10  2.183674E-10
        66  13  1.388154E+04 -5.781299E+05  1.850969E+04  6.387014E+03 -4.195918E-10 -1.788278E-11
        66  14 -3.244868E+03 -5.810861E+05  9.280262E+03 -1.170748E+03 -4.762665E-09 -1.171148E-10
        66  15  5.317777E+02 -5.781330E+05  8.548236E+03  6.386748E+03 -2.755555E-09 -3.095446E-11
        66  16 -1.449835E+03 -6.394576E+05  3.222108E+03  8.755943E+03  1.920968E-10  2.348274E-10
        66  17 -2.096153E+04 -6.520504E+05 -8.289040E+03 -5.975902E+02  6.489795E-10 -4.059284E-10
        66  18 -1.959317E+04 -6.587576E+05 -1.139905E+04  5.164254E+03 -1.030371E-09 -1.985356E-10
        66  19  2.921269E+04 -5.167986E+05  3.379723E+04  4.017855E+03 -3.495635E+02 -1.111066E+04
        66  20  1.447143E+04 -5.101172E+05  2.684926E+04 -1.743967E+03 -1.176512E+03 -5.958675E+03
        66  21  2.065625E+04 -4.975025E+05  2.849504E+04  7.609403E+03 -1.424389E+03 -8.065836E+02
        66  22  1.388158E+04 -5.781298E+05  1.850991E+04  6.387017E+03 -3.496113E+02 -1.084211E+04
        66  23 -3.244857E+03 -5.810860E+05  9.280329E+03 -1.170743E+03 -1.176540E+03 -5.829447E+03
        66  24  5.317801E+02 -5.781330E+05  8.548241E+03  6.386749E+03 -1.424397E+03 -8.167561E+02
        66  25 -1.449804E+03 -6.394575E+05  3.222318E+03  8.755946E+03 -3.496570E+02 -1.057359E+04
        66  26 -2.096152E+04 -6.520503E+05 -8.288976E+03 -5.975848E+02 -1.176567E+03 -5.700234E+03
        66  27 -1.959317E+04 -6.587576E+05 -1.139904E+04  5.164255E+03 -1.424405E+03 -8.269272E+02
        67   1  3.110036E+04 -4.608155E+05  3.788457E+04  5.237252E+03  1.594190E+03 -5.746988E+02
        67   2  2.957171E+04 -4.538100E+05  4.093220E+04 -7.406837E+02  2.024087E+03 -5.664875E+03
        67   3  4.138088E+04 -4.427118E+05  5.064920E+04  7.443786E+03  2.018842E+03 -1.075521E+04
        67   4  1.701038E+03 -5.785425E+05  8.685080E+03  6.174247E+03  1.594249E+03 -7.295708E+02
        67   5 -2.075063E+03 -5.805786E+05  9.538126E+03 -9.051342E+02  2.024137E+03 -5.714487E+03
        67   6  7.469847E+03 -5.785395E+05  1.698836E+04  6.178054E+03  2.018861E+03 -1.069949E+04
        67   7 -2.769932E+04 -6.962569E+05 -2.051545E+04  7.111065E+03  1.594308E+03 -8.844135E+02
        67   8 -3.372304E+04 -7.073326E+05 -2.185715E+04 -1.069550E+03  2.024186E+03 -5.764089E+03
        67   9 -2.644256E+04 -7.143504E+05 -1.667386E+04  4.912603E+03  2.018879E+03 -1.064378E+04
        67  10  3.110036E+04 -4.608155E+05  3.788457E+04  5.237253E+03 -6.330624E-10 -2.001535E-09
        67  11  2.957170E+04 -4.538101E+05  4.093213E+04 -7.406745E+02  2.930804E-09 -1.554590E-09
        67  12  4.138085E+04 -4.427119E+05  5.064897E+04  7.443803E+03 -3.084702E-10 -3.971237E-10
        67  13  1.701035E+03 -5.785425E+05  8.685074E+03  6.174248E+03 -1.069217E-09  3.867302E-11
        67  14 -2.075076E+03 -5.805787E+05  9.538057E+03 -9.051249E+02  2.399471E-09 -4.432388E-10
        67  15  7.469812E+03 -5.785396E+05  1.698813E+04  6.178072E+03  1.333113E-09 -7.974299E-11
        67  16 -2.769932E+04 -6.962569E+05 -2.051545E+04  7.111066E+03 -9.511643E-11  2.367634E-09
        67  17 -3.372305E+04 -7.073326E+05 -2.185722E+04 -1.069540E+03 -3.105237E-09  8.851393E-10
        67  18 -2.644260E+04 -7.143505E+05 -1.667408E+04  4.912620E+03 -4.559182E-09  5.742097E-10
        67  19  3.110036E+04 -4.608155E+05  3.788457E+04  5.237252E+03 -1.594190E+03  5.746988E+02
        67  20  2.957171E+04 -4.538100E+05  4.093220E+04 -7.406837E+02 -2.024087E+03  5.664875E+03
        67  21  4.138088E+04 -4.427118E+05  5.064920E+04  7.443786E+03 -2.018842E+03  1.075521E+04
        67  22  1.701038E+03 -5.785425E+05  8.685080E+03  6.174247E+03 -1.594249E+03  7.295708E+02
        67  23 -2.075063E+03 -5.805786E+05  9.538126E+03 -9.051342E+02 -2.024137E+03  5.714487E+03
        67  24  7.469847E+03 -5.785395E+05  1.698836E+04  6.178054E+03 -2.018861E+03  1.069949E+04
        67  25 -2.769932E+04 -6.962569E+05 -2.051545E+04  7.111065E+03 -1.594308E+03  8.844135E+02
        67  26 -3.372304E+04 -7.073326E+05 -2.185715E+04 -1.069550E+03 -2.024186E+03  5.764089E+03
        67  27 -2.644256E+04 -7.143504E+05 -1.667386E+04  4.912603E+03 -2.018879E+03  1.064378E+04
        68   1  4.066728E+04 -4.049646E+05  6.217669E+04  1.564258E+03  2.574987E+03 -1.358637E+04
        68   2  3.285502E+04 -4.073153E+05  7.393243E+04  1.626984E+03  3.129124E+03 -3.050435E+04
        68   3  9.954966E+04 -3.886470E+05  1.153725E+05  1.442802E+04  1.125807E+03 -4.742490E+04
        68   4 -1.742566E+03 -5.748041E+05  2.009384E+04  5.839784E+03  2.575243E+03 -1.402048E+04
        68   5 -1.155197E+04 -5.852539E+05  2.990977E+04 -4.988354E+02  3.129121E+03 -3.032091E+04
        68   6  5.304952E+04 -5.747862E+05  6.898700E+04  5.901001E+03  1.125574E+03 -4.662367E+04
        68   7 -4.415451E+04 -7.446172E+05 -2.199114E+04  1.011414E+04  2.575492E+03 -1.445447E+04
        68   8 -5.596131E+04 -7.631637E+05 -1.411525E+04 -2.624038E+03  3.129117E+03 -3.013751E+04
        68   9  6.547043E+03 -7.608937E+05  2.259891E+04 -2.623448E+03  1.125318E+03 -4.582268E+04
        68  10  4.066722E+04 -4.049648E+05  6.217633E+04  1.564286E+03 -3.180909E-09 -9.627479E-11
        68  11  3.285475E+04 -4.073163E+05  7.393066E+04  1.627061E+03 -1.003882E-09  6.232561E-10
        68  12  9.954905E+04 -3.886495E+05  1.153683E+05  1.442806E+04 -6.419606E-10  1.058883E-09
        68  13 -1.742626E+03 -5.748043E+05  2.009346E+04  5.839813E+03 -2.705761E-09  5.114641E-11
        68  14 -1.155223E+04 -5.852549E+05  2.990802E+04 -4.987589E+02 -2.263671E-09 -9.767103E-10
        68  15  5.304893E+04 -5.747885E+05  6.898291E+04  5.901044E+03 -8.109458E-10 -2.065713E-10
        68  16 -4.415457E+04 -7.446175E+05 -2.199155E+04  1.011417E+04 -5.398572E-09  9.366640E-10
        68  17 -5.596157E+04 -7.631647E+05 -1.411697E+04 -2.623962E+03 -2.202088E-09 -2.132009E-09
        68  18  6.546477E+03 -7.608959E+05  2.259496E+04 -2.623406E+03  1.263025E-09 -6.131490E-10
        68  19  4.066728E+04 -4.049646E+05  6.217669E+04  1.564258E+03 -2.574987E+03  1.358637E+04
        68  20  3.285502E+04 -4.073153E+05  7.393243E+04  1.626984E+03 -3.129124E+03  3.050435E+04
        68  21  9.954966E+04 -3.886470E+05  1.153725E+05  1.442802E+04 -1.125807E+03  4.742490E+04
        68  22 -1.742566E+03 -5.748041E+05  2.009384E+04  5.839784E+03 -2.575243E+03  1.402048E+04
        68  23 -1.155197E+04 -5.852539E+05  2.990977E+04 -4.988354E+02 -3.129121E+03  3.032091E+04
        68  24  5.304952E+04 -5.747862E+05  6.898700E+04  5.901001E+03 -1.125574E+03  4.662367E+04
        68  25 -4.415451E+04 -7.446172E+05 -2.199114E+04  1.011414E+04 -2.575492E+03  1.445447E+04
        68  26 -5.596131E+04 -7.631637E+05 -1.411525E+04 -2.624038E+03 -3.129117E+03  3.013751E+04
        68  27  6.547043E+03 -7.608937E+05  2.259891E+04 -2.623448E+03 -1.125318E+03  4.582268E+04
        69   1 -6.993932E+05 -1.224211E+05 -2.823359E+04 -2.579723E+05 -1.241865E+04 -4.430409E+03
        69   2 -6.943823E+05 -1.017673E+05 -1.588895E+04 -2.585911E+05 -8.073540E+03 -2.408796E+03
        69   3 -6.932083E+05 -1.041526E+05 -1.211174E+04 -2.587530E+05 -3.531671E+03 -9.116659E+02
        69   4 -6.682746E+05 -1.086108E+05 -1.927330E+04 -2.473911E+05 -1.228300E+04 -4.379595E+03
        69   5 -6.654101E+05 -9.030971E+04 -7.884238E+03 -2.501658E+05 -8.055435E+03 -2.402019E+03
        69   6 -6.663590E+05 -9.502392E+04 -4.969091E+03 -2.524837E+05 -3.631129E+03 -9.489453E+02
        69   7 -6.371550E+05 -9.480044E+04 -1.031314E+04 -2.368094E+05 -1.214734E+04 -4.328776E+03
        69   8 -6.364372E+05 -7.885210E+04  1.203863E+02 -2.417401E+05 -8.037329E+03 -2.395241E+03
        69   9 -6.395091E+05 -8.589524E+04  2.173504E+03 -2.462142E+05 -3.730593E+03 -9.862260E+02
        69  10 -6.993934E+05 -1.224211E+05 -2.823392E+04 -2.579723E+05 -1.023579E-10 -2.720758E-10
        69  11 -6.943823E+05 -1.017673E+05 -1.588908E+04 -2.585911E+05  3.889245E-09 -7.946408E-10
        69  12 -6.932083E+05 -1.041526E+05 -1.211177E+04 -2.587530E+05 -2.273059E-09 -2.577420E-10
        69  13 -6.682747E+05 -1.086109E+05 -1.927362E+04 -2.473911E+05  1.195760E-09 -3.215366E-10
        69  14 -6.654102E+05 -9.030973E+04 -7.884371E+03 -2.501658E+05  1.137011E-09 -9.248818E-10
        69  15 -6.663591E+05 -9.502392E+04 -4.969117E+03 -2.524837E+05  1.283970E-10  3.114763E-10
        69  16 -6.371552E+05 -9.480050E+04 -1.031345E+04 -2.368095E+05 -2.913656E-09 -4.519656E-10
        69  17 -6.364373E+05 -7.885212E+04  1.202540E+02 -2.417401E+05 -1.618475E-09 -5.814232E-10
        69  18 -6.395091E+05 -8.589525E+04  2.173476E+03 -2.462142E+05  9.807799E-10 -9.490301E-11
        69  19 -6.993932E+05 -1.224211E+05 -2.823359E+04 -2.579723E+05  1.241865E+04  4.430409E+03
        69  20 -6.943823E+05 -1.017673E+05 -1.588895E+04 -2.585911E+05  8.073540E+03  2.408796E+03
        69  21 -6.932083E+05 -1.041526E+05 -1.211174E+04 -2.587530E+05  3.531671E+03  9.116659E+02
        69  22 -6.682746E+05 -1.086108E+05 -1.927330E+04 -2.473911E+05  1.228300E+04  4.379595E+03
        69  23 -6.654101E+05 -9.030971E+04 -7.884238E+03 -2.501658E+05  8.055435E+03  2.402019E+03
        69  24 -6.663590E+05 -9.502392E+04 -4.969091E+03 -2.524837E+05  3.631129E+03  9.489453E+02
        69  25 -6.371550E+05 -9.480044E+04 -1.031314E+04 -2.368094E+05  1.214734E+04  4.328776E+03
        69  26 -6.364372E+05 -7.885210E+04  1.203863E+02 -2.417401E+05  8.037329E+03  2.395241E+03
        69  27 -6.395091E+05 -8.589524E+04  2.173504E+03 -2.462142E+05  3.730593E+03  9.862260E+02
        70   1 -6.768054E+05 -1.017832E+05 -7.184700E+03 -2.545992E+05 -2.816713E+03 -8.223639E+02
        70   2 -6.748965E+05 -9.592220E+04 -4.036151E+03 -2.518444E+05 -1.779630E+03 -5.108738E+02
        70   3 -6.700319E+05 -9.695159E+04 -2.396341E+03 -2.531203E+05 -7.146630E+02 -2.737485E+02
        70   4 -6.656796E+05 -9.730439E+04 -4.094438E+03 -2.512825E+05 -2.823609E+03 -8.249507E+02
        70   5 -6.670214E+05 -9.288411E+04 -1.873973E+03 -2.496332E+05 -1.803203E+03 -5.197103E+02
        70   6 -6.654042E+05 -9.535093E+04 -1.149005E+03 -2.520144E+05 -7.549198E+02 -2.888377E+02
        70   7 -6.545537E+05 -9.282552E+04 -1.004189E+03 -2.479658E+05 -2.830504E+03 -8.275375E+02
        70   8 -6.591463E+05 -8.984603E+04  2.881955E+02 -2.474219E+05 -1.826776E+03 -5.285470E+02
        70   9 -6.607765E+05 -9.375028E+04  9.832506E+01 -2.509085E+05 -7.951768E+02 -3.039269E+02
        70  10 -6.768054E+05 -1.017832E+05 -7.184716E+03 -2.545992E+05  1.440483E-11 -4.126647E-11
        70  11 -6.748965E+05 -9.592220E+04 -4.036158E+03 -2.518444E+05 -1.202445E-10 -9.289334E-10
        70  12 -6.700319E+05 -9.695159E+04 -2.396342E+03 -2.531203E+05  3.719285E-10 -2.232255E-10
        70  13 -6.656796E+05 -9.730439E+04 -4.094454E+03 -2.512825E+05  2.062405E-09  1.975673E-10
        70  14 -6.670214E+05 -9.288412E+04 -1.873980E+03 -2.496332E+05  6.751114E-10  3.327410E-10
        70  15 -6.654042E+05 -9.535093E+04 -1.149007E+03 -2.520144E+05 -1.573193E-09 -6.119441E-10
        70  16 -6.545537E+05 -9.282552E+04 -1.004205E+03 -2.479658E+05  1.872907E-09  3.064445E-10
        70  17 -6.591463E+05 -8.984603E+04  2.881887E+02 -2.474219E+05 -3.895356E-09  3.419668E-11
        70  18 -6.607765E+05 -9.375028E+04  9.832370E+01 -2.509085E+05 -1.496473E-09 -1.243946E-09
        70  19 -6.768054E+05 -1.017832E+05 -7.184700E+03 -2.545992E+05  2.816713E+03  8.223639E+02
        70  20 -6.748965E+05 -9.592220E+04 -4.036151E+03 -2.518444E+05  1.779630E+03  5.108738E+02
        70  21 -6.700319E+05 -9.695159E+04 -2.396341E+03 -2.531203E+05  7.146630E+02  2.737485E+02
        70  22 -6.656796E+05 -9.730439E+04 -4.094438E+03 -2.512825E+05  2.823609E+03  8.249507E+02
        70  23 -6.670214E+05 -9.288411E+04 -1.873973E+03 -2.496332E+05  1.803203E+03  5.197103E+02
        70  24 -6.654042E+05 -9.535093E+04 -1.149005E+03 -2.520144E+05  7.549198E+02  2.888377E+02
        70  25 -6.545537E+05 -9.282552E+04 -1.004189E+03 -2.479658E+05  2.830504E+03  8.275375E+02
        70  26 -6.591463E+05 -8.984603E+04  2.881955E+02 -2.474219E+05  1.826776E+03  5.285470E+02
        70  27 -6.607765E+05 -9.375028E+04  9.832506E+01 -2.509085E+05  7.951768E+02  3.039269E+02
        71   1 -6.546744E+05 -9.168542E+04  1.973173E+03 -2.489755E+05 -5.202533E+02 -3.049164E+02
        71   2 -6.532522E+05 -8.800573E+04  3.294313E+03 -2.457874E+05 -2.015249E+02 -3.296599E+02
        71   3 -6.479312E+05 -8.883452E+04  4.299940E+03 -2.471869E+05  1.189898E+02 -3.591512E+02
        71   4 -6.653131E+05 -9.565894E+04 -9.357952E+02 -2.518247E+05 -5.481013E+02 -3.153549E+02
        71   5 -6.672439E+05 -9.327240E+04 -5.242499E+02 -2.495804E+05 -2.304434E+02 -3.405008E+02
        71   6 -6.652757E+05 -9.539413E+04 -4.273544E+02 -2.519239E+05  8.899882E+01 -3.703953E+02
        71   7 -6.759517E+05 -9.963248E+04 -3.844782E+03 -2.546738E+05 -5.759487E+02 -3.257932E+02
        71   8 -6.812355E+05 -9.853907E+04 -4.342839E+03 -2.533734E+05 -2.593613E+02 -3.513415E+02
        71   9 -6.826199E+05 -1.019537E+05 -5.154684E+03 -2.566607E+05  5.900875E+01 -3.816391E+02
        71  10 -6.546744E+05 -9.168542E+04  1.973172E+03 -2.489755E+05  1.544834E-09  5.758483E-10
        71  11 -6.532522E+05 -8.800573E+04  3.294313E+03 -2.457874E+05  5.600200E-10  6.325385E-10
        71  12 -6.479312E+05 -8.883452E+04  4.299940E+03 -2.471869E+05 -1.386919E-09 -5.336324E-10
        71  13 -6.653131E+05 -9.565894E+04 -9.357960E+02 -2.518247E+05 -4.485244E-10  1.464330E-10
        71  14 -6.672439E+05 -9.327240E+04 -5.242502E+02 -2.495804E+05  1.172090E-09 -6.697454E-13
        71  15 -6.652757E+05 -9.539413E+04 -4.273547E+02 -2.519239E+05  1.667272E-10 -1.315405E-10
        71  16 -6.759517E+05 -9.963248E+04 -3.844783E+03 -2.546738E+05  1.025943E-09 -1.019880E-09
        71  17 -6.812355E+05 -9.853907E+04 -4.342840E+03 -2.533734E+05  2.266456E-09  7.602399E-10
        71  18 -6.826199E+05 -1.019537E+05 -5.154684E+03 -2.566607E+05  3.787807E-10  6.886891E-11
        71  19 -6.546744E+05 -9.168542E+04  1.973173E+03 -2.489755E+05  5.202533E+02  3.049164E+02
        71  20 -6.532522E+05 -8.800573E+04  3.294313E+03 -2.457874E+05  2.015249E+02  3.296599E+02
        71  21 -6.479312E+05 -8.883452E+04  4.299940E+03 -2.471869E+05 -1.189898E+02  3.591512E+02
        71  22 -6.653131E+05 -9.565894E+04 -9.357952E+02 -2.518247E+05  5.481013E+02  3.153549E+02
        71  23 -6.672439E+05 -9.327240E+04 -5.242499E+02 -2.495804E+05  2.304434E+02  3.405008E+02
        71  24 -6.652757E+05 -9.539413E+04 -4.273544E+02 -2.519239E+05 -8.899882E+01  3.703953E+02
        71  25 -6.759517E+05 -9.963248E+04 -3.844782E+03 -2.546738E+05  5.759487E+02  3.257932E+02
        71  26 -6.812355E+05 -9.853907E+04 -4.342839E+03 -2.533734E+05  2.593613E+02  3.513415E+02
        71  27 -6.826199E+05 -1.019537E+05 -5.154684E+03 -2.566607E+05 -5.900875E+01  3.816391E+02
        72   1 -6.334109E+05 -8.334537E+04  8.294999E+03 -2.431859E+05  2.196445E+02 -4.111417E+02
        72   2 -6.321251E+05 -8.015371E+04  9.057507E+03 -2.401244E+05  5.275742E+02 -4.430022E+02
        72   3 -6.271076E+05 -8.100495E+04  9.572659E+03 -2.414140E+05  8.315082E+02 -4.641378E+02
        72   4 -6.653239E+05 -9.536636E+04 -4.282688E+02 -2.518431E+05  1.894431E+02 -4.224664E+02
        72   5 -6.671941E+05 -9.337718E+04 -5.173094E+02 -2.496554E+05  4.997652E+02 -4.534323E+02
        72   6 -6.653330E+05 -9.543137E+04 -8.556266E+02 -2.518187E+05  8.060906E+02 -4.736735E+02
        72   7 -6.972358E+05 -1.073873E+05 -9.151608E+03 -2.604998E+05  1.592435E+02 -4.337904E+02
        72   8 -7.022618E+05 -1.066006E+05 -1.009223E+04 -2.591858E+05  4.719580E+02 -4.638618E+02
        72   9 -7.035571E+05 -1.098577E+05 -1.128405E+04 -2.622228E+05  7.806747E+02 -4.832085E+02
        72  10 -6.334109E+05 -8.334537E+04  8.294998E+03 -2.431859E+05 -8.733940E-10 -2.301312E-11
        72  11 -6.321251E+05 -8.015371E+04  9.057506E+03 -2.401244E+05  2.343776E-09  1.091536E-09
        72  12 -6.271076E+05 -8.100495E+04  9.572658E+03 -2.414140E+05  8.182268E-10  1.148921E-09
        72  13 -6.653239E+05 -9.536636E+04 -4.282693E+02 -2.518431E+05 -1.007496E-09 -1.003285E-10
        72  14 -6.671941E+05 -9.337718E+04 -5.173103E+02 -2.496554E+05  8.222254E-10  1.079577E-09
        72  15 -6.653330E+05 -9.543137E+04 -8.556283E+02 -2.518187E+05 -1.287098E-09  1.393208E-09
        72  16 -6.972358E+05 -1.073873E+05 -9.151608E+03 -2.604998E+05 -1.512921E-10 -2.516581E-10
        72  17 -7.022618E+05 -1.066006E+05 -1.009223E+04 -2.591858E+05 -2.196655E-10  9.923390E-10
        72  18 -7.035571E+05 -1.098577E+05 -1.128406E+04 -2.622228E+05  1.276028E-09  1.509348E-09
        72  19 -6.334109E+05 -8.334537E+04  8.294999E+03 -2.431859E+05 -2.196445E+02  4.111417E+02
        72  20 -6.321251E+05 -8.015371E+04  9.057507E+03 -2.401244E+05 -5.275742E+02  4.430022E+02
        72  21 -6.271076E+05 -8.100495E+04  9.572659E+03 -2.414140E+05 -8.315082E+02  4.641378E+02
        72  22 -6.653239E+05 -9.536636E+04 -4.282688E+02 -2.518431E+05 -1.894431E+02  4.224664E+02
        72  23 -6.671941E+05 -9.337718E+04 -5.173094E+02 -2.496554E+05 -4.997652E+02  4.534323E+02
        72  24 -6.653330E+05 -9.543137E+04 -8.556266E+02 -2.518187E+05 -8.060906E+02  4.736735E+02
        72  25 -6.972358E+05 -1.073873E+05 -9.151608E+03 -2.604998E+05 -1.592435E+02  4.337904E+02
        72  26 -7.022618E+05 -1.066006E+05 -1.009223E+04 -2.591858E+05 -4.719580E+02  4.638618E+02
        72  27 -7.035571E+05 -1.098577E+05 -1.128405E+04 -2.622228E+05 -7.806747E+02  4.832085E+02
        73   1 -6.139513E+05 -7.584452E+04  1.298541E+04 -2.378246E+05  1.022714E+03 -4.734241E+02
        73   2 -6.127085E+05 -7.288218E+04  1.296195E+04 -2.350503E+05  2.010187E+03 -2.384802E+02
        73   3 -6.085902E+05 -7.436535E+04  1.195177E+04 -2.359020E+05  2.989686E+03  1.781113E+01
        73   4 -6.654815E+05 -9.522055E+04 -1.084652E+03 -2.517704E+05  9.936162E+02 -4.843427E+02
        73   5 -6.669706E+05 -9.336428E+04 -1.857158E+03 -2.498199E+05  1.985800E+03 -2.476355E+02
        73   6 -6.655852E+05 -9.595451E+04 -3.620184E+03 -2.514952E+05  2.970006E+03  1.041857E+01
        73   7 -7.170090E+05 -1.145964E+05 -1.515494E+04 -2.657152E+05  9.645211E+02 -4.952604E+02
        73   8 -7.212299E+05 -1.138462E+05 -1.667653E+04 -2.645882E+05  1.961416E+03 -2.567899E+02
        73   9 -7.225773E+05 -1.175435E+05 -1.919245E+04 -2.670872E+05  2.950328E+03  3.026742E+00
        73  10 -6.139513E+05 -7.584452E+04  1.298541E+04 -2.378246E+05  2.038851E-09  8.175686E-10
        73  11 -6.127085E+05 -7.288218E+04  1.296194E+04 -2.350503E+05  5.053227E-09  3.423799E-10
        73  12 -6.085902E+05 -7.436536E+04  1.195175E+04 -2.359020E+05  1.833591E-10 -1.756654E-10
        73  13 -6.654815E+05 -9.522055E+04 -1.084655E+03 -2.517704E+05 -6.716412E-10  9.593340E-10
        73  14 -6.669706E+05 -9.336428E+04 -1.857165E+03 -2.498199E+05  1.671089E-09  1.877453E-10
        73  15 -6.655853E+05 -9.595451E+04 -3.620200E+03 -2.514952E+05 -1.437676E-09  2.475213E-10
        73  16 -7.170090E+05 -1.145964E+05 -1.515494E+04 -2.657152E+05 -8.849187E-10  1.119987E-09
        73  17 -7.212299E+05 -1.138462E+05 -1.667654E+04 -2.645882E+05 -1.298334E-09 -9.401783E-11
        73  18 -7.225773E+05 -1.175435E+05 -1.919247E+04 -2.670872E+05  1.523250E-09 -2.564918E-12
        73  19 -6.139513E+05 -7.584452E+04  1.298541E+04 -2.378246E+05 -1.022714E+03  4.734241E+02
        73  20 -6.127085E+05 -7.288218E+04  1.296195E+04 -2.350503E+05 -2.010187E+03  2.384802E+02
        73  21 -6.085902E+05 -7.436535E+04  1.195177E+04 -2.359020E+05 -2.989686E+03 -1.781113E+01
        73  22 -6.654815E+05 -9.522055E+04 -1.084652E+03 -2.517704E+05 -9.936162E+02  4.843427E+02
        73  23 -6.669706E+05 -9.336428E+04 -1.857158E+03 -2.498199E+05 -1.985800E+03  2.476355E+02
        73  24 -6.655852E+05 -9.595451E+04 -3.620184E+03 -2.514952E+05 -2.970006E+03 -1.041857E+01
        73  25 -7.170090E+05 -1.145964E+05 -1.515494E+04 -2.657152E+05 -9.645211E+02  4.952604E+02
        73  26 -7.212299E+05 -1.138462E+05 -1.667653E+04 -2.645882E+05 -1.961416E+03  2.567899E+02
        73  27 -7.225773E+05 -1.175435E+05 -1.919245E+04 -2.670872E+05 -2.950328E+03 -3.026742E+00
        74   1 -5.974622E+05 -6.950923E+04  1.401205E+04 -2.335861E+05  3.706943E+03  2.151837E+02
        74   2 -5.957107E+05 -6.579305E+04  1.126233E+04 -2.308678E+05  7.879506E+03  1.665049E+03
        74   3 -5.945069E+05 -7.220376E+04  3.427922E+03 -2.294767E+05  1.203417E+04  3.162571E+03
        74   4 -6.660310E+05 -9.498031E+04 -4.642825E+03 -2.518243E+05  3.678445E+03  2.044814E+02
        74   5 -6.661244E+05 -9.251782E+04 -7.996216E+03 -2.501841E+05  7.861256E+03  1.658185E+03
        74   6 -6.667680E+05 -1.001848E+05 -1.644286E+04 -2.498711E+05  1.202615E+04  3.159532E+03
        74   7 -7.345954E+05 -1.204512E+05 -2.329813E+04 -2.700607E+05  3.649950E+03  1.937803E+02
        74   8 -7.365334E+05 -1.192423E+05 -2.725520E+04 -2.694985E+05  7.843009E+03  1.651321E+03
        74   9 -7.390239E+05 -1.281655E+05 -3.631409E+04 -2.702633E+05  1.201813E+04  3.156494E+03
        74  10 -5.974622E+05 -6.950923E+04  1.401203E+04 -2.335861E+05 -1.484427E-09 -1.865319E-10
        74  11 -5.957107E+05 -6.579307E+04  1.126221E+04 -2.308678E+05 -5.141275E-10  4.764812E-10
        74  12 -5.945071E+05 -7.220381E+04  3.427630E+03 -2.294767E+05 -2.225017E-09  1.243904E-09
        74  13 -6.660310E+05 -9.498032E+04 -4.642851E+03 -2.518243E+05 -2.242520E-09  3.946137E-10
        74  14 -6.661245E+05 -9.251784E+04 -7.996337E+03 -2.501841E+05 -5.731822E-11  6.755494E-10
        74  15 -6.667681E+05 -1.001849E+05 -1.644315E+04 -2.498711E+05 -1.718244E-09  3.108158E-10
        74  16 -7.345954E+05 -1.204512E+05 -2.329815E+04 -2.700607E+05 -7.822101E-10  3.136549E-10
        74  17 -7.365335E+05 -1.192423E+05 -2.725532E+04 -2.694985E+05  1.198684E-09  3.968635E-10
        74  18 -7.390241E+05 -1.281655E+05 -3.631438E+04 -2.702633E+05 -2.162237E-10  5.167695E-11
        74  19 -5.974622E+05 -6.950923E+04  1.401205E+04 -2.335861E+05 -3.706943E+03 -2.151837E+02
        74  20 -5.957107E+05 -6.579305E+04  1.126233E+04 -2.308678E+05 -7.879506E+03 -1.665049E+03
        74  21 -5.945069E+05 -7.220376E+04  3.427922E+03 -2.294767E+05 -1.203417E+04 -3.162571E+03
        74  22 -6.660310E+05 -9.498031E+04 -4.642825E+03 -2.518243E+05 -3.678445E+03 -2.044814E+02
        74  23 -6.661244E+05 -9.251782E+04 -7.996216E+03 -2.501841E+05 -7.861256E+03 -1.658185E+03
        74  24 -6.667680E+05 -1.001848E+05 -1.644286E+04 -2.498711E+05 -1.202615E+04 -3.159532E+03
        74  25 -7.345954E+05 -1.204512E+05 -2.329813E+04 -2.700607E+05 -3.649950E+03 -1.937803E+02
        74  26 -7.365334E+05 -1.192423E+05 -2.725520E+04 -2.694985E+05 -7.843009E+03 -1.651321E+03
        74  27 -7.390239E+05 -1.281655E+05 -3.631409E+04 -2.702633E+05 -1.201813E+04 -3.156494E+03
        75   1 -5.854630E+05 -6.535711E+04  1.576850E+03 -2.331811E+05  1.516683E+04  4.258848E+03
        75   2 -5.795197E+05 -5.337820E+04 -1.184348E+04 -2.279713E+05  3.348155E+04  1.103765E+04
        75   3 -5.932667E+05 -9.467421E+04 -5.289968E+04 -2.119634E+05  5.172113E+04  1.801711E+04
        75   4 -6.688066E+05 -9.409453E+04 -2.065183E+04 -2.530679E+05  1.512296E+04  4.242440E+03
        75   5 -6.615337E+05 -8.563808E+04 -3.449612E+04 -2.516341E+05  3.348035E+04  1.103709E+04
        75   6 -6.739622E+05 -1.304695E+05 -7.601295E+04 -2.394016E+05  5.176262E+04  1.803214E+04
        75   7 -7.521437E+05 -1.228319E+05 -4.288113E+04 -2.729524E+05  1.507910E+04  4.226033E+03
        75   8 -7.435412E+05 -1.178974E+05 -5.714940E+04 -2.752940E+05  3.347914E+04  1.103654E+04
        75   9 -7.546513E+05 -1.662636E+05 -9.912685E+04 -2.668363E+05  5.180409E+04  1.804716E+04
        75  10 -5.854632E+05 -6.535720E+04  1.576383E+03 -2.331812E+05 -2.124706E-09 -4.149021E-10
        75  11 -5.795209E+05 -5.337863E+04 -1.184582E+04 -2.279716E+05 -8.831765E-10 -2.372371E-09
        75  12 -5.932697E+05 -9.467527E+04 -5.290532E+04 -2.119641E+05 -1.768167E-09  8.736373E-10
        75  13 -6.688068E+05 -9.409461E+04 -2.065229E+04 -2.530679E+05  3.498152E-10 -7.885925E-10
        75  14 -6.615349E+05 -8.563851E+04 -3.449846E+04 -2.516344E+05  3.356420E-10 -1.274663E-09
        75  15 -6.739652E+05 -1.304705E+05 -7.601860E+04 -2.394023E+05  6.752190E-10  1.592493E-09
        75  16 -7.521439E+05 -1.228319E+05 -4.288160E+04 -2.729524E+05  1.271083E-09  7.342051E-11
        75  17 -7.435425E+05 -1.178979E+05 -5.715174E+04 -2.752943E+05  5.458643E-10  5.414955E-10
        75  18 -7.546543E+05 -1.662647E+05 -9.913251E+04 -2.668371E+05  1.109800E-09 -9.249345E-11
        75  19 -5.854630E+05 -6.535711E+04  1.576850E+03 -2.331811E+05 -1.516683E+04 -4.258848E+03
        75  20 -5.795197E+05 -5.337820E+04 -1.184348E+04 -2.279713E+05 -3.348155E+04 -1.103765E+04
        75  21 -5.932667E+05 -9.467421E+04 -5.289968E+04 -2.119634E+05 -5.172113E+04 -1.801711E+04
        75  22 -6.688066E+05 -9.409453E+04 -2.065183E+04 -2.530679E+05 -1.512296E+04 -4.242440E+03
        75  23 -6.615337E+05 -8.563808E+04 -3.449612E+04 -2.516341E+05 -3.348035E+04 -1.103709E+04
        75  24 -6.739622E+05 -1.304695E+05 -7.601295E+04 -2.394016E+05 -5.176262E+04 -1.803214E+04
        75  25 -7.521437E+05 -1.228319E+05 -4.288113E+04 -2.729524E+05 -1.507910E+04 -4.226033E+03
        75  26 -7.435412E+05 -1.178974E+05 -5.714940E+04 -2.752940E+05 -3.347914E+04 -1.103654E+04
        75  27 -7.546513E+05 -1.662636E+05 -9.912685E+04 -2.668363E+05 -5.180409E+04 -1.804716E+04
        76   1 -5.824281E+05 -6.817179E+04 -6.776383E+04 -2.534201E+05  6.592487E+04  2.311553E+04
        76   2 -5.486379E+05  4.656738E+03 -1.218785E+05 -2.276166E+05  1.467642E+05  5.335398E+04
        76   3 -6.580933E+05 -2.787129E+05 -3.335032E+05 -1.105113E+05  2.271281E+05  8.486256E+04
        76   4 -6.859702E+05 -8.868833E+04 -9.235805E+04 -2.625441E+05  6.574314E+04  2.304964E+04
        76   5 -6.322418E+05 -3.692131E+04 -1.466711E+05 -2.606632E+05  1.468561E+05  5.338557E+04
        76   6 -7.218354E+05 -3.414394E+05 -3.587279E+05 -1.674733E+05  2.274964E+05  8.498340E+04
        76   7 -7.895014E+05 -1.092051E+05 -1.169528E+05 -2.716676E+05  6.556143E+04  2.298376E+04
        76   8 -7.158386E+05 -7.849720E+04 -1.714642E+05 -2.937052E+05  1.469480E+05  5.341716E+04
        76   9 -7.855697E+05 -4.041541E+05 -3.839523E+05 -2.244276E+05  2.278647E+05  8.510417E+04
        76  10 -5.824329E+05 -6.817353E+04 -6.777301E+04 -2.534213E+05 -2.863090E-11  2.040015E-09
        76  11 -5.486618E+05  4.647887E+03 -1.219244E+05 -2.276229E+05 -1.291663E-10 -2.775327E-11
        76  12 -6.581506E+05 -2.787345E+05 -3.336138E+05 -1.105268E+05 -3.947013E-10  1.281172E-10
        76  13 -6.859750E+05 -8.869007E+04 -9.236719E+04 -2.625453E+05  2.145524E-09 -1.050718E-10
        76  14 -6.322658E+05 -3.693017E+04 -1.467170E+05 -2.606695E+05 -9.205494E-10  3.131279E-09
        76  15 -7.218930E+05 -3.414610E+05 -3.588389E+05 -1.674889E+05 -1.224899E-09  2.497139E-09
        76  16 -7.895061E+05 -1.092068E+05 -1.169619E+05 -2.716689E+05  1.617258E-09 -1.487654E-10
        76  17 -7.158626E+05 -7.850608E+04 -1.715102E+05 -2.937116E+05 -1.206849E-09 -5.393349E-10
        76  18 -7.856275E+05 -4.041759E+05 -3.840637E+05 -2.244432E+05 -1.174194E-09  2.955457E-10
        76  19 -5.824281E+05 -6.817179E+04 -6.776383E+04 -2.534201E+05 -6.592487E+04 -2.311553E+04
        76  20 -5.486379E+05  4.656738E+03 -1.218785E+05 -2.276166E+05 -1.467642E+05 -5.335398E+04
        76  21 -6.580933E+05 -2.787129E+05 -3.335032E+05 -1.105113E+05 -2.271281E+05 -8.486256E+04
        76  22 -6.859702E+05 -8.868833E+04 -9.235805E+04 -2.625441E+05 -6.574314E+04 -2.304964E+04
        76  23 -6.322418E+05 -3.692131E+04 -1.466711E+05 -2.606632E+05 -1.468561E+05 -5.338557E+04
        76  24 -7.218354E+05 -3.414394E+05 -3.587279E+05 -1.674733E+05 -2.274964E+05 -8.498340E+04
        76  25 -7.895014E+05 -1.092051E+05 -1.169528E+05 -2.716676E+05 -6.556143E+04 -2.298376E+04
        76  26 -7.158386E+05 -7.849720E+04 -1.714642E+05 -2.937052E+05 -1.469480E+05 -5.341716E+04
        76  27 -7.855697E+05 -4.041541E+05 -3.839523E+05 -2.244276E+05 -2.278647E+05 -8.510417E+04
        77   1  3.109409E+05  2.308226E+06  2.938641E+05 -4.920233E+04  1.670377E+04  1.320799E+05
        77   2  2.765241E+05  2.274122E+06  2.165050E+05 -4.069995E+04  5.811610E+04  7.211353E+04
        77   3  2.613426E+05  2.252690E+06  1.829277E+05 -3.513960E+04  7.469499E+04  1.215697E+04
        77   4  2.138431E+04  1.128875E+06  2.309402E+04 -3.457383E+04  1.672115E+04  1.548244E+04
        77   5  6.707204E+03  1.127208E+06  1.208721E+04 -3.310853E+04  5.814297E+04  9.334202E+03
        77   6  1.958991E+03  1.128903E+06  7.581696E+03 -3.458192E+04  7.471168E+04  3.190497E+03
        77   7 -2.682610E+05 -4.916331E+04 -2.477167E+05 -1.997319E+04  1.673307E+04 -1.008960E+05
        77   8 -2.631799E+05 -1.841884E+04 -1.923656E+05 -2.553139E+04  5.816835E+04 -5.333282E+04
        77   9 -2.574864E+05  6.372713E+03 -1.677941E+05 -3.402511E+04  7.472837E+04 -5.760401E+03
        77  10  3.109360E+05  2.308207E+06  2.938309E+05 -4.920411E+04  1.942411E-09  1.823489E-09
        77  11  2.765191E+05  2.274115E+06  2.164889E+05 -4.070332E+04  9.258527E-10 -9.707396E-10
        77  12  2.613366E+05  2.252688E+06  1.829170E+05 -3.514033E+04  1.249637E-09 -2.157578E-09
        77  13  2.138395E+04  1.128875E+06  2.309304E+04 -3.457404E+04 -7.793411E-10  8.056840E-11
        77  14  6.703548E+03  1.127207E+06  1.208069E+04 -3.310897E+04  2.887775E-09 -4.099957E-12
        77  15  1.952991E+03  1.128902E+06  7.571182E+03 -3.458211E+04  1.252701E-09  9.931448E-10
        77  16 -2.682641E+05 -4.917432E+04 -2.477364E+05 -1.997183E+04  1.921711E-09 -1.828273E-09
        77  17 -2.631843E+05 -1.842280E+04 -1.923773E+05 -2.552889E+04  1.881243E-10  3.921489E-10
        77  18 -2.574924E+05  6.371177E+03 -1.678047E+05 -3.402477E+04  1.418019E-09  2.347916E-09
        77  19  3.109409E+05  2.308226E+06  2.938641E+05 -4.920233E+04 -1.670377E+04 -1.320799E+05
        77  20  2.765241E+05  2.274122E+06  2.165050E+05 -4.069995E+04 -5.811610E+04 -7.211353E+04
        77  21  2.613426E+05  2.252690E+06  1.829277E+05 -3.513960E+04 -7.469499E+04 -1.215697E+04
        77  22  2.138431E+04  1.128875E+06  2.309402E+04 -3.457383E+04 -1.672115E+04 -1.548244E+04
        77  23  6.707204E+03  1.127208E+06  1.208721E+04 -3.310853E+04 -5.814297E+04 -9.334202E+03
        77  24  1.958991E+03  1.128903E+06  7.581696E+03 -3.458192E+04 -7.471168E+04 -3.190497E+03
        77  25 -2.682610E+05 -4.916331E+04 -2.477167E+05 -1.997319E+04 -1.673307E+04  1.008960E+05
        77  26 -2.631799E+05 -1.841884E+04 -1.923656E+05 -2.553139E+04 -5.816835E+04  5.333282E+04
        77  27 -2.574864E+05  6.372713E+03 -1.677941E+05 -3.402511E+04 -7.472837E+04  5.760401E+03
        78   1  2.558668E+05  2.233586E+06  1.750877E+05 -3.643089E+04  7.622489E+04  1.065798E+04
        78   2  2.477903E+05  2.204851E+06  1.657012E+05 -3.299210E+04  7.746938E+04 -4.038219E+03
        78   3  2.436940E+05  2.179086E+06  1.668742E+05 -3.437189E+04  7.329906E+04 -1.873810E+04
        78   4  1.543588E+03  1.128371E+06  6.524451E+03 -3.499993E+04  7.624242E+04  2.112709E+03
        78   5  8.666512E+02  1.127911E+06  5.927121E+03 -3.259050E+04  7.748035E+04 -8.465543E+02
        78   6  2.139848E+03  1.128390E+06  7.761586E+03 -3.500016E+04  7.329867E+04 -3.810097E+03
        78   7 -2.528381E+05  2.437619E+04 -1.620648E+05 -3.357143E+04  7.625994E+04 -6.417991E+03
        78   8 -2.461113E+05  5.213294E+04 -1.538686E+05 -3.218942E+04  7.749133E+04  2.339815E+03
        78   9 -2.394668E+05  7.879810E+04 -1.513731E+05 -3.562708E+04  7.329825E+04  1.109371E+04
        78  10  2.558605E+05  2.233584E+06  1.750766E+05 -3.643155E+04  9.271237E-10  2.604631E-09
        78  11  2.477839E+05  2.204849E+06  1.656899E+05 -3.299185E+04  3.187572E-09 -1.623962E-09
        78  12  2.436881E+05  2.179084E+06  1.668634E+05 -3.437079E+04  5.080699E-10 -2.810915E-09
        78  13  1.537341E+03  1.128370E+06  6.513514E+03 -3.500006E+04 -1.767268E-09 -5.887988E-11
        78  14  8.602013E+02  1.127909E+06  5.915833E+03 -3.259045E+04  3.896395E-11 -3.768569E-11
        78  15  2.134072E+03  1.128389E+06  7.751457E+03 -3.499994E+04  3.131152E-10  1.987963E-09
        78  16 -2.528444E+05  2.437458E+04 -1.620758E+05 -3.357103E+04 -7.253060E-10 -2.783310E-09
        78  17 -2.461177E+05  5.213132E+04 -1.538799E+05 -3.218956E+04 -3.494968E-09 -4.536666E-11
        78  18 -2.394726E+05  7.879653E+04 -1.513834E+05 -3.562774E+04 -5.708283E-10  3.222729E-09
        78  19  2.558668E+05  2.233586E+06  1.750877E+05 -3.643089E+04 -7.622489E+04 -1.065798E+04
        78  20  2.477903E+05  2.204851E+06  1.657012E+05 -3.299210E+04 -7.746938E+04  4.038219E+03
        78  21  2.436940E+05  2.179086E+06  1.668742E+05 -3.437189E+04 -7.329906E+04  1.873810E+04
        78  22  1.543588E+03  1.128371E+06  6.524451E+03 -3.499993E+04 -7.624242E+04 -2.112709E+03
        78  23  8.666512E+02  1.127911E+06  5.927121E+03 -3.259050E+04 -7.748035E+04  8.465543E+02
        78  24  2.139848E+03  1.128390E+06  7.761586E+03 -3.500016E+04 -7.329867E+04  3.810097E+03
        78  25 -2.528381E+05  2.437619E+04 -1.620648E+05 -3.357143E+04 -7.625994E+04  6.417991E+03
        78  26 -2.461113E+05  5.213294E+04 -1.538686E+05 -3.218942E+04 -7.749133E+04 -2.339815E+03
        78  27 -2.394668E+05  7.879810E+04 -1.513731E+05 -3.562708E+04 -7.329825E+04 -1.109371E+04
        79   1  2.413329E+05  2.164081E+06  1.695307E+05 -3.581724E+04  6.987925E+04 -2.040518E+04
        79   2  2.451607E+05  2.131236E+06  1.929065E+05 -2.287224E+04  5.265006E+04 -7.299928E+04
        79   3  2.702002E+05  2.110569E+06  2.557607E+05 -1.633562E+04  1.497503E+04 -1.256218E+05
        79   4  2.755220E+03  1.129191E+06  9.545681E+03 -3.535649E+04  6.987634E+04 -5.118383E+03
        79   5  9.372113E+03  1.126939E+06  1.623543E+04 -3.213911E+04  5.259566E+04 -1.341564E+04
        79   6  2.954114E+04  1.129197E+06  3.171240E+04 -3.533300E+04  1.485563E+04 -2.174122E+04
        79   7 -2.358744E+05  9.536925E+04 -1.504630E+05 -3.489628E+04  6.987344E+04  1.014397E+04
        79   8 -2.264693E+05  1.236320E+05 -1.604590E+05 -4.139032E+04  5.253944E+04  4.607474E+04
        79   9 -2.111774E+05  1.487394E+05 -1.923582E+05 -5.429991E+04  1.472978E+04  8.197707E+04
        79  10  2.413276E+05  2.164079E+06  1.695208E+05 -3.581609E+04  2.326715E-09  2.792152E-09
        79  11  2.451563E+05  2.131230E+06  1.928913E+05 -2.286915E+04  3.393655E-09 -1.499885E-09
        79  12  2.701958E+05  2.110552E+06  2.557308E+05 -1.633411E+04  8.140219E-10 -2.468985E-09
        79  13  2.749967E+03  1.129190E+06  9.536451E+03 -3.535620E+04  1.703817E-09  8.820824E-12
        79  14  9.369093E+03  1.126938E+06  1.622989E+04 -3.213854E+04  2.455738E-09  5.183540E-11
        79  15  2.954078E+04  1.129197E+06  3.171110E+04 -3.533274E+04  1.181126E-09  2.957340E-09
        79  16 -2.358796E+05  9.536783E+04 -1.504723E+05 -3.489685E+04  7.200661E-11 -3.443430E-09
        79  17 -2.264728E+05  1.236289E+05 -1.604682E+05 -4.139227E+04 -1.105633E-09 -8.197471E-10
        79  18 -2.111795E+05  1.487321E+05 -1.923712E+05 -5.430088E+04 -6.507205E-10  2.998798E-09
        79  19  2.413329E+05  2.164081E+06  1.695307E+05 -3.581724E+04 -6.987925E+04  2.040518E+04
        79  20  2.451607E+05  2.131236E+06  1.929065E+05 -2.287224E+04 -5.265006E+04  7.299928E+04
        79  21  2.702002E+05  2.110569E+06  2.557607E+05 -1.633562E+04 -1.497503E+04  1.256218E+05
        79  22  2.755220E+03  1.129191E+06  9.545681E+03 -3.535649E+04 -6.987634E+04  5.118383E+03
        79  23  9.372113E+03  1.126939E+06  1.623543E+04 -3.213911E+04 -5.259566E+04  1.341564E+04
        79  24  2.954114E+04  1.129197E+06  3.171240E+04 -3.533300E+04 -1.485563E+04  2.174122E+04
        79  25 -2.358744E+05  9.536925E+04 -1.504630E+05 -3.489628E+04 -6.987344E+04 -1.014397E+04
        79  26 -2.264693E+05  1.236320E+05 -1.604590E+05 -4.139032E+04 -5.253944E+04 -4.607474E+04
        79  27 -2.111774E+05  1.487394E+05 -1.923582E+05 -5.429991E+04 -1.472978E+04 -8.197707E+04
        80   1 -3.207516E+06 -3.973545E+05 -4.481261E+05 -4.741118E+04 -1.577891E+05  4.442418E+03
        80   2 -3.161910E+06 -1.818699E+05 -3.144460E+05 -1.594977E+04 -1.021713E+05  1.485499E+04
        80   3 -3.180459E+06 -2.093847E+05 -2.770907E+05 -4.699442E+03 -4.650241E+04  1.329240E+04
        80   4 -2.317784E+06 -1.740356E+05 -2.257180E+05 -1.603148E+04 -1.540782E+05  4.451549E+03
        80   5 -2.285898E+06  3.740110E+04 -9.712206E+04 -6.319797E+03 -1.012565E+05  1.485554E+04
        80   6 -2.317585E+06  6.508607E+03 -6.280620E+04 -1.681943E+04 -4.838520E+04  1.328787E+04
        80   7 -1.427329E+06  4.922679E+04 -3.369381E+03  1.539261E+04 -1.503620E+05  4.461054E+03
        80   8 -1.409185E+06  2.566146E+05  1.201445E+05  3.323247E+03 -1.003403E+05  1.485613E+04
        80   9 -1.454031E+06  2.223464E+05  1.514227E+05 -2.895674E+04 -5.027057E+04  1.328342E+04
        80  10 -3.207543E+06 -3.973613E+05 -4.481732E+05 -4.741062E+04 -1.562138E-10  2.667725E-10
        80  11 -3.161921E+06 -1.818729E+05 -3.144662E+05 -1.594855E+04 -1.020266E-09  4.677947E-10
        80  12 -3.180461E+06 -2.093854E+05 -2.770952E+05 -4.698944E+03 -2.659027E-09 -4.606928E-10
        80  13 -2.317810E+06 -1.740420E+05 -2.257629E+05 -1.603093E+04 -5.288651E-10  6.685123E-11
        80  14 -2.285909E+06  3.739810E+04 -9.714181E+04 -6.318584E+03 -4.780792E-10  2.977921E-10
        80  15 -2.317587E+06  6.507787E+03 -6.281095E+04 -1.681891E+04 -2.678705E-09 -7.883601E-11
        80  16 -1.427353E+06  4.922068E+04 -3.412003E+03  1.539315E+04 -1.616134E-09  3.823628E-10
        80  17 -1.409196E+06  2.566117E+05  1.201252E+05  3.324448E+03 -1.037264E-09  7.406139E-10
        80  18 -1.454034E+06  2.223455E+05  1.514176E+05 -2.895620E+04  1.115861E-09  1.841496E-10
        80  19 -3.207516E+06 -3.973545E+05 -4.481261E+05 -4.741118E+04  1.577891E+05 -4.442418E+03
        80  20 -3.161910E+06 -1.818699E+05 -3.144460E+05 -1.594977E+04  1.021713E+05 -1.485499E+04
        80  21 -3.180459E+06 -2.093847E+05 -2.770907E+05 -4.699442E+03  4.650241E+04 -1.329240E+04
        80  22 -2.317784E+06 -1.740356E+05 -2.257180E+05 -1.603148E+04  1.540782E+05 -4.451549E+03
        80  23 -2.285898E+06  3.740110E+04 -9.712206E+04 -6.319797E+03  1.012565E+05 -1.485554E+04
        80  24 -2.317585E+06  6.508607E+03 -6.280620E+04 -1.681943E+04  4.838520E+04 -1.328787E+04
        80  25 -1.427329E+06  4.922679E+04 -3.369381E+03  1.539261E+04  1.503620E+05 -4.461054E+03
        80  26 -1.409185E+06  2.566146E+05  1.201445E+05  3.323247E+03  1.003403E+05 -1.485613E+04
        80  27 -1.454031E+06  2.223464E+05  1.514227E+05 -2.895674E+04  5.027057E+04 -1.328342E+04
        81   1 -3.073342E+06 -2.173064E+05 -2.427814E+05 -2.851914E+04 -3.851313E+04  1.112147E+04
        81   2 -3.036124E+06 -1.786311E+05 -2.077198E+05  1.067082E+03 -2.486937E+04  1.166746E+04
        81   3 -3.006595E+06 -1.746164E+05 -1.896772E+05 -2.159410E+04 -1.122507E+04  1.009968E+04
        81   4 -2.305147E+06 -2.500472E+04 -5.189077E+04 -2.366787E+04 -3.816735E+04  1.112093E+04
        81   5 -2.301340E+06  5.253531E+03 -2.529551E+04  2.433752E+03 -2.501445E+04  1.166642E+04
        81   6 -2.305125E+06  9.606458E+02 -1.536181E+04 -2.370835E+04 -1.186175E+04  1.009910E+04
        81   7 -1.536414E+06  1.672526E+05  1.389556E+05 -1.881078E+04 -3.782111E+04  1.112040E+04
        81   8 -1.566065E+06  1.890975E+05  1.570883E+05  3.801950E+03 -2.515968E+04  1.166539E+04
        81   9 -1.603205E+06  1.765007E+05  1.589167E+05 -2.582497E+04 -1.249914E+04  1.009851E+04
        81  10 -3.073344E+06 -2.173070E+05 -2.427844E+05 -2.851880E+04 -4.906441E-10 -9.906732E-10
        81  11 -3.036124E+06 -1.786314E+05 -2.077212E+05  1.067316E+03  3.230290E-09 -1.765126E-10
        81  12 -3.006595E+06 -1.746166E+05 -1.896776E+05 -2.159400E+04  9.809359E-10  1.290537E-09
        81  13 -2.305149E+06 -2.500524E+04 -5.189375E+04 -2.366753E+04 -2.334552E-09 -4.145929E-10
        81  14 -2.301341E+06  5.253216E+03 -2.529694E+04  2.433987E+03 -3.208424E-09 -1.930648E-10
        81  15 -2.305125E+06  9.604985E+02 -1.536227E+04 -2.370825E+04 -1.720798E-09  6.054237E-10
        81  16 -1.536415E+06  1.672521E+05  1.389527E+05 -1.881044E+04 -2.215775E-09  5.487513E-10
        81  17 -1.566065E+06  1.890972E+05  1.570869E+05  3.802186E+03  1.681728E-09 -1.365298E-10
        81  18 -1.603206E+06  1.765005E+05  1.589162E+05 -2.582487E+04 -1.927733E-09 -1.482049E-10
        81  19 -3.073342E+06 -2.173064E+05 -2.427814E+05 -2.851914E+04  3.851313E+04 -1.112147E+04
        81  20 -3.036124E+06 -1.786311E+05 -2.077198E+05  1.067082E+03  2.486937E+04 -1.166746E+04
        81  21 -3.006595E+06 -1.746164E+05 -1.896772E+05 -2.159410E+04  1.122507E+04 -1.009968E+04
        81  22 -2.305147E+06 -2.500472E+04 -5.189077E+04 -2.366787E+04  3.816735E+04 -1.112093E+04
        81  23 -2.301340E+06  5.253531E+03 -2.529551E+04  2.433752E+03  2.501445E+04 -1.166642E+04
        81  24 -2.305125E+06  9.606458E+02 -1.536181E+04 -2.370835E+04  1.186175E+04 -1.009910E+04
        81  25 -1.536414E+06  1.672526E+05  1.389556E+05 -1.881078E+04  3.782111E+04 -1.112040E+04
        81  26 -1.566065E+06  1.890975E+05  1.570883E+05  3.801950E+03  2.515968E+04 -1.166539E+04
        81  27 -1.603205E+06  1.765007E+05  1.589167E+05 -2.582497E+04  1.249914E+04 -1.009851E+04
        82   1 -2.840475E+06 -1.379733E+05 -1.455655E+05 -2.922333E+04 -9.148673E+03  8.977815E+03
        82   2 -2.791718E+06 -1.215353E+05 -1.278405E+05  9.324992E+03 -5.689185E+03  7.667618E+03
        82   3 -2.743663E+06 -1.098946E+05 -1.133820E+05 -2.801475E+04 -2.233080E+03  5.763526E+03
        82   4 -2.303528E+06 -3.629714E+03 -1.234239E+04 -2.895266E+04 -9.395889E+03  8.977466E+03
        82   5 -2.303194E+06  7.057819E+02 -6.556832E+03  8.990971E+03 -6.075866E+03  7.667702E+03
        82   6 -2.303536E+06  2.713967E+02 -3.938043E+03 -2.894976E+04 -2.759493E+03  5.764248E+03
        82   7 -1.766318E+06  1.306922E+05  1.208591E+05 -2.868170E+04 -9.643318E+03  8.977117E+03
        82   8 -1.814452E+06  1.229289E+05  1.147089E+05  8.656750E+03 -6.462851E+03  7.667786E+03
        82   9 -1.863232E+06  1.104228E+05  1.054914E+05 -2.988536E+04 -3.286280E+03  5.764971E+03
        82  10 -2.840475E+06 -1.379734E+05 -1.455658E+05 -2.922327E+04 -1.800791E-09  1.528696E-09
        82  11 -2.791718E+06 -1.215354E+05 -1.278406E+05  9.325028E+03  1.126878E-09 -4.111561E-10
        82  12 -2.743663E+06 -1.098946E+05 -1.133821E+05 -2.801474E+04 -3.600309E-09 -1.879598E-10
        82  13 -2.303528E+06 -3.629824E+03 -1.234271E+04 -2.895259E+04  2.280022E-10  1.057481E-09
        82  14 -2.303194E+06  7.057089E+02 -6.557012E+03  8.991009E+03 -4.146169E-09 -8.013424E-11
        82  15 -2.303536E+06  2.713590E+02 -3.938119E+03 -2.894975E+04  2.033256E-09  1.923693E-10
        82  16 -1.766319E+06  1.306921E+05  1.208588E+05 -2.868163E+04 -1.904244E-09  1.564638E-10
        82  17 -1.814452E+06  1.229289E+05  1.147087E+05  8.656790E+03  1.115154E-09 -6.656582E-11
        82  18 -1.863232E+06  1.104228E+05  1.054913E+05 -2.988534E+04 -1.667061E-09 -2.938829E-11
        82  19 -2.840475E+06 -1.379733E+05 -1.455655E+05 -2.922333E+04  9.148673E+03 -8.977815E+03
        82  20 -2.791718E+06 -1.215353E+05 -1.278405E+05  9.324992E+03  5.689185E+03 -7.667618E+03
        82  21 -2.743663E+06 -1.098946E+05 -1.133820E+05 -2.801475E+04  2.233080E+03 -5.763526E+03
        82  22 -2.303528E+06 -3.629714E+03 -1.234239E+04 -2.895266E+04  9.395889E+03 -8.977466E+03
        82  23 -2.303194E+06  7.057819E+02 -6.556832E+03  8.990971E+03  6.075866E+03 -7.667702E+03
        82  24 -2.303536E+06  2.713967E+02 -3.938043E+03 -2.894976E+04  2.759493E+03 -5.764248E+03
        82  25 -1.766318E+06  1.306922E+05  1.208591E+05 -2.868170E+04  9.643318E+03 -8.977117E+03
        82  26 -1.814452E+06  1.229289E+05  1.147089E+05  8.656750E+03  6.462851E+03 -7.667786E+03
        82  27 -1.863232E+06  1.104228E+05  1.054914E+05 -2.988536E+04  3.286280E+03 -5.764971E+03
        83   1 -2.532462E+06 -5.769887E+04 -5.992095E+04 -3.150096E+04 -1.692535E+03  4.581574E+03
        83   2 -2.475614E+06 -4.304752E+04 -4.485684E+04  1.281596E+04 -6.285123E+02  2.698638E+03
        83   3 -2.419395E+06 -2.893019E+04 -3.069572E+04 -3.149760E+04  4.340264E+02  6.549434E+02
        83   4 -2.303479E+06 -4.410734E+02 -3.235764E+03 -3.178394E+04 -2.123779E+03  4.582378E+03
        83   5 -2.303169E+06  9.525681E+01 -2.051800E+03  1.253111E+04 -1.097911E+03  2.699669E+03
        83   6 -2.303484E+06  1.044282E+02 -1.743981E+03 -3.178279E+04 -7.362520E+01  6.562312E+02
        83   7 -2.074449E+06  5.681279E+04  5.344552E+04 -3.206700E+04 -2.555181E+03  4.583182E+03
        83   8 -2.130696E+06  4.323580E+04  4.075102E+04  1.224619E+04 -1.567440E+03  2.700700E+03
        83   9 -2.187561E+06  2.913803E+04  2.720674E+04 -3.206803E+04 -5.813719E+02  6.575193E+02
        83  10 -2.532462E+06 -5.769890E+04 -5.992100E+04 -3.150095E+04 -4.408946E-09  1.357458E-11
        83  11 -2.475614E+06 -4.304753E+04 -4.485686E+04  1.281597E+04 -1.656375E-10  1.748148E-10
        83  12 -2.419395E+06 -2.893019E+04 -3.069572E+04 -3.149760E+04  4.975756E-10 -2.710378E-10
        83  13 -2.303479E+06 -4.410972E+02 -3.235812E+03 -3.178393E+04 -4.134536E-09 -8.737784E-11
        83  14 -2.303169E+06  9.524867E+01 -2.051816E+03  1.253111E+04  1.484012E-09  6.675520E-10
        83  15 -2.303484E+06  1.044278E+02 -1.743982E+03 -3.178279E+04  1.670199E-09  4.925837E-10
        83  16 -2.074449E+06  5.681277E+04  5.344546E+04 -3.206699E+04  1.639275E-09 -3.110668E-11
        83  17 -2.130696E+06  4.323579E+04  4.075100E+04  1.224620E+04 -3.318403E-10  8.086498E-11
        83  18 -2.187561E+06  2.913803E+04  2.720674E+04 -3.206803E+04  1.322383E-10  2.952301E-11
        83  19 -2.532462E+06 -5.769887E+04 -5.992095E+04 -3.150096E+04  1.692535E+03 -4.581574E+03
        83  20 -2.475614E+06 -4.304752E+04 -4.485684E+04  1.281596E+04  6.285123E+02 -2.698638E+03
        83  21 -2.419395E+06 -2.893019E+04 -3.069572E+04 -3.149760E+04 -4.340264E+02 -6.549434E+02
        83  22 -2.303479E+06 -4.410734E+02 -3.235764E+03 -3.178394E+04  2.123779E+03 -4.582378E+03
        83  23 -2.303169E+06  9.525681E+01 -2.051800E+03  1.253111E+04  1.097911E+03 -2.699669E+03
        83  24 -2.303484E+06  1.044282E+02 -1.743981E+03 -3.178279E+04  7.362520E+01 -6.562312E+02
        83  25 -2.074449E+06  5.681279E+04  5.344552E+04 -3.206700E+04  2.555181E+03 -4.583182E+03
        83  26 -2.130696E+06  4.323580E+04  4.075102E+04  1.224619E+04  1.567440E+03 -2.700700E+03
        83  27 -2.187561E+06  2.913803E+04  2.720674E+04 -3.206803E+04  5.813719E+02 -6.575193E+02
        84   1 -2.191744E+06  2.810343E+04  2.614298E+04 -3.208226E+04  7.451069E+02 -5.934024E+02
        84   2 -2.134809E+06  4.221654E+04  3.957810E+04  1.227420E+04  1.807586E+03 -2.636867E+03
        84   3 -2.078527E+06  5.573528E+04  5.209354E+04 -3.207401E+04  2.871725E+03 -4.522994E+03
        84   4 -2.303492E+06  1.141056E+02 -1.771530E+03 -3.179989E+04  2.377232E+02 -5.921134E+02
        84   5 -2.303158E+06  1.071441E+02 -2.201642E+03  1.255254E+04  1.337596E+03 -2.635830E+03
        84   6 -2.303488E+06 -5.006535E+02 -3.577466E+03 -3.180120E+04  2.439031E+03 -4.522179E+03
        84   7 -2.415229E+06 -2.787616E+04 -2.968698E+04 -3.151757E+04 -2.695688E+02 -5.908247E+02
        84   8 -2.471482E+06 -4.200439E+04 -4.398351E+04  1.283083E+04  8.677333E+02 -2.634792E+03
        84   9 -2.528402E+06 -5.674039E+04 -5.925224E+04 -3.152846E+04  2.006494E+03 -4.521364E+03
        84  10 -2.191744E+06  2.810343E+04  2.614298E+04 -3.208226E+04 -2.682556E-09 -5.908533E-11
        84  11 -2.134809E+06  4.221653E+04  3.957808E+04  1.227420E+04  5.627543E-10  6.010348E-10
        84  12 -2.078527E+06  5.573526E+04  5.209348E+04 -3.207400E+04  2.824980E-10  6.693878E-10
        84  13 -2.303492E+06  1.141052E+02 -1.771531E+03 -3.179989E+04  2.726810E-09  7.980613E-10
        84  14 -2.303158E+06  1.071361E+02 -2.201659E+03  1.255255E+04 -1.743614E-09  6.547434E-10
        84  15 -2.303488E+06 -5.006771E+02 -3.577515E+03 -3.180119E+04  4.166940E-09  3.789120E-10
        84  16 -2.415229E+06 -2.787616E+04 -2.968698E+04 -3.151757E+04  4.098798E-09 -4.734817E-10
        84  17 -2.471482E+06 -4.200439E+04 -4.398352E+04  1.283083E+04  1.920166E-09 -7.491005E-10
        84  18 -2.528402E+06 -5.674041E+04 -5.925229E+04 -3.152845E+04  9.886733E-10 -5.636402E-10
        84  19 -2.191744E+06  2.810343E+04  2.614298E+04 -3.208226E+04 -7.451069E+02  5.934024E+02
        84  20 -2.134809E+06  4.221654E+04  3.957810E+04  1.227420E+04 -1.807586E+03  2.636867E+03
        84  21 -2.078527E+06  5.573528E+04  5.209354E+04 -3.207401E+04 -2.871725E+03  4.522994E+03
        84  22 -2.303492E+06  1.141056E+02 -1.771530E+03 -3.179989E+04 -2.377232E+02  5.921134E+02
        84  23 -2.303158E+06  1.071441E+02 -2.201642E+03  1.255254E+04 -1.337596E+03  2.635830E+03
        84  24 -2.303488E+06 -5.006535E+02 -3.577466E+03 -3.180120E+04 -2.439031E+03  4.522179E+03
        84  25 -2.415229E+06 -2.787616E+04 -2.968698E+04 -3.151757E+04  2.695688E+02  5.908247E+02
        84  26 -2.471482E+06 -4.200439E+04 -4.398351E+04  1.283083E+04 -8.677333E+02  2.634792E+03
        84  27 -2.528402E+06 -5.674039E+04 -5.925224E+04 -3.152846E+04 -2.006494E+03  4.521364E+03
        85   1 -1.866952E+06  1.095230E+05  1.041272E+05 -2.997526E+04  3.673896E+03 -5.707001E+03
        85   2 -1.817926E+06  1.221409E+05  1.130483E+05  8.731937E+03  7.250797E+03 -7.613665E+03
        85   3 -1.769775E+06  1.294042E+05  1.184832E+05 -2.868310E+04  1.083152E+04 -8.929278E+03
        85   4 -2.303586E+06  2.889564E+02 -4.392094E+03 -2.900329E+04  3.146471E+03 -5.706264E+03
        85   5 -2.303131E+06  8.020624E+02 -7.340181E+03  9.058056E+03  6.862336E+03 -7.613566E+03
        85   6 -2.303579E+06 -4.066166E+03 -1.387309E+04 -2.900660E+04  1.058174E+04 -8.929615E+03
        85   7 -2.740046E+06 -1.089595E+05 -1.129257E+05 -2.803192E+04  2.619417E+03 -5.705527E+03
        85   8 -2.788122E+06 -1.205545E+05 -1.277462E+05  9.383985E+03  6.474177E+03 -7.613468E+03
        85   9 -2.837124E+06 -1.375580E+05 -1.462506E+05 -2.932977E+04  1.033217E+04 -8.929953E+03
        85  10 -1.866952E+06  1.095230E+05  1.041271E+05 -2.997524E+04  4.290830E-10 -5.188489E-10
        85  11 -1.817926E+06  1.221408E+05  1.130480E+05  8.731981E+03 -6.050514E-10 -4.170093E-10
        85  12 -1.769775E+06  1.294041E+05  1.184828E+05 -2.868303E+04  2.944080E-09 -1.200605E-10
        85  13 -2.303586E+06  2.889188E+02 -4.392174E+03 -2.900327E+04  2.252996E-09 -7.485963E-10
        85  14 -2.303131E+06  8.019875E+02 -7.340379E+03  9.058099E+03  7.483477E-09 -1.747749E-10
        85  15 -2.303579E+06 -4.066282E+03 -1.387345E+04 -2.900652E+04 -1.183502E-09 -4.014750E-10
        85  16 -2.740046E+06 -1.089595E+05 -1.129257E+05 -2.803191E+04  4.289430E-10 -2.936245E-10
        85  17 -2.788122E+06 -1.205546E+05 -1.277464E+05  9.384024E+03  1.065488E-09 -7.989398E-10
        85  18 -2.837124E+06 -1.375581E+05 -1.462510E+05 -2.932970E+04  4.898536E-10 -3.211566E-10
        85  19 -1.866952E+06  1.095230E+05  1.041272E+05 -2.997526E+04 -3.673896E+03  5.707001E+03
        85  20 -1.817926E+06  1.221409E+05  1.130483E+05  8.731937E+03 -7.250797E+03  7.613665E+03
        85  21 -1.769775E+06  1.294042E+05  1.184832E+05 -2.868310E+04 -1.083152E+04  8.929278E+03
        85  22 -2.303586E+06  2.889564E+02 -4.392094E+03 -2.900329E+04 -3.146471E+03  5.706264E+03
        85  23 -2.303131E+06  8.020624E+02 -7.340181E+03  9.058056E+03 -6.862336E+03  7.613566E+03
        85  24 -2.303579E+06 -4.066166E+03 -1.387309E+04 -2.900660E+04 -1.058174E+04  8.929615E+03
        85  25 -2.740046E+06 -1.089595E+05 -1.129257E+05 -2.803192E+04 -2.619417E+03  5.705527E+03
        85  26 -2.788122E+06 -1.205545E+05 -1.277462E+05  9.383985E+03 -6.474177E+03  7.613468E+03
        85  27 -2.837124E+06 -1.375580E+05 -1.462506E+05 -2.932977E+04 -1.033217E+04  8.929953E+03
        86   1 -1.606165E+06  1.759515E+05  1.563311E+05 -2.615976E+04  1.399788E+04 -1.005426E+04
        86   2 -1.568142E+06  1.891616E+05  1.533512E+05  3.990466E+03  2.829470E+04 -1.162569E+04
        86   3 -1.538925E+06  1.636022E+05  1.319141E+05 -1.842315E+04  4.259276E+04 -1.108460E+04
        86   4 -2.305417E+06  1.077589E+03 -1.728684E+04 -2.378145E+04  1.335829E+04 -1.005481E+04
        86   5 -2.300976E+06  5.927797E+03 -2.842740E+04  2.524860E+03  2.814575E+04 -1.162673E+04
        86   6 -2.305444E+06 -2.810348E+04 -5.838326E+04 -2.373683E+04  4.293369E+04 -1.108520E+04
        86   7 -3.004224E+06 -1.738331E+05 -1.909414E+05 -2.140580E+04  1.271942E+04 -1.005537E+04
        86   8 -3.033321E+06 -1.773464E+05 -2.102462E+05  1.060895E+03  2.799697E+04 -1.162777E+04
        86   9 -3.071428E+06 -2.198533E+05 -2.487246E+05 -2.904415E+04  4.327416E+04 -1.108582E+04
        86  10 -1.606165E+06  1.759513E+05  1.563305E+05 -2.615964E+04  2.040153E-10 -4.500099E-10
        86  11 -1.568143E+06  1.891613E+05  1.533494E+05  3.990731E+03 -1.946162E-09 -6.612190E-10
        86  12 -1.538927E+06  1.636015E+05  1.319104E+05 -1.842277E+04 -2.369125E-10  5.547663E-10
        86  13 -2.305417E+06  1.077432E+03 -1.728737E+04 -2.378134E+04  2.254182E-10 -6.005791E-10
        86  14 -2.300977E+06  5.927438E+03 -2.842915E+04  2.525124E+03 -2.395224E-09 -7.226563E-10
        86  15 -2.305446E+06 -2.810411E+04 -5.838697E+04 -2.373645E+04  3.212814E-09 -1.328818E-10
        86  16 -3.004224E+06 -1.738332E+05 -1.909419E+05 -2.140570E+04  2.158794E-10 -3.928774E-10
        86  17 -3.033322E+06 -1.773468E+05 -2.102479E+05  1.061158E+03  1.306814E-09 -1.108388E-09
        86  18 -3.071430E+06 -2.198539E+05 -2.487283E+05 -2.904376E+04  2.561378E-09  1.540534E-10
        86  19 -1.606165E+06  1.759515E+05  1.563311E+05 -2.615976E+04 -1.399788E+04  1.005426E+04
        86  20 -1.568142E+06  1.891616E+05  1.533512E+05  3.990466E+03 -2.829470E+04  1.162569E+04
        86  21 -1.538925E+06  1.636022E+05  1.319141E+05 -1.842315E+04 -4.259276E+04  1.108460E+04
        86  22 -2.305417E+06  1.077589E+03 -1.728684E+04 -2.378145E+04 -1.335829E+04  1.005481E+04
        86  23 -2.300976E+06  5.927797E+03 -2.842740E+04  2.524860E+03 -2.814575E+04  1.162673E+04
        86  24 -2.305444E+06 -2.810348E+04 -5.838326E+04 -2.373683E+04 -4.293369E+04  1.108520E+04
        86  25 -3.004224E+06 -1.738331E+05 -1.909414E+05 -2.140580E+04 -1.271942E+04  1.005537E+04
        86  26 -3.033321E+06 -1.773464E+05 -2.102462E+05  1.060895E+03 -2.799697E+04  1.162777E+04
        86  27 -3.071428E+06 -2.198533E+05 -2.487246E+05 -2.904415E+04 -4.327416E+04  1.108582E+04
        87   1 -1.457148E+06  2.228566E+05  1.432505E+05 -3.077035E+04  5.632595E+04 -1.324770E+04
        87   2 -1.407843E+06  2.610814E+05  1.078011E+05  4.319067E+03  1.129985E+05 -1.480108E+04
        87   3 -1.429981E+06  2.731639E+04 -3.177057E+04  1.891351E+04  1.696245E+05 -4.373983E+03
        87   4 -2.319464E+06  7.336318E+03 -7.067160E+04 -1.691029E+04  5.443466E+04 -1.325181E+04
        87   5 -2.283557E+06  4.211142E+04 -1.092197E+05 -6.222714E+03  1.139034E+05 -1.480088E+04
        87   6 -2.319688E+06 -1.957985E+05 -2.539426E+05 -1.603095E+04  1.733240E+05 -4.366541E+03
        87   7 -3.181101E+06 -2.082391E+05 -2.846491E+05 -3.069917E+03  5.254595E+04 -1.325601E+04
        87   8 -3.158572E+06 -1.769158E+05 -3.262977E+05 -1.675017E+04  1.148070E+05 -1.480072E+04
        87   9 -3.208672E+06 -4.189690E+05 -4.761738E+05 -5.092599E+04  1.770181E+05 -4.359516E+03
        87  10 -1.457151E+06  2.228556E+05  1.432442E+05 -3.076975E+04  5.071672E-10  1.900307E-09
        87  11 -1.407857E+06  2.610777E+05  1.077766E+05  4.320414E+03 -9.037597E-10  6.162967E-10
        87  12 -1.430012E+06  2.730863E+04 -3.182480E+04  1.891411E+04 -1.645688E-09 -3.260749E-10
        87  13 -2.319467E+06  7.335330E+03 -7.067752E+04 -1.690971E+04 -3.795573E-10  8.693206E-10
        87  14 -2.283571E+06  4.210769E+04 -1.092446E+05 -6.221355E+03 -3.917431E-10  9.412934E-11
        87  15 -2.319720E+06 -1.958066E+05 -2.539993E+05 -1.603034E+04 -6.421794E-10  4.224293E-10
        87  16 -3.181104E+06 -2.082401E+05 -2.846547E+05 -3.069355E+03  1.713392E-09  8.790678E-10
        87  17 -3.158586E+06 -1.769196E+05 -3.263230E+05 -1.674880E+04  3.678728E-09  2.362563E-09
        87  18 -3.208706E+06 -4.189775E+05 -4.762330E+05 -5.092537E+04 -8.892354E-10  7.724309E-11
        87  19 -1.457148E+06  2.228566E+05  1.432505E+05 -3.077035E+04 -5.632595E+04  1.324770E+04
        87  20 -1.407843E+06  2.610814E+05  1.078011E+05  4.319067E+03 -1.129985E+05  1.480108E+04
        87  21 -1.429981E+06  2.731639E+04 -3.177057E+04  1.891351E+04 -1.696245E+05  4.373983E+03
        87  22 -2.319464E+06  7.336318E+03 -7.067160E+04 -1.691029E+04 -5.443466E+04  1.325181E+04
        87  23 -2.283557E+06  4.211142E+04 -1.092197E+05 -6.222714E+03 -1.139034E+05  1.480088E+04
        87  24 -2.319688E+06 -1.957985E+05 -2.539426E+05 -1.603095E+04 -1.733240E+05  4.366541E+03
        87  25 -3.181101E+06 -2.082391E+05 -2.846491E+05 -3.069917E+03 -5.254595E+04  1.325601E+04
        87  26 -3.158572E+06 -1.769158E+05 -3.262977E+05 -1.675017E+04 -1.148070E+05  1.480072E+04
        87  27 -3.208672E+06 -4.189690E+05 -4.761738E+05 -5.092599E+04 -1.770181E+05  4.359516E+03
        88   1  6.053834E+05  1.484230E+06  6.385102E+05 -1.979574E+05  1.039472E+04  1.194648E+05
        88   2  3.845865E+05  1.190358E+06  4.748088E+05  2.229139E+04  2.908281E+04  7.582948E+04
        88   3  3.444678E+05  9.528204E+05  3.857884E+05 -1.713377E+05  1.761890E+04  3.197992E+04
        88   4  1.257006E+05 -4.358689E+05  1.605050E+05 -1.694258E+05  1.044930E+04  1.111887E+05
        88   5 -2.797357E+04 -4.635918E+05  6.612994E+04  3.716265E+04  2.909563E+04  7.490872E+04
        88   6 -1.998730E+03 -4.361880E+05  4.148964E+04 -1.701889E+05  1.755655E+04  3.839530E+04
        88   7 -3.542570E+05 -2.352625E+06 -3.177764E+05 -1.409770E+05  1.050321E+04  1.029377E+05
        88   8 -4.407376E+05 -2.115057E+06 -3.427520E+05  5.199905E+04  2.910844E+04  7.399019E+04
        88   9 -3.486097E+05 -1.823445E+06 -3.029528E+05 -1.690380E+05  1.749415E+04  4.479627E+04
        88  10  6.053794E+05  1.484214E+06  6.384832E+05 -1.979584E+05 -2.011244E-09  1.572032E-09
        88  11  3.845841E+05  1.190352E+06  4.747964E+05  2.228962E+04  3.598439E-10  1.273353E-09
        88  12  3.444672E+05  9.528192E+05  3.857859E+05 -1.713381E+05  1.276025E-09 -4.309135E-10
        88  13  1.256972E+05 -4.358822E+05  1.604816E+05 -1.694268E+05 -1.604161E-09  5.771796E-13
        88  14 -2.797599E+04 -4.635981E+05  6.611780E+04  3.716090E+04  3.701494E-09  1.641571E-10
        88  15 -1.999458E+03 -4.361897E+05  4.148628E+04 -1.701894E+05  2.091351E-09 -4.224013E-11
        88  16 -3.542600E+05 -2.352637E+06 -3.177966E+05 -1.409779E+05 -1.053697E-09 -1.598922E-09
        88  17 -4.407400E+05 -2.115063E+06 -3.427639E+05  5.199731E+04  4.395669E-09 -1.301534E-09
        88  18 -3.486106E+05 -1.823447E+06 -3.029571E+05 -1.690387E+05  1.523567E-09  3.176924E-10
        88  19  6.053834E+05  1.484230E+06  6.385102E+05 -1.979574E+05 -1.039472E+04 -1.194648E+05
        88  20  3.845865E+05  1.190358E+06  4.748088E+05  2.229139E+04 -2.908281E+04 -7.582948E+04
        88  21  3.444678E+05  9.528204E+05  3.857884E+05 -1.713377E+05 -1.761890E+04 -3.197992E+04
        88  22  1.257006E+05 -4.358689E+05  1.605050E+05 -1.694258E+05 -1.044930E+04 -1.111887E+05
        88  23 -2.797357E+04 -4.635918E+05  6.612994E+04  3.716265E+04 -2.909563E+04 -7.490872E+04
        88  24 -1.998730E+03 -4.361880E+05  4.148964E+04 -1.701889E+05 -1.755655E+04 -3.839530E+04
        88  25 -3.542570E+05 -2.352625E+06 -3.177764E+05 -1.409770E+05 -1.050321E+04 -1.029377E+05
        88  26 -4.407376E+05 -2.115057E+06 -3.427520E+05  5.199905E+04 -2.910844E+04 -7.399019E+04
        88  27 -3.486097E+05 -1.823445E+06 -3.029528E+05 -1.690380E+05 -1.749415E+04 -4.479627E+04
        89   1  1.031929E+05 -1.187971E+05  1.130939E+05 -1.757377E+05  6.769895E+03  3.021095E+04
        89   2  1.288975E+04 -3.851216E+05  2.444078E+04  3.755648E+04  7.086583E+02  2.528729E+04
        89   3 -5.799275E+04 -6.569439E+05 -5.842943E+04 -1.699715E+05 -5.574795E+03  2.036185E+04
        89   4  2.074164E+04 -4.490592E+05  3.159685E+04 -1.712724E+05  6.754927E+03  3.164420E+04
        89   5 -2.409856E+03 -4.462871E+05  9.288734E+03  3.899738E+04  6.929247E+02  2.677868E+04
        89   6 -6.141823E+03 -4.490809E+05 -7.263739E+03 -1.715565E+05 -5.591430E+03  2.190929E+04
        89   7 -6.171771E+04 -7.792221E+05 -4.990826E+04 -1.668092E+05  6.739976E+03  3.307668E+04
        89   8 -1.770974E+04 -5.074492E+05 -5.863577E+03  4.043815E+04  6.771972E+02  2.826993E+04
        89   9  4.570589E+04 -2.411785E+05  4.389877E+04 -1.731419E+05 -5.608070E+03  2.345725E+04
        89  10  1.031926E+05 -1.187981E+05  1.130921E+05 -1.757379E+05  3.188774E-09 -1.989545E-10
        89  11  1.288958E+04 -3.851223E+05  2.443957E+04  3.755647E+04  4.251549E-10 -1.028107E-09
        89  12 -5.799289E+04 -6.569444E+05 -5.843027E+04 -1.699714E+05  8.234806E-09 -6.437808E-10
        89  13  2.074132E+04 -4.490603E+05  3.159488E+04 -1.712726E+05  2.783771E-09 -1.848454E-11
        89  14 -2.410049E+03 -4.462879E+05  9.287385E+03  3.899737E+04  4.812276E-09  5.859603E-11
        89  15 -6.141985E+03 -4.490814E+05 -7.264700E+03 -1.715564E+05  3.393604E-09  8.324395E-11
        89  16 -6.171805E+04 -7.792233E+05 -4.991040E+04 -1.668094E+05  2.550652E-09  1.714572E-10
        89  17 -1.770996E+04 -5.074500E+05 -5.865081E+03  4.043814E+04  5.353948E-09  1.244225E-09
        89  18  4.570571E+04 -2.411791E+05  4.389768E+04 -1.731418E+05 -5.394586E-12  6.331635E-10
        89  19  1.031929E+05 -1.187971E+05  1.130939E+05 -1.757377E+05 -6.769895E+03 -3.021095E+04
        89  20  1.288975E+04 -3.851216E+05  2.444078E+04  3.755648E+04 -7.086583E+02 -2.528729E+04
        89  21 -5.799275E+04 -6.569439E+05 -5.842943E+04 -1.699715E+05  5.574795E+03 -2.036185E+04
        89  22  2.074164E+04 -4.490592E+05  3.159685E+04 -1.712724E+05 -6.754927E+03 -3.164420E+04
        89  23 -2.409856E+03 -4.462871E+05  9.288734E+03  3.899738E+04 -6.929247E+02 -2.677868E+04
        89  24 -6.141823E+03 -4.490809E+05 -7.263739E+03 -1.715565E+05  5.591430E+03 -2.190929E+04
        89  25 -6.171771E+04 -7.792221E+05 -4.990826E+04 -1.668092E+05 -6.739976E+03 -3.307668E+04
        89  26 -1.770974E+04 -5.074492E+05 -5.863577E+03  4.043815E+04 -6.771972E+02 -2.826993E+04
        89  27  4.570589E+04 -2.411785E+05  4.389877E+04 -1.731419E+05  5.608070E+03 -2.345725E+04
        90   1 -3.080623E+05 -1.718360E+06 -3.271603E+05 -1.558181E+05 -1.619962E+04  1.722950E+04
        90   2 -3.715243E+05 -1.974781E+06 -4.094103E+05  4.421086E+04 -2.795160E+04  4.042321E+04
        90   3 -5.072322E+05 -2.249150E+06 -5.243094E+05 -1.714163E+05 -1.082658E+04  6.384344E+04
        90   4  8.648262E+03 -4.520762E+05 -1.264279E+04 -1.700906E+05 -1.626197E+04  2.348225E+04
        90   5  1.099467E+04 -4.435858E+05 -3.037046E+04  3.748225E+04 -2.794200E+04  3.980116E+04
        90   6 -5.758688E+04 -4.518329E+05 -7.589767E+04 -1.705405E+05 -1.077563E+04  5.635660E+04
        90   7  3.252388E+05  8.156664E+05  3.017549E+05 -1.843884E+05 -1.632455E+04  2.974774E+04
        90   8  3.933381E+05  1.089745E+06  3.484949E+05  3.074129E+04 -2.793240E+04  3.917746E+04
        90   9  3.918148E+05  1.348421E+06  3.722711E+05 -1.696571E+05 -1.072478E+04  4.884783E+04
        90  10 -3.080627E+05 -1.718360E+06 -3.271614E+05 -1.558179E+05  1.199996E-09  8.241147E-10
        90  11 -3.715256E+05 -1.974783E+06 -4.094149E+05  4.421177E+04 -2.948134E-09  4.900932E-11
        90  12 -5.072334E+05 -2.249154E+06 -5.243173E+05 -1.714158E+05 -7.718034E-10 -2.623461E-10
        90  13  8.647830E+03 -4.520769E+05 -1.264432E+04 -1.700903E+05 -2.530263E-09 -4.935752E-11
        90  14  1.099341E+04 -4.435877E+05 -3.037490E+04  3.748314E+04 -3.242852E-09 -6.075365E-11
        90  15 -5.758786E+04 -4.518363E+05 -7.590386E+04 -1.705401E+05 -2.451793E-09 -5.477959E-11
        90  16  3.252383E+05  8.156654E+05  3.017528E+05 -1.843880E+05  7.329889E-10 -7.684720E-10
        90  17  3.933369E+05  1.089743E+06  3.484905E+05  3.074217E+04 -7.889370E-10 -5.925999E-11
        90  18  3.918140E+05  1.348418E+06  3.722664E+05 -1.696567E+05  1.841513E-09  2.455781E-10
        90  19 -3.080623E+05 -1.718360E+06 -3.271603E+05 -1.558181E+05  1.619962E+04 -1.722950E+04
        90  20 -3.715243E+05 -1.974781E+06 -4.094103E+05  4.421086E+04  2.795160E+04 -4.042321E+04
        90  21 -5.072322E+05 -2.249150E+06 -5.243094E+05 -1.714163E+05  1.082658E+04 -6.384344E+04
        90  22  8.648262E+03 -4.520762E+05 -1.264279E+04 -1.700906E+05  1.626197E+04 -2.348225E+04
        90  23  1.099467E+04 -4.435858E+05 -3.037046E+04  3.748225E+04  2.794200E+04 -3.980116E+04
        90  24 -5.758688E+04 -4.518329E+05 -7.589767E+04 -1.705405E+05  1.077563E+04 -5.635660E+04
        90  25  3.252388E+05  8.156664E+05  3.017549E+05 -1.843884E+05  1.632455E+04 -2.974774E+04
        90  26  3.933381E+05  1.089745E+06  3.484949E+05  3.074129E+04  2.793240E+04 -3.917746E+04
        90  27  3.918148E+05  1.348421E+06  3.722711E+05 -1.696571E+05  1.072478E+04 -4.884783E+04
        91   1 -6.781067E+06 -2.113902E+06 -1.383329E+06 -2.347146E+06 -7.209597E+05 -2.642402E+05
        91   2 -6.598994E+06 -1.071702E+06 -7.163059E+05 -2.523906E+06 -4.670555E+05 -1.478712E+05
        91   3 -6.852120E+06 -1.103044E+06 -5.383294E+05 -2.423850E+06 -2.060004E+05 -5.032131E+04
        91   4 -5.978014E+06 -1.617405E+06 -1.123805E+06 -1.934839E+06 -7.120806E+05 -2.611409E+05
        91   5 -5.701900E+06 -6.788286E+05 -4.631734E+05 -2.225699E+06 -4.646175E+05 -1.469975E+05
        91   6 -5.859142E+06 -8.116408E+05 -2.859444E+05 -2.239935E+06 -2.099662E+05 -5.178983E+04
        91   7 -5.174240E+06 -1.120473E+06 -8.643397E+05 -1.521939E+06 -7.031883E+05 -2.580293E+05
        91   8 -4.804014E+06 -2.858277E+05 -2.101180E+05 -1.927072E+06 -4.621751E+05 -1.461216E+05
        91   9 -4.865194E+06 -5.202569E+05 -3.363217E+04 -2.055795E+06 -2.139387E+05 -5.325960E+04
        91  10 -6.781650E+06 -2.114119E+06 -1.384451E+06 -2.347301E+06  2.041800E-09  3.799860E-10
        91  11 -6.599236E+06 -1.071785E+06 -7.167625E+05 -2.523962E+06 -2.889448E-09  5.230577E-10
        91  12 -6.852167E+06 -1.103059E+06 -5.384149E+05 -2.423859E+06 -3.974845E-09 -2.360029E-09
        91  13 -5.978582E+06 -1.617617E+06 -1.124897E+06 -1.934989E+06  1.297608E-09  4.544750E-10
        91  14 -5.702140E+06 -6.789107E+05 -4.636245E+05 -2.225755E+06  4.084791E-09  5.641380E-10
        91  15 -5.859190E+06 -8.116557E+05 -2.860332E+05 -2.239944E+06 -2.124189E-09 -1.223774E-09
        91  16 -5.174793E+06 -1.120679E+06 -8.654037E+05 -1.522086E+06 -9.286438E-11  2.663967E-10
        91  17 -4.804250E+06 -2.859088E+05 -2.105636E+05 -1.927127E+06  2.633602E-09  2.300428E-10
        91  18 -4.865244E+06 -5.202724E+05 -3.372434E+04 -2.055804E+06  2.314751E-10 -6.891084E-10
        91  19 -6.781067E+06 -2.113902E+06 -1.383329E+06 -2.347146E+06  7.209597E+05  2.642402E+05
        91  20 -6.598994E+06 -1.071702E+06 -7.163059E+05 -2.523906E+06  4.670555E+05  1.478712E+05
        91  21 -6.852120E+06 -1.103044E+06 -5.383294E+05 -2.423850E+06  2.060004E+05  5.032131E+04
        91  22 -5.978014E+06 -1.617405E+06 -1.123805E+06 -1.934839E+06  7.120806E+05  2.611409E+05
        91  23 -5.701900E+06 -6.788286E+05 -4.631734E+05 -2.225699E+06  4.646175E+05  1.469975E+05
        91  24 -5.859142E+06 -8.116408E+05 -2.859444E+05 -2.239935E+06  2.099662E+05  5.178983E+04
        91  25 -5.174240E+06 -1.120473E+06 -8.643397E+05 -1.521939E+06  7.031883E+05  2.580293E+05
        91  26 -4.804014E+06 -2.858277E+05 -2.101180E+05 -1.927072E+06  4.621751E+05  1.461216E+05
        91  27 -4.865194E+06 -5.202569E+05 -3.363217E+04 -2.055795E+06  2.139387E+05  5.325960E+04
        92   1 -6.674747E+06 -1.291711E+06 -4.717947E+05 -2.434716E+06 -1.677022E+05 -3.942443E+04
        92   2 -6.622497E+06 -1.124561E+06 -3.338079E+05 -2.424376E+06 -1.097596E+05 -1.702790E+04
        92   3 -6.592436E+06 -1.129084E+06 -2.763870E+05 -2.419453E+06 -5.075844E+04  2.571118E+03
        92   4 -5.815978E+06 -9.429967E+05 -2.340912E+05 -2.177215E+06 -1.672067E+05 -3.924710E+04
        92   5 -5.797501E+06 -8.060949E+05 -1.091076E+05 -2.193736E+06 -1.101842E+05 -1.719141E+04
        92   6 -5.800954E+06 -8.405634E+05 -6.386669E+04 -2.215690E+06 -5.210711E+04  2.063195E+03
        92   7 -4.956491E+06 -5.942094E+05  3.542836E+03 -1.919379E+06 -1.667104E+05 -3.906936E+04
        92   8 -4.971843E+06 -4.875814E+05  1.155309E+05 -1.962814E+06 -1.106093E+05 -1.735513E+04
        92   9 -5.008862E+06 -5.520173E+05  1.485989E+05 -2.011695E+06 -5.345764E+04  1.554627E+03
        92  10 -6.674778E+06 -1.291720E+06 -4.718511E+05 -2.434721E+06 -2.746476E-09 -1.919582E-09
        92  11 -6.622510E+06 -1.124565E+06 -3.338313E+05 -2.424377E+06  1.032575E-09 -6.481861E-10
        92  12 -6.592439E+06 -1.129084E+06 -2.763919E+05 -2.419453E+06 -6.915009E-10  5.239074E-10
        92  13 -5.816009E+06 -9.430060E+05 -2.341473E+05 -2.177221E+06 -2.631642E-09 -1.185854E-09
        92  14 -5.797514E+06 -8.060985E+05 -1.091312E+05 -2.193738E+06 -4.085619E-09 -2.108118E-12
        92  15 -5.800957E+06 -8.405641E+05 -6.387184E+04 -2.215690E+06 -6.028670E-09 -1.581754E-12
        92  16 -4.956522E+06 -5.942186E+05  3.487243E+03 -1.919384E+06 -9.617329E-10 -7.619135E-10
        92  17 -4.971856E+06 -4.875851E+05  1.155071E+05 -1.962816E+06 -3.842472E-09 -1.323431E-09
        92  18 -5.008865E+06 -5.520181E+05  1.485935E+05 -2.011695E+06 -4.967714E-10  8.941258E-10
        92  19 -6.674747E+06 -1.291711E+06 -4.717947E+05 -2.434716E+06  1.677022E+05  3.942443E+04
        92  20 -6.622497E+06 -1.124561E+06 -3.338079E+05 -2.424376E+06  1.097596E+05  1.702790E+04
        92  21 -6.592436E+06 -1.129084E+06 -2.763870E+05 -2.419453E+06  5.075844E+04 -2.571118E+03
        92  22 -5.815978E+06 -9.429967E+05 -2.340912E+05 -2.177215E+06  1.672067E+05  3.924710E+04
        92  23 -5.797501E+06 -8.060949E+05 -1.091076E+05 -2.193736E+06  1.101842E+05  1.719141E+04
        92  24 -5.800954E+06 -8.405634E+05 -6.386669E+04 -2.215690E+06  5.210711E+04 -2.063195E+03
        92  25 -4.956491E+06 -5.942094E+05  3.542836E+03 -1.919379E+06  1.667104E+05  3.906936E+04
        92  26 -4.971843E+06 -4.875814E+05  1.155309E+05 -1.962814E+06  1.106093E+05  1.735513E+04
        92  27 -5.008862E+06 -5.520173E+05  1.485989E+05 -2.011695E+06  5.345764E+04 -1.554627E+03
        93   1 -6.437605E+06 -1.109044E+06 -2.260735E+05 -2.391391E+06 -4.135636E+04  4.061478E+03
        93   2 -6.385750E+06 -1.032509E+06 -1.799403E+05 -2.338382E+06 -2.706918E+04  6.439805E+03
        93   3 -6.281404E+06 -1.033270E+06 -1.483306E+05 -2.349782E+06 -1.248218E+04  8.007981E+03
        93   4 -5.790389E+06 -8.617073E+05 -5.043296E+04 -2.212952E+06 -4.217121E+04  3.753896E+03
        93   5 -5.815701E+06 -8.165539E+05 -2.548205E+04 -2.183184E+06 -2.815901E+04  6.030155E+03
        93   6 -5.788466E+06 -8.486274E+05 -1.482161E+04 -2.217825E+06 -1.384897E+04  7.495842E+03
        93   7 -5.142766E+06 -6.143433E+05  1.251697E+05 -2.034342E+06 -4.298698E+04  3.445961E+03
        93   8 -5.245336E+06 -6.005801E+05  1.289468E+05 -2.027857E+06 -2.924994E+04  5.620091E+03
        93   9 -5.295293E+06 -6.639720E+05  1.186652E+05 -2.085773E+06 -1.521696E+04  6.983263E+03
        93  10 -6.437607E+06 -1.109045E+06 -2.260767E+05 -2.391391E+06 -7.514875E-10  5.878793E-11
        93  11 -6.385751E+06 -1.032509E+06 -1.799418E+05 -2.338382E+06 -1.012319E-09 -2.351567E-11
        93  12 -6.281405E+06 -1.033270E+06 -1.483310E+05 -2.349782E+06 -1.893975E-09  8.033283E-10
        93  13 -5.790391E+06 -8.617078E+05 -5.043636E+04 -2.212952E+06 -2.634188E-09  3.662724E-12
        93  14 -5.815702E+06 -8.165541E+05 -2.548361E+04 -2.183184E+06 -1.887652E-09  5.006965E-10
        93  15 -5.788466E+06 -8.486275E+05 -1.482208E+04 -2.217825E+06  7.701568E-10  1.750094E-09
        93  16 -5.142768E+06 -6.143438E+05  1.251662E+05 -2.034342E+06  2.728152E-10 -1.542343E-10
        93  17 -5.245337E+06 -6.005804E+05  1.289452E+05 -2.027857E+06 -4.017878E-09  1.682558E-10
        93  18 -5.295294E+06 -6.639721E+05  1.186647E+05 -2.085773E+06  2.035841E-09  2.350749E-09
        93  19 -6.437605E+06 -1.109044E+06 -2.260735E+05 -2.391391E+06  4.135636E+04 -4.061478E+03
        93  20 -6.385750E+06 -1.032509E+06 -1.799403E+05 -2.338382E+06  2.706918E+04 -6.439805E+03
        93  21 -6.281404E+06 -1.033270E+06 -1.483306E+05 -2.349782E+06  1.248218E+04 -8.007981E+03
        93  22 -5.790389E+06 -8.617073E+05 -5.043296E+04 -2.212952E+06  4.217121E+04 -3.753896E+03
        93  23 -5.815701E+06 -8.165539E+05 -2.548205E+04 -2.183184E+06  2.815901E+04 -6.030155E+03
        93  24 -5.788466E+06 -8.486274E+05 -1.482161E+04 -2.217825E+06  1.384897E+04 -7.495842E+03
        93  25 -5.142766E+06 -6.143433E+05  1.251697E+05 -2.034342E+06  4.298698E+04 -3.445961E+03
        93  26 -5.245336E+06 -6.005801E+05  1.289468E+05 -2.027857E+06  2.924994E+04 -5.620091E+03
        93  27 -5.295293E+06 -6.639720E+05  1.186652E+05 -2.085773E+06  1.521696E+04 -6.983263E+03
        94   1 -6.087377E+06 -9.680223E+05 -9.339091E+04 -2.302434E+06 -9.583561E+03  6.610460E+03
        94   2 -6.026703E+06 -8.925285E+05 -6.282697E+04 -2.234201E+06 -4.531034E+03  4.281945E+03
        94   3 -5.893810E+06 -8.931556E+05 -3.568289E+04 -2.250041E+06  6.086150E+02  1.715188E+03
        94   4 -5.784794E+06 -8.536361E+05 -1.177832E+04 -2.220207E+06 -1.086284E+04  6.131733E+03
        94   5 -5.820793E+06 -8.148356E+05 -7.106079E+03 -2.178447E+06 -5.893586E+03  3.772530E+03
        94   6 -5.784570E+06 -8.521379E+05 -5.785712E+03 -2.220762E+06 -8.378932E+02  1.174921E+03
        94   7 -5.482120E+06 -7.392440E+05  6.982639E+04 -2.137943E+06 -1.214281E+04  5.652744E+03
        94   8 -5.614843E+06 -7.371404E+05  4.861094E+04 -2.122676E+06 -7.256638E+03  3.262927E+03
        94   9 -5.675320E+06 -8.111197E+05  2.411021E+04 -2.191478E+06 -2.284676E+03  6.345536E+02
        94  10 -6.087377E+06 -9.680224E+05 -9.339117E+04 -2.302434E+06 -2.688035E-09  5.662901E-10
        94  11 -6.026703E+06 -8.925286E+05 -6.282704E+04 -2.234201E+06  2.109417E-10 -1.361790E-09
        94  12 -5.893810E+06 -8.931556E+05 -3.568290E+04 -2.250041E+06 -8.566300E-10 -2.254972E-10
        94  13 -5.784794E+06 -8.536361E+05 -1.177861E+04 -2.220207E+06 -1.509847E-09  1.162209E-09
        94  14 -5.820793E+06 -8.148356E+05 -7.106171E+03 -2.178447E+06 -1.893341E-09 -7.746951E-10
        94  15 -5.784570E+06 -8.521379E+05 -5.785716E+03 -2.220762E+06  1.410302E-10 -1.683387E-09
        94  16 -5.482121E+06 -7.392441E+05  6.982605E+04 -2.137943E+06  2.912868E-09  2.647097E-09
        94  17 -5.614843E+06 -7.371404E+05  4.861082E+04 -2.122676E+06  6.085985E-10  2.181017E-09
        94  18 -5.675320E+06 -8.111197E+05  2.411020E+04 -2.191478E+06 -7.237355E-10 -9.484987E-10
        94  19 -6.087377E+06 -9.680223E+05 -9.339091E+04 -2.302434E+06  9.583561E+03 -6.610460E+03
        94  20 -6.026703E+06 -8.925285E+05 -6.282697E+04 -2.234201E+06  4.531034E+03 -4.281945E+03
        94  21 -5.893810E+06 -8.931556E+05 -3.568289E+04 -2.250041E+06 -6.086150E+02 -1.715188E+03
        94  22 -5.784794E+06 -8.536361E+05 -1.177832E+04 -2.220207E+06  1.086284E+04 -6.131733E+03
        94  23 -5.820793E+06 -8.148356E+05 -7.106079E+03 -2.178447E+06  5.893586E+03 -3.772530E+03
        94  24 -5.784570E+06 -8.521379E+05 -5.785712E+03 -2.220762E+06  8.378932E+02 -1.174921E+03
        94  25 -5.482120E+06 -7.392440E+05  6.982639E+04 -2.137943E+06  1.214281E+04 -5.652744E+03
        94  26 -5.614843E+06 -7.371404E+05  4.861094E+04 -2.122676E+06  7.256638E+03 -3.262927E+03
        94  27 -5.675320E+06 -8.111197E+05  2.411021E+04 -2.191478E+06  2.284676E+03 -6.345536E+02
        95   1 -5.684421E+06 -8.145994E+05  2.158993E+04 -2.194016E+06  2.451274E+03 -3.094033E+02
        95   2 -5.623775E+06 -7.404290E+05  4.593157E+04 -2.125030E+06  7.564851E+03 -2.890087E+03
        95   3 -5.490775E+06 -7.426376E+05  6.684996E+04 -2.140298E+06  1.259490E+04 -5.238376E+03
        95   4 -5.784541E+06 -8.521636E+05 -5.833433E+03 -2.220817E+06  1.003959E+03 -8.499579E+02
        95   5 -5.820825E+06 -8.147670E+05 -7.377744E+03 -2.178390E+06  6.199035E+03 -3.400691E+03
        95   6 -5.784778E+06 -8.537685E+05 -1.241032E+04 -2.220223E+06  1.130994E+04 -5.719196E+03
        95   7 -5.884651E+06 -8.897275E+05 -3.325778E+04 -2.247615E+06 -4.430998E+02 -1.390419E+03
        95   8 -6.017838E+06 -8.891031E+05 -6.069079E+04 -2.231736E+06  4.833694E+03 -3.911118E+03
        95   9 -6.078700E+06 -9.648951E+05 -9.167885E+04 -2.300115E+06  1.002564E+04 -6.199766E+03
        95  10 -5.684421E+06 -8.145994E+05  2.158992E+04 -2.194016E+06  3.068249E-09  5.230252E-10
        95  11 -5.623775E+06 -7.404290E+05  4.593145E+04 -2.125030E+06  7.399632E-10  1.294308E-09
        95  12 -5.490775E+06 -7.426376E+05  6.684961E+04 -2.140298E+06  3.768876E-09  1.602988E-09
        95  13 -5.784541E+06 -8.521636E+05 -5.833436E+03 -2.220817E+06  2.805713E-09 -1.827261E-09
        95  14 -5.820825E+06 -8.147670E+05 -7.377838E+03 -2.178390E+06 -2.316944E-09 -5.947966E-10
        95  15 -5.784779E+06 -8.537686E+05 -1.241062E+04 -2.220223E+06  1.552738E-09  1.261749E-09
        95  16 -5.884651E+06 -8.897275E+05 -3.325778E+04 -2.247615E+06 -3.459132E-09 -7.590943E-10
        95  17 -6.017838E+06 -8.891031E+05 -6.069087E+04 -2.231736E+06 -6.634795E-09 -1.732912E-09
        95  18 -6.078700E+06 -9.648951E+05 -9.167912E+04 -2.300115E+06 -3.178652E-10  1.189788E-09
        95  19 -5.684421E+06 -8.145994E+05  2.158993E+04 -2.194016E+06 -2.451274E+03  3.094033E+02
        95  20 -5.623775E+06 -7.404290E+05  4.593157E+04 -2.125030E+06 -7.564851E+03  2.890087E+03
        95  21 -5.490775E+06 -7.426376E+05  6.684996E+04 -2.140298E+06 -1.259490E+04  5.238376E+03
        95  22 -5.784541E+06 -8.521636E+05 -5.833433E+03 -2.220817E+06 -1.003959E+03  8.499579E+02
        95  23 -5.820825E+06 -8.147670E+05 -7.377744E+03 -2.178390E+06 -6.199035E+03  3.400691E+03
        95  24 -5.784778E+06 -8.537685E+05 -1.241032E+04 -2.220223E+06 -1.130994E+04  5.719196E+03
        95  25 -5.884651E+06 -8.897275E+05 -3.325778E+04 -2.247615E+06  4.430998E+02  1.390419E+03
        95  26 -6.017838E+06 -8.891031E+05 -6.069079E+04 -2.231736E+06 -4.833694E+03  3.911118E+03
        95  27 -6.078700E+06 -9.648951E+05 -9.167885E+04 -2.300115E+06 -1.002564E+04  6.199766E+03
        96   1 -5.303331E+06 -6.671833E+05  1.156215E+05 -2.088217E+06  1.579251E+04 -6.530654E+03
        96   2 -5.252866E+06 -6.031181E+05  1.253900E+05 -2.029753E+06  3.061632E+04 -4.890101E+03
        96   3 -5.149913E+06 -6.177453E+05  1.202036E+05 -2.035993E+06  4.514788E+04 -2.449275E+03
        96   4 -5.788457E+06 -8.487074E+05 -1.567102E+04 -2.217990E+06  1.442034E+04 -7.044744E+03
        96   5 -5.815687E+06 -8.162609E+05 -2.700211E+04 -2.183051E+06  2.951689E+04 -5.303288E+03
        96   6 -5.790495E+06 -8.625765E+05 -5.351659E+04 -2.212823E+06  4.431922E+04 -2.762003E+03
        96   7 -6.273352E+06 -1.030218E+06 -1.469838E+05 -2.347670E+06  1.304936E+04 -7.558397E+03
        96   8 -6.378198E+06 -1.029384E+06 -1.794222E+05 -2.336223E+06  2.841856E+04 -5.716060E+03
        96   9 -6.430678E+06 -1.107381E+06 -2.272736E+05 -2.389485E+06  4.349148E+04 -3.074374E+03
        96  10 -5.303332E+06 -6.671834E+05  1.156209E+05 -2.088217E+06  2.465069E-09  2.110436E-09
        96  11 -5.252867E+06 -6.031183E+05  1.253882E+05 -2.029753E+06  3.442716E-09  6.727070E-10
        96  12 -5.149915E+06 -6.177459E+05  1.201997E+05 -2.035993E+06  3.439950E-10  6.826588E-10
        96  13 -5.788457E+06 -8.487075E+05 -1.567150E+04 -2.217990E+06  1.255122E-09  1.670182E-09
        96  14 -5.815688E+06 -8.162611E+05 -2.700381E+04 -2.183051E+06  4.825484E-09  6.321160E-11
        96  15 -5.790497E+06 -8.625771E+05 -5.352033E+04 -2.212823E+06 -4.357024E-10  3.827147E-10
        96  16 -6.273352E+06 -1.030218E+06 -1.469842E+05 -2.347670E+06  7.126835E-12  6.018228E-10
        96  17 -6.378199E+06 -1.029384E+06 -1.794238E+05 -2.336223E+06 -2.021722E-10  6.682104E-10
        96  18 -6.430680E+06 -1.107382E+06 -2.272772E+05 -2.389485E+06  1.117243E-09  1.140954E-09
        96  19 -5.303331E+06 -6.671833E+05  1.156215E+05 -2.088217E+06 -1.579251E+04  6.530654E+03
        96  20 -5.252866E+06 -6.031181E+05  1.253900E+05 -2.029753E+06 -3.061632E+04  4.890101E+03
        96  21 -5.149913E+06 -6.177453E+05  1.202036E+05 -2.035993E+06 -4.514788E+04  2.449275E+03
        96  22 -5.788457E+06 -8.487074E+05 -1.567102E+04 -2.217990E+06 -1.442034E+04  7.044744E+03
        96  23 -5.815687E+06 -8.162609E+05 -2.700211E+04 -2.183051E+06 -2.951689E+04  5.303288E+03
        96  24 -5.790495E+06 -8.625765E+05 -5.351659E+04 -2.212823E+06 -4.431922E+04  2.762003E+03
        96  25 -6.273352E+06 -1.030218E+06 -1.469838E+05 -2.347670E+06 -1.304936E+04  7.558397E+03
        96  26 -6.378198E+06 -1.029384E+06 -1.794222E+05 -2.336223E+06 -2.841856E+04  5.716060E+03
        96  27 -6.430678E+06 -1.107381E+06 -2.272736E+05 -2.389485E+06 -4.349148E+04  3.074374E+03
        97   1 -5.014024E+06 -5.544840E+05  1.432531E+05 -2.014193E+06  5.619607E+04 -3.628866E+02
        97   2 -4.975831E+06 -4.876205E+05  1.076447E+05 -1.963736E+06  1.168708E+05  1.983697E+04
        97   3 -4.962362E+06 -6.008389E+05 -1.181645E+04 -1.917362E+06  1.764951E+05  4.284658E+04
        97   4 -5.801342E+06 -8.405157E+05 -6.778479E+04 -2.216160E+06  5.483226E+04 -8.762147E+02
        97   5 -5.796818E+06 -8.046793E+05 -1.157916E+05 -2.193708E+06  1.164299E+05  1.966718E+04
        97   6 -5.817285E+06 -9.492395E+05 -2.484769E+05 -2.175328E+06  1.769726E+05  4.301629E+04
        97   7 -6.588061E+06 -1.126524E+06 -2.788776E+05 -2.417899E+06  5.347032E+04 -1.388903E+03
        97   8 -6.617151E+06 -1.121691E+06 -3.392893E+05 -2.423400E+06  1.159894E+05  1.949761E+04
        97   9 -6.671494E+06 -1.297565E+06 -4.852057E+05 -2.432959E+06  1.774493E+05  4.318561E+04
        97  10 -5.014027E+06 -5.544849E+05  1.432471E+05 -2.014193E+06  8.943039E-10  2.057243E-09
        97  11 -4.975846E+06 -4.876247E+05  1.076180E+05 -1.963738E+06  4.872969E-09  1.802875E-09
        97  12 -4.962397E+06 -6.008494E+05 -1.187900E+04 -1.917368E+06  3.553701E-09  9.952201E-10
        97  13 -5.801345E+06 -8.405165E+05 -6.779049E+04 -2.216160E+06  2.694948E-09  1.202587E-09
        97  14 -5.796833E+06 -8.046834E+05 -1.158181E+05 -2.193710E+06  4.515039E-09  1.197469E-09
        97  15 -5.817319E+06 -9.492500E+05 -2.485399E+05 -2.175334E+06 -7.488242E-10 -7.712242E-10
        97  16 -6.588064E+06 -1.126525E+06 -2.788831E+05 -2.417899E+06  3.713599E-09  1.210331E-09
        97  17 -6.617166E+06 -1.121695E+06 -3.393156E+05 -2.423402E+06  2.459079E-09  6.247402E-10
        97  18 -6.671529E+06 -1.297576E+06 -4.852692E+05 -2.432965E+06  6.192321E-10 -4.251294E-11
        97  19 -5.014024E+06 -5.544840E+05  1.432531E+05 -2.014193E+06 -5.619607E+04  3.628866E+02
        97  20 -4.975831E+06 -4.876205E+05  1.076447E+05 -1.963736E+06 -1.168708E+05 -1.983697E+04
        97  21 -4.962362E+06 -6.008389E+05 -1.181645E+04 -1.917362E+06 -1.764951E+05 -4.284658E+04
        97  22 -5.801342E+06 -8.405157E+05 -6.778479E+04 -2.216160E+06 -5.483226E+04  8.762147E+02
        97  23 -5.796818E+06 -8.046793E+05 -1.157916E+05 -2.193708E+06 -1.164299E+05 -1.966718E+04
        97  24 -5.817285E+06 -9.492395E+05 -2.484769E+05 -2.175328E+06 -1.769726E+05 -4.301629E+04
        97  25 -6.588061E+06 -1.126524E+06 -2.788776E+05 -2.417899E+06 -5.347032E+04  1.388903E+03
        97  26 -6.617151E+06 -1.121691E+06 -3.392893E+05 -2.423400E+06 -1.159894E+05 -1.949761E+04
        97  27 -6.671494E+06 -1.297565E+06 -4.852057E+05 -2.432959E+06 -1.774493E+05 -4.318561E+04
        98   1 -4.866426E+06 -5.233405E+05 -5.162712E+04 -2.063100E+06  2.263014E+05  5.797695E+04
        98   2 -4.800876E+06 -2.739721E+05 -2.386987E+05 -1.925953E+06  4.901756E+05  1.567283E+05
        98   3 -5.192945E+06 -1.160098E+06 -9.332151E+05 -1.496102E+06  7.468087E+05  2.746015E+05
        98   4 -5.862648E+06 -8.102676E+05 -3.035164E+05 -2.242420E+06  2.222965E+05  5.649973E+04
        98   5 -5.695911E+06 -6.690013E+05 -4.915924E+05 -2.226975E+06  4.925870E+05  1.575863E+05
        98   6 -5.988783E+06 -1.665613E+06 -1.192813E+06 -1.918599E+06  7.556765E+05  2.776689E+05
        98   7 -6.857894E+06 -1.097216E+06 -5.554775E+05 -2.421523E+06  2.182985E+05  5.502368E+04
        98   8 -6.590155E+06 -1.063898E+06 -7.445627E+05 -2.527572E+06  4.949942E+05  1.584422E+05
        98   9 -6.783899E+06 -2.170657E+06 -1.452468E+06 -2.340490E+06  7.645311E+05  2.807237E+05
        98  10 -4.866482E+06 -5.233580E+05 -5.173061E+04 -2.063110E+06 -1.195893E-10  2.431776E-10
        98  11 -4.801143E+06 -2.740639E+05 -2.392009E+05 -1.926015E+06 -1.586457E-09  2.553827E-09
        98  12 -5.193568E+06 -1.160331E+06 -9.344158E+05 -1.496268E+06  6.741200E-10  7.967309E-10
        98  13 -5.862702E+06 -8.102845E+05 -3.036164E+05 -2.242430E+06  2.450736E-09 -4.435494E-11
        98  14 -5.696180E+06 -6.690942E+05 -4.921005E+05 -2.227038E+06  2.633621E-09  4.032293E-10
        98  15 -5.989422E+06 -1.665852E+06 -1.194045E+06 -1.918769E+06  2.858557E-10 -9.707244E-10
        98  16 -6.857946E+06 -1.097233E+06 -5.555739E+05 -2.421533E+06  1.661236E-09  4.642247E-10
        98  17 -6.590428E+06 -1.063992E+06 -7.450766E+05 -2.527635E+06  1.276544E-09  1.234335E-09
        98  18 -6.784554E+06 -2.170901E+06 -1.453730E+06 -2.340664E+06  7.016601E-10  1.000990E-09
        98  19 -4.866426E+06 -5.233405E+05 -5.162712E+04 -2.063100E+06 -2.263014E+05 -5.797695E+04
        98  20 -4.800876E+06 -2.739721E+05 -2.386987E+05 -1.925953E+06 -4.901756E+05 -1.567283E+05
        98  21 -5.192945E+06 -1.160098E+06 -9.332151E+05 -1.496102E+06 -7.468087E+05 -2.746015E+05
        98  22 -5.862648E+06 -8.102676E+05 -3.035164E+05 -2.242420E+06 -2.222965E+05 -5.649973E+04
        98  23 -5.695911E+06 -6.690013E+05 -4.915924E+05 -2.226975E+06 -4.925870E+05 -1.575863E+05
        98  24 -5.988783E+06 -1.665613E+06 -1.192813E+06 -1.918599E+06 -7.556765E+05 -2.776689E+05
        98  25 -6.857894E+06 -1.097216E+06 -5.554775E+05 -2.421523E+06 -2.182985E+05 -5.502368E+04
        98  26 -6.590155E+06 -1.063898E+06 -7.445627E+05 -2.527572E+06 -4.949942E+05 -1.584422E+05
        98  27 -6.783899E+06 -2.170657E+06 -1.452468E+06 -2.340490E+06 -7.645311E+05 -2.807237E+05
        99   1 -1.937329E+06 -2.170965E+05 -2.148163E+05 -2.118708E+04  5.433901E+02  5.112297E+03
        99   2 -1.916456E+06 -2.171659E+05 -2.114322E+05 -2.613866E+03  1.895459E+03  1.500027E+04
        99   3 -1.890041E+06 -2.103258E+05 -2.064210E+05 -2.078242E+04  3.296109E+03  1.299405E+04
        99   4 -1.049711E+06  5.033424E+03  6.668578E+03 -1.900271E+04  4.337723E+03  5.128871E+03
        99   5 -1.052738E+06 -1.331916E+03  2.521183E+03 -6.216528E+02  2.840731E+03  1.500216E+04
        99   6 -1.049727E+06 -2.950874E+02  1.981229E+03 -1.897919E+04  1.392292E+03  1.298854E+04
        99   7 -1.613774E+05  2.271038E+05  2.280941E+05 -1.681599E+04  8.137489E+03  5.145460E+03
        99   8 -1.883408E+05  2.144461E+05  2.164189E+05  1.372764E+03  3.787318E+03  1.500407E+04
        99   9 -2.087706E+05  2.096826E+05  2.103307E+05 -1.717386E+04 -5.141075E+02  1.298303E+04
        99  10 -1.937329E+06 -2.170965E+05 -2.148163E+05 -2.118709E+04  7.752779E-10  3.744038E-10
        99  11 -1.916456E+06 -2.171661E+05 -2.114326E+05 -2.613889E+03 -3.028370E-09 -2.210204E-09
        99  12 -1.890041E+06 -2.103259E+05 -2.064213E+05 -2.078246E+04 -2.169656E-09 -6.908055E-10
        99  13 -1.049711E+06  5.033391E+03  6.668493E+03 -1.900273E+04 -5.435851E-10 -1.636174E-09
        99  14 -1.052738E+06 -1.332160E+03  2.520745E+03 -6.216871E+02 -4.586826E-10 -9.548342E-10
        99  15 -1.049727E+06 -2.952690E+02  1.980909E+03 -1.897920E+04 -1.745945E-09 -8.387808E-10
        99  16 -1.613774E+05  2.271038E+05  2.280939E+05 -1.681603E+04 -6.187176E-11  1.319684E-09
        99  17 -1.883409E+05  2.144459E+05  2.164185E+05  1.372718E+03  2.007010E-09 -1.778252E-09
        99  18 -2.087706E+05  2.096824E+05  2.103304E+05 -1.717386E+04  8.796212E-10 -4.989683E-10
        99  19 -1.937329E+06 -2.170965E+05 -2.148163E+05 -2.118708E+04 -5.433901E+02 -5.112297E+03
        99  20 -1.916456E+06 -2.171659E+05 -2.114322E+05 -2.613866E+03 -1.895459E+03 -1.500027E+04
        99  21 -1.890041E+06 -2.103258E+05 -2.064210E+05 -2.078242E+04 -3.296109E+03 -1.299405E+04
        99  22 -1.049711E+06  5.033424E+03  6.668578E+03 -1.900271E+04 -4.337723E+03 -5.128871E+03
        99  23 -1.052738E+06 -1.331916E+03  2.521183E+03 -6.216528E+02 -2.840731E+03 -1.500216E+04
        99  24 -1.049727E+06 -2.950874E+02  1.981229E+03 -1.897919E+04 -1.392292E+03 -1.298854E+04
        99  25 -1.613774E+05  2.271038E+05  2.280941E+05 -1.681599E+04 -8.137489E+03 -5.145460E+03
        99  26 -1.883408E+05  2.144461E+05  2.164189E+05  1.372764E+03 -3.787318E+03 -1.500407E+04
        99  27 -2.087706E+05  2.096826E+05  2.103307E+05 -1.717386E+04  5.141075E+02 -1.298303E+04
       100   1 -1.779686E+06 -1.817829E+05 -1.793711E+05 -2.292843E+04  7.242682E+02  1.063313E+04
       100   2 -1.748816E+06 -1.744556E+05 -1.722075E+05  2.771852E+03  8.075713E+02  1.104905E+04
       100   3 -1.715208E+06 -1.661599E+05 -1.643481E+05 -2.204272E+04  8.907453E+02  9.643886E+03
       100   4 -1.050385E+06  5.049513E+02  1.586268E+03 -2.204767E+04  1.042753E+03  1.063288E+04
       100   5 -1.051800E+06 -2.691874E+02  5.974459E+02  3.208564E+03  6.896458E+02  1.104816E+04
       100   6 -1.050400E+06  1.359428E+00  6.076664E+02 -2.204655E+04  3.363979E+02  9.643250E+03
       100   7 -3.206000E+05  1.827529E+05  1.825039E+05 -2.116608E+04  1.361613E+03  1.063264E+04
       100   8 -3.543412E+05  1.738807E+05  1.733661E+05  3.645671E+03  5.715874E+02  1.104727E+04
       100   9 -3.851898E+05  1.661295E+05  1.655304E+05 -2.205038E+04 -2.185442E+02  9.642614E+03
       100  10 -1.779686E+06 -1.817830E+05 -1.793713E+05 -2.292844E+04 -2.012999E-09 -2.574311E-10
       100  11 -1.748816E+06 -1.744557E+05 -1.722077E+05  2.771845E+03 -1.258784E-10  2.365810E-10
       100  12 -1.715208E+06 -1.661600E+05 -1.643483E+05 -2.204273E+04  1.876427E-09  4.269469E-10
       100  13 -1.050385E+06  5.048297E+02  1.586054E+03 -2.204768E+04 -2.251458E-09 -1.015502E-09
       100  14 -1.051800E+06 -2.693185E+02  5.972158E+02  3.208558E+03 -2.653506E-09  5.286111E-10
       100  15 -1.050400E+06  1.259589E+00  6.074915E+02 -2.204656E+04 -1.642545E-09 -7.494774E-11
       100  16 -3.206001E+05  1.827527E+05  1.825037E+05 -2.116609E+04  5.570749E-11  2.089211E-10
       100  17 -3.543412E+05  1.738806E+05  1.733659E+05  3.645666E+03 -6.652496E-10 -3.843512E-10
       100  18 -3.851899E+05  1.661294E+05  1.655302E+05 -2.205038E+04  1.120867E-10  8.018771E-11
       100  19 -1.779686E+06 -1.817829E+05 -1.793711E+05 -2.292843E+04 -7.242682E+02 -1.063313E+04
       100  20 -1.748816E+06 -1.744556E+05 -1.722075E+05  2.771852E+03 -8.075713E+02 -1.104905E+04
       100  21 -1.715208E+06 -1.661599E+05 -1.643481E+05 -2.204272E+04 -8.907453E+02 -9.643886E+03
       100  22 -1.050385E+06  5.049513E+02  1.586268E+03 -2.204767E+04 -1.042753E+03 -1.063288E+04
       100  23 -1.051800E+06 -2.691874E+02  5.974459E+02  3.208564E+03 -6.896458E+02 -1.104816E+04
       100  24 -1.050400E+06  1.359428E+00  6.076664E+02 -2.204655E+04 -3.363979E+02 -9.643250E+03
       100  25 -3.206000E+05  1.827529E+05  1.825039E+05 -2.116608E+04 -1.361613E+03 -1.063264E+04
       100  26 -3.543412E+05  1.738807E+05  1.733661E+05  3.645671E+03 -5.715874E+02 -1.104727E+04
       100  27 -3.851898E+05  1.661295E+05  1.655304E+05 -2.205038E+04  2.185442E+02 -9.642614E+03
       101   1 -1.573977E+06 -1.307521E+05 -1.292114E+05 -2.417433E+04  4.357223E+02  8.648721E+03
       101   2 -1.535674E+06 -1.211229E+05 -1.198681E+05  6.459088E+03  3.969659E+02  7.558406E+03
       101   3 -1.496303E+06 -1.112365E+05 -1.102332E+05 -2.375865E+04  3.554993E+02  6.079251E+03
       101   4 -1.050729E+06 -1.621613E+01  4.432546E+02 -2.434399E+04  2.212374E+02  8.648360E+03
       101   5 -1.051277E+06 -8.245597E+01  2.270550E+02  6.080230E+03  8.924271E+01  7.558358E+03
       101   6 -1.050741E+06  1.251614E+02  3.675276E+02 -2.434375E+04 -4.545944E+01  6.079656E+03
       101   7 -5.272319E+05  1.306991E+05  1.300775E+05 -2.451377E+04  6.571432E+00  8.647998E+03
       101   8 -5.666657E+05  1.209404E+05  1.203047E+05  5.701131E+03 -2.187208E+02  7.558311E+03
       101   9 -6.049986E+05  1.114720E+05  1.109534E+05 -2.492919E+04 -4.467062E+02  6.080062E+03
       101  10 -1.573977E+06 -1.307521E+05 -1.292115E+05 -2.417433E+04  2.330434E-09  2.457877E-10
       101  11 -1.535674E+06 -1.211230E+05 -1.198682E+05  6.459086E+03  2.195072E-10 -5.513150E-10
       101  12 -1.496303E+06 -1.112366E+05 -1.102332E+05 -2.375865E+04 -1.706602E-09 -5.292088E-10
       101  13 -1.050729E+06 -1.629642E+01  4.431141E+02 -2.434399E+04 -2.079715E-09 -8.903649E-11
       101  14 -1.051277E+06 -8.251729E+01  2.269476E+02  6.080229E+03 -1.729367E-09  2.091485E-10
       101  15 -1.050741E+06  1.251217E+02  3.674582E+02 -2.434375E+04 -1.429113E-09  1.742054E-09
       101  16 -5.272319E+05  1.306990E+05  1.300773E+05 -2.451377E+04 -1.405284E-09 -1.536000E-10
       101  17 -5.666658E+05  1.209403E+05  1.203046E+05  5.701132E+03  2.340458E-09 -4.073018E-10
       101  18 -6.049986E+05  1.114719E+05  1.109533E+05 -2.492919E+04  1.185303E-09  4.254355E-10
       101  19 -1.573977E+06 -1.307521E+05 -1.292114E+05 -2.417433E+04 -4.357223E+02 -8.648721E+03
       101  20 -1.535674E+06 -1.211229E+05 -1.198681E+05  6.459088E+03 -3.969659E+02 -7.558406E+03
       101  21 -1.496303E+06 -1.112365E+05 -1.102332E+05 -2.375865E+04 -3.554993E+02 -6.079251E+03
       101  22 -1.050729E+06 -1.621613E+01  4.432546E+02 -2.434399E+04 -2.212374E+02 -8.648360E+03
       101  23 -1.051277E+06 -8.245597E+01  2.270550E+02  6.080230E+03 -8.924271E+01 -7.558358E+03
       101  24 -1.050741E+06  1.251614E+02  3.675276E+02 -2.434375E+04  4.545944E+01 -6.079656E+03
       101  25 -5.272319E+05  1.306991E+05  1.300775E+05 -2.451377E+04 -6.571432E+00 -8.647998E+03
       101  26 -5.666657E+05  1.209404E+05  1.203047E+05  5.701131E+03  2.187208E+02 -7.558311E+03
       101  27 -6.049986E+05  1.114720E+05  1.109534E+05 -2.492919E+04  4.467062E+02 -6.080062E+03
       102   1 -1.333733E+06 -7.060431E+04 -6.964501E+04 -2.533961E+04  2.130685E+02  5.176766E+03
       102   2 -1.290852E+06 -5.998758E+04 -5.899259E+04  8.238100E+03 -3.378659E+00  3.732330E+03
       102   3 -1.247948E+06 -4.902566E+04 -4.813266E+04 -2.536342E+04 -2.213982E+02  2.174784E+03
       102   4 -1.050936E+06  2.859373E+01  3.399374E+02 -2.575058E+04 -1.196274E+02  5.177272E+03
       102   5 -1.050953E+06 -4.965627E+01  4.778922E+02  7.838458E+03 -3.632670E+02  3.733047E+03
       102   6 -1.050943E+06  2.223413E+02  8.425342E+02 -2.575011E+04 -6.084637E+02  2.175737E+03
       102   7 -7.680672E+05  7.065550E+04  7.031893E+04 -2.616169E+04 -4.524750E+02  5.177777E+03
       102   8 -8.110019E+05  5.988395E+04  5.994408E+04  7.438690E+03 -7.232944E+02  3.733764E+03
       102   9 -8.539021E+05  4.946742E+04  4.981482E+04 -2.613691E+04 -9.956521E+02  2.176691E+03
       102  10 -1.333733E+06 -7.060433E+04 -6.964506E+04 -2.533961E+04 -1.014494E-09  5.361507E-10
       102  11 -1.290852E+06 -5.998759E+04 -5.899262E+04  8.238100E+03 -1.087889E-09 -2.283089E-10
       102  12 -1.247948E+06 -4.902566E+04 -4.813267E+04 -2.536342E+04 -1.068920E-09 -1.244122E-09
       102  13 -1.050936E+06  2.856495E+01  3.398870E+02 -2.575058E+04 -2.138070E-09 -1.052687E-09
       102  14 -1.050953E+06 -4.967127E+01  4.778657E+02  7.838459E+03 -3.837624E-09 -3.197273E-10
       102  15 -1.050943E+06  2.223361E+02  8.425246E+02 -2.575011E+04 -2.303711E-09 -2.333286E-09
       102  16 -7.680672E+05  7.065547E+04  7.031888E+04 -2.616169E+04  2.562346E-09  4.663147E-10
       102  17 -8.110019E+05  5.988393E+04  5.994405E+04  7.438692E+03  3.430355E-09 -1.497567E-09
       102  18 -8.539021E+05  4.946741E+04  4.981481E+04 -2.613691E+04  1.505058E-09 -3.328092E-09
       102  19 -1.333733E+06 -7.060431E+04 -6.964501E+04 -2.533961E+04 -2.130685E+02 -5.176766E+03
       102  20 -1.290852E+06 -5.998758E+04 -5.899259E+04  8.238100E+03  3.378659E+00 -3.732330E+03
       102  21 -1.247948E+06 -4.902566E+04 -4.813266E+04 -2.536342E+04  2.213982E+02 -2.174784E+03
       102  22 -1.050936E+06  2.859373E+01  3.399374E+02 -2.575058E+04  1.196274E+02 -5.177272E+03
       102  23 -1.050953E+06 -4.965627E+01  4.778922E+02  7.838458E+03  3.632670E+02 -3.733047E+03
       102  24 -1.050943E+06  2.223413E+02  8.425342E+02 -2.575011E+04  6.084637E+02 -2.175737E+03
       102  25 -7.680672E+05  7.065550E+04  7.031893E+04 -2.616169E+04  4.524750E+02 -5.177777E+03
       102  26 -8.110019E+05  5.988395E+04  5.994408E+04  7.438690E+03  7.232944E+02 -3.733764E+03
       102  27 -8.539021E+05  4.946742E+04  4.981482E+04 -2.613691E+04  9.956521E+02 -2.176691E+03
       103   1 -1.074660E+06 -5.795364E+03 -4.686169E+03 -2.608994E+04 -4.070257E+02  1.241156E+03
       103   2 -1.030498E+06  4.958764E+03  6.846801E+03  8.327125E+03 -1.313746E+03 -3.167814E+02
       103   3 -9.864038E+05  1.674241E+04  1.913583E+04 -2.635354E+04 -2.220355E+03 -1.845896E+03
       103   4 -1.050952E+06  1.002837E+02  1.054127E+03 -2.617757E+04 -7.844689E+02  1.242156E+03
       103   5 -1.050916E+06 -1.417537E+02  1.786444E+03  8.372074E+03 -1.684263E+03 -3.158171E+02
       103   6 -1.050951E+06  6.445289E+02  3.270031E+03 -2.617615E+04 -2.583882E+03 -1.844961E+03
       103   7 -1.027244E+06  5.995890E+03  6.794384E+03 -2.626520E+04 -1.161926E+03  1.243156E+03
       103   8 -1.071333E+06 -5.242303E+03 -3.273943E+03  8.417022E+03 -2.054768E+03 -3.148528E+02
       103   9 -1.115494E+06 -1.545366E+04 -1.259608E+04 -2.599877E+04 -2.947372E+03 -1.844026E+03
       103  10 -1.074660E+06 -5.795366E+03 -4.686173E+03 -2.608994E+04  2.713198E-10  1.058721E-09
       103  11 -1.030498E+06  4.958763E+03  6.846797E+03  8.327125E+03  2.094397E-10  4.456444E-09
       103  12 -9.864038E+05  1.674240E+04  1.913582E+04 -2.635355E+04  4.455561E-09 -2.837491E-09
       103  13 -1.050952E+06  1.002818E+02  1.054123E+03 -2.617756E+04 -3.940805E-09 -1.757850E-10
       103  14 -1.050916E+06 -1.417546E+02  1.786439E+03  8.372074E+03  6.145160E-11 -6.945320E-10
       103  15 -1.050951E+06  6.445235E+02  3.270012E+03 -2.617615E+04  1.979499E-09 -1.474204E-10
       103  16 -1.027244E+06  5.995888E+03  6.794379E+03 -2.626520E+04  2.491949E-10 -2.972535E-10
       103  17 -1.071333E+06 -5.242304E+03 -3.273951E+03  8.417021E+03 -1.020070E-09 -1.025775E-10
       103  18 -1.115494E+06 -1.545366E+04 -1.259610E+04 -2.599877E+04 -1.551156E-09 -2.169936E-10
       103  19 -1.074660E+06 -5.795364E+03 -4.686169E+03 -2.608994E+04  4.070257E+02 -1.241156E+03
       103  20 -1.030498E+06  4.958764E+03  6.846801E+03  8.327125E+03  1.313746E+03  3.167814E+02
       103  21 -9.864038E+05  1.674241E+04  1.913583E+04 -2.635354E+04  2.220355E+03  1.845896E+03
       103  22 -1.050952E+06  1.002837E+02  1.054127E+03 -2.617757E+04  7.844689E+02 -1.242156E+03
       103  23 -1.050916E+06 -1.417537E+02  1.786444E+03  8.372074E+03  1.684263E+03  3.158171E+02
       103  24 -1.050951E+06  6.445289E+02  3.270031E+03 -2.617615E+04  2.583882E+03  1.844961E+03
       103  25 -1.027244E+06  5.995890E+03  6.794384E+03 -2.626520E+04  1.161926E+03 -1.243156E+03
       103  26 -1.071333E+06 -5.242303E+03 -3.273943E+03  8.417022E+03  2.054768E+03  3.148528E+02
       103  27 -1.115494E+06 -1.545366E+04 -1.259608E+04 -2.599877E+04  2.947372E+03  1.844026E+03
       104   1 -8.135352E+05  5.923257E+04  6.309087E+04 -2.572833E+04 -2.855203E+03 -2.794488E+03
       104   2 -7.720262E+05  6.891979E+04  7.626055E+04  7.101129E+03 -6.505595E+03 -4.353633E+03
       104   3 -7.285953E+05  8.424473E+04  9.322328E+04 -2.654032E+04 -1.015419E+04 -5.627108E+03
       104   4 -1.050528E+06  1.181431E+01  4.219976E+03 -2.559620E+04 -3.264486E+03 -2.793533E+03
       104   5 -1.051477E+06 -8.779182E+02  7.010361E+03  7.643666E+03 -6.844949E+03 -4.353041E+03
       104   6 -1.050517E+06  3.859410E+03  1.354658E+04 -2.558922E+04 -1.042336E+04 -5.626821E+03
       104   7 -1.287470E+06 -5.921316E+04 -5.465512E+04 -2.546408E+04 -3.673613E+03 -2.792578E+03
       104   8 -1.330857E+06 -7.068148E+04 -6.224566E+04  8.185996E+03 -7.184149E+03 -4.352450E+03
       104   9 -1.372344E+06 -7.653367E+04 -6.613783E+04 -2.463858E+04 -1.069240E+04 -5.626535E+03
       104  10 -8.135352E+05  5.923256E+04  6.309084E+04 -2.572833E+04 -1.377117E-09 -3.074838E-09
       104  11 -7.720262E+05  6.891975E+04  7.626044E+04  7.101106E+03 -1.638893E-09 -2.411744E-10
       104  12 -7.285954E+05  8.424467E+04  9.322303E+04 -2.654037E+04 -8.621983E-10 -9.854721E-11
       104  13 -1.050528E+06  1.180306E+01  4.219942E+03 -2.559620E+04  5.148279E-10 -1.954114E-10
       104  14 -1.051477E+06 -8.779512E+02  7.010237E+03  7.643642E+03 -2.063877E-09 -7.120808E-10
       104  15 -1.050517E+06  3.859347E+03  1.354632E+04 -2.558927E+04 -2.334777E-09 -1.052595E-09
       104  16 -1.287470E+06 -5.921317E+04 -5.465516E+04 -2.546409E+04 -1.394554E-09 -7.620849E-11
       104  17 -1.330857E+06 -7.068151E+04 -6.224579E+04  8.185971E+03  3.761425E-09  3.260032E-09
       104  18 -1.372344E+06 -7.653374E+04 -6.613810E+04 -2.463862E+04  1.124546E-10 -3.066687E-10
       104  19 -8.135352E+05  5.923257E+04  6.309087E+04 -2.572833E+04  2.855203E+03  2.794488E+03
       104  20 -7.720262E+05  6.891979E+04  7.626055E+04  7.101129E+03  6.505595E+03  4.353633E+03
       104  21 -7.285953E+05  8.424473E+04  9.322328E+04 -2.654032E+04  1.015419E+04  5.627108E+03
       104  22 -1.050528E+06  1.181431E+01  4.219976E+03 -2.559620E+04  3.264486E+03  2.793533E+03
       104  23 -1.051477E+06 -8.779182E+02  7.010361E+03  7.643666E+03  6.844949E+03  4.353041E+03
       104  24 -1.050517E+06  3.859410E+03  1.354658E+04 -2.558922E+04  1.042336E+04  5.626821E+03
       104  25 -1.287470E+06 -5.921316E+04 -5.465512E+04 -2.546408E+04  3.673613E+03  2.792578E+03
       104  26 -1.330857E+06 -7.068148E+04 -6.224566E+04  8.185996E+03  7.184149E+03  4.352450E+03
       104  27 -1.372344E+06 -7.653367E+04 -6.613783E+04 -2.463858E+04  1.069240E+04  5.626535E+03
       105   1 -5.659991E+05  1.195268E+05  1.366705E+05 -2.242268E+04 -1.263251E+04 -6.690960E+03
       105   2 -5.343245E+05  1.239010E+05  1.564056E+05  4.385540E+03 -2.741885E+04 -8.244311E+03
       105   3 -4.899325E+05  1.665737E+05  1.955921E+05 -2.829752E+04 -4.220301E+04 -8.251882E+03
       105   4 -1.048174E+06 -9.053175E+02  1.707244E+04 -2.404755E+04 -1.318825E+04 -6.690418E+03
       105   5 -1.054488E+06 -5.995359E+03  2.754626E+04  5.703112E+03 -2.759311E+04 -8.244655E+03
       105   6 -1.048141E+06  2.716413E+04  5.721826E+04 -2.404047E+04 -4.199489E+04 -8.252675E+03
       105   7 -1.530137E+06 -1.213548E+05 -1.025430E+05 -2.567107E+04 -1.374354E+04 -6.689873E+03
       105   8 -1.574404E+06 -1.359120E+05 -1.013332E+05  7.019627E+03 -2.776722E+04 -8.244999E+03
       105   9 -1.606066E+06 -1.122687E+05 -8.117886E+04 -1.978724E+04 -4.178695E+04 -8.253466E+03
       105  10 -5.659993E+05  1.195267E+05  1.366702E+05 -2.242275E+04  6.527560E-10  5.954768E-10
       105  11 -5.343253E+05  1.239007E+05  1.564041E+05  4.385358E+03  9.897797E-10 -3.859508E-10
       105  12 -4.899345E+05  1.665731E+05  1.955887E+05 -2.829780E+04 -1.247799E-10 -2.665759E-10
       105  13 -1.048174E+06 -9.054124E+02  1.707203E+04 -2.404762E+04 -4.180250E-09  1.502176E-10
       105  14 -1.054488E+06 -5.995637E+03  2.754470E+04  5.702929E+03  1.564275E-09  1.024877E-09
       105  15 -1.048143E+06  2.716358E+04  5.721482E+04 -2.404075E+04  2.088984E-09 -3.997344E-10
       105  16 -1.530137E+06 -1.213549E+05 -1.025435E+05 -2.567114E+04 -1.349791E-09  8.510323E-11
       105  17 -1.574405E+06 -1.359123E+05 -1.013348E+05  7.019442E+03  2.383786E-09 -4.665300E-10
       105  18 -1.606068E+06 -1.122693E+05 -8.118227E+04 -1.978752E+04 -1.896564E-09 -1.135683E-09
       105  19 -5.659991E+05  1.195268E+05  1.366705E+05 -2.242268E+04  1.263251E+04  6.690960E+03
       105  20 -5.343245E+05  1.239010E+05  1.564056E+05  4.385540E+03  2.741885E+04  8.244311E+03
       105  21 -4.899325E+05  1.665737E+05  1.955921E+05 -2.829752E+04  4.220301E+04  8.251882E+03
       105  22 -1.048174E+06 -9.053175E+02  1.707244E+04 -2.404755E+04  1.318825E+04  6.690418E+03
       105  23 -1.054488E+06 -5.995359E+03  2.754626E+04  5.703112E+03  2.759311E+04  8.244655E+03
       105  24 -1.048141E+06  2.716413E+04  5.721826E+04 -2.404047E+04  4.199489E+04  8.252675E+03
       105  25 -1.530137E+06 -1.213548E+05 -1.025430E+05 -2.567107E+04  1.374354E+04  6.689873E+03
       105  26 -1.574404E+06 -1.359120E+05 -1.013332E+05  7.019627E+03  2.776722E+04  8.244999E+03
       105  27 -1.606066E+06 -1.122687E+05 -8.117886E+04 -1.978724E+04  4.178695E+04  8.253466E+03
       106   1 -3.383570E+05  1.664162E+05  2.417558E+05 -6.510870E+03 -5.162263E+04 -1.055088E+04
       106   2 -3.457799E+05  1.397777E+05  2.861924E+05 -4.768571E+03 -1.121952E+05 -1.278973E+04
       106   3 -2.756345E+05  3.808373E+05  4.375626E+05 -5.203579E+04 -1.727886E+05 -4.725283E+03
       106   4 -1.033879E+06 -7.273466E+03  6.939776E+04 -2.160221E+04 -5.334889E+04 -1.055088E+04
       106   5 -1.072419E+06 -4.160229E+04  1.063860E+05  2.704312E+03 -1.113903E+05 -1.279116E+04
       106   6 -1.033747E+06  1.914912E+05  2.486366E+05 -2.199964E+04 -1.694492E+05 -4.727232E+03
       106   7 -1.728961E+06 -1.809985E+05 -1.029962E+05 -3.667664E+04 -5.507318E+04 -1.055080E+04
       106   8 -1.798578E+06 -2.230216E+05 -7.345969E+04  1.016828E+04 -1.105863E+05 -1.279257E+04
       106   9 -1.791336E+06  2.105297E+03  5.966788E+04  7.999535E+03 -1.661138E+05 -4.728862E+03
       106  10 -3.383599E+05  1.664153E+05  2.417505E+05 -6.511308E+03 -2.132268E-09 -4.763643E-10
       106  11 -3.457935E+05  1.397742E+05  2.861685E+05 -4.769726E+03 -2.786488E-10 -4.891392E-10
       106  12 -2.756665E+05  3.808293E+05  4.375065E+05 -5.203645E+04  1.201502E-09 -7.367452E-10
       106  13 -1.033882E+06 -7.274351E+03  6.939219E+04 -2.160267E+04 -5.389779E-10 -4.905576E-11
       106  14 -1.072432E+06 -4.160580E+04  1.063623E+05  2.703164E+03  3.187651E-10  1.380621E-09
       106  15 -1.033778E+06  1.914835E+05  2.485825E+05 -2.200028E+04  7.248472E-10 -4.307400E-10
       106  16 -1.728965E+06 -1.809995E+05 -1.030021E+05 -3.667711E+04  1.261872E-09 -8.220397E-10
       106  17 -1.798591E+06 -2.230251E+05 -7.348304E+04  1.016714E+04 -1.439520E-09 -5.498051E-11
       106  18 -1.791366E+06  2.097839E+03  5.961584E+04  7.998902E+03  8.897612E-10 -4.969356E-10
       106  19 -3.383570E+05  1.664162E+05  2.417558E+05 -6.510870E+03  5.162263E+04  1.055088E+04
       106  20 -3.457799E+05  1.397777E+05  2.861924E+05 -4.768571E+03  1.121952E+05  1.278973E+04
       106  21 -2.756345E+05  3.808373E+05  4.375626E+05 -5.203579E+04  1.727886E+05  4.725283E+03
       106  22 -1.033879E+06 -7.273466E+03  6.939776E+04 -2.160221E+04  5.334889E+04  1.055088E+04
       106  23 -1.072419E+06 -4.160229E+04  1.063860E+05  2.704312E+03  1.113903E+05  1.279116E+04
       106  24 -1.033747E+06  1.914912E+05  2.486366E+05 -2.199964E+04  1.694492E+05  4.727232E+03
       106  25 -1.728961E+06 -1.809985E+05 -1.029962E+05 -3.667664E+04  5.507318E+04  1.055080E+04
       106  26 -1.798578E+06 -2.230216E+05 -7.345969E+04  1.016828E+04  1.105863E+05  1.279257E+04
       106  27 -1.791336E+06  2.105297E+03  5.966788E+04  7.999535E+03  1.661138E+05  4.728862E+03
       107   1  2.610194E+05  2.276561E+05  2.792074E+05 -1.866031E+05 -2.852406E+02  1.825918E+05
       107   2  8.333215E+04  1.852768E+05  1.435280E+05 -1.043723E+05  1.251675E+03  1.107068E+05
       107   3  2.491677E+04  1.820322E+05  8.446598E+04 -2.612976E+04  1.076884E+03  3.881577E+04
       107   4  2.414514E+05  1.565956E+05  2.619190E+05 -2.746500E+04 -2.187598E+02  1.785485E+05
       107   5  7.085813E+04  1.373357E+05  1.337277E+05 -2.601714E+04  1.268667E+03  1.100845E+05
       107   6  1.892492E+04  1.566087E+05  7.978091E+04 -2.855072E+04  1.063024E+03  4.161166E+04
       107   7  2.219782E+05  8.559387E+04  2.446438E+05  1.316546E+05 -1.543457E+02  1.745056E+05
       107   8  5.840699E+04  8.941001E+04  1.239305E+05  5.233177E+04  1.285504E+03  1.094622E+05
       107   9  1.293307E+04  1.311859E+05  7.509585E+04 -3.097157E+04  1.049142E+03  4.440743E+04
       107  10  2.610104E+05  2.276203E+05  2.791448E+05 -1.866031E+05  2.693328E-09  9.000206E-10
       107  11  8.332886E+04  1.852636E+05  1.435049E+05 -1.043724E+05  2.928545E-09 -1.248311E-09
       107  12  2.491636E+04  1.820306E+05  8.446315E+04 -2.612980E+04 -4.613672E-10 -8.881240E-10
       107  13  2.414429E+05  1.565613E+05  2.618591E+05 -2.746497E+04 -3.479083E-10 -2.401407E-09
       107  14  7.085488E+04  1.373227E+05  1.337049E+05 -2.601726E+04 -1.593334E-09  3.568631E-11
       107  15  1.892446E+04  1.566069E+05  7.977766E+04 -2.855075E+04 -4.684164E-11 -3.122388E-09
       107  16  2.219700E+05  8.556117E+04  2.445866E+05  1.316547E+05 -5.122886E-10 -1.882457E-09
       107  17  5.840377E+04  8.939714E+04  1.239080E+05  5.233166E+04 -1.034233E-09 -1.661790E-09
       107  18  1.293254E+04  1.311838E+05  7.509214E+04 -3.097161E+04  1.744938E-09  6.288962E-10
       107  19  2.610194E+05  2.276561E+05  2.792074E+05 -1.866031E+05  2.852406E+02 -1.825918E+05
       107  20  8.333215E+04  1.852768E+05  1.435280E+05 -1.043723E+05 -1.251675E+03 -1.107068E+05
       107  21  2.491677E+04  1.820322E+05  8.446598E+04 -2.612976E+04 -1.076884E+03 -3.881577E+04
       107  22  2.414514E+05  1.565956E+05  2.619190E+05 -2.746500E+04  2.187598E+02 -1.785485E+05
       107  23  7.085813E+04  1.373357E+05  1.337277E+05 -2.601714E+04 -1.268667E+03 -1.100845E+05
       107  24  1.892492E+04  1.566087E+05  7.978091E+04 -2.855072E+04 -1.063024E+03 -4.161166E+04
       107  25  2.219782E+05  8.559387E+04  2.446438E+05  1.316546E+05  1.543457E+02 -1.745056E+05
       107  26  5.840699E+04  8.941001E+04  1.239305E+05  5.233177E+04 -1.285504E+03 -1.094622E+05
       107  27  1.293307E+04  1.311859E+05  7.509585E+04 -3.097157E+04 -1.049142E+03 -4.440743E+04
       108   1  1.874795E+04  1.599823E+05  6.791692E+04 -3.753255E+04  2.533013E+02  2.782817E+04
       108   2  4.057201E+03  1.328473E+05  5.030161E+04 -2.678858E+04 -9.572519E+02  1.772924E+03
       108   3  5.103330E+03  1.129854E+05  5.356864E+04 -2.047507E+04 -2.105002E+03 -2.428101E+04
       108   4  1.616175E+04  1.496651E+05  6.582876E+04 -2.855280E+04  2.401513E+02  3.059139E+04
       108   5  7.094539E+03  1.460178E+05  5.234749E+04 -2.634351E+04 -9.701615E+02  4.408040E+03
       108   6  1.378610E+04  1.496649E+05  5.983760E+04 -2.856436E+04 -2.116960E+03 -2.177492E+04
       108   7  1.357586E+04  1.393482E+05  6.374067E+04 -1.957319E+04  2.270810E+02  3.335457E+04
       108   8  1.013187E+04  1.591884E+05  5.439339E+04 -2.589843E+04 -9.830672E+02  7.043211E+03
       108   9  2.246905E+04  1.863460E+05  6.610658E+04 -3.665413E+04 -2.128982E+03 -1.926868E+04
       108  10  1.874774E+04  1.599814E+05  6.791547E+04 -3.753256E+04  1.446392E-09 -2.759569E-09
       108  11  4.057200E+03  1.328473E+05  5.030160E+04 -2.678858E+04  7.747594E-10 -2.242557E-09
       108  12  5.103167E+03  1.129847E+05  5.356752E+04 -2.047511E+04  4.434472E-10  4.999267E-10
       108  13  1.616150E+04  1.496641E+05  6.582700E+04 -2.855280E+04  2.753896E-09 -2.951677E-09
       108  14  7.094532E+03  1.460177E+05  5.234745E+04 -2.634351E+04  1.421939E-09 -1.911394E-10
       108  15  1.378597E+04  1.496644E+05  5.983670E+04 -2.856439E+04  3.008930E-09 -3.216832E-09
       108  16  1.357556E+04  1.393470E+05  6.373858E+04 -1.957320E+04  5.523784E-10  9.471793E-10
       108  17  1.013186E+04  1.591883E+05  5.439329E+04 -2.589842E+04 -4.116687E-10 -5.955805E-10
       108  18  2.246894E+04  1.863456E+05  6.610587E+04 -3.665416E+04  9.323154E-10 -3.268520E-10
       108  19  1.874795E+04  1.599823E+05  6.791692E+04 -3.753255E+04 -2.533013E+02 -2.782817E+04
       108  20  4.057201E+03  1.328473E+05  5.030161E+04 -2.678858E+04  9.572519E+02 -1.772924E+03
       108  21  5.103330E+03  1.129854E+05  5.356864E+04 -2.047507E+04  2.105002E+03  2.428101E+04
       108  22  1.616175E+04  1.496651E+05  6.582876E+04 -2.855280E+04 -2.401513E+02 -3.059139E+04
       108  23  7.094539E+03  1.460178E+05  5.234749E+04 -2.634351E+04  9.701615E+02 -4.408040E+03
       108  24  1.378610E+04  1.496649E+05  5.983760E+04 -2.856436E+04  2.116960E+03  2.177492E+04
       108  25  1.357586E+04  1.393482E+05  6.374067E+04 -1.957319E+04 -2.270810E+02 -3.335457E+04
       108  26  1.013187E+04  1.591884E+05  5.439339E+04 -2.589843E+04  9.830672E+02 -7.043211E+03
       108  27  2.246905E+04  1.863460E+05  6.610658E+04 -3.665413E+04  2.128982E+03  1.926868E+04
       109   1  3.961369E+03  1.034571E+05  6.134656E+04 -3.030354E+04 -2.879601E+03 -3.425571E+04
       109   2  4.093118E+04  6.468650E+04  9.915745E+04  3.993594E+04 -2.761074E+03 -8.788745E+04
       109   3  1.768335E+05  5.759413E+04  1.966165E+05  1.061747E+05 -3.878575E+02 -1.415053E+05
       109   4  1.608699E+04  1.552576E+05  7.028981E+04 -2.854814E+04 -2.892186E+03 -3.170266E+04
       109   5  5.947414E+04  1.390238E+05  1.137239E+05 -2.609337E+04 -2.741863E+03 -8.990929E+04
       109   6  2.025634E+05  1.552462E+05  2.199761E+05 -2.763955E+04 -3.252709E+02 -1.481043E+05
       109   7  2.821247E+04  2.070607E+05  7.923300E+04 -2.679259E+04 -2.904756E+03 -2.914940E+04
       109   8  7.803308E+04  2.133756E+05  1.282924E+05 -9.213080E+04 -2.722225E+03 -9.193137E+04
       109   9  2.283598E+05  2.529453E+05  2.433447E+05 -1.614751E+05 -2.598467E+02 -1.547044E+05
       109  10  3.961046E+03  1.034558E+05  6.134434E+04 -3.030362E+04  3.208157E-10  3.089021E-09
       109  11  4.092910E+04  6.467820E+04  9.914292E+04  3.993575E+04 -2.391034E-09 -8.631009E-10
       109  12  1.768282E+05  5.757264E+04  1.965789E+05  1.061746E+05  3.503782E-10 -2.868624E-09
       109  13  1.608671E+04  1.552565E+05  7.028791E+04 -2.854822E+04 -1.177564E-09 -2.874331E-09
       109  14  5.947196E+04  1.390151E+05  1.137087E+05 -2.609357E+04  2.018517E-09 -7.644057E-11
       109  15  2.025576E+05  1.552226E+05  2.199349E+05 -2.763959E+04 -4.926176E-10 -2.909322E-09
       109  16  2.821224E+04  2.070598E+05  7.923139E+04 -2.679266E+04  3.478077E-10 -4.463586E-09
       109  17  7.803080E+04  2.133666E+05  1.282765E+05 -9.213100E+04 -9.829083E-11 -1.972652E-09
       109  18  2.283534E+05  2.529196E+05  2.432998E+05 -1.614751E+05  1.484862E-09  3.039550E-09
       109  19  3.961369E+03  1.034571E+05  6.134656E+04 -3.030354E+04  2.879601E+03  3.425571E+04
       109  20  4.093118E+04  6.468650E+04  9.915745E+04  3.993594E+04  2.761074E+03  8.788745E+04
       109  21  1.768335E+05  5.759413E+04  1.966165E+05  1.061747E+05  3.878575E+02  1.415053E+05
       109  22  1.608699E+04  1.552576E+05  7.028981E+04 -2.854814E+04  2.892186E+03  3.170266E+04
       109  23  5.947414E+04  1.390238E+05  1.137239E+05 -2.609337E+04  2.741863E+03  8.990929E+04
       109  24  2.025634E+05  1.552462E+05  2.199761E+05 -2.763955E+04  3.252709E+02  1.481043E+05
       109  25  2.821247E+04  2.070607E+05  7.923300E+04 -2.679259E+04  2.904756E+03  2.914940E+04
       109  26  7.803308E+04  2.133756E+05  1.282924E+05 -9.213080E+04  2.722225E+03  9.193137E+04
       109  27  2.283598E+05  2.529453E+05  2.433447E+05 -1.614751E+05  2.598467E+02  1.547044E+05
       110   1 -6.030345E+06 -1.885034E+06 -1.236049E+06 -2.072027E+06 -6.184525E+05 -2.246580E+05
       110   2 -5.877389E+06 -9.976853E+05 -6.666953E+05 -2.224974E+06 -4.017095E+05 -1.210034E+05
       110   3 -6.097750E+06 -1.024133E+06 -5.155591E+05 -2.138722E+06 -1.774108E+05 -3.725187E+04
       110   4 -5.143600E+06 -1.384420E+06 -9.592281E+05 -1.664608E+06 -6.089027E+05 -2.212299E+05
       110   5 -4.907330E+06 -5.848247E+05 -3.955358E+05 -1.914337E+06 -3.989946E+05 -1.200126E+05
       110   6 -5.042499E+06 -6.968433E+05 -2.441380E+05 -1.925036E+06 -1.815047E+05 -3.877799E+04
       110   7 -4.256025E+06 -8.834267E+05 -6.824852E+05 -1.256566E+06 -5.993373E+05 -2.177893E+05
       110   8 -3.936352E+06 -1.718385E+05 -1.244664E+05 -1.603233E+06 -3.962745E+05 -1.190193E+05
       110   9 -3.986162E+06 -3.695660E+05  2.719633E+04 -1.711060E+06 -1.856060E+05 -4.030576E+04
       110  10 -6.030773E+06 -1.885193E+06 -1.236872E+06 -2.072140E+06 -1.560163E-09  4.151103E-10
       110  11 -5.877567E+06 -9.977451E+05 -6.670296E+05 -2.225013E+06  3.301929E-09 -5.839455E-10
       110  12 -6.097785E+06 -1.024143E+06 -5.156215E+05 -2.138728E+06 -1.866140E-09  6.056093E-10
       110  13 -5.144014E+06 -1.384574E+06 -9.600241E+05 -1.664717E+06  2.495287E-09 -2.049657E-09
       110  14 -4.907506E+06 -5.848835E+05 -3.958650E+05 -1.914375E+06 -8.398151E-10 -2.278107E-09
       110  15 -5.042535E+06 -6.968539E+05 -2.442033E+05 -1.925042E+06  1.024379E-09 -5.516170E-10
       110  16 -4.256426E+06 -8.835752E+05 -6.832551E+05 -1.256671E+06  3.515069E-10  6.831897E-10
       110  17 -3.936526E+06 -1.718964E+05 -1.247905E+05 -1.603271E+06  2.107547E-10 -2.689028E-10
       110  18 -3.986200E+06 -3.695771E+05  2.712804E+04 -1.711066E+06  2.332600E-09 -1.164616E-10
       110  19 -6.030345E+06 -1.885034E+06 -1.236049E+06 -2.072027E+06  6.184525E+05  2.246580E+05
       110  20 -5.877389E+06 -9.976853E+05 -6.666953E+05 -2.224974E+06  4.017095E+05  1.210034E+05
       110  21 -6.097750E+06 -1.024133E+06 -5.155591E+05 -2.138722E+06  1.774108E+05  3.725187E+04
       110  22 -5.143600E+06 -1.384420E+06 -9.592281E+05 -1.664608E+06  6.089027E+05  2.212299E+05
       110  23 -4.907330E+06 -5.848247E+05 -3.955358E+05 -1.914337E+06  3.989946E+05  1.200126E+05
       110  24 -5.042499E+06 -6.968433E+05 -2.441380E+05 -1.925036E+06  1.815047E+05  3.877799E+04
       110  25 -4.256025E+06 -8.834267E+05 -6.824852E+05 -1.256566E+06  5.993373E+05  2.177893E+05
       110  26 -3.936352E+06 -1.718385E+05 -1.244664E+05 -1.603233E+06  3.962745E+05  1.190193E+05
       110  27 -3.986162E+06 -3.695660E+05  2.719633E+04 -1.711060E+06  1.856060E+05  4.030576E+04
       111   1 -5.948864E+06 -1.186916E+06 -4.597676E+05 -2.149530E+06 -1.454147E+05 -2.881252E+04
       111   2 -5.904595E+06 -1.044028E+06 -3.418863E+05 -2.140474E+06 -9.587991E+04 -9.202419E+03
       111   3 -5.878508E+06 -1.047672E+06 -2.927505E+05 -2.136049E+06 -4.525856E+04  7.531459E+03
       111   4 -5.005023E+06 -8.095244E+05 -1.998647E+05 -1.872181E+06 -1.447704E+05 -2.857759E+04
       111   5 -4.989683E+06 -6.926934E+05 -9.324870E+04 -1.886277E+06 -9.618897E+04 -9.322504E+03
       111   6 -4.992266E+06 -7.220913E+05 -5.453503E+04 -1.905019E+06 -4.652445E+04  7.054387E+03
       111   7 -4.060312E+06 -4.320513E+05  5.995624E+04 -1.594436E+06 -1.441248E+05 -2.834213E+04
       111   8 -4.073958E+06 -3.413024E+05  1.553135E+05 -1.631737E+06 -9.649843E+04 -9.442746E+03
       111   9 -4.105263E+06 -3.964763E+05  1.836110E+05 -1.673693E+06 -4.779231E+04  6.576626E+03
       111  10 -5.948887E+06 -1.186923E+06 -4.598093E+05 -2.149534E+06 -2.466575E-09  1.293944E-09
       111  11 -5.904605E+06 -1.044031E+06 -3.419039E+05 -2.140475E+06 -9.783193E-10 -2.143613E-10
       111  12 -5.878510E+06 -1.047672E+06 -2.927545E+05 -2.136049E+06 -3.112099E-09 -3.125277E-09
       111  13 -5.005046E+06 -8.095310E+05 -1.999060E+05 -1.872184E+06  2.380376E-09  8.999450E-10
       111  14 -4.989694E+06 -6.926960E+05 -9.326640E+04 -1.886278E+06 -1.378838E-09 -3.448236E-11
       111  15 -4.992268E+06 -7.220920E+05 -5.453922E+04 -1.905019E+06 -4.507523E-10 -2.305724E-09
       111  16 -4.060335E+06 -4.320578E+05  5.991540E+04 -1.594439E+06 -2.580857E-10  1.019176E-10
       111  17 -4.073968E+06 -3.413050E+05  1.552957E+05 -1.631737E+06  1.635960E-09  1.297902E-09
       111  18 -4.105265E+06 -3.964770E+05  1.836066E+05 -1.673693E+06 -2.573121E-09 -2.637949E-09
       111  19 -5.948864E+06 -1.186916E+06 -4.597676E+05 -2.149530E+06  1.454147E+05  2.881252E+04
       111  20 -5.904595E+06 -1.044028E+06 -3.418863E+05 -2.140474E+06  9.587991E+04  9.202419E+03
       111  21 -5.878508E+06 -1.047672E+06 -2.927505E+05 -2.136049E+06  4.525856E+04 -7.531459E+03
       111  22 -5.005023E+06 -8.095244E+05 -1.998647E+05 -1.872181E+06  1.447704E+05  2.857759E+04
       111  23 -4.989683E+06 -6.926934E+05 -9.324870E+04 -1.886277E+06  9.618897E+04  9.322504E+03
       111  24 -4.992266E+06 -7.220913E+05 -5.453503E+04 -1.905019E+06  4.652445E+04 -7.054387E+03
       111  25 -4.060312E+06 -4.320513E+05  5.995624E+04 -1.594436E+06  1.441248E+05  2.834213E+04
       111  26 -4.073958E+06 -3.413024E+05  1.553135E+05 -1.631737E+06  9.649843E+04  9.442746E+03
       111  27 -4.105263E+06 -3.964763E+05  1.836110E+05 -1.673693E+06  4.779231E+04 -6.576626E+03
       112   1 -5.741066E+06 -1.029564E+06 -2.485835E+05 -2.111667E+06 -3.729558E+04  8.656494E+03
       112   2 -5.694267E+06 -9.607811E+05 -2.080211E+05 -2.063165E+06 -2.498716E+04  1.062634E+04
       112   3 -5.598818E+06 -9.612470E+05 -1.797863E+05 -2.073490E+06 -1.236649E+04  1.174893E+04
       112   4 -4.982542E+06 -7.408864E+05 -4.307031E+04 -1.903535E+06 -3.799864E+04  8.390757E+03
       112   5 -5.006078E+06 -7.006839E+05 -2.181262E+04 -1.876213E+06 -2.597867E+04  1.025367E+04
       112   6 -4.980904E+06 -7.296572E+05 -1.263982E+04 -1.907716E+06 -1.364803E+04  1.126919E+04
       112   7 -4.223460E+06 -4.521737E+05  1.623907E+05 -1.695170E+06 -3.870263E+04  8.124666E+03
       112   8 -4.317429E+06 -4.405589E+05  1.643534E+05 -1.689072E+06 -2.697139E+04  9.880553E+03
       112   9 -4.362620E+06 -4.980464E+05  1.544729E+05 -1.741793E+06 -1.493099E+04  1.078892E+04
       112  10 -5.741068E+06 -1.029564E+06 -2.485863E+05 -2.111667E+06 -3.453523E-09 -2.344872E-09
       112  11 -5.694268E+06 -9.607814E+05 -2.080225E+05 -2.063165E+06 -3.798441E-10  5.169243E-10
       112  12 -5.598818E+06 -9.612472E+05 -1.797869E+05 -2.073490E+06 -4.679923E-09  1.004065E-11
       112  13 -4.982543E+06 -7.408869E+05 -4.307317E+04 -1.903534E+06 -4.298294E-09 -2.309861E-09
       112  14 -5.006078E+06 -7.006842E+05 -2.181409E+04 -1.876213E+06 -6.060859E-09  1.012462E-09
       112  15 -4.980905E+06 -7.296574E+05 -1.264041E+04 -1.907716E+06 -3.560781E-10  2.183601E-10
       112  16 -4.223462E+06 -4.521741E+05  1.623877E+05 -1.695170E+06 -2.889241E-09 -3.059500E-09
       112  17 -4.317429E+06 -4.405592E+05  1.643519E+05 -1.689071E+06 -2.106076E-09  2.348098E-10
       112  18 -4.362620E+06 -4.980465E+05  1.544722E+05 -1.741793E+06  1.743104E-09  5.988192E-10
       112  19 -5.741066E+06 -1.029564E+06 -2.485835E+05 -2.111667E+06  3.729558E+04 -8.656494E+03
       112  20 -5.694267E+06 -9.607811E+05 -2.080211E+05 -2.063165E+06  2.498716E+04 -1.062634E+04
       112  21 -5.598818E+06 -9.612470E+05 -1.797863E+05 -2.073490E+06  1.236649E+04 -1.174893E+04
       112  22 -4.982542E+06 -7.408864E+05 -4.307031E+04 -1.903535E+06  3.799864E+04 -8.390757E+03
       112  23 -5.006078E+06 -7.006839E+05 -2.181262E+04 -1.876213E+06  2.597867E+04 -1.025367E+04
       112  24 -4.980904E+06 -7.296572E+05 -1.263982E+04 -1.907716E+06  1.364803E+04 -1.126919E+04
       112  25 -4.223460E+06 -4.521737E+05  1.623907E+05 -1.695170E+06  3.870263E+04 -8.124666E+03
       112  26 -4.317429E+06 -4.405589E+05  1.643534E+05 -1.689072E+06  2.697139E+04 -9.880553E+03
       112  27 -4.362620E+06 -4.980464E+05  1.544729E+05 -1.741793E+06  1.493099E+04 -1.078892E+04
       113   1 -5.417810E+06 -9.010420E+05 -1.289593E+05 -2.030199E+06 -9.856769E+03  1.037905E+04
       113   2 -5.359951E+06 -8.292653E+05 -1.002647E+05 -1.965021E+06 -5.372568E+03  8.087321E+03
       113   3 -5.232976E+06 -8.296901E+05 -7.447412E+04 -1.980171E+06 -7.648219E+02  5.453787E+03
       113   4 -4.976947E+06 -7.348476E+05 -1.005839E+04 -1.910778E+06 -1.104099E+04  9.936481E+03
       113   5 -5.011410E+06 -6.980759E+05 -6.079096E+03 -1.870867E+06 -6.676507E+03  7.600825E+03
       113   6 -4.976744E+06 -7.334776E+05 -4.906124E+03 -1.911284E+06 -2.189066E+03  4.923298E+03
       113   7 -4.535894E+06 -5.686417E+05  1.088254E+05 -1.791280E+06 -1.222614E+04  9.493562E+03
       113   8 -4.662753E+06 -5.668801E+05  8.809529E+04 -1.776666E+06 -7.981251E+03  7.114029E+03
       113   9 -4.720451E+06 -6.372622E+05  6.465539E+04 -1.842372E+06 -3.613949E+03  4.392573E+03
       113  10 -5.417810E+06 -9.010421E+05 -1.289597E+05 -2.030199E+06 -2.156371E-09 -4.828493E-11
       113  11 -5.359951E+06 -8.292654E+05 -1.002649E+05 -1.965021E+06  5.651981E-10  1.467155E-09
       113  12 -5.232976E+06 -8.296902E+05 -7.447418E+04 -1.980171E+06  8.479073E-10 -1.763299E-10
       113  13 -4.976947E+06 -7.348477E+05 -1.005880E+04 -1.910778E+06 -1.267263E-09 -2.555699E-10
       113  14 -5.011410E+06 -6.980760E+05 -6.079288E+03 -1.870867E+06 -8.213767E-10 -3.118047E-09
       113  15 -4.976744E+06 -7.334776E+05 -4.906178E+03 -1.911284E+06  3.880878E-10 -3.811205E-10
       113  16 -4.535894E+06 -5.686418E+05  1.088249E+05 -1.791280E+06  2.664262E-10  1.261623E-09
       113  17 -4.662753E+06 -5.668802E+05  8.809508E+04 -1.776666E+06  4.946232E-11 -5.371704E-10
       113  18 -4.720451E+06 -6.372623E+05  6.465533E+04 -1.842372E+06 -6.796026E-11 -1.851212E-10
       113  19 -5.417810E+06 -9.010420E+05 -1.289593E+05 -2.030199E+06  9.856769E+03 -1.037905E+04
       113  20 -5.359951E+06 -8.292653E+05 -1.002647E+05 -1.965021E+06  5.372568E+03 -8.087321E+03
       113  21 -5.232976E+06 -8.296901E+05 -7.447412E+04 -1.980171E+06  7.648219E+02 -5.453787E+03
       113  22 -4.976947E+06 -7.348476E+05 -1.005839E+04 -1.910778E+06  1.104099E+04 -9.936481E+03
       113  23 -5.011410E+06 -6.980759E+05 -6.079096E+03 -1.870867E+06  6.676507E+03 -7.600825E+03
       113  24 -4.976744E+06 -7.334776E+05 -4.906124E+03 -1.911284E+06  2.189066E+03 -4.923298E+03
       113  25 -4.535894E+06 -5.686417E+05  1.088254E+05 -1.791280E+06  1.222614E+04 -9.493562E+03
       113  26 -4.662753E+06 -5.668801E+05  8.809529E+04 -1.776666E+06  7.981251E+03 -7.114029E+03
       113  27 -4.720451E+06 -6.372622E+05  6.465539E+04 -1.842372E+06  3.613949E+03 -4.392573E+03
       114   1 -5.026704E+06 -7.537889E+05 -1.837455E+04 -1.926434E+06  8.992812E+02  3.421322E+03
       114   2 -4.965000E+06 -6.788551E+05  6.603495E+03 -1.856527E+06  5.487591E+03  6.653975E+02
       114   3 -4.830019E+06 -6.807368E+05  2.862582E+04 -1.872329E+06  1.005215E+04 -2.023086E+03
       114   4 -4.975808E+06 -7.345165E+05 -4.962729E+03 -1.912470E+06 -5.126956E+02  2.895694E+03
       114   5 -5.012532E+06 -6.967496E+05 -6.238584E+03 -1.869376E+06  4.099299E+03  1.484391E+02
       114   6 -4.975995E+06 -7.358050E+05 -1.048884E+04 -1.911994E+06  8.686977E+03 -2.531540E+03
       114   7 -4.924909E+06 -7.152438E+05  8.448977E+03 -1.898505E+06 -1.924810E+03  2.370013E+03
       114   8 -5.060063E+06 -7.146441E+05 -1.908093E+04 -1.882223E+06  2.711117E+03 -3.684783E+02
       114   9 -5.121951E+06 -7.908722E+05 -4.960557E+04 -1.951651E+06  7.322154E+03 -3.039862E+03
       114  10 -5.026704E+06 -7.537889E+05 -1.837458E+04 -1.926434E+06  1.436132E-09 -1.758933E-11
       114  11 -4.965000E+06 -6.788551E+05  6.603437E+03 -1.856527E+06 -3.887540E-09 -1.093719E-10
       114  12 -4.830019E+06 -6.807368E+05  2.862562E+04 -1.872329E+06  6.647567E-10  1.147458E-09
       114  13 -4.975808E+06 -7.345165E+05 -4.962745E+03 -1.912470E+06  8.690166E-10 -1.494203E-09
       114  14 -5.012532E+06 -6.967496E+05 -6.238616E+03 -1.869376E+06  9.930472E-11  3.934469E-09
       114  15 -4.975995E+06 -7.358050E+05 -1.048900E+04 -1.911994E+06 -1.101358E-09  1.787262E-09
       114  16 -4.924909E+06 -7.152438E+05  8.448959E+03 -1.898505E+06  1.460851E-09 -7.484100E-10
       114  17 -5.060063E+06 -7.146441E+05 -1.908095E+04 -1.882223E+06 -1.117706E-09  8.613413E-10
       114  18 -5.121951E+06 -7.908722E+05 -4.960569E+04 -1.951651E+06 -8.012553E-10  1.653388E-09
       114  19 -5.026704E+06 -7.537889E+05 -1.837455E+04 -1.926434E+06 -8.992812E+02 -3.421322E+03
       114  20 -4.965000E+06 -6.788551E+05  6.603495E+03 -1.856527E+06 -5.487591E+03 -6.653975E+02
       114  21 -4.830019E+06 -6.807368E+05  2.862582E+04 -1.872329E+06 -1.005215E+04  2.023086E+03
       114  22 -4.975808E+06 -7.345165E+05 -4.962729E+03 -1.912470E+06  5.126956E+02 -2.895694E+03
       114  23 -5.012532E+06 -6.967496E+05 -6.238584E+03 -1.869376E+06 -4.099299E+03 -1.484391E+02
       114  24 -4.975995E+06 -7.358050E+05 -1.048884E+04 -1.911994E+06 -8.686977E+03  2.531540E+03
       114  25 -4.924909E+06 -7.152438E+05  8.448977E+03 -1.898505E+06  1.924810E+03 -2.370013E+03
       114  26 -5.060063E+06 -7.146441E+05 -1.908093E+04 -1.882223E+06 -2.711117E+03  3.684783E+02
       114  27 -5.121951E+06 -7.908722E+05 -4.960557E+04 -1.951651E+06 -7.322154E+03  3.039862E+03
       115   1 -4.630350E+06 -6.029109E+05  8.081609E+04 -1.818655E+06  1.292756E+04 -3.575478E+03
       115   2 -4.573837E+06 -5.325194E+05  9.491342E+04 -1.753843E+06  2.577228E+04 -3.017983E+03
       115   3 -4.456849E+06 -5.449745E+05  9.632363E+04 -1.762947E+06  3.839547E+04 -1.847858E+03
       115   4 -4.978220E+06 -7.324511E+05 -1.324924E+04 -1.911140E+06  1.148782E+04 -4.112133E+03
       115   5 -5.009278E+06 -6.968588E+05 -2.278817E+04 -1.872006E+06  2.454272E+04 -3.477313E+03
       115   6 -4.979914E+06 -7.441658E+05 -4.518886E+04 -1.906793E+06  3.737429E+04 -2.230364E+03
       115   7 -5.325970E+06 -8.619842E+05 -1.073246E+05 -2.003578E+06  1.004898E+04 -4.648459E+03
       115   8 -5.444535E+06 -8.611867E+05 -1.405064E+05 -1.990094E+06  2.331411E+04 -3.936286E+03
       115   9 -5.502717E+06 -9.433404E+05 -1.867264E+05 -2.050529E+06  3.635406E+04 -2.612511E+03
       115  10 -4.630350E+06 -6.029109E+05  8.081575E+04 -1.818654E+06 -3.853760E-10  2.177740E-09
       115  11 -4.573838E+06 -5.325195E+05  9.491215E+04 -1.753843E+06  2.846700E-10  2.110758E-09
       115  12 -4.456850E+06 -5.449749E+05  9.632084E+04 -1.762947E+06 -6.153740E-10  8.330003E-11
       115  13 -4.978220E+06 -7.324512E+05 -1.324952E+04 -1.911140E+06 -4.679151E-09  1.269337E-09
       115  14 -5.009279E+06 -6.968589E+05 -2.278933E+04 -1.872006E+06 -7.512664E-09 -3.276840E-11
       115  15 -4.979916E+06 -7.441661E+05 -4.519151E+04 -1.906793E+06 -3.762629E-09 -1.754603E-09
       115  16 -5.325970E+06 -8.619843E+05 -1.073248E+05 -2.003578E+06 -1.015361E-09  1.285373E-09
       115  17 -5.444535E+06 -8.611869E+05 -1.405075E+05 -1.990094E+06 -4.729277E-09 -5.663133E-10
       115  18 -5.502718E+06 -9.433407E+05 -1.867289E+05 -2.050529E+06 -3.891077E-09 -4.981535E-10
       115  19 -4.630350E+06 -6.029109E+05  8.081609E+04 -1.818655E+06 -1.292756E+04  3.575478E+03
       115  20 -4.573837E+06 -5.325194E+05  9.491342E+04 -1.753843E+06 -2.577228E+04  3.017983E+03
       115  21 -4.456849E+06 -5.449745E+05  9.632363E+04 -1.762947E+06 -3.839547E+04  1.847858E+03
       115  22 -4.978220E+06 -7.324511E+05 -1.324924E+04 -1.911140E+06 -1.148782E+04  4.112133E+03
       115  23 -5.009278E+06 -6.968588E+05 -2.278817E+04 -1.872006E+06 -2.454272E+04  3.477313E+03
       115  24 -4.979914E+06 -7.441658E+05 -4.518886E+04 -1.906793E+06 -3.737429E+04  2.230364E+03
       115  25 -5.325970E+06 -8.619842E+05 -1.073246E+05 -2.003578E+06 -1.004898E+04  4.648459E+03
       115  26 -5.444535E+06 -8.611867E+05 -1.405064E+05 -1.990094E+06 -2.331411E+04  3.936286E+03
       115  27 -5.502717E+06 -9.433404E+05 -1.867264E+05 -2.050529E+06 -3.635406E+04  2.612511E+03
       116   1 -4.291428E+06 -4.734066E+05  1.294396E+05 -1.731810E+06  4.806771E+04 -6.903971E+02
       116   2 -4.243287E+06 -3.979888E+05  1.061414E+05 -1.671212E+06  9.955978E+04  1.522263E+04
       116   3 -4.196710E+06 -4.937130E+05  1.221864E+04 -1.636435E+06  1.500348E+05  3.387524E+04
       116   4 -4.988455E+06 -7.261241E+05 -5.722060E+04 -1.910237E+06  4.649525E+04 -1.278894E+03
       116   5 -4.994187E+06 -6.863521E+05 -9.773342E+04 -1.880161E+06  9.890431E+04  1.497415E+04
       116   6 -5.001730E+06 -8.180071E+05 -2.096711E+05 -1.875902E+06  1.502908E+05  3.396339E+04
       116   7 -5.685013E+06 -9.788230E+05 -2.439234E+05 -2.088486E+06  4.492472E+04 -1.866734E+03
       116   8 -5.744540E+06 -9.746769E+05 -3.016589E+05 -2.088879E+06  9.824966E+04  1.472598E+04
       116   9 -5.806119E+06 -1.142238E+06 -4.316203E+05 -2.115077E+06  1.505464E+05  3.405132E+04
       116  10 -4.291430E+06 -4.734072E+05  1.294352E+05 -1.731810E+06 -2.234124E-09 -9.042611E-10
       116  11 -4.243298E+06 -3.979918E+05  1.061221E+05 -1.671213E+06 -2.109750E-09 -7.294270E-11
       116  12 -4.196735E+06 -4.937203E+05  1.217385E+04 -1.636439E+06 -4.213437E-10 -5.977230E-10
       116  13 -4.988457E+06 -7.261247E+05 -5.722470E+04 -1.910237E+06 -2.739767E-09 -1.098427E-09
       116  14 -4.994198E+06 -6.863550E+05 -9.775239E+04 -1.880162E+06 -1.209153E-09  5.186856E-10
       116  15 -5.001755E+06 -8.180145E+05 -2.097161E+05 -1.875906E+06 -2.191327E-09 -1.160711E-09
       116  16 -5.685015E+06 -9.788235E+05 -2.439272E+05 -2.088486E+06 -2.513201E-09 -9.613834E-10
       116  17 -5.744550E+06 -9.746798E+05 -3.016776E+05 -2.088880E+06 -2.092789E-09 -1.649072E-10
       116  18 -5.806144E+06 -1.142246E+06 -4.316656E+05 -2.115081E+06 -2.221501E-09 -1.043220E-09
       116  19 -4.291428E+06 -4.734066E+05  1.294396E+05 -1.731810E+06 -4.806771E+04  6.903971E+02
       116  20 -4.243287E+06 -3.979888E+05  1.061414E+05 -1.671212E+06 -9.955978E+04 -1.522263E+04
       116  21 -4.196710E+06 -4.937130E+05  1.221864E+04 -1.636435E+06 -1.500348E+05 -3.387524E+04
       116  22 -4.988455E+06 -7.261241E+05 -5.722060E+04 -1.910237E+06 -4.649525E+04  1.278894E+03
       116  23 -4.994187E+06 -6.863521E+05 -9.773342E+04 -1.880161E+06 -9.890431E+04 -1.497415E+04
       116  24 -5.001730E+06 -8.180071E+05 -2.096711E+05 -1.875902E+06 -1.502908E+05 -3.396339E+04
       116  25 -5.685013E+06 -9.788230E+05 -2.439234E+05 -2.088486E+06 -4.492472E+04  1.866734E+03
       116  26 -5.744540E+06 -9.746769E+05 -3.016589E+05 -2.088879E+06 -9.824966E+04 -1.472598E+04
       116  27 -5.806119E+06 -1.142238E+06 -4.316203E+05 -2.115077E+06 -1.505464E+05 -3.405132E+04
       117   1 -4.061295E+06 -4.072615E+05 -6.500788E+03 -1.744571E+06  1.935943E+05  4.573342E+04
       117   2 -3.989968E+06 -1.778049E+05 -1.575785E+05 -1.610187E+06  4.154053E+05  1.268953E+05
       117   3 -4.283102E+06 -9.259504E+05 -7.352254E+05 -1.252241E+06  6.296156E+05  2.282721E+05
       117   4 -5.040092E+06 -7.006276E+05 -2.560770E+05 -1.932255E+06  1.890544E+05  4.405233E+04
       117   5 -4.909401E+06 -5.718537E+05 -4.148225E+05 -1.908083E+06  4.177407E+05  1.277347E+05
       117   6 -5.145145E+06 -1.423005E+06 -1.006123E+06 -1.660177E+06  6.388404E+05  2.315436E+05
       117   7 -6.017956E+06 -9.940110E+05 -5.057263E+05 -2.119710E+06  1.845222E+05  4.237275E+04
       117   8 -5.828004E+06 -9.657822E+05 -6.721461E+05 -2.205552E+06  4.200717E+05  1.285721E+05
       117   9 -6.006385E+06 -1.919662E+06 -1.277089E+06 -2.067498E+06  6.480505E+05  2.348029E+05
       117  10 -4.061336E+06 -4.072739E+05 -6.575713E+03 -1.744578E+06 -5.288489E-10 -1.056942E-09
       117  11 -3.990159E+06 -1.778691E+05 -1.579357E+05 -1.610230E+06  2.715494E-09 -6.580990E-10
       117  12 -4.283545E+06 -9.261141E+05 -7.360747E+05 -1.252357E+06  2.942588E-11 -7.545515E-10
       117  13 -5.040131E+06 -7.006394E+05 -2.561484E+05 -1.932262E+06 -2.729436E-09 -7.765309E-10
       117  14 -4.909594E+06 -5.719188E+05 -4.151844E+05 -1.908126E+06 -5.478877E-09  2.461527E-09
       117  15 -5.145601E+06 -1.423174E+06 -1.006998E+06 -1.660297E+06 -9.753591E-11  4.608503E-11
       117  16 -6.017994E+06 -9.940222E+05 -5.057944E+05 -2.119716E+06  1.238098E-09 -1.294884E-09
       117  17 -5.828199E+06 -9.658481E+05 -6.725127E+05 -2.205596E+06 -3.479584E-09  5.213203E-10
       117  18 -6.006855E+06 -1.919836E+06 -1.277992E+06 -2.067621E+06  1.904263E-09 -1.105703E-09
       117  19 -4.061295E+06 -4.072615E+05 -6.500788E+03 -1.744571E+06 -1.935943E+05 -4.573342E+04
       117  20 -3.989968E+06 -1.778049E+05 -1.575785E+05 -1.610187E+06 -4.154053E+05 -1.268953E+05
       117  21 -4.283102E+06 -9.259504E+05 -7.352254E+05 -1.252241E+06 -6.296156E+05 -2.282721E+05
       117  22 -5.040092E+06 -7.006276E+05 -2.560770E+05 -1.932255E+06 -1.890544E+05 -4.405233E+04
       117  23 -4.909401E+06 -5.718537E+05 -4.148225E+05 -1.908083E+06 -4.177407E+05 -1.277347E+05
       117  24 -5.145145E+06 -1.423005E+06 -1.006123E+06 -1.660177E+06 -6.388404E+05 -2.315436E+05
       117  25 -6.017956E+06 -9.940110E+05 -5.057263E+05 -2.119710E+06 -1.845222E+05 -4.237275E+04
       117  26 -5.828004E+06 -9.657822E+05 -6.721461E+05 -2.205552E+06 -4.200717E+05 -1.285721E+05
       117  27 -6.006385E+06 -1.919662E+06 -1.277089E+06 -2.067498E+06 -6.480505E+05 -2.348029E+05
       118   1 -1.109738E+06  1.464853E+05  2.171147E+05  2.912678E+04  2.078773E+05  2.563790E+03
       118   2 -1.145262E+06 -1.386819E+05  4.494099E+04  9.541472E+03  1.372720E+05  6.334860E+03
       118   3 -1.088359E+06 -9.392674E+04  1.439644E+03 -2.713501E+04  6.667393E+04  5.332563E+03
       118   4 -7.485418E+05  2.365838E+05  3.071299E+05 -8.842968E+03  2.094781E+05  2.554434E+03
       118   5 -7.948900E+05 -5.122681E+04  1.316664E+05 -2.367920E+01  1.376903E+05  6.333190E+03
       118   6 -7.486574E+05 -9.011772E+03  8.564415E+04 -8.296257E+03  6.591112E+04  5.333297E+03
       118   7 -3.872243E+05  3.266779E+05  3.971362E+05 -4.683491E+04  2.110799E+05  2.544888E+03
       118   8 -4.444060E+05  3.621947E+04  2.183827E+05 -9.594295E+03  1.381089E+05  6.331509E+03
       118   9 -4.088504E+05  7.589586E+04  1.698402E+05  1.055279E+04  6.514789E+04  5.333985E+03
       118  10 -1.109784E+06  1.464736E+05  2.170334E+05  2.912635E+04 -4.857767E-11  1.639322E-09
       118  11 -1.145282E+06 -1.386870E+05  4.490544E+04  9.540772E+03  2.001101E-09  3.761683E-10
       118  12 -1.088363E+06 -9.392797E+04  1.431222E+03 -2.713530E+04  1.248095E-09 -8.388065E-10
       118  13 -7.485890E+05  2.365720E+05  3.070474E+05 -8.843399E+03 -2.784717E-10  8.532724E-10
       118  14 -7.949104E+05 -5.123195E+04  1.316307E+05 -2.438159E+01  3.419297E-09 -1.581781E-09
       118  15 -7.486621E+05 -9.012971E+03  8.563592E+04 -8.296541E+03 -4.401864E-10 -3.134006E-10
       118  16 -3.872722E+05  3.266660E+05  3.970524E+05 -4.683534E+04  1.723353E-09 -1.780821E-11
       118  17 -4.444265E+05  3.621431E+04  2.183468E+05 -9.594999E+03  4.422794E-09  6.513667E-10
       118  18 -4.088550E+05  7.589468E+04  1.698322E+05  1.055251E+04 -3.585247E-09 -6.182427E-10
       118  19 -1.109738E+06  1.464853E+05  2.171147E+05  2.912678E+04 -2.078773E+05 -2.563790E+03
       118  20 -1.145262E+06 -1.386819E+05  4.494099E+04  9.541472E+03 -1.372720E+05 -6.334860E+03
       118  21 -1.088359E+06 -9.392674E+04  1.439644E+03 -2.713501E+04 -6.667393E+04 -5.332563E+03
       118  22 -7.485418E+05  2.365838E+05  3.071299E+05 -8.842968E+03 -2.094781E+05 -2.554434E+03
       118  23 -7.948900E+05 -5.122681E+04  1.316664E+05 -2.367920E+01 -1.376903E+05 -6.333190E+03
       118  24 -7.486574E+05 -9.011772E+03  8.564415E+04 -8.296257E+03 -6.591112E+04 -5.333297E+03
       118  25 -3.872243E+05  3.266779E+05  3.971362E+05 -4.683491E+04 -2.110799E+05 -2.544888E+03
       118  26 -4.444060E+05  3.621947E+04  2.183827E+05 -9.594295E+03 -1.381089E+05 -6.331509E+03
       118  27 -4.088504E+05  7.589586E+04  1.698402E+05  1.055279E+04 -6.514789E+04 -5.333985E+03
       119   1 -1.058833E+06 -3.949069E+04 -1.935342E+03 -4.331911E+03  5.177710E+04  4.330551E+03
       119   2 -1.052951E+06 -7.719456E+04 -3.517877E+04  2.116117E+03  3.413109E+04  4.457329E+03
       119   3 -1.032570E+06 -6.784961E+04 -4.506824E+04 -1.202156E+04  1.648544E+04  3.878013E+03
       119   4 -7.659703E+05  3.365082E+04  7.068329E+04 -9.270182E+03  5.191374E+04  4.330149E+03
       119   5 -7.732422E+05 -7.336222E+03  3.412665E+04  1.041969E+03  3.409096E+04  4.457101E+03
       119   6 -7.659912E+05 -1.255302E+03  2.103910E+04 -9.230977E+03  1.626893E+04  3.877879E+03
       119   7 -4.730297E+05  1.067860E+05  1.432955E+05 -1.421081E+04  5.205043E+04  4.329746E+03
       119   8 -4.934627E+05  6.251625E+04  1.034262E+05 -3.267924E+01  3.405081E+04  4.456872E+03
       119   9 -4.993480E+05  6.533370E+04  8.714114E+04 -6.439204E+03  1.605232E+04  3.877742E+03
       119  10 -1.058836E+06 -3.949143E+04 -1.940424E+03 -4.332091E+03 -9.522566E-10 -1.671815E-09
       119  11 -1.052952E+06 -7.719489E+04 -3.518100E+04  2.115995E+03  1.241772E-10  1.066232E-09
       119  12 -1.032570E+06 -6.784970E+04 -4.506878E+04 -1.202161E+04  7.539935E-10 -5.584996E-10
       119  13 -7.659732E+05  3.365007E+04  7.067819E+04 -9.270363E+03 -1.286141E-09 -1.019701E-09
       119  14 -7.732435E+05 -7.336556E+03  3.412443E+04  1.041847E+03  9.469591E-10  2.548099E-10
       119  15 -7.659915E+05 -1.255389E+03  2.103857E+04 -9.231028E+03  3.708165E-10 -1.703733E-10
       119  16 -4.730326E+05  1.067852E+05  1.432904E+05 -1.421099E+04 -2.820408E-09  1.528302E-10
       119  17 -4.934639E+05  6.251592E+04  1.034240E+05 -3.280147E+01  1.558077E-09 -7.074637E-10
       119  18 -4.993483E+05  6.533362E+04  8.714062E+04 -6.439254E+03  1.059211E-09  8.688681E-10
       119  19 -1.058833E+06 -3.949069E+04 -1.935342E+03 -4.331911E+03 -5.177710E+04 -4.330551E+03
       119  20 -1.052951E+06 -7.719456E+04 -3.517877E+04  2.116117E+03 -3.413109E+04 -4.457329E+03
       119  21 -1.032570E+06 -6.784961E+04 -4.506824E+04 -1.202156E+04 -1.648544E+04 -3.878013E+03
       119  22 -7.659703E+05  3.365082E+04  7.068329E+04 -9.270182E+03 -5.191374E+04 -4.330149E+03
       119  23 -7.732422E+05 -7.336222E+03  3.412665E+04  1.041969E+03 -3.409096E+04 -4.457101E+03
       119  24 -7.659912E+05 -1.255302E+03  2.103910E+04 -9.230977E+03 -1.626893E+04 -3.877879E+03
       119  25 -4.730297E+05  1.067860E+05  1.432955E+05 -1.421081E+04 -5.205043E+04 -4.329746E+03
       119  26 -4.934627E+05  6.251625E+04  1.034262E+05 -3.267924E+01 -3.405081E+04 -4.456872E+03
       119  27 -4.993480E+05  6.533370E+04  8.714114E+04 -6.439204E+03 -1.605232E+04 -3.877742E+03
       120   1 -9.792630E+05 -4.785346E+04 -3.540519E+04 -9.299447E+03  1.295040E+04  3.478541E+03
       120   2 -9.654224E+05 -4.988670E+04 -3.976893E+04  2.006236E+03  8.556171E+03  3.047828E+03
       120   3 -9.491469E+05 -4.524431E+04 -3.956034E+04 -1.027891E+04  4.161438E+03  2.479487E+03
       120   4 -7.686644E+05  4.738652E+03  1.675267E+04 -9.911458E+03  1.286687E+04  3.478428E+03
       120   5 -7.698870E+05 -1.050516E+03  8.686148E+03  1.884348E+03  8.438302E+03  3.047759E+03
       120   6 -7.686698E+05 -1.593251E+02  5.214660E+03 -9.910192E+03  4.009339E+03  2.479475E+03
       120   7 -5.580255E+05  5.732744E+04  6.890723E+04 -1.052368E+04  1.278331E+04  3.478316E+03
       120   8 -5.743167E+05  4.778280E+04  5.713837E+04  1.762422E+03  8.320396E+03  3.047691E+03
       120   9 -5.881630E+05  4.492322E+04  4.998722E+04 -9.541363E+03  3.857195E+03  2.479463E+03
       120  10 -9.792631E+05 -4.785352E+04 -3.540553E+04 -9.299483E+03 -1.649769E-10 -3.903877E-10
       120  11 -9.654225E+05 -4.988673E+04 -3.976908E+04  2.006215E+03  1.284629E-09  3.266723E-10
       120  12 -9.491469E+05 -4.524432E+04 -3.956038E+04 -1.027892E+04 -7.153964E-10  3.014775E-10
       120  13 -7.686646E+05  4.738594E+03  1.675234E+04 -9.911494E+03  3.205049E-09 -1.681718E-10
       120  14 -7.698871E+05 -1.050545E+03  8.685997E+03  1.884328E+03  9.286159E-10 -5.092209E-11
       120  15 -7.686698E+05 -1.593361E+02  5.214618E+03 -9.910200E+03  3.394340E-09  2.960330E-10
       120  16 -5.580257E+05  5.732738E+04  6.890690E+04 -1.052372E+04  1.621482E-09  1.599708E-10
       120  17 -5.743168E+05  4.778277E+04  5.713822E+04  1.762402E+03  1.613795E-09 -4.451386E-10
       120  18 -5.881630E+05  4.492321E+04  4.998719E+04 -9.541371E+03  2.614169E-09  6.762003E-10
       120  19 -9.792630E+05 -4.785346E+04 -3.540519E+04 -9.299447E+03 -1.295040E+04 -3.478541E+03
       120  20 -9.654224E+05 -4.988670E+04 -3.976893E+04  2.006236E+03 -8.556171E+03 -3.047828E+03
       120  21 -9.491469E+05 -4.524431E+04 -3.956034E+04 -1.027891E+04 -4.161438E+03 -2.479487E+03
       120  22 -7.686644E+05  4.738652E+03  1.675267E+04 -9.911458E+03 -1.286687E+04 -3.478428E+03
       120  23 -7.698870E+05 -1.050516E+03  8.686148E+03  1.884348E+03 -8.438302E+03 -3.047759E+03
       120  24 -7.686698E+05 -1.593251E+02  5.214660E+03 -9.910192E+03 -4.009339E+03 -2.479475E+03
       120  25 -5.580255E+05  5.732744E+04  6.890723E+04 -1.052368E+04 -1.278331E+04 -3.478316E+03
       120  26 -5.743167E+05  4.778280E+04  5.713837E+04  1.762422E+03 -8.320396E+03 -3.047691E+03
       120  27 -5.881630E+05  4.492322E+04  4.998722E+04 -9.541363E+03 -3.857195E+03 -2.479463E+03
       121   1 -8.873213E+05 -2.885391E+04 -2.517539E+04 -1.023141E+04  3.297849E+03  2.134598E+03
       121   2 -8.712498E+05 -2.560819E+04 -2.302279E+04  2.450725E+03  2.183174E+03  1.582847E+03
       121   3 -8.547681E+05 -2.140046E+04 -1.989846E+04 -1.035442E+04  1.068245E+03  9.933880E+02
       121   4 -7.691140E+05  6.585877E+02  4.070052E+03 -1.033182E+04  3.170398E+03  2.134611E+03
       121   5 -7.693205E+05 -1.520238E+02  2.235348E+03  2.411577E+03  2.046487E+03  1.582890E+03
       121   6 -7.691158E+05  8.987304E-01  1.378680E+03 -1.033203E+04  9.223512E+02  9.934630E+02
       121   7 -6.508939E+05  3.017004E+04  3.331445E+04 -1.043225E+04  3.042922E+03  2.134625E+03
       121   8 -6.673819E+05  2.530336E+04  2.749272E+04  2.372424E+03  1.909778E+03  1.582933E+03
       121   9 -6.834567E+05  2.140170E+04  2.265527E+04 -1.030965E+04  7.764377E+02  9.935379E+02
       121  10 -8.873214E+05 -2.885391E+04 -2.517542E+04 -1.023141E+04 -1.835300E-09 -8.418186E-11
       121  11 -8.712498E+05 -2.560819E+04 -2.302281E+04  2.450722E+03 -3.276889E-10  3.194068E-10
       121  12 -8.547681E+05 -2.140046E+04 -1.989846E+04 -1.035442E+04 -1.829216E-09  2.880617E-10
       121  13 -7.691140E+05  6.585801E+02  4.070025E+03 -1.033183E+04  2.496154E-09  5.817320E-10
       121  14 -7.693205E+05 -1.520276E+02  2.235336E+03  2.411575E+03 -1.159437E-09 -5.991864E-10
       121  15 -7.691158E+05  8.974422E-01  1.378677E+03 -1.033204E+04 -4.548495E-10 -5.101681E-10
       121  16 -6.508940E+05  3.017003E+04  3.331443E+04 -1.043226E+04  1.139803E-09  2.120670E-10
       121  17 -6.673819E+05  2.530336E+04  2.749271E+04  2.372422E+03  2.815665E-09 -6.141190E-10
       121  18 -6.834567E+05  2.140170E+04  2.265527E+04 -1.030965E+04  3.811248E-10 -4.931255E-10
       121  19 -8.873213E+05 -2.885391E+04 -2.517539E+04 -1.023141E+04 -3.297849E+03 -2.134598E+03
       121  20 -8.712498E+05 -2.560819E+04 -2.302279E+04  2.450725E+03 -2.183174E+03 -1.582847E+03
       121  21 -8.547681E+05 -2.140046E+04 -1.989846E+04 -1.035442E+04 -1.068245E+03 -9.933880E+02
       121  22 -7.691140E+05  6.585877E+02  4.070052E+03 -1.033182E+04 -3.170398E+03 -2.134611E+03
       121  23 -7.693205E+05 -1.520238E+02  2.235348E+03  2.411577E+03 -2.046487E+03 -1.582890E+03
       121  24 -7.691158E+05  8.987305E-01  1.378680E+03 -1.033203E+04 -9.223512E+02 -9.934630E+02
       121  25 -6.508939E+05  3.017004E+04  3.331445E+04 -1.043225E+04 -3.042922E+03 -2.134625E+03
       121  26 -6.673819E+05  2.530336E+04  2.749272E+04  2.372424E+03 -1.909778E+03 -1.582933E+03
       121  27 -6.834567E+05  2.140170E+04  2.265527E+04 -1.030965E+04 -7.764377E+02 -9.935379E+02
       122   1 -7.893011E+05 -4.915403E+03 -3.823709E+03 -1.046233E+04  8.394706E+02  6.415898E+02
       122   2 -7.726272E+05 -8.854142E+02 -8.607413E+01  2.597358E+03  4.592617E+02  5.145982E+01
       122   3 -7.558834E+05  3.382836E+03  3.950677E+03 -1.050297E+04  7.904542E+01 -5.315271E+02
       122   4 -7.691894E+05  9.685010E+01  1.108261E+03 -1.048149E+04  6.970704E+02  6.416756E+02
       122   5 -7.692242E+05 -3.556544E+01  7.573093E+02  2.598509E+03  3.185640E+02  5.154499E+01
       122   6 -7.691895E+05  7.006432E+01  7.043642E+02 -1.048150E+04 -5.993961E+01 -5.314416E+02
       122   7 -7.490772E+05  5.109073E+03  6.040201E+03 -1.050065E+04  5.546655E+02  6.417613E+02
       122   8 -7.658212E+05  8.142824E+02  1.600692E+03  2.599660E+03  1.778655E+02  5.163017E+01
       122   9 -7.824955E+05 -3.242720E+03 -2.541962E+03 -1.046003E+04 -1.989217E+02 -5.313561E+02
       122  10 -7.893011E+05 -4.915403E+03 -3.823711E+03 -1.046233E+04 -5.562934E-10  2.751848E-10
       122  11 -7.726272E+05 -8.854142E+02 -8.607453E+01  2.597358E+03 -4.134444E-10  2.184321E-10
       122  12 -7.558834E+05  3.382836E+03  3.950677E+03 -1.050297E+04 -5.719568E-10 -8.269967E-10
       122  13 -7.691894E+05  9.684953E+01  1.108259E+03 -1.048149E+04  1.450790E-09  6.967732E-10
       122  14 -7.692242E+05 -3.556547E+01  7.573091E+02  2.598509E+03 -3.948585E-09  7.874123E-10
       122  15 -7.691895E+05  7.006401E+01  7.043637E+02 -1.048150E+04 -2.672246E-09 -1.306536E-09
       122  16 -7.490772E+05  5.109072E+03  6.040200E+03 -1.050065E+04 -5.758777E-10  1.213768E-10
       122  17 -7.658212E+05  8.142824E+02  1.600692E+03  2.599660E+03  9.056861E-10  3.222149E-10
       122  18 -7.824955E+05 -3.242721E+03 -2.541962E+03 -1.046003E+04  9.361986E-10 -1.652174E-10
       122  19 -7.893011E+05 -4.915403E+03 -3.823709E+03 -1.046233E+04 -8.394706E+02 -6.415898E+02
       122  20 -7.726272E+05 -8.854142E+02 -8.607413E+01  2.597358E+03 -4.592617E+02 -5.145982E+01
       122  21 -7.558834E+05  3.382836E+03  3.950677E+03 -1.050297E+04 -7.904542E+01  5.315271E+02
       122  22 -7.691894E+05  9.685010E+01  1.108261E+03 -1.048149E+04 -6.970704E+02 -6.416756E+02
       122  23 -7.692242E+05 -3.556544E+01  7.573093E+02  2.598509E+03 -3.185640E+02 -5.154499E+01
       122  24 -7.691895E+05  7.006432E+01  7.043642E+02 -1.048150E+04  5.993961E+01  5.314416E+02
       122  25 -7.490772E+05  5.109073E+03  6.040201E+03 -1.050065E+04 -5.546655E+02 -6.417613E+02
       122  26 -7.658212E+05  8.142824E+02  1.600692E+03  2.599660E+03 -1.778655E+02 -5.163017E+01
       122  27 -7.824955E+05 -3.242720E+03 -2.541962E+03 -1.046003E+04  1.989217E+02  5.313561E+02
       123   1 -6.901906E+05  1.973796E+04  2.035923E+04 -1.034911E+04 -3.635171E+01 -8.917661E+02
       123   2 -6.739791E+05  2.369126E+04  2.457824E+04  2.389560E+03 -5.518426E+02 -1.488616E+03
       123   3 -6.575150E+05  2.832050E+04  2.930513E+04 -1.044223E+04 -1.067119E+03 -1.988706E+03
       123   4 -7.691519E+05  9.627084E+00  7.423517E+02 -1.035061E+04 -1.911304E+02 -8.916826E+02
       123   5 -7.692753E+05 -1.052600E+02  9.678654E+02  2.434821E+03 -6.833544E+02 -1.488571E+03
       123   6 -7.691506E+05  4.517716E+02  1.685103E+03 -1.035046E+04 -1.175350E+03 -1.988692E+03
       123   7 -8.481075E+05 -1.971918E+04 -1.887499E+04 -1.035211E+04 -3.458893E+02 -8.915990E+02
       123   8 -8.645632E+05 -2.390246E+04 -2.264318E+04  2.480075E+03 -8.148460E+02 -1.488526E+03
       123   9 -8.807748E+05 -2.741789E+04 -2.593585E+04 -1.025870E+04 -1.283562E+03 -1.988677E+03
       123  10 -6.901906E+05  1.973796E+04  2.035923E+04 -1.034911E+04  1.045846E-09  3.662354E-11
       123  11 -6.739791E+05  2.369125E+04  2.457823E+04  2.389560E+03 -1.966720E-10  4.670183E-10
       123  12 -6.575151E+05  2.832049E+04  2.930512E+04 -1.044223E+04 -7.419179E-10  2.734395E-10
       123  13 -7.691519E+05  9.626220E+00  7.423501E+02 -1.035061E+04 -2.111608E-10 -9.195915E-10
       123  14 -7.692753E+05 -1.052625E+02  9.678603E+02  2.434820E+03  3.948877E-09 -3.300384E-10
       123  15 -7.691506E+05  4.517669E+02  1.685093E+03 -1.035046E+04  2.991335E-09  4.020490E-10
       123  16 -8.481075E+05 -1.971918E+04 -1.887499E+04 -1.035211E+04  2.044515E-09  5.998219E-10
       123  17 -8.645632E+05 -2.390246E+04 -2.264319E+04  2.480074E+03  1.899559E-09 -4.341499E-10
       123  18 -8.807748E+05 -2.741789E+04 -2.593586E+04 -1.025870E+04 -8.219749E-11  3.333836E-10
       123  19 -6.901906E+05  1.973796E+04  2.035923E+04 -1.034911E+04  3.635171E+01  8.917661E+02
       123  20 -6.739791E+05  2.369126E+04  2.457824E+04  2.389560E+03  5.518426E+02  1.488616E+03
       123  21 -6.575150E+05  2.832050E+04  2.930513E+04 -1.044223E+04  1.067119E+03  1.988706E+03
       123  22 -7.691519E+05  9.627084E+00  7.423517E+02 -1.035061E+04  1.911304E+02  8.916826E+02
       123  23 -7.692753E+05 -1.052600E+02  9.678654E+02  2.434821E+03  6.833544E+02  1.488571E+03
       123  24 -7.691506E+05  4.517716E+02  1.685103E+03 -1.035046E+04  1.175350E+03  1.988692E+03
       123  25 -8.481075E+05 -1.971918E+04 -1.887499E+04 -1.035211E+04  3.458893E+02  8.915990E+02
       123  26 -8.645632E+05 -2.390246E+04 -2.264318E+04  2.480075E+03  8.148460E+02  1.488526E+03
       123  27 -8.807748E+05 -2.741789E+04 -2.593585E+04 -1.025870E+04  1.283562E+03  1.988677E+03
       124   1 -5.946318E+05  4.340817E+04  4.530293E+04 -9.721160E+03 -1.300781E+03 -2.402046E+03
       124   2 -5.802293E+05  4.658166E+04  5.021648E+04  1.810979E+03 -3.165203E+03 -3.011270E+03
       124   3 -5.642685E+05  5.430468E+04  5.751783E+04 -1.040561E+04 -5.029418E+03 -3.042364E+03
       124   4 -7.688710E+05 -1.089886E+02  2.085991E+03 -9.945629E+03 -1.516011E+03 -2.402037E+03
       124   5 -7.696364E+05 -7.110420E+02  3.300261E+03  1.928604E+03 -3.241308E+03 -3.011330E+03
       124   6 -7.688675E+05  3.213022E+03  6.806167E+03 -9.946333E+03 -4.966351E+03 -3.042417E+03
       124   7 -9.430826E+05 -4.362842E+04 -4.113321E+04 -1.017003E+04 -1.731181E+03 -2.402027E+03
       124   8 -9.590109E+05 -4.800643E+04 -4.361863E+04  2.046192E+03 -3.317389E+03 -3.011389E+03
       124   9 -9.734284E+05 -4.788177E+04 -4.390862E+04 -9.487211E+03 -4.903305E+03 -3.042469E+03
       124  10 -5.946318E+05  4.340816E+04  4.530292E+04 -9.721162E+03 -2.626648E-09 -6.956791E-10
       124  11 -5.802293E+05  4.658165E+04  5.021644E+04  1.810971E+03 -2.350955E-09 -1.293934E-10
       124  12 -5.642685E+05  5.430466E+04  5.751777E+04 -1.040562E+04 -2.811026E-10  3.872084E-10
       124  13 -7.688710E+05 -1.089954E+02  2.085976E+03 -9.945632E+03  4.006801E-12 -1.032056E-10
       124  14 -7.696364E+05 -7.110545E+02  3.300224E+03  1.928596E+03 -3.371988E-09 -2.664689E-10
       124  15 -7.688675E+05  3.213006E+03  6.806103E+03 -9.946345E+03  3.026441E-09 -3.425217E-11
       124  16 -9.430826E+05 -4.362843E+04 -4.113323E+04 -1.017004E+04  1.590071E-10 -2.569618E-11
       124  17 -9.590109E+05 -4.800644E+04 -4.361867E+04  2.046184E+03  2.550901E-09 -4.347460E-10
       124  18 -9.734284E+05 -4.788179E+04 -4.390868E+04 -9.487223E+03  9.218547E-10  5.069353E-11
       124  19 -5.946318E+05  4.340817E+04  4.530293E+04 -9.721160E+03  1.300781E+03  2.402046E+03
       124  20 -5.802293E+05  4.658166E+04  5.021648E+04  1.810979E+03  3.165203E+03  3.011270E+03
       124  21 -5.642685E+05  5.430468E+04  5.751783E+04 -1.040561E+04  5.029418E+03  3.042364E+03
       124  22 -7.688710E+05 -1.089886E+02  2.085991E+03 -9.945629E+03  1.516011E+03  2.402037E+03
       124  23 -7.696364E+05 -7.110420E+02  3.300261E+03  1.928604E+03  3.241308E+03  3.011330E+03
       124  24 -7.688675E+05  3.213022E+03  6.806167E+03 -9.946333E+03  4.966351E+03  3.042417E+03
       124  25 -9.430826E+05 -4.362842E+04 -4.113321E+04 -1.017003E+04  1.731181E+03  2.402027E+03
       124  26 -9.590109E+05 -4.800643E+04 -4.361863E+04  2.046192E+03  3.317389E+03  3.011389E+03
       124  27 -9.734284E+05 -4.788177E+04 -4.390862E+04 -9.487211E+03  4.903305E+03  3.042469E+03
       125   1 -5.060441E+05  6.433716E+04  7.295942E+04 -7.426796E+03 -5.637011E+03 -3.938033E+03
       125   2 -4.974151E+05  6.354949E+04  8.050880E+04  2.907370E+02 -1.348064E+04 -4.796013E+03
       125   3 -4.793836E+05  9.463524E+04  1.012191E+05 -1.277127E+04 -2.132803E+04 -1.680966E+03
       125   4 -7.671660E+05 -8.674698E+02  8.248502E+03 -9.278607E+03 -6.316606E+03 -3.938400E+03
       125   5 -7.717803E+05 -4.938046E+03  1.261861E+04  1.098966E+03 -1.320453E+04 -4.795958E+03
       125   6 -7.671543E+05  2.270624E+04  2.948954E+04 -9.303536E+03 -2.009605E+04 -1.679783E+03
       125   7 -1.028226E+06 -6.607720E+04 -5.646750E+04 -1.112964E+04 -6.995914E+03 -3.938764E+03
       125   8 -1.046077E+06 -7.343122E+04 -5.527719E+04  1.906823E+03 -1.292854E+04 -4.795901E+03
       125   9 -1.054850E+06 -4.922895E+04 -4.224624E+04 -5.837434E+03 -1.886464E+04 -1.678587E+03
       125  10 -5.060442E+05  6.433714E+04  7.295934E+04 -7.426814E+03  2.112067E-10  4.601565E-10
       125  11 -4.974153E+05  6.354942E+04  8.050842E+04  2.906849E+02 -1.729592E-10 -7.691838E-11
       125  12 -4.793841E+05  9.463512E+04  1.012183E+05 -1.277130E+04  5.078518E-10  3.037790E-10
       125  13 -7.671661E+05 -8.674972E+02  8.248398E+03 -9.278628E+03 -6.086657E-10 -4.294013E-10
       125  14 -7.717805E+05 -4.938118E+03  1.261824E+04  1.098915E+03 -1.045672E-10  3.134723E-10
       125  15 -7.671547E+05  2.270613E+04  2.948878E+04 -9.303563E+03  1.659212E-09 -4.359771E-10
       125  16 -1.028226E+06 -6.607723E+04 -5.646762E+04 -1.112967E+04 -1.109165E-09  1.264648E-10
       125  17 -1.046077E+06 -7.343129E+04 -5.527754E+04  1.906773E+03 -7.762461E-10  1.070745E-11
       125  18 -1.054850E+06 -4.922905E+04 -4.224692E+04 -5.837460E+03  1.513757E-10  1.022655E-09
       125  19 -5.060441E+05  6.433716E+04  7.295942E+04 -7.426796E+03  5.637011E+03  3.938033E+03
       125  20 -4.974151E+05  6.354949E+04  8.050880E+04  2.907370E+02  1.348064E+04  4.796013E+03
       125  21 -4.793836E+05  9.463524E+04  1.012191E+05 -1.277127E+04  2.132803E+04  1.680966E+03
       125  22 -7.671660E+05 -8.674698E+02  8.248502E+03 -9.278607E+03  6.316606E+03  3.938400E+03
       125  23 -7.717803E+05 -4.938046E+03  1.261861E+04  1.098966E+03  1.320453E+04  4.795958E+03
       125  24 -7.671543E+05  2.270624E+04  2.948954E+04 -9.303536E+03  2.009605E+04  1.679783E+03
       125  25 -1.028226E+06 -6.607720E+04 -5.646750E+04 -1.112964E+04  6.995914E+03  3.938764E+03
       125  26 -1.046077E+06 -7.343122E+04 -5.527719E+04  1.906823E+03  1.292854E+04  4.795901E+03
       125  27 -1.054850E+06 -4.922895E+04 -4.224624E+04 -5.837434E+03  1.886464E+04  1.678587E+03
       126   1  2.624706E+05 -1.310188E+06  2.442559E+05 -1.048788E+05  9.951886E+03 -2.313897E+04
       126   2  2.609988E+05 -1.531632E+06  2.114148E+05 -1.884917E+03  2.702462E+04 -1.447486E+04
       126   3  1.940108E+05 -1.770544E+06  1.565824E+05 -1.237195E+05  1.792792E+04 -5.907029E+03
       126   4 -4.787730E+04 -2.551275E+06 -6.418231E+04 -1.149131E+05  9.987299E+03 -3.466485E+04
       126   5  9.317713E+03 -2.541583E+06 -3.489042E+04 -2.416911E+03  2.703309E+04 -1.599739E+04
       126   6 -8.018836E+02 -2.551185E+06 -3.458388E+04 -1.147754E+05  1.789094E+04  2.577182E+03
       126   7 -3.583407E+05 -3.790957E+06 -3.727355E+05 -1.249261E+05  1.002312E+04 -4.616760E+04
       126   8 -2.424388E+05 -3.550601E+06 -2.812700E+05 -2.947191E+03  2.704157E+04 -1.751743E+04
       126   9 -1.956596E+05 -3.331269E+06 -2.257946E+05 -1.058419E+05  1.785419E+04  1.105072E+04
       126  10  2.624703E+05 -1.310189E+06  2.442547E+05 -1.048786E+05 -1.244937E-09 -7.741625E-10
       126  11  2.609979E+05 -1.531632E+06  2.114130E+05 -1.884602E+03 -3.584174E-09 -2.253629E-09
       126  12  1.940105E+05 -1.770544E+06  1.565817E+05 -1.237195E+05 -7.975575E-10 -9.396107E-10
       126  13 -4.787773E+04 -2.551276E+06 -6.418476E+04 -1.149128E+05 -1.269993E-09 -5.036448E-11
       126  14  9.316860E+03 -2.541584E+06 -3.489228E+04 -2.416562E+03 -1.234812E-09  4.208000E-11
       126  15 -8.022287E+02 -2.551185E+06 -3.458449E+04 -1.147754E+05  2.827860E-09 -5.178316E-09
       126  16 -3.583414E+05 -3.790960E+06 -3.727397E+05 -1.249258E+05  2.174877E-10  2.793109E-09
       126  17 -2.424397E+05 -3.550602E+06 -2.812719E+05 -2.946809E+03 -1.755255E-09  6.771146E-10
       126  18 -1.956600E+05 -3.331269E+06 -2.257954E+05 -1.058420E+05 -8.329939E-10  1.781462E-09
       126  19  2.624706E+05 -1.310188E+06  2.442559E+05 -1.048788E+05 -9.951886E+03  2.313897E+04
       126  20  2.609988E+05 -1.531632E+06  2.114148E+05 -1.884917E+03 -2.702462E+04  1.447486E+04
       126  21  1.940108E+05 -1.770544E+06  1.565824E+05 -1.237195E+05 -1.792792E+04  5.907029E+03
       126  22 -4.787730E+04 -2.551275E+06 -6.418231E+04 -1.149131E+05 -9.987299E+03  3.466485E+04
       126  23  9.317713E+03 -2.541583E+06 -3.489042E+04 -2.416911E+03 -2.703309E+04  1.599739E+04
       126  24 -8.018836E+02 -2.551185E+06 -3.458388E+04 -1.147754E+05 -1.789094E+04 -2.577182E+03
       126  25 -3.583407E+05 -3.790957E+06 -3.727355E+05 -1.249261E+05 -1.002312E+04  4.616760E+04
       126  26 -2.424388E+05 -3.550601E+06 -2.812700E+05 -2.947191E+03 -2.704157E+04  1.751743E+04
       126  27 -1.956596E+05 -3.331269E+06 -2.257946E+05 -1.058419E+05 -1.785419E+04 -1.105072E+04
       127   1  7.897622E+04 -2.219981E+06  4.380776E+04 -1.125664E+05  8.548635E+03  6.479213E+03
       127   2  3.039775E+04 -2.449508E+06 -2.336230E+04 -1.773061E+03  2.140102E+03  3.005628E+04
       127   3 -6.898557E+04 -2.697497E+06 -1.192032E+05 -1.250384E+05 -4.616171E+03  5.362068E+04
       127   4 -3.478327E+03 -2.550871E+06 -3.697840E+04 -1.168293E+05  8.537664E+03  8.823140E+03
       127   5  7.397130E+03 -2.541629E+06 -4.588995E+04  1.322608E+02  2.128425E+03  3.252911E+04
       127   6 -3.255278E+04 -2.550919E+06 -8.355704E+04 -1.169695E+05 -4.628226E+03  5.623142E+04
       127   7 -8.594090E+04 -2.881661E+06 -1.177725E+05 -1.210898E+05  8.526658E+03  1.116582E+04
       127   8 -1.560410E+04 -2.633742E+06 -6.841820E+04  2.037308E+03  2.116762E+03  3.500157E+04
       127   9  3.878691E+03 -2.404321E+06 -4.791235E+04 -1.088986E+05 -4.640211E+03  5.884277E+04
       127  10  7.897613E+04 -2.219981E+06  4.380755E+04 -1.125664E+05  1.029096E-09 -1.560401E-09
       127  11  3.039750E+04 -2.449509E+06 -2.336401E+04 -1.773113E+03 -5.681867E-10 -3.391224E-09
       127  12 -6.898637E+04 -2.697500E+06 -1.192087E+05 -1.250382E+05  9.405515E-10 -2.818192E-09
       127  13 -3.478426E+03 -2.550872E+06 -3.697868E+04 -1.168293E+05  4.263869E-09 -3.348199E-11
       127  14  7.396840E+03 -2.541630E+06 -4.589195E+04  1.322050E+02  1.433374E-09 -2.500455E-10
       127  15 -3.255366E+04 -2.550922E+06 -8.356305E+04 -1.169693E+05  1.272698E-09 -5.479315E-09
       127  16 -8.594101E+04 -2.881661E+06 -1.177729E+05 -1.210898E+05  2.880588E-11  5.166078E-09
       127  17 -1.560444E+04 -2.633743E+06 -6.842052E+04  2.037248E+03  2.657699E-09  1.409420E-09
       127  18  3.877734E+03 -2.404325E+06 -4.791892E+04 -1.088984E+05  6.042428E-10  3.176651E-09
       127  19  7.897622E+04 -2.219981E+06  4.380776E+04 -1.125664E+05 -8.548635E+03 -6.479213E+03
       127  20  3.039775E+04 -2.449508E+06 -2.336230E+04 -1.773061E+03 -2.140102E+03 -3.005628E+04
       127  21 -6.898557E+04 -2.697497E+06 -1.192032E+05 -1.250384E+05  4.616171E+03 -5.362068E+04
       127  22 -3.478327E+03 -2.550871E+06 -3.697840E+04 -1.168293E+05 -8.537664E+03 -8.823140E+03
       127  23  7.397130E+03 -2.541629E+06 -4.588995E+04  1.322608E+02 -2.128425E+03 -3.252911E+04
       127  24 -3.255278E+04 -2.550919E+06 -8.355704E+04 -1.169695E+05  4.628226E+03 -5.623142E+04
       127  25 -8.594090E+04 -2.881661E+06 -1.177725E+05 -1.210898E+05 -8.526658E+03 -1.116582E+04
       127  26 -1.560410E+04 -2.633742E+06 -6.841820E+04  2.037308E+03 -2.116762E+03 -3.500157E+04
       127  27  3.878691E+03 -2.404321E+06 -4.791235E+04 -1.088986E+05  4.640211E+03 -5.884277E+04
       128   1 -1.368132E+05 -3.168118E+06 -2.469243E+05 -8.197939E+04 -1.360191E+04  6.431524E+04
       128   2 -1.574230E+05 -3.349493E+06 -3.566961E+05 -1.794584E+04 -2.297623E+04  1.564231E+05
       128   3 -5.406014E+05 -3.634582E+06 -6.175398E+05 -1.823606E+05 -9.263625E+03  2.485885E+05
       128   4  1.303713E+04 -2.569498E+06 -1.000298E+05 -1.152751E+05 -1.364187E+04  7.221222E+04
       128   5  4.967621E+04 -2.518653E+06 -1.539063E+05 -1.551398E+03 -2.296614E+04  1.555869E+05
       128   6 -2.744640E+05 -2.569882E+06 -3.526066E+05 -1.162801E+05 -9.202215E+03  2.390551E+05
       128   7  1.628648E+05 -1.970549E+06  4.683904E+04 -1.486026E+05 -1.368267E+04  8.011681E+04
       128   8  2.567254E+05 -1.687180E+06  4.883329E+04  1.486578E+04 -2.295610E+04  1.547496E+05
       128   9 -8.395017E+03 -1.504138E+06 -8.775561E+04 -5.008460E+04 -9.142917E+03  2.295049E+05
       128  10 -1.368146E+05 -3.168122E+06 -2.469325E+05 -8.197868E+04 -3.395315E-10  7.238721E-10
       128  11 -1.574302E+05 -3.349519E+06 -3.567433E+05 -1.794294E+04 -1.948385E-09 -1.880847E-09
       128  12 -5.406182E+05 -3.634649E+06 -6.176568E+05 -1.823588E+05 -7.882222E-10 -1.940922E-09
       128  13  1.303552E+04 -2.569504E+06 -1.000400E+05 -1.152743E+05 -5.082684E-10 -7.582887E-10
       128  14  4.966911E+04 -2.518680E+06 -1.539530E+05 -1.548517E+03  2.653387E-10 -3.398995E-10
       128  15 -2.744795E+05 -2.569944E+06 -3.527146E+05 -1.162783E+05  5.270480E-10 -3.860185E-09
       128  16  1.628628E+05 -1.970556E+06  4.682659E+04 -1.486018E+05  1.552398E-09  2.747835E-09
       128  17  2.567184E+05 -1.687206E+06  4.878717E+04  1.486864E+04  1.212827E-11  1.434785E-10
       128  18 -8.409290E+03 -1.504195E+06 -8.785499E+04 -5.008291E+04  1.756708E-09  2.541973E-09
       128  19 -1.368132E+05 -3.168118E+06 -2.469243E+05 -8.197939E+04  1.360191E+04 -6.431524E+04
       128  20 -1.574230E+05 -3.349493E+06 -3.566961E+05 -1.794584E+04  2.297623E+04 -1.564231E+05
       128  21 -5.406014E+05 -3.634582E+06 -6.175398E+05 -1.823606E+05  9.263625E+03 -2.485885E+05
       128  22  1.303713E+04 -2.569498E+06 -1.000298E+05 -1.152751E+05  1.364187E+04 -7.221222E+04
       128  23  4.967621E+04 -2.518653E+06 -1.539063E+05 -1.551398E+03  2.296614E+04 -1.555869E+05
       128  24 -2.744640E+05 -2.569882E+06 -3.526066E+05 -1.162801E+05  9.202215E+03 -2.390551E+05
       128  25  1.628648E+05 -1.970549E+06  4.683904E+04 -1.486026E+05  1.368267E+04 -8.011681E+04
       128  26  2.567254E+05 -1.687180E+06  4.883329E+04  1.486578E+04  2.295610E+04 -1.547496E+05
       128  27 -8.395017E+03 -1.504138E+06 -8.775561E+04 -5.008460E+04  9.142917E+03 -2.295049E+05
       129   1 -2.946830E+06 -5.956676E+05 -2.334671E+05 -1.056902E+06 -1.222314E+05 -4.513481E+04
       129   2 -2.912654E+06 -4.299732E+05 -1.218854E+05 -1.102392E+06 -7.926907E+04 -2.671786E+04
       129   3 -2.965735E+06 -4.444157E+05 -9.505653E+04 -1.086999E+06 -3.560117E+04 -1.017128E+04
       129   4 -2.811173E+06 -5.234678E+05 -1.919164E+05 -9.987376E+05 -1.216135E+05 -4.490654E+04
       129   5 -2.757854E+06 -3.659106E+05 -7.843371E+04 -1.054638E+06 -7.906150E+04 -2.664043E+04
       129   6 -2.791693E+06 -3.883816E+05 -4.936277E+04 -1.049662E+06 -3.580249E+04 -1.024658E+04
       129   7 -2.675498E+06 -4.512609E+05 -1.503677E+05 -9.405600E+05 -1.209954E+05 -4.467816E+04
       129   8 -2.603030E+06 -3.018453E+05 -3.498425E+04 -1.006873E+06 -7.885387E+04 -2.656296E+04
       129   9 -2.617622E+06 -3.323475E+05 -3.671414E+03 -1.012316E+06 -3.600388E+04 -1.032190E+04
       129  10 -2.946846E+06 -5.956739E+05 -2.334992E+05 -1.056906E+06 -7.853918E-10 -4.705261E-10
       129  11 -2.912661E+06 -4.299757E+05 -1.218987E+05 -1.102394E+06  3.564663E-10 -2.345955E-09
       129  12 -2.965736E+06 -4.444161E+05 -9.505912E+04 -1.087000E+06 -2.734041E-09  7.686588E-10
       129  13 -2.811190E+06 -5.234740E+05 -1.919482E+05 -9.987420E+05 -1.254866E-09  1.947553E-09
       129  14 -2.757861E+06 -3.659130E+05 -7.844686E+04 -1.054640E+06  3.092169E-11  5.490148E-10
       129  15 -2.791694E+06 -3.883820E+05 -4.936539E+04 -1.049662E+06 -1.732321E-09 -2.886870E-10
       129  16 -2.675514E+06 -4.512670E+05 -1.503991E+05 -9.405644E+05 -3.192485E-10 -1.303504E-09
       129  17 -2.603037E+06 -3.018477E+05 -3.499733E+04 -1.006875E+06 -2.253282E-09  1.745841E-09
       129  18 -2.617623E+06 -3.323480E+05 -3.674063E+03 -1.012316E+06 -7.629901E-10  7.903018E-10
       129  19 -2.946830E+06 -5.956676E+05 -2.334671E+05 -1.056902E+06  1.222314E+05  4.513481E+04
       129  20 -2.912654E+06 -4.299732E+05 -1.218854E+05 -1.102392E+06  7.926907E+04  2.671786E+04
       129  21 -2.965735E+06 -4.444157E+05 -9.505653E+04 -1.086999E+06  3.560117E+04  1.017128E+04
       129  22 -2.811173E+06 -5.234678E+05 -1.919164E+05 -9.987376E+05  1.216135E+05  4.490654E+04
       129  23 -2.757854E+06 -3.659106E+05 -7.843371E+04 -1.054638E+06  7.906150E+04  2.664043E+04
       129  24 -2.791693E+06 -3.883816E+05 -4.936277E+04 -1.049662E+06  3.580249E+04  1.024658E+04
       129  25 -2.675498E+06 -4.512609E+05 -1.503677E+05 -9.405600E+05  1.209954E+05  4.467816E+04
       129  26 -2.603030E+06 -3.018453E+05 -3.498425E+04 -1.006873E+06  7.885387E+04  2.656296E+04
       129  27 -2.617622E+06 -3.323475E+05 -3.671414E+03 -1.012316E+06  3.600388E+04  1.032190E+04
       130   1 -2.971012E+06 -4.861470E+05 -9.257031E+04 -1.093092E+06 -2.848852E+04 -7.624971E+03
       130   2 -2.966205E+06 -4.629042E+05 -7.084617E+04 -1.100221E+06 -1.874320E+04 -3.483826E+03
       130   3 -2.975024E+06 -4.648889E+05 -6.398002E+04 -1.097771E+06 -8.813090E+03  1.668944E+02
       130   4 -2.783711E+06 -4.122927E+05 -4.062272E+04 -1.039075E+06 -2.834838E+04 -7.572363E+03
       130   5 -2.775510E+06 -3.899716E+05 -1.846801E+04 -1.047520E+06 -1.870994E+04 -3.471402E+03
       130   6 -2.780911E+06 -3.928515E+05 -1.108280E+04 -1.046387E+06 -8.886700E+03  1.391389E+02
       130   7 -2.596377E+06 -3.384355E+05  1.132160E+04 -9.850432E+05 -2.820819E+04 -7.519735E+03
       130   8 -2.584781E+06 -3.170367E+05  3.390679E+04 -9.948040E+05 -1.867668E+04 -3.458974E+03
       130   9 -2.586763E+06 -3.208124E+05  4.181094E+04 -9.949884E+05 -8.960334E+03  1.113745E+02
       130  10 -2.971013E+06 -4.861473E+05 -9.257195E+04 -1.093093E+06 -1.323589E-09 -2.661354E-10
       130  11 -2.966205E+06 -4.629043E+05 -7.084686E+04 -1.100221E+06 -5.654410E-09  2.293989E-09
       130  12 -2.975024E+06 -4.648890E+05 -6.398017E+04 -1.097771E+06 -1.712149E-09  3.578958E-10
       130  13 -2.783712E+06 -4.122929E+05 -4.062434E+04 -1.039075E+06 -9.575631E-10 -7.515611E-10
       130  14 -2.775511E+06 -3.899717E+05 -1.846869E+04 -1.047520E+06 -1.005268E-09  3.696448E-10
       130  15 -2.780911E+06 -3.928516E+05 -1.108295E+04 -1.046387E+06  2.034139E-09  5.104078E-11
       130  16 -2.596377E+06 -3.384357E+05  1.131999E+04 -9.850434E+05 -3.343162E-11  6.078819E-10
       130  17 -2.584781E+06 -3.170368E+05  3.390610E+04 -9.948040E+05 -9.710706E-10  1.135543E-10
       130  18 -2.586763E+06 -3.208125E+05  4.181079E+04 -9.949884E+05 -1.099515E-09 -1.314244E-10
       130  19 -2.971012E+06 -4.861470E+05 -9.257031E+04 -1.093092E+06  2.848852E+04  7.624971E+03
       130  20 -2.966205E+06 -4.629042E+05 -7.084617E+04 -1.100221E+06  1.874320E+04  3.483826E+03
       130  21 -2.975024E+06 -4.648889E+05 -6.398002E+04 -1.097771E+06  8.813090E+03 -1.668944E+02
       130  22 -2.783711E+06 -4.122927E+05 -4.062272E+04 -1.039075E+06  2.834838E+04  7.572363E+03
       130  23 -2.775510E+06 -3.899716E+05 -1.846801E+04 -1.047520E+06  1.870994E+04  3.471402E+03
       130  24 -2.780911E+06 -3.928515E+05 -1.108280E+04 -1.046387E+06  8.886700E+03 -1.391389E+02
       130  25 -2.596377E+06 -3.384355E+05  1.132160E+04 -9.850432E+05  2.820819E+04  7.519735E+03
       130  26 -2.584781E+06 -3.170367E+05  3.390679E+04 -9.948040E+05  1.867668E+04  3.458974E+03
       130  27 -2.586763E+06 -3.208124E+05  4.181094E+04 -9.949884E+05  8.960334E+03 -1.113745E+02
       131   1 -2.963902E+06 -4.685240E+05 -5.983212E+04 -1.097617E+06 -7.236982E+03  6.773284E+02
       131   2 -2.961245E+06 -4.601120E+05 -5.407999E+04 -1.093668E+06 -4.864298E+03  1.529463E+03
       131   3 -2.954267E+06 -4.615903E+05 -5.113028E+04 -1.095447E+06 -2.387962E+03  2.105606E+03
       131   4 -2.778121E+06 -3.978219E+05 -8.862379E+03 -1.046636E+06 -7.215363E+03  6.853834E+02
       131   5 -2.780088E+06 -3.914989E+05 -4.451415E+03 -1.044291E+06 -4.903766E+03  1.514559E+03
       131   6 -2.777723E+06 -3.950532E+05 -2.793644E+03 -1.047675E+06 -2.488554E+03  2.067771E+03
       131   7 -2.592305E+06 -3.271176E+05  4.210427E+04 -9.956412E+05 -7.193737E+03  6.934413E+02
       131   8 -2.598900E+06 -3.228839E+05  4.517420E+04 -9.949016E+05 -4.943247E+03  1.499651E+03
       131   9 -2.601149E+06 -3.285143E+05  4.554016E+04 -9.998902E+05 -2.589178E+03  2.029925E+03
       131  10 -2.963902E+06 -4.685240E+05 -5.983222E+04 -1.097617E+06  7.615534E-10 -1.109532E-10
       131  11 -2.961245E+06 -4.601120E+05 -5.408004E+04 -1.093668E+06 -1.587086E-09  1.228156E-09
       131  12 -2.954267E+06 -4.615903E+05 -5.113030E+04 -1.095447E+06 -5.500431E-10 -6.246063E-10
       131  13 -2.778121E+06 -3.978219E+05 -8.862478E+03 -1.046636E+06  8.493779E-10 -7.170977E-10
       131  14 -2.780088E+06 -3.914989E+05 -4.451465E+03 -1.044291E+06 -8.631575E-10  5.047529E-11
       131  15 -2.777723E+06 -3.950532E+05 -2.793664E+03 -1.047675E+06  1.471579E-09 -2.148125E-10
       131  16 -2.592305E+06 -3.271176E+05  4.210417E+04 -9.956412E+05 -7.125916E-10  8.287139E-11
       131  17 -2.598900E+06 -3.228839E+05  4.517415E+04 -9.949016E+05 -1.663532E-09  3.728438E-11
       131  18 -2.601149E+06 -3.285143E+05  4.554014E+04 -9.998902E+05  1.533427E-09 -1.282542E-10
       131  19 -2.963902E+06 -4.685240E+05 -5.983212E+04 -1.097617E+06  7.236982E+03 -6.773284E+02
       131  20 -2.961245E+06 -4.601120E+05 -5.407999E+04 -1.093668E+06  4.864298E+03 -1.529463E+03
       131  21 -2.954267E+06 -4.615903E+05 -5.113028E+04 -1.095447E+06  2.387962E+03 -2.105606E+03
       131  22 -2.778121E+06 -3.978219E+05 -8.862379E+03 -1.046636E+06  7.215363E+03 -6.853834E+02
       131  23 -2.780088E+06 -3.914989E+05 -4.451415E+03 -1.044291E+06  4.903766E+03 -1.514559E+03
       131  24 -2.777723E+06 -3.950532E+05 -2.793644E+03 -1.047675E+06  2.488554E+03 -2.067771E+03
       131  25 -2.592305E+06 -3.271176E+05  4.210427E+04 -9.956412E+05  7.193737E+03 -6.934413E+02
       131  26 -2.598900E+06 -3.228839E+05  4.517420E+04 -9.949016E+05  4.943247E+03 -1.499651E+03
       131  27 -2.601149E+06 -3.285143E+05  4.554016E+04 -9.998902E+05  2.589178E+03 -2.029925E+03
       132   1 -2.917518E+06 -4.505195E+05 -4.107486E+04 -1.087678E+06 -1.940804E+03  2.047500E+03
       132   2 -2.913276E+06 -4.396089E+05 -3.763567E+04 -1.077623E+06 -8.875388E+02  2.090077E+03
       132   3 -2.896630E+06 -4.422755E+05 -3.510148E+04 -1.081928E+06  2.333474E+02  1.951788E+03
       132   4 -2.776083E+06 -3.969978E+05 -2.360233E+03 -1.049169E+06 -1.989948E+03  2.029008E+03
       132   5 -2.782274E+06 -3.901041E+05 -1.770111E+03 -1.042030E+06 -9.769579E+02  2.056496E+03
       132   6 -2.776053E+06 -3.967793E+05 -2.052820E+03 -1.049251E+06  1.036275E+02  1.903129E+03
       132   7 -2.634630E+06 -3.434749E+05  3.635255E+04 -1.010652E+06 -2.039104E+03  2.010512E+03
       132   8 -2.651256E+06 -3.405984E+05  3.409383E+04 -1.006431E+06 -1.066398E+03  2.022906E+03
       132   9 -2.655463E+06 -3.512823E+05  3.099443E+04 -1.016569E+06 -2.611997E+01  1.854460E+03
       132  10 -2.917518E+06 -4.505195E+05 -4.107487E+04 -1.087678E+06 -7.491097E-10 -6.743271E-10
       132  11 -2.913276E+06 -4.396089E+05 -3.763568E+04 -1.077623E+06  6.164010E-10 -1.612056E-09
       132  12 -2.896630E+06 -4.422755E+05 -3.510149E+04 -1.081928E+06  1.676029E-09  2.106239E-10
       132  13 -2.776083E+06 -3.969978E+05 -2.360248E+03 -1.049169E+06 -6.626697E-10 -7.506679E-10
       132  14 -2.782274E+06 -3.901041E+05 -1.770121E+03 -1.042030E+06  1.675202E-09 -8.107809E-10
       132  15 -2.776053E+06 -3.967793E+05 -2.052827E+03 -1.049251E+06  3.783507E-09 -3.428758E-10
       132  16 -2.634630E+06 -3.434749E+05  3.635253E+04 -1.010652E+06  9.061866E-10 -9.019339E-11
       132  17 -2.651256E+06 -3.405984E+05  3.409382E+04 -1.006431E+06  2.881828E-09 -8.056963E-10
       132  18 -2.655463E+06 -3.512823E+05  3.099443E+04 -1.016569E+06  1.700471E-09 -1.592668E-11
       132  19 -2.917518E+06 -4.505195E+05 -4.107486E+04 -1.087678E+06  1.940804E+03 -2.047500E+03
       132  20 -2.913276E+06 -4.396089E+05 -3.763567E+04 -1.077623E+06  8.875388E+02 -2.090077E+03
       132  21 -2.896630E+06 -4.422755E+05 -3.510148E+04 -1.081928E+06 -2.333474E+02 -1.951788E+03
       132  22 -2.776083E+06 -3.969978E+05 -2.360233E+03 -1.049169E+06  1.989948E+03 -2.029008E+03
       132  23 -2.782274E+06 -3.901041E+05 -1.770111E+03 -1.042030E+06  9.769579E+02 -2.056496E+03
       132  24 -2.776053E+06 -3.967793E+05 -2.052820E+03 -1.049251E+06 -1.036275E+02 -1.903129E+03
       132  25 -2.634630E+06 -3.434749E+05  3.635255E+04 -1.010652E+06  2.039104E+03 -2.010512E+03
       132  26 -2.651256E+06 -3.405984E+05  3.409383E+04 -1.006431E+06  1.066398E+03 -2.022906E+03
       132  27 -2.655463E+06 -3.512823E+05  3.099443E+04 -1.016569E+06  2.611997E+01 -1.854460E+03
       133   1 -2.840422E+06 -4.222310E+05 -2.020117E+04 -1.068171E+06  6.894004E+02  1.771082E+03
       133   2 -2.834707E+06 -4.082170E+05 -1.776819E+04 -1.054737E+06  2.761585E+03  1.985430E+03
       133   3 -2.813327E+06 -4.129810E+05 -1.730828E+04 -1.059958E+06  4.856894E+03  2.137766E+03
       133   4 -2.775267E+06 -3.975166E+05 -2.388322E+03 -1.050361E+06  5.860384E+02  1.732329E+03
       133   5 -2.783197E+06 -3.887948E+05 -3.674824E+03 -1.040786E+06  2.644495E+03  1.941545E+03
       133   6 -2.775459E+06 -3.988481E+05 -6.923299E+03 -1.049864E+06  4.726029E+03  2.088734E+03
       133   7 -2.710108E+06 -3.728019E+05  1.542419E+04 -1.032550E+06  4.826641E+02  1.693572E+03
       133   8 -2.731685E+06 -3.693724E+05  1.041833E+04 -1.026833E+06  2.527394E+03  1.897657E+03
       133   9 -2.737590E+06 -3.847150E+05  3.461565E+03 -1.039770E+06  4.595155E+03  2.039698E+03
       133  10 -2.840422E+06 -4.222310E+05 -2.020117E+04 -1.068171E+06 -1.456602E-09 -4.301085E-10
       133  11 -2.834707E+06 -4.082170E+05 -1.776821E+04 -1.054737E+06 -3.230469E-09 -8.214058E-10
       133  12 -2.813327E+06 -4.129810E+05 -1.730833E+04 -1.059958E+06 -4.560567E-10 -1.011142E-09
       133  13 -2.775267E+06 -3.975166E+05 -2.388329E+03 -1.050361E+06 -1.182149E-09  2.607468E-10
       133  14 -2.783197E+06 -3.887948E+05 -3.674844E+03 -1.040786E+06 -5.000353E-10  1.513152E-10
       133  15 -2.775459E+06 -3.988481E+05 -6.923350E+03 -1.049864E+06  3.499876E-10 -5.737941E-10
       133  16 -2.710108E+06 -3.728019E+05  1.542418E+04 -1.032550E+06  3.165379E-09  5.211394E-10
       133  17 -2.731685E+06 -3.693724E+05  1.041831E+04 -1.026833E+06  6.821238E-09  1.061278E-09
       133  18 -2.737590E+06 -3.847150E+05  3.461517E+03 -1.039770E+06  1.074615E-09 -3.728266E-10
       133  19 -2.840422E+06 -4.222310E+05 -2.020117E+04 -1.068171E+06 -6.894004E+02 -1.771082E+03
       133  20 -2.834707E+06 -4.082170E+05 -1.776819E+04 -1.054737E+06 -2.761585E+03 -1.985430E+03
       133  21 -2.813327E+06 -4.129810E+05 -1.730828E+04 -1.059958E+06 -4.856894E+03 -2.137766E+03
       133  22 -2.775267E+06 -3.975166E+05 -2.388322E+03 -1.050361E+06 -5.860384E+02 -1.732329E+03
       133  23 -2.783197E+06 -3.887948E+05 -3.674824E+03 -1.040786E+06 -2.644495E+03 -1.941545E+03
       133  24 -2.775459E+06 -3.988481E+05 -6.923299E+03 -1.049864E+06 -4.726029E+03 -2.088734E+03
       133  25 -2.710108E+06 -3.728019E+05  1.542419E+04 -1.032550E+06 -4.826641E+02 -1.693572E+03
       133  26 -2.731685E+06 -3.693724E+05  1.041833E+04 -1.026833E+06 -2.527394E+03 -1.897657E+03
       133  27 -2.737590E+06 -3.847150E+05  3.461565E+03 -1.039770E+06 -4.595155E+03 -2.039698E+03
       134   1 -2.750174E+06 -3.883567E+05 -1.863930E+03 -1.044648E+06  6.300172E+03  2.272567E+03
       134   2 -2.743009E+06 -3.717718E+05 -4.380649E+03 -1.030118E+06  1.431949E+04  4.633660E+03
       134   3 -2.725155E+06 -3.861574E+05 -1.653865E+04 -1.031633E+06  2.230192E+04  7.094242E+03
       134   4 -2.775971E+06 -3.973458E+05 -8.828556E+03 -1.050862E+06  6.162484E+03  2.220992E+03
       134   5 -2.782017E+06 -3.867850E+05 -1.511248E+04 -1.040998E+06  1.420355E+04  4.590203E+03
       134   6 -2.777379E+06 -4.071999E+05 -3.105562E+04 -1.047179E+06  2.220756E+04  7.058810E+03
       134   7 -2.801769E+06 -4.063348E+05 -1.579322E+04 -1.057076E+06  6.024802E+03  2.169420E+03
       134   8 -2.821024E+06 -4.017981E+05 -2.584444E+04 -1.051878E+06  1.408762E+04  4.546750E+03
       134   9 -2.829601E+06 -4.282421E+05 -4.557285E+04 -1.062725E+06  2.211320E+04  7.023383E+03
       134  10 -2.750174E+06 -3.883567E+05 -1.864014E+03 -1.044648E+06  7.355477E-11 -1.205095E-09
       134  11 -2.743009E+06 -3.717719E+05 -4.381077E+03 -1.030118E+06  3.599429E-09  1.571777E-09
       134  12 -2.725156E+06 -3.861576E+05 -1.653969E+04 -1.031633E+06  2.100458E-10  1.307922E-10
       134  13 -2.775971E+06 -3.973458E+05 -8.828637E+03 -1.050862E+06  1.396596E-09 -3.136427E-10
       134  14 -2.782018E+06 -3.867851E+05 -1.511290E+04 -1.040998E+06 -1.940735E-09  2.050051E-09
       134  15 -2.777380E+06 -4.072000E+05 -3.105664E+04 -1.047180E+06  1.769778E-09 -1.298207E-09
       134  16 -2.801769E+06 -4.063348E+05 -1.579330E+04 -1.057076E+06  2.562397E-10 -6.339743E-11
       134  17 -2.821024E+06 -4.017982E+05 -2.584485E+04 -1.051878E+06 -1.169354E-09  1.845668E-09
       134  18 -2.829601E+06 -4.282423E+05 -4.557387E+04 -1.062725E+06 -2.470111E-09 -4.578619E-11
       134  19 -2.750174E+06 -3.883567E+05 -1.863930E+03 -1.044648E+06 -6.300172E+03 -2.272567E+03
       134  20 -2.743009E+06 -3.717718E+05 -4.380649E+03 -1.030118E+06 -1.431949E+04 -4.633660E+03
       134  21 -2.725155E+06 -3.861574E+05 -1.653865E+04 -1.031633E+06 -2.230192E+04 -7.094242E+03
       134  22 -2.775971E+06 -3.973458E+05 -8.828556E+03 -1.050862E+06 -6.162484E+03 -2.220992E+03
       134  23 -2.782017E+06 -3.867850E+05 -1.511248E+04 -1.040998E+06 -1.420355E+04 -4.590203E+03
       134  24 -2.777379E+06 -4.071999E+05 -3.105562E+04 -1.047179E+06 -2.220756E+04 -7.058810E+03
       134  25 -2.801769E+06 -4.063348E+05 -1.579322E+04 -1.057076E+06 -6.024802E+03 -2.169420E+03
       134  26 -2.821024E+06 -4.017981E+05 -2.584444E+04 -1.051878E+06 -1.408762E+04 -4.546750E+03
       134  27 -2.829601E+06 -4.282421E+05 -4.557285E+04 -1.062725E+06 -2.211320E+04 -7.023383E+03
       135   1 -2.667686E+06 -3.573124E+05 -8.766113E+03 -1.027062E+06  2.830920E+04  8.928675E+03
       135   2 -2.653288E+06 -3.267265E+05 -3.193313E+04 -1.009412E+06  6.298414E+04  2.132737E+04
       135   3 -2.666330E+06 -4.067954E+05 -1.073723E+05 -9.826076E+05  9.746775E+04  3.423731E+04
       135   4 -2.781658E+06 -3.952193E+05 -3.899002E+04 -1.052707E+06  2.813018E+04  8.861837E+03
       135   5 -2.772837E+06 -3.743202E+05 -6.513219E+04 -1.044388E+06  6.291292E+04  2.130032E+04
       135   6 -2.791487E+06 -4.641098E+05 -1.436405E+05 -1.026912E+06  9.750401E+04  3.424891E+04
       135   7 -2.895616E+06 -4.331262E+05 -6.921498E+04 -1.078349E+06  2.795120E+04  8.795010E+03
       135   8 -2.892373E+06 -4.219126E+05 -9.833258E+04 -1.079358E+06  6.284171E+04  2.127327E+04
       135   9 -2.916629E+06 -5.214211E+05 -1.799102E+05 -1.071208E+06  9.754027E+04  3.426051E+04
       135  10 -2.667687E+06 -3.573127E+05 -8.767776E+03 -1.027062E+06 -1.305127E-09 -1.484469E-09
       135  11 -2.653292E+06 -3.267280E+05 -3.194148E+04 -1.009413E+06 -3.129253E-09 -1.337804E-09
       135  12 -2.666340E+06 -4.067993E+05 -1.073925E+05 -9.826103E+05  2.788287E-10 -1.844787E-10
       135  13 -2.781659E+06 -3.952196E+05 -3.899166E+04 -1.052707E+06 -2.891444E-09 -1.780686E-09
       135  14 -2.772842E+06 -3.743217E+05 -6.514052E+04 -1.044389E+06 -1.845224E-09 -1.649104E-09
       135  15 -2.791498E+06 -4.641136E+05 -1.436607E+05 -1.026915E+06 -1.913062E-09 -1.059487E-09
       135  16 -2.895617E+06 -4.331265E+05 -6.921660E+04 -1.078349E+06 -1.057805E-09 -9.663208E-11
       135  17 -2.892377E+06 -4.219142E+05 -9.834089E+04 -1.079359E+06  3.102031E-09 -4.118224E-10
       135  18 -2.916640E+06 -5.214249E+05 -1.799304E+05 -1.071211E+06 -7.484271E-10 -2.012116E-10
       135  19 -2.667686E+06 -3.573124E+05 -8.766113E+03 -1.027062E+06 -2.830920E+04 -8.928675E+03
       135  20 -2.653288E+06 -3.267265E+05 -3.193313E+04 -1.009412E+06 -6.298414E+04 -2.132737E+04
       135  21 -2.666330E+06 -4.067954E+05 -1.073723E+05 -9.826076E+05 -9.746775E+04 -3.423731E+04
       135  22 -2.781658E+06 -3.952193E+05 -3.899002E+04 -1.052707E+06 -2.813018E+04 -8.861837E+03
       135  23 -2.772837E+06 -3.743202E+05 -6.513219E+04 -1.044388E+06 -6.291292E+04 -2.130032E+04
       135  24 -2.791487E+06 -4.641098E+05 -1.436405E+05 -1.026912E+06 -9.750401E+04 -3.424891E+04
       135  25 -2.895616E+06 -4.331262E+05 -6.921498E+04 -1.078349E+06 -2.795120E+04 -8.795010E+03
       135  26 -2.892373E+06 -4.219126E+05 -9.833258E+04 -1.079358E+06 -6.284171E+04 -2.127327E+04
       135  27 -2.916629E+06 -5.214211E+05 -1.799102E+05 -1.071208E+06 -9.754027E+04 -3.426051E+04
       136   1 -2.618906E+06 -3.447642E+05 -1.277291E+05 -1.052041E+06  1.243721E+05  4.367871E+04
       136   2 -2.553476E+06 -2.030921E+05 -2.289789E+05 -9.994373E+05  2.771694E+05  1.005013E+05
       136   3 -2.754111E+06 -7.404809E+05 -6.283033E+05 -7.798857E+05  4.289347E+05  1.600877E+05
       136   4 -2.815203E+06 -3.839069E+05 -1.745287E+05 -1.069374E+06  1.239265E+05  4.352016E+04
       136   5 -2.716238E+06 -2.834786E+05 -2.772321E+05 -1.063073E+06  2.773001E+05  1.005398E+05
       136   6 -2.883536E+06 -8.623475E+05 -6.785318E+05 -8.897967E+05  4.296504E+05  1.602934E+05
       136   7 -3.011460E+06 -4.230504E+05 -2.213301E+05 -1.086705E+06  1.234810E+05  4.336160E+04
       136   8 -2.878973E+06 -3.638574E+05 -3.254878E+05 -1.126691E+06  2.774307E+05  1.005782E+05
       136   9 -3.012931E+06 -9.841714E+05 -7.287597E+05 -9.996779E+05  4.303660E+05  1.604987E+05
       136  10 -2.618923E+06 -3.447704E+05 -1.277620E+05 -1.052045E+06  1.297580E-09 -7.596342E-11
       136  11 -2.553561E+06 -2.031237E+05 -2.291430E+05 -9.994598E+05  9.058771E-10  6.845824E-10
       136  12 -2.754317E+06 -7.405583E+05 -6.286991E+05 -7.799411E+05  1.871004E-09  4.806271E-10
       136  13 -2.815220E+06 -3.839131E+05 -1.745612E+05 -1.069378E+06  9.064083E-10 -4.811857E-10
       136  14 -2.716323E+06 -2.835103E+05 -2.773964E+05 -1.063095E+06  1.246861E-09  3.345229E-11
       136  15 -2.883743E+06 -8.624251E+05 -6.789290E+05 -8.898524E+05 -1.958030E-09  1.832937E-10
       136  16 -3.011477E+06 -4.230566E+05 -2.213624E+05 -1.086710E+06  6.426141E-12  5.648693E-10
       136  17 -2.879058E+06 -3.638891E+05 -3.256523E+05 -1.126713E+06 -2.398445E-09  6.253364E-10
       136  18 -3.013138E+06 -9.842492E+05 -7.291583E+05 -9.997337E+05 -2.806690E-09  6.635080E-10
       136  19 -2.618906E+06 -3.447642E+05 -1.277291E+05 -1.052041E+06 -1.243721E+05 -4.367871E+04
       136  20 -2.553476E+06 -2.030921E+05 -2.289789E+05 -9.994373E+05 -2.771694E+05 -1.005013E+05
       136  21 -2.754111E+06 -7.404809E+05 -6.283033E+05 -7.798857E+05 -4.289347E+05 -1.600877E+05
       136  22 -2.815203E+06 -3.839069E+05 -1.745287E+05 -1.069374E+06 -1.239265E+05 -4.352016E+04
       136  23 -2.716238E+06 -2.834786E+05 -2.772321E+05 -1.063073E+06 -2.773001E+05 -1.005398E+05
       136  24 -2.883536E+06 -8.623475E+05 -6.785318E+05 -8.897967E+05 -4.296504E+05 -1.602934E+05
       136  25 -3.011460E+06 -4.230504E+05 -2.213301E+05 -1.086705E+06 -1.234810E+05 -4.336160E+04
       136  26 -2.878973E+06 -3.638574E+05 -3.254878E+05 -1.126691E+06 -2.774307E+05 -1.005782E+05
       136  27 -3.012931E+06 -9.841714E+05 -7.287597E+05 -9.996779E+05 -4.303660E+05 -1.604987E+05
       137   1 -6.792164E+05  1.753596E+04  3.833812E+04  5.220712E+03  6.058049E+04  1.263184E+03
       137   2 -6.844202E+05 -6.474969E+04 -1.068074E+04  3.452049E+03  4.020221E+04  3.502392E+03
       137   3 -6.625561E+05 -5.032383E+04 -2.219627E+04 -1.136378E+04  1.982609E+04  2.922039E+03
       137   4 -4.716091E+05  6.940049E+04  9.007901E+04 -5.928286E+03  6.147528E+04  1.263070E+03
       137   5 -4.852080E+05 -1.502827E+04  3.861146E+04  6.348661E+02  4.041452E+04  3.502320E+03
       137   6 -4.716292E+05 -2.643822E+03  2.511256E+04 -5.848810E+03  1.935620E+04  2.921857E+03
       137   7 -2.639624E+05  1.212622E+05  1.418167E+05 -1.708103E+04  6.237036E+04  1.262924E+03
       137   8 -2.859595E+05  3.469021E+04  8.790072E+04 -2.183231E+03  4.062689E+04  3.502245E+03
       137   9 -2.806690E+05  4.503356E+04  7.241869E+04 -3.321425E+02  1.888617E+04  2.921667E+03
       137  10 -6.792203E+05  1.753497E+04  3.833122E+04  5.220651E+03  5.466259E-10 -1.265576E-09
       137  11 -6.844220E+05 -6.475014E+04 -1.068380E+04  3.451936E+03 -1.646356E-10 -6.476016E-11
       137  12 -6.625566E+05 -5.032394E+04 -2.219703E+04 -1.136383E+04 -2.817310E-09 -5.835309E-10
       137  13 -4.716132E+05  6.939947E+04  9.007190E+04 -5.928349E+03 -1.416746E-09  6.104844E-10
       137  14 -4.852097E+05 -1.502872E+04  3.860837E+04  6.347521E+02 -1.373970E-09 -4.404067E-10
       137  15 -4.716296E+05 -2.643932E+03  2.511184E+04 -5.848855E+03 -1.360538E-09 -7.958636E-10
       137  16 -2.639666E+05  1.212612E+05  1.418094E+05 -1.708109E+04 -4.260563E-10  7.978854E-10
       137  17 -2.859613E+05  3.468976E+04  8.789759E+04 -2.183346E+03  6.426253E-10 -2.408673E-10
       137  18 -2.806694E+05  4.503346E+04  7.241800E+04 -3.321869E+02  2.030107E-09  1.316210E-09
       137  19 -6.792164E+05  1.753596E+04  3.833812E+04  5.220712E+03 -6.058049E+04 -1.263184E+03
       137  20 -6.844202E+05 -6.474969E+04 -1.068074E+04  3.452049E+03 -4.020221E+04 -3.502392E+03
       137  21 -6.625561E+05 -5.032383E+04 -2.219627E+04 -1.136378E+04 -1.982609E+04 -2.922039E+03
       137  22 -4.716091E+05  6.940049E+04  9.007901E+04 -5.928286E+03 -6.147528E+04 -1.263070E+03
       137  23 -4.852080E+05 -1.502827E+04  3.861146E+04  6.348661E+02 -4.041452E+04 -3.502320E+03
       137  24 -4.716292E+05 -2.643822E+03  2.511256E+04 -5.848810E+03 -1.935620E+04 -2.921857E+03
       137  25 -2.639624E+05  1.212622E+05  1.418167E+05 -1.708103E+04 -6.237036E+04 -1.262924E+03
       137  26 -2.859595E+05  3.469021E+04  8.790072E+04 -2.183231E+03 -4.062689E+04 -3.502245E+03
       137  27 -2.806690E+05  4.503356E+04  7.241869E+04 -3.321425E+02 -1.888617E+04 -2.921667E+03
       138   1 -6.330608E+05 -2.916676E+04 -1.803252E+04 -4.703253E+03  1.519427E+04  2.308772E+03
       138   2 -6.260044E+05 -3.889115E+04 -2.646863E+04  1.342978E+03  1.007812E+04  2.336214E+03
       138   3 -6.147143E+05 -3.482670E+04 -2.809989E+04 -6.969499E+03  4.961932E+03  1.962504E+03
       138   4 -4.767160E+05  9.869830E+03  2.071779E+04 -6.168249E+03  1.525216E+04  2.308728E+03
       138   5 -4.788429E+05 -2.151103E+03  9.979844E+03  1.013463E+03  1.003864E+04  2.336160E+03
       138   6 -4.767202E+05 -3.680768E+02  6.113187E+03 -6.163304E+03  4.825152E+03  1.962465E+03
       138   7 -3.203490E+05  4.890460E+04  5.946628E+04 -7.633619E+03  1.531007E+04  2.308683E+03
       138   8 -3.316616E+05  3.458732E+04  4.642670E+04  6.838673E+02  9.999149E+03  2.336106E+03
       138   9 -3.387087E+05  3.408912E+04  4.032485E+04 -5.356930E+03  4.688341E+03  1.962424E+03
       138  10 -6.330610E+05 -2.916683E+04 -1.803296E+04 -4.703281E+03 -1.707551E-09 -4.182684E-10
       138  11 -6.260045E+05 -3.889118E+04 -2.646883E+04  1.342959E+03  8.437345E-11 -1.325135E-10
       138  12 -6.147143E+05 -3.482671E+04 -2.809995E+04 -6.969507E+03 -6.620998E-10 -1.898242E-10
       138  13 -4.767163E+05  9.869762E+03  2.071735E+04 -6.168278E+03 -2.414218E-09  8.241654E-10
       138  14 -4.788430E+05 -2.151136E+03  9.979644E+03  1.013444E+03 -1.382190E-09 -1.163620E-11
       138  15 -4.767202E+05 -3.680872E+02  6.113136E+03 -6.163311E+03  2.655529E-11 -2.002352E-10
       138  16 -3.203492E+05  4.890453E+04  5.946583E+04 -7.633647E+03  7.680801E-10  6.215068E-10
       138  17 -3.316618E+05  3.458729E+04  4.642651E+04  6.838484E+02  1.468765E-09 -3.460275E-10
       138  18 -3.387087E+05  3.408911E+04  4.032480E+04 -5.356937E+03  1.895612E-09  2.023271E-10
       138  19 -6.330608E+05 -2.916676E+04 -1.803252E+04 -4.703253E+03 -1.519427E+04 -2.308772E+03
       138  20 -6.260044E+05 -3.889115E+04 -2.646863E+04  1.342978E+03 -1.007812E+04 -2.336214E+03
       138  21 -6.147143E+05 -3.482670E+04 -2.809989E+04 -6.969499E+03 -4.961932E+03 -1.962504E+03
       138  22 -4.767160E+05  9.869830E+03  2.071779E+04 -6.168249E+03 -1.525216E+04 -2.308728E+03
       138  23 -4.788429E+05 -2.151103E+03  9.979844E+03  1.013463E+03 -1.003864E+04 -2.336160E+03
       138  24 -4.767202E+05 -3.680768E+02  6.113187E+03 -6.163304E+03 -4.825152E+03 -1.962465E+03
       138  25 -3.203490E+05  4.890460E+04  5.946628E+04 -7.633619E+03 -1.531007E+04 -2.308683E+03
       138  26 -3.316616E+05  3.458732E+04  4.642670E+04  6.838673E+02 -9.999149E+03 -2.336106E+03
       138  27 -3.387087E+05  3.408912E+04  4.032485E+04 -5.356930E+03 -4.688341E+03 -1.962424E+03
       139   1 -5.779588E+05 -2.368299E+04 -2.002505E+04 -6.185477E+03  3.901436E+03  1.705649E+03
       139   2 -5.685257E+05 -2.294214E+04 -2.004883E+04  1.316300E+03  2.685899E+03  1.412676E+03
       139   3 -5.584109E+05 -2.026168E+04 -1.878806E+04 -6.479437E+03  1.470250E+03  1.053665E+03
       139   4 -4.775089E+05  1.390988E+03  4.835724E+03 -6.373430E+03  3.839514E+03  1.705627E+03
       139   5 -4.778517E+05 -3.045255E+02  2.412147E+03  1.275282E+03  2.607958E+03  1.412668E+03
       139   6 -4.775101E+05 -5.776206E+01  1.284147E+03 -6.373382E+03  1.376309E+03  1.053673E+03
       139   7 -3.770498E+05  2.646421E+04  2.969575E+04 -6.561412E+03  3.777581E+03  1.705605E+03
       139   8 -3.871702E+05  2.233247E+04  2.487251E+04  1.234257E+03  2.530005E+03  1.412659E+03
       139   9 -3.966033E+05  2.014566E+04  2.135586E+04 -6.267313E+03  1.282357E+03  1.053682E+03
       139  10 -5.779588E+05 -2.368299E+04 -2.002508E+04 -6.185483E+03 -1.486464E-09  2.684226E-11
       139  11 -5.685257E+05 -2.294214E+04 -2.004885E+04  1.316297E+03  6.844225E-10  7.370074E-11
       139  12 -5.584109E+05 -2.026168E+04 -1.878806E+04 -6.479438E+03 -9.428813E-10 -2.585900E-10
       139  13 -4.775089E+05  1.390981E+03  4.835691E+03 -6.373435E+03  2.326455E-09  2.157729E-10
       139  14 -4.778517E+05 -3.045294E+02  2.412131E+03  1.275279E+03 -1.380252E-12  6.539553E-11
       139  15 -4.775101E+05 -5.776377E+01  1.284141E+03 -6.373383E+03 -2.609823E-09  1.760848E-10
       139  16 -3.770498E+05  2.646420E+04  2.969571E+04 -6.561418E+03  9.904519E-11  4.449084E-10
       139  17 -3.871702E+05  2.233247E+04  2.487250E+04  1.234254E+03 -9.158408E-10  1.625918E-10
       139  18 -3.966033E+05  2.014566E+04  2.135586E+04 -6.267314E+03 -4.903482E-09 -2.587240E-10
       139  19 -5.779588E+05 -2.368299E+04 -2.002505E+04 -6.185477E+03 -3.901436E+03 -1.705649E+03
       139  20 -5.685257E+05 -2.294214E+04 -2.004883E+04  1.316300E+03 -2.685899E+03 -1.412676E+03
       139  21 -5.584109E+05 -2.026168E+04 -1.878806E+04 -6.479437E+03 -1.470250E+03 -1.053665E+03
       139  22 -4.775089E+05  1.390988E+03  4.835724E+03 -6.373430E+03 -3.839514E+03 -1.705627E+03
       139  23 -4.778517E+05 -3.045255E+02  2.412147E+03  1.275282E+03 -2.607958E+03 -1.412668E+03
       139  24 -4.775101E+05 -5.776206E+01  1.284147E+03 -6.373382E+03 -1.376309E+03 -1.053673E+03
       139  25 -3.770498E+05  2.646421E+04  2.969575E+04 -6.561412E+03 -3.777581E+03 -1.705605E+03
       139  26 -3.871702E+05  2.233247E+04  2.487251E+04  1.234257E+03 -2.530005E+03 -1.412659E+03
       139  27 -3.966033E+05  2.014566E+04  2.135586E+04 -6.267313E+03 -1.282357E+03 -1.053682E+03
       140   1 -5.191957E+05 -1.016821E+04 -9.388270E+03 -6.462537E+03  1.263838E+03  8.373209E+02
       140   2 -5.091332E+05 -7.877506E+03 -7.690765E+03  1.416318E+03  1.212829E+03  4.883094E+02
       140   3 -4.990315E+05 -5.436422E+03 -5.923508E+03 -6.488472E+03  1.161775E+03  1.279893E+02
       140   4 -4.776518E+05  1.973853E+02  8.726144E+02 -6.481389E+03  1.181529E+03  8.373360E+02
       140   5 -4.776717E+05 -2.307126E+01  1.025888E+02  1.410372E+03  1.127798E+03  4.883299E+02
       140   6 -4.776522E+05 -9.271332E+01 -5.958354E+02 -6.481463E+03  1.074023E+03  1.280158E+02
       140   7 -4.361062E+05  1.056285E+04  1.113337E+04 -6.500242E+03  1.099215E+03  8.373510E+02
       140   8 -4.462093E+05  7.831289E+03  7.895869E+03  1.404426E+03  1.042762E+03  4.883504E+02
       140   9 -4.562725E+05  5.250961E+03  4.731803E+03 -6.474453E+03  9.862669E+02  1.280423E+02
       140  10 -5.191957E+05 -1.016821E+04 -9.388274E+03 -6.462538E+03 -7.343768E-11 -1.657010E-10
       140  11 -5.091332E+05 -7.877506E+03 -7.690769E+03  1.416317E+03  1.077507E-09  4.744164E-10
       140  12 -4.990315E+05 -5.436422E+03 -5.923510E+03 -6.488472E+03 -1.615240E-09  1.042456E-09
       140  13 -4.776518E+05  1.973842E+02  8.726105E+02 -6.481390E+03 -2.141980E-09 -2.455399E-10
       140  14 -4.776717E+05 -2.307186E+01  1.025859E+02  1.410371E+03 -9.565967E-10  3.718355E-10
       140  15 -4.776522E+05 -9.271365E+01 -5.958376E+02 -6.481463E+03 -3.256878E-09  5.400318E-10
       140  16 -4.361062E+05  1.056285E+04  1.113337E+04 -6.500242E+03 -3.795066E-09 -4.006692E-10
       140  17 -4.462093E+05  7.831288E+03  7.895867E+03  1.404425E+03  2.066976E-10  1.280450E-10
       140  18 -4.562725E+05  5.250961E+03  4.731801E+03 -6.474453E+03  3.482559E-10  9.372409E-10
       140  19 -5.191957E+05 -1.016821E+04 -9.388270E+03 -6.462537E+03 -1.263838E+03 -8.373209E+02
       140  20 -5.091332E+05 -7.877506E+03 -7.690765E+03  1.416318E+03 -1.212829E+03 -4.883094E+02
       140  21 -4.990315E+05 -5.436422E+03 -5.923508E+03 -6.488472E+03 -1.161775E+03 -1.279893E+02
       140  22 -4.776518E+05  1.973853E+02  8.726144E+02 -6.481389E+03 -1.181529E+03 -8.373360E+02
       140  23 -4.776717E+05 -2.307126E+01  1.025888E+02  1.410372E+03 -1.127798E+03 -4.883299E+02
       140  24 -4.776522E+05 -9.271332E+01 -5.958354E+02 -6.481463E+03 -1.074023E+03 -1.280158E+02
       140  25 -4.361062E+05  1.056285E+04  1.113337E+04 -6.500242E+03 -1.099215E+03 -8.373510E+02
       140  26 -4.462093E+05  7.831289E+03  7.895869E+03  1.404426E+03 -1.042762E+03 -4.883504E+02
       140  27 -4.562725E+05  5.250961E+03  4.731803E+03 -6.474453E+03 -9.862669E+02 -1.280423E+02
       141   1 -4.591331E+05  4.703431E+03  3.667616E+03 -6.546590E+03  1.303397E+03 -8.586325E+01
       141   2 -4.488641E+05  7.303443E+03  5.114658E+03  1.413939E+03  2.303550E+03 -4.463439E+02
       141   3 -4.389527E+05  9.019146E+03  5.687798E+03 -6.419736E+03  3.303758E+03 -7.960852E+02
       141   4 -4.777405E+05  5.180792E+01 -9.732894E+02 -6.483733E+03  1.215680E+03 -8.583641E+01
       141   5 -4.775615E+05  1.393501E+02 -1.993726E+03  1.413307E+03  2.218364E+03 -4.463227E+02
       141   6 -4.777408E+05 -6.578787E+02 -3.889858E+03 -6.483904E+03  3.221087E+03 -7.960694E+02
       141   7 -4.963475E+05 -4.599841E+03 -5.614220E+03 -6.420878E+03  1.127965E+03 -8.580958E+01
       141   8 -5.062582E+05 -7.024804E+03 -9.102172E+03  1.412675E+03  2.133182E+03 -4.463016E+02
       141   9 -5.165274E+05 -1.033502E+04 -1.346763E+04 -6.548068E+03  3.138421E+03 -7.960536E+02
       141  10 -4.591331E+05  4.703430E+03  3.667612E+03 -6.546590E+03 -9.771268E-10  6.374918E-10
       141  11 -4.488641E+05  7.303441E+03  5.114648E+03  1.413940E+03 -5.020516E-10 -7.274894E-10
       141  12 -4.389528E+05  9.019142E+03  5.687776E+03 -6.419734E+03 -6.510097E-10 -1.243400E-10
       141  13 -4.777405E+05  5.180751E+01 -9.732922E+02 -6.483733E+03 -2.635989E-10 -1.424607E-10
       141  14 -4.775615E+05  1.393486E+02 -1.993736E+03  1.413308E+03 -3.108364E-10 -1.220216E-09
       141  15 -4.777408E+05 -6.578822E+02 -3.889879E+03 -6.483902E+03 -2.208233E-09 -2.873442E-10
       141  16 -4.963475E+05 -4.599841E+03 -5.614223E+03 -6.420878E+03 -2.363142E-09  3.136686E-10
       141  17 -5.062582E+05 -7.024805E+03 -9.102181E+03  1.412676E+03  3.139599E-09 -6.221516E-10
       141  18 -5.165274E+05 -1.033502E+04 -1.346765E+04 -6.548066E+03  2.255113E-09 -6.058355E-11
       141  19 -4.591331E+05  4.703431E+03  3.667616E+03 -6.546590E+03 -1.303397E+03  8.586325E+01
       141  20 -4.488641E+05  7.303443E+03  5.114658E+03  1.413939E+03 -2.303550E+03  4.463439E+02
       141  21 -4.389527E+05  9.019146E+03  5.687798E+03 -6.419736E+03 -3.303758E+03  7.960852E+02
       141  22 -4.777405E+05  5.180792E+01 -9.732894E+02 -6.483733E+03 -1.215680E+03  8.583641E+01
       141  23 -4.775615E+05  1.393501E+02 -1.993726E+03  1.413307E+03 -2.218364E+03  4.463227E+02
       141  24 -4.777408E+05 -6.578787E+02 -3.889858E+03 -6.483904E+03 -3.221087E+03  7.960694E+02
       141  25 -4.963475E+05 -4.599841E+03 -5.614220E+03 -6.420878E+03 -1.127965E+03  8.580958E+01
       141  26 -5.062582E+05 -7.024804E+03 -9.102172E+03  1.412675E+03 -2.133182E+03  4.463016E+02
       141  27 -5.165274E+05 -1.033502E+04 -1.346763E+04 -6.548068E+03 -3.138421E+03  7.960536E+02
       142   1 -3.999400E+05  1.970418E+04  1.436811E+04 -6.788339E+03  4.120137E+03 -1.012624E+03
       142   2 -3.890595E+05  2.299293E+04  1.327351E+04  1.409544E+03  8.448103E+03 -1.371807E+03
       142   3 -3.803522E+05  1.970382E+04  7.722642E+03 -5.724260E+03  1.277616E+04 -1.664951E+03
       142   4 -4.781461E+05  1.746578E+02 -5.034825E+03 -6.381001E+03  4.025866E+03 -1.012612E+03
       142   5 -4.770587E+05  1.025537E+03 -8.522587E+03  1.284954E+03  8.369125E+03 -1.371815E+03
       142   6 -4.781475E+05 -4.704591E+03 -1.647768E+04 -6.380916E+03  1.271241E+04 -1.664983E+03
       142   7 -5.563465E+05 -1.935532E+04 -2.443822E+04 -5.973714E+03  3.931607E+03 -1.012599E+03
       142   8 -5.650509E+05 -2.094243E+04 -3.031926E+04  1.160381E+03  8.290157E+03 -1.371823E+03
       142   9 -5.759342E+05 -2.911372E+04 -4.067871E+04 -7.037468E+03  1.264867E+04 -1.665015E+03
       142  10 -3.999400E+05  1.970418E+04  1.436808E+04 -6.788336E+03  5.417550E-10 -2.474200E-10
       142  11 -3.890596E+05  2.299290E+04  1.327337E+04  1.409553E+03  3.489620E-10  2.068726E-10
       142  12 -3.803524E+05  1.970377E+04  7.722330E+03 -5.724243E+03 -2.170440E-09  4.093989E-10
       142  13 -4.781461E+05  1.746524E+02 -5.034857E+03 -6.380998E+03  1.108951E-09  1.963329E-10
       142  14 -4.770588E+05  1.025517E+03 -8.522722E+03  1.284963E+03  2.334236E-09  1.601008E-10
       142  15 -4.781477E+05 -4.704638E+03 -1.647799E+04 -6.380899E+03  3.863377E-09  2.266542E-10
       142  16 -5.563466E+05 -1.935533E+04 -2.443825E+04 -5.973711E+03 -1.492916E-09  6.935105E-10
       142  17 -5.650510E+05 -2.094245E+04 -3.031939E+04  1.160390E+03 -2.842709E-09  1.896227E-10
       142  18 -5.759343E+05 -2.911376E+04 -4.067902E+04 -7.037451E+03  4.583346E-11  5.770232E-11
       142  19 -3.999400E+05  1.970418E+04  1.436811E+04 -6.788339E+03 -4.120137E+03  1.012624E+03
       142  20 -3.890595E+05  2.299293E+04  1.327351E+04  1.409544E+03 -8.448103E+03  1.371807E+03
       142  21 -3.803522E+05  1.970382E+04  7.722642E+03 -5.724260E+03 -1.277616E+04  1.664951E+03
       142  22 -4.781461E+05  1.746578E+02 -5.034825E+03 -6.381001E+03 -4.025866E+03  1.012612E+03
       142  23 -4.770587E+05  1.025537E+03 -8.522587E+03  1.284954E+03 -8.369125E+03  1.371815E+03
       142  24 -4.781475E+05 -4.704591E+03 -1.647768E+04 -6.380916E+03 -1.271241E+04  1.664983E+03
       142  25 -5.563465E+05 -1.935532E+04 -2.443822E+04 -5.973714E+03 -3.931607E+03  1.012599E+03
       142  26 -5.650509E+05 -2.094243E+04 -3.031926E+04  1.160381E+03 -8.290157E+03  1.371823E+03
       142  27 -5.759342E+05 -2.911372E+04 -4.067871E+04 -7.037468E+03 -1.264867E+04  1.665015E+03
       143   1 -3.452600E+05  3.505494E+04  1.289107E+04 -8.831805E+03  1.619380E+04 -1.919944E+03
       143   2 -3.291785E+05  4.331935E+04  2.174289E+03  2.290149E+03  3.367047E+04 -2.283277E+03
       143   3 -3.268538E+05  5.206847E+03 -3.149400E+04 -9.699124E+02  5.114749E+04 -2.241923E+03
       143   4 -4.807265E+05  1.233896E+03 -2.069068E+04 -6.174581E+03  1.605506E+04 -1.919917E+03
       143   5 -4.738425E+05  7.208323E+03 -3.364988E+04  1.024481E+03  3.362514E+04 -2.283391E+03
       143   6 -4.807352E+05 -3.321640E+04 -6.962943E+04 -6.158795E+03  5.119530E+04 -2.242359E+03
       143   7 -6.161762E+05 -3.258850E+04 -5.427379E+04 -3.517939E+03  1.591634E+04 -1.919891E+03
       143   8 -6.184875E+05 -2.890426E+04 -6.947561E+04 -2.408932E+02  3.357981E+04 -2.283506E+03
       143   9 -6.345952E+05 -7.164133E+04 -1.077666E+05 -1.134639E+04  5.124311E+04 -2.242796E+03
       143  10 -3.452603E+05  3.505487E+04  1.289057E+04 -8.831780E+03 -3.965662E-09 -6.700732E-11
       143  11 -3.291797E+05  4.331903E+04  2.172148E+03  2.290211E+03 -1.945292E-09 -9.879514E-10
       143  12 -3.268566E+05  5.206139E+03 -3.149893E+04 -9.698200E+02 -4.636954E-10 -3.253972E-10
       143  13 -4.807267E+05  1.233822E+03 -2.069117E+04 -6.174557E+03 -2.596247E-11 -1.974506E-10
       143  14 -4.738437E+05  7.208013E+03 -3.365202E+04  1.024543E+03  3.188424E-09 -1.061639E-09
       143  15 -4.807381E+05 -3.321711E+04 -6.963437E+04 -6.158703E+03 -5.172752E-10 -2.037241E-10
       143  16 -6.161765E+05 -3.258857E+04 -5.427428E+04 -3.517915E+03  2.850904E-09 -3.691500E-10
       143  17 -6.184887E+05 -2.890457E+04 -6.947774E+04 -2.408314E+02  1.163841E-09 -3.670407E-10
       143  18 -6.345980E+05 -7.164204E+04 -1.077716E+05 -1.134630E+04  1.785077E-09  1.918661E-10
       143  19 -3.452600E+05  3.505494E+04  1.289107E+04 -8.831805E+03 -1.619380E+04  1.919944E+03
       143  20 -3.291785E+05  4.331935E+04  2.174289E+03  2.290149E+03 -3.367047E+04  2.283277E+03
       143  21 -3.268538E+05  5.206847E+03 -3.149400E+04 -9.699124E+02 -5.114749E+04  2.241923E+03
       143  22 -4.807265E+05  1.233896E+03 -2.069068E+04 -6.174581E+03 -1.605506E+04  1.919917E+03
       143  23 -4.738425E+05  7.208323E+03 -3.364988E+04  1.024481E+03 -3.362514E+04  2.283391E+03
       143  24 -4.807352E+05 -3.321640E+04 -6.962943E+04 -6.158795E+03 -5.119530E+04  2.242359E+03
       143  25 -6.161762E+05 -3.258850E+04 -5.427379E+04 -3.517939E+03 -1.591634E+04  1.919891E+03
       143  26 -6.184875E+05 -2.890426E+04 -6.947561E+04 -2.408932E+02 -3.357981E+04  2.283506E+03
       143  27 -6.345952E+05 -7.164133E+04 -1.077666E+05 -1.134639E+04 -5.124311E+04  2.242796E+03
       144   1 -3.089858E+05  5.594182E+04 -3.759080E+04 -2.402876E+04  6.545401E+04 -2.835453E+03
       144   2 -2.556344E+05  9.960557E+04 -8.099621E+04  1.065185E+04  1.355635E+05 -3.310822E+03
       144   3 -2.924390E+05 -1.817158E+05 -2.512392E+05  3.261284E+04  2.056727E+05 -9.410782E+02
       144   4 -4.977297E+05  8.852330E+03 -8.434461E+04 -5.879889E+03  6.497415E+04 -2.833876E+03
       144   5 -4.526006E+05  5.043171E+04 -1.297276E+05  6.089412E+02  1.357449E+05 -3.312901E+03
       144   6 -4.977727E+05 -2.331469E+05 -3.024369E+05 -5.620673E+03  2.065145E+05 -9.527882E+02
       144   7 -6.864405E+05 -3.823858E+04 -1.311009E+05  1.226345E+04  6.449443E+04 -2.832328E+03
       144   8 -6.495313E+05  1.255314E+03 -1.784618E+05 -9.430786E+03  1.359263E+05 -3.314986E+03
       144   9 -7.030651E+05 -2.845757E+05 -3.536371E+05 -4.384154E+04  2.073560E+05 -9.646054E+02
       144  10 -3.089904E+05  5.594066E+04 -3.759887E+04 -2.402861E+04  2.320933E-09 -1.038590E-09
       144  11 -2.556541E+05  9.960062E+04 -8.103078E+04  1.065221E+04  9.330580E-10 -3.791281E-09
       144  12 -2.924845E+05 -1.817271E+05 -2.513187E+05  3.261300E+04 -2.504382E-09 -1.096907E-09
       144  13 -4.977343E+05  8.851186E+03 -8.435257E+04 -5.879741E+03 -7.343938E-10 -2.775378E-09
       144  14 -4.526204E+05  5.042674E+04 -1.297623E+05  6.093035E+02 -1.682893E-09  7.364273E-10
       144  15 -4.978186E+05 -2.331584E+05 -3.025171E+05 -5.620514E+03 -1.362731E-09 -4.723713E-10
       144  16 -6.864450E+05 -3.823971E+04 -1.311087E+05  1.226360E+04 -3.452774E-09 -2.415672E-10
       144  17 -6.495511E+05  1.250335E+03 -1.784966E+05 -9.430423E+03 -8.855902E-10  5.136273E-10
       144  18 -7.031113E+05 -2.845873E+05 -3.537180E+05 -4.384138E+04  2.343939E-11 -1.356656E-09
       144  19 -3.089858E+05  5.594182E+04 -3.759080E+04 -2.402876E+04 -6.545401E+04  2.835453E+03
       144  20 -2.556344E+05  9.960557E+04 -8.099621E+04  1.065185E+04 -1.355635E+05  3.310822E+03
       144  21 -2.924390E+05 -1.817158E+05 -2.512392E+05  3.261284E+04 -2.056727E+05  9.410782E+02
       144  22 -4.977297E+05  8.852330E+03 -8.434461E+04 -5.879889E+03 -6.497415E+04  2.833876E+03
       144  23 -4.526006E+05  5.043171E+04 -1.297276E+05  6.089412E+02 -1.357449E+05  3.312901E+03
       144  24 -4.977727E+05 -2.331469E+05 -3.024369E+05 -5.620673E+03 -2.065145E+05  9.527882E+02
       144  25 -6.864405E+05 -3.823858E+04 -1.311009E+05  1.226345E+04 -6.449443E+04  2.832328E+03
       144  26 -6.495313E+05  1.255314E+03 -1.784618E+05 -9.430786E+03 -1.359263E+05  3.314986E+03
       144  27 -7.030651E+05 -2.845757E+05 -3.536371E+05 -4.384154E+04 -2.073560E+05  9.646054E+02
       145   1  2.654390E+05  3.081558E+05  2.842367E+05 -8.647104E+04  4.440275E+03  6.684822E+04
       145   2  1.525774E+05  1.784257E+05  2.009572E+05  1.171859E+04  1.196368E+04  4.446892E+04
       145   3  1.344780E+05  7.643741E+04  1.561644E+05 -7.091671E+04  6.942356E+03  2.206320E+04
       145   4  6.894638E+04 -4.781757E+05  8.835168E+04 -7.447607E+04  4.447317E+03  6.349365E+04
       145   5 -1.465495E+04 -4.918288E+05  3.525422E+04  1.587894E+04  1.196549E+04  4.414935E+04
       145   6 -3.964602E+03 -4.782455E+05  1.857111E+04 -7.460165E+04  6.933550E+03  2.477439E+04
       145   7 -1.275923E+05 -1.263946E+06 -1.075797E+05 -6.249603E+04  4.454234E+03  6.014329E+04
       145   8 -1.819209E+05 -1.161675E+06 -1.304821E+05  2.003502E+04  1.196729E+04  4.383011E+04
       145   9 -1.424302E+05 -1.032649E+06 -1.190451E+05 -7.828305E+04  6.924708E+03  2.748316E+04
       145  10  2.654378E+05  3.081510E+05  2.842282E+05 -8.647128E+04 -1.300464E-10  1.529114E-09
       145  11  1.525768E+05  1.784236E+05  2.009532E+05  1.171817E+04  3.185616E-10  1.069581E-09
       145  12  1.344779E+05  7.643687E+04  1.561634E+05 -7.091683E+04 -1.054578E-09 -1.641539E-09
       145  13  6.894528E+04 -4.781800E+05  8.834406E+04 -7.447629E+04 -2.880717E-10  2.937267E-11
       145  14 -1.465563E+04 -4.918309E+05  3.525028E+04  1.587851E+04  8.852048E-11 -2.655625E-09
       145  15 -3.964819E+03 -4.782462E+05  1.856987E+04 -7.460179E+04 -5.340056E-09 -4.504678E-10
       145  16 -1.275933E+05 -1.263950E+06 -1.075865E+05 -6.249624E+04 -2.618278E-10  9.163070E-11
       145  17 -1.819216E+05 -1.161677E+06 -1.304860E+05  2.003460E+04 -1.660236E-09 -5.054999E-09
       145  18 -1.424305E+05 -1.032650E+06 -1.190466E+05 -7.828320E+04 -4.553849E-09  2.660780E-09
       145  19  2.654390E+05  3.081558E+05  2.842367E+05 -8.647104E+04 -4.440275E+03 -6.684822E+04
       145  20  1.525774E+05  1.784257E+05  2.009572E+05  1.171859E+04 -1.196368E+04 -4.446892E+04
       145  21  1.344780E+05  7.643741E+04  1.561644E+05 -7.091671E+04 -6.942356E+03 -2.206320E+04
       145  22  6.894638E+04 -4.781757E+05  8.835168E+04 -7.447607E+04 -4.447317E+03 -6.349365E+04
       145  23 -1.465495E+04 -4.918288E+05  3.525422E+04  1.587894E+04 -1.196549E+04 -4.414935E+04
       145  24 -3.964602E+03 -4.782455E+05  1.857111E+04 -7.460165E+04 -6.933550E+03 -2.477439E+04
       145  25 -1.275923E+05 -1.263946E+06 -1.075797E+05 -6.249603E+04 -4.454234E+03 -6.014329E+04
       145  26 -1.819209E+05 -1.161675E+06 -1.304821E+05  2.003502E+04 -1.196729E+04 -4.383011E+04
       145  27 -1.424302E+05 -1.032649E+06 -1.190451E+05 -7.828305E+04 -6.924708E+03 -2.748316E+04
       146   1  3.382535E+04 -3.920202E+05  3.508797E+04 -7.574325E+04  2.288985E+03  2.132020E+04
       146   2 -5.319982E+03 -5.078827E+05 -9.881631E+03  1.582881E+04 -4.713445E+02  2.333102E+04
       146   3 -4.899411E+04 -6.267036E+05 -5.762049E+04 -7.619033E+04 -3.152438E+03  2.534200E+04
       146   4  1.067580E+04 -4.848522E+05  1.223765E+04 -7.512266E+04  2.286633E+03  2.198945E+04
       146   5  7.914501E+02 -4.833727E+05 -3.813184E+03  1.663069E+04 -4.735660E+02  2.398252E+04
       146   6 -1.361638E+04 -4.848582E+05 -2.261733E+04 -7.520675E+04 -3.154560E+03  2.597614E+04
       146   7 -1.247440E+04 -5.776763E+05 -1.061331E+04 -7.450215E+04  2.284283E+03  2.265860E+04
       146   8  6.902840E+03 -4.588622E+05  2.255221E+03  1.743261E+04 -4.757858E+02  2.463405E+04
       146   9  2.175985E+04 -3.429946E+05  1.238435E+04 -7.422294E+04 -3.156679E+03  2.661042E+04
       146  10  3.382523E+04 -3.920207E+05  3.508711E+04 -7.574329E+04 -2.236044E-09  3.544349E-09
       146  11 -5.320129E+03 -5.078833E+05 -9.882655E+03  1.582882E+04  4.689059E-10  9.709994E-10
       146  12 -4.899429E+04 -6.267043E+05 -5.762172E+04 -7.619026E+04 -9.498912E-10 -1.618543E-09
       146  13  1.067566E+04 -4.848527E+05  1.223673E+04 -7.512270E+04 -6.066112E-09  1.073658E-10
       146  14  7.912953E+02 -4.833733E+05 -3.814266E+03  1.663070E+04 -1.225799E-09 -3.794161E-09
       146  15 -1.361657E+04 -4.848589E+05 -2.261862E+04 -7.520669E+04  6.189545E-10 -3.825204E-10
       146  16 -1.247454E+04 -5.776768E+05 -1.061428E+04 -7.450219E+04 -5.152903E-09  7.687504E-11
       146  17  6.902677E+03 -4.588629E+05  2.254079E+03  1.743262E+04  3.209539E-09 -6.629417E-09
       146  18  2.175965E+04 -3.429953E+05  1.238300E+04 -7.422287E+04 -1.404041E-09  2.838662E-09
       146  19  3.382535E+04 -3.920202E+05  3.508797E+04 -7.574325E+04 -2.288985E+03 -2.132020E+04
       146  20 -5.319982E+03 -5.078827E+05 -9.881631E+03  1.582881E+04  4.713445E+02 -2.333102E+04
       146  21 -4.899411E+04 -6.267036E+05 -5.762049E+04 -7.619033E+04  3.152438E+03 -2.534200E+04
       146  22  1.067580E+04 -4.848522E+05  1.223765E+04 -7.512266E+04 -2.286633E+03 -2.198945E+04
       146  23  7.914501E+02 -4.833727E+05 -3.813184E+03  1.663069E+04  4.735660E+02 -2.398252E+04
       146  24 -1.361638E+04 -4.848582E+05 -2.261733E+04 -7.520675E+04  3.154560E+03 -2.597614E+04
       146  25 -1.247440E+04 -5.776763E+05 -1.061331E+04 -7.450215E+04 -2.284283E+03 -2.265860E+04
       146  26  6.902840E+03 -4.588622E+05  2.255221E+03  1.743261E+04  4.757858E+02 -2.463405E+04
       146  27  2.175985E+04 -3.429946E+05  1.238435E+04 -7.422294E+04  3.156679E+03 -2.661042E+04
       147   1 -1.451160E+05 -1.094977E+06 -1.795028E+05 -6.563945E+04 -7.881942E+03  2.780869E+04
       147   2 -1.591361E+05 -1.192800E+06 -2.290567E+05  1.287717E+04 -1.304010E+04  5.896464E+04
       147   3 -3.039695E+05 -1.325870E+06 -3.313333E+05 -8.916865E+04 -4.958353E+03  9.014394E+04
       147   4  5.583626E+03 -4.920097E+05 -2.982675E+04 -7.442355E+04 -7.890907E+03  3.063097E+04
       147   5  2.014616E+04 -4.746629E+05 -5.136670E+04  1.577611E+04 -1.303804E+04  5.864332E+04
       147   6 -9.547380E+04 -4.919795E+05 -1.233967E+05 -7.457621E+04 -4.950784E+03  8.668500E+04
       147   7  1.562562E+05  1.112881E+05  1.198222E+05 -8.321591E+04 -7.899946E+03  3.345598E+04
       147   8  1.993899E+05  2.439438E+05  1.262849E+05  1.867868E+04 -1.303598E+04  5.832160E+04
       147   9  1.129704E+05  3.425427E+05  8.448772E+04 -5.996387E+04 -4.943385E+03  8.322135E+04
       147  10 -1.451163E+05 -1.094978E+06 -1.795044E+05 -6.563928E+04 -2.939393E-10  4.401699E-09
       147  11 -1.591372E+05 -1.192804E+06 -2.290635E+05  1.287779E+04  2.148927E-09  9.497786E-10
       147  12 -3.039717E+05 -1.325878E+06 -3.313486E+05 -8.916829E+04  9.891491E-10 -2.227647E-09
       147  13  5.583307E+03 -4.920108E+05 -2.982864E+04 -7.442336E+04 -1.276566E-09 -1.643467E-11
       147  14  2.014506E+04 -4.746666E+05 -5.137349E+04  1.577673E+04 -2.210666E-10 -2.536466E-09
       147  15 -9.547584E+04 -4.919876E+05 -1.234109E+05 -7.457587E+04  2.412035E-09 -2.566791E-10
       147  16  1.562559E+05  1.112869E+05  1.198200E+05 -8.321570E+04 -6.853217E-10 -1.141552E-09
       147  17  1.993888E+05  2.439401E+05  1.262782E+05  1.867929E+04  9.847479E-10 -4.572135E-09
       147  18  1.129685E+05  3.425352E+05  8.447467E+04 -5.996354E+04  1.172956E-09  2.607202E-09
       147  19 -1.451160E+05 -1.094977E+06 -1.795028E+05 -6.563945E+04  7.881942E+03 -2.780869E+04
       147  20 -1.591361E+05 -1.192800E+06 -2.290567E+05  1.287717E+04  1.304010E+04 -5.896464E+04
       147  21 -3.039695E+05 -1.325870E+06 -3.313333E+05 -8.916865E+04  4.958353E+03 -9.014394E+04
       147  22  5.583626E+03 -4.920097E+05 -2.982675E+04 -7.442355E+04  7.890907E+03 -3.063097E+04
       147  23  2.014616E+04 -4.746629E+05 -5.136670E+04  1.577611E+04  1.303804E+04 -5.864332E+04
       147  24 -9.547380E+04 -4.919795E+05 -1.233967E+05 -7.457621E+04  4.950784E+03 -8.668500E+04
       147  25  1.562562E+05  1.112881E+05  1.198222E+05 -8.321591E+04  7.899946E+03 -3.345598E+04
       147  26  1.993899E+05  2.439438E+05  1.262849E+05  1.867868E+04  1.303598E+04 -5.832160E+04
       147  27  1.129704E+05  3.425427E+05  8.448772E+04 -5.996387E+04  4.943385E+03 -8.322135E+04
       148   1 -1.649373E+06 -3.932335E+05 -2.036083E+05 -5.801139E+05 -1.055015E+05 -3.874177E+04
       148   2 -1.615842E+06 -2.397428E+05 -1.045444E+05 -6.086803E+05 -6.835097E+04 -2.291954E+04
       148   3 -1.644150E+06 -2.546859E+05 -7.851229E+04 -5.999624E+05 -3.045026E+04 -9.089166E+03
       148   4 -1.522998E+06 -3.276291E+05 -1.652832E+05 -5.274701E+05 -1.049321E+05 -3.853128E+04
       148   5 -1.483837E+06 -1.852440E+05 -6.757471E+04 -5.679974E+05 -6.822137E+04 -2.287147E+04
       148   6 -1.506414E+06 -2.111850E+05 -4.253700E+04 -5.712444E+05 -3.076026E+04 -9.205201E+03
       148   7 -1.396608E+06 -2.620190E+05 -1.269596E+05 -4.748151E+05 -1.043625E+05 -3.832070E+04
       148   8 -1.351815E+06 -1.307431E+05 -3.060664E+04 -5.273063E+05 -6.809174E+04 -2.282338E+04
       148   9 -1.368660E+06 -1.676842E+05 -6.563228E+03 -5.425214E+05 -3.107033E+04 -9.321254E+03
       148  10 -1.649385E+06 -3.932381E+05 -2.036321E+05 -5.801172E+05  8.008443E-10 -5.446177E-10
       148  11 -1.615847E+06 -2.397447E+05 -1.045542E+05 -6.086815E+05 -6.597542E-10 -4.975449E-10
       148  12 -1.644151E+06 -2.546862E+05 -7.851419E+04 -5.999626E+05 -3.034867E-09  6.677780E-10
       148  13 -1.523011E+06 -3.276337E+05 -1.653067E+05 -5.274733E+05 -1.205887E-09 -1.122093E-10
       148  14 -1.483842E+06 -1.852458E+05 -6.758447E+04 -5.679986E+05  8.284443E-10  7.126196E-10
       148  15 -1.506415E+06 -2.111853E+05 -4.253894E+04 -5.712447E+05 -3.537451E-09  4.279996E-10
       148  16 -1.396620E+06 -2.620235E+05 -1.269828E+05 -4.748183E+05  1.462689E-09  2.081750E-10
       148  17 -1.351820E+06 -1.307450E+05 -3.061636E+04 -5.273075E+05  2.947451E-10  6.341122E-11
       148  18 -1.368661E+06 -1.676846E+05 -6.565210E+03 -5.425216E+05  4.697191E-10  1.834176E-09
       148  19 -1.649373E+06 -3.932335E+05 -2.036083E+05 -5.801139E+05  1.055015E+05  3.874177E+04
       148  20 -1.615842E+06 -2.397428E+05 -1.045444E+05 -6.086803E+05  6.835097E+04  2.291954E+04
       148  21 -1.644150E+06 -2.546859E+05 -7.851229E+04 -5.999624E+05  3.045026E+04  9.089166E+03
       148  22 -1.522998E+06 -3.276291E+05 -1.652832E+05 -5.274701E+05  1.049321E+05  3.853128E+04
       148  23 -1.483837E+06 -1.852440E+05 -6.757471E+04 -5.679974E+05  6.822137E+04  2.287147E+04
       148  24 -1.506414E+06 -2.111850E+05 -4.253700E+04 -5.712444E+05  3.076026E+04  9.205201E+03
       148  25 -1.396608E+06 -2.620190E+05 -1.269596E+05 -4.748151E+05  1.043625E+05  3.832070E+04
       148  26 -1.351815E+06 -1.307431E+05 -3.060664E+04 -5.273063E+05  6.809174E+04  2.282338E+04
       148  27 -1.368660E+06 -1.676842E+05 -6.563228E+03 -5.425214E+05  3.107033E+04  9.321254E+03
       149   1 -1.607560E+06 -2.739241E+05 -6.482581E+04 -5.928879E+05 -2.425355E+04 -7.222221E+03
       149   2 -1.600323E+06 -2.462738E+05 -4.400653E+04 -5.915280E+05 -1.574663E+04 -3.984001E+03
       149   3 -1.595528E+06 -2.497905E+05 -3.599685E+04 -5.927284E+05 -7.112086E+03 -1.085349E+03
       149   4 -1.500368E+06 -2.309733E+05 -3.501483E+04 -5.612005E+05 -2.421025E+04 -7.206095E+03
       149   5 -1.497963E+06 -2.070151E+05 -1.590912E+04 -5.630663E+05 -1.577807E+04 -3.995851E+03
       149   6 -1.497984E+06 -2.142068E+05 -9.551949E+03 -5.674927E+05 -7.218336E+03 -1.125235E+03
       149   7 -1.393165E+06 -1.880214E+05 -5.204968E+03 -5.295082E+05 -2.416695E+04 -7.189965E+03
       149   8 -1.395594E+06 -1.677558E+05  1.218733E+04 -5.346003E+05 -1.580952E+04 -4.007702E+03
       149   9 -1.400432E+06 -1.786226E+05  1.689214E+04 -5.422535E+05 -7.324604E+03 -1.165127E+03
       149  10 -1.607561E+06 -2.739244E+05 -6.482701E+04 -5.928880E+05 -1.715948E-09  1.129609E-09
       149  11 -1.600323E+06 -2.462739E+05 -4.400702E+04 -5.915280E+05 -3.908076E-09  1.047048E-09
       149  12 -1.595528E+06 -2.497905E+05 -3.599695E+04 -5.927284E+05  1.264894E-09  4.269041E-10
       149  13 -1.500369E+06 -2.309735E+05 -3.501603E+04 -5.612007E+05 -5.715395E-09  2.215762E-09
       149  14 -1.497963E+06 -2.070152E+05 -1.590962E+04 -5.630663E+05 -3.448391E-11 -5.127075E-10
       149  15 -1.497984E+06 -2.142068E+05 -9.552050E+03 -5.674927E+05 -2.154960E-10  7.505976E-10
       149  16 -1.393165E+06 -1.880216E+05 -5.206166E+03 -5.295083E+05 -2.658707E-09  1.725779E-09
       149  17 -1.395594E+06 -1.677558E+05  1.218683E+04 -5.346004E+05 -2.936558E-10 -1.759976E-10
       149  18 -1.400432E+06 -1.786226E+05  1.689203E+04 -5.422535E+05 -2.296432E-09  1.471974E-10
       149  19 -1.607560E+06 -2.739241E+05 -6.482581E+04 -5.928879E+05  2.425355E+04  7.222221E+03
       149  20 -1.600323E+06 -2.462738E+05 -4.400653E+04 -5.915280E+05  1.574663E+04  3.984001E+03
       149  21 -1.595528E+06 -2.497905E+05 -3.599685E+04 -5.927284E+05  7.112086E+03  1.085349E+03
       149  22 -1.500368E+06 -2.309733E+05 -3.501483E+04 -5.612005E+05  2.421025E+04  7.206095E+03
       149  23 -1.497963E+06 -2.070151E+05 -1.590912E+04 -5.630663E+05  1.577807E+04  3.995851E+03
       149  24 -1.497984E+06 -2.142068E+05 -9.551949E+03 -5.674927E+05  7.218336E+03  1.125235E+03
       149  25 -1.393165E+06 -1.880214E+05 -5.204968E+03 -5.295082E+05  2.416695E+04  7.189965E+03
       149  26 -1.395594E+06 -1.677558E+05  1.218733E+04 -5.346003E+05  1.580952E+04  4.007702E+03
       149  27 -1.400432E+06 -1.786226E+05  1.689214E+04 -5.422535E+05  7.324604E+03  1.165127E+03
       150   1 -1.561946E+06 -2.422993E+05 -2.550775E+04 -5.844786E+05 -5.672920E+03 -7.820922E+02
       150   2 -1.558169E+06 -2.316108E+05 -1.958433E+04 -5.776727E+05 -3.596063E+03 -2.829460E+02
       150   3 -1.546558E+06 -2.337198E+05 -1.607111E+04 -5.807424E+05 -1.489424E+03  1.366503E+02
       150   4 -1.496724E+06 -2.173503E+05 -7.634534E+03 -5.664062E+05 -5.719497E+03 -7.995867E+02
       150   5 -1.500474E+06 -2.097603E+05 -3.800131E+03 -5.619157E+05 -3.660270E+03 -3.070453E+02
       150   6 -1.496385E+06 -2.149639E+05 -2.361696E+03 -5.673006E+05 -1.571291E+03  1.059376E+02
       150   7 -1.431497E+06 -1.924010E+05  1.023829E+04 -5.483321E+05 -5.766080E+03 -8.170833E+02
       150   8 -1.442775E+06 -1.879096E+05  1.198376E+04 -5.461573E+05 -3.724485E+03 -3.311472E+02
       150   9 -1.446210E+06 -1.962080E+05  1.134747E+04 -5.538579E+05 -1.653166E+03  7.522228E+01
       150  10 -1.561946E+06 -2.422993E+05 -2.550781E+04 -5.844786E+05  1.254875E-09  4.942809E-10
       150  11 -1.558169E+06 -2.316108E+05 -1.958436E+04 -5.776727E+05 -2.242711E-09 -5.048236E-10
       150  12 -1.546558E+06 -2.337198E+05 -1.607111E+04 -5.807424E+05 -2.169340E-09  6.358955E-10
       150  13 -1.496724E+06 -2.173503E+05 -7.634596E+03 -5.664062E+05  1.581479E-09  6.576055E-11
       150  14 -1.500474E+06 -2.097603E+05 -3.800157E+03 -5.619157E+05 -9.326304E-10 -5.002142E-10
       150  15 -1.496385E+06 -2.149639E+05 -2.361701E+03 -5.673006E+05  3.312805E-09  7.369991E-10
       150  16 -1.431497E+06 -1.924010E+05  1.023823E+04 -5.483321E+05 -2.834972E-09 -1.473888E-10
       150  17 -1.442775E+06 -1.879096E+05  1.198373E+04 -5.461573E+05  2.584715E-09 -4.113227E-10
       150  18 -1.446210E+06 -1.962080E+05  1.134746E+04 -5.538579E+05  3.393912E-09  9.682845E-10
       150  19 -1.561946E+06 -2.422993E+05 -2.550775E+04 -5.844786E+05  5.672920E+03  7.820922E+02
       150  20 -1.558169E+06 -2.316108E+05 -1.958433E+04 -5.776727E+05  3.596063E+03  2.829460E+02
       150  21 -1.546558E+06 -2.337198E+05 -1.607111E+04 -5.807424E+05  1.489424E+03 -1.366503E+02
       150  22 -1.496724E+06 -2.173503E+05 -7.634534E+03 -5.664062E+05  5.719497E+03  7.995867E+02
       150  23 -1.500474E+06 -2.097603E+05 -3.800131E+03 -5.619157E+05  3.660270E+03  3.070453E+02
       150  24 -1.496385E+06 -2.149639E+05 -2.361696E+03 -5.673006E+05  1.571291E+03 -1.059376E+02
       150  25 -1.431497E+06 -1.924010E+05  1.023829E+04 -5.483321E+05  5.766080E+03  8.170833E+02
       150  26 -1.442775E+06 -1.879096E+05  1.198376E+04 -5.461573E+05  3.724485E+03  3.311472E+02
       150  27 -1.446210E+06 -1.962080E+05  1.134747E+04 -5.538579E+05  1.653166E+03 -7.522228E+01
       151   1 -1.510042E+06 -2.208045E+05 -5.756008E+03 -5.711217E+05 -1.067650E+03  6.642791E+01
       151   2 -1.506611E+06 -2.121385E+05 -2.932467E+03 -5.631501E+05 -2.418723E+02  1.391081E+01
       151   3 -1.493432E+06 -2.142582E+05 -8.212247E+02 -5.665934E+05  5.872127E+02 -4.737786E+01
       151   4 -1.496098E+06 -2.154945E+05 -1.964715E+03 -5.672761E+05 -1.137895E+03  4.007949E+01
       151   5 -1.500957E+06 -2.099986E+05 -1.385993E+03 -5.616072E+05 -3.140732E+02 -1.317032E+01
       151   6 -1.496068E+06 -2.152879E+05 -1.518048E+03 -5.673534E+05  5.130434E+02 -7.519570E+01
       151   7 -1.482153E+06 -2.101844E+05  1.826569E+03 -5.634303E+05 -1.208143E+03  1.373034E+01
       151   8 -1.495303E+06 -2.078586E+05  1.604763E+02 -5.600643E+05 -3.862749E+02 -4.025170E+01
       151   9 -1.498705E+06 -2.163177E+05 -2.214869E+03 -5.681134E+05  4.388746E+02 -1.030133E+02
       151  10 -1.510042E+06 -2.208045E+05 -5.756010E+03 -5.711217E+05 -1.732620E-09  5.772977E-10
       151  11 -1.506611E+06 -2.121385E+05 -2.932467E+03 -5.631501E+05  1.825417E-09 -7.675733E-10
       151  12 -1.493432E+06 -2.142582E+05 -8.212253E+02 -5.665934E+05 -1.444731E-09  3.929015E-10
       151  13 -1.496098E+06 -2.154945E+05 -1.964717E+03 -5.672761E+05  3.057311E-09  5.759129E-10
       151  14 -1.500957E+06 -2.099986E+05 -1.385994E+03 -5.616072E+05  2.612607E-09 -9.079523E-10
       151  15 -1.496068E+06 -2.152879E+05 -1.518049E+03 -5.673534E+05 -2.448535E-09  8.880495E-11
       151  16 -1.482153E+06 -2.101844E+05  1.826566E+03 -5.634303E+05  1.442717E-09  4.713127E-10
       151  17 -1.495303E+06 -2.078586E+05  1.604760E+02 -5.600643E+05 -1.789962E-09 -1.139911E-09
       151  18 -1.498705E+06 -2.163177E+05 -2.214870E+03 -5.681134E+05 -1.137848E-09 -1.274267E-10
       151  19 -1.510042E+06 -2.208045E+05 -5.756008E+03 -5.711217E+05  1.067650E+03 -6.642791E+01
       151  20 -1.506611E+06 -2.121385E+05 -2.932467E+03 -5.631501E+05  2.418723E+02 -1.391081E+01
       151  21 -1.493432E+06 -2.142582E+05 -8.212247E+02 -5.665934E+05 -5.872127E+02  4.737786E+01
       151  22 -1.496098E+06 -2.154945E+05 -1.964715E+03 -5.672761E+05  1.137895E+03 -4.007949E+01
       151  23 -1.500957E+06 -2.099986E+05 -1.385993E+03 -5.616072E+05  3.140732E+02  1.317032E+01
       151  24 -1.496068E+06 -2.152879E+05 -1.518048E+03 -5.673534E+05 -5.130434E+02  7.519570E+01
       151  25 -1.482153E+06 -2.101844E+05  1.826569E+03 -5.634303E+05  1.208143E+03 -1.373034E+01
       151  26 -1.495303E+06 -2.078586E+05  1.604763E+02 -5.600643E+05  3.862749E+02  4.025170E+01
       151  27 -1.498705E+06 -2.163177E+05 -2.214869E+03 -5.681134E+05 -4.388746E+02  1.030133E+02
       152   1 -1.456900E+06 -2.003247E+05  9.040857E+03 -5.566960E+05  9.339819E+02 -1.446087E+02
       152   2 -1.453572E+06 -1.921842E+05  1.032135E+04 -5.489355E+05  2.360185E+03  1.806542E+01
       152   3 -1.441316E+06 -1.951147E+05  1.024216E+04 -5.518638E+05  3.771118E+03  2.216643E+02
       152   4 -1.496214E+06 -2.150844E+05 -1.720536E+03 -5.672926E+05  8.561676E+02 -1.737970E+02
       152   5 -1.500742E+06 -2.100069E+05 -2.574883E+03 -5.617762E+05  2.291447E+03 -7.727753E+00
       152   6 -1.496344E+06 -2.160023E+05 -4.796175E+03 -5.669487E+05  3.711438E+03  1.992612E+02
       152   7 -1.535526E+06 -2.298440E+05 -1.248209E+04 -5.778886E+05  7.783586E+02 -2.029833E+02
       152   8 -1.547911E+06 -2.278296E+05 -1.547135E+04 -5.746160E+05  2.222714E+03 -3.351884E+01
       152   9 -1.551370E+06 -2.368899E+05 -1.983485E+04 -5.820323E+05  3.651764E+03  1.768602E+02
       152  10 -1.456900E+06 -2.003247E+05  9.040856E+03 -5.566960E+05 -1.479981E-09  8.362560E-10
       152  11 -1.453572E+06 -1.921842E+05  1.032134E+04 -5.489355E+05  1.099181E-10 -8.170523E-10
       152  12 -1.441316E+06 -1.951147E+05  1.024213E+04 -5.518638E+05  3.579644E-10 -3.778540E-10
       152  13 -1.496214E+06 -2.150844E+05 -1.720538E+03 -5.672926E+05 -1.800261E-09  3.769762E-10
       152  14 -1.500742E+06 -2.100069E+05 -2.574893E+03 -5.617762E+05  1.383007E-10 -2.233708E-10
       152  15 -1.496344E+06 -2.160023E+05 -4.796201E+03 -5.669487E+05  1.867640E-09  3.291215E-11
       152  16 -1.535526E+06 -2.298440E+05 -1.248209E+04 -5.778886E+05 -2.574434E-09 -2.543769E-10
       152  17 -1.547911E+06 -2.278296E+05 -1.547136E+04 -5.746160E+05 -2.855895E-09 -5.512011E-10
       152  18 -1.551370E+06 -2.368899E+05 -1.983487E+04 -5.820323E+05 -2.273139E-10  1.440388E-10
       152  19 -1.456900E+06 -2.003247E+05  9.040857E+03 -5.566960E+05 -9.339819E+02  1.446087E+02
       152  20 -1.453572E+06 -1.921842E+05  1.032135E+04 -5.489355E+05 -2.360185E+03 -1.806542E+01
       152  21 -1.441316E+06 -1.951147E+05  1.024216E+04 -5.518638E+05 -3.771118E+03 -2.216643E+02
       152  22 -1.496214E+06 -2.150844E+05 -1.720536E+03 -5.672926E+05 -8.561676E+02  1.737970E+02
       152  23 -1.500742E+06 -2.100069E+05 -2.574883E+03 -5.617762E+05 -2.291447E+03  7.727753E+00
       152  24 -1.496344E+06 -2.160023E+05 -4.796175E+03 -5.669487E+05 -3.711438E+03 -1.992612E+02
       152  25 -1.535526E+06 -2.298440E+05 -1.248209E+04 -5.778886E+05 -7.783586E+02  2.029833E+02
       152  26 -1.547911E+06 -2.278296E+05 -1.547135E+04 -5.746160E+05 -2.222714E+03  3.351884E+01
       152  27 -1.551370E+06 -2.368899E+05 -1.983485E+04 -5.820323E+05 -3.651764E+03 -1.768602E+02
       153   1 -1.409152E+06 -1.818709E+05  1.786362E+04 -5.437909E+05  4.759688E+03  3.864548E+02
       153   2 -1.405455E+06 -1.734546E+05  1.529719E+04 -5.367439E+05  1.024955E+04  2.113735E+03
       153   3 -1.398051E+06 -1.826353E+05  6.110133E+03 -5.364620E+05  1.569878E+04  3.949458E+03
       153   4 -1.497097E+06 -2.145557E+05 -6.101489E+03 -5.671649E+05  4.681553E+03  3.571199E+02
       153   5 -1.499430E+06 -2.091420E+05 -1.042999E+04 -5.625119E+05  1.019494E+04  2.093208E+03
       153   6 -1.498062E+06 -2.213308E+05 -2.139857E+04 -5.646238E+05  1.566765E+04  3.937711E+03
       153   7 -1.585035E+06 -2.472400E+05 -3.006720E+04 -5.905360E+05  4.603431E+03  3.277896E+02
       153   8 -1.593397E+06 -2.448288E+05 -3.615793E+04 -5.882764E+05  1.014034E+04  2.072684E+03
       153   9 -1.598062E+06 -2.600256E+05 -4.890818E+04 -5.927814E+05  1.563651E+04  3.925967E+03
       153  10 -1.409152E+06 -1.818709E+05  1.786358E+04 -5.437909E+05 -3.285530E-10  2.869449E-10
       153  11 -1.405455E+06 -1.734546E+05  1.529698E+04 -5.367440E+05 -2.005221E-09  6.249203E-10
       153  12 -1.398051E+06 -1.826354E+05  6.109640E+03 -5.364620E+05 -7.450437E-10 -1.909577E-10
       153  13 -1.497097E+06 -2.145557E+05 -6.101530E+03 -5.671649E+05 -4.131442E-10  4.857505E-10
       153  14 -1.499430E+06 -2.091420E+05 -1.043020E+04 -5.625120E+05 -5.131071E-11  1.804983E-10
       153  15 -1.498062E+06 -2.213309E+05 -2.139906E+04 -5.646238E+05  1.448149E-09 -5.212075E-10
       153  16 -1.585035E+06 -2.472400E+05 -3.006724E+04 -5.905360E+05  3.247272E-10  2.654858E-10
       153  17 -1.593397E+06 -2.448288E+05 -3.615813E+04 -5.882764E+05  1.271247E-09  6.217504E-10
       153  18 -1.598063E+06 -2.600257E+05 -4.890867E+04 -5.927815E+05 -6.233671E-10 -4.825510E-10
       153  19 -1.409152E+06 -1.818709E+05  1.786362E+04 -5.437909E+05 -4.759688E+03 -3.864548E+02
       153  20 -1.405455E+06 -1.734546E+05  1.529719E+04 -5.367439E+05 -1.024955E+04 -2.113735E+03
       153  21 -1.398051E+06 -1.826353E+05  6.110133E+03 -5.364620E+05 -1.569878E+04 -3.949458E+03
       153  22 -1.497097E+06 -2.145557E+05 -6.101489E+03 -5.671649E+05 -4.681553E+03 -3.571199E+02
       153  23 -1.499430E+06 -2.091420E+05 -1.042999E+04 -5.625119E+05 -1.019494E+04 -2.093208E+03
       153  24 -1.498062E+06 -2.213308E+05 -2.139857E+04 -5.646238E+05 -1.566765E+04 -3.937711E+03
       153  25 -1.585035E+06 -2.472400E+05 -3.006720E+04 -5.905360E+05 -4.603431E+03 -3.277896E+02
       153  26 -1.593397E+06 -2.448288E+05 -3.615793E+04 -5.882764E+05 -1.014034E+04 -2.072684E+03
       153  27 -1.598062E+06 -2.600256E+05 -4.890818E+04 -5.927814E+05 -1.563651E+04 -3.925967E+03
       154   1 -1.373125E+06 -1.682572E+05  7.429882E+03 -5.372002E+05  1.982206E+04  5.300502E+03
       154   2 -1.364518E+06 -1.503785E+05 -9.401491E+03 -5.281804E+05  4.365637E+04  1.398593E+04
       154   3 -1.378672E+06 -2.046461E+05 -6.217171E+04 -5.083110E+05  6.734842E+04  2.305091E+04
       154   4 -1.501054E+06 -2.130477E+05 -2.686333E+04 -5.683795E+05  1.972335E+04  5.263520E+03
       154   5 -1.493036E+06 -2.006339E+05 -4.486779E+04 -5.649108E+05  4.363792E+04  1.397881E+04
       154   6 -1.507801E+06 -2.603914E+05 -9.888067E+04 -5.505914E+05  6.741018E+04  2.307317E+04
       154   7 -1.628968E+06 -2.578378E+05 -6.115800E+04 -5.995533E+05  1.962467E+04  5.226545E+03
       154   8 -1.621539E+06 -2.508881E+05 -8.033563E+04 -6.016343E+05  4.361947E+04  1.397169E+04
       154   9 -1.636913E+06 -3.161343E+05 -1.355912E+05 -5.928634E+05  6.747192E+04  2.309542E+04
       154  10 -1.373125E+06 -1.682573E+05  7.429089E+03 -5.372003E+05 -5.859716E-10 -1.709808E-09
       154  11 -1.364520E+06 -1.503792E+05 -9.405450E+03 -5.281809E+05  4.290125E-10 -1.855047E-09
       154  12 -1.378677E+06 -2.046479E+05 -6.218126E+04 -5.083123E+05 -9.076078E-10  2.218453E-10
       154  13 -1.501054E+06 -2.130478E+05 -2.686411E+04 -5.683796E+05  7.224156E-10 -1.335929E-09
       154  14 -1.493038E+06 -2.006346E+05 -4.487174E+04 -5.649113E+05 -1.753872E-09 -1.350610E-09
       154  15 -1.507806E+06 -2.603932E+05 -9.889024E+04 -5.505927E+05 -3.139675E-09  9.939325E-10
       154  16 -1.628968E+06 -2.578379E+05 -6.115878E+04 -5.995534E+05 -7.241499E-11 -3.557316E-10
       154  17 -1.621541E+06 -2.508888E+05 -8.033959E+04 -6.016347E+05  4.196970E-10  1.042391E-09
       154  18 -1.636918E+06 -3.161361E+05 -1.356008E+05 -5.928646E+05 -3.308811E-10 -1.119163E-09
       154  19 -1.373125E+06 -1.682572E+05  7.429882E+03 -5.372002E+05 -1.982206E+04 -5.300502E+03
       154  20 -1.364518E+06 -1.503785E+05 -9.401491E+03 -5.281804E+05 -4.365637E+04 -1.398593E+04
       154  21 -1.378672E+06 -2.046461E+05 -6.217171E+04 -5.083110E+05 -6.734842E+04 -2.305091E+04
       154  22 -1.501054E+06 -2.130477E+05 -2.686333E+04 -5.683795E+05 -1.972335E+04 -5.263520E+03
       154  23 -1.493036E+06 -2.006339E+05 -4.486779E+04 -5.649108E+05 -4.363792E+04 -1.397881E+04
       154  24 -1.507801E+06 -2.603914E+05 -9.888067E+04 -5.505914E+05 -6.741018E+04 -2.307317E+04
       154  25 -1.628968E+06 -2.578378E+05 -6.115800E+04 -5.995533E+05 -1.962467E+04 -5.226545E+03
       154  26 -1.621539E+06 -2.508881E+05 -8.033563E+04 -6.016343E+05 -4.361947E+04 -1.397169E+04
       154  27 -1.636913E+06 -3.161343E+05 -1.355912E+05 -5.928634E+05 -6.747192E+04 -2.309542E+04
       155   1 -1.358324E+06 -1.671562E+05 -7.967754E+04 -5.598767E+05  8.592713E+04  2.961872E+04
       155   2 -1.314213E+06 -7.180055E+04 -1.499540E+05 -5.257978E+05  1.909994E+05  6.886750E+04
       155   3 -1.455879E+06 -4.406058E+05 -4.251568E+05 -3.735758E+05  2.952681E+05  1.102598E+05
       155   4 -1.523846E+06 -2.055557E+05 -1.201427E+05 -5.801838E+05  8.561205E+04  2.950428E+04
       155   5 -1.454361E+06 -1.378272E+05 -1.908201E+05 -5.773609E+05  1.911403E+05  6.891552E+04
       155   6 -1.570790E+06 -5.344201E+05 -4.668226E+05 -4.563802E+05  2.958697E+05  1.104564E+05
       155   7 -1.689341E+06 -2.439560E+05 -1.606095E+05 -6.004880E+05  8.529706E+04  2.938984E+04
       155   8 -1.594490E+06 -2.038492E+05 -2.316881E+05 -6.289123E+05  1.912813E+05  6.896353E+04
       155   9 -1.685682E+06 -6.282121E+05 -5.084887E+05 -5.391657E+05  2.964711E+05  1.106529E+05
       155  10 -1.358332E+06 -1.671592E+05 -7.969310E+04 -5.598787E+05 -2.309334E-09  1.311656E-09
       155  11 -1.314254E+06 -7.181548E+04 -1.500317E+05 -5.258084E+05  1.532450E-09  2.923714E-10
       155  12 -1.455976E+06 -4.406424E+05 -4.253439E+05 -3.736021E+05  8.659592E-10  8.004912E-10
       155  13 -1.523854E+06 -2.055586E+05 -1.201582E+05 -5.801858E+05  1.769375E-10 -9.070367E-10
       155  14 -1.454402E+06 -1.378422E+05 -1.908979E+05 -5.773716E+05 -3.694784E-09  4.417117E-09
       155  15 -1.570888E+06 -5.344569E+05 -4.670105E+05 -4.564066E+05 -3.616877E-09  3.740997E-09
       155  16 -1.689349E+06 -2.439588E+05 -1.606248E+05 -6.004900E+05 -1.155371E-09 -6.969536E-10
       155  17 -1.594531E+06 -2.038642E+05 -2.317660E+05 -6.289230E+05  1.439235E-09 -3.638126E-11
       155  18 -1.685780E+06 -6.282490E+05 -5.086775E+05 -5.391922E+05 -8.650213E-10  5.697794E-10
       155  19 -1.358324E+06 -1.671562E+05 -7.967754E+04 -5.598767E+05 -8.592713E+04 -2.961872E+04
       155  20 -1.314213E+06 -7.180055E+04 -1.499540E+05 -5.257978E+05 -1.909994E+05 -6.886750E+04
       155  21 -1.455879E+06 -4.406058E+05 -4.251568E+05 -3.735758E+05 -2.952681E+05 -1.102598E+05
       155  22 -1.523846E+06 -2.055557E+05 -1.201427E+05 -5.801838E+05 -8.561205E+04 -2.950428E+04
       155  23 -1.454361E+06 -1.378272E+05 -1.908201E+05 -5.773609E+05 -1.911403E+05 -6.891552E+04
       155  24 -1.570790E+06 -5.344201E+05 -4.668226E+05 -4.563802E+05 -2.958697E+05 -1.104564E+05
       155  25 -1.689341E+06 -2.439560E+05 -1.606095E+05 -6.004880E+05 -8.529706E+04 -2.938984E+04
       155  26 -1.594490E+06 -2.038492E+05 -2.316881E+05 -6.289123E+05 -1.912813E+05 -6.896353E+04
       155  27 -1.685682E+06 -6.282121E+05 -5.084887E+05 -5.391657E+05 -2.964711E+05 -1.106529E+05
       156   1  2.541743E+05  2.033463E+06  2.432527E+05 -1.882086E+05  1.104324E+04  9.219124E+04
       156   2  1.963354E+05  1.892715E+06  1.621051E+05 -1.690184E+05  3.650921E+04  4.089014E+04
       156   3  1.572013E+05  1.763286E+06  1.189721E+05 -1.722599E+05  4.178188E+04 -1.042119E+04
       156   4  2.400351E+04  1.098763E+06  2.570098E+04 -1.710753E+05  1.116208E+04  1.534864E+04
       156   5  7.986138E+03  1.096933E+06  1.492899E+04 -1.598766E+05  3.656683E+04  7.791475E+03
       156   6  3.109011E+03  1.098843E+06  1.186709E+04 -1.711087E+05  4.176768E+04  2.119904E+02
       156   7 -2.062247E+05  1.648792E+05 -1.918874E+05 -1.539674E+05  1.127680E+04 -6.137938E+04
       156   8 -1.803984E+05  3.017663E+05 -1.322695E+05 -1.507465E+05  3.662352E+04 -2.526597E+04
       156   9 -1.510055E+05  4.348375E+05 -9.524953E+04 -1.699585E+05  4.175352E+04  1.083422E+04
       156  10  2.541719E+05  2.033454E+06  2.432365E+05 -1.882094E+05  3.232907E-10  3.784168E-09
       156  11  1.963335E+05  1.892712E+06  1.620995E+05 -1.690196E+05  5.707102E-09  3.700269E-08
       156  12  1.571994E+05  1.763285E+06  1.189687E+05 -1.722596E+05  4.135539E-09  6.976186E-08
       156  13  2.400331E+04  1.098762E+06  2.570030E+04 -1.710754E+05 -2.705938E-09 -1.819235E-11
       156  14  7.984685E+03  1.096933E+06  1.492637E+04 -1.598768E+05 -1.033451E-08 -3.717083E-12
       156  15  3.107136E+03  1.098842E+06  1.186381E+04 -1.711087E+05 -1.431263E-08  3.779450E-09
       156  16 -2.062258E+05  1.648751E+05 -1.918947E+05 -1.539669E+05  9.453259E-11 -4.542744E-09
       156  17 -1.804000E+05  3.017653E+05 -1.322732E+05 -1.507457E+05  1.393972E-09 -3.982327E-08
       156  18 -1.510074E+05  4.348369E+05 -9.525303E+04 -1.699589E+05  6.409639E-09 -6.851809E-08
       156  19  2.541743E+05  2.033463E+06  2.432527E+05 -1.882086E+05 -1.104324E+04 -9.219124E+04
       156  20  1.963354E+05  1.892715E+06  1.621051E+05 -1.690184E+05 -3.650921E+04 -4.089014E+04
       156  21  1.572013E+05  1.763286E+06  1.189721E+05 -1.722599E+05 -4.178188E+04  1.042119E+04
       156  22  2.400351E+04  1.098763E+06  2.570098E+04 -1.710753E+05 -1.116208E+04 -1.534864E+04
       156  23  7.986138E+03  1.096933E+06  1.492899E+04 -1.598766E+05 -3.656683E+04 -7.791475E+03
       156  24  3.109011E+03  1.098843E+06  1.186709E+04 -1.711087E+05 -4.176768E+04 -2.119904E+02
       156  25 -2.062247E+05  1.648792E+05 -1.918874E+05 -1.539674E+05 -1.127680E+04  6.137938E+04
       156  26 -1.803984E+05  3.017663E+05 -1.322695E+05 -1.507465E+05 -3.662352E+04  2.526597E+04
       156  27 -1.510055E+05  4.348375E+05 -9.524953E+04 -1.699585E+05 -4.175352E+04 -1.083422E+04
       157   1  1.365294E+05  1.677385E+06  1.029208E+05 -1.736397E+05  3.812424E+04 -1.264175E+04
       157   2  1.049578E+05  1.541101E+06  8.123304E+04 -1.586187E+05  3.197296E+04 -2.518779E+04
       157   3  7.926045E+04  1.407856E+06  6.914711E+04 -1.674399E+05  2.358991E+04 -3.773673E+04
       157   4  2.753069E+03  1.098516E+06  1.201570E+04 -1.714215E+05  3.810810E+04 -1.693745E+03
       157   5  3.197152E+03  1.097442E+06  1.538562E+04 -1.594954E+05  3.194633E+04 -9.405659E+03
       157   6  8.680384E+03  1.098551E+06  2.500813E+04 -1.714118E+05  2.355207E+04 -1.712297E+04
       157   7 -1.310397E+05  5.199811E+05 -7.889714E+04 -1.692052E+05  3.809203E+04  9.244455E+03
       157   8 -9.857258E+04  6.539801E+05 -5.046455E+04 -1.603713E+05  3.191964E+04  6.365678E+03
       157   9 -6.190372E+04  7.893438E+05 -1.913066E+04 -1.753816E+05  2.351395E+04  3.480975E+03
       157  10  1.365278E+05  1.677384E+06  1.029178E+05 -1.736393E+05  5.947744E-09 -3.836653E-08
       157  11  1.049565E+05  1.541100E+06  8.122993E+04 -1.586181E+05  8.350796E-09 -4.550911E-08
       157  12  7.925947E+04  1.407854E+06  6.914339E+04 -1.674392E+05  9.228006E-09 -4.351405E-08
       157  13  2.751508E+03  1.098516E+06  1.201296E+04 -1.714214E+05 -1.252106E-08  1.402984E-10
       157  14  3.196032E+03  1.097441E+06  1.538353E+04 -1.594952E+05 -1.270134E-08 -8.944282E-11
       157  15  8.679710E+03  1.098551E+06  2.500653E+04 -1.714115E+05 -1.172146E-08  4.106240E-09
       157  16 -1.310413E+05  5.199806E+05 -7.890003E+04 -1.692055E+05  6.226451E-09  3.790693E-08
       157  17 -9.857368E+04  6.539798E+05 -5.046654E+04 -1.603715E+05  7.209505E-09  4.169960E-08
       157  18 -6.190431E+04  7.893436E+05 -1.913173E+04 -1.753817E+05  8.829520E-09  4.430963E-08
       157  19  1.365294E+05  1.677385E+06  1.029208E+05 -1.736397E+05 -3.812424E+04  1.264175E+04
       157  20  1.049578E+05  1.541101E+06  8.123304E+04 -1.586187E+05 -3.197296E+04  2.518779E+04
       157  21  7.926045E+04  1.407856E+06  6.914711E+04 -1.674399E+05 -2.358991E+04  3.773673E+04
       157  22  2.753069E+03  1.098516E+06  1.201570E+04 -1.714215E+05 -3.810810E+04  1.693745E+03
       157  23  3.197152E+03  1.097442E+06  1.538562E+04 -1.594954E+05 -3.194633E+04  9.405659E+03
       157  24  8.680384E+03  1.098551E+06  2.500813E+04 -1.714118E+05 -2.355207E+04  1.712297E+04
       157  25 -1.310397E+05  5.199811E+05 -7.889714E+04 -1.692052E+05 -3.809203E+04 -9.244455E+03
       157  26 -9.857258E+04  6.539801E+05 -5.046455E+04 -1.603713E+05 -3.191964E+04 -6.365678E+03
       157  27 -6.190372E+04  7.893438E+05 -1.913066E+04 -1.753816E+05 -2.351395E+04 -3.480975E+03
       158   1  6.208788E+04  1.326550E+06  6.360380E+04 -1.709130E+05  1.789523E+04 -4.204105E+04
       158   2  5.517309E+04  1.184211E+06  6.836160E+04 -1.229551E+05  9.179523E+03 -6.865070E+04
       158   3  9.706125E+04  1.057460E+06  1.025993E+05 -9.882567E+04  1.992640E+03 -9.525320E+04
       158   4  1.095808E+04  1.101661E+06  3.251118E+04 -1.714204E+05  1.785619E+04 -2.142306E+04
       158   5  3.525870E+04  1.093572E+06  5.848770E+04 -1.594225E+05  9.150290E+03 -5.134629E+04
       158   6  1.089333E+05  1.101616E+06  1.162376E+05 -1.712455E+05  1.976389E+03 -8.126741E+04
       158   7 -4.017372E+04  8.768243E+05  1.419557E+03 -1.719277E+05  1.781711E+04 -8.121890E+02
       158   8  1.534919E+04  1.002945E+06  4.861571E+04 -1.958843E+05  9.119025E+03 -3.404425E+04
       158   9  1.208248E+05  1.145785E+06  1.298793E+05 -2.436703E+05  1.956881E+03 -6.728061E+04
       158  10  6.208706E+04  1.326548E+06  6.359988E+04 -1.709124E+05  7.942716E-09  4.022289E-08
       158  11  5.517173E+04  1.184206E+06  6.835260E+04 -1.229546E+05  8.995349E-09  2.825929E-09
       158  12  9.705882E+04  1.057450E+06  1.025823E+05 -9.882552E+04  2.343467E-09 -2.855885E-08
       158  13  1.095761E+04  1.101661E+06  3.250972E+04 -1.714201E+05 -1.068857E-08  4.505090E-11
       158  14  3.525791E+04  1.093569E+06  5.848259E+04 -1.594221E+05 -3.885403E-09 -2.058692E-11
       158  15  1.089315E+05  1.101609E+06  1.162252E+05 -1.712453E+05  3.639219E-10  4.408795E-09
       158  16 -4.017406E+04  8.768242E+05  1.418959E+03 -1.719277E+05  9.145805E-09 -4.110210E-08
       158  17  1.534879E+04  1.002944E+06  4.861338E+04 -1.958840E+05  4.290372E-09 -6.804540E-09
       158  18  1.208236E+05  1.145780E+06  1.298708E+05 -2.436702E+05  1.467523E-09  2.908267E-08
       158  19  6.208788E+04  1.326550E+06  6.360380E+04 -1.709130E+05 -1.789523E+04  4.204105E+04
       158  20  5.517309E+04  1.184211E+06  6.836160E+04 -1.229551E+05 -9.179523E+03  6.865070E+04
       158  21  9.706125E+04  1.057460E+06  1.025993E+05 -9.882567E+04 -1.992640E+03  9.525320E+04
       158  22  1.095808E+04  1.101661E+06  3.251118E+04 -1.714204E+05 -1.785619E+04  2.142306E+04
       158  23  3.525870E+04  1.093572E+06  5.848770E+04 -1.594225E+05 -9.150290E+03  5.134629E+04
       158  24  1.089333E+05  1.101616E+06  1.162376E+05 -1.712455E+05 -1.976389E+03  8.126741E+04
       158  25 -4.017372E+04  8.768243E+05  1.419557E+03 -1.719277E+05 -1.781711E+04  8.121890E+02
       158  26  1.534919E+04  1.002945E+06  4.861571E+04 -1.958843E+05 -9.119025E+03  3.404425E+04
       158  27  1.208248E+05  1.145785E+06  1.298793E+05 -2.436703E+05 -1.956881E+03  6.728061E+04
       159   1  1.064184E+06  7.236191E+04  1.819885E+05  9.907712E+03  3.182789E+05  8.289756E+03
       159   2  1.069874E+06 -3.514443E+05 -6.718385E+04  3.076185E+04  2.115371E+05  1.986184E+04
       159   3  1.223575E+06 -2.668385E+05 -1.183723E+05 -7.373190E+04  1.048434E+05  1.537113E+04
       159   4  2.237810E+06  3.642802E+05  4.736374E+05 -4.536044E+04  3.235315E+05  8.284431E+03
       159   5  2.163749E+06 -7.916514E+04  2.027803E+05  1.821265E+04  2.127409E+05  1.985880E+04
       159   6  2.238135E+06 -1.398136E+04  1.324475E+05 -4.354627E+04  1.020126E+05  1.536814E+04
       159   7  3.412689E+06  6.561077E+05  7.651854E+05 -1.007344E+05  3.287936E+05  8.278198E+03
       159   8  3.258708E+06  1.930257E+05  4.726562E+05  5.640357E+03  2.139465E+05  1.985571E+04
       159   9  3.253629E+06  2.388024E+05  3.831915E+05 -1.331183E+04  9.917710E+04  1.536487E+04
       159  10  1.064075E+06  7.233470E+04  1.817983E+05  9.905589E+03  1.440863E-09  1.423945E-10
       159  11  1.069826E+06 -3.514567E+05 -6.726852E+04  3.075846E+04  1.760187E-09  6.497111E-12
       159  12  1.223563E+06 -2.668417E+05 -1.183934E+05 -7.373320E+04  8.337324E-10 -4.412398E-10
       159  13  2.237698E+06  3.642522E+05  4.734412E+05 -4.536260E+04  1.541122E-09 -6.390055E-12
       159  14  2.163700E+06 -7.917766E+04  2.026948E+05  1.820925E+04 -1.481080E-09  3.892162E-10
       159  15  2.238124E+06 -1.398439E+04  1.324275E+05 -4.354753E+04 -6.781894E-11 -1.824282E-11
       159  16  3.412574E+06  6.560788E+05  7.649832E+05 -1.007366E+05 -2.627789E-09 -1.269578E-11
       159  17  3.258659E+06  1.930131E+05  4.725699E+05  5.636941E+03 -3.163615E-09 -2.411113E-10
       159  18  3.253618E+06  2.387995E+05  3.831727E+05 -1.331306E+04 -3.812660E-10 -4.695385E-11
       159  19  1.064184E+06  7.236191E+04  1.819885E+05  9.907712E+03 -3.182789E+05 -8.289756E+03
       159  20  1.069874E+06 -3.514443E+05 -6.718385E+04  3.076185E+04 -2.115371E+05 -1.986184E+04
       159  21  1.223575E+06 -2.668385E+05 -1.183723E+05 -7.373190E+04 -1.048434E+05 -1.537113E+04
       159  22  2.237810E+06  3.642802E+05  4.736374E+05 -4.536044E+04 -3.235315E+05 -8.284431E+03
       159  23  2.163749E+06 -7.916514E+04  2.027803E+05  1.821265E+04 -2.127409E+05 -1.985880E+04
       159  24  2.238135E+06 -1.398136E+04  1.324475E+05 -4.354627E+04 -1.020126E+05 -1.536814E+04
       159  25  3.412689E+06  6.561077E+05  7.651854E+05 -1.007344E+05 -3.287936E+05 -8.278198E+03
       159  26  3.258708E+06  1.930257E+05  4.726562E+05  5.640357E+03 -2.139465E+05 -1.985571E+04
       159  27  3.253629E+06  2.388024E+05  3.831915E+05 -1.331183E+04 -9.917710E+04 -1.536487E+04
       160   1  1.461134E+06 -1.350962E+05 -7.606189E+04 -2.945457E+04  8.009239E+04  1.130852E+04
       160   2  1.507357E+06 -1.834511E+05 -1.180354E+05  1.056823E+04  5.297097E+04  1.095079E+04
       160   3  1.577703E+06 -1.594789E+05 -1.237845E+05 -4.051604E+04  2.584525E+04  8.858866E+03
       160   4  2.210576E+06  5.150761E+04  1.091637E+05 -3.654199E+04  8.028967E+04  1.130696E+04
       160   5  2.198513E+06 -1.135331E+04  5.269649E+04  9.047742E+03  5.272154E+04  1.094968E+04
       160   6  2.210624E+06 -1.853210E+03  3.273231E+04 -3.646278E+04  2.515165E+04  8.858577E+03
       160   7  2.960526E+06  2.380698E+05  2.943478E+05 -4.363813E+04  8.048714E+04  1.130539E+04
       160   8  2.890103E+06  1.607089E+05  2.233930E+05  7.525482E+03  5.247181E+04  1.094857E+04
       160   9  2.843908E+06  1.557427E+05  1.892194E+05 -3.240537E+04  2.445734E+04  8.858280E+03
       160  10  1.461127E+06 -1.350981E+05 -7.607416E+04 -2.945530E+04  1.150082E-09 -1.442244E-10
       160  11  1.507354E+06 -1.834520E+05 -1.180409E+05  1.056776E+04 -2.009391E-10 -3.563388E-10
       160  12  1.577702E+06 -1.594791E+05 -1.237859E+05 -4.051622E+04  1.636644E-09  3.233690E-11
       160  13  2.210569E+06  5.150575E+04  1.091514E+05 -3.654272E+04 -1.228495E-09 -2.349319E-10
       160  14  2.198510E+06 -1.135419E+04  5.269106E+04  9.047277E+03  1.278800E-09  3.565620E-11
       160  15  2.210623E+06 -1.853464E+03  3.273098E+04 -3.646296E+04  1.576522E-09  2.356954E-10
       160  16  2.960519E+06  2.380680E+05  2.943354E+05 -4.363886E+04  5.426293E-10 -1.121278E-10
       160  17  2.890100E+06  1.607081E+05  2.233877E+05  7.525020E+03 -1.109801E-09 -5.091241E-10
       160  18  2.843907E+06  1.557424E+05  1.892181E+05 -3.240554E+04  2.204783E-10  1.810025E-10
       160  19  1.461134E+06 -1.350962E+05 -7.606189E+04 -2.945457E+04 -8.009239E+04 -1.130852E+04
       160  20  1.507357E+06 -1.834511E+05 -1.180354E+05  1.056823E+04 -5.297097E+04 -1.095079E+04
       160  21  1.577703E+06 -1.594789E+05 -1.237845E+05 -4.051604E+04 -2.584525E+04 -8.858866E+03
       160  22  2.210576E+06  5.150761E+04  1.091637E+05 -3.654199E+04 -8.028967E+04 -1.130696E+04
       160  23  2.198513E+06 -1.135331E+04  5.269649E+04  9.047742E+03 -5.272154E+04 -1.094968E+04
       160  24  2.210624E+06 -1.853210E+03  3.273231E+04 -3.646278E+04 -2.515165E+04 -8.858577E+03
       160  25  2.960526E+06  2.380698E+05  2.943478E+05 -4.363813E+04 -8.048714E+04 -1.130539E+04
       160  26  2.890103E+06  1.607089E+05  2.233930E+05  7.525482E+03 -5.247181E+04 -1.094857E+04
       160  27  2.843908E+06  1.557427E+05  1.892194E+05 -3.240537E+04 -2.445734E+04 -8.858280E+03
       161   1  1.774895E+06 -1.001594E+05 -8.037592E+04 -3.096317E+04  2.019472E+04  7.476698E+03
       161   2  1.818641E+06 -9.762280E+04 -8.155196E+04  4.105175E+03  1.321021E+04  5.940064E+03
       161   3  1.866438E+06 -8.473027E+04 -7.548960E+04 -3.234611E+04  6.223168E+03  4.404223E+03
       161   4  2.206212E+06  7.201974E+03  2.604754E+04 -3.212944E+04  1.983316E+04  7.476532E+03
       161   5  2.204189E+06 -1.633248E+03  1.369217E+04  3.626863E+03  1.284447E+04  5.940190E+03
       161   6  2.206215E+06 -1.151038E+02  8.574766E+03 -3.213366E+04  5.853770E+03  4.404632E+03
       161   7  2.637697E+06  1.145496E+05  1.324572E+05 -3.329649E+04  1.947133E+04  7.476367E+03
       161   8  2.589872E+06  9.434525E+04  1.089253E+05  3.148288E+03  1.247851E+04  5.940315E+03
       161   9  2.546096E+06  8.449145E+04  9.263057E+04 -3.192105E+04  5.484171E+03  4.405040E+03
       161  10  1.774894E+06 -1.001596E+05 -8.037679E+04 -3.096329E+04 -1.000389E-09  2.905858E-10
       161  11  1.818641E+06 -9.762289E+04 -8.155235E+04  4.105112E+03 -2.542398E-10 -1.815343E-10
       161  12  1.866438E+06 -8.473030E+04 -7.548971E+04 -3.234613E+04  2.810767E-10  2.964107E-10
       161  13  2.206211E+06  7.201809E+03  2.604669E+04 -3.212956E+04 -1.127729E-09  1.280553E-10
       161  14  2.204189E+06 -1.633330E+03  1.369180E+04  3.626802E+03 -2.438506E-09  1.736276E-10
       161  15  2.206215E+06 -1.151339E+02  8.574665E+03 -3.213368E+04 -1.092535E-09  1.056517E-10
       161  16  2.637696E+06  1.145494E+05  1.324564E+05 -3.329660E+04  8.924728E-10 -2.866200E-10
       161  17  2.589872E+06  9.434517E+04  1.089249E+05  3.148229E+03  3.092333E-10 -4.399444E-10
       161  18  2.546096E+06  8.449143E+04  9.263048E+04 -3.192107E+04 -6.466712E-10 -1.489902E-10
       161  19  1.774895E+06 -1.001594E+05 -8.037592E+04 -3.096317E+04 -2.019472E+04 -7.476698E+03
       161  20  1.818641E+06 -9.762280E+04 -8.155196E+04  4.105175E+03 -1.321021E+04 -5.940064E+03
       161  21  1.866438E+06 -8.473027E+04 -7.548960E+04 -3.234611E+04 -6.223168E+03 -4.404223E+03
       161  22  2.206212E+06  7.201974E+03  2.604754E+04 -3.212944E+04 -1.983316E+04 -7.476532E+03
       161  23  2.204189E+06 -1.633248E+03  1.369217E+04  3.626863E+03 -1.284447E+04 -5.940190E+03
       161  24  2.206215E+06 -1.151038E+02  8.574766E+03 -3.213366E+04 -5.853770E+03 -4.404632E+03
       161  25  2.637697E+06  1.145496E+05  1.324572E+05 -3.329649E+04 -1.947133E+04 -7.476367E+03
       161  26  2.589872E+06  9.434525E+04  1.089253E+05  3.148288E+03 -1.247851E+04 -5.940315E+03
       161  27  2.546096E+06  8.449145E+04  9.263057E+04 -3.192105E+04 -5.484171E+03 -4.405040E+03
       162   1  2.031547E+06 -4.222502E+04 -3.591200E+04 -2.970205E+04  4.806062E+03  3.517255E+03
       162   2  2.071016E+06 -3.366968E+04 -2.860273E+04  1.211971E+03  2.509267E+03  2.057091E+03
       162   3  2.111052E+06 -2.326282E+04 -1.937934E+04 -2.999678E+04  2.117350E+02  6.681302E+02
       162   4  2.205468E+06  1.044465E+03  6.915928E+03 -3.004313E+04  4.446039E+03  3.517798E+03
       162   5  2.205186E+06 -2.701603E+02  4.538641E+03  1.017191E+03  2.165816E+03  2.057691E+03
       162   6  2.205467E+06  2.635772E+02  4.063547E+03 -3.004440E+04 -1.149981E+02  6.687842E+02
       162   7  2.379416E+06  4.431171E+04  4.974163E+04 -3.038430E+04  4.085916E+03  3.518342E+03
       162   8  2.339372E+06  3.312802E+04  3.767868E+04  8.223771E+02  1.822292E+03  2.058291E+03
       162   9  2.299889E+06  2.378931E+04  2.750577E+04 -3.009203E+04 -4.417807E+02  6.694381E+02
       162  10  2.031547E+06 -4.222504E+04 -3.591207E+04 -2.970206E+04 -7.270209E-10  9.456502E-11
       162  11  2.071016E+06 -3.366969E+04 -2.860275E+04  1.211967E+03  2.512625E-10 -2.384773E-10
       162  12  2.111052E+06 -2.326282E+04 -1.937935E+04 -2.999678E+04 -1.536873E-09 -9.083567E-11
       162  13  2.205468E+06  1.044446E+03  6.915867E+03 -3.004315E+04 -1.955259E-09 -1.498518E-10
       162  14  2.205186E+06 -2.701661E+02  4.538625E+03  1.017188E+03  3.846766E-10  7.412118E-10
       162  15  2.205467E+06  2.635767E+02  4.063546E+03 -3.004440E+04  2.269119E-10  6.011393E-10
       162  16  2.379416E+06  4.431169E+04  4.974157E+04 -3.038432E+04 -2.036856E-09 -3.156601E-10
       162  17  2.339372E+06  3.312801E+04  3.767866E+04  8.223741E+02  7.450253E-11 -3.784404E-11
       162  18  2.299889E+06  2.378931E+04  2.750577E+04 -3.009203E+04  3.530290E-10 -1.105317E-10
       162  19  2.031547E+06 -4.222502E+04 -3.591200E+04 -2.970205E+04 -4.806062E+03 -3.517255E+03
       162  20  2.071016E+06 -3.366968E+04 -2.860273E+04  1.211971E+03 -2.509267E+03 -2.057091E+03
       162  21  2.111052E+06 -2.326282E+04 -1.937934E+04 -2.999678E+04 -2.117350E+02 -6.681302E+02
       162  22  2.205468E+06  1.044465E+03  6.915928E+03 -3.004313E+04 -4.446039E+03 -3.517798E+03
       162  23  2.205186E+06 -2.701603E+02  4.538641E+03  1.017191E+03 -2.165816E+03 -2.057691E+03
       162  24  2.205467E+06  2.635772E+02  4.063547E+03 -3.004440E+04  1.149981E+02 -6.687842E+02
       162  25  2.379416E+06  4.431171E+04  4.974163E+04 -3.038430E+04 -4.085916E+03 -3.518342E+03
       162  26  2.339372E+06  3.312802E+04  3.767868E+04  8.223771E+02 -1.822292E+03 -2.058291E+03
       162  27  2.299889E+06  2.378931E+04  2.750577E+04 -3.009203E+04  4.417807E+02 -6.694381E+02
       163   1  2.264502E+06  1.490597E+04  1.891842E+04 -2.986368E+04 -5.388591E+02 -1.191293E+02
       163   2  2.303506E+06  2.414216E+04  2.973108E+04  6.830155E+02 -3.263304E+03 -1.505927E+03
       163   3  2.343197E+06  3.567407E+04  4.283610E+04 -3.024101E+04 -5.987509E+03 -2.937864E+03
       163   4  2.205496E+06  1.952042E+02  4.222372E+03 -2.990017E+04 -8.683993E+02 -1.184598E+02
       163   5  2.205152E+06 -3.381029E+02  5.440202E+03  8.365812E+02 -3.603353E+03 -1.505301E+03
       163   6  2.205495E+06  1.426458E+03  8.958071E+03 -2.989798E+04 -6.337897E+03 -2.937281E+03
       163   7  2.146494E+06 -1.451582E+04 -1.047393E+04 -2.993665E+04 -1.197908E+03 -1.177902E+02
       163   8  2.106807E+06 -2.481909E+04 -1.885139E+04  9.901267E+02 -3.943349E+03 -1.504675E+03
       163   9  2.067811E+06 -3.282256E+04 -2.492135E+04 -2.955502E+04 -6.688208E+03 -2.936698E+03
       163  10  2.264502E+06  1.490597E+04  1.891842E+04 -2.986368E+04 -1.201244E-09  4.295358E-10
       163  11  2.303506E+06  2.414216E+04  2.973106E+04  6.830115E+02 -2.940496E-09 -2.049516E-10
       163  12  2.343197E+06  3.567405E+04  4.283602E+04 -3.024102E+04 -1.395614E-09  2.801650E-10
       163  13  2.205496E+06  1.952040E+02  4.222370E+03 -2.990017E+04 -1.983120E-10  7.081916E-10
       163  14  2.205152E+06 -3.381088E+02  5.440174E+03  8.365768E+02  2.015998E-09 -1.169002E-10
       163  15  2.205495E+06  1.426438E+03  8.957980E+03 -2.989799E+04  7.661507E-10  2.526696E-10
       163  16  2.146494E+06 -1.451582E+04 -1.047394E+04 -2.993665E+04 -2.670312E-10 -6.034889E-10
       163  17  2.106807E+06 -2.481910E+04 -1.885143E+04  9.901219E+02  1.528442E-09 -8.065421E-11
       163  18  2.067811E+06 -3.282258E+04 -2.492145E+04 -2.955503E+04  1.321306E-09 -2.054147E-10
       163  19  2.264502E+06  1.490597E+04  1.891842E+04 -2.986368E+04  5.388591E+02  1.191293E+02
       163  20  2.303506E+06  2.414216E+04  2.973108E+04  6.830155E+02  3.263304E+03  1.505927E+03
       163  21  2.343197E+06  3.567407E+04  4.283610E+04 -3.024101E+04  5.987509E+03  2.937864E+03
       163  22  2.205496E+06  1.952042E+02  4.222372E+03 -2.990017E+04  8.683993E+02  1.184598E+02
       163  23  2.205152E+06 -3.381029E+02  5.440202E+03  8.365812E+02  3.603353E+03  1.505301E+03
       163  24  2.205495E+06  1.426458E+03  8.958071E+03 -2.989798E+04  6.337897E+03  2.937281E+03
       163  25  2.146494E+06 -1.451582E+04 -1.047393E+04 -2.993665E+04  1.197908E+03  1.177902E+02
       163  26  2.106807E+06 -2.481909E+04 -1.885139E+04  9.901267E+02  3.943349E+03  1.504675E+03
       163  27  2.067811E+06 -3.282256E+04 -2.492135E+04 -2.955502E+04  6.688208E+03  2.936698E+03
       164   1  2.506756E+06  7.454381E+04  8.555785E+04 -3.123309E+04 -7.810323E+03 -3.804215E+03
       164   2  2.548687E+06  8.360761E+04  1.035242E+05  2.496313E+03 -1.720201E+04 -5.303360E+03
       164   3  2.595719E+06  1.066886E+05  1.311657E+05 -3.326128E+04 -2.659240E+04 -6.790373E+03
       164   4  2.206454E+06 -2.134007E+02  1.127605E+04 -3.168450E+04 -8.173325E+03 -3.803728E+03
       164   5  2.203898E+06 -2.196854E+03  1.838692E+04  3.064241E+03 -1.755748E+04 -5.303137E+03
       164   6  2.206444E+06  9.840188E+03  3.517199E+04 -3.167637E+04 -2.693969E+04 -6.790433E+03
       164   7  1.906233E+06 -7.497733E+04 -6.301244E+04 -3.213565E+04 -8.536152E+03 -3.803241E+03
       164   8  1.859217E+06 -8.801016E+04 -6.675918E+04  3.631885E+03 -1.791276E+04 -5.302914E+03
       164   9  1.817306E+06 -8.701943E+04 -6.083290E+04 -3.009241E+04 -2.728676E+04 -6.790496E+03
       164  10  2.506756E+06  7.454378E+04  8.555771E+04 -3.123312E+04 -5.582200E-10 -2.314813E-10
       164  11  2.548687E+06  8.360750E+04  1.035236E+05  2.496240E+03  5.705821E-10 -3.344656E-10
       164  12  2.595718E+06  1.066883E+05  1.311643E+05 -3.326143E+04 -4.136712E-10 -1.599066E-10
       164  13  2.206454E+06 -2.134341E+02  1.127590E+04 -3.168452E+04  1.982338E-10 -6.568474E-10
       164  14  2.203898E+06 -2.196967E+03  1.838629E+04  3.064166E+03 -2.764135E-09 -1.300889E-09
       164  15  2.206443E+06  9.839944E+03  3.517054E+04 -3.167652E+04  1.034780E-09 -1.591402E-10
       164  16  1.906233E+06 -7.497736E+04 -6.301260E+04 -3.213568E+04  6.650140E-10 -3.047403E-10
       164  17  1.859216E+06 -8.801028E+04 -6.675984E+04  3.631808E+03  1.874198E-10 -1.171340E-09
       164  18  1.817305E+06 -8.701968E+04 -6.083439E+04 -3.009256E+04  5.444566E-10  6.300152E-10
       164  19  2.506756E+06  7.454381E+04  8.555785E+04 -3.123309E+04  7.810323E+03  3.804215E+03
       164  20  2.548687E+06  8.360761E+04  1.035242E+05  2.496313E+03  1.720201E+04  5.303360E+03
       164  21  2.595719E+06  1.066886E+05  1.311657E+05 -3.326128E+04  2.659240E+04  6.790373E+03
       164  22  2.206454E+06 -2.134007E+02  1.127605E+04 -3.168450E+04  8.173325E+03  3.803728E+03
       164  23  2.203898E+06 -2.196854E+03  1.838692E+04  3.064241E+03  1.755748E+04  5.303137E+03
       164  24  2.206444E+06  9.840188E+03  3.517199E+04 -3.167637E+04  2.693969E+04  6.790433E+03
       164  25  1.906233E+06 -7.497733E+04 -6.301244E+04 -3.213565E+04  8.536152E+03  3.803241E+03
       164  26  1.859217E+06 -8.801016E+04 -6.675918E+04  3.631885E+03  1.791276E+04  5.302914E+03
       164  27  1.817306E+06 -8.701943E+04 -6.083290E+04 -3.009241E+04  2.728676E+04  6.790496E+03
       165   1  2.796180E+06  1.427889E+05  1.884929E+05 -3.020271E+04 -3.345174E+04 -8.114567E+03
       165   2  2.836353E+06  1.438599E+05  2.293297E+05  5.619299E+03 -7.121018E+04 -1.012716E+04
       165   3  2.908029E+06  2.430739E+05  3.196258E+05 -4.594681E+04 -1.089709E+05 -1.051601E+04
       165   4  2.212255E+06 -2.525010E+03  4.419335E+04 -3.564023E+04 -3.411207E+04 -8.114468E+03
       165   5  2.196487E+06 -1.533964E+04  7.139604E+04  8.016505E+03 -7.144562E+04 -1.012821E+04
       165   6  2.212178E+06  6.996975E+04  1.478010E+05 -3.571966E+04 -1.087780E+05 -1.051841E+04
       165   7  1.628638E+06 -1.478641E+05 -1.001315E+05 -4.107260E+04 -3.477177E+04 -8.114357E+03
       165   8  1.556992E+06 -1.745696E+05 -8.656787E+04  1.041121E+04 -7.168078E+04 -1.012926E+04
       165   9  1.516765E+06 -1.031700E+05 -2.405954E+04 -2.550406E+04 -1.085854E+05 -1.052080E+04
       165  10  2.796179E+06  1.427885E+05  1.884907E+05 -3.020293E+04  4.069750E-10  1.964733E-11
       165  11  2.836347E+06  1.438584E+05  2.293200E+05  5.618719E+03  1.453556E-09  5.478541E-10
       165  12  2.908016E+06  2.430706E+05  3.196033E+05 -4.594773E+04 -1.971551E-09  3.299047E-10
       165  13  2.212253E+06 -2.525392E+03  4.419105E+04 -3.564045E+04 -1.275324E-09  9.189922E-11
       165  14  2.196482E+06 -1.534112E+04  7.138629E+04  8.015923E+03 -1.070256E-09 -5.323173E-12
       165  15  2.212165E+06  6.996647E+04  1.477786E+05 -3.572058E+04  1.207961E-10  2.115200E-10
       165  16  1.628637E+06 -1.478645E+05 -1.001339E+05 -4.107282E+04 -3.897887E-10  4.520691E-10
       165  17  1.556987E+06 -1.745711E+05 -8.657769E+04  1.041062E+04 -4.909674E-10 -6.185908E-10
       165  18  1.516753E+06 -1.031733E+05 -2.408186E+04 -2.550498E+04  7.624719E-12  7.330554E-10
       165  19  2.796180E+06  1.427889E+05  1.884929E+05 -3.020271E+04  3.345174E+04  8.114567E+03
       165  20  2.836353E+06  1.438599E+05  2.293297E+05  5.619299E+03  7.121018E+04  1.012716E+04
       165  21  2.908029E+06  2.430739E+05  3.196258E+05 -4.594681E+04  1.089709E+05  1.051601E+04
       165  22  2.212255E+06 -2.525010E+03  4.419335E+04 -3.564023E+04  3.411207E+04  8.114468E+03
       165  23  2.196487E+06 -1.533964E+04  7.139604E+04  8.016505E+03  7.144562E+04  1.012821E+04
       165  24  2.212178E+06  6.996975E+04  1.478010E+05 -3.571966E+04  1.087780E+05  1.051841E+04
       165  25  1.628638E+06 -1.478641E+05 -1.001315E+05 -4.107260E+04  3.477177E+04  8.114357E+03
       165  26  1.556992E+06 -1.745696E+05 -8.656787E+04  1.041121E+04  7.168078E+04  1.012926E+04
       165  27  1.516765E+06 -1.031700E+05 -2.405954E+04 -2.550406E+04  1.085854E+05  1.052080E+04
       166   1  3.198365E+06  2.174782E+05  4.136363E+05 -2.277456E+03 -1.355217E+05 -1.437705E+04
       166   2  3.175168E+06  1.477355E+05  5.275346E+05 -2.055875E+03 -2.893578E+05 -1.875661E+04
       166   3  3.349952E+06  7.668769E+05  9.146848E+05 -1.217086E+05 -4.432613E+05 -8.128593E+03
       166   4  2.249103E+06 -1.885020E+04  1.792358E+05 -4.223770E+04 -1.381656E+05 -1.437468E+04
       166   5  2.150063E+06 -1.070736E+05  2.748759E+05  1.662403E+04 -2.881737E+05 -1.876457E+04
       166   6  2.248652E+06  4.935171E+05  6.414425E+05 -4.438625E+04 -4.382295E+05 -8.164946E+03
       166   7  1.300660E+06 -2.552398E+05 -5.523043E+04 -8.213738E+04 -1.408054E+05 -1.437195E+04
       166   8  1.125910E+06 -3.619593E+05  2.213995E+04  3.527244E+04 -2.869912E+05 -1.877248E+04
       166   9  1.148461E+06  2.200900E+05  3.681135E+05  3.279837E+04 -4.332060E+05 -8.200120E+03
       166  10  3.198345E+06  2.174731E+05  4.136015E+05 -2.279022E+03  1.097349E-09  1.244065E-09
       166  11  3.175078E+06  1.477128E+05  5.273774E+05 -2.060239E+03  9.504915E-10  2.762713E-10
       166  12  3.349742E+06  7.668244E+05  9.143173E+05 -1.217115E+05  1.450898E-10 -5.679999E-10
       166  13  2.249083E+06 -1.885552E+04  1.791997E+05 -4.223930E+04 -1.079384E-09  6.763833E-10
       166  14  2.149974E+06 -1.070962E+05  2.747198E+05  1.661968E+04 -3.137904E-09 -4.687244E-10
       166  15  2.248447E+06  4.934657E+05  6.410828E+05 -4.438914E+04 -1.949067E-09  7.557309E-11
       166  16  1.300639E+06 -2.552454E+05 -5.526799E+04 -8.213901E+04  1.596940E-10  8.834558E-10
       166  17  1.125822E+06 -3.619817E+05  2.198482E+04  3.526810E+04 -3.392015E-09  1.002962E-09
       166  18  1.148260E+06  2.200397E+05  3.677613E+05  3.279551E+04  3.815912E-10  1.083667E-10
       166  19  3.198365E+06  2.174782E+05  4.136363E+05 -2.277456E+03  1.355217E+05  1.437705E+04
       166  20  3.175168E+06  1.477355E+05  5.275346E+05 -2.055875E+03  2.893578E+05  1.875661E+04
       166  21  3.349952E+06  7.668769E+05  9.146848E+05 -1.217086E+05  4.432613E+05  8.128593E+03
       166  22  2.249103E+06 -1.885020E+04  1.792358E+05 -4.223770E+04  1.381656E+05  1.437468E+04
       166  23  2.150063E+06 -1.070736E+05  2.748759E+05  1.662403E+04  2.881737E+05  1.876457E+04
       166  24  2.248652E+06  4.935171E+05  6.414425E+05 -4.438625E+04  4.382295E+05  8.164946E+03
       166  25  1.300660E+06 -2.552398E+05 -5.523043E+04 -8.213738E+04  1.408054E+05  1.437195E+04
       166  26  1.125910E+06 -3.619593E+05  2.213995E+04  3.527244E+04  2.869912E+05  1.877248E+04
       166  27  1.148461E+06  2.200900E+05  3.681135E+05  3.279837E+04  4.332060E+05  8.200120E+03
       167   1 -3.798872E+04 -3.790813E+04 -1.313539E+04 -3.447838E+03 -3.116156E+03  6.955931E+04
       167   2 -1.335837E+05 -3.944720E+04 -6.867821E+04 -5.781082E+03 -8.263757E+03  4.593713E+04
       167   3 -1.148492E+05 -7.989456E+03 -8.000021E+04  1.542732E+04 -7.023159E+03  2.234605E+04
       167   4  8.157016E+04  4.414393E+05  1.062107E+05  8.032802E+03 -3.125441E+03  7.162901E+04
       167   5 -1.781993E+04  4.248232E+05  4.610151E+04 -3.956428E+03 -8.265560E+03  4.645662E+04
       167   6 -2.657168E+03  4.414493E+05  3.126517E+04  7.594672E+03 -7.018843E+03  2.131593E+04
       167   7  2.011123E+05  9.209954E+05  2.255397E+05  1.952258E+04 -3.134646E+03  7.370030E+04
       167   8  9.792776E+04  8.892894E+05  1.608652E+05 -2.130177E+03 -8.267360E+03  4.697648E+04
       167   9  1.095200E+05  8.910716E+05  1.425155E+05 -2.434639E+02 -7.014503E+03  2.028506E+04
       167  10 -3.799003E+04 -3.791333E+04 -1.314450E+04 -3.447664E+03  2.084290E-10  5.665764E-10
       167  11 -1.335843E+05 -3.944948E+04 -6.868230E+04 -5.780777E+03 -1.764571E-09 -2.161394E-10
       167  12 -1.148494E+05 -7.990005E+03 -8.000124E+04  1.542744E+04 -1.324384E-09 -1.067618E-09
       167  13  8.156877E+04  4.414338E+05  1.062011E+05  8.032982E+03  3.630111E-09 -9.613163E-11
       167  14 -1.782059E+04  4.248209E+05  4.609732E+04 -3.956119E+03 -1.936030E-10 -8.062433E-11
       167  15 -2.657342E+03  4.414488E+05  3.126422E+04  7.594792E+03  5.473615E-10 -1.672643E-10
       167  16  2.011109E+05  9.209895E+05  2.255295E+05  1.952277E+04  1.030036E-09 -5.232296E-10
       167  17  9.792710E+04  8.892870E+05  1.608610E+05 -2.129865E+03  6.656112E-09 -1.272226E-10
       167  18  1.095198E+05  8.910711E+05  1.425147E+05 -2.433493E+02  9.419536E-10  9.503959E-10
       167  19 -3.798872E+04 -3.790813E+04 -1.313539E+04 -3.447838E+03  3.116156E+03 -6.955931E+04
       167  20 -1.335837E+05 -3.944720E+04 -6.867821E+04 -5.781082E+03  8.263757E+03 -4.593713E+04
       167  21 -1.148492E+05 -7.989456E+03 -8.000021E+04  1.542732E+04  7.023159E+03 -2.234605E+04
       167  22  8.157016E+04  4.414393E+05  1.062107E+05  8.032802E+03  3.125441E+03 -7.162901E+04
       167  23 -1.781993E+04  4.248232E+05  4.610151E+04 -3.956428E+03  8.265560E+03 -4.645662E+04
       167  24 -2.657168E+03  4.414493E+05  3.126517E+04  7.594672E+03  7.018843E+03 -2.131593E+04
       167  25  2.011123E+05  9.209954E+05  2.255397E+05  1.952258E+04  3.134646E+03 -7.370030E+04
       167  26  9.792776E+04  8.892894E+05  1.608652E+05 -2.130177E+03  8.267360E+03 -4.697648E+04
       167  27  1.095200E+05  8.910716E+05  1.425155E+05 -2.434639E+02  7.014503E+03 -2.028506E+04
       168   1 -8.719154E+04  4.048283E+04 -7.131536E+04  6.054276E+03 -5.803279E+03  1.588686E+04
       168   2 -9.871546E+04  4.974033E+04 -7.930495E+04 -2.420262E+03 -6.114521E+03  8.187443E+03
       168   3 -8.896973E+04  6.620533E+04 -7.678567E+04  9.257573E+03 -5.150888E+03  4.916608E+02
       168   4  1.139098E+04  4.356867E+05  2.656024E+04  7.008236E+03 -5.803913E+03  1.612858E+04
       168   5 -3.348435E+03  4.320574E+05  1.529919E+04 -3.084350E+03 -6.114052E+03  8.118738E+03
       168   6  3.228732E+03  4.356856E+05  1.475796E+04  6.974622E+03 -5.149620E+03  1.126891E+02
       168   7  1.099618E+05  8.310324E+05  1.244242E+05  7.962937E+03 -5.804545E+03  1.637045E+04
       168   8  9.200767E+04  8.145072E+05  1.098925E+05 -3.748737E+03 -6.113582E+03  8.049990E+03
       168   9  9.541700E+04  8.052898E+05  1.062914E+05  4.690399E+03 -5.148350E+03 -2.665079E+02
       168  10 -8.719164E+04  4.048255E+04 -7.131590E+04  6.054350E+03 -1.793642E-09  2.093157E-10
       168  11 -9.871552E+04  4.974025E+04 -7.930515E+04 -2.420222E+03 -4.701468E-10  9.948699E-11
       168  12 -8.896976E+04  6.620533E+04 -7.678572E+04  9.257575E+03 -2.854386E-10 -4.039264E-10
       168  13  1.139087E+04  4.356864E+05  2.655968E+04  7.008311E+03 -1.031764E-09 -8.388401E-11
       168  14 -3.348493E+03  4.320573E+05  1.529899E+04 -3.084310E+03 -2.817521E-10 -8.483294E-11
       168  15  3.228703E+03  4.356856E+05  1.475791E+04  6.974623E+03 -8.796924E-10  3.499475E-11
       168  16  1.099617E+05  8.310321E+05  1.244236E+05  7.963013E+03 -6.793446E-10 -2.644420E-10
       168  17  9.200761E+04  8.145071E+05  1.098923E+05 -3.748697E+03 -8.322626E-10 -6.766281E-12
       168  18  9.541697E+04  8.052898E+05  1.062914E+05  4.690397E+03  4.072968E-10  3.337865E-10
       168  19 -8.719154E+04  4.048283E+04 -7.131536E+04  6.054276E+03  5.803279E+03 -1.588686E+04
       168  20 -9.871546E+04  4.974033E+04 -7.930495E+04 -2.420262E+03  6.114521E+03 -8.187443E+03
       168  21 -8.896973E+04  6.620533E+04 -7.678567E+04  9.257573E+03  5.150888E+03 -4.916608E+02
       168  22  1.139098E+04  4.356867E+05  2.656024E+04  7.008236E+03  5.803913E+03 -1.612858E+04
       168  23 -3.348435E+03  4.320574E+05  1.529919E+04 -3.084350E+03  6.114052E+03 -8.118738E+03
       168  24  3.228732E+03  4.356856E+05  1.475796E+04  6.974622E+03  5.149620E+03 -1.126891E+02
       168  25  1.099618E+05  8.310324E+05  1.244242E+05  7.962937E+03  5.804545E+03 -1.637045E+04
       168  26  9.200767E+04  8.145072E+05  1.098925E+05 -3.748737E+03  6.113582E+03 -8.049990E+03
       168  27  9.541700E+04  8.052898E+05  1.062914E+05  4.690399E+03  5.148350E+03  2.665079E+02
       169   1 -7.973334E+04  1.145440E+05 -6.483954E+04  4.794467E+03 -5.293828E+03 -2.973686E+03
       169   2 -8.350857E+04  1.201586E+05 -6.004758E+04 -8.182539E+02 -5.263865E+03 -1.121188E+04
       169   3 -4.891001E+04  1.370122E+05 -4.018287E+04  1.126224E+04 -1.675860E+03 -1.944374E+04
       169   4  5.827159E+02  4.366143E+05  1.482338E+04  6.419925E+03 -5.294760E+03 -2.549588E+03
       169   5 -5.998737E+03  4.309191E+05  1.679463E+04 -2.403214E+03 -5.262723E+03 -1.164578E+04
       169   6  2.593248E+04  4.366071E+05  3.442907E+04  6.466259E+03 -1.673342E+03 -2.073549E+04
       169   7  8.089103E+04  7.587788E+05  9.447859E+04  8.046287E+03 -5.295690E+03 -2.125270E+03
       169   8  7.150389E+04  7.417673E+05  9.362967E+04 -3.988920E+03 -5.261579E+03 -1.207989E+04
       169   9  1.007683E+05  7.362833E+05  1.090343E+05  1.667996E+03 -1.670805E+03 -2.202787E+04
       169  10 -7.973337E+04  1.145440E+05 -6.483961E+04  4.794454E+03 -2.674339E-10  9.072940E-11
       169  11 -8.350863E+04  1.201585E+05 -6.004787E+04 -8.183014E+02  1.765796E-09 -2.674480E-13
       169  12 -4.891012E+04  1.370118E+05 -4.018359E+04  1.126222E+04  2.700502E-10 -2.309413E-10
       169  13  5.826841E+02  4.366143E+05  1.482331E+04  6.419914E+03  1.838364E-10 -3.283855E-11
       169  14 -5.998803E+03  4.309190E+05  1.679432E+04 -2.403264E+03  9.418829E-10  2.069309E-12
       169  15  2.593236E+04  4.366066E+05  3.442826E+04  6.466231E+03  2.409236E-10 -3.938537E-11
       169  16  8.089100E+04  7.587788E+05  9.447852E+04  8.046278E+03 -9.260279E-10 -1.884110E-11
       169  17  7.150382E+04  7.417672E+05  9.362935E+04 -3.988971E+03  1.180852E-09 -5.814316E-11
       169  18  1.007682E+05  7.362828E+05  1.090334E+05  1.667966E+03  9.119129E-10  1.758190E-10
       169  19 -7.973334E+04  1.145440E+05 -6.483954E+04  4.794467E+03  5.293828E+03  2.973686E+03
       169  20 -8.350857E+04  1.201586E+05 -6.004758E+04 -8.182539E+02  5.263865E+03  1.121188E+04
       169  21 -4.891001E+04  1.370122E+05 -4.018287E+04  1.126224E+04  1.675860E+03  1.944374E+04
       169  22  5.827159E+02  4.366143E+05  1.482338E+04  6.419925E+03  5.294760E+03  2.549588E+03
       169  23 -5.998737E+03  4.309191E+05  1.679463E+04 -2.403214E+03  5.262723E+03  1.164578E+04
       169  24  2.593248E+04  4.366071E+05  3.442907E+04  6.466259E+03  1.673342E+03  2.073549E+04
       169  25  8.089103E+04  7.587788E+05  9.447859E+04  8.046287E+03  5.295690E+03  2.125270E+03
       169  26  7.150389E+04  7.417673E+05  9.362967E+04 -3.988920E+03  5.261579E+03  1.207989E+04
       169  27  1.007683E+05  7.362833E+05  1.090343E+05  1.667996E+03  1.670805E+03  2.202787E+04
       170   1 -2.633240E+06 -8.502646E+05 -6.141812E+05 -8.586533E+05 -3.115641E+05 -1.155680E+05
       170   2 -2.542544E+06 -4.194880E+05 -3.274626E+05 -9.663168E+05 -2.022936E+05 -6.742389E+04
       170   3 -2.662401E+06 -4.580904E+05 -2.565303E+05 -9.309694E+05 -9.072705E+04 -2.531489E+04
       170   4 -2.216721E+06 -6.380771E+05 -4.885501E+05 -6.901893E+05 -3.097726E+05 -1.149187E+05
       170   5 -2.086543E+06 -2.320377E+05 -1.997843E+05 -8.269443E+05 -2.017872E+05 -6.723735E+04
       170   6 -2.166535E+06 -2.949148E+05 -1.256685E+05 -8.207313E+05 -9.149867E+04 -2.560365E+04
       170   7 -1.800027E+06 -4.258345E+05 -3.629367E+05 -5.216095E+05 -3.079798E+05 -1.142686E+05
       170   8 -1.630341E+06 -4.456534E+04 -7.212578E+04 -6.874758E+05 -2.012803E+05 -6.705061E+04
       170   9 -1.670430E+06 -1.317383E+05  5.173080E+03 -7.104203E+05 -9.227094E+04 -2.589258E+04
       170  10 -2.633348E+06 -8.503052E+05 -6.143897E+05 -8.586824E+05 -1.345965E-09  7.123732E-11
       170  11 -2.542590E+06 -4.195039E+05 -3.275485E+05 -9.663279E+05 -1.964109E-09 -1.199862E-10
       170  12 -2.662411E+06 -4.580933E+05 -2.565471E+05 -9.309712E+05  8.975499E-10 -5.458856E-10
       170  13 -2.216828E+06 -6.381172E+05 -4.887561E+05 -6.902181E+05  2.045735E-09 -8.482455E-11
       170  14 -2.086588E+06 -2.320535E+05 -1.998697E+05 -8.269553E+05 -2.328880E-09 -2.113541E-10
       170  15 -2.166544E+06 -2.949177E+05 -1.256855E+05 -8.207332E+05 -3.872256E-10 -2.080910E-11
       170  16 -1.800133E+06 -4.258741E+05 -3.631401E+05 -5.216379E+05 -6.667422E-10 -1.823344E-10
       170  17 -1.630386E+06 -4.458110E+04 -7.221063E+04 -6.874867E+05  6.498919E-10 -1.111051E-10
       170  18 -1.670440E+06 -1.317413E+05  5.155766E+03 -7.104222E+05 -6.894957E-10  6.662527E-11
       170  19 -2.633240E+06 -8.502646E+05 -6.141812E+05 -8.586533E+05  3.115641E+05  1.155680E+05
       170  20 -2.542544E+06 -4.194880E+05 -3.274626E+05 -9.663168E+05  2.022936E+05  6.742389E+04
       170  21 -2.662401E+06 -4.580904E+05 -2.565303E+05 -9.309694E+05  9.072705E+04  2.531489E+04
       170  22 -2.216721E+06 -6.380771E+05 -4.885501E+05 -6.901893E+05  3.097726E+05  1.149187E+05
       170  23 -2.086543E+06 -2.320377E+05 -1.997843E+05 -8.269443E+05  2.017872E+05  6.723735E+04
       170  24 -2.166535E+06 -2.949148E+05 -1.256685E+05 -8.207313E+05  9.149867E+04  2.560365E+04
       170  25 -1.800027E+06 -4.258345E+05 -3.629367E+05 -5.216095E+05  3.079798E+05  1.142686E+05
       170  26 -1.630341E+06 -4.456534E+04 -7.212578E+04 -6.874758E+05  2.012803E+05  6.705061E+04
       170  27 -1.670430E+06 -1.317383E+05  5.173080E+03 -7.104203E+05  9.227094E+04  2.589258E+04
       171   1 -2.638812E+06 -5.492927E+05 -2.398005E+05 -9.350975E+05 -7.269897E+04 -1.925304E+04
       171   2 -2.624460E+06 -4.833136E+05 -1.826684E+05 -9.467158E+05 -4.784000E+04 -8.821937E+03
       171   3 -2.635569E+06 -4.896978E+05 -1.631370E+05 -9.430685E+05 -2.248704E+04  3.049786E+02
       171   4 -2.147013E+06 -3.549790E+05 -1.034012E+05 -7.928029E+05 -7.239682E+04 -1.914005E+04
       171   5 -2.130737E+06 -2.941068E+05 -4.704731E+04 -8.097873E+05 -4.781076E+04 -8.811564E+03
       171   6 -2.139843E+06 -3.055092E+05 -2.805400E+04 -8.115121E+05 -2.273080E+04  2.126781E+02
       171   7 -1.654983E+06 -1.606460E+05  3.297532E+04 -6.504046E+05 -7.209439E+04 -1.902693E+04
       171   8 -1.636779E+06 -1.048845E+05  8.855141E+04 -6.727601E+05 -4.778149E+04 -8.801176E+03
       171   9 -1.643881E+06 -1.213085E+05  1.070070E+05 -6.798618E+05 -2.297476E+04  1.203023E+02
       171  10 -2.638817E+06 -5.492946E+05 -2.398112E+05 -9.350987E+05  4.049641E-10 -4.721683E-10
       171  11 -2.624462E+06 -4.833143E+05 -1.826728E+05 -9.467161E+05 -3.126654E-09 -6.346977E-11
       171  12 -2.635569E+06 -4.896980E+05 -1.631380E+05 -9.430685E+05  2.497541E-10 -3.205881E-10
       171  13 -2.147019E+06 -3.549809E+05 -1.034118E+05 -7.928040E+05 -3.004526E-09 -7.729939E-11
       171  14 -2.130739E+06 -2.941075E+05 -4.705176E+04 -8.097877E+05  1.517583E-09 -2.685741E-10
       171  15 -2.139844E+06 -3.055093E+05 -2.805498E+04 -8.115121E+05 -1.879150E-09 -2.285868E-10
       171  16 -1.654989E+06 -1.606478E+05  3.296484E+04 -6.504057E+05 -5.986427E-10  4.501361E-10
       171  17 -1.636781E+06 -1.048852E+05  8.854696E+04 -6.727605E+05 -1.682149E-09 -6.122389E-10
       171  18 -1.643882E+06 -1.213086E+05  1.070060E+05 -6.798618E+05  1.031665E-09  3.952578E-10
       171  19 -2.638812E+06 -5.492927E+05 -2.398005E+05 -9.350975E+05  7.269897E+04  1.925304E+04
       171  20 -2.624460E+06 -4.833136E+05 -1.826684E+05 -9.467158E+05  4.784000E+04  8.821937E+03
       171  21 -2.635569E+06 -4.896978E+05 -1.631370E+05 -9.430685E+05  2.248704E+04 -3.049786E+02
       171  22 -2.147013E+06 -3.549790E+05 -1.034012E+05 -7.928029E+05  7.239682E+04  1.914005E+04
       171  23 -2.130737E+06 -2.941068E+05 -4.704731E+04 -8.097873E+05  4.781076E+04  8.811564E+03
       171  24 -2.139843E+06 -3.055092E+05 -2.805400E+04 -8.115121E+05  2.273080E+04 -2.126781E+02
       171  25 -1.654983E+06 -1.606460E+05  3.297532E+04 -6.504046E+05  7.209439E+04  1.902693E+04
       171  26 -1.636779E+06 -1.048845E+05  8.855141E+04 -6.727601E+05  4.778149E+04  8.801176E+03
       171  27 -1.643881E+06 -1.213085E+05  1.070070E+05 -6.798618E+05  2.297476E+04 -1.203023E+02
       172   1 -2.587082E+06 -4.897167E+05 -1.466518E+05 -9.354832E+05 -1.846127E+04  1.455486E+03
       172   2 -2.579697E+06 -4.655703E+05 -1.311912E+05 -9.228385E+05 -1.254627E+04  3.394762E+03
       172   3 -2.557277E+06 -4.696944E+05 -1.225385E+05 -9.282987E+05 -6.417565E+03  4.763038E+03
       172   4 -2.133911E+06 -3.170815E+05 -2.236759E+04 -8.108506E+05 -1.846259E+04  1.454525E+03
       172   5 -2.140929E+06 -2.993801E+05 -1.104689E+04 -8.031459E+05 -1.267131E+04  3.347335E+03
       172   6 -2.132887E+06 -3.099183E+05 -6.431635E+03 -8.135454E+05 -6.666546E+03  4.669260E+03
       172   7 -1.680542E+06 -1.444338E+05  1.018979E+05 -6.861358E+05 -1.846390E+04  1.453565E+03
       172   8 -1.701978E+06 -1.331788E+05  1.090798E+05 -6.833770E+05 -1.279644E+04  3.299871E+03
       172   9 -1.708324E+06 -1.501325E+05  1.096587E+05 -6.987216E+05 -6.915714E+03  4.575413E+03
       172  10 -2.587083E+06 -4.897167E+05 -1.466525E+05 -9.354832E+05  3.179042E-10 -4.707907E-11
       172  11 -2.579697E+06 -4.655704E+05 -1.311916E+05 -9.228385E+05 -9.350763E-10  1.115069E-10
       172  12 -2.557277E+06 -4.696944E+05 -1.225386E+05 -9.282986E+05 -4.666945E-10 -7.731742E-11
       172  13 -2.133911E+06 -3.170816E+05 -2.236824E+04 -8.108506E+05  3.993471E-10 -9.737604E-11
       172  14 -2.140930E+06 -2.993801E+05 -1.104721E+04 -8.031459E+05  9.986207E-11  4.627082E-10
       172  15 -2.132887E+06 -3.099183E+05 -6.431759E+03 -8.135453E+05 -4.350814E-10 -5.291373E-10
       172  16 -1.680543E+06 -1.444339E+05  1.018972E+05 -6.861358E+05 -1.315156E-09  5.922752E-10
       172  17 -1.701978E+06 -1.331788E+05  1.090795E+05 -6.833770E+05 -4.273723E-10  6.565264E-10
       172  18 -1.708324E+06 -1.501325E+05  1.096586E+05 -6.987216E+05 -2.009051E-10 -6.874098E-10
       172  19 -2.587082E+06 -4.897167E+05 -1.466518E+05 -9.354832E+05  1.846127E+04 -1.455486E+03
       172  20 -2.579697E+06 -4.655703E+05 -1.311912E+05 -9.228385E+05  1.254627E+04 -3.394762E+03
       172  21 -2.557277E+06 -4.696944E+05 -1.225385E+05 -9.282987E+05  6.417565E+03 -4.763038E+03
       172  22 -2.133911E+06 -3.170815E+05 -2.236759E+04 -8.108506E+05  1.846259E+04 -1.454525E+03
       172  23 -2.140929E+06 -2.993801E+05 -1.104689E+04 -8.031459E+05  1.267131E+04 -3.347335E+03
       172  24 -2.132887E+06 -3.099183E+05 -6.431635E+03 -8.135454E+05  6.666546E+03 -4.669260E+03
       172  25 -1.680542E+06 -1.444338E+05  1.018979E+05 -6.861358E+05  1.846390E+04 -1.453565E+03
       172  26 -1.701978E+06 -1.331788E+05  1.090798E+05 -6.833770E+05  1.279644E+04 -3.299871E+03
       172  27 -1.708324E+06 -1.501325E+05  1.096587E+05 -6.987216E+05  6.915714E+03 -4.575413E+03
       173   1 -2.462153E+06 -4.394746E+05 -9.601776E+04 -9.064697E+05 -5.381567E+03  4.562333E+03
       173   2 -2.452126E+06 -4.130753E+05 -8.698191E+04 -8.821859E+05 -3.487426E+03  4.352378E+03
       173   3 -2.411551E+06 -4.190122E+05 -7.944006E+04 -8.926781E+05 -1.469179E+03  3.807417E+03
       173   4 -2.129854E+06 -3.138930E+05 -5.150396E+03 -8.160867E+05 -5.526014E+03  4.507931E+03
       173   5 -2.145067E+06 -2.972329E+05 -2.998619E+03 -7.988876E+05 -3.706056E+03  4.270326E+03
       173   6 -2.129718E+06 -3.128926E+05 -2.281346E+03 -8.164636E+05 -1.762095E+03  3.697769E+03
       173   7 -1.797449E+06 -1.883050E+05  8.570706E+04 -7.256600E+05 -5.670547E+03  4.453497E+03
       173   8 -1.837918E+06 -1.813852E+05  8.097616E+04 -7.155522E+05 -3.924805E+03  4.188229E+03
       173   9 -1.847809E+06 -2.067687E+05  7.487015E+04 -7.402180E+05 -2.055158E+03  3.588067E+03
       173  10 -2.462153E+06 -4.394746E+05 -9.601786E+04 -9.064696E+05 -3.847369E-10 -6.860941E-10
       173  11 -2.452127E+06 -4.130753E+05 -8.698197E+04 -8.821859E+05 -6.329423E-10 -2.459047E-10
       173  12 -2.411551E+06 -4.190122E+05 -7.944010E+04 -8.926781E+05  9.883604E-11  1.201669E-10
       173  13 -2.129855E+06 -3.138930E+05 -5.150491E+03 -8.160867E+05 -4.108267E-10 -2.623020E-10
       173  14 -2.145067E+06 -2.972329E+05 -2.998680E+03 -7.988876E+05  4.578290E-10  2.444837E-10
       173  15 -2.129718E+06 -3.128926E+05 -2.281377E+03 -8.164636E+05  3.524640E-10 -2.032367E-10
       173  16 -1.797450E+06 -1.883050E+05  8.570696E+04 -7.256600E+05 -4.040002E-10 -8.327439E-10
       173  17 -1.837918E+06 -1.813852E+05  8.097610E+04 -7.155522E+05 -1.074564E-09  3.284441E-11
       173  18 -1.847809E+06 -2.067687E+05  7.487012E+04 -7.402180E+05 -2.961078E-10 -3.204065E-10
       173  19 -2.462153E+06 -4.394746E+05 -9.601776E+04 -9.064697E+05  5.381567E+03 -4.562333E+03
       173  20 -2.452126E+06 -4.130753E+05 -8.698191E+04 -8.821859E+05  3.487426E+03 -4.352378E+03
       173  21 -2.411551E+06 -4.190122E+05 -7.944006E+04 -8.926781E+05  1.469179E+03 -3.807417E+03
       173  22 -2.129854E+06 -3.138930E+05 -5.150396E+03 -8.160867E+05  5.526014E+03 -4.507931E+03
       173  23 -2.145067E+06 -2.972329E+05 -2.998619E+03 -7.988876E+05  3.706056E+03 -4.270326E+03
       173  24 -2.129718E+06 -3.128926E+05 -2.281346E+03 -8.164636E+05  1.762095E+03 -3.697769E+03
       173  25 -1.797449E+06 -1.883050E+05  8.570706E+04 -7.256600E+05  5.670547E+03 -4.453497E+03
       173  26 -1.837918E+06 -1.813852E+05  8.097616E+04 -7.155522E+05  3.924805E+03 -4.188229E+03
       173  27 -1.847809E+06 -2.067687E+05  7.487015E+04 -7.402180E+05  2.055158E+03 -3.588067E+03
       174   1 -2.281651E+06 -3.724395E+05 -4.411772E+04 -8.599269E+05 -8.822676E+02  3.221494E+03
       174   2 -2.269069E+06 -3.412193E+05 -3.602768E+04 -8.295757E+05  9.148895E+02  2.587460E+03
       174   3 -2.219225E+06 -3.493387E+05 -2.933194E+04 -8.425137E+05  2.754191E+03  1.838896E+03
       174   4 -2.128228E+06 -3.145808E+05 -2.264991E+03 -8.182985E+05 -1.126074E+03  3.130337E+03
       174   5 -2.146908E+06 -2.952336E+05 -2.638588E+03 -7.965357E+05  6.457097E+02  2.486903E+03
       174   6 -2.128322E+06 -3.152204E+05 -4.386120E+03 -8.180620E+05  2.459559E+03  1.728924E+03
       174   7 -1.974782E+06 -2.567209E+05  3.958555E+04 -7.766609E+05 -1.369947E+03  3.039155E+03
       174   8 -2.024732E+06 -2.492470E+05  3.074915E+04 -7.634899E+05  3.764713E+02  2.386323E+03
       174   9 -2.037411E+06 -2.811016E+05  2.055898E+04 -7.936071E+05  2.164879E+03  1.618934E+03
       174  10 -2.281651E+06 -3.724395E+05 -4.411774E+04 -8.599269E+05  1.118225E-09  1.198707E-09
       174  11 -2.269069E+06 -3.412193E+05 -3.602769E+04 -8.295757E+05  2.356715E-10 -3.323984E-10
       174  12 -2.219225E+06 -3.493387E+05 -2.933196E+04 -8.425137E+05  1.170118E-09 -9.474746E-10
       174  13 -2.128228E+06 -3.145808E+05 -2.265012E+03 -8.182985E+05  1.065167E-09  4.967388E-10
       174  14 -2.146908E+06 -2.952336E+05 -2.638600E+03 -7.965357E+05  5.492699E-10  5.666104E-10
       174  15 -2.128322E+06 -3.152204E+05 -4.386137E+03 -8.180620E+05  9.723047E-10  8.536669E-10
       174  16 -1.974782E+06 -2.567210E+05  3.958553E+04 -7.766609E+05  7.317064E-10 -1.242704E-11
       174  17 -2.024732E+06 -2.492470E+05  3.074914E+04 -7.634899E+05  2.598013E-10 -8.654810E-10
       174  18 -2.037411E+06 -2.811016E+05  2.055896E+04 -7.936071E+05 -9.117893E-10 -2.971190E-10
       174  19 -2.281651E+06 -3.724395E+05 -4.411772E+04 -8.599269E+05  8.822676E+02 -3.221494E+03
       174  20 -2.269069E+06 -3.412193E+05 -3.602768E+04 -8.295757E+05 -9.148895E+02 -2.587460E+03
       174  21 -2.219225E+06 -3.493387E+05 -2.933194E+04 -8.425137E+05 -2.754191E+03 -1.838896E+03
       174  22 -2.128228E+06 -3.145808E+05 -2.264991E+03 -8.182985E+05  1.126074E+03 -3.130337E+03
       174  23 -2.146908E+06 -2.952336E+05 -2.638588E+03 -7.965357E+05 -6.457097E+02 -2.486903E+03
       174  24 -2.128322E+06 -3.152204E+05 -4.386120E+03 -8.180620E+05 -2.459559E+03 -1.728924E+03
       174  25 -1.974782E+06 -2.567209E+05  3.958555E+04 -7.766609E+05  1.369947E+03 -3.039155E+03
       174  26 -2.024732E+06 -2.492470E+05  3.074915E+04 -7.634899E+05 -3.764713E+02 -2.386323E+03
       174  27 -2.037411E+06 -2.811016E+05  2.055898E+04 -7.936071E+05 -2.164879E+03 -1.618934E+03
       175   1 -2.076101E+06 -2.951524E+05  8.887942E+03 -8.050720E+05  3.883951E+03  1.349618E+03
       175   2 -2.062496E+06 -2.621891E+05  1.379154E+04 -7.736476E+05  9.061135E+03  1.820187E+03
       175   3 -2.014123E+06 -2.761868E+05  1.289975E+04 -7.845397E+05  1.416310E+04  2.494067E+03
       175   4 -2.128531E+06 -3.144472E+05 -5.473752E+03 -8.187669E+05  3.573378E+03  1.233714E+03
       175   5 -2.146327E+06 -2.939202E+05 -9.150609E+03 -7.965053E+05  8.795452E+03  1.720970E+03
       175   6 -2.129366E+06 -3.203642E+05 -1.865912E+04 -8.165609E+05  1.394203E+04  2.411444E+03
       175   7 -2.180959E+06 -3.337418E+05 -1.983569E+04 -8.324608E+05  3.262834E+03  1.117820E+03
       175   8 -2.230152E+06 -3.256508E+05 -3.209338E+04 -8.193602E+05  8.529809E+03  1.621769E+03
       175   9 -2.244596E+06 -3.645407E+05 -5.021916E+04 -8.485767E+05  1.372102E+04  2.328840E+03
       175  10 -2.076101E+06 -2.951524E+05  8.887910E+03 -8.050720E+05  2.546888E-10  2.103374E-10
       175  11 -2.062496E+06 -2.621892E+05  1.379138E+04 -7.736476E+05 -4.164366E-10 -5.584884E-10
       175  12 -2.014123E+06 -2.761869E+05  1.289936E+04 -7.845397E+05  4.667046E-10  5.889931E-10
       175  13 -2.128531E+06 -3.144472E+05 -5.473779E+03 -8.187669E+05 -4.464300E-10  4.830375E-10
       175  14 -2.146327E+06 -2.939202E+05 -9.150761E+03 -7.965053E+05 -2.355600E-09 -7.562976E-10
       175  15 -2.129366E+06 -3.203642E+05 -1.865950E+04 -8.165609E+05  7.278734E-10  1.162476E-09
       175  16 -2.180959E+06 -3.337418E+05 -1.983572E+04 -8.324608E+05 -9.328443E-10 -7.394748E-10
       175  17 -2.230152E+06 -3.256508E+05 -3.209353E+04 -8.193602E+05  2.662076E-10  4.079554E-10
       175  18 -2.244596E+06 -3.645407E+05 -5.021952E+04 -8.485767E+05  1.100154E-09  9.119578E-10
       175  19 -2.076101E+06 -2.951524E+05  8.887942E+03 -8.050720E+05 -3.883951E+03 -1.349618E+03
       175  20 -2.062496E+06 -2.621891E+05  1.379154E+04 -7.736476E+05 -9.061135E+03 -1.820187E+03
       175  21 -2.014123E+06 -2.761868E+05  1.289975E+04 -7.845397E+05 -1.416310E+04 -2.494067E+03
       175  22 -2.128531E+06 -3.144472E+05 -5.473752E+03 -8.187669E+05 -3.573378E+03 -1.233714E+03
       175  23 -2.146327E+06 -2.939202E+05 -9.150609E+03 -7.965053E+05 -8.795452E+03 -1.720970E+03
       175  24 -2.129366E+06 -3.203642E+05 -1.865912E+04 -8.165609E+05 -1.394203E+04 -2.411444E+03
       175  25 -2.180959E+06 -3.337418E+05 -1.983569E+04 -8.324608E+05 -3.262834E+03 -1.117820E+03
       175  26 -2.230152E+06 -3.256508E+05 -3.209338E+04 -8.193602E+05 -8.529809E+03 -1.621769E+03
       175  27 -2.244596E+06 -3.645407E+05 -5.021916E+04 -8.485767E+05 -1.372102E+04 -2.328840E+03
       176   1 -1.881710E+06 -2.207884E+05  4.474021E+04 -7.540651E+05  1.814367E+04  3.011202E+03
       176   2 -1.865339E+06 -1.826466E+05  3.626414E+04 -7.239016E+05  3.910424E+04  9.425714E+03
       176   3 -1.840441E+06 -2.351189E+05 -3.264385E+03 -7.163003E+05  5.964288E+04  1.697414E+04
       176   4 -2.132719E+06 -3.122677E+05 -2.336839E+04 -8.188372E+05  1.773232E+04  2.857494E+03
       176   5 -2.139878E+06 -2.875874E+05 -3.905516E+04 -7.998296E+05  3.893796E+04  9.363224E+03
       176   6 -2.138570E+06 -3.535881E+05 -8.600038E+04 -8.033837E+05  5.972071E+04  1.700241E+04
       176   7 -2.383667E+06 -4.037446E+05 -9.148272E+04 -8.835862E+05  1.732115E+04  2.703848E+03
       176   8 -2.414344E+06 -3.925235E+05 -1.143814E+05 -8.757271E+05  3.877175E+04  9.300763E+03
       176   9 -2.436614E+06 -4.720496E+05 -1.687447E+05 -8.904285E+05  5.979849E+04  1.703065E+04
       176  10 -1.881711E+06 -2.207885E+05  4.473957E+04 -7.540652E+05  1.581148E-09  6.178473E-10
       176  11 -1.865340E+06 -1.826471E+05  3.626109E+04 -7.239019E+05  1.595572E-09  7.452294E-10
       176  12 -1.840445E+06 -2.351202E+05 -3.271636E+03 -7.163011E+05  2.103543E-10  6.801383E-10
       176  13 -2.132719E+06 -3.122678E+05 -2.336900E+04 -8.188372E+05  1.812817E-09  1.164135E-09
       176  14 -2.139879E+06 -2.875879E+05 -3.905818E+04 -7.998298E+05  1.185845E-09 -7.132764E-11
       176  15 -2.138574E+06 -3.535894E+05 -8.600765E+04 -8.033845E+05  6.046323E-10  3.609843E-10
       176  16 -2.383667E+06 -4.037447E+05 -9.148330E+04 -8.835862E+05  5.051932E-10 -8.096631E-10
       176  17 -2.414346E+06 -3.925240E+05 -1.143844E+05 -8.757274E+05  4.560462E-10  2.481991E-10
       176  18 -2.436618E+06 -4.720509E+05 -1.687520E+05 -8.904293E+05  1.526377E-09  5.020573E-10
       176  19 -1.881710E+06 -2.207884E+05  4.474021E+04 -7.540651E+05 -1.814367E+04 -3.011202E+03
       176  20 -1.865339E+06 -1.826466E+05  3.626414E+04 -7.239016E+05 -3.910424E+04 -9.425714E+03
       176  21 -1.840441E+06 -2.351189E+05 -3.264385E+03 -7.163003E+05 -5.964288E+04 -1.697414E+04
       176  22 -2.132719E+06 -3.122677E+05 -2.336839E+04 -8.188372E+05 -1.773232E+04 -2.857494E+03
       176  23 -2.139878E+06 -2.875874E+05 -3.905516E+04 -7.998296E+05 -3.893796E+04 -9.363224E+03
       176  24 -2.138570E+06 -3.535881E+05 -8.600038E+04 -8.033837E+05 -5.972071E+04 -1.700241E+04
       176  25 -2.383667E+06 -4.037446E+05 -9.148272E+04 -8.835862E+05 -1.732115E+04 -2.703848E+03
       176  26 -2.414344E+06 -3.925235E+05 -1.143814E+05 -8.757271E+05 -3.877175E+04 -9.300763E+03
       176  27 -2.436614E+06 -4.720496E+05 -1.687447E+05 -8.904285E+05 -5.979849E+04 -1.703065E+04
       177   1 -1.736596E+06 -1.670529E+05  5.693893E+03 -7.348758E+05  7.702595E+04  2.184668E+04
       177   2 -1.692680E+06 -6.874711E+04 -5.144867E+04 -6.900080E+05  1.678690E+05  5.438617E+04
       177   3 -1.789990E+06 -3.928662E+05 -2.858098E+05 -5.640256E+05  2.562622E+05  9.345694E+04
       177   4 -2.154404E+06 -3.037810E+05 -1.044502E+05 -8.267616E+05  7.595567E+04  2.144824E+04
       177   5 -2.104026E+06 -2.354627E+05 -1.660717E+05 -8.135480E+05  1.682027E+05  5.450736E+04
       177   6 -2.195260E+06 -5.900179E+05 -4.061209E+05 -7.191911E+05  2.580002E+05  9.408834E+04
       177   7 -2.572043E+06 -4.405089E+05 -2.146085E+05 -9.185961E+05  7.488618E+04  2.104999E+04
       177   8 -2.515209E+06 -4.021615E+05 -2.807106E+05 -9.370115E+05  1.685362E+05  5.462843E+04
       177   9 -2.600367E+06 -7.871261E+05 -5.264484E+05 -8.742544E+05  2.597368E+05  9.471893E+04
       177  10 -1.736603E+06 -1.670550E+05  5.681807E+03 -7.348772E+05  1.028904E-09  5.444810E-10
       177  11 -1.692711E+06 -6.875789E+04 -5.150737E+04 -6.900154E+05  9.501289E-10 -6.599204E-10
       177  12 -1.790063E+06 -3.928933E+05 -2.859501E+05 -5.640449E+05  4.131578E-10 -4.511449E-10
       177  13 -2.154410E+06 -3.037831E+05 -1.044619E+05 -8.267629E+05  4.435094E-10  3.860536E-10
       177  14 -2.104057E+06 -2.354735E+05 -1.661307E+05 -8.135554E+05 -1.003450E-09  7.760409E-11
       177  15 -2.195334E+06 -5.900454E+05 -4.062632E+05 -7.192107E+05  2.372109E-10 -5.568736E-10
       177  16 -2.572049E+06 -4.405109E+05 -2.146199E+05 -9.185974E+05  5.647616E-10 -5.905845E-11
       177  17 -2.515240E+06 -4.021724E+05 -2.807699E+05 -9.370190E+05 -1.421358E-09 -3.644711E-10
       177  18 -2.600442E+06 -7.871540E+05 -5.265927E+05 -8.742743E+05 -5.690324E-10  2.050476E-11
       177  19 -1.736596E+06 -1.670529E+05  5.693893E+03 -7.348758E+05 -7.702595E+04 -2.184668E+04
       177  20 -1.692680E+06 -6.874711E+04 -5.144867E+04 -6.900080E+05 -1.678690E+05 -5.438617E+04
       177  21 -1.789990E+06 -3.928662E+05 -2.858098E+05 -5.640256E+05 -2.562622E+05 -9.345694E+04
       177  22 -2.154404E+06 -3.037810E+05 -1.044502E+05 -8.267616E+05 -7.595567E+04 -2.144824E+04
       177  23 -2.104026E+06 -2.354627E+05 -1.660717E+05 -8.135480E+05 -1.682027E+05 -5.450736E+04
       177  24 -2.195260E+06 -5.900179E+05 -4.061209E+05 -7.191911E+05 -2.580002E+05 -9.408834E+04
       177  25 -2.572043E+06 -4.405089E+05 -2.146085E+05 -9.185961E+05 -7.488618E+04 -2.104999E+04
       177  26 -2.515209E+06 -4.021615E+05 -2.807106E+05 -9.370115E+05 -1.685362E+05 -5.462843E+04
       177  27 -2.600367E+06 -7.871261E+05 -5.264484E+05 -8.742544E+05 -2.597368E+05 -9.471893E+04
       178   1 -1.247731E+06 -1.540741E+05 -1.210160E+05 -1.451294E+04  9.106337E+04  6.425719E+03
       178   2 -1.228907E+06 -2.749151E+05 -1.892585E+05  6.940086E+03  6.175604E+04  1.770278E+04
       178   3 -1.163037E+06 -2.450317E+05 -1.996113E+05 -3.792377E+04  3.250124E+04  1.478502E+04
       178   4 -1.987818E+05  1.080125E+05  1.404557E+05 -2.866772E+04  9.560743E+04  6.442454E+03
       178   5 -2.225941E+05 -2.369317E+04  5.978797E+04  4.724536E+03  6.285009E+04  1.770396E+04
       178   6 -1.988261E+05 -4.202753E+03  3.933893E+04 -2.819302E+04  3.014752E+04  1.477964E+04
       178   7  8.511676E+05  3.700172E+05  4.018449E+05 -4.284754E+04  1.001591E+05  6.458969E+03
       178   8  7.846403E+05  2.274530E+05  3.087591E+05  2.504656E+03  6.394585E+04  1.770514E+04
       178   9  7.662308E+05  2.365568E+05  2.782199E+05 -1.844750E+04  2.779011E+04  1.477419E+04
       178  10 -1.247740E+06 -1.540764E+05 -1.210317E+05 -1.451341E+04  1.216314E-09  4.136386E-10
       178  11 -1.228911E+06 -2.749164E+05 -1.892663E+05  6.939205E+03  2.329747E-09 -1.458068E-09
       178  12 -1.163039E+06 -2.450322E+05 -1.996137E+05 -3.792416E+04 -1.292551E-09 -6.875030E-10
       178  13 -1.987917E+05  1.080100E+05  1.404384E+05 -2.866822E+04  3.108674E-11 -1.407916E-09
       178  14 -2.225984E+05 -2.369457E+04  5.977995E+04  4.723640E+03 -8.651903E-10 -6.317544E-10
       178  15 -1.988272E+05 -4.203231E+03  3.933681E+04 -2.819338E+04 -2.211869E-09 -9.073744E-10
       178  16  8.511569E+05  3.700144E+05  4.018260E+05 -4.284806E+04 -1.145200E-09  1.691160E-09
       178  17  7.846358E+05  2.274515E+05  3.087509E+05  2.503745E+03 -2.040293E-09 -1.849953E-09
       178  18  7.662299E+05  2.365564E+05  2.782181E+05 -1.844783E+04  3.537971E-10 -1.235268E-09
       178  19 -1.247731E+06 -1.540741E+05 -1.210160E+05 -1.451294E+04 -9.106337E+04 -6.425719E+03
       178  20 -1.228907E+06 -2.749151E+05 -1.892585E+05  6.940086E+03 -6.175604E+04 -1.770278E+04
       178  21 -1.163037E+06 -2.450317E+05 -1.996113E+05 -3.792377E+04 -3.250124E+04 -1.478502E+04
       178  22 -1.987818E+05  1.080125E+05  1.404557E+05 -2.866772E+04 -9.560743E+04 -6.442454E+03
       178  23 -2.225941E+05 -2.369317E+04  5.978797E+04  4.724536E+03 -6.285009E+04 -1.770396E+04
       178  24 -1.988261E+05 -4.202753E+03  3.933893E+04 -2.819302E+04 -3.014752E+04 -1.477964E+04
       178  25  8.511676E+05  3.700172E+05  4.018449E+05 -4.284754E+04 -1.001591E+05 -6.458969E+03
       178  26  7.846403E+05  2.274530E+05  3.087591E+05  2.504656E+03 -6.394585E+04 -1.770514E+04
       178  27  7.662308E+05  2.365568E+05  2.782199E+05 -1.844750E+04 -2.779011E+04 -1.477419E+04
       179   1 -1.001349E+06 -1.831863E+05 -1.644739E+05 -2.734742E+04  2.338290E+04  1.169658E+04
       179   2 -9.619089E+05 -1.907346E+05 -1.703335E+05  5.947421E+03  1.575162E+04  1.188426E+04
       179   3 -9.132694E+05 -1.767872E+05 -1.652711E+05 -2.974708E+04  8.117614E+03  1.010991E+04
       179   4 -2.072353E+05  1.511125E+04  3.236847E+04 -2.894227E+04  2.368567E+04  1.169591E+04
       179   5 -2.118841E+05 -3.470633E+03  1.544437E+04  5.558456E+03  1.557491E+04  1.188328E+04
       179   6 -2.072589E+05 -4.864044E+02  9.765908E+03 -2.892487E+04  7.461955E+03  1.010964E+04
       179   7  5.874517E+05  2.133616E+05  2.291639E+05 -3.053933E+04  2.398882E+04  1.169525E+04
       179   8  5.386523E+05  1.837512E+05  2.011803E+05  5.168980E+03  1.539797E+04  1.188231E+04
       179   9  4.992048E+05  1.757770E+05  1.847657E+05 -2.810164E+04  6.805545E+03  1.010938E+04
       179  10 -1.001350E+06 -1.831866E+05 -1.644752E+05 -2.734764E+04 -1.667398E-09 -4.401470E-10
       179  11 -9.619092E+05 -1.907348E+05 -1.703342E+05  5.947270E+03 -3.732318E-10  3.166052E-10
       179  12 -9.132695E+05 -1.767873E+05 -1.652714E+05 -2.974714E+04 -2.201138E-10  3.999128E-10
       179  13 -2.072360E+05  1.511095E+04  3.236716E+04 -2.894250E+04 -1.033669E-09 -1.168982E-09
       179  14 -2.118844E+05 -3.470850E+03  1.544365E+04  5.558307E+03 -7.048300E-10  8.253449E-10
       179  15 -2.072590E+05 -4.865291E+02  9.765611E+03 -2.892493E+04 -1.769889E-09 -4.399022E-10
       179  16  5.874511E+05  2.133613E+05  2.291625E+05 -3.053955E+04 -5.042530E-10 -1.655493E-10
       179  17  5.386520E+05  1.837510E+05  2.011796E+05  5.168833E+03 -2.176842E-09 -1.504512E-12
       179  18  4.992047E+05  1.757769E+05  1.847654E+05 -2.810170E+04 -7.299631E-10 -1.704828E-10
       179  19 -1.001349E+06 -1.831863E+05 -1.644739E+05 -2.734742E+04 -2.338290E+04 -1.169658E+04
       179  20 -9.619089E+05 -1.907346E+05 -1.703335E+05  5.947421E+03 -1.575162E+04 -1.188426E+04
       179  21 -9.132694E+05 -1.767872E+05 -1.652711E+05 -2.974708E+04 -8.117614E+03 -1.010991E+04
       179  22 -2.072353E+05  1.511125E+04  3.236847E+04 -2.894227E+04 -2.368567E+04 -1.169591E+04
       179  23 -2.118841E+05 -3.470633E+03  1.544437E+04  5.558456E+03 -1.557491E+04 -1.188328E+04
       179  24 -2.072589E+05 -4.864044E+02  9.765908E+03 -2.892487E+04 -7.461955E+03 -1.010964E+04
       179  25  5.874517E+05  2.133616E+05  2.291639E+05 -3.053933E+04 -2.398882E+04 -1.169525E+04
       179  26  5.386523E+05  1.837512E+05  2.011803E+05  5.168980E+03 -1.539797E+04 -1.188231E+04
       179  27  4.992048E+05  1.757770E+05  1.847657E+05 -2.810164E+04 -6.805545E+03 -1.010938E+04
       180   1 -7.379223E+05 -1.300053E+05 -1.232560E+05 -2.868257E+04  6.154984E+03  8.882937E+03
       180   2 -6.934719E+05 -1.212876E+05 -1.158424E+05  6.821050E+03  4.188749E+03  7.520795E+03
       180   3 -6.471046E+05 -1.093344E+05 -1.061669E+05 -2.878169E+04  2.219187E+03  5.865958E+03
       180   4 -2.088182E+05  2.067092E+03  7.703734E+03 -2.939833E+04  5.866226E+03  8.882781E+03
       180   5 -2.097890E+05 -5.370599E+02  3.965683E+03  6.152024E+03  3.828248E+03  7.521041E+03
       180   6 -2.088327E+05  1.058303E+02  2.538266E+03 -2.940052E+04  1.787086E+03  5.866713E+03
       180   7  3.205404E+05  1.341186E+05  1.386427E+05 -3.011463E+04  5.577222E+03  8.882626E+03
       180   8  2.741065E+05  1.201959E+05  1.237563E+05  5.482566E+03  3.467465E+03  7.521288E+03
       180   9  2.296137E+05  1.095317E+05  1.112291E+05 -3.001969E+04  1.354680E+03  5.867469E+03
       180  10 -7.379223E+05 -1.300054E+05 -1.232562E+05 -2.868261E+04 -1.626399E-09 -3.780383E-10
       180  11 -6.934719E+05 -1.212876E+05 -1.158425E+05  6.821024E+03 -8.566837E-10 -1.444874E-11
       180  12 -6.471046E+05 -1.093345E+05 -1.061669E+05 -2.878170E+04 -1.351737E-09 -7.534855E-10
       180  13 -2.088183E+05  2.066999E+03  7.703521E+03 -2.939837E+04 -2.158231E-09 -5.063044E-10
       180  14 -2.097891E+05 -5.371246E+02  3.965549E+03  6.152001E+03 -1.644911E-09  6.398865E-10
       180  15 -2.088328E+05  1.057925E+02  2.538195E+03 -2.940053E+04 -3.243512E-09  2.017814E-09
       180  16  3.205403E+05  1.341185E+05  1.386424E+05 -3.011467E+04  1.060779E-09 -6.473746E-10
       180  17  2.741065E+05  1.201959E+05  1.237562E+05  5.482545E+03  7.674433E-10 -1.071421E-09
       180  18  2.296137E+05  1.095316E+05  1.112290E+05 -3.001969E+04  1.049957E-10  5.312874E-11
       180  19 -7.379223E+05 -1.300053E+05 -1.232560E+05 -2.868257E+04 -6.154984E+03 -8.882937E+03
       180  20 -6.934719E+05 -1.212876E+05 -1.158424E+05  6.821050E+03 -4.188749E+03 -7.520795E+03
       180  21 -6.471046E+05 -1.093344E+05 -1.061669E+05 -2.878169E+04 -2.219187E+03 -5.865958E+03
       180  22 -2.088182E+05  2.067092E+03  7.703734E+03 -2.939833E+04 -5.866226E+03 -8.882781E+03
       180  23 -2.097890E+05 -5.370599E+02  3.965683E+03  6.152024E+03 -3.828248E+03 -7.521041E+03
       180  24 -2.088327E+05  1.058303E+02  2.538266E+03 -2.940052E+04 -1.787086E+03 -5.866713E+03
       180  25  3.205404E+05  1.341186E+05  1.386427E+05 -3.011463E+04 -5.577222E+03 -8.882626E+03
       180  26  2.741065E+05  1.201959E+05  1.237563E+05  5.482566E+03 -3.467465E+03 -7.521288E+03
       180  27  2.296137E+05  1.095317E+05  1.112291E+05 -3.001969E+04 -1.354680E+03 -5.867469E+03
       181   1 -4.663144E+05 -6.378418E+04 -6.155643E+04 -2.914247E+04  1.747487E+03  4.870844E+03
       181   2 -4.201135E+05 -5.274693E+04 -5.099804E+04  6.933752E+03  1.134453E+03  3.267591E+03
       181   3 -3.739270E+05 -4.091743E+04 -3.990365E+04 -2.929638E+04  5.200073E+02  1.618095E+03
       181   4 -2.092220E+05  3.632426E+02  1.980092E+03 -2.966646E+04  1.368437E+03  4.871705E+03
       181   5 -2.092182E+05 -1.047814E+02  1.233962E+03  6.485788E+03  7.440756E+02  3.268632E+03
       181   6 -2.092283E+05  2.216658E+02  1.031853E+03 -2.966679E+04  1.183484E+02  1.619329E+03
       181   7  4.793060E+04  6.450572E+04  6.551171E+04 -3.019063E+04  9.892305E+02  4.872566E+03
       181   8  1.717469E+03  5.253403E+04  5.346265E+04  6.037700E+03  3.535660E+02  3.269672E+03
       181   9 -4.450490E+04  4.135873E+04  4.196533E+04 -3.003727E+04 -2.834170E+02  1.620564E+03
       181  10 -4.663144E+05 -6.378420E+04 -6.155648E+04 -2.914248E+04 -1.603421E-09  6.191438E-10
       181  11 -4.201135E+05 -5.274694E+04 -5.099806E+04  6.933749E+03 -2.441202E-09  6.456078E-11
       181  12 -3.739270E+05 -4.091743E+04 -3.990366E+04 -2.929638E+04  6.788037E-10 -1.151114E-09
       181  13 -2.092220E+05  3.632166E+02  1.980044E+03 -2.966646E+04 -1.110294E-09 -1.285332E-09
       181  14 -2.092182E+05 -1.047931E+02  1.233940E+03  6.485786E+03  4.023322E-09  4.449444E-10
       181  15 -2.092283E+05  2.216630E+02  1.031848E+03 -2.966679E+04  1.226279E-09 -2.518739E-09
       181  16  4.793059E+04  6.450570E+04  6.551167E+04 -3.019063E+04  5.708121E-10  1.162195E-09
       181  17  1.717466E+03  5.253402E+04  5.346263E+04  6.037699E+03  1.060297E-09 -7.289849E-10
       181  18 -4.450490E+04  4.135872E+04  4.196533E+04 -3.003727E+04  1.411438E-09 -3.894163E-09
       181  19 -4.663144E+05 -6.378418E+04 -6.155643E+04 -2.914247E+04 -1.747487E+03 -4.870844E+03
       181  20 -4.201135E+05 -5.274693E+04 -5.099804E+04  6.933752E+03 -1.134453E+03 -3.267591E+03
       181  21 -3.739270E+05 -4.091743E+04 -3.990365E+04 -2.929638E+04 -5.200073E+02 -1.618095E+03
       181  22 -2.092220E+05  3.632426E+02  1.980092E+03 -2.966646E+04 -1.368437E+03 -4.871705E+03
       181  23 -2.092182E+05 -1.047814E+02  1.233962E+03  6.485788E+03 -7.440756E+02 -3.268632E+03
       181  24 -2.092283E+05  2.216658E+02  1.031853E+03 -2.966679E+04 -1.183484E+02 -1.619329E+03
       181  25  4.793060E+04  6.450572E+04  6.551171E+04 -3.019063E+04 -9.892305E+02 -4.872566E+03
       181  26  1.717469E+03  5.253403E+04  5.346265E+04  6.037700E+03 -3.535660E+02 -3.269672E+03
       181  27 -4.450490E+04  4.135873E+04  4.196533E+04 -3.003727E+04  2.834170E+02 -1.620564E+03
       182   1 -1.909029E+05  4.812133E+03  5.705604E+03 -2.974860E+04  3.282553E+02  6.433362E+02
       182   2 -1.444078E+05  1.606019E+04  1.724445E+04  6.404831E+03 -2.918383E+02 -1.005231E+03
       182   3 -9.816450E+04  2.811711E+04  2.927808E+04 -3.000090E+04 -9.115087E+02 -2.622797E+03
       182   4 -2.092731E+05  1.983998E+02  1.011344E+03 -2.972354E+04 -7.149664E+01  6.446142E+02
       182   5 -2.091443E+05 -9.619744E+01  1.214315E+03  6.556600E+03 -6.841180E+02 -1.004028E+03
       182   6 -2.092711E+05  4.167807E+02  1.906887E+03 -2.972289E+04 -1.296270E+03 -2.621661E+03
       182   7 -2.276430E+05 -4.415359E+03 -3.682941E+03 -2.969848E+04 -4.712367E+02  6.458922E+02
       182   8 -2.738769E+05 -1.625290E+04 -1.481614E+04  6.708357E+03 -1.076357E+03 -1.002826E+03
       182   9 -3.203665E+05 -2.728446E+04 -2.546522E+04 -2.944491E+04 -1.680963E+03 -2.620525E+03
       182  10 -1.909029E+05  4.812132E+03  5.705603E+03 -2.974860E+04 -1.517320E-09  1.456104E-09
       182  11 -1.444078E+05  1.606019E+04  1.724445E+04  6.404830E+03 -9.129163E-10  5.015033E-09
       182  12 -9.816451E+04  2.811710E+04  2.927806E+04 -3.000090E+04  3.749076E-10 -2.804212E-09
       182  13 -2.092731E+05  1.983993E+02  1.011343E+03 -2.972354E+04  2.146038E-09 -3.874546E-10
       182  14 -2.091443E+05 -9.619865E+01  1.214312E+03  6.556600E+03  1.302390E-09 -9.416349E-10
       182  15 -2.092711E+05  4.167729E+02  1.906871E+03 -2.972289E+04  5.422313E-11 -1.431210E-12
       182  16 -2.276430E+05 -4.415360E+03 -3.682942E+03 -2.969848E+04  2.626505E-09 -6.396187E-10
       182  17 -2.738769E+05 -1.625290E+04 -1.481614E+04  6.708356E+03 -1.332247E-10  2.651347E-10
       182  18 -3.203665E+05 -2.728447E+04 -2.546524E+04 -2.944492E+04 -1.116799E-09 -3.501042E-10
       182  19 -1.909029E+05  4.812133E+03  5.705604E+03 -2.974860E+04 -3.282553E+02 -6.433362E+02
       182  20 -1.444078E+05  1.606019E+04  1.724445E+04  6.404831E+03  2.918383E+02  1.005231E+03
       182  21 -9.816450E+04  2.811711E+04  2.927808E+04 -3.000090E+04  9.115087E+02  2.622797E+03
       182  22 -2.092731E+05  1.983998E+02  1.011344E+03 -2.972354E+04  7.149664E+01 -6.446142E+02
       182  23 -2.091443E+05 -9.619744E+01  1.214315E+03  6.556600E+03  6.841180E+02  1.004028E+03
       182  24 -2.092711E+05  4.167807E+02  1.906887E+03 -2.972289E+04  1.296270E+03  2.621661E+03
       182  25 -2.276430E+05 -4.415359E+03 -3.682941E+03 -2.969848E+04  4.712367E+02 -6.458922E+02
       182  26 -2.738769E+05 -1.625290E+04 -1.481614E+04  6.708357E+03  1.076357E+03  1.002826E+03
       182  27 -3.203665E+05 -2.728446E+04 -2.546522E+04 -2.944491E+04  1.680963E+03  2.620525E+03
       183   1  8.468102E+04  7.343213E+04  7.526467E+04 -3.004616E+04 -1.263199E+03 -3.619727E+03
       183   2  1.300183E+05  8.423667E+04  8.790790E+04  5.695672E+03 -3.291051E+03 -5.281192E+03
       183   3  1.765571E+05  9.825020E+04  1.026977E+05 -3.041729E+04 -5.316527E+03 -6.690218E+03
       183   4 -2.089747E+05  1.263162E+02  2.412770E+03 -2.956867E+04 -1.693082E+03 -3.618596E+03
       183   5 -2.095642E+05 -4.981527E+02  3.836112E+03  6.361927E+03 -3.659392E+03 -5.280482E+03
       183   6 -2.089642E+05  2.076634E+03  7.364225E+03 -2.956471E+04 -5.623177E+03 -6.689863E+03
       183   7 -5.025520E+05 -7.318596E+04 -7.044557E+04 -2.909134E+04 -2.122761E+03 -3.617465E+03
       183   8 -5.490419E+05 -8.524160E+04 -8.024426E+04  7.027880E+03 -4.027531E+03 -5.279773E+03
       183   9 -5.943506E+05 -9.410804E+04 -8.798027E+04 -2.871259E+04 -5.929637E+03 -6.689509E+03
       183  10  8.468102E+04  7.343212E+04  7.526464E+04 -3.004616E+04 -1.174419E-09 -3.335031E-09
       183  11  1.300183E+05  8.423664E+04  8.790783E+04  5.695658E+03  5.188723E-10  6.690325E-10
       183  12  1.765571E+05  9.825014E+04  1.026975E+05 -3.041732E+04 -1.384987E-09  3.246226E-10
       183  13 -2.089747E+05  1.263014E+02  2.412740E+03 -2.956867E+04  3.595748E-11 -4.493240E-10
       183  14 -2.095642E+05 -4.981862E+02  3.836034E+03  6.361911E+03  6.517573E-11 -4.383971E-10
       183  15 -2.089643E+05  2.076578E+03  7.364082E+03 -2.956474E+04 -9.286558E-10 -1.202600E-09
       183  16 -5.025521E+05 -7.318598E+04 -7.044560E+04 -2.909135E+04  1.268934E-09 -4.841121E-10
       183  17 -5.490419E+05 -8.524164E+04 -8.024434E+04  7.027863E+03  8.803668E-10  2.797779E-09
       183  18 -5.943506E+05 -9.410810E+04 -8.798042E+04 -2.871262E+04  1.098924E-09 -8.590630E-10
       183  19  8.468102E+04  7.343213E+04  7.526467E+04 -3.004616E+04  1.263199E+03  3.619727E+03
       183  20  1.300183E+05  8.423667E+04  8.790790E+04  5.695672E+03  3.291051E+03  5.281192E+03
       183  21  1.765571E+05  9.825020E+04  1.026977E+05 -3.041729E+04  5.316527E+03  6.690218E+03
       183  22 -2.089747E+05  1.263162E+02  2.412770E+03 -2.956867E+04  1.693082E+03  3.618596E+03
       183  23 -2.095642E+05 -4.981527E+02  3.836112E+03  6.361927E+03  3.659392E+03  5.280482E+03
       183  24 -2.089642E+05  2.076634E+03  7.364225E+03 -2.956471E+04  5.623177E+03  6.689863E+03
       183  25 -5.025520E+05 -7.318596E+04 -7.044557E+04 -2.909134E+04  2.122761E+03  3.617465E+03
       183  26 -5.490419E+05 -8.524160E+04 -8.024426E+04  7.027880E+03  4.027531E+03  5.279773E+03
       183  27 -5.943506E+05 -9.410804E+04 -8.798027E+04 -2.871259E+04  5.929637E+03  6.689509E+03
       184   1  3.576126E+05  1.406166E+05  1.493519E+05 -2.876811E+04 -6.510330E+03 -7.894679E+03
       184   2  3.985469E+05  1.488877E+05  1.658146E+05  4.967960E+03 -1.471722E+04 -9.660169E+03
       184   3  4.474341E+05  1.779834E+05  1.931609E+05 -3.150629E+04 -2.292071E+04 -9.695367E+03
       184   4 -2.075339E+05 -4.039469E+02  9.317415E+03 -2.920475E+04 -7.140540E+03 -7.894065E+03
       184   5 -2.114659E+05 -3.294616E+03  1.484386E+04  5.904136E+03 -1.492512E+04 -9.660601E+03
       184   6 -2.075141E+05  1.457676E+04  3.096836E+04 -2.920151E+04 -2.270572E+04 -9.696127E+03
       184   7 -7.723904E+05 -1.414484E+05 -1.307408E+05 -2.964087E+04 -7.770175E+03 -7.893450E+03
       184   8 -8.211408E+05 -1.555048E+05 -1.361545E+05  6.839464E+03 -1.513282E+04 -9.661034E+03
       184   9 -8.620726E+05 -1.488620E+05 -1.312562E+05 -2.689915E+04 -2.249095E+04 -9.696887E+03
       184  10  3.576126E+05  1.406165E+05  1.493517E+05 -2.876815E+04  3.700458E-10  7.590571E-10
       184  11  3.985466E+05  1.488875E+05  1.658140E+05  4.967846E+03 -1.393785E-10 -1.351711E-09
       184  12  4.474335E+05  1.779832E+05  1.931598E+05 -3.150647E+04  4.361001E-10 -3.741622E-10
       184  13 -2.075339E+05 -4.040275E+02  9.317202E+03 -2.920480E+04 -1.085411E-09  4.804254E-10
       184  14 -2.114662E+05 -3.294776E+03  1.484326E+04  5.904019E+03  1.919673E-09  7.091854E-10
       184  15 -2.075146E+05  1.457653E+04  3.096721E+04 -2.920169E+04  3.964383E-10 -6.274669E-10
       184  16 -7.723904E+05 -1.414485E+05 -1.307411E+05 -2.964092E+04 -4.975364E-10 -4.206669E-10
       184  17 -8.211410E+05 -1.555049E+05 -1.361551E+05  6.839346E+03 -1.167546E-10 -3.300522E-10
       184  18 -8.620732E+05 -1.488622E+05 -1.312573E+05 -2.689932E+04  6.640154E-10 -3.370189E-10
       184  19  3.576126E+05  1.406166E+05  1.493519E+05 -2.876811E+04  6.510330E+03  7.894679E+03
       184  20  3.985469E+05  1.488877E+05  1.658146E+05  4.967960E+03  1.471722E+04  9.660169E+03
       184  21  4.474341E+05  1.779834E+05  1.931609E+05 -3.150629E+04  2.292071E+04  9.695367E+03
       184  22 -2.075339E+05 -4.039469E+02  9.317415E+03 -2.920475E+04  7.140540E+03  7.894065E+03
       184  23 -2.114659E+05 -3.294616E+03  1.484386E+04  5.904136E+03  1.492512E+04  9.660601E+03
       184  24 -2.075141E+05  1.457676E+04  3.096836E+04 -2.920151E+04  2.270572E+04  9.696127E+03
       184  25 -7.723904E+05 -1.414484E+05 -1.307408E+05 -2.964087E+04  7.770175E+03  7.893450E+03
       184  26 -8.211408E+05 -1.555048E+05 -1.361545E+05  6.839464E+03  1.513282E+04  9.661034E+03
       184  27 -8.620726E+05 -1.488620E+05 -1.312562E+05 -2.689915E+04  2.249095E+04  9.696887E+03
       185   1  6.296139E+05  2.029107E+05  2.428956E+05 -2.029280E+04 -2.674513E+04 -1.253524E+04
       185   2  6.507252E+05  1.949094E+05  2.729777E+05  1.786317E+03 -6.113590E+04 -1.528872E+04
       185   3  7.166087E+05  3.321342E+05  3.625449E+05 -4.397354E+04 -9.555560E+04 -5.506159E+03
       185   4 -1.995118E+05 -3.930286E+03  3.763056E+04 -2.860119E+04 -2.888096E+04 -1.253682E+04
       185   5 -2.216395E+05 -2.263269E+04  5.733017E+04  5.188279E+03 -6.022145E+04 -1.528911E+04
       185   6 -1.994727E+05  1.034678E+05  1.344549E+05 -2.886587E+04 -9.158823E+04 -5.498923E+03
       185   7 -1.028013E+06 -2.108225E+05 -1.676856E+05 -3.689854E+04 -3.101393E+04 -1.253833E+04
       185   8 -1.093313E+06 -2.402316E+05 -1.583739E+05  8.585192E+03 -5.930823E+04 -1.528949E+04
       185   9 -1.114793E+06 -1.252608E+05 -9.369794E+04 -1.378095E+04 -8.762664E+04 -5.491489E+03
       185  10  6.296131E+05  2.029104E+05  2.428940E+05 -2.029307E+04 -5.180463E-10  4.225273E-10
       185  11  6.507211E+05  1.949082E+05  2.729703E+05  1.785565E+03  2.609833E-09 -5.233967E-10
       185  12  7.165989E+05  3.321317E+05  3.625277E+05 -4.397396E+04  1.667466E-09 -7.088030E-10
       185  13 -1.995128E+05 -3.930679E+03  3.762869E+04 -2.860148E+04 -1.384338E-10 -2.092816E-10
       185  14 -2.216435E+05 -2.263391E+04  5.732291E+04  5.187537E+03  1.067753E-09  2.256735E-09
       185  15 -1.994817E+05  1.034655E+05  1.344390E+05 -2.886627E+04 -1.502806E-09  8.888055E-11
       185  16 -1.028014E+06 -2.108229E+05 -1.676877E+05 -3.689885E+04 -6.610149E-10  3.709565E-10
       185  17 -1.093317E+06 -2.402328E+05 -1.583810E+05  8.584462E+03 -2.409772E-09  1.086015E-09
       185  18 -1.114801E+06 -1.252629E+05 -9.371246E+04 -1.378134E+04 -1.135613E-13 -7.951488E-10
       185  19  6.296139E+05  2.029107E+05  2.428956E+05 -2.029280E+04  2.674513E+04  1.253524E+04
       185  20  6.507252E+05  1.949094E+05  2.729777E+05  1.786317E+03  6.113590E+04  1.528872E+04
       185  21  7.166087E+05  3.321342E+05  3.625449E+05 -4.397354E+04  9.555560E+04  5.506159E+03
       185  22 -1.995118E+05 -3.930286E+03  3.763056E+04 -2.860119E+04  2.888096E+04  1.253682E+04
       185  23 -2.216395E+05 -2.263269E+04  5.733017E+04  5.188279E+03  6.022145E+04  1.528911E+04
       185  24 -1.994727E+05  1.034678E+05  1.344549E+05 -2.886587E+04  9.158823E+04  5.498923E+03
       185  25 -1.028013E+06 -2.108225E+05 -1.676856E+05 -3.689854E+04  3.101393E+04  1.253833E+04
       185  26 -1.093313E+06 -2.402316E+05 -1.583739E+05  8.585192E+03  5.930823E+04  1.528949E+04
       185  27 -1.114793E+06 -1.252608E+05 -9.369794E+04 -1.378095E+04  8.762664E+04  5.491489E+03
       186   1  3.185023E+05  8.684467E+05  3.796567E+05 -1.116980E+05  1.670059E+03  1.803646E+05
       186   2  3.795077E+04  7.142503E+05  2.008322E+05  2.177137E+03  5.636278E+03  1.138813E+05
       186   3  5.035151E+04  6.400388E+05  1.381216E+05 -6.170457E+04  1.452916E+03  4.736221E+04
       186   4  2.063046E+05  4.207390E+05  2.681432E+05 -7.611427E+04  1.689851E+03  1.784388E+05
       186   5 -4.526973E+04  3.808967E+05  1.185023E+05  1.222833E+04  5.637679E+03  1.139551E+05
       186   6 -4.149930E+03  4.207404E+05  8.364946E+04 -7.718596E+04  1.439428E+03  4.942338E+04
       186   7  9.409648E+04 -2.678446E+04  1.566153E+05 -4.055599E+04  1.709431E+03  1.765142E+05
       186   8 -1.284982E+05  4.764412E+04  3.616416E+04  2.227426E+04  5.639084E+03  1.140288E+05
       186   9 -5.865402E+04  2.014861E+05  2.917384E+04 -9.266182E+04  1.425834E+03  5.148381E+04
       186  10  3.184936E+05  8.684118E+05  3.795956E+05 -1.116982E+05  1.127094E-10  1.582854E-09
       186  11  3.794726E+04  7.142364E+05  2.008078E+05  2.176621E+03 -1.621305E-10 -3.564394E-09
       186  12  5.035091E+04  6.400364E+05  1.381174E+05 -6.170462E+04 -1.137851E-09 -4.234129E-09
       186  13  2.062961E+05  4.207049E+05  2.680834E+05 -7.611451E+04  5.233591E-09 -1.387114E-09
       186  14 -4.527325E+04  3.808827E+05  1.184778E+05  1.222781E+04  8.385342E-10 -6.895468E-11
       186  15 -4.150588E+03  4.207377E+05  8.364487E+04 -7.718602E+04  9.535260E-10  1.037490E-09
       186  16  9.408812E+04 -2.681792E+04  1.565567E+05 -4.055623E+04  1.056371E-09 -1.552665E-09
       186  17 -1.285017E+05  4.763015E+04  3.613967E+04  2.227374E+04  7.033738E-09 -1.551309E-09
       186  18 -5.865474E+04  2.014832E+05  2.916886E+04 -9.266188E+04 -1.035470E-09  3.049964E-09
       186  19  3.185023E+05  8.684467E+05  3.796567E+05 -1.116980E+05 -1.670059E+03 -1.803646E+05
       186  20  3.795077E+04  7.142503E+05  2.008322E+05  2.177137E+03 -5.636278E+03 -1.138813E+05
       186  21  5.035151E+04  6.400388E+05  1.381216E+05 -6.170457E+04 -1.452916E+03 -4.736221E+04
       186  22  2.063046E+05  4.207390E+05  2.681432E+05 -7.611427E+04 -1.689851E+03 -1.784388E+05
       186  23 -4.526973E+04  3.808967E+05  1.185023E+05  1.222833E+04 -5.637679E+03 -1.139551E+05
       186  24 -4.149930E+03  4.207404E+05  8.364946E+04 -7.718596E+04 -1.439428E+03 -4.942338E+04
       186  25  9.409648E+04 -2.678446E+04  1.566153E+05 -4.055599E+04 -1.709431E+03 -1.765142E+05
       186  26 -1.284982E+05  4.764412E+04  3.616416E+04  2.227426E+04 -5.639084E+03 -1.140288E+05
       186  27 -5.865402E+04  2.014861E+05  2.917384E+04 -9.266182E+04 -1.425834E+03 -5.148381E+04
       187   1 -2.810047E+04  1.763979E+05  1.596560E+04 -8.198324E+04 -2.480522E+03  3.440211E+04
       187   2 -9.690887E+04  5.258183E+04 -3.609796E+04  1.337506E+04 -5.543512E+03  8.893221E+03
       187   3 -9.535916E+04 -5.214641E+04 -5.434636E+04 -6.985156E+04 -7.472188E+03 -1.660101E+04
       187   4  2.944527E+04  4.072708E+05  7.329239E+04 -7.692063E+04 -2.485596E+03  3.532063E+04
       187   5 -1.080950E+04  3.977264E+05  4.930873E+04  1.233124E+04 -5.546778E+03  9.529651E+03
       187   6  1.932406E+04  4.072977E+05  5.932674E+04 -7.699456E+04 -7.473467E+03 -1.625133E+04
       187   7  8.698712E+04  6.381920E+05  1.306152E+05 -7.185606E+04 -2.490653E+03  3.623949E+04
       187   8  7.528096E+04  7.429791E+05  1.347066E+05  1.128699E+04 -5.550044E+03  1.016643E+04
       187   9  1.339917E+05  8.669337E+05  1.729842E+05 -8.414259E+04 -7.474753E+03 -1.590138E+04
       187  10 -2.810079E+04  1.763967E+05  1.596337E+04 -8.198317E+04 -3.893853E-09 -1.398522E-10
       187  11 -9.690892E+04  5.258174E+04 -3.609817E+04  1.337510E+04 -1.928545E-09 -2.487794E-09
       187  12 -9.535930E+04 -5.214672E+04 -5.434699E+04 -6.985166E+04  2.077642E-10 -1.438793E-09
       187  13  2.944493E+04  4.072694E+05  7.329003E+04 -7.692056E+04 -2.603456E-09 -1.603990E-09
       187  14 -1.080956E+04  3.977263E+05  4.930850E+04  1.233128E+04  1.053743E-09  8.661072E-11
       187  15  1.932393E+04  4.072974E+05  5.932614E+04 -7.699465E+04 -2.437055E-09  1.122715E-09
       187  16  8.698676E+04  6.381906E+05  1.306127E+05 -7.185599E+04 -1.190558E-09  1.660639E-12
       187  17  7.528090E+04  7.429790E+05  1.347063E+05  1.128703E+04 -1.346489E-09 -2.515962E-09
       187  18  1.339915E+05  8.669334E+05  1.729836E+05 -8.414268E+04 -1.514015E-09  6.592193E-10
       187  19 -2.810047E+04  1.763979E+05  1.596560E+04 -8.198324E+04  2.480522E+03 -3.440211E+04
       187  20 -9.690887E+04  5.258183E+04 -3.609796E+04  1.337506E+04  5.543512E+03 -8.893221E+03
       187  21 -9.535916E+04 -5.214641E+04 -5.434636E+04 -6.985156E+04  7.472188E+03  1.660101E+04
       187  22  2.944527E+04  4.072708E+05  7.329239E+04 -7.692063E+04  2.485596E+03 -3.532063E+04
       187  23 -1.080950E+04  3.977264E+05  4.930873E+04  1.233124E+04  5.546778E+03 -9.529651E+03
       187  24  1.932406E+04  4.072977E+05  5.932674E+04 -7.699456E+04  7.473467E+03  1.625133E+04
       187  25  8.698712E+04  6.381920E+05  1.306152E+05 -7.185606E+04  2.490653E+03 -3.623949E+04
       187  26  7.528096E+04  7.429791E+05  1.347066E+05  1.128699E+04  5.550044E+03 -1.016643E+04
       187  27  1.339917E+05  8.669337E+05  1.729842E+05 -8.414259E+04  7.474753E+03  1.590138E+04
       188   1 -2.285599E+05 -4.986551E+05 -1.621354E+05 -8.646456E+04 -1.262963E+04 -3.079338E+04
       188   2 -2.892288E+05 -6.459272E+05 -1.715739E+05  2.191359E+04 -1.805656E+04 -7.218563E+04
       188   3 -1.469321E+05 -7.332249E+05 -1.025267E+05 -5.288787E+04 -6.402343E+03 -1.135185E+05
       188   4 -3.098960E+02  4.163095E+05  6.460267E+04 -7.813385E+04 -1.264441E+04 -2.742913E+04
       188   5 -3.169716E+04  3.860430E+05  8.361436E+04  1.358769E+04 -1.805139E+04 -7.298366E+04
       188   6  1.404263E+05  4.163646E+05  1.839058E+05 -7.784904E+04 -6.387475E+03 -1.184868E+05
       188   7  2.278778E+05  1.332035E+06  2.912785E+05 -6.978993E+04 -1.265910E+04 -2.405989E+04
       188   8  2.257551E+05  1.418981E+06  3.387236E+05  5.248697E+03 -1.804621E+04 -7.378293E+04
       188   9  4.276874E+05  1.567154E+06  4.702395E+05 -1.028558E+05 -6.372225E+03 -1.234642E+05
       188  10 -2.285603E+05 -4.986561E+05 -1.621374E+05 -8.646487E+04 -1.464408E-09 -8.707420E-10
       188  11 -2.892306E+05 -6.459329E+05 -1.715843E+05  2.191254E+04  1.759309E-09 -2.138494E-09
       188  12 -1.469356E+05 -7.332388E+05 -1.025510E+05 -5.288846E+04  2.379069E-10 -5.599734E-10
       188  13 -3.102695E+02  4.163086E+05  6.460096E+04 -7.813413E+04  3.856981E-10 -1.013233E-09
       188  14 -3.169894E+04  3.860372E+05  8.360374E+04  1.358663E+04  2.262653E-09  9.853461E-11
       188  15  1.404224E+05  4.163495E+05  1.838794E+05 -7.784965E+04  1.092828E-09  4.241575E-10
       188  16  2.278774E+05  1.332034E+06  2.912771E+05 -6.979017E+04 -3.119022E-09  1.211144E-09
       188  17  2.257533E+05  1.418975E+06  3.387127E+05  5.247626E+03  2.032614E-09 -8.497454E-10
       188  18  4.276833E+05  1.567138E+06  4.702108E+05 -1.028565E+05  1.263550E-09  2.700382E-11
       188  19 -2.285599E+05 -4.986551E+05 -1.621354E+05 -8.646456E+04  1.262963E+04  3.079338E+04
       188  20 -2.892288E+05 -6.459272E+05 -1.715739E+05  2.191359E+04  1.805656E+04  7.218563E+04
       188  21 -1.469321E+05 -7.332249E+05 -1.025267E+05 -5.288787E+04  6.402343E+03  1.135185E+05
       188  22 -3.098960E+02  4.163095E+05  6.460267E+04 -7.813385E+04  1.264441E+04  2.742913E+04
       188  23 -3.169716E+04  3.860430E+05  8.361436E+04  1.358769E+04  1.805139E+04  7.298366E+04
       188  24  1.404263E+05  4.163646E+05  1.839058E+05 -7.784904E+04  6.387475E+03  1.184868E+05
       188  25  2.278778E+05  1.332035E+06  2.912785E+05 -6.978993E+04  1.265910E+04  2.405989E+04
       188  26  2.257551E+05  1.418981E+06  3.387236E+05  5.248697E+03  1.804621E+04  7.378293E+04
       188  27  4.276874E+05  1.567154E+06  4.702395E+05 -1.028558E+05  6.372225E+03  1.234642E+05
       189   1 -5.643578E+06 -1.799277E+06 -1.190711E+06 -1.929821E+06 -5.732244E+05 -2.064214E+05
       189   2 -5.495252E+06 -9.708336E+05 -6.611777E+05 -2.062101E+06 -3.730240E+05 -1.071592E+05
       189   3 -5.681431E+06 -9.950273E+05 -5.183813E+05 -1.984172E+06 -1.644167E+05 -3.002651E+04
       189   4 -4.642729E+06 -1.267711E+06 -8.850805E+05 -1.503638E+06 -5.627057E+05 -2.025965E+05
       189   5 -4.429964E+06 -5.253719E+05 -3.650977E+05 -1.728811E+06 -3.701180E+05 -1.060919E+05
       189   6 -4.549654E+06 -6.333110E+05 -2.252906E+05 -1.743940E+06 -1.691092E+05 -3.178212E+04
       189   7 -3.640845E+06 -7.357615E+05 -5.795483E+05 -1.076733E+06 -5.521675E+05 -1.987575E+05
       189   8 -3.363568E+06 -7.977241E+04 -6.912443E+04 -1.394975E+06 -3.672059E+05 -1.050218E+05
       189   9 -3.416634E+06 -2.716004E+05  6.769730E+04 -1.503350E+06 -1.738109E+05 -3.353997E+04
       189  10 -5.643945E+06 -1.799412E+06 -1.191416E+06 -1.929917E+06  5.229076E-10 -9.007745E-11
       189  11 -5.495406E+06 -9.708839E+05 -6.614637E+05 -2.062134E+06  4.725901E-10 -8.005623E-10
       189  12 -5.681461E+06 -9.950356E+05 -5.184343E+05 -1.984176E+06  1.010704E-09 -1.464255E-09
       189  13 -4.643082E+06 -1.267842E+06 -8.857583E+05 -1.503730E+06  3.038366E-09 -2.112245E-09
       189  14 -4.430115E+06 -5.254212E+05 -3.653786E+05 -1.728843E+06  4.936640E-09 -2.428125E-09
       189  15 -4.549686E+06 -6.333198E+05 -2.253467E+05 -1.743945E+06  2.033674E-09 -7.789590E-10
       189  16 -3.641185E+06 -7.358866E+05 -5.801996E+05 -1.076822E+06 -9.941810E-10 -5.441735E-10
       189  17 -3.363716E+06 -7.982082E+04 -6.940031E+04 -1.395006E+06  1.982578E-09 -8.431303E-11
       189  18 -3.416667E+06 -2.716098E+05  6.763804E+04 -1.503355E+06 -1.461363E-09  9.549873E-10
       189  19 -5.643578E+06 -1.799277E+06 -1.190711E+06 -1.929821E+06  5.732244E+05  2.064214E+05
       189  20 -5.495252E+06 -9.708336E+05 -6.611777E+05 -2.062101E+06  3.730240E+05  1.071592E+05
       189  21 -5.681431E+06 -9.950273E+05 -5.183813E+05 -1.984172E+06  1.644167E+05  3.002651E+04
       189  22 -4.642729E+06 -1.267711E+06 -8.850805E+05 -1.503638E+06  5.627057E+05  2.025965E+05
       189  23 -4.429964E+06 -5.253719E+05 -3.650977E+05 -1.728811E+06  3.701180E+05  1.060919E+05
       189  24 -4.549654E+06 -6.333110E+05 -2.252906E+05 -1.743940E+06  1.691092E+05  3.178212E+04
       189  25 -3.640845E+06 -7.357615E+05 -5.795483E+05 -1.076733E+06  5.521675E+05  1.987575E+05
       189  26 -3.363568E+06 -7.977241E+04 -6.912443E+04 -1.394975E+06  3.672059E+05  1.050218E+05
       189  27 -3.416634E+06 -2.716004E+05  6.769730E+04 -1.503350E+06  1.738109E+05  3.353997E+04
       190   1 -5.515624E+06 -1.134814E+06 -4.593167E+05 -1.986823E+06 -1.354670E+05 -2.345313E+04
       190   2 -5.466329E+06 -9.922069E+05 -3.467147E+05 -1.968469E+06 -8.951450E+04 -5.478077E+03
       190   3 -5.422741E+06 -9.954591E+05 -2.975685E+05 -1.966538E+06 -4.240653E+04  9.432127E+03
       190   4 -4.514798E+06 -7.376118E+05 -1.844520E+05 -1.695549E+06 -1.348687E+05 -2.323532E+04
       190   5 -4.506211E+06 -6.244619E+05 -8.610335E+04 -1.702490E+06 -8.993867E+04 -5.641509E+03
       190   6 -4.503061E+06 -6.568571E+05 -5.031433E+04 -1.725866E+06 -4.385749E+04  8.885850E+03
       190   7 -3.512997E+06 -3.403227E+05  9.032100E+04 -1.403837E+06 -1.342691E+05 -2.301698E+04
       190   8 -3.545199E+06 -2.566562E+05  1.744251E+05 -1.436134E+06 -9.036348E+04 -5.805182E+03
       190   9 -3.582563E+06 -3.182167E+05  1.968651E+05 -1.484875E+06 -4.531080E+04  8.338747E+03
       190  10 -5.515644E+06 -1.134820E+06 -4.593526E+05 -1.986826E+06 -1.215709E-10 -1.845498E-10
       190  11 -5.466338E+06 -9.922091E+05 -3.467299E+05 -1.968469E+06  8.203024E-10 -6.545206E-12
       190  12 -5.422743E+06 -9.954597E+05 -2.975721E+05 -1.966537E+06 -1.140771E-09 -8.798782E-10
       190  13 -4.514818E+06 -7.376173E+05 -1.844875E+05 -1.695551E+06 -1.074693E-09 -3.218847E-11
       190  14 -4.506220E+06 -6.244642E+05 -8.611873E+04 -1.702490E+06 -2.031331E-09  1.620360E-10
       190  15 -4.503063E+06 -6.568577E+05 -5.031812E+04 -1.725866E+06 -8.300919E-10 -1.872675E-10
       190  16 -3.513016E+06 -3.403282E+05  9.028591E+04 -1.403839E+06 -6.711658E-10  1.036263E-12
       190  17 -3.545207E+06 -2.566584E+05  1.744096E+05 -1.436134E+06 -2.797856E-10  4.791156E-10
       190  18 -3.582565E+06 -3.182174E+05  1.968611E+05 -1.484874E+06 -2.996780E-11 -1.160327E-09
       190  19 -5.515624E+06 -1.134814E+06 -4.593167E+05 -1.986823E+06  1.354670E+05  2.345313E+04
       190  20 -5.466329E+06 -9.922069E+05 -3.467147E+05 -1.968469E+06  8.951450E+04  5.478077E+03
       190  21 -5.422741E+06 -9.954591E+05 -2.975685E+05 -1.966538E+06  4.240653E+04 -9.432127E+03
       190  22 -4.514798E+06 -7.376118E+05 -1.844520E+05 -1.695549E+06  1.348687E+05  2.323532E+04
       190  23 -4.506211E+06 -6.244619E+05 -8.610335E+04 -1.702490E+06  8.993867E+04  5.641509E+03
       190  24 -4.503061E+06 -6.568571E+05 -5.031433E+04 -1.725866E+06  4.385749E+04 -8.885850E+03
       190  25 -3.512997E+06 -3.403227E+05  9.032100E+04 -1.403837E+06  1.342691E+05  2.301698E+04
       190  26 -3.545199E+06 -2.566562E+05  1.744251E+05 -1.436134E+06  9.036348E+04  5.805182E+03
       190  27 -3.582563E+06 -3.182167E+05  1.968651E+05 -1.484875E+06  4.531080E+04 -8.338747E+03
       191   1 -5.265926E+06 -9.674837E+05 -2.486266E+05 -1.935968E+06 -3.500709E+04  1.003610E+04
       191   2 -5.213905E+06 -8.932117E+05 -2.073745E+05 -1.881105E+06 -2.344225E+04  1.131952E+04
       191   3 -5.106104E+06 -8.936183E+05 -1.774762E+05 -1.892976E+06 -1.157872E+04  1.178886E+04
       191   4 -4.494108E+06 -6.742669E+05 -3.974712E+04 -1.724553E+06 -3.584112E+04  9.721542E+03
       191   5 -4.521270E+06 -6.317506E+05 -2.011703E+04 -1.693127E+06 -2.455387E+04  1.090234E+04
       191   6 -4.492596E+06 -6.638427E+05 -1.160747E+04 -1.728433E+06 -1.296956E+04  1.126890E+04
       191   7 -3.721715E+06 -3.810139E+05  1.690785E+05 -1.512900E+06 -3.667627E+04  9.406557E+03
       191   8 -3.828170E+06 -3.702616E+05  1.670975E+05 -1.504958E+06 -2.566685E+04  1.048466E+04
       191   9 -3.878723E+06 -4.340463E+05  1.542280E+05 -1.563742E+06 -1.436194E+04  1.074838E+04
       191  10 -5.265927E+06 -9.674842E+05 -2.486291E+05 -1.935967E+06 -2.903711E-10  5.390794E-10
       191  11 -5.213906E+06 -8.932120E+05 -2.073758E+05 -1.881105E+06 -1.360121E-09 -2.908369E-10
       191  12 -5.106104E+06 -8.936185E+05 -1.774768E+05 -1.892976E+06 -1.003461E-09 -1.077842E-09
       191  13 -4.494110E+06 -6.742673E+05 -3.974972E+04 -1.724553E+06 -4.947165E-10 -8.476625E-10
       191  14 -4.521270E+06 -6.317509E+05 -2.011839E+04 -1.693127E+06  1.633407E-09 -7.597277E-10
       191  15 -4.492596E+06 -6.638429E+05 -1.160802E+04 -1.728433E+06 -1.024752E-09 -5.022978E-10
       191  16 -3.721716E+06 -3.810143E+05  1.690758E+05 -1.512900E+06  1.187140E-09 -1.053673E-09
       191  17 -3.828170E+06 -3.702619E+05  1.670961E+05 -1.504958E+06  3.342644E-10 -5.863164E-10
       191  18 -3.878723E+06 -4.340465E+05  1.542274E+05 -1.563742E+06 -1.431828E-09  1.527521E-09
       191  19 -5.265926E+06 -9.674837E+05 -2.486266E+05 -1.935968E+06  3.500709E+04 -1.003610E+04
       191  20 -5.213905E+06 -8.932117E+05 -2.073745E+05 -1.881105E+06  2.344225E+04 -1.131952E+04
       191  21 -5.106104E+06 -8.936183E+05 -1.774762E+05 -1.892976E+06  1.157872E+04 -1.178886E+04
       191  22 -4.494108E+06 -6.742669E+05 -3.974712E+04 -1.724553E+06  3.584112E+04 -9.721542E+03
       191  23 -4.521270E+06 -6.317506E+05 -2.011703E+04 -1.693127E+06  2.455387E+04 -1.090234E+04
       191  24 -4.492596E+06 -6.638427E+05 -1.160747E+04 -1.728433E+06  1.296956E+04 -1.126890E+04
       191  25 -3.721715E+06 -3.810139E+05  1.690785E+05 -1.512900E+06  3.667627E+04 -9.406557E+03
       191  26 -3.828170E+06 -3.702616E+05  1.670975E+05 -1.504958E+06  2.566685E+04 -1.048466E+04
       191  27 -3.878723E+06 -4.340463E+05  1.542280E+05 -1.563742E+06  1.436194E+04 -1.074838E+04
       192   1 -4.909987E+06 -8.269802E+05 -1.225883E+05 -1.845012E+06 -9.157119E+03  1.018333E+04
       192   2 -4.848154E+06 -7.506541E+05 -9.247148E+04 -1.775358E+06 -4.892095E+03  7.494085E+03
       192   3 -4.712442E+06 -7.510574E+05 -6.498093E+04 -1.791617E+06 -5.229848E+02  4.514981E+03
       192   4 -4.489113E+06 -6.685095E+05 -9.215671E+03 -1.731100E+06 -1.044986E+04  9.700853E+03
       192   5 -4.525962E+06 -6.295072E+05 -5.474431E+03 -1.688383E+06 -6.286406E+03  6.974481E+03
       192   6 -4.488922E+06 -6.672108E+05 -4.276222E+03 -1.731579E+06 -2.019406E+03  3.958176E+03
       192   7 -4.068067E+06 -5.100285E+05  1.041412E+05 -1.617117E+06 -1.174358E+04  9.218011E+03
       192   8 -4.203670E+06 -5.083547E+05  8.151325E+04 -1.601367E+06 -7.681515E+03  6.454579E+03
       192   9 -4.265354E+06 -5.833616E+05  5.642387E+04 -1.671522E+06 -3.516420E+03  3.401151E+03
       192  10 -4.909987E+06 -8.269803E+05 -1.225887E+05 -1.845012E+06 -1.214111E-10 -3.629692E-10
       192  11 -4.848154E+06 -7.506541E+05 -9.247163E+04 -1.775358E+06  3.809991E-10  1.128626E-09
       192  12 -4.712442E+06 -7.510574E+05 -6.498097E+04 -1.791617E+06 -2.039503E-09  1.352806E-09
       192  13 -4.489113E+06 -6.685096E+05 -9.216053E+03 -1.731100E+06  2.060454E-09  6.226243E-10
       192  14 -4.525962E+06 -6.295073E+05 -5.474596E+03 -1.688383E+06 -2.095189E-09 -2.145015E-09
       192  15 -4.488922E+06 -6.672108E+05 -4.276259E+03 -1.731579E+06 -2.474405E-09 -3.236338E-10
       192  16 -4.068068E+06 -5.100286E+05  1.041408E+05 -1.617117E+06 -4.989773E-10  2.745246E-09
       192  17 -4.203670E+06 -5.083548E+05  8.151307E+04 -1.601367E+06  1.500370E-09  1.392500E-09
       192  18 -4.265354E+06 -5.833616E+05  5.642382E+04 -1.671522E+06 -3.139716E-09 -1.435191E-09
       192  19 -4.909987E+06 -8.269802E+05 -1.225883E+05 -1.845012E+06  9.157119E+03 -1.018333E+04
       192  20 -4.848154E+06 -7.506541E+05 -9.247148E+04 -1.775358E+06  4.892095E+03 -7.494085E+03
       192  21 -4.712442E+06 -7.510574E+05 -6.498093E+04 -1.791617E+06  5.229848E+02 -4.514981E+03
       192  22 -4.489113E+06 -6.685095E+05 -9.215671E+03 -1.731100E+06  1.044986E+04 -9.700853E+03
       192  23 -4.525962E+06 -6.295072E+05 -5.474431E+03 -1.688383E+06  6.286406E+03 -6.974481E+03
       192  24 -4.488922E+06 -6.672108E+05 -4.276222E+03 -1.731579E+06  2.019406E+03 -3.958176E+03
       192  25 -4.068067E+06 -5.100285E+05  1.041412E+05 -1.617117E+06  1.174358E+04 -9.218011E+03
       192  26 -4.203670E+06 -5.083547E+05  8.151325E+04 -1.601367E+06  7.681515E+03 -6.454579E+03
       192  27 -4.265354E+06 -5.833616E+05  5.642387E+04 -1.671522E+06  3.516420E+03 -3.401151E+03
       193   1 -4.495759E+06 -6.708535E+05 -5.899470E+03 -1.734590E+06  1.077256E+03  2.324526E+03
       193   2 -4.431341E+06 -5.927753E+05  2.058722E+04 -1.661617E+06  5.179888E+03 -8.312998E+02
       193   3 -4.290165E+06 -5.943671E+05  4.464323E+04 -1.678266E+06  9.246698E+03 -3.885804E+03
       193   4 -4.488283E+06 -6.679431E+05 -4.245144E+03 -1.732371E+06 -4.104446E+02  1.771195E+03
       193   5 -4.526729E+06 -6.286293E+05 -5.160467E+03 -1.687363E+06  3.727811E+03 -1.371642E+03
       193   6 -4.488436E+06 -6.689951E+05 -8.534911E+03 -1.731983E+06  7.829756E+03 -4.413283E+03
       193   7 -4.480807E+06 -6.650328E+05 -2.590807E+03 -1.730152E+06 -1.898168E+03  1.217854E+03
       193   8 -4.622109E+06 -6.644828E+05 -3.090899E+04 -1.713105E+06  2.275979E+03 -1.911893E+03
       193   9 -4.686669E+06 -7.436208E+05 -6.171652E+04 -1.785684E+06  6.413313E+03 -4.940576E+03
       193  10 -4.495759E+06 -6.708535E+05 -5.899482E+03 -1.734590E+06 -1.923076E-09 -9.529171E-11
       193  11 -4.431341E+06 -5.927753E+05  2.058717E+04 -1.661617E+06 -1.068873E-09 -2.915446E-09
       193  12 -4.290165E+06 -5.943671E+05  4.464304E+04 -1.678266E+06 -2.355702E-09  2.038464E-09
       193  13 -4.488283E+06 -6.679431E+05 -4.245150E+03 -1.732371E+06 -5.214870E-09 -2.495733E-09
       193  14 -4.526729E+06 -6.286293E+05 -5.160497E+03 -1.687363E+06 -2.656111E-10  2.597348E-09
       193  15 -4.488436E+06 -6.689951E+05 -8.535063E+03 -1.731983E+06 -1.155807E-09  2.145304E-09
       193  16 -4.480807E+06 -6.650328E+05 -2.590816E+03 -1.730152E+06 -4.103668E-09 -3.807643E-09
       193  17 -4.622109E+06 -6.644828E+05 -3.090900E+04 -1.713105E+06  1.130567E-09  4.210776E-10
       193  18 -4.686669E+06 -7.436209E+05 -6.171665E+04 -1.785684E+06 -7.920458E-10 -7.007666E-11
       193  19 -4.495759E+06 -6.708535E+05 -5.899470E+03 -1.734590E+06 -1.077256E+03 -2.324526E+03
       193  20 -4.431341E+06 -5.927753E+05  2.058722E+04 -1.661617E+06 -5.179888E+03  8.312998E+02
       193  21 -4.290165E+06 -5.943671E+05  4.464323E+04 -1.678266E+06 -9.246698E+03  3.885804E+03
       193  22 -4.488283E+06 -6.679431E+05 -4.245144E+03 -1.732371E+06  4.104446E+02 -1.771195E+03
       193  23 -4.526729E+06 -6.286293E+05 -5.160467E+03 -1.687363E+06 -3.727811E+03  1.371642E+03
       193  24 -4.488436E+06 -6.689951E+05 -8.534911E+03 -1.731983E+06 -7.829756E+03  4.413283E+03
       193  25 -4.480807E+06 -6.650328E+05 -2.590807E+03 -1.730152E+06  1.898168E+03 -1.217854E+03
       193  26 -4.622109E+06 -6.644828E+05 -3.090899E+04 -1.713105E+06 -2.275979E+03  1.911893E+03
       193  27 -4.686669E+06 -7.436208E+05 -6.171652E+04 -1.785684E+06 -6.413313E+03  4.940576E+03
       194   1 -4.082779E+06 -5.135254E+05  9.953369E+04 -1.621798E+06  1.179432E+04 -5.661073E+03
       194   2 -4.024563E+06 -4.412998E+05  1.163424E+05 -1.554961E+06  2.244160E+04 -6.087955E+03
       194   3 -3.901823E+06 -4.513509E+05  1.230056E+05 -1.565586E+06  3.285484E+04 -5.866491E+03
       194   4 -4.490669E+06 -6.657770E+05 -1.072616E+04 -1.730716E+06  1.029595E+04 -6.219426E+03
       194   5 -4.523590E+06 -6.293711E+05 -1.842419E+04 -1.690215E+06  2.116696E+04 -6.564144E+03
       194   6 -4.492043E+06 -6.752983E+05 -3.645224E+04 -1.727182E+06  3.180236E+04 -6.260842E+03
       194   7 -4.898398E+06 -8.180195E+05 -1.210006E+05 -1.839570E+06  8.798670E+03 -6.777380E+03
       194   8 -5.022376E+06 -8.174281E+05 -1.532130E+05 -1.825371E+06  1.989345E+04 -7.039912E+03
       194   9 -5.081926E+06 -8.992248E+05 -1.959416E+05 -1.888639E+06  3.075097E+04 -6.654778E+03
       194  10 -4.082779E+06 -5.135255E+05  9.953336E+04 -1.621797E+06  2.823299E-09  3.835687E-09
       194  11 -4.024563E+06 -4.412999E+05  1.163413E+05 -1.554961E+06 -2.233342E-09 -1.882207E-09
       194  12 -3.901824E+06 -4.513512E+05  1.230035E+05 -1.565586E+06 -4.424808E-09 -4.984993E-09
       194  13 -4.490669E+06 -6.657770E+05 -1.072643E+04 -1.730716E+06 -1.311197E-10  1.952079E-09
       194  14 -4.523590E+06 -6.293713E+05 -1.842512E+04 -1.690215E+06 -1.209558E-09 -1.018693E-09
       194  15 -4.492044E+06 -6.752986E+05 -3.645422E+04 -1.727182E+06 -3.436128E-09 -2.396785E-09
       194  16 -4.898398E+06 -8.180195E+05 -1.210009E+05 -1.839570E+06 -3.177026E-09  6.309090E-10
       194  17 -5.022377E+06 -8.174283E+05 -1.532138E+05 -1.825370E+06 -5.678972E-10  1.045400E-09
       194  18 -5.081927E+06 -8.992251E+05 -1.959435E+05 -1.888639E+06  2.418674E-09  2.917771E-09
       194  19 -4.082779E+06 -5.135254E+05  9.953369E+04 -1.621798E+06 -1.179432E+04  5.661073E+03
       194  20 -4.024563E+06 -4.412998E+05  1.163424E+05 -1.554961E+06 -2.244160E+04  6.087955E+03
       194  21 -3.901823E+06 -4.513509E+05  1.230056E+05 -1.565586E+06 -3.285484E+04  5.866491E+03
       194  22 -4.490669E+06 -6.657770E+05 -1.072616E+04 -1.730716E+06 -1.029595E+04  6.219426E+03
       194  23 -4.523590E+06 -6.293711E+05 -1.842419E+04 -1.690215E+06 -2.116696E+04  6.564144E+03
       194  24 -4.492043E+06 -6.752983E+05 -3.645224E+04 -1.727182E+06 -3.180236E+04  6.260842E+03
       194  25 -4.898398E+06 -8.180195E+05 -1.210006E+05 -1.839570E+06 -8.798670E+03  6.777380E+03
       194  26 -5.022376E+06 -8.174281E+05 -1.532130E+05 -1.825371E+06 -1.989345E+04  7.039912E+03
       194  27 -5.081926E+06 -8.992248E+05 -1.959416E+05 -1.888639E+06 -3.075097E+04  6.654778E+03
       195   1 -3.730702E+06 -3.782817E+05  1.602242E+05 -1.529075E+06  4.100156E+04 -5.392835E+03
       195   2 -3.682517E+06 -3.055501E+05  1.455384E+05 -1.468992E+06  8.255470E+04  6.644319E+03
       195   3 -3.622988E+06 -3.825216E+05  7.427309E+04 -1.443264E+06  1.230228E+05  2.160318E+04
       195   4 -4.499664E+06 -6.599118E+05 -4.612394E+04 -1.729016E+06  3.934951E+04 -6.011706E+03
       195   5 -4.510554E+06 -6.219735E+05 -7.885348E+04 -1.697982E+06  8.189269E+04  6.393252E+03
       195   6 -4.510356E+06 -7.340276E+05 -1.690123E+05 -1.701299E+06  1.233458E+05  2.171814E+04
       195   7 -5.268054E+06 -9.415163E+05 -2.525242E+05 -1.928735E+06  3.769971E+04 -6.629796E+03
       195   8 -5.337928E+06 -9.383522E+05 -3.033068E+05 -1.926693E+06  8.123158E+04  6.142535E+03
       195   9 -5.396959E+06 -1.085466E+06 -4.123695E+05 -1.958992E+06  1.236681E+05  2.183283E+04
       195  10 -3.730704E+06 -3.782822E+05  1.602210E+05 -1.529075E+06 -1.887093E-09 -1.917944E-09
       195  11 -3.682524E+06 -3.055520E+05  1.455254E+05 -1.468993E+06 -2.840768E-10  3.143439E-10
       195  12 -3.623004E+06 -3.825262E+05  7.424359E+04 -1.443266E+06  1.343267E-09  1.514207E-10
       195  13 -4.499666E+06 -6.599122E+05 -4.612694E+04 -1.729016E+06 -1.955394E-09 -6.009819E-10
       195  14 -4.510562E+06 -6.219754E+05 -7.886626E+04 -1.697983E+06  1.306645E-09  1.061777E-09
       195  15 -4.510373E+06 -7.340323E+05 -1.690420E+05 -1.701302E+06 -5.545146E-10 -6.098331E-10
       195  16 -5.268056E+06 -9.415167E+05 -2.525270E+05 -1.928735E+06  7.155229E-11  1.262430E-09
       195  17 -5.337935E+06 -9.383540E+05 -3.033194E+05 -1.926693E+06  1.492637E-09 -3.486147E-10
       195  18 -5.396976E+06 -1.085470E+06 -4.123994E+05 -1.958994E+06  5.115301E-10  1.834721E-11
       195  19 -3.730702E+06 -3.782817E+05  1.602242E+05 -1.529075E+06 -4.100156E+04  5.392835E+03
       195  20 -3.682517E+06 -3.055501E+05  1.455384E+05 -1.468992E+06 -8.255470E+04 -6.644319E+03
       195  21 -3.622988E+06 -3.825216E+05  7.427309E+04 -1.443264E+06 -1.230228E+05 -2.160318E+04
       195  22 -4.499664E+06 -6.599118E+05 -4.612394E+04 -1.729016E+06 -3.934951E+04  6.011706E+03
       195  23 -4.510554E+06 -6.219735E+05 -7.885348E+04 -1.697982E+06 -8.189269E+04 -6.393252E+03
       195  24 -4.510356E+06 -7.340276E+05 -1.690123E+05 -1.701299E+06 -1.233458E+05 -2.171814E+04
       195  25 -5.268054E+06 -9.415163E+05 -2.525242E+05 -1.928735E+06 -3.769971E+04  6.629796E+03
       195  26 -5.337928E+06 -9.383522E+05 -3.033068E+05 -1.926693E+06 -8.123158E+04 -6.142535E+03
       195  27 -5.396959E+06 -1.085466E+06 -4.123695E+05 -1.958992E+06 -1.236681E+05 -2.183283E+04
       196   1 -3.487979E+06 -3.016148E+05  6.633621E+04 -1.521770E+06  1.599419E+05  3.057674E+04
       196   2 -3.425393E+06 -1.094598E+05 -5.316563E+04 -1.406689E+06  3.369945E+05  9.463814E+04
       196   3 -3.648054E+06 -7.113449E+05 -5.145307E+05 -1.119193E+06  5.057773E+05  1.806449E+05
       196   4 -4.542289E+06 -6.383582E+05 -2.064003E+05 -1.745494E+06  1.550218E+05  2.874114E+04
       196   5 -4.440982E+06 -5.311401E+05 -3.344974E+05 -1.722043E+06  3.396214E+05  9.560102E+04
       196   6 -4.626944E+06 -1.220297E+06 -8.109165E+05 -1.526035E+06  5.159535E+05  1.843560E+05
       196   7 -5.595524E+06 -9.751071E+05 -4.792262E+05 -1.968909E+06  1.501108E+05  2.690773E+04
       196   8 -5.455565E+06 -9.526988E+05 -6.159252E+05 -2.036907E+06  3.422432E+05  9.656151E+04
       196   9 -5.604850E+06 -1.728908E+06 -1.107395E+06 -1.932207E+06  5.261112E+05  1.880542E+05
       196  10 -3.488007E+06 -3.016227E+05  6.628606E+04 -1.521774E+06  1.312847E-09 -1.298554E-09
       196  11 -3.425518E+06 -1.095002E+05 -5.339737E+04 -1.406715E+06  2.786087E-09 -2.384492E-09
       196  12 -3.648339E+06 -7.114493E+05 -5.150763E+05 -1.119267E+06  1.425307E-09 -1.909247E-09
       196  13 -4.542315E+06 -6.383656E+05 -2.064474E+05 -1.745498E+06  1.148925E-09 -1.614166E-09
       196  14 -4.441109E+06 -5.311812E+05 -3.347333E+05 -1.722069E+06  4.026723E-09  5.039105E-10
       196  15 -4.627241E+06 -1.220406E+06 -8.114854E+05 -1.526112E+06  2.917506E-10  1.081687E-10
       196  16 -5.595549E+06 -9.751140E+05 -4.792704E+05 -1.968912E+06 -1.190754E-09 -1.994381E-09
       196  17 -5.455694E+06 -9.527408E+05 -6.161653E+05 -2.036933E+06 -2.004088E-09  4.965441E-11
       196  18 -5.605159E+06 -1.729021E+06 -1.107988E+06 -1.932287E+06 -1.283735E-09 -7.688854E-11
       196  19 -3.487979E+06 -3.016148E+05  6.633621E+04 -1.521770E+06 -1.599419E+05 -3.057674E+04
       196  20 -3.425393E+06 -1.094598E+05 -5.316563E+04 -1.406689E+06 -3.369945E+05 -9.463814E+04
       196  21 -3.648054E+06 -7.113449E+05 -5.145307E+05 -1.119193E+06 -5.057773E+05 -1.806449E+05
       196  22 -4.542289E+06 -6.383582E+05 -2.064003E+05 -1.745494E+06 -1.550218E+05 -2.874114E+04
       196  23 -4.440982E+06 -5.311401E+05 -3.344974E+05 -1.722043E+06 -3.396214E+05 -9.560102E+04
       196  24 -4.626944E+06 -1.220297E+06 -8.109165E+05 -1.526035E+06 -5.159535E+05 -1.843560E+05
       196  25 -5.595524E+06 -9.751071E+05 -4.792262E+05 -1.968909E+06 -1.501108E+05 -2.690773E+04
       196  26 -5.455565E+06 -9.526988E+05 -6.159252E+05 -2.036907E+06 -3.422432E+05 -9.656151E+04
       196  27 -5.604850E+06 -1.728908E+06 -1.107395E+06 -1.932207E+06 -5.261112E+05 -1.880542E+05
       197   1  1.693057E+05  1.063181E+05  1.827172E+05  4.557382E+04  2.287880E+05  6.064872E+03
       197   2  1.603728E+05 -2.005309E+05  3.171754E+02  1.727996E+04  1.526155E+05  1.633772E+04
       197   3  2.505078E+05 -1.546797E+05 -4.410767E+04 -5.084547E+04  7.646758E+04  1.434332E+04
       197   4  8.219898E+05  2.686422E+05  3.443418E+05 -2.044611E+04  2.353471E+05  6.058040E+03
       197   5  7.721418E+05 -4.856439E+04  1.491606E+05 -1.541345E+02  1.543831E+05  1.633628E+04
       197   6  8.220871E+05 -1.243518E+04  9.517675E+04 -1.969174E+04  7.344940E+04  1.434068E+04
       197   7  1.475070E+06  4.309512E+05  5.059373E+05 -8.653574E+04  2.419130E+05  6.049826E+03
       197   8  1.384253E+06  1.033758E+05  2.979772E+05 -1.760564E+04  1.561523E+05  1.633474E+04
       197   9  1.393966E+06  1.297888E+05  2.344380E+05  1.149060E+04  7.042843E+04  1.433773E+04
       197  10  1.692495E+05  1.063040E+05  1.826188E+05  4.557271E+04 -2.354967E-09  9.680176E-10
       197  11  1.603477E+05 -2.005374E+05  2.729201E+02  1.727795E+04 -1.753402E-09 -1.080308E-09
       197  12  2.505015E+05 -1.546815E+05 -4.411904E+04 -5.084635E+04 -1.648378E-09 -4.719994E-11
       197  13  8.219304E+05  2.686273E+05  3.442378E+05 -2.044726E+04  1.068186E-09  3.180932E-10
       197  14  7.721162E+05 -4.857106E+04  1.491154E+05 -1.561648E+02  1.423364E-09 -3.326998E-09
       197  15  8.220812E+05 -1.243685E+04  9.516623E+04 -1.969259E+04  2.480780E-10  4.249137E-10
       197  16  1.475008E+06  4.309355E+05  5.058275E+05 -8.653692E+04  1.820532E-09 -3.203364E-10
       197  17  1.384227E+06  1.033689E+05  2.979309E+05 -1.760770E+04  1.608117E-09 -4.315769E-10
       197  18  1.393961E+06  1.297873E+05  2.344283E+05  1.148979E+04 -1.360664E-10 -4.724014E-10
       197  19  1.693057E+05  1.063181E+05  1.827172E+05  4.557382E+04 -2.287880E+05 -6.064872E+03
       197  20  1.603728E+05 -2.005309E+05  3.171754E+02  1.727996E+04 -1.526155E+05 -1.633772E+04
       197  21  2.505078E+05 -1.546797E+05 -4.410767E+04 -5.084547E+04 -7.646758E+04 -1.434332E+04
       197  22  8.219898E+05  2.686422E+05  3.443418E+05 -2.044611E+04 -2.353471E+05 -6.058040E+03
       197  23  7.721418E+05 -4.856439E+04  1.491606E+05 -1.541345E+02 -1.543831E+05 -1.633628E+04
       197  24  8.220871E+05 -1.243518E+04  9.517675E+04 -1.969174E+04 -7.344940E+04 -1.434068E+04
       197  25  1.475070E+06  4.309512E+05  5.059373E+05 -8.653574E+04 -2.419130E+05 -6.049826E+03
       197  26  1.384253E+06  1.033758E+05  2.979772E+05 -1.760564E+04 -1.561523E+05 -1.633474E+04
       197  27  1.393966E+06  1.297888E+05  2.344380E+05  1.149060E+04 -7.042843E+04 -1.433773E+04
       198   1  3.046376E+05 -9.093658E+04 -4.351266E+04 -1.218085E+04  5.809352E+04  1.163015E+04
       198   2  3.351576E+05 -1.206715E+05 -7.354840E+04  5.681076E+02  3.850858E+04  1.138327E+04
       198   3  3.796479E+05 -1.068309E+05 -7.983357E+04 -2.337595E+04  1.892328E+04  9.962185E+03
       198   4  8.030280E+05  3.297951E+04  7.811730E+04 -1.926025E+04  5.826773E+04  1.162911E+04
       198   5  7.960186E+05 -6.097611E+03  3.876040E+04 -8.887305E+02  3.821718E+04  1.138225E+04
       198   6  8.030484E+05 -1.536415E+03  2.346361E+04 -1.920827E+04  1.816747E+04  9.961211E+03
       198   7  1.301645E+06  1.568775E+05  1.997292E+05 -2.634542E+04  5.844205E+04  1.162807E+04
       198   8  1.257073E+06  1.084607E+05  1.510538E+05 -2.346712E+03  3.792556E+04  1.138122E+04
       198   9  1.226612E+06  1.037449E+05  1.267478E+05 -1.503777E+04  1.741115E+04  9.960227E+03
       198  10  3.046339E+05 -9.093763E+04 -4.351925E+04 -1.218140E+04 -6.669388E-10 -1.168130E-09
       198  11  3.351560E+05 -1.206721E+05 -7.355143E+04  5.677545E+02  6.523312E-10  8.972003E-10
       198  12  3.796474E+05 -1.068311E+05 -7.983443E+04 -2.337610E+04 -7.788573E-10 -7.250839E-10
       198  13  8.030243E+05  3.297845E+04  7.811068E+04 -1.926079E+04  1.086710E-09 -5.570587E-10
       198  14  7.960170E+05 -6.098141E+03  3.875742E+04 -8.890807E+02  8.984204E-10 -6.760502E-10
       198  15  8.030480E+05 -1.536610E+03  2.346281E+04 -1.920841E+04  9.995715E-10 -8.901433E-10
       198  16  1.301641E+06  1.568764E+05  1.997226E+05 -2.634597E+04 -2.332833E-10  4.557167E-10
       198  17  1.257072E+06  1.084601E+05  1.510508E+05 -2.347059E+03 -1.703198E-09 -2.345987E-09
       198  18  1.226612E+06  1.037447E+05  1.267470E+05 -1.503791E+04 -7.559499E-10  3.254087E-10
       198  19  3.046376E+05 -9.093658E+04 -4.351266E+04 -1.218085E+04 -5.809352E+04 -1.163015E+04
       198  20  3.351576E+05 -1.206715E+05 -7.354840E+04  5.681076E+02 -3.850858E+04 -1.138327E+04
       198  21  3.796479E+05 -1.068309E+05 -7.983357E+04 -2.337595E+04 -1.892328E+04 -9.962185E+03
       198  22  8.030280E+05  3.297951E+04  7.811730E+04 -1.926025E+04 -5.826773E+04 -1.162911E+04
       198  23  7.960186E+05 -6.097611E+03  3.876040E+04 -8.887305E+02 -3.821718E+04 -1.138225E+04
       198  24  8.030484E+05 -1.536415E+03  2.346361E+04 -1.920827E+04 -1.816747E+04 -9.961211E+03
       198  25  1.301645E+06  1.568775E+05  1.997292E+05 -2.634542E+04 -5.844205E+04 -1.162807E+04
       198  26  1.257073E+06  1.084607E+05  1.510538E+05 -2.346712E+03 -3.792556E+04 -1.138122E+04
       198  27  1.226612E+06  1.037449E+05  1.267478E+05 -1.503777E+04 -1.741115E+04 -9.960227E+03
       199   1  4.460364E+05 -8.412245E+04 -6.777765E+04 -1.820339E+04  1.486525E+04  8.995172E+03
       199   2  4.804312E+05 -8.005935E+04 -6.782813E+04 -1.396103E+03  9.901722E+03  7.784572E+03
       199   3  5.170457E+05 -7.065572E+04 -6.326433E+04 -1.934125E+04  4.936847E+03  6.485587E+03
       199   4  8.004361E+05  3.967217E+03  1.851541E+04 -1.879464E+04  1.442386E+04  8.994518E+03
       199   5  7.993272E+05 -7.797386E+02  9.895164E+03 -1.417687E+03  9.423789E+03  7.784095E+03
       199   6  8.004414E+05 -1.815288E+02  5.912538E+03 -1.879202E+04  4.422653E+03  6.485304E+03
       199   7  1.154950E+06  9.204764E+04  1.047994E+05 -1.938624E+04  1.398222E+04  8.993864E+03
       199   8  1.118316E+06  7.849239E+04  8.761107E+04 -1.439293E+03  8.945610E+03  7.783618E+03
       199   9  1.083910E+06  7.028674E+04  7.508356E+04 -1.824255E+04  3.908225E+03  6.485019E+03
       199  10  4.460361E+05 -8.412259E+04 -6.777822E+04 -1.820350E+04  6.380512E-10  2.031951E-10
       199  11  4.804311E+05 -8.005945E+04 -6.782843E+04 -1.396165E+03 -1.203985E-09  3.217853E-10
       199  12  5.170457E+05 -7.065577E+04 -6.326446E+04 -1.934128E+04 -9.473749E-11 -7.072167E-10
       199  13  8.004358E+05  3.967074E+03  1.851487E+04 -1.879474E+04 -1.060513E-09 -1.104948E-10
       199  14  7.993271E+05 -7.798275E+02  9.894883E+03 -1.417746E+03 -9.978015E-10  1.251140E-10
       199  15  8.004414E+05 -1.815792E+02  5.912422E+03 -1.879205E+04 -1.938707E-09 -5.238617E-10
       199  16  1.154950E+06  9.204750E+04  1.047988E+05 -1.938634E+04  5.523928E-10  3.087425E-10
       199  17  1.118316E+06  7.849230E+04  8.761081E+04 -1.439349E+03  1.877882E-09 -7.369456E-10
       199  18  1.083910E+06  7.028669E+04  7.508345E+04 -1.824257E+04  6.500605E-10 -6.344380E-10
       199  19  4.460364E+05 -8.412245E+04 -6.777765E+04 -1.820339E+04 -1.486525E+04 -8.995172E+03
       199  20  4.804312E+05 -8.005935E+04 -6.782813E+04 -1.396103E+03 -9.901722E+03 -7.784572E+03
       199  21  5.170457E+05 -7.065572E+04 -6.326433E+04 -1.934125E+04 -4.936847E+03 -6.485587E+03
       199  22  8.004361E+05  3.967217E+03  1.851541E+04 -1.879464E+04 -1.442386E+04 -8.994518E+03
       199  23  7.993272E+05 -7.797386E+02  9.895164E+03 -1.417687E+03 -9.423789E+03 -7.784095E+03
       199  24  8.004414E+05 -1.815288E+02  5.912538E+03 -1.879202E+04 -4.422653E+03 -6.485304E+03
       199  25  1.154950E+06  9.204764E+04  1.047994E+05 -1.938624E+04 -1.398222E+04 -8.993864E+03
       199  26  1.118316E+06  7.849239E+04  8.761107E+04 -1.439293E+03 -8.945610E+03 -7.783618E+03
       199  27  1.083910E+06  7.028674E+04  7.508356E+04 -1.824255E+04 -3.908225E+03 -6.485019E+03
       200   1  5.826242E+05 -5.357276E+04 -4.826155E+04 -1.847462E+04  3.958606E+03  5.723210E+03
       200   2  6.166621E+05 -4.564276E+04 -4.191920E+04 -1.763005E+03  2.595666E+03  4.463571E+03
       200   3  6.511099E+05 -3.703212E+04 -3.450741E+04 -1.856015E+04  1.232051E+03  3.211262E+03
       200   4  8.000479E+05  4.559027E+02  4.622430E+03 -1.851654E+04  3.473975E+03  5.723044E+03
       200   5  7.998446E+05 -1.058710E+02  2.724885E+03 -1.762461E+03  2.113414E+03  4.463513E+03
       200   6  8.000496E+05  1.251819E+01  1.894916E+03 -1.851652E+04  7.522518E+02  3.211315E+03
       200   7  1.017515E+06  5.448109E+04  5.750299E+04 -1.855848E+04  2.989174E+03  5.722878E+03
       200   8  9.830577E+05  4.542855E+04  4.736653E+04 -1.761916E+03  1.631019E+03  4.463455E+03
       200   9  9.490094E+05  3.705552E+04  3.829562E+04 -1.847288E+04  2.723381E+02  3.211368E+03
       200  10  5.826242E+05 -5.357280E+04 -4.826164E+04 -1.847464E+04 -3.739014E-10 -5.955082E-10
       200  11  6.166621E+05 -4.564278E+04 -4.191925E+04 -1.763015E+03  8.444772E-10  2.452900E-10
       200  12  6.511099E+05 -3.703213E+04 -3.450743E+04 -1.856015E+04  2.473739E-11  1.199268E-10
       200  13  8.000479E+05  4.558643E+02  4.622346E+03 -1.851656E+04 -2.971927E-10 -5.192287E-10
       200  14  7.998446E+05 -1.058936E+02  2.724839E+03 -1.762468E+03  6.871636E-10  1.676506E-10
       200  15  8.000495E+05  1.250696E+01  1.894895E+03 -1.851652E+04  3.270874E-10  9.639256E-11
       200  16  1.017515E+06  5.448105E+04  5.750291E+04 -1.855849E+04 -9.424088E-10 -1.464338E-11
       200  17  9.830577E+05  4.542852E+04  4.736649E+04 -1.761922E+03 -2.212900E-09  2.080051E-10
       200  18  9.490094E+05  3.705551E+04  3.829560E+04 -1.847288E+04 -1.959070E-09  2.913674E-10
       200  19  5.826242E+05 -5.357276E+04 -4.826155E+04 -1.847462E+04 -3.958606E+03 -5.723210E+03
       200  20  6.166621E+05 -4.564276E+04 -4.191920E+04 -1.763005E+03 -2.595666E+03 -4.463571E+03
       200  21  6.511099E+05 -3.703212E+04 -3.450741E+04 -1.856015E+04 -1.232051E+03 -3.211262E+03
       200  22  8.000479E+05  4.559027E+02  4.622430E+03 -1.851654E+04 -3.473975E+03 -5.723044E+03
       200  23  7.998446E+05 -1.058710E+02  2.724885E+03 -1.762461E+03 -2.113414E+03 -4.463513E+03
       200  24  8.000496E+05  1.251819E+01  1.894916E+03 -1.851652E+04 -7.522518E+02 -3.211315E+03
       200  25  1.017515E+06  5.448109E+04  5.750299E+04 -1.855848E+04 -2.989174E+03 -5.722878E+03
       200  26  9.830577E+05  4.542855E+04  4.736653E+04 -1.761916E+03 -1.631019E+03 -4.463455E+03
       200  27  9.490094E+05  3.705552E+04  3.829562E+04 -1.847288E+04 -2.723381E+02 -3.211368E+03
       201   1  7.152861E+05 -2.098909E+04 -1.884736E+04 -1.834730E+04  9.069067E+02  2.484759E+03
       201   2  7.488527E+05 -1.274195E+04 -1.079862E+04 -1.916443E+03  8.269669E+01  1.243318E+03
       201   3  7.825984E+05 -4.137663E+03 -2.128559E+03 -1.841523E+04 -7.417080E+02  1.328857E+01
       201   4  8.000029E+05  4.817238E+01  1.692872E+03 -1.838794E+04  4.275337E+02  2.484864E+03
       201   5  7.999141E+05 -4.969562E+01  1.644954E+03 -1.923179E+03 -3.923730E+02  1.243451E+03
       201   6  8.000030E+05  2.090217E+02  2.215538E+03 -1.838789E+04 -1.212430E+03  1.345164E+01
       201   7  8.847263E+05  2.108491E+04  2.223259E+04 -1.842859E+04 -5.190447E+01  2.484970E+03
       201   8  8.509778E+05  1.264237E+04  1.408834E+04 -1.929916E+03 -8.674816E+02  1.243584E+03
       201   9  8.174080E+05  4.555683E+03  6.559612E+03 -1.836054E+04 -1.683165E+03  1.361468E+01
       201  10  7.152861E+05 -2.098910E+04 -1.884737E+04 -1.834730E+04 -9.210938E-11  9.317422E-11
       201  11  7.488527E+05 -1.274195E+04 -1.079862E+04 -1.916443E+03 -8.267919E-10  4.505203E-10
       201  12  7.825984E+05 -4.137663E+03 -2.128560E+03 -1.841523E+04 -3.307285E-09 -3.649994E-10
       201  13  8.000029E+05  4.816570E+01  1.692860E+03 -1.838794E+04 -1.433515E-09  4.370733E-10
       201  14  7.999141E+05 -4.969732E+01  1.644951E+03 -1.923179E+03 -2.398914E-09  3.052927E-10
       201  15  8.000030E+05  2.090213E+02  2.215535E+03 -1.838789E+04  2.842373E-09 -7.508922E-10
       201  16  8.847263E+05  2.108490E+04  2.223257E+04 -1.842859E+04  6.683012E-11  3.205791E-10
       201  17  8.509778E+05  1.264236E+04  1.408834E+04 -1.929915E+03 -2.024748E-09  1.273143E-10
       201  18  8.174080E+05  4.555683E+03  6.559607E+03 -1.836054E+04  3.101389E-10 -1.033663E-10
       201  19  7.152861E+05 -2.098909E+04 -1.884736E+04 -1.834730E+04 -9.069067E+02 -2.484759E+03
       201  20  7.488527E+05 -1.274195E+04 -1.079862E+04 -1.916443E+03 -8.269669E+01 -1.243318E+03
       201  21  7.825984E+05 -4.137663E+03 -2.128559E+03 -1.841523E+04  7.417080E+02 -1.328857E+01
       201  22  8.000029E+05  4.817238E+01  1.692872E+03 -1.838794E+04 -4.275337E+02 -2.484864E+03
       201  23  7.999141E+05 -4.969562E+01  1.644954E+03 -1.923179E+03  3.923730E+02 -1.243451E+03
       201  24  8.000030E+05  2.090217E+02  2.215538E+03 -1.838789E+04  1.212430E+03 -1.345164E+01
       201  25  8.847263E+05  2.108491E+04  2.223259E+04 -1.842859E+04  5.190447E+01 -2.484970E+03
       201  26  8.509778E+05  1.264237E+04  1.408834E+04 -1.929916E+03  8.674816E+02 -1.243584E+03
       201  27  8.174080E+05  4.555683E+03  6.559612E+03 -1.836054E+04  1.683165E+03 -1.361468E+01
       202   1  8.464852E+05  1.148202E+04  1.407185E+04 -1.820567E+04 -1.163736E+03 -7.158975E+02
       202   2  8.797992E+05  1.958552E+04  2.375240E+04 -1.976727E+03 -3.332099E+03 -1.955932E+03
       202   3  9.139513E+05  2.994170E+04  3.540427E+04 -1.874658E+04 -5.500344E+03 -3.129825E+03
       202   4  8.001480E+05 -5.570013E+01  2.677260E+03 -1.840352E+04 -1.653260E+03 -7.157341E+02
       202   5  7.997310E+05 -3.150354E+02  4.243286E+03 -1.903804E+03 -3.795963E+03 -1.955826E+03
       202   6  8.001462E+05  1.674017E+03  7.763013E+03 -1.840313E+04 -5.938432E+03 -3.129771E+03
       202   7  7.538128E+05 -1.159358E+04 -8.717486E+03 -1.860136E+04 -2.142747E+03 -7.155704E+02
       202   8  7.196685E+05 -2.021606E+04 -1.526630E+04 -1.830890E+03 -4.259768E+03 -1.955720E+03
       202   9  6.863529E+05 -2.659462E+04 -1.987918E+04 -1.805975E+04 -6.376439E+03 -3.129718E+03
       202  10  8.464852E+05  1.148202E+04  1.407185E+04 -1.820567E+04 -1.953043E-09  1.651761E-10
       202  11  8.797992E+05  1.958551E+04  2.375237E+04 -1.976732E+03  4.289868E-10  4.407301E-11
       202  12  9.139512E+05  2.994168E+04  3.540420E+04 -1.874660E+04 -4.209495E-10  2.249440E-11
       202  13  8.001480E+05 -5.570141E+01  2.677254E+03 -1.840352E+04  3.545846E-09 -6.082700E-10
       202  14  7.997309E+05 -3.150434E+02  4.243252E+03 -1.903810E+03 -1.689483E-09 -3.125652E-10
       202  15  8.001461E+05  1.673997E+03  7.762929E+03 -1.840315E+04 -1.107832E-10 -1.496717E-10
       202  16  7.538128E+05 -1.159359E+04 -8.717496E+03 -1.860136E+04  1.665560E-09  1.760453E-10
       202  17  7.196685E+05 -2.021607E+04 -1.526634E+04 -1.830896E+03  1.117880E-09 -1.209012E-10
       202  18  6.863528E+05 -2.659464E+04 -1.987928E+04 -1.805976E+04 -5.293911E-10 -4.256622E-10
       202  19  8.464852E+05  1.148202E+04  1.407185E+04 -1.820567E+04  1.163736E+03  7.158975E+02
       202  20  8.797992E+05  1.958552E+04  2.375240E+04 -1.976727E+03  3.332099E+03  1.955932E+03
       202  21  9.139513E+05  2.994170E+04  3.540427E+04 -1.874658E+04  5.500344E+03  3.129825E+03
       202  22  8.001480E+05 -5.570013E+01  2.677260E+03 -1.840352E+04  1.653260E+03  7.157341E+02
       202  23  7.997310E+05 -3.150354E+02  4.243286E+03 -1.903804E+03  3.795963E+03  1.955826E+03
       202  24  8.001462E+05  1.674017E+03  7.763013E+03 -1.840313E+04  5.938432E+03  3.129771E+03
       202  25  7.538128E+05 -1.159358E+04 -8.717486E+03 -1.860136E+04  2.142747E+03  7.155704E+02
       202  26  7.196685E+05 -2.021606E+04 -1.526630E+04 -1.830890E+03  4.259768E+03  1.955720E+03
       202  27  6.863529E+05 -2.659462E+04 -1.987918E+04 -1.805975E+04  6.376439E+03  3.129718E+03
       203   1  9.795472E+05  4.372343E+04  5.334297E+04 -1.696302E+04 -6.874105E+03 -3.968052E+03
       203   2  1.011145E+06  5.035698E+04  6.796782E+04 -2.486172E+03 -1.550320E+04 -5.248090E+03
       203   3  1.048505E+06  7.519000E+04  9.277191E+04 -2.172126E+04 -2.413228E+04 -5.802363E+03
       203   4  8.012265E+05 -6.133695E+02  9.799718E+03 -1.856145E+04 -7.504527E+03 -3.968015E+03
       203   5  7.983650E+05 -2.521808E+03  1.613894E+04 -1.706289E+03 -1.585205E+04 -5.248238E+03
       203   6  8.012176E+05  1.372400E+04  3.246483E+04 -1.856366E+04 -2.419907E+04 -5.802648E+03
       203   7  6.229346E+05 -4.495251E+04 -3.374585E+04 -2.015942E+04 -8.134768E+03 -3.967974E+03
       203   8  5.856259E+05 -5.540392E+04 -3.569323E+04 -9.266742E+02 -1.620077E+04 -5.248386E+03
       203   9  5.539858E+05 -4.774646E+04 -2.784668E+04 -1.540731E+04 -2.426582E+04 -5.802933E+03
       203  10  9.795471E+05  4.372340E+04  5.334285E+04 -1.696304E+04 -8.309893E-10 -3.921396E-10
       203  11  1.011145E+06  5.035688E+04  6.796731E+04 -2.486237E+03  1.023709E-09 -5.252188E-10
       203  12  1.048504E+06  7.518980E+04  9.277075E+04 -2.172138E+04 -6.249417E-10 -3.383425E-11
       203  13  8.012264E+05 -6.134015E+02  9.799583E+03 -1.856147E+04 -2.129458E-09 -3.864932E-10
       203  14  7.983648E+05 -2.521905E+03  1.613841E+04 -1.706356E+03  1.213200E-09 -3.976701E-10
       203  15  8.012169E+05  1.372381E+04  3.246367E+04 -1.856377E+04  1.795127E-09  1.541339E-10
       203  16  6.229346E+05 -4.495254E+04 -3.374600E+04 -2.015944E+04 -5.315913E-12 -4.781493E-10
       203  17  5.856257E+05 -5.540402E+04 -3.569377E+04 -9.267427E+02 -5.417705E-10 -3.399571E-10
       203  18  5.539852E+05 -4.774666E+04 -2.784785E+04 -1.540742E+04 -7.473177E-10  4.863049E-10
       203  19  9.795472E+05  4.372343E+04  5.334297E+04 -1.696302E+04  6.874105E+03  3.968052E+03
       203  20  1.011145E+06  5.035698E+04  6.796782E+04 -2.486172E+03  1.550320E+04  5.248090E+03
       203  21  1.048505E+06  7.519000E+04  9.277191E+04 -2.172126E+04  2.413228E+04  5.802363E+03
       203  22  8.012265E+05 -6.133695E+02  9.799718E+03 -1.856145E+04  7.504527E+03  3.968015E+03
       203  23  7.983650E+05 -2.521808E+03  1.613894E+04 -1.706289E+03  1.585205E+04  5.248238E+03
       203  24  8.012176E+05  1.372400E+04  3.246483E+04 -1.856366E+04  2.419907E+04  5.802648E+03
       203  25  6.229346E+05 -4.495251E+04 -3.374585E+04 -2.015942E+04  8.134768E+03  3.967974E+03
       203  26  5.856259E+05 -5.540392E+04 -3.569323E+04 -9.266742E+02  1.620077E+04  5.248386E+03
       203  27  5.539858E+05 -4.774646E+04 -2.784668E+04 -1.540731E+04  2.426582E+04  5.802933E+03
       204   1  1.122968E+06  7.285986E+04  1.160029E+05 -6.137006E+03 -2.849505E+04 -7.677833E+03
       204   2  1.138035E+06  6.666870E+04  1.469714E+05 -8.884523E+03 -6.502208E+04 -9.206949E+03
       204   3  1.194936E+06  2.077436E+05  2.385641E+05 -4.669960E+04 -1.015560E+05 -3.242836E+03
       204   4  8.091375E+05 -5.139606E+03  3.954701E+04 -1.883591E+04 -3.050776E+04 -7.678138E+03
       204   5  7.884371E+05 -2.016680E+04  6.196335E+04 -1.349296E+03 -6.413728E+04 -9.207553E+03
       204   6  8.090915E+05  1.116130E+05  1.430185E+05 -1.892997E+04 -9.777147E+04 -3.244263E+03
       204   7  4.953975E+05 -8.314572E+04 -3.691594E+04 -3.152840E+04 -3.251945E+04 -7.678361E+03
       204   8  4.389508E+05 -1.070111E+05 -2.305349E+04  6.181666E+03 -6.325297E+04 -9.208136E+03
       204   9  4.233835E+05  1.547415E+04  4.746225E+04  8.822397E+03 -9.398924E+04 -3.245354E+03
       204  10  1.122967E+06  7.285958E+04  1.160013E+05 -6.137183E+03  5.681430E-10  8.078119E-11
       204  11  1.138030E+06  6.666747E+04  1.469633E+05 -8.885005E+03 -2.395275E-09  1.045757E-11
       204  12  1.194925E+06  2.077408E+05  2.385447E+05 -4.669987E+04  1.064959E-09  2.836853E-10
       204  13  8.091365E+05 -5.139919E+03  3.954516E+04 -1.883610E+04  5.222883E-10 -1.413720E-10
       204  14  7.884327E+05 -2.016800E+04  6.195547E+04 -1.349772E+03 -2.239552E-09  1.663566E-10
       204  15  8.090812E+05  1.116104E+05  1.430005E+05 -1.893022E+04  1.501728E-10 -4.958347E-10
       204  16  4.953963E+05 -8.314607E+04 -3.691804E+04 -3.152860E+04 -7.658956E-10  6.170724E-10
       204  17  4.389465E+05 -1.070122E+05 -2.306116E+04  6.181197E+03  1.450558E-09 -4.959388E-10
       204  18  4.233741E+05  1.547177E+04  4.744564E+04  8.822152E+03  1.823394E-11  5.726476E-10
       204  19  1.122968E+06  7.285986E+04  1.160029E+05 -6.137006E+03  2.849505E+04  7.677833E+03
       204  20  1.138035E+06  6.666870E+04  1.469714E+05 -8.884523E+03  6.502208E+04  9.206949E+03
       204  21  1.194936E+06  2.077436E+05  2.385641E+05 -4.669960E+04  1.015560E+05  3.242836E+03
       204  22  8.091375E+05 -5.139606E+03  3.954701E+04 -1.883591E+04  3.050776E+04  7.678138E+03
       204  23  7.884371E+05 -2.016680E+04  6.196335E+04 -1.349296E+03  6.413728E+04  9.207553E+03
       204  24  8.090915E+05  1.116130E+05  1.430185E+05 -1.892997E+04  9.777147E+04  3.244263E+03
       204  25  4.953975E+05 -8.314572E+04 -3.691594E+04 -3.152840E+04  3.251945E+04  7.678361E+03
       204  26  4.389508E+05 -1.070111E+05 -2.305349E+04  6.181666E+03  6.325297E+04  9.208136E+03
       204  27  4.233835E+05  1.547415E+04  4.746225E+04  8.822397E+03  9.398924E+04  3.245354E+03
       205   1  7.322906E+05  2.168815E+06  7.049033E+05 -8.054859E+05  2.650182E+04  2.308822E+05
       205   2  4.999348E+05  1.519702E+06  4.300598E+05 -7.190000E+05  8.295819E+04  8.619685E+04
       205   3  3.295284E+05  9.046056E+05  2.646368E+05 -7.482963E+05  7.951349E+04 -5.850279E+04
       205   4  8.554482E+04 -4.476302E+05  8.746642E+04 -7.440188E+05  2.727570E+04  5.743279E+04
       205   5  2.851246E+04 -4.535995E+05  4.642190E+04 -6.862883E+05  8.322152E+04  3.395973E+04
       205   6  1.255687E+04 -4.468284E+05  3.086476E+04 -7.443329E+05  7.919147E+04  1.031820E+04
       205   7 -5.616622E+05 -3.057721E+06 -5.303293E+05 -6.828014E+05  2.801733E+04 -1.152920E+05
       205   8 -4.431383E+05 -2.423160E+06 -3.373898E+05 -6.536767E+05  8.347988E+04 -1.811545E+04
       205   9 -3.045104E+05 -1.796461E+06 -2.029526E+05 -7.403753E+05  7.886987E+04  7.899414E+04
       205  10  7.322755E+05  2.168758E+06  7.048021E+05 -8.054909E+05  1.914855E-10  7.602042E-10
       205  11  4.999255E+05  1.519692E+06  4.300329E+05 -7.190057E+05 -2.350743E-09 -1.882851E-09
       205  12  3.295207E+05  9.046003E+05  2.646185E+05 -7.482926E+05  3.469998E-10 -6.634430E-10
       205  13  8.554313E+04 -4.476339E+05  8.745881E+04 -7.440200E+05  1.247239E-09 -2.338663E-10
       205  14  2.850471E+04 -4.536026E+05  4.640670E+04 -6.862905E+05  3.634823E-10 -1.297840E-09
       205  15  1.255011E+04 -4.468302E+05  3.085278E+04 -7.443335E+05  2.038316E-09  1.013726E-09
       205  16 -5.616666E+05 -3.057735E+06 -5.303559E+05 -6.827988E+05  1.795771E-09 -5.252633E-11
       205  17 -4.431458E+05 -2.423162E+06 -3.374035E+05 -6.536754E+05  3.606183E-09  1.970592E-09
       205  18 -3.045188E+05 -1.796470E+06 -2.029760E+05 -7.403803E+05 -1.135113E-09  8.134546E-10
       205  19  7.322906E+05  2.168815E+06  7.049033E+05 -8.054859E+05 -2.650182E+04 -2.308822E+05
       205  20  4.999348E+05  1.519702E+06  4.300598E+05 -7.190000E+05 -8.295819E+04 -8.619685E+04
       205  21  3.295284E+05  9.046056E+05  2.646368E+05 -7.482963E+05 -7.951349E+04  5.850279E+04
       205  22  8.554482E+04 -4.476302E+05  8.746642E+04 -7.440188E+05 -2.727570E+04 -5.743279E+04
       205  23  2.851246E+04 -4.535995E+05  4.642190E+04 -6.862883E+05 -8.322152E+04 -3.395973E+04
       205  24  1.255687E+04 -4.468284E+05  3.086476E+04 -7.443329E+05 -7.919147E+04 -1.031820E+04
       205  25 -5.616622E+05 -3.057721E+06 -5.303293E+05 -6.828014E+05 -2.801733E+04  1.152920E+05
       205  26 -4.431383E+05 -2.423160E+06 -3.373898E+05 -6.536767E+05 -8.347988E+04  1.811545E+04
       205  27 -3.045104E+05 -1.796461E+06 -2.029526E+05 -7.403753E+05 -7.886987E+04 -7.899414E+04
       206   1  2.341425E+05  4.998765E+05  1.900095E+05 -7.520095E+05  5.739220E+04 -6.188599E+04
       206   2  8.288103E+04 -1.336264E+05  7.725624E+04 -6.854367E+05  2.322388E+04 -7.910128E+04
       206   3 -5.847842E+04 -7.630718E+05 -2.212795E+04 -7.386106E+05 -1.247266E+04 -9.631317E+04
       206   4  1.191610E+04 -4.487918E+05  2.776497E+04 -7.451938E+05  5.706149E+04  5.648419E+03
       206   5  9.688342E+03 -4.502880E+05  2.801883E+04 -6.853107E+05  2.287151E+04 -8.508843E+03
       206   6  1.684950E+04 -4.486552E+05  3.951212E+04 -7.451719E+05 -1.284731E+04 -2.267896E+04
       206   7 -2.103557E+05 -1.396566E+06 -1.344924E+05 -7.383873E+05  5.673193E+04  7.308294E+04
       206   8 -6.350658E+04 -7.668387E+05 -2.120217E+04 -6.851846E+05  2.251905E+04  6.204894E+04
       206   9  9.217449E+04 -1.341320E+05  1.011678E+05 -7.517365E+05 -1.322341E+04  5.099176E+04
       206  10  2.341379E+05  4.998715E+05  1.899961E+05 -7.520067E+05 -6.939573E-10  3.351357E-09
       206  11  8.287878E+04 -1.336332E+05  7.724348E+04 -6.854352E+05 -3.735345E-10 -1.509145E-09
       206  12 -5.848108E+04 -7.630819E+05 -2.214570E+04 -7.386115E+05  4.702537E-10 -1.251587E-09
       206  13  1.191259E+04 -4.487927E+05  2.775879E+04 -7.451941E+05  7.986815E-11  7.658015E-10
       206  14  9.687761E+03 -4.502882E+05  2.801772E+04 -6.853105E+05 -3.173024E-09 -1.406783E-09
       206  15  1.684918E+04 -4.486558E+05  3.951084E+04 -7.451722E+05 -4.960180E-10  1.206182E-09
       206  16 -2.103606E+05 -1.396572E+06 -1.345085E+05 -7.383907E+05  3.104512E-10 -1.817471E-09
       206  17 -6.350816E+04 -7.668430E+05 -2.121038E+04 -6.851857E+05 -1.405271E-09  1.109048E-10
       206  18  9.217361E+04 -1.341349E+05  1.011626E+05 -7.517360E+05  2.125699E-10  7.255998E-10
       206  19  2.341425E+05  4.998765E+05  1.900095E+05 -7.520095E+05 -5.739220E+04  6.188599E+04
       206  20  8.288103E+04 -1.336264E+05  7.725624E+04 -6.854367E+05 -2.322388E+04  7.910128E+04
       206  21 -5.847842E+04 -7.630718E+05 -2.212795E+04 -7.386106E+05  1.247266E+04  9.631317E+04
       206  22  1.191610E+04 -4.487918E+05  2.776497E+04 -7.451938E+05 -5.706149E+04 -5.648419E+03
       206  23  9.688342E+03 -4.502880E+05  2.801883E+04 -6.853107E+05 -2.287151E+04  8.508843E+03
       206  24  1.684950E+04 -4.486552E+05  3.951212E+04 -7.451719E+05  1.284731E+04  2.267896E+04
       206  25 -2.103557E+05 -1.396566E+06 -1.344924E+05 -7.383873E+05 -5.673193E+04 -7.308294E+04
       206  26 -6.350658E+04 -7.668387E+05 -2.120217E+04 -6.851846E+05 -2.251905E+04 -6.204894E+04
       206  27  9.217449E+04 -1.341320E+05  1.011678E+05 -7.517365E+05  1.322341E+04 -5.099176E+04
       207   1 -1.510343E+05 -1.159858E+06 -8.188156E+04 -7.437795E+05 -3.586893E+04 -1.040101E+05
       207   2 -2.709827E+05 -1.794792E+06 -1.834115E+05 -6.307719E+05 -5.006734E+04 -5.482959E+04
       207   3 -3.289464E+05 -2.421048E+06 -3.017390E+05 -6.346015E+05 -1.804212E+04 -5.549907E+03
       207   4  1.853411E+04 -4.440079E+05  4.945763E+04 -7.445616E+05 -3.624271E+04 -2.949162E+04
       207   5  5.142658E+04 -4.564653E+05  8.564895E+04 -6.858591E+05 -4.996518E+04 -7.335313E+04
       207   6  1.623965E+05 -4.445315E+05  1.696851E+05 -7.439233E+05 -1.751855E+04 -1.170675E+05
       207   7  1.880764E+05  2.723523E+05  1.807968E+05 -7.453438E+05 -3.661641E+04  4.511068E+04
       207   8  3.737358E+05  8.835803E+05  3.546206E+05 -7.410649E+05 -4.985986E+04 -9.191577E+04
       207   9  6.535058E+05  1.535629E+06  6.408870E+05 -8.535899E+05 -1.695662E+04 -2.289391E+05
       207  10 -1.510386E+05 -1.159870E+06 -8.190437E+04 -7.437825E+05  1.132366E-09  4.713559E-09
       207  11 -2.709862E+05 -1.794796E+06 -1.834219E+05 -6.307741E+05  1.594421E-09 -9.791699E-10
       207  12 -3.289467E+05 -2.421048E+06 -3.017396E+05 -6.346016E+05  6.083719E-10 -3.239013E-09
       207  13  1.853246E+04 -4.440092E+05  4.945352E+04 -7.445625E+05  1.380168E-09  8.448774E-10
       207  14  5.142245E+04 -4.564718E+05  8.563412E+04 -6.858621E+05 -3.596445E-09 -1.588381E-09
       207  15  1.623925E+05 -4.445463E+05  1.696587E+05 -7.439250E+05  6.666093E-10  1.782333E-10
       207  16  1.880744E+05  2.723498E+05  1.807904E+05 -7.453425E+05 -4.141126E-10 -3.553029E-09
       207  17  3.737309E+05  8.835706E+05  3.546001E+05 -7.410686E+05  1.922412E-09 -4.985183E-10
       207  18  6.534914E+05  1.535573E+06  6.407882E+05 -8.535930E+05  1.520407E-09  2.908313E-09
       207  19 -1.510343E+05 -1.159858E+06 -8.188156E+04 -7.437795E+05  3.586893E+04  1.040101E+05
       207  20 -2.709827E+05 -1.794792E+06 -1.834115E+05 -6.307719E+05  5.006734E+04  5.482959E+04
       207  21 -3.289464E+05 -2.421048E+06 -3.017390E+05 -6.346015E+05  1.804212E+04  5.549907E+03
       207  22  1.853411E+04 -4.440079E+05  4.945763E+04 -7.445616E+05  3.624271E+04  2.949162E+04
       207  23  5.142658E+04 -4.564653E+05  8.564895E+04 -6.858591E+05  4.996518E+04  7.335313E+04
       207  24  1.623965E+05 -4.445315E+05  1.696851E+05 -7.439233E+05  1.751855E+04  1.170675E+05
       207  25  1.880764E+05  2.723523E+05  1.807968E+05 -7.453438E+05  3.661641E+04 -4.511068E+04
       207  26  3.737358E+05  8.835803E+05  3.546206E+05 -7.410649E+05  4.985986E+04  9.191577E+04
       207  27  6.535058E+05  1.535629E+06  6.408870E+05 -8.535899E+05  1.695662E+04  2.289391E+05
       208   1 -2.847139E+06 -1.091271E+06 -5.765661E+05 -1.042114E+06 -1.967810E+05 -3.314781E+04
       208   2 -2.654549E+06 -1.024104E+06 -4.294441E+05 -9.826963E+05 -1.281556E+05  9.003225E+04
       208   3 -2.448589E+06 -9.805190E+05 -3.565224E+05 -9.571140E+05 -3.665381E+04  1.529267E+05
       208   4 -3.714193E+05 -1.878824E+05  5.186035E+04 -3.905706E+05  1.999421E+04  4.875631E+04
       208   5 -3.920602E+05 -2.071646E+05  2.436720E+04 -3.661193E+05 -2.468262E+04  1.290355E+05
       208   6 -3.768207E+05 -2.275275E+05  1.278419E+04 -3.755103E+05 -4.656667E+04  1.491327E+05
       208   7  2.110311E+06  7.158267E+05  6.799745E+05  2.633002E+05  2.377134E+05  1.309924E+05
       208   8  1.875723E+06  6.101846E+05  4.779704E+05  2.525275E+05  7.919631E+04  1.681866E+05
       208   9  1.699525E+06  5.258997E+05  3.819590E+05  2.079227E+05 -5.651523E+04  1.453253E+05
       208  10 -2.847181E+06 -1.091283E+06 -5.766413E+05 -1.042119E+06 -1.126980E-09  6.427742E-11
       208  11 -2.654569E+06 -1.024117E+06 -4.294902E+05 -9.826870E+05 -7.402071E-13  1.002017E-09
       208  12 -2.448597E+06 -9.805445E+05 -3.565689E+05 -9.571095E+05  2.259636E-09  1.626662E-09
       208  13 -3.714203E+05 -1.878851E+05  5.185513E+04 -3.905714E+05  9.863320E-10  3.282206E-09
       208  14 -3.920653E+05 -2.071826E+05  2.433477E+04 -3.661168E+05  4.147219E-09 -2.168774E-09
       208  15 -3.768290E+05 -2.275520E+05  1.273833E+04 -3.755047E+05  2.282704E-09  4.003899E-10
       208  16  2.110246E+06  7.157932E+05  6.798364E+05  2.632752E+05  1.570409E-09  1.021542E-10
       208  17  1.875709E+06  6.101525E+05  4.779055E+05  2.525167E+05  1.865801E-09  8.544520E-10
       208  18  1.699516E+06  5.258762E+05  3.819133E+05  2.079293E+05 -2.334866E-09 -1.162125E-10
       208  19 -2.847139E+06 -1.091271E+06 -5.765661E+05 -1.042114E+06  1.967810E+05  3.314781E+04
       208  20 -2.654549E+06 -1.024104E+06 -4.294441E+05 -9.826963E+05  1.281556E+05 -9.003225E+04
       208  21 -2.448589E+06 -9.805190E+05 -3.565224E+05 -9.571140E+05  3.665381E+04 -1.529267E+05
       208  22 -3.714193E+05 -1.878824E+05  5.186035E+04 -3.905706E+05 -1.999421E+04 -4.875631E+04
       208  23 -3.920602E+05 -2.071646E+05  2.436720E+04 -3.661193E+05  2.468262E+04 -1.290355E+05
       208  24 -3.768207E+05 -2.275275E+05  1.278419E+04 -3.755103E+05  4.656667E+04 -1.491327E+05
       208  25  2.110311E+06  7.158267E+05  6.799745E+05  2.633002E+05 -2.377134E+05 -1.309924E+05
       208  26  1.875723E+06  6.101846E+05  4.779704E+05  2.525275E+05 -7.919631E+04 -1.681866E+05
       208  27  1.699525E+06  5.258997E+05  3.819590E+05  2.079227E+05  5.651523E+04 -1.453253E+05
       209   1 -2.327091E+06 -9.332654E+05 -3.318476E+05 -9.218087E+05 -4.119695E+04  1.459266E+05
       209   2 -2.150838E+06 -8.502585E+05 -2.916487E+05 -8.531644E+05 -3.032989E+04  1.435243E+05
       209   3 -1.947625E+06 -7.957546E+05 -2.579778E+05 -8.164987E+05 -1.723340E+04  1.351707E+05
       209   4 -3.775293E+05 -2.283544E+05  9.542151E+03 -3.768536E+05 -4.626447E+04  1.439646E+05
       209   5 -3.921041E+05 -2.160832E+05  4.946477E+03 -3.604828E+05 -4.659334E+04  1.373571E+05
       209   6 -3.775382E+05 -2.300896E+05  2.713488E+03 -3.760974E+05 -4.469918E+04  1.248069E+05
       209   7  1.576066E+06  4.769278E+05  3.508149E+05  1.697048E+05 -5.134913E+04  1.419963E+05
       209   8  1.369923E+06  4.183996E+05  3.014595E+05  1.335074E+05 -6.290590E+04  1.311715E+05
       209   9  1.195171E+06  3.358206E+05  2.633437E+05  6.534719E+04 -7.223865E+04  1.144154E+05
       209  10 -2.327099E+06 -9.332887E+05 -3.318908E+05 -9.218038E+05  4.554708E-09  2.642719E-09
       209  11 -2.150845E+06 -8.502808E+05 -2.916891E+05 -8.531609E+05  4.889459E-09  1.301305E-09
       209  12 -1.947631E+06 -7.957743E+05 -2.580127E+05 -8.164969E+05 -2.173125E-09  2.747372E-09
       209  13 -3.775372E+05 -2.283772E+05  9.499192E+03 -3.768483E+05  2.545121E-09 -1.293110E-09
       209  14 -3.921115E+05 -2.161040E+05  4.906953E+03 -3.604777E+05  1.015864E-09 -2.438213E-09
       209  15 -3.775445E+05 -2.301069E+05  2.680471E+03 -3.760929E+05 -5.379062E-10  7.329244E-10
       209  16  1.576057E+06  4.769054E+05  3.507721E+05  1.697106E+05 -3.523164E-09 -2.269697E-09
       209  17  1.369914E+06  4.183801E+05  3.014197E+05  1.335140E+05 -9.293311E-10 -3.682369E-09
       209  18  1.195162E+06  3.358051E+05  2.633093E+05  6.535384E+04  5.297940E-10  1.455895E-10
       209  19 -2.327091E+06 -9.332654E+05 -3.318476E+05 -9.218087E+05  4.119695E+04 -1.459266E+05
       209  20 -2.150838E+06 -8.502585E+05 -2.916487E+05 -8.531644E+05  3.032989E+04 -1.435243E+05
       209  21 -1.947625E+06 -7.957546E+05 -2.579778E+05 -8.164987E+05  1.723340E+04 -1.351707E+05
       209  22 -3.775293E+05 -2.283544E+05  9.542151E+03 -3.768536E+05  4.626447E+04 -1.439646E+05
       209  23 -3.921041E+05 -2.160832E+05  4.946477E+03 -3.604828E+05  4.659334E+04 -1.373571E+05
       209  24 -3.775382E+05 -2.300896E+05  2.713488E+03 -3.760974E+05  4.469918E+04 -1.248069E+05
       209  25  1.576066E+06  4.769278E+05  3.508149E+05  1.697048E+05  5.134913E+04 -1.419963E+05
       209  26  1.369923E+06  4.183996E+05  3.014595E+05  1.335074E+05  6.290590E+04 -1.311715E+05
       209  27  1.195171E+06  3.358206E+05  2.633437E+05  6.534719E+04  7.223865E+04 -1.144154E+05
       210   1 -1.826574E+06 -7.515375E+05 -2.371964E+05 -7.824870E+05 -1.480230E+04  1.262069E+05
       210   2 -1.651002E+06 -6.687041E+05 -2.060943E+05 -7.130939E+05 -8.690856E+03  1.117817E+05
       210   3 -1.447092E+06 -6.141747E+05 -1.754042E+05 -6.758872E+05 -2.370290E+03  9.675896E+04
       210   4 -3.775523E+05 -2.300617E+05  2.015259E+03 -3.762780E+05 -4.181102E+04  1.160252E+05
       210   5 -3.916971E+05 -2.158465E+05  1.059924E+03 -3.602059E+05 -3.682557E+04  1.011917E+05
       210   6 -3.773291E+05 -2.297152E+05  5.778087E+02 -3.763321E+05 -3.163147E+04  8.576120E+04
       210   7  1.073736E+06  2.916351E+05  2.411856E+05  3.082773E+04 -6.888715E+04  1.058182E+05
       210   8  8.693163E+05  2.371764E+05  2.081833E+05 -6.642117E+03 -6.502115E+04  9.057879E+04
       210   9  6.936620E+05  1.548617E+05  1.765374E+05 -7.629105E+04 -6.094627E+04  7.474331E+04
       210  10 -1.826578E+06 -7.515546E+05 -2.372268E+05 -7.824855E+05  2.432994E-08  1.134211E-08
       210  11 -1.651006E+06 -6.687175E+05 -2.061179E+05 -7.130931E+05 -4.524824E-10 -3.159168E-09
       210  12 -1.447095E+06 -6.141848E+05 -1.754218E+05 -6.758870E+05 -3.544957E-08 -1.886761E-08
       210  13 -3.775578E+05 -2.300767E+05  1.986684E+03 -3.762741E+05  1.530160E-09  3.573140E-09
       210  14 -3.917013E+05 -2.158579E+05  1.038139E+03 -3.602029E+05 -8.879711E-10  7.905639E-09
       210  15 -3.773322E+05 -2.297233E+05  5.621114E+02 -3.763299E+05 -9.492709E-09  9.933086E-09
       210  16  1.073728E+06  2.916219E+05  2.411557E+05  3.083359E+04 -2.339453E-08 -8.414483E-09
       210  17  8.693095E+05  2.371664E+05  2.081599E+05 -6.637377E+03  3.633371E-09 -1.429009E-09
       210  18  6.936565E+05  1.548547E+05  1.765199E+05 -7.628738E+04  2.738299E-08  3.711657E-09
       210  19 -1.826574E+06 -7.515375E+05 -2.371964E+05 -7.824870E+05  1.480230E+04 -1.262069E+05
       210  20 -1.651002E+06 -6.687041E+05 -2.060943E+05 -7.130939E+05  8.690856E+03 -1.117817E+05
       210  21 -1.447092E+06 -6.141747E+05 -1.754042E+05 -6.758872E+05  2.370290E+03 -9.675896E+04
       210  22 -3.775523E+05 -2.300617E+05  2.015259E+03 -3.762780E+05  4.181102E+04 -1.160252E+05
       210  23 -3.916971E+05 -2.158465E+05  1.059924E+03 -3.602059E+05  3.682557E+04 -1.011917E+05
       210  24 -3.773291E+05 -2.297152E+05  5.778087E+02 -3.763321E+05  3.163147E+04 -8.576120E+04
       210  25  1.073736E+06  2.916351E+05  2.411856E+05  3.082773E+04  6.888715E+04 -1.058182E+05
       210  26  8.693163E+05  2.371764E+05  2.081833E+05 -6.642117E+03  6.502115E+04 -9.057879E+04
       210  27  6.936620E+05  1.548617E+05  1.765374E+05 -7.629105E+04  6.094627E+04 -7.474331E+04
       211   1 -1.325857E+06 -5.703063E+05 -1.547095E+05 -6.419863E+05  9.198195E+02  8.765562E+04
       211   2 -1.149861E+06 -4.877366E+05 -1.241223E+05 -5.725442E+05  6.799922E+03  7.212341E+04
       211   3 -9.454949E+05 -4.334279E+05 -9.354406E+04 -5.354130E+05  1.269360E+04  5.652861E+04
       211   4 -3.772988E+05 -2.296482E+05  4.076239E+02 -3.763757E+05 -2.831092E+04  7.667663E+04
       211   5 -3.914070E+05 -2.153906E+05  1.554726E+02 -3.602438E+05 -2.255070E+04  6.110882E+04
       211   6 -3.771622E+05 -2.293734E+05 -1.575723E+01 -3.764361E+05 -1.677689E+04  4.547834E+04
       211   7  5.722152E+05  1.110984E+05  1.555056E+05 -1.103859E+05 -5.758879E+04  6.567994E+04
       211   8  3.676650E+05  5.701463E+04  1.244240E+05 -1.476992E+05 -5.193940E+04  5.007992E+04
       211   9  1.915243E+05 -2.528317E+04  9.351056E+04 -2.173202E+05 -4.627634E+04  3.441720E+04
       211  10 -1.325859E+06 -5.703145E+05 -1.547240E+05 -6.419863E+05  2.377096E-08  4.471427E-09
       211  11 -1.149862E+06 -4.877422E+05 -1.241322E+05 -5.725446E+05  8.598207E-10  8.968499E-10
       211  12 -9.454959E+05 -4.334313E+05 -9.355037E+04 -5.354136E+05 -1.885676E-08 -6.704678E-09
       211  13 -3.773013E+05 -2.296548E+05  3.950728E+02 -3.763740E+05 -9.549972E-09  9.990289E-09
       211  14 -3.914086E+05 -2.153947E+05  1.475018E+02 -3.602427E+05  3.569485E-09  8.013731E-09
       211  15 -3.771631E+05 -2.293757E+05 -2.017162E+01 -3.764355E+05  1.377197E-08  4.894622E-09
       211  16  5.722105E+05  1.110929E+05  1.554912E+05 -1.103829E+05 -3.282620E-08 -1.993700E-08
       211  17  3.676615E+05  5.701121E+04  1.244142E+05 -1.476971E+05  3.257918E-09 -4.589213E-09
       211  18  1.915217E+05 -2.528502E+04  9.350431E+04 -2.173189E+05  3.600093E-08  1.180276E-08
       211  19 -1.325857E+06 -5.703063E+05 -1.547095E+05 -6.419863E+05 -9.198195E+02 -8.765562E+04
       211  20 -1.149861E+06 -4.877366E+05 -1.241223E+05 -5.725442E+05 -6.799922E+03 -7.212341E+04
       211  21 -9.454949E+05 -4.334279E+05 -9.354406E+04 -5.354130E+05 -1.269360E+04 -5.652861E+04
       211  22 -3.772988E+05 -2.296482E+05  4.076239E+02 -3.763757E+05  2.831092E+04 -7.667663E+04
       211  23 -3.914070E+05 -2.153906E+05  1.554726E+02 -3.602438E+05  2.255070E+04 -6.110882E+04
       211  24 -3.771622E+05 -2.293734E+05 -1.575723E+01 -3.764361E+05  1.677689E+04 -4.547834E+04
       211  25  5.722152E+05  1.110984E+05  1.555056E+05 -1.103859E+05  5.758879E+04 -6.567994E+04
       211  26  3.676650E+05  5.701463E+04  1.244240E+05 -1.476992E+05  5.193940E+04 -5.007992E+04
       211  27  1.915243E+05 -2.528317E+04  9.351056E+04 -2.173202E+05  4.627634E+04 -3.441720E+04
       212   1 -8.240414E+05 -3.896420E+05 -7.281204E+04 -5.015261E+05  1.612407E+04  4.743002E+04
       212   2 -6.477480E+05 -3.072063E+05 -4.228375E+04 -4.320728E+05  2.210480E+04  3.185326E+04
       212   3 -4.431386E+05 -2.530330E+05 -1.183808E+04 -3.949879E+05  2.807239E+04  1.630201E+04
       212   4 -3.771478E+05 -2.293358E+05 -1.081743E+02 -3.764541E+05 -1.335443E+04  3.638042E+04
       212   5 -3.912565E+05 -2.151446E+05 -3.365097E+02 -3.602756E+05 -7.329083E+03  2.082357E+04
       212   6 -3.770986E+05 -2.292283E+05 -6.865563E+02 -3.764796E+05 -1.316927E+03  5.292230E+03
       212   7  6.996164E+04 -6.900856E+04  7.259505E+04 -2.512970E+05 -4.285542E+04  2.532236E+04
       212   8 -1.346941E+05 -1.230760E+05  4.161257E+04 -2.884504E+05 -3.677570E+04  9.789091E+03
       212   9 -3.110527E+05 -2.054227E+05  1.046835E+04 -3.579691E+05 -3.070924E+04 -5.718683E+03
       212  10 -8.240423E+05 -3.896445E+05 -7.281676E+04 -5.015267E+05  1.070817E-08  1.771331E-09
       212  11 -6.477488E+05 -3.072075E+05 -4.228658E+04 -4.320734E+05  4.756610E-09 -2.411098E-09
       212  12 -4.431395E+05 -2.530335E+05 -1.184006E+04 -3.949883E+05 -7.496456E-10 -3.673971E-09
       212  13 -3.771483E+05 -2.293373E+05 -1.109958E+02 -3.764537E+05  1.215117E-08  2.631371E-09
       212  14 -3.912566E+05 -2.151451E+05 -3.374253E+02 -3.602755E+05  4.357885E-09  7.289803E-11
       212  15 -3.770986E+05 -2.292283E+05 -6.866122E+02 -3.764796E+05 -5.599535E-09 -2.508140E-09
       212  16  6.995950E+04 -6.900974E+04  7.259040E+04 -2.512962E+05  5.441909E-09  3.567339E-09
       212  17 -1.346955E+05 -1.230765E+05  4.160984E+04 -2.884501E+05 -6.536200E-10  2.230112E-09
       212  18 -3.110537E+05 -2.054230E+05  1.046651E+04 -3.579692E+05 -9.142682E-09 -1.548658E-09
       212  19 -8.240414E+05 -3.896420E+05 -7.281204E+04 -5.015261E+05 -1.612407E+04 -4.743002E+04
       212  20 -6.477480E+05 -3.072063E+05 -4.228375E+04 -4.320728E+05 -2.210480E+04 -3.185326E+04
       212  21 -4.431386E+05 -2.530330E+05 -1.183808E+04 -3.949879E+05 -2.807239E+04 -1.630201E+04
       212  22 -3.771478E+05 -2.293358E+05 -1.081743E+02 -3.764541E+05  1.335443E+04 -3.638042E+04
       212  23 -3.912565E+05 -2.151446E+05 -3.365097E+02 -3.602756E+05  7.329083E+03 -2.082357E+04
       212  24 -3.770986E+05 -2.292283E+05 -6.865563E+02 -3.764796E+05  1.316927E+03 -5.292230E+03
       212  25  6.996164E+04 -6.900856E+04  7.259505E+04 -2.512970E+05  4.285542E+04 -2.532236E+04
       212  26 -1.346941E+05 -1.230760E+05  4.161257E+04 -2.884504E+05  3.677570E+04 -9.789091E+03
       212  27 -3.110527E+05 -2.054227E+05  1.046835E+04 -3.579691E+05  3.070924E+04  5.718683E+03
       213   1 -3.215587E+05 -2.092839E+05  8.771918E+03 -3.610998E+05  3.164123E+04  7.277428E+03
       213   2 -1.451830E+05 -1.269053E+05  3.897804E+04 -2.916037E+05  3.764161E+04 -8.057400E+03
       213   3  5.946900E+04 -7.279199E+04  6.902197E+04 -2.544525E+05  4.351340E+04 -2.304157E+04
       213   4 -3.771294E+05 -2.292190E+05 -9.397641E+02 -3.764892E+05  2.221221E+03 -3.743809E+03
       213   5 -3.912122E+05 -2.151235E+05 -1.754141E+03 -3.602755E+05  8.877127E+03 -1.883608E+04
       213   6 -3.771921E+05 -2.294307E+05 -3.254283E+03 -3.764244E+05  1.540435E+04 -3.357761E+04
       213   7 -4.326955E+05 -2.491532E+05 -1.064800E+04 -3.918770E+05 -2.719631E+04 -1.476413E+04
       213   8 -6.371764E+05 -3.033356E+05 -4.248462E+04 -4.289216E+05 -1.987542E+04 -2.961030E+04
       213   9 -8.136480E+05 -3.860497E+05 -7.553174E+04 -4.983154E+05 -1.268373E+04 -4.410580E+04
       213  10 -3.215598E+05 -2.092843E+05  8.769936E+03 -3.611000E+05 -7.378090E-09 -4.317402E-09
       213  11 -1.451845E+05 -1.269057E+05  3.897526E+04 -2.916035E+05 -9.617789E-09 -2.504089E-09
       213  12  5.946682E+04 -7.279307E+04  6.901742E+04 -2.544517E+05 -6.930022E-09 -4.531698E-10
       213  13 -3.771294E+05 -2.292190E+05 -9.397997E+02 -3.764892E+05 -9.963828E-09 -3.384374E-09
       213  14 -3.912124E+05 -2.151239E+05 -1.754956E+03 -3.602753E+05 -7.609801E-09 -1.797240E-09
       213  15 -3.771926E+05 -2.294320E+05 -3.256846E+03 -3.764240E+05 -3.159290E-09 -4.855826E-10
       213  16 -4.326964E+05 -2.491536E+05 -1.064981E+04 -3.918773E+05 -8.546654E-09 -1.837678E-09
       213  17 -6.371770E+05 -3.033366E+05 -4.248702E+04 -4.289221E+05 -5.455371E-09 -2.195664E-09
       213  18 -8.136487E+05 -3.860519E+05 -7.553570E+04 -4.983159E+05  1.676689E-09 -7.210869E-10
       213  19 -3.215587E+05 -2.092839E+05  8.771918E+03 -3.610998E+05 -3.164123E+04 -7.277428E+03
       213  20 -1.451830E+05 -1.269053E+05  3.897804E+04 -2.916037E+05 -3.764161E+04  8.057400E+03
       213  21  5.946900E+04 -7.279199E+04  6.902197E+04 -2.544525E+05 -4.351340E+04  2.304157E+04
       213  22 -3.771294E+05 -2.292190E+05 -9.397641E+02 -3.764892E+05 -2.221221E+03  3.743809E+03
       213  23 -3.912122E+05 -2.151235E+05 -1.754141E+03 -3.602755E+05 -8.877127E+03  1.883608E+04
       213  24 -3.771921E+05 -2.294307E+05 -3.254283E+03 -3.764244E+05 -1.540435E+04  3.357761E+04
       213  25 -4.326955E+05 -2.491532E+05 -1.064800E+04 -3.918770E+05  2.719631E+04  1.476413E+04
       213  26 -6.371764E+05 -3.033356E+05 -4.248462E+04 -4.289216E+05  1.987542E+04  2.961030E+04
       213  27 -8.136480E+05 -3.860497E+05 -7.553174E+04 -4.983154E+05  1.268373E+04  4.410580E+04
       214   1  1.812091E+05 -2.910831E+04  8.915973E+04 -2.207415E+05  4.770919E+04 -3.155676E+04
       214   2  3.566197E+05  5.365289E+04  1.193250E+05 -1.502118E+05  5.005038E+04 -4.580666E+04
       214   3  5.601209E+05  1.073008E+05  1.511573E+05 -1.113392E+05  5.106573E+04 -5.650812E+04
       214   4 -3.774604E+05 -2.294310E+05 -4.351955E+03 -3.764534E+05  1.931495E+04 -4.220311E+04
       214   5 -3.911466E+05 -2.161521E+05 -8.041340E+03 -3.599087E+05  2.834848E+04 -5.395217E+04
       214   6 -3.781047E+05 -2.333190E+05 -1.536751E+04 -3.750384E+05  3.605609E+04 -6.215006E+04
       214   7 -9.357894E+05 -4.297199E+05 -9.786637E+04 -5.320320E+05 -9.051874E+03 -5.283922E+04
       214   8 -1.138318E+06 -4.859006E+05 -1.354209E+05 -5.693687E+05  6.674348E+03 -6.208721E+04
       214   9 -1.315411E+06 -5.738555E+05 -1.819228E+05 -6.383676E+05  2.107044E+04 -6.778291E+04
       214  10  1.812064E+05 -2.910999E+04  8.915359E+04 -2.207403E+05 -3.121581E-09  3.617579E-10
       214  11  3.566165E+05  5.364997E+04  1.193163E+05 -1.502100E+05  6.206076E-09  2.458036E-09
       214  12  5.601173E+05  1.072966E+05  1.511464E+05 -1.113369E+05  7.958023E-09  5.366099E-10
       214  13 -3.774613E+05 -2.294330E+05 -4.356001E+03 -3.764527E+05  4.723612E-09  9.423415E-10
       214  14 -3.911482E+05 -2.161554E+05 -8.048318E+03 -3.599075E+05  5.323551E-09  2.710922E-09
       214  15 -3.781072E+05 -2.333235E+05 -1.537721E+04 -3.750366E+05  2.886424E-09  8.995409E-10
       214  16 -9.357902E+05 -4.297230E+05 -9.787177E+04 -5.320324E+05  9.108756E-09  1.888645E-09
       214  17 -1.138319E+06 -4.859047E+05 -1.354283E+05 -5.693684E+05  6.277118E-09  3.193452E-09
       214  18 -1.315413E+06 -5.738606E+05 -1.819323E+05 -6.383665E+05 -3.745058E-09  1.176280E-09
       214  19  1.812091E+05 -2.910831E+04  8.915973E+04 -2.207415E+05 -4.770919E+04  3.155676E+04
       214  20  3.566197E+05  5.365289E+04  1.193250E+05 -1.502118E+05 -5.005038E+04  4.580666E+04
       214  21  5.601209E+05  1.073008E+05  1.511573E+05 -1.113392E+05 -5.106573E+04  5.650812E+04
       214  22 -3.774604E+05 -2.294310E+05 -4.351955E+03 -3.764534E+05 -1.931495E+04  4.220311E+04
       214  23 -3.911466E+05 -2.161521E+05 -8.041340E+03 -3.599087E+05 -2.834848E+04  5.395217E+04
       214  24 -3.781047E+05 -2.333190E+05 -1.536751E+04 -3.750384E+05 -3.605609E+04  6.215006E+04
       214  25 -9.357894E+05 -4.297199E+05 -9.786637E+04 -5.320320E+05  9.051874E+03  5.283922E+04
       214  26 -1.138318E+06 -4.859006E+05 -1.354209E+05 -5.693687E+05 -6.674348E+03  6.208721E+04
       214  27 -1.315411E+06 -5.738555E+05 -1.819228E+05 -6.383676E+05 -2.107044E+04  6.778291E+04
       215   1  6.838448E+05  1.496052E+05  1.710669E+05 -8.055120E+04  5.871587E+04 -6.099066E+04
       215   2  8.425110E+05  2.384393E+05  2.151193E+05  1.098974E+04  7.992406E+03 -7.030965E+04
       215   3  1.024549E+06  2.775360E+05  2.877564E+05  8.160629E+04 -5.628776E+04 -4.365755E+04
       215   4 -3.808869E+05 -2.334301E+05 -2.054854E+04 -3.753723E+05  4.078321E+04 -6.773371E+04
       215   5 -3.904047E+05 -2.336616E+05 -3.937506E+04 -3.529837E+05  5.805411E+04 -5.152535E+04
       215   6 -3.900685E+05 -2.971445E+05 -8.348896E+04 -3.515376E+05  6.176982E+04  7.003085E+02
       215   7 -1.444433E+06 -6.163634E+05 -2.122036E+05 -6.697254E+05  2.288321E+04 -7.446467E+04
       215   8 -1.621726E+06 -7.055813E+05 -2.939311E+05 -7.162668E+05  1.080082E+05 -3.278586E+04
       215   9 -1.802637E+06 -8.715625E+05 -4.548281E+05 -7.837268E+05  1.795283E+05  4.492430E+04
       215  10  6.838401E+05  1.496003E+05  1.710535E+05 -8.054832E+04  1.807221E-09 -1.673925E-09
       215  11  8.425096E+05  2.384340E+05  2.151099E+05  1.099019E+04 -7.684728E-09 -2.441448E-09
       215  12  1.024546E+06  2.775331E+05  2.877468E+05  8.160431E+04 -7.212195E-09 -1.952145E-09
       215  13 -3.808899E+05 -2.334355E+05 -2.056029E+04 -3.753701E+05 -1.620129E-09 -7.228206E-10
       215  14 -3.904090E+05 -2.336653E+05 -3.938637E+04 -3.529813E+05 -7.018006E-09 -3.433116E-09
       215  15 -3.900726E+05 -2.971455E+05 -8.349613E+04 -3.515376E+05 -3.225996E-09 -1.015883E-09
       215  16 -1.444435E+06 -6.163695E+05 -2.122150E+05 -6.697240E+05 -6.993508E-09 -7.080582E-10
       215  17 -1.621738E+06 -7.055856E+05 -2.939551E+05 -7.162640E+05 -7.092815E-09 -1.616468E-09
       215  18 -1.802673E+06 -8.715733E+05 -4.548927E+05 -7.837333E+05  1.617031E-09  8.298659E-10
       215  19  6.838448E+05  1.496052E+05  1.710669E+05 -8.055120E+04 -5.871587E+04  6.099066E+04
       215  20  8.425110E+05  2.384393E+05  2.151193E+05  1.098974E+04 -7.992406E+03  7.030965E+04
       215  21  1.024549E+06  2.775360E+05  2.877564E+05  8.160629E+04  5.628776E+04  4.365755E+04
       215  22 -3.808869E+05 -2.334301E+05 -2.054854E+04 -3.753723E+05 -4.078321E+04  6.773371E+04
       215  23 -3.904047E+05 -2.336616E+05 -3.937506E+04 -3.529837E+05 -5.805411E+04  5.152535E+04
       215  24 -3.900685E+05 -2.971445E+05 -8.348896E+04 -3.515376E+05 -6.176982E+04 -7.003085E+02
       215  25 -1.444433E+06 -6.163634E+05 -2.122036E+05 -6.697254E+05 -2.288321E+04  7.446467E+04
       215  26 -1.621726E+06 -7.055813E+05 -2.939311E+05 -7.162668E+05 -1.080082E+05  3.278586E+04
       215  27 -1.802637E+06 -8.715625E+05 -4.548281E+05 -7.837268E+05 -1.795283E+05 -4.492430E+04
       216   1 -5.779418E+05 -2.004198E+05 -1.733961E+05 -1.094756E+05 -2.195363E+04  1.617289E+04
       216   2 -4.315101E+05 -2.317835E+05 -1.452759E+05 -1.361588E+05  5.615385E+03  5.387405E+04
       216   3 -2.775919E+05 -2.194947E+05 -1.241926E+05 -1.874183E+05  3.322098E+04  6.375583E+04
       216   4  7.158361E+05  1.183060E+05  1.272365E+05 -1.880172E+05  8.951883E+04  1.624340E+04
       216   5  7.069800E+05  3.759759E+04  6.354046E+04 -1.757088E+05  5.701718E+04  5.388969E+04
       216   6  7.159856E+05  1.091682E+04  3.449946E+04 -1.879689E+05  2.454641E+04  6.374356E+04
       216   7  2.011199E+06  4.369439E+05  4.278065E+05 -2.667237E+05  2.012219E+05  1.628565E+04
       216   8  1.846737E+06  3.069125E+05  2.723147E+05 -2.153333E+05  1.085107E+05  5.389879E+04
       216   9  1.710544E+06  2.412790E+05  1.931660E+05 -1.885203E+05  1.585844E+04  6.373131E+04
       216  10 -5.779424E+05 -2.004202E+05 -1.733975E+05 -1.094753E+05 -1.754879E-09  4.976912E-10
       216  11 -4.315109E+05 -2.317866E+05 -1.452815E+05 -1.361590E+05  2.353080E-09  1.578220E-09
       216  12 -2.775942E+05 -2.194994E+05 -1.242023E+05 -1.874200E+05 -3.770494E-09  1.237842E-09
       216  13  7.158275E+05  1.183036E+05  1.272210E+05 -1.880184E+05  2.561353E-10  9.284434E-10
       216  14  7.069757E+05  3.759360E+04  6.352889E+04 -1.757113E+05 -1.804675E-09  9.894932E-10
       216  15  7.159838E+05  1.091230E+04  3.449068E+04 -1.879702E+05  1.173851E-09  5.152562E-10
       216  16  2.011156E+06  4.369328E+05  4.277302E+05 -2.667264E+05  5.879885E-11  7.096256E-10
       216  17  1.846724E+06  3.069062E+05  2.722871E+05 -2.153380E+05 -7.869589E-10  7.010753E-10
       216  18  1.710543E+06  2.412745E+05  1.931579E+05 -1.885212E+05  2.194299E-09  1.503122E-09
       216  19 -5.779418E+05 -2.004198E+05 -1.733961E+05 -1.094756E+05  2.195363E+04 -1.617289E+04
       216  20 -4.315101E+05 -2.317835E+05 -1.452759E+05 -1.361588E+05 -5.615385E+03 -5.387405E+04
       216  21 -2.775919E+05 -2.194947E+05 -1.241926E+05 -1.874183E+05 -3.322098E+04 -6.375583E+04
       216  22  7.158361E+05  1.183060E+05  1.272365E+05 -1.880172E+05 -8.951883E+04 -1.624340E+04
       216  23  7.069800E+05  3.759759E+04  6.354046E+04 -1.757088E+05 -5.701718E+04 -5.388969E+04
       216  24  7.159856E+05  1.091682E+04  3.449946E+04 -1.879689E+05 -2.454641E+04 -6.374356E+04
       216  25  2.011199E+06  4.369439E+05  4.278065E+05 -2.667237E+05 -2.012219E+05 -1.628565E+04
       216  26  1.846737E+06  3.069125E+05  2.723147E+05 -2.153333E+05 -1.085107E+05 -5.389879E+04
       216  27  1.710544E+06  2.412790E+05  1.931660E+05 -1.885203E+05 -1.585844E+04 -6.373131E+04
       217   1 -1.857208E+05 -1.990774E+05 -1.138230E+05 -1.839400E+05  2.919287E+04  6.031535E+04
       217   2 -3.637101E+04 -1.693999E+05 -9.636837E+04 -1.732263E+05  2.947185E+04  5.439360E+04
       217   3  1.138346E+05 -1.365330E+05 -7.827787E+04 -1.890142E+05  2.974888E+04  4.509526E+04
       217   4  7.125137E+05  8.455298E+03  2.586013E+04 -1.884056E+05  2.007195E+04  6.030476E+04
       217   5  7.115051E+05  2.203557E+03  1.404360E+04 -1.751558E+05  1.304926E+04  5.438497E+04
       217   6  7.125940E+05  4.060282E+02  7.926563E+03 -1.884049E+05  6.024602E+03  4.509071E+04
       217   7  1.611553E+06  2.159487E+05  1.655248E+05 -1.928779E+05  1.093832E+04  6.029430E+04
       217   8  1.459944E+06  1.737811E+05  1.244465E+05 -1.770877E+05 -3.392311E+03  5.437644E+04
       217   9  1.311716E+06  1.373290E+05  9.412752E+04 -1.877949E+05 -1.772159E+04  4.508612E+04
       217  10 -1.857227E+05 -1.990816E+05 -1.138315E+05 -1.839414E+05  1.421164E-10  8.509838E-10
       217  11 -3.637274E+04 -1.694033E+05 -9.637556E+04 -1.732276E+05 -3.702593E-10 -1.678666E-10
       217  12  1.138331E+05 -1.365354E+05 -7.828335E+04 -1.890153E+05  1.900394E-09 -1.585839E-09
       217  13  7.125123E+05  8.451283E+03  2.585253E+04 -1.884066E+05 -7.968811E-10  1.515808E-09
       217  14  7.115042E+05  2.200334E+03  1.403772E+04 -1.751564E+05  9.799687E-10  5.743261E-10
       217  15  7.125934E+05  4.038343E+02  7.922672E+03 -1.884051E+05 -6.787712E-10 -7.891031E-10
       217  16  1.611552E+06  2.159448E+05  1.655177E+05 -1.928784E+05  1.392734E-09  1.098255E-09
       217  17  1.459944E+06  1.737779E+05  1.244409E+05 -1.770875E+05 -1.372794E-09  8.611451E-10
       217  18  1.311715E+06  1.373267E+05  9.412311E+04 -1.877943E+05  3.150573E-10  3.101842E-10
       217  19 -1.857208E+05 -1.990774E+05 -1.138230E+05 -1.839400E+05 -2.919287E+04 -6.031535E+04
       217  20 -3.637101E+04 -1.693999E+05 -9.636837E+04 -1.732263E+05 -2.947185E+04 -5.439360E+04
       217  21  1.138346E+05 -1.365330E+05 -7.827787E+04 -1.890142E+05 -2.974888E+04 -4.509526E+04
       217  22  7.125137E+05  8.455298E+03  2.586013E+04 -1.884056E+05 -2.007195E+04 -6.030476E+04
       217  23  7.115051E+05  2.203557E+03  1.404360E+04 -1.751558E+05 -1.304926E+04 -5.438497E+04
       217  24  7.125940E+05  4.060282E+02  7.926563E+03 -1.884049E+05 -6.024602E+03 -4.509071E+04
       217  25  1.611553E+06  2.159487E+05  1.655248E+05 -1.928779E+05 -1.093832E+04 -6.029430E+04
       217  26  1.459944E+06  1.737811E+05  1.244465E+05 -1.770877E+05  3.392311E+03 -5.437644E+04
       217  27  1.311716E+06  1.373290E+05  9.412752E+04 -1.877949E+05  1.772159E+04 -4.508612E+04
       218   1  2.071697E+05 -1.150443E+05 -6.596405E+04 -1.886012E+05  2.861558E+04  3.857000E+04
       218   2  3.567427E+05 -8.114008E+04 -4.691620E+04 -1.752660E+05  2.782488E+04  2.736033E+04
       218   3  5.065152E+05 -4.705089E+04 -2.729867E+04 -1.886506E+05  2.703183E+04  1.574275E+04
       218   4  7.122210E+05  3.059586E+02  5.991558E+03 -1.884541E+05  4.839572E+03  3.856772E+04
       218   5  7.120737E+05 -5.653755E+01  3.382952E+03 -1.750948E+05  3.163640E+03  2.736064E+04
       218   6  7.122581E+05 -7.958395E+01  1.956585E+03 -1.884543E+05  1.485543E+03  1.574576E+04
       218   7  1.217531E+06  1.156449E+05  7.794557E+04 -1.883069E+05 -1.895494E+04  3.856543E+04
       218   8  1.067534E+06  8.102165E+04  5.368263E+04 -1.749235E+05 -2.151110E+04  2.736094E+04
       218   9  9.180451E+05  4.689016E+04  3.121368E+04 -1.882579E+05 -2.406884E+04  1.574875E+04
       218  10  2.071685E+05 -1.150461E+05 -6.596838E+04 -1.886021E+05 -4.585840E-10 -2.048103E-09
       218  11  3.567417E+05 -8.114109E+04 -4.691906E+04 -1.752666E+05 -6.512711E-10 -1.719341E-09
       218  12  5.065144E+05 -4.705135E+04 -2.730050E+04 -1.886509E+05 -8.616661E-10 -3.049982E-11
       218  13  7.122206E+05  3.043544E+02  5.988718E+03 -1.884543E+05 -1.384440E-09 -1.176650E-09
       218  14  7.120735E+05 -5.734441E+01  3.381526E+03 -1.750949E+05  5.859921E-10 -1.205970E-09
       218  15  7.122580E+05 -7.985087E+01  1.956115E+03 -1.884543E+05  8.351983E-10 -2.013200E-10
       218  16  1.217531E+06  1.156433E+05  7.794210E+04 -1.883063E+05 -4.826445E-11 -2.184092E-10
       218  17  1.067533E+06  8.102073E+04  5.368036E+04 -1.749230E+05 -1.291114E-09 -9.270240E-10
       218  18  9.180444E+05  4.688974E+04  3.121213E+04 -1.882576E+05  1.631076E-09 -2.662670E-10
       218  19  2.071697E+05 -1.150443E+05 -6.596405E+04 -1.886012E+05 -2.861558E+04 -3.857000E+04
       218  20  3.567427E+05 -8.114008E+04 -4.691620E+04 -1.752660E+05 -2.782488E+04 -2.736033E+04
       218  21  5.065152E+05 -4.705089E+04 -2.729867E+04 -1.886506E+05 -2.703183E+04 -1.574275E+04
       218  22  7.122210E+05  3.059586E+02  5.991558E+03 -1.884541E+05 -4.839572E+03 -3.856772E+04
       218  23  7.120737E+05 -5.653755E+01  3.382952E+03 -1.750948E+05 -3.163640E+03 -2.736064E+04
       218  24  7.122581E+05 -7.958395E+01  1.956585E+03 -1.884543E+05 -1.485543E+03 -1.574576E+04
       218  25  1.217531E+06  1.156449E+05  7.794557E+04 -1.883069E+05  1.895494E+04 -3.856543E+04
       218  26  1.067534E+06  8.102165E+04  5.368263E+04 -1.749235E+05  2.151110E+04 -2.736094E+04
       218  27  9.180451E+05  4.689016E+04  3.121368E+04 -1.882579E+05  2.406884E+04 -1.574875E+04
       219   1  5.999738E+05 -2.560926E+04 -1.409122E+04 -1.885936E+05  2.672914E+04  8.847474E+03
       219   2  7.496054E+05  8.444907E+03  6.039992E+03 -1.751769E+05  2.638156E+04 -2.994293E+03
       219   3  8.993238E+05  4.249710E+04  2.640224E+04 -1.885031E+05  2.603417E+04 -1.487800E+04
       219   4  7.122072E+05 -6.150676E+01  1.497418E+03 -1.884597E+05  1.175987E+03  8.851178E+03
       219   5  7.121666E+05 -6.577139E+01  8.927948E+02 -1.750882E+05  7.344632E+02 -2.990848E+03
       219   6  7.122036E+05 -5.587735E+01  5.817856E+02 -1.884597E+05  2.932023E+02 -1.487484E+04
       219   7  8.244548E+05  2.548604E+04  1.708835E+04 -1.883258E+05 -2.438157E+04  8.854871E+03
       219   8  6.747306E+05 -8.576158E+03 -4.251949E+03 -1.749995E+05 -2.491116E+04 -2.987410E+03
       219   9  5.251202E+05 -4.261004E+04 -2.523659E+04 -1.884163E+05 -2.544036E+04 -1.487169E+04
       219  10  5.999730E+05 -2.560954E+04 -1.409271E+04 -1.885937E+05 -5.941562E-10  8.587689E-10
       219  11  7.496046E+05  8.444711E+03  6.038669E+03 -1.751768E+05 -7.867082E-11  1.008754E-09
       219  12  8.993231E+05  4.249669E+04  2.640056E+04 -1.885028E+05  1.492710E-09  8.061378E-11
       219  13  7.122072E+05 -6.159130E+01  1.497268E+03 -1.884597E+05 -1.102673E-09  4.992387E-10
       219  14  7.121666E+05 -6.578114E+01  8.927770E+02 -1.750882E+05  4.320581E-10  6.413116E-10
       219  15  7.122035E+05 -5.611505E+01  5.813696E+02 -1.884597E+05  9.652922E-10  4.079857E-10
       219  16  8.244541E+05  2.548580E+04  1.708709E+04 -1.883256E+05 -9.632184E-10  1.133080E-10
       219  17  6.747300E+05 -8.576334E+03 -4.253131E+03 -1.749996E+05  3.972740E-11  2.876924E-10
       219  18  5.251194E+05 -4.261045E+04 -2.523822E+04 -1.884166E+05 -1.014318E-09  7.081125E-10
       219  19  5.999738E+05 -2.560926E+04 -1.409122E+04 -1.885936E+05 -2.672914E+04 -8.847474E+03
       219  20  7.496054E+05  8.444907E+03  6.039992E+03 -1.751769E+05 -2.638156E+04  2.994293E+03
       219  21  8.993238E+05  4.249710E+04  2.640224E+04 -1.885031E+05 -2.603417E+04  1.487800E+04
       219  22  7.122072E+05 -6.150676E+01  1.497418E+03 -1.884597E+05 -1.175987E+03 -8.851178E+03
       219  23  7.121666E+05 -6.577139E+01  8.927948E+02 -1.750882E+05 -7.344632E+02  2.990848E+03
       219  24  7.122036E+05 -5.587735E+01  5.817856E+02 -1.884597E+05 -2.932023E+02  1.487484E+04
       219  25  8.244548E+05  2.548604E+04  1.708835E+04 -1.883258E+05  2.438157E+04 -8.854871E+03
       219  26  6.747306E+05 -8.576158E+03 -4.251949E+03 -1.749995E+05  2.491116E+04  2.987410E+03
       219  27  5.251202E+05 -4.261004E+04 -2.523659E+04 -1.884163E+05  2.544036E+04  1.487169E+04
       220   1  9.928410E+05  6.389509E+04  3.992555E+04 -1.884902E+05  2.593964E+04 -2.181012E+04
       220   2  1.142554E+06  9.790726E+04  6.055524E+04 -1.750580E+05  2.560222E+04 -3.368366E+04
       220   3  1.292373E+06  1.319368E+05  8.141812E+04 -1.883760E+05  2.526762E+04 -4.549853E+04
       220   4  7.121917E+05 -6.456207E+01  4.975891E+02 -1.884616E+05  1.947198E+02 -2.180801E+04
       220   5  7.121391E+05 -1.069230E+02  4.324884E+02 -1.750859E+05 -1.869104E+01 -3.368478E+04
       220   6  7.121478E+05 -1.529282E+02  5.128306E+02 -1.884616E+05 -2.292063E+02 -4.550290E+04
       220   7  4.316235E+05 -6.402737E+04 -3.892892E+04 -1.884330E+05 -2.553909E+04 -2.180589E+04
       220   8  2.819132E+05 -9.812898E+04 -5.969015E+04 -1.751138E+05 -2.562265E+04 -3.368590E+04
       220   9  1.322648E+05 -1.322572E+05 -8.039423E+04 -1.885470E+05 -2.570329E+04 -4.550726E+04
       220  10  9.928402E+05  6.389440E+04  3.992339E+04 -1.884897E+05 -1.764898E-09  3.045324E-10
       220  11  1.142553E+06  9.790586E+04  6.055188E+04 -1.750573E+05 -1.616390E-09  1.707416E-09
       220  12  1.292372E+06  1.319344E+05  8.141303E+04 -1.883751E+05 -1.006914E-09  1.302664E-09
       220  13  7.121916E+05 -6.507295E+01  4.966950E+02 -1.884616E+05  2.711030E-09  5.806005E-10
       220  14  7.121388E+05 -1.081419E+02  4.303554E+02 -1.750859E+05  1.078288E-09  1.260969E-09
       220  15  7.121473E+05 -1.551523E+02  5.089383E+02 -1.884616E+05 -4.627612E-09  1.109880E-09
       220  16  4.316227E+05 -6.402806E+04 -3.893104E+04 -1.884334E+05  4.340590E-10  7.369411E-10
       220  17  2.819121E+05 -9.813037E+04 -5.969352E+04 -1.751145E+05 -1.824738E-09  4.977140E-10
       220  18  1.322636E+05 -1.322596E+05 -8.039936E+04 -1.885479E+05  3.135270E-10  6.910162E-10
       220  19  9.928410E+05  6.389509E+04  3.992555E+04 -1.884902E+05 -2.593964E+04  2.181012E+04
       220  20  1.142554E+06  9.790726E+04  6.055524E+04 -1.750580E+05 -2.560222E+04  3.368366E+04
       220  21  1.292373E+06  1.319368E+05  8.141812E+04 -1.883760E+05 -2.526762E+04  4.549853E+04
       220  22  7.121917E+05 -6.456207E+01  4.975891E+02 -1.884616E+05 -1.947198E+02  2.180801E+04
       220  23  7.121391E+05 -1.069230E+02  4.324884E+02 -1.750859E+05  1.869104E+01  3.368478E+04
       220  24  7.121478E+05 -1.529282E+02  5.128306E+02 -1.884616E+05  2.292063E+02  4.550290E+04
       220  25  4.316235E+05 -6.402737E+04 -3.892892E+04 -1.884330E+05  2.553909E+04  2.180589E+04
       220  26  2.819132E+05 -9.812898E+04 -5.969015E+04 -1.751138E+05  2.562265E+04  3.368590E+04
       220  27  1.322648E+05 -1.322572E+05 -8.039423E+04 -1.885470E+05  2.570329E+04  4.550726E+04
       221   1  1.386027E+06  1.533424E+05  9.521688E+04 -1.883216E+05  2.516802E+04 -5.237713E+04
       221   2  1.535776E+06  1.874394E+05  1.167701E+05 -1.748488E+05  2.351737E+04 -6.388445E+04
       221   3  1.685913E+06  2.218202E+05  1.394893E+05 -1.881127E+05  2.187144E+04 -7.484322E+04
       221   4  7.121484E+05 -1.887832E+02  6.099695E+02 -1.884588E+05 -3.282779E+02 -5.238426E+04
       221   5  7.120249E+05 -2.578258E+02  9.460022E+02 -1.750894E+05 -7.936660E+02 -6.389746E+04
       221   6  7.120643E+05 -2.473720E+02  1.625837E+03 -1.884587E+05 -1.253978E+03 -7.486173E+04
       221   7  3.873039E+04 -1.537398E+05 -9.400048E+04 -1.885958E+05 -2.579816E+04 -5.239139E+04
       221   8 -1.110389E+05 -1.879851E+05 -1.148849E+05 -1.753296E+05 -2.507391E+04 -6.391045E+04
       221   9 -2.608262E+05 -2.223572E+05 -1.362489E+05 -1.888042E+05 -2.434477E+04 -7.488023E+04
       221  10  1.386025E+06  1.533392E+05  9.521053E+04 -1.883205E+05 -1.970765E-09  1.375214E-09
       221  11  1.535774E+06  1.874349E+05  1.167614E+05 -1.748476E+05 -1.496462E-09  1.650030E-11
       221  12  1.685911E+06  2.218140E+05  1.394779E+05 -1.881114E+05  1.203820E-09 -1.477802E-09
       221  13  7.121476E+05 -1.917309E+02  6.048108E+02 -1.884588E+05 -1.052456E-09  1.014374E-09
       221  14  7.120238E+05 -2.622118E+02  9.383259E+02 -1.750894E+05  3.466377E-10  3.831507E-11
       221  15  7.120628E+05 -2.533925E+02  1.615299E+03 -1.884588E+05  1.484907E-09 -1.814965E-09
       221  16  3.872894E+04 -1.537429E+05 -9.400689E+04 -1.885969E+05  3.272615E-09  5.419516E-10
       221  17 -1.110407E+05 -1.879896E+05 -1.148938E+05 -1.753308E+05  1.390273E-09 -2.918505E-10
       221  18 -2.608284E+05 -2.223634E+05 -1.362606E+05 -1.888056E+05  7.279588E-10 -1.464557E-09
       221  19  1.386027E+06  1.533424E+05  9.521688E+04 -1.883216E+05 -2.516802E+04  5.237713E+04
       221  20  1.535776E+06  1.874394E+05  1.167701E+05 -1.748488E+05 -2.351737E+04  6.388445E+04
       221  21  1.685913E+06  2.218202E+05  1.394893E+05 -1.881127E+05 -2.187144E+04  7.484322E+04
       221  22  7.121484E+05 -1.887832E+02  6.099695E+02 -1.884588E+05  3.282779E+02  5.238426E+04
       221  23  7.120249E+05 -2.578258E+02  9.460022E+02 -1.750894E+05  7.936660E+02  6.389746E+04
       221  24  7.120643E+05 -2.473720E+02  1.625837E+03 -1.884587E+05  1.253978E+03  7.486173E+04
       221  25  3.873039E+04 -1.537398E+05 -9.400048E+04 -1.885958E+05  2.579816E+04  5.239139E+04
       221  26 -1.110389E+05 -1.879851E+05 -1.148849E+05 -1.753296E+05  2.507391E+04  6.391045E+04
       221  27 -2.608262E+05 -2.223572E+05 -1.362489E+05 -1.888042E+05  2.434477E+04  7.488023E+04
       222   1  1.780060E+06  2.434725E+05  1.544971E+05 -1.878338E+05  2.149385E+04 -8.122182E+04
       222   2  1.929074E+06  2.787706E+05  1.815984E+05 -1.750840E+05  9.766750E+03 -8.960236E+04
       222   3  2.080516E+06  3.169607E+05  2.170830E+05 -1.887718E+05 -1.961901E+03 -9.342965E+04
       222   4  7.121473E+05 -2.683101E+02  2.138315E+03 -1.883923E+05 -1.570004E+03 -8.124447E+04
       222   5  7.117362E+05  1.124044E+02  3.747365E+03 -1.751724E+05 -3.433741E+03 -8.962709E+04
       222   6  7.120234E+05  1.678695E+03  6.905697E+03 -1.883932E+05 -5.296154E+03 -9.345182E+04
       222   7 -3.546140E+05 -2.440604E+05 -1.502353E+05 -1.889498E+05 -2.459597E+04 -8.126709E+04
       222   8 -5.041118E+05 -2.786142E+05 -1.741284E+05 -1.752606E+05 -1.660948E+04 -8.965184E+04
       222   9 -6.546017E+05 -3.136937E+05 -2.033131E+05 -1.880156E+05 -8.623351E+03 -9.347403E+04
       222  10  1.780058E+06  2.434653E+05  1.544839E+05 -1.878324E+05 -6.606881E-08 -2.558508E-09
       222  11  1.929072E+06  2.787620E+05  1.815831E+05 -1.750833E+05  1.044185E-09 -2.648871E-09
       222  12  2.080514E+06  3.169513E+05  2.170666E+05 -1.887719E+05  6.586838E-08 -2.180807E-09
       222  13  7.121455E+05 -2.754012E+02  2.125902E+03 -1.883924E+05  1.072234E-09 -2.620637E-09
       222  14  7.117341E+05  1.037722E+02  3.732242E+03 -1.751726E+05 -9.884681E-10 -2.703017E-09
       222  15  7.120210E+05  1.669306E+03  6.889226E+03 -1.883936E+05  1.515631E-09 -1.569018E-09
       222  16 -3.546164E+05 -2.440677E+05 -1.502489E+05 -1.889514E+05  6.794036E-08 -2.393684E-09
       222  17 -5.041142E+05 -2.786229E+05 -1.741440E+05 -1.752618E+05 -2.694256E-09 -1.010061E-09
       222  18 -6.546041E+05 -3.137031E+05 -2.033297E+05 -1.880163E+05 -6.391111E-08 -6.212561E-10
       222  19  1.780060E+06  2.434725E+05  1.544971E+05 -1.878338E+05 -2.149385E+04  8.122182E+04
       222  20  1.929074E+06  2.787706E+05  1.815984E+05 -1.750840E+05 -9.766750E+03  8.960236E+04
       222  21  2.080516E+06  3.169607E+05  2.170830E+05 -1.887718E+05  1.961901E+03  9.342965E+04
       222  22  7.121473E+05 -2.683101E+02  2.138315E+03 -1.883923E+05  1.570004E+03  8.124447E+04
       222  23  7.117362E+05  1.124044E+02  3.747365E+03 -1.751724E+05  3.433741E+03  8.962709E+04
       222  24  7.120234E+05  1.678695E+03  6.905697E+03 -1.883932E+05  5.296154E+03  9.345182E+04
       222  25 -3.546140E+05 -2.440604E+05 -1.502353E+05 -1.889498E+05  2.459597E+04  8.126709E+04
       222  26 -5.041118E+05 -2.786142E+05 -1.741284E+05 -1.752606E+05  1.660948E+04  8.965184E+04
       222  27 -6.546017E+05 -3.136937E+05 -2.033131E+05 -1.880156E+05  8.623351E+03  9.347403E+04
       223   1  2.177815E+06  3.409800E+05  2.403150E+05 -1.869605E+05 -3.747498E+03 -9.564625E+04
       223   2  2.319057E+06  3.888199E+05  3.085225E+05 -1.852944E+05 -9.369091E+04 -7.823739E+04
       223   3  2.479390E+06  4.652795E+05  4.423592E+05 -2.074329E+05 -1.837337E+05 -2.331066E+04
       223   4  7.129331E+05  2.282092E+03  9.215553E+03 -1.878027E+05 -6.490888E+03 -9.566987E+04
       223   5  7.103450E+05  9.362263E+03  1.693451E+04 -1.759169E+05 -1.511736E+04 -7.817134E+04
       223   6  7.127681E+05  3.100908E+04  3.394565E+04 -1.878312E+05 -2.381490E+04 -2.311324E+04
       223   7 -7.498181E+05 -3.365220E+05 -2.219373E+05 -1.886430E+05 -9.228049E+03 -9.569353E+04
       223   8 -8.958436E+05 -3.702367E+05 -2.747329E+05 -1.665646E+05  6.325880E+04 -7.810285E+04
       223   9 -1.050923E+06 -4.034648E+05 -3.745802E+05 -1.682859E+05  1.356537E+05 -2.290551E+04
       223  10  2.177813E+06  3.409702E+05  2.402978E+05 -1.869608E+05  1.820023E-09 -2.314770E-09
       223  11  2.319046E+06  3.888109E+05  3.084945E+05 -1.853003E+05 -2.206138E-09 -3.545672E-09
       223  12  2.479353E+06  4.652699E+05  4.422950E+05 -2.074364E+05 -4.036549E-09 -1.032649E-09
       223  13  7.129306E+05  2.272249E+03  9.198268E+03 -1.878032E+05  2.929781E-10 -4.894476E-09
       223  14  7.103431E+05  9.355637E+03  1.692259E+04 -1.759178E+05 -1.200838E-10  2.411884E-09
       223  15  7.127673E+05  3.100835E+04  3.394358E+04 -1.878316E+05 -2.407762E-09  2.670028E-11
       223  16 -7.498206E+05 -3.365318E+05 -2.219547E+05 -1.886437E+05 -1.048770E-09 -5.893676E-10
       223  17 -8.958495E+05 -3.702443E+05 -2.747519E+05 -1.665606E+05 -5.820896E-10  1.931781E-09
       223  18 -1.050943E+06 -4.034704E+05 -3.746158E+05 -1.682834E+05  2.968958E-09 -1.283425E-09
       223  19  2.177815E+06  3.409800E+05  2.403150E+05 -1.869605E+05  3.747498E+03  9.564625E+04
       223  20  2.319057E+06  3.888199E+05  3.085225E+05 -1.852944E+05  9.369091E+04  7.823739E+04
       223  21  2.479390E+06  4.652795E+05  4.423592E+05 -2.074329E+05  1.837337E+05  2.331066E+04
       223  22  7.129331E+05  2.282092E+03  9.215553E+03 -1.878027E+05  6.490888E+03  9.566987E+04
       223  23  7.103450E+05  9.362263E+03  1.693451E+04 -1.759169E+05  1.511736E+04  7.817134E+04
       223  24  7.127681E+05  3.100908E+04  3.394565E+04 -1.878312E+05  2.381490E+04  2.311324E+04
       223  25 -7.498181E+05 -3.365220E+05 -2.219373E+05 -1.886430E+05  9.228049E+03  9.569353E+04
       223  26 -8.958436E+05 -3.702367E+05 -2.747329E+05 -1.665646E+05 -6.325880E+04  7.810285E+04
       223  27 -1.050923E+06 -4.034648E+05 -3.745802E+05 -1.682859E+05 -1.356537E+05  2.290551E+04
       224   1  4.756681E+05  2.047885E+06  4.549818E+05 -6.225508E+05  1.789249E+04  1.335542E+05
       224   2  3.310329E+05  1.554923E+06  2.737527E+05 -5.746711E+05  5.407499E+04  3.934539E+04
       224   3  2.103482E+05  1.080302E+06  1.596898E+05 -6.096933E+05  4.933151E+04 -5.482145E+04
       224   4  1.917953E+04  1.992505E+05  1.895704E+04 -6.080277E+05  1.814819E+04  1.132386E+04
       224   5  7.372820E+03  1.980708E+05  1.105310E+04 -5.665883E+05  5.415894E+04  5.779428E+03
       224   6  4.194255E+03  1.996843E+05  8.883361E+03 -6.080573E+05  4.920425E+04  2.022486E+02
       224   7 -4.375446E+05 -1.646216E+06 -4.172475E+05 -5.935450E+05  1.839871E+04 -1.105455E+05
       224   8 -3.163962E+05 -1.157013E+06 -2.517286E+05 -5.585217E+05  5.424214E+04 -2.771498E+04
       224   9 -2.019994E+05 -6.801658E+05 -1.419377E+05 -6.064229E+05  4.907716E+04  5.515046E+04
       224  10  4.756630E+05  2.047865E+06  4.549477E+05 -6.225527E+05  3.440911E-10  2.209512E-08
       224  11  3.310294E+05  1.554921E+06  2.737443E+05 -5.746729E+05  1.592838E-09 -9.072573E-09
       224  12  2.103448E+05  1.080298E+06  1.596796E+05 -6.096911E+05  3.993024E-09 -4.338972E-08
       224  13  1.917914E+04  1.992503E+05  1.895617E+04 -6.080279E+05 -1.293255E-09 -6.522874E-12
       224  14  7.369661E+03  1.980700E+05  1.104752E+04 -5.665885E+05 -6.976060E-09 -1.440804E-09
       224  15  4.191655E+03  1.996836E+05  8.878811E+03 -6.080573E+05 -1.082662E-08 -2.721802E-09
       224  16 -4.375482E+05 -1.646229E+06 -4.172711E+05 -5.935434E+05  1.512279E-09 -2.216886E-08
       224  17 -3.163996E+05 -1.157015E+06 -2.517356E+05 -5.585205E+05  4.073807E-09  9.009093E-09
       224  18 -2.020028E+05 -6.801698E+05 -1.419479E+05 -6.064251E+05  5.556369E-09  4.322166E-08
       224  19  4.756681E+05  2.047885E+06  4.549818E+05 -6.225508E+05 -1.789249E+04 -1.335542E+05
       224  20  3.310329E+05  1.554923E+06  2.737527E+05 -5.746711E+05 -5.407499E+04 -3.934539E+04
       224  21  2.103482E+05  1.080302E+06  1.596898E+05 -6.096933E+05 -4.933151E+04  5.482145E+04
       224  22  1.917953E+04  1.992505E+05  1.895704E+04 -6.080277E+05 -1.814819E+04 -1.132386E+04
       224  23  7.372820E+03  1.980708E+05  1.105310E+04 -5.665883E+05 -5.415894E+04 -5.779428E+03
       224  24  4.194255E+03  1.996843E+05  8.883361E+03 -6.080573E+05 -4.920425E+04 -2.022486E+02
       224  25 -4.375446E+05 -1.646216E+06 -4.172475E+05 -5.935450E+05 -1.839871E+04  1.105455E+05
       224  26 -3.163962E+05 -1.157013E+06 -2.517286E+05 -5.585217E+05 -5.424214E+04  2.771498E+04
       224  27 -2.019994E+05 -6.801658E+05 -1.419377E+05 -6.064229E+05 -4.907716E+04 -5.515046E+04
       225   1  1.386966E+05  7.751081E+05  1.070017E+05 -6.106616E+05  3.273856E+04 -5.686846E+04
       225   2  2.543503E+04  2.909928E+05  2.526912E+04 -5.649030E+05  6.804660E+03 -6.368686E+04
       225   3 -8.364548E+04 -1.912241E+05 -5.107073E+04 -6.047145E+05 -1.959285E+04 -7.050246E+04
       225   4  4.031494E+03  1.994768E+05  9.010514E+03 -6.086477E+05  3.260287E+04 -1.275196E+03
       225   5  4.255274E+03  1.987450E+05  1.155649E+04 -5.658585E+05  6.665286E+03 -7.111415E+03
       225   6  8.498145E+03  1.995062E+05  1.880551E+04 -6.086381E+05 -1.973615E+04 -1.294975E+04
       225   7 -1.306496E+05 -3.758222E+05 -8.897997E+04 -6.066354E+05  3.246745E+04  5.426822E+04
       225   8 -1.692316E+04  1.065127E+05 -2.144270E+03 -5.668139E+05  6.525723E+03  4.945597E+04
       225   9  1.006351E+05  5.903926E+05  8.868839E+04 -6.125641E+05 -1.988012E+04  4.463816E+04
       225  10  1.386946E+05  7.751044E+05  1.069936E+05 -6.106601E+05  5.214866E-09 -2.352427E-08
       225  11  2.543389E+04  2.909885E+05  2.526142E+04 -5.649026E+05  4.992118E-09  7.215708E-09
       225  12 -8.364723E+04 -1.912296E+05 -5.108080E+04 -6.047156E+05  2.166187E-09  3.695748E-08
       225  13  4.030352E+03  1.994765E+05  9.008514E+03 -6.086477E+05 -1.502790E-08 -1.525293E-10
       225  14  4.255212E+03  1.987450E+05  1.155631E+04 -5.658585E+05 -4.784563E-09 -1.817077E-09
       225  15  8.497681E+03  1.995059E+05  1.880446E+04 -6.086383E+05 -2.193483E-09 -2.551125E-09
       225  16 -1.306515E+05 -3.758256E+05 -8.898750E+04 -6.066368E+05  6.732155E-09  2.348877E-08
       225  17 -1.692386E+04  1.065100E+05 -2.148947E+03 -5.668141E+05  4.514257E-09 -7.687490E-09
       225  18  1.006342E+05  5.903904E+05  8.868391E+04 -6.125634E+05  1.709916E-09 -3.669529E-08
       225  19  1.386966E+05  7.751081E+05  1.070017E+05 -6.106616E+05 -3.273856E+04  5.686846E+04
       225  20  2.543503E+04  2.909928E+05  2.526912E+04 -5.649030E+05 -6.804660E+03  6.368686E+04
       225  21 -8.364548E+04 -1.912241E+05 -5.107073E+04 -6.047145E+05  1.959285E+04  7.050246E+04
       225  22  4.031494E+03  1.994768E+05  9.010514E+03 -6.086477E+05 -3.260287E+04  1.275196E+03
       225  23  4.255274E+03  1.987450E+05  1.155649E+04 -5.658585E+05 -6.665286E+03  7.111415E+03
       225  24  8.498145E+03  1.995062E+05  1.880551E+04 -6.086381E+05  1.973615E+04  1.294975E+04
       225  25 -1.306496E+05 -3.758222E+05 -8.897997E+04 -6.066354E+05 -3.246745E+04 -5.426822E+04
       225  26 -1.692316E+04  1.065127E+05 -2.144270E+03 -5.668139E+05 -6.525723E+03 -4.945597E+04
       225  27  1.006351E+05  5.903926E+05  8.868839E+04 -6.125641E+05  1.988012E+04 -4.463816E+04
       226   1 -1.533622E+05 -4.933039E+05 -9.760473E+04 -6.063835E+05 -3.662032E+04 -7.324459E+04
       226   2 -2.525531E+05 -9.755001E+05 -1.861996E+05 -5.372225E+05 -4.464122E+04 -1.557578E+04
       226   3 -3.281554E+05 -1.459202E+06 -3.065188E+05 -5.512923E+05 -1.555306E+04  4.208153E+04
       226   4  1.010608E+04  2.018142E+05  2.444664E+04 -6.081195E+05 -3.675741E+04 -1.622867E+04
       226   5  2.793047E+04  1.955484E+05  4.389530E+04 -5.664473E+05 -4.458136E+04 -3.863595E+04
       226   6  8.322773E+04  2.014329E+05  8.723466E+04 -6.079744E+05 -1.533365E+04 -6.100959E+04
       226   7  1.735497E+05  8.974122E+05  1.464928E+05 -6.098570E+05 -3.689471E+04  4.084923E+04
       226   8  3.083344E+05  1.367915E+06  2.739262E+05 -5.957271E+05 -4.451941E+04 -6.173869E+04
       226   9  4.944299E+05  1.864634E+06  4.808377E+05 -6.648067E+05 -1.509579E+04 -1.643753E+05
       226  10 -1.533650E+05 -4.933100E+05 -9.761735E+04 -6.063856E+05  1.789463E-09  2.694523E-09
       226  11 -2.525553E+05 -9.755009E+05 -1.862038E+05 -5.372231E+05  1.499944E-09  1.883275E-10
       226  12 -3.281562E+05 -1.459204E+06 -3.065225E+05 -5.512918E+05  1.125780E-09 -3.956361E-09
       226  13  1.010455E+04  2.018135E+05  2.444360E+04 -6.081199E+05  2.373755E-09  9.227672E-11
       226  14  2.792794E+04  1.955462E+05  4.388876E+04 -5.664486E+05  8.972006E-10 -1.433200E-09
       226  15  8.322648E+04  2.014289E+05  8.722722E+04 -6.079751E+05  1.983007E-09 -2.052913E-09
       226  16  1.735478E+05  8.974101E+05  1.464871E+05 -6.098558E+05  7.158030E-11 -2.303015E-09
       226  17  3.083313E+05  1.367910E+06  2.739153E+05 -5.957293E+05  4.896762E-10  2.303002E-11
       226  18  4.944224E+05  1.864605E+06  4.807867E+05 -6.648087E+05  1.354999E-11  4.222829E-09
       226  19 -1.533622E+05 -4.933039E+05 -9.760473E+04 -6.063835E+05  3.662032E+04  7.324459E+04
       226  20 -2.525531E+05 -9.755001E+05 -1.861996E+05 -5.372225E+05  4.464122E+04  1.557578E+04
       226  21 -3.281554E+05 -1.459202E+06 -3.065188E+05 -5.512923E+05  1.555306E+04 -4.208153E+04
       226  22  1.010608E+04  2.018142E+05  2.444664E+04 -6.081195E+05  3.675741E+04  1.622867E+04
       226  23  2.793047E+04  1.955484E+05  4.389530E+04 -5.664473E+05  4.458136E+04  3.863595E+04
       226  24  8.322773E+04  2.014329E+05  8.723466E+04 -6.079744E+05  1.533365E+04  6.100959E+04
       226  25  1.735497E+05  8.974122E+05  1.464928E+05 -6.098570E+05  3.689471E+04 -4.084923E+04
       226  26  3.083344E+05  1.367915E+06  2.739262E+05 -5.957271E+05  4.451941E+04  6.173869E+04
       226  27  4.944299E+05  1.864634E+06  4.808377E+05 -6.648067E+05  1.509579E+04  1.643753E+05
       227   1 -9.199805E+05 -4.767296E+05 -2.742479E+05 -3.871579E+05 -1.283103E+05 -3.754913E+04
       227   2 -8.587826E+05 -3.549736E+05 -1.687293E+05 -3.610026E+05 -7.997127E+04  5.318367E+03
       227   3 -8.155056E+05 -2.954257E+05 -1.195512E+05 -3.338055E+05 -2.550108E+04  3.191793E+04
       227   4 -3.021538E+05 -1.885427E+05 -1.055149E+05 -1.598110E+05 -7.220678E+04 -1.647295E+04
       227   5 -2.905467E+05 -1.202905E+05 -4.975442E+04 -1.754262E+05 -5.452302E+04  1.487536E+04
       227   6 -2.907621E+05 -1.081427E+05 -2.599910E+04 -1.900090E+05 -3.071809E+04  2.995440E+04
       227   7  3.160512E+05  9.973117E+04  6.319443E+04  6.775977E+04 -1.604333E+04  4.638689E+03
       227   8  2.780239E+05  1.144456E+05  6.920541E+04  1.031585E+04 -2.904992E+04  2.444450E+04
       227   9  2.342756E+05  7.916622E+04  6.754504E+04 -4.609867E+04 -3.593984E+04  2.798914E+04
       227  10 -9.199986E+05 -4.767355E+05 -2.742815E+05 -3.871618E+05 -6.164994E-10  7.977511E-10
       227  11 -8.587895E+05 -3.549753E+05 -1.687413E+05 -3.610023E+05  3.122098E-09  8.098197E-10
       227  12 -8.155066E+05 -2.954270E+05 -1.195544E+05 -3.338049E+05  4.018776E-09  1.345097E-09
       227  13 -3.021595E+05 -1.885444E+05 -1.055252E+05 -1.598120E+05 -9.104103E-10  1.064730E-09
       227  14 -2.905500E+05 -1.202915E+05 -4.976043E+04 -1.754256E+05  1.889075E-09 -4.422120E-11
       227  15 -2.907633E+05 -1.081439E+05 -2.600256E+04 -1.900082E+05  1.787933E-09 -6.305369E-10
       227  16  3.160509E+05  9.973108E+04  6.319391E+04  6.775983E+04 -1.999522E-09 -2.618552E-10
       227  17  2.780229E+05  1.144448E+05  6.920270E+04  1.031642E+04  2.641253E-10  8.497925E-10
       227  18  2.342740E+05  7.916504E+04  6.754115E+04 -4.609786E+04 -2.291520E-09 -2.355322E-10
       227  19 -9.199805E+05 -4.767296E+05 -2.742479E+05 -3.871579E+05  1.283103E+05  3.754913E+04
       227  20 -8.587826E+05 -3.549736E+05 -1.687293E+05 -3.610026E+05  7.997127E+04 -5.318367E+03
       227  21 -8.155056E+05 -2.954257E+05 -1.195512E+05 -3.338055E+05  2.550108E+04 -3.191793E+04
       227  22 -3.021538E+05 -1.885427E+05 -1.055149E+05 -1.598110E+05  7.220678E+04  1.647295E+04
       227  23 -2.905467E+05 -1.202905E+05 -4.975442E+04 -1.754262E+05  5.452302E+04 -1.487536E+04
       227  24 -2.907621E+05 -1.081427E+05 -2.599910E+04 -1.900090E+05  3.071809E+04 -2.995440E+04
       227  25  3.160512E+05  9.973117E+04  6.319443E+04  6.775977E+04  1.604333E+04 -4.638689E+03
       227  26  2.780239E+05  1.144456E+05  6.920541E+04  1.031585E+04  2.904992E+04 -2.444450E+04
       227  27  2.342756E+05  7.916622E+04  6.754504E+04 -4.609867E+04  3.593984E+04 -2.798914E+04
       228   1 -7.648143E+05 -2.824515E+05 -1.036867E+05 -3.248961E+05 -2.313408E+04  3.049603E+04
       228   2 -7.018597E+05 -2.476374E+05 -7.972637E+04 -3.004434E+05 -1.390505E+04  3.069287E+04
       228   3 -6.313307E+05 -2.263838E+05 -6.278178E+04 -2.867836E+05 -4.073999E+03  2.928631E+04
       228   4 -2.876081E+05 -1.077426E+05 -1.944176E+04 -1.891784E+05 -2.703206E+04  2.902863E+04
       228   5 -2.913550E+05 -9.892879E+04 -1.018110E+04 -1.846533E+05 -2.082251E+04  2.809247E+04
       228   6 -2.869313E+05 -1.030755E+05 -5.538793E+03 -1.909228E+05 -1.401201E+04  2.555314E+04
       228   7  1.898340E+05  6.698811E+04  6.479461E+04 -5.336408E+04 -3.093320E+04  2.756000E+04
       228   8  1.193293E+05  4.979717E+04  5.935990E+04 -6.879127E+04 -2.774483E+04  2.549022E+04
       228   9  5.759878E+04  2.024599E+04  5.170278E+04 -9.501114E+04 -2.395598E+04  2.181775E+04
       228  10 -7.648151E+05 -2.824527E+05 -1.036895E+05 -3.248956E+05 -8.813135E-09 -3.404799E-09
       228  11 -7.018602E+05 -2.476384E+05 -7.972851E+04 -3.004431E+05  1.890207E-08  8.246111E-09
       228  12 -6.313310E+05 -2.263847E+05 -6.278343E+04 -2.867835E+05  4.455684E-08  1.762359E-08
       228  13 -2.876091E+05 -1.077437E+05 -1.944471E+04 -1.891778E+05  2.736765E-10 -1.474126E-10
       228  14 -2.913557E+05 -9.892976E+04 -1.018340E+04 -1.846529E+05 -2.364926E-09  7.700349E-10
       228  15 -2.869317E+05 -1.030763E+05 -5.540388E+03 -1.909225E+05 -5.896486E-09  2.459840E-10
       228  16  1.898328E+05  6.698704E+04  6.479138E+04 -5.336340E+04  8.772068E-09  3.782067E-09
       228  17  1.193283E+05  4.979626E+04  5.935723E+04 -6.879070E+04 -1.971996E-08 -6.953706E-09
       228  18  5.759804E+04  2.024532E+04  5.170080E+04 -9.501072E+04 -5.190807E-08 -1.746296E-08
       228  19 -7.648143E+05 -2.824515E+05 -1.036867E+05 -3.248961E+05  2.313408E+04 -3.049603E+04
       228  20 -7.018597E+05 -2.476374E+05 -7.972637E+04 -3.004434E+05  1.390505E+04 -3.069287E+04
       228  21 -6.313307E+05 -2.263838E+05 -6.278178E+04 -2.867836E+05  4.073999E+03 -2.928631E+04
       228  22 -2.876081E+05 -1.077426E+05 -1.944176E+04 -1.891784E+05  2.703206E+04 -2.902863E+04
       228  23 -2.913550E+05 -9.892879E+04 -1.018110E+04 -1.846533E+05  2.082251E+04 -2.809247E+04
       228  24 -2.869313E+05 -1.030755E+05 -5.538793E+03 -1.909228E+05  1.401201E+04 -2.555314E+04
       228  25  1.898340E+05  6.698811E+04  6.479461E+04 -5.336408E+04  3.093320E+04 -2.756000E+04
       228  26  1.193293E+05  4.979717E+04  5.935990E+04 -6.879127E+04  2.774483E+04 -2.549022E+04
       228  27  5.759878E+04  2.024599E+04  5.170278E+04 -9.501114E+04  2.395598E+04 -2.181775E+04
       229   1 -5.876620E+05 -2.110933E+05 -5.383715E+04 -2.749703E+05 -2.276878E+03  2.641468E+04
       229   2 -5.250595E+05 -1.816354E+05 -4.070670E+04 -2.504005E+05  1.143166E+03  2.167358E+04
       229   3 -4.527017E+05 -1.624424E+05 -2.870382E+04 -2.372887E+05  4.621869E+03  1.677374E+04
       229   4 -2.866471E+05 -1.030791E+05 -4.155407E+03 -1.908362E+05 -1.208744E+04  2.273014E+04
       229   5 -2.915323E+05 -9.787847E+04 -2.279312E+03 -1.851407E+05 -8.966489E+03  1.787775E+04
       229   6 -2.866079E+05 -1.028834E+05 -1.293732E+03 -1.909045E+05 -5.787067E+03  1.286660E+04
       229   7  1.446470E+04  4.944276E+03  4.552458E+04 -1.066638E+05 -2.190304E+04  1.904372E+04
       229   8 -5.794798E+04 -1.411646E+04  3.614687E+04 -1.198582E+05 -1.908012E+04  1.408044E+04
       229   9 -1.204863E+05 -4.332228E+04  2.611565E+04 -1.445091E+05 -1.619884E+04  8.958399E+03
       229  10 -5.876622E+05 -2.110940E+05 -5.383847E+04 -2.749702E+05 -5.251613E-08 -1.999874E-08
       229  11 -5.250596E+05 -1.816359E+05 -4.070759E+04 -2.504006E+05 -1.375448E-08 -7.655881E-09
       229  12 -4.527018E+05 -1.624427E+05 -2.870439E+04 -2.372887E+05  1.522520E-08  3.222479E-09
       229  13 -2.866474E+05 -1.030796E+05 -4.156652E+03 -1.908359E+05 -2.895906E-09  3.635965E-10
       229  14 -2.915325E+05 -9.787883E+04 -2.280064E+03 -1.851406E+05 -1.894872E-09  1.805308E-09
       229  15 -2.866080E+05 -1.028836E+05 -1.294106E+03 -1.909044E+05 -9.233271E-09 -2.357592E-09
       229  16  1.446409E+04  4.943757E+03  4.552300E+04 -1.066635E+05  4.792122E-08  2.094789E-08
       229  17 -5.794842E+04 -1.411678E+04  3.614582E+04 -1.198579E+05  2.258743E-08  9.509484E-09
       229  18 -1.204866E+05 -4.332243E+04  2.611501E+04 -1.445090E+05 -1.823667E-08 -7.969678E-09
       229  19 -5.876620E+05 -2.110933E+05 -5.383715E+04 -2.749703E+05  2.276878E+03 -2.641468E+04
       229  20 -5.250595E+05 -1.816354E+05 -4.070670E+04 -2.504005E+05 -1.143166E+03 -2.167358E+04
       229  21 -4.527017E+05 -1.624424E+05 -2.870382E+04 -2.372887E+05 -4.621869E+03 -1.677374E+04
       229  22 -2.866471E+05 -1.030791E+05 -4.155407E+03 -1.908362E+05  1.208744E+04 -2.273014E+04
       229  23 -2.915323E+05 -9.787847E+04 -2.279312E+03 -1.851407E+05  8.966489E+03 -1.787775E+04
       229  24 -2.866079E+05 -1.028834E+05 -1.293732E+03 -1.909045E+05  5.787067E+03 -1.286660E+04
       229  25  1.446470E+04  4.944276E+03  4.552458E+04 -1.066638E+05  2.190304E+04 -1.904372E+04
       229  26 -5.794798E+04 -1.411646E+04  3.614687E+04 -1.198582E+05  1.908012E+04 -1.408044E+04
       229  27 -1.204863E+05 -4.332228E+04  2.611565E+04 -1.445091E+05  1.619884E+04 -8.958399E+03
       230   1 -4.095771E+05 -1.469580E+05 -2.102009E+04 -2.252754E+05  6.007139E+03  1.362483E+04
       230   2 -3.470599E+05 -1.177613E+05 -9.748900E+03 -2.006547E+05  8.430280E+03  8.238221E+03
       230   3 -2.745599E+05 -9.860584E+04  1.259070E+03 -1.875131E+05  1.085847E+04  2.837512E+03
       230   4 -2.865741E+05 -1.028883E+05 -1.004379E+03 -1.908928E+05 -4.390453E+03  9.722315E+03
       230   5 -2.915634E+05 -9.787118E+04 -6.517690E+02 -1.851508E+05 -1.994479E+03  4.325731E+03
       230   6 -2.865712E+05 -1.028911E+05 -5.417701E+02 -1.908903E+05  4.064970E+02 -1.084959E+03
       230   7 -1.635532E+05 -5.881650E+04  1.901186E+04 -1.565033E+05 -1.479035E+04  5.818943E+03
       230   8 -2.360630E+05 -7.798056E+04  8.445850E+03 -1.696454E+05 -1.242029E+04  4.128498E+02
       230   9 -2.985821E+05 -1.071763E+05 -2.342145E+03 -1.942674E+05 -1.004526E+04 -5.007352E+03
       230  10 -4.095772E+05 -1.469582E+05 -2.102051E+04 -2.252755E+05 -7.902032E-09 -3.902642E-09
       230  11 -3.470600E+05 -1.177614E+05 -9.749161E+03 -2.006547E+05 -4.551558E-09 -5.996199E-10
       230  12 -2.745601E+05 -9.860588E+04  1.258833E+03 -1.875131E+05 -5.696739E-09  9.502404E-10
       230  13 -2.865741E+05 -1.028884E+05 -1.004593E+03 -1.908928E+05 -1.296266E-08 -3.483114E-09
       230  14 -2.915634E+05 -9.787120E+04 -6.518116E+02 -1.851508E+05 -1.066164E-08 -2.576085E-09
       230  15 -2.865712E+05 -1.028911E+05 -5.417726E+02 -1.908903E+05 -1.885143E-09 -1.996543E-10
       230  16 -1.635534E+05 -5.881659E+04  1.901138E+04 -1.565032E+05 -2.926044E-09 -3.031442E-09
       230  17 -2.360631E+05 -7.798060E+04  8.445559E+03 -1.696454E+05 -2.917316E-09 -3.357048E-09
       230  18 -2.985822E+05 -1.071764E+05 -2.342382E+03 -1.942674E+05  2.855948E-09 -2.018857E-09
       230  19 -4.095771E+05 -1.469580E+05 -2.102009E+04 -2.252754E+05 -6.007139E+03 -1.362483E+04
       230  20 -3.470599E+05 -1.177613E+05 -9.748900E+03 -2.006547E+05 -8.430280E+03 -8.238221E+03
       230  21 -2.745599E+05 -9.860584E+04  1.259070E+03 -1.875131E+05 -1.085847E+04 -2.837512E+03
       230  22 -2.865741E+05 -1.028883E+05 -1.004379E+03 -1.908928E+05  4.390453E+03 -9.722315E+03
       230  23 -2.915634E+05 -9.787118E+04 -6.517690E+02 -1.851508E+05  1.994479E+03 -4.325731E+03
       230  24 -2.865712E+05 -1.028911E+05 -5.417701E+02 -1.908903E+05 -4.064970E+02  1.084959E+03
       230  25 -1.635532E+05 -5.881650E+04  1.901186E+04 -1.565033E+05  1.479035E+04 -5.818943E+03
       230  26 -2.360630E+05 -7.798056E+04  8.445850E+03 -1.696454E+05  1.242029E+04 -4.128498E+02
       230  27 -2.985821E+05 -1.071763E+05 -2.342145E+03 -1.942674E+05  1.004526E+04  5.007352E+03
       231   1 -2.314880E+05 -8.310266E+04  8.620300E+03 -1.754889E+05  1.216130E+04 -3.529565E+02
       231   2 -1.689654E+05 -5.390934E+04  1.932717E+04 -1.508687E+05  1.458133E+04 -5.754849E+03
       231   3 -9.645876E+04 -3.474904E+04  2.977815E+04 -1.377285E+05  1.699578E+04 -1.114050E+04
       231   4 -2.865739E+05 -1.028915E+05 -5.595268E+02 -1.908909E+05  1.709016E+03 -4.275620E+03
       231   5 -2.915632E+05 -9.787084E+04 -7.502982E+02 -1.851514E+05  4.158854E+03 -9.666841E+03
       231   6 -2.865788E+05 -1.028895E+05 -1.220754E+03 -1.908939E+05  6.603083E+03 -1.504186E+04
       231   7 -3.416558E+05 -1.226797E+05 -9.738792E+03 -2.062913E+05 -8.742171E+03 -8.197873E+03
       231   8 -4.141446E+05 -1.418307E+05 -2.082764E+04 -2.194278E+05 -6.261441E+03 -1.357801E+04
       231   9 -4.766621E+05 -1.710270E+05 -3.222057E+04 -2.440445E+05 -3.786349E+03 -1.894200E+04
       231  10 -2.314881E+05 -8.310270E+04  8.620022E+03 -1.754889E+05 -2.707014E-09  1.126962E-09
       231  11 -1.689657E+05 -5.390943E+04  1.932671E+04 -1.508686E+05 -2.772409E-09 -4.467313E-10
       231  12 -9.645911E+04 -3.474925E+04  2.977738E+04 -1.377283E+05 -1.933505E-09 -1.083606E-09
       231  13 -2.865739E+05 -1.028915E+05 -5.595667E+02 -1.908909E+05 -3.102911E-10  1.917242E-10
       231  14 -2.915632E+05 -9.787095E+04 -7.505063E+02 -1.851514E+05 -3.588514E-09  1.161086E-09
       231  15 -2.865789E+05 -1.028898E+05 -1.221261E+03 -1.908938E+05 -2.311641E-09 -1.610443E-10
       231  16 -3.416559E+05 -1.226798E+05 -9.739062E+03 -2.062914E+05  2.712578E-09 -1.046529E-09
       231  17 -4.141447E+05 -1.418309E+05 -2.082806E+04 -2.194279E+05 -5.090777E-10  5.316229E-10
       231  18 -4.766622E+05 -1.710274E+05 -3.222127E+04 -2.440446E+05 -4.551676E-10  9.698757E-10
       231  19 -2.314880E+05 -8.310266E+04  8.620300E+03 -1.754889E+05 -1.216130E+04  3.529565E+02
       231  20 -1.689654E+05 -5.390934E+04  1.932717E+04 -1.508687E+05 -1.458133E+04  5.754849E+03
       231  21 -9.645876E+04 -3.474904E+04  2.977815E+04 -1.377285E+05 -1.699578E+04  1.114050E+04
       231  22 -2.865739E+05 -1.028915E+05 -5.595268E+02 -1.908909E+05 -1.709016E+03  4.275620E+03
       231  23 -2.915632E+05 -9.787084E+04 -7.502982E+02 -1.851514E+05 -4.158854E+03  9.666841E+03
       231  24 -2.865788E+05 -1.028895E+05 -1.220754E+03 -1.908939E+05 -6.603083E+03  1.504186E+04
       231  25 -3.416558E+05 -1.226797E+05 -9.738792E+03 -2.062913E+05  8.742171E+03  8.197873E+03
       231  26 -4.141446E+05 -1.418307E+05 -2.082764E+04 -2.194278E+05  6.261441E+03  1.357801E+04
       231  27 -4.766621E+05 -1.710270E+05 -3.222057E+04 -2.440445E+05  3.786349E+03  1.894200E+04
       232   1 -5.340080E+04 -1.926148E+04  3.680052E+04 -1.257447E+05  1.844717E+04 -1.426177E+04
       232   2  9.145914E+03  9.943392E+03  4.658439E+04 -1.010876E+05  2.157304E+04 -1.927856E+04
       232   3  8.151584E+04  2.895949E+04  5.551849E+04 -8.788583E+04  2.463470E+04 -2.412078E+04
       232   4 -2.866243E+05 -1.028850E+05 -1.592290E+03 -1.909099E+05  8.041652E+03 -1.816851E+04
       232   5 -2.915264E+05 -9.787996E+04 -2.836557E+03 -1.851387E+05  1.149541E+04 -2.306347E+04
       232   6 -2.866747E+05 -1.031297E+05 -5.190891E+03 -1.908251E+05  1.488480E+04 -2.778387E+04
       232   7 -5.197893E+05 -1.865028E+05 -3.998587E+04 -2.560521E+05 -2.359717E+03 -2.207368E+04
       232   8 -5.921000E+05 -2.056935E+05 -5.225866E+04 -2.691511E+05  1.423008E+03 -2.684643E+04
       232   9 -6.547161E+05 -2.352035E+05 -6.590186E+04 -2.937060E+05  5.141134E+03 -3.144463E+04
       232  10 -5.340122E+04 -1.926179E+04  3.679950E+04 -1.257445E+05 -1.743137E-09 -5.416220E-10
       232  11  9.145314E+03  9.942868E+03  4.658282E+04 -1.010873E+05 -3.094999E-09  4.333908E-11
       232  12  8.151503E+04  2.895870E+04  5.551625E+04 -8.788535E+04 -2.603123E-09  1.624006E-10
       232  13 -2.866245E+05 -1.028853E+05 -1.593032E+03 -1.909098E+05 -2.103965E-09 -2.507451E-10
       232  14 -2.915266E+05 -9.788056E+04 -2.837805E+03 -1.851385E+05 -2.659752E-09 -5.719233E-10
       232  15 -2.866752E+05 -1.031305E+05 -5.192757E+03 -1.908248E+05  1.851503E-09  5.777936E-11
       232  16 -5.197895E+05 -1.865034E+05 -3.998680E+04 -2.560522E+05 -4.546031E-10  4.719147E-10
       232  17 -5.921002E+05 -2.056942E+05 -5.226001E+04 -2.691511E+05  7.520984E-10 -1.575311E-09
       232  18 -6.547163E+05 -2.352046E+05 -6.590377E+04 -2.937059E+05  2.302597E-09  7.869754E-11
       232  19 -5.340080E+04 -1.926148E+04  3.680052E+04 -1.257447E+05 -1.844717E+04  1.426177E+04
       232  20  9.145914E+03  9.943392E+03  4.658439E+04 -1.010876E+05 -2.157304E+04  1.927856E+04
       232  21  8.151584E+04  2.895949E+04  5.551849E+04 -8.788583E+04 -2.463470E+04  2.412078E+04
       232  22 -2.866243E+05 -1.028850E+05 -1.592290E+03 -1.909099E+05 -8.041652E+03  1.816851E+04
       232  23 -2.915264E+05 -9.787996E+04 -2.836557E+03 -1.851387E+05 -1.149541E+04  2.306347E+04
       232  24 -2.866747E+05 -1.031297E+05 -5.190891E+03 -1.908251E+05 -1.488480E+04  2.778387E+04
       232  25 -5.197893E+05 -1.865028E+05 -3.998587E+04 -2.560521E+05  2.359717E+03  2.207368E+04
       232  26 -5.921000E+05 -2.056935E+05 -5.225866E+04 -2.691511E+05 -1.423008E+03  2.684643E+04
       232  27 -6.547161E+05 -2.352035E+05 -6.590186E+04 -2.937060E+05 -5.141134E+03  3.144463E+04
       233   1  1.246457E+05  4.419646E+04  6.136386E+04 -7.633250E+04  2.688497E+04 -2.680616E+04
       233   2  1.862092E+05  7.381549E+04  6.799110E+04 -4.968758E+04  3.162223E+04 -2.999898E+04
       233   3  2.561498E+05  9.038869E+04  7.147517E+04 -3.367674E+04  3.569974E+04 -3.143088E+04
       233   4 -2.870239E+05 -1.031260E+05 -6.922399E+03 -1.909345E+05  1.699434E+04 -3.052304E+04
       233   5 -2.913042E+05 -9.918876E+04 -1.273165E+04 -1.845259E+05  2.505065E+04 -3.247103E+04
       233   6 -2.878724E+05 -1.089590E+05 -2.431741E+04 -1.887549E+05  3.244659E+04 -3.265744E+04
       233   7 -6.985172E+05 -2.504335E+05 -7.521363E+04 -3.054666E+05  7.110551E+03 -3.423737E+04
       233   8 -7.685775E+05 -2.721705E+05 -9.346100E+04 -3.192677E+05  1.848440E+04 -3.494105E+04
       233   9 -8.315815E+05 -3.082755E+05 -1.201193E+05 -3.437053E+05  2.919647E+04 -3.388283E+04
       233  10  1.246447E+05  4.419550E+04  6.136115E+04 -7.633192E+04  8.310053E-10  1.673393E-09
       233  11  1.862079E+05  7.381426E+04  6.798753E+04 -4.968682E+04 -1.339543E-09  1.812759E-09
       233  12  2.561482E+05  9.038728E+04  7.147092E+04 -3.367584E+04  3.697945E-09 -9.783641E-11
       233  13 -2.870245E+05 -1.031271E+05 -6.924692E+03 -1.909341E+05 -2.600585E-10  2.894833E-10
       233  14 -2.913051E+05 -9.919006E+04 -1.273481E+04 -1.845253E+05  5.364979E-09  8.744187E-10
       233  15 -2.878738E+05 -1.089604E+05 -2.432139E+04 -1.887540E+05  1.106826E-08  3.045249E-09
       233  16 -6.985176E+05 -2.504347E+05 -7.521593E+04 -3.054664E+05  8.281015E-10 -8.529327E-10
       233  17 -7.685782E+05 -2.721719E+05 -9.346394E+04 -3.192672E+05  5.337674E-09  7.267910E-10
       233  18 -8.315827E+05 -3.082770E+05 -1.201230E+05 -3.437045E+05  1.270907E-08  3.984098E-09
       233  19  1.246457E+05  4.419646E+04  6.136386E+04 -7.633250E+04 -2.688497E+04  2.680616E+04
       233  20  1.862092E+05  7.381549E+04  6.799110E+04 -4.968758E+04 -3.162223E+04  2.999898E+04
       233  21  2.561498E+05  9.038869E+04  7.147517E+04 -3.367674E+04 -3.569974E+04  3.143088E+04
       233  22 -2.870239E+05 -1.031260E+05 -6.922399E+03 -1.909345E+05 -1.699434E+04  3.052304E+04
       233  23 -2.913042E+05 -9.918876E+04 -1.273165E+04 -1.845259E+05 -2.505065E+04  3.247103E+04
       233  24 -2.878724E+05 -1.089590E+05 -2.431741E+04 -1.887549E+05 -3.244659E+04  3.265744E+04
       233  25 -6.985172E+05 -2.504335E+05 -7.521363E+04 -3.054666E+05 -7.110551E+03  3.423737E+04
       233  26 -7.685775E+05 -2.721705E+05 -9.346100E+04 -3.192677E+05 -1.848440E+04  3.494105E+04
       233  27 -8.315815E+05 -3.082755E+05 -1.201193E+05 -3.437053E+05 -2.919647E+04  3.388283E+04
       234   1  3.008060E+05  1.016015E+05  7.276777E+04 -2.766463E+04  4.152724E+04 -3.141499E+04
       234   2  3.401323E+05  1.382325E+05  6.990199E+04  3.705293E+04  3.768010E+04 -2.549500E+04
       234   3  3.689883E+05  1.137871E+05  5.373987E+04  1.057853E+05  2.711077E+04 -1.708269E+03
       234   4 -2.917866E+05 -1.094845E+05 -3.251935E+04 -1.898256E+05  3.682164E+04 -3.318782E+04
       234   5 -2.903279E+05 -1.258620E+05 -6.223278E+04 -1.729465E+05  6.669651E+04 -1.459216E+04
       234   6 -3.060491E+05 -2.100409E+05 -1.319813E+05 -1.520516E+05  8.984414E+04  2.187910E+04
       234   7 -8.840080E+05 -3.205391E+05 -1.378176E+05 -3.518430E+05  3.212083E+04 -3.495892E+04
       234   8 -9.203604E+05 -3.898801E+05 -1.943815E+05 -3.827320E+05  9.568086E+04 -3.705365E+03
       234   9 -9.805964E+05 -5.337332E+05 -3.177194E+05 -4.095949E+05  1.525012E+05  4.541971E+04
       234  10  3.008039E+05  1.016000E+05  7.276268E+04 -2.766358E+04  1.396288E-08  2.638755E-09
       234  11  3.401306E+05  1.382314E+05  6.989810E+04  3.705370E+04  4.110849E-09 -7.431953E-10
       234  12  3.689875E+05  1.137869E+05  5.373848E+04  1.057853E+05 -2.714574E-09 -1.504656E-09
       234  13 -2.917883E+05 -1.094860E+05 -3.252396E+04 -1.898246E+05  1.242593E-08  1.501366E-09
       234  14 -2.903328E+05 -1.258635E+05 -6.224154E+04 -1.729457E+05  2.987999E-09  5.387993E-10
       234  15 -3.060579E+05 -2.100436E+05 -1.319974E+05 -1.520532E+05 -3.244690E-10  1.887191E-09
       234  16 -8.840095E+05 -3.205407E+05 -1.378218E+05 -3.518421E+05  3.233760E-09  9.956006E-10
       234  17 -9.203703E+05 -3.898826E+05 -1.943987E+05 -3.827317E+05 -2.362168E-09  2.013219E-09
       234  18 -9.806220E+05 -5.337417E+05 -3.177671E+05 -4.096004E+05  8.738912E-10  3.249377E-10
       234  19  3.008060E+05  1.016015E+05  7.276777E+04 -2.766463E+04 -4.152724E+04  3.141499E+04
       234  20  3.401323E+05  1.382325E+05  6.990199E+04  3.705293E+04 -3.768010E+04  2.549500E+04
       234  21  3.689883E+05  1.137871E+05  5.373987E+04  1.057853E+05 -2.711077E+04  1.708269E+03
       234  22 -2.917866E+05 -1.094845E+05 -3.251935E+04 -1.898256E+05 -3.682164E+04  3.318782E+04
       234  23 -2.903279E+05 -1.258620E+05 -6.223278E+04 -1.729465E+05 -6.669651E+04  1.459216E+04
       234  24 -3.060491E+05 -2.100409E+05 -1.319813E+05 -1.520516E+05 -8.984414E+04 -2.187910E+04
       234  25 -8.840080E+05 -3.205391E+05 -1.378176E+05 -3.518430E+05 -3.212083E+04  3.495892E+04
       234  26 -9.203604E+05 -3.898801E+05 -1.943815E+05 -3.827320E+05 -9.568086E+04  3.705365E+03
       234  27 -9.805964E+05 -5.337332E+05 -3.177194E+05 -4.095949E+05 -1.525012E+05 -4.541971E+04
       235   1  1.094330E+06  1.523820E+05  1.326726E+05  7.774701E+03  3.188037E+04 -1.266371E+04
       235   2  1.051271E+06  1.824032E+05  1.169115E+05  2.919487E+04  1.040192E+04 -4.385190E+04
       235   3  1.004382E+06  1.857951E+05  1.085027E+05  5.703750E+04 -1.110534E+04 -5.559430E+04
       235   4  1.701719E+05 -7.469781E+04 -8.026985E+04  5.641809E+04 -5.647502E+04 -1.282212E+04
       235   5  1.757498E+05 -2.386339E+04 -4.009439E+04  5.313864E+04 -3.590215E+04 -4.394618E+04
       235   6  1.701906E+05 -6.977589E+03 -2.175469E+04  5.628137E+04 -1.535958E+04 -5.561017E+04
       235   7 -7.531754E+05 -3.018241E+05 -2.932383E+05  1.049883E+05 -1.447000E+05 -1.299448E+04
       235   8 -6.990191E+05 -2.301692E+05 -1.971214E+05  7.704739E+04 -8.214281E+04 -4.404411E+04
       235   9 -6.633072E+05 -1.997845E+05 -1.520286E+05  5.552593E+04 -1.960831E+04 -5.562604E+04
       235  10  1.094329E+06  1.523816E+05  1.326704E+05  7.775026E+03  5.437860E-09 -9.642352E-10
       235  11  1.051270E+06  1.824011E+05  1.169077E+05  2.919523E+04  5.743249E-09 -4.639554E-09
       235  12  1.004381E+06  1.857918E+05  1.084967E+05  5.703701E+04 -1.145613E-09 -2.878851E-09
       235  13  1.701684E+05 -7.469884E+04 -8.027615E+04  5.641751E+04  6.785759E-11  8.794649E-10
       235  14  1.757479E+05 -2.386581E+04 -4.010044E+04  5.313737E+04 -8.246054E-10 -3.529592E-09
       235  15  1.701895E+05 -6.980973E+03 -2.176095E+04  5.628068E+04 -1.156694E-09  5.916705E-10
       235  16 -7.531980E+05 -3.018299E+05 -2.932780E+05  1.049867E+05 -7.886405E-09 -2.841103E-10
       235  17 -6.990269E+05 -2.301731E+05 -1.971377E+05  7.704447E+04 -5.027067E-09 -7.393875E-09
       235  18 -6.633084E+05 -1.997879E+05 -1.520351E+05  5.552505E+04 -1.899448E-10 -5.563758E-09
       235  19  1.094330E+06  1.523820E+05  1.326726E+05  7.774701E+03 -3.188037E+04  1.266371E+04
       235  20  1.051271E+06  1.824032E+05  1.169115E+05  2.919487E+04 -1.040192E+04  4.385190E+04
       235  21  1.004382E+06  1.857951E+05  1.085027E+05  5.703750E+04  1.110534E+04  5.559430E+04
       235  22  1.701719E+05 -7.469781E+04 -8.026985E+04  5.641809E+04  5.647502E+04  1.282212E+04
       235  23  1.757498E+05 -2.386339E+04 -4.009439E+04  5.313864E+04  3.590215E+04  4.394618E+04
       235  24  1.701906E+05 -6.977589E+03 -2.175469E+04  5.628137E+04  1.535958E+04  5.561017E+04
       235  25 -7.531754E+05 -3.018241E+05 -2.932383E+05  1.049883E+05  1.447000E+05  1.299448E+04
       235  26 -6.990191E+05 -2.301692E+05 -1.971214E+05  7.704739E+04  8.214281E+04  4.404411E+04
       235  27 -6.633072E+05 -1.997845E+05 -1.520286E+05  5.552593E+04  1.960831E+04  5.562604E+04
       236   1  9.773953E+05  1.799769E+05  1.061167E+05  5.492911E+04 -8.585448E+03 -5.597337E+04
       236   2  9.328808E+05  1.725134E+05  1.013705E+05  5.266861E+04 -9.247887E+03 -5.662802E+04
       236   3  8.879815E+05  1.631717E+05  9.658937E+04  5.820304E+04 -9.916074E+03 -5.492163E+04
       236   4  1.723911E+05 -5.386401E+03 -1.630937E+04  5.659562E+04 -1.253906E+04 -5.598883E+04
       236   5  1.730382E+05 -1.397085E+03 -8.861674E+03  5.269178E+04 -8.099609E+03 -5.663234E+04
       236   6  1.724130E+05 -1.724654E+02 -4.991238E+03  5.658352E+04 -3.665848E+03 -5.491332E+04
       236   7 -6.319646E+05 -1.907808E+05 -1.387490E+05  5.825954E+04 -1.648775E+04 -5.600431E+04
       236   8 -5.862228E+05 -1.753341E+05 -1.191033E+05  5.271458E+04 -6.952671E+03 -5.663667E+04
       236   9 -5.426380E+05 -1.635397E+05 -1.065790E+05  5.496564E+04  2.577495E+03 -5.490504E+04
       236  10  9.773944E+05  1.799736E+05  1.061107E+05  5.492872E+04  5.604659E-08 -2.606146E-09
       236  11  9.328799E+05  1.725099E+05  1.013644E+05  5.266819E+04 -1.101556E-09  3.078483E-09
       236  12  8.879806E+05  1.631684E+05  9.658351E+04  5.820260E+04 -6.150789E-08  2.394873E-09
       236  13  1.723901E+05 -5.389810E+03 -1.631556E+04  5.659506E+04  9.123891E-12 -6.053505E-10
       236  14  1.730373E+05 -1.400546E+03 -8.867825E+03  5.269141E+04  3.026478E-09  2.856246E-09
       236  15  1.724121E+05 -1.757073E+02 -4.996931E+03  5.658336E+04 -1.497514E-09 -1.633964E-09
       236  16 -6.319658E+05 -1.907842E+05 -1.387554E+05  5.825880E+04 -5.764569E-08  1.840415E-09
       236  17 -5.862237E+05 -1.753375E+05 -1.191094E+05  5.271427E+04  4.942422E-10  4.207592E-09
       236  18 -5.426388E+05 -1.635429E+05 -1.065847E+05  5.496575E+04  6.220001E-08  8.779754E-10
       236  19  9.773953E+05  1.799769E+05  1.061167E+05  5.492911E+04  8.585448E+03  5.597337E+04
       236  20  9.328808E+05  1.725134E+05  1.013705E+05  5.266861E+04  9.247887E+03  5.662802E+04
       236  21  8.879815E+05  1.631717E+05  9.658937E+04  5.820304E+04  9.916074E+03  5.492163E+04
       236  22  1.723911E+05 -5.386401E+03 -1.630937E+04  5.659562E+04  1.253906E+04  5.598883E+04
       236  23  1.730382E+05 -1.397085E+03 -8.861674E+03  5.269178E+04  8.099609E+03  5.663234E+04
       236  24  1.724130E+05 -1.724654E+02 -4.991238E+03  5.658352E+04  3.665848E+03  5.491332E+04
       236  25 -6.319646E+05 -1.907808E+05 -1.387490E+05  5.825954E+04  1.648775E+04  5.600431E+04
       236  26 -5.862228E+05 -1.753341E+05 -1.191033E+05  5.271458E+04  6.952671E+03  5.663667E+04
       236  27 -5.426380E+05 -1.635397E+05 -1.065790E+05  5.496564E+04 -2.577495E+03  5.490504E+04
       237   1  8.601684E+05  1.567555E+05  9.329668E+04  5.794212E+04 -9.207247E+03 -5.314616E+04
       237   2  8.155707E+05  1.467026E+05  8.806401E+04  5.395650E+04 -8.775273E+03 -5.009701E+04
       237   3  7.708811E+05  1.365828E+05  8.252813E+04  5.792451E+04 -8.345234E+03 -4.676195E+04
       237   4  1.726584E+05 -7.884054E+01 -3.771271E+03  5.661975E+04 -2.922556E+03 -5.313697E+04
       237   5  1.727686E+05  1.763154E+02 -2.125455E+03  5.264227E+04 -1.873543E+03 -5.008504E+04
       237   6  1.726777E+05  2.573719E+02 -1.211692E+03  5.661891E+04 -8.264344E+02 -4.674705E+04
       237   7 -5.143736E+05 -1.569343E+05 -1.008455E+05  5.529862E+04  3.355486E+03 -5.312780E+04
       237   8 -4.696151E+05 -1.463684E+05 -9.232014E+04  5.132920E+04  5.021363E+03 -5.007309E+04
       237   9 -4.251632E+05 -1.360839E+05 -8.495590E+04  5.531438E+04  6.685446E+03 -4.673216E+04
       237  10  8.601676E+05  1.567524E+05  9.329121E+04  5.794173E+04 -2.964650E-08  2.951082E-09
       237  11  8.155699E+05  1.466999E+05  8.805915E+04  5.395615E+04  9.882766E-09  4.165854E-09
       237  12  7.708804E+05  1.365804E+05  8.252389E+04  5.792420E+04  4.797506E-08  4.410576E-09
       237  13  1.726576E+05 -8.187506E+01 -3.776593E+03  5.661963E+04 -1.254180E-10 -5.597788E-09
       237  14  1.727679E+05  1.736205E+02 -2.130175E+03  5.264220E+04  2.462525E-09 -4.724113E-09
       237  15  1.726771E+05  2.550249E+02 -1.215800E+03  5.661888E+04  8.078464E-10 -7.526051E-09
       237  16 -5.143743E+05 -1.569374E+05 -1.008509E+05  5.529877E+04  2.889236E-08  1.493130E-09
       237  17 -4.696158E+05 -1.463711E+05 -9.232489E+04  5.132941E+04 -8.604676E-09  5.273037E-09
       237  18 -4.251638E+05 -1.360863E+05 -8.496009E+04  5.531463E+04 -4.759190E-08  4.825841E-09
       237  19  8.601684E+05  1.567555E+05  9.329668E+04  5.794212E+04  9.207247E+03  5.314616E+04
       237  20  8.155707E+05  1.467026E+05  8.806401E+04  5.395650E+04  8.775273E+03  5.009701E+04
       237  21  7.708811E+05  1.365828E+05  8.252813E+04  5.792451E+04  8.345234E+03  4.676195E+04
       237  22  1.726584E+05 -7.884054E+01 -3.771271E+03  5.661975E+04  2.922556E+03  5.313697E+04
       237  23  1.727686E+05  1.763154E+02 -2.125455E+03  5.264227E+04  1.873543E+03  5.008504E+04
       237  24  1.726777E+05  2.573719E+02 -1.211692E+03  5.661891E+04  8.264344E+02  4.674705E+04
       237  25 -5.143736E+05 -1.569343E+05 -1.008455E+05  5.529862E+04 -3.355486E+03  5.312780E+04
       237  26 -4.696151E+05 -1.463684E+05 -9.232014E+04  5.132920E+04 -5.021363E+03  5.007309E+04
       237  27 -4.251632E+05 -1.360839E+05 -8.495590E+04  5.531438E+04 -6.685446E+03  4.673216E+04
       238   1  7.430188E+05  1.301898E+05  7.871589E+04  5.785150E+04 -8.161956E+03 -4.472683E+04
       238   2  6.984336E+05  1.200225E+05  7.288289E+04  5.378255E+04 -7.985634E+03 -4.123079E+04
       238   3  6.538050E+05  1.099005E+05  6.693633E+04  5.768029E+04 -7.810475E+03 -3.770070E+04
       238   4  1.727154E+05  2.609423E+02 -9.169186E+02  5.662190E+04 -6.404284E+02 -4.471115E+04
       238   5  1.727529E+05  2.566347E+02 -5.202029E+02  5.263835E+04 -3.909949E+02 -4.121375E+04
       238   6  1.727314E+05  2.847203E+02 -2.882665E+02  5.662187E+04 -1.427133E+02 -3.768228E+04
       238   7 -3.972583E+05 -1.296823E+05 -8.055361E+04  5.539327E+04  6.874501E+03 -4.469549E+04
       238   8 -3.526477E+05 -1.195215E+05 -7.392656E+04  5.149497E+04  7.197503E+03 -4.119673E+04
       238   9 -3.081077E+05 -1.093413E+05 -6.751558E+04  5.556414E+04  7.519373E+03 -3.766388E+04
       238  10  7.430182E+05  1.301876E+05  7.871200E+04  5.785121E+04 -2.294758E-08  4.525152E-09
       238  11  6.984331E+05  1.200207E+05  7.287957E+04  5.378228E+04  9.450481E-09  6.639774E-09
       238  12  6.538045E+05  1.098989E+05  6.693355E+04  5.768006E+04  3.597068E-08  2.337319E-09
       238  13  1.727149E+05  2.587953E+02 -9.206763E+02  5.662188E+04  2.156196E-09 -9.433455E-09
       238  14  1.727524E+05  2.548106E+02 -5.233954E+02  5.263833E+04 -7.665918E-11  7.377804E-09
       238  15  1.727310E+05  2.831953E+02 -2.909352E+02  5.662187E+04 -1.153752E-09  1.334550E-08
       238  16 -3.972589E+05 -1.296844E+05 -8.055745E+04  5.539351E+04  2.302480E-08  5.181046E-09
       238  17 -3.526483E+05 -1.195233E+05 -7.392984E+04  5.149521E+04 -9.985172E-09  2.199216E-09
       238  18 -3.081081E+05 -1.093428E+05 -6.751835E+04  5.556437E+04 -3.623786E-08 -2.971549E-09
       238  19  7.430188E+05  1.301898E+05  7.871589E+04  5.785150E+04  8.161956E+03  4.472683E+04
       238  20  6.984336E+05  1.200225E+05  7.288289E+04  5.378255E+04  7.985634E+03  4.123079E+04
       238  21  6.538050E+05  1.099005E+05  6.693633E+04  5.768029E+04  7.810475E+03  3.770070E+04
       238  22  1.727154E+05  2.609423E+02 -9.169186E+02  5.662190E+04  6.404284E+02  4.471115E+04
       238  23  1.727529E+05  2.566347E+02 -5.202029E+02  5.263835E+04  3.909949E+02  4.121375E+04
       238  24  1.727314E+05  2.847203E+02 -2.882665E+02  5.662187E+04  1.427133E+02  3.768228E+04
       238  25 -3.972583E+05 -1.296823E+05 -8.055361E+04  5.539327E+04 -6.874501E+03  4.469549E+04
       238  26 -3.526477E+05 -1.195215E+05 -7.392656E+04  5.149497E+04 -7.197503E+03  4.119673E+04
       238  27 -3.081077E+05 -1.093413E+05 -6.751558E+04  5.556414E+04 -7.519373E+03  3.766388E+04
       239   1  6.259501E+05  1.035243E+05  6.295747E+04  5.762677E+04 -7.769312E+03 -3.563522E+04
       239   2  5.813899E+05  9.336842E+04  5.692012E+04  5.355590E+04 -7.736182E+03 -3.208674E+04
       239   3  5.367938E+05  8.326166E+04  5.085955E+04  5.745361E+04 -7.703892E+03 -2.853471E+04
       239   4  1.727408E+05  2.884855E+02 -2.111835E+02  5.662228E+04 -1.023985E+02 -3.561618E+04
       239   5  1.727663E+05  2.730792E+02 -1.005508E+02  5.263784E+04 -6.180976E+01 -3.206676E+04
       239   6  1.727532E+05  3.057580E+02 -1.830012E+01  5.662226E+04 -2.205932E+01 -2.851379E+04
       239   7 -2.802602E+05 -1.029564E+05 -6.338216E+04  5.561841E+04  7.559170E+03 -3.559715E+04
       239   8 -2.356879E+05 -9.282964E+04 -5.712310E+04  5.172028E+04  7.607738E+03 -3.204679E+04
       239   9 -1.911530E+05 -8.265601E+04 -5.089761E+04  5.579133E+04  7.655470E+03 -2.849288E+04
       239  10  6.259497E+05  1.035230E+05  6.295497E+04  5.762655E+04  2.341012E-09 -2.928708E-09
       239  11  5.813896E+05  9.336729E+04  5.691808E+04  5.355570E+04 -1.047161E-08 -3.429664E-09
       239  12  5.367935E+05  8.326077E+04  5.085791E+04  5.745343E+04 -2.460715E-08 -1.452174E-09
       239  13  1.727404E+05  2.871233E+02 -2.135675E+02  5.662228E+04  1.280728E-10  2.113298E-08
       239  14  1.727661E+05  2.719750E+02 -1.024833E+02  5.263784E+04  2.076753E-09  7.998511E-09
       239  15  1.727530E+05  3.048849E+02 -1.982810E+01  5.662226E+04  9.783657E-10  1.087763E-09
       239  16 -2.802606E+05 -1.029578E+05 -6.338465E+04  5.561862E+04 -3.397878E-09 -5.064437E-10
       239  17 -2.356883E+05 -9.283076E+04 -5.712513E+04  5.172048E+04  1.026144E-08 -6.836870E-09
       239  18 -1.911533E+05 -8.265689E+04 -5.089924E+04  5.579150E+04  2.716792E-08 -3.468553E-09
       239  19  6.259501E+05  1.035243E+05  6.295747E+04  5.762677E+04  7.769312E+03  3.563522E+04
       239  20  5.813899E+05  9.336842E+04  5.692012E+04  5.355590E+04  7.736182E+03  3.208674E+04
       239  21  5.367938E+05  8.326166E+04  5.085955E+04  5.745361E+04  7.703892E+03  2.853471E+04
       239  22  1.727408E+05  2.884855E+02 -2.111835E+02  5.662228E+04  1.023985E+02  3.561618E+04
       239  23  1.727663E+05  2.730792E+02 -1.005508E+02  5.263784E+04  6.180976E+01  3.206676E+04
       239  24  1.727532E+05  3.057580E+02 -1.830012E+01  5.662226E+04  2.205932E+01  2.851379E+04
       239  25 -2.802602E+05 -1.029564E+05 -6.338216E+04  5.561841E+04 -7.559170E+03  3.559715E+04
       239  26 -2.356879E+05 -9.282964E+04 -5.712310E+04  5.172028E+04 -7.607738E+03  3.204679E+04
       239  27 -1.911530E+05 -8.265601E+04 -5.089761E+04  5.579133E+04 -7.655470E+03  2.849288E+04
       240   1  5.089545E+05  7.689075E+04  4.684797E+04  5.739786E+04 -7.708303E+03 -2.646637E+04
       240   2  4.644122E+05  6.674261E+04  4.079231E+04  5.331874E+04 -7.766856E+03 -2.291296E+04
       240   3  4.198416E+05  5.665632E+04  3.477385E+04  5.720373E+04 -7.825998E+03 -1.935969E+04
       240   4  1.727587E+05  3.100710E+02  1.809887E+01  5.662126E+04 -2.746689E+01 -2.644498E+04
       240   5  1.727783E+05  2.967308E+02  9.890479E+01  5.263906E+04 -8.655226E+01 -2.289092E+04
       240   6  1.727676E+05  3.453691E+02  2.171293E+02  5.662118E+04 -1.462292E+02 -1.933699E+04
       240   7 -1.633224E+05 -7.627558E+04 -4.681295E+04  5.584501E+04  7.649397E+03 -2.642361E+04
       240   8 -1.187693E+05 -6.615290E+04 -4.059534E+04  5.195965E+04  7.590306E+03 -2.286889E+04
       240   9 -7.424448E+04 -5.596827E+04 -3.434015E+04  5.603882E+04  7.530619E+03 -1.931430E+04
       240  10  5.089543E+05  7.688998E+04  4.684655E+04  5.739770E+04 -1.931010E-09  3.673960E-09
       240  11  4.644120E+05  6.674203E+04  4.079121E+04  5.331860E+04 -1.751009E-09  2.042032E-10
       240  12  4.198415E+05  5.665590E+04  3.477303E+04  5.720361E+04 -8.543201E-09 -9.766868E-10
       240  13  1.727585E+05  3.093200E+02  1.678457E+01  5.662126E+04  2.156258E-09  7.215334E-10
       240  14  1.727781E+05  2.961681E+02  9.792001E+01  5.263906E+04 -2.300116E-09  5.225880E-11
       240  15  1.727675E+05  3.449676E+02  2.164265E+02  5.662118E+04 -2.268599E-09  6.519264E-10
       240  16 -1.633226E+05 -7.627635E+04 -4.681437E+04  5.584517E+04  4.279887E-09  3.113468E-09
       240  17 -1.187695E+05 -6.615347E+04 -4.059643E+04  5.195979E+04  5.244372E-09 -1.012035E-08
       240  18 -7.424464E+04 -5.596869E+04 -3.434096E+04  5.603894E+04  8.942664E-09 -2.692357E-09
       240  19  5.089545E+05  7.689075E+04  4.684797E+04  5.739786E+04  7.708303E+03  2.646637E+04
       240  20  4.644122E+05  6.674261E+04  4.079231E+04  5.331874E+04  7.766856E+03  2.291296E+04
       240  21  4.198416E+05  5.665632E+04  3.477385E+04  5.720373E+04  7.825998E+03  1.935969E+04
       240  22  1.727587E+05  3.100710E+02  1.809887E+01  5.662126E+04  2.746689E+01  2.644498E+04
       240  23  1.727783E+05  2.967308E+02  9.890479E+01  5.263906E+04  8.655226E+01  2.289092E+04
       240  24  1.727676E+05  3.453691E+02  2.171293E+02  5.662118E+04  1.462292E+02  1.933699E+04
       240  25 -1.633224E+05 -7.627558E+04 -4.681295E+04  5.584501E+04 -7.649397E+03  2.642361E+04
       240  26 -1.187693E+05 -6.615290E+04 -4.059534E+04  5.195965E+04 -7.590306E+03  2.286889E+04
       240  27 -7.424448E+04 -5.596827E+04 -3.434015E+04  5.603882E+04 -7.530619E+03  1.931430E+04
       241   1  3.920268E+05  5.029210E+04  3.080852E+04  5.715794E+04 -7.875027E+03 -1.729176E+04
       241   2  3.474688E+05  4.021427E+04  2.492095E+04  5.297108E+04 -8.154593E+03 -1.374018E+04
       241   3  3.029471E+05  3.036035E+04  1.925340E+04  5.674509E+04 -8.434488E+03 -1.019042E+04
       241   4  1.727844E+05  3.540876E+02  2.979272E+02  5.662053E+04 -1.960065E+02 -1.726875E+04
       241   5  1.727699E+05  4.092458E+02  5.457567E+02  5.263954E+04 -4.797479E+02 -1.371680E+04
       241   6  1.727896E+05  6.889289E+02  1.016157E+03  5.661952E+04 -7.638346E+02 -1.016665E+04
       241   7 -4.640922E+04 -4.958602E+04 -3.021303E+04  5.608327E+04  7.480424E+03 -1.724575E+04
       241   8 -1.898005E+03 -3.939710E+04 -2.382960E+04  5.230807E+04  7.193034E+03 -1.369341E+04
       241   9  4.264949E+04 -2.898322E+04 -1.722108E+04  5.649397E+04  6.905282E+03 -1.014289E+04
       241  10  3.920267E+05  5.029176E+04  3.080784E+04  5.715783E+04 -7.198062E-08  2.832364E-09
       241  11  3.474687E+05  4.021405E+04  2.492047E+04  5.297099E+04  1.549974E-09 -1.432612E-09
       241  12  3.029470E+05  3.036022E+04  1.925307E+04  5.674502E+04  7.367391E-08  1.905490E-09
       241  13  1.727843E+05  3.537674E+02  2.973667E+02  5.662052E+04 -2.881362E-11  1.386095E-09
       241  14  1.727698E+05  4.090437E+02  5.454027E+02  5.263953E+04  1.946264E-09  1.714844E-09
       241  15  1.727896E+05  6.888178E+02  1.015962E+03  5.661952E+04 -1.096333E-09 -4.193292E-09
       241  16 -4.640936E+04 -4.958636E+04 -3.021370E+04  5.608338E+04  7.046754E-08 -2.848765E-11
       241  17 -1.898111E+03 -3.939732E+04 -2.383005E+04  5.230815E+04 -5.588536E-09 -5.497202E-09
       241  18  4.264941E+04 -2.898334E+04 -1.722136E+04  5.649403E+04 -7.182517E-08 -9.776889E-09
       241  19  3.920268E+05  5.029210E+04  3.080852E+04  5.715794E+04  7.875027E+03  1.729176E+04
       241  20  3.474688E+05  4.021427E+04  2.492095E+04  5.297108E+04  8.154593E+03  1.374018E+04
       241  21  3.029471E+05  3.036035E+04  1.925340E+04  5.674509E+04  8.434488E+03  1.019042E+04
       241  22  1.727844E+05  3.540876E+02  2.979272E+02  5.662053E+04  1.960065E+02  1.726875E+04
       241  23  1.727699E+05  4.092458E+02  5.457567E+02  5.263954E+04  4.797479E+02  1.371680E+04
       241  24  1.727896E+05  6.889289E+02  1.016157E+03  5.661952E+04  7.638346E+02  1.016665E+04
       241  25 -4.640922E+04 -4.958602E+04 -3.021303E+04  5.608327E+04 -7.480424E+03  1.724575E+04
       241  26 -1.898005E+03 -3.939710E+04 -2.382960E+04  5.230807E+04 -7.193034E+03  1.369341E+04
       241  27  4.264949E+04 -2.898322E+04 -1.722108E+04  5.649397E+04 -6.905282E+03  1.014289E+04
       242   1  2.752604E+05  2.408928E+04  1.554758E+04  5.683036E+04 -8.615940E+03 -8.124584E+03
       242   2  2.304150E+05  1.497954E+04  1.054949E+04  5.119439E+04 -9.879586E+03 -4.585451E+03
       242   3  1.862174E+05  8.043050E+03  6.898121E+03  5.351423E+04 -1.114325E+04 -1.059727E+03
       242   4  1.729280E+05  7.896393E+02  1.358080E+03  5.661940E+04 -9.459579E+02 -8.100664E+03
       242   5  1.726030E+05  1.822663E+03  2.506693E+03  5.263497E+04 -2.238726E+03 -4.561515E+03
       242   6  1.729294E+05  5.034268E+03  5.022298E+03  5.660629E+04 -3.531590E+03 -1.035786E+03
       242   7  7.060639E+04 -2.251043E+04 -1.283132E+04  5.640846E+04  6.722817E+03 -8.076747E+03
       242   8  1.147945E+05 -1.133433E+04 -5.535919E+03  5.407541E+04  5.401455E+03 -4.537543E+03
       242   9  1.596418E+05  2.025545E+03  3.146696E+03  5.969828E+04  4.079916E+03 -1.011768E+03
       242  10  2.752603E+05  2.408919E+04  1.554732E+04  5.683030E+04 -7.584751E-09  4.068560E-09
       242  11  2.304149E+05  1.497949E+04  1.054926E+04  5.119436E+04 -6.693434E-10 -5.276063E-10
       242  12  1.862173E+05  8.043016E+03  6.897885E+03  5.351422E+04  5.412920E-09 -1.466780E-09
       242  13  1.729280E+05  7.895686E+02  1.357955E+03  5.661939E+04  2.274703E-09  4.203789E-09
       242  14  1.726030E+05  1.822639E+03  2.506645E+03  5.263496E+04  8.315533E-10 -7.681037E-09
       242  15  1.729294E+05  5.034264E+03  5.022273E+03  5.660629E+04 -1.108653E-09  3.115490E-09
       242  16  7.060633E+04 -2.251051E+04 -1.283153E+04  5.640851E+04  7.819207E-09  8.889205E-10
       242  17  1.147945E+05 -1.133436E+04 -5.536013E+03  5.407543E+04 -4.480921E-10  3.354663E-09
       242  18  1.596417E+05  2.025540E+03  3.146663E+03  5.969829E+04 -4.811447E-09 -3.064682E-10
       242  19  2.752604E+05  2.408928E+04  1.554758E+04  5.683036E+04  8.615940E+03  8.124584E+03
       242  20  2.304150E+05  1.497954E+04  1.054949E+04  5.119439E+04  9.879586E+03  4.585451E+03
       242  21  1.862174E+05  8.043050E+03  6.898121E+03  5.351423E+04  1.114325E+04  1.059727E+03
       242  22  1.729280E+05  7.896393E+02  1.358080E+03  5.661940E+04  9.459579E+02  8.100664E+03
       242  23  1.726030E+05  1.822663E+03  2.506693E+03  5.263497E+04  2.238726E+03  4.561515E+03
       242  24  1.729294E+05  5.034268E+03  5.022298E+03  5.660629E+04  3.531590E+03  1.035786E+03
       242  25  7.060639E+04 -2.251043E+04 -1.283132E+04  5.640846E+04 -6.722817E+03  8.076747E+03
       242  26  1.147945E+05 -1.133433E+04 -5.535919E+03  5.407541E+04 -5.401455E+03  4.537543E+03
       242  27  1.596418E+05  2.025545E+03  3.146696E+03  5.969828E+04 -4.079916E+03  1.011768E+03
       243   1 -3.341699E+04  4.331950E+05 -2.703009E+04 -9.955663E+04 -4.525869E+03 -1.733529E+04
       243   2 -6.182377E+04  3.600663E+05 -3.731223E+04 -8.584939E+04 -1.736598E+04 -1.477231E+04
       243   3 -8.194252E+04  2.886274E+05 -4.721338E+04 -8.627014E+04 -2.582543E+04 -1.220152E+04
       243   4  1.985567E+04  6.514343E+05  2.150394E+04 -8.676032E+04 -4.580906E+03  1.297355E+04
       243   5  5.981008E+03  6.498209E+05  1.225253E+04 -7.971177E+04 -1.740315E+04  6.698950E+03
       243   6  1.925831E+03  6.514253E+05  9.514419E+03 -8.678977E+04 -2.584571E+04  4.324059E+02
       243   7  7.312624E+04  8.697203E+05  7.003854E+04 -7.395944E+04 -4.634683E+03  4.329292E+04
       243   8  7.378171E+04  9.396590E+05  6.181624E+04 -7.357116E+04 -1.743988E+04  2.817991E+04
       243   9  8.578780E+04  1.014355E+06  6.623966E+04 -8.730966E+04 -2.586601E+04  1.307343E+04
       243  10 -3.341709E+04  4.331947E+05 -2.703070E+04 -9.955669E+04  1.528923E-09 -6.527111E-10
       243  11 -6.182415E+04  3.600659E+05 -3.731321E+04 -8.584959E+04 -1.050112E-09 -6.856207E-09
       243  12 -8.194328E+04  2.886271E+05 -4.721491E+04 -8.627039E+04 -2.034122E-10 -2.086671E-09
       243  13  1.985561E+04  6.514341E+05  2.150358E+04 -8.676027E+04  1.536855E-09 -8.337057E-11
       243  14  5.980671E+03  6.498207E+05  1.225187E+04 -7.971167E+04  2.385771E-10 -1.650713E-09
       243  15  1.925113E+03  6.514251E+05  9.513163E+03 -8.678976E+04  1.255881E-09 -2.516424E-09
       243  16  7.312571E+04  8.697183E+05  7.003499E+04 -7.395928E+04 -1.094969E-09  1.438347E-09
       243  17  7.378117E+04  9.396580E+05  6.181418E+04 -7.357076E+04 -6.084100E-10  4.047740E-10
       243  18  8.578704E+04  1.014354E+06  6.623809E+04 -8.730938E+04 -1.489409E-09  2.539132E-09
       243  19 -3.341699E+04  4.331950E+05 -2.703009E+04 -9.955663E+04  4.525869E+03  1.733529E+04
       243  20 -6.182377E+04  3.600663E+05 -3.731223E+04 -8.584939E+04  1.736598E+04  1.477231E+04
       243  21 -8.194252E+04  2.886274E+05 -4.721338E+04 -8.627014E+04  2.582543E+04  1.220152E+04
       243  22  1.985567E+04  6.514343E+05  2.150394E+04 -8.676032E+04  4.580906E+03 -1.297355E+04
       243  23  5.981008E+03  6.498209E+05  1.225253E+04 -7.971177E+04  1.740315E+04 -6.698950E+03
       243  24  1.925831E+03  6.514253E+05  9.514419E+03 -8.678977E+04  2.584571E+04 -4.324059E+02
       243  25  7.312624E+04  8.697203E+05  7.003854E+04 -7.395944E+04  4.634683E+03 -4.329292E+04
       243  26  7.378171E+04  9.396590E+05  6.181624E+04 -7.357116E+04  1.743988E+04 -2.817991E+04
       243  27  8.578780E+04  1.014355E+06  6.623966E+04 -8.730966E+04  2.586601E+04 -1.307343E+04
       244   1 -9.259377E+04  2.427565E+05 -5.389328E+04 -8.732218E+04 -2.940198E+04 -1.385884E+04
       244   2 -1.091957E+05  1.699183E+05 -6.275502E+04 -7.848013E+04 -3.457506E+04 -1.511266E+04
       244   3 -1.230016E+05  9.791481E+04 -7.011199E+04 -8.336769E+04 -3.742726E+04 -1.636173E+04
       244   4  1.705504E+03  6.510679E+05  9.511304E+03 -8.669924E+04 -2.942167E+04 -1.084604E+03
       244   5  1.750937E+03  6.502347E+05  1.185754E+04 -7.983173E+04 -3.458547E+04 -7.022256E+03
       244   6  5.403854E+03  6.510424E+05  1.895750E+04 -8.669291E+04 -3.742930E+04 -1.295532E+04
       244   7  9.599673E+04  1.059546E+06  7.291263E+04 -8.607580E+04 -2.944134E+04  1.169771E+04
       244   8  1.126863E+05  1.130781E+06  8.646498E+04 -8.118431E+04 -3.459592E+04  1.074167E+03
       244   9  1.337939E+05  1.204474E+06  1.080188E+05 -9.002107E+04 -3.743139E+04 -9.545976E+03
       244  10 -9.259475E+04  2.427561E+05 -5.389526E+04 -8.732251E+04 -8.439280E-10 -5.201618E-10
       244  11 -1.091970E+05  1.699177E+05 -6.275769E+04 -7.848055E+04 -3.188276E-10 -5.208113E-09
       244  12 -1.230032E+05  9.791414E+04 -7.011512E+04 -8.336819E+04  1.219702E-09  4.345463E-10
       244  13  1.704574E+03  6.510677E+05  9.509674E+03 -8.669927E+04  1.635761E-09 -9.152290E-13
       244  14  1.749639E+03  6.502343E+05  1.185520E+04 -7.983192E+04  1.128547E-09 -1.679501E-09
       244  15  5.402304E+03  6.510418E+05  1.895455E+04 -8.669330E+04 -1.258709E-09 -2.202232E-09
       244  16  9.599576E+04  1.059546E+06  7.291074E+04 -8.607552E+04 -3.197140E-10  1.131804E-09
       244  17  1.126851E+05  1.130781E+06  8.646273E+04 -8.118428E+04 -1.632378E-09 -3.551402E-10
       244  18  1.337924E+05  1.204473E+06  1.080160E+05 -9.002135E+04 -2.594530E-09  2.881828E-10
       244  19 -9.259377E+04  2.427565E+05 -5.389328E+04 -8.732218E+04  2.940198E+04  1.385884E+04
       244  20 -1.091957E+05  1.699183E+05 -6.275502E+04 -7.848013E+04  3.457506E+04  1.511266E+04
       244  21 -1.230016E+05  9.791481E+04 -7.011199E+04 -8.336769E+04  3.742726E+04  1.636173E+04
       244  22  1.705504E+03  6.510679E+05  9.511304E+03 -8.669924E+04  2.942167E+04  1.084604E+03
       244  23  1.750937E+03  6.502347E+05  1.185754E+04 -7.983173E+04  3.458547E+04  7.022256E+03
       244  24  5.403854E+03  6.510424E+05  1.895750E+04 -8.669291E+04  3.742930E+04  1.295532E+04
       244  25  9.599673E+04  1.059546E+06  7.291263E+04 -8.607580E+04  2.944134E+04 -1.169771E+04
       244  26  1.126863E+05  1.130781E+06  8.646498E+04 -8.118431E+04  3.459592E+04 -1.074167E+03
       244  27  1.337939E+05  1.204474E+06  1.080188E+05 -9.002107E+04  3.743139E+04  9.545976E+03
       245   1 -1.333018E+05  5.371201E+04 -7.409764E+04 -8.672625E+04 -3.906625E+04 -1.998810E+04
       245   2 -1.349878E+05 -2.241868E+04 -8.061718E+04 -5.332331E+04 -3.269877E+04 -9.042151E+03
       245   3 -1.027121E+05 -9.147804E+04 -8.576514E+04 -3.246019E+04 -9.783102E+03  1.920369E+03
       245   4  6.328597E+03  6.535231E+05  2.448140E+04 -8.643665E+04 -3.906843E+04 -1.619261E+04
       245   5  2.383118E+04  6.470739E+05  4.378354E+04 -8.011524E+04 -3.265463E+04 -3.861698E+04
       245   6  8.106274E+04  6.534678E+05  8.761259E+04 -8.633122E+04 -9.701791E+03 -6.102395E+04
       245   7  1.459405E+05  1.253690E+06  1.230500E+05 -8.614660E+04 -3.907061E+04 -1.239357E+04
       245   8  1.826275E+05  1.317004E+06  1.681689E+05 -1.069366E+05 -3.260797E+04 -6.822287E+04
       245   9  2.648113E+05  1.398940E+06  2.609693E+05 -1.402672E+05 -9.609615E+03 -1.240432E+05
       245  10 -1.333036E+05  5.371118E+04 -7.410126E+04 -8.672688E+04  2.703648E-10 -2.137955E-09
       245  11 -1.349890E+05 -2.241905E+04 -8.061934E+04 -5.332355E+04 -1.286976E-09 -5.049574E-09
       245  12 -1.027122E+05 -9.147807E+04 -8.576533E+04 -3.246018E+04 -7.524689E-10  5.714065E-11
       245  13  6.326888E+03  6.535224E+05  2.447804E+04 -8.643715E+04 -4.226338E-10 -3.259090E-10
       245  14  2.382964E+04  6.470720E+05  4.377873E+04 -8.011625E+04 -6.917008E-10 -1.203891E-09
       245  15  8.106164E+04  6.534638E+05  8.760542E+04 -8.633170E+04 -7.224762E-10 -1.894576E-09
       245  16  1.459389E+05  1.253689E+06  1.230469E+05 -8.614699E+04  8.135849E-10  3.260261E-09
       245  17  1.826252E+05  1.316998E+06  1.681582E+05 -1.069384E+05  9.134066E-10  1.108044E-09
       245  18  2.648071E+05  1.398924E+06  2.609402E+05 -1.402681E+05  2.925906E-10  4.552544E-10
       245  19 -1.333018E+05  5.371201E+04 -7.409764E+04 -8.672625E+04  3.906625E+04  1.998810E+04
       245  20 -1.349878E+05 -2.241868E+04 -8.061718E+04 -5.332331E+04  3.269877E+04  9.042151E+03
       245  21 -1.027121E+05 -9.147804E+04 -8.576514E+04 -3.246019E+04  9.783102E+03 -1.920369E+03
       245  22  6.328597E+03  6.535231E+05  2.448140E+04 -8.643665E+04  3.906843E+04  1.619261E+04
       245  23  2.383118E+04  6.470739E+05  4.378354E+04 -8.011524E+04  3.265463E+04  3.861698E+04
       245  24  8.106274E+04  6.534678E+05  8.761259E+04 -8.633122E+04  9.701791E+03  6.102395E+04
       245  25  1.459405E+05  1.253690E+06  1.230500E+05 -8.614660E+04  3.907061E+04  1.239357E+04
       245  26  1.826275E+05  1.317004E+06  1.681689E+05 -1.069366E+05  3.260797E+04  6.822287E+04
       245  27  2.648113E+05  1.398940E+06  2.609693E+05 -1.402672E+05  9.609615E+03  1.240432E+05
       246   1  1.091689E+06  3.531900E+05  1.677884E+05  3.926257E+05  5.269547E+04  5.821334E+03
       246   2  1.025906E+06  3.551866E+05  1.310554E+05  3.753809E+05  3.498511E+04 -3.432249E+04
       246   3  9.516995E+05  3.524501E+05  1.121786E+05  3.714499E+05  9.712688E+03 -5.438532E+04
       246   4  2.209983E+05  5.345711E+04 -4.838446E+04  1.808155E+05 -2.695906E+04 -2.421697E+04
       246   5  2.318527E+05  7.807057E+04 -2.300367E+04  1.672915E+05 -3.996397E+03 -4.903386E+04
       246   6  2.262222E+05  8.988901E+04 -1.197340E+04  1.670839E+05  1.139483E+04 -5.375764E+04
       246   7 -6.489028E+05 -2.462362E+05 -2.645779E+05 -3.072628E+04 -1.064879E+05 -5.421648E+04
       246   8 -5.615276E+05 -1.989954E+05 -1.770791E+05 -4.055220E+04 -4.292352E+04 -6.372679E+04
       246   9 -4.986947E+05 -1.726182E+05 -1.361395E+05 -3.705838E+04  1.307489E+04 -5.313075E+04
       246  10  1.091686E+06  3.531892E+05  1.677831E+05  3.926255E+05 -8.190909E-10  1.298527E-10
       246  11  1.025904E+06  3.551850E+05  1.310508E+05  3.753818E+05  2.506246E-10 -4.834611E-09
       246  12  9.516986E+05  3.524469E+05  1.121728E+05  3.714503E+05  3.646086E-09 -5.360150E-09
       246  13  2.209973E+05  5.345628E+04 -4.838693E+04  1.808150E+05 -6.044225E-10  2.148006E-09
       246  14  2.318521E+05  7.806798E+04 -2.300821E+04  1.672913E+05 -3.362049E-09 -5.099138E-09
       246  15  2.262213E+05  8.988587E+04 -1.197907E+04  1.670844E+05 -1.136565E-09 -4.792566E-09
       246  16 -6.489158E+05 -2.462424E+05 -2.646047E+05 -3.073093E+04 -6.646793E-10  2.947860E-09
       246  17 -5.615306E+05 -1.990002E+05 -1.770902E+05 -4.055440E+04 -2.788375E-09 -1.499040E-10
       246  18 -4.986957E+05 -1.726213E+05 -1.361452E+05 -3.705782E+04 -4.602432E-09 -6.203574E-10
       246  19  1.091689E+06  3.531900E+05  1.677884E+05  3.926257E+05 -5.269547E+04 -5.821334E+03
       246  20  1.025906E+06  3.551866E+05  1.310554E+05  3.753809E+05 -3.498511E+04  3.432249E+04
       246  21  9.516995E+05  3.524501E+05  1.121786E+05  3.714499E+05 -9.712688E+03  5.438532E+04
       246  22  2.209983E+05  5.345711E+04 -4.838446E+04  1.808155E+05  2.695906E+04  2.421697E+04
       246  23  2.318527E+05  7.807057E+04 -2.300367E+04  1.672915E+05  3.996397E+03  4.903386E+04
       246  24  2.262222E+05  8.988901E+04 -1.197340E+04  1.670839E+05 -1.139483E+04  5.375764E+04
       246  25 -6.489028E+05 -2.462362E+05 -2.645779E+05 -3.072628E+04  1.064879E+05  5.421648E+04
       246  26 -5.615276E+05 -1.989954E+05 -1.770791E+05 -4.055220E+04  4.292352E+04  6.372679E+04
       246  27 -4.986947E+05 -1.726182E+05 -1.361395E+05 -3.705838E+04 -1.307489E+04  5.313075E+04
       247   1  9.139195E+05  3.371217E+05  1.058177E+05  3.594556E+05  1.160848E+04 -5.241108E+04
       247   2  8.561034E+05  3.123149E+05  9.511238E+04  3.376051E+05  9.088250E+03 -5.174053E+04
       247   3  7.898735E+05  2.953550E+05  8.571022E+04  3.256491E+05  5.759155E+03 -4.893075E+04
       247   4  2.273394E+05  9.077967E+04 -8.912506E+03  1.676511E+05  1.232516E+04 -5.214728E+04
       247   5  2.321644E+05  8.851657E+04 -4.647157E+03  1.622443E+05  1.413576E+04 -4.984065E+04
       247   6  2.277146E+05  9.324267E+04 -2.509705E+03  1.667314E+05  1.513691E+04 -4.539357E+04
       247   7 -4.587473E+05 -1.555190E+05 -1.236568E+05 -2.395775E+04  1.304101E+04 -5.188379E+04
       247   8 -3.913610E+05 -1.352430E+05 -1.044153E+05 -1.295242E+04  1.917793E+04 -4.794277E+04
       247   9 -3.341043E+05 -1.088359E+05 -9.073478E+04  7.948940E+03  2.450570E+04 -4.185978E+04
       247  10  9.139186E+05  3.371188E+05  1.058123E+05  3.594560E+05 -5.883890E-08 -3.062538E-08
       247  11  8.561026E+05  3.123120E+05  9.510720E+04  3.376055E+05 -2.630792E-08 -1.250368E-08
       247  12  7.898729E+05  2.953524E+05  8.570566E+04  3.256493E+05  3.611424E-08  1.455301E-08
       247  13  2.273385E+05  9.077671E+04 -8.917902E+03  1.676516E+05 -1.065056E-08 -3.072039E-09
       247  14  2.321635E+05  8.851385E+04 -4.652202E+03  1.622449E+05 -2.837799E-08 -3.928855E-10
       247  15  2.277138E+05  9.324040E+04 -2.514008E+03  1.667319E+05 -5.297631E-09 -6.234807E-09
       247  16 -4.587482E+05 -1.555220E+05 -1.236622E+05 -2.395721E+04  3.689664E-08  1.346260E-08
       247  17 -3.913620E+05 -1.352455E+05 -1.044203E+05 -1.295168E+04 -2.179982E-08 -1.064534E-08
       247  18 -3.341054E+05 -1.088380E+05 -9.073920E+04  7.949766E+03 -5.310398E-08 -2.591487E-08
       247  19  9.139195E+05  3.371217E+05  1.058177E+05  3.594556E+05 -1.160848E+04  5.241108E+04
       247  20  8.561034E+05  3.123149E+05  9.511238E+04  3.376051E+05 -9.088250E+03  5.174053E+04
       247  21  7.898735E+05  2.953550E+05  8.571022E+04  3.256491E+05 -5.759155E+03  4.893075E+04
       247  22  2.273394E+05  9.077967E+04 -8.912506E+03  1.676511E+05 -1.232516E+04  5.214728E+04
       247  23  2.321644E+05  8.851657E+04 -4.647157E+03  1.622443E+05 -1.413576E+04  4.984065E+04
       247  24  2.277146E+05  9.324267E+04 -2.509705E+03  1.667314E+05 -1.513691E+04  4.539357E+04
       247  25 -4.587473E+05 -1.555190E+05 -1.236568E+05 -2.395775E+04 -1.304101E+04  5.188379E+04
       247  26 -3.913610E+05 -1.352430E+05 -1.044153E+05 -1.295242E+04 -1.917793E+04  4.794277E+04
       247  27 -3.341043E+05 -1.088359E+05 -9.073478E+04  7.948940E+03 -2.450570E+04  4.185978E+04
       248   1  7.511768E+05  2.812599E+05  7.974573E+04  3.146454E+05  5.162200E+03 -4.600218E+04
       248   2  6.940170E+05  2.549992E+05  7.067580E+04  2.924434E+05  3.435870E+03 -4.129363E+04
       248   3  6.283038E+05  2.372935E+05  6.157514E+04  2.799676E+05  1.622432E+03 -3.635889E+04
       248   4  2.278230E+05  9.330756E+04 -1.874536E+03  1.667962E+05  1.443378E+04 -4.250391E+04
       248   5  2.321706E+05  8.915483E+04 -1.006304E+03  1.619086E+05  1.316510E+04 -3.762070E+04
       248   6  2.278687E+05  9.346635E+04 -5.325366E+02  1.667463E+05  1.180927E+04 -3.251117E+04
       248   7 -2.952293E+05 -9.461311E+04 -8.349725E+04  1.906593E+04  2.369700E+04 -3.900880E+04
       248   8 -2.294455E+05 -7.666660E+04 -7.269141E+04  3.146518E+04  2.288668E+04 -3.395066E+04
       248   9 -1.723980E+05 -5.034526E+04 -6.264362E+04  5.359246E+04  2.198928E+04 -2.866604E+04
       248  10  7.511762E+05  2.812576E+05  7.974170E+04  3.146456E+05 -2.237106E-08 -8.927599E-09
       248  11  6.940165E+05  2.549974E+05  7.067258E+04  2.924435E+05 -6.276373E-09  2.957526E-09
       248  12  6.283034E+05  2.372921E+05  6.157265E+04  2.799676E+05  2.360943E-08  2.002564E-08
       248  13  2.278223E+05  9.330557E+04 -1.878323E+03  1.667967E+05 -3.175663E-09 -6.806234E-09
       248  14  2.321701E+05  8.915326E+04 -1.009290E+03  1.619090E+05 -5.823019E-09 -1.076275E-08
       248  15  2.278683E+05  9.346518E+04 -5.347853E+02  1.667466E+05  4.399974E-09 -1.011649E-08
       248  16 -2.952303E+05 -9.461490E+04 -8.350117E+04  1.906668E+04  1.517488E-08  1.239150E-09
       248  17 -2.294463E+05 -7.666798E+04 -7.269456E+04  3.146581E+04 -1.368627E-08 -3.011450E-09
       248  18 -1.723987E+05 -5.034627E+04 -6.264607E+04  5.359297E+04 -2.484971E-08 -4.827577E-09
       248  19  7.511768E+05  2.812599E+05  7.974573E+04  3.146454E+05 -5.162200E+03  4.600218E+04
       248  20  6.940170E+05  2.549992E+05  7.067580E+04  2.924434E+05 -3.435870E+03  4.129363E+04
       248  21  6.283038E+05  2.372935E+05  6.157514E+04  2.799676E+05 -1.622432E+03  3.635889E+04
       248  22  2.278230E+05  9.330756E+04 -1.874536E+03  1.667962E+05 -1.443378E+04  4.250391E+04
       248  23  2.321706E+05  8.915483E+04 -1.006304E+03  1.619086E+05 -1.316510E+04  3.762070E+04
       248  24  2.278687E+05  9.346635E+04 -5.325366E+02  1.667463E+05 -1.180927E+04  3.251117E+04
       248  25 -2.952293E+05 -9.461311E+04 -8.349725E+04  1.906593E+04 -2.369700E+04  3.900880E+04
       248  26 -2.294455E+05 -7.666660E+04 -7.269141E+04  3.146518E+04 -2.288668E+04  3.395066E+04
       248  27 -1.723980E+05 -5.034526E+04 -6.264362E+04  5.359246E+04 -2.198928E+04  2.866604E+04
       249   1  5.895894E+05  2.233401E+05  5.542852E+04  2.690395E+05  6.020404E+02 -3.339032E+04
       249   2  5.325153E+05  1.970557E+05  4.624950E+04  2.468264E+05 -1.261816E+03 -2.833904E+04
       249   3  4.668754E+05  1.793478E+05  3.704462E+04  2.343355E+05 -3.134973E+03 -2.326598E+04
       249   4  2.278865E+05  9.347424E+04 -3.842908E+02  1.667528E+05  1.077536E+04 -2.954679E+04
       249   5  2.321838E+05  8.920071E+04 -1.669719E+02  1.618915E+05  8.955273E+03 -2.447776E+04
       249   6  2.279020E+05  9.349448E+04 -1.096837E+01  1.667507E+05  7.125891E+03 -1.938696E+04
       249   7 -1.336747E+05 -3.637732E+04 -5.619861E+04  6.452240E+04  2.094242E+04 -2.570564E+04
       249   8 -6.804816E+04 -1.864372E+04 -4.658386E+04  7.699580E+04  1.916707E+04 -2.061848E+04
       249   9 -1.100655E+04  7.648467E+03 -3.706619E+04  9.919136E+04  1.738246E+04 -1.550956E+04
       249  10  5.895891E+05  2.233389E+05  5.542642E+04  2.690395E+05  3.400384E-08  2.474031E-08
       249  11  5.325151E+05  1.970548E+05  4.624799E+04  2.468263E+05 -7.905353E-09  7.041300E-09
       249  12  4.668752E+05  1.793472E+05  3.704358E+04  2.343354E+05 -4.088605E-08 -1.147644E-08
       249  13  2.278862E+05  9.347328E+04 -3.861498E+02  1.667531E+05  2.746089E-09 -6.211223E-09
       249  14  2.321836E+05  8.920005E+04 -1.682488E+02  1.618916E+05 -7.319439E-09 -1.546730E-09
       249  15  2.279019E+05  9.349406E+04 -1.177021E+01  1.667509E+05 -4.475398E-09  7.152816E-10
       249  16 -1.336753E+05 -3.637815E+04 -5.620067E+04  6.452283E+04 -3.217872E-08  1.746412E-09
       249  17 -6.804867E+04 -1.864428E+04 -4.658535E+04  7.699612E+04 -6.068849E-09  2.489738E-09
       249  18 -1.100694E+04  7.648127E+03 -3.706721E+04  9.919158E+04  3.275175E-08  1.720714E-08
       249  19  5.895894E+05  2.233401E+05  5.542852E+04  2.690395E+05 -6.020404E+02  3.339032E+04
       249  20  5.325153E+05  1.970557E+05  4.624950E+04  2.468264E+05  1.261816E+03  2.833904E+04
       249  21  4.668754E+05  1.793478E+05  3.704462E+04  2.343355E+05  3.134973E+03  2.326598E+04
       249  22  2.278865E+05  9.347424E+04 -3.842908E+02  1.667528E+05 -1.077536E+04  2.954679E+04
       249  23  2.321838E+05  8.920071E+04 -1.669719E+02  1.618915E+05 -8.955273E+03  2.447776E+04
       249  24  2.279020E+05  9.349448E+04 -1.096837E+01  1.667507E+05 -7.125891E+03  1.938696E+04
       249  25 -1.336747E+05 -3.637732E+04 -5.619861E+04  6.452240E+04 -2.094242E+04  2.570564E+04
       249  26 -6.804816E+04 -1.864372E+04 -4.658386E+04  7.699580E+04 -1.916707E+04  2.061848E+04
       249  27 -1.100655E+04  7.648467E+03 -3.706619E+04  9.919136E+04 -1.738246E+04  1.550956E+04
       250   1  4.281814E+05  1.654103E+05  3.085192E+04  2.234181E+05 -4.252680E+03 -2.031514E+04
       250   2  3.711294E+05  1.391329E+05  2.167250E+04  2.012196E+05 -6.259518E+03 -1.528603E+04
       250   3  3.055229E+05  1.214327E+05  1.256288E+04  1.887445E+05 -8.263047E+03 -1.026696E+04
       250   4  2.279126E+05  9.349763E+04  5.955592E+01  1.667532E+05  6.005768E+03 -1.643651E+04
       250   5  2.321920E+05  8.920783E+04  2.268264E+02  1.618929E+05  3.978293E+03 -1.141460E+04
       250   6  2.279180E+05  9.349944E+04  4.802254E+02  1.667548E+05  1.954127E+03 -6.402767E+03
       250   7  2.768482E+04  2.158843E+04 -3.073363E+04  1.101050E+05  1.626084E+04 -1.255915E+04
       250   8  9.327467E+04  3.928458E+04 -2.121894E+04  1.225743E+05  1.421374E+04 -7.544068E+03
       250   9  1.503199E+05  6.556690E+04 -1.160208E+04  1.447678E+05  1.216995E+04 -2.539085E+03
       250  10  4.281813E+05  1.654099E+05  3.085111E+04  2.234180E+05  2.906861E-08  1.590829E-08
       250  11  3.711293E+05  1.391327E+05  2.167199E+04  2.012195E+05 -4.270213E-09 -1.021983E-09
       250  12  3.055228E+05  1.214326E+05  1.256255E+04  1.887444E+05 -4.083074E-08 -2.324307E-08
       250  13  2.279125E+05  9.349733E+04  5.898037E+01  1.667533E+05  5.545200E-10 -1.841138E-09
       250  14  2.321919E+05  8.920769E+04  2.265518E+02  1.618929E+05  1.649454E-09  6.996834E-09
       250  15  2.279180E+05  9.349939E+04  4.801412E+02  1.667548E+05 -1.745868E-09  1.470468E-08
       250  16  2.768449E+04  2.158819E+04 -3.073442E+04  1.101052E+05 -2.802567E-08 -1.108409E-08
       250  17  9.327443E+04  3.928446E+04 -2.121942E+04  1.225743E+05  8.256529E-09 -3.566558E-09
       250  18  1.503197E+05  6.556685E+04 -1.160238E+04  1.447678E+05  3.686732E-08  1.988935E-09
       250  19  4.281814E+05  1.654103E+05  3.085192E+04  2.234181E+05  4.252680E+03  2.031514E+04
       250  20  3.711294E+05  1.391329E+05  2.167250E+04  2.012196E+05  6.259518E+03  1.528603E+04
       250  21  3.055229E+05  1.214327E+05  1.256288E+04  1.887445E+05  8.263047E+03  1.026696E+04
       250  22  2.279126E+05  9.349763E+04  5.955592E+01  1.667532E+05 -6.005768E+03  1.643651E+04
       250  23  2.321920E+05  8.920783E+04  2.268264E+02  1.618929E+05 -3.978293E+03  1.141460E+04
       250  24  2.279180E+05  9.349944E+04  4.802254E+02  1.667548E+05 -1.954127E+03  6.402767E+03
       250  25  2.768482E+04  2.158843E+04 -3.073363E+04  1.101050E+05 -1.626084E+04  1.255915E+04
       250  26  9.327467E+04  3.928458E+04 -2.121894E+04  1.225743E+05 -1.421374E+04  7.544068E+03
       250  27  1.503199E+05  6.556690E+04 -1.160208E+04  1.447678E+05 -1.216995E+04  2.539085E+03
       251   1  2.668439E+05  1.075042E+05  6.467626E+03  1.778530E+05 -9.474126E+03 -7.360264E+03
       251   2  2.097868E+05  8.121058E+04 -2.410370E+03  1.556364E+05 -1.174698E+04 -2.509194E+03
       251   3  1.442486E+05  6.356762E+04 -1.098141E+04  1.431291E+05 -1.397729E+04  2.229857E+03
       251   4  2.279401E+05  9.349662E+04  6.577288E+02  1.667626E+05  7.476328E+02 -3.494208E+03
       251   5  2.321691E+05  8.921408E+04  1.223215E+03  1.618840E+05 -1.752489E+03  1.270806E+03
       251   6  2.279574E+05  9.362653E+04  2.275248E+03  1.667129E+05 -4.210119E+03  5.923810E+03
       251   7  1.890386E+05  7.948944E+04 -5.151609E+03  1.556731E+05  1.096860E+04  3.715455E+02
       251   8  2.545521E+05  9.721771E+04  4.857219E+03  1.681318E+05  8.242387E+03  5.050948E+03
       251   9  3.116750E+05  1.236866E+05  1.553246E+04  1.903000E+05  5.558562E+03  9.618330E+03
       251  10  2.668438E+05  1.075042E+05  6.467355E+03  1.778530E+05  2.611298E-08  4.402477E-09
       251  11  2.097866E+05  8.121054E+04 -2.410641E+03  1.556363E+05  2.537850E-09  1.934203E-09
       251  12  1.442484E+05  6.356757E+04 -1.098179E+04  1.431291E+05 -2.305565E-08 -1.265969E-08
       251  13  2.279401E+05  9.349661E+04  6.577048E+02  1.667626E+05 -3.089133E-09  1.639757E-08
       251  14  2.321691E+05  8.921407E+04  1.223207E+03  1.618840E+05  3.096349E-09  9.851191E-09
       251  15  2.279574E+05  9.362648E+04  2.275149E+03  1.667129E+05  1.591923E-09 -2.005933E-09
       251  16  1.890385E+05  7.948941E+04 -5.151835E+03  1.556731E+05 -2.913790E-08 -1.684132E-08
       251  17  2.545521E+05  9.721766E+04  4.857043E+03  1.681318E+05  9.223419E-10 -3.043538E-09
       251  18  3.116750E+05  1.236865E+05  1.553223E+04  1.903000E+05  2.582607E-08  9.829665E-09
       251  19  2.668439E+05  1.075042E+05  6.467626E+03  1.778530E+05  9.474126E+03  7.360264E+03
       251  20  2.097868E+05  8.121058E+04 -2.410370E+03  1.556364E+05  1.174698E+04  2.509194E+03
       251  21  1.442486E+05  6.356762E+04 -1.098141E+04  1.431291E+05  1.397729E+04 -2.229857E+03
       251  22  2.279401E+05  9.349662E+04  6.577288E+02  1.667626E+05 -7.476328E+02  3.494208E+03
       251  23  2.321691E+05  8.921408E+04  1.223215E+03  1.618840E+05  1.752489E+03 -1.270806E+03
       251  24  2.279574E+05  9.362653E+04  2.275248E+03  1.667129E+05  4.210119E+03 -5.923810E+03
       251  25  1.890386E+05  7.948944E+04 -5.151609E+03  1.556731E+05 -1.096860E+04 -3.715455E+02
       251  26  2.545521E+05  9.721771E+04  4.857219E+03  1.681318E+05 -8.242387E+03 -5.050948E+03
       251  27  3.116750E+05  1.236866E+05  1.553246E+04  1.903000E+05 -5.558562E+03 -9.618330E+03
       252   1  1.055247E+05  4.974683E+04 -1.663051E+04  1.324106E+05 -1.551959E+04  4.912321E+03
       252   2  4.899306E+04  2.323188E+04 -2.445475E+04  1.092123E+05 -1.786440E+04  8.971830E+03
       252   3 -1.542995E+04  6.611165E+03 -3.137330E+04  9.532822E+04 -1.981070E+04  1.197889E+04
       252   4  2.281223E+05  9.364747E+04  3.046668E+03  1.667526E+05 -5.702018E+03  8.625114E+03
       252   5  2.320624E+05  8.993814E+04  5.630451E+03  1.615471E+05 -1.017709E+04  1.187833E+04
       252   6  2.285287E+05  9.654404E+04  1.080786E+04  1.656538E+05 -1.425377E+04  1.407926E+04
       252   7  3.507362E+05  1.375497E+05  2.272394E+04  2.011009E+05  4.117600E+03  1.233867E+04
       252   8  4.151665E+05  1.566477E+05  3.571483E+04  2.138960E+05 -2.487422E+03  1.478575E+04
       252   9  4.725478E+05  1.864824E+05  5.298661E+04  2.360046E+05 -8.694574E+03  1.618052E+04
       252  10  1.055244E+05  4.974673E+04 -1.663100E+04  1.324107E+05 -7.604573E-08 -3.571212E-08
       252  11  4.899270E+04  2.323171E+04 -2.445550E+04  1.092125E+05 -1.793380E-08 -1.544215E-08
       252  12 -1.543041E+04  6.610906E+03 -3.137431E+04  9.532841E+04  6.979509E-08  2.920618E-08
       252  13  2.281222E+05  9.364738E+04  3.046467E+03  1.667526E+05 -8.412053E-09 -8.241164E-09
       252  14  2.320622E+05  8.993796E+04  5.629992E+03  1.615472E+05 -1.554844E-08 -1.423561E-08
       252  15  2.285285E+05  9.654377E+04  1.080711E+04  1.656540E+05 -2.360596E-09 -1.982558E-08
       252  16  3.507362E+05  1.375495E+05  2.272362E+04  2.011008E+05  6.132776E-08  3.029518E-08
       252  17  4.151664E+05  1.566474E+05  3.571440E+04  2.138961E+05 -1.860658E-08 -7.559937E-09
       252  18  4.725476E+05  1.864821E+05  5.298598E+04  2.360047E+05 -7.785397E-08 -2.909610E-08
       252  19  1.055247E+05  4.974683E+04 -1.663051E+04  1.324106E+05  1.551959E+04 -4.912321E+03
       252  20  4.899306E+04  2.323188E+04 -2.445475E+04  1.092123E+05  1.786440E+04 -8.971830E+03
       252  21 -1.542995E+04  6.611165E+03 -3.137330E+04  9.532822E+04  1.981070E+04 -1.197889E+04
       252  22  2.281223E+05  9.364747E+04  3.046668E+03  1.667526E+05  5.702018E+03 -8.625114E+03
       252  23  2.320624E+05  8.993814E+04  5.630451E+03  1.615471E+05  1.017709E+04 -1.187833E+04
       252  24  2.285287E+05  9.654404E+04  1.080786E+04  1.656538E+05  1.425377E+04 -1.407926E+04
       252  25  3.507362E+05  1.375497E+05  2.272394E+04  2.011009E+05 -4.117600E+03 -1.233867E+04
       252  26  4.151665E+05  1.566477E+05  3.571483E+04  2.138960E+05  2.487422E+03 -1.478575E+04
       252  27  4.725478E+05  1.864824E+05  5.298661E+04  2.360046E+05  8.694574E+03 -1.618052E+04
       253   1 -5.462436E+04 -5.553283E+03 -3.546472E+04  8.638321E+04 -2.268616E+04  1.322426E+04
       253   2 -1.009003E+05 -3.497714E+04 -4.154117E+04  4.666814E+04 -1.639294E+04  1.337126E+04
       253   3 -1.480164E+05 -3.576504E+04 -4.602354E+04  1.008172E+04 -6.370114E+03  3.644882E+03
       253   4  2.302623E+05  9.720333E+04  1.452134E+04  1.658979E+05 -1.665895E+04  1.550210E+04
       253   5  2.318544E+05  1.029967E+05  2.788348E+04  1.559810E+05 -3.033479E+04  8.099506E+03
       253   6  2.365565E+05  1.413746E+05  5.866732E+04  1.491929E+05 -4.028248E+04 -9.173334E+03
       253   7  5.152399E+05  1.999696E+05  6.450641E+04  2.454479E+05 -1.062869E+04  1.778109E+04
       253   8  5.647240E+05  2.409890E+05  9.730297E+04  2.653510E+05 -4.428461E+04  2.823835E+03
       253   9  6.212708E+05  3.185436E+05  1.633475E+05  2.883872E+05 -7.421700E+04 -2.200438E+04
       253  10 -5.462496E+04 -5.553609E+03 -3.546601E+04  8.638345E+04 -2.991769E-08 -7.642576E-09
       253  11 -1.009006E+05 -3.497740E+04 -4.154202E+04  4.666832E+04 -8.161766E-09 -4.910474E-10
       253  12 -1.480164E+05 -3.576506E+04 -4.602365E+04  1.008174E+04  1.801688E-08  7.634828E-09
       253  13  2.302620E+05  9.720300E+04  1.452037E+04  1.658981E+05  5.189175E-09 -1.915487E-08
       253  14  2.318534E+05  1.029963E+05  2.788162E+04  1.559812E+05 -3.118932E-09 -9.165755E-09
       253  15  2.365548E+05  1.413740E+05  5.866412E+04  1.491926E+05 -9.505930E-10 -7.617890E-09
       253  16  5.152397E+05  1.999693E+05  6.450561E+04  2.454480E+05  3.476038E-08  2.235265E-08
       253  17  5.647219E+05  2.409885E+05  9.729927E+04  2.653511E+05  9.755720E-10 -1.887121E-09
       253  18  6.212647E+05  3.185416E+05  1.633362E+05  2.883859E+05 -1.874381E-08 -1.074312E-08
       253  19 -5.462436E+04 -5.553283E+03 -3.546472E+04  8.638321E+04  2.268616E+04 -1.322426E+04
       253  20 -1.009003E+05 -3.497714E+04 -4.154117E+04  4.666814E+04  1.639294E+04 -1.337126E+04
       253  21 -1.480164E+05 -3.576504E+04 -4.602354E+04  1.008172E+04  6.370114E+03 -3.644882E+03
       253  22  2.302623E+05  9.720333E+04  1.452134E+04  1.658979E+05  1.665895E+04 -1.550210E+04
       253  23  2.318544E+05  1.029967E+05  2.788348E+04  1.559810E+05  3.033479E+04 -8.099506E+03
       253  24  2.365565E+05  1.413746E+05  5.866732E+04  1.491929E+05  4.028248E+04  9.173334E+03
       253  25  5.152399E+05  1.999696E+05  6.450641E+04  2.454479E+05  1.062869E+04 -1.778109E+04
       253  26  5.647240E+05  2.409890E+05  9.730297E+04  2.653510E+05  4.428461E+04 -2.823835E+03
       253  27  6.212708E+05  3.185436E+05  1.633475E+05  2.883872E+05  7.421700E+04  2.200438E+04
       254   1  2.499908E+05  3.821332E+04  3.133581E+04  3.963674E+03 -1.886730E+04 -1.451910E+03
       254   2  2.435045E+05  6.268645E+04  4.484310E+04 -1.675808E+03 -1.283294E+04 -4.081501E+03
       254   3  2.286061E+05  5.615517E+04  4.670301E+04  9.363677E+03 -6.809663E+03 -3.392437E+03
       254   4  7.237344E+03 -2.239601E+04 -2.912094E+04  7.055811E+03 -1.989624E+04 -1.455311E+03
       254   5  1.151328E+04  4.829426E+03 -1.251420E+04 -1.321202E+03 -1.306749E+04 -4.082425E+03
       254   6  7.235754E+03  9.062630E+02 -8.109720E+03  6.981179E+03 -6.249714E+03 -3.390395E+03
       254   7 -2.354627E+05 -8.300972E+04 -8.958211E+04  1.014670E+04 -2.092477E+04 -1.458723E+03
       254   8 -2.204291E+05 -5.303162E+04 -6.987549E+04 -9.667705E+02 -1.330196E+04 -4.083350E+03
       254   9 -2.140901E+05 -5.434629E+04 -6.292610E+04  4.599489E+03 -5.689964E+03 -3.388357E+03
       254  10  2.499904E+05  3.821322E+04  3.133514E+04  3.963652E+03 -1.972560E-09  2.982362E-09
       254  11  2.435044E+05  6.268639E+04  4.484276E+04 -1.675850E+03  1.780944E-09  1.402521E-08
       254  12  2.286060E+05  5.615514E+04  4.670290E+04  9.363658E+03  5.878423E-09  3.330614E-09
       254  13  7.236918E+03 -2.239612E+04 -2.912169E+04  7.055787E+03 -5.038966E-12 -4.506390E-09
       254  14  1.151309E+04  4.829362E+03 -1.251455E+04 -1.321245E+03 -3.103947E-09 -7.066108E-09
       254  15  7.235709E+03  9.062402E+02 -8.109815E+03  6.981162E+03  1.462833E-09  4.082018E-09
       254  16 -2.354631E+05 -8.300984E+04 -8.958293E+04  1.014667E+04  1.334233E-09  1.848660E-09
       254  17 -2.204293E+05 -5.303169E+04 -6.987585E+04 -9.668142E+02 -4.614765E-09  6.826199E-09
       254  18 -2.140901E+05 -5.434631E+04 -6.292618E+04  4.599473E+03 -2.443684E-09 -1.168868E-09
       254  19  2.499908E+05  3.821332E+04  3.133581E+04  3.963674E+03  1.886730E+04  1.451910E+03
       254  20  2.435045E+05  6.268645E+04  4.484310E+04 -1.675808E+03  1.283294E+04  4.081501E+03
       254  21  2.286061E+05  5.615517E+04  4.670301E+04  9.363677E+03  6.809663E+03  3.392437E+03
       254  22  7.237344E+03 -2.239601E+04 -2.912094E+04  7.055811E+03  1.989624E+04  1.455311E+03
       254  23  1.151328E+04  4.829426E+03 -1.251420E+04 -1.321202E+03  1.306749E+04  4.082425E+03
       254  24  7.235754E+03  9.062630E+02 -8.109720E+03  6.981179E+03  6.249714E+03  3.390395E+03
       254  25 -2.354627E+05 -8.300972E+04 -8.958211E+04  1.014670E+04  2.092477E+04  1.458723E+03
       254  26 -2.204291E+05 -5.303162E+04 -6.987549E+04 -9.667705E+02  1.330196E+04  4.083350E+03
       254  27 -2.140901E+05 -5.434629E+04 -6.292610E+04  4.599489E+03  5.689964E+03  3.388357E+03
       255   1  1.882522E+05  4.160725E+04  3.773476E+04  7.030375E+03 -4.868672E+03 -2.660820E+03
       255   2  1.782750E+05  4.278104E+04  3.852896E+04 -9.155693E+02 -3.285695E+03 -2.685172E+03
       255   3  1.669857E+05  3.964811E+04  3.721066E+04  7.762853E+03 -1.704754E+03 -2.261230E+03
       255   4  8.846147E+03 -3.154158E+03 -6.698319E+03  7.003462E+03 -4.928846E+03 -2.661107E+03
       255   5  9.511358E+03  6.769316E+02 -3.240114E+03 -1.315416E+03 -3.238684E+03 -2.685026E+03
       255   6  8.845020E+03  1.819826E+02 -1.969319E+03  6.990369E+03 -1.550534E+03 -2.260599E+03
       255   7 -1.705306E+05 -4.791798E+04 -5.113379E+04  6.976529E+03 -4.989003E+03 -2.661394E+03
       255   8 -1.592265E+05 -4.142931E+04 -4.501130E+04 -1.715180E+03 -3.191687E+03 -2.684880E+03
       255   9 -1.492729E+05 -3.928602E+04 -4.115116E+04  6.218056E+03 -1.396353E+03 -2.259969E+03
       255  10  1.882521E+05  4.160724E+04  3.773470E+04  7.030364E+03  1.718340E-09 -4.723298E-09
       255  11  1.782750E+05  4.278103E+04  3.852892E+04 -9.155764E+02  3.125537E-09  4.086749E-10
       255  12  1.669857E+05  3.964811E+04  3.721064E+04  7.762850E+03  1.078102E-09  1.125687E-08
       255  13  8.846119E+03 -3.154172E+03 -6.698378E+03  7.003452E+03  3.235024E-09  1.563265E-08
       255  14  9.511344E+03  6.769210E+02 -3.240147E+03 -1.315423E+03 -1.585895E-09 -2.475281E-08
       255  15  8.845016E+03  1.819764E+02 -1.969333E+03  6.990366E+03 -1.605379E-09  1.389318E-08
       255  16 -1.705307E+05 -4.791799E+04 -5.113385E+04  6.976518E+03 -1.097327E-09 -1.233318E-08
       255  17 -1.592265E+05 -4.142932E+04 -4.501134E+04 -1.715187E+03 -4.392313E-09 -1.128814E-08
       255  18 -1.492729E+05 -3.928603E+04 -4.115117E+04  6.218054E+03 -1.115656E-09 -8.860888E-11
       255  19  1.882522E+05  4.160725E+04  3.773476E+04  7.030375E+03  4.868672E+03  2.660820E+03
       255  20  1.782750E+05  4.278104E+04  3.852896E+04 -9.155693E+02  3.285695E+03  2.685172E+03
       255  21  1.669857E+05  3.964811E+04  3.721066E+04  7.762853E+03  1.704754E+03  2.261230E+03
       255  22  8.846147E+03 -3.154158E+03 -6.698319E+03  7.003462E+03  4.928846E+03  2.661107E+03
       255  23  9.511358E+03  6.769316E+02 -3.240114E+03 -1.315416E+03  3.238684E+03  2.685026E+03
       255  24  8.845020E+03  1.819826E+02 -1.969319E+03  6.990369E+03  1.550534E+03  2.260599E+03
       255  25 -1.705306E+05 -4.791798E+04 -5.113379E+04  6.976529E+03  4.989003E+03  2.661394E+03
       255  26 -1.592265E+05 -4.142931E+04 -4.501130E+04 -1.715180E+03  3.191687E+03  2.684880E+03
       255  27 -1.492729E+05 -3.928602E+04 -4.115116E+04  6.218056E+03  1.396353E+03  2.259969E+03
       256   1  1.253017E+05  2.859396E+04  2.718355E+04  7.312485E+03 -1.305487E+03 -1.971229E+03
       256   2  1.148441E+05  2.643652E+04  2.536195E+04 -9.633728E+02 -9.220911E+02 -1.646515E+03
       256   3  1.040831E+05  2.380048E+04  2.314354E+04  7.362829E+03 -5.391067E+02 -1.261593E+03
       256   4  9.076758E+03 -3.999584E+02 -1.563558E+03  6.991278E+03 -1.235025E+03 -1.970941E+03
       256   5  9.229364E+03  8.420724E+01 -7.835664E+02 -1.310924E+03 -8.372440E+02 -1.646147E+03
       256   6  9.076044E+03  8.724821E+01 -4.103721E+02  6.989111E+03 -4.398675E+02 -1.261140E+03
       256   7 -1.071359E+05 -2.939488E+04 -3.031167E+04  6.670117E+03 -1.164577E+03 -1.970653E+03
       256   8 -9.637525E+04 -2.626894E+04 -2.692991E+04 -1.658427E+03 -7.524112E+02 -1.645779E+03
       256   9 -8.592278E+04 -2.362666E+04 -2.396496E+04  6.615440E+03 -3.406434E+02 -1.260687E+03
       256  10  1.253017E+05  2.859395E+04  2.718354E+04  7.312483E+03  2.785710E-09 -3.264891E-09
       256  11  1.148441E+05  2.643652E+04  2.536194E+04 -9.633740E+02  2.385902E-09 -5.090944E-09
       256  12  1.040831E+05  2.380047E+04  2.314354E+04  7.362829E+03  2.676717E-09 -9.298551E-09
       256  13  9.076755E+03 -3.999630E+02 -1.563568E+03  6.991276E+03 -2.146649E-09 -5.207632E-10
       256  14  9.229363E+03  8.420415E+01 -7.835728E+02 -1.310925E+03 -3.357822E-09 -4.901866E-09
       256  15  9.076043E+03  8.724645E+01 -4.103755E+02  6.989110E+03  1.798690E-09 -8.381650E-09
       256  16 -1.071359E+05 -2.939489E+04 -3.031168E+04  6.670116E+03 -2.218635E-09 -9.189329E-09
       256  17 -9.637526E+04 -2.626894E+04 -2.692992E+04 -1.658428E+03 -3.864572E-09  6.480447E-09
       256  18 -8.592278E+04 -2.362666E+04 -2.396496E+04  6.615439E+03 -1.036172E-09  1.270853E-08
       256  19  1.253017E+05  2.859396E+04  2.718355E+04  7.312485E+03  1.305487E+03  1.971229E+03
       256  20  1.148441E+05  2.643652E+04  2.536195E+04 -9.633728E+02  9.220911E+02  1.646515E+03
       256  21  1.040831E+05  2.380048E+04  2.314354E+04  7.362829E+03  5.391067E+02  1.261593E+03
       256  22  9.076758E+03 -3.999584E+02 -1.563558E+03  6.991278E+03  1.235025E+03  1.970941E+03
       256  23  9.229364E+03  8.420724E+01 -7.835664E+02 -1.310924E+03  8.372440E+02  1.646147E+03
       256  24  9.076044E+03  8.724821E+01 -4.103721E+02  6.989111E+03  4.398675E+02  1.261140E+03
       256  25 -1.071359E+05 -2.939488E+04 -3.031167E+04  6.670117E+03  1.164577E+03  1.970653E+03
       256  26 -9.637525E+04 -2.626894E+04 -2.692991E+04 -1.658427E+03  7.524112E+02  1.645779E+03
       256  27 -8.592278E+04 -2.362666E+04 -2.396496E+04  6.615440E+03  3.406434E+02  1.260687E+03
       257   1  6.223940E+04  1.324804E+04  1.284029E+04  7.171207E+03 -4.671366E+02 -1.031920E+03
       257   2  5.172008E+04  1.060708E+04  1.049901E+04 -1.154809E+03 -4.548471E+02 -6.612012E+02
       257   3  4.103614E+04  8.072639E+03  8.137306E+03  7.107232E+03 -4.426491E+02 -2.834609E+02
       257   4  9.109428E+03 -2.773218E+00 -2.809619E+02  6.986990E+03 -3.789965E+02 -1.031507E+03
       257   5  9.191789E+03 -4.926964E+00 -2.989217E+01 -1.307318E+03 -3.650254E+02 -6.607740E+02
       257   6  9.109139E+03  9.915536E+01  1.995945E+02  6.986502E+03 -3.511455E+02 -2.830183E+02
       257   7 -4.401798E+04 -1.325380E+04 -1.340243E+04  6.802786E+03 -2.908639E+02 -1.031095E+03
       257   8 -3.333486E+04 -1.061707E+04 -1.055893E+04 -1.459819E+03 -2.752097E+02 -6.603469E+02
       257   9 -2.281694E+04 -7.874405E+03 -7.738194E+03  6.865777E+03 -2.596465E+02 -2.825756E+02
       257  10  6.223940E+04  1.324804E+04  1.284029E+04  7.171207E+03 -8.454723E-10 -1.046616E-08
       257  11  5.172008E+04  1.060708E+04  1.049901E+04 -1.154810E+03 -1.407649E-09  7.283795E-09
       257  12  4.103614E+04  8.072639E+03  8.137306E+03  7.107232E+03 -1.324758E-09 -2.043570E-09
       257  13  9.109427E+03 -2.774399E+00 -2.809642E+02  6.986990E+03 -1.079926E-09  2.780698E-09
       257  14  9.191789E+03 -4.927469E+00 -2.989324E+01 -1.307318E+03 -3.987101E-09 -2.696699E-09
       257  15  9.109139E+03  9.915524E+01  1.995941E+02  6.986502E+03  1.278652E-09 -8.697517E-09
       257  16 -4.401798E+04 -1.325380E+04 -1.340243E+04  6.802785E+03  1.934240E-09  5.714591E-09
       257  17 -3.333486E+04 -1.061707E+04 -1.055893E+04 -1.459819E+03 -2.381589E-09  1.750225E-08
       257  18 -2.281694E+04 -7.874405E+03 -7.738194E+03  6.865776E+03 -5.447297E-10 -1.280369E-09
       257  19  6.223940E+04  1.324804E+04  1.284029E+04  7.171207E+03  4.671366E+02  1.031920E+03
       257  20  5.172008E+04  1.060708E+04  1.049901E+04 -1.154809E+03  4.548471E+02  6.612012E+02
       257  21  4.103614E+04  8.072639E+03  8.137306E+03  7.107232E+03  4.426491E+02  2.834609E+02
       257  22  9.109428E+03 -2.773217E+00 -2.809619E+02  6.986990E+03  3.789965E+02  1.031507E+03
       257  23  9.191789E+03 -4.926963E+00 -2.989217E+01 -1.307318E+03  3.650254E+02  6.607740E+02
       257  24  9.109139E+03  9.915536E+01  1.995945E+02  6.986502E+03  3.511455E+02  2.830183E+02
       257  25 -4.401798E+04 -1.325380E+04 -1.340243E+04  6.802786E+03  2.908639E+02  1.031095E+03
       257  26 -3.333486E+04 -1.061707E+04 -1.055893E+04 -1.459819E+03  2.752097E+02  6.603469E+02
       257  27 -2.281694E+04 -7.874405E+03 -7.738194E+03  6.865777E+03  2.596465E+02  2.825756E+02
       258   1 -7.942321E+02 -2.433735E+03 -2.168855E+03  6.969026E+03 -4.909486E+02 -6.140549E+01
       258   2 -1.137201E+04 -5.181051E+03 -4.423746E+03 -1.383020E+03 -8.227005E+02  3.145788E+02
       258   3 -2.199267E+04 -7.481508E+03 -6.391681E+03  6.850641E+03 -1.154384E+03  6.842194E+02
       258   4  9.136584E+03  5.079628E+01  3.230588E+02  6.986554E+03 -3.995745E+02 -6.096174E+01
       258   5  9.158097E+03 -5.799660E+01  6.591125E+02 -1.306832E+03 -7.328609E+02  3.150114E+02
       258   6  9.136726E+03  2.802964E+02  1.283144E+03  6.985451E+03 -1.066084E+03  6.846413E+02
       258   7  1.906749E+04  2.535320E+03  2.814965E+03  7.004082E+03 -3.081989E+02 -6.051798E+01
       258   8  2.968859E+04  5.065026E+03  5.741940E+03 -1.230643E+03 -6.430184E+02  3.154441E+02
       258   9  4.026700E+04  8.042029E+03  8.957898E+03  7.120267E+03 -9.777803E+02  6.850633E+02
       258  10 -7.942324E+02 -2.433735E+03 -2.168856E+03  6.969026E+03 -6.730093E-09 -3.000310E-09
       258  11 -1.137201E+04 -5.181052E+03 -4.423747E+03 -1.383019E+03 -2.024927E-09 -7.686072E-09
       258  12 -2.199267E+04 -7.481509E+03 -6.391684E+03  6.850642E+03  1.910968E-10 -4.279246E-09
       258  13  9.136584E+03  5.079623E+01  3.230585E+02  6.986554E+03  1.931626E-11  6.864849E-09
       258  14  9.158096E+03 -5.799686E+01  6.591113E+02 -1.306832E+03 -2.197151E-10 -4.199936E-09
       258  15  9.136725E+03  2.802956E+02  1.283141E+03  6.985452E+03 -4.978596E-10 -6.734341E-09
       258  16  1.906749E+04  2.535320E+03  2.814965E+03  7.004082E+03  6.265071E-09 -1.548303E-09
       258  17  2.968859E+04  5.065026E+03  5.741939E+03 -1.230643E+03 -3.214561E-10 -1.306644E-08
       258  18  4.026700E+04  8.042028E+03  8.957896E+03  7.120267E+03  6.037803E-10 -1.044458E-08
       258  19 -7.942321E+02 -2.433735E+03 -2.168855E+03  6.969026E+03  4.909486E+02  6.140549E+01
       258  20 -1.137201E+04 -5.181051E+03 -4.423746E+03 -1.383020E+03  8.227005E+02 -3.145788E+02
       258  21 -2.199267E+04 -7.481508E+03 -6.391681E+03  6.850641E+03  1.154384E+03 -6.842194E+02
       258  22  9.136584E+03  5.079628E+01  3.230588E+02  6.986554E+03  3.995745E+02  6.096174E+01
       258  23  9.158097E+03 -5.799661E+01  6.591125E+02 -1.306832E+03  7.328609E+02 -3.150114E+02
       258  24  9.136726E+03  2.802964E+02  1.283144E+03  6.985451E+03  1.066084E+03 -6.846413E+02
       258  25  1.906749E+04  2.535320E+03  2.814965E+03  7.004082E+03  3.081989E+02  6.051798E+01
       258  26  2.968859E+04  5.065026E+03  5.741940E+03 -1.230643E+03  6.430184E+02 -3.154441E+02
       258  27  4.026700E+04  8.042029E+03  8.957898E+03  7.120267E+03  9.777803E+02 -6.850633E+02
       259   1 -6.371344E+04 -1.820873E+04 -1.644155E+04  6.856959E+03 -1.431792E+03  9.115120E+02
       259   2 -7.462007E+04 -2.121301E+04 -1.788820E+04 -1.641858E+03 -2.852494E+03  1.287813E+03
       259   3 -8.492128E+04 -2.190068E+04 -1.786353E+04  6.445547E+03 -4.272831E+03  1.609227E+03
       259   4  9.279827E+03  1.152140E+01  1.663887E+03  6.988717E+03 -1.333399E+03  9.119744E+02
       259   5  8.976281E+03 -3.515419E+02  2.808854E+03 -1.307959E+03 -2.767445E+03  1.288198E+03
       259   6  9.280423E+03  1.604198E+03  5.434310E+03  6.981447E+03 -4.201150E+03  1.609537E+03
       259   7  8.227793E+04  1.823137E+04  1.976892E+04  7.120485E+03 -1.234995E+03  9.124368E+02
       259   8  9.257898E+04  2.050940E+04  2.350539E+04 -9.740224E+02 -2.682385E+03  1.288583E+03
       259   9  1.034902E+05  2.510841E+04  2.873149E+04  7.517418E+03 -4.129459E+03  1.609846E+03
       259  10 -6.371344E+04 -1.820873E+04 -1.644155E+04  6.856960E+03 -4.853214E-09  9.593868E-10
       259  11 -7.462008E+04 -2.121301E+04 -1.788822E+04 -1.641855E+03  9.823029E-10 -5.287687E-09
       259  12 -8.492130E+04 -2.190069E+04 -1.786357E+04  6.445553E+03  2.814949E-09  8.327687E-09
       259  13  9.279825E+03  1.152003E+01  1.663882E+03  6.988718E+03  2.154514E-09 -1.028574E-10
       259  14  8.976273E+03 -3.515458E+02  2.808836E+03 -1.307956E+03 -7.583069E-10  6.710495E-09
       259  15  9.280403E+03  1.604191E+03  5.434272E+03  6.981452E+03 -8.449991E-10  1.361029E-08
       259  16  8.227793E+04  1.823137E+04  1.976892E+04  7.120486E+03  5.429134E-09  7.783604E-09
       259  17  9.257898E+04  2.050940E+04  2.350537E+04 -9.740196E+02 -3.885551E-10 -2.233679E-09
       259  18  1.034902E+05  2.510841E+04  2.873145E+04  7.517424E+03 -3.124786E-09  1.710365E-08
       259  19 -6.371344E+04 -1.820873E+04 -1.644155E+04  6.856959E+03  1.431792E+03 -9.115120E+02
       259  20 -7.462007E+04 -2.121301E+04 -1.788820E+04 -1.641858E+03  2.852494E+03 -1.287813E+03
       259  21 -8.492128E+04 -2.190068E+04 -1.786353E+04  6.445547E+03  4.272831E+03 -1.609227E+03
       259  22  9.279827E+03  1.152140E+01  1.663887E+03  6.988717E+03  1.333399E+03 -9.119744E+02
       259  23  8.976281E+03 -3.515419E+02  2.808854E+03 -1.307959E+03  2.767445E+03 -1.288198E+03
       259  24  9.280423E+03  1.604198E+03  5.434310E+03  6.981447E+03  4.201150E+03 -1.609537E+03
       259  25  8.227793E+04  1.823137E+04  1.976892E+04  7.120485E+03  1.234995E+03 -9.124368E+02
       259  26  9.257898E+04  2.050940E+04  2.350539E+04 -9.740224E+02  2.682385E+03 -1.288583E+03
       259  27  1.034902E+05  2.510841E+04  2.873149E+04  7.517418E+03  4.129459E+03 -1.609846E+03
       260   1 -1.259485E+05 -3.430207E+04 -2.689687E+04  7.418207E+03 -5.454995E+03  1.886910E+03
       260   2 -1.388193E+05 -3.900538E+04 -2.522801E+04 -2.184855E+03 -1.114968E+04  2.277930E+03
       260   3 -1.471645E+05 -2.828920E+04 -1.601107E+04  4.777662E+03 -1.684240E+04  2.260628E+03
       260   4  1.015131E+04 -3.416799E+02  6.830309E+03  6.997562E+03 -5.306917E+03  1.887554E+03
       260   5  7.881161E+03 -2.393121E+03  1.108786E+04 -1.308458E+03 -1.110079E+04  2.278097E+03
       260   6  1.015255E+04  1.099017E+04  2.296107E+04  6.950838E+03 -1.689281E+04  2.260338E+03
       260   7  1.462679E+05  3.361732E+04  4.055611E+04  6.576807E+03 -5.158807E+03  1.888197E+03
       260   8  1.546011E+05  3.421753E+04  4.740212E+04 -4.318749E+02 -1.105190E+04  2.278265E+03
       260   9  1.674921E+05  5.026771E+04  6.193137E+04  9.124541E+03 -1.694323E+04  2.260048E+03
       260  10 -1.259485E+05 -3.430208E+04 -2.689693E+04  7.418215E+03  5.750923E-09  6.975142E-09
       260  11 -1.388194E+05 -3.900542E+04 -2.522825E+04 -2.184835E+03  3.065025E-09  1.053786E-08
       260  12 -1.471648E+05 -2.828928E+04 -1.601161E+04  4.777693E+03  1.456562E-09 -5.328526E-09
       260  13  1.015128E+04 -3.416913E+02  6.830249E+03  6.997570E+03  1.062601E-09 -7.647289E-09
       260  14  7.881027E+03 -2.393160E+03  1.108761E+04 -1.308438E+03 -3.849691E-09  1.229151E-08
       260  15  1.015224E+04  1.099009E+04  2.296052E+04  6.950868E+03  1.609927E-09  8.486678E-09
       260  16  1.462679E+05  3.361731E+04  4.055605E+04  6.576814E+03 -5.305002E-09 -4.132356E-09
       260  17  1.546010E+05  3.421749E+04  4.740188E+04 -4.318546E+02 -1.729166E-09 -2.168079E-08
       260  18  1.674918E+05  5.026762E+04  6.193082E+04  9.124572E+03 -2.903610E-09  4.143795E-09
       260  19 -1.259485E+05 -3.430207E+04 -2.689687E+04  7.418207E+03  5.454995E+03 -1.886910E+03
       260  20 -1.388193E+05 -3.900538E+04 -2.522801E+04 -2.184855E+03  1.114968E+04 -2.277930E+03
       260  21 -1.471645E+05 -2.828920E+04 -1.601107E+04  4.777662E+03  1.684240E+04 -2.260628E+03
       260  22  1.015131E+04 -3.416799E+02  6.830309E+03  6.997562E+03  5.306917E+03 -1.887554E+03
       260  23  7.881161E+03 -2.393121E+03  1.108786E+04 -1.308458E+03  1.110079E+04 -2.278097E+03
       260  24  1.015255E+04  1.099017E+04  2.296107E+04  6.950838E+03  1.689281E+04 -2.260338E+03
       260  25  1.462679E+05  3.361732E+04  4.055611E+04  6.576807E+03  5.158807E+03 -1.888197E+03
       260  26  1.546011E+05  3.421753E+04  4.740212E+04 -4.318749E+02  1.105190E+04 -2.278265E+03
       260  27  1.674921E+05  5.026771E+04  6.193137E+04  9.124541E+03  1.694323E+04 -2.260048E+03
       261   1 -1.835073E+05 -5.254151E+04 -2.152383E+04  1.244544E+04 -2.196117E+04  2.924566E+03
       261   2 -2.090137E+05 -6.903406E+04 -9.139289E+03 -5.137331E+03 -4.455578E+04  3.492894E+03
       261   3 -2.047016E+05  2.169694E+04  4.478046E+04 -6.362253E+03 -6.713867E+04  1.036633E+03
       261   4  1.579027E+04 -2.862789E+03  2.782314E+04  7.030952E+03 -2.144537E+04  2.926766E+03
       261   5  8.244920E+02 -1.664895E+04  4.276106E+04 -1.286379E+03 -4.477278E+04  3.491778E+03
       261   6  1.579394E+04  7.689602E+04  9.973285E+04  6.753721E+03 -6.808887E+04  1.031977E+03
       261   7  2.151240E+05  4.681308E+04  7.716718E+04  1.614692E+03 -2.092941E+04  2.928955E+03
       261   8  2.107027E+05  3.573292E+04  9.465815E+04  2.565840E+03 -4.498984E+04  3.490660E+03
       261   9  2.363339E+05  1.320921E+05  1.546817E+05  1.987432E+04 -6.903940E+04  1.027281E+03
       261  10 -1.835078E+05 -5.254165E+04 -2.152475E+04  1.244549E+04  9.138015E-09  1.196124E-09
       261  11 -2.090158E+05 -6.903461E+04 -9.143044E+03 -5.137206E+03  4.869540E-09 -1.780046E-09
       261  12 -2.047064E+05  2.169573E+04  4.477198E+04 -6.362197E+03 -2.308557E-10  9.722009E-09
       261  13  1.578977E+04 -2.862922E+03  2.782226E+04  7.031003E+03 -3.122719E-11  9.817935E-09
       261  14  8.223363E+02 -1.664950E+04  4.275727E+04 -1.286253E+03 -2.086808E-09  9.659557E-09
       261  15  1.578896E+04  7.689477E+04  9.972414E+04  6.753778E+03  7.778752E-10  3.573648E-09
       261  16  2.151235E+05  4.681295E+04  7.716634E+04  1.614741E+03 -7.615616E-09  1.768182E-08
       261  17  2.107005E+05  3.573237E+04  9.465432E+04  2.565967E+03 -4.510622E-09  1.545900E-08
       261  18  2.363288E+05  1.320908E+05  1.546727E+05  1.987438E+04 -5.009166E-10 -1.399010E-09
       261  19 -1.835073E+05 -5.254151E+04 -2.152383E+04  1.244544E+04  2.196117E+04 -2.924566E+03
       261  20 -2.090137E+05 -6.903406E+04 -9.139289E+03 -5.137331E+03  4.455578E+04 -3.492894E+03
       261  21 -2.047016E+05  2.169694E+04  4.478046E+04 -6.362253E+03  6.713867E+04 -1.036633E+03
       261  22  1.579027E+04 -2.862789E+03  2.782314E+04  7.030952E+03  2.144537E+04 -2.926766E+03
       261  23  8.244920E+02 -1.664895E+04  4.276106E+04 -1.286379E+03  4.477278E+04 -3.491778E+03
       261  24  1.579394E+04  7.689602E+04  9.973285E+04  6.753721E+03  6.808887E+04 -1.031977E+03
       261  25  2.151240E+05  4.681308E+04  7.716718E+04  1.614692E+03  2.092941E+04 -2.928955E+03
       261  26  2.107027E+05  3.573292E+04  9.465815E+04  2.565840E+03  4.498984E+04 -3.490660E+03
       261  27  2.363339E+05  1.320921E+05  1.546817E+05  1.987432E+04  6.903940E+04 -1.027281E+03
       262   1 -2.646441E+05 -1.268275E+06 -3.096674E+05  7.741511E+04 -2.937522E+03 -1.403545E+05
       262   2 -5.814248E+04 -1.174886E+06 -1.786427E+05  1.720039E+04 -9.086714E+03 -8.675305E+04
       262   3 -6.658349E+04 -1.141604E+06 -1.361819E+05  1.844607E+04 -6.708359E+03 -3.312268E+04
       262   4 -1.607320E+05 -8.536698E+05 -2.066583E+05  3.599755E+04 -2.939493E+03 -1.364765E+05
       262   5  2.931625E+04 -8.238808E+05 -9.310282E+04  5.503854E+03 -9.086527E+03 -8.611579E+04
       262   6  5.049524E+03 -8.536021E+05 -6.581720E+04  3.647331E+04 -6.702997E+03 -3.573187E+04
       262   7 -5.682652E+04 -4.389044E+05 -1.036612E+05 -5.447633E+03 -2.941984E+03 -1.325960E+05
       262   8  1.167664E+05 -4.727628E+05 -7.571869E+03 -6.199252E+03 -9.086365E+03 -8.547816E+04
       262   9  7.667766E+04 -5.655237E+05  4.541671E+03  5.450899E+04 -6.697788E+03 -3.834226E+04
       262  10 -2.646494E+05 -1.268296E+06 -3.097045E+05  7.741478E+04  1.625641E-10  2.099587E-09
       262  11 -5.814460E+04 -1.174894E+06 -1.786570E+05  1.719976E+04 -2.919011E-09  7.518666E-11
       262  12 -6.658383E+04 -1.141605E+06 -1.361841E+05  1.844589E+04 -1.897169E-09 -4.896976E-09
       262  13 -1.607370E+05 -8.536898E+05 -2.066934E+05  3.599723E+04  2.825887E-09  5.420842E-09
       262  14  2.931417E+04 -8.238888E+05 -9.311693E+04  5.503224E+03 -6.915764E-10  2.320770E-09
       262  15  5.049133E+03 -8.536035E+05 -6.581969E+04  3.647312E+04 -2.992808E-10  1.839858E-09
       262  16 -5.683125E+04 -4.389233E+05 -1.036943E+05 -5.447947E+03  2.144476E-09 -9.387930E-10
       262  17  1.167643E+05 -4.727707E+05 -7.585765E+03 -6.199877E+03  8.292448E-09  2.131037E-09
       262  18  7.667722E+04 -5.655253E+05  4.538821E+03  5.450879E+04 -6.091339E-10  3.173144E-09
       262  19 -2.646441E+05 -1.268275E+06 -3.096674E+05  7.741511E+04  2.937522E+03  1.403545E+05
       262  20 -5.814248E+04 -1.174886E+06 -1.786427E+05  1.720039E+04  9.086714E+03  8.675305E+04
       262  21 -6.658349E+04 -1.141604E+06 -1.361819E+05  1.844607E+04  6.708359E+03  3.312268E+04
       262  22 -1.607320E+05 -8.536698E+05 -2.066583E+05  3.599755E+04  2.939493E+03  1.364765E+05
       262  23  2.931625E+04 -8.238808E+05 -9.310282E+04  5.503854E+03  9.086527E+03  8.611579E+04
       262  24  5.049524E+03 -8.536021E+05 -6.581720E+04  3.647331E+04  6.702997E+03  3.573187E+04
       262  25 -5.682652E+04 -4.389044E+05 -1.036612E+05 -5.447633E+03  2.941984E+03  1.325960E+05
       262  26  1.167664E+05 -4.727628E+05 -7.571869E+03 -6.199252E+03  9.086365E+03  8.547816E+04
       262  27  7.667766E+04 -5.655237E+05  4.541671E+03  5.450899E+04  6.697788E+03  3.834226E+04
       263   1 -6.052835E+04 -1.009596E+06 -9.891073E+04  4.364819E+04 -4.012817E+03 -2.430235E+04
       263   2 -1.840186E+04 -9.375099E+05 -6.788157E+04  5.393468E+03 -2.501025E+03 -1.836506E+03
       263   3 -2.603450E+04 -8.804219E+05 -6.385819E+04  3.031936E+04 -6.228326E+02  2.063196E+04
       263   4 -1.917698E+04 -8.437045E+05 -5.840271E+04  3.668900E+04 -4.011285E+03 -2.483518E+04
       263   5  6.822622E+03 -8.362156E+05 -4.315847E+04  5.102265E+03 -2.499528E+03 -2.505631E+03
       263   6 -1.690843E+04 -8.437022E+05 -5.482106E+04  3.669621E+04 -6.209267E+02  1.982423E+04
       263   7  2.217254E+04 -6.777878E+05 -1.789667E+04  2.972795E+04 -4.009741E+03 -2.536816E+04
       263   8  3.204634E+04 -7.349119E+05 -1.843611E+04  4.811020E+03 -2.498030E+03 -3.174865E+03
       263   9 -7.782311E+03 -8.069812E+05 -4.578400E+04  4.307343E+04 -6.190375E+02  1.901646E+04
       263  10 -6.052853E+04 -1.009597E+06 -9.891187E+04  4.364811E+04  1.127539E-10  1.596947E-09
       263  11 -1.840187E+04 -9.375099E+05 -6.788159E+04  5.393464E+03  1.877530E-09  8.922574E-10
       263  12 -2.603462E+04 -8.804224E+05 -6.385899E+04  3.031937E+04 -7.837389E-10 -9.597206E-10
       263  13 -1.917716E+04 -8.437051E+05 -5.840390E+04  3.668892E+04  1.550617E-09  2.841187E-09
       263  14  6.822614E+03 -8.362156E+05 -4.315849E+04  5.102260E+03  9.425844E-11  1.609368E-09
       263  15 -1.690854E+04 -8.437026E+05 -5.482180E+04  3.669622E+04 -5.501741E-10  6.953529E-10
       263  16  2.217235E+04 -6.777885E+05 -1.789791E+04  2.972787E+04 -4.444550E-10  6.111998E-10
       263  17  3.204633E+04 -7.349119E+05 -1.843615E+04  4.811013E+03 -8.645349E-10 -1.127721E-09
       263  18 -7.782408E+03 -8.069815E+05 -4.578468E+04  4.307344E+04 -1.113922E-09 -2.449914E-10
       263  19 -6.052835E+04 -1.009596E+06 -9.891073E+04  4.364819E+04  4.012817E+03  2.430235E+04
       263  20 -1.840186E+04 -9.375099E+05 -6.788157E+04  5.393468E+03  2.501025E+03  1.836506E+03
       263  21 -2.603450E+04 -8.804219E+05 -6.385819E+04  3.031936E+04  6.228326E+02 -2.063196E+04
       263  22 -1.917698E+04 -8.437045E+05 -5.840271E+04  3.668900E+04  4.011285E+03  2.483518E+04
       263  23  6.822622E+03 -8.362156E+05 -4.315847E+04  5.102265E+03  2.499528E+03  2.505631E+03
       263  24 -1.690843E+04 -8.437022E+05 -5.482106E+04  3.669621E+04  6.209267E+02 -1.982423E+04
       263  25  2.217254E+04 -6.777878E+05 -1.789667E+04  2.972795E+04  4.009741E+03  2.536816E+04
       263  26  3.204634E+04 -7.349119E+05 -1.843611E+04  4.811020E+03  2.498030E+03  3.174865E+03
       263  27 -7.782311E+03 -8.069812E+05 -4.578400E+04  4.307343E+04  6.190375E+02 -1.901646E+04
       264   1  2.544926E+04 -7.658552E+05 -3.962248E+04  5.320616E+04  1.609920E+03  3.184643E+04
       264   2  6.380001E+04 -6.749024E+05 -4.726720E+04 -4.869031E+03  3.935123E+03  7.537253E+04
       264   3 -8.930340E+04 -6.370844E+05 -1.310422E+05 -2.269235E+02  1.352430E+03  1.188923E+05
       264   4  4.002755E+03 -8.522478E+05 -6.080378E+04  3.671340E+04  1.613022E+03  2.997279E+04
       264   5  2.626035E+04 -8.255355E+05 -8.394273E+04  5.181044E+03  3.936382E+03  7.537073E+04
       264   6 -1.432902E+05 -8.523062E+05 -1.845290E+05  3.636816E+04  1.355042E+03  1.207577E+05
       264   7 -1.744328E+04 -9.386330E+05 -8.198546E+04  2.022294E+04  1.616223E+03  2.809940E+04
       264   8 -1.128062E+04 -9.761477E+05 -1.206199E+05  1.522868E+04  3.937642E+03  7.536892E+04
       264   9 -1.972754E+05 -1.067483E+06 -2.380186E+05  7.295056E+04  1.357875E+03  1.226225E+05
       264  10  2.544899E+04 -7.658563E+05 -3.962440E+04  5.320611E+04 -2.068161E-09  2.530563E-10
       264  11  6.379847E+04 -6.749085E+05 -4.727791E+04 -4.869270E+03 -3.391016E-10  1.269352E-09
       264  12 -8.930721E+04 -6.370996E+05 -1.310688E+05 -2.270531E+02 -6.823026E-10  6.985061E-10
       264  13  4.002510E+03 -8.522487E+05 -6.080548E+04  3.671336E+04  1.394998E-09  4.751230E-09
       264  14  2.625880E+04 -8.255416E+05 -8.395345E+04  5.180805E+03  1.070068E-09  1.389547E-09
       264  15 -1.432941E+05 -8.523219E+05 -1.845565E+05  3.636803E+04  1.745102E-09  2.071761E-10
       264  16 -1.744349E+04 -9.386338E+05 -8.198695E+04  2.022290E+04  2.757426E-10  2.347445E-09
       264  17 -1.128217E+04 -9.761538E+05 -1.206306E+05  1.522844E+04  6.193637E-09  6.797310E-10
       264  18 -1.972795E+05 -1.067499E+06 -2.380469E+05  7.295042E+04  7.252289E-10 -1.826876E-09
       264  19  2.544926E+04 -7.658552E+05 -3.962248E+04  5.320616E+04 -1.609920E+03 -3.184643E+04
       264  20  6.380001E+04 -6.749024E+05 -4.726720E+04 -4.869031E+03 -3.935123E+03 -7.537253E+04
       264  21 -8.930340E+04 -6.370844E+05 -1.310422E+05 -2.269235E+02 -1.352430E+03 -1.188923E+05
       264  22  4.002755E+03 -8.522478E+05 -6.080378E+04  3.671340E+04 -1.613022E+03 -2.997279E+04
       264  23  2.626035E+04 -8.255355E+05 -8.394273E+04  5.181044E+03 -3.936382E+03 -7.537073E+04
       264  24 -1.432902E+05 -8.523062E+05 -1.845290E+05  3.636816E+04 -1.355042E+03 -1.207577E+05
       264  25 -1.744328E+04 -9.386330E+05 -8.198546E+04  2.022294E+04 -1.616223E+03 -2.809940E+04
       264  26 -1.128062E+04 -9.761477E+05 -1.206199E+05  1.522868E+04 -3.937642E+03 -7.536892E+04
       264  27 -1.972754E+05 -1.067483E+06 -2.380186E+05  7.295056E+04 -1.357875E+03 -1.226225E+05
       265   1  1.178772E+06  3.932142E+05  2.589917E+05  4.085907E+05  1.168442E+05  4.132720E+04
       265   2  1.137441E+06  2.124986E+05  1.471524E+05  4.219937E+05  7.612049E+04  2.029768E+04
       265   3  1.149790E+06  2.175222E+05  1.135512E+05  4.094584E+05  3.314417E+04  5.220214E+03
       265   4  9.049473E+05  2.592975E+05  1.781898E+05  3.027340E+05  1.139703E+05  4.023197E+04
       265   5  8.691864E+05  1.028020E+05  7.356037E+04  3.398871E+05  7.540630E+04  2.002560E+04
       265   6  8.867063E+05  1.316614E+05  4.548554E+04  3.510946E+05  3.458848E+04  5.768528E+03
       265   7  6.311986E+05  1.254021E+05  9.738108E+04  1.969249E+05  1.110978E+05  3.913761E+04
       265   8  6.010020E+05 -6.886737E+03 -3.807787E+01  2.578137E+05  7.469244E+04  1.975367E+04
       265   9  6.236887E+05  4.580059E+04 -2.258590E+04  2.927508E+05  3.603212E+04  6.316667E+03
       265  10  1.178757E+06  3.932088E+05  2.589629E+05  4.085868E+05 -1.283882E-09 -1.397830E-09
       265  11  1.137434E+06  2.124966E+05  1.471407E+05  4.219925E+05 -5.904197E-10  1.877042E-09
       265  12  1.149788E+06  2.175218E+05  1.135491E+05  4.094583E+05 -7.045790E-09  1.928507E-09
       265  13  9.049329E+05  2.592923E+05  1.781624E+05  3.027303E+05 -1.240499E-09 -6.064818E-09
       265  14  8.691802E+05  1.028000E+05  7.354895E+04  3.398859E+05 -3.987834E-09  4.194875E-09
       265  15  8.867050E+05  1.316610E+05  4.548324E+04  3.510944E+05 -5.122321E-09  4.606592E-09
       265  16  6.311849E+05  1.253971E+05  9.735504E+04  1.969214E+05  2.320593E-09 -2.583963E-09
       265  17  6.009959E+05 -6.888651E+03 -4.928224E+01  2.578125E+05 -2.972176E-09  1.070349E-09
       265  18  6.236873E+05  4.580020E+04 -2.258841E+04  2.927507E+05 -4.042864E-09 -3.420362E-09
       265  19  1.178772E+06  3.932142E+05  2.589917E+05  4.085907E+05 -1.168442E+05 -4.132720E+04
       265  20  1.137441E+06  2.124986E+05  1.471524E+05  4.219937E+05 -7.612049E+04 -2.029768E+04
       265  21  1.149790E+06  2.175222E+05  1.135512E+05  4.094584E+05 -3.314417E+04 -5.220214E+03
       265  22  9.049473E+05  2.592975E+05  1.781898E+05  3.027340E+05 -1.139703E+05 -4.023197E+04
       265  23  8.691864E+05  1.028020E+05  7.356037E+04  3.398871E+05 -7.540630E+04 -2.002560E+04
       265  24  8.867063E+05  1.316614E+05  4.548554E+04  3.510946E+05 -3.458848E+04 -5.768528E+03
       265  25  6.311986E+05  1.254021E+05  9.738108E+04  1.969249E+05 -1.110978E+05 -3.913761E+04
       265  26  6.010020E+05 -6.886737E+03 -3.807787E+01  2.578137E+05 -7.469244E+04 -1.975367E+04
       265  27  6.236887E+05  4.580059E+04 -2.258590E+04  2.927508E+05 -3.603212E+04 -6.316667E+03
       266   1  1.089472E+06  2.335344E+05  9.404405E+04  4.005194E+05  2.744713E+04  4.627583E+03
       266   2  1.073465E+06  1.978592E+05  6.884359E+04  3.902899E+05  1.802933E+04  1.269801E+03
       266   3  1.051950E+06  1.987409E+05  5.651652E+04  3.915164E+05  8.384262E+03 -1.488844E+03
       266   4  8.811510E+05  1.510218E+05  3.723510E+04  3.395344E+05  2.740072E+04  4.609652E+03
       266   5  8.827715E+05  1.247035E+05  1.737729E+04  3.368666E+05  1.820163E+04  1.335044E+03
       266   6  8.788417E+05  1.349030E+05  1.022298E+04  3.456542E+05  8.774966E+03 -1.340545E+03
       266   7  6.728719E+05  6.851299E+04 -1.957778E+04  2.785681E+05  2.735432E+04  4.591728E+03
       266   8  6.921127E+05  5.155027E+04 -3.409220E+04  2.834582E+05  1.837387E+04  1.400263E+03
       266   9  7.057629E+05  7.106668E+04 -3.607307E+04  2.998035E+05  9.165549E+03 -1.192289E+03
       266  10  1.089471E+06  2.335342E+05  9.404260E+04  4.005193E+05  4.283446E-09  9.032399E-09
       266  11  1.073465E+06  1.978591E+05  6.884298E+04  3.902899E+05  6.562344E-09 -3.337383E-09
       266  12  1.051949E+06  1.987409E+05  5.651639E+04  3.915164E+05 -2.149867E-09 -1.963128E-09
       266  13  8.811502E+05  1.510216E+05  3.723365E+04  3.395343E+05 -5.832770E-09  2.574899E-09
       266  14  8.827711E+05  1.247034E+05  1.737666E+04  3.368666E+05 -2.561918E-09 -2.219243E-08
       266  15  8.788416E+05  1.349030E+05  1.022283E+04  3.456542E+05  1.796725E-10 -5.520144E-10
       266  16  6.728711E+05  6.851276E+04 -1.957922E+04  2.785680E+05 -1.195432E-08 -9.999740E-09
       266  17  6.921124E+05  5.155018E+04 -3.409284E+04  2.834582E+05 -7.288884E-09 -9.770890E-09
       266  18  7.057628E+05  7.106666E+04 -3.607323E+04  2.998035E+05  5.412822E-09 -5.270860E-09
       266  19  1.089472E+06  2.335344E+05  9.404405E+04  4.005194E+05 -2.744713E+04 -4.627583E+03
       266  20  1.073465E+06  1.978592E+05  6.884359E+04  3.902899E+05 -1.802933E+04 -1.269801E+03
       266  21  1.051950E+06  1.987409E+05  5.651652E+04  3.915164E+05 -8.384262E+03  1.488844E+03
       266  22  8.811510E+05  1.510218E+05  3.723510E+04  3.395344E+05 -2.740072E+04 -4.609652E+03
       266  23  8.827715E+05  1.247035E+05  1.737729E+04  3.368666E+05 -1.820163E+04 -1.335044E+03
       266  24  8.788417E+05  1.349030E+05  1.022298E+04  3.456542E+05 -8.774966E+03  1.340545E+03
       266  25  6.728719E+05  6.851299E+04 -1.957778E+04  2.785681E+05 -2.735432E+04 -4.591728E+03
       266  26  6.921127E+05  5.155027E+04 -3.409220E+04  2.834582E+05 -1.837387E+04 -1.400263E+03
       266  27  7.057629E+05  7.106668E+04 -3.607307E+04  2.998035E+05 -9.165549E+03  1.192289E+03
       267   1  1.010278E+06  1.876325E+05  4.363330E+04  3.808125E+05  6.842064E+03 -1.465818E+03
       267   2  9.983042E+05  1.709631E+05  3.474608E+04  3.681939E+05  4.470312E+03 -1.586303E+03
       267   3  9.735085E+05  1.711989E+05  2.818225E+04  3.708829E+05  2.080296E+03 -1.659346E+03
       267   4  8.781801E+05  1.371582E+05  8.066267E+03  3.440010E+05  7.078214E+03 -1.376187E+03
       267   5  8.844488E+05  1.277049E+05  4.090510E+03  3.367283E+05  4.723998E+03 -1.489959E+03
       267   6  8.778928E+05  1.351538E+05  2.424775E+03  3.447633E+05  2.351451E+03 -1.556311E+03
       267   7  7.460982E+05  8.668495E+04 -2.750239E+04  3.071966E+05  7.314309E+03 -1.286576E+03
       267   8  7.706057E+05  8.444738E+04 -2.656624E+04  3.052678E+05  4.977633E+03 -1.393634E+03
       267   9  7.822858E+05  9.910931E+04 -2.333351E+04  3.186472E+05  2.622561E+03 -1.453294E+03
       267  10  1.010278E+06  1.876325E+05  4.363321E+04  3.808125E+05 -3.040353E-09  1.203325E-08
       267  11  9.983042E+05  1.709631E+05  3.474604E+04  3.681939E+05 -4.961406E-09  1.371641E-08
       267  12  9.735085E+05  1.711989E+05  2.818224E+04  3.708829E+05 -9.586956E-09  9.410274E-09
       267  13  8.781801E+05  1.371582E+05  8.066169E+03  3.440011E+05  8.516744E-10 -4.990017E-10
       267  14  8.844488E+05  1.277049E+05  4.090464E+03  3.367283E+05 -4.444173E-09  5.701048E-10
       267  15  8.778928E+05  1.351538E+05  2.424760E+03  3.447633E+05 -9.251973E-09 -3.986119E-09
       267  16  7.460981E+05  8.668493E+04 -2.750250E+04  3.071966E+05  9.802410E-10 -5.237150E-09
       267  17  7.706057E+05  8.444737E+04 -2.656629E+04  3.052678E+05 -4.961241E-09 -7.784102E-09
       267  18  7.822858E+05  9.910931E+04 -2.333353E+04  3.186472E+05  1.620897E-09 -1.437340E-09
       267  19  1.010278E+06  1.876325E+05  4.363330E+04  3.808125E+05 -6.842064E+03  1.465818E+03
       267  20  9.983042E+05  1.709631E+05  3.474608E+04  3.681939E+05 -4.470312E+03  1.586303E+03
       267  21  9.735085E+05  1.711989E+05  2.818225E+04  3.708829E+05 -2.080296E+03  1.659346E+03
       267  22  8.781801E+05  1.371582E+05  8.066267E+03  3.440010E+05 -7.078214E+03  1.376187E+03
       267  23  8.844488E+05  1.277049E+05  4.090510E+03  3.367283E+05 -4.723998E+03  1.489959E+03
       267  24  8.778928E+05  1.351538E+05  2.424775E+03  3.447633E+05 -2.351451E+03  1.556311E+03
       267  25  7.460982E+05  8.668495E+04 -2.750239E+04  3.071966E+05 -7.314309E+03  1.286576E+03
       267  26  7.706057E+05  8.444738E+04 -2.656624E+04  3.052678E+05 -4.977633E+03  1.393634E+03
       267  27  7.822858E+05  9.910931E+04 -2.333351E+04  3.186472E+05 -2.622561E+03  1.453294E+03
       268   1  9.355288E+05  1.572612E+05  1.739984E+04  3.604305E+05  1.572818E+03 -1.361865E+03
       268   2  9.243690E+05  1.432619E+05  1.193675E+04  3.477882E+05  6.809717E+02 -8.863037E+02
       268   3  8.996891E+05  1.434223E+05  7.044590E+03  3.505444E+05 -2.108466E+02 -4.109914E+02
       268   4  8.778563E+05  1.353509E+05  1.937747E+03  3.444777E+05  1.829023E+03 -1.264488E+03
       268   5  8.846021E+05  1.281705E+05  1.232120E+03  3.368168E+05  9.371416E+02 -7.889244E+02
       268   6  8.778276E+05  1.351500E+05  1.097529E+03  3.445543E+05  4.526620E+01 -3.136157E+02
       268   7  8.201871E+05  1.134409E+05 -1.352461E+04  3.285263E+05  2.085202E+03 -1.167122E+03
       268   8  8.448368E+05  1.130793E+05 -9.472651E+03  3.258459E+05  1.193293E+03 -6.915518E+02
       268   9  8.559665E+05  1.268777E+05 -4.849588E+03  3.385643E+05  3.013696E+02 -2.162435E+02
       268  10  9.355288E+05  1.572612E+05  1.739983E+04  3.604305E+05 -8.276575E-09 -1.884308E-10
       268  11  9.243690E+05  1.432619E+05  1.193675E+04  3.477882E+05 -5.819721E-09  8.023033E-09
       268  12  8.996891E+05  1.434223E+05  7.044590E+03  3.505444E+05 -1.247033E-09  3.196945E-09
       268  13  8.778563E+05  1.353509E+05  1.937738E+03  3.444777E+05 -4.811821E-09 -4.053302E-09
       268  14  8.846021E+05  1.281705E+05  1.232117E+03  3.368168E+05 -3.517784E-09  1.337237E-09
       268  15  8.778276E+05  1.351500E+05  1.097529E+03  3.445543E+05 -1.032741E-09 -7.065352E-09
       268  16  8.201871E+05  1.134409E+05 -1.352462E+04  3.285263E+05 -1.902746E-10 -5.814261E-09
       268  17  8.448368E+05  1.130793E+05 -9.472655E+03  3.258459E+05 -6.359860E-09 -4.796237E-09
       268  18  8.559665E+05  1.268777E+05 -4.849588E+03  3.385643E+05  1.427527E-09  6.072949E-09
       268  19  9.355288E+05  1.572612E+05  1.739984E+04  3.604305E+05 -1.572818E+03  1.361865E+03
       268  20  9.243690E+05  1.432619E+05  1.193675E+04  3.477882E+05 -6.809717E+02  8.863037E+02
       268  21  8.996891E+05  1.434223E+05  7.044590E+03  3.505444E+05  2.108466E+02  4.109914E+02
       268  22  8.778563E+05  1.353509E+05  1.937747E+03  3.444777E+05 -1.829023E+03  1.264488E+03
       268  23  8.846021E+05  1.281705E+05  1.232120E+03  3.368168E+05 -9.371416E+02  7.889244E+02
       268  24  8.778276E+05  1.351500E+05  1.097529E+03  3.445543E+05 -4.526620E+01  3.136157E+02
       268  25  8.201871E+05  1.134409E+05 -1.352461E+04  3.285263E+05 -2.085202E+03  1.167122E+03
       268  26  8.448368E+05  1.130793E+05 -9.472651E+03  3.258459E+05 -1.193293E+03  6.915518E+02
       268  27  8.559665E+05  1.268777E+05 -4.849588E+03  3.385643E+05 -3.013696E+02  2.162435E+02
       269   1  8.624872E+05  1.293399E+05 -3.036357E+03  3.403799E+05 -5.547402E+02 -6.786666E+01
       269   2  8.513563E+05  1.155452E+05 -7.372594E+03  3.276579E+05 -1.617724E+03  3.418364E+02
       269   3  8.268037E+05  1.160344E+05 -1.097114E+04  3.302811E+05 -2.680379E+03  7.510203E+02
       269   4  8.778426E+05  1.351292E+05  1.156719E+03  3.445608E+05 -2.986796E+02  2.949067E+01
       269   5  8.845775E+05  1.281543E+05  1.570724E+03  3.368247E+05 -1.361905E+03  4.390865E+02
       269   6  8.778904E+05  1.354631E+05  2.722563E+03  3.444336E+05 -2.424827E+03  8.481548E+02
       269   7  8.931981E+05  1.409185E+05  5.349774E+03  3.487418E+05 -4.261197E+01  1.268506E+02
       269   8  9.177997E+05  1.407634E+05  1.051393E+04  3.459920E+05 -1.106072E+03  5.363423E+02
       269   9  9.289794E+05  1.548920E+05  1.641601E+04  3.585872E+05 -2.169252E+03  9.452980E+02
       269  10  8.624872E+05  1.293399E+05 -3.036358E+03  3.403799E+05  2.920557E-09 -7.713153E-09
       269  11  8.513563E+05  1.155452E+05 -7.372599E+03  3.276579E+05 -3.036047E-10 -2.924634E-08
       269  12  8.268037E+05  1.160343E+05 -1.097116E+04  3.302811E+05 -4.118666E-09 -1.593672E-08
       269  13  8.778426E+05  1.351292E+05  1.156719E+03  3.445608E+05 -1.499627E-09 -3.330421E-10
       269  14  8.845775E+05  1.281543E+05  1.570721E+03  3.368247E+05  7.403248E-09  3.793158E-09
       269  15  8.778904E+05  1.354631E+05  2.722550E+03  3.444336E+05  2.020926E-09  4.127483E-09
       269  16  8.931981E+05  1.409185E+05  5.349774E+03  3.487418E+05  1.741229E-09  2.998181E-09
       269  17  9.177997E+05  1.407634E+05  1.051393E+04  3.459920E+05  3.710651E-09  5.162901E-10
       269  18  9.289794E+05  1.548920E+05  1.641600E+04  3.585872E+05  1.106029E-08  5.050277E-09
       269  19  8.624872E+05  1.293399E+05 -3.036357E+03  3.403799E+05  5.547402E+02  6.786666E+01
       269  20  8.513563E+05  1.155452E+05 -7.372594E+03  3.276579E+05  1.617724E+03 -3.418364E+02
       269  21  8.268037E+05  1.160344E+05 -1.097114E+04  3.302811E+05  2.680379E+03 -7.510203E+02
       269  22  8.778426E+05  1.351292E+05  1.156719E+03  3.445608E+05  2.986796E+02 -2.949067E+01
       269  23  8.845775E+05  1.281543E+05  1.570724E+03  3.368247E+05  1.361905E+03 -4.390865E+02
       269  24  8.778904E+05  1.354631E+05  2.722563E+03  3.444336E+05  2.424827E+03 -8.481548E+02
       269  25  8.931981E+05  1.409185E+05  5.349774E+03  3.487418E+05  4.261197E+01 -1.268506E+02
       269  26  9.177997E+05  1.407634E+05  1.051393E+04  3.459920E+05  1.106072E+03 -5.363423E+02
       269  27  9.289794E+05  1.548920E+05  1.641601E+04  3.585872E+05  2.169252E+03 -9.452980E+02
       270   1  7.889613E+05  1.016767E+05 -2.049301E+04  3.206117E+05 -3.368083E+03  9.787235E+02
       270   2  7.771932E+05  8.678845E+04 -2.286575E+04  3.071263E+05 -6.691627E+03  5.487034E+02
       270   3  7.532669E+05  9.004555E+04 -2.186752E+04  3.085810E+05 -9.996973E+03  7.159421E+01
       270   4  8.779962E+05  1.351155E+05  3.474064E+03  3.448014E+05 -3.097826E+03  1.081426E+03
       270   5  8.842865E+05  1.275257E+05  5.981865E+03  3.367669E+05 -6.438861E+03  6.447089E+02
       270   6  8.784218E+05  1.380843E+05  1.187413E+04  3.436723E+05 -9.761794E+03  1.608660E+02
       270   7  9.670390E+05  1.685547E+05  2.744049E+04  3.689943E+05 -2.827525E+03  1.184145E+03
       270   8  9.913910E+05  1.682637E+05  3.482850E+04  3.664120E+05 -6.186047E+03  7.407328E+02
       270   9  1.003592E+06  1.861241E+05  4.561440E+04  3.787699E+05 -9.526562E+03  2.501583E+02
       270  10  7.889612E+05  1.016767E+05 -2.049303E+04  3.206117E+05  1.562205E-09 -1.447504E-08
       270  11  7.771931E+05  8.678844E+04 -2.286583E+04  3.071263E+05  2.837410E-10 -1.288488E-08
       270  12  7.532668E+05  9.004552E+04 -2.186771E+04  3.085810E+05 -7.430094E-09 -6.318073E-09
       270  13  8.779962E+05  1.351155E+05  3.474044E+03  3.448014E+05  2.954924E-09 -1.230605E-08
       270  14  8.842865E+05  1.275257E+05  5.981787E+03  3.367669E+05  9.872746E-09  1.120569E-09
       270  15  8.784217E+05  1.380843E+05  1.187395E+04  3.436723E+05 -7.322179E-10  1.331453E-08
       270  16  9.670390E+05  1.685547E+05  2.744047E+04  3.689943E+05  6.108055E-09 -6.564719E-09
       270  17  9.913910E+05  1.682637E+05  3.482842E+04  3.664120E+05  7.938388E-09  1.302563E-08
       270  18  1.003592E+06  1.861241E+05  4.561423E+04  3.787699E+05  5.635875E-09  8.354228E-09
       270  19  7.889613E+05  1.016767E+05 -2.049301E+04  3.206117E+05  3.368083E+03 -9.787235E+02
       270  20  7.771932E+05  8.678845E+04 -2.286575E+04  3.071263E+05  6.691627E+03 -5.487034E+02
       270  21  7.532669E+05  9.004555E+04 -2.186752E+04  3.085810E+05  9.996973E+03 -7.159421E+01
       270  22  8.779962E+05  1.351155E+05  3.474064E+03  3.448014E+05  3.097826E+03 -1.081426E+03
       270  23  8.842865E+05  1.275257E+05  5.981865E+03  3.367669E+05  6.438861E+03 -6.447089E+02
       270  24  8.784218E+05  1.380843E+05  1.187413E+04  3.436723E+05  9.761794E+03 -1.608660E+02
       270  25  9.670390E+05  1.685547E+05  2.744049E+04  3.689943E+05  2.827525E+03 -1.184145E+03
       270  26  9.913910E+05  1.682637E+05  3.482850E+04  3.664120E+05  6.186047E+03 -7.407328E+02
       270  27  1.003592E+06  1.861241E+05  4.561440E+04  3.787699E+05  9.526562E+03 -2.501583E+02
       271   1  7.127877E+05  7.409546E+04 -2.934895E+04  3.027824E+05 -1.254906E+04 -2.940408E+02
       271   2  6.984686E+05  5.244166E+04 -2.391859E+04  2.852979E+05 -2.609862E+04 -4.539438E+03
       271   3  6.830858E+05  7.744585E+04  8.500973E+01  2.765928E+05 -3.942622E+04 -9.367723E+03
       271   4  8.794870E+05  1.346611E+05  1.506346E+04  3.460100E+05 -1.216326E+04 -1.475493E+02
       271   5  8.817051E+05  1.232135E+05  2.563771E+04  3.371018E+05 -2.592659E+04 -4.474316E+03
       271   6  8.828976E+05  1.584596E+05  5.495013E+04  3.369732E+05 -3.946839E+04 -9.384252E+03
       271   7  1.046213E+06  1.952278E+05  5.947337E+04  3.892477E+05 -1.177736E+04 -1.018797E+00
       271   8  1.064974E+06  1.939878E+05  7.519101E+04  3.889197E+05 -2.575450E+04 -4.409171E+03
       271   9  1.082748E+06  2.394777E+05  1.098117E+05  3.973717E+05 -3.951057E+04 -9.400786E+03
       271  10  7.127875E+05  7.409542E+04 -2.934925E+04  3.027824E+05 -9.485640E-10  6.452780E-09
       271  11  6.984679E+05  5.244145E+04 -2.391990E+04  2.852978E+05  3.602340E-10  5.677697E-10
       271  12  6.830841E+05  7.744534E+04  8.192760E+01  2.765925E+05  2.057714E-10  1.974866E-08
       271  13  8.794868E+05  1.346611E+05  1.506318E+04  3.460100E+05 -4.653904E-09 -1.073410E-08
       271  14  8.817044E+05  1.232133E+05  2.563641E+04  3.371018E+05  2.971202E-10  9.377998E-09
       271  15  8.828959E+05  1.584591E+05  5.494705E+04  3.369729E+05 -8.346936E-10  9.070440E-09
       271  16  1.046212E+06  1.952277E+05  5.947311E+04  3.892477E+05 -4.190457E-09 -6.888005E-09
       271  17  1.064973E+06  1.939876E+05  7.518973E+04  3.889196E+05 -9.251937E-10  2.022642E-09
       271  18  1.082747E+06  2.394771E+05  1.098086E+05  3.973714E+05 -3.602296E-09  2.958637E-09
       271  19  7.127877E+05  7.409546E+04 -2.934895E+04  3.027824E+05  1.254906E+04  2.940408E+02
       271  20  6.984686E+05  5.244166E+04 -2.391859E+04  2.852979E+05  2.609862E+04  4.539438E+03
       271  21  6.830858E+05  7.744585E+04  8.500973E+01  2.765928E+05  3.942622E+04  9.367723E+03
       271  22  8.794870E+05  1.346611E+05  1.506346E+04  3.460100E+05  1.216326E+04  1.475493E+02
       271  23  8.817051E+05  1.232135E+05  2.563771E+04  3.371018E+05  2.592659E+04  4.474316E+03
       271  24  8.828976E+05  1.584596E+05  5.495013E+04  3.369732E+05  3.946839E+04  9.384252E+03
       271  25  1.046213E+06  1.952278E+05  5.947337E+04  3.892477E+05  1.177736E+04  1.018797E+00
       271  26  1.064974E+06  1.939878E+05  7.519101E+04  3.889197E+05  2.575450E+04  4.409171E+03
       271  27  1.082748E+06  2.394777E+05  1.098117E+05  3.973717E+05  3.951057E+04  9.400786E+03
       272   1  6.309896E+05  5.149156E+04  1.082635E+03  3.029660E+05 -5.122764E+04 -1.230788E+04
       272   2  6.038464E+05 -1.854550E+04  3.705079E+04  2.585955E+05 -1.091700E+05 -3.306170E+04
       272   3  6.626852E+05  1.768173E+05  1.843592E+05  1.670912E+05 -1.649189E+05 -5.959612E+04
       272   4  8.912190E+05  1.297527E+05  6.712750E+04  3.538834E+05 -4.981925E+04 -1.177194E+04
       272   5  8.615095E+05  9.106557E+04  1.085838E+05  3.417535E+05 -1.098678E+05 -3.332898E+04
       272   6  9.181535E+05  3.181249E+05  2.630115E+05  2.825015E+05 -1.677230E+05 -6.067276E+04
       272   7  1.151514E+06  2.080129E+05  1.331674E+05  4.048173E+05 -4.841020E+04 -1.123587E+04
       272   8  1.119236E+06  2.006854E+05  1.801103E+05  4.249440E+05 -1.105660E+05 -3.359642E+04
       272   9  1.173688E+06  4.594612E+05  3.416570E+05  3.979610E+05 -1.705283E+05 -6.175035E+04
       272  10  6.309867E+05  5.149069E+04  1.077426E+03  3.029655E+05  3.714578E-09  1.479115E-08
       272  11  6.038333E+05 -1.854987E+04  3.702637E+04  2.585926E+05  1.660798E-09  3.922547E-09
       272  12  6.626551E+05  1.768062E+05  1.843015E+05  1.670833E+05 -9.516486E-10  1.694320E-09
       272  13  8.912163E+05  1.297519E+05  6.712259E+04  3.538829E+05  6.392504E-11  3.638146E-09
       272  14  8.614962E+05  9.106115E+04  1.085590E+05  3.417506E+05  1.326052E-09 -8.005888E-09
       272  15  9.181223E+05  3.181135E+05  2.629518E+05  2.824933E+05 -3.169617E-10 -2.479449E-09
       272  16  1.151512E+06  2.080122E+05  1.331628E+05  4.048168E+05 -6.347605E-09 -5.566979E-09
       272  17  1.119223E+06  2.006809E+05  1.800853E+05  4.249410E+05  2.100273E-09 -7.641762E-09
       272  18  1.173656E+06  4.594493E+05  3.415953E+05  3.979526E+05  1.944040E-09 -6.923556E-09
       272  19  6.309896E+05  5.149156E+04  1.082635E+03  3.029660E+05  5.122764E+04  1.230788E+04
       272  20  6.038464E+05 -1.854550E+04  3.705079E+04  2.585955E+05  1.091700E+05  3.306170E+04
       272  21  6.626852E+05  1.768173E+05  1.843592E+05  1.670912E+05  1.649189E+05  5.959612E+04
       272  22  8.912190E+05  1.297527E+05  6.712750E+04  3.538834E+05  4.981925E+04  1.177194E+04
       272  23  8.615095E+05  9.106557E+04  1.085838E+05  3.417535E+05  1.098678E+05  3.332898E+04
       272  24  9.181535E+05  3.181249E+05  2.630115E+05  2.825015E+05  1.677230E+05  6.067276E+04
       272  25  1.151514E+06  2.080129E+05  1.331674E+05  4.048173E+05  4.841020E+04  1.123587E+04
       272  26  1.119236E+06  2.006854E+05  1.801103E+05  4.249440E+05  1.105660E+05  3.359642E+04
       272  27  1.173688E+06  4.594612E+05  3.416570E+05  3.979610E+05  1.705283E+05  6.175035E+04
       273   1 -7.130187E+04 -8.683598E+05 -8.570757E+04  2.061832E+04 -5.548179E+02 -4.214485E+04
       273   2 -9.504184E+03 -8.490201E+05 -4.840006E+04  6.653210E+03 -1.901109E+03 -2.526063E+04
       273   3 -1.525206E+04 -8.486857E+05 -3.896735E+04  2.161423E+03 -1.549249E+03 -8.370378E+03
       273   4 -4.994799E+04 -7.833097E+05 -6.457720E+04  7.715021E+03 -5.566635E+02 -4.132756E+04
       273   5  9.233436E+03 -7.738549E+05 -3.008166E+04  3.062485E+03 -1.901503E+03 -2.509294E+04
       273   6  9.863212E+02 -7.832903E+05 -2.300680E+04  7.883636E+03 -1.547773E+03 -8.852569E+03
       273   7 -2.859404E+04 -6.982528E+05 -4.344728E+04 -5.190048E+03 -5.585430E+02 -4.051017E+04
       273   8  2.797069E+04 -6.986845E+05 -1.176366E+04 -5.286726E+02 -1.901898E+03 -2.492523E+04
       273   9  1.722451E+04 -7.178909E+05 -7.046551E+03  1.360646E+04 -1.546307E+03 -9.334811E+03
       273  10 -7.130234E+04 -8.683617E+05 -8.571091E+04  2.061830E+04  1.306532E-09  9.923318E-10
       273  11 -9.504360E+03 -8.490207E+05 -4.840126E+04  6.653171E+03  4.822331E-10 -7.548448E-09
       273  12 -1.525208E+04 -8.486858E+05 -3.896748E+04  2.161412E+03 -6.382919E-09 -3.817192E-09
       273  13 -4.994845E+04 -7.833116E+05 -6.458041E+04  7.715002E+03  4.868655E-09 -2.068288E-09
       273  14  9.233263E+03 -7.738555E+05 -3.008285E+04  3.062446E+03  6.369547E-09  5.658352E-09
       273  15  9.862976E+02 -7.832904E+05 -2.300695E+04  7.883625E+03 -3.622578E-09 -1.392406E-08
       273  16 -2.859448E+04 -6.982546E+05 -4.345037E+04 -5.190066E+03  4.013754E-09  5.106593E-09
       273  17  2.797051E+04 -6.986852E+05 -1.176484E+04 -5.287108E+02  9.685021E-09  1.248675E-08
       273  18  1.722448E+04 -7.178910E+05 -7.046719E+03  1.360645E+04 -5.237335E-09  6.119663E-09
       273  19 -7.130187E+04 -8.683598E+05 -8.570757E+04  2.061832E+04  5.548179E+02  4.214485E+04
       273  20 -9.504184E+03 -8.490201E+05 -4.840006E+04  6.653210E+03  1.901109E+03  2.526063E+04
       273  21 -1.525206E+04 -8.486857E+05 -3.896735E+04  2.161423E+03  1.549249E+03  8.370378E+03
       273  22 -4.994799E+04 -7.833097E+05 -6.457720E+04  7.715021E+03  5.566635E+02  4.132756E+04
       273  23  9.233436E+03 -7.738549E+05 -3.008166E+04  3.062485E+03  1.901503E+03  2.509294E+04
       273  24  9.863212E+02 -7.832903E+05 -2.300680E+04  7.883636E+03  1.547773E+03  8.852569E+03
       273  25 -2.859404E+04 -6.982528E+05 -4.344728E+04 -5.190048E+03  5.585430E+02  4.051017E+04
       273  26  2.797069E+04 -6.986845E+05 -1.176366E+04 -5.286726E+02  1.901898E+03  2.492523E+04
       273  27  1.722451E+04 -7.178909E+05 -7.046551E+03  1.360646E+04  1.546307E+03  9.334811E+03
       274   1 -1.727656E+04 -8.268470E+05 -3.277308E+04  1.068236E+04 -1.086887E+03 -4.888412E+03
       274   2 -5.988953E+03 -8.133774E+05 -2.786029E+04  2.816657E+03 -9.092054E+02  5.012195E+03
       274   3 -1.657948E+04 -8.065889E+05 -3.485218E+04  4.837597E+03 -6.014080E+02  1.491333E+04
       274   4 -5.732711E+03 -7.805787E+05 -2.146683E+04  7.919903E+03 -1.086684E+03 -4.943911E+03
       274   5  3.006252E+03 -7.772437E+05 -1.904245E+04  2.969831E+03 -9.088695E+02  4.907306E+03
       274   6 -1.012368E+04 -7.805810E+05 -2.848794E+04  7.906418E+03 -6.008494E+02  1.475889E+04
       274   7  5.811005E+03 -7.343084E+05 -1.016072E+04  5.157240E+03 -1.086481E+03 -4.999415E+03
       274   8  1.200136E+04 -7.411088E+05 -1.022470E+04  3.123016E+03 -9.085336E+02  4.802410E+03
       274   9 -3.667884E+03 -7.545724E+05 -2.212374E+04  1.097537E+04 -6.002924E+02  1.460444E+04
       274  10 -1.727657E+04 -8.268470E+05 -3.277313E+04  1.068236E+04 -4.663804E-09  7.689558E-09
       274  11 -5.988961E+03 -8.133774E+05 -2.786034E+04  2.816661E+03  5.739716E-09 -4.347124E-09
       274  12 -1.657954E+04 -8.065891E+05 -3.485260E+04  4.837605E+03 -5.159070E-10  6.798774E-10
       274  13 -5.732719E+03 -7.805787E+05 -2.146687E+04  7.919899E+03 -3.025066E-09 -2.166318E-09
       274  14  3.006244E+03 -7.772437E+05 -1.904249E+04  2.969835E+03  1.359569E-09  3.167545E-09
       274  15 -1.012374E+04 -7.805812E+05 -2.848835E+04  7.906425E+03 -3.272557E-09 -1.096578E-08
       274  16  5.810997E+03 -7.343084E+05 -1.016077E+04  5.157235E+03 -6.047345E-09 -5.179660E-09
       274  17  1.200135E+04 -7.411088E+05 -1.022474E+04  3.123019E+03  2.510901E-09  7.505771E-09
       274  18 -3.667942E+03 -7.545726E+05 -2.212414E+04  1.097537E+04 -4.068917E-09  2.800369E-10
       274  19 -1.727656E+04 -8.268470E+05 -3.277308E+04  1.068236E+04  1.086887E+03  4.888412E+03
       274  20 -5.988953E+03 -8.133774E+05 -2.786029E+04  2.816657E+03  9.092054E+02 -5.012195E+03
       274  21 -1.657948E+04 -8.065889E+05 -3.485218E+04  4.837597E+03  6.014080E+02 -1.491333E+04
       274  22 -5.732711E+03 -7.805787E+05 -2.146683E+04  7.919903E+03  1.086684E+03  4.943911E+03
       274  23  3.006252E+03 -7.772437E+05 -1.904245E+04  2.969831E+03  9.088695E+02 -4.907306E+03
       274  24 -1.012368E+04 -7.805810E+05 -2.848794E+04  7.906418E+03  6.008494E+02 -1.475889E+04
       274  25  5.811005E+03 -7.343084E+05 -1.016072E+04  5.157240E+03  1.086481E+03  4.999415E+03
       274  26  1.200136E+04 -7.411088E+05 -1.022470E+04  3.123016E+03  9.085336E+02 -4.802410E+03
       274  27 -3.667884E+03 -7.545724E+05 -2.212374E+04  1.097537E+04  6.002924E+02 -1.460444E+04
       275   1  1.369262E+03 -7.925511E+05 -3.445115E+04  1.763096E+04 -3.101817E+02  2.035654E+04
       275   2  1.623601E+04 -7.668327E+05 -4.714765E+04 -2.806753E+03 -2.024105E+01  4.621160E+04
       275   3 -8.048996E+04 -7.723131E+05 -1.045721E+05 -1.348722E+04 -1.397192E+02  7.206564E+04
       275   4  3.063655E+03 -7.860295E+05 -3.286604E+04  7.980973E+03 -3.098109E+02  2.013581E+04
       275   5  1.529649E+04 -7.704324E+05 -4.802631E+04  2.966502E+03 -1.961080E+01  4.614729E+04
       275   6 -8.409197E+04 -7.860625E+05 -1.080238E+05  7.708928E+03 -1.375453E+02  7.215732E+04
       275   7  4.758394E+03 -7.795077E+05 -3.128089E+04 -1.669115E+03 -3.094333E+02  1.991508E+04
       275   8  1.435708E+04 -7.740320E+05 -4.890495E+04  8.739723E+03 -1.898175E+01  4.608298E+04
       275   9 -8.769230E+04 -7.998108E+05 -1.114753E+05  2.890461E+04 -1.353651E+02  7.224900E+04
       275  10  1.369151E+03 -7.925515E+05 -3.445193E+04  1.763096E+04 -3.318689E-09  4.953342E-09
       275  11  1.623544E+04 -7.668350E+05 -4.715167E+04 -2.806753E+03  2.905477E-10 -1.294893E-08
       275  12 -8.049136E+04 -7.723187E+05 -1.045818E+05 -1.348721E+04 -1.373134E-10 -6.108272E-09
       275  13  3.063546E+03 -7.860299E+05 -3.286681E+04  7.980978E+03 -3.180018E-09  2.207626E-09
       275  14  1.529591E+04 -7.704347E+05 -4.803031E+04  2.966502E+03  1.985945E-09  2.293923E-09
       275  15 -8.409337E+04 -7.860681E+05 -1.080336E+05  7.708936E+03  2.200118E-09 -1.066639E-08
       275  16  4.758288E+03 -7.795081E+05 -3.128163E+04 -1.669110E+03 -4.050631E-09  8.256923E-10
       275  17  1.435651E+04 -7.740343E+05 -4.890894E+04  8.739724E+03  3.674765E-09  1.580756E-08
       275  18 -8.769370E+04 -7.998164E+05 -1.114851E+05  2.890461E+04  1.805685E-09  5.851280E-09
       275  19  1.369262E+03 -7.925511E+05 -3.445115E+04  1.763096E+04  3.101817E+02 -2.035654E+04
       275  20  1.623601E+04 -7.668327E+05 -4.714765E+04 -2.806753E+03  2.024105E+01 -4.621160E+04
       275  21 -8.048996E+04 -7.723131E+05 -1.045721E+05 -1.348722E+04  1.397192E+02 -7.206564E+04
       275  22  3.063655E+03 -7.860295E+05 -3.286604E+04  7.980973E+03  3.098109E+02 -2.013581E+04
       275  23  1.529649E+04 -7.704324E+05 -4.802631E+04  2.966502E+03  1.961080E+01 -4.614729E+04
       275  24 -8.409197E+04 -7.860625E+05 -1.080238E+05  7.708928E+03  1.375453E+02 -7.215732E+04
       275  25  4.758394E+03 -7.795077E+05 -3.128089E+04 -1.669115E+03  3.094333E+02 -1.991508E+04
       275  26  1.435708E+04 -7.740320E+05 -4.890495E+04  8.739723E+03  1.898175E+01 -4.608298E+04
       275  27 -8.769230E+04 -7.998108E+05 -1.114753E+05  2.890461E+04  1.353651E+02 -7.224900E+04
       276   1  4.189845E+05 -4.483791E+03  1.701318E+04  1.683892E+03  6.203014E+04  1.840480E+03
       276   2  4.209349E+05 -8.732511E+04 -3.146259E+04  5.680665E+03  4.133953E+04  5.072829E+03
       276   3  4.509403E+05 -7.065299E+04 -4.149709E+04 -1.528078E+04  2.065373E+04  4.131384E+03
       276   4  7.232522E+05  7.143403E+04  9.274935E+04 -9.631620E+03  6.333638E+04  1.841318E+03
       276   5  7.091551E+05 -1.547951E+04  3.976078E+04  2.903802E+03  4.163405E+04  5.072839E+03
       276   6  7.232749E+05 -2.729107E+03  2.590209E+04 -9.518092E+03  1.993708E+04  4.130846E+03
       276   7  1.027604E+06  1.473454E+05  1.684787E+05 -2.095271E+04  6.464325E+04  1.842110E+03
       276   8  9.974507E+05  5.635992E+04  1.109780E+05  1.256267E+02  4.192870E+04  5.072846E+03
       276   9  9.956768E+05  6.518936E+04  9.329578E+04 -3.752885E+03  1.922012E+04  4.130295E+03
       276  10  4.189803E+05 -4.484827E+03  1.700595E+04  1.683800E+03  1.239347E-10  1.305425E-10
       276  11  4.209330E+05 -8.732559E+04 -3.146585E+04  5.680496E+03 -1.357775E-09  7.716480E-11
       276  12  4.509398E+05 -7.065312E+04 -4.149792E+04 -1.528085E+04  3.904398E-10 -2.308647E-10
       276  13  7.232479E+05  7.143295E+04  9.274182E+04 -9.631714E+03  2.986710E-10  8.072246E-11
       276  14  7.091532E+05 -1.548000E+04  3.975748E+04  2.903632E+03 -8.128058E-10  4.311642E-11
       276  15  7.232744E+05 -2.729232E+03  2.590131E+04 -9.518158E+03  1.742064E-10 -2.123421E-10
       276  16  1.027600E+06  1.473443E+05  1.684708E+05 -2.095280E+04  6.062891E-10  2.237905E-11
       276  17  9.974489E+05  5.635942E+04  1.109747E+05  1.254554E+02  4.022493E-12  1.890958E-10
       276  18  9.956764E+05  6.518924E+04  9.329505E+04 -3.752949E+03  2.202972E-10 -2.430677E-10
       276  19  4.189845E+05 -4.483791E+03  1.701318E+04  1.683892E+03 -6.203014E+04 -1.840480E+03
       276  20  4.209349E+05 -8.732511E+04 -3.146259E+04  5.680665E+03 -4.133953E+04 -5.072829E+03
       276  21  4.509403E+05 -7.065299E+04 -4.149709E+04 -1.528078E+04 -2.065373E+04 -4.131384E+03
       276  22  7.232522E+05  7.143403E+04  9.274935E+04 -9.631620E+03 -6.333638E+04 -1.841318E+03
       276  23  7.091551E+05 -1.547951E+04  3.976078E+04  2.903802E+03 -4.163405E+04 -5.072839E+03
       276  24  7.232749E+05 -2.729107E+03  2.590209E+04 -9.518092E+03 -1.993708E+04 -4.130846E+03
       276  25  1.027604E+06  1.473454E+05  1.684787E+05 -2.095271E+04 -6.464325E+04 -1.842110E+03
       276  26  9.974507E+05  5.635992E+04  1.109780E+05  1.256267E+02 -4.192870E+04 -5.072846E+03
       276  27  9.956768E+05  6.518936E+04  9.329578E+04 -3.752885E+03 -1.922012E+04 -4.130295E+03
       277   1  5.044065E+05 -4.311732E+04 -3.149085E+04 -7.435581E+03  1.563296E+04  3.171008E+03
       277   2  5.162413E+05 -5.196610E+04 -3.901365E+04  2.410251E+03  1.035649E+04  3.160639E+03
       277   3  5.325282E+05 -4.663136E+04 -3.951268E+04 -9.728163E+03  5.079908E+03  2.627517E+03
       277   4  7.180013E+05  1.014427E+04  2.137749E+04 -8.896910E+03  1.569772E+04  3.170944E+03
       277   5  7.157666E+05 -2.217278E+03  1.034070E+04  2.098370E+03  1.029405E+04  3.160541E+03
       277   6  7.180043E+05 -3.757190E+02  6.414217E+03 -8.890130E+03  4.890394E+03  2.627441E+03
       277   7  9.316375E+05  6.340245E+04  7.424243E+04 -1.035875E+04  1.576249E+04  3.170879E+03
       277   8  9.153279E+05  4.752857E+04  5.969208E+04  1.786384E+03  1.023159E+04  3.160444E+03
       277   9  9.035116E+05  4.587736E+04  5.233856E+04 -8.051847E+03  4.700822E+03  2.627365E+03
       277  10  5.044062E+05 -4.311739E+04 -3.149132E+04 -7.435621E+03  1.001849E-10 -1.117329E-10
       277  11  5.162412E+05 -5.196614E+04 -3.901387E+04  2.410224E+03 -5.748873E-10  3.067663E-10
       277  12  5.325281E+05 -4.663138E+04 -3.951274E+04 -9.728174E+03  4.438110E-10 -2.851588E-10
       277  13  7.180010E+05  1.014419E+04  2.137701E+04 -8.896950E+03  9.242865E-12 -1.845473E-10
       277  14  7.157664E+05 -2.217317E+03  1.034048E+04  2.098343E+03 -1.450017E-10  1.004957E-10
       277  15  7.180043E+05 -3.757328E+02  6.414159E+03 -8.890140E+03  2.676325E-10 -1.053323E-10
       277  16  9.316372E+05  6.340237E+04  7.424195E+04 -1.035879E+04  3.028895E-10 -2.137661E-11
       277  17  9.153278E+05  4.752854E+04  5.969187E+04  1.786358E+03 -2.860126E-10  7.672768E-11
       277  18  9.035116E+05  4.587734E+04  5.233850E+04 -8.051857E+03 -4.360462E-10  3.938428E-11
       277  19  5.044065E+05 -4.311732E+04 -3.149085E+04 -7.435581E+03 -1.563296E+04 -3.171008E+03
       277  20  5.162413E+05 -5.196610E+04 -3.901365E+04  2.410251E+03 -1.035649E+04 -3.160639E+03
       277  21  5.325282E+05 -4.663136E+04 -3.951268E+04 -9.728163E+03 -5.079908E+03 -2.627517E+03
       277  22  7.180013E+05  1.014427E+04  2.137749E+04 -8.896910E+03 -1.569772E+04 -3.170944E+03
       277  23  7.157666E+05 -2.217278E+03  1.034070E+04  2.098370E+03 -1.029405E+04 -3.160541E+03
       277  24  7.180043E+05 -3.757190E+02  6.414217E+03 -8.890130E+03 -4.890394E+03 -2.627441E+03
       277  25  9.316375E+05  6.340245E+04  7.424243E+04 -1.035875E+04 -1.576249E+04 -3.170879E+03
       277  26  9.153279E+05  4.752857E+04  5.969208E+04  1.786384E+03 -1.023159E+04 -3.160444E+03
       277  27  9.035116E+05  4.587736E+04  5.233856E+04 -8.051847E+03 -4.700822E+03 -2.627365E+03
       278   1  5.844969E+05 -3.165215E+04 -2.766592E+04 -8.277752E+03  3.940827E+03  2.264990E+03
       278   2  5.969669E+05 -3.019927E+04 -2.691271E+04  1.620458E+03  2.558683E+03  1.859145E+03
       278   3  6.101898E+05 -2.671959E+04 -2.474017E+04 -8.570206E+03  1.176340E+03  1.406609E+03
       278   4  7.171829E+05  1.424860E+03  5.127961E+03 -8.471007E+03  3.849523E+03  2.264953E+03
       278   5  7.168055E+05 -3.193185E+02  2.734779E+03  1.573340E+03  2.455899E+03  1.859131E+03
       278   6  7.171829E+05 -3.486549E+01  1.768731E+03 -8.470945E+03  1.062104E+03  1.406622E+03
       278   7  8.498850E+05  3.450055E+04  3.792054E+04 -8.664303E+03  3.758199E+03  2.264916E+03
       278   8  8.366572E+05  2.955956E+04  3.238120E+04  1.526212E+03  2.353095E+03  1.859117E+03
       278   9  8.241863E+05  2.664900E+04  2.827678E+04 -8.371665E+03  9.478488E+02  1.406634E+03
       278  10  5.844968E+05 -3.165216E+04 -2.766596E+04 -8.277759E+03  1.457750E-09 -4.014194E-11
       278  11  5.969669E+05 -3.019928E+04 -2.691273E+04  1.620454E+03 -6.752215E-10  3.710044E-10
       278  12  6.101898E+05 -2.671959E+04 -2.474017E+04 -8.570207E+03 -1.926110E-09 -3.208849E-10
       278  13  7.171829E+05  1.424851E+03  5.127924E+03 -8.471014E+03 -2.448049E-11  5.406354E-11
       278  14  7.168055E+05 -3.193239E+02  2.734762E+03  1.573336E+03  3.091717E-10  3.358375E-10
       278  15  7.171829E+05 -3.486792E+01  1.768725E+03 -8.470946E+03 -4.253927E-11 -3.375473E-10
       278  16  8.498850E+05  3.450054E+04  3.792050E+04 -8.664310E+03 -1.886179E-09 -2.281559E-11
       278  17  8.366572E+05  2.955956E+04  3.238118E+04  1.526209E+03  6.612099E-11  3.885924E-10
       278  18  8.241863E+05  2.664900E+04  2.827677E+04 -8.371666E+03  1.530907E-09 -3.188116E-10
       278  19  5.844969E+05 -3.165215E+04 -2.766592E+04 -8.277752E+03 -3.940827E+03 -2.264990E+03
       278  20  5.969669E+05 -3.019927E+04 -2.691271E+04  1.620458E+03 -2.558683E+03 -1.859145E+03
       278  21  6.101898E+05 -2.671959E+04 -2.474017E+04 -8.570206E+03 -1.176340E+03 -1.406609E+03
       278  22  7.171829E+05  1.424860E+03  5.127961E+03 -8.471007E+03 -3.849523E+03 -2.264953E+03
       278  23  7.168055E+05 -3.193185E+02  2.734779E+03  1.573340E+03 -2.455899E+03 -1.859131E+03
       278  24  7.171829E+05 -3.486549E+01  1.768731E+03 -8.470945E+03 -1.062104E+03 -1.406622E+03
       278  25  8.498850E+05  3.450055E+04  3.792054E+04 -8.664303E+03 -3.758199E+03 -2.264916E+03
       278  26  8.366572E+05  2.955956E+04  3.238120E+04  1.526212E+03 -2.353095E+03 -1.859117E+03
       278  27  8.241863E+05  2.664900E+04  2.827678E+04 -8.371665E+03 -9.478488E+02 -1.406634E+03
       279   1  6.592590E+05 -1.420447E+04 -1.278048E+04 -8.211893E+03  8.728071E+02  1.139084E+03
       279   2  6.713953E+05 -1.142493E+04 -1.017094E+04  1.317607E+03  3.185497E+02  7.042620E+02
       279   3  6.836959E+05 -8.251045E+03 -7.103618E+03 -8.265373E+03 -2.357974E+02  2.719461E+02
       279   4  7.170542E+05  1.977737E+02  1.479307E+03 -8.253968E+03  7.680711E+02  1.139109E+03
       279   5  7.169721E+05 -6.145794E+01  1.104470E+03  1.302212E+03  2.143715E+02  7.042955E+02
       279   6  7.170539E+05  7.350081E+01  1.186957E+03 -8.253999E+03 -3.394068E+02  2.719886E+02
       279   7  7.748524E+05  1.459976E+04  1.573885E+04 -8.296047E+03  6.633253E+02  1.139134E+03
       279   8  7.625508E+05  1.130185E+04  1.237972E+04  1.286816E+03  1.101857E+02  7.043291E+02
       279   9  7.504130E+05  8.397963E+03  9.477449E+03 -8.242625E+03 -4.430217E+02  2.720310E+02
       279  10  6.592590E+05 -1.420447E+04 -1.278049E+04 -8.211894E+03 -1.068124E-09 -4.876138E-10
       279  11  6.713953E+05 -1.142493E+04 -1.017094E+04  1.317606E+03  4.237609E-11 -4.203585E-11
       279  12  6.836959E+05 -8.251045E+03 -7.103619E+03 -8.265373E+03 -2.471965E-10 -4.832345E-11
       279  13  7.170542E+05  1.977721E+02  1.479304E+03 -8.253969E+03  3.227523E-11 -3.666501E-10
       279  14  7.169721E+05 -6.145849E+01  1.104469E+03  1.302212E+03 -1.167131E-10  1.498415E-10
       279  15  7.170539E+05  7.350069E+01  1.186956E+03 -8.253999E+03  2.497251E-10 -3.457594E-11
       279  16  7.748524E+05  1.459976E+04  1.573885E+04 -8.296048E+03  7.323498E-10 -2.625895E-10
       279  17  7.625508E+05  1.130185E+04  1.237972E+04  1.286816E+03 -1.582223E-10  1.915015E-10
       279  18  7.504130E+05  8.397963E+03  9.477448E+03 -8.242625E+03 -3.863342E-10 -1.970289E-10
       279  19  6.592590E+05 -1.420447E+04 -1.278048E+04 -8.211893E+03 -8.728071E+02 -1.139084E+03
       279  20  6.713953E+05 -1.142493E+04 -1.017094E+04  1.317607E+03 -3.185497E+02 -7.042620E+02
       279  21  6.836959E+05 -8.251045E+03 -7.103618E+03 -8.265373E+03  2.357974E+02 -2.719461E+02
       279  22  7.170542E+05  1.977737E+02  1.479307E+03 -8.253968E+03 -7.680711E+02 -1.139109E+03
       279  23  7.169721E+05 -6.145794E+01  1.104470E+03  1.302212E+03 -2.143715E+02 -7.042955E+02
       279  24  7.170539E+05  7.350081E+01  1.186957E+03 -8.253999E+03  3.394068E+02 -2.719886E+02
       279  25  7.748524E+05  1.459976E+04  1.573885E+04 -8.296047E+03 -6.633253E+02 -1.139134E+03
       279  26  7.625508E+05  1.130185E+04  1.237972E+04  1.286816E+03 -1.101857E+02 -7.043291E+02
       279  27  7.504130E+05  8.397963E+03  9.477449E+03 -8.242625E+03  4.430217E+02 -2.720310E+02
       280   1  7.315619E+05  3.631782E+03  4.954760E+03 -8.183743E+03 -4.638670E+02  2.058812E+01
       280   2  7.435534E+05  6.512037E+03  8.520463E+03  1.257331E+03 -1.436401E+03 -4.112699E+02
       280   3  7.558579E+05  1.019655E+04  1.291674E+04 -8.301038E+03 -2.408912E+03 -8.416750E+02
       280   4  7.170873E+05  1.545605E+01  1.335848E+03 -8.228971E+03 -5.678620E+02  2.063243E+01
       280   5  7.169308E+05 -1.253701E+02  1.934548E+03  1.270870E+03 -1.540011E+03 -4.112312E+02
       280   6  7.170870E+05  5.380338E+02  3.363599E+03 -8.228783E+03 -2.512119E+03 -8.416416E+02
       280   7  7.026129E+05 -3.600885E+03 -2.283081E+03 -8.274197E+03 -6.718546E+02  2.067676E+01
       280   8  6.903088E+05 -6.762830E+03 -4.651421E+03  1.284409E+03 -1.643617E+03 -4.111925E+02
       280   9  6.783175E+05 -9.120598E+03 -6.189654E+03 -8.156532E+03 -2.615320E+03 -8.416082E+02
       280  10  7.315619E+05  3.631781E+03  4.954760E+03 -8.183743E+03 -2.510318E-11 -1.489855E-10
       280  11  7.435534E+05  6.512036E+03  8.520459E+03  1.257331E+03  2.939644E-11 -1.399276E-10
       280  12  7.558579E+05  1.019655E+04  1.291673E+04 -8.301040E+03 -9.872080E-11 -3.944092E-11
       280  13  7.170873E+05  1.545597E+01  1.335847E+03 -8.228971E+03  4.570207E-10 -1.274030E-10
       280  14  7.169308E+05 -1.253709E+02  1.934543E+03  1.270870E+03 -2.264222E-10  3.069479E-11
       280  15  7.170870E+05  5.380314E+02  3.363586E+03 -8.228785E+03 -2.963462E-10  4.541594E-12
       280  16  7.026129E+05 -3.600885E+03 -2.283082E+03 -8.274197E+03 -3.991245E-11 -2.442192E-10
       280  17  6.903088E+05 -6.762831E+03 -4.651426E+03  1.284408E+03  1.936519E-10  1.542251E-11
       280  18  6.783175E+05 -9.120600E+03 -6.189668E+03 -8.156534E+03 -4.634106E-10 -3.947403E-11
       280  19  7.315619E+05  3.631782E+03  4.954760E+03 -8.183743E+03  4.638670E+02 -2.058812E+01
       280  20  7.435534E+05  6.512037E+03  8.520463E+03  1.257331E+03  1.436401E+03  4.112699E+02
       280  21  7.558579E+05  1.019655E+04  1.291674E+04 -8.301038E+03  2.408912E+03  8.416750E+02
       280  22  7.170873E+05  1.545605E+01  1.335848E+03 -8.228971E+03  5.678620E+02 -2.063243E+01
       280  23  7.169308E+05 -1.253701E+02  1.934548E+03  1.270870E+03  1.540011E+03  4.112312E+02
       280  24  7.170870E+05  5.380338E+02  3.363599E+03 -8.228783E+03  2.512119E+03  8.416416E+02
       280  25  7.026129E+05 -3.600885E+03 -2.283081E+03 -8.274197E+03  6.718546E+02 -2.067676E+01
       280  26  6.903088E+05 -6.762830E+03 -4.651421E+03  1.284409E+03  1.643617E+03  4.111925E+02
       280  27  6.783175E+05 -9.120598E+03 -6.189654E+03 -8.156532E+03  2.615320E+03  8.416082E+02
       281   1  8.048355E+05  2.167223E+04  2.592801E+04 -8.094114E+03 -3.089142E+03 -1.105260E+03
       281   2  8.165326E+05  2.409481E+04  3.180630E+04  1.360586E+03 -6.700920E+03 -1.551603E+03
       281   3  8.300892E+05  3.191669E+04  4.139161E+04 -8.934805E+03 -1.031257E+04 -1.952531E+03
       281   4  7.174286E+05 -1.261890E+02  4.267711E+03 -8.395908E+03 -3.201751E+03 -1.105233E+03
       281   5  7.164988E+05 -8.438286E+02  7.061888E+03  1.479384E+03 -6.802103E+03 -1.551602E+03
       281   6  7.174269E+05  3.836403E+03  1.355565E+04 -8.395612E+03 -1.040225E+04 -1.952557E+03
       281   7  6.300286E+05 -2.192518E+04 -1.739315E+04 -8.697660E+03 -3.314343E+03 -1.105206E+03
       281   8  6.164741E+05 -2.578322E+04 -1.768327E+04  1.598162E+03 -6.903270E+03 -1.551601E+03
       281   9  6.047761E+05 -2.424482E+04 -1.428124E+04 -7.856516E+03 -1.049192E+04 -1.952583E+03
       281  10  8.048355E+05  2.167223E+04  2.592799E+04 -8.094117E+03 -3.305955E-10 -1.317882E-10
       281  11  8.165326E+05  2.409480E+04  3.180622E+04  1.360578E+03 -2.452268E-10  8.237896E-11
       281  12  8.300891E+05  3.191665E+04  4.139140E+04 -8.934821E+03 -3.649275E-10 -4.128615E-11
       281  13  7.174286E+05 -1.261931E+02  4.267689E+03 -8.395911E+03  3.091300E-11 -1.557374E-10
       281  14  7.164988E+05 -8.438436E+02  7.061796E+03  1.479375E+03 -2.486796E-10  3.864121E-12
       281  15  7.174268E+05  3.836370E+03  1.355544E+04 -8.395628E+03  4.524418E-10 -1.963654E-11
       281  16  6.300286E+05 -2.192518E+04 -1.739318E+04 -8.697663E+03  1.261246E-10 -1.463749E-10
       281  17  6.164740E+05 -2.578323E+04 -1.768337E+04  1.598154E+03  7.115460E-11  4.577597E-11
       281  18  6.047760E+05 -2.424486E+04 -1.428145E+04 -7.856533E+03  7.118864E-10 -1.306154E-10
       281  19  8.048355E+05  2.167223E+04  2.592801E+04 -8.094114E+03  3.089142E+03  1.105260E+03
       281  20  8.165326E+05  2.409481E+04  3.180630E+04  1.360586E+03  6.700920E+03  1.551603E+03
       281  21  8.300892E+05  3.191669E+04  4.139161E+04 -8.934805E+03  1.031257E+04  1.952531E+03
       281  22  7.174286E+05 -1.261890E+02  4.267711E+03 -8.395908E+03  3.201751E+03  1.105233E+03
       281  23  7.164988E+05 -8.438286E+02  7.061888E+03  1.479384E+03  6.802103E+03  1.551602E+03
       281  24  7.174269E+05  3.836403E+03  1.355565E+04 -8.395612E+03  1.040225E+04  1.952557E+03
       281  25  6.300286E+05 -2.192518E+04 -1.739315E+04 -8.697660E+03  3.314343E+03  1.105206E+03
       281  26  6.164741E+05 -2.578322E+04 -1.768327E+04  1.598162E+03  6.903270E+03  1.551601E+03
       281  27  6.047761E+05 -2.424482E+04 -1.428124E+04 -7.856516E+03  1.049192E+04  1.952583E+03
       282   1  8.838747E+05  3.995989E+04  5.768953E+04 -6.570802E+03 -1.297562E+04 -2.302758E+03
       282   2  8.917840E+05  3.845564E+04  7.160951E+04  9.632713E+02 -2.750944E+04 -2.824512E+03
       282   3  9.112494E+05  7.494897E+04  1.045158E+05 -1.290644E+04 -4.204383E+04 -2.865647E+03
       282   4  7.195757E+05 -1.006383E+03  1.701152E+04 -8.759661E+03 -1.315603E+04 -2.302758E+03
       282   5  7.138010E+05 -5.911585E+03  2.759450E+04  1.935878E+03 -2.757075E+04 -2.824624E+03
       282   6  7.195648E+05  2.716604E+04  5.708508E+04 -8.772628E+03 -4.198571E+04 -2.865959E+03
       282   7  5.553011E+05 -4.197466E+04 -2.366849E+04 -1.094794E+04 -1.333639E+04 -2.302756E+03
       282   8  5.358467E+05 -5.028117E+04 -1.642286E+04  2.908204E+03 -2.763203E+04 -2.824737E+03
       282   9  5.279135E+05 -2.061957E+04  9.651662E+03 -4.640101E+03 -4.192761E+04 -2.866270E+03
       282  10  8.838745E+05  3.995984E+04  5.768921E+04 -6.570826E+03 -7.919783E-10 -1.713047E-10
       282  11  8.917832E+05  3.845543E+04  7.160807E+04  9.632087E+02 -3.582716E-10 -7.737426E-11
       282  12  9.112475E+05  7.494849E+04  1.045124E+05 -1.290653E+04  5.346492E-10 -1.975691E-11
       282  13  7.195755E+05 -1.006435E+03  1.701119E+04 -8.759685E+03  4.745756E-10 -1.062529E-10
       282  14  7.138001E+05 -5.911797E+03  2.759306E+04  1.935815E+03 -3.814032E-10 -6.241811E-11
       282  15  7.195629E+05  2.716556E+04  5.708176E+04 -8.772725E+03  3.554656E-10  2.738186E-11
       282  16  5.553009E+05 -4.197471E+04 -2.366884E+04 -1.094797E+04  6.937860E-10 -2.631029E-11
       282  17  5.358458E+05 -5.028138E+04 -1.642431E+04  2.908141E+03  3.645059E-11 -2.900353E-10
       282  18  5.279116E+05 -2.062005E+04  9.648346E+03 -4.640197E+03  1.903021E-10  7.151280E-11
       282  19  8.838747E+05  3.995989E+04  5.768953E+04 -6.570802E+03  1.297562E+04  2.302758E+03
       282  20  8.917840E+05  3.845564E+04  7.160951E+04  9.632713E+02  2.750944E+04  2.824512E+03
       282  21  9.112494E+05  7.494897E+04  1.045158E+05 -1.290644E+04  4.204383E+04  2.865647E+03
       282  22  7.195757E+05 -1.006383E+03  1.701152E+04 -8.759661E+03  1.315603E+04  2.302758E+03
       282  23  7.138010E+05 -5.911585E+03  2.759450E+04  1.935878E+03  2.757075E+04  2.824624E+03
       282  24  7.195648E+05  2.716604E+04  5.708508E+04 -8.772628E+03  4.198571E+04  2.865959E+03
       282  25  5.553011E+05 -4.197466E+04 -2.366849E+04 -1.094794E+04  1.333639E+04  2.302756E+03
       282  26  5.358467E+05 -5.028117E+04 -1.642286E+04  2.908204E+03  2.763203E+04  2.824737E+03
       282  27  5.279135E+05 -2.061957E+04  9.651662E+03 -4.640101E+03  4.192761E+04  2.866270E+03
       283   1  9.821464E+05  5.472809E+04  1.306659E+05  5.747074E+03 -5.264112E+04 -3.774173E+03
       283   2  9.602649E+05  2.444790E+04  1.715211E+05 -5.250271E+03 -1.115700E+05 -4.709811E+03
       283   3  1.013022E+06  2.605776E+05  3.173887E+05 -4.051577E+04 -1.705038E+05 -1.814477E+03
       283   4  7.335672E+05 -7.265027E+03  6.916201E+04 -9.323138E+03 -5.330176E+04 -3.773429E+03
       283   5  6.962843E+05 -4.132347E+04  1.063131E+05  2.684583E+03 -1.112894E+05 -4.711117E+03
       283   6  7.335077E+05  1.909233E+05  2.478554E+05 -9.574744E+03 -1.692803E+05 -1.821479E+03
       283   7  4.850444E+05 -6.926192E+04  7.653613E+03 -2.438733E+04 -5.396214E+04 -3.772653E+03
       283   8  4.323670E+05 -1.070998E+05  4.109983E+04  1.061605E+04 -1.110089E+05 -4.712416E+03
       283   9  4.540659E+05  1.212666E+05  1.783167E+05  2.135234E+04 -1.680574E+05 -1.828362E+03
       283  10  9.821435E+05  5.472734E+04  1.306607E+05  5.746914E+03  1.081170E-09  3.785861E-10
       283  11  9.602516E+05  2.444454E+04  1.714978E+05 -5.250694E+03 -2.476262E-10 -1.891175E-12
       283  12  1.012991E+06  2.605698E+05  3.173342E+05 -4.051602E+04  2.270135E-10 -2.786724E-10
       283  13  7.335641E+05 -7.265804E+03  6.915665E+04 -9.323300E+03 -8.527333E-12  1.448186E-10
       283  14  6.962710E+05 -4.132681E+04  1.062898E+05  2.684161E+03 -5.702058E-10 -1.153465E-10
       283  15  7.334770E+05  1.909156E+05  2.478016E+05 -9.574992E+03 -1.564851E-10 -2.760134E-11
       283  16  4.850413E+05 -6.926271E+04  7.648119E+03 -2.438749E+04 -7.605357E-11  1.531439E-10
       283  17  4.323537E+05 -1.071031E+05  4.107665E+04  1.061563E+04 -1.314515E-10  6.117009E-10
       283  18  4.540356E+05  1.212591E+05  1.782637E+05  2.135210E+04  3.531802E-10  1.552306E-11
       283  19  9.821464E+05  5.472809E+04  1.306659E+05  5.747074E+03  5.264112E+04  3.774173E+03
       283  20  9.602649E+05  2.444790E+04  1.715211E+05 -5.250271E+03  1.115700E+05  4.709811E+03
       283  21  1.013022E+06  2.605776E+05  3.173887E+05 -4.051577E+04  1.705038E+05  1.814477E+03
       283  22  7.335672E+05 -7.265027E+03  6.916201E+04 -9.323138E+03  5.330176E+04  3.773429E+03
       283  23  6.962843E+05 -4.132347E+04  1.063131E+05  2.684583E+03  1.112894E+05  4.711117E+03
       283  24  7.335077E+05  1.909233E+05  2.478554E+05 -9.574744E+03  1.692803E+05  1.821479E+03
       283  25  4.850444E+05 -6.926192E+04  7.653613E+03 -2.438733E+04  5.396214E+04  3.772653E+03
       283  26  4.323670E+05 -1.070998E+05  4.109983E+04  1.061605E+04  1.110089E+05  4.712416E+03
       283  27  4.540659E+05  1.212666E+05  1.783167E+05  2.135234E+04  1.680574E+05  1.828362E+03
       284   1  1.153285E+05  8.932341E+05  1.354957E+05 -3.155351E+04  9.398909E+02  6.338527E+04
       284   2  2.352713E+04  8.512676E+05  7.582443E+04 -9.795973E+02  2.698122E+03  4.205809E+04
       284   3  2.809804E+04  8.360551E+05  5.409798E+04 -1.498331E+04  1.518857E+03  2.072563E+04
       284   4  6.963584E+04  7.103688E+05  8.997665E+04 -1.999801E+04  9.424657E+02  6.260773E+04
       284   5 -1.491986E+04  6.970608E+05  3.773822E+04  2.224706E+03  2.698498E+03  4.199178E+04
       284   6 -3.213470E+03  7.103909E+05  2.295940E+04 -2.013046E+04  1.517287E+03  2.136955E+04
       284   7  2.394116E+04  5.275341E+05  4.445514E+04 -8.445905E+03  9.450120E+02  6.183042E+04
       284   8 -5.336858E+04  5.428755E+05 -3.497550E+02  5.428225E+03  2.698874E+03  4.192548E+04
       284   9 -3.452605E+04  5.847410E+05 -8.180340E+03 -2.527657E+04  1.515707E+03  2.201334E+04
       284  10  1.153274E+05  8.932298E+05  1.354882E+05 -3.155355E+04  1.709869E-10 -8.060679E-11
       284  11  2.352665E+04  8.512657E+05  7.582110E+04 -9.796887E+02  2.945391E-10 -2.755092E-11
       284  12  2.809792E+04  8.360547E+05  5.409717E+04 -1.498333E+04  1.105042E-09  7.601548E-11
       284  13  6.963479E+04  7.103646E+05  8.996929E+04 -1.999806E+04  1.104002E-09 -9.034502E-11
       284  14 -1.492034E+04  6.970589E+05  3.773489E+04  2.224615E+03 -1.338576E-09  2.233739E-10
       284  15 -3.213595E+03  7.103904E+05  2.295854E+04 -2.013049E+04  6.496016E-10  3.660429E-11
       284  16  2.394013E+04  5.275300E+05  4.444796E+04 -8.445952E+03 -4.009793E-10 -5.609333E-12
       284  17 -5.336906E+04  5.428736E+05 -3.530689E+02  5.428134E+03 -5.297757E-10  1.120969E-10
       284  18 -3.452619E+04  5.847405E+05 -8.181254E+03 -2.527659E+04  5.329840E-10 -1.305668E-10
       284  19  1.153285E+05  8.932341E+05  1.354957E+05 -3.155351E+04 -9.398909E+02 -6.338527E+04
       284  20  2.352713E+04  8.512676E+05  7.582443E+04 -9.795973E+02 -2.698122E+03 -4.205809E+04
       284  21  2.809804E+04  8.360551E+05  5.409798E+04 -1.498331E+04 -1.518857E+03 -2.072563E+04
       284  22  6.963584E+04  7.103688E+05  8.997665E+04 -1.999801E+04 -9.424657E+02 -6.260773E+04
       284  23 -1.491986E+04  6.970608E+05  3.773822E+04  2.224706E+03 -2.698498E+03 -4.199178E+04
       284  24 -3.213470E+03  7.103909E+05  2.295940E+04 -2.013046E+04 -1.517287E+03 -2.136955E+04
       284  25  2.394116E+04  5.275341E+05  4.445514E+04 -8.445905E+03 -9.450120E+02 -6.183042E+04
       284  26 -5.336858E+04  5.428755E+05 -3.497550E+02  5.428225E+03 -2.698874E+03 -4.192548E+04
       284  27 -3.452605E+04  5.847410E+05 -8.180340E+03 -2.527657E+04 -1.515707E+03 -2.201334E+04
       285   1  1.374380E+04  7.193140E+05  2.143890E+04 -2.108857E+04  4.138399E+02  1.753984E+04
       285   2 -4.553386E+03  6.902458E+05  1.870339E+03  1.498566E+03 -2.502122E+02  1.480440E+04
       285   3 -1.535941E+04  6.631652E+05 -1.409564E+04 -1.979964E+04 -8.696220E+02  1.206922E+04
       285   4  1.015379E+04  7.049119E+05  1.791079E+04 -1.991121E+04  4.135001E+02  1.770618E+04
       285   5 -1.146955E+03  7.039209E+05  5.251908E+03  2.014683E+03 -2.505431E+02  1.496023E+04
       285   6 -4.954568E+03  7.049190E+05 -3.796658E+03 -1.994468E+04 -8.699404E+02  1.221443E+04
       285   7  6.563772E+03  6.905100E+05  1.438267E+04 -1.873388E+04  4.131610E+02  1.787252E+04
       285   8  2.259463E+03  7.175961E+05  8.633463E+03  2.530811E+03 -2.508737E+02  1.511607E+04
       285   9  5.450143E+03  7.466743E+05  6.502194E+03 -2.008972E+04 -8.702590E+02  1.235964E+04
       285  10  1.374372E+04  7.193136E+05  2.143832E+04 -2.108858E+04  1.530351E-10 -4.233473E-10
       285  11 -4.553445E+03  6.902455E+05  1.869928E+03  1.498569E+03  1.197269E-10 -2.084083E-10
       285  12 -1.535945E+04  6.631650E+05 -1.409591E+04 -1.979964E+04 -7.956282E-10  3.579984E-10
       285  13  1.015371E+04  7.049116E+05  1.791020E+04 -1.991122E+04  4.590382E-11 -2.455921E-11
       285  14 -1.147015E+03  7.039206E+05  5.251488E+03  2.014686E+03  8.962160E-10 -2.070688E-10
       285  15 -4.954609E+03  7.049188E+05 -3.796940E+03 -1.994467E+04  1.670604E-09 -2.140273E-10
       285  16  6.563686E+03  6.905097E+05  1.438207E+04 -1.873389E+04  3.139625E-10  4.976801E-10
       285  17  2.259402E+03  7.175959E+05  8.633034E+03  2.530814E+03 -1.865630E-09  1.879325E-10
       285  18  5.450101E+03  7.466742E+05  6.501906E+03 -2.008972E+04 -1.348751E-10 -2.717144E-10
       285  19  1.374380E+04  7.193140E+05  2.143890E+04 -2.108857E+04 -4.138399E+02 -1.753984E+04
       285  20 -4.553386E+03  6.902458E+05  1.870339E+03  1.498566E+03  2.502122E+02 -1.480440E+04
       285  21 -1.535941E+04  6.631652E+05 -1.409564E+04 -1.979964E+04  8.696220E+02 -1.206922E+04
       285  22  1.015379E+04  7.049119E+05  1.791079E+04 -1.991121E+04 -4.135001E+02 -1.770618E+04
       285  23 -1.146955E+03  7.039209E+05  5.251908E+03  2.014683E+03  2.505431E+02 -1.496023E+04
       285  24 -4.954568E+03  7.049190E+05 -3.796658E+03 -1.994468E+04  8.699404E+02 -1.221443E+04
       285  25  6.563772E+03  6.905100E+05  1.438267E+04 -1.873388E+04 -4.131610E+02 -1.787252E+04
       285  26  2.259463E+03  7.175961E+05  8.633463E+03  2.530811E+03  2.508737E+02 -1.511607E+04
       285  27  5.450143E+03  7.466743E+05  6.502194E+03 -2.008972E+04  8.702590E+02 -1.235964E+04
       286   1 -3.553831E+04  5.483962E+05 -4.520550E+04 -1.754847E+04 -2.030628E+03  1.249004E+04
       286   2 -3.864592E+04  5.256745E+05 -6.119858E+04  1.161185E+03 -3.305340E+03  2.218041E+04
       286   3 -8.539269E+04  4.907355E+05 -9.441819E+04 -2.518450E+04 -1.270354E+03  3.187642E+04
       286   4  2.732547E+03  7.017821E+05 -7.195617E+03 -2.016757E+04 -2.032143E+03  1.319116E+04
       286   5  6.753773E+03  7.078290E+05 -1.620148E+04  2.329462E+03 -3.305056E+03  2.208909E+04
       286   6 -3.271973E+04  7.017990E+05 -4.188007E+04 -2.022828E+04 -1.268577E+03  3.099314E+04
       286   7  4.100167E+04  8.551894E+05  3.081252E+04 -2.278730E+04 -2.033664E+03  1.389245E+04
       286   8  5.215100E+04  8.900136E+05  2.879317E+04  3.498096E+03 -3.304772E+03  2.199775E+04
       286   9  1.994997E+04  9.129029E+05  1.065474E+04 -1.527036E+04 -1.266815E+03  3.010956E+04
       286  10 -3.553836E+04  5.483960E+05 -4.520580E+04 -1.754845E+04  6.177807E-11 -2.942577E-10
       286  11 -3.864607E+04  5.256739E+05 -6.119953E+04  1.161244E+03  3.688315E-10 -1.991200E-10
       286  12 -8.539297E+04  4.907344E+05 -9.442010E+04 -2.518446E+04 -2.832667E-10  1.669437E-10
       286  13  2.732496E+03  7.017819E+05 -7.195951E+03 -2.016755E+04 -1.013726E-09  1.441222E-10
       286  14  6.753630E+03  7.078285E+05 -1.620241E+04  2.329521E+03  4.096420E-10 -1.199921E-10
       286  15 -3.271999E+04  7.017979E+05 -4.188187E+04 -2.022825E+04 -5.971533E-10  8.307030E-11
       286  16  4.100161E+04  8.551892E+05  3.081215E+04 -2.278728E+04  1.069615E-09  1.079128E-10
       286  17  5.215086E+04  8.900131E+05  2.879224E+04  3.498155E+03 -6.026399E-10  3.805370E-11
       286  18  1.994973E+04  9.129019E+05  1.065303E+04 -1.527033E+04 -8.155597E-10 -1.202371E-10
       286  19 -3.553831E+04  5.483962E+05 -4.520550E+04 -1.754847E+04  2.030628E+03 -1.249004E+04
       286  20 -3.864592E+04  5.256745E+05 -6.119858E+04  1.161185E+03  3.305340E+03 -2.218041E+04
       286  21 -8.539269E+04  4.907355E+05 -9.441819E+04 -2.518450E+04  1.270354E+03 -3.187642E+04
       286  22  2.732547E+03  7.017821E+05 -7.195617E+03 -2.016757E+04  2.032143E+03 -1.319116E+04
       286  23  6.753773E+03  7.078290E+05 -1.620148E+04  2.329462E+03  3.305056E+03 -2.208909E+04
       286  24 -3.271973E+04  7.017990E+05 -4.188007E+04 -2.022828E+04  1.268577E+03 -3.099314E+04
       286  25  4.100167E+04  8.551894E+05  3.081252E+04 -2.278730E+04  2.033664E+03 -1.389245E+04
       286  26  5.215100E+04  8.900136E+05  2.879317E+04  3.498096E+03  3.304772E+03 -2.199775E+04
       286  27  1.994997E+04  9.129029E+05  1.065474E+04 -1.527036E+04  1.266815E+03 -3.010956E+04
       287   1 -8.326035E+05 -3.165617E+05 -2.545991E+05 -2.627445E+05 -1.346838E+05 -4.967208E+04
       287   2 -7.905702E+05 -1.224749E+05 -1.286812E+05 -3.011345E+05 -8.722476E+04 -2.966734E+04
       287   3 -8.298197E+05 -1.410915E+05 -9.593871E+04 -2.892013E+05 -3.893459E+04 -1.186672E+04
       287   4 -6.907743E+05 -2.401155E+05 -2.110592E+05 -2.007550E+05 -1.340422E+05 -4.943649E+04
       287   5 -6.396126E+05 -5.951047E+04 -8.631025E+04 -2.539072E+05 -8.706843E+04 -2.960954E+04
       287   6 -6.696184E+05 -9.148328E+04 -5.433497E+04 -2.567426E+05 -3.926276E+04 -1.198943E+04
       287   7 -5.489247E+05 -1.636611E+05 -1.675213E+05 -1.387507E+05 -1.334005E+05 -4.920078E+04
       287   8 -4.886332E+05  3.456592E+03 -4.394145E+04 -2.066692E+05 -8.691205E+04 -2.955173E+04
       287   9 -5.093922E+05 -4.187532E+04 -1.273323E+04 -2.242774E+05 -3.959103E+04 -1.211216E+04
       287  10 -8.326236E+05 -3.165693E+05 -2.546379E+05 -2.627499E+05 -1.675693E-10  8.475641E-11
       287  11 -7.905786E+05 -1.224779E+05 -1.286972E+05 -3.011366E+05 -8.571938E-10  2.889784E-10
       287  12 -8.298214E+05 -1.410921E+05 -9.594182E+04 -2.892016E+05  1.506936E-10  4.409869E-11
       287  13 -6.907942E+05 -2.401229E+05 -2.110976E+05 -2.007603E+05  6.170810E-10  1.561265E-10
       287  14 -6.396210E+05 -5.951345E+04 -8.632616E+04 -2.539093E+05  1.251198E-09  2.026726E-10
       287  15 -6.696201E+05 -9.148385E+04 -5.433815E+04 -2.567430E+05 -9.997558E-11 -1.115447E-10
       287  16 -5.489444E+05 -1.636684E+05 -1.675593E+05 -1.387560E+05 -4.304536E-10  1.897143E-10
       287  17 -4.886415E+05  3.453623E+03 -4.395730E+04 -2.066713E+05  2.219792E-10  8.071470E-11
       287  18 -5.093939E+05 -4.187590E+04 -1.273646E+04 -2.242777E+05 -5.532563E-10 -1.040122E-10
       287  19 -8.326035E+05 -3.165617E+05 -2.545991E+05 -2.627445E+05  1.346838E+05  4.967208E+04
       287  20 -7.905702E+05 -1.224749E+05 -1.286812E+05 -3.011345E+05  8.722476E+04  2.966734E+04
       287  21 -8.298197E+05 -1.410915E+05 -9.593871E+04 -2.892013E+05  3.893459E+04  1.186672E+04
       287  22 -6.907743E+05 -2.401155E+05 -2.110592E+05 -2.007550E+05  1.340422E+05  4.943649E+04
       287  23 -6.396126E+05 -5.951047E+04 -8.631025E+04 -2.539072E+05  8.706843E+04  2.960954E+04
       287  24 -6.696184E+05 -9.148328E+04 -5.433497E+04 -2.567426E+05  3.926276E+04  1.198943E+04
       287  25 -5.489247E+05 -1.636611E+05 -1.675213E+05 -1.387507E+05  1.334005E+05  4.920078E+04
       287  26 -4.886332E+05  3.456592E+03 -4.394145E+04 -2.066692E+05  8.691205E+04  2.955173E+04
       287  27 -5.093922E+05 -4.187532E+04 -1.273323E+04 -2.242774E+05  3.959103E+04  1.211216E+04
       288   1 -7.960559E+05 -1.699339E+05 -8.189758E+04 -2.830210E+05 -3.099433E+04 -9.342790E+03
       288   2 -7.882623E+05 -1.381981E+05 -5.628786E+04 -2.847971E+05 -2.018164E+04 -5.131006E+03
       288   3 -7.879575E+05 -1.418455E+05 -4.700477E+04 -2.847895E+05 -9.239504E+03 -1.263091E+03
       288   4 -6.623560E+05 -1.162736E+05 -4.472236E+04 -2.433654E+05 -3.093223E+04 -9.319654E+03
       288   5 -6.571016E+05 -8.789085E+04 -2.031218E+04 -2.482801E+05 -2.019450E+04 -5.135909E+03
       288   6 -6.593188E+05 -9.487263E+04 -1.216646E+04 -2.514118E+05 -9.327383E+03 -1.296115E+03
       288   7 -5.286390E+05 -6.261168E+04 -7.548860E+03 -2.037019E+05 -3.087011E+04 -9.296511E+03
       288   8 -5.259245E+05 -3.758252E+04  1.566193E+04 -2.117561E+05 -2.020737E+04 -5.140813E+03
       288   9 -5.306641E+05 -4.789901E+04  2.267042E+04 -2.180279E+05 -9.415282E+03 -1.329147E+03
       288  10 -7.960570E+05 -1.699343E+05 -8.189956E+04 -2.830213E+05  2.678510E-10 -8.773842E-11
       288  11 -7.882627E+05 -1.381982E+05 -5.628867E+04 -2.847972E+05  1.110027E-10  1.294941E-10
       288  12 -7.879576E+05 -1.418455E+05 -4.700493E+04 -2.847895E+05 -3.261738E-10 -9.688411E-11
       288  13 -6.623570E+05 -1.162739E+05 -4.472433E+04 -2.433656E+05 -5.692926E-10 -2.145461E-10
       288  14 -6.571021E+05 -8.789099E+04 -2.031300E+04 -2.482802E+05  8.796828E-11  1.694579E-10
       288  15 -6.593189E+05 -9.487266E+04 -1.216663E+04 -2.514118E+05  4.605394E-10  4.207388E-11
       288  16 -5.286401E+05 -6.261203E+04 -7.550815E+03 -2.037021E+05 -3.202208E-10 -1.037223E-11
       288  17 -5.259250E+05 -3.758265E+04  1.566111E+04 -2.117561E+05 -1.237032E-10 -8.272058E-11
       288  18 -5.306642E+05 -4.789904E+04  2.267025E+04 -2.180279E+05 -1.892297E-10 -1.658727E-11
       288  19 -7.960559E+05 -1.699339E+05 -8.189758E+04 -2.830210E+05  3.099433E+04  9.342790E+03
       288  20 -7.882623E+05 -1.381981E+05 -5.628786E+04 -2.847971E+05  2.018164E+04  5.131006E+03
       288  21 -7.879575E+05 -1.418455E+05 -4.700477E+04 -2.847895E+05  9.239504E+03  1.263091E+03
       288  22 -6.623560E+05 -1.162736E+05 -4.472236E+04 -2.433654E+05  3.093223E+04  9.319654E+03
       288  23 -6.571016E+05 -8.789085E+04 -2.031218E+04 -2.482801E+05  2.019450E+04  5.135909E+03
       288  24 -6.593188E+05 -9.487263E+04 -1.216646E+04 -2.514118E+05  9.327383E+03  1.296115E+03
       288  25 -5.286390E+05 -6.261168E+04 -7.548860E+03 -2.037019E+05  3.087011E+04  9.296511E+03
       288  26 -5.259245E+05 -3.758252E+04  1.566193E+04 -2.117561E+05  2.020737E+04  5.140813E+03
       288  27 -5.306641E+05 -4.789901E+04  2.267042E+04 -2.180279E+05  9.415282E+03  1.329147E+03
       289   1 -7.639881E+05 -1.390617E+05 -3.872904E+04 -2.790071E+05 -7.433265E+03 -7.631730E+02
       289   2 -7.610100E+05 -1.299503E+05 -3.236703E+04 -2.747754E+05 -4.894893E+03  1.717631E+01
       289   3 -7.535615E+05 -1.315562E+05 -2.902522E+04 -2.767373E+05 -2.328313E+03  7.221716E+02
       289   4 -6.579685E+05 -9.862003E+04 -9.700353E+03 -2.497158E+05 -7.459727E+03 -7.731431E+02
       289   5 -6.599889E+05 -9.173273E+04 -4.759621E+03 -2.471936E+05 -4.937854E+03  1.023858E+00
       289   6 -6.575353E+05 -9.555885E+04 -2.825598E+03 -2.508650E+05 -2.387800E+03  6.998308E+02
       289   7 -5.519383E+05 -5.817764E+04  1.932731E+04 -2.204199E+05 -7.486194E+03 -7.831151E+02
       289   8 -5.589581E+05 -5.351458E+04  2.284684E+04 -2.196078E+05 -4.980823E+03 -1.513146E+01
       289   9 -5.615004E+05 -5.956105E+04  2.337316E+04 -2.249891E+05 -2.447296E+03  6.774863E+02
       289  10 -7.639881E+05 -1.390617E+05 -3.872915E+04 -2.790071E+05  1.960008E-10 -1.461945E-10
       289  11 -7.610100E+05 -1.299503E+05 -3.236707E+04 -2.747754E+05  1.371895E-09  2.113031E-10
       289  12 -7.535616E+05 -1.315562E+05 -2.902523E+04 -2.767373E+05  7.031510E-10  2.657453E-10
       289  13 -6.579686E+05 -9.862005E+04 -9.700459E+03 -2.497158E+05  2.995398E-10 -5.065417E-11
       289  14 -6.599889E+05 -9.173273E+04 -4.759667E+03 -2.471936E+05  6.652965E-10  5.087226E-10
       289  15 -6.575353E+05 -9.555885E+04 -2.825609E+03 -2.508650E+05  3.335891E-10  1.942253E-10
       289  16 -5.519383E+05 -5.817766E+04  1.932720E+04 -2.204199E+05  6.278570E-10  9.820121E-11
       289  17 -5.589581E+05 -5.351458E+04  2.284679E+04 -2.196078E+05  1.082833E-09  1.892292E-10
       289  18 -5.615004E+05 -5.956106E+04  2.337315E+04 -2.249891E+05  1.905482E-10  8.754874E-11
       289  19 -7.639881E+05 -1.390617E+05 -3.872904E+04 -2.790071E+05  7.433265E+03  7.631730E+02
       289  20 -7.610100E+05 -1.299503E+05 -3.236703E+04 -2.747754E+05  4.894893E+03 -1.717631E+01
       289  21 -7.535615E+05 -1.315562E+05 -2.902522E+04 -2.767373E+05  2.328313E+03 -7.221716E+02
       289  22 -6.579685E+05 -9.862003E+04 -9.700353E+03 -2.497158E+05  7.459727E+03  7.731431E+02
       289  23 -6.599889E+05 -9.173273E+04 -4.759621E+03 -2.471936E+05  4.937854E+03 -1.023858E+00
       289  24 -6.575353E+05 -9.555885E+04 -2.825598E+03 -2.508650E+05  2.387800E+03 -6.998308E+02
       289  25 -5.519383E+05 -5.817764E+04  1.932731E+04 -2.204199E+05  7.486194E+03  7.831151E+02
       289  26 -5.589581E+05 -5.351458E+04  2.284684E+04 -2.196078E+05  4.980823E+03  1.513146E+01
       289  27 -5.615004E+05 -5.956105E+04  2.337316E+04 -2.249891E+05  2.447296E+03 -6.774863E+02
       290   1 -7.280736E+05 -1.230311E+05 -2.160742E+04 -2.701373E+05 -1.868936E+03  7.366107E+02
       290   2 -7.255832E+05 -1.166061E+05 -1.906918E+04 -2.645036E+05 -1.108013E+03  7.733050E+02
       290   3 -7.162127E+05 -1.180966E+05 -1.722260E+04 -2.669558E+05 -3.371107E+02  7.832555E+02
       290   4 -6.571820E+05 -9.623318E+04 -2.257622E+03 -2.507982E+05 -1.915015E+03  7.193099E+02
       290   5 -6.605958E+05 -9.208573E+04 -1.322006E+03 -2.468267E+05 -1.160022E+03  7.537879E+02
       290   6 -6.571285E+05 -9.585256E+04 -1.073315E+03 -2.509411E+05 -3.950562E+02  7.615207E+02
       290   7 -5.862856E+05 -6.943491E+04  1.709174E+04 -2.314572E+05 -1.961100E+03  7.020069E+02
       290   8 -5.956043E+05 -6.756510E+04  1.642480E+04 -2.291482E+05 -1.212036E+03  7.342685E+02
       290   9 -5.980409E+05 -7.360832E+04  1.507565E+04 -2.349249E+05 -4.530077E+02  7.397836E+02
       290  10 -7.280736E+05 -1.230311E+05 -2.160742E+04 -2.701373E+05 -9.060146E-11  2.328539E-10
       290  11 -7.255832E+05 -1.166061E+05 -1.906918E+04 -2.645036E+05 -1.885913E-10 -4.203536E-11
       290  12 -7.162127E+05 -1.180966E+05 -1.722260E+04 -2.669558E+05  1.602114E-11  3.559545E-11
       290  13 -6.571820E+05 -9.623319E+04 -2.257630E+03 -2.507982E+05 -2.610473E-10 -1.238366E-11
       290  14 -6.605958E+05 -9.208573E+04 -1.322010E+03 -2.468267E+05 -4.629323E-10  1.488651E-10
       290  15 -6.571285E+05 -9.585257E+04 -1.073317E+03 -2.509411E+05  2.449909E-11 -1.817435E-11
       290  16 -5.862856E+05 -6.943491E+04  1.709174E+04 -2.314572E+05  4.462872E-10 -3.292536E-10
       290  17 -5.956043E+05 -6.756510E+04  1.642479E+04 -2.291482E+05  5.785985E-10 -9.927301E-11
       290  18 -5.980409E+05 -7.360832E+04  1.507565E+04 -2.349249E+05  2.002271E-10  1.225774E-10
       290  19 -7.280736E+05 -1.230311E+05 -2.160742E+04 -2.701373E+05  1.868936E+03 -7.366107E+02
       290  20 -7.255832E+05 -1.166061E+05 -1.906918E+04 -2.645036E+05  1.108013E+03 -7.733050E+02
       290  21 -7.162127E+05 -1.180966E+05 -1.722260E+04 -2.669558E+05  3.371107E+02 -7.832555E+02
       290  22 -6.571820E+05 -9.623318E+04 -2.257622E+03 -2.507982E+05  1.915015E+03 -7.193099E+02
       290  23 -6.605958E+05 -9.208573E+04 -1.322006E+03 -2.468267E+05  1.160022E+03 -7.537879E+02
       290  24 -6.571285E+05 -9.585256E+04 -1.073315E+03 -2.509411E+05  3.950562E+02 -7.615207E+02
       290  25 -5.862856E+05 -6.943491E+04  1.709174E+04 -2.314572E+05  1.961100E+03 -7.020069E+02
       290  26 -5.956043E+05 -6.756510E+04  1.642480E+04 -2.291482E+05  1.212036E+03 -7.342685E+02
       290  27 -5.980409E+05 -7.360832E+04  1.507565E+04 -2.349249E+05  4.530077E+02 -7.397836E+02
       291   1 -6.887323E+05 -1.079513E+05 -9.712808E+03 -2.597185E+05 -1.080232E+02  7.021972E+02
       291   2 -6.861268E+05 -1.015286E+05 -8.240704E+03 -2.535720E+05  6.497540E+02  7.074008E+02
       291   3 -6.761954E+05 -1.034776E+05 -7.452994E+03 -2.560581E+05  1.409544E+03  7.071756E+02
       291   4 -6.570296E+05 -9.596079E+04 -1.072507E+03 -2.510597E+05 -1.623123E+02  6.818393E+02
       291   5 -6.607184E+05 -9.195626E+04 -1.304913E+03 -2.466755E+05  5.942732E+02  6.865997E+02
       291   6 -6.570810E+05 -9.632308E+04 -2.220754E+03 -2.509240E+05  1.352865E+03  6.859286E+02
       291   7 -6.253261E+05 -8.397027E+04  7.567692E+03 -2.424004E+05 -2.166044E+02  6.614804E+02
       291   8 -6.353093E+05 -8.238385E+04  5.630820E+03 -2.397788E+05  5.387899E+02  6.657976E+02
       291   9 -6.379662E+05 -8.916855E+04  3.011459E+03 -2.457898E+05  1.296184E+03  6.646809E+02
       291  10 -6.887323E+05 -1.079513E+05 -9.712809E+03 -2.597185E+05  3.688414E-12 -2.298757E-10
       291  11 -6.861268E+05 -1.015286E+05 -8.240705E+03 -2.535720E+05  2.067092E-11  1.721413E-10
       291  12 -6.761954E+05 -1.034776E+05 -7.452999E+03 -2.560581E+05  7.097270E-10  4.221647E-10
       291  13 -6.570296E+05 -9.596079E+04 -1.072508E+03 -2.510597E+05 -3.794645E-10 -1.918670E-10
       291  14 -6.607184E+05 -9.195626E+04 -1.304914E+03 -2.466755E+05  2.939759E-10  3.032872E-11
       291  15 -6.570810E+05 -9.632308E+04 -2.220759E+03 -2.509240E+05  7.048360E-10  3.682216E-10
       291  16 -6.253261E+05 -8.397027E+04  7.567691E+03 -2.424004E+05 -1.198481E-10  5.002540E-11
       291  17 -6.353093E+05 -8.238386E+04  5.630818E+03 -2.397788E+05 -4.395910E-10 -5.555694E-12
       291  18 -6.379662E+05 -8.916855E+04  3.011455E+03 -2.457898E+05  5.617739E-10  3.265537E-10
       291  19 -6.887323E+05 -1.079513E+05 -9.712808E+03 -2.597185E+05  1.080232E+02 -7.021972E+02
       291  20 -6.861268E+05 -1.015286E+05 -8.240704E+03 -2.535720E+05 -6.497540E+02 -7.074008E+02
       291  21 -6.761954E+05 -1.034776E+05 -7.452994E+03 -2.560581E+05 -1.409544E+03 -7.071756E+02
       291  22 -6.570296E+05 -9.596079E+04 -1.072507E+03 -2.510597E+05  1.623123E+02 -6.818393E+02
       291  23 -6.607184E+05 -9.195626E+04 -1.304913E+03 -2.466755E+05 -5.942732E+02 -6.865997E+02
       291  24 -6.570810E+05 -9.632308E+04 -2.220754E+03 -2.509240E+05 -1.352865E+03 -6.859286E+02
       291  25 -6.253261E+05 -8.397027E+04  7.567692E+03 -2.424004E+05  2.166044E+02 -6.614804E+02
       291  26 -6.353093E+05 -8.238385E+04  5.630820E+03 -2.397788E+05 -5.387899E+02 -6.657976E+02
       291  27 -6.379662E+05 -8.916855E+04  3.011459E+03 -2.457898E+05 -1.296184E+03 -6.646809E+02
       292   1 -6.478804E+05 -9.256260E+04 -2.457897E+02 -2.489125E+05  1.886446E+03  7.100315E+02
       292   2 -6.448557E+05 -8.543145E+04 -4.203816E+02 -2.424483E+05  4.394422E+03  1.358652E+03
       292   3 -6.360320E+05 -9.030123E+04 -3.556320E+03 -2.437922E+05  6.890212E+03  2.039825E+03
       292   4 -6.572424E+05 -9.586407E+04 -2.780574E+03 -2.512152E+05  1.825374E+03  6.871397E+02
       292   5 -6.603527E+05 -9.136177E+04 -4.668126E+03 -2.467496E+05  4.340600E+03  1.338474E+03
       292   6 -6.576655E+05 -9.886191E+04 -9.522829E+03 -2.500921E+05  6.843611E+03  2.022347E+03
       292   7 -6.666044E+05 -9.916554E+04 -5.315366E+03 -2.535180E+05  1.764304E+03  6.642483E+02
       292   8 -6.758494E+05 -9.729207E+04 -8.915889E+03 -2.510508E+05  4.286780E+03  1.318296E+03
       292   9 -6.792984E+05 -1.074225E+05 -1.548937E+04 -2.563917E+05  6.797013E+03  2.004871E+03
       292  10 -6.478804E+05 -9.256260E+04 -2.457973E+02 -2.489125E+05  7.513753E-10  5.714530E-10
       292  11 -6.448557E+05 -8.543146E+04 -4.204214E+02 -2.424483E+05  5.503397E-10 -1.437406E-10
       292  12 -6.360320E+05 -9.030125E+04 -3.556417E+03 -2.437922E+05  7.646050E-11  1.730788E-11
       292  13 -6.572424E+05 -9.586407E+04 -2.780581E+03 -2.512152E+05  7.326540E-10  4.439880E-10
       292  14 -6.603527E+05 -9.136178E+04 -4.668165E+03 -2.467496E+05  3.252409E-10  2.697427E-11
       292  15 -6.576655E+05 -9.886193E+04 -9.522925E+03 -2.500921E+05 -4.587611E-12 -1.889918E-10
       292  16 -6.666044E+05 -9.916554E+04 -5.315373E+03 -2.535180E+05  5.460008E-10  2.912929E-10
       292  17 -6.758494E+05 -9.729207E+04 -8.915927E+03 -2.510508E+05  8.032402E-11  1.182509E-10
       292  18 -6.792985E+05 -1.074226E+05 -1.548947E+04 -2.563917E+05 -2.052648E-10  1.650778E-10
       292  19 -6.478804E+05 -9.256260E+04 -2.457897E+02 -2.489125E+05 -1.886446E+03 -7.100315E+02
       292  20 -6.448557E+05 -8.543145E+04 -4.203816E+02 -2.424483E+05 -4.394422E+03 -1.358652E+03
       292  21 -6.360320E+05 -9.030123E+04 -3.556320E+03 -2.437922E+05 -6.890212E+03 -2.039825E+03
       292  22 -6.572424E+05 -9.586407E+04 -2.780574E+03 -2.512152E+05 -1.825374E+03 -6.871397E+02
       292  23 -6.603527E+05 -9.136177E+04 -4.668126E+03 -2.467496E+05 -4.340600E+03 -1.338474E+03
       292  24 -6.576655E+05 -9.886191E+04 -9.522829E+03 -2.500921E+05 -6.843611E+03 -2.022347E+03
       292  25 -6.666044E+05 -9.916554E+04 -5.315366E+03 -2.535180E+05 -1.764304E+03 -6.642483E+02
       292  26 -6.758494E+05 -9.729207E+04 -8.915889E+03 -2.510508E+05 -4.286780E+03 -1.318296E+03
       292  27 -6.792984E+05 -1.074225E+05 -1.548937E+04 -2.563917E+05 -6.797013E+03 -2.004871E+03
       293   1 -6.080457E+05 -7.778664E+04  1.629957E+03 -2.397780E+05  8.771979E+03  2.543543E+03
       293   2 -6.025795E+05 -6.582190E+04 -4.724549E+03 -2.317971E+05  1.941003E+04  6.229991E+03
       293   3 -6.022415E+05 -9.085493E+04 -2.702196E+04 -2.247387E+05  2.996652E+04  1.013482E+04
       293   4 -6.588209E+05 -9.536424E+04 -1.194479E+04 -2.519573E+05  8.687420E+03  2.511862E+03
       293   5 -6.577344E+05 -8.736577E+04 -1.992679E+04 -2.475571E+05  1.937355E+04  6.216275E+03
       293   6 -6.617867E+05 -1.163765E+05 -4.389102E+04 -2.440792E+05  2.997803E+04  1.013894E+04
       293   7 -7.095938E+05 -1.129418E+05 -2.551978E+04 -2.641358E+05  8.602869E+03  2.480183E+03
       293   8 -7.128864E+05 -1.089094E+05 -3.512933E+04 -2.633158E+05  1.933708E+04  6.202561E+03
       293   9 -7.213285E+05 -1.418976E+05 -6.076042E+04 -2.634179E+05  2.998954E+04  1.014307E+04
       293  10 -6.080457E+05 -7.778667E+04  1.629800E+03 -2.397780E+05  7.813357E-11 -1.284265E-10
       293  11 -6.025799E+05 -6.582204E+04 -4.725330E+03 -2.317972E+05  4.800597E-11  2.354444E-11
       293  12 -6.022425E+05 -9.085528E+04 -2.702385E+04 -2.247389E+05 -2.217667E-12  3.762793E-11
       293  13 -6.588210E+05 -9.536427E+04 -1.194495E+04 -2.519573E+05  3.960669E-11  5.273261E-12
       293  14 -6.577348E+05 -8.736591E+04 -1.992757E+04 -2.475571E+05  5.104272E-10  9.014330E-11
       293  15 -6.617877E+05 -1.163769E+05 -4.389291E+04 -2.440794E+05  1.099405E-09  1.179557E-10
       293  16 -7.095939E+05 -1.129418E+05 -2.551993E+04 -2.641358E+05  1.126200E-10 -2.210991E-10
       293  17 -7.128868E+05 -1.089096E+05 -3.513010E+04 -2.633159E+05  3.917554E-10  4.012097E-11
       293  18 -7.213295E+05 -1.418979E+05 -6.076231E+04 -2.634182E+05  6.097616E-10 -1.872296E-11
       293  19 -6.080457E+05 -7.778664E+04  1.629957E+03 -2.397780E+05 -8.771979E+03 -2.543543E+03
       293  20 -6.025795E+05 -6.582190E+04 -4.724549E+03 -2.317971E+05 -1.941003E+04 -6.229991E+03
       293  21 -6.022415E+05 -9.085493E+04 -2.702196E+04 -2.247387E+05 -2.996652E+04 -1.013482E+04
       293  22 -6.588209E+05 -9.536424E+04 -1.194479E+04 -2.519573E+05 -8.687420E+03 -2.511862E+03
       293  23 -6.577344E+05 -8.736577E+04 -1.992679E+04 -2.475571E+05 -1.937355E+04 -6.216275E+03
       293  24 -6.617867E+05 -1.163765E+05 -4.389102E+04 -2.440792E+05 -2.997803E+04 -1.013894E+04
       293  25 -7.095938E+05 -1.129418E+05 -2.551978E+04 -2.641358E+05 -8.602869E+03 -2.480183E+03
       293  26 -7.128864E+05 -1.089094E+05 -3.512933E+04 -2.633158E+05 -1.933708E+04 -6.202561E+03
       293  27 -7.213285E+05 -1.418976E+05 -6.076042E+04 -2.634179E+05 -2.998954E+04 -1.014307E+04
       294   1 -5.736039E+05 -6.698797E+04 -2.944613E+04 -2.424944E+05  3.838771E+04  1.289281E+04
       294   2 -5.521495E+05 -2.011365E+04 -5.938071E+04 -2.228078E+05  8.500366E+04  2.998457E+04
       294   3 -6.072714E+05 -1.848956E+05 -1.801145E+05 -1.573493E+05  1.310687E+05  4.854779E+04
       294   4 -6.687859E+05 -9.218063E+04 -5.332485E+04 -2.573540E+05  3.813951E+04  1.280049E+04
       294   5 -6.407758E+05 -5.930647E+04 -8.469078E+04 -2.528432E+05  8.507906E+04  3.001186E+04
       294   6 -6.894187E+05 -2.381720E+05 -2.071230E+05 -2.025574E+05  1.314681E+05  4.869186E+04
       294   7 -7.639591E+05 -1.173736E+05 -7.720418E+04 -2.722121E+05  3.789134E+04  1.270818E+04
       294   8 -7.293943E+05 -9.849790E+04 -1.100016E+05 -2.828745E+05  8.515443E+04  3.003915E+04
       294   9 -7.715579E+05 -2.914428E+05 -2.341319E+05 -2.477586E+05  1.318674E+05  4.883587E+04
       294  10 -5.736055E+05 -6.698854E+04 -2.944922E+04 -2.424948E+05  9.477783E-11 -7.273388E-12
       294  11 -5.521575E+05 -2.011656E+04 -5.939599E+04 -2.228098E+05  4.155237E-10  2.119447E-10
       294  12 -6.072905E+05 -1.849028E+05 -1.801512E+05 -1.573544E+05 -2.255067E-10  1.149216E-10
       294  13 -6.687875E+05 -9.218120E+04 -5.332789E+04 -2.573544E+05  6.460262E-10  5.171834E-11
       294  14 -6.407838E+05 -5.930939E+04 -8.470610E+04 -2.528453E+05  3.664221E-10  3.767804E-10
       294  15 -6.894379E+05 -2.381792E+05 -2.071600E+05 -2.025625E+05 -1.856375E-11 -4.175788E-11
       294  16 -7.639607E+05 -1.173741E+05 -7.720718E+04 -2.722125E+05  7.088238E-10  1.662648E-10
       294  17 -7.294024E+05 -9.850082E+04 -1.100169E+05 -2.828765E+05 -1.478407E-10  3.319345E-10
       294  18 -7.715772E+05 -2.914500E+05 -2.341692E+05 -2.477638E+05 -3.344399E-10  1.228202E-10
       294  19 -5.736039E+05 -6.698797E+04 -2.944613E+04 -2.424944E+05 -3.838771E+04 -1.289281E+04
       294  20 -5.521495E+05 -2.011365E+04 -5.938071E+04 -2.228078E+05 -8.500366E+04 -2.998457E+04
       294  21 -6.072714E+05 -1.848956E+05 -1.801145E+05 -1.573493E+05 -1.310687E+05 -4.854779E+04
       294  22 -6.687859E+05 -9.218063E+04 -5.332485E+04 -2.573540E+05 -3.813951E+04 -1.280049E+04
       294  23 -6.407758E+05 -5.930647E+04 -8.469078E+04 -2.528432E+05 -8.507906E+04 -3.001186E+04
       294  24 -6.894187E+05 -2.381720E+05 -2.071230E+05 -2.025574E+05 -1.314681E+05 -4.869186E+04
       294  25 -7.639591E+05 -1.173736E+05 -7.720418E+04 -2.722121E+05 -3.789134E+04 -1.270818E+04
       294  26 -7.293943E+05 -9.849790E+04 -1.100016E+05 -2.828745E+05 -8.515443E+04 -3.003915E+04
       294  27 -7.715579E+05 -2.914428E+05 -2.341319E+05 -2.477586E+05 -1.318674E+05 -4.883587E+04
       295   1 -2.823305E+05 -2.651060E+04  1.230285E+04 -1.658986E+03  1.113613E+05  3.700746E+03
       295   2 -2.741178E+05 -1.745429E+05 -7.373658E+04  9.729313E+03  7.438382E+04  1.028898E+04
       295   3 -2.144285E+05 -1.430426E+05 -9.044541E+04 -3.190969E+04  3.741106E+04  8.304096E+03
       295   4  3.393864E+05  1.287376E+05  1.671527E+05 -2.213262E+04  1.140584E+05  3.699891E+03
       295   5  3.134931E+05 -2.796393E+04  7.155946E+04  4.451162E+03  7.498912E+04  1.028798E+04
       295   6  3.393913E+05 -4.860900E+03  4.670009E+04 -2.198918E+04  3.592677E+04  8.304699E+03
       295   7  9.614548E+05  2.839583E+05  3.219738E+05 -4.262686E+04  1.167581E+05  3.698860E+03
       295   8  9.014179E+05  1.185894E+05  2.168299E+05 -8.320290E+02  7.559497E+04  1.028697E+04
       295   9  8.934898E+05  1.332982E+05  1.838228E+05 -1.205978E+04  3.444114E+04  8.305255E+03
       295  10 -2.823438E+05 -2.651395E+04  1.227951E+04 -1.659318E+03 -2.998974E-11  2.308312E-10
       295  11 -2.741238E+05 -1.745445E+05 -7.374718E+04  9.728697E+03 -1.252270E-09 -3.037314E-10
       295  12 -2.144300E+05 -1.430431E+05 -9.044817E+04 -3.190994E+04 -4.878415E-10 -3.335524E-10
       295  13  3.393724E+05  1.287341E+05  1.671282E+05 -2.213296E+04 -2.759590E-11 -2.468896E-10
       295  14  3.134871E+05 -2.796556E+04  7.154870E+04  4.450540E+03 -5.334178E-10  6.358472E-11
       295  15  3.393899E+05 -4.861320E+03  4.669754E+04 -2.198942E+04 -5.187051E-10 -1.143521E-10
       295  16  9.614402E+05  2.839546E+05  3.219481E+05 -4.262721E+04  1.162281E-09  4.957125E-10
       295  17  9.014117E+05  1.185877E+05  2.168190E+05 -8.326549E+02  7.826527E-10  1.299442E-10
       295  18  8.934885E+05  1.332979E+05  1.838205E+05 -1.206001E+04 -3.786605E-10  1.053712E-10
       295  19 -2.823305E+05 -2.651060E+04  1.230285E+04 -1.658986E+03 -1.113613E+05 -3.700746E+03
       295  20 -2.741178E+05 -1.745429E+05 -7.373658E+04  9.729313E+03 -7.438382E+04 -1.028898E+04
       295  21 -2.144285E+05 -1.430426E+05 -9.044541E+04 -3.190969E+04 -3.741106E+04 -8.304096E+03
       295  22  3.393864E+05  1.287376E+05  1.671527E+05 -2.213262E+04 -1.140584E+05 -3.699891E+03
       295  23  3.134931E+05 -2.796393E+04  7.155946E+04  4.451162E+03 -7.498912E+04 -1.028798E+04
       295  24  3.393913E+05 -4.860900E+03  4.670009E+04 -2.198918E+04 -3.592677E+04 -8.304699E+03
       295  25  9.614548E+05  2.839583E+05  3.219738E+05 -4.262686E+04 -1.167581E+05 -3.698860E+03
       295  26  9.014179E+05  1.185894E+05  2.168299E+05 -8.320290E+02 -7.559497E+04 -1.028697E+04
       295  27  8.934898E+05  1.332982E+05  1.838228E+05 -1.205978E+04 -3.444114E+04 -8.305255E+03
       296   1 -9.438149E+04 -8.755104E+04 -6.652941E+04 -1.836935E+04  2.815576E+04  6.297008E+03
       296   2 -6.640567E+04 -1.018233E+05 -7.843247E+04  4.725311E+03  1.871274E+04  6.196079E+03
       296   3 -3.015809E+04 -9.039433E+04 -7.763578E+04 -2.242140E+04  9.266735E+03  4.973059E+03
       296   4  3.297664E+05  1.828105E+04  3.850841E+04 -2.139835E+04  2.827755E+04  6.296526E+03
       296   5  3.256077E+05 -4.023823E+03  1.858694E+04  3.714431E+03  1.855932E+04  6.195986E+03
       296   6  3.297620E+05 -5.885846E+02  1.155004E+04 -2.141205E+04  8.838598E+03  4.973608E+03
       296   7  7.540776E+05  1.240997E+05  1.435329E+05 -2.442940E+04  2.839941E+04  6.296043E+03
       296   8  7.177606E+05  9.376414E+04  1.155949E+05  2.702951E+03  1.840580E+04  6.195893E+03
       296   9  6.897997E+05  8.920747E+04  1.007262E+05 -2.040206E+04  8.410212E+03  4.974155E+03
       296  10 -9.438235E+04 -8.755130E+04 -6.653098E+04 -1.836949E+04 -9.041733E-10 -3.705565E-10
       296  11 -6.640606E+04 -1.018234E+05 -7.843320E+04  4.725218E+03  3.089785E-11 -2.632603E-10
       296  12 -3.015819E+04 -9.039438E+04 -7.763599E+04 -2.242144E+04 -3.396210E-10  9.311126E-10
       296  13  3.297655E+05  1.828079E+04  3.850684E+04 -2.139850E+04 -8.806992E-10  2.679725E-11
       296  14  3.256073E+05 -4.023957E+03  1.858622E+04  3.714338E+03  1.260562E-09 -1.193781E-09
       296  15  3.297619E+05 -5.886321E+02  1.154984E+04 -2.141208E+04 -7.166247E-11  6.167828E-10
       296  16  7.540768E+05  1.240994E+05  1.435313E+05 -2.442955E+04 -1.859651E-10 -2.000601E-10
       296  17  7.177602E+05  9.376401E+04  1.155942E+05  2.702860E+03  5.398975E-10 -2.387848E-10
       296  18  6.897997E+05  8.920742E+04  1.007260E+05 -2.040210E+04 -3.853281E-10  2.131754E-10
       296  19 -9.438149E+04 -8.755104E+04 -6.652941E+04 -1.836935E+04 -2.815576E+04 -6.297008E+03
       296  20 -6.640567E+04 -1.018233E+05 -7.843247E+04  4.725311E+03 -1.871274E+04 -6.196079E+03
       296  21 -3.015809E+04 -9.039433E+04 -7.763578E+04 -2.242140E+04 -9.266735E+03 -4.973059E+03
       296  22  3.297664E+05  1.828105E+04  3.850841E+04 -2.139835E+04 -2.827755E+04 -6.296526E+03
       296  23  3.256077E+05 -4.023823E+03  1.858694E+04  3.714431E+03 -1.855932E+04 -6.195986E+03
       296  24  3.297620E+05 -5.885846E+02  1.155004E+04 -2.141205E+04 -8.838598E+03 -4.973608E+03
       296  25  7.540776E+05  1.240997E+05  1.435329E+05 -2.442940E+04 -2.839941E+04 -6.296043E+03
       296  26  7.177606E+05  9.376414E+04  1.155949E+05  2.702951E+03 -1.840580E+04 -6.195893E+03
       296  27  6.897997E+05  8.920747E+04  1.007262E+05 -2.040206E+04 -8.410212E+03 -4.974155E+03
       297   1  9.272072E+04 -5.611678E+04 -4.900776E+04 -2.036123E+04  7.180699E+03  4.145465E+03
       297   2  1.231885E+05 -5.157921E+04 -4.572429E+04  3.658939E+03  4.729906E+03  3.170380E+03
       297   3  1.548790E+05 -4.322876E+04 -3.990305E+04 -2.094939E+04  2.277930E+03  2.061576E+03
       297   4  3.282115E+05  2.615265E+03  9.202311E+03 -2.104496E+04  6.963308E+03  4.145769E+03
       297   5  3.275963E+05 -5.876598E+02  4.868616E+03  3.266327E+03  4.479565E+03  3.170842E+03
       297   6  3.282081E+05  2.737938E+01  3.094922E+03 -2.104986E+04  1.994762E+03  2.062217E+03
       297   7  5.637526E+05  6.134317E+04  6.740826E+04 -2.172894E+04  6.745834E+03  4.146073E+03
       297   8  5.320420E+05  5.040076E+04  5.545842E+04  2.873606E+03  4.229141E+03  3.171305E+03
       297   9  5.015645E+05  4.328127E+04  4.609065E+04 -2.115035E+04  1.711514E+03  2.062858E+03
       297  10  9.272066E+04 -5.611681E+04 -4.900789E+04 -2.036125E+04  1.015883E-09  1.677421E-10
       297  11  1.231885E+05 -5.157922E+04 -4.572435E+04  3.658927E+03  1.618027E-09  1.603388E-10
       297  12  1.548790E+05 -4.322877E+04 -3.990306E+04 -2.094939E+04 -1.892403E-10 -8.341382E-10
       297  13  3.282114E+05  2.615234E+03  9.202188E+03 -2.104499E+04 -2.606417E-10  1.390950E-10
       297  14  3.275963E+05 -5.876760E+02  4.868559E+03  3.266316E+03  1.304851E-09  9.667678E-10
       297  15  3.282081E+05  2.737374E+01  3.094907E+03 -2.104986E+04 -1.077685E-09  2.085235E-09
       297  16  5.637526E+05  6.134314E+04  6.740815E+04 -2.172896E+04 -1.720332E-09 -8.940155E-11
       297  17  5.320420E+05  5.040075E+04  5.545836E+04  2.873596E+03 -1.553034E-10 -1.867336E-09
       297  18  5.015645E+05  4.328126E+04  4.609064E+04 -2.115035E+04 -7.424940E-10 -1.061124E-11
       297  19  9.272072E+04 -5.611678E+04 -4.900776E+04 -2.036123E+04 -7.180699E+03 -4.145465E+03
       297  20  1.231885E+05 -5.157921E+04 -4.572429E+04  3.658939E+03 -4.729906E+03 -3.170380E+03
       297  21  1.548790E+05 -4.322876E+04 -3.990305E+04 -2.094939E+04 -2.277930E+03 -2.061576E+03
       297  22  3.282115E+05  2.615265E+03  9.202311E+03 -2.104496E+04 -6.963308E+03 -4.145769E+03
       297  23  3.275963E+05 -5.876598E+02  4.868616E+03  3.266327E+03 -4.479565E+03 -3.170842E+03
       297  24  3.282081E+05  2.737938E+01  3.094922E+03 -2.104986E+04 -1.994762E+03 -2.062217E+03
       297  25  5.637526E+05  6.134317E+04  6.740826E+04 -2.172894E+04 -6.745834E+03 -4.146073E+03
       297  26  5.320420E+05  5.040076E+04  5.545842E+04  2.873606E+03 -4.229141E+03 -3.171305E+03
       297  27  5.015645E+05  4.328127E+04  4.609065E+04 -2.115035E+04 -1.711514E+03 -2.062858E+03
       298   1  2.762685E+05 -1.243318E+04 -1.015934E+04 -2.077113E+04  1.740348E+03  1.402119E+03
       298   2  3.069480E+05 -5.347030E+03 -3.416256E+03  3.141406E+03  8.509993E+02  3.246313E+02
       298   3  3.376579E+05  2.575586E+03  4.053759E+03 -2.096581E+04 -3.850030E+01 -7.682879E+02
       298   4  3.279514E+05  4.398598E+02  2.537428E+03 -2.091258E+04  1.483050E+03  1.402748E+03
       298   5  3.279359E+05 -1.119547E+02  1.777848E+03  3.096919E+03  5.899355E+02  3.252779E+02
       298   6  3.279510E+05  1.735079E+02  1.747950E+03 -2.091323E+04 -3.032865E+02 -7.676201E+02
       298   7  3.796366E+05  1.331270E+04  1.523400E+04 -2.105404E+04  1.225731E+03  1.403376E+03
       298   8  3.489242E+05  5.123088E+03  6.971920E+03  3.052431E+03  3.288629E+02  3.259245E+02
       298   9  3.182443E+05 -2.228576E+03 -5.578648E+02 -2.086065E+04 -5.680685E+02 -7.669523E+02
       298  10  2.762685E+05 -1.243319E+04 -1.015935E+04 -2.077113E+04  4.542653E-10  2.371829E-10
       298  11  3.069480E+05 -5.347030E+03 -3.416258E+03  3.141406E+03  1.769517E-09  5.513890E-10
       298  12  3.376579E+05  2.575585E+03  4.053758E+03 -2.096581E+04 -1.442722E-10 -8.868386E-10
       298  13  3.279514E+05  4.398571E+02  2.537420E+03 -2.091258E+04 -2.242583E-10 -1.434169E-09
       298  14  3.279359E+05 -1.119549E+02  1.777847E+03  3.096919E+03  1.886846E-10  8.460061E-10
       298  15  3.279510E+05  1.735073E+02  1.747949E+03 -2.091323E+04 -6.126763E-10 -1.970714E-09
       298  16  3.796366E+05  1.331270E+04  1.523399E+04 -2.105404E+04 -1.506736E-09  9.486137E-10
       298  17  3.489242E+05  5.123088E+03  6.971919E+03  3.052431E+03  4.631001E-10 -8.741858E-10
       298  18  3.182443E+05 -2.228577E+03 -5.578665E+02 -2.086065E+04 -1.372605E-09 -2.788495E-09
       298  19  2.762685E+05 -1.243318E+04 -1.015934E+04 -2.077113E+04 -1.740348E+03 -1.402119E+03
       298  20  3.069480E+05 -5.347030E+03 -3.416256E+03  3.141406E+03 -8.509993E+02 -3.246313E+02
       298  21  3.376579E+05  2.575586E+03  4.053759E+03 -2.096581E+04  3.850030E+01  7.682879E+02
       298  22  3.279514E+05  4.398598E+02  2.537428E+03 -2.091258E+04 -1.483050E+03 -1.402748E+03
       298  23  3.279359E+05 -1.119547E+02  1.777848E+03  3.096919E+03 -5.899355E+02 -3.252779E+02
       298  24  3.279510E+05  1.735079E+02  1.747950E+03 -2.091323E+04  3.032865E+02  7.676201E+02
       298  25  3.796366E+05  1.331270E+04  1.523400E+04 -2.105404E+04 -1.225731E+03 -1.403376E+03
       298  26  3.489242E+05  5.123088E+03  6.971920E+03  3.052431E+03 -3.288629E+02 -3.259245E+02
       298  27  3.182443E+05 -2.228576E+03 -5.578648E+02 -2.086065E+04  5.680685E+02  7.669523E+02
       299   1  4.590989E+05  3.284530E+04  3.444738E+04 -2.118017E+04 -3.729691E+02 -1.409103E+03
       299   2  4.898764E+05  4.022932E+04  4.271963E+04  2.924003E+03 -1.695170E+03 -2.502957E+03
       299   3  5.209945E+05  4.885269E+04  5.213188E+04 -2.137108E+04 -3.016806E+03 -3.592351E+03
       299   4  3.280139E+05  1.322405E+02  1.910891E+03 -2.099800E+04 -6.368477E+02 -1.408469E+03
       299   5  3.278458E+05 -1.821253E+02  2.622212E+03  3.202641E+03 -1.957686E+03 -2.502407E+03
       299   6  3.280168E+05  7.427365E+02  4.472751E+03 -2.099676E+04 -3.277894E+03 -3.591883E+03
       299   7  1.969444E+05 -3.258211E+04 -3.062688E+04 -2.081586E+04 -9.006707E+02 -1.407835E+03
       299   8  1.658390E+05 -4.059554E+04 -3.747716E+04  3.481220E+03 -2.220134E+03 -2.501858E+03
       299   9  1.350730E+05 -4.737000E+04 -4.318914E+04 -2.062253E+04 -3.538901E+03 -3.591415E+03
       299  10  4.590989E+05  3.284530E+04  3.444737E+04 -2.118017E+04 -4.672235E-10  8.416396E-10
       299  11  4.898764E+05  4.022932E+04  4.271961E+04  2.924000E+03  1.142782E-09  3.412698E-09
       299  12  5.209945E+05  4.885268E+04  5.213184E+04 -2.137109E+04  9.516056E-10 -1.717521E-09
       299  13  3.280139E+05  1.322383E+02  1.910886E+03 -2.099800E+04 -5.432144E-10  8.660161E-11
       299  14  3.278458E+05 -1.821331E+02  2.622194E+03  3.202637E+03  1.018294E-09 -4.952823E-10
       299  15  3.280168E+05  7.427197E+02  4.472706E+03 -2.099676E+04 -8.495141E-10  6.022719E-10
       299  16  1.969444E+05 -3.258211E+04 -3.062688E+04 -2.081587E+04 -8.226646E-10 -5.385712E-10
       299  17  1.658390E+05 -4.059554E+04 -3.747718E+04  3.481215E+03 -6.687617E-10 -1.183667E-10
       299  18  1.350729E+05 -4.737001E+04 -4.318918E+04 -2.062254E+04 -2.067992E-09 -1.195038E-11
       299  19  4.590989E+05  3.284530E+04  3.444738E+04 -2.118017E+04  3.729691E+02  1.409103E+03
       299  20  4.898764E+05  4.022932E+04  4.271963E+04  2.924003E+03  1.695170E+03  2.502957E+03
       299  21  5.209945E+05  4.885269E+04  5.213188E+04 -2.137108E+04  3.016806E+03  3.592351E+03
       299  22  3.280139E+05  1.322405E+02  1.910891E+03 -2.099800E+04  6.368477E+02  1.408469E+03
       299  23  3.278458E+05 -1.821253E+02  2.622212E+03  3.202641E+03  1.957686E+03  2.502407E+03
       299  24  3.280168E+05  7.427365E+02  4.472751E+03 -2.099676E+04  3.277894E+03  3.591883E+03
       299  25  1.969444E+05 -3.258211E+04 -3.062688E+04 -2.081586E+04  9.006707E+02  1.407835E+03
       299  26  1.658390E+05 -4.059554E+04 -3.747716E+04  3.481220E+03  2.220134E+03  2.501858E+03
       299  27  1.350730E+05 -4.737000E+04 -4.318914E+04 -2.062253E+04  3.538901E+03  3.591415E+03
       300   1  6.451503E+05  7.889554E+04  8.411965E+04 -2.134234E+04 -3.910288E+03 -4.267528E+03
       300   2  6.755640E+05  8.574947E+04  9.549984E+04  3.082807E+03 -8.693188E+03 -5.397187E+03
       300   3  7.088275E+05  9.982867E+04  1.118816E+05 -2.227451E+04 -1.347478E+04 -6.374366E+03
       300   4  3.285524E+05 -7.554097E+01  5.682414E+03 -2.130725E+04 -4.200504E+03 -4.267117E+03
       300   5  3.271335E+05 -1.140396E+03  9.287446E+03  3.587498E+03 -8.944426E+03 -5.397024E+03
       300   6  3.285581E+05  5.015479E+03  1.786903E+04 -2.130193E+04 -1.368680E+04 -6.374416E+03
       300   7  1.204542E+04 -7.905413E+04 -7.276229E+04 -2.127213E+04 -4.490572E+03 -4.266707E+03
       300   8 -2.118682E+04 -8.803934E+04 -7.693397E+04  4.091945E+03 -9.195522E+03 -5.396861E+03
       300   9 -5.158009E+04 -8.980851E+04 -7.615424E+04 -2.032992E+04 -1.389868E+04 -6.374466E+03
       300  10  6.451503E+05  7.889552E+04  8.411959E+04 -2.134235E+04 -3.587921E-10 -1.744138E-09
       300  11  6.755639E+05  8.574942E+04  9.549964E+04  3.082770E+03  1.694048E-10  3.897264E-11
       300  12  7.088273E+05  9.982858E+04  1.118811E+05 -2.227457E+04 -5.676150E-10 -1.578647E-10
       300  13  3.285524E+05 -7.556526E+01  5.682347E+03 -2.130726E+04 -6.900230E-11 -2.218886E-10
       300  14  3.271334E+05 -1.140449E+03  9.287241E+03  3.587460E+03 -2.406305E-12 -2.522118E-10
       300  15  3.285578E+05  5.015385E+03  1.786860E+04 -2.130200E+04 -3.132190E-10 -1.706514E-10
       300  16  1.204540E+04 -7.905415E+04 -7.276236E+04 -2.127215E+04 -6.875678E-10 -1.408620E-10
       300  17 -2.118692E+04 -8.803939E+04 -7.693418E+04  4.091905E+03  5.644732E-10  1.661318E-09
       300  18 -5.158031E+04 -8.980861E+04 -7.615468E+04 -2.032999E+04  3.557086E-10  1.380476E-10
       300  19  6.451503E+05  7.889554E+04  8.411965E+04 -2.134234E+04  3.910288E+03  4.267528E+03
       300  20  6.755640E+05  8.574947E+04  9.549984E+04  3.082807E+03  8.693188E+03  5.397187E+03
       300  21  7.088275E+05  9.982867E+04  1.118816E+05 -2.227451E+04  1.347478E+04  6.374366E+03
       300  22  3.285524E+05 -7.554097E+01  5.682414E+03 -2.130725E+04  4.200504E+03  4.267117E+03
       300  23  3.271335E+05 -1.140396E+03  9.287446E+03  3.587498E+03  8.944426E+03  5.397024E+03
       300  24  3.285581E+05  5.015479E+03  1.786903E+04 -2.130193E+04  1.368680E+04  6.374416E+03
       300  25  1.204542E+04 -7.905413E+04 -7.276229E+04 -2.127213E+04  4.490572E+03  4.266707E+03
       300  26 -2.118682E+04 -8.803934E+04 -7.693397E+04  4.091945E+03  9.195522E+03  5.396861E+03
       300  27 -5.158009E+04 -8.980851E+04 -7.615424E+04 -2.032992E+04  1.389868E+04  6.374466E+03
       301   1  8.402214E+05  1.255766E+05  1.484128E+05 -1.925350E+04 -1.686032E+04 -7.268885E+03
       301   2  8.653824E+05  1.273082E+05  1.703437E+05  2.950590E+03 -3.616677E+04 -8.570281E+03
       301   3  9.070280E+05  1.791591E+05  2.176531E+05 -2.708091E+04 -5.547273E+04 -8.501824E+03
       301   4  3.315421E+05 -1.275538E+03  2.246836E+04 -2.184618E+04 -1.733042E+04 -7.268865E+03
       301   5  3.233258E+05 -7.845629E+03  3.626348E+04  4.261834E+03 -3.629313E+04 -8.570835E+03
       301   6  3.315470E+05  3.566743E+04  7.521447E+04 -2.186843E+04 -5.525432E+04 -8.502662E+03
       301   7 -1.769024E+05 -1.281470E+05 -1.034954E+05 -2.443668E+04 -1.780014E+04 -7.268842E+03
       301   8 -2.184641E+05 -1.430214E+05 -9.783861E+04  5.571931E+03 -3.641937E+04 -8.571389E+03
       301   9 -2.436334E+05 -1.078489E+05 -6.724878E+04 -1.666082E+04 -5.503609E+04 -8.503496E+03
       301  10  8.402211E+05  1.255764E+05  1.484122E+05 -1.925360E+04 -3.697460E-10 -5.165041E-10
       301  11  8.653810E+05  1.273078E+05  1.703411E+05  2.950340E+03 -1.210240E-12 -3.491294E-10
       301  12  9.070247E+05  1.791582E+05  2.176472E+05 -2.708129E+04 -1.008565E-10  6.154206E-11
       301  13  3.315418E+05 -1.275675E+03  2.246769E+04 -2.184628E+04 -1.488764E-13  3.925432E-11
       301  14  3.233244E+05 -7.846062E+03  3.626087E+04  4.261584E+03 -9.527342E-10 -6.653214E-10
       301  15  3.315437E+05  3.566653E+04  7.520860E+04 -2.186880E+04  8.152697E-10 -5.259428E-10
       301  16 -1.769028E+05 -1.281471E+05 -1.034961E+05 -2.443678E+04  4.263208E-10 -7.382523E-10
       301  17 -2.184655E+05 -1.430219E+05 -9.784124E+04  5.571680E+03  1.189909E-09 -1.298964E-09
       301  18 -2.436367E+05 -1.078498E+05 -6.725461E+04 -1.666120E+04  1.530019E-09 -4.523781E-10
       301  19  8.402214E+05  1.255766E+05  1.484128E+05 -1.925350E+04  1.686032E+04  7.268885E+03
       301  20  8.653824E+05  1.273082E+05  1.703437E+05  2.950590E+03  3.616677E+04  8.570281E+03
       301  21  9.070280E+05  1.791591E+05  2.176531E+05 -2.708091E+04  5.547273E+04  8.501824E+03
       301  22  3.315421E+05 -1.275538E+03  2.246836E+04 -2.184618E+04  1.733042E+04  7.268865E+03
       301  23  3.233258E+05 -7.845629E+03  3.626348E+04  4.261834E+03  3.629313E+04  8.570835E+03
       301  24  3.315470E+05  3.566743E+04  7.521447E+04 -2.186843E+04  5.525432E+04  8.502662E+03
       301  25 -1.769024E+05 -1.281470E+05 -1.034954E+05 -2.443668E+04  1.780014E+04  7.268842E+03
       301  26 -2.184641E+05 -1.430214E+05 -9.783861E+04  5.571931E+03  3.641937E+04  8.571389E+03
       301  27 -2.436334E+05 -1.078489E+05 -6.724878E+04 -1.666082E+04  5.503609E+04  8.503496E+03
       302   1  1.061269E+06  1.677372E+05  2.671219E+05 -2.296002E+03 -6.842157E+04 -1.089048E+04
       302   2  1.046705E+06  1.315331E+05  3.243767E+05 -4.223182E+03 -1.473492E+05 -1.329247E+04
       302   3  1.133206E+06  4.465779E+05  5.213838E+05 -6.265968E+04 -2.263087E+05 -5.152689E+03
       302   4  3.502296E+05 -9.598905E+03  9.119147E+04 -2.257482E+04 -7.018618E+04 -1.089113E+04
       302   5  2.998640E+05 -5.457615E+04  1.398623E+05  5.299783E+03 -1.465009E+05 -1.329420E+04
       302   6  3.502227E+05  2.514630E+05  3.265914E+05 -2.333507E+04 -2.228426E+05 -5.157491E+03
       302   7 -3.603500E+05 -1.869713E+05 -8.477634E+04 -4.283055E+04 -7.194875E+04 -1.089167E+04
       302   8 -4.464707E+05 -2.407266E+05 -4.469334E+04  1.481103E+04 -1.456537E+05 -1.329591E+04
       302   9 -4.322019E+05  5.630806E+04  1.317540E+05  1.593959E+04 -2.193808E+05 -5.161863E+03
       302  10  1.061264E+06  1.677358E+05  2.671129E+05 -2.296602E+03 -9.273407E-11  8.497580E-10
       302  11  1.046682E+06  1.315271E+05  3.243356E+05 -4.224759E+03 -1.027014E-09  9.307443E-10
       302  12  1.133151E+06  4.465641E+05  5.212877E+05 -6.266062E+04  1.264571E-10 -5.873952E-10
       302  13  3.502243E+05 -9.600354E+03  9.118200E+04 -2.257544E+04  6.259165E-10  1.077267E-09
       302  14  2.998409E+05 -5.458210E+04  1.398217E+05  5.298215E+03 -2.078818E-09  4.048982E-09
       302  15  3.501694E+05  2.514496E+05  3.264981E+05 -2.333600E+04 -2.005659E-10 -4.236691E-10
       302  16 -3.603556E+05 -1.869728E+05 -8.478629E+04 -4.283118E+04  1.329168E-09  6.173247E-10
       302  17 -4.464935E+05 -2.407325E+05 -4.473356E+04  1.480947E+04  5.452904E-10 -1.313165E-10
       302  18 -4.322536E+05  5.629510E+04  1.316634E+05  1.593868E+04  1.042107E-09 -1.398968E-09
       302  19  1.061269E+06  1.677372E+05  2.671219E+05 -2.296002E+03  6.842157E+04  1.089048E+04
       302  20  1.046705E+06  1.315331E+05  3.243767E+05 -4.223182E+03  1.473492E+05  1.329247E+04
       302  21  1.133206E+06  4.465779E+05  5.213838E+05 -6.265968E+04  2.263087E+05  5.152689E+03
       302  22  3.502296E+05 -9.598905E+03  9.119147E+04 -2.257482E+04  7.018618E+04  1.089113E+04
       302  23  2.998640E+05 -5.457615E+04  1.398623E+05  5.299783E+03  1.465009E+05  1.329420E+04
       302  24  3.502227E+05  2.514630E+05  3.265914E+05 -2.333507E+04  2.228426E+05  5.157491E+03
       302  25 -3.603500E+05 -1.869713E+05 -8.477634E+04 -4.283055E+04  7.194875E+04  1.089167E+04
       302  26 -4.464707E+05 -2.407266E+05 -4.469334E+04  1.481103E+04  1.456537E+05  1.329591E+04
       302  27 -4.322019E+05  5.630806E+04  1.317540E+05  1.593959E+04  2.193808E+05  5.161863E+03
       303   1  1.826603E+05  5.309602E+05  2.176935E+05 -5.309062E+04  1.308254E+03  1.062990E+05
       303   2  2.535422E+04  4.573372E+05  1.166905E+05  6.002521E+02  3.629050E+03  6.919505E+04
       303   3  3.413324E+04  4.299060E+05  8.132377E+04 -2.453245E+04  1.612610E+03  3.208512E+04
       303   4  1.188148E+05  2.755730E+05  1.540959E+05 -3.338742E+04  1.313333E+03  1.052087E+05
       303   5 -2.572537E+04  2.525629E+05  6.610098E+04  5.926850E+03  3.629755E+03  6.915966E+04
       303   6 -4.333122E+03  2.755788E+05  4.302990E+04 -3.358263E+04  1.610027E+03  3.310160E+04
       303   7  5.496588E+04  2.024574E+04  9.049360E+04 -1.369231E+04  1.318344E+03  1.041189E+05
       303   8 -7.680799E+04  4.782680E+04  1.550832E+04  1.125171E+04  3.630459E+03  6.912428E+04
       303   9 -4.280095E+04  1.212735E+05  4.734297E+03 -4.263056E+04  1.607414E+03  3.411782E+04
       303  10  1.826573E+05  5.309481E+05  2.176723E+05 -5.309073E+04 -1.861709E-10  1.273137E-10
       303  11  2.535292E+04  4.573320E+05  1.166815E+05  6.000499E+02 -6.561188E-10 -1.040099E-09
       303  12  3.413296E+04  4.299049E+05  8.132183E+04 -2.453249E+04  1.761870E-09 -4.185244E-10
       303  13  1.188118E+05  2.755611E+05  1.540751E+05 -3.338753E+04  4.587788E-10 -5.242676E-10
       303  14 -2.572667E+04  2.525578E+05  6.609197E+04  5.926648E+03 -1.743899E-09  1.206099E-10
       303  15 -4.333418E+03  2.755776E+05  4.302783E+04 -3.358268E+04  1.957720E-11  2.102741E-10
       303  16  5.496297E+04  2.023410E+04  9.047322E+04 -1.369242E+04  2.781474E-10 -1.084051E-10
       303  17 -7.680928E+04  4.782166E+04  1.549931E+04  1.125150E+04  3.412287E-10 -6.249291E-10
       303  18 -4.280126E+04  1.212722E+05  4.732105E+03 -4.263060E+04 -5.182094E-10 -4.388592E-11
       303  19  1.826603E+05  5.309602E+05  2.176935E+05 -5.309062E+04 -1.308254E+03 -1.062990E+05
       303  20  2.535422E+04  4.573372E+05  1.166905E+05  6.002521E+02 -3.629050E+03 -6.919505E+04
       303  21  3.413324E+04  4.299060E+05  8.132377E+04 -2.453245E+04 -1.612610E+03 -3.208512E+04
       303  22  1.188148E+05  2.755730E+05  1.540959E+05 -3.338742E+04 -1.313333E+03 -1.052087E+05
       303  23 -2.572537E+04  2.525629E+05  6.610098E+04  5.926850E+03 -3.629755E+03 -6.915966E+04
       303  24 -4.333122E+03  2.755788E+05  4.302990E+04 -3.358263E+04 -1.610027E+03 -3.310160E+04
       303  25  5.496588E+04  2.024574E+04  9.049360E+04 -1.369231E+04 -1.318344E+03 -1.041189E+05
       303  26 -7.680799E+04  4.782680E+04  1.550832E+04  1.125171E+04 -3.630459E+03 -6.912428E+04
       303  27 -4.280095E+04  1.212735E+05  4.734297E+03 -4.263056E+04 -1.607414E+03 -3.411782E+04
       304   1  5.938925E+03  2.224448E+05  2.444804E+04 -3.602700E+04 -2.415472E+02  2.570233E+04
       304   2 -2.739077E+04  1.686451E+05 -6.251296E+03  5.405250E+03 -1.542821E+03  1.678437E+04
       304   3 -3.648628E+04  1.217218E+05 -2.515910E+04 -3.190258E+04 -2.528528E+03  7.868243E+03
       304   4  1.702620E+04  2.668846E+05  3.552302E+04 -3.347022E+04 -2.421993E+02  2.605913E+04
       304   5 -3.746501E+03  2.634438E+05  1.720626E+04  5.881284E+03 -1.543347E+03  1.706498E+04
       304   6 -2.731918E+02  2.668903E+05  1.073394E+04 -3.350638E+04 -2.528894E+03  8.071953E+03
       304   7  2.811335E+04  3.113262E+05  4.659786E+04 -3.091324E+04 -2.428485E+02  2.641595E+04
       304   8  1.989709E+04  3.582507E+05  4.066315E+04  6.357395E+03 -1.543872E+03  1.734563E+04
       304   9  3.593833E+04  4.120779E+05  4.662541E+04 -3.511055E+04 -2.529262E+03  8.275711E+03
       304  10  5.938748E+03  2.224441E+05  2.444680E+04 -3.602700E+04  5.951253E-10 -2.357515E-10
       304  11 -2.739084E+04  1.686448E+05 -6.251830E+03  5.405271E+03  7.065562E-10 -1.299815E-09
       304  12 -3.648630E+04  1.217218E+05 -2.515923E+04 -3.190256E+04 -9.054140E-10 -5.908648E-10
       304  13  1.702602E+04  2.668839E+05  3.552174E+04 -3.347021E+04  7.212146E-10 -6.854929E-10
       304  14 -3.746581E+03  2.634435E+05  1.720571E+04  5.881305E+03  1.083953E-09 -6.188389E-12
       304  15 -2.732161E+02  2.668902E+05  1.073381E+04 -3.350637E+04  1.404727E-09  2.996247E-10
       304  16  2.811316E+04  3.113254E+05  4.659654E+04 -3.091324E+04 -7.619313E-11  1.590701E-10
       304  17  1.989701E+04  3.582504E+05  4.066258E+04  6.357416E+03 -1.201314E-09 -5.124828E-10
       304  18  3.593831E+04  4.120778E+05  4.662527E+04 -3.511054E+04 -4.933969E-10  1.968971E-10
       304  19  5.938925E+03  2.224448E+05  2.444804E+04 -3.602700E+04  2.415472E+02 -2.570233E+04
       304  20 -2.739077E+04  1.686451E+05 -6.251296E+03  5.405250E+03  1.542821E+03 -1.678437E+04
       304  21 -3.648628E+04  1.217218E+05 -2.515910E+04 -3.190258E+04  2.528528E+03 -7.868243E+03
       304  22  1.702620E+04  2.668846E+05  3.552302E+04 -3.347022E+04  2.421993E+02 -2.605913E+04
       304  23 -3.746501E+03  2.634438E+05  1.720626E+04  5.881284E+03  1.543347E+03 -1.706498E+04
       304  24 -2.731918E+02  2.668903E+05  1.073394E+04 -3.350638E+04  2.528894E+03 -8.071953E+03
       304  25  2.811335E+04  3.113262E+05  4.659786E+04 -3.091324E+04  2.428485E+02 -2.641595E+04
       304  26  1.989709E+04  3.582507E+05  4.066315E+04  6.357395E+03  1.543872E+03 -1.734563E+04
       304  27  3.593833E+04  4.120779E+05  4.662541E+04 -3.511055E+04  2.529262E+03 -8.275711E+03
       305   1 -8.361655E+04 -7.905088E+04 -7.685431E+04 -3.375274E+04 -4.713603E+03  4.940580E+03
       305   2 -9.975534E+04 -1.312205E+05 -9.338525E+04  6.544289E+03 -7.049522E+03  4.220604E+03
       305   3 -1.097832E+05 -1.812286E+05 -1.078136E+05 -3.295299E+04 -2.580625E+03  3.508293E+03
       305   4  2.457826E+03  2.658691E+05  8.632589E+03 -3.372621E+04 -4.715804E+03  6.320503E+03
       305   5 -1.011327E+03  2.646551E+05  4.477501E+03  6.168017E+03 -7.048935E+03  3.966636E+03
       305   6  1.912313E+03  2.658824E+05  3.558652E+03 -3.372886E+04 -2.579151E+03  1.620400E+03
       305   7  8.852330E+04  6.108972E+05  9.411063E+04 -3.369961E+04 -4.718004E+03  7.701191E+03
       305   8  9.772098E+04  6.606730E+05  1.023286E+05  5.791547E+03 -7.048349E+03  3.712505E+03
       305   9  1.135928E+05  7.131747E+05  1.149159E+05 -3.450525E+04 -2.577672E+03 -2.688516E+02
       305  10 -8.361658E+04 -7.905092E+04 -7.685440E+04 -3.375272E+04  1.009261E-10 -8.032082E-11
       305  11 -9.975540E+04 -1.312205E+05 -9.338537E+04  6.544313E+03  9.600949E-10 -7.990600E-10
       305  12 -1.097832E+05 -1.812286E+05 -1.078136E+05 -3.295298E+04  1.219309E-10 -9.136369E-11
       305  13  2.457792E+03  2.658691E+05  8.632473E+03 -3.372618E+04 -1.085926E-09 -3.257676E-10
       305  14 -1.011384E+03  2.646550E+05  4.477378E+03  6.168040E+03  4.079713E-10 -1.149058E-10
       305  15  1.912305E+03  2.658824E+05  3.558634E+03 -3.372886E+04 -1.965894E-10  5.755979E-11
       305  16  8.852326E+04  6.108971E+05  9.411048E+04 -3.369958E+04  4.087002E-10  2.038391E-10
       305  17  9.772092E+04  6.606730E+05  1.023285E+05  5.791568E+03 -2.475996E-10 -5.105001E-10
       305  18  1.135928E+05  7.131747E+05  1.149159E+05 -3.450525E+04 -7.624686E-10 -4.323340E-11
       305  19 -8.361655E+04 -7.905088E+04 -7.685431E+04 -3.375274E+04  4.713603E+03 -4.940580E+03
       305  20 -9.975534E+04 -1.312205E+05 -9.338525E+04  6.544289E+03  7.049522E+03 -4.220604E+03
       305  21 -1.097832E+05 -1.812286E+05 -1.078136E+05 -3.295299E+04  2.580625E+03 -3.508293E+03
       305  22  2.457826E+03  2.658691E+05  8.632589E+03 -3.372621E+04  4.715804E+03 -6.320503E+03
       305  23 -1.011327E+03  2.646551E+05  4.477501E+03  6.168017E+03  7.048935E+03 -3.966636E+03
       305  24  1.912313E+03  2.658824E+05  3.558652E+03 -3.372886E+04  2.579151E+03 -1.620400E+03
       305  25  8.852330E+04  6.108972E+05  9.411063E+04 -3.369961E+04  4.718004E+03 -7.701191E+03
       305  26  9.772098E+04  6.606730E+05  1.023286E+05  5.791547E+03  7.048349E+03 -3.712505E+03
       305  27  1.135928E+05  7.131747E+05  1.149159E+05 -3.450525E+04  2.577672E+03  2.688516E+02
       306   1 -2.027317E+06 -5.800792E+05 -3.815944E+05 -6.836088E+05 -2.067091E+05 -7.640313E+04
       306   2 -1.965052E+06 -2.876919E+05 -1.896867E+05 -7.485902E+05 -1.337741E+05 -4.607058E+04
       306   3 -2.035309E+06 -3.149324E+05 -1.410093E+05 -7.275977E+05 -5.978849E+04 -1.853445E+04
       306   4 -1.845533E+06 -4.763199E+05 -3.245671E+05 -5.983118E+05 -2.058770E+05 -7.610444E+04
       306   5 -1.763035E+06 -2.022664E+05 -1.326819E+05 -6.842871E+05 -1.335502E+05 -4.598886E+04
       306   6 -1.812901E+06 -2.476593E+05 -8.351054E+04 -6.843007E+05 -6.017027E+04 -1.867603E+04
       306   7 -1.663714E+06 -3.725435E+05 -2.675429E+05 -5.129879E+05 -2.050446E+05 -7.580552E+04
       306   8 -1.560979E+06 -1.168357E+05 -7.568093E+04 -6.199641E+05 -1.333261E+05 -4.590710E+04
       306   9 -1.590446E+06 -1.803871E+05 -2.601568E+04 -6.409918E+05 -6.055220E+04 -1.881764E+04
       306  10 -2.027364E+06 -5.800970E+05 -3.816860E+05 -6.836216E+05  7.700898E-12  1.057176E-10
       306  11 -1.965071E+06 -2.876990E+05 -1.897245E+05 -7.485951E+05  3.066396E-10 -1.082072E-10
       306  12 -2.035313E+06 -3.149337E+05 -1.410167E+05 -7.275986E+05 -2.357804E-10  5.753442E-11
       306  13 -1.845580E+06 -4.763375E+05 -3.246579E+05 -5.983244E+05  9.995567E-10 -4.059159E-10
       306  14 -1.763055E+06 -2.022735E+05 -1.327195E+05 -6.842920E+05  1.267450E-09 -3.701169E-10
       306  15 -1.812905E+06 -2.476607E+05 -8.351802E+04 -6.843017E+05  8.148383E-11 -1.136478E-10
       306  16 -1.663761E+06 -3.725610E+05 -2.676329E+05 -5.130005E+05 -2.460206E-10 -7.193091E-11
       306  17 -1.560999E+06 -1.168428E+05 -7.571840E+04 -6.199690E+05 -6.413656E-10 -4.718717E-10
       306  18 -1.590450E+06 -1.803885E+05 -2.602326E+04 -6.409927E+05  7.001700E-11  1.677201E-10
       306  19 -2.027317E+06 -5.800792E+05 -3.815944E+05 -6.836088E+05  2.067091E+05  7.640313E+04
       306  20 -1.965052E+06 -2.876919E+05 -1.896867E+05 -7.485902E+05  1.337741E+05  4.607058E+04
       306  21 -2.035309E+06 -3.149324E+05 -1.410093E+05 -7.275977E+05  5.978849E+04  1.853445E+04
       306  22 -1.845533E+06 -4.763199E+05 -3.245671E+05 -5.983118E+05  2.058770E+05  7.610444E+04
       306  23 -1.763035E+06 -2.022664E+05 -1.326819E+05 -6.842871E+05  1.335502E+05  4.598886E+04
       306  24 -1.812901E+06 -2.476593E+05 -8.351054E+04 -6.843007E+05  6.017027E+04  1.867603E+04
       306  25 -1.663714E+06 -3.725435E+05 -2.675429E+05 -5.129879E+05  2.050446E+05  7.580552E+04
       306  26 -1.560979E+06 -1.168357E+05 -7.568093E+04 -6.199641E+05  1.333261E+05  4.590710E+04
       306  27 -1.590446E+06 -1.803871E+05 -2.601568E+04 -6.409918E+05  6.055220E+04  1.881764E+04
       307   1 -2.003785E+06 -3.680357E+05 -1.252116E+05 -7.247634E+05 -4.758101E+04 -1.440585E+04
       307   2 -1.993153E+06 -3.225008E+05 -8.674735E+04 -7.306961E+05 -3.100972E+04 -7.843232E+03
       307   3 -1.998003E+06 -3.273326E+05 -7.337631E+04 -7.292557E+05 -1.423321E+04 -1.825901E+03
       307   4 -1.800951E+06 -2.865817E+05 -6.872909E+04 -6.646513E+05 -4.746484E+04 -1.436275E+04
       307   5 -1.790882E+06 -2.449504E+05 -3.120726E+04 -6.745117E+05 -3.101058E+04 -7.843714E+03
       307   6 -1.796266E+06 -2.536532E+05 -1.867936E+04 -6.770006E+05 -1.435116E+04 -1.870138E+03
       307   7 -1.598076E+06 -2.051238E+05 -1.225037E+04 -6.045209E+05 -4.734863E+04 -1.431963E+04
       307   8 -1.588572E+06 -1.673974E+05  2.432913E+04 -6.183107E+05 -3.101144E+04 -7.844195E+03
       307   9 -1.594490E+06 -1.799721E+05  3.601396E+04 -6.247304E+05 -1.446915E+04 -1.914389E+03
       307  10 -2.003788E+06 -3.680365E+05 -1.252163E+05 -7.247640E+05 -5.368326E-11  1.199200E-10
       307  11 -1.993154E+06 -3.225011E+05 -8.674928E+04 -7.306963E+05 -7.186080E-10 -6.349121E-10
       307  12 -1.998003E+06 -3.273326E+05 -7.337670E+04 -7.292558E+05  9.652834E-10  6.076513E-11
       307  13 -1.800953E+06 -2.865825E+05 -6.873373E+04 -6.646519E+05 -5.502075E-11  1.169617E-10
       307  14 -1.790883E+06 -2.449508E+05 -3.120919E+04 -6.745119E+05  2.642296E-10 -2.388774E-10
       307  15 -1.796266E+06 -2.536532E+05 -1.867976E+04 -6.770006E+05 -4.584469E-10 -4.175597E-10
       307  16 -1.598078E+06 -2.051246E+05 -1.225499E+04 -6.045214E+05  5.603580E-10 -1.103400E-10
       307  17 -1.588573E+06 -1.673977E+05  2.432720E+04 -6.183109E+05  1.036796E-09 -1.368680E-10
       307  18 -1.594491E+06 -1.799722E+05  3.601356E+04 -6.247304E+05 -7.200709E-11 -4.935816E-10
       307  19 -2.003785E+06 -3.680357E+05 -1.252116E+05 -7.247634E+05  4.758101E+04  1.440585E+04
       307  20 -1.993153E+06 -3.225008E+05 -8.674735E+04 -7.306961E+05  3.100972E+04  7.843232E+03
       307  21 -1.998003E+06 -3.273326E+05 -7.337631E+04 -7.292557E+05  1.423321E+04  1.825901E+03
       307  22 -1.800951E+06 -2.865817E+05 -6.872909E+04 -6.646513E+05  4.746484E+04  1.436275E+04
       307  23 -1.790882E+06 -2.449504E+05 -3.120726E+04 -6.745117E+05  3.101058E+04  7.843714E+03
       307  24 -1.796266E+06 -2.536532E+05 -1.867936E+04 -6.770006E+05  1.435116E+04  1.870138E+03
       307  25 -1.598076E+06 -2.051238E+05 -1.225037E+04 -6.045209E+05  4.734863E+04  1.431963E+04
       307  26 -1.588572E+06 -1.673974E+05  2.432913E+04 -6.183107E+05  3.101144E+04  7.844195E+03
       307  27 -1.594490E+06 -1.799721E+05  3.601396E+04 -6.247304E+05  1.446915E+04  1.914389E+03
       308   1 -1.968760E+06 -3.269581E+05 -6.294181E+04 -7.235165E+05 -1.149099E+04 -1.007585E+03
       308   2 -1.964435E+06 -3.134815E+05 -5.330721E+04 -7.175285E+05 -7.602149E+03  2.551828E+02
       308   3 -1.953835E+06 -3.158023E+05 -4.831006E+04 -7.203090E+05 -3.638645E+03  1.318202E+03
       308   4 -1.793440E+06 -2.601736E+05 -1.489127E+04 -6.752613E+05 -1.150901E+04 -1.014417E+03
       308   5 -1.796248E+06 -2.499206E+05 -7.304665E+03 -6.717596E+05 -7.663888E+03  2.320035E+02
       308   6 -1.792771E+06 -2.554551E+05 -4.319780E+03 -6.770265E+05 -3.744156E+03  1.278677E+03
       308   7 -1.618091E+06 -1.933872E+05  3.315640E+04 -6.269938E+05 -1.152704E+04 -1.021251E+03
       308   8 -1.628034E+06 -1.863581E+05  3.869531E+04 -6.259795E+05 -7.725646E+03  2.088174E+02
       308   9 -1.631683E+06 -1.951065E+05  3.966821E+04 -6.337339E+05 -3.849697E+03  1.239141E+03
       308  10 -1.968760E+06 -3.269581E+05 -6.294206E+04 -7.235165E+05  1.112051E-09  2.115837E-10
       308  11 -1.964435E+06 -3.134815E+05 -5.330732E+04 -7.175285E+05  4.638724E-10  1.474296E-09
       308  12 -1.953835E+06 -3.158023E+05 -4.831009E+04 -7.203090E+05  8.654163E-10  9.761131E-10
       308  13 -1.793440E+06 -2.601736E+05 -1.489153E+04 -6.752613E+05 -6.968082E-11 -3.370211E-10
       308  14 -1.796248E+06 -2.499206E+05 -7.304776E+03 -6.717596E+05 -1.079283E-09 -9.577905E-10
       308  15 -1.792771E+06 -2.554551E+05 -4.319810E+03 -6.770265E+05 -7.162048E-10 -3.810667E-10
       308  16 -1.618091E+06 -1.933873E+05  3.315615E+04 -6.269938E+05 -2.087949E-10 -2.710970E-10
       308  17 -1.628034E+06 -1.863581E+05  3.869520E+04 -6.259795E+05 -1.207180E-09 -9.053143E-11
       308  18 -1.631683E+06 -1.951065E+05  3.966818E+04 -6.337339E+05 -1.896763E-09 -1.555792E-09
       308  19 -1.968760E+06 -3.269581E+05 -6.294181E+04 -7.235165E+05  1.149099E+04  1.007585E+03
       308  20 -1.964435E+06 -3.134815E+05 -5.330721E+04 -7.175285E+05  7.602149E+03 -2.551828E+02
       308  21 -1.953835E+06 -3.158023E+05 -4.831006E+04 -7.203090E+05  3.638645E+03 -1.318202E+03
       308  22 -1.793440E+06 -2.601736E+05 -1.489127E+04 -6.752613E+05  1.150901E+04  1.014417E+03
       308  23 -1.796248E+06 -2.499206E+05 -7.304665E+03 -6.717596E+05  7.663888E+03 -2.320035E+02
       308  24 -1.792771E+06 -2.554551E+05 -4.319780E+03 -6.770265E+05  3.744156E+03 -1.278677E+03
       308  25 -1.618091E+06 -1.933872E+05  3.315640E+04 -6.269938E+05  1.152704E+04  1.021251E+03
       308  26 -1.628034E+06 -1.863581E+05  3.869531E+04 -6.259795E+05  7.725646E+03 -2.088174E+02
       308  27 -1.631683E+06 -1.951065E+05  3.966821E+04 -6.337339E+05  3.849697E+03 -1.239141E+03
       309   1 -1.911372E+06 -3.022553E+05 -3.614823E+04 -7.101109E+05 -2.946699E+03  1.314475E+03
       309   2 -1.906930E+06 -2.908464E+05 -3.180553E+04 -6.999289E+05 -1.770544E+03  1.343179E+03
       309   3 -1.889997E+06 -2.934691E+05 -2.851467E+04 -7.043789E+05 -5.561528E+02  1.269050E+03
       309   4 -1.791669E+06 -2.570668E+05 -3.447216E+03 -6.775781E+05 -3.016339E+03  1.288395E+03
       309   5 -1.797874E+06 -2.497529E+05 -2.001011E+03 -6.703745E+05 -1.863031E+03  1.308578E+03
       309   6 -1.791585E+06 -2.564658E+05 -1.588327E+03 -6.778028E+05 -6.715123E+02  1.225930E+03
       309   7 -1.671952E+06 -2.118774E+05  2.925250E+04 -6.450397E+05 -3.085993E+03  1.262309E+03
       309   8 -1.688808E+06 -2.086589E+05  2.780241E+04 -6.408155E+05 -1.955537E+03  1.273970E+03
       309   9 -1.693163E+06 -2.194621E+05  2.533710E+04 -6.512229E+05 -7.868919E+02  1.182802E+03
       309  10 -1.911372E+06 -3.022553E+05 -3.614825E+04 -7.101109E+05  1.124145E-09  1.042071E-09
       309  11 -1.906930E+06 -2.908464E+05 -3.180554E+04 -6.999289E+05  1.676962E-09  2.254684E-10
       309  12 -1.889997E+06 -2.934691E+05 -2.851467E+04 -7.043789E+05  1.136573E-09 -6.834513E-10
       309  13 -1.791669E+06 -2.570668E+05 -3.447236E+03 -6.775781E+05 -1.061925E-10 -6.762750E-10
       309  14 -1.797874E+06 -2.497530E+05 -2.001021E+03 -6.703745E+05  8.825568E-10  1.219908E-09
       309  15 -1.791585E+06 -2.564658E+05 -1.588330E+03 -6.778028E+05 -3.748279E-11  4.783552E-11
       309  16 -1.671952E+06 -2.118774E+05  2.925248E+04 -6.450397E+05 -4.157008E-10 -6.149022E-10
       309  17 -1.688808E+06 -2.086589E+05  2.780240E+04 -6.408155E+05 -2.652386E-11 -1.157654E-10
       309  18 -1.693163E+06 -2.194621E+05  2.533709E+04 -6.512229E+05  4.979778E-10  6.084880E-10
       309  19 -1.911372E+06 -3.022553E+05 -3.614823E+04 -7.101109E+05  2.946699E+03 -1.314475E+03
       309  20 -1.906930E+06 -2.908464E+05 -3.180553E+04 -6.999289E+05  1.770544E+03 -1.343179E+03
       309  21 -1.889997E+06 -2.934691E+05 -2.851467E+04 -7.043789E+05  5.561528E+02 -1.269050E+03
       309  22 -1.791669E+06 -2.570668E+05 -3.447216E+03 -6.775781E+05  3.016339E+03 -1.288395E+03
       309  23 -1.797874E+06 -2.497529E+05 -2.001011E+03 -6.703745E+05  1.863031E+03 -1.308578E+03
       309  24 -1.791585E+06 -2.564658E+05 -1.588327E+03 -6.778028E+05  6.715123E+02 -1.225930E+03
       309  25 -1.671952E+06 -2.118774E+05  2.925250E+04 -6.450397E+05  3.085993E+03 -1.262309E+03
       309  26 -1.688808E+06 -2.086589E+05  2.780241E+04 -6.408155E+05  1.955537E+03 -1.273970E+03
       309  27 -1.693163E+06 -2.194621E+05  2.533710E+04 -6.512229E+05  7.868919E+02 -1.182802E+03
       310   1 -1.837461E+06 -2.744152E+05 -1.419359E+04 -6.909090E+05 -2.022545E+02  1.076858E+03
       310   2 -1.832410E+06 -2.619935E+05 -1.116085E+04 -6.789170E+05  9.315569E+02  9.713869E+02
       310   3 -1.812912E+06 -2.655253E+05 -9.115705E+03 -6.839050E+05  2.074336E+03  8.418048E+02
       310   4 -1.791154E+06 -2.569292E+05 -1.573214E+03 -6.783102E+05 -3.036122E+02  1.038987E+03
       310   5 -1.798413E+06 -2.492053E+05 -1.874187E+03 -6.697262E+05  8.248467E+02  9.315250E+02
       310   6 -1.791225E+06 -2.574339E+05 -3.158521E+03 -6.781223E+05  1.962252E+03  7.999447E+02
       310   7 -1.744844E+06 -2.394431E+05  1.104698E+04 -6.657106E+05 -4.049784E+02  1.001113E+03
       310   8 -1.764414E+06 -2.364171E+05  7.412380E+03 -6.605350E+05  7.181300E+02  8.916606E+02
       310   9 -1.769538E+06 -2.493424E+05  2.798620E+03 -6.723394E+05  1.850163E+03  7.580831E+02
       310  10 -1.837461E+06 -2.744152E+05 -1.419359E+04 -6.909090E+05  2.791700E-10  2.885355E-10
       310  11 -1.832410E+06 -2.619935E+05 -1.116086E+04 -6.789170E+05 -3.228357E-10  9.478579E-10
       310  12 -1.812912E+06 -2.655253E+05 -9.115715E+03 -6.839050E+05 -7.676151E-10  4.027156E-10
       310  13 -1.791154E+06 -2.569292E+05 -1.573216E+03 -6.783102E+05  1.059999E-09  3.561595E-10
       310  14 -1.798413E+06 -2.492053E+05 -1.874190E+03 -6.697262E+05  7.305994E-10  1.404803E-09
       310  15 -1.791225E+06 -2.574339E+05 -3.158530E+03 -6.781223E+05  1.615489E-09  2.234749E-09
       310  16 -1.744844E+06 -2.394431E+05  1.104698E+04 -6.657106E+05  4.625464E-10  6.980226E-10
       310  17 -1.764414E+06 -2.364171E+05  7.412377E+03 -6.605350E+05 -4.903485E-12 -1.046008E-09
       310  18 -1.769538E+06 -2.493424E+05  2.798612E+03 -6.723394E+05  5.333858E-10  7.928682E-10
       310  19 -1.837461E+06 -2.744152E+05 -1.419359E+04 -6.909090E+05  2.022545E+02 -1.076858E+03
       310  20 -1.832410E+06 -2.619935E+05 -1.116085E+04 -6.789170E+05 -9.315569E+02 -9.713869E+02
       310  21 -1.812912E+06 -2.655253E+05 -9.115705E+03 -6.839050E+05 -2.074336E+03 -8.418048E+02
       310  22 -1.791154E+06 -2.569292E+05 -1.573214E+03 -6.783102E+05  3.036122E+02 -1.038987E+03
       310  23 -1.798413E+06 -2.492053E+05 -1.874187E+03 -6.697262E+05 -8.248467E+02 -9.315250E+02
       310  24 -1.791225E+06 -2.574339E+05 -3.158521E+03 -6.781223E+05 -1.962252E+03 -7.999447E+02
       310  25 -1.744844E+06 -2.394431E+05  1.104698E+04 -6.657106E+05  4.049784E+02 -1.001113E+03
       310  26 -1.764414E+06 -2.364171E+05  7.412380E+03 -6.605350E+05 -7.181300E+02 -8.916606E+02
       310  27 -1.769538E+06 -2.493424E+05  2.798620E+03 -6.723394E+05 -1.850163E+03 -7.580831E+02
       311   1 -1.757499E+06 -2.442529E+05  5.327142E+03 -6.696171E+05  2.787726E+03  7.568906E+02
       311   2 -1.751935E+06 -2.310203E+05  5.951709E+03 -6.573490E+05  6.381782E+03  1.531415E+03
       311   3 -1.734292E+06 -2.386553E+05  2.384673E+03 -6.606376E+05  9.942734E+03  2.395036E+03
       311   4 -1.791501E+06 -2.567320E+05 -3.945968E+03 -6.784763E+05  2.665913E+03  7.113982E+02
       311   5 -1.797839E+06 -2.484262E+05 -6.613327E+03 -6.699034E+05  6.279680E+03  1.493268E+03
       311   6 -1.792102E+06 -2.609924E+05 -1.348822E+04 -6.768872E+05  9.860275E+03  2.364208E+03
       311   7 -1.825502E+06 -2.692111E+05 -1.321917E+04 -6.873351E+05  2.544108E+03  6.659084E+02
       311   8 -1.843741E+06 -2.658321E+05 -1.917856E+04 -6.824569E+05  6.177587E+03  1.455125E+03
       311   9 -1.849910E+06 -2.833294E+05 -2.936143E+04 -6.931355E+05  9.777825E+03  2.333382E+03
       311  10 -1.757499E+06 -2.442529E+05  5.327126E+03 -6.696171E+05  6.438914E-10  5.324131E-10
       311  11 -1.751935E+06 -2.310203E+05  5.951628E+03 -6.573490E+05  2.749560E-10 -4.612899E-10
       311  12 -1.734292E+06 -2.386553E+05  2.384476E+03 -6.606376E+05  1.219532E-09  3.943426E-10
       311  13 -1.791501E+06 -2.567320E+05 -3.945982E+03 -6.784763E+05  1.367951E-09  1.053747E-09
       311  14 -1.797839E+06 -2.484262E+05 -6.613406E+03 -6.699034E+05  1.752986E-10 -9.169407E-10
       311  15 -1.792102E+06 -2.609924E+05 -1.348841E+04 -6.768872E+05  3.568170E-10 -4.304487E-10
       311  16 -1.825502E+06 -2.692111E+05 -1.321918E+04 -6.873351E+05 -8.994957E-11  1.663611E-09
       311  17 -1.843741E+06 -2.658321E+05 -1.917863E+04 -6.824569E+05  5.195716E-12  3.352895E-09
       311  18 -1.849910E+06 -2.833294E+05 -2.936162E+04 -6.931355E+05  5.243317E-10  9.476628E-10
       311  19 -1.757499E+06 -2.442529E+05  5.327142E+03 -6.696171E+05 -2.787726E+03 -7.568906E+02
       311  20 -1.751935E+06 -2.310203E+05  5.951709E+03 -6.573490E+05 -6.381782E+03 -1.531415E+03
       311  21 -1.734292E+06 -2.386553E+05  2.384673E+03 -6.606376E+05 -9.942734E+03 -2.395036E+03
       311  22 -1.791501E+06 -2.567320E+05 -3.945968E+03 -6.784763E+05 -2.665913E+03 -7.113982E+02
       311  23 -1.797839E+06 -2.484262E+05 -6.613327E+03 -6.699034E+05 -6.279680E+03 -1.493268E+03
       311  24 -1.792102E+06 -2.609924E+05 -1.348822E+04 -6.768872E+05 -9.860275E+03 -2.364208E+03
       311  25 -1.825502E+06 -2.692111E+05 -1.321917E+04 -6.873351E+05 -2.544108E+03 -6.659084E+02
       311  26 -1.843741E+06 -2.658321E+05 -1.917856E+04 -6.824569E+05 -6.177587E+03 -1.455125E+03
       311  27 -1.849910E+06 -2.833294E+05 -2.936143E+04 -6.931355E+05 -9.777825E+03 -2.333382E+03
       312   1 -1.683507E+06 -2.161738E+05  1.291604E+04 -6.513997E+05  1.265787E+04  3.035876E+03
       312   2 -1.675109E+06 -1.975559E+05  4.365281E+03 -6.384254E+05  2.773411E+04  8.123060E+03
       312   3 -1.671859E+06 -2.334567E+05 -2.675513E+04 -6.291692E+05  4.263969E+04  1.366720E+04
       312   4 -1.794133E+06 -2.556202E+05 -1.691355E+04 -6.790613E+05  1.249732E+04  2.975909E+03
       312   5 -1.793652E+06 -2.432627E+05 -2.822705E+04 -6.716309E+05  2.767319E+04  8.100195E+03
       312   6 -1.798343E+06 -2.854490E+05 -6.219276E+04 -6.679182E+05  4.267819E+04  1.368120E+04
       312   7 -1.904747E+06 -2.950662E+05 -4.674422E+04 -7.067187E+05  1.233679E+04  2.915951E+03
       312   8 -1.912182E+06 -2.889684E+05 -6.082064E+04 -7.048307E+05  2.761229E+04  8.077336E+03
       312   9 -1.924811E+06 -3.374395E+05 -9.763186E+04 -7.066598E+05  4.271668E+04  1.369520E+04
       312  10 -1.683507E+06 -2.161739E+05  1.291572E+04 -6.513997E+05  8.562244E-10  6.784307E-11
       312  11 -1.675110E+06 -1.975562E+05  4.363706E+03 -6.384256E+05 -9.562619E-10 -2.115630E-09
       312  12 -1.671861E+06 -2.334574E+05 -2.675891E+04 -6.291697E+05 -8.068680E-10 -9.585158E-11
       312  13 -1.794133E+06 -2.556202E+05 -1.691386E+04 -6.790614E+05  5.161386E-10  4.447979E-10
       312  14 -1.793653E+06 -2.432629E+05 -2.822861E+04 -6.716311E+05 -1.716936E-10 -8.451884E-10
       312  15 -1.798345E+06 -2.854497E+05 -6.219655E+04 -6.679187E+05 -1.197642E-09 -1.154175E-09
       312  16 -1.904748E+06 -2.950662E+05 -4.674452E+04 -7.067187E+05 -3.932479E-10 -3.737656E-10
       312  17 -1.912183E+06 -2.889687E+05 -6.082220E+04 -7.048309E+05 -4.497073E-10 -7.582999E-10
       312  18 -1.924813E+06 -3.374402E+05 -9.763565E+04 -7.066603E+05  1.661915E-10  6.263794E-10
       312  19 -1.683507E+06 -2.161738E+05  1.291604E+04 -6.513997E+05 -1.265787E+04 -3.035876E+03
       312  20 -1.675109E+06 -1.975559E+05  4.365281E+03 -6.384254E+05 -2.773411E+04 -8.123060E+03
       312  21 -1.671859E+06 -2.334567E+05 -2.675513E+04 -6.291692E+05 -4.263969E+04 -1.366720E+04
       312  22 -1.794133E+06 -2.556202E+05 -1.691355E+04 -6.790613E+05 -1.249732E+04 -2.975909E+03
       312  23 -1.793652E+06 -2.432627E+05 -2.822705E+04 -6.716309E+05 -2.767319E+04 -8.100195E+03
       312  24 -1.798343E+06 -2.854490E+05 -6.219276E+04 -6.679182E+05 -4.267819E+04 -1.368120E+04
       312  25 -1.904747E+06 -2.950662E+05 -4.674422E+04 -7.067187E+05 -1.233679E+04 -2.915951E+03
       312  26 -1.912182E+06 -2.889684E+05 -6.082064E+04 -7.048307E+05 -2.761229E+04 -8.077336E+03
       312  27 -1.924811E+06 -3.374395E+05 -9.763186E+04 -7.066598E+05 -4.271668E+04 -1.369520E+04
       313   1 -1.629423E+06 -1.978904E+05 -2.948371E+04 -6.528450E+05  5.469996E+04  1.751052E+04
       313   2 -1.599388E+06 -1.323006E+05 -7.217555E+04 -6.257444E+05  1.206626E+05  4.157751E+04
       313   3 -1.678750E+06 -3.658584E+05 -2.435126E+05 -5.326934E+05  1.856202E+05  6.833658E+04
       313   4 -1.808941E+06 -2.504182E+05 -7.555952E+04 -6.859098E+05  5.426419E+04  1.734903E+04
       313   5 -1.768818E+06 -2.043233E+05 -1.200424E+05 -6.801159E+05  1.208122E+05  4.163147E+04
       313   6 -1.838241E+06 -4.575441E+05 -2.936632E+05 -6.083631E+05  1.863559E+05  6.860050E+04
       313   7 -1.988427E+06 -3.029468E+05 -1.216378E+05 -7.189674E+05  5.382854E+04  1.718756E+04
       313   8 -1.938220E+06 -2.763421E+05 -1.679119E+05 -7.344733E+05  1.209617E+05  4.168540E+04
       313   9 -1.997704E+06 -5.492161E+05 -3.438161E+05 -6.840116E+05  1.870915E+05  6.886424E+04
       313  10 -1.629426E+06 -1.978916E+05 -2.948993E+04 -6.528457E+05 -8.973358E-10 -6.202475E-10
       313  11 -1.599404E+06 -1.323064E+05 -7.220625E+04 -6.257485E+05 -1.566841E-10  1.746916E-10
       313  12 -1.678788E+06 -3.658727E+05 -2.435863E+05 -5.327036E+05  2.675029E-11  4.253461E-10
       313  13 -1.808944E+06 -2.504194E+05 -7.556563E+04 -6.859105E+05  8.111710E-10  5.676151E-10
       313  14 -1.768834E+06 -2.043291E+05 -1.200731E+05 -6.801200E+05 -1.215840E-09 -5.798875E-10
       313  15 -1.838279E+06 -4.575585E+05 -2.937376E+05 -6.083734E+05 -4.642496E-10  3.250453E-10
       313  16 -1.988430E+06 -3.029479E+05 -1.216439E+05 -7.189682E+05  5.381854E-10  9.794888E-10
       313  17 -1.938236E+06 -2.763479E+05 -1.679428E+05 -7.344774E+05  5.435401E-10  1.753535E-10
       313  18 -1.997743E+06 -5.492306E+05 -3.438910E+05 -6.840220E+05  1.164125E-10  2.048093E-10
       313  19 -1.629423E+06 -1.978904E+05 -2.948371E+04 -6.528450E+05 -5.469996E+04 -1.751052E+04
       313  20 -1.599388E+06 -1.323006E+05 -7.217555E+04 -6.257444E+05 -1.206626E+05 -4.157751E+04
       313  21 -1.678750E+06 -3.658584E+05 -2.435126E+05 -5.326934E+05 -1.856202E+05 -6.833658E+04
       313  22 -1.808941E+06 -2.504182E+05 -7.555952E+04 -6.859098E+05 -5.426419E+04 -1.734903E+04
       313  23 -1.768818E+06 -2.043233E+05 -1.200424E+05 -6.801159E+05 -1.208122E+05 -4.163147E+04
       313  24 -1.838241E+06 -4.575441E+05 -2.936632E+05 -6.083631E+05 -1.863559E+05 -6.860050E+04
       313  25 -1.988427E+06 -3.029468E+05 -1.216378E+05 -7.189674E+05 -5.382854E+04 -1.718756E+04
       313  26 -1.938220E+06 -2.763421E+05 -1.679119E+05 -7.344733E+05 -1.209617E+05 -4.168540E+04
       313  27 -1.997704E+06 -5.492161E+05 -3.438161E+05 -6.840116E+05 -1.870915E+05 -6.886424E+04
       314   1  3.014094E+06  6.218758E+05  8.479598E+05  1.023161E+05  6.698097E+05  5.302859E+03
       314   2  2.909236E+06 -2.885271E+05  2.981101E+05  4.562424E+04  4.415883E+05  9.900153E+03
       314   3  3.099225E+06 -1.437572E+05  1.606945E+05 -7.808079E+04  2.133538E+05  7.227753E+03
       314   4  3.559173E+06  7.565312E+05  9.830146E+05 -2.043171E+04  6.723888E+05  5.177516E+03
       314   5  3.412327E+06 -1.636567E+05  4.220163E+05  1.427626E+04  4.422203E+05  9.878421E+03
       314   6  3.560395E+06 -2.882590E+04  2.745381E+05 -1.803791E+04  2.120547E+05  7.245341E+03
       314   7  4.104554E+06  8.912214E+05  1.118056E+06 -1.432870E+05  6.749699E+05  5.051257E+03
       314   8  3.915649E+06 -3.880139E+04  5.459044E+05 -1.709719E+04  4.428526E+05  9.856641E+03
       314   9  4.021764E+06  8.610294E+04  3.883678E+05  4.204934E+04  2.107545E+05  7.262667E+03
       314  10  3.013614E+06  6.217560E+05  8.471207E+05  1.023132E+05 -1.199915E-09  1.965999E-09
       314  11  2.909027E+06 -2.885792E+05  2.977453E+05  4.562073E+04 -3.254554E-09  1.357117E-09
       314  12  3.099176E+06 -1.437694E+05  1.606093E+05 -7.808203E+04  1.665546E-09  2.374742E-10
       314  13  3.558690E+06  7.564107E+05  9.821697E+05 -2.043451E+04  5.354274E-10  1.286031E-09
       314  14  3.412118E+06 -1.637090E+05  4.216507E+05  1.427275E+04 -2.656426E-09 -1.725080E-09
       314  15  3.560347E+06 -2.883794E+04  2.744540E+05 -1.803915E+04 -1.941054E-10  3.736469E-10
       314  16  4.104067E+06  8.911001E+05  1.117205E+06 -1.432897E+05  1.651751E-09  3.504757E-10
       314  17  3.915440E+06 -3.885371E+04  5.455380E+05 -1.710070E+04  2.051212E-10  1.553794E-09
       314  18  4.021717E+06  8.609105E+04  3.882848E+05  4.204811E+04 -8.637033E-10 -9.219443E-10
       314  19  3.014094E+06  6.218758E+05  8.479598E+05  1.023161E+05 -6.698097E+05 -5.302859E+03
       314  20  2.909236E+06 -2.885271E+05  2.981101E+05  4.562424E+04 -4.415883E+05 -9.900153E+03
       314  21  3.099225E+06 -1.437572E+05  1.606945E+05 -7.808079E+04 -2.133538E+05 -7.227753E+03
       314  22  3.559173E+06  7.565312E+05  9.830146E+05 -2.043171E+04 -6.723888E+05 -5.177516E+03
       314  23  3.412327E+06 -1.636567E+05  4.220163E+05  1.427626E+04 -4.422203E+05 -9.878421E+03
       314  24  3.560395E+06 -2.882590E+04  2.745381E+05 -1.803791E+04 -2.120547E+05 -7.245341E+03
       314  25  4.104554E+06  8.912214E+05  1.118056E+06 -1.432870E+05 -6.749699E+05 -5.051257E+03
       314  26  3.915649E+06 -3.880139E+04  5.459044E+05 -1.709719E+04 -4.428526E+05 -9.856641E+03
       314  27  4.021764E+06  8.610294E+04  3.883678E+05  4.204934E+04 -2.107545E+05 -7.262667E+03
       315   1  3.172584E+06  2.513255E+04  1.446893E+05  3.085766E+03  1.669207E+05  5.226508E+03
       315   2  3.176438E+06 -9.934962E+04  3.433663E+04  1.133515E+04  1.097776E+05  4.940679E+03
       315   3  3.225846E+06 -7.341611E+04 -1.214130E+03 -2.190501E+04  5.263482E+04  3.972953E+03
       315   4  3.504673E+06  1.076263E+05  2.266116E+05 -1.322456E+04  1.670159E+05  5.222022E+03
       315   5  3.482011E+06 -2.339706E+04  1.096936E+05  7.605219E+03  1.096807E+05  4.939708E+03
       315   6  3.504911E+06 -4.012865E+03  6.768152E+04 -1.305295E+04  5.234813E+04  3.973341E+03
       315   7  3.836863E+06  1.901128E+05  3.085260E+05 -2.954361E+04  1.671112E+05  5.217534E+03
       315   8  3.787668E+06  5.254864E+04  1.850436E+05  3.873428E+03  1.095837E+05  4.938738E+03
       315   9  3.784046E+06  6.538488E+04  1.365715E+05 -4.196949E+03  5.206132E+04  3.973721E+03
       315  10  3.172554E+06  2.512509E+04  1.446371E+05  3.085064E+03  1.039526E-11 -1.421131E-09
       315  11  3.176426E+06 -9.935287E+04  3.431405E+04  1.133472E+04  4.817924E-11  1.071692E-09
       315  12  3.225843E+06 -7.341686E+04 -1.219339E+03 -2.190518E+04  4.100043E-10 -3.025582E-10
       315  13  3.504643E+06  1.076188E+05  2.265595E+05 -1.322526E+04  3.546114E-11 -1.053850E-09
       315  14  3.481998E+06 -2.340029E+04  1.096710E+05  7.604783E+03  1.434164E-10  3.882432E-11
       315  15  3.504908E+06 -4.013612E+03  6.767637E+04 -1.305312E+04 -1.017156E-09 -6.045631E-10
       315  16  3.836833E+06  1.901053E+05  3.084738E+05 -2.954431E+04  8.146570E-10  2.553866E-10
       315  17  3.787656E+06  5.254542E+04  1.850211E+05  3.872993E+03 -1.553508E-09 -1.067133E-09
       315  18  3.784043E+06  6.538414E+04  1.365664E+05 -4.197115E+03 -5.677191E-10  4.224395E-10
       315  19  3.172584E+06  2.513255E+04  1.446893E+05  3.085766E+03 -1.669207E+05 -5.226508E+03
       315  20  3.176438E+06 -9.934962E+04  3.433663E+04  1.133515E+04 -1.097776E+05 -4.940679E+03
       315  21  3.225846E+06 -7.341611E+04 -1.214130E+03 -2.190501E+04 -5.263482E+04 -3.972953E+03
       315  22  3.504673E+06  1.076263E+05  2.266116E+05 -1.322456E+04 -1.670159E+05 -5.222022E+03
       315  23  3.482011E+06 -2.339706E+04  1.096936E+05  7.605219E+03 -1.096807E+05 -4.939708E+03
       315  24  3.504911E+06 -4.012865E+03  6.768152E+04 -1.305295E+04 -5.234813E+04 -3.973341E+03
       315  25  3.836863E+06  1.901128E+05  3.085260E+05 -2.954361E+04 -1.671112E+05 -5.217534E+03
       315  26  3.787668E+06  5.254864E+04  1.850436E+05  3.873428E+03 -1.095837E+05 -4.938738E+03
       315  27  3.784046E+06  6.538488E+04  1.365715E+05 -4.196949E+03 -5.206132E+04 -3.973721E+03
       316   1  3.301910E+06 -3.314138E+04  6.067774E+03 -7.987733E+03  4.151707E+04  3.369734E+03
       316   2  3.315884E+06 -4.729997E+04 -1.534160E+04  4.129755E+03  2.707605E+04  2.727326E+03
       316   3  3.337248E+06 -4.009424E+04 -2.200663E+04 -1.131415E+04  1.263420E+04  2.168393E+03
       316   4  3.496396E+06  1.519007E+04  5.398329E+04 -1.001730E+04  4.136303E+04  3.369428E+03
       316   5  3.492727E+06 -3.340027E+03  2.827868E+04  3.768016E+03  2.693807E+04  2.727199E+03
       316   6  3.496443E+06 -5.121908E+02  1.730387E+04 -1.000749E+04  1.251269E+04  2.168359E+03
       316   7  3.690916E+06  6.351873E+04  1.018960E+05 -1.204750E+04  4.120894E+04  3.369122E+03
       316   8  3.669599E+06  4.061760E+04  7.189665E+04  3.406170E+03  2.680006E+04  2.727072E+03
       316   9  3.655660E+06  3.906798E+04  5.661250E+04 -8.700505E+03  1.239115E+04  2.168325E+03
       316  10  3.301909E+06 -3.314185E+04  6.064531E+03 -7.987845E+03  1.123749E-09  8.043812E-10
       316  11  3.315883E+06 -4.730018E+04 -1.534298E+04  4.129696E+03  1.171766E-10  3.138502E-10
       316  12  3.337248E+06 -4.009429E+04 -2.200694E+04 -1.131417E+04 -7.971692E-10  6.846272E-11
       316  13  3.496394E+06  1.518960E+04  5.398008E+04 -1.001741E+04  1.015014E-10 -3.018648E-10
       316  14  3.492727E+06 -3.340228E+03  2.827731E+04  3.767956E+03 -9.626615E-10  1.374213E-10
       316  15  3.496442E+06 -5.122376E+02  1.730357E+04 -1.000751E+04 -1.066994E-09  3.263637E-10
       316  16  3.690914E+06  6.351827E+04  1.018928E+05 -1.204761E+04 -3.341824E-10 -3.069692E-10
       316  17  3.669598E+06  4.061740E+04  7.189529E+04  3.406112E+03 -6.271007E-11 -3.308181E-10
       316  18  3.655660E+06  3.906794E+04  5.661220E+04 -8.700527E+03 -9.490027E-10  5.679079E-10
       316  19  3.301910E+06 -3.314138E+04  6.067774E+03 -7.987733E+03 -4.151707E+04 -3.369734E+03
       316  20  3.315884E+06 -4.729997E+04 -1.534160E+04  4.129755E+03 -2.707605E+04 -2.727326E+03
       316  21  3.337248E+06 -4.009424E+04 -2.200663E+04 -1.131415E+04 -1.263420E+04 -2.168393E+03
       316  22  3.496396E+06  1.519007E+04  5.398329E+04 -1.001730E+04 -4.136303E+04 -3.369428E+03
       316  23  3.492727E+06 -3.340027E+03  2.827868E+04  3.768016E+03 -2.693807E+04 -2.727199E+03
       316  24  3.496443E+06 -5.121908E+02  1.730387E+04 -1.000749E+04 -1.251269E+04 -2.168359E+03
       316  25  3.690916E+06  6.351873E+04  1.018960E+05 -1.204750E+04 -4.120894E+04 -3.369122E+03
       316  26  3.669599E+06  4.061760E+04  7.189665E+04  3.406170E+03 -2.680006E+04 -2.727072E+03
       316  27  3.655660E+06  3.906798E+04  5.661250E+04 -8.700505E+03 -1.239115E+04 -2.168325E+03
       317   1  3.394373E+06 -2.292423E+04 -1.099047E+04 -8.079931E+03  9.828695E+03  1.855012E+03
       317   2  3.406477E+06 -2.238154E+04 -1.326496E+04  1.693715E+03  5.571117E+03  1.342774E+03
       317   3  3.419999E+06 -1.851936E+04 -1.194111E+04 -8.530184E+03  1.313320E+03  9.261923E+02
       317   4  3.495116E+06  2.107911E+03  1.380987E+04 -8.329777E+03  9.694866E+03  1.854973E+03
       317   5  3.494413E+06 -5.230646E+02  8.425597E+03  1.669027E+03  5.459736E+03  1.342760E+03
       317   6  3.495124E+06  1.612680E+02  6.623724E+03 -8.329534E+03  1.224474E+03  9.261950E+02
       317   7  3.595868E+06  2.713930E+04  3.860947E+04 -8.579663E+03  9.561016E+03  1.854935E+03
       317   8  3.582356E+06  2.133484E+04  3.011558E+04  1.644335E+03  5.348340E+03  1.342747E+03
       317   9  3.570254E+06  1.884148E+04  2.518814E+04 -8.128860E+03  1.135617E+03  9.261976E+02
       317  10  3.394373E+06 -2.292426E+04 -1.099065E+04 -8.079946E+03  1.728372E-10 -3.100891E-10
       317  11  3.406477E+06 -2.238155E+04 -1.326502E+04  1.693709E+03 -3.029686E-09  5.019321E-10
       317  12  3.419999E+06 -1.851936E+04 -1.194111E+04 -8.530185E+03 -1.928255E-09 -3.357365E-10
       317  13  3.495116E+06  2.107882E+03  1.380969E+04 -8.329791E+03 -1.800546E-09 -1.159637E-10
       317  14  3.494413E+06 -5.230744E+02  8.425538E+03  1.669021E+03  7.843967E-11 -5.932113E-10
       317  15  3.495124E+06  1.612667E+02  6.623720E+03 -8.329535E+03 -2.119845E-10 -9.334772E-11
       317  16  3.595868E+06  2.713927E+04  3.860929E+04 -8.579677E+03  1.739754E-09 -5.314488E-10
       317  17  3.582355E+06  2.133483E+04  3.011552E+04  1.644329E+03 -3.861820E-10 -5.787949E-10
       317  18  3.570254E+06  1.884148E+04  2.518814E+04 -8.128861E+03  1.672534E-09 -1.091944E-09
       317  19  3.394373E+06 -2.292423E+04 -1.099047E+04 -8.079931E+03 -9.828695E+03 -1.855012E+03
       317  20  3.406477E+06 -2.238154E+04 -1.326496E+04  1.693715E+03 -5.571117E+03 -1.342774E+03
       317  21  3.419999E+06 -1.851936E+04 -1.194111E+04 -8.530184E+03 -1.313320E+03 -9.261923E+02
       317  22  3.495116E+06  2.107911E+03  1.380987E+04 -8.329777E+03 -9.694866E+03 -1.854973E+03
       317  23  3.494413E+06 -5.230646E+02  8.425597E+03  1.669027E+03 -5.459736E+03 -1.342760E+03
       317  24  3.495124E+06  1.612680E+02  6.623724E+03 -8.329534E+03 -1.224474E+03 -9.261950E+02
       317  25  3.595868E+06  2.713930E+04  3.860947E+04 -8.579663E+03 -9.561016E+03 -1.854935E+03
       317  26  3.582356E+06  2.133484E+04  3.011558E+04  1.644335E+03 -5.348340E+03 -1.342747E+03
       317  27  3.570254E+06  1.884148E+04  2.518814E+04 -8.128860E+03 -1.135617E+03 -9.261976E+02
       318   1  3.465374E+06 -7.139066E+03 -8.728379E+02 -7.481217E+03  1.448974E+02  6.974317E+02
       318   2  3.475652E+06 -5.115833E+03  2.628854E+03  8.018892E+02 -3.516670E+03  2.866905E+02
       318   3  3.487088E+06 -3.302209E+02  9.193995E+03 -7.866777E+03 -7.178277E+03 -9.279470E+01
       318   4  3.495068E+06  2.342003E+02  6.413180E+03 -7.652865E+03  4.202768E+01  6.974441E+02
       318   5  3.494486E+06 -4.341465E+02  7.274767E+03  8.231415E+02 -3.612116E+03  2.867049E+02
       318   6  3.495062E+06  1.658610E+03  1.119467E+04 -7.652592E+03 -7.266235E+03 -9.278054E+01
       318   7  3.524763E+06  7.607402E+03  1.369913E+04 -7.824521E+03 -6.084690E+01  6.974565E+02
       318   8  3.513322E+06  4.247514E+03  1.192065E+04  8.443945E+02 -3.707565E+03  2.867193E+02
       318   9  3.503037E+06  3.647436E+03  1.319534E+04 -7.438404E+03 -7.354195E+03 -9.276643E+01
       318  10  3.465374E+06 -7.139066E+03 -8.728388E+02 -7.481217E+03  4.448539E-10  5.112279E-10
       318  11  3.475652E+06 -5.115837E+03  2.628831E+03  8.018900E+02  6.998840E-10 -1.512549E-09
       318  12  3.487088E+06 -3.302347E+02  9.193899E+03 -7.866777E+03 -5.122381E-10  5.843529E-10
       318  13  3.495068E+06  2.341998E+02  6.413179E+03 -7.652865E+03 -1.058894E-09  1.041319E-10
       318  14  3.494486E+06 -4.341500E+02  7.274743E+03  8.231424E+02  1.669502E-10 -2.906976E-10
       318  15  3.495062E+06  1.658596E+03  1.119457E+04 -7.652592E+03  1.925609E-09 -3.578702E-10
       318  16  3.524763E+06  7.607401E+03  1.369913E+04 -7.824521E+03  1.818581E-10  8.740314E-11
       318  17  3.513322E+06  4.247510E+03  1.192063E+04  8.443954E+02 -1.105815E-09 -5.431948E-10
       318  18  3.503037E+06  3.647421E+03  1.319524E+04 -7.438405E+03  1.166546E-09 -8.758935E-10
       318  19  3.465374E+06 -7.139066E+03 -8.728379E+02 -7.481217E+03 -1.448974E+02 -6.974317E+02
       318  20  3.475652E+06 -5.115833E+03  2.628854E+03  8.018892E+02  3.516670E+03 -2.866905E+02
       318  21  3.487088E+06 -3.302209E+02  9.193995E+03 -7.866777E+03  7.178277E+03  9.279470E+01
       318  22  3.495068E+06  2.342003E+02  6.413180E+03 -7.652865E+03 -4.202768E+01 -6.974441E+02
       318  23  3.494486E+06 -4.341465E+02  7.274767E+03  8.231415E+02  3.612116E+03 -2.867049E+02
       318  24  3.495062E+06  1.658610E+03  1.119467E+04 -7.652592E+03  7.266235E+03  9.278054E+01
       318  25  3.524763E+06  7.607402E+03  1.369913E+04 -7.824521E+03  6.084690E+01 -6.974565E+02
       318  26  3.513322E+06  4.247514E+03  1.192065E+04  8.443945E+02  3.707565E+03 -2.867193E+02
       318  27  3.503037E+06  3.647436E+03  1.319534E+04 -7.438404E+03  7.354195E+03  9.276643E+01
       319   1  3.530734E+06  8.239334E+03  2.240941E+04 -6.825459E+03 -9.435734E+03 -3.139559E+02
       319   2  3.539244E+06  8.825736E+03  3.363351E+04  7.031542E+02 -2.080163E+04 -7.082231E+02
       319   3  3.553412E+06  2.616316E+04  5.641515E+04 -9.494412E+03 -3.216796E+04 -1.094358E+03
       319   4  3.496066E+06 -3.837843E+02  1.382544E+04 -7.825253E+03 -9.531766E+03 -3.139246E+02
       319   5  3.493218E+06 -2.613954E+03  2.228285E+04  1.038277E+03 -2.089496E+04 -7.082267E+02
       319   6  3.496029E+06  1.190714E+04  4.229661E+04 -7.824416E+03 -3.225839E+04 -1.094444E+03
       319   7  3.461399E+06 -9.006988E+03  5.241384E+03 -8.824991E+03 -9.627792E+03 -3.138930E+02
       319   8  3.447194E+06 -1.405380E+04  1.093203E+04  1.373376E+03 -2.098829E+04 -7.082305E+02
       319   9  3.438648E+06 -2.349105E+03  2.817782E+04 -6.154573E+03 -3.234881E+04 -1.094531E+03
       319  10  3.530734E+06  8.239310E+03  2.240924E+04 -6.825462E+03  3.172219E-11  8.051599E-10
       319  11  3.539243E+06  8.825620E+03  3.363270E+04  7.031424E+02  4.493149E-11 -1.005795E-09
       319  12  3.553411E+06  2.616288E+04  5.641322E+04 -9.494440E+03  1.068034E-10 -1.170671E-09
       319  13  3.496066E+06 -3.838086E+02  1.382527E+04 -7.825255E+03  1.226243E-09 -1.836379E-10
       319  14  3.493218E+06 -2.614071E+03  2.228203E+04  1.038265E+03  2.755414E-09 -5.560408E-10
       319  15  3.496028E+06  1.190686E+04  4.229466E+04 -7.824444E+03 -1.017485E-10 -7.179653E-10
       319  16  3.461399E+06 -9.007013E+03  5.241210E+03 -8.824994E+03 -1.760494E-10  5.363067E-10
       319  17  3.447194E+06 -1.405392E+04  1.093120E+04  1.373364E+03  2.751467E-09 -1.121231E-09
       319  18  3.438647E+06 -2.349385E+03  2.817587E+04 -6.154602E+03  2.285636E-10  1.615417E-10
       319  19  3.530734E+06  8.239334E+03  2.240941E+04 -6.825459E+03  9.435734E+03  3.139559E+02
       319  20  3.539244E+06  8.825736E+03  3.363351E+04  7.031542E+02  2.080163E+04  7.082231E+02
       319  21  3.553412E+06  2.616316E+04  5.641515E+04 -9.494412E+03  3.216796E+04  1.094358E+03
       319  22  3.496066E+06 -3.837843E+02  1.382544E+04 -7.825253E+03  9.531766E+03  3.139246E+02
       319  23  3.493218E+06 -2.613954E+03  2.228285E+04  1.038277E+03  2.089496E+04  7.082267E+02
       319  24  3.496029E+06  1.190714E+04  4.229661E+04 -7.824416E+03  3.225839E+04  1.094444E+03
       319  25  3.461399E+06 -9.006988E+03  5.241384E+03 -8.824991E+03  9.627792E+03  3.138930E+02
       319  26  3.447194E+06 -1.405380E+04  1.093203E+04  1.373376E+03  2.098829E+04  7.082305E+02
       319  27  3.438648E+06 -2.349105E+03  2.817782E+04 -6.154573E+03  3.234881E+04  1.094531E+03
       320   1  3.609473E+06  2.343626E+04  7.934816E+04 -2.090887E+03 -4.069806E+04 -1.418468E+03
       320   2  3.606167E+06  1.184409E+04  1.156974E+05 -7.573717E+02 -8.563258E+04 -1.928814E+03
       320   3  3.638134E+06  1.179150E+05  2.106154E+05 -2.195099E+04 -1.305691E+05 -2.096645E+03
       320   4  3.502640E+06 -3.122863E+03  5.296693E+04 -8.885095E+03 -4.085713E+04 -1.418039E+03
       320   5  3.484912E+06 -1.829008E+04  8.580311E+04  2.366177E+03 -8.570166E+04 -1.929279E+03
       320   6  3.502449E+06  8.420263E+04  1.771544E+05 -8.909712E+03 -1.305471E+05 -2.099401E+03
       320   7  3.395817E+06 -2.968266E+04  2.658489E+04 -1.567814E+04 -4.101616E+04 -1.417607E+03
       320   8  3.363671E+06 -4.842531E+04  5.590772E+04  5.489118E+03 -8.577073E+04 -1.929744E+03
       320   9  3.366781E+06  5.048948E+04  1.436921E+05  4.128725E+03 -1.305252E+05 -2.102156E+03
       320  10  3.609471E+06  2.343582E+04  7.934506E+04 -2.090934E+03  1.054296E-09  2.840325E-10
       320  11  3.606159E+06  1.184214E+04  1.156837E+05 -7.575046E+02 -8.295110E-11  1.759772E-10
       320  12  3.638116E+06  1.179105E+05  2.105836E+05 -2.195121E+04 -1.631669E-10 -6.379205E-10
       320  13  3.502638E+06 -3.123310E+03  5.296381E+04 -8.885142E+03  1.213549E-09 -5.331807E-10
       320  14  3.484905E+06 -1.829204E+04  8.578938E+04  2.366044E+03 -1.948565E-12 -3.648139E-10
       320  15  3.502431E+06  8.419808E+04  1.771226E+05 -8.909933E+03 -2.340088E-10 -4.427482E-10
       320  16  3.395816E+06 -2.968311E+04  2.658174E+04 -1.567819E+04 -6.461141E-11 -6.572417E-10
       320  17  3.363663E+06 -4.842727E+04  5.589396E+04  5.488985E+03  6.337671E-10 -4.100656E-10
       320  18  3.366763E+06  5.048494E+04  1.436603E+05  4.128505E+03 -3.682046E-11 -1.338829E-11
       320  19  3.609473E+06  2.343626E+04  7.934816E+04 -2.090887E+03  4.069806E+04  1.418468E+03
       320  20  3.606167E+06  1.184409E+04  1.156974E+05 -7.573717E+02  8.563258E+04  1.928814E+03
       320  21  3.638134E+06  1.179150E+05  2.106154E+05 -2.195099E+04  1.305691E+05  2.096645E+03
       320  22  3.502640E+06 -3.122863E+03  5.296693E+04 -8.885095E+03  4.085713E+04  1.418039E+03
       320  23  3.484912E+06 -1.829008E+04  8.580311E+04  2.366177E+03  8.570166E+04  1.929279E+03
       320  24  3.502449E+06  8.420263E+04  1.771544E+05 -8.909712E+03  1.305471E+05  2.099401E+03
       320  25  3.395817E+06 -2.968266E+04  2.658489E+04 -1.567814E+04  4.101616E+04  1.417607E+03
       320  26  3.363671E+06 -4.842531E+04  5.590772E+04  5.489118E+03  8.577073E+04  1.929744E+03
       320  27  3.366781E+06  5.048948E+04  1.436921E+05  4.128725E+03  1.305252E+05  2.102156E+03
       321   1  3.748781E+06  2.798369E+04  2.646339E+05  3.548439E+04 -1.651227E+05 -3.045651E+03
       321   2  3.654394E+06 -7.235726E+04  3.849795E+05 -1.998006E+04 -3.459496E+05 -4.144111E+03
       321   3  3.789644E+06  6.521298E+05  8.289062E+05 -1.084661E+05 -5.267721E+05 -1.819593E+03
       321   4  3.545890E+06 -2.249455E+04  2.145736E+05 -1.104742E+04 -1.657432E+05 -3.033680E+03
       321   5  3.430611E+06 -1.279209E+05  3.298806E+05  5.166841E+03 -3.456977E+05 -4.158022E+03
       321   6  3.544895E+06  5.914701E+05  7.682490E+05 -1.162846E+04 -5.256415E+05 -1.900373E+03
       321   7  3.343040E+06 -7.296777E+04  1.645114E+05 -5.756408E+04 -1.663634E+05 -3.021614E+03
       321   8  3.206874E+06 -1.834859E+05  2.747784E+05  3.030471E+04 -3.454458E+05 -4.171917E+03
       321   9  3.300219E+06  5.308410E+05  7.075923E+05  8.517119E+04 -5.245113E+05 -1.980830E+03
       321  10  3.748752E+06  2.797642E+04  2.645830E+05  3.548399E+04  3.217196E-10 -1.429522E-10
       321  11  3.654266E+06 -7.238917E+04  3.847559E+05 -1.998122E+04 -6.833351E-10 -3.805878E-10
       321  12  3.789348E+06  6.520559E+05  8.283878E+05 -1.084669E+05  1.163853E-10  3.037682E-10
       321  13  3.545860E+06 -2.250189E+04  2.145222E+05 -1.104782E+04 -4.605977E-09 -9.474958E-10
       321  14  3.430483E+06 -1.279528E+05  3.296573E+05  5.165686E+03  6.879149E-10 -3.672571E-10
       321  15  3.544600E+06  5.913964E+05  7.677327E+05 -1.162926E+04  1.193015E-09 -4.598862E-10
       321  16  3.343011E+06 -7.297516E+04  1.644596E+05 -5.756449E+04 -9.249684E-10 -1.868874E-10
       321  17  3.206747E+06 -1.835177E+05  2.745553E+05  3.030355E+04 -2.139664E-09 -7.564645E-10
       321  18  3.299925E+06  5.307676E+05  7.070781E+05  8.517037E+04  1.422114E-09  8.551419E-10
       321  19  3.748781E+06  2.798369E+04  2.646339E+05  3.548439E+04  1.651227E+05  3.045651E+03
       321  20  3.654394E+06 -7.235726E+04  3.849795E+05 -1.998006E+04  3.459496E+05  4.144111E+03
       321  21  3.789644E+06  6.521298E+05  8.289062E+05 -1.084661E+05  5.267721E+05  1.819593E+03
       321  22  3.545890E+06 -2.249455E+04  2.145736E+05 -1.104742E+04  1.657432E+05  3.033680E+03
       321  23  3.430611E+06 -1.279209E+05  3.298806E+05  5.166841E+03  3.456977E+05  4.158022E+03
       321  24  3.544895E+06  5.914701E+05  7.682490E+05 -1.162846E+04  5.256415E+05  1.900373E+03
       321  25  3.343040E+06 -7.296777E+04  1.645114E+05 -5.756408E+04  1.663634E+05  3.021614E+03
       321  26  3.206874E+06 -1.834859E+05  2.747784E+05  3.030471E+04  3.454458E+05  4.171917E+03
       321  27  3.300219E+06  5.308410E+05  7.075923E+05  8.517119E+04  5.245113E+05  1.980830E+03
       322   1  2.172364E+05  3.624739E+05  3.129201E+05 -4.668649E+04 -3.121831E+03  2.710098E+05
       322   2 -1.640949E+05  3.084378E+05  8.685001E+04 -1.559475E+04 -7.068269E+03  1.736319E+05
       322   3 -1.009585E+05  3.790101E+05  3.547381E+04  2.894735E+04 -6.007323E+03  7.626349E+04
       322   4  3.142074E+05  7.525817E+05  4.099432E+05  4.133821E+03 -3.104761E+03  2.727562E+05
       322   5 -6.898455E+04  6.902496E+05  1.811977E+05 -3.099147E+03 -7.065630E+03  1.741187E+05
       322   6 -7.640829E+03  7.526670E+05  1.279425E+05  3.119921E+03 -6.008461E+03  7.549210E+04
       322   7  4.111768E+05  1.142833E+06  5.069565E+05  5.498616E+04 -3.087416E+03  2.745037E+05
       322   8  2.611555E+04  1.072194E+06  2.755347E+05  9.404238E+03 -7.062973E+03  1.746058E+05
       322   9  8.566885E+04  1.126452E+06  2.204013E+05 -2.272299E+04 -6.009534E+03  7.472024E+04
       322  10  2.172167E+05  3.623951E+05  3.127821E+05 -4.668581E+04  7.473734E-11 -4.958645E-10
       322  11 -1.641030E+05  3.084054E+05  8.679330E+04 -1.559377E+04 -1.698229E-10 -2.606401E-09
       322  12 -1.009601E+05  3.790039E+05  3.546282E+04  2.894772E+04  1.320008E-09 -9.591438E-10
       322  13  3.141874E+05  7.525019E+05  4.098036E+05  4.134502E+03  1.637059E-09  1.868906E-09
       322  14 -6.899273E+04  6.902170E+05  1.811407E+05 -3.098157E+03 -1.343480E-09 -2.964925E-09
       322  15 -7.642395E+03  7.526609E+05  1.279318E+05  3.120286E+03  6.133703E-10  1.134524E-09
       322  16  4.111566E+05  1.142752E+06  5.068151E+05  5.498684E+04 -5.978365E-10 -1.112489E-09
       322  17  2.610733E+04  1.072161E+06  2.754774E+05  9.405231E+03 -1.365724E-09  7.517616E-10
       322  18  8.566732E+04  1.126446E+06  2.203907E+05 -2.272263E+04  7.187952E-10 -5.667269E-10
       322  19  2.172364E+05  3.624739E+05  3.129201E+05 -4.668649E+04  3.121831E+03 -2.710098E+05
       322  20 -1.640949E+05  3.084378E+05  8.685001E+04 -1.559475E+04  7.068269E+03 -1.736319E+05
       322  21 -1.009585E+05  3.790101E+05  3.547381E+04  2.894735E+04  6.007323E+03 -7.626349E+04
       322  22  3.142074E+05  7.525817E+05  4.099432E+05  4.133821E+03  3.104761E+03 -2.727562E+05
       322  23 -6.898455E+04  6.902496E+05  1.811977E+05 -3.099147E+03  7.065630E+03 -1.741187E+05
       322  24 -7.640829E+03  7.526670E+05  1.279425E+05  3.119921E+03  6.008461E+03 -7.549210E+04
       322  25  4.111768E+05  1.142833E+06  5.069565E+05  5.498616E+04  3.087416E+03 -2.745037E+05
       322  26  2.611555E+04  1.072194E+06  2.755347E+05  9.404238E+03  7.062973E+03 -1.746058E+05
       322  27  8.566885E+04  1.126452E+06  2.204013E+05 -2.272299E+04  6.009534E+03 -7.472024E+04
       323   1 -4.324137E+04  3.836831E+05  2.585746E+04 -6.558467E+03 -5.114544E+03  5.369940E+04
       323   2 -1.019845E+05  3.728189E+05 -9.380668E+03 -1.913938E+03 -5.482916E+03  1.450516E+04
       323   3 -5.534438E+04  3.940130E+05  7.363266E+03  1.088267E+04 -4.743275E+03 -2.468767E+04
       323   4  4.359607E+04  7.320558E+05  1.121030E+05  2.306920E+03 -5.114074E+03  5.396065E+04
       323   5 -1.640767E+04  7.160126E+05  7.551139E+04 -1.794569E+03 -5.482675E+03  1.448078E+04
       323   6  2.898986E+04  7.320604E+05  9.108012E+04  2.255653E+03 -4.742432E+03 -2.499737E+04
       323   7  1.304247E+05  1.080539E+06  1.983395E+05  1.117734E+04 -5.113596E+03  5.422203E+04
       323   8  6.916037E+04  1.059313E+06  1.603947E+05 -1.675092E+03 -5.482434E+03  1.445638E+04
       323   9  1.133158E+05  1.070212E+06  1.747885E+05 -6.376035E+03 -4.741581E+03 -2.530723E+04
       323  10 -4.324217E+04  3.836800E+05  2.585199E+04 -6.558246E+03 -3.444353E-10  3.409862E-12
       323  11 -1.019846E+05  3.728187E+05 -9.381120E+03 -1.913874E+03  6.936380E-12 -1.629323E-09
       323  12 -5.534457E+04  3.940124E+05  7.362079E+03  1.088258E+04 -4.588983E-10 -2.493323E-11
       323  13  4.359526E+04  7.320526E+05  1.120975E+05  2.307142E+03 -4.552621E-11  8.131309E-10
       323  14 -1.640776E+04  7.160123E+05  7.551094E+04 -1.794505E+03  9.504787E-10 -1.737979E-09
       323  15  2.898967E+04  7.320598E+05  9.107890E+04  2.255558E+03  1.208085E-09  5.628625E-10
       323  16  1.304239E+05  1.080536E+06  1.983339E+05  1.117756E+04  2.840256E-10 -6.405531E-10
       323  17  6.916028E+04  1.059313E+06  1.603942E+05 -1.675028E+03 -1.874199E-09  7.520220E-10
       323  18  1.133156E+05  1.070211E+06  1.747873E+05 -6.376131E+03  7.308592E-10 -6.339484E-10
       323  19 -4.324137E+04  3.836831E+05  2.585746E+04 -6.558467E+03  5.114544E+03 -5.369940E+04
       323  20 -1.019845E+05  3.728189E+05 -9.380668E+03 -1.913938E+03  5.482916E+03 -1.450516E+04
       323  21 -5.534438E+04  3.940130E+05  7.363266E+03  1.088267E+04  4.743275E+03  2.468767E+04
       323  22  4.359607E+04  7.320558E+05  1.121030E+05  2.306920E+03  5.114074E+03 -5.396065E+04
       323  23 -1.640767E+04  7.160126E+05  7.551139E+04 -1.794569E+03  5.482675E+03 -1.448078E+04
       323  24  2.898986E+04  7.320604E+05  9.108012E+04  2.255653E+03  4.742432E+03  2.499737E+04
       323  25  1.304247E+05  1.080539E+06  1.983395E+05  1.117734E+04  5.113596E+03 -5.422203E+04
       323  26  6.916037E+04  1.059313E+06  1.603947E+05 -1.675092E+03  5.482434E+03 -1.445638E+04
       323  27  1.133158E+05  1.070212E+06  1.747885E+05 -6.376035E+03  4.741581E+03  2.530723E+04
       324   1 -8.234205E+04  4.214039E+05  1.887378E+04 -1.617392E+04 -5.149076E+03 -4.256893E+04
       324   2 -1.278454E+05  3.805263E+05  4.978604E+04  8.452643E+03 -5.434480E+03 -1.116475E+05
       324   3  1.357826E+05  4.264317E+05  2.030588E+05  3.713643E+04 -1.811433E+03 -1.807232E+05
       324   4 -1.879704E+03  7.442622E+05  9.871581E+04  1.331632E+03 -5.150593E+03 -4.203135E+04
       324   5 -4.798900E+04  7.007750E+05  1.289423E+05 -6.831174E+02 -5.432471E+03 -1.120814E+05
       324   6  2.151148E+05  7.441961E+05  2.821593E+05  1.357810E+03 -1.800864E+03 -1.821283E+05
       324   7  7.857603E+04  1.067216E+06  1.785503E+05  1.884631E+04 -5.152080E+03 -4.149349E+04
       324   8  3.186003E+04  1.021117E+06  2.080910E+05 -9.823582E+03 -5.430450E+03 -1.125154E+05
       324   9  2.944442E+05  1.062055E+06  3.612530E+05 -3.443912E+04 -1.790137E+03 -1.835341E+05
       324  10 -8.234257E+04  4.214020E+05  1.887032E+04 -1.617410E+04 -1.363181E-10 -1.530564E-10
       324  11 -1.278487E+05  3.805129E+05  4.976257E+04  8.452154E+03 -5.710762E-10 -3.373466E-10
       324  12  1.357738E+05  4.263966E+05  2.029975E+05  3.713617E+04 -3.126183E-10  3.747402E-10
       324  13 -1.880206E+03  7.442603E+05  9.871244E+04  1.331458E+03  8.780176E-12  8.579915E-10
       324  14 -4.799239E+04  7.007615E+05  1.289187E+05 -6.836076E+02 -8.745290E-10 -5.055976E-10
       324  15  2.151059E+05  7.441605E+05  2.820971E+05  1.357546E+03 -2.227458E-10  1.069880E-10
       324  16  7.857554E+04  1.067214E+06  1.785470E+05  1.884614E+04  1.145584E-09 -3.138132E-10
       324  17  3.185661E+04  1.021103E+06  2.080672E+05 -9.824073E+03 -6.696092E-10  7.169638E-11
       324  18  2.944352E+05  1.062019E+06  3.611898E+05 -3.443938E+04 -5.094895E-10 -2.234901E-10
       324  19 -8.234205E+04  4.214039E+05  1.887378E+04 -1.617392E+04  5.149076E+03  4.256893E+04
       324  20 -1.278454E+05  3.805263E+05  4.978604E+04  8.452643E+03  5.434480E+03  1.116475E+05
       324  21  1.357826E+05  4.264317E+05  2.030588E+05  3.713643E+04  1.811433E+03  1.807232E+05
       324  22 -1.879704E+03  7.442622E+05  9.871581E+04  1.331632E+03  5.150593E+03  4.203135E+04
       324  23 -4.798900E+04  7.007750E+05  1.289423E+05 -6.831174E+02  5.432471E+03  1.120814E+05
       324  24  2.151148E+05  7.441961E+05  2.821593E+05  1.357810E+03  1.800864E+03  1.821283E+05
       324  25  7.857603E+04  1.067216E+06  1.785503E+05  1.884631E+04  5.152080E+03  4.149349E+04
       324  26  3.186003E+04  1.021117E+06  2.080910E+05 -9.823582E+03  5.430450E+03  1.125154E+05
       324  27  2.944442E+05  1.062055E+06  3.612530E+05 -3.443912E+04  1.790137E+03  1.835341E+05
       325   1 -3.671821E+06 -1.301460E+06 -6.807549E+05 -1.360769E+06 -3.130580E+05 -8.579929E+04
       325   2 -3.581940E+06 -1.076988E+06 -4.496556E+05 -1.325199E+06 -2.039136E+05  3.389982E+04
       325   3 -3.537309E+06 -9.706715E+05 -3.480536E+05 -1.280919E+06 -7.735181E+04  1.077777E+05
       325   4 -1.873761E+06 -5.156446E+05 -2.009805E+05 -7.555711E+05 -1.414152E+05 -2.090386E+04
       325   5 -1.848723E+06 -3.888296E+05 -9.476344E+04 -7.887168E+05 -1.182107E+05  6.626025E+04
       325   6 -1.851691E+06 -3.628988E+05 -4.948176E+04 -8.131926E+05 -7.764268E+04  1.076293E+05
       325   7 -7.247262E+04  2.707197E+05  2.786239E+05 -1.486600E+05  3.076905E+04  4.427200E+04
       325   8 -1.123641E+05  2.997421E+05  2.600064E+05 -2.507857E+05 -3.225008E+04  9.873619E+04
       325   9 -1.630286E+05  2.451520E+05  2.490061E+05 -3.442704E+05 -7.793436E+04  1.074806E+05
       325  10 -3.671929E+06 -1.301494E+06 -6.809543E+05 -1.360791E+06 -3.876593E-09 -5.555414E-10
       325  11 -3.581985E+06 -1.077000E+06 -4.497363E+05 -1.325193E+06 -2.037249E-09  6.702558E-10
       325  12 -3.537318E+06 -9.706855E+05 -3.480867E+05 -1.280912E+06  8.706945E-11  5.177848E-10
       325  13 -1.873782E+06 -5.156504E+05 -2.010191E+05 -7.555735E+05 -2.078936E-10  6.389562E-10
       325  14 -1.848739E+06 -3.888380E+05 -9.479797E+04 -7.887105E+05 -4.044232E-09  3.214215E-09
       325  15 -1.851700E+06 -3.629129E+05 -4.951483E+04 -8.131859E+05 -1.893321E-09  3.070182E-10
       325  16 -7.247417E+04  2.707173E+05  2.786184E+05 -1.486611E+05  3.391950E-09  7.295436E-10
       325  17 -1.123678E+05  2.997313E+05  2.599862E+05 -2.507832E+05 -2.648992E-10  1.805918E-09
       325  18 -1.630382E+05  2.451379E+05  2.489730E+05 -3.442637E+05 -1.908576E-09  1.126255E-09
       325  19 -3.671821E+06 -1.301460E+06 -6.807549E+05 -1.360769E+06  3.130580E+05  8.579929E+04
       325  20 -3.581940E+06 -1.076988E+06 -4.496556E+05 -1.325199E+06  2.039136E+05 -3.389982E+04
       325  21 -3.537309E+06 -9.706715E+05 -3.480536E+05 -1.280919E+06  7.735181E+04 -1.077777E+05
       325  22 -1.873761E+06 -5.156446E+05 -2.009805E+05 -7.555711E+05  1.414152E+05  2.090386E+04
       325  23 -1.848723E+06 -3.888296E+05 -9.476344E+04 -7.887168E+05  1.182107E+05 -6.626025E+04
       325  24 -1.851691E+06 -3.628988E+05 -4.948176E+04 -8.131926E+05  7.764268E+04 -1.076293E+05
       325  25 -7.247262E+04  2.707197E+05  2.786239E+05 -1.486600E+05 -3.076905E+04 -4.427200E+04
       325  26 -1.123641E+05  2.997421E+05  2.600064E+05 -2.507857E+05  3.225008E+04 -9.873619E+04
       325  27 -1.630286E+05  2.451520E+05  2.490061E+05 -3.442704E+05  7.793436E+04 -1.074806E+05
       326   1 -3.460390E+06 -9.527467E+05 -3.195905E+05 -1.269565E+06 -7.501279E+04  1.072302E+05
       326   2 -3.369779E+06 -8.990894E+05 -2.755532E+05 -1.234533E+06 -5.655945E+04  1.136914E+05
       326   3 -3.269804E+06 -8.670178E+05 -2.470453E+05 -1.214518E+06 -3.639316E+04  1.156088E+05
       326   4 -1.845468E+06 -3.623234E+05 -3.700584E+04 -8.118444E+05 -7.161733E+04  1.084746E+05
       326   5 -1.850294E+06 -3.478766E+05 -1.939959E+04 -8.060076E+05 -6.166851E+04  1.117282E+05
       326   6 -1.844062E+06 -3.533082E+05 -1.053228E+04 -8.151883E+05 -5.001230E+04  1.104430E+05
       326   7 -2.277672E+05  2.283705E+05  2.454995E+05 -3.529992E+05 -6.821240E+04  1.097228E+05
       326   8 -3.283439E+05  2.035723E+05  2.366922E+05 -3.764941E+05 -6.679091E+04  1.097600E+05
       326   9 -4.161533E+05  1.606020E+05  2.259286E+05 -4.149987E+05 -6.366468E+04  1.052647E+05
       326  10 -3.460400E+06 -9.527605E+05 -3.196226E+05 -1.269559E+06 -4.844193E-09 -1.663170E-09
       326  11 -3.369786E+06 -8.991041E+05 -2.755835E+05 -1.234528E+06 -2.974691E-08 -1.096173E-08
       326  12 -3.269809E+06 -8.670325E+05 -2.470729E+05 -1.214514E+06 -6.262439E-08 -1.915604E-08
       326  13 -1.845477E+06 -3.623374E+05 -3.703756E+04 -8.118382E+05  1.925373E-09 -2.677970E-09
       326  14 -1.850302E+06 -3.478910E+05 -1.943017E+04 -8.060021E+05  8.151468E-10 -1.016777E-08
       326  15 -1.844068E+06 -3.533220E+05 -1.055987E+04 -8.151839E+05 -9.196308E-09 -1.973535E-08
       326  16 -2.277754E+05  2.283563E+05  2.454682E+05 -3.529931E+05  6.642052E-09  5.990160E-09
       326  17 -3.283519E+05  2.035582E+05  2.366612E+05 -3.764882E+05  2.697727E-08  1.352687E-08
       326  18 -4.161606E+05  1.605890E+05  2.259002E+05 -4.149933E+05  3.195920E-08  1.611218E-08
       326  19 -3.460390E+06 -9.527467E+05 -3.195905E+05 -1.269565E+06  7.501279E+04 -1.072302E+05
       326  20 -3.369779E+06 -8.990894E+05 -2.755532E+05 -1.234533E+06  5.655945E+04 -1.136914E+05
       326  21 -3.269804E+06 -8.670178E+05 -2.470453E+05 -1.214518E+06  3.639316E+04 -1.156088E+05
       326  22 -1.845468E+06 -3.623234E+05 -3.700584E+04 -8.118444E+05  7.161733E+04 -1.084746E+05
       326  23 -1.850294E+06 -3.478766E+05 -1.939959E+04 -8.060076E+05  6.166851E+04 -1.117282E+05
       326  24 -1.844062E+06 -3.533082E+05 -1.053228E+04 -8.151883E+05  5.001230E+04 -1.104430E+05
       326  25 -2.277672E+05  2.283705E+05  2.454995E+05 -3.529992E+05  6.821240E+04 -1.097228E+05
       326  26 -3.283439E+05  2.035723E+05  2.366922E+05 -3.764941E+05  6.679091E+04 -1.097600E+05
       326  27 -4.161533E+05  1.606020E+05  2.259286E+05 -4.149987E+05  6.366468E+04 -1.052647E+05
       327   1 -3.206412E+06 -8.447977E+05 -2.331946E+05 -1.197466E+06 -3.362715E+04  1.116921E+05
       327   2 -3.115703E+06 -8.014754E+05 -2.127131E+05 -1.161670E+06 -2.780397E+04  1.055277E+05
       327   3 -3.010798E+06 -7.732439E+05 -1.945898E+05 -1.142467E+06 -2.180847E+04  9.888604E+04
       327   4 -1.843463E+06 -3.533361E+05 -7.905736E+03 -8.151001E+05 -4.693244E+04  1.066494E+05
       327   5 -1.850557E+06 -3.456105E+05 -4.345952E+03 -8.068830E+05 -4.199993E+04  1.001569E+05
       327   6 -1.843291E+06 -3.527975E+05 -2.435715E+03 -8.152608E+05 -3.689585E+04  9.318756E+04
       327   7 -4.785022E+05  1.383220E+05  2.173448E+05 -4.319375E+05 -6.026905E+04  1.015950E+05
       327   8 -5.836824E+05  1.104217E+05  2.039874E+05 -4.514114E+05 -5.622684E+04  9.477451E+04
       327   9 -6.743192E+05  6.778881E+04  1.896883E+05 -4.874734E+05 -5.201350E+04  8.747773E+04
       327  10 -3.206417E+06 -8.448114E+05 -2.332201E+05 -1.197463E+06  3.390653E-08  1.826247E-08
       327  11 -3.115707E+06 -8.014875E+05 -2.127354E+05 -1.161668E+06  2.907228E-08  1.513794E-08
       327  12 -3.010801E+06 -7.732545E+05 -1.946090E+05 -1.142466E+06  7.903155E-09  3.776003E-09
       327  13 -1.843468E+06 -3.533489E+05 -7.931222E+03 -8.150960E+05 -9.985232E-09 -1.967291E-08
       327  14 -1.850561E+06 -3.456217E+05 -4.368095E+03 -8.068796E+05  2.685438E-09 -7.931725E-09
       327  15 -1.843295E+06 -3.528072E+05 -2.454573E+03 -8.152580E+05  2.898951E-09 -7.494608E-10
       327  16 -4.785089E+05  1.383100E+05  2.173186E+05 -4.319326E+05 -6.484214E-08 -2.190495E-08
       327  17 -5.836882E+05  1.104112E+05  2.039646E+05 -4.514071E+05 -3.070255E-08 -1.323039E-08
       327  18 -6.743241E+05  6.777988E+04  1.896689E+05 -4.874698E+05 -4.578629E-09 -3.954345E-09
       327  19 -3.206412E+06 -8.447977E+05 -2.331946E+05 -1.197466E+06  3.362715E+04 -1.116921E+05
       327  20 -3.115703E+06 -8.014754E+05 -2.127131E+05 -1.161670E+06  2.780397E+04 -1.055277E+05
       327  21 -3.010798E+06 -7.732439E+05 -1.945898E+05 -1.142467E+06  2.180847E+04 -9.888604E+04
       327  22 -1.843463E+06 -3.533361E+05 -7.905736E+03 -8.151001E+05  4.693244E+04 -1.066494E+05
       327  23 -1.850557E+06 -3.456105E+05 -4.345952E+03 -8.068830E+05  4.199993E+04 -1.001569E+05
       327  24 -1.843291E+06 -3.527975E+05 -2.435715E+03 -8.152608E+05  3.689585E+04 -9.318756E+04
       327  25 -4.785022E+05  1.383220E+05  2.173448E+05 -4.319375E+05  6.026905E+04 -1.015950E+05
       327  26 -5.836824E+05  1.104217E+05  2.039874E+05 -4.514114E+05  5.622684E+04 -9.477451E+04
       327  27 -6.743192E+05  6.778881E+04  1.896883E+05 -4.874734E+05  5.201350E+04 -8.747773E+04
       328   1 -2.947863E+06 -7.505015E+05 -1.831768E+05 -1.124894E+06 -1.967440E+04  9.433229E+04
       328   2 -2.856362E+06 -7.073955E+05 -1.663558E+05 -1.088706E+06 -1.591394E+04  8.653571E+04
       328   3 -2.750099E+06 -6.790499E+05 -1.500432E+05 -1.069341E+06 -1.213349E+04  7.866815E+04
       328   4 -1.843173E+06 -3.528003E+05 -1.876770E+03 -8.152822E+05 -3.477163E+04  8.863441E+04
       328   5 -1.850517E+06 -3.453554E+05 -1.184295E+03 -8.068840E+05 -3.114285E+04  8.079477E+04
       328   6 -1.843085E+06 -3.526453E+05 -8.971557E+02 -8.153117E+05 -2.749418E+04  7.288414E+04
       328   7 -7.371826E+05  4.502153E+04  1.793934E+05 -5.051536E+05 -4.989734E+04  8.292584E+04
       328   8 -8.435854E+05  1.678840E+04  1.639654E+05 -5.246308E+05 -4.639805E+04  7.504397E+04
       328   9 -9.351772E+05 -2.615265E+04  1.482340E+05 -5.609293E+05 -4.287895E+04  6.709110E+04
       328  10 -2.947865E+06 -7.505111E+05 -1.831943E+05 -1.124893E+06  1.829959E-09 -3.659410E-10
       328  11 -2.856364E+06 -7.074036E+05 -1.663703E+05 -1.088705E+06  2.570939E-09  1.523136E-09
       328  12 -2.750101E+06 -6.790566E+05 -1.500551E+05 -1.069340E+06  2.850317E-09  2.405766E-09
       328  13 -1.843176E+06 -3.528091E+05 -1.893787E+03 -8.152797E+05  9.402681E-10  7.135413E-10
       328  14 -1.850520E+06 -3.453627E+05 -1.198370E+03 -8.068819E+05  1.816254E-10  1.796591E-09
       328  15 -1.843087E+06 -3.526512E+05 -9.085470E+02 -8.153101E+05 -1.037729E-10  1.854630E-09
       328  16 -7.371871E+05  4.501348E+04  1.793758E+05 -5.051503E+05 -1.013845E-09 -2.069522E-10
       328  17 -8.435892E+05  1.678178E+04  1.639507E+05 -5.246280E+05 -2.663430E-09  7.180179E-10
       328  18 -9.351804E+05 -2.615797E+04  1.482221E+05 -5.609270E+05 -4.171122E-09  3.430553E-10
       328  19 -2.947863E+06 -7.505015E+05 -1.831768E+05 -1.124894E+06  1.967440E+04 -9.433229E+04
       328  20 -2.856362E+06 -7.073955E+05 -1.663558E+05 -1.088706E+06  1.591394E+04 -8.653571E+04
       328  21 -2.750099E+06 -6.790499E+05 -1.500432E+05 -1.069341E+06  1.213349E+04 -7.866815E+04
       328  22 -1.843173E+06 -3.528003E+05 -1.876770E+03 -8.152822E+05  3.477163E+04 -8.863441E+04
       328  23 -1.850517E+06 -3.453554E+05 -1.184295E+03 -8.068840E+05  3.114285E+04 -8.079477E+04
       328  24 -1.843085E+06 -3.526453E+05 -8.971557E+02 -8.153117E+05  2.749418E+04 -7.288414E+04
       328  25 -7.371826E+05  4.502153E+04  1.793934E+05 -5.051536E+05  4.989734E+04 -8.292584E+04
       328  26 -8.435854E+05  1.678840E+04  1.639654E+05 -5.246308E+05  4.639805E+04 -7.504397E+04
       328  27 -9.351772E+05 -2.615265E+04  1.482340E+05 -5.609293E+05  4.287895E+04 -6.709110E+04
       329   1 -2.686679E+06 -6.561128E+05 -1.391295E+05 -1.051630E+06 -1.016089E+04  7.397362E+04
       329   2 -2.594377E+06 -6.127669E+05 -1.231952E+05 -1.015220E+06 -6.490312E+03  6.599753E+04
       329   3 -2.487233E+06 -5.842746E+05 -1.076808E+05 -9.957859E+05 -2.816910E+03  5.800043E+04
       329   4 -1.843041E+06 -3.526351E+05 -8.864719E+02 -8.153476E+05 -2.555408E+04  6.818073E+04
       329   5 -1.850422E+06 -3.451358E+05 -1.105752E+03 -8.068751E+05 -2.192209E+04  6.019500E+04
       329   6 -1.842966E+06 -3.524825E+05 -1.716011E+03 -8.153813E+05 -1.828738E+04  5.218824E+04
       329   7 -9.986390E+05 -4.908438E+04  1.373416E+05 -5.787622E+05 -4.096953E+04  6.237949E+04
       329   8 -1.105877E+06 -7.744966E+04  1.209710E+05 -5.982959E+05 -3.737346E+04  5.438511E+04
       329   9 -1.198260E+06 -1.206506E+05  1.042383E+05 -6.348020E+05 -3.377477E+04  4.636970E+04
       329  10 -2.686680E+06 -6.561187E+05 -1.391400E+05 -1.051629E+06  2.238758E-09  1.696148E-09
       329  11 -2.594378E+06 -6.127715E+05 -1.232034E+05 -1.015220E+06  1.624509E-09  5.165748E-10
       329  12 -2.487234E+06 -5.842782E+05 -1.076872E+05 -9.957858E+05  1.148172E-09 -8.085531E-11
       329  13 -1.843043E+06 -3.526402E+05 -8.964244E+02 -8.153462E+05 -5.374004E-10  6.724419E-10
       329  14 -1.850423E+06 -3.451398E+05 -1.113456E+03 -8.068740E+05 -9.526500E-10 -2.071680E-11
       329  15 -1.842967E+06 -3.524855E+05 -1.721751E+03 -8.153805E+05 -6.562493E-11  1.067784E-10
       329  16 -9.986419E+05 -4.908900E+04  1.373311E+05 -5.787601E+05 -2.655088E-09 -1.006615E-10
       329  17 -1.105879E+06 -7.745320E+04  1.209628E+05 -5.982943E+05 -1.978696E-09 -4.256099E-10
       329  18 -1.198262E+06 -1.206532E+05  1.042321E+05 -6.348007E+05 -1.582655E-09  2.980641E-10
       329  19 -2.686679E+06 -6.561128E+05 -1.391295E+05 -1.051630E+06  1.016089E+04 -7.397362E+04
       329  20 -2.594377E+06 -6.127669E+05 -1.231952E+05 -1.015220E+06  6.490312E+03 -6.599753E+04
       329  21 -2.487233E+06 -5.842746E+05 -1.076808E+05 -9.957859E+05  2.816910E+03 -5.800043E+04
       329  22 -1.843041E+06 -3.526351E+05 -8.864719E+02 -8.153476E+05  2.555408E+04 -6.818073E+04
       329  23 -1.850422E+06 -3.451358E+05 -1.105752E+03 -8.068751E+05  2.192209E+04 -6.019500E+04
       329  24 -1.842966E+06 -3.524825E+05 -1.716011E+03 -8.153813E+05  1.828738E+04 -5.218824E+04
       329  25 -9.986390E+05 -4.908438E+04  1.373416E+05 -5.787622E+05  4.096953E+04 -6.237949E+04
       329  26 -1.105877E+06 -7.744966E+04  1.209710E+05 -5.982959E+05  3.737346E+04 -5.438511E+04
       329  27 -1.198260E+06 -1.206506E+05  1.042383E+05 -6.348020E+05  3.377477E+04 -4.636970E+04
       330   1 -2.423366E+06 -5.612422E+05 -9.720877E+04 -9.780464E+05 -6.644526E+02  5.333863E+04
       330   2 -2.330383E+06 -5.177119E+05 -8.265552E+04 -9.414046E+05  4.329236E+03  4.582828E+04
       330   3 -2.222798E+06 -4.894152E+05 -6.959072E+04 -9.218393E+05  9.309279E+03  3.834649E+04
       330   4 -1.842997E+06 -3.524668E+05 -2.223405E+03 -8.154379E+05 -1.616302E+04  4.751826E+04
       330   5 -1.850283E+06 -3.449447E+05 -3.929108E+03 -8.068525E+05 -1.111483E+04  4.003145E+04
       330   6 -1.842992E+06 -3.526686E+05 -7.168405E+03 -8.153476E+05 -6.080604E+03  3.257308E+04
       330   7 -1.262259E+06 -1.436540E+05  9.275735E+04 -6.526842E+05 -3.167718E+04  4.169202E+04
       330   8 -1.369931E+06 -1.721526E+05  7.479395E+04 -6.722014E+05 -2.657169E+04  3.422980E+04
       330   9 -1.463030E+06 -2.159069E+05  5.525169E+04 -7.087943E+05 -2.148051E+04  2.679589E+04
       330  10 -2.423366E+06 -5.612453E+05 -9.721412E+04 -9.780464E+05  2.117259E-09  3.862229E-10
       330  11 -2.330383E+06 -5.177141E+05 -8.265950E+04 -9.414047E+05  7.133212E-10  5.708134E-10
       330  12 -2.222798E+06 -4.894168E+05 -6.959365E+04 -9.218396E+05  5.611174E-10  2.152923E-10
       330  13 -1.842998E+06 -3.524692E+05 -2.228134E+03 -8.154373E+05 -8.120237E-10  3.363558E-10
       330  14 -1.850283E+06 -3.449464E+05 -3.932349E+03 -8.068522E+05  1.235979E-09  5.608256E-10
       330  15 -1.842992E+06 -3.526697E+05 -7.170467E+03 -8.153474E+05  2.677516E-10 -5.401644E-11
       330  16 -1.262261E+06 -1.436561E+05  9.275221E+04 -6.526831E+05 -2.243928E-09  2.774688E-10
       330  17 -1.369933E+06 -1.721540E+05  7.479042E+04 -6.722007E+05 -1.003995E-09 -3.062261E-11
       330  18 -1.463031E+06 -2.159078E+05  5.524948E+04 -7.087939E+05 -1.292447E-09 -4.557368E-10
       330  19 -2.423366E+06 -5.612422E+05 -9.720877E+04 -9.780464E+05  6.644526E+02 -5.333863E+04
       330  20 -2.330383E+06 -5.177119E+05 -8.265552E+04 -9.414046E+05 -4.329236E+03 -4.582828E+04
       330  21 -2.222798E+06 -4.894152E+05 -6.959072E+04 -9.218393E+05 -9.309279E+03 -3.834649E+04
       330  22 -1.842997E+06 -3.524668E+05 -2.223405E+03 -8.154379E+05  1.616302E+04 -4.751826E+04
       330  23 -1.850283E+06 -3.449447E+05 -3.929108E+03 -8.068525E+05  1.111483E+04 -4.003145E+04
       330  24 -1.842992E+06 -3.526686E+05 -7.168405E+03 -8.153476E+05  6.080604E+03 -3.257308E+04
       330  25 -1.262259E+06 -1.436540E+05  9.275735E+04 -6.526842E+05  3.167718E+04 -4.169202E+04
       330  26 -1.369931E+06 -1.721526E+05  7.479395E+04 -6.722014E+05  2.657169E+04 -3.422980E+04
       330  27 -1.463030E+06 -2.159069E+05  5.525169E+04 -7.087943E+05  2.148051E+04 -2.679589E+04
       331   1 -2.158593E+06 -4.667465E+05 -6.091626E+04 -9.046823E+05  1.245906E+04  3.406896E+04
       331   2 -2.066319E+06 -4.226791E+05 -5.228189E+04 -8.649549E+05  2.351140E+04  2.909651E+04
       331   3 -1.962011E+06 -3.986399E+05 -5.100450E+04 -8.413752E+05  3.440360E+04  2.455028E+04
       331   4 -1.843431E+06 -3.526706E+05 -9.560247E+03 -8.155483E+05 -2.980830E+03  2.827819E+04
       331   5 -1.849923E+06 -3.465516E+05 -1.757897E+04 -8.059819E+05  8.874716E+03  2.360815E+04
       331   6 -1.844551E+06 -3.606210E+05 -3.359286E+04 -8.125679E+05  2.056896E+04  1.936367E+04
       331   7 -1.528164E+06 -2.385852E+05  4.179369E+04 -7.263723E+05 -1.842888E+04  2.248429E+04
       331   8 -1.633475E+06 -2.704195E+05  1.712392E+04 -7.469895E+05 -5.767391E+03  1.811785E+04
       331   9 -1.727075E+06 -3.226007E+05 -1.618021E+04 -7.837553E+05  6.731389E+03  1.417619E+04
       331  10 -2.158594E+06 -4.667478E+05 -6.091874E+04 -9.046827E+05 -6.076845E-10 -3.583869E-10
       331  11 -2.066320E+06 -4.226802E+05 -5.228453E+04 -8.649555E+05 -7.292267E-10 -2.650962E-10
       331  12 -1.962012E+06 -3.986409E+05 -5.100787E+04 -8.413758E+05 -1.260994E-10  4.786862E-10
       331  13 -1.843431E+06 -3.526715E+05 -9.561765E+03 -8.155483E+05 -2.549141E-10 -3.394648E-10
       331  14 -1.849923E+06 -3.465522E+05 -1.758017E+04 -8.059820E+05 -5.535107E-10 -1.000566E-11
       331  15 -1.844552E+06 -3.606216E+05 -3.359437E+04 -8.125682E+05 -2.998288E-10  1.384572E-10
       331  16 -1.528165E+06 -2.385858E+05  4.179210E+04 -7.263720E+05  4.526150E-10  2.240516E-10
       331  17 -1.633475E+06 -2.704199E+05  1.712324E+04 -7.469894E+05 -9.098439E-10  4.025197E-11
       331  18 -1.727075E+06 -3.226009E+05 -1.618067E+04 -7.837554E+05  5.854429E-11  2.055590E-10
       331  19 -2.158593E+06 -4.667465E+05 -6.091626E+04 -9.046823E+05 -1.245906E+04 -3.406896E+04
       331  20 -2.066319E+06 -4.226791E+05 -5.228189E+04 -8.649549E+05 -2.351140E+04 -2.909651E+04
       331  21 -1.962011E+06 -3.986399E+05 -5.100450E+04 -8.413752E+05 -3.440360E+04 -2.455028E+04
       331  22 -1.843431E+06 -3.526706E+05 -9.560247E+03 -8.155483E+05  2.980830E+03 -2.827819E+04
       331  23 -1.849923E+06 -3.465516E+05 -1.757897E+04 -8.059819E+05 -8.874716E+03 -2.360815E+04
       331  24 -1.844551E+06 -3.606210E+05 -3.359286E+04 -8.125679E+05 -2.056896E+04 -1.936367E+04
       331  25 -1.528164E+06 -2.385852E+05  4.179369E+04 -7.263723E+05  1.842888E+04 -2.248429E+04
       331  26 -1.633475E+06 -2.704195E+05  1.712392E+04 -7.469895E+05  5.767391E+03 -1.811785E+04
       331  27 -1.727075E+06 -3.226007E+05 -1.618021E+04 -7.837553E+05 -6.731389E+03 -1.417619E+04
       332   1 -1.896412E+06 -3.824237E+05 -5.078216E+04 -8.322761E+05  4.150309E+04  2.207472E+04
       332   2 -1.832537E+06 -3.301719E+05 -7.164424E+04 -7.373533E+05  7.982716E+04  3.035967E+04
       332   3 -1.788556E+06 -3.724593E+05 -1.413431E+05 -6.395486E+05  1.165021E+05  4.306018E+04
       332   4 -1.849721E+06 -3.615414E+05 -4.492941E+04 -8.143254E+05  2.730199E+04  1.675175E+04
       332   5 -1.848800E+06 -3.830338E+05 -8.600463E+04 -7.896983E+05  7.392179E+04  2.813834E+04
       332   6 -1.869447E+06 -5.007374E+05 -1.825126E+05 -7.622017E+05  1.188875E+05  4.393121E+04
       332   7 -1.803027E+06 -3.406582E+05 -3.907564E+04 -7.963731E+05  1.309969E+04  1.142807E+04
       332   8 -1.865057E+06 -4.358821E+05 -1.003634E+05 -8.420392E+05  6.801669E+04  2.591822E+04
       332   9 -1.950304E+06 -6.289478E+05 -2.236760E+05 -8.848247E+05  1.212724E+05  4.480112E+04
       332  10 -1.896414E+06 -3.824247E+05 -5.078633E+04 -8.322769E+05  2.052729E-10  4.030669E-10
       332  11 -1.832544E+06 -3.301747E+05 -7.165800E+04 -7.373553E+05  4.646241E-10  2.217712E-10
       332  12 -1.788571E+06 -3.724649E+05 -1.413722E+05 -6.395527E+05 -5.254414E-10 -2.227346E-10
       332  13 -1.849722E+06 -3.615420E+05 -4.493134E+04 -8.143258E+05  4.075262E-10  6.366693E-10
       332  14 -1.848806E+06 -3.830361E+05 -8.601642E+04 -7.896999E+05  1.196069E-09  5.447798E-10
       332  15 -1.869463E+06 -5.007433E+05 -1.825429E+05 -7.622060E+05  1.920557E-10  7.635116E-11
       332  16 -1.803027E+06 -3.406584E+05 -3.907621E+04 -7.963732E+05 -5.196859E-11  2.973036E-10
       332  17 -1.865063E+06 -4.358840E+05 -1.003734E+05 -8.420407E+05  9.043286E-10  8.272713E-10
       332  18 -1.950320E+06 -6.289540E+05 -2.237075E+05 -8.848291E+05 -1.289068E-10  4.240994E-11
       332  19 -1.896412E+06 -3.824237E+05 -5.078216E+04 -8.322761E+05 -4.150309E+04 -2.207472E+04
       332  20 -1.832537E+06 -3.301719E+05 -7.164424E+04 -7.373533E+05 -7.982716E+04 -3.035967E+04
       332  21 -1.788556E+06 -3.724593E+05 -1.413431E+05 -6.395486E+05 -1.165021E+05 -4.306018E+04
       332  22 -1.849721E+06 -3.615414E+05 -4.492941E+04 -8.143254E+05 -2.730199E+04 -1.675175E+04
       332  23 -1.848800E+06 -3.830338E+05 -8.600463E+04 -7.896983E+05 -7.392179E+04 -2.813834E+04
       332  24 -1.869447E+06 -5.007374E+05 -1.825126E+05 -7.622017E+05 -1.188875E+05 -4.393121E+04
       332  25 -1.803027E+06 -3.406582E+05 -3.907564E+04 -7.963731E+05 -1.309969E+04 -1.142807E+04
       332  26 -1.865057E+06 -4.358821E+05 -1.003634E+05 -8.420392E+05 -6.801669E+04 -2.591822E+04
       332  27 -1.950304E+06 -6.289478E+05 -2.236760E+05 -8.848247E+05 -1.212724E+05 -4.480112E+04
       333   1  8.935146E+05  1.572689E+05  2.171849E+05  4.486248E+04  1.837021E+05  2.021311E+03
       333   2  8.714016E+05 -8.891715E+04  6.822354E+04  1.460279E+04  1.214025E+05  5.442829E+03
       333   3  9.271840E+05 -5.634315E+04  2.951193E+04 -3.209328E+04  5.910282E+04  4.663799E+03
       333   4  1.114406E+06  2.121948E+05  2.718603E+05 -8.215869E+03  1.858997E+05  2.007781E+03
       333   5  1.075388E+06 -3.827303E+04  1.178232E+05  1.118252E+02  1.219620E+05  5.440345E+03
       333   6  1.114518E+06 -9.751831E+03  7.514365E+04 -7.997204E+03  5.802614E+04  4.665236E+03
       333   7  1.335348E+06  2.671276E+05  3.265336E+05 -6.131311E+04  1.880980E+05  1.993880E+03
       333   8  1.279412E+06  1.236884E+04  1.674199E+05 -1.438391E+04  1.225217E+05  5.437836E+03
       333   9  1.301885E+06  3.683908E+04  1.207731E+05  1.610615E+04  5.694913E+04  4.666588E+03
       333  10  8.934784E+05  1.572599E+05  2.171216E+05  4.486219E+04  2.587301E-10 -1.147593E-09
       333  11  8.713858E+05 -8.892113E+04  6.819583E+04  1.460226E+04  8.115891E-10 -2.513191E-10
       333  12  9.271802E+05 -5.634411E+04  2.950534E+04 -3.209350E+04 -1.661715E-09 -1.089331E-09
       333  13  1.114369E+06  2.121855E+05  2.717955E+05 -8.216169E+03 -1.233621E-10  5.952885E-10
       333  14  1.075372E+06 -3.827704E+04  1.177952E+05  1.112911E+02 -1.471859E-09 -5.426885E-10
       333  15  1.114515E+06 -9.752757E+03  7.513729E+04 -7.997422E+03  2.007240E-09 -1.224548E-09
       333  16  1.335310E+06  2.671181E+05  3.264672E+05 -6.131341E+04 -2.156426E-10  4.680011E-10
       333  17  1.279396E+06  1.236479E+04  1.673917E+05 -1.438445E+04  5.049219E-10 -4.172107E-10
       333  18  1.301882E+06  3.683819E+04  1.207670E+05  1.610593E+04  7.136393E-10  1.190183E-09
       333  19  8.935146E+05  1.572689E+05  2.171849E+05  4.486248E+04 -1.837021E+05 -2.021311E+03
       333  20  8.714016E+05 -8.891715E+04  6.822354E+04  1.460279E+04 -1.214025E+05 -5.442829E+03
       333  21  9.271840E+05 -5.634315E+04  2.951193E+04 -3.209328E+04 -5.910282E+04 -4.663799E+03
       333  22  1.114406E+06  2.121948E+05  2.718603E+05 -8.215869E+03 -1.858997E+05 -2.007781E+03
       333  23  1.075388E+06 -3.827303E+04  1.178232E+05  1.118252E+02 -1.219620E+05 -5.440345E+03
       333  24  1.114518E+06 -9.751831E+03  7.514365E+04 -7.997204E+03 -5.802614E+04 -4.665236E+03
       333  25  1.335348E+06  2.671276E+05  3.265336E+05 -6.131311E+04 -1.880980E+05 -1.993880E+03
       333  26  1.279412E+06  1.236884E+04  1.674199E+05 -1.438391E+04 -1.225217E+05 -5.437836E+03
       333  27  1.301885E+06  3.683908E+04  1.207731E+05  1.610615E+04 -5.694913E+04 -4.666588E+03
       334   1  9.424642E+05 -1.290610E+04  2.338599E+04 -1.787220E+03  4.601892E+04  3.680292E+03
       334   2  9.525944E+05 -3.995321E+04 -3.838274E+03  1.231448E+03  3.032866E+04  3.499190E+03
       334   3  9.734387E+05 -3.253002E+04 -1.222782E+04 -1.089043E+04  1.463823E+04  2.918076E+03
       334   4  1.099512E+06  2.611933E+04  6.168818E+04 -7.787369E+03  4.603781E+04  3.679795E+03
       334   5  1.094153E+06 -4.779412E+03  3.063982E+04 -2.091020E+02  3.019007E+04  3.498994E+03
       334   6  1.099532E+06 -1.185095E+03  1.853191E+04 -7.771047E+03  1.434255E+04  2.917992E+03
       334   7  1.256583E+06  6.514308E+04  9.998859E+04 -1.378904E+04  4.605671E+04  3.679297E+03
       334   8  1.235730E+06  3.039292E+04  6.511646E+04 -1.649983E+03  3.005146E+04  3.498799E+03
       334   9  1.225641E+06  3.015870E+04  4.929049E+04 -4.651030E+03  1.404682E+04  2.917905E+03
       334  10  9.424619E+05 -1.290669E+04  2.338199E+04 -1.787356E+03 -4.961499E-11 -8.110371E-10
       334  11  9.525934E+05 -3.995347E+04 -3.840023E+03  1.231363E+03 -3.676271E-10  4.560898E-10
       334  12  9.734385E+05 -3.253009E+04 -1.222824E+04 -1.089047E+04 -6.602646E-10  2.184427E-10
       334  13  1.099510E+06  2.611874E+04  6.168418E+04 -7.787505E+03 -3.645237E-10  8.471043E-10
       334  14  1.094152E+06 -4.779669E+03  3.063808E+04 -2.091870E+02 -9.120300E-11  7.774104E-10
       334  15  1.099532E+06 -1.185159E+03  1.853151E+04 -7.771081E+03 -4.689472E-10 -3.190237E-10
       334  16  1.256580E+06  6.514249E+04  9.998458E+04 -1.378918E+04  7.050893E-10  6.927886E-10
       334  17  1.235729E+06  3.039266E+04  6.511474E+04 -1.650068E+03  8.158460E-10  2.182650E-10
       334  18  1.225640E+06  3.015864E+04  4.929010E+04 -4.651063E+03  1.623040E-10 -3.602811E-11
       334  19  9.424642E+05 -1.290610E+04  2.338599E+04 -1.787220E+03 -4.601892E+04 -3.680292E+03
       334  20  9.525944E+05 -3.995321E+04 -3.838274E+03  1.231448E+03 -3.032866E+04 -3.499190E+03
       334  21  9.734387E+05 -3.253002E+04 -1.222782E+04 -1.089043E+04 -1.463823E+04 -2.918076E+03
       334  22  1.099512E+06  2.611933E+04  6.168818E+04 -7.787369E+03 -4.603781E+04 -3.679795E+03
       334  23  1.094153E+06 -4.779412E+03  3.063982E+04 -2.091020E+02 -3.019007E+04 -3.498994E+03
       334  24  1.099532E+06 -1.185095E+03  1.853191E+04 -7.771047E+03 -1.434255E+04 -2.917992E+03
       334  25  1.256583E+06  6.514308E+04  9.998859E+04 -1.378904E+04 -4.605671E+04 -3.679297E+03
       334  26  1.235730E+06  3.039292E+04  6.511646E+04 -1.649983E+03 -3.005146E+04 -3.498799E+03
       334  27  1.225641E+06  3.015870E+04  4.929049E+04 -4.651030E+03 -1.404682E+04 -2.917905E+03
       335   1  9.998923E+05 -2.107035E+04 -9.102565E+03 -7.012653E+03  1.157346E+04  2.532800E+03
       335   2  1.013790E+06 -2.120277E+04 -1.234364E+04 -3.307811E+02  7.617610E+03  2.024711E+03
       335   3  1.029285E+06 -1.709939E+04 -1.194847E+04 -8.022045E+03  3.661640E+03  1.486493E+03
       335   4  1.097500E+06  3.176384E+03  1.463872E+04 -7.606311E+03  1.138559E+04  2.532697E+03
       335   5  1.096703E+06 -5.999911E+02  7.854619E+03 -4.192511E+02  7.417591E+03  2.024634E+03
       335   6  1.097504E+06 -1.387533E+02  4.714812E+03 -7.605202E+03  3.449560E+03  1.486439E+03
       335   7  1.195117E+06  2.742242E+04  3.837931E+04 -8.200063E+03  1.119770E+04  2.532595E+03
       335   8  1.179622E+06  2.000229E+04  2.805238E+04 -5.077333E+02  7.217545E+03  2.024558E+03
       335   9  1.165727E+06  1.682154E+04  2.137776E+04 -7.188314E+03  3.237457E+03  1.486384E+03
       335  10  9.998921E+05 -2.107039E+04 -9.102828E+03 -7.012677E+03 -7.493268E-11 -1.288197E-10
       335  11  1.013790E+06 -2.120279E+04 -1.234376E+04 -3.307935E+02 -1.554573E-09 -5.534352E-10
       335  12  1.029285E+06 -1.709940E+04 -1.194850E+04 -8.022049E+03  1.248021E-09 -6.666091E-11
       335  13  1.097500E+06  3.176342E+03  1.463846E+04 -7.606334E+03  8.958321E-10 -1.618288E-10
       335  14  1.096703E+06 -6.000103E+02  7.854508E+03 -4.192632E+02 -1.158498E-09 -2.481795E-11
       335  15  1.097504E+06 -1.387588E+02  4.714786E+03 -7.605206E+03 -9.962912E-10 -3.518374E-10
       335  16  1.195117E+06  2.742238E+04  3.837907E+04 -8.200086E+03 -7.947476E-11 -1.199929E-10
       335  17  1.179622E+06  2.000227E+04  2.805228E+04 -5.077451E+02  9.417491E-10 -6.534887E-10
       335  18  1.165727E+06  1.682154E+04  2.137773E+04 -7.188318E+03 -5.087865E-10  1.728978E-10
       335  19  9.998923E+05 -2.107035E+04 -9.102565E+03 -7.012653E+03 -1.157346E+04 -2.532800E+03
       335  20  1.013790E+06 -2.120277E+04 -1.234364E+04 -3.307811E+02 -7.617610E+03 -2.024711E+03
       335  21  1.029285E+06 -1.709939E+04 -1.194847E+04 -8.022045E+03 -3.661640E+03 -1.486493E+03
       335  22  1.097500E+06  3.176384E+03  1.463872E+04 -7.606311E+03 -1.138559E+04 -2.532697E+03
       335  23  1.096703E+06 -5.999911E+02  7.854619E+03 -4.192511E+02 -7.417591E+03 -2.024634E+03
       335  24  1.097504E+06 -1.387533E+02  4.714812E+03 -7.605202E+03 -3.449560E+03 -1.486439E+03
       335  25  1.195117E+06  2.742242E+04  3.837931E+04 -8.200063E+03 -1.119770E+04 -2.532595E+03
       335  26  1.179622E+06  2.000229E+04  2.805238E+04 -5.077333E+02 -7.217545E+03 -2.024558E+03
       335  27  1.165727E+06  1.682154E+04  2.137776E+04 -7.188314E+03 -3.237457E+03 -1.486384E+03
       336   1  1.056399E+06 -9.758663E+03 -6.179963E+03 -7.481400E+03  2.892650E+03  1.171457E+03
       336   2  1.070569E+06 -6.666439E+03 -4.182727E+03 -5.280850E+02  1.758484E+03  6.458855E+02
       336   3  1.085031E+06 -3.025697E+03 -1.309237E+03 -7.579499E+03  6.242402E+02  1.202369E+02
       336   4  1.097215E+06  3.745521E+02  3.719075E+03 -7.523744E+03  2.690776E+03  1.171413E+03
       336   5  1.097069E+06 -8.164491E+01  2.272944E+03 -5.213647E+02  1.556510E+03  6.458475E+02
       336   6  1.097215E+06  1.063055E+01  1.703043E+03 -7.523675E+03  4.221925E+02  1.202059E+02
       336   7  1.138032E+06  1.050765E+04  1.361799E+04 -7.566091E+03  2.488889E+03  1.171368E+03
       336   8  1.123570E+06  6.503098E+03  8.728564E+03 -5.146441E+02  1.354528E+03  6.458095E+02
       336   9  1.109399E+06  3.046947E+03  4.715312E+03 -7.467850E+03  2.201409E+02  1.201749E+02
       336  10  1.056399E+06 -9.758667E+03 -6.179982E+03 -7.481403E+03  9.449269E-10 -1.782217E-10
       336  11  1.070569E+06 -6.666441E+03 -4.182734E+03 -5.280859E+02  1.230588E-10 -5.088891E-10
       336  12  1.085031E+06 -3.025697E+03 -1.309238E+03 -7.579499E+03 -1.027283E-09  3.665792E-10
       336  13  1.097215E+06  3.745487E+02  3.719059E+03 -7.523747E+03  1.134977E-10 -7.133999E-11
       336  14  1.097069E+06 -8.164601E+01  2.272938E+03 -5.213655E+02  1.367045E-09 -5.533713E-10
       336  15  1.097215E+06  1.063048E+01  1.703043E+03 -7.523675E+03  3.619837E-10  5.426571E-10
       336  16  1.138032E+06  1.050764E+04  1.361798E+04 -7.566094E+03 -2.647542E-10  2.182047E-10
       336  17  1.123570E+06  6.503097E+03  8.728560E+03 -5.146448E+02 -1.143005E-09 -4.476203E-10
       336  18  1.109399E+06  3.046947E+03  4.715312E+03 -7.467850E+03  1.462048E-09 -1.373183E-10
       336  19  1.056399E+06 -9.758663E+03 -6.179963E+03 -7.481400E+03 -2.892650E+03 -1.171457E+03
       336  20  1.070569E+06 -6.666439E+03 -4.182727E+03 -5.280850E+02 -1.758484E+03 -6.458855E+02
       336  21  1.085031E+06 -3.025697E+03 -1.309237E+03 -7.579499E+03 -6.242402E+02 -1.202369E+02
       336  22  1.097215E+06  3.745521E+02  3.719075E+03 -7.523744E+03 -2.690776E+03 -1.171413E+03
       336  23  1.097069E+06 -8.164491E+01  2.272944E+03 -5.213647E+02 -1.556510E+03 -6.458475E+02
       336  24  1.097215E+06  1.063055E+01  1.703043E+03 -7.523675E+03 -4.221925E+02 -1.202059E+02
       336  25  1.138032E+06  1.050765E+04  1.361799E+04 -7.566091E+03 -2.488889E+03 -1.171368E+03
       336  26  1.123570E+06  6.503098E+03  8.728564E+03 -5.146441E+02 -1.354528E+03 -6.458095E+02
       336  27  1.109399E+06  3.046947E+03  4.715312E+03 -7.467850E+03 -2.201409E+02 -1.201749E+02
       337   1  1.112072E+06  3.735104E+03  5.278799E+03 -7.490015E+03  3.247996E+02 -1.856282E+02
       337   2  1.126288E+06  7.196014E+03  8.883361E+03 -5.160801E+02 -5.579797E+02 -7.113704E+02
       337   3  1.140724E+06  1.104943E+04  1.316166E+04 -7.555599E+03 -1.440739E+03 -1.237366E+03
       337   4  1.097200E+06  3.071322E+01  1.611557E+03 -7.525641E+03  1.227436E+02 -1.856595E+02
       337   5  1.097089E+06 -5.915542E+01  1.770452E+03 -5.189155E+02 -7.601033E+02 -7.114093E+02
       337   6  1.097199E+06  2.435230E+02  2.603170E+03 -7.525684E+03 -1.642911E+03 -1.237412E+03
       337   7  1.082327E+06 -3.673694E+03 -2.055701E+03 -7.561266E+03 -7.930752E+01 -1.856908E+02
       337   8  1.067891E+06 -7.314387E+03 -5.342519E+03 -5.217508E+02 -9.622175E+02 -7.114482E+02
       337   9  1.053676E+06 -1.056252E+04 -7.955460E+03 -7.495771E+03 -1.845067E+03 -1.237458E+03
       337  10  1.112072E+06  3.735104E+03  5.278799E+03 -7.490015E+03 -6.462209E-10  5.680726E-10
       337  11  1.126288E+06  7.196013E+03  8.883359E+03 -5.160804E+02  4.527940E-10 -3.748294E-10
       337  12  1.140724E+06  1.104943E+04  1.316166E+04 -7.555600E+03 -1.134226E-09 -4.825754E-10
       337  13  1.097200E+06  3.071317E+01  1.611557E+03 -7.525641E+03  1.978062E-09  8.947404E-10
       337  14  1.097089E+06 -5.915612E+01  1.770450E+03 -5.189160E+02  2.895552E-09  3.620380E-10
       337  15  1.097199E+06  2.435206E+02  2.603162E+03 -7.525685E+03 -2.400430E-09 -2.157933E-10
       337  16  1.082327E+06 -3.673694E+03 -2.055701E+03 -7.561266E+03 -3.279503E-10  3.836732E-10
       337  17  1.067891E+06 -7.314388E+03 -5.342522E+03 -5.217514E+02 -8.840583E-10  1.193696E-10
       337  18  1.053676E+06 -1.056253E+04 -7.955469E+03 -7.495773E+03 -3.498555E-10 -5.780048E-10
       337  19  1.112072E+06  3.735104E+03  5.278799E+03 -7.490015E+03 -3.247996E+02  1.856282E+02
       337  20  1.126288E+06  7.196014E+03  8.883361E+03 -5.160801E+02  5.579797E+02  7.113704E+02
       337  21  1.140724E+06  1.104943E+04  1.316166E+04 -7.555599E+03  1.440739E+03  1.237366E+03
       337  22  1.097200E+06  3.071322E+01  1.611557E+03 -7.525641E+03 -1.227436E+02  1.856595E+02
       337  23  1.097089E+06 -5.915542E+01  1.770452E+03 -5.189155E+02  7.601033E+02  7.114093E+02
       337  24  1.097199E+06  2.435230E+02  2.603170E+03 -7.525684E+03  1.642911E+03  1.237412E+03
       337  25  1.082327E+06 -3.673694E+03 -2.055701E+03 -7.561266E+03  7.930752E+01  1.856908E+02
       337  26  1.067891E+06 -7.314387E+03 -5.342519E+03 -5.217508E+02  9.622175E+02  7.114482E+02
       337  27  1.053676E+06 -1.056252E+04 -7.955460E+03 -7.495771E+03  1.845067E+03  1.237458E+03
       338   1  1.168353E+06  1.755217E+04  2.055083E+04 -7.334991E+03 -1.954370E+03 -1.552792E+03
       338   2  1.182542E+06  2.089527E+04  2.610176E+04 -4.626525E+02 -4.607392E+03 -2.091370E+03
       338   3  1.197798E+06  2.702455E+04  3.407912E+04 -7.992883E+03 -7.260335E+03 -2.599509E+03
       338   4  1.097386E+06 -8.986240E+01  3.219415E+03 -7.611910E+03 -2.166902E+03 -1.552851E+03
       338   5  1.096852E+06 -3.955470E+02  5.228964E+03 -4.109391E+02 -4.807896E+03 -2.091448E+03
       338   6  1.097383E+06  2.083179E+03  9.656926E+03 -7.612659E+03 -7.448748E+03 -2.599608E+03
       338   7  1.026423E+06 -1.773227E+04 -1.411237E+04 -7.888797E+03 -2.379410E+03 -1.552909E+03
       338   8  1.011169E+06 -2.168690E+04 -1.564437E+04 -3.592333E+02 -5.008372E+03 -2.091527E+03
       338   9  9.969776E+05 -2.285893E+04 -1.476599E+04 -7.232496E+03 -7.637131E+03 -2.599708E+03
       338  10  1.168353E+06  1.755217E+04  2.055082E+04 -7.334994E+03 -1.129393E-10  6.977078E-10
       338  11  1.182542E+06  2.089526E+04  2.610171E+04 -4.626603E+02 -1.151752E-09  7.076330E-11
       338  12  1.197797E+06  2.702453E+04  3.407900E+04 -7.992898E+03 -2.737639E-11 -2.902084E-11
       338  13  1.097386E+06 -8.986624E+01  3.219401E+03 -7.611912E+03  1.470660E-10  1.728391E-10
       338  14  1.096852E+06 -3.955579E+02  5.228912E+03 -4.109472E+02  1.136688E-09  5.280517E-10
       338  15  1.097383E+06  2.083157E+03  9.656809E+03 -7.612674E+03  1.208066E-09 -1.725969E-11
       338  16  1.026423E+06 -1.773227E+04 -1.411238E+04 -7.888800E+03 -8.365276E-10 -2.758032E-10
       338  17  1.011169E+06 -2.168691E+04 -1.564442E+04 -3.592417E+02 -1.584867E-09  6.032794E-10
       338  18  9.969775E+05 -2.285896E+04 -1.476612E+04 -7.232512E+03 -7.481355E-10  4.026263E-10
       338  19  1.168353E+06  1.755217E+04  2.055083E+04 -7.334991E+03  1.954370E+03  1.552792E+03
       338  20  1.182542E+06  2.089527E+04  2.610176E+04 -4.626525E+02  4.607392E+03  2.091370E+03
       338  21  1.197798E+06  2.702455E+04  3.407912E+04 -7.992883E+03  7.260335E+03  2.599509E+03
       338  22  1.097386E+06 -8.986240E+01  3.219415E+03 -7.611910E+03  2.166902E+03  1.552851E+03
       338  23  1.096852E+06 -3.955470E+02  5.228964E+03 -4.109391E+02  4.807896E+03  2.091448E+03
       338  24  1.097383E+06  2.083179E+03  9.656926E+03 -7.612659E+03  7.448748E+03  2.599608E+03
       338  25  1.026423E+06 -1.773227E+04 -1.411237E+04 -7.888797E+03  2.379410E+03  1.552909E+03
       338  26  1.011169E+06 -2.168690E+04 -1.564437E+04 -3.592333E+02  5.008372E+03  2.091527E+03
       338  27  9.969776E+05 -2.285893E+04 -1.476599E+04 -7.232496E+03  7.637131E+03  2.599708E+03
       339   1  1.227700E+06  3.127539E+04  4.366388E+04 -5.717413E+03 -9.100004E+03 -2.985900E+03
       339   2  1.239670E+06  3.275613E+04  5.533301E+04 -1.122326E+03 -1.967795E+04 -3.565444E+03
       339   3  1.258743E+06  5.691823E+04  7.956163E+04 -1.170653E+04 -3.025645E+04 -3.738279E+03
       339   4  1.098719E+06 -7.810363E+02  1.220575E+04 -7.781380E+03 -9.397944E+03 -2.986033E+03
       339   5  1.095174E+06 -3.141954E+03  2.014528E+04 -1.971824E+02 -1.981736E+04 -3.565603E+03
       339   6  1.098706E+06  1.715389E+04  4.053648E+04 -7.792383E+03 -3.023705E+04 -3.738522E+03
       339   7  9.697537E+05 -3.283868E+04 -1.925359E+04 -9.844920E+03 -9.695822E+03 -2.986164E+03
       339   8  9.506968E+05 -3.904157E+04 -1.504397E+04  7.277436E+02 -1.995673E+04 -3.565762E+03
       339   9  9.386911E+05 -2.261228E+04  1.509486E+03 -3.879245E+03 -3.021766E+04 -3.738766E+03
       339  10  1.227700E+06  3.127536E+04  4.366370E+04 -5.717435E+03 -5.345793E-10 -4.734846E-10
       339  11  1.239670E+06  3.275601E+04  5.533226E+04 -1.122383E+03 -1.406751E-09 -7.823607E-10
       339  12  1.258742E+06  5.691797E+04  7.955989E+04 -1.170663E+04 -5.177314E-10 -1.011092E-09
       339  13  1.098719E+06 -7.810696E+02  1.220557E+04 -7.781403E+03 -8.291292E-10 -3.836139E-10
       339  14  1.095174E+06 -3.142073E+03  2.014452E+04 -1.972393E+02 -6.847009E-10 -6.686720E-10
       339  15  1.098705E+06  1.715363E+04  4.053474E+04 -7.792474E+03  1.788007E-10 -4.488241E-10
       339  16  9.697536E+05 -3.283871E+04 -1.925378E+04 -9.844943E+03  6.566494E-10 -7.285268E-11
       339  17  9.506964E+05 -3.904169E+04 -1.504474E+04  7.276863E+02  1.824698E-09  1.035046E-09
       339  18  9.386901E+05 -2.261254E+04  1.507746E+03 -3.879336E+03  9.193911E-10  1.714028E-10
       339  19  1.227700E+06  3.127539E+04  4.366388E+04 -5.717413E+03  9.100004E+03  2.985900E+03
       339  20  1.239670E+06  3.275613E+04  5.533301E+04 -1.122326E+03  1.967795E+04  3.565444E+03
       339  21  1.258743E+06  5.691823E+04  7.956163E+04 -1.170653E+04  3.025645E+04  3.738279E+03
       339  22  1.098719E+06 -7.810363E+02  1.220575E+04 -7.781380E+03  9.397944E+03  2.986033E+03
       339  23  1.095174E+06 -3.141954E+03  2.014528E+04 -1.971824E+02  1.981736E+04  3.565603E+03
       339  24  1.098706E+06  1.715389E+04  4.053648E+04 -7.792383E+03  3.023705E+04  3.738522E+03
       339  25  9.697537E+05 -3.283868E+04 -1.925359E+04 -9.844920E+03  9.695822E+03  2.986164E+03
       339  26  9.506968E+05 -3.904157E+04 -1.504397E+04  7.277436E+02  1.995673E+04  3.565762E+03
       339  27  9.386911E+05 -2.261228E+04  1.509486E+03 -3.879245E+03  3.021766E+04  3.738766E+03
       340   1  1.299033E+06  4.093411E+04  9.575540E+04  7.855958E+03 -3.702120E+04 -4.730418E+03
       340   2  1.290000E+06  2.628142E+04  1.277628E+05 -9.349851E+03 -8.068307E+04 -5.487288E+03
       340   3  1.332622E+06  1.951736E+05  2.340665E+05 -4.298435E+04 -1.243499E+05 -1.967768E+03
       340   4  1.108567E+06 -6.412239E+03  4.937402E+04 -8.017091E+03 -3.811411E+04 -4.730358E+03
       340   5  1.082837E+06 -2.514931E+04  7.740081E+04  1.231585E+02 -8.012018E+04 -5.488152E+03
       340   6  1.108491E+06  1.394019E+05  1.785929E+05 -8.163958E+03 -1.221299E+05 -1.972487E+03
       340   7  9.181352E+05 -5.376032E+04  2.990154E+03 -2.388527E+04 -3.920668E+04 -4.730242E+03
       340   8  8.757137E+05 -7.658284E+04  2.703572E+04  9.592996E+03 -7.955747E+04 -5.488998E+03
       340   9  8.844081E+05  8.363107E+04  1.231162E+05  2.664387E+04 -1.199107E+05 -1.976959E+03
       340  10  1.299031E+06  4.093372E+04  9.575279E+04  7.855817E+03  3.124965E-10 -1.502035E-09
       340  11  1.289993E+06  2.627964E+04  1.277506E+05 -9.350208E+03  8.557198E-11 -3.427578E-09
       340  12  1.332605E+06  1.951695E+05  2.340375E+05 -4.298455E+04 -6.820912E-10 -1.354742E-09
       340  13  1.108566E+06 -6.412652E+03  4.937126E+04 -8.017236E+03  3.229227E-10 -3.616705E-09
       340  14  1.082830E+06 -2.515106E+04  7.738871E+04  1.228045E+02 -1.765014E-09  5.726040E-10
       340  15  1.108475E+06  1.393979E+05  1.785649E+05 -8.164152E+03  2.498960E-09 -4.450673E-10
       340  16  9.181335E+05 -5.376075E+04  2.987228E+03 -2.388542E+04 -8.332604E-10 -7.342348E-10
       340  17  8.757069E+05 -7.658457E+04  2.702379E+04  9.592645E+03 -3.556971E-10  7.128676E-10
       340  18  8.843926E+05  8.362722E+04  1.230892E+05  2.664368E+04  1.333473E-09 -1.349705E-09
       340  19  1.299033E+06  4.093411E+04  9.575540E+04  7.855958E+03  3.702120E+04  4.730418E+03
       340  20  1.290000E+06  2.628142E+04  1.277628E+05 -9.349851E+03  8.068307E+04  5.487288E+03
       340  21  1.332622E+06  1.951736E+05  2.340665E+05 -4.298435E+04  1.243499E+05  1.967768E+03
       340  22  1.108567E+06 -6.412239E+03  4.937402E+04 -8.017091E+03  3.811411E+04  4.730358E+03
       340  23  1.082837E+06 -2.514931E+04  7.740081E+04  1.231585E+02  8.012018E+04  5.488152E+03
       340  24  1.108491E+06  1.394019E+05  1.785929E+05 -8.163958E+03  1.221299E+05  1.972487E+03
       340  25  9.181352E+05 -5.376032E+04  2.990154E+03 -2.388527E+04  3.920668E+04  4.730242E+03
       340  26  8.757137E+05 -7.658284E+04  2.703572E+04  9.592996E+03  7.955747E+04  5.488998E+03
       340  27  8.844081E+05  8.363107E+04  1.231162E+05  2.664387E+04  1.199107E+05  1.976959E+03
       341   1  1.266831E+06  5.319028E+06  1.316975E+06 -5.573432E+05  3.305859E+04  2.002103E+05
       341   2  8.003413E+05  4.352491E+06  9.379489E+05 -7.759948E+04  8.968342E+04  1.011551E+05
       341   3  6.171572E+05  3.481389E+06  6.960317E+05 -4.911562E+05  5.523866E+04  1.777272E+03
       341   4  1.957204E+05  1.013072E+06  2.529182E+05 -4.981040E+05  3.320508E+04  1.601697E+05
       341   5 -3.869232E+04  9.688603E+05  1.172135E+05 -5.160588E+04  8.974015E+04  9.673104E+04
       341   6  4.897293E+03  1.013647E+06  9.460125E+04 -4.986610E+05  5.499783E+04  3.282067E+04
       341   7 -8.767592E+05 -3.276133E+06 -8.125063E+05 -4.392548E+05  3.334464E+04  1.204017E+05
       341   8 -8.785627E+05 -2.404372E+06 -7.043470E+05 -2.573971E+04  8.979672E+04  9.232974E+04
       341   9 -6.078092E+05 -1.448563E+06 -5.072675E+05 -5.061226E+05  5.475576E+04  6.374130E+04
       341  10  1.266819E+06  5.318985E+06  1.316898E+06 -5.573486E+05 -1.203505E-09  3.379091E-09
       341  11  8.003299E+05  4.352478E+06  9.379146E+05 -7.760676E+04 -2.832402E-09  1.105733E-08
       341  12  6.171539E+05  3.481388E+06  6.960259E+05 -4.911563E+05  1.468667E-09  3.204723E-09
       341  13  1.957123E+05  1.013044E+06  2.528679E+05 -4.981083E+05  5.060803E-10 -2.419358E-09
       341  14 -3.870348E+04  9.688481E+05  1.171808E+05 -5.161287E+04 -1.383984E-09  4.899098E-11
       341  15  4.893753E+03  1.013645E+06  9.459353E+04 -4.986624E+05 -4.071143E-10 -2.097572E-08
       341  16 -8.767643E+05 -3.276149E+06 -8.125358E+05 -4.392581E+05 -1.098176E-10 -2.226789E-09
       341  17 -8.785736E+05 -2.404383E+06 -7.043782E+05 -2.574640E+04  2.894392E-09 -1.162382E-08
       341  18 -6.078135E+05 -1.448568E+06 -5.072808E+05 -5.061254E+05 -2.501818E-09 -1.209255E-08
       341  19  1.266831E+06  5.319028E+06  1.316975E+06 -5.573432E+05 -3.305859E+04 -2.002103E+05
       341  20  8.003413E+05  4.352491E+06  9.379489E+05 -7.759948E+04 -8.968342E+04 -1.011551E+05
       341  21  6.171572E+05  3.481389E+06  6.960317E+05 -4.911562E+05 -5.523866E+04 -1.777272E+03
       341  22  1.957204E+05  1.013072E+06  2.529182E+05 -4.981040E+05 -3.320508E+04 -1.601697E+05
       341  23 -3.869232E+04  9.688603E+05  1.172135E+05 -5.160588E+04 -8.974015E+04 -9.673104E+04
       341  24  4.897293E+03  1.013647E+06  9.460125E+04 -4.986610E+05 -5.499783E+04 -3.282067E+04
       341  25 -8.767592E+05 -3.276133E+06 -8.125063E+05 -4.392548E+05 -3.334464E+04 -1.204017E+05
       341  26 -8.785627E+05 -2.404372E+06 -7.043470E+05 -2.573971E+04 -8.979672E+04 -9.232974E+04
       341  27 -6.078092E+05 -1.448563E+06 -5.072675E+05 -5.061226E+05 -5.475576E+04 -6.374130E+04
       342   1  2.136594E+05  1.742645E+06  2.687218E+05 -5.117004E+05  2.056168E+04  6.643168E+03
       342   2 -5.147649E+04  8.303598E+05  4.269574E+04 -5.176215E+04 -3.682008E+03 -3.567169E+04
       342   3 -2.139902E+05 -6.783536E+04 -1.340244E+05 -4.765992E+05 -2.733970E+04 -7.790997E+04
       342   4  2.866538E+04  9.984965E+05  8.808518E+04 -4.964713E+05  2.047786E+04  1.621016E+04
       342   5 -1.131905E+04  9.918009E+05  8.202460E+04 -5.400976E+04 -3.760889E+03 -2.632826E+04
       342   6  5.139915E+04  9.984606E+05  1.254696E+05 -4.962855E+05 -2.741370E+04 -6.885077E+04
       342   7 -1.563686E+05  2.548529E+05 -9.259100E+04 -4.812592E+05  2.039445E+04  2.576574E+04
       342   8  2.883652E+04  1.153266E+06  1.213519E+05 -5.625791E+04 -3.839826E+03 -1.698241E+04
       342   9  3.167060E+05  2.065794E+06  3.848816E+05 -5.160030E+05 -2.748821E+04 -5.977597E+04
       342  10  2.136590E+05  1.742645E+06  2.687209E+05 -5.117005E+05  1.070222E-09  1.054390E-08
       342  11 -5.147684E+04  8.303584E+05  4.269333E+04 -5.176225E+04  1.963926E-09  1.591244E-08
       342  12 -2.139927E+05 -6.784208E+04 -1.340372E+05 -4.766009E+05 -5.717671E-09  3.108545E-09
       342  13  2.866485E+04  9.984961E+05  8.808390E+04 -4.964716E+05  7.939540E-10 -8.839757E-09
       342  14 -1.131925E+04  9.918001E+05  8.202328E+04 -5.400984E+04  5.917491E-09 -1.723834E-10
       342  15  5.139707E+04  9.984554E+05  1.254593E+05 -4.962870E+05  4.839656E-09 -2.268607E-08
       342  16 -1.563692E+05  2.548521E+05 -9.259303E+04 -4.812596E+05 -9.684059E-10 -6.028125E-09
       342  17  2.883643E+04  1.153266E+06  1.213513E+05 -5.625796E+04 -2.591647E-09 -1.827331E-08
       342  18  3.167042E+05  2.065790E+06  3.848735E+05 -5.160044E+05 -2.956361E-09 -1.218137E-08
       342  19  2.136594E+05  1.742645E+06  2.687218E+05 -5.117004E+05 -2.056168E+04 -6.643168E+03
       342  20 -5.147649E+04  8.303598E+05  4.269574E+04 -5.176215E+04  3.682008E+03  3.567169E+04
       342  21 -2.139902E+05 -6.783536E+04 -1.340244E+05 -4.765992E+05  2.733970E+04  7.790997E+04
       342  22  2.866538E+04  9.984965E+05  8.808518E+04 -4.964713E+05 -2.047786E+04 -1.621016E+04
       342  23 -1.131905E+04  9.918009E+05  8.202460E+04 -5.400976E+04  3.760889E+03  2.632826E+04
       342  24  5.139915E+04  9.984606E+05  1.254696E+05 -4.962855E+05  2.741370E+04  6.885077E+04
       342  25 -1.563686E+05  2.548529E+05 -9.259100E+04 -4.812592E+05 -2.039445E+04 -2.576574E+04
       342  26  2.883652E+04  1.153266E+06  1.213519E+05 -5.625791E+04  3.839826E+03  1.698241E+04
       342  27  3.167060E+05  2.065794E+06  3.848816E+05 -5.160030E+05  2.748821E+04  5.977597E+04
       343   1 -6.995237E+05 -1.756911E+06 -5.334017E+05 -5.255980E+05 -6.248726E+04 -1.253548E+05
       343   2 -9.929714E+05 -2.750332E+06 -6.884753E+05 -1.324254E+04 -9.780923E+04 -2.034729E+05
       343   3 -7.776880E+05 -3.588018E+06 -6.618611E+05 -3.969259E+05 -3.594608E+04 -2.810444E+05
       343   4 -6.452129E+03  1.029205E+06  1.474584E+05 -4.992827E+05 -6.272748E+04 -9.335181E+04
       343   5 -7.170817E+04  9.485571E+05  2.126495E+05 -5.104652E+04 -9.773649E+04 -2.092712E+05
       343   6  3.767893E+05  1.028509E+06  4.849393E+05 -4.984356E+05 -3.579938E+04 -3.247654E+05
       343   7  6.860509E+05  3.822410E+06  8.277574E+05 -4.728324E+05 -6.296441E+04 -6.120445E+04
       343   8  8.485505E+05  4.659954E+06  1.112782E+06 -8.906245E+04 -9.766335E+04 -2.151011E+05
       343   9  1.529704E+06  5.664463E+06  1.630159E+06 -6.006871E+05 -3.563915E+04 -3.688054E+05
       343  10 -6.995321E+05 -1.756929E+06 -5.334386E+05 -5.256043E+05 -2.214871E-09  9.513913E-09
       343  11 -9.929928E+05 -2.750379E+06 -6.885715E+05 -1.325860E+04  2.102310E-09  8.670462E-09
       343  12 -7.777107E+05 -3.588103E+06 -6.620128E+05 -3.969341E+05  5.148263E-10  6.630598E-10
       343  13 -6.458697E+03  1.029195E+06  1.474346E+05 -4.992875E+05 -6.597838E-09 -7.463940E-09
       343  14 -7.173016E+04  9.485076E+05  2.125494E+05 -5.106298E+04  2.667055E-09 -1.990555E-10
       343  15  3.767597E+05  1.028395E+06  4.847390E+05 -4.984450E+05 -7.829031E-11 -3.307666E-09
       343  16  6.860457E+05  3.822405E+06  8.277429E+05 -4.728355E+05  4.843377E-10 -5.978873E-09
       343  17  8.485279E+05  4.659902E+06  1.112678E+06 -8.907931E+04  2.294917E-10 -1.034449E-08
       343  18  1.529667E+06  5.664318E+06  1.629903E+06 -6.006977E+05 -8.646973E-10 -1.946105E-09
       343  19 -6.995237E+05 -1.756911E+06 -5.334017E+05 -5.255980E+05  6.248726E+04  1.253548E+05
       343  20 -9.929714E+05 -2.750332E+06 -6.884753E+05 -1.324254E+04  9.780923E+04  2.034729E+05
       343  21 -7.776880E+05 -3.588018E+06 -6.618611E+05 -3.969259E+05  3.594608E+04  2.810444E+05
       343  22 -6.452129E+03  1.029205E+06  1.474584E+05 -4.992827E+05  6.272748E+04  9.335181E+04
       343  23 -7.170817E+04  9.485571E+05  2.126495E+05 -5.104652E+04  9.773649E+04  2.092712E+05
       343  24  3.767893E+05  1.028509E+06  4.849393E+05 -4.984356E+05  3.579938E+04  3.247654E+05
       343  25  6.860509E+05  3.822410E+06  8.277574E+05 -4.728324E+05  6.296441E+04  6.120445E+04
       343  26  8.485505E+05  4.659954E+06  1.112782E+06 -8.906245E+04  9.766335E+04  2.151011E+05
       343  27  1.529704E+06  5.664463E+06  1.630159E+06 -6.006871E+05  3.563915E+04  3.688054E+05
       344   1 -1.141229E+06 -4.968128E+05 -2.566723E+05 -4.890812E+05 -1.338139E+05 -4.326703E+04
       344   2 -1.096433E+06 -3.572394E+05 -1.460972E+05 -4.657643E+05 -8.257969E+04 -7.824051E+03
       344   3 -1.075810E+06 -2.878934E+05 -9.479509E+04 -4.359647E+05 -2.724855E+04  1.675553E+04
       344   4 -7.447774E+05 -2.704948E+05 -1.408879E+05 -3.006054E+05 -9.423696E+04 -2.840364E+04
       344   5 -7.273326E+05 -1.844215E+05 -6.694533E+04 -3.238130E+05 -6.493711E+04 -1.197402E+03
       344   6 -7.296926E+05 -1.642081E+05 -3.485526E+04 -3.405457E+05 -3.154578E+04  1.513852E+04
       344   7 -3.481596E+05 -4.409523E+04 -2.511239E+04 -1.120023E+05 -5.463335E+04 -1.351770E+04
       344   8 -3.580870E+05 -1.156441E+04  1.220056E+04 -1.817751E+05 -4.728342E+04  5.436167E+03
       344   9 -3.834453E+05 -4.051063E+04  2.508186E+04 -2.450763E+05 -3.584560E+04  1.352056E+04
       344  10 -1.141248E+06 -4.968196E+05 -2.567095E+05 -4.890858E+05  5.306611E-09  2.802714E-10
       344  11 -1.096441E+06 -3.572413E+05 -1.461102E+05 -4.657648E+05  4.756683E-09 -2.894899E-09
       344  12 -1.075811E+06 -2.878939E+05 -9.479702E+04 -4.359644E+05 -8.424446E-10  1.110941E-10
       344  13 -7.447871E+05 -2.704981E+05 -1.409062E+05 -3.006075E+05  1.749419E-09  7.994784E-11
       344  14 -7.273371E+05 -1.844227E+05 -6.695326E+04 -3.238131E+05  6.057813E-10 -2.036451E-09
       344  15 -7.296937E+05 -1.642086E+05 -3.485756E+04 -3.405453E+05 -1.632965E-09 -1.020293E-09
       344  16 -3.481628E+05 -4.409623E+04 -2.511834E+04 -1.120029E+05 -6.141759E-09 -2.633883E-09
       344  17 -3.580894E+05 -1.156504E+04  1.219630E+04 -1.817749E+05 -1.743528E-09 -2.662052E-09
       344  18 -3.834467E+05 -4.051117E+04  2.507910E+04 -2.450759E+05  3.453187E-10 -7.230857E-10
       344  19 -1.141229E+06 -4.968128E+05 -2.566723E+05 -4.890812E+05  1.338139E+05  4.326703E+04
       344  20 -1.096433E+06 -3.572394E+05 -1.460972E+05 -4.657643E+05  8.257969E+04  7.824051E+03
       344  21 -1.075810E+06 -2.878934E+05 -9.479509E+04 -4.359647E+05  2.724855E+04 -1.675553E+04
       344  22 -7.447774E+05 -2.704948E+05 -1.408879E+05 -3.006054E+05  9.423696E+04  2.840364E+04
       344  23 -7.273326E+05 -1.844215E+05 -6.694533E+04 -3.238130E+05  6.493711E+04  1.197402E+03
       344  24 -7.296926E+05 -1.642081E+05 -3.485526E+04 -3.405457E+05  3.154578E+04 -1.513852E+04
       344  25 -3.481596E+05 -4.409523E+04 -2.511239E+04 -1.120023E+05  5.463335E+04  1.351770E+04
       344  26 -3.580870E+05 -1.156441E+04  1.220056E+04 -1.817751E+05  4.728342E+04 -5.436167E+03
       344  27 -3.834453E+05 -4.051063E+04  2.508186E+04 -2.450763E+05  3.584560E+04 -1.352056E+04
       345   1 -1.033571E+06 -2.773228E+05 -7.873403E+04 -4.300166E+05 -2.326350E+04  1.645935E+04
       345   2 -9.834393E+05 -2.466086E+05 -5.513869E+04 -4.107686E+05 -1.318168E+04  1.745647E+04
       345   3 -9.288667E+05 -2.280538E+05 -3.962969E+04 -3.991263E+05 -2.663391E+03  1.729343E+04
       345   4 -7.256553E+05 -1.624674E+05 -2.594396E+04 -3.398002E+05 -2.703925E+04  1.503860E+04
       345   5 -7.276042E+05 -1.531061E+05 -1.352334E+04 -3.373146E+05 -1.929750E+04  1.515679E+04
       345   6 -7.246490E+05 -1.554385E+05 -7.329783E+03 -3.424360E+05 -1.112010E+04  1.411475E+04
       345   7 -4.176417E+05 -4.760212E+04  2.684256E+04 -2.495421E+05 -3.081695E+04  1.361705E+04
       345   8 -4.716987E+05 -5.959606E+04  2.809077E+04 -2.638319E+05 -2.541600E+04  1.285607E+04
       345   9 -5.203839E+05 -8.281813E+04  2.497033E+04 -2.857276E+05 -1.957986E+04  1.093495E+04
       345  10 -1.033572E+06 -2.773232E+05 -7.873556E+04 -4.300163E+05  4.865563E-08  1.967789E-08
       345  11 -9.834396E+05 -2.466090E+05 -5.513959E+04 -4.107684E+05 -6.180528E-09 -6.307651E-09
       345  12 -9.288668E+05 -2.280541E+05 -3.963026E+04 -3.991263E+05 -6.945600E-08 -3.706928E-08
       345  13 -7.256561E+05 -1.624679E+05 -2.594576E+04 -3.397999E+05  1.339820E-09  4.750895E-09
       345  14 -7.276047E+05 -1.531064E+05 -1.352448E+04 -3.373144E+05  4.393119E-09  1.381530E-08
       345  15 -7.246492E+05 -1.554388E+05 -7.330390E+03 -3.424359E+05 -6.507238E-09  2.233605E-08
       345  16 -4.176428E+05 -4.760257E+04  2.684042E+04 -2.495418E+05 -4.509260E-08 -1.991347E-08
       345  17 -4.716994E+05 -5.959641E+04  2.808925E+04 -2.638317E+05  1.706307E-08 -2.853887E-09
       345  18 -5.203843E+05 -8.281837E+04  2.496938E+04 -2.857274E+05  6.798494E-08  1.235016E-08
       345  19 -1.033571E+06 -2.773228E+05 -7.873403E+04 -4.300166E+05  2.326350E+04 -1.645935E+04
       345  20 -9.834393E+05 -2.466086E+05 -5.513869E+04 -4.107686E+05  1.318168E+04 -1.745647E+04
       345  21 -9.288667E+05 -2.280538E+05 -3.962969E+04 -3.991263E+05  2.663391E+03 -1.729343E+04
       345  22 -7.256553E+05 -1.624674E+05 -2.594396E+04 -3.398002E+05  2.703925E+04 -1.503860E+04
       345  23 -7.276042E+05 -1.531061E+05 -1.352334E+04 -3.373146E+05  1.929750E+04 -1.515679E+04
       345  24 -7.246490E+05 -1.554385E+05 -7.329783E+03 -3.424360E+05  1.112010E+04 -1.411475E+04
       345  25 -4.176417E+05 -4.760212E+04  2.684256E+04 -2.495421E+05  3.081695E+04 -1.361705E+04
       345  26 -4.716987E+05 -5.959606E+04  2.809077E+04 -2.638319E+05  2.541600E+04 -1.285607E+04
       345  27 -5.203839E+05 -8.281813E+04  2.497033E+04 -2.857276E+05  1.957986E+04 -1.093495E+04
       346   1 -8.943201E+05 -2.161560E+05 -3.214808E+04 -3.899446E+05 -7.964749E+02  1.517306E+04
       346   2 -8.443506E+05 -1.929200E+05 -2.118635E+04 -3.707257E+05  2.536810E+03  1.160715E+04
       346   3 -7.872870E+05 -1.774794E+05 -1.161208E+04 -3.599986E+05  5.916514E+03  7.916973E+03
       346   4 -7.242623E+05 -1.553653E+05 -5.488602E+03 -3.423291E+05 -9.200100E+03  1.201469E+04
       346   5 -7.278065E+05 -1.513252E+05 -2.994131E+03 -3.381443E+05 -6.117696E+03  8.354916E+03
       346   6 -7.242098E+05 -1.550308E+05 -1.688032E+03 -3.424524E+05 -2.989043E+03  4.570831E+03
       346   7 -5.541733E+05 -9.457150E+04  2.117066E+04 -2.947013E+05 -1.760616E+04  8.855416E+03
       346   8 -6.112483E+05 -1.097293E+05  1.519798E+04 -3.055574E+05 -1.477387E+04  5.102059E+03
       346   9 -6.611290E+05 -1.325821E+05  8.236071E+03 -3.249047E+05 -1.189545E+04  1.224375E+03
       346  10 -8.943201E+05 -2.161563E+05 -3.214852E+04 -3.899446E+05  6.397334E-08  1.281374E-08
       346  11 -8.443506E+05 -1.929202E+05 -2.118662E+04 -3.707257E+05  1.084939E-08 -6.306243E-10
       346  12 -7.872871E+05 -1.774795E+05 -1.161226E+04 -3.599987E+05 -4.419675E-08 -1.636912E-08
       346  13 -7.242624E+05 -1.553654E+05 -5.489033E+03 -3.423290E+05 -5.303032E-09  2.235170E-08
       346  14 -7.278065E+05 -1.513253E+05 -2.994332E+03 -3.381443E+05  2.535135E-09  1.796496E-08
       346  15 -7.242099E+05 -1.550308E+05 -1.688088E+03 -3.424524E+05  1.987756E-09  4.741264E-09
       346  16 -5.541737E+05 -9.457167E+04  2.116993E+04 -2.947011E+05 -6.614148E-08 -3.668700E-08
       346  17 -6.112486E+05 -1.097293E+05  1.519752E+04 -3.055573E+05 -3.255950E-09 -7.262670E-09
       346  18 -6.611291E+05 -1.325821E+05  8.235802E+03 -3.249047E+05  4.967147E-08  1.755816E-08
       346  19 -8.943201E+05 -2.161560E+05 -3.214808E+04 -3.899446E+05  7.964749E+02 -1.517306E+04
       346  20 -8.443506E+05 -1.929200E+05 -2.118635E+04 -3.707257E+05 -2.536810E+03 -1.160715E+04
       346  21 -7.872870E+05 -1.774794E+05 -1.161208E+04 -3.599986E+05 -5.916514E+03 -7.916973E+03
       346  22 -7.242623E+05 -1.553653E+05 -5.488602E+03 -3.423291E+05  9.200100E+03 -1.201469E+04
       346  23 -7.278065E+05 -1.513252E+05 -2.994131E+03 -3.381443E+05  6.117696E+03 -8.354916E+03
       346  24 -7.242098E+05 -1.550308E+05 -1.688032E+03 -3.424524E+05  2.989043E+03 -4.570831E+03
       346  25 -5.541733E+05 -9.457150E+04  2.117066E+04 -2.947013E+05  1.760616E+04 -8.855416E+03
       346  26 -6.112483E+05 -1.097293E+05  1.519798E+04 -3.055574E+05  1.477387E+04 -5.102059E+03
       346  27 -6.611290E+05 -1.325821E+05  8.236071E+03 -3.249047E+05  1.189545E+04 -1.224375E+03
       347   1 -7.534211E+05 -1.653969E+05 -5.741314E+03 -3.505566E+05  7.122314E+03  5.437613E+03
       347   2 -7.035688E+05 -1.425667E+05  2.920474E+03 -3.312865E+05  9.210604E+03  1.188535E+03
       347   3 -6.463274E+05 -1.272074E+05  1.125803E+04 -3.205376E+05  1.130307E+04 -3.071400E+03
       347   4 -7.241639E+05 -1.550371E+05 -1.301300E+03 -3.424333E+05 -1.778191E+03  2.093466E+03
       347   5 -7.278596E+05 -1.513094E+05 -8.202249E+02 -3.381698E+05  2.876517E+02 -2.164152E+03
       347   6 -7.241661E+05 -1.550490E+05 -6.462390E+02 -3.424291E+05  2.357630E+03 -6.432635E+03
       347   7 -6.949053E+05 -1.446771E+05  3.139142E+03 -3.343096E+05 -1.067925E+04 -1.250884E+03
       347   8 -7.521497E+05 -1.600520E+05 -4.560633E+03 -3.450528E+05 -8.634987E+03 -5.516719E+03
       347   9 -8.019981E+05 -1.828899E+05 -1.255026E+04 -3.643179E+05 -6.586632E+03 -9.793425E+03
       347  10 -7.534212E+05 -1.653970E+05 -5.741465E+03 -3.505566E+05 -1.143680E-08 -3.335758E-09
       347  11 -7.035689E+05 -1.425668E+05  2.920311E+03 -3.312865E+05  1.450518E-08  4.048290E-09
       347  12 -6.463276E+05 -1.272075E+05  1.125777E+04 -3.205376E+05  1.582842E-08  3.937593E-09
       347  13 -7.241639E+05 -1.550371E+05 -1.301314E+03 -3.424333E+05  8.708571E-09  3.446168E-09
       347  14 -7.278596E+05 -1.513094E+05 -8.202338E+02 -3.381698E+05  1.985865E-08  7.999076E-09
       347  15 -7.241661E+05 -1.550491E+05 -6.463272E+02 -3.424290E+05  7.218209E-09  4.754423E-09
       347  16 -6.949054E+05 -1.446771E+05  3.138924E+03 -3.343096E+05  2.876145E-08  9.970477E-09
       347  17 -7.521498E+05 -1.600520E+05 -4.560831E+03 -3.450528E+05  2.707856E-08  1.114824E-08
       347  18 -8.019982E+05 -1.828900E+05 -1.255052E+04 -3.643179E+05 -3.052585E-10  4.382519E-09
       347  19 -7.534211E+05 -1.653969E+05 -5.741314E+03 -3.505566E+05 -7.122314E+03 -5.437613E+03
       347  20 -7.035688E+05 -1.425667E+05  2.920474E+03 -3.312865E+05 -9.210604E+03 -1.188535E+03
       347  21 -6.463274E+05 -1.272074E+05  1.125803E+04 -3.205376E+05 -1.130307E+04  3.071400E+03
       347  22 -7.241639E+05 -1.550371E+05 -1.301300E+03 -3.424333E+05  1.778191E+03 -2.093466E+03
       347  23 -7.278596E+05 -1.513094E+05 -8.202249E+02 -3.381698E+05 -2.876517E+02  2.164152E+03
       347  24 -7.241661E+05 -1.550490E+05 -6.462390E+02 -3.424291E+05 -2.357630E+03  6.432635E+03
       347  25 -6.949053E+05 -1.446771E+05  3.139142E+03 -3.343096E+05  1.067925E+04  1.250884E+03
       347  26 -7.521497E+05 -1.600520E+05 -4.560633E+03 -3.450528E+05  8.634987E+03  5.516719E+03
       347  27 -8.019981E+05 -1.828899E+05 -1.255026E+04 -3.643179E+05  6.586632E+03  9.793425E+03
       348   1 -6.125491E+05 -1.150974E+05  1.672472E+04 -3.110806E+05  1.237890E+04 -5.608727E+03
       348   2 -5.627264E+05 -9.227558E+04  2.470797E+04 -2.918164E+05  1.441290E+04 -9.885266E+03
       348   3 -5.055069E+05 -7.690996E+04  3.241203E+04 -2.810683E+05  1.644040E+04 -1.414309E+04
       348   4 -7.241689E+05 -1.550504E+05 -6.471976E+02 -3.424278E+05  3.434283E+03 -8.969839E+03
       348   5 -7.278653E+05 -1.513213E+05 -8.254926E+02 -3.381694E+05  5.505409E+03 -1.323300E+04
       348   6 -7.241751E+05 -1.550560E+05 -1.312499E+03 -3.424281E+05  7.570010E+03 -1.747747E+04
       348   7 -8.357737E+05 -1.950015E+05 -1.801861E+04 -3.737693E+05 -5.508530E+03 -1.233027E+04
       348   8 -8.929745E+05 -2.103641E+05 -2.635904E+04 -3.845106E+05 -3.399579E+03 -1.657979E+04
       348   9 -9.427939E+05 -2.331979E+05 -3.503814E+04 -4.037681E+05 -1.297179E+03 -2.081066E+04
       348  10 -6.125493E+05 -1.150975E+05  1.672437E+04 -3.110805E+05 -6.253887E-09 -2.500534E-09
       348  11 -5.627266E+05 -9.227574E+04  2.470740E+04 -2.918163E+05 -4.429202E-09  1.292315E-10
       348  12 -5.055073E+05 -7.691024E+04  3.241115E+04 -2.810681E+05 -4.627166E-09 -3.712334E-09
       348  13 -7.241689E+05 -1.550505E+05 -6.473709E+02 -3.424278E+05 -4.087529E-10  3.031629E-09
       348  14 -7.278653E+05 -1.513215E+05 -8.258785E+02 -3.381693E+05 -1.153044E-09  1.894749E-09
       348  15 -7.241752E+05 -1.550564E+05 -1.313181E+03 -3.424280E+05 -3.989824E-10  8.076074E-10
       348  16 -8.357738E+05 -1.950017E+05 -1.801895E+04 -3.737693E+05  4.050057E-09  7.149749E-09
       348  17 -8.929746E+05 -2.103644E+05 -2.635957E+04 -3.845107E+05  2.288037E-09  7.015029E-09
       348  18 -9.427941E+05 -2.331984E+05 -3.503895E+04 -4.037681E+05  3.196172E-09  6.338735E-09
       348  19 -6.125491E+05 -1.150974E+05  1.672472E+04 -3.110806E+05 -1.237890E+04  5.608727E+03
       348  20 -5.627264E+05 -9.227558E+04  2.470797E+04 -2.918164E+05 -1.441290E+04  9.885266E+03
       348  21 -5.055069E+05 -7.690996E+04  3.241203E+04 -2.810683E+05 -1.644040E+04  1.414309E+04
       348  22 -7.241689E+05 -1.550504E+05 -6.471976E+02 -3.424278E+05 -3.434283E+03  8.969839E+03
       348  23 -7.278653E+05 -1.513213E+05 -8.254926E+02 -3.381694E+05 -5.505409E+03  1.323300E+04
       348  24 -7.241751E+05 -1.550560E+05 -1.312499E+03 -3.424281E+05 -7.570010E+03  1.747747E+04
       348  25 -8.357737E+05 -1.950015E+05 -1.801861E+04 -3.737693E+05  5.508530E+03  1.233027E+04
       348  26 -8.929745E+05 -2.103641E+05 -2.635904E+04 -3.845106E+05  3.399579E+03  1.657979E+04
       348  27 -9.427939E+05 -2.331979E+05 -3.503814E+04 -4.037681E+05  1.297179E+03  2.081066E+04
       349   1 -4.717684E+05 -6.482395E+04  3.750607E+04 -2.716636E+05  1.765613E+04 -1.660971E+04
       349   2 -4.219810E+05 -4.199884E+04  4.449068E+04 -2.523363E+05  2.043029E+04 -2.047836E+04
       349   3 -3.649918E+05 -2.683871E+04  5.055756E+04 -2.414810E+05  2.313936E+04 -2.417122E+04
       349   4 -7.242270E+05 -1.550520E+05 -1.703374E+03 -3.424443E+05  8.780662E+03 -1.994650E+04
       349   5 -7.278233E+05 -1.513617E+05 -3.022920E+03 -3.381437E+05  1.190874E+04 -2.368317E+04
       349   6 -7.242910E+05 -1.554074E+05 -5.541335E+03 -3.423168E+05  1.497161E+04 -2.724403E+04
       349   7 -9.766164E+05 -2.452732E+05 -4.091347E+04 -4.131977E+05 -9.098122E+01 -2.328186E+04
       349   8 -1.033563E+06 -2.607140E+05 -5.053718E+04 -4.239107E+05  3.391693E+03 -2.688630E+04
       349   9 -1.083446E+06 -2.839608E+05 -6.164087E+04 -4.430963E+05  6.808953E+03 -3.031493E+04
       349  10 -4.717688E+05 -6.482433E+04  3.750497E+04 -2.716634E+05 -1.651284E-08 -9.173805E-09
       349  11 -4.219815E+05 -4.199940E+04  4.448911E+04 -2.523359E+05 -5.462201E-08 -2.239553E-08
       349  12 -3.649925E+05 -2.683948E+04  5.055546E+04 -2.414806E+05 -8.495976E-08 -2.735480E-08
       349  13 -7.242271E+05 -1.550524E+05 -1.704266E+03 -3.424441E+05 -3.035943E-10 -3.418491E-09
       349  14 -7.278236E+05 -1.513624E+05 -3.024240E+03 -3.381435E+05 -5.322843E-09 -1.603601E-08
       349  15 -7.242914E+05 -1.554083E+05 -5.543150E+03 -3.423165E+05 -8.152753E-09 -3.115724E-08
       349  16 -9.766165E+05 -2.452738E+05 -4.091449E+04 -4.131977E+05  1.410223E-08  1.171406E-08
       349  17 -1.033563E+06 -2.607148E+05 -5.053856E+04 -4.239106E+05  4.216429E-08  2.601816E-08
       349  18 -1.083447E+06 -2.839618E+05 -6.164269E+04 -4.430962E+05  6.787100E-08  3.690127E-08
       349  19 -4.717684E+05 -6.482395E+04  3.750607E+04 -2.716636E+05 -1.765613E+04  1.660971E+04
       349  20 -4.219810E+05 -4.199884E+04  4.449068E+04 -2.523363E+05 -2.043029E+04  2.047836E+04
       349  21 -3.649918E+05 -2.683871E+04  5.055756E+04 -2.414810E+05 -2.313936E+04  2.417122E+04
       349  22 -7.242270E+05 -1.550520E+05 -1.703374E+03 -3.424443E+05 -8.780662E+03  1.994650E+04
       349  23 -7.278233E+05 -1.513617E+05 -3.022920E+03 -3.381437E+05 -1.190874E+04  2.368317E+04
       349  24 -7.242910E+05 -1.554074E+05 -5.541335E+03 -3.423168E+05 -1.497161E+04  2.724403E+04
       349  25 -9.766164E+05 -2.452732E+05 -4.091347E+04 -4.131977E+05  9.098122E+01  2.328186E+04
       349  26 -1.033563E+06 -2.607140E+05 -5.053718E+04 -4.239107E+05 -3.391693E+03  2.688630E+04
       349  27 -1.083446E+06 -2.839608E+05 -6.164087E+04 -4.430963E+05 -6.808953E+03  3.031493E+04
       350   1 -3.312549E+05 -1.507989E+04  5.440106E+04 -2.325051E+05  2.512491E+04 -2.619032E+04
       350   2 -2.827863E+05  8.136825E+03  5.791366E+04 -2.106837E+05  2.995433E+04 -2.809747E+04
       350   3 -2.288174E+05  2.032549E+04  5.775145E+04 -1.963978E+05  3.417287E+04 -2.837701E+04
       350   4 -7.246871E+05 -1.554770E+05 -7.398743E+03 -3.424138E+05  1.688377E+04 -2.929145E+04
       350   5 -7.276230E+05 -1.531901E+05 -1.365210E+04 -3.373132E+05  2.499813E+04 -2.996461E+04
       350   6 -7.257155E+05 -1.625861E+05 -2.618850E+04 -3.397506E+05  3.250104E+04 -2.900963E+04
       350   7 -1.117957E+06 -2.958601E+05 -6.920229E+04 -4.522582E+05  8.648064E+03 -3.239055E+04
       350   8 -1.172250E+06 -3.144964E+05 -8.522251E+04 -4.638578E+05  2.004566E+04 -3.183032E+04
       350   9 -1.222350E+06 -3.454700E+05 -1.101349E+05 -4.829947E+05  3.083062E+04 -2.964170E+04
       350  10 -3.312557E+05 -1.508080E+04  5.439858E+04 -2.325046E+05  6.047480E-08  2.972776E-08
       350  11 -2.827875E+05  8.135736E+03  5.791049E+04 -2.106830E+05  6.510100E-09  8.015974E-09
       350  12 -2.288189E+05  2.032431E+04  5.774775E+04 -1.963970E+05 -5.869101E-08 -1.337441E-08
       350  13 -7.246876E+05 -1.554780E+05 -7.400890E+03 -3.424134E+05 -6.218912E-09 -3.181226E-08
       350  14 -7.276239E+05 -1.531912E+05 -1.365496E+04 -3.373126E+05 -1.016883E-08 -2.677066E-08
       350  15 -7.257168E+05 -1.625873E+05 -2.619206E+04 -3.397498E+05 -1.301157E-08 -2.024784E-08
       350  16 -1.117958E+06 -2.958612E+05 -6.920440E+04 -4.522580E+05 -7.598736E-08 -1.979013E-08
       350  17 -1.172250E+06 -3.144976E+05 -8.522516E+04 -4.638573E+05 -2.231766E-08 -2.191211E-09
       350  18 -1.222351E+06 -3.454712E+05 -1.101383E+05 -4.829940E+05  2.993169E-08  1.550062E-08
       350  19 -3.312549E+05 -1.507989E+04  5.440106E+04 -2.325051E+05 -2.512491E+04  2.619032E+04
       350  20 -2.827863E+05  8.136825E+03  5.791366E+04 -2.106837E+05 -2.995433E+04  2.809747E+04
       350  21 -2.288174E+05  2.032549E+04  5.775145E+04 -1.963978E+05 -3.417287E+04  2.837701E+04
       350  22 -7.246871E+05 -1.554770E+05 -7.398743E+03 -3.424138E+05 -1.688377E+04  2.929145E+04
       350  23 -7.276230E+05 -1.531901E+05 -1.365210E+04 -3.373132E+05 -2.499813E+04  2.996461E+04
       350  24 -7.257155E+05 -1.625861E+05 -2.618850E+04 -3.397506E+05 -3.250104E+04  2.900963E+04
       350  25 -1.117957E+06 -2.958601E+05 -6.920229E+04 -4.522582E+05 -8.648064E+03  3.239055E+04
       350  26 -1.172250E+06 -3.144964E+05 -8.522251E+04 -4.638578E+05 -2.004566E+04  3.183032E+04
       350  27 -1.222350E+06 -3.454700E+05 -1.101349E+05 -4.829947E+05 -3.083062E+04  2.964170E+04
       351   1 -1.944981E+05  2.759608E+04  5.657221E+04 -1.918966E+05  3.929340E+04 -2.777429E+04
       351   2 -1.700984E+05  5.695609E+04  4.781991E+04 -1.288881E+05  4.104399E+04 -1.976222E+04
       351   3 -1.598965E+05  2.635438E+04  2.125793E+04 -5.893399E+04  3.705704E+04  3.487994E+03
       351   4 -7.298419E+05 -1.642948E+05 -3.518251E+04 -3.404439E+05  3.688953E+04 -2.868252E+04
       351   5 -7.273067E+05 -1.848681E+05 -6.757670E+04 -3.237545E+05  6.942977E+04 -9.084865E+03
       351   6 -7.451012E+05 -2.715490E+05 -1.422134E+05 -3.001177E+05  9.622778E+04  2.575647E+04
       351   7 -1.264880E+06 -3.561578E+05 -1.269450E+05 -4.888713E+05  3.448786E+04 -2.958993E+04
       351   8 -1.284175E+06 -4.266205E+05 -1.829819E+05 -5.184415E+05  9.778779E+04  1.577593E+03
       351   9 -1.329925E+06 -5.693207E+05 -3.056934E+05 -5.410559E+05  1.553358E+05  4.798247E+04
       351  10 -1.945000E+05  2.759484E+04  5.656786E+04 -1.918957E+05  4.408980E-08  2.541587E-08
       351  11 -1.701003E+05  5.695522E+04  4.781601E+04 -1.288875E+05  2.784857E-08  1.618366E-08
       351  12 -1.598980E+05  2.635400E+04  2.125533E+04 -5.893410E+04  2.455906E-09  1.394882E-09
       351  13 -7.298435E+05 -1.642960E+05 -3.518661E+04 -3.404430E+05 -1.154609E-08 -1.895234E-08
       351  14 -7.273119E+05 -1.848695E+05 -6.758592E+04 -3.237540E+05 -5.911435E-10 -8.552192E-09
       351  15 -7.451113E+05 -2.715522E+05 -1.422321E+05 -3.001197E+05 -9.982740E-10  2.189226E-10
       351  16 -1.264882E+06 -3.561591E+05 -1.269488E+05 -4.888705E+05 -7.038837E-08 -2.446642E-08
       351  17 -1.284185E+06 -4.266231E+05 -1.830000E+05 -5.184416E+05 -3.610240E-08 -1.235642E-08
       351  18 -1.329951E+06 -5.693297E+05 -3.057432E+05 -5.410619E+05 -3.261396E-09 -1.429396E-09
       351  19 -1.944981E+05  2.759608E+04  5.657221E+04 -1.918966E+05 -3.929340E+04  2.777429E+04
       351  20 -1.700984E+05  5.695609E+04  4.781991E+04 -1.288881E+05 -4.104399E+04  1.976222E+04
       351  21 -1.598965E+05  2.635438E+04  2.125793E+04 -5.893399E+04 -3.705704E+04 -3.487994E+03
       351  22 -7.298419E+05 -1.642948E+05 -3.518251E+04 -3.404439E+05 -3.688953E+04  2.868252E+04
       351  23 -7.273067E+05 -1.848681E+05 -6.757670E+04 -3.237545E+05 -6.942977E+04  9.084865E+03
       351  24 -7.451012E+05 -2.715490E+05 -1.422134E+05 -3.001177E+05 -9.622778E+04 -2.575647E+04
       351  25 -1.264880E+06 -3.561578E+05 -1.269450E+05 -4.888713E+05 -3.448786E+04  2.958993E+04
       351  26 -1.284175E+06 -4.266205E+05 -1.829819E+05 -5.184415E+05 -9.778779E+04 -1.577593E+03
       351  27 -1.329925E+06 -5.693207E+05 -3.056934E+05 -5.410559E+05 -1.553358E+05 -4.798247E+04
       352   1 -4.932393E+05 -8.985170E+04 -1.369668E+05 -3.526644E+04 -1.426059E+05 -2.726940E+03
       352   2 -4.761874E+05  1.030756E+05 -2.080291E+04 -1.157574E+04 -9.467596E+04 -7.805060E+03
       352   3 -5.198645E+05  7.758091E+04  9.577252E+03  2.509580E+04 -4.675602E+04 -7.100358E+03
       352   4 -8.005372E+05 -1.664860E+05 -2.131842E+05  6.165269E+03 -1.456336E+05 -2.740219E+03
       352   5 -7.699347E+05  3.001335E+04 -9.236609E+04 -4.341689E+02 -9.550813E+04 -7.808225E+03
       352   6 -8.004741E+05  7.650291E+03 -5.888783E+04  5.947319E+03 -4.539142E+04 -7.096886E+03
       352   7 -1.107746E+06 -2.431209E+05 -2.894077E+05  4.757641E+04 -1.486598E+05 -2.753908E+03
       352   8 -1.063603E+06 -4.305476E+04 -1.639355E+05  1.070209E+04 -9.633990E+04 -7.811421E+03
       352   9 -1.081011E+06 -6.228479E+04 -1.273585E+05 -1.319250E+04 -4.402742E+04 -7.093498E+03
       352  10 -4.932612E+05 -8.985718E+04 -1.370050E+05 -3.526675E+04 -7.568841E-10  5.978742E-10
       352  11 -4.761970E+05  1.030731E+05 -2.081988E+04 -1.157634E+04  4.188328E-11 -1.244330E-09
       352  12 -5.198669E+05  7.758027E+04  9.573046E+03  2.509553E+04  2.113173E-09 -2.668001E-09
       352  13 -8.005600E+05 -1.664917E+05 -2.132241E+05  6.164947E+03 -1.781710E-09  1.618162E-09
       352  14 -7.699445E+05  3.001083E+04 -9.238337E+04 -4.347697E+02 -9.096293E-10  5.560566E-11
       352  15 -8.004763E+05  7.649683E+03 -5.889181E+04  5.947060E+03  1.769273E-09 -2.845358E-10
       352  16 -1.107769E+06 -2.431268E+05 -2.894493E+05  4.757608E+04  1.043625E-09  1.264307E-09
       352  17 -1.063613E+06 -4.305733E+04 -1.639530E+05  1.070148E+04 -2.614539E-09 -2.279905E-09
       352  18 -1.081013E+06 -6.228537E+04 -1.273622E+05 -1.319276E+04 -1.601926E-09 -4.198804E-09
       352  19 -4.932393E+05 -8.985170E+04 -1.369668E+05 -3.526644E+04  1.426059E+05  2.726940E+03
       352  20 -4.761874E+05  1.030756E+05 -2.080291E+04 -1.157574E+04  9.467596E+04  7.805060E+03
       352  21 -5.198645E+05  7.758091E+04  9.577252E+03  2.509580E+04  4.675602E+04  7.100358E+03
       352  22 -8.005372E+05 -1.664860E+05 -2.131842E+05  6.165269E+03  1.456336E+05  2.740219E+03
       352  23 -7.699347E+05  3.001335E+04 -9.236609E+04 -4.341689E+02  9.550813E+04  7.808225E+03
       352  24 -8.004741E+05  7.650291E+03 -5.888783E+04  5.947319E+03  4.539142E+04  7.096886E+03
       352  25 -1.107746E+06 -2.431209E+05 -2.894077E+05  4.757641E+04  1.486598E+05  2.753908E+03
       352  26 -1.063603E+06 -4.305476E+04 -1.639355E+05  1.070209E+04  9.633990E+04  7.811421E+03
       352  27 -1.081011E+06 -6.228479E+04 -1.273585E+05 -1.319250E+04  4.402742E+04  7.093498E+03
       353   1 -5.345270E+05  4.278769E+04  1.378464E+04  1.907707E+03 -3.589834E+04 -5.934390E+03
       353   2 -5.449255E+05  6.339268E+04  3.446893E+04 -1.636288E+03 -2.371087E+04 -5.947968E+03
       353   3 -5.636159E+05  5.702069E+04  4.047925E+04  9.073970E+03 -1.152479E+04 -5.364690E+03
       353   4 -7.887513E+05 -2.050090E+04 -4.834685E+04  6.331203E+03 -3.601633E+04 -5.935031E+03
       353   5 -7.845782E+05  3.736011E+03 -2.401208E+04 -8.157162E+02 -2.360441E+04 -5.947951E+03
       353   6 -7.887395E+05  9.511114E+02 -1.451153E+04  6.292000E+03 -1.119359E+04 -5.364056E+03
       353   7 -1.042917E+06 -8.379420E+04 -1.104830E+05  1.075285E+04 -3.613427E+04 -5.935674E+03
       353   8 -1.024179E+06 -5.592490E+04 -8.249727E+04  4.512224E+00 -2.349798E+04 -5.947935E+03
       353   9 -1.013817E+06 -5.512219E+04 -6.950600E+04  3.511017E+03 -1.086250E+04 -5.363424E+03
       353  10 -5.345284E+05  4.278731E+04  1.378215E+04  1.907536E+03 -1.279357E-09 -5.090803E-09
       353  11 -5.449261E+05  6.339249E+04  3.446780E+04 -1.636402E+03 -3.254400E-09  1.029095E-09
       353  12 -5.636160E+05  5.702062E+04  4.047894E+04  9.073920E+03 -4.165817E-09  4.286934E-09
       353  13 -7.887527E+05 -2.050129E+04 -4.834936E+04  6.331030E+03 -1.036013E-10 -4.149999E-09
       353  14 -7.845788E+05  3.735823E+03 -2.401319E+04 -8.158293E+02  2.320057E-11 -1.162054E-09
       353  15 -7.887397E+05  9.510468E+02 -1.451182E+04  6.291952E+03  1.659043E-09  3.711299E-10
       353  16 -1.042918E+06 -8.379459E+04 -1.104856E+05  1.075268E+04 -3.348504E-10 -1.837575E-09
       353  17 -1.024179E+06 -5.592508E+04 -8.249838E+04  4.399611E+00  1.459631E-09  3.628997E-10
       353  18 -1.013817E+06 -5.512225E+04 -6.950627E+04  3.510970E+03  2.320719E-09  2.937535E-09
       353  19 -5.345270E+05  4.278769E+04  1.378464E+04  1.907707E+03  3.589834E+04  5.934390E+03
       353  20 -5.449255E+05  6.339268E+04  3.446893E+04 -1.636288E+03  2.371087E+04  5.947968E+03
       353  21 -5.636159E+05  5.702069E+04  4.047925E+04  9.073970E+03  1.152479E+04  5.364690E+03
       353  22 -7.887513E+05 -2.050090E+04 -4.834685E+04  6.331203E+03  3.601633E+04  5.935031E+03
       353  23 -7.845782E+05  3.736011E+03 -2.401208E+04 -8.157162E+02  2.360441E+04  5.947951E+03
       353  24 -7.887395E+05  9.511114E+02 -1.451153E+04  6.292000E+03  1.119359E+04  5.364056E+03
       353  25 -1.042917E+06 -8.379420E+04 -1.104830E+05  1.075285E+04  3.613427E+04  5.935674E+03
       353  26 -1.024179E+06 -5.592490E+04 -8.249727E+04  4.512224E+00  2.349798E+04  5.947935E+03
       353  27 -1.013817E+06 -5.512219E+04 -6.950600E+04  3.511017E+03  1.086250E+04  5.363424E+03
       354   1 -5.907152E+05  4.642220E+04  3.644695E+04  6.376244E+03 -9.065854E+03 -4.951207E+03
       354   2 -6.056734E+05  4.549231E+04  3.798005E+04 -8.610921E+02 -5.982957E+03 -4.435609E+03
       354   3 -6.218751E+05  4.130738E+04  3.668500E+04  7.161436E+03 -2.900568E+03 -3.844911E+03
       354   4 -7.871631E+05 -2.478596E+03 -1.146934E+04  6.532577E+03 -8.883205E+03 -4.950904E+03
       354   5 -7.865374E+05  4.623741E+02 -6.165393E+03 -1.100502E+03 -5.772374E+03 -4.435190E+03
       354   6 -7.871605E+05  1.428673E+02 -3.709647E+03  6.526571E+03 -2.661976E+03 -3.844369E+03
       354   7 -9.835758E+05 -5.138224E+04 -5.938844E+04  6.688841E+03 -8.700613E+03 -4.950600E+03
       354   8 -9.673714E+05 -4.456998E+04 -5.031322E+04 -1.339860E+03 -5.561854E+03 -4.434770E+03
       354   9 -9.524210E+05 -4.102367E+04 -4.410629E+04  5.891859E+03 -2.423447E+03 -3.843828E+03
       354  10 -5.907153E+05  4.642215E+04  3.644675E+04  6.376208E+03 -2.523889E-09  6.043361E-09
       354  11 -6.056735E+05  4.549228E+04  3.797994E+04 -8.611134E+02 -5.369614E-09  4.268795E-09
       354  12 -6.218751E+05  4.130736E+04  3.668496E+04  7.161427E+03 -1.996433E-09  5.743836E-10
       354  13 -7.871632E+05 -2.478643E+03 -1.146953E+04  6.532542E+03  6.740938E-10 -1.945888E-10
       354  14 -7.865374E+05  4.623440E+02 -6.165493E+03 -1.100523E+03 -2.269711E-09  1.566680E-09
       354  15 -7.871605E+05  1.428496E+02 -3.709688E+03  6.526563E+03  4.560483E-10  3.909032E-09
       354  16 -9.835759E+05 -5.138229E+04 -5.938863E+04  6.688806E+03  3.159959E-09  5.039764E-09
       354  17 -9.673714E+05 -4.457001E+04 -5.031331E+04 -1.339880E+03  4.439869E-09  5.637179E-09
       354  18 -9.524210E+05 -4.102368E+04 -4.410633E+04  5.891852E+03 -3.744788E-10  5.284265E-09
       354  19 -5.907152E+05  4.642220E+04  3.644695E+04  6.376244E+03  9.065854E+03  4.951207E+03
       354  20 -6.056734E+05  4.549231E+04  3.798005E+04 -8.610921E+02  5.982957E+03  4.435609E+03
       354  21 -6.218751E+05  4.130738E+04  3.668500E+04  7.161436E+03  2.900568E+03  3.844911E+03
       354  22 -7.871631E+05 -2.478596E+03 -1.146934E+04  6.532577E+03  8.883205E+03  4.950904E+03
       354  23 -7.865374E+05  4.623741E+02 -6.165393E+03 -1.100502E+03  5.772374E+03  4.435190E+03
       354  24 -7.871605E+05  1.428673E+02 -3.709647E+03  6.526571E+03  2.661976E+03  3.844369E+03
       354  25 -9.835758E+05 -5.138224E+04 -5.938844E+04  6.688841E+03  8.700613E+03  4.950600E+03
       354  26 -9.673714E+05 -4.456998E+04 -5.031322E+04 -1.339860E+03  5.561854E+03  4.434770E+03
       354  27 -9.524210E+05 -4.102367E+04 -4.410629E+04  5.891859E+03  2.423447E+03  3.843828E+03
       355   1 -6.520449E+05  3.331393E+04  2.993856E+04  6.913845E+03 -2.289031E+03 -3.491369E+03
       355   2 -6.682251E+05  2.958456E+04  2.710750E+04 -1.061868E+03 -1.381573E+03 -2.899653E+03
       355   3 -6.846930E+05  2.549821E+04  2.357908E+04  6.947680E+03 -4.743829E+02 -2.290730E+03
       355   4 -7.869447E+05 -2.640812E+02 -2.941937E+03  6.690268E+03 -2.065906E+03 -3.490836E+03
       355   5 -7.867997E+05  6.112386E+01 -1.836122E+03 -1.302840E+03 -1.152024E+03 -2.899070E+03
       355   6 -7.869440E+05  2.812084E+01 -1.432305E+03  6.689502E+03 -2.383870E+02 -2.290094E+03
       355   7 -9.218278E+05 -3.384343E+04 -3.582375E+04  6.466730E+03 -1.842829E+03 -3.490303E+03
       355   8 -9.053613E+05 -2.946335E+04 -3.078077E+04 -1.543775E+03 -9.225188E+02 -2.898487E+03
       355   9 -8.891854E+05 -2.544274E+04 -2.644445E+04  6.431361E+03 -2.429911E+00 -2.289459E+03
       355  10 -6.520449E+05  3.331391E+04  2.993852E+04  6.913838E+03  4.323223E-09  7.938340E-10
       355  11 -6.682251E+05  2.958455E+04  2.710749E+04 -1.061871E+03  6.130838E-10  8.595075E-09
       355  12 -6.846930E+05  2.549820E+04  2.357907E+04  6.947679E+03  8.364543E-10  6.077999E-09
       355  13 -7.869447E+05 -2.640954E+02 -2.941968E+03  6.690263E+03  3.200330E-10 -5.472496E-10
       355  14 -7.867997E+05  6.111448E+01 -1.836140E+03 -1.302843E+03 -1.304339E-09  3.698101E-09
       355  15 -7.869440E+05  2.811520E+01 -1.432315E+03  6.689502E+03  1.468555E-09  9.991800E-10
       355  16 -9.218278E+05 -3.384345E+04 -3.582378E+04  6.466725E+03 -5.729302E-09  3.728614E-09
       355  17 -9.053614E+05 -2.946336E+04 -3.078079E+04 -1.543777E+03 -1.714929E-09 -3.933652E-10
       355  18 -8.891854E+05 -2.544275E+04 -2.644446E+04  6.431361E+03 -9.815821E-10 -1.579336E-09
       355  19 -6.520449E+05  3.331393E+04  2.993856E+04  6.913845E+03  2.289031E+03  3.491369E+03
       355  20 -6.682251E+05  2.958456E+04  2.710750E+04 -1.061868E+03  1.381573E+03  2.899653E+03
       355  21 -6.846930E+05  2.549821E+04  2.357908E+04  6.947680E+03  4.743829E+02  2.290730E+03
       355  22 -7.869447E+05 -2.640812E+02 -2.941937E+03  6.690268E+03  2.065906E+03  3.490836E+03
       355  23 -7.867997E+05  6.112386E+01 -1.836122E+03 -1.302840E+03  1.152024E+03  2.899070E+03
       355  24 -7.869440E+05  2.812084E+01 -1.432305E+03  6.689502E+03  2.383870E+02  2.290094E+03
       355  25 -9.218278E+05 -3.384343E+04 -3.582375E+04  6.466730E+03  1.842829E+03  3.490303E+03
       355  26 -9.053613E+05 -2.946335E+04 -3.078077E+04 -1.543775E+03  9.225188E+02  2.898487E+03
       355  27 -8.891854E+05 -2.544274E+04 -2.644445E+04  6.431361E+03  2.429911E+00  2.289459E+03
       356   1 -7.161963E+05  1.762213E+04  1.582404E+04  6.900032E+03 -2.194150E+02 -1.932369E+03
       356   2 -7.328041E+05  1.349779E+04  1.156395E+04 -1.304001E+03  5.835683E+02 -1.316631E+03
       356   3 -7.496997E+05  9.089818E+03  6.686133E+03  6.900579E+03  1.386446E+03 -6.979200E+02
       356   4 -7.869420E+05  1.728533E+01 -1.394240E+03  6.783619E+03  1.537850E+01 -1.931717E+03
       356   5 -7.867981E+05  5.343301E+01 -1.616419E+03 -1.420423E+03  8.194360E+02 -1.315961E+03
       356   6 -7.869421E+05 -1.941652E+02 -2.457023E+03  6.784237E+03  1.623409E+03 -6.972303E+02
       356   7 -8.576832E+05 -1.758793E+04 -1.861288E+04  6.667216E+03  2.501452E+02 -1.931065E+03
       356   8 -8.407894E+05 -1.339114E+04 -1.479700E+04 -1.536837E+03  1.055283E+03 -1.315290E+03
       356   9 -8.241833E+05 -9.478251E+03 -1.160028E+04  6.667901E+03  1.860358E+03 -6.965406E+02
       356  10 -7.161963E+05  1.762213E+04  1.582403E+04  6.900032E+03  3.716506E-09  1.975691E-09
       356  11 -7.328041E+05  1.349778E+04  1.156394E+04 -1.304001E+03  8.161780E-10  7.192210E-10
       356  12 -7.496997E+05  9.089817E+03  6.686128E+03  6.900580E+03 -2.552715E-09 -5.375064E-09
       356  13 -7.869420E+05  1.728132E+01 -1.394247E+03  6.783619E+03  2.020975E-09  9.157372E-09
       356  14 -7.867981E+05  5.343098E+01 -1.616423E+03 -1.420422E+03 -3.214075E-09  3.299188E-09
       356  15 -7.869421E+05 -1.941664E+02 -2.457029E+03  6.784238E+03  8.287518E-10 -3.972028E-09
       356  16 -8.576832E+05 -1.758793E+04 -1.861288E+04  6.667217E+03 -4.737259E-09  3.387793E-09
       356  17 -8.407894E+05 -1.339114E+04 -1.479700E+04 -1.536836E+03 -1.223066E-09  5.001136E-10
       356  18 -8.241833E+05 -9.478253E+03 -1.160029E+04  6.667902E+03  2.744758E-09 -6.126834E-09
       356  19 -7.161963E+05  1.762213E+04  1.582404E+04  6.900032E+03  2.194150E+02  1.932369E+03
       356  20 -7.328041E+05  1.349779E+04  1.156395E+04 -1.304001E+03 -5.835683E+02  1.316631E+03
       356  21 -7.496997E+05  9.089818E+03  6.686133E+03  6.900579E+03 -1.386446E+03  6.979200E+02
       356  22 -7.869420E+05  1.728533E+01 -1.394240E+03  6.783619E+03 -1.537850E+01  1.931717E+03
       356  23 -7.867981E+05  5.343301E+01 -1.616419E+03 -1.420423E+03 -8.194360E+02  1.315961E+03
       356  24 -7.869421E+05 -1.941652E+02 -2.457023E+03  6.784237E+03 -1.623409E+03  6.972303E+02
       356  25 -8.576832E+05 -1.758793E+04 -1.861288E+04  6.667216E+03 -2.501452E+02  1.931065E+03
       356  26 -8.407894E+05 -1.339114E+04 -1.479700E+04 -1.536837E+03 -1.055283E+03  1.315290E+03
       356  27 -8.241833E+05 -9.478251E+03 -1.160028E+04  6.667901E+03 -1.860358E+03  6.965406E+02
       357   1 -7.818924E+05  1.420442E+03 -1.838501E+03  6.560025E+03  1.873564E+03 -3.297226E+02
       357   2 -7.981996E+05 -2.515166E+03 -7.857762E+03 -1.405647E+03  4.418019E+03  2.994729E+02
       357   3 -8.156113E+05 -9.061420E+03 -1.621306E+04  7.143866E+03  6.962508E+03  8.971518E+02
       357   4 -7.871226E+05  1.303389E+02 -3.063034E+03  6.805449E+03  2.118146E+03 -3.290048E+02
       357   5 -7.865722E+05  3.794967E+02 -5.020079E+03 -1.449067E+03  4.650554E+03  3.001502E+02
       357   6 -7.871244E+05 -1.979829E+03 -9.304690E+03  6.811591E+03  7.183065E+03  8.977875E+02
       357   7 -7.923528E+05 -1.159766E+03 -4.287570E+03  7.050870E+03  2.362727E+03 -3.282869E+02
       357   8 -7.749447E+05  3.274149E+03 -2.182406E+03 -1.492488E+03  4.883094E+03  3.008275E+02
       357   9 -7.586368E+05  5.101703E+03 -2.396383E+03  6.479299E+03  7.403633E+03  8.984229E+02
       357  10 -7.818924E+05  1.420441E+03 -1.838507E+03  6.560026E+03 -5.556316E-09 -6.816549E-10
       357  11 -7.981996E+05 -2.515171E+03 -7.857799E+03 -1.405648E+03 -5.603296E-09 -6.006286E-12
       357  12 -8.156113E+05 -9.061434E+03 -1.621315E+04  7.143861E+03 -4.237189E-09  2.632527E-09
       357  13 -7.871226E+05  1.303375E+02 -3.063043E+03  6.805449E+03  1.538823E-09 -3.764328E-10
       357  14 -7.865723E+05  3.794908E+02 -5.020120E+03 -1.449068E+03 -3.492783E-09  6.063613E-11
       357  15 -7.871245E+05 -1.979844E+03 -9.304789E+03  6.811585E+03 -4.661262E-10 -1.172694E-09
       357  16 -7.923528E+05 -1.159768E+03 -4.287581E+03  7.050871E+03  3.310567E-09 -9.003133E-10
       357  17 -7.749448E+05  3.274143E+03 -2.182451E+03 -1.492489E+03  3.449134E-09 -5.156124E-09
       357  18 -7.586368E+05  5.101687E+03 -2.396487E+03  6.479294E+03  3.338309E-09 -2.502033E-10
       357  19 -7.818924E+05  1.420442E+03 -1.838501E+03  6.560025E+03 -1.873564E+03  3.297226E+02
       357  20 -7.981996E+05 -2.515166E+03 -7.857762E+03 -1.405647E+03 -4.418019E+03 -2.994729E+02
       357  21 -8.156113E+05 -9.061420E+03 -1.621306E+04  7.143866E+03 -6.962508E+03 -8.971518E+02
       357  22 -7.871226E+05  1.303389E+02 -3.063034E+03  6.805449E+03 -2.118146E+03  3.290048E+02
       357  23 -7.865722E+05  3.794967E+02 -5.020079E+03 -1.449067E+03 -4.650554E+03 -3.001502E+02
       357  24 -7.871244E+05 -1.979829E+03 -9.304690E+03  6.811591E+03 -7.183065E+03 -8.977875E+02
       357  25 -7.923528E+05 -1.159766E+03 -4.287570E+03  7.050870E+03 -2.362727E+03  3.282869E+02
       357  26 -7.749447E+05  3.274149E+03 -2.182406E+03 -1.492488E+03 -4.883094E+03 -3.008275E+02
       357  27 -7.586368E+05  5.101703E+03 -2.396383E+03  6.479299E+03 -7.403633E+03 -8.984229E+02
       358   1 -8.487835E+05 -1.426446E+04 -2.655517E+04  4.665196E+03  8.756724E+03  1.308701E+03
       358   2 -8.619939E+05 -1.613870E+04 -3.823584E+04 -6.042725E+02  1.892490E+04  1.961146E+03
       358   3 -8.821003E+05 -3.987175E+04 -6.202959E+04  1.045713E+04  2.909357E+04  2.298380E+03
       358   4 -7.884064E+05  7.939843E+02 -1.176499E+04  6.750748E+03  9.056915E+03  1.309589E+03
       358   5 -7.849739E+05  3.032448E+03 -1.944111E+04 -1.390543E+03  1.910526E+04  1.961611E+03
       358   6 -7.884159E+05 -1.656557E+04 -3.914584E+04  6.799022E+03  2.915439E+04  2.298346E+03
       358   7 -7.280261E+05  1.585218E+04  3.024918E+03  8.836501E+03  9.357134E+03  1.310479E+03
       358   8 -7.079485E+05  2.220317E+04 -6.468139E+02 -2.176916E+03  1.928565E+04  1.962076E+03
       358   9 -6.947234E+05  6.740027E+03 -1.626272E+04  3.140359E+03  2.921521E+04  2.298311E+03
       358  10 -8.487836E+05 -1.426449E+04 -2.655532E+04  4.665186E+03 -5.321597E-09  7.903521E-09
       358  11 -8.619943E+05 -1.613881E+04 -3.823652E+04 -6.043024E+02 -2.189421E-09  5.479430E-09
       358  12 -8.821012E+05 -3.987199E+04 -6.203119E+04  1.045707E+04 -4.390007E-10  5.414639E-09
       358  13 -7.884065E+05  7.939604E+02 -1.176515E+04  6.750738E+03 -6.148008E-10 -1.511096E-09
       358  14 -7.849743E+05  3.032346E+03 -1.944181E+04 -1.390573E+03 -3.467823E-09  3.475093E-09
       358  15 -7.884168E+05 -1.656580E+04 -3.914744E+04  6.798968E+03  1.407281E-10 -2.117174E-09
       358  16 -7.280262E+05  1.585215E+04  3.024750E+03  8.836491E+03  2.742274E-09  1.214802E-09
       358  17 -7.079489E+05  2.220306E+04 -6.475209E+02 -2.176946E+03  1.396039E-09 -5.228502E-10
       358  18 -6.947244E+05  6.739792E+03 -1.626433E+04  3.140305E+03 -1.457522E-09 -5.003332E-09
       358  19 -8.487835E+05 -1.426446E+04 -2.655517E+04  4.665196E+03 -8.756724E+03 -1.308701E+03
       358  20 -8.619939E+05 -1.613870E+04 -3.823584E+04 -6.042725E+02 -1.892490E+04 -1.961146E+03
       358  21 -8.821003E+05 -3.987175E+04 -6.202959E+04  1.045713E+04 -2.909357E+04 -2.298380E+03
       358  22 -7.884064E+05  7.939843E+02 -1.176499E+04  6.750748E+03 -9.056915E+03 -1.309589E+03
       358  23 -7.849739E+05  3.032448E+03 -1.944111E+04 -1.390543E+03 -1.910526E+04 -1.961611E+03
       358  24 -7.884159E+05 -1.656557E+04 -3.914584E+04  6.799022E+03 -2.915439E+04 -2.298346E+03
       358  25 -7.280261E+05  1.585218E+04  3.024918E+03  8.836501E+03 -9.357134E+03 -1.310479E+03
       358  26 -7.079485E+05  2.220317E+04 -6.468139E+02 -2.176916E+03 -1.928565E+04 -1.962076E+03
       358  27 -6.947234E+05  6.740027E+03 -1.626272E+04  3.140359E+03 -2.921521E+04 -2.298311E+03
       359   1 -9.226818E+05 -2.495148E+04 -7.816640E+04 -8.888924E+03  3.588580E+04  3.126388E+03
       359   2 -9.140221E+05 -1.070681E+04 -1.090934E+05  7.746131E+03  7.763908E+04  3.913383E+03
       359   3 -9.552314E+05 -1.738356E+05 -2.115866E+05  4.039011E+04  1.194002E+05  1.592389E+03
       359   4 -7.979105E+05  6.223703E+03 -4.767944E+04  6.578632E+03  3.674563E+04  3.129569E+03
       359   5 -7.731108E+05  2.430885E+04 -7.477063E+04 -1.248583E+03  7.731374E+04  3.911320E+03
       359   6 -7.979632E+05 -1.347538E+05 -1.725926E+05  6.934081E+03  1.178909E+05  1.582096E+03
       359   7 -6.731245E+05  3.739862E+04 -1.719350E+04  2.204930E+04  3.760563E+04  3.132793E+03
       359   8 -6.321812E+05  5.932335E+04 -4.044928E+04 -1.024536E+04  7.698832E+04  3.909267E+03
       359   9 -6.406701E+05 -9.566966E+04 -1.335997E+05 -2.653045E+04  1.163812E+05  1.571967E+03
       359  10 -9.226832E+05 -2.495183E+04 -7.816884E+04 -8.889015E+03  1.232396E-09  5.237106E-09
       359  11 -9.140286E+05 -1.070845E+04 -1.091048E+05  7.745886E+03  1.611940E-09 -1.366412E-09
       359  12 -9.552468E+05 -1.738394E+05 -2.116135E+05  4.038996E+04  3.476054E-10  6.564801E-10
       359  13 -7.979119E+05  6.223329E+03 -4.768200E+04  6.578540E+03 -1.698697E-10  4.707354E-09
       359  14 -7.731172E+05  2.430722E+04 -7.478191E+04 -1.248827E+03 -1.408555E-10 -6.950481E-09
       359  15 -7.979782E+05 -1.347575E+05 -1.726187E+05  6.933931E+03 -7.822100E-10  3.164404E-09
       359  16 -6.731260E+05  3.739823E+04 -1.719618E+04  2.204921E+04 -3.861237E-09  1.187480E-09
       359  17 -6.321875E+05  5.932174E+04 -4.046046E+04 -1.024560E+04 -1.714867E-09  2.474654E-09
       359  18 -6.406846E+05 -9.567330E+04 -1.336252E+05 -2.653060E+04 -8.288603E-10  9.269330E-11
       359  19 -9.226818E+05 -2.495148E+04 -7.816640E+04 -8.888924E+03 -3.588580E+04 -3.126388E+03
       359  20 -9.140221E+05 -1.070681E+04 -1.090934E+05  7.746131E+03 -7.763908E+04 -3.913383E+03
       359  21 -9.552314E+05 -1.738356E+05 -2.115866E+05  4.039011E+04 -1.194002E+05 -1.592389E+03
       359  22 -7.979105E+05  6.223703E+03 -4.767944E+04  6.578632E+03 -3.674563E+04 -3.129569E+03
       359  23 -7.731108E+05  2.430885E+04 -7.477063E+04 -1.248583E+03 -7.731374E+04 -3.911320E+03
       359  24 -7.979632E+05 -1.347538E+05 -1.725926E+05  6.934081E+03 -1.178909E+05 -1.582096E+03
       359  25 -6.731245E+05  3.739862E+04 -1.719350E+04  2.204930E+04 -3.760563E+04 -3.132793E+03
       359  26 -6.321812E+05  5.932335E+04 -4.044928E+04 -1.024536E+04 -7.698832E+04 -3.909267E+03
       359  27 -6.406701E+05 -9.566966E+04 -1.335997E+05 -2.653045E+04 -1.163812E+05 -1.571967E+03
       360   1  6.393946E+05  3.587752E+06  7.381332E+05 -2.198793E+05  8.665786E+03  3.042405E+05
       360   2  1.684175E+05  3.288659E+06  4.322534E+05 -4.257182E+04  2.448832E+04  1.838048E+05
       360   3  1.657431E+05  3.122552E+06  3.216287E+05 -9.168071E+04  1.586033E+04  6.335646E+04
       360   4  3.478491E+05  2.417051E+06  4.487238E+05 -1.300662E+05  8.727545E+03  2.931706E+05
       360   5 -6.402853E+04  2.351504E+06  2.049252E+05 -1.715756E+04  2.450102E+04  1.823465E+05
       360   6 -8.881123E+03  2.417476E+06  1.499874E+05 -1.306565E+05  1.583258E+04  7.146351E+04
       360   7  5.623140E+04  1.247607E+06  1.592174E+05 -4.042113E+04  8.786207E+03  2.821211E+05
       360   8 -2.965365E+05  1.415149E+06 -2.246585E+04  8.218857E+03  2.451361E+04  1.808901E+05
       360   9 -1.835359E+05  1.712854E+06 -2.168875E+04 -1.695878E+05  1.580381E+04  7.956138E+04
       360  10  6.393699E+05  3.587653E+06  7.379601E+05 -2.198814E+05  1.693577E-10  1.308945E-09
       360  11  1.684078E+05  3.288622E+06  4.321891E+05 -4.257544E+04  7.645279E-10 -2.732769E-09
       360  12  1.657417E+05  3.122548E+06  3.216207E+05 -9.168152E+04  2.057500E-09 -2.240956E-09
       360  13  3.478261E+05  2.416959E+06  4.485627E+05 -1.300682E+05  2.228966E-09 -1.888003E-09
       360  14 -6.403805E+04  2.351469E+06  2.048619E+05 -1.716116E+04  2.686572E-10  2.429980E-09
       360  15 -8.882757E+03  2.417470E+06  1.499774E+05 -1.306574E+05 -1.332562E-10 -2.161067E-09
       360  16  5.621000E+04  1.247521E+06  1.590680E+05 -4.042313E+04 -3.147176E-10 -4.804712E-10
       360  17 -2.965459E+05  1.415114E+06 -2.252832E+04  8.215288E+03  1.715674E-09  4.657688E-09
       360  18 -1.835378E+05  1.712847E+06 -2.170108E+04 -1.695888E+05  1.957775E-09  3.198701E-09
       360  19  6.393946E+05  3.587752E+06  7.381332E+05 -2.198793E+05 -8.665786E+03 -3.042405E+05
       360  20  1.684175E+05  3.288659E+06  4.322534E+05 -4.257182E+04 -2.448832E+04 -1.838048E+05
       360  21  1.657431E+05  3.122552E+06  3.216287E+05 -9.168071E+04 -1.586033E+04 -6.335646E+04
       360  22  3.478491E+05  2.417051E+06  4.487238E+05 -1.300662E+05 -8.727545E+03 -2.931706E+05
       360  23 -6.402853E+04  2.351504E+06  2.049252E+05 -1.715756E+04 -2.450102E+04 -1.823465E+05
       360  24 -8.881123E+03  2.417476E+06  1.499874E+05 -1.306565E+05 -1.583258E+04 -7.146351E+04
       360  25  5.623140E+04  1.247607E+06  1.592174E+05 -4.042113E+04 -8.786207E+03 -2.821211E+05
       360  26 -2.965365E+05  1.415149E+06 -2.246585E+04  8.218857E+03 -2.451361E+04 -1.808901E+05
       360  27 -1.835359E+05  1.712854E+06 -2.168875E+04 -1.695878E+05 -1.580381E+04 -7.956138E+04
       361   1  1.094315E+05  2.671266E+06  2.026354E+05 -1.456400E+05  7.016064E+03  4.400974E+04
       361   2 -4.818068E+03  2.427564E+06  1.214353E+05 -1.866060E+04  1.261526E+03 -1.271056E+04
       361   3  6.802399E+03  2.220988E+06  1.081639E+05 -1.113878E+05 -4.662282E+03 -6.941223E+04
       361   4  4.116603E+04  2.396526E+06  1.359132E+05 -1.289160E+05  7.010042E+03  4.625475E+04
       361   5 -1.711520E+04  2.377985E+06  1.093800E+05 -1.904889E+04  1.254049E+03 -1.038900E+04
       361   6  5.046915E+04  2.396513E+06  1.507341E+05 -1.288833E+05 -4.668271E+03 -6.703437E+04
       361   7 -2.710393E+04  2.121855E+06  6.918563E+04 -1.121994E+05  7.004139E+03  4.849878E+04
       361   8 -2.941250E+04  2.328409E+06  9.732446E+04 -1.943715E+04  1.246568E+03 -8.067618E+03
       361   9  9.413477E+04  2.572067E+06  1.933023E+05 -1.463837E+05 -4.674394E+03 -6.465583E+04
       361  10  1.094309E+05  2.671264E+06  2.026317E+05 -1.456403E+05  1.600115E-09 -8.487227E-10
       361  11 -4.818112E+03  2.427563E+06  1.214350E+05 -1.866058E+04 -7.727475E-10 -6.181111E-09
       361  12  6.801088E+03  2.220983E+06  1.081548E+05 -1.113881E+05 -2.137256E-09 -2.033260E-09
       361  13  4.116541E+04  2.396524E+06  1.359091E+05 -1.289163E+05 -1.541837E-09 -3.341538E-09
       361  14 -1.711523E+04  2.377985E+06  1.093798E+05 -1.904888E+04 -1.277678E-09  2.667682E-09
       361  15  5.046792E+04  2.396509E+06  1.507257E+05 -1.288836E+05  2.087820E-09 -2.474546E-09
       361  16 -2.710461E+04  2.121852E+06  6.918113E+04 -1.121997E+05  9.662150E-11  3.068051E-09
       361  17 -2.941252E+04  2.328409E+06  9.732434E+04 -1.943714E+04 -1.859100E-09  8.897179E-09
       361  18  9.413363E+04  2.572063E+06  1.932945E+05 -1.463840E+05  1.871024E-09  3.810747E-09
       361  19  1.094315E+05  2.671266E+06  2.026354E+05 -1.456400E+05 -7.016064E+03 -4.400974E+04
       361  20 -4.818068E+03  2.427564E+06  1.214353E+05 -1.866060E+04 -1.261526E+03  1.271056E+04
       361  21  6.802399E+03  2.220988E+06  1.081639E+05 -1.113878E+05  4.662282E+03  6.941223E+04
       361  22  4.116603E+04  2.396526E+06  1.359132E+05 -1.289160E+05 -7.010042E+03 -4.625475E+04
       361  23 -1.711520E+04  2.377985E+06  1.093800E+05 -1.904889E+04 -1.254049E+03  1.038900E+04
       361  24  5.046915E+04  2.396513E+06  1.507341E+05 -1.288833E+05  4.668271E+03  6.703437E+04
       361  25 -2.710393E+04  2.121855E+06  6.918563E+04 -1.121994E+05 -7.004139E+03 -4.849878E+04
       361  26 -2.941250E+04  2.328409E+06  9.732446E+04 -1.943715E+04 -1.246568E+03  8.067618E+03
       361  27  9.413477E+04  2.572067E+06  1.933023E+05 -1.463837E+05  4.674394E+03  6.465583E+04
       362   1 -1.628710E+05  1.819032E+06  2.355275E+04 -1.774180E+05 -1.317741E+04 -1.030386E+05
       362   2 -2.839526E+05  1.510072E+06  4.024385E+04  1.274918E+04 -2.172373E+04 -2.257133E+05
       362   3  1.539588E+05  1.356898E+06  2.764986E+05 -2.189125E+04 -7.731425E+03 -3.482792E+05
       362   4 -1.323898E+04  2.423174E+06  1.707755E+05 -1.303732E+05 -1.320904E+04 -9.535021E+04
       362   5 -7.672833E+04  2.344429E+06  2.428453E+05 -1.757199E+04 -2.170856E+04 -2.268636E+05
       362   6  4.198709E+05  2.422674E+06  5.403616E+05 -1.295398E+05 -7.652334E+03 -3.583149E+05
       362   7  1.363747E+05  3.027652E+06  3.179733E+05 -8.328228E+04 -1.323949E+04 -8.765434E+04
       362   8  1.304482E+05  3.179421E+06  4.453971E+05 -4.793355E+04 -2.169330E+04 -2.280153E+05
       362   9  6.857413E+05  3.489503E+06  8.041467E+05 -2.373723E+05 -7.569881E+03 -3.683674E+05
       362  10 -1.628740E+05  1.819021E+06  2.353253E+04 -1.774191E+05 -8.557637E-10 -2.688372E-09
       362  11 -2.839667E+05  1.510017E+06  4.014747E+04  1.274524E+04  6.209966E-10 -5.086069E-09
       362  12  1.539263E+05  1.356768E+06  2.762710E+05 -2.189342E+04 -7.475765E-10  3.285487E-10
       362  13 -1.324160E+04  2.423164E+06  1.707582E+05 -1.303742E+05 -3.825297E-10 -3.002380E-09
       362  14 -7.674258E+04  2.344373E+06  2.427481E+05 -1.757596E+04 -8.923716E-10  2.665449E-09
       362  15  4.198366E+05  2.422536E+06  5.401212E+05 -1.295420E+05 -1.143520E-09 -6.424237E-10
       362  16  1.363725E+05  3.027644E+06  3.179586E+05 -8.328321E+04  2.585581E-09  3.757270E-09
       362  17  1.304338E+05  3.179365E+06  4.452990E+05 -4.793753E+04 -3.548121E-09  6.647729E-09
       362  18  6.857050E+05  3.489358E+06  8.038930E+05 -2.373745E+05 -1.446055E-09  9.882341E-10
       362  19 -1.628710E+05  1.819032E+06  2.355275E+04 -1.774180E+05  1.317741E+04  1.030386E+05
       362  20 -2.839526E+05  1.510072E+06  4.024385E+04  1.274918E+04  2.172373E+04  2.257133E+05
       362  21  1.539588E+05  1.356898E+06  2.764986E+05 -2.189125E+04  7.731425E+03  3.482792E+05
       362  22 -1.323898E+04  2.423174E+06  1.707755E+05 -1.303732E+05  1.320904E+04  9.535021E+04
       362  23 -7.672833E+04  2.344429E+06  2.428453E+05 -1.757199E+04  2.170856E+04  2.268636E+05
       362  24  4.198709E+05  2.422674E+06  5.403616E+05 -1.295398E+05  7.652334E+03  3.583149E+05
       362  25  1.363747E+05  3.027652E+06  3.179733E+05 -8.328228E+04  1.323949E+04  8.765434E+04
       362  26  1.304482E+05  3.179421E+06  4.453971E+05 -4.793355E+04  2.169330E+04  2.280153E+05
       362  27  6.857413E+05  3.489503E+06  8.041467E+05 -2.373723E+05  7.569881E+03  3.683674E+05
       363   1 -1.972157E+05 -8.468316E+04 -8.552439E+04 -6.587138E+04 -8.398025E+04 -3.281487E+04
       363   2 -1.733532E+05  3.207230E+04 -7.844732E+03 -9.670942E+04 -5.341029E+04 -2.365894E+04
       363   3 -2.090245E+05  2.182602E+04  1.127898E+04 -8.628953E+04 -2.377926E+04 -1.201155E+04
       363   4 -3.852179E+05 -1.413211E+05 -1.342983E+05 -1.023047E+05 -8.470289E+04 -3.308935E+04
       363   5 -3.486797E+05 -3.045868E+04 -5.493272E+04 -1.407345E+05 -5.358245E+04 -2.372426E+04
       363   6 -3.717990E+05 -4.672969E+04 -3.457316E+04 -1.379024E+05 -2.340026E+04 -1.186840E+04
       363   7 -5.731852E+05 -1.979593E+05 -1.830746E+05 -1.387293E+05 -8.542528E+04 -3.336378E+04
       363   8 -5.239765E+05 -9.298856E+04 -1.020233E+05 -1.847487E+05 -5.375454E+04 -2.378957E+04
       363   9 -5.345480E+05 -1.152820E+05 -8.042781E+04 -1.895025E+05 -2.302138E+04 -1.172530E+04
       363  10 -1.972235E+05 -8.468621E+04 -8.553967E+04 -6.587360E+04  6.339435E-10 -6.353410E-10
       363  11 -1.733564E+05  3.207093E+04 -7.851147E+03 -9.671044E+04  8.133270E-10 -1.404427E-09
       363  12 -2.090251E+05  2.182571E+04  1.127765E+04 -8.628976E+04  5.588222E-10 -1.059181E-09
       363  13 -3.852259E+05 -1.413242E+05 -1.343138E+05 -1.023069E+05  3.856168E-10  1.485587E-09
       363  14 -3.486830E+05 -3.046006E+04 -5.493918E+04 -1.407355E+05 -1.525096E-09 -3.610193E-10
       363  15 -3.717997E+05 -4.672999E+04 -3.457446E+04 -1.379026E+05 -1.691491E-09 -2.299909E-09
       363  16 -5.731934E+05 -1.979625E+05 -1.830905E+05 -1.387316E+05 -1.245006E-09 -1.823958E-10
       363  17 -5.239797E+05 -9.298994E+04 -1.020298E+05 -1.847497E+05 -1.392306E-09 -2.290246E-09
       363  18 -5.345486E+05 -1.152823E+05 -8.042907E+04 -1.895027E+05 -4.679194E-10 -3.268806E-09
       363  19 -1.972157E+05 -8.468316E+04 -8.552439E+04 -6.587138E+04  8.398025E+04  3.281487E+04
       363  20 -1.733532E+05  3.207230E+04 -7.844732E+03 -9.670942E+04  5.341029E+04  2.365894E+04
       363  21 -2.090245E+05  2.182602E+04  1.127898E+04 -8.628953E+04  2.377926E+04  1.201155E+04
       363  22 -3.852179E+05 -1.413211E+05 -1.342983E+05 -1.023047E+05  8.470289E+04  3.308935E+04
       363  23 -3.486797E+05 -3.045868E+04 -5.493272E+04 -1.407345E+05  5.358245E+04  2.372426E+04
       363  24 -3.717990E+05 -4.672969E+04 -3.457316E+04 -1.379024E+05  2.340026E+04  1.186840E+04
       363  25 -5.731852E+05 -1.979593E+05 -1.830746E+05 -1.387293E+05  8.542528E+04  3.336378E+04
       363  26 -5.239765E+05 -9.298856E+04 -1.020233E+05 -1.847487E+05  5.375454E+04  2.378957E+04
       363  27 -5.345480E+05 -1.152820E+05 -8.042781E+04 -1.895025E+05  2.302138E+04  1.172530E+04
       364   1 -2.212025E+05 -8.676131E+03  1.116809E+04 -9.094540E+04 -1.831984E+04 -9.393505E+03
       364   2 -2.195061E+05  3.388495E+03  2.515895E+04 -1.000238E+05 -1.150013E+04 -6.942169E+03
       364   3 -2.325112E+05  2.990139E+03  2.887940E+04 -9.656061E+04 -4.819200E+03 -4.122980E+03
       364   4 -3.676070E+05 -6.207968E+04 -2.845673E+04 -1.289081E+05 -1.838143E+04 -9.416848E+03
       364   5 -3.592780E+05 -4.903266E+04 -1.292578E+04 -1.377454E+05 -1.148067E+04 -6.934880E+03
       364   6 -3.656683E+05 -4.846734E+04 -7.731363E+03 -1.340406E+05 -4.718629E+03 -4.085030E+03
       364   7 -5.139911E+05 -1.154824E+05 -6.808352E+04 -1.668630E+05 -1.844301E+04 -9.440186E+03
       364   8 -4.990313E+05 -1.014528E+05 -5.101230E+04 -1.754595E+05 -1.146121E+04 -6.927592E+03
       364   9 -4.988085E+05 -9.992359E+04 -4.434375E+04 -1.715133E+05 -4.618081E+03 -4.047089E+03
       364  10 -2.212029E+05 -8.676316E+03  1.116729E+04 -9.094554E+04  9.850481E-10 -4.022856E-09
       364  11 -2.195062E+05  3.388408E+03  2.515861E+04 -1.000239E+05 -1.683680E-09 -4.477244E-09
       364  12 -2.325112E+05  2.990114E+03  2.887932E+04 -9.656063E+04  1.426719E-09 -4.170784E-09
       364  13 -3.676074E+05 -6.207986E+04 -2.845754E+04 -1.289083E+05  9.813612E-10 -3.143969E-09
       364  14 -3.592781E+05 -4.903274E+04 -1.292612E+04 -1.377455E+05  3.938100E-10 -4.381017E-09
       364  15 -3.656684E+05 -4.846736E+04 -7.731436E+03 -1.340406E+05  1.409036E-09 -1.227136E-09
       364  16 -5.139915E+05 -1.154826E+05 -6.808432E+04 -1.668632E+05 -1.130606E-09 -2.461972E-09
       364  17 -4.990314E+05 -1.014529E+05 -5.101264E+04 -1.754596E+05  1.756984E-09 -3.212119E-09
       364  18 -4.988085E+05 -9.992361E+04 -4.434383E+04 -1.715133E+05  1.294636E-09 -2.893760E-09
       364  19 -2.212025E+05 -8.676131E+03  1.116809E+04 -9.094540E+04  1.831984E+04  9.393505E+03
       364  20 -2.195061E+05  3.388495E+03  2.515895E+04 -1.000238E+05  1.150013E+04  6.942169E+03
       364  21 -2.325112E+05  2.990139E+03  2.887940E+04 -9.656061E+04  4.819200E+03  4.122980E+03
       364  22 -3.676070E+05 -6.207968E+04 -2.845673E+04 -1.289081E+05  1.838143E+04  9.416848E+03
       364  23 -3.592780E+05 -4.903266E+04 -1.292578E+04 -1.377454E+05  1.148067E+04  6.934880E+03
       364  24 -3.656683E+05 -4.846734E+04 -7.731363E+03 -1.340406E+05  4.718629E+03  4.085030E+03
       364  25 -5.139911E+05 -1.154824E+05 -6.808352E+04 -1.668630E+05  1.844301E+04  9.440186E+03
       364  26 -4.990313E+05 -1.014528E+05 -5.101230E+04 -1.754595E+05  1.146121E+04  6.927592E+03
       364  27 -4.988085E+05 -9.992359E+04 -4.434375E+04 -1.715133E+05  4.618081E+03  4.047089E+03
       365   1 -2.567534E+05 -9.747593E+03  2.338954E+04 -1.032028E+05 -3.675954E+03 -3.477969E+03
       365   2 -2.585496E+05 -1.322553E+04  2.490104E+04 -1.095952E+05 -2.205299E+03 -2.708428E+03
       365   3 -2.689266E+05 -1.206269E+04  2.452449E+04 -1.068999E+05 -7.597496E+02 -1.872753E+03
       365   4 -3.651390E+05 -5.053181E+04 -6.160492E+03 -1.325932E+05 -3.640729E+03 -3.464692E+03
       365   5 -3.607076E+05 -5.187436E+04 -3.006035E+03 -1.375058E+05 -2.155480E+03 -2.689625E+03
       365   6 -3.648603E+05 -4.857917E+04 -1.751456E+03 -1.333306E+05 -6.953192E+02 -1.848412E+03
       365   7 -4.735132E+05 -9.131534E+04 -3.571155E+04 -1.619789E+05 -3.605511E+03 -3.451419E+03
       365   8 -4.628555E+05 -9.052260E+04 -3.091405E+04 -1.654124E+05 -2.105670E+03 -2.670826E+03
       365   9 -4.607852E+05 -8.509513E+04 -2.802827E+04 -1.597577E+05 -6.308997E+02 -1.824075E+03
       365  10 -2.567535E+05 -9.747609E+03  2.338950E+04 -1.032028E+05 -2.482562E-10 -2.054559E-09
       365  11 -2.585496E+05 -1.322554E+04  2.490101E+04 -1.095952E+05  1.290839E-09  9.448031E-10
       365  12 -2.689266E+05 -1.206269E+04  2.452448E+04 -1.068999E+05  8.130241E-10  5.116893E-09
       365  13 -3.651390E+05 -5.053183E+04 -6.160540E+03 -1.325932E+05  2.345406E-09  3.279364E-10
       365  14 -3.607076E+05 -5.187437E+04 -3.006057E+03 -1.375059E+05 -1.681798E-09  7.529437E-10
       365  15 -3.648603E+05 -4.857917E+04 -1.751463E+03 -1.333306E+05  2.668679E-09 -2.068879E-09
       365  16 -4.735132E+05 -9.131535E+04 -3.571160E+04 -1.619789E+05  1.142560E-09  2.919414E-09
       365  17 -4.628556E+05 -9.052261E+04 -3.091407E+04 -1.654124E+05  3.705336E-09 -6.425497E-10
       365  18 -4.607852E+05 -8.509513E+04 -2.802828E+04 -1.597577E+05  8.702453E-11  1.748011E-09
       365  19 -2.567534E+05 -9.747593E+03  2.338954E+04 -1.032028E+05  3.675954E+03  3.477969E+03
       365  20 -2.585496E+05 -1.322553E+04  2.490104E+04 -1.095952E+05  2.205299E+03  2.708428E+03
       365  21 -2.689266E+05 -1.206269E+04  2.452449E+04 -1.068999E+05  7.597496E+02  1.872753E+03
       365  22 -3.651390E+05 -5.053181E+04 -6.160492E+03 -1.325932E+05  3.640729E+03  3.464692E+03
       365  23 -3.607076E+05 -5.187436E+04 -3.006035E+03 -1.375058E+05  2.155480E+03  2.689625E+03
       365  24 -3.648603E+05 -4.857917E+04 -1.751456E+03 -1.333306E+05  6.953192E+02  1.848412E+03
       365  25 -4.735132E+05 -9.131534E+04 -3.571155E+04 -1.619789E+05  3.605511E+03  3.451419E+03
       365  26 -4.628555E+05 -9.052260E+04 -3.091405E+04 -1.654124E+05  2.105670E+03  2.670826E+03
       365  27 -4.607852E+05 -8.509513E+04 -2.802827E+04 -1.597577E+05  6.308997E+02  1.824075E+03
       366   1 -2.965704E+05 -2.294136E+04  1.725988E+04 -1.143546E+05 -5.475312E+02 -1.616968E+03
       366   2 -2.989941E+05 -2.895050E+04  1.616488E+04 -1.206543E+05 -2.702473E+02 -1.234082E+03
       366   3 -3.094718E+05 -2.750115E+04  1.468721E+04 -1.179381E+05  4.379954E-01 -8.339533E+02
       366   4 -3.648607E+05 -4.878950E+04 -1.376221E+03 -1.330297E+05 -4.947475E+02 -1.597020E+03
       366   5 -3.608140E+05 -5.238299E+04 -7.324993E+02 -1.375889E+05 -2.136280E+02 -1.212675E+03
       366   6 -3.648222E+05 -4.851879E+04 -4.745323E+02 -1.331322E+05  6.089670E+01 -8.110850E+02
       366   7 -4.331465E+05 -7.463736E+04 -2.001274E+04 -1.517031E+05 -4.419703E+02 -1.577075E+03
       366   8 -4.226302E+05 -7.581525E+04 -1.763021E+04 -1.545220E+05 -1.570148E+02 -1.191271E+03
       366   9 -4.201696E+05 -6.953622E+04 -1.563654E+04 -1.483251E+05  1.213494E+02 -7.882191E+02
       366  10 -2.965704E+05 -2.294136E+04  1.725988E+04 -1.143546E+05  2.536179E-09  5.589000E-09
       366  11 -2.989941E+05 -2.895050E+04  1.616488E+04 -1.206543E+05 -9.757351E-10  5.739301E-09
       366  12 -3.094718E+05 -2.750115E+04  1.468721E+04 -1.179381E+05  5.487459E-10 -5.114224E-09
       366  13 -3.648607E+05 -4.878950E+04 -1.376226E+03 -1.330297E+05  4.721369E-11  2.773004E-09
       366  14 -3.608140E+05 -5.238300E+04 -7.325022E+02 -1.375889E+05  5.872385E-10  8.538285E-09
       366  15 -3.648222E+05 -4.851879E+04 -4.745336E+02 -1.331322E+05  2.069309E-09 -3.188117E-09
       366  16 -4.331465E+05 -7.463736E+04 -2.001275E+04 -1.517031E+05  3.676330E-10 -1.790081E-09
       366  17 -4.226302E+05 -7.581525E+04 -1.763022E+04 -1.545220E+05  2.540545E-09 -4.411675E-09
       366  18 -4.201696E+05 -6.953622E+04 -1.563654E+04 -1.483251E+05  1.396063E-09 -2.811117E-09
       366  19 -2.965704E+05 -2.294136E+04  1.725988E+04 -1.143546E+05  5.475312E+02  1.616968E+03
       366  20 -2.989941E+05 -2.895050E+04  1.616488E+04 -1.206543E+05  2.702473E+02  1.234082E+03
       366  21 -3.094718E+05 -2.750115E+04  1.468721E+04 -1.179381E+05 -4.379954E-01  8.339533E+02
       366  22 -3.648607E+05 -4.878950E+04 -1.376221E+03 -1.330297E+05  4.947475E+02  1.597020E+03
       366  23 -3.608140E+05 -5.238299E+04 -7.324993E+02 -1.375889E+05  2.136280E+02  1.212675E+03
       366  24 -3.648222E+05 -4.851879E+04 -4.745323E+02 -1.331322E+05 -6.089670E+01  8.110850E+02
       366  25 -4.331465E+05 -7.463736E+04 -2.001274E+04 -1.517031E+05  4.419703E+02  1.577075E+03
       366  26 -4.226302E+05 -7.581525E+04 -1.763021E+04 -1.545220E+05  1.570148E+02  1.191271E+03
       366  27 -4.201696E+05 -6.953622E+04 -1.563654E+04 -1.483251E+05 -1.213494E+02  7.882191E+02
       367   1 -3.385133E+05 -3.852206E+04  6.765264E+03 -1.258403E+05  1.729498E+01 -6.507977E+02
       367   2 -3.410627E+05 -4.500937E+04  5.036497E+03 -1.322499E+05  9.763435E+01 -3.231774E+02
       367   3 -3.518016E+05 -4.356483E+04  3.128569E+03 -1.294466E+05  1.778629E+02  4.681010E+00
       367   4 -3.648637E+05 -4.850067E+04 -4.109010E+02 -1.330551E+05  7.567147E+01 -6.287116E+02
       367   5 -3.607718E+05 -5.248556E+04 -3.519770E+02 -1.376543E+05  1.560587E+02 -3.010703E+02
       367   6 -3.648693E+05 -4.853854E+04 -4.722197E+02 -1.330408E+05  2.363371E+02  2.681000E+01
       367   7 -3.912136E+05 -5.847925E+04 -7.587138E+03 -1.402695E+05  1.340453E+02 -6.066266E+02
       367   8 -3.804805E+05 -5.996173E+04 -5.740490E+03 -1.430587E+05  2.144810E+02 -2.789639E+02
       367   9 -3.779368E+05 -5.351225E+04 -4.073024E+03 -1.366349E+05  2.948099E+02  4.893848E+01
       367  10 -3.385133E+05 -3.852206E+04  6.765263E+03 -1.258403E+05 -3.934385E-10 -7.601351E-09
       367  11 -3.410627E+05 -4.500937E+04  5.036497E+03 -1.322499E+05 -1.356910E-09  3.788666E-09
       367  12 -3.518016E+05 -4.356483E+04  3.128568E+03 -1.294466E+05  4.932279E-10 -3.494656E-09
       367  13 -3.648637E+05 -4.850067E+04 -4.109018E+02 -1.330551E+05 -7.991865E-10 -1.059372E-09
       367  14 -3.607718E+05 -5.248556E+04 -3.519773E+02 -1.376543E+05 -2.012199E-09  5.970694E-09
       367  15 -3.648693E+05 -4.853854E+04 -4.722198E+02 -1.330408E+05 -1.685616E-09  2.664288E-09
       367  16 -3.912136E+05 -5.847925E+04 -7.587139E+03 -1.402695E+05  1.848753E-09  2.283521E-09
       367  17 -3.804805E+05 -5.996173E+04 -5.740490E+03 -1.430587E+05  7.659419E-10 -2.726730E-09
       367  18 -3.779368E+05 -5.351225E+04 -4.073024E+03 -1.366349E+05 -7.648720E-10 -3.231231E-09
       367  19 -3.385133E+05 -3.852206E+04  6.765264E+03 -1.258403E+05 -1.729498E+01  6.507977E+02
       367  20 -3.410627E+05 -4.500937E+04  5.036497E+03 -1.322499E+05 -9.763435E+01  3.231774E+02
       367  21 -3.518016E+05 -4.356483E+04  3.128569E+03 -1.294466E+05 -1.778629E+02 -4.681010E+00
       367  22 -3.648637E+05 -4.850067E+04 -4.109010E+02 -1.330551E+05 -7.567147E+01  6.287116E+02
       367  23 -3.607718E+05 -5.248556E+04 -3.519770E+02 -1.376543E+05 -1.560587E+02  3.010703E+02
       367  24 -3.648693E+05 -4.853854E+04 -4.722197E+02 -1.330408E+05 -2.363371E+02 -2.681000E+01
       367  25 -3.912136E+05 -5.847925E+04 -7.587138E+03 -1.402695E+05 -1.340453E+02  6.066266E+02
       367  26 -3.804805E+05 -5.996173E+04 -5.740490E+03 -1.430587E+05 -2.144810E+02  2.789639E+02
       367  27 -3.779368E+05 -5.351225E+04 -4.073024E+03 -1.366349E+05 -2.948099E+02 -4.893848E+01
       368   1 -3.812174E+05 -5.469754E+04 -5.057351E+03 -1.376104E+05  1.973594E+02  1.950341E+02
       368   2 -3.837004E+05 -6.108327E+04 -7.167710E+03 -1.439523E+05  5.628959E+02  6.383953E+02
       368   3 -3.946314E+05 -6.017601E+04 -9.842213E+03 -1.409377E+05  9.418290E+02  1.046424E+03
       368   4 -3.648947E+05 -4.845857E+04 -5.602094E+02 -1.330927E+05  2.612635E+02  2.192177E+02
       368   5 -3.607109E+05 -5.238092E+04 -8.866157E+02 -1.376669E+05  6.188798E+02  6.595781E+02
       368   6 -3.649735E+05 -4.900872E+04 -1.770852E+03 -1.328846E+05  9.898982E+02  1.064609E+03
       368   7 -3.485718E+05 -4.221960E+04  3.936902E+03 -1.285749E+05  3.251695E+02  2.434021E+02
       368   8 -3.377209E+05 -4.367854E+04  5.394431E+03 -1.313812E+05  6.748659E+02  6.807617E+02
       368   9 -3.353147E+05 -3.784136E+04  6.300441E+03 -1.248311E+05  1.037970E+03  1.082795E+03
       368  10 -3.812174E+05 -5.469754E+04 -5.057352E+03 -1.376104E+05 -3.221449E-09 -9.416259E-10
       368  11 -3.837004E+05 -6.108327E+04 -7.167712E+03 -1.439523E+05 -4.289338E-09  4.771719E-09
       368  12 -3.946314E+05 -6.017601E+04 -9.842217E+03 -1.409377E+05 -1.274673E-09 -9.016325E-11
       368  13 -3.648947E+05 -4.845857E+04 -5.602096E+02 -1.330927E+05 -3.467968E-09 -5.428817E-10
       368  14 -3.607109E+05 -5.238092E+04 -8.866173E+02 -1.376669E+05 -2.319288E-09  5.335636E-09
       368  15 -3.649735E+05 -4.900872E+04 -1.770856E+03 -1.328846E+05 -3.386718E-10  5.825189E-10
       368  16 -3.485718E+05 -4.221960E+04  3.936902E+03 -1.285749E+05  3.033680E-09  1.074445E-09
       368  17 -3.377209E+05 -4.367854E+04  5.394429E+03 -1.313812E+05  1.366319E-09  6.741896E-09
       368  18 -3.353147E+05 -3.784136E+04  6.300437E+03 -1.248311E+05  5.740785E-10 -2.012288E-09
       368  19 -3.812174E+05 -5.469754E+04 -5.057351E+03 -1.376104E+05 -1.973594E+02 -1.950341E+02
       368  20 -3.837004E+05 -6.108327E+04 -7.167710E+03 -1.439523E+05 -5.628959E+02 -6.383953E+02
       368  21 -3.946314E+05 -6.017601E+04 -9.842213E+03 -1.409377E+05 -9.418290E+02 -1.046424E+03
       368  22 -3.648947E+05 -4.845857E+04 -5.602094E+02 -1.330927E+05 -2.612635E+02 -2.192177E+02
       368  23 -3.607109E+05 -5.238092E+04 -8.866157E+02 -1.376669E+05 -6.188798E+02 -6.595781E+02
       368  24 -3.649735E+05 -4.900872E+04 -1.770852E+03 -1.328846E+05 -9.898982E+02 -1.064609E+03
       368  25 -3.485718E+05 -4.221960E+04  3.936902E+03 -1.285749E+05 -3.251695E+02 -2.434021E+02
       368  26 -3.377209E+05 -4.367854E+04  5.394431E+03 -1.313812E+05 -6.748659E+02 -6.807617E+02
       368  27 -3.353147E+05 -3.784136E+04  6.300441E+03 -1.248311E+05 -1.037970E+03 -1.082795E+03
       369   1 -4.234624E+05 -7.085873E+04 -1.824781E+04 -1.495999E+05  1.158718E+03  1.342136E+03
       369   2 -4.254119E+05 -7.609788E+04 -2.144370E+04 -1.554130E+05  3.059654E+03  2.381946E+03
       369   3 -4.374966E+05 -7.896591E+04 -2.762549E+04 -1.509416E+05  5.050310E+03  3.184569E+03
       369   4 -3.651086E+05 -4.843313E+04 -2.212280E+03 -1.333093E+05  1.248472E+03  1.376087E+03
       369   5 -3.603234E+05 -5.155986E+04 -3.683018E+03 -1.377196E+05  3.096344E+03  2.395813E+03
       369   6 -3.656627E+05 -5.230462E+04 -8.097304E+03 -1.318457E+05  5.033954E+03  3.178368E+03
       369   7 -3.067516E+05 -2.600731E+04  1.382294E+04 -1.170173E+05  1.338236E+03  1.410042E+03
       369   8 -2.952309E+05 -2.702163E+04  1.407727E+04 -1.200246E+05  3.133038E+03  2.409680E+03
       369   9 -2.938239E+05 -2.564313E+04  1.143039E+04 -1.127478E+05  5.017596E+03  3.172167E+03
       369  10 -4.234624E+05 -7.085873E+04 -1.824782E+04 -1.495999E+05 -5.569897E-10 -9.755961E-09
       369  11 -4.254119E+05 -7.609789E+04 -2.144373E+04 -1.554130E+05 -8.768681E-10  7.231312E-09
       369  12 -4.374966E+05 -7.896593E+04 -2.762555E+04 -1.509416E+05  1.442618E-09 -2.722648E-09
       369  13 -3.651086E+05 -4.843313E+04 -2.212287E+03 -1.333093E+05  2.005683E-09 -2.887447E-09
       369  14 -3.603235E+05 -5.155987E+04 -3.683046E+03 -1.377196E+05  4.989437E-10 -3.844448E-09
       369  15 -3.656627E+05 -5.230464E+04 -8.097371E+03 -1.318457E+05  2.297790E-09 -6.164547E-09
       369  16 -3.067516E+05 -2.600732E+04  1.382293E+04 -1.170173E+05  3.743412E-09 -2.990909E-09
       369  17 -2.952310E+05 -2.702163E+04  1.407724E+04 -1.200246E+05  2.155378E-09 -1.499058E-09
       369  18 -2.938240E+05 -2.564315E+04  1.143032E+04 -1.127478E+05  1.195428E-09 -2.762058E-09
       369  19 -4.234624E+05 -7.085873E+04 -1.824781E+04 -1.495999E+05 -1.158718E+03 -1.342136E+03
       369  20 -4.254119E+05 -7.609788E+04 -2.144370E+04 -1.554130E+05 -3.059654E+03 -2.381946E+03
       369  21 -4.374966E+05 -7.896591E+04 -2.762549E+04 -1.509416E+05 -5.050310E+03 -3.184569E+03
       369  22 -3.651086E+05 -4.843313E+04 -2.212280E+03 -1.333093E+05 -1.248472E+03 -1.376087E+03
       369  23 -3.603234E+05 -5.155986E+04 -3.683018E+03 -1.377196E+05 -3.096344E+03 -2.395813E+03
       369  24 -3.656627E+05 -5.230462E+04 -8.097304E+03 -1.318457E+05 -5.033954E+03 -3.178368E+03
       369  25 -3.067516E+05 -2.600731E+04  1.382294E+04 -1.170173E+05 -1.338236E+03 -1.410042E+03
       369  26 -2.952309E+05 -2.702163E+04  1.407727E+04 -1.200246E+05 -3.133038E+03 -2.409680E+03
       369  27 -2.938239E+05 -2.564313E+04  1.143039E+04 -1.127478E+05 -5.017596E+03 -3.172167E+03
       370   1 -4.644014E+05 -8.698132E+04 -3.692330E+04 -1.632308E+05  6.091516E+03  4.025783E+03
       370   2 -4.632293E+05 -8.524735E+04 -4.430862E+04 -1.663876E+05  1.493460E+04  7.821864E+03
       370   3 -4.847892E+05 -1.140226E+05 -6.876287E+04 -1.513268E+05  2.439750E+04  9.977397E+03
       370   4 -3.667916E+05 -4.799252E+04 -9.833694E+03 -1.344673E+05  6.365660E+03  4.129419E+03
       370   5 -3.573827E+05 -4.621706E+04 -1.562663E+04 -1.385006E+05  1.484177E+04  7.786734E+03
       370   6 -3.706306E+05 -7.487407E+04 -3.819506E+04 -1.243169E+05  2.393778E+04  9.803566E+03
       370   7 -2.691723E+05 -9.002797E+03  1.725508E+04 -1.056995E+05  6.639852E+03  4.233077E+03
       370   8 -2.515254E+05 -7.186275E+03  1.305434E+04 -1.106094E+05  1.474893E+04  7.751597E+03
       370   9 -2.564598E+05 -3.572541E+04 -7.628446E+03 -9.730291E+04  2.347796E+04  9.629708E+03
       370  10 -4.644015E+05 -8.698135E+04 -3.692340E+04 -1.632309E+05 -8.412811E-10  5.667268E-09
       370  11 -4.632295E+05 -8.524748E+04 -4.430915E+04 -1.663877E+05 -1.417121E-09  4.972951E-09
       370  12 -4.847899E+05 -1.140229E+05 -6.876418E+04 -1.513270E+05  1.647603E-10 -2.549888E-10
       370  13 -3.667916E+05 -4.799255E+04 -9.833802E+03 -1.344673E+05 -1.627856E-09  4.273789E-09
       370  14 -3.573829E+05 -4.621718E+04 -1.562716E+04 -1.385007E+05  1.766966E-09 -1.862380E-09
       370  15 -3.706312E+05 -7.487433E+04 -3.819632E+04 -1.243171E+05 -4.153838E-09  2.355172E-09
       370  16 -2.691724E+05 -9.002828E+03  1.725496E+04 -1.056995E+05  1.243942E-09  1.081658E-09
       370  17 -2.515256E+05 -7.186398E+03  1.305382E+04 -1.106095E+05 -2.383998E-09  2.626735E-09
       370  18 -2.564604E+05 -3.572566E+04 -7.629657E+03 -9.730310E+04 -4.423461E-10  3.830630E-10
       370  19 -4.644014E+05 -8.698132E+04 -3.692330E+04 -1.632308E+05 -6.091516E+03 -4.025783E+03
       370  20 -4.632293E+05 -8.524735E+04 -4.430862E+04 -1.663876E+05 -1.493460E+04 -7.821864E+03
       370  21 -4.847892E+05 -1.140226E+05 -6.876287E+04 -1.513268E+05 -2.439750E+04 -9.977397E+03
       370  22 -3.667916E+05 -4.799252E+04 -9.833694E+03 -1.344673E+05 -6.365660E+03 -4.129419E+03
       370  23 -3.573827E+05 -4.621706E+04 -1.562663E+04 -1.385006E+05 -1.484177E+04 -7.786734E+03
       370  24 -3.706306E+05 -7.487407E+04 -3.819506E+04 -1.243169E+05 -2.393778E+04 -9.803566E+03
       370  25 -2.691723E+05 -9.002797E+03  1.725508E+04 -1.056995E+05 -6.639852E+03 -4.233077E+03
       370  26 -2.515254E+05 -7.186275E+03  1.305434E+04 -1.106094E+05 -1.474893E+04 -7.751597E+03
       370  27 -2.564598E+05 -3.572541E+04 -7.628446E+03 -9.730291E+04 -2.347796E+04 -9.629708E+03
       371   1 -3.634415E+05 -1.596960E+04 -5.982377E+04 -2.295625E+04 -1.289111E+05 -4.914470E+03
       371   2 -3.671389E+05  1.569150E+05  4.139641E+04 -1.050799E+04 -8.664294E+04 -1.385888E+04
       371   3 -4.262528E+05  1.289443E+05  6.496564E+04  3.260482E+04 -4.440667E+04 -1.230395E+04
       371   4 -9.150489E+05 -1.535006E+05 -1.966326E+05  1.443740E+04 -1.343178E+05 -4.936792E+03
       371   5 -8.869328E+05  2.763545E+04 -8.522864E+04 -1.112853E+03 -8.805733E+04 -1.386534E+04
       371   6 -9.149778E+05  7.128762E+03 -5.429975E+04  1.400332E+04 -4.182626E+04 -1.229449E+04
       371   7 -1.466376E+06 -2.910490E+05 -3.334631E+05  5.179760E+04 -1.397197E+05 -4.959779E+03
       371   8 -1.406480E+06 -1.016637E+05 -2.118733E+05  8.274211E+03 -8.947052E+04 -1.387184E+04
       371   9 -1.403484E+06 -1.147032E+05 -1.735824E+05 -4.583682E+03 -3.924786E+04 -1.228519E+04
       371  10 -3.634594E+05 -1.597409E+04 -5.985506E+04 -2.295676E+04 -4.474093E-09  1.853155E-09
       371  11 -3.671470E+05  1.569128E+05  4.138193E+04 -1.050896E+04 -3.627446E-09  1.297612E-08
       371  12 -4.262550E+05  1.289436E+05  6.496165E+04  3.260438E+04 -1.012821E-09  5.544492E-09
       371  13 -9.150683E+05 -1.535055E+05 -1.966666E+05  1.443687E+04  2.000386E-09 -1.904982E-09
       371  14 -8.869412E+05  2.763316E+04 -8.524359E+04 -1.113837E+03  2.266197E-10 -7.531697E-09
       371  15 -9.149797E+05  7.128129E+03 -5.430333E+04  1.400290E+04 -7.624754E-10 -4.700737E-10
       371  16 -1.466397E+06 -2.910543E+05 -3.335000E+05  5.179705E+04  4.162666E-09  1.333988E-09
       371  17 -1.406488E+06 -1.016660E+05 -2.118887E+05  8.273211E+03  1.345927E-09  1.188441E-08
       371  18 -1.403486E+06 -1.147038E+05 -1.735856E+05 -4.584071E+03 -1.296694E-09 -2.015582E-09
       371  19 -3.634415E+05 -1.596960E+04 -5.982377E+04 -2.295625E+04  1.289111E+05  4.914470E+03
       371  20 -3.671389E+05  1.569150E+05  4.139641E+04 -1.050799E+04  8.664294E+04  1.385888E+04
       371  21 -4.262528E+05  1.289443E+05  6.496564E+04  3.260482E+04  4.440667E+04  1.230395E+04
       371  22 -9.150489E+05 -1.535006E+05 -1.966326E+05  1.443740E+04  1.343178E+05  4.936792E+03
       371  23 -8.869328E+05  2.763545E+04 -8.522864E+04 -1.112853E+03  8.805733E+04  1.386534E+04
       371  24 -9.149778E+05  7.128762E+03 -5.429975E+04  1.400332E+04  4.182626E+04  1.229449E+04
       371  25 -1.466376E+06 -2.910490E+05 -3.334631E+05  5.179760E+04  1.397197E+05  4.959779E+03
       371  26 -1.406480E+06 -1.016637E+05 -2.118733E+05  8.274211E+03  8.947052E+04  1.387184E+04
       371  27 -1.403484E+06 -1.147032E+05 -1.735824E+05 -4.583682E+03  3.924786E+04  1.228519E+04
       372   1 -4.773130E+05  8.742902E+04  5.973490E+04  1.150806E+04 -3.307870E+04 -1.002315E+04
       372   2 -5.073189E+05  1.012672E+05  7.375356E+04 -1.776065E+03 -2.203790E+04 -9.774811E+03
       372   3 -5.449434E+05  9.048115E+04  7.442185E+04  1.805221E+04 -1.100300E+04 -8.442476E+03
       372   4 -9.042087E+05 -1.884558E+04 -4.458795E+04  1.474354E+04 -3.319144E+04 -1.002424E+04
       372   5 -9.003531E+05  3.423234E+03 -2.215785E+04 -1.850214E+03 -2.174172E+04 -9.774082E+03
       372   6 -9.041944E+05  9.876875E+02 -1.336916E+04  1.466998E+04 -1.029731E+04 -8.439748E+03
       372   7 -1.330938E+06 -1.251336E+05 -1.489241E+05  1.797663E+04 -3.330409E+04 -1.002532E+04
       372   8 -1.293246E+06 -9.443215E+04 -1.180805E+05 -1.924453E+03 -2.144573E+04 -9.773354E+03
       372   9 -1.263327E+06 -8.851529E+04 -1.011696E+05  1.128960E+04 -9.592018E+03 -8.437026E+03
       372  10 -4.773142E+05  8.742861E+04  5.973266E+04  1.150779E+04 -2.000091E-09 -3.223885E-09
       372  11 -5.073195E+05  1.012670E+05  7.375247E+04 -1.776238E+03 -1.365777E-09 -2.565424E-09
       372  12 -5.449436E+05  9.048104E+04  7.442149E+04  1.805213E+04  2.882862E-09  1.027122E-08
       372  13 -9.042099E+05 -1.884599E+04 -4.459021E+04  1.474327E+04  2.364102E-09  1.097958E-08
       372  14 -9.003536E+05  3.423004E+03 -2.215892E+04 -1.850385E+03  2.551198E-09 -2.423279E-08
       372  15 -9.041945E+05  9.875825E+02 -1.336950E+04  1.466991E+04  2.408594E-09  1.126819E-08
       372  16 -1.330939E+06 -1.251340E+05 -1.489264E+05  1.797636E+04  3.144044E-09 -1.340790E-08
       372  17 -1.293247E+06 -9.443238E+04 -1.180816E+05 -1.924622E+03  2.798164E-09 -6.580564E-09
       372  18 -1.263328E+06 -8.851540E+04 -1.011699E+05  1.128953E+04 -4.132196E-09 -1.227257E-09
       372  19 -4.773130E+05  8.742902E+04  5.973490E+04  1.150806E+04  3.307870E+04  1.002315E+04
       372  20 -5.073189E+05  1.012672E+05  7.375356E+04 -1.776065E+03  2.203790E+04  9.774811E+03
       372  21 -5.449434E+05  9.048115E+04  7.442185E+04  1.805221E+04  1.100300E+04  8.442476E+03
       372  22 -9.042087E+05 -1.884558E+04 -4.458795E+04  1.474354E+04  3.319144E+04  1.002424E+04
       372  23 -9.003531E+05  3.423234E+03 -2.215785E+04 -1.850214E+03  2.174172E+04  9.774082E+03
       372  24 -9.041944E+05  9.876875E+02 -1.336916E+04  1.466998E+04  1.029731E+04  8.439748E+03
       372  25 -1.330938E+06 -1.251336E+05 -1.489241E+05  1.797663E+04  3.330409E+04  1.002532E+04
       372  26 -1.293246E+06 -9.443215E+04 -1.180805E+05 -1.924453E+03  2.144573E+04  9.773354E+03
       372  27 -1.263327E+06 -8.851529E+04 -1.011696E+05  1.128960E+04  9.592018E+03  8.437026E+03
       373   1 -6.096613E+05  7.077585E+04  6.089354E+04  1.561516E+04 -8.608827E+03 -7.531492E+03
       373   2 -6.446358E+05  6.452758E+04  5.716911E+04 -1.552370E+03 -5.798325E+03 -6.323373E+03
       373   3 -6.809355E+05  5.553046E+04  5.086925E+04  1.618878E+04 -2.989404E+03 -4.982555E+03
       373   4 -9.027696E+05 -2.187447E+03 -1.057106E+04  1.510073E+04 -8.172938E+03 -7.529807E+03
       373   5 -9.021001E+05  4.176930E+02 -5.678289E+03 -2.359522E+03 -5.312748E+03 -6.321312E+03
       373   6 -9.027658E+05  2.647419E+02 -3.396216E+03  1.508981E+04 -2.453978E+03 -4.980091E+03
       373   7 -1.195799E+06 -7.515708E+04 -8.204192E+04  1.458647E+04 -7.737255E+03 -7.528123E+03
       373   8 -1.159504E+06 -6.369709E+04 -6.853052E+04 -3.166408E+03 -4.827372E+03 -6.319251E+03
       373   9 -1.124551E+06 -5.500462E+04 -5.766528E+04  1.399119E+04 -1.918742E+03 -4.977629E+03
       373  10 -6.096614E+05  7.077577E+04  6.089330E+04  1.561511E+04  4.076694E-09 -6.648714E-09
       373  11 -6.446359E+05  6.452753E+04  5.716897E+04 -1.552399E+03 -2.745484E-09 -6.027700E-09
       373  12 -6.809355E+05  5.553043E+04  5.086918E+04  1.618877E+04 -2.312169E-09 -9.026834E-09
       373  13 -9.027697E+05 -2.187526E+03 -1.057129E+04  1.510068E+04  5.576072E-09 -1.699849E-09
       373  14 -9.021002E+05  4.176425E+02 -5.678417E+03 -2.359549E+03 -3.384500E-10 -9.153237E-09
       373  15 -9.027658E+05  2.647137E+02 -3.396274E+03  1.508981E+04  1.488071E-09 -4.040832E-09
       373  16 -1.195799E+06 -7.515716E+04 -8.204213E+04  1.458642E+04 -4.558742E-09 -1.142572E-08
       373  17 -1.159504E+06 -6.369714E+04 -6.853064E+04 -3.166432E+03  2.995011E-09  2.689375E-09
       373  18 -1.124551E+06 -5.500465E+04 -5.766533E+04  1.399118E+04  1.571011E-09  1.145167E-08
       373  19 -6.096613E+05  7.077585E+04  6.089354E+04  1.561516E+04  8.608827E+03  7.531492E+03
       373  20 -6.446358E+05  6.452758E+04  5.716911E+04 -1.552370E+03  5.798325E+03  6.323373E+03
       373  21 -6.809355E+05  5.553046E+04  5.086925E+04  1.618878E+04  2.989404E+03  4.982555E+03
       373  22 -9.027696E+05 -2.187447E+03 -1.057106E+04  1.510073E+04  8.172938E+03  7.529807E+03
       373  23 -9.021001E+05  4.176930E+02 -5.678289E+03 -2.359522E+03  5.312748E+03  6.321312E+03
       373  24 -9.027658E+05  2.647419E+02 -3.396216E+03  1.508981E+04  2.453978E+03  4.980091E+03
       373  25 -1.195799E+06 -7.515708E+04 -8.204192E+04  1.458647E+04  7.737255E+03  7.528123E+03
       373  26 -1.159504E+06 -6.369709E+04 -6.853052E+04 -3.166408E+03  4.827372E+03  6.319251E+03
       373  27 -1.124551E+06 -5.500462E+04 -5.766528E+04  1.399119E+04  1.918742E+03  4.977629E+03
       374   1 -7.496883E+05  3.793458E+04  3.452854E+04  1.584808E+04 -2.420189E+03 -4.184694E+03
       374   2 -7.861177E+05  2.899007E+04  2.672037E+04 -2.214368E+03 -1.614293E+03 -2.846723E+03
       374   3 -8.230853E+05  1.998993E+04  1.828490E+04  1.566804E+04 -8.089661E+02 -1.486167E+03
       374   4 -9.025817E+05 -1.179030E+02 -2.687062E+03  1.532451E+04 -1.912445E+03 -4.182273E+03
       374   5 -9.023106E+05  5.398734E+01 -1.645849E+03 -2.648825E+03 -1.098076E+03 -2.844189E+03
       374   6 -9.025806E+05  1.688014E+02 -1.237862E+03  1.532311E+04 -2.842297E+02 -1.483512E+03
       374   7 -1.055454E+06 -3.817211E+04 -3.990436E+04  1.480105E+04 -1.404825E+03 -4.179854E+03
       374   8 -1.018491E+06 -2.888310E+04 -3.001305E+04 -3.083215E+03 -5.819565E+02 -2.841655E+03
       374   9 -9.820700E+05 -1.965279E+04 -2.076109E+04  1.497821E+04  2.404394E+02 -1.480858E+03
       374  10 -7.496883E+05  3.793456E+04  3.452849E+04  1.584807E+04 -5.022638E-10 -1.198086E-08
       374  11 -7.861177E+05  2.899006E+04  2.672035E+04 -2.214371E+03 -7.471781E-09  5.622379E-09
       374  12 -8.230853E+05  1.998992E+04  1.828490E+04  1.566804E+04 -8.576950E-09 -9.283816E-10
       374  13 -9.025817E+05 -1.179228E+02 -2.687102E+03  1.532451E+04  2.616887E-09  5.183060E-09
       374  14 -9.023106E+05  5.397833E+01 -1.645867E+03 -2.648827E+03 -2.834326E-09 -3.565547E-09
       374  15 -9.025806E+05  1.687990E+02 -1.237867E+03  1.532311E+04  3.051752E-09 -6.881246E-09
       374  16 -1.055454E+06 -3.817213E+04 -3.990439E+04  1.480104E+04 -9.468251E-10  8.448226E-09
       374  17 -1.018491E+06 -2.888310E+04 -3.001306E+04 -3.083216E+03  4.618354E-09  1.829781E-08
       374  18 -9.820700E+05 -1.965279E+04 -2.076109E+04  1.497821E+04  6.605673E-09  4.471288E-09
       374  19 -7.496883E+05  3.793458E+04  3.452854E+04  1.584808E+04  2.420189E+03  4.184694E+03
       374  20 -7.861177E+05  2.899007E+04  2.672037E+04 -2.214368E+03  1.614293E+03  2.846723E+03
       374  21 -8.230853E+05  1.998993E+04  1.828490E+04  1.566804E+04  8.089661E+02  1.486167E+03
       374  22 -9.025817E+05 -1.179030E+02 -2.687062E+03  1.532451E+04  1.912445E+03  4.182273E+03
       374  23 -9.023106E+05  5.398734E+01 -1.645849E+03 -2.648825E+03  1.098076E+03  2.844189E+03
       374  24 -9.025806E+05  1.688014E+02 -1.237862E+03  1.532311E+04  2.842297E+02  1.483512E+03
       374  25 -1.055454E+06 -3.817211E+04 -3.990436E+04  1.480105E+04  1.404825E+03  4.179854E+03
       374  26 -1.018491E+06 -2.888310E+04 -3.001305E+04 -3.083215E+03  5.819565E+02  2.841655E+03
       374  27 -9.820700E+05 -1.965279E+04 -2.076109E+04  1.497821E+04 -2.404394E+02  1.480858E+03
       375   1 -8.932661E+05  2.448051E+03  9.804523E+02  1.538647E+04 -5.948149E+02 -6.880507E+02
       375   2 -9.299503E+05 -6.842170E+03 -8.052243E+03 -2.821496E+03  5.292435E+01  6.760288E+02
       375   3 -9.671598E+05 -1.607720E+04 -1.758913E+04  1.516341E+04  7.007689E+02  2.029061E+03
       375   4 -9.025754E+05  1.527625E+02 -1.177936E+03  1.537831E+04 -7.073600E+01 -6.853771E+02
       375   5 -9.023124E+05  4.119670E+01 -1.304541E+03 -2.717649E+03  5.727654E+02  6.786606E+02
       375   6 -9.025758E+05 -1.446917E+01 -1.932422E+03  1.537916E+04  1.216411E+03  2.031656E+03
       375   7 -9.118847E+05 -2.142532E+03 -3.336329E+03  1.537016E+04  4.533351E+02 -6.827035E+02
       375   8 -8.746739E+05  6.924507E+03  5.443106E+03 -2.613798E+03  1.092630E+03  6.812926E+02
       375   9 -8.379880E+05  1.604795E+04  1.372398E+04  1.559492E+04  1.732106E+03  2.034252E+03
       375  10 -8.932661E+05  2.448051E+03  9.804508E+02  1.538647E+04 -4.391207E-09 -1.612774E-09
       375  11 -9.299503E+05 -6.842171E+03 -8.052243E+03 -2.821496E+03 -3.934629E-09 -4.011277E-09
       375  12 -9.671598E+05 -1.607720E+04 -1.758913E+04  1.516341E+04 -7.764968E-09 -7.090735E-09
       375  13 -9.025754E+05  1.527620E+02 -1.177937E+03  1.537831E+04  2.075246E-09  1.084671E-08
       375  14 -9.023124E+05  4.119611E+01 -1.304542E+03 -2.717649E+03 -2.402005E-09 -7.130984E-10
       375  15 -9.025758E+05 -1.447400E+01 -1.932433E+03  1.537916E+04  2.127198E-09 -6.575459E-09
       375  16 -9.118847E+05 -2.142533E+03 -3.336331E+03  1.537016E+04  2.548651E-09  2.369599E-12
       375  17 -8.746739E+05  6.924507E+03  5.443103E+03 -2.613799E+03  1.288668E-09 -1.866547E-08
       375  18 -8.379880E+05  1.604795E+04  1.372397E+04  1.559492E+04  6.267621E-09 -1.719911E-08
       375  19 -8.932661E+05  2.448051E+03  9.804523E+02  1.538647E+04  5.948149E+02  6.880507E+02
       375  20 -9.299503E+05 -6.842170E+03 -8.052243E+03 -2.821496E+03 -5.292435E+01 -6.760288E+02
       375  21 -9.671598E+05 -1.607720E+04 -1.758913E+04  1.516341E+04 -7.007689E+02 -2.029061E+03
       375  22 -9.025754E+05  1.527625E+02 -1.177936E+03  1.537831E+04  7.073600E+01  6.853771E+02
       375  23 -9.023124E+05  4.119670E+01 -1.304541E+03 -2.717649E+03 -5.727654E+02 -6.786606E+02
       375  24 -9.025758E+05 -1.446917E+01 -1.932422E+03  1.537916E+04 -1.216411E+03 -2.031656E+03
       375  25 -9.118847E+05 -2.142532E+03 -3.336329E+03  1.537016E+04 -4.533351E+02  6.827035E+02
       375  26 -8.746739E+05  6.924507E+03  5.443106E+03 -2.613798E+03 -1.092630E+03 -6.812926E+02
       375  27 -8.379880E+05  1.604795E+04  1.372398E+04  1.559492E+04 -1.732106E+03 -2.034252E+03
       376   1 -1.037161E+06 -3.327422E+04 -3.533378E+04  1.454614E+04  1.060847E+03  2.835165E+03
       376   2 -1.073003E+06 -4.226420E+04 -4.560944E+04 -3.130663E+03  3.062199E+03  4.195863E+03
       376   3 -1.109923E+06 -5.301366E+04 -5.770927E+04  1.483189E+04  5.064578E+03  5.447244E+03
       376   4 -9.027007E+05  2.414508E+02 -2.388585E+03  1.525283E+04  1.600080E+03  2.837829E+03
       376   5 -9.021669E+05  2.862268E+02 -3.897605E+03 -2.562581E+03  3.559986E+03  4.198210E+03
       376   6 -9.027033E+05 -1.420664E+03 -7.201343E+03  1.526076E+04  5.521033E+03  5.449289E+03
       376   7 -7.682241E+05  3.375578E+04  3.055528E+04  1.595966E+04  2.139431E+03  2.840494E+03
       376   8 -7.313038E+05  4.283450E+04  3.781211E+04 -1.994373E+03  4.057909E+03  4.200557E+03
       376   9 -6.954443E+05  5.016916E+04  4.330347E+04  1.568972E+04  5.977640E+03  5.451334E+03
       376  10 -1.037161E+06 -3.327423E+04 -3.533380E+04  1.454613E+04 -6.978714E-09 -5.773556E-10
       376  11 -1.073003E+06 -4.226423E+04 -4.560949E+04 -3.130674E+03 -2.820627E-09 -1.125285E-08
       376  12 -1.109923E+06 -5.301370E+04 -5.770938E+04  1.483186E+04 -1.561803E-09 -5.406063E-09
       376  13 -9.027007E+05  2.414415E+02 -2.388604E+03  1.525283E+04  3.719273E-09 -1.692278E-09
       376  14 -9.021670E+05  2.862045E+02 -3.897662E+03 -2.562593E+03 -2.370769E-10  2.418535E-09
       376  15 -9.027034E+05 -1.420704E+03 -7.201456E+03  1.526073E+04  2.959542E-09  4.871539E-09
       376  16 -7.682241E+05  3.375577E+04  3.055526E+04  1.595965E+04  4.554096E-09  3.389492E-09
       376  17 -7.313038E+05  4.283448E+04  3.781204E+04 -1.994387E+03  3.287043E-09 -1.030834E-08
       376  18 -6.954443E+05  5.016912E+04  4.330334E+04  1.568969E+04 -7.587327E-10  1.160757E-08
       376  19 -1.037161E+06 -3.327422E+04 -3.533378E+04  1.454614E+04 -1.060847E+03 -2.835165E+03
       376  20 -1.073003E+06 -4.226420E+04 -4.560944E+04 -3.130663E+03 -3.062199E+03 -4.195863E+03
       376  21 -1.109923E+06 -5.301366E+04 -5.770927E+04  1.483189E+04 -5.064578E+03 -5.447244E+03
       376  22 -9.027007E+05  2.414508E+02 -2.388585E+03  1.525283E+04 -1.600080E+03 -2.837829E+03
       376  23 -9.021669E+05  2.862268E+02 -3.897605E+03 -2.562581E+03 -3.559986E+03 -4.198210E+03
       376  24 -9.027033E+05 -1.420664E+03 -7.201343E+03  1.526076E+04 -5.521033E+03 -5.449289E+03
       376  25 -7.682241E+05  3.375578E+04  3.055528E+04  1.595966E+04 -2.139431E+03 -2.840494E+03
       376  26 -7.313038E+05  4.283450E+04  3.781211E+04 -1.994373E+03 -4.057909E+03 -4.200557E+03
       376  27 -6.954443E+05  5.016916E+04  4.330347E+04  1.568972E+04 -5.977640E+03 -5.451334E+03
       377   1 -1.178892E+06 -6.785876E+04 -7.640252E+04  1.247179E+04  6.274218E+03  6.356373E+03
       377   2 -1.211209E+06 -7.493789E+04 -9.077905E+04 -2.469175E+03  1.440029E+04  7.720245E+03
       377   3 -1.248954E+06 -9.872896E+04 -1.146726E+05  1.691118E+04  2.253080E+04  8.143361E+03
       377   4 -9.036661E+05  7.348873E+02 -9.092489E+03  1.494386E+04  6.965449E+03  6.359409E+03
       377   5 -9.009891E+05  2.323871E+03 -1.504614E+04 -2.188075E+03  1.473427E+04  7.721440E+03
       377   6 -9.036763E+05 -1.273210E+04 -3.026481E+04  1.500036E+04  2.250799E+04  8.142868E+03
       377   7 -6.283713E+05  6.932294E+04  5.821200E+04  1.741694E+04  7.656987E+03  6.362449E+03
       377   8 -5.906813E+05  7.957851E+04  6.067975E+04 -1.906930E+03  1.506842E+04  7.722635E+03
       377   9 -5.582893E+05  7.325595E+04  5.413430E+04  1.308836E+04  2.248516E+04  8.142375E+03
       377  10 -1.178892E+06 -6.785881E+04 -7.640267E+04  1.247175E+04  1.020694E-08  1.651305E-09
       377  11 -1.211209E+06 -7.493801E+04 -9.077956E+04 -2.469265E+03 -4.114211E-09  6.408661E-09
       377  12 -1.248955E+06 -9.872917E+04 -1.146737E+05  1.691103E+04 -3.844371E-09 -7.807596E-09
       377  13 -9.036662E+05  7.348308E+02 -9.092656E+03  1.494382E+04  2.009736E-09 -8.963789E-09
       377  14 -9.009893E+05  2.323748E+03 -1.504666E+04 -2.188167E+03 -2.687451E-09  1.031142E-08
       377  15 -9.036769E+05 -1.273231E+04 -3.026589E+04  1.500021E+04  2.851208E-10  8.169668E-11
       377  16 -6.283714E+05  6.932288E+04  5.821182E+04  1.741690E+04 -1.134156E-08  2.205249E-09
       377  17 -5.906816E+05  7.957839E+04  6.067921E+04 -1.907024E+03  8.062847E-10 -1.997769E-08
       377  18 -5.582898E+05  7.325574E+04  5.413322E+04  1.308821E+04  2.790169E-09 -5.900914E-10
       377  19 -1.178892E+06 -6.785876E+04 -7.640252E+04  1.247179E+04 -6.274218E+03 -6.356373E+03
       377  20 -1.211209E+06 -7.493789E+04 -9.077905E+04 -2.469175E+03 -1.440029E+04 -7.720245E+03
       377  21 -1.248954E+06 -9.872896E+04 -1.146726E+05  1.691118E+04 -2.253080E+04 -8.143361E+03
       377  22 -9.036661E+05  7.348873E+02 -9.092489E+03  1.494386E+04 -6.965449E+03 -6.359409E+03
       377  23 -9.009891E+05  2.323871E+03 -1.504614E+04 -2.188075E+03 -1.473427E+04 -7.721440E+03
       377  24 -9.036763E+05 -1.273210E+04 -3.026481E+04  1.500036E+04 -2.250799E+04 -8.142868E+03
       377  25 -6.283713E+05  6.932294E+04  5.821200E+04  1.741694E+04 -7.656987E+03 -6.362449E+03
       377  26 -5.906813E+05  7.957851E+04  6.067975E+04 -1.906930E+03 -1.506842E+04 -7.722635E+03
       377  27 -5.582893E+05  7.325595E+04  5.413430E+04  1.308836E+04 -2.248516E+04 -8.142375E+03
       378   1 -1.320837E+06 -9.731464E+04 -1.369391E+05  1.411830E+03  2.604031E+04  1.023536E+04
       378   2 -1.334514E+06 -9.140301E+04 -1.657244E+05  4.387784E+03  6.090108E+04  1.182560E+04
       378   3 -1.387016E+06 -2.228656E+05 -2.515699E+05  3.967602E+04  9.579074E+04  4.261409E+03
       378   4 -9.109738E+05  4.895952E+03 -3.685093E+04  1.439434E+04  2.836551E+04  1.024465E+04
       378   5 -8.919032E+05  1.874867E+04 -5.784297E+04 -1.579397E+03  5.973605E+04  1.182015E+04
       378   6 -9.110244E+05 -1.041146E+05 -1.334400E+05  1.475950E+04  9.113759E+04  4.241975E+03
       378   7 -5.009564E+05  1.070947E+05  6.322507E+04  2.738530E+04  3.069224E+04  1.025403E+04
       378   8 -4.491132E+05  1.288861E+05  5.002426E+04 -7.551012E+03  5.857018E+04  1.181474E+04
       378   9 -4.348255E+05  1.462179E+04 -1.532652E+04 -1.017635E+04  8.648086E+04  4.222924E+03
       378  10 -1.320838E+06 -9.731494E+04 -1.369406E+05  1.411616E+03  5.073436E-09 -1.944062E-09
       378  11 -1.334518E+06 -9.140416E+04 -1.657317E+05  4.387204E+03  1.229954E-09  5.140467E-09
       378  12 -1.387026E+06 -2.228681E+05 -2.515872E+05  3.967569E+04  1.730802E-09  9.881183E-09
       378  13 -9.109747E+05  4.895623E+03 -3.685265E+04  1.439410E+04  2.093772E-09  5.493755E-09
       378  14 -8.919070E+05  1.874757E+04 -5.784995E+04 -1.579966E+03 -2.076778E-09  4.573652E-09
       378  15 -9.110333E+05 -1.041169E+05 -1.334556E+05  1.475918E+04  7.405702E-10  2.818806E-09
       378  16 -5.009575E+05  1.070943E+05  6.322310E+04  2.738505E+04 -6.567090E-09  6.051185E-09
       378  17 -4.491169E+05  1.288850E+05  5.001754E+04 -7.551570E+03 -4.276470E-09  1.349438E-08
       378  18 -4.348336E+05  1.461976E+04 -1.534061E+04 -1.017664E+04 -3.751139E-09 -2.225786E-09
       378  19 -1.320837E+06 -9.731464E+04 -1.369391E+05  1.411830E+03 -2.604031E+04 -1.023536E+04
       378  20 -1.334514E+06 -9.140301E+04 -1.657244E+05  4.387784E+03 -6.090108E+04 -1.182560E+04
       378  21 -1.387016E+06 -2.228656E+05 -2.515699E+05  3.967602E+04 -9.579074E+04 -4.261409E+03
       378  22 -9.109738E+05  4.895952E+03 -3.685093E+04  1.439434E+04 -2.836551E+04 -1.024465E+04
       378  23 -8.919032E+05  1.874867E+04 -5.784297E+04 -1.579397E+03 -5.973605E+04 -1.182015E+04
       378  24 -9.110244E+05 -1.041146E+05 -1.334400E+05  1.475950E+04 -9.113759E+04 -4.241975E+03
       378  25 -5.009564E+05  1.070947E+05  6.322507E+04  2.738530E+04 -3.069224E+04 -1.025403E+04
       378  26 -4.491132E+05  1.288861E+05  5.002426E+04 -7.551012E+03 -5.857018E+04 -1.181474E+04
       378  27 -4.348255E+05  1.462179E+04 -1.532652E+04 -1.017635E+04 -8.648086E+04 -4.222924E+03
       379   1 -1.506618E+05 -5.808974E+05 -1.447009E+05  1.385750E+05 -6.029347E+03 -5.176218E+04
       379   2 -1.084744E+05 -4.697357E+05 -9.066817E+04  1.233543E+05 -1.923392E+04 -2.298429E+04
       379   3 -7.831060E+04 -3.651918E+05 -5.838406E+04  1.277398E+05 -2.008559E+04  5.830233E+03
       379   4 -1.635657E+04 -3.767123E+04 -1.689739E+04  1.274429E+05 -6.114472E+03 -1.284996E+04
       379   5 -5.165822E+03 -3.650364E+04 -7.630782E+03  1.176556E+05 -1.926294E+04 -8.951888E+03
       379   6 -1.672100E+03 -3.764025E+04 -2.822619E+03  1.274750E+05 -2.006198E+04 -5.023053E+03
       379   7  1.179288E+05  5.058301E+05  1.108916E+05  1.163010E+05 -6.200958E+03  2.609613E+04
       379   8  9.813186E+04  3.969097E+05  7.539877E+04  1.119530E+05 -1.929221E+04  5.090082E+03
       379   9  7.496079E+04  2.900172E+05  5.273578E+04  1.272101E+05 -2.003836E+04 -1.588188E+04
       379  10 -1.506625E+05 -5.809002E+05 -1.447060E+05  1.385747E+05 -1.535656E-09 -2.264375E-08
       379  11 -1.084749E+05 -4.697364E+05 -9.066986E+04  1.233539E+05 -8.607398E-09 -2.292864E-08
       379  12 -7.831104E+04 -3.651920E+05 -5.838488E+04  1.277399E+05 -1.140360E-08 -2.081082E-08
       379  13 -1.635665E+04 -3.767142E+04 -1.689777E+04  1.274428E+05  4.195539E-09  4.150651E-09
       379  14 -5.166241E+03 -3.650382E+04 -7.631630E+03  1.176555E+05  8.760853E-09 -9.811119E-10
       379  15 -1.672539E+03 -3.764038E+04 -2.823423E+03  1.274749E+05  2.482082E-08  1.448895E-09
       379  16  1.179286E+05  5.058294E+05  1.108902E+05  1.163012E+05 -1.103980E-09  2.418660E-08
       379  17  9.813146E+04  3.969096E+05  7.539803E+04  1.119530E+05 -5.596940E-09  2.814508E-08
       379  18  7.496029E+04  2.900169E+05  5.273455E+04  1.272099E+05 -1.073530E-08  2.063242E-08
       379  19 -1.506618E+05 -5.808974E+05 -1.447009E+05  1.385750E+05  6.029347E+03  5.176218E+04
       379  20 -1.084744E+05 -4.697357E+05 -9.066817E+04  1.233543E+05  1.923392E+04  2.298429E+04
       379  21 -7.831060E+04 -3.651918E+05 -5.838406E+04  1.277398E+05  2.008559E+04 -5.830233E+03
       379  22 -1.635657E+04 -3.767123E+04 -1.689739E+04  1.274429E+05  6.114472E+03  1.284996E+04
       379  23 -5.165822E+03 -3.650364E+04 -7.630782E+03  1.176556E+05  1.926294E+04  8.951888E+03
       379  24 -1.672100E+03 -3.764025E+04 -2.822619E+03  1.274750E+05  2.006198E+04  5.023053E+03
       379  25  1.179288E+05  5.058301E+05  1.108916E+05  1.163010E+05  6.200958E+03 -2.609613E+04
       379  26  9.813186E+04  3.969097E+05  7.539877E+04  1.119530E+05  1.929221E+04 -5.090082E+03
       379  27  7.496079E+04  2.900172E+05  5.273578E+04  1.272101E+05  2.003836E+04  1.588188E+04
       380   1 -6.184773E+04 -2.957781E+05 -4.409318E+04  1.283471E+05 -1.649857E+04  5.800477E+03
       380   2 -3.503758E+04 -1.880674E+05 -2.089390E+04  1.183600E+05 -1.088419E+04  6.008865E+03
       380   3 -7.807619E+03 -8.014678E+04  2.305702E+03  1.288204E+05 -4.540563E+03  6.218365E+03
       380   4 -1.470397E+03 -3.701980E+04 -1.028828E+03  1.276579E+05 -1.647613E+04 -4.781233E+03
       380   5 -1.756890E+02 -3.724139E+04  2.549140E+03  1.174378E+05 -1.085929E+04 -6.043473E+03
       380   6  1.794792E+03 -3.700875E+04  7.149127E+03  1.276648E+05 -4.513299E+03 -7.304641E+03
       380   7  5.890352E+04  2.218049E+05  4.203391E+04  1.269685E+05 -1.645368E+04 -1.536721E+04
       380   8  3.468517E+04  1.136076E+05  2.599220E+04  1.165153E+05 -1.083435E+04 -1.809863E+04
       380   9  1.139724E+04  6.131618E+03  1.199325E+04  1.265090E+05 -4.485987E+03 -2.082854E+04
       380  10 -6.184803E+04 -2.957782E+05 -4.409376E+04  1.283472E+05 -1.098772E-08  3.377044E-08
       380  11 -3.503772E+04 -1.880675E+05 -2.089419E+04  1.183601E+05 -6.980683E-09  3.813492E-08
       380  12 -7.807651E+03 -8.014682E+04  2.305590E+03  1.288205E+05 -4.405925E-09  3.241948E-08
       380  13 -1.470695E+03 -3.701990E+04 -1.029381E+03  1.276579E+05  2.435281E-08  5.911508E-09
       380  14 -1.758254E+02 -3.724146E+04  2.548849E+03  1.174377E+05  1.794401E-08 -3.519389E-09
       380  15  1.794756E+03 -3.700881E+04  7.148989E+03  1.276647E+05  2.318595E-09 -9.525573E-10
       380  16  5.890317E+04  2.218046E+05  4.203296E+04  1.269683E+05 -8.986286E-09 -3.146109E-08
       380  17  3.468496E+04  1.136072E+05  2.599136E+04  1.165151E+05 -5.149452E-09 -3.269498E-08
       380  18  1.139710E+04  6.131147E+03  1.199240E+04  1.265089E+05 -2.461751E-09 -3.256840E-08
       380  19 -6.184773E+04 -2.957781E+05 -4.409318E+04  1.283471E+05  1.649857E+04 -5.800477E+03
       380  20 -3.503758E+04 -1.880674E+05 -2.089390E+04  1.183600E+05  1.088419E+04 -6.008865E+03
       380  21 -7.807619E+03 -8.014678E+04  2.305702E+03  1.288204E+05  4.540563E+03 -6.218365E+03
       380  22 -1.470397E+03 -3.701980E+04 -1.028828E+03  1.276579E+05  1.647613E+04  4.781233E+03
       380  23 -1.756890E+02 -3.724139E+04  2.549140E+03  1.174378E+05  1.085929E+04  6.043473E+03
       380  24  1.794792E+03 -3.700875E+04  7.149127E+03  1.276648E+05  4.513299E+03  7.304641E+03
       380  25  5.890352E+04  2.218049E+05  4.203391E+04  1.269685E+05  1.645368E+04  1.536721E+04
       380  26  3.468517E+04  1.136076E+05  2.599220E+04  1.165153E+05  1.083435E+04  1.809863E+04
       380  27  1.139724E+04  6.131618E+03  1.199325E+04  1.265090E+05  4.485987E+03  2.082854E+04
       381   1  8.653264E+03 -1.046417E+04  1.689860E+04  1.270576E+05 -3.436596E+02  5.076279E+03
       381   2  4.248860E+04  9.345301E+04  4.806565E+04  1.293196E+05  3.573095E+03 -1.664614E+04
       381   3  9.650920E+04  2.053704E+05  9.844771E+04  1.517393E+05  1.715297E+03 -3.838545E+04
       381   4  2.233440E+03 -3.578218E+04  1.013084E+04  1.275925E+05 -3.162158E+02 -8.551539E+03
       381   5  1.042404E+04 -3.877282E+04  1.966950E+04  1.175511E+05  3.577525E+03 -1.863148E+04
       381   6  3.678218E+04 -3.579077E+04  4.034093E+04  1.276658E+05  1.697010E+03 -2.872466E+04
       381   7 -4.186335E+03 -6.109922E+04  3.363722E+03  1.281273E+05 -2.887950E+02 -2.217880E+04
       381   8 -2.164114E+04 -1.709819E+05 -8.727574E+03  1.057852E+05  3.582032E+03 -2.061641E+04
       381   9 -2.294682E+04 -2.768973E+05 -1.776933E+04  1.036017E+05  1.677971E+03 -1.906761E+04
       381  10  8.653257E+03 -1.046420E+04  1.689855E+04  1.270576E+05 -4.820474E-09  7.379592E-08
       381  11  4.248851E+04  9.345271E+04  4.806511E+04  1.293197E+05 -4.781491E-09  1.186094E-08
       381  12  9.650880E+04  2.053688E+05  9.844494E+04  1.517393E+05 -2.616091E-09 -5.138928E-08
       381  13  2.233420E+03 -3.578226E+04  1.013070E+04  1.275925E+05 -5.340836E-09  3.715612E-09
       381  14  1.042393E+04 -3.877320E+04  1.966883E+04  1.175512E+05 -3.515435E-09 -5.052409E-09
       381  15  3.678195E+04 -3.579166E+04  4.033937E+04  1.276658E+05 -2.114017E-09  2.947841E-10
       381  16 -4.186467E+03 -6.109974E+04  3.362797E+03  1.281273E+05 -4.303255E-09 -7.190363E-08
       381  17 -2.164127E+04 -1.709824E+05 -8.728397E+03  1.057853E+05 -3.366730E-09 -8.659110E-09
       381  18 -2.294692E+04 -2.768977E+05 -1.777002E+04  1.036017E+05 -1.358066E-09  5.286678E-08
       381  19  8.653264E+03 -1.046417E+04  1.689860E+04  1.270576E+05  3.436596E+02 -5.076279E+03
       381  20  4.248860E+04  9.345301E+04  4.806565E+04  1.293196E+05 -3.573095E+03  1.664614E+04
       381  21  9.650920E+04  2.053704E+05  9.844771E+04  1.517393E+05 -1.715297E+03  3.838545E+04
       381  22  2.233440E+03 -3.578218E+04  1.013084E+04  1.275925E+05  3.162158E+02  8.551539E+03
       381  23  1.042404E+04 -3.877282E+04  1.966950E+04  1.175511E+05 -3.577525E+03  1.863148E+04
       381  24  3.678218E+04 -3.579077E+04  4.034093E+04  1.276658E+05 -1.697010E+03  2.872466E+04
       381  25 -4.186335E+03 -6.109922E+04  3.363722E+03  1.281273E+05  2.887950E+02  2.217880E+04
       381  26 -2.164114E+04 -1.709819E+05 -8.727574E+03  1.057852E+05 -3.582032E+03  2.061641E+04
       381  27 -2.294682E+04 -2.768973E+05 -1.776933E+04  1.036017E+05 -1.677971E+03  1.906761E+04
       382   1  1.385532E+06  4.890871E+05  3.348846E+05  4.727796E+05  1.444069E+05  5.039899E+04
       382   2  1.333063E+06  2.650815E+05  1.964735E+05  4.874088E+05  9.431903E+04  2.338074E+04
       382   3  1.344844E+06  2.713323E+05  1.545593E+05  4.724502E+05  4.102177E+04  4.857634E+03
       382   4  9.878821E+05  3.015902E+05  2.189463E+05  3.260681E+05  1.402650E+05  4.882266E+04
       382   5  9.448683E+05  1.082881E+05  9.037095E+04  3.705416E+05  9.326678E+04  2.298022E+04
       382   6  9.655424E+05  1.447087E+05  5.589416E+04  3.854142E+05  4.305679E+04  5.629319E+03
       382   7  5.903905E+05  1.141310E+05  1.029933E+05  1.794507E+05  1.361260E+05  4.724805E+04
       382   8  5.568197E+05 -4.848995E+04 -1.574515E+04  2.537423E+05  9.221523E+04  2.258001E+04
       382   9  5.863780E+05  1.808622E+04 -4.278296E+04  2.984223E+05  4.509043E+04  6.400624E+03
       382  10  1.385509E+06  4.890788E+05  3.348407E+05  4.727738E+05 -6.240762E-10  1.221343E-09
       382  11  1.333053E+06  2.650785E+05  1.964558E+05  4.874070E+05 -1.806728E-09  5.119706E-09
       382  12  1.344842E+06  2.713318E+05  1.545561E+05  4.724500E+05 -6.885439E-09  3.708996E-10
       382  13  9.878604E+05  3.015824E+05  2.189049E+05  3.260626E+05  8.316574E-10 -6.309353E-09
       382  14  9.448588E+05  1.082852E+05  9.035364E+04  3.705398E+05 -3.178586E-09  1.031243E-08
       382  15  9.655404E+05  1.447082E+05  5.589062E+04  3.854140E+05 -5.198764E-09  6.450226E-09
       382  16  5.903700E+05  1.141237E+05  1.029544E+05  1.794455E+05  3.134359E-10 -2.227991E-09
       382  17  5.568104E+05 -4.849278E+04 -1.576207E+04  2.537407E+05 -5.737200E-10  1.608162E-09
       382  18  5.863758E+05  1.808563E+04 -4.278686E+04  2.984220E+05 -6.053008E-10 -1.341024E-09
       382  19  1.385532E+06  4.890871E+05  3.348846E+05  4.727796E+05 -1.444069E+05 -5.039899E+04
       382  20  1.333063E+06  2.650815E+05  1.964735E+05  4.874088E+05 -9.431903E+04 -2.338074E+04
       382  21  1.344844E+06  2.713323E+05  1.545593E+05  4.724502E+05 -4.102177E+04 -4.857634E+03
       382  22  9.878821E+05  3.015902E+05  2.189463E+05  3.260681E+05 -1.402650E+05 -4.882266E+04
       382  23  9.448683E+05  1.082881E+05  9.037095E+04  3.705416E+05 -9.326678E+04 -2.298022E+04
       382  24  9.655424E+05  1.447087E+05  5.589416E+04  3.854142E+05 -4.305679E+04 -5.629319E+03
       382  25  5.903905E+05  1.141310E+05  1.029933E+05  1.794507E+05 -1.361260E+05 -4.724805E+04
       382  26  5.568197E+05 -4.848995E+04 -1.574515E+04  2.537423E+05 -9.221523E+04 -2.258001E+04
       382  27  5.863780E+05  1.808622E+04 -4.278296E+04  2.984223E+05 -4.509043E+04 -6.400624E+03
       383   1  1.266262E+06  2.892160E+05  1.294022E+05  4.601505E+05  3.422866E+04  4.475886E+03
       383   2  1.245345E+06  2.439518E+05  9.789208E+04  4.462314E+05  2.263126E+04  3.002250E+02
       383   3  1.216296E+06  2.450771E+05  8.224802E+04  4.480746E+05  1.071184E+04 -3.026243E+03
       383   4  9.587870E+05  1.684016E+05  4.575099E+04  3.711070E+05  3.413375E+04  4.439335E+03
       383   5  9.614666E+05  1.353371E+05  2.134181E+04  3.669809E+05  2.284765E+04  3.819828E+02
       383   6  9.559572E+05  1.486086E+05  1.255828E+04  3.786163E+05  1.123897E+04 -2.826315E+03
       383   7  6.514029E+05  4.759491E+04 -3.790874E+04  2.821038E+05  3.403889E+04  4.402803E+03
       383   8  6.776663E+05  2.672800E+04 -5.521554E+04  2.877633E+05  2.306392E+04  4.636975E+02
       383   9  6.956844E+05  5.214373E+04 -5.713724E+04  3.091840E+05  1.176585E+04 -2.626474E+03
       383  10  1.266261E+06  2.892157E+05  1.294000E+05  4.601504E+05 -1.560655E-09  7.950347E-09
       383  11  1.245344E+06  2.439516E+05  9.789112E+04  4.462314E+05  1.280350E-09 -4.184568E-09
       383  12  1.216295E+06  2.450770E+05  8.224778E+04  4.480746E+05 -3.585088E-09 -4.558169E-09
       383  13  9.587858E+05  1.684013E+05  4.574877E+04  3.711069E+05 -2.360059E-09  5.629751E-09
       383  14  9.614661E+05  1.353370E+05  2.134083E+04  3.669809E+05 -2.010244E-09 -1.677326E-08
       383  15  9.559571E+05  1.486086E+05  1.255803E+04  3.786163E+05 -1.103116E-09 -5.267716E-09
       383  16  6.514017E+05  4.759457E+04 -3.791095E+04  2.821037E+05 -4.997874E-09 -6.715338E-09
       383  17  6.776658E+05  2.672785E+04 -5.521654E+04  2.877633E+05  2.957775E-09 -2.535532E-09
       383  18  6.956843E+05  5.214368E+04 -5.713751E+04  3.091840E+05  3.128239E-09 -1.035223E-08
       383  19  1.266262E+06  2.892160E+05  1.294022E+05  4.601505E+05 -3.422866E+04 -4.475886E+03
       383  20  1.245345E+06  2.439518E+05  9.789208E+04  4.462314E+05 -2.263126E+04 -3.002250E+02
       383  21  1.216296E+06  2.450771E+05  8.224802E+04  4.480746E+05 -1.071184E+04  3.026243E+03
       383  22  9.587870E+05  1.684016E+05  4.575099E+04  3.711070E+05 -3.413375E+04 -4.439335E+03
       383  23  9.614666E+05  1.353371E+05  2.134181E+04  3.669809E+05 -2.284765E+04 -3.819828E+02
       383  24  9.559572E+05  1.486086E+05  1.255828E+04  3.786163E+05 -1.123897E+04  2.826315E+03
       383  25  6.514029E+05  4.759491E+04 -3.790874E+04  2.821038E+05 -3.403889E+04 -4.402803E+03
       383  26  6.776663E+05  2.672800E+04 -5.521554E+04  2.877633E+05 -2.306392E+04 -4.636975E+02
       383  27  6.956844E+05  5.214373E+04 -5.713724E+04  3.091840E+05 -1.176585E+04  2.626474E+03
       384   1  1.161705E+06  2.300435E+05  6.547859E+04  4.338906E+05  8.825552E+03 -2.928914E+03
       384   2  1.146073E+06  2.084784E+05  5.416334E+04  4.173675E+05  5.900929E+03 -3.023827E+03
       384   3  1.113622E+06  2.087917E+05  4.570499E+04  4.209122E+05  2.952346E+03 -3.057005E+03
       384   4  9.552126E+05  1.512948E+05  9.901896E+03  3.764952E+05  9.132449E+03 -2.812526E+03
       384   5  9.634488E+05  1.391312E+05  5.004803E+03  3.669276E+05  6.230929E+03 -2.898560E+03
       384   6  9.548615E+05  1.488424E+05  2.947219E+03  3.774278E+05  3.305340E+03 -2.922892E+03
       384   7  7.487606E+05  7.254867E+04 -4.567869E+04  3.191170E+05  9.439233E+03 -2.696181E+03
       384   8  7.808563E+05  6.978593E+04 -4.415675E+04  3.165009E+05  6.560823E+03 -2.773334E+03
       384   9  7.961252E+05  8.889468E+04 -3.981279E+04  3.339534E+05  3.658235E+03 -2.788817E+03
       384  10  1.161705E+06  2.300434E+05  6.547842E+04  4.338906E+05 -3.953058E-09  9.949224E-09
       384  11  1.146073E+06  2.084784E+05  5.416326E+04  4.173675E+05 -1.553484E-10  1.071006E-08
       384  12  1.113622E+06  2.087917E+05  4.570496E+04  4.209122E+05  8.412979E-10  7.704150E-09
       384  13  9.552125E+05  1.512947E+05  9.901724E+03  3.764953E+05  5.444494E-10 -2.521027E-09
       384  14  9.634487E+05  1.391312E+05  5.004714E+03  3.669276E+05  3.258990E-09  7.507720E-09
       384  15  9.548615E+05  1.488424E+05  2.947183E+03  3.774278E+05 -1.468540E-10 -5.407781E-09
       384  16  7.487605E+05  7.254864E+04 -4.567887E+04  3.191170E+05  3.400920E-09 -7.267061E-09
       384  17  7.808563E+05  6.978591E+04 -4.415684E+04  3.165009E+05 -7.066350E-10 -9.571321E-10
       384  18  7.961252E+05  8.889467E+04 -3.981283E+04  3.339534E+05  4.538282E-10  1.126089E-09
       384  19  1.161705E+06  2.300435E+05  6.547859E+04  4.338906E+05 -8.825552E+03  2.928914E+03
       384  20  1.146073E+06  2.084784E+05  5.416334E+04  4.173675E+05 -5.900929E+03  3.023827E+03
       384  21  1.113622E+06  2.087917E+05  4.570499E+04  4.209122E+05 -2.952346E+03  3.057005E+03
       384  22  9.552126E+05  1.512948E+05  9.901896E+03  3.764952E+05 -9.132449E+03  2.812526E+03
       384  23  9.634488E+05  1.391312E+05  5.004803E+03  3.669276E+05 -6.230929E+03  2.898560E+03
       384  24  9.548615E+05  1.488424E+05  2.947219E+03  3.774278E+05 -3.305340E+03  2.922892E+03
       384  25  7.487606E+05  7.254867E+04 -4.567869E+04  3.191170E+05 -9.439233E+03  2.696181E+03
       384  26  7.808563E+05  6.978593E+04 -4.415675E+04  3.165009E+05 -6.560823E+03  2.773334E+03
       384  27  7.961252E+05  8.889468E+04 -3.981279E+04  3.339534E+05 -3.658235E+03  2.788817E+03
       385   1  1.064416E+06  1.906160E+05  3.173728E+04  4.072800E+05  2.325675E+03 -2.657707E+03
       385   2  1.050038E+06  1.726008E+05  2.470264E+04  3.909858E+05  1.256446E+03 -2.011323E+03
       385   3  1.018216E+06  1.727970E+05  1.833451E+04  3.945440E+05  1.893897E+02 -1.371258E+03
       385   4  9.548707E+05  1.490196E+05  2.334876E+03  3.770052E+05  2.657881E+03 -2.531441E+03
       385   5  9.635747E+05  1.397878E+05  1.430266E+03  3.671268E+05  1.586505E+03 -1.885826E+03
       385   6  9.548350E+05  1.487682E+05  1.194017E+03  3.771010E+05  5.172710E+02 -1.246541E+03
       385   7  8.453369E+05  1.074240E+05 -2.706853E+04  3.467352E+05  2.990021E+03 -2.405199E+03
       385   8  8.771187E+05  1.069753E+05 -2.184277E+04  3.432709E+05  1.916514E+03 -1.760349E+03
       385   9  8.914577E+05  1.247397E+05 -1.594687E+04  3.596596E+05  8.451161E+02 -1.121838E+03
       385  10  1.064416E+06  1.906160E+05  3.173726E+04  4.072800E+05 -3.640233E-09 -2.352204E-09
       385  11  1.050038E+06  1.726008E+05  2.470263E+04  3.909858E+05 -5.661641E-10  7.363318E-09
       385  12  1.018216E+06  1.727970E+05  1.833450E+04  3.945440E+05 -2.642561E-09 -2.784877E-09
       385  13  9.548707E+05  1.490196E+05  2.334850E+03  3.770052E+05  9.551448E-10  1.529994E-09
       385  14  9.635747E+05  1.397878E+05  1.430254E+03  3.671268E+05  7.489206E-10  2.370931E-09
       385  15  9.548350E+05  1.487682E+05  1.194014E+03  3.771010E+05  2.037753E-10 -5.367778E-09
       385  16  8.453369E+05  1.074240E+05 -2.706855E+04  3.467352E+05  1.955275E-09 -8.323695E-09
       385  17  8.771187E+05  1.069753E+05 -2.184278E+04  3.432709E+05 -3.668909E-09 -5.816062E-09
       385  18  8.914577E+05  1.247397E+05 -1.594687E+04  3.596596E+05  8.743734E-09  7.642801E-09
       385  19  1.064416E+06  1.906160E+05  3.173728E+04  4.072800E+05 -2.325675E+03  2.657707E+03
       385  20  1.050038E+06  1.726008E+05  2.470264E+04  3.909858E+05 -1.256446E+03  2.011323E+03
       385  21  1.018216E+06  1.727970E+05  1.833451E+04  3.945440E+05 -1.893897E+02  1.371258E+03
       385  22  9.548707E+05  1.490196E+05  2.334876E+03  3.770052E+05 -2.657881E+03  2.531441E+03
       385  23  9.635747E+05  1.397878E+05  1.430266E+03  3.671268E+05 -1.586505E+03  1.885826E+03
       385  24  9.548350E+05  1.487682E+05  1.194017E+03  3.771010E+05 -5.172710E+02  1.246541E+03
       385  25  8.453369E+05  1.074240E+05 -2.706853E+04  3.467352E+05 -2.990021E+03  2.405199E+03
       385  26  8.771187E+05  1.069753E+05 -2.184277E+04  3.432709E+05 -1.916514E+03  1.760349E+03
       385  27  8.914577E+05  1.247397E+05 -1.594687E+04  3.596596E+05 -8.451161E+02  1.121838E+03
       386   1  9.706189E+05  1.547100E+05  5.370910E+03  3.814419E+05 -2.119092E+02 -9.171447E+02
       386   2  9.564747E+05  1.371720E+05 -3.288150E+02  3.652561E+05 -1.345401E+03 -3.085092E+02
       386   3  9.251336E+05  1.376698E+05 -5.299022E+03  3.686385E+05 -2.476755E+03  2.947243E+02
       386   4  9.548878E+05  1.487074E+05  1.216119E+03  3.770466E+05  1.161128E+02 -7.923568E+02
       386   5  9.635090E+05  1.398469E+05  1.565530E+03  3.672026E+05 -1.019345E+03 -1.844747E+02
       386   6  9.549330E+05  1.490226E+05  2.645996E+03  3.769265E+05 -2.152696E+03  4.179954E+02
       386   7  9.391570E+05  1.427047E+05 -2.938693E+03  3.726513E+05  4.441256E+02 -6.675725E+02
       386   8  9.705433E+05  1.425219E+05  3.459869E+03  3.691490E+05 -6.932850E+02 -6.043871E+01
       386   9  9.847332E+05  1.603754E+05  1.059092E+04  3.852148E+05 -1.828621E+03  5.412728E+02
       386  10  9.706189E+05  1.547100E+05  5.370908E+03  3.814419E+05  1.974042E-09 -8.613411E-09
       386  11  9.564747E+05  1.371720E+05 -3.288186E+02  3.652561E+05  6.093637E-10 -3.483784E-08
       386  12  9.251336E+05  1.376698E+05 -5.299034E+03  3.686385E+05 -7.083154E-10 -2.084627E-08
       386  13  9.548878E+05  1.487074E+05  1.216117E+03  3.770466E+05  4.032242E-09  3.203087E-10
       386  14  9.635090E+05  1.398469E+05  1.565528E+03  3.672026E+05  1.232945E-08  2.097288E-09
       386  15  9.549330E+05  1.490226E+05  2.645987E+03  3.769265E+05  3.553226E-09  3.143919E-09
       386  16  9.391570E+05  1.427047E+05 -2.938695E+03  3.726513E+05  7.045424E-09  6.073744E-09
       386  17  9.705433E+05  1.425219E+05  3.459868E+03  3.691490E+05  9.040696E-09  1.610318E-09
       386  18  9.847332E+05  1.603754E+05  1.059091E+04  3.852148E+05  6.938923E-09  5.985239E-09
       386  19  9.706189E+05  1.547100E+05  5.370910E+03  3.814419E+05  2.119092E+02  9.171447E+02
       386  20  9.564747E+05  1.371720E+05 -3.288150E+02  3.652561E+05  1.345401E+03  3.085092E+02
       386  21  9.251336E+05  1.376698E+05 -5.299022E+03  3.686385E+05  2.476755E+03 -2.947243E+02
       386  22  9.548878E+05  1.487074E+05  1.216119E+03  3.770466E+05 -1.161128E+02  7.923568E+02
       386  23  9.635090E+05  1.398469E+05  1.565530E+03  3.672026E+05  1.019345E+03  1.844747E+02
       386  24  9.549330E+05  1.490226E+05  2.645996E+03  3.769265E+05  2.152696E+03 -4.179954E+02
       386  25  9.391570E+05  1.427047E+05 -2.938693E+03  3.726513E+05 -4.441256E+02  6.675725E+02
       386  26  9.705433E+05  1.425219E+05  3.459869E+03  3.691490E+05  6.932850E+02  6.043871E+01
       386  27  9.847332E+05  1.603754E+05  1.059092E+04  3.852148E+05  1.828621E+03 -5.412728E+02
       387   1  8.772512E+05  1.194760E+05 -1.760302E+04  3.561486E+05 -3.194276E+03  6.400936E+02
       387   2  8.625358E+05  1.009401E+05 -2.136397E+04  3.392724E+05 -6.472766E+03  4.466958E+02
       387   3  8.318773E+05  1.040909E+05 -2.188729E+04  3.415248E+05 -9.729521E+03  1.971507E+02
       387   4  9.550441E+05  1.486797E+05  3.360071E+03  3.772674E+05 -2.853049E+03  7.698740E+02
       387   5  9.632179E+05  1.392577E+05  5.757826E+03  3.671614E+05 -6.152254E+03  5.685394E+02
       387   6  9.554525E+05  1.515260E+05  1.140933E+04  3.761839E+05 -9.429840E+03  3.110145E+02
       387   7  1.032843E+06  1.778839E+05  2.432267E+04  3.983885E+05 -2.511775E+03  8.996722E+02
       387   8  1.063910E+06  1.775760E+05  3.287876E+04  3.950545E+05 -5.831685E+03  6.904050E+02
       387   9  1.079042E+06  1.989622E+05  4.470461E+04  4.108492E+05 -9.130094E+03  4.249040E+02
       387  10  8.772512E+05  1.194760E+05 -1.760304E+04  3.561486E+05  5.873049E-09 -1.532307E-08
       387  11  8.625357E+05  1.009401E+05 -2.136405E+04  3.392724E+05  5.042234E-09 -1.756035E-08
       387  12  8.318772E+05  1.040908E+05 -2.188747E+04  3.415248E+05 -8.839578E-09 -1.082437E-08
       387  13  9.550441E+05  1.486797E+05  3.360055E+03  3.772674E+05  1.782591E-09 -8.992026E-09
       387  14  9.632179E+05  1.392577E+05  5.757755E+03  3.671614E+05  2.055113E-09 -3.600748E-09
       387  15  9.554524E+05  1.515260E+05  1.140917E+04  3.761839E+05  1.464859E-09  1.186768E-08
       387  16  1.032843E+06  1.778839E+05  2.432266E+04  3.983885E+05  4.828525E-09 -9.019539E-09
       387  17  1.063910E+06  1.775760E+05  3.287869E+04  3.950545E+05  1.246611E-08  6.734073E-09
       387  18  1.079042E+06  1.989622E+05  4.470445E+04  4.108492E+05  7.844485E-09  6.599294E-09
       387  19  8.772512E+05  1.194760E+05 -1.760302E+04  3.561486E+05  3.194276E+03 -6.400936E+02
       387  20  8.625358E+05  1.009401E+05 -2.136397E+04  3.392724E+05  6.472766E+03 -4.466958E+02
       387  21  8.318773E+05  1.040909E+05 -2.188729E+04  3.415248E+05  9.729521E+03 -1.971507E+02
       387  22  9.550441E+05  1.486797E+05  3.360071E+03  3.772674E+05  2.853049E+03 -7.698740E+02
       387  23  9.632179E+05  1.392577E+05  5.757826E+03  3.671614E+05  6.152254E+03 -5.685394E+02
       387  24  9.554525E+05  1.515260E+05  1.140933E+04  3.761839E+05  9.429840E+03 -3.110145E+02
       387  25  1.032843E+06  1.778839E+05  2.432267E+04  3.983885E+05  2.511775E+03 -8.996722E+02
       387  26  1.063910E+06  1.775760E+05  3.287876E+04  3.950545E+05  5.831685E+03 -6.904050E+02
       387  27  1.079042E+06  1.989622E+05  4.470461E+04  4.108492E+05  9.130094E+03 -4.249040E+02
       388   1  7.813320E+05  8.437364E+04 -3.224719E+04  3.327693E+05 -1.226514E+04 -1.957675E+01
       388   2  7.640572E+05  5.922406E+04 -2.855066E+04  3.119456E+05 -2.532488E+04 -3.855944E+03
       388   3  7.413896E+05  8.324835E+04 -7.046771E+03  3.044756E+05 -3.813010E+04 -8.359809E+03
       388   4  9.564517E+05  1.482696E+05  1.447173E+04  3.784601E+05 -1.179284E+04  1.598950E+02
       388   5  9.607642E+05  1.350813E+05  2.462092E+04  3.674437E+05 -2.509696E+04 -3.769557E+03
       388   6  9.597279E+05  1.711083E+05  5.276649E+04  3.697810E+05 -3.814709E+04 -8.366786E+03
       388   7  1.131600E+06  2.121667E+05  6.118790E+04  4.241621E+05 -1.132040E+04  3.394175E+02
       388   8  1.157508E+06  2.109413E+05  7.778904E+04  4.229578E+05 -2.486895E+04 -3.683138E+03
       388   9  1.178113E+06  2.589731E+05  1.125755E+05  4.351077E+05 -3.816409E+04 -8.373766E+03
       388  10  7.813318E+05  8.437360E+04 -3.224747E+04  3.327693E+05 -2.642430E-09  8.075556E-09
       388  11  7.640565E+05  5.922388E+04 -2.855189E+04  3.119455E+05  7.934981E-10 -4.645163E-09
       388  12  7.413880E+05  8.324788E+04 -7.049631E+03  3.044754E+05 -6.138193E-10  1.568172E-08
       388  13  9.564515E+05  1.482695E+05  1.447147E+04  3.784601E+05  6.102827E-11 -5.689125E-09
       388  14  9.607635E+05  1.350811E+05  2.461971E+04  3.674436E+05 -8.779794E-10  4.897058E-09
       388  15  9.597263E+05  1.711079E+05  5.276362E+04  3.697807E+05  5.612257E-10  7.738387E-09
       388  16  1.131600E+06  2.121667E+05  6.118766E+04  4.241621E+05 -5.385688E-09 -7.681877E-09
       388  17  1.157508E+06  2.109411E+05  7.778786E+04  4.229577E+05 -1.647774E-09  4.603785E-09
       388  18  1.178111E+06  2.589726E+05  1.125726E+05  4.351074E+05 -7.307373E-10  6.897614E-09
       388  19  7.813320E+05  8.437364E+04 -3.224719E+04  3.327693E+05  1.226514E+04  1.957675E+01
       388  20  7.640572E+05  5.922406E+04 -2.855066E+04  3.119456E+05  2.532488E+04  3.855944E+03
       388  21  7.413896E+05  8.324835E+04 -7.046771E+03  3.044756E+05  3.813010E+04  8.359809E+03
       388  22  9.564517E+05  1.482696E+05  1.447173E+04  3.784601E+05  1.179284E+04 -1.598950E+02
       388  23  9.607642E+05  1.350813E+05  2.462092E+04  3.674437E+05  2.509696E+04  3.769557E+03
       388  24  9.597279E+05  1.711083E+05  5.276649E+04  3.697810E+05  3.814709E+04  8.366786E+03
       388  25  1.131600E+06  2.121667E+05  6.118790E+04  4.241621E+05  1.132040E+04 -3.394175E+02
       388  26  1.157508E+06  2.109413E+05  7.778904E+04  4.229578E+05  2.486895E+04  3.683138E+03
       388  27  1.178113E+06  2.589731E+05  1.125755E+05  4.351077E+05  3.816409E+04  8.373766E+03
       389   1  6.790886E+05  5.378032E+04 -9.374540E+03  3.265074E+05 -4.984551E+04 -1.099002E+04
       389   2  6.492503E+05 -1.810949E+04  2.355078E+04  2.796152E+05 -1.051968E+05 -3.050134E+04
       389   3  6.973183E+05  1.694220E+05  1.630928E+05  1.927034E+05 -1.580340E+05 -5.663513E+04
       389   4  9.676592E+05  1.436182E+05  6.446189E+04  3.860984E+05 -4.820069E+04 -1.036419E+04
       389   5  9.414291E+05  1.041290E+05  1.042583E+05  3.718191E+05 -1.059633E+05 -3.079465E+04
       389   6  9.935338E+05  3.244624E+05  2.525409E+05  3.175319E+05 -1.612125E+05 -5.785296E+04
       389   7  1.256310E+06  2.334555E+05  1.382920E+05  4.457114E+05 -4.655502E+04 -9.738176E+03
       389   8  1.233689E+06  2.263777E+05  1.849577E+05  4.640636E+05 -1.067301E+05 -3.108814E+04
       389   9  1.289836E+06  4.795336E+05  3.419799E+05  4.424211E+05 -1.643927E+05 -5.907194E+04
       389  10  6.790859E+05  5.377952E+04 -9.379430E+03  3.265069E+05  8.929292E-09  2.286797E-08
       389  11  6.492382E+05 -1.811345E+04  2.352827E+04  2.796127E+05  5.832537E-09  9.493985E-09
       389  12  6.972906E+05  1.694118E+05  1.630399E+05  1.926962E+05 -3.892849E-10  5.787423E-09
       389  13  9.676566E+05  1.436175E+05  6.445733E+04  3.860980E+05 -3.818656E-09 -2.901927E-09
       389  14  9.414168E+05  1.041250E+05  1.042355E+05  3.718164E+05  1.506655E-10 -7.087928E-09
       389  15  9.935051E+05  3.244518E+05  2.524859E+05  3.175244E+05 -3.762232E-09  9.242381E-10
       389  16  1.256308E+06  2.334549E+05  1.382878E+05  4.457110E+05 -9.291927E-09 -5.467607E-09
       389  17  1.233677E+06  2.263736E+05  1.849345E+05  4.640609E+05 -6.723490E-09 -7.143761E-09
       389  18  1.289806E+06  4.795227E+05  3.419227E+05  4.424133E+05 -6.905198E-10 -9.819847E-09
       389  19  6.790886E+05  5.378032E+04 -9.374540E+03  3.265074E+05  4.984551E+04  1.099002E+04
       389  20  6.492503E+05 -1.810949E+04  2.355078E+04  2.796152E+05  1.051968E+05  3.050134E+04
       389  21  6.973183E+05  1.694220E+05  1.630928E+05  1.927034E+05  1.580340E+05  5.663513E+04
       389  22  9.676592E+05  1.436182E+05  6.446189E+04  3.860984E+05  4.820069E+04  1.036419E+04
       389  23  9.414291E+05  1.041290E+05  1.042583E+05  3.718191E+05  1.059633E+05  3.079465E+04
       389  24  9.935338E+05  3.244624E+05  2.525409E+05  3.175319E+05  1.612125E+05  5.785296E+04
       389  25  1.256310E+06  2.334555E+05  1.382920E+05  4.457114E+05  4.655502E+04  9.738176E+03
       389  26  1.233689E+06  2.263777E+05  1.849577E+05  4.640636E+05  1.067301E+05  3.108814E+04
       389  27  1.289836E+06  4.795336E+05  3.419799E+05  4.424211E+05  1.643927E+05  5.907194E+04
       390   1 -1.958770E+05 -1.095723E+06 -2.012074E+05  8.646294E+04 -5.339575E+03 -2.556362E+04
       390   2 -1.308049E+05 -9.465947E+05 -1.465318E+05  1.097813E+04 -1.449537E+04 -1.220543E+04
       390   3 -9.912185E+04 -8.060804E+05 -1.086384E+05  7.687674E+04 -8.947030E+03  1.192590E+03
       390   4 -2.396028E+04 -4.077703E+05 -3.041118E+04  7.901145E+04 -5.356863E+03 -1.926046E+04
       390   5  4.251081E+03 -4.039387E+05 -1.439033E+04  8.356737E+03 -1.449618E+04 -1.153280E+04
       390   6  6.927103E+01 -4.077530E+05 -1.122572E+04  7.907899E+04 -8.936801E+03 -3.768593E+03
       390   7  1.479211E+05  2.806128E+05  1.403498E+05  7.155196E+04 -5.374293E+03 -1.295031E+04
       390   8  1.392854E+05  1.389864E+05  1.177298E+05  5.733209E+03 -1.449699E+04 -1.085959E+04
       390   9  9.924869E+04 -9.280691E+03  8.617543E+04  8.128272E+04 -8.926611E+03 -8.732955E+03
       390  10 -1.958772E+05 -1.095724E+06 -2.012087E+05  8.646283E+04  1.144984E-09  4.462439E-10
       390  11 -1.308052E+05 -9.465949E+05 -1.465325E+05  1.097799E+04  1.358726E-09 -8.213044E-09
       390  12 -9.912194E+04 -8.060804E+05 -1.086385E+05  7.687674E+04 -3.078402E-09  3.297457E-09
       390  13 -2.396041E+04 -4.077707E+05 -3.041193E+04  7.901137E+04  2.199461E-09  2.219542E-09
       390  14  4.250820E+03 -4.039389E+05 -1.439097E+04  8.356603E+03  1.578750E-09 -1.674700E-09
       390  15  6.918147E+01 -4.077530E+05 -1.122590E+04  7.907896E+04 -3.880514E-09 -1.021518E-08
       390  16  1.479210E+05  2.806126E+05  1.403494E+05  7.155191E+04  1.436329E-09  6.061949E-09
       390  17  1.392851E+05  1.389862E+05  1.177292E+05  5.733082E+03  4.599892E-09  9.772004E-09
       390  18  9.924858E+04 -9.280794E+03  8.617513E+04  8.128265E+04 -5.522561E-09  3.142855E-10
       390  19 -1.958770E+05 -1.095723E+06 -2.012074E+05  8.646294E+04  5.339575E+03  2.556362E+04
       390  20 -1.308049E+05 -9.465947E+05 -1.465318E+05  1.097813E+04  1.449537E+04  1.220543E+04
       390  21 -9.912185E+04 -8.060804E+05 -1.086384E+05  7.687674E+04  8.947030E+03 -1.192590E+03
       390  22 -2.396028E+04 -4.077703E+05 -3.041118E+04  7.901145E+04  5.356863E+03  1.926046E+04
       390  23  4.251081E+03 -4.039387E+05 -1.439033E+04  8.356737E+03  1.449618E+04  1.153280E+04
       390  24  6.927103E+01 -4.077530E+05 -1.122572E+04  7.907899E+04  8.936801E+03  3.768593E+03
       390  25  1.479211E+05  2.806128E+05  1.403498E+05  7.155196E+04  5.374293E+03  1.295031E+04
       390  26  1.392854E+05  1.389864E+05  1.177298E+05  5.733209E+03  1.449699E+04  1.085959E+04
       390  27  9.924869E+04 -9.280691E+03  8.617543E+04  8.128272E+04  8.926611E+03  8.732955E+03
       391   1 -3.343761E+04 -5.290693E+05 -4.044296E+04  8.081121E+04 -3.391705E+03 -3.017706E+02
       391   2  7.298126E+03 -3.821449E+05 -4.306085E+03  7.908236E+03  5.600745E+02  4.813133E+03
       391   3  3.596936E+04 -2.381686E+05  2.562633E+04  7.732907E+04  4.429840E+03  9.929317E+03
       391   4 -2.984916E+03 -4.066721E+05 -1.067405E+04  7.926915E+04 -3.388794E+03 -1.838091E+03
       391   5  1.562925E+03 -4.051861E+05 -9.926756E+03  8.103932E+03  5.629990E+02  3.308303E+03
       391   6 -5.958003E+03 -4.066735E+05 -1.540460E+04  7.926325E+04  4.432750E+03  8.454793E+03
       391   7  2.746668E+04 -2.842612E+05  1.909379E+04  7.772680E+04 -3.385876E+03 -3.374714E+03
       391   8 -4.172314E+03 -4.282268E+05 -1.554746E+04  8.299620E+03  5.659226E+02  1.803528E+03
       391   9 -4.788744E+04 -5.751524E+05 -5.643757E+04  8.119691E+04  4.435652E+03  6.980668E+03
       391  10 -3.343762E+04 -5.290693E+05 -4.044299E+04  8.081121E+04 -3.169310E-09  7.052944E-09
       391  11  7.298120E+03 -3.821449E+05 -4.306130E+03  7.908234E+03  3.641477E-09 -6.513519E-09
       391  12  3.596931E+04 -2.381687E+05  2.562610E+04  7.732904E+04 -3.875190E-10  1.479559E-10
       391  13 -2.984929E+03 -4.066721E+05 -1.067408E+04  7.926915E+04 -3.912460E-09 -1.538149E-11
       391  14  1.562922E+03 -4.051861E+05 -9.926777E+03  8.103930E+03  4.310118E-09  5.552442E-09
       391  15 -5.958043E+03 -4.066736E+05 -1.540477E+04  7.926322E+04  9.646802E-10 -9.809944E-09
       391  16  2.746666E+04 -2.842613E+05  1.909375E+04  7.772679E+04 -4.389489E-09 -4.922309E-09
       391  17 -4.172315E+03 -4.282268E+05 -1.554746E+04  8.299619E+03  2.988344E-09  1.136844E-08
       391  18 -4.788748E+04 -5.751525E+05 -5.643770E+04  8.119689E+04 -1.378878E-09  5.409473E-09
       391  19 -3.343761E+04 -5.290693E+05 -4.044296E+04  8.081121E+04  3.391705E+03  3.017706E+02
       391  20  7.298126E+03 -3.821449E+05 -4.306085E+03  7.908236E+03 -5.600745E+02 -4.813133E+03
       391  21  3.596936E+04 -2.381686E+05  2.562633E+04  7.732907E+04 -4.429840E+03 -9.929317E+03
       391  22 -2.984916E+03 -4.066721E+05 -1.067405E+04  7.926915E+04  3.388794E+03  1.838091E+03
       391  23  1.562925E+03 -4.051861E+05 -9.926756E+03  8.103932E+03 -5.629990E+02 -3.308303E+03
       391  24 -5.958003E+03 -4.066735E+05 -1.540460E+04  7.926325E+04 -4.432750E+03 -8.454793E+03
       391  25  2.746668E+04 -2.842612E+05  1.909379E+04  7.772680E+04  3.385876E+03  3.374714E+03
       391  26 -4.172314E+03 -4.282268E+05 -1.554746E+04  8.299620E+03 -5.659226E+02 -1.803528E+03
       391  27 -4.788744E+04 -5.751524E+05 -5.643757E+04  8.119691E+04 -4.435652E+03 -6.980668E+03
       392   1  1.120733E+05  3.491444E+04  9.075137E+04  8.370255E+04  1.007534E+04  1.651101E+04
       392   2  1.547620E+05  1.870998E+05  1.168010E+05  4.059019E+03  1.565110E+04  2.490776E+04
       392   3  1.363707E+05  3.245451E+05  1.224454E+05  6.557699E+04  5.700613E+03  3.326623E+04
       392   4  1.461529E+03 -4.095750E+05 -1.786012E+04  7.905631E+04  1.008616E+04  1.137443E+04
       392   5  8.315370E+03 -4.016814E+05 -2.648529E+04  8.399826E+03  1.565011E+04  2.572287E+04
       392   6 -4.697454E+04 -4.095983E+05 -5.966536E+04  7.891499E+04  5.681569E+03  4.003087E+04
       392   7 -1.091647E+05 -8.538841E+05 -1.264859E+05  7.441348E+04  1.009707E+04  6.241525E+03
       392   8 -1.381567E+05 -9.901462E+05 -1.697967E+05  1.273671E+04  1.564912E+04  2.653720E+04
       392   9 -2.303596E+05 -1.143252E+06 -2.418161E+05  9.223753E+04  5.662805E+03  4.678748E+04
       392  10  1.120731E+05  3.491412E+04  9.075066E+04  8.370241E+04 -9.262687E-10  3.496475E-09
       392  11  1.547615E+05  1.870990E+05  1.167994E+05  4.058705E+03  1.021384E-09 -1.019903E-08
       392  12  1.363704E+05  3.245439E+05  1.224433E+05  6.557684E+04 -2.743462E-10  3.025731E-09
       392  13  1.461385E+03 -4.095751E+05 -1.786055E+04  7.905622E+04 -2.436763E-09  6.391766E-09
       392  14  8.314929E+03 -4.016822E+05 -2.648699E+04  8.399502E+03  3.467504E-09  8.336007E-09
       392  15 -4.697500E+04 -4.096000E+05 -5.966844E+04  7.891480E+04  6.577491E-10 -1.179748E-08
       392  16 -1.091649E+05 -8.538842E+05 -1.264862E+05  7.441343E+04 -5.745067E-10  2.403621E-09
       392  17 -1.381571E+05 -9.901471E+05 -1.697985E+05  1.273637E+04  2.863999E-09  9.242075E-09
       392  18 -2.303602E+05 -1.143254E+06 -2.418203E+05  9.223732E+04  5.294013E-11  4.294156E-09
       392  19  1.120733E+05  3.491444E+04  9.075137E+04  8.370255E+04 -1.007534E+04 -1.651101E+04
       392  20  1.547620E+05  1.870998E+05  1.168010E+05  4.059019E+03 -1.565110E+04 -2.490776E+04
       392  21  1.363707E+05  3.245451E+05  1.224454E+05  6.557699E+04 -5.700613E+03 -3.326623E+04
       392  22  1.461529E+03 -4.095750E+05 -1.786012E+04  7.905631E+04 -1.008616E+04 -1.137443E+04
       392  23  8.315370E+03 -4.016814E+05 -2.648529E+04  8.399826E+03 -1.565011E+04 -2.572287E+04
       392  24 -4.697454E+04 -4.095983E+05 -5.966536E+04  7.891499E+04 -5.681569E+03 -4.003087E+04
       392  25 -1.091647E+05 -8.538841E+05 -1.264859E+05  7.441348E+04 -1.009707E+04 -6.241525E+03
       392  26 -1.381567E+05 -9.901462E+05 -1.697967E+05  1.273671E+04 -1.564912E+04 -2.653720E+04
       392  27 -2.303596E+05 -1.143252E+06 -2.418161E+05  9.223753E+04 -5.662805E+03 -4.678748E+04
       393   1  8.832315E+05 -2.617314E+04 -1.577818E+04 -1.626720E+03  2.937639E+04  1.427685E+03
       393   2  8.891529E+05 -6.464590E+04 -3.763384E+04  4.189180E+03  1.975588E+04  4.020960E+03
       393   3  9.085655E+05 -5.541633E+04 -4.124403E+04 -9.744134E+03  1.013937E+04  3.298393E+03
       393   4  1.125580E+06  3.428325E+04  4.452113E+04 -6.966916E+03  3.040919E+04  1.428901E+03
       393   5  1.118777E+06 -7.431757E+03  1.908324E+04  2.932889E+03  1.998844E+04  4.021096E+03
       393   6  1.125599E+06 -1.315191E+03  1.244071E+04 -6.915960E+03  9.571897E+03  3.297860E+03
       393   7  1.367983E+06  9.473535E+04  1.048161E+05 -1.230921E+04  3.144239E+04  1.430099E+03
       393   8  1.348449E+06  4.977847E+04  7.579641E+04  1.676119E+03  2.022109E+04  4.021230E+03
       393   9  1.342674E+06  5.278246E+04  6.612197E+04 -4.086806E+03  9.004224E+03  3.297321E+03
       393  10  8.832306E+05 -2.617338E+04 -1.577980E+04 -1.626754E+03 -2.008451E-10  1.381697E-10
       393  11  8.891525E+05 -6.464602E+04 -3.763460E+04  4.189116E+03 -4.977578E-10 -1.745919E-10
       393  12  9.085654E+05 -5.541637E+04 -4.124425E+04 -9.744161E+03 -3.546333E-10 -3.771203E-10
       393  13  1.125579E+06  3.428300E+04  4.451939E+04 -6.966951E+03  7.445560E-10 -1.608432E-11
       393  14  1.118777E+06 -7.431881E+03  1.908246E+04  2.932825E+03 -6.331539E-10 -1.258651E-11
       393  15  1.125598E+06 -1.315227E+03  1.244052E+04 -6.915985E+03  1.249760E-09 -7.786314E-12
       393  16  1.367981E+06  9.473508E+04  1.048142E+05 -1.230925E+04  5.274629E-10 -5.512288E-11
       393  17  1.348449E+06  4.977834E+04  7.579561E+04  1.676054E+03  1.758251E-09  1.283549E-10
       393  18  1.342674E+06  5.278243E+04  6.612180E+04 -4.086830E+03  1.108582E-10 -8.373821E-11
       393  19  8.832315E+05 -2.617314E+04 -1.577818E+04 -1.626720E+03 -2.937639E+04 -1.427685E+03
       393  20  8.891529E+05 -6.464590E+04 -3.763384E+04  4.189180E+03 -1.975588E+04 -4.020960E+03
       393  21  9.085655E+05 -5.541633E+04 -4.124403E+04 -9.744134E+03 -1.013937E+04 -3.298393E+03
       393  22  1.125580E+06  3.428325E+04  4.452113E+04 -6.966916E+03 -3.040919E+04 -1.428901E+03
       393  23  1.118777E+06 -7.431757E+03  1.908324E+04  2.932889E+03 -1.998844E+04 -4.021096E+03
       393  24  1.125599E+06 -1.315191E+03  1.244071E+04 -6.915960E+03 -9.571897E+03 -3.297860E+03
       393  25  1.367983E+06  9.473535E+04  1.048161E+05 -1.230921E+04 -3.144239E+04 -1.430099E+03
       393  26  1.348449E+06  4.977847E+04  7.579641E+04  1.676119E+03 -2.022109E+04 -4.021230E+03
       393  27  1.342674E+06  5.278246E+04  6.612197E+04 -4.086806E+03 -9.004224E+03 -3.297321E+03
       394   1  9.508285E+05 -3.806507E+04 -3.234334E+04 -5.468122E+03  7.482011E+03  2.544550E+03
       394   2  9.600456E+05 -4.141823E+04 -3.506402E+04  2.042731E+03  4.979768E+03  2.558840E+03
       394   3  9.714373E+05 -3.797743E+04 -3.442838E+04 -6.549597E+03  2.477568E+03  2.177933E+03
       394   4  1.123059E+06  4.862660E+03  1.026798E+04 -6.124175E+03  7.534776E+03  2.544536E+03
       394   5  1.121965E+06 -1.064856E+03  4.969899E+03  1.929109E+03  4.936938E+03  2.558773E+03
       394   6  1.123061E+06 -1.827994E+02  3.093785E+03 -6.120518E+03  2.339186E+03  2.177854E+03
       394   7  1.295316E+06  4.778818E+04  5.287710E+04 -6.780415E+03  7.587556E+03  2.544522E+03
       394   8  1.283907E+06  3.928656E+04  4.500188E+04  1.815453E+03  4.894097E+03  2.558706E+03
       394   9  1.274706E+06  3.761012E+04  4.061424E+04 -5.691336E+03  2.200769E+03  2.177774E+03
       394  10  9.508284E+05 -3.806509E+04 -3.234346E+04 -5.468137E+03 -4.213409E-10  2.199240E-11
       394  11  9.600456E+05 -4.141824E+04 -3.506408E+04  2.042721E+03 -2.647646E-10 -1.321183E-10
       394  12  9.714373E+05 -3.797744E+04 -3.442840E+04 -6.549601E+03  3.549665E-10  4.933918E-12
       394  13  1.123058E+06  4.862638E+03  1.026786E+04 -6.124190E+03  4.034558E-10 -5.279861E-11
       394  14  1.121965E+06 -1.064870E+03  4.969841E+03  1.929098E+03 -3.654353E-10 -1.281389E-10
       394  15  1.123061E+06 -1.828060E+02  3.093766E+03 -6.120522E+03  5.879016E-10 -1.042686E-10
       394  16  1.295315E+06  4.778815E+04  5.287698E+04 -6.780430E+03  6.654054E-10 -1.935274E-10
       394  17  1.283907E+06  3.928655E+04  4.500182E+04  1.815443E+03  7.766058E-10 -8.839614E-11
       394  18  1.274706E+06  3.761011E+04  4.061423E+04 -5.691340E+03 -4.739841E-10 -8.292084E-11
       394  19  9.508285E+05 -3.806507E+04 -3.234334E+04 -5.468122E+03 -7.482011E+03 -2.544550E+03
       394  20  9.600456E+05 -4.141823E+04 -3.506402E+04  2.042731E+03 -4.979768E+03 -2.558840E+03
       394  21  9.714373E+05 -3.797743E+04 -3.442838E+04 -6.549597E+03 -2.477568E+03 -2.177933E+03
       394  22  1.123059E+06  4.862660E+03  1.026798E+04 -6.124175E+03 -7.534776E+03 -2.544536E+03
       394  23  1.121965E+06 -1.064856E+03  4.969899E+03  1.929109E+03 -4.936938E+03 -2.558773E+03
       394  24  1.123061E+06 -1.827994E+02  3.093785E+03 -6.120518E+03 -2.339186E+03 -2.177854E+03
       394  25  1.295316E+06  4.778818E+04  5.287710E+04 -6.780415E+03 -7.587556E+03 -2.544522E+03
       394  26  1.283907E+06  3.928656E+04  4.500188E+04  1.815453E+03 -4.894097E+03 -2.558706E+03
       394  27  1.274706E+06  3.761012E+04  4.061424E+04 -5.691336E+03 -2.200769E+03 -2.177774E+03
       395   1  1.008234E+06 -2.783434E+04 -2.579558E+04 -5.497109E+03  1.900593E+03  1.915491E+03
       395   2  1.016756E+06 -2.650011E+04 -2.480141E+04  1.251228E+03  1.222627E+03  1.636640E+03
       395   3  1.025668E+06 -2.419429E+04 -2.311154E+04 -5.626218E+03  5.445517E+02  1.338295E+03
       395   4  1.122664E+06  6.795668E+02  2.478965E+03 -5.571234E+03  1.836194E+03  1.915453E+03
       395   5  1.122469E+06 -1.543042E+02  1.339828E+03  1.241667E+03  1.153432E+03  1.636614E+03
       395   6  1.122664E+06 -1.579661E+01  8.996567E+02 -5.571071E+03  4.705707E+02  1.338284E+03
       395   7  1.237105E+06  2.919249E+04  3.075254E+04 -5.645373E+03  1.771783E+03  1.915414E+03
       395   8  1.228191E+06  2.619067E+04  2.748023E+04  1.232104E+03  1.084226E+03  1.636588E+03
       395   9  1.219669E+06  2.416199E+04  2.491015E+04 -5.515915E+03  3.965781E+02  1.338272E+03
       395  10  1.008234E+06 -2.783434E+04 -2.579559E+04 -5.497112E+03  1.397358E-09 -9.148227E-11
       395  11  1.016756E+06 -2.650012E+04 -2.480141E+04  1.251227E+03  8.979305E-11  2.461776E-10
       395  12  1.025668E+06 -2.419429E+04 -2.311154E+04 -5.626218E+03 -1.604786E-09  2.724088E-10
       395  13  1.122664E+06  6.795619E+02  2.478952E+03 -5.571236E+03  1.484428E-10 -5.688621E-11
       395  14  1.122469E+06 -1.543074E+02  1.339820E+03  1.241665E+03  1.657408E-11  7.482905E-12
       395  15  1.122664E+06 -1.579859E+01  8.996530E+02 -5.571071E+03  7.057974E-11  1.572051E-10
       395  16  1.237105E+06  2.919249E+04  3.075253E+04 -5.645376E+03 -1.459577E-09 -3.328985E-10
       395  17  1.228191E+06  2.619067E+04  2.748022E+04  1.232102E+03 -3.106483E-11  1.401711E-10
       395  18  1.219669E+06  2.416199E+04  2.491015E+04 -5.515916E+03  1.612052E-09  1.509920E-10
       395  19  1.008234E+06 -2.783434E+04 -2.579558E+04 -5.497109E+03 -1.900593E+03 -1.915491E+03
       395  20  1.016756E+06 -2.650011E+04 -2.480141E+04  1.251228E+03 -1.222627E+03 -1.636640E+03
       395  21  1.025668E+06 -2.419429E+04 -2.311154E+04 -5.626218E+03 -5.445517E+02 -1.338295E+03
       395  22  1.122664E+06  6.795668E+02  2.478965E+03 -5.571234E+03 -1.836194E+03 -1.915453E+03
       395  23  1.122469E+06 -1.543042E+02  1.339828E+03  1.241667E+03 -1.153432E+03 -1.636614E+03
       395  24  1.122664E+06 -1.579661E+01  8.996567E+02 -5.571071E+03 -4.705707E+02 -1.338284E+03
       395  25  1.237105E+06  2.919249E+04  3.075254E+04 -5.645373E+03 -1.771783E+03 -1.915414E+03
       395  26  1.228191E+06  2.619067E+04  2.748023E+04  1.232104E+03 -1.084226E+03 -1.636588E+03
       395  27  1.219669E+06  2.416199E+04  2.491015E+04 -5.515915E+03 -3.965781E+02 -1.338272E+03
       396   1  1.057824E+06 -1.604725E+04 -1.521839E+04 -5.217882E+03  3.886368E+02  1.162523E+03
       396   2  1.065522E+06 -1.424607E+04 -1.346160E+04  8.323169E+02  6.395375E+01  8.792947E+02
       396   3  1.073327E+06 -1.223127E+04 -1.143792E+04 -5.240415E+03 -2.607928E+02  6.113435E+02
       396   4  1.122603E+06  9.152265E+01  7.750606E+02 -5.237163E+03  3.187559E+02  1.162521E+03
       396   5  1.122549E+06 -3.398503E+01  6.405743E+02  8.242697E+02 -2.284652E+00  8.792992E+02
       396   6  1.122602E+06  5.346465E+01  7.704034E+02 -5.237159E+03 -3.233846E+02  6.113542E+02
       396   7  1.187385E+06  1.622999E+04  1.676820E+04 -5.256446E+03  2.488678E+02  1.162519E+03
       396   8  1.179579E+06  1.417786E+04  1.474250E+04  8.162219E+02 -6.852912E+01  8.793036E+02
       396   9  1.171880E+06  1.233802E+04  1.297855E+04 -5.233902E+03 -3.859815E+02  6.113650E+02
       396  10  1.057824E+06 -1.604725E+04 -1.521839E+04 -5.217882E+03 -6.147913E-10 -2.124755E-10
       396  11  1.065522E+06 -1.424608E+04 -1.346160E+04  8.323168E+02  3.006582E-10  1.725154E-10
       396  12  1.073327E+06 -1.223127E+04 -1.143792E+04 -5.240415E+03  8.077645E-11 -1.854252E-10
       396  13  1.122603E+06  9.152117E+01  7.750579E+02 -5.237163E+03 -1.196607E-10 -1.480836E-10
       396  14  1.122549E+06 -3.398586E+01  6.405728E+02  8.242697E+02 -1.006123E-11 -8.827337E-11
       396  15  1.122602E+06  5.346422E+01  7.704025E+02 -5.237159E+03 -2.777114E-10  2.701475E-10
       396  16  1.187385E+06  1.622998E+04  1.676820E+04 -5.256446E+03  5.845122E-10  9.620863E-12
       396  17  1.179579E+06  1.417786E+04  1.474250E+04  8.162220E+02 -3.321060E-10 -1.066649E-10
       396  18  1.171880E+06  1.233802E+04  1.297855E+04 -5.233902E+03 -8.141959E-11 -2.161492E-10
       396  19  1.057824E+06 -1.604725E+04 -1.521839E+04 -5.217882E+03 -3.886368E+02 -1.162523E+03
       396  20  1.065522E+06 -1.424607E+04 -1.346160E+04  8.323169E+02 -6.395375E+01 -8.792947E+02
       396  21  1.073327E+06 -1.223127E+04 -1.143792E+04 -5.240415E+03  2.607928E+02 -6.113435E+02
       396  22  1.122603E+06  9.152265E+01  7.750606E+02 -5.237163E+03 -3.187559E+02 -1.162521E+03
       396  23  1.122549E+06 -3.398503E+01  6.405743E+02  8.242697E+02  2.284652E+00 -8.792992E+02
       396  24  1.122602E+06  5.346465E+01  7.704034E+02 -5.237159E+03  3.233846E+02 -6.113542E+02
       396  25  1.187385E+06  1.622999E+04  1.676820E+04 -5.256446E+03 -2.488678E+02 -1.162519E+03
       396  26  1.179579E+06  1.417786E+04  1.474250E+04  8.162219E+02  6.852912E+01 -8.793036E+02
       396  27  1.171880E+06  1.233802E+04  1.297855E+04 -5.233902E+03  3.859815E+02 -6.113650E+02
       397   1  1.102887E+06 -4.914225E+03 -3.957481E+03 -5.054428E+03 -4.096499E+02  4.570520E+02
       397   2  1.110115E+06 -3.180349E+03 -1.695330E+03  6.436708E+02 -1.101077E+03  1.907453E+02
       397   3  1.117570E+06 -8.710211E+02  1.158862E+03 -5.137912E+03 -1.792523E+03 -6.671600E+01
       397   4  1.122630E+06  1.077025E+00  9.006814E+02 -5.094266E+03 -4.747591E+02  4.570671E+02
       397   5  1.122516E+06 -8.989874E+01  1.371313E+03  6.456215E+02 -1.164073E+03  1.907612E+02
       397   6  1.122629E+06  3.942107E+02  2.432520E+03 -5.094158E+03 -1.853397E+03 -6.669923E+01
       397   7  1.142373E+06  4.916350E+03  5.758815E+03 -5.134105E+03 -5.398704E+02  4.570822E+02
       397   8  1.134917E+06  3.000540E+03  4.437944E+03  6.475722E+02 -1.227070E+03  1.907771E+02
       397   9  1.127688E+06  1.659441E+03  3.706175E+03 -5.050403E+03 -1.914271E+03 -6.668247E+01
       397  10  1.102887E+06 -4.914225E+03 -3.957482E+03 -5.054427E+03  1.052672E-10  1.986786E-10
       397  11  1.110115E+06 -3.180350E+03 -1.695332E+03  6.436710E+02  1.515338E-10  1.145874E-10
       397  12  1.117570E+06 -8.710220E+02  1.158856E+03 -5.137912E+03 -2.294865E-10  1.269821E-10
       397  13  1.122630E+06  1.076740E+00  9.006806E+02 -5.094266E+03 -1.269728E-10  1.908678E-10
       397  14  1.122516E+06 -8.989914E+01  1.371311E+03  6.456217E+02  1.853603E-10  1.255335E-10
       397  15  1.122629E+06  3.942097E+02  2.432513E+03 -5.094158E+03 -4.715003E-10  3.960830E-10
       397  16  1.142373E+06  4.916350E+03  5.758815E+03 -5.134105E+03 -1.387819E-10 -2.693266E-10
       397  17  1.134917E+06  3.000540E+03  4.437942E+03  6.475724E+02 -4.343766E-10  2.517644E-12
       397  18  1.127688E+06  1.659440E+03  3.706168E+03 -5.050403E+03  1.684348E-10 -1.897196E-10
       397  19  1.102887E+06 -4.914225E+03 -3.957481E+03 -5.054428E+03  4.096499E+02 -4.570520E+02
       397  20  1.110115E+06 -3.180349E+03 -1.695330E+03  6.436708E+02  1.101077E+03 -1.907453E+02
       397  21  1.117570E+06 -8.710211E+02  1.158862E+03 -5.137912E+03  1.792523E+03  6.671600E+01
       397  22  1.122630E+06  1.077025E+00  9.006814E+02 -5.094266E+03  4.747591E+02 -4.570671E+02
       397  23  1.122516E+06 -8.989874E+01  1.371313E+03  6.456215E+02  1.164073E+03 -1.907612E+02
       397  24  1.122629E+06  3.942107E+02  2.432520E+03 -5.094158E+03  1.853397E+03  6.669923E+01
       397  25  1.142373E+06  4.916350E+03  5.758815E+03 -5.134105E+03  5.398704E+02 -4.570822E+02
       397  26  1.134917E+06  3.000540E+03  4.437944E+03  6.475722E+02  1.227070E+03 -1.907771E+02
       397  27  1.127688E+06  1.659441E+03  3.706175E+03 -5.050403E+03  1.914271E+03  6.668247E+01
       398   1  1.146763E+06  5.862342E+03  9.026365E+03 -4.902048E+03 -2.286358E+03 -2.216124E+02
       398   2  1.153553E+06  7.196273E+03  1.289738E+04  6.117165E+02 -4.916540E+03 -4.864880E+02
       398   3  1.161668E+06  1.247095E+04  1.946318E+04 -5.529164E+03 -7.546687E+03 -7.277325E+02
       398   4  1.122873E+06 -9.555077E+01  3.096133E+03 -5.133325E+03 -2.352949E+03 -2.215941E+02
       398   5  1.122210E+06 -6.145484E+02  5.147567E+03  6.942989E+02 -4.977333E+03 -4.864764E+02
       398   6  1.122870E+06  2.806351E+03  9.889904E+03 -5.132760E+03 -7.601651E+03 -7.277296E+02
       398   7  1.098983E+06 -6.053486E+03 -2.834142E+03 -5.364593E+03 -2.419538E+03 -2.215757E+02
       398   8  1.090867E+06 -8.425443E+03 -2.602322E+03  7.768770E+02 -5.038124E+03 -4.864648E+02
       398   9  1.084074E+06 -6.858364E+03  3.165183E+02 -4.736381E+03 -7.656611E+03 -7.277268E+02
       398  10  1.146763E+06  5.862341E+03  9.026355E+03 -4.902049E+03 -4.978082E-11 -2.203086E-10
       398  11  1.153553E+06  7.196267E+03  1.289734E+04  6.117146E+02  1.100881E-10 -3.380159E-10
       398  12  1.161668E+06  1.247094E+04  1.946307E+04 -5.529168E+03  5.124199E-10 -3.691588E-10
       398  13  1.122873E+06 -9.555230E+01  3.096122E+03 -5.133325E+03 -3.842446E-11 -1.078556E-10
       398  14  1.122210E+06 -6.145553E+02  5.147520E+03  6.942969E+02  1.763569E-11 -4.746584E-10
       398  15  1.122870E+06  2.806335E+03  9.889795E+03 -5.132765E+03 -1.203470E-10  6.123848E-12
       398  16  1.098983E+06 -6.053488E+03 -2.834153E+03 -5.364593E+03  9.497202E-12  3.549646E-11
       398  17  1.090867E+06 -8.425450E+03 -2.602370E+03  7.768751E+02 -2.640080E-10 -3.382961E-10
       398  18  1.084074E+06 -6.858380E+03  3.164073E+02 -4.736386E+03 -5.042534E-10  2.212888E-10
       398  19  1.146763E+06  5.862342E+03  9.026365E+03 -4.902048E+03  2.286358E+03  2.216124E+02
       398  20  1.153553E+06  7.196273E+03  1.289738E+04  6.117165E+02  4.916540E+03  4.864880E+02
       398  21  1.161668E+06  1.247095E+04  1.946318E+04 -5.529164E+03  7.546687E+03  7.277325E+02
       398  22  1.122873E+06 -9.555077E+01  3.096133E+03 -5.133325E+03  2.352949E+03  2.215941E+02
       398  23  1.122210E+06 -6.145484E+02  5.147567E+03  6.942989E+02  4.977333E+03  4.864764E+02
       398  24  1.122870E+06  2.806351E+03  9.889904E+03 -5.132760E+03  7.601651E+03  7.277296E+02
       398  25  1.098983E+06 -6.053486E+03 -2.834142E+03 -5.364593E+03  2.419538E+03  2.215757E+02
       398  26  1.090867E+06 -8.425443E+03 -2.602322E+03  7.768770E+02  5.038124E+03  4.864648E+02
       398  27  1.084074E+06 -6.858364E+03  3.165183E+02 -4.736381E+03  7.656611E+03  7.277268E+02
       399   1  1.193650E+06  1.651961E+04  2.954848E+04 -3.768036E+03 -9.510374E+03 -9.257873E+02
       399   2  1.197578E+06  1.495614E+04  3.925916E+04  2.327045E+02 -2.009262E+04 -1.226087E+03
       399   3  1.209839E+06  4.112496E+04  6.278840E+04 -8.424953E+03 -3.067516E+04 -1.288972E+03
       399   4  1.124427E+06 -7.342225E+02  1.241016E+04 -5.356198E+03 -9.610665E+03 -9.257541E+02
       399   5  1.120258E+06 -4.310656E+03  2.014603E+04  9.726943E+02 -2.013471E+04 -1.226118E+03
       399   6  1.124413E+06  1.983697E+04  4.166134E+04 -5.356843E+03 -3.065890E+04 -1.289134E+03
       399   7  1.055209E+06 -1.798840E+04 -4.728504E+03 -6.944184E+03 -9.710944E+03 -9.257204E+02
       399   8  1.042944E+06 -2.357790E+04  1.032453E+03  1.712592E+03 -2.017679E+04 -1.226150E+03
       399   9  1.038994E+06 -1.451524E+03  2.053374E+04 -2.289155E+03 -3.064264E+04 -1.289296E+03
       399  10  1.193650E+06  1.651958E+04  2.954831E+04 -3.768043E+03  1.915441E-09  9.759659E-11
       399  11  1.197577E+06  1.495603E+04  3.925840E+04  2.326846E+02  1.368866E-10  2.248163E-10
       399  12  1.209838E+06  4.112471E+04  6.278663E+04 -8.424985E+03 -1.587958E-09  4.206394E-11
       399  13  1.124427E+06 -7.342482E+02  1.240999E+04 -5.356206E+03 -5.908193E-11  2.354303E-10
       399  14  1.120258E+06 -4.310767E+03  2.014527E+04  9.726744E+02  2.083498E-10  7.246900E-11
       399  15  1.124412E+06  1.983672E+04  4.165957E+04 -5.356875E+03  6.356317E-11  2.324711E-10
       399  16  1.055209E+06 -1.798843E+04 -4.728683E+03 -6.944191E+03 -2.004101E-09  2.524212E-10
       399  17  1.042944E+06 -2.357801E+04  1.031686E+03  1.712572E+03 -1.498997E-10  4.005566E-10
       399  18  1.038993E+06 -1.451778E+03  2.053198E+04 -2.289187E+03  1.739905E-09  4.609955E-11
       399  19  1.193650E+06  1.651961E+04  2.954848E+04 -3.768036E+03  9.510374E+03  9.257873E+02
       399  20  1.197578E+06  1.495614E+04  3.925916E+04  2.327045E+02  2.009262E+04  1.226087E+03
       399  21  1.209839E+06  4.112496E+04  6.278840E+04 -8.424953E+03  3.067516E+04  1.288972E+03
       399  22  1.124427E+06 -7.342225E+02  1.241016E+04 -5.356198E+03  9.610665E+03  9.257541E+02
       399  23  1.120258E+06 -4.310656E+03  2.014603E+04  9.726943E+02  2.013471E+04  1.226118E+03
       399  24  1.124413E+06  1.983697E+04  4.166134E+04 -5.356843E+03  3.065890E+04  1.289134E+03
       399  25  1.055209E+06 -1.798840E+04 -4.728504E+03 -6.944184E+03  9.710944E+03  9.257204E+02
       399  26  1.042944E+06 -2.357790E+04  1.032453E+03  1.712592E+03  2.017679E+04  1.226150E+03
       399  27  1.038994E+06 -1.451524E+03  2.053374E+04 -2.289155E+03  3.064264E+04  1.289296E+03
       400   1  1.254081E+06  2.447920E+04  8.001952E+04  5.150261E+03 -3.857133E+04 -1.772507E+03
       400   2  1.236286E+06  1.935392E+03  1.093967E+05 -4.402269E+03 -8.137415E+04 -2.274773E+03
       400   3  1.272717E+06  1.737778E+05  2.152187E+05 -2.857907E+04 -1.241777E+05 -8.410706E+02
       400   4  1.134616E+06 -5.295594E+03  5.046909E+04 -5.775326E+03 -3.891813E+04 -1.771892E+03
       400   5  1.107500E+06 -3.014498E+04  7.759602E+04  1.506044E+03 -8.124842E+04 -2.275543E+03
       400   6  1.134539E+06  1.393305E+05  1.808515E+05 -5.836159E+03 -1.235788E+05 -8.453678E+02
       400   7  1.015164E+06 -3.507100E+04  2.091767E+04 -1.669881E+04 -3.926486E+04 -1.771264E+03
       400   8  9.787291E+05 -6.222645E+04  4.579410E+04  7.413131E+03 -8.112270E+04 -2.276311E+03
       400   9  9.963797E+05  1.048836E+05  1.464831E+05  1.690170E+04 -1.229800E+05 -8.496221E+02
       400  10  1.254079E+06  2.447880E+04  8.001672E+04  5.150206E+03 -4.127528E-10  3.623865E-11
       400  11  1.236279E+06  1.933613E+03  1.093843E+05 -4.402418E+03 -3.730464E-10 -2.426517E-10
       400  12  1.272701E+06  1.737737E+05  2.151898E+05 -2.857915E+04 -3.815216E-10 -3.122569E-10
       400  13  1.134614E+06 -5.296003E+03  5.046625E+04 -5.775381E+03  1.790335E-10  3.155101E-11
       400  14  1.107493E+06 -3.014675E+04  7.758362E+04  1.505895E+03 -3.494983E-10 -1.545695E-10
       400  15  1.134523E+06  1.393264E+05  1.808228E+05 -5.836243E+03  5.691724E-10 -5.860034E-11
       400  16  1.015163E+06 -3.507142E+04  2.091478E+04 -1.669887E+04  5.929705E-10  1.215837E-10
       400  17  9.787220E+05 -6.222822E+04  4.578174E+04  7.412982E+03  7.031827E-10  8.368187E-11
       400  18  9.963635E+05  1.048796E+05  1.464547E+05  1.690161E+04  8.473311E-11 -2.604023E-11
       400  19  1.254081E+06  2.447920E+04  8.001952E+04  5.150261E+03  3.857133E+04  1.772507E+03
       400  20  1.236286E+06  1.935392E+03  1.093967E+05 -4.402269E+03  8.137415E+04  2.274773E+03
       400  21  1.272717E+06  1.737778E+05  2.152187E+05 -2.857907E+04  1.241777E+05  8.410706E+02
       400  22  1.134616E+06 -5.295594E+03  5.046909E+04 -5.775326E+03  3.891813E+04  1.771892E+03
       400  23  1.107500E+06 -3.014498E+04  7.759602E+04  1.506044E+03  8.124842E+04  2.275543E+03
       400  24  1.134539E+06  1.393305E+05  1.808515E+05 -5.836159E+03  1.235788E+05  8.453678E+02
       400  25  1.015164E+06 -3.507100E+04  2.091767E+04 -1.669881E+04  3.926486E+04  1.771264E+03
       400  26  9.787291E+05 -6.222645E+04  4.579410E+04  7.413131E+03  8.112270E+04  2.276311E+03
       400  27  9.963797E+05  1.048836E+05  1.464831E+05  1.690170E+04  1.229800E+05  8.496221E+02
       401   1  1.575214E+05 -3.746352E+04 -3.008896E+04 -3.652602E+03  2.035180E+04  1.421849E+03
       401   2  1.643541E+05 -6.387704E+04 -4.468587E+04  2.514653E+03  1.382893E+04  4.094190E+03
       401   3  1.807142E+05 -5.668565E+04 -4.657960E+04 -9.370697E+03  7.306876E+03  3.394980E+03
       401   4  4.042960E+05  2.416301E+04  3.136388E+04 -7.525002E+03  2.140435E+04  1.422103E+03
       401   5  3.994652E+05 -5.244987E+03  1.343438E+04  1.505597E+03  1.406959E+04  4.094095E+03
       401   6  4.042992E+05 -9.139119E+02  8.768085E+03 -7.515992E+03  6.735798E+03  3.395036E+03
       401   7  6.511259E+05  8.578502E+04  9.281217E+04 -1.139895E+04  2.245731E+04  1.422343E+03
       401   8  6.346265E+05  5.338295E+04  7.155054E+04  4.961573E+02  1.431034E+04  4.093999E+03
       401   9  6.279296E+05  5.485410E+04  6.411205E+04 -5.660616E+03  6.164515E+03  3.395088E+03
       401  10  1.575209E+05 -3.746363E+04 -3.008975E+04 -3.652625E+03 -5.667047E-11  1.158252E-10
       401  11  1.643539E+05 -6.387711E+04 -4.468626E+04  2.514607E+03 -3.637464E-10 -1.169505E-10
       401  12  1.807142E+05 -5.668568E+04 -4.657972E+04 -9.370717E+03  2.465663E-10 -3.943901E-10
       401  13  4.042955E+05  2.416288E+04  3.136301E+04 -7.525026E+03  3.385996E-10 -1.450696E-10
       401  14  3.994650E+05 -5.245058E+03  1.343398E+04  1.505550E+03 -4.002658E-10  6.464398E-12
       401  15  4.042992E+05 -9.139364E+02  8.767978E+03 -7.516011E+03 -5.302372E-10 -8.314728E-11
       401  16  6.511253E+05  8.578488E+04  9.281122E+04 -1.139897E+04  2.592336E-10  1.827401E-10
       401  17  6.346263E+05  5.338287E+04  7.155012E+04  4.961101E+02  1.107431E-11  6.522391E-11
       401  18  6.279296E+05  5.485408E+04  6.411196E+04 -5.660633E+03 -4.296315E-10 -4.103660E-11
       401  19  1.575214E+05 -3.746352E+04 -3.008896E+04 -3.652602E+03 -2.035180E+04 -1.421849E+03
       401  20  1.643541E+05 -6.387704E+04 -4.468587E+04  2.514653E+03 -1.382893E+04 -4.094190E+03
       401  21  1.807142E+05 -5.668565E+04 -4.657960E+04 -9.370697E+03 -7.306876E+03 -3.394980E+03
       401  22  4.042960E+05  2.416301E+04  3.136388E+04 -7.525002E+03 -2.140435E+04 -1.422103E+03
       401  23  3.994652E+05 -5.244987E+03  1.343438E+04  1.505597E+03 -1.406959E+04 -4.094095E+03
       401  24  4.042992E+05 -9.139119E+02  8.768085E+03 -7.515992E+03 -6.735798E+03 -3.395036E+03
       401  25  6.511259E+05  8.578502E+04  9.281217E+04 -1.139895E+04 -2.245731E+04 -1.422343E+03
       401  26  6.346265E+05  5.338295E+04  7.155054E+04  4.961573E+02 -1.431034E+04 -4.093999E+03
       401  27  6.279296E+05  5.485410E+04  6.411205E+04 -5.660616E+03 -6.164515E+03 -3.395088E+03
       402   1  2.226930E+05 -4.142166E+04 -3.728687E+04 -6.649097E+03  5.240058E+03  2.647472E+03
       402   2  2.326186E+05 -4.293323E+04 -3.833849E+04  1.338168E+03  3.513013E+03  2.672795E+03
       402   3  2.440904E+05 -3.963166E+04 -3.703869E+04 -7.407757E+03  1.785527E+03  2.262124E+03
       402   4  4.025037E+05  3.433454E+03  7.236641E+03 -7.224155E+03  5.299359E+03  2.647398E+03
       402   5  4.017216E+05 -7.553190E+02  3.504831E+03  1.141641E+03  3.467179E+03  2.672773E+03
       402   6  4.025034E+05 -1.134439E+02  2.196901E+03 -7.225457E+03  1.634586E+03  2.262204E+03
       402   7  5.823437E+05  4.828615E+04  5.175775E+04 -7.799377E+03  5.358677E+03  2.647325E+03
       402   8  5.708506E+05  4.142046E+04  4.534603E+04  9.450645E+02  3.421333E+03  2.672752E+03
       402   9  5.609392E+05  3.940290E+04  4.143062E+04 -7.043106E+03  1.483607E+03  2.262284E+03
       402  10  2.226930E+05 -4.142168E+04 -3.728694E+04 -6.649108E+03  1.700266E-09 -1.917725E-10
       402  11  2.326186E+05 -4.293324E+04 -3.833853E+04  1.338160E+03  3.544634E-10  3.298326E-10
       402  12  2.440904E+05 -3.963167E+04 -3.703871E+04 -7.407760E+03 -1.394249E-09  4.488901E-10
       402  13  4.025036E+05  3.433439E+03  7.236575E+03 -7.224166E+03 -3.915270E-10  8.446352E-11
       402  14  4.017216E+05 -7.553299E+02  3.504795E+03  1.141634E+03  1.635964E-10 -1.815755E-10
       402  15  4.025034E+05 -1.134501E+02  2.196886E+03 -7.225460E+03 -1.076904E-09  2.646742E-10
       402  16  5.823436E+05  4.828614E+04  5.175768E+04 -7.799388E+03 -1.722240E-09  5.148091E-11
       402  17  5.708506E+05  4.142044E+04  4.534599E+04  9.450572E+02 -9.644462E-10  2.438023E-10
       402  18  5.609392E+05  3.940289E+04  4.143061E+04 -7.043109E+03  1.533854E-09 -9.369931E-11
       402  19  2.226930E+05 -4.142166E+04 -3.728687E+04 -6.649097E+03 -5.240058E+03 -2.647472E+03
       402  20  2.326186E+05 -4.293323E+04 -3.833849E+04  1.338168E+03 -3.513013E+03 -2.672795E+03
       402  21  2.440904E+05 -3.963166E+04 -3.703869E+04 -7.407757E+03 -1.785527E+03 -2.262124E+03
       402  22  4.025037E+05  3.433454E+03  7.236641E+03 -7.224155E+03 -5.299359E+03 -2.647398E+03
       402  23  4.017216E+05 -7.553190E+02  3.504831E+03  1.141641E+03 -3.467179E+03 -2.672773E+03
       402  24  4.025034E+05 -1.134439E+02  2.196901E+03 -7.225457E+03 -1.634586E+03 -2.262204E+03
       402  25  5.823437E+05  4.828615E+04  5.175775E+04 -7.799377E+03 -5.358677E+03 -2.647325E+03
       402  26  5.708506E+05  4.142046E+04  4.534603E+04  9.450645E+02 -3.421333E+03 -2.672752E+03
       402  27  5.609392E+05  3.940290E+04  4.143062E+04 -7.043106E+03 -1.483607E+03 -2.262284E+03
       403   1  2.847525E+05 -2.880450E+04 -2.727898E+04 -6.877535E+03  1.345662E+03  1.978421E+03
       403   2  2.947319E+05 -2.688882E+04 -2.558779E+04  9.806118E+02  8.575282E+02  1.666012E+03
       403   3  3.049724E+05 -2.425264E+04 -2.339536E+04 -6.977468E+03  3.692077E+02  1.306928E+03
       403   4  4.022180E+05  4.892233E+02  1.767102E+03 -7.020910E+03  1.276319E+03  1.978457E+03
       403   5  4.020862E+05 -1.124121E+02  9.801412E+02  8.869069E+02  7.768958E+02  1.666074E+03
       403   6  4.022174E+05  8.352513E+00  7.022031E+02 -7.021331E+03  2.772935E+02  1.307020E+03
       403   7  5.196960E+05  2.978192E+04  3.081216E+04 -7.164310E+03  1.206963E+03  1.978493E+03
       403   8  5.094510E+05  2.666314E+04  2.754722E+04  7.931883E+02  6.962495E+02  1.666136E+03
       403   9  4.994710E+05  2.426864E+04  2.479906E+04 -7.065199E+03  1.853649E+02  1.307111E+03
       403  10  2.847525E+05 -2.880451E+04 -2.727899E+04 -6.877537E+03  4.804722E-11 -1.462740E-10
       403  11  2.947319E+05 -2.688883E+04 -2.558780E+04  9.806107E+02  3.118139E-10  1.013369E-10
       403  12  3.049724E+05 -2.425264E+04 -2.339536E+04 -6.977469E+03  4.097998E-10 -6.945242E-10
       403  13  4.022180E+05  4.892187E+02  1.767092E+03 -7.020913E+03 -4.804473E-10 -5.608974E-11
       403  14  4.020862E+05 -1.124152E+02  9.801349E+02  8.869058E+02  4.232068E-10  4.636981E-10
       403  15  4.022174E+05  8.350658E+00  7.021998E+02 -7.021332E+03 -1.929198E-09  9.202372E-10
       403  16  5.196960E+05  2.978192E+04  3.081215E+04 -7.164312E+03 -1.275030E-10 -2.568466E-10
       403  17  5.094510E+05  2.666313E+04  2.754721E+04  7.931873E+02 -1.206311E-09 -7.103459E-10
       403  18  4.994710E+05  2.426864E+04  2.479906E+04 -7.065199E+03 -3.579707E-10 -3.266670E-10
       403  19  2.847525E+05 -2.880450E+04 -2.727898E+04 -6.877535E+03 -1.345662E+03 -1.978421E+03
       403  20  2.947319E+05 -2.688882E+04 -2.558779E+04  9.806118E+02 -8.575282E+02 -1.666012E+03
       403  21  3.049724E+05 -2.425264E+04 -2.339536E+04 -6.977468E+03 -3.692077E+02 -1.306928E+03
       403  22  4.022180E+05  4.892233E+02  1.767102E+03 -7.020910E+03 -1.276319E+03 -1.978457E+03
       403  23  4.020862E+05 -1.124121E+02  9.801412E+02  8.869069E+02 -7.768958E+02 -1.666074E+03
       403  24  4.022174E+05  8.352513E+00  7.022031E+02 -7.021331E+03 -2.772935E+02 -1.307020E+03
       403  25  5.196960E+05  2.978192E+04  3.081216E+04 -7.164310E+03 -1.206963E+03 -1.978493E+03
       403  26  5.094510E+05  2.666314E+04  2.754722E+04  7.931883E+02 -6.962495E+02 -1.666136E+03
       403  27  4.994710E+05  2.426864E+04  2.479906E+04 -7.065199E+03 -1.853649E+02 -1.307111E+03
       404   1  3.440702E+05 -1.440850E+04 -1.371487E+04 -6.840750E+03  2.388399E+02  1.093109E+03
       404   2  3.538211E+05 -1.208425E+04 -1.135450E+04  7.901814E+02 -6.394773E+01  7.475982E+02
       404   3  3.636300E+05 -9.540348E+03 -8.749709E+03 -6.877421E+03 -3.667968E+02  4.015644E+02
       404   4  4.021739E+05  7.742542E+01  6.342866E+02 -6.906142E+03  1.558680E+02  1.093201E+03
       404   5  4.021447E+05 -3.165912E+01  6.045880E+02  7.430924E+02 -1.470675E+02  7.476984E+02
       404   6  4.021736E+05  7.897460E+01  8.194501E+02 -6.906132E+03 -4.500597E+02  4.016724E+02
       404   7  4.602808E+05  1.456310E+04  1.498319E+04 -6.971539E+03  7.288836E+01  1.093294E+03
       404   8  4.504705E+05  1.202076E+04  1.256350E+04  6.960003E+02 -2.301937E+02  7.477985E+02
       404   9  4.407185E+05  9.698186E+03  1.038850E+04 -6.934846E+03 -5.333278E+02  4.017805E+02
       404  10  3.440702E+05 -1.440850E+04 -1.371487E+04 -6.840750E+03  6.795668E-10 -2.939262E-11
       404  11  3.538211E+05 -1.208425E+04 -1.135450E+04  7.901815E+02  7.291157E-10  2.180307E-10
       404  12  3.636300E+05 -9.540348E+03 -8.749710E+03 -6.877421E+03  8.005153E-10 -4.713928E-10
       404  13  4.021739E+05  7.742413E+01  6.342843E+02 -6.906142E+03 -2.941974E-10 -7.250882E-10
       404  14  4.021447E+05 -3.165973E+01  6.045869E+02  7.430925E+02  6.629902E-10  3.029660E-10
       404  15  4.021736E+05  7.897438E+01  8.194494E+02 -6.906132E+03 -1.460752E-09 -9.873489E-10
       404  16  4.602808E+05  1.456310E+04  1.498319E+04 -6.971539E+03 -8.090297E-10  4.266728E-10
       404  17  4.504705E+05  1.202076E+04  1.256350E+04  6.960005E+02 -2.544747E-09 -1.977584E-10
       404  18  4.407185E+05  9.698186E+03  1.038850E+04 -6.934845E+03 -3.393386E-10 -1.527081E-09
       404  19  3.440702E+05 -1.440850E+04 -1.371487E+04 -6.840750E+03 -2.388399E+02 -1.093109E+03
       404  20  3.538211E+05 -1.208425E+04 -1.135450E+04  7.901814E+02  6.394773E+01 -7.475982E+02
       404  21  3.636300E+05 -9.540348E+03 -8.749709E+03 -6.877421E+03  3.667968E+02 -4.015644E+02
       404  22  4.021739E+05  7.742542E+01  6.342866E+02 -6.906142E+03 -1.558680E+02 -1.093201E+03
       404  23  4.021447E+05 -3.165912E+01  6.045880E+02  7.430924E+02  1.470675E+02 -7.476984E+02
       404  24  4.021736E+05  7.897460E+01  8.194501E+02 -6.906132E+03  4.500597E+02 -4.016724E+02
       404  25  4.602808E+05  1.456310E+04  1.498319E+04 -6.971539E+03 -7.288836E+01 -1.093294E+03
       404  26  4.504705E+05  1.202076E+04  1.256350E+04  6.960003E+02  2.301937E+02 -7.477985E+02
       404  27  4.407185E+05  9.698186E+03  1.038850E+04 -6.934846E+03  5.333278E+02 -4.017805E+02
       405   1  4.019990E+05 -3.690657E+01  9.718298E+02 -6.835221E+03 -5.308477E+02  1.993591E+02
       405   2  4.115814E+05  2.258772E+03  3.926719E+03  6.931486E+02 -1.326330E+03 -1.455548E+02
       405   3  4.213937E+05  5.256464E+03  7.564595E+03 -6.948000E+03 -2.121820E+03 -4.859887E+02
       405   4  4.022122E+05  1.030036E+01  9.940924E+02 -6.877715E+03 -6.144533E+02  1.994704E+02
       405   5  4.020974E+05 -1.066027E+02  1.579784E+03  7.073567E+02 -1.408850E+03 -1.454466E+02
       405   6  4.022120E+05  4.782989E+02  2.847692E+03 -6.877103E+03 -2.203242E+03 -4.858834E+02
       405   7  4.024254E+05  5.750729E+01  1.016355E+03 -6.920209E+03 -6.980589E+02  1.995816E+02
       405   8  3.926134E+05 -2.471984E+03 -7.671588E+02  7.215647E+02 -1.491369E+03 -1.453385E+02
       405   9  3.830306E+05 -4.299893E+03 -1.869239E+03 -6.806207E+03 -2.284661E+03 -4.857782E+02
       405  10  4.019990E+05 -3.690668E+01  9.718291E+02 -6.835221E+03  4.952407E-11  6.774708E-10
       405  11  4.115814E+05  2.258772E+03  3.926716E+03  6.931484E+02  5.798696E-10  2.265496E-09
       405  12  4.213937E+05  5.256462E+03  7.564586E+03 -6.948001E+03  1.669981E-09 -1.096450E-09
       405  13  4.022122E+05  1.030021E+01  9.940916E+02 -6.877715E+03 -9.865665E-10 -6.557321E-11
       405  14  4.020974E+05 -1.066032E+02  1.579780E+03  7.073565E+02  8.789824E-10  2.045870E-11
       405  15  4.022120E+05  4.782973E+02  2.847682E+03 -6.877104E+03 -2.007152E-09 -4.634751E-12
       405  16  4.024254E+05  5.750712E+01  1.016354E+03 -6.920209E+03 -5.372607E-10 -2.081369E-10
       405  17  3.926134E+05 -2.471985E+03 -7.671630E+02  7.215645E+02 -2.061007E-09  3.928592E-10
       405  18  3.830306E+05 -4.299895E+03 -1.869249E+03 -6.806208E+03 -1.092603E-09 -5.919495E-11
       405  19  4.019990E+05 -3.690657E+01  9.718298E+02 -6.835221E+03  5.308477E+02 -1.993591E+02
       405  20  4.115814E+05  2.258772E+03  3.926719E+03  6.931486E+02  1.326330E+03  1.455548E+02
       405  21  4.213937E+05  5.256464E+03  7.564595E+03 -6.948000E+03  2.121820E+03  4.859887E+02
       405  22  4.022122E+05  1.030036E+01  9.940924E+02 -6.877715E+03  6.144533E+02 -1.994704E+02
       405  23  4.020974E+05 -1.066027E+02  1.579784E+03  7.073567E+02  1.408850E+03  1.454466E+02
       405  24  4.022120E+05  4.782989E+02  2.847692E+03 -6.877103E+03  2.203242E+03  4.858834E+02
       405  25  4.024254E+05  5.750729E+01  1.016355E+03 -6.920209E+03  6.980589E+02 -1.995816E+02
       405  26  3.926134E+05 -2.471984E+03 -7.671588E+02  7.215647E+02  1.491369E+03  1.453385E+02
       405  27  3.830306E+05 -4.299893E+03 -1.869239E+03 -6.806207E+03  2.284661E+03  4.857782E+02
       406   1  4.601786E+05  1.429014E+04  1.793964E+04 -6.712102E+03 -2.699644E+03 -6.942394E+02
       406   2  4.692640E+05  1.611466E+04  2.277528E+04  6.270557E+02 -5.801434E+03 -1.043256E+03
       406   3  4.799004E+05  2.262320E+04  3.079528E+04 -7.456342E+03 -8.903151E+03 -1.350959E+03
       406   4  4.025045E+05 -9.886659E+01  3.637233E+03 -6.935077E+03 -2.789164E+03 -6.941278E+02
       406   5  4.017294E+05 -7.283291E+02  6.063890E+03  7.781641E+02 -5.880735E+03 -1.043169E+03
       406   6  4.025037E+05  3.324747E+03  1.166809E+04 -6.931250E+03 -8.972184E+03 -1.350900E+03
       406   7  3.448334E+05 -1.448812E+04 -1.066543E+04 -7.158029E+03 -2.878676E+03 -6.940162E+02
       406   8  3.341989E+05 -1.757166E+04 -1.064784E+04  9.292572E+02 -5.960027E+03 -1.043083E+03
       406   9  3.251125E+05 -1.597415E+04 -7.459538E+03 -6.406222E+03 -9.041208E+03 -1.350841E+03
       406  10  4.601786E+05  1.429014E+04  1.793963E+04 -6.712104E+03  5.309541E-10 -1.590698E-09
       406  11  4.692639E+05  1.611465E+04  2.277521E+04  6.270508E+02  1.628619E-10 -2.136776E-10
       406  12  4.799003E+05  2.262317E+04  3.079512E+04 -7.456352E+03  1.050177E-10  6.589555E-10
       406  13  4.025045E+05 -9.886919E+01  3.637217E+03 -6.935078E+03 -8.843187E-10 -2.628457E-10
       406  14  4.017293E+05 -7.283395E+02  6.063823E+03  7.781591E+02  5.725419E-10 -5.844146E-10
       406  15  4.025036E+05  3.324724E+03  1.166794E+04 -6.931260E+03 -1.811954E-09 -5.132058E-10
       406  16  3.448333E+05 -1.448812E+04 -1.066544E+04 -7.158031E+03 -8.978188E-10 -2.708297E-10
       406  17  3.341989E+05 -1.757167E+04 -1.064791E+04  9.292522E+02 -1.483660E-09  1.650408E-09
       406  18  3.251124E+05 -1.597417E+04 -7.459695E+03 -6.406232E+03 -6.641653E-11 -1.646951E-10
       406  19  4.601786E+05  1.429014E+04  1.793964E+04 -6.712102E+03  2.699644E+03  6.942394E+02
       406  20  4.692640E+05  1.611466E+04  2.277528E+04  6.270557E+02  5.801434E+03  1.043256E+03
       406  21  4.799004E+05  2.262320E+04  3.079528E+04 -7.456342E+03  8.903151E+03  1.350959E+03
       406  22  4.025045E+05 -9.886659E+01  3.637233E+03 -6.935077E+03  2.789164E+03  6.941278E+02
       406  23  4.017294E+05 -7.283291E+02  6.063890E+03  7.781641E+02  5.880735E+03  1.043169E+03
       406  24  4.025037E+05  3.324747E+03  1.166809E+04 -6.931250E+03  8.972184E+03  1.350900E+03
       406  25  3.448334E+05 -1.448812E+04 -1.066543E+04 -7.158029E+03  2.878676E+03  6.940162E+02
       406  26  3.341989E+05 -1.757166E+04 -1.064784E+04  9.292572E+02  5.960027E+03  1.043083E+03
       406  27  3.251125E+05 -1.597415E+04 -7.459538E+03 -6.406222E+03  9.041208E+03  1.350841E+03
       407   1  5.213771E+05  2.833269E+04  4.363354E+04 -5.289624E+03 -1.120521E+04 -1.614069E+03
       407   2  5.267157E+05  2.665055E+04  5.526964E+04  3.676975E+00 -2.371312E+04 -1.996990E+03
       407   3  5.419219E+05  5.775802E+04  8.325052E+04 -1.076111E+04 -3.622069E+04 -2.020469E+03
       407   4  4.043478E+05 -8.539258E+02  1.464652E+04 -7.081473E+03 -1.134188E+04 -1.613913E+03
       407   5  3.994181E+05 -5.096323E+03  2.377694E+04  9.566164E+02 -2.376123E+04 -1.997008E+03
       407   6  4.043428E+05  2.343922E+04  4.919319E+04 -7.063583E+03 -3.618005E+04 -2.020738E+03
       407   7  2.873309E+05 -3.004155E+04 -1.434152E+04 -8.872980E+03 -1.147852E+04 -1.613756E+03
       407   8  2.721352E+05 -3.684441E+04 -7.716959E+03  1.909363E+03 -2.380933E+04 -1.997025E+03
       407   9  2.667809E+05 -1.088094E+04  1.513446E+04 -3.366869E+03 -3.613941E+04 -2.021006E+03
       407  10  5.213769E+05  2.833265E+04  4.363330E+04 -5.289638E+03  1.798901E-10  5.856932E-10
       407  11  5.267151E+05  2.665040E+04  5.526857E+04  3.638847E+00  6.413853E-10 -7.625487E-10
       407  12  5.419205E+05  5.775766E+04  8.324805E+04 -1.076117E+04  6.015387E-10 -4.904064E-10
       407  13  4.043476E+05 -8.539631E+02  1.464628E+04 -7.081487E+03 -8.323733E-10  4.109392E-10
       407  14  3.994175E+05 -5.096478E+03  2.377587E+04  9.565781E+02 -2.166721E-10  1.121792E-09
       407  15  4.043414E+05  2.343887E+04  4.919072E+04 -7.063642E+03 -5.042578E-10 -2.703982E-10
       407  16  2.873308E+05 -3.004159E+04 -1.434177E+04 -8.872995E+03 -5.384515E-10 -2.133946E-10
       407  17  2.721346E+05 -3.684456E+04 -7.718032E+03  1.909325E+03 -1.082753E-09  6.237735E-10
       407  18  2.667795E+05 -1.088129E+04  1.513200E+04 -3.366928E+03 -1.871853E-10 -1.780432E-11
       407  19  5.213771E+05  2.833269E+04  4.363354E+04 -5.289624E+03  1.120521E+04  1.614069E+03
       407  20  5.267157E+05  2.665055E+04  5.526964E+04  3.676975E+00  2.371312E+04  1.996990E+03
       407  21  5.419219E+05  5.775802E+04  8.325052E+04 -1.076111E+04  3.622069E+04  2.020469E+03
       407  22  4.043478E+05 -8.539258E+02  1.464652E+04 -7.081473E+03  1.134188E+04  1.613913E+03
       407  23  3.994181E+05 -5.096323E+03  2.377694E+04  9.566164E+02  2.376123E+04  1.997008E+03
       407  24  4.043428E+05  2.343922E+04  4.919319E+04 -7.063583E+03  3.618005E+04  2.020738E+03
       407  25  2.873309E+05 -3.004155E+04 -1.434152E+04 -8.872980E+03  1.147852E+04  1.613756E+03
       407  26  2.721352E+05 -3.684441E+04 -7.716959E+03  1.909363E+03  2.380933E+04  1.997025E+03
       407  27  2.667809E+05 -1.088094E+04  1.513446E+04 -3.366869E+03  3.613941E+04  2.021006E+03
       408   1  5.957184E+05  3.845937E+04  1.039793E+05  5.479548E+03 -4.545069E+04 -2.666497E+03
       408   2  5.746135E+05  1.182587E+04  1.386560E+05 -5.812084E+03 -9.610512E+04 -3.283168E+03
       408   3  6.176627E+05  2.148559E+05  2.637424E+05 -3.421001E+04 -1.467598E+05 -1.129726E+03
       408   4  4.163918E+05 -6.243729E+03  5.959887E+04 -7.321355E+03 -4.592929E+04 -2.665316E+03
       408   5  3.843511E+05 -3.561733E+04  9.163511E+04  1.244253E+03 -9.590566E+04 -3.284387E+03
       408   6  4.163656E+05  1.645910E+05  2.136301E+05 -7.295222E+03 -1.458813E+05 -1.136210E+03
       408   7  2.370948E+05 -5.094862E+04  1.521618E+04 -2.011856E+04 -4.640775E+04 -2.664115E+03
       408   8  1.941217E+05 -8.306304E+04  4.461157E+04  8.298431E+03 -9.570627E+04 -3.285602E+03
       408   9  2.151068E+05  1.143258E+05  1.635153E+05  1.961085E+04 -1.450031E+05 -1.142620E+03
       408  10  5.957162E+05  3.845881E+04  1.039754E+05  5.479451E+03  2.958811E-10 -4.115050E-10
       408  11  5.746036E+05  1.182338E+04  1.386386E+05 -5.812338E+03  1.124720E-10 -6.852554E-12
       408  12  6.176396E+05  2.148501E+05  2.637019E+05 -3.421015E+04 -8.712491E-11 -3.773501E-10
       408  13  4.163895E+05 -6.244303E+03  5.959490E+04 -7.321453E+03 -1.788147E-10 -4.224965E-10
       408  14  3.843412E+05 -3.561981E+04  9.161781E+04  1.244000E+03 -4.150296E-10 -3.824310E-10
       408  15  4.163428E+05  1.645853E+05  2.135902E+05 -7.295355E+03 -9.638845E-11  1.707801E-10
       408  16  2.370924E+05 -5.094920E+04  1.521212E+04 -2.011866E+04 -5.461189E-10 -2.979236E-10
       408  17  1.941118E+05 -8.306551E+04  4.459434E+04  8.298177E+03 -3.054626E-10  6.499136E-10
       408  18  2.150842E+05  1.143202E+05  1.634758E+05  1.961072E+04 -4.205031E-11  3.159121E-10
       408  19  5.957184E+05  3.845937E+04  1.039793E+05  5.479548E+03  4.545069E+04  2.666497E+03
       408  20  5.746135E+05  1.182587E+04  1.386560E+05 -5.812084E+03  9.610512E+04  3.283168E+03
       408  21  6.176627E+05  2.148559E+05  2.637424E+05 -3.421001E+04  1.467598E+05  1.129726E+03
       408  22  4.163918E+05 -6.243729E+03  5.959887E+04 -7.321355E+03  4.592929E+04  2.665316E+03
       408  23  3.843511E+05 -3.561733E+04  9.163511E+04  1.244253E+03  9.590566E+04  3.284387E+03
       408  24  4.163656E+05  1.645910E+05  2.136301E+05 -7.295222E+03  1.458813E+05  1.136210E+03
       408  25  2.370948E+05 -5.094862E+04  1.521618E+04 -2.011856E+04  4.640775E+04  2.664115E+03
       408  26  1.941217E+05 -8.306304E+04  4.461157E+04  8.298431E+03  9.570627E+04  3.285602E+03
       408  27  2.151068E+05  1.143258E+05  1.635153E+05  1.961085E+04  1.450031E+05  1.142620E+03
       409   1 -1.406883E+06 -1.123470E+05 -1.547785E+05 -2.158503E+04 -1.255149E+05 -6.889442E+02
       409   2 -1.382115E+06  6.008188E+04 -5.019665E+04 -6.628919E+03 -8.269920E+04 -2.046045E+03
       409   3 -1.412520E+06  3.399440E+04 -2.314315E+04  1.277622E+04 -3.988442E+04 -1.779361E+03
       409   4 -1.526967E+06 -1.423971E+05 -1.847419E+05  1.631794E+03 -1.260168E+05 -6.936616E+02
       409   5 -1.499288E+06  3.080817E+04 -7.921924E+04 -5.947459E+02 -8.282002E+04 -2.046896E+03
       409   6 -1.526859E+06  5.409665E+03 -5.150077E+04  1.627205E+03 -3.962393E+04 -1.778586E+03
       409   7 -1.647037E+06 -1.724462E+05 -2.147061E+05  2.484412E+04 -1.265186E+05 -6.984174E+02
       409   8 -1.616448E+06  1.533580E+03 -1.082428E+05  5.438284E+03 -8.294083E+04 -2.047749E+03
       409   9 -1.641186E+06 -2.317558E+04 -7.985929E+04 -9.519751E+03 -3.936348E+04 -1.777820E+03
       409  10 -1.406900E+06 -1.123512E+05 -1.548082E+05 -2.158510E+04  3.595458E-11 -1.130852E-10
       409  11 -1.382122E+06  6.008003E+04 -5.020954E+04 -6.629055E+03  2.831797E-10 -7.868721E-11
       409  12 -1.412521E+06  3.399396E+04 -2.314615E+04  1.277616E+04 -9.332229E-10  2.658628E-10
       409  13 -1.526984E+06 -1.424013E+05 -1.847718E+05  1.631723E+03  1.124625E-10 -2.961181E-10
       409  14 -1.499295E+06  3.080632E+04 -7.923217E+04 -5.948825E+02  7.251458E-10 -7.751902E-10
       409  15 -1.526861E+06  5.409239E+03 -5.150373E+04  1.627148E+03  7.283474E-10  2.951547E-10
       409  16 -1.647054E+06 -1.724505E+05 -2.147362E+05  2.484405E+04 -5.117191E-11 -3.280227E-10
       409  17 -1.616455E+06  1.531722E+03 -1.082558E+05  5.438148E+03  7.718692E-10 -1.004180E-09
       409  18 -1.641188E+06 -2.317600E+04 -7.986222E+04 -9.519808E+03  1.052548E-09  5.401464E-10
       409  19 -1.406883E+06 -1.123470E+05 -1.547785E+05 -2.158503E+04  1.255149E+05  6.889442E+02
       409  20 -1.382115E+06  6.008188E+04 -5.019665E+04 -6.628919E+03  8.269920E+04  2.046045E+03
       409  21 -1.412520E+06  3.399440E+04 -2.314315E+04  1.277622E+04  3.988442E+04  1.779361E+03
       409  22 -1.526967E+06 -1.423971E+05 -1.847419E+05  1.631794E+03  1.260168E+05  6.936616E+02
       409  23 -1.499288E+06  3.080817E+04 -7.921924E+04 -5.947459E+02  8.282002E+04  2.046896E+03
       409  24 -1.526859E+06  5.409665E+03 -5.150077E+04  1.627205E+03  3.962393E+04  1.778586E+03
       409  25 -1.647037E+06 -1.724462E+05 -2.147061E+05  2.484412E+04  1.265186E+05  6.984174E+02
       409  26 -1.616448E+06  1.533580E+03 -1.082428E+05  5.438284E+03  8.294083E+04  2.047749E+03
       409  27 -1.641186E+06 -2.317558E+04 -7.985929E+04 -9.519751E+03  3.936348E+04  1.777820E+03
       410   1 -1.417010E+06  4.580212E+03 -1.783063E+04 -8.630838E+02 -3.117549E+04 -1.462819E+03
       410   2 -1.417355E+06  2.811704E+04  2.982983E+03 -2.061114E+03 -2.051332E+04 -1.516154E+03
       410   3 -1.426140E+06  2.333687E+04  9.772117E+03  3.900896E+03 -9.851497E+03 -1.308042E+03
       410   4 -1.516486E+06 -2.028107E+04 -4.251316E+04  2.239310E+03 -3.121714E+04 -1.463007E+03
       410   5 -1.512251E+06  4.402791E+03 -2.054401E+04 -1.344994E+03 -2.049389E+04 -1.516183E+03
       410   6 -1.516466E+06  7.566087E+02 -1.264347E+04  2.230862E+03 -9.770893E+03 -1.307977E+03
       410   7 -1.615953E+06 -4.514306E+04 -6.719642E+04  5.341204E+03 -3.125880E+04 -1.463196E+03
       410   8 -1.607137E+06 -1.931213E+04 -4.407168E+04 -6.289858E+02 -2.047446E+04 -1.516213E+03
       410   9 -1.606785E+06 -2.182425E+04 -3.505967E+04  5.610714E+02 -9.690302E+03 -1.307914E+03
       410  10 -1.417011E+06  4.579948E+03 -1.783247E+04 -8.631206E+02 -1.371685E-09  2.656366E-10
       410  11 -1.417356E+06  2.811692E+04  2.982186E+03 -2.061139E+03 -4.919495E-10 -2.736997E-10
       410  12 -1.426140E+06  2.333684E+04  9.771931E+03  3.900886E+03  1.856062E-09 -9.312476E-10
       410  13 -1.516487E+06 -2.028134E+04 -4.251500E+04  2.239273E+03  3.521913E-11  5.183624E-10
       410  14 -1.512251E+06  4.402675E+03 -2.054481E+04 -1.345019E+03 -4.719964E-10  2.499648E-11
       410  15 -1.516466E+06  7.565812E+02 -1.264365E+04  2.230852E+03  1.029338E-09 -9.607325E-10
       410  16 -1.615954E+06 -4.514333E+04 -6.719826E+04  5.341167E+03  1.278760E-09  7.819781E-10
       410  17 -1.607138E+06 -1.931225E+04 -4.407248E+04 -6.290108E+02  1.081304E-09 -9.909437E-10
       410  18 -1.606785E+06 -2.182428E+04 -3.505985E+04  5.610612E+02 -2.062959E-09 -1.442786E-10
       410  19 -1.417010E+06  4.580212E+03 -1.783063E+04 -8.630838E+02  3.117549E+04  1.462819E+03
       410  20 -1.417355E+06  2.811704E+04  2.982983E+03 -2.061114E+03  2.051332E+04  1.516154E+03
       410  21 -1.426140E+06  2.333687E+04  9.772117E+03  3.900896E+03  9.851497E+03  1.308042E+03
       410  22 -1.516486E+06 -2.028107E+04 -4.251316E+04  2.239310E+03  3.121714E+04  1.463007E+03
       410  23 -1.512251E+06  4.402791E+03 -2.054401E+04 -1.344994E+03  2.049389E+04  1.516183E+03
       410  24 -1.516466E+06  7.566087E+02 -1.264347E+04  2.230862E+03  9.770893E+03  1.307977E+03
       410  25 -1.615953E+06 -4.514306E+04 -6.719642E+04  5.341204E+03  3.125880E+04  1.463196E+03
       410  26 -1.607137E+06 -1.931213E+04 -4.407168E+04 -6.289858E+02  2.047446E+04  1.516213E+03
       410  27 -1.606785E+06 -2.182425E+04 -3.505967E+04  5.610714E+02  9.690302E+03  1.307914E+03
       411   1 -1.445390E+06  1.449929E+04  7.145523E+03  2.316351E+03 -7.761379E+03 -1.163292E+03
       411   2 -1.450562E+06  1.653326E+04  1.054442E+04 -1.944674E+03 -5.107482E+03 -9.987979E+02
       411   3 -1.457081E+06  1.455858E+04  1.121084E+04  2.956098E+03 -2.453657E+03 -7.722702E+02
       411   4 -1.514890E+06 -2.867571E+03 -1.007717E+04  2.680165E+03 -7.729260E+03 -1.163283E+03
       411   5 -1.514214E+06  6.253697E+02 -5.239235E+03 -1.901795E+03 -5.060770E+03 -9.987695E+02
       411   6 -1.514887E+06  1.069008E+02 -3.144144E+03  2.678099E+03 -2.392326E+03 -7.722219E+02
       411   7 -1.584387E+06 -2.023479E+04 -2.730021E+04  3.043937E+03 -7.697145E+03 -1.163274E+03
       411   8 -1.577862E+06 -1.528282E+04 -2.102320E+04 -1.858921E+03 -5.014062E+03 -9.987410E+02
       411   9 -1.572689E+06 -1.434503E+04 -1.749938E+04  2.400126E+03 -2.331000E+03 -7.721737E+02
       411  10 -1.445390E+06  1.449927E+04  7.145407E+03  2.316343E+03 -1.483809E-10 -1.012443E-11
       411  11 -1.450562E+06  1.653325E+04  1.054437E+04 -1.944678E+03 -1.045540E-09  4.056595E-10
       411  12 -1.457081E+06  1.455858E+04  1.121083E+04  2.956096E+03 -2.942940E-10  8.262566E-11
       411  13 -1.514890E+06 -2.867589E+03 -1.007728E+04  2.680157E+03  1.626207E-10 -3.600201E-12
       411  14 -1.514214E+06  6.253617E+02 -5.239285E+03 -1.901799E+03 -5.465085E-10  7.328306E-10
       411  15 -1.514887E+06  1.068986E+02 -3.144156E+03  2.678098E+03  1.029245E-09  2.477334E-10
       411  16 -1.584387E+06 -2.023481E+04 -2.730033E+04  3.043930E+03 -4.174783E-11  2.360251E-11
       411  17 -1.577862E+06 -1.528283E+04 -2.102325E+04 -1.858925E+03  1.583766E-09 -1.713594E-10
       411  18 -1.572689E+06 -1.434503E+04 -1.749939E+04  2.400124E+03  7.835840E-10 -7.424006E-10
       411  19 -1.445390E+06  1.449929E+04  7.145523E+03  2.316351E+03  7.761379E+03  1.163292E+03
       411  20 -1.450562E+06  1.653326E+04  1.054442E+04 -1.944674E+03  5.107482E+03  9.987979E+02
       411  21 -1.457081E+06  1.455858E+04  1.121084E+04  2.956098E+03  2.453657E+03  7.722702E+02
       411  22 -1.514890E+06 -2.867571E+03 -1.007717E+04  2.680165E+03  7.729260E+03  1.163283E+03
       411  23 -1.514214E+06  6.253697E+02 -5.239235E+03 -1.901795E+03  5.060770E+03  9.987695E+02
       411  24 -1.514887E+06  1.069008E+02 -3.144144E+03  2.678099E+03  2.392326E+03  7.722219E+02
       411  25 -1.584387E+06 -2.023479E+04 -2.730021E+04  3.043937E+03  7.697145E+03  1.163274E+03
       411  26 -1.577862E+06 -1.528282E+04 -2.102320E+04 -1.858921E+03  5.014062E+03  9.987410E+02
       411  27 -1.572689E+06 -1.434503E+04 -1.749938E+04  2.400126E+03  2.331000E+03  7.721737E+02
       412   1 -1.481668E+06  7.841357E+03  5.690245E+03  2.906859E+03 -1.937551E+03 -6.339375E+02
       412   2 -1.488115E+06  6.687273E+03  5.165205E+03 -2.203718E+03 -1.247832E+03 -4.126674E+02
       412   3 -1.494814E+06  4.968601E+03  4.045070E+03  2.982239E+03 -5.581575E+02 -1.741709E+02
       412   4 -1.514642E+06 -3.961811E+02 -2.468334E+03  2.931216E+03 -1.886687E+03 -6.338950E+02
       412   5 -1.514516E+06  8.886516E+01 -1.381757E+03 -2.217243E+03 -1.192875E+03 -4.126186E+02
       412   6 -1.514642E+06  8.596787E+00 -8.931467E+02  2.930860E+03 -4.991003E+02 -1.741153E+02
       412   7 -1.547616E+06 -8.633801E+03 -1.062699E+04  2.955572E+03 -1.835826E+03 -6.338525E+02
       412   8 -1.540917E+06 -6.509595E+03 -7.928772E+03 -2.230768E+03 -1.137921E+03 -4.125697E+02
       412   9 -1.534470E+06 -4.951437E+03 -5.831393E+03  2.879481E+03 -4.400451E+02 -1.740597E+02
       412  10 -1.481668E+06  7.841356E+03  5.690237E+03  2.906858E+03 -3.197776E-10 -6.821189E-10
       412  11 -1.488115E+06  6.687272E+03  5.165202E+03 -2.203718E+03  1.256408E-10 -1.028808E-09
       412  12 -1.494814E+06  4.968600E+03  4.045069E+03  2.982239E+03  3.505716E-10 -5.002686E-10
       412  13 -1.514642E+06 -3.961825E+02 -2.468341E+03  2.931215E+03  1.032873E-09 -7.306579E-10
       412  14 -1.514516E+06  8.886459E+01 -1.381760E+03 -2.217243E+03 -5.757353E-10  1.016053E-09
       412  15 -1.514642E+06  8.596687E+00 -8.931472E+02  2.930859E+03  8.479809E-10  5.516457E-10
       412  16 -1.547616E+06 -8.633802E+03 -1.062700E+04  2.955571E+03  9.833023E-11  1.728253E-09
       412  17 -1.540917E+06 -6.509595E+03 -7.928774E+03 -2.230768E+03  1.520110E-09  1.017228E-09
       412  18 -1.534470E+06 -4.951437E+03 -5.831393E+03  2.879481E+03 -9.884282E-10  1.290014E-09
       412  19 -1.481668E+06  7.841357E+03  5.690245E+03  2.906859E+03  1.937551E+03  6.339375E+02
       412  20 -1.488115E+06  6.687273E+03  5.165205E+03 -2.203718E+03  1.247832E+03  4.126674E+02
       412  21 -1.494814E+06  4.968601E+03  4.045070E+03  2.982239E+03  5.581575E+02  1.741709E+02
       412  22 -1.514642E+06 -3.961811E+02 -2.468334E+03  2.931216E+03  1.886687E+03  6.338950E+02
       412  23 -1.514516E+06  8.886516E+01 -1.381757E+03 -2.217243E+03  1.192875E+03  4.126186E+02
       412  24 -1.514642E+06  8.596787E+00 -8.931467E+02  2.930860E+03  4.991003E+02  1.741153E+02
       412  25 -1.547616E+06 -8.633801E+03 -1.062699E+04  2.955572E+03  1.835826E+03  6.338525E+02
       412  26 -1.540917E+06 -6.509595E+03 -7.928772E+03 -2.230768E+03  1.137921E+03  4.125697E+02
       412  27 -1.534470E+06 -4.951437E+03 -5.831393E+03  2.879481E+03  4.400451E+02  1.740597E+02
       413   1 -1.521272E+06 -1.714902E+03 -2.426189E+03  2.951786E+03 -4.088995E+02 -3.036852E+01
       413   2 -1.527896E+06 -3.305825E+03 -3.910523E+03 -2.270267E+03 -1.053057E+02  2.080546E+02
       413   3 -1.534628E+06 -5.076165E+03 -5.642549E+03  2.969079E+03  1.983011E+02  4.362748E+02
       413   4 -1.514610E+06 -4.551526E+01 -7.530801E+02  2.967613E+03 -3.506334E+02 -3.031306E+01
       413   5 -1.514556E+06  2.839447E+01 -6.023266E+02 -2.263066E+03 -4.948059E+01  2.081062E+02
       413   6 -1.514610E+06 -7.670855E+01 -6.975866E+02  2.967640E+03  2.516886E+02  4.363229E+02
       413   7 -1.507947E+06  1.623868E+03  9.200255E+02  2.983441E+03 -2.923667E+02 -3.025760E+01
       413   8 -1.501215E+06  3.362600E+03  2.705856E+03 -2.255865E+03  6.345719E+00  2.081579E+02
       413   9 -1.494591E+06  4.922718E+03  4.247346E+03  2.966201E+03  3.050777E+02  4.363710E+02
       413  10 -1.521272E+06 -1.714902E+03 -2.426189E+03  2.951786E+03 -2.373488E-10  1.093256E-11
       413  11 -1.527896E+06 -3.305825E+03 -3.910523E+03 -2.270267E+03 -7.168183E-10  3.970120E-10
       413  12 -1.534628E+06 -5.076166E+03 -5.642549E+03  2.969079E+03 -3.803914E-11 -4.954766E-11
       413  13 -1.514610E+06 -4.551529E+01 -7.530803E+02  2.967613E+03  1.155662E-09 -1.166202E-09
       413  14 -1.514556E+06  2.839442E+01 -6.023267E+02 -2.263066E+03 -1.519513E-10 -6.711600E-10
       413  15 -1.514610E+06 -7.670878E+01 -6.975871E+02  2.967640E+03  5.201184E-10  1.182591E-09
       413  16 -1.507947E+06  1.623868E+03  9.200253E+02  2.983441E+03  5.768763E-10 -5.352274E-11
       413  17 -1.501215E+06  3.362600E+03  2.705856E+03 -2.255865E+03  1.969355E-09 -9.919144E-10
       413  18 -1.494591E+06  4.922718E+03  4.247345E+03  2.966201E+03 -7.280910E-10  5.434939E-10
       413  19 -1.521272E+06 -1.714902E+03 -2.426189E+03  2.951786E+03  4.088995E+02  3.036852E+01
       413  20 -1.527896E+06 -3.305825E+03 -3.910523E+03 -2.270267E+03  1.053057E+02 -2.080546E+02
       413  21 -1.534628E+06 -5.076165E+03 -5.642549E+03  2.969079E+03 -1.983011E+02 -4.362748E+02
       413  22 -1.514610E+06 -4.551526E+01 -7.530801E+02  2.967613E+03  3.506334E+02  3.031306E+01
       413  23 -1.514556E+06  2.839447E+01 -6.023266E+02 -2.263066E+03  4.948059E+01 -2.081062E+02
       413  24 -1.514610E+06 -7.670855E+01 -6.975866E+02  2.967640E+03 -2.516886E+02 -4.363229E+02
       413  25 -1.507947E+06  1.623868E+03  9.200255E+02  2.983441E+03  2.923667E+02  3.025760E+01
       413  26 -1.501215E+06  3.362600E+03  2.705856E+03 -2.255865E+03 -6.345719E+00 -2.081579E+02
       413  27 -1.494591E+06  4.922718E+03  4.247346E+03  2.966201E+03 -3.050777E+02 -4.363710E+02
       414   1 -1.560320E+06 -1.139792E+04 -1.214133E+04  2.703510E+03  3.239178E+02  5.786193E+02
       414   2 -1.566326E+06 -1.282212E+04 -1.402331E+04 -2.049020E+03  9.327624E+02  8.113785E+02
       414   3 -1.572628E+06 -1.508405E+04 -1.651330E+04  2.836399E+03  1.541694E+03  9.896075E+02
       414   4 -1.514651E+06  2.080241E+01 -7.950141E+02  2.784446E+03  3.860970E+02  5.786722E+02
       414   5 -1.514505E+06  1.300464E+02 -1.172463E+03 -2.034266E+03  9.819234E+02  8.114146E+02
       414   6 -1.514652E+06 -5.961185E+02 -2.148802E+03  2.784920E+03  1.577842E+03  9.896290E+02
       414   7 -1.468981E+06  1.143937E+04  1.055115E+04  2.865387E+03  4.482808E+02  5.787251E+02
       414   8 -1.462681E+06  1.308201E+04  1.167818E+04 -2.019512E+03  1.031088E+03  8.114508E+02
       414   9 -1.456673E+06  1.389156E+04  1.221544E+04  2.733435E+03  1.613994E+03  9.896504E+02
       414  10 -1.560320E+06 -1.139792E+04 -1.214134E+04  2.703510E+03  3.538038E-10 -1.148067E-09
       414  11 -1.566326E+06 -1.282212E+04 -1.402331E+04 -2.049021E+03 -6.720717E-10  3.004395E-10
       414  12 -1.572628E+06 -1.508406E+04 -1.651330E+04  2.836398E+03  1.012849E-10 -2.817331E-10
       414  13 -1.514651E+06  2.080201E+01 -7.950151E+02  2.784446E+03 -1.053712E-10  8.233595E-10
       414  14 -1.514505E+06  1.300455E+02 -1.172466E+03 -2.034267E+03 -1.329920E-09  1.666330E-09
       414  15 -1.514652E+06 -5.961202E+02 -2.148809E+03  2.784918E+03  1.387548E-09 -4.423617E-10
       414  16 -1.468981E+06  1.143937E+04  1.055115E+04  2.865387E+03  6.662618E-10 -7.845563E-10
       414  17 -1.462681E+06  1.308201E+04  1.167818E+04 -2.019513E+03  5.735984E-10  1.446818E-09
       414  18 -1.456673E+06  1.389156E+04  1.221544E+04  2.733434E+03 -6.358596E-10  2.295075E-10
       414  19 -1.560320E+06 -1.139792E+04 -1.214133E+04  2.703510E+03 -3.239178E+02 -5.786193E+02
       414  20 -1.566326E+06 -1.282212E+04 -1.402331E+04 -2.049020E+03 -9.327624E+02 -8.113785E+02
       414  21 -1.572628E+06 -1.508405E+04 -1.651330E+04  2.836399E+03 -1.541694E+03 -9.896075E+02
       414  22 -1.514651E+06  2.080241E+01 -7.950141E+02  2.784446E+03 -3.860970E+02 -5.786722E+02
       414  23 -1.514505E+06  1.300464E+02 -1.172463E+03 -2.034266E+03 -9.819234E+02 -8.114146E+02
       414  24 -1.514652E+06 -5.961185E+02 -2.148802E+03  2.784920E+03 -1.577842E+03 -9.896290E+02
       414  25 -1.468981E+06  1.143937E+04  1.055115E+04  2.865387E+03 -4.482808E+02 -5.787251E+02
       414  26 -1.462681E+06  1.308201E+04  1.167818E+04 -2.019512E+03 -1.031088E+03 -8.114508E+02
       414  27 -1.456673E+06  1.389156E+04  1.221544E+04  2.733435E+03 -1.613994E+03 -9.896504E+02
       415   1 -1.595339E+06 -1.992967E+04 -2.262036E+04  2.016002E+03  1.928997E+03  1.140977E+03
       415   2 -1.599512E+06 -2.042943E+04 -2.548704E+04 -1.433957E+03  4.236399E+03  1.359767E+03
       415   3 -1.605442E+06 -2.684638E+04 -3.133332E+04  3.021826E+03  6.543964E+03  1.331436E+03
       415   4 -1.514975E+06  1.611460E+02 -2.672484E+03  2.398864E+03  2.010798E+03  1.141026E+03
       415   5 -1.514104E+06  9.169653E+02 -4.310083E+03 -1.552858E+03  4.259280E+03  1.359768E+03
       415   6 -1.514979E+06 -4.233708E+03 -8.885997E+03  2.401099E+03  6.507944E+03  1.331399E+03
       415   7 -1.434605E+06  2.025148E+04  1.727491E+04  2.781774E+03  2.092609E+03  1.141076E+03
       415   8 -1.428689E+06  2.226281E+04  1.686633E+04 -1.671777E+03  4.282164E+03  1.359769E+03
       415   9 -1.424509E+06  1.837835E+04  1.356071E+04  1.780279E+03  6.471918E+03  1.331362E+03
       415  10 -1.595339E+06 -1.992968E+04 -2.262037E+04  2.016000E+03 -4.792132E-10  6.384100E-10
       415  11 -1.599512E+06 -2.042944E+04 -2.548708E+04 -1.433962E+03 -5.597113E-10 -1.159878E-10
       415  12 -1.605442E+06 -2.684639E+04 -3.133340E+04  3.021819E+03 -2.278559E-10 -2.381719E-11
       415  13 -1.514975E+06  1.611435E+02 -2.672494E+03  2.398862E+03  2.608538E-10 -2.614463E-10
       415  14 -1.514104E+06  9.169585E+02 -4.310121E+03 -1.552863E+03 -5.938242E-10 -9.714523E-11
       415  15 -1.514979E+06 -4.233721E+03 -8.886080E+03  2.401092E+03  9.782516E-10 -2.263250E-10
       415  16 -1.434605E+06  2.025148E+04  1.727490E+04  2.781772E+03  1.886040E-10 -2.646743E-10
       415  17 -1.428689E+06  2.226281E+04  1.686629E+04 -1.671781E+03  1.212332E-09 -1.118684E-09
       415  18 -1.424509E+06  1.837834E+04  1.356063E+04  1.780272E+03  8.889523E-11  8.526215E-11
       415  19 -1.595339E+06 -1.992967E+04 -2.262036E+04  2.016002E+03 -1.928997E+03 -1.140977E+03
       415  20 -1.599512E+06 -2.042943E+04 -2.548704E+04 -1.433957E+03 -4.236399E+03 -1.359767E+03
       415  21 -1.605442E+06 -2.684638E+04 -3.133332E+04  3.021826E+03 -6.543964E+03 -1.331436E+03
       415  22 -1.514975E+06  1.611460E+02 -2.672484E+03  2.398864E+03 -2.010798E+03 -1.141026E+03
       415  23 -1.514104E+06  9.169653E+02 -4.310083E+03 -1.552858E+03 -4.259280E+03 -1.359768E+03
       415  24 -1.514979E+06 -4.233708E+03 -8.885997E+03  2.401099E+03 -6.507944E+03 -1.331399E+03
       415  25 -1.434605E+06  2.025148E+04  1.727491E+04  2.781774E+03 -2.092609E+03 -1.141076E+03
       415  26 -1.428689E+06  2.226281E+04  1.686633E+04 -1.671777E+03 -4.282164E+03 -1.359769E+03
       415  27 -1.424509E+06  1.837835E+04  1.356071E+04  1.780279E+03 -6.471918E+03 -1.331362E+03
       416   1 -1.624616E+06 -2.573625E+04 -3.741798E+04 -5.125406E+02  8.010140E+03  1.650169E+03
       416   2 -1.622327E+06 -2.128917E+04 -4.402601E+04  3.786790E+02  1.740136E+04  1.933896E+03
       416   3 -1.631595E+06 -5.836252E+04 -6.712875E+04  6.682922E+03  2.679271E+04  6.643891E+02
       416   4 -1.517139E+06  1.130864E+03 -1.075854E+04  1.843573E+03  8.264187E+03  1.650288E+03
       416   5 -1.511406E+06  6.428304E+03 -1.654870E+04 -8.604883E+02  1.728476E+04  1.933806E+03
       416   6 -1.517163E+06 -2.972631E+04 -3.857364E+04  1.848516E+03  2.630553E+04  6.641033E+02
       416   7 -1.409653E+06  2.799713E+04  1.590004E+04  4.200095E+03  8.518278E+03  1.650409E+03
       416   8 -1.400474E+06  3.414486E+04  1.092769E+04 -2.099879E+03  1.716815E+04  1.933717E+03
       416   9 -1.402719E+06 -1.091008E+03 -1.001950E+04 -2.986784E+03  2.581827E+04  6.638251E+02
       416  10 -1.624616E+06 -2.573627E+04 -3.741811E+04 -5.125513E+02  1.677097E-10 -1.710157E-10
       416  11 -1.622328E+06 -2.128926E+04 -4.402658E+04  3.786519E+02 -1.557682E-11  1.787713E-10
       416  12 -1.631596E+06 -5.836271E+04 -6.713010E+04  6.682908E+03 -3.177892E-10  2.664218E-11
       416  13 -1.517140E+06  1.130842E+03 -1.075868E+04  1.843562E+03  1.449501E-09 -6.239522E-10
       416  14 -1.511407E+06  6.428219E+03 -1.654927E+04 -8.605153E+02 -1.316166E-10  2.648083E-10
       416  15 -1.517164E+06 -2.972650E+04 -3.857494E+04  1.848502E+03  3.565493E-10 -1.537953E-10
       416  16 -1.409653E+06  2.799711E+04  1.589990E+04  4.200084E+03  1.676734E-10  3.697419E-10
       416  17 -1.400474E+06  3.414478E+04  1.092713E+04 -2.099905E+03  7.545933E-10 -2.480419E-10
       416  18 -1.402719E+06 -1.091188E+03 -1.002075E+04 -2.986798E+03 -3.236741E-10  1.221532E-10
       416  19 -1.624616E+06 -2.573625E+04 -3.741798E+04 -5.125406E+02 -8.010140E+03 -1.650169E+03
       416  20 -1.622327E+06 -2.128917E+04 -4.402601E+04  3.786790E+02 -1.740136E+04 -1.933896E+03
       416  21 -1.631595E+06 -5.836252E+04 -6.712875E+04  6.682922E+03 -2.679271E+04 -6.643891E+02
       416  22 -1.517139E+06  1.130864E+03 -1.075854E+04  1.843573E+03 -8.264187E+03 -1.650288E+03
       416  23 -1.511406E+06  6.428304E+03 -1.654870E+04 -8.604883E+02 -1.728476E+04 -1.933806E+03
       416  24 -1.517163E+06 -2.972631E+04 -3.857364E+04  1.848516E+03 -2.630553E+04 -6.641033E+02
       416  25 -1.409653E+06  2.799713E+04  1.590004E+04  4.200095E+03 -8.518278E+03 -1.650409E+03
       416  26 -1.400474E+06  3.414486E+04  1.092769E+04 -2.099879E+03 -1.716815E+04 -1.933717E+03
       416  27 -1.402719E+06 -1.091008E+03 -1.001950E+04 -2.986784E+03 -2.581827E+04 -6.638251E+02
       417   1  5.112265E+06  1.020653E+06  1.320931E+06  1.694343E+05  8.926276E+05 -5.284308E+01
       417   2  4.913418E+06 -2.005045E+05  5.760169E+05  4.320697E+04  5.870604E+05 -9.807778E+02
       417   3  5.103069E+06 -2.332641E+04  3.788086E+05 -7.406682E+04  2.814599E+05 -8.436811E+02
       417   4  5.040846E+06  1.002822E+06  1.303237E+06  4.689534E+03  8.922782E+05 -2.879312E+02
       417   5  4.847791E+06 -2.168137E+05  5.598761E+05  3.001143E+02  5.869707E+05 -1.021063E+03
       417   6  5.043201E+06 -3.813486E+04  3.640780E+05  4.832082E+03  2.816270E+05 -8.081411E+02
       417   7  4.969490E+06  9.850920E+05  1.285558E+06 -1.600364E+05  8.919289E+05 -5.228588E+02
       417   8  4.782172E+06 -2.331164E+05  5.437360E+05 -4.260223E+04  5.868810E+05 -1.061339E+03
       417   9  4.983350E+06 -5.292035E+04  3.493504E+05  8.372342E+04  2.817941E+05 -7.725560E+02
       417  10  5.111415E+06  1.020441E+06  1.319446E+06  1.694344E+05 -3.977970E-10 -8.351383E-10
       417  11  4.913050E+06 -2.005960E+05  5.753745E+05  4.320744E+04  2.314896E-09 -1.375671E-09
       417  12  5.102984E+06 -2.334746E+04  3.786609E+05 -7.406663E+04 -2.197766E-09 -1.895709E-09
       417  13  5.039997E+06  1.002610E+06  1.301753E+06  4.689741E+03  1.757129E-09 -3.744184E-10
       417  14  4.847423E+06 -2.169052E+05  5.592338E+05  3.005959E+02  1.601089E-09 -1.355335E-09
       417  15  5.043117E+06 -3.815593E+04  3.639302E+05  4.832266E+03 -1.446942E-09 -1.239769E-09
       417  16  4.968641E+06  9.848805E+05  1.284075E+06 -1.600361E+05  1.174703E-09 -3.308084E-10
       417  17  4.781804E+06 -2.332079E+05  5.430938E+05 -4.260174E+04  2.254431E-09 -7.944792E-10
       417  18  4.983266E+06 -5.294145E+04  3.492024E+05  8.372360E+04  3.858470E-09 -1.371882E-11
       417  19  5.112265E+06  1.020653E+06  1.320931E+06  1.694343E+05 -8.926276E+05  5.284308E+01
       417  20  4.913418E+06 -2.005045E+05  5.760169E+05  4.320697E+04 -5.870604E+05  9.807778E+02
       417  21  5.103069E+06 -2.332641E+04  3.788086E+05 -7.406682E+04 -2.814599E+05  8.436811E+02
       417  22  5.040846E+06  1.002822E+06  1.303237E+06  4.689534E+03 -8.922782E+05  2.879312E+02
       417  23  4.847791E+06 -2.168137E+05  5.598761E+05  3.001143E+02 -5.869707E+05  1.021063E+03
       417  24  5.043201E+06 -3.813486E+04  3.640780E+05  4.832082E+03 -2.816270E+05  8.081411E+02
       417  25  4.969490E+06  9.850920E+05  1.285558E+06 -1.600364E+05 -8.919289E+05  5.228588E+02
       417  26  4.782172E+06 -2.331164E+05  5.437360E+05 -4.260223E+04 -5.868810E+05  1.061339E+03
       417  27  4.983350E+06 -5.292035E+04  3.493504E+05  8.372342E+04 -2.817941E+05  7.725560E+02
       418   1  5.012645E+06  1.535153E+05  3.112227E+05  2.601360E+04  2.218345E+05 -5.607261E+02
       418   2  4.980032E+06 -2.103297E+04  1.554993E+05  6.817113E+03  1.456823E+05 -5.719162E+02
       418   3  5.007037E+06  3.895665E+03  9.895532E+04 -7.677166E+03  6.953347E+04 -5.099064E+02
       418   4  4.969471E+06  1.427829E+05  3.005864E+05  3.804451E+03  2.218209E+05 -5.686046E+02
       418   5  4.939892E+06 -3.099883E+04  1.456167E+05  1.478112E+03  1.456901E+05 -5.731565E+02
       418   6  4.969930E+06 -5.301291E+03  8.981638E+04  3.853880E+03  6.956221E+04 -5.086133E+02
       418   7  4.926300E+06  1.320522E+05  2.899503E+05 -1.840317E+04  2.218072E+05 -5.764826E+02
       418   8  4.899753E+06 -4.096469E+04  1.357340E+05 -3.860546E+03  1.456978E+05 -5.743969E+02
       418   9  4.932824E+06 -1.449785E+04  8.067742E+04  1.538424E+04  6.959095E+04 -5.073190E+02
       418  10  5.012593E+06  1.535022E+05  3.111310E+05  2.601370E+04 -2.425811E-09 -1.014230E-09
       418  11  4.980010E+06 -2.103861E+04  1.554597E+05  6.817180E+03  1.571953E-09  6.269003E-10
       418  12  5.007032E+06  3.894380E+03  9.894631E+04 -7.677137E+03 -1.700397E-10 -2.103788E-10
       418  13  4.969419E+06  1.427698E+05  3.004947E+05  3.804552E+03  1.780523E-09 -2.224133E-10
       418  14  4.939869E+06 -3.100447E+04  1.455771E+05  1.478179E+03  2.529292E-09  4.299253E-10
       418  15  4.969925E+06 -5.302578E+03  8.980736E+04  3.853909E+03 -1.345217E-09  1.009585E-10
       418  16  4.926247E+06  1.320391E+05  2.898586E+05 -1.840306E+04  1.686263E-09 -4.178178E-10
       418  17  4.899730E+06 -4.097034E+04  1.356944E+05 -3.860479E+03  1.532590E-09  6.442159E-10
       418  18  4.932819E+06 -1.449914E+04  8.066839E+04  1.538427E+04 -2.669569E-10 -2.457525E-10
       418  19  5.012645E+06  1.535153E+05  3.112227E+05  2.601360E+04 -2.218345E+05  5.607261E+02
       418  20  4.980032E+06 -2.103297E+04  1.554993E+05  6.817113E+03 -1.456823E+05  5.719162E+02
       418  21  5.007037E+06  3.895665E+03  9.895532E+04 -7.677166E+03 -6.953347E+04  5.099064E+02
       418  22  4.969471E+06  1.427829E+05  3.005864E+05  3.804451E+03 -2.218209E+05  5.686046E+02
       418  23  4.939892E+06 -3.099883E+04  1.456167E+05  1.478112E+03 -1.456901E+05  5.731565E+02
       418  24  4.969930E+06 -5.301291E+03  8.981638E+04  3.853880E+03 -6.956221E+04  5.086133E+02
       418  25  4.926300E+06  1.320522E+05  2.899503E+05 -1.840317E+04 -2.218072E+05  5.764826E+02
       418  26  4.899753E+06 -4.096469E+04  1.357340E+05 -3.860546E+03 -1.456978E+05  5.743969E+02
       418  27  4.932824E+06 -1.449785E+04  8.067742E+04  1.538424E+04 -6.959095E+04  5.073190E+02
       419   1  4.987594E+06  2.736308E+04  7.877525E+04  6.071305E+03  5.495277E+04 -4.509320E+02
       419   2  4.981567E+06  2.419522E+03  4.438125E+04  2.801225E+03  3.577872E+04 -4.028577E+02
       419   3  4.985096E+06  5.843759E+03  2.948947E+04  1.544018E+03  1.660535E+04 -3.870811E+02
       419   4  4.958721E+06  2.019615E+04  7.167052E+04  3.232613E+03  5.496872E+04 -4.511747E+02
       419   5  4.953988E+06 -4.425057E+03  3.758986E+04  2.230942E+03  3.578761E+04 -4.028866E+02
       419   6  4.958813E+06 -6.765553E+02  2.301691E+04  3.242131E+03  1.660716E+04 -3.870359E+02
       419   7  4.929849E+06  1.302919E+04  6.456573E+04  3.940523E+02  5.498466E+04 -4.514176E+02
       419   8  4.926410E+06 -1.126969E+04  3.079841E+04  1.660685E+03  3.579651E+04 -4.029155E+02
       419   9  4.932530E+06 -7.196910E+03  1.654431E+04  4.940173E+03  1.660897E+04 -3.869906E+02
       419  10  4.987591E+06  2.736228E+04  7.876962E+04  6.071325E+03 -1.653349E-09 -3.519757E-10
       419  11  4.981566E+06  2.419181E+03  4.437886E+04  2.801236E+03 -3.711088E-09 -1.536701E-09
       419  12  4.985096E+06  5.843686E+03  2.948896E+04  1.544023E+03 -1.265309E-09  8.048250E-10
       419  13  4.958718E+06  2.019535E+04  7.166489E+04  3.232633E+03 -1.679706E-09 -4.609061E-10
       419  14  4.953987E+06 -4.425397E+03  3.758747E+04  2.230954E+03 -6.644108E-10 -6.319135E-10
       419  15  4.958813E+06 -6.766288E+02  2.301640E+04  3.242136E+03 -2.604428E-09 -6.377722E-11
       419  16  4.929846E+06  1.302838E+04  6.456009E+04  3.940722E+02 -6.986623E-10  4.172615E-10
       419  17  4.926409E+06 -1.127003E+04  3.079602E+04  1.660697E+03 -1.507120E-09 -1.525171E-09
       419  18  4.932530E+06 -7.196984E+03  1.654379E+04  4.940178E+03  8.683504E-10  1.036901E-09
       419  19  4.987594E+06  2.736308E+04  7.877525E+04  6.071305E+03 -5.495277E+04  4.509320E+02
       419  20  4.981567E+06  2.419522E+03  4.438125E+04  2.801225E+03 -3.577872E+04  4.028577E+02
       419  21  4.985096E+06  5.843759E+03  2.948947E+04  1.544018E+03 -1.660535E+04  3.870811E+02
       419  22  4.958721E+06  2.019615E+04  7.167052E+04  3.232613E+03 -5.496872E+04  4.511747E+02
       419  23  4.953988E+06 -4.425057E+03  3.758986E+04  2.230942E+03 -3.578761E+04  4.028866E+02
       419  24  4.958813E+06 -6.765553E+02  2.301691E+04  3.242131E+03 -1.660716E+04  3.870359E+02
       419  25  4.929849E+06  1.302919E+04  6.456573E+04  3.940523E+02 -5.498466E+04  4.514176E+02
       419  26  4.926410E+06 -1.126969E+04  3.079841E+04  1.660685E+03 -3.579651E+04  4.029155E+02
       419  27  4.932530E+06 -7.196910E+03  1.654431E+04  4.940173E+03 -1.660897E+04  3.869906E+02
       420   1  4.980970E+06  8.741738E+03  2.427939E+04  3.137040E+03  1.284340E+04 -3.742340E+02
       420   2  4.980090E+06  5.239042E+03  1.718178E+04  2.850526E+03  7.175054E+03 -3.583569E+02
       420   3  4.981049E+06  6.166399E+03  1.486075E+04  2.514580E+03  1.506674E+03 -3.843145E+02
       420   4  4.957088E+06  2.815392E+03  1.840110E+04  2.779613E+03  1.285268E+04 -3.742370E+02
       420   5  4.956175E+06 -6.955896E+02  1.129253E+04  2.805022E+03  7.174422E+03 -3.583585E+02
       420   6  4.957104E+06  2.252934E+02  8.967493E+03  2.781003E+03  1.496130E+03 -3.843210E+02
       420   7  4.933207E+06 -3.110995E+03  1.252277E+04  2.422200E+03  1.286196E+04 -3.742401E+02
       420   8  4.932261E+06 -6.630263E+03  5.403229E+03  2.759519E+03  7.173791E+03 -3.583601E+02
       420   9  4.933160E+06 -5.715855E+03  3.074194E+03  3.047417E+03  1.485588E+03 -3.843276E+02
       420  10  4.980970E+06  8.741694E+03  2.427909E+04  3.137044E+03 -3.530381E-11 -8.821035E-10
       420  11  4.980090E+06  5.239028E+03  1.718169E+04  2.850528E+03 -1.690548E-10 -1.300195E-09
       420  12  4.981049E+06  6.166399E+03  1.486075E+04  2.514580E+03 -2.272395E-09 -8.409143E-11
       420  13  4.957088E+06  2.815348E+03  1.840080E+04  2.779617E+03  6.940108E-10  5.054328E-10
       420  14  4.956175E+06 -6.956034E+02  1.129243E+04  2.805024E+03 -1.198148E-09 -1.841963E-09
       420  15  4.957104E+06  2.252927E+02  8.967488E+03  2.781004E+03  2.719388E-09  7.028117E-10
       420  16  4.933207E+06 -3.111039E+03  1.252246E+04  2.422204E+03  8.330284E-10  2.012924E-09
       420  17  4.932261E+06 -6.630277E+03  5.403133E+03  2.759521E+03 -4.722355E-10 -1.856604E-09
       420  18  4.933160E+06 -5.715855E+03  3.074190E+03  3.047417E+03  1.538578E-09 -2.932923E-10
       420  19  4.980970E+06  8.741738E+03  2.427939E+04  3.137040E+03 -1.284340E+04  3.742340E+02
       420  20  4.980090E+06  5.239042E+03  1.718178E+04  2.850526E+03 -7.175054E+03  3.583569E+02
       420  21  4.981049E+06  6.166399E+03  1.486075E+04  2.514580E+03 -1.506674E+03  3.843145E+02
       420  22  4.957088E+06  2.815392E+03  1.840110E+04  2.779613E+03 -1.285268E+04  3.742370E+02
       420  23  4.956175E+06 -6.955896E+02  1.129253E+04  2.805022E+03 -7.174422E+03  3.583585E+02
       420  24  4.957104E+06  2.252934E+02  8.967493E+03  2.781003E+03 -1.496130E+03  3.843210E+02
       420  25  4.933207E+06 -3.110995E+03  1.252277E+04  2.422200E+03 -1.286196E+04  3.742401E+02
       420  26  4.932261E+06 -6.630263E+03  5.403229E+03  2.759519E+03 -7.173791E+03  3.583601E+02
       420  27  4.933160E+06 -5.715855E+03  3.074194E+03  3.047417E+03 -1.485588E+03  3.843276E+02
       421   1  4.983652E+06  6.912176E+03  1.529201E+04  2.564420E+03 -1.110913E+02 -3.983276E+02
       421   2  4.984211E+06  6.342288E+03  1.692168E+04  3.366182E+03 -5.142749E+03 -4.273608E+02
       421   3  4.986378E+06  9.583970E+03  2.276208E+04  2.032543E+03 -1.017440E+04 -5.040015E+02
       421   4  4.957053E+06  3.108206E+02  8.740754E+03  2.317415E+03 -1.116044E+02 -3.983289E+02
       421   5  4.956242E+06 -5.984208E+02  1.003397E+04  3.384427E+03 -5.154562E+03 -4.273699E+02
       421   6  4.957041E+06  2.305960E+03  1.554585E+04  2.316033E+03 -1.019750E+04 -5.040236E+02
       421   7  4.930454E+06 -6.290586E+03  2.189447E+03  2.070421E+03 -1.121174E+02 -3.983302E+02
       421   8  4.928273E+06 -7.539188E+03  3.146205E+03  3.402671E+03 -5.166374E+03 -4.273790E+02
       421   9  4.927705E+06 -4.972113E+03  8.329555E+03  2.599509E+03 -1.022060E+04 -5.040457E+02
       421  10  4.983652E+06  6.912175E+03  1.529201E+04  2.564420E+03 -2.370948E-09 -8.990120E-10
       421  11  4.984211E+06  6.342281E+03  1.692163E+04  3.366180E+03  9.885538E-10  8.965015E-10
       421  12  4.986378E+06  9.583942E+03  2.276189E+04  2.032539E+03 -3.803099E-10 -2.213628E-10
       421  13  4.957053E+06  3.108205E+02  8.740754E+03  2.317415E+03  2.827890E-09  1.640419E-09
       421  14  4.956242E+06 -5.984280E+02  1.003392E+04  3.384425E+03  3.225858E-09  1.993511E-09
       421  15  4.957041E+06  2.305932E+03  1.554566E+04  2.316029E+03  5.935328E-10  6.593690E-10
       421  16  4.930454E+06 -6.290587E+03  2.189447E+03  2.070421E+03  3.036484E-09  1.269753E-09
       421  17  4.928273E+06 -7.539195E+03  3.146155E+03  3.402670E+03  4.712002E-10 -8.288578E-10
       421  18  4.927705E+06 -4.972141E+03  8.329360E+03  2.599505E+03 -1.353969E-09 -6.381956E-10
       421  19  4.983652E+06  6.912176E+03  1.529201E+04  2.564420E+03  1.110913E+02  3.983276E+02
       421  20  4.984211E+06  6.342288E+03  1.692168E+04  3.366182E+03  5.142749E+03  4.273608E+02
       421  21  4.986378E+06  9.583970E+03  2.276208E+04  2.032543E+03  1.017440E+04  5.040015E+02
       421  22  4.957053E+06  3.108206E+02  8.740754E+03  2.317415E+03  1.116044E+02  3.983289E+02
       421  23  4.956242E+06 -5.984208E+02  1.003397E+04  3.384427E+03  5.154562E+03  4.273699E+02
       421  24  4.957041E+06  2.305960E+03  1.554585E+04  2.316033E+03  1.019750E+04  5.040236E+02
       421  25  4.930454E+06 -6.290586E+03  2.189447E+03  2.070421E+03  1.121174E+02  3.983302E+02
       421  26  4.928273E+06 -7.539188E+03  3.146205E+03  3.402671E+03  5.166374E+03  4.273790E+02
       421  27  4.927705E+06 -4.972113E+03  8.329555E+03  2.599509E+03  1.022060E+04  5.040457E+02
       422   1  4.996342E+06  8.868691E+03  2.856757E+04  3.123446E+03 -1.333508E+04 -5.530402E+02
       422   2  4.995519E+06  6.553815E+03  4.114641E+04  3.718532E+03 -2.916105E+04 -6.482926E+02
       422   3  5.002568E+06  2.753129E+04  6.979496E+04 -6.079370E+02 -4.498705E+04 -7.855787E+02
       422   4  4.958441E+06 -5.401986E+02  1.922870E+04  1.702364E+03 -1.334972E+04 -5.530227E+02
       422   5  4.954466E+06 -3.632711E+03  3.103763E+04  4.156286E+03 -2.918494E+04 -6.483348E+02
       422   6  4.958366E+06  1.656960E+04  5.892342E+04  1.688601E+03 -4.502012E+04 -7.857758E+02
       422   7  4.920541E+06 -9.949187E+03  9.889722E+03  2.813687E+02 -1.336435E+04 -5.530052E+02
       422   8  4.913415E+06 -1.381936E+04  2.092872E+04  4.594011E+03 -2.920882E+04 -6.483770E+02
       422   9  4.914166E+06  5.607786E+03  4.805175E+04  3.984976E+03 -4.505318E+04 -7.859732E+02
       422  10  4.996342E+06  8.868644E+03  2.856723E+04  3.123440E+03  4.605134E-10  5.753300E-10
       422  11  4.995518E+06  6.553589E+03  4.114483E+04  3.718517E+03 -4.567658E-09 -2.078952E-10
       422  12  5.002566E+06  2.753075E+04  6.979118E+04 -6.079654E+02  4.376574E-10  1.140219E-09
       422  13  4.958441E+06 -5.402463E+02  1.922836E+04  1.702358E+03  7.194489E-10  7.157423E-10
       422  14  4.954465E+06 -3.632938E+03  3.103604E+04  4.156271E+03 -2.737544E-09  4.115562E-10
       422  15  4.958364E+06  1.656906E+04  5.891964E+04  1.688572E+03 -8.090927E-11  4.668795E-10
       422  16  4.920541E+06 -9.949235E+03  9.889389E+03  2.813628E+02 -4.343532E-10  2.139793E-10
       422  17  4.913414E+06 -1.381959E+04  2.092713E+04  4.593996E+03  2.705611E-10  9.713196E-10
       422  18  4.914164E+06  5.607246E+03  4.804796E+04  3.984947E+03  5.538935E-10  8.146354E-10
       422  19  4.996342E+06  8.868691E+03  2.856757E+04  3.123446E+03  1.333508E+04  5.530402E+02
       422  20  4.995519E+06  6.553815E+03  4.114641E+04  3.718532E+03  2.916105E+04  6.482926E+02
       422  21  5.002568E+06  2.753129E+04  6.979496E+04 -6.079370E+02  4.498705E+04  7.855787E+02
       422  22  4.958441E+06 -5.401986E+02  1.922870E+04  1.702364E+03  1.334972E+04  5.530227E+02
       422  23  4.954466E+06 -3.632711E+03  3.103763E+04  4.156286E+03  2.918494E+04  6.483348E+02
       422  24  4.958366E+06  1.656960E+04  5.892342E+04  1.688601E+03  4.502012E+04  7.857758E+02
       422  25  4.920541E+06 -9.949187E+03  9.889722E+03  2.813687E+02  1.336435E+04  5.530052E+02
       422  26  4.913415E+06 -1.381936E+04  2.092872E+04  4.594011E+03  2.920882E+04  6.483770E+02
       422  27  4.914166E+06  5.607786E+03  4.805175E+04  3.984976E+03  4.505318E+04  7.859732E+02
       423   1  5.028981E+06  1.090995E+04  8.892447E+04  1.025568E+04 -5.695523E+04 -9.218117E+02
       423   2  5.010286E+06 -8.721607E+03  1.361224E+05  1.052222E+03 -1.194878E+05 -1.166183E+03
       423   3  5.040553E+06  1.353231E+05  2.647338E+05 -1.753845E+04 -1.820240E+05 -1.274936E+03
       423   4  4.967565E+06 -4.352497E+03  7.378779E+04  7.451779E+02 -5.701379E+04 -9.210043E+02
       423   5  4.942895E+06 -2.543408E+04  1.195348E+05  5.377583E+03 -1.195083E+05 -1.167044E+03
       423   6  4.967186E+06  1.171631E+05  2.466755E+05  6.230733E+02 -1.820058E+05 -1.280226E+03
       423   7  4.906152E+06 -1.961489E+04  5.865088E+04 -8.764386E+03 -5.707235E+04 -9.201949E+02
       423   8  4.875508E+06 -4.214683E+04  1.029469E+05  9.702477E+03 -1.195288E+05 -1.167906E+03
       423   9  4.893825E+06  9.900383E+04  2.286169E+05  1.878246E+04 -1.819877E+05 -1.285515E+03
       423  10  5.028977E+06  1.090909E+04  8.891842E+04  1.025563E+04  5.232334E-10  3.214526E-10
       423  11  5.010271E+06 -8.725403E+03  1.360957E+05  1.052110E+03 -1.319310E-09 -1.147112E-09
       423  12  5.040517E+06  1.353143E+05  2.646721E+05 -1.753863E+04 -5.646453E-10 -8.831166E-10
       423  13  4.967561E+06 -4.353362E+03  7.378173E+04  7.451357E+02  5.943991E-10  3.533281E-10
       423  14  4.942880E+06 -2.543788E+04  1.195081E+05  5.377471E+03 -5.052189E-10 -4.162088E-10
       423  15  4.967151E+06  1.171543E+05  2.466137E+05  6.228860E+02  2.402268E-09 -5.938503E-10
       423  16  4.906149E+06 -1.961575E+04  5.864480E+04 -8.764428E+03  1.380938E-09  7.158374E-10
       423  17  4.875493E+06 -4.215063E+04  1.029202E+05  9.702365E+03  6.497827E-09  3.690088E-09
       423  18  4.893789E+06  9.899502E+04  2.285552E+05  1.878227E+04  2.334913E-09  7.476779E-10
       423  19  5.028981E+06  1.090995E+04  8.892447E+04  1.025568E+04  5.695523E+04  9.218117E+02
       423  20  5.010286E+06 -8.721607E+03  1.361224E+05  1.052222E+03  1.194878E+05  1.166183E+03
       423  21  5.040553E+06  1.353231E+05  2.647338E+05 -1.753845E+04  1.820240E+05  1.274936E+03
       423  22  4.967565E+06 -4.352497E+03  7.378779E+04  7.451779E+02  5.701379E+04  9.210043E+02
       423  23  4.942895E+06 -2.543408E+04  1.195348E+05  5.377583E+03  1.195083E+05  1.167044E+03
       423  24  4.967186E+06  1.171631E+05  2.466755E+05  6.230733E+02  1.820058E+05  1.280226E+03
       423  25  4.906152E+06 -1.961489E+04  5.865088E+04 -8.764386E+03  5.707235E+04  9.201949E+02
       423  26  4.875508E+06 -4.214683E+04  1.029469E+05  9.702477E+03  1.195288E+05  1.167906E+03
       423  27  4.893825E+06  9.900383E+04  2.286169E+05  1.878246E+04  1.819877E+05  1.285515E+03
       424   1  5.132249E+06 -5.179996E+03  3.245402E+05  6.404538E+04 -2.307711E+05 -1.818972E+03
       424   2  4.982793E+06 -1.493627E+05  4.877138E+05 -2.756578E+04 -4.818078E+05 -2.573543E+03
       424   3  5.152233E+06  8.539090E+05  1.100451E+06 -1.370159E+05 -7.328301E+05 -1.548904E+03
       424   4  5.027696E+06 -3.130463E+04  2.987585E+05 -7.969824E+02 -2.310769E+05 -1.795433E+03
       424   5  4.867280E+06 -1.779181E+05  4.593332E+05  7.534942E+03 -4.816623E+05 -2.600503E+03
       424   6  5.025724E+06  8.229218E+05  1.069217E+06 -1.948497E+03 -7.322288E+05 -1.706443E+03
       424   7  4.923161E+06 -5.741442E+04  2.729782E+05 -6.562848E+04 -2.313827E+05 -1.771827E+03
       424   8  4.751782E+06 -2.064699E+05  4.309523E+05  4.262917E+04 -4.815169E+05 -2.627452E+03
       424   9  4.899268E+06  7.920016E+05  1.037991E+06  1.330916E+05 -7.316276E+05 -1.863751E+03
       424  10  5.132192E+06 -5.194150E+03  3.244410E+05  6.404504E+04 -1.731239E-09 -1.464504E-09
       424  11  4.982545E+06 -1.494244E+05  4.872811E+05 -2.756678E+04 -4.118888E-09 -2.158812E-09
       424  12  5.151660E+06  8.537663E+05  1.099450E+06 -1.370169E+05  4.853374E-10 -3.723497E-10
       424  13  5.027639E+06 -3.131882E+04  2.986589E+05 -7.973158E+02 -4.553962E-09 -4.735081E-09
       424  14  4.867032E+06 -1.779798E+05  4.589007E+05  7.533936E+03  4.816118E-09  2.578479E-09
       424  15  5.025152E+06  8.227793E+05  1.068217E+06 -1.949500E+03  2.433336E-09  6.621504E-10
       424  16  4.923104E+06 -5.742865E+04  2.728783E+05 -6.562882E+04  2.708938E-09 -1.058295E-09
       424  17  4.751534E+06 -2.065315E+05  4.305199E+05  4.262815E+04  5.030654E-09  3.130033E-09
       424  18  4.898697E+06  7.918593E+05  1.036992E+06  1.330906E+05 -5.017101E-10 -1.093857E-09
       424  19  5.132249E+06 -5.179996E+03  3.245402E+05  6.404538E+04  2.307711E+05  1.818972E+03
       424  20  4.982793E+06 -1.493627E+05  4.877138E+05 -2.756578E+04  4.818078E+05  2.573543E+03
       424  21  5.152233E+06  8.539090E+05  1.100451E+06 -1.370159E+05  7.328301E+05  1.548904E+03
       424  22  5.027696E+06 -3.130463E+04  2.987585E+05 -7.969824E+02  2.310769E+05  1.795433E+03
       424  23  4.867280E+06 -1.779181E+05  4.593332E+05  7.534942E+03  4.816623E+05  2.600503E+03
       424  24  5.025724E+06  8.229218E+05  1.069217E+06 -1.948497E+03  7.322288E+05  1.706443E+03
       424  25  4.923161E+06 -5.741442E+04  2.729782E+05 -6.562848E+04  2.313827E+05  1.771827E+03
       424  26  4.751782E+06 -2.064699E+05  4.309523E+05  4.262917E+04  4.815169E+05  2.627452E+03
       424  27  4.899268E+06  7.920016E+05  1.037991E+06  1.330916E+05  7.316276E+05  1.863751E+03
       425   1  4.915936E+05  1.756368E+05  1.630791E+05  4.852174E+04  5.728344E+04 -1.056541E+04
       425   2  4.403925E+05  1.665508E+05  1.246339E+05  4.954249E+04  2.727415E+04 -3.625544E+04
       425   3  3.927516E+05  1.560238E+05  1.053854E+05  5.863806E+04 -2.754182E+03 -4.497072E+04
       425   4 -2.827226E+05 -1.508127E+04 -1.648767E+04  5.757768E+04 -1.155900E+04 -1.067183E+04
       425   5 -2.815168E+05 -4.358442E+03 -8.176520E+03  5.352842E+04 -7.320414E+03 -3.631602E+04
       425   6 -2.826982E+05 -1.023062E+03 -4.446068E+03  5.755364E+04 -3.104333E+03 -4.497589E+04
       425   7 -1.056475E+06 -2.058386E+05 -1.960769E+05  6.662202E+04 -8.031624E+04 -1.078034E+04
       425   8 -1.002918E+06 -1.752966E+05 -1.410039E+05  5.750937E+04 -4.187583E+04 -3.637708E+04
       425   9 -9.576958E+05 -1.580932E+05 -1.142903E+05  5.647023E+04 -3.454115E+03 -4.498106E+04
       425  10  4.915901E+05  1.756358E+05  1.630728E+05  4.852223E+04  2.446856E-09 -2.427126E-09
       425  11  4.403913E+05  1.665492E+05  1.246300E+05  4.954328E+04 -1.172043E-09 -4.812059E-09
       425  12  3.927510E+05  1.560217E+05  1.053816E+05  5.863796E+04  1.866876E-09 -3.487595E-09
       425  13 -2.827228E+05 -1.508142E+04 -1.648813E+04  5.757758E+04 -1.226328E-10  5.585982E-10
       425  14 -2.815172E+05 -4.359873E+03 -8.179099E+03  5.352820E+04 -9.237741E-10 -1.715084E-09
       425  15 -2.826988E+05 -1.025236E+03 -4.449887E+03  5.755352E+04 -7.248583E-10 -3.507471E-09
       425  16 -1.056482E+06 -2.058405E+05 -1.960892E+05  6.662132E+04 -1.832339E-09  8.916405E-10
       425  17 -1.002920E+06 -1.752985E+05 -1.410097E+05  5.750815E+04 -2.888200E-10 -3.483376E-09
       425  18 -9.576964E+05 -1.580954E+05 -1.142941E+05  5.647010E+04 -1.913789E-09 -3.296686E-09
       425  19  4.915936E+05  1.756368E+05  1.630791E+05  4.852174E+04 -5.728344E+04  1.056541E+04
       425  20  4.403925E+05  1.665508E+05  1.246339E+05  4.954249E+04 -2.727415E+04  3.625544E+04
       425  21  3.927516E+05  1.560238E+05  1.053854E+05  5.863806E+04  2.754182E+03  4.497072E+04
       425  22 -2.827226E+05 -1.508127E+04 -1.648767E+04  5.757768E+04  1.155900E+04  1.067183E+04
       425  23 -2.815168E+05 -4.358442E+03 -8.176520E+03  5.352842E+04  7.320414E+03  3.631602E+04
       425  24 -2.826982E+05 -1.023062E+03 -4.446068E+03  5.755364E+04  3.104333E+03  4.497589E+04
       425  25 -1.056475E+06 -2.058386E+05 -1.960769E+05  6.662202E+04  8.031624E+04  1.078034E+04
       425  26 -1.002918E+06 -1.752966E+05 -1.410039E+05  5.750937E+04  4.187583E+04  3.637708E+04
       425  27 -9.576958E+05 -1.580932E+05 -1.142903E+05  5.647023E+04  3.454115E+03  4.498106E+04
       426   1  3.610910E+05  1.483040E+05  9.908187E+04  5.822416E+04 -1.787684E+03 -4.448912E+04
       426   2  3.115359E+05  1.367747E+05  8.895019E+04  5.384106E+04 -4.720374E+03 -4.390927E+04
       426   3  2.623916E+05  1.254168E+05  8.076836E+04  5.873840E+04 -7.657210E+03 -4.142116E+04
       426   4 -2.822177E+05 -8.344604E+02 -3.347365E+03  5.782377E+04 -2.529480E+03 -4.449482E+04
       426   5 -2.820783E+05 -1.004776E+02 -1.829591E+03  5.318233E+04 -1.613617E+03 -4.390738E+04
       426   6 -2.821979E+05  1.370586E+02 -1.033996E+03  5.782188E+04 -7.020675E+02 -4.141073E+04
       426   7 -9.251147E+05 -1.499936E+05 -1.057873E+05  5.742362E+04 -3.270533E+03 -4.450052E+04
       426   8 -8.753399E+05 -1.369926E+05 -9.261696E+04  5.252407E+04  1.490286E+03 -4.390549E+04
       426   9 -8.264897E+05 -1.251567E+05 -8.284205E+04  5.690604E+04  6.247220E+03 -4.140032E+04
       426  10  3.610904E+05  1.483018E+05  9.907815E+04  5.822410E+04 -4.793707E-09 -4.159761E-09
       426  11  3.115353E+05  1.367726E+05  8.894652E+04  5.384089E+04 -2.064013E-09  6.376989E-10
       426  12  2.623911E+05  1.254150E+05  8.076503E+04  5.873815E+04  2.998458E-09  1.312618E-09
       426  13 -2.822182E+05 -8.365878E+02 -3.351097E+03  5.782368E+04 -1.604307E-09 -1.793210E-09
       426  14 -2.820789E+05 -1.025482E+02 -1.833219E+03  5.318227E+04 -8.567113E-10 -2.210098E-11
       426  15 -2.821984E+05  1.352173E+02 -1.037219E+03  5.782186E+04 -8.657690E-10 -2.582569E-09
       426  16 -9.251153E+05 -1.499957E+05 -1.057910E+05  5.742350E+04  5.570891E-09  1.290849E-09
       426  17 -8.753404E+05 -1.369947E+05 -9.262058E+04  5.252413E+04  5.225235E-10  2.204709E-09
       426  18 -8.264902E+05 -1.251586E+05 -8.284534E+04  5.690625E+04 -3.173902E-09  2.997472E-10
       426  19  3.610910E+05  1.483040E+05  9.908187E+04  5.822416E+04  1.787684E+03  4.448912E+04
       426  20  3.115359E+05  1.367747E+05  8.895019E+04  5.384106E+04  4.720374E+03  4.390927E+04
       426  21  2.623916E+05  1.254168E+05  8.076836E+04  5.873840E+04  7.657210E+03  4.142116E+04
       426  22 -2.822177E+05 -8.344604E+02 -3.347365E+03  5.782377E+04  2.529480E+03  4.449482E+04
       426  23 -2.820783E+05 -1.004776E+02 -1.829591E+03  5.318233E+04  1.613617E+03  4.390738E+04
       426  24 -2.821979E+05  1.370586E+02 -1.033996E+03  5.782188E+04  7.020675E+02  4.141073E+04
       426  25 -9.251147E+05 -1.499936E+05 -1.057873E+05  5.742362E+04  3.270533E+03  4.450052E+04
       426  26 -8.753399E+05 -1.369926E+05 -9.261696E+04  5.252407E+04 -1.490286E+03  4.390549E+04
       426  27 -8.264897E+05 -1.251567E+05 -8.284205E+04  5.690604E+04 -6.247220E+03  4.140032E+04
       427   1  2.311763E+05  1.181604E+05  7.592458E+04  5.867678E+04 -7.462182E+03 -3.934826E+04
       427   2  1.817831E+05  1.067702E+05  6.854712E+04  5.391141E+04 -7.679919E+03 -3.581336E+04
       427   3  1.324089E+05  9.546077E+04  6.132256E+04  5.856789E+04 -7.899132E+03 -3.206309E+04
       427   4 -2.821472E+05  1.508548E+02 -7.842658E+02  5.785346E+04 -5.492938E+02 -3.933723E+04
       427   5 -2.821100E+05  1.868304E+02 -4.482130E+02  5.314226E+04 -3.330913E+02 -3.580039E+04
       427   6 -2.821316E+05  2.282352E+02 -2.607933E+02  5.785332E+04 -1.183800E+02 -3.204808E+04
       427   7 -7.952059E+05 -1.178711E+05 -7.749802E+04  5.703070E+04  6.358110E+03 -3.932621E+04
       427   8 -7.457867E+05 -1.064067E+05 -6.944739E+04  5.237359E+04  7.008470E+03 -3.578742E+04
       427   9 -6.964994E+05 -9.501234E+04 -6.184713E+04  5.713914E+04  7.657388E+03 -3.203309E+04
       427  10  2.311758E+05  1.181587E+05  7.592157E+04  5.867655E+04 -2.522171E-09  2.219242E-09
       427  11  1.817827E+05  1.067688E+05  6.854460E+04  5.391119E+04  1.588350E-10  1.501659E-09
       427  12  1.324086E+05  9.545965E+04  6.132051E+04  5.856768E+04  8.750061E-09 -7.063781E-10
       427  13 -2.821476E+05  1.491933E+02 -7.871739E+02  5.785344E+04 -8.624051E-10 -2.825951E-09
       427  14 -2.821104E+05  1.854542E+02 -4.506213E+02  5.314225E+04  2.738315E-10  2.866674E-09
       427  15 -2.821319E+05  2.271325E+02 -2.627232E+02  5.785331E+04  1.841249E-10  4.603867E-09
       427  16 -7.952064E+05 -1.178728E+05 -7.750100E+04  5.703090E+04  3.296297E-09  8.444392E-10
       427  17 -7.457871E+05 -1.064080E+05 -6.944989E+04  5.237379E+04 -1.906558E-09  3.204629E-09
       427  18 -6.964997E+05 -9.501345E+04 -6.184916E+04  5.713934E+04 -8.436321E-09 -8.408734E-10
       427  19  2.311763E+05  1.181604E+05  7.592458E+04  5.867678E+04  7.462182E+03  3.934826E+04
       427  20  1.817831E+05  1.067702E+05  6.854712E+04  5.391141E+04  7.679919E+03  3.581336E+04
       427  21  1.324089E+05  9.546077E+04  6.132256E+04  5.856789E+04  7.899132E+03  3.206309E+04
       427  22 -2.821472E+05  1.508548E+02 -7.842658E+02  5.785346E+04  5.492938E+02  3.933723E+04
       427  23 -2.821100E+05  1.868304E+02 -4.482130E+02  5.314226E+04  3.330913E+02  3.580039E+04
       427  24 -2.821316E+05  2.282352E+02 -2.607933E+02  5.785332E+04  1.183800E+02  3.204808E+04
       427  25 -7.952059E+05 -1.178711E+05 -7.749802E+04  5.703070E+04 -6.358110E+03  3.932621E+04
       427  26 -7.457867E+05 -1.064067E+05 -6.944739E+04  5.237359E+04 -7.008470E+03  3.578742E+04
       427  27 -6.964994E+05 -9.501234E+04 -6.184713E+04  5.713914E+04 -7.657388E+03  3.203309E+04
       428   1  1.012292E+05  8.826180E+04  5.654254E+04  5.852193E+04 -7.858538E+03 -2.980972E+04
       428   2  5.182689E+04  7.691268E+04  4.933894E+04  5.372182E+04 -7.850732E+03 -2.594049E+04
       428   3  2.395452E+03  6.561349E+04  4.212995E+04  5.836466E+04 -7.843772E+03 -2.204711E+04
       428   4 -2.821229E+05  2.336834E+02 -2.027077E+02  5.785799E+04 -8.117813E+01 -2.979415E+04
       428   5 -2.820969E+05  2.246769E+02 -1.293527E+02  5.313636E+04 -2.505906E+01 -2.592401E+04
       428   6 -2.821117E+05  2.570816E+02 -9.535376E+01  5.785796E+04  3.021404E+01 -2.202970E+04
       428   7 -6.653271E+05 -8.780129E+04 -5.695042E+04  5.719440E+04  7.691576E+03 -2.977860E+04
       428   8 -6.159085E+05 -7.646852E+04 -4.959946E+04  5.255117E+04  7.796577E+03 -2.590753E+04
       428   9 -5.665374E+05 -6.510310E+04 -4.232192E+04  5.735146E+04  7.900739E+03 -2.201230E+04
       428  10  1.012289E+05  8.826083E+04  5.654075E+04  5.852174E+04  1.238576E-09 -2.817764E-10
       428  11  5.182664E+04  7.691194E+04  4.933756E+04  5.372166E+04 -4.783925E-10  6.485881E-09
       428  12  2.395256E+03  6.561296E+04  4.212892E+04  5.836452E+04  1.883691E-09  5.401968E-09
       428  13 -2.821232E+05  2.327303E+02 -2.043756E+02  5.785799E+04  5.261494E-10  3.873499E-10
       428  14 -2.820971E+05  2.239553E+02 -1.306155E+02  5.313636E+04  9.123065E-10  5.585948E-09
       428  15 -2.821119E+05  2.565605E+02 -9.626563E+01  5.785796E+04 -3.570936E-10  1.337755E-09
       428  16 -6.653274E+05 -8.780225E+04 -5.695219E+04  5.719459E+04  2.086529E-10 -4.274763E-10
       428  17 -6.159087E+05 -7.646925E+04 -4.960084E+04  5.255133E+04 -4.331585E-10  1.428908E-09
       428  18 -5.665376E+05 -6.510363E+04 -4.232295E+04  5.735160E+04 -3.417831E-09 -4.597561E-10
       428  19  1.012292E+05  8.826180E+04  5.654254E+04  5.852193E+04  7.858538E+03  2.980972E+04
       428  20  5.182689E+04  7.691268E+04  4.933894E+04  5.372182E+04  7.850732E+03  2.594049E+04
       428  21  2.395452E+03  6.561349E+04  4.212995E+04  5.836466E+04  7.843772E+03  2.204711E+04
       428  22 -2.821229E+05  2.336834E+02 -2.027077E+02  5.785799E+04  8.117813E+01  2.979415E+04
       428  23 -2.820969E+05  2.246769E+02 -1.293527E+02  5.313636E+04  2.505906E+01  2.592401E+04
       428  24 -2.821117E+05  2.570816E+02 -9.535376E+01  5.785796E+04 -3.021404E+01  2.202970E+04
       428  25 -6.653271E+05 -8.780129E+04 -5.695042E+04  5.719440E+04 -7.691576E+03  2.977860E+04
       428  26 -6.159085E+05 -7.646852E+04 -4.959946E+04  5.255117E+04 -7.796577E+03  2.590753E+04
       428  27 -5.665374E+05 -6.510310E+04 -4.232192E+04  5.735146E+04 -7.900739E+03  2.201230E+04
       429   1 -2.879777E+04  5.841633E+04  3.732091E+04  5.831285E+04 -7.832496E+03 -1.977275E+04
       429   2 -7.821323E+04  4.706656E+04  3.007198E+04  5.349713E+04 -7.781243E+03 -1.586868E+04
       429   3 -1.276750E+05  3.575781E+04  2.278428E+04  5.813290E+04 -7.730469E+03 -1.196905E+04
       429   4 -2.821098E+05  2.617522E+02 -9.089976E+01  5.785983E+04  4.208620E+01 -1.975495E+04
       429   5 -2.820832E+05  2.484938E+02 -1.028417E+02  5.313399E+04  8.416002E+01 -1.585041E+04
       429   6 -2.821030E+05  2.781097E+02 -1.471305E+02  5.785981E+04  1.257584E+02 -1.195030E+04
       429   7 -5.353572E+05 -5.789579E+04 -3.750363E+04  5.740697E+04  7.913587E+03 -1.973716E+04
       429   8 -4.859112E+05 -4.657148E+04 -3.027820E+04  5.277095E+04  7.947085E+03 -1.583214E+04
       429   9 -4.365069E+05 -3.520267E+04 -2.307876E+04  5.758678E+04  7.980110E+03 -1.193155E+04
       429  10 -2.879794E+04  5.841589E+04  3.732006E+04  5.831272E+04  1.366957E-08  1.229025E-09
       429  11 -7.821336E+04  4.706627E+04  3.007140E+04  5.349703E+04  2.573700E-09 -2.193549E-09
       429  12 -1.276751E+05  3.575764E+04  2.278390E+04  5.813283E+04 -3.139668E-09 -1.364023E-09
       429  13 -2.821099E+05  2.613332E+02 -9.163304E+01  5.785983E+04 -7.568641E-10  6.435381E-09
       429  14 -2.820832E+05  2.482240E+02 -1.033137E+02  5.313399E+04  7.880501E-10 -1.300903E-09
       429  15 -2.821030E+05  2.779564E+02 -1.473988E+02  5.785981E+04 -5.304588E-10 -2.817536E-09
       429  16 -5.353573E+05 -5.789622E+04 -3.750448E+04  5.740710E+04 -1.281027E-08  1.721567E-09
       429  17 -4.859113E+05 -4.657177E+04 -3.027879E+04  5.277105E+04 -3.495730E-09 -2.975837E-09
       429  18 -4.365070E+05 -3.520284E+04 -2.307914E+04  5.758686E+04  2.893417E-09 -2.360233E-09
       429  19 -2.879777E+04  5.841633E+04  3.732091E+04  5.831285E+04  7.832496E+03  1.977275E+04
       429  20 -7.821323E+04  4.706656E+04  3.007198E+04  5.349713E+04  7.781243E+03  1.586868E+04
       429  21 -1.276750E+05  3.575781E+04  2.278428E+04  5.813290E+04  7.730469E+03  1.196905E+04
       429  22 -2.821098E+05  2.617522E+02 -9.089976E+01  5.785983E+04 -4.208620E+01  1.975495E+04
       429  23 -2.820832E+05  2.484938E+02 -1.028417E+02  5.313399E+04 -8.416002E+01  1.585041E+04
       429  24 -2.821030E+05  2.781097E+02 -1.471305E+02  5.785981E+04 -1.257584E+02  1.195030E+04
       429  25 -5.353572E+05 -5.789579E+04 -3.750363E+04  5.740697E+04 -7.913587E+03  1.973716E+04
       429  26 -4.859112E+05 -4.657148E+04 -3.027820E+04  5.277095E+04 -7.947085E+03  1.583214E+04
       429  27 -4.365069E+05 -3.520267E+04 -2.307876E+04  5.758678E+04 -7.980110E+03  1.193155E+04
       430   1 -1.588836E+05  2.855503E+04  1.792440E+04  5.806968E+04 -7.707918E+03 -9.697714E+03
       430   2 -2.082868E+05  1.718552E+04  1.050956E+04  5.325355E+04 -7.426099E+03 -5.832233E+03
       430   3 -2.577811E+05  5.811349E+03  2.893285E+03  5.788626E+04 -7.144321E+03 -2.034585E+03
       430   4 -2.821065E+05  2.817706E+02 -1.856584E+02  5.785918E+04  1.502406E+02 -9.678760E+03
       430   5 -2.820704E+05  2.603698E+02 -3.106798E+02  5.313477E+04  2.950210E+02 -5.813433E+03
       430   6 -2.821041E+05  2.581574E+02 -5.421114E+02  5.785924E+04  4.397824E+02 -2.015944E+03
       430   7 -4.053140E+05 -2.799216E+04 -1.829576E+04  5.764871E+04  8.006903E+03 -9.659808E+03
       430   8 -3.558484E+05 -1.666500E+04 -1.113079E+04  5.301599E+04  8.015261E+03 -5.794634E+03
       430   9 -3.064264E+05 -5.295030E+03 -3.977299E+03  5.783223E+04  8.023602E+03 -1.997303E+03
       430  10 -1.588837E+05  2.855491E+04  1.792411E+04  5.806962E+04  6.285574E-08  3.910627E-09
       430  11 -2.082869E+05  1.718547E+04  1.050939E+04  5.325352E+04 -2.856142E-09  2.639814E-09
       430  12 -2.577811E+05  5.811331E+03  2.893181E+03  5.788625E+04 -6.290229E-08  2.509564E-09
       430  13 -2.821066E+05  2.816700E+02 -1.858345E+02  5.785918E+04 -1.055524E-09  5.967623E-10
       430  14 -2.820704E+05  2.603335E+02 -3.107435E+02  5.313477E+04 -6.588651E-10  1.744221E-09
       430  15 -2.821041E+05  2.581530E+02 -5.421194E+02  5.785925E+04 -9.124645E-10  1.973171E-09
       430  16 -4.053141E+05 -2.799228E+04 -1.829605E+04  5.764877E+04 -6.134249E-08  3.032802E-09
       430  17 -3.558485E+05 -1.666506E+04 -1.113098E+04  5.301603E+04  2.463391E-09 -4.474895E-09
       430  18 -3.064264E+05 -5.295052E+03 -3.977428E+03  5.783224E+04  6.375438E-08 -1.527119E-09
       430  19 -1.588836E+05  2.855503E+04  1.792440E+04  5.806968E+04  7.707918E+03  9.697714E+03
       430  20 -2.082868E+05  1.718552E+04  1.050956E+04  5.325355E+04  7.426099E+03  5.832233E+03
       430  21 -2.577811E+05  5.811349E+03  2.893285E+03  5.788626E+04  7.144321E+03  2.034585E+03
       430  22 -2.821065E+05  2.817706E+02 -1.856584E+02  5.785918E+04 -1.502406E+02  9.678760E+03
       430  23 -2.820704E+05  2.603698E+02 -3.106798E+02  5.313477E+04 -2.950210E+02  5.813433E+03
       430  24 -2.821041E+05  2.581574E+02 -5.421114E+02  5.785924E+04 -4.397824E+02  2.015944E+03
       430  25 -4.053140E+05 -2.799216E+04 -1.829576E+04  5.764871E+04 -8.006903E+03  9.659808E+03
       430  26 -3.558484E+05 -1.666500E+04 -1.113079E+04  5.301599E+04 -8.015261E+03  5.794634E+03
       430  27 -3.064264E+05 -5.295030E+03 -3.977299E+03  5.783223E+04 -8.023602E+03  1.997303E+03
       431   1 -2.890518E+05 -1.422319E+03 -2.183869E+03  5.777427E+04 -7.055841E+03  1.806932E+02
       431   2 -3.382880E+05 -1.301207E+04 -1.052172E+04  5.317950E+04 -5.206971E+03  3.651200E+03
       431   3 -3.879528E+05 -2.514274E+04 -2.021513E+04  5.799165E+04 -3.356751E+03  6.513028E+03
       431   4 -2.821371E+05  2.553620E+02 -7.145565E+02  5.784973E+04  5.422579E+02  1.993817E+02
       431   5 -2.820288E+05  9.545774E+01 -1.260932E+03  5.314708E+04  1.164275E+03  3.666763E+03
       431   6 -2.821391E+05 -3.923587E+02 -2.310849E+03  5.785130E+04  1.787798E+03  6.525494E+03
       431   7 -2.752221E+05  1.933071E+03  7.549705E+02  5.792519E+04  8.140441E+03  2.180719E+02
       431   8 -2.257663E+05  1.320285E+04  7.999913E+03  5.311466E+04  7.536078E+03  3.682324E+03
       431   9 -1.763143E+05  2.435744E+04  1.559318E+04  5.771092E+04  6.933196E+03  6.537957E+03
       431  10 -2.890519E+05 -1.422332E+03 -2.183963E+03  5.777427E+04 -5.038854E-09  6.499086E-09
       431  11 -3.382881E+05 -1.301209E+04 -1.052179E+04  5.317952E+04 -2.863675E-09  7.296367E-10
       431  12 -3.879529E+05 -2.514278E+04 -2.021523E+04  5.799167E+04  5.760440E-09  3.735704E-09
       431  13 -2.821371E+05  2.553619E+02 -7.145571E+02  5.784973E+04 -1.067907E-11  2.792152E-09
       431  14 -2.820288E+05  9.544294E+01 -1.260959E+03  5.314708E+04  8.972088E-10  1.410478E-09
       431  15 -2.821391E+05 -3.924053E+02 -2.310935E+03  5.785129E+04  2.907337E-10 -5.839681E-10
       431  16 -2.752222E+05  1.933053E+03  7.548459E+02  5.792519E+04  6.852675E-09  3.626076E-10
       431  17 -2.257663E+05  1.320282E+04  7.999781E+03  5.311464E+04  2.474499E-09  1.530953E-10
       431  18 -1.763143E+05  2.435738E+04  1.559301E+04  5.771088E+04 -5.752557E-09 -6.599769E-09
       431  19 -2.890518E+05 -1.422319E+03 -2.183869E+03  5.777427E+04  7.055841E+03 -1.806932E+02
       431  20 -3.382880E+05 -1.301207E+04 -1.052172E+04  5.317950E+04  5.206971E+03 -3.651200E+03
       431  21 -3.879528E+05 -2.514274E+04 -2.021513E+04  5.799165E+04  3.356751E+03 -6.513028E+03
       431  22 -2.821371E+05  2.553620E+02 -7.145565E+02  5.784973E+04 -5.422579E+02 -1.993817E+02
       431  23 -2.820288E+05  9.545774E+01 -1.260932E+03  5.314708E+04 -1.164275E+03 -3.666763E+03
       431  24 -2.821391E+05 -3.923587E+02 -2.310849E+03  5.785130E+04 -1.787798E+03 -6.525494E+03
       431  25 -2.752221E+05  1.933071E+03  7.549705E+02  5.792519E+04 -8.140441E+03 -2.180719E+02
       431  26 -2.257663E+05  1.320285E+04  7.999913E+03  5.311466E+04 -7.536078E+03 -3.682324E+03
       431  27 -1.763143E+05  2.435744E+04  1.559318E+04  5.771092E+04 -6.933196E+03 -6.537957E+03
       432   1 -4.198033E+05 -3.270588E+04 -2.661762E+04  5.738446E+04 -3.088693E+03  8.221237E+03
       432   2 -4.674942E+05 -4.716422E+04 -4.145052E+04  5.631127E+04  1.072277E+04  8.160354E+03
       432   3 -5.187840E+05 -6.862798E+04 -6.704109E+04  6.426773E+04  2.454545E+04  2.680475E+03
       432   4 -2.824703E+05 -5.172246E+02 -3.070316E+03  5.776532E+04  2.180909E+03  8.233885E+03
       432   5 -2.816225E+05 -2.830735E+03 -5.642930E+03  5.326204E+04  5.074697E+03  8.146541E+03
       432   6 -2.824778E+05 -1.025190E+04 -1.138700E+04  5.778849E+04  7.980744E+03  2.640794E+03
       432   7 -1.451187E+05  3.167044E+04  2.047646E+04  5.814626E+04  7.451640E+03  8.246539E+03
       432   8 -9.571753E+04  4.150075E+04  3.016319E+04  5.021185E+04 -5.750296E+02  8.132786E+03
       432   9 -4.611942E+04  4.812050E+04  4.426430E+04  5.130673E+04 -8.590239E+03  2.601468E+03
       432  10 -4.198034E+05 -3.270596E+04 -2.661776E+04  5.738448E+04 -4.886677E-09  3.934114E-09
       432  11 -4.674944E+05 -4.716432E+04 -4.145086E+04  5.631120E+04 -4.102023E-09 -1.950561E-09
       432  12 -5.187847E+05 -6.862815E+04 -6.704224E+04  6.426767E+04  2.528571E-09 -3.775633E-10
       432  13 -2.824703E+05 -5.172987E+02 -3.070452E+03  5.776531E+04 -2.061568E-10  4.327538E-09
       432  14 -2.816226E+05 -2.830813E+03 -5.643103E+03  5.326201E+04  2.401022E-11 -2.799855E-09
       432  15 -2.824778E+05 -1.025193E+04 -1.138714E+04  5.778847E+04 -6.505313E-10  2.623487E-09
       432  16 -1.451188E+05  3.167035E+04  2.047622E+04  5.814622E+04  6.839436E-09 -6.396195E-10
       432  17 -9.571755E+04  4.150068E+04  3.016307E+04  5.021186E+04  2.774815E-09  2.190876E-09
       432  18 -4.611950E+04  4.812047E+04  4.426415E+04  5.130675E+04 -1.839768E-09 -2.655056E-10
       432  19 -4.198033E+05 -3.270588E+04 -2.661762E+04  5.738446E+04  3.088693E+03 -8.221237E+03
       432  20 -4.674942E+05 -4.716422E+04 -4.145052E+04  5.631127E+04 -1.072277E+04 -8.160354E+03
       432  21 -5.187840E+05 -6.862798E+04 -6.704109E+04  6.426773E+04 -2.454545E+04 -2.680475E+03
       432  22 -2.824703E+05 -5.172246E+02 -3.070316E+03  5.776532E+04 -2.180909E+03 -8.233885E+03
       432  23 -2.816225E+05 -2.830735E+03 -5.642930E+03  5.326204E+04 -5.074697E+03 -8.146541E+03
       432  24 -2.824778E+05 -1.025190E+04 -1.138700E+04  5.778849E+04 -7.980744E+03 -2.640794E+03
       432  25 -1.451187E+05  3.167044E+04  2.047646E+04  5.814626E+04 -7.451640E+03 -8.246539E+03
       432  26 -9.571753E+04  4.150075E+04  3.016319E+04  5.021185E+04  5.750296E+02 -8.132786E+03
       432  27 -4.611942E+04  4.812050E+04  4.426430E+04  5.130673E+04  8.590239E+03 -2.601468E+03
       433   1 -5.300786E+05  1.251912E+03 -3.821379E+04 -2.048103E+04 -1.150248E+05 -4.913696E+03
       433   2 -5.347689E+05  1.559699E+05  5.199966E+04 -9.897243E+03 -7.753926E+04 -1.401053E+04
       433   3 -5.890371E+05  1.305511E+05  7.285708E+04  2.943372E+04 -4.008336E+04 -1.253637E+04
       433   4 -1.087261E+06 -1.377366E+05 -1.764371E+05  1.301815E+04 -1.205033E+05 -4.933637E+03
       433   5 -1.062061E+06  2.478716E+04 -7.648022E+04 -1.538371E+03 -7.899500E+04 -1.401659E+04
       433   6 -1.087184E+06  6.390194E+03 -4.872040E+04  1.265407E+04 -3.751422E+04 -1.252765E+04
       433   7 -1.644158E+06 -2.767442E+05 -3.146828E+05  4.648705E+04 -1.259769E+05 -4.954181E+03
       433   8 -1.589099E+06 -1.064158E+05 -2.049802E+05  6.813199E+03 -8.044948E+04 -1.402270E+04
       433   9 -1.585103E+06 -1.177881E+05 -1.703158E+05 -4.112249E+03 -3.494712E+04 -1.251905E+04
       433  10 -5.300928E+05  1.248330E+03 -3.823872E+04 -2.048149E+04 -2.534097E-09  1.104926E-09
       433  11 -5.347755E+05  1.559680E+05  5.198798E+04 -9.898118E+03  2.779429E-09  1.131132E-08
       433  12 -5.890389E+05  1.305505E+05  7.285376E+04  2.943332E+04 -7.124316E-10  6.980132E-09
       433  13 -1.087276E+06 -1.377406E+05 -1.764645E+05  1.301767E+04  2.330482E-10 -5.744061E-09
       433  14 -1.062068E+06  2.478527E+04 -7.649233E+04 -1.539263E+03  1.416088E-09 -5.463457E-09
       433  15 -1.087185E+06  6.389647E+03 -4.872335E+04  1.265369E+04 -7.914891E-10  8.174168E-10
       433  16 -1.644175E+06 -2.767485E+05 -3.147128E+05  4.648655E+04  2.868981E-09  1.470177E-09
       433  17 -1.589106E+06 -1.064177E+05 -2.049928E+05  6.812290E+03 -4.250926E-09  9.446173E-09
       433  18 -1.585105E+06 -1.177886E+05 -1.703184E+05 -4.112601E+03  3.289095E-10 -1.080740E-10
       433  19 -5.300786E+05  1.251912E+03 -3.821379E+04 -2.048103E+04  1.150248E+05  4.913696E+03
       433  20 -5.347689E+05  1.559699E+05  5.199966E+04 -9.897243E+03  7.753926E+04  1.401053E+04
       433  21 -5.890371E+05  1.305511E+05  7.285708E+04  2.943372E+04  4.008336E+04  1.253637E+04
       433  22 -1.087261E+06 -1.377366E+05 -1.764371E+05  1.301815E+04  1.205033E+05  4.933637E+03
       433  23 -1.062061E+06  2.478716E+04 -7.648022E+04 -1.538371E+03  7.899500E+04  1.401659E+04
       433  24 -1.087184E+06  6.390194E+03 -4.872040E+04  1.265407E+04  3.751422E+04  1.252765E+04
       433  25 -1.644158E+06 -2.767442E+05 -3.146828E+05  4.648705E+04  1.259769E+05  4.954181E+03
       433  26 -1.589099E+06 -1.064158E+05 -2.049802E+05  6.813199E+03  8.044948E+04  1.402270E+04
       433  27 -1.585103E+06 -1.177881E+05 -1.703158E+05 -4.112249E+03  3.494712E+04  1.251905E+04
       434   1 -6.382006E+05  9.248066E+04  6.737613E+04  1.069720E+04 -2.962843E+04 -1.028466E+04
       434   2 -6.672969E+05  1.043525E+05  7.939622E+04 -2.256725E+03 -1.976683E+04 -1.010206E+04
       434   3 -7.031759E+05  9.414887E+04  7.947931E+04  1.660000E+04 -9.910923E+03 -8.819026E+03
       434   4 -1.077528E+06 -1.691588E+04 -4.000852E+04  1.350093E+04 -2.976842E+04 -1.028580E+04
       434   5 -1.074090E+06  3.063184E+03 -1.989164E+04 -2.436762E+03 -1.949112E+04 -1.010147E+04
       434   6 -1.077513E+06  8.861642E+02 -1.200703E+04  1.343772E+04 -9.218996E+03 -8.816489E+03
       434   7 -1.516679E+06 -1.263267E+05 -1.474073E+05  1.630251E+04 -2.990830E+04 -1.028694E+04
       434   8 -1.480731E+06 -9.823835E+04 -1.191916E+05 -2.616823E+03 -1.921558E+04 -1.010088E+04
       434   9 -1.451722E+06 -9.238689E+04 -1.035036E+05  1.027722E+04 -8.527484E+03 -8.813958E+03
       434  10 -6.382016E+05  9.248031E+04  6.737428E+04  1.069696E+04 -2.162941E-09 -1.690886E-09
       434  11 -6.672974E+05  1.043523E+05  7.939529E+04 -2.256886E+03  4.782702E-09  5.313994E-09
       434  12 -7.031760E+05  9.414876E+04  7.947898E+04  1.659993E+04  4.246931E-09  1.061021E-08
       434  13 -1.077529E+06 -1.691623E+04 -4.001039E+04  1.350068E+04 -1.817924E-10  1.134754E-08
       434  14 -1.074090E+06  3.062972E+03 -1.989255E+04 -2.436921E+03  2.150422E-09 -2.176257E-08
       434  15 -1.077513E+06  8.860580E+02 -1.200734E+04  1.343765E+04 -5.443828E-10  1.178695E-08
       434  16 -1.516680E+06 -1.263270E+05 -1.474092E+05  1.630227E+04  5.126251E-09 -1.136692E-08
       434  17 -1.480732E+06 -9.823855E+04 -1.191925E+05 -2.616979E+03 -5.492085E-09 -6.005052E-09
       434  18 -1.451722E+06 -9.238699E+04 -1.035039E+05  1.027716E+04 -5.808549E-09  5.594656E-10
       434  19 -6.382006E+05  9.248066E+04  6.737613E+04  1.069720E+04  2.962843E+04  1.028466E+04
       434  20 -6.672969E+05  1.043525E+05  7.939622E+04 -2.256725E+03  1.976683E+04  1.010206E+04
       434  21 -7.031759E+05  9.414887E+04  7.947931E+04  1.660000E+04  9.910923E+03  8.819026E+03
       434  22 -1.077528E+06 -1.691588E+04 -4.000852E+04  1.350093E+04  2.976842E+04  1.028580E+04
       434  23 -1.074090E+06  3.063184E+03 -1.989164E+04 -2.436762E+03  1.949112E+04  1.010147E+04
       434  24 -1.077513E+06  8.861642E+02 -1.200703E+04  1.343772E+04  9.218996E+03  8.816489E+03
       434  25 -1.516679E+06 -1.263267E+05 -1.474073E+05  1.630251E+04  2.990830E+04  1.028694E+04
       434  26 -1.480731E+06 -9.823835E+04 -1.191916E+05 -2.616823E+03  1.921558E+04  1.010088E+04
       434  27 -1.451722E+06 -9.238689E+04 -1.035036E+05  1.027722E+04  8.527484E+03  8.813958E+03
       435   1 -7.660197E+05  7.527557E+04  6.615637E+04  1.455307E+04 -7.731148E+03 -7.930891E+03
       435   2 -8.002113E+05  6.896483E+04  6.211491E+04 -2.221641E+03 -5.200711E+03 -6.760674E+03
       435   3 -8.355784E+05  6.020601E+04  5.576332E+04  1.507578E+04 -2.671903E+03 -5.449054E+03
       435   4 -1.076240E+06 -1.963931E+03 -9.503085E+03  1.396754E+04 -7.311071E+03 -7.929357E+03
       435   5 -1.075645E+06  3.679841E+02 -5.131160E+03 -3.073770E+03 -4.727558E+03 -6.758750E+03
       435   6 -1.076236E+06  2.420129E+02 -3.106961E+03  1.395800E+04 -2.145531E+03 -5.446710E+03
       435   7 -1.386373E+06 -7.921054E+04 -8.516954E+04  1.338221E+04 -6.891203E+03 -7.927823E+03
       435   8 -1.351010E+06 -6.823447E+04 -7.238276E+04 -3.925597E+03 -4.254613E+03 -6.756826E+03
       435   9 -1.316841E+06 -5.972627E+04 -6.198147E+04  1.284060E+04 -1.619363E+03 -5.444368E+03
       435  10 -7.660198E+05  7.527549E+04  6.615613E+04  1.455302E+04  3.985787E-09 -5.725249E-09
       435  11 -8.002113E+05  6.896477E+04  6.211477E+04 -2.221670E+03  5.585710E-09 -8.535047E-09
       435  12 -8.355785E+05  6.020597E+04  5.576325E+04  1.507577E+04  1.078698E-09 -7.202363E-09
       435  13 -1.076240E+06 -1.964013E+03 -9.503304E+03  1.396750E+04  5.239723E-10 -2.537871E-10
       435  14 -1.075645E+06  3.679291E+02 -5.131288E+03 -3.073796E+03 -1.041444E-09 -1.130845E-08
       435  15 -1.076236E+06  2.419798E+02 -3.107026E+03  1.395799E+04  1.783352E-10 -3.372374E-09
       435  16 -1.386373E+06 -7.921062E+04 -8.516975E+04  1.338217E+04 -5.777535E-10 -7.724557E-09
       435  17 -1.351010E+06 -6.823453E+04 -7.238288E+04 -3.925620E+03 -5.122905E-09  5.474908E-09
       435  18 -1.316841E+06 -5.972630E+04 -6.198153E+04  1.284059E+04 -1.678637E-09  1.446137E-08
       435  19 -7.660197E+05  7.527557E+04  6.615637E+04  1.455307E+04  7.731148E+03  7.930891E+03
       435  20 -8.002113E+05  6.896483E+04  6.211491E+04 -2.221641E+03  5.200711E+03  6.760674E+03
       435  21 -8.355784E+05  6.020601E+04  5.576332E+04  1.507578E+04  2.671903E+03  5.449054E+03
       435  22 -1.076240E+06 -1.963931E+03 -9.503085E+03  1.396754E+04  7.311071E+03  7.929357E+03
       435  23 -1.075645E+06  3.679841E+02 -5.131160E+03 -3.073770E+03  4.727558E+03  6.758750E+03
       435  24 -1.076236E+06  2.420129E+02 -3.106961E+03  1.395800E+04  2.145531E+03  5.446710E+03
       435  25 -1.386373E+06 -7.921054E+04 -8.516954E+04  1.338221E+04  6.891203E+03  7.927823E+03
       435  26 -1.351010E+06 -6.823447E+04 -7.238276E+04 -3.925597E+03  4.254613E+03  6.756826E+03
       435  27 -1.316841E+06 -5.972627E+04 -6.198147E+04  1.284060E+04  1.619363E+03  5.444368E+03
       436   1 -9.030979E+05  4.296189E+04  3.963756E+04  1.485177E+04 -2.145633E+03 -4.665290E+03
       436   2 -9.390220E+05  3.411935E+04  3.178447E+04 -2.953541E+03 -1.355790E+03 -3.349499E+03
       436   3 -9.754555E+05  2.523573E+04  2.332295E+04  1.468061E+04 -5.666064E+02 -2.005645E+03
       436   4 -1.076078E+06 -1.010041E+02 -2.491759E+03  1.426572E+04 -1.647483E+03 -4.662981E+03
       436   5 -1.075822E+06  4.546827E+01 -1.618431E+03 -3.454850E+03 -8.470831E+02 -3.347055E+03
       436   6 -1.076077E+06  1.490575E+02 -1.360917E+03  1.426452E+04 -4.729612E+01 -2.003058E+03
       436   7 -1.249032E+06 -4.316611E+04 -4.462325E+04  1.367980E+04 -1.149471E+03 -4.660672E+03
       436   8 -1.212604E+06 -3.402980E+04 -3.502269E+04 -3.956068E+03 -3.384876E+02 -3.344611E+03
       436   9 -1.176690E+06 -2.493837E+04 -2.604552E+04  1.384849E+04  4.719301E+02 -2.000472E+03
       436  10 -9.030979E+05  4.296187E+04  3.963751E+04  1.485176E+04  2.255299E-09 -1.499393E-08
       436  11 -9.390220E+05  3.411934E+04  3.178444E+04 -2.953545E+03  2.651794E-09  1.819051E-09
       436  12 -9.754555E+05  2.523573E+04  2.332294E+04  1.468061E+04 -5.470072E-09 -2.371528E-09
       436  13 -1.076078E+06 -1.010281E+02 -2.491805E+03  1.426571E+04 -5.214920E-10  1.108395E-11
       436  14 -1.075822E+06  4.545605E+01 -1.618453E+03 -3.454852E+03 -1.037965E-09 -1.326888E-08
       436  15 -1.076077E+06  1.490532E+02 -1.360924E+03  1.426452E+04  4.514567E-10 -8.732557E-09
       436  16 -1.249032E+06 -4.316613E+04 -4.462330E+04  1.367980E+04  3.270806E-10  7.465015E-09
       436  17 -1.212604E+06 -3.402981E+04 -3.502271E+04 -3.956069E+03 -4.251590E-09  1.406020E-08
       436  18 -1.176690E+06 -2.493838E+04 -2.604553E+04  1.384849E+04  5.008041E-09  2.249692E-09
       436  19 -9.030979E+05  4.296189E+04  3.963756E+04  1.485177E+04  2.145633E+03  4.665290E+03
       436  20 -9.390220E+05  3.411935E+04  3.178447E+04 -2.953541E+03  1.355790E+03  3.349499E+03
       436  21 -9.754555E+05  2.523573E+04  2.332295E+04  1.468061E+04  5.666064E+02  2.005645E+03
       436  22 -1.076078E+06 -1.010041E+02 -2.491759E+03  1.426572E+04  1.647483E+03  4.662981E+03
       436  23 -1.075822E+06  4.546827E+01 -1.618431E+03 -3.454850E+03  8.470831E+02  3.347055E+03
       436  24 -1.076077E+06  1.490575E+02 -1.360917E+03  1.426452E+04  4.729612E+01  2.003058E+03
       436  25 -1.249032E+06 -4.316611E+04 -4.462325E+04  1.367980E+04  1.149471E+03  4.660672E+03
       436  26 -1.212604E+06 -3.402980E+04 -3.502269E+04 -3.956068E+03  3.384876E+02  3.344611E+03
       436  27 -1.176690E+06 -2.493837E+04 -2.604552E+04  1.384849E+04 -4.719301E+02  2.000472E+03
       437   1 -1.044902E+06  7.896121E+03  6.116962E+03  1.443873E+04 -3.222516E+02 -1.215624E+03
       437   2 -1.081235E+06 -1.299458E+03 -3.063716E+03 -3.598144E+03  5.402886E+02  1.361479E+02
       437   3 -1.118146E+06 -1.056495E+04 -1.291877E+04  1.424315E+04  1.402824E+03  1.479819E+03
       437   4 -1.076090E+06  1.505161E+02 -1.385673E+03  1.436186E+04  1.960445E+02 -1.213009E+03
       437   5 -1.075800E+06  5.440040E+01 -1.736655E+03 -3.576551E+03  1.055462E+03  1.387405E+02
       437   6 -1.076090E+06 -1.111203E+02 -2.759874E+03  1.436318E+04  1.914926E+03  1.482395E+03
       437   7 -1.107276E+06 -7.595160E+03 -8.888377E+03  1.428499E+04  7.143147E+02 -1.210395E+03
       437   8 -1.070365E+06  1.408256E+03 -4.095951E+02 -3.554959E+03  1.570640E+03  1.413332E+02
       437   9 -1.034032E+06  1.034258E+04  7.398894E+03  1.448322E+04  2.427062E+03  1.484971E+03
       437  10 -1.044902E+06  7.896120E+03  6.116959E+03  1.443873E+04 -9.083830E-09 -1.311504E-09
       437  11 -1.081235E+06 -1.299458E+03 -3.063716E+03 -3.598144E+03  3.182910E-09 -6.841648E-09
       437  12 -1.118146E+06 -1.056496E+04 -1.291878E+04  1.424314E+04 -4.991800E-09 -6.571487E-09
       437  13 -1.076090E+06  1.505145E+02 -1.385676E+03  1.436186E+04 -1.378695E-09  8.866033E-09
       437  14 -1.075800E+06  5.440008E+01 -1.736657E+03 -3.576551E+03 -1.860781E-09 -1.555890E-09
       437  15 -1.076090E+06 -1.111236E+02 -2.759885E+03  1.436318E+04 -1.787685E-10 -1.194228E-08
       437  16 -1.107276E+06 -7.595162E+03 -8.888380E+03  1.428499E+04  1.176986E-08 -4.651695E-09
       437  17 -1.070365E+06  1.408256E+03 -4.095998E+02 -3.554959E+03 -1.695942E-09 -2.313149E-08
       437  18 -1.034032E+06  1.034258E+04  7.398879E+03  1.448322E+04  3.872275E-09 -1.765286E-08
       437  19 -1.044902E+06  7.896121E+03  6.116962E+03  1.443873E+04  3.222516E+02  1.215624E+03
       437  20 -1.081235E+06 -1.299458E+03 -3.063716E+03 -3.598144E+03 -5.402886E+02 -1.361479E+02
       437  21 -1.118146E+06 -1.056495E+04 -1.291877E+04  1.424315E+04 -1.402824E+03 -1.479819E+03
       437  22 -1.076090E+06  1.505161E+02 -1.385673E+03  1.436186E+04 -1.960445E+02  1.213009E+03
       437  23 -1.075800E+06  5.440040E+01 -1.736655E+03 -3.576551E+03 -1.055462E+03 -1.387405E+02
       437  24 -1.076090E+06 -1.111203E+02 -2.759874E+03  1.436318E+04 -1.914926E+03 -1.482395E+03
       437  25 -1.107276E+06 -7.595160E+03 -8.888377E+03  1.428499E+04 -7.143147E+02  1.210395E+03
       437  26 -1.070365E+06  1.408256E+03 -4.095951E+02 -3.554959E+03 -1.570640E+03 -1.413332E+02
       437  27 -1.034032E+06  1.034258E+04  7.398894E+03  1.448322E+04 -2.427062E+03 -1.484971E+03
       438   1 -1.187698E+06 -2.751145E+04 -3.079273E+04  1.352868E+04  1.935744E+03  2.280456E+03
       438   2 -1.223068E+06 -3.631834E+04 -4.177734E+04 -3.893484E+03  4.873626E+03  3.635372E+03
       438   3 -1.259905E+06 -4.791022E+04 -5.545584E+04  1.405723E+04  7.812387E+03  4.885273E+03
       438   4 -1.076289E+06  2.688664E+02 -3.471602E+03  1.424599E+04  2.470139E+03  2.283107E+03
       438   5 -1.075560E+06  4.276735E+02 -5.755379E+03 -3.434295E+03  5.368368E+03  3.637728E+03
       438   6 -1.076293E+06 -2.190904E+03 -1.070471E+04  1.425778E+04  8.267645E+03  4.887347E+03
       438   7 -9.648682E+05  2.804827E+04  2.384862E+04  1.496342E+04  3.004628E+03  2.285758E+03
       438   8 -9.280325E+05  3.717208E+04  3.026500E+04 -2.975021E+03  5.863227E+03  3.640085E+03
       438   9 -8.926490E+05  4.352592E+04  3.404398E+04  1.445836E+04  8.723037E+03  4.889422E+03
       438  10 -1.187698E+06 -2.751146E+04 -3.079275E+04  1.352867E+04 -9.399535E-09 -4.246644E-09
       438  11 -1.223068E+06 -3.631836E+04 -4.177741E+04 -3.893499E+03  5.727971E-09 -1.479730E-08
       438  12 -1.259905E+06 -4.791026E+04 -5.545600E+04  1.405720E+04  6.024035E-09 -5.607290E-09
       438  13 -1.076289E+06  2.688591E+02 -3.471623E+03  1.424598E+04 -1.110730E-09 -4.198984E-09
       438  14 -1.075560E+06  4.276516E+02 -5.755458E+03 -3.434311E+03 -1.885869E-09 -6.599879E-09
       438  15 -1.076293E+06 -2.190948E+03 -1.070488E+04  1.425775E+04 -6.317336E-10 -4.389446E-10
       438  16 -9.648683E+05  2.804826E+04  2.384859E+04  1.496341E+04  9.994905E-09  3.287987E-09
       438  17 -9.280325E+05  3.717206E+04  3.026491E+04 -2.975038E+03 -4.624198E-09 -6.170941E-09
       438  18 -8.926491E+05  4.352587E+04  3.404379E+04  1.445832E+04 -6.349685E-09  1.569687E-08
       438  19 -1.187698E+06 -2.751145E+04 -3.079273E+04  1.352868E+04 -1.935744E+03 -2.280456E+03
       438  20 -1.223068E+06 -3.631834E+04 -4.177734E+04 -3.893484E+03 -4.873626E+03 -3.635372E+03
       438  21 -1.259905E+06 -4.791022E+04 -5.545584E+04  1.405723E+04 -7.812387E+03 -4.885273E+03
       438  22 -1.076289E+06  2.688664E+02 -3.471602E+03  1.424599E+04 -2.470139E+03 -2.283107E+03
       438  23 -1.075560E+06  4.276735E+02 -5.755379E+03 -3.434295E+03 -5.368368E+03 -3.637728E+03
       438  24 -1.076293E+06 -2.190904E+03 -1.070471E+04  1.425778E+04 -8.267645E+03 -4.887347E+03
       438  25 -9.648682E+05  2.804827E+04  2.384862E+04  1.496342E+04 -3.004628E+03 -2.285758E+03
       438  26 -9.280325E+05  3.717208E+04  3.026500E+04 -2.975021E+03 -5.863227E+03 -3.640085E+03
       438  27 -8.926490E+05  4.352592E+04  3.404398E+04  1.445836E+04 -8.723037E+03 -4.889422E+03
       439   1 -1.328780E+06 -6.157237E+04 -7.495197E+04  1.077502E+04  9.741592E+03  5.784011E+03
       439   2 -1.359426E+06 -6.767690E+04 -9.215464E+04 -2.887849E+03  2.165432E+04  7.150823E+03
       439   3 -1.398106E+06 -9.881650E+04 -1.234313E+05  1.742620E+04  3.357102E+04  7.621991E+03
       439   4 -1.077746E+06  1.015426E+03 -1.353666E+04  1.391141E+04  1.041914E+04  5.787063E+03
       439   5 -1.073768E+06  3.475477E+03 -2.240688E+04 -3.033836E+03  2.199325E+04  7.152077E+03
       439   6 -1.077762E+06 -1.903402E+04 -4.511063E+04  1.399702E+04  3.357199E+04  7.621504E+03
       439   7 -8.266541E+05  6.359858E+04  4.787405E+04  1.704902E+04  1.109696E+04  5.790121E+03
       439   8 -7.880352E+05  7.462182E+04  4.733493E+04 -3.179972E+03  2.233233E+04  7.153330E+03
       439   9 -7.573247E+05  6.074092E+04  3.320253E+04  1.056598E+04  3.357295E+04  7.621017E+03
       439  10 -1.328780E+06 -6.157243E+04 -7.495222E+04  1.077497E+04  1.084078E-08 -2.672855E-09
       439  11 -1.359426E+06 -6.767708E+04 -9.215562E+04 -2.887974E+03  5.317227E-09  2.503003E-09
       439  12 -1.398107E+06 -9.881687E+04 -1.234335E+05  1.742599E+04 -2.983449E-09 -7.912630E-09
       439  13 -1.077746E+06  1.015361E+03 -1.353692E+04  1.391137E+04  2.416976E-10 -1.001281E-08
       439  14 -1.073768E+06  3.475292E+03 -2.240789E+04 -3.033962E+03 -2.065819E-09  3.385149E-09
       439  15 -1.077764E+06 -1.903438E+04 -4.511286E+04  1.399682E+04 -1.449592E-10  2.260782E-09
       439  16 -8.266542E+05  6.359851E+04  4.787376E+04  1.704897E+04 -8.216689E-09 -1.142148E-09
       439  17 -7.880358E+05  7.462163E+04  4.733390E+04 -3.180100E+03 -6.774088E-09 -2.272600E-08
       439  18 -7.573260E+05  6.074055E+04  3.320030E+04  1.056577E+04  2.291395E-09  2.908783E-09
       439  19 -1.328780E+06 -6.157237E+04 -7.495197E+04  1.077502E+04 -9.741592E+03 -5.784011E+03
       439  20 -1.359426E+06 -6.767690E+04 -9.215464E+04 -2.887849E+03 -2.165432E+04 -7.150823E+03
       439  21 -1.398106E+06 -9.881650E+04 -1.234313E+05  1.742620E+04 -3.357102E+04 -7.621991E+03
       439  22 -1.077746E+06  1.015426E+03 -1.353666E+04  1.391141E+04 -1.041914E+04 -5.787063E+03
       439  23 -1.073768E+06  3.475477E+03 -2.240688E+04 -3.033836E+03 -2.199325E+04 -7.152077E+03
       439  24 -1.077762E+06 -1.903402E+04 -4.511063E+04  1.399702E+04 -3.357199E+04 -7.621504E+03
       439  25 -8.266541E+05  6.359858E+04  4.787405E+04  1.704902E+04 -1.109696E+04 -5.790121E+03
       439  26 -7.880352E+05  7.462182E+04  4.733493E+04 -3.179972E+03 -2.233233E+04 -7.153330E+03
       439  27 -7.573247E+05  6.074092E+04  3.320253E+04  1.056598E+04 -3.357295E+04 -7.621017E+03
       440   1 -1.472639E+06 -8.859922E+04 -1.487389E+05 -5.412649E+03  4.008671E+04  9.640416E+03
       440   2 -1.476345E+06 -7.556935E+04 -1.876500E+05  7.144530E+03  9.014231E+04  1.125567E+04
       440   3 -1.537738E+06 -2.671778E+05 -3.103587E+05  5.158768E+04  1.402255E+05  4.203536E+03
       440   4 -1.088666E+06  7.241463E+03 -5.493770E+04  1.328726E+04  4.230830E+04  9.650189E+03
       440   5 -1.060171E+06  2.798189E+04 -8.620248E+04 -2.374036E+03  8.906794E+04  1.124965E+04
       440   6 -1.088753E+06 -1.552720E+05 -1.989333E+05  1.385234E+04  1.358582E+05  4.179705E+03
       440   7 -7.045576E+05  1.030725E+05  3.885291E+04  3.199865E+04  4.453125E+04  9.660093E+03
       440   8 -6.438383E+05  1.315207E+05  1.523249E+04 -1.189916E+04  8.799285E+04  1.124366E+04
       440   9 -6.395802E+05 -4.337573E+04 -8.752203E+04 -2.391052E+04  1.314877E+05  4.156417E+03
       440  10 -1.472641E+06 -8.859976E+04 -1.487421E+05 -5.412961E+03  9.737553E-10 -7.321719E-09
       440  11 -1.476354E+06 -7.557167E+04 -1.876655E+05  7.143712E+03  5.718996E-09  1.908719E-09
       440  12 -1.537759E+06 -2.671831E+05 -3.103958E+05  5.158721E+04  1.936479E-09  1.023286E-08
       440  13 -1.088668E+06  7.240881E+03 -5.494124E+04  1.328693E+04  1.150584E-11  7.802861E-09
       440  14 -1.060180E+06  2.797962E+04 -8.621765E+04 -2.374843E+03 -1.007425E-09  5.731147E-09
       440  15 -1.088772E+06 -1.552769E+05 -1.989680E+05  1.385188E+04 -3.443130E-10  2.408468E-09
       440  16 -7.045598E+05  1.030718E+05  3.884901E+04  3.199830E+04  1.163021E-09  1.459514E-08
       440  17 -6.438467E+05  1.315185E+05  1.521768E+04 -1.189995E+04 -6.146424E-09  1.575493E-08
       440  18 -6.395988E+05 -4.338040E+04 -8.755458E+04 -2.391097E+04 -3.521366E-09  8.181134E-10
       440  19 -1.472639E+06 -8.859922E+04 -1.487389E+05 -5.412649E+03 -4.008671E+04 -9.640416E+03
       440  20 -1.476345E+06 -7.556935E+04 -1.876500E+05  7.144530E+03 -9.014231E+04 -1.125567E+04
       440  21 -1.537738E+06 -2.671778E+05 -3.103587E+05  5.158768E+04 -1.402255E+05 -4.203536E+03
       440  22 -1.088666E+06  7.241463E+03 -5.493770E+04  1.328726E+04 -4.230830E+04 -9.650189E+03
       440  23 -1.060171E+06  2.798189E+04 -8.620248E+04 -2.374036E+03 -8.906794E+04 -1.124965E+04
       440  24 -1.088753E+06 -1.552720E+05 -1.989333E+05  1.385234E+04 -1.358582E+05 -4.179705E+03
       440  25 -7.045576E+05  1.030725E+05  3.885291E+04  3.199865E+04 -4.453125E+04 -9.660093E+03
       440  26 -6.438383E+05  1.315207E+05  1.523249E+04 -1.189916E+04 -8.799285E+04 -1.124366E+04
       440  27 -6.395802E+05 -4.337573E+04 -8.752203E+04 -2.391052E+04 -1.314877E+05 -4.156417E+03
