    1C
    1UUSER                                                              
    1UDATE              11.october.2022                                 
    1UTIME              17:43:53                                        
    1UHOST                                                              
    1UPGM               CalculiX                                        
    1UVERSION           Version 2.20                             
    1UCOMPILETIME       Sun Jul 31 18:08:37 CEST 2022                    
    1UDIR                                                               
    1UDBN                                                               
    1UMAT    1MESH_MATERIAL                                             
    2C                           841                                     1
 -1         1 0.00000E+00 0.00000E+00 0.00000E+00
 -1         2 1.66667E-02 0.00000E+00 0.00000E+00
 -1         3 3.33333E-02 0.00000E+00 0.00000E+00
 -1         4 5.00000E-02 0.00000E+00 0.00000E+00
 -1         5 6.66667E-02 0.00000E+00 0.00000E+00
 -1         8 0.00000E+00 6.25000E-03 0.00000E+00
 -1         9 1.66667E-02 6.25000E-03 0.00000E+00
 -1        10 3.33333E-02 6.25000E-03 0.00000E+00
 -1        11 5.00000E-02 6.25000E-03 0.00000E+00
 -1        12 6.66667E-02 6.25000E-03 0.00000E+00
 -1        15 0.00000E+00 1.25000E-02 0.00000E+00
 -1        16 1.66667E-02 1.25000E-02 0.00000E+00
 -1        17 3.33333E-02 1.25000E-02 0.00000E+00
 -1        18 5.00000E-02 1.25000E-02 0.00000E+00
 -1        19 6.66667E-02 1.25000E-02 0.00000E+00
 -1        20 8.33333E-02 1.25000E-02 0.00000E+00
 -1        21 1.00000E-01 1.25000E-02 0.00000E+00
 -1        22 0.00000E+00 1.87500E-02 0.00000E+00
 -1        23 1.66667E-02 1.87500E-02 0.00000E+00
 -1        24 3.33333E-02 1.87500E-02 0.00000E+00
 -1        25 5.00000E-02 1.87500E-02 0.00000E+00
 -1        26 6.66667E-02 1.87500E-02 0.00000E+00
 -1        27 8.33333E-02 1.87500E-02 0.00000E+00
 -1        28 1.00000E-01 1.87500E-02 0.00000E+00
 -1        29 0.00000E+00 2.50000E-02 0.00000E+00
 -1        30 1.66667E-02 2.50000E-02 0.00000E+00
 -1        31 3.33333E-02 2.50000E-02 0.00000E+00
 -1        32 5.00000E-02 2.50000E-02 0.00000E+00
 -1        33 6.66667E-02 2.50000E-02 0.00000E+00
 -1        34 8.33333E-02 2.50000E-02 0.00000E+00
 -1        35 1.00000E-01 2.50000E-02 0.00000E+00
 -1        36 1.04167E-03 0.00000E+00 0.00000E+00
 -1        37 2.08333E-03 0.00000E+00 0.00000E+00
 -1        38 3.12500E-03 0.00000E+00 0.00000E+00
 -1        39 4.16667E-03 0.00000E+00 0.00000E+00
 -1        40 5.20833E-03 0.00000E+00 0.00000E+00
 -1        41 6.25000E-03 0.00000E+00 0.00000E+00
 -1        42 7.29167E-03 0.00000E+00 0.00000E+00
 -1        43 8.33333E-03 0.00000E+00 0.00000E+00
 -1        44 9.37500E-03 0.00000E+00 0.00000E+00
 -1        45 1.04167E-02 0.00000E+00 0.00000E+00
 -1        46 1.14583E-02 0.00000E+00 0.00000E+00
 -1        47 1.25000E-02 0.00000E+00 0.00000E+00
 -1        48 1.35417E-02 0.00000E+00 0.00000E+00
 -1        49 1.45833E-02 0.00000E+00 0.00000E+00
 -1        50 1.56250E-02 0.00000E+00 0.00000E+00
 -1        51 0.00000E+00 1.04167E-03 0.00000E+00
 -1        52 0.00000E+00 2.08333E-03 0.00000E+00
 -1        53 0.00000E+00 3.12500E-03 0.00000E+00
 -1        54 0.00000E+00 4.16667E-03 0.00000E+00
 -1        55 0.00000E+00 5.20833E-03 0.00000E+00
 -1        56 1.04167E-03 3.90630E-04 0.00000E+00
 -1        57 2.08333E-03 7.81250E-04 0.00000E+00
 -1        58 3.12500E-03 1.17188E-03 0.00000E+00
 -1        59 4.16667E-03 1.56250E-03 0.00000E+00
 -1        60 5.20833E-03 1.95312E-03 0.00000E+00
 -1        61 6.25000E-03 2.34375E-03 0.00000E+00
 -1        62 7.29167E-03 2.73438E-03 0.00000E+00
 -1        63 8.33333E-03 3.12500E-03 0.00000E+00
 -1        64 9.37500E-03 3.51563E-03 0.00000E+00
 -1        65 1.04167E-02 3.90625E-03 0.00000E+00
 -1        66 1.14583E-02 4.29688E-03 0.00000E+00
 -1        67 1.25000E-02 4.68750E-03 0.00000E+00
 -1        68 1.35417E-02 5.07813E-03 0.00000E+00
 -1        69 1.45833E-02 5.46875E-03 0.00000E+00
 -1        70 1.56250E-02 5.85938E-03 0.00000E+00
 -1        71 1.77083E-02 0.00000E+00 0.00000E+00
 -1        72 1.87500E-02 0.00000E+00 0.00000E+00
 -1        73 1.97917E-02 0.00000E+00 0.00000E+00
 -1        74 2.08333E-02 0.00000E+00 0.00000E+00
 -1        75 2.18750E-02 0.00000E+00 0.00000E+00
 -1        76 2.29167E-02 0.00000E+00 0.00000E+00
 -1        77 2.39583E-02 0.00000E+00 0.00000E+00
 -1        78 2.50000E-02 0.00000E+00 0.00000E+00
 -1        79 2.60417E-02 0.00000E+00 0.00000E+00
 -1        80 2.70833E-02 0.00000E+00 0.00000E+00
 -1        81 2.81250E-02 0.00000E+00 0.00000E+00
 -1        82 2.91667E-02 0.00000E+00 0.00000E+00
 -1        83 3.02083E-02 0.00000E+00 0.00000E+00
 -1        84 3.12500E-02 0.00000E+00 0.00000E+00
 -1        85 3.22917E-02 0.00000E+00 0.00000E+00
 -1        86 1.66667E-02 1.04167E-03 0.00000E+00
 -1        87 1.66667E-02 2.08333E-03 0.00000E+00
 -1        88 1.66667E-02 3.12500E-03 0.00000E+00
 -1        89 1.66667E-02 4.16667E-03 0.00000E+00
 -1        90 1.66667E-02 5.20833E-03 0.00000E+00
 -1        91 1.77083E-02 3.90630E-04 0.00000E+00
 -1        92 1.87500E-02 7.81250E-04 0.00000E+00
 -1        93 1.97917E-02 1.17188E-03 0.00000E+00
 -1        94 2.08333E-02 1.56250E-03 0.00000E+00
 -1        95 2.18750E-02 1.95312E-03 0.00000E+00
 -1        96 2.29167E-02 2.34375E-03 0.00000E+00
 -1        97 2.39583E-02 2.73438E-03 0.00000E+00
 -1        98 2.50000E-02 3.12500E-03 0.00000E+00
 -1        99 2.60417E-02 3.51563E-03 0.00000E+00
 -1       100 2.70833E-02 3.90625E-03 0.00000E+00
 -1       101 2.81250E-02 4.29688E-03 0.00000E+00
 -1       102 2.91667E-02 4.68750E-03 0.00000E+00
 -1       103 3.02083E-02 5.07813E-03 0.00000E+00
 -1       104 3.12500E-02 5.46875E-03 0.00000E+00
 -1       105 3.22917E-02 5.85938E-03 0.00000E+00
 -1       106 3.43750E-02 0.00000E+00 0.00000E+00
 -1       107 3.54167E-02 0.00000E+00 0.00000E+00
 -1       108 3.64583E-02 0.00000E+00 0.00000E+00
 -1       109 3.75000E-02 0.00000E+00 0.00000E+00
 -1       110 3.85417E-02 0.00000E+00 0.00000E+00
 -1       111 3.95833E-02 0.00000E+00 0.00000E+00
 -1       112 4.06250E-02 0.00000E+00 0.00000E+00
 -1       113 4.16667E-02 0.00000E+00 0.00000E+00
 -1       114 4.27083E-02 0.00000E+00 0.00000E+00
 -1       115 4.37500E-02 0.00000E+00 0.00000E+00
 -1       116 4.47917E-02 0.00000E+00 0.00000E+00
 -1       117 4.58333E-02 0.00000E+00 0.00000E+00
 -1       118 4.68750E-02 0.00000E+00 0.00000E+00
 -1       119 4.79167E-02 0.00000E+00 0.00000E+00
 -1       120 4.89583E-02 0.00000E+00 0.00000E+00
 -1       121 3.33333E-02 1.04167E-03 0.00000E+00
 -1       122 3.33333E-02 2.08333E-03 0.00000E+00
 -1       123 3.33333E-02 3.12500E-03 0.00000E+00
 -1       124 3.33333E-02 4.16667E-03 0.00000E+00
 -1       125 3.33333E-02 5.20833E-03 0.00000E+00
 -1       126 3.43750E-02 3.90630E-04 0.00000E+00
 -1       127 3.54167E-02 7.81250E-04 0.00000E+00
 -1       128 3.64583E-02 1.17188E-03 0.00000E+00
 -1       129 3.75000E-02 1.56250E-03 0.00000E+00
 -1       130 3.85417E-02 1.95312E-03 0.00000E+00
 -1       131 3.95833E-02 2.34375E-03 0.00000E+00
 -1       132 4.06250E-02 2.73438E-03 0.00000E+00
 -1       133 4.16667E-02 3.12500E-03 0.00000E+00
 -1       134 4.27083E-02 3.51563E-03 0.00000E+00
 -1       135 4.37500E-02 3.90625E-03 0.00000E+00
 -1       136 4.47917E-02 4.29688E-03 0.00000E+00
 -1       137 4.58333E-02 4.68750E-03 0.00000E+00
 -1       138 4.68750E-02 5.07813E-03 0.00000E+00
 -1       139 4.79167E-02 5.46875E-03 0.00000E+00
 -1       140 4.89583E-02 5.85938E-03 0.00000E+00
 -1       141 5.10417E-02 0.00000E+00 0.00000E+00
 -1       142 5.20833E-02 0.00000E+00 0.00000E+00
 -1       143 5.31250E-02 0.00000E+00 0.00000E+00
 -1       144 5.41667E-02 0.00000E+00 0.00000E+00
 -1       145 5.52083E-02 0.00000E+00 0.00000E+00
 -1       146 5.62500E-02 0.00000E+00 0.00000E+00
 -1       147 5.72917E-02 0.00000E+00 0.00000E+00
 -1       148 5.83333E-02 0.00000E+00 0.00000E+00
 -1       149 5.93750E-02 0.00000E+00 0.00000E+00
 -1       150 6.04167E-02 0.00000E+00 0.00000E+00
 -1       151 6.14583E-02 0.00000E+00 0.00000E+00
 -1       152 6.25000E-02 0.00000E+00 0.00000E+00
 -1       153 6.35417E-02 0.00000E+00 0.00000E+00
 -1       154 6.45833E-02 0.00000E+00 0.00000E+00
 -1       155 6.56250E-02 0.00000E+00 0.00000E+00
 -1       156 5.00000E-02 1.04167E-03 0.00000E+00
 -1       157 5.00000E-02 2.08333E-03 0.00000E+00
 -1       158 5.00000E-02 3.12500E-03 0.00000E+00
 -1       159 5.00000E-02 4.16667E-03 0.00000E+00
 -1       160 5.00000E-02 5.20833E-03 0.00000E+00
 -1       161 5.10417E-02 3.90630E-04 0.00000E+00
 -1       162 5.20833E-02 7.81250E-04 0.00000E+00
 -1       163 5.31250E-02 1.17188E-03 0.00000E+00
 -1       164 5.41667E-02 1.56250E-03 0.00000E+00
 -1       165 5.52083E-02 1.95312E-03 0.00000E+00
 -1       166 5.62500E-02 2.34375E-03 0.00000E+00
 -1       167 5.72917E-02 2.73438E-03 0.00000E+00
 -1       168 5.83333E-02 3.12500E-03 0.00000E+00
 -1       169 5.93750E-02 3.51563E-03 0.00000E+00
 -1       170 6.04167E-02 3.90625E-03 0.00000E+00
 -1       171 6.14583E-02 4.29688E-03 0.00000E+00
 -1       172 6.25000E-02 4.68750E-03 0.00000E+00
 -1       173 6.35417E-02 5.07813E-03 0.00000E+00
 -1       174 6.45833E-02 5.46875E-03 0.00000E+00
 -1       175 6.56250E-02 5.85938E-03 0.00000E+00
 -1       191 6.66667E-02 1.04167E-03 0.00000E+00
 -1       192 6.66667E-02 2.08333E-03 0.00000E+00
 -1       193 6.66667E-02 3.12500E-03 0.00000E+00
 -1       194 6.66667E-02 4.16667E-03 0.00000E+00
 -1       195 6.66667E-02 5.20833E-03 0.00000E+00
 -1       251 1.04167E-03 6.25000E-03 0.00000E+00
 -1       252 2.08333E-03 6.25000E-03 0.00000E+00
 -1       253 3.12500E-03 6.25000E-03 0.00000E+00
 -1       254 4.16667E-03 6.25000E-03 0.00000E+00
 -1       255 5.20833E-03 6.25000E-03 0.00000E+00
 -1       256 6.25000E-03 6.25000E-03 0.00000E+00
 -1       257 7.29167E-03 6.25000E-03 0.00000E+00
 -1       258 8.33333E-03 6.25000E-03 0.00000E+00
 -1       259 9.37500E-03 6.25000E-03 0.00000E+00
 -1       260 1.04167E-02 6.25000E-03 0.00000E+00
 -1       261 1.14583E-02 6.25000E-03 0.00000E+00
 -1       262 1.25000E-02 6.25000E-03 0.00000E+00
 -1       263 1.35417E-02 6.25000E-03 0.00000E+00
 -1       264 1.45833E-02 6.25000E-03 0.00000E+00
 -1       265 1.56250E-02 6.25000E-03 0.00000E+00
 -1       266 0.00000E+00 7.29167E-03 0.00000E+00
 -1       267 0.00000E+00 8.33333E-03 0.00000E+00
 -1       268 0.00000E+00 9.37500E-03 0.00000E+00
 -1       269 0.00000E+00 1.04167E-02 0.00000E+00
 -1       270 0.00000E+00 1.14583E-02 0.00000E+00
 -1       271 1.04167E-03 6.64063E-03 0.00000E+00
 -1       272 2.08333E-03 7.03125E-03 0.00000E+00
 -1       273 3.12500E-03 7.42188E-03 0.00000E+00
 -1       274 4.16667E-03 7.81250E-03 0.00000E+00
 -1       275 5.20833E-03 8.20313E-03 0.00000E+00
 -1       276 6.25000E-03 8.59375E-03 0.00000E+00
 -1       277 7.29167E-03 8.98438E-03 0.00000E+00
 -1       278 8.33333E-03 9.37500E-03 0.00000E+00
 -1       279 9.37500E-03 9.76562E-03 0.00000E+00
 -1       280 1.04167E-02 1.01562E-02 0.00000E+00
 -1       281 1.14583E-02 1.05469E-02 0.00000E+00
 -1       282 1.25000E-02 1.09375E-02 0.00000E+00
 -1       283 1.35417E-02 1.13281E-02 0.00000E+00
 -1       284 1.45833E-02 1.17188E-02 0.00000E+00
 -1       285 1.56250E-02 1.21094E-02 0.00000E+00
 -1       286 1.77083E-02 6.25000E-03 0.00000E+00
 -1       287 1.87500E-02 6.25000E-03 0.00000E+00
 -1       288 1.97917E-02 6.25000E-03 0.00000E+00
 -1       289 2.08333E-02 6.25000E-03 0.00000E+00
 -1       290 2.18750E-02 6.25000E-03 0.00000E+00
 -1       291 2.29167E-02 6.25000E-03 0.00000E+00
 -1       292 2.39583E-02 6.25000E-03 0.00000E+00
 -1       293 2.50000E-02 6.25000E-03 0.00000E+00
 -1       294 2.60417E-02 6.25000E-03 0.00000E+00
 -1       295 2.70833E-02 6.25000E-03 0.00000E+00
 -1       296 2.81250E-02 6.25000E-03 0.00000E+00
 -1       297 2.91667E-02 6.25000E-03 0.00000E+00
 -1       298 3.02083E-02 6.25000E-03 0.00000E+00
 -1       299 3.12500E-02 6.25000E-03 0.00000E+00
 -1       300 3.22917E-02 6.25000E-03 0.00000E+00
 -1       301 1.66667E-02 7.29167E-03 0.00000E+00
 -1       302 1.66667E-02 8.33333E-03 0.00000E+00
 -1       303 1.66667E-02 9.37500E-03 0.00000E+00
 -1       304 1.66667E-02 1.04167E-02 0.00000E+00
 -1       305 1.66667E-02 1.14583E-02 0.00000E+00
 -1       306 1.77083E-02 6.64063E-03 0.00000E+00
 -1       307 1.87500E-02 7.03125E-03 0.00000E+00
 -1       308 1.97917E-02 7.42188E-03 0.00000E+00
 -1       309 2.08333E-02 7.81250E-03 0.00000E+00
 -1       310 2.18750E-02 8.20313E-03 0.00000E+00
 -1       311 2.29167E-02 8.59375E-03 0.00000E+00
 -1       312 2.39583E-02 8.98438E-03 0.00000E+00
 -1       313 2.50000E-02 9.37500E-03 0.00000E+00
 -1       314 2.60417E-02 9.76562E-03 0.00000E+00
 -1       315 2.70833E-02 1.01562E-02 0.00000E+00
 -1       316 2.81250E-02 1.05469E-02 0.00000E+00
 -1       317 2.91667E-02 1.09375E-02 0.00000E+00
 -1       318 3.02083E-02 1.13281E-02 0.00000E+00
 -1       319 3.12500E-02 1.17188E-02 0.00000E+00
 -1       320 3.22917E-02 1.21094E-02 0.00000E+00
 -1       321 3.43750E-02 6.25000E-03 0.00000E+00
 -1       322 3.54167E-02 6.25000E-03 0.00000E+00
 -1       323 3.64583E-02 6.25000E-03 0.00000E+00
 -1       324 3.75000E-02 6.25000E-03 0.00000E+00
 -1       325 3.85417E-02 6.25000E-03 0.00000E+00
 -1       326 3.95833E-02 6.25000E-03 0.00000E+00
 -1       327 4.06250E-02 6.25000E-03 0.00000E+00
 -1       328 4.16667E-02 6.25000E-03 0.00000E+00
 -1       329 4.27083E-02 6.25000E-03 0.00000E+00
 -1       330 4.37500E-02 6.25000E-03 0.00000E+00
 -1       331 4.47917E-02 6.25000E-03 0.00000E+00
 -1       332 4.58333E-02 6.25000E-03 0.00000E+00
 -1       333 4.68750E-02 6.25000E-03 0.00000E+00
 -1       334 4.79167E-02 6.25000E-03 0.00000E+00
 -1       335 4.89583E-02 6.25000E-03 0.00000E+00
 -1       336 3.33333E-02 7.29167E-03 0.00000E+00
 -1       337 3.33333E-02 8.33333E-03 0.00000E+00
 -1       338 3.33333E-02 9.37500E-03 0.00000E+00
 -1       339 3.33333E-02 1.04167E-02 0.00000E+00
 -1       340 3.33333E-02 1.14583E-02 0.00000E+00
 -1       341 3.43750E-02 6.64063E-03 0.00000E+00
 -1       342 3.54167E-02 7.03125E-03 0.00000E+00
 -1       343 3.64583E-02 7.42188E-03 0.00000E+00
 -1       344 3.75000E-02 7.81250E-03 0.00000E+00
 -1       345 3.85417E-02 8.20313E-03 0.00000E+00
 -1       346 3.95833E-02 8.59375E-03 0.00000E+00
 -1       347 4.06250E-02 8.98438E-03 0.00000E+00
 -1       348 4.16667E-02 9.37500E-03 0.00000E+00
 -1       349 4.27083E-02 9.76562E-03 0.00000E+00
 -1       350 4.37500E-02 1.01562E-02 0.00000E+00
 -1       351 4.47917E-02 1.05469E-02 0.00000E+00
 -1       352 4.58333E-02 1.09375E-02 0.00000E+00
 -1       353 4.68750E-02 1.13281E-02 0.00000E+00
 -1       354 4.79167E-02 1.17188E-02 0.00000E+00
 -1       355 4.89583E-02 1.21094E-02 0.00000E+00
 -1       356 5.10417E-02 6.25000E-03 0.00000E+00
 -1       357 5.20833E-02 6.25000E-03 0.00000E+00
 -1       358 5.31250E-02 6.25000E-03 0.00000E+00
 -1       359 5.41667E-02 6.25000E-03 0.00000E+00
 -1       360 5.52083E-02 6.25000E-03 0.00000E+00
 -1       361 5.62500E-02 6.25000E-03 0.00000E+00
 -1       362 5.72917E-02 6.25000E-03 0.00000E+00
 -1       363 5.83333E-02 6.25000E-03 0.00000E+00
 -1       364 5.93750E-02 6.25000E-03 0.00000E+00
 -1       365 6.04167E-02 6.25000E-03 0.00000E+00
 -1       366 6.14583E-02 6.25000E-03 0.00000E+00
 -1       367 6.25000E-02 6.25000E-03 0.00000E+00
 -1       368 6.35417E-02 6.25000E-03 0.00000E+00
 -1       369 6.45833E-02 6.25000E-03 0.00000E+00
 -1       370 6.56250E-02 6.25000E-03 0.00000E+00
 -1       371 5.00000E-02 7.29167E-03 0.00000E+00
 -1       372 5.00000E-02 8.33333E-03 0.00000E+00
 -1       373 5.00000E-02 9.37500E-03 0.00000E+00
 -1       374 5.00000E-02 1.04167E-02 0.00000E+00
 -1       375 5.00000E-02 1.14583E-02 0.00000E+00
 -1       376 5.10417E-02 6.64063E-03 0.00000E+00
 -1       377 5.20833E-02 7.03125E-03 0.00000E+00
 -1       378 5.31250E-02 7.42188E-03 0.00000E+00
 -1       379 5.41667E-02 7.81250E-03 0.00000E+00
 -1       380 5.52083E-02 8.20313E-03 0.00000E+00
 -1       381 5.62500E-02 8.59375E-03 0.00000E+00
 -1       382 5.72917E-02 8.98438E-03 0.00000E+00
 -1       383 5.83333E-02 9.37500E-03 0.00000E+00
 -1       384 5.93750E-02 9.76562E-03 0.00000E+00
 -1       385 6.04167E-02 1.01562E-02 0.00000E+00
 -1       386 6.14583E-02 1.05469E-02 0.00000E+00
 -1       387 6.25000E-02 1.09375E-02 0.00000E+00
 -1       388 6.35417E-02 1.13281E-02 0.00000E+00
 -1       389 6.45833E-02 1.17188E-02 0.00000E+00
 -1       390 6.56250E-02 1.21094E-02 0.00000E+00
 -1       406 6.66667E-02 7.29167E-03 0.00000E+00
 -1       407 6.66667E-02 8.33333E-03 0.00000E+00
 -1       408 6.66667E-02 9.37500E-03 0.00000E+00
 -1       409 6.66667E-02 1.04167E-02 0.00000E+00
 -1       410 6.66667E-02 1.14583E-02 0.00000E+00
 -1       466 1.04167E-03 1.25000E-02 0.00000E+00
 -1       467 2.08333E-03 1.25000E-02 0.00000E+00
 -1       468 3.12500E-03 1.25000E-02 0.00000E+00
 -1       469 4.16667E-03 1.25000E-02 0.00000E+00
 -1       470 5.20833E-03 1.25000E-02 0.00000E+00
 -1       471 6.25000E-03 1.25000E-02 0.00000E+00
 -1       472 7.29167E-03 1.25000E-02 0.00000E+00
 -1       473 8.33333E-03 1.25000E-02 0.00000E+00
 -1       474 9.37500E-03 1.25000E-02 0.00000E+00
 -1       475 1.04167E-02 1.25000E-02 0.00000E+00
 -1       476 1.14583E-02 1.25000E-02 0.00000E+00
 -1       477 1.25000E-02 1.25000E-02 0.00000E+00
 -1       478 1.35417E-02 1.25000E-02 0.00000E+00
 -1       479 1.45833E-02 1.25000E-02 0.00000E+00
 -1       480 1.56250E-02 1.25000E-02 0.00000E+00
 -1       481 0.00000E+00 1.35417E-02 0.00000E+00
 -1       482 0.00000E+00 1.45833E-02 0.00000E+00
 -1       483 0.00000E+00 1.56250E-02 0.00000E+00
 -1       484 0.00000E+00 1.66667E-02 0.00000E+00
 -1       485 0.00000E+00 1.77083E-02 0.00000E+00
 -1       486 1.04167E-03 1.28906E-02 0.00000E+00
 -1       487 2.08333E-03 1.32813E-02 0.00000E+00
 -1       488 3.12500E-03 1.36719E-02 0.00000E+00
 -1       489 4.16667E-03 1.40625E-02 0.00000E+00
 -1       490 5.20833E-03 1.44531E-02 0.00000E+00
 -1       491 6.25000E-03 1.48437E-02 0.00000E+00
 -1       492 7.29167E-03 1.52344E-02 0.00000E+00
 -1       493 8.33333E-03 1.56250E-02 0.00000E+00
 -1       494 9.37500E-03 1.60156E-02 0.00000E+00
 -1       495 1.04167E-02 1.64062E-02 0.00000E+00
 -1       496 1.14583E-02 1.67969E-02 0.00000E+00
 -1       497 1.25000E-02 1.71875E-02 0.00000E+00
 -1       498 1.35417E-02 1.75781E-02 0.00000E+00
 -1       499 1.45833E-02 1.79687E-02 0.00000E+00
 -1       500 1.56250E-02 1.83594E-02 0.00000E+00
 -1       501 1.77083E-02 1.25000E-02 0.00000E+00
 -1       502 1.87500E-02 1.25000E-02 0.00000E+00
 -1       503 1.97917E-02 1.25000E-02 0.00000E+00
 -1       504 2.08333E-02 1.25000E-02 0.00000E+00
 -1       505 2.18750E-02 1.25000E-02 0.00000E+00
 -1       506 2.29167E-02 1.25000E-02 0.00000E+00
 -1       507 2.39583E-02 1.25000E-02 0.00000E+00
 -1       508 2.50000E-02 1.25000E-02 0.00000E+00
 -1       509 2.60417E-02 1.25000E-02 0.00000E+00
 -1       510 2.70833E-02 1.25000E-02 0.00000E+00
 -1       511 2.81250E-02 1.25000E-02 0.00000E+00
 -1       512 2.91667E-02 1.25000E-02 0.00000E+00
 -1       513 3.02083E-02 1.25000E-02 0.00000E+00
 -1       514 3.12500E-02 1.25000E-02 0.00000E+00
 -1       515 3.22917E-02 1.25000E-02 0.00000E+00
 -1       516 1.66667E-02 1.35417E-02 0.00000E+00
 -1       517 1.66667E-02 1.45833E-02 0.00000E+00
 -1       518 1.66667E-02 1.56250E-02 0.00000E+00
 -1       519 1.66667E-02 1.66667E-02 0.00000E+00
 -1       520 1.66667E-02 1.77083E-02 0.00000E+00
 -1       521 1.77083E-02 1.28906E-02 0.00000E+00
 -1       522 1.87500E-02 1.32813E-02 0.00000E+00
 -1       523 1.97917E-02 1.36719E-02 0.00000E+00
 -1       524 2.08333E-02 1.40625E-02 0.00000E+00
 -1       525 2.18750E-02 1.44531E-02 0.00000E+00
 -1       526 2.29167E-02 1.48437E-02 0.00000E+00
 -1       527 2.39583E-02 1.52344E-02 0.00000E+00
 -1       528 2.50000E-02 1.56250E-02 0.00000E+00
 -1       529 2.60417E-02 1.60156E-02 0.00000E+00
 -1       530 2.70833E-02 1.64062E-02 0.00000E+00
 -1       531 2.81250E-02 1.67969E-02 0.00000E+00
 -1       532 2.91667E-02 1.71875E-02 0.00000E+00
 -1       533 3.02083E-02 1.75781E-02 0.00000E+00
 -1       534 3.12500E-02 1.79687E-02 0.00000E+00
 -1       535 3.22917E-02 1.83594E-02 0.00000E+00
 -1       536 3.43750E-02 1.25000E-02 0.00000E+00
 -1       537 3.54167E-02 1.25000E-02 0.00000E+00
 -1       538 3.64583E-02 1.25000E-02 0.00000E+00
 -1       539 3.75000E-02 1.25000E-02 0.00000E+00
 -1       540 3.85417E-02 1.25000E-02 0.00000E+00
 -1       541 3.95833E-02 1.25000E-02 0.00000E+00
 -1       542 4.06250E-02 1.25000E-02 0.00000E+00
 -1       543 4.16667E-02 1.25000E-02 0.00000E+00
 -1       544 4.27083E-02 1.25000E-02 0.00000E+00
 -1       545 4.37500E-02 1.25000E-02 0.00000E+00
 -1       546 4.47917E-02 1.25000E-02 0.00000E+00
 -1       547 4.58333E-02 1.25000E-02 0.00000E+00
 -1       548 4.68750E-02 1.25000E-02 0.00000E+00
 -1       549 4.79167E-02 1.25000E-02 0.00000E+00
 -1       550 4.89583E-02 1.25000E-02 0.00000E+00
 -1       551 3.33333E-02 1.35417E-02 0.00000E+00
 -1       552 3.33333E-02 1.45833E-02 0.00000E+00
 -1       553 3.33333E-02 1.56250E-02 0.00000E+00
 -1       554 3.33333E-02 1.66667E-02 0.00000E+00
 -1       555 3.33333E-02 1.77083E-02 0.00000E+00
 -1       556 3.43750E-02 1.28906E-02 0.00000E+00
 -1       557 3.54167E-02 1.32813E-02 0.00000E+00
 -1       558 3.64583E-02 1.36719E-02 0.00000E+00
 -1       559 3.75000E-02 1.40625E-02 0.00000E+00
 -1       560 3.85417E-02 1.44531E-02 0.00000E+00
 -1       561 3.95833E-02 1.48437E-02 0.00000E+00
 -1       562 4.06250E-02 1.52344E-02 0.00000E+00
 -1       563 4.16667E-02 1.56250E-02 0.00000E+00
 -1       564 4.27083E-02 1.60156E-02 0.00000E+00
 -1       565 4.37500E-02 1.64062E-02 0.00000E+00
 -1       566 4.47917E-02 1.67969E-02 0.00000E+00
 -1       567 4.58333E-02 1.71875E-02 0.00000E+00
 -1       568 4.68750E-02 1.75781E-02 0.00000E+00
 -1       569 4.79167E-02 1.79687E-02 0.00000E+00
 -1       570 4.89583E-02 1.83594E-02 0.00000E+00
 -1       571 5.10417E-02 1.25000E-02 0.00000E+00
 -1       572 5.20833E-02 1.25000E-02 0.00000E+00
 -1       573 5.31250E-02 1.25000E-02 0.00000E+00
 -1       574 5.41667E-02 1.25000E-02 0.00000E+00
 -1       575 5.52083E-02 1.25000E-02 0.00000E+00
 -1       576 5.62500E-02 1.25000E-02 0.00000E+00
 -1       577 5.72917E-02 1.25000E-02 0.00000E+00
 -1       578 5.83333E-02 1.25000E-02 0.00000E+00
 -1       579 5.93750E-02 1.25000E-02 0.00000E+00
 -1       580 6.04167E-02 1.25000E-02 0.00000E+00
 -1       581 6.14583E-02 1.25000E-02 0.00000E+00
 -1       582 6.25000E-02 1.25000E-02 0.00000E+00
 -1       583 6.35417E-02 1.25000E-02 0.00000E+00
 -1       584 6.45833E-02 1.25000E-02 0.00000E+00
 -1       585 6.56250E-02 1.25000E-02 0.00000E+00
 -1       586 5.00000E-02 1.35417E-02 0.00000E+00
 -1       587 5.00000E-02 1.45833E-02 0.00000E+00
 -1       588 5.00000E-02 1.56250E-02 0.00000E+00
 -1       589 5.00000E-02 1.66667E-02 0.00000E+00
 -1       590 5.00000E-02 1.77083E-02 0.00000E+00
 -1       591 5.10417E-02 1.28906E-02 0.00000E+00
 -1       592 5.20833E-02 1.32813E-02 0.00000E+00
 -1       593 5.31250E-02 1.36719E-02 0.00000E+00
 -1       594 5.41667E-02 1.40625E-02 0.00000E+00
 -1       595 5.52083E-02 1.44531E-02 0.00000E+00
 -1       596 5.62500E-02 1.48437E-02 0.00000E+00
 -1       597 5.72917E-02 1.52344E-02 0.00000E+00
 -1       598 5.83333E-02 1.56250E-02 0.00000E+00
 -1       599 5.93750E-02 1.60156E-02 0.00000E+00
 -1       600 6.04167E-02 1.64062E-02 0.00000E+00
 -1       601 6.14583E-02 1.67969E-02 0.00000E+00
 -1       602 6.25000E-02 1.71875E-02 0.00000E+00
 -1       603 6.35417E-02 1.75781E-02 0.00000E+00
 -1       604 6.45833E-02 1.79687E-02 0.00000E+00
 -1       605 6.56250E-02 1.83594E-02 0.00000E+00
 -1       606 6.77083E-02 1.25000E-02 0.00000E+00
 -1       607 6.87500E-02 1.25000E-02 0.00000E+00
 -1       608 6.97917E-02 1.25000E-02 0.00000E+00
 -1       609 7.08333E-02 1.25000E-02 0.00000E+00
 -1       610 7.18750E-02 1.25000E-02 0.00000E+00
 -1       611 7.29167E-02 1.25000E-02 0.00000E+00
 -1       612 7.39583E-02 1.25000E-02 0.00000E+00
 -1       613 7.50000E-02 1.25000E-02 0.00000E+00
 -1       614 7.60417E-02 1.25000E-02 0.00000E+00
 -1       615 7.70833E-02 1.25000E-02 0.00000E+00
 -1       616 7.81250E-02 1.25000E-02 0.00000E+00
 -1       617 7.91667E-02 1.25000E-02 0.00000E+00
 -1       618 8.02083E-02 1.25000E-02 0.00000E+00
 -1       619 8.12500E-02 1.25000E-02 0.00000E+00
 -1       620 8.22917E-02 1.25000E-02 0.00000E+00
 -1       621 6.66667E-02 1.35417E-02 0.00000E+00
 -1       622 6.66667E-02 1.45833E-02 0.00000E+00
 -1       623 6.66667E-02 1.56250E-02 0.00000E+00
 -1       624 6.66667E-02 1.66667E-02 0.00000E+00
 -1       625 6.66667E-02 1.77083E-02 0.00000E+00
 -1       626 6.77083E-02 1.28906E-02 0.00000E+00
 -1       627 6.87500E-02 1.32813E-02 0.00000E+00
 -1       628 6.97917E-02 1.36719E-02 0.00000E+00
 -1       629 7.08333E-02 1.40625E-02 0.00000E+00
 -1       630 7.18750E-02 1.44531E-02 0.00000E+00
 -1       631 7.29167E-02 1.48437E-02 0.00000E+00
 -1       632 7.39583E-02 1.52344E-02 0.00000E+00
 -1       633 7.50000E-02 1.56250E-02 0.00000E+00
 -1       634 7.60417E-02 1.60156E-02 0.00000E+00
 -1       635 7.70833E-02 1.64062E-02 0.00000E+00
 -1       636 7.81250E-02 1.67969E-02 0.00000E+00
 -1       637 7.91667E-02 1.71875E-02 0.00000E+00
 -1       638 8.02083E-02 1.75781E-02 0.00000E+00
 -1       639 8.12500E-02 1.79687E-02 0.00000E+00
 -1       640 8.22917E-02 1.83594E-02 0.00000E+00
 -1       641 8.43750E-02 1.25000E-02 0.00000E+00
 -1       642 8.54167E-02 1.25000E-02 0.00000E+00
 -1       643 8.64583E-02 1.25000E-02 0.00000E+00
 -1       644 8.75000E-02 1.25000E-02 0.00000E+00
 -1       645 8.85417E-02 1.25000E-02 0.00000E+00
 -1       646 8.95833E-02 1.25000E-02 0.00000E+00
 -1       647 9.06250E-02 1.25000E-02 0.00000E+00
 -1       648 9.16667E-02 1.25000E-02 0.00000E+00
 -1       649 9.27083E-02 1.25000E-02 0.00000E+00
 -1       650 9.37500E-02 1.25000E-02 0.00000E+00
 -1       651 9.47917E-02 1.25000E-02 0.00000E+00
 -1       652 9.58333E-02 1.25000E-02 0.00000E+00
 -1       653 9.68750E-02 1.25000E-02 0.00000E+00
 -1       654 9.79167E-02 1.25000E-02 0.00000E+00
 -1       655 9.89583E-02 1.25000E-02 0.00000E+00
 -1       656 8.33333E-02 1.35417E-02 0.00000E+00
 -1       657 8.33333E-02 1.45833E-02 0.00000E+00
 -1       658 8.33333E-02 1.56250E-02 0.00000E+00
 -1       659 8.33333E-02 1.66667E-02 0.00000E+00
 -1       660 8.33333E-02 1.77083E-02 0.00000E+00
 -1       661 8.43750E-02 1.28906E-02 0.00000E+00
 -1       662 8.54167E-02 1.32813E-02 0.00000E+00
 -1       663 8.64583E-02 1.36719E-02 0.00000E+00
 -1       664 8.75000E-02 1.40625E-02 0.00000E+00
 -1       665 8.85417E-02 1.44531E-02 0.00000E+00
 -1       666 8.95833E-02 1.48437E-02 0.00000E+00
 -1       667 9.06250E-02 1.52344E-02 0.00000E+00
 -1       668 9.16667E-02 1.56250E-02 0.00000E+00
 -1       669 9.27083E-02 1.60156E-02 0.00000E+00
 -1       670 9.37500E-02 1.64062E-02 0.00000E+00
 -1       671 9.47917E-02 1.67969E-02 0.00000E+00
 -1       672 9.58333E-02 1.71875E-02 0.00000E+00
 -1       673 9.68750E-02 1.75781E-02 0.00000E+00
 -1       674 9.79167E-02 1.79687E-02 0.00000E+00
 -1       675 9.89583E-02 1.83594E-02 0.00000E+00
 -1       676 1.00000E-01 1.35417E-02 0.00000E+00
 -1       677 1.00000E-01 1.45833E-02 0.00000E+00
 -1       678 1.00000E-01 1.56250E-02 0.00000E+00
 -1       679 1.00000E-01 1.66667E-02 0.00000E+00
 -1       680 1.00000E-01 1.77083E-02 0.00000E+00
 -1       681 1.04167E-03 1.87500E-02 0.00000E+00
 -1       682 2.08333E-03 1.87500E-02 0.00000E+00
 -1       683 3.12500E-03 1.87500E-02 0.00000E+00
 -1       684 4.16667E-03 1.87500E-02 0.00000E+00
 -1       685 5.20833E-03 1.87500E-02 0.00000E+00
 -1       686 6.25000E-03 1.87500E-02 0.00000E+00
 -1       687 7.29167E-03 1.87500E-02 0.00000E+00
 -1       688 8.33333E-03 1.87500E-02 0.00000E+00
 -1       689 9.37500E-03 1.87500E-02 0.00000E+00
 -1       690 1.04167E-02 1.87500E-02 0.00000E+00
 -1       691 1.14583E-02 1.87500E-02 0.00000E+00
 -1       692 1.25000E-02 1.87500E-02 0.00000E+00
 -1       693 1.35417E-02 1.87500E-02 0.00000E+00
 -1       694 1.45833E-02 1.87500E-02 0.00000E+00
 -1       695 1.56250E-02 1.87500E-02 0.00000E+00
 -1       696 0.00000E+00 1.97917E-02 0.00000E+00
 -1       697 0.00000E+00 2.08333E-02 0.00000E+00
 -1       698 0.00000E+00 2.18750E-02 0.00000E+00
 -1       699 0.00000E+00 2.29167E-02 0.00000E+00
 -1       700 0.00000E+00 2.39583E-02 0.00000E+00
 -1       701 1.04167E-03 1.91406E-02 0.00000E+00
 -1       702 2.08333E-03 1.95312E-02 0.00000E+00
 -1       703 3.12500E-03 1.99219E-02 0.00000E+00
 -1       704 4.16667E-03 2.03125E-02 0.00000E+00
 -1       705 5.20833E-03 2.07031E-02 0.00000E+00
 -1       706 6.25000E-03 2.10938E-02 0.00000E+00
 -1       707 7.29167E-03 2.14844E-02 0.00000E+00
 -1       708 8.33333E-03 2.18750E-02 0.00000E+00
 -1       709 9.37500E-03 2.22656E-02 0.00000E+00
 -1       710 1.04167E-02 2.26563E-02 0.00000E+00
 -1       711 1.14583E-02 2.30469E-02 0.00000E+00
 -1       712 1.25000E-02 2.34375E-02 0.00000E+00
 -1       713 1.35417E-02 2.38281E-02 0.00000E+00
 -1       714 1.45833E-02 2.42187E-02 0.00000E+00
 -1       715 1.56250E-02 2.46094E-02 0.00000E+00
 -1       716 1.77083E-02 1.87500E-02 0.00000E+00
 -1       717 1.87500E-02 1.87500E-02 0.00000E+00
 -1       718 1.97917E-02 1.87500E-02 0.00000E+00
 -1       719 2.08333E-02 1.87500E-02 0.00000E+00
 -1       720 2.18750E-02 1.87500E-02 0.00000E+00
 -1       721 2.29167E-02 1.87500E-02 0.00000E+00
 -1       722 2.39583E-02 1.87500E-02 0.00000E+00
 -1       723 2.50000E-02 1.87500E-02 0.00000E+00
 -1       724 2.60417E-02 1.87500E-02 0.00000E+00
 -1       725 2.70833E-02 1.87500E-02 0.00000E+00
 -1       726 2.81250E-02 1.87500E-02 0.00000E+00
 -1       727 2.91667E-02 1.87500E-02 0.00000E+00
 -1       728 3.02083E-02 1.87500E-02 0.00000E+00
 -1       729 3.12500E-02 1.87500E-02 0.00000E+00
 -1       730 3.22917E-02 1.87500E-02 0.00000E+00
 -1       731 1.66667E-02 1.97917E-02 0.00000E+00
 -1       732 1.66667E-02 2.08333E-02 0.00000E+00
 -1       733 1.66667E-02 2.18750E-02 0.00000E+00
 -1       734 1.66667E-02 2.29167E-02 0.00000E+00
 -1       735 1.66667E-02 2.39583E-02 0.00000E+00
 -1       736 1.77083E-02 1.91406E-02 0.00000E+00
 -1       737 1.87500E-02 1.95312E-02 0.00000E+00
 -1       738 1.97917E-02 1.99219E-02 0.00000E+00
 -1       739 2.08333E-02 2.03125E-02 0.00000E+00
 -1       740 2.18750E-02 2.07031E-02 0.00000E+00
 -1       741 2.29167E-02 2.10938E-02 0.00000E+00
 -1       742 2.39583E-02 2.14844E-02 0.00000E+00
 -1       743 2.50000E-02 2.18750E-02 0.00000E+00
 -1       744 2.60417E-02 2.22656E-02 0.00000E+00
 -1       745 2.70833E-02 2.26563E-02 0.00000E+00
 -1       746 2.81250E-02 2.30469E-02 0.00000E+00
 -1       747 2.91667E-02 2.34375E-02 0.00000E+00
 -1       748 3.02083E-02 2.38281E-02 0.00000E+00
 -1       749 3.12500E-02 2.42187E-02 0.00000E+00
 -1       750 3.22917E-02 2.46094E-02 0.00000E+00
 -1       751 3.43750E-02 1.87500E-02 0.00000E+00
 -1       752 3.54167E-02 1.87500E-02 0.00000E+00
 -1       753 3.64583E-02 1.87500E-02 0.00000E+00
 -1       754 3.75000E-02 1.87500E-02 0.00000E+00
 -1       755 3.85417E-02 1.87500E-02 0.00000E+00
 -1       756 3.95833E-02 1.87500E-02 0.00000E+00
 -1       757 4.06250E-02 1.87500E-02 0.00000E+00
 -1       758 4.16667E-02 1.87500E-02 0.00000E+00
 -1       759 4.27083E-02 1.87500E-02 0.00000E+00
 -1       760 4.37500E-02 1.87500E-02 0.00000E+00
 -1       761 4.47917E-02 1.87500E-02 0.00000E+00
 -1       762 4.58333E-02 1.87500E-02 0.00000E+00
 -1       763 4.68750E-02 1.87500E-02 0.00000E+00
 -1       764 4.79167E-02 1.87500E-02 0.00000E+00
 -1       765 4.89583E-02 1.87500E-02 0.00000E+00
 -1       766 3.33333E-02 1.97917E-02 0.00000E+00
 -1       767 3.33333E-02 2.08333E-02 0.00000E+00
 -1       768 3.33333E-02 2.18750E-02 0.00000E+00
 -1       769 3.33333E-02 2.29167E-02 0.00000E+00
 -1       770 3.33333E-02 2.39583E-02 0.00000E+00
 -1       771 3.43750E-02 1.91406E-02 0.00000E+00
 -1       772 3.54167E-02 1.95312E-02 0.00000E+00
 -1       773 3.64583E-02 1.99219E-02 0.00000E+00
 -1       774 3.75000E-02 2.03125E-02 0.00000E+00
 -1       775 3.85417E-02 2.07031E-02 0.00000E+00
 -1       776 3.95833E-02 2.10938E-02 0.00000E+00
 -1       777 4.06250E-02 2.14844E-02 0.00000E+00
 -1       778 4.16667E-02 2.18750E-02 0.00000E+00
 -1       779 4.27083E-02 2.22656E-02 0.00000E+00
 -1       780 4.37500E-02 2.26563E-02 0.00000E+00
 -1       781 4.47917E-02 2.30469E-02 0.00000E+00
 -1       782 4.58333E-02 2.34375E-02 0.00000E+00
 -1       783 4.68750E-02 2.38281E-02 0.00000E+00
 -1       784 4.79167E-02 2.42187E-02 0.00000E+00
 -1       785 4.89583E-02 2.46094E-02 0.00000E+00
 -1       786 5.10417E-02 1.87500E-02 0.00000E+00
 -1       787 5.20833E-02 1.87500E-02 0.00000E+00
 -1       788 5.31250E-02 1.87500E-02 0.00000E+00
 -1       789 5.41667E-02 1.87500E-02 0.00000E+00
 -1       790 5.52083E-02 1.87500E-02 0.00000E+00
 -1       791 5.62500E-02 1.87500E-02 0.00000E+00
 -1       792 5.72917E-02 1.87500E-02 0.00000E+00
 -1       793 5.83333E-02 1.87500E-02 0.00000E+00
 -1       794 5.93750E-02 1.87500E-02 0.00000E+00
 -1       795 6.04167E-02 1.87500E-02 0.00000E+00
 -1       796 6.14583E-02 1.87500E-02 0.00000E+00
 -1       797 6.25000E-02 1.87500E-02 0.00000E+00
 -1       798 6.35417E-02 1.87500E-02 0.00000E+00
 -1       799 6.45833E-02 1.87500E-02 0.00000E+00
 -1       800 6.56250E-02 1.87500E-02 0.00000E+00
 -1       801 5.00000E-02 1.97917E-02 0.00000E+00
 -1       802 5.00000E-02 2.08333E-02 0.00000E+00
 -1       803 5.00000E-02 2.18750E-02 0.00000E+00
 -1       804 5.00000E-02 2.29167E-02 0.00000E+00
 -1       805 5.00000E-02 2.39583E-02 0.00000E+00
 -1       806 5.10417E-02 1.91406E-02 0.00000E+00
 -1       807 5.20833E-02 1.95312E-02 0.00000E+00
 -1       808 5.31250E-02 1.99219E-02 0.00000E+00
 -1       809 5.41667E-02 2.03125E-02 0.00000E+00
 -1       810 5.52083E-02 2.07031E-02 0.00000E+00
 -1       811 5.62500E-02 2.10938E-02 0.00000E+00
 -1       812 5.72917E-02 2.14844E-02 0.00000E+00
 -1       813 5.83333E-02 2.18750E-02 0.00000E+00
 -1       814 5.93750E-02 2.22656E-02 0.00000E+00
 -1       815 6.04167E-02 2.26563E-02 0.00000E+00
 -1       816 6.14583E-02 2.30469E-02 0.00000E+00
 -1       817 6.25000E-02 2.34375E-02 0.00000E+00
 -1       818 6.35417E-02 2.38281E-02 0.00000E+00
 -1       819 6.45833E-02 2.42187E-02 0.00000E+00
 -1       820 6.56250E-02 2.46094E-02 0.00000E+00
 -1       821 6.77083E-02 1.87500E-02 0.00000E+00
 -1       822 6.87500E-02 1.87500E-02 0.00000E+00
 -1       823 6.97917E-02 1.87500E-02 0.00000E+00
 -1       824 7.08333E-02 1.87500E-02 0.00000E+00
 -1       825 7.18750E-02 1.87500E-02 0.00000E+00
 -1       826 7.29167E-02 1.87500E-02 0.00000E+00
 -1       827 7.39583E-02 1.87500E-02 0.00000E+00
 -1       828 7.50000E-02 1.87500E-02 0.00000E+00
 -1       829 7.60417E-02 1.87500E-02 0.00000E+00
 -1       830 7.70833E-02 1.87500E-02 0.00000E+00
 -1       831 7.81250E-02 1.87500E-02 0.00000E+00
 -1       832 7.91667E-02 1.87500E-02 0.00000E+00
 -1       833 8.02083E-02 1.87500E-02 0.00000E+00
 -1       834 8.12500E-02 1.87500E-02 0.00000E+00
 -1       835 8.22917E-02 1.87500E-02 0.00000E+00
 -1       836 6.66667E-02 1.97917E-02 0.00000E+00
 -1       837 6.66667E-02 2.08333E-02 0.00000E+00
 -1       838 6.66667E-02 2.18750E-02 0.00000E+00
 -1       839 6.66667E-02 2.29167E-02 0.00000E+00
 -1       840 6.66667E-02 2.39583E-02 0.00000E+00
 -1       841 6.77083E-02 1.91406E-02 0.00000E+00
 -1       842 6.87500E-02 1.95312E-02 0.00000E+00
 -1       843 6.97917E-02 1.99219E-02 0.00000E+00
 -1       844 7.08333E-02 2.03125E-02 0.00000E+00
 -1       845 7.18750E-02 2.07031E-02 0.00000E+00
 -1       846 7.29167E-02 2.10938E-02 0.00000E+00
 -1       847 7.39583E-02 2.14844E-02 0.00000E+00
 -1       848 7.50000E-02 2.18750E-02 0.00000E+00
 -1       849 7.60417E-02 2.22656E-02 0.00000E+00
 -1       850 7.70833E-02 2.26563E-02 0.00000E+00
 -1       851 7.81250E-02 2.30469E-02 0.00000E+00
 -1       852 7.91667E-02 2.34375E-02 0.00000E+00
 -1       853 8.02083E-02 2.38281E-02 0.00000E+00
 -1       854 8.12500E-02 2.42187E-02 0.00000E+00
 -1       855 8.22917E-02 2.46094E-02 0.00000E+00
 -1       856 8.43750E-02 1.87500E-02 0.00000E+00
 -1       857 8.54167E-02 1.87500E-02 0.00000E+00
 -1       858 8.64583E-02 1.87500E-02 0.00000E+00
 -1       859 8.75000E-02 1.87500E-02 0.00000E+00
 -1       860 8.85417E-02 1.87500E-02 0.00000E+00
 -1       861 8.95833E-02 1.87500E-02 0.00000E+00
 -1       862 9.06250E-02 1.87500E-02 0.00000E+00
 -1       863 9.16667E-02 1.87500E-02 0.00000E+00
 -1       864 9.27083E-02 1.87500E-02 0.00000E+00
 -1       865 9.37500E-02 1.87500E-02 0.00000E+00
 -1       866 9.47917E-02 1.87500E-02 0.00000E+00
 -1       867 9.58333E-02 1.87500E-02 0.00000E+00
 -1       868 9.68750E-02 1.87500E-02 0.00000E+00
 -1       869 9.79167E-02 1.87500E-02 0.00000E+00
 -1       870 9.89583E-02 1.87500E-02 0.00000E+00
 -1       871 8.33333E-02 1.97917E-02 0.00000E+00
 -1       872 8.33333E-02 2.08333E-02 0.00000E+00
 -1       873 8.33333E-02 2.18750E-02 0.00000E+00
 -1       874 8.33333E-02 2.29167E-02 0.00000E+00
 -1       875 8.33333E-02 2.39583E-02 0.00000E+00
 -1       876 8.43750E-02 1.91406E-02 0.00000E+00
 -1       877 8.54167E-02 1.95312E-02 0.00000E+00
 -1       878 8.64583E-02 1.99219E-02 0.00000E+00
 -1       879 8.75000E-02 2.03125E-02 0.00000E+00
 -1       880 8.85417E-02 2.07031E-02 0.00000E+00
 -1       881 8.95833E-02 2.10938E-02 0.00000E+00
 -1       882 9.06250E-02 2.14844E-02 0.00000E+00
 -1       883 9.16667E-02 2.18750E-02 0.00000E+00
 -1       884 9.27083E-02 2.22656E-02 0.00000E+00
 -1       885 9.37500E-02 2.26563E-02 0.00000E+00
 -1       886 9.47917E-02 2.30469E-02 0.00000E+00
 -1       887 9.58333E-02 2.34375E-02 0.00000E+00
 -1       888 9.68750E-02 2.38281E-02 0.00000E+00
 -1       889 9.79167E-02 2.42187E-02 0.00000E+00
 -1       890 9.89583E-02 2.46094E-02 0.00000E+00
 -1       891 1.00000E-01 1.97917E-02 0.00000E+00
 -1       892 1.00000E-01 2.08333E-02 0.00000E+00
 -1       893 1.00000E-01 2.18750E-02 0.00000E+00
 -1       894 1.00000E-01 2.29167E-02 0.00000E+00
 -1       895 1.00000E-01 2.39583E-02 0.00000E+00
 -1       896 1.04167E-03 2.50000E-02 0.00000E+00
 -1       897 2.08333E-03 2.50000E-02 0.00000E+00
 -1       898 3.12500E-03 2.50000E-02 0.00000E+00
 -1       899 4.16667E-03 2.50000E-02 0.00000E+00
 -1       900 5.20833E-03 2.50000E-02 0.00000E+00
 -1       901 6.25000E-03 2.50000E-02 0.00000E+00
 -1       902 7.29167E-03 2.50000E-02 0.00000E+00
 -1       903 8.33333E-03 2.50000E-02 0.00000E+00
 -1       904 9.37500E-03 2.50000E-02 0.00000E+00
 -1       905 1.04167E-02 2.50000E-02 0.00000E+00
 -1       906 1.14583E-02 2.50000E-02 0.00000E+00
 -1       907 1.25000E-02 2.50000E-02 0.00000E+00
 -1       908 1.35417E-02 2.50000E-02 0.00000E+00
 -1       909 1.45833E-02 2.50000E-02 0.00000E+00
 -1       910 1.56250E-02 2.50000E-02 0.00000E+00
 -1       911 1.77083E-02 2.50000E-02 0.00000E+00
 -1       912 1.87500E-02 2.50000E-02 0.00000E+00
 -1       913 1.97917E-02 2.50000E-02 0.00000E+00
 -1       914 2.08333E-02 2.50000E-02 0.00000E+00
 -1       915 2.18750E-02 2.50000E-02 0.00000E+00
 -1       916 2.29167E-02 2.50000E-02 0.00000E+00
 -1       917 2.39583E-02 2.50000E-02 0.00000E+00
 -1       918 2.50000E-02 2.50000E-02 0.00000E+00
 -1       919 2.60417E-02 2.50000E-02 0.00000E+00
 -1       920 2.70833E-02 2.50000E-02 0.00000E+00
 -1       921 2.81250E-02 2.50000E-02 0.00000E+00
 -1       922 2.91667E-02 2.50000E-02 0.00000E+00
 -1       923 3.02083E-02 2.50000E-02 0.00000E+00
 -1       924 3.12500E-02 2.50000E-02 0.00000E+00
 -1       925 3.22917E-02 2.50000E-02 0.00000E+00
 -1       926 3.43750E-02 2.50000E-02 0.00000E+00
 -1       927 3.54167E-02 2.50000E-02 0.00000E+00
 -1       928 3.64583E-02 2.50000E-02 0.00000E+00
 -1       929 3.75000E-02 2.50000E-02 0.00000E+00
 -1       930 3.85417E-02 2.50000E-02 0.00000E+00
 -1       931 3.95833E-02 2.50000E-02 0.00000E+00
 -1       932 4.06250E-02 2.50000E-02 0.00000E+00
 -1       933 4.16667E-02 2.50000E-02 0.00000E+00
 -1       934 4.27083E-02 2.50000E-02 0.00000E+00
 -1       935 4.37500E-02 2.50000E-02 0.00000E+00
 -1       936 4.47917E-02 2.50000E-02 0.00000E+00
 -1       937 4.58333E-02 2.50000E-02 0.00000E+00
 -1       938 4.68750E-02 2.50000E-02 0.00000E+00
 -1       939 4.79167E-02 2.50000E-02 0.00000E+00
 -1       940 4.89583E-02 2.50000E-02 0.00000E+00
 -1       941 5.10417E-02 2.50000E-02 0.00000E+00
 -1       942 5.20833E-02 2.50000E-02 0.00000E+00
 -1       943 5.31250E-02 2.50000E-02 0.00000E+00
 -1       944 5.41667E-02 2.50000E-02 0.00000E+00
 -1       945 5.52083E-02 2.50000E-02 0.00000E+00
 -1       946 5.62500E-02 2.50000E-02 0.00000E+00
 -1       947 5.72917E-02 2.50000E-02 0.00000E+00
 -1       948 5.83333E-02 2.50000E-02 0.00000E+00
 -1       949 5.93750E-02 2.50000E-02 0.00000E+00
 -1       950 6.04167E-02 2.50000E-02 0.00000E+00
 -1       951 6.14583E-02 2.50000E-02 0.00000E+00
 -1       952 6.25000E-02 2.50000E-02 0.00000E+00
 -1       953 6.35417E-02 2.50000E-02 0.00000E+00
 -1       954 6.45833E-02 2.50000E-02 0.00000E+00
 -1       955 6.56250E-02 2.50000E-02 0.00000E+00
 -1       956 6.77083E-02 2.50000E-02 0.00000E+00
 -1       957 6.87500E-02 2.50000E-02 0.00000E+00
 -1       958 6.97917E-02 2.50000E-02 0.00000E+00
 -1       959 7.08333E-02 2.50000E-02 0.00000E+00
 -1       960 7.18750E-02 2.50000E-02 0.00000E+00
 -1       961 7.29167E-02 2.50000E-02 0.00000E+00
 -1       962 7.39583E-02 2.50000E-02 0.00000E+00
 -1       963 7.50000E-02 2.50000E-02 0.00000E+00
 -1       964 7.60417E-02 2.50000E-02 0.00000E+00
 -1       965 7.70833E-02 2.50000E-02 0.00000E+00
 -1       966 7.81250E-02 2.50000E-02 0.00000E+00
 -1       967 7.91667E-02 2.50000E-02 0.00000E+00
 -1       968 8.02083E-02 2.50000E-02 0.00000E+00
 -1       969 8.12500E-02 2.50000E-02 0.00000E+00
 -1       970 8.22917E-02 2.50000E-02 0.00000E+00
 -1       971 8.43750E-02 2.50000E-02 0.00000E+00
 -1       972 8.54167E-02 2.50000E-02 0.00000E+00
 -1       973 8.64583E-02 2.50000E-02 0.00000E+00
 -1       974 8.75000E-02 2.50000E-02 0.00000E+00
 -1       975 8.85417E-02 2.50000E-02 0.00000E+00
 -1       976 8.95833E-02 2.50000E-02 0.00000E+00
 -1       977 9.06250E-02 2.50000E-02 0.00000E+00
 -1       978 9.16667E-02 2.50000E-02 0.00000E+00
 -1       979 9.27083E-02 2.50000E-02 0.00000E+00
 -1       980 9.37500E-02 2.50000E-02 0.00000E+00
 -1       981 9.47917E-02 2.50000E-02 0.00000E+00
 -1       982 9.58333E-02 2.50000E-02 0.00000E+00
 -1       983 9.68750E-02 2.50000E-02 0.00000E+00
 -1       984 9.79167E-02 2.50000E-02 0.00000E+00
 -1       985 9.89583E-02 2.50000E-02 0.00000E+00
 -3
    3C                           440                                     1
 -1         1   12    0    1
 -2         1        37        36
 -1         2   12    0    1
 -2        37        39        38
 -1         3   12    0    1
 -2        39        41        40
 -1         4   12    0    1
 -2        41        43        42
 -1         5   12    0    1
 -2        43        45        44
 -1         6   12    0    1
 -2        45        47        46
 -1         7   12    0    1
 -2        47        49        48
 -1         8   12    0    1
 -2        49         2        50
 -1         9   12    0    1
 -2         1        52        51
 -1        10   12    0    1
 -2        52        54        53
 -1        11   12    0    1
 -2        54         8        55
 -1        12   12    0    1
 -2         1        57        56
 -1        13   12    0    1
 -2        57        59        58
 -1        14   12    0    1
 -2        59        61        60
 -1        15   12    0    1
 -2        61        63        62
 -1        16   12    0    1
 -2        63        65        64
 -1        17   12    0    1
 -2        65        67        66
 -1        18   12    0    1
 -2        67        69        68
 -1        19   12    0    1
 -2        69         9        70
 -1        20   12    0    1
 -2         2        72        71
 -1        21   12    0    1
 -2        72        74        73
 -1        22   12    0    1
 -2        74        76        75
 -1        23   12    0    1
 -2        76        78        77
 -1        24   12    0    1
 -2        78        80        79
 -1        25   12    0    1
 -2        80        82        81
 -1        26   12    0    1
 -2        82        84        83
 -1        27   12    0    1
 -2        84         3        85
 -1        28   12    0    1
 -2         2        87        86
 -1        29   12    0    1
 -2        87        89        88
 -1        30   12    0    1
 -2        89         9        90
 -1        31   12    0    1
 -2         2        92        91
 -1        32   12    0    1
 -2        92        94        93
 -1        33   12    0    1
 -2        94        96        95
 -1        34   12    0    1
 -2        96        98        97
 -1        35   12    0    1
 -2        98       100        99
 -1        36   12    0    1
 -2       100       102       101
 -1        37   12    0    1
 -2       102       104       103
 -1        38   12    0    1
 -2       104        10       105
 -1        39   12    0    1
 -2         3       107       106
 -1        40   12    0    1
 -2       107       109       108
 -1        41   12    0    1
 -2       109       111       110
 -1        42   12    0    1
 -2       111       113       112
 -1        43   12    0    1
 -2       113       115       114
 -1        44   12    0    1
 -2       115       117       116
 -1        45   12    0    1
 -2       117       119       118
 -1        46   12    0    1
 -2       119         4       120
 -1        47   12    0    1
 -2         3       122       121
 -1        48   12    0    1
 -2       122       124       123
 -1        49   12    0    1
 -2       124        10       125
 -1        50   12    0    1
 -2         3       127       126
 -1        51   12    0    1
 -2       127       129       128
 -1        52   12    0    1
 -2       129       131       130
 -1        53   12    0    1
 -2       131       133       132
 -1        54   12    0    1
 -2       133       135       134
 -1        55   12    0    1
 -2       135       137       136
 -1        56   12    0    1
 -2       137       139       138
 -1        57   12    0    1
 -2       139        11       140
 -1        58   12    0    1
 -2         4       142       141
 -1        59   12    0    1
 -2       142       144       143
 -1        60   12    0    1
 -2       144       146       145
 -1        61   12    0    1
 -2       146       148       147
 -1        62   12    0    1
 -2       148       150       149
 -1        63   12    0    1
 -2       150       152       151
 -1        64   12    0    1
 -2       152       154       153
 -1        65   12    0    1
 -2       154         5       155
 -1        66   12    0    1
 -2         4       157       156
 -1        67   12    0    1
 -2       157       159       158
 -1        68   12    0    1
 -2       159        11       160
 -1        69   12    0    1
 -2         4       162       161
 -1        70   12    0    1
 -2       162       164       163
 -1        71   12    0    1
 -2       164       166       165
 -1        72   12    0    1
 -2       166       168       167
 -1        73   12    0    1
 -2       168       170       169
 -1        74   12    0    1
 -2       170       172       171
 -1        75   12    0    1
 -2       172       174       173
 -1        76   12    0    1
 -2       174        12       175
 -1        77   12    0    1
 -2         5       192       191
 -1        78   12    0    1
 -2       192       194       193
 -1        79   12    0    1
 -2       194        12       195
 -1        80   12    0    1
 -2         8       252       251
 -1        81   12    0    1
 -2       252       254       253
 -1        82   12    0    1
 -2       254       256       255
 -1        83   12    0    1
 -2       256       258       257
 -1        84   12    0    1
 -2       258       260       259
 -1        85   12    0    1
 -2       260       262       261
 -1        86   12    0    1
 -2       262       264       263
 -1        87   12    0    1
 -2       264         9       265
 -1        88   12    0    1
 -2         8       267       266
 -1        89   12    0    1
 -2       267       269       268
 -1        90   12    0    1
 -2       269        15       270
 -1        91   12    0    1
 -2         8       272       271
 -1        92   12    0    1
 -2       272       274       273
 -1        93   12    0    1
 -2       274       276       275
 -1        94   12    0    1
 -2       276       278       277
 -1        95   12    0    1
 -2       278       280       279
 -1        96   12    0    1
 -2       280       282       281
 -1        97   12    0    1
 -2       282       284       283
 -1        98   12    0    1
 -2       284        16       285
 -1        99   12    0    1
 -2         9       287       286
 -1       100   12    0    1
 -2       287       289       288
 -1       101   12    0    1
 -2       289       291       290
 -1       102   12    0    1
 -2       291       293       292
 -1       103   12    0    1
 -2       293       295       294
 -1       104   12    0    1
 -2       295       297       296
 -1       105   12    0    1
 -2       297       299       298
 -1       106   12    0    1
 -2       299        10       300
 -1       107   12    0    1
 -2         9       302       301
 -1       108   12    0    1
 -2       302       304       303
 -1       109   12    0    1
 -2       304        16       305
 -1       110   12    0    1
 -2         9       307       306
 -1       111   12    0    1
 -2       307       309       308
 -1       112   12    0    1
 -2       309       311       310
 -1       113   12    0    1
 -2       311       313       312
 -1       114   12    0    1
 -2       313       315       314
 -1       115   12    0    1
 -2       315       317       316
 -1       116   12    0    1
 -2       317       319       318
 -1       117   12    0    1
 -2       319        17       320
 -1       118   12    0    1
 -2        10       322       321
 -1       119   12    0    1
 -2       322       324       323
 -1       120   12    0    1
 -2       324       326       325
 -1       121   12    0    1
 -2       326       328       327
 -1       122   12    0    1
 -2       328       330       329
 -1       123   12    0    1
 -2       330       332       331
 -1       124   12    0    1
 -2       332       334       333
 -1       125   12    0    1
 -2       334        11       335
 -1       126   12    0    1
 -2        10       337       336
 -1       127   12    0    1
 -2       337       339       338
 -1       128   12    0    1
 -2       339        17       340
 -1       129   12    0    1
 -2        10       342       341
 -1       130   12    0    1
 -2       342       344       343
 -1       131   12    0    1
 -2       344       346       345
 -1       132   12    0    1
 -2       346       348       347
 -1       133   12    0    1
 -2       348       350       349
 -1       134   12    0    1
 -2       350       352       351
 -1       135   12    0    1
 -2       352       354       353
 -1       136   12    0    1
 -2       354        18       355
 -1       137   12    0    1
 -2        11       357       356
 -1       138   12    0    1
 -2       357       359       358
 -1       139   12    0    1
 -2       359       361       360
 -1       140   12    0    1
 -2       361       363       362
 -1       141   12    0    1
 -2       363       365       364
 -1       142   12    0    1
 -2       365       367       366
 -1       143   12    0    1
 -2       367       369       368
 -1       144   12    0    1
 -2       369        12       370
 -1       145   12    0    1
 -2        11       372       371
 -1       146   12    0    1
 -2       372       374       373
 -1       147   12    0    1
 -2       374        18       375
 -1       148   12    0    1
 -2        11       377       376
 -1       149   12    0    1
 -2       377       379       378
 -1       150   12    0    1
 -2       379       381       380
 -1       151   12    0    1
 -2       381       383       382
 -1       152   12    0    1
 -2       383       385       384
 -1       153   12    0    1
 -2       385       387       386
 -1       154   12    0    1
 -2       387       389       388
 -1       155   12    0    1
 -2       389        19       390
 -1       156   12    0    1
 -2        12       407       406
 -1       157   12    0    1
 -2       407       409       408
 -1       158   12    0    1
 -2       409        19       410
 -1       159   12    0    1
 -2        15       467       466
 -1       160   12    0    1
 -2       467       469       468
 -1       161   12    0    1
 -2       469       471       470
 -1       162   12    0    1
 -2       471       473       472
 -1       163   12    0    1
 -2       473       475       474
 -1       164   12    0    1
 -2       475       477       476
 -1       165   12    0    1
 -2       477       479       478
 -1       166   12    0    1
 -2       479        16       480
 -1       167   12    0    1
 -2        15       482       481
 -1       168   12    0    1
 -2       482       484       483
 -1       169   12    0    1
 -2       484        22       485
 -1       170   12    0    1
 -2        15       487       486
 -1       171   12    0    1
 -2       487       489       488
 -1       172   12    0    1
 -2       489       491       490
 -1       173   12    0    1
 -2       491       493       492
 -1       174   12    0    1
 -2       493       495       494
 -1       175   12    0    1
 -2       495       497       496
 -1       176   12    0    1
 -2       497       499       498
 -1       177   12    0    1
 -2       499        23       500
 -1       178   12    0    1
 -2        16       502       501
 -1       179   12    0    1
 -2       502       504       503
 -1       180   12    0    1
 -2       504       506       505
 -1       181   12    0    1
 -2       506       508       507
 -1       182   12    0    1
 -2       508       510       509
 -1       183   12    0    1
 -2       510       512       511
 -1       184   12    0    1
 -2       512       514       513
 -1       185   12    0    1
 -2       514        17       515
 -1       186   12    0    1
 -2        16       517       516
 -1       187   12    0    1
 -2       517       519       518
 -1       188   12    0    1
 -2       519        23       520
 -1       189   12    0    1
 -2        16       522       521
 -1       190   12    0    1
 -2       522       524       523
 -1       191   12    0    1
 -2       524       526       525
 -1       192   12    0    1
 -2       526       528       527
 -1       193   12    0    1
 -2       528       530       529
 -1       194   12    0    1
 -2       530       532       531
 -1       195   12    0    1
 -2       532       534       533
 -1       196   12    0    1
 -2       534        24       535
 -1       197   12    0    1
 -2        17       537       536
 -1       198   12    0    1
 -2       537       539       538
 -1       199   12    0    1
 -2       539       541       540
 -1       200   12    0    1
 -2       541       543       542
 -1       201   12    0    1
 -2       543       545       544
 -1       202   12    0    1
 -2       545       547       546
 -1       203   12    0    1
 -2       547       549       548
 -1       204   12    0    1
 -2       549        18       550
 -1       205   12    0    1
 -2        17       552       551
 -1       206   12    0    1
 -2       552       554       553
 -1       207   12    0    1
 -2       554        24       555
 -1       208   12    0    1
 -2        17       557       556
 -1       209   12    0    1
 -2       557       559       558
 -1       210   12    0    1
 -2       559       561       560
 -1       211   12    0    1
 -2       561       563       562
 -1       212   12    0    1
 -2       563       565       564
 -1       213   12    0    1
 -2       565       567       566
 -1       214   12    0    1
 -2       567       569       568
 -1       215   12    0    1
 -2       569        25       570
 -1       216   12    0    1
 -2        18       572       571
 -1       217   12    0    1
 -2       572       574       573
 -1       218   12    0    1
 -2       574       576       575
 -1       219   12    0    1
 -2       576       578       577
 -1       220   12    0    1
 -2       578       580       579
 -1       221   12    0    1
 -2       580       582       581
 -1       222   12    0    1
 -2       582       584       583
 -1       223   12    0    1
 -2       584        19       585
 -1       224   12    0    1
 -2        18       587       586
 -1       225   12    0    1
 -2       587       589       588
 -1       226   12    0    1
 -2       589        25       590
 -1       227   12    0    1
 -2        18       592       591
 -1       228   12    0    1
 -2       592       594       593
 -1       229   12    0    1
 -2       594       596       595
 -1       230   12    0    1
 -2       596       598       597
 -1       231   12    0    1
 -2       598       600       599
 -1       232   12    0    1
 -2       600       602       601
 -1       233   12    0    1
 -2       602       604       603
 -1       234   12    0    1
 -2       604        26       605
 -1       235   12    0    1
 -2        19       607       606
 -1       236   12    0    1
 -2       607       609       608
 -1       237   12    0    1
 -2       609       611       610
 -1       238   12    0    1
 -2       611       613       612
 -1       239   12    0    1
 -2       613       615       614
 -1       240   12    0    1
 -2       615       617       616
 -1       241   12    0    1
 -2       617       619       618
 -1       242   12    0    1
 -2       619        20       620
 -1       243   12    0    1
 -2        19       622       621
 -1       244   12    0    1
 -2       622       624       623
 -1       245   12    0    1
 -2       624        26       625
 -1       246   12    0    1
 -2        19       627       626
 -1       247   12    0    1
 -2       627       629       628
 -1       248   12    0    1
 -2       629       631       630
 -1       249   12    0    1
 -2       631       633       632
 -1       250   12    0    1
 -2       633       635       634
 -1       251   12    0    1
 -2       635       637       636
 -1       252   12    0    1
 -2       637       639       638
 -1       253   12    0    1
 -2       639        27       640
 -1       254   12    0    1
 -2        20       642       641
 -1       255   12    0    1
 -2       642       644       643
 -1       256   12    0    1
 -2       644       646       645
 -1       257   12    0    1
 -2       646       648       647
 -1       258   12    0    1
 -2       648       650       649
 -1       259   12    0    1
 -2       650       652       651
 -1       260   12    0    1
 -2       652       654       653
 -1       261   12    0    1
 -2       654        21       655
 -1       262   12    0    1
 -2        20       657       656
 -1       263   12    0    1
 -2       657       659       658
 -1       264   12    0    1
 -2       659        27       660
 -1       265   12    0    1
 -2        20       662       661
 -1       266   12    0    1
 -2       662       664       663
 -1       267   12    0    1
 -2       664       666       665
 -1       268   12    0    1
 -2       666       668       667
 -1       269   12    0    1
 -2       668       670       669
 -1       270   12    0    1
 -2       670       672       671
 -1       271   12    0    1
 -2       672       674       673
 -1       272   12    0    1
 -2       674        28       675
 -1       273   12    0    1
 -2        21       677       676
 -1       274   12    0    1
 -2       677       679       678
 -1       275   12    0    1
 -2       679        28       680
 -1       276   12    0    1
 -2        22       682       681
 -1       277   12    0    1
 -2       682       684       683
 -1       278   12    0    1
 -2       684       686       685
 -1       279   12    0    1
 -2       686       688       687
 -1       280   12    0    1
 -2       688       690       689
 -1       281   12    0    1
 -2       690       692       691
 -1       282   12    0    1
 -2       692       694       693
 -1       283   12    0    1
 -2       694        23       695
 -1       284   12    0    1
 -2        22       697       696
 -1       285   12    0    1
 -2       697       699       698
 -1       286   12    0    1
 -2       699        29       700
 -1       287   12    0    1
 -2        22       702       701
 -1       288   12    0    1
 -2       702       704       703
 -1       289   12    0    1
 -2       704       706       705
 -1       290   12    0    1
 -2       706       708       707
 -1       291   12    0    1
 -2       708       710       709
 -1       292   12    0    1
 -2       710       712       711
 -1       293   12    0    1
 -2       712       714       713
 -1       294   12    0    1
 -2       714        30       715
 -1       295   12    0    1
 -2        23       717       716
 -1       296   12    0    1
 -2       717       719       718
 -1       297   12    0    1
 -2       719       721       720
 -1       298   12    0    1
 -2       721       723       722
 -1       299   12    0    1
 -2       723       725       724
 -1       300   12    0    1
 -2       725       727       726
 -1       301   12    0    1
 -2       727       729       728
 -1       302   12    0    1
 -2       729        24       730
 -1       303   12    0    1
 -2        23       732       731
 -1       304   12    0    1
 -2       732       734       733
 -1       305   12    0    1
 -2       734        30       735
 -1       306   12    0    1
 -2        23       737       736
 -1       307   12    0    1
 -2       737       739       738
 -1       308   12    0    1
 -2       739       741       740
 -1       309   12    0    1
 -2       741       743       742
 -1       310   12    0    1
 -2       743       745       744
 -1       311   12    0    1
 -2       745       747       746
 -1       312   12    0    1
 -2       747       749       748
 -1       313   12    0    1
 -2       749        31       750
 -1       314   12    0    1
 -2        24       752       751
 -1       315   12    0    1
 -2       752       754       753
 -1       316   12    0    1
 -2       754       756       755
 -1       317   12    0    1
 -2       756       758       757
 -1       318   12    0    1
 -2       758       760       759
 -1       319   12    0    1
 -2       760       762       761
 -1       320   12    0    1
 -2       762       764       763
 -1       321   12    0    1
 -2       764        25       765
 -1       322   12    0    1
 -2        24       767       766
 -1       323   12    0    1
 -2       767       769       768
 -1       324   12    0    1
 -2       769        31       770
 -1       325   12    0    1
 -2        24       772       771
 -1       326   12    0    1
 -2       772       774       773
 -1       327   12    0    1
 -2       774       776       775
 -1       328   12    0    1
 -2       776       778       777
 -1       329   12    0    1
 -2       778       780       779
 -1       330   12    0    1
 -2       780       782       781
 -1       331   12    0    1
 -2       782       784       783
 -1       332   12    0    1
 -2       784        32       785
 -1       333   12    0    1
 -2        25       787       786
 -1       334   12    0    1
 -2       787       789       788
 -1       335   12    0    1
 -2       789       791       790
 -1       336   12    0    1
 -2       791       793       792
 -1       337   12    0    1
 -2       793       795       794
 -1       338   12    0    1
 -2       795       797       796
 -1       339   12    0    1
 -2       797       799       798
 -1       340   12    0    1
 -2       799        26       800
 -1       341   12    0    1
 -2        25       802       801
 -1       342   12    0    1
 -2       802       804       803
 -1       343   12    0    1
 -2       804        32       805
 -1       344   12    0    1
 -2        25       807       806
 -1       345   12    0    1
 -2       807       809       808
 -1       346   12    0    1
 -2       809       811       810
 -1       347   12    0    1
 -2       811       813       812
 -1       348   12    0    1
 -2       813       815       814
 -1       349   12    0    1
 -2       815       817       816
 -1       350   12    0    1
 -2       817       819       818
 -1       351   12    0    1
 -2       819        33       820
 -1       352   12    0    1
 -2        26       822       821
 -1       353   12    0    1
 -2       822       824       823
 -1       354   12    0    1
 -2       824       826       825
 -1       355   12    0    1
 -2       826       828       827
 -1       356   12    0    1
 -2       828       830       829
 -1       357   12    0    1
 -2       830       832       831
 -1       358   12    0    1
 -2       832       834       833
 -1       359   12    0    1
 -2       834        27       835
 -1       360   12    0    1
 -2        26       837       836
 -1       361   12    0    1
 -2       837       839       838
 -1       362   12    0    1
 -2       839        33       840
 -1       363   12    0    1
 -2        26       842       841
 -1       364   12    0    1
 -2       842       844       843
 -1       365   12    0    1
 -2       844       846       845
 -1       366   12    0    1
 -2       846       848       847
 -1       367   12    0    1
 -2       848       850       849
 -1       368   12    0    1
 -2       850       852       851
 -1       369   12    0    1
 -2       852       854       853
 -1       370   12    0    1
 -2       854        34       855
 -1       371   12    0    1
 -2        27       857       856
 -1       372   12    0    1
 -2       857       859       858
 -1       373   12    0    1
 -2       859       861       860
 -1       374   12    0    1
 -2       861       863       862
 -1       375   12    0    1
 -2       863       865       864
 -1       376   12    0    1
 -2       865       867       866
 -1       377   12    0    1
 -2       867       869       868
 -1       378   12    0    1
 -2       869        28       870
 -1       379   12    0    1
 -2        27       872       871
 -1       380   12    0    1
 -2       872       874       873
 -1       381   12    0    1
 -2       874        34       875
 -1       382   12    0    1
 -2        27       877       876
 -1       383   12    0    1
 -2       877       879       878
 -1       384   12    0    1
 -2       879       881       880
 -1       385   12    0    1
 -2       881       883       882
 -1       386   12    0    1
 -2       883       885       884
 -1       387   12    0    1
 -2       885       887       886
 -1       388   12    0    1
 -2       887       889       888
 -1       389   12    0    1
 -2       889        35       890
 -1       390   12    0    1
 -2        28       892       891
 -1       391   12    0    1
 -2       892       894       893
 -1       392   12    0    1
 -2       894        35       895
 -1       393   12    0    1
 -2        29       897       896
 -1       394   12    0    1
 -2       897       899       898
 -1       395   12    0    1
 -2       899       901       900
 -1       396   12    0    1
 -2       901       903       902
 -1       397   12    0    1
 -2       903       905       904
 -1       398   12    0    1
 -2       905       907       906
 -1       399   12    0    1
 -2       907       909       908
 -1       400   12    0    1
 -2       909        30       910
 -1       401   12    0    1
 -2        30       912       911
 -1       402   12    0    1
 -2       912       914       913
 -1       403   12    0    1
 -2       914       916       915
 -1       404   12    0    1
 -2       916       918       917
 -1       405   12    0    1
 -2       918       920       919
 -1       406   12    0    1
 -2       920       922       921
 -1       407   12    0    1
 -2       922       924       923
 -1       408   12    0    1
 -2       924        31       925
 -1       409   12    0    1
 -2        31       927       926
 -1       410   12    0    1
 -2       927       929       928
 -1       411   12    0    1
 -2       929       931       930
 -1       412   12    0    1
 -2       931       933       932
 -1       413   12    0    1
 -2       933       935       934
 -1       414   12    0    1
 -2       935       937       936
 -1       415   12    0    1
 -2       937       939       938
 -1       416   12    0    1
 -2       939        32       940
 -1       417   12    0    1
 -2        32       942       941
 -1       418   12    0    1
 -2       942       944       943
 -1       419   12    0    1
 -2       944       946       945
 -1       420   12    0    1
 -2       946       948       947
 -1       421   12    0    1
 -2       948       950       949
 -1       422   12    0    1
 -2       950       952       951
 -1       423   12    0    1
 -2       952       954       953
 -1       424   12    0    1
 -2       954        33       955
 -1       425   12    0    1
 -2        33       957       956
 -1       426   12    0    1
 -2       957       959       958
 -1       427   12    0    1
 -2       959       961       960
 -1       428   12    0    1
 -2       961       963       962
 -1       429   12    0    1
 -2       963       965       964
 -1       430   12    0    1
 -2       965       967       966
 -1       431   12    0    1
 -2       967       969       968
 -1       432   12    0    1
 -2       969        34       970
 -1       433   12    0    1
 -2        34       972       971
 -1       434   12    0    1
 -2       972       974       973
 -1       435   12    0    1
 -2       974       976       975
 -1       436   12    0    1
 -2       976       978       977
 -1       437   12    0    1
 -2       978       980       979
 -1       438   12    0    1
 -2       980       982       981
 -1       439   12    0    1
 -2       982       984       983
 -1       440   12    0    1
 -2       984        35       985
 -3
    1PSTEP                         1           1           1          
  100CL  101 1.000000000         841                     0    1           1
 -4  DISP        4    1
 -5  D1          1    2    1    0
 -5  D2          1    2    2    0
 -5  D3          1    2    3    0
 -5  ALL         1    2    0    0    1ALL
 -1         1 1.16622E-04 0.00000E+00 0.00000E+00
 -1         2 8.79554E-05 0.00000E+00 0.00000E+00
 -1         3 7.50014E-05 0.00000E+00 0.00000E+00
 -1         4 6.93117E-05 0.00000E+00 0.00000E+00
 -1         5 6.76283E-05 0.00000E+00 0.00000E+00
 -1         8 8.94564E-05-1.10896E-06 0.00000E+00
 -1         9 7.65710E-05 1.62639E-06 0.00000E+00
 -1        10 7.06225E-05-5.38693E-06 0.00000E+00
 -1        11 6.62711E-05-1.22728E-06 0.00000E+00
 -1        12 6.36226E-05 2.35406E-06 0.00000E+00
 -1        15 3.39801E-05-2.31166E-06 0.00000E+00
 -1        16 4.61231E-05 1.78699E-06 0.00000E+00
 -1        17 4.48749E-05-1.07401E-05 0.00000E+00
 -1        18 4.92778E-05-2.26352E-06 0.00000E+00
 -1        19 5.32280E-05 4.62474E-06 0.00000E+00
 -1        20 5.41483E-05 4.87019E-05 0.00000E+00
 -1        21 5.40353E-05 1.20260E-04 0.00000E+00
 -1        22 1.26816E-05-1.45823E-06 0.00000E+00
 -1        23 1.66448E-05 2.50480E-06 0.00000E+00
 -1        24 1.83920E-05-1.17695E-05 0.00000E+00
 -1        25 3.76711E-05-1.87088E-06 0.00000E+00
 -1        26 4.37446E-05 5.96485E-06 0.00000E+00
 -1        27 3.93369E-05 4.69677E-05 0.00000E+00
 -1        28 3.41697E-05 1.18614E-04 0.00000E+00
 -1        29 0.00000E+00 0.00000E+00 0.00000E+00
 -1        30 6.24420E-06 3.03340E-06 0.00000E+00
 -1        31 8.45557E-06-1.03428E-05 0.00000E+00
 -1        32 0.00000E+00 0.00000E+00 0.00000E+00
 -1        33 2.73405E-05 1.08253E-05 0.00000E+00
 -1        34 2.57286E-05 4.68701E-05 0.00000E+00
 -1        35 1.95984E-05 1.17755E-04 0.00000E+00
 -1        36 1.14885E-04 3.63629E-20-2.64698E-23
 -1        37 1.13094E-04 1.10094E-19-2.64698E-23
 -1        38 1.11305E-04 1.95989E-19 0.00000E+00
 -1        39 1.09506E-04 2.81787E-19 0.00000E+00
 -1        40 1.07707E-04 2.82320E-19 0.00000E+00
 -1        41 1.05906E-04 2.63156E-19 2.64698E-23
 -1        42 1.04105E-04 3.10593E-19 5.29396E-23
 -1        43 1.02303E-04 2.89430E-19 0.00000E+00
 -1        44 1.00501E-04 2.53600E-19 0.00000E+00
 -1        45 9.86996E-05 2.12767E-19 2.64698E-23
 -1        46 9.68983E-05 1.87879E-19-5.29396E-23
 -1        47 9.50982E-05 1.87737E-19 0.00000E+00
 -1        48 9.32986E-05 1.69165E-19-5.29396E-23
 -1        49 9.15060E-05 1.38841E-19 2.64698E-23
 -1        50 8.97112E-05 5.44152E-20 5.29396E-23
 -1        51 1.14684E-04-1.89370E-07 0.00000E+00
 -1        52 1.11342E-04-3.67840E-07 0.00000E+00
 -1        53 1.06864E-04-5.45911E-07 0.00000E+00
 -1        54 1.01535E-04-7.26493E-07 0.00000E+00
 -1        55 9.56369E-05-9.11600E-07-4.96308E-24
 -1        56 1.14659E-04-1.12312E-06 5.29396E-23
 -1        57 1.12852E-04-2.88026E-06 2.64698E-23
 -1        58 1.11209E-04-5.06655E-06 0.00000E+00
 -1        59 1.09642E-04-7.49072E-06-2.64698E-23
 -1        60 1.08081E-04-9.93152E-06 0.00000E+00
 -1        61 1.06442E-04-1.21720E-05-2.64698E-23
 -1        62 1.04653E-04-1.40110E-05 5.29396E-23
 -1        63 1.02645E-04-1.52669E-05 0.00000E+00
 -1        64 1.00369E-04-1.58071E-05 0.00000E+00
 -1        65 9.77868E-05-1.55320E-05 0.00000E+00
 -1        66 9.48865E-05-1.44111E-05 5.29396E-23
 -1        67 9.16723E-05-1.24522E-05 2.64698E-23
 -1        68 8.81717E-05-9.73489E-06 0.00000E+00
 -1        69 8.44395E-05-6.36875E-06 0.00000E+00
 -1        70 8.05224E-05-2.52817E-06 5.29396E-23
 -1        71 8.71435E-05-3.83977E-21-2.64698E-23
 -1        72 8.63331E-05-6.78288E-23 1.32349E-23
 -1        73 8.55227E-05-7.58475E-20 0.00000E+00
 -1        74 8.47125E-05-1.58681E-19 1.32349E-23
 -1        75 8.39024E-05-1.70755E-19 0.00000E+00
 -1        76 8.30923E-05-1.95817E-19 1.32349E-23
 -1        77 8.22822E-05-2.18564E-19-2.64698E-23
 -1        78 8.14722E-05-1.85110E-19 1.32349E-23
 -1        79 8.06621E-05-2.03261E-19-2.64698E-23
 -1        80 7.98521E-05-1.76922E-19 0.00000E+00
 -1        81 7.90421E-05-1.25047E-19 2.64698E-23
 -1        82 7.82324E-05-7.10052E-20 0.00000E+00
 -1        83 7.74227E-05-5.71317E-20 0.00000E+00
 -1        84 7.66139E-05-3.09002E-20 1.32349E-23
 -1        85 7.58049E-05-1.13952E-20 0.00000E+00
 -1        86 8.77883E-05 2.39638E-07-6.61744E-24
 -1        87 8.72092E-05 5.24615E-07 0.00000E+00
 -1        88 8.60140E-05 8.06207E-07 1.65436E-24
 -1        89 8.39936E-05 1.09003E-06 0.00000E+00
 -1        90 8.09235E-05 1.37325E-06 0.00000E+00
 -1        91 8.69765E-05-5.88498E-07-2.64698E-23
 -1        92 8.61261E-05-1.54681E-06-1.32349E-23
 -1        93 8.53838E-05-2.79233E-06 0.00000E+00
 -1        94 8.47147E-05-4.23825E-06 0.00000E+00
 -1        95 8.40816E-05-5.78075E-06-2.64698E-23
 -1        96 8.34447E-05-7.31374E-06 0.00000E+00
 -1        97 8.27649E-05-8.73205E-06 0.00000E+00
 -1        98 8.20041E-05-9.93399E-06 0.00000E+00
 -1        99 8.11305E-05-1.08346E-05 0.00000E+00
 -1       100 8.01155E-05-1.13576E-05 0.00000E+00
 -1       101 7.89415E-05-1.14566E-05 2.64698E-23
 -1       102 7.75957E-05-1.10972E-05 0.00000E+00
 -1       103 7.60783E-05-1.02812E-05 0.00000E+00
 -1       104 7.43966E-05-9.02284E-06 0.00000E+00
 -1       105 7.25663E-05-7.37263E-06 0.00000E+00
 -1       106 7.46311E-05-3.68157E-20 0.00000E+00
 -1       107 7.42739E-05-7.19970E-20 6.61744E-24
 -1       108 7.39160E-05-1.13880E-19 0.00000E+00
 -1       109 7.35605E-05-1.65472E-19 0.00000E+00
 -1       110 7.32051E-05-1.56652E-19 0.00000E+00
 -1       111 7.28502E-05-1.43868E-19-6.61744E-24
 -1       112 7.24953E-05-1.62206E-19 0.00000E+00
 -1       113 7.21406E-05-1.32992E-19 6.61744E-24
 -1       114 7.17858E-05-1.20615E-19-1.32349E-23
 -1       115 7.14312E-05-1.16589E-19 0.00000E+00
 -1       116 7.10766E-05-6.68329E-20 1.32349E-23
 -1       117 7.07221E-05-3.59815E-20-6.61744E-24
 -1       118 7.03678E-05-4.32946E-21 0.00000E+00
 -1       119 7.00143E-05-3.15487E-21 0.00000E+00
 -1       120 6.96605E-05 9.61928E-21-6.61744E-24
 -1       121 7.50366E-05-8.90154E-07 2.64698E-23
 -1       122 7.50099E-05-1.78946E-06 0.00000E+00
 -1       123 7.47346E-05-2.68838E-06-2.64698E-23
 -1       124 7.40273E-05-3.58829E-06-1.32349E-23
 -1       125 7.27122E-05-4.48917E-06 2.64698E-23
 -1       126 7.45135E-05-2.55821E-07 0.00000E+00
 -1       127 7.40771E-05-6.27066E-07-6.61744E-24
 -1       128 7.36732E-05-1.08665E-06-1.32349E-23
 -1       129 7.32920E-05-1.60283E-06 0.00000E+00
 -1       130 7.29197E-05-2.14270E-06 0.00000E+00
 -1       131 7.25439E-05-2.67249E-06-6.61744E-24
 -1       132 7.21519E-05-3.15913E-06 0.00000E+00
 -1       133 7.17316E-05-3.57006E-06 0.00000E+00
 -1       134 7.12718E-05-3.87550E-06-1.32349E-23
 -1       135 7.07619E-05-4.04713E-06-6.61744E-24
 -1       136 7.01931E-05-4.06163E-06 0.00000E+00
 -1       137 6.95577E-05-3.89778E-06 0.00000E+00
 -1       138 6.88499E-05-3.54123E-06 0.00000E+00
 -1       139 6.80666E-05-2.97971E-06-6.61744E-24
 -1       140 6.72045E-05-2.20981E-06-1.32349E-23
 -1       141 6.91988E-05 1.77565E-20-6.61744E-24
 -1       142 6.90911E-05 3.22960E-20 1.65436E-24
 -1       143 6.89831E-05 1.57901E-20 0.00000E+00
 -1       144 6.88760E-05 7.38259E-22 0.00000E+00
 -1       145 6.87690E-05-1.41737E-21-3.30872E-24
 -1       146 6.86622E-05 1.38884E-20 0.00000E+00
 -1       147 6.85554E-05 2.64369E-20 0.00000E+00
 -1       148 6.84487E-05 5.25305E-20 0.00000E+00
 -1       149 6.83420E-05 7.14432E-20-3.30872E-24
 -1       150 6.82355E-05 9.30256E-20-1.65436E-24
 -1       151 6.81291E-05 5.59857E-20-3.30872E-24
 -1       152 6.80234E-05 9.42117E-21 1.65436E-24
 -1       153 6.79178E-05 5.37854E-21 1.65436E-24
 -1       154 6.78157E-05-9.18853E-21 1.03398E-25
 -1       155 6.77125E-05-3.88982E-21 0.00000E+00
 -1       156 6.92612E-05-2.04144E-07-6.61744E-24
 -1       157 6.90903E-05-4.07246E-07 0.00000E+00
 -1       158 6.87515E-05-6.10518E-07 6.61744E-24
 -1       159 6.81978E-05-8.14519E-07-3.30872E-24
 -1       160 6.73852E-05-1.01842E-06 6.61744E-24
 -1       161 6.90596E-05-1.32134E-07 0.00000E+00
 -1       162 6.88282E-05-3.23356E-07 0.00000E+00
 -1       163 6.86108E-05-5.51892E-07 0.00000E+00
 -1       164 6.83991E-05-7.96328E-07 0.00000E+00
 -1       165 6.81851E-05-1.03469E-06 0.00000E+00
 -1       166 6.79607E-05-1.24517E-06-3.30872E-24
 -1       167 6.77178E-05-1.40654E-06 0.00000E+00
 -1       168 6.74487E-05-1.49793E-06 0.00000E+00
 -1       169 6.71461E-05-1.49986E-06 0.00000E+00
 -1       170 6.68030E-05-1.39345E-06 3.30872E-24
 -1       171 6.64132E-05-1.16206E-06-6.61744E-24
 -1       172 6.59713E-05-7.89647E-07-3.30872E-24
 -1       173 6.54717E-05-2.63519E-07 0.00000E+00
 -1       174 6.49144E-05 4.29759E-07 0.00000E+00
 -1       175 6.42901E-05 1.29655E-06 0.00000E+00
 -1       191 6.74888E-05 3.91635E-07 1.32349E-23
 -1       192 6.71301E-05 7.84800E-07-6.61744E-24
 -1       193 6.65572E-05 1.17821E-06 1.32349E-23
 -1       194 6.57768E-05 1.57141E-06-6.61744E-24
 -1       195 6.47958E-05 1.96393E-06 1.32349E-23
 -1       251 8.86594E-05 3.21076E-06 2.64698E-23
 -1       252 8.78521E-05 6.04103E-06-1.32349E-23
 -1       253 8.70484E-05 7.48747E-06 0.00000E+00
 -1       254 8.62430E-05 7.68488E-06 0.00000E+00
 -1       255 8.54371E-05 6.83159E-06 2.64698E-23
 -1       256 8.46297E-05 5.14796E-06 0.00000E+00
 -1       257 8.38212E-05 2.89669E-06 2.64698E-23
 -1       258 8.30119E-05 3.52399E-07 1.32349E-23
 -1       259 8.22026E-05-2.19546E-06 0.00000E+00
 -1       260 8.13941E-05-4.45727E-06 0.00000E+00
 -1       261 8.05867E-05-6.15799E-06-2.64698E-23
 -1       262 7.97809E-05-7.03441E-06 0.00000E+00
 -1       263 7.89756E-05-6.86527E-06 0.00000E+00
 -1       264 7.81725E-05-5.45125E-06 0.00000E+00
 -1       265 7.73656E-05-2.65630E-06-1.32349E-23
 -1       266 8.27175E-05-1.30055E-06 0.00000E+00
 -1       267 7.31775E-05-1.50257E-06 0.00000E+00
 -1       268 6.21822E-05-1.71895E-06 0.00000E+00
 -1       269 5.10831E-05-1.93346E-06 0.00000E+00
 -1       270 4.12334E-05-2.13599E-06-3.30872E-24
 -1       271 8.55297E-05 2.52898E-06 0.00000E+00
 -1       272 8.19703E-05 4.95896E-06 0.00000E+00
 -1       273 7.88433E-05 6.25641E-06 0.00000E+00
 -1       274 7.60970E-05 6.50428E-06 0.00000E+00
 -1       275 7.36879E-05 5.85255E-06 0.00000E+00
 -1       276 7.15459E-05 4.48146E-06 2.64698E-23
 -1       277 6.95902E-05 2.61151E-06 0.00000E+00
 -1       278 6.77311E-05 4.82157E-07 2.64698E-23
 -1       279 6.58741E-05-1.65295E-06-5.29396E-23
 -1       280 6.39248E-05-3.53982E-06 2.64698E-23
 -1       281 6.17932E-05-4.93832E-06 0.00000E+00
 -1       282 5.93982E-05-5.62692E-06-2.64698E-23
 -1       283 5.66689E-05-5.42354E-06 5.29396E-23
 -1       284 5.35619E-05-4.17588E-06 2.64698E-23
 -1       285 5.00235E-05-1.79897E-06 0.00000E+00
 -1       286 7.61939E-05 5.91095E-06-1.32349E-23
 -1       287 7.58223E-05 8.72995E-06-6.61744E-24
 -1       288 7.54534E-05 1.02185E-05 0.00000E+00
 -1       289 7.50857E-05 1.05244E-05 0.00000E+00
 -1       290 7.47178E-05 9.82332E-06-1.32349E-23
 -1       291 7.43490E-05 8.30051E-06 0.00000E+00
 -1       292 7.39792E-05 6.16043E-06 0.00000E+00
 -1       293 7.36084E-05 3.61339E-06 0.00000E+00
 -1       294 7.32372E-05 8.79316E-07 1.32349E-23
 -1       295 7.28659E-05-1.82010E-06-6.61744E-24
 -1       296 7.24951E-05-4.26406E-06 0.00000E+00
 -1       297 7.21247E-05-6.23410E-06 0.00000E+00
 -1       298 7.17552E-05-7.52289E-06 1.32349E-23
 -1       299 7.13833E-05-7.92966E-06-6.61744E-24
 -1       300 7.10122E-05-7.27432E-06 0.00000E+00
 -1       301 7.15002E-05 1.63872E-06 6.61744E-24
 -1       302 6.64194E-05 1.66927E-06 0.00000E+00
 -1       303 6.13349E-05 1.70366E-06 0.00000E+00
 -1       304 5.62530E-05 1.73844E-06 0.00000E+00
 -1       305 5.11804E-05 1.77026E-06 0.00000E+00
 -1       306 7.29855E-05 5.30660E-06 5.29396E-23
 -1       307 6.98105E-05 7.69991E-06 0.00000E+00
 -1       308 6.71032E-05 8.86478E-06 5.29396E-23
 -1       309 6.48199E-05 8.86987E-06 2.64698E-23
 -1       310 6.29219E-05 7.84639E-06 0.00000E+00
 -1       311 6.13460E-05 5.95619E-06 0.00000E+00
 -1       312 6.00177E-05 3.40251E-06 5.29396E-23
 -1       313 5.88524E-05 4.10438E-07 0.00000E+00
 -1       314 5.77588E-05-2.77414E-06-5.29396E-23
 -1       315 5.66433E-05-5.89880E-06 0.00000E+00
 -1       316 5.54130E-05-8.71439E-06-5.29396E-23
 -1       317 5.39803E-05-1.09815E-05 0.00000E+00
 -1       318 5.22639E-05-1.24873E-05-5.29396E-23
 -1       319 5.02036E-05-1.30403E-05-2.64698E-23
 -1       320 4.77295E-05-1.25025E-05 0.00000E+00
 -1       321 7.03260E-05-3.16074E-06 0.00000E+00
 -1       322 7.00516E-05-1.52860E-06 6.61744E-24
 -1       323 6.97769E-05-4.32502E-07-1.32349E-23
 -1       324 6.95063E-05 1.89346E-07-3.30872E-24
 -1       325 6.92362E-05 4.06887E-07 6.61744E-24
 -1       326 6.89668E-05 2.92900E-07-3.30872E-24
 -1       327 6.86974E-05-7.41466E-08 6.61744E-24
 -1       328 6.84282E-05-6.14006E-07 0.00000E+00
 -1       329 6.81589E-05-1.24346E-06 0.00000E+00
 -1       330 6.78896E-05-1.87870E-06 0.00000E+00
 -1       331 6.76204E-05-2.43577E-06-6.61744E-24
 -1       332 6.73512E-05-2.83128E-06 0.00000E+00
 -1       333 6.70821E-05-2.98462E-06 6.61744E-24
 -1       334 6.68126E-05-2.81688E-06 0.00000E+00
 -1       335 6.65430E-05-2.25464E-06-6.61744E-24
 -1       336 6.73891E-05-6.27818E-06 0.00000E+00
 -1       337 6.30821E-05-7.17667E-06 1.32349E-23
 -1       338 5.81849E-05-8.07706E-06 0.00000E+00
 -1       339 5.31897E-05-8.97448E-06-1.32349E-23
 -1       340 4.85904E-05-9.87117E-06-1.32349E-23
 -1       341 6.86307E-05-3.41642E-06 2.64698E-23
 -1       342 6.67455E-05-1.76886E-06 1.32349E-23
 -1       343 6.49953E-05-4.76836E-07-2.64698E-23
 -1       344 6.33870E-05 4.31358E-07 0.00000E+00
 -1       345 6.19212E-05 9.60822E-07-2.64698E-23
 -1       346 6.05913E-05 1.12720E-06-1.32349E-23
 -1       347 5.93806E-05 9.76092E-07 0.00000E+00
 -1       348 5.82683E-05 5.62633E-07 0.00000E+00
 -1       349 5.72256E-05-3.63405E-08 0.00000E+00
 -1       350 5.62218E-05-7.38315E-07 0.00000E+00
 -1       351 5.52229E-05-1.45271E-06-2.64698E-23
 -1       352 5.41960E-05-2.08801E-06-1.32349E-23
 -1       353 5.31082E-05-2.56004E-06 0.00000E+00
 -1       354 5.19375E-05-2.78607E-06 1.32349E-23
 -1       355 5.06503E-05-2.71035E-06-1.32349E-23
 -1       356 6.60961E-05-1.31308E-07 0.00000E+00
 -1       357 6.59276E-05 6.27036E-07 0.00000E+00
 -1       358 6.57590E-05 1.09122E-06 6.61744E-24
 -1       359 6.55915E-05 1.30602E-06-3.30872E-24
 -1       360 6.54242E-05 1.31883E-06 0.00000E+00
 -1       361 6.52571E-05 1.17799E-06-3.30872E-24
 -1       362 6.50900E-05 9.33437E-07-6.61744E-24
 -1       363 6.49229E-05 6.35569E-07-3.30872E-24
 -1       364 6.47560E-05 3.35350E-07-6.61744E-24
 -1       365 6.45892E-05 8.37613E-08 0.00000E+00
 -1       366 6.44225E-05-6.87368E-08 0.00000E+00
 -1       367 6.42566E-05-7.21203E-08-1.65436E-24
 -1       368 6.40909E-05 1.22054E-07-3.30872E-24
 -1       369 6.39288E-05 5.61356E-07 8.27181E-25
 -1       370 6.37655E-05 1.29080E-06 0.00000E+00
 -1       371 6.43167E-05-1.40566E-06 6.61744E-24
 -1       372 6.12268E-05-1.58029E-06-3.30872E-24
 -1       373 5.75886E-05-1.75682E-06 0.00000E+00
 -1       374 5.39918E-05-1.93055E-06-1.65436E-24
 -1       375 5.10261E-05-2.10277E-06 0.00000E+00
 -1       376 6.52602E-05-3.14038E-07 0.00000E+00
 -1       377 6.43395E-05 3.24375E-07 6.61744E-24
 -1       378 6.35098E-05 7.23103E-07 0.00000E+00
 -1       379 6.27551E-05 9.15672E-07 6.61744E-24
 -1       380 6.20611E-05 9.46501E-07 0.00000E+00
 -1       381 6.14100E-05 8.61812E-07 0.00000E+00
 -1       382 6.07829E-05 7.13241E-07 0.00000E+00
 -1       383 6.01600E-05 5.53354E-07 0.00000E+00
 -1       384 5.95214E-05 4.35295E-07-1.32349E-23
 -1       385 5.88476E-05 4.11578E-07 0.00000E+00
 -1       386 5.81205E-05 5.30245E-07 0.00000E+00
 -1       387 5.73239E-05 8.37352E-07 6.61744E-24
 -1       388 5.64427E-05 1.37002E-06 0.00000E+00
 -1       389 5.54697E-05 2.16405E-06-6.61744E-24
 -1       390 5.43888E-05 3.23879E-06 6.61744E-24
 -1       406 6.21592E-05 2.73399E-06 0.00000E+00
 -1       407 6.05439E-05 3.11529E-06 0.00000E+00
 -1       408 5.88093E-05 3.49653E-06 1.32349E-23
 -1       409 5.69891E-05 3.87678E-06 0.00000E+00
 -1       410 5.51173E-05 4.25487E-06 1.32349E-23
 -1       466 3.47004E-05 2.38237E-06 0.00000E+00
 -1       467 3.54599E-05 5.22939E-06 0.00000E+00
 -1       468 3.62208E-05 6.58462E-06-2.64698E-23
 -1       469 3.69885E-05 6.77297E-06 0.00000E+00
 -1       470 3.77563E-05 6.06155E-06 2.64698E-23
 -1       471 3.85245E-05 4.69929E-06 0.00000E+00
 -1       472 3.92924E-05 2.90278E-06-2.64698E-23
 -1       473 4.00599E-05 8.79829E-07-1.32349E-23
 -1       474 4.08274E-05-1.17308E-06 2.64698E-23
 -1       475 4.15950E-05-3.05999E-06 0.00000E+00
 -1       476 4.23628E-05-4.57671E-06 0.00000E+00
 -1       477 4.31299E-05-5.51162E-06-1.32349E-23
 -1       478 4.38968E-05-5.62410E-06 0.00000E+00
 -1       479 4.46553E-05-4.65695E-06 0.00000E+00
 -1       480 4.54139E-05-2.29956E-06 0.00000E+00
 -1       481 2.86925E-05-2.18210E-06-1.65436E-24
 -1       482 2.41906E-05-2.04167E-06 0.00000E+00
 -1       483 2.04038E-05-1.89879E-06-3.30872E-24
 -1       484 1.72641E-05-1.75286E-06 0.00000E+00
 -1       485 1.47099E-05-1.60511E-06 0.00000E+00
 -1       486 3.11874E-05 2.61516E-06-1.32349E-23
 -1       487 2.87153E-05 6.59608E-06 0.00000E+00
 -1       488 2.66144E-05 9.60441E-06 2.64698E-23
 -1       489 2.48821E-05 1.16197E-05 0.00000E+00
 -1       490 2.35063E-05 1.26894E-05 0.00000E+00
 -1       491 2.24596E-05 1.28804E-05 0.00000E+00
 -1       492 2.16961E-05 1.23162E-05 0.00000E+00
 -1       493 2.11624E-05 1.11378E-05 0.00000E+00
 -1       494 2.07911E-05 9.52500E-06 2.64698E-23
 -1       495 2.05111E-05 7.66795E-06-1.32349E-23
 -1       496 2.02457E-05 5.77231E-06-2.64698E-23
 -1       497 1.99185E-05 4.04486E-06 0.00000E+00
 -1       498 1.94555E-05 2.68125E-06 2.64698E-23
 -1       499 1.87912E-05 1.87060E-06 1.32349E-23
 -1       500 1.78614E-05 1.76282E-06-1.32349E-23
 -1       501 4.60301E-05 5.91747E-06 0.00000E+00
 -1       502 4.59521E-05 8.34256E-06 0.00000E+00
 -1       503 4.58761E-05 9.27803E-06 0.00000E+00
 -1       504 4.58022E-05 8.94259E-06 0.00000E+00
 -1       505 4.57276E-05 7.56093E-06 0.00000E+00
 -1       506 4.56519E-05 5.35977E-06 1.65436E-24
 -1       507 4.55749E-05 2.56970E-06 1.65436E-24
 -1       508 4.54970E-05-5.77671E-07 0.00000E+00
 -1       509 4.54187E-05-3.84897E-06-1.65436E-24
 -1       510 4.53406E-05-7.01058E-06 0.00000E+00
 -1       511 4.52635E-05-9.82950E-06 3.30872E-24
 -1       512 4.51875E-05-1.20733E-05 1.65436E-24
 -1       513 4.51127E-05-1.35122E-05 0.00000E+00
 -1       514 4.50372E-05-1.39181E-05 1.65436E-24
 -1       515 4.49618E-05-1.30677E-05 6.61744E-24
 -1       516 4.07025E-05 1.89193E-06 3.30872E-24
 -1       517 3.47175E-05 2.01163E-06 0.00000E+00
 -1       518 2.87425E-05 2.13025E-06 1.65436E-24
 -1       519 2.33516E-05 2.25311E-06-8.27181E-25
 -1       520 1.91245E-05 2.38206E-06 0.00000E+00
 -1       521 4.27581E-05 5.45462E-06-2.64698E-23
 -1       522 3.98525E-05 7.72165E-06-2.64698E-23
 -1       523 3.74461E-05 8.67520E-06 0.00000E+00
 -1       524 3.54851E-05 8.41377E-06 0.00000E+00
 -1       525 3.39198E-05 7.09488E-06-5.29396E-23
 -1       526 3.26784E-05 4.90452E-06-2.64698E-23
 -1       527 3.16783E-05 2.06636E-06-5.29396E-23
 -1       528 3.08287E-05-1.17669E-06 2.64698E-23
 -1       529 3.00329E-05-4.56444E-06 5.29396E-23
 -1       530 2.91928E-05-7.83225E-06 0.00000E+00
 -1       531 2.82117E-05-1.07208E-05 0.00000E+00
 -1       532 2.69984E-05-1.29817E-05 0.00000E+00
 -1       533 2.54685E-05-1.43939E-05 0.00000E+00
 -1       534 2.35568E-05-1.47591E-05 0.00000E+00
 -1       535 2.11928E-05-1.39299E-05 2.64698E-23
 -1       536 4.51221E-05-7.98365E-06 0.00000E+00
 -1       537 4.53947E-05-5.87470E-06 0.00000E+00
 -1       538 4.56674E-05-4.33223E-06 0.00000E+00
 -1       539 4.59448E-05-3.27748E-06-3.30872E-24
 -1       540 4.62228E-05-2.63446E-06 6.61744E-24
 -1       541 4.65018E-05-2.32892E-06 0.00000E+00
 -1       542 4.67810E-05-2.28846E-06 6.61744E-24
 -1       543 4.70603E-05-2.44185E-06 0.00000E+00
 -1       544 4.73397E-05-2.71889E-06 6.61744E-24
 -1       545 4.76190E-05-3.04998E-06 3.30872E-24
 -1       546 4.78982E-05-3.36575E-06-6.61744E-24
 -1       547 4.81772E-05-3.59679E-06 0.00000E+00
 -1       548 4.84560E-05-3.67325E-06 0.00000E+00
 -1       549 4.87331E-05-3.52458E-06-3.30872E-24
 -1       550 4.90105E-05-3.07900E-06 0.00000E+00
 -1       551 4.09067E-05-1.09125E-05 2.06795E-24
 -1       552 3.65352E-05-1.10804E-05-4.13590E-25
 -1       553 3.19273E-05-1.12480E-05 3.30872E-24
 -1       554 2.72540E-05-1.14166E-05-3.30872E-24
 -1       555 2.26862E-05-1.15875E-05 0.00000E+00
 -1       556 4.36673E-05-8.19340E-06 0.00000E+00
 -1       557 4.26699E-05-6.19138E-06 0.00000E+00
 -1       558 4.18582E-05-4.67918E-06 0.00000E+00
 -1       559 4.12089E-05-3.59656E-06 0.00000E+00
 -1       560 4.06987E-05-2.88301E-06 1.32349E-23
 -1       561 4.03043E-05-2.47743E-06 0.00000E+00
 -1       562 4.00027E-05-2.31861E-06 0.00000E+00
 -1       563 3.97707E-05-2.34523E-06 0.00000E+00
 -1       564 3.95854E-05-2.49595E-06-6.61744E-24
 -1       565 3.94235E-05-2.70936E-06 0.00000E+00
 -1       566 3.92623E-05-2.92407E-06-3.30872E-24
 -1       567 3.90785E-05-3.07866E-06-1.65436E-24
 -1       568 3.88495E-05-3.11174E-06 4.13590E-24
 -1       569 3.85525E-05-2.96207E-06 2.06795E-24
 -1       570 3.81655E-05-2.56848E-06-3.30872E-24
 -1       571 4.95128E-05-1.51077E-06-1.65436E-24
 -1       572 4.97571E-05-9.75799E-07-1.03398E-24
 -1       573 5.00038E-05-6.22794E-07-3.30872E-24
 -1       574 5.02518E-05-4.14144E-07 1.65436E-24
 -1       575 5.05003E-05-3.12117E-07 0.00000E+00
 -1       576 5.07489E-05-2.78768E-07 3.30872E-24
 -1       577 5.09976E-05-2.76149E-07 6.61744E-24
 -1       578 5.12464E-05-2.66287E-07 0.00000E+00
 -1       579 5.14952E-05-2.11209E-07 1.32349E-23
 -1       580 5.17439E-05-7.29326E-08-6.61744E-24
 -1       581 5.19926E-05 1.86527E-07 0.00000E+00
 -1       582 5.22411E-05 6.05146E-07 0.00000E+00
 -1       583 5.24894E-05 1.22089E-06 0.00000E+00
 -1       584 5.27372E-05 2.07145E-06 0.00000E+00
 -1       585 5.29840E-05 3.19438E-06-1.32349E-23
 -1       586 4.75890E-05-2.19697E-06 0.00000E+00
 -1       587 4.56414E-05-2.12951E-06 0.00000E+00
 -1       588 4.35544E-05-2.06216E-06 0.00000E+00
 -1       589 4.14495E-05-1.99546E-06 0.00000E+00
 -1       590 3.94486E-05-1.93021E-06 0.00000E+00
 -1       591 4.88213E-05-1.42891E-06 0.00000E+00
 -1       592 4.84105E-05-7.39462E-07 0.00000E+00
 -1       593 4.80439E-05-1.72515E-07 0.00000E+00
 -1       594 4.77141E-05 2.93756E-07 3.30872E-24
 -1       595 4.74137E-05 6.81169E-07 0.00000E+00
 -1       596 4.71345E-05 1.01150E-06 0.00000E+00
 -1       597 4.68686E-05 1.30651E-06 0.00000E+00
 -1       598 4.66077E-05 1.58796E-06 0.00000E+00
 -1       599 4.63437E-05 1.87761E-06 3.30872E-24
 -1       600 4.60685E-05 2.19721E-06-1.65436E-24
 -1       601 4.57740E-05 2.56852E-06 1.65436E-24
 -1       602 4.54520E-05 3.01332E-06 8.27181E-25
 -1       603 4.50947E-05 3.55337E-06 8.27181E-25
 -1       604 4.46946E-05 4.21052E-06-8.27181E-25
 -1       605 4.42446E-05 5.00666E-06 0.00000E+00
 -1       606 5.32951E-05 6.50615E-06 0.00000E+00
 -1       607 5.33562E-05 8.55514E-06 0.00000E+00
 -1       608 5.34155E-05 1.07620E-05 0.00000E+00
 -1       609 5.34738E-05 1.31155E-05 0.00000E+00
 -1       610 5.35315E-05 1.56047E-05 0.00000E+00
 -1       611 5.35888E-05 1.82183E-05 0.00000E+00
 -1       612 5.36458E-05 2.09448E-05 0.00000E+00
 -1       613 5.37024E-05 2.37730E-05 0.00000E+00
 -1       614 5.37588E-05 2.66916E-05 0.00000E+00
 -1       615 5.38150E-05 2.96893E-05 0.00000E+00
 -1       616 5.38710E-05 3.27547E-05 0.00000E+00
 -1       617 5.39268E-05 3.58766E-05 0.00000E+00
 -1       618 5.39825E-05 3.90435E-05 0.00000E+00
 -1       619 5.40380E-05 4.22443E-05 0.00000E+00
 -1       620 5.40933E-05 4.54675E-05 0.00000E+00
 -1       621 5.14328E-05 4.84841E-06 6.61744E-24
 -1       622 4.96972E-05 5.07353E-06 1.65436E-24
 -1       623 4.80411E-05 5.29886E-06 3.30872E-24
 -1       624 4.64841E-05 5.52374E-06-3.30872E-24
 -1       625 4.50458E-05 5.74733E-06-1.65436E-24
 -1       626 5.26278E-05 6.57632E-06 0.00000E+00
 -1       627 5.19574E-05 8.70378E-06 0.00000E+00
 -1       628 5.12256E-05 1.09913E-05-6.61744E-24
 -1       629 5.04397E-05 1.34209E-05-3.30872E-24
 -1       630 4.96069E-05 1.59744E-05 6.61744E-24
 -1       631 4.87342E-05 1.86334E-05 6.61744E-24
 -1       632 4.78286E-05 2.13793E-05 0.00000E+00
 -1       633 4.68971E-05 2.41939E-05 0.00000E+00
 -1       634 4.59465E-05 2.70587E-05-3.30872E-24
 -1       635 4.49840E-05 2.99552E-05-1.65436E-24
 -1       636 4.40163E-05 3.28650E-05 0.00000E+00
 -1       637 4.30506E-05 3.57697E-05 0.00000E+00
 -1       638 4.20935E-05 3.86508E-05 0.00000E+00
 -1       639 4.11518E-05 4.14899E-05-1.65436E-24
 -1       640 4.02318E-05 4.42685E-05-1.24077E-24
 -1       641 5.41483E-05 5.20994E-05 0.00000E+00
 -1       642 5.41450E-05 5.58897E-05 0.00000E+00
 -1       643 5.41405E-05 6.00193E-05 0.00000E+00
 -1       644 5.41345E-05 6.44347E-05 0.00000E+00
 -1       645 5.41274E-05 6.90823E-05-2.06795E-25
 -1       646 5.41195E-05 7.39087E-05 5.16988E-26
 -1       647 5.41109E-05 7.88606E-05 1.03398E-25
 -1       648 5.41020E-05 8.38845E-05 0.00000E+00
 -1       649 5.40930E-05 8.89270E-05-5.16988E-26
 -1       650 5.40841E-05 9.39348E-05-1.29247E-26
 -1       651 5.40755E-05 9.88544E-05 5.16988E-26
 -1       652 5.40674E-05 1.03632E-04 0.00000E+00
 -1       653 5.40601E-05 1.08215E-04-4.13590E-25
 -1       654 5.40526E-05 1.12550E-04 0.00000E+00
 -1       655 5.40467E-05 1.16583E-04 3.30872E-24
 -1       656 5.11906E-05 4.84210E-05 0.00000E+00
 -1       657 4.86054E-05 4.81272E-05 0.00000E+00
 -1       658 4.62608E-05 4.78348E-05 0.00000E+00
 -1       659 4.40236E-05 4.75423E-05 3.30872E-24
 -1       660 4.17602E-05 4.72491E-05 3.30872E-24
 -1       661 5.32143E-05 5.22075E-05 6.61744E-24
 -1       662 5.21634E-05 5.60593E-05 0.00000E+00
 -1       663 5.10023E-05 6.02001E-05-1.32349E-23
 -1       664 4.97528E-05 6.45801E-05-6.61744E-24
 -1       665 4.84313E-05 6.91496E-05 0.00000E+00
 -1       666 4.70564E-05 7.38612E-05 6.61744E-24
 -1       667 4.56452E-05 7.86684E-05 0.00000E+00
 -1       668 4.42152E-05 8.35250E-05 0.00000E+00
 -1       669 4.27836E-05 8.83857E-05 0.00000E+00
 -1       670 4.13678E-05 9.32051E-05-6.61744E-24
 -1       671 3.99849E-05 9.79371E-05 0.00000E+00
 -1       672 3.86523E-05 1.02535E-04 0.00000E+00
 -1       673 3.73882E-05 1.06953E-04 6.61744E-24
 -1       674 3.62083E-05 1.11139E-04 3.30872E-24
 -1       675 3.51353E-05 1.15046E-04 0.00000E+00
 -1       676 5.05941E-05 1.19987E-04 0.00000E+00
 -1       677 4.72328E-05 1.19710E-04 0.00000E+00
 -1       678 4.39306E-05 1.19434E-04 0.00000E+00
 -1       679 4.06668E-05 1.19159E-04-3.30872E-24
 -1       680 3.74202E-05 1.18883E-04 0.00000E+00
 -1       681 1.29234E-05 5.83938E-08 0.00000E+00
 -1       682 1.31722E-05 1.08739E-06-3.30872E-24
 -1       683 1.34210E-05 1.70515E-06 6.61744E-24
 -1       684 1.36710E-05 1.98537E-06 0.00000E+00
 -1       685 1.39212E-05 1.99634E-06 0.00000E+00
 -1       686 1.41716E-05 1.80459E-06-3.30872E-24
 -1       687 1.44220E-05 1.47338E-06 0.00000E+00
 -1       688 1.46723E-05 1.06509E-06 0.00000E+00
 -1       689 1.49227E-05 6.40805E-07-6.61744E-24
 -1       690 1.51729E-05 2.61557E-07 0.00000E+00
 -1       691 1.54231E-05-1.09186E-08 0.00000E+00
 -1       692 1.56727E-05-1.14194E-07 3.30872E-24
 -1       693 1.59221E-05 1.68852E-08 0.00000E+00
 -1       694 1.61684E-05 4.49004E-07 1.65436E-24
 -1       695 1.64153E-05 1.25367E-06-1.65436E-24
 -1       696 1.07464E-05-1.22122E-06-6.61744E-24
 -1       697 8.55039E-06-9.78421E-07 0.00000E+00
 -1       698 6.23583E-06-7.36166E-07-6.61744E-24
 -1       699 3.94440E-06-4.92200E-07 0.00000E+00
 -1       700 1.81813E-06-2.47973E-07-6.61744E-24
 -1       701 1.18277E-05 6.62726E-08-3.30872E-24
 -1       702 1.10758E-05 1.27540E-06 0.00000E+00
 -1       703 1.04329E-05 2.19747E-06 0.00000E+00
 -1       704 9.88621E-06 2.85572E-06-3.30872E-24
 -1       705 9.42707E-06 3.28083E-06 0.00000E+00
 -1       706 9.04320E-06 3.50407E-06 0.00000E+00
 -1       707 8.72169E-06 3.56099E-06 6.61744E-24
 -1       708 8.44875E-06 3.48821E-06 3.30872E-24
 -1       709 8.20975E-06 3.32492E-06 0.00000E+00
 -1       710 7.98981E-06 3.11097E-06 0.00000E+00
 -1       711 7.77362E-06 2.88719E-06 0.00000E+00
 -1       712 7.54625E-06 2.69463E-06-3.30872E-24
 -1       713 7.29220E-06 2.57343E-06-6.61744E-24
 -1       714 6.99899E-06 2.56430E-06-3.30872E-24
 -1       715 6.64912E-06 2.70355E-06-3.30872E-24
 -1       716 1.67453E-05 3.46333E-06 0.00000E+00
 -1       717 1.68577E-05 3.42699E-06-8.27181E-25
 -1       718 1.69691E-05 2.56263E-06 3.30872E-24
 -1       719 1.70818E-05 1.03466E-06 0.00000E+00
 -1       720 1.71938E-05-9.97382E-07 3.30872E-24
 -1       721 1.73055E-05-3.37543E-06 1.65436E-24
 -1       722 1.74168E-05-5.94393E-06 3.30872E-24
 -1       723 1.75281E-05-8.54797E-06 0.00000E+00
 -1       724 1.76396E-05-1.10329E-05 0.00000E+00
 -1       725 1.77516E-05-1.32435E-05 0.00000E+00
 -1       726 1.78642E-05-1.50229E-05 0.00000E+00
 -1       727 1.79770E-05-1.62126E-05 0.00000E+00
 -1       728 1.80900E-05-1.66500E-05 1.65436E-24
 -1       729 1.81990E-05-1.61702E-05 2.06795E-25
 -1       730 1.83081E-05-1.46016E-05 0.00000E+00
 -1       731 1.49320E-05 2.58356E-06 8.27181E-25
 -1       732 1.28726E-05 2.67227E-06 4.13590E-25
 -1       733 1.07201E-05 2.76022E-06 0.00000E+00
 -1       734 8.72810E-06 2.85039E-06 0.00000E+00
 -1       735 7.15102E-06 2.94137E-06-3.30872E-24
 -1       736 1.54727E-05 3.52793E-06-1.32349E-23
 -1       737 1.44349E-05 4.12548E-06 0.00000E+00
 -1       738 1.35546E-05 4.30784E-06-2.64698E-23
 -1       739 1.28227E-05 4.08263E-06 0.00000E+00
 -1       740 1.22313E-05 3.48244E-06 0.00000E+00
 -1       741 1.17651E-05 2.54558E-06 0.00000E+00
 -1       742 1.14036E-05 1.32875E-06 0.00000E+00
 -1       743 1.11235E-05-1.06123E-07 1.32349E-23
 -1       744 1.08973E-05-1.68538E-06 0.00000E+00
 -1       745 1.06966E-05-3.33251E-06-1.32349E-23
 -1       746 1.04914E-05-4.96753E-06 0.00000E+00
 -1       747 1.02526E-05-6.51038E-06 0.00000E+00
 -1       748 9.95148E-06-7.88634E-06-2.64698E-23
 -1       749 9.56479E-06-9.02254E-06 6.61744E-24
 -1       750 9.06555E-06-9.86178E-06 0.00000E+00
 -1       751 1.95262E-05-8.73323E-06 0.00000E+00
 -1       752 2.07299E-05-6.54432E-06 0.00000E+00
 -1       753 2.19312E-05-5.02565E-06 2.64698E-23
 -1       754 2.31453E-05-4.02176E-06 1.32349E-23
 -1       755 2.43604E-05-3.41781E-06 0.00000E+00
 -1       756 2.55780E-05-3.11178E-06 0.00000E+00
 -1       757 2.67960E-05-3.02525E-06-2.64698E-23
 -1       758 2.80145E-05-3.08686E-06 0.00000E+00
 -1       759 2.92329E-05-3.23697E-06 0.00000E+00
 -1       760 3.04511E-05-3.41882E-06-1.32349E-23
 -1       761 3.16690E-05-3.57812E-06 0.00000E+00
 -1       762 3.28850E-05-3.65990E-06-1.32349E-23
 -1       763 3.41006E-05-3.60301E-06-2.64698E-23
 -1       764 3.53066E-05-3.34188E-06-1.32349E-23
 -1       765 3.65153E-05-2.79481E-06 1.32349E-23
 -1       766 1.52232E-05-1.15545E-05 0.00000E+00
 -1       767 1.27003E-05-1.13106E-05-8.27181E-25
 -1       768 1.07885E-05-1.10670E-05 0.00000E+00
 -1       769 9.45733E-06-1.08210E-05 0.00000E+00
 -1       770 8.68553E-06-1.05730E-05-5.16988E-26
 -1       771 1.64467E-05-8.87307E-06 0.00000E+00
 -1       772 1.46495E-05-6.41250E-06 1.32349E-23
 -1       773 1.30015E-05-4.35641E-06 2.64698E-23
 -1       774 1.14926E-05-2.67355E-06 3.97047E-23
 -1       775 1.01120E-05-1.33257E-06 0.00000E+00
 -1       776 8.84806E-06-3.01873E-07 1.32349E-23
 -1       777 7.68885E-06 4.50286E-07-2.64698E-23
 -1       778 6.62236E-06 9.55832E-07 0.00000E+00
 -1       779 5.63652E-06 1.24681E-06 2.64698E-23
 -1       780 4.71925E-06 1.35542E-06 0.00000E+00
 -1       781 3.85841E-06 1.31397E-06 2.64698E-23
 -1       782 3.04201E-06 1.15491E-06 0.00000E+00
 -1       783 2.25806E-06 9.10743E-07-2.64698E-23
 -1       784 1.49541E-06 6.14349E-07-1.32349E-23
 -1       785 7.43242E-07 2.98729E-07 0.00000E+00
 -1       786 3.80312E-05-8.58011E-07-6.61744E-24
 -1       787 3.84105E-05-6.09031E-08 3.30872E-24
 -1       788 3.87891E-05 5.53983E-07 0.00000E+00
 -1       789 3.91710E-05 1.01914E-06 0.00000E+00
 -1       790 3.95532E-05 1.36593E-06-1.32349E-23
 -1       791 3.99360E-05 1.62504E-06 0.00000E+00
 -1       792 4.03190E-05 1.82645E-06 1.32349E-23
 -1       793 4.07021E-05 1.99983E-06 6.61744E-24
 -1       794 4.10852E-05 2.17464E-06 1.32349E-23
 -1       795 4.14683E-05 2.38033E-06-6.61744E-24
 -1       796 4.18513E-05 2.64659E-06 1.32349E-23
 -1       797 4.22338E-05 3.00348E-06 0.00000E+00
 -1       798 4.26161E-05 3.48172E-06 0.00000E+00
 -1       799 4.29962E-05 4.11278E-06-6.61744E-24
 -1       800 4.33767E-05 4.92928E-06-6.61744E-24
 -1       801 3.40842E-05-1.55097E-06 0.00000E+00
 -1       802 2.69229E-05-1.23222E-06 0.00000E+00
 -1       803 1.80637E-05-9.26600E-07 0.00000E+00
 -1       804 9.37534E-06-6.22328E-07 0.00000E+00
 -1       805 2.72745E-06-3.02884E-07 0.00000E+00
 -1       806 3.69928E-05-9.54978E-07 6.61744E-24
 -1       807 3.63381E-05-1.32695E-07 0.00000E+00
 -1       808 3.57091E-05 6.14056E-07 0.00000E+00
 -1       809 3.51009E-05 1.30165E-06 0.00000E+00
 -1       810 3.45084E-05 1.94639E-06 1.32349E-23
 -1       811 3.39257E-05 2.56443E-06 0.00000E+00
 -1       812 3.33470E-05 3.17191E-06 0.00000E+00
 -1       813 3.27661E-05 3.78494E-06 3.30872E-24
 -1       814 3.21770E-05 4.41964E-06 0.00000E+00
 -1       815 3.15739E-05 5.09213E-06 3.30872E-24
 -1       816 3.09505E-05 5.81850E-06 0.00000E+00
 -1       817 3.03010E-05 6.61488E-06 0.00000E+00
 -1       818 2.96195E-05 7.49737E-06 0.00000E+00
 -1       819 2.89009E-05 8.48218E-06 1.65436E-24
 -1       820 2.81405E-05 9.58561E-06-3.30872E-24
 -1       821 4.34863E-05 7.28667E-06 0.00000E+00
 -1       822 4.32127E-05 8.92000E-06-3.30872E-24
 -1       823 4.29392E-05 1.08368E-05 6.61744E-24
 -1       824 4.26628E-05 1.30078E-05 0.00000E+00
 -1       825 4.23856E-05 1.54022E-05-6.61744E-24
 -1       826 4.21075E-05 1.79885E-05 3.30872E-24
 -1       827 4.18289E-05 2.07339E-05 0.00000E+00
 -1       828 4.15498E-05 2.36051E-05 3.30872E-24
 -1       829 4.12705E-05 2.65679E-05-6.61744E-24
 -1       830 4.09911E-05 2.95880E-05 0.00000E+00
 -1       831 4.07117E-05 3.26307E-05 0.00000E+00
 -1       832 4.04327E-05 3.56610E-05 0.00000E+00
 -1       833 4.01541E-05 3.86442E-05 0.00000E+00
 -1       834 3.98777E-05 4.15457E-05-3.30872E-24
 -1       835 3.96011E-05 4.43314E-05 3.30872E-24
 -1       836 4.19218E-05 6.75950E-06-1.32349E-23
 -1       837 3.91099E-05 7.58161E-06-6.61744E-24
 -1       838 3.57804E-05 8.40043E-06 2.64698E-23
 -1       839 3.23987E-05 9.21799E-06-6.61744E-24
 -1       840 2.94289E-05 1.00387E-05 0.00000E+00
 -1       841 4.31097E-05 7.24888E-06 0.00000E+00
 -1       842 4.23358E-05 8.87367E-06 0.00000E+00
 -1       843 4.14449E-05 1.08105E-05-3.30872E-24
 -1       844 4.04474E-05 1.30248E-05-1.65436E-24
 -1       845 3.93587E-05 1.54805E-05 0.00000E+00
 -1       846 3.81928E-05 1.81398E-05 0.00000E+00
 -1       847 3.69648E-05 2.09629E-05 0.00000E+00
 -1       848 3.56902E-05 2.39093E-05-1.65436E-24
 -1       849 3.43847E-05 2.69372E-05 0.00000E+00
 -1       850 3.30644E-05 3.00044E-05 1.65436E-24
 -1       851 3.17453E-05 3.30683E-05 0.00000E+00
 -1       852 3.04436E-05 3.60865E-05 1.65436E-24
 -1       853 2.91752E-05 3.90167E-05 0.00000E+00
 -1       854 2.79563E-05 4.18174E-05-1.65436E-24
 -1       855 2.68015E-05 4.44481E-05 0.00000E+00
 -1       856 3.90337E-05 4.98153E-05 0.00000E+00
 -1       857 3.87152E-05 5.32143E-05 0.00000E+00
 -1       858 3.83955E-05 5.70985E-05 6.61744E-24
 -1       859 3.80719E-05 6.13997E-05 0.00000E+00
 -1       860 3.77466E-05 6.60467E-05 0.00000E+00
 -1       861 3.74197E-05 7.09667E-05 3.30872E-24
 -1       862 3.70916E-05 7.60855E-05 1.32349E-23
 -1       863 3.67629E-05 8.13275E-05 6.61744E-24
 -1       864 3.64340E-05 8.66165E-05-1.32349E-23
 -1       865 3.61052E-05 9.18763E-05 0.00000E+00
 -1       866 3.57770E-05 9.70305E-05-1.32349E-23
 -1       867 3.54500E-05 1.02003E-04 0.00000E+00
 -1       868 3.51244E-05 1.06721E-04-6.61744E-24
 -1       869 3.48017E-05 1.11109E-04 0.00000E+00
 -1       870 3.44802E-05 1.15096E-04-6.61744E-24
 -1       871 3.69430E-05 4.69534E-05 0.00000E+00
 -1       872 3.46378E-05 4.69382E-05 0.00000E+00
 -1       873 3.23928E-05 4.69226E-05 0.00000E+00
 -1       874 3.01791E-05 4.69066E-05 0.00000E+00
 -1       875 2.79673E-05 4.68898E-05 8.27181E-25
 -1       876 3.86422E-05 4.99261E-05 6.61744E-24
 -1       877 3.77766E-05 5.33829E-05 0.00000E+00
 -1       878 3.67502E-05 5.72616E-05 0.00000E+00
 -1       879 3.55919E-05 6.14959E-05 6.61744E-24
 -1       880 3.43236E-05 6.60204E-05-1.32349E-23
 -1       881 3.29693E-05 7.07726E-05 6.61744E-24
 -1       882 3.15516E-05 7.56919E-05-1.32349E-23
 -1       883 3.00929E-05 8.07191E-05 0.00000E+00
 -1       884 2.86155E-05 8.57954E-05-1.32349E-23
 -1       885 2.71414E-05 9.08630E-05 0.00000E+00
 -1       886 2.56925E-05 9.58637E-05 0.00000E+00
 -1       887 2.42910E-05 1.00739E-04 6.61744E-24
 -1       888 2.29597E-05 1.05428E-04 1.32349E-23
 -1       889 2.17190E-05 1.09870E-04-3.30872E-24
 -1       890 2.05966E-05 1.14003E-04-6.61744E-24
 -1       891 3.13021E-05 1.18471E-04 0.00000E+00
 -1       892 2.90100E-05 1.18327E-04 0.00000E+00
 -1       893 2.69938E-05 1.18183E-04 0.00000E+00
 -1       894 2.49532E-05 1.18041E-04 0.00000E+00
 -1       895 2.25878E-05 1.17897E-04 0.00000E+00
 -1       896 3.87494E-07 1.42879E-06 0.00000E+00
 -1       897 7.78500E-07 2.46933E-06-6.61744E-24
 -1       898 1.16962E-06 3.18056E-06-1.32349E-23
 -1       899 1.56145E-06 3.61804E-06 6.61744E-24
 -1       900 1.95338E-06 3.83044E-06 1.32349E-23
 -1       901 2.34543E-06 3.86413E-06 6.61744E-24
 -1       902 2.73750E-06 3.76095E-06 0.00000E+00
 -1       903 3.12955E-06 3.56138E-06 0.00000E+00
 -1       904 3.52157E-06 3.30341E-06 0.00000E+00
 -1       905 3.91350E-06 3.02448E-06 0.00000E+00
 -1       906 4.30535E-06 2.76148E-06 0.00000E+00
 -1       907 4.69679E-06 2.55147E-06 0.00000E+00
 -1       908 5.08811E-06 2.43283E-06 0.00000E+00
 -1       909 5.47719E-06 2.44491E-06 0.00000E+00
 -1       910 5.86693E-06 2.63030E-06 6.61744E-24
 -1       911 6.38212E-06 3.34412E-06-3.30872E-24
 -1       912 6.52224E-06 3.25688E-06 1.65436E-24
 -1       913 6.66217E-06 2.82817E-06 0.00000E+00
 -1       914 6.80232E-06 2.11327E-06 1.65436E-24
 -1       915 6.94231E-06 1.16484E-06 0.00000E+00
 -1       916 7.08219E-06 3.47170E-08-1.65436E-24
 -1       917 7.22192E-06-1.22689E-06 0.00000E+00
 -1       918 7.36155E-06-2.57028E-06-1.65436E-24
 -1       919 7.50110E-06-3.94649E-06-3.30872E-24
 -1       920 7.64058E-06-5.30662E-06 0.00000E+00
 -1       921 7.78005E-06-6.60173E-06 0.00000E+00
 -1       922 7.91914E-06-7.78254E-06 0.00000E+00
 -1       923 8.05825E-06-8.79879E-06 0.00000E+00
 -1       924 8.19490E-06-9.59961E-06-8.27181E-25
 -1       925 8.33251E-06-1.01322E-05 0.00000E+00
 -1       926 7.94072E-06-1.02795E-05 1.32349E-23
 -1       927 7.41316E-06-1.00173E-05 0.00000E+00
 -1       928 6.88623E-06-9.57394E-06-1.32349E-23
 -1       929 6.35692E-06-8.96947E-06 0.00000E+00
 -1       930 5.82739E-06-8.22953E-06 0.00000E+00
 -1       931 5.29734E-06-7.38156E-06-6.61744E-24
 -1       932 4.76715E-06-6.45664E-06 1.32349E-23
 -1       933 4.23682E-06-5.48691E-06 0.00000E+00
 -1       934 3.70648E-06-4.50602E-06 0.00000E+00
 -1       935 3.17614E-06-3.54777E-06 0.00000E+00
 -1       936 2.64587E-06-2.64520E-06 0.00000E+00
 -1       937 2.11576E-06-1.83060E-06 0.00000E+00
 -1       938 1.58575E-06-1.13326E-06 1.32349E-23
 -1       939 1.05631E-06-5.80883E-07 0.00000E+00
 -1       940 5.26808E-07-1.96302E-07-1.32349E-23
 -1       941 1.62088E-06 1.60478E-07 0.00000E+00
 -1       942 3.33094E-06 4.31316E-07-1.32349E-23
 -1       943 5.03619E-06 7.89055E-07 0.00000E+00
 -1       944 6.75759E-06 1.21428E-06 0.00000E+00
 -1       945 8.47984E-06 1.69514E-06 5.29396E-23
 -1       946 1.02052E-05 2.22237E-06 0.00000E+00
 -1       947 1.19311E-05 2.79191E-06 0.00000E+00
 -1       948 1.36574E-05 3.40164E-06 0.00000E+00
 -1       949 1.53838E-05 4.05400E-06 0.00000E+00
 -1       950 1.71097E-05 4.75338E-06 0.00000E+00
 -1       951 1.88352E-05 5.50947E-06 0.00000E+00
 -1       952 2.05581E-05 6.33455E-06 0.00000E+00
 -1       953 2.22802E-05 7.24874E-06 5.29396E-23
 -1       954 2.39889E-05 8.27616E-06 2.64698E-23
 -1       955 2.57014E-05 9.45377E-06-2.64698E-23
 -1       956 2.72424E-05 1.24276E-05 2.89513E-24
 -1       957 2.71429E-05 1.41778E-05-1.24077E-24
 -1       958 2.70428E-05 1.60640E-05 0.00000E+00
 -1       959 2.69424E-05 1.80728E-05-2.06795E-25
 -1       960 2.68418E-05 2.01911E-05-3.20532E-24
 -1       961 2.67409E-05 2.24054E-05-1.24077E-24
 -1       962 2.66398E-05 2.47023E-05 1.65436E-24
 -1       963 2.65386E-05 2.70682E-05 8.27181E-25
 -1       964 2.64372E-05 2.94899E-05 0.00000E+00
 -1       965 2.63358E-05 3.19537E-05 0.00000E+00
 -1       966 2.62343E-05 3.44463E-05 0.00000E+00
 -1       967 2.61328E-05 3.69542E-05 0.00000E+00
 -1       968 2.60313E-05 3.94638E-05 3.30872E-24
 -1       969 2.59299E-05 4.19619E-05 1.65436E-24
 -1       970 2.58288E-05 4.44350E-05 0.00000E+00
 -1       971 2.53635E-05 4.95344E-05 0.00000E+00
 -1       972 2.49846E-05 5.27580E-05 0.00000E+00
 -1       973 2.46044E-05 5.64787E-05 0.00000E+00
 -1       974 2.42206E-05 6.06310E-05 0.00000E+00
 -1       975 2.38351E-05 6.51462E-05 0.00000E+00
 -1       976 2.34479E-05 6.99536E-05 6.61744E-24
 -1       977 2.30596E-05 7.49804E-05 0.00000E+00
 -1       978 2.26705E-05 8.01523E-05 6.61744E-24
 -1       979 2.22811E-05 8.53941E-05 1.32349E-23
 -1       980 2.18918E-05 9.06302E-05 0.00000E+00
 -1       981 2.15029E-05 9.57849E-05 1.32349E-23
 -1       982 2.11153E-05 1.00783E-04 6.61744E-24
 -1       983 2.07290E-05 1.05551E-04-1.32349E-23
 -1       984 2.03463E-05 1.10015E-04 0.00000E+00
 -1       985 1.99646E-05 1.14106E-04 0.00000E+00
 -3
    1PSTEP                         2           1           1          
  100CL  101 1.000000000         841                     0    1           1
 -4  STRESS      6    1
 -5  SXX         1    4    1    1
 -5  SYY         1    4    2    2
 -5  SZZ         1    4    3    3
 -5  SXY         1    4    1    2
 -5  SYZ         1    4    2    3
 -5  SZX         1    4    3    1
 -1         1-3.59346E+06-1.11496E+06-6.90691E+05-1.05926E+06-6.25732E-10-3.58947E-10
 -1         2-2.34631E+06-6.01117E+04 3.26380E+03-2.28862E+05-5.91626E-10 1.64619E-09
 -1         3-1.17579E+06-6.31302E+05 2.47436E+04-1.08769E+05 4.63842E-11-2.88128E-09
 -1         4-4.91457E+05-1.72629E+05 6.25870E+02-5.87656E+04 2.10321E-12-5.86169E-10
 -1         5-1.61792E+05 3.94216E+05-1.57501E+05-1.77885E+04 2.66664E-09-2.39015E-09
 -1         8-2.01570E+06-8.12962E+05-3.23473E+05-9.01614E+05-3.52884E-10-1.95723E-09
 -1         9-2.27256E+06-4.89064E+05-3.36964E+05-5.33671E+05 1.12777E-09 3.10441E-09
 -1        10-1.24086E+06-9.33623E+05 1.39474E+04-3.45659E+05-3.10494E-09 3.21855E-09
 -1        11-6.44991E+05-2.64720E+05 1.97681E+02-1.82423E+05 8.31885E-10-3.07561E-09
 -1        12-3.08485E+05 3.39602E+05-1.89608E+05-8.72470E+04 1.68257E-11 8.04425E-09
 -1        15 8.86196E+03-6.43657E+04 3.75360E+03-2.51016E+05 5.25688E-10-2.13186E-09
 -1        16-1.36567E+06-3.70956E+05-1.71582E+05-5.78454E+05 2.33558E-09 3.44395E-10
 -1        17-8.81750E+05-7.47046E+05-1.55787E+05-5.01334E+05-3.12987E-09-1.84567E-09
 -1        18-3.12143E+05-2.24605E+05-1.30122E+05-3.26703E+05 1.24480E-09 9.70128E-10
 -1        19-6.24261E+04 1.68393E+05-8.91904E+04-1.03229E+05-3.46821E-09 4.09879E-09
 -1        20 2.11670E+05-1.40862E+05-1.57751E+04 1.03837E+05 7.08724E-09-1.11504E-09
 -1        21-2.70101E+04-3.32648E+05 2.22226E+04 1.15083E+04 2.82753E-08-1.01978E-08
 -1        22 4.16559E+04 2.35639E+05 1.36759E+03-5.40639E+04 2.50111E-10-4.87489E-10
 -1        23-4.34395E+05-2.38962E+04 3.42833E+03-2.48258E+05 1.39380E-09 7.02130E-10
 -1        24-3.09485E+05-2.51139E+04 1.80956E+05-5.06409E+05-4.29645E-09 4.75363E-10
 -1        25 6.73879E+05 3.20676E+05 2.39947E+05-3.52538E+05-5.94203E-11 1.46611E-09
 -1        26 4.08217E+04 4.38745E+05 4.81539E+04-8.79395E+04-2.28101E-09 1.88569E-09
 -1        27-1.24430E+05-1.34490E+05-6.03859E+04 1.13948E+05 1.86319E-08-5.37451E-09
 -1        28-3.62263E+04-2.34441E+05-1.97783E+03 1.04762E+05 3.19333E-08-4.73662E-09
 -1        29 5.38871E+05 3.76594E+05 1.48267E+03-2.44062E+04 1.12870E-10-1.55978E-09
 -1        30 2.11534E+05 5.02686E+04 2.08520E+03-6.59755E+04 2.35083E-11-7.43967E-10
 -1        31-6.59177E+05 5.54225E+04 4.37465E+03-1.45559E+05 1.83746E-10 1.89539E-09
 -1        32 5.93130E+05 5.29829E+05 4.89041E+05-3.84960E+05-5.65592E-10 3.94357E-09
 -1        33 1.19119E+06 8.69266E+05 4.52371E+05-1.11010E+05-4.55888E-09 5.93900E-10
 -1        34-4.29397E+05-8.87683E+04-5.80518E+04 2.52653E+04 7.79413E-09-3.07409E-10
 -1        35-5.29596E+04-7.46381E+04-1.63232E+03 1.48245E+05 4.09248E-08-2.78184E-09
 -1        36-5.07246E+06 1.34079E+05-3.43642E+05 9.12769E-09-3.03405E-10-6.37374E-09
 -1        37-5.21559E+06-1.56747E+05-2.37945E+05 1.37354E-07 2.01785E-10-1.42245E-09
 -1        38-5.12872E+06 1.91709E+04-8.90542E+04 5.03182E-08 3.21281E-10-4.64570E-09
 -1        39-5.15031E+06-2.23565E+04-5.42421E+04 3.08105E-08 1.99361E-09 5.55610E-09
 -1        40-5.13723E+06 2.73681E+03-2.28330E+04-6.40769E-08-2.48796E-09 6.18002E-09
 -1        41-5.14033E+06-3.21174E+03-1.32295E+04-7.64026E-08-1.28012E-09 4.97539E-09
 -1        42-5.13853E+06 4.25034E+02-6.66734E+03 1.04712E-08-1.44697E-10-3.50360E-09
 -1        43-5.13893E+06-7.58156E+02-5.19511E+03-5.21985E-08 1.80459E-09-1.32914E-08
 -1        44-5.13860E+06 3.26967E+02-5.41301E+03 1.77968E-08-1.60007E-09-1.13550E-09
 -1        45-5.13978E+06-2.29574E+03-9.70142E+03-1.71283E-08-9.70127E-10 1.83945E-09
 -1        46-5.13770E+06 1.93374E+03-1.62790E+04 2.68252E-08 7.21075E-12 2.65754E-09
 -1        47-5.14680E+06-1.57699E+04-3.83431E+04-1.41381E-08-2.38576E-09 4.31828E-09
 -1        48-5.13170E+06 1.35192E+04-6.28516E+04 1.04975E-07-2.63544E-10-9.09131E-09
 -1        49-5.19283E+06-1.10541E+05-1.67828E+05 6.55627E-08 2.35337E-09-3.15777E-09
 -1        50-5.09207E+06 9.45419E+04-2.42454E+05-5.56729E-08-8.66425E-10-2.64845E-09
 -1        51 4.81209E+04-4.49931E+05 8.62444E+04-1.31735E+06-2.61934E-10-7.81438E-09
 -1        52 2.26548E+04-4.44631E+05 5.04215E+04-1.47540E+06 9.09495E-10-5.83532E-09
 -1        53 1.41266E+04-4.65059E+05 3.58059E+04-1.31331E+06-8.73115E-11 9.73523E-09
 -1        54 3.11483E+04-4.63788E+05 4.88774E+04-1.47952E+06-1.89175E-10 2.74304E-09
 -1        55 6.24355E+04-4.80847E+05 8.36172E+04-1.31246E+06 4.36557E-10-2.35013E-09
 -1        56-5.33985E+06-6.06484E+05-4.16458E+05-2.05726E+06 1.27329E-09-9.31323E-09
 -1        57-5.50643E+06-9.75304E+05-2.79492E+05-2.04155E+06 2.79942E-09-5.04951E-09
 -1        58-5.42422E+06-7.34565E+05-9.79502E+04-2.03025E+06 1.29330E-09-1.93540E-09
 -1        59-5.40919E+06-8.23946E+05-5.80754E+04-2.07338E+06-4.79713E-09 1.12050E-09
 -1        60-5.43584E+06-7.52539E+05-2.28763E+04-2.02720E+06 5.22050E-10-4.37103E-09
 -1        61-5.39910E+06-7.99246E+05-1.29540E+04-2.07268E+06-2.16460E-09-6.96639E-09
 -1        62-5.43392E+06-7.58666E+05-6.43452E+03-2.03104E+06-4.96129E-10-2.58017E-09
 -1        63-5.40716E+06-7.86672E+05-5.42067E+03-2.06123E+06 1.07866E-09 1.42229E-08
 -1        64-5.42751E+06-7.65197E+05-6.65206E+03-2.03849E+06 8.75389E-10 1.39953E-08
 -1        65-5.42289E+06-7.75130E+05-1.33759E+04-2.04452E+06-5.75255E-10 2.41585E-09
 -1        66-5.41809E+06-7.70372E+05-2.39115E+04-2.04764E+06-2.03022E-09-5.40058E-09
 -1        67-5.45170E+06-7.82548E+05-6.04191E+04-2.02437E+06-4.71579E-09-7.34144E-09
 -1        68-5.39909E+06-7.58413E+05-1.02093E+05-2.05853E+06 9.13133E-10 3.06318E-09
 -1        69-5.56097E+06-9.32842E+05-2.91170E+05-1.98329E+06 4.70027E-09 1.98997E-09
 -1        70-5.31049E+06-6.25348E+05-4.33777E+05-2.08712E+06-3.82715E-09 8.23638E-09
 -1        71-2.31603E+06-3.83287E+03 9.85233E+03 3.78455E-09-5.47575E-10-1.04606E-08
 -1        72-2.31171E+06 4.48291E+03 6.81054E+03 1.61514E-07-9.77680E-11-1.08657E-08
 -1        73-2.31442E+06-5.48004E+02 2.54446E+03-1.33602E-08-6.38642E-11-2.43347E-09
 -1        74-2.31358E+06 6.38347E+02 1.53413E+03-7.85868E-08-1.47567E-10 5.93133E-09
 -1        75-2.31417E+06-7.73616E+01 6.13546E+02-5.53213E-08-5.25767E-10-4.80895E-11
 -1        76-2.31387E+06 8.45232E+01 2.91055E+02-1.19286E-07 1.32842E-09 1.04625E-08
 -1        77-2.31413E+06-5.68196E+00 2.16017E+01-2.24479E-08-1.15416E-09 1.40624E-09
 -1        78-2.31394E+06-3.14198E+01-2.16699E+02-5.85322E-08-7.76040E-10 7.65684E-09
 -1        79-2.31410E+06 3.68481E+01-5.25500E+02-8.26447E-08-5.00534E-11-1.77459E-09
 -1        80-2.31411E+06-3.12800E+02-1.24616E+03-1.07475E-07-2.27288E-10-3.46881E-09
 -1        81-2.31397E+06 2.70940E+02-2.24221E+03 5.41650E-08 2.89427E-10 5.99073E-09
 -1        82-2.31510E+06-2.21882E+03-5.38380E+03 1.13558E-07-1.08462E-09 1.03582E-08
 -1        83-2.31312E+06 1.90293E+03-8.86104E+03 1.14843E-08 2.07254E-11-3.17868E-09
 -1        84-2.32158E+06-1.55643E+04-2.36581E+04 1.53433E-08-7.46057E-10 3.41242E-09
 -1        85-2.30752E+06 1.33078E+04-3.42045E+04-5.30579E-08-3.58547E-10 3.42698E-09
 -1        86-1.14395E+05 7.88266E+05 3.00129E+05-5.34608E+03 1.16415E-10-1.38334E-09
 -1        87 1.43214E+05 9.16692E+05 2.26749E+05 4.77257E+04 1.07684E-09-7.68284E-09
 -1        88-2.57049E+04 8.31447E+05 1.18285E+05-6.77768E+03-2.20098E-10-2.23736E-09
 -1        89 9.62622E+04 8.95000E+05 1.62083E+05 5.17036E+04 2.95404E-09-1.16120E-09
 -1        90-6.88699E+04 8.10363E+05 1.85896E+05-9.31819E+03-5.31145E-10 6.43649E-09
 -1        91-2.64829E+06-3.51908E+05-5.13936E+04-9.98297E+05 1.13505E-09 5.56611E-10
 -1        92-2.66174E+06-4.07349E+05-3.49097E+04-1.00424E+06-9.47580E-10-2.41880E-09
 -1        93-2.66004E+06-3.67420E+05-1.20771E+04-9.93340E+05 1.80205E-09-5.08498E-09
 -1        94-2.64786E+06-3.89511E+05-7.30589E+03-1.01040E+06 4.75836E-10-3.87081E-09
 -1        95-2.66210E+06-3.69350E+05-2.83200E+03-9.92280E+05 3.07034E-09 5.15729E-09
 -1        96-2.64619E+06-3.86520E+05-1.65220E+03-1.01077E+06 2.42750E-10-9.15634E-10
 -1        97-2.66169E+06-3.70362E+05-8.32676E+02-9.92983E+05 7.31575E-10-8.81840E-10
 -1        98-2.64826E+06-3.83814E+05-7.63766E+02-1.00807E+06-2.08138E-09 8.94897E-09
 -1        99-2.66000E+06-3.72071E+05-9.91243E+02-9.94961E+05-6.12204E-10 1.55342E-09
 -1       100-2.65260E+06-3.80179E+05-2.06447E+03-1.00323E+06-5.00222E-11 5.59044E-09
 -1       101-2.65731E+06-3.74028E+05-3.67249E+03-9.97796E+05 1.75578E-09-2.47201E-09
 -1       102-2.65989E+06-3.78910E+05-9.42214E+03-9.96843E+05-5.36602E-11-5.12762E-09
 -1       103-2.65272E+06-3.73414E+05-1.56531E+04-1.00132E+06-4.48154E-10-1.05956E-09
 -1       104-2.68007E+06-3.99972E+05-4.52045E+04-9.86641E+05-1.89175E-09 1.45474E-09
 -1       105-2.63729E+06-3.53437E+05-6.65410E+04-1.00786E+06-4.19004E-09 3.52156E-09
 -1       106-1.02992E+06-3.17973E+04 8.18201E+04-2.26191E-09-1.09030E-09 2.00453E-09
 -1       107-9.95727E+05 3.71947E+04 5.65731E+04 5.77907E-08-5.95715E-10 6.29643E-09
 -1       108-1.01653E+06-4.54686E+03 2.12023E+04-2.95948E-08-2.55276E-10 3.30692E-09
 -1       109-1.01120E+06 5.30189E+03 1.28788E+04-1.23524E-07 1.04940E-09 4.72937E-11
 -1       110-1.01449E+06-6.47231E+02 5.36116E+03-2.91197E-08-7.57876E-10 3.76394E-09
 -1       111-1.01357E+06 7.46116E+02 2.96803E+03-4.45442E-08 2.30669E-10 1.16501E-09
 -1       112-1.01417E+06-8.68872E+01 1.22851E+03-6.47551E-08-5.58352E-10-1.61765E-09
 -1       113-1.01397E+06 6.55793E+01 4.53629E+02-6.70752E-12-2.20183E-10 2.21648E-09
 -1       114-1.01410E+06 2.18375E+01-1.73666E+02 5.60519E-08 1.16582E-10-2.08883E-09
 -1       115-1.01418E+06-2.69634E+02-9.69944E+02 1.39338E-08-7.61679E-10 2.45819E-09
 -1       116-1.01397E+06 2.43184E+02-1.95440E+03 8.70003E-08 4.71199E-11-6.46423E-10
 -1       117-1.01508E+06-2.00280E+03-4.83170E+03 4.96563E-08 3.51334E-10-1.51817E-09
 -1       118-1.01319E+06 1.71889E+03-7.99711E+03 3.28829E-08-4.64384E-10-9.34051E-10
 -1       119-1.02093E+06-1.40616E+04-2.13786E+04 4.12787E-08-5.41938E-10-6.90216E-09
 -1       120-1.00813E+06 1.20230E+04-3.09146E+04 6.69900E-09-1.13792E-11-2.37924E-09
 -1       121 1.90529E+04-2.56369E+06-5.95215E+04 4.54714E+03 0.00000E+00-1.84838E-09
 -1       122-2.43379E+04-2.58711E+06-4.30513E+04 7.75915E+04 1.09139E-10 2.66857E-09
 -1       123 3.51622E+03-2.57227E+06-2.24702E+04 5.57998E+03-1.59616E-10 1.06638E-09
 -1       124-1.46700E+04-2.58143E+06-2.81237E+04 7.39427E+04-6.23004E-10-5.73505E-09
 -1       125 9.74612E+03-2.56887E+06-3.27200E+04 8.19324E+03-6.18456E-11-1.89084E-09
 -1       126-1.27207E+06-1.93066E+05 4.15388E+04-4.69632E+05 3.78350E-10 5.65160E-09
 -1       127-1.24643E+06-1.62545E+05 2.82312E+04-4.81134E+05 1.01227E-09 3.04226E-10
 -1       128-1.26410E+06-1.78958E+05 9.75420E+03-4.71829E+05 8.93806E-10-5.50517E-09
 -1       129-1.25564E+06-1.79033E+05 5.88242E+03-4.78571E+05 8.16271E-10 1.77869E-09
 -1       130-1.26293E+06-1.76880E+05 2.23110E+03-4.72093E+05 1.00599E-09-1.90244E-09
 -1       131-1.25714E+06-1.81334E+05 1.19724E+03-4.78117E+05 8.16280E-10-7.81907E-09
 -1       132-1.26262E+06-1.76697E+05 3.91016E+02-4.72270E+05-6.14051E-11-1.18212E-09
 -1       133-1.25779E+06-1.81323E+05-1.88654E+01-4.77594E+05-7.18572E-10-4.42787E-09
 -1       134-1.26227E+06-1.76899E+05-4.40289E+02-4.72612E+05-1.76613E-09-1.26795E-09
 -1       135-1.25876E+06-1.81022E+05-1.29103E+03-4.76708E+05 3.77440E-11-6.27389E-09
 -1       136-1.26164E+06-1.77008E+05-2.40359E+03-4.73150E+05-7.73696E-10-6.89136E-09
 -1       137-1.26124E+06-1.82598E+05-6.31294E+03-4.75192E+05-9.68875E-10-2.24315E-09
 -1       138-1.25980E+06-1.75369E+05-1.04802E+04-4.74110E+05 6.94627E-11 1.50749E-09
 -1       139-1.27254E+06-1.98878E+05-3.03079E+04-4.70805E+05 1.22668E-10 3.23143E-09
 -1       140-1.25040E+06-1.61053E+05-4.45978E+04-4.77422E+05-7.18501E-10-4.33283E-09
 -1       141-3.11574E+05-1.25396E+04 3.22620E+04-2.74242E-08 4.19510E-10-3.23234E-09
 -1       142-2.98091E+05 1.46670E+04 2.23034E+04 7.05801E-08 3.11157E-10 1.74100E-09
 -1       143-3.06286E+05-1.79270E+03 8.33934E+03 4.16788E-08 8.94747E-12 1.32013E-09
 -1       144-3.04193E+05 2.08821E+03 5.02596E+03 2.01935E-08-4.01733E-10-6.44894E-09
 -1       145-3.05478E+05-2.52934E+02 2.00684E+03 3.99618E-08 4.52828E-10-4.00064E-10
 -1       146-3.05142E+05 2.75431E+02 9.41641E+02-4.12395E-08-2.69614E-10-6.88919E-09
 -1       147-3.05337E+05-1.76436E+01 4.54974E+01-2.87839E-08-2.65563E-10-3.64264E-09
 -1       148-3.05382E+05-1.10515E+02-7.65694E+02-1.56471E-08 5.06854E-10 3.40370E-09
 -1       149-3.05239E+05 1.27272E+02-1.82597E+03-3.46194E-08-3.43967E-10 3.12230E-09
 -1       150-3.05949E+05-1.07844E+03-4.31302E+03-6.12245E-09-6.47822E-11-1.00033E-09
 -1       151-3.04770E+05 9.33906E+02-7.75426E+03-2.23125E-10 1.67239E-10 1.29967E-09
 -1       152-3.09369E+05-7.64830E+03-1.85975E+04-2.21872E-08-4.35668E-10 3.77281E-09
 -1       153-3.01822E+05 6.55944E+03-3.06029E+04 1.08551E-08 1.16355E-09-3.30692E-09
 -1       154-3.31677E+05-5.36547E+04-8.16323E+04 3.62370E-08-7.94357E-10-2.55750E-09
 -1       155-2.82455E+05 4.58790E+04-1.17961E+05 3.86285E-08 2.10715E-09-3.44880E-09
 -1       156-3.24511E+03-5.81111E+05 9.28064E+03-1.17069E+03-1.77351E-11 6.92296E-10
 -1       157 5.42879E+03-5.76643E+05 9.80252E+03 1.11597E+04 4.86637E-10-1.49714E-09
 -1       158-2.07602E+03-5.80595E+05 9.53775E+03-9.05009E+02-1.76897E-10-2.25043E-09
 -1       159 1.39174E+04-5.72466E+05 2.15620E+04 1.04875E+04 1.58434E-09-8.27890E-09
 -1       160-1.15535E+04-5.85258E+05 2.99111E+04-4.98215E+02-6.56655E-10-1.25510E-10
 -1       161-6.65443E+05-9.03144E+04-7.88467E+03-2.50178E+05-9.47693E-10-3.27418E-10
 -1       162-6.66015E+05-1.00298E+05-5.36676E+03-2.52786E+05 8.90509E-10-5.68525E-09
 -1       163-6.67055E+05-9.28888E+04-1.87408E+03-2.49646E+05 5.53570E-10 1.08162E-09
 -1       164-6.64172E+05-9.72775E+04-1.16675E+03-2.53392E+05-3.75707E-10 5.93019E-11
 -1       165-6.67277E+05-9.32771E+04-5.24301E+02-2.49593E+05 9.46386E-10-2.69218E-10
 -1       166-6.63998E+05-9.67777E+04-4.53736E+02-2.53372E+05-6.34920E-10 2.54134E-09
 -1       167-6.67226E+05-9.33818E+04-5.17424E+02-2.49668E+05 9.31550E-10-3.96500E-09
 -1       168-6.64271E+05-9.66884E+04-1.02350E+03-2.53132E+05 1.43825E-09-5.48448E-09
 -1       169-6.67002E+05-9.33689E+04-1.85748E+03-2.49831E+05 1.53904E-11 3.90173E-10
 -1       170-6.65345E+05-9.75675E+04-4.47156E+03-2.52596E+05 6.89791E-10-1.54841E-10
 -1       171-6.66154E+05-9.25223E+04-7.99693E+03-2.50195E+05 2.43745E-10-3.76212E-09
 -1       172-6.70810E+05-1.05437E+05-2.08388E+04-2.50731E+05 1.05729E-09-2.72780E-09
 -1       173-6.61560E+05-8.56421E+04-3.44966E+04-2.51644E+05-1.15097E-09-4.49290E-10
 -1       174-7.04870E+05-1.62096E+05-9.97369E+04-2.39867E+05-4.09273E-09 2.15550E-10
 -1       175-6.32247E+05-3.69159E+04-1.46640E+05-2.60666E+05-3.72893E-09 2.92493E-09
 -1       191 6.64984E+03 1.12834E+06 1.20645E+04-3.31220E+04-1.74623E-09 5.34783E-10
 -1       192 2.22980E+03 1.13035E+06 7.30728E+03-3.60829E+04-2.60934E-09-3.45244E-09
 -1       193 8.25101E+02 1.12894E+06 5.91571E+03-3.25927E+04-4.38035E-09 6.06815E-09
 -1       194 3.08687E+03 1.13056E+06 8.98787E+03-3.70520E+04-5.41968E-09 7.21775E-09
 -1       195 9.32988E+03 1.12782E+06 1.62221E+04-3.21281E+04-6.80302E-09 9.22955E-09
 -1       251-2.28542E+06 3.73556E+04-9.71592E+04-6.30963E+03 1.81899E-11-1.57888E-09
 -1       252-2.32261E+06-4.41901E+04-6.66838E+04-3.23818E+04-2.54659E-11 4.25280E-09
 -1       253-2.30104E+06 5.21977E+03-2.53295E+04 2.43454E+03-2.50111E-10 1.36515E-09
 -1       254-2.30531E+06-6.30713E+03-1.51343E+04-4.76891E+04 7.22139E-10-6.18093E-09
 -1       255-2.30313E+06 6.90784E+02-6.57201E+03 8.99049E+03-2.83762E-10-3.38764E-09
 -1       256-2.30354E+06-7.31006E+02-3.76506E+03-5.77853E+04-4.01656E-10 1.68938E-08
 -1       257-2.30326E+06 9.33197E+01-2.05383E+03 1.25308E+04-3.91992E-10 1.27193E-09
 -1       258-2.30361E+06 5.19525E+00-1.82188E+03-6.13464E+04 2.75629E-10-9.72534E-09
 -1       259-2.30325E+06 1.05295E+02-2.20359E+03 1.25522E+04-1.45485E-09-7.15045E-09
 -1       260-2.30362E+06-8.38051E+02-4.18855E+03-5.78738E+04-4.20073E-10 1.17376E-09
 -1       261-2.30307E+06 7.87281E+02-7.35518E+03 9.05758E+03 8.71751E-10 1.55069E-10
 -1       262-2.30574E+06-7.08935E+03-1.70365E+04-4.78474E+04 2.95586E-11 1.34037E-09
 -1       263-2.30068E+06 5.89429E+03-2.84611E+04 2.52574E+03-1.16597E-09 2.57205E-09
 -1       264-2.32533E+06-4.96968E+04-7.50550E+04-3.25708E+04-3.48837E-09 8.93851E-09
 -1       265-2.28308E+06 4.20667E+04-1.09253E+05-6.21151E+03-3.95084E-09 6.02449E-09
 -1       266-2.81436E+04-4.61518E+05 6.59714E+04 3.71300E+04 3.20142E-10-4.67480E-10
 -1       267 3.51585E+04-4.33685E+05 4.32363E+04-3.09883E+05 1.24146E-10 9.79071E-09
 -1       268-2.41164E+03-4.46284E+05 9.28822E+03 3.89947E+04 8.18545E-12 1.85901E-09
 -1       269-4.51210E+03-4.53762E+05-1.18951E+04-3.10224E+05 2.80124E-10 6.64841E-09
 -1       270 1.08466E+04-4.41806E+05-3.05174E+04 3.74706E+04 1.12777E-10 7.08314E-09
 -1       271-5.70131E+06-6.78665E+05-4.62868E+05-2.22541E+06 4.58385E-10-8.06176E-09
 -1       272-5.90494E+06-1.03325E+06-3.05389E+05-2.18248E+06-9.23137E-10-6.08634E-09
 -1       273-5.79723E+06-8.06093E+05-1.09145E+05-2.19361E+06-4.62023E-10 2.42289E-09
 -1       274-5.78896E+06-8.86014E+05-6.30658E+04-2.22815E+06 6.04700E-10 5.91990E-09
 -1       275-5.81573E+06-8.16579E+05-2.55069E+04-2.18319E+06 1.12277E-09 7.51425E-09
 -1       276-5.76535E+06-8.75803E+05-1.40968E+04-2.24394E+06 2.14709E-09 6.93035E-09
 -1       277-5.82105E+06-8.14875E+05-7.10983E+03-2.17854E+06 3.17641E-10 1.07616E-09
 -1       278-5.76020E+06-8.77308E+05-6.03502E+03-2.24884E+06 4.41418E-10 5.44514E-09
 -1       279-5.82108E+06-8.14807E+05-7.38145E+03-2.17849E+06 1.36367E-09 2.84490E-09
 -1       280-5.76534E+06-8.76165E+05-1.48884E+04-2.24413E+06 1.74441E-09 2.58660E-09
 -1       281-5.81572E+06-8.16286E+05-2.70257E+04-2.18305E+06 5.90944E-10 6.20639E-09
 -1       282-5.78968E+06-8.87786E+05-6.69390E+04-2.22830E+06 3.82670E-10-4.49290E-09
 -1       283-5.79655E+06-8.04678E+05-1.15827E+05-2.19358E+06 1.04865E-09 3.36877E-09
 -1       284-5.91178E+06-1.04512E+06-3.24170E+05-2.18103E+06 2.18552E-09-1.81899E-10
 -1       285-5.69529E+06-6.68820E+05-4.91238E+05-2.22667E+06 2.32103E-09-2.79397E-09
 -1       286-1.05222E+06-1.37856E+03 2.47500E+03-6.20201E+02 3.92356E-09-7.05404E-09
 -1       287-1.04807E+06 1.12309E+03 2.24330E+03-3.50517E+04 2.38492E-09-2.58410E-09
 -1       288-1.05148E+06-2.99540E+02 5.67351E+02 3.20856E+03 5.22959E-10-5.45026E-09
 -1       289-1.04960E+06 1.43146E+02 6.63612E+02-4.17547E+04 1.04615E-09 4.02042E-09
 -1       290-1.05115E+06-9.71315E+01 2.12504E+02 6.07973E+03 8.64475E-10-2.45961E-10
 -1       291-1.05051E+06 1.68542E+02 4.00386E+02-4.63845E+04 3.92504E-09-3.23931E-09
 -1       292-1.05096E+06-5.32882E+01 4.74314E+02 7.83807E+03 1.57206E-09 1.22455E-09
 -1       293-1.05090E+06 3.64530E+02 9.85593E+02-4.86759E+04 7.77732E-10-8.33321E-10
 -1       294-1.05097E+06-1.41822E+02 1.78648E+03 8.37180E+03 2.52896E-09-1.32331E-10
 -1       295-1.05037E+06 1.19536E+03 3.97532E+03-4.84811E+04 3.40316E-09-8.43556E-11
 -1       296-1.05147E+06-8.82806E+02 7.00595E+03 7.64322E+03 2.03090E-09 3.22416E-10
 -1       297-1.04675E+06 7.01717E+03 1.68802E+04-4.58116E+04 2.76555E-09 1.15324E-09
 -1       298-1.05433E+06-6.01199E+03 2.75323E+04 5.70198E+03 3.57886E-10 8.47649E-10
 -1       299-1.02570E+06 4.84469E+04 7.39033E+04-4.08667E+04-8.67658E-10 3.37332E-09
 -1       300-1.07206E+06-4.16310E+04 1.06380E+05 2.69652E+03 2.79215E-10-2.40834E-09
 -1       301 7.08931E+04 1.37373E+05 1.33760E+05-2.60247E+04 4.35102E-09 2.55017E-09
 -1       302 2.39226E+04 1.60765E+05 7.58506E+04-3.00297E+04 3.51429E-09-4.14676E-09
 -1       303 7.09526E+03 1.46026E+05 5.23512E+04-2.63450E+04 4.01747E-09-1.46429E-09
 -1       304 2.04350E+04 1.59079E+05 6.76956E+04-3.00261E+04 3.65344E-09 5.09237E-09
 -1       305 5.94992E+04 1.39055E+05 1.13747E+05-2.61023E+04 3.61251E-09 1.00308E-08
 -1       306-4.90665E+06-5.84684E+05-3.95345E+05-1.91401E+06 1.29512E-09-1.87720E-09
 -1       307-5.08120E+06-8.85796E+05-2.60670E+05-1.87576E+06 6.19366E-10-1.13141E-09
 -1       308-4.98925E+06-6.92680E+05-9.33018E+04-1.88608E+06 1.55796E-09-9.16771E-10
 -1       309-4.98071E+06-7.61790E+05-5.38240E+04-1.91665E+06-3.72529E-09-6.83940E-09
 -1       310-5.00594E+06-7.00696E+05-2.18483E+04-1.87615E+06-6.81666E-10 1.28239E-09
 -1       311-4.95875E+06-7.55051E+05-1.20120E+04-1.93254E+06 1.36424E-10 7.07769E-09
 -1       312-5.01156E+06-6.98106E+05-6.08881E+03-1.87092E+06 6.79847E-10 1.10663E-09
 -1       313-4.95230E+06-7.58607E+05-5.12279E+03-1.93954E+06 3.57068E-09 3.15690E-09
 -1       314-5.01278E+06-6.96785E+05-6.23937E+03-1.86947E+06-2.50537E-09-7.08269E-09
 -1       315-4.95447E+06-7.59958E+05-1.25905E+04-1.93836E+06-6.19411E-09-5.25324E-09
 -1       316-5.00937E+06-6.96885E+05-2.28026E+04-1.87204E+06-2.38504E-09-3.09592E-09
 -1       317-4.97307E+06-7.71659E+05-5.65117E+04-1.92713E+06-3.22530E-10-2.22190E-09
 -1       318-4.99397E+06-6.86353E+05-9.77650E+04-1.88006E+06-1.88356E-09-2.16824E-09
 -1       319-5.07475E+06-9.05318E+05-2.73469E+05-1.88812E+06-1.39698E-09 4.64934E-09
 -1       320-4.90878E+06-5.71708E+05-4.14595E+05-1.90778E+06 9.89530E-10-7.27596E-10
 -1       321-7.94818E+05-5.12281E+04 1.31697E+05-2.83284E+01-6.56883E-10-1.83354E-09
 -1       322-7.39364E+05 5.98334E+04 9.11350E+04-1.50203E+04-4.20459E-09-5.50608E-09
 -1       323-7.73220E+05-7.34071E+03 3.41256E+04 1.04145E+03-7.02585E-11-2.26646E-09
 -1       324-7.64428E+05 8.51286E+03 2.07963E+04-1.69302E+04 1.16722E-09 2.55568E-09
 -1       325-7.69896E+05-1.05287E+03 8.68437E+03 1.88418E+03 1.55637E-10-2.60843E-09
 -1       326-7.68369E+05 1.21368E+03 4.92593E+03-1.83002E+04 1.51033E-10 9.21773E-10
 -1       327-7.69351E+05-1.52674E+02 2.23483E+03 2.41144E+03-3.80567E-10-6.06201E-09
 -1       328-7.69039E+05 2.03021E+02 1.28945E+03-1.90144E+04-1.69848E-10-5.54451E-10
 -1       329-7.69263E+05-3.55722E+01 7.57343E+02 2.59838E+03 1.67169E-10-6.31260E-09
 -1       330-7.69085E+05 1.57216E+02 7.56799E+02-1.90376E+04-1.75787E-09-2.97613E-09
 -1       331-7.69307E+05-1.05831E+02 9.67352E+02 2.43468E+03 6.08054E-10-1.36993E-09
 -1       332-7.68667E+05 8.26891E+02 2.07323E+03-1.83677E+04 2.00771E-10 1.96601E-09
 -1       333-7.69648E+05-7.13271E+02 3.29824E+03 1.92843E+03-5.46947E-10-5.80758E-09
 -1       334-7.66149E+05 5.73609E+03 8.78704E+03-1.70316E+04 4.88399E-10-3.29101E-09
 -1       335-7.71762E+05-4.94263E+03 1.26150E+04 1.09850E+03-1.41199E-09 1.12232E-09
 -1       336 9.25326E+03-2.54092E+06-3.49551E+04-2.41673E+03 3.01952E-10-4.90400E-09
 -1       337-1.63081E+04-2.55699E+06-3.98792E+04-1.92270E+05-7.86804E-09-2.71302E-09
 -1       338 7.39545E+03-2.54173E+06-4.58923E+04 1.30466E+02 4.22006E-10-3.22871E-11
 -1       339-5.95636E+04-2.58008E+06-1.05742E+05-1.93164E+05-7.98173E-09 1.28580E-09
 -1       340 4.96406E+04-2.51821E+06-1.53919E+05-1.52941E+03 1.61526E-09 2.89674E-09
 -1       341-2.75797E+06-3.65926E+05-7.84289E+04-1.05468E+06-2.83035E-09 1.10958E-09
 -1       342-2.80314E+06-4.26112E+05-5.33021E+04-1.03575E+06 9.98170E-11-1.26411E-08
 -1       343-2.77562E+06-3.89989E+05-1.84713E+04-1.04756E+06 1.37379E-09-4.58840E-09
 -1       344-2.78075E+06-3.99953E+05-1.11877E+04-1.04627E+06 2.40804E-09-3.24712E-09
 -1       345-2.78020E+06-3.91517E+05-4.45409E+03-1.04433E+06 5.68434E-11 3.18460E-09
 -1       346-2.77395E+06-3.99731E+05-2.76395E+03-1.05179E+06-2.49526E-09 4.93628E-10
 -1       347-2.78240E+06-3.90123E+05-1.77155E+03-1.04208E+06 1.52454E-10-1.64152E-09
 -1       348-2.77085E+06-4.02410E+05-2.34134E+03-1.05531E+06 5.22732E-10-3.95012E-10
 -1       349-2.78333E+06-3.88814E+05-3.67519E+03-1.04084E+06-1.46429E-09 2.18222E-09
 -1       350-2.77112E+06-4.05753E+05-8.52532E+03-1.05634E+06-5.75483E-10-2.07206E-09
 -1       351-2.78215E+06-3.86804E+05-1.51131E+04-1.04105E+06-9.79298E-10-1.03955E-09
 -1       352-2.78159E+06-4.20509E+05-3.93633E+04-1.05266E+06 1.01113E-09 2.04318E-09
 -1       353-2.77296E+06-3.74337E+05-6.51298E+04-1.04443E+06-1.62981E-09-2.16460E-09
 -1       354-2.84792E+06-5.25864E+05-1.88532E+05-1.02993E+06 2.77214E-09-6.16637E-10
 -1       355-2.71628E+06-2.83461E+05-2.77107E+05-1.06309E+06 1.49157E-09 6.92671E-09
 -1       356-4.85200E+05-1.50300E+04 3.86139E+04 6.34005E+02 6.63476E-10 3.18323E-10
 -1       357-4.68894E+05 1.75505E+04 2.67214E+04-1.05696E+04-6.11408E-10-1.34469E-09
 -1       358-4.78850E+05-2.15240E+03 9.97923E+03 1.01331E+03-7.85235E-10-3.58341E-10
 -1       359-4.76262E+05 2.49546E+03 6.03029E+03-1.12104E+04 4.58726E-10-3.51861E-10
 -1       360-4.77869E+05-3.05034E+02 2.41178E+03 1.27519E+03-3.58114E-10 3.91196E-10
 -1       361-4.77438E+05 3.34113E+02 1.15439E+03-1.16074E+04-9.54060E-10-3.47870E-09
 -1       362-4.77695E+05-2.31347E+01 1.02533E+02 1.41028E+03-6.29484E-10 1.30547E-09
 -1       363-4.77730E+05-1.12266E+02-8.13199E+02-1.17454E+04 3.52390E-10 2.98516E-09
 -1       364-4.77585E+05 1.39296E+02-1.99388E+03 1.41322E+03 4.41247E-10-2.38288E-09
 -1       365-4.78344E+05-1.18277E+03-4.73254E+03-1.16200E+04-4.62137E-10-5.71822E-09
 -1       366-4.77077E+05 1.02505E+03-8.52343E+03 1.28488E+03-3.45040E-11 4.43379E-10
 -1       367-4.82066E+05-8.41476E+03-2.04376E+04-1.12314E+04 3.16504E-10 7.23048E-10
 -1       368-4.73849E+05 7.20720E+03-3.36513E+04 1.02461E+03-7.99218E-11-2.83944E-09
 -1       369-5.06535E+05-5.90094E+04-8.97382E+04-1.05566E+04-1.98770E-09 1.38243E-09
 -1       370-4.52577E+05 5.04341E+04-1.29708E+05 6.11520E+02 2.24213E-09 1.10595E-09
 -1       371-1.46826E+04-4.91507E+05 3.52311E+04 1.58740E+04-1.48975E-09 4.64706E-09
 -1       372 1.47712E+04-4.77386E+05 1.84647E+04-1.35598E+05 8.86348E-09 6.92040E-09
 -1       373 7.91176E+02-4.83392E+05-3.81304E+03 1.66297E+04-2.82580E-09 2.00805E-09
 -1       374-2.08927E+04-4.94560E+05-3.08334E+04-1.35504E+05 9.45511E-09-4.04088E-09
 -1       375 2.01143E+04-4.74289E+05-5.13968E+04 1.57787E+04-2.28101E-09 3.12502E-09
 -1       376-1.48389E+06-1.85251E+05-6.75716E+04-5.68017E+05-9.22228E-10 6.98492E-10
 -1       377-1.51298E+06-2.47065E+05-4.59348E+04-5.63137E+05 2.22144E-10 2.16005E-09
 -1       378-1.49803E+06-2.07025E+05-1.59104E+04-5.63091E+05-6.16183E-11 2.15914E-09
 -1       379-1.49624E+06-2.22047E+05-9.64854E+03-5.69390E+05-7.05853E-11 1.15745E-09
 -1       380-1.50055E+06-2.09771E+05-3.80059E+03-5.61943E+05-9.15421E-10 9.79526E-10
 -1       381-1.49323E+06-2.18992E+05-2.32987E+03-5.70873E+05 2.79411E-09 4.63479E-09
 -1       382-1.50103E+06-2.10009E+05-1.38607E+03-5.61635E+05-8.98122E-10 2.47879E-09
 -1       383-1.49296E+06-2.18739E+05-1.70929E+03-5.71015E+05 2.19767E-10 3.18845E-09
 -1       384-1.50082E+06-2.10017E+05-2.57522E+03-5.61804E+05-5.41975E-10 1.49782E-09
 -1       385-1.49449E+06-2.19623E+05-5.89431E+03-5.70101E+05-2.51447E-10-2.45905E-09
 -1       386-1.49950E+06-2.09152E+05-1.04310E+04-5.62537E+05 5.51154E-10-4.22278E-09
 -1       387-1.50225E+06-2.29191E+05-2.71126E+04-5.66904E+05 7.75799E-10-7.39556E-09
 -1       388-1.49310E+06-2.00643E+05-4.48682E+04-5.64933E+05-7.80346E-10 4.45652E-09
 -1       389-1.54761E+06-3.01900E+05-1.29754E+05-5.51574E+05-5.66479E-09 9.08040E-09
 -1       390-1.45438E+06-1.37820E+05-1.90765E+05-5.77370E+05-3.57977E-09 9.36416E-09
 -1       406 7.95659E+03 1.09751E+06 1.49129E+04-1.59895E+05-8.83119E-09 1.12250E-08
 -1       407 3.66244E+03 1.09994E+06 1.23109E+04-1.78974E+05-9.67975E-09 2.30139E-08
 -1       408 3.19017E+03 1.09767E+06 1.53853E+04-1.59503E+05-1.08575E-08 2.54640E-08
 -1       409 1.21877E+04 1.10317E+06 2.99505E+04-1.79364E+05-1.19180E-08 2.46305E-08
 -1       410 3.52671E+04 1.09365E+06 5.84973E+04-1.59429E+05-1.18416E-08 1.24678E-08
 -1       466 2.16481E+06-7.92252E+04 2.02791E+05 1.81924E+04 5.10227E-10-1.49885E-09
 -1       467 2.25365E+06 9.19084E+04 1.40990E+05-7.59628E+04-5.36602E-11 2.63208E-09
 -1       468 2.19899E+06-1.13821E+04 5.26745E+04 9.04594E+03 4.00178E-11 3.17596E-09
 -1       469 2.21325E+06 1.30924E+04 3.23713E+04-6.13899E+04 1.19826E-10-4.07454E-10
 -1       470 2.20441E+06-1.64243E+03 1.36840E+04 3.62614E+03 6.27324E-10 4.03361E-09
 -1       471 2.20657E+06 2.01845E+03 8.20035E+03-5.33608E+04 2.93994E-10 6.84679E-09
 -1       472 2.20531E+06-2.71304E+02 4.53776E+03 1.01659E+03 1.25624E-10 7.26686E-10
 -1       473 2.20560E+06 7.73799E+02 4.29083E+03-5.05706E+04 9.55310E-10 2.20352E-09
 -1       474 2.20527E+06-3.38728E+02 5.43989E+03 8.35993E+02-6.46764E-10 2.74065E-09
 -1       475 2.20689E+06 2.68119E+03 1.07151E+04-5.26175E+04 6.49834E-10 8.46285E-10
 -1       476 2.20410E+06-2.20415E+03 1.83811E+04 3.06350E+03 6.05269E-10 2.34559E-09
 -1       477 2.21554E+06 1.77905E+04 4.36790E+04-5.97954E+04 2.62844E-10 5.28235E-09
 -1       478 2.19691E+06-1.53636E+04 7.13830E+04 8.01409E+03-8.00810E-10 6.54836E-11
 -1       479 2.26927E+06 1.24671E+05 1.90727E+05-7.33388E+04-1.34150E-09 4.32919E-10
 -1       480 2.15105E+06-1.07113E+05 2.74960E+05 1.65965E+04-1.37425E-09-1.65892E-09
 -1       481-1.78325E+04 4.25010E+05 4.60944E+04-3.95508E+03 2.91038E-11-2.55386E-09
 -1       482 2.14665E+04 4.45436E+05 3.36382E+04 1.45510E+04-5.23869E-10 5.74437E-09
 -1       483-3.35745E+03 4.32190E+05 1.52912E+04-3.08457E+03-1.09139E-10 2.90675E-09
 -1       484 9.43161E+03 4.39330E+05 1.68946E+04 1.29986E+04-6.13625E-11-9.67361E-10
 -1       485-6.00461E+03 4.31014E+05 1.67899E+04-2.40375E+03 2.30557E-10-1.83923E-09
 -1       486-2.08644E+06-2.32019E+05-1.99738E+05-8.26895E+05 4.80213E-10 6.11180E-10
 -1       487-2.19262E+06-3.93761E+05-1.35637E+05-7.88430E+05-5.29326E-10 3.15777E-09
 -1       488-2.13065E+06-2.94109E+05-4.70648E+04-8.09745E+05 5.19321E-10 1.51158E-09
 -1       489-2.13788E+06-3.24947E+05-2.82489E+04-8.12715E+05 1.62117E-10-2.35377E-09
 -1       490-2.14088E+06-2.99386E+05-1.10619E+04-8.03123E+05-5.86851E-10-3.61752E-09
 -1       491-2.12350E+06-3.21532E+05-6.20774E+03-8.23718E+05 5.72982E-11-1.17188E-09
 -1       492-2.14510E+06-2.97244E+05-3.00585E+03-7.98897E+05 1.70667E-09-1.62436E-09
 -1       493-2.11753E+06-3.25545E+05-2.38191E+03-8.30388E+05 1.51215E-09 1.18791E-09
 -1       494-2.14700E+06-2.95248E+05-2.63988E+03-7.96571E+05-1.71633E-09 1.76328E-09
 -1       495-2.11628E+06-3.28822E+05-5.32594E+03-8.32792E+05-2.89998E-09 1.68120E-09
 -1       496-2.14643E+06-2.93935E+05-9.15154E+03-7.96543E+05-1.54671E-09-1.09685E-09
 -1       497-2.12336E+06-3.36669E+05-2.36000E+04-8.29432E+05 2.70575E-11 5.51609E-10
 -1       498-2.13992E+06-2.87598E+05-3.90606E+04-7.99844E+05-3.31966E-11 7.56700E-10
 -1       499-2.16594E+06-3.96446E+05-1.12792E+05-8.11944E+05 5.43878E-10-2.61934E-10
 -1       500-2.10397E+06-2.35453E+05-1.66044E+05-8.13517E+05-5.45697E-10-3.63798E-11
 -1       501-2.21833E+05-2.37549E+04 5.97351E+04 4.72052E+03 4.69663E-09-1.36788E-09
 -1       502-1.92959E+05 2.71701E+04 4.20022E+04-5.10749E+04 9.64974E-10 4.38740E-09
 -1       503-2.11467E+05-3.50562E+03 1.54108E+04 5.55769E+03-1.00044E-11-4.85034E-09
 -1       504-2.05871E+05 3.90970E+03 9.70130E+03-5.25069E+04 2.88082E-10-1.60026E-09
 -1       505-2.09622E+05-5.51663E+02 3.95142E+03 6.15128E+03 1.93586E-09 1.50794E-09
 -1       506-2.08606E+05 7.67898E+02 2.42025E+03-5.34344E+04 4.25382E-09 2.52402E-09
 -1       507-2.09194E+05-1.07597E+02 1.23123E+03 6.48529E+03 2.98178E-09 2.81693E-09
 -1       508-2.09280E+05 4.50207E+02 1.05904E+03-5.38386E+04 1.15767E-09-2.82122E-09
 -1       509-2.09151E+05-9.65058E+01 1.21407E+03 6.55619E+03 3.41157E-09-3.62875E-09
 -1       510-2.08925E+05 8.10486E+02 2.29420E+03-5.37149E+04 4.62433E-09 1.55656E-09
 -1       511-2.09487E+05-5.05365E+02 3.82918E+03 6.36128E+03 2.42380E-09-3.04954E-09
 -1       512-2.06555E+05 3.86750E+03 9.22835E+03-5.30624E+04 1.95337E-09-1.34878E-09
 -1       513-2.11194E+05-3.31772E+03 1.48220E+04 5.90306E+03 4.71118E-10-1.91631E-09
 -1       514-1.94390E+05 2.61590E+04 4.01314E+04-5.18851E+04 1.12959E-09-2.98041E-09
 -1       515-2.21070E+05-2.26788E+04 5.72923E+04 5.18362E+03-1.70985E-10-4.97676E-09
 -1       516-4.52722E+04 3.81017E+05 1.18524E+05 1.22213E+04-1.02591E-09 5.53086E-09
 -1       517 5.85840E+04 4.30475E+05 9.08544E+04-1.36508E+05 8.78663E-09 1.12770E-08
 -1       518-1.08169E+04 3.97841E+05 4.93048E+04 1.23294E+04-1.72440E-09 6.08338E-09
 -1       519 4.41498E+04 4.25448E+05 7.14467E+04-1.37871E+05 7.45058E-09-3.05954E-09
 -1       520-3.17616E+04 3.86879E+05 8.35624E+04 1.35749E+04-1.15324E-09-2.72212E-09
 -1       521-4.42913E+06-5.25228E+05-3.64962E+05-1.72841E+06 5.45697E-10 2.45927E-09
 -1       522-4.58151E+06-8.11117E+05-2.40513E+05-1.70238E+06-1.25146E-09-4.83124E-09
 -1       523-4.50568E+06-6.24441E+05-8.61644E+04-1.70226E+06 1.30399E-09-1.48430E-09
 -1       524-4.48868E+06-6.97082E+05-4.96512E+04-1.74070E+06 6.00721E-10 4.05998E-09
 -1       525-4.52111E+06-6.31759E+05-2.01531E+04-1.69305E+06-1.75578E-09-1.02045E-09
 -1       526-4.46874E+06-6.90692E+05-1.10202E+04-1.75530E+06-8.41283E-11-1.28421E-09
 -1       527-4.52610E+06-6.29534E+05-5.48267E+03-1.68843E+06-2.81079E-09-2.52521E-09
 -1       528-4.46328E+06-6.93444E+05-4.42382E+03-1.76122E+06-1.97770E-09-4.09104E-09
 -1       529-4.52694E+06-6.28661E+05-5.16169E+03-1.68744E+06-2.27914E-09 7.01675E-10
 -1       530-4.46567E+06-6.93742E+05-1.02088E+04-1.75933E+06-3.02680E-09-5.81804E-09
 -1       531-4.52361E+06-6.29391E+05-1.84433E+04-1.69022E+06 3.80442E-09 1.43973E-09
 -1       532-4.48203E+06-7.01583E+05-4.55456E+04-1.74828E+06 4.88171E-10 2.79033E-09
 -1       533-4.51022E+06-6.21966E+05-7.88985E+04-1.69783E+06-1.06365E-09-1.54250E-09
 -1       534-4.56601E+06-8.06944E+05-2.20370E+05-1.71399E+06-8.84029E-10 7.82165E-10
 -1       535-4.44025E+06-5.31019E+05-3.34391E+05-1.72169E+06 3.73620E-09-2.35741E-09
 -1       536 7.72490E+05-4.85769E+04 1.49186E+05-1.69430E+02-6.37556E-10 2.23372E-09
 -1       537 8.31719E+05 5.84790E+04 1.00015E+05-3.21622E+04-2.63117E-09-7.29415E-10
 -1       538 7.96222E+05-6.11009E+03 3.87522E+04-8.89977E+02-5.31600E-10 1.80808E-09
 -1       539 8.04536E+05 7.16073E+03 2.27030E+04-3.09028E+04 2.41380E-09 6.16456E-09
 -1       540 7.99445E+05-7.85932E+02 9.88974E+03-1.41809E+03 2.08729E-10 2.86673E-09
 -1       541 8.00699E+05 8.68014E+02 5.49588E+03-3.00300E+04-1.09787E-09 2.03715E-09
 -1       542 7.99910E+05-1.07941E+02 2.72301E+03-1.76288E+03 2.69893E-10-1.96519E-09
 -1       543 8.00102E+05 1.58353E+02 1.83755E+03-2.95246E+04 1.26192E-11-3.61422E-09
 -1       544 7.99956E+05-4.98795E+01 1.64486E+03-1.92361E+03 3.87786E-10 2.91729E-09
 -1       545 8.00212E+05 3.96674E+02 2.54299E+03-2.93833E+04-5.59332E-10 3.62586E-09
 -1       546 7.99776E+05-3.15442E+02 4.24313E+03-1.90424E+03 2.98769E-10-4.72619E-09
 -1       547 8.01762E+05 3.01219E+03 9.49076E+03-2.95999E+04 3.03544E-11-1.68438E-09
 -1       548 7.98440E+05-2.52448E+03 1.61375E+04-1.70693E+03-2.84444E-10 6.40284E-10
 -1       549 8.13052E+05 2.43297E+04 4.15578E+04-3.01523E+04 6.74390E-10 1.01409E-09
 -1       550 7.88574E+05-2.01722E+04 6.19663E+04-1.35351E+03-1.42018E-09 1.29876E-09
 -1       551 2.83111E+04-4.50386E+05 4.62834E+04-6.86416E+05-6.47560E-09-1.54978E-09
 -1       552 1.49403E+04-4.44185E+05 3.04580E+04-7.84004E+05-1.18016E-08 1.42427E-09
 -1       553 9.68117E+03-4.50087E+05 2.80325E+04-6.85348E+05-7.97809E-09 5.20231E-10
 -1       554 2.21625E+04-4.41640E+05 4.64569E+04-7.84282E+05-1.41590E-08 3.13457E-09
 -1       555 5.13390E+04-4.54929E+05 8.55862E+04-6.86010E+05-9.68248E-09-3.27236E-09
 -1       556-3.87660E+05-2.06833E+05 2.42162E+04-3.64411E+05-4.90036E-09 2.20462E-09
 -1       557-3.63124E+05-2.34882E+05 1.17952E+04-3.84668E+05 2.13913E-09-6.35191E-09
 -1       558-3.89363E+05-2.15824E+05 4.90147E+03-3.59409E+05-2.11730E-09 2.58115E-09
 -1       559-3.65917E+05-2.39074E+05 2.42522E+03-3.86014E+05 3.35785E-09-3.11093E-09
 -1       560-3.90277E+05-2.15711E+05 1.04884E+03-3.59658E+05-7.44330E-09 1.78466E-09
 -1       561-3.66927E+05-2.38967E+05 5.03080E+02-3.86743E+05-2.23135E-08-4.77030E-10
 -1       562-3.90898E+05-2.15348E+05 1.53184E+02-3.60054E+05-8.52742E-09 3.22780E-09
 -1       563-3.67481E+05-2.38730E+05-5.57572E+01-3.87133E+05 3.55249E-09 5.11454E-09
 -1       564-3.91203E+05-2.15148E+05-3.33990E+02-3.60266E+05-1.09139E-10-1.40244E-09
 -1       565-3.67714E+05-2.38639E+05-8.18346E+02-3.87274E+05-4.34829E-09-4.46380E-09
 -1       566-3.91164E+05-2.15128E+05-1.75195E+03-3.60267E+05-2.33399E-09-6.72662E-09
 -1       567-3.67923E+05-2.38941E+05-3.88853E+03-3.87115E+05 4.47471E-10-1.10595E-09
 -1       568-3.90657E+05-2.16113E+05-8.04924E+03-3.59726E+05 2.92493E-09 6.17729E-09
 -1       569-3.71900E+05-2.44555E+05-1.90212E+04-3.85258E+05 6.91216E-10-2.21553E-09
 -1       570-3.89084E+05-2.33520E+05-3.94213E+04-3.52420E+05-4.15821E-09-5.34328E-09
 -1       571 7.08082E+05 3.75466E+04 6.35184E+04-1.75782E+05 1.29148E-09-2.41425E-09
 -1       572 7.18288E+05 1.21718E+04 3.14488E+04-1.96680E+05-2.61934E-10-2.46200E-09
 -1       573 7.12018E+05 2.18359E+03 1.40401E+04-1.75167E+05-1.67347E-10 1.26056E-09
 -1       574 7.13034E+05 5.87960E+02 7.09529E+03-1.97291E+05-9.64974E-10 2.88856E-09
 -1       575 7.12224E+05-6.07008E+01 3.38467E+03-1.75104E+05-1.11322E-09-3.56158E-09
 -1       576 7.12287E+05-4.02287E+01 1.74796E+03-1.97360E+05 5.17957E-10 2.51566E-09
 -1       577 7.12212E+05-6.57335E+01 8.95126E+02-1.75097E+05 7.09520E-10 3.07409E-10
 -1       578 7.12231E+05-5.27471E+01 5.47048E+02-1.97369E+05 1.21418E-10-1.96451E-09
 -1       579 7.12340E+05-1.12890E+02 4.34248E+02-1.75095E+05 8.09450E-10 4.05635E-10
 -1       580 7.12482E+05-1.72522E+02 5.71069E+02-1.97368E+05 1.75532E-09 4.05635E-10
 -1       581 7.12641E+05-2.80191E+02 9.45528E+02-1.75098E+05-1.00772E-09 1.27329E-09
 -1       582 7.13092E+05-2.26492E+02 1.92267E+03-1.97280E+05-3.05590E-09 5.00768E-09
 -1       583 7.13021E+05 6.01357E+01 3.73553E+03-1.75181E+05-2.74304E-09 1.30058E-09
 -1       584 7.15067E+05 2.58559E+03 8.38797E+03-1.96458E+05-4.86034E-09 1.02136E-09
 -1       585 7.12489E+05 9.24470E+03 1.68786E+04-1.75947E+05 1.48793E-09 2.42289E-09
 -1       586 7.27445E+03 1.99623E+05 1.09856E+04-5.66633E+05-2.51021E-10 6.74481E-09
 -1       587 4.79373E+03 2.00651E+05 9.24511E+03-6.36410E+05 3.63798E-11 1.82781E-08
 -1       588 4.25306E+03 1.98845E+05 1.15660E+04-5.65888E+05-3.31056E-10 6.49379E-09
 -1       589 1.12185E+04 2.03095E+05 2.25444E+04-6.36486E+05 2.00089E-10-3.17232E-09
 -1       590 2.78595E+04 1.96728E+05 4.38461E+04-5.66529E+05 3.72893E-11-8.60382E-10
 -1       591-2.90279E+05-1.20251E+05-4.97648E+04-1.75296E+05 8.64020E-10 4.20914E-09
 -1       592-2.88780E+05-1.13922E+05-2.40547E+04-1.93200E+05-3.36513E-10-1.56797E-09
 -1       593-2.91218E+05-9.89187E+04-1.01839E+04-1.84602E+05-8.11269E-10-2.88856E-09
 -1       594-2.83642E+05-1.06599E+05-4.96174E+03-1.94667E+05-9.89530E-10-4.44561E-09
 -1       595-2.91497E+05-9.78788E+04-2.27988E+03-1.85131E+05 8.37645E-10 6.23550E-09
 -1       596-2.83262E+05-1.06240E+05-1.16317E+03-1.94713E+05-4.74301E-09-1.74259E-09
 -1       597-2.91573E+05-9.78755E+04-6.51297E+02-1.85158E+05-5.44787E-10 3.71483E-09
 -1       598-2.83236E+05-1.06234E+05-5.55431E+02-1.94710E+05 1.61822E-09 4.04998E-09
 -1       599-2.91563E+05-9.78743E+04-7.50125E+02-1.85155E+05-1.04910E-09-1.54614E-10
 -1       600-2.83262E+05-1.06244E+05-1.42474E+03-1.94710E+05-7.27596E-12 2.22326E-09
 -1       601-2.91457E+05-9.78761E+04-2.83679E+03-1.85115E+05-1.48975E-09 9.82254E-11
 -1       602-2.83735E+05-1.06698E+05-6.20153E+03-1.94655E+05 1.46247E-09 1.00772E-09
 -1       603-2.91116E+05-9.91741E+04-1.27359E+04-1.84454E+05 1.55342E-09 1.09867E-09
 -1       604-2.90133E+05-1.15889E+05-3.00883E+04-1.92870E+05 2.73121E-09 7.00584E-09
 -1       605-2.89981E+05-1.25801E+05-6.22403E+04-1.72775E+05 4.94765E-10 3.69255E-09
 -1       606 1.76388E+05-2.38963E+04-4.01089E+04 5.31122E+04-1.31804E-08 4.09818E-09
 -1       607 1.69776E+05-7.77732E+03-1.98416E+04 5.88009E+04-1.71713E-09-4.99222E-09
 -1       608 1.73533E+05-1.41724E+03-8.86636E+03 5.26944E+04 1.00699E-08-2.74167E-09
 -1       609 1.72698E+05-2.76684E+02-4.46363E+03 5.92251E+04-6.48652E-09-1.16734E-09
 -1       610 1.73127E+05 1.62733E+02-2.12681E+03 5.26460E+04-7.59974E-09-5.15274E-09
 -1       611 1.72934E+05 2.47185E+02-1.07402E+03 5.92725E+04-7.98354E-09-8.14271E-09
 -1       612 1.72996E+05 2.47638E+02-5.20807E+02 5.26418E+04-1.18180E-08-3.53702E-09
 -1       613 1.72897E+05 2.93425E+02-2.50612E+02 5.92764E+04-3.28619E-08 5.98675E-09
 -1       614 1.72917E+05 2.67659E+02-1.00806E+02 5.26410E+04-1.23946E-08 6.82121E-10
 -1       615 1.72841E+05 3.20998E+02 8.10677E-01 5.92754E+04 1.58325E-08 1.14733E-09
 -1       616 1.72860E+05 2.93983E+02 9.88851E+01 5.26420E+04-9.18135E-09 2.58433E-09
 -1       617 1.72815E+05 3.73958E+02 2.63111E+02 5.92731E+04 1.91721E-09 1.80944E-09
 -1       618 1.72805E+05 4.08282E+02 5.45909E+02 5.26423E+04-2.67482E-09-2.68301E-09
 -1       619 1.72977E+05 8.54920E+02 1.23780E+03 5.92709E+04-2.89901E-09-4.25644E-10
 -1       620 1.72615E+05 1.82269E+03 2.50704E+03 5.26376E+04 6.74459E-09-1.57115E-09
 -1       621 5.97824E+03 6.49925E+05 1.22530E+04-7.97137E+04-1.10404E-08-3.59341E-09
 -1       622 2.47451E+03 6.52153E+05 9.82928E+03-9.13863E+04-3.86262E-09-8.35826E-10
 -1       623 1.74237E+03 6.50461E+05 1.18553E+04-7.98366E+04-9.96533E-09 3.73075E-09
 -1       624 7.90738E+03 6.54946E+05 2.26868E+04-9.09432E+04-1.82627E-09-3.36149E-09
 -1       625 2.38150E+04 6.47474E+05 4.37772E+04-8.01445E+04-8.05449E-09-4.49654E-09
 -1       626 2.32427E+05 7.81165E+04-2.30151E+04 1.67505E+05-7.97445E-09 2.53749E-09
 -1       627 2.23266E+05 9.18788E+04-1.10141E+04 1.70472E+05-1.78261E-09-3.96312E-10
 -1       628 2.32522E+05 8.85551E+04-4.65169E+03 1.62389E+05-4.91491E-09-2.29679E-08
 -1       629 2.25063E+05 9.60438E+04-2.24402E+03 1.70069E+05-1.34096E-08 4.68765E-09
 -1       630 2.32376E+05 8.91798E+04-1.00680E+03 1.61993E+05 3.22507E-09-1.54821E-08
 -1       631 2.25125E+05 9.63278E+04-4.64752E+02 1.70031E+05 1.41517E-08-1.63908E-09
 -1       632 2.32280E+05 8.92146E+04-1.66467E+02 1.61933E+05 3.47427E-09-1.83627E-09
 -1       633 2.25085E+05 9.63563E+04 2.52517E+01 1.70002E+05 4.67026E-10-1.54614E-09
 -1       634 2.32222E+05 8.92141E+04 2.26959E+02 1.61908E+05-1.87356E-10 1.41563E-09
 -1       635 2.25088E+05 9.63647E+04 5.77768E+02 1.69995E+05-5.42286E-09-4.65297E-09
 -1       636 2.32183E+05 8.92190E+04 1.22374E+03 1.61893E+05 2.35900E-09 1.83900E-09
 -1       637 2.25358E+05 9.66014E+04 2.72771E+03 1.69976E+05 1.34686E-08-7.78982E-10
 -1       638 2.32104E+05 8.99457E+04 5.63029E+03 1.61568E+05 2.08079E-08-1.90112E-08
 -1       639 2.28294E+05 1.01022E+05 1.33520E+04 1.69002E+05 3.15567E-08 4.22551E-09
 -1       640 2.31963E+05 1.03018E+05 2.78821E+04 1.56037E+05 1.54578E-08-5.29781E-10
 -1       641 1.15547E+04 4.82605E+03-1.25180E+04-1.32125E+03-1.89486E-08-6.04996E-09
 -1       642 6.42364E+03-5.58623E+03-8.61986E+03 1.25388E+04-1.79011E-08-5.42116E-09
 -1       643 9.53342E+03 6.75151E+02-3.24204E+03-1.31524E+03-2.02656E-08-3.56067E-10
 -1       644 8.70202E+03-7.04090E+02-1.93975E+03 1.25278E+04-4.52411E-09 2.49713E-10
 -1       645 9.23830E+03 8.35107E+01-7.84300E+02-1.31078E+03-2.04307E-09 2.22542E-09
 -1       646 9.01819E+03 7.42901E+00-3.68465E+02 1.25195E+04-2.52309E-08-3.30634E-09
 -1       647 9.19365E+03-5.04122E+00-3.00079E+01-1.30721E+03 1.84893E-08-3.22783E-09
 -1       648 9.08810E+03 1.57889E+02 2.70802E+02 1.25154E+04 4.09958E-08 5.06128E-09
 -1       649 9.15891E+03-5.80238E+01 6.59121E+02-1.30673E+03 3.38558E-08 6.13852E-10
 -1       650 9.30425E+03 5.07525E+02 1.56354E+03 1.25160E+04 3.88383E-08-4.54520E-10
 -1       651 8.98207E+03-3.51972E+02 2.80859E+03-1.30783E+03 1.77778E-09 1.41256E-09
 -1       652 1.05839E+04 2.88075E+03 6.74794E+03 1.25174E+04-1.03522E-08-1.36424E-09
 -1       653 7.89804E+03-2.39440E+03 1.10874E+04-1.30821E+03 2.03579E-09-5.21595E-10
 -1       654 1.87411E+04 1.95442E+04 2.96055E+04 1.24937E+04-4.23324E-09-2.65163E-09
 -1       655 8.60114E+02-1.66508E+04 4.27641E+04-1.28521E+03 2.07367E-08-2.28465E-09
 -1       656 2.93112E+04-8.23820E+05-9.31032E+04 5.49843E+03 5.79530E-09 1.78807E-09
 -1       657-3.91777E+04-8.60991E+05-7.09885E+04 5.73930E+04 7.07223E-09 1.10117E-09
 -1       658 6.82188E+03-8.36248E+05-4.31610E+04 5.10291E+03 1.00846E-08 8.29198E-09
 -1       659-3.58277E+04-8.59348E+05-6.59417E+04 5.77149E+04 1.78079E-09-5.44501E-10
 -1       660 2.62608E+04-8.25553E+05-8.39393E+04 5.17904E+03 1.04956E-08-4.25189E-09
 -1       661 8.69294E+05 1.02818E+05 7.35694E+04 3.39933E+05-1.41808E-08-8.65839E-10
 -1       662 8.90734E+05 1.70202E+05 4.85402E+04 3.45974E+05-2.47273E-08-7.51879E-09
 -1       663 8.82845E+05 1.24712E+05 1.73761E+04 3.36896E+05-2.45041E-09-6.87669E-09
 -1       664 8.75285E+05 1.43903E+05 1.00899E+04 3.49672E+05 2.57484E-09 1.22100E-10
 -1       665 8.84503E+05 1.27712E+05 4.08978E+03 3.36750E+05 6.95127E-09-1.45951E-09
 -1       666 8.73434E+05 1.40293E+05 2.31161E+03 3.49776E+05-3.59978E-09-4.40741E-09
 -1       667 8.84648E+05 1.28177E+05 1.23207E+03 3.36834E+05 1.34789E-08-2.67934E-09
 -1       668 8.73304E+05 1.39836E+05 1.17015E+03 3.49683E+05 3.56264E-08-2.57626E-09
 -1       669 8.84622E+05 1.28161E+05 1.57071E+03 3.36842E+05 1.93809E-08 6.11510E-09
 -1       670 8.73622E+05 1.40498E+05 3.28764E+03 3.49726E+05 4.24509E-09 1.48086E-08
 -1       671 8.84340E+05 1.27533E+05 5.98143E+03 3.36788E+05-3.62886E-09 3.13639E-09
 -1       672 8.76522E+05 1.45660E+05 1.48628E+04 3.49363E+05-1.94218E-08-5.82463E-09
 -1       673 8.81777E+05 1.23222E+05 2.56378E+04 3.37131E+05-5.17502E-10-1.51886E-09
 -1       674 8.99576E+05 1.84200E+05 7.16325E+04 3.43573E+05-2.06335E-08-2.73303E-09
 -1       675 8.61618E+05 9.10859E+04 1.08607E+05 3.41800E+05-1.04810E-08-1.26602E-09
 -1       676 9.23318E+03-7.73889E+05-3.00826E+04 3.06233E+03 4.23915E-09 3.38366E-09
 -1       677-1.32310E+04-7.86160E+05-2.52494E+04 1.11418E+04 7.61611E-09-2.61900E-09
 -1       678 3.00613E+03-7.77282E+05-1.90434E+04 2.97007E+03-6.83940E-10 6.30860E-09
 -1       679-1.97567E+04-7.89588E+05-3.51699E+04 1.12362E+04-7.78618E-09-1.02488E-08
 -1       680 1.52970E+04-7.70469E+05-4.80256E+04 2.96663E+03-5.42786E-09-2.22765E-09
 -1       681 7.09255E+05-1.54839E+04 3.97608E+04 2.90258E+03 1.94632E-10 2.95950E-09
 -1       682 7.26104E+05 1.80513E+04 2.75668E+04-1.70217E+04-7.49765E-11 1.31877E-09
 -1       683 7.15833E+05-2.21970E+03 1.03390E+04 2.09818E+03 3.96881E-10 1.65437E-09
 -1       684 7.18456E+05 2.56908E+03 6.34789E+03-1.56918E+04-3.71529E-10-7.99218E-11
 -1       685 7.16852E+05-3.20208E+02 2.73405E+03 1.57321E+03 7.58860E-10-1.73827E-10
 -1       686 7.17248E+05 3.87653E+02 1.71445E+03-1.48957E+04-2.60115E-10-1.30251E-09
 -1       687 7.17010E+05-6.15895E+01 1.10440E+03 1.30208E+03 4.18027E-10 5.42855E-12
 -1       688 7.17122E+05 1.97126E+02 1.30713E+03-1.45933E+04-5.21325E-11 2.13305E-10
 -1       689 7.16967E+05-1.25415E+02 1.93461E+03 1.27074E+03 4.82316E-11 5.04144E-10
 -1       690 7.17594E+05 9.89054E+02 4.04198E+03-1.47704E+04 3.82272E-11 1.11493E-09
 -1       691 7.16542E+05-8.44431E+02 7.06173E+03 1.47925E+03 4.39059E-10 3.70164E-10
 -1       692 7.20721E+05 6.88249E+03 1.68097E+04-1.54352E+04 3.18266E-10-5.29099E-10
 -1       693 7.13862E+05-5.91328E+03 2.75953E+04 1.93554E+03-8.23093E-11 2.25191E-09
 -1       694 7.40918E+05 4.82925E+04 7.35811E+04-1.66390E+04-8.30198E-10 2.16460E-09
 -1       695 6.96384E+05-4.13235E+04 1.06335E+05 2.68160E+03 5.68434E-11 1.46974E-09
 -1       696-1.49206E+04 6.97116E+05 3.77417E+04 2.22361E+03 1.00044E-10-8.29573E-10
 -1       697 1.65613E+04 7.12400E+05 2.39822E+04-3.47707E+04 1.04137E-10-1.92244E-10
 -1       698-1.14693E+03 7.03957E+05 5.25247E+03 2.01434E+03-2.73758E-10 2.30411E-09
 -1       699-5.63181E+03 7.01649E+05-6.72944E+03-3.48774E+04-3.41061E-10 3.16064E-09
 -1       700 6.75171E+03 7.07890E+05-1.62038E+04 2.32947E+03-3.15595E-10 1.69030E-09
 -1       701-6.39620E+05-5.95102E+04-8.63034E+04-2.53909E+05 3.67436E-10-3.20142E-10
 -1       702-6.79398E+05-1.35942E+05-5.86685E+04-2.44843E+05-1.62572E-10 2.75577E-10
 -1       703-6.57120E+05-8.78945E+04-2.03140E+04-2.48287E+05 6.68479E-11-1.48248E-10
 -1       704-6.58916E+05-1.03087E+05-1.22774E+04-2.51786E+05-2.81474E-10-3.27418E-11
 -1       705-6.60014E+05-9.17369E+04-4.76064E+03-2.47203E+05 3.53740E-10 5.21140E-10
 -1       706-6.55407E+05-9.88015E+04-2.74363E+03-2.53272E+05 3.21961E-10 5.26768E-10
 -1       707-6.60625E+05-9.20902E+04-1.32239E+03-2.46838E+05 4.58130E-10 8.37758E-10
 -1       708-6.54676E+05-9.85630E+04-1.13172E+03-2.53796E+05 2.10463E-10-4.18211E-10
 -1       709-6.60751E+05-9.19609E+04-1.30503E+03-2.46688E+05 2.05944E-10 4.09898E-10
 -1       710-6.54921E+05-9.92937E+04-2.70200E+03-2.53872E+05 4.60233E-10 1.96587E-09
 -1       711-6.60385E+05-9.13664E+04-4.66837E+03-2.46762E+05-8.73683E-11 8.09450E-10
 -1       712-6.57921E+05-1.03967E+05-1.20580E+04-2.52961E+05-3.29692E-10 5.77529E-10
 -1       713-6.57764E+05-8.73702E+04-1.99275E+04-2.47568E+05 3.29464E-10 8.08541E-10
 -1       714-6.77602E+05-1.36640E+05-5.75835E+04-2.46644E+05 5.17730E-10-4.36557E-11
 -1       715-6.40795E+05-5.93074E+04-8.46831E+04-2.52850E+05-3.27418E-10-6.83940E-10
 -1       716 3.13776E+05-2.79834E+04 7.15514E+04 4.44657E+03 5.52973E-10 3.92902E-10
 -1       717 3.44766E+05 3.26053E+04 4.97212E+04-3.88877E+04-3.33898E-10-1.13505E-09
 -1       718 3.25741E+05-4.03326E+03 1.85790E+04 3.71364E+03-5.41604E-10-4.43833E-10
 -1       719 3.30632E+05 4.74944E+03 1.14272E+04-3.77061E+04-4.98403E-10-3.28964E-09
 -1       720 3.27645E+05-5.90266E+02 4.86632E+03 3.26592E+03 2.02249E-09-3.12411E-09
 -1       721 3.28287E+05 8.39664E+02 2.97650E+03-3.70889E+04 3.74308E-09-1.18564E-09
 -1       722 3.27953E+05-1.12001E+02 1.77790E+03 3.09659E+03 2.96394E-09-3.78782E-09
 -1       723 3.28036E+05 4.34718E+02 1.89655E+03-3.70252E+04 2.07137E-09-5.18461E-09
 -1       724 3.27882E+05-1.83775E+02 2.62072E+03 3.20227E+03 2.83887E-09-2.98485E-09
 -1       725 3.28852E+05 1.41343E+03 5.39225E+03-3.75158E+04 3.72995E-09-1.00545E-09
 -1       726 3.27242E+05-1.14793E+03 9.28058E+03 3.58700E+03 1.98611E-09-3.02362E-09
 -1       727 3.33401E+05 9.09078E+03 2.22265E+04-3.85742E+04 1.67347E-10-7.42148E-10
 -1       728 3.23566E+05-7.86348E+03 3.62495E+04 4.26066E+03 4.63842E-11 6.33008E-10
 -1       729 3.60717E+05 6.35525E+04 9.70851E+04-4.02799E+04-3.06500E-10 9.74978E-10
 -1       730 3.00322E+05-5.46038E+04 1.39871E+05 5.28966E+03-5.21140E-10 5.34783E-09
 -1       731-2.57262E+04 2.52613E+05 6.61099E+04 5.92457E+03-3.16504E-10-1.39266E-09
 -1       732 3.03413E+04 2.80046E+05 4.57914E+04-5.97960E+04 3.11729E-09-1.31493E-09
 -1       733-3.74699E+03 2.63465E+05 1.72071E+04 5.88079E+03-5.99357E-10 2.11827E-09
 -1       734 4.97576E+03 2.67973E+05 1.07578E+04-6.00398E+04 2.50293E-09 2.89543E-09
 -1       735-1.02114E+03 2.64788E+05 4.46801E+03 6.16734E+03-8.06722E-10 2.39197E-09
 -1       736-1.76307E+06-2.02268E+05-1.32660E+05-6.84300E+05 4.54747E-11-9.53150E-10
 -1       737-1.82942E+06-3.14500E+05-9.01774E+04-6.64240E+05-2.34650E-10 5.16593E-10
 -1       738-1.79094E+06-2.44961E+05-3.12105E+04-6.74531E+05 4.90672E-10 4.98403E-10
 -1       739-1.79599E+06-2.65870E+05-1.88478E+04-6.77096E+05-4.74074E-10 1.08776E-09
 -1       740-1.79631E+06-2.49932E+05-7.30713E+03-6.71784E+05-9.64775E-11 3.70619E-10
 -1       741-1.78896E+06-2.60919E+05-4.19013E+03-6.81281E+05 3.52117E-10 1.29660E-10
 -1       742-1.79795E+06-2.49765E+05-2.00203E+03-6.70404E+05 1.13158E-09 1.32809E-09
 -1       743-1.78679E+06-2.61603E+05-1.66670E+03-6.83326E+05 9.68527E-10-2.37506E-10
 -1       744-1.79850E+06-2.49218E+05-1.87437E+03-6.69759E+05 1.32957E-10-1.64732E-09
 -1       745-1.78683E+06-2.62937E+05-3.83836E+03-6.83797E+05 1.40095E-09-1.36686E-09
 -1       746-1.79793E+06-2.48439E+05-6.61380E+03-6.69936E+05 2.41869E-09 4.54747E-12
 -1       747-1.79163E+06-2.69005E+05-1.70775E+04-6.81853E+05-1.26829E-09 9.06084E-10
 -1       748-1.79373E+06-2.43274E+05-2.82284E+04-6.71660E+05-5.52518E-10 1.03500E-09
 -1       749-1.82085E+06-3.14001E+05-8.16018E+04-6.71340E+05 1.47884E-09-6.60293E-10
 -1       750-1.76887E+06-2.04327E+05-1.20025E+05-6.80134E+05-1.03682E-09 1.14233E-09
 -1       751 3.41288E+06-1.63612E+05 4.22338E+05 1.42544E+04-5.06589E-09 3.52156E-09
 -1       752 3.58932E+06 1.91279E+05 2.91958E+05-3.35302E+04-4.79224E-09 1.80444E-09
 -1       753 3.48227E+06-2.33995E+04 1.09713E+05 7.60375E+03 4.02679E-10 3.20142E-09
 -1       754 3.50939E+06 2.72326E+04 6.68700E+04-2.30291E+04 3.09956E-09 3.08501E-09
 -1       755 3.49293E+06-3.34175E+03 2.82795E+04 3.76787E+03 3.17527E-10-1.52431E-09
 -1       756 3.49712E+06 3.90819E+03 1.64613E+04-1.70939E+04-3.96710E-10 3.02407E-11
 -1       757 3.49459E+06-5.23529E+02 8.42564E+03 1.66891E+03 8.03936E-10 4.88990E-09
 -1       758 3.49539E+06 9.65014E+02 6.75402E+03-1.41492E+04 5.71674E-10 1.45479E-09
 -1       759 3.49466E+06-4.34160E+02 7.27517E+03 8.23013E+02-4.51195E-10-1.23532E-09
 -1       760 3.49656E+06 3.09883E+03 1.32216E+04-1.35184E+04 1.13896E-09-6.48697E-10
 -1       761 3.49340E+06-2.61395E+03 2.22847E+04 1.03813E+03 8.24969E-10 1.13960E-09
 -1       762 3.50603E+06 2.13343E+04 5.23432E+04-1.50609E+04 1.23239E-09 4.61569E-09
 -1       763 3.48510E+06-1.82889E+04 8.58188E+04 2.36558E+03 3.89753E-09 2.79397E-09
 -1       764 3.56824E+06 1.49616E+05 2.28191E+05-1.91856E+04 1.45502E-09 2.38651E-09
 -1       765 3.43094E+06-1.27887E+05 3.30088E+05 5.15885E+03-1.48248E-09-8.29459E-10
 -1       766-6.89831E+04 6.90426E+05 1.81250E+05-3.09287E+03-1.04774E-09-1.08730E-09
 -1       767 8.72718E+04 7.68573E+05 1.38957E+05 6.23701E+03 1.31149E-09 1.20735E-10
 -1       768-1.64143E+04 7.16139E+05 7.55106E+04-1.79451E+03-1.63618E-09 2.64117E-09
 -1       769 6.58000E+04 7.58050E+05 1.09198E+05 3.82566E+03 5.54792E-11 1.84491E-09
 -1       770-4.79904E+04 7.00902E+05 1.28966E+05-6.86847E+02-8.36735E-10 1.64937E-09
 -1       771-1.84619E+06-3.88498E+05-9.48431E+04-7.87547E+05-2.07729E-09-2.13913E-09
 -1       772-1.84737E+06-3.72041E+05-4.58038E+04-8.16548E+05-5.56611E-10 4.51655E-09
 -1       773-1.84832E+06-3.47688E+05-1.94336E+04-8.05227E+05 6.70843E-09-5.52973E-10
 -1       774-1.83762E+06-3.58316E+05-9.44046E+03-8.19927E+05 1.19617E-08-2.30339E-08
 -1       775-1.84920E+06-3.45481E+05-4.35963E+03-8.06354E+05 9.51695E-09-3.12048E-09
 -1       776-1.83715E+06-3.57585E+05-2.18539E+03-8.20366E+05 8.93124E-10-3.49428E-09
 -1       777-1.84970E+06-3.45281E+05-1.19323E+03-8.06566E+05 9.67702E-10 4.70209E-10
 -1       778-1.83736E+06-3.57485E+05-8.97696E+02-8.20661E+05 5.23869E-10 9.16771E-10
 -1       779-1.85002E+06-3.45104E+05-1.11110E+03-8.06720E+05 3.12866E-10-5.70708E-11
 -1       780-1.83767E+06-3.57417E+05-1.99373E+03-8.20932E+05 5.09317E-11-2.87571E-09
 -1       781-1.85016E+06-3.44940E+05-3.92982E+03-8.06809E+05 1.58252E-10-1.82217E-09
 -1       782-1.83855E+06-3.57988E+05-8.56419E+03-8.21124E+05 5.82077E-11 1.24601E-10
 -1       783-1.84997E+06-3.46565E+05-1.75791E+04-8.06005E+05-2.00089E-10-1.26420E-09
 -1       784-1.84732E+06-3.70921E+05-4.15699E+04-8.19204E+05 5.60249E-10 6.18456E-11
 -1       785-1.84888E+06-3.83034E+05-8.59967E+04-7.89729E+05 1.21690E-09 2.29556E-09
 -1       786 1.07549E+06-3.82688E+04 1.17852E+05 1.07516E+02 9.79071E-10 5.90080E-09
 -1       787 1.12181E+06 4.62679E+04 7.89537E+04-1.31362E+04-9.14383E-10-1.36788E-09
 -1       788 1.09422E+06-4.78029E+03 3.06418E+04-2.09521E+02-6.66205E-11-1.73532E-09
 -1       789 1.10054E+06 5.70463E+03 1.79300E+04-1.26059E+04-1.61265E-10 9.72477E-10
 -1       790 1.09676E+06-6.00389E+02 7.85472E+03-4.19421E+02 5.82986E-10-1.69166E-10
 -1       791 1.09763E+06 7.00681E+02 4.39465E+03-1.22938E+04 1.07175E-09-1.85992E-10
 -1       792 1.09712E+06-8.16904E+01 2.27302E+03-5.21530E+02-2.87343E-11 8.30937E-10
 -1       793 1.09725E+06 1.35549E+02 1.69674E+03-1.21941E+04 8.85567E-10 6.44889E-11
 -1       794 1.09714E+06-5.92109E+01 1.77049E+03-5.19081E+02-8.06210E-10-8.66407E-10
 -1       795 1.09747E+06 4.63507E+02 3.03012E+03-1.23045E+04 2.29079E-10-2.91496E-09
 -1       796 1.09691E+06-3.95986E+02 5.22884E+03-4.11107E+02-1.92586E-10-2.66641E-09
 -1       797 1.09937E+06 3.74369E+03 1.18155E+04-1.26262E+04-6.75982E-10 1.33741E-09
 -1       798 1.09524E+06-3.14306E+03 2.01458E+04-1.97513E+02-9.76115E-10 1.21781E-09
 -1       799 1.11336E+06 3.03893E+04 5.18802E+04-1.31597E+04-3.65242E-09-1.21508E-09
 -1       800 1.08293E+06-2.51488E+04 7.74132E+04 1.20244E+02-5.50017E-10 1.41517E-09
 -1       801-3.94084E+04 9.77833E+05 1.16527E+05-5.17370E+04 1.04192E-08-2.42653E-09
 -1       802 6.45488E+04 1.02498E+06 1.04057E+05-7.93950E+05 1.29535E-08-4.82487E-09
 -1       803-1.13391E+04 9.92121E+05 8.20120E+04-5.40290E+04 2.04382E-08 1.05781E-08
 -1       804 9.87725E+04 1.04554E+06 1.57178E+05-7.94449E+05 1.00408E-08 5.51154E-09
 -1       805-7.25519E+04 9.59322E+05 2.11884E+05-5.12604E+04 1.22673E-08 7.14863E-09
 -1       806-7.27244E+05-1.84395E+05-6.69469E+04-3.23756E+05-2.56296E-09 4.99131E-09
 -1       807-7.29008E+05-1.69030E+05-3.20539E+04-3.43028E+05 1.07639E-09 2.88082E-09
 -1       808-7.27581E+05-1.53107E+05-1.35244E+04-3.37307E+05-1.61772E-08 6.66932E-09
 -1       809-7.22318E+05-1.58145E+05-6.56654E+03-3.45223E+05-4.15293E-08 1.29580E-09
 -1       810-7.27830E+05-1.51332E+05-2.99419E+03-3.38156E+05-1.74614E-08 2.63481E-09
 -1       811-7.21732E+05-1.57538E+05-1.51476E+03-3.45274E+05-8.75843E-10-1.91585E-09
 -1       812-7.27894E+05-1.51317E+05-8.19958E+02-3.38186E+05 7.46400E-09 2.05023E-08
 -1       813-7.21668E+05-1.57532E+05-6.52800E+02-3.45252E+05 1.77181E-09-4.45107E-09
 -1       814-7.27876E+05-1.51326E+05-8.25373E+02-3.38176E+05 2.40652E-09-2.33194E-09
 -1       815-7.21701E+05-1.57551E+05-1.52863E+03-3.45245E+05 1.11504E-09-1.86992E-09
 -1       816-7.27772E+05-1.51360E+05-3.02271E+03-3.38127E+05 1.33405E-08-5.21413E-09
 -1       817-7.22268E+05-1.58169E+05-6.62927E+03-3.45156E+05 3.26563E-08-8.50378E-09
 -1       818-7.27483E+05-1.53180E+05-1.36549E+04-3.37259E+05 2.48947E-08-5.24233E-09
 -1       819-7.29056E+05-1.69094E+05-3.23566E+04-3.42833E+05 1.43627E-08-1.71713E-08
 -1       820-7.27054E+05-1.84814E+05-6.75793E+04-3.23620E+05 1.27184E-08-1.51340E-09
 -1       821-7.69899E+05 3.00110E+04-9.23620E+04-4.38510E+02-6.10180E-09-8.03993E-10
 -1       822-8.06103E+05-3.63014E+04-6.18849E+04 1.06700E+04-4.18447E-09-2.16733E-09
 -1       823-7.84573E+05 3.73255E+03-2.40160E+04-8.15855E+02 7.19888E-09-2.15641E-09
 -1       824-7.89483E+05-4.44347E+03-1.40425E+04 1.13294E+04-6.87578E-10 5.61613E-11
 -1       825-7.86552E+05 4.60366E+02-6.16764E+03-1.10035E+03-1.08648E-08 5.54110E-10
 -1       826-7.87260E+05-4.95632E+02-3.46397E+03 1.18156E+04-1.75378E-08-4.36830E-09
 -1       827-7.86828E+05 6.02574E+01-1.83707E+03-1.30271E+03-1.16548E-08 1.89169E-09
 -1       828-7.87002E+05-4.81030E+01-1.44657E+03 1.21353E+04-1.71467E-08-1.73320E-09
 -1       829-7.86835E+05 5.32482E+01-1.61668E+03-1.42032E+03-1.92676E-09-3.32776E-09
 -1       830-7.87232E+05-3.75835E+02-2.87414E+03 1.22816E+04 6.10164E-09-5.59086E-09
 -1       831-7.86611E+05 3.79480E+02-5.02033E+03-1.44898E+03-7.78259E-09-8.37417E-10
 -1       832-7.89061E+05-3.55771E+03-1.13892E+04 1.22524E+04-7.22480E-11 1.80762E-10
 -1       833-7.85008E+05 3.03211E+03-1.94420E+04-1.39054E+03 5.48596E-09-3.98177E-09
 -1       834-8.02541E+05-2.93415E+04-5.01092E+04 1.20582E+04 2.58694E-09-6.46105E-09
 -1       835-7.73129E+05 2.43094E+04-7.47666E+04-1.25033E+03 6.46469E-09-6.50471E-09
 -1       836-6.40669E+04 2.35234E+06 2.04941E+05-1.71992E+04 3.92902E-09 1.84809E-09
 -1       837 8.83129E+04 2.43520E+06 1.62898E+05-2.04151E+05-5.20413E-09 2.35650E-09
 -1       838-1.71152E+04 2.37812E+06 1.09389E+05-1.90539E+04 4.29463E-09 4.25860E-09
 -1       839 1.02098E+05 2.44223E+06 1.83805E+05-2.03730E+05-7.81256E-09 6.58338E-09
 -1       840-7.67481E+04 2.34515E+06 2.42904E+05-1.76172E+04 2.75031E-09 3.62252E-09
 -1       841-3.48670E+05-3.04593E+04-5.49326E+04-1.40731E+05-9.85892E-10-3.61979E-09
 -1       842-3.81231E+05-7.17782E+04-3.73254E+04-1.26640E+05 3.03635E-09-2.83762E-10
 -1       843-3.59280E+05-4.90343E+04-1.29277E+04-1.37746E+05 7.71115E-09 4.65616E-09
 -1       844-3.69141E+05-4.99558E+04-7.79903E+03-1.30021E+05 1.22360E-08 1.08525E-09
 -1       845-3.60717E+05-5.18764E+04-3.00697E+03-1.37509E+05 1.08992E-09 1.48486E-09
 -1       846-3.67596E+05-4.65437E+04-1.69007E+03-1.30201E+05-1.25310E-08 1.81439E-09
 -1       847-3.60829E+05-5.23853E+04-7.32818E+02-1.37594E+05-1.23197E-08 4.43642E-09
 -1       848-3.67531E+05-4.59203E+04-4.66917E+02-1.30058E+05 3.64571E-09 5.14520E-09
 -1       849-3.60790E+05-5.24881E+04-3.52030E+02-1.37661E+05 5.04424E-09 8.91951E-10
 -1       850-3.67635E+05-4.59215E+04-5.55418E+02-1.29981E+05-6.96041E-09 1.38990E-09
 -1       851-3.60729E+05-5.23834E+04-8.86705E+02-1.37673E+05-5.12631E-09 9.50934E-10
 -1       852-3.68085E+05-4.68644E+04-2.23511E+03-1.29909E+05 1.13262E-08 1.00360E-09
 -1       853-3.60338E+05-5.15622E+04-3.68354E+03-1.37725E+05-4.64979E-11-3.43812E-09
 -1       854-3.71431E+05-5.31470E+04-1.06169E+04-1.29030E+05-1.08577E-08-2.14004E-09
 -1       855-3.57392E+05-4.62192E+04-1.56280E+04-1.38504E+05-1.66756E-09-3.81078E-10
 -1       856-8.86764E+05 2.76212E+04-8.52375E+04-1.11948E+03-1.01882E-08-6.52290E-09
 -1       857-9.20036E+05-3.33517E+04-5.70568E+04 2.49849E+04-1.40783E-08-1.66528E-09
 -1       858-9.00280E+05 3.41379E+03-2.21676E+04-1.85000E+03-1.72163E-08 1.23691E-10
 -1       859-9.04870E+05-3.91888E+03-1.29354E+04 2.62188E+04-3.74598E-09-7.17932E-09
 -1       860-9.02094E+05 4.13607E+02-5.68256E+03-2.35906E+03-2.81489E-09-7.00516E-09
 -1       861-9.02924E+05-2.40367E+02-3.16769E+03 2.70154E+04-1.55795E-08-6.42876E-09
 -1       862-9.02345E+05 5.31324E+01-1.64677E+03-2.64854E+03 2.36599E-08-6.77335E-09
 -1       863-9.02718E+05 1.93497E+02-1.23671E+03 2.73732E+04 4.15296E-08-1.17928E-08
 -1       864-9.02357E+05 4.11209E+01-1.30469E+03-2.71742E+03 3.09800E-08-8.45429E-09
 -1       865-9.02861E+05-6.09761E+01-2.24840E+03 2.72871E+04 2.92962E-08-1.05590E-08
 -1       866-9.02189E+05 2.84409E+02-3.89958E+03-2.56224E+03-3.05999E-09-7.08621E-09
 -1       867-9.04176E+05-2.55367E+03-8.80310E+03 2.67589E+04 1.02901E-08-3.02043E-09
 -1       868-9.00960E+05 2.31795E+03-1.50525E+04-2.18778E+03 9.56788E-09-3.24599E-09
 -1       869-9.14437E+05-2.25354E+04-3.87233E+04 2.57848E+04-1.18982E-08-4.71846E-09
 -1       870-8.91795E+05 1.87376E+04-5.78525E+04-1.58300E+03 2.14604E-08-4.28918E-09
 -1       871-5.17562E+03-3.63510E+04-7.63736E+03 1.17658E+05 1.18598E-09-2.40452E-08
 -1       872-1.91344E+03-3.75694E+04-2.07037E+03 1.34239E+05 5.65524E-09-3.85385E-08
 -1       873-1.76655E+02-3.72202E+04 2.54940E+03 1.17444E+05 9.79071E-09-2.01553E-08
 -1       874 2.87878E+03-3.53266E+04 9.06329E+03 1.34385E+05 5.38239E-09-1.88805E-09
 -1       875 1.04242E+04-3.87567E+04 1.96703E+04 1.17560E+05 4.71937E-09-3.89423E-09
 -1       876 9.45046E+05 1.08313E+05 9.03802E+04 3.70619E+05-1.23182E-08-5.61340E-09
 -1       877 9.70051E+05 1.92586E+05 5.96498E+04 3.79743E+05-2.41830E-08-4.62205E-09
 -1       878 9.61580E+05 1.35349E+05 2.13379E+04 3.67027E+05-3.24107E-09 7.02130E-10
 -1       879 9.51241E+05 1.60055E+05 1.23942E+04 3.84008E+05-3.45153E-09-8.12247E-09
 -1       880 9.63524E+05 1.39140E+05 5.00262E+03 3.66957E+05 7.95387E-09 6.17592E-09
 -1       881 9.49108E+05 1.55447E+05 2.80131E+03 3.83922E+05-9.24268E-09-6.46168E-09
 -1       882 9.63629E+05 1.39795E+05 1.42979E+03 3.67148E+05 9.46670E-09-1.64454E-09
 -1       883 9.49045E+05 1.54732E+05 1.25108E+03 3.83645E+05 2.89984E-08 3.75842E-09
 -1       884 9.63557E+05 1.39854E+05 1.56560E+03 3.67221E+05 1.84182E-08 7.03750E-09
 -1       885 9.49403E+05 1.55282E+05 3.18523E+03 3.83602E+05-4.63494E-09 5.64137E-09
 -1       886 9.63274E+05 1.39265E+05 5.75747E+03 3.67183E+05-4.23933E-09 4.79758E-10
 -1       887 9.52175E+05 1.60256E+05 1.42794E+04 3.83280E+05-2.52783E-08-9.15975E-09
 -1       888 9.60844E+05 1.35091E+05 2.46205E+04 3.67476E+05-9.92350E-09 2.12822E-10
 -1       889 9.74228E+05 1.97368E+05 6.87882E+04 3.77855E+05-1.49862E-08 3.06409E-09
 -1       890 9.41556E+05 1.04151E+05 1.04278E+05 3.71874E+05 1.89175E-09 7.34872E-10
 -1       891 4.23236E+03-4.03728E+05-1.44093E+04 8.35645E+03-2.48929E-09 1.93904E-09
 -1       892-6.90739E+03-4.08916E+05-1.23934E+04 1.26462E+05-5.05349E-09-7.06154E-09
 -1       893 1.56235E+03-4.05200E+05-9.92778E+03 8.10563E+03-4.70618E-09 5.23497E-09
 -1       894-1.13147E+04-4.11168E+05-1.90696E+04 1.26419E+05 8.21001E-09-1.26147E-09
 -1       895 8.29358E+03-4.01431E+05-2.65073E+04 8.39778E+03-2.11639E-09 2.33467E-09
 -1       896 1.11887E+06-7.43481E+03 1.90818E+04 2.93243E+03 1.53022E-10-2.52930E-09
 -1       897 1.12695E+06 8.65532E+03 1.32423E+04-1.24912E+04-1.29603E-10-2.06091E-09
 -1       898 1.12204E+06-1.06646E+03 4.96860E+03 1.92902E+03-3.89264E-10-1.28512E-09
 -1       899 1.12326E+06 1.22777E+03 3.06492E+03-1.08002E+04-3.27702E-10-7.04176E-10
 -1       900 1.12253E+06-1.54997E+02 1.33921E+03 1.24159E+03 3.38446E-10-2.05375E-10
 -1       901 1.12268E+06 1.87182E+02 8.82893E+02-9.69539E+03-4.58471E-10-2.06342E-11
 -1       902 1.12261E+06-3.41876E+01 6.40408E+02 8.24189E+02-5.33760E-11 6.43301E-10
 -1       903 1.12263E+06 1.27158E+02 8.66117E+02-9.09935E+03-2.98144E-10 3.89853E-10
 -1       904 1.12257E+06-8.99080E+01 1.37138E+03 6.45539E+02-5.51090E-10 5.56611E-10
 -1       905 1.12296E+06 7.19285E+02 2.92827E+03-8.96937E+03-7.93534E-11 4.70948E-10
 -1       906 1.12227E+06-6.14596E+02 5.14783E+03 6.94214E+02 1.11640E-10-9.25411E-11
 -1       907 1.12521E+06 5.02765E+03 1.22605E+04-9.29635E+03 6.10868E-10 3.74030E-10
 -1       908 1.12032E+06-4.31087E+03 2.01475E+04 9.72543E+02 1.23009E-10-1.40062E-10
 -1       909 1.13990E+06 3.52524E+04 5.36888E+04-1.01074E+04-2.73616E-10-1.42063E-09
 -1       910 1.10757E+06-3.01436E+04 7.76102E+04 1.50491E+03-2.75008E-10-1.30967E-09
 -1       911 3.99527E+05-5.24830E+03 1.34321E+04 1.50517E+03 1.21645E-10 6.89397E-10
 -1       912 4.05288E+05 6.11908E+03 9.33670E+03-1.31663E+04-8.50832E-10 6.48583E-10
 -1       913 4.01763E+05-7.57086E+02 3.50328E+03 1.14149E+03-4.37694E-11 1.50271E-09
 -1       914 4.02664E+05 8.89129E+02 2.18035E+03-1.25479E+04-4.56055E-10 3.17215E-09
 -1       915 4.02115E+05-1.13129E+02 9.79483E+02 8.86782E+02 9.85665E-10 2.11350E-09
 -1       916 4.02238E+05 1.64421E+02 7.02477E+02-1.21493E+04 1.76897E-09 2.54619E-09
 -1       917 4.02167E+05-3.18058E+01 6.04475E+02 7.42974E+02 1.48688E-09 2.00842E-09
 -1       918 4.02225E+05 1.64250E+02 9.39769E+02-1.19698E+04 4.59195E-10 2.66624E-09
 -1       919 4.02118E+05-1.06608E+02 1.57986E+03 7.07240E+02 1.21594E-09 2.84729E-09
 -1       920 4.02640E+05 8.71961E+02 3.43607E+03-1.20048E+04 1.03067E-09 2.94852E-09
 -1       921 4.01753E+05-7.28596E+02 6.06400E+03 7.78038E+02 1.25743E-09 2.73576E-09
 -1       922 4.05318E+05 5.95983E+03 1.44708E+04-1.22538E+04 1.39869E-09 2.95972E-09
 -1       923 3.99451E+05-5.09712E+03 2.37782E+04 9.56353E+02-2.45450E-10 1.63618E-09
 -1       924 4.22690E+05 4.16611E+04 6.34055E+04-1.27182E+04-2.93085E-10 1.68075E-09
 -1       925 3.84407E+05-3.56163E+04 9.16531E+04 1.24231E+03 1.94268E-09 8.84029E-10
 -1       926-1.49935E+06 3.08089E+04-7.92138E+04-5.95667E+02 1.20599E-09-1.06229E-09
 -1       927-1.53221E+06-3.60354E+04-5.47976E+04 3.86933E+03 9.25894E-10-7.95808E-10
 -1       928-1.51232E+06 4.40227E+03-2.05451E+04-1.34507E+03 5.39899E-10-1.54341E-09
 -1       929-1.51724E+06-5.13192E+03-1.24934E+04 5.17547E+03 1.12777E-09-2.18392E-09
 -1       930-1.51429E+06 6.25113E+02-5.23973E+03-1.90180E+03-5.74516E-10-1.95269E-09
 -1       931-1.51497E+06-7.20601E+02-2.97324E+03 6.04757E+03 2.53536E-10-2.04722E-09
 -1       932-1.51459E+06 8.88197E+01-1.38187E+03-2.21725E+03 1.42450E-09-2.34036E-09
 -1       933-1.51462E+06-1.10804E+02-8.53183E+02 6.40882E+03 6.60123E-10-2.17995E-09
 -1       934-1.51463E+06 2.83819E+01-6.02371E+02-2.26307E+03 4.39570E-10-1.89488E-09
 -1       935-1.51464E+06-1.54482E+02-7.84625E+02 6.22585E+03 7.51996E-10-2.85300E-09
 -1       936-1.51458E+06 1.29876E+02-1.17269E+03-2.03427E+03-2.74099E-10-1.65312E-09
 -1       937-1.51509E+06-1.06657E+03-2.64680E+03 5.51567E+03 1.41756E-09-2.91209E-09
 -1       938-1.51417E+06 9.16500E+02-4.31075E+03-1.55287E+03 1.07093E-09-2.48360E-09
 -1       939-1.51820E+06-7.51982E+03-1.14464E+04 4.34210E+03 9.20863E-10-1.21315E-09
 -1       940-1.51147E+06 6.42753E+03-1.65500E+04-8.60661E+02 7.99218E-11 8.18545E-11
 -1       941 4.84837E+06-2.16709E+05 5.60457E+05 3.04221E+02 7.20490E-09 4.94765E-09
 -1       942 5.08094E+06 2.53663E+05 3.87081E+05 6.59138E+03 6.19002E-09-5.42059E-09
 -1       943 4.94016E+06-3.09932E+04 1.45658E+05 1.47850E+03 1.83508E-09-1.24419E-09
 -1       944 4.97568E+06 3.61666E+04 8.87224E+04 4.66483E+03-3.15714E-09-3.95630E-09
 -1       945 4.95424E+06-4.42474E+03 3.75939E+04 2.23109E+03 1.32195E-09 1.34605E-09
 -1       946 4.95966E+06 5.20611E+03 2.19030E+04 3.33855E+03 3.84023E-09 5.15183E-09
 -1       947 4.95642E+06-6.95600E+02 1.12932E+04 2.80516E+03 6.85901E-10 4.06089E-09
 -1       948 4.95746E+06 1.30865E+03 9.17255E+03 2.18516E+03 1.65016E-09 4.43883E-09
 -1       949 4.95649E+06-5.98451E+02 1.00345E+04 3.38458E+03-2.57154E-09-8.15839E-09
 -1       950 4.95913E+06 4.30118E+03 1.83760E+04 8.33872E+02 2.67144E-09 4.13274E-09
 -1       951 4.95472E+06-3.63256E+03 3.10406E+04 4.15643E+03-1.30160E-09-8.08359E-09
 -1       952 4.97226E+06 2.96744E+04 7.29057E+04-1.15957E+03-2.49003E-10-3.56249E-09
 -1       953 4.94316E+06-2.54305E+04 1.19564E+05 5.37740E+03-4.72818E-09-1.33878E-09
 -1       954 5.05866E+06 2.08143E+05 3.17658E+05-4.53990E+03-5.56383E-09-7.77436E-09
 -1       955 4.86776E+06-1.77848E+05 4.59728E+05 7.52960E+03-6.08190E-09-2.64845E-09
 -1       956-2.81107E+05-4.38275E+03-8.18916E+03 5.35270E+04-4.94765E-09 2.26282E-09
 -1       957-2.82527E+05-1.30675E+03-4.07957E+03 6.05788E+04-3.95357E-09 1.34014E-09
 -1       958-2.81798E+05-1.13441E+02-1.83388E+03 5.31855E+04 6.27915E-09 4.73619E-10
 -1       959-2.81980E+05 1.17473E+02-9.26135E+02 6.09531E+04-5.56611E-09 1.94041E-09
 -1       960-2.81943E+05 1.79308E+02-4.49849E+02 5.31454E+04-1.26856E-08 4.47289E-09
 -1       961-2.82000E+05 2.37228E+02-2.33836E+02 6.09979E+04-2.21589E-08 5.77029E-09
 -1       962-2.82017E+05 2.20816E+02-1.30020E+02 5.31393E+04-1.02300E-08 3.53748E-09
 -1       963-2.82054E+05 2.71527E+02-9.35293E+01 6.10059E+04-1.70248E-08 3.54248E-09
 -1       964-2.82061E+05 2.47067E+02-1.02955E+02 5.31368E+04-3.73620E-09 4.14866E-09
 -1       965-2.82097E+05 2.92584E+02-1.67616E+02 6.10074E+04 1.18835E-08 2.29511E-09
 -1       966-2.82079E+05 2.60198E+02-3.10529E+02 5.31375E+04-8.31255E-09 3.28782E-09
 -1       967-2.82158E+05 2.50778E+02-6.39552E+02 6.09948E+04 1.34796E-09 4.21096E-09
 -1       968-2.82039E+05 9.53141E+01-1.26094E+03 5.31498E+04-7.35326E-10 2.68346E-09
 -1       969-2.82602E+05-7.00047E+02-2.81418E+03 6.08774E+04 2.42721E-09 4.49108E-09
 -1       970-2.81608E+05-2.83266E+03-5.64439E+03 5.32639E+04 6.53336E-09 2.12049E-09
 -1       971-1.06190E+06 2.47719E+04-7.64915E+04-1.54435E+03-7.14226E-09 3.23416E-09
 -1       972-1.09167E+06-2.99313E+04-5.11930E+04 2.31562E+04-1.19644E-08 3.91537E-09
 -1       973-1.07402E+06 3.05305E+03-1.99021E+04-2.43653E+03-1.81553E-08 3.22871E-10
 -1       974-1.07808E+06-3.51366E+03-1.16197E+04 2.46804E+04 8.01947E-10 8.22138E-09
 -1       975-1.07564E+06 3.63311E+02-5.13599E+03-3.07332E+03 2.18506E-09-1.86515E-09
 -1       976-1.07636E+06-2.06605E+02-2.91265E+03 2.56967E+04-1.51963E-08 5.86073E-09
 -1       977-1.07586E+06 4.42943E+01-1.61967E+03-3.45459E+03 1.73773E-08-4.10256E-09
 -1       978-1.07622E+06 1.68040E+02-1.40591E+03 2.61990E+04 4.39633E-08 1.12118E-09
 -1       979-1.07585E+06 5.43697E+01-1.73678E+03-3.57637E+03 1.58392E-08-3.87362E-09
 -1       980-1.07648E+06-2.36019E+02-3.24598E+03 2.61786E+04 2.45465E-08 2.83237E-09
 -1       981-1.07560E+06 4.26311E+02-5.75698E+03-3.43404E+03-4.68162E-09-8.67203E-10
 -1       982-1.07851E+06-3.93535E+03-1.31019E+04 2.56377E+04-3.02191E-09 5.80371E-09
 -1       983-1.07376E+06 3.47050E+03-2.24123E+04-3.03375E+03-2.55113E-10-3.72711E-09
 -1       984-1.09391E+06-3.36991E+04-5.77341E+04 2.45907E+04-5.78984E-09 7.11225E-09
 -1       985-1.06008E+06 2.79737E+04-8.62052E+04-2.37952E+03 1.21959E-08-1.49521E-09
 -3
 9999
