    1C
    1UUSER                                                              
    1UDATE              11.october.2022                                 
    1UTIME              18:55:10                                        
    1UHOST                                                              
    1UPGM               CalculiX                                        
    1UVERSION           Version 2.20                             
    1UCOMPILETIME       Sun Jul 31 18:08:37 CEST 2022                    
    1UDIR                                                               
    1UDBN                                                               
    1UMAT    1MESH_MATERIAL                                             
    2C                           409                                     1
 -1         1 0.00000E+00 0.00000E+00 0.00000E+00
 -1         2 1.66667E-02 0.00000E+00 0.00000E+00
 -1         3 3.33333E-02 0.00000E+00 0.00000E+00
 -1         5 6.66667E-02 0.00000E+00 0.00000E+00
 -1         8 0.00000E+00 6.25000E-03 0.00000E+00
 -1         9 1.66667E-02 6.25000E-03 0.00000E+00
 -1        10 3.33333E-02 6.25000E-03 0.00000E+00
 -1        12 6.66667E-02 6.25000E-03 0.00000E+00
 -1        15 0.00000E+00 1.25000E-02 0.00000E+00
 -1        16 1.66667E-02 1.25000E-02 0.00000E+00
 -1        17 3.33333E-02 1.25000E-02 0.00000E+00
 -1        18 5.00000E-02 1.25000E-02 0.00000E+00
 -1        19 6.66667E-02 1.25000E-02 0.00000E+00
 -1        20 8.33333E-02 1.25000E-02 0.00000E+00
 -1        21 1.00000E-01 1.25000E-02 0.00000E+00
 -1        24 3.33333E-02 1.87500E-02 0.00000E+00
 -1        25 5.00000E-02 1.87500E-02 0.00000E+00
 -1        26 6.66667E-02 1.87500E-02 0.00000E+00
 -1        27 8.33333E-02 1.87500E-02 0.00000E+00
 -1        28 1.00000E-01 1.87500E-02 0.00000E+00
 -1        32 5.00000E-02 2.50000E-02 0.00000E+00
 -1        33 6.66667E-02 2.50000E-02 0.00000E+00
 -1        34 8.33333E-02 2.50000E-02 0.00000E+00
 -1        35 1.00000E-01 2.50000E-02 0.00000E+00
 -1        51 0.00000E+00 1.04167E-03 0.00000E+00
 -1        52 0.00000E+00 2.08333E-03 0.00000E+00
 -1        53 0.00000E+00 3.12500E-03 0.00000E+00
 -1        54 0.00000E+00 4.16667E-03 0.00000E+00
 -1        55 0.00000E+00 5.20833E-03 0.00000E+00
 -1        56 1.04167E-03 3.90630E-04 0.00000E+00
 -1        57 2.08333E-03 7.81250E-04 0.00000E+00
 -1        58 3.12500E-03 1.17188E-03 0.00000E+00
 -1        59 4.16667E-03 1.56250E-03 0.00000E+00
 -1        60 5.20833E-03 1.95312E-03 0.00000E+00
 -1        61 6.25000E-03 2.34375E-03 0.00000E+00
 -1        62 7.29167E-03 2.73438E-03 0.00000E+00
 -1        63 8.33333E-03 3.12500E-03 0.00000E+00
 -1        64 9.37500E-03 3.51563E-03 0.00000E+00
 -1        65 1.04167E-02 3.90625E-03 0.00000E+00
 -1        66 1.14583E-02 4.29688E-03 0.00000E+00
 -1        67 1.25000E-02 4.68750E-03 0.00000E+00
 -1        68 1.35417E-02 5.07813E-03 0.00000E+00
 -1        69 1.45833E-02 5.46875E-03 0.00000E+00
 -1        70 1.56250E-02 5.85938E-03 0.00000E+00
 -1        86 1.66667E-02 1.04167E-03 0.00000E+00
 -1        87 1.66667E-02 2.08333E-03 0.00000E+00
 -1        88 1.66667E-02 3.12500E-03 0.00000E+00
 -1        89 1.66667E-02 4.16667E-03 0.00000E+00
 -1        90 1.66667E-02 5.20833E-03 0.00000E+00
 -1       121 3.33333E-02 1.04167E-03 0.00000E+00
 -1       122 3.33333E-02 2.08333E-03 0.00000E+00
 -1       123 3.33333E-02 3.12500E-03 0.00000E+00
 -1       124 3.33333E-02 4.16667E-03 0.00000E+00
 -1       125 3.33333E-02 5.20833E-03 0.00000E+00
 -1       191 6.66667E-02 1.04167E-03 0.00000E+00
 -1       192 6.66667E-02 2.08333E-03 0.00000E+00
 -1       193 6.66667E-02 3.12500E-03 0.00000E+00
 -1       194 6.66667E-02 4.16667E-03 0.00000E+00
 -1       195 6.66667E-02 5.20833E-03 0.00000E+00
 -1       251 1.04167E-03 6.25000E-03 0.00000E+00
 -1       252 2.08333E-03 6.25000E-03 0.00000E+00
 -1       253 3.12500E-03 6.25000E-03 0.00000E+00
 -1       254 4.16667E-03 6.25000E-03 0.00000E+00
 -1       255 5.20833E-03 6.25000E-03 0.00000E+00
 -1       256 6.25000E-03 6.25000E-03 0.00000E+00
 -1       257 7.29167E-03 6.25000E-03 0.00000E+00
 -1       258 8.33333E-03 6.25000E-03 0.00000E+00
 -1       259 9.37500E-03 6.25000E-03 0.00000E+00
 -1       260 1.04167E-02 6.25000E-03 0.00000E+00
 -1       261 1.14583E-02 6.25000E-03 0.00000E+00
 -1       262 1.25000E-02 6.25000E-03 0.00000E+00
 -1       263 1.35417E-02 6.25000E-03 0.00000E+00
 -1       264 1.45833E-02 6.25000E-03 0.00000E+00
 -1       265 1.56250E-02 6.25000E-03 0.00000E+00
 -1       266 0.00000E+00 7.29167E-03 0.00000E+00
 -1       267 0.00000E+00 8.33333E-03 0.00000E+00
 -1       268 0.00000E+00 9.37500E-03 0.00000E+00
 -1       269 0.00000E+00 1.04167E-02 0.00000E+00
 -1       270 0.00000E+00 1.14583E-02 0.00000E+00
 -1       271 1.04167E-03 6.64063E-03 0.00000E+00
 -1       272 2.08333E-03 7.03125E-03 0.00000E+00
 -1       273 3.12500E-03 7.42188E-03 0.00000E+00
 -1       274 4.16667E-03 7.81250E-03 0.00000E+00
 -1       275 5.20833E-03 8.20313E-03 0.00000E+00
 -1       276 6.25000E-03 8.59375E-03 0.00000E+00
 -1       277 7.29167E-03 8.98438E-03 0.00000E+00
 -1       278 8.33333E-03 9.37500E-03 0.00000E+00
 -1       279 9.37500E-03 9.76562E-03 0.00000E+00
 -1       280 1.04167E-02 1.01562E-02 0.00000E+00
 -1       281 1.14583E-02 1.05469E-02 0.00000E+00
 -1       282 1.25000E-02 1.09375E-02 0.00000E+00
 -1       283 1.35417E-02 1.13281E-02 0.00000E+00
 -1       284 1.45833E-02 1.17188E-02 0.00000E+00
 -1       285 1.56250E-02 1.21094E-02 0.00000E+00
 -1       301 1.66667E-02 7.29167E-03 0.00000E+00
 -1       302 1.66667E-02 8.33333E-03 0.00000E+00
 -1       303 1.66667E-02 9.37500E-03 0.00000E+00
 -1       304 1.66667E-02 1.04167E-02 0.00000E+00
 -1       305 1.66667E-02 1.14583E-02 0.00000E+00
 -1       306 1.77083E-02 6.64063E-03 0.00000E+00
 -1       307 1.87500E-02 7.03125E-03 0.00000E+00
 -1       308 1.97917E-02 7.42188E-03 0.00000E+00
 -1       309 2.08333E-02 7.81250E-03 0.00000E+00
 -1       310 2.18750E-02 8.20313E-03 0.00000E+00
 -1       311 2.29167E-02 8.59375E-03 0.00000E+00
 -1       312 2.39583E-02 8.98438E-03 0.00000E+00
 -1       313 2.50000E-02 9.37500E-03 0.00000E+00
 -1       314 2.60417E-02 9.76562E-03 0.00000E+00
 -1       315 2.70833E-02 1.01562E-02 0.00000E+00
 -1       316 2.81250E-02 1.05469E-02 0.00000E+00
 -1       317 2.91667E-02 1.09375E-02 0.00000E+00
 -1       318 3.02083E-02 1.13281E-02 0.00000E+00
 -1       319 3.12500E-02 1.17188E-02 0.00000E+00
 -1       320 3.22917E-02 1.21094E-02 0.00000E+00
 -1       336 3.33333E-02 7.29167E-03 0.00000E+00
 -1       337 3.33333E-02 8.33333E-03 0.00000E+00
 -1       338 3.33333E-02 9.37500E-03 0.00000E+00
 -1       339 3.33333E-02 1.04167E-02 0.00000E+00
 -1       340 3.33333E-02 1.14583E-02 0.00000E+00
 -1       406 6.66667E-02 7.29167E-03 0.00000E+00
 -1       407 6.66667E-02 8.33333E-03 0.00000E+00
 -1       408 6.66667E-02 9.37500E-03 0.00000E+00
 -1       409 6.66667E-02 1.04167E-02 0.00000E+00
 -1       410 6.66667E-02 1.14583E-02 0.00000E+00
 -1       521 1.77083E-02 1.28906E-02 0.00000E+00
 -1       522 1.87500E-02 1.32813E-02 0.00000E+00
 -1       523 1.97917E-02 1.36719E-02 0.00000E+00
 -1       524 2.08333E-02 1.40625E-02 0.00000E+00
 -1       525 2.18750E-02 1.44531E-02 0.00000E+00
 -1       526 2.29167E-02 1.48437E-02 0.00000E+00
 -1       527 2.39583E-02 1.52344E-02 0.00000E+00
 -1       528 2.50000E-02 1.56250E-02 0.00000E+00
 -1       529 2.60417E-02 1.60156E-02 0.00000E+00
 -1       530 2.70833E-02 1.64062E-02 0.00000E+00
 -1       531 2.81250E-02 1.67969E-02 0.00000E+00
 -1       532 2.91667E-02 1.71875E-02 0.00000E+00
 -1       533 3.02083E-02 1.75781E-02 0.00000E+00
 -1       534 3.12500E-02 1.79687E-02 0.00000E+00
 -1       535 3.22917E-02 1.83594E-02 0.00000E+00
 -1       536 3.43750E-02 1.25000E-02 0.00000E+00
 -1       537 3.54167E-02 1.25000E-02 0.00000E+00
 -1       538 3.64583E-02 1.25000E-02 0.00000E+00
 -1       539 3.75000E-02 1.25000E-02 0.00000E+00
 -1       540 3.85417E-02 1.25000E-02 0.00000E+00
 -1       541 3.95833E-02 1.25000E-02 0.00000E+00
 -1       542 4.06250E-02 1.25000E-02 0.00000E+00
 -1       543 4.16667E-02 1.25000E-02 0.00000E+00
 -1       544 4.27083E-02 1.25000E-02 0.00000E+00
 -1       545 4.37500E-02 1.25000E-02 0.00000E+00
 -1       546 4.47917E-02 1.25000E-02 0.00000E+00
 -1       547 4.58333E-02 1.25000E-02 0.00000E+00
 -1       548 4.68750E-02 1.25000E-02 0.00000E+00
 -1       549 4.79167E-02 1.25000E-02 0.00000E+00
 -1       550 4.89583E-02 1.25000E-02 0.00000E+00
 -1       551 3.33333E-02 1.35417E-02 0.00000E+00
 -1       552 3.33333E-02 1.45833E-02 0.00000E+00
 -1       553 3.33333E-02 1.56250E-02 0.00000E+00
 -1       554 3.33333E-02 1.66667E-02 0.00000E+00
 -1       555 3.33333E-02 1.77083E-02 0.00000E+00
 -1       556 3.43750E-02 1.28906E-02 0.00000E+00
 -1       557 3.54167E-02 1.32813E-02 0.00000E+00
 -1       558 3.64583E-02 1.36719E-02 0.00000E+00
 -1       559 3.75000E-02 1.40625E-02 0.00000E+00
 -1       560 3.85417E-02 1.44531E-02 0.00000E+00
 -1       561 3.95833E-02 1.48437E-02 0.00000E+00
 -1       562 4.06250E-02 1.52344E-02 0.00000E+00
 -1       563 4.16667E-02 1.56250E-02 0.00000E+00
 -1       564 4.27083E-02 1.60156E-02 0.00000E+00
 -1       565 4.37500E-02 1.64062E-02 0.00000E+00
 -1       566 4.47917E-02 1.67969E-02 0.00000E+00
 -1       567 4.58333E-02 1.71875E-02 0.00000E+00
 -1       568 4.68750E-02 1.75781E-02 0.00000E+00
 -1       569 4.79167E-02 1.79687E-02 0.00000E+00
 -1       570 4.89583E-02 1.83594E-02 0.00000E+00
 -1       571 5.10417E-02 1.25000E-02 0.00000E+00
 -1       572 5.20833E-02 1.25000E-02 0.00000E+00
 -1       573 5.31250E-02 1.25000E-02 0.00000E+00
 -1       574 5.41667E-02 1.25000E-02 0.00000E+00
 -1       575 5.52083E-02 1.25000E-02 0.00000E+00
 -1       576 5.62500E-02 1.25000E-02 0.00000E+00
 -1       577 5.72917E-02 1.25000E-02 0.00000E+00
 -1       578 5.83333E-02 1.25000E-02 0.00000E+00
 -1       579 5.93750E-02 1.25000E-02 0.00000E+00
 -1       580 6.04167E-02 1.25000E-02 0.00000E+00
 -1       581 6.14583E-02 1.25000E-02 0.00000E+00
 -1       582 6.25000E-02 1.25000E-02 0.00000E+00
 -1       583 6.35417E-02 1.25000E-02 0.00000E+00
 -1       584 6.45833E-02 1.25000E-02 0.00000E+00
 -1       585 6.56250E-02 1.25000E-02 0.00000E+00
 -1       586 5.00000E-02 1.35417E-02 0.00000E+00
 -1       587 5.00000E-02 1.45833E-02 0.00000E+00
 -1       588 5.00000E-02 1.56250E-02 0.00000E+00
 -1       589 5.00000E-02 1.66667E-02 0.00000E+00
 -1       590 5.00000E-02 1.77083E-02 0.00000E+00
 -1       591 5.10417E-02 1.28906E-02 0.00000E+00
 -1       592 5.20833E-02 1.32813E-02 0.00000E+00
 -1       593 5.31250E-02 1.36719E-02 0.00000E+00
 -1       594 5.41667E-02 1.40625E-02 0.00000E+00
 -1       595 5.52083E-02 1.44531E-02 0.00000E+00
 -1       596 5.62500E-02 1.48437E-02 0.00000E+00
 -1       597 5.72917E-02 1.52344E-02 0.00000E+00
 -1       598 5.83333E-02 1.56250E-02 0.00000E+00
 -1       599 5.93750E-02 1.60156E-02 0.00000E+00
 -1       600 6.04167E-02 1.64062E-02 0.00000E+00
 -1       601 6.14583E-02 1.67969E-02 0.00000E+00
 -1       602 6.25000E-02 1.71875E-02 0.00000E+00
 -1       603 6.35417E-02 1.75781E-02 0.00000E+00
 -1       604 6.45833E-02 1.79687E-02 0.00000E+00
 -1       605 6.56250E-02 1.83594E-02 0.00000E+00
 -1       606 6.77083E-02 1.25000E-02 0.00000E+00
 -1       607 6.87500E-02 1.25000E-02 0.00000E+00
 -1       608 6.97917E-02 1.25000E-02 0.00000E+00
 -1       609 7.08333E-02 1.25000E-02 0.00000E+00
 -1       610 7.18750E-02 1.25000E-02 0.00000E+00
 -1       611 7.29167E-02 1.25000E-02 0.00000E+00
 -1       612 7.39583E-02 1.25000E-02 0.00000E+00
 -1       613 7.50000E-02 1.25000E-02 0.00000E+00
 -1       614 7.60417E-02 1.25000E-02 0.00000E+00
 -1       615 7.70833E-02 1.25000E-02 0.00000E+00
 -1       616 7.81250E-02 1.25000E-02 0.00000E+00
 -1       617 7.91667E-02 1.25000E-02 0.00000E+00
 -1       618 8.02083E-02 1.25000E-02 0.00000E+00
 -1       619 8.12500E-02 1.25000E-02 0.00000E+00
 -1       620 8.22917E-02 1.25000E-02 0.00000E+00
 -1       621 6.66667E-02 1.35417E-02 0.00000E+00
 -1       622 6.66667E-02 1.45833E-02 0.00000E+00
 -1       623 6.66667E-02 1.56250E-02 0.00000E+00
 -1       624 6.66667E-02 1.66667E-02 0.00000E+00
 -1       625 6.66667E-02 1.77083E-02 0.00000E+00
 -1       626 6.77083E-02 1.28906E-02 0.00000E+00
 -1       627 6.87500E-02 1.32813E-02 0.00000E+00
 -1       628 6.97917E-02 1.36719E-02 0.00000E+00
 -1       629 7.08333E-02 1.40625E-02 0.00000E+00
 -1       630 7.18750E-02 1.44531E-02 0.00000E+00
 -1       631 7.29167E-02 1.48437E-02 0.00000E+00
 -1       632 7.39583E-02 1.52344E-02 0.00000E+00
 -1       633 7.50000E-02 1.56250E-02 0.00000E+00
 -1       634 7.60417E-02 1.60156E-02 0.00000E+00
 -1       635 7.70833E-02 1.64062E-02 0.00000E+00
 -1       636 7.81250E-02 1.67969E-02 0.00000E+00
 -1       637 7.91667E-02 1.71875E-02 0.00000E+00
 -1       638 8.02083E-02 1.75781E-02 0.00000E+00
 -1       639 8.12500E-02 1.79687E-02 0.00000E+00
 -1       640 8.22917E-02 1.83594E-02 0.00000E+00
 -1       656 8.33333E-02 1.35417E-02 0.00000E+00
 -1       657 8.33333E-02 1.45833E-02 0.00000E+00
 -1       658 8.33333E-02 1.56250E-02 0.00000E+00
 -1       659 8.33333E-02 1.66667E-02 0.00000E+00
 -1       660 8.33333E-02 1.77083E-02 0.00000E+00
 -1       661 8.43750E-02 1.28906E-02 0.00000E+00
 -1       662 8.54167E-02 1.32813E-02 0.00000E+00
 -1       663 8.64583E-02 1.36719E-02 0.00000E+00
 -1       664 8.75000E-02 1.40625E-02 0.00000E+00
 -1       665 8.85417E-02 1.44531E-02 0.00000E+00
 -1       666 8.95833E-02 1.48437E-02 0.00000E+00
 -1       667 9.06250E-02 1.52344E-02 0.00000E+00
 -1       668 9.16667E-02 1.56250E-02 0.00000E+00
 -1       669 9.27083E-02 1.60156E-02 0.00000E+00
 -1       670 9.37500E-02 1.64062E-02 0.00000E+00
 -1       671 9.47917E-02 1.67969E-02 0.00000E+00
 -1       672 9.58333E-02 1.71875E-02 0.00000E+00
 -1       673 9.68750E-02 1.75781E-02 0.00000E+00
 -1       674 9.79167E-02 1.79687E-02 0.00000E+00
 -1       675 9.89583E-02 1.83594E-02 0.00000E+00
 -1       676 1.00000E-01 1.35417E-02 0.00000E+00
 -1       677 1.00000E-01 1.45833E-02 0.00000E+00
 -1       678 1.00000E-01 1.56250E-02 0.00000E+00
 -1       679 1.00000E-01 1.66667E-02 0.00000E+00
 -1       680 1.00000E-01 1.77083E-02 0.00000E+00
 -1       771 3.43750E-02 1.91406E-02 0.00000E+00
 -1       772 3.54167E-02 1.95312E-02 0.00000E+00
 -1       773 3.64583E-02 1.99219E-02 0.00000E+00
 -1       774 3.75000E-02 2.03125E-02 0.00000E+00
 -1       775 3.85417E-02 2.07031E-02 0.00000E+00
 -1       776 3.95833E-02 2.10938E-02 0.00000E+00
 -1       777 4.06250E-02 2.14844E-02 0.00000E+00
 -1       778 4.16667E-02 2.18750E-02 0.00000E+00
 -1       779 4.27083E-02 2.22656E-02 0.00000E+00
 -1       780 4.37500E-02 2.26563E-02 0.00000E+00
 -1       781 4.47917E-02 2.30469E-02 0.00000E+00
 -1       782 4.58333E-02 2.34375E-02 0.00000E+00
 -1       783 4.68750E-02 2.38281E-02 0.00000E+00
 -1       784 4.79167E-02 2.42187E-02 0.00000E+00
 -1       785 4.89583E-02 2.46094E-02 0.00000E+00
 -1       786 5.10417E-02 1.87500E-02 0.00000E+00
 -1       787 5.20833E-02 1.87500E-02 0.00000E+00
 -1       788 5.31250E-02 1.87500E-02 0.00000E+00
 -1       789 5.41667E-02 1.87500E-02 0.00000E+00
 -1       790 5.52083E-02 1.87500E-02 0.00000E+00
 -1       791 5.62500E-02 1.87500E-02 0.00000E+00
 -1       792 5.72917E-02 1.87500E-02 0.00000E+00
 -1       793 5.83333E-02 1.87500E-02 0.00000E+00
 -1       794 5.93750E-02 1.87500E-02 0.00000E+00
 -1       795 6.04167E-02 1.87500E-02 0.00000E+00
 -1       796 6.14583E-02 1.87500E-02 0.00000E+00
 -1       797 6.25000E-02 1.87500E-02 0.00000E+00
 -1       798 6.35417E-02 1.87500E-02 0.00000E+00
 -1       799 6.45833E-02 1.87500E-02 0.00000E+00
 -1       800 6.56250E-02 1.87500E-02 0.00000E+00
 -1       801 5.00000E-02 1.97917E-02 0.00000E+00
 -1       802 5.00000E-02 2.08333E-02 0.00000E+00
 -1       803 5.00000E-02 2.18750E-02 0.00000E+00
 -1       804 5.00000E-02 2.29167E-02 0.00000E+00
 -1       805 5.00000E-02 2.39583E-02 0.00000E+00
 -1       806 5.10417E-02 1.91406E-02 0.00000E+00
 -1       807 5.20833E-02 1.95312E-02 0.00000E+00
 -1       808 5.31250E-02 1.99219E-02 0.00000E+00
 -1       809 5.41667E-02 2.03125E-02 0.00000E+00
 -1       810 5.52083E-02 2.07031E-02 0.00000E+00
 -1       811 5.62500E-02 2.10938E-02 0.00000E+00
 -1       812 5.72917E-02 2.14844E-02 0.00000E+00
 -1       813 5.83333E-02 2.18750E-02 0.00000E+00
 -1       814 5.93750E-02 2.22656E-02 0.00000E+00
 -1       815 6.04167E-02 2.26563E-02 0.00000E+00
 -1       816 6.14583E-02 2.30469E-02 0.00000E+00
 -1       817 6.25000E-02 2.34375E-02 0.00000E+00
 -1       818 6.35417E-02 2.38281E-02 0.00000E+00
 -1       819 6.45833E-02 2.42187E-02 0.00000E+00
 -1       820 6.56250E-02 2.46094E-02 0.00000E+00
 -1       821 6.77083E-02 1.87500E-02 0.00000E+00
 -1       822 6.87500E-02 1.87500E-02 0.00000E+00
 -1       823 6.97917E-02 1.87500E-02 0.00000E+00
 -1       824 7.08333E-02 1.87500E-02 0.00000E+00
 -1       825 7.18750E-02 1.87500E-02 0.00000E+00
 -1       826 7.29167E-02 1.87500E-02 0.00000E+00
 -1       827 7.39583E-02 1.87500E-02 0.00000E+00
 -1       828 7.50000E-02 1.87500E-02 0.00000E+00
 -1       829 7.60417E-02 1.87500E-02 0.00000E+00
 -1       830 7.70833E-02 1.87500E-02 0.00000E+00
 -1       831 7.81250E-02 1.87500E-02 0.00000E+00
 -1       832 7.91667E-02 1.87500E-02 0.00000E+00
 -1       833 8.02083E-02 1.87500E-02 0.00000E+00
 -1       834 8.12500E-02 1.87500E-02 0.00000E+00
 -1       835 8.22917E-02 1.87500E-02 0.00000E+00
 -1       836 6.66667E-02 1.97917E-02 0.00000E+00
 -1       837 6.66667E-02 2.08333E-02 0.00000E+00
 -1       838 6.66667E-02 2.18750E-02 0.00000E+00
 -1       839 6.66667E-02 2.29167E-02 0.00000E+00
 -1       840 6.66667E-02 2.39583E-02 0.00000E+00
 -1       856 8.43750E-02 1.87500E-02 0.00000E+00
 -1       857 8.54167E-02 1.87500E-02 0.00000E+00
 -1       858 8.64583E-02 1.87500E-02 0.00000E+00
 -1       859 8.75000E-02 1.87500E-02 0.00000E+00
 -1       860 8.85417E-02 1.87500E-02 0.00000E+00
 -1       861 8.95833E-02 1.87500E-02 0.00000E+00
 -1       862 9.06250E-02 1.87500E-02 0.00000E+00
 -1       863 9.16667E-02 1.87500E-02 0.00000E+00
 -1       864 9.27083E-02 1.87500E-02 0.00000E+00
 -1       865 9.37500E-02 1.87500E-02 0.00000E+00
 -1       866 9.47917E-02 1.87500E-02 0.00000E+00
 -1       867 9.58333E-02 1.87500E-02 0.00000E+00
 -1       868 9.68750E-02 1.87500E-02 0.00000E+00
 -1       869 9.79167E-02 1.87500E-02 0.00000E+00
 -1       870 9.89583E-02 1.87500E-02 0.00000E+00
 -1       871 8.33333E-02 1.97917E-02 0.00000E+00
 -1       872 8.33333E-02 2.08333E-02 0.00000E+00
 -1       873 8.33333E-02 2.18750E-02 0.00000E+00
 -1       874 8.33333E-02 2.29167E-02 0.00000E+00
 -1       875 8.33333E-02 2.39583E-02 0.00000E+00
 -1       876 8.43750E-02 1.91406E-02 0.00000E+00
 -1       877 8.54167E-02 1.95312E-02 0.00000E+00
 -1       878 8.64583E-02 1.99219E-02 0.00000E+00
 -1       879 8.75000E-02 2.03125E-02 0.00000E+00
 -1       880 8.85417E-02 2.07031E-02 0.00000E+00
 -1       881 8.95833E-02 2.10938E-02 0.00000E+00
 -1       882 9.06250E-02 2.14844E-02 0.00000E+00
 -1       883 9.16667E-02 2.18750E-02 0.00000E+00
 -1       884 9.27083E-02 2.22656E-02 0.00000E+00
 -1       885 9.37500E-02 2.26563E-02 0.00000E+00
 -1       886 9.47917E-02 2.30469E-02 0.00000E+00
 -1       887 9.58333E-02 2.34375E-02 0.00000E+00
 -1       888 9.68750E-02 2.38281E-02 0.00000E+00
 -1       889 9.79167E-02 2.42187E-02 0.00000E+00
 -1       890 9.89583E-02 2.46094E-02 0.00000E+00
 -1       891 1.00000E-01 1.97917E-02 0.00000E+00
 -1       892 1.00000E-01 2.08333E-02 0.00000E+00
 -1       893 1.00000E-01 2.18750E-02 0.00000E+00
 -1       894 1.00000E-01 2.29167E-02 0.00000E+00
 -1       895 1.00000E-01 2.39583E-02 0.00000E+00
 -1       956 6.77083E-02 2.50000E-02 0.00000E+00
 -1       957 6.87500E-02 2.50000E-02 0.00000E+00
 -1       958 6.97917E-02 2.50000E-02 0.00000E+00
 -1       959 7.08333E-02 2.50000E-02 0.00000E+00
 -1       960 7.18750E-02 2.50000E-02 0.00000E+00
 -1       961 7.29167E-02 2.50000E-02 0.00000E+00
 -1       962 7.39583E-02 2.50000E-02 0.00000E+00
 -1       963 7.50000E-02 2.50000E-02 0.00000E+00
 -1       964 7.60417E-02 2.50000E-02 0.00000E+00
 -1       965 7.70833E-02 2.50000E-02 0.00000E+00
 -1       966 7.81250E-02 2.50000E-02 0.00000E+00
 -1       967 7.91667E-02 2.50000E-02 0.00000E+00
 -1       968 8.02083E-02 2.50000E-02 0.00000E+00
 -1       969 8.12500E-02 2.50000E-02 0.00000E+00
 -1       970 8.22917E-02 2.50000E-02 0.00000E+00
 -1       971 8.43750E-02 2.50000E-02 0.00000E+00
 -1       972 8.54167E-02 2.50000E-02 0.00000E+00
 -1       973 8.64583E-02 2.50000E-02 0.00000E+00
 -1       974 8.75000E-02 2.50000E-02 0.00000E+00
 -1       975 8.85417E-02 2.50000E-02 0.00000E+00
 -1       976 8.95833E-02 2.50000E-02 0.00000E+00
 -1       977 9.06250E-02 2.50000E-02 0.00000E+00
 -1       978 9.16667E-02 2.50000E-02 0.00000E+00
 -1       979 9.27083E-02 2.50000E-02 0.00000E+00
 -1       980 9.37500E-02 2.50000E-02 0.00000E+00
 -1       981 9.47917E-02 2.50000E-02 0.00000E+00
 -1       982 9.58333E-02 2.50000E-02 0.00000E+00
 -1       983 9.68750E-02 2.50000E-02 0.00000E+00
 -1       984 9.79167E-02 2.50000E-02 0.00000E+00
 -1       985 9.89583E-02 2.50000E-02 0.00000E+00
 -3
    3C                           211                                     1
 -1         1   12    0    1
 -2         1        52        51
 -1         2   12    0    1
 -2        52        54        53
 -1         3   12    0    1
 -2        54         8        55
 -1         4   12    0    1
 -2         1        57        56
 -1         5   12    0    1
 -2        57        59        58
 -1         6   12    0    1
 -2        59        61        60
 -1         7   12    0    1
 -2        61        63        62
 -1         8   12    0    1
 -2        63        65        64
 -1         9   12    0    1
 -2        65        67        66
 -1        10   12    0    1
 -2        67        69        68
 -1        11   12    0    1
 -2        69         9        70
 -1        12   12    0    1
 -2         2        87        86
 -1        13   12    0    1
 -2        87        89        88
 -1        14   12    0    1
 -2        89         9        90
 -1        15   12    0    1
 -2         3       122       121
 -1        16   12    0    1
 -2       122       124       123
 -1        17   12    0    1
 -2       124        10       125
 -1        18   12    0    1
 -2         5       192       191
 -1        19   12    0    1
 -2       192       194       193
 -1        20   12    0    1
 -2       194        12       195
 -1        21   12    0    1
 -2         8       252       251
 -1        22   12    0    1
 -2       252       254       253
 -1        23   12    0    1
 -2       254       256       255
 -1        24   12    0    1
 -2       256       258       257
 -1        25   12    0    1
 -2       258       260       259
 -1        26   12    0    1
 -2       260       262       261
 -1        27   12    0    1
 -2       262       264       263
 -1        28   12    0    1
 -2       264         9       265
 -1        29   12    0    1
 -2         8       267       266
 -1        30   12    0    1
 -2       267       269       268
 -1        31   12    0    1
 -2       269        15       270
 -1        32   12    0    1
 -2         8       272       271
 -1        33   12    0    1
 -2       272       274       273
 -1        34   12    0    1
 -2       274       276       275
 -1        35   12    0    1
 -2       276       278       277
 -1        36   12    0    1
 -2       278       280       279
 -1        37   12    0    1
 -2       280       282       281
 -1        38   12    0    1
 -2       282       284       283
 -1        39   12    0    1
 -2       284        16       285
 -1        40   12    0    1
 -2         9       302       301
 -1        41   12    0    1
 -2       302       304       303
 -1        42   12    0    1
 -2       304        16       305
 -1        43   12    0    1
 -2         9       307       306
 -1        44   12    0    1
 -2       307       309       308
 -1        45   12    0    1
 -2       309       311       310
 -1        46   12    0    1
 -2       311       313       312
 -1        47   12    0    1
 -2       313       315       314
 -1        48   12    0    1
 -2       315       317       316
 -1        49   12    0    1
 -2       317       319       318
 -1        50   12    0    1
 -2       319        17       320
 -1        51   12    0    1
 -2        10       337       336
 -1        52   12    0    1
 -2       337       339       338
 -1        53   12    0    1
 -2       339        17       340
 -1        54   12    0    1
 -2        12       407       406
 -1        55   12    0    1
 -2       407       409       408
 -1        56   12    0    1
 -2       409        19       410
 -1        57   12    0    1
 -2        16       522       521
 -1        58   12    0    1
 -2       522       524       523
 -1        59   12    0    1
 -2       524       526       525
 -1        60   12    0    1
 -2       526       528       527
 -1        61   12    0    1
 -2       528       530       529
 -1        62   12    0    1
 -2       530       532       531
 -1        63   12    0    1
 -2       532       534       533
 -1        64   12    0    1
 -2       534        24       535
 -1        65   12    0    1
 -2        17       537       536
 -1        66   12    0    1
 -2       537       539       538
 -1        67   12    0    1
 -2       539       541       540
 -1        68   12    0    1
 -2       541       543       542
 -1        69   12    0    1
 -2       543       545       544
 -1        70   12    0    1
 -2       545       547       546
 -1        71   12    0    1
 -2       547       549       548
 -1        72   12    0    1
 -2       549        18       550
 -1        73   12    0    1
 -2        17       552       551
 -1        74   12    0    1
 -2       552       554       553
 -1        75   12    0    1
 -2       554        24       555
 -1        76   12    0    1
 -2        17       557       556
 -1        77   12    0    1
 -2       557       559       558
 -1        78   12    0    1
 -2       559       561       560
 -1        79   12    0    1
 -2       561       563       562
 -1        80   12    0    1
 -2       563       565       564
 -1        81   12    0    1
 -2       565       567       566
 -1        82   12    0    1
 -2       567       569       568
 -1        83   12    0    1
 -2       569        25       570
 -1        84   12    0    1
 -2        18       572       571
 -1        85   12    0    1
 -2       572       574       573
 -1        86   12    0    1
 -2       574       576       575
 -1        87   12    0    1
 -2       576       578       577
 -1        88   12    0    1
 -2       578       580       579
 -1        89   12    0    1
 -2       580       582       581
 -1        90   12    0    1
 -2       582       584       583
 -1        91   12    0    1
 -2       584        19       585
 -1        92   12    0    1
 -2        18       587       586
 -1        93   12    0    1
 -2       587       589       588
 -1        94   12    0    1
 -2       589        25       590
 -1        95   12    0    1
 -2        18       592       591
 -1        96   12    0    1
 -2       592       594       593
 -1        97   12    0    1
 -2       594       596       595
 -1        98   12    0    1
 -2       596       598       597
 -1        99   12    0    1
 -2       598       600       599
 -1       100   12    0    1
 -2       600       602       601
 -1       101   12    0    1
 -2       602       604       603
 -1       102   12    0    1
 -2       604        26       605
 -1       103   12    0    1
 -2        19       607       606
 -1       104   12    0    1
 -2       607       609       608
 -1       105   12    0    1
 -2       609       611       610
 -1       106   12    0    1
 -2       611       613       612
 -1       107   12    0    1
 -2       613       615       614
 -1       108   12    0    1
 -2       615       617       616
 -1       109   12    0    1
 -2       617       619       618
 -1       110   12    0    1
 -2       619        20       620
 -1       111   12    0    1
 -2        19       622       621
 -1       112   12    0    1
 -2       622       624       623
 -1       113   12    0    1
 -2       624        26       625
 -1       114   12    0    1
 -2        19       627       626
 -1       115   12    0    1
 -2       627       629       628
 -1       116   12    0    1
 -2       629       631       630
 -1       117   12    0    1
 -2       631       633       632
 -1       118   12    0    1
 -2       633       635       634
 -1       119   12    0    1
 -2       635       637       636
 -1       120   12    0    1
 -2       637       639       638
 -1       121   12    0    1
 -2       639        27       640
 -1       122   12    0    1
 -2        20       657       656
 -1       123   12    0    1
 -2       657       659       658
 -1       124   12    0    1
 -2       659        27       660
 -1       125   12    0    1
 -2        20       662       661
 -1       126   12    0    1
 -2       662       664       663
 -1       127   12    0    1
 -2       664       666       665
 -1       128   12    0    1
 -2       666       668       667
 -1       129   12    0    1
 -2       668       670       669
 -1       130   12    0    1
 -2       670       672       671
 -1       131   12    0    1
 -2       672       674       673
 -1       132   12    0    1
 -2       674        28       675
 -1       133   12    0    1
 -2        21       677       676
 -1       134   12    0    1
 -2       677       679       678
 -1       135   12    0    1
 -2       679        28       680
 -1       136   12    0    1
 -2        24       772       771
 -1       137   12    0    1
 -2       772       774       773
 -1       138   12    0    1
 -2       774       776       775
 -1       139   12    0    1
 -2       776       778       777
 -1       140   12    0    1
 -2       778       780       779
 -1       141   12    0    1
 -2       780       782       781
 -1       142   12    0    1
 -2       782       784       783
 -1       143   12    0    1
 -2       784        32       785
 -1       144   12    0    1
 -2        25       787       786
 -1       145   12    0    1
 -2       787       789       788
 -1       146   12    0    1
 -2       789       791       790
 -1       147   12    0    1
 -2       791       793       792
 -1       148   12    0    1
 -2       793       795       794
 -1       149   12    0    1
 -2       795       797       796
 -1       150   12    0    1
 -2       797       799       798
 -1       151   12    0    1
 -2       799        26       800
 -1       152   12    0    1
 -2        25       802       801
 -1       153   12    0    1
 -2       802       804       803
 -1       154   12    0    1
 -2       804        32       805
 -1       155   12    0    1
 -2        25       807       806
 -1       156   12    0    1
 -2       807       809       808
 -1       157   12    0    1
 -2       809       811       810
 -1       158   12    0    1
 -2       811       813       812
 -1       159   12    0    1
 -2       813       815       814
 -1       160   12    0    1
 -2       815       817       816
 -1       161   12    0    1
 -2       817       819       818
 -1       162   12    0    1
 -2       819        33       820
 -1       163   12    0    1
 -2        26       822       821
 -1       164   12    0    1
 -2       822       824       823
 -1       165   12    0    1
 -2       824       826       825
 -1       166   12    0    1
 -2       826       828       827
 -1       167   12    0    1
 -2       828       830       829
 -1       168   12    0    1
 -2       830       832       831
 -1       169   12    0    1
 -2       832       834       833
 -1       170   12    0    1
 -2       834        27       835
 -1       171   12    0    1
 -2        26       837       836
 -1       172   12    0    1
 -2       837       839       838
 -1       173   12    0    1
 -2       839        33       840
 -1       174   12    0    1
 -2        27       857       856
 -1       175   12    0    1
 -2       857       859       858
 -1       176   12    0    1
 -2       859       861       860
 -1       177   12    0    1
 -2       861       863       862
 -1       178   12    0    1
 -2       863       865       864
 -1       179   12    0    1
 -2       865       867       866
 -1       180   12    0    1
 -2       867       869       868
 -1       181   12    0    1
 -2       869        28       870
 -1       182   12    0    1
 -2        27       872       871
 -1       183   12    0    1
 -2       872       874       873
 -1       184   12    0    1
 -2       874        34       875
 -1       185   12    0    1
 -2        27       877       876
 -1       186   12    0    1
 -2       877       879       878
 -1       187   12    0    1
 -2       879       881       880
 -1       188   12    0    1
 -2       881       883       882
 -1       189   12    0    1
 -2       883       885       884
 -1       190   12    0    1
 -2       885       887       886
 -1       191   12    0    1
 -2       887       889       888
 -1       192   12    0    1
 -2       889        35       890
 -1       193   12    0    1
 -2        28       892       891
 -1       194   12    0    1
 -2       892       894       893
 -1       195   12    0    1
 -2       894        35       895
 -1       196   12    0    1
 -2        33       957       956
 -1       197   12    0    1
 -2       957       959       958
 -1       198   12    0    1
 -2       959       961       960
 -1       199   12    0    1
 -2       961       963       962
 -1       200   12    0    1
 -2       963       965       964
 -1       201   12    0    1
 -2       965       967       966
 -1       202   12    0    1
 -2       967       969       968
 -1       203   12    0    1
 -2       969        34       970
 -1       204   12    0    1
 -2        34       972       971
 -1       205   12    0    1
 -2       972       974       973
 -1       206   12    0    1
 -2       974       976       975
 -1       207   12    0    1
 -2       976       978       977
 -1       208   12    0    1
 -2       978       980       979
 -1       209   12    0    1
 -2       980       982       981
 -1       210   12    0    1
 -2       982       984       983
 -1       211   12    0    1
 -2       984        35       985
 -3
    1PSTEP                         1           1           1          
  100CL  101 2.50000E-01         409                     0    1           1
 -4  DISP        4    1
 -5  D1          1    2    1    0
 -5  D2          1    2    2    0
 -5  D3          1    2    3    0
 -5  ALL         1    2    0    0    1ALL
 -1         1 6.52489E-05 0.00000E+00 0.00000E+00
 -1         2 6.02883E-05 2.05853E-29 1.65436E-24
 -1         3 5.49895E-05-2.13525E-27 3.30872E-24
 -1         5 4.00620E-05 5.10808E-26 1.65436E-24
 -1         8 5.20809E-05-4.68957E-07 0.00000E+00
 -1         9 5.29105E-05 3.10832E-07 0.00000E+00
 -1        10 5.12214E-05-7.59979E-07-3.30872E-24
 -1        12 3.97754E-05 2.72268E-07 0.00000E+00
 -1        15 3.64165E-05-5.01584E-07-2.06795E-25
 -1        16 3.76746E-05 2.50219E-07 0.00000E+00
 -1        17 3.84123E-05-1.62691E-06 0.00000E+00
 -1        18 3.83891E-05 7.42461E-08 0.00000E+00
 -1        19 3.89159E-05 5.43062E-07 0.00000E+00
 -1        20 3.89879E-05 8.10301E-06 0.00000E+00
 -1        21 3.87171E-05 1.53277E-05 0.00000E+00
 -1        24 9.83260E-06-2.15176E-06 0.00000E+00
 -1        25 3.74724E-05 1.36538E-07 0.00000E+00
 -1        26 3.79686E-05 7.56711E-07 0.00000E+00
 -1        27 3.72160E-05 6.89228E-06 0.00000E+00
 -1        28 3.69725E-05 1.50950E-05 0.00000E+00
 -1        32 0.00000E+00 0.00000E+00 0.00000E+00
 -1        33 3.63707E-05 1.01493E-06 0.00000E+00
 -1        34 3.56428E-05 6.88159E-06 0.00000E+00
 -1        35 3.49513E-05 1.49722E-05 0.00000E+00
 -1        51 6.43920E-05-7.81597E-08 0.00000E+00
 -1        52 6.28042E-05-1.53965E-07 0.00000E+00
 -1        53 6.06295E-05-2.30015E-07 0.00000E+00
 -1        54 5.80174E-05-3.07023E-07-1.65436E-24
 -1        55 5.51178E-05-3.85514E-07-1.03398E-24
 -1        56 6.46466E-05-3.64455E-07 1.32349E-23
 -1        57 6.41042E-05-9.56080E-07 0.00000E+00
 -1        58 6.36234E-05-1.70851E-06 0.00000E+00
 -1        59 6.31767E-05-2.56340E-06-1.32349E-23
 -1        60 6.27439E-05-3.45584E-06-2.64698E-23
 -1        61 6.23005E-05-4.32197E-06-1.32349E-23
 -1        62 6.18233E-05-5.09841E-06-2.64698E-23
 -1        63 6.12894E-05-5.72344E-06 0.00000E+00
 -1        64 6.06774E-05-6.14015E-06 2.64698E-23
 -1        65 5.99673E-05-6.29487E-06-1.32349E-23
 -1        66 5.91420E-05-6.14242E-06 2.64698E-23
 -1        67 5.81867E-05-5.64226E-06 1.32349E-23
 -1        68 5.70900E-05-4.76537E-06-2.64698E-23
 -1        69 5.58461E-05-3.48724E-06-6.61744E-24
 -1        70 5.44464E-05-1.79914E-06-1.32349E-23
 -1        86 6.00919E-05 5.53854E-08 0.00000E+00
 -1        87 5.95021E-05 1.10329E-07 0.00000E+00
 -1        88 5.85069E-05 1.64921E-07 0.00000E+00
 -1        89 5.70935E-05 2.17191E-07 0.00000E+00
 -1        90 5.52367E-05 2.69384E-07 1.65436E-24
 -1       121 5.48846E-05-1.26336E-07 0.00000E+00
 -1       122 5.45699E-05-2.52719E-07-1.65436E-24
 -1       123 5.40457E-05-3.79194E-07 0.00000E+00
 -1       124 5.33124E-05-5.05840E-07-1.65436E-24
 -1       125 5.23706E-05-6.32649E-07 0.00000E+00
 -1       191 4.00541E-05 4.53810E-08 3.30872E-24
 -1       192 4.00302E-05 9.07613E-08 8.27181E-25
 -1       193 3.99904E-05 1.36141E-07-1.65436E-24
 -1       194 3.99347E-05 1.81520E-07 0.00000E+00
 -1       195 3.98630E-05 2.26896E-07 0.00000E+00
 -1       251 5.21219E-05 1.69864E-06 0.00000E+00
 -1       252 5.21739E-05 2.99378E-06-5.16988E-26
 -1       253 5.22260E-05 3.55957E-06-8.27181E-25
 -1       254 5.22800E-05 3.53734E-06 0.00000E+00
 -1       255 5.23339E-05 3.05172E-06-1.65436E-24
 -1       256 5.23880E-05 2.22629E-06 0.00000E+00
 -1       257 5.24420E-05 1.17486E-06 0.00000E+00
 -1       258 5.24959E-05 1.07659E-08 0.00000E+00
 -1       259 5.25497E-05-1.15594E-06-1.65436E-24
 -1       260 5.26037E-05-2.21517E-06 0.00000E+00
 -1       261 5.26578E-05-3.05375E-06 0.00000E+00
 -1       262 5.27117E-05-3.55805E-06 0.00000E+00
 -1       263 5.27657E-05-3.60482E-06 0.00000E+00
 -1       264 5.28177E-05-3.06978E-06 1.03398E-25
 -1       265 5.28697E-05-1.81207E-06 1.65436E-24
 -1       266 4.94702E-05-4.80887E-07 3.30872E-24
 -1       267 4.68595E-05-4.85533E-07 0.00000E+00
 -1       268 4.42487E-05-4.90641E-07 0.00000E+00
 -1       269 4.16380E-05-4.94383E-07 0.00000E+00
 -1       270 3.90272E-05-4.98092E-07-2.06795E-25
 -1       271 5.04965E-05 1.47070E-06 1.32349E-23
 -1       272 4.91540E-05 2.69261E-06 0.00000E+00
 -1       273 4.80469E-05 3.29159E-06 0.00000E+00
 -1       274 4.71357E-05 3.35739E-06 0.00000E+00
 -1       275 4.63873E-05 2.98833E-06 2.64698E-23
 -1       276 4.57632E-05 2.28555E-06-1.32349E-23
 -1       277 4.52246E-05 1.35401E-06-2.64698E-23
 -1       278 4.47314E-05 3.00726E-07 0.00000E+00
 -1       279 4.42432E-05-7.65988E-07-2.64698E-23
 -1       280 4.37196E-05-1.73767E-06 1.32349E-23
 -1       281 4.31203E-05-2.50691E-06 2.64698E-23
 -1       282 4.24060E-05-2.96822E-06 0.00000E+00
 -1       283 4.15383E-05-3.01945E-06 2.64698E-23
 -1       284 4.04823E-05-2.56154E-06 0.00000E+00
 -1       285 3.91995E-05-1.50274E-06 0.00000E+00
 -1       301 5.03306E-05 2.97619E-07 0.00000E+00
 -1       302 4.77512E-05 2.92209E-07 8.27181E-25
 -1       303 4.51840E-05 2.87024E-07 0.00000E+00
 -1       304 4.26409E-05 2.80970E-07 1.65436E-24
 -1       305 4.01338E-05 2.73689E-07 0.00000E+00
 -1       306 5.12811E-05 2.19051E-06-1.32349E-23
 -1       307 4.99094E-05 3.30561E-06 0.00000E+00
 -1       308 4.88098E-05 3.70212E-06 0.00000E+00
 -1       309 4.79555E-05 3.43106E-06 1.32349E-23
 -1       310 4.73108E-05 2.60051E-06-2.64698E-23
 -1       311 4.68295E-05 1.33057E-06 0.00000E+00
 -1       312 4.64541E-05-2.23034E-07 2.64698E-23
 -1       313 4.61239E-05-1.89784E-06 0.00000E+00
 -1       314 4.57745E-05-3.52139E-06-2.64698E-23
 -1       315 4.53422E-05-4.92250E-06 0.00000E+00
 -1       316 4.47696E-05-5.94824E-06 2.64698E-23
 -1       317 4.40036E-05-6.45465E-06 0.00000E+00
 -1       318 4.30047E-05-6.33970E-06 0.00000E+00
 -1       319 4.17449E-05-5.51467E-06 0.00000E+00
 -1       320 4.02051E-05-3.95174E-06 0.00000E+00
 -1       336 4.98201E-05-9.03248E-07-3.30872E-24
 -1       337 4.81224E-05-1.04728E-06 0.00000E+00
 -1       338 4.61301E-05-1.19179E-06 0.00000E+00
 -1       339 4.38458E-05-1.33669E-06-1.65436E-24
 -1       340 4.12721E-05-1.48229E-06 0.00000E+00
 -1       406 3.96719E-05 3.17633E-07 0.00000E+00
 -1       407 3.95525E-05 3.62982E-07 0.00000E+00
 -1       408 3.94172E-05 4.08301E-07-1.65436E-24
 -1       409 3.92659E-05 4.53535E-07 0.00000E+00
 -1       410 3.90988E-05 4.98594E-07-3.30872E-24
 -1       521 3.54078E-05 1.64830E-06-2.64698E-23
 -1       522 3.34288E-05 2.13169E-06 0.00000E+00
 -1       523 3.17728E-05 1.76438E-06 0.00000E+00
 -1       524 3.03969E-05 6.23416E-07 0.00000E+00
 -1       525 2.92453E-05-1.11778E-06 0.00000E+00
 -1       526 2.82429E-05-3.26327E-06 2.64698E-23
 -1       527 2.73002E-05-5.56932E-06 0.00000E+00
 -1       528 2.63239E-05-7.78585E-06 2.64698E-23
 -1       529 2.52245E-05-9.67291E-06 5.29396E-23
 -1       530 2.39179E-05-1.10049E-05 0.00000E+00
 -1       531 2.23432E-05-1.16208E-05 0.00000E+00
 -1       532 2.04523E-05-1.13899E-05-2.64698E-23
 -1       533 1.82311E-05-1.02806E-05 0.00000E+00
 -1       534 1.56893E-05-8.29575E-06-2.64698E-23
 -1       535 1.28549E-05-5.54612E-06 0.00000E+00
 -1       536 3.84035E-05 1.04422E-06-1.65436E-24
 -1       537 3.84003E-05 3.05692E-06 0.00000E+00
 -1       538 3.83978E-05 4.47826E-06-4.13590E-25
 -1       539 3.83966E-05 5.37532E-06 1.03398E-25
 -1       540 3.83957E-05 5.81589E-06 0.00000E+00
 -1       541 3.83951E-05 5.86780E-06 2.58494E-26
 -1       542 3.83945E-05 5.59931E-06-5.16988E-26
 -1       543 3.83939E-05 5.07871E-06 0.00000E+00
 -1       544 3.83931E-05 4.37459E-06 0.00000E+00
 -1       545 3.83923E-05 3.55552E-06 6.46235E-27
 -1       546 3.83914E-05 2.69023E-06 0.00000E+00
 -1       547 3.83906E-05 1.84743E-06 0.00000E+00
 -1       548 3.83898E-05 1.09581E-06 0.00000E+00
 -1       549 3.83893E-05 5.04060E-07 5.16988E-26
 -1       550 3.83889E-05 1.40705E-07-2.06795E-25
 -1       551 3.46175E-05-1.70785E-06 0.00000E+00
 -1       552 3.00798E-05-1.79046E-06 1.24077E-24
 -1       553 2.50641E-05-1.87538E-06 1.65436E-24
 -1       554 1.98389E-05-1.96262E-06-3.30872E-24
 -1       555 1.46729E-05-2.05103E-06-6.61744E-24
 -1       556 3.74192E-05 9.52009E-07 0.00000E+00
 -1       557 3.66605E-05 2.92204E-06 0.00000E+00
 -1       558 3.61106E-05 4.33945E-06 0.00000E+00
 -1       559 3.57463E-05 5.26493E-06 0.00000E+00
 -1       560 3.55444E-05 5.75899E-06 0.00000E+00
 -1       561 3.54817E-05 5.88247E-06 0.00000E+00
 -1       562 3.55352E-05 5.69624E-06 0.00000E+00
 -1       563 3.56820E-05 5.26120E-06 0.00000E+00
 -1       564 3.58992E-05 4.63830E-06 0.00000E+00
 -1       565 3.61638E-05 3.88848E-06 0.00000E+00
 -1       566 3.64532E-05 3.07271E-06 0.00000E+00
 -1       567 3.67444E-05 2.25196E-06 1.03398E-25
 -1       568 3.70147E-05 1.48720E-06 0.00000E+00
 -1       569 3.72413E-05 8.39322E-07 0.00000E+00
 -1       570 3.74013E-05 3.69246E-07 0.00000E+00
 -1       571 3.84211E-05 1.24518E-07 6.20385E-25
 -1       572 3.84538E-05 1.53065E-07-1.03398E-25
 -1       573 3.84867E-05 1.63751E-07-4.13590E-25
 -1       574 3.85196E-05 1.60645E-07 0.00000E+00
 -1       575 3.85527E-05 1.47834E-07 0.00000E+00
 -1       576 3.85857E-05 1.29432E-07 0.00000E+00
 -1       577 3.86187E-05 1.09555E-07-8.27181E-25
 -1       578 3.86518E-05 9.23244E-08 8.27181E-25
 -1       579 3.86848E-05 8.18597E-08 0.00000E+00
 -1       580 3.87178E-05 8.22816E-08 0.00000E+00
 -1       581 3.87509E-05 9.77099E-08 0.00000E+00
 -1       582 3.87839E-05 1.32260E-07 0.00000E+00
 -1       583 3.88170E-05 1.90042E-07 0.00000E+00
 -1       584 3.88500E-05 2.75125E-07 0.00000E+00
 -1       585 3.88830E-05 3.91555E-07 0.00000E+00
 -1       586 3.82250E-05 8.52800E-08 8.27181E-25
 -1       587 3.80470E-05 9.60337E-08-1.03398E-25
 -1       588 3.78688E-05 1.06667E-07 0.00000E+00
 -1       589 3.77044E-05 1.17131E-07 0.00000E+00
 -1       590 3.75678E-05 1.27309E-07 0.00000E+00
 -1       591 3.83551E-05 1.41212E-07 2.58494E-26
 -1       592 3.83264E-05 1.90168E-07 2.06795E-25
 -1       593 3.83032E-05 2.24540E-07 0.00000E+00
 -1       594 3.82841E-05 2.47414E-07-2.06795E-25
 -1       595 3.82681E-05 2.61919E-07 0.00000E+00
 -1       596 3.82540E-05 2.71158E-07 0.00000E+00
 -1       597 3.82408E-05 2.78235E-07-2.06795E-25
 -1       598 3.82272E-05 2.86249E-07-1.03398E-25
 -1       599 3.82121E-05 2.98302E-07 2.06795E-25
 -1       600 3.81943E-05 3.17492E-07 0.00000E+00
 -1       601 3.81727E-05 3.46921E-07 2.06795E-25
 -1       602 3.81461E-05 3.89692E-07-1.03398E-25
 -1       603 3.81134E-05 4.48908E-07 1.80946E-25
 -1       604 3.80735E-05 5.27699E-07 5.16988E-26
 -1       605 3.80252E-05 6.29152E-07 0.00000E+00
 -1       606 3.89220E-05 7.69671E-07 0.00000E+00
 -1       607 3.89270E-05 1.04350E-06 0.00000E+00
 -1       608 3.89317E-05 1.36178E-06 0.00000E+00
 -1       609 3.89362E-05 1.72138E-06 0.00000E+00
 -1       610 3.89406E-05 2.11917E-06 1.65436E-24
 -1       611 3.89450E-05 2.55196E-06 0.00000E+00
 -1       612 3.89494E-05 3.01656E-06 0.00000E+00
 -1       613 3.89537E-05 3.50978E-06 0.00000E+00
 -1       614 3.89581E-05 4.02843E-06 0.00000E+00
 -1       615 3.89624E-05 4.56932E-06 0.00000E+00
 -1       616 3.89667E-05 5.12926E-06 0.00000E+00
 -1       617 3.89710E-05 5.70506E-06 2.06795E-25
 -1       618 3.89753E-05 6.29352E-06 0.00000E+00
 -1       619 3.89796E-05 6.89147E-06 0.00000E+00
 -1       620 3.89838E-05 7.49569E-06-2.06795E-25
 -1       621 3.87355E-05 5.78696E-07-8.27181E-25
 -1       622 3.85676E-05 6.14502E-07 0.00000E+00
 -1       623 3.84097E-05 6.50303E-07 8.27181E-25
 -1       624 3.82590E-05 6.86048E-07 4.13590E-25
 -1       625 3.81128E-05 7.21730E-07 0.00000E+00
 -1       626 3.88691E-05 7.80877E-07 0.00000E+00
 -1       627 3.88078E-05 1.05781E-06 1.65436E-24
 -1       628 3.87334E-05 1.37023E-06 1.65436E-24
 -1       629 3.86471E-05 1.71428E-06 8.27181E-25
 -1       630 3.85503E-05 2.08609E-06 0.00000E+00
 -1       631 3.84447E-05 2.48175E-06 0.00000E+00
 -1       632 3.83315E-05 2.89736E-06 0.00000E+00
 -1       633 3.82123E-05 3.32904E-06 0.00000E+00
 -1       634 3.80886E-05 3.77287E-06 0.00000E+00
 -1       635 3.79618E-05 4.22495E-06 0.00000E+00
 -1       636 3.78333E-05 4.68139E-06-8.27181E-25
 -1       637 3.77046E-05 5.13828E-06-4.13590E-25
 -1       638 3.75772E-05 5.59172E-06 0.00000E+00
 -1       639 3.74524E-05 6.03782E-06 0.00000E+00
 -1       640 3.73317E-05 6.47265E-06 0.00000E+00
 -1       656 3.84833E-05 7.90606E-06 0.00000E+00
 -1       657 3.81567E-05 7.70120E-06 0.00000E+00
 -1       658 3.79386E-05 7.49696E-06 0.00000E+00
 -1       659 3.77586E-05 7.29289E-06 0.00000E+00
 -1       660 3.75424E-05 7.08817E-06 0.00000E+00
 -1       661 3.88011E-05 8.69829E-06 0.00000E+00
 -1       662 3.86253E-05 9.26847E-06 4.13590E-25
 -1       663 3.84587E-05 9.81402E-06-8.27181E-25
 -1       664 3.83011E-05 1.03361E-05 0.00000E+00
 -1       665 3.81520E-05 1.08356E-05-8.27181E-25
 -1       666 3.80111E-05 1.13135E-05 0.00000E+00
 -1       667 3.78780E-05 1.17707E-05 0.00000E+00
 -1       668 3.77523E-05 1.22081E-05 0.00000E+00
 -1       669 3.76337E-05 1.26266E-05 0.00000E+00
 -1       670 3.75218E-05 1.30270E-05 0.00000E+00
 -1       671 3.74164E-05 1.34103E-05 0.00000E+00
 -1       672 3.73171E-05 1.37771E-05 4.13590E-25
 -1       673 3.72237E-05 1.41283E-05 0.00000E+00
 -1       674 3.71354E-05 1.44646E-05-4.13590E-25
 -1       675 3.70525E-05 1.47868E-05 0.00000E+00
 -1       676 3.84260E-05 1.52887E-05 8.27181E-25
 -1       677 3.81349E-05 1.52497E-05-4.13590E-25
 -1       678 3.78439E-05 1.52107E-05 0.00000E+00
 -1       679 3.75532E-05 1.51718E-05-4.13590E-25
 -1       680 3.72627E-05 1.51330E-05-8.27181E-25
 -1       771 7.88901E-06 1.52531E-06-1.32349E-23
 -1       772 6.19554E-06 4.52790E-06 0.00000E+00
 -1       773 4.74136E-06 6.89663E-06 0.00000E+00
 -1       774 3.50994E-06 8.67383E-06-1.32349E-23
 -1       775 2.48519E-06 9.90228E-06 0.00000E+00
 -1       776 1.65045E-06 1.06256E-05 0.00000E+00
 -1       777 9.88961E-07 1.08878E-05 1.32349E-23
 -1       778 4.83740E-07 1.07336E-05 0.00000E+00
 -1       779 1.17735E-07 1.02081E-05 0.00000E+00
 -1       780-1.26278E-07 9.35683E-06-6.61744E-24
 -1       781-2.65557E-07 8.22570E-06 0.00000E+00
 -1       782-3.17489E-07 6.86100E-06 0.00000E+00
 -1       783-2.99480E-07 5.30921E-06 1.32349E-23
 -1       784-2.28989E-07 3.61712E-06 0.00000E+00
 -1       785-1.23534E-07 1.83164E-06 1.32349E-23
 -1       786 3.75016E-05 1.37296E-07 0.00000E+00
 -1       787 3.75325E-05 1.38575E-07-4.13590E-25
 -1       788 3.75634E-05 1.40997E-07 0.00000E+00
 -1       789 3.75945E-05 1.45185E-07 0.00000E+00
 -1       790 3.76257E-05 1.51886E-07-8.27181E-25
 -1       791 3.76569E-05 1.61852E-07-4.13590E-25
 -1       792 3.76881E-05 1.76064E-07-8.27181E-25
 -1       793 3.77194E-05 1.95509E-07 0.00000E+00
 -1       794 3.77506E-05 2.21543E-07 0.00000E+00
 -1       795 3.77819E-05 2.55532E-07 0.00000E+00
 -1       796 3.78131E-05 2.99403E-07 8.27181E-25
 -1       797 3.78443E-05 3.55096E-07-4.13590E-25
 -1       798 3.78756E-05 4.25385E-07-8.27181E-25
 -1       799 3.79067E-05 5.13065E-07-4.13590E-25
 -1       800 3.79379E-05 6.22157E-07-8.27181E-25
 -1       801 3.49421E-05 1.39208E-07 0.00000E+00
 -1       802 2.74163E-05 1.17768E-07 0.00000E+00
 -1       803 1.75281E-05 7.74697E-08 1.65436E-24
 -1       804 7.90972E-06 3.61087E-08 0.00000E+00
 -1       805 1.19000E-06 1.73842E-08-6.61744E-24
 -1       806 3.74335E-05 1.16401E-07 8.27181E-25
 -1       807 3.73930E-05 9.64613E-08 0.00000E+00
 -1       808 3.73513E-05 7.91418E-08 1.65436E-24
 -1       809 3.73076E-05 6.64957E-08 4.13590E-25
 -1       810 3.72613E-05 6.05722E-08-1.65436E-24
 -1       811 3.72117E-05 6.33901E-08 0.00000E+00
 -1       812 3.71581E-05 7.69664E-08 1.65436E-24
 -1       813 3.70997E-05 1.03313E-07-4.13590E-25
 -1       814 3.70357E-05 1.44442E-07 8.27181E-25
 -1       815 3.69655E-05 2.02363E-07 8.27181E-25
 -1       816 3.68882E-05 2.79086E-07 1.65436E-24
 -1       817 3.68031E-05 3.76620E-07 4.13590E-25
 -1       818 3.67094E-05 4.96973E-07 0.00000E+00
 -1       819 3.66065E-05 6.42148E-07-4.13590E-25
 -1       820 3.64937E-05 8.14146E-07-8.27181E-25
 -1       821 3.79242E-05 9.20624E-07 0.00000E+00
 -1       822 3.78771E-05 1.11787E-06 4.13590E-25
 -1       823 3.78302E-05 1.35320E-06-1.65436E-24
 -1       824 3.77827E-05 1.63131E-06 8.27181E-25
 -1       825 3.77353E-05 1.95256E-06 0.00000E+00
 -1       826 3.76877E-05 2.31720E-06 8.27181E-25
 -1       827 3.76401E-05 2.72109E-06-1.65436E-24
 -1       828 3.75924E-05 3.16001E-06 8.27181E-25
 -1       829 3.75448E-05 3.62619E-06 1.65436E-24
 -1       830 3.74971E-05 4.11178E-06 0.00000E+00
 -1       831 3.74495E-05 4.60700E-06 0.00000E+00
 -1       832 3.74019E-05 5.10202E-06 0.00000E+00
 -1       833 3.73544E-05 5.58703E-06 0.00000E+00
 -1       834 3.73075E-05 6.05225E-06 4.13590E-25
 -1       835 3.72603E-05 6.48991E-06 4.13590E-25
 -1       836 3.77743E-05 7.99691E-07 8.27181E-25
 -1       837 3.75233E-05 8.43625E-07 4.13590E-25
 -1       838 3.72365E-05 8.87481E-07 8.27181E-25
 -1       839 3.69348E-05 9.31060E-07-4.13590E-25
 -1       840 3.66392E-05 9.74569E-07 0.00000E+00
 -1       856 3.72024E-05 7.30472E-06 0.00000E+00
 -1       857 3.71874E-05 7.76906E-06-1.03398E-25
 -1       858 3.71724E-05 8.27709E-06-4.13590E-25
 -1       859 3.71571E-05 8.82057E-06 0.00000E+00
 -1       860 3.71418E-05 9.39124E-06 4.13590E-25
 -1       861 3.71264E-05 9.98082E-06 0.00000E+00
 -1       862 3.71110E-05 1.05810E-05 4.13590E-25
 -1       863 3.70956E-05 1.11836E-05 0.00000E+00
 -1       864 3.70802E-05 1.17802E-05-4.13590E-25
 -1       865 3.70648E-05 1.23626E-05 0.00000E+00
 -1       866 3.70494E-05 1.29224E-05 0.00000E+00
 -1       867 3.70340E-05 1.34514E-05 0.00000E+00
 -1       868 3.70187E-05 1.39414E-05 4.13590E-25
 -1       869 3.70033E-05 1.43841E-05 0.00000E+00
 -1       870 3.69880E-05 1.47714E-05 0.00000E+00
 -1       871 3.69010E-05 6.89191E-06 0.00000E+00
 -1       872 3.66359E-05 6.89050E-06 0.00000E+00
 -1       873 3.63991E-05 6.88890E-06 0.00000E+00
 -1       874 3.61691E-05 6.88706E-06 5.16988E-26
 -1       875 3.59242E-05 6.88498E-06-3.10193E-25
 -1       876 3.71067E-05 7.30898E-06 1.65436E-24
 -1       877 3.69889E-05 7.75092E-06 0.00000E+00
 -1       878 3.68630E-05 8.21504E-06-1.65436E-24
 -1       879 3.67298E-05 8.69850E-06 8.27181E-25
 -1       880 3.65906E-05 9.19846E-06 0.00000E+00
 -1       881 3.64462E-05 9.71204E-06 0.00000E+00
 -1       882 3.62977E-05 1.02364E-05-1.65436E-24
 -1       883 3.61463E-05 1.07688E-05 8.27181E-25
 -1       884 3.59930E-05 1.13062E-05-1.65436E-24
 -1       885 3.58388E-05 1.18460E-05 0.00000E+00
 -1       886 3.56848E-05 1.23852E-05 0.00000E+00
 -1       887 3.55320E-05 1.29209E-05 4.13590E-25
 -1       888 3.53815E-05 1.34505E-05-8.27181E-25
 -1       889 3.52341E-05 1.39709E-05-4.13590E-25
 -1       890 3.50911E-05 1.44793E-05-4.13590E-25
 -1       891 3.66923E-05 1.50744E-05-4.13590E-25
 -1       892 3.64031E-05 1.50538E-05 0.00000E+00
 -1       893 3.60946E-05 1.50332E-05 0.00000E+00
 -1       894 3.57566E-05 1.50127E-05-2.06795E-25
 -1       895 3.53789E-05 1.49921E-05-2.06795E-25
 -1       956 3.63261E-05 1.27451E-06 8.27181E-25
 -1       957 3.62807E-05 1.56326E-06-4.13590E-25
 -1       958 3.62352E-05 1.87813E-06-8.27181E-25
 -1       959 3.61896E-05 2.21592E-06 4.13590E-25
 -1       960 3.61439E-05 2.57342E-06 1.65436E-24
 -1       961 3.60983E-05 2.94739E-06 0.00000E+00
 -1       962 3.60526E-05 3.33459E-06 8.27181E-25
 -1       963 3.60069E-05 3.73181E-06 8.27181E-25
 -1       964 3.59612E-05 4.13579E-06-1.65436E-24
 -1       965 3.59155E-05 4.54330E-06 0.00000E+00
 -1       966 3.58699E-05 4.95111E-06-1.65436E-24
 -1       967 3.58242E-05 5.35598E-06 8.27181E-25
 -1       968 3.57786E-05 5.75468E-06-1.65436E-24
 -1       969 3.57330E-05 6.14398E-06-8.27181E-25
 -1       970 3.56876E-05 6.52066E-06 0.00000E+00
 -1       971 3.56002E-05 7.25237E-06-8.27181E-25
 -1       972 3.55569E-05 7.66168E-06 4.13590E-25
 -1       973 3.55135E-05 8.10525E-06-8.27181E-25
 -1       974 3.54701E-05 8.57868E-06 4.13590E-25
 -1       975 3.54267E-05 9.07751E-06 8.27181E-25
 -1       976 3.53832E-05 9.59732E-06-4.13590E-25
 -1       977 3.53397E-05 1.01337E-05 1.65436E-24
 -1       978 3.52962E-05 1.06821E-05 0.00000E+00
 -1       979 3.52527E-05 1.12382E-05 0.00000E+00
 -1       980 3.52092E-05 1.17975E-05 0.00000E+00
 -1       981 3.51657E-05 1.23556E-05 0.00000E+00
 -1       982 3.51223E-05 1.29080E-05-8.27181E-25
 -1       983 3.50789E-05 1.34503E-05-1.65436E-24
 -1       984 3.50357E-05 1.39780E-05 0.00000E+00
 -1       985 3.49927E-05 1.44868E-05-8.27181E-25
 -3
    1PSTEP                         2           1           1          
  100CL  101 2.50000E-01         409                     0    1           1
 -4  STRESS      6    1
 -5  SXX         1    4    1    1
 -5  SYY         1    4    2    2
 -5  SZZ         1    4    3    3
 -5  SXY         1    4    1    2
 -5  SYZ         1    4    2    3
 -5  SZX         1    4    3    1
 -1         1-8.63644E+05-3.98514E+05-1.75170E+05-5.58282E+05-8.73115E-11 2.53203E-09
 -1         2 1.44498E+03 1.60324E+05 4.70784E+03 2.68020E+02-7.82734E-11 4.63820E-09
 -1         3-1.22334E+01-3.61148E+05 1.29646E+02-6.14569E+01-4.27107E-11-6.69934E-09
 -1         5-2.14296E+00 1.29839E+05 3.39971E+00-5.14911E-02 3.59303E-11 3.72802E-09
 -1         8-4.06872E+05-1.77326E+05-1.38292E+04-3.08581E+05 9.82254E-11-8.54925E-10
 -1         9-6.97988E+05-1.82446E+05-6.93017E+04-2.42654E+05 1.81317E-09 9.95351E-10
 -1        10-5.71963E+02-3.84787E+05-7.51758E+02-4.43439E+02-6.95309E-10 8.22000E-09
 -1        12-7.47369E-01 1.29846E+05 1.10198E+02-1.07025E-01 1.49527E-10 1.94614E-08
 -1        15 1.07573E+03 5.91171E+02 3.47729E+03 1.21446E+00-1.32220E-08-5.27792E-06
 -1        16-1.96299E+06-6.33167E+05-3.05228E+05-6.44263E+05 5.98569E-09-2.17309E-09
 -1        17-4.33305E+05-2.71339E+05-8.36143E+04-2.53359E+05-2.46655E-10-3.68163E-10
 -1        18 1.59498E+04 1.56187E+03-5.98569E+03-3.05540E+04 3.84716E-10-1.53250E-10
 -1        19 4.06947E+04 4.85276E+04-2.23877E+02 7.97638E+03-3.35058E-10-5.78439E-10
 -1        20-1.68585E+04-1.92372E+05-4.24134E+04 1.43414E+04 1.50908E-09 6.45893E-09
 -1        21-1.82293E+01-1.11628E+05-3.60561E+02-2.22929E+01-5.71567E-09-1.10460E-09
 -1        24-1.72200E+06-6.03119E+05-2.46015E+05-7.35751E+05-8.50317E-09-5.00586E-09
 -1        25 1.47814E+04-3.70139E+03 8.68712E+03-5.51450E+04 2.01044E-10 1.81899E-09
 -1        26-9.41464E+03 3.31647E+04-6.58126E+03-4.73483E+03 8.04539E-10-7.19186E-10
 -1        27-3.08072E+04-1.05563E+05-3.96014E+04 2.37902E+04 2.88912E-09 4.56415E-10
 -1        28 8.62010E+03-3.08392E+04 6.29987E+03 9.89506E+03 2.34411E-09 2.24156E-09
 -1        32-4.13002E+05-6.52300E+04 1.76676E+05-2.77049E+05-8.11997E-09 6.41548E-09
 -1        33-6.03904E+04 3.10513E+04 1.10087E+04-1.80258E+04 5.76658E-10 1.55645E-09
 -1        34-7.83964E+04-7.80322E+03 1.86220E+02 2.41066E+04 1.84754E-09 2.84876E-09
 -1        35-8.77242E+03-1.22689E+04-4.77792E+02 1.94405E+04 3.01243E-09-2.92403E-09
 -1        51 8.23766E+03-2.04693E+05 1.98458E+04-5.03608E+05 2.18279E-11-2.21189E-09
 -1        52 3.99357E+03-2.02644E+05 1.30322E+04-5.87362E+05 3.20142E-10-2.34286E-09
 -1        53 2.40244E+03-2.07411E+05 1.13519E+04-5.01904E+05 3.89264E-10-2.63390E-09
 -1        54 7.88819E+03-2.05321E+05 1.82975E+04-5.89179E+05 9.82254E-11-4.56748E-09
 -1        55 1.81409E+04-2.11921E+05 3.29204E+04-5.01695E+05 3.34694E-10 1.87720E-09
 -1        56-1.65900E+06-1.87702E+05-1.29560E+05-6.39962E+05-1.03137E-09-3.28146E-09
 -1        57-1.71166E+06-3.04229E+05-8.73178E+04-6.34286E+05 4.59750E-10-1.75442E-09
 -1        58-1.68476E+06-2.28988E+05-3.05043E+04-6.32165E+05-5.29326E-10 1.91540E-09
 -1        59-1.68187E+06-2.55828E+05-1.82106E+04-6.43656E+05-4.05237E-10-9.59517E-10
 -1        60-1.68855E+06-2.34722E+05-7.13129E+03-6.31090E+05-3.42993E-10-1.78761E-09
 -1        61-1.67776E+06-2.48837E+05-4.05611E+03-6.44585E+05 7.62270E-11 1.64147E-09
 -1        62-1.68881E+06-2.35805E+05-1.95444E+03-6.31291E+05-4.63615E-10 2.52435E-09
 -1        63-1.67809E+06-2.47093E+05-1.61116E+03-6.43641E+05 6.90306E-10 1.28057E-09
 -1        64-1.68820E+06-2.36461E+05-1.84626E+03-6.32024E+05-1.70985E-10 5.72300E-09
 -1        65-1.68010E+06-2.46246E+05-3.70546E+03-6.41686E+05-1.45633E-09 7.72559E-09
 -1        66-1.68678E+06-2.36689E+05-6.50881E+03-6.33219E+05 3.14117E-10-1.62800E-10
 -1        67-1.68603E+06-2.50335E+05-1.65306E+04-6.38223E+05 7.46269E-10-4.36307E-09
 -1        68-1.68228E+06-2.32550E+05-2.77358E+04-6.35414E+05 2.94676E-10-6.27551E-09
 -1        69-1.71500E+06-2.92384E+05-7.93032E+04-6.27529E+05 1.75532E-10-1.04592E-09
 -1        70-1.65802E+06-1.95894E+05-1.17723E+05-6.43457E+05-3.96540E-10-1.60799E-09
 -1        86-7.23943E+02 1.58924E+05 5.05411E+03-1.34017E+02 6.47105E-10-8.25594E-10
 -1        87 4.80737E+03 1.61960E+05 1.05301E+04 5.48444E+02 1.09731E-09-3.55328E-09
 -1        88-4.07641E+03 1.57288E+05 1.61373E+04-4.14441E+02 1.64346E-09-6.71940E-09
 -1        89 3.03815E+04 1.73859E+05 4.34967E+04 1.16894E+03 2.47155E-09-5.77813E-10
 -1        90-2.62142E+04 1.47030E+05 6.14633E+04-7.54338E+02 2.76486E-09 4.74773E-09
 -1       121-3.19159E+01-3.61261E+05 1.41069E+02 3.07122E+01 1.90319E-10 3.85262E-09
 -1       122 2.90396E+01-3.61119E+05 2.85264E+02-1.23047E+02-6.31601E-10 1.41881E-09
 -1       123-6.26218E+01-3.61290E+05 4.82604E+02 9.22422E+01 5.06191E-10 7.96490E-09
 -1       124 5.38429E+02-3.60802E+05 1.19898E+03-3.04982E+02-1.11743E-09 7.46923E-09
 -1       125-3.95564E+02-3.61580E+05 1.87329E+03 2.12743E+02 7.73980E-10 1.00522E-08
 -1       191-2.36265E+00 1.29850E+05 4.07969E+00 2.55855E-02 8.93241E-11 5.95492E-09
 -1       192-2.45497E+00 1.29839E+05 7.19793E+00 1.57139E-01 1.23317E-10 7.79005E-09
 -1       193-3.19253E+00 1.29850E+05 1.34022E+01-1.83849E-01 1.31338E-10 1.90175E-09
 -1       194-3.45926E+00 1.29840E+05 2.72260E+01 4.94943E-01 6.59655E-11-3.85353E-09
 -1       195-4.78783E+00 1.29849E+05 5.32727E+01-3.14231E-01 2.25050E-10 8.16135E-09
 -1       251 1.44007E+05-2.54086E+04 5.94042E+04 2.15475E+03-5.88898E-11-3.23780E-09
 -1       252 1.70608E+05 2.94115E+04 4.20697E+04-7.51910E+03-4.46221E-11-4.38013E-09
 -1       253 1.54131E+05-3.93546E+03 1.53786E+04 1.62332E+03 8.91873E-11-3.14230E-09
 -1       254 1.58724E+05 4.54998E+03 9.69896E+03-6.67474E+03 2.56307E-10-3.01952E-09
 -1       255 1.55858E+05-6.08445E+02 3.97366E+03 1.31052E+03 3.33671E-11 8.30596E-10
 -1       256 1.56671E+05 7.20887E+02 2.41129E+03-6.21112E+03 2.29953E-10 6.34012E-09
 -1       257 1.56168E+05-1.06714E+02 1.24288E+03 1.15969E+03-2.38742E-11-1.92193E-09
 -1       258 1.56357E+05 2.23576E+02 1.10211E+03-6.05848E+03-2.58841E-10-6.18859E-09
 -1       259 1.56168E+05-1.08932E+02 1.26385E+03 1.15788E+03 6.16751E-11 6.48015E-10
 -1       260 1.56679E+05 7.40330E+02 2.47096E+03-6.20442E+03 1.19634E-10 5.84276E-09
 -1       261 1.55851E+05-6.25457E+02 4.08266E+03 1.30562E+03 3.85512E-10 1.74668E-09
 -1       262 1.58782E+05 4.67832E+03 9.96812E+03-6.66026E+03-1.52411E-10 2.93232E-09
 -1       263 1.54080E+05-4.04605E+03 1.58125E+04 1.61373E+03-3.17641E-10 2.26009E-09
 -1       264 1.70986E+05 3.02396E+04 4.32488E+04-7.49588E+03-1.63766E-09-3.52838E-09
 -1       265 1.43679E+05-2.61223E+04 6.10812E+04 2.14111E+03-8.93351E-10 3.17596E-09
 -1       266-1.94745E+04-9.10692E+03 4.56898E+04-2.59848E+01-2.07328E-08-8.30945E-06
 -1       267 2.25762E+04 1.06133E+04 3.22944E+04 2.99829E+01-4.10769E-08-1.64109E-05
 -1       268-3.02743E+03-1.50320E+03 1.20036E+04-3.82022E+00-3.29715E-08-1.31602E-05
 -1       269 3.57449E+03 1.79895E+03 7.80222E+03 4.45010E+00-2.48317E-08-9.91731E-06
 -1       270-5.36536E+02-2.95583E+02 3.76624E+03-6.03886E-01-1.83343E-08-7.30683E-06
 -1       271-1.91329E+06-2.37742E+05-1.47119E+05-7.44088E+05-1.54432E-09-4.90400E-09
 -1       272-1.95301E+06-3.58280E+05-9.46042E+04-7.58024E+05 1.31331E-09-2.53476E-09
 -1       273-1.94095E+06-2.74404E+05-3.47487E+04-7.37580E+05 2.20780E-10-2.16642E-09
 -1       274-1.92084E+06-3.13204E+05-1.94697E+04-7.67938E+05 3.67436E-10 4.45652E-09
 -1       275-1.94504E+06-2.77931E+05-8.08332E+03-7.36147E+05-4.56112E-10-1.48293E-09
 -1       276-1.91604E+06-3.09017E+05-4.30388E+03-7.70229E+05-1.83854E-09 5.60772E-09
 -1       277-1.94590E+06-2.77976E+05-2.10452E+03-7.35619E+05 1.29376E-10 3.84887E-10
 -1       278-1.91521E+06-3.08887E+05-1.53198E+03-7.70862E+05 2.69750E-10-3.30175E-09
 -1       279-1.94594E+06-2.77968E+05-1.64288E+03-7.35589E+05-1.11083E-09-1.52704E-09
 -1       280-1.91577E+06-3.08892E+05-3.01049E+03-7.70377E+05-3.07864E-10-2.77294E-09
 -1       281-1.94527E+06-2.78040E+05-5.49800E+03-7.36046E+05-1.95541E-10-1.27238E-09
 -1       282-1.91928E+06-3.11400E+05-1.31388E+04-7.68437E+05 4.70664E-11 2.01590E-09
 -1       283-1.94229E+06-2.75912E+05-2.34346E+04-7.37266E+05-9.61336E-10-7.39965E-09
 -1       284-1.94144E+06-3.41189E+05-6.37300E+04-7.61028E+05 1.08372E-09-1.09139E-09
 -1       285-1.92329E+06-2.51608E+05-9.91633E+04-7.42056E+05 4.56566E-10 1.07684E-09
 -1       301 7.33552E+03-4.64336E+03 5.73611E+04-1.42849E+04-4.62023E-10-3.68544E-09
 -1       302 7.87523E+03 9.92239E+03 4.14337E+04-2.10058E+04 1.03660E-09 3.18278E-09
 -1       303 3.29958E+02 5.07195E+02 3.81579E+04-1.43063E+04-4.21096E-10-6.68797E-09
 -1       304 1.48812E+04 1.63819E+04 6.42058E+04-2.09506E+04 4.62023E-10-8.49150E-09
 -1       305 1.47532E+04-1.10729E+04 1.07749E+05-1.43098E+04-4.76575E-10-2.88742E-09
 -1       306-2.06273E+06-2.35916E+05-1.57110E+05-8.02630E+05 1.30967E-10-3.15049E-09
 -1       307-2.13744E+06-3.75114E+05-1.07146E+05-7.82807E+05 4.97039E-10 4.71482E-09
 -1       308-2.09751E+06-2.85602E+05-3.69582E+04-7.88910E+05 7.96717E-10 7.18683E-09
 -1       309-2.09510E+06-3.19391E+05-2.24203E+04-8.01386E+05 7.58291E-10-1.71394E-09
 -1       310-2.10492E+06-2.90683E+05-8.67130E+03-7.84403E+05 1.21682E-10-2.33285E-10
 -1       311-2.08571E+06-3.14402E+05-5.03960E+03-8.07763E+05 2.08908E-09-2.21780E-09
 -1       312-2.10694E+06-2.90414E+05-2.46167E+03-7.82623E+05 2.03300E-10 2.07240E-09
 -1       313-2.08395E+06-3.14409E+05-2.22059E+03-8.09271E+05-8.15582E-10 4.28557E-09
 -1       314-2.10669E+06-2.90645E+05-2.66482E+03-7.82917E+05-1.50061E-09-7.33962E-10
 -1       315-2.08673E+06-3.13660E+05-5.63101E+03-8.06622E+05-5.47203E-10-9.77479E-10
 -1       316-2.10413E+06-2.91210E+05-9.78707E+03-7.85236E+05 1.40478E-09 1.74168E-10
 -1       317-2.09761E+06-3.19100E+05-2.53505E+04-7.99178E+05 2.72706E-10 1.83491E-09
 -1       318-2.09578E+06-2.85401E+05-4.18044E+04-7.90262E+05-1.86810E-09 1.43336E-09
 -1       319-2.14518E+06-3.82557E+05-1.21231E+05-7.78670E+05-5.38421E-10-6.72117E-09
 -1       320-2.05675E+06-2.28816E+05-1.77718E+05-8.05362E+05 4.42742E-09 1.45519E-11
 -1       336 5.22405E+02-4.07943E+05-3.00880E+03 2.30532E+02-1.15028E-09-9.87711E-10
 -1       337-1.09837E+03-4.08896E+05-3.02850E+03-6.46502E+02-9.80208E-10-4.44948E-09
 -1       338 2.69933E+02-4.08109E+05-3.42328E+03 4.15114E+02-1.70462E-09 2.47655E-09
 -1       339-3.50953E+03-4.10339E+05-7.27860E+03-1.01345E+03-1.25340E-09 6.94945E-09
 -1       340 2.47066E+03-4.06511E+05-1.10263E+04 5.95699E+02-1.67984E-09 6.39920E-09
 -1       406 7.68326E+00 1.29844E+05 2.17580E+02 4.16643E-01 3.05505E-10 1.22332E-08
 -1       407 7.51070E+01 1.29884E+05 4.62419E+02-5.65617E+00 3.30260E-11-5.42968E-10
 -1       408 2.37286E+02 1.29811E+05 9.23586E+02 5.28837E+00 3.19915E-10 2.34058E-09
 -1       409 9.97946E+02 1.30179E+05 2.07932E+03-4.74554E+01-2.13731E-11 2.00544E-09
 -1       410 2.86862E+03 1.29548E+05 4.24491E+03 4.30782E+01 3.33330E-10 1.97360E-09
 -1       521-3.88867E+06-4.47815E+05-2.90982E+05-1.51076E+06 3.06318E-09-1.39698E-09
 -1       522-4.02806E+06-7.00043E+05-1.97794E+05-1.47313E+06-7.67614E-10-3.20142E-09
 -1       523-3.95343E+06-5.37839E+05-6.84121E+04-1.48497E+06 1.09594E-09-3.65253E-09
 -1       524-3.94925E+06-5.98838E+05-4.12947E+04-1.50794E+06 5.83896E-10 8.71296E-10
 -1       525-3.96699E+06-5.46817E+05-1.59885E+04-1.47670E+06-4.45084E-10 2.06091E-09
 -1       526-3.93312E+06-5.88846E+05-9.22280E+03-1.51824E+06 7.82123E-10-4.14161E-10
 -1       527-3.96956E+06-5.47452E+05-4.42695E+03-1.47483E+06 1.01261E-09 2.03204E-09
 -1       528-3.93317E+06-5.85380E+05-3.79587E+03-1.51687E+06-9.40645E-10 5.60902E-10
 -1       529-3.96689E+06-5.50271E+05-4.44605E+03-1.47805E+06-4.94765E-10 2.95449E-09
 -1       530-3.94288E+06-5.78591E+05-9.08749E+03-1.50625E+06 2.09184E-10 1.58934E-09
 -1       531-3.95971E+06-5.54381E+05-1.59422E+04-1.48533E+06 1.37788E-10 3.19233E-09
 -1       532-3.96611E+06-5.81364E+05-4.09220E+04-1.48794E+06-3.51235E-10-7.35326E-10
 -1       533-3.94369E+06-5.47854E+05-6.79087E+04-1.49622E+06 2.63753E-11-2.39015E-09
 -1       534-4.04673E+06-6.79939E+05-1.96305E+05-1.45165E+06 3.81806E-09 2.38651E-09
 -1       535-3.87980E+06-4.57847E+05-2.88692E+05-1.52102E+06-5.85715E-09 3.94357E-09
 -1       536-6.80304E+03-1.10322E+04 2.54335E+04 2.51389E+02-7.41579E-10 1.54068E-09
 -1       537 4.81919E+03 1.27662E+04 1.80947E+04-9.86392E+02-3.78862E-09 3.68345E-10
 -1       538-2.46247E+03-1.72896E+03 6.56485E+03 2.35321E+02 1.21432E-10 8.68567E-10
 -1       539-2.88634E+02 1.99672E+03 4.17637E+03-9.71793E+02 2.09806E-09 4.37922E-10
 -1       540-1.69961E+03-2.69150E+02 1.66003E+03 2.36797E+02 6.96346E-10-2.91834E-10
 -1       541-1.21498E+03 3.08389E+02 9.84080E+02-9.75298E+02-1.31308E-10-3.22871E-11
 -1       542-1.53878E+03-4.00468E+01 3.99548E+02 2.38822E+02-6.37566E-10-3.66907E-09
 -1       543-1.42548E+03 3.88686E+01 2.00252E+02-9.78562E+02 2.77645E-10-4.99466E-09
 -1       544-1.49081E+03 1.41045E+00 3.32538E+01 2.40060E+02-1.66313E-10-2.87923E-09
 -1       545-1.50404E+03-4.60695E+01-1.08174E+02-9.80145E+02-2.73127E-10-1.51928E-09
 -1       546-1.46099E+03 4.54004E+01-2.58236E+02 2.40405E+02 1.77427E-10 1.11419E-09
 -1       547-1.64156E+03-3.37749E+02-6.86712E+02-9.79887E+02-7.26705E-10-1.19326E-09
 -1       548-1.35314E+03 2.92770E+02-1.11457E+03 2.39802E+02-1.15948E-09 8.34405E-10
 -1       549-2.43983E+03-2.15911E+03-3.04416E+03-9.77201E+02-7.08818E-10 2.53510E-09
 -1       550-6.61599E+02 1.86455E+03-4.33150E+03 2.37718E+02 9.05800E-11 1.63050E-09
 -1       551 3.01196E+03-2.06421E+05 1.17779E+04-3.54143E+05-1.52231E-08 5.38421E-10
 -1       552 5.86479E+03-2.05712E+05 1.49348E+04-5.03840E+05-1.14815E-08 6.93399E-09
 -1       553 3.57957E+03-2.08451E+05 2.31783E+04-3.53035E+05-1.91176E-08 2.76668E-09
 -1       554 1.69065E+04-1.97736E+05 4.91370E+04-5.04318E+05-1.23910E-08 2.76725E-09
 -1       555 1.78859E+04-2.17923E+05 8.83886E+04-3.53543E+05-1.88484E-08-2.01908E-09
 -1       556 2.81137E+04-6.54697E+04 2.31552E+04-8.83536E+04-3.33966E-09 1.54250E-09
 -1       557 5.48073E+04-8.80159E+04 1.20909E+04-1.10257E+05-8.58563E-10 4.46835E-09
 -1       558 2.85977E+04-6.88851E+04 4.99029E+03-8.53849E+04-1.20053E-09-8.31278E-10
 -1       559 5.18284E+04-9.13900E+04 2.49886E+03-1.11407E+05 3.58705E-09-6.05451E-09
 -1       560 2.82436E+04-6.86310E+04 1.08580E+03-8.55693E+04 1.43336E-09 2.14141E-09
 -1       561 5.11156E+04-9.13028E+04 5.52918E+02-1.11847E+05-1.83172E-09 5.38807E-09
 -1       562 2.79242E+04-6.84012E+04 2.32168E+02-8.58045E+04-1.09139E-10 1.09310E-09
 -1       563 5.07222E+04-9.11370E+04 1.28029E+02-1.12098E+05 6.88487E-10-4.66116E-10
 -1       564 2.77242E+04-6.82676E+04 4.84381E+01-8.59490E+04 2.96495E-09-3.85626E-10
 -1       565 5.05206E+04-9.10528E+04 2.03531E+01-1.12222E+05 1.99907E-09-1.08412E-09
 -1       566 2.76569E+04-6.82199E+04-1.76318E+01-8.59997E+04-7.72616E-10-1.47247E-09
 -1       567 5.04877E+04-9.10362E+04-6.74846E+01-1.12210E+05 3.16845E-09 2.82853E-09
 -1       568 2.77395E+04-6.82761E+04-1.68424E+02-8.59727E+04-4.19277E-10 1.50703E-09
 -1       569 5.02852E+04-9.09238E+04-3.99443E+02-1.11771E+05-1.55615E-09 1.84446E-09
 -1       570 2.82532E+04-6.87952E+04-8.10898E+02-8.60651E+04 1.12777E-09-6.87123E-10
 -1       571 9.41881E+04 3.41617E+03 5.05884E+03-2.36185E+04-1.84025E-08-4.02451E-10
 -1       572 9.49426E+04 1.18848E+03 2.47825E+03-2.58900E+04-3.63618E-08 3.03089E-10
 -1       573 9.44949E+04 2.83387E+02 1.10092E+03-2.35569E+04-1.83381E-08 2.14573E-09
 -1       574 9.45854E+04 9.14091E+01 5.51427E+02-2.59593E+04-3.32921E-09 5.09954E-09
 -1       575 9.45311E+04 1.17216E+01 2.59850E+02-2.35487E+04-4.38797E-09 1.66028E-09
 -1       576 9.45378E+04 2.14550E+00 1.32168E+02-2.59686E+04-3.60842E-09 1.24305E-09
 -1       577 9.45365E+04-2.92727E+00 6.50534E+01-2.35476E+04-1.18439E-09 1.54228E-09
 -1       578 9.45320E+04-1.76092E+00 3.53535E+01-2.59696E+04-3.47143E-10 4.60545E-09
 -1       579 9.45398E+04-2.61097E+00 2.15678E+01-2.35476E+04-2.01680E-10-3.85103E-09
 -1       580 9.45356E+04-2.57717E+00 1.99427E+01-2.59681E+04-4.60204E-10-6.35418E-09
 -1       581 9.45449E+04-3.36875E+00 2.70948E+01-2.35491E+04-4.15639E-10-2.63481E-09
 -1       582 9.45468E+04 1.98286E+00 5.13661E+01-2.59540E+04 5.38193E-10 3.84989E-09
 -1       583 9.45495E+04 1.66712E+01 9.89288E+01-2.35618E+04 1.97815E-10 7.79210E-10
 -1       584 9.45886E+04 9.52075E+01 2.21438E+02-2.58487E+04-3.67208E-10-8.31562E-10
 -1       585 9.45313E+04 2.92008E+02 4.50359E+02-2.36545E+04 3.58796E-10-1.21054E-09
 -1       586-1.18204E+03 3.06460E+04-1.55140E+03-8.05717E+04 2.67846E-10-3.17027E-09
 -1       587-2.70623E+02 3.04410E+04-1.89245E+02-8.86626E+04 4.45652E-10-1.33650E-09
 -1       588 3.05765E+02 3.04796E+04 1.06621E+03-8.05226E+04 2.57387E-10 1.82990E-09
 -1       589 1.58675E+03 3.10594E+04 3.12682E+03-8.85892E+04 4.00178E-10-5.95719E-10
 -1       590 4.58908E+03 3.00769E+04 6.70572E+03-8.06453E+04 2.02363E-10 1.16415E-10
 -1       591-2.04525E+04-5.87793E+03-6.83497E+03-1.06311E+04 3.15717E-09-2.44154E-09
 -1       592-2.10896E+04-7.55966E+03-3.70210E+03-1.24170E+04 1.10590E-08 3.17777E-09
 -1       593-2.11433E+04-5.37440E+03-1.54120E+03-1.11243E+04 7.82654E-09 2.08388E-10
 -1       594-2.01366E+04-6.56641E+03-7.68697E+02-1.24641E+04 1.01338E-09 4.91923E-10
 -1       595-2.11960E+04-5.37227E+03-3.53267E+02-1.11469E+04-8.62485E-10 2.46938E-09
 -1       596-2.00720E+04-6.52096E+03-1.80095E+02-1.24573E+04-1.04876E-11 4.57845E-10
 -1       597-2.12026E+04-5.37669E+03-9.91471E+01-1.11477E+04-1.92686E-09-5.07194E-09
 -1       598-2.00659E+04-6.51921E+03-8.16816E+01-1.24554E+04-8.92385E-10 2.98996E-09
 -1       599-2.12023E+04-5.37662E+03-1.06774E+02-1.11476E+04-5.84066E-10-2.15323E-10
 -1       600-2.00730E+04-6.52147E+03-2.00349E+02-1.24574E+04-8.05585E-10-2.37156E-09
 -1       601-2.11942E+04-5.37165E+03-3.96203E+02-1.11464E+04-2.97746E-10-2.44427E-09
 -1       602-2.01459E+04-6.57240E+03-8.64146E+02-1.24645E+04 7.25151E-10-1.00954E-10
 -1       603-2.11345E+04-5.37470E+03-1.73315E+03-1.11213E+04-1.55512E-09-2.48542E-09
 -1       604-2.12213E+04-7.68551E+03-4.16355E+03-1.24067E+04-2.60104E-09-5.04497E-09
 -1       605-2.03531E+04-5.94423E+03-7.68673E+03-1.05705E+04-2.98257E-10 1.60071E-10
 -1       606 1.34736E+04-4.53088E+03-8.16391E+03 1.31972E+04-8.39464E-10-3.84534E-09
 -1       607 1.20758E+04-1.46133E+03-4.06542E+03 1.48146E+04 4.95220E-10 6.38408E-10
 -1       608 1.28746E+04-2.45401E+02-1.81995E+03 1.30918E+04 9.89075E-09 2.20462E-09
 -1       609 1.27187E+04-6.60151E+01-9.19451E+02 1.49311E+04 1.62058E-08 1.56047E-09
 -1       610 1.28071E+04 9.63441E+00-4.38765E+02 1.30801E+04 6.74299E-09 1.00158E-10
 -1       611 1.27796E+04 1.26065E+01-2.21458E+02 1.49439E+04-2.84808E-09-2.14925E-09
 -1       612 1.27925E+04 1.38223E+01-1.05710E+02 1.30789E+04-6.49834E-10-1.09253E-09
 -1       613 1.27836E+04 1.37721E+01-4.83128E+01 1.49455E+04-1.23782E-09-3.54055E-09
 -1       614 1.27857E+04 1.17239E+01-1.33928E+01 1.30785E+04 6.48470E-10 1.17450E-09
 -1       615 1.27819E+04 1.41518E+01 1.49156E+01 1.49458E+04 4.44288E-09 6.78313E-09
 -1       616 1.27806E+04 1.25891E+01 4.97133E+01 1.30786E+04 6.52335E-10 9.82936E-10
 -1       617 1.27878E+04 2.50652E+01 1.15185E+02 1.49455E+04 1.85628E-09-5.10579E-09
 -1       618 1.27702E+04 4.60380E+01 2.32927E+02 1.30787E+04 9.16043E-09 1.43245E-09
 -1       619 1.28699E+04 2.05454E+02 5.23492E+02 1.49453E+04 1.71311E-08 5.17161E-10
 -1       620 1.26927E+04 5.99018E+02 1.05238E+03 1.30784E+04 9.44033E-09 4.75393E-09
 -1       621 1.64714E+02 1.02561E+05 1.41893E+03 3.23398E+03-1.98185E-10-6.05269E-10
 -1       622 1.88218E+02 1.02912E+05 1.20339E+03 4.71861E+03-1.52397E-10-7.23048E-11
 -1       623 8.39843E+00 1.02663E+05 1.38280E+03 3.21866E+03-1.20224E-10 5.33407E-09
 -1       624 6.26058E+02 1.03314E+05 2.62493E+03 4.73372E+03-3.32534E-11 1.01190E-08
 -1       625 6.28206E+02 1.02157E+05 4.56286E+03 3.21898E+03-1.90994E-11 7.48462E-09
 -1       626 8.46224E+04 2.34849E+04 1.69149E+03 4.57972E+04 4.22165E-09 1.41690E-08
 -1       627 8.34601E+04 2.43405E+04 8.14691E+02 4.76552E+04 1.95178E-09 1.01676E-08
 -1       628 8.46908E+04 2.26828E+04 3.44421E+02 4.60540E+04 4.94310E-10-7.41920E-10
 -1       629 8.32202E+04 2.41471E+04 1.68627E+02 4.77700E+04 1.86651E-09-9.21261E-10
 -1       630 8.46985E+04 2.26428E+04 7.81390E+01 4.60630E+04-1.84173E-10-6.24141E-10
 -1       631 8.31940E+04 2.41415E+04 4.19070E+01 4.77737E+04-1.37288E-09 1.16068E-09
 -1       632 8.46970E+04 2.26443E+04 2.77319E+01 4.60608E+04-3.10047E-09-1.24825E-09
 -1       633 8.31900E+04 2.41431E+04 3.08747E+01 4.77721E+04-2.37389E-09-3.77372E-09
 -1       634 8.46939E+04 2.26439E+04 5.00389E+01 4.60596E+04 4.63956E-09 9.29452E-09
 -1       635 8.31931E+04 2.41435E+04 1.01458E+02 4.77727E+04 4.64979E-10 5.34521E-09
 -1       636 8.46889E+04 2.26432E+04 2.05012E+02 4.60584E+04-1.18177E-09 8.08654E-10
 -1       637 8.32348E+04 2.41762E+04 4.50630E+02 4.77706E+04 6.30251E-10-6.17320E-09
 -1       638 8.46706E+04 2.27441E+04 9.26285E+02 4.60117E+04 2.87230E-10-1.97679E-09
 -1       639 8.37180E+04 2.48543E+04 2.19138E+03 4.76258E+04-8.81300E-10-3.39196E-09
 -1       640 8.46038E+04 2.47624E+04 4.54795E+03 4.51547E+04 3.87115E-09 6.07383E-09
 -1       656 2.29453E+04-5.80822E+05-5.54066E+04-4.99171E+02-4.72937E-11 2.93699E-09
 -1       657-3.03175E+04-6.05855E+05-4.58208E+04 3.81028E+03 6.91216E-10-3.93925E-09
 -1       658 7.27386E+03-5.87968E+05-2.81203E+04-7.81728E+02 1.07093E-10 1.71496E-09
 -1       659-3.25009E+04-6.06880E+05-4.86883E+04 3.99560E+03-7.17591E-10-1.63657E-09
 -1       660 2.51226E+04-5.79798E+05-6.03458E+04-6.84480E+02-1.60071E-10 9.90042E-10
 -1       661 8.26633E+04 8.96800E+03 7.92086E+03 3.22569E+04 2.81261E-10 2.40243E-09
 -1       662 8.67569E+04 1.52121E+04 5.33730E+03 3.09149E+04 1.82860E-09-4.36785E-09
 -1       663 8.42117E+04 1.15160E+04 1.86704E+03 3.18134E+04 5.44844E-10-8.58677E-10
 -1       664 8.49678E+04 1.22268E+04 1.11614E+03 3.14511E+04 6.46992E-10 1.00140E-09
 -1       665 8.44407E+04 1.18696E+04 4.40337E+02 3.17521E+04 4.64524E-10-5.51381E-10
 -1       666 8.47016E+04 1.18175E+04 2.56681E+02 3.15272E+04-1.85255E-09-5.31862E-10
 -1       667 8.44764E+04 1.19147E+04 1.35376E+02 3.17413E+04-9.05843E-10-2.08844E-10
 -1       668 8.46660E+04 1.17785E+04 1.35483E+02 3.15413E+04 1.25735E-09-1.89515E-09
 -1       669 8.44761E+04 1.19076E+04 1.81589E+02 3.17385E+04 2.08588E-09 1.29749E-09
 -1       670 8.47171E+04 1.18692E+04 3.93500E+02 3.15349E+04 3.30133E-09 1.97443E-09
 -1       671 8.44256E+04 1.18259E+04 6.98190E+02 3.17469E+04 4.33818E-10 2.47195E-09
 -1       672 8.51291E+04 1.25432E+04 1.78580E+03 3.14308E+04-9.19130E-10 1.01011E-10
 -1       673 8.40663E+04 1.12506E+04 2.99260E+03 3.18361E+04-4.06544E-10 8.97330E-10
 -1       674 8.79831E+04 1.73464E+04 8.55858E+03 3.05881E+04-3.53339E-10 2.31012E-09
 -1       675 8.15903E+04 7.15712E+03 1.27031E+04 3.25391E+04 1.46201E-09 8.81300E-10
 -1       676 9.35359E+00-1.11598E+05-4.34565E+02 1.11467E+01-1.42506E-10-1.82060E-09
 -1       677-1.15354E+02-1.11703E+05-7.95263E+02-2.22923E+01-2.06126E-09-4.32862E-09
 -1       678 7.70099E+01-1.11523E+05-1.40579E+03 1.11379E+01-1.42381E-09-1.34965E-09
 -1       679-1.40592E+03-1.12551E+05-3.33928E+03-2.22497E+01-2.48230E-09 3.06164E-10
 -1       680 8.38959E+02-1.10749E+05-5.38186E+03 1.09758E+01-7.81711E-10 1.76493E-09
 -1       771-1.20096E+06-2.08284E+05-2.90803E+04-4.96875E+05-4.72573E-09-4.53292E-09
 -1       772-1.19330E+06-2.24815E+05-1.56547E+04-5.15279E+05-2.07910E-09 4.86034E-09
 -1       773-1.20469E+06-2.05404E+05-6.66581E+03-4.98502E+05-1.96087E-09 1.70257E-09
 -1       774-1.18900E+06-2.21240E+05-3.27032E+03-5.16633E+05 4.66571E-09-7.20320E-10
 -1       775-1.20534E+06-2.05035E+05-1.59321E+03-4.98594E+05-2.28465E-09-3.43061E-09
 -1       776-1.18883E+06-2.21183E+05-7.50621E+02-5.17198E+05-1.37152E-09 1.14278E-09
 -1       777-1.20573E+06-2.04773E+05-4.27245E+02-4.98626E+05 1.71713E-09 4.29281E-10
 -1       778-1.18891E+06-2.21253E+05-2.01282E+02-5.17658E+05 4.07454E-09 4.93674E-09
 -1       779-1.20602E+06-2.04549E+05-1.78383E+02-4.98651E+05 1.82263E-09-2.66846E-09
 -1       780-1.18901E+06-2.21319E+05-1.56502E+02-5.18031E+05 2.66300E-09-7.69796E-09
 -1       781-1.20624E+06-2.04366E+05-2.73422E+02-4.98667E+05 3.91628E-09 2.78374E-09
 -1       782-1.18912E+06-2.21396E+05-5.21285E+02-5.18307E+05-2.80488E-09-2.27095E-09
 -1       783-1.20635E+06-2.04250E+05-1.04046E+03-4.98666E+05-3.24690E-10-2.24969E-09
 -1       784-1.18980E+06-2.22093E+05-2.47444E+03-5.18447E+05-2.81716E-09-9.67475E-11
 -1       785-1.20597E+06-2.04519E+05-4.57272E+03-4.98337E+05-5.06270E-09 5.77529E-10
 -1       786 8.72607E+04-4.66373E+03 1.07888E+04 2.13752E+00 4.17363E-08-9.04038E-10
 -1       787 9.19358E+04 5.39910E+03 7.63308E+03-8.80499E+00 8.30387E-08 2.12822E-09
 -1       788 8.90644E+04-7.31088E+02 2.79239E+03 2.61388E+00 1.34930E-07-1.81012E-09
 -1       789 8.98346E+04 8.45909E+02 1.75449E+03-1.03293E+01 1.86990E-07-8.48104E-10
 -1       790 8.93621E+04-1.14207E+02 7.13887E+02 3.66187E+00 2.69244E-07-7.36762E-09
 -1       791 8.94872E+04 1.32696E+02 4.19164E+02-1.31445E+01 3.51320E-07 3.96821E-09
 -1       792 8.94119E+04-1.84085E+01 1.91341E+02 5.42912E+00 5.03136E-07-6.25634E-09
 -1       793 8.94311E+04 2.58734E+01 1.25467E+02-1.76576E+01 6.55820E-07 4.30769E-09
 -1       794 8.94183E+04-7.45440E+00 9.30696E+01 8.17505E+00 9.61831E-07-7.32304E-09
 -1       795 8.94367E+04 3.85131E+01 1.34813E+02-2.45228E+01 1.26596E-06 6.13598E-09
 -1       796 8.94063E+04-3.10394E+01 2.02061E+02 1.22944E+01 6.32893E-07-4.01270E-09
 -1       797 8.95283E+04 2.27539E+02 4.76519E+02-3.47278E+01 2.19421E-09-1.49302E-09
 -1       798 8.93266E+04-1.96341E+02 7.52241E+02 1.83802E+01-1.40717E-10-3.73069E-09
 -1       799 9.00924E+04 1.44967E+03 2.05071E+03-4.98414E+01-5.72123E-10 3.25988E-09
 -1       800 8.88421E+04-1.25218E+03 2.89697E+03 2.74081E+01-2.05445E-11 1.06445E-09
 -1       801-4.60530E+03 8.99198E+03 8.32832E+03 9.21713E+03 5.12478E-09-2.83444E-09
 -1       802 1.28579E+04 4.00490E+04 2.46666E+04-3.79456E+04 1.37027E-08-3.82784E-10
 -1       803-7.99983E+03 1.89449E+04 3.25857E+04 8.88074E+03 1.08048E-08 1.00941E-08
 -1       804 6.29037E+04 6.59091E+04 9.01560E+04-3.82707E+04 1.28057E-08 1.21205E-08
 -1       805-5.46550E+04-1.67773E+04 1.19438E+05 9.54171E+03 4.49654E-09 1.22405E-08
 -1       806-1.02698E+05-2.19953E+04-8.72160E+03-4.27603E+04-6.21753E-10-1.86810E-09
 -1       807-1.03211E+05-2.07461E+04-4.28470E+03-4.50726E+04 2.55187E-09 8.16954E-09
 -1       808-1.02945E+05-1.88444E+04-1.81763E+03-4.42399E+04-5.40012E-11-9.37916E-12
 -1       809-1.02297E+05-1.95564E+04-8.88613E+02-4.51964E+04 7.94159E-10-2.13191E-10
 -1       810-1.02984E+05-1.87330E+04-4.06874E+02-4.43054E+04 4.17117E-10 6.06292E-10
 -1       811-1.02227E+05-1.95092E+04-2.01795E+02-4.51864E+04 6.17320E-11-1.25578E-09
 -1       812-1.02992E+05-1.87409E+04-1.00648E+02-4.43055E+04-3.72302E-09 2.66868E-09
 -1       813-1.02219E+05-1.95103E+04-6.35099E+01-4.51816E+04-7.69887E-09 2.19211E-09
 -1       814-1.02991E+05-1.87434E+04-5.94629E+01-4.43045E+04-4.77507E-09-3.18323E-11
 -1       815-1.02221E+05-1.95111E+04-9.31951E+01-4.51810E+04-4.46823E-09-8.49650E-09
 -1       816-1.02986E+05-1.87421E+04-1.74512E+02-4.43038E+04-1.72372E-09 4.30464E-09
 -1       817-1.02252E+05-1.95276E+04-3.74441E+02-4.51789E+04 5.78780E-10 1.82104E-09
 -1       818-1.02965E+05-1.87939E+04-7.62963E+02-4.42795E+04 4.61114E-10-2.25714E-09
 -1       819-1.02674E+05-1.99854E+04-1.79612E+03-4.50780E+04 1.52568E-10-1.35424E-09
 -1       820-1.02821E+05-2.01517E+04-3.65516E+03-4.37012E+04 2.91038E-10-1.18695E-09
 -1       821-1.32682E+05 7.36646E+03-1.70386E+04-6.99685E-01-3.19412E-10 8.02174E-10
 -1       822-1.40065E+05-8.52792E+03-1.20565E+04-9.44735E+01-1.45971E-09-1.50953E-09
 -1       823-1.35531E+05 1.15480E+03-4.41306E+03-2.45551E+01 1.15091E-09 4.01837E-09
 -1       824-1.36746E+05-1.33663E+03-2.77728E+03-4.33680E+01-5.13765E-10 1.85082E-10
 -1       825-1.36001E+05 1.80830E+02-1.14080E+03-5.18070E+01-1.48011E-09-3.12991E-09
 -1       826-1.36199E+05-2.13272E+02-6.90221E+02 8.72853E+00-2.81310E-09-8.75836E-10
 -1       827-1.36077E+05 3.22663E+01-3.55931E+02-7.66528E+01-3.10845E-09-2.31694E-09
 -1       828-1.36124E+05-6.52060E+01-3.16166E+02 5.08502E+01 2.87270E-08 5.88560E-09
 -1       829-1.36076E+05 3.28782E+01-3.61301E+02-9.39294E+01 9.47431E-06-4.61114E-09
 -1       830-1.36204E+05-2.18480E+02-7.06272E+02 7.42520E+01 1.88587E-05-5.88460E-09
 -1       831-1.35997E+05 1.85447E+02-1.16903E+03-1.00055E+02-1.19340E-06 2.14874E-09
 -1       832-1.36764E+05-1.37091E+03-2.84855E+03 7.42473E+01-2.12399E-05 4.84260E-09
 -1       833-1.35516E+05 1.18447E+03-4.52616E+03-9.39244E+01-1.06681E-05 8.19000E-09
 -1       834-1.40168E+05-8.74709E+03-1.23666E+04 5.16949E+01-3.46704E-08-2.09184E-10
 -1       835-1.32594E+05 7.55581E+03-1.74767E+04-7.75000E+01 2.05089E-09-3.97449E-10
 -1       836-4.42745E+02 1.25837E+05 7.57532E+03-1.10409E+04 9.74296E-10 4.21778E-10
 -1       837 1.66173E+03 1.28186E+05 6.46423E+03-2.21959E+04 1.34082E-09-7.40329E-10
 -1       838-1.65879E+02 1.26494E+05 6.66304E+03-1.10019E+04 1.23464E-09 9.62757E-10
 -1       839 4.26905E+03 1.30136E+05 1.26805E+04-2.22106E+04 1.65164E-09-6.27615E-10
 -1       840-1.28902E+03 1.23879E+05 2.02515E+04-1.10257E+04 1.07684E-09-3.69482E-09
 -1       856-4.17903E+04 3.56299E+03-9.38819E+03-1.96652E+02-1.00974E-09-1.96587E-09
 -1       857-4.56694E+04-4.17980E+03-6.46397E+03 2.15948E+03-9.89928E-10-2.01180E-09
 -1       858-4.33229E+04 4.99464E+02-2.43646E+03-2.02447E+02-2.13117E-09-1.51783E-09
 -1       859-4.39083E+04-5.82087E+02-1.47177E+03 2.16847E+03-2.89049E-11 8.18233E-10
 -1       860-4.35523E+04 6.96292E+01-6.18831E+02-2.05676E+02 1.92229E-09 9.00400E-11
 -1       861-4.36436E+04-7.85794E+01-3.44862E+02 2.17281E+03 6.99853E-10-3.52261E-09
 -1       862-4.35880E+04 9.38622E+00-1.52161E+02-2.06797E+02 4.00732E-09-1.34244E-09
 -1       863-4.36014E+04-7.60914E+00-7.54172E+01 2.17332E+03 5.83960E-09-3.39175E-09
 -1       864-4.35945E+04 1.80390E-01-2.39977E+01-2.06184E+02 2.56941E-09 1.24253E-09
 -1       865-4.35898E+04 8.62690E+00 1.31377E+01 2.17010E+03 4.27323E-09-4.37836E-09
 -1       866-4.35992E+04-6.84416E+00 4.98405E+01-2.03581E+02-3.64523E-10-1.73382E-09
 -1       867-4.35616E+04 5.80651E+01 1.37028E+02 2.16308E+03 1.09749E-09 3.06599E-10
 -1       868-4.36220E+04-4.85412E+01 2.31905E+02-1.99163E+02-5.87931E-10-2.30031E-09
 -1       869-4.33894E+04 4.04262E+02 6.21758E+02 2.15075E+03-3.72972E-09-7.16612E-09
 -1       870-4.37703E+04-3.43876E+02 9.02803E+02-1.91250E+02 8.40231E-10 8.64134E-10
 -1       871-1.92243E+03-4.01725E+03-6.30003E+03 4.13146E+04 1.47475E-09 1.73077E-09
 -1       872-8.29526E+02-5.42306E+03-2.56557E+03 5.35602E+04 2.86991E-09 1.79637E-09
 -1       873-9.84303E+00-4.75455E+03 3.76714E+02 4.12225E+04 1.31013E-09-1.84633E-09
 -1       874 9.85090E+02-3.83748E+03 3.59789E+03 5.35798E+04 2.61753E-09-2.83023E-09
 -1       875 2.32163E+03-5.61566E+03 7.97463E+03 4.12973E+04 1.50067E-09-1.16188E-10
 -1       876 1.03542E+05 1.78272E+04 5.55284E+03 4.19880E+04-3.08393E-09 7.20320E-10
 -1       877 1.03858E+05 1.90469E+04 2.96523E+03 4.36328E+04-4.85716E-09-4.57652E-09
 -1       878 1.04062E+05 1.72116E+04 1.24237E+03 4.24436E+04 3.81419E-10 4.42242E-10
 -1       879 1.03103E+05 1.82950E+04 6.18807E+02 4.36736E+04-1.07627E-09 5.67866E-09
 -1       880 1.04101E+05 1.72040E+04 2.88130E+02 4.24622E+04 3.26725E-09 5.19211E-09
 -1       881 1.03053E+05 1.82633E+04 1.53389E+02 4.36669E+04 2.87599E-09 2.75850E-09
 -1       882 1.04105E+05 1.72081E+04 9.74010E+01 4.24628E+04 1.24572E-08-2.23356E-09
 -1       883 1.03049E+05 1.82619E+04 1.03480E+02 4.36652E+04 2.52839E-08 8.23535E-09
 -1       884 1.04103E+05 1.72067E+04 1.63543E+02 4.24628E+04 1.10699E-08-1.46798E-10
 -1       885 1.03062E+05 1.82643E+04 3.28151E+02 4.36695E+04 3.86289E-09 4.15770E-09
 -1       886 1.04091E+05 1.71972E+04 6.61103E+02 4.24616E+04-7.72037E-09-1.41581E-08
 -1       887 1.03178E+05 1.83404E+04 1.44405E+03 4.36860E+04-2.46195E-09-6.54666E-10
 -1       888 1.03999E+05 1.72136E+04 2.90986E+03 4.24154E+04 3.73775E-09-1.34060E-09
 -1       889 1.04913E+05 2.01407E+04 6.95179E+03 4.36302E+04 3.34956E-09-4.43379E-12
 -1       890 1.02812E+05 1.86227E+04 1.30198E+04 4.13064E+04 1.75044E-09-6.37601E-09
 -1       891-6.07189E+01-5.89019E+04-6.92496E+02 1.12059E+04-4.28088E-10 2.36270E-09
 -1       892-1.06020E+02-5.90710E+04-7.54733E+02 1.69629E+04-1.38743E-09 2.41062E-09
 -1       893-1.27653E+01-5.89259E+04-1.07938E+03 1.12079E+04-6.36646E-11 2.05409E-09
 -1       894-5.81489E+02-5.94921E+04-2.24267E+03 1.69033E+04 3.88809E-11-1.32434E-09
 -1       895-4.51987E+02-5.84646E+04-3.95117E+03 1.12651E+04 1.08784E-09-3.14685E-09
 -1       956-1.30015E+05-1.87600E+03-4.72205E+03 8.59208E+03-2.23349E-09 4.79076E-10
 -1       957-1.30947E+05-6.34353E+02-2.42432E+03 1.03405E+04-6.64613E-10 4.58067E-09
 -1       958-1.30431E+05-5.18724E+01-1.09203E+03 8.53656E+03 1.35196E-09-1.64573E-09
 -1       959-1.30504E+05-1.19072E+01-5.57898E+02 1.04006E+04-1.03444E-09 3.27657E-09
 -1       960-1.30466E+05 1.27549E+01-2.71835E+02 8.53156E+03-2.57137E-09 1.55046E-09
 -1       961-1.30470E+05 1.02519E+01-1.44190E+02 1.04061E+04-3.22552E-09-1.69177E-09
 -1       962-1.30472E+05 9.81089E+00-8.22892E+01 8.53098E+03-1.42779E-09-7.07132E-10
 -1       963-1.30467E+05 1.00457E+01-6.57063E+01 1.04069E+04-2.09650E-09 1.57399E-09
 -1       964-1.30473E+05 1.02342E+01-7.92363E+01 8.53078E+03-5.97424E-10-1.42683E-09
 -1       965-1.30471E+05 1.12462E+01-1.36482E+02 1.04069E+04 2.12307E-09-7.22082E-10
 -1       966-1.30469E+05 1.39761E+01-2.55870E+02 8.53103E+03-7.76254E-10-3.83068E-10
 -1       967-1.30506E+05-8.54824E+00-5.24623E+02 1.04038E+04-1.15824E-09 2.94574E-09
 -1       968-1.30438E+05-4.57974E+01-1.02645E+03 8.53390E+03-3.74143E-10 1.87606E-09
 -1       969-1.30924E+05-5.92769E+02-2.27898E+03 1.03688E+04 2.26237E-10 2.10221E-10
 -1       970-1.30048E+05-1.75994E+03-4.43871E+03 8.56677E+03 7.96717E-10 1.99816E-09
 -1       971-1.23602E+05-6.54554E+02-3.63949E+03 6.10466E+03-2.50679E-09-1.05068E-09
 -1       972-1.24487E+05-4.71656E+02-1.98241E+03 8.51326E+03-1.36595E-09-1.61623E-09
 -1       973-1.24004E+05-5.80896E+00-8.87295E+02 6.05524E+03-1.42882E-09-1.05979E-09
 -1       974-1.24064E+05-8.42336E+00-4.59819E+02 8.56612E+03 4.90445E-10-4.75211E-10
 -1       975-1.24033E+05 9.57801E+00-2.29098E+02 6.05146E+03 1.03159E-09 2.43745E-10
 -1       976-1.24036E+05 9.15553E+00-1.31257E+02 8.57040E+03-9.46955E-10-1.01227E-09
 -1       977-1.24038E+05 8.38636E+00-9.33545E+01 6.05093E+03 4.63046E-10 2.18773E-09
 -1       978-1.24036E+05 1.04104E+01-1.06794E+02 8.57112E+03 5.57185E-09 2.75077E-09
 -1       979-1.24037E+05 1.07547E+01-1.69346E+02 6.05073E+03 3.51210E-09 2.07586E-09
 -1       980-1.24048E+05 1.12240E+01-3.25583E+02 8.57116E+03 3.43455E-09-1.39721E-10
 -1       981-1.24027E+05 1.89324E+01-6.29742E+02 6.05089E+03 7.18273E-10 3.49229E-09
 -1       982-1.24135E+05-3.48448E+01-1.30119E+03 8.56897E+03-2.51720E-09-3.96037E-09
 -1       983-1.23948E+05-2.06697E+01-2.52779E+03 6.05298E+03-6.59043E-10 1.81558E-10
 -1       984-1.25353E+05-1.35374E+03-5.66043E+03 8.53543E+03-2.42096E-09 4.66383E-09
 -1       985-1.22805E+05-1.86956E+03-1.03943E+04 6.08581E+03 2.12322E-09 1.06866E-09
 -3
    1PSTEP                         3           2           1          
  100CL  102 3.12500E-01         409                     0    2           1
 -4  DISP        4    1
 -5  D1          1    2    1    0
 -5  D2          1    2    2    0
 -5  D3          1    2    3    0
 -5  ALL         1    2    0    0    1ALL
 -1         1 8.16786E-05 0.00000E+00 0.00000E+00
 -1         2 7.54126E-05 1.49029E-29 0.00000E+00
 -1         3 6.90187E-05 7.83381E-28 3.30872E-24
 -1         5 5.01712E-05 2.22392E-26 0.00000E+00
 -1         8 6.52027E-05-5.91688E-07 0.00000E+00
 -1         9 6.62609E-05 3.94827E-07 0.00000E+00
 -1        10 6.42650E-05-9.52467E-07 6.61744E-24
 -1        12 4.98162E-05 3.40572E-07-1.65436E-24
 -1        15 4.55996E-05-6.38680E-07-2.06795E-25
 -1        16 4.71694E-05 3.13542E-07 0.00000E+00
 -1        17 4.81574E-05-2.04292E-06 0.00000E+00
 -1        18 4.80930E-05 1.35311E-07 0.00000E+00
 -1        19 4.87516E-05 6.79284E-07 0.00000E+00
 -1        20 4.88411E-05 1.00920E-05 0.00000E+00
 -1        21 4.85043E-05 1.90840E-05 0.00000E+00
 -1        24 1.23143E-05-2.71960E-06 0.00000E+00
 -1        25 4.69603E-05 2.13354E-07 0.00000E+00
 -1        26 4.75823E-05 9.46497E-07 0.00000E+00
 -1        27 4.66406E-05 8.57809E-06 0.00000E+00
 -1        28 4.63359E-05 1.87930E-05 0.00000E+00
 -1        32 0.00000E+00 0.00000E+00 0.00000E+00
 -1        33 4.55990E-05 1.26932E-06 0.00000E+00
 -1        34 4.46887E-05 8.56464E-06 0.00000E+00
 -1        35 4.38236E-05 1.86395E-05 0.00000E+00
 -1        51 8.06067E-05-9.81582E-08 0.00000E+00
 -1        52 7.86203E-05-1.93513E-07 0.00000E+00
 -1        53 7.58993E-05-2.89391E-07 0.00000E+00
 -1        54 7.26310E-05-3.86701E-07 0.00000E+00
 -1        55 6.90028E-05-4.86048E-07 5.16988E-24
 -1        56 8.09301E-05-4.65345E-07-1.32349E-23
 -1        57 8.02635E-05-1.23366E-06 1.32349E-23
 -1        58 7.96796E-05-2.21783E-06 0.00000E+00
 -1        59 7.91417E-05-3.33964E-06 0.00000E+00
 -1        60 7.86224E-05-4.51135E-06-2.64698E-23
 -1        61 7.80882E-05-5.64619E-06 0.00000E+00
 -1        62 7.75081E-05-6.65851E-06 0.00000E+00
 -1        63 7.68510E-05-7.46534E-06 0.00000E+00
 -1        64 7.60888E-05-7.99186E-06 0.00000E+00
 -1        65 7.51956E-05-8.16876E-06 0.00000E+00
 -1        66 7.41506E-05-7.94079E-06 2.64698E-23
 -1        67 7.29364E-05-7.26041E-06 0.00000E+00
 -1        68 7.15412E-05-6.09868E-06 0.00000E+00
 -1        69 6.99615E-05-4.43431E-06 0.00000E+00
 -1        70 6.81913E-05-2.26973E-06 0.00000E+00
 -1        86 7.51718E-05 7.05760E-08 0.00000E+00
 -1        87 7.44484E-05 1.40561E-07 8.27181E-25
 -1        88 7.32238E-05 2.10023E-07-8.27181E-25
 -1        89 7.14777E-05 2.76435E-07-5.16988E-26
 -1        90 6.91705E-05 3.42530E-07-3.30872E-24
 -1       121 6.88862E-05-1.58251E-07-3.30872E-24
 -1       122 6.84890E-05-3.16577E-07-1.65436E-24
 -1       123 6.78274E-05-4.75046E-07 0.00000E+00
 -1       124 6.69021E-05-6.33772E-07-3.30872E-24
 -1       125 6.57142E-05-7.92757E-07-3.30872E-24
 -1       191 5.01614E-05 5.67662E-08-3.30872E-24
 -1       192 5.01318E-05 1.13531E-07-1.65436E-24
 -1       193 5.00825E-05 1.70296E-07-3.30872E-24
 -1       194 5.00135E-05 2.27059E-07-1.65436E-24
 -1       195 4.99247E-05 2.83818E-07 0.00000E+00
 -1       251 6.52547E-05 2.11603E-06 0.00000E+00
 -1       252 6.53210E-05 3.72319E-06 0.00000E+00
 -1       253 6.53875E-05 4.41646E-06-8.27181E-25
 -1       254 6.54565E-05 4.37975E-06-8.27181E-25
 -1       255 6.55255E-05 3.77035E-06 0.00000E+00
 -1       256 6.55945E-05 2.74388E-06 0.00000E+00
 -1       257 6.56633E-05 1.44066E-06 0.00000E+00
 -1       258 6.57320E-05 1.98359E-10 8.27181E-25
 -1       259 6.58007E-05-1.44307E-06 0.00000E+00
 -1       260 6.58695E-05-2.75467E-06 8.27181E-25
 -1       261 6.59385E-05-3.79532E-06 1.65436E-24
 -1       262 6.60074E-05-4.42496E-06 8.27181E-25
 -1       263 6.60764E-05-4.48840E-06 0.00000E+00
 -1       264 6.61429E-05-3.82883E-06-1.03398E-25
 -1       265 6.62091E-05-2.26306E-06 0.00000E+00
 -1       266 6.19355E-05-6.07637E-07 0.00000E+00
 -1       267 5.86684E-05-6.14479E-07 8.27181E-25
 -1       268 5.54012E-05-6.21899E-07 0.00000E+00
 -1       269 5.21340E-05-6.27610E-07-2.06795E-25
 -1       270 4.88668E-05-6.33281E-07 0.00000E+00
 -1       271 6.32173E-05 1.84023E-06 0.00000E+00
 -1       272 6.15333E-05 3.37884E-06-1.32349E-23
 -1       273 6.01443E-05 4.13755E-06-2.64698E-23
 -1       274 5.90019E-05 4.22537E-06 1.32349E-23
 -1       275 5.80653E-05 3.76381E-06 0.00000E+00
 -1       276 5.72861E-05 2.87930E-06 0.00000E+00
 -1       277 5.66155E-05 1.70426E-06-2.64698E-23
 -1       278 5.60027E-05 3.74391E-07-1.32349E-23
 -1       279 5.53962E-05-9.72521E-07 0.00000E+00
 -1       280 5.47445E-05-2.19846E-06 1.32349E-23
 -1       281 5.39967E-05-3.16710E-06 0.00000E+00
 -1       282 5.31032E-05-3.74514E-06 0.00000E+00
 -1       283 5.20155E-05-3.80457E-06 0.00000E+00
 -1       284 5.06906E-05-3.22258E-06 1.32349E-23
 -1       285 4.90811E-05-1.88720E-06-2.64698E-23
 -1       301 6.30268E-05 3.77376E-07-3.30872E-24
 -1       302 5.97939E-05 3.69665E-07 1.65436E-24
 -1       303 5.65770E-05 3.62246E-07 3.30872E-24
 -1       304 5.33909E-05 3.53756E-07 1.65436E-24
 -1       305 5.02502E-05 3.43758E-07-6.61744E-24
 -1       306 6.42146E-05 2.77099E-06 0.00000E+00
 -1       307 6.24828E-05 4.21246E-06 0.00000E+00
 -1       308 6.10953E-05 4.74595E-06 0.00000E+00
 -1       309 6.00275E-05 4.41032E-06-1.32349E-23
 -1       310 5.92366E-05 3.33519E-06-2.64698E-23
 -1       311 5.86648E-05 1.67080E-06 0.00000E+00
 -1       312 5.82348E-05-3.73499E-07-2.64698E-23
 -1       313 5.78639E-05-2.57693E-06-1.32349E-23
 -1       314 5.74640E-05-4.70255E-06-2.64698E-23
 -1       315 5.69478E-05-6.51583E-06 1.32349E-23
 -1       316 5.62391E-05-7.81384E-06-2.64698E-23
 -1       317 5.52688E-05-8.40921E-06-1.32349E-23
 -1       318 5.39909E-05-8.18483E-06 0.00000E+00
 -1       319 5.23769E-05-7.04633E-06 1.32349E-23
 -1       320 5.04159E-05-4.99517E-06 0.00000E+00
 -1       336 6.24989E-05-1.13225E-06 0.00000E+00
 -1       337 6.03607E-05-1.31312E-06 3.30872E-24
 -1       338 5.78533E-05-1.49477E-06-6.61744E-24
 -1       339 5.49806E-05-1.67709E-06-1.65436E-24
 -1       340 5.17469E-05-1.86052E-06 0.00000E+00
 -1       406 4.96881E-05 3.97317E-07 0.00000E+00
 -1       407 4.95401E-05 4.54041E-07 1.65436E-24
 -1       408 4.93725E-05 5.10727E-07 3.30872E-24
 -1       409 4.91851E-05 5.67306E-07 0.00000E+00
 -1       410 4.89781E-05 6.23665E-07 1.65436E-24
 -1       521 4.43523E-05 2.00933E-06-5.29396E-23
 -1       522 4.19440E-05 2.43194E-06-2.64698E-23
 -1       523 3.99925E-05 1.64979E-06 0.00000E+00
 -1       524 3.84408E-05-2.33081E-07 2.64698E-23
 -1       525 3.71986E-05-2.94601E-06-5.29396E-23
 -1       526 3.61474E-05-6.17766E-06 0.00000E+00
 -1       527 3.51450E-05-9.54081E-06-5.29396E-23
 -1       528 3.40446E-05-1.26419E-05-2.64698E-23
 -1       529 3.27138E-05-1.51249E-05 0.00000E+00
 -1       530 3.10319E-05-1.66673E-05-2.64698E-23
 -1       531 2.89277E-05-1.70823E-05 0.00000E+00
 -1       532 2.63542E-05-1.62434E-05 0.00000E+00
 -1       533 2.33286E-05-1.42057E-05-5.29396E-23
 -1       534 1.99050E-05-1.10841E-05 2.64698E-23
 -1       535 1.61716E-05-7.15795E-06-5.29396E-23
 -1       536 4.81434E-05 1.31416E-06 0.00000E+00
 -1       537 4.81366E-05 3.85746E-06 0.00000E+00
 -1       538 4.81311E-05 5.66489E-06 0.00000E+00
 -1       539 4.81274E-05 6.81449E-06 0.00000E+00
 -1       540 4.81243E-05 7.38834E-06-2.06795E-25
 -1       541 4.81215E-05 7.46862E-06 0.00000E+00
 -1       542 4.81187E-05 7.14045E-06 1.03398E-25
 -1       543 4.81158E-05 6.48901E-06-5.16988E-26
 -1       544 4.81127E-05 5.60139E-06 0.00000E+00
 -1       545 4.81095E-05 4.56472E-06 0.00000E+00
 -1       546 4.81062E-05 3.46701E-06 0.00000E+00
 -1       547 4.81030E-05 2.39628E-06 0.00000E+00
 -1       548 4.81000E-05 1.44037E-06 0.00000E+00
 -1       549 4.80972E-05 6.87137E-07 0.00000E+00
 -1       550 4.80946E-05 2.23246E-07 2.06795E-25
 -1       551 4.34000E-05-2.14634E-06 0.00000E+00
 -1       552 3.77119E-05-2.25270E-06-8.27181E-25
 -1       553 3.14240E-05-2.36258E-06 3.30872E-24
 -1       554 2.48718E-05-2.47567E-06 0.00000E+00
 -1       555 1.83909E-05-2.59014E-06-1.32349E-23
 -1       556 4.69102E-05 1.19279E-06 0.00000E+00
 -1       557 4.59571E-05 3.66588E-06 0.00000E+00
 -1       558 4.52659E-05 5.44673E-06 0.00000E+00
 -1       559 4.48075E-05 6.61125E-06 0.00000E+00
 -1       560 4.45527E-05 7.23514E-06 0.00000E+00
 -1       561 4.44725E-05 7.39451E-06 3.30872E-24
 -1       562 4.45380E-05 7.16555E-06 0.00000E+00
 -1       563 4.47204E-05 6.62446E-06 0.00000E+00
 -1       564 4.49912E-05 5.84755E-06 3.30872E-24
 -1       565 4.53218E-05 4.91109E-06 0.00000E+00
 -1       566 4.56834E-05 3.89140E-06 0.00000E+00
 -1       567 4.60477E-05 2.86482E-06 2.06795E-25
 -1       568 4.63860E-05 1.90765E-06 0.00000E+00
 -1       569 4.66697E-05 1.09613E-06 0.00000E+00
 -1       570 4.68705E-05 5.06508E-07 0.00000E+00
 -1       571 4.81330E-05 1.95608E-07 2.06795E-25
 -1       572 4.81739E-05 2.28680E-07 1.03398E-25
 -1       573 4.82150E-05 2.39369E-07 4.13590E-25
 -1       574 4.82562E-05 2.32774E-07-4.13590E-25
 -1       575 4.82975E-05 2.14016E-07 8.27181E-25
 -1       576 4.83388E-05 1.88249E-07-8.27181E-25
 -1       577 4.83801E-05 1.60632E-07 1.65436E-24
 -1       578 4.84214E-05 1.36328E-07-8.27181E-25
 -1       579 4.84627E-05 1.20498E-07 0.00000E+00
 -1       580 4.85040E-05 1.18306E-07 8.27181E-25
 -1       581 4.85453E-05 1.34914E-07 0.00000E+00
 -1       582 4.85866E-05 1.75479E-07 0.00000E+00
 -1       583 4.86279E-05 2.45150E-07 0.00000E+00
 -1       584 4.86692E-05 3.49028E-07 0.00000E+00
 -1       585 4.87105E-05 4.92181E-07 3.30872E-24
 -1       586 4.78902E-05 1.49131E-07 0.00000E+00
 -1       587 4.76699E-05 1.62603E-07 1.03398E-25
 -1       588 4.74493E-05 1.75924E-07 4.13590E-25
 -1       589 4.72460E-05 1.89034E-07 0.00000E+00
 -1       590 4.70774E-05 2.01787E-07 0.00000E+00
 -1       591 4.80513E-05 2.16535E-07 5.16988E-26
 -1       592 4.80164E-05 2.75202E-07 0.00000E+00
 -1       593 4.79883E-05 3.15602E-07 0.00000E+00
 -1       594 4.79653E-05 3.41598E-07 0.00000E+00
 -1       595 4.79463E-05 3.57105E-07 0.00000E+00
 -1       596 4.79297E-05 3.66008E-07 0.00000E+00
 -1       597 4.79141E-05 3.72192E-07 4.13590E-25
 -1       598 4.78980E-05 3.79538E-07-2.06795E-25
 -1       599 4.78801E-05 3.91927E-07 4.13590E-25
 -1       600 4.78588E-05 4.13238E-07-2.06795E-25
 -1       601 4.78328E-05 4.47353E-07-2.06795E-25
 -1       602 4.78005E-05 4.98156E-07 0.00000E+00
 -1       603 4.77605E-05 5.69531E-07-1.55096E-25
 -1       604 4.77116E-05 6.65396E-07 0.00000E+00
 -1       605 4.76522E-05 7.89614E-07 0.00000E+00
 -1       606 4.87593E-05 9.60366E-07 0.00000E+00
 -1       607 4.87655E-05 1.30045E-06 0.00000E+00
 -1       608 4.87713E-05 1.69606E-06 0.00000E+00
 -1       609 4.87769E-05 2.14331E-06 0.00000E+00
 -1       610 4.87824E-05 2.63827E-06 0.00000E+00
 -1       611 4.87879E-05 3.17695E-06 0.00000E+00
 -1       612 4.87934E-05 3.75537E-06 0.00000E+00
 -1       613 4.87988E-05 4.36956E-06 8.27181E-25
 -1       614 4.88042E-05 5.01553E-06 0.00000E+00
 -1       615 4.88095E-05 5.68927E-06 0.00000E+00
 -1       616 4.88149E-05 6.38682E-06 0.00000E+00
 -1       617 4.88202E-05 7.10419E-06 0.00000E+00
 -1       618 4.88255E-05 7.83737E-06-4.13590E-25
 -1       619 4.88308E-05 8.58240E-06 0.00000E+00
 -1       620 4.88361E-05 9.33528E-06-2.06795E-25
 -1       621 4.85284E-05 7.23850E-07 8.27181E-25
 -1       622 4.83210E-05 7.68633E-07-8.27181E-25
 -1       623 4.81260E-05 8.13410E-07 0.00000E+00
 -1       624 4.79402E-05 8.58116E-07 0.00000E+00
 -1       625 4.77601E-05 9.02745E-07-8.27181E-25
 -1       626 4.86939E-05 9.74375E-07 0.00000E+00
 -1       627 4.86182E-05 1.31833E-06-3.30872E-24
 -1       628 4.85259E-05 1.70661E-06 0.00000E+00
 -1       629 4.84189E-05 2.13440E-06 0.00000E+00
 -1       630 4.82989E-05 2.59686E-06 0.00000E+00
 -1       631 4.81676E-05 3.08910E-06 0.00000E+00
 -1       632 4.80270E-05 3.60627E-06 0.00000E+00
 -1       633 4.78789E-05 4.14348E-06 0.00000E+00
 -1       634 4.77251E-05 4.69587E-06-1.65436E-24
 -1       635 4.75674E-05 5.25856E-06-8.27181E-25
 -1       636 4.74077E-05 5.82669E-06 0.00000E+00
 -1       637 4.72478E-05 6.39537E-06 0.00000E+00
 -1       638 4.70894E-05 6.95973E-06-1.65436E-24
 -1       639 4.69344E-05 7.51490E-06-4.13590E-25
 -1       640 4.67844E-05 8.05600E-06 0.00000E+00
 -1       656 4.82124E-05 9.84572E-06 0.00000E+00
 -1       657 4.78057E-05 9.58956E-06-3.30872E-24
 -1       658 4.75351E-05 9.33418E-06 0.00000E+00
 -1       659 4.73130E-05 9.07902E-06 0.00000E+00
 -1       660 4.70459E-05 8.82304E-06 0.00000E+00
 -1       661 4.86085E-05 1.08336E-05 8.27181E-25
 -1       662 4.83897E-05 1.15437E-05 4.13590E-25
 -1       663 4.81823E-05 1.22230E-05-8.27181E-25
 -1       664 4.79863E-05 1.28729E-05 0.00000E+00
 -1       665 4.78009E-05 1.34946E-05 1.65436E-24
 -1       666 4.76257E-05 1.40893E-05 8.27181E-25
 -1       667 4.74603E-05 1.46582E-05 1.65436E-24
 -1       668 4.73040E-05 1.52025E-05 8.27181E-25
 -1       669 4.71567E-05 1.57232E-05 1.65436E-24
 -1       670 4.70177E-05 1.62214E-05 0.00000E+00
 -1       671 4.68868E-05 1.66982E-05-1.65436E-24
 -1       672 4.67635E-05 1.71545E-05-4.13590E-25
 -1       673 4.66475E-05 1.75913E-05 0.00000E+00
 -1       674 4.65379E-05 1.80095E-05 4.13590E-25
 -1       675 4.64351E-05 1.84101E-05-4.13590E-25
 -1       676 4.81423E-05 1.90352E-05 0.00000E+00
 -1       677 4.77804E-05 1.89865E-05-8.27181E-25
 -1       678 4.74187E-05 1.89377E-05 1.65436E-24
 -1       679 4.70574E-05 1.88891E-05 0.00000E+00
 -1       680 4.66964E-05 1.88405E-05 0.00000E+00
 -1       771 9.87148E-06 1.90428E-06 0.00000E+00
 -1       772 7.74273E-06 5.68364E-06-1.32349E-23
 -1       773 5.91471E-06 8.66817E-06 0.00000E+00
 -1       774 4.36689E-06 1.09100E-05 1.32349E-23
 -1       775 3.07923E-06 1.24619E-05-2.64698E-23
 -1       776 2.03096E-06 1.33780E-05-1.32349E-23
 -1       777 1.20109E-06 1.37132E-05 0.00000E+00
 -1       778 5.68348E-07 1.35232E-05-1.32349E-23
 -1       779 1.11316E-07 1.28645E-05 0.00000E+00
 -1       780-1.91680E-07 1.17944E-05 0.00000E+00
 -1       781-3.62370E-07 1.03705E-05 0.00000E+00
 -1       782-4.22688E-07 8.65129E-06 0.00000E+00
 -1       783-3.94597E-07 6.69537E-06 0.00000E+00
 -1       784-3.00158E-07 4.56189E-06 0.00000E+00
 -1       785-1.61506E-07 2.31016E-06 0.00000E+00
 -1       786 4.69969E-05 2.12410E-07 0.00000E+00
 -1       787 4.70357E-05 2.12768E-07 0.00000E+00
 -1       788 4.70743E-05 2.14951E-07 8.27181E-25
 -1       789 4.71134E-05 2.19482E-07 4.13590E-25
 -1       790 4.71525E-05 2.27094E-07 0.00000E+00
 -1       791 4.71916E-05 2.38525E-07 4.13590E-25
 -1       792 4.72308E-05 2.54854E-07 8.27181E-25
 -1       793 4.72699E-05 2.77168E-07 0.00000E+00
 -1       794 4.73091E-05 3.07084E-07-1.65436E-24
 -1       795 4.73483E-05 3.46237E-07 0.00000E+00
 -1       796 4.73874E-05 3.97079E-07 0.00000E+00
 -1       797 4.74266E-05 4.62085E-07 4.13590E-25
 -1       798 4.74657E-05 5.44989E-07 8.27181E-25
 -1       799 4.75048E-05 6.49556E-07 0.00000E+00
 -1       800 4.75438E-05 7.81479E-07 0.00000E+00
 -1       801 4.37891E-05 2.16162E-07-4.13590E-25
 -1       802 3.43533E-05 1.81139E-07 0.00000E+00
 -1       803 2.19562E-05 1.16537E-07 1.65436E-24
 -1       804 9.89992E-06 5.14533E-08-1.65436E-24
 -1       805 1.48100E-06 2.15676E-08-6.61744E-24
 -1       806 4.69126E-05 1.85887E-07 0.00000E+00
 -1       807 4.68629E-05 1.58575E-07 8.27181E-25
 -1       808 4.68116E-05 1.34456E-07 1.65436E-24
 -1       809 4.67579E-05 1.16108E-07 0.00000E+00
 -1       810 4.67010E-05 1.06103E-07 0.00000E+00
 -1       811 4.66401E-05 1.06974E-07 8.27181E-25
 -1       812 4.65740E-05 1.21254E-07 1.65436E-24
 -1       813 4.65020E-05 1.51467E-07 4.13590E-25
 -1       814 4.64231E-05 2.00139E-07-8.27181E-25
 -1       815 4.63363E-05 2.69791E-07-4.13590E-25
 -1       816 4.62407E-05 3.62945E-07 1.65436E-24
 -1       817 4.61354E-05 4.82123E-07-8.27181E-25
 -1       818 4.60193E-05 6.29844E-07 0.00000E+00
 -1       819 4.58917E-05 8.08619E-07 0.00000E+00
 -1       820 4.57517E-05 1.02096E-06 0.00000E+00
 -1       821 4.75268E-05 1.14387E-06 0.00000E+00
 -1       822 4.74679E-05 1.37302E-06 0.00000E+00
 -1       823 4.74092E-05 1.64436E-06 0.00000E+00
 -1       824 4.73499E-05 1.96816E-06 8.27181E-25
 -1       825 4.72905E-05 2.34811E-06 0.00000E+00
 -1       826 4.72310E-05 2.78775E-06 8.27181E-25
 -1       827 4.71714E-05 3.28310E-06 0.00000E+00
 -1       828 4.71118E-05 3.83005E-06 0.00000E+00
 -1       829 4.70521E-05 4.41800E-06 0.00000E+00
 -1       830 4.69925E-05 5.03621E-06 0.00000E+00
 -1       831 4.69328E-05 5.67018E-06 0.00000E+00
 -1       832 4.68733E-05 6.30534E-06 0.00000E+00
 -1       833 4.68139E-05 6.92695E-06 1.65436E-24
 -1       834 4.67551E-05 7.52037E-06-4.13590E-25
 -1       835 4.66961E-05 8.07442E-06 4.13590E-25
 -1       836 4.73419E-05 1.00023E-06 0.00000E+00
 -1       837 4.70304E-05 1.05516E-06-8.27181E-25
 -1       838 4.66741E-05 1.10999E-06 0.00000E+00
 -1       839 4.62992E-05 1.16447E-06 0.00000E+00
 -1       840 4.59321E-05 1.21887E-06-2.06795E-25
 -1       856 4.66236E-05 9.09120E-06-1.03398E-25
 -1       857 4.66048E-05 9.66917E-06 1.03398E-25
 -1       858 4.65861E-05 1.03018E-05-4.13590E-25
 -1       859 4.65669E-05 1.09787E-05 0.00000E+00
 -1       860 4.65477E-05 1.16896E-05 0.00000E+00
 -1       861 4.65285E-05 1.24242E-05 2.06795E-25
 -1       862 4.65092E-05 1.31721E-05 4.13590E-25
 -1       863 4.64899E-05 1.39229E-05 0.00000E+00
 -1       864 4.64706E-05 1.46663E-05 0.00000E+00
 -1       865 4.64514E-05 1.53919E-05 0.00000E+00
 -1       866 4.64321E-05 1.60893E-05 0.00000E+00
 -1       867 4.64128E-05 1.67481E-05 0.00000E+00
 -1       868 4.63936E-05 1.73582E-05 8.27181E-25
 -1       869 4.63744E-05 1.79092E-05-4.13590E-25
 -1       870 4.63552E-05 1.83908E-05 0.00000E+00
 -1       871 4.62493E-05 8.57761E-06 2.06795E-25
 -1       872 4.59203E-05 8.57583E-06 0.00000E+00
 -1       873 4.56268E-05 8.57382E-06 0.00000E+00
 -1       874 4.53417E-05 8.57149E-06 0.00000E+00
 -1       875 4.50379E-05 8.56888E-06 4.13590E-25
 -1       876 4.65048E-05 9.09653E-06 0.00000E+00
 -1       877 4.63585E-05 9.64654E-06 8.27181E-25
 -1       878 4.62019E-05 1.02243E-05 0.00000E+00
 -1       879 4.60364E-05 1.08262E-05-8.27181E-25
 -1       880 4.58632E-05 1.14487E-05 0.00000E+00
 -1       881 4.56836E-05 1.20883E-05 0.00000E+00
 -1       882 4.54989E-05 1.27414E-05 0.00000E+00
 -1       883 4.53105E-05 1.34044E-05-8.27181E-25
 -1       884 4.51197E-05 1.40738E-05-1.65436E-24
 -1       885 4.49278E-05 1.47461E-05-8.27181E-25
 -1       886 4.47361E-05 1.54177E-05 0.00000E+00
 -1       887 4.45460E-05 1.60850E-05 0.00000E+00
 -1       888 4.43587E-05 1.67445E-05-1.65436E-24
 -1       889 4.41754E-05 1.73926E-05 0.00000E+00
 -1       890 4.39974E-05 1.80257E-05 0.00000E+00
 -1       891 4.59879E-05 1.87673E-05 0.00000E+00
 -1       892 4.56288E-05 1.87415E-05 2.06795E-25
 -1       893 4.52455E-05 1.87158E-05 8.27181E-25
 -1       894 4.48255E-05 1.86901E-05-2.06795E-25
 -1       895 4.43557E-05 1.86644E-05-3.10193E-25
 -1       956 4.55431E-05 1.59126E-06 8.27181E-25
 -1       957 4.54864E-05 1.94969E-06 4.13590E-25
 -1       958 4.54294E-05 2.34081E-06 0.00000E+00
 -1       959 4.53724E-05 2.76062E-06 0.00000E+00
 -1       960 4.53153E-05 3.20509E-06 1.65436E-24
 -1       961 4.52582E-05 3.67017E-06 8.27181E-25
 -1       962 4.52011E-05 4.15182E-06 1.65436E-24
 -1       963 4.51440E-05 4.64600E-06-8.27181E-25
 -1       964 4.50869E-05 5.14865E-06-1.65436E-24
 -1       965 4.50297E-05 5.65573E-06 8.27181E-25
 -1       966 4.49726E-05 6.16318E-06 1.65436E-24
 -1       967 4.49155E-05 6.66696E-06 0.00000E+00
 -1       968 4.48584E-05 7.16301E-06 1.65436E-24
 -1       969 4.48015E-05 7.64731E-06 0.00000E+00
 -1       970 4.47446E-05 8.11582E-06-1.65436E-24
 -1       971 4.46353E-05 9.02571E-06 8.27181E-25
 -1       972 4.45812E-05 9.53496E-06 4.13590E-25
 -1       973 4.45270E-05 1.00870E-05 0.00000E+00
 -1       974 4.44726E-05 1.06764E-05 0.00000E+00
 -1       975 4.44183E-05 1.12975E-05 1.65436E-24
 -1       976 4.43639E-05 1.19449E-05-8.27181E-25
 -1       977 4.43095E-05 1.26129E-05 1.65436E-24
 -1       978 4.42551E-05 1.32961E-05-8.27181E-25
 -1       979 4.42007E-05 1.39888E-05 0.00000E+00
 -1       980 4.41462E-05 1.46855E-05 0.00000E+00
 -1       981 4.40918E-05 1.53807E-05 0.00000E+00
 -1       982 4.40375E-05 1.60688E-05 0.00000E+00
 -1       983 4.39832E-05 1.67443E-05 1.65436E-24
 -1       984 4.39292E-05 1.74015E-05 0.00000E+00
 -1       985 4.38754E-05 1.80351E-05-1.65436E-24
 -3
    1PSTEP                         4           2           1          
  100CL  102 3.12500E-01         409                     0    2           1
 -4  STRESS      6    1
 -5  SXX         1    4    1    1
 -5  SYY         1    4    2    2
 -5  SZZ         1    4    3    3
 -5  SXY         1    4    1    2
 -5  SYZ         1    4    2    3
 -5  SZX         1    4    3    1
 -1         1-1.07866E+06-4.96900E+05-2.19309E+05-6.97893E+05 4.36557E-11-3.93629E-09
 -1         2 1.81043E+03 2.04319E+05 5.90963E+03 4.18971E+02-1.18519E-10 6.05948E-09
 -1         3-2.23942E+01-4.52310E+05 1.62833E+02-9.63944E+01-9.58469E-11 8.48922E-09
 -1         5-3.18696E+00 1.62418E+05 4.25453E+00-2.28492E-02 4.45065E-11-9.57607E-09
 -1         8-5.07910E+05-2.21426E+05-1.71314E+04-3.85648E+05-1.94632E-10 2.68483E-09
 -1         9-8.71520E+05-2.25483E+05-8.62179E+04-3.01386E+05 2.25264E-09-4.95638E-09
 -1        10-7.24082E+02-4.81909E+05-9.44353E+02-7.01713E+02-8.76980E-10-2.39376E-09
 -1        12-1.44103E+00 1.62427E+05 1.37934E+02 1.11508E-01 1.75508E-10-1.35078E-08
 -1        15 1.34487E+03 7.39075E+02 4.34726E+03 1.90010E+00-2.15235E-09-6.69015E-07
 -1        16-2.45702E+06-7.90153E+05-3.81996E+05-8.03155E+05 7.48453E-09-3.59917E-09
 -1        17-5.42769E+05-3.38347E+05-1.04853E+05-3.15155E+05-4.96220E-10-1.26602E-10
 -1        18 1.84263E+04 1.59046E+03-7.85907E+03-3.82474E+04 5.03292E-10 1.07980E-09
 -1        19 5.08867E+04 6.06958E+04-2.81064E+02 9.96691E+03-4.07272E-10 3.49974E-09
 -1        20-2.10936E+04-2.40512E+05-5.30325E+04 1.78834E+04 2.22159E-09-3.56370E-09
 -1        21-2.27750E+01-1.39534E+05-4.50721E+02-3.46462E+01-6.18265E-09-6.80086E-09
 -1        24-2.15822E+06-7.49358E+05-3.08068E+05-9.13408E+05-1.02094E-08-4.45289E-09
 -1        25 1.91436E+04-2.51818E+03 1.13729E+04-6.90721E+04 2.45018E-10 1.63964E-09
 -1        26-1.17351E+04 4.14874E+04-8.21578E+03-5.94603E+03 1.02627E-09 2.47059E-10
 -1        27-3.85303E+04-1.31978E+05-4.95139E+04 2.97411E+04 3.49693E-09-2.41789E-09
 -1        28 1.07839E+04-3.85432E+04 7.87670E+03 1.23692E+04 2.46868E-09 1.35039E-10
 -1        32-5.14600E+05-7.54333E+04 2.22387E+05-3.46921E+05-1.00190E-08 9.52835E-09
 -1        33-7.54779E+04 3.88245E+04 1.37629E+04-2.25656E+04 8.14339E-10 6.74966E-09
 -1        34-9.80065E+04-9.75349E+03 2.31648E+02 3.01298E+04 2.34009E-09-7.74359E-10
 -1        35-1.09717E+04-1.53293E+04-5.98030E+02 2.43022E+04 4.95062E-09-1.68014E-09
 -1        51 9.89270E+03-2.54408E+05 2.43868E+04-6.29838E+05 1.30967E-10-9.38599E-10
 -1        52 5.22658E+03-2.52462E+05 1.61580E+04-7.34592E+05 3.78350E-10-3.79077E-09
 -1        53 3.43696E+03-2.59087E+05 1.41176E+04-6.27692E+05 5.78439E-10 6.54836E-10
 -1        54 1.07553E+04-2.56985E+05 2.28872E+04-7.36868E+05-8.00355E-11-1.10449E-08
 -1        55 2.35531E+04-2.65390E+05 4.11834E+04-6.27406E+05 1.45519E-10-2.13913E-09
 -1        56-2.07175E+06-2.34177E+05-1.61874E+05-7.98960E+05 4.94765E-10-6.41739E-09
 -1        57-2.13677E+06-3.80564E+05-1.09101E+05-7.92729E+05 3.50610E-10-9.02219E-10
 -1        58-2.10413E+06-2.85563E+05-3.81054E+04-7.88967E+05 3.81533E-10-1.68438E-09
 -1        59-2.09929E+06-3.20329E+05-2.27479E+04-8.04741E+05 9.09495E-12-5.17116E-09
 -1        60-2.10891E+06-2.92682E+05-8.90552E+03-7.87567E+05-9.48148E-11-1.09185E-09
 -1        61-2.09423E+06-3.11513E+05-5.06425E+03-8.05810E+05-4.18822E-10-2.45979E-09
 -1        62-2.10912E+06-2.94163E+05-2.44158E+03-7.87964E+05 3.97904E-11-1.89183E-09
 -1        63-2.09502E+06-3.08935E+05-2.00759E+03-8.04160E+05 2.83308E-09 2.50822E-09
 -1        64-2.10808E+06-2.95260E+05-2.30973E+03-7.89197E+05-8.65384E-10-4.95675E-10
 -1        65-2.09816E+06-3.07230E+05-4.62012E+03-8.00962E+05-1.40028E-09-3.18039E-09
 -1        66-2.10594E+06-2.95922E+05-8.13530E+03-7.91118E+05 1.89277E-09-9.63155E-10
 -1        67-2.10634E+06-3.11563E+05-2.06402E+04-7.95745E+05-5.86198E-10-8.15362E-10
 -1        68-2.09992E+06-2.91154E+05-3.46514E+04-7.94321E+05 1.94541E-09 8.20364E-10
 -1        69-2.14332E+06-3.63351E+05-9.90771E+04-7.81528E+05 0.00000E+00 7.22866E-09
 -1        70-2.06925E+06-2.45696E+05-1.47077E+05-8.04780E+05-6.56655E-10-4.08181E-09
 -1        86-9.07836E+02 2.02509E+05 6.33336E+03-2.09498E+02 7.94444E-10 7.12640E-09
 -1        87 6.02571E+03 2.06378E+05 1.32109E+04 8.60741E+02 1.34241E-09 4.03348E-09
 -1        88-5.11113E+03 2.00451E+05 2.02281E+04-6.51271E+02 2.00544E-09 4.63814E-09
 -1        89 3.80907E+04 2.21323E+05 5.45489E+04 1.84984E+03 3.04135E-09-2.85907E-09
 -1        90-3.28689E+04 1.87573E+05 7.70565E+04-1.19832E+03 3.46699E-09-5.36050E-09
 -1       121-4.94465E+01-4.52473E+05 1.72401E+02 4.81648E+01 2.22613E-10-6.72117E-10
 -1       122 2.94591E+01-4.52274E+05 3.57655E+02-1.92894E+02-8.01240E-10 8.76389E-09
 -1       123-8.77472E+01-4.52511E+05 6.00039E+02 1.44543E+02 6.21924E-10 2.87673E-09
 -1       124 6.67870E+02-4.51878E+05 1.50162E+03-4.59490E+02-1.58084E-09 2.01408E-09
 -1       125-5.04435E+02-4.52873E+05 2.34124E+03 3.14873E+02 9.58607E-10 2.08911E-09
 -1       191-3.48681E+00 1.62432E+05 5.07989E+00 1.11398E-02 1.04124E-10 2.59342E-09
 -1       192-3.57770E+00 1.62419E+05 9.00887E+00 2.76287E-01 1.63662E-10 7.65522E-09
 -1       193-4.52594E+00 1.62432E+05 1.67491E+01-2.89387E-01 1.97944E-10 1.09367E-09
 -1       194-4.83528E+00 1.62420E+05 3.40783E+01 7.76199E-01 1.34060E-10-1.32241E-09
 -1       195-6.52327E+00 1.62431E+05 6.66550E+01-4.92110E-01 2.73289E-10-9.61745E-09
 -1       251 1.84178E+05-3.19415E+04 7.46270E+04 2.93907E+03 1.11527E-10 2.08820E-09
 -1       252 2.17910E+05 3.69635E+04 5.29024E+04-9.78366E+03-1.13658E-10-4.09273E-11
 -1       253 1.96978E+05-4.94624E+03 1.93166E+04 2.08911E+03-1.62856E-10-3.20142E-09
 -1       254 2.02854E+05 5.71632E+03 1.21995E+04-8.43956E+03-3.20597E-11-6.54813E-09
 -1       255 1.99181E+05-7.64289E+02 4.99112E+03 1.59513E+03 2.82796E-11-1.15688E-09
 -1       256 2.00225E+05 9.06589E+02 3.03225E+03-7.70940E+03 4.39599E-10 8.47467E-09
 -1       257 1.99582E+05-1.33784E+02 1.56139E+03 1.35893E+03 2.96154E-11 4.38445E-09
 -1       258 1.99817E+05 2.82331E+02 1.38386E+03-7.47072E+03-1.63638E-10-1.62496E-09
 -1       259 1.99581E+05-1.36399E+02 1.58613E+03 1.35646E+03-3.69695E-11-6.21912E-09
 -1       260 2.00234E+05 9.29539E+02 3.10253E+03-7.70009E+03 6.58105E-11-6.47680E-09
 -1       261 1.99173E+05-7.84348E+02 5.11965E+03 1.58830E+03 9.42890E-10-5.38853E-09
 -1       262 2.02921E+05 5.86767E+03 1.25165E+04-8.41940E+03 1.67380E-09-1.49225E-09
 -1       263 1.96918E+05-5.07658E+03 1.98283E+04 2.07578E+03-3.22757E-10 5.06952E-09
 -1       264 2.18353E+05 3.79395E+04 5.42916E+04-9.75115E+03-1.81171E-09 6.96673E-09
 -1       265 1.83794E+05-3.27825E+04 7.66043E+04 2.91988E+03-7.66704E-10 1.52068E-09
 -1       266-2.43465E+04-1.13844E+04 5.71237E+04-4.06562E+01-3.27054E-09-1.04780E-06
 -1       267 2.82244E+04 1.32688E+04 4.03742E+04 4.69091E+01-6.54745E-09-2.07541E-06
 -1       268-3.78484E+03-1.87923E+03 1.50069E+04-5.97704E+00-5.16593E-09-1.66478E-06
 -1       269 4.46878E+03 2.24903E+03 9.75425E+03 6.96236E+00-3.84966E-09-1.25412E-06
 -1       270-6.70770E+02-3.69534E+02 4.70852E+03-9.44839E-01-2.87559E-09-9.20134E-07
 -1       271-2.39286E+06-2.97971E+05-1.84140E+05-9.31450E+05 5.34783E-10-1.73895E-09
 -1       272-2.44386E+06-4.47394E+05-1.18389E+05-9.47162E+05 8.02856E-10-6.30280E-09
 -1       273-2.42785E+06-3.43472E+05-4.34952E+04-9.22874E+05-2.19188E-10-1.90994E-09
 -1       274-2.40302E+06-3.91598E+05-2.43523E+04-9.60364E+05 1.25533E-09 1.44246E-09
 -1       275-2.43324E+06-3.47597E+05-1.01175E+04-9.20776E+05 3.16504E-10 2.51657E-09
 -1       276-2.39666E+06-3.86756E+05-5.37965E+03-9.63751E+05-2.69870E-09-6.27665E-10
 -1       277-2.43446E+06-3.47495E+05-2.63113E+03-9.19952E+05-3.76986E-10 7.20775E-11
 -1       278-2.39550E+06-3.86741E+05-1.91393E+03-9.64737E+05 1.13596E-09 5.11545E-09
 -1       279-2.43453E+06-3.47476E+05-2.05347E+03-9.19905E+05-3.52429E-10 2.14595E-09
 -1       280-2.39630E+06-3.86631E+05-3.76251E+03-9.63978E+05-1.32059E-09 2.16460E-10
 -1       281-2.43356E+06-3.47706E+05-6.88296E+03-9.20621E+05-3.95630E-10-7.97172E-10
 -1       282-2.40100E+06-3.89401E+05-1.64330E+04-9.61067E+05-1.03410E-09 5.25688E-10
 -1       283-2.42957E+06-3.45317E+05-2.93401E+04-9.22436E+05-6.83031E-10-3.47427E-09
 -1       284-2.42929E+06-4.26089E+05-7.97538E+04-9.51033E+05-1.99816E-09-1.66256E-09
 -1       285-2.40543E+06-3.15276E+05-1.24141E+05-9.28845E+05 6.49379E-10-3.84171E-09
 -1       301 9.17703E+03-5.60443E+03 7.16066E+04-1.76444E+04-5.34783E-10-3.74496E-09
 -1       302 9.86132E+03 1.25671E+04 5.17488E+04-2.59639E+04 1.04660E-09 4.14735E-09
 -1       303 4.32994E+02 8.21061E+02 4.76997E+04-1.76816E+04-6.82121E-10-6.69297E-09
 -1       304 1.86457E+04 2.06701E+04 8.03061E+04-2.58926E+04 8.23093E-10-9.14724E-09
 -1       305 1.84798E+04-1.36603E+04 1.34803E+05-1.76681E+04-5.52973E-10 1.79716E-09
 -1       306-2.57314E+06-2.96092E+05-1.96185E+05-1.00377E+06 1.60435E-09-2.45200E-09
 -1       307-2.67065E+06-4.65512E+05-1.33768E+05-9.73907E+05 3.08455E-09-3.81988E-09
 -1       308-2.61776E+06-3.56994E+05-4.61603E+04-9.85308E+05-4.91127E-11 1.77533E-09
 -1       309-2.61552E+06-3.98165E+05-2.79618E+04-9.99692E+05 8.33666E-10 1.90130E-09
 -1       310-2.62805E+06-3.62241E+05-1.08333E+04-9.78420E+05-1.68588E-09 2.04273E-09
 -1       311-2.60222E+06-3.93599E+05-6.27961E+03-1.00962E+06 2.13484E-09 5.39785E-10
 -1       312-2.63112E+06-3.61313E+05-3.06986E+03-9.75517E+05-6.46224E-10 8.66294E-10
 -1       313-2.59965E+06-3.94027E+05-2.76704E+03-1.01200E+06-2.13382E-09 4.01320E-09
 -1       314-2.63066E+06-3.61766E+05-3.32668E+03-9.76072E+05-2.38396E-09 3.65617E-10
 -1       315-2.60404E+06-3.92088E+05-7.00922E+03-1.00750E+06-9.31436E-10-5.57156E-09
 -1       316-2.62666E+06-3.63329E+05-1.22296E+04-9.79953E+05 5.66388E-10-2.82580E-09
 -1       317-2.61958E+06-3.96836E+05-3.16080E+04-9.95820E+05 8.36991E-10-9.93168E-09
 -1       318-2.61506E+06-3.57286E+05-5.21991E+04-9.87612E+05-2.12322E-09 5.24597E-09
 -1       319-2.68133E+06-4.73792E+05-1.51328E+05-9.67625E+05-1.99543E-09 4.82032E-10
 -1       320-2.56520E+06-2.87692E+05-2.21856E+05-1.00769E+06 5.83168E-09-2.50293E-09
 -1       336 6.40225E+02-5.10940E+05-3.78289E+03 3.86423E+02-1.47156E-09 2.97496E-09
 -1       337-1.38597E+03-5.12099E+05-3.80675E+03-1.04209E+03-1.21236E-09-4.21551E-10
 -1       338 3.27218E+02-5.11147E+05-4.32166E+03 6.54071E+02-1.92153E-09-1.02409E-09
 -1       339-4.43232E+03-5.13930E+05-9.18254E+03-1.57317E+03-1.62549E-09 2.79397E-09
 -1       340 3.10619E+03-5.09131E+05-1.39230E+04 9.14639E+02-2.23008E-09 5.09681E-09
 -1       406 9.08733E+00 1.62425E+05 2.72315E+02 3.72791E-01 3.94380E-10-9.53560E-09
 -1       407 9.35083E+01 1.62475E+05 5.78795E+02-6.68201E+00 3.34808E-11-1.04365E-10
 -1       408 2.96485E+02 1.62383E+05 1.15598E+03 6.38405E+00 4.09045E-10 1.52295E-09
 -1       409 1.24862E+03 1.62844E+05 2.60255E+03-5.83603E+01 6.32099E-11-8.82210E-11
 -1       410 3.59008E+03 1.62054E+05 5.31305E+03 5.33877E+01 5.18412E-10-1.77306E-09
 -1       521-4.86145E+06-5.61598E+05-3.64059E+05-1.89124E+06 4.03088E-09-8.30914E-09
 -1       522-5.03755E+06-8.74853E+05-2.47379E+05-1.84124E+06-5.70253E-10-3.08501E-09
 -1       523-4.94617E+06-6.70526E+05-8.55969E+04-1.85463E+06 1.18598E-09-1.87720E-09
 -1       524-4.93303E+06-7.54292E+05-5.15906E+04-1.89199E+06 9.78162E-10 1.57343E-10
 -1       525-4.96536E+06-6.79320E+05-1.99811E+04-1.84148E+06 4.04498E-10 1.90357E-09
 -1       526-4.91101E+06-7.43847E+05-1.15160E+04-1.90740E+06 7.23816E-10 2.52044E-10
 -1       527-4.96826E+06-6.80427E+05-5.52886E+03-1.83948E+06 3.08967E-09-9.08926E-10
 -1       528-4.91414E+06-7.36187E+05-4.69534E+03-1.90173E+06-1.65073E-10 5.44310E-09
 -1       529-4.96206E+06-6.87034E+05-5.61563E+03-1.84705E+06 1.28398E-09 3.41470E-09
 -1       530-4.93325E+06-7.20370E+05-1.12584E+04-1.87984E+06-4.46403E-09 3.47723E-09
 -1       531-4.94883E+06-6.96521E+05-2.00133E+04-1.86112E+06-1.98861E-09-3.97449E-10
 -1       532-4.97022E+06-7.16131E+05-5.11038E+04-1.84822E+06-1.87748E-09-6.81030E-09
 -1       533-4.92523E+06-6.91680E+05-8.49506E+04-1.87854E+06 1.58889E-09-3.84898E-09
 -1       534-5.07558E+06-8.35686E+05-2.45659E+05-1.79874E+06 1.69166E-09 2.34650E-09
 -1       535-4.84467E+06-5.79374E+05-3.61151E+05-1.91006E+06-5.54428E-09 3.57977E-09
 -1       536-1.42919E+04-1.35571E+04 3.12289E+04 2.76020E+02-1.33511E-09 3.56522E-09
 -1       537 1.59249E+02 1.56866E+04 2.22492E+04-1.16882E+03-5.32185E-09 4.34829E-09
 -1       538-8.94219E+03-2.12490E+03 8.05478E+03 2.71590E+02 1.42634E-10 2.37469E-09
 -1       539-6.15206E+03 2.45290E+03 5.14406E+03-1.18242E+03 1.54813E-09-6.50914E-10
 -1       540-7.98724E+03-3.30752E+02 2.03304E+03 2.89625E+02 3.67486E-10 7.45899E-09
 -1       541-7.32390E+03 3.78243E+02 1.21509E+03-1.21483E+03-7.17222E-10 8.74098E-09
 -1       542-7.77449E+03-4.89011E+01 4.85831E+02 3.03999E+02-9.17112E-10 4.67679E-10
 -1       543-7.60855E+03 4.62437E+01 2.43133E+02-1.23763E+03-2.18501E-10-3.45287E-09
 -1       544-7.70533E+03 2.98878E+00 3.02285E+01 3.12419E+02-4.77190E-10-3.43421E-09
 -1       545-7.72124E+03-6.42744E+01-1.55925E+02-1.24827E+03-8.32333E-10-3.28767E-09
 -1       546-7.66308E+03 6.24703E+01-3.57349E+02 3.14641E+02 4.44289E-10 5.64143E-10
 -1       547-7.90792E+03-4.62687E+02-9.41965E+02-1.24643E+03-1.06561E-09 1.03680E-09
 -1       548-7.51841E+03 4.00943E+02-1.52791E+03 3.10577E+02-1.59398E-09-1.21321E-09
 -1       549-8.99052E+03-2.95592E+03-4.16680E+03-1.23111E+03-8.24080E-10-5.98595E-09
 -1       550-6.57869E+03 2.55249E+03-5.93442E+03 2.99322E+02-5.81224E-12 8.92669E-10
 -1       551 4.29410E+03-2.57701E+05 1.45504E+04-4.42069E+05-1.90958E-08-2.19006E-09
 -1       552 8.70246E+03-2.57548E+05 1.86752E+04-6.29034E+05-1.42136E-08 7.41966E-09
 -1       553 5.53159E+03-2.60958E+05 2.89885E+04-4.40662E+05-2.33013E-08 6.35191E-09
 -1       554 2.27689E+04-2.48070E+05 6.14851E+04-6.29634E+05-1.47265E-08 3.76485E-09
 -1       555 2.33797E+04-2.72736E+05 1.10521E+05-4.41269E+05-2.36505E-08-2.13186E-09
 -1       556 3.58959E+04-8.22251E+04 2.88012E+04-1.10172E+05-3.92538E-09-3.69619E-09
 -1       557 6.93578E+04-1.10345E+05 1.50646E+04-1.37579E+05-2.32831E-10 7.96263E-10
 -1       558 3.63138E+04-8.63697E+04 6.18179E+03-1.06580E+05-9.30595E-09-2.29738E-09
 -1       559 6.54022E+04-1.14470E+05 3.10756E+03-1.39171E+05-8.77480E-09-1.41654E-08
 -1       560 3.57224E+04-8.59594E+04 1.33175E+03-1.06916E+05 1.57161E-09 5.44424E-09
 -1       561 6.43341E+04-1.14284E+05 6.86405E+02-1.39837E+05 1.07320E-10-2.76009E-09
 -1       562 3.52154E+04-8.56051E+04 2.80633E+02-1.07286E+05-1.56797E-09-2.00544E-09
 -1       563 6.37225E+04-1.14025E+05 1.60613E+02-1.40227E+05-1.62981E-09-1.89738E-09
 -1       564 3.48995E+04-8.53969E+04 5.97054E+01-1.07513E+05 2.48110E-09-1.20644E-09
 -1       565 6.34086E+04-1.13892E+05 2.83436E+01-1.40422E+05 1.98270E-09 3.95812E-09
 -1       566 3.47916E+04-8.53225E+04-1.99697E+01-1.07593E+05-1.03455E-09-3.99177E-09
 -1       567 6.33640E+04-1.13870E+05-8.16045E+01-1.40409E+05 4.88990E-09-1.67711E-09
 -1       568 3.49132E+04-8.54041E+04-2.11687E+02-1.07546E+05-4.19277E-10-1.13141E-09
 -1       569 6.31673E+04-1.13751E+05-4.99788E+02-1.39826E+05-1.58616E-09 3.20870E-09
 -1       570 3.56125E+04-8.60882E+04-1.02864E+03-1.07622E+05 9.67702E-10-2.77396E-10
 -1       571 1.17770E+05 4.27056E+03 6.32575E+03-2.95954E+04 1.05501E-09-2.77396E-10
 -1       572 1.18713E+05 1.48543E+03 3.09899E+03-3.24415E+04 8.32188E-10-8.56630E-10
 -1       573 1.18152E+05 3.54021E+02 1.37667E+03-2.95180E+04 7.00766E-10 1.80262E-09
 -1       574 1.18264E+05 1.14413E+02 6.89603E+02-3.25282E+04-6.68024E-10 4.20596E-09
 -1       575 1.18196E+05 1.49300E+01 3.24970E+02-2.95078E+04-8.94602E-10 4.29850E-09
 -1       576 1.18204E+05 3.16173E+00 1.65320E+02-3.25399E+04-6.39147E-10 5.56565E-09
 -1       577 1.18202E+05-3.29162E+00 8.13751E+01-2.95064E+04-1.25169E-10 8.14703E-09
 -1       578 1.18197E+05-1.90588E+00 4.42400E+01-3.25412E+04-7.81711E-10 5.52427E-09
 -1       579 1.18207E+05-3.35319E+00 2.69571E+01-2.95064E+04-8.29004E-10 1.62186E-09
 -1       580 1.18203E+05-3.67573E+00 2.49160E+01-3.25394E+04-1.34492E-09 5.19208E-09
 -1       581 1.18215E+05-5.31890E+00 3.37307E+01-2.95083E+04-3.56522E-10 3.95016E-09
 -1       582 1.18219E+05 6.88338E-01 6.39810E+01-3.25217E+04 1.45928E-09-2.91766E-09
 -1       583 1.18224E+05 1.80843E+01 1.23004E+02-2.95241E+04 9.07676E-10 6.75982E-10
 -1       584 1.18275E+05 1.15034E+02 2.75467E+02-3.23899E+04-1.97679E-09 2.09423E-09
 -1       585 1.18204E+05 3.59183E+02 5.59934E+02-2.96402E+04-1.20190E-09 2.94494E-09
 -1       586-1.46360E+03 3.84012E+04-1.92985E+03-1.00813E+05 3.21506E-10-1.34605E-10
 -1       587-3.26655E+02 3.81445E+04-2.31748E+02-1.10936E+05 5.37511E-10-1.30089E-09
 -1       588 3.89849E+02 3.81939E+04 1.33434E+03-1.00751E+05 3.01952E-10 6.80257E-09
 -1       589 1.98946E+03 3.89223E+04 3.90822E+03-1.10844E+05 4.69299E-10 1.84627E-09
 -1       590 5.73646E+03 3.77005E+04 8.37853E+03-1.00905E+05 2.35559E-10 2.03727E-09
 -1       591-2.56548E+04-7.36529E+03-8.55432E+03-1.33275E+04-4.25433E-09-3.49200E-09
 -1       592-2.64520E+04-9.47018E+03-4.63337E+03-1.55628E+04-4.58340E-09 3.71978E-09
 -1       593-2.65195E+04-6.73502E+03-1.92890E+03-1.39449E+04-5.07987E-09 1.01943E-09
 -1       594-2.52595E+04-8.22703E+03-9.62055E+02-1.56220E+04-1.70809E-09 1.18426E-09
 -1       595-2.65856E+04-6.73229E+03-4.42128E+02-1.39731E+04-1.16313E-09 1.87694E-09
 -1       596-2.51787E+04-8.17012E+03-2.25388E+02-1.56134E+04 2.30727E-10 4.50538E-09
 -1       597-2.65940E+04-6.73780E+03-1.24079E+02-1.39742E+04 2.30248E-10-1.00647E-09
 -1       598-2.51710E+04-8.16794E+03-1.02215E+02-1.56111E+04 9.50990E-11-6.04166E-09
 -1       599-2.65934E+04-6.73775E+03-1.33620E+02-1.39741E+04-5.63261E-10-2.93983E-09
 -1       600-2.51798E+04-8.17079E+03-2.50713E+02-1.56134E+04 9.54287E-10 4.42839E-10
 -1       601-2.65832E+04-6.73161E+03-4.95826E+02-1.39725E+04-3.66867E-10 1.79375E-09
 -1       602-2.52709E+04-8.23458E+03-1.08139E+03-1.56222E+04 2.75691E-11-1.85702E-09
 -1       603-2.65083E+04-6.73559E+03-2.16890E+03-1.39410E+04 3.96540E-10 4.05271E-09
 -1       604-2.66163E+04-9.62762E+03-5.21025E+03-1.55496E+04-8.74707E-10-6.75527E-10
 -1       605-2.55303E+04-7.44839E+03-9.61918E+03-1.32515E+04 5.99982E-10 3.47836E-09
 -1       606 1.68512E+04-5.66797E+03-1.02111E+04 1.64907E+04-7.63066E-10 2.45336E-09
 -1       607 1.51027E+04-1.82806E+03-5.08474E+03 1.85117E+04 6.22549E-10-1.33286E-09
 -1       608 1.60997E+04-3.07236E+02-2.27651E+03 1.63591E+04 9.99353E-09 3.53054E-09
 -1       609 1.59039E+04-8.15865E+01-1.15001E+03 1.86572E+04 1.38225E-08-9.07676E-10
 -1       610 1.60131E+04 1.31155E+01-5.48962E+02 1.63444E+04 4.65207E-09 3.03567E-09
 -1       611 1.59777E+04 1.80698E+01-2.77021E+02 1.86732E+04-3.63252E-09-1.32013E-09
 -1       612 1.59928E+04 1.95411E+01-1.32342E+02 1.63430E+04-4.27463E-10 1.85059E-09
 -1       613 1.59807E+04 2.06238E+01-6.04487E+01 1.86751E+04-3.81851E-09 8.85052E-10
 -1       614 1.59829E+04 1.78686E+01-1.68264E+01 1.63425E+04-1.34196E-09 4.38206E-09
 -1       615 1.59771E+04 2.19512E+01 1.86465E+01 1.86755E+04 3.25417E-09 6.16933E-09
 -1       616 1.59753E+04 1.96639E+01 6.21377E+01 1.63426E+04-2.75259E-09 1.38857E-09
 -1       617 1.59833E+04 3.62072E+01 1.44054E+02 1.86752E+04-7.43398E-10-5.35238E-10
 -1       618 1.59616E+04 6.19686E+01 2.91287E+02 1.63427E+04 1.45087E-09-1.82877E-09
 -1       619 1.60853E+04 2.62160E+02 6.54675E+02 1.86748E+04 2.79113E-09 8.05812E-10
 -1       620 1.58642E+04 7.53744E+02 1.31608E+03 1.63423E+04 1.74271E-09-1.14346E-09
 -1       621 2.05909E+02 1.28286E+05 1.77719E+03 4.07713E+03-1.77380E-10 3.51122E-09
 -1       622 2.35245E+02 1.28726E+05 1.50690E+03 5.95100E+03-1.25851E-10 1.37504E-10
 -1       623 1.01892E+01 1.28413E+05 1.73109E+03 4.05789E+03-1.52625E-10 7.62469E-09
 -1       624 7.83173E+02 1.29229E+05 3.28563E+03 5.96991E+03-1.36367E-10 6.04041E-09
 -1       625 7.86054E+02 1.27781E+05 5.71115E+03 4.05839E+03-1.15961E-10 6.84423E-10
 -1       626 1.05794E+05 2.93595E+04 2.11022E+03 5.72569E+04 6.39602E-09 2.13486E-08
 -1       627 1.04340E+05 3.04305E+04 1.01650E+03 5.95777E+04-1.02409E-09-1.03842E-09
 -1       628 1.05877E+05 2.83592E+04 4.29614E+02 5.75763E+04 8.48559E-10-2.27374E-12
 -1       629 1.04039E+05 3.01899E+04 2.10414E+02 5.97198E+04 3.34694E-09 5.04008E-09
 -1       630 1.05886E+05 2.83102E+04 9.74380E+01 5.75866E+04-3.84716E-10-2.94619E-10
 -1       631 1.04005E+05 3.01835E+04 5.23133E+01 5.97233E+04-1.27307E-09-1.35500E-10
 -1       632 1.05883E+05 2.83127E+04 3.46080E+01 5.75832E+04-3.38150E-09-9.84187E-10
 -1       633 1.03999E+05 3.01859E+04 3.86005E+01 5.97207E+04-2.11548E-09-9.98796E-10
 -1       634 1.05878E+05 2.83125E+04 6.25604E+01 5.75813E+04 5.26506E-09 7.14704E-09
 -1       635 1.04002E+05 3.01865E+04 1.26870E+02 5.97211E+04 5.45072E-10-1.41893E-09
 -1       636 1.05872E+05 2.83118E+04 2.56336E+02 5.75796E+04-5.11534E-10 3.23416E-09
 -1       637 1.04055E+05 3.02274E+04 5.63430E+02 5.97184E+04 4.45812E-11-3.55976E-09
 -1       638 1.05849E+05 2.84378E+04 1.15810E+03 5.75214E+04 5.95151E-11-2.57842E-10
 -1       639 1.04659E+05 3.10751E+04 2.73977E+03 5.95376E+04-1.75987E-09 1.48930E-10
 -1       640 1.05766E+05 3.09607E+04 5.68597E+03 5.64500E+04-9.16998E-09-1.62004E-08
 -1       656 2.86901E+04-7.26170E+05-6.92729E+04-5.11154E+02 4.18368E-10 8.16513E-10
 -1       657-3.79085E+04-7.57459E+05-5.72877E+04 4.75290E+03 2.47383E-10 4.31994E-09
 -1       658 9.09527E+03-7.35100E+05-3.51560E+04-9.53741E+02 8.79254E-10 1.69851E-09
 -1       659-4.06385E+04-7.58744E+05-6.08731E+04 5.04421E+03 9.23137E-11-3.93632E-09
 -1       660 3.14126E+04-7.24887E+05-7.54462E+04-8.02456E+02-3.78350E-10 4.70128E-09
 -1       661 1.03312E+05 1.12211E+04 9.90073E+03 4.03324E+04 1.49998E-09-3.01270E-09
 -1       662 1.08440E+05 1.90151E+04 6.67141E+03 3.86429E+04 1.58568E-09 2.19188E-10
 -1       663 1.05249E+05 1.44045E+04 2.33372E+03 3.97765E+04 3.71585E-10-1.96144E-09
 -1       664 1.06201E+05 1.52861E+04 1.39516E+03 3.93160E+04-2.92874E-09 1.99095E-09
 -1       665 1.05536E+05 1.48455E+04 5.50396E+02 3.96987E+04-2.03218E-09 4.24478E-09
 -1       666 1.05866E+05 1.47766E+04 3.20868E+02 3.94135E+04-3.78823E-09-1.85181E-10
 -1       667 1.05582E+05 1.49008E+04 1.69205E+02 3.96840E+04-1.36309E-09-1.10047E-09
 -1       668 1.05820E+05 1.47297E+04 1.69368E+02 3.94331E+04 2.58213E-09 2.89879E-09
 -1       669 1.05582E+05 1.48911E+04 2.26970E+02 3.96795E+04 1.95371E-10-8.25978E-10
 -1       670 1.05882E+05 1.48448E+04 4.91873E+02 3.94271E+04 4.46575E-09-8.22823E-10
 -1       671 1.05520E+05 1.47881E+04 8.72699E+02 3.96891E+04-3.47509E-10-1.39312E-09
 -1       672 1.06396E+05 1.56889E+04 2.23216E+03 3.92988E+04-1.65096E-09-2.73948E-09
 -1       673 1.05072E+05 1.40684E+04 3.74057E+03 3.97997E+04-1.30598E-09-3.51747E-09
 -1       674 1.09961E+05 2.16936E+04 1.06976E+04 3.82469E+04-1.50101E-09-3.18539E-09
 -1       675 1.01978E+05 8.95128E+03 1.58781E+04 4.06777E+04 2.64185E-09 1.12323E-09
 -1       676 1.16949E+01-1.39497E+05-5.43231E+02 1.73235E+01-1.35748E-09-2.24979E-09
 -1       677-1.44194E+02-1.39628E+05-9.94136E+02-3.46415E+01-2.35731E-09-4.08311E-09
 -1       678 9.62759E+01-1.39403E+05-1.75735E+03 1.73060E+01-1.01670E-09-5.34729E-09
 -1       679-1.75756E+03-1.40689E+05-4.17442E+03-3.45635E+01-2.16778E-09-2.08534E-09
 -1       680 1.04883E+03-1.38436E+05-6.72782E+03 1.70465E+01-1.02909E-09 2.57258E-09
 -1       771-1.50055E+06-2.60817E+05-3.64764E+04-6.21068E+05-6.45377E-09-3.73984E-09
 -1       772-1.49116E+06-2.81069E+05-1.96094E+04-6.43620E+05-3.81624E-09 6.45286E-09
 -1       773-1.50534E+06-2.57113E+05-8.39754E+03-6.23111E+05-2.64117E-09 1.90812E-09
 -1       774-1.48582E+06-2.76651E+05-4.10626E+03-6.45514E+05 4.45289E-09-8.77662E-10
 -1       775-1.50628E+06-2.56547E+05-2.03433E+03-6.23233E+05-1.60071E-10 4.24552E-09
 -1       776-1.48565E+06-2.76617E+05-9.48876E+02-6.46402E+05-1.71531E-09 1.43291E-09
 -1       777-1.50688E+06-2.56129E+05-5.62446E+02-6.23280E+05 0.00000E+00 1.13778E-09
 -1       778-1.48579E+06-2.76731E+05-2.57685E+02-6.47132E+05 1.29694E-09 2.58933E-09
 -1       779-1.50735E+06-2.55772E+05-2.40145E+02-6.23321E+05-5.79166E-09-1.01863E-10
 -1       780-1.48594E+06-2.76833E+05-1.98642E+02-6.47723E+05-1.33659E-08-1.93995E-09
 -1       781-1.50769E+06-2.55484E+05-3.50689E+02-6.23349E+05-9.01491E-09 8.72205E-10
 -1       782-1.48611E+06-2.76943E+05-6.53430E+02-6.48158E+05-6.40375E-09-1.78807E-09
 -1       783-1.50789E+06-2.55299E+05-1.30597E+03-6.23353E+05-1.48793E-09-2.42932E-09
 -1       784-1.48697E+06-2.77824E+05-3.09981E+03-6.48389E+05-3.40651E-09-2.76259E-11
 -1       785-1.50744E+06-2.55616E+05-5.73000E+03-6.22943E+05-6.53199E-09 6.79847E-10
 -1       786 1.09404E+05-5.83763E+03 1.35047E+04 1.52279E+00 9.30394E-08 2.88674E-09
 -1       787 1.15256E+05 6.75812E+03 9.55452E+03-7.39590E+00 1.85007E-07 1.89993E-09
 -1       788 1.11662E+05-9.15111E+02 3.49536E+03 2.48499E+00 2.65695E-07-1.59389E-09
 -1       789 1.12626E+05 1.05884E+03 2.19618E+03-9.96917E+00 3.46906E-07 5.65979E-09
 -1       790 1.12035E+05-1.42956E+02 8.93635E+02 4.09609E+00 4.74634E-07-4.52087E-09
 -1       791 1.12192E+05 1.66104E+02 5.24744E+02-1.41366E+01 6.02674E-07 9.57635E-09
 -1       792 1.12097E+05-2.30479E+01 2.39613E+02 6.65251E+00 8.42091E-07-6.29331E-09
 -1       793 1.12121E+05 3.24296E+01 1.57272E+02-2.06653E+01 1.07971E-06 8.48200E-09
 -1       794 1.12105E+05-9.36981E+00 1.16893E+02 1.06249E+01 5.40114E-07-3.48567E-09
 -1       795 1.12128E+05 4.84935E+01 1.69658E+02-3.07468E+01 1.97723E-09 3.86428E-09
 -1       796 1.12090E+05-3.90998E+01 2.54484E+02 1.67342E+01 1.67353E-10-3.66461E-09
 -1       797 1.12244E+05 2.86659E+02 6.00322E+02-4.62139E+01-3.70328E-10-7.50561E-10
 -1       798 1.11990E+05-2.47360E+02 9.47706E+02 2.60922E+01-6.18616E-13-1.29376E-10
 -1       799 1.12955E+05 1.82638E+03 2.58366E+03-7.00297E+01-5.95007E-10-1.73847E-09
 -1       800 1.11379E+05-1.57758E+03 3.64977E+03 4.05502E+01-9.13394E-11 1.35992E-09
 -1       801-6.30062E+03 9.77917E+03 9.79626E+03 1.16061E+04 6.42126E-09-2.94108E-10
 -1       802 1.65328E+04 5.63626E+04 3.18060E+04-4.77898E+04 1.72190E-08-2.83120E-09
 -1       803-9.83440E+03 2.63163E+04 4.08986E+04 1.10231E+04 1.35424E-08 1.23497E-08
 -1       804 7.91824E+04 8.96348E+04 1.13880E+05-4.83082E+04 1.59162E-08 1.36891E-08
 -1       805-6.89697E+04-2.33498E+04 1.48526E+05 1.21235E+04 5.60249E-09 1.49901E-08
 -1       806-1.28351E+05-2.75177E+04-1.09138E+04-5.34700E+04 4.82260E-10 6.82576E-10
 -1       807-1.28991E+05-2.59572E+04-5.36168E+03-5.63667E+04-4.12001E-10-5.40217E-09
 -1       808-1.28661E+05-2.35747E+04-2.27448E+03-5.53214E+04 6.10953E-10-1.45337E-09
 -1       809-1.27847E+05-2.44686E+04-1.11195E+03-5.65216E+04 1.37163E-10-7.97741E-10
 -1       810-1.28709E+05-2.34354E+04-5.09137E+02-5.54032E+04 7.79551E-10-2.07081E-09
 -1       811-1.27759E+05-2.44097E+04-2.52505E+02-5.65089E+04-2.73417E-10-1.59400E-09
 -1       812-1.28718E+05-2.34454E+04-1.25955E+02-5.54033E+04 1.30944E-09-8.88679E-09
 -1       813-1.27748E+05-2.44110E+04-7.94565E+01-5.65026E+04 1.11785E-08 4.33693E-09
 -1       814-1.28718E+05-2.34489E+04-7.44064E+01-5.54019E+04 4.70595E-09-3.17777E-09
 -1       815-1.27750E+05-2.44122E+04-1.16536E+02-5.65014E+04-1.52522E-09-1.05470E-08
 -1       816-1.28711E+05-2.34475E+04-2.18244E+02-5.54007E+04 2.97450E-09 9.24524E-09
 -1       817-1.27788E+05-2.44329E+04-4.68138E+02-5.64983E+04 1.21236E-09 3.80476E-09
 -1       818-1.28684E+05-2.35126E+04-9.53938E+02-5.53701E+04 7.20775E-10-1.95314E-10
 -1       819-1.28316E+05-2.50053E+04-2.24551E+03-5.63716E+04-1.96815E-09 4.63388E-10
 -1       820-1.28503E+05-2.52102E+04-4.56980E+03-5.46469E+04 4.86716E-09 1.61853E-08
 -1       821-1.65961E+05 9.21288E+03-2.13086E+04 9.51584E+00-5.36614E-10 2.83308E-09
 -1       822-1.75194E+05-1.06654E+04-1.50782E+04-1.85387E+02-1.54181E-09 5.70503E-09
 -1       823-1.69524E+05 1.44424E+03-5.51902E+03-2.33927E+01 7.64470E-10 1.11663E-09
 -1       824-1.71042E+05-1.67166E+03-3.47312E+03-1.08094E+02 4.45342E-11 4.56902E-09
 -1       825-1.70112E+05 2.26126E+02-1.42678E+03-6.77799E+01-2.39360E-09 5.75130E-09
 -1       826-1.70359E+05-2.66708E+02-8.62948E+02-1.95936E+01-4.21506E-09 5.30082E-09
 -1       827-1.70208E+05 4.03140E+01-4.45217E+02-1.11895E+02-3.07310E-09 7.03437E-11
 -1       828-1.70265E+05-8.15145E+01-3.95232E+02 5.70139E+01-3.36458E-09 4.70023E-09
 -1       829-1.70206E+05 4.10824E+01-4.51859E+02-1.44389E+02-3.39559E-11-4.92250E-10
 -1       830-1.70365E+05-2.73197E+02-8.83193E+02 1.02036E+02 1.19217E-09-6.08776E-09
 -1       831-1.70107E+05 2.31893E+02-1.46192E+03-1.56918E+02-1.35882E-09 5.03292E-10
 -1       832-1.71067E+05-1.71443E+03-3.56230E+03 1.04170E+02-9.04861E-10 2.03818E-09
 -1       833-1.69505E+05 1.48127E+03-5.66031E+03-1.46523E+02-3.93076E-10 9.40418E-10
 -1       834-1.75322E+05-1.09391E+04-1.54654E+04 6.41652E+01-3.65073E-10 9.16089E-10
 -1       835-1.65852E+05 9.44935E+03-2.18560E+04-1.16909E+02 3.51826E-09 2.35013E-09
 -1       836-5.53332E+02 1.57356E+05 9.47358E+03-1.38449E+04 1.21918E-09 1.02682E-09
 -1       837 2.08147E+03 1.60292E+05 8.08383E+03-2.78237E+04 1.81149E-09-6.05814E-09
 -1       838-2.05554E+02 1.58176E+05 8.33141E+03-1.37967E+04 1.52795E-09-5.83793E-09
 -1       839 5.34128E+03 1.62727E+05 1.58544E+04-2.78415E+04 1.99839E-09-2.43348E-09
 -1       840-1.60975E+03 1.54906E+05 2.53199E+04-1.38263E+04 1.35424E-09-3.40958E-09
 -1       856-5.21839E+04 4.45190E+03-1.17308E+04-2.51130E+02-1.55870E-09-1.68347E-09
 -1       857-5.70307E+04-5.22219E+03-8.07679E+03 2.68992E+03-2.28785E-09-8.20592E-10
 -1       858-5.40988E+04 6.23988E+02-3.04445E+03-2.59684E+02-2.12771E-09 2.35661E-09
 -1       859-5.48307E+04-7.26650E+02-1.83897E+03 2.70335E+03-3.21030E-10 5.08041E-09
 -1       860-5.43853E+04 8.69251E+01-7.73243E+02-2.64613E+02 2.98655E-10-7.99560E-10
 -1       861-5.45002E+04-9.74371E+01-4.30890E+02 2.71002E+03-4.09438E-09-5.39931E-09
 -1       862-5.44299E+04 1.16596E+01-1.90101E+02-2.66370E+02 3.83253E-09 7.48088E-10
 -1       863-5.44475E+04-8.74451E+00-9.41861E+01 2.71081E+03 7.06496E-09 1.06890E-09
 -1       864-5.44381E+04 1.46470E-01-2.99077E+01-2.65402E+02 3.93396E-09-4.46523E-10
 -1       865-5.44328E+04 1.15294E+01 1.66251E+01 2.70583E+03 4.93438E-09-5.45496E-09
 -1       866-5.44441E+04-8.68500E+00 6.25649E+01-2.61386E+02 1.08938E-09-3.04585E-09
 -1       867-5.43969E+04 7.34663E+01 1.72068E+02 2.69497E+03-3.62647E-10 2.06326E-09
 -1       868-5.44728E+04-6.10564E+01 2.90952E+02-2.54543E+02 3.81436E-09 9.57172E-10
 -1       869-5.41801E+04 5.07828E+02 7.80451E+02 2.67635E+03 1.65285E-09-4.17462E-09
 -1       870-5.46591E+04-4.31795E+02 1.13280E+03-2.42775E+02 1.23447E-09-1.92921E-09
 -1       871-2.41275E+03-5.02713E+03-7.87837E+03 5.16503E+04 9.41327E-10 8.40691E-09
 -1       872-1.04522E+03-6.78591E+03-3.20815E+03 6.69598E+04 3.40833E-09 6.97810E-09
 -1       873-1.80062E+01-5.95400E+03 4.70315E+02 5.15356E+04 1.80034E-09 1.12345E-08
 -1       874 1.22413E+03-4.80537E+03 4.49704E+03 6.69842E+04 2.75520E-09 6.16046E-09
 -1       875 2.89447E+03-7.02770E+03 9.96717E+03 5.16294E+04 1.27466E-09-7.27596E-12
 -1       876 1.29423E+05 2.22972E+04 6.94105E+03 5.25010E+04-3.15686E-09-7.48378E-09
 -1       877 1.29817E+05 2.38232E+04 3.70657E+03 5.45578E+04-4.56805E-09-5.82554E-09
 -1       878 1.30073E+05 2.15281E+04 1.55295E+03 5.30707E+04 1.31899E-09 1.79853E-10
 -1       879 1.28873E+05 2.28833E+04 7.73526E+02 5.46084E+04-1.84161E-09 2.63327E-09
 -1       880 1.30121E+05 2.15189E+04 3.60153E+02 5.30939E+04-9.96579E-10-1.14451E-09
 -1       881 1.28810E+05 2.28436E+04 1.91747E+02 5.45996E+04 1.94086E-09-3.13939E-09
 -1       882 1.30126E+05 2.15241E+04 1.21755E+02 5.30946E+04-6.25278E-12 9.06693E-09
 -1       883 1.28806E+05 2.28418E+04 1.29366E+02 5.45974E+04-1.22191E-08 1.31997E-08
 -1       884 1.30124E+05 2.15225E+04 2.04450E+02 5.30947E+04-4.02437E-09 1.02877E-08
 -1       885 1.28822E+05 2.28448E+04 4.10226E+02 5.46027E+04 4.11404E-10-5.03036E-09
 -1       886 1.30108E+05 2.15105E+04 8.26440E+02 5.30931E+04-2.79816E-09-6.69525E-09
 -1       887 1.28967E+05 2.29399E+04 1.80517E+03 5.46233E+04-3.53702E-09-3.65003E-09
 -1       888 1.29993E+05 2.15309E+04 3.63752E+03 5.30353E+04 2.63469E-09 7.41102E-09
 -1       889 1.31135E+05 2.51903E+04 8.69009E+03 5.45538E+04 2.03362E-09 3.25963E-09
 -1       890 1.28510E+05 2.32921E+04 1.62755E+04 5.16486E+04 3.83125E-09 7.19228E-09
 -1       891-7.78616E+01-7.36257E+04-8.66137E+02 1.40171E+04 1.62061E-09 6.11408E-10
 -1       892-1.35695E+02-7.38357E+04-9.43694E+02 2.12156E+04 6.51312E-10-1.39858E-09
 -1       893-1.85706E+01-7.36549E+04-1.34952E+03 1.40196E+04 3.50951E-10 2.76737E-09
 -1       894-7.31099E+02-7.43598E+04-2.80359E+03 2.11408E+04-2.84876E-09-3.13821E-09
 -1       895-5.69027E+02-7.30764E+04-4.93975E+03 1.40912E+04-7.82933E-10-3.21279E-09
 -1       956-1.62530E+05-2.34534E+03-5.90494E+03 1.07366E+04-2.57887E-09-4.58044E-10
 -1       957-1.63696E+05-7.92107E+02-3.03156E+03 1.29236E+04-1.42609E-09-7.96581E-09
 -1       958-1.63052E+05-6.38649E+01-1.36562E+03 1.06669E+04 1.25692E-09-1.30865E-09
 -1       959-1.63144E+05-1.31913E+01-6.97631E+02 1.29989E+04-1.43586E-09 2.18574E-09
 -1       960-1.63096E+05 1.74468E+01-3.39950E+02 1.06605E+04-2.09866E-09-1.70564E-09
 -1       961-1.63101E+05 1.49576E+01-1.80293E+02 1.30060E+04-3.34092E-09-2.10139E-09
 -1       962-1.63104E+05 1.41074E+01-1.02897E+02 1.06597E+04-2.16642E-09-3.15958E-09
 -1       963-1.63098E+05 1.49686E+01-8.21339E+01 1.30071E+04-4.11927E-09-5.44185E-09
 -1       964-1.63106E+05 1.48113E+01-9.90427E+01 1.06594E+04-9.86972E-10 1.53443E-09
 -1       965-1.63104E+05 1.65644E+01-1.70591E+02 1.30071E+04 2.81852E-09 3.61581E-09
 -1       966-1.63101E+05 1.94970E+01-3.19834E+02 1.06597E+04-8.84995E-10-5.18185E-10
 -1       967-1.63147E+05-8.25776E+00-6.55783E+02 1.30032E+04-4.36614E-10-4.60886E-10
 -1       968-1.63061E+05-5.53763E+01-1.28312E+03 1.06634E+04-3.32875E-10 1.25969E-09
 -1       969-1.63669E+05-7.38812E+02-2.84886E+03 1.29593E+04-1.68598E-10 1.12897E-09
 -1       970-1.62573E+05-2.19838E+03-5.54871E+03 1.07047E+04 7.00311E-10 2.45836E-09
 -1       971-1.54510E+05-8.17719E+02-4.54957E+03 7.61119E+03-3.06136E-09 3.44627E-09
 -1       972-1.55617E+05-5.88091E+02-2.47802E+03 1.06200E+04-2.41857E-09 3.98518E-09
 -1       973-1.55014E+05-6.24602E+00-1.10923E+03 7.54905E+03-1.32422E-09 4.40275E-09
 -1       974-1.55089E+05-8.46322E+00-5.74778E+02 1.06865E+04 2.30102E-10-1.60981E-09
 -1       975-1.55051E+05 1.34775E+01-2.86425E+02 7.54410E+03-1.25965E-10 2.13254E-09
 -1       976-1.55056E+05 1.39500E+01-1.64065E+02 1.06923E+04-1.47929E-09 4.84602E-09
 -1       977-1.55057E+05 1.23104E+01-1.16702E+02 7.54329E+03 1.31899E-09-4.97323E-10
 -1       978-1.55056E+05 1.57731E+01-1.33478E+02 1.06934E+04 6.40972E-09-5.58566E-09
 -1       979-1.55056E+05 1.54204E+01-2.11676E+02 7.54297E+03 4.90942E-09 1.49726E-09
 -1       980-1.55071E+05 1.68576E+01-4.06977E+02 1.06935E+04 5.38697E-09-7.40272E-10
 -1       981-1.55043E+05 2.56193E+01-7.87209E+02 7.54317E+03 1.54546E-09 1.17888E-09
 -1       982-1.55180E+05-4.08543E+01-1.62657E+03 1.06907E+04-2.36150E-09-1.04529E-09
 -1       983-1.54945E+05-2.40795E+01-3.15996E+03 7.54590E+03 2.28965E-10 1.20360E-09
 -1       984-1.56701E+05-1.68994E+03-7.07609E+03 1.06485E+04-7.62157E-10 2.66903E-09
 -1       985-1.53516E+05-2.33559E+03-1.29939E+04 7.58745E+03 3.28782E-09-6.76664E-10
 -3
    1PSTEP                         5           3           1          
  100CL  103 3.75000E-01         409                     0    3           1
 -4  DISP        4    1
 -5  D1          1    2    1    0
 -5  D2          1    2    2    0
 -5  D3          1    2    3    0
 -5  ALL         1    2    0    0    1ALL
 -1         1 9.81909E-05 0.00000E+00 0.00000E+00
 -1         2 9.05849E-05 1.00513E-29 1.65436E-24
 -1         3 8.32147E-05 3.51307E-27-6.61744E-24
 -1         5 6.03480E-05 2.03436E-26 0.00000E+00
 -1         8 7.84037E-05-7.16434E-07 0.00000E+00
 -1         9 7.96899E-05 4.80877E-07 0.00000E+00
 -1        10 7.74535E-05-1.14699E-06 0.00000E+00
 -1        12 5.99263E-05 4.08981E-07 0.00000E+00
 -1        15 5.48561E-05-7.80292E-07-2.06795E-25
 -1        16 5.67393E-05 3.76333E-07 0.00000E+00
 -1        17 5.79951E-05-2.46496E-06 0.00000E+00
 -1        18 5.78710E-05 2.17819E-07 0.00000E+00
 -1        19 5.86616E-05 8.15711E-07 0.00000E+00
 -1        20 5.87683E-05 1.20623E-05 0.00000E+00
 -1        21 5.83661E-05 2.28016E-05 0.00000E+00
 -1        24 1.48073E-05-3.30249E-06 0.00000E+00
 -1        25 5.65292E-05 3.11696E-07 0.00000E+00
 -1        26 5.72778E-05 1.13655E-06 0.00000E+00
 -1        27 5.61465E-05 1.02449E-05 0.00000E+00
 -1        28 5.57805E-05 2.24522E-05 0.00000E+00
 -1        32 0.00000E+00 0.00000E+00 0.00000E+00
 -1        33 5.49161E-05 1.52401E-06 0.00000E+00
 -1        34 5.38233E-05 1.02287E-05 0.00000E+00
 -1        35 5.27845E-05 2.22679E-05 0.00000E+00
 -1        51 9.69039E-05-1.18310E-07 0.00000E+00
 -1        52 9.45185E-05-2.33423E-07 0.00000E+00
 -1        53 9.12508E-05-3.49424E-07 0.00000E+00
 -1        54 8.73256E-05-4.67427E-07 0.00000E+00
 -1        55 8.29680E-05-5.88093E-07-2.17135E-24
 -1        56 9.72981E-05-5.71459E-07 2.64698E-23
 -1        57 9.65130E-05-1.53161E-06 0.00000E+00
 -1        58 9.58342E-05-2.77040E-06-2.64698E-23
 -1        59 9.52155E-05-4.18697E-06 0.00000E+00
 -1        60 9.46204E-05-5.66711E-06 2.64698E-23
 -1        61 9.40054E-05-7.09750E-06 0.00000E+00
 -1        62 9.33301E-05-8.36672E-06 0.00000E+00
 -1        63 9.25541E-05-9.36753E-06 0.00000E+00
 -1        64 9.16422E-05-1.00055E-05 0.00000E+00
 -1        65 9.05622E-05-1.01946E-05 1.32349E-23
 -1        66 8.92897E-05-9.87060E-06 2.64698E-23
 -1        67 8.78054E-05-8.98098E-06 0.00000E+00
 -1        68 8.60990E-05-7.50089E-06-2.64698E-23
 -1        69 8.41707E-05-5.41725E-06 0.00000E+00
 -1        70 8.20198E-05-2.75019E-06-2.64698E-23
 -1        86 9.03015E-05 8.62200E-08 0.00000E+00
 -1        87 8.94504E-05 1.71689E-07 0.00000E+00
 -1        88 8.80044E-05 2.56434E-07 0.00000E+00
 -1        89 8.59345E-05 3.37353E-07 0.00000E+00
 -1        90 8.31831E-05 4.17622E-07 0.00000E+00
 -1       121 8.30541E-05-1.90468E-07 0.00000E+00
 -1       122 8.25724E-05-3.81042E-07 0.00000E+00
 -1       123 8.17702E-05-5.71826E-07 0.00000E+00
 -1       124 8.06487E-05-7.62971E-07 0.00000E+00
 -1       125 7.92091E-05-9.54499E-07 6.61744E-24
 -1       191 6.03363E-05 6.81691E-08 0.00000E+00
 -1       192 6.03011E-05 1.36337E-07 0.00000E+00
 -1       193 6.02426E-05 2.04504E-07 0.00000E+00
 -1       194 6.01606E-05 2.72668E-07 0.00000E+00
 -1       195 6.00552E-05 3.40828E-07 0.00000E+00
 -1       251 7.84665E-05 2.53034E-06 0.00000E+00
 -1       252 7.85469E-05 4.44480E-06 0.00000E+00
 -1       253 7.86279E-05 5.26021E-06 0.00000E+00
 -1       254 7.87120E-05 5.20572E-06 0.00000E+00
 -1       255 7.87959E-05 4.47181E-06 0.00000E+00
 -1       256 7.88799E-05 3.24652E-06 1.65436E-24
 -1       257 7.89636E-05 1.69586E-06 0.00000E+00
 -1       258 7.90470E-05-1.52752E-08-1.65436E-24
 -1       259 7.91305E-05-1.72927E-06 0.00000E+00
 -1       260 7.92141E-05-3.28846E-06 0.00000E+00
 -1       261 7.92981E-05-4.52822E-06 1.65436E-24
 -1       262 7.93820E-05-5.28288E-06 0.00000E+00
 -1       263 7.94660E-05-5.36492E-06 0.00000E+00
 -1       264 7.95470E-05-4.58449E-06-1.03398E-25
 -1       265 7.96274E-05-2.71331E-06 0.00000E+00
 -1       266 7.44791E-05-7.36816E-07-3.30872E-24
 -1       267 7.05545E-05-7.46272E-07 8.27181E-25
 -1       268 6.66299E-05-7.56420E-07 0.00000E+00
 -1       269 6.27053E-05-7.64518E-07 0.00000E+00
 -1       270 5.87807E-05-7.72568E-07 0.00000E+00
 -1       271 7.60157E-05 2.21089E-06 0.00000E+00
 -1       272 7.39877E-05 4.07190E-06-1.32349E-23
 -1       273 7.23143E-05 4.99631E-06 2.64698E-23
 -1       274 7.09389E-05 5.11082E-06 0.00000E+00
 -1       275 6.98129E-05 4.55930E-06-2.64698E-23
 -1       276 6.88784E-05 3.49327E-06 0.00000E+00
 -1       277 6.80764E-05 2.07284E-06 0.00000E+00
 -1       278 6.73450E-05 4.63053E-07-1.32349E-23
 -1       279 6.66215E-05-1.16804E-06 0.00000E+00
 -1       280 6.58431E-05-2.65205E-06-1.32349E-23
 -1       281 6.49478E-05-3.82298E-06 2.64698E-23
 -1       282 6.38754E-05-4.51935E-06 0.00000E+00
 -1       283 6.25678E-05-4.58732E-06-2.64698E-23
 -1       284 6.09736E-05-3.88091E-06-1.32349E-23
 -1       285 5.90372E-05-2.26924E-06 0.00000E+00
 -1       301 7.57978E-05 4.58738E-07 0.00000E+00
 -1       302 7.19087E-05 4.48275E-07 1.65436E-24
 -1       303 6.80405E-05 4.38177E-07-3.30872E-24
 -1       304 6.42110E-05 4.26821E-07 3.30872E-24
 -1       305 6.04381E-05 4.13692E-07 6.61744E-24
 -1       306 7.72235E-05 3.36317E-06 0.00000E+00
 -1       307 7.51263E-05 5.14742E-06-1.32349E-23
 -1       308 7.34483E-05 5.82693E-06 0.00000E+00
 -1       309 7.21715E-05 5.41686E-06-1.32349E-23
 -1       310 7.12468E-05 4.06651E-06-2.64698E-23
 -1       311 7.06041E-05 1.95737E-06 0.00000E+00
 -1       312 7.01429E-05-6.38554E-07 0.00000E+00
 -1       313 6.97548E-05-3.43159E-06 0.00000E+00
 -1       314 6.93234E-05-6.10828E-06 0.00000E+00
 -1       315 6.87337E-05-8.35952E-06-1.32349E-23
 -1       316 6.78889E-05-9.92722E-06 0.00000E+00
 -1       317 6.67026E-05-1.05783E-05 1.32349E-23
 -1       318 6.51258E-05-1.01886E-05 0.00000E+00
 -1       319 6.31328E-05-8.66948E-06 0.00000E+00
 -1       320 6.07292E-05-6.07190E-06 2.64698E-23
 -1       336 7.53153E-05-1.36376E-06 0.00000E+00
 -1       337 7.27282E-05-1.58203E-06 0.00000E+00
 -1       338 6.96965E-05-1.80143E-06 0.00000E+00
 -1       339 6.62261E-05-2.02188E-06 3.30872E-24
 -1       340 6.23231E-05-2.24391E-06 0.00000E+00
 -1       406 5.97740E-05 4.77123E-07 0.00000E+00
 -1       407 5.95983E-05 5.45239E-07-1.65436E-24
 -1       408 5.93991E-05 6.13310E-07 0.00000E+00
 -1       409 5.91766E-05 6.81250E-07 0.00000E+00
 -1       410 5.89306E-05 7.48926E-07 0.00000E+00
 -1       521 5.34346E-05 2.19968E-06 0.00000E+00
 -1       522 5.07821E-05 2.06564E-06 2.64698E-23
 -1       523 4.88192E-05 1.05533E-07 0.00000E+00
 -1       524 4.74423E-05-3.46574E-06 0.00000E+00
 -1       525 4.64776E-05-8.14707E-06 0.00000E+00
 -1       526 4.57109E-05-1.33701E-05-2.64698E-23
 -1       527 4.48990E-05-1.84719E-05 0.00000E+00
 -1       528 4.37992E-05-2.27984E-05 0.00000E+00
 -1       529 4.22171E-05-2.58288E-05 0.00000E+00
 -1       530 3.99882E-05-2.71266E-05 0.00000E+00
 -1       531 3.70567E-05-2.65534E-05 0.00000E+00
 -1       532 3.34146E-05-2.40912E-05 0.00000E+00
 -1       533 2.91724E-05-2.00468E-05 0.00000E+00
 -1       534 2.44960E-05-1.48238E-05-2.64698E-23
 -1       535 1.95992E-05-9.03739E-06-5.29396E-23
 -1       536 5.79743E-05 1.59168E-06 0.00000E+00
 -1       537 5.79626E-05 4.68953E-06 0.00000E+00
 -1       538 5.79528E-05 6.91123E-06 0.00000E+00
 -1       539 5.79455E-05 8.33972E-06-2.06795E-25
 -1       540 5.79390E-05 9.06848E-06 4.13590E-25
 -1       541 5.79329E-05 9.19120E-06 0.00000E+00
 -1       542 5.79268E-05 8.80947E-06 0.00000E+00
 -1       543 5.79206E-05 8.02508E-06 0.00000E+00
 -1       544 5.79141E-05 6.94502E-06 0.00000E+00
 -1       545 5.79074E-05 5.67636E-06-1.03398E-25
 -1       546 5.79006E-05 4.32865E-06-2.06795E-25
 -1       547 5.78939E-05 3.01147E-06 5.16988E-26
 -1       548 5.78874E-05 1.83395E-06 5.16988E-26
 -1       549 5.78813E-05 9.05234E-07 2.58494E-26
 -1       550 5.78755E-05 3.31257E-07 0.00000E+00
 -1       551 5.22663E-05-2.59186E-06 3.30872E-24
 -1       552 4.54174E-05-2.72330E-06-8.27181E-25
 -1       553 3.78451E-05-2.85974E-06-1.65436E-24
 -1       554 2.99516E-05-3.00044E-06 0.00000E+00
 -1       555 2.21392E-05-3.14272E-06 0.00000E+00
 -1       556 5.64905E-05 1.43501E-06 1.32349E-23
 -1       557 5.53402E-05 4.41756E-06 0.00000E+00
 -1       558 5.45055E-05 6.56722E-06 0.00000E+00
 -1       559 5.39513E-05 7.97518E-06 0.00000E+00
 -1       560 5.36423E-05 8.73238E-06 0.00000E+00
 -1       561 5.35435E-05 8.93031E-06 0.00000E+00
 -1       562 5.36203E-05 8.66049E-06 0.00000E+00
 -1       563 5.38380E-05 8.01457E-06 0.00000E+00
 -1       564 5.41622E-05 7.08424E-06-3.30872E-24
 -1       565 5.45586E-05 5.96120E-06 0.00000E+00
 -1       566 5.49926E-05 4.73722E-06-8.27181E-25
 -1       567 5.54301E-05 3.50407E-06 2.06795E-25
 -1       568 5.58368E-05 2.35348E-06 0.00000E+00
 -1       569 5.61783E-05 1.37711E-06 0.00000E+00
 -1       570 5.64203E-05 6.66637E-07 0.00000E+00
 -1       571 5.79190E-05 2.86832E-07-2.06795E-25
 -1       572 5.79680E-05 3.23092E-07 2.06795E-25
 -1       573 5.80174E-05 3.32424E-07-8.27181E-25
 -1       574 5.80669E-05 3.20962E-07 4.13590E-25
 -1       575 5.81164E-05 2.94866E-07-8.27181E-25
 -1       576 5.81660E-05 2.60337E-07 0.00000E+00
 -1       577 5.82156E-05 2.23582E-07-1.65436E-24
 -1       578 5.82652E-05 1.90811E-07 0.00000E+00
 -1       579 5.83147E-05 1.68234E-07 0.00000E+00
 -1       580 5.83643E-05 1.62062E-07 0.00000E+00
 -1       581 5.84139E-05 1.78506E-07-3.30872E-24
 -1       582 5.84635E-05 2.23769E-07 0.00000E+00
 -1       583 5.85131E-05 3.04049E-07 0.00000E+00
 -1       584 5.85626E-05 4.25479E-07 0.00000E+00
 -1       585 5.86121E-05 5.94158E-07 0.00000E+00
 -1       586 5.76307E-05 2.34439E-07 8.27181E-25
 -1       587 5.73693E-05 2.50641E-07 2.06795E-25
 -1       588 5.71075E-05 2.66664E-07 4.13590E-25
 -1       589 5.68664E-05 2.82434E-07 0.00000E+00
 -1       590 5.66669E-05 2.97776E-07 0.00000E+00
 -1       591 5.78221E-05 3.12022E-07 0.00000E+00
 -1       592 5.77814E-05 3.79109E-07-4.13590E-25
 -1       593 5.77489E-05 4.24233E-07 0.00000E+00
 -1       594 5.77225E-05 4.52035E-07-2.06795E-25
 -1       595 5.77009E-05 4.67220E-07-4.13590E-25
 -1       596 5.76822E-05 4.74456E-07 2.06795E-25
 -1       597 5.76648E-05 4.78410E-07 0.00000E+00
 -1       598 5.76468E-05 4.83747E-07-2.06795E-25
 -1       599 5.76265E-05 4.95129E-07 0.00000E+00
 -1       600 5.76022E-05 5.17217E-07-1.03398E-25
 -1       601 5.75722E-05 5.54676E-07 4.13590E-25
 -1       602 5.75347E-05 6.12173E-07 1.03398E-25
 -1       603 5.74880E-05 6.94376E-07-2.06795E-25
 -1       604 5.74305E-05 8.05988E-07 0.00000E+00
 -1       605 5.73604E-05 9.51654E-07-4.13590E-25
 -1       606 5.86708E-05 1.15017E-06 0.00000E+00
 -1       607 5.86782E-05 1.55538E-06 0.00000E+00
 -1       608 5.86851E-05 2.02720E-06 0.00000E+00
 -1       609 5.86918E-05 2.56095E-06 0.00000E+00
 -1       610 5.86984E-05 3.15191E-06 0.00000E+00
 -1       611 5.87050E-05 3.79532E-06 0.00000E+00
 -1       612 5.87115E-05 4.48639E-06 0.00000E+00
 -1       613 5.87179E-05 5.22036E-06 8.27181E-25
 -1       614 5.87243E-05 5.99244E-06 0.00000E+00
 -1       615 5.87307E-05 6.79783E-06 0.00000E+00
 -1       616 5.87371E-05 7.63177E-06 0.00000E+00
 -1       617 5.87435E-05 8.48948E-06 0.00000E+00
 -1       618 5.87498E-05 9.36616E-06-8.27181E-25
 -1       619 5.87561E-05 1.02570E-05 0.00000E+00
 -1       620 5.87623E-05 1.11573E-05 0.00000E+00
 -1       621 5.83966E-05 8.69219E-07-1.65436E-24
 -1       622 5.81508E-05 9.22990E-07 0.00000E+00
 -1       623 5.79202E-05 9.76754E-07 0.00000E+00
 -1       624 5.77005E-05 1.03043E-06 0.00000E+00
 -1       625 5.74878E-05 1.08402E-06 0.00000E+00
 -1       626 5.85933E-05 1.16698E-06 3.30872E-24
 -1       627 5.85036E-05 1.57684E-06 0.00000E+00
 -1       628 5.83940E-05 2.03985E-06 0.00000E+00
 -1       629 5.82666E-05 2.55022E-06-1.65436E-24
 -1       630 5.81237E-05 3.10216E-06 0.00000E+00
 -1       631 5.79673E-05 3.68981E-06 0.00000E+00
 -1       632 5.77998E-05 4.30732E-06 0.00000E+00
 -1       633 5.76232E-05 4.94887E-06 8.27181E-25
 -1       634 5.74397E-05 5.60861E-06 0.00000E+00
 -1       635 5.72517E-05 6.28068E-06 8.27181E-25
 -1       636 5.70612E-05 6.95925E-06 0.00000E+00
 -1       637 5.68704E-05 7.63848E-06 0.00000E+00
 -1       638 5.66815E-05 8.31251E-06-1.65436E-24
 -1       639 5.64967E-05 8.97551E-06-4.13590E-25
 -1       640 5.63179E-05 9.62162E-06 8.27181E-25
 -1       656 5.80166E-05 1.17666E-05 3.30872E-24
 -1       657 5.75307E-05 1.14591E-05 0.00000E+00
 -1       658 5.72085E-05 1.11525E-05 0.00000E+00
 -1       659 5.69459E-05 1.08462E-05 0.00000E+00
 -1       660 5.66294E-05 1.05390E-05 0.00000E+00
 -1       661 5.84903E-05 1.29490E-05 0.00000E+00
 -1       662 5.82289E-05 1.37977E-05 0.00000E+00
 -1       663 5.79813E-05 1.46093E-05 0.00000E+00
 -1       664 5.77474E-05 1.53857E-05 0.00000E+00
 -1       665 5.75262E-05 1.61282E-05 0.00000E+00
 -1       666 5.73172E-05 1.68384E-05 0.00000E+00
 -1       667 5.71198E-05 1.75177E-05 0.00000E+00
 -1       668 5.69336E-05 1.81676E-05 0.00000E+00
 -1       669 5.67579E-05 1.87892E-05 1.65436E-24
 -1       670 5.65923E-05 1.93840E-05 0.00000E+00
 -1       671 5.64363E-05 1.99531E-05-1.65436E-24
 -1       672 5.62894E-05 2.04977E-05 0.00000E+00
 -1       673 5.61512E-05 2.10190E-05 0.00000E+00
 -1       674 5.60208E-05 2.15179E-05 0.00000E+00
 -1       675 5.58985E-05 2.19957E-05-4.13590E-25
 -1       676 5.79344E-05 2.27430E-05 0.00000E+00
 -1       677 5.75027E-05 2.26845E-05 0.00000E+00
 -1       678 5.70714E-05 2.26259E-05-1.65436E-24
 -1       679 5.66405E-05 2.25676E-05 0.00000E+00
 -1       680 5.62101E-05 2.25093E-05-1.65436E-24
 -1       771 1.18567E-05 2.28760E-06 0.00000E+00
 -1       772 9.28524E-06 6.86112E-06-1.32349E-23
 -1       773 7.07709E-06 1.04764E-05-2.64698E-23
 -1       774 5.20782E-06 1.31951E-05 0.00000E+00
 -1       775 3.65344E-06 1.50799E-05 0.00000E+00
 -1       776 2.38901E-06 1.61953E-05-1.32349E-23
 -1       777 1.38931E-06 1.66070E-05 0.00000E+00
 -1       778 6.28685E-07 1.63820E-05 0.00000E+00
 -1       779 8.12802E-08 1.55881E-05 0.00000E+00
 -1       780-2.79127E-07 1.42946E-05-1.32349E-23
 -1       781-4.78843E-07 1.25713E-05 0.00000E+00
 -1       782-5.44469E-07 1.04888E-05-1.32349E-23
 -1       783-5.02654E-07 8.11838E-06-2.64698E-23
 -1       784-3.80194E-07 5.53192E-06 0.00000E+00
 -1       785-2.03984E-07 2.80153E-06-2.64698E-23
 -1       786 5.65733E-05 3.07935E-07 0.00000E+00
 -1       787 5.66200E-05 3.06460E-07 0.00000E+00
 -1       788 5.66665E-05 3.07609E-07 0.00000E+00
 -1       789 5.67135E-05 3.11726E-07 0.00000E+00
 -1       790 5.67605E-05 3.19474E-07 1.65436E-24
 -1       791 5.68076E-05 3.31524E-07-8.27181E-25
 -1       792 5.68547E-05 3.49010E-07 1.65436E-24
 -1       793 5.69019E-05 3.73078E-07 8.27181E-25
 -1       794 5.69490E-05 4.05584E-07 0.00000E+00
 -1       795 5.69962E-05 4.48398E-07-8.27181E-25
 -1       796 5.70433E-05 5.04504E-07 1.65436E-24
 -1       797 5.70904E-05 5.76912E-07 0.00000E+00
 -1       798 5.71375E-05 6.70389E-07 0.00000E+00
 -1       799 5.71845E-05 7.89745E-07-8.27181E-25
 -1       800 5.72315E-05 9.42577E-07 0.00000E+00
 -1       801 5.27114E-05 3.13850E-07 0.00000E+00
 -1       802 4.13464E-05 2.61161E-07 4.13590E-25
 -1       803 2.64158E-05 1.65638E-07 3.30872E-24
 -1       804 1.18993E-05 7.05952E-08 3.30872E-24
 -1       805 1.76819E-06 2.62450E-08 1.32349E-23
 -1       806 5.64732E-05 2.75660E-07 1.65436E-24
 -1       807 5.64147E-05 2.39707E-07 0.00000E+00
 -1       808 5.63543E-05 2.07498E-07 0.00000E+00
 -1       809 5.62912E-05 1.82135E-07 0.00000E+00
 -1       810 5.62242E-05 1.66718E-07 0.00000E+00
 -1       811 5.61524E-05 1.64300E-07 0.00000E+00
 -1       812 5.60744E-05 1.77929E-07 0.00000E+00
 -1       813 5.59894E-05 2.10648E-07 0.00000E+00
 -1       814 5.58960E-05 2.65499E-07 1.65436E-24
 -1       815 5.57932E-05 3.45519E-07 8.27181E-25
 -1       816 5.56798E-05 4.53745E-07-8.27181E-25
 -1       817 5.55547E-05 5.93213E-07 8.27181E-25
 -1       818 5.54167E-05 7.66957E-07 8.27181E-25
 -1       819 5.52649E-05 9.78001E-07 8.27181E-25
 -1       820 5.50982E-05 1.22937E-06 1.65436E-24
 -1       821 5.72112E-05 1.36249E-06 0.00000E+00
 -1       822 5.71405E-05 1.61155E-06 0.00000E+00
 -1       823 5.70700E-05 1.90257E-06 0.00000E+00
 -1       824 5.69987E-05 2.25425E-06-8.27181E-25
 -1       825 5.69274E-05 2.67622E-06-1.65436E-24
 -1       826 5.68559E-05 3.17786E-06 8.27181E-25
 -1       827 5.67843E-05 3.75662E-06-1.65436E-24
 -1       828 5.67127E-05 4.40974E-06 8.27181E-25
 -1       829 5.66410E-05 5.12329E-06 1.65436E-24
 -1       830 5.65694E-05 5.88314E-06 0.00000E+00
 -1       831 5.64977E-05 6.66825E-06 0.00000E+00
 -1       832 5.64262E-05 7.45749E-06 0.00000E+00
 -1       833 5.63547E-05 8.22910E-06 0.00000E+00
 -1       834 5.62840E-05 8.96140E-06 0.00000E+00
 -1       835 5.62131E-05 9.63855E-06 0.00000E+00
 -1       836 5.69925E-05 1.20105E-06-1.65436E-24
 -1       837 5.66218E-05 1.26698E-06 0.00000E+00
 -1       838 5.61971E-05 1.33279E-06 0.00000E+00
 -1       839 5.57503E-05 1.39817E-06 0.00000E+00
 -1       840 5.53128E-05 1.46345E-06-2.06795E-25
 -1       856 5.61262E-05 1.08574E-05-2.06795E-25
 -1       857 5.61035E-05 1.15478E-05 1.03398E-25
 -1       858 5.60810E-05 1.23037E-05 4.13590E-25
 -1       859 5.60580E-05 1.31128E-05 2.06795E-25
 -1       860 5.60350E-05 1.39627E-05-8.27181E-25
 -1       861 5.60119E-05 1.48411E-05 0.00000E+00
 -1       862 5.59887E-05 1.57354E-05 0.00000E+00
 -1       863 5.59655E-05 1.66333E-05 0.00000E+00
 -1       864 5.59423E-05 1.75222E-05 8.27181E-25
 -1       865 5.59192E-05 1.83898E-05 0.00000E+00
 -1       866 5.58960E-05 1.92235E-05-8.27181E-25
 -1       867 5.58729E-05 2.00110E-05 0.00000E+00
 -1       868 5.58498E-05 2.07399E-05 8.27181E-25
 -1       869 5.58267E-05 2.13979E-05-4.13590E-25
 -1       870 5.58037E-05 2.19727E-05 8.27181E-25
 -1       871 5.56802E-05 1.02443E-05 0.00000E+00
 -1       872 5.52886E-05 1.02422E-05 0.00000E+00
 -1       873 5.49396E-05 1.02397E-05 0.00000E+00
 -1       874 5.46006E-05 1.02369E-05 1.03398E-25
 -1       875 5.42393E-05 1.02338E-05-4.13590E-25
 -1       876 5.59847E-05 1.08639E-05 0.00000E+00
 -1       877 5.58103E-05 1.15207E-05 0.00000E+00
 -1       878 5.56236E-05 1.22108E-05 0.00000E+00
 -1       879 5.54261E-05 1.29299E-05-8.27181E-25
 -1       880 5.52194E-05 1.36738E-05 0.00000E+00
 -1       881 5.50050E-05 1.44381E-05-8.27181E-25
 -1       882 5.47845E-05 1.52186E-05 0.00000E+00
 -1       883 5.45596E-05 1.60111E-05 8.27181E-25
 -1       884 5.43317E-05 1.68112E-05 1.65436E-24
 -1       885 5.41026E-05 1.76147E-05 0.00000E+00
 -1       886 5.38737E-05 1.84175E-05 1.65436E-24
 -1       887 5.36467E-05 1.92151E-05-8.27181E-25
 -1       888 5.34231E-05 2.00034E-05 0.00000E+00
 -1       889 5.32043E-05 2.07779E-05 0.00000E+00
 -1       890 5.29919E-05 2.15345E-05-8.27181E-25
 -1       891 5.53660E-05 2.24214E-05 0.00000E+00
 -1       892 5.49381E-05 2.23904E-05 0.00000E+00
 -1       893 5.44814E-05 2.23595E-05-8.27181E-25
 -1       894 5.39804E-05 2.23286E-05-4.13590E-25
 -1       895 5.34198E-05 2.22978E-05 2.06795E-25
 -1       956 5.48491E-05 1.90704E-06-1.65436E-24
 -1       957 5.47810E-05 2.33390E-06 0.00000E+00
 -1       958 5.47127E-05 2.80003E-06 1.65436E-24
 -1       959 5.46442E-05 3.30063E-06 0.00000E+00
 -1       960 5.45757E-05 3.83085E-06 0.00000E+00
 -1       961 5.45071E-05 4.38585E-06-8.27181E-25
 -1       962 5.44385E-05 4.96075E-06 0.00000E+00
 -1       963 5.43700E-05 5.55071E-06-8.27181E-25
 -1       964 5.43014E-05 6.15085E-06 0.00000E+00
 -1       965 5.42328E-05 6.75630E-06-8.27181E-25
 -1       966 5.41642E-05 7.36221E-06 0.00000E+00
 -1       967 5.40956E-05 7.96371E-06 0.00000E+00
 -1       968 5.40271E-05 8.55593E-06 0.00000E+00
 -1       969 5.39587E-05 9.13403E-06 0.00000E+00
 -1       970 5.38905E-05 9.69317E-06 0.00000E+00
 -1       971 5.37592E-05 1.07788E-05-1.65436E-24
 -1       972 5.36942E-05 1.13867E-05-8.27181E-25
 -1       973 5.36291E-05 1.20461E-05 0.00000E+00
 -1       974 5.35639E-05 1.27502E-05 0.00000E+00
 -1       975 5.34987E-05 1.34924E-05 0.00000E+00
 -1       976 5.34333E-05 1.42660E-05-8.27181E-25
 -1       977 5.33680E-05 1.50645E-05 0.00000E+00
 -1       978 5.33026E-05 1.58811E-05 0.00000E+00
 -1       979 5.32373E-05 1.67092E-05 0.00000E+00
 -1       980 5.31719E-05 1.75421E-05 0.00000E+00
 -1       981 5.31066E-05 1.83732E-05-1.65436E-24
 -1       982 5.30413E-05 1.91957E-05 8.27181E-25
 -1       983 5.29761E-05 2.00031E-05 0.00000E+00
 -1       984 5.29112E-05 2.07887E-05-8.27181E-25
 -1       985 5.28466E-05 2.15458E-05 0.00000E+00
 -3
    1PSTEP                         6           3           1          
  100CL  103 3.75000E-01         409                     0    3           1
 -4  STRESS      6    1
 -5  SXX         1    4    1    1
 -5  SYY         1    4    2    2
 -5  SZZ         1    4    3    3
 -5  SXY         1    4    1    2
 -5  SYZ         1    4    2    3
 -5  SZX         1    4    3    1
 -1         1-1.29370E+06-5.94914E+05-2.63689E+05-8.37581E+05 1.12777E-10-5.35510E-09
 -1         2 2.17729E+03 2.49634E+05 7.12036E+03 6.02335E+02-1.06439E-10 5.93400E-09
 -1         3-3.57757E+01-5.44299E+05 1.96495E+02-1.39928E+02-1.35625E-10 2.42198E-09
 -1         5-4.40423E+00 1.95050E+05 5.11150E+00 2.15446E-02 7.09143E-11 6.71253E-09
 -1         8-6.08931E+05-2.65438E+05-2.04563E+04-4.62563E+05 2.21917E-10-7.63976E-10
 -1         9-1.04504E+06-2.67551E+05-1.03013E+05-3.59417E+05 2.66009E-09-3.57977E-10
 -1        10-8.80584E+02-5.79911E+05-1.14076E+03-1.02419E+03-1.04319E-09-1.70762E-08
 -1        12-2.30774E+00 1.95061E+05 1.65748E+02 4.22758E-01 1.09736E-10 6.83940E-10
 -1        15 1.61373E+03 8.86832E+02 5.21635E+03 2.73872E+00-4.01627E-10-8.20949E-08
 -1        16-2.95073E+06-9.47767E+05-4.58886E+05-9.62674E+05 8.52257E-09-7.05283E-09
 -1        17-6.52745E+05-4.05031E+05-1.26228E+05-3.76150E+05-7.32689E-10 8.09086E-10
 -1        18 2.01150E+04 1.42984E+03-9.92877E+03-4.59693E+04 5.79121E-10 2.22803E-09
 -1        19 6.10879E+04 7.28797E+04-3.38838E+02 1.19560E+04-4.27826E-10 1.53377E-09
 -1        20-2.53416E+04-2.88680E+05-6.36599E+04 2.14060E+04 2.20325E-09 8.64929E-10
 -1        21-2.73124E+01-1.67440E+05-5.40884E+02-4.95899E+01-4.66507E-09-1.46023E-08
 -1        24-2.59922E+06-8.91696E+05-3.70401E+05-1.08614E+06-1.28954E-08-5.38421E-09
 -1        25 2.37061E+04-8.03462E+02 1.41903E+04-8.30841E+04 2.92221E-10 1.72404E-09
 -1        26-1.40449E+04 4.98226E+04-9.84645E+03-7.16776E+03 1.22800E-09-6.90733E-10
 -1        27-4.62606E+04-1.58406E+05-5.94320E+04 3.56949E+04 4.02209E-09-1.87917E-09
 -1        28 1.29509E+04-4.62454E+04 9.45429E+03 1.48427E+04 1.14893E-09-1.12653E-09
 -1        32-6.15671E+05-8.39604E+04 2.68555E+05-4.17142E+05-1.21290E-08 1.04391E-08
 -1        33-9.05642E+04 4.66025E+04 1.65182E+04-2.71169E+04 7.97873E-10 6.65826E-09
 -1        34-1.17623E+05-1.17041E+04 2.76654E+02 3.61532E+04 3.39555E-09-4.84912E-09
 -1        35-1.31733E+04-1.83872E+04-7.18593E+02 2.91644E+04 4.05560E-09-6.96673E-09
 -1        51 1.13898E+04-3.03442E+05 2.87695E+04-7.56074E+05 1.01863E-10-2.06637E-09
 -1        52 6.55469E+03-3.01844E+05 1.92353E+04-8.81831E+05 7.13044E-10 2.85945E-09
 -1        53 4.64519E+03-3.10596E+05 1.68548E+04-7.53478E+05 2.61934E-10-5.12227E-09
 -1        54 1.39805E+04-3.08690E+05 2.74802E+04-8.84565E+05-3.71074E-10-1.47993E-08
 -1        55 2.93137E+04-3.18959E+05 4.94523E+04-7.53104E+05 4.80213E-10-4.82760E-09
 -1        56-2.48450E+06-2.80535E+05-1.94236E+05-9.57842E+05 1.74623E-10-3.49246E-09
 -1        57-2.56151E+06-4.57224E+05-1.30917E+05-9.51495E+05 1.77351E-09 1.09139E-09
 -1        58-2.52364E+06-3.41921E+05-4.57147E+04-9.45508E+05-7.57609E-10 6.75936E-09
 -1        59-2.51620E+06-3.85273E+05-2.72897E+04-9.66325E+05 5.45697E-11-3.97995E-09
 -1        60-2.52943E+06-3.50403E+05-1.06804E+04-9.43754E+05-4.35421E-10-4.78121E-09
 -1        61-2.51023E+06-3.74577E+05-6.07199E+03-9.67471E+05 3.71358E-10-8.73251E-09
 -1        62-2.52951E+06-3.52360E+05-2.92990E+03-9.44434E+05 1.58911E-09-6.84041E-09
 -1        63-2.51169E+06-3.70932E+05-2.40111E+03-9.64838E+05-1.43928E-10-2.44756E-09
 -1        64-2.52790E+06-3.54059E+05-2.77648E+03-9.46350E+05 6.18684E-10 5.29099E-10
 -1        65-2.51630E+06-3.68015E+05-5.53033E+03-9.59986E+05 7.46695E-10-6.18229E-09
 -1        66-2.52483E+06-3.55353E+05-9.76626E+03-9.49224E+05 9.59517E-10 9.09313E-09
 -1        67-2.52711E+06-3.72216E+05-2.47481E+04-9.52585E+05-3.06591E-09 7.32189E-09
 -1        68-2.51710E+06-3.50132E+05-4.15737E+04-9.53639E+05 9.71795E-10-2.38106E-09
 -1        69-2.57245E+06-4.33465E+05-1.18871E+05-9.34524E+05 6.84395E-10-8.67658E-09
 -1        70-2.47990E+06-2.95966E+05-1.76458E+05-9.66639E+05-7.23958E-10-2.91766E-09
 -1        86-1.09267E+03 2.47396E+05 7.61915E+03-3.01185E+02 9.50422E-10 3.75024E-09
 -1        87 7.25011E+03 2.52123E+05 1.59101E+04 1.24266E+03 1.57706E-09-3.15134E-09
 -1        88-6.15169E+03 2.44909E+05 2.43411E+04-9.41522E+02 2.34741E-09 6.18502E-09
 -1        89 4.58439E+04 2.70150E+05 6.56717E+04 2.69365E+03 3.63070E-09-2.97996E-09
 -1        90-3.95631E+04 2.29383E+05 9.27374E+04-1.75180E+03 4.17640E-09-2.80681E-09
 -1       121-7.13289E+01-5.44523E+05 2.02091E+02 6.99066E+01 2.75911E-10 2.73485E-09
 -1       122 2.68705E+01-5.44256E+05 4.30815E+02-2.79895E+02-9.45441E-10-6.05905E-09
 -1       123-1.17181E+02-5.44568E+05 7.16512E+02 2.09656E+02 7.86713E-10-9.40418E-10
 -1       124 7.95798E+02-5.43781E+05 1.80680E+03-6.48311E+02-1.85537E-09-6.95945E-09
 -1       125-6.18155E+02-5.45005E+05 2.81092E+03 4.38430E+02 1.19690E-09-1.60799E-09
 -1       191-4.79287E+00 1.95067E+05 6.07397E+00-1.12282E-02 1.21880E-10 8.56426E-09
 -1       192-4.87404E+00 1.95051E+05 1.08248E+01 4.25342E-01 1.79857E-10 3.93743E-09
 -1       193-6.04206E+00 1.95067E+05 2.00967E+01-4.17207E-01 1.92547E-10-3.37650E-09
 -1       194-6.38596E+00 1.95052E+05 4.09501E+01 1.11618E+00 1.14375E-10-6.14045E-09
 -1       195-8.44293E+00 1.95065E+05 8.00667E+01-7.07125E-01 3.06990E-10-5.23687E-09
 -1       251 2.24381E+05-3.84777E+04 8.98353E+04 3.81988E+03-3.36286E-10 1.88811E-09
 -1       252 2.65375E+05 4.45149E+04 6.37474E+04-1.21959E+04-7.79437E-10 7.45058E-09
 -1       253 2.39894E+05-5.95676E+03 2.32505E+04 2.57590E+03-3.90060E-10-2.53840E-09
 -1       254 2.47092E+05 6.88152E+03 1.47033E+04-1.02380E+04-2.30045E-10 1.09117E-09
 -1       255 2.42587E+05-9.19827E+02 6.00766E+03 1.86215E+03 4.19419E-10-1.02091E-10
 -1       256 2.43869E+05 1.09238E+03 3.65372E+03-9.18591E+03 7.95481E-10-1.22077E-09
 -1       257 2.43083E+05-1.60679E+02 1.87982E+03 1.52380E+03 4.15568E-10-1.01352E-10
 -1       258 2.43364E+05 3.41555E+02 1.66540E+03-8.84449E+03-3.15824E-10 4.64412E-09
 -1       259 2.43082E+05-1.63676E+02 1.90814E+03 1.52074E+03-2.86775E-11 4.88484E-09
 -1       260 2.43879E+05 1.11868E+03 3.73413E+03-9.17431E+03 6.54254E-10-4.96357E-09
 -1       261 2.42577E+05-9.42797E+02 6.15482E+03 1.85360E+03 3.51065E-10 3.73575E-09
 -1       262 2.47168E+05 7.05481E+03 1.50661E+04-1.02127E+04-1.45405E-10 8.77208E-09
 -1       263 2.39826E+05-6.10595E+03 2.38363E+04 2.55915E+03-4.07795E-10 1.05383E-08
 -1       264 2.65880E+05 4.56320E+04 6.53371E+04-1.21549E+04-1.79716E-09 3.97176E-09
 -1       265 2.23943E+05-3.94402E+04 9.20993E+04 3.79557E+03-1.19189E-09 6.79574E-09
 -1       266-2.92134E+04-1.36593E+04 6.85471E+04-5.86033E+01-4.98403E-10-1.34688E-07
 -1       267 3.38668E+04 1.59215E+04 4.84460E+04 6.76126E+01-8.94943E-10-2.50239E-07
 -1       268-4.54146E+03-2.25486E+03 1.80073E+04-8.61524E+00-7.21229E-10-2.03097E-07
 -1       269 5.36216E+03 2.69867E+03 1.17043E+04 1.00352E+01-6.18456E-10-1.56454E-07
 -1       270-8.04866E+02-4.43409E+02 5.64984E+03-1.36186E+00-4.37467E-10-1.10259E-07
 -1       271-2.87214E+06-3.58418E+05-2.21193E+05-1.11904E+06 1.05138E-09-5.51518E-09
 -1       272-2.93499E+06-5.36109E+05-1.42186E+05-1.13576E+06-7.87395E-10-6.91398E-09
 -1       273-2.91462E+06-4.12615E+05-5.22507E+04-1.10822E+06-7.38964E-10-3.28509E-09
 -1       274-2.88524E+06-4.69838E+05-2.92323E+04-1.15258E+06 1.65528E-10 1.10367E-09
 -1       275-2.92142E+06-4.17216E+05-1.21540E+04-1.10533E+06 1.71349E-09 1.25419E-09
 -1       276-2.87717E+06-4.64512E+05-6.45324E+03-1.15728E+06-3.62206E-10 2.86764E-09
 -1       277-2.92307E+06-4.16898E+05-3.15698E+03-1.10414E+06 6.60521E-10 4.38115E-09
 -1       278-2.87563E+06-4.64678E+05-2.29448E+03-1.15871E+06 8.06381E-10 7.95114E-09
 -1       279-2.92316E+06-4.16861E+05-2.46284E+03-1.10407E+06-7.27596E-12-7.19638E-10
 -1       280-2.87670E+06-4.64407E+05-4.51191E+03-1.15762E+06-1.64709E-09-1.03705E-09
 -1       281-2.92184E+06-4.17309E+05-8.26817E+03-1.10511E+06-1.63436E-09-5.33146E-09
 -1       282-2.88274E+06-4.67284E+05-1.97207E+04-1.15353E+06-1.53432E-09 1.85901E-09
 -1       283-2.91673E+06-4.14775E+05-3.52463E+04-1.10763E+06 7.41238E-10 1.12777E-09
 -1       284-2.91736E+06-5.10624E+05-9.57649E+04-1.14057E+06 1.95098E-09-6.42103E-10
 -1       285-2.88732E+06-3.79148E+05-1.49116E+05-1.11583E+06 1.77170E-09 2.13913E-09
 -1       301 1.10251E+04-6.66494E+03 8.58173E+04-2.13868E+04-4.94765E-10 1.10253E-09
 -1       302 1.18591E+04 1.50977E+04 6.20464E+04-3.14925E+04 1.09526E-09 2.56387E-09
 -1       303 5.46905E+02 1.03145E+03 5.72386E+04-2.14445E+04-9.25866E-10-6.04359E-10
 -1       304 2.24289E+04 2.48537E+04 9.64154E+04-3.14014E+04 4.42014E-10 1.65528E-09
 -1       305 2.22209E+04-1.63505E+04 1.61884E+05-2.14096E+04-9.45874E-10 2.75531E-09
 -1       306-3.08045E+06-3.56715E+05-2.35068E+05-1.20481E+06 2.00453E-09-1.48430E-09
 -1       307-3.20255E+06-5.54220E+05-1.60246E+05-1.16265E+06 1.16052E-09 3.36513E-09
 -1       308-3.13540E+06-4.28274E+05-5.53273E+04-1.18104E+06 3.41061E-11-3.11411E-09
 -1       309-3.13356E+06-4.76401E+05-3.34556E+04-1.19686E+06 7.69163E-10 1.01136E-09
 -1       310-3.14914E+06-4.33095E+05-1.29909E+04-1.17110E+06-9.57016E-10 6.21185E-09
 -1       311-3.11556E+06-4.73145E+05-7.50555E+03-1.21138E+06 4.23148E-09 1.32460E-08
 -1       312-3.15352E+06-4.31198E+05-3.67301E+03-1.16671E+06 1.85017E-09 5.68332E-09
 -1       313-3.11204E+06-4.74146E+05-3.30704E+03-1.21483E+06 1.02027E-09 4.12433E-09
 -1       314-3.15271E+06-4.32024E+05-3.98761E+03-1.16771E+06-8.51060E-10-2.18733E-09
 -1       315-3.11865E+06-4.70335E+05-8.36546E+03-1.20766E+06-9.85608E-10 6.75561E-09
 -1       316-3.14678E+06-4.35133E+05-1.46727E+04-1.17378E+06 2.99497E-09 5.72072E-10
 -1       317-3.13998E+06-4.73210E+05-3.78120E+04-1.19038E+06-2.06626E-11-1.80262E-09
 -1       318-3.13129E+06-4.29498E+05-6.25522E+04-1.18479E+06-4.43652E-09 5.30781E-09
 -1       319-3.21694E+06-5.62599E+05-1.81278E+05-1.15342E+06-2.49838E-09 1.83718E-09
 -1       320-3.07024E+06-3.47301E+05-2.65772E+05-1.21023E+06 6.43558E-09-3.31784E-09
 -1       336 7.53317E+02-6.14882E+05-4.57185E+03 5.84924E+02-1.71860E-09 3.88354E-09
 -1       337-1.68043E+03-6.16236E+05-4.60171E+03-1.53888E+03-1.42199E-09-8.01265E-09
 -1       338 3.81404E+02-6.15129E+05-5.24930E+03 9.51262E+02-2.53704E-09 8.18909E-09
 -1       339-5.38574E+03-6.18474E+05-1.11488E+04-2.26435E+03-1.82445E-09 1.00758E-08
 -1       340 3.75930E+03-6.12681E+05-1.69199E+04 1.30616E+03-2.73394E-09 1.45792E-09
 -1       406 1.03161E+01 1.95058E+05 3.27195E+02 2.72328E-01 4.23512E-10 7.16227E-10
 -1       407 1.11791E+02 1.95118E+05 6.95498E+02-7.55323E+00 9.20863E-11-4.33010E-09
 -1       408 3.55674E+02 1.95008E+05 1.38902E+03 7.38652E+00 5.09772E-10-4.26917E-09
 -1       409 1.49983E+03 1.95562E+05 3.12723E+03-6.88350E+01-5.29781E-11-3.79055E-09
 -1       410 4.31340E+03 1.94613E+05 6.38412E+03 6.34619E+01 5.83896E-10 4.31692E-09
 -1       521-5.83768E+06-6.74319E+05-4.37512E+05-2.27087E+06 4.67844E-09-7.91624E-09
 -1       522-6.04087E+06-1.05665E+06-2.96917E+05-2.21741E+06-7.29415E-10-1.60071E-09
 -1       523-5.94699E+06-7.97284E+05-1.02905E+05-2.21775E+06 5.27507E-10-1.30240E-09
 -1       524-5.90509E+06-9.23003E+05-6.18491E+04-2.29196E+06 8.51742E-10-3.02316E-09
 -1       525-5.97304E+06-8.04242E+05-2.39481E+04-2.19777E+06 1.94950E-09 0.00000E+00
 -1       526-5.87874E+06-9.10699E+05-1.37821E+04-2.31101E+06-1.62657E-09-1.86992E-09
 -1       527-5.97354E+06-8.08823E+05-6.67932E+03-2.19910E+06 4.89081E-09-1.66892E-10
 -1       528-5.89298E+06-8.89877E+05-5.42746E+03-2.29017E+06 3.23462E-09 8.36735E-10
 -1       529-5.95813E+06-8.25450E+05-6.98693E+03-2.21815E+06-3.98495E-09-3.01452E-09
 -1       530-5.93312E+06-8.53018E+05-1.32056E+04-2.24303E+06-4.95857E-09 1.58252E-10
 -1       531-5.93275E+06-8.46210E+05-2.42351E+04-2.24573E+06-3.30920E-09 4.34738E-10
 -1       532-5.99303E+06-8.33579E+05-6.12278E+04-2.18942E+06 3.72779E-09-9.22500E-09
 -1       533-5.89887E+06-8.45068E+05-1.01983E+05-2.27197E+06 5.14774E-09-5.26052E-09
 -1       534-6.12273E+06-9.75383E+05-2.95186E+05-2.12854E+06-5.45697E-10 1.26020E-08
 -1       535-5.80507E+06-7.06982E+05-4.33788E+05-2.30636E+06-9.32778E-09 8.81846E-09
 -1       536-2.47913E+04-1.59627E+04 3.67430E+04 2.57346E+02-1.74521E-09-1.04228E-09
 -1       537-7.58585E+03 1.84690E+04 2.62132E+04-1.27987E+03-6.44360E-09-3.49428E-09
 -1       538-1.84840E+04-2.50266E+03 9.46882E+03 2.83288E+02-3.63030E-10 4.05635E-09
 -1       539-1.50452E+04 2.88782E+03 6.07295E+03-1.35739E+03 1.85779E-09 1.60389E-09
 -1       540-1.73410E+04-3.89728E+02 2.38445E+03 3.34866E+02 2.80266E-10 4.62137E-09
 -1       541-1.64644E+04 4.44738E+02 1.43928E+03-1.44848E+03-8.94005E-11 1.09612E-08
 -1       542-1.70707E+04-5.72832E+01 5.64802E+02 3.74365E+02-4.96726E-10-3.95545E-10
 -1       543-1.68352E+04 5.25075E+01 2.82835E+02-1.51127E+03 2.30941E-10-5.73817E-09
 -1       544-1.69744E+04 5.19276E+00 2.11921E+01 3.97654E+02-1.65254E-10-5.39876E-09
 -1       545-1.69914E+04-8.59768E+01-2.14372E+02-1.54085E+03-1.34558E-10-1.06672E-09
 -1       546-1.69164E+04 8.25511E+01-4.74491E+02 4.03943E+02 1.51615E-10 2.44225E-09
 -1       547-1.72354E+04-6.08782E+02-1.24086E+03-1.53619E+03-1.57829E-09-6.75740E-10
 -1       548-1.67301E+04 5.27383E+02-2.01168E+03 3.92998E+02-2.07606E-09-1.48611E-09
 -1       549-1.86459E+04-3.88698E+03-5.47822E+03-1.49580E+03-8.72490E-10 3.84262E-11
 -1       550-1.55032E+04 3.35629E+03-7.80922E+03 3.63551E+02-1.14355E-10 3.31511E-10
 -1       551 5.78548E+03-3.08936E+05 1.72477E+04-5.29594E+05-2.34213E-08-3.29601E-09
 -1       552 1.20934E+04-3.09638E+05 2.24159E+04-7.53696E+05-1.76515E-08 1.19617E-08
 -1       553 7.91215E+03-3.13720E+05 3.48043E+04-5.27876E+05-2.85945E-08 9.50604E-09
 -1       554 2.93020E+04-2.98873E+05 7.38613E+04-7.54418E+05-1.80153E-08 3.20347E-09
 -1       555 2.93012E+04-3.27796E+05 1.32674E+05-5.28566E+05-2.91693E-08-7.49424E-10
 -1       556 4.40293E+04-9.91807E+04 3.43937E+04-1.31922E+05-4.05998E-09-2.74304E-09
 -1       557 8.43141E+04-1.32862E+05 1.80210E+04-1.64860E+05-4.94765E-10 3.28600E-09
 -1       558 4.43037E+04-1.04004E+05 7.35112E+03-1.27758E+05-1.00117E-08-5.58430E-10
 -1       559 7.92858E+04-1.37702E+05 3.71019E+03-1.66960E+05-6.70843E-09-5.22869E-09
 -1       560 4.34136E+04-1.03399E+05 1.56724E+03-1.28289E+05-5.76256E-09 1.06957E-09
 -1       561 7.77888E+04-1.37386E+05 8.18004E+02-1.67899E+05 1.45519E-11 7.09497E-09
 -1       562 4.26740E+04-1.02893E+05 3.25065E+02-1.28825E+05 1.36060E-09-1.33264E-09
 -1       563 7.69088E+04-1.37010E+05 1.93430E+02-1.68461E+05-7.78527E-10-4.71164E-09
 -1       564 4.22143E+04-1.02593E+05 7.05734E+01-1.29153E+05 3.13412E-09 5.72982E-10
 -1       565 7.64562E+04-1.36818E+05 3.75461E+01-1.68744E+05 2.01544E-09 3.60706E-09
 -1       566 4.20554E+04-1.02485E+05-2.14091E+01-1.29270E+05-7.80346E-10-2.90402E-09
 -1       567 7.63975E+04-1.36789E+05-9.44784E+01-1.68732E+05 4.15230E-09 7.44149E-09
 -1       568 4.22231E+04-1.02596E+05-2.55161E+02-1.29199E+05-1.20235E-09 5.51881E-09
 -1       569 7.62291E+04-1.36673E+05-5.99829E+02-1.67991E+05-2.01908E-09 4.87489E-09
 -1       570 4.31313E+04-1.03460E+05-1.25151E+03-1.29242E+05 1.90994E-09-2.76532E-09
 -1       571 1.41371E+05 5.12559E+03 7.59416E+03-3.56059E+04 4.28372E-10 1.65664E-09
 -1       572 1.42502E+05 1.78255E+03 3.72049E+03-3.90299E+04 8.70841E-11-1.26374E-09
 -1       573 1.41827E+05 4.24692E+02 1.65277E+03-3.55127E+04-9.92713E-10 2.31944E-09
 -1       574 1.41962E+05 1.37593E+02 8.27972E+02-3.91341E+04-8.03084E-10 3.99086E-09
 -1       575 1.41879E+05 1.83471E+01 3.90185E+02-3.55004E+04 1.12186E-09 1.97315E-09
 -1       576 1.41888E+05 4.47822E+00 1.98534E+02-3.91481E+04-3.60274E-10-3.90173E-10
 -1       577 1.41887E+05-3.41242E+00 9.77287E+01-3.54988E+04-8.86757E-12 1.78716E-09
 -1       578 1.41880E+05-1.82768E+00 5.31516E+01-3.91497E+04-8.80732E-10-2.84217E-10
 -1       579 1.41894E+05-4.04095E+00 3.23501E+01-3.54987E+04-6.45741E-11-3.00088E-09
 -1       580 1.41889E+05-4.86099E+00 2.98913E+01-3.91476E+04-8.25139E-10-4.35375E-09
 -1       581 1.41905E+05-7.63505E+00 4.03227E+01-3.55009E+04-1.42700E-09-1.86219E-09
 -1       582 1.41912E+05-1.24107E+00 7.65290E+01-3.91264E+04-1.43928E-09-3.11002E-09
 -1       583 1.41918E+05 1.84635E+01 1.46862E+02-3.55199E+04 5.82986E-10-4.50427E-10
 -1       584 1.41982E+05 1.33375E+02 3.29066E+02-3.89679E+04 3.82443E-10-2.27737E-09
 -1       585 1.41899E+05 4.24206E+02 6.68507E+02-3.56596E+04 8.11269E-10 1.10504E-09
 -1       586-1.73946E+03 4.61993E+04-2.30392E+03-1.21111E+05 3.45608E-10 3.81851E-09
 -1       587-3.78139E+02 4.58907E+04-2.71893E+02-1.33271E+05 6.04814E-10 2.92857E-09
 -1       588 4.76868E+02 4.59513E+04 1.60355E+03-1.21037E+05 3.80169E-10 3.92538E-09
 -1       589 2.39468E+03 4.68298E+04 4.69029E+03-1.33162E+05 5.69344E-10 1.58070E-09
 -1       590 6.88463E+03 4.53711E+04 1.00514E+04-1.21221E+05 2.82853E-10 2.82853E-10
 -1       591-3.08956E+04-8.85988E+03-1.02781E+04-1.60399E+04-5.71748E-09 1.42068E-08
 -1       592-3.18534E+04-1.13889E+04-5.56707E+03-1.87257E+04-1.58722E-08 8.98990E-09
 -1       593-3.19348E+04-8.10251E+03-2.31762E+03-1.67818E+04-9.76956E-09 9.57698E-10
 -1       594-3.04208E+04-9.89516E+03-1.15591E+03-1.87969E+04-1.10583E-09 4.63297E-09
 -1       595-3.20142E+04-8.09913E+03-5.31219E+02-1.68158E+04-2.32876E-09 3.87971E-09
 -1       596-3.03237E+04-9.82676E+03-2.70796E+02-1.87868E+04-3.92218E-09-3.01785E-09
 -1       597-3.20243E+04-8.10572E+03-1.49072E+02-1.68172E+04-9.74307E-10 2.76515E-09
 -1       598-3.03145E+04-9.82414E+03-1.22796E+02-1.87840E+04 3.22856E-10 3.21810E-09
 -1       599-3.20236E+04-8.10571E+03-1.60532E+02-1.68170E+04-8.08882E-11-4.47545E-09
 -1       600-3.03250E+04-9.82760E+03-3.01194E+02-1.87867E+04-1.27284E-09-1.69734E-09
 -1       601-3.20111E+04-8.09845E+03-5.95690E+02-1.68150E+04 1.88152E-10 1.72349E-09
 -1       602-3.04341E+04-9.90431E+03-1.29914E+03-1.87970E+04-6.86100E-11 8.29971E-10
 -1       603-3.19209E+04-8.10341E+03-2.60569E+03-1.67770E+04-6.49152E-10 5.76847E-10
 -1       604-3.20501E+04-1.15780E+04-6.25941E+03-1.87094E+04-1.01130E-09-5.81167E-10
 -1       605-3.07458E+04-8.95985E+03-1.15562E+04-1.59485E+04 1.98952E-11-4.44788E-09
 -1       606 2.02312E+04-6.80711E+03-1.22612E+04 1.97807E+04-3.65708E-09-3.08228E-09
 -1       607 1.81314E+04-2.19547E+03-6.10551E+03 2.22048E+04-1.43291E-09-3.57625E-09
 -1       608 1.93261E+04-3.69316E+02-2.73380E+03 1.96228E+04-6.92216E-09-1.68689E-09
 -1       609 1.90900E+04-9.68357E+01-1.38091E+03 2.23791E+04-1.90362E-08-4.02122E-09
 -1       610 1.92194E+04 1.69845E+01-6.59386E+02 1.96052E+04-1.18189E-08 6.60998E-09
 -1       611 1.91757E+04 2.44070E+01-3.32676E+02 2.23982E+04-6.38056E-09 5.70913E-09
 -1       612 1.91928E+04 2.61201E+01-1.59062E+02 1.96034E+04-5.33601E-09 5.15911E-10
 -1       613 1.91770E+04 2.87844E+01-7.26101E+01 2.24005E+04-6.88851E-09 6.37101E-10
 -1       614 1.91790E+04 2.52503E+01-2.02938E+01 1.96028E+04-1.91176E-09-3.25144E-10
 -1       615 1.91709E+04 3.13977E+01 2.23812E+01 2.24009E+04 2.23577E-09 8.32642E-10
 -1       616 1.91685E+04 2.82587E+01 7.45678E+01 1.96030E+04-5.09772E-09-2.92357E-09
 -1       617 1.91770E+04 4.92411E+01 1.72968E+02 2.24005E+04-2.54386E-09-7.15636E-09
 -1       618 1.91512E+04 7.96194E+01 3.49729E+02 1.96031E+04-8.12292E-09-2.18961E-09
 -1       619 1.92987E+04 3.20966E+02 7.86050E+02 2.24001E+04-1.58479E-08 1.04501E-09
 -1       620 1.90338E+04 9.10483E+02 1.58015E+03 1.96025E+04-6.75448E-09-1.70257E-09
 -1       621 2.47080E+02 1.54047E+05 2.13667E+03 4.93846E+03-2.14570E-10-5.94571E-09
 -1       622 2.82238E+02 1.54576E+05 1.81139E+03 7.21071E+03-1.49726E-10-2.51106E-09
 -1       623 1.18590E+01 1.54200E+05 2.08040E+03 4.91524E+03-2.31125E-10-3.08887E-09
 -1       624 9.40558E+02 1.55180E+05 3.94819E+03 7.23343E+03-2.35730E-10 1.60541E-08
 -1       625 9.44251E+02 1.53440E+05 6.86263E+03 4.91597E+03-1.85764E-10 6.51286E-09
 -1       626 1.26976E+05 3.52353E+04 2.52742E+03 6.87215E+04 4.80168E-09 7.83893E-09
 -1       627 1.25232E+05 3.65222E+04 1.21762E+03 7.15044E+04-6.27551E-11-5.86340E-09
 -1       628 1.27074E+05 3.40378E+04 5.14468E+02 6.91029E+04 1.42063E-09 4.23847E-09
 -1       629 1.24868E+05 3.62348E+04 2.52064E+02 7.16731E+04 2.11776E-09 3.27378E-09
 -1       630 1.27082E+05 3.39801E+04 1.16649E+02 6.91141E+04 6.45741E-11-1.06354E-09
 -1       631 1.24826E+05 3.62278E+04 6.26943E+01 7.16761E+04-2.46700E-10-1.90310E-09
 -1       632 1.27078E+05 3.39838E+04 4.14632E+01 6.91093E+04-6.01540E-09-1.22847E-08
 -1       633 1.24818E+05 3.62311E+04 4.63309E+01 7.16721E+04-1.63527E-09-6.63999E-09
 -1       634 1.27071E+05 3.39839E+04 7.50892E+01 6.91065E+04 4.53474E-09-3.50201E-09
 -1       635 1.24821E+05 3.62321E+04 1.52307E+02 7.16721E+04 1.65551E-09-4.85420E-09
 -1       636 1.27063E+05 3.39832E+04 3.07698E+02 6.91043E+04-7.72627E-09-6.72458E-09
 -1       637 1.24884E+05 3.62812E+04 6.76309E+02 7.16689E+04-2.78907E-09 5.31281E-09
 -1       638 1.27036E+05 3.41344E+04 1.39005E+03 6.90345E+04-1.16779E-09 2.68074E-09
 -1       639 1.25610E+05 3.72985E+04 3.28848E+03 7.14522E+04-3.70619E-10-7.87441E-09
 -1       640 1.26938E+05 3.71620E+04 6.82462E+03 6.77487E+04 5.97083E-09 6.33520E-09
 -1       656 3.44389E+04-8.71593E+05-8.31468E+04-4.78479E+02-2.25555E-10 2.93466E-09
 -1       657-4.55052E+04-9.09139E+05-6.87608E+04 5.68988E+03 4.31100E-10-8.45823E-10
 -1       658 1.09181E+04-8.82307E+05-4.21948E+04-1.11742E+03 3.31511E-10-1.22921E-09
 -1       659-4.87820E+04-9.10685E+05-7.30646E+04 6.11198E+03-7.49424E-10 5.63626E-09
 -1       660 3.77072E+04-8.70050E+05-9.05543E+04-9.00563E+02-9.78616E-10 3.01299E-09
 -1       661 1.23946E+05 1.34775E+04 1.18799E+04 4.84091E+04 1.71326E-09-1.56024E-09
 -1       662 1.30112E+05 2.28164E+04 8.00503E+03 4.63673E+04 2.50935E-09-7.49810E-09
 -1       663 1.26272E+05 1.72957E+04 2.80023E+03 4.77403E+04-2.76884E-10 4.52133E-10
 -1       664 1.27423E+05 1.83450E+04 1.67410E+03 4.71783E+04 1.69385E-09-2.37078E-09
 -1       665 1.26618E+05 1.78234E+04 6.60414E+02 4.76454E+04-2.68142E-09-3.59330E-09
 -1       666 1.27019E+05 1.77362E+04 3.85044E+02 4.72982E+04-4.53923E-09-1.35202E-09
 -1       667 1.26674E+05 1.78886E+04 2.03018E+02 4.76264E+04-4.22062E-11 1.71595E-09
 -1       668 1.26961E+05 1.76822E+04 2.03251E+02 4.73243E+04 5.11313E-09-3.48371E-09
 -1       669 1.26676E+05 1.78759E+04 2.72335E+02 4.76198E+04 1.92638E-09 4.05753E-09
 -1       670 1.27033E+05 1.78224E+04 5.90222E+02 4.73194E+04 5.45606E-09 3.87145E-09
 -1       671 1.26602E+05 1.77513E+04 1.04715E+03 4.76301E+04 5.34570E-10-5.57958E-09
 -1       672 1.27647E+05 1.88370E+04 2.67838E+03 4.71675E+04 8.29289E-10-7.97877E-09
 -1       673 1.26065E+05 1.68869E+04 4.48830E+03 4.77619E+04 8.77833E-10-8.80618E-10
 -1       674 1.31924E+05 2.60435E+04 1.28359E+04 4.59072E+04-2.83308E-10 2.50111E-10
 -1       675 1.22353E+05 1.07464E+04 1.90521E+04 4.88146E+04 1.50112E-09-1.42518E-09
 -1       676 1.40377E+01-1.67395E+05-6.51901E+02 2.47955E+01-2.91182E-09-4.10433E-09
 -1       677-1.73030E+02-1.67553E+05-1.19302E+03-4.95776E+01-5.52885E-09 3.32698E-09
 -1       678 1.15547E+02-1.67283E+05-2.10893E+03 2.47649E+01 2.15323E-10 1.43112E-09
 -1       679-2.10924E+03-1.68826E+05-5.00963E+03-4.94494E+01-2.01362E-09-4.06282E-09
 -1       680 1.25875E+03-1.66123E+05-8.07390E+03 2.43829E+01-1.36424E-11-1.00799E-09
 -1       771-1.79985E+06-3.13616E+05-4.39168E+04-7.45339E+05-6.40284E-09-6.06087E-09
 -1       772-1.78877E+06-3.37445E+05-2.35768E+04-7.71882E+05-5.36238E-09-1.74896E-09
 -1       773-1.80574E+06-3.09047E+05-1.01560E+04-7.47798E+05-2.36469E-09 3.45972E-09
 -1       774-1.78240E+06-3.32212E+05-4.94948E+03-7.74401E+05 6.28279E-09-4.08363E-10
 -1       775-1.80703E+06-3.08242E+05-2.49447E+03-7.47952E+05-9.38599E-10 4.35830E-09
 -1       776-1.78224E+06-3.32216E+05-1.15188E+03-7.75690E+05-2.65936E-09 1.48430E-09
 -1       777-1.80789E+06-3.07627E+05-7.10730E+02-7.48020E+05 6.83940E-10 9.58607E-10
 -1       778-1.78244E+06-3.32387E+05-3.16938E+02-7.76758E+05 1.41881E-09 2.72530E-09
 -1       779-1.80857E+06-3.07104E+05-3.09929E+02-7.48081E+05-1.17507E-09-2.19370E-09
 -1       780-1.78267E+06-3.32533E+05-2.42114E+02-7.77621E+05-2.31921E-09-5.66160E-11
 -1       781-1.80907E+06-3.06684E+05-4.31916E+02-7.48124E+05-4.76211E-09-9.39053E-10
 -1       782-1.78291E+06-3.32679E+05-7.85818E+02-7.78257E+05-7.93625E-09-2.37765E-09
 -1       783-1.80937E+06-3.06411E+05-1.57274E+03-7.48137E+05-2.32467E-09-3.34097E-09
 -1       784-1.78397E+06-3.33747E+05-3.72519E+03-7.78602E+05-4.74847E-09 3.45608E-11
 -1       785-1.80886E+06-3.06766E+05-6.88804E+03-7.47649E+05-8.01265E-09 1.07866E-09
 -1       786 1.31670E+05-7.01471E+03 1.62281E+04 3.53558E-01 1.81634E-07 2.59388E-09
 -1       787 1.38702E+05 8.12083E+03 1.14812E+04-4.92184E+00 3.61350E-07 6.39898E-09
 -1       788 1.34384E+05-1.09963E+03 4.20026E+03 2.03037E+00 4.71233E-07-6.49743E-09
 -1       789 1.35542E+05 1.27234E+03 2.63909E+03-8.88452E+00 5.80998E-07 5.50531E-09
 -1       790 1.34831E+05-1.71783E+02 1.07389E+03 4.31628E+00 7.58833E-07-2.09980E-09
 -1       791 1.35019E+05 1.99605E+02 6.30635E+02-1.45860E+01 9.37874E-07 6.60236E-09
 -1       792 1.34906E+05-2.77020E+01 2.88056E+02 7.73200E+00 1.28364E-06-9.37651E-09
 -1       793 1.34935E+05 3.90198E+01 1.89246E+02-2.33064E+01 1.62680E-06 9.61212E-09
 -1       794 1.34916E+05-1.13036E+01 1.40928E+02 1.30368E+01 8.13889E-07-5.13859E-09
 -1       795 1.34944E+05 5.86050E+01 2.04929E+02-3.69714E+01 3.01487E-09-6.26255E-11
 -1       796 1.34897E+05-4.72728E+01 3.07618E+02 2.13972E+01 4.31916E-10-1.18146E-09
 -1       797 1.35084E+05 3.46612E+02 7.25864E+02-5.85909E+01-1.77961E-10-2.38164E-09
 -1       798 1.34776E+05-2.99098E+02 1.14593E+03 3.46567E+01-2.50107E-11-2.67221E-09
 -1       799 1.35943E+05 2.20842E+03 3.12416E+03-9.31401E+01-7.60533E-10 1.81564E-09
 -1       800 1.34038E+05-1.90758E+03 4.41321E+03 5.59466E+01-1.03214E-10 2.27828E-09
 -1       801-8.16092E+03 8.25812E+03 1.08453E+04 1.40544E+04 7.74617E-09-6.16183E-11
 -1       802 2.03173E+04 7.35968E+04 3.92304E+04-5.78339E+04 2.07583E-08-5.74028E-09
 -1       803-1.15775E+04 3.30994E+04 4.92073E+04 1.31584E+04 1.63218E-08 1.27227E-08
 -1       804 9.56147E+04 1.14700E+05 1.37985E+05-5.85903E+04 1.92613E-08 1.74501E-08
 -1       805-8.34998E+04-3.26368E+04 1.77130E+05 1.48089E+04 6.73754E-09 1.88035E-08
 -1       806-1.54001E+05-3.30485E+04-1.31103E+04-6.41878E+04-2.04909E-09-5.07271E-09
 -1       807-1.54767E+05-3.11772E+04-6.44078E+03-6.76709E+04 2.08416E-09 1.30376E-09
 -1       808-1.54373E+05-2.83119E+04-2.73221E+03-6.64115E+04 9.31777E-10-8.90175E-10
 -1       809-1.53392E+05-2.93891E+04-1.33571E+03-6.78569E+04 1.66432E-09 3.57318E-09
 -1       810-1.54432E+05-2.81447E+04-6.11597E+02-6.65097E+04-1.53477E-10 4.61102E-09
 -1       811-1.53287E+05-2.93183E+04-3.03309E+02-6.78415E+04 2.53488E-09 1.35694E-08
 -1       812-1.54442E+05-2.81569E+04-1.51316E+02-6.65096E+04-1.09958E-09 5.88875E-09
 -1       813-1.53273E+05-2.93201E+04-9.54289E+01-6.78336E+04-5.46311E-09 8.51730E-09
 -1       814-1.54441E+05-2.81613E+04-8.93810E+01-6.65077E+04-4.02542E-09 1.80535E-09
 -1       815-1.53275E+05-2.93215E+04-1.39896E+02-6.78317E+04-2.21939E-09 2.18472E-09
 -1       816-1.54432E+05-2.81600E+04-2.62021E+02-6.65061E+04-1.64255E-09 4.15957E-09
 -1       817-1.53321E+05-2.93465E+04-5.61881E+02-6.78273E+04 5.70708E-11-8.49923E-10
 -1       818-1.54399E+05-2.82385E+04-1.14503E+03-6.64690E+04 2.19097E-09 3.68618E-09
 -1       819-1.53953E+05-3.00335E+04-2.69510E+03-6.76745E+04-2.48292E-10-2.93085E-10
 -1       820-1.54182E+05-3.02763E+04-5.48488E+03-6.56008E+04 4.71664E-09 1.75295E-08
 -1       821-1.99285E+05 1.10613E+04-2.55827E+04 2.76599E+01-5.42520E-10-3.05590E-10
 -1       822-2.10370E+05-1.28053E+04-1.81029E+04-3.14555E+02-1.92060E-09 2.33081E-09
 -1       823-2.03563E+05 1.73402E+03-6.62605E+03-1.13783E+01 1.21318E-09 3.93175E-09
 -1       824-2.05384E+05-2.00707E+03-4.16953E+03-2.08787E+02-1.75575E-11 3.67186E-09
 -1       825-2.04270E+05 2.71452E+02-1.71313E+03-7.81111E+01-2.72932E-09-1.60685E-09
 -1       826-2.04563E+05-3.20181E+02-1.03559E+03-6.87191E+01-4.14271E-09 1.37889E-09
 -1       827-2.04384E+05 4.83303E+01-5.34723E+02-1.51449E+02-3.37650E-09 2.70377E-09
 -1       828-2.04450E+05-9.78024E+01-4.74167E+02 6.21220E+01-5.26493E-09 1.52483E-09
 -1       829-2.04382E+05 4.92634E+01-5.42563E+02-2.08955E+02-6.81261E-10-2.00589E-09
 -1       830-2.04572E+05-3.27938E+02-1.06022E+03 1.43728E+02 1.03062E-09-6.08219E-09
 -1       831-2.04263E+05 2.78366E+02-1.75509E+03-2.33057E+02-1.86672E-09-1.46963E-09
 -1       832-2.05415E+05-2.05828E+03-4.27672E+03 1.51538E+02-4.70706E-10-2.08610E-09
 -1       833-2.03540E+05 1.77836E+03-6.79560E+03-2.16764E+02-5.19349E-10 3.53930E-09
 -1       834-2.10523E+05-1.31334E+04-1.85673E+04 8.49384E+01-2.87588E-10-1.55774E-09
 -1       835-1.99155E+05 1.13448E+04-2.62398E+04-1.66451E+02 3.96193E-09-3.34876E-09
 -1       836-6.63930E+02 1.88900E+05 1.13738E+04-1.66644E+04 1.30331E-09-2.67801E-09
 -1       837 2.50291E+03 1.92423E+05 9.70500E+03-3.34794E+04 1.93177E-09-3.02487E-09
 -1       838-2.44542E+02 1.89883E+05 1.00010E+04-1.66072E+04 1.80307E-09 5.07498E-10
 -1       839 6.41553E+03 1.95343E+05 1.90300E+04-3.35001E+04 2.42289E-09 4.87091E-10
 -1       840-1.92992E+03 1.85959E+05 3.03911E+04-1.66427E+04 1.74441E-09 2.46609E-09
 -1       856-6.25486E+04 5.33991E+03-1.40712E+04-3.07633E+02-1.79466E-09 1.13687E-09
 -1       857-6.83620E+04-6.26338E+03-9.68803E+03 3.21667E+03-4.27917E-10 5.51847E-09
 -1       858-6.48453E+04 7.48349E+02-3.65187E+03-3.19469E+02-1.77405E-09-5.27507E-10
 -1       859-6.57237E+04-8.70812E+02-2.20579E+03 3.23541E+03 1.56567E-09 6.69718E-09
 -1       860-6.51889E+04 1.04171E+02-9.27506E+02-3.26453E+02 3.49473E-10 2.10599E-09
 -1       861-6.53276E+04-1.15985E+02-5.16825E+02 3.24491E+03-5.63485E-09-1.89604E-09
 -1       862-6.52423E+04 1.39013E+01-2.27992E+02-3.28988E+02 3.49295E-09 6.19693E-10
 -1       863-6.52644E+04-9.58074E+00-1.12910E+02 3.24604E+03 7.60465E-09-5.33016E-09
 -1       864-6.52522E+04 7.82977E-02-3.57679E+01-3.27585E+02 4.25264E-09-1.42621E-09
 -1       865-6.52465E+04 1.47270E+01 2.02217E+01 3.23891E+03 2.87233E-09-5.81721E-11
 -1       866-6.52595E+04-1.05847E+01 7.54438E+01-3.21853E+02 8.91561E-10-2.35209E-09
 -1       867-6.52027E+04 8.92563E+01 2.07537E+02 3.22338E+03 2.33543E-09 8.71580E-10
 -1       868-6.52942E+04-7.37633E+01 3.50617E+02-3.12061E+02 1.40182E-09-3.66060E-09
 -1       869-6.49406E+04 6.12710E+02 9.40950E+02 3.19722E+03-1.25706E-09-8.83996E-09
 -1       870-6.55190E+04-5.20770E+02 1.36524E+03-2.95694E+02 3.15657E-09-2.50776E-09
 -1       871-2.90692E+03-6.04045E+03-9.45838E+03 6.19916E+04 2.05728E-09 4.38831E-09
 -1       872-1.26409E+03-8.15293E+03-3.85136E+03 8.03669E+04 3.51247E-09 5.99357E-09
 -1       873-2.83060E+01-7.15901E+03 5.63640E+02 6.18544E+04 2.11071E-09 6.42592E-09
 -1       874 1.46047E+03-5.77793E+03 5.39612E+03 8.03960E+04 3.38468E-09 1.16024E-08
 -1       875 3.46446E+03-8.44425E+03 1.19594E+04 6.19675E+04 1.50430E-09 4.10546E-09
 -1       876 1.55305E+05 2.67728E+04 8.32931E+03 6.30212E+04-2.48883E-09-3.79532E-09
 -1       877 1.55776E+05 2.86056E+04 4.44796E+03 6.54903E+04-1.14358E-09 1.72838E-09
 -1       878 1.56084E+05 2.58502E+04 1.86354E+03 6.37049E+04 2.76691E-09-1.80285E-09
 -1       879 1.54643E+05 2.74775E+04 9.28258E+02 6.55504E+04 1.31081E-10 3.31761E-09
 -1       880 1.56141E+05 2.58394E+04 4.32175E+02 6.37328E+04 1.29830E-10-2.66039E-09
 -1       881 1.54568E+05 2.74298E+04 2.30111E+02 6.55395E+04 4.78610E-09 4.54985E-09
 -1       882 1.56147E+05 2.58459E+04 1.46111E+02 6.37336E+04 3.74939E-09 7.47396E-09
 -1       883 1.54563E+05 2.74276E+04 1.55260E+02 6.55365E+04-5.69298E-09 1.22397E-08
 -1       884 1.56144E+05 2.58440E+04 2.45369E+02 6.37337E+04-8.08564E-09-1.33946E-09
 -1       885 1.54582E+05 2.74312E+04 4.92324E+02 6.55428E+04 5.13964E-10 1.14824E-11
 -1       886 1.56126E+05 2.58297E+04 9.91815E+02 6.37318E+04 2.32552E-09-4.76791E-09
 -1       887 1.54756E+05 2.75453E+04 2.16637E+03 6.55677E+04-1.81586E-10-2.78516E-09
 -1       888 1.55988E+05 2.58540E+04 4.36532E+03 6.36625E+04-7.98934E-11 6.31962E-09
 -1       889 1.57358E+05 3.02459E+04 1.04287E+04 6.54845E+04 6.22205E-10-2.79010E-09
 -1       890 1.54209E+05 2.79672E+04 1.95318E+04 6.19978E+04 2.79897E-09-6.98947E-09
 -1       891-9.57534E+01-8.83497E+04-1.04000E+03 1.68316E+04 3.53225E-10-2.14970E-09
 -1       892-1.66582E+02-8.86001E+04-1.13278E+03 2.54725E+04 1.64050E-10-2.21223E-09
 -1       893-2.53833E+01-8.83838E+04-1.61981E+03 1.68347E+04 2.07888E-09-1.17006E-09
 -1       894-8.82357E+02-8.92263E+04-3.36464E+03 2.53824E+04 2.14072E-10 1.77101E-09
 -1       895-6.87654E+02-8.76873E+04-5.92873E+03 1.69206E+04 8.89372E-10-3.68800E-10
 -1       956-1.95055E+05-2.81490E+03-7.08888E+03 1.28807E+04-2.75077E-09 2.29534E-09
 -1       957-1.96455E+05-9.49578E+02-3.63930E+03 1.55069E+04-1.85287E-09-2.90265E-09
 -1       958-1.95682E+05-7.55003E+01-1.63947E+03 1.27967E+04 1.68029E-09 1.78943E-09
 -1       959-1.95793E+05-1.38347E+01-8.37478E+02 1.55976E+04-1.14778E-09 2.43290E-09
 -1       960-1.95736E+05 2.27107E+01-4.08133E+02 1.27889E+04-3.35058E-09 3.61410E-09
 -1       961-1.95743E+05 2.04870E+01-2.16421E+02 1.56064E+04-5.50881E-09 5.10113E-10
 -1       962-1.95746E+05 1.91139E+01-1.23520E+02 1.27878E+04-2.35741E-09 3.55851E-09
 -1       963-1.95740E+05 2.08243E+01-9.85638E+01 1.56078E+04-3.32437E-09 2.71689E-09
 -1       964-1.95748E+05 2.01695E+01-1.18851E+02 1.27874E+04 9.70317E-11-7.73639E-10
 -1       965-1.95747E+05 2.28541E+01-2.04700E+02 1.56078E+04 2.26376E-09 4.90161E-09
 -1       966-1.95743E+05 2.58025E+01-3.83806E+02 1.27878E+04-1.99407E-09-1.26374E-09
 -1       967-1.95798E+05-7.02875E+00-7.86965E+02 1.56031E+04-4.41389E-10-2.75304E-09
 -1       968-1.95695E+05-6.42365E+01-1.53984E+03 1.27922E+04-1.23418E-09 2.36568E-10
 -1       969-1.96424E+05-8.84049E+02-3.41887E+03 1.55503E+04 1.47645E-09 3.36058E-09
 -1       970-1.95109E+05-2.63631E+03-6.65900E+03 1.28422E+04 1.35196E-09-2.93812E-09
 -1       971-1.85424E+05-9.80713E+02-5.45969E+03 9.10994E+03-3.36468E-09-3.33586E-10
 -1       972-1.86752E+05-7.03966E+02-2.97361E+03 1.27181E+04-9.89530E-10-4.23120E-09
 -1       973-1.86029E+05-6.30411E+00-1.33120E+03 9.03494E+03-3.55658E-09-8.61064E-10
 -1       974-1.86121E+05-7.71373E+00-6.89734E+02 1.27986E+04-1.94814E-09-2.14823E-09
 -1       975-1.86075E+05 1.79511E+01-3.43770E+02 9.02871E+03 8.66521E-10-9.25752E-10
 -1       976-1.86081E+05 1.97093E+01-1.96869E+02 1.28059E+04-2.31671E-09-3.29817E-09
 -1       977-1.86082E+05 1.69372E+01-1.40054E+02 9.02756E+03 1.14301E-09 1.42620E-10
 -1       978-1.86082E+05 2.22027E+01-1.60158E+02 1.28075E+04 9.38041E-09-4.51632E-09
 -1       979-1.86082E+05 2.08488E+01-2.54006E+02 9.02709E+03 4.94492E-09 1.76118E-09
 -1       980-1.86101E+05 2.35851E+01-4.88377E+02 1.28077E+04 3.18459E-09-4.64109E-09
 -1       981-1.86066E+05 3.30599E+01-9.44701E+02 9.02735E+03 9.77479E-10-7.81824E-10
 -1       982-1.86231E+05-4.58213E+01-1.95201E+03 1.28041E+04-3.42152E-09 2.71836E-09
 -1       983-1.85948E+05-2.68147E+01-3.79229E+03 9.03076E+03 2.21917E-09 1.36527E-09
 -1       984-1.88056E+05-2.02530E+03-8.49210E+03 1.27533E+04 2.27942E-10 2.21229E-09
 -1       985-1.84232E+05-2.80114E+03-1.55942E+04 9.08123E+03 1.37720E-09-3.59432E-09
 -3
    1PSTEP                         7           4           1          
  100CL  104 4.68750E-01         409                     0    4           1
 -4  DISP        4    1
 -5  D1          1    2    1    0
 -5  D2          1    2    2    0
 -5  D3          1    2    3    0
 -5  ALL         1    2    0    0    1ALL
 -1         1 1.27168E-04 0.00000E+00 0.00000E+00
 -1         2 1.16593E-04 1.74902E-30 0.00000E+00
 -1         3 1.09236E-04-8.56279E-28 0.00000E+00
 -1         5 7.80629E-05 6.18928E-27 0.00000E+00
 -1         8 1.02761E-04-8.86069E-07 0.00000E+00
 -1         9 1.03456E-04 4.53151E-07 0.00000E+00
 -1        10 1.01549E-04-1.50305E-06 0.00000E+00
 -1        12 7.75753E-05 5.12401E-07-1.65436E-24
 -1        15 7.36955E-05-9.77577E-07 0.00000E+00
 -1        16 7.63374E-05 2.98280E-07 0.00000E+00
 -1        17 7.57405E-05-3.24234E-06 0.00000E+00
 -1        18 7.51214E-05 7.89093E-07 0.00000E+00
 -1        19 7.61129E-05 1.02197E-06 0.00000E+00
 -1        20 7.62447E-05 1.46056E-05 0.00000E+00
 -1        21 7.57438E-05 2.75074E-05-1.65436E-24
 -1        24 1.86713E-05-4.39045E-06 0.00000E+00
 -1        25 7.36412E-05 9.07578E-07 0.00000E+00
 -1        26 7.45705E-05 1.42330E-06 0.00000E+00
 -1        27 7.31519E-05 1.23286E-05 0.00000E+00
 -1        28 7.26988E-05 2.70707E-05 0.00000E+00
 -1        32 0.00000E+00 0.00000E+00 0.00000E+00
 -1        33 7.18146E-05 1.90776E-06 0.00000E+00
 -1        34 7.04454E-05 1.23080E-05 0.00000E+00
 -1        35 6.91445E-05 2.68399E-05 0.00000E+00
 -1        51 1.25582E-04-1.45657E-07 0.00000E+00
 -1        52 1.22640E-04-2.87400E-07 0.00000E+00
 -1        53 1.18610E-04-4.30632E-07 0.00000E+00
 -1        54 1.13769E-04-5.76788E-07 0.00000E+00
 -1        55 1.08393E-04-7.26596E-07-1.03398E-25
 -1        56 1.26025E-04-7.43517E-07 0.00000E+00
 -1        57 1.25027E-04-2.00595E-06 1.32349E-23
 -1        58 1.24172E-04-3.64149E-06 0.00000E+00
 -1        59 1.23396E-04-5.51339E-06 0.00000E+00
 -1        60 1.22650E-04-7.46417E-06 0.00000E+00
 -1        61 1.21873E-04-9.33707E-06-2.64698E-23
 -1        62 1.21009E-04-1.09795E-05 0.00000E+00
 -1        63 1.20006E-04-1.22463E-05 0.00000E+00
 -1        64 1.18815E-04-1.30154E-05 0.00000E+00
 -1        65 1.17398E-04-1.31795E-05-2.64698E-23
 -1        66 1.15728E-04-1.26690E-05 5.29396E-23
 -1        67 1.13786E-04-1.14339E-05 2.64698E-23
 -1        68 1.11569E-04-9.46965E-06 0.00000E+00
 -1        69 1.09090E-04-6.79093E-06 0.00000E+00
 -1        70 1.06362E-04-3.46165E-06 0.00000E+00
 -1        86 1.16251E-04 8.34352E-08 0.00000E+00
 -1        87 1.15222E-04 1.65879E-07 8.27181E-25
 -1        88 1.13476E-04 2.47284E-07 0.00000E+00
 -1        89 1.10978E-04 3.23769E-07 4.13590E-25
 -1        90 1.07662E-04 3.99101E-07 0.00000E+00
 -1       121 1.09021E-04-2.49329E-07-6.61744E-24
 -1       122 1.08378E-04-4.98844E-07 0.00000E+00
 -1       123 1.07307E-04-7.48726E-07 6.61744E-24
 -1       124 1.05810E-04-9.99220E-07-3.30872E-24
 -1       125 1.03889E-04-1.25040E-06-6.61744E-24
 -1       191 7.80493E-05 8.54074E-08-3.30872E-24
 -1       192 7.80087E-05 1.70813E-07 1.65436E-24
 -1       193 7.79410E-05 2.56218E-07 0.00000E+00
 -1       194 7.78462E-05 3.41619E-07 0.00000E+00
 -1       195 7.77243E-05 4.27014E-07-3.30872E-24
 -1       251 1.02784E-04 3.14224E-06 0.00000E+00
 -1       252 1.02827E-04 5.56384E-06 8.27181E-25
 -1       253 1.02871E-04 6.63815E-06 0.00000E+00
 -1       254 1.02920E-04 6.62160E-06 0.00000E+00
 -1       255 1.02967E-04 5.74295E-06 8.27181E-25
 -1       256 1.03015E-04 4.22919E-06 0.00000E+00
 -1       257 1.03062E-04 2.29101E-06 0.00000E+00
 -1       258 1.03109E-04 1.38240E-07 8.27181E-25
 -1       259 1.03156E-04-2.02489E-06 0.00000E+00
 -1       260 1.03203E-04-3.99411E-06 0.00000E+00
 -1       261 1.03250E-04-5.56014E-06 0.00000E+00
 -1       262 1.03298E-04-6.51294E-06-4.13590E-25
 -1       263 1.03346E-04-6.62668E-06-5.16988E-26
 -1       264 1.03390E-04-5.67379E-06 0.00000E+00
 -1       265 1.03434E-04-3.39967E-06 0.00000E+00
 -1       266 9.79166E-05-9.13270E-07 0.00000E+00
 -1       267 9.30724E-05-9.27065E-07 0.00000E+00
 -1       268 8.82282E-05-9.41709E-07-1.65436E-24
 -1       269 8.33840E-05-9.53837E-07 0.00000E+00
 -1       270 7.85398E-05-9.65907E-07 0.00000E+00
 -1       271 9.98122E-05 2.76643E-06 0.00000E+00
 -1       272 9.72897E-05 5.15522E-06 0.00000E+00
 -1       273 9.51937E-05 6.41983E-06 0.00000E+00
 -1       274 9.34602E-05 6.69950E-06 0.00000E+00
 -1       275 9.20346E-05 6.15775E-06-5.29396E-23
 -1       276 9.08495E-05 4.97026E-06 0.00000E+00
 -1       277 8.98351E-05 3.32568E-06 0.00000E+00
 -1       278 8.89178E-05 1.42057E-06-2.64698E-23
 -1       279 8.80226E-05-5.43508E-07 5.29396E-23
 -1       280 8.70738E-05-2.36385E-06 2.64698E-23
 -1       281 8.59967E-05-3.84066E-06 5.29396E-23
 -1       282 8.47194E-05-4.78018E-06-2.64698E-23
 -1       283 8.31724E-05-4.99919E-06-5.29396E-23
 -1       284 8.12954E-05-4.32575E-06 0.00000E+00
 -1       285 7.90237E-05-2.60858E-06 0.00000E+00
 -1       301 9.87563E-05 4.20342E-07 0.00000E+00
 -1       302 9.40789E-05 4.02707E-07-1.65436E-24
 -1       303 8.94609E-05 3.85761E-07-3.30872E-24
 -1       304 8.49396E-05 3.67601E-07 0.00000E+00
 -1       305 8.05529E-05 3.47610E-07 1.32349E-23
 -1       306 1.00413E-04 3.85178E-06-2.64698E-23
 -1       307 9.78502E-05 5.82865E-06-2.64698E-23
 -1       308 9.58482E-05 6.32789E-06 0.00000E+00
 -1       309 9.43945E-05 5.33925E-06 0.00000E+00
 -1       310 9.34153E-05 3.08130E-06 0.00000E+00
 -1       311 9.28046E-05-1.70652E-07-2.64698E-23
 -1       312 9.24054E-05-3.99169E-06 0.00000E+00
 -1       313 9.20496E-05-7.93046E-06 2.64698E-23
 -1       314 9.15631E-05-1.15174E-05 0.00000E+00
 -1       315 9.07774E-05-1.42996E-05 0.00000E+00
 -1       316 8.95678E-05-1.59457E-05 5.29396E-23
 -1       317 8.78304E-05-1.61775E-05 0.00000E+00
 -1       318 8.55363E-05-1.49287E-05-5.29396E-23
 -1       319 8.26944E-05-1.21992E-05 0.00000E+00
 -1       320 7.93733E-05-8.21730E-06 0.00000E+00
 -1       336 9.87013E-05-1.78783E-06 0.00000E+00
 -1       337 9.52599E-05-2.07503E-06 3.30872E-24
 -1       338 9.12327E-05-2.36423E-06 0.00000E+00
 -1       339 8.66294E-05-2.65537E-06 0.00000E+00
 -1       340 8.14611E-05-2.94923E-06 0.00000E+00
 -1       406 7.73993E-05 5.97774E-07 0.00000E+00
 -1       407 7.71961E-05 6.83114E-07 0.00000E+00
 -1       408 7.69658E-05 7.68396E-07-3.30872E-24
 -1       409 7.67084E-05 8.53514E-07 0.00000E+00
 -1       410 7.64240E-05 9.38301E-07 0.00000E+00
 -1       521 7.45374E-05-3.59691E-06 5.29396E-23
 -1       522 7.75435E-05-2.09602E-05 0.00000E+00
 -1       523 8.42736E-05-4.88676E-05-1.05879E-22
 -1       524 9.33059E-05-8.35498E-05-5.29396E-23
 -1       525 1.02863E-04-1.19777E-04 1.05879E-22
 -1       526 1.11123E-04-1.52195E-04 0.00000E+00
 -1       527 1.16489E-04-1.76268E-04 0.00000E+00
 -1       528 1.17509E-04-1.88161E-04 5.29396E-23
 -1       529 1.13553E-04-1.86632E-04-1.05879E-22
 -1       530 1.04365E-04-1.71527E-04-5.29396E-23
 -1       531 9.08386E-05-1.45523E-04 0.00000E+00
 -1       532 7.42969E-05-1.12144E-04 5.29396E-23
 -1       533 5.67883E-05-7.64248E-05-1.05879E-22
 -1       534 4.04861E-05-4.35713E-05-2.64698E-23
 -1       535 2.72353E-05-1.82226E-05 0.00000E+00
 -1       536 7.56829E-05 2.27110E-06-3.30872E-24
 -1       537 7.56364E-05 6.82854E-06 8.27181E-25
 -1       538 7.55933E-05 1.03867E-05 0.00000E+00
 -1       539 7.55545E-05 1.29041E-05 0.00000E+00
 -1       540 7.55177E-05 1.44182E-05 0.00000E+00
 -1       541 7.54821E-05 1.49684E-05 0.00000E+00
 -1       542 7.54466E-05 1.46671E-05 8.27181E-25
 -1       543 7.54107E-05 1.36282E-05 4.13590E-25
 -1       544 7.53741E-05 1.20215E-05 8.27181E-25
 -1       545 7.53369E-05 1.00180E-05-4.13590E-25
 -1       546 7.52993E-05 7.81836E-06 0.00000E+00
 -1       547 7.52618E-05 5.62403E-06-4.13590E-25
 -1       548 7.52247E-05 3.63580E-06 0.00000E+00
 -1       549 7.51889E-05 2.05421E-06-2.06795E-25
 -1       550 7.51535E-05 1.04904E-06-5.16988E-26
 -1       551 6.82085E-05-3.41349E-06 0.00000E+00
 -1       552 5.92051E-05-3.59314E-06-1.65436E-24
 -1       553 4.92365E-05-3.78132E-06 3.30872E-24
 -1       554 3.88162E-05-3.97610E-06-3.30872E-24
 -1       555 2.84578E-05-4.17298E-06 0.00000E+00
 -1       556 7.37482E-05 1.91667E-06 0.00000E+00
 -1       557 7.22203E-05 5.87737E-06 0.00000E+00
 -1       558 7.11060E-05 8.74916E-06 0.00000E+00
 -1       559 7.03595E-05 1.06502E-05 0.00000E+00
 -1       560 6.99348E-05 1.16983E-05 0.00000E+00
 -1       561 6.97863E-05 1.20120E-05 0.00000E+00
 -1       562 6.98690E-05 1.17100E-05 0.00000E+00
 -1       563 7.01379E-05 1.09112E-05 0.00000E+00
 -1       564 7.05483E-05 9.73438E-06 0.00000E+00
 -1       565 7.10555E-05 8.29862E-06 0.00000E+00
 -1       566 7.16150E-05 6.72290E-06 0.00000E+00
 -1       567 7.21823E-05 5.12629E-06 0.00000E+00
 -1       568 7.27129E-05 3.62781E-06 0.00000E+00
 -1       569 7.31625E-05 2.34634E-06 0.00000E+00
 -1       570 7.34864E-05 1.40083E-06 0.00000E+00
 -1       571 7.51815E-05 8.41515E-07-4.13590E-25
 -1       572 7.52430E-05 8.52796E-07-6.20385E-25
 -1       573 7.53049E-05 8.30307E-07 8.27181E-25
 -1       574 7.53670E-05 7.81808E-07 4.13590E-25
 -1       575 7.54291E-05 7.15089E-07 0.00000E+00
 -1       576 7.54913E-05 6.37994E-07 0.00000E+00
 -1       577 7.55535E-05 5.58370E-07 1.65436E-24
 -1       578 7.56157E-05 4.84073E-07 0.00000E+00
 -1       579 7.56779E-05 4.22956E-07 0.00000E+00
 -1       580 7.57401E-05 3.82876E-07 0.00000E+00
 -1       581 7.58023E-05 3.71687E-07 0.00000E+00
 -1       582 7.58645E-05 3.97234E-07-3.30872E-24
 -1       583 7.59267E-05 4.67356E-07 3.30872E-24
 -1       584 7.59888E-05 5.89811E-07 0.00000E+00
 -1       585 7.60509E-05 7.72311E-07 0.00000E+00
 -1       586 7.48524E-05 8.10057E-07-8.27181E-25
 -1       587 7.45572E-05 8.30507E-07 4.13590E-25
 -1       588 7.42620E-05 8.50735E-07 0.00000E+00
 -1       589 7.39934E-05 8.70644E-07 0.00000E+00
 -1       590 7.37779E-05 8.90012E-07 0.00000E+00
 -1       591 7.50725E-05 8.73771E-07 1.55096E-25
 -1       592 7.50338E-05 9.24882E-07 4.13590E-25
 -1       593 7.50051E-05 9.48824E-07-4.13590E-25
 -1       594 7.49842E-05 9.51357E-07-2.06795E-25
 -1       595 7.49690E-05 9.38317E-07 0.00000E+00
 -1       596 7.49574E-05 9.15496E-07-2.06795E-25
 -1       597 7.49474E-05 8.88683E-07 4.13590E-25
 -1       598 7.49366E-05 8.63666E-07-2.06795E-25
 -1       599 7.49230E-05 8.46227E-07 0.00000E+00
 -1       600 7.49045E-05 8.42153E-07-2.06795E-25
 -1       601 7.48787E-05 8.57227E-07 4.13590E-25
 -1       602 7.48437E-05 8.97239E-07 0.00000E+00
 -1       603 7.47971E-05 9.67980E-07 2.06795E-25
 -1       604 7.47372E-05 1.07529E-06-1.03398E-25
 -1       605 7.46616E-05 1.22492E-06 0.00000E+00
 -1       606 7.61244E-05 1.41335E-06 0.00000E+00
 -1       607 7.61336E-05 1.89261E-06 1.65436E-24
 -1       608 7.61422E-05 2.45460E-06 0.00000E+00
 -1       609 7.61505E-05 3.09349E-06 0.00000E+00
 -1       610 7.61587E-05 3.80344E-06 0.00000E+00
 -1       611 7.61668E-05 4.57853E-06 0.00000E+00
 -1       612 7.61748E-05 5.41281E-06 0.00000E+00
 -1       613 7.61827E-05 6.30036E-06 0.00000E+00
 -1       614 7.61907E-05 7.23523E-06 0.00000E+00
 -1       615 7.61986E-05 8.21149E-06 0.00000E+00
 -1       616 7.62064E-05 9.22320E-06 0.00000E+00
 -1       617 7.62142E-05 1.02644E-05 4.13590E-25
 -1       618 7.62220E-05 1.13292E-05-8.27181E-25
 -1       619 7.62297E-05 1.24116E-05 0.00000E+00
 -1       620 7.62373E-05 1.35057E-05 0.00000E+00
 -1       621 7.58095E-05 1.08891E-06 0.00000E+00
 -1       622 7.55320E-05 1.15617E-06-8.27181E-25
 -1       623 7.52748E-05 1.22342E-06 0.00000E+00
 -1       624 7.50326E-05 1.29057E-06 0.00000E+00
 -1       625 7.47996E-05 1.35760E-06-1.65436E-24
 -1       626 7.60378E-05 1.43448E-06 3.30872E-24
 -1       627 7.59360E-05 1.91964E-06 0.00000E+00
 -1       628 7.58095E-05 2.47069E-06 0.00000E+00
 -1       629 7.56611E-05 3.08039E-06 0.00000E+00
 -1       630 7.54934E-05 3.74154E-06 0.00000E+00
 -1       631 7.53092E-05 4.44685E-06 1.65436E-24
 -1       632 7.51110E-05 5.18905E-06 0.00000E+00
 -1       633 7.49018E-05 5.96087E-06 0.00000E+00
 -1       634 7.46841E-05 6.75503E-06 0.00000E+00
 -1       635 7.44608E-05 7.56425E-06 0.00000E+00
 -1       636 7.42345E-05 8.38128E-06 0.00000E+00
 -1       637 7.40080E-05 9.19884E-06-8.27181E-25
 -1       638 7.37840E-05 1.00096E-05 0.00000E+00
 -1       639 7.35651E-05 1.08064E-05-8.27181E-25
 -1       640 7.33538E-05 1.15819E-05 0.00000E+00
 -1       656 7.53351E-05 1.42351E-05 0.00000E+00
 -1       657 7.47561E-05 1.38498E-05 0.00000E+00
 -1       658 7.43826E-05 1.34657E-05 0.00000E+00
 -1       659 7.40860E-05 1.30820E-05 0.00000E+00
 -1       660 7.37231E-05 1.26970E-05 0.00000E+00
 -1       661 7.59086E-05 1.56823E-05 0.00000E+00
 -1       662 7.55935E-05 1.67109E-05 0.00000E+00
 -1       663 7.52958E-05 1.76927E-05-1.65436E-24
 -1       664 7.50154E-05 1.86300E-05 0.00000E+00
 -1       665 7.47509E-05 1.95249E-05 0.00000E+00
 -1       666 7.45017E-05 2.03794E-05 0.00000E+00
 -1       667 7.42671E-05 2.11952E-05 0.00000E+00
 -1       668 7.40462E-05 2.19742E-05-8.27181E-25
 -1       669 7.38386E-05 2.27181E-05-1.65436E-24
 -1       670 7.36435E-05 2.34286E-05-8.27181E-25
 -1       671 7.34604E-05 2.41073E-05 0.00000E+00
 -1       672 7.32885E-05 2.47556E-05 0.00000E+00
 -1       673 7.31275E-05 2.53749E-05-1.65436E-24
 -1       674 7.29761E-05 2.59664E-05 8.27181E-25
 -1       675 7.28348E-05 2.65318E-05-4.13590E-25
 -1       676 7.52350E-05 2.74342E-05 0.00000E+00
 -1       677 7.47265E-05 2.73610E-05 8.27181E-25
 -1       678 7.42184E-05 2.72878E-05-1.65436E-24
 -1       679 7.37110E-05 2.72149E-05 8.27181E-25
 -1       680 7.32044E-05 2.71420E-05 1.65436E-24
 -1       771 1.47592E-05 3.16069E-06 0.00000E+00
 -1       772 1.13597E-05 9.34681E-06 0.00000E+00
 -1       773 8.45157E-06 1.42431E-05 0.00000E+00
 -1       774 6.00220E-06 1.79300E-05 0.00000E+00
 -1       775 3.97961E-06 2.04898E-05-2.64698E-23
 -1       776 2.35034E-06 2.20080E-05 1.32349E-23
 -1       777 1.08050E-06 2.25718E-05 0.00000E+00
 -1       778 1.35474E-07 2.22708E-05 0.00000E+00
 -1       779-5.19629E-07 2.11963E-05 2.64698E-23
 -1       780-9.20341E-07 1.94415E-05-1.32349E-23
 -1       781-1.10232E-06 1.71008E-05 2.64698E-23
 -1       782-1.10171E-06 1.42703E-05 0.00000E+00
 -1       783-9.54734E-07 1.10468E-05 0.00000E+00
 -1       784-6.97886E-07 7.52812E-06 1.32349E-23
 -1       785-3.67778E-07 3.81275E-06-2.64698E-23
 -1       786 7.36959E-05 8.66547E-07-4.13590E-25
 -1       787 7.37538E-05 8.31465E-07 0.00000E+00
 -1       788 7.38116E-05 8.01882E-07 0.00000E+00
 -1       789 7.38699E-05 7.77361E-07 0.00000E+00
 -1       790 7.39283E-05 7.58145E-07 1.65436E-24
 -1       791 7.39867E-05 7.44495E-07 8.27181E-25
 -1       792 7.40453E-05 7.37418E-07 1.65436E-24
 -1       793 7.41038E-05 7.37941E-07 0.00000E+00
 -1       794 7.41623E-05 7.48116E-07 0.00000E+00
 -1       795 7.42208E-05 7.70018E-07 0.00000E+00
 -1       796 7.42794E-05 8.07306E-07 0.00000E+00
 -1       797 7.43378E-05 8.63678E-07 0.00000E+00
 -1       798 7.43963E-05 9.45406E-07 0.00000E+00
 -1       799 7.44547E-05 1.05883E-06 8.27181E-25
 -1       800 7.45130E-05 1.21455E-06 0.00000E+00
 -1       801 6.86668E-05 8.46804E-07 0.00000E+00
 -1       802 5.37733E-05 6.89376E-07-1.65436E-24
 -1       803 3.42244E-05 4.59039E-07 0.00000E+00
 -1       804 1.52941E-05 2.33404E-07 3.30872E-24
 -1       805 2.16161E-06 9.39132E-08 1.32349E-23
 -1       806 7.35848E-05 8.25263E-07 0.00000E+00
 -1       807 7.35251E-05 7.44046E-07 0.00000E+00
 -1       808 7.34628E-05 6.68438E-07 0.00000E+00
 -1       809 7.33965E-05 6.02251E-07 0.00000E+00
 -1       810 7.33253E-05 5.49291E-07 1.65436E-24
 -1       811 7.32476E-05 5.13304E-07 8.27181E-25
 -1       812 7.31621E-05 4.98034E-07-1.65436E-24
 -1       813 7.30674E-05 5.07213E-07 8.27181E-25
 -1       814 7.29622E-05 5.44572E-07-1.65436E-24
 -1       815 7.28450E-05 6.13839E-07 8.27181E-25
 -1       816 7.27144E-05 7.18738E-07 0.00000E+00
 -1       817 7.25691E-05 8.62994E-07 8.27181E-25
 -1       818 7.24077E-05 1.05033E-06 0.00000E+00
 -1       819 7.22289E-05 1.28444E-06-4.13590E-25
 -1       820 7.20313E-05 1.56904E-06-1.65436E-24
 -1       821 7.44870E-05 1.65219E-06 0.00000E+00
 -1       822 7.43984E-05 1.86904E-06 8.27181E-25
 -1       823 7.43101E-05 2.11363E-06 0.00000E+00
 -1       824 7.42208E-05 2.42563E-06 0.00000E+00
 -1       825 7.41315E-05 2.83221E-06 0.00000E+00
 -1       826 7.40419E-05 3.36015E-06 1.65436E-24
 -1       827 7.39522E-05 4.01373E-06 0.00000E+00
 -1       828 7.38624E-05 4.79675E-06-1.65436E-24
 -1       829 7.37725E-05 5.68900E-06 0.00000E+00
 -1       830 7.36825E-05 6.66980E-06 1.65436E-24
 -1       831 7.35926E-05 7.70212E-06-3.30872E-24
 -1       832 7.35028E-05 8.74867E-06 0.00000E+00
 -1       833 7.34130E-05 9.76951E-06 0.00000E+00
 -1       834 7.33244E-05 1.07249E-05 8.27181E-25
 -1       835 7.32354E-05 1.15870E-05 0.00000E+00
 -1       836 7.42472E-05 1.50396E-06 1.65436E-24
 -1       837 7.38174E-05 1.58639E-06-8.27181E-25
 -1       838 7.33201E-05 1.66867E-06 0.00000E+00
 -1       839 7.27945E-05 1.75042E-06 0.00000E+00
 -1       840 7.22797E-05 1.83204E-06-2.06795E-25
 -1       856 7.31268E-05 1.30618E-05 0.00000E+00
 -1       857 7.30988E-05 1.38923E-05 2.06795E-25
 -1       858 7.30709E-05 1.48046E-05 0.00000E+00
 -1       859 7.30424E-05 1.57834E-05 0.00000E+00
 -1       860 7.30139E-05 1.68134E-05 0.00000E+00
 -1       861 7.29852E-05 1.78789E-05 0.00000E+00
 -1       862 7.29565E-05 1.89643E-05-8.27181E-25
 -1       863 7.29278E-05 2.00543E-05-4.13590E-25
 -1       864 7.28991E-05 2.11330E-05 0.00000E+00
 -1       865 7.28704E-05 2.21851E-05 0.00000E+00
 -1       866 7.28417E-05 2.31950E-05 8.27181E-25
 -1       867 7.28131E-05 2.41470E-05 4.13590E-25
 -1       868 7.27845E-05 2.50260E-05 0.00000E+00
 -1       869 7.27560E-05 2.58164E-05-4.13590E-25
 -1       870 7.27275E-05 2.65030E-05 0.00000E+00
 -1       871 7.26019E-05 1.23278E-05-4.13590E-25
 -1       872 7.21454E-05 1.23251E-05 0.00000E+00
 -1       873 7.17424E-05 1.23220E-05 0.00000E+00
 -1       874 7.13518E-05 1.23184E-05-5.16988E-26
 -1       875 7.09329E-05 1.23144E-05 2.06795E-25
 -1       876 7.29619E-05 1.30699E-05-1.65436E-24
 -1       877 7.27561E-05 1.38586E-05 0.00000E+00
 -1       878 7.25349E-05 1.46889E-05-3.30872E-24
 -1       879 7.23003E-05 1.55554E-05-1.65436E-24
 -1       880 7.20541E-05 1.64528E-05 0.00000E+00
 -1       881 7.17983E-05 1.73758E-05 4.96308E-24
 -1       882 7.15350E-05 1.83190E-05 0.00000E+00
 -1       883 7.12660E-05 1.92772E-05 1.65436E-24
 -1       884 7.09934E-05 2.02450E-05-3.30872E-24
 -1       885 7.07191E-05 2.12171E-05 0.00000E+00
 -1       886 7.04453E-05 2.21881E-05 1.65436E-24
 -1       887 7.01737E-05 2.31528E-05-8.27181E-25
 -1       888 6.99063E-05 2.41059E-05 1.65436E-24
 -1       889 6.96450E-05 2.50418E-05 0.00000E+00
 -1       890 6.93916E-05 2.59553E-05 8.27181E-25
 -1       891 7.22123E-05 2.70321E-05 0.00000E+00
 -1       892 7.17090E-05 2.69933E-05-4.13590E-25
 -1       893 7.11698E-05 2.69546E-05 0.00000E+00
 -1       894 7.05754E-05 2.69160E-05 0.00000E+00
 -1       895 6.99065E-05 2.68774E-05-6.20385E-25
 -1       956 7.17307E-05 2.35693E-06 0.00000E+00
 -1       957 7.16453E-05 2.86099E-06 8.27181E-25
 -1       958 7.15597E-05 3.41422E-06 0.00000E+00
 -1       959 7.14740E-05 4.01055E-06-8.27181E-25
 -1       960 7.13881E-05 4.64392E-06-3.30872E-24
 -1       961 7.13022E-05 5.30822E-06-8.27181E-25
 -1       962 7.12163E-05 5.99734E-06 0.00000E+00
 -1       963 7.11304E-05 6.70518E-06 1.65436E-24
 -1       964 7.10444E-05 7.42561E-06 0.00000E+00
 -1       965 7.09585E-05 8.15251E-06 0.00000E+00
 -1       966 7.08725E-05 8.87978E-06 3.30872E-24
 -1       967 7.07866E-05 9.60130E-06 1.65436E-24
 -1       968 7.07008E-05 1.03109E-05-3.30872E-24
 -1       969 7.06151E-05 1.10026E-05 1.65436E-24
 -1       970 7.05296E-05 1.16703E-05 0.00000E+00
 -1       971 7.03652E-05 1.29636E-05 1.65436E-24
 -1       972 7.02839E-05 1.36915E-05 0.00000E+00
 -1       973 7.02023E-05 1.44834E-05 1.65436E-24
 -1       974 7.01207E-05 1.53312E-05 8.27181E-25
 -1       975 7.00389E-05 1.62267E-05 3.30872E-24
 -1       976 6.99571E-05 1.71614E-05 0.00000E+00
 -1       977 6.98753E-05 1.81270E-05 1.65436E-24
 -1       978 6.97934E-05 1.91154E-05 1.65436E-24
 -1       979 6.97116E-05 2.01181E-05 3.30872E-24
 -1       980 6.96297E-05 2.11268E-05 0.00000E+00
 -1       981 6.95479E-05 2.21332E-05-3.30872E-24
 -1       982 6.94661E-05 2.31290E-05 0.00000E+00
 -1       983 6.93845E-05 2.41058E-05 0.00000E+00
 -1       984 6.93032E-05 2.50554E-05 8.27181E-25
 -1       985 6.92223E-05 2.59695E-05 1.65436E-24
 -3
    1PSTEP                         8           4           1          
  100CL  104 4.68750E-01         409                     0    4           1
 -4  STRESS      6    1
 -5  SXX         1    4    1    1
 -5  SYY         1    4    2    2
 -5  SZZ         1    4    3    3
 -5  SXY         1    4    1    2
 -5  SYZ         1    4    2    3
 -5  SZX         1    4    3    1
 -1         1-1.66227E+06-7.54110E+05-3.41800E+05-1.05172E+06 2.54659E-11-4.55475E-09
 -1         2 2.65834E+03 2.42429E+05 8.71186E+03 7.05799E+02-1.36424E-10-2.05659E-09
 -1         3-6.99002E+01-7.12276E+05 2.57990E+02-2.43103E+02-2.28525E-10 2.47173E-08
 -1         5-5.84270E+00 2.44383E+05 6.40397E+00 1.10007E-01 8.99830E-11-7.65931E-09
 -1         8-7.84242E+05-3.32709E+05-3.40181E+04-5.65314E+05-8.18545E-11 1.73895E-09
 -1         9-1.37645E+06-3.63418E+05-1.40752E+05-4.61573E+05 3.68746E-09 7.74162E-10
 -1        10-1.17653E+03-7.58864E+05-1.52274E+03-1.78897E+03-1.15369E-09-2.23103E-08
 -1        12-3.21853E+00 2.44396E+05 2.07663E+02 9.96460E-01 2.35065E-10 3.74712E-09
 -1        15 1.97988E+03 1.08807E+03 6.39997E+03 4.14750E+00-4.43379E-11-2.47352E-09
 -1        16-3.52152E+06-1.21104E+06-5.55502E+05-1.24216E+06 1.13020E-08-5.02526E-09
 -1        17-8.51133E+05-5.21788E+05-1.65550E+05-4.75662E+05-1.39698E-10-1.21654E-09
 -1        18 4.65197E+03-3.19013E+03-1.75046E+04-5.81998E+04 9.21091E-10-2.49111E-09
 -1        19 7.65716E+04 9.12299E+04-4.39049E+02 1.49549E+04-4.87125E-10-7.62520E-10
 -1        20-3.22226E+04-3.61754E+05-7.98154E+04 2.64945E+04 2.64329E-09-4.19368E-09
 -1        21-3.40901E+01-2.09299E+05-6.75696E+02-7.30343E+01-5.16636E-09-1.01540E-10
 -1        24-3.25454E+06-1.02171E+06-4.49725E+05-1.25868E+06-2.01107E-08-7.79983E-09
 -1        25 2.28578E+04-3.33906E+04 1.00323E+04-1.05070E+05 3.07318E-10 8.15580E-09
 -1        26-1.79813E+04 6.22319E+04-1.23881E+04-8.79260E+03 1.42209E-09 5.79753E-09
 -1        27-5.77814E+04-1.98427E+05-7.44251E+04 4.47143E+04 4.99790E-09-3.95145E-09
 -1        28 1.62004E+04-5.78447E+04 1.18248E+04 1.84744E+04 2.44236E-09 2.66081E-09
 -1        32-7.84994E+05-1.83258E+05 3.18659E+05-5.24318E+05-1.66401E-08 1.11798E-08
 -1        33-1.13528E+05 5.83063E+04 2.06726E+04-3.37256E+04 1.06024E-09-3.80169E-10
 -1        34-1.47273E+05-1.46741E+04 3.46442E+02 4.53334E+04 2.69443E-09-2.09335E-10
 -1        35-1.64751E+04-2.29887E+04-9.01010E+02 3.64589E+04 3.16464E-09-6.43922E-10
 -1        51 1.40489E+04-3.66910E+05 3.63630E+04-9.31481E+05 1.89175E-10-6.14091E-09
 -1        52 8.82649E+03-3.65879E+05 2.43230E+04-1.08642E+06 5.82077E-10-1.20563E-08
 -1        53 6.64605E+03-3.78226E+05 2.10124E+04-9.28243E+05 4.58385E-10-4.67116E-09
 -1        54 1.90755E+04-3.76906E+05 3.40759E+04-1.08979E+06 3.78350E-10-2.99588E-08
 -1        55 3.79176E+04-3.89899E+05 6.10592E+04-9.27724E+05 5.23869E-10-8.04357E-09
 -1        56-3.19000E+06-3.59177E+05-2.51161E+05-1.22963E+06-2.15005E-09-6.06815E-09
 -1        57-3.28901E+06-5.88289E+05-1.69300E+05-1.22201E+06-4.30191E-10-4.58385E-10
 -1        58-3.24113E+06-4.38047E+05-5.90930E+04-1.21303E+06-1.24237E-09 3.32875E-09
 -1        59-3.22979E+06-4.95825E+05-3.52744E+04-1.24194E+06 7.39306E-10-6.15682E-09
 -1        60-3.24869E+06-4.48932E+05-1.37974E+04-1.21065E+06-6.42785E-10-1.11991E-08
 -1        61-3.22236E+06-4.81674E+05-7.83735E+03-1.24305E+06-2.14550E-09 6.16473E-09
 -1        62-3.24841E+06-4.51871E+05-3.78228E+03-1.21199E+06-1.70257E-09 5.82651E-09
 -1        63-3.22536E+06-4.75786E+05-3.07184E+03-1.23826E+06 1.36276E-09 4.94128E-09
 -1        64-3.24556E+06-4.54857E+05-3.56778E+03-1.21537E+06-5.43423E-10-7.10497E-09
 -1        65-3.23298E+06-4.70290E+05-7.04987E+03-1.23002E+06-4.23199E-09-6.97742E-09
 -1        66-3.24069E+06-4.57479E+05-1.24926E+04-1.22014E+06 7.50333E-11-5.19776E-09
 -1        67-3.24865E+06-4.73856E+05-3.16131E+04-1.21853E+06 2.45109E-10-5.41104E-09
 -1        68-3.22995E+06-4.51629E+05-5.31311E+04-1.22674E+06 5.52973E-10-2.87400E-09
 -1        69-3.30802E+06-5.50915E+05-1.51971E+05-1.19406E+06 6.94854E-10-1.07393E-08
 -1        70-3.18194E+06-3.82764E+05-2.25547E+05-1.24385E+06 1.01863E-10-7.97445E-09
 -1        86-1.33569E+03 2.39580E+05 9.30009E+03-3.52927E+02 1.14528E-09 8.63906E-10
 -1        87 8.85523E+03 2.45477E+05 1.94507E+04 1.45719E+03 1.92699E-09 3.03427E-09
 -1        88-7.51612E+03 2.36536E+05 2.97267E+04-1.10434E+03 2.85581E-09-8.26930E-09
 -1        89 5.60042E+04 2.67524E+05 8.02453E+04 3.17925E+03 4.39832E-09-2.34630E-08
 -1        90-4.83345E+04 2.17557E+05 1.13285E+05-2.07446E+03 5.02041E-09-4.47358E-10
 -1       121-1.24269E+02-7.12641E+05 2.49711E+02 1.21416E+02 3.31710E-10-7.36873E-09
 -1       122 1.28648E+01-7.12221E+05 5.63664E+02-4.86004E+02-1.29863E-09-1.41631E-08
 -1       123-1.83490E+02-7.12700E+05 9.20907E+02 3.63795E+02 1.12033E-09-1.00836E-08
 -1       124 1.02117E+03-7.11605E+05 2.35925E+03-1.08788E+03-2.48042E-09-1.04092E-09
 -1       125-8.37461E+02-7.13272E+05 3.65277E+03 7.23287E+02 1.67211E-09 3.04135E-09
 -1       191-6.34569E+00 2.44404E+05 7.59330E+00-5.56965E-02 1.40037E-10-3.03089E-09
 -1       192-6.43171E+00 2.44383E+05 1.35623E+01 6.61632E-01 2.17338E-10-7.03267E-09
 -1       193-7.91151E+00 2.44403E+05 2.51626E+01-6.10610E-01 2.24921E-10-7.66295E-09
 -1       194-8.32708E+00 2.44385E+05 5.13065E+01 1.62997E+00 1.07086E-10-5.48039E-09
 -1       195-1.09206E+01 2.44402E+05 1.00299E+02-1.03156E+00 3.83643E-10-4.07999E-09
 -1       251 1.19940E+05-4.12710E+04 9.61981E+04 3.90578E+03-6.02540E-11 2.41562E-09
 -1       252 1.64745E+05 4.77201E+04 6.84180E+04-1.37146E+04-6.20332E-10-3.11775E-09
 -1       253 1.36712E+05-6.39130E+03 2.48782E+04 2.96576E+03 1.03341E-10-8.59563E-09
 -1       254 1.44863E+05 7.37447E+03 1.58057E+04-1.22476E+04-2.84558E-10-3.65480E-09
 -1       255 1.39707E+05-9.87379E+02 6.42949E+03 2.43889E+03 2.88026E-10 5.34737E-09
 -1       256 1.41222E+05 1.17678E+03 3.94006E+03-1.14660E+04 1.02989E-09-2.85655E-09
 -1       257 1.40297E+05-1.73406E+02 2.03621E+03 2.18412E+03 2.92530E-10 8.27015E-10
 -1       258 1.40617E+05 3.83711E+02 1.83537E+03-1.12049E+04-1.74116E-10 1.06232E-09
 -1       259 1.40295E+05-1.83907E+02 2.13587E+03 2.17777E+03-5.68576E-10-3.15362E-09
 -1       260 1.41253E+05 1.26930E+03 4.22168E+03-1.14414E+04 8.42547E-10-5.08982E-09
 -1       261 1.39677E+05-1.06794E+03 6.94698E+03 2.42066E+03 9.23819E-10-3.23598E-09
 -1       262 1.45125E+05 7.98342E+03 1.70785E+04-1.21963E+04 2.27487E-10 6.07088E-10
 -1       263 1.36476E+05-6.91514E+03 2.69362E+04 2.93259E+03-3.80396E-10-3.35058E-09
 -1       264 1.66514E+05 5.16434E+04 7.40011E+04-1.36391E+04-1.31760E-09-3.42789E-09
 -1       265 1.18402E+05-4.46517E+04 1.04150E+05 3.86336E+03-9.85779E-10-6.54836E-11
 -1       266-3.58414E+04-1.67568E+04 8.41065E+04-8.87548E+01 1.45519E-11-4.81504E-09
 -1       267 4.15512E+04 1.95345E+04 5.94390E+04 1.02391E+02-3.63798E-12-1.62568E-08
 -1       268-5.57190E+03-2.76641E+03 2.20936E+04-1.30472E+01-4.72937E-11-4.74969E-10
 -1       269 6.57884E+03 3.31104E+03 1.43601E+04 1.51972E+01-2.66027E-11 3.83131E-09
 -1       270-9.87490E+02-5.44019E+02 6.93184E+03-2.06241E+00-8.18545E-11-3.71781E-10
 -1       271-3.50734E+06-4.38845E+05-2.69927E+05-1.36792E+06 2.28465E-09-1.01863E-10
 -1       272-3.58902E+06-6.50484E+05-1.73490E+05-1.38220E+06-1.11618E-09-8.10542E-09
 -1       273-3.55983E+06-5.04333E+05-6.37696E+04-1.35395E+06 1.17461E-09-6.33008E-09
 -1       274-3.52715E+06-5.70780E+05-3.56433E+04-1.40416E+06 1.99179E-09 2.11003E-09
 -1       275-3.56868E+06-5.09380E+05-1.48369E+04-1.34981E+06-1.14869E-09 3.62252E-09
 -1       276-3.51652E+06-5.65150E+05-7.85904E+03-1.41100E+06-1.64209E-09 6.19730E-09
 -1       277-3.57104E+06-5.08609E+05-3.84733E+03-1.34795E+06-1.56570E-09 1.25428E-08
 -1       278-3.51423E+06-5.65820E+05-2.78626E+03-1.41335E+06 2.20984E-09 4.36023E-09
 -1       279-3.57129E+06-5.08423E+05-2.98325E+03-1.34772E+06-5.36602E-11-3.45722E-09
 -1       280-3.51552E+06-5.65508E+05-5.46465E+03-1.41204E+06-5.92081E-10 2.97496E-09
 -1       281-3.56957E+06-5.09087E+05-1.00174E+04-1.34911E+06-4.95220E-10 4.50291E-09
 -1       282-3.52322E+06-5.68565E+05-2.38904E+04-1.40654E+06-5.42059E-10 4.01224E-09
 -1       283-3.56305E+06-5.06368E+05-4.27221E+04-1.35255E+06-4.94310E-10-3.12866E-10
 -1       284-3.56597E+06-6.20303E+05-1.16075E+05-1.38982E+06-6.47788E-10-6.43195E-09
 -1       285-3.52690E+06-4.63681E+05-1.80770E+05-1.36306E+06 5.09317E-11-6.25005E-09
 -1       301 1.44186E+04-1.75223E+04 1.10173E+05-4.49709E+04-5.74801E-10-4.21346E-09
 -1       302 1.55214E+04 1.03405E+04 7.88086E+04-6.62228E+04 1.44450E-09-8.75661E-09
 -1       303 8.65149E+02-7.49694E+03 7.14014E+04-4.50737E+04-7.34872E-10 1.33696E-09
 -1       304 2.78050E+04 2.17867E+04 1.18870E+05-6.59955E+04 8.14907E-10 6.45377E-09
 -1       305 2.74077E+04-2.87131E+04 1.98844E+05-4.51234E+04-6.83940E-10 7.01311E-09
 -1       306-3.92358E+06-4.58000E+05-2.98010E+05-1.53851E+06 1.03319E-09-1.03173E-08
 -1       307-4.08464E+06-7.01385E+05-2.03043E+05-1.47690E+06 8.06722E-10 8.73115E-10
 -1       308-3.99685E+06-5.45253E+05-7.01898E+04-1.50436E+06 3.43789E-10 3.85262E-09
 -1       309-3.99067E+06-6.09272E+05-4.23073E+04-1.52788E+06 1.62061E-10 9.72159E-09
 -1       310-4.01714E+06-5.48257E+05-1.64795E+04-1.48817E+06-1.75220E-09-1.22536E-08
 -1       311-3.96445E+06-6.08951E+05-9.49098E+03-1.55089E+06 6.33526E-09-5.69162E-09
 -1       312-4.02334E+06-5.45051E+05-4.63986E+03-1.48169E+06-1.42902E-09 1.27170E-09
 -1       313-3.96131E+06-6.08816E+05-4.16573E+03-1.55361E+06-5.07998E-09 6.36715E-09
 -1       314-4.02032E+06-5.48320E+05-5.11393E+03-1.48551E+06-2.17210E-09-2.82921E-09
 -1       315-3.97550E+06-5.97648E+05-1.05229E+04-1.53694E+06-1.17598E-09-7.45786E-10
 -1       316-4.00880E+06-5.56505E+05-1.87817E+04-1.49808E+06 1.91028E-09-5.82986E-10
 -1       317-4.01083E+06-5.93069E+05-4.79998E+04-1.50546E+06 7.63521E-10-7.21684E-09
 -1       318-3.98486E+06-5.53370E+05-7.96891E+04-1.51672E+06-5.40240E-09 3.89991E-09
 -1       319-4.11539E+06-7.01191E+05-2.30848E+05-1.45220E+06-3.53248E-09 4.83487E-09
 -1       320-3.90509E+06-4.50210E+05-3.38356E+05-1.55091E+06 7.75617E-09-6.69388E-10
 -1       336 9.43636E+02-8.04716E+05-6.07017E+03 1.06343E+03-2.30284E-09-4.44379E-09
 -1       337-2.24609E+03-8.06403E+05-6.15845E+03-2.72179E+03-2.10184E-09-9.00400E-09
 -1       338 4.82249E+02-8.05026E+05-7.14344E+03 1.65245E+03-3.18755E-09-7.89441E-10
 -1       339-7.35774E+03-8.09524E+05-1.52137E+04-3.88419E+03-2.28897E-09-6.63567E-09
 -1       340 5.11003E+03-8.01678E+05-2.31431E+04 2.21811E+03-3.57068E-09 2.80852E-09
 -1       406 1.25825E+01 2.44392E+05 4.09915E+02 1.70719E-02 5.22476E-10-7.95808E-11
 -1       407 1.39734E+02 2.44468E+05 8.71355E+02-8.06058E+00 2.71712E-11-1.04337E-08
 -1       408 4.45273E+02 2.44329E+05 1.74020E+03 8.19570E+00 4.74984E-10-1.68361E-08
 -1       409 1.87872E+03 2.45024E+05 3.91783E+03-7.87255E+01-1.72122E-10-2.83515E-08
 -1       410 5.40363E+03 2.43834E+05 7.99805E+03 7.34457E+01 4.18368E-10-8.03129E-09
 -1       521-7.36911E+06-7.74735E+05-5.67446E+05-2.72047E+06 1.49885E-09 3.84171E-09
 -1       522-7.07916E+06-1.58283E+06-3.49474E+05-3.07804E+06-2.79738E-08-7.14499E-09
 -1       523-7.58257E+06-7.76068E+05-1.31601E+05-2.48221E+06-2.53567E-09-1.84955E-08
 -1       524-6.87751E+06-1.54918E+06-7.23524E+04-3.38096E+06 2.78118E-08-2.72667E-08
 -1       525-7.60906E+06-7.75434E+05-2.94034E+04-2.44664E+06 2.28738E-08-1.25237E-08
 -1       526-6.89723E+06-1.42219E+06-4.02854E+03-3.23466E+06 9.24774E-09-3.51065E-09
 -1       527-7.53778E+06-9.20651E+05-2.69131E+04-2.61136E+06 6.55928E-09-1.42063E-09
 -1       528-7.12182E+06-1.09215E+06 2.06319E+04-2.79419E+06 2.13040E-08 1.54250E-09
 -1       529-7.34407E+06-1.13441E+06-3.24554E+04-2.85647E+06-5.23869E-10 1.74077E-09
 -1       530-7.56581E+06-7.06741E+05 3.03466E+03-2.38608E+06-1.80426E-08 1.47338E-08
 -1       531-7.11626E+06-1.28952E+06-3.50018E+04-3.03448E+06-3.88973E-08-5.86806E-09
 -1       532-7.90684E+06-5.16285E+05-7.10303E+04-2.20071E+06 3.19465E-08-4.12583E-08
 -1       533-7.04421E+06-1.29636E+06-1.24885E+05-3.07444E+06 2.05619E-08-5.30708E-08
 -1       534-7.89564E+06-8.08475E+05-3.52023E+05-2.23013E+06-1.50649E-08 3.54194E-08
 -1       535-7.11106E+06-1.01417E+06-5.54779E+05-2.98919E+06-1.27911E-08 2.66009E-08
 -1       536-1.09571E+05-1.74603E+04 4.02107E+04-7.06815E+02-1.51147E-09 1.35133E-08
 -1       537-9.06617E+04 2.02130E+04 2.87046E+04 1.31298E+02-9.70812E-09 7.22321E-09
 -1       538-1.02913E+05-2.74881E+03 1.03186E+04-2.95096E+02 3.48621E-10 2.79397E-09
 -1       539-9.85100E+04 3.17398E+03 6.72867E+03-7.46767E+02 4.89215E-09 4.65343E-09
 -1       540-1.01727E+05-4.35842E+02 2.54902E+03 1.71269E+02 3.84688E-10-2.03841E-10
 -1       541-1.00078E+05 4.93043E+02 1.64141E+03-1.61350E+03-1.19034E-09 3.22055E-09
 -1       542-1.01352E+05-6.49111E+01 5.48588E+02 5.71601E+02-8.38369E-10-1.18848E-09
 -1       543-1.00696E+05 4.38121E+01 2.77965E+02-2.28082E+03 1.99854E-09-4.98482E-09
 -1       544-1.01119E+05 2.02553E+01-1.24706E+02 8.38583E+02 2.12353E-10-9.56209E-09
 -1       545-1.01095E+05-1.96944E+02-5.42736E+02-2.64008E+03-2.23542E-09 9.08400E-10
 -1       546-1.00960E+05 1.80746E+02-1.06290E+03 9.30877E+02 6.25114E-10 3.04902E-09
 -1       547-1.01638E+05-1.31428E+03-2.69466E+03-2.63576E+03-2.79544E-09-4.18140E-09
 -1       548-1.00576E+05 1.13670E+03-4.35014E+03 8.34259E+02-3.04122E-09-3.13889E-09
 -1       549-1.04625E+05-8.37598E+03-1.18034E+04-2.26317E+03-2.25253E-09 1.47111E-10
 -1       550-9.79652E+04 7.23178E+03-1.68493E+04 5.58271E+02 2.55937E-10-5.63341E-09
 -1       551 8.77306E+03-3.98733E+05 2.11517E+04-6.75106E+05-3.06245E-08-7.49424E-09
 -1       552 1.92489E+04-4.01773E+05 2.79718E+04-9.60986E+05-2.42871E-08 4.20550E-09
 -1       553 1.30964E+04-4.07005E+05 4.32447E+04-6.72790E+05-3.80605E-08 2.40834E-09
 -1       554 4.15561E+04-3.90408E+05 9.17710E+04-9.61985E+05-2.27010E-08-5.53203E-09
 -1       555 3.97705E+04-4.24638E+05 1.64592E+05-6.73538E+05-3.79514E-08-8.19273E-09
 -1       556 6.12756E+04-1.29187E+05 4.40264E+04-1.69093E+05-6.03904E-09-4.89672E-09
 -1       557 1.13667E+05-1.72574E+05 2.31436E+04-2.11776E+05-2.68483E-09 3.30601E-09
 -1       558 6.10879E+04-1.35057E+05 9.33234E+03-1.64050E+05-9.99717E-09-3.59432E-09
 -1       559 1.06509E+05-1.78572E+05 4.74614E+03-2.14949E+05 4.71482E-09 1.17325E-10
 -1       560 5.95073E+04-1.34008E+05 1.94707E+03-1.65044E+05 2.98314E-09 2.60206E-09
 -1       561 1.04058E+05-1.77940E+05 1.04166E+03-2.16500E+05 2.30284E-09 1.35556E-08
 -1       562 5.82339E+04-1.33156E+05 3.89031E+02-1.65962E+05 6.33008E-10-1.81990E-09
 -1       563 1.02562E+05-1.77297E+05 2.51028E+02-2.17457E+05 9.62245E-10-7.11287E-09
 -1       564 5.74384E+04-1.32643E+05 8.79962E+01-1.66527E+05 3.43425E-09-2.80124E-10
 -1       565 1.01780E+05-1.76962E+05 5.95446E+01-2.17949E+05 6.36646E-10-1.53705E-09
 -1       566 5.71489E+04-1.32451E+05-1.50924E+01-1.66736E+05 1.18143E-09 3.07591E-09
 -1       567 1.01671E+05-1.76908E+05-9.88712E+01-2.17955E+05 8.07904E-09 3.61706E-09
 -1       568 5.73979E+04-1.32615E+05-3.00021E+02-1.66621E+05 2.51566E-09 6.73390E-09
 -1       569 1.01609E+05-1.76798E+05-7.02276E+02-2.16924E+05-3.00133E-09-4.36557E-11
 -1       570 5.86990E+04-1.33787E+05-1.51313E+03-1.66586E+05-1.21872E-09-1.12504E-08
 -1       571 1.77330E+05 6.45211E+03 9.55934E+03-4.50392E+04 3.89264E-10 3.70278E-09
 -1       572 1.78752E+05 2.24532E+03 4.68348E+03-4.93714E+04-4.78394E-10 5.01541E-09
 -1       573 1.77900E+05 5.36612E+02 2.08058E+03-4.49220E+04 3.10592E-10 6.15046E-09
 -1       574 1.78068E+05 1.76524E+02 1.04242E+03-4.95024E+04 7.90351E-10 4.65707E-09
 -1       575 1.77963E+05 2.64790E+01 4.91280E+02-4.49065E+04 2.21803E-09 6.41103E-09
 -1       576 1.77974E+05 9.73275E+00 2.50072E+02-4.95199E+04-1.08685E-10 2.19916E-09
 -1       577 1.77972E+05-8.01501E-01 1.23161E+02-4.49044E+04 4.03588E-11 3.84398E-09
 -1       578 1.77965E+05 1.22669E+00 6.71315E+01-4.95221E+04-9.33937E-10-1.20508E-10
 -1       579 1.77983E+05-2.82688E+00 4.09765E+01-4.49044E+04-1.31331E-09-3.86990E-10
 -1       580 1.77979E+05-4.51217E+00 3.81720E+01-4.95194E+04-4.32919E-10-5.45697E-11
 -1       581 1.78002E+05-9.86812E+00 5.15658E+01-4.49071E+04 1.11777E-09 1.94586E-09
 -1       582 1.78014E+05-2.90624E+00 9.82340E+01-4.94927E+04 2.72848E-12-5.86715E-09
 -1       583 1.78025E+05 2.01042E+01 1.88159E+02-4.49312E+04 7.82165E-11-2.39424E-10
 -1       584 1.78112E+05 1.66040E+02 4.22014E+02-4.92917E+04-1.88811E-09-2.30557E-09
 -1       585 1.78007E+05 5.37305E+02 8.56670E+02-4.51084E+04-2.91038E-11-1.67165E-09
 -1       586-2.12148E+03 5.83289E+04-2.81023E+03-1.53369E+05 3.21961E-10-2.33558E-09
 -1       587-4.41859E+02 5.79512E+04-2.91672E+02-1.68771E+05 6.85759E-10 7.73008E-09
 -1       588 6.16643E+02 5.80227E+04 2.05184E+03-1.53276E+05 4.32919E-10 2.30420E-09
 -1       589 3.03614E+03 5.91471E+04 5.94564E+03-1.68630E+05 6.63931E-10-3.43425E-09
 -1       590 8.70547E+03 5.73140E+04 1.27193E+04-1.53512E+05 2.60570E-10 2.73667E-09
 -1       591-3.89487E+04-1.10887E+04-1.28782E+04-2.01251E+04-7.49480E-10-4.74483E-09
 -1       592-4.01696E+04-1.42365E+04-6.97538E+03-2.34668E+04-5.24778E-10-6.55427E-09
 -1       593-4.02508E+04-1.01398E+04-2.90392E+03-2.10554E+04 1.06752E-09 4.45903E-09
 -1       594-3.83753E+04-1.23645E+04-1.44831E+03-2.35560E+04 1.20986E-09-7.45314E-09
 -1       595-4.03506E+04-1.01355E+04-6.65588E+02-2.10981E+04 1.19485E-10 3.96815E-09
 -1       596-3.82538E+04-1.22787E+04-3.39271E+02-2.35434E+04 4.84135E-10 2.07348E-09
 -1       597-4.03633E+04-1.01437E+04-1.86745E+02-2.10998E+04 2.13753E-10-2.75952E-09
 -1       598-3.82423E+04-1.22754E+04-1.53792E+02-2.35399E+04 8.78245E-10-1.46770E-09
 -1       599-4.03623E+04-1.01437E+04-2.01036E+02-2.10995E+04 1.56319E-10 1.09594E-10
 -1       600-3.82552E+04-1.22798E+04-3.77140E+02-2.35430E+04-8.92214E-10-1.30933E-09
 -1       601-4.03464E+04-1.01349E+04-7.45936E+02-2.10969E+04 2.24532E-10 4.63444E-09
 -1       602-3.83914E+04-1.23760E+04-1.62672E+03-2.35555E+04 9.14042E-10-3.68334E-09
 -1       603-4.02330E+04-1.01414E+04-3.26279E+03-2.10491E+04-4.96584E-10-2.73599E-09
 -1       604-4.04139E+04-1.44722E+04-7.83771E+03-2.34456E+04-9.40986E-10 6.83053E-09
 -1       605-3.87614E+04-1.12137E+04-1.44701E+04-2.00109E+04-4.67253E-11 4.36103E-09
 -1       606 2.51797E+04-8.54385E+03-1.53841E+04 2.45709E+04-1.50521E-09-3.43789E-10
 -1       607 2.25449E+04-2.75644E+03-7.66035E+03 2.75823E+04-1.12777E-10-1.71815E-09
 -1       608 2.40395E+04-4.65042E+02-3.43049E+03 2.43750E+04 9.59517E-09-9.29958E-10
 -1       609 2.37416E+04-1.20642E+02-1.73264E+03 2.77985E+04 1.38316E-08 2.93267E-09
 -1       610 2.39010E+04 2.24881E+01-8.27682E+02 2.43531E+04 6.26460E-09 9.28821E-10
 -1       611 2.38443E+04 3.42283E+01-4.17457E+02 2.78221E+04-4.96948E-09 6.26642E-10
 -1       612 2.38637E+04 3.64224E+01-1.99806E+02 2.43510E+04-1.85264E-09-3.53361E-09
 -1       613 2.38417E+04 4.20009E+01-9.10886E+01 2.78249E+04-5.13319E-09 8.26503E-09
 -1       614 2.38431E+04 3.73087E+01-2.55031E+01 2.43502E+04-4.23825E-10 4.82578E-09
 -1       615 2.38309E+04 4.70526E+01 2.83007E+01 2.78254E+04 5.56838E-09 4.86216E-09
 -1       616 2.38276E+04 4.25688E+01 9.39427E+01 2.43505E+04-2.01953E-09-1.32309E-09
 -1       617 2.38364E+04 7.07816E+01 2.17977E+02 2.78249E+04 8.89713E-10-1.23396E-09
 -1       618 2.38042E+04 1.08253E+02 4.40647E+02 2.43506E+04 1.01381E-08 5.04747E-09
 -1       619 2.39884E+04 4.13885E+02 9.90416E+02 2.78242E+04 1.94977E-08-1.42682E-08
 -1       620 2.36555E+04 1.15559E+03 1.99092E+03 2.43496E+04 1.07480E-08-1.60003E-09
 -1       621 3.04186E+02 1.92701E+05 2.64598E+03 6.64737E+03-2.87699E-10 4.49290E-10
 -1       622 3.48302E+02 1.93357E+05 2.25259E+03 9.70685E+03-2.02135E-10 5.83213E-09
 -1       623 1.41610E+01 1.92889E+05 2.59933E+03 6.61624E+03-8.56630E-11 7.99662E-09
 -1       624 1.17767E+03 1.94117E+05 4.94365E+03 9.73725E+03-3.11303E-10 5.94332E-09
 -1       625 1.18287E+03 1.91936E+05 8.59794E+03 6.61728E+03-1.65983E-10-3.09268E-09
 -1       626 1.59262E+05 4.40598E+04 3.17217E+03 8.60145E+04-5.94446E-09-1.06593E-08
 -1       627 1.57091E+05 4.56573E+04 1.52852E+03 8.94848E+04-1.78852E-09-1.12780E-08
 -1       628 1.59380E+05 4.25594E+04 6.45579E+02 8.64931E+04 4.49927E-09 6.07133E-09
 -1       629 1.56632E+05 4.52963E+04 3.16449E+02 8.96921E+04 8.93124E-09 1.98269E-08
 -1       630 1.59387E+05 4.24887E+04 1.46305E+02 8.65054E+04 2.55841E-09-1.06525E-10
 -1       631 1.56576E+05 4.52885E+04 7.87279E+01 8.96936E+04-5.07134E-09-8.47012E-09
 -1       632 1.59379E+05 4.24946E+04 5.19883E+01 8.64981E+04-2.43335E-09-6.95718E-09
 -1       633 1.56564E+05 4.52934E+04 5.81592E+01 8.96871E+04-6.23459E-10-5.48647E-09
 -1       634 1.59370E+05 4.24955E+04 9.41852E+01 8.64938E+04 3.84080E-09 1.77647E-09
 -1       635 1.56568E+05 4.52950E+04 1.91035E+02 8.96864E+04 9.88166E-10-9.27912E-10
 -1       636 1.59359E+05 4.24949E+04 3.85858E+02 8.64909E+04-7.50492E-09-6.90716E-09
 -1       637 1.56646E+05 4.53565E+04 8.48062E+02 8.96824E+04-4.26112E-10 6.47265E-09
 -1       638 1.59326E+05 4.26841E+04 1.74293E+03 8.64036E+04-1.43510E-08-1.65292E-08
 -1       639 1.57558E+05 4.66316E+04 4.12326E+03 8.94114E+04-2.48410E-08-5.50858E-09
 -1       640 1.59204E+05 4.64795E+04 8.55683E+03 8.47918E+04-8.73911E-09 1.71062E-08
 -1       656 4.31366E+04-1.09183E+06-1.04134E+05-3.66404E+02 8.07631E-10-5.27942E-09
 -1       657-5.70007E+04-1.13884E+06-8.61199E+04 7.03850E+03 6.47560E-10 1.39179E-09
 -1       658 1.36781E+04-1.10524E+06-5.28486E+04-1.36928E+03 5.70708E-11-4.57970E-09
 -1       659-6.11182E+04-1.14079E+06-9.15278E+04 7.70751E+03-5.82077E-10-2.33704E-09
 -1       660 4.72440E+04-1.08989E+06-1.13437E+05-1.03540E+03 2.32831E-10-1.16498E-09
 -1       661 1.54039E+05 1.67685E+04 1.47877E+04 6.02013E+04 2.37537E-09 1.83809E-09
 -1       662 1.61749E+05 2.83588E+04 9.96444E+03 5.76211E+04 1.75601E-09-9.44760E-09
 -1       663 1.56937E+05 2.15180E+04 3.48564E+03 5.93653E+04 8.82778E-10-5.52404E-10
 -1       664 1.58396E+05 2.27987E+04 2.08396E+03 5.86370E+04 3.20779E-09-5.82639E-09
 -1       665 1.57370E+05 2.21724E+04 8.22058E+02 5.92443E+04-3.17527E-10 2.97604E-10
 -1       666 1.57888E+05 2.20456E+04 4.79383E+02 5.87916E+04-2.33013E-09 1.03717E-08
 -1       667 1.57442E+05 2.22514E+04 2.52746E+02 5.92181E+04 1.36549E-09-2.28490E-09
 -1       668 1.57811E+05 2.19827E+04 2.53180E+02 5.88289E+04 3.84540E-09-1.08018E-08
 -1       669 1.57446E+05 2.22335E+04 3.39229E+02 5.92077E+04 4.85898E-10 5.46360E-09
 -1       670 1.57898E+05 2.21610E+04 7.35333E+02 5.88271E+04 1.26574E-09 1.03869E-09
 -1       671 1.57356E+05 2.20766E+04 1.30455E+03 5.92186E+04-2.59040E-09-1.13329E-09
 -1       672 1.58660E+05 2.34284E+04 3.33677E+03 5.86416E+04-4.47926E-09 3.64480E-10
 -1       673 1.56689E+05 2.09981E+04 5.59158E+03 5.93809E+04-7.02812E-10-1.70985E-09
 -1       674 1.63985E+05 3.24088E+04 1.59908E+04 5.70747E+04 1.91778E-09-6.28825E-09
 -1       675 1.52065E+05 1.33473E+04 2.37352E+04 6.06908E+04 1.82399E-09-2.20371E-09
 -1       676 1.75423E+01-2.09243E+05-8.14387E+02 3.65180E+01-3.67038E-10-2.54872E-09
 -1       677-2.16145E+02-2.09440E+05-1.49041E+03-7.30038E+01-2.35377E-09-5.88440E-09
 -1       678 1.44367E+02-2.09103E+05-2.63464E+03 3.64606E+01-4.01315E-11 2.55001E-09
 -1       679-2.63514E+03-2.11030E+05-6.25856E+03-7.27780E+01-4.69743E-09 2.36514E-09
 -1       680 1.57268E+03-2.07653E+05-1.00867E+04 3.58743E+01-2.25464E-09-3.70463E-09
 -1       771-2.24588E+06-3.98135E+05-5.57008E+04-9.36983E+05-8.76025E-09-6.25732E-09
 -1       772-2.23046E+06-4.28673E+05-2.97994E+04-9.71104E+05-5.35874E-09 7.09315E-09
 -1       773-2.25378E+06-3.91974E+05-1.30281E+04-9.40083E+05-2.49565E-09 3.85262E-09
 -1       774-2.22259E+06-4.22286E+05-6.29656E+03-9.75027E+05 8.11269E-09-9.53150E-10
 -1       775-2.25586E+06-3.90596E+05-3.30811E+03-9.40344E+05-1.29512E-09 4.52201E-09
 -1       776-2.22259E+06-4.22371E+05-1.49094E+03-9.77279E+05-2.47383E-09 2.03545E-09
 -1       777-2.25735E+06-3.89499E+05-1.00717E+03-9.40503E+05-5.09317E-11 1.58616E-09
 -1       778-2.22306E+06-4.22630E+05-4.19879E+02-9.79163E+05 1.48430E-09 3.66890E-09
 -1       779-2.25856E+06-3.88566E+05-4.52669E+02-9.40647E+05-1.08412E-09-2.70120E-09
 -1       780-2.22353E+06-4.22840E+05-3.01331E+02-9.80688E+05-4.45289E-09 2.68756E-10
 -1       781-2.25947E+06-3.87822E+05-5.47730E+02-9.40758E+05-8.76753E-09-1.22827E-09
 -1       782-2.22397E+06-4.23034E+05-9.25383E+02-9.81810E+05-9.66793E-09-3.02464E-09
 -1       783-2.26005E+06-3.87330E+05-1.85828E+03-9.40816E+05 9.82254E-11-9.58721E-10
 -1       784-2.22531E+06-4.24297E+05-4.37041E+03-9.82444E+05-5.48152E-09 2.20098E-10
 -1       785-2.25956E+06-3.87660E+05-8.08830E+03-9.40268E+05-1.02182E-08 1.36060E-09
 -1       786 1.63445E+05-8.75772E+03 2.02611E+04-9.20224E+00 9.50448E-07 4.48927E-09
 -1       787 1.72224E+05 1.01387E+04 1.43343E+04 1.53050E+00 1.89319E-06 7.19729E-09
 -1       788 1.66832E+05-1.37287E+03 5.24411E+03-4.69913E+00 2.00282E-06-6.95263E-09
 -1       789 1.68279E+05 1.58850E+03 3.29492E+03-7.13925E+00 2.11041E-06 1.85567E-08
 -1       790 1.67391E+05-2.14465E+02 1.34071E+03-5.32694E-01 2.34655E-06-6.14455E-09
 -1       791 1.67626E+05 2.49179E+02 7.87181E+02-1.64370E+01 2.58502E-06 1.31185E-08
 -1       792 1.67485E+05-3.45633E+01 3.59288E+02 4.59878E+00 3.16853E-06-1.60962E-08
 -1       793 1.67521E+05 4.85489E+01 2.35477E+02-2.91031E+01 3.74585E-06 1.01995E-08
 -1       794 1.67497E+05-1.39675E+01 1.74492E+02 1.21336E+01 1.87466E-06-5.54305E-09
 -1       795 1.67531E+05 7.20868E+01 2.52491E+02-4.86521E+01 6.40612E-09 9.07704E-09
 -1       796 1.67474E+05-5.80841E+01 3.78259E+02 2.41482E+01 1.28637E-10 8.75389E-12
 -1       797 1.67703E+05 4.25817E+02 8.91938E+02-8.04772E+01-2.37979E-10-7.81209E-09
 -1       798 1.67325E+05-3.67438E+02 1.40787E+03 4.39592E+01-1.56199E-11-1.10197E-09
 -1       799 1.68759E+05 2.71305E+03 3.83818E+03-1.33654E+02-7.31422E-10 6.97719E-09
 -1       800 1.66418E+05-2.34348E+03 5.42160E+03 7.73257E+01 1.14250E-10 3.02725E-09
 -1       801-4.84355E+03-1.77183E+05-5.60131E+03 1.88883E+04 1.00863E-08-6.54677E-09
 -1       802 1.75786E+04-7.69216E+04 3.84243E+04-7.27863E+04 2.71211E-08-7.42375E-10
 -1       803-1.18732E+04-1.34544E+05 5.39035E+04 2.12275E+04 2.13586E-08 1.97963E-08
 -1       804 1.12244E+05-2.24596E+04 1.62886E+05-7.30803E+04 2.50802E-08 2.14497E-08
 -1       805-9.96300E+04-2.31281E+05 2.02353E+05 1.91785E+04 8.89122E-09 2.32847E-08
 -1       806-1.93091E+05-4.12265E+04-1.63532E+04-8.02577E+04 4.28327E-09 1.72790E-08
 -1       807-1.94066E+05-3.88720E+04-8.03397E+03-8.45790E+04 1.96172E-09 8.91168E-09
 -1       808-1.93554E+05-3.53196E+04-3.40800E+03-8.30325E+04-2.08979E-09 5.99301E-09
 -1       809-1.92353E+05-3.66402E+04-1.66608E+03-8.48090E+04-2.79670E-09 1.00808E-08
 -1       810-1.93626E+05-3.51114E+04-7.62896E+02-8.31549E+04-7.04085E-09 2.28204E-09
 -1       811-1.92221E+05-3.65519E+04-3.78363E+02-8.47891E+04-1.03150E-08-5.80189E-09
 -1       812-1.93639E+05-3.51271E+04-1.88872E+02-8.31545E+04-8.17727E-09 4.09705E-09
 -1       813-1.92204E+05-3.65542E+04-1.19188E+02-8.47785E+04-1.06263E-08-6.33577E-09
 -1       814-1.93636E+05-3.51330E+04-1.11879E+02-8.31518E+04-3.80578E-09-1.42086E-09
 -1       815-1.92206E+05-3.65562E+04-1.75135E+02-8.47753E+04-7.52607E-11 8.16397E-09
 -1       816-1.93624E+05-3.51320E+04-3.28210E+02-8.31494E+04-2.80397E-09-3.00793E-09
 -1       817-1.92262E+05-3.65877E+04-7.03575E+02-8.47688E+04 2.32831E-10 1.23873E-09
 -1       818-1.93582E+05-3.52310E+04-1.43394E+03-8.31025E+04 7.82165E-11-4.40059E-09
 -1       819-1.93053E+05-3.74483E+04-3.37470E+03-8.45766E+04-1.31172E-09 7.02312E-09
 -1       820-1.93309E+05-3.77826E+04-6.86818E+03-8.20145E+04-3.43061E-09-3.69437E-09
 -1       821-2.49749E+05 1.38493E+04-3.20289E+04 8.66331E+01-4.26887E-10 1.79170E-09
 -1       822-2.63630E+05-1.60329E+04-2.26651E+04-6.07799E+02-1.55230E-09 6.14909E-09
 -1       823-2.55106E+05 2.17121E+03-8.29558E+03 5.52583E+01 8.30029E-10-1.81444E-10
 -1       824-2.57383E+05-2.51309E+03-5.21955E+03-4.63807E+02 2.27596E-10-7.85008E-11
 -1       825-2.55994E+05 3.39787E+02-2.14542E+03-5.73633E+01-3.19448E-09 6.89397E-10
 -1       826-2.56350E+05-4.00749E+02-1.29495E+03-2.01465E+02-5.70477E-09-1.00849E-08
 -1       827-2.56139E+05 6.02697E+01-6.70501E+02-2.07089E+02-3.68054E-09-5.16962E-09
 -1       828-2.56210E+05-1.22245E+02-5.92451E+02 7.84825E+01-4.49051E-09 3.25303E-09
 -1       829-2.56134E+05 6.15395E+01-6.80218E+02-3.37316E+02 2.90417E-10 2.37219E-09
 -1       830-2.56368E+05-4.10751E+02-1.32804E+03 2.70214E+02 1.52563E-09-6.22845E-09
 -1       831-2.55982E+05 3.48750E+02-2.19923E+03-3.98824E+02-3.04648E-09-6.55973E-10
 -1       832-2.57425E+05-2.57917E+03-5.35905E+03 3.01840E+02-3.49861E-09-2.90493E-09
 -1       833-2.55077E+05 2.22842E+03-8.51587E+03-3.68941E+02-1.42686E-09 1.98224E-09
 -1       834-2.63822E+05-1.64580E+04-2.32665E+04 1.63642E+02-1.34219E-09 2.75395E-09
 -1       835-2.49585E+05 1.42167E+04-3.28826E+04-2.60617E+02 4.97388E-09 6.67569E-10
 -1       836-8.31424E+02 2.36224E+05 1.42346E+04-2.06396E+04 1.60753E-09 3.62297E-09
 -1       837 3.13698E+03 2.40630E+05 1.21471E+04-4.14503E+04 2.30330E-09-9.90985E-09
 -1       838-3.03417E+02 2.37451E+05 1.25175E+04-2.05699E+04 2.21735E-09 7.70422E-09
 -1       839 8.03526E+03 2.44282E+05 2.38181E+04-4.14752E+04 2.85399E-09 3.96999E-09
 -1       840-2.41253E+03 2.32540E+05 3.80379E+04-2.06132E+04 2.00635E-09-1.25078E-09
 -1       856-7.72337E+04 6.65131E+03-1.75278E+04-3.93120E+02-2.96018E-09-1.59162E-10
 -1       857-8.44743E+04-7.80089E+03-1.20676E+04 3.99974E+03-6.51295E-09 7.08133E-09
 -1       858-8.00943E+04 9.31955E+02-4.54899E+03-4.10755E+02-5.23232E-09-1.35560E-09
 -1       859-8.11890E+04-1.08342E+03-2.74747E+03 4.02788E+03 5.49846E-10 1.63806E-09
 -1       860-8.05220E+04 1.29596E+02-1.15525E+03-4.21390E+02 2.29558E-09-9.39508E-10
 -1       861-8.06963E+04-1.43003E+02-6.43541E+02 4.04242E+03-4.94669E-09-2.88401E-09
 -1       862-8.05885E+04 1.71624E+01-2.83577E+02-4.25321E+02 4.21411E-09 6.72756E-10
 -1       863-8.06176E+04-1.03400E+01-1.39766E+02 4.04417E+03 6.07319E-09-5.94159E-09
 -1       864-8.06009E+04-1.56040E-01-4.29421E+01-4.23146E+02 6.30504E-09-4.10106E-09
 -1       865-8.05943E+04 2.05517E+01 2.88550E+01 4.03322E+03 6.91335E-09 5.72489E-09
 -1       866-8.06105E+04-1.41134E+01 1.00333E+02-4.14371E+02 8.86700E-10-5.82882E-09
 -1       867-8.05361E+04 1.18387E+02 2.73990E+02 4.00942E+03 1.34327E-09-5.79004E-09
 -1       868-8.06565E+04-9.73778E+01 4.61846E+02-3.99344E+02 1.72093E-09-7.84192E-09
 -1       869-8.01896E+04 8.07570E+02 1.23963E+03 3.96997E+03-2.69634E-09-1.25849E-08
 -1       870-8.09529E+04-6.86258E+02 1.79773E+03-3.74931E+02 1.63413E-09-4.85966E-09
 -1       871-3.66163E+03-7.65839E+03-1.18660E+04 7.77979E+04 2.75941E-09 1.60526E-09
 -1       872-1.59761E+03-1.03118E+04-4.83384E+03 1.00860E+05 3.78759E-09 9.71158E-09
 -1       873-4.39420E+01-9.07242E+03 6.99124E+02 7.76266E+04 1.15597E-09 1.35710E-08
 -1       874 1.81716E+03-7.34038E+03 6.75011E+03 1.00896E+05 4.14684E-09 7.55472E-09
 -1       875 4.32299E+03-1.06747E+04 1.49637E+04 7.77694E+04 1.44246E-09-1.43518E-09
 -1       876 1.94393E+05 3.35248E+04 1.04149E+04 7.89020E+04-5.16729E-09-7.35781E-09
 -1       877 1.94982E+05 3.58169E+04 5.56175E+03 8.19885E+04-6.86350E-09-1.24775E-08
 -1       878 1.95366E+05 3.23720E+04 2.33012E+03 7.97572E+04 4.85511E-09 3.19460E-09
 -1       879 1.93565E+05 3.44062E+04 1.16073E+03 8.20626E+04 1.38277E-09 4.76825E-09
 -1       880 1.95437E+05 3.23590E+04 5.40380E+02 7.97921E+04 1.08344E-09 5.18247E-09
 -1       881 1.93471E+05 3.43463E+04 2.87779E+02 8.20480E+04 6.87044E-09-4.29633E-09
 -1       882 1.95445E+05 3.23675E+04 1.82758E+02 7.97930E+04 1.07352E-08 5.79541E-09
 -1       883 1.93465E+05 3.43435E+04 1.94290E+02 8.20439E+04 3.87689E-09 6.16740E-09
 -1       884 1.95441E+05 3.23653E+04 3.07098E+02 7.97932E+04-2.20416E-09 6.39488E-09
 -1       885 1.93489E+05 3.43479E+04 6.16207E+02 8.20516E+04 5.96697E-09-4.32919E-10
 -1       886 1.95417E+05 3.23473E+04 1.24137E+03 7.97907E+04 5.44610E-09-1.62049E-09
 -1       887 1.93707E+05 3.44909E+04 2.71141E+03 8.20830E+04-3.00903E-09 3.02862E-09
 -1       888 1.95246E+05 3.23775E+04 5.46355E+03 7.97040E+04 1.26883E-09-8.26731E-10
 -1       889 1.96963E+05 3.78708E+04 1.30521E+04 8.19794E+04 1.33657E-09-1.45292E-09
 -1       890 1.93019E+05 3.50217E+04 2.44454E+04 7.76198E+04 4.57521E-09-2.52840E-10
 -1       891-1.23097E+02-1.10527E+05-1.30344E+03 2.10253E+04 6.31644E-10 3.70801E-09
 -1       892-2.13825E+02-1.10838E+05-1.41863E+03 3.18149E+04 4.86352E-10-1.74498E-09
 -1       893-3.63766E+01-1.10568E+05-2.02784E+03 2.10294E+04 2.97791E-09-1.94723E-09
 -1       894-1.11176E+03-1.11616E+05-4.21105E+03 3.17019E+04 3.39696E-10 1.82695E-09
 -1       895-8.68268E+02-1.09692E+05-7.42079E+03 2.11368E+04-9.23933E-10-4.36103E-10
 -1       956-2.44303E+05-3.52193E+03-8.87079E+03 1.61646E+04-3.67754E-09-1.62584E-09
 -1       957-2.46055E+05-1.18662E+03-4.55396E+03 1.94649E+04-3.78350E-10 3.05022E-10
 -1       958-2.45090E+05-9.29938E+01-2.05165E+03 1.60590E+04 2.47928E-09-4.12092E-09
 -1       959-2.45230E+05-1.44125E+01-1.04795E+03 1.95790E+04-1.68097E-09 5.26347E-09
 -1       960-2.45160E+05 3.10394E+01-5.10777E+02 1.60490E+04-3.48427E-09 4.84010E-09
 -1       961-2.45169E+05 2.95372E+01-2.70807E+02 1.95903E+04-4.46789E-09 5.42366E-09
 -1       962-2.45174E+05 2.73134E+01-1.54601E+02 1.60475E+04-3.27191E-09 3.28146E-09
 -1       963-2.45166E+05 3.05615E+01-1.23367E+02 1.95924E+04-3.86399E-09 3.36513E-11
 -1       964-2.45177E+05 2.90198E+01-1.48828E+02 1.60469E+04-2.84103E-09-8.17408E-10
 -1       965-2.45176E+05 3.32962E+01-2.56384E+02 1.95924E+04 1.09875E-09 2.60150E-09
 -1       966-2.45169E+05 3.60652E+01-4.80795E+02 1.60474E+04-3.99791E-09-3.63548E-09
 -1       967-2.45239E+05-4.35818E+00-9.85878E+02 1.95864E+04-2.01817E-09-3.66776E-09
 -1       968-2.45109E+05-7.71303E+01-1.92916E+03 1.60531E+04-8.73479E-09-3.18101E-09
 -1       969-2.46022E+05-1.10372E+03-4.28329E+03 1.95195E+04-1.75158E-08-1.42455E-09
 -1       970-2.44374E+05-3.30011E+03-8.34283E+03 1.61168E+04-7.39237E-09 1.93631E-09
 -1       971-2.32047E+05-1.22494E+03-6.82201E+03 1.13357E+04-5.50608E-09-2.71996E-09
 -1       972-2.33707E+05-8.77184E+02-3.71535E+03 1.58361E+04-2.70779E-09-5.51722E-09
 -1       973-2.32805E+05-6.26971E+00-1.66351E+03 1.12413E+04-2.27874E-09 2.11446E-09
 -1       974-2.32921E+05-5.95718E+00-8.61805E+02 1.59377E+04 4.26076E-09-4.17896E-09
 -1       975-2.32863E+05 2.51257E+01-4.29665E+02 1.12330E+04 5.34237E-09 2.43517E-09
 -1       976-2.32874E+05 2.92858E+01-2.46023E+02 1.59476E+04-1.74975E-09-3.80055E-10
 -1       977-2.32874E+05 2.45791E+01-1.75130E+02 1.12312E+04 1.11108E-08 4.55611E-09
 -1       978-2.32876E+05 3.29713E+01-2.00323E+02 1.59501E+04 2.50491E-08 5.01416E-09
 -1       979-2.32874E+05 2.98091E+01-3.17837E+02 1.12305E+04 1.31511E-08 8.66407E-10
 -1       980-2.32899E+05 3.48523E+01-6.11187E+02 1.59505E+04 9.53932E-09-8.26583E-09
 -1       981-2.32854E+05 4.50417E+01-1.18237E+03 1.12308E+04 7.40329E-10-1.89863E-09
 -1       982-2.33061E+05-5.22889E+01-2.44317E+03 1.59459E+04-2.98769E-09 3.39470E-09
 -1       983-2.32706E+05-3.03253E+01-4.74663E+03 1.12353E+04 6.53017E-10 1.23714E-09
 -1       984-2.35345E+05-2.53067E+03-1.06293E+04 1.58820E+04-1.44144E-09 1.89982E-09
 -1       985-2.30558E+05-3.50331E+03-1.95187E+04 1.12994E+04 4.13866E-09 1.50249E-09
 -3
    1PSTEP                         9           5           1          
  100CL  105 5.03906E-01         409                     0    5           1
 -4  DISP        4    1
 -5  D1          1    2    1    0
 -5  D2          1    2    2    0
 -5  D3          1    2    3    0
 -5  ALL         1    2    0    0    1ALL
 -1         1 1.53115E-04 0.00000E+00 0.00000E+00
 -1         2 1.38051E-04-8.12114E-31-4.13590E-25
 -1         3 1.34369E-04 2.16452E-27 0.00000E+00
 -1         5 9.23352E-05-9.23182E-28 0.00000E+00
 -1         8 1.28130E-04-8.82647E-07 0.00000E+00
 -1         9 1.25576E-04-6.66965E-08 0.00000E+00
 -1        10 1.24581E-04-1.83342E-06 0.00000E+00
 -1        12 9.19410E-05 5.53011E-07 0.00000E+00
 -1        15 9.83481E-05-9.77768E-07-4.13590E-25
 -1        16 1.02145E-04-2.44198E-07 0.00000E+00
 -1        17 9.18957E-05-3.97346E-06 0.00000E+00
 -1        18 8.96802E-05 2.54830E-06 0.00000E+00
 -1        19 9.07584E-05 1.10305E-06 0.00000E+00
 -1        20 9.08979E-05 1.41187E-05 0.00000E+00
 -1        21 9.03520E-05 2.62158E-05 0.00000E+00
 -1        24 2.04747E-05-5.45520E-06 0.00000E+00
 -1        25 8.87773E-05 2.67814E-06 0.00000E+00
 -1        26 8.97232E-05 1.53401E-06 0.00000E+00
 -1        27 8.81913E-05 1.16533E-05 0.00000E+00
 -1        28 8.77252E-05 2.57465E-05 0.00000E+00
 -1        32 0.00000E+00 0.00000E+00 0.00000E+00
 -1        33 8.74361E-05 2.05484E-06 0.00000E+00
 -1        34 8.59541E-05 1.16305E-05 0.00000E+00
 -1        35 8.45507E-05 2.54979E-05 0.00000E+00
 -1        51 1.51492E-04-1.45886E-07 0.00000E+00
 -1        52 1.48482E-04-2.86879E-07 0.00000E+00
 -1        53 1.44358E-04-4.29253E-07 0.00000E+00
 -1        54 1.39402E-04-5.74578E-07-3.30872E-24
 -1        55 1.33898E-04-7.23657E-07 1.55096E-24
 -1        56 1.51751E-04-8.02424E-07 2.64698E-23
 -1        57 1.50511E-04-2.08807E-06 0.00000E+00
 -1        58 1.49400E-04-3.71219E-06 0.00000E+00
 -1        59 1.48356E-04-5.54231E-06 2.64698E-23
 -1        60 1.47331E-04-7.42384E-06 5.29396E-23
 -1        61 1.46266E-04-9.20407E-06-2.64698E-23
 -1        62 1.45109E-04-1.07368E-05 0.00000E+00
 -1        63 1.43808E-04-1.18852E-05 0.00000E+00
 -1        64 1.42321E-04-1.25400E-05 0.00000E+00
 -1        65 1.40615E-04-1.26091E-05 0.00000E+00
 -1        66 1.38671E-04-1.20427E-05 0.00000E+00
 -1        67 1.36478E-04-1.08133E-05-2.64698E-23
 -1        68 1.34043E-04-8.94135E-06 0.00000E+00
 -1        69 1.31389E-04-6.46707E-06-2.64698E-23
 -1        70 1.28538E-04-3.48006E-06 2.64698E-23
 -1        86 1.37703E-04-3.63433E-09 0.00000E+00
 -1        87 1.36661E-04-8.26769E-09 0.00000E+00
 -1        88 1.34926E-04-1.39040E-08-1.65436E-24
 -1        89 1.32498E-04-2.42911E-08-1.65436E-24
 -1        90 1.29381E-04-3.53764E-08-6.61744E-24
 -1       121 1.34095E-04-3.03723E-07-6.61744E-24
 -1       122 1.33275E-04-6.07745E-07 0.00000E+00
 -1       123 1.31910E-04-9.12357E-07 6.61744E-24
 -1       124 1.30003E-04-1.21793E-06 3.30872E-24
 -1       125 1.27558E-04-1.52460E-06-1.32349E-23
 -1       191 9.23242E-05 9.21745E-08 0.00000E+00
 -1       192 9.22914E-05 1.84348E-07 0.00000E+00
 -1       193 9.22366E-05 2.76520E-07-3.30872E-24
 -1       194 9.21600E-05 3.68690E-07 3.30872E-24
 -1       195 9.20614E-05 4.60854E-07 0.00000E+00
 -1       251 1.27957E-04 3.39899E-06 0.00000E+00
 -1       252 1.27797E-04 6.31860E-06 0.00000E+00
 -1       253 1.27638E-04 7.94523E-06 6.61744E-24
 -1       254 1.27483E-04 8.35601E-06 0.00000E+00
 -1       255 1.27327E-04 7.72412E-06-6.61744E-24
 -1       256 1.27171E-04 6.22936E-06 0.00000E+00
 -1       257 1.27013E-04 4.11961E-06 0.00000E+00
 -1       258 1.26855E-04 1.64665E-06 0.00000E+00
 -1       259 1.26697E-04-9.09126E-07 6.61744E-24
 -1       260 1.26539E-04-3.26677E-06-3.30872E-24
 -1       261 1.26382E-04-5.16093E-06-6.61744E-24
 -1       262 1.26225E-04-6.32928E-06 0.00000E+00
 -1       263 1.26069E-04-6.56671E-06 6.61744E-24
 -1       264 1.25911E-04-5.67402E-06 3.30872E-24
 -1       265 1.25751E-04-3.54137E-06 6.61744E-24
 -1       266 1.23166E-04-9.10570E-07 6.61744E-24
 -1       267 1.18203E-04-9.24953E-07 0.00000E+00
 -1       268 1.13239E-04-9.40193E-07 1.65436E-24
 -1       269 1.08275E-04-9.52892E-07 0.00000E+00
 -1       270 1.03312E-04-9.65532E-07 0.00000E+00
 -1       271 1.25133E-04 2.93477E-06 0.00000E+00
 -1       272 1.22537E-04 5.55572E-06 0.00000E+00
 -1       273 1.20350E-04 7.09971E-06 0.00000E+00
 -1       274 1.18516E-04 7.68513E-06 0.00000E+00
 -1       275 1.16988E-04 7.45392E-06-5.29396E-23
 -1       276 1.15708E-04 6.55995E-06 0.00000E+00
 -1       277 1.14613E-04 5.17028E-06 5.29396E-23
 -1       278 1.13637E-04 3.46047E-06-2.64698E-23
 -1       279 1.12713E-04 1.61219E-06 5.29396E-23
 -1       280 1.11772E-04-1.90372E-07 2.64698E-23
 -1       281 1.10746E-04-1.76403E-06 0.00000E+00
 -1       282 1.09568E-04-2.92952E-06 0.00000E+00
 -1       283 1.08173E-04-3.51559E-06 0.00000E+00
 -1       284 1.06505E-04-3.35963E-06 2.64698E-23
 -1       285 1.04502E-04-2.31665E-06 0.00000E+00
 -1       301 1.21358E-04-1.07061E-07 6.61744E-24
 -1       302 1.17184E-04-1.28709E-07 3.30872E-24
 -1       303 1.13113E-04-1.49182E-07 6.61744E-24
 -1       304 1.09209E-04-1.70265E-07 0.00000E+00
 -1       305 1.05533E-04-1.92799E-07-1.32349E-23
 -1       306 1.22589E-04 2.23470E-06 0.00000E+00
 -1       307 1.20418E-04 2.18457E-06 0.00000E+00
 -1       308 1.19078E-04-6.94234E-08-5.29396E-23
 -1       309 1.18454E-04-4.28216E-06 2.64698E-23
 -1       310 1.18333E-04-9.85123E-06 0.00000E+00
 -1       311 1.18460E-04-1.61005E-05 0.00000E+00
 -1       312 1.18544E-04-2.22309E-05 0.00000E+00
 -1       313 1.18291E-04-2.74514E-05 0.00000E+00
 -1       314 1.17467E-04-3.11327E-05 5.29396E-23
 -1       315 1.15868E-04-3.27342E-05 0.00000E+00
 -1       316 1.13425E-04-3.20876E-05 5.29396E-23
 -1       317 1.10120E-04-2.91519E-05 2.64698E-23
 -1       318 1.06085E-04-2.42943E-05 0.00000E+00
 -1       319 1.01510E-04-1.79856E-05 2.64698E-23
 -1       320 9.66570E-05-1.09641E-05 0.00000E+00
 -1       336 1.20960E-04-2.18187E-06 6.61744E-24
 -1       337 1.16590E-04-2.53396E-06-3.30872E-24
 -1       338 1.11483E-04-2.88928E-06 0.00000E+00
 -1       339 1.05653E-04-3.24784E-06 3.30872E-24
 -1       340 9.91171E-05-3.61066E-06 0.00000E+00
 -1       406 9.17986E-05 6.45155E-07 0.00000E+00
 -1       407 9.16343E-05 7.37265E-07 1.65436E-24
 -1       408 9.14481E-05 8.29316E-07 3.30872E-24
 -1       409 9.12400E-05 9.21193E-07 1.65436E-24
 -1       410 9.10101E-05 1.01272E-06 0.00000E+00
 -1       521 1.03690E-04-1.35102E-05 0.00000E+00
 -1       522 1.15415E-04-5.64980E-05 0.00000E+00
 -1       523 1.34386E-04-1.22077E-04 1.05879E-22
 -1       524 1.57380E-04-2.01135E-04 0.00000E+00
 -1       525 1.80778E-04-2.81557E-04-1.05879E-22
 -1       526 2.00941E-04-3.51110E-04 5.29396E-23
 -1       527 2.14581E-04-3.99989E-04 1.05879E-22
 -1       528 2.18506E-04-4.20228E-04 0.00000E+00
 -1       529 2.11154E-04-4.10069E-04 0.00000E+00
 -1       530 1.91835E-04-3.70289E-04 5.29396E-23
 -1       531 1.62708E-04-3.07797E-04-1.05879E-22
 -1       532 1.27158E-04-2.31194E-04 5.29396E-23
 -1       533 9.03634E-05-1.51901E-04 1.05879E-22
 -1       534 5.77018E-05-8.15159E-05 1.05879E-22
 -1       535 3.33449E-05-2.98916E-05 0.00000E+00
 -1       536 9.17445E-05 4.53849E-06 0.00000E+00
 -1       537 9.15811E-05 1.49410E-05 1.65436E-24
 -1       538 9.14105E-05 2.60285E-05 3.30872E-24
 -1       539 9.12463E-05 3.65925E-05 0.00000E+00
 -1       540 9.10970E-05 4.55417E-05-3.30872E-24
 -1       541 9.09675E-05 5.17930E-05 0.00000E+00
 -1       542 9.08520E-05 5.48708E-05-3.30872E-24
 -1       543 9.07410E-05 5.43155E-05 1.65436E-24
 -1       544 9.06233E-05 5.04843E-05-3.30872E-24
 -1       545 9.04909E-05 4.37507E-05-1.65436E-24
 -1       546 9.03450E-05 3.51418E-05 3.30872E-24
 -1       547 9.01922E-05 2.56940E-05 1.65436E-24
 -1       548 9.00427E-05 1.66330E-05 3.30872E-24
 -1       549 8.99071E-05 9.18266E-06-8.27181E-25
 -1       550 8.97855E-05 4.20478E-06-8.27181E-25
 -1       551 8.24654E-05-4.19193E-06-6.61744E-24
 -1       552 7.12264E-05-4.42411E-06 3.30872E-24
 -1       553 5.87888E-05-4.66915E-06 4.96308E-24
 -1       554 4.57721E-05-4.92329E-06-3.30872E-24
 -1       555 3.27957E-05-5.17967E-06 0.00000E+00
 -1       556 8.93713E-05 2.56352E-06 0.00000E+00
 -1       557 8.74194E-05 7.62789E-06 0.00000E+00
 -1       558 8.59787E-05 1.13511E-05 0.00000E+00
 -1       559 8.49931E-05 1.38755E-05 0.00000E+00
 -1       560 8.44069E-05 1.53430E-05 0.00000E+00
 -1       561 8.41651E-05 1.58963E-05 0.00000E+00
 -1       562 8.42128E-05 1.56786E-05 0.00000E+00
 -1       563 8.44959E-05 1.48331E-05 0.00000E+00
 -1       564 8.49603E-05 1.35030E-05 0.00000E+00
 -1       565 8.55522E-05 1.18320E-05 0.00000E+00
 -1       566 8.62178E-05 9.96343E-06 0.00000E+00
 -1       567 8.69036E-05 8.04094E-06-3.10193E-25
 -1       568 8.75559E-05 6.20806E-06 0.00000E+00
 -1       569 8.81212E-05 4.60819E-06 0.00000E+00
 -1       570 8.85459E-05 3.38476E-06 0.00000E+00
 -1       571 8.97456E-05 2.49002E-06 8.27181E-25
 -1       572 8.98125E-05 2.38760E-06-2.06795E-25
 -1       573 8.98798E-05 2.24918E-06 1.65436E-24
 -1       574 8.99473E-05 2.08334E-06 0.00000E+00
 -1       575 9.00149E-05 1.89868E-06-1.65436E-24
 -1       576 9.00825E-05 1.70386E-06-8.27181E-25
 -1       577 9.01501E-05 1.50756E-06 0.00000E+00
 -1       578 9.02177E-05 1.31845E-06 1.65436E-24
 -1       579 9.02854E-05 1.14520E-06 0.00000E+00
 -1       580 9.03530E-05 9.96483E-07 1.65436E-24
 -1       581 9.04206E-05 8.80986E-07 0.00000E+00
 -1       582 9.04883E-05 8.07366E-07 0.00000E+00
 -1       583 9.05559E-05 7.84282E-07 0.00000E+00
 -1       584 9.06235E-05 8.20303E-07 1.65436E-24
 -1       585 9.06911E-05 9.23943E-07 0.00000E+00
 -1       586 8.94995E-05 2.57127E-06 0.00000E+00
 -1       587 8.92916E-05 2.59370E-06 2.06795E-25
 -1       588 8.90860E-05 2.61590E-06 0.00000E+00
 -1       589 8.89122E-05 2.63773E-06 0.00000E+00
 -1       590 8.87997E-05 2.65896E-06 0.00000E+00
 -1       591 8.96697E-05 2.52725E-06 1.03398E-25
 -1       592 8.96693E-05 2.47215E-06 4.13590E-25
 -1       593 8.96790E-05 2.38963E-06-4.13590E-25
 -1       594 8.96964E-05 2.28561E-06 0.00000E+00
 -1       595 8.97196E-05 2.16610E-06 0.00000E+00
 -1       596 8.97463E-05 2.03706E-06 0.00000E+00
 -1       597 8.97744E-05 1.90446E-06 0.00000E+00
 -1       598 8.98015E-05 1.77424E-06 0.00000E+00
 -1       599 8.98255E-05 1.65236E-06 0.00000E+00
 -1       600 8.98442E-05 1.54478E-06-2.06795E-25
 -1       601 8.98552E-05 1.45745E-06-4.13590E-25
 -1       602 8.98565E-05 1.39633E-06-2.06795E-25
 -1       603 8.98459E-05 1.36738E-06 1.03398E-25
 -1       604 8.98212E-05 1.37660E-06 5.16988E-26
 -1       605 8.97802E-05 1.42993E-06 0.00000E+00
 -1       606 9.07706E-05 1.43573E-06 0.00000E+00
 -1       607 9.07804E-05 1.86076E-06 0.00000E+00
 -1       608 9.07895E-05 2.37270E-06 0.00000E+00
 -1       609 9.07983E-05 2.96545E-06 1.65436E-24
 -1       610 9.08069E-05 3.63287E-06 0.00000E+00
 -1       611 9.08155E-05 4.36872E-06 0.00000E+00
 -1       612 9.08240E-05 5.16676E-06 0.00000E+00
 -1       613 9.08324E-05 6.02078E-06 0.00000E+00
 -1       614 9.08408E-05 6.92452E-06 1.65436E-24
 -1       615 9.08491E-05 7.87173E-06 0.00000E+00
 -1       616 9.08574E-05 8.85619E-06 0.00000E+00
 -1       617 9.08657E-05 9.87165E-06 0.00000E+00
 -1       618 9.08739E-05 1.09119E-05-8.27181E-25
 -1       619 9.08821E-05 1.19706E-05 0.00000E+00
 -1       620 9.08901E-05 1.30416E-05 0.00000E+00
 -1       621 9.05240E-05 1.17495E-06 0.00000E+00
 -1       622 9.03238E-05 1.24717E-06-8.27181E-25
 -1       623 9.01510E-05 1.31939E-06 1.65436E-24
 -1       624 8.99981E-05 1.39149E-06 8.27181E-25
 -1       625 8.98579E-05 1.46346E-06-1.65436E-24
 -1       626 9.07114E-05 1.45891E-06 0.00000E+00
 -1       627 9.06365E-05 1.89072E-06-3.30872E-24
 -1       628 9.05359E-05 2.39129E-06 0.00000E+00
 -1       629 9.04124E-05 2.95295E-06 1.65436E-24
 -1       630 9.02689E-05 3.56804E-06 0.00000E+00
 -1       631 9.01082E-05 4.22884E-06 0.00000E+00
 -1       632 8.99333E-05 4.92763E-06 3.30872E-24
 -1       633 8.97469E-05 5.65670E-06 1.65436E-24
 -1       634 8.95521E-05 6.40834E-06 0.00000E+00
 -1       635 8.93518E-05 7.17482E-06 0.00000E+00
 -1       636 8.91487E-05 7.94845E-06 1.65436E-24
 -1       637 8.89458E-05 8.72149E-06-8.27181E-25
 -1       638 8.87460E-05 9.48622E-06 0.00000E+00
 -1       639 8.85520E-05 1.02349E-05 0.00000E+00
 -1       640 8.83665E-05 1.09599E-05 0.00000E+00
 -1       656 9.00233E-05 1.37175E-05 6.61744E-24
 -1       657 8.95012E-05 1.33004E-05 3.30872E-24
 -1       658 8.91998E-05 1.28845E-05-1.32349E-23
 -1       659 8.89829E-05 1.24690E-05 0.00000E+00
 -1       660 8.86975E-05 1.20522E-05-6.61744E-24
 -1       661 9.05749E-05 1.51699E-05 0.00000E+00
 -1       662 9.02750E-05 1.61679E-05 0.00000E+00
 -1       663 8.99944E-05 1.71141E-05 0.00000E+00
 -1       664 8.97326E-05 1.80115E-05-8.27181E-25
 -1       665 8.94884E-05 1.88623E-05 0.00000E+00
 -1       666 8.92609E-05 1.96689E-05 0.00000E+00
 -1       667 8.90493E-05 2.04335E-05 1.65436E-24
 -1       668 8.88525E-05 2.11582E-05 0.00000E+00
 -1       669 8.86701E-05 2.18451E-05 1.65436E-24
 -1       670 8.85010E-05 2.24961E-05-8.27181E-25
 -1       671 8.83447E-05 2.31132E-05-1.65436E-24
 -1       672 8.82004E-05 2.36980E-05 0.00000E+00
 -1       673 8.80674E-05 2.42523E-05 1.65436E-24
 -1       674 8.79446E-05 2.47776E-05-8.27181E-25
 -1       675 8.78322E-05 2.52757E-05-4.13590E-25
 -1       676 8.99131E-05 2.61371E-05 1.65436E-24
 -1       677 8.94743E-05 2.60585E-05-8.27181E-25
 -1       678 8.90359E-05 2.59799E-05 1.65436E-24
 -1       679 8.85982E-05 2.59015E-05-8.27181E-25
 -1       680 8.81612E-05 2.58231E-05-1.65436E-24
 -1       771 1.56798E-05 4.17508E-06 0.00000E+00
 -1       772 1.15426E-05 1.20683E-05 5.29396E-23
 -1       773 8.03449E-06 1.83178E-05 5.29396E-23
 -1       774 5.11379E-06 2.30250E-05 2.64698E-23
 -1       775 2.73941E-06 2.62934E-05 0.00000E+00
 -1       776 8.68448E-07 2.82311E-05 0.00000E+00
 -1       777-5.42489E-07 2.89486E-05 0.00000E+00
 -1       778-1.53776E-06 2.85597E-05 2.64698E-23
 -1       779-2.16204E-06 2.71807E-05 2.64698E-23
 -1       780-2.46081E-06 2.49304E-05-1.32349E-23
 -1       781-2.47970E-06 2.19292E-05-2.64698E-23
 -1       782-2.26497E-06 1.83001E-05 0.00000E+00
 -1       783-1.86295E-06 1.41668E-05 2.64698E-23
 -1       784-1.32037E-06 9.65481E-06 0.00000E+00
 -1       785-6.84019E-07 4.89017E-06-2.64698E-23
 -1       786 8.88328E-05 2.50544E-06 0.00000E+00
 -1       787 8.88917E-05 2.34736E-06 0.00000E+00
 -1       788 8.89505E-05 2.20165E-06 0.00000E+00
 -1       789 8.90098E-05 2.06611E-06 8.27181E-25
 -1       790 8.90692E-05 1.93991E-06 1.65436E-24
 -1       791 8.91288E-05 1.82227E-06 0.00000E+00
 -1       792 8.91883E-05 1.71357E-06 0.00000E+00
 -1       793 8.92479E-05 1.61422E-06-8.27181E-25
 -1       794 8.93075E-05 1.52591E-06-1.65436E-24
 -1       795 8.93670E-05 1.45036E-06 8.27181E-25
 -1       796 8.94266E-05 1.39104E-06 0.00000E+00
 -1       797 8.94862E-05 1.35149E-06 8.27181E-25
 -1       798 8.95457E-05 1.33792E-06-1.65436E-24
 -1       799 8.96051E-05 1.35664E-06-8.27181E-25
 -1       800 8.96646E-05 1.41838E-06 0.00000E+00
 -1       801 8.27663E-05 2.36655E-06 0.00000E+00
 -1       802 6.44557E-05 1.89966E-06 0.00000E+00
 -1       803 4.05336E-05 1.32600E-06 0.00000E+00
 -1       804 1.77657E-05 7.70908E-07 6.61744E-24
 -1       805 2.25191E-06 3.43157E-07 0.00000E+00
 -1       806 8.87643E-05 2.46011E-06 1.65436E-24
 -1       807 8.87459E-05 2.24813E-06-8.27181E-25
 -1       808 8.87230E-05 2.04670E-06 1.65436E-24
 -1       809 8.86944E-05 1.85953E-06 8.27181E-25
 -1       810 8.86589E-05 1.69035E-06 0.00000E+00
 -1       811 8.86153E-05 1.54279E-06 0.00000E+00
 -1       812 8.85622E-05 1.42049E-06 1.65436E-24
 -1       813 8.84983E-05 1.32710E-06 1.65436E-24
 -1       814 8.84221E-05 1.26624E-06 1.65436E-24
 -1       815 8.83324E-05 1.24152E-06 0.00000E+00
 -1       816 8.82278E-05 1.25658E-06-1.65436E-24
 -1       817 8.81069E-05 1.31503E-06 0.00000E+00
 -1       818 8.79685E-05 1.42049E-06 3.30872E-24
 -1       819 8.78112E-05 1.57656E-06 0.00000E+00
 -1       820 8.76338E-05 1.78684E-06 0.00000E+00
 -1       821 8.96330E-05 1.65772E-06-8.27181E-25
 -1       822 8.95373E-05 1.74467E-06-8.27181E-25
 -1       823 8.94419E-05 1.84745E-06 3.30872E-24
 -1       824 8.93455E-05 2.01860E-06-1.65436E-24
 -1       825 8.92491E-05 2.29699E-06 0.00000E+00
 -1       826 8.91524E-05 2.72106E-06-1.65436E-24
 -1       827 8.90555E-05 3.30020E-06 0.00000E+00
 -1       828 8.89586E-05 4.04314E-06 0.00000E+00
 -1       829 8.88615E-05 4.92596E-06 0.00000E+00
 -1       830 8.87644E-05 5.92414E-06-1.65436E-24
 -1       831 8.86672E-05 6.99018E-06 3.30872E-24
 -1       832 8.85702E-05 8.07627E-06-1.65436E-24
 -1       833 8.84733E-05 9.13060E-06 0.00000E+00
 -1       834 8.83776E-05 1.01015E-05 0.00000E+00
 -1       835 8.82815E-05 1.09540E-05 0.00000E+00
 -1       836 8.94895E-05 1.62071E-06 0.00000E+00
 -1       837 8.91443E-05 1.70934E-06 8.27181E-25
 -1       838 8.87267E-05 1.79781E-06 1.65436E-24
 -1       839 8.82764E-05 1.88571E-06-8.27181E-25
 -1       840 8.78331E-05 1.97347E-06 4.13590E-25
 -1       856 8.81656E-05 1.23317E-05 2.06795E-25
 -1       857 8.81368E-05 1.31144E-05 0.00000E+00
 -1       858 8.81082E-05 1.39850E-05-8.27181E-25
 -1       859 8.80789E-05 1.49269E-05 4.13590E-25
 -1       860 8.80495E-05 1.59237E-05 8.27181E-25
 -1       861 8.80200E-05 1.69587E-05 0.00000E+00
 -1       862 8.79905E-05 1.80152E-05 8.27181E-25
 -1       863 8.79609E-05 1.90766E-05-4.13590E-25
 -1       864 8.79314E-05 2.01262E-05-8.27181E-25
 -1       865 8.79018E-05 2.11472E-05 4.13590E-25
 -1       866 8.78723E-05 2.21231E-05 0.00000E+00
 -1       867 8.78429E-05 2.30371E-05-4.13590E-25
 -1       868 8.78135E-05 2.38729E-05 8.27181E-25
 -1       869 8.77841E-05 2.46140E-05 0.00000E+00
 -1       870 8.77548E-05 2.52439E-05-8.27181E-25
 -1       871 8.77116E-05 1.16524E-05-4.13590E-25
 -1       872 8.73335E-05 1.16493E-05 0.00000E+00
 -1       873 8.70132E-05 1.16459E-05 0.00000E+00
 -1       874 8.67061E-05 1.16420E-05-1.03398E-25
 -1       875 8.63678E-05 1.16376E-05-8.27181E-25
 -1       876 8.80288E-05 1.23407E-05 0.00000E+00
 -1       877 8.78493E-05 1.30788E-05 0.00000E+00
 -1       878 8.76532E-05 1.38616E-05 0.00000E+00
 -1       879 8.74427E-05 1.46832E-05 1.65436E-24
 -1       880 8.72199E-05 1.55381E-05 0.00000E+00
 -1       881 8.69867E-05 1.64203E-05-1.65436E-24
 -1       882 8.67454E-05 1.73244E-05 3.30872E-24
 -1       883 8.64981E-05 1.82445E-05 1.65436E-24
 -1       884 8.62468E-05 1.91749E-05 0.00000E+00
 -1       885 8.59938E-05 2.01101E-05 0.00000E+00
 -1       886 8.57411E-05 2.10442E-05 0.00000E+00
 -1       887 8.54909E-05 2.19716E-05 0.00000E+00
 -1       888 8.52451E-05 2.28865E-05 0.00000E+00
 -1       889 8.50057E-05 2.37833E-05 8.27181E-25
 -1       890 8.47749E-05 2.46561E-05 8.27181E-25
 -1       891 8.73094E-05 2.57049E-05-8.27181E-25
 -1       892 8.68756E-05 2.56632E-05-8.27181E-25
 -1       893 8.64034E-05 2.56215E-05 0.00000E+00
 -1       894 8.58721E-05 2.55799E-05 0.00000E+00
 -1       895 8.52613E-05 2.55383E-05 0.00000E+00
 -1       956 8.73452E-05 2.44085E-06-1.65436E-24
 -1       957 8.72528E-05 2.88587E-06-1.65436E-24
 -1       958 8.71601E-05 3.38368E-06 1.65436E-24
 -1       959 8.70673E-05 3.92764E-06 8.27181E-25
 -1       960 8.69744E-05 4.51114E-06-1.65436E-24
 -1       961 8.68814E-05 5.12750E-06-8.27181E-25
 -1       962 8.67884E-05 5.77005E-06 3.30872E-24
 -1       963 8.66954E-05 6.43212E-06 0.00000E+00
 -1       964 8.66024E-05 7.10704E-06 0.00000E+00
 -1       965 8.65093E-05 7.78811E-06 0.00000E+00
 -1       966 8.64163E-05 8.46867E-06 3.30872E-24
 -1       967 8.63234E-05 9.14204E-06 1.65436E-24
 -1       968 8.62304E-05 9.80153E-06 0.00000E+00
 -1       969 8.61377E-05 1.04405E-05 1.65436E-24
 -1       970 8.60452E-05 1.10523E-05 0.00000E+00
 -1       971 8.58675E-05 1.22268E-05 1.65436E-24
 -1       972 8.57798E-05 1.29003E-05-8.27181E-25
 -1       973 8.56918E-05 1.36425E-05-1.65436E-24
 -1       974 8.56037E-05 1.44445E-05-1.65436E-24
 -1       975 8.55155E-05 1.52974E-05 1.65436E-24
 -1       976 8.54273E-05 1.61923E-05-8.27181E-25
 -1       977 8.53390E-05 1.71205E-05 3.30872E-24
 -1       978 8.52507E-05 1.80729E-05 0.00000E+00
 -1       979 8.51624E-05 1.90406E-05 0.00000E+00
 -1       980 8.50741E-05 2.00149E-05 0.00000E+00
 -1       981 8.49858E-05 2.09867E-05 0.00000E+00
 -1       982 8.48976E-05 2.19471E-05 1.65436E-24
 -1       983 8.48096E-05 2.28874E-05 0.00000E+00
 -1       984 8.47219E-05 2.37985E-05 0.00000E+00
 -1       985 8.46346E-05 2.46715E-05-1.65436E-24
 -3
    1PSTEP                        10           5           1          
  100CL  105 5.03906E-01         409                     0    5           1
 -4  STRESS      6    1
 -5  SXX         1    4    1    1
 -5  SYY         1    4    2    2
 -5  SZZ         1    4    3    3
 -5  SXY         1    4    1    2
 -5  SYZ         1    4    2    3
 -5  SZX         1    4    3    1
 -1         1-1.94914E+06-8.55134E+05-4.06963E+05-1.14606E+06 4.72937E-11 6.12636E-09
 -1         2 2.64695E+03-6.68611E+03 8.65508E+03-2.44518E+01-1.15307E-10 1.78372E-08
 -1         3-1.20369E+02-8.67349E+05 3.16192E+02-3.76082E+02-2.83467E-10-1.27511E-08
 -1         5-4.10093E+00 2.63741E+05 6.88255E+00 1.15960E-01 6.85536E-11 9.89985E-10
 -1         8-9.26752E+05-3.63495E+05-6.67676E+04-5.64393E+05 6.58474E-10-5.09317E-10
 -1         9-1.77038E+06-5.22938E+05-2.03630E+05-5.56473E+05 4.03961E-09 1.02445E-09
 -1        10-1.46556E+03-9.24060E+05-1.87484E+03-2.77375E+03-1.50703E-09-1.35611E-08
 -1        12-1.27936E+00 2.63755E+05 2.23022E+02 9.68005E-01 2.06441E-10-5.12136E-09
 -1        15 1.99978E+03 1.09900E+03 6.46429E+03 4.29247E+00 7.05427E-11 1.00545E-08
 -1        16-3.21164E+06-1.25159E+06-5.15754E+05-1.30621E+06 1.15639E-08-1.88205E-09
 -1        17-1.06973E+06-6.33812E+05-2.10092E+05-5.62050E+05 9.31323E-10 2.11294E-09
 -1        18-4.54495E+04-1.56982E+04-3.14155E+04-6.55655E+04 2.20882E-09 3.12684E-09
 -1        19 8.30180E+04 9.82238E+04-5.25526E+02 1.61796E+04-5.59703E-10-1.85755E-09
 -1        20-3.67432E+04-3.92226E+05-8.66673E+04 2.77580E+04 3.17489E-09-2.02150E-09
 -1        21-3.65869E+01-2.24996E+05-7.24497E+02-6.77433E+01-2.48155E-09-2.55109E-08
 -1        24-3.22490E+06-9.04980E+05-4.08702E+05-1.18553E+06-3.10489E-08-1.60653E-08
 -1        25-8.30558E+03-1.79836E+05-2.36478E+04-1.14260E+05 4.07545E-10 1.63505E-08
 -1        26-2.16408E+04 6.63610E+04-1.38243E+04-8.42700E+03 1.40462E-09-5.49315E-09
 -1        27-6.16649E+04-2.14821E+05-8.04466E+04 4.84237E+04 6.30462E-09-6.82212E-09
 -1        28 1.73911E+04-6.23911E+04 1.27251E+04 1.95257E+04 4.54864E-09-4.91863E-09
 -1        32-9.20542E+05-5.53043E+05 2.62301E+05-5.58519E+05-2.01035E-08 7.10048E-09
 -1        33-1.23506E+05 6.28218E+04 2.23144E+04-3.51678E+04 7.16019E-10 2.39500E-10
 -1        34-1.59246E+05-1.59590E+04 3.84645E+02 4.93521E+04 1.91298E-09-3.91007E-09
 -1        35-1.76944E+04-2.47908E+04-9.73455E+02 3.91942E+04 7.26767E-09-9.17134E-09
 -1        51 1.72854E+04-3.62484E+05 4.33993E+04-9.52184E+05-8.73115E-11-9.08040E-09
 -1        52 1.00476E+04-3.60423E+05 2.80285E+04-1.11053E+06 5.60249E-10-9.34961E-09
 -1        53 7.02348E+03-3.73891E+05 2.29001E+04-9.48853E+05 6.18456E-10-1.60071E-09
 -1        54 1.97827E+04-3.72558E+05 3.55813E+04-1.11398E+06 5.89353E-10-1.23073E-08
 -1        55 3.90432E+04-3.85978E+05 6.28065E+04-9.48312E+05 9.31323E-10 4.34738E-09
 -1        56-3.73306E+06-4.18924E+05-2.99259E+05-1.44047E+06-2.05910E-09-8.90577E-09
 -1        57-3.85673E+06-6.86527E+05-2.01771E+05-1.42501E+06-2.26282E-09 2.94494E-09
 -1        58-3.79372E+06-5.13254E+05-7.03932E+04-1.42101E+06 8.16726E-10-3.91810E-09
 -1        59-3.78655E+06-5.75806E+05-4.20220E+04-1.44817E+06 1.44223E-09 1.42836E-09
 -1        60-3.80254E+06-5.26435E+05-1.64262E+04-1.41841E+06-2.48201E-09 1.07711E-08
 -1        61-3.77798E+06-5.58647E+05-9.31990E+03-1.44916E+06 2.41607E-09 1.48184E-08
 -1        62-3.80211E+06-5.30023E+05-4.47265E+03-1.42010E+06-2.66436E-09 1.37175E-09
 -1        63-3.78160E+06-5.51616E+05-3.60019E+03-1.44349E+06 1.33366E-09 1.38588E-08
 -1        64-3.79880E+06-5.33488E+05-4.11144E+03-1.42401E+06-5.64114E-10-1.59412E-09
 -1        65-3.79028E+06-5.45434E+05-8.11776E+03-1.43425E+06 1.45974E-09-1.04883E-08
 -1        66-3.79336E+06-5.36304E+05-1.43108E+04-1.42928E+06 1.29683E-09 5.68707E-09
 -1        67-3.80766E+06-5.50214E+05-3.62974E+04-1.42189E+06 5.78405E-09 4.46653E-09
 -1        68-3.78153E+06-5.29069E+05-6.09178E+04-1.43626E+06 4.48381E-09-3.87445E-09
 -1        69-3.87445E+06-6.40081E+05-1.74425E+05-1.39541E+06 7.57609E-10-9.33687E-09
 -1        70-3.72735E+06-4.49119E+05-2.58767E+05-1.45491E+06 3.71074E-10-4.62751E-09
 -1        86-1.33037E+03-9.56246E+03 9.23236E+03 1.22046E+01 1.15210E-09-6.94735E-09
 -1        87 8.80590E+03-3.71110E+03 1.93116E+04-3.76776E+01 1.92108E-09-7.10205E-09
 -1        88-7.46964E+03-1.25365E+04 2.95297E+04 2.54250E+01 2.79761E-09 5.17502E-10
 -1        89 5.56401E+04 1.80087E+04 7.96628E+04 3.32831E+01 4.27735E-09-1.08077E-08
 -1        90-4.80042E+04-3.12633E+04 1.12556E+05-5.82544E+01 4.49654E-09-2.02899E-08
 -1       121-1.98564E+02-8.67903E+05 2.82460E+02 1.87762E+02 4.02522E-10-7.18683E-09
 -1       122-1.82170E+01-8.67285E+05 6.87789E+02-7.51582E+02-1.67051E-09-1.94996E-08
 -1       123-2.69350E+02-8.67976E+05 1.09888E+03 5.62179E+02 1.27011E-09-1.32550E-08
 -1       124 1.21336E+03-8.66544E+05 2.87100E+03-1.64768E+03-3.12701E-09 7.95535E-09
 -1       125-1.06305E+03-8.68674E+05 4.42072E+03 1.08347E+03 2.12913E-09 1.11631E-08
 -1       191-4.53408E+00 2.63764E+05 8.27094E+00-5.84091E-02 1.02280E-10-5.67752E-09
 -1       192-4.73294E+00 2.63741E+05 1.45702E+01 5.89265E-01 1.52663E-10-2.82034E-09
 -1       193-6.21463E+00 2.63763E+05 2.71395E+01-5.33875E-01 1.70095E-10-4.21869E-09
 -1       194-6.76688E+00 2.63743E+05 5.51053E+01 1.42645E+00 9.57074E-11 3.12934E-09
 -1       195-9.44431E+00 2.63761E+05 1.07832E+02-9.01088E-01 3.37288E-10-4.39650E-09
 -1       251-4.53610E+05-1.95619E+04 4.54021E+04-1.28096E+03 3.42311E-10-1.20235E-08
 -1       252-4.31335E+05 2.26039E+04 3.24969E+04-4.89261E+03-4.04583E-10-4.53701E-09
 -1       253-4.45825E+05-3.05478E+03 1.16690E+04 1.10942E+03-3.27645E-10 1.01154E-08
 -1       254-4.40776E+05 3.50271E+03 7.62192E+03-9.25297E+03 1.17097E-10 6.78892E-09
 -1       255-4.44237E+05-4.83281E+02 3.00821E+03 3.07924E+03 8.95170E-10-1.60696E-09
 -1       256-4.42925E+05 5.81433E+02 1.97433E+03-1.23879E+04 4.23483E-10 4.68106E-09
 -1       257-4.43746E+05-9.25098E+01 1.05571E+03 4.24428E+03-3.68203E-10 7.77882E-09
 -1       258-4.43474E+05 2.51997E+02 1.09775E+03-1.37093E+04-4.77325E-10-8.41634E-10
 -1       259-4.43724E+05-1.28603E+02 1.41828E+03 4.40076E+03-8.93394E-10-5.16263E-09
 -1       260-4.42911E+05 9.14069E+02 2.96217E+03-1.29890E+04-4.06089E-10-1.07660E-08
 -1       261-4.44288E+05-7.67460E+02 4.87014E+03 3.52394E+03 1.08031E-09-2.78487E-09
 -1       262-4.39909E+05 5.67856E+03 1.21568E+04-1.03543E+04-1.16358E-09 3.83125E-10
 -1       263-4.46659E+05-4.92440E+03 1.90257E+04 1.76606E+03-1.34628E-09 1.19517E-08
 -1       264-4.24869E+05 3.66300E+04 5.24826E+04-6.33284E+03-3.19739E-09 8.28459E-09
 -1       265-4.59243E+05-3.16615E+04 7.37922E+04-4.97578E+02-1.57502E-09 8.57472E-09
 -1       266-3.62016E+04-1.69252E+04 8.49521E+04-9.18576E+01 5.09317E-11-2.08257E-09
 -1       267 4.19688E+04 1.97308E+04 6.00363E+04 1.05970E+02 5.45697E-11 1.90914E-09
 -1       268-5.62789E+03-2.79420E+03 2.23156E+04-1.35033E+01 9.09495E-12-1.99073E-09
 -1       269 6.64495E+03 3.34432E+03 1.45044E+04 1.57284E+01-8.86757E-12 9.54772E-09
 -1       270-9.97414E+02-5.49488E+02 7.00151E+03-2.13450E+00 1.81899E-11 1.15978E-09
 -1       271-3.47673E+06-4.35018E+05-2.65936E+05-1.35532E+06 1.60071E-10 8.14907E-10
 -1       272-3.56248E+06-6.38449E+05-1.70954E+05-1.36354E+06-2.04000E-09-3.24326E-09
 -1       273-3.52831E+06-4.99726E+05-6.28281E+04-1.34170E+06 4.58840E-10 1.49157E-10
 -1       274-3.50151E+06-5.59803E+05-3.51225E+04-1.38493E+06-4.22006E-10 5.27689E-09
 -1       275-3.53702E+06-5.04720E+05-1.46270E+04-1.33761E+06 1.42336E-09 1.00226E-08
 -1       276-3.49083E+06-5.54415E+05-7.74104E+03-1.39180E+06-9.79071E-10 2.96859E-09
 -1       277-3.53950E+06-5.03819E+05-3.79785E+03-1.33562E+06 7.88077E-10 2.08502E-09
 -1       278-3.48819E+06-5.55485E+05-2.74019E+03-1.39461E+06 6.67228E-10 5.51063E-09
 -1       279-3.54001E+06-5.03343E+05-2.92496E+03-1.33508E+06-2.18051E-10 3.82624E-09
 -1       280-3.48892E+06-5.55807E+05-5.36350E+03-1.39416E+06-3.82101E-10 4.11910E-09
 -1       281-3.53872E+06-5.03578E+05-9.79270E+03-1.33602E+06-3.52884E-10-3.47700E-09
 -1       282-3.49580E+06-5.59606E+05-2.34220E+04-1.38983E+06-6.18456E-11 2.39743E-09
 -1       283-3.53280E+06-5.00410E+05-4.18053E+04-1.33888E+06-1.74168E-10 5.90444E-09
 -1       284-3.53686E+06-6.11256E+05-1.13739E+05-1.37467E+06 3.24093E-09-5.89898E-09
 -1       285-3.49791E+06-4.58024E+05-1.77013E+05-1.34860E+06 1.99361E-09-3.63070E-09
 -1       301 1.76979E+04-3.52069E+04 1.32239E+05-7.38416E+04-7.09406E-10 4.04907E-09
 -1       302 1.88220E+04-1.76026E+03 9.08665E+04-1.08681E+05 1.63345E-09 1.91576E-08
 -1       303 1.03456E+03-2.25892E+04 7.65261E+04-7.39638E+04-7.78527E-10-1.43518E-09
 -1       304 2.79740E+04 7.05146E+03 1.21022E+05-1.08294E+05 6.05723E-10 8.57108E-09
 -1       305 2.72989E+04-4.33882E+04 1.98962E+05-7.42195E+04-7.85803E-10-6.42103E-10
 -1       306-4.73074E+06-5.44951E+05-3.56687E+05-1.84306E+06 1.37516E-09-9.95351E-09
 -1       307-4.89300E+06-8.62499E+05-2.42392E+05-1.79948E+06-1.55887E-09 5.87897E-09
 -1       308-4.82565E+06-6.40973E+05-8.40211E+04-1.79259E+06 9.92259E-10 3.26690E-09
 -1       309-4.77382E+06-7.61319E+05-5.05349E+04-1.87200E+06 2.48519E-10 3.39696E-09
 -1       310-4.85006E+06-6.43406E+05-1.95646E+04-1.77180E+06-1.02182E-09-5.79257E-09
 -1       311-4.74935E+06-7.54285E+05-1.13511E+04-1.89208E+06 1.03555E-08-2.80113E-09
 -1       312-4.85049E+06-6.47316E+05-5.62398E+03-1.77296E+06 6.75300E-10 2.10952E-09
 -1       313-4.76380E+06-7.33490E+05-4.61525E+03-1.87034E+06-2.65936E-09-1.33866E-09
 -1       314-4.83486E+06-6.64674E+05-6.58832E+03-1.79302E+06 3.41697E-09-3.47063E-09
 -1       315-4.80517E+06-6.94599E+05-1.20892E+04-1.82052E+06-3.13435E-09 7.80892E-09
 -1       316-4.80833E+06-6.86825E+05-2.29384E+04-1.82216E+06-2.78806E-09 3.78714E-09
 -1       317-4.86747E+06-6.71639E+05-5.75561E+04-1.76407E+06 4.82670E-09-1.13241E-08
 -1       318-4.77319E+06-6.87679E+05-9.57831E+04-1.84972E+06-7.67795E-09 2.19734E-09
 -1       319-4.99469E+06-8.02767E+05-2.78034E+05-1.70233E+06-2.90311E-09-1.00044E-09
 -1       320-4.68296E+06-5.57378E+05-4.07046E+05-1.88397E+06 1.11759E-08-3.62343E-09
 -1       336 1.08384E+03-9.80033E+05-7.47422E+03 1.68530E+03-2.84376E-09 1.26693E-08
 -1       337-2.77901E+03-9.81945E+05-7.59582E+03-4.24698E+03-2.30284E-09-3.12320E-09
 -1       338 5.45008E+02-9.80402E+05-8.91464E+03 2.55029E+03-4.22347E-09 5.07862E-09
 -1       339-9.18223E+03-9.85912E+05-1.89800E+04-5.94814E+03-3.39605E-09 7.34235E-09
 -1       340 6.33648E+03-9.76225E+05-2.89294E+04 3.37417E+03-4.53292E-09 1.67474E-08
 -1       406 1.57973E+01 2.63751E+05 4.40345E+02-7.94518E-02 4.49006E-10 1.43700E-10
 -1       407 1.52231E+02 2.63832E+05 9.35790E+02-6.30262E+00 4.19504E-11-3.44335E-09
 -1       408 4.80452E+02 2.63684E+05 1.86901E+03 6.51836E+00 4.21323E-10-1.38243E-10
 -1       409 2.01963E+03 2.64430E+05 4.20758E+03-6.33815E+01-5.75255E-11-4.50973E-09
 -1       410 5.80502E+03 2.63152E+05 8.58965E+03 5.94002E+01 4.67480E-10 4.71982E-09
 -1       521-7.80833E+06-7.58667E+05-6.72972E+05-2.62882E+06-5.60249E-10 8.70205E-09
 -1       522-6.37424E+06-1.92541E+06-2.83998E+05-3.59970E+06-5.66797E-08-1.72658E-08
 -1       523-7.96815E+06-5.11469E+05-1.44175E+05-2.10518E+06-7.31961E-09-1.69384E-08
 -1       524-6.39333E+06-2.03206E+06-5.62238E+04-4.28012E+06 6.11811E-08-5.48157E-08
 -1       525-7.97756E+06-5.09964E+05-3.49816E+04-2.07006E+06 4.55766E-08-3.52111E-08
 -1       526-6.25108E+06-1.76400E+06 5.74685E+04-3.76051E+06-6.99220E-09-1.96196E-08
 -1       527-7.95077E+06-8.95285E+05-1.11786E+05-2.52476E+06 5.52391E-08-8.08723E-09
 -1       528-6.54395E+06-1.01115E+06 1.34410E+05-2.59317E+06 3.73038E-08 4.59841E-09
 -1       529-7.50295E+06-1.39095E+06-1.24998E+05-3.09241E+06 3.34403E-08-2.63026E-09
 -1       530-7.79084E+06-1.12915E+05 7.42837E+04-1.80314E+06-1.35915E-08 2.87109E-08
 -1       531-6.85403E+06-1.68392E+06-4.81167E+04-3.41002E+06-9.75269E-08 4.19823E-09
 -1       532-8.72937E+06 3.11061E+05-5.30096E+04-1.60853E+06 2.94604E-08-7.64976E-08
 -1       533-6.74512E+06-1.69052E+06-1.27357E+05-3.44474E+06 3.36149E-09-1.19333E-07
 -1       534-8.23404E+06-1.64074E+05-2.88532E+05-1.67968E+06-1.49303E-08 6.76118E-08
 -1       535-7.22939E+06-1.29596E+06-6.41018E+05-3.22893E+06-1.07102E-08 5.46279E-08
 -1       536-3.23521E+05-1.38310E+04 3.10121E+04-6.57842E+03-1.37146E-09 1.10649E-08
 -1       537-3.06694E+05 1.59820E+04 2.25398E+04 1.34293E+04-1.99046E-08 8.52219E-09
 -1       538-3.16550E+05-2.06055E+03 8.12411E+03-7.59261E+03 3.34447E-09 1.63645E-08
 -1       539-3.11034E+05 2.55389E+03 5.72463E+03 1.21058E+04 2.13533E-08 9.14360E-09
 -1       540-3.19134E+05-4.49982E+02 1.34251E+03-5.25422E+03 3.44130E-10 1.43995E-08
 -1       541-3.05502E+05 6.93679E+02 3.08354E+03 5.09608E+03-7.65695E-09 1.10515E-08
 -1       542-3.21915E+05-3.39767E+02-9.15356E+02-5.81733E+02 3.55504E-09 1.81197E-09
 -1       543-3.05116E+05 3.14644E+02 2.03441E+03-4.41262E+03 1.17291E-09-4.28841E-09
 -1       544-3.19508E+05-8.59761E+01-1.27543E+03 4.25289E+03-2.20012E-09-1.08157E-08
 -1       545-3.11669E+05-3.83515E+02-5.24540E+02-1.19864E+04 1.67279E-09 1.50550E-09
 -1       546-3.15525E+05 4.91393E+02-2.38449E+03 6.99230E+03 3.10638E-09-3.04885E-09
 -1       547-3.15777E+05-2.86946E+03-5.67639E+03-1.41659E+04-1.42408E-08-1.75610E-08
 -1       548-3.15475E+05 2.46240E+03-9.62338E+03 6.43333E+03-1.45580E-08-1.54978E-08
 -1       549-3.17481E+05-1.76361E+04-2.43391E+04-9.94189E+03-8.83222E-09-5.98538E-09
 -1       550-3.13690E+05 1.51358E+04-3.75087E+04 2.76691E+03 5.20345E-10-7.43967E-09
 -1       551 1.23636E+04-4.86025E+05 2.29525E+04-8.12992E+05-3.83370E-08-9.96806E-09
 -1       552 2.78095E+04-4.92648E+05 2.99671E+04-1.15756E+06-2.89656E-08 9.49512E-09
 -1       553 1.94545E+04-4.98391E+05 4.50493E+04-8.10058E+05-4.67626E-08 9.34961E-09
 -1       554 5.21853E+04-4.84457E+05 9.49667E+04-1.15881E+06-2.86309E-08 3.30147E-09
 -1       555 4.70681E+04-5.16724E+05 1.69572E+05-8.10875E+05-4.71409E-08-7.78891E-09
 -1       556 8.24681E+04-1.55857E+05 5.32767E+04-2.00187E+05-1.13505E-08-5.34783E-09
 -1       557 1.46025E+05-2.07836E+05 2.80939E+04-2.51435E+05 1.72440E-09 1.49575E-08
 -1       558 8.16473E+04-1.62633E+05 1.11928E+04-1.94412E+05-4.74392E-09 6.80666E-09
 -1       559 1.36538E+05-2.14871E+05 5.73493E+03-2.55821E+05 6.72298E-09 1.02500E-09
 -1       560 7.92308E+04-1.61050E+05 2.27510E+03-1.95981E+05 8.51287E-10 4.11092E-09
 -1       561 1.32944E+05-2.13841E+05 1.24898E+03-2.58106E+05-2.27010E-09-1.07616E-08
 -1       562 7.72997E+04-1.59777E+05 4.28575E+02-1.97370E+05 2.40107E-10 3.28737E-09
 -1       563 1.30676E+05-2.12862E+05 3.04637E+02-2.59558E+05-1.74623E-10 9.75092E-10
 -1       564 7.60672E+04-1.58988E+05 9.90856E+01-1.98244E+05 6.77755E-09 4.06908E-09
 -1       565 1.29441E+05-2.12330E+05 8.94900E+01-2.60336E+05 5.12409E-09-3.31238E-09
 -1       566 7.55702E+04-1.58664E+05 8.47282E+00-1.98599E+05 2.29011E-09 8.13998E-09
 -1       567 1.29198E+05-2.12213E+05-6.28098E+01-2.60419E+05 7.83643E-09 8.53106E-09
 -1       568 7.58439E+04-1.58845E+05-2.61779E+02-1.98476E+05-2.01362E-09-6.48470E-09
 -1       569 1.29264E+05-2.12074E+05-6.18780E+02-2.59173E+05-1.45337E-09-4.90400E-09
 -1       570 7.74551E+04-1.60214E+05-1.41450E+03-1.98383E+05 6.10817E-09-7.75071E-09
 -1       571 1.92856E+05 7.09281E+03 1.04933E+04-4.97606E+04-4.76575E-10 9.27776E-09
 -1       572 1.94414E+05 2.47656E+03 5.14118E+03-5.45534E+04-2.91038E-10-7.35918E-09
 -1       573 1.93480E+05 6.00094E+02 2.28395E+03-4.96348E+04-7.57882E-09-6.36646E-11
 -1       574 1.93662E+05 2.06255E+02 1.14440E+03-5.46948E+04-1.56815E-08 3.94175E-09
 -1       575 1.93548E+05 4.03851E+01 5.39426E+02-4.96183E+04-6.16978E-09-3.92765E-09
 -1       576 1.93560E+05 2.30731E+01 2.74740E+02-5.47137E+04-1.26516E-09-8.06676E-09
 -1       577 1.93559E+05 9.95334E+00 1.35555E+02-4.96161E+04-2.03363E-09 6.46651E-09
 -1       578 1.93551E+05 1.28490E+01 7.44055E+01-5.47160E+04-3.72188E-09 1.06506E-08
 -1       579 1.93573E+05 6.45683E+00 4.62592E+01-4.96160E+04-1.23691E-09 4.97266E-09
 -1       580 1.93570E+05 4.96765E+00 4.46000E+01-5.47131E+04-4.49745E-10 4.64979E-09
 -1       581 1.93597E+05-2.97333E+00 6.17435E+01-4.96190E+04 8.52197E-10-3.15413E-09
 -1       582 1.93614E+05 6.14712E+00 1.18934E+02-5.46832E+04 1.39698E-09-8.32870E-09
 -1       583 1.93626E+05 3.27466E+01 2.28358E+02-4.96459E+04 1.19053E-09-7.21457E-10
 -1       584 1.93734E+05 2.10808E+02 5.12680E+02-5.44579E+04-1.05592E-09-6.31030E-09
 -1       585 1.93606E+05 6.60906E+02 1.04079E+03-4.98446E+04-8.98581E-10-9.27685E-10
 -1       586-2.22997E+03 6.39766E+04-2.88509E+03-1.70930E+05 1.77351E-10 3.35604E-10
 -1       587-4.64325E+02 6.35980E+04-1.90434E+02-1.88108E+05 5.52973E-10 1.66926E-09
 -1       588 6.77804E+02 6.36545E+04 2.37290E+03-1.70832E+05 2.52840E-10-6.96491E-09
 -1       589 3.38707E+03 6.49397E+04 6.72939E+03-1.87939E+05 4.07454E-10-3.40151E-08
 -1       590 9.76864E+03 6.28763E+04 1.43430E+04-1.71102E+05-3.77440E-11-4.92582E-09
 -1       591-4.21719E+04-1.17538E+04-1.38774E+04-2.14662E+04-3.95403E-10-3.97449E-09
 -1       592-4.35879E+04-1.50457E+04-7.51660E+03-2.49533E+04-2.63134E-09-9.75217E-09
 -1       593-4.35736E+04-1.07328E+04-3.12920E+03-2.24701E+04 1.05695E-09-1.00508E-08
 -1       594-4.16559E+04-1.30267E+04-1.56067E+03-2.50474E+04-1.41426E-10-2.85189E-09
 -1       595-4.36810E+04-1.07282E+04-7.17186E+02-2.25162E+04-6.53017E-10-4.77309E-09
 -1       596-4.15251E+04-1.29343E+04-3.65528E+02-2.50336E+04 1.99310E-09 7.84161E-09
 -1       597-4.36946E+04-1.07371E+04-2.01095E+02-2.25180E+04 7.49065E-09 4.99313E-09
 -1       598-4.15125E+04-1.29307E+04-1.65423E+02-2.50298E+04 1.12265E-08-1.02733E-09
 -1       599-4.36935E+04-1.07372E+04-2.16016E+02-2.25177E+04 7.41613E-09-1.62390E-09
 -1       600-4.15263E+04-1.29354E+04-4.05058E+02-2.50331E+04 2.19188E-09-2.73462E-09
 -1       601-4.36764E+04-1.07277E+04-8.01073E+02-2.25149E+04 8.01492E-10-5.63216E-09
 -1       602-4.16726E+04-1.30388E+04-1.74688E+03-2.50465E+04-1.00226E-09-3.55499E-09
 -1       603-4.35547E+04-1.07347E+04-3.50381E+03-2.24635E+04-6.21867E-10 8.32642E-10
 -1       604-4.38432E+04-1.52911E+04-8.41665E+03-2.49300E+04-1.90539E-10-2.10275E-09
 -1       605-4.19754E+04-1.18852E+04-1.55389E+04-2.13475E+04 1.06172E-09 2.40107E-10
 -1       606 2.65315E+04-9.28661E+03-1.67141E+04 2.58182E+04-3.05954E-09-5.63887E-11
 -1       607 2.36694E+04-2.99921E+03-8.32265E+03 2.89836E+04-1.94177E-09-1.68529E-09
 -1       608 2.52923E+04-5.09181E+02-3.72712E+03 2.56132E+04 2.50293E-09-2.26805E-09
 -1       609 2.49690E+04-1.35295E+02-1.88243E+03 2.92108E+04 1.52795E-10 6.15501E-10
 -1       610 2.51413E+04 2.07731E+01-8.99247E+02 2.55902E+04-4.43106E-09 9.28685E-09
 -1       611 2.50801E+04 3.32188E+01-4.53493E+02 2.92356E+04-9.23319E-09 1.03730E-08
 -1       612 2.51003E+04 3.61392E+01-2.16980E+02 2.55879E+04-4.90309E-09 1.11595E-09
 -1       613 2.50770E+04 4.18688E+01-9.87126E+01 2.92385E+04-8.16863E-09 5.24392E-09
 -1       614 2.50777E+04 3.72680E+01-2.72202E+01 2.55872E+04-3.51429E-09 5.39194E-09
 -1       615 2.50649E+04 4.75144E+01 3.17764E+01 2.92389E+04 2.63390E-09-1.98020E-09
 -1       616 2.50606E+04 4.31248E+01 1.04085E+02 2.55874E+04-4.95220E-09-2.08547E-09
 -1       617 2.50710E+04 7.37570E+01 2.41068E+02 2.92384E+04 3.18346E-09 6.77801E-10
 -1       618 2.50347E+04 1.15737E+02 4.87140E+02 2.55875E+04-4.04543E-09-1.97360E-09
 -1       619 2.52390E+04 4.53013E+02 1.09481E+03 2.92377E+04-1.56019E-08 1.28853E-09
 -1       620 2.48704E+04 1.27343E+03 2.20072E+03 2.55864E+04-8.88485E-09-2.23781E-09
 -1       621 3.07113E+02 2.06874E+05 2.70572E+03 8.74317E+03-1.30854E-10 1.13305E-08
 -1       622 3.55713E+02 2.07543E+05 2.34549E+03 1.27534E+04-1.42109E-10 1.12823E-08
 -1       623 1.53697E+01 2.07059E+05 2.76112E+03 8.70204E+03-2.07322E-10 6.25914E-09
 -1       624 1.26659E+03 2.08376E+05 5.29883E+03 1.27941E+04-1.54785E-10-1.07642E-08
 -1       625 1.27278E+03 2.06032E+05 9.23799E+03 8.70263E+03-1.75987E-10-1.24774E-08
 -1       626 1.73329E+05 4.74112E+04 3.51016E+03 9.28504E+04 7.80528E-09 3.26872E-09
 -1       627 1.71040E+05 4.90667E+04 1.69146E+03 9.65626E+04 1.86233E-08-5.46777E-09
 -1       628 1.73454E+05 4.57580E+04 7.14417E+02 9.33877E+04 1.22127E-08-1.05820E-09
 -1       629 1.70540E+05 4.86596E+04 3.50139E+02 9.67833E+04 4.39104E-09 6.60350E-10
 -1       630 1.73461E+05 4.56804E+04 1.61839E+02 9.34022E+04 2.13822E-09-8.20182E-09
 -1       631 1.70479E+05 4.86502E+04 8.69763E+01 9.67842E+04-2.50839E-09 7.10136E-09
 -1       632 1.73452E+05 4.56869E+04 5.71455E+01 9.33942E+04-9.74842E-09-2.10455E-08
 -1       633 1.70466E+05 4.86554E+04 6.35359E+01 9.67771E+04-7.89532E-09-1.38293E-08
 -1       634 1.73442E+05 4.56879E+04 1.02516E+02 9.33897E+04 4.52201E-09-1.30331E-08
 -1       635 1.70470E+05 4.86570E+04 2.07662E+02 9.67764E+04 2.95881E-09-2.02817E-09
 -1       636 1.73431E+05 4.56870E+04 4.19311E+02 9.33867E+04 2.88981E-09 1.09078E-08
 -1       637 1.70556E+05 4.87237E+04 9.21536E+02 9.67723E+04 6.97325E-09 1.13325E-08
 -1       638 1.73395E+05 4.58924E+04 1.89383E+03 9.32921E+04 3.00065E-09 4.06453E-09
 -1       639 1.71547E+05 5.01087E+04 4.48026E+03 9.64779E+04 4.98744E-10-2.03272E-10
 -1       640 1.73262E+05 5.00167E+04 9.29760E+03 9.15417E+04 1.23873E-09 4.49336E-09
 -1       656 4.66655E+04-1.18221E+06-1.12651E+05-3.84604E+02-1.67347E-10-4.45084E-09
 -1       657-6.16713E+04-1.23306E+06-9.31785E+04 7.35570E+03-1.12868E-09-1.14925E-08
 -1       658 1.48054E+04-1.19670E+06-5.72000E+04-1.54826E+03 5.12728E-10 4.48963E-09
 -1       659-6.61815E+04-1.23519E+06-9.91025E+04 8.14640E+03-8.40373E-10 7.04043E-09
 -1       660 5.11650E+04-1.18007E+06-1.22840E+05-1.17529E+03-6.40284E-10-1.26629E-09
 -1       661 1.61989E+05 1.76043E+04 1.56388E+04 6.33222E+04 3.79168E-09-2.27465E-09
 -1       662 1.70196E+05 2.98090E+04 1.05380E+04 6.05334E+04 1.11237E-09 1.11550E-09
 -1       663 1.65055E+05 2.26259E+04 3.68624E+03 6.24366E+04 1.85230E-09-1.98338E-09
 -1       664 1.66648E+05 2.39313E+04 2.20399E+03 6.16105E+04 2.27917E-09-3.63465E-09
 -1       665 1.65515E+05 2.33168E+04 8.69406E+02 6.23074E+04-2.39675E-09-1.02392E-08
 -1       666 1.66108E+05 2.31371E+04 5.07136E+02 6.17764E+04-5.91814E-09 3.50548E-09
 -1       667 1.65592E+05 2.33994E+04 2.67520E+02 6.22786E+04-8.39862E-11-4.86505E-10
 -1       668 1.66026E+05 2.30724E+04 2.68342E+02 6.18178E+04 1.47664E-09-1.14732E-08
 -1       669 1.65597E+05 2.33796E+04 3.59818E+02 6.22666E+04 2.46899E-09 7.42202E-09
 -1       670 1.66116E+05 2.32630E+04 7.80255E+02 6.18173E+04 4.83584E-09 1.04890E-08
 -1       671 1.65502E+05 2.32125E+04 1.38432E+03 6.22775E+04 3.98003E-10-5.69855E-10
 -1       672 1.66923E+05 2.46088E+04 3.54088E+03 6.16216E+04-2.77273E-09 1.85020E-09
 -1       673 1.64794E+05 2.20677E+04 5.93362E+03 6.24494E+04-1.37311E-09 7.21184E-09
 -1       674 1.72573E+05 3.41394E+04 1.69689E+04 5.99599E+04 3.93993E-09-5.21322E-09
 -1       675 1.59888E+05 1.39485E+04 2.51872E+04 6.38388E+04 4.38013E-09-1.16370E-08
 -1       676 1.88060E+01-2.24936E+05-8.73206E+02 3.38725E+01-1.47352E-09-6.08159E-09
 -1       677-2.31797E+02-2.25147E+05-1.59807E+03-6.77107E+01-4.34989E-09-3.04138E-09
 -1       678 1.54797E+02-2.24785E+05-2.82496E+03 3.38149E+01 1.18575E-10 3.80329E-09
 -1       679-2.82558E+03-2.26852E+05-6.71069E+03-6.74875E+01-3.43562E-09 8.70426E-09
 -1       680 1.68633E+03-2.23231E+05-1.08154E+04 3.32629E+01-1.38698E-09 6.27177E-09
 -1       771-2.40603E+06-4.43784E+05-6.31968E+04-1.02272E+06-1.22309E-08-1.03028E-08
 -1       772-2.38403E+06-4.81215E+05-3.36378E+04-1.06480E+06-1.00772E-08 4.65297E-09
 -1       773-2.41566E+06-4.36230E+05-1.50226E+04-1.02628E+06-5.35510E-09 5.03496E-09
 -1       774-2.37562E+06-4.74223E+05-7.17505E+03-1.07029E+06 9.48785E-09-8.80391E-10
 -1       775-2.41866E+06-4.34174E+05-3.98641E+03-1.02680E+06-3.62343E-09 9.09495E-10
 -1       776-2.37615E+06-4.74272E+05-1.73803E+03-1.07366E+06-3.13230E-09 2.08820E-09
 -1       777-2.42093E+06-4.32495E+05-1.30873E+03-1.02719E+06-7.93079E-10 1.61890E-09
 -1       778-2.37716E+06-4.74488E+05-4.95758E+02-1.07649E+06-2.51748E-09 4.28736E-09
 -1       779-2.42280E+06-4.31068E+05-5.90512E+02-1.02754E+06-5.04224E-09-3.04135E-09
 -1       780-2.37810E+06-4.74651E+05-2.92322E+02-1.07878E+06-2.91038E-09-7.63976E-11
 -1       781-2.42422E+06-4.29934E+05-5.38928E+02-1.02781E+06-1.14451E-08-1.43973E-09
 -1       782-2.37889E+06-4.74791E+05-7.54499E+02-1.08046E+06-1.45883E-08-2.77305E-09
 -1       783-2.42516E+06-4.29175E+05-1.52534E+03-1.02799E+06-5.34055E-09-1.03363E-08
 -1       784-2.38024E+06-4.75788E+05-3.51260E+03-1.08144E+06-8.61201E-09-2.09184E-10
 -1       785-2.42501E+06-4.29258E+05-6.51642E+03-1.02762E+06-1.34969E-08 1.66983E-09
 -1       786 1.66232E+05-9.24007E+03 2.13771E+04-3.88535E+01 5.76094E-06 2.56878E-08
 -1       787 1.75496E+05 1.06971E+04 1.51238E+04 8.59514E+00 1.14772E-05 1.97390E-08
 -1       788 1.69806E+05-1.44848E+03 5.53278E+03-2.81802E+01 1.06097E-05-1.95257E-08
 -1       789 1.71333E+05 1.67596E+03 3.47603E+03-9.61126E+00 9.71839E-06 9.32391E-09
 -1       790 1.70396E+05-2.26248E+02 1.41382E+03-2.06483E+01 9.16003E-06-1.19794E-08
 -1       791 1.70645E+05 2.62700E+02 8.28972E+02-2.42565E+01 8.59412E-06 2.27337E-08
 -1       792 1.70495E+05-3.62901E+01 3.76125E+02-1.35350E+01 4.30050E-06-1.15660E-08
 -1       793 1.70533E+05 4.98889E+01 2.41956E+02-4.01450E+01 1.27478E-08 3.93335E-10
 -1       794 1.70508E+05-1.35751E+01 1.72328E+02-4.75953E+00 1.00837E-09-1.94004E-09
 -1       795 1.70540E+05 6.74090E+01 2.39295E+02-6.18253E+01-9.40626E-10-3.30753E-09
 -1       796 1.70488E+05-5.37939E+01 3.52406E+02 8.14574E+00 7.62963E-10-6.12346E-09
 -1       797 1.70698E+05 3.93745E+02 8.25944E+02-9.53837E+01-5.52906E-10-8.97860E-09
 -1       798 1.70350E+05-3.39673E+02 1.30208E+03 2.87995E+01 2.03375E-10-1.80250E-10
 -1       799 1.71675E+05 2.50795E+03 3.54832E+03-1.50458E+02-3.28438E-10 5.60271E-09
 -1       800 1.69511E+05-2.16630E+03 5.01172E+03 6.32210E+01-3.12996E-10-4.36830E-09
 -1       801 2.00954E+04-9.19063E+05-7.68690E+04 2.48320E+04 1.24055E-08-8.33097E-10
 -1       802-1.54446E+04-7.97032E+05-7.93619E+03-7.15947E+04 3.33275E-08-6.63425E-09
 -1       803-4.16906E+03-8.58962E+05 2.65337E+04 4.66959E+04 2.64336E-08 2.21949E-08
 -1       804 8.71767E+04-7.37299E+05 1.27290E+05-6.61889E+04 3.01516E-08 2.63632E-08
 -1       805-8.28414E+04-9.78274E+05 1.48767E+05 1.94205E+04 1.10595E-08 2.12633E-08
 -1       806-2.10311E+05-4.37664E+04-1.73147E+04-8.62348E+04-2.72348E-09-8.31506E-09
 -1       807-2.11451E+05-4.11652E+04-8.50640E+03-9.06863E+04 2.56034E-09 9.99185E-09
 -1       808-2.10795E+05-3.75183E+04-3.60843E+03-8.91789E+04-7.44649E-10-5.58289E-09
 -1       809-2.09644E+05-3.87951E+04-1.76415E+03-9.09211E+04-4.68276E-10 3.20529E-09
 -1       810-2.10870E+05-3.72987E+04-8.07897E+02-8.93089E+04 1.29262E-09-4.52633E-09
 -1       811-2.09505E+05-3.87010E+04-4.00853E+02-9.08988E+04 1.41451E-08 1.10686E-09
 -1       812-2.10883E+05-3.73156E+04-2.00483E+02-8.93085E+04 5.69798E-09-7.68387E-09
 -1       813-2.09486E+05-3.87033E+04-1.27066E+02-9.08871E+04 2.66436E-09 5.92479E-09
 -1       814-2.10880E+05-3.73221E+04-1.20268E+02-8.93057E+04 6.28006E-10 2.03477E-09
 -1       815-2.09489E+05-3.87053E+04-1.89134E+02-9.08833E+04 2.68665E-09 1.15942E-08
 -1       816-2.10867E+05-3.73210E+04-3.55064E+02-8.93031E+04-1.39062E-09 3.31829E-09
 -1       817-2.09549E+05-3.87393E+04-7.61290E+02-9.08764E+04 2.47383E-09 1.50253E-08
 -1       818-2.10822E+05-3.74280E+04-1.55174E+03-8.92524E+04 5.81804E-09 1.35783E-08
 -1       819-2.10404E+05-3.96721E+04-3.65182E+03-9.06703E+04-1.29012E-09-2.25668E-09
 -1       820-2.10528E+05-4.01876E+04-7.43225E+03-8.80738E+04-1.55251E-09 4.49052E-09
 -1       821-2.69778E+05 1.49264E+04-3.45195E+04 1.52653E+02-2.48789E-10-6.86850E-09
 -1       822-2.84737E+05-1.72798E+04-2.44276E+04-7.53767E+02-1.96329E-09 4.89490E-09
 -1       823-2.75551E+05 2.34020E+03-8.94057E+03 1.33829E+02 6.84720E-10 5.03996E-09
 -1       824-2.78003E+05-2.70857E+03-5.62502E+03-5.96859E+02 7.25343E-10 1.29958E-08
 -1       825-2.76511E+05 3.66175E+02-2.31285E+03-4.25888E+00-2.07472E-09 4.62251E-10
 -1       826-2.76885E+05-4.31767E+02-1.39454E+03-2.59166E+02-4.50556E-09-2.23046E-09
 -1       827-2.76668E+05 6.48147E+01-7.23995E+02-2.03870E+02-3.80156E-09 9.00116E-11
 -1       828-2.76734E+05-1.31765E+02-6.38340E+02 1.20571E+02-5.32716E-09 4.74700E-09
 -1       829-2.76661E+05 6.64540E+01-7.35624E+02-3.84003E+02 2.81926E-10-2.16377E-09
 -1       830-2.76909E+05-4.44134E+02-1.43563E+03 3.88184E+02 1.67121E-09-4.48918E-09
 -1       831-2.76494E+05 3.77246E+02-2.37842E+03-4.71487E+02-2.50368E-09 1.36345E-09
 -1       832-2.78054E+05-2.78947E+03-5.79587E+03 4.35562E+02-1.23520E-09-1.40665E-09
 -1       833-2.75517E+05 2.41016E+03-9.21054E+03-4.31381E+02-8.03867E-10-2.02999E-09
 -1       834-2.84970E+05-1.78001E+04-2.51632E+04 2.45092E+02 1.90741E-09 9.30368E-09
 -1       835-2.69580E+05 1.53761E+04-3.55652E+04-2.81006E+02 4.65557E-09 2.79579E-09
 -1       836-9.00119E+02 2.53883E+05 1.53337E+04-2.08663E+04 1.27420E-09 4.06135E-09
 -1       837 3.37011E+03 2.58634E+05 1.30929E+04-4.19133E+04 1.93882E-09 1.12021E-08
 -1       838-3.31947E+02 2.55202E+05 1.35030E+04-2.07945E+04 1.71349E-09 9.32891E-09
 -1       839 8.66345E+03 2.62578E+05 2.57038E+04-4.19416E+04 2.45200E-09 1.58508E-09
 -1       840-2.60717E+03 2.49900E+05 4.10549E+04-2.08365E+04 1.52795E-09 8.31051E-10
 -1       856-7.94908E+04 7.06705E+03-1.86237E+04-4.14272E+02-1.93643E-09-6.08452E-09
 -1       857-8.71830E+04-8.28890E+03-1.28219E+04 4.29045E+03 1.63880E-09-4.85670E-10
 -1       858-8.25301E+04 9.90202E+02-4.83333E+03-4.33924E+02-3.04914E-09-4.32169E-09
 -1       859-8.36929E+04-1.15138E+03-2.91900E+03 4.32175E+03 1.12982E-09-6.33173E-09
 -1       860-8.29845E+04 1.37706E+02-1.22710E+03-4.45699E+02 7.37458E-10 9.72250E-10
 -1       861-8.31696E+04-1.52066E+02-6.82964E+02 4.33787E+03-6.01504E-09 5.28361E-09
 -1       862-8.30552E+04 1.82103E+01-2.99769E+02-4.50068E+02 4.19082E-09 1.10228E-09
 -1       863-8.30857E+04-1.07216E+01-1.45223E+02 4.33985E+03 8.59800E-09-9.84189E-09
 -1       864-8.30685E+04-5.25102E-01-3.95094E+01-4.47684E+02 3.66596E-09-3.81434E-09
 -1       865-8.30592E+04 2.48062E+01 4.42985E+01 4.32781E+03 5.18661E-09-2.86326E-09
 -1       866-8.30803E+04-1.77397E+01 1.30899E+02-4.38025E+02 1.02386E-09-1.59649E-09
 -1       867-8.29864E+04 1.48420E+02 3.48988E+02 4.30159E+03 2.09252E-09-2.37742E-09
 -1       868-8.31382E+04-1.23131E+02 5.86275E+02-4.21459E+02-2.20211E-10 4.23432E-09
 -1       869-8.25484E+04 1.02181E+03 1.57104E+03 4.25820E+03-5.79521E-09-8.43644E-09
 -1       870-8.35136E+04-8.69197E+02 2.27847E+03-3.94643E+02-5.14433E-11-6.46708E-09
 -1       871-3.97128E+03-8.62204E+03-1.29069E+04 8.48647E+04 2.25009E-09 7.73707E-09
 -1       872-1.72081E+03-1.15149E+04-5.26801E+03 1.10023E+05 4.39422E-09 1.15808E-08
 -1       873-3.52456E+01-1.01639E+04 7.34186E+02 8.46781E+04 2.60025E-09 2.79681E-09
 -1       874 1.97895E+03-8.29732E+03 7.28051E+03 1.10061E+05 3.71915E-09 5.54246E-09
 -1       875 4.67941E+03-1.18913E+04 1.61570E+04 8.48342E+04 1.81717E-09 1.02400E-08
 -1       876 2.10108E+05 3.61730E+04 1.12090E+04 8.52096E+04-2.27374E-12-5.41149E-09
 -1       877 2.10752E+05 3.86298E+04 5.98587E+03 8.85204E+04-3.87081E-09-1.93984E-09
 -1       878 2.11155E+05 3.49324E+04 2.50779E+03 8.61302E+04 2.63276E-09 5.87920E-09
 -1       879 2.09227E+05 3.71113E+04 1.24928E+03 8.85995E+04 1.27159E-09 5.89944E-09
 -1       880 2.11231E+05 3.49187E+04 5.81629E+02 8.61676E+04 3.94880E-09-4.33835E-09
 -1       881 2.09126E+05 3.70467E+04 3.09846E+02 8.85836E+04 5.46140E-09 1.79625E-11
 -1       882 2.11239E+05 3.49279E+04 1.96931E+02 8.61687E+04 1.06362E-08 1.32895E-09
 -1       883 2.09119E+05 3.70437E+04 2.09623E+02 8.85790E+04 1.13282E-08 4.45576E-09
 -1       884 2.11235E+05 3.49256E+04 3.31571E+02 8.61688E+04 7.33559E-09 3.37349E-09
 -1       885 2.09145E+05 3.70484E+04 6.65461E+02 8.85873E+04 6.75709E-09-6.99373E-10
 -1       886 2.11209E+05 3.49062E+04 1.34066E+03 8.61662E+04 7.26166E-09 2.06080E-09
 -1       887 2.09381E+05 3.72028E+04 2.92829E+03 8.86212E+04 4.33147E-11-2.50748E-09
 -1       888 2.11024E+05 3.49388E+04 5.90056E+03 8.60725E+04 9.67447E-10-4.57339E-09
 -1       889 2.12897E+05 4.08533E+04 1.40959E+04 8.85098E+04 6.47610E-10 1.21038E-08
 -1       890 2.08620E+05 3.77944E+04 2.64006E+04 8.38215E+04-1.11413E-11-6.30098E-09
 -1       891-1.30150E+02-1.19205E+05-1.41128E+03 2.24620E+04 1.44121E-09 9.04379E-09
 -1       892-2.26740E+02-1.19543E+05-1.53380E+03 3.39926E+04-4.76575E-10 1.56165E-08
 -1       893-3.65824E+01-1.19249E+05-2.19033E+03 2.24664E+04-2.17824E-10 1.16324E-08
 -1       894-1.19640E+03-1.20382E+05-4.54676E+03 3.38715E+04-2.00180E-09-1.01886E-09
 -1       895-9.35649E+02-1.18303E+05-8.01201E+03 2.25815E+04-7.10429E-10 2.33013E-09
 -1       956-2.64558E+05-3.79520E+03-9.55275E+03 1.76623E+04-2.93630E-09-3.50440E-09
 -1       957-2.66444E+05-1.28043E+03-4.90399E+03 2.12692E+04-3.04681E-10-5.34430E-09
 -1       958-2.65406E+05-1.02178E+02-2.20939E+03 1.75487E+04 2.75668E-09-3.45790E-09
 -1       959-2.65556E+05-1.75545E+01-1.12850E+03 2.13924E+04-4.63388E-09-2.64299E-09
 -1       960-2.65481E+05 3.18883E+01-5.50093E+02 1.75378E+04-3.91719E-09 8.70841E-10
 -1       961-2.65492E+05 3.01858E+01-2.91708E+02 2.14047E+04-4.39104E-09 2.23986E-09
 -1       962-2.65497E+05 2.81735E+01-1.66684E+02 1.75362E+04-1.83309E-09 2.62685E-09
 -1       963-2.65489E+05 3.14868E+01-1.33266E+02 2.14070E+04-1.16415E-09 9.20795E-09
 -1       964-2.65500E+05 3.01113E+01-1.61117E+02 1.75356E+04 6.31189E-10-8.79254E-09
 -1       965-2.65499E+05 3.44159E+01-2.77852E+02 2.14070E+04 1.88444E-09-2.51816E-10
 -1       966-2.65492E+05 3.76111E+01-5.21252E+02 1.75361E+04-4.66832E-09-7.25095E-10
 -1       967-2.65567E+05-6.66698E+00-1.06893E+03 2.14002E+04-1.54205E-09 9.83619E-10
 -1       968-2.65426E+05-8.54695E+01-2.09179E+03 1.75425E+04 8.70159E-10 5.06347E-09
 -1       969-2.66416E+05-1.19914E+03-4.64436E+03 2.13253E+04 3.03771E-10 5.22428E-09
 -1       970-2.64628E+05-3.58057E+03-9.04622E+03 1.76133E+04 1.41972E-09 6.60293E-10
 -1       971-2.50504E+05-1.31672E+03-7.32153E+03 1.21362E+04-4.74438E-09-7.65880E-10
 -1       972-2.52285E+05-9.43692E+02-3.98732E+03 1.69499E+04-4.05339E-09-9.03083E-09
 -1       973-2.51318E+05-8.39209E+00-1.78540E+03 1.20350E+04-2.58160E-09 6.21412E-10
 -1       974-2.51442E+05-8.23969E+00-9.24952E+02 1.70591E+04 1.44314E-09 9.30186E-10
 -1       975-2.51381E+05 2.57011E+01-4.61281E+02 1.20259E+04 2.23599E-09-2.15425E-09
 -1       976-2.51392E+05 2.99403E+01-2.64280E+02 1.70701E+04-1.72884E-09-8.71273E-09
 -1       977-2.51393E+05 2.53866E+01-1.88458E+02 1.20238E+04 7.10565E-09-5.63330E-09
 -1       978-2.51394E+05 3.41129E+01-2.15998E+02 1.70730E+04 1.96446E-08-1.84627E-10
 -1       979-2.51393E+05 3.11605E+01-3.43112E+02 1.20230E+04 1.18193E-08-7.56017E-09
 -1       980-2.51420E+05 3.62001E+01-6.60046E+02 1.70735E+04 4.47203E-09-1.02239E-08
 -1       981-2.51372E+05 4.76025E+01-1.27705E+03 1.20234E+04-4.95675E-11-1.66426E-09
 -1       982-2.51595E+05-5.80081E+01-2.63889E+03 1.70684E+04-4.21096E-10-1.51252E-09
 -1       983-2.51211E+05-3.39401E+01-5.12696E+03 1.20283E+04 3.00042E-09 3.69118E-09
 -1       984-2.54061E+05-2.73523E+03-1.14810E+04 1.69999E+04-4.84283E-09 7.29597E-09
 -1       985-2.48891E+05-3.78536E+03-2.10828E+04 1.20966E+04 2.28874E-09 3.86808E-09
 -3
    1PSTEP                        11           6           1          
  100CL  106 5.39062E-01         409                     0    6           1
 -4  DISP        4    1
 -5  D1          1    2    1    0
 -5  D2          1    2    2    0
 -5  D3          1    2    3    0
 -5  ALL         1    2    0    0    1ALL
 -1         1 1.83322E-04 0.00000E+00 0.00000E+00
 -1         2 1.62847E-04-3.21372E-30 3.30872E-24
 -1         3 1.62261E-04-5.28460E-28 1.32349E-23
 -1         5 1.07306E-04 4.17089E-27 3.30872E-24
 -1         8 1.57912E-04-8.70984E-07 0.00000E+00
 -1         9 1.51715E-04-6.45157E-07 0.00000E+00
 -1        10 1.50032E-04-2.20017E-06-6.61744E-24
 -1        12 1.07044E-04 5.92474E-07-3.30872E-24
 -1        15 1.27596E-04-9.68741E-07 0.00000E+00
 -1        16 1.32641E-04-8.44735E-07 0.00000E+00
 -1        17 1.09445E-04-4.79459E-06 0.00000E+00
 -1        18 1.05090E-04 4.81817E-06 0.00000E+00
 -1        19 1.06260E-04 1.18186E-06 0.00000E+00
 -1        20 1.06406E-04 1.31152E-05 0.00000E+00
 -1        21 1.05810E-04 2.38027E-05 0.00000E+00
 -1        24 2.23671E-05-6.67474E-06 0.00000E+00
 -1        25 1.05025E-04 4.95814E-06 0.00000E+00
 -1        26 1.05927E-04 1.64131E-06 0.00000E+00
 -1        27 1.04289E-04 1.04534E-05 0.00000E+00
 -1        28 1.03820E-04 2.33010E-05 0.00000E+00
 -1        32 0.00000E+00 0.00000E+00 0.00000E+00
 -1        33 1.04352E-04 2.19897E-06 0.00000E+00
 -1        34 1.02752E-04 1.04282E-05 0.00000E+00
 -1        35 1.01243E-04 2.30342E-05 0.00000E+00
 -1        51 1.81673E-04-1.44896E-07 0.00000E+00
 -1        52 1.78614E-04-2.83828E-07 0.00000E+00
 -1        53 1.74420E-04-4.23987E-07 0.00000E+00
 -1        54 1.69380E-04-5.67076E-07-3.30872E-24
 -1        55 1.63781E-04-7.13986E-07-2.27475E-24
 -1        56 1.81718E-04-8.47982E-07 0.00000E+00
 -1        57 1.80199E-04-2.10807E-06-2.64698E-23
 -1        58 1.78787E-04-3.64212E-06 0.00000E+00
 -1        59 1.77420E-04-5.32938E-06 2.64698E-23
 -1        60 1.76058E-04-7.02780E-06 0.00000E+00
 -1        61 1.74645E-04-8.59922E-06 0.00000E+00
 -1        62 1.73137E-04-9.91514E-06 0.00000E+00
 -1        63 1.71489E-04-1.08582E-05 2.64698E-23
 -1        64 1.69668E-04-1.13417E-05 5.29396E-23
 -1        65 1.67649E-04-1.12976E-05 0.00000E+00
 -1        66 1.65424E-04-1.07019E-05-5.29396E-23
 -1        67 1.62991E-04-9.55240E-06 0.00000E+00
 -1        68 1.60367E-04-7.89363E-06-5.29396E-23
 -1        69 1.57583E-04-5.78732E-06 0.00000E+00
 -1        70 1.54667E-04-3.33934E-06 2.64698E-23
 -1        86 1.62513E-04-1.00737E-07 0.00000E+00
 -1        87 1.61513E-04-2.02428E-07 0.00000E+00
 -1        88 1.59883E-04-3.04989E-07-3.30872E-24
 -1        89 1.57660E-04-4.11966E-07 0.00000E+00
 -1        90 1.54914E-04-5.19063E-07 0.00000E+00
 -1       121 1.61919E-04-3.63885E-07 0.00000E+00
 -1       122 1.60893E-04-7.28234E-07 0.00000E+00
 -1       123 1.59187E-04-1.09350E-06 0.00000E+00
 -1       124 1.56804E-04-1.46021E-06 0.00000E+00
 -1       125 1.53749E-04-1.82866E-06 1.32349E-23
 -1       191 1.07299E-04 9.87503E-08 0.00000E+00
 -1       192 1.07277E-04 1.97499E-07 0.00000E+00
 -1       193 1.07241E-04 2.96248E-07-3.30872E-24
 -1       194 1.07190E-04 3.94995E-07 0.00000E+00
 -1       195 1.07124E-04 4.93737E-07-6.61744E-24
 -1       251 1.57520E-04 3.86261E-06 0.00000E+00
 -1       252 1.57129E-04 7.92566E-06 6.61744E-24
 -1       253 1.56742E-04 1.10170E-05 0.00000E+00
 -1       254 1.56357E-04 1.28505E-05 6.61744E-24
 -1       255 1.55973E-04 1.33765E-05-1.32349E-23
 -1       256 1.55589E-04 1.25658E-05 6.61744E-24
 -1       257 1.55204E-04 1.06405E-05 0.00000E+00
 -1       258 1.54817E-04 7.83998E-06 6.61744E-24
 -1       259 1.54428E-04 4.56809E-06 0.00000E+00
 -1       260 1.54039E-04 1.23620E-06-6.61744E-24
 -1       261 1.53652E-04-1.73308E-06-1.32349E-23
 -1       262 1.53266E-04-3.92293E-06 0.00000E+00
 -1       263 1.52881E-04-5.06292E-06-1.32349E-23
 -1       264 1.52496E-04-4.89908E-06 6.61744E-24
 -1       265 1.52110E-04-3.42260E-06 0.00000E+00
 -1       266 1.52860E-04-8.99379E-07 6.61744E-24
 -1       267 1.47807E-04-9.14197E-07-1.65436E-24
 -1       268 1.42754E-04-9.29874E-07 0.00000E+00
 -1       269 1.37701E-04-9.43005E-07 0.00000E+00
 -1       270 1.32649E-04-9.56075E-07 4.13590E-25
 -1       271 1.54891E-04 3.08637E-06-2.64698E-23
 -1       272 1.52246E-04 5.91603E-06 1.32349E-23
 -1       273 1.49992E-04 7.71818E-06-5.29396E-23
 -1       274 1.48080E-04 8.59111E-06 0.00000E+00
 -1       275 1.46472E-04 8.65561E-06 0.00000E+00
 -1       276 1.45116E-04 8.04410E-06 0.00000E+00
 -1       277 1.43958E-04 6.90210E-06 0.00000E+00
 -1       278 1.42941E-04 5.38410E-06 2.64698E-23
 -1       279 1.42005E-04 3.65162E-06-5.29396E-23
 -1       280 1.41086E-04 1.86998E-06 0.00000E+00
 -1       281 1.40124E-04 2.05280E-07 0.00000E+00
 -1       282 1.39058E-04-1.17827E-06 2.64698E-23
 -1       283 1.37828E-04-2.12195E-06 5.29396E-23
 -1       284 1.36381E-04-2.47307E-06-1.32349E-23
 -1       285 1.34658E-04-2.09345E-06 2.64698E-23
 -1       301 1.48183E-04-6.92886E-07 6.61744E-24
 -1       302 1.44679E-04-7.18190E-07 0.00000E+00
 -1       303 1.41289E-04-7.41977E-07 6.61744E-24
 -1       304 1.38096E-04-7.65921E-07 0.00000E+00
 -1       305 1.35186E-04-7.91151E-07 0.00000E+00
 -1       306 1.49803E-04-2.26990E-06-5.29396E-23
 -1       307 1.50875E-04-1.21878E-05 0.00000E+00
 -1       308 1.54348E-04-2.87249E-05 0.00000E+00
 -1       309 1.59412E-04-4.97781E-05 0.00000E+00
 -1       310 1.64987E-04-7.22799E-05 5.29396E-23
 -1       311 1.69955E-04-9.30651E-05 0.00000E+00
 -1       312 1.73312E-04-1.09333E-04 0.00000E+00
 -1       313 1.74134E-04-1.18601E-04 0.00000E+00
 -1       314 1.71991E-04-1.19863E-04 5.29396E-23
 -1       315 1.66639E-04-1.12661E-04-2.64698E-23
 -1       316 1.58516E-04-9.83076E-05-5.29396E-23
 -1       317 1.48278E-04-7.85872E-05 0.00000E+00
 -1       318 1.37056E-04-5.63957E-05 0.00000E+00
 -1       319 1.26081E-04-3.47818E-05 2.64698E-23
 -1       320 1.16501E-04-1.66914E-05 5.29396E-23
 -1       336 1.45518E-04-2.61988E-06 0.00000E+00
 -1       337 1.40075E-04-3.04494E-06 0.00000E+00
 -1       338 1.33722E-04-3.47500E-06 0.00000E+00
 -1       339 1.26482E-04-3.91015E-06-6.61744E-24
 -1       340 1.18380E-04-4.35175E-06 0.00000E+00
 -1       406 1.06950E-04 6.91197E-07 3.30872E-24
 -1       407 1.06841E-04 7.89887E-07 0.00000E+00
 -1       408 1.06717E-04 8.88516E-07 0.00000E+00
 -1       409 1.06579E-04 9.86965E-07 1.65436E-24
 -1       410 1.06427E-04 1.08504E-06 0.00000E+00
 -1       521 1.36647E-04-2.11817E-05 0.00000E+00
 -1       522 1.54377E-04-8.31131E-05 0.00000E+00
 -1       523 1.81452E-04-1.76456E-04 0.00000E+00
 -1       524 2.13454E-04-2.88151E-04 5.29396E-23
 -1       525 2.45756E-04-4.00983E-04 1.05879E-22
 -1       526 2.73728E-04-4.97628E-04 0.00000E+00
 -1       527 2.92952E-04-5.64452E-04 0.00000E+00
 -1       528 2.98873E-04-5.90560E-04 5.29396E-23
 -1       529 2.88916E-04-5.73919E-04 0.00000E+00
 -1       530 2.61764E-04-5.16136E-04 0.00000E+00
 -1       531 2.20372E-04-4.27204E-04 0.00000E+00
 -1       532 1.69703E-04-3.19352E-04 0.00000E+00
 -1       533 1.17525E-04-2.08482E-04 1.05879E-22
 -1       534 7.18682E-05-1.10670E-04-5.29396E-23
 -1       535 3.87350E-05-3.95082E-05-5.29396E-23
 -1       536 1.09231E-04 7.96348E-06 6.61744E-24
 -1       537 1.08918E-04 2.75151E-05 0.00000E+00
 -1       538 1.08525E-04 5.10057E-05 3.30872E-24
 -1       539 1.08109E-04 7.55604E-05-1.65436E-24
 -1       540 1.07739E-04 9.80251E-05 0.00000E+00
 -1       541 1.07469E-04 1.15257E-04 1.65436E-24
 -1       542 1.07289E-04 1.25460E-04 0.00000E+00
 -1       543 1.07158E-04 1.26875E-04 1.65436E-24
 -1       544 1.07007E-04 1.19971E-04 0.00000E+00
 -1       545 1.06774E-04 1.05266E-04 1.65436E-24
 -1       546 1.06455E-04 8.52623E-05-3.30872E-24
 -1       547 1.06080E-04 6.24929E-05 0.00000E+00
 -1       548 1.05715E-04 4.02055E-05 0.00000E+00
 -1       549 1.05424E-04 2.16455E-05 0.00000E+00
 -1       550 1.05220E-04 9.09930E-06 0.00000E+00
 -1       551 9.78774E-05-5.06906E-06-6.61744E-24
 -1       552 8.41569E-05-5.36412E-06-1.65436E-24
 -1       553 6.90095E-05-5.67757E-06 4.96308E-24
 -1       554 5.31718E-05-6.00306E-06 6.61744E-24
 -1       555 3.73804E-05-6.33066E-06 0.00000E+00
 -1       556 1.06308E-04 3.31694E-06 0.00000E+00
 -1       557 1.03864E-04 9.65069E-06 0.00000E+00
 -1       558 1.02041E-04 1.43621E-05 2.64698E-23
 -1       559 1.00772E-04 1.76196E-05 0.00000E+00
 -1       560 9.99886E-05 1.95913E-05 0.00000E+00
 -1       561 9.96268E-05 2.04463E-05 0.00000E+00
 -1       562 9.96212E-05 2.03543E-05 0.00000E+00
 -1       563 9.99069E-05 1.94850E-05 0.00000E+00
 -1       564 1.00420E-04 1.80083E-05 0.00000E+00
 -1       565 1.01096E-04 1.60943E-05 0.00000E+00
 -1       566 1.01872E-04 1.39134E-05 0.00000E+00
 -1       567 1.02685E-04 1.16357E-05-2.06795E-25
 -1       568 1.03469E-04 9.43157E-06 0.00000E+00
 -1       569 1.04163E-04 7.47109E-06 0.00000E+00
 -1       570 1.04702E-04 5.92439E-06 0.00000E+00
 -1       571 1.05161E-04 4.61014E-06 1.24077E-24
 -1       572 1.05233E-04 4.35603E-06-8.27181E-25
 -1       573 1.05306E-04 4.06476E-06-1.65436E-24
 -1       574 1.05380E-04 3.74568E-06 0.00000E+00
 -1       575 1.05453E-04 3.40818E-06-1.65436E-24
 -1       576 1.05526E-04 3.06171E-06-8.27181E-25
 -1       577 1.05600E-04 2.71572E-06 0.00000E+00
 -1       578 1.05673E-04 2.37967E-06 0.00000E+00
 -1       579 1.05746E-04 2.06302E-06 0.00000E+00
 -1       580 1.05820E-04 1.77524E-06-1.65436E-24
 -1       581 1.05893E-04 1.52577E-06 0.00000E+00
 -1       582 1.05966E-04 1.32408E-06 0.00000E+00
 -1       583 1.06040E-04 1.17959E-06 0.00000E+00
 -1       584 1.06113E-04 1.10167E-06 0.00000E+00
 -1       585 1.06186E-04 1.09958E-06 0.00000E+00
 -1       586 1.05039E-04 4.84300E-06 0.00000E+00
 -1       587 1.04962E-04 4.86724E-06-1.03398E-25
 -1       588 1.04890E-04 4.89120E-06 0.00000E+00
 -1       589 1.04855E-04 4.91477E-06 0.00000E+00
 -1       590 1.04889E-04 4.93762E-06 0.00000E+00
 -1       591 1.05132E-04 4.65306E-06 1.16322E-25
 -1       592 1.05184E-04 4.45537E-06 0.00000E+00
 -1       593 1.05246E-04 4.23172E-06-4.13590E-25
 -1       594 1.05315E-04 3.98796E-06 0.00000E+00
 -1       595 1.05389E-04 3.73004E-06 0.00000E+00
 -1       596 1.05466E-04 3.46383E-06 0.00000E+00
 -1       597 1.05544E-04 3.19522E-06-4.13590E-25
 -1       598 1.05620E-04 2.93011E-06-2.06795E-25
 -1       599 1.05693E-04 2.67435E-06-8.27181E-25
 -1       600 1.05761E-04 2.43384E-06-2.06795E-25
 -1       601 1.05820E-04 2.21446E-06 4.13590E-25
 -1       602 1.05870E-04 2.02208E-06 0.00000E+00
 -1       603 1.05907E-04 1.86259E-06-1.03398E-25
 -1       604 1.05930E-04 1.74194E-06 0.00000E+00
 -1       605 1.05936E-04 1.66597E-06 0.00000E+00
 -1       606 1.06272E-04 1.42894E-06 0.00000E+00
 -1       607 1.06283E-04 1.77181E-06 0.00000E+00
 -1       608 1.06292E-04 2.20486E-06 0.00000E+00
 -1       609 1.06301E-04 2.72173E-06 0.00000E+00
 -1       610 1.06310E-04 3.31606E-06 0.00000E+00
 -1       611 1.06319E-04 3.98138E-06-1.65436E-24
 -1       612 1.06328E-04 4.71122E-06 0.00000E+00
 -1       613 1.06337E-04 5.49912E-06 0.00000E+00
 -1       614 1.06346E-04 6.33860E-06 0.00000E+00
 -1       615 1.06354E-04 7.22317E-06 0.00000E+00
 -1       616 1.06363E-04 8.14638E-06 0.00000E+00
 -1       617 1.06372E-04 9.10174E-06 0.00000E+00
 -1       618 1.06380E-04 1.00828E-05 0.00000E+00
 -1       619 1.06389E-04 1.10830E-05 0.00000E+00
 -1       620 1.06397E-04 1.20960E-05 0.00000E+00
 -1       621 1.06122E-04 1.25854E-06-1.65436E-24
 -1       622 1.06030E-04 1.33555E-06 0.00000E+00
 -1       623 1.05973E-04 1.41253E-06-1.65436E-24
 -1       624 1.05944E-04 1.48939E-06 8.27181E-25
 -1       625 1.05931E-04 1.56611E-06 0.00000E+00
 -1       626 1.06251E-04 1.45439E-06 0.00000E+00
 -1       627 1.06214E-04 1.80518E-06 1.65436E-24
 -1       628 1.06150E-04 2.22663E-06 3.30872E-24
 -1       629 1.06063E-04 2.71069E-06 0.00000E+00
 -1       630 1.05956E-04 3.24929E-06-3.30872E-24
 -1       631 1.05831E-04 3.83432E-06 0.00000E+00
 -1       632 1.05691E-04 4.45767E-06 0.00000E+00
 -1       633 1.05541E-04 5.11123E-06 0.00000E+00
 -1       634 1.05382E-04 5.78688E-06 0.00000E+00
 -1       635 1.05217E-04 6.47650E-06 1.65436E-24
 -1       636 1.05051E-04 7.17200E-06 3.30872E-24
 -1       637 1.04885E-04 7.86526E-06-1.65436E-24
 -1       638 1.04724E-04 8.54816E-06-1.65436E-24
 -1       639 1.04569E-04 9.21258E-06 8.27181E-25
 -1       640 1.04423E-04 9.85041E-06 0.00000E+00
 -1       656 1.05600E-04 1.26821E-05 0.00000E+00
 -1       657 1.05168E-04 1.22317E-05 0.00000E+00
 -1       658 1.04971E-04 1.17827E-05-1.32349E-23
 -1       659 1.04867E-04 1.13341E-05 3.30872E-24
 -1       660 1.04694E-04 1.08841E-05 0.00000E+00
 -1       661 1.06108E-04 1.41055E-05 0.00000E+00
 -1       662 1.05836E-04 1.50366E-05-8.27181E-25
 -1       663 1.05586E-04 1.59105E-05-1.65436E-24
 -1       664 1.05356E-04 1.67304E-05-8.27181E-25
 -1       665 1.05145E-04 1.74992E-05 0.00000E+00
 -1       666 1.04953E-04 1.82196E-05 0.00000E+00
 -1       667 1.04778E-04 1.88944E-05 0.00000E+00
 -1       668 1.04619E-04 1.95260E-05 0.00000E+00
 -1       669 1.04476E-04 2.01170E-05 0.00000E+00
 -1       670 1.04346E-04 2.06698E-05 0.00000E+00
 -1       671 1.04231E-04 2.11865E-05-1.65436E-24
 -1       672 1.04128E-04 2.16693E-05-8.27181E-25
 -1       673 1.04036E-04 2.21204E-05 0.00000E+00
 -1       674 1.03955E-04 2.25415E-05 8.27181E-25
 -1       675 1.03885E-04 2.29350E-05 0.00000E+00
 -1       676 1.05477E-04 2.37186E-05-3.30872E-24
 -1       677 1.05145E-04 2.36345E-05 1.65436E-24
 -1       678 1.04813E-04 2.35505E-05 0.00000E+00
 -1       679 1.04481E-04 2.34667E-05-8.27181E-25
 -1       680 1.04150E-04 2.33829E-05 1.65436E-24
 -1       771 1.66417E-05 5.14389E-06 0.00000E+00
 -1       772 1.17269E-05 1.48371E-05 0.00000E+00
 -1       773 7.58663E-06 2.25168E-05 5.29396E-23
 -1       774 4.16952E-06 2.83052E-05 0.00000E+00
 -1       775 1.42486E-06 3.23279E-05 0.00000E+00
 -1       776-7.00252E-07 3.47161E-05-2.64698E-23
 -1       777-2.25925E-06 3.56043E-05 0.00000E+00
 -1       778-3.30681E-06 3.51318E-05-2.64698E-23
 -1       779-3.89791E-06 3.34406E-05 5.29396E-23
 -1       780-4.08856E-06 3.06763E-05 0.00000E+00
 -1       781-3.93487E-06 2.69869E-05 0.00000E+00
 -1       782-3.49380E-06 2.25233E-05-1.32349E-23
 -1       783-2.82230E-06 1.74380E-05 0.00000E+00
 -1       784-1.97788E-06 1.18852E-05-1.32349E-23
 -1       785-1.01803E-06 6.02039E-06-2.64698E-23
 -1       786 1.05077E-04 4.61319E-06-4.13590E-25
 -1       787 1.05134E-04 4.29403E-06-4.13590E-25
 -1       788 1.05190E-04 3.99622E-06 1.65436E-24
 -1       789 1.05246E-04 3.71543E-06 0.00000E+00
 -1       790 1.05303E-04 3.44949E-06 0.00000E+00
 -1       791 1.05359E-04 3.19630E-06 8.27181E-25
 -1       792 1.05416E-04 2.95544E-06 0.00000E+00
 -1       793 1.05473E-04 2.72648E-06-8.27181E-25
 -1       794 1.05530E-04 2.51059E-06 0.00000E+00
 -1       795 1.05587E-04 2.30895E-06-8.27181E-25
 -1       796 1.05643E-04 2.12460E-06 0.00000E+00
 -1       797 1.05700E-04 1.96064E-06 0.00000E+00
 -1       798 1.05757E-04 1.82282E-06 1.65436E-24
 -1       799 1.05814E-04 1.71698E-06-8.27181E-25
 -1       800 1.05871E-04 1.65310E-06 1.65436E-24
 -1       801 9.77552E-05 4.32265E-06-1.32349E-23
 -1       802 7.52411E-05 3.44514E-06 6.61744E-24
 -1       803 4.62369E-05 2.41830E-06 0.00000E+00
 -1       804 1.96839E-05 1.44886E-06 0.00000E+00
 -1       805 2.16131E-06 6.61505E-07-2.64698E-23
 -1       806 1.05070E-04 4.56384E-06 1.65436E-24
 -1       807 1.05107E-04 4.18253E-06 0.00000E+00
 -1       808 1.05136E-04 3.81850E-06 0.00000E+00
 -1       809 1.05158E-04 3.47521E-06-1.65436E-24
 -1       810 1.05170E-04 3.15610E-06 1.65436E-24
 -1       811 1.05172E-04 2.86452E-06-8.27181E-25
 -1       812 1.05163E-04 2.60384E-06 0.00000E+00
 -1       813 1.05140E-04 2.37741E-06-1.65436E-24
 -1       814 1.05104E-04 2.18856E-06-3.30872E-24
 -1       815 1.05052E-04 2.04064E-06 0.00000E+00
 -1       816 1.04984E-04 1.93699E-06 3.30872E-24
 -1       817 1.04897E-04 1.88092E-06 8.27181E-25
 -1       818 1.04792E-04 1.87579E-06 1.65436E-24
 -1       819 1.04667E-04 1.92489E-06-8.27181E-25
 -1       820 1.04520E-04 2.03153E-06 1.65436E-24
 -1       821 1.05830E-04 1.61978E-06 0.00000E+00
 -1       822 1.05728E-04 1.52789E-06 8.27181E-25
 -1       823 1.05626E-04 1.43430E-06 0.00000E+00
 -1       824 1.05523E-04 1.40771E-06 1.65436E-24
 -1       825 1.05420E-04 1.50255E-06 3.30872E-24
 -1       826 1.05316E-04 1.77268E-06 0.00000E+00
 -1       827 1.05213E-04 2.23480E-06 0.00000E+00
 -1       828 1.05109E-04 2.90470E-06-1.65436E-24
 -1       829 1.05005E-04 3.75410E-06 0.00000E+00
 -1       830 1.04902E-04 4.75388E-06 0.00000E+00
 -1       831 1.04798E-04 5.84304E-06 0.00000E+00
 -1       832 1.04694E-04 6.96014E-06 0.00000E+00
 -1       833 1.04590E-04 8.03781E-06-3.30872E-24
 -1       834 1.04488E-04 9.00889E-06 8.27181E-25
 -1       835 1.04385E-04 9.82873E-06 0.00000E+00
 -1       836 1.05822E-04 1.73414E-06-1.65436E-24
 -1       837 1.05604E-04 1.82904E-06-1.65436E-24
 -1       838 1.05310E-04 1.92378E-06 1.65436E-24
 -1       839 1.04978E-04 2.01790E-06 0.00000E+00
 -1       840 1.04646E-04 2.11188E-06 4.13590E-25
 -1       856 1.04263E-04 1.10398E-05 0.00000E+00
 -1       857 1.04234E-04 1.17373E-05 2.06795E-25
 -1       858 1.04205E-04 1.25286E-05 0.00000E+00
 -1       859 1.04176E-04 1.33960E-05 0.00000E+00
 -1       860 1.04147E-04 1.43220E-05 8.27181E-25
 -1       861 1.04117E-04 1.52888E-05 0.00000E+00
 -1       862 1.04087E-04 1.62787E-05 8.27181E-25
 -1       863 1.04057E-04 1.72739E-05 0.00000E+00
 -1       864 1.04028E-04 1.82566E-05 0.00000E+00
 -1       865 1.03998E-04 1.92091E-05 0.00000E+00
 -1       866 1.03968E-04 2.01137E-05 0.00000E+00
 -1       867 1.03939E-04 2.09525E-05 0.00000E+00
 -1       868 1.03909E-04 2.17082E-05 8.27181E-25
 -1       869 1.03879E-04 2.23630E-05 4.13590E-25
 -1       870 1.03850E-04 2.28997E-05 0.00000E+00
 -1       871 1.03918E-04 1.04523E-05-8.27181E-25
 -1       872 1.03657E-04 1.04489E-05 0.00000E+00
 -1       873 1.03458E-04 1.04451E-05 0.00000E+00
 -1       874 1.03273E-04 1.04408E-05-1.03398E-25
 -1       875 1.03054E-04 1.04359E-05-2.06795E-25
 -1       876 1.04168E-04 1.10497E-05 0.00000E+00
 -1       877 1.04029E-04 1.17000E-05 0.00000E+00
 -1       878 1.03872E-04 1.23980E-05 0.00000E+00
 -1       879 1.03700E-04 1.31374E-05 0.00000E+00
 -1       880 1.03515E-04 1.39122E-05 3.30872E-24
 -1       881 1.03319E-04 1.47163E-05 1.65436E-24
 -1       882 1.03114E-04 1.55437E-05-3.30872E-24
 -1       883 1.02903E-04 1.63883E-05 0.00000E+00
 -1       884 1.02687E-04 1.72439E-05 0.00000E+00
 -1       885 1.02470E-04 1.81047E-05 0.00000E+00
 -1       886 1.02252E-04 1.89645E-05 0.00000E+00
 -1       887 1.02038E-04 1.98172E-05 1.65436E-24
 -1       888 1.01828E-04 2.06568E-05 3.30872E-24
 -1       889 1.01625E-04 2.14771E-05 8.27181E-25
 -1       890 1.01431E-04 2.22721E-05-8.27181E-25
 -1       891 1.03511E-04 2.32563E-05 8.27181E-25
 -1       892 1.03183E-04 2.32115E-05 4.13590E-25
 -1       893 1.02814E-04 2.31668E-05 0.00000E+00
 -1       894 1.02382E-04 2.31221E-05 4.13590E-25
 -1       895 1.01866E-04 2.30775E-05 4.13590E-25
 -1       956 1.04253E-04 2.49139E-06-3.30872E-24
 -1       957 1.04154E-04 2.84687E-06-1.65436E-24
 -1       958 1.04054E-04 3.25860E-06 0.00000E+00
 -1       959 1.03953E-04 3.71936E-06 0.00000E+00
 -1       960 1.03853E-04 4.22192E-06 0.00000E+00
 -1       961 1.03753E-04 4.75901E-06 0.00000E+00
 -1       962 1.03652E-04 5.32335E-06-3.30872E-24
 -1       963 1.03552E-04 5.90767E-06 1.65436E-24
 -1       964 1.03452E-04 6.50469E-06 0.00000E+00
 -1       965 1.03351E-04 7.10712E-06 0.00000E+00
 -1       966 1.03251E-04 7.70768E-06-3.30872E-24
 -1       967 1.03150E-04 8.29909E-06-1.65436E-24
 -1       968 1.03050E-04 8.87407E-06 0.00000E+00
 -1       969 1.02950E-04 9.42537E-06 1.65436E-24
 -1       970 1.02850E-04 9.94573E-06 3.30872E-24
 -1       971 1.02659E-04 1.09283E-05 0.00000E+00
 -1       972 1.02564E-04 1.15105E-05-1.65436E-24
 -1       973 1.02470E-04 1.21657E-05-3.30872E-24
 -1       974 1.02375E-04 1.28846E-05 8.27181E-25
 -1       975 1.02280E-04 1.36577E-05 0.00000E+00
 -1       976 1.02186E-04 1.44755E-05 1.65436E-24
 -1       977 1.02091E-04 1.53286E-05 0.00000E+00
 -1       978 1.01996E-04 1.62076E-05 0.00000E+00
 -1       979 1.01901E-04 1.71030E-05 3.30872E-24
 -1       980 1.01806E-04 1.80052E-05-1.65436E-24
 -1       981 1.01711E-04 1.89049E-05 0.00000E+00
 -1       982 1.01616E-04 1.97926E-05-1.65436E-24
 -1       983 1.01522E-04 2.06588E-05 0.00000E+00
 -1       984 1.01427E-04 2.14941E-05 0.00000E+00
 -1       985 1.01334E-04 2.22890E-05 0.00000E+00
 -3
    1PSTEP                        12           6           1          
  100CL  106 5.39062E-01         409                     0    6           1
 -4  STRESS      6    1
 -5  SXX         1    4    1    1
 -5  SYY         1    4    2    2
 -5  SZZ         1    4    3    3
 -5  SXY         1    4    1    2
 -5  SYZ         1    4    2    3
 -5  SZX         1    4    3    1
 -1         1-2.25510E+06-9.61441E+05-4.76713E+05-1.24202E+06 7.27596E-11 6.69388E-10
 -1         2 2.61614E+03-2.84510E+05 8.52752E+03-8.15325E+02-9.80549E-11 2.80776E-08
 -1         3-1.95710E+02-1.03870E+06 3.81842E+02-5.61949E+02-1.75966E-10-2.02253E-08
 -1         5-2.25092E+00 2.82551E+05 7.29779E+00 9.43737E-02 5.26046E-11 1.47124E-08
 -1         8-1.07875E+06-3.95318E+05-1.03026E+05-5.57590E+05 6.20275E-10 3.05590E-10
 -1         9-2.17563E+06-7.10519E+05-2.71168E+05-6.72957E+05 5.23287E-09-1.55997E-09
 -1        10-1.79801E+03-1.10660E+06-2.26649E+03-4.14813E+03-2.01544E-09-6.72651E-09
 -1        12 7.43087E-01 2.82566E+05 2.36325E+02 7.47143E-01 1.03491E-10-7.00743E-09
 -1        15 2.00512E+03 1.10194E+03 6.48156E+03 4.38121E+00-2.15124E-10-8.97363E-10
 -1        16-2.84171E+06-1.24709E+06-4.62278E+05-1.32286E+06 1.17191E-08 2.09548E-09
 -1        17-1.27343E+06-7.26545E+05-2.46481E+05-6.36789E+05 1.59780E-09-2.38651E-10
 -1        18-4.00170E+04-1.45875E+04-3.17950E+04-7.35870E+04 5.17741E-09 2.89765E-09
 -1        19 8.97276E+04 1.05043E+05-6.32690E+02 1.75528E+04-4.64024E-10 2.74304E-10
 -1        20-4.22804E+04-4.24242E+05-9.39208E+04 2.86805E+04 3.89703E-09 5.05558E-09
 -1        21-3.90489E+01-2.40693E+05-7.72356E+02-5.49097E+01-3.44676E-09-1.75170E-08
 -1        24-3.10021E+06-7.87287E+05-3.53022E+05-1.12150E+06-3.99208E-08-1.86847E-08
 -1        25-5.17258E+04-3.64725E+05-6.67907E+04-1.20018E+05 3.91447E-10 1.22818E-09
 -1        26-2.71510E+04 7.00340E+04-1.57537E+04-7.35089E+03 1.50903E-09-6.14767E-10
 -1        27-6.49785E+04-2.31818E+05-8.65892E+04 5.23105E+04 5.38375E-09 1.60677E-09
 -1        28 1.85668E+04-6.70430E+04 1.36316E+04 2.04101E+04 7.37856E-10-4.61863E-09
 -1        32-1.08066E+06-1.02723E+06 1.81605E+05-5.74376E+05-2.40034E-08 4.14400E-09
 -1        33-1.34268E+05 6.74645E+04 2.40210E+04-3.58027E+04 5.99281E-10 2.95555E-09
 -1        34-1.71676E+05-1.73271E+04 4.29294E+02 5.36719E+04 2.19829E-09-1.80489E-09
 -1        35-1.89029E+04-2.66348E+04-1.04806E+03 4.19296E+04 2.35737E-09-2.23918E-09
 -1        51 2.08143E+04-3.54679E+05 5.09748E+04-9.67141E+05 1.74623E-10-2.34140E-08
 -1        52 1.13132E+04-3.51419E+05 3.19644E+04-1.12793E+06 1.33878E-09-2.25264E-08
 -1        53 7.34771E+03-3.65968E+05 2.48307E+04-9.63737E+05 6.11180E-10-8.00355E-10
 -1        54 2.03232E+04-3.64584E+05 3.69632E+04-1.13146E+06-3.85626E-10-5.53700E-09
 -1        55 3.98875E+04-3.78353E+05 6.42216E+04-9.63179E+05 1.25146E-09 1.41627E-08
 -1        56-4.31139E+06-4.82652E+05-3.50750E+05-1.66535E+06-6.54836E-10-7.42148E-10
 -1        57-4.46251E+06-7.90489E+05-2.36548E+05-1.64030E+06-2.30739E-09 3.74057E-08
 -1        58-4.38196E+06-5.93853E+05-8.24853E+04-1.64316E+06 6.80302E-10-7.98536E-09
 -1        59-4.38101E+06-6.59760E+05-4.92434E+04-1.66640E+06 2.87400E-10-1.54032E-08
 -1        60-4.39197E+06-6.09641E+05-1.92377E+04-1.64048E+06 2.58069E-09 1.35478E-08
 -1        61-4.37132E+06-6.39273E+05-1.09056E+04-1.66716E+06-8.25253E-10 7.93000E-09
 -1        62-4.39142E+06-6.13878E+05-5.20700E+03-1.64250E+06 2.12367E-10-1.05488E-08
 -1        63-4.37533E+06-6.31310E+05-4.16588E+03-1.66090E+06-1.03591E-09-1.94456E-09
 -1        64-4.38784E+06-6.17604E+05-4.68056E+03-1.64669E+06-9.85892E-10-1.69052E-09
 -1        65-4.38449E+06-6.25063E+05-9.25132E+03-1.65136E+06-6.57599E-09-1.06102E-08
 -1        66-4.38224E+06-6.20204E+05-1.62225E+04-1.65200E+06-7.77618E-11-7.53789E-09
 -1        67-4.40273E+06-6.32067E+05-4.12457E+04-1.63915E+06 7.13044E-10 2.87273E-08
 -1        68-4.36979E+06-6.10991E+05-6.91356E+04-1.65881E+06 3.68800E-09 6.59929E-09
 -1        69-4.47625E+06-7.36514E+05-1.98139E+05-1.61169E+06 1.35515E-10 1.81899E-09
 -1        70-4.30962E+06-5.18819E+05-2.93859E+05-1.67850E+06 1.84082E-09-1.21654E-08
 -1        86-1.31428E+03-2.87327E+05 9.10337E+03 4.07650E+02 1.11004E-09-1.90568E-09
 -1        87 8.69198E+03-2.81625E+05 1.90261E+04-1.57558E+03 1.85173E-09 9.46068E-09
 -1        88-7.36747E+03-2.90213E+05 2.91261E+04 1.16792E+03 2.63026E-09-4.09824E-09
 -1        89 5.48771E+04-2.60331E+05 7.85145E+04-2.89114E+03 3.98722E-09 6.23913E-09
 -1        90-4.73331E+04-3.08601E+05 1.11018E+05 1.72364E+03 3.96540E-09 3.25975E-08
 -1       121-3.06913E+02-1.03952E+06 3.06915E+02 2.80432E+02 6.04942E-10-1.57797E-08
 -1       122-7.09584E+01-1.03863E+06 8.26225E+02-1.12268E+03-2.03872E-09 6.25732E-10
 -1       123-3.89358E+02-1.03961E+06 1.28419E+03 8.39043E+02 1.83456E-09-7.19410E-09
 -1       124 1.41068E+03-1.03775E+06 3.43749E+03-2.42112E+03-3.54385E-09-6.63931E-09
 -1       125-1.33530E+03-1.04045E+06 5.25866E+03 1.57763E+03 2.58569E-09-7.24140E-09
 -1       191-2.60675E+00 2.82576E+05 8.87603E+00-4.73783E-02 6.71281E-11 4.78667E-09
 -1       192-2.91998E+00 2.82552E+05 1.54438E+01 4.26084E-01 9.71285E-11 5.61272E-09
 -1       193-4.38627E+00 2.82575E+05 2.88698E+01-3.80164E-01 9.37774E-11-4.39286E-10
 -1       194-5.07336E+00 2.82554E+05 5.83959E+01 1.01666E+00 6.08331E-11-7.97627E-09
 -1       195-7.80624E+00 2.82574E+05 1.14373E+02-6.41147E-01 2.20588E-10-1.93895E-08
 -1       251-1.09398E+06 5.04241E+03-1.20094E+04-9.28282E+03-1.84116E-10 2.84308E-09
 -1       252-1.09800E+06-5.80494E+03-8.24537E+03 1.14644E+04 1.45491E-09-1.33316E-08
 -1       253-1.09654E+06 7.23188E+02-3.24694E+03-4.73263E+03-1.40722E-09-1.04749E-08
 -1       254-1.09493E+06-8.60198E+02-1.59370E+03 8.05821E+02-3.09001E-10-1.72019E-08
 -1       255-1.09698E+06 6.00709E+01-9.29314E+02 1.37583E+03-1.42791E-09 5.87193E-10
 -1       256-1.09498E+06-8.09771E+01-1.30846E+02-1.05103E+04 5.28615E-10 2.12493E-08
 -1       257-1.09654E+06-2.11824E+01-1.08772E+02 6.58332E+03-4.63842E-10 2.94087E-09
 -1       258-1.09585E+06 1.20919E+02 3.06951E+02-1.79170E+04 8.05983E-10 6.99710E-09
 -1       259-1.09620E+06-6.92361E+01 6.08790E+02 8.78292E+03-1.25887E-10-5.13950E-09
 -1       260-1.09571E+06 5.34035E+02 1.50817E+03-1.84245E+04 2.76827E-11-1.11282E-08
 -1       261-1.09668E+06-4.26236E+02 2.51171E+03 7.09082E+03 2.61360E-09 9.59460E-09
 -1       262-1.09353E+06 3.05830E+03 6.54786E+03-1.18317E+04-4.25217E-10-8.14907E-10
 -1       263-1.09829E+06-2.65441E+03 9.96341E+03 2.18982E+03-6.05837E-10 7.10315E-10
 -1       264-1.08532E+06 1.94757E+04 2.79806E+04-8.39036E+02-4.39854E-10 8.40737E-09
 -1       265-1.10481E+06-1.68333E+04 3.90206E+04-3.90176E+03-1.73134E-09 1.42300E-08
 -1       266-3.62983E+04-1.69704E+04 8.51790E+04-9.37566E+01-9.09495E-11-8.66598E-09
 -1       267 4.20809E+04 1.97835E+04 6.01967E+04 1.08161E+02-2.47383E-10-4.57898E-08
 -1       268-5.64292E+03-2.80167E+03 2.23752E+04-1.37825E+01-3.01043E-10-3.41601E-08
 -1       269 6.66270E+03 3.35326E+03 1.45432E+04 1.60536E+01-1.75532E-10-2.50156E-08
 -1       270-1.00008E+03-5.50954E+02 7.02021E+03-2.17862E+00-1.53477E-10-1.59881E-08
 -1       271-3.41214E+06-4.27004E+05-2.59138E+05-1.32945E+06 1.26238E-09 8.99308E-09
 -1       272-3.50048E+06-6.20622E+05-1.66608E+05-1.33216E+06 3.31897E-09 8.67658E-10
 -1       273-3.46227E+06-4.90240E+05-6.12245E+04-1.31633E+06-8.64020E-12-1.76406E-08
 -1       274-3.44109E+06-5.43857E+05-3.42303E+04-1.35276E+06-2.41016E-11-2.00516E-08
 -1       275-3.47076E+06-4.95135E+05-1.42628E+04-1.31234E+06 1.65073E-09 9.46966E-09
 -1       276-3.43049E+06-5.38744E+05-7.54131E+03-1.35956E+06-3.26327E-09 6.94422E-09
 -1       277-3.47330E+06-4.94131E+05-3.70994E+03-1.31025E+06 2.31466E-10 6.70798E-09
 -1       278-3.42756E+06-5.40173E+05-2.66563E+03-1.36277E+06 1.09867E-09 6.48303E-09
 -1       279-3.47406E+06-4.93392E+05-2.84301E+03-1.30944E+06-1.41802E-09-3.73871E-09
 -1       280-3.42774E+06-5.41092E+05-5.21109E+03-1.36311E+06 1.30080E-09-1.19526E-08
 -1       281-3.47318E+06-4.93222E+05-9.48757E+03-1.30993E+06-2.04227E-09-1.44519E-09
 -1       282-3.43374E+06-5.45567E+05-2.27398E+04-1.35994E+06-4.93651E-09 4.22278E-09
 -1       283-3.46789E+06-4.89658E+05-4.05254E+04-1.31221E+06-2.58979E-10-2.03363E-09
 -1       284-3.47276E+06-5.96633E+05-1.10378E+05-1.34642E+06-5.41490E-10-1.63673E-08
 -1       285-3.43456E+06-4.47974E+05-1.71685E+05-1.32107E+06-6.78483E-10-1.02082E-08
 -1       301 2.11577E+04-5.27707E+04 1.56168E+05-1.01502E+05-5.09317E-10-8.80391E-10
 -1       302 2.22498E+04-1.32414E+04 1.03756E+05-1.49237E+05 1.35333E-09 7.87941E-09
 -1       303 1.12170E+03-3.73416E+04 8.16305E+04-1.01593E+05-3.54703E-10 1.02009E-08
 -1       304 2.77406E+04-7.55760E+03 1.22279E+05-1.48777E+05 8.58563E-10 1.04119E-08
 -1       305 2.68070E+04-5.74591E+04 1.97114E+05-1.02004E+05-6.40284E-10 6.50834E-09
 -1       306-5.67826E+06-6.12308E+05-4.29802E+05-2.14065E+06 1.96451E-09-1.26311E-08
 -1       307-5.62924E+06-1.15440E+06-2.79519E+05-2.29074E+06-2.63681E-08 5.49335E-10
 -1       308-5.82803E+06-6.62548E+05-1.00793E+05-2.00807E+06 2.03966E-09 7.27596E-09
 -1       309-5.46698E+06-1.09214E+06-5.84134E+04-2.46064E+06 1.19559E-09 1.01272E-08
 -1       310-5.85208E+06-6.63074E+05-2.27526E+04-1.98043E+06-1.65073E-09-1.16515E-08
 -1       311-5.47480E+06-1.02920E+06-9.30586E+03-2.41076E+06 3.25044E-08-7.31143E-09
 -1       312-5.81444E+06-7.29132E+05-1.23880E+04-2.05405E+06 9.47693E-09 1.61717E-08
 -1       313-5.59460E+06-8.65065E+05 4.43611E+03-2.20349E+06-1.21800E-08 2.09184E-10
 -1       314-5.71909E+06-8.36572E+05-1.61649E+04-2.17790E+06 8.44739E-09-6.07179E-09
 -1       315-5.80905E+06-6.67537E+05-6.63946E+03-1.97995E+06-1.36542E-08 1.01227E-09
 -1       316-5.60396E+06-9.23830E+05-2.96408E+04-2.28011E+06-2.44727E-08-1.31313E-08
 -1       317-5.99750E+06-5.64880E+05-6.67440E+04-1.85069E+06 1.97315E-08-8.53015E-09
 -1       318-5.54434E+06-9.30087E+05-1.12773E+05-2.31750E+06-3.37932E-08 7.93079E-09
 -1       319-6.08892E+06-7.68946E+05-3.26688E+05-1.82875E+06-9.28230E-09-1.33768E-08
 -1       320-5.51186E+06-7.23867E+05-4.88296E+05-2.29984E+06 1.71276E-08 1.45519E-10
 -1       336 1.20495E+03-1.17382E+06-9.05173E+03 2.56042E+03-3.77440E-09 9.22773E-09
 -1       337-3.37428E+03-1.17591E+06-9.19774E+03-6.37702E+03-2.70461E-09 2.99769E-09
 -1       338 5.89404E+02-1.17426E+06-1.09163E+04 3.79573E+03-5.34146E-09 8.17272E-09
 -1       339-1.12198E+04-1.18087E+06-2.32145E+04-8.79667E+03-4.38558E-09 9.21136E-09
 -1       340 7.69784E+03-1.16915E+06-3.54528E+04 4.96150E+03-5.47425E-09 1.82372E-08
 -1       406 1.89417E+01 2.82563E+05 4.66715E+02-1.12815E-01 3.21990E-10-1.15751E-08
 -1       407 1.63394E+02 2.82648E+05 9.91591E+02-4.04395E+00 3.22444E-11-5.49790E-09
 -1       408 5.11274E+02 2.82492E+05 1.98059E+03 4.25525E+00 2.88765E-10 6.81166E-09
 -1       409 2.14196E+03 2.83281E+05 4.45851E+03-4.18869E+01 6.63931E-11 3.00145E-09
 -1       410 6.15290E+03 2.81929E+05 9.10198E+03 3.94189E+01 2.10093E-10 7.99355E-09
 -1       521-8.17722E+06-7.91268E+05-7.91502E+05-2.55292E+06-1.22382E-08 3.37604E-09
 -1       522-5.66291E+06-2.10064E+06-2.02119E+05-3.95434E+06-9.35397E-08-3.72747E-08
 -1       523-8.17475E+06-3.37210E+05-1.55789E+05-1.79491E+06-1.13505E-08-5.97356E-08
 -1       524-6.03499E+06-2.27900E+06-3.54299E+04-4.96369E+06 1.08097E-07-1.03061E-07
 -1       525-8.17458E+06-3.36683E+05-4.32466E+04-1.76388E+06 8.45612E-08-6.08379E-08
 -1       526-5.57763E+06-1.94518E+06 1.34479E+05-4.10207E+06 1.69384E-08-2.91038E-10
 -1       527-8.29691E+06-9.17316E+05-2.16350E+05-2.46033E+06 5.50062E-08 1.87065E-08
 -1       528-5.75129E+06-8.97002E+05 2.72406E+05-2.31083E+06-2.01399E-08 8.16726E-09
 -1       529-7.65824E+06-1.62533E+06-2.35469E+05-3.26983E+06-6.11180E-09-1.66765E-08
 -1       530-7.76655E+06 4.05796E+05 1.59063E+05-1.31832E+06-6.31990E-08 6.79283E-08
 -1       531-6.59686E+06-1.98814E+06-6.22100E+04-3.64462E+06-1.38592E-07-4.90400E-09
 -1       532-9.30630E+06 1.00324E+06-3.01088E+04-1.22968E+06 6.98137E-08-9.70263E-08
 -1       533-6.45440E+06-1.99379E+06-1.30227E+05-3.67262E+06 3.50701E-09-1.52440E-07
 -1       534-8.31177E+06 4.08184E+05-2.05691E+05-1.23110E+06-3.39496E-08 1.11646E-07
 -1       535-7.34960E+06-1.56123E+06-7.40626E+05-3.40809E+06-9.25502E-09 8.04430E-08
 -1       536-3.91650E+05-1.93403E+04 3.35062E+04-1.35137E+04-4.16173E-09 2.94167E-08
 -1       537-3.31063E+05 2.16758E+04 3.17623E+04 3.24508E+04-3.76319E-08 3.38900E-08
 -1       538-3.62220E+05-2.08611E+03 1.00604E+04-1.98075E+04 7.02691E-09 3.67822E-08
 -1       539-3.48908E+05 3.07469E+03 8.31168E+03 3.54588E+04 4.60021E-08 3.07656E-08
 -1       540-3.74056E+05-5.43118E+02 2.01973E+01-1.65291E+04-1.18848E-09 3.08387E-08
 -1       541-3.11551E+05 2.02511E+03 1.12838E+04 2.03391E+04-4.37444E-09 2.42503E-08
 -1       542-3.98569E+05-1.86854E+03-7.06338E+03-4.66711E+03 2.08245E-08 1.06408E-08
 -1       543-2.94742E+05 2.28199E+03 1.33454E+04-6.00195E+03 2.72507E-10-5.84897E-09
 -1       544-3.90426E+05-1.17074E+03-6.38845E+03 9.79210E+03-2.54329E-09-1.08139E-08
 -1       545-3.30338E+05 1.31433E+02 4.67648E+03-2.91829E+04 4.61114E-10-1.91000E-08
 -1       546-3.63895E+05 1.04078E+03-3.12291E+03 1.85097E+04 1.17403E-08-2.72573E-08
 -1       547-3.55411E+05-3.40756E+03-5.26924E+03-3.71305E+04-3.68088E-08-4.14453E-08
 -1       548-3.65973E+05 2.88361E+03-1.17849E+04 1.77553E+04-3.46427E-08-2.16496E-08
 -1       549-3.31692E+05-1.71617E+04-2.07687E+04-2.62862E+04-2.03361E-08-1.18307E-08
 -1       550-3.86815E+05 1.41207E+04-4.82591E+04 7.64687E+03 1.45451E-09-5.50426E-09
 -1       551 1.74004E+04-5.80503E+05 2.48710E+04-9.65348E+05-4.67044E-08 6.83940E-10
 -1       552 3.93350E+04-5.92014E+05 3.20743E+04-1.37497E+06-3.50628E-08 1.51049E-08
 -1       553 2.79865E+04-5.98001E+05 4.66979E+04-9.61714E+05-5.94373E-08 1.13359E-08
 -1       554 6.59017E+04-5.87808E+05 9.76491E+04-1.37641E+06-3.70928E-08 9.56152E-09
 -1       555 5.61520E+04-6.16630E+05 1.73362E+05-9.62660E+05-5.79821E-08-5.56975E-09
 -1       556 1.00668E+05-1.86329E+05 6.25918E+04-2.35573E+05-1.17143E-08-7.75617E-09
 -1       557 1.76402E+05-2.47484E+05 3.31304E+04-2.96152E+05-1.56433E-09 8.88394E-09
 -1       558 9.88603E+04-1.93819E+05 1.30048E+04-2.29233E+05-7.50879E-09-7.48696E-09
 -1       559 1.64120E+05-2.55462E+05 6.72423E+03-3.02097E+05 6.86850E-09-2.29011E-09
 -1       560 9.53118E+04-1.91518E+05 2.55413E+03-2.31592E+05 3.04135E-09 1.09321E-09
 -1       561 1.59017E+05-2.53880E+05 1.44860E+03-3.05366E+05-2.24099E-09-1.06656E-08
 -1       562 9.24899E+04-1.89679E+05 4.38633E+02-2.33620E+05 4.44561E-09-9.32778E-09
 -1       563 1.55702E+05-2.52445E+05 3.54298E+02-3.07492E+05 9.48785E-09-1.49824E-08
 -1       564 9.06541E+04-1.88510E+05 9.62720E+01-2.34919E+05 5.89353E-09-8.46512E-09
 -1       565 1.53832E+05-2.51637E+05 1.14083E+02-3.08673E+05 3.00497E-09-5.91035E-09
 -1       566 8.98528E+04-1.87993E+05 1.62770E+01-2.35486E+05 2.97223E-09-1.32604E-09
 -1       567 1.53364E+05-2.51421E+05-5.91819E+01-3.08889E+05 1.65725E-08 9.77889E-09
 -1       568 9.01262E+04-1.88175E+05-2.96421E+02-2.35374E+05 4.03452E-09 8.51651E-09
 -1       569 1.53526E+05-2.51301E+05-7.13538E+02-3.07418E+05 7.46331E-09 1.86774E-08
 -1       570 9.21143E+04-1.89832E+05-1.67363E+03-2.35158E+05 1.30749E-08 9.04583E-09
 -1       571 2.09287E+05 7.70872E+03 1.13812E+04-5.42884E+04-1.32968E-09-2.67642E-09
 -1       572 2.10976E+05 2.70382E+03 5.57628E+03-5.95280E+04-3.57431E-10-1.24692E-09
 -1       573 2.09963E+05 6.67145E+02 2.47732E+03-5.41572E+04 8.50378E-11 5.82895E-09
 -1       574 2.10160E+05 2.41674E+02 1.24139E+03-5.96769E+04 1.61344E-09 8.43102E-10
 -1       575 2.10038E+05 5.98945E+01 5.85275E+02-5.41399E+04-7.81756E-09 1.29517E-08
 -1       576 2.10049E+05 4.24126E+01 2.98337E+02-5.96967E+04-1.76458E-08 9.92077E-09
 -1       577 2.10052E+05 2.58914E+01 1.47606E+02-5.41376E+04-1.02309E-08 1.32104E-09
 -1       578 2.10043E+05 2.98968E+01 8.18828E+01-5.96992E+04-2.97223E-09 4.88853E-10
 -1       579 2.10070E+05 2.02667E+01 5.23438E+01-5.41375E+04 3.27418E-11-6.49698E-09
 -1       580 2.10068E+05 1.92554E+01 5.29610E+01-5.96960E+04 6.42103E-10 6.94763E-09
 -1       581 2.10100E+05 7.98701E+00 7.57939E+01-5.41407E+04-4.92946E-10 1.82195E-08
 -1       582 2.10122E+05 2.06643E+01 1.48014E+02-5.96628E+04-6.83940E-10-1.79034E-09
 -1       583 2.10135E+05 5.29059E+01 2.85220E+02-5.41707E+04 1.01008E-08-7.03994E-09
 -1       584 2.10271E+05 2.77099E+02 6.41006E+02-5.94117E+04 1.82617E-08-3.41811E-09
 -1       585 2.10108E+05 8.39321E+02 1.30167E+03-5.43923E+04 1.01281E-08-9.91531E-09
 -1       586-2.49562E+03 6.91151E+04-3.14944E+03-1.86573E+05-3.55612E-10 4.04941E-09
 -1       587-5.52764E+02 6.87124E+04-1.54580E+02-2.05339E+05-2.74667E-10-5.80553E-09
 -1       588 7.23115E+02 6.87647E+04 2.72042E+03-1.86474E+05-3.11047E-10 1.90275E-08
 -1       589 3.78532E+03 7.02398E+04 7.65149E+03-2.05141E+05-4.69299E-10 2.98210E-08
 -1       590 1.10277E+04 6.78975E+04 1.62844E+04-1.86778E+05-1.68257E-10 2.61025E-08
 -1       591-4.45240E+04-1.21054E+04-1.48908E+04-2.22247E+04-8.34802E-10-3.22234E-09
 -1       592-4.62255E+04-1.54561E+04-8.06563E+03-2.57594E+04 2.54119E-09-1.16675E-08
 -1       593-4.60251E+04-1.10128E+04-3.35770E+03-2.33049E+04 1.53057E-09 6.36646E-12
 -1       594-4.41553E+04-1.32866E+04-1.67464E+03-2.58565E+04 3.35092E-10-5.45222E-09
 -1       595-4.61401E+04-1.10081E+04-7.69456E+02-2.33544E+04 1.16313E-09 5.72303E-09
 -1       596-4.40148E+04-1.31873E+04-3.92035E+02-2.58414E+04 7.70427E-09 3.68468E-09
 -1       597-4.61546E+04-1.10178E+04-2.15369E+02-2.33563E+04 8.90807E-09-2.67130E-09
 -1       598-4.40013E+04-1.31835E+04-1.76610E+02-2.58371E+04 9.70499E-09-1.81470E-08
 -1       599-4.61534E+04-1.10179E+04-2.29947E+02-2.33560E+04 9.70874E-09-1.25610E-08
 -1       600-4.40159E+04-1.31885E+04-4.30641E+02-2.58406E+04 3.47035E-09-5.88966E-09
 -1       601-4.61353E+04-1.10078E+04-8.51391E+02-2.33530E+04 5.03655E-09-6.68138E-09
 -1       602-4.41713E+04-1.32983E+04-1.85645E+03-2.58551E+04 1.13851E-08-6.74936E-09
 -1       603-4.60061E+04-1.10150E+04-3.72349E+03-2.32984E+04 4.14570E-09 4.27167E-09
 -1       604-4.64761E+04-1.56940E+04-8.94437E+03-2.57339E+04-1.38027E-09-8.48559E-10
 -1       605-4.43298E+04-1.22358E+04-1.65131E+04-2.21105E+04 4.04793E-09 1.48002E-08
 -1       606 2.76090E+04-1.00578E+04-1.80932E+04 2.67850E+04-6.47560E-10 6.24004E-09
 -1       607 2.45113E+04-3.25230E+03-9.00941E+03 3.00704E+04-1.39244E-09-4.92491E-09
 -1       608 2.62675E+04-5.56143E+02-4.03465E+03 2.65734E+04 2.08456E-09 7.61315E-09
 -1       609 2.59185E+04-1.52202E+02-2.03774E+03 3.03062E+04-1.59707E-09 6.97423E-09
 -1       610 2.61042E+04 1.74397E+01-9.73390E+02 2.65496E+04-2.86855E-09 9.57266E-09
 -1       611 2.60389E+04 3.01077E+01-4.90815E+02 3.03319E+04-5.02723E-09 6.66842E-09
 -1       612 2.60601E+04 3.39729E+01-2.34685E+02 2.65472E+04 6.23641E-09 7.84689E-09
 -1       613 2.60357E+04 3.93720E+01-1.06468E+02 3.03349E+04 1.29003E-08 4.49882E-09
 -1       614 2.60357E+04 3.50895E+01-2.86981E+01 2.65464E+04 9.45693E-09 1.35515E-08
 -1       615 2.60228E+04 4.54026E+01 3.59622E+01 3.03354E+04 5.19094E-09 6.54222E-09
 -1       616 2.60171E+04 4.13776E+01 1.15752E+02 2.65467E+04-3.33785E-10-1.55046E-09
 -1       617 2.60299E+04 7.42842E+01 2.67404E+02 3.03348E+04 2.40584E-09-1.85305E-08
 -1       618 2.59888E+04 1.21700E+02 5.40082E+02 2.65468E+04 2.42835E-10-1.13596E-08
 -1       619 2.62165E+04 4.94550E+02 1.21362E+03 3.03340E+04-3.70869E-09 3.30260E-09
 -1       620 2.58068E+04 1.40490E+03 2.43950E+03 2.65457E+04-1.55330E-09-4.32465E-10
 -1       621 3.00442E+02 2.20512E+05 2.69006E+03 1.13314E+04-8.29914E-11-5.95242E-09
 -1       622 3.54309E+02 2.21175E+05 2.39054E+03 1.65121E+04-2.33058E-11-4.87739E-09
 -1       623 1.74169E+01 2.20685E+05 2.88876E+03 1.12776E+04-3.23439E-11 2.62094E-09
 -1       624 1.34763E+03 2.22080E+05 5.60749E+03 1.65662E+04-3.09512E-11 7.62208E-09
 -1       625 1.35453E+03 2.19592E+05 9.80577E+03 1.12772E+04 8.64020E-12 1.82916E-09
 -1       626 1.88400E+05 5.08073E+04 3.93008E+03 9.98695E+04-4.36921E-09 1.75824E-08
 -1       627 1.86017E+05 5.24822E+04 1.89387E+03 1.03823E+05-1.81626E-08 1.00522E-09
 -1       628 1.88531E+05 4.89668E+04 7.99987E+02 1.00483E+05-7.04676E-09 5.81349E-09
 -1       629 1.85470E+05 5.20144E+04 3.91949E+02 1.04057E+05 4.32919E-09 3.99734E-09
 -1       630 1.88538E+05 4.88804E+04 1.81103E+02 1.00501E+05-8.09268E-09-1.98179E-09
 -1       631 1.85404E+05 5.20025E+04 9.70814E+01 1.04058E+05-1.33659E-08 1.43450E-08
 -1       632 1.88528E+05 4.88874E+04 6.32508E+01 1.00493E+05-2.06001E-08 6.78483E-10
 -1       633 1.85390E+05 5.20079E+04 6.95431E+01 1.04050E+05-2.35686E-08-6.57030E-09
 -1       634 1.88518E+05 4.88884E+04 1.11494E+02 1.00488E+05-4.30782E-09 9.60995E-09
 -1       635 1.85395E+05 5.20094E+04 2.25344E+02 1.04050E+05 1.35105E-09 4.99563E-09
 -1       636 1.88507E+05 4.88871E+04 4.54781E+02 1.00485E+05-3.25372E-09 5.67002E-09
 -1       637 1.85488E+05 5.20814E+04 9.99396E+02 1.04046E+05 2.66465E-09 1.48120E-08
 -1       638 1.88468E+05 4.91095E+04 2.05370E+03 1.00383E+05 6.23004E-11 1.25510E-09
 -1       639 1.86564E+05 5.35825E+04 4.85848E+03 1.03726E+05-9.29276E-10-1.09412E-09
 -1       640 1.88324E+05 5.35825E+04 1.00824E+04 9.84865E+04-2.21007E-10-3.53361E-09
 -1       656 5.03264E+04-1.27646E+06-1.21486E+05-4.35256E+02 6.11180E-10 2.91897E-09
 -1       657-6.65199E+04-1.33130E+06-1.00509E+05 7.57059E+03 6.36646E-12 3.15841E-09
 -1       658 1.59787E+04-1.29208E+06-6.17291E+04-1.77357E+03 1.12846E-09-1.02139E-08
 -1       659-7.14645E+04-1.33364E+06-1.07004E+05 8.50148E+03-7.92170E-10-6.29463E-09
 -1       660 5.52595E+04-1.27412E+06-1.32655E+05-1.36613E+03-6.62112E-10 9.13694E-09
 -1       661 1.68148E+05 1.82270E+04 1.63605E+04 6.57448E+04 1.76533E-09-4.08636E-09
 -1       662 1.76808E+05 3.09221E+04 1.10245E+04 6.27441E+04 3.13076E-09-1.76706E-08
 -1       663 1.71357E+05 2.34790E+04 3.85634E+03 6.48167E+04-3.93584E-10-3.51065E-10
 -1       664 1.73092E+05 2.47760E+04 2.30583E+03 6.38740E+04 2.32978E-09 2.11458E-10
 -1       665 1.71839E+05 2.42005E+04 9.09581E+02 6.46800E+04-3.55095E-09 2.04062E-09
 -1       666 1.72525E+05 2.39475E+04 5.30772E+02 6.40501E+04-5.86004E-09-3.04352E-09
 -1       667 1.71921E+05 2.42858E+04 2.80203E+02 6.46487E+04-2.88745E-09 1.70548E-10
 -1       668 1.72437E+05 2.38818E+04 2.81586E+02 6.40955E+04 5.07251E-09 1.90116E-09
 -1       669 1.71927E+05 2.42643E+04 3.77989E+02 6.46353E+04-1.18206E-09-2.00265E-09
 -1       670 1.72531E+05 2.40835E+04 8.20077E+02 6.40964E+04 3.47342E-09-6.46648E-09
 -1       671 1.71827E+05 2.40881E+04 1.45509E+03 6.46462E+04-2.37307E-09-8.42761E-10
 -1       672 1.73379E+05 2.54990E+04 3.72200E+03 6.38916E+04-3.15612E-09-7.27005E-09
 -1       673 1.71083E+05 2.28844E+04 6.23717E+03 6.48264E+04 9.24729E-10-9.45647E-10
 -1       674 1.79317E+05 3.55177E+04 1.78369E+04 6.21456E+04 9.06482E-10 6.36464E-09
 -1       675 1.65927E+05 1.43495E+04 2.64758E+04 6.62865E+04 4.71573E-10 3.45608E-09
 -1       676 2.00444E+01-2.40629E+05-9.30889E+02 2.74555E+01-5.37113E-10-2.52537E-10
 -1       677-2.47162E+02-2.40854E+05-1.70365E+03-5.48798E+01-1.50749E-09 2.97869E-09
 -1       678 1.65026E+02-2.40468E+05-3.01160E+03 2.74054E+01-2.29079E-10-4.77225E-10
 -1       679-3.01237E+03-2.42671E+05-7.15412E+03-5.46875E+01-9.90440E-10 4.47901E-09
 -1       680 1.79781E+03-2.38811E+05-1.15300E+04 2.69513E+01-3.01043E-10-8.54087E-09
 -1       771-2.56515E+06-4.90981E+05-7.15255E+04-1.10898E+06-1.80225E-08-1.13505E-08
 -1       772-2.53618E+06-5.35301E+05-3.78627E+04-1.15909E+06-1.65019E-08 1.41481E-08
 -1       773-2.57676E+06-4.81832E+05-1.73007E+04-1.11316E+06-1.18598E-08 2.61934E-09
 -1       774-2.52737E+06-5.27610E+05-8.16091E+03-1.16644E+06 9.01491E-09 7.27596E-11
 -1       775-2.58090E+06-4.78939E+05-4.80127E+03-1.11405E+06-3.24508E-09 1.69894E-09
 -1       776-2.52864E+06-5.27566E+05-2.02590E+03-1.17120E+06-6.84668E-09 2.75031E-09
 -1       777-2.58416E+06-4.76529E+05-1.68853E+03-1.11479E+06-4.29281E-09 3.31420E-09
 -1       778-2.53041E+06-5.27680E+05-5.87408E+02-1.17521E+06 6.11180E-10 1.20872E-08
 -1       779-2.58687E+06-4.74476E+05-7.67297E+02-1.11543E+06-5.68980E-09-2.53203E-09
 -1       780-2.53202E+06-5.27741E+05-2.75798E+02-1.17846E+06-4.13274E-09 2.61934E-10
 -1       781-2.58895E+06-4.72845E+05-5.20295E+02-1.11593E+06-9.69885E-09-1.51158E-09
 -1       782-2.53329E+06-5.27778E+05-5.13954E+02-1.18084E+06-1.68220E-08-3.79850E-09
 -1       783-2.59036E+06-4.71746E+05-1.05617E+03-1.11628E+06-5.78075E-09-1.10736E-08
 -1       784-2.53466E+06-5.28386E+05-2.30849E+03-1.18227E+06-9.99353E-09-1.14733E-09
 -1       785-2.59066E+06-4.71496E+05-4.30862E+03-1.11615E+06-1.45083E-08 5.96901E-09
 -1       786 1.58263E+05-9.44333E+03 2.18472E+04-7.41465E+01 1.62649E-09 4.44106E-09
 -1       787 1.67731E+05 1.09324E+04 1.54563E+04 1.77778E+01 2.15617E-09 1.01568E-09
 -1       788 1.61915E+05-1.48032E+03 5.65405E+03-5.62701E+01 8.80524E-10 1.09958E-08
 -1       789 1.63477E+05 1.71275E+03 3.55168E+03-1.15754E+01 4.67995E-10-3.13617E-09
 -1       790 1.62518E+05-2.31157E+02 1.44334E+03-4.47957E+01-2.55558E-10 2.86047E-09
 -1       791 1.62773E+05 2.68048E+02 8.43882E+02-3.24070E+01-8.74568E-10 1.20117E-08
 -1       792 1.62619E+05-3.67036E+01 3.78153E+02-3.54385E+01-7.85836E-10 6.61926E-09
 -1       793 1.62657E+05 4.81657E+01 2.33562E+02-5.16686E+01 9.01860E-10-3.38821E-09
 -1       794 1.62634E+05-1.14168E+01 1.51240E+02-2.55338E+01 2.69029E-12-3.37334E-09
 -1       795 1.62656E+05 5.06169E+01 1.87304E+02-7.46824E+01-4.71338E-10 3.30695E-09
 -1       796 1.62620E+05-3.91497E+01 2.61533E+02-1.24243E+01 3.48646E-10 6.87963E-09
 -1       797 1.62770E+05 2.85109E+02 6.00931E+02-1.07593E+02 2.25991E-10 1.65076E-09
 -1       798 1.62521E+05-2.45739E+02 9.43447E+02 7.37758E+00-1.69442E-10-3.37428E-09
 -1       799 1.63476E+05 1.81420E+03 2.56753E+03-1.59284E+02 2.92468E-10 6.51630E-09
 -1       800 1.61914E+05-1.56702E+03 3.62541E+03 3.92670E+01-1.06700E-10-3.65344E-09
 -1       801 5.13986E+04-1.87782E+06-1.69929E+05 3.42860E+04 1.52650E-08-6.05996E-09
 -1       802-5.73432E+04-1.71326E+06-6.63658E+04-6.15415E+04 4.13111E-08-6.48379E-09
 -1       803 5.26600E+03-1.78990E+06-1.02169E+04 8.76247E+04 3.21743E-08 2.78757E-08
 -1       804 5.17200E+04-1.65967E+06 7.72491E+04-4.14877E+04 3.42188E-08 2.94236E-08
 -1       805-5.83886E+04-1.93079E+06 7.61494E+04 1.42243E+04 1.29075E-08 2.00753E-08
 -1       806-2.29145E+05-4.60560E+04-1.80665E+04-9.23208E+04 2.81534E-09-3.86854E-09
 -1       807-2.30482E+05-4.31932E+04-8.87578E+03-9.67951E+04 4.59227E-09-7.75742E-10
 -1       808-2.29641E+05-3.95451E+04-3.76520E+03-9.54013E+04 1.75169E-09 4.18694E-09
 -1       809-2.28605E+05-4.07106E+04-1.84091E+03-9.70283E+04-3.34330E-09-5.01541E-09
 -1       810-2.29718E+05-3.93170E+04-8.43237E+02-9.55376E+04 5.06634E-09 1.29376E-09
 -1       811-2.28461E+05-4.06114E+04-4.18676E+02-9.70034E+04 1.25838E-08 9.09620E-09
 -1       812-2.29731E+05-3.93351E+04-2.10056E+02-9.55373E+04 6.11681E-09-6.45741E-11
 -1       813-2.28442E+05-4.06134E+04-1.34120E+02-9.69907E+04 2.93949E-09-1.85344E-09
 -1       814-2.29728E+05-3.93419E+04-1.28671E+02-9.55345E+04-9.96351E-10-7.91078E-09
 -1       815-2.28445E+05-4.06153E+04-2.03920E+02-9.69866E+04 2.56659E-09 1.10458E-09
 -1       816-2.29714E+05-3.93405E+04-3.83904E+02-9.55320E+04-3.10229E-09-5.61931E-09
 -1       817-2.28511E+05-4.06519E+04-8.23500E+02-9.69795E+04-1.13823E-09-1.02455E-09
 -1       818-2.29665E+05-3.94559E+04-1.67881E+03-9.54773E+04 6.15728E-09 8.51560E-09
 -1       819-2.29433E+05-4.16637E+04-3.95085E+03-9.67604E+04-1.28784E-09-1.24405E-08
 -1       820-2.29351E+05-4.24386E+04-8.04092E+03-9.41998E+04-2.61753E-09-7.57063E-09
 -1       821-2.88519E+05 1.59594E+04-3.69088E+04 2.43970E+02 9.39437E-10 2.95404E-09
 -1       822-3.04511E+05-1.84757E+04-2.61181E+04-9.24783E+02-1.33962E-09 7.69023E-09
 -1       823-2.94690E+05 2.50236E+03-9.55921E+03 2.47556E+02-5.41229E-11 5.00540E-09
 -1       824-2.97308E+05-2.89604E+03-6.01373E+03-7.60997E+02 4.82677E-10 1.27443E-08
 -1       825-2.95720E+05 3.91449E+02-2.47381E+03 8.01812E+01-1.88017E-09 6.45764E-09
 -1       826-2.96105E+05-4.61367E+02-1.48920E+03-3.29317E+02-3.01571E-09 7.59962E-09
 -1       827-2.95891E+05 6.90440E+01-7.76139E+02-1.84131E+02-3.49161E-09-2.60485E-09
 -1       828-2.95944E+05-1.40815E+02-6.81721E+02 1.82172E+02-4.40541E-09 1.28704E-09
 -1       829-2.95880E+05 7.11950E+01-7.89884E+02-4.31317E+02 7.60778E-11 3.78634E-10
 -1       830-2.96139E+05-4.76686E+02-1.54016E+03 5.52524E+02 2.95989E-09 9.40034E-09
 -1       831-2.95697E+05 4.05130E+02-2.55318E+03-5.54490E+02-2.25757E-09 5.48039E-09
 -1       832-2.97370E+05-2.99467E+03-6.22185E+03 6.22181E+02-1.72857E-09 2.84990E-09
 -1       833-2.94650E+05 2.58748E+03-9.88840E+03-5.00974E+02-1.89619E-09-2.05819E-09
 -1       834-3.04789E+05-1.91092E+04-2.70128E+04 3.61536E+02-6.65914E-10 5.09317E-10
 -1       835-2.88280E+05 1.65069E+04-3.81828E+04-2.93832E+02 5.39639E-09-1.74805E-09
 -1       836-9.70494E+02 2.71751E+05 1.64433E+04-1.99708E+04 6.61203E-10 1.42290E-09
 -1       837 3.60092E+03 2.76854E+05 1.40556E+04-4.01273E+04 1.33264E-09 5.73164E-09
 -1       838-3.63823E+02 2.73165E+05 1.45178E+04-1.98996E+04 1.24692E-09 1.12491E-08
 -1       839 9.31007E+03 2.81107E+05 2.76567E+04-4.01597E+04 1.71303E-09 6.57096E-09
 -1       840-2.81084E+03 2.67455E+05 4.41846E+04-1.99371E+04 1.04592E-09-9.44851E-10
 -1       856-8.00028E+04 7.44227E+03-1.96127E+04-4.30335E+02-9.00172E-10-9.21318E-10
 -1       857-8.81021E+04-8.72972E+03-1.35026E+04 4.57858E+03 4.97181E-10-1.23737E-09
 -1       858-8.32034E+04 1.04280E+03-5.08991E+03-4.51781E+02-2.45882E-09 7.80346E-10
 -1       859-8.44271E+04-1.21308E+03-3.07368E+03 4.61262E+03 1.20475E-09 4.48676E-09
 -1       860-8.36818E+04 1.45057E+02-1.29173E+03-4.64492E+02 1.34597E-09 3.88872E-09
 -1       861-8.38763E+04-1.60563E+02-7.18071E+02 4.63003E+03-5.71069E-09-9.24071E-09
 -1       862-8.37563E+04 1.91643E+01-3.13478E+02-4.69218E+02 3.85462E-09 3.35962E-09
 -1       863-8.37876E+04-1.11550E+01-1.48210E+02 4.63222E+03 8.09245E-09-6.10305E-09
 -1       864-8.37707E+04-1.04579E+00-3.27918E+01-4.66687E+02 3.66209E-09-7.20249E-10
 -1       865-8.37571E+04 3.01746E+01 6.62942E+01 4.61935E+03 4.23847E-09-2.98658E-09
 -1       866-8.37851E+04-2.26031E+01 1.72866E+02-4.56345E+02-1.09387E-09-6.19778E-09
 -1       867-8.36650E+04 1.88720E+02 4.50874E+02 4.59125E+03 1.09779E-09-2.63635E-09
 -1       868-8.38593E+04-1.57959E+02 7.55122E+02-4.38584E+02 3.91202E-09 4.99213E-09
 -1       869-8.31034E+04 1.31187E+03 2.02026E+03 4.54477E+03-1.76851E-09-2.85215E-09
 -1       870-8.43415E+04-1.11705E+03 2.93027E+03-4.09871E+02-2.01226E-10-6.54325E-09
 -1       871-4.29400E+03-9.74656E+03-1.40197E+04 9.25423E+04 1.82808E-09 1.03410E-08
 -1       872-1.84169E+03-1.28983E+04-5.73606E+03 1.19978E+05 2.66209E-09 3.03407E-09
 -1       873-1.78918E+01-1.14255E+04 7.61813E+02 9.23392E+04 1.70166E-09-7.58894E-09
 -1       874 2.15712E+03-9.42264E+03 7.82444E+03 1.20018E+05 3.14822E-09-6.11999E-09
 -1       875 5.05558E+03-1.32814E+04 1.73882E+04 9.25096E+04 1.08594E-09-1.36833E-09
 -1       876 2.26391E+05 3.88814E+04 1.20086E+04 9.17042E+04 9.08813E-10-1.32159E-08
 -1       877 2.27097E+05 4.14983E+04 6.41293E+03 9.52345E+04 6.23459E-09 1.05729E-10
 -1       878 2.27513E+05 3.75527E+04 2.68670E+03 9.26904E+04 4.40900E-09-1.27711E-08
 -1       879 2.25464E+05 3.98710E+04 1.33845E+03 9.53185E+04 1.19030E-10 1.29494E-08
 -1       880 2.27594E+05 3.75382E+04 6.23193E+02 9.27306E+04 7.32371E-10-2.95790E-09
 -1       881 2.25355E+05 3.98018E+04 3.32126E+02 9.53011E+04 4.27372E-09-6.62477E-09
 -1       882 2.27602E+05 3.75482E+04 2.11325E+02 9.27318E+04 3.97995E-09-4.86231E-09
 -1       883 2.25347E+05 3.97985E+04 2.25325E+02 9.52959E+04 3.38741E-09 2.09470E-08
 -1       884 2.27598E+05 3.75458E+04 3.56751E+02 9.27319E+04 4.18106E-09 1.72508E-09
 -1       885 2.25376E+05 3.98035E+04 7.16215E+02 9.53048E+04 3.71256E-09-1.35550E-08
 -1       886 2.27570E+05 3.75248E+04 1.44300E+03 9.27291E+04 5.34445E-09 3.32534E-10
 -1       887 2.25629E+05 3.99698E+04 3.15187E+03 9.53414E+04-1.13781E-09-2.59251E-09
 -1       888 2.27371E+05 3.75598E+04 6.35107E+03 9.26282E+04 2.01547E-09-5.23596E-09
 -1       889 2.29413E+05 4.38993E+04 1.51721E+04 9.52222E+04 5.16259E-10-4.17708E-09
 -1       890 2.24783E+05 4.06336E+04 2.84163E+04 9.02052E+04-1.13528E-09 3.82261E-09
 -1       891-1.35564E+02-1.28079E+05-1.52398E+03 2.38253E+04 2.06455E-10 7.30688E-09
 -1       892-2.37195E+02-1.28446E+05-1.65324E+03 3.60624E+04 1.51226E-09 1.07580E-08
 -1       893-3.47525E+01-1.28126E+05-2.35789E+03 2.38302E+04 1.57434E-09 1.31249E-08
 -1       894-1.28038E+03-1.29346E+05-4.89228E+03 3.59334E+04-1.85446E-09-1.26358E-08
 -1       895-1.00288E+03-1.27106E+05-8.62022E+03 2.39528E+04 8.31506E-10-1.56242E-08
 -1       956-2.85771E+05-4.06922E+03-1.02329E+04 1.92801E+04-1.37516E-09 6.10771E-09
 -1       957-2.87791E+05-1.37567E+03-5.25308E+03 2.32183E+04-4.85670E-10-1.19894E-08
 -1       958-2.86680E+05-1.12682E+02-2.36672E+03 1.91589E+04 2.07365E-09-5.43400E-09
 -1       959-2.86841E+05-2.22734E+01-1.20885E+03 2.33504E+04-6.54836E-11-7.05495E-09
 -1       960-2.86762E+05 3.14675E+01-5.89327E+02 1.91472E+04-3.39514E-09-5.14774E-10
 -1       961-2.86773E+05 2.92940E+01-3.12617E+02 2.33638E+04-3.47904E-09 4.42333E-09
 -1       962-2.86779E+05 2.77821E+01-1.78866E+02 1.91454E+04-3.17209E-09 1.34628E-09
 -1       963-2.86770E+05 3.08582E+01-1.43427E+02 2.33662E+04-5.47334E-09 7.78232E-09
 -1       964-2.86783E+05 2.99190E+01-1.73950E+02 1.91447E+04-8.30482E-10-6.33167E-09
 -1       965-2.86781E+05 3.39114E+01-3.00452E+02 2.33662E+04 3.55455E-09-6.77210E-09
 -1       966-2.86774E+05 3.77980E+01-5.63956E+02 1.91454E+04-2.46928E-09-3.24962E-09
 -1       967-2.86854E+05-1.09219E+01-1.15665E+03 2.33584E+04-4.27099E-09-8.45944E-09
 -1       968-2.86702E+05-9.58697E+01-2.26358E+03 1.91526E+04 2.54522E-09 1.34159E-09
 -1       969-2.87771E+05-1.30190E+03-5.02578E+03 2.32742E+04 3.47677E-09 6.57272E-09
 -1       970-2.85837E+05-3.87857E+03-9.78928E+03 1.92316E+04 2.12822E-10-3.71074E-09
 -1       971-2.69484E+05-1.40875E+03-7.81600E+03 1.29211E+04-1.35879E-09 4.25715E-09
 -1       972-2.71383E+05-1.01113E+03-4.25654E+03 1.80379E+04-1.03500E-09-6.20184E-09
 -1       973-2.70353E+05-1.16327E+01-1.90607E+03 1.28135E+04-3.82897E-09-1.02305E-08
 -1       974-2.70484E+05-1.20674E+01-9.87488E+02 1.81546E+04-1.95450E-09 8.64793E-09
 -1       975-2.70421E+05 2.51685E+01-4.92641E+02 1.28035E+04 7.17591E-10-9.76911E-10
 -1       976-2.70431E+05 2.90526E+01-2.82474E+02 1.81667E+04-2.06273E-09-1.36379E-09
 -1       977-2.70434E+05 2.51132E+01-2.01895E+02 1.28012E+04 4.95629E-09-7.32598E-10
 -1       978-2.70435E+05 3.37317E+01-2.32009E+02 1.81700E+04 1.73591E-08-2.14152E-09
 -1       979-2.70434E+05 3.14563E+01-3.69109E+02 1.28002E+04-2.65288E-10 1.00367E-08
 -1       980-2.70462E+05 3.60354E+01-7.10412E+02 1.81706E+04-4.34333E-09-6.46958E-09
 -1       981-2.70411E+05 4.91495E+01-1.37470E+03 1.28006E+04-6.81359E-09 4.25661E-09
 -1       982-2.70650E+05-6.54611E+01-2.84080E+03 1.81651E+04-1.20397E-08 1.60843E-09
 -1       983-2.70238E+05-3.87620E+01-5.51933E+03 1.28059E+04-2.21371E-09 1.06729E-09
 -1       984-2.73305E+05-2.94781E+03-1.23598E+04 1.80920E+04-5.91854E-10 1.38798E-08
 -1       985-2.67740E+05-4.07743E+03-2.26965E+04 1.28782E+04 1.57388E-09 9.47330E-09
 -3
    1PSTEP                        13           7           1          
  100CL  107 5.47852E-01         409                     0    7           1
 -4  DISP        4    1
 -5  D1          1    2    1    0
 -5  D2          1    2    2    0
 -5  D3          1    2    3    0
 -5  ALL         1    2    0    0    1ALL
 -1         1 1.97117E-04 0.00000E+00 0.00000E+00
 -1         2 1.74638E-04-1.11606E-30-3.30872E-24
 -1         3 1.70573E-04 7.14923E-28-1.32349E-23
 -1         5 1.11443E-04 1.45223E-27 0.00000E+00
 -1         8 1.71707E-04-8.62037E-07 0.00000E+00
 -1         9 1.64321E-04-8.39665E-07 0.00000E+00
 -1        10 1.57568E-04-2.31006E-06 0.00000E+00
 -1        12 1.11230E-04 6.02334E-07-1.65436E-24
 -1        15 1.41382E-04-9.59725E-07 0.00000E+00
 -1        16 1.46817E-04-1.05459E-06 0.00000E+00
 -1        17 1.14480E-04-5.04305E-06 0.00000E+00
 -1        18 1.09397E-04 5.58711E-06 0.00000E+00
 -1        19 1.10591E-04 1.20155E-06 0.00000E+00
 -1        20 1.10738E-04 1.26708E-05 0.00000E+00
 -1        21 1.10129E-04 2.27855E-05 0.00000E+00
 -1        24 2.28744E-05-7.03823E-06 0.00000E+00
 -1        25 1.09630E-04 5.72958E-06 0.00000E+00
 -1        26 1.10508E-04 1.66791E-06 0.00000E+00
 -1        27 1.08845E-04 9.95750E-06 0.00000E+00
 -1        28 1.08378E-04 2.22756E-05 0.00000E+00
 -1        32 0.00000E+00 0.00000E+00 0.00000E+00
 -1        33 1.09197E-04 2.23481E-06 0.00000E+00
 -1        34 1.07566E-04 9.93154E-06 0.00000E+00
 -1        35 1.06031E-04 2.20042E-05 0.00000E+00
 -1        51 1.95468E-04-1.43757E-07 0.00000E+00
 -1        52 1.92409E-04-2.81214E-07 0.00000E+00
 -1        53 1.88216E-04-4.19825E-07 0.00000E+00
 -1        54 1.83176E-04-5.61328E-07 0.00000E+00
 -1        55 1.77576E-04-7.06641E-07-2.89513E-24
 -1        56 1.95437E-04-8.49408E-07 2.64698E-23
 -1        57 1.93823E-04-2.06728E-06 0.00000E+00
 -1        58 1.92302E-04-3.52183E-06-5.29396E-23
 -1        59 1.90816E-04-5.10106E-06 0.00000E+00
 -1        60 1.89326E-04-6.67331E-06 5.29396E-23
 -1        61 1.87785E-04-8.11171E-06 0.00000E+00
 -1        62 1.86149E-04-9.30004E-06-5.29396E-23
 -1        63 1.84380E-04-1.01334E-05 0.00000E+00
 -1        64 1.82450E-04-1.05372E-05 5.29396E-23
 -1        65 1.80338E-04-1.04552E-05 2.64698E-23
 -1        66 1.78037E-04-9.87276E-06 0.00000E+00
 -1        67 1.75553E-04-8.79626E-06 0.00000E+00
 -1        68 1.72901E-04-7.27530E-06 5.29396E-23
 -1        69 1.70116E-04-5.37463E-06-2.64698E-23
 -1        70 1.67223E-04-3.19902E-06 2.64698E-23
 -1        86 1.74321E-04-1.33548E-07-3.30872E-24
 -1        87 1.73371E-04-2.68000E-07-3.30872E-24
 -1        88 1.71833E-04-4.03225E-07 6.61744E-24
 -1        89 1.69756E-04-5.42652E-07 0.00000E+00
 -1        90 1.67223E-04-6.81976E-07-1.32349E-23
 -1       121 1.70209E-04-3.81852E-07 0.00000E+00
 -1       122 1.69118E-04-7.64228E-07 6.61744E-24
 -1       123 1.67303E-04-1.14764E-06 0.00000E+00
 -1       124 1.64768E-04-1.53268E-06 0.00000E+00
 -1       125 1.61520E-04-1.91968E-06 1.32349E-23
 -1       191 1.11437E-04 1.00393E-07 0.00000E+00
 -1       192 1.11419E-04 2.00785E-07-1.65436E-24
 -1       193 1.11390E-04 3.01177E-07 0.00000E+00
 -1       194 1.11348E-04 4.01568E-07 0.00000E+00
 -1       195 1.11295E-04 5.01954E-07 0.00000E+00
 -1       251 1.71244E-04 4.21496E-06 0.00000E+00
 -1       252 1.70776E-04 9.28838E-06 0.00000E+00
 -1       253 1.70311E-04 1.38030E-05 1.32349E-23
 -1       254 1.69849E-04 1.72140E-05 0.00000E+00
 -1       255 1.69391E-04 1.92205E-05-1.32349E-23
 -1       256 1.68935E-04 1.95481E-05-6.61744E-24
 -1       257 1.68477E-04 1.82934E-05 1.32349E-23
 -1       258 1.68017E-04 1.55827E-05 0.00000E+00
 -1       259 1.67554E-04 1.18642E-05 0.00000E+00
 -1       260 1.67089E-04 7.60499E-06 0.00000E+00
 -1       261 1.66624E-04 3.39174E-06 0.00000E+00
 -1       262 1.66161E-04-1.89856E-07-6.61744E-24
 -1       263 1.65701E-04-2.69372E-06 1.32349E-23
 -1       264 1.65243E-04-3.69387E-06 6.61744E-24
 -1       265 1.64785E-04-3.09704E-06 0.00000E+00
 -1       266 1.66653E-04-8.90365E-07-6.61744E-24
 -1       267 1.61599E-04-9.05178E-07-1.65436E-24
 -1       268 1.56544E-04-9.20847E-07 0.00000E+00
 -1       269 1.51490E-04-9.33980E-07 0.00000E+00
 -1       270 1.46436E-04-9.47054E-07 0.00000E+00
 -1       271 1.68695E-04 3.11847E-06 2.64698E-23
 -1       272 1.66050E-04 5.99837E-06-1.32349E-23
 -1       273 1.63787E-04 7.87152E-06 0.00000E+00
 -1       274 1.61862E-04 8.82959E-06 0.00000E+00
 -1       275 1.60238E-04 8.98622E-06 0.00000E+00
 -1       276 1.58867E-04 8.46638E-06 0.00000E+00
 -1       277 1.57697E-04 7.40803E-06-5.29396E-23
 -1       278 1.56673E-04 5.95811E-06 2.64698E-23
 -1       279 1.55738E-04 4.27080E-06 0.00000E+00
 -1       280 1.54833E-04 2.50442E-06 0.00000E+00
 -1       281 1.53898E-04 8.18604E-07-5.29396E-23
 -1       282 1.52874E-04-6.28233E-07 0.00000E+00
 -1       283 1.51704E-04-1.68232E-06 0.00000E+00
 -1       284 1.50336E-04-2.19507E-06 0.00000E+00
 -1       285 1.48713E-04-2.03125E-06 2.64698E-23
 -1       301 1.61089E-04-8.90769E-07-6.61744E-24
 -1       302 1.57850E-04-9.18576E-07 3.30872E-24
 -1       303 1.54704E-04-9.44851E-07-6.61744E-24
 -1       304 1.51750E-04-9.71210E-07 0.00000E+00
 -1       305 1.49089E-04-9.98844E-07 0.00000E+00
 -1       306 1.63877E-04-6.70357E-06 0.00000E+00
 -1       307 1.69045E-04-2.83433E-05 0.00000E+00
 -1       308 1.78430E-04-6.21176E-05 5.29396E-23
 -1       309 1.90359E-04-1.03514E-04 0.00000E+00
 -1       310 2.02756E-04-1.46321E-04-5.29396E-23
 -1       311 2.13519E-04-1.84226E-04 0.00000E+00
 -1       312 2.20822E-04-2.12009E-04 0.00000E+00
 -1       313 2.22963E-04-2.25202E-04-2.64698E-23
 -1       314 2.19233E-04-2.22546E-04 0.00000E+00
 -1       315 2.09305E-04-2.03906E-04 2.64698E-23
 -1       316 1.94271E-04-1.72585E-04 0.00000E+00
 -1       317 1.75692E-04-1.32730E-04 0.00000E+00
 -1       318 1.56026E-04-9.02925E-05 0.00000E+00
 -1       319 1.37865E-04-5.13793E-05 0.00000E+00
 -1       320 1.23379E-04-2.13788E-05-5.29396E-23
 -1       336 1.52769E-04-2.75128E-06 0.00000E+00
 -1       337 1.46985E-04-3.19845E-06 0.00000E+00
 -1       338 1.40238E-04-3.65126E-06 0.00000E+00
 -1       339 1.32552E-04-4.10983E-06 0.00000E+00
 -1       340 1.23955E-04-4.57561E-06 0.00000E+00
 -1       406 1.11153E-04 7.02701E-07 0.00000E+00
 -1       407 1.11064E-04 8.03036E-07 0.00000E+00
 -1       408 1.10964E-04 9.03309E-07 0.00000E+00
 -1       409 1.10851E-04 1.00340E-06 1.65436E-24
 -1       410 1.10727E-04 1.10312E-06 3.30872E-24
 -1       521 1.51737E-04-2.40846E-05-5.29396E-23
 -1       522 1.71673E-04-9.33131E-05 0.00000E+00
 -1       523 2.01665E-04-1.97379E-04 0.00000E+00
 -1       524 2.36859E-04-3.21681E-04 0.00000E+00
 -1       525 2.72309E-04-4.47000E-04 1.05879E-22
 -1       526 3.03071E-04-5.54020E-04 0.00000E+00
 -1       527 3.24309E-04-6.27624E-04 1.05879E-22
 -1       528 3.30916E-04-6.55808E-04 0.00000E+00
 -1       529 3.19855E-04-6.36471E-04 0.00000E+00
 -1       530 2.89506E-04-5.71600E-04 0.00000E+00
 -1       531 2.43123E-04-4.72411E-04 0.00000E+00
 -1       532 1.86311E-04-3.52544E-04-5.29396E-23
 -1       533 1.27922E-04-2.29610E-04 0.00000E+00
 -1       534 7.70864E-05-1.21390E-04 0.00000E+00
 -1       535 4.05311E-05-4.28927E-05 0.00000E+00
 -1       536 1.14249E-04 8.86830E-06 6.61744E-24
 -1       537 1.13887E-04 3.07509E-05 0.00000E+00
 -1       538 1.13418E-04 5.73531E-05 0.00000E+00
 -1       539 1.12912E-04 8.53987E-05 1.65436E-24
 -1       540 1.12462E-04 1.11228E-04 3.30872E-24
 -1       541 1.12141E-04 1.31193E-04 0.00000E+00
 -1       542 1.11940E-04 1.43174E-04 0.00000E+00
 -1       543 1.11806E-04 1.45093E-04 1.65436E-24
 -1       544 1.11647E-04 1.37445E-04 0.00000E+00
 -1       545 1.11383E-04 1.20778E-04-1.65436E-24
 -1       546 1.11005E-04 9.79563E-05 0.00000E+00
 -1       547 1.10550E-04 7.18809E-05 0.00000E+00
 -1       548 1.10108E-04 4.63035E-05 0.00000E+00
 -1       549 1.09763E-04 2.49737E-05 1.65436E-24
 -1       550 1.09532E-04 1.05344E-05 1.65436E-24
 -1       551 1.02266E-04-5.33359E-06-6.61744E-24
 -1       552 8.78190E-05-5.64682E-06 0.00000E+00
 -1       553 7.18919E-05-5.98008E-06-4.96308E-24
 -1       554 5.52497E-05-6.32623E-06 6.61744E-24
 -1       555 3.86572E-05-6.67442E-06 0.00000E+00
 -1       556 1.11149E-04 3.56523E-06 0.00000E+00
 -1       557 1.08549E-04 1.03009E-05 0.00000E+00
 -1       558 1.06604E-04 1.53268E-05 0.00000E+00
 -1       559 1.05243E-04 1.88192E-05 0.00000E+00
 -1       560 1.04396E-04 2.09544E-05 0.00000E+00
 -1       561 1.03994E-04 2.19096E-05 0.00000E+00
 -1       562 1.03970E-04 2.18624E-05 0.00000E+00
 -1       563 1.04254E-04 2.09908E-05 0.00000E+00
 -1       564 1.04781E-04 1.94728E-05 0.00000E+00
 -1       565 1.05482E-04 1.74868E-05 0.00000E+00
 -1       566 1.06292E-04 1.52111E-05 0.00000E+00
 -1       567 1.07142E-04 1.28243E-05 0.00000E+00
 -1       568 1.07968E-04 1.05047E-05 0.00000E+00
 -1       569 1.08702E-04 8.43083E-06 0.00000E+00
 -1       570 1.09278E-04 6.78088E-06 0.00000E+00
 -1       571 1.09469E-04 5.32738E-06 1.24077E-24
 -1       572 1.09543E-04 5.02127E-06 8.27181E-25
 -1       573 1.09618E-04 4.67787E-06 8.27181E-25
 -1       574 1.09692E-04 4.30676E-06 8.27181E-25
 -1       575 1.09767E-04 3.91754E-06 0.00000E+00
 -1       576 1.09842E-04 3.51984E-06 8.27181E-25
 -1       577 1.09917E-04 3.12334E-06 0.00000E+00
 -1       578 1.09992E-04 2.73771E-06-1.65436E-24
 -1       579 1.10067E-04 2.37262E-06 0.00000E+00
 -1       580 1.10142E-04 2.03772E-06 0.00000E+00
 -1       581 1.10217E-04 1.74271E-06 0.00000E+00
 -1       582 1.10291E-04 1.49722E-06 0.00000E+00
 -1       583 1.10366E-04 1.31092E-06 0.00000E+00
 -1       584 1.10441E-04 1.19334E-06 0.00000E+00
 -1       585 1.10516E-04 1.15398E-06 0.00000E+00
 -1       586 1.09393E-04 5.61240E-06-1.65436E-24
 -1       587 1.09362E-04 5.63709E-06 1.03398E-25
 -1       588 1.09338E-04 5.66151E-06 0.00000E+00
 -1       589 1.09353E-04 5.68550E-06 0.00000E+00
 -1       590 1.09440E-04 5.70875E-06 0.00000E+00
 -1       591 1.09458E-04 5.37202E-06-1.29247E-26
 -1       592 1.09528E-04 5.12517E-06 0.00000E+00
 -1       593 1.09607E-04 4.85311E-06-4.13590E-25
 -1       594 1.09694E-04 4.56161E-06-4.13590E-25
 -1       595 1.09785E-04 4.25654E-06 0.00000E+00
 -1       596 1.09880E-04 3.94371E-06 0.00000E+00
 -1       597 1.09975E-04 3.62895E-06 0.00000E+00
 -1       598 1.10068E-04 3.31805E-06 2.06795E-25
 -1       599 1.10158E-04 3.01682E-06 4.13590E-25
 -1       600 1.10242E-04 2.73107E-06 0.00000E+00
 -1       601 1.10318E-04 2.46660E-06 0.00000E+00
 -1       602 1.10385E-04 2.22923E-06 0.00000E+00
 -1       603 1.10438E-04 2.02477E-06-4.13590E-25
 -1       604 1.10478E-04 1.85908E-06 5.16988E-26
 -1       605 1.10501E-04 1.73793E-06 8.27181E-25
 -1       606 1.10604E-04 1.41673E-06 0.00000E+00
 -1       607 1.10614E-04 1.72826E-06 1.65436E-24
 -1       608 1.10624E-04 2.13049E-06-3.30872E-24
 -1       609 1.10633E-04 2.61703E-06 1.65436E-24
 -1       610 1.10642E-04 3.18149E-06 0.00000E+00
 -1       611 1.10651E-04 3.81734E-06 1.65436E-24
 -1       612 1.10660E-04 4.51809E-06 0.00000E+00
 -1       613 1.10669E-04 5.27724E-06 0.00000E+00
 -1       614 1.10678E-04 6.08826E-06 0.00000E+00
 -1       615 1.10686E-04 6.94464E-06-8.27181E-25
 -1       616 1.10695E-04 7.83988E-06 0.00000E+00
 -1       617 1.10704E-04 8.76745E-06 0.00000E+00
 -1       618 1.10713E-04 9.72084E-06 0.00000E+00
 -1       619 1.10721E-04 1.06935E-05-4.13590E-25
 -1       620 1.10730E-04 1.16790E-05 0.00000E+00
 -1       621 1.10488E-04 1.27940E-06 1.65436E-24
 -1       622 1.10435E-04 1.35756E-06 0.00000E+00
 -1       623 1.10420E-04 1.43570E-06 0.00000E+00
 -1       624 1.10434E-04 1.51371E-06 0.00000E+00
 -1       625 1.10467E-04 1.59158E-06-1.65436E-24
 -1       626 1.10596E-04 1.44282E-06 0.00000E+00
 -1       627 1.10572E-04 1.76261E-06-1.65436E-24
 -1       628 1.10522E-04 2.15325E-06 0.00000E+00
 -1       629 1.10448E-04 2.60660E-06 1.65436E-24
 -1       630 1.10354E-04 3.11450E-06 0.00000E+00
 -1       631 1.10243E-04 3.66876E-06 0.00000E+00
 -1       632 1.10117E-04 4.26118E-06 0.00000E+00
 -1       633 1.09980E-04 4.88357E-06-1.65436E-24
 -1       634 1.09835E-04 5.52772E-06 0.00000E+00
 -1       635 1.09685E-04 6.18543E-06-1.65436E-24
 -1       636 1.09532E-04 6.84853E-06-3.30872E-24
 -1       637 1.09381E-04 7.50880E-06 8.27181E-25
 -1       638 1.09234E-04 8.15804E-06-1.65436E-24
 -1       639 1.09094E-04 8.78807E-06 0.00000E+00
 -1       640 1.08963E-04 9.39065E-06-1.65436E-24
 -1       656 1.09962E-04 1.22294E-05 6.61744E-24
 -1       657 1.09565E-04 1.17703E-05 6.61744E-24
 -1       658 1.09407E-04 1.13126E-05-1.32349E-23
 -1       659 1.09344E-04 1.08552E-05 3.30872E-24
 -1       660 1.09211E-04 1.03965E-05 0.00000E+00
 -1       661 1.10452E-04 1.36329E-05 0.00000E+00
 -1       662 1.10192E-04 1.45339E-05-8.27181E-25
 -1       663 1.09953E-04 1.53762E-05-1.65436E-24
 -1       664 1.09737E-04 1.61631E-05 0.00000E+00
 -1       665 1.09539E-04 1.68975E-05-1.65436E-24
 -1       666 1.09361E-04 1.75825E-05 0.00000E+00
 -1       667 1.09200E-04 1.82208E-05 1.65436E-24
 -1       668 1.09056E-04 1.88151E-05 0.00000E+00
 -1       669 1.08927E-04 1.93681E-05-1.65436E-24
 -1       670 1.08813E-04 1.98821E-05 0.00000E+00
 -1       671 1.08712E-04 2.03597E-05-1.65436E-24
 -1       672 1.08624E-04 2.08030E-05 0.00000E+00
 -1       673 1.08548E-04 2.12144E-05 0.00000E+00
 -1       674 1.08483E-04 2.15957E-05-8.27181E-25
 -1       675 1.08428E-04 2.19494E-05 4.13590E-25
 -1       676 1.09836E-04 2.27000E-05 0.00000E+00
 -1       677 1.09544E-04 2.26146E-05 0.00000E+00
 -1       678 1.09251E-04 2.25292E-05 3.30872E-24
 -1       679 1.08960E-04 2.24440E-05 0.00000E+00
 -1       680 1.08669E-04 2.23589E-05-1.65436E-24
 -1       771 1.68807E-05 5.41586E-06 0.00000E+00
 -1       772 1.17424E-05 1.56321E-05 0.00000E+00
 -1       773 7.42093E-06 2.37278E-05 5.29396E-23
 -1       774 3.86220E-06 2.98310E-05 0.00000E+00
 -1       775 1.01263E-06 3.40736E-05-5.29396E-23
 -1       776-1.18360E-06 3.65936E-05 0.00000E+00
 -1       777-2.78287E-06 3.75324E-05 0.00000E+00
 -1       778-3.84286E-06 3.70366E-05 0.00000E+00
 -1       779-4.42154E-06 3.52555E-05 0.00000E+00
 -1       780-4.57801E-06 3.23427E-05-2.64698E-23
 -1       781-4.37143E-06 2.84541E-05-5.29396E-23
 -1       782-3.86185E-06 2.37488E-05 2.64698E-23
 -1       783-3.10930E-06 1.83873E-05 0.00000E+00
 -1       784-2.17443E-06 1.25326E-05-1.32349E-23
 -1       785-1.11783E-06 6.34852E-06 0.00000E+00
 -1       786 1.09682E-04 5.32593E-06 0.00000E+00
 -1       787 1.09736E-04 4.95172E-06-4.13590E-25
 -1       788 1.09791E-04 4.60188E-06-1.65436E-24
 -1       789 1.09846E-04 4.27137E-06 8.27181E-25
 -1       790 1.09901E-04 3.95763E-06 0.00000E+00
 -1       791 1.09956E-04 3.65812E-06-8.27181E-25
 -1       792 1.10011E-04 3.37213E-06 0.00000E+00
 -1       793 1.10067E-04 3.09898E-06 0.00000E+00
 -1       794 1.10122E-04 2.83960E-06-1.65436E-24
 -1       795 1.10177E-04 2.59498E-06 8.27181E-25
 -1       796 1.10233E-04 2.36799E-06-1.65436E-24
 -1       797 1.10288E-04 2.16151E-06 0.00000E+00
 -1       798 1.10343E-04 1.98107E-06 1.65436E-24
 -1       799 1.10398E-04 1.83224E-06-8.27181E-25
 -1       800 1.10454E-04 1.72462E-06 0.00000E+00
 -1       801 1.01911E-04 4.98299E-06 1.32349E-23
 -1       802 7.79011E-05 3.95999E-06 0.00000E+00
 -1       803 4.72433E-05 2.77527E-06 0.00000E+00
 -1       804 1.98070E-05 1.67220E-06 0.00000E+00
 -1       805 2.02101E-06 7.69092E-07 0.00000E+00
 -1       806 1.09696E-04 5.27556E-06-1.65436E-24
 -1       807 1.09752E-04 4.83693E-06-8.27181E-25
 -1       808 1.09800E-04 4.41788E-06-3.30872E-24
 -1       809 1.09839E-04 4.02174E-06-8.27181E-25
 -1       810 1.09868E-04 3.65183E-06 0.00000E+00
 -1       811 1.09886E-04 3.31137E-06 8.27181E-25
 -1       812 1.09892E-04 3.00361E-06 0.00000E+00
 -1       813 1.09884E-04 2.73177E-06-8.27181E-25
 -1       814 1.09862E-04 2.49905E-06-1.65436E-24
 -1       815 1.09824E-04 2.30867E-06-1.65436E-24
 -1       816 1.09769E-04 2.16385E-06-3.30872E-24
 -1       817 1.09695E-04 2.06778E-06-8.27181E-25
 -1       818 1.09602E-04 2.02366E-06 0.00000E+00
 -1       819 1.09489E-04 2.03468E-06 8.27181E-25
 -1       820 1.09354E-04 2.10403E-06-1.65436E-24
 -1       821 1.10410E-04 1.59567E-06-8.27181E-25
 -1       822 1.10306E-04 1.44276E-06-8.27181E-25
 -1       823 1.10203E-04 1.28264E-06 0.00000E+00
 -1       824 1.10098E-04 1.18877E-06 0.00000E+00
 -1       825 1.09993E-04 1.22034E-06-3.30872E-24
 -1       826 1.09888E-04 1.43594E-06-1.65436E-24
 -1       827 1.09783E-04 1.85454E-06-3.30872E-24
 -1       828 1.09678E-04 2.49416E-06-1.65436E-24
 -1       829 1.09573E-04 3.32523E-06 0.00000E+00
 -1       830 1.09467E-04 4.31727E-06 1.65436E-24
 -1       831 1.09362E-04 5.40519E-06 3.30872E-24
 -1       832 1.09256E-04 6.52340E-06 0.00000E+00
 -1       833 1.09151E-04 7.59979E-06 3.30872E-24
 -1       834 1.09047E-04 8.56248E-06-8.27181E-25
 -1       835 1.08943E-04 9.36395E-06 8.27181E-25
 -1       836 1.10450E-04 1.76227E-06-3.30872E-24
 -1       837 1.10279E-04 1.85875E-06 0.00000E+00
 -1       838 1.10030E-04 1.95506E-06 0.00000E+00
 -1       839 1.09743E-04 2.05075E-06-8.27181E-25
 -1       840 1.09453E-04 2.14628E-06 0.00000E+00
 -1       856 1.08819E-04 1.05072E-05-4.13590E-25
 -1       857 1.08790E-04 1.11698E-05 0.00000E+00
 -1       858 1.08762E-04 1.19275E-05-4.13590E-25
 -1       859 1.08733E-04 1.27626E-05 0.00000E+00
 -1       860 1.08703E-04 1.36572E-05 8.27181E-25
 -1       861 1.08674E-04 1.45932E-05-4.13590E-25
 -1       862 1.08644E-04 1.55527E-05 0.00000E+00
 -1       863 1.08614E-04 1.65176E-05 0.00000E+00
 -1       864 1.08585E-04 1.74699E-05 0.00000E+00
 -1       865 1.08555E-04 1.83916E-05 0.00000E+00
 -1       866 1.08526E-04 1.92647E-05 8.27181E-25
 -1       867 1.08496E-04 2.00712E-05 0.00000E+00
 -1       868 1.08467E-04 2.07933E-05-8.27181E-25
 -1       869 1.08437E-04 2.14131E-05 0.00000E+00
 -1       870 1.08408E-04 2.19131E-05-8.27181E-25
 -1       871 1.08514E-04 9.95635E-06-8.27181E-25
 -1       872 1.08297E-04 9.95285E-06 0.00000E+00
 -1       873 1.08143E-04 9.94893E-06 4.13590E-25
 -1       874 1.08003E-04 9.94444E-06 0.00000E+00
 -1       875 1.07827E-04 9.93944E-06 0.00000E+00
 -1       876 1.08739E-04 1.05174E-05 0.00000E+00
 -1       877 1.08616E-04 1.11322E-05 0.00000E+00
 -1       878 1.08474E-04 1.17952E-05 0.00000E+00
 -1       879 1.08317E-04 1.25005E-05-1.65436E-24
 -1       880 1.08146E-04 1.32416E-05 0.00000E+00
 -1       881 1.07965E-04 1.40125E-05 1.65436E-24
 -1       882 1.07774E-04 1.48071E-05-3.30872E-24
 -1       883 1.07577E-04 1.56191E-05-1.65436E-24
 -1       884 1.07375E-04 1.64424E-05 0.00000E+00
 -1       885 1.07172E-04 1.72709E-05-1.65436E-24
 -1       886 1.06969E-04 1.80984E-05 0.00000E+00
 -1       887 1.06768E-04 1.89189E-05 1.65436E-24
 -1       888 1.06573E-04 1.97260E-05 0.00000E+00
 -1       889 1.06384E-04 2.05136E-05 0.00000E+00
 -1       890 1.06204E-04 2.12756E-05 8.27181E-25
 -1       891 1.08109E-04 2.22302E-05 0.00000E+00
 -1       892 1.07821E-04 2.21846E-05-8.27181E-25
 -1       893 1.07491E-04 2.21391E-05-1.65436E-24
 -1       894 1.07097E-04 2.20937E-05 0.00000E+00
 -1       895 1.06618E-04 2.20483E-05 6.20385E-25
 -1       956 1.09097E-04 2.49218E-06 3.30872E-24
 -1       957 1.08996E-04 2.81361E-06 8.27181E-25
 -1       958 1.08894E-04 3.19213E-06-1.65436E-24
 -1       959 1.08791E-04 3.62035E-06 8.27181E-25
 -1       960 1.08689E-04 4.09088E-06-1.65436E-24
 -1       961 1.08587E-04 4.59629E-06-1.65436E-24
 -1       962 1.08484E-04 5.12913E-06 0.00000E+00
 -1       963 1.08382E-04 5.68197E-06 1.65436E-24
 -1       964 1.08280E-04 6.24736E-06 0.00000E+00
 -1       965 1.08177E-04 6.81785E-06 1.65436E-24
 -1       966 1.08075E-04 7.38600E-06 0.00000E+00
 -1       967 1.07973E-04 7.94436E-06-1.65436E-24
 -1       968 1.07871E-04 8.48547E-06 0.00000E+00
 -1       969 1.07768E-04 9.00194E-06 0.00000E+00
 -1       970 1.07667E-04 9.48635E-06 3.30872E-24
 -1       971 1.07472E-04 1.03941E-05 1.65436E-24
 -1       972 1.07376E-04 1.09400E-05 1.65436E-24
 -1       973 1.07279E-04 1.15599E-05 1.65436E-24
 -1       974 1.07183E-04 1.22444E-05 0.00000E+00
 -1       975 1.07087E-04 1.29839E-05-3.30872E-24
 -1       976 1.06990E-04 1.37688E-05 1.65436E-24
 -1       977 1.06894E-04 1.45895E-05-3.30872E-24
 -1       978 1.06797E-04 1.54364E-05 0.00000E+00
 -1       979 1.06700E-04 1.63000E-05 0.00000E+00
 -1       980 1.06604E-04 1.71706E-05-1.65436E-24
 -1       981 1.06507E-04 1.80386E-05 0.00000E+00
 -1       982 1.06411E-04 1.88944E-05 1.65436E-24
 -1       983 1.06314E-04 1.97284E-05 0.00000E+00
 -1       984 1.06219E-04 2.05311E-05 0.00000E+00
 -1       985 1.06123E-04 2.12928E-05-1.65436E-24
 -3
    1PSTEP                        14           7           1          
  100CL  107 5.47852E-01         409                     0    7           1
 -4  STRESS      6    1
 -5  SXX         1    4    1    1
 -5  SYY         1    4    2    2
 -5  SZZ         1    4    3    3
 -5  SXY         1    4    1    2
 -5  SYZ         1    4    2    3
 -5  SZX         1    4    3    1
 -1         1-2.34551E+06-9.91752E+05-4.97455E+05-1.26711E+06 1.23691E-10-1.13068E-08
 -1         2 2.57275E+03-3.78446E+05 8.37452E+03-1.02882E+03-7.60849E-11 3.34573E-08
 -1         3-2.23518E+02-1.08983E+06 4.01315E+02-6.26953E+02-2.23544E-10-2.66518E-08
 -1         5-1.75877E+00 2.87251E+05 7.39191E+00 8.03950E-02 5.53905E-11-1.58957E-09
 -1         8-1.12277E+06-4.03627E+05-1.14381E+05-5.51444E+05 2.51021E-10 4.89672E-09
 -1         9-2.23922E+06-7.74761E+05-2.84236E+05-7.19078E+05 5.80330E-09 1.34984E-08
 -1        10-1.90216E+03-1.16106E+06-2.40024E+03-4.62817E+03-2.23372E-09-7.50833E-09
 -1        12 1.27447E+00 2.87266E+05 2.39335E+02 6.29741E-01 5.12443E-11-1.80820E-08
 -1        15 1.99585E+03 1.09685E+03 6.45160E+03 4.36223E+00-1.78602E-10-6.50829E-09
 -1        16-2.67067E+06-1.24034E+06-4.37146E+05-1.32710E+06 1.17094E-08 1.08848E-08
 -1        17-1.31024E+06-7.23283E+05-2.49068E+05-6.26290E+05 2.82744E-09 1.48255E-08
 -1        18-3.47451E+04-1.33415E+04-3.09593E+04-7.56953E+04 5.63728E-09-6.98947E-09
 -1        19 9.14955E+04 1.06732E+05-6.66541E+02 1.79247E+04-3.21415E-10-7.55899E-09
 -1        20-4.39700E+04-4.32718E+05-9.58568E+04 2.88093E+04 3.63101E-09-5.34358E-09
 -1        21-3.96540E+01-2.44617E+05-7.84040E+02-4.90886E+01-5.16409E-09-1.65496E-08
 -1        24-3.02409E+06-7.28623E+05-3.28550E+05-1.07447E+06-4.19920E-08-2.05764E-08
 -1        25-6.65950E+04-4.26432E+05-8.13163E+04-1.21068E+05-3.88900E-10 1.00117E-09
 -1        26-2.89694E+04 7.08439E+04-1.63452E+04-6.90022E+03 1.38753E-09 1.04919E-08
 -1        27-6.56907E+04-2.36269E+05-8.81754E+04 5.33341E+04 6.30954E-09-4.09394E-09
 -1        28 1.88557E+04-6.82375E+04 1.38599E+04 2.05816E+04 2.08649E-09 4.55664E-09
 -1        32-1.13105E+06-1.19102E+06 1.50966E+05-5.71907E+05-2.51421E-08 3.89406E-10
 -1        33-1.37183E+05 6.86531E+04 2.44636E+04-3.57609E+04 2.70404E-10 3.23053E-09
 -1        34-1.74919E+05-1.76953E+04 4.42378E+02 5.48428E+04 2.48832E-09-2.80443E-09
 -1        35-1.92017E+04-2.71084E+04-1.06735E+03 4.26134E+04 7.54568E-09 1.62739E-09
 -1        51 2.19098E+04-3.50267E+05 5.32616E+04-9.66708E+05 2.91038E-11 1.14524E-08
 -1        52 1.16595E+04-3.46582E+05 3.31160E+04-1.12742E+06-1.38243E-10-1.62836E-08
 -1        53 7.38686E+03-3.61370E+05 2.53445E+04-9.63300E+05 5.60249E-10-1.98052E-08
 -1        54 2.03317E+04-3.59943E+05 3.72187E+04-1.13094E+06 8.29459E-10-2.19843E-08
 -1        55 3.98893E+04-3.73741E+05 6.43338E+04-9.62741E+05 4.80213E-10-1.61890E-09
 -1        56-4.48159E+06-5.01492E+05-3.66083E+05-1.73177E+06-3.79805E-09-5.52973E-10
 -1        57-4.64172E+06-8.20513E+05-2.46909E+05-1.70292E+06-1.38243E-10 2.54950E-08
 -1        58-4.55494E+06-6.17901E+05-8.60857E+04-1.70897E+06-4.16549E-10 1.56724E-08
 -1        59-4.55708E+06-6.83575E+05-5.13941E+04-1.72962E+06 2.85581E-10-2.29920E-08
 -1        60-4.56525E+06-6.34534E+05-2.00748E+04-1.70634E+06-3.10229E-09 1.00690E-08
 -1        61-4.54706E+06-6.62091E+05-1.13787E+04-1.73031E+06 5.93582E-09-7.58052E-09
 -1        62-4.56472E+06-6.38900E+05-5.42481E+03-1.70839E+06-7.36691E-10 6.60668E-09
 -1        63-4.55097E+06-6.54092E+05-4.33830E+03-1.72415E+06 3.28907E-09 2.22440E-09
 -1        64-4.56124E+06-6.42523E+05-4.84965E+03-1.71245E+06 9.54515E-10 2.00021E-08
 -1        65-4.55984E+06-6.48261E+05-9.59941E+03-1.71502E+06 7.39988E-10 1.29144E-08
 -1        66-4.55583E+06-6.44801E+05-1.68014E+04-1.71748E+06 9.52525E-10-4.93856E-09
 -1        67-4.57781E+06-6.56465E+05-4.27554E+04-1.70345E+06 1.52761E-09-7.85349E-09
 -1        68-4.54347E+06-6.34722E+05-7.16385E+04-1.72394E+06 2.56296E-09 4.00541E-09
 -1        69-4.65291E+06-7.65826E+05-2.05367E+05-1.67621E+06 7.69433E-10-6.27188E-09
 -1        70-4.48168E+06-5.38624E+05-3.04556E+05-1.74373E+06-1.94268E-09-4.07454E-09
 -1        86-1.29174E+03-3.81172E+05 8.95008E+03 5.14401E+02 1.05274E-09 1.52920E-08
 -1        87 8.54498E+03-3.75620E+05 1.86916E+04-1.97337E+03 1.75874E-09 1.64323E-09
 -1        88-7.24104E+03-3.84000E+05 2.86317E+04 1.45897E+03 2.45927E-09 2.84723E-09
 -1        89 5.39405E+04-3.54706E+05 7.71596E+04-3.58348E+03 3.67072E-09-1.07767E-08
 -1        90-4.65227E+04-4.02066E+05 1.09126E+05 2.12491E+03 3.48518E-09 1.80989E-09
 -1       121-3.46382E+02-1.09075E+06 3.10429E+02 3.12824E+02 5.47971E-10 1.86446E-09
 -1       122-9.17051E+01-1.08976E+06 8.66850E+02-1.25245E+03-2.18972E-09 1.01691E-08
 -1       123-4.31981E+02-1.09085E+06 1.33446E+03 9.35771E+02 1.63436E-09 1.32059E-08
 -1       124 1.46536E+03-1.08885E+06 3.60284E+03-2.69018E+03-4.20005E-09 1.85028E-08
 -1       125-1.42264E+03-1.09173E+06 5.49812E+03 1.74893E+03 2.70575E-09-1.56251E-09
 -1       191-2.09347E+00 2.87276E+05 9.01688E+00-4.03330E-02 5.91782E-11-1.13891E-09
 -1       192-2.43618E+00 2.87251E+05 1.56417E+01 3.54101E-01 7.24192E-11-3.96085E-09
 -1       193-3.89534E+00 2.87276E+05 2.92653E+01-3.14836E-01 8.10072E-11 1.95746E-09
 -1       194-4.61650E+00 2.87254E+05 5.91407E+01 8.42141E-01 5.83009E-11 2.53863E-10
 -1       195-7.35827E+00 2.87274E+05 1.15858E+02-5.30874E-01 1.48738E-10-2.13674E-08
 -1       251-1.29856E+06 1.30873E+04-3.08280E+04-1.35456E+04 3.95204E-10 5.23687E-09
 -1       252-1.31152E+06-1.50485E+04-2.16446E+04 2.23734E+04 1.48393E-09-3.07828E-08
 -1       253-1.30430E+06 1.96276E+03-8.08782E+03-1.04164E+04 1.83945E-10-1.09881E-08
 -1       254-1.30397E+06-2.24380E+03-4.59215E+03 1.14386E+04-2.18733E-10-4.81168E-09
 -1       255-1.30594E+06 2.07046E+02-2.29072E+03-2.61010E+03-3.70733E-10-1.62390E-09
 -1       256-1.30247E+06-2.74328E+02-6.43346E+02-5.16253E+03 1.28927E-09-6.22086E-09
 -1       257-1.30574E+06-3.95179E+01-6.12460E+02 6.18435E+03 1.30740E-09 2.78192E-10
 -1       258-1.30367E+06 1.04002E+02 1.79604E+02-1.95524E+04-1.16935E-09-1.34204E-09
 -1       259-1.30488E+06-6.50624E+01 3.05082E+02 1.17800E+04-2.02948E-09-1.47736E-09
 -1       260-1.30445E+06 4.47720E+02 1.00343E+03-2.48928E+04 3.40297E-10 6.13642E-09
 -1       261-1.30506E+06-3.09352E+02 1.72537E+03 1.15252E+04 3.77520E-09 7.73275E-09
 -1       262-1.30249E+06 2.19429E+03 4.61262E+03-1.86535E+04-7.50902E-10 8.13424E-09
 -1       263-1.30673E+06-1.88815E+03 6.77932E+03 5.54014E+03-1.73941E-11 1.54478E-09
 -1       264-1.29590E+06 1.35703E+04 1.96312E+04-3.82360E+03-5.42798E-10 1.97815E-09
 -1       265-1.31151E+06-1.17471E+04 2.68347E+04-3.30474E+03-1.19564E-09 1.31131E-08
 -1       266-3.61305E+04-1.68920E+04 8.47852E+04-9.33503E+01 1.23691E-10 7.51993E-09
 -1       267 4.18864E+04 1.96921E+04 5.99185E+04 1.07692E+02-1.18234E-11-1.87454E-08
 -1       268-5.61684E+03-2.78872E+03 2.22718E+04-1.37227E+01-3.91083E-11 4.01945E-09
 -1       269 6.63190E+03 3.33776E+03 1.44760E+04 1.59840E+01-5.09317E-11 1.07007E-08
 -1       270-9.95455E+02-5.48409E+02 6.98776E+03-2.16918E+00-2.27374E-11 1.51335E-08
 -1       271-3.37207E+06-4.21975E+05-2.55465E+05-1.31354E+06 4.58385E-10 3.95812E-09
 -1       272-3.46060E+06-6.11454E+05-1.64254E+05-1.31462E+06 1.35879E-09-1.65892E-09
 -1       273-3.42143E+06-4.84387E+05-6.03571E+04-1.30068E+06-2.19643E-10 1.12777E-09
 -1       274-3.40209E+06-5.35705E+05-3.37473E+04-1.33482E+06 3.31420E-09 1.67129E-08
 -1       275-3.42978E+06-4.89237E+05-1.40631E+04-1.29677E+06 4.15639E-10 3.41515E-09
 -1       276-3.39160E+06-5.30686E+05-7.43314E+03-1.34153E+06-2.83671E-09 1.62029E-08
 -1       277-3.43231E+06-4.88218E+05-3.65868E+03-1.29467E+06-2.61025E-09 4.22006E-10
 -1       278-3.38860E+06-5.32203E+05-2.62215E+03-1.34482E+06-2.18802E-09 1.68945E-08
 -1       279-3.43314E+06-4.87407E+05-2.79309E+03-1.29378E+06-1.32104E-10-3.00361E-10
 -1       280-3.38861E+06-5.33297E+05-5.11323E+03-1.34540E+06-1.16006E-09-1.05202E-08
 -1       281-3.43240E+06-4.87114E+05-9.30102E+03-1.29413E+06 1.59889E-09-8.52833E-09
 -1       282-3.39427E+06-5.37941E+05-2.23028E+04-1.34262E+06 3.39696E-09 5.16775E-09
 -1       283-3.42736E+06-4.83461E+05-3.97292E+04-1.29620E+06-8.09450E-11 7.06132E-09
 -1       284-3.43227E+06-5.88325E+05-1.08242E+05-1.32975E+06-3.16959E-10-1.65510E-08
 -1       285-3.39485E+06-4.42406E+05-1.68335E+05-1.30470E+06-1.20053E-10-7.66886E-09
 -1       301 2.20890E+04-6.24441E+04 1.62323E+05-1.19574E+05-2.69210E-10-4.81691E-09
 -1       302 2.31995E+04-2.13890E+04 1.06988E+05-1.75646E+05 8.73570E-10-4.33283E-09
 -1       303 1.19091E+03-4.62986E+04 8.27308E+04-1.19604E+05-6.46651E-10 2.59752E-09
 -1       304 2.76089E+04-1.66112E+04 1.22093E+05-1.75198E+05 7.96717E-10-6.58747E-09
 -1       305 2.65648E+04-6.60904E+04 1.95695E+05-1.20072E+05-7.85803E-10-5.97356E-09
 -1       306-6.00486E+06-6.08474E+05-4.68284E+05-2.17081E+06-1.09685E-09-9.92441E-09
 -1       307-5.57175E+06-1.34617E+06-2.70181E+05-2.56946E+06-4.97421E-08-1.31440E-08
 -1       308-6.17225E+06-5.70007E+05-1.07316E+05-1.92896E+06-5.21050E-09 1.80080E-08
 -1       309-5.42979E+06-1.35051E+06-5.62656E+04-2.87200E+06 1.90026E-08 3.83807E-09
 -1       310-6.18937E+06-5.69497E+05-2.42081E+04-1.89919E+06-1.08375E-08-1.45860E-09
 -1       311-5.43642E+06-1.21729E+06 5.45064E+03-2.69900E+06 3.76913E-08-1.09358E-08
 -1       312-6.13525E+06-7.25322E+05-3.23856E+04-2.08124E+06-9.49149E-09-7.89078E-09
 -1       313-5.64281E+06-8.72070E+05 3.42446E+04-2.22778E+06-3.20488E-08-7.42148E-10
 -1       314-5.93869E+06-9.46840E+05-3.95516E+04-2.33641E+06-6.10453E-09-3.23234E-09
 -1       315-6.12153E+06-4.76203E+05 1.25124E+04-1.81788E+06-1.13050E-08 4.15730E-09
 -1       316-5.68344E+06-1.10103E+06-3.46936E+04-2.50908E+06-3.64580E-08-3.74421E-08
 -1       317-6.49883E+06-2.84409E+05-6.49734E+04-1.64626E+06 5.36465E-08-3.36186E-08
 -1       318-5.60675E+06-1.10661E+06-1.16848E+05-2.54477E+06-5.44533E-08 1.41663E-08
 -1       319-6.45418E+06-5.69121E+05-3.24190E+05-1.67558E+06-2.04127E-08 8.99308E-09
 -1       320-5.70833E+06-8.34461E+05-5.26680E+05-2.46133E+06 2.78524E-08-9.31323E-10
 -1       336 1.23317E+03-1.23166E+06-9.56170E+03 2.86703E+03-4.11410E-09 1.01409E-08
 -1       337-3.56903E+03-1.23380E+06-9.75145E+03-7.12079E+03-2.92562E-09 7.25413E-09
 -1       338 6.07740E+02-1.23211E+06-1.16552E+04 4.22907E+03-5.25733E-09 7.06859E-09
 -1       339-1.19907E+04-1.23916E+06-2.48183E+04-9.78576E+03-3.69982E-09 5.61613E-09
 -1       340 8.22115E+03-1.22665E+06-3.79350E+04 5.51101E+03-6.33918E-09 4.99676E-09
 -1       406 1.97305E+01 2.87263E+05 4.72686E+02-1.04086E-01 2.02846E-10-9.83732E-09
 -1       407 1.65994E+02 2.87349E+05 1.00422E+03-3.26486E+00 5.00222E-12-1.30586E-08
 -1       408 5.18324E+02 2.87191E+05 2.00585E+03 3.45070E+00 2.29079E-10-1.33894E-08
 -1       409 2.16971E+03 2.87990E+05 4.51529E+03-3.40741E+01-7.57154E-11 3.20028E-10
 -1       410 6.23168E+03 2.86621E+05 9.21792E+03 3.20980E+01 1.26420E-10 1.34946E-09
 -1       521-8.34928E+06-8.15803E+05-8.48366E+05-2.52867E+06-9.42964E-09 1.37079E-08
 -1       522-5.36209E+06-2.15602E+06-1.63965E+05-4.09417E+06-9.48057E-08-3.92065E-08
 -1       523-8.25699E+06-2.76075E+05-1.61162E+05-1.67355E+06-8.92032E-09-7.13990E-08
 -1       524-5.91311E+06-2.35412E+06-2.54940E+04-5.24178E+06 7.95317E-08-1.16535E-07
 -1       525-8.25446E+06-2.76529E+05-4.76499E+04-1.64514E+06 9.37143E-08-7.08023E-08
 -1       526-5.28781E+06-2.00367E+06 1.71684E+05-4.23213E+06 2.99042E-08-3.31038E-08
 -1       527-8.46027E+06-9.37987E+05-2.66687E+05-2.44268E+06-5.22414E-09 2.87400E-09
 -1       528-5.38258E+06-8.40879E+05 3.38054E+05-2.17568E+06-1.53668E-08 3.54485E-08
 -1       529-7.74317E+06-1.73110E+06-2.87644E+05-3.34860E+06-9.74978E-09-2.51021E-09
 -1       530-7.74122E+06 6.27603E+05 1.98673E+05-1.12199E+06-7.33344E-08 6.44650E-08
 -1       531-6.49869E+06-2.11333E+06-6.84623E+04-3.73458E+06-1.27162E-07 6.31917E-09
 -1       532-9.54443E+06 1.28910E+06-1.95997E+04-1.10167E+06 1.29367E-07-1.22562E-07
 -1       533-6.34551E+06-2.11737E+06-1.32915E+05-3.75861E+06 2.92785E-08-1.77977E-07
 -1       534-8.31817E+06 6.46765E+05-1.67511E+05-1.05305E+06-4.48490E-08 1.29302E-07
 -1       535-7.42520E+06-1.67715E+06-7.92050E+05-3.48429E+06-1.01572E-08 8.20146E-08
 -1       536-4.04482E+05-2.14014E+04 3.41239E+04-1.52892E+04-5.55428E-09 1.85300E-08
 -1       537-3.25830E+05 2.37868E+04 3.53123E+04 3.71659E+04-4.87122E-08 3.43093E-08
 -1       538-3.66260E+05-2.10548E+03 1.06791E+04-2.28133E+04 7.31978E-09 3.32616E-08
 -1       539-3.49715E+05 3.24246E+03 9.25427E+03 4.12392E+04 4.71054E-08 3.78531E-08
 -1       540-3.80995E+05-5.56371E+02-4.31212E+02-1.93757E+04-3.87865E-09 4.55684E-08
 -1       541-3.00733E+05 2.49835E+03 1.42913E+04 2.42238E+04-9.52019E-09 2.56919E-08
 -1       542-4.13917E+05-2.43978E+03-9.36491E+03-5.76638E+03 1.24369E-08 6.89084E-09
 -1       543-2.77073E+05 3.04013E+03 1.76764E+04-6.39574E+03-1.56280E-09-5.29680E-09
 -1       544-4.04028E+05-1.60811E+03-8.36742E+03 1.12148E+04-1.41390E-08-1.85771E-08
 -1       545-3.23387E+05 3.61048E+02 6.78663E+03-3.35569E+04-1.29842E-08-3.38101E-08
 -1       546-3.68816E+05 1.22216E+03-3.35144E+03 2.13876E+04 4.93196E-09-2.30287E-08
 -1       547-3.56746E+05-3.51921E+03-4.89702E+03-4.29342E+04-4.04036E-08-3.05931E-08
 -1       548-3.71517E+05 2.95795E+03-1.22621E+04 2.06162E+04-3.92082E-08-3.27987E-08
 -1       549-3.23249E+05-1.63462E+04-1.85215E+04-3.05347E+04-2.30985E-08-2.51489E-08
 -1       550-4.01253E+05 1.31759E+04-5.10673E+04 8.96006E+03 1.24146E-09-1.23182E-08
 -1       551 1.90165E+04-6.04596E+05 2.53424E+04-1.00185E+06-5.00659E-08 3.57977E-09
 -1       552 4.27803E+04-6.17529E+05 3.26005E+04-1.42711E+06-3.78641E-08 2.48547E-08
 -1       553 3.05202E+04-6.23438E+05 4.70996E+04-9.98032E+05-5.88916E-08 2.27737E-08
 -1       554 6.99005E+04-6.14356E+05 9.82920E+04-1.42858E+06-3.63507E-08 1.06195E-08
 -1       555 5.87937E+04-6.42108E+05 1.74245E+05-9.99007E+05-6.07761E-08-4.39104E-09
 -1       556 1.06215E+05-1.95944E+05 6.47336E+04-2.46317E+05-1.12632E-08 1.89175E-09
 -1       557 1.85576E+05-2.59845E+05 3.43127E+04-3.09824E+05-1.39698E-09 9.47693E-09
 -1       558 1.04005E+05-2.03494E+05 1.33935E+04-2.39918E+05-9.26957E-09 4.20914E-09
 -1       559 1.72449E+05-2.68002E+05 6.94922E+03-3.16300E+05 1.08994E-08-5.16593E-09
 -1       560 1.00060E+05-2.00943E+05 2.59545E+03-2.42556E+05 6.62112E-09 5.38239E-09
 -1       561 1.66831E+05-2.66224E+05 1.49089E+03-3.19909E+05 1.56288E-08 7.40783E-09
 -1       562 9.69264E+04-1.98907E+05 4.28351E+02-2.44807E+05 2.57569E-09 5.26688E-09
 -1       563 1.63150E+05-2.64629E+05 3.64876E+02-3.22270E+05 3.20142E-10-5.21027E-10
 -1       564 9.48780E+04-1.97605E+05 9.12866E+01-2.46256E+05 7.70524E-09 7.99128E-09
 -1       565 1.61054E+05-2.63722E+05 1.20628E+02-3.23595E+05 5.50790E-09-3.42425E-10
 -1       566 9.39659E+04-1.97017E+05 1.74460E+01-2.46901E+05-6.91216E-10 2.07001E-09
 -1       567 1.60501E+05-2.63469E+05-5.92259E+01-3.23863E+05 8.54595E-09 6.18456E-11
 -1       568 9.42319E+04-1.97196E+05-3.09910E+02-2.46796E+05-3.42516E-09-1.35333E-09
 -1       569 1.60688E+05-2.63356E+05-7.50304E+02-3.22326E+05-8.42556E-09 4.71846E-09
 -1       570 9.63384E+04-1.98945E+05-1.76951E+03-2.46538E+05-6.40284E-10 6.72117E-09
 -1       571 2.13694E+05 7.87175E+03 1.16136E+04-5.54950E+04-8.36735E-11-1.33514E-09
 -1       572 2.15416E+05 2.76529E+03 5.69015E+03-6.08546E+04 1.35060E-10-6.05314E-09
 -1       573 2.14383E+05 6.86494E+02 2.52793E+03-5.53629E+04 1.20372E-09 1.88538E-09
 -1       574 2.14583E+05 2.52874E+02 1.26678E+03-6.10050E+04-1.53614E-09-1.81717E-09
 -1       575 2.14459E+05 6.67031E+01 5.97289E+02-5.53455E+04 3.04908E-10 1.22054E-09
 -1       576 2.14471E+05 4.92888E+01 3.04542E+02-6.10251E+04 5.43380E-10 2.96677E-09
 -1       577 2.14474E+05 3.16347E+01 1.50813E+02-5.53431E+04-5.23187E-10-2.98769E-10
 -1       578 2.14465E+05 3.60259E+01 8.39521E+01-6.10275E+04-4.14116E-09-3.87627E-09
 -1       579 2.14493E+05 2.52918E+01 5.41479E+01-5.53430E+04 9.36780E-11-1.04037E-08
 -1       580 2.14492E+05 2.45021E+01 5.56003E+01-6.10243E+04-8.74934E-10 5.17457E-09
 -1       581 2.14525E+05 1.21358E+01 8.03468E+01-5.53464E+04 1.18234E-11 3.65344E-09
 -1       582 2.14549E+05 2.60837E+01 1.57510E+02-6.09902E+04-5.38421E-10-3.64753E-09
 -1       583 2.14563E+05 6.01981E+01 3.03840E+02-5.53772E+04 2.18279E-10-4.36489E-09
 -1       584 2.14708E+05 2.99630E+02 6.83040E+02-6.07317E+04-1.16688E-09 1.37902E-09
 -1       585 2.14533E+05 8.98613E+02 1.38717E+03-5.56053E+04 8.18545E-10-5.56247E-09
 -1       586-2.58181E+03 7.04239E+04-3.23196E+03-1.90685E+05-6.02085E-10 1.62754E-09
 -1       587-5.85098E+02 7.00142E+04-1.45606E+02-2.09871E+05-3.00133E-10-3.37172E-09
 -1       588 7.31769E+02 7.00653E+04 2.82353E+03-1.90587E+05-2.60115E-10 5.67343E-09
 -1       589 3.89910E+03 7.15976E+04 7.92675E+03-2.09663E+05-7.27596E-10-1.11013E-08
 -1       590 1.13993E+04 6.91715E+04 1.68646E+04-1.90901E+05-9.76797E-10 4.57112E-09
 -1       591-4.50078E+04-1.21355E+04-1.51481E+04-2.23174E+04-1.94530E-09-7.67795E-09
 -1       592-4.68014E+04-1.54817E+04-8.20501E+03-2.58419E+04 2.49031E-10-3.34603E-09
 -1       593-4.65339E+04-1.10250E+04-3.41569E+03-2.34173E+04-5.57634E-10 4.66116E-10
 -1       594-4.46964E+04-1.32737E+04-1.70357E+03-2.59394E+04 1.51817E-09 4.00405E-10
 -1       595-4.66507E+04-1.10203E+04-7.82713E+02-2.34676E+04 1.66784E-09 6.05290E-10
 -1       596-4.45534E+04-1.31726E+04-3.98742E+02-2.59239E+04 4.41344E-09 4.64399E-09
 -1       597-4.66654E+04-1.10302E+04-2.18945E+02-2.34696E+04-2.28482E-10-3.69209E-09
 -1       598-4.45396E+04-1.31687E+04-1.79345E+02-2.59195E+04-3.93555E-10-4.78042E-09
 -1       599-4.66643E+04-1.10304E+04-2.33265E+02-2.34692E+04 4.38081E-09 7.67216E-09
 -1       600-4.45544E+04-1.31738E+04-4.36662E+02-2.59231E+04 4.08886E-09 7.54596E-10
 -1       601-4.66459E+04-1.10201E+04-8.63194E+02-2.34662E+04 8.72774E-09-8.95852E-10
 -1       602-4.47120E+04-1.32851E+04-1.88213E+03-2.59378E+04 1.37916E-08-7.43603E-09
 -1       603-4.65151E+04-1.10273E+04-3.77497E+03-2.34109E+04 1.56138E-09-1.18657E-08
 -1       604-4.70480E+04-1.57146E+04-9.06803E+03-2.58159E+04-5.91967E-10 3.34967E-09
 -1       605-4.48163E+04-1.22643E+04-1.67414E+04-2.22059E+04-4.92150E-10-9.32232E-10
 -1       606 2.77972E+04-1.02623E+04-1.84583E+04 2.69414E+04-2.22190E-09-7.41784E-09
 -1       607 2.46373E+04-3.31973E+03-9.19120E+03 3.02465E+04-1.09048E-09-3.45904E-09
 -1       608 2.64289E+04-5.68956E+02-4.11602E+03 2.67289E+04 3.94721E-09 2.14413E-09
 -1       609 2.60732E+04-1.57237E+02-2.07884E+03 3.04837E+04 2.27283E-09-3.30238E-09
 -1       610 2.62626E+04 1.60474E+01-9.92994E+02 2.67050E+04-2.33013E-09 5.71163E-10
 -1       611 2.61962E+04 2.86001E+01-5.00682E+02 3.05095E+04-5.17321E-09-1.51638E-08
 -1       612 2.62177E+04 3.27778E+01-2.39342E+02 2.67026E+04 7.39783E-09-6.38715E-09
 -1       613 2.61932E+04 3.79233E+01-1.08484E+02 3.05126E+04 1.41877E-08 9.72091E-09
 -1       614 2.61930E+04 3.37992E+01-2.90129E+01 2.67018E+04 1.65637E-08-3.44357E-09
 -1       615 2.61803E+04 4.39746E+01 3.72132E+01 3.05130E+04 2.75704E-08 6.91443E-10
 -1       616 2.61742E+04 4.01352E+01 1.19124E+02 2.67021E+04 7.61383E-09 4.58385E-10
 -1       617 2.61878E+04 7.35455E+01 2.74962E+02 3.05125E+04-5.11591E-10-6.00039E-10
 -1       618 2.61452E+04 1.22614E+02 5.55261E+02 2.67022E+04 5.68434E-11 1.10740E-08
 -1       619 2.63798E+04 5.05523E+02 1.24768E+03 3.05117E+04-2.27328E-09 1.02345E-08
 -1       620 2.59582E+04 1.44176E+03 2.50793E+03 2.67011E+04 2.75463E-09-3.05045E-09
 -1       621 2.95984E+02 2.23818E+05 2.66442E+03 1.21699E+04-1.52340E-11-2.89674E-10
 -1       622 3.51513E+02 2.24474E+05 2.38894E+03 1.77290E+04-1.33696E-10-5.51427E-09
 -1       623 1.82635E+01 2.23986E+05 2.91311E+03 1.21120E+04 3.89377E-12 8.16749E-09
 -1       624 1.36711E+03 2.25398E+05 5.67663E+03 1.77875E+04-3.43903E-12 1.73368E-08
 -1       625 1.37409E+03 2.22877E+05 9.93672E+03 1.21112E+04-3.50155E-11-7.06791E-10
 -1       626 1.92473E+05 5.16658E+04 4.05459E+03 1.01679E+05 1.21781E-09-1.33623E-08
 -1       627 1.90074E+05 5.33351E+04 1.95388E+03 1.05691E+05 7.32325E-09-2.64293E-08
 -1       628 1.92605E+05 4.97702E+04 8.25371E+02 1.02316E+05 6.11180E-10-1.56001E-08
 -1       629 1.89513E+05 5.28485E+04 4.04338E+02 1.05929E+05 3.45244E-09 9.46045E-10
 -1       630 1.92613E+05 4.96812E+04 1.86811E+02 1.02335E+05-2.32285E-09 1.25813E-08
 -1       631 1.89446E+05 5.28358E+04 1.00054E+02 1.05929E+05-1.87861E-08 1.27497E-08
 -1       632 1.92603E+05 4.96883E+04 6.50111E+01 1.02327E+05-1.01813E-08-7.46331E-09
 -1       633 1.89432E+05 5.28411E+04 7.12113E+01 1.05921E+05-1.21486E-09-3.30106E-08
 -1       634 1.92593E+05 4.96892E+04 1.13926E+02 1.02323E+05 3.98131E-09-2.75804E-09
 -1       635 1.89437E+05 5.28426E+04 2.30088E+02 1.05921E+05-1.17575E-09 1.03273E-08
 -1       636 1.92581E+05 4.96878E+04 4.64277E+02 1.02320E+05-2.80966E-09 1.91812E-09
 -1       637 1.89533E+05 5.29161E+04 1.02023E+03 1.05917E+05 5.92536E-10-4.18322E-09
 -1       638 1.92542E+05 4.99148E+04 2.09648E+03 1.02216E+05-1.74850E-10-8.46376E-09
 -1       639 1.90632E+05 5.44482E+04 4.95970E+03 1.05591E+05-1.60640E-09-1.09690E-08
 -1       640 1.92395E+05 5.44812E+04 1.02924E+04 1.00280E+05-3.05454E-09-4.87671E-09
 -1       656 5.12824E+04-1.30121E+06-1.23794E+05-4.61747E+02-1.89175E-10-3.56192E-09
 -1       657-6.77870E+04-1.35710E+06-1.02426E+05 7.59200E+03 1.30967E-10 1.94714E-09
 -1       658 1.62861E+04-1.31713E+06-6.29161E+04-1.84615E+03 9.18135E-10 4.52272E-09
 -1       659-7.28526E+04-1.35950E+06-1.09079E+05 8.56223E+03-1.45519E-11-1.49798E-08
 -1       660 5.63362E+04-1.29882E+06-1.35236E+05-1.43196E+03-1.24419E-09-1.06326E-08
 -1       661 1.69156E+05 1.83191E+04 1.65027E+04 6.61429E+04 3.33330E-09 4.01451E-09
 -1       662 1.77916E+05 3.11004E+04 1.11203E+04 6.30885E+04 8.02117E-10-1.63675E-09
 -1       663 1.72394E+05 2.36163E+04 3.88985E+03 6.52063E+04-1.31422E-10-3.58796E-09
 -1       664 1.74168E+05 2.49016E+04 2.32590E+03 6.42290E+04-2.97123E-09-2.65595E-09
 -1       665 1.72880E+05 2.43438E+04 9.17504E+02 6.50680E+04-3.02759E-09 9.65696E-09
 -1       666 1.73595E+05 2.40665E+04 5.35462E+02 6.44073E+04-4.28454E-09 7.38397E-09
 -1       667 1.72963E+05 2.44295E+04 2.82755E+02 6.50361E+04-2.51916E-09 1.32290E-09
 -1       668 1.73505E+05 2.40007E+04 2.84329E+02 6.44536E+04 5.68136E-10-2.51350E-09
 -1       669 1.72969E+05 2.44076E+04 3.81815E+02 6.50223E+04 1.39778E-09-1.63396E-10
 -1       670 1.73600E+05 2.42048E+04 8.28518E+02 6.44548E+04 5.98136E-09 1.09549E-09
 -1       671 1.72869E+05 2.42295E+04 1.47011E+03 6.50332E+04-2.04395E-10 1.37356E-09
 -1       672 1.74456E+05 2.56351E+04 3.76047E+03 6.42481E+04-2.19976E-09 1.92676E-09
 -1       673 1.72117E+05 2.30133E+04 6.30164E+03 6.52153E+04 2.34309E-10 2.25759E-09
 -1       674 1.80456E+05 3.57576E+04 1.80213E+04 6.24843E+04 3.01100E-10-5.92081E-10
 -1       675 1.66908E+05 1.43902E+04 2.67495E+04 6.66904E+04-8.18545E-11-1.00881E-08
 -1       676 2.03458E+01-2.44552E+05-9.44972E+02 2.45449E+01 7.72559E-10-7.51488E-09
 -1       677-2.50917E+02-2.44780E+05-1.72942E+03-4.90610E+01-1.45022E-09 7.95511E-09
 -1       678 1.67522E+02-2.44389E+05-3.05717E+03 2.44993E+01-3.49360E-10-3.86301E-09
 -1       679-3.05798E+03-2.46626E+05-7.26238E+03-4.88865E+01-1.31342E-09-1.04111E-08
 -1       680 1.82502E+03-2.42707E+05-1.17045E+04 2.40919E+01 1.41881E-10-5.62977E-09
 -1       771-2.60440E+06-5.03782E+05-7.37938E+04-1.13136E+06-2.07074E-08-1.06083E-08
 -1       772-2.57332E+06-5.50036E+05-3.89979E+04-1.18372E+06-1.63564E-08 8.22183E-09
 -1       773-2.61660E+06-4.94164E+05-1.79438E+04-1.13571E+06-7.95990E-09 7.59610E-09
 -1       774-2.56446E+06-5.42161E+05-8.43269E+03-1.19166E+06 1.42536E-08-1.20053E-09
 -1       775-2.62109E+06-4.91006E+05-5.04537E+03-1.13674E+06-3.76895E-09 1.78989E-09
 -1       776-2.56600E+06-5.42077E+05-2.10894E+03-1.19685E+06-3.02680E-09 2.96859E-09
 -1       777-2.62467E+06-4.88363E+05-1.80796E+03-1.13759E+06-4.64206E-09 3.72529E-09
 -1       778-2.56802E+06-5.42148E+05-6.14612E+02-1.20124E+06-9.93896E-09 4.27644E-09
 -1       779-2.62765E+06-4.86110E+05-8.23377E+02-1.13834E+06-7.13044E-09-2.82307E-09
 -1       780-2.56985E+06-5.42165E+05-2.67719E+02-1.20480E+06-3.67436E-09 5.54792E-10
 -1       781-2.62994E+06-4.84320E+05-5.09611E+02-1.13892E+06-1.31840E-08-8.47649E-10
 -1       782-2.57130E+06-5.42160E+05-4.24990E+02-1.20741E+06-1.66183E-08-4.13775E-09
 -1       783-2.63151E+06-4.83111E+05-8.82221E+02-1.13933E+06-6.23913E-09-1.18782E-08
 -1       784-2.57266E+06-5.42624E+05-1.86512E+03-1.20897E+06-9.10222E-09 2.29193E-10
 -1       785-2.63196E+06-4.82746E+05-3.49501E+03-1.13929E+06-1.62290E-08 2.68119E-09
 -1       786 1.54008E+05-9.44029E+03 2.18401E+04-8.46459E+01 1.57980E-09 4.92128E-09
 -1       787 1.63474E+05 1.09289E+04 1.54513E+04 2.09156E+01 2.80615E-09 7.26095E-09
 -1       788 1.57659E+05-1.47984E+03 5.65206E+03-6.47019E+01 1.48322E-09 1.36704E-08
 -1       789 1.59221E+05 1.71217E+03 3.55024E+03-1.16536E+01-6.03710E-10 4.49950E-09
 -1       790 1.58262E+05-2.31057E+02 1.44229E+03-5.20796E+01-3.24950E-10 1.16806E-08
 -1       791 1.58517E+05 2.67803E+02 8.42394E+02-3.42788E+01-1.38684E-09 7.52989E-09
 -1       792 1.58363E+05-3.65510E+01 3.75746E+02-4.20767E+01-6.80288E-10-3.05823E-09
 -1       793 1.58401E+05 4.71177E+01 2.28470E+02-5.44564E+01-2.66304E-10-6.81615E-09
 -1       794 1.58379E+05-1.05141E+01 1.42093E+02-3.19017E+01 1.00994E-09-7.64308E-09
 -1       795 1.58397E+05 4.39169E+01 1.66306E+02-7.76360E+01-6.51245E-10-2.02955E-09
 -1       796 1.58367E+05-3.33486E+01 2.25382E+02-1.88967E+01 1.22083E-10 1.45070E-09
 -1       797 1.58492E+05 2.42122E+02 5.11808E+02-1.09838E+02 3.53420E-10 8.66379E-09
 -1       798 1.58283E+05-2.08576E+02 8.01522E+02 3.00961E-01 3.13904E-10-3.40276E-09
 -1       799 1.59092E+05 1.53975E+03 2.17950E+03-1.59487E+02 7.18975E-10-1.27593E-08
 -1       800 1.57768E+05-1.32994E+03 3.07697E+03 3.07534E+01 2.33954E-10 9.15111E-09
 -1       801 6.17825E+04-2.20682E+06-2.02282E+05 3.87411E+04 1.56433E-08-5.99584E-09
 -1       802-7.12953E+04-2.02121E+06-8.56372E+04-5.72206E+04 4.38467E-08 3.00247E-10
 -1       803 8.29071E+03-2.10805E+06-2.34290E+04 1.03100E+05 3.34840E-08 2.77037E-08
 -1       804 3.84300E+04-1.97652E+06 5.85421E+04-2.87507E+04 3.51138E-08 3.30508E-08
 -1       805-4.88781E+04-2.25093E+06 5.06865E+04 1.02631E+04 1.30749E-08 2.01790E-08
 -1       806-2.34294E+05-4.65489E+04-1.82056E+04-9.38515E+04-2.81489E-09-4.59204E-09
 -1       807-2.35693E+05-4.36126E+04-8.94416E+03-9.83013E+04 3.97563E-09-1.58770E-08
 -1       808-2.34791E+05-3.99908E+04-3.79425E+03-9.69587E+04-5.79121E-09 5.56440E-10
 -1       809-2.33805E+05-4.11075E+04-1.85515E+03-9.85322E+04-3.26190E-09 8.94624E-09
 -1       810-2.34869E+05-3.97612E+04-8.49830E+02-9.70964E+04-4.87489E-09-2.22963E-09
 -1       811-2.33660E+05-4.10072E+04-4.22050E+02-9.85066E+04-5.80712E-09-2.86616E-09
 -1       812-2.34882E+05-3.97796E+04-2.11981E+02-9.70962E+04-1.44150E-08-4.74142E-09
 -1       813-2.33641E+05-4.10091E+04-1.35692E+02-9.84936E+04-1.77224E-08 8.97046E-09
 -1       814-2.34878E+05-3.97864E+04-1.30775E+02-9.70933E+04-1.47347E-08 7.79733E-09
 -1       815-2.33644E+05-4.10109E+04-2.07794E+02-9.84896E+04-3.59660E-09-3.08569E-09
 -1       816-2.34864E+05-3.97849E+04-3.91559E+02-9.70910E+04-2.78487E-09 6.50380E-09
 -1       817-2.33711E+05-4.10482E+04-8.40059E+02-9.84825E+04-1.15551E-09 2.38742E-10
 -1       818-2.34815E+05-3.99024E+04-1.71266E+03-9.70353E+04-3.21506E-09-1.20140E-08
 -1       819-2.34652E+05-4.20812E+04-4.03051E+03-9.82603E+04 3.81988E-10-8.10951E-09
 -1       820-2.34495E+05-4.29443E+04-8.20305E+03-9.57312E+04-1.01954E-09-3.42072E-09
 -1       821-2.93119E+05 1.62142E+04-3.74982E+04 2.74136E+02 1.31964E-09 2.94676E-09
 -1       822-3.09365E+05-1.87707E+04-2.65350E+04-9.72115E+02-1.62808E-09-3.89446E-09
 -1       823-2.99388E+05 2.54237E+03-9.71180E+03 2.85344E+02-2.48529E-10-7.81347E-09
 -1       824-3.02047E+05-2.94226E+03-6.10956E+03-8.07606E+02-2.00912E-10 4.31783E-09
 -1       825-3.00435E+05 3.97671E+02-2.51360E+03 1.09626E+02-1.22747E-09 7.96570E-09
 -1       826-3.00822E+05-4.68627E+02-1.51235E+03-3.47957E+02-3.42880E-09-1.97809E-09
 -1       827-3.00611E+05 7.00559E+01-7.89228E+02-1.74312E+02-3.25999E-09 1.26661E-09
 -1       828-3.00659E+05-1.43039E+02-6.92311E+02 2.03813E+02-4.83866E-09 2.28432E-09
 -1       829-3.00599E+05 7.23833E+01-8.03626E+02-4.42154E+02-2.92122E-10-1.06371E-08
 -1       830-3.00860E+05-4.84918E+02-1.56645E+03 6.05861E+02 1.35729E-09 1.06570E-08
 -1       831-3.00411E+05 4.12204E+02-2.59733E+03-5.76368E+02-2.46967E-09 5.55724E-09
 -1       832-3.02113E+05-3.04654E+03-6.32946E+03 6.82338E+02-1.14636E-09 1.04092E-09
 -1       833-2.99347E+05 2.63229E+03-1.00597E+04-5.18632E+02-1.00305E-09-1.68757E-09
 -1       834-3.09657E+05-1.94400E+04-2.74800E+04 3.99767E+02-7.39101E-10 4.63842E-09
 -1       835-2.92868E+05 1.67926E+04-3.88445E+04-2.93784E+02 5.38056E-09-3.17959E-09
 -1       836-9.88619E+02 2.76237E+05 1.67243E+04-1.94836E+04 3.49246E-10 8.32370E-09
 -1       837 3.65821E+03 2.81430E+05 1.43010E+04-3.91542E+04 1.12209E-09 4.38672E-09
 -1       838-3.72655E+02 2.77675E+05 1.47790E+04-1.94131E+04 8.23093E-10 1.15233E-09
 -1       839 9.47627E+03 2.85765E+05 2.81618E+04-3.91879E+04 1.46792E-09-1.59601E-08
 -1       840-2.86406E+03 2.71860E+05 4.49951E+04-1.94486E+04 8.20364E-10-3.96449E-09
 -1       856-7.96154E+04 7.52408E+03-1.98283E+04-4.32731E+02-2.62776E-09 6.27551E-09
 -1       857-8.78033E+04-8.82598E+03-1.36510E+04 4.65012E+03-5.66877E-09-1.31929E-08
 -1       858-8.28511E+04 1.05427E+03-5.14584E+03-4.54548E+02-2.52061E-09-4.51496E-09
 -1       859-8.40880E+04-1.22668E+03-3.10736E+03 4.68470E+03 8.85393E-10-4.52224E-09
 -1       860-8.33348E+04 1.46672E+02-1.30575E+03-4.67421E+02 1.58755E-09-1.48867E-09
 -1       861-8.35312E+04-1.62545E+02-7.25571E+02 4.70234E+03-6.48407E-09 2.71569E-11
 -1       862-8.34101E+04 1.93764E+01-3.16171E+02-4.72207E+02 4.49534E-09 1.21040E-09
 -1       863-8.34414E+04-1.13055E+01-1.48227E+02 4.70457E+03 6.93571E-09 6.06606E-09
 -1       864-8.34248E+04-1.21918E+00-3.01414E+01-4.69660E+02 3.68745E-09 1.20984E-09
 -1       865-8.34097E+04 3.18199E+01 7.37293E+01 4.69158E+03 5.05118E-09 4.49520E-09
 -1       866-8.34401E+04-2.41828E+01 1.86728E+02-4.59217E+02-3.17741E-09-2.81511E-09
 -1       867-8.33114E+04 2.01805E+02 4.84292E+02 4.66320E+03-3.48265E-09-1.74523E-09
 -1       868-8.35195E+04-1.69345E+02 8.10466E+02-4.41277E+02 9.02503E-10-1.49299E-09
 -1       869-8.27093E+04 1.40678E+03 2.16739E+03 4.61624E+03-1.59770E-09-1.38176E-08
 -1       870-8.40367E+04-1.19819E+03 3.14379E+03-4.12264E+02 9.99762E-10 4.87421E-09
 -1       871-4.37814E+03-1.00804E+04-1.43195E+04 9.46428E+04 1.61344E-09 7.03221E-09
 -1       872-1.87068E+03-1.33029E+04-5.86331E+03 1.22702E+05 2.52567E-09 8.46990E-09
 -1       873-1.05583E+01-1.17963E+04 7.66368E+02 9.44352E+04 7.04858E-10 7.69705E-09
 -1       874 2.20704E+03-9.75907E+03 7.96423E+03 1.22742E+05 1.06547E-09 9.87256E-10
 -1       875 5.15584E+03-1.36853E+04 1.77070E+04 9.46094E+04 8.47649E-10 6.09953E-09
 -1       876 2.30631E+05 3.95762E+04 1.22103E+04 9.33830E+04-8.48615E-10-6.99401E-09
 -1       877 2.31354E+05 4.22318E+04 6.52065E+03 9.69669E+04-1.57843E-09-1.17831E-08
 -1       878 2.31772E+05 3.82252E+04 2.73184E+03 9.43858E+04 1.50976E-10-5.56588E-09
 -1       879 2.29693E+05 4.05770E+04 1.36095E+03 9.70522E+04 2.21962E-09 7.19388E-09
 -1       880 2.31854E+05 3.82105E+04 6.33685E+02 9.44267E+04 2.37242E-09 3.85893E-09
 -1       881 2.29583E+05 4.05066E+04 3.37763E+02 9.70344E+04 7.64862E-09 2.21736E-09
 -1       882 2.31862E+05 3.82207E+04 2.14990E+02 9.44279E+04 5.51654E-09 3.00783E-09
 -1       883 2.29575E+05 4.05032E+04 2.29361E+02 9.70290E+04 2.46428E-09 1.64079E-09
 -1       884 2.31857E+05 3.82183E+04 3.63257E+02 9.44280E+04-2.92204E-09 9.63780E-10
 -1       885 2.29604E+05 4.05083E+04 7.29348E+02 9.70381E+04-4.02389E-09-1.06461E-08
 -1       886 2.31829E+05 3.81969E+04 1.46950E+03 9.44251E+04 4.93898E-10-3.90025E-09
 -1       887 2.29862E+05 4.06777E+04 3.20976E+03 9.70754E+04-1.16597E-09-5.30781E-09
 -1       888 2.31627E+05 3.82326E+04 6.46771E+03 9.43224E+04-1.69291E-09 1.13650E-08
 -1       889 2.33716E+05 4.46795E+04 1.54507E+04 9.69541E+04 2.54795E-09 1.95382E-09
 -1       890 2.28992E+05 4.13628E+04 2.89381E+04 9.18550E+04 3.28760E-09 3.58705E-09
 -1       891-1.36334E+02-1.30355E+05-1.55357E+03 2.41440E+04 9.08358E-11 6.55768E-09
 -1       892-2.38926E+02-1.30730E+05-1.68436E+03 3.65472E+04 1.49157E-09 2.78965E-09
 -1       893-3.35839E+01-1.30403E+05-2.40129E+03 2.41490E+04 1.38584E-09-1.44310E-08
 -1       894-1.30101E+03-1.31646E+05-4.98157E+03 3.64163E+04-2.02181E-09 4.08454E-09
 -1       895-1.01951E+03-1.29365E+05-8.77731E+03 2.42733E+04 9.15861E-10-4.00178E-09
 -1       956-2.91358E+05-4.13859E+03-1.04038E+04 1.97243E+04-2.30011E-09-3.99712E-09
 -1       957-2.93412E+05-1.40020E+03-5.34080E+03 2.37533E+04-2.53021E-09 6.96218E-10
 -1       958-2.92283E+05-1.15806E+02-2.40625E+03 1.96012E+04-5.68434E-10-4.16821E-09
 -1       959-2.92446E+05-2.40416E+01-1.22904E+03 2.38876E+04-1.04319E-09-6.06792E-09
 -1       960-2.92367E+05 3.08912E+01-5.99191E+02 1.95893E+04-1.00545E-09-5.70071E-09
 -1       961-2.92377E+05 2.84936E+01-3.17887E+02 2.39013E+04-3.46336E-09-5.12728E-09
 -1       962-2.92384E+05 2.72127E+01-1.81961E+02 1.95874E+04-2.05205E-09-5.22050E-09
 -1       963-2.92374E+05 3.01157E+01-1.46054E+02 2.39037E+04-3.95414E-09 1.61776E-09
 -1       964-2.92388E+05 2.93873E+01-1.77323E+02 1.95868E+04-1.63703E-09 9.01218E-09
 -1       965-2.92385E+05 3.31780E+01-3.06436E+02 2.39037E+04 3.17154E-09-3.11957E-09
 -1       966-2.92378E+05 3.73389E+01-5.75292E+02 1.95875E+04-1.72361E-09-7.34451E-09
 -1       967-2.92460E+05-1.26857E+01-1.17994E+03 2.38956E+04-2.46439E-09 6.24607E-09
 -1       968-2.92304E+05-9.91786E+01-2.30921E+03 1.95950E+04-3.43334E-10 4.15940E-09
 -1       969-2.93395E+05-1.32987E+03-5.12708E+03 2.38086E+04 1.30967E-09-6.61657E-10
 -1       970-2.91422E+05-3.95830E+03-9.98665E+03 1.96763E+04 1.71076E-09 4.66116E-09
 -1       971-2.74383E+05-1.43184E+03-7.93795E+03 1.31131E+04-3.90673E-09-1.13695E-09
 -1       972-2.76312E+05-1.02831E+03-4.32294E+03 1.83025E+04-4.87034E-09-4.41923E-09
 -1       973-2.75266E+05-1.28277E+01-1.93583E+03 1.30039E+04-1.90812E-09-3.55135E-09
 -1       974-2.75399E+05-1.35685E+01-1.00292E+03 1.84210E+04-3.13139E-09-5.13865E-09
 -1       975-2.75335E+05 2.46444E+01-5.00394E+02 1.29938E+04 1.15006E-09-7.49128E-09
 -1       976-2.75346E+05 2.82789E+01-2.86999E+02 1.84334E+04-2.74667E-10-9.87632E-09
 -1       977-2.75349E+05 2.46562E+01-2.05284E+02 1.29914E+04-3.05363E-10-6.89874E-09
 -1       978-2.75349E+05 3.30858E+01-2.36111E+02 1.84368E+04 7.30046E-09-5.35113E-09
 -1       979-2.75349E+05 3.11465E+01-3.75822E+02 1.29904E+04 1.23147E-08-4.97607E-10
 -1       980-2.75377E+05 3.54453E+01-7.23450E+02 1.84374E+04 1.95853E-08-9.13803E-09
 -1       981-2.75326E+05 4.91653E+01-1.40000E+03 1.29908E+04 1.33582E-08-2.35536E-09
 -1       982-2.75569E+05-6.79368E+01-2.89311E+03 1.84318E+04 7.79482E-09 2.59452E-09
 -1       983-2.75149E+05-4.03925E+01-5.62099E+03 1.29962E+04 5.19753E-09 1.16943E-08
 -1       984-2.78272E+05-3.00343E+03-1.25874E+04 1.83576E+04-2.69529E-09-5.66502E-09
 -1       985-2.72605E+05-4.15348E+03-2.31146E+04 1.30693E+04 6.34600E-09 8.46194E-09
 -3
    1PSTEP                        15           8           1          
  100CL  108 5.56641E-01         409                     0    8           1
 -4  DISP        4    1
 -5  D1          1    2    1    0
 -5  D2          1    2    2    0
 -5  D3          1    2    3    0
 -5  ALL         1    2    0    0    1ALL
 -1         1 2.44364E-04 0.00000E+00 0.00000E+00
 -1         2 2.17767E-04-9.24027E-31-6.61744E-24
 -1         3 1.82392E-04-1.50735E-27 0.00000E+00
 -1         5 1.16806E-04-4.57914E-27 0.00000E+00
 -1         8 2.19368E-04-8.34822E-07 0.00000E+00
 -1         9 2.09662E-04-1.14149E-06 0.00000E+00
 -1        10 1.68209E-04-2.46515E-06-6.61744E-24
 -1        12 1.16678E-04 6.12324E-07 1.65436E-24
 -1        15 1.89509E-04-9.29707E-07 4.13590E-25
 -1        16 1.95432E-04-1.40354E-06 0.00000E+00
 -1        17 1.21338E-04-5.39650E-06 0.00000E+00
 -1        18 1.15073E-04 6.83916E-06 0.00000E+00
 -1        19 1.16296E-04 1.22152E-06 0.00000E+00
 -1        20 1.16444E-04 1.17658E-05 0.00000E+00
 -1        21 1.15817E-04 2.07846E-05-3.30872E-24
 -1        24 2.34645E-05-7.53641E-06 0.00000E+00
 -1        25 1.15816E-04 6.98429E-06 0.00000E+00
 -1        26 1.16643E-04 1.69433E-06 0.00000E+00
 -1        27 1.14954E-04 8.99520E-06 0.00000E+00
 -1        28 1.14497E-04 2.02666E-05 0.00000E+00
 -1        32 0.00000E+00 0.00000E+00 0.00000E+00
 -1        33 1.15799E-04 2.27054E-06 0.00000E+00
 -1        34 1.14133E-04 8.96829E-06 0.00000E+00
 -1        35 1.12570E-04 1.99904E-05 0.00000E+00
 -1        51 2.42744E-04-1.40015E-07 0.00000E+00
 -1        52 2.39736E-04-2.73130E-07 0.00000E+00
 -1        53 2.35611E-04-4.07194E-07 0.00000E+00
 -1        54 2.30654E-04-5.43981E-07 0.00000E+00
 -1        55 2.25145E-04-6.84457E-07-6.61744E-24
 -1        56 2.42554E-04-8.27944E-07 2.64698E-23
 -1        57 2.40763E-04-1.90950E-06 2.64698E-23
 -1        58 2.39029E-04-3.13175E-06-5.29396E-23
 -1        59 2.37301E-04-4.40745E-06 2.64698E-23
 -1        60 2.35555E-04-5.63487E-06 0.00000E+00
 -1        61 2.33753E-04-6.71931E-06 0.00000E+00
 -1        62 2.31867E-04-7.57815E-06 5.29396E-23
 -1        63 2.29868E-04-8.13970E-06 0.00000E+00
 -1        64 2.27741E-04-8.35911E-06-5.29396E-23
 -1        65 2.25475E-04-8.20694E-06 0.00000E+00
 -1        66 2.23071E-04-7.68771E-06 5.29396E-23
 -1        67 2.20538E-04-6.82193E-06 0.00000E+00
 -1        68 2.17896E-04-5.66263E-06 5.29396E-23
 -1        69 2.15176E-04-4.27205E-06 2.64698E-23
 -1        70 2.12401E-04-2.74146E-06 5.29396E-23
 -1        86 2.17508E-04-1.84769E-07 0.00000E+00
 -1        87 2.16733E-04-3.70287E-07-3.30872E-24
 -1        88 2.15491E-04-5.56326E-07 0.00000E+00
 -1        89 2.13837E-04-7.46044E-07 3.30872E-24
 -1        90 2.11863E-04-9.35264E-07 1.32349E-23
 -1       121 1.81995E-04-4.07136E-07 1.32349E-23
 -1       122 1.80805E-04-8.14892E-07 6.61744E-24
 -1       123 1.78825E-04-1.22387E-06 0.00000E+00
 -1       124 1.76060E-04-1.63478E-06 6.61744E-24
 -1       125 1.72518E-04-2.04802E-06 0.00000E+00
 -1       191 1.16802E-04 1.02058E-07-3.30872E-24
 -1       192 1.16792E-04 2.04114E-07 0.00000E+00
 -1       193 1.16774E-04 3.06171E-07-3.30872E-24
 -1       194 1.16749E-04 4.08227E-07 0.00000E+00
 -1       195 1.16717E-04 5.10278E-07 0.00000E+00
 -1       251 2.18808E-04 6.66046E-06 1.32349E-23
 -1       252 2.18191E-04 1.90759E-05 6.61744E-24
 -1       253 2.17538E-04 3.43880E-05 0.00000E+00
 -1       254 2.16871E-04 5.05084E-05 6.61744E-24
 -1       255 2.16225E-04 6.51390E-05-1.32349E-23
 -1       256 2.15625E-04 7.60156E-05 6.61744E-24
 -1       257 2.15064E-04 8.18481E-05 0.00000E+00
 -1       258 2.14520E-04 8.14587E-05-6.61744E-24
 -1       259 2.13957E-04 7.52825E-05 0.00000E+00
 -1       260 2.13351E-04 6.38835E-05 0.00000E+00
 -1       261 2.12704E-04 4.91809E-05-1.32349E-23
 -1       262 2.12038E-04 3.31664E-05-6.61744E-24
 -1       263 2.11386E-04 1.81733E-05-1.32349E-23
 -1       264 2.10777E-04 6.51215E-06 0.00000E+00
 -1       265 2.10210E-04-3.72464E-07 0.00000E+00
 -1       266 2.14392E-04-8.62403E-07-6.61744E-24
 -1       267 2.09415E-04-8.76783E-07 1.65436E-24
 -1       268 2.04439E-04-8.91999E-07-1.65436E-24
 -1       269 1.99462E-04-9.04738E-07-4.13590E-25
 -1       270 1.94486E-04-9.17420E-07 4.13590E-25
 -1       271 2.16412E-04 3.12798E-06 2.64698E-23
 -1       272 2.13795E-04 6.06731E-06-1.32349E-23
 -1       273 2.11538E-04 8.06245E-06 0.00000E+00
 -1       274 2.09600E-04 9.18951E-06 0.00000E+00
 -1       275 2.07952E-04 9.54501E-06 0.00000E+00
 -1       276 2.06553E-04 9.23593E-06 2.64698E-23
 -1       277 2.05357E-04 8.38158E-06 0.00000E+00
 -1       278 2.04318E-04 7.11008E-06 2.64698E-23
 -1       279 2.03384E-04 5.55699E-06 0.00000E+00
 -1       280 2.02503E-04 3.86262E-06 2.64698E-23
 -1       281 2.01622E-04 2.16966E-06-5.29396E-23
 -1       282 2.00687E-04 6.20920E-07-2.64698E-23
 -1       283 1.99647E-04-6.43572E-07 0.00000E+00
 -1       284 1.98453E-04-1.48701E-06-1.32349E-23
 -1       285 1.97054E-04-1.78334E-06 0.00000E+00
 -1       301 2.07086E-04-1.20114E-06 1.32349E-23
 -1       302 2.04400E-04-1.23678E-06-3.30872E-24
 -1       303 2.01749E-04-1.27095E-06 6.61744E-24
 -1       304 1.99274E-04-1.30516E-06-9.92617E-24
 -1       305 1.97121E-04-1.34063E-06-1.32349E-23
 -1       306 2.13340E-04-1.87829E-05-5.29396E-23
 -1       307 2.29443E-04-7.35009E-05-2.64698E-23
 -1       308 2.54071E-04-1.56077E-04 5.29396E-23
 -1       309 2.83286E-04-2.55033E-04-2.64698E-23
 -1       310 3.12788E-04-3.55029E-04-5.29396E-23
 -1       311 3.38276E-04-4.40641E-04-2.64698E-23
 -1       312 3.55784E-04-4.99850E-04 0.00000E+00
 -1       313 3.61249E-04-5.22792E-04 0.00000E+00
 -1       314 3.52618E-04-5.07834E-04 5.29396E-23
 -1       315 3.28825E-04-4.56188E-04 0.00000E+00
 -1       316 2.92671E-04-3.76944E-04-5.29396E-23
 -1       317 2.48523E-04-2.80936E-04 0.00000E+00
 -1       318 2.03183E-04-1.82474E-04 0.00000E+00
 -1       319 1.63648E-04-9.59893E-05 0.00000E+00
 -1       320 1.35096E-04-3.34777E-05 5.29396E-23
 -1       336 1.62979E-04-2.93692E-06 0.00000E+00
 -1       337 1.56680E-04-3.41561E-06 6.61744E-24
 -1       338 1.49336E-04-3.90095E-06-1.32349E-23
 -1       339 1.40975E-04-4.39311E-06 6.61744E-24
 -1       340 1.31630E-04-4.89373E-06 0.00000E+00
 -1       406 1.16632E-04 7.14358E-07 0.00000E+00
 -1       407 1.16579E-04 8.16358E-07 0.00000E+00
 -1       408 1.16519E-04 9.18298E-07-3.30872E-24
 -1       409 1.16452E-04 1.02005E-06-1.65436E-24
 -1       410 1.16377E-04 1.12143E-06 3.30872E-24
 -1       521 2.02889E-04-3.21164E-05 0.00000E+00
 -1       522 2.28898E-04-1.22532E-04 0.00000E+00
 -1       523 2.66734E-04-2.57854E-04 1.05879E-22
 -1       524 3.10335E-04-4.18910E-04 0.00000E+00
 -1       525 3.54058E-04-5.80526E-04 0.00000E+00
 -1       526 3.92258E-04-7.17467E-04 0.00000E+00
 -1       527 4.18923E-04-8.10285E-04 1.05879E-22
 -1       528 4.27239E-04-8.43822E-04 5.29396E-23
 -1       529 4.12594E-04-8.15908E-04 0.00000E+00
 -1       530 3.72309E-04-7.29852E-04 0.00000E+00
 -1       531 3.10492E-04-6.00544E-04 1.05879E-22
 -1       532 2.34778E-04-4.45805E-04 5.29396E-23
 -1       533 1.57444E-04-2.88164E-04 1.05879E-22
 -1       534 9.10844E-05-1.50294E-04 5.29396E-23
 -1       535 4.45659E-05-5.12571E-05 0.00000E+00
 -1       536 1.21080E-04 1.01915E-05-6.61744E-24
 -1       537 1.20641E-04 3.53999E-05-3.30872E-24
 -1       538 1.20048E-04 6.64192E-05 3.30872E-24
 -1       539 1.19395E-04 9.94089E-05-1.65436E-24
 -1       540 1.18815E-04 1.29997E-04-3.30872E-24
 -1       541 1.18411E-04 1.53825E-04 1.65436E-24
 -1       542 1.18175E-04 1.68319E-04 0.00000E+00
 -1       543 1.18036E-04 1.70959E-04 1.65436E-24
 -1       544 1.17866E-04 1.62269E-04 0.00000E+00
 -1       545 1.17551E-04 1.42843E-04 0.00000E+00
 -1       546 1.17077E-04 1.16055E-04 0.00000E+00
 -1       547 1.16494E-04 8.53179E-05-1.65436E-24
 -1       548 1.15925E-04 5.50972E-05 0.00000E+00
 -1       549 1.15491E-04 2.98556E-05 1.65436E-24
 -1       550 1.15217E-04 1.27376E-05 0.00000E+00
 -1       551 1.08202E-04-5.70678E-06-6.61744E-24
 -1       552 9.27543E-05-6.04264E-06 1.65436E-24
 -1       553 7.57695E-05-6.40072E-06-3.30872E-24
 -1       554 5.80355E-05-6.77293E-06 0.00000E+00
 -1       555 4.03398E-05-7.14731E-06 0.00000E+00
 -1       556 1.17714E-04 3.96347E-06 2.64698E-23
 -1       557 1.14877E-04 1.13096E-05 0.00000E+00
 -1       558 1.12745E-04 1.68155E-05-2.64698E-23
 -1       559 1.11244E-04 2.06693E-05 0.00000E+00
 -1       560 1.10298E-04 2.30589E-05 0.00000E+00
 -1       561 1.09833E-04 2.41733E-05 0.00000E+00
 -1       562 1.09777E-04 2.42022E-05 0.00000E+00
 -1       563 1.10057E-04 2.33353E-05 0.00000E+00
 -1       564 1.10601E-04 2.17627E-05 0.00000E+00
 -1       565 1.11337E-04 1.96747E-05-3.30872E-24
 -1       566 1.12195E-04 1.72618E-05 0.00000E+00
 -1       567 1.13103E-04 1.47143E-05-2.06795E-25
 -1       568 1.13990E-04 1.22229E-05 0.00000E+00
 -1       569 1.14785E-04 9.97778E-06 0.00000E+00
 -1       570 1.15417E-04 8.16941E-06 0.00000E+00
 -1       571 1.15148E-04 6.49395E-06 4.13590E-25
 -1       572 1.15223E-04 6.10234E-06-4.13590E-25
 -1       573 1.15300E-04 5.67366E-06 1.65436E-24
 -1       574 1.15376E-04 5.21775E-06 0.00000E+00
 -1       575 1.15453E-04 4.74444E-06-1.65436E-24
 -1       576 1.15529E-04 4.26362E-06 0.00000E+00
 -1       577 1.15606E-04 3.78521E-06 0.00000E+00
 -1       578 1.15683E-04 3.31914E-06 0.00000E+00
 -1       579 1.15759E-04 2.87530E-06 3.30872E-24
 -1       580 1.15836E-04 2.46362E-06 0.00000E+00
 -1       581 1.15913E-04 2.09402E-06 0.00000E+00
 -1       582 1.15989E-04 1.77640E-06 0.00000E+00
 -1       583 1.16066E-04 1.52065E-06 0.00000E+00
 -1       584 1.16143E-04 1.33657E-06-6.61744E-24
 -1       585 1.16219E-04 1.23388E-06 6.61744E-24
 -1       586 1.15150E-04 6.86497E-06 8.27181E-25
 -1       587 1.15200E-04 6.89015E-06 2.06795E-25
 -1       588 1.15258E-04 6.91505E-06-8.27181E-25
 -1       589 1.15358E-04 6.93950E-06 0.00000E+00
 -1       590 1.15533E-04 6.96317E-06 0.00000E+00
 -1       591 1.15166E-04 6.54103E-06 2.06795E-25
 -1       592 1.15266E-04 6.21287E-06 0.00000E+00
 -1       593 1.15376E-04 5.86106E-06 4.13590E-25
 -1       594 1.15491E-04 5.49118E-06 0.00000E+00
 -1       595 1.15612E-04 5.10892E-06 0.00000E+00
 -1       596 1.15734E-04 4.71989E-06-4.13590E-25
 -1       597 1.15857E-04 4.32972E-06 4.13590E-25
 -1       598 1.15979E-04 3.94403E-06-2.06795E-25
 -1       599 1.16097E-04 3.56842E-06 0.00000E+00
 -1       600 1.16208E-04 3.20851E-06 2.06795E-25
 -1       601 1.16312E-04 2.86992E-06-4.13590E-25
 -1       602 1.16406E-04 2.55825E-06-2.06795E-25
 -1       603 1.16488E-04 2.27914E-06-2.06795E-25
 -1       604 1.16556E-04 2.03826E-06-5.16988E-26
 -1       605 1.16607E-04 1.84119E-06 0.00000E+00
 -1       606 1.16309E-04 1.37965E-06 0.00000E+00
 -1       607 1.16319E-04 1.63399E-06 0.00000E+00
 -1       608 1.16329E-04 1.97889E-06 0.00000E+00
 -1       609 1.16338E-04 2.40798E-06 0.00000E+00
 -1       610 1.16347E-04 2.91486E-06 0.00000E+00
 -1       611 1.16356E-04 3.49304E-06-1.65436E-24
 -1       612 1.16365E-04 4.13602E-06 0.00000E+00
 -1       613 1.16374E-04 4.83730E-06 0.00000E+00
 -1       614 1.16383E-04 5.59037E-06 0.00000E+00
 -1       615 1.16392E-04 6.38873E-06 0.00000E+00
 -1       616 1.16401E-04 7.22589E-06 0.00000E+00
 -1       617 1.16409E-04 8.09532E-06 0.00000E+00
 -1       618 1.16418E-04 8.99053E-06-8.27181E-25
 -1       619 1.16427E-04 9.90503E-06 8.27181E-25
 -1       620 1.16435E-04 1.08323E-05 0.00000E+00
 -1       621 1.16255E-04 1.30047E-06 0.00000E+00
 -1       622 1.16268E-04 1.37971E-06 0.00000E+00
 -1       623 1.16324E-04 1.45893E-06 1.65436E-24
 -1       624 1.16413E-04 1.53801E-06 8.27181E-25
 -1       625 1.16523E-04 1.61694E-06 0.00000E+00
 -1       626 1.16324E-04 1.40653E-06 0.00000E+00
 -1       627 1.16324E-04 1.66963E-06-1.65436E-24
 -1       628 1.16298E-04 2.00309E-06 3.30872E-24
 -1       629 1.16248E-04 2.39871E-06 0.00000E+00
 -1       630 1.16178E-04 2.84828E-06-3.30872E-24
 -1       631 1.16091E-04 3.34356E-06-1.65436E-24
 -1       632 1.15990E-04 3.87629E-06 0.00000E+00
 -1       633 1.15878E-04 4.43824E-06 1.65436E-24
 -1       634 1.15758E-04 5.02114E-06-3.30872E-24
 -1       635 1.15633E-04 5.61675E-06 0.00000E+00
 -1       636 1.15507E-04 6.21682E-06 3.30872E-24
 -1       637 1.15382E-04 6.81311E-06 8.27181E-25
 -1       638 1.15261E-04 7.39735E-06 0.00000E+00
 -1       639 1.15148E-04 7.96131E-06-1.65436E-24
 -1       640 1.15045E-04 8.49671E-06 0.00000E+00
 -1       656 1.15728E-04 1.13150E-05 6.61744E-24
 -1       657 1.15395E-04 1.08463E-05 0.00000E+00
 -1       658 1.15304E-04 1.03789E-05-1.32349E-23
 -1       659 1.15311E-04 9.91188E-06-6.61744E-24
 -1       660 1.15250E-04 9.44342E-06 6.61744E-24
 -1       661 1.16179E-04 1.26685E-05-8.27181E-25
 -1       662 1.15942E-04 1.35079E-05 8.27181E-25
 -1       663 1.15728E-04 1.42864E-05 0.00000E+00
 -1       664 1.15536E-04 1.50079E-05 0.00000E+00
 -1       665 1.15364E-04 1.56752E-05 1.65436E-24
 -1       666 1.15211E-04 1.62917E-05 0.00000E+00
 -1       667 1.15076E-04 1.68604E-05 0.00000E+00
 -1       668 1.14958E-04 1.73840E-05-8.27181E-25
 -1       669 1.14856E-04 1.78655E-05 0.00000E+00
 -1       670 1.14769E-04 1.83075E-05 8.27181E-25
 -1       671 1.14695E-04 1.87125E-05 0.00000E+00
 -1       672 1.14635E-04 1.90832E-05 0.00000E+00
 -1       673 1.14586E-04 1.94218E-05 0.00000E+00
 -1       674 1.14548E-04 1.97306E-05 8.27181E-25
 -1       675 1.14520E-04 2.00120E-05 0.00000E+00
 -1       676 1.15596E-04 2.06978E-05 0.00000E+00
 -1       677 1.15376E-04 2.06110E-05-1.65436E-24
 -1       678 1.15155E-04 2.05242E-05 0.00000E+00
 -1       679 1.14935E-04 2.04377E-05 0.00000E+00
 -1       680 1.14716E-04 2.03512E-05 0.00000E+00
 -1       771 1.70811E-05 5.86124E-06 0.00000E+00
 -1       772 1.16200E-05 1.68534E-05 0.00000E+00
 -1       773 7.03913E-06 2.55653E-05 0.00000E+00
 -1       774 3.28003E-06 3.21341E-05 0.00000E+00
 -1       775 2.84864E-07 3.67011E-05-5.29396E-23
 -1       776-2.00662E-06 3.94143E-05 0.00000E+00
 -1       777-3.65522E-06 4.04254E-05 0.00000E+00
 -1       778-4.72314E-06 3.98919E-05 0.00000E+00
 -1       779-5.27285E-06 3.79744E-05 0.00000E+00
 -1       780-5.36801E-06 3.48380E-05 0.00000E+00
 -1       781-5.07234E-06 3.06504E-05-5.29396E-23
 -1       782-4.45048E-06 2.55827E-05 2.64698E-23
 -1       783-3.56706E-06 1.98079E-05 0.00000E+00
 -1       784-2.48736E-06 1.35013E-05 0.00000E+00
 -1       785-1.27656E-06 6.83952E-06-2.64698E-23
 -1       786 1.15864E-04 6.48455E-06 0.00000E+00
 -1       787 1.15915E-04 6.02001E-06 0.00000E+00
 -1       788 1.15967E-04 5.58459E-06-1.65436E-24
 -1       789 1.16019E-04 5.17232E-06 0.00000E+00
 -1       790 1.16070E-04 4.77996E-06-1.65436E-24
 -1       791 1.16123E-04 4.40433E-06 8.27181E-25
 -1       792 1.16175E-04 4.04425E-06 0.00000E+00
 -1       793 1.16227E-04 3.69857E-06 8.27181E-25
 -1       794 1.16279E-04 3.36787E-06 0.00000E+00
 -1       795 1.16331E-04 3.05276E-06-8.27181E-25
 -1       796 1.16383E-04 2.75572E-06 0.00000E+00
 -1       797 1.16435E-04 2.47927E-06-8.27181E-25
 -1       798 1.16487E-04 2.22839E-06 0.00000E+00
 -1       799 1.16539E-04 2.00813E-06 0.00000E+00
 -1       800 1.16591E-04 1.82717E-06 0.00000E+00
 -1       801 1.07220E-04 6.05317E-06 1.32349E-23
 -1       802 8.03441E-05 4.77569E-06 0.00000E+00
 -1       803 4.68776E-05 3.32273E-06 2.64698E-23
 -1       804 1.87885E-05 2.02011E-06-1.32349E-23
 -1       805 1.50147E-06 9.43767E-07-2.64698E-23
 -1       806 1.15915E-04 6.43315E-06 1.65436E-24
 -1       807 1.16003E-04 5.90134E-06 8.27181E-25
 -1       808 1.16082E-04 5.39285E-06-3.30872E-24
 -1       809 1.16151E-04 4.91075E-06 0.00000E+00
 -1       810 1.16209E-04 4.45810E-06 1.65436E-24
 -1       811 1.16254E-04 4.03787E-06-8.27181E-25
 -1       812 1.16286E-04 3.65306E-06 0.00000E+00
 -1       813 1.16304E-04 3.30662E-06-8.27181E-25
 -1       814 1.16306E-04 3.00151E-06 0.00000E+00
 -1       815 1.16292E-04 2.74068E-06 0.00000E+00
 -1       816 1.16260E-04 2.52709E-06 0.00000E+00
 -1       817 1.16209E-04 2.36369E-06 1.65436E-24
 -1       818 1.16139E-04 2.25340E-06 1.65436E-24
 -1       819 1.16047E-04 2.19918E-06-8.27181E-25
 -1       820 1.15934E-04 2.20394E-06 1.65436E-24
 -1       821 1.16544E-04 1.53920E-06 8.27181E-25
 -1       822 1.16438E-04 1.29280E-06 0.00000E+00
 -1       823 1.16333E-04 1.03379E-06 0.00000E+00
 -1       824 1.16226E-04 8.40890E-07-1.65436E-24
 -1       825 1.16120E-04 7.78349E-07-3.30872E-24
 -1       826 1.16013E-04 9.09789E-07-1.65436E-24
 -1       827 1.15907E-04 1.25647E-06-3.30872E-24
 -1       828 1.15800E-04 1.83862E-06-1.65436E-24
 -1       829 1.15693E-04 2.62506E-06-3.30872E-24
 -1       830 1.15586E-04 3.58361E-06-1.65436E-24
 -1       831 1.15479E-04 4.64454E-06-3.30872E-24
 -1       832 1.15372E-04 5.73759E-06 0.00000E+00
 -1       833 1.15265E-04 6.78549E-06 0.00000E+00
 -1       834 1.15159E-04 7.71122E-06 0.00000E+00
 -1       835 1.15053E-04 8.46433E-06 8.27181E-25
 -1       836 1.16665E-04 1.79023E-06 0.00000E+00
 -1       837 1.16575E-04 1.88830E-06 0.00000E+00
 -1       838 1.16409E-04 1.98620E-06-1.65436E-24
 -1       839 1.16200E-04 2.08347E-06 0.00000E+00
 -1       840 1.15986E-04 2.18057E-06 0.00000E+00
 -1       856 1.14929E-04 9.47593E-06 4.13590E-25
 -1       857 1.14901E-04 1.00711E-05 1.03398E-25
 -1       858 1.14873E-04 1.07629E-05 0.00000E+00
 -1       859 1.14844E-04 1.15331E-05 4.13590E-25
 -1       860 1.14815E-04 1.23636E-05 0.00000E+00
 -1       861 1.14786E-04 1.32363E-05-4.13590E-25
 -1       862 1.14758E-04 1.41328E-05 8.27181E-25
 -1       863 1.14729E-04 1.50349E-05-4.13590E-25
 -1       864 1.14700E-04 1.59243E-05 0.00000E+00
 -1       865 1.14671E-04 1.67827E-05-4.13590E-25
 -1       866 1.14642E-04 1.75920E-05 0.00000E+00
 -1       867 1.14613E-04 1.83338E-05 0.00000E+00
 -1       868 1.14584E-04 1.89902E-05 0.00000E+00
 -1       869 1.14555E-04 1.95430E-05 0.00000E+00
 -1       870 1.14526E-04 1.99744E-05 0.00000E+00
 -1       871 1.14698E-04 8.99397E-06-8.27181E-25
 -1       872 1.14557E-04 8.99033E-06 0.00000E+00
 -1       873 1.14481E-04 8.98625E-06 4.13590E-25
 -1       874 1.14419E-04 8.98160E-06 1.03398E-25
 -1       875 1.14320E-04 8.97642E-06 4.13590E-25
 -1       876 1.14877E-04 9.48641E-06 0.00000E+00
 -1       877 1.14781E-04 1.00333E-05 0.00000E+00
 -1       878 1.14666E-04 1.06292E-05-3.30872E-24
 -1       879 1.14536E-04 1.12678E-05 0.00000E+00
 -1       880 1.14393E-04 1.19429E-05 3.30872E-24
 -1       881 1.14238E-04 1.26482E-05-1.65436E-24
 -1       882 1.14074E-04 1.33775E-05 0.00000E+00
 -1       883 1.13903E-04 1.41245E-05 1.65436E-24
 -1       884 1.13728E-04 1.48830E-05 0.00000E+00
 -1       885 1.13551E-04 1.56469E-05 0.00000E+00
 -1       886 1.13374E-04 1.64098E-05 0.00000E+00
 -1       887 1.13200E-04 1.71656E-05 1.65436E-24
 -1       888 1.13031E-04 1.79080E-05-3.30872E-24
 -1       889 1.12869E-04 1.86306E-05 0.00000E+00
 -1       890 1.12716E-04 1.93274E-05 0.00000E+00
 -1       891 1.14299E-04 2.02204E-05 8.27181E-25
 -1       892 1.14082E-04 2.01740E-05-4.13590E-25
 -1       893 1.13823E-04 2.01276E-05-1.65436E-24
 -1       894 1.13499E-04 2.00814E-05 2.06795E-25
 -1       895 1.13089E-04 2.00352E-05-6.20385E-25
 -1       956 1.15697E-04 2.46502E-06-1.65436E-24
 -1       957 1.15593E-04 2.72453E-06 8.27181E-25
 -1       958 1.15489E-04 3.04191E-06 1.65436E-24
 -1       959 1.15384E-04 3.40957E-06 1.65436E-24
 -1       960 1.15280E-04 3.81994E-06 0.00000E+00
 -1       961 1.15175E-04 4.26537E-06 1.65436E-24
 -1       962 1.15071E-04 4.73823E-06 0.00000E+00
 -1       963 1.14966E-04 5.23090E-06-1.65436E-24
 -1       964 1.14862E-04 5.73571E-06 0.00000E+00
 -1       965 1.14757E-04 6.24503E-06 0.00000E+00
 -1       966 1.14653E-04 6.75122E-06 0.00000E+00
 -1       967 1.14548E-04 7.24664E-06 0.00000E+00
 -1       968 1.14444E-04 7.72363E-06-3.30872E-24
 -1       969 1.14340E-04 8.17459E-06 0.00000E+00
 -1       970 1.14236E-04 8.59192E-06 3.30872E-24
 -1       971 1.14037E-04 9.36137E-06 0.00000E+00
 -1       972 1.13939E-04 9.83881E-06 8.27181E-25
 -1       973 1.13841E-04 1.03913E-05 0.00000E+00
 -1       974 1.13743E-04 1.10091E-05-1.65436E-24
 -1       975 1.13645E-04 1.16827E-05 0.00000E+00
 -1       976 1.13546E-04 1.24023E-05 0.00000E+00
 -1       977 1.13448E-04 1.31581E-05 0.00000E+00
 -1       978 1.13349E-04 1.39405E-05 1.65436E-24
 -1       979 1.13251E-04 1.47398E-05 3.30872E-24
 -1       980 1.13153E-04 1.55462E-05 0.00000E+00
 -1       981 1.13054E-04 1.63501E-05 0.00000E+00
 -1       982 1.12956E-04 1.71416E-05 0.00000E+00
 -1       983 1.12858E-04 1.79110E-05 0.00000E+00
 -1       984 1.12760E-04 1.86488E-05 0.00000E+00
 -1       985 1.12663E-04 1.93450E-05 0.00000E+00
 -3
    1PSTEP                        16           8           1          
  100CL  108 5.56641E-01         409                     0    8           1
 -4  STRESS      6    1
 -5  SXX         1    4    1    1
 -5  SYY         1    4    2    2
 -5  SZZ         1    4    3    3
 -5  SXY         1    4    1    2
 -5  SYZ         1    4    2    3
 -5  SZX         1    4    3    1
 -1         1-2.49081E+06-1.03830E+06-5.31042E+05-1.29711E+06 1.09139E-10 8.58563E-10
 -1         2 2.44763E+03-5.25224E+05 7.94355E+03-1.16438E+03-3.26565E-11-8.38389E-09
 -1         3-2.69247E+02-1.16173E+06 4.27656E+02-7.28736E+02-8.01172E-11-1.55960E-08
 -1         5-1.13245E+00 2.92012E+05 7.46781E+00 5.02608E-02 2.12052E-11 2.88856E-09
 -1         8-1.15466E+06-4.05432E+05-1.25609E+05-5.26601E+05 0.00000E+00-2.06637E-09
 -1         9-2.08877E+06-8.47580E+05-2.63390E+05-7.87964E+05 7.79110E-09-1.77766E-08
 -1        10-2.05777E+03-1.23767E+06-2.63965E+03-5.37924E+03-2.32558E-09-3.66144E-08
 -1        12 1.93279E+00 2.92028E+05 2.41746E+02 3.89820E-01 1.96074E-11 1.26665E-08
 -1        15 1.94961E+03 1.07143E+03 6.30212E+03 4.19565E+00-1.09594E-10-3.96759E-08
 -1        16-2.09725E+06-1.20841E+06-3.51733E+05-1.32832E+06 1.08557E-08 1.43579E-08
 -1        17-1.20674E+06-6.21519E+05-2.14610E+05-5.10541E+05 4.11383E-09 6.81030E-10
 -1        18-2.58407E+04-1.11830E+04-2.93016E+04-7.83461E+04 6.33554E-09-2.93221E-09
 -1        19 9.34763E+04 1.08404E+05-7.16806E+02 1.83563E+04-1.32059E-10-6.60293E-09
 -1        20-4.63607E+04-4.42287E+05-9.80755E+04 2.87073E+04 1.94223E-09 3.10562E-09
 -1        21-4.02336E+01-2.48541E+05-7.95083E+02-3.76176E+01-2.26143E-09-7.42297E-09
 -1        24-2.70584E+06-5.10315E+05-2.46742E+05-8.58686E+05-4.79049E-08-2.10324E-08
 -1        25-9.06103E+04-5.24457E+05-1.04583E+05-1.22710E+05 1.81899E-10-3.97322E-09
 -1        26-3.17557E+04 7.14175E+04-1.71719E+04-6.04399E+03 1.58034E-09 6.13006E-09
 -1        27-6.61613E+04-2.41190E+05-8.98841E+04 5.44760E+04 5.56520E-09-4.29827E-09
 -1        28 1.91337E+04-6.95041E+04 1.40922E+04 2.06396E+04 2.28775E-09-5.01339E-09
 -1        32-1.20669E+06-1.46748E+06 9.44346E+04-5.55693E+05-2.64426E-08-5.21780E-10
 -1        33-1.40609E+05 6.99025E+04 2.49417E+04-3.52772E+04 4.08894E-10 1.21894E-08
 -1        34-1.78472E+05-1.81243E+04 4.59928E+02 5.62225E+04 1.58054E-09-5.15562E-09
 -1        35-1.94929E+04-2.76106E+04-1.08804E+03 4.32970E+04 2.94915E-09 2.97829E-09
 -1        51 2.38321E+04-3.38757E+05 5.70749E+04-9.49701E+05 1.60071E-10-1.10595E-08
 -1        52 1.21175E+04-3.34157E+05 3.49146E+04-1.10755E+06 6.25732E-10-4.05635E-08
 -1        53 7.25785E+03-3.49056E+05 2.59695E+04-9.46343E+05 4.00178E-10-1.65164E-08
 -1        54 1.98367E+04-3.47472E+05 3.71012E+04-1.11103E+06 9.45874E-11 2.83471E-08
 -1        55 3.90527E+04-3.61071E+05 6.34609E+04-9.45795E+05 7.27596E-10 2.65063E-08
 -1        56-4.75394E+06-5.31811E+05-3.91005E+05-1.83853E+06 1.14233E-09-1.50612E-08
 -1        57-4.93031E+06-8.67432E+05-2.63755E+05-1.80169E+06 3.99632E-09 4.40923E-09
 -1        58-4.83145E+06-6.57054E+05-9.19376E+04-1.81515E+06-2.70666E-09-5.24597E-09
 -1        59-4.84105E+06-7.19910E+05-5.48900E+04-1.82879E+06 2.96563E-09-8.92760E-09
 -1        60-4.84210E+06-6.75188E+05-2.14367E+04-1.81276E+06-1.39198E-09-4.01997E-09
 -1        61-4.83050E+06-6.96822E+05-1.21518E+04-1.82938E+06 4.67026E-10 1.36533E-08
 -1        62-4.84175E+06-6.79617E+05-5.78277E+03-1.81467E+06 3.00838E-09 2.15414E-09
 -1        63-4.83371E+06-6.89292E+05-4.63651E+03-1.82402E+06-7.83302E-11 2.47121E-09
 -1        64-4.83880E+06-6.82683E+05-5.14813E+03-1.81810E+06-2.91948E-10-6.13181E-09
 -1        65-4.84124E+06-6.85049E+05-1.02363E+04-1.81658E+06 7.87168E-10 5.40217E-09
 -1        66-4.83423E+06-6.83915E+05-1.78614E+04-1.82209E+06 1.64800E-09 1.85801E-08
 -1        67-4.85783E+06-6.96328E+05-4.55266E+04-1.80715E+06-6.01290E-10-9.24047E-09
 -1        68-4.82244E+06-6.71836E+05-7.62365E+04-1.82744E+06-1.28239E-09 1.77170E-09
 -1        69-4.93514E+06-8.15366E+05-2.18636E+05-1.78105E+06 2.94312E-09-1.92449E-09
 -1        70-4.75792E+06-5.68293E+05-3.24198E+05-1.84712E+06 2.54659E-09-8.93488E-09
 -1        86-1.22652E+03-5.27669E+05 8.52287E+03 5.82189E+02 8.56062E-10-1.32102E-08
 -1        87 8.12773E+03-5.22532E+05 1.77571E+04-2.20505E+03 1.44610E-09 2.43220E-08
 -1        88-6.88500E+03-5.30361E+05 2.72423E+04 1.62289E+03 2.01726E-09-9.94763E-09
 -1        89 5.13058E+04-5.02618E+05 7.33742E+04-3.91533E+03 3.00042E-09-2.98872E-08
 -1        90-4.42495E+04-5.47556E+05 1.03805E+05 2.29275E+03 2.68483E-09-6.21216E-09
 -1       121-4.10751E+02-1.16281E+06 3.09559E+02 3.63522E+02 7.16653E-10-5.51336E-09
 -1       122-1.27158E+02-1.16166E+06 9.21200E+02-1.45565E+03-2.32066E-09 1.14987E-08
 -1       123-5.00378E+02-1.16291E+06 1.39525E+03 1.08713E+03 2.00623E-09 4.45107E-09
 -1       124 1.53666E+03-1.16070E+06 3.82334E+03-3.11072E+03-4.60977E-09 1.46192E-08
 -1       125-1.55285E+03-1.16385E+06 5.80722E+03 2.01625E+03 2.80488E-09-7.29960E-09
 -1       191-1.43880E+00 2.92038E+05 9.14205E+00-2.51958E-02 3.35978E-11 2.92357E-09
 -1       192-1.81647E+00 2.92012E+05 1.58006E+01 2.16240E-01 3.48523E-11-5.08135E-09
 -1       193-3.25840E+00 2.92037E+05 2.95943E+01-1.91590E-01 2.23430E-11-1.05706E-09
 -1       194-4.01811E+00 2.92015E+05 5.97375E+01 5.12631E-01-1.50546E-11 7.87406E-09
 -1       195-6.75541E+00 2.92035E+05 1.17059E+02-3.22999E-01 1.03597E-10 1.08503E-09
 -1       251-1.55151E+06 2.12908E+04-5.73023E+04-3.29805E+04-7.51697E-10 8.69113E-09
 -1       252-1.55423E+06-2.40789E+04-3.61461E+04 8.47019E+04 3.40225E-09-1.17147E-08
 -1       253-1.54845E+06 3.08310E+03-1.40169E+04-5.20377E+04-3.33353E-09 1.97451E-09
 -1       254-1.54963E+06-2.02581E+03-7.73659E+03 9.39730E+04 3.13207E-11 5.59896E-09
 -1       255-1.55662E+06-2.48299E+02-4.89861E+03-4.22626E+04 3.86763E-10-3.64116E-09
 -1       256-1.52679E+06 8.36457E+02 2.89513E+03 5.08983E+04 1.10797E-08 1.61244E-08
 -1       257-1.56922E+06-1.43297E+03-4.84249E+03-8.93788E+03 5.51017E-09-1.71637E-08
 -1       258-1.51915E+06 1.18951E+03 5.90828E+03-2.07749E+04 6.65932E-09 2.10045E-08
 -1       259-1.56354E+06-1.17760E+03-2.75856E+03 2.93824E+04-6.28916E-09 8.41553E-09
 -1       260-1.53958E+06 1.92736E+03 2.87992E+03-8.08050E+04-2.32592E-09-6.83548E-09
 -1       261-1.55080E+06-5.52967E+02 8.25250E+02 5.10954E+04 1.16122E-08 3.08154E-09
 -1       262-1.54808E+06 3.15196E+03 2.95955E+03-9.58079E+04-8.94326E-09-2.93085E-09
 -1       263-1.55591E+06-1.69076E+03 2.30747E+03 4.44013E+04 1.79944E-09 2.06242E-08
 -1       264-1.52533E+06 9.04801E+03 1.39478E+04-5.76521E+04 2.05591E-08-7.21229E-10
 -1       265-1.57161E+06-7.98741E+03 8.82651E+03 1.29131E+04 4.94947E-09 9.60245E-09
 -1       266-3.52934E+04-1.65008E+04 8.28201E+04-8.97848E+01-3.63798E-12-2.52814E-09
 -1       267 4.09159E+04 1.92358E+04 5.85301E+04 1.03580E+02 2.54659E-11 2.54821E-08
 -1       268-5.48670E+03-2.72412E+03 2.17557E+04-1.31987E+01 6.00267E-11 2.58844E-09
 -1       269 6.47824E+03 3.26042E+03 1.41405E+04 1.53737E+01 1.12095E-10 9.84442E-09
 -1       270-9.72392E+02-5.35703E+02 6.82585E+03-2.08635E+00 5.54792E-11 3.73738E-10
 -1       271-3.26296E+06-4.07951E+05-2.46339E+05-1.27022E+06 1.04774E-09 3.21597E-09
 -1       272-3.35170E+06-5.87457E+05-1.58410E+05-1.26761E+06 2.10997E-09-9.41509E-09
 -1       273-3.31036E+06-4.68356E+05-5.81989E+04-1.25803E+06 1.39016E-09 1.43045E-08
 -1       274-3.29546E+06-5.14146E+05-3.25493E+04-1.28671E+06 2.55750E-09 1.50949E-08
 -1       275-3.31833E+06-4.73140E+05-1.35631E+04-1.25435E+06 1.13687E-10 1.10394E-08
 -1       276-3.28534E+06-5.09262E+05-7.16482E+03-1.29307E+06 2.37196E-09 2.63035E-08
 -1       277-3.32080E+06-4.72138E+05-3.52750E+03-1.25229E+06-5.84805E-10 1.12891E-08
 -1       278-3.28226E+06-5.10901E+05-2.51008E+03-1.29643E+06-5.68434E-10 3.51065E-09
 -1       279-3.32175E+06-4.71207E+05-2.66147E+03-1.25127E+06-9.23592E-10-1.35063E-08
 -1       280-3.28191E+06-5.12332E+05-4.84967E+03-1.29748E+06-5.19253E-09-1.10285E-08
 -1       281-3.32130E+06-4.70663E+05-8.80422E+03-1.25132E+06-2.30580E-09 1.72017E-08
 -1       282-3.28679E+06-5.17282E+05-2.11248E+04-1.29556E+06-2.35912E-09 6.04814E-11
 -1       283-3.31686E+06-4.66855E+05-3.75961E+04-1.25292E+06-1.65650E-09 3.92902E-10
 -1       284-3.32215E+06-5.65678E+05-1.02491E+05-1.28426E+06-2.87434E-09 2.92857E-09
 -1       285-3.28646E+06-4.27573E+05-1.59335E+05-1.26053E+06 1.51886E-09-6.90488E-09
 -1       301 2.30239E+04-8.94530E+04 1.67990E+05-1.72845E+05-3.85626E-10-1.29830E-09
 -1       302 2.42391E+04-4.70906E+04 1.09667E+05-2.53484E+05 4.95220E-10-1.19664E-08
 -1       303 1.34939E+03-7.26668E+04 8.29784E+04-1.72695E+05-4.43833E-10 8.07995E-09
 -1       304 2.71319E+04-4.34724E+04 1.20100E+05-2.53068E+05 6.40284E-10 3.79323E-08
 -1       305 2.58209E+04-9.15753E+04 1.90991E+05-1.73317E+05-4.36557E-10-1.04046E-09
 -1       306-6.69876E+06-6.36799E+05-6.24457E+05-2.12092E+06-1.23473E-08-1.39989E-08
 -1       307-4.68506E+06-1.70260E+06-1.60364E+05-3.17154E+06-1.20184E-07 1.96960E-08
 -1       308-6.68242E+06-2.87394E+05-1.24938E+05-1.51069E+06 5.10772E-09 5.19940E-08
 -1       309-4.93834E+06-1.87428E+06-3.07565E+04-3.95303E+06 4.94056E-08 7.63930E-09
 -1       310-6.68144E+06-2.87519E+05-3.51023E+04-1.48463E+06 5.11864E-09-2.75177E-08
 -1       311-4.61221E+06-1.57919E+06 1.09350E+05-3.29040E+06 1.30360E-07-2.53467E-08
 -1       312-6.79520E+06-7.40221E+05-1.64573E+05-2.04434E+06 1.47556E-08 2.77032E-08
 -1       313-4.78164E+06-7.26171E+05 2.23670E+05-1.91002E+06 9.05129E-09-1.12923E-08
 -1       314-6.29200E+06-1.29682E+06-1.79203E+05-2.68305E+06 4.36557E-08-6.91216E-09
 -1       315-6.34060E+06 2.68055E+05 1.26135E+05-1.11419E+06-6.40539E-08-1.71531E-08
 -1       316-5.43828E+06-1.58499E+06-5.33923E+04-2.96699E+06-1.45868E-07-8.68495E-08
 -1       317-7.51969E+06 7.04062E+05-4.01024E+04-1.00826E+06 1.09304E-07-7.32380E-08
 -1       318-5.32922E+06-1.58293E+06-1.28232E+05-2.98718E+06-9.14079E-08 1.79643E-08
 -1       319-6.76064E+06 2.01290E+05-2.27601E+05-1.03215E+06-1.82627E-08 2.11876E-08
 -1       320-6.03677E+06-1.19654E+06-6.80409E+05-2.79058E+06 3.54194E-08-1.06957E-08
 -1       336 1.26515E+03-1.31303E+06-1.03883E+04 3.34701E+03-4.41105E-09 7.42148E-10
 -1       337-3.89400E+03-1.31525E+06-1.07595E+04-8.28401E+03-4.03270E-09-9.69339E-09
 -1       338 6.61769E+02-1.31346E+06-1.31138E+04 4.90571E+03-6.09862E-09-1.26529E-08
 -1       339-1.35741E+04-1.32144E+06-2.80989E+04-1.13304E+04-3.99814E-09 1.06993E-08
 -1       340 9.31911E+03-1.30726E+06-4.30328E+04 6.36774E+03-6.31189E-09 1.95178E-08
 -1       406 2.06066E+01 2.92025E+05 4.77480E+02-6.96763E-02 7.73355E-11-2.43972E-09
 -1       407 1.68307E+02 2.92111E+05 1.01433E+03-1.93669E+00 8.98126E-12-7.80227E-09
 -1       408 5.24211E+02 2.91952E+05 2.02608E+03 2.05619E+00 1.12777E-10-5.40513E-09
 -1       409 2.19215E+03 2.92758E+05 4.56077E+03-2.03702E+01-7.49196E-11 9.53673E-09
 -1       410 6.29497E+03 2.91376E+05 9.31078E+03 1.92058E+01 7.27596E-12-8.10655E-09
 -1       521-8.94268E+06-9.24476E+05-1.04869E+06-2.47112E+06-1.12632E-08 3.41388E-08
 -1       522-4.39477E+06-2.27951E+06-3.11595E+04-4.51398E+06-1.32160E-07-3.79478E-08
 -1       523-8.50038E+06-1.16513E+05-1.79314E+05-1.31243E+06-9.75706E-09-6.04487E-08
 -1       524-5.60456E+06-2.50764E+06 1.00226E+04-6.09584E+06 1.61486E-07-1.41956E-07
 -1       525-8.49753E+06-1.22116E+05-6.49529E+04-1.29544E+06 1.33958E-07-9.00200E-08
 -1       526-4.33463E+06-2.14002E+06 3.04820E+05-4.60517E+06 4.48126E-08 2.02090E-09
 -1       527-9.02976E+06-1.03665E+06-4.46144E+05-2.41280E+06 6.21076E-08 2.10130E-08
 -1       528-4.10636E+06-6.34997E+05 5.68829E+05-1.69339E+06 4.13711E-08 1.07975E-08
 -1       529-8.06080E+06-2.09009E+06-4.69447E+05-3.61116E+06-3.44880E-08 7.26141E-09
 -1       530-7.62758E+06 1.35108E+06 3.34870E+05-5.19252E+05-1.41205E-07 1.03166E-07
 -1       531-6.20734E+06-2.50291E+06-8.82023E+04-3.99237E+06-1.34300E-07-1.39844E-08
 -1       532-1.02830E+07 2.18305E+06 1.65179E+04-7.86709E+05 1.05581E-07-1.43220E-07
 -1       533-6.03797E+06-2.49955E+06-1.47350E+05-4.00228E+06 4.11528E-08-2.25476E-07
 -1       534-8.24591E+06 1.40124E+06-3.46636E+04-5.08372E+05-6.62185E-08 1.49194E-07
 -1       535-7.73995E+06-2.05878E+06-9.85610E+05-3.72834E+06-1.70257E-08 1.05763E-07
 -1       536-4.23006E+05-2.39486E+04 3.31038E+04-1.78933E+04-3.74803E-09 3.25090E-08
 -1       537-3.14973E+05 2.62886E+04 3.98109E+04 4.39199E+04-4.63236E-08 2.90306E-08
 -1       538-3.70560E+05-2.00315E+03 1.11606E+04-2.70711E+04 1.83890E-08 4.22151E-08
 -1       539-3.48717E+05 3.37633E+03 1.04872E+04 4.94438E+04 6.24234E-08 5.24431E-08
 -1       540-3.89899E+05-5.43250E+02-1.28029E+03-2.34420E+04 2.72962E-10 4.20445E-08
 -1       541-2.80754E+05 3.25021E+03 1.91259E+04 2.98054E+04-5.81349E-09 2.77186E-08
 -1       542-4.36692E+05-3.36839E+03-1.31651E+04-7.38049E+03 8.52788E-09 1.41775E-08
 -1       543-2.45593E+05 4.28572E+03 2.47914E+04-6.96695E+03 4.13991E-09-1.21934E-08
 -1       544-4.24128E+05-2.33598E+03-1.16489E+04 1.32839E+04-1.36201E-08-5.85470E-09
 -1       545-3.09365E+05 7.58134E+02 1.03072E+04-3.98332E+04 2.58979E-09-2.29700E-08
 -1       546-3.74597E+05 1.51894E+03-3.72279E+03 2.54721E+04 1.33647E-08-3.36031E-08
 -1       547-3.56496E+05-3.66368E+03-4.22379E+03-5.12001E+04-4.60238E-08-4.77449E-08
 -1       548-3.78211E+05 3.07030E+03-1.29568E+04 2.46911E+04-4.93212E-08-3.69309E-08
 -1       549-3.06973E+05-1.48481E+04-1.46219E+04-3.66710E+04-2.53792E-08-2.12308E-08
 -1       550-4.22644E+05 1.14924E+04-5.53743E+04 1.08971E+04 3.91037E-09-1.24837E-08
 -1       551 2.09927E+04-6.28878E+05 2.53534E+04-1.03068E+06-5.36820E-08-6.62112E-09
 -1       552 4.67278E+04-6.43453E+05 3.28253E+04-1.46840E+06-3.96103E-08 1.59052E-08
 -1       553 3.34474E+04-6.49058E+05 4.72912E+04-1.02668E+06-6.49816E-08 2.09402E-08
 -1       554 7.44753E+04-6.41429E+05 9.86711E+04-1.46991E+06-4.07454E-08 2.44372E-08
 -1       555 6.19240E+04-6.67942E+05 1.74768E+05-1.02763E+06-6.55709E-08-4.29281E-09
 -1       556 1.14686E+05-2.10490E+05 6.60061E+04-2.61724E+05-1.35915E-08-6.60657E-09
 -1       557 1.99026E+05-2.78296E+05 3.50864E+04-3.29732E+05 5.82077E-10 1.34405E-08
 -1       558 1.11714E+05-2.17761E+05 1.35440E+04-2.55485E+05-1.11904E-08 1.51340E-09
 -1       559 1.84815E+05-2.86457E+05 7.07617E+03-3.37038E+05 9.48057E-09 1.78261E-09
 -1       560 1.07131E+05-2.14809E+05 2.55449E+03-2.58574E+05 1.48430E-09-3.17596E-09
 -1       561 1.78401E+05-2.84359E+05 1.50594E+03-3.41180E+05-4.24916E-09 1.68347E-09
 -1       562 1.03504E+05-2.12465E+05 3.86504E+02-2.61178E+05 2.11730E-09-3.92720E-09
 -1       563 1.74141E+05-2.82511E+05 3.69265E+02-3.43916E+05-4.70027E-09-4.48074E-09
 -1       564 1.01115E+05-2.10951E+05 7.66321E+01-2.62867E+05 6.03904E-10-6.25050E-09
 -1       565 1.71682E+05-2.81445E+05 1.28007E+02-3.45473E+05 1.92449E-09-1.49194E-08
 -1       566 1.00021E+05-2.10248E+05 1.79244E+01-2.63639E+05-7.05950E-09-1.98579E-08
 -1       567 1.70982E+05-2.81127E+05-5.89068E+01-3.45829E+05 9.88894E-09 1.96451E-09
 -1       568 1.00265E+05-2.10413E+05-3.28505E+02-2.63553E+05 2.98314E-10 7.29051E-09
 -1       569 1.71201E+05-2.81024E+05-8.02420E+02-3.44205E+05-1.54250E-09 1.98070E-08
 -1       570 1.02542E+05-2.12294E+05-1.90720E+03-2.63232E+05 4.19095E-09 2.58296E-09
 -1       571 2.18796E+05 8.06194E+03 1.18799E+04-5.69265E+04 1.00681E-09 1.50815E-08
 -1       572 2.20556E+05 2.83936E+03 5.82065E+03-6.24303E+04 1.88675E-09 4.37285E-09
 -1       573 2.19501E+05 7.11904E+02 2.58595E+03-5.67944E+04 9.59062E-10-2.32149E-09
 -1       574 2.19705E+05 2.69165E+02 1.29588E+03-6.25816E+04-2.08934E-09-7.74344E-09
 -1       575 2.19580E+05 7.75521E+01 6.11086E+02-5.67769E+04-2.15800E-09 1.78989E-09
 -1       576 2.19591E+05 6.04148E+01 3.11707E+02-6.26018E+04-3.80533E-09 3.05590E-10
 -1       577 2.19596E+05 4.10364E+01 1.54589E+02-5.67746E+04-2.87628E-09 6.11180E-10
 -1       578 2.19587E+05 4.60507E+01 8.65369E+01-6.26043E+04-3.93356E-10-5.32009E-09
 -1       579 2.19617E+05 3.36111E+01 5.66212E+01-5.67745E+04 4.49108E-09 3.34148E-09
 -1       580 2.19616E+05 3.32724E+01 5.94858E+01-6.26010E+04 3.10501E-09 5.16820E-09
 -1       581 2.19652E+05 1.92756E+01 8.72423E+01-5.67779E+04 5.30872E-09 7.55063E-09
 -1       582 2.19678E+05 3.53550E+01 1.71997E+02-6.25656E+04 3.19778E-09 1.52545E-08
 -1       583 2.19692E+05 7.24441E+01 3.32335E+02-5.68099E+04 2.94585E-08 1.83263E-09
 -1       584 2.19850E+05 3.35421E+02 7.47379E+02-6.22974E+04 5.56684E-08-9.58164E-09
 -1       585 2.19658E+05 9.90773E+02 1.51810E+03-5.70465E+04 2.81543E-08 6.83212E-09
 -1       586-2.70065E+03 7.18593E+04-3.33547E+03-1.95579E+05-4.99767E-10 2.58706E-09
 -1       587-6.35345E+02 7.14431E+04-1.28429E+02-2.15265E+05-6.09361E-10 3.44846E-09
 -1       588 7.36768E+02 7.14911E+04 2.96750E+03-1.95482E+05-8.40373E-10 3.30056E-09
 -1       589 4.04757E+03 7.31031E+04 8.30645E+03-2.15045E+05-1.20599E-09-2.13549E-09
 -1       590 1.19035E+04 7.05604E+04 1.76634E+04-1.95810E+05-9.05857E-10-1.54250E-09
 -1       591-4.53192E+04-1.20479E+04-1.54143E+04-2.22202E+04-3.20938E-10-5.70617E-09
 -1       592-4.72494E+04-1.53482E+04-8.34926E+03-2.56870E+04-3.53964E-10-1.18815E-08
 -1       593-4.68704E+04-1.09197E+04-3.47570E+03-2.33410E+04 1.60787E-09-2.70120E-10
 -1       594-4.51090E+04-1.30995E+04-1.73350E+03-2.57839E+04 6.28893E-09-4.46789E-10
 -1       595-4.69890E+04-1.09151E+04-7.96408E+02-2.33922E+04 2.21127E-09 3.83093E-09
 -1       596-4.49635E+04-1.29966E+04-4.05640E+02-2.57679E+04 2.71660E-09 1.09553E-08
 -1       597-4.70040E+04-1.09252E+04-2.22552E+02-2.33942E+04-8.92499E-10 1.06809E-10
 -1       598-4.49494E+04-1.29927E+04-1.81969E+02-2.57633E+04 4.67821E-10 1.13137E-08
 -1       599-4.70028E+04-1.09254E+04-2.36270E+02-2.33938E+04-2.22849E-09-8.81414E-09
 -1       600-4.49644E+04-1.29978E+04-4.41966E+02-2.57670E+04 5.89296E-10-2.26487E-09
 -1       601-4.69843E+04-1.09150E+04-8.73504E+02-2.33909E+04-2.62617E-10-1.50212E-08
 -1       602-4.51240E+04-1.31105E+04-1.90453E+03-2.57821E+04-1.50067E-09-7.86804E-09
 -1       603-4.68521E+04-1.09221E+04-3.81983E+03-2.33349E+04 5.69344E-10 2.93380E-09
 -1       604-4.74866E+04-1.55700E+04-9.17583E+03-2.56603E+04-3.29101E-09 1.44541E-09
 -1       605-4.51343E+04-1.21727E+04-1.69403E+04-2.21146E+04 3.21927E-09 1.37934E-08
 -1       606 2.77997E+04-1.04947E+04-1.88721E+04 2.69012E+04-1.21599E-09 1.34605E-10
 -1       607 2.45694E+04-3.39702E+03-9.39733E+03 3.02023E+04-1.02045E-09-7.93648E-09
 -1       608 2.64014E+04-5.84218E+02-4.20824E+03 2.66897E+04 1.32241E-09 4.53906E-09
 -1       609 2.60385E+04-1.64068E+02-2.12544E+03 3.04392E+04-5.96629E-10 8.49650E-09
 -1       610 2.62321E+04 1.34408E+01-1.01517E+03 2.66658E+04-1.14596E-09 6.98924E-09
 -1       611 2.61651E+04 2.54817E+01-5.11844E+02 3.04650E+04-7.66295E-09 7.39328E-09
 -1       612 2.61870E+04 3.01365E+01-2.44559E+02 2.66635E+04 3.04590E-09 5.44946E-09
 -1       613 2.61627E+04 3.46321E+01-1.10691E+02 3.04680E+04 1.08630E-08 2.98883E-09
 -1       614 2.61622E+04 3.08385E+01-2.92083E+01 2.66627E+04 7.74253E-09 2.45859E-09
 -1       615 2.61501E+04 4.05202E+01 3.89313E+01 3.04685E+04 7.16182E-09-1.84036E-09
 -1       616 2.61433E+04 3.70754E+01 1.23542E+02 2.66630E+04 8.58563E-10 8.44216E-09
 -1       617 2.61584E+04 7.08410E+01 2.84762E+02 3.04679E+04 4.10000E-09-9.01059E-09
 -1       618 2.61138E+04 1.22233E+02 5.74908E+02 2.66631E+04 9.82709E-10-1.40517E-09
 -1       619 2.63575E+04 5.17880E+02 1.29173E+03 3.04671E+04 2.85581E-10 1.79289E-08
 -1       620 2.59203E+04 1.48781E+03 2.59644E+03 2.66620E+04 2.77350E-09 9.01900E-09
 -1       621 2.85138E+02 2.26915E+05 2.58958E+03 1.34662E+04-2.06910E-11 4.89490E-09
 -1       622 3.43041E+02 2.27551E+05 2.35862E+03 1.96092E+04 1.06184E-10-9.65315E-09
 -1       623 1.97775E+01 2.27072E+05 2.92131E+03 1.34018E+04-9.13474E-11-4.65343E-09
 -1       624 1.38524E+03 2.28496E+05 5.72991E+03 1.96747E+04-1.41881E-10-1.13033E-08
 -1       625 1.39213E+03 2.25948E+05 1.00471E+04 1.34003E+04 9.09495E-12-9.03356E-09
 -1       626 1.97249E+05 5.25445E+04 4.22184E+03 1.03614E+05-5.50790E-09 3.90901E-09
 -1       627 1.94849E+05 5.41851E+04 2.03448E+03 1.07681E+05-1.17752E-08 1.23318E-08
 -1       628 1.97382E+05 5.05762E+04 8.59493E+02 1.04285E+05-9.32596E-09-1.95041E-09
 -1       629 1.94272E+05 5.36718E+04 4.20961E+02 1.07922E+05 6.51653E-10-3.27680E-09
 -1       630 1.97390E+05 5.04836E+04 1.94475E+02 1.04306E+05 2.30648E-09-1.65159E-08
 -1       631 1.94204E+05 5.36576E+04 1.04007E+02 1.07923E+05 7.29051E-09-1.29676E-08
 -1       632 1.97381E+05 5.04906E+04 6.72879E+01 1.04298E+05-9.96806E-10-2.91323E-09
 -1       633 1.94190E+05 5.36628E+04 7.32524E+01 1.07915E+05-3.08523E-09 2.24418E-10
 -1       634 1.97371E+05 5.04914E+04 1.16788E+02 1.04293E+05 5.81622E-09-9.38371E-10
 -1       635 1.94196E+05 5.36641E+04 2.35578E+02 1.07915E+05 7.43876E-09-4.00814E-09
 -1       636 1.97360E+05 5.04898E+04 4.75229E+02 1.04291E+05-4.41901E-10-4.13115E-09
 -1       637 1.94294E+05 5.37392E+04 1.04426E+03 1.07911E+05-6.54779E-10 1.45660E-08
 -1       638 1.97320E+05 5.07219E+04 2.14578E+03 1.04184E+05-6.92125E-10-3.79850E-09
 -1       639 1.95420E+05 5.53070E+04 5.07635E+03 1.07578E+05-1.40176E-09-4.71664E-09
 -1       640 1.97169E+05 5.53962E+04 1.05344E+04 1.02204E+05 2.04636E-11-6.30234E-09
 -1       656 5.23326E+04-1.32873E+06-1.26330E+05-5.20240E+02 4.72937E-10-3.11948E-09
 -1       657-6.91810E+04-1.38576E+06-1.04536E+05 7.54420E+03-7.27596E-11-1.31254E-08
 -1       658 1.66262E+04-1.34497E+06-6.42295E+04-1.95261E+03 6.57110E-11-1.72128E-08
 -1       659-7.43958E+04-1.38823E+06-1.11386E+05 8.56028E+03-7.27596E-12 2.97536E-09
 -1       660 5.75353E+04-1.32626E+06-1.38109E+05-1.53631E+03-3.12866E-10-6.06687E-09
 -1       661 1.68948E+05 1.82655E+04 1.65573E+04 6.60656E+04 2.32831E-09-4.59568E-09
 -1       662 1.77777E+05 3.10499E+04 1.11572E+04 6.29561E+04-1.11066E-09-1.71596E-08
 -1       663 1.72196E+05 2.35799E+04 3.90272E+03 6.51255E+04 2.65231E-10 5.48175E-09
 -1       664 1.74015E+05 2.48313E+04 2.33366E+03 6.41013E+04-8.66748E-10 3.51309E-09
 -1       665 1.72685E+05 2.43094E+04 9.20573E+02 6.49863E+04-1.02528E-09-4.53389E-09
 -1       666 1.73439E+05 2.39942E+04 5.37362E+02 6.42810E+04-9.16145E-09-1.00309E-08
 -1       667 1.72768E+05 2.43951E+04 2.83891E+02 6.49539E+04-2.23753E-09-5.83566E-09
 -1       668 1.73349E+05 2.39288E+04 2.85768E+02 6.43280E+04 3.17243E-09-2.92161E-09
 -1       669 1.72775E+05 2.43728E+04 3.84000E+02 6.49399E+04 1.08358E-10 9.22435E-09
 -1       670 1.73444E+05 2.41344E+04 8.33494E+02 6.43294E+04 3.69783E-09 1.07934E-09
 -1       671 1.72674E+05 2.41936E+04 1.47901E+03 6.49508E+04 1.47858E-09 1.14848E-08
 -1       672 1.74305E+05 2.55734E+04 3.78331E+03 6.41214E+04-1.31518E-09 8.20563E-09
 -1       673 1.71918E+05 2.29701E+04 6.33995E+03 6.51340E+04-8.07290E-10 6.80438E-09
 -1       674 1.80341E+05 3.57574E+04 1.81308E+04 6.23469E+04 1.81825E-09 6.89420E-09
 -1       675 1.66677E+05 1.42945E+04 2.69121E+04 6.66180E+04 4.52383E-09-9.75706E-09
 -1       676 2.06300E+01-2.48475E+05-9.58281E+02 1.88092E+01 3.43363E-10-4.24367E-09
 -1       677-2.54474E+02-2.48706E+05-1.75378E+03-3.75959E+01-2.09209E-09 9.68047E-10
 -1       678 1.69881E+02-2.48310E+05-3.10023E+03 1.87737E+01-1.57183E-09-7.19765E-09
 -1       679-3.10109E+03-2.50578E+05-7.36469E+03-3.74600E+01-1.63573E-09-1.71838E-08
 -1       680 1.85074E+03-2.46604E+05-1.18694E+04 1.84604E+01-1.69211E-09 5.03202E-09
 -1       771-2.64191E+06-5.19940E+05-7.68364E+04-1.15676E+06-1.61381E-08-1.34460E-08
 -1       772-2.60748E+06-5.69072E+05-4.04975E+04-1.21251E+06-1.24564E-08 3.95630E-09
 -1       773-2.65496E+06-5.09637E+05-1.88391E+04-1.16139E+06-5.42786E-09 5.09317E-09
 -1       774-2.59866E+06-5.60952E+05-8.80159E+03-1.22133E+06 1.43191E-08-4.88581E-09
 -1       775-2.66001E+06-5.06073E+05-5.40417E+03-1.16264E+06-4.74392E-09-9.82254E-11
 -1       776-2.60064E+06-5.60784E+05-2.22662E+03-1.22720E+06-5.26779E-09 2.03727E-09
 -1       777-2.66408E+06-5.03071E+05-1.99047E+03-1.16370E+06 6.89761E-09 8.62201E-10
 -1       778-2.60310E+06-5.60765E+05-6.53786E+02-1.23216E+06 7.77072E-09-2.52658E-09
 -1       779-2.66747E+06-5.00510E+05-9.08985E+02-1.16462E+06-2.34286E-09-5.57156E-09
 -1       780-2.60531E+06-5.60699E+05-2.50374E+02-1.23618E+06-9.45874E-10-3.59250E-10
 -1       781-2.67010E+06-4.98474E+05-4.84469E+02-1.16534E+06-1.05865E-08-1.19871E-09
 -1       782-2.60702E+06-5.60615E+05-2.66463E+02-1.23913E+06-1.72295E-08-4.10319E-09
 -1       783-2.67190E+06-4.97095E+05-5.71536E+02-1.16584E+06-1.23691E-10-3.00975E-09
 -1       784-2.60836E+06-5.60820E+05-1.07823E+03-1.24091E+06-9.11859E-09 2.56478E-10
 -1       785-2.67262E+06-4.96538E+05-2.05001E+03-1.16596E+06-1.91230E-08 3.47973E-09
 -1       786 1.44958E+05-9.32627E+03 2.15762E+04-9.91860E+01 2.06921E-09-9.04220E-09
 -1       787 1.54312E+05 1.07969E+04 1.52645E+04 2.60208E+01 3.56761E-09 2.16392E-09
 -1       788 1.48566E+05-1.46194E+03 5.58349E+03-7.65326E+01 7.01242E-10 5.10272E-09
 -1       789 1.50109E+05 1.69144E+03 3.50684E+03-1.07911E+01 5.18937E-10 5.30270E-09
 -1       790 1.49162E+05-2.28221E+02 1.42387E+03-6.23775E+01-3.24095E-10 8.32148E-09
 -1       791 1.49414E+05 2.64295E+02 8.30135E+02-3.57945E+01-1.20310E-09 4.52015E-09
 -1       792 1.49262E+05-3.58672E+01 3.67292E+02-5.15293E+01-3.22772E-10 1.42617E-09
 -1       793 1.49298E+05 4.47799E+01 2.17120E+02-5.70690E+01 1.37534E-11-1.04023E-09
 -1       794 1.49277E+05-8.84642E+00 1.24796E+02-4.11027E+01 1.10952E-09-7.18770E-09
 -1       795 1.49289E+05 3.19403E+01 1.28443E+02-8.00658E+01-5.92624E-10 2.98159E-09
 -1       796 1.49271E+05-2.30318E+01 1.60898E+02-2.85321E+01 8.65010E-10-8.03183E-10
 -1       797 1.49353E+05 1.65740E+02 3.53336E+02-1.10404E+02 4.66312E-10 1.51436E-08
 -1       798 1.49213E+05-1.42550E+02 5.49320E+02-1.07642E+01 1.71578E-10 3.29277E-09
 -1       799 1.49763E+05 1.05214E+03 1.49008E+03-1.55512E+02 5.61949E-10-4.94276E-09
 -1       800 1.48861E+05-9.08733E+02 2.10263E+03 1.65766E+01 6.88312E-11 8.84097E-09
 -1       801 7.80695E+04-2.75329E+06-2.57041E+05 4.98296E+04 1.78698E-08-3.42925E-09
 -1       802-9.30496E+04-2.51362E+06-1.14948E+05-5.23178E+04 4.97075E-08-3.06716E-09
 -1       803 1.28024E+04-2.63517E+06-4.69758E+04 1.29407E+05 3.61324E-08 2.38699E-08
 -1       804 1.43422E+04-2.50096E+06 2.49296E+04-1.31162E+03 3.38878E-08 2.58923E-08
 -1       805-3.07867E+04-2.76560E+06 8.32508E+03-1.18380E+03 1.28130E-08 1.49444E-08
 -1       806-2.40437E+05-4.68588E+04-1.82379E+04-9.53957E+04-2.91584E-09-7.22730E-09
 -1       807-2.41926E+05-4.38290E+04-8.96004E+03-9.97522E+04 5.03132E-09 2.59169E-09
 -1       808-2.40931E+05-4.02939E+04-3.80107E+03-9.85137E+04-2.02499E-09-2.71046E-09
 -1       809-2.40041E+05-4.13138E+04-1.85855E+03-9.99766E+04-1.21031E-09 2.99406E-09
 -1       810-2.41007E+05-4.00645E+04-8.51508E+02-9.86521E+04-1.63209E-09 1.47088E-09
 -1       811-2.39896E+05-4.12126E+04-4.23052E+02-9.99502E+04 1.69098E-09 1.61799E-09
 -1       812-2.41020E+05-4.00831E+04-2.12873E+02-9.86521E+04-5.56747E-09-9.66111E-10
 -1       813-2.39877E+05-4.12142E+04-1.36842E+02-9.99371E+04-4.02497E-09-3.51849E-09
 -1       814-2.41017E+05-4.00898E+04-1.32880E+02-9.86494E+04 6.08270E-09 8.24321E-09
 -1       815-2.39881E+05-4.12158E+04-2.12047E+02-9.99331E+04-2.81034E-10-1.30196E-08
 -1       816-2.41003E+05-4.00881E+04-4.00175E+02-9.86472E+04 7.81256E-10 1.87119E-08
 -1       817-2.39950E+05-4.12538E+04-8.58792E+02-9.99263E+04 4.76120E-10 3.78759E-09
 -1       818-2.40953E+05-4.02079E+04-1.75098E+03-9.85905E+04 4.43379E-09 3.20506E-09
 -1       819-2.40910E+05-4.23114E+04-4.12075E+03-9.97015E+04-1.87538E-09 6.12226E-09
 -1       820-2.40628E+05-4.33161E+04-8.38673E+03-9.72559E+04 1.04592E-09 4.28213E-09
 -1       821-2.97662E+05 1.64656E+04-3.80800E+04 3.15996E+02 1.58874E-09 3.20506E-09
 -1       822-3.14158E+05-1.90617E+04-2.69464E+04-1.01577E+03-1.24849E-09 1.19712E-08
 -1       823-3.04026E+05 2.58184E+03-9.86242E+03 3.34634E+02-3.51591E-10-1.27147E-09
 -1       824-3.06726E+05-2.98783E+03-6.20410E+03-8.48878E+02 9.31927E-10 4.02054E-09
 -1       825-3.05092E+05 4.03791E+02-2.55298E+03 1.49108E+02-7.95001E-10 1.03902E-08
 -1       826-3.05478E+05-4.75752E+02-1.53512E+03-3.57627E+02-2.01277E-09 3.65711E-09
 -1       827-3.05272E+05 7.10480E+01-8.02398E+02-1.56626E+02-2.88964E-09-1.42163E-08
 -1       828-3.05313E+05-1.45295E+02-7.02964E+02 2.38316E+02-4.18006E-09-1.08861E-08
 -1       829-3.05258E+05 7.36373E+01-8.17848E+02-4.46845E+02-6.55547E-11-6.99507E-09
 -1       830-3.05520E+05-4.93536E+02-1.59379E+03 6.74048E+02 1.34728E-09 4.63174E-09
 -1       831-3.05065E+05 4.19624E+02-2.64334E+03-5.92367E+02-1.91234E-09-2.45336E-09
 -1       832-3.06796E+05-3.10069E+03-6.44167E+03 7.56149E+02-1.07893E-09 5.55451E-09
 -1       833-3.03983E+05 2.67906E+03-1.02385E+04-5.28946E+02-8.05226E-10 1.29276E-08
 -1       834-3.14472E+05-1.97850E+04-2.79673E+04 4.47467E+02-9.95620E-10-4.72937E-10
 -1       835-2.97391E+05 1.70906E+04-3.95348E+04-2.83672E+02 5.99007E-09-2.67210E-09
 -1       836-1.00800E+03 2.80754E+05 1.70139E+04-1.84232E+04 3.11047E-10 5.61977E-09
 -1       837 3.71475E+03 2.86041E+05 1.45576E+04-3.70348E+04 6.37783E-10 7.55790E-09
 -1       838-3.83387E+02 2.82216E+05 1.50571E+04-1.83547E+04 7.41693E-10 1.80382E-08
 -1       839 9.65264E+03 2.90465E+05 2.87043E+04-3.70705E+04 1.11049E-09 1.17976E-08
 -1       840-2.92244E+03 2.76287E+05 4.58680E+04-1.83865E+04 5.85715E-10 4.36410E-09
 -1       856-7.80455E+04 7.57834E+03-1.99713E+04-4.31509E+02-1.87197E-09-3.30874E-09
 -1       857-8.62916E+04-8.89017E+03-1.37493E+04 4.72051E+03-3.35950E-09 5.92740E-09
 -1       858-8.13045E+04 1.06191E+03-5.18288E+03-4.53498E+02-2.12287E-09 6.16001E-09
 -1       859-8.25498E+04-1.23606E+03-3.12959E+03 4.75527E+03-1.25152E-09 4.96692E-09
 -1       860-8.17916E+04 1.47775E+02-1.31485E+03-4.66358E+02 1.46991E-09 4.22381E-09
 -1       861-8.19890E+04-1.64196E+02-7.30136E+02 4.77289E+03-5.29085E-09 7.90678E-09
 -1       862-8.18675E+04 1.95287E+01-3.17176E+02-4.71137E+02 6.08472E-09 1.50082E-09
 -1       863-8.18984E+04-1.15465E+01-1.46567E+02 4.77514E+03 5.88486E-09-4.24936E-09
 -1       864-8.18825E+04-1.49100E+00-2.52627E+01-4.68621E+02 5.00701E-09-2.03244E-10
 -1       865-8.18650E+04 3.41683E+01 8.56052E+01 4.76225E+03 4.32379E-09-9.43606E-09
 -1       866-8.18991E+04-2.65951E+01 2.08323E+02-4.58243E+02-1.29131E-09 1.20630E-09
 -1       867-8.17572E+04 2.21805E+02 5.35935E+02 4.73404E+03 1.21790E-09 2.35389E-09
 -1       868-8.19867E+04-1.86874E+02 8.95931E+02-4.40407E+02 2.26930E-09 1.79500E-09
 -1       869-8.10929E+04 1.55304E+03 2.39438E+03 4.68731E+03-9.18874E-10-2.39439E-09
 -1       870-8.25577E+04-1.32332E+03 3.47330E+03-4.11513E+02-4.45539E-10 4.33010E-09
 -1       871-4.47058E+03-1.05374E+04-1.46690E+04 9.71585E+04 1.00408E-09 1.00226E-08
 -1       872-1.89752E+03-1.38438E+04-6.01415E+03 1.25964E+05 2.32103E-09 4.74029E-09
 -1       873 3.12715E+00-1.22960E+04 7.65458E+02 9.69454E+04 8.49468E-10 6.20162E-09
 -1       874 2.26857E+03-1.02236E+04 8.11263E+03 1.26004E+05 1.24714E-09 8.77662E-10
 -1       875 5.26995E+03-1.42206E+04 1.80506E+04 9.71243E+04 8.50378E-10-5.98175E-09
 -1       876 2.35257E+05 4.03118E+04 1.24162E+04 9.51885E+04-2.61110E-09 6.17911E-09
 -1       877 2.36002E+05 4.30031E+04 6.63061E+03 9.88231E+04-4.00019E-09 5.15956E-09
 -1       878 2.36417E+05 3.89380E+04 2.77791E+03 9.62083E+04 7.36691E-11-1.18689E-09
 -1       879 2.34313E+05 4.13202E+04 1.38393E+03 9.89096E+04 4.10921E-09 7.67841E-09
 -1       880 2.36501E+05 3.89231E+04 6.44413E+02 9.62498E+04-1.00954E-09-6.97810E-10
 -1       881 2.34201E+05 4.12486E+04 3.43555E+02 9.88914E+04 3.03976E-09 2.39281E-09
 -1       882 2.36509E+05 3.89335E+04 2.18810E+02 9.62510E+04 7.50993E-09-4.58165E-09
 -1       883 2.34193E+05 4.12451E+04 2.33648E+02 9.88859E+04 1.18803E-09 4.30953E-09
 -1       884 2.36504E+05 3.89311E+04 3.70243E+02 9.62512E+04 5.07237E-09 1.47683E-08
 -1       885 2.34222E+05 4.12503E+04 7.43499E+02 9.88951E+04 9.10455E-09 6.06826E-09
 -1       886 2.36476E+05 3.89093E+04 1.49807E+03 9.62482E+04 6.87615E-09 1.18985E-09
 -1       887 2.34486E+05 4.14229E+04 3.27219E+03 9.89331E+04-2.02931E-09 9.81845E-09
 -1       888 2.36269E+05 3.89456E+04 6.59352E+03 9.61435E+04 3.96938E-10 1.20235E-09
 -1       889 2.38414E+05 4.55029E+04 1.57512E+04 9.88099E+04-2.95131E-10-4.46721E-09
 -1       890 2.33583E+05 4.21369E+04 2.95010E+04 9.36282E+04 5.20367E-09 3.62706E-09
 -1       891-1.35852E+02-1.32763E+05-1.58643E+03 2.44121E+04 3.24462E-10-5.18367E-09
 -1       892-2.38763E+02-1.33148E+05-1.71837E+03 3.69577E+04-1.01272E-09 9.32687E-10
 -1       893-3.08492E+01-1.32812E+05-2.44811E+03 2.44172E+04 1.15938E-09 8.31142E-09
 -1       894-1.32091E+03-1.34081E+05-5.07753E+03 3.68251E+04-8.34007E-10 7.44330E-09
 -1       895-1.03576E+03-1.31754E+05-8.94590E+03 2.45432E+04-1.54444E-09-2.92857E-09
 -1       956-2.97597E+05-4.21010E+03-1.05774E+04 2.02609E+04-2.09184E-09-3.97199E-09
 -1       957-2.99684E+05-1.42638E+03-5.42987E+03 2.43992E+04-1.63709E-09-1.40972E-08
 -1       958-2.98537E+05-1.20007E+02-2.44639E+03 2.01361E+04 2.32558E-09-6.72071E-09
 -1       959-2.98703E+05-2.70898E+01-1.24955E+03 2.45359E+04-2.68119E-09 3.88241E-09
 -1       960-2.98623E+05 2.92900E+01-6.09219E+02 2.01240E+04-3.02680E-09 1.12618E-09
 -1       961-2.98633E+05 2.64266E+01-3.23274E+02 2.45497E+04-1.74805E-09-1.01272E-09
 -1       962-2.98640E+05 2.56069E+01-1.85179E+02 2.01221E+04-2.33786E-09 5.62295E-10
 -1       963-2.98630E+05 2.80831E+01-1.48885E+02 2.45522E+04-4.40070E-09-2.22030E-09
 -1       964-2.98644E+05 2.77906E+01-1.81075E+02 2.01215E+04 4.82390E-09-2.71712E-10
 -1       965-2.98641E+05 3.11090E+01-3.13186E+02 2.45521E+04 1.27666E-08 1.66347E-09
 -1       966-2.98634E+05 3.57735E+01-5.88133E+02 2.01222E+04 3.93345E-09 1.82877E-09
 -1       967-2.98717E+05-1.59831E+01-1.20635E+03 2.45437E+04 8.67658E-10 1.02220E-08
 -1       968-2.98558E+05-1.04040E+02-2.36097E+03 2.01300E+04 1.62254E-09-2.89481E-09
 -1       969-2.99672E+05-1.36294E+03-5.24198E+03 2.44529E+04 6.73936E-10-1.03229E-08
 -1       970-2.97656E+05-4.04991E+03-1.02105E+04 2.02145E+04 1.84218E-09 1.79261E-09
 -1       971-2.79638E+05-1.45507E+03-8.05599E+03 1.32950E+04 8.54925E-10-9.83295E-09
 -1       972-2.81594E+05-1.04617E+03-4.38721E+03 1.85495E+04 5.04360E-09-6.31871E-09
 -1       973-2.80534E+05-1.48547E+01-1.96465E+03 1.31845E+04 1.30467E-09-2.59524E-09
 -1       974-2.80668E+05-1.62670E+01-1.01788E+03 1.86697E+04 3.29419E-09-7.10713E-09
 -1       975-2.80604E+05 2.32576E+01-5.07941E+02 1.31741E+04 2.40470E-09-4.92037E-10
 -1       976-2.80614E+05 2.62754E+01-2.91468E+02 1.86824E+04-5.52973E-10-7.05131E-09
 -1       977-2.80618E+05 2.33317E+01-2.08740E+02 1.31717E+04 2.74099E-09 1.51647E-09
 -1       978-2.80617E+05 3.12045E+01-2.40440E+02 1.86859E+04 7.26732E-09 3.07341E-09
 -1       979-2.80618E+05 2.99754E+01-3.83025E+02 1.31706E+04 6.89602E-09 8.26799E-09
 -1       980-2.80646E+05 3.36217E+01-7.37513E+02 1.86866E+04 1.21158E-08 4.74051E-09
 -1       981-2.80594E+05 4.83496E+01-1.42731E+03 1.31710E+04 1.16216E-08 3.79953E-09
 -1       982-2.80841E+05-7.17877E+01-2.94962E+03 1.86809E+04 9.94760E-09 1.76561E-09
 -1       983-2.80414E+05-4.29721E+01-5.73083E+03 1.31765E+04 5.81667E-09-3.43653E-09
 -1       984-2.83597E+05-3.06468E+03-1.28334E+04 1.86057E+04 5.62750E-10 7.40499E-09
 -1       985-2.77820E+05-4.23644E+03-2.35663E+04 1.32502E+04 3.87809E-09 5.50062E-09
 -3
    1PSTEP                        17           9           1          
  100CL  109 5.65430E-01         409                     0    9           1
 -4  DISP        4    1
 -5  D1          1    2    1    0
 -5  D2          1    2    2    0
 -5  D3          1    2    3    0
 -5  ALL         1    2    0    0    1ALL
 -1         1 3.67744E-04 0.00000E+00 0.00000E+00
 -1         2 3.33566E-04 5.18534E-30 6.61744E-24
 -1         3 1.97876E-04 6.07939E-28 0.00000E+00
 -1         5 1.23527E-04-1.46418E-26 0.00000E+00
 -1         8 3.43903E-04-7.86912E-07 0.00000E+00
 -1         9 3.29795E-04-1.44851E-06 0.00000E+00
 -1        10 1.82121E-04-2.65458E-06 6.61744E-24
 -1        12 1.23528E-04 6.23187E-07-1.65436E-24
 -1        15 3.15371E-04-8.74373E-07 0.00000E+00
 -1        16 3.21471E-04-1.79756E-06 0.00000E+00
 -1        17 1.30223E-04-5.83348E-06 0.00000E+00
 -1        18 1.22278E-04 8.65842E-06 0.00000E+00
 -1        19 1.23532E-04 1.24323E-06 0.00000E+00
 -1        20 1.23680E-04 1.03314E-05 0.00000E+00
 -1        21 1.23032E-04 1.76615E-05 0.00000E+00
 -1        24 2.41431E-05-8.15339E-06 0.00000E+00
 -1        25 1.23761E-04 8.80683E-06 0.00000E+00
 -1        26 1.24517E-04 1.72279E-06 0.00000E+00
 -1        27 1.22801E-04 7.49726E-06 0.00000E+00
 -1        28 1.22360E-04 1.71355E-05 0.00000E+00
 -1        32 0.00000E+00 0.00000E+00 0.00000E+00
 -1        33 1.24366E-04 2.30904E-06 0.00000E+00
 -1        34 1.22662E-04 7.46905E-06 0.00000E+00
 -1        35 1.21068E-04 1.68541E-05 0.00000E+00
 -1        51 3.66201E-04-1.33589E-07 0.00000E+00
 -1        52 3.63334E-04-2.59226E-07 0.00000E+00
 -1        53 3.59403E-04-3.85375E-07 0.00000E+00
 -1        54 3.54674E-04-5.13852E-07 0.00000E+00
 -1        55 3.49417E-04-6.45709E-07-1.65436E-24
 -1        56 3.65713E-04-7.78239E-07 0.00000E+00
 -1        57 3.63610E-04-1.59111E-06 2.64698E-23
 -1        58 3.61496E-04-2.36110E-06 0.00000E+00
 -1        59 3.59336E-04-3.04841E-06 0.00000E+00
 -1        60 3.57129E-04-3.61083E-06 0.00000E+00
 -1        61 3.54861E-04-4.01764E-06-2.64698E-23
 -1        62 3.52528E-04-4.25266E-06 0.00000E+00
 -1        63 3.50128E-04-4.30894E-06 0.00000E+00
 -1        64 3.47664E-04-4.19709E-06 5.29396E-23
 -1        65 3.45145E-04-3.93598E-06-2.64698E-23
 -1        66 3.42582E-04-3.55949E-06 0.00000E+00
 -1        67 3.39993E-04-3.10656E-06 2.64698E-23
 -1        68 3.37393E-04-2.62481E-06 5.29396E-23
 -1        69 3.34812E-04-2.15884E-06 0.00000E+00
 -1        70 3.32251E-04-1.76056E-06 0.00000E+00
 -1        86 3.33441E-04-2.37017E-07 0.00000E+00
 -1        87 3.33066E-04-4.74558E-07 3.30872E-24
 -1        88 3.32471E-04-7.12271E-07-6.61744E-24
 -1        89 3.31691E-04-9.53039E-07-6.61744E-24
 -1        90 3.30780E-04-1.19292E-06 0.00000E+00
 -1       121 1.97434E-04-4.37882E-07 1.32349E-23
 -1       122 1.96111E-04-8.76527E-07-6.61744E-24
 -1       123 1.93911E-04-1.31668E-06 0.00000E+00
 -1       124 1.90839E-04-1.75919E-06-6.61744E-24
 -1       125 1.86905E-04-2.20457E-06 0.00000E+00
 -1       191 1.23527E-04 1.03868E-07 0.00000E+00
 -1       192 1.23527E-04 2.07735E-07 0.00000E+00
 -1       193 1.23527E-04 3.11603E-07-3.30872E-24
 -1       194 1.23527E-04 4.15468E-07 0.00000E+00
 -1       195 1.23528E-04 5.19331E-07 0.00000E+00
 -1       251 3.43292E-04 1.03606E-05 1.32349E-23
 -1       252 3.42461E-04 3.40849E-05 0.00000E+00
 -1       253 3.41411E-04 6.62330E-05 0.00000E+00
 -1       254 3.40225E-04 1.02459E-04-6.61744E-24
 -1       255 3.39084E-04 1.37330E-04 0.00000E+00
 -1       256 3.38147E-04 1.65447E-04 6.61744E-24
 -1       257 3.37432E-04 1.83206E-04 1.32349E-23
 -1       258 3.36860E-04 1.87240E-04 0.00000E+00
 -1       259 3.36254E-04 1.77804E-04-1.32349E-23
 -1       260 3.35451E-04 1.55465E-04 0.00000E+00
 -1       261 3.34425E-04 1.24195E-04 1.32349E-23
 -1       262 3.33246E-04 8.81736E-05 0.00000E+00
 -1       263 3.32089E-04 5.28444E-05-1.32349E-23
 -1       264 3.31122E-04 2.36374E-05 0.00000E+00
 -1       265 3.30379E-04 4.34896E-06 0.00000E+00
 -1       266 3.39148E-04-8.12645E-07-3.30872E-24
 -1       267 3.34393E-04-8.25862E-07-8.27181E-25
 -1       268 3.29637E-04-8.39872E-07 0.00000E+00
 -1       269 3.24882E-04-8.51533E-07 4.13590E-25
 -1       270 3.20127E-04-8.63140E-07 0.00000E+00
 -1       271 3.41066E-04 3.07653E-06-2.64698E-23
 -1       272 3.38507E-04 6.08457E-06 0.00000E+00
 -1       273 3.36255E-04 8.28695E-06 0.00000E+00
 -1       274 3.34283E-04 9.72813E-06-1.32349E-23
 -1       275 3.32574E-04 1.04700E-05-5.29396E-23
 -1       276 3.31101E-04 1.05834E-05 0.00000E+00
 -1       277 3.29832E-04 1.01498E-05 0.00000E+00
 -1       278 3.28734E-04 9.25936E-06 0.00000E+00
 -1       279 3.27771E-04 8.00970E-06 0.00000E+00
 -1       280 3.26904E-04 6.50423E-06 0.00000E+00
 -1       281 3.26092E-04 4.85049E-06 2.64698E-23
 -1       282 3.25295E-04 3.15852E-06 0.00000E+00
 -1       283 3.24472E-04 1.53877E-06 0.00000E+00
 -1       284 3.23584E-04 1.01980E-07 0.00000E+00
 -1       285 3.22588E-04-1.04723E-06 0.00000E+00
 -1       301 3.28322E-04-1.52331E-06 6.61744E-24
 -1       302 3.26593E-04-1.57353E-06 0.00000E+00
 -1       303 3.24825E-04-1.62230E-06 6.61744E-24
 -1       304 3.23236E-04-1.67104E-06 6.61744E-24
 -1       305 3.22046E-04-1.72113E-06 1.32349E-23
 -1       306 3.39324E-04-3.67538E-05 0.00000E+00
 -1       307 3.69632E-04-1.40927E-04-2.64698E-23
 -1       308 4.12641E-04-2.96566E-04 5.29396E-23
 -1       309 4.61604E-04-4.81575E-04 2.64698E-23
 -1       310 5.10553E-04-6.66514E-04 5.29396E-23
 -1       311 5.53500E-04-8.21941E-04 0.00000E+00
 -1       312 5.83707E-04-9.25816E-04-5.29396E-23
 -1       313 5.93047E-04-9.60792E-04 2.64698E-23
 -1       314 5.75838E-04-9.25303E-04-1.05879E-22
 -1       315 5.28518E-04-8.23591E-04 0.00000E+00
 -1       316 4.56054E-04-6.73538E-04 5.29396E-23
 -1       317 3.67609E-04-4.95742E-04 0.00000E+00
 -1       318 2.78117E-04-3.16165E-04 0.00000E+00
 -1       319 2.02725E-04-1.60826E-04 0.00000E+00
 -1       320 1.51441E-04-5.11000E-05 0.00000E+00
 -1       336 1.76318E-04-3.16400E-06 0.00000E+00
 -1       337 1.69333E-04-3.68173E-06 6.61744E-24
 -1       338 1.61194E-04-4.20762E-06 1.32349E-23
 -1       339 1.51935E-04-4.74181E-06 0.00000E+00
 -1       340 1.41597E-04-5.28628E-06 1.32349E-23
 -1       406 1.23529E-04 7.27032E-07 0.00000E+00
 -1       407 1.23529E-04 8.30844E-07 0.00000E+00
 -1       408 1.23530E-04 9.34595E-07 0.00000E+00
 -1       409 1.23530E-04 1.03816E-06 0.00000E+00
 -1       410 1.23531E-04 1.14135E-06-3.30872E-24
 -1       521 3.33555E-04-4.72647E-05 5.29396E-23
 -1       522 3.69899E-04-1.78341E-04 5.29396E-23
 -1       523 4.20133E-04-3.73701E-04 0.00000E+00
 -1       524 4.76247E-04-6.05253E-04 5.29396E-23
 -1       525 5.32255E-04-8.36128E-04 0.00000E+00
 -1       526 5.82107E-04-1.02951E-03 5.29396E-23
 -1       527 6.17717E-04-1.15771E-03 0.00000E+00
 -1       528 6.28607E-04-1.19986E-03 0.00000E+00
 -1       529 6.06140E-04-1.15400E-03 1.05879E-22
 -1       530 5.44830E-04-1.02668E-03 0.00000E+00
 -1       531 4.50249E-04-8.39961E-04-1.05879E-22
 -1       532 3.34367E-04-6.19592E-04 5.29396E-23
 -1       533 2.17053E-04-3.97018E-04-1.05879E-22
 -1       534 1.18501E-04-2.03751E-04 0.00000E+00
 -1       535 5.18775E-05-6.63758E-05 0.00000E+00
 -1       536 1.29927E-04 1.18724E-05 0.00000E+00
 -1       537 1.29378E-04 4.11755E-05-3.30872E-24
 -1       538 1.28609E-04 7.75925E-05-3.30872E-24
 -1       539 1.27747E-04 1.16602E-04-1.65436E-24
 -1       540 1.26978E-04 1.52973E-04 3.30872E-24
 -1       541 1.26455E-04 1.81485E-04 0.00000E+00
 -1       542 1.26168E-04 1.99026E-04-3.30872E-24
 -1       543 1.26024E-04 2.02545E-04 0.00000E+00
 -1       544 1.25839E-04 1.92607E-04-3.30872E-24
 -1       545 1.25453E-04 1.69859E-04 1.65436E-24
 -1       546 1.24844E-04 1.38284E-04 3.30872E-24
 -1       547 1.24078E-04 1.01912E-04 1.65436E-24
 -1       548 1.23329E-04 6.60727E-05 3.30872E-24
 -1       549 1.22768E-04 3.60936E-05-1.65436E-24
 -1       550 1.22432E-04 1.57247E-05-1.65436E-24
 -1       551 1.15893E-04-6.16724E-06 0.00000E+00
 -1       552 9.91617E-05-6.53066E-06 0.00000E+00
 -1       553 8.08181E-05-6.91936E-06-3.30872E-24
 -1       554 6.16659E-05-7.32417E-06 0.00000E+00
 -1       555 4.25082E-05-7.73182E-06 2.64698E-23
 -1       556 1.26208E-04 4.52572E-06 0.00000E+00
 -1       557 1.23054E-04 1.26870E-05 0.00000E+00
 -1       558 1.20672E-04 1.88378E-05 0.00000E+00
 -1       559 1.18980E-04 2.31814E-05 0.00000E+00
 -1       560 1.17898E-04 2.59206E-05 0.00000E+00
 -1       561 1.17345E-04 2.72596E-05 0.00000E+00
 -1       562 1.17242E-04 2.74032E-05 0.00000E+00
 -1       563 1.17510E-04 2.65565E-05 0.00000E+00
 -1       564 1.18072E-04 2.49249E-05 0.00000E+00
 -1       565 1.18851E-04 2.27140E-05 0.00000E+00
 -1       566 1.19769E-04 2.01296E-05 0.00000E+00
 -1       567 1.20749E-04 1.73777E-05 0.00000E+00
 -1       568 1.21715E-04 1.46641E-05 1.65436E-24
 -1       569 1.22590E-04 1.21946E-05 0.00000E+00
 -1       570 1.23297E-04 1.01749E-05 0.00000E+00
 -1       571 1.22354E-04 8.18923E-06 0.00000E+00
 -1       572 1.22432E-04 7.67371E-06-4.13590E-25
 -1       573 1.22510E-04 7.12151E-06 0.00000E+00
 -1       574 1.22588E-04 6.54278E-06 8.27181E-25
 -1       575 1.22667E-04 5.94767E-06 0.00000E+00
 -1       576 1.22746E-04 5.34640E-06 0.00000E+00
 -1       577 1.22824E-04 4.74920E-06 0.00000E+00
 -1       578 1.22903E-04 4.16630E-06-1.65436E-24
 -1       579 1.22982E-04 3.60793E-06 3.30872E-24
 -1       580 1.23060E-04 3.08433E-06 0.00000E+00
 -1       581 1.23139E-04 2.60574E-06 0.00000E+00
 -1       582 1.23218E-04 2.18237E-06 0.00000E+00
 -1       583 1.23296E-04 1.82444E-06-6.61744E-24
 -1       584 1.23375E-04 1.54206E-06 0.00000E+00
 -1       585 1.23454E-04 1.34525E-06 0.00000E+00
 -1       586 1.22472E-04 8.68486E-06 0.00000E+00
 -1       587 1.22641E-04 8.71065E-06-1.03398E-25
 -1       588 1.22820E-04 8.73614E-06 0.00000E+00
 -1       589 1.23043E-04 8.76116E-06 0.00000E+00
 -1       590 1.23345E-04 8.78534E-06 0.00000E+00
 -1       591 1.22415E-04 8.23957E-06 1.55096E-25
 -1       592 1.22560E-04 7.79318E-06 0.00000E+00
 -1       593 1.22713E-04 7.32537E-06 4.13590E-25
 -1       594 1.22871E-04 6.84144E-06 4.13590E-25
 -1       595 1.23033E-04 6.34678E-06 8.27181E-25
 -1       596 1.23198E-04 5.84672E-06 4.13590E-25
 -1       597 1.23362E-04 5.34660E-06 4.13590E-25
 -1       598 1.23524E-04 4.85175E-06 0.00000E+00
 -1       599 1.23682E-04 4.36748E-06-8.27181E-25
 -1       600 1.23835E-04 3.89913E-06-2.06795E-25
 -1       601 1.23979E-04 3.45203E-06 0.00000E+00
 -1       602 1.24113E-04 3.03150E-06 0.00000E+00
 -1       603 1.24236E-04 2.64288E-06 2.06795E-25
 -1       604 1.24345E-04 2.29155E-06 5.16988E-26
 -1       605 1.24438E-04 1.98281E-06 0.00000E+00
 -1       606 1.23545E-04 1.31493E-06-3.30872E-24
 -1       607 1.23556E-04 1.48197E-06 0.00000E+00
 -1       608 1.23565E-04 1.73874E-06 0.00000E+00
 -1       609 1.23574E-04 2.07894E-06-1.65436E-24
 -1       610 1.23583E-04 2.49621E-06-3.30872E-24
 -1       611 1.23592E-04 2.98414E-06 0.00000E+00
 -1       612 1.23601E-04 3.53626E-06 0.00000E+00
 -1       613 1.23610E-04 4.14616E-06 0.00000E+00
 -1       614 1.23619E-04 4.80737E-06 0.00000E+00
 -1       615 1.23628E-04 5.51345E-06-8.27181E-25
 -1       616 1.23637E-04 6.25797E-06 0.00000E+00
 -1       617 1.23646E-04 7.03446E-06 0.00000E+00
 -1       618 1.23654E-04 7.83649E-06 0.00000E+00
 -1       619 1.23663E-04 8.65762E-06-4.13590E-25
 -1       620 1.23671E-04 9.49140E-06 0.00000E+00
 -1       621 1.23583E-04 1.32333E-06-1.65436E-24
 -1       622 1.23695E-04 1.40371E-06 0.00000E+00
 -1       623 1.23858E-04 1.48406E-06 0.00000E+00
 -1       624 1.24057E-04 1.56426E-06-8.27181E-25
 -1       625 1.24281E-04 1.64431E-06 0.00000E+00
 -1       626 1.23595E-04 1.34274E-06-3.30872E-24
 -1       627 1.23630E-04 1.51917E-06 0.00000E+00
 -1       628 1.23639E-04 1.76475E-06 0.00000E+00
 -1       629 1.23625E-04 2.07126E-06 1.65436E-24
 -1       630 1.23592E-04 2.43048E-06 0.00000E+00
 -1       631 1.23541E-04 2.83416E-06 0.00000E+00
 -1       632 1.23478E-04 3.27401E-06 3.30872E-24
 -1       633 1.23404E-04 3.74179E-06-1.65436E-24
 -1       634 1.23322E-04 4.22922E-06 0.00000E+00
 -1       635 1.23236E-04 4.72804E-06 0.00000E+00
 -1       636 1.23149E-04 5.22999E-06 0.00000E+00
 -1       637 1.23064E-04 5.72682E-06 8.27181E-25
 -1       638 1.22984E-04 6.21023E-06 1.65436E-24
 -1       639 1.22911E-04 6.67198E-06-8.27181E-25
 -1       640 1.22850E-04 7.10379E-06 0.00000E+00
 -1       656 1.23059E-04 9.87029E-06 0.00000E+00
 -1       657 1.22824E-04 9.39077E-06-6.61744E-24
 -1       658 1.22834E-04 8.91267E-06-1.32349E-23
 -1       659 1.22946E-04 8.43495E-06 0.00000E+00
 -1       660 1.22990E-04 7.95574E-06-6.61744E-24
 -1       661 1.23451E-04 1.11390E-05 0.00000E+00
 -1       662 1.23250E-04 1.18808E-05 8.27181E-25
 -1       663 1.23072E-04 1.25592E-05 0.00000E+00
 -1       664 1.22918E-04 1.31783E-05 0.00000E+00
 -1       665 1.22784E-04 1.37415E-05 1.65436E-24
 -1       666 1.22670E-04 1.42521E-05 0.00000E+00
 -1       667 1.22575E-04 1.47135E-05 0.00000E+00
 -1       668 1.22497E-04 1.51288E-05-8.27181E-25
 -1       669 1.22436E-04 1.55011E-05 0.00000E+00
 -1       670 1.22389E-04 1.58333E-05 8.27181E-25
 -1       671 1.22356E-04 1.61282E-05 0.00000E+00
 -1       672 1.22336E-04 1.63886E-05 8.27181E-25
 -1       673 1.22328E-04 1.66172E-05-1.65436E-24
 -1       674 1.22330E-04 1.68163E-05 0.00000E+00
 -1       675 1.22343E-04 1.69889E-05 0.00000E+00
 -1       676 1.22920E-04 1.75733E-05 0.00000E+00
 -1       677 1.22808E-04 1.74852E-05 0.00000E+00
 -1       678 1.22695E-04 1.73970E-05-3.30872E-24
 -1       679 1.22583E-04 1.73092E-05-8.27181E-25
 -1       680 1.22471E-04 1.72214E-05-1.65436E-24
 -1       771 1.72172E-05 6.57288E-06 0.00000E+00
 -1       772 1.13087E-05 1.86568E-05 0.00000E+00
 -1       773 6.37050E-06 2.82346E-05 0.00000E+00
 -1       774 2.33774E-06 3.54566E-05 0.00000E+00
 -1       775-8.53475E-07 4.04771E-05 0.00000E+00
 -1       776-3.26974E-06 4.34583E-05 0.00000E+00
 -1       777-4.97816E-06 4.45667E-05 0.00000E+00
 -1       778-6.04735E-06 4.39750E-05 2.64698E-23
 -1       779-6.54618E-06 4.18596E-05 0.00000E+00
 -1       780-6.54477E-06 3.84019E-05 0.00000E+00
 -1       781-6.11326E-06 3.37862E-05 0.00000E+00
 -1       782-5.32281E-06 2.82007E-05 0.00000E+00
 -1       783-4.24446E-06 2.18358E-05 5.29396E-23
 -1       784-2.95005E-06 1.48843E-05 0.00000E+00
 -1       785-1.51118E-06 7.54062E-06 2.64698E-23
 -1       786 1.23804E-04 8.17071E-06 0.00000E+00
 -1       787 1.23851E-04 7.57675E-06 4.13590E-25
 -1       788 1.23898E-04 7.01780E-06 8.27181E-25
 -1       789 1.23945E-04 6.48682E-06 0.00000E+00
 -1       790 1.23993E-04 5.97982E-06 0.00000E+00
 -1       791 1.24040E-04 5.49284E-06 0.00000E+00
 -1       792 1.24088E-04 5.02412E-06 1.65436E-24
 -1       793 1.24136E-04 4.57192E-06 0.00000E+00
 -1       794 1.24183E-04 4.13632E-06 0.00000E+00
 -1       795 1.24231E-04 3.71743E-06 0.00000E+00
 -1       796 1.24279E-04 3.31718E-06 1.65436E-24
 -1       797 1.24326E-04 2.93754E-06 0.00000E+00
 -1       798 1.24374E-04 2.58273E-06-1.65436E-24
 -1       799 1.24422E-04 2.25703E-06-8.27181E-25
 -1       800 1.24469E-04 1.96787E-06-1.65436E-24
 -1       801 1.12414E-04 7.60926E-06 0.00000E+00
 -1       802 7.70536E-05 5.83027E-06-1.32349E-23
 -1       803 3.67869E-05 3.89190E-06 0.00000E+00
 -1       804 1.09938E-05 2.40289E-06 0.00000E+00
 -1       805-8.51685E-07 1.16896E-06 2.64698E-23
 -1       806 1.23908E-04 8.11827E-06 0.00000E+00
 -1       807 1.24043E-04 7.45404E-06 0.00000E+00
 -1       808 1.24167E-04 6.81779E-06 3.30872E-24
 -1       809 1.24279E-04 6.21229E-06-1.65436E-24
 -1       810 1.24379E-04 5.64026E-06-3.30872E-24
 -1       811 1.24465E-04 5.10434E-06 8.27181E-25
 -1       812 1.24536E-04 4.60718E-06 1.65436E-24
 -1       813 1.24592E-04 4.15142E-06 0.00000E+00
 -1       814 1.24631E-04 3.73966E-06-3.30872E-24
 -1       815 1.24653E-04 3.37454E-06-1.65436E-24
 -1       816 1.24657E-04 3.05866E-06 3.30872E-24
 -1       817 1.24641E-04 2.79464E-06 8.27181E-25
 -1       818 1.24604E-04 2.58508E-06-3.30872E-24
 -1       819 1.24547E-04 2.43258E-06 0.00000E+00
 -1       820 1.24467E-04 2.33972E-06 1.65436E-24
 -1       821 1.24416E-04 1.44734E-06 0.00000E+00
 -1       822 1.24308E-04 1.06861E-06-8.27181E-25
 -1       823 1.24201E-04 6.71302E-07 3.30872E-24
 -1       824 1.24093E-04 3.40238E-07 0.00000E+00
 -1       825 1.23985E-04 1.45488E-07 0.00000E+00
 -1       826 1.23877E-04 1.56474E-07-1.65436E-24
 -1       827 1.23768E-04 3.97011E-07-3.30872E-24
 -1       828 1.23660E-04 8.89805E-07-1.65436E-24
 -1       829 1.23551E-04 1.60164E-06 0.00000E+00
 -1       830 1.23442E-04 2.49824E-06 0.00000E+00
 -1       831 1.23334E-04 3.50439E-06-3.30872E-24
 -1       832 1.23225E-04 4.54433E-06-1.65436E-24
 -1       833 1.23116E-04 5.53479E-06 0.00000E+00
 -1       834 1.23009E-04 6.39277E-06 0.00000E+00
 -1       835 1.22902E-04 7.06454E-06 0.00000E+00
 -1       836 1.24657E-04 1.82035E-06-3.30872E-24
 -1       837 1.24688E-04 1.92012E-06 0.00000E+00
 -1       838 1.24642E-04 2.01974E-06-3.30872E-24
 -1       839 1.24551E-04 2.11872E-06-8.27181E-25
 -1       840 1.24449E-04 2.21753E-06 0.00000E+00
 -1       856 1.22777E-04 7.87227E-06 4.13590E-25
 -1       857 1.22750E-04 8.36330E-06 1.03398E-25
 -1       858 1.22723E-04 8.95216E-06 0.00000E+00
 -1       859 1.22695E-04 9.62059E-06 4.13590E-25
 -1       860 1.22667E-04 1.03502E-05 8.27181E-25
 -1       861 1.22639E-04 1.11226E-05 0.00000E+00
 -1       862 1.22611E-04 1.19192E-05 8.27181E-25
 -1       863 1.22583E-04 1.27216E-05-4.13590E-25
 -1       864 1.22555E-04 1.35113E-05-8.27181E-25
 -1       865 1.22528E-04 1.42698E-05-4.13590E-25
 -1       866 1.22500E-04 1.49785E-05 8.27181E-25
 -1       867 1.22472E-04 1.56192E-05 4.13590E-25
 -1       868 1.22444E-04 1.61734E-05 0.00000E+00
 -1       869 1.22416E-04 1.66229E-05 0.00000E+00
 -1       870 1.22388E-04 1.69496E-05 0.00000E+00
 -1       871 1.22656E-04 7.49592E-06 0.00000E+00
 -1       872 1.22629E-04 7.49208E-06 0.00000E+00
 -1       873 1.22669E-04 7.48778E-06 4.13590E-25
 -1       874 1.22722E-04 7.48289E-06 1.03398E-25
 -1       875 1.22738E-04 7.47748E-06 2.06795E-25
 -1       876 1.22765E-04 7.88314E-06 0.00000E+00
 -1       877 1.22711E-04 8.32546E-06 3.30872E-24
 -1       878 1.22638E-04 8.81742E-06 3.30872E-24
 -1       879 1.22549E-04 9.35271E-06 1.65436E-24
 -1       880 1.22446E-04 9.92496E-06 0.00000E+00
 -1       881 1.22332E-04 1.05279E-05 0.00000E+00
 -1       882 1.22209E-04 1.11551E-05 0.00000E+00
 -1       883 1.22079E-04 1.18004E-05-1.65436E-24
 -1       884 1.21944E-04 1.24574E-05 3.30872E-24
 -1       885 1.21807E-04 1.31199E-05-1.65436E-24
 -1       886 1.21671E-04 1.37815E-05-3.30872E-24
 -1       887 1.21537E-04 1.44360E-05 0.00000E+00
 -1       888 1.21409E-04 1.50770E-05 3.30872E-24
 -1       889 1.21287E-04 1.56982E-05 8.27181E-25
 -1       890 1.21174E-04 1.62932E-05-8.27181E-25
 -1       891 1.22269E-04 1.70884E-05 0.00000E+00
 -1       892 1.22159E-04 1.70411E-05 4.13590E-25
 -1       893 1.22007E-04 1.69939E-05 0.00000E+00
 -1       894 1.21789E-04 1.69468E-05 2.06795E-25
 -1       895 1.21484E-04 1.68998E-05 2.06795E-25
 -1       956 1.24261E-04 2.40756E-06 0.00000E+00
 -1       957 1.24155E-04 2.57220E-06 1.65436E-24
 -1       958 1.24048E-04 2.79556E-06-1.65436E-24
 -1       959 1.23942E-04 3.06983E-06 0.00000E+00
 -1       960 1.23835E-04 3.38718E-06 0.00000E+00
 -1       961 1.23728E-04 3.73974E-06 1.65436E-24
 -1       962 1.23621E-04 4.11964E-06 0.00000E+00
 -1       963 1.23514E-04 4.51899E-06 1.65436E-24
 -1       964 1.23407E-04 4.92993E-06 0.00000E+00
 -1       965 1.23300E-04 5.34455E-06-1.65436E-24
 -1       966 1.23194E-04 5.75498E-06 3.30872E-24
 -1       967 1.23087E-04 6.15334E-06 0.00000E+00
 -1       968 1.22980E-04 6.53174E-06 3.30872E-24
 -1       969 1.22873E-04 6.88234E-06-1.65436E-24
 -1       970 1.22767E-04 7.19730E-06 3.30872E-24
 -1       971 1.22564E-04 7.75641E-06-3.30872E-24
 -1       972 1.22464E-04 8.12906E-06 1.65436E-24
 -1       973 1.22364E-04 8.57760E-06 0.00000E+00
 -1       974 1.22264E-04 9.09226E-06 0.00000E+00
 -1       975 1.22164E-04 9.66325E-06 0.00000E+00
 -1       976 1.22064E-04 1.02808E-05 0.00000E+00
 -1       977 1.21964E-04 1.09350E-05-3.30872E-24
 -1       978 1.21863E-04 1.16161E-05 0.00000E+00
 -1       979 1.21763E-04 1.23143E-05-3.30872E-24
 -1       980 1.21663E-04 1.30197E-05 0.00000E+00
 -1       981 1.21563E-04 1.37225E-05 3.30872E-24
 -1       982 1.21462E-04 1.44129E-05-1.65436E-24
 -1       983 1.21362E-04 1.50811E-05 3.30872E-24
 -1       984 1.21263E-04 1.57172E-05 0.00000E+00
 -1       985 1.21164E-04 1.63114E-05 0.00000E+00
 -3
    1PSTEP                        18           9           1          
  100CL  109 5.65430E-01         409                     0    9           1
 -4  STRESS      6    1
 -5  SXX         1    4    1    1
 -5  SYY         1    4    2    2
 -5  SZZ         1    4    3    3
 -5  SXY         1    4    1    2
 -5  SYZ         1    4    2    3
 -5  SZX         1    4    3    1
 -1         1-2.73231E+06-1.11617E+06-5.86753E+05-1.33652E+06 3.63798E-11 1.33150E-08
 -1         2 2.30989E+03-6.75024E+05 7.46727E+03-7.23792E+02-5.32339E-11 2.98866E-08
 -1         3-3.36870E+02-1.24908E+06 4.58645E+02-8.70264E+02-3.07363E-10 1.29694E-08
 -1         5-7.86506E-01 2.97191E+05 7.54352E+00-5.55766E-04-3.61396E-11 1.49299E-08
 -1         8-1.08990E+06-3.79842E+05-1.17569E+05-4.82525E+05 1.09139E-10-1.07684E-08
 -1         9-1.42772E+06-8.50463E+05-1.50130E+05-8.32247E+05 1.18889E-08-1.82772E-08
 -1        10-2.26049E+03-1.33073E+06-2.99396E+03-6.42258E+03-2.95495E-09-3.39586E-08
 -1        12 2.31037E+00 2.97207E+05 2.44170E+02-4.26803E-03-1.01359E-11 2.10960E-09
 -1        15 1.84840E+03 1.01580E+03 5.97494E+03 3.80100E+00-2.75691E-11 5.89574E-08
 -1        16-6.67920E+05-1.09704E+06-1.34756E+05-1.28461E+06 1.12438E-08-6.90731E-09
 -1        17-7.21767E+05-3.29340E+05-9.25304E+04-2.04007E+05 8.75443E-09 1.62167E-08
 -1        18-1.28441E+04-7.96459E+03-2.67178E+04-8.15545E+04 8.76571E-09-3.86672E-09
 -1        19 9.57025E+04 1.10188E+05-7.78288E+02 1.88270E+04-1.05865E-10-6.24714E-09
 -1        20-4.94629E+04-4.53018E+05-1.00593E+05 2.83707E+04 2.75653E-09-3.06197E-09
 -1        21-4.07810E+01-2.52465E+05-8.05489E+02-1.94749E+01 1.16510E-09-8.66085E-09
 -1        24-1.79005E+06 5.62106E+04-2.98336E+04-2.84066E+05-6.25199E-08-2.73964E-08
 -1        25-1.14802E+05-6.23006E+05-1.27821E+05-1.35631E+05-4.25007E-10-1.26613E-08
 -1        26-3.53533E+04 7.19067E+04-1.81947E+04-4.84091E+03 1.35296E-09-1.95552E-08
 -1        27-6.64610E+04-2.46640E+05-9.17365E+04 5.57314E+04 5.88345E-09 8.50620E-09
 -1        28 1.93994E+04-7.08421E+04 1.43282E+04 2.05861E+04 1.53179E-09-8.38320E-10
 -1        32-1.31120E+06-1.87491E+06 7.54566E+03-4.99648E+05-2.77943E-08-5.03798E-09
 -1        33-1.44469E+05 7.12868E+04 2.54690E+04-3.44759E+04 2.16820E-10 1.81323E-09
 -1        34-1.82333E+05-1.86258E+04 4.81771E+02 5.78211E+04 1.48586E-09-2.12367E-09
 -1        35-1.97766E+04-2.81407E+04-1.11013E+03 4.39799E+04 3.67112E-09 3.62949E-09
 -1        51 2.71774E+04-3.20144E+05 6.35061E+04-9.03481E+05 5.82077E-11-5.68980E-09
 -1        52 1.27761E+04-3.13798E+05 3.78143E+04-1.05361E+06 3.27418E-10-4.38959E-08
 -1        53 6.84820E+03-3.28594E+05 2.67627E+04-9.00271E+05 4.36557E-10-6.60657E-09
 -1        54 1.84744E+04-3.26674E+05 3.62915E+04-1.05693E+06 3.49246E-10-4.36521E-08
 -1        55 3.67368E+04-3.39656E+05 6.07927E+04-8.99757E+05 2.76486E-10-2.52985E-08
 -1        56-5.20658E+06-5.82464E+05-4.32440E+05-2.01632E+06-4.61296E-09-8.32370E-09
 -1        57-5.41063E+06-9.44964E+05-2.91756E+05-1.96536E+06 4.73665E-09-2.21989E-08
 -1        58-5.29055E+06-7.22841E+05-1.01666E+05-1.99248E+06 1.52795E-10 3.17232E-09
 -1        59-5.31433E+06-7.79221E+05-6.06995E+04-1.99243E+06 4.50200E-09-2.83217E-08
 -1        60-5.30159E+06-7.43636E+05-2.37013E+04-1.99067E+06 1.63436E-09 1.67720E-08
 -1        61-5.30288E+06-7.53477E+05-1.34427E+04-1.99289E+06 6.33463E-10-1.98673E-08
 -1        62-5.30172E+06-7.47987E+05-6.39133E+03-1.99216E+06-1.36811E-09-5.22732E-10
 -1        63-5.30428E+06-7.47386E+05-5.15999E+03-1.98958E+06-3.43056E-09 2.56006E-09
 -1        64-5.30015E+06-7.49660E+05-5.71197E+03-1.99400E+06 2.62068E-09-2.70215E-08
 -1        65-5.30850E+06-7.46883E+05-1.14328E+04-1.98613E+06-5.01255E-09-2.35614E-08
 -1        66-5.29755E+06-7.48539E+05-1.99066E+04-1.99560E+06 2.66891E-09 1.36915E-08
 -1        67-5.32185E+06-7.64599E+05-5.08185E+04-1.98141E+06 1.20235E-09 3.04426E-08
 -1        68-5.28702E+06-7.32444E+05-8.50679E+04-1.99860E+06 2.91038E-10-9.69521E-09
 -1        69-5.40339E+06-9.02233E+05-2.44065E+05-1.95759E+06-5.23869E-09-6.61385E-09
 -1        70-5.21712E+06-6.14750E+05-3.61859E+05-2.01822E+06 3.03407E-09-2.86673E-08
 -1        86-1.15343E+03-6.77077E+05 8.06857E+03 3.61899E+02 4.08818E-10-3.21447E-09
 -1        87 7.67360E+03-6.72446E+05 1.67432E+04-1.35212E+03 6.88942E-10 3.40203E-08
 -1        88-6.49910E+03-6.79651E+05 2.57445E+04 9.90245E+02 9.70431E-10 4.23863E-09
 -1        89 4.84579E+04-6.53554E+05 6.92961E+04-2.33767E+03 1.42973E-09-6.09837E-08
 -1        90-4.17969E+04-6.95933E+05 9.80614E+04 1.34757E+03 1.25146E-09-5.52195E-09
 -1       121-5.05113E+02-1.25039E+06 2.99012E+02 4.33973E+02 7.00808E-10 1.68984E-08
 -1       122-1.81615E+02-1.24900E+06 9.84072E+02-1.73822E+03-2.70339E-09-4.78758E-09
 -1       123-5.98887E+02-1.25050E+06 1.45469E+03 1.29739E+03 2.11980E-09 4.47289E-09
 -1       124 1.61345E+03-1.24799E+06 4.07666E+03-3.69417E+03-4.80486E-09 2.77787E-08
 -1       125-1.72467E+03-1.25151E+06 6.14669E+03 2.38636E+03 3.45972E-09 1.07138E-08
 -1       191-1.07833E+00 2.97218E+05 9.25282E+00 2.78542E-04-1.08986E-11 3.69267E-09
 -1       192-1.47725E+00 2.97192E+05 1.59599E+01-2.33484E-03 7.35256E-12-8.99379E-09
 -1       193-2.91592E+00 2.97217E+05 2.99101E+01 2.06155E-03-8.61178E-12 1.62220E-09
 -1       194-3.70060E+00 2.97194E+05 6.03373E+01-5.51675E-03 2.44160E-12 1.55910E-09
 -1       195-6.44752E+00 2.97215E+05 1.18251E+02 3.47496E-03 5.32907E-13 1.88950E-09
 -1       251-1.64805E+06 1.47206E+04-7.95136E+04-6.01403E+04-1.91903E-09 2.08238E-08
 -1       252-1.52524E+06-1.57706E+04-2.66149E+04 1.76514E+05-7.23730E-10 3.01648E-08
 -1       253-1.58549E+06 9.76559E+02-1.69009E+04-1.16253E+05 5.20686E-10-2.28920E-09
 -1       254-1.57793E+06 6.67371E+03-5.83988E+03 2.23578E+05-5.11028E-09 1.82770E-08
 -1       255-1.60145E+06-2.70847E+03-7.89742E+03-1.07447E+05 4.99176E-09 1.69816E-08
 -1       256-1.48073E+06 7.55022E+03 1.92329E+04 1.45423E+05 3.09228E-11 3.80746E-08
 -1       257-1.67333E+06-7.44660E+03-2.03077E+04-3.77871E+04 1.71276E-08-9.02037E-09
 -1       258-1.41316E+06 6.42644E+03 3.35030E+04-1.72538E+04 4.88944E-09-2.55267E-09
 -1       259-1.66244E+06-6.90341E+03-1.69450E+04 5.49793E+04-4.94492E-09-9.47003E-09
 -1       260-1.50520E+06 9.07982E+03 1.74783E+04-1.69610E+05 9.66429E-09-3.91784E-08
 -1       261-1.59031E+06-2.80404E+03-2.42544E+02 1.14461E+05 3.57059E-08-1.20580E-08
 -1       262-1.57611E+06 1.27781E+04 6.72757E+03-2.24318E+05-1.04606E-08-3.25606E-08
 -1       263-1.59855E+06-4.91752E+03 1.33413E+03 1.09954E+05 3.09274E-09 2.07717E-08
 -1       264-1.48191E+06 2.29264E+04 3.39535E+04-1.53747E+05 4.71684E-08 8.03084E-09
 -1       265-1.67583E+06-1.99247E+04-2.75049E+03 4.35859E+04 1.62872E-08 2.23654E-08
 -1       266-3.34613E+04-1.56446E+04 7.85189E+04-8.13378E+01 5.82077E-11 1.73221E-08
 -1       267 3.87918E+04 1.82371E+04 5.54914E+04 9.38374E+01-3.18323E-11 8.52311E-09
 -1       268-5.20187E+03-2.58272E+03 2.06262E+04-1.19571E+01-9.27685E-11-1.86550E-08
 -1       269 6.14192E+03 3.09114E+03 1.34064E+04 1.39276E+01-3.63798E-11-3.13743E-08
 -1       270-9.21910E+02-5.07892E+02 6.47148E+03-1.89010E+00-5.68434E-12 1.54066E-08
 -1       271-3.08309E+06-3.84130E+05-2.32297E+05-1.19838E+06-5.59521E-09-2.02272E-09
 -1       272-3.17430E+06-5.46266E+05-1.49432E+05-1.18778E+06-1.02000E-09-1.84446E-08
 -1       273-3.12737E+06-4.41580E+05-5.48720E+04-1.18736E+06 2.89970E-09 2.22462E-08
 -1       274-3.12171E+06-4.76508E+05-3.07115E+04-1.20494E+06-4.60204E-09 2.50388E-08
 -1       275-3.13467E+06-4.46349E+05-1.27901E+04-1.18412E+06 2.95859E-09 2.23245E-08
 -1       276-3.11223E+06-4.71727E+05-6.75350E+03-1.21062E+06-2.29193E-09 1.46088E-09
 -1       277-3.13701E+06-4.45418E+05-3.32671E+03-1.18216E+06 2.46928E-09 7.62566E-09
 -1       278-3.10902E+06-4.73533E+05-2.33690E+03-1.21404E+06 1.17552E-09-1.63249E-09
 -1       279-3.13814E+06-4.44303E+05-2.46480E+03-1.18092E+06-3.68391E-09 1.10011E-08
 -1       280-3.10802E+06-4.75546E+05-4.44293E+03-1.21586E+06 4.56987E-09-2.21000E-08
 -1       281-3.13820E+06-4.43329E+05-8.05086E+03-1.18046E+06-9.68384E-10 4.31692E-09
 -1       282-3.11154E+06-4.81116E+05-1.93167E+04-1.21543E+06 3.78941E-09-1.20799E-08
 -1       283-3.13476E+06-4.39185E+05-3.43356E+04-1.18122E+06 9.95897E-11-9.09495E-09
 -1       284-3.14266E+06-5.26701E+05-9.36799E+04-1.20680E+06-1.72804E-10-7.65431E-09
 -1       285-3.10775E+06-4.02470E+05-1.45552E+05-1.18731E+06 3.57795E-09-1.39480E-08
 -1       301 2.33732E+04-1.36732E+05 1.71173E+05-2.63543E+05 0.00000E+00 8.28368E-09
 -1       302 2.47362E+04-9.37128E+04 1.10573E+05-3.86051E+05 3.70392E-10 1.43859E-08
 -1       303 1.32737E+03-1.19664E+05 8.15377E+04-2.63113E+05-2.27374E-10 6.98310E-09
 -1       304 2.56774E+04-9.13767E+04 1.15220E+05-3.85627E+05 7.20320E-10 4.70554E-08
 -1       305 2.39495E+04-1.36777E+05 1.81311E+05-2.64032E+05-3.05590E-10 2.10603E-08
 -1       306-8.13771E+06-8.83230E+05-1.05816E+06-2.05874E+06-2.58005E-08 1.17579E-08
 -1       307-2.48900E+06-1.92991E+06 1.70865E+05-3.99666E+06-2.18657E-07 1.46683E-08
 -1       308-7.21818E+06 4.36388E+04-1.64100E+05-7.62227E+05-1.92085E-08 7.62666E-08
 -1       309-4.22197E+06-2.22074E+06 5.20919E+04-5.70626E+06 9.71891E-08 7.76254E-10
 -1       310-7.22628E+06 3.32814E+04-7.74327E+04-7.63027E+05 1.47629E-08-4.42978E-08
 -1       311-2.43022E+06-1.84929E+06 4.33428E+05-4.00356E+06 1.30072E-07-2.02344E-08
 -1       312-8.18440E+06-9.54665E+05-5.68456E+05-2.04882E+06-3.48664E-08-6.11180E-10
 -1       313-1.85979E+06-2.18396E+05 7.85302E+05-8.02335E+05-8.79081E-08-3.35931E-08
 -1       314-7.11580E+06-2.07485E+06-5.82642E+05-3.31895E+06 1.29512E-07-5.97065E-08
 -1       315-5.98393E+06 1.81909E+06 4.49390E+05 2.07342E+05-1.53232E-07 9.45874E-09
 -1       316-4.84388E+06-2.40173E+06-9.56420E+04-3.51539E+06-2.02614E-07-1.09911E-07
 -1       317-9.00597E+06 2.55809E+06 4.16366E+04-3.04387E+05 2.17578E-07-1.18583E-07
 -1       318-4.72771E+06-2.38891E+06-1.68913E+05-3.51012E+06-2.12545E-07 2.30848E-08
 -1       319-6.39420E+06 1.80414E+06 1.00194E+05 1.94928E+05-5.64032E-08 3.12957E-08
 -1       320-6.89513E+06-2.02369E+06-1.12141E+06-3.38048E+06 5.11645E-08 2.95404E-09
 -1       336 1.28784E+03-1.41190E+06-1.15317E+04 4.01415E+03-5.09181E-09 1.27693E-08
 -1       337-4.35240E+03-1.41423E+06-1.22679E+04-9.89900E+03-3.84989E-09-5.51154E-10
 -1       338 7.57161E+02-1.41230E+06-1.54091E+04 5.84310E+03-6.52562E-09-8.32006E-09
 -1       339-1.61137E+04-1.42179E+06-3.33562E+04-1.34704E+04-4.46562E-09 2.22826E-10
 -1       340 1.10984E+04-1.40490E+06-5.12219E+04 7.55213E+03-6.87032E-09 2.17715E-08
 -1       406 2.11892E+01 2.97204E+05 4.82286E+02 8.21895E-04-6.61942E-11 2.96410E-09
 -1       407 1.70351E+02 2.97291E+05 1.02450E+03 2.02711E-02-4.14389E-11-3.56366E-10
 -1       408 5.29837E+02 2.97131E+05 2.04641E+03-2.16271E-02-3.22871E-11 7.83609E-09
 -1       409 2.21445E+03 2.97945E+05 4.60649E+03 2.15034E-01-9.27116E-11-6.88681E-09
 -1       410 6.35835E+03 2.96549E+05 9.40412E+03-2.02930E-01-1.50067E-10-3.76450E-09
 -1       521-1.03756E+07-1.26639E+06-1.56347E+06-2.37415E+06-1.95287E-08 4.41796E-08
 -1       522-2.11578E+06-2.34636E+06 3.12753E+05-5.35962E+06-1.70083E-07-8.47504E-08
 -1       523-8.89212E+06 1.13867E+05-2.21532E+05-5.74056E+05 2.57278E-08-1.06906E-07
 -1       524-5.14987E+06-2.49596E+06 1.06806E+05-7.85086E+06 2.33185E-07-2.10766E-07
 -1       525-8.92587E+06 9.02568E+04-1.17546E+05-5.92206E+05 1.41285E-07-1.25265E-07
 -1       526-1.98182E+06-2.26101E+06 6.60362E+05-5.28496E+06 1.88738E-08 1.02336E-08
 -1       527-1.04295E+07-1.36054E+06-9.21731E+05-2.40406E+06 2.09257E-08 4.07890E-08
 -1       528-7.66039E+05-6.96141E+04 1.16938E+06-3.98943E+05 5.71017E-08-1.25729E-08
 -1       529-8.88251E+06-2.96679E+06-9.37938E+05-4.20908E+06 1.28464E-07 1.97615E-08
 -1       530-7.15813E+06 3.05565E+06 6.82038E+05 7.66644E+05 1.57161E-09 1.45148E-07
 -1       531-5.57635E+06-3.32422E+06-1.33312E+05-4.41801E+06-2.05866E-07 4.12547E-08
 -1       532-1.17655E+07 4.12915E+06 1.13577E+05-4.30615E+05 2.05036E-07-1.88569E-07
 -1       533-5.41318E+06-3.30904E+06-1.94687E+05-4.40332E+06 3.90864E-08-3.31049E-07
 -1       534-7.72729E+06 3.15643E+06 3.21451E+05 6.81789E+05-7.56409E-08 2.30822E-07
 -1       535-8.61446E+06-2.99054E+06-1.50282E+06-4.27729E+06-4.88944E-09 1.42078E-07
 -1       536-4.46953E+05-2.66591E+04 2.93823E+04-2.12404E+04-3.73598E-09 3.49683E-08
 -1       537-2.97288E+05 2.87892E+04 4.47529E+04 5.23060E+04-5.94911E-08 4.42660E-08
 -1       538-3.74439E+05-1.71697E+03 1.12503E+04-3.22645E+04 1.80942E-08 5.93268E-08
 -1       539-3.45005E+05 3.40883E+03 1.19032E+04 5.94741E+04 8.91052E-08 4.84642E-08
 -1       540-4.00224E+05-5.00228E+02-2.62584E+03-2.84539E+04 3.95301E-09 5.08489E-08
 -1       541-2.50028E+05 4.29512E+03 2.59250E+04 3.67398E+04-2.38105E-08 4.41933E-08
 -1       542-4.66865E+05-4.68522E+03-1.86201E+04-9.44276E+03 1.87097E-08 2.26124E-08
 -1       543-1.98160E+05 6.06528E+03 3.49673E+04-7.69680E+03-1.39005E-09 2.30602E-09
 -1       544-4.50717E+05-3.38930E+03-1.63809E+04 1.59071E+04-6.67342E-09-1.92337E-08
 -1       545-2.86693E+05 1.34680E+03 1.54081E+04-4.76259E+04-8.92595E-09-2.77328E-08
 -1       546-3.80667E+05 1.93135E+03-4.26432E+03 3.04607E+04 1.45633E-10-5.13053E-08
 -1       547-3.53738E+05-3.83826E+03-3.20393E+03-6.13383E+04-5.11883E-08-5.60900E-08
 -1       548-3.85416E+05 3.21592E+03-1.38714E+04 2.96878E+04-5.45691E-08-4.84160E-08
 -1       549-2.81418E+05-1.25728E+04-8.87862E+03-4.43441E+04-3.27175E-08-2.21989E-08
 -1       550-4.50921E+05 8.97192E+03-6.12603E+04 1.33902E+04 2.20416E-09-1.87028E-08
 -1       551 2.29960E+04-6.51692E+05 2.38230E+04-1.05026E+06-5.81858E-08-1.76078E-09
 -1       552 5.09246E+04-6.68366E+05 3.20778E+04-1.49651E+06-4.36994E-08 2.08674E-08
 -1       553 3.67122E+04-6.73467E+05 4.67835E+04-1.04605E+06-7.12243E-08 1.06156E-08
 -1       554 7.95410E+04-6.67932E+05 9.81370E+04-1.49811E+06-4.69736E-08 5.71208E-09
 -1       555 6.55219E+04-6.92902E+05 1.73945E+05-1.04689E+06-7.22430E-08-4.46016E-09
 -1       556 1.26035E+05-2.29715E+05 6.53530E+04-2.80964E+05-9.95351E-09-5.28235E-09
 -1       557 2.16361E+05-3.02358E+05 3.49083E+04-3.54980E+05 2.88128E-09-1.38607E-09
 -1       558 1.21855E+05-2.36171E+05 1.32184E+04-2.75248E+05-6.72298E-09-8.93488E-09
 -1       559 2.00918E+05-3.10203E+05 6.98985E+03-3.63440E+05 1.02809E-08-1.21199E-08
 -1       560 1.16366E+05-2.32651E+05 2.37274E+03-2.78983E+05 2.35741E-09-7.79983E-09
 -1       561 1.93405E+05-3.07644E+05 1.46666E+03-3.68328E+05 3.60887E-09-9.51059E-09
 -1       562 1.12041E+05-2.29875E+05 2.96785E+02-2.82086E+05 1.94996E-09-1.46929E-08
 -1       563 1.88329E+05-3.05438E+05 3.60489E+02-3.71593E+05 4.47471E-10-1.09194E-08
 -1       564 1.09167E+05-2.28059E+05 4.68798E+01-2.84116E+05 7.17409E-09-9.74387E-09
 -1       565 1.85347E+05-3.04144E+05 1.33791E+02-3.73483E+05 7.16682E-09 6.71298E-09
 -1       566 1.07806E+05-2.27187E+05 1.48693E+01-2.85074E+05-3.68163E-09 7.30506E-09
 -1       567 1.84423E+05-3.03728E+05-6.17370E+01-3.73977E+05 9.90622E-09 1.17943E-08
 -1       568 1.08004E+05-2.27324E+05-3.58613E+02-2.85025E+05-5.97538E-09 4.51473E-09
 -1       569 1.84665E+05-3.03637E+05-8.85785E+02-3.72252E+05-1.79134E-08 6.06815E-09
 -1       570 1.10493E+05-2.29376E+05-2.11664E+03-2.84619E+05-2.98314E-09 1.69730E-08
 -1       571 2.24639E+05 8.27757E+03 1.21761E+04-5.87713E+04 2.40698E-09-5.98016E-09
 -1       572 2.26442E+05 2.92624E+03 5.96583E+03-6.44614E+04 1.73941E-09-8.09086E-09
 -1       573 2.25362E+05 7.44245E+02 2.65050E+03-5.86397E+04 8.61746E-10-1.20767E-08
 -1       574 2.25569E+05 2.91738E+02 1.32828E+03-6.46136E+04 1.20872E-09 4.28008E-09
 -1       575 2.25443E+05 9.35911E+01 6.26457E+02-5.86222E+04 1.33014E-11 4.97585E-09
 -1       576 2.25454E+05 7.70838E+01 3.19720E+02-6.46339E+04-8.31619E-10-5.97083E-10
 -1       577 2.25461E+05 5.52536E+01 1.58855E+02-5.86198E+04 3.22416E-10 7.69842E-09
 -1       578 2.25451E+05 6.12257E+01 8.95554E+01-6.46364E+04-8.15135E-10 4.00269E-09
 -1       579 2.25485E+05 4.63038E+01 5.96287E+01-5.86197E+04 7.18501E-10 1.09958E-08
 -1       580 2.25484E+05 4.66947E+01 6.43630E+01-6.46331E+04-5.13865E-09 8.01310E-09
 -1       581 2.25523E+05 3.03028E+01 9.59700E+01-5.86232E+04 1.90539E-09 1.42322E-08
 -1       582 2.25553E+05 4.92397E+01 1.90411E+02-6.45960E+04 4.43833E-10-1.86719E-09
 -1       583 2.25566E+05 8.97916E+01 3.68551E+02-5.86567E+04-5.18412E-10-2.29056E-09
 -1       584 2.25742E+05 3.82864E+02 8.29199E+02-6.43151E+04-1.17052E-09 5.77450E-09
 -1       585 2.25527E+05 1.10967E+03 1.68458E+03-5.89045E+04 7.78527E-10-7.38873E-09
 -1       586-2.84226E+03 7.36843E+04-3.44234E+03-2.01144E+05-1.14869E-09 8.70853E-09
 -1       587-7.02803E+02 7.32640E+04-9.77037E+01-2.21402E+05-5.72982E-10 4.66775E-09
 -1       588 7.34388E+02 7.33056E+04 3.14805E+03-2.01050E+05-7.71252E-10 4.75575E-09
 -1       589 4.21919E+03 7.50165E+04 8.77343E+03-2.21167E+05-1.44428E-09-7.37327E-09
 -1       590 1.25114E+04 7.23295E+04 1.86423E+04-2.01394E+05-1.23782E-09 1.71531E-09
 -1       591-4.57287E+04-1.19019E+04-1.57277E+04-2.20566E+04-1.09083E-09 8.92578E-09
 -1       592-4.78419E+04-1.51259E+04-8.51904E+03-2.54302E+04-2.10616E-09 1.23688E-08
 -1       593-4.73091E+04-1.07529E+04-3.54633E+03-2.32025E+04-1.85184E-09 1.88697E-09
 -1       594-4.56602E+04-1.28292E+04-1.76873E+03-2.55260E+04-6.57039E-09 1.54739E-08
 -1       595-4.74299E+04-1.07485E+04-8.12514E+02-2.32548E+04-2.02328E-09 1.19310E-08
 -1       596-4.55116E+04-1.27241E+04-4.13732E+02-2.55094E+04 1.06159E-09 2.32484E-08
 -1       597-4.74451E+04-1.07589E+04-2.26736E+02-2.32567E+04-2.44438E-09 2.86980E-09
 -1       598-4.54971E+04-1.27201E+04-1.84926E+02-2.55048E+04-4.16102E-09-3.16793E-08
 -1       599-4.74440E+04-1.07591E+04-2.39534E+02-2.32564E+04 2.31705E-09-2.42983E-09
 -1       600-4.55124E+04-1.27252E+04-4.47622E+02-2.55084E+04 1.92296E-09 1.50582E-08
 -1       601-4.74254E+04-1.07485E+04-8.84435E+02-2.32534E+04 1.55364E-09-6.00380E-10
 -1       602-4.56740E+04-1.28393E+04-1.92825E+03-2.55240E+04 8.07290E-10 8.73240E-09
 -1       603-4.72917E+04-1.07556E+04-3.86732E+03-2.31968E+04-1.59775E-09 1.56131E-08
 -1       604-4.80646E+04-1.53311E+04-9.28995E+03-2.54030E+04-1.86799E-09 1.05083E-08
 -1       605-4.55543E+04-1.20201E+04-1.71509E+04-2.19599E+04 3.22507E-09 1.60608E-08
 -1       606 2.76202E+04-1.07629E+04-1.93488E+04 2.66558E+04-5.42968E-10-2.38651E-09
 -1       607 2.43089E+04-3.48684E+03-9.63478E+03 2.99282E+04-2.40016E-09-5.15047E-09
 -1       608 2.61878E+04-6.02480E+02-4.31443E+03 2.64472E+04 2.05546E-10 9.42168E-09
 -1       609 2.58168E+04-1.72976E+02-2.17912E+03 3.01630E+04-1.54887E-09 6.89238E-09
 -1       610 2.60156E+04 9.48828E+00-1.04068E+03 2.64236E+04-3.69255E-09 1.26913E-08
 -1       611 2.59480E+04 2.05907E+01-5.24684E+02 3.01886E+04-4.33101E-09 2.18097E-09
 -1       612 2.59703E+04 2.59095E+01-2.50520E+02 2.64213E+04-1.94268E-09-1.97701E-09
 -1       613 2.59467E+04 2.93249E+01-1.13181E+02 3.01916E+04-5.70799E-09-3.70233E-09
 -1       614 2.59459E+04 2.60526E+01-2.93243E+01 2.64205E+04-1.90994E-10 5.76097E-09
 -1       615 2.59347E+04 3.48556E+01 4.11057E+01 3.01921E+04 4.84215E-09-4.61478E-09
 -1       616 2.59271E+04 3.20355E+01 1.29020E+02 2.64208E+04-8.35826E-10-8.64634E-09
 -1       617 2.59443E+04 6.59855E+01 2.96851E+02 3.01915E+04-7.26914E-10-4.12456E-10
 -1       618 2.58969E+04 1.20403E+02 5.99125E+02 2.64209E+04-1.67529E-09 1.66187E-09
 -1       619 2.61522E+04 5.31516E+02 1.34601E+03 3.01907E+04-1.53705E-10-5.98448E-09
 -1       620 2.56957E+04 1.54316E+03 2.70552E+03 2.64200E+04 3.84148E-09-1.16402E-08
 -1       621 2.71663E+02 2.30188E+05 2.49132E+03 1.53003E+04 4.32010E-12 3.26736E-09
 -1       622 3.33142E+02 2.30796E+05 2.31630E+03 2.22692E+04 1.50521E-10-7.13908E-09
 -1       623 2.25624E+01 2.30329E+05 2.92582E+03 1.52270E+04 1.87583E-10 1.44498E-08
 -1       624 1.40671E+03 2.31766E+05 5.78509E+03 2.23442E+04 7.05285E-11 3.08535E-09
 -1       625 1.41300E+03 2.29189E+05 1.01648E+04 1.52246E+04 2.59206E-10-2.82319E-09
 -1       626 2.02731E+05 5.34247E+04 4.41744E+03 1.05663E+05-1.82131E-08 5.76074E-09
 -1       627 2.00346E+05 5.50162E+04 2.12872E+03 1.09776E+05-3.54530E-08 1.33767E-08
 -1       628 2.02865E+05 5.13723E+04 8.99422E+02 1.06374E+05-1.64582E-08 2.19493E-08
 -1       629 1.99752E+05 5.44704E+04 4.40396E+02 1.10021E+05 1.30422E-09 2.91234E-09
 -1       630 2.02874E+05 5.12754E+04 2.03448E+02 1.06397E+05-1.46429E-10-2.23054E-09
 -1       631 1.99683E+05 5.44543E+04 1.08625E+02 1.10021E+05 3.09228E-11-4.78437E-10
 -1       632 2.02865E+05 5.12822E+04 6.99370E+01 1.06390E+05 7.75617E-09 2.02249E-08
 -1       633 1.99669E+05 5.44592E+04 7.56012E+01 1.10014E+05-1.30217E-09 4.88797E-09
 -1       634 2.02856E+05 5.12827E+04 1.20059E+02 1.06385E+05 7.01425E-09-5.82395E-09
 -1       635 1.99676E+05 5.44603E+04 2.41827E+02 1.10014E+05 9.88075E-09-1.43350E-08
 -1       636 2.02845E+05 5.12808E+04 4.87691E+02 1.06383E+05 5.69588E-09-6.15728E-10
 -1       637 1.99777E+05 5.45371E+04 1.07159E+03 1.10011E+05-1.49350E-09 1.99407E-09
 -1       638 2.02804E+05 5.15188E+04 2.20187E+03 1.06274E+05 5.96310E-09 9.98261E-09
 -1       639 2.00933E+05 5.61455E+04 5.20909E+03 1.09668E+05 1.15745E-09-1.17084E-08
 -1       640 2.02649E+05 5.63160E+04 1.08099E+04 1.04243E+05 6.69843E-10-2.49179E-09
 -1       656 5.34850E+04-1.35921E+06-1.29113E+05-6.19331E+02 1.38971E-09 6.49803E-09
 -1       657-7.07123E+04-1.41751E+06-1.06857E+05 7.41759E+03 1.36697E-09 7.74840E-10
 -1       658 1.70013E+04-1.37581E+06-6.56782E+04-2.10159E+03 5.12500E-10-1.58991E-09
 -1       659-7.61039E+04-1.42006E+06-1.13939E+05 8.48657E+03-8.26731E-10-1.14985E-08
 -1       660 5.88641E+04-1.35666E+06-1.41291E+05-1.68829E+03-6.91216E-10 9.12243E-09
 -1       661 1.67542E+05 1.80679E+04 1.65264E+04 6.55199E+04 6.36192E-10 9.07676E-10
 -1       662 1.76409E+05 3.07745E+04 1.11365E+04 6.23543E+04-1.85327E-09-1.02737E-08
 -1       663 1.70785E+05 2.33720E+04 3.89542E+03 6.45810E+04-6.73822E-10 6.77232E-09
 -1       664 1.72653E+05 2.45683E+04 2.32939E+03 6.34983E+04 5.99130E-11-6.30146E-09
 -1       665 1.71273E+05 2.40997E+04 9.18900E+02 6.44416E+04-4.74870E-09-3.42317E-09
 -1       666 1.72078E+05 2.37336E+04 5.36536E+02 6.36785E+04 2.91337E-10-6.25964E-09
 -1       667 1.71357E+05 2.41849E+04 2.83641E+02 6.44089E+04-8.99433E-10 7.23542E-09
 -1       668 1.71987E+05 2.36689E+04 2.85931E+02 6.37260E+04 9.88578E-10 9.46009E-09
 -1       669 1.71363E+05 2.41624E+04 3.84573E+02 6.43947E+04 1.50281E-09 9.43447E-09
 -1       670 1.72082E+05 2.38751E+04 8.35058E+02 6.37275E+04 2.73010E-09-1.49248E-08
 -1       671 1.71262E+05 2.39828E+04 1.48191E+03 6.44057E+04 1.93359E-09-7.95694E-09
 -1       672 1.72945E+05 2.53169E+04 3.79080E+03 6.35190E+04 2.89111E-09-2.56966E-09
 -1       673 1.70504E+05 2.27569E+04 6.35252E+03 6.45894E+04 1.14801E-09 8.87758E-09
 -1       674 1.78993E+05 3.55210E+04 1.81668E+04 6.17408E+04-5.09601E-10-1.30310E-08
 -1       675 1.65253E+05 1.40641E+04 2.69655E+04 6.60763E+04 2.21917E-10-5.27689E-09
 -1       676 2.08978E+01-2.52398E+05-9.70824E+02 9.73766E+00 6.73509E-10-1.59581E-08
 -1       677-2.57827E+02-2.52633E+05-1.77674E+03-1.94633E+01-4.12967E-09-4.52653E-09
 -1       678 1.72104E+02-2.52231E+05-3.14082E+03 9.71897E+00-1.60048E-09-7.27552E-09
 -1       679-3.14172E+03-2.54529E+05-7.46112E+03-1.93917E+01-1.46019E-09-1.39150E-08
 -1       680 1.87499E+03-2.50503E+05-1.20248E+04 9.55616E+00-1.17916E-09-1.71016E-10
 -1       771-2.67695E+06-5.40428E+05-8.18317E+04-1.18571E+06-2.25555E-08-1.41008E-08
 -1       772-2.63780E+06-5.93660E+05-4.29754E+04-1.24631E+06-2.46800E-08 3.68163E-09
 -1       773-2.69131E+06-5.29087E+05-2.02874E+04-1.19085E+06-1.19762E-08 8.71660E-09
 -1       774-2.62905E+06-5.85069E+05-9.40464E+03-1.25642E+06 1.15542E-08 3.14321E-09
 -1       775-2.69719E+06-5.24919E+05-5.97255E+03-1.19246E+06-4.81668E-09 5.84987E-09
 -1       776-2.63174E+06-5.84740E+05-2.41592E+03-1.26329E+06-7.56700E-10 8.17818E-09
 -1       777-2.70200E+06-5.21381E+05-2.27576E+03-1.19385E+06 5.54428E-09 2.52112E-09
 -1       778-2.63489E+06-5.84559E+05-7.17428E+02-1.26911E+06-1.87720E-09 5.93354E-09
 -1       779-2.70602E+06-5.18356E+05-1.04466E+03-1.19505E+06-7.53789E-09-3.90173E-09
 -1       780-2.63769E+06-5.84344E+05-2.30485E+02-1.27382E+06-7.03949E-09-1.01045E-09
 -1       781-2.70915E+06-5.15952E+05-4.59049E+02-1.19599E+06-1.85100E-08-1.37425E-09
 -1       782-2.63985E+06-5.84126E+05-5.08370E+01-1.27728E+06-2.03290E-08-2.64868E-09
 -1       783-2.71132E+06-5.14317E+05-1.50213E+02-1.19665E+06-9.89530E-10-9.66838E-09
 -1       784-2.64120E+06-5.83959E+05-3.35470E+00-1.27939E+06-7.13044E-10-1.43450E-09
 -1       785-2.71241E+06-5.13486E+05-7.73833E+01-1.19699E+06-1.78406E-08-5.87897E-09
 -1       786 1.32357E+05-9.12521E+03 2.11108E+04-1.15699E+02 1.29192E-09-4.41105E-09
 -1       787 1.41510E+05 1.05641E+04 1.49353E+04 3.08944E+01 1.15295E-09 1.22814E-08
 -1       788 1.35887E+05-1.43040E+03 5.46271E+03-9.04606E+01 1.87543E-09 1.26247E-08
 -1       789 1.37398E+05 1.65491E+03 3.43056E+03-9.98418E+00-2.14593E-10 1.50576E-08
 -1       790 1.36470E+05-2.23237E+02 1.39183E+03-7.48246E+01-1.37661E-09 1.23790E-08
 -1       791 1.36717E+05 2.58231E+02 8.09452E+02-3.72794E+01-1.75475E-09 1.15749E-09
 -1       792 1.36568E+05-3.47667E+01 3.54133E+02-6.31655E+01-6.08659E-10 1.28487E-09
 -1       793 1.36603E+05 4.14473E+01 2.00946E+02-5.95105E+01-3.30949E-10-2.87596E-10
 -1       794 1.36584E+05-6.59129E+00 1.01256E+02-5.25931E+01 8.87101E-10-4.33604E-09
 -1       795 1.36587E+05 1.59348E+01 7.76958E+01-8.19480E+01-9.22285E-10-7.78176E-10
 -1       796 1.36584E+05-9.26608E+00 7.47846E+01-4.07277E+01 7.17697E-10-1.28016E-08
 -1       797 1.36609E+05 6.38670E+01 1.41933E+02-1.09600E+02 8.84136E-10-6.13394E-09
 -1       798 1.36562E+05-5.44899E+01 2.12952E+02-2.49404E+01 7.36800E-10-7.06501E-09
 -1       799 1.36766E+05 4.01854E+02 5.70634E+02-1.48628E+02 6.50642E-10-2.35477E-09
 -1       800 1.36427E+05-3.46991E+02 8.03225E+02-1.69940E+00-1.51346E-10 3.93311E-09
 -1       801 9.16985E+04-3.54142E+06-3.44378E+05 9.50534E+04 2.32249E-08-1.67747E-08
 -1       802-1.07580E+05-3.00893E+06-1.21628E+05-7.69421E+04 6.54254E-08-9.29708E-09
 -1       803 1.27385E+04-3.40026E+06-9.38093E+04 1.69899E+05 3.98722E-08 2.73756E-08
 -1       804-1.99545E+04-3.15654E+06-1.43662E+04 6.44809E+04 2.40070E-08 2.44556E-08
 -1       805 5.62791E+02-3.39494E+06-3.86322E+04-4.63576E+04 9.02946E-09 9.69817E-09
 -1       806-2.47437E+05-4.70937E+04-1.82199E+04-9.70338E+04-4.58977E-09-4.04225E-09
 -1       807-2.49035E+05-4.39550E+04-8.95121E+03-1.01258E+05-8.15157E-09-1.43779E-08
 -1       808-2.47924E+05-4.05414E+04-3.79744E+03-1.00155E+05-2.95586E-09 3.09183E-09
 -1       809-2.47159E+05-4.14349E+04-1.85685E+03-1.01473E+05 1.52795E-09 1.19931E-08
 -1       810-2.48000E+05-4.03129E+04-8.50897E+02-1.00294E+05 5.25597E-09 6.56064E-09
 -1       811-2.47015E+05-4.13329E+04-4.22961E+02-1.01446E+05 1.10667E-08-2.84945E-09
 -1       812-2.48013E+05-4.03316E+04-2.13331E+02-1.00294E+05 6.54518E-09 4.02474E-09
 -1       813-2.46997E+05-4.13341E+04-1.37873E+02-1.01433E+05-2.81830E-09 1.71440E-10
 -1       814-2.48009E+05-4.03382E+04-1.35151E+02-1.00292E+05 2.10093E-10 3.79168E-09
 -1       815-2.47001E+05-4.13354E+04-2.16816E+02-1.01429E+05-2.01180E-09 1.51622E-08
 -1       816-2.47995E+05-4.03361E+04-4.09930E+02-1.00290E+05 1.48884E-09-1.38243E-09
 -1       817-2.47073E+05-4.13741E+04-8.80042E+02-1.01422E+05 1.08566E-08 1.07029E-08
 -1       818-2.47945E+05-4.04584E+04-1.79448E+03-1.00232E+05 4.87125E-09-4.91536E-09
 -1       819-2.48056E+05-4.24599E+04-4.22318E+03-1.01195E+05-6.44650E-09 1.71719E-08
 -1       820-2.47615E+05-4.36418E+04-8.59520E+03-9.88631E+04-3.91810E-09 1.30840E-08
 -1       821-3.02475E+05 1.67308E+04-3.86938E+04 3.72844E+02 2.35506E-06-7.83111E-08
 -1       822-3.19236E+05-1.93686E+04-2.73805E+04-1.05869E+03 4.73431E-06 2.05041E-08
 -1       823-3.08941E+05 2.62346E+03-1.00213E+04 3.99730E+02 2.35924E-06 1.28562E-08
 -1       824-3.11682E+05-3.03583E+03-6.30378E+03-8.88311E+02 7.35161E-09 7.78357E-09
 -1       825-3.10026E+05 4.10218E+02-2.59461E+03 2.02462E+02 8.03812E-10-1.64914E-09
 -1       826-3.10411E+05-4.83219E+02-1.55900E+03-3.59705E+02-2.18620E-09-1.44269E-09
 -1       827-3.10210E+05 7.20752E+01-8.16488E+02-1.28885E+02-1.07472E-09-8.06523E-10
 -1       828-3.10243E+05-1.47701E+02-7.14197E+02 2.87844E+02-4.00144E-09 9.99936E-09
 -1       829-3.10194E+05 7.50101E+01-8.33212E+02-4.45098E+02 5.08038E-11 5.35198E-09
 -1       830-3.10458E+05-5.02909E+02-1.62329E+03 7.62267E+02 1.71541E-09 1.48435E-08
 -1       831-3.09996E+05 4.27699E+02-2.69309E+03-6.03316E+02-2.03191E-09 2.22747E-09
 -1       832-3.11759E+05-3.15932E+03-6.56298E+03 8.49681E+02-1.74406E-09 1.71565E-09
 -1       833-3.08894E+05 2.72968E+03-1.04319E+04-5.32513E+02-1.54420E-09-4.16958E-09
 -1       834-3.19576E+05-2.01581E+04-2.84941E+04 5.08979E+02-1.85928E-09-6.32872E-09
 -1       835-3.02180E+05 1.74129E+04-4.02815E+04-2.62601E+02 6.05484E-09 7.34690E-09
 -1       836-1.02988E+03 2.85644E+05 1.73353E+04-1.69392E+04-5.22959E-10 6.68160E-09
 -1       837 3.77623E+03 2.91036E+05 1.48415E+04-3.40721E+04-6.20730E-11 7.23776E-09
 -1       838-3.95944E+02 2.87134E+05 1.53639E+04-1.68734E+04 1.52340E-10 7.64499E-09
 -1       839 9.84542E+03 2.95560E+05 2.93020E+04-3.41103E+04 5.19321E-10-1.96201E-09
 -1       840-2.98741E+03 2.81078E+05 4.68294E+04-1.69003E+04 2.83762E-10 2.02515E-08
 -1       856-7.53182E+04 7.60513E+03-2.00418E+04-4.26771E+02 1.70019E-10-3.95448E-09
 -1       857-8.35924E+04-8.92246E+03-1.37978E+04 4.79045E+03-2.18165E-10-1.37634E-08
 -1       858-7.85887E+04 1.06573E+03-5.20111E+03-4.48745E+02-7.99673E-10-7.68046E-09
 -1       859-7.98375E+04-1.24130E+03-3.14041E+03 4.82504E+03-2.09648E-09 2.42840E-08
 -1       860-7.90775E+04 1.48371E+02-1.31906E+03-4.61421E+02-2.17938E-10 2.59212E-09
 -1       861-7.92748E+04-1.65568E+02-7.31779E+02 4.84239E+03-6.16457E-09 9.92752E-09
 -1       862-7.91537E+04 1.96244E+01-3.16506E+02-4.66124E+02 1.98476E-09-1.23245E-08
 -1       863-7.91836E+04-1.19314E+01-1.43253E+02 4.84466E+03 7.57605E-09 4.10460E-09
 -1       864-7.91690E+04-1.85580E+00-1.81954E+01-4.63687E+02-9.54827E-11 2.32936E-09
 -1       865-7.91481E+04 3.71491E+01 1.01835E+02 4.83207E+03-8.93010E-11-6.63628E-09
 -1       866-7.91874E+04-2.98198E+01 2.37496E+02-4.53542E+02-3.26787E-09 6.92751E-10
 -1       867-7.90276E+04 2.48524E+02 6.05436E+02 4.80448E+03 1.98042E-10 7.96629E-09
 -1       868-7.92858E+04-2.10418E+02 1.01091E+03-4.36097E+02 1.44297E-09-3.59478E-10
 -1       869-7.82799E+04 1.74957E+03 2.69962E+03 4.75869E+03-3.06909E-09-7.24594E-09
 -1       870-7.99293E+04-1.49156E+03 3.91647E+03-4.07750E+02-1.90221E-09-3.06409E-09
 -1       871-4.57032E+03-1.11595E+04-1.50700E+04 1.00084E+05 8.82210E-10 1.04301E-08
 -1       872-1.92048E+03-1.45642E+04-6.18989E+03 1.29759E+05 1.00499E-09 5.96083E-09
 -1       873 2.46336E+01-1.29669E+04 7.57883E+02 9.98650E+04-3.69710E-10 4.96311E-09
 -1       874 2.34323E+03-1.08593E+04 8.26769E+03 1.29798E+05 1.05501E-10 6.45582E-09
 -1       875 5.39839E+03-1.49291E+04 1.84158E+04 1.00049E+05 2.86491E-10 4.59659E-09
 -1       876 2.40264E+05 4.10881E+04 1.26278E+04 9.71195E+04-7.54380E-09 1.11231E-09
 -1       877 2.41034E+05 4.38129E+04 6.74363E+03 1.00803E+05-3.75280E-09 2.88856E-09
 -1       878 2.41444E+05 3.96910E+04 2.82527E+03 9.81566E+04-1.50840E-09 8.83369E-09
 -1       879 2.39317E+05 4.21012E+04 1.40755E+03 1.00891E+05 1.10140E-09 1.14060E-08
 -1       880 2.41529E+05 3.96759E+04 6.55455E+02 9.81989E+04 2.02363E-11 4.40980E-09
 -1       881 2.39203E+05 4.20282E+04 3.49540E+02 1.00872E+05-1.38402E-09-8.02856E-10
 -1       882 2.41538E+05 3.96865E+04 2.22801E+02 9.82001E+04 9.29799E-09-2.59938E-09
 -1       883 2.39194E+05 4.20247E+04 2.38193E+02 1.00866E+05 1.02570E-08-1.81059E-09
 -1       884 2.41532E+05 3.96840E+04 3.77708E+02 9.82003E+04 4.71573E-09-9.14554E-09
 -1       885 2.39224E+05 4.20300E+04 7.58655E+02 1.00876E+05 3.47049E-09-8.31164E-10
 -1       886 2.41503E+05 3.96618E+04 1.52869E+03 9.81973E+04 1.07995E-08 6.62044E-09
 -1       887 2.39493E+05 4.22062E+04 3.33910E+03 1.00915E+05 1.30592E-08-1.06570E-08
 -1       888 2.41292E+05 3.96989E+04 6.72837E+03 9.80904E+04 4.58331E-09-9.39826E-09
 -1       889 2.43501E+05 4.63699E+04 1.60733E+04 1.00789E+05-7.68498E-09 4.67207E-09
 -1       890 2.38551E+05 4.29557E+04 3.01043E+04 9.55239E+04-1.27739E-09 1.50249E-09
 -1       891-1.33872E+02-1.35302E+05-1.62243E+03 2.46291E+04 5.75938E-10-8.57881E-10
 -1       892-2.36331E+02-1.35699E+05-1.75519E+03 3.72934E+04-2.66027E-11-6.03904E-09
 -1       893-2.63128E+01-1.35353E+05-2.49831E+03 2.46344E+04 7.43057E-10 2.95267E-09
 -1       894-1.33969E+03-1.36649E+05-5.18006E+03 3.71593E+04-8.25821E-10-5.48971E-09
 -1       895-1.05138E+03-1.34273E+05-9.12585E+03 2.47619E+04-4.43720E-10 2.07274E-09
 -1       956-3.04476E+05-4.28708E+03-1.07610E+04 2.09228E+04 4.48563E-09 6.39545E-09
 -1       957-3.06599E+05-1.45564E+03-5.52411E+03 2.51952E+04 1.02864E-08-3.85285E-09
 -1       958-3.05434E+05-1.25715E+02-2.48886E+03 2.07962E+04 3.52156E-09-7.56700E-10
 -1       959-3.05601E+05-3.18295E+01-1.27124E+03 2.53344E+04-5.88670E-09 1.63664E-09
 -1       960-3.05521E+05 2.63662E+01-6.19833E+02 2.07839E+04-2.94585E-09 2.65754E-09
 -1       961-3.05530E+05 2.27436E+01-3.28991E+02 2.53486E+04-4.56612E-09 9.29936E-09
 -1       962-3.05539E+05 2.26835E+01-1.88619E+02 2.07819E+04-1.21008E-09-1.63027E-09
 -1       963-3.05527E+05 2.44265E+01-1.51960E+02 2.53511E+04 1.52613E-09 8.31642E-09
 -1       964-3.05542E+05 2.48560E+01-1.85207E+02 2.07813E+04 2.04341E-09 1.03628E-08
 -1       965-3.05538E+05 2.73757E+01-3.20665E+02 2.53509E+04-2.59217E-09-9.11359E-09
 -1       966-3.05532E+05 3.28273E+01-6.02387E+02 2.07822E+04-2.27078E-09 8.57335E-09
 -1       967-3.05615E+05-2.11398E+01-1.23567E+03 2.53419E+04-8.72319E-10 1.28020E-08
 -1       968-3.05453E+05-1.10714E+02-2.41846E+03 2.07904E+04 1.14142E-09-3.11377E-09
 -1       969-3.06594E+05-1.40124E+03-5.36957E+03 2.52464E+04 3.15435E-09-5.80732E-09
 -1       970-3.04528E+05-4.15298E+03-1.04591E+04 2.08786E+04 9.28139E-10-8.17636E-10
 -1       971-2.85240E+05-1.47829E+03-8.16872E+03 1.34660E+04-4.55066E-09 2.20126E-09
 -1       972-2.87223E+05-1.06472E+03-4.44860E+03 1.87775E+04 2.08684E-09-4.26917E-09
 -1       973-2.86149E+05-1.78439E+01-1.99218E+03 1.33543E+04-2.60479E-09-5.04087E-09
 -1       974-2.86284E+05-2.03499E+01-1.03219E+03 1.88992E+04-3.13503E-09-7.32621E-09
 -1       975-2.86221E+05 2.08693E+01-5.15196E+02 1.33439E+04 1.58798E-09-4.04361E-09
 -1       976-2.86229E+05 2.28454E+01-2.95838E+02 1.89121E+04-6.21185E-10-3.32966E-09
 -1       977-2.86234E+05 2.09989E+01-2.12239E+02 1.33413E+04 2.33513E-10 1.16110E-08
 -1       978-2.86233E+05 2.78887E+01-2.44981E+02 1.89158E+04 7.49117E-09 8.66874E-09
 -1       979-2.86234E+05 2.78010E+01-3.90705E+02 1.33402E+04 1.01443E-09 8.44807E-09
 -1       980-2.86262E+05 3.03644E+01-7.52581E+02 1.89164E+04-3.47011E-09 1.35879E-09
 -1       981-2.86210E+05 4.65600E+01-1.45662E+03 1.33406E+04 4.71994E-09 5.87698E-09
 -1       982-2.86462E+05-7.72111E+01-3.01028E+03 1.89106E+04 1.60385E-08 4.93216E-10
 -1       983-2.86027E+05-4.66404E+01-5.84871E+03 1.33462E+04 1.14503E-08-7.60838E-09
 -1       984-2.89274E+05-3.13168E+03-1.30975E+04 1.88346E+04-1.37675E-09-8.31005E-09
 -1       985-2.83379E+05-4.32637E+03-2.40512E+04 1.34200E+04-2.77396E-10-3.38878E-09
 -3
    1PSTEP                        19          10           1          
  100CL  110 5.74219E-01         409                     0   10           1
 -4  DISP        4    1
 -5  D1          1    2    1    0
 -5  D2          1    2    2    0
 -5  D3          1    2    3    0
 -5  ALL         1    2    0    0    1ALL
 -1         1 5.34796E-04 0.00000E+00 0.00000E+00
 -1         2 4.92906E-04-8.84671E-30 6.61744E-24
 -1         3 2.13368E-04 2.15564E-27 1.32349E-23
 -1         5 1.29669E-04-6.97684E-27-3.30872E-24
 -1         8 5.12080E-04-7.41792E-07 0.00000E+00
 -1         9 4.93679E-04-1.82003E-06 0.00000E+00
 -1        10 1.96036E-04-2.81387E-06 0.00000E+00
 -1        12 1.29846E-04 6.38600E-07-1.65436E-24
 -1        15 4.84848E-04-8.22283E-07 0.00000E+00
 -1        16 4.91095E-04-2.26351E-06 0.00000E+00
 -1        17 1.39089E-04-6.21017E-06 0.00000E+00
 -1        18 1.29086E-04 1.10870E-05 0.00000E+00
 -1        19 1.30374E-04 1.27395E-06 0.00000E+00
 -1        20 1.30521E-04 8.38538E-06 0.00000E+00
 -1        21 1.29852E-04 1.34968E-05-3.30872E-24
 -1        24 2.48074E-05-8.71438E-06 0.00000E+00
 -1        25 1.31483E-04 1.12419E-05 0.00000E+00
 -1        26 1.32205E-04 1.76488E-06 0.00000E+00
 -1        27 1.30450E-04 5.48394E-06 0.00000E+00
 -1        28 1.30026E-04 1.29626E-05 0.00000E+00
 -1        32 0.00000E+00 0.00000E+00 0.00000E+00
 -1        33 1.32934E-04 2.36537E-06 0.00000E+00
 -1        34 1.31192E-04 5.45377E-06 0.00000E+00
 -1        35 1.29568E-04 1.26761E-05 0.00000E+00
 -1        51 5.33328E-04-1.27573E-07 0.00000E+00
 -1        52 5.30599E-04-2.46170E-07 0.00000E+00
 -1        53 5.26854E-04-3.64864E-07 0.00000E+00
 -1        54 5.22349E-04-4.85510E-07-3.30872E-24
 -1        55 5.17339E-04-6.09241E-07 2.06795E-24
 -1        56 5.32543E-04-7.16833E-07 0.00000E+00
 -1        57 5.30120E-04-1.22818E-06 0.00000E+00
 -1        58 5.27611E-04-1.49578E-06-5.29396E-23
 -1        59 5.24999E-04-1.53358E-06-2.64698E-23
 -1        60 5.22311E-04-1.36863E-06 0.00000E+00
 -1        61 5.19560E-04-1.04468E-06 2.64698E-23
 -1        62 5.16772E-04-6.21553E-07-5.29396E-23
 -1        63 5.13970E-04-1.65259E-07 0.00000E+00
 -1        64 5.11182E-04 2.54949E-07 0.00000E+00
 -1        65 5.08433E-04 5.71749E-07 0.00000E+00
 -1        66 5.05745E-04 7.28863E-07 0.00000E+00
 -1        67 5.03137E-04 6.79237E-07 0.00000E+00
 -1        68 5.00616E-04 3.96986E-07-5.29396E-23
 -1        69 4.98200E-04-1.26406E-07 0.00000E+00
 -1        70 4.95867E-04-8.83218E-07-5.29396E-23
 -1        86 4.92933E-04-2.99571E-07-1.32349E-23
 -1        87 4.93014E-04-5.99563E-07 0.00000E+00
 -1        88 4.93140E-04-8.99623E-07 0.00000E+00
 -1        89 4.93302E-04-1.20233E-06-6.61744E-24
 -1        90 4.93487E-04-1.50414E-06 0.00000E+00
 -1       121 2.12882E-04-4.63520E-07 0.00000E+00
 -1       122 2.11426E-04-9.27962E-07 6.61744E-24
 -1       123 2.09005E-04-1.39423E-06 0.00000E+00
 -1       124 2.05625E-04-1.86331E-06 0.00000E+00
 -1       125 2.01297E-04-2.33588E-06 0.00000E+00
 -1       191 1.29674E-04 1.06438E-07 0.00000E+00
 -1       192 1.29689E-04 2.12874E-07 1.65436E-24
 -1       193 1.29714E-04 3.19310E-07 0.00000E+00
 -1       194 1.29748E-04 4.25745E-07 0.00000E+00
 -1       195 1.29792E-04 5.32175E-07 3.30872E-24
 -1       251 5.11435E-04 1.25711E-05 1.32349E-23
 -1       252 5.10417E-04 4.31682E-05-6.61744E-24
 -1       253 5.08995E-04 8.56187E-05 0.00000E+00
 -1       254 5.07302E-04 1.34219E-04 0.00000E+00
 -1       255 5.05663E-04 1.81614E-04 1.32349E-23
 -1       256 5.04378E-04 2.20477E-04 6.61744E-24
 -1       257 5.03497E-04 2.45768E-04-1.32349E-23
 -1       258 5.02901E-04 2.52761E-04 6.61744E-24
 -1       259 5.02270E-04 2.41556E-04-1.32349E-23
 -1       260 5.01297E-04 2.12680E-04-6.61744E-24
 -1       261 4.99917E-04 1.71329E-04 0.00000E+00
 -1       262 4.98234E-04 1.22983E-04 0.00000E+00
 -1       263 4.96568E-04 7.50026E-05 0.00000E+00
 -1       264 4.95229E-04 3.47400E-05 0.00000E+00
 -1       265 4.94299E-04 7.47182E-06-1.32349E-23
 -1       266 5.07542E-04-7.65777E-07 3.30872E-24
 -1       267 5.03003E-04-7.77903E-07 8.27181E-25
 -1       268 4.98464E-04-7.90781E-07-8.27181E-25
 -1       269 4.93925E-04-8.01434E-07-2.06795E-25
 -1       270 4.89386E-04-8.12035E-07-4.13590E-25
 -1       271 5.09356E-04 3.02415E-06 2.64698E-23
 -1       272 5.06851E-04 6.09996E-06-1.32349E-23
 -1       273 5.04601E-04 8.50578E-06 0.00000E+00
 -1       274 5.02592E-04 1.02546E-05 0.00000E+00
 -1       275 5.00820E-04 1.13744E-05 0.00000E+00
 -1       276 4.99271E-04 1.19001E-05-1.32349E-23
 -1       277 4.97927E-04 1.18768E-05 0.00000E+00
 -1       278 4.96770E-04 1.13571E-05 0.00000E+00
 -1       279 4.95776E-04 1.04018E-05-2.64698E-23
 -1       280 4.94920E-04 9.07802E-06 0.00000E+00
 -1       281 4.94174E-04 7.45862E-06 0.00000E+00
 -1       282 4.93511E-04 5.62098E-06 1.32349E-23
 -1       283 4.92899E-04 3.64574E-06 2.64698E-23
 -1       284 4.92312E-04 1.61691E-06-1.32349E-23
 -1       285 4.91713E-04-3.83512E-07-2.64698E-23
 -1       301 4.93250E-04-1.91124E-06 1.32349E-23
 -1       302 4.92431E-04-1.97727E-06 0.00000E+00
 -1       303 4.91515E-04-2.04175E-06 0.00000E+00
 -1       304 4.90793E-04-2.10613E-06 6.61744E-24
 -1       305 4.90556E-04-2.17210E-06 0.00000E+00
 -1       306 5.08085E-04-5.30278E-05 0.00000E+00
 -1       307 5.48955E-04-2.01522E-04 2.64698E-23
 -1       308 6.04061E-04-4.22749E-04 5.29396E-23
 -1       309 6.64736E-04-6.84912E-04-2.64698E-23
 -1       310 7.25207E-04-9.45477E-04-1.05879E-22
 -1       311 7.79553E-04-1.16205E-03 0.00000E+00
 -1       312 8.18834E-04-1.30375E-03 0.00000E+00
 -1       313 8.30628E-04-1.34716E-03-5.29396E-23
 -1       314 8.04313E-04-1.29123E-03-1.05879E-22
 -1       315 7.32795E-04-1.14405E-03 0.00000E+00
 -1       316 6.22633E-04-9.31484E-04 1.05879E-22
 -1       317 4.87959E-04-6.82581E-04 0.00000E+00
 -1       318 3.52716E-04-4.32854E-04 0.00000E+00
 -1       319 2.40983E-04-2.17817E-04 0.00000E+00
 -1       320 1.67396E-04-6.68356E-05-5.29396E-23
 -1       336 1.89657E-04-3.35552E-06-1.32349E-23
 -1       337 1.81982E-04-3.90700E-06 0.00000E+00
 -1       338 1.73045E-04-4.46829E-06-1.32349E-23
 -1       339 1.62886E-04-5.03956E-06 0.00000E+00
 -1       340 1.51550E-04-5.62310E-06-1.32349E-23
 -1       406 1.29909E-04 7.45011E-07 3.30872E-24
 -1       407 1.29983E-04 8.51389E-07 0.00000E+00
 -1       408 1.30066E-04 9.57703E-07-3.30872E-24
 -1       409 1.30159E-04 1.06383E-06 0.00000E+00
 -1       410 1.30262E-04 1.16956E-06 0.00000E+00
 -1       521 5.07494E-04-6.25259E-05-1.05879E-22
 -1       522 5.52469E-04-2.34221E-04 5.29396E-23
 -1       523 6.11685E-04-4.89605E-04-1.05879E-22
 -1       524 6.75675E-04-7.91488E-04 0.00000E+00
 -1       525 7.39443E-04-1.09103E-03 1.05879E-22
 -1       526 7.97751E-04-1.33961E-03 5.29396E-23
 -1       527 8.40601E-04-1.50135E-03 1.05879E-22
 -1       528 8.53271E-04-1.55021E-03 0.00000E+00
 -1       529 8.21752E-04-1.48473E-03 0.00000E+00
 -1       530 7.36816E-04-1.31567E-03 5.29396E-23
 -1       531 6.05265E-04-1.07240E-03 1.05879E-22
 -1       532 4.43997E-04-7.88348E-04 5.29396E-23
 -1       533 2.81811E-04-5.03067E-04 0.00000E+00
 -1       534 1.47738E-04-2.56126E-04 0.00000E+00
 -1       535 5.94913E-05-8.13334E-05 0.00000E+00
 -1       536 1.38750E-04 1.36746E-05 6.61744E-24
 -1       537 1.38068E-04 4.72454E-05-3.30872E-24
 -1       538 1.37085E-04 8.93203E-05 0.00000E+00
 -1       539 1.35965E-04 1.34672E-04 0.00000E+00
 -1       540 1.34963E-04 1.77157E-04-3.30872E-24
 -1       541 1.34290E-04 2.10649E-04 1.65436E-24
 -1       542 1.33939E-04 2.31464E-04 3.30872E-24
 -1       543 1.33786E-04 2.35992E-04-1.65436E-24
 -1       544 1.33586E-04 2.24831E-04 3.30872E-24
 -1       545 1.33116E-04 1.98674E-04 0.00000E+00
 -1       546 1.32343E-04 1.62132E-04-3.30872E-24
 -1       547 1.31353E-04 1.19877E-04-1.65436E-24
 -1       548 1.30384E-04 7.81515E-05 0.00000E+00
 -1       549 1.29666E-04 4.31973E-05 1.65436E-24
 -1       550 1.29254E-04 1.94025E-05 1.65436E-24
 -1       551 1.23565E-04-6.56761E-06 6.61744E-24
 -1       552 1.05551E-04-6.95911E-06 3.30872E-24
 -1       553 8.58512E-05-7.37915E-06-3.30872E-24
 -1       554 6.52833E-05-7.81742E-06-6.61744E-24
 -1       555 4.46646E-05-8.25935E-06 0.00000E+00
 -1       556 1.34677E-04 5.16178E-06 2.64698E-23
 -1       557 1.31196E-04 1.41634E-05 0.00000E+00
 -1       558 1.28550E-04 2.09944E-05 0.00000E+00
 -1       559 1.26652E-04 2.58709E-05 0.00000E+00
 -1       560 1.25416E-04 2.90088E-05-2.64698E-23
 -1       561 1.24754E-04 3.06257E-05 0.00000E+00
 -1       562 1.24584E-04 3.09395E-05 0.00000E+00
 -1       563 1.24820E-04 3.01687E-05 0.00000E+00
 -1       564 1.25381E-04 2.85320E-05 0.00000E+00
 -1       565 1.26183E-04 2.62485E-05 3.30872E-24
 -1       566 1.27145E-04 2.35375E-05 0.00000E+00
 -1       567 1.28184E-04 2.06183E-05 8.27181E-25
 -1       568 1.29219E-04 1.77103E-05 0.00000E+00
 -1       569 1.30168E-04 1.50327E-05 0.00000E+00
 -1       570 1.30950E-04 1.28049E-05 0.00000E+00
 -1       571 1.29164E-04 1.04584E-05 0.00000E+00
 -1       572 1.29244E-04 9.78238E-06 0.00000E+00
 -1       573 1.29324E-04 9.06900E-06 0.00000E+00
 -1       574 1.29405E-04 8.32895E-06 8.27181E-25
 -1       575 1.29486E-04 7.57293E-06 0.00000E+00
 -1       576 1.29566E-04 6.81165E-06-1.65436E-24
 -1       577 1.29647E-04 6.05589E-06 0.00000E+00
 -1       578 1.29728E-04 5.31639E-06 0.00000E+00
 -1       579 1.29809E-04 4.60391E-06 0.00000E+00
 -1       580 1.29889E-04 3.92922E-06 0.00000E+00
 -1       581 1.29970E-04 3.30307E-06-6.61744E-24
 -1       582 1.30051E-04 2.73620E-06-6.61744E-24
 -1       583 1.30132E-04 2.23935E-06 0.00000E+00
 -1       584 1.30213E-04 1.82315E-06 0.00000E+00
 -1       585 1.30293E-04 1.49813E-06 0.00000E+00
 -1       586 1.29431E-04 1.11146E-05 0.00000E+00
 -1       587 1.29750E-04 1.11415E-05-3.61892E-25
 -1       588 1.30080E-04 1.11682E-05 0.00000E+00
 -1       589 1.30455E-04 1.11943E-05 0.00000E+00
 -1       590 1.30911E-04 1.12195E-05 0.00000E+00
 -1       591 1.29281E-04 1.05129E-05-2.06795E-25
 -1       592 1.29482E-04 9.91282E-06 0.00000E+00
 -1       593 1.29691E-04 9.29276E-06 0.00000E+00
 -1       594 1.29905E-04 8.65786E-06 0.00000E+00
 -1       595 1.30122E-04 8.01334E-06 0.00000E+00
 -1       596 1.30342E-04 7.36436E-06 4.13590E-25
 -1       597 1.30560E-04 6.71607E-06 8.27181E-25
 -1       598 1.30777E-04 6.07365E-06 0.00000E+00
 -1       599 1.30989E-04 5.44223E-06 8.27181E-25
 -1       600 1.31196E-04 4.82698E-06 0.00000E+00
 -1       601 1.31394E-04 4.23306E-06 4.13590E-25
 -1       602 1.31583E-04 3.66561E-06-2.06795E-25
 -1       603 1.31760E-04 3.12980E-06-3.10193E-25
 -1       604 1.31923E-04 2.63086E-06 0.00000E+00
 -1       605 1.32071E-04 2.17389E-06 0.00000E+00
 -1       606 1.30387E-04 1.22839E-06 0.00000E+00
 -1       607 1.30397E-04 1.27697E-06 0.00000E+00
 -1       608 1.30407E-04 1.41414E-06 0.00000E+00
 -1       609 1.30416E-04 1.63369E-06-1.65436E-24
 -1       610 1.30425E-04 1.92934E-06 0.00000E+00
 -1       611 1.30434E-04 2.29475E-06 0.00000E+00
 -1       612 1.30443E-04 2.72354E-06 0.00000E+00
 -1       613 1.30452E-04 3.20937E-06 0.00000E+00
 -1       614 1.30461E-04 3.74587E-06 0.00000E+00
 -1       615 1.30470E-04 4.32667E-06 0.00000E+00
 -1       616 1.30478E-04 4.94540E-06-1.65436E-24
 -1       617 1.30487E-04 5.59572E-06 0.00000E+00
 -1       618 1.30496E-04 6.27123E-06 0.00000E+00
 -1       619 1.30505E-04 6.96559E-06 0.00000E+00
 -1       620 1.30513E-04 7.67243E-06 0.00000E+00
 -1       621 1.30549E-04 1.35598E-06 1.65436E-24
 -1       622 1.30795E-04 1.43828E-06 0.00000E+00
 -1       623 1.31098E-04 1.52053E-06 1.65436E-24
 -1       624 1.31444E-04 1.60263E-06 8.27181E-25
 -1       625 1.31817E-04 1.68456E-06 1.65436E-24
 -1       626 1.30483E-04 1.25709E-06 3.30872E-24
 -1       627 1.30565E-04 1.31557E-06 0.00000E+00
 -1       628 1.30621E-04 1.44162E-06 3.30872E-24
 -1       629 1.30655E-04 1.62704E-06 1.65436E-24
 -1       630 1.30670E-04 1.86362E-06 0.00000E+00
 -1       631 1.30669E-04 2.14313E-06-1.65436E-24
 -1       632 1.30655E-04 2.45730E-06-3.30872E-24
 -1       633 1.30631E-04 2.79790E-06 1.65436E-24
 -1       634 1.30601E-04 3.15667E-06 3.30872E-24
 -1       635 1.30566E-04 3.52536E-06 0.00000E+00
 -1       636 1.30531E-04 3.89574E-06 0.00000E+00
 -1       637 1.30498E-04 4.25955E-06 1.65436E-24
 -1       638 1.30471E-04 4.60855E-06 0.00000E+00
 -1       639 1.30452E-04 4.93447E-06 0.00000E+00
 -1       640 1.30445E-04 5.22905E-06 0.00000E+00
 -1       656 1.30029E-04 7.91339E-06 0.00000E+00
 -1       657 1.29924E-04 7.42249E-06 6.61744E-24
 -1       658 1.30068E-04 6.93301E-06 0.00000E+00
 -1       659 1.30317E-04 6.44392E-06 6.61744E-24
 -1       660 1.30500E-04 5.95330E-06 0.00000E+00
 -1       661 1.30340E-04 9.06469E-06-8.27181E-25
 -1       662 1.30187E-04 9.67536E-06 0.00000E+00
 -1       663 1.30059E-04 1.02203E-05 0.00000E+00
 -1       664 1.29955E-04 1.07039E-05 0.00000E+00
 -1       665 1.29872E-04 1.11296E-05 0.00000E+00
 -1       666 1.29810E-04 1.15012E-05-8.27181E-25
 -1       667 1.29767E-04 1.18222E-05 0.00000E+00
 -1       668 1.29742E-04 1.20961E-05-8.27181E-25
 -1       669 1.29733E-04 1.23260E-05-1.65436E-24
 -1       670 1.29739E-04 1.25153E-05 0.00000E+00
 -1       671 1.29759E-04 1.26671E-05-1.65436E-24
 -1       672 1.29792E-04 1.27842E-05 0.00000E+00
 -1       673 1.29837E-04 1.28698E-05 0.00000E+00
 -1       674 1.29892E-04 1.29263E-05 0.00000E+00
 -1       675 1.29957E-04 1.29569E-05-4.13590E-25
 -1       676 1.29881E-04 1.34072E-05 0.00000E+00
 -1       677 1.29910E-04 1.33177E-05 0.00000E+00
 -1       678 1.29939E-04 1.32282E-05 0.00000E+00
 -1       679 1.29968E-04 1.31390E-05 0.00000E+00
 -1       680 1.29997E-04 1.30498E-05-1.65436E-24
 -1       771 1.73354E-05 7.34556E-06-5.29396E-23
 -1       772 1.09765E-05 2.05255E-05 0.00000E+00
 -1       773 5.67871E-06 3.09729E-05 0.00000E+00
 -1       774 1.37086E-06 3.88504E-05 0.00000E+00
 -1       775-2.01714E-06 4.43259E-05 0.00000E+00
 -1       776-4.55830E-06 4.75753E-05 0.00000E+00
 -1       777-6.32607E-06 4.87799E-05 0.00000E+00
 -1       778-7.39554E-06 4.81275E-05 0.00000E+00
 -1       779-7.84200E-06 4.58103E-05 0.00000E+00
 -1       780-7.74208E-06 4.20259E-05 2.64698E-23
 -1       781-7.17236E-06 3.69754E-05 0.00000E+00
 -1       782-6.21051E-06 3.08640E-05-2.64698E-23
 -1       783-4.93404E-06 2.38995E-05 0.00000E+00
 -1       784-3.42129E-06 1.62924E-05 2.64698E-23
 -1       785-1.75033E-06 8.25480E-06 2.64698E-23
 -1       786 1.31525E-04 1.04445E-05 1.03398E-25
 -1       787 1.31569E-04 9.69230E-06 4.13590E-25
 -1       788 1.31614E-04 8.97788E-06-8.27181E-25
 -1       789 1.31659E-04 8.29374E-06 0.00000E+00
 -1       790 1.31704E-04 7.63553E-06-1.65436E-24
 -1       791 1.31750E-04 6.99897E-06 0.00000E+00
 -1       792 1.31795E-04 6.38202E-06 0.00000E+00
 -1       793 1.31841E-04 5.78270E-06 0.00000E+00
 -1       794 1.31886E-04 5.20085E-06-1.65436E-24
 -1       795 1.31932E-04 4.63634E-06 8.27181E-25
 -1       796 1.31977E-04 4.09087E-06 0.00000E+00
 -1       797 1.32023E-04 3.56614E-06 8.27181E-25
 -1       798 1.32068E-04 3.06605E-06 0.00000E+00
 -1       799 1.32114E-04 2.59453E-06 8.27181E-25
 -1       800 1.32159E-04 2.15848E-06 1.65436E-24
 -1       801 1.13777E-04 9.76035E-06 0.00000E+00
 -1       802 5.93510E-05 6.96492E-06 0.00000E+00
 -1       803 5.34464E-06 4.18996E-06 0.00000E+00
 -1       804-1.11006E-05 2.67339E-06 0.00000E+00
 -1       805-6.83939E-06 1.34434E-06-2.64698E-23
 -1       806 1.31689E-04 1.03907E-05 0.00000E+00
 -1       807 1.31881E-04 9.56590E-06 0.00000E+00
 -1       808 1.32062E-04 8.77116E-06 0.00000E+00
 -1       809 1.32229E-04 8.00918E-06-1.65436E-24
 -1       810 1.32384E-04 7.28265E-06 3.30872E-24
 -1       811 1.32524E-04 6.59413E-06-1.65436E-24
 -1       812 1.32649E-04 5.94624E-06-1.65436E-24
 -1       813 1.32758E-04 5.34154E-06 1.65436E-24
 -1       814 1.32849E-04 4.78258E-06 0.00000E+00
 -1       815 1.32923E-04 4.27194E-06 8.27181E-25
 -1       816 1.32978E-04 3.81217E-06-1.65436E-24
 -1       817 1.33012E-04 3.40581E-06 8.27181E-25
 -1       818 1.33026E-04 3.05543E-06 1.65436E-24
 -1       819 1.33018E-04 2.76356E-06-8.27181E-25
 -1       820 1.32987E-04 2.53271E-06 0.00000E+00
 -1       821 1.32101E-04 1.32985E-06-8.27181E-25
 -1       822 1.31991E-04 7.71124E-07 0.00000E+00
 -1       823 1.31882E-04 1.82438E-07 0.00000E+00
 -1       824 1.31771E-04-3.42324E-07 0.00000E+00
 -1       825 1.31661E-04-7.23812E-07 0.00000E+00
 -1       826 1.31550E-04-8.83370E-07 0.00000E+00
 -1       827 1.31439E-04-7.92563E-07 0.00000E+00
 -1       828 1.31328E-04-4.24200E-07 0.00000E+00
 -1       829 1.31217E-04 1.86107E-07-3.30872E-24
 -1       830 1.31106E-04 1.00155E-06 0.00000E+00
 -1       831 1.30995E-04 1.93891E-06 3.30872E-24
 -1       832 1.30884E-04 2.91437E-06 1.65436E-24
 -1       833 1.30773E-04 3.83545E-06-3.30872E-24
 -1       834 1.30663E-04 4.60998E-06 8.27181E-25
 -1       835 1.30553E-04 5.17884E-06 8.27181E-25
 -1       836 1.32495E-04 1.86478E-06 3.30872E-24
 -1       837 1.32677E-04 1.96697E-06 0.00000E+00
 -1       838 1.32780E-04 2.06901E-06 3.30872E-24
 -1       839 1.32837E-04 2.17040E-06 8.27181E-25
 -1       840 1.32878E-04 2.27163E-06-4.13590E-25
 -1       856 1.30427E-04 5.71982E-06 0.00000E+00
 -1       857 1.30401E-04 6.07341E-06 0.00000E+00
 -1       858 1.30375E-04 6.52626E-06 0.00000E+00
 -1       859 1.30349E-04 7.05986E-06 0.00000E+00
 -1       860 1.30322E-04 7.65560E-06 0.00000E+00
 -1       861 1.30295E-04 8.29480E-06 0.00000E+00
 -1       862 1.30268E-04 8.95875E-06 0.00000E+00
 -1       863 1.30241E-04 9.62871E-06-4.13590E-25
 -1       864 1.30215E-04 1.02859E-05 8.27181E-25
 -1       865 1.30188E-04 1.09117E-05 4.13590E-25
 -1       866 1.30161E-04 1.14873E-05-8.27181E-25
 -1       867 1.30134E-04 1.19940E-05-4.13590E-25
 -1       868 1.30107E-04 1.24134E-05 0.00000E+00
 -1       869 1.30080E-04 1.27268E-05 0.00000E+00
 -1       870 1.30053E-04 1.29160E-05-8.27181E-25
 -1       871 1.30450E-04 5.48237E-06-4.13590E-25
 -1       872 1.30571E-04 5.47822E-06 0.00000E+00
 -1       873 1.30759E-04 5.47359E-06 4.13590E-25
 -1       874 1.30962E-04 5.46836E-06 1.55096E-25
 -1       875 1.31124E-04 5.46259E-06-4.13590E-25
 -1       876 1.30469E-04 5.73110E-06-3.30872E-24
 -1       877 1.30469E-04 6.03557E-06-1.65436E-24
 -1       878 1.30449E-04 6.39045E-06-3.30872E-24
 -1       879 1.30414E-04 6.78934E-06-1.65436E-24
 -1       880 1.30365E-04 7.22579E-06 3.30872E-24
 -1       881 1.30304E-04 7.69339E-06 1.65436E-24
 -1       882 1.30233E-04 8.18577E-06 0.00000E+00
 -1       883 1.30156E-04 8.69652E-06 1.65436E-24
 -1       884 1.30074E-04 9.21928E-06 0.00000E+00
 -1       885 1.29990E-04 9.74766E-06 0.00000E+00
 -1       886 1.29907E-04 1.02753E-05 0.00000E+00
 -1       887 1.29826E-04 1.07958E-05 0.00000E+00
 -1       888 1.29750E-04 1.13027E-05 0.00000E+00
 -1       889 1.29680E-04 1.17896E-05 0.00000E+00
 -1       890 1.29620E-04 1.22500E-05 0.00000E+00
 -1       891 1.30076E-04 1.29146E-05-1.65436E-24
 -1       892 1.30106E-04 1.28665E-05-4.13590E-25
 -1       893 1.30093E-04 1.28183E-05 8.27181E-25
 -1       894 1.30014E-04 1.27704E-05 0.00000E+00
 -1       895 1.29846E-04 1.27225E-05 0.00000E+00
 -1       956 1.32827E-04 2.33048E-06 0.00000E+00
 -1       957 1.32718E-04 2.36368E-06 1.65436E-24
 -1       958 1.32609E-04 2.45729E-06 1.65436E-24
 -1       959 1.32500E-04 2.60318E-06 8.27181E-25
 -1       960 1.32391E-04 2.79321E-06-3.30872E-24
 -1       961 1.32282E-04 3.01918E-06 0.00000E+00
 -1       962 1.32172E-04 3.27291E-06 3.30872E-24
 -1       963 1.32063E-04 3.54621E-06 0.00000E+00
 -1       964 1.31954E-04 3.83088E-06 0.00000E+00
 -1       965 1.31845E-04 4.11871E-06 0.00000E+00
 -1       966 1.31735E-04 4.40151E-06 3.30872E-24
 -1       967 1.31626E-04 4.67107E-06 0.00000E+00
 -1       968 1.31517E-04 4.91921E-06 0.00000E+00
 -1       969 1.31408E-04 5.13776E-06 0.00000E+00
 -1       970 1.31299E-04 5.31857E-06-3.30872E-24
 -1       971 1.31092E-04 5.60308E-06 1.65436E-24
 -1       972 1.30990E-04 5.83849E-06-1.65436E-24
 -1       973 1.30888E-04 6.15052E-06 1.65436E-24
 -1       974 1.30786E-04 6.52929E-06-1.65436E-24
 -1       975 1.30684E-04 6.96493E-06 3.30872E-24
 -1       976 1.30582E-04 7.44754E-06 0.00000E+00
 -1       977 1.30480E-04 7.96722E-06 0.00000E+00
 -1       978 1.30378E-04 8.51405E-06 0.00000E+00
 -1       979 1.30276E-04 9.07811E-06-3.30872E-24
 -1       980 1.30173E-04 9.64949E-06 0.00000E+00
 -1       981 1.30071E-04 1.02183E-05 0.00000E+00
 -1       982 1.29969E-04 1.07745E-05-1.65436E-24
 -1       983 1.29867E-04 1.13083E-05 0.00000E+00
 -1       984 1.29766E-04 1.18097E-05 0.00000E+00
 -1       985 1.29665E-04 1.22688E-05 0.00000E+00
 -3
    1PSTEP                        20          10           1          
  100CL  110 5.74219E-01         409                     0   10           1
 -4  STRESS      6    1
 -5  SXX         1    4    1    1
 -5  SYY         1    4    2    2
 -5  SZZ         1    4    3    3
 -5  SXY         1    4    1    2
 -5  SYZ         1    4    2    3
 -5  SZX         1    4    3    1
 -1         1-2.96909E+06-1.19279E+06-6.41358E+05-1.37548E+06-1.01863E-10 5.61995E-08
 -1         2 2.07723E+03-8.54148E+05 6.70657E+03 1.96833E+02 7.89839E-11 7.62588E-08
 -1         3-4.12557E+02-1.32178E+06 4.84832E+02-1.01328E+03-2.98794E-10-3.08901E-08
 -1         5-1.48115E+00 3.04547E+05 7.72838E+00-7.72467E-02-9.92997E-11 2.46507E-08
 -1         8-1.01821E+06-3.53071E+05-1.07543E+05-4.44716E+05 1.21872E-10 2.38724E-08
 -1         9-5.05920E+05-8.13277E+05 6.32082E+03-8.37357E+05 1.44995E-08-2.93483E-08
 -1        10-2.44648E+03-1.40818E+06-3.32354E+03-7.47622E+03-2.88674E-09-8.62929E-09
 -1        12 1.69069E+00 3.04563E+05 2.50197E+02-5.85175E-01-3.36833E-11 1.74396E-08
 -1        15 1.75121E+03 9.62391E+02 5.66077E+03 3.43717E+00-2.39368E-10-1.57171E-08
 -1        16 1.19537E+06-9.38503E+05 1.48594E+05-1.20842E+06 1.21751E-08 3.09277E-08
 -1        17-4.66819E+03 7.72804E+04 8.15855E+04 2.07641E+05 9.97970E-09 1.30094E-08
 -1        18 2.85333E+03-3.87417E+03-2.35388E+04-8.52975E+04 9.98546E-09 4.66162E-09
 -1        19 9.81690E+04 1.12757E+05-8.11519E+02 1.91852E+04-9.60426E-11-7.89514E-09
 -1        20-5.27683E+04-4.64392E+05-1.03262E+05 2.79657E+04 2.31421E-09 5.10772E-09
 -1        21-4.13105E+01-2.56389E+05-8.15807E+02 5.09651E+00 1.62369E-09-2.07127E-08
 -1        24-5.22600E+05 8.21928E+05 2.64957E+05 4.86817E+05-7.59270E-08-3.18299E-08
 -1        25-1.02021E+05-5.75473E+05-1.15250E+05-1.84666E+05-1.55160E-10-1.59034E-09
 -1        26-3.81923E+04 7.32691E+04-1.90253E+04-3.91479E+03 1.25765E-09-1.96331E-09
 -1        27-6.71424E+04-2.52537E+05-9.37428E+04 5.69834E+04 5.13902E-09-2.85339E-09
 -1        28 1.96566E+04-7.21901E+04 1.45634E+04 2.05214E+04 1.31607E-09-6.27792E-09
 -1        32-1.39839E+06-2.21580E+06-6.40837E+04-3.80391E+05-2.87819E-08-4.76301E-09
 -1        33-1.47973E+05 7.31306E+04 2.60857E+04-3.43405E+04-3.51671E-11 1.15809E-09
 -1        34-1.86237E+05-1.92109E+04 5.03528E+02 5.95226E+04 1.10344E-09-6.53987E-09
 -1        35-2.00588E+04-2.86712E+04-1.13240E+03 4.46595E+04 2.05728E-09-4.74150E-10
 -1        51 3.04360E+04-3.02563E+05 6.97845E+04-8.58689E+05-1.01863E-10 9.45874E-09
 -1        52 1.34393E+04-2.94544E+05 4.06503E+04-1.00133E+06 4.58385E-10-2.86673E-08
 -1        53 6.47595E+03-3.09274E+05 2.75412E+04-8.55624E+05 2.76486E-10-7.88277E-08
 -1        54 1.71968E+04-3.07050E+05 3.55105E+04-1.00451E+06-8.00355E-11-6.84158E-08
 -1        55 3.45290E+04-3.19438E+05 5.82024E+04-8.55141E+05 1.52795E-10 1.14960E-08
 -1        56-5.65019E+06-6.32428E+05-4.73039E+05-2.19096E+06 1.67347E-09 3.45462E-08
 -1        57-5.88205E+06-1.02044E+06-3.19176E+05-2.12523E+06 4.80213E-09 5.11391E-08
 -1        58-5.73993E+06-7.88148E+05-1.11197E+05-2.16727E+06 2.21735E-09 1.85028E-08
 -1        59-5.77960E+06-8.36157E+05-6.63851E+04-2.15156E+06 6.82121E-12-5.62495E-08
 -1        60-5.75119E+06-8.11699E+05-2.59164E+04-2.16619E+06-4.28827E-10-2.27647E-08
 -1        61-5.76715E+06-8.07951E+05-1.47062E+04-2.15206E+06-2.13618E-10 5.81281E-09
 -1        62-5.75209E+06-8.15681E+05-6.99250E+03-2.16693E+06-3.32238E-09-2.69788E-08
 -1        63-5.76576E+06-8.04211E+05-5.67063E+03-2.15177E+06 4.12109E-09-6.76278E-09
 -1        64-5.75253E+06-8.15361E+05-6.29375E+03-2.16648E+06 1.42950E-09 2.95944E-08
 -1        65-5.76531E+06-8.08732E+05-1.26235E+04-2.15373E+06 2.68858E-09-3.86663E-08
 -1        66-5.75257E+06-8.11229E+05-2.20010E+04-2.16496E+06-1.90539E-09 1.88038E-08
 -1        67-5.77440E+06-8.33977E+05-5.61651E+04-2.15492E+06-4.45016E-09 6.16674E-08
 -1        68-5.74369E+06-7.90687E+05-9.40411E+04-2.16515E+06-1.55887E-09 4.86762E-09
 -1        69-5.86009E+06-9.90719E+05-2.69860E+05-2.13375E+06-2.31012E-10-7.08569E-08
 -1        70-5.66816E+06-6.58740E+05-4.00072E+05-2.18483E+06 3.63798E-10-2.05328E-08
 -1        86-1.03610E+03-8.55940E+05 7.26269E+03-9.84179E+01-6.23004E-11-2.24226E-09
 -1        87 6.90230E+03-8.51815E+05 1.50536E+04 3.61637E+02-2.04409E-10-4.75958E-09
 -1        88-5.84586E+03-8.58266E+05 2.31614E+04-2.63226E+02-1.40972E-10-2.49350E-08
 -1        89 4.35946E+04-8.34790E+05 6.23382E+04 6.04139E+02-2.91038E-10-5.17743E-08
 -1        90-3.76040E+04-8.72924E+05 8.82182E+04-3.40940E+02-1.38243E-10-3.94490E-08
 -1       121-6.09652E+02-1.32334E+06 2.77454E+02 5.05099E+02 7.84752E-10-1.30967E-08
 -1       122-2.45339E+02-1.32171E+06 1.03564E+03-2.02386E+03-2.76453E-09-1.35315E-08
 -1       123-7.05859E+02-1.32346E+06 1.48901E+03 1.50963E+03 2.37708E-09 6.00267E-09
 -1       124 1.66155E+03-1.32066E+06 4.28054E+03-4.28360E+03-5.48425E-09 8.98217E-09
 -1       125-1.89046E+03-1.32453E+06 6.40307E+03 2.75970E+03 3.82988E-09-1.30749E-08
 -1       191-1.81345E+00 3.04574E+05 9.44539E+00 3.87280E-02-5.66605E-11 1.63755E-09
 -1       192-2.18921E+00 3.04547E+05 1.63527E+01-3.14332E-01-4.49383E-11 7.86713E-11
 -1       193-3.69689E+00 3.04573E+05 3.06129E+01 2.76451E-01-1.38483E-10 1.82399E-09
 -1       194-4.46815E+00 3.04550E+05 6.18259E+01-7.39379E-01-9.72413E-11 5.14990E-09
 -1       195-7.31648E+00 3.04571E+05 1.21135E+02 4.65860E-01-1.19684E-10-2.61866E-09
 -1       251-1.71787E+06 6.63090E+03-9.95760E+04-7.72430E+04-1.19326E-09-1.34605E-10
 -1       252-1.45869E+06-5.96836E+03-1.38432E+04 2.33483E+05 6.74117E-09 2.68997E-08
 -1       253-1.59460E+06-1.53421E+03-1.96013E+04-1.55709E+05 2.26009E-10-1.09312E-08
 -1       254-1.57539E+06 1.57950E+04-3.40486E+03 3.03709E+05-1.47140E-08 2.74517E-08
 -1       255-1.61345E+06-5.11158E+03-1.02200E+04-1.48107E+05 9.70431E-10 2.02856E-08
 -1       256-1.40856E+06 1.45560E+04 3.48898E+04 2.05917E+05 1.51276E-08 2.31839E-08
 -1       257-1.74523E+06-1.33906E+04-3.53655E+04-5.71673E+04-7.26686E-09-8.49082E-09
 -1       258-1.27499E+06 1.17378E+04 6.14535E+04-1.33937E+04 1.15433E-08 2.96277E-08
 -1       259-1.73396E+06-1.28602E+04-3.17990E+04 7.06534E+04 5.03496E-09 1.08127E-08
 -1       260-1.43388E+06 1.62611E+04 3.33380E+04-2.24319E+05 8.28777E-09 4.15685E-09
 -1       261-1.60193E+06-5.29549E+03-1.81513E+03 1.53410E+05 1.60308E-08 1.28150E-08
 -1       262-1.57319E+06 2.27136E+04 1.08021E+04-3.04056E+05-2.45039E-08 8.09098E-09
 -1       263-1.60842E+06-8.15427E+03 1.15506E+03 1.51082E+05-6.05269E-10 7.19774E-09
 -1       264-1.41223E+06 3.77465E+04 5.40234E+04-2.16090E+05 6.90379E-08 8.76526E-10
 -1       265-1.74793E+06-3.23627E+04-1.27295E+04 6.47182E+04 2.30339E-08 8.76207E-09
 -1       266-3.17021E+04-1.48224E+04 7.43890E+04-7.35508E+01-3.16504E-10-4.39282E-08
 -1       267 3.67521E+04 1.72781E+04 5.25735E+04 8.48555E+01-7.11225E-10-2.09017E-07
 -1       268-4.92836E+03-2.44694E+03 1.95415E+04-1.08125E+01-5.15683E-10-1.34657E-07
 -1       269 5.81898E+03 2.92860E+03 1.27015E+04 1.25945E+01-3.66754E-10-8.63263E-08
 -1       270-8.73436E+02-4.81186E+02 6.13120E+03-1.70918E+00-2.53976E-10-5.83746E-08
 -1       271-2.91414E+06-3.61653E+05-2.19199E+05-1.13078E+06 1.51704E-09-2.91038E-08
 -1       272-3.00818E+06-5.06981E+05-1.41051E+05-1.11206E+06-2.26100E-09-1.14305E-07
 -1       273-2.95553E+06-4.16312E+05-5.17692E+04-1.12083E+06-1.00862E-08-1.69894E-08
 -1       274-2.95901E+06-4.40571E+05-2.89949E+04-1.12748E+06-4.66662E-09 2.33467E-08
 -1       275-2.96221E+06-4.21046E+05-1.20684E+04-1.11799E+06 5.51154E-09 2.80788E-08
 -1       276-2.95011E+06-4.35900E+05-6.36981E+03-1.13254E+06-2.89447E-09-5.39535E-08
 -1       277-2.96443E+06-4.20183E+05-3.14205E+03-1.11612E+06 6.13636E-09 3.68664E-09
 -1       278-2.94677E+06-4.37854E+05-2.17876E+03-1.13599E+06 4.05180E-09 6.91748E-08
 -1       279-2.96572E+06-4.18917E+05-2.29767E+03-1.11469E+06-4.66889E-09-3.47155E-08
 -1       280-2.94517E+06-4.40386E+05-4.08475E+03-1.13845E+06-8.46035E-09-1.75137E-08
 -1       281-2.96621E+06-4.17576E+05-7.41119E+03-1.11377E+06-4.80713E-09-7.73980E-09
 -1       282-2.94744E+06-4.46521E+05-1.77447E+04-1.13930E+06-2.66027E-09 2.29647E-10
 -1       283-2.96365E+06-4.13141E+05-3.15351E+04-1.11378E+06-1.46065E-09-3.88591E-08
 -1       284-2.97480E+06-4.89722E+05-8.60500E+04-1.13302E+06-2.67846E-10-1.44528E-08
 -1       285-2.93961E+06-3.78628E+05-1.33658E+05-1.11852E+06 5.19503E-09 1.70330E-08
 -1       301 2.30922E+04-1.84451E+05 1.72529E+05-3.51682E+05 2.91038E-11-1.45064E-08
 -1       302 2.45537E+04-1.41161E+05 1.10410E+05-5.14875E+05-2.81943E-11 5.87534E-09
 -1       303 9.94837E+02-1.67400E+05 7.94403E+04-3.50992E+05-2.80124E-10-1.83099E-08
 -1       304 2.36020E+04-1.39925E+05 1.09602E+05-5.14415E+05 1.74623E-10-4.85306E-09
 -1       305 2.14738E+04-1.82400E+05 1.70521E+05-3.52205E+05-2.91038E-10-3.89264E-09
 -1       306-9.96389E+06-1.29752E+06-1.65172E+06-2.03468E+06-3.40224E-08-3.79514E-08
 -1       307 1.95445E+05-1.88153E+06 6.20630E+05-4.79280E+06-3.24108E-07-1.14305E-08
 -1       308-7.60130E+06 2.27325E+05-2.12709E+05-2.04467E+04-1.31695E-08 5.98775E-08
 -1       309-3.73731E+06-2.09086E+06 1.74229E+05-7.45196E+06 1.70211E-07 6.26897E-08
 -1       310-7.68715E+06 1.97948E+05-1.48848E+05-6.41224E+04 2.45782E-08 1.74769E-08
 -1       311 4.07302E+05-1.88785E+06 8.95370E+05-4.58534E+06 2.94822E-07-1.06018E-07
 -1       312-9.99093E+06-1.33680E+06-1.13741E+06-2.14285E+06 1.16503E-07 4.93965E-08
 -1       313 2.19807E+06 5.23768E+05 1.55974E+06 7.77811E+05-6.99074E-08 8.14252E-08
 -1       314-8.23420E+06-3.07509E+06-1.13319E+06-4.07717E+06 1.56550E-07-2.17115E-08
 -1       315-5.23767E+06 3.70935E+06 8.85816E+05 1.62354E+06-1.66503E-07-4.07454E-08
 -1       316-4.21266E+06-3.25177E+06-1.47126E+05-3.90866E+06-3.01035E-07-2.11643E-07
 -1       317-1.04164E+07 4.57822E+06 1.62285E+05-1.31337E+04 3.10441E-07-2.26347E-07
 -1       318-4.14646E+06-3.24254E+06-2.38167E+05-3.89443E+06-2.65485E-07-1.42754E-08
 -1       319-5.45448E+06 3.75639E+06 5.71393E+05 1.57080E+06-3.04572E-08 3.54194E-08
 -1       320-8.13185E+06-3.09851E+06-1.74069E+06-4.08849E+06 7.47386E-08-1.13287E-08
 -1       336 1.27450E+03-1.49427E+06-1.25738E+04 4.68693E+03-5.71254E-09 7.17409E-09
 -1       337-4.77441E+03-1.49664E+06-1.36804E+04-1.15286E+04-4.24438E-09-4.96766E-09
 -1       338 8.33508E+02-1.49461E+06-1.76231E+04 6.78735E+03-7.37327E-09 5.48607E-09
 -1       339-1.85678E+04-1.50556E+06-3.84433E+04-1.56277E+04-4.99494E-09 3.71674E-08
 -1       340 1.28124E+04-1.48605E+06-5.91666E+04 8.74414E+03-7.89987E-09 2.10603E-08
 -1       406 2.10026E+01 3.04560E+05 4.94156E+02 1.23599E-01-1.93523E-10 4.03975E-09
 -1       407 1.73883E+02 3.04650E+05 1.04978E+03 2.61384E+00-2.19416E-11-2.47280E-09
 -1       408 5.42217E+02 3.04485E+05 2.09688E+03-2.80841E+00-2.47155E-10-1.25858E-08
 -1       409 2.26848E+03 3.05319E+05 4.72015E+03 2.80639E+01-1.20735E-10-9.31993E-09
 -1       410 6.51470E+03 3.03889E+05 9.63612E+03-2.65305E+01-4.80213E-10 1.46144E-09
 -1       521-1.21914E+07-1.76803E+06-2.24433E+06-2.27957E+06-3.61470E-08 3.00352E-08
 -1       522 6.85567E+05-2.20220E+06 7.66975E+05-6.30669E+06-2.40048E-07-1.31924E-07
 -1       523-9.18380E+06 2.40505E+05-2.72331E+05 2.14286E+05 2.42871E-08-1.27067E-07
 -1       524-4.88572E+06-2.06533E+06 2.43768E+05-9.73648E+06 3.38540E-07-2.75870E-07
 -1       525-9.32270E+06 1.87930E+05-1.99869E+05 1.47815E+05 2.67377E-07-2.00354E-07
 -1       526 1.07953E+06-2.22597E+06 1.14640E+06-5.95966E+06 9.82545E-08 4.92164E-08
 -1       527-1.22403E+07-1.84735E+06-1.56709E+06-2.45045E+06 1.75205E-08 5.92117E-08
 -1       528 3.67845E+06 7.30183E+05 1.96861E+06 1.37740E+06-1.45286E-07-7.21047E-09
 -1       529-9.95500E+06-4.10201E+06-1.55787E+06-4.93692E+06-3.27709E-08-4.07454E-10
 -1       530-6.43921E+06 5.21823E+06 1.13684E+06 2.21010E+06-3.00701E-07 1.53508E-07
 -1       531-4.86191E+06-4.23758E+06-1.87244E+05-4.74039E+06-3.84403E-07 3.61761E-08
 -1       532-1.33041E+07 6.35598E+06 2.50213E+05-4.38648E+05 1.31680E-07-2.31988E-07
 -1       533-4.75690E+06-4.22479E+06-2.70641E+05-4.71548E+06 5.04806E-08-3.99858E-07
 -1       534-6.77937E+06 5.37248E+06 8.10491E+05 2.08612E+06-7.11734E-08 2.90464E-07
 -1       535-9.81995E+06-4.20177E+06-2.20574E+06-4.94817E+06 1.00699E-08 1.80258E-07
 -1       536-4.75601E+05-2.94760E+04 2.33334E+04-2.49465E+04-4.14275E-09 4.17549E-08
 -1       537-2.73827E+05 3.12615E+04 5.00656E+04 6.13518E+04-6.53145E-08 4.48563E-08
 -1       538-3.78263E+05-1.29385E+03 1.09621E+04-3.77908E+04 1.22816E-08 5.65433E-08
 -1       539-3.39409E+05 3.35838E+03 1.34168E+04 7.02384E+04 7.16766E-08 7.08088E-08
 -1       540-4.11463E+05-4.19165E+02-4.30830E+03-3.39099E+04-4.74597E-09 6.57251E-08
 -1       541-2.11598E+05 5.54859E+03 3.41362E+04 4.44302E+04-1.15760E-08 5.17905E-08
 -1       542-5.02648E+05-6.28929E+03-2.53146E+04-1.18440E+04 2.32876E-08 3.28520E-08
 -1       543-1.38491E+05 8.25960E+03 4.75092E+04-8.38402E+03 1.70908E-08-8.52117E-09
 -1       544-4.82631E+05-4.71214E+03-2.22791E+04 1.87880E+04 1.21304E-09-2.47293E-08
 -1       545-2.57037E+05 2.10675E+03 2.18112E+04-5.60549E+04-1.82102E-08-4.04698E-08
 -1       546-3.87235E+05 2.41936E+03-4.97589E+03 3.57823E+04 5.27848E-09-4.98437E-08
 -1       547-3.49071E+05-4.02882E+03-1.90489E+03-7.22148E+04-5.02596E-08-6.89181E-08
 -1       548-3.93010E+05 3.39532E+03-1.49416E+04 3.50569E+04-5.65667E-08-5.94391E-08
 -1       549-2.49030E+05-9.71997E+03-1.77604E+03-5.27812E+04-3.55315E-08-3.76349E-08
 -1       550-4.84492E+05 5.82436E+03-6.83677E+04 1.62289E+04 5.28598E-09-1.93522E-08
 -1       551 2.48466E+04-6.71602E+05 2.11592E+04-1.06799E+06-6.42831E-08-1.77970E-08
 -1       552 5.50002E+04-6.90643E+05 3.06204E+04-1.52198E+06-4.55766E-08 1.52213E-08
 -1       553 3.99872E+04-6.95068E+05 4.57811E+04-1.06356E+06-7.58882E-08 1.65746E-08
 -1       554 8.45162E+04-6.91807E+05 9.69552E+04-1.52366E+06-4.64497E-08 4.77849E-09
 -1       555 6.90117E+04-7.15006E+05 1.72130E+05-1.06428E+06-7.66086E-08-6.90125E-09
 -1       556 1.36479E+05-2.47060E+05 6.34806E+04-2.97333E+05-1.45665E-08-4.30737E-09
 -1       557 2.31893E+05-3.23796E+05 3.40983E+04-3.76684E+05-2.67755E-09 1.21099E-08
 -1       558 1.31047E+05-2.52508E+05 1.26173E+04-2.92287E+05-8.35280E-09 9.71340E-10
 -1       559 2.15374E+05-3.31168E+05 6.76785E+03-3.86276E+05 1.08557E-08 5.45879E-09
 -1       560 1.24656E+05-2.48424E+05 2.11979E+03-2.96671E+05 8.14907E-09 8.82210E-09
 -1       561 2.06773E+05-3.28144E+05 1.39295E+03-3.91911E+05 2.14641E-09 3.10956E-09
 -1       562 1.19626E+05-2.45214E+05 1.82569E+02-3.00280E+05-7.13044E-10 4.00178E-11
 -1       563 2.00865E+05-3.25573E+05 3.39755E+02-3.95718E+05 1.78261E-10-2.61962E-08
 -1       564 1.16247E+05-2.43085E+05 4.11380E+00-3.02666E+05 7.70524E-09-9.49058E-10
 -1       565 1.97323E+05-3.24035E+05 1.30732E+02-3.97966E+05 4.20550E-09 3.40151E-10
 -1       566 1.14584E+05-2.42023E+05-1.28390E+00-3.03834E+05-1.64073E-09-8.41464E-09
 -1       567 1.96117E+05-3.23497E+05-8.51784E+01-3.98634E+05 1.24037E-08-1.65892E-09
 -1       568 1.14688E+05-2.42102E+05-4.25188E+02-3.03854E+05-9.94987E-10-8.98581E-10
 -1       569 1.96301E+05-3.23426E+05-1.05972E+03-3.96875E+05 7.16864E-09 1.53232E-08
 -1       570 1.17331E+05-2.44307E+05-2.49051E+03-3.03365E+05 1.07830E-08-1.23873E-09
 -1       571 2.30895E+05 8.48903E+03 1.24573E+04-6.18068E+04 5.64796E-10 9.84301E-10
 -1       572 2.32737E+05 3.01660E+03 6.10372E+03-6.77962E+04 9.01764E-10-5.11091E-09
 -1       573 2.31633E+05 7.82346E+02 2.71180E+03-6.16725E+04 2.98405E-09 4.26462E-09
 -1       574 2.31843E+05 3.21685E+02 1.35908E+03-6.79532E+04 4.33829E-09 5.31099E-09
 -1       575 2.31717E+05 1.16648E+02 6.41052E+02-6.16546E+04 1.41495E-09-3.56977E-10
 -1       576 2.31726E+05 1.01636E+02 3.27307E+02-6.79741E+04-2.16011E-09-4.48108E-09
 -1       577 2.31736E+05 7.65447E+01 1.62804E+02-6.16522E+04 1.87952E-08-1.65483E-09
 -1       578 2.31726E+05 8.40693E+01 9.21983E+01-6.79768E+04 3.78943E-08 8.71296E-10
 -1       579 2.31764E+05 6.56161E+01 6.19729E+01-6.16520E+04 2.02126E-08-3.33830E-09
 -1       580 2.31764E+05 6.70357E+01 6.79560E+01-6.79732E+04-5.32191E-09-5.40012E-09
 -1       581 2.31807E+05 4.68647E+01 1.02099E+02-6.16558E+04 2.52476E-09 5.10909E-09
 -1       582 2.31840E+05 6.79702E+01 2.03395E+02-6.79340E+04 5.03860E-09 2.01544E-09
 -1       583 2.31856E+05 1.08612E+02 3.93750E+02-6.16914E+04 4.42014E-10 3.11616E-09
 -1       584 2.32047E+05 4.22771E+02 8.86368E+02-6.76355E+04-2.05273E-09-6.60327E-09
 -1       585 2.31818E+05 1.19767E+03 1.80047E+03-6.19546E+04-3.91083E-10 3.98359E-10
 -1       586-2.92311E+03 7.71292E+04-3.44195E+03-2.06278E+05-2.16460E-09 4.32237E-10
 -1       587-7.62092E+02 7.67192E+04-2.73622E+01-2.27055E+05-3.62161E-09 5.91854E-09
 -1       588 7.16961E+02 7.67434E+04 3.32010E+03-2.06182E+05-1.31877E-09 5.38057E-09
 -1       589 4.34395E+03 7.85397E+04 9.17723E+03-2.26814E+05-1.55524E-09 3.58705E-09
 -1       590 1.30058E+04 7.57273E+04 1.94727E+04-2.06537E+05-8.13088E-10 1.12777E-09
 -1       591-4.77513E+04-1.20907E+04-1.62729E+04-2.26070E+04-2.47837E-11 1.89175E-09
 -1       592-5.00657E+04-1.52988E+04-8.81441E+03-2.59522E+04 1.85139E-09-1.36450E-08
 -1       593-4.93848E+04-1.09036E+04-3.66924E+03-2.37943E+04-7.75708E-09-6.05223E-09
 -1       594-4.78101E+04-1.29205E+04-1.83003E+03-2.60488E+04-1.45344E-08 3.50769E-09
 -1       595-4.95096E+04-1.08991E+04-8.40594E+02-2.38484E+04-2.88867E-09 3.03642E-09
 -1       596-4.76564E+04-1.28117E+04-4.27906E+02-2.60314E+04 1.49024E-09-3.55212E-09
 -1       597-4.95253E+04-1.09100E+04-2.34233E+02-2.38505E+04 3.15885E-09 2.16489E-08
 -1       598-4.76414E+04-1.28075E+04-1.90548E+02-2.60265E+04-8.18261E-10 1.24949E-08
 -1       599-4.95241E+04-1.09102E+04-2.46208E+02-2.38501E+04 4.85466E-09-1.19326E-09
 -1       600-4.76571E+04-1.28127E+04-4.59615E+02-2.60303E+04 5.85965E-09-1.17182E-08
 -1       601-4.95051E+04-1.08993E+04-9.07879E+02-2.38472E+04 3.17732E-09-1.79335E-08
 -1       602-4.78230E+04-1.29299E+04-1.97924E+03-2.60464E+04 5.62977E-10-6.58315E-09
 -1       603-4.93682E+04-1.09064E+04-3.96950E+03-2.37890E+04 5.11591E-11-4.74301E-09
 -1       604-5.02754E+04-1.54891E+04-9.53546E+03-2.59243E+04-2.62014E-09 2.81943E-09
 -1       605-4.75862E+04-1.22031E+04-1.76041E+04-2.25183E+04-8.10644E-10-1.70621E-09
 -1       606 2.74264E+04-1.10851E+04-1.99204E+04 2.63183E+04 3.44698E-10-1.37920E-08
 -1       607 2.40179E+04-3.59511E+03-9.91953E+03 2.95512E+04 1.05865E-09-1.12191E-08
 -1       608 2.59531E+04-6.24878E+02-4.44177E+03 2.61137E+04 5.52973E-10-1.46110E-09
 -1       609 2.55725E+04-1.84277E+02-2.24348E+03 2.97833E+04-1.02955E-09 9.19863E-09
 -1       610 2.57774E+04 4.19894E+00-1.07128E+03 2.60906E+04-1.16415E-10 1.18928E-08
 -1       611 2.57094E+04 1.40565E+01-5.40104E+02 2.98085E+04-3.41652E-09 1.55160E-09
 -1       612 2.57322E+04 2.02482E+01-2.57713E+02 2.60883E+04-2.37105E-09 3.07432E-09
 -1       613 2.57094E+04 2.22533E+01-1.16266E+02 2.98115E+04-2.81034E-09-1.97429E-09
 -1       614 2.57081E+04 1.96928E+01-2.96580E+01 2.60875E+04-2.31921E-10 1.87060E-09
 -1       615 2.56982E+04 2.73265E+01 4.33084E+01 2.98120E+04 1.50612E-09 8.00310E-09
 -1       616 2.56896E+04 2.53430E+01 1.34793E+02 2.60878E+04-4.25780E-09 5.15979E-09
 -1       617 2.57091E+04 5.92684E+01 3.09677E+02 2.98114E+04-8.63793E-10 7.41011E-10
 -1       618 2.56588E+04 1.17087E+02 6.24864E+02 2.60879E+04 2.53067E-09-1.07821E-09
 -1       619 2.59265E+04 5.44434E+02 1.40372E+03 2.98106E+04 2.55113E-09-4.30032E-09
 -1       620 2.54492E+04 1.60062E+03 2.82150E+03 2.60871E+04 1.85821E-09-1.37288E-09
 -1       621 2.78790E+02 2.35742E+05 2.53899E+03 1.77143E+04 1.90539E-10-4.24598E-09
 -1       622 3.46013E+02 2.36359E+05 2.36939E+03 2.57712E+04 3.04226E-10-9.52559E-09
 -1       623 2.78907E+01 2.35882E+05 3.00243E+03 1.76299E+04 2.10889E-10 1.04956E-09
 -1       624 1.45427E+03 2.37356E+05 5.94463E+03 2.58572E+04 1.94120E-10-4.95720E-09
 -1       625 1.45847E+03 2.34709E+05 1.04486E+04 1.76272E+04 2.77851E-10-1.02895E-08
 -1       626 2.08376E+05 5.41969E+04 4.53448E+03 1.07665E+05-4.69117E-09-1.27129E-08
 -1       627 2.06006E+05 5.57517E+04 2.18511E+03 1.11798E+05 5.16593E-10 1.49028E-08
 -1       628 2.08509E+05 5.20953E+04 9.23369E+02 1.08401E+05 2.76214E-09 2.08026E-08
 -1       629 2.05404E+05 5.51848E+04 4.52057E+02 1.12043E+05 4.25644E-09 1.56760E-08
 -1       630 2.08519E+05 5.19957E+04 2.08911E+02 1.08426E+05-3.81988E-11 4.46315E-09
 -1       631 2.05335E+05 5.51673E+04 1.11543E+02 1.12044E+05-1.87902E-09 1.23669E-08
 -1       632 2.08511E+05 5.20022E+04 7.18234E+01 1.08419E+05-7.20411E-09-1.17454E-08
 -1       633 2.05322E+05 5.51719E+04 7.76331E+01 1.12037E+05 2.58206E-09-1.47725E-09
 -1       634 2.08502E+05 5.20025E+04 1.23297E+02 1.08415E+05-6.94899E-09 9.68612E-09
 -1       635 2.05329E+05 5.51726E+04 2.48309E+02 1.12038E+05-2.21546E-08 1.78318E-08
 -1       636 2.08491E+05 5.20001E+04 5.00772E+02 1.08413E+05-1.94974E-08 1.97601E-08
 -1       637 2.05434E+05 5.52513E+04 1.10037E+03 1.12035E+05-2.54796E-08-2.74667E-10
 -1       638 2.08450E+05 5.22444E+04 2.26097E+03 1.08302E+05-1.94741E-08-2.23554E-09
 -1       639 2.06621E+05 5.69027E+04 5.34898E+03 1.11683E+05-2.21444E-08-6.22913E-09
 -1       640 2.08290E+05 5.71711E+04 1.11001E+04 1.06217E+05-1.24192E-08 1.03455E-08
 -1       656 5.47054E+04-1.39151E+06-1.32060E+05-7.66149E+02 3.56522E-10-2.54903E-09
 -1       657-7.23322E+04-1.45114E+06-1.09311E+05 7.22943E+03 3.86535E-10 8.06591E-09
 -1       658 1.73968E+04-1.40848E+06-6.72069E+04-2.29935E+03 1.60981E-10 9.64182E-09
 -1       659-7.79014E+04-1.45378E+06-1.16627E+05 8.35450E+03-4.69299E-10 2.03516E-08
 -1       660 6.02618E+04-1.38887E+06-1.44639E+05-1.89120E+03-8.87667E-10 5.30292E-09
 -1       661 1.66010E+05 1.78496E+04 1.64903E+04 6.49199E+04 3.39560E-09-3.27327E-09
 -1       662 1.74912E+05 3.04750E+04 1.11123E+04 6.16997E+04 4.92491E-10-4.43822E-09
 -1       663 1.69246E+05 2.31418E+04 3.88690E+03 6.39827E+04 5.04315E-10 1.37334E-10
 -1       664 1.71163E+05 2.42831E+04 2.32438E+03 6.28419E+04 8.53788E-11-1.30476E-08
 -1       665 1.69734E+05 2.38675E+04 9.16935E+02 6.38431E+04-2.89521E-09-5.95998E-09
 -1       666 1.70588E+05 2.34509E+04 5.35536E+02 6.30225E+04-1.46865E-09-1.00522E-08
 -1       667 1.69817E+05 2.39522E+04 2.83294E+02 6.38101E+04 2.49003E-10-8.48451E-09
 -1       668 1.70498E+05 2.33869E+04 2.85983E+02 6.30704E+04 4.84206E-09-1.70111E-08
 -1       669 1.69824E+05 2.39295E+04 3.84986E+02 6.37957E+04 6.19309E-10 1.25906E-08
 -1       670 1.70592E+05 2.35936E+04 8.36269E+02 6.30720E+04 2.31472E-09 1.25951E-08
 -1       671 1.69723E+05 2.37497E+04 1.48416E+03 6.38067E+04-1.78915E-11-5.48067E-09
 -1       672 1.71457E+05 2.50375E+04 3.79666E+03 6.28630E+04-2.24802E-09 1.28689E-08
 -1       673 1.68964E+05 2.25221E+04 6.36238E+03 6.39909E+04 1.46770E-09-2.40129E-09
 -1       674 1.77514E+05 3.52576E+04 1.81950E+04 6.10821E+04-3.70619E-09 6.43240E-10
 -1       675 1.63705E+05 1.38156E+04 2.70075E+04 6.54799E+04 1.42063E-09-7.02130E-09
 -1       676 2.11650E+01-2.56321E+05-9.83260E+02-2.54831E+00 6.78369E-10 3.12886E-09
 -1       677-2.61139E+02-2.56559E+05-1.79950E+03 5.09339E+00-1.51488E-09-5.46058E-09
 -1       678 1.74310E+02-2.56152E+05-3.18106E+03-2.54334E+00-3.51406E-10-5.58492E-10
 -1       679-3.18200E+03-2.58479E+05-7.55673E+03 5.07435E+00-4.51223E-10 7.45615E-09
 -1       680 1.89903E+03-2.54402E+05-1.21789E+04-2.50058E+00 3.56067E-10 4.41753E-09
 -1       771-2.71140E+06-5.61130E+05-8.80436E+04-1.21426E+06-2.37051E-08-1.85391E-08
 -1       772-2.66770E+06-6.18464E+05-4.60907E+04-1.27969E+06-1.67056E-08 1.37079E-08
 -1       773-2.72721E+06-5.48637E+05-2.20428E+04-1.22003E+06-8.06176E-09 6.67205E-09
 -1       774-2.65895E+06-6.09218E+05-1.01493E+04-1.29119E+06 1.78625E-08-8.17818E-09
 -1       775-2.73401E+06-5.43821E+05-6.63617E+03-1.22205E+06 2.64845E-09-2.54659E-10
 -1       776-2.66243E+06-6.08693E+05-2.64378E+03-1.29913E+06 5.26052E-09 4.33647E-09
 -1       777-2.73962E+06-5.39704E+05-2.60176E+03-1.22382E+06 7.82893E-09 5.09317E-11
 -1       778-2.66636E+06-6.08320E+05-7.97209E+02-1.30587E+06 4.22006E-09 5.74073E-09
 -1       779-2.74433E+06-5.36177E+05-1.20762E+03-1.22533E+06-6.33008E-09-3.92174E-09
 -1       780-2.66982E+06-6.07929E+05-2.32490E+02-1.31134E+06-6.26824E-09 4.89308E-10
 -1       781-2.74800E+06-5.33371E+05-4.78655E+02-1.22652E+06-1.52068E-08 3.21961E-09
 -1       782-2.67248E+06-6.07561E+05 8.46624E+01-1.31536E+06-2.06528E-08-4.11819E-09
 -1       783-2.75056E+06-5.31455E+05 1.09094E+02-1.22736E+06 1.14960E-09-4.52678E-09
 -1       784-2.67398E+06-6.07113E+05 6.89457E+02-1.31781E+06-9.81709E-09 3.57591E-09
 -1       785-2.75198E+06-5.30384E+05 1.18857E+03-1.22787E+06-2.23226E-08 4.61296E-09
 -1       786 1.26359E+05-9.06254E+03 2.09657E+04-1.34651E+02 1.10287E-09-2.65391E-09
 -1       787 1.35450E+05 1.04916E+04 1.48327E+04 2.17002E+01 2.13253E-09 1.10008E-08
 -1       788 1.29865E+05-1.42055E+03 5.42497E+03-1.08085E+02 1.79361E-09 3.49223E-09
 -1       789 1.31366E+05 1.64351E+03 3.40659E+03-2.11207E+01 8.66456E-10-3.94192E-09
 -1       790 1.30444E+05-2.21651E+02 1.38147E+03-9.18358E+01-1.49462E-09 6.33855E-09
 -1       791 1.30690E+05 2.56243E+02 8.02199E+02-4.93575E+01-2.28763E-09 1.68110E-08
 -1       792 1.30541E+05-3.43161E+01 3.48512E+02-7.98482E+01-9.37663E-10-4.28624E-09
 -1       793 1.30575E+05 3.97320E+01 1.92567E+02-7.19809E+01-2.60988E-10-6.05364E-09
 -1       794 1.30558E+05-5.27763E+00 8.78643E+01-6.92121E+01 1.62241E-09-3.25767E-09
 -1       795 1.30556E+05 6.51108E+00 4.79441E+01-9.41966E+01-1.45890E-09-4.47404E-09
 -1       796 1.30561E+05-1.11171E+00 2.39404E+01-5.76322E+01 1.00775E-09 6.73684E-09
 -1       797 1.30553E+05 3.57997E+00 1.68538E+01-1.20752E+02 9.76033E-10-3.36171E-09
 -1       798 1.30561E+05-2.35020E+00 1.38503E+01-4.26562E+01 5.79465E-10 5.99928E-09
 -1       799 1.30560E+05 1.68962E+01 2.63360E+01-1.57307E+02 1.14163E-09 5.51414E-09
 -1       800 1.30555E+05-1.44276E+01 3.39600E+01-2.10765E+01 2.44633E-10 1.67941E-09
 -1       801 7.52390E+04-4.36770E+06-4.64635E+05 2.25239E+05 3.51865E-08-2.11530E-08
 -1       802-5.13275E+04-2.53961E+06 4.47990E+04-2.12732E+05 1.00215E-07-1.87185E-08
 -1       803-2.61377E+04-4.44399E+06-2.33460E+05 2.22691E+05 4.51364E-08 2.20989E-08
 -1       804-2.45755E+04-3.13847E+06 5.41075E+04 1.74003E+05-7.19137E-09-4.67185E-09
 -1       805 3.91394E+04-3.77418E+06-5.64822E+04-1.61264E+05-3.69073E-09-5.56841E-09
 -1       806-2.53806E+05-4.79304E+04-1.84873E+04-9.91675E+04-2.48747E-10 1.79894E-08
 -1       807-2.55460E+05-4.47132E+04-9.08259E+03-1.03417E+05 5.42514E-09 9.60036E-09
 -1       808-2.54299E+05-4.12834E+04-3.85323E+03-1.02336E+05-4.09864E-09 3.48734E-09
 -1       809-2.53559E+05-4.21536E+04-1.88416E+03-1.03632E+05-4.92400E-09 1.58423E-08
 -1       810-2.54375E+05-4.10517E+04-8.63496E+02-1.02477E+05-2.82489E-09-6.55746E-09
 -1       811-2.53413E+05-4.20498E+04-4.29323E+02-1.03604E+05-4.84965E-09 5.33441E-09
 -1       812-2.54388E+05-4.10708E+04-2.16790E+02-1.02478E+05-1.54841E-09 9.31027E-09
 -1       813-2.53394E+05-4.20508E+04-1.40467E+02-1.03590E+05 1.70348E-09-7.58246E-09
 -1       814-2.54385E+05-4.10775E+04-1.38319E+02-1.02475E+05-3.40333E-09 9.90440E-10
 -1       815-2.53399E+05-4.20521E+04-2.22434E+02-1.03587E+05 9.73614E-10 1.24874E-09
 -1       816-2.54371E+05-4.10753E+04-4.20928E+02-1.02474E+05 4.02724E-09 1.01554E-08
 -1       817-2.53473E+05-4.20918E+04-9.03765E+02-1.03580E+05-2.27010E-09 1.27441E-08
 -1       818-2.54319E+05-4.12009E+04-1.84295E+03-1.02414E+05 3.81897E-09-1.58161E-09
 -1       819-2.54482E+05-4.32075E+04-4.33724E+03-1.03347E+05 4.17776E-09-1.01154E-08
 -1       820-2.53980E+05-4.44699E+04-8.82736E+03-1.01008E+05 1.39516E-09 4.65889E-10
 -1       821-3.09281E+05 1.70994E+04-3.95474E+04 4.52527E+02 4.12248E-07-2.65391E-08
 -1       822-3.26408E+05-1.97953E+04-2.79839E+04-1.12500E+03 8.29019E-07 1.98952E-09
 -1       823-3.15887E+05 2.68133E+03-1.02422E+04 4.96019E+02 4.11059E-07-2.18279E-11
 -1       824-3.18687E+05-3.10256E+03-6.44232E+03-9.56323E+02 1.72448E-09 1.16178E-08
 -1       825-3.16999E+05 4.19135E+02-2.65240E+03 2.83850E+02 1.16805E-09 4.49859E-10
 -1       826-3.17381E+05-4.93525E+02-1.59171E+03-3.74634E+02 1.67018E-10 9.59773E-10
 -1       827-3.17190E+05 7.34152E+01-8.35793E+02-8.56800E+01-1.04810E-09-7.09093E-10
 -1       828-3.17208E+05-1.50782E+02-7.28390E+02 3.52006E+02-3.92098E-09-1.89818E-09
 -1       829-3.17171E+05 7.66961E+01-8.52806E+02-4.42803E+02 4.46445E-10 8.59683E-09
 -1       830-3.17434E+05-5.14538E+02-1.65970E+03 8.89132E+02 7.33682E-10 5.05506E-09
 -1       831-3.16965E+05 4.37722E+02-2.75461E+03-6.22816E+02-2.34543E-09 3.14287E-09
 -1       832-3.18767E+05-3.23177E+03-6.71276E+03 9.89384E+02-1.30035E-09 7.48287E-09
 -1       833-3.15840E+05 2.79219E+03-1.06707E+04-5.43055E+02-1.84997E-09 1.49657E-08
 -1       834-3.26758E+05-2.06188E+04-2.91443E+04 6.03487E+02-1.37885E-09 2.35559E-09
 -1       835-3.08976E+05 1.78107E+04-4.12037E+04-2.36907E+02 5.33477E-09 9.32960E-09
 -1       836-1.06177E+03 2.92608E+05 1.77983E+04-1.62486E+04-1.00590E-09 1.32081E-08
 -1       837 3.86705E+03 2.98148E+05 1.52258E+04-3.27195E+04-6.94627E-10 1.35897E-08
 -1       838-4.10696E+02 2.94140E+05 1.57453E+04-1.61837E+04-3.71074E-10 5.98925E-09
 -1       839 1.00734E+04 3.02775E+05 3.00134E+04-3.27596E+04-6.13909E-11-3.39242E-09
 -1       840-3.06368E+03 2.87939E+05 4.79598E+04-1.62083E+04-3.54703E-10-4.53088E-09
 -1       856-7.25001E+04 7.62675E+03-2.00987E+04-4.20275E+02-1.47060E-09-1.41426E-09
 -1       857-8.07963E+04-8.94899E+03-1.38369E+04 4.86574E+03-3.68317E-10 4.01633E-09
 -1       858-7.57798E+04 1.06884E+03-5.21578E+03-4.42329E+02-1.10981E-09-3.91560E-09
 -1       859-7.70309E+04-1.24601E+03-3.14907E+03 4.90026E+03-1.01454E-09 8.95852E-10
 -1       860-7.62700E+04 1.48892E+02-1.32235E+03-4.54826E+02 1.96735E-09 2.57216E-10
 -1       861-7.64666E+04-1.67151E+02-7.32896E+02 4.91737E+03-2.93527E-09-6.01335E-09
 -1       862-7.63464E+04 1.97332E+01-3.15570E+02-4.59455E+02 3.34967E-09-5.53197E-09
 -1       863-7.63749E+04-1.26184E+01-1.39733E+02 4.91965E+03 5.32386E-09 9.23232E-09
 -1       864-7.63620E+04-2.20393E+00-1.09113E+01-4.57107E+02 2.96085E-09 4.00451E-09
 -1       865-7.63373E+04 3.98858E+01 1.18450E+02 4.90741E+03 5.38500E-09 5.19864E-09
 -1       866-7.63821E+04-3.30886E+01 2.67318E+02-4.47215E+02-5.34129E-10 2.80332E-09
 -1       867-7.62038E+04 2.75511E+02 6.76453E+02 4.88050E+03 1.15193E-10-7.38225E-10
 -1       868-7.64917E+04-2.34449E+02 1.12839E+03-4.30195E+02 1.75220E-09-4.56026E-09
 -1       869-7.53708E+04 1.95005E+03 3.01149E+03 4.83576E+03-1.29447E-09-3.26668E-09
 -1       870-7.72092E+04-1.66342E+03 4.36924E+03-4.02471E+02 1.43018E-09-6.21912E-09
 -1       871-4.66816E+03-1.20593E+04-1.54930E+04 1.03065E+05 4.54747E-11 1.52795E-10
 -1       872-1.93588E+03-1.55695E+04-6.37850E+03 1.33624E+05-3.76531E-10 1.71485E-09
 -1       873 5.37830E+01-1.39174E+04 7.41935E+02 1.02839E+05-1.81899E-10-2.59661E-10
 -1       874 2.42609E+03-1.17789E+04 8.41268E+03 1.33663E+05-7.46240E-10 3.09296E-09
 -1       875 5.53029E+03-1.59155E+04 1.87654E+04 1.03028E+05 6.18456E-11-1.85355E-09
 -1       876 2.45313E+05 4.18743E+04 1.28498E+04 9.90699E+04-3.63747E-09 3.20961E-09
 -1       877 2.46106E+05 4.46369E+04 6.86216E+03 1.02808E+05-9.62405E-09-1.38734E-08
 -1       878 2.46514E+05 4.04524E+04 2.87493E+03 1.00125E+05-5.71708E-09-2.07417E-08
 -1       879 2.44359E+05 4.28949E+04 1.43231E+03 1.02897E+05 3.33512E-09 2.97950E-09
 -1       880 2.46601E+05 4.04371E+04 6.67018E+02 1.00168E+05 6.27551E-10 1.36228E-08
 -1       881 2.44243E+05 4.28207E+04 3.55785E+02 1.02878E+05-2.10434E-10-2.76106E-09
 -1       882 2.46609E+05 4.04480E+04 2.26921E+02 1.00169E+05 3.79850E-09 4.19534E-09
 -1       883 2.44235E+05 4.28170E+04 2.42821E+02 1.02872E+05 2.66027E-11 7.33142E-09
 -1       884 2.46604E+05 4.04454E+04 3.85252E+02 1.00170E+05-2.63350E-09 6.05837E-10
 -1       885 2.44265E+05 4.28224E+04 7.73938E+02 1.02882E+05 2.57361E-09 5.70549E-09
 -1       886 2.46574E+05 4.04228E+04 1.55955E+03 1.00166E+05 3.46702E-09 4.39638E-09
 -1       887 2.44539E+05 4.30021E+04 3.40653E+03 1.02921E+05 1.86446E-11-1.07131E-08
 -1       888 2.46358E+05 4.04606E+04 6.86424E+03 1.00057E+05-1.80043E-09-9.78343E-09
 -1       889 2.48628E+05 4.72502E+04 1.63978E+04 1.02794E+05 1.31589E-09 7.74230E-09
 -1       890 2.43561E+05 4.37836E+04 3.07122E+04 9.74395E+04-1.54023E-09 1.25638E-08
 -1       891-1.30224E+02-1.37856E+05-1.65843E+03 2.48335E+04 6.49607E-10 7.51879E-09
 -1       892-2.31385E+02-1.38265E+05-1.79215E+03 3.76127E+04 1.62981E-09-4.83124E-09
 -1       893-2.01207E+01-1.37908E+05-2.54886E+03 2.48390E+04 7.83984E-10 8.33461E-09
 -1       894-1.35618E+03-1.39234E+05-5.28341E+03 3.74771E+04-7.84894E-10 5.72572E-09
 -1       895-1.06549E+03-1.36807E+05-9.30731E+03 2.49681E+04-8.59700E-10-1.01045E-08
 -1       956-3.11425E+05-4.38433E+03-1.09902E+04 2.18000E+04 4.42742E-09-6.32292E-09
 -1       957-3.13592E+05-1.49342E+03-5.64172E+03 2.62468E+04 8.37827E-09-1.72008E-08
 -1       958-3.12404E+05-1.33896E+02-2.54189E+03 2.16701E+04 5.75164E-09 2.21075E-09
 -1       959-3.12574E+05-3.88818E+01-1.29830E+03 2.63905E+04-1.89630E-10 9.12109E-09
 -1       960-3.12493E+05 2.18004E+01-6.33046E+02 2.16573E+04 9.86802E-10 8.86348E-09
 -1       961-3.12502E+05 1.71448E+01-3.36012E+02 2.64051E+04-7.36691E-10 7.67091E-09
 -1       962-3.12512E+05 1.82328E+01-1.92689E+02 2.16553E+04-1.47702E-09 1.42131E-09
 -1       963-3.12499E+05 1.89653E+01-1.55321E+02 2.64077E+04-2.16289E-09 4.10523E-09
 -1       964-3.12516E+05 2.04614E+01-1.89424E+02 2.16547E+04 8.56744E-10-2.25327E-09
 -1       965-3.12510E+05 2.18865E+01-3.28068E+02 2.64075E+04 9.10234E-10-1.29683E-08
 -1       966-3.12505E+05 2.84319E+01-6.16383E+02 2.16556E+04-1.23850E-09-4.93583E-09
 -1       967-3.12589E+05-2.80440E+01-1.26440E+03 2.63980E+04-8.40600E-10 6.19866E-09
 -1       968-3.12424E+05-1.18817E+02-2.47475E+03 2.16643E+04 4.84761E-10 6.12474E-09
 -1       969-3.13589E+05-1.44067E+03-5.49451E+03 2.62973E+04 2.30648E-09 4.37021E-09
 -1       970-3.11477E+05-4.25559E+03-1.07026E+04 2.17565E+04 7.96717E-10 1.28912E-08
 -1       971-2.90878E+05-1.50072E+03-8.27221E+03 1.36284E+04-3.04681E-10-5.98195E-09
 -1       972-2.92884E+05-1.08331E+03-4.50497E+03 1.89897E+04-2.00862E-09 7.08269E-09
 -1       973-2.91798E+05-2.17023E+01-2.01746E+03 1.35160E+04-2.14459E-09-9.42146E-09
 -1       974-2.91933E+05-2.56835E+01-1.04535E+03 1.91127E+04 1.79898E-09 6.29484E-09
 -1       975-2.91870E+05 1.75560E+01-5.21895E+02 1.35053E+04-1.40517E-10 1.41649E-08
 -1       976-2.91877E+05 1.81035E+01-2.99930E+02 1.91259E+04-6.83940E-10 6.43786E-09
 -1       977-2.91885E+05 1.77341E+01-2.15612E+02 1.35027E+04 1.67711E-09-1.27260E-08
 -1       978-2.91881E+05 2.32491E+01-2.49479E+02 1.91297E+04 3.29783E-09-1.09186E-08
 -1       979-2.91884E+05 2.46899E+01-3.98403E+02 1.35016E+04-1.42347E-09-3.23280E-09
 -1       980-2.91911E+05 2.57790E+01-7.67742E+02 1.91303E+04-3.53680E-10-1.65031E-08
 -1       981-2.91860E+05 4.38358E+01-1.48614E+03 1.35020E+04 5.45128E-10-7.88418E-09
 -1       982-2.92115E+05-8.39756E+01-3.07137E+03 1.91245E+04-4.37012E-10 1.25661E-08
 -1       983-2.91673E+05-5.12512E+01-5.96746E+03 1.35076E+04 3.10752E-09-4.56134E-09
 -1       984-2.94985E+05-3.20046E+03-1.33635E+04 1.90477E+04-1.91881E-09 4.91582E-09
 -1       985-2.88971E+05-4.41786E+03-2.45396E+04 1.35812E+04 1.31649E-09-3.85626E-10
 -3
    1PSTEP                        21          11           1          
  100CL  111 5.83008E-01         409                     0   11           1
 -4  DISP        4    1
 -5  D1          1    2    1    0
 -5  D2          1    2    2    0
 -5  D3          1    2    3    0
 -5  ALL         1    2    0    0    1ALL
 -1         1 7.18245E-04 0.00000E+00 0.00000E+00
 -1         2 6.68795E-04-4.87958E-29 0.00000E+00
 -1         3 2.27898E-04 4.25923E-27-1.32349E-23
 -1         5 1.35109E-04 2.86098E-26 0.00000E+00
 -1         8 6.96499E-04-7.03181E-07 0.00000E+00
 -1         9 6.74250E-04-2.22829E-06 0.00000E+00
 -1        10 2.09083E-04-2.94336E-06 0.00000E+00
 -1        12 1.35474E-04 6.56261E-07 0.00000E+00
 -1        15 6.70387E-04-7.77877E-07 0.00000E+00
 -1        16 6.76790E-04-2.76455E-06 0.00000E+00
 -1        17 1.47393E-04-6.52456E-06 0.00000E+00
 -1        18 1.35249E-04 1.37112E-05 0.00000E+00
 -1        19 1.36571E-04 1.30911E-06 0.00000E+00
 -1        20 1.36718E-04 6.28764E-06 0.00000E+00
 -1        21 1.36027E-04 9.03350E-06 3.30872E-24
 -1        24 2.54424E-05-9.20805E-06 0.00000E+00
 -1        25 1.38600E-04 1.38742E-05 0.00000E+00
 -1        26 1.39311E-04 1.81374E-06 0.00000E+00
 -1        27 1.37513E-04 3.31817E-06 0.00000E+00
 -1        28 1.37103E-04 8.49102E-06 0.00000E+00
 -1        32 0.00000E+00 0.00000E+00 0.00000E+00
 -1        33 1.40968E-04 2.43049E-06 0.00000E+00
 -1        34 1.39189E-04 3.28568E-06 0.00000E+00
 -1        35 1.37534E-04 8.19927E-06 0.00000E+00
 -1        51 7.16841E-04-1.22466E-07 0.00000E+00
 -1        52 7.14231E-04-2.35033E-07 0.00000E+00
 -1        53 7.10647E-04-3.47336E-07 0.00000E+00
 -1        54 7.06334E-04-4.61271E-07 0.00000E+00
 -1        55 7.01537E-04-5.78042E-07 1.24077E-24
 -1        56 7.15783E-04-6.45025E-07 5.29396E-23
 -1        57 7.13049E-04-8.34216E-07-2.64698E-23
 -1        58 7.10152E-04-5.71288E-07 5.29396E-23
 -1        59 7.07094E-04 7.16190E-08 0.00000E+00
 -1        60 7.03931E-04 9.91198E-07-5.29396E-23
 -1        61 7.00709E-04 2.06196E-06-2.64698E-23
 -1        62 6.97482E-04 3.14212E-06 5.29396E-23
 -1        63 6.94305E-04 4.08842E-06 0.00000E+00
 -1        64 6.91227E-04 4.77343E-06 0.00000E+00
 -1        65 6.88290E-04 5.08468E-06-2.64698E-23
 -1        66 6.85520E-04 4.95278E-06 5.29396E-23
 -1        67 6.82935E-04 4.33451E-06 0.00000E+00
 -1        68 6.80529E-04 3.24162E-06-5.29396E-23
 -1        69 6.78299E-04 1.71851E-06 0.00000E+00
 -1        70 6.76193E-04-1.51301E-07 0.00000E+00
 -1        86 6.68996E-04-3.67698E-07 1.32349E-23
 -1        87 6.69595E-04-7.35908E-07 0.00000E+00
 -1        88 6.70517E-04-1.10440E-06 1.32349E-23
 -1        89 6.71683E-04-1.47542E-06 0.00000E+00
 -1        90 6.72969E-04-1.84580E-06 0.00000E+00
 -1       121 2.27371E-04-4.84171E-07 0.00000E+00
 -1       122 2.25789E-04-9.69426E-07 6.61744E-24
 -1       123 2.23160E-04-1.45682E-06 0.00000E+00
 -1       124 2.19490E-04-1.94753E-06 0.00000E+00
 -1       125 2.14793E-04-2.44233E-06 0.00000E+00
 -1       191 1.35119E-04 1.09383E-07-3.30872E-24
 -1       192 1.35149E-04 2.18764E-07-1.65436E-24
 -1       193 1.35200E-04 3.28145E-07 0.00000E+00
 -1       194 1.35271E-04 4.37523E-07-1.65436E-24
 -1       195 1.35362E-04 5.46896E-07 3.30872E-24
 -1       251 6.95827E-04 1.41230E-05-1.32349E-23
 -1       252 6.94647E-04 4.95926E-05 0.00000E+00
 -1       253 6.92900E-04 9.93749E-05 0.00000E+00
 -1       254 6.90755E-04 1.56810E-04 0.00000E+00
 -1       255 6.88666E-04 2.13170E-04 1.32349E-23
 -1       256 6.87063E-04 2.59754E-04 6.61744E-24
 -1       257 6.86029E-04 2.90497E-04 1.32349E-23
 -1       258 6.85409E-04 2.99695E-04-6.61744E-24
 -1       259 6.84758E-04 2.87323E-04-1.32349E-23
 -1       260 6.83641E-04 2.53866E-04 6.61744E-24
 -1       261 6.81950E-04 2.05368E-04 1.32349E-23
 -1       262 6.79819E-04 1.48220E-04 6.61744E-24
 -1       263 6.77693E-04 9.11484E-05 1.32349E-23
 -1       264 6.76011E-04 4.28780E-05-6.61744E-24
 -1       265 6.74905E-04 9.75220E-06-1.32349E-23
 -1       266 6.92147E-04-7.25694E-07-3.30872E-24
 -1       267 6.87795E-04-7.36917E-07 0.00000E+00
 -1       268 6.83443E-04-7.48854E-07 0.00000E+00
 -1       269 6.79091E-04-7.58674E-07 2.06795E-25
 -1       270 6.74739E-04-7.68444E-07 0.00000E+00
 -1       271 6.93872E-04 2.98035E-06 0.00000E+00
 -1       272 6.91410E-04 6.11888E-06 1.32349E-23
 -1       273 6.89159E-04 8.70595E-06 0.00000E+00
 -1       274 6.87116E-04 1.07266E-05 1.32349E-23
 -1       275 6.85287E-04 1.21786E-05 0.00000E+00
 -1       276 6.83670E-04 1.30658E-05-1.32349E-23
 -1       277 6.82260E-04 1.34007E-05 0.00000E+00
 -1       278 6.81049E-04 1.32036E-05 0.00000E+00
 -1       279 6.80028E-04 1.25026E-05-2.64698E-23
 -1       280 6.79182E-04 1.13330E-05 0.00000E+00
 -1       281 6.78496E-04 9.73691E-06 0.00000E+00
 -1       282 6.77951E-04 7.76264E-06 0.00000E+00
 -1       283 6.77528E-04 5.46398E-06-2.64698E-23
 -1       284 6.77208E-04 2.90053E-06-1.32349E-23
 -1       285 6.76962E-04 1.33163E-07 2.64698E-23
 -1       301 6.74743E-04-2.33565E-06 6.61744E-24
 -1       302 6.74734E-04-2.41715E-06-3.30872E-24
 -1       303 6.74577E-04-2.49691E-06 0.00000E+00
 -1       304 6.74630E-04-2.57654E-06 0.00000E+00
 -1       305 6.75250E-04-2.65811E-06 0.00000E+00
 -1       306 6.92522E-04-6.69982E-05-5.29396E-23
 -1       307 7.40777E-04-2.53022E-04 0.00000E+00
 -1       308 8.02974E-04-5.29823E-04 0.00000E+00
 -1       309 8.69272E-04-8.57246E-04 0.00000E+00
 -1       310 9.35332E-04-1.18136E-03-1.05879E-22
 -1       311 9.96438E-04-1.44854E-03 5.29396E-23
 -1       312 1.04188E-03-1.62051E-03-1.05879E-22
 -1       313 1.05502E-03-1.66927E-03 0.00000E+00
 -1       314 1.01980E-03-1.59448E-03 0.00000E+00
 -1       315 9.25275E-04-1.40841E-03 5.29396E-23
 -1       316 7.79140E-04-1.14372E-03-5.29396E-23
 -1       317 6.00284E-04-8.36429E-04 2.64698E-23
 -1       318 4.21599E-04-5.29347E-04 0.00000E+00
 -1       319 2.75941E-04-2.65301E-04 0.00000E+00
 -1       320 1.82034E-04-8.01686E-05 5.29396E-23
 -1       336 2.02163E-04-3.51171E-06 0.00000E+00
 -1       337 1.93840E-04-4.09143E-06 0.00000E+00
 -1       338 1.84153E-04-4.68265E-06-1.32349E-23
 -1       339 1.73148E-04-5.28559E-06 0.00000E+00
 -1       340 1.60875E-04-5.90283E-06 0.00000E+00
 -1       406 1.35606E-04 7.65610E-07-3.30872E-24
 -1       407 1.35759E-04 8.74923E-07-8.27181E-25
 -1       408 1.35931E-04 9.84167E-07 3.30872E-24
 -1       409 1.36124E-04 1.09321E-06 0.00000E+00
 -1       410 1.36337E-04 1.20185E-06 0.00000E+00
 -1       521 6.96751E-04-7.61471E-05 1.05879E-22
 -1       522 7.47955E-04-2.83604E-04 0.00000E+00
 -1       523 8.12317E-04-5.91812E-04 0.00000E+00
 -1       524 8.79504E-04-9.55417E-04 5.29396E-23
 -1       525 9.46516E-04-1.31483E-03 0.00000E+00
 -1       526 1.00982E-03-1.61090E-03-5.29396E-23
 -1       527 1.05778E-03-1.80057E-03 1.05879E-22
 -1       528 1.07137E-03-1.85373E-03 0.00000E+00
 -1       529 1.03074E-03-1.76954E-03 1.05879E-22
 -1       530 9.22657E-04-1.56339E-03 5.29396E-23
 -1       531 7.54868E-04-1.27114E-03 1.05879E-22
 -1       532 5.49150E-04-9.32796E-04 5.29396E-23
 -1       533 3.43293E-04-5.94283E-04 0.00000E+00
 -1       534 1.75130E-04-3.01528E-04 5.29396E-23
 -1       535 6.65548E-05-9.45036E-05-1.05879E-22
 -1       536 1.47011E-04 1.53746E-05 6.61744E-24
 -1       537 1.46193E-04 5.28584E-05 0.00000E+00
 -1       538 1.44986E-04 1.00113E-04 0.00000E+00
 -1       539 1.43596E-04 1.51272E-04 0.00000E+00
 -1       540 1.42348E-04 1.99360E-04 0.00000E+00
 -1       541 1.41517E-04 2.37419E-04 0.00000E+00
 -1       542 1.41097E-04 2.61250E-04 0.00000E+00
 -1       543 1.40936E-04 2.66740E-04 0.00000E+00
 -1       544 1.40720E-04 2.54510E-04 3.30872E-24
 -1       545 1.40165E-04 2.25292E-04 0.00000E+00
 -1       546 1.39224E-04 1.84263E-04 0.00000E+00
 -1       547 1.38002E-04 1.36670E-04 0.00000E+00
 -1       548 1.36803E-04 8.95916E-05-3.30872E-24
 -1       549 1.35922E-04 5.01066E-05 1.65436E-24
 -1       550 1.35430E-04 2.31829E-05 0.00000E+00
 -1       551 1.30748E-04-6.90493E-06 0.00000E+00
 -1       552 1.11531E-04-7.32374E-06-3.30872E-24
 -1       553 9.05608E-05-7.77426E-06 4.13590E-24
 -1       554 6.86692E-05-8.24512E-06 0.00000E+00
 -1       555 4.66875E-05-8.72045E-06 0.00000E+00
 -1       556 1.42607E-04 5.80350E-06 0.00000E+00
 -1       557 1.38814E-04 1.56065E-05 0.00000E+00
 -1       558 1.35913E-04 2.30943E-05 0.00000E+00
 -1       559 1.33813E-04 2.84944E-05 0.00000E+00
 -1       560 1.32420E-04 3.20338E-05 0.00000E+00
 -1       561 1.31646E-04 3.39411E-05 0.00000E+00
 -1       562 1.31401E-04 3.44458E-05 0.00000E+00
 -1       563 1.31596E-04 3.37777E-05 0.00000E+00
 -1       564 1.32144E-04 3.21669E-05 0.00000E+00
 -1       565 1.32958E-04 2.98440E-05 0.00000E+00
 -1       566 1.33952E-04 2.70397E-05 0.00000E+00
 -1       567 1.35039E-04 2.39850E-05 1.65436E-24
 -1       568 1.36133E-04 2.09107E-05 8.27181E-25
 -1       569 1.37148E-04 1.80476E-05 0.00000E+00
 -1       570 1.37999E-04 1.56266E-05 0.00000E+00
 -1       571 1.35329E-04 1.29132E-05 1.65436E-24
 -1       572 1.35411E-04 1.20659E-05 4.13590E-25
 -1       573 1.35494E-04 1.11800E-05 3.30872E-24
 -1       574 1.35576E-04 1.02668E-05 1.65436E-24
 -1       575 1.35659E-04 9.33756E-06 0.00000E+00
 -1       576 1.35742E-04 8.40370E-06 0.00000E+00
 -1       577 1.35825E-04 7.47658E-06 0.00000E+00
 -1       578 1.35908E-04 6.56756E-06 0.00000E+00
 -1       579 1.35990E-04 5.68801E-06 0.00000E+00
 -1       580 1.36073E-04 4.84932E-06 0.00000E+00
 -1       581 1.36156E-04 4.06287E-06 0.00000E+00
 -1       582 1.36239E-04 3.34001E-06 0.00000E+00
 -1       583 1.36322E-04 2.69210E-06 0.00000E+00
 -1       584 1.36405E-04 2.13038E-06-6.61744E-24
 -1       585 1.36488E-04 1.66597E-06 0.00000E+00
 -1       586 1.35754E-04 1.37402E-05 0.00000E+00
 -1       587 1.36232E-04 1.37685E-05-2.06795E-25
 -1       588 1.36719E-04 1.37965E-05 0.00000E+00
 -1       589 1.37252E-04 1.38240E-05 0.00000E+00
 -1       590 1.37868E-04 1.38506E-05 0.00000E+00
 -1       591 1.35505E-04 1.29721E-05 1.03398E-25
 -1       592 1.35766E-04 1.22078E-05 2.06795E-25
 -1       593 1.36035E-04 1.14245E-05-4.13590E-25
 -1       594 1.36308E-04 1.06270E-05 0.00000E+00
 -1       595 1.36585E-04 9.82071E-06-8.27181E-25
 -1       596 1.36863E-04 9.01052E-06-4.13590E-25
 -1       597 1.37141E-04 8.20155E-06 0.00000E+00
 -1       598 1.37416E-04 7.39889E-06 2.06795E-25
 -1       599 1.37687E-04 6.60759E-06-4.13590E-25
 -1       600 1.37952E-04 5.83272E-06-4.13590E-25
 -1       601 1.38209E-04 5.07936E-06 4.13590E-25
 -1       602 1.38456E-04 4.35256E-06 2.06795E-25
 -1       603 1.38691E-04 3.65742E-06 4.13590E-25
 -1       604 1.38913E-04 2.99907E-06 0.00000E+00
 -1       605 1.39119E-04 2.38253E-06 0.00000E+00
 -1       606 1.36584E-04 1.13654E-06 0.00000E+00
 -1       607 1.36594E-04 1.05690E-06 0.00000E+00
 -1       608 1.36604E-04 1.06473E-06 0.00000E+00
 -1       609 1.36613E-04 1.15387E-06 0.00000E+00
 -1       610 1.36622E-04 1.31815E-06 0.00000E+00
 -1       611 1.36631E-04 1.55127E-06 0.00000E+00
 -1       612 1.36640E-04 1.84698E-06 0.00000E+00
 -1       613 1.36648E-04 2.19899E-06 0.00000E+00
 -1       614 1.36657E-04 2.60100E-06 0.00000E+00
 -1       615 1.36666E-04 3.04675E-06-8.27181E-25
 -1       616 1.36675E-04 3.52994E-06 0.00000E+00
 -1       617 1.36684E-04 4.04430E-06 0.00000E+00
 -1       618 1.36692E-04 4.58352E-06 0.00000E+00
 -1       619 1.36701E-04 5.14135E-06 0.00000E+00
 -1       620 1.36710E-04 5.71148E-06 0.00000E+00
 -1       621 1.36879E-04 1.39344E-06-3.30872E-24
 -1       622 1.37269E-04 1.47805E-06-8.27181E-25
 -1       623 1.37724E-04 1.56260E-06 3.30872E-24
 -1       624 1.38227E-04 1.64699E-06 8.27181E-25
 -1       625 1.38762E-04 1.73120E-06 0.00000E+00
 -1       626 1.36730E-04 1.16606E-06-3.30872E-24
 -1       627 1.36862E-04 1.09674E-06 0.00000E+00
 -1       628 1.36969E-04 1.09338E-06 0.00000E+00
 -1       629 1.37055E-04 1.14782E-06-1.65436E-24
 -1       630 1.37122E-04 1.25186E-06-3.30872E-24
 -1       631 1.37174E-04 1.39728E-06-1.65436E-24
 -1       632 1.37213E-04 1.57586E-06-3.30872E-24
 -1       633 1.37243E-04 1.77938E-06 0.00000E+00
 -1       634 1.37267E-04 1.99961E-06 0.00000E+00
 -1       635 1.37288E-04 2.22832E-06-1.65436E-24
 -1       636 1.37308E-04 2.45731E-06 0.00000E+00
 -1       637 1.37331E-04 2.67834E-06-1.65436E-24
 -1       638 1.37361E-04 2.88318E-06-1.65436E-24
 -1       639 1.37399E-04 3.06361E-06-8.27181E-25
 -1       640 1.37449E-04 3.21139E-06-1.65436E-24
 -1       656 1.36363E-04 5.80463E-06 6.61744E-24
 -1       657 1.36399E-04 5.30224E-06 0.00000E+00
 -1       658 1.36687E-04 4.80127E-06-1.32349E-23
 -1       659 1.37082E-04 4.30067E-06 0.00000E+00
 -1       660 1.37413E-04 3.79853E-06-6.61744E-24
 -1       661 1.36588E-04 6.82893E-06-8.27181E-25
 -1       662 1.36487E-04 7.29903E-06-8.27181E-25
 -1       663 1.36412E-04 7.70117E-06-1.65436E-24
 -1       664 1.36362E-04 8.03984E-06 0.00000E+00
 -1       665 1.36334E-04 8.31891E-06 0.00000E+00
 -1       666 1.36326E-04 8.54234E-06 8.27181E-25
 -1       667 1.36339E-04 8.71388E-06 0.00000E+00
 -1       668 1.36369E-04 8.83722E-06 8.27181E-25
 -1       669 1.36416E-04 8.91588E-06-1.65436E-24
 -1       670 1.36479E-04 8.95332E-06 0.00000E+00
 -1       671 1.36556E-04 8.95288E-06 0.00000E+00
 -1       672 1.36645E-04 8.91777E-06 0.00000E+00
 -1       673 1.36746E-04 8.85119E-06 0.00000E+00
 -1       674 1.36858E-04 8.75598E-06 0.00000E+00
 -1       675 1.36979E-04 8.63554E-06 4.13590E-25
 -1       676 1.36207E-04 8.94255E-06 3.30872E-24
 -1       677 1.36387E-04 8.85164E-06 0.00000E+00
 -1       678 1.36567E-04 8.76078E-06 0.00000E+00
 -1       679 1.36746E-04 8.67020E-06 1.65436E-24
 -1       680 1.36925E-04 8.57962E-06 0.00000E+00
 -1       771 1.74607E-05 8.08886E-06 5.29396E-23
 -1       772 1.06815E-05 2.22854E-05 2.64698E-23
 -1       773 5.04797E-06 3.35393E-05 0.00000E+00
 -1       774 4.83179E-07 4.20249E-05 0.00000E+00
 -1       775-3.08882E-06 4.79218E-05 0.00000E+00
 -1       776-5.74702E-06 5.14194E-05-2.64698E-23
 -1       777-7.57081E-06 5.27120E-05 0.00000E+00
 -1       778-8.64137E-06 5.20018E-05-2.64698E-23
 -1       779-9.03994E-06 4.94954E-05 0.00000E+00
 -1       780-8.84926E-06 4.54057E-05 0.00000E+00
 -1       781-8.15191E-06 3.99492E-05 0.00000E+00
 -1       782-7.03162E-06 3.33471E-05 2.64698E-23
 -1       783-5.57192E-06 2.58233E-05 0.00000E+00
 -1       784-3.85722E-06 1.76048E-05 0.00000E+00
 -1       785-1.97158E-06 8.92037E-06-2.64698E-23
 -1       786 1.38641E-04 1.29114E-05 0.00000E+00
 -1       787 1.38685E-04 1.19948E-05 0.00000E+00
 -1       788 1.38729E-04 1.11168E-05 0.00000E+00
 -1       789 1.38773E-04 1.02696E-05 0.00000E+00
 -1       790 1.38818E-04 9.44902E-06-1.65436E-24
 -1       791 1.38863E-04 8.65056E-06 8.27181E-25
 -1       792 1.38907E-04 7.87215E-06 0.00000E+00
 -1       793 1.38952E-04 7.11175E-06-8.27181E-25
 -1       794 1.38997E-04 6.36914E-06 0.00000E+00
 -1       795 1.39042E-04 5.64417E-06-8.27181E-25
 -1       796 1.39087E-04 4.93848E-06-1.65436E-24
 -1       797 1.39132E-04 4.25376E-06 0.00000E+00
 -1       798 1.39176E-04 3.59384E-06 1.65436E-24
 -1       799 1.39221E-04 2.96263E-06 0.00000E+00
 -1       800 1.39266E-04 2.36696E-06-1.65436E-24
 -1       801 1.15707E-04 1.21439E-05 0.00000E+00
 -1       802 4.57559E-05 8.27852E-06 1.32349E-23
 -1       803-1.95372E-05 4.67356E-06-5.29396E-23
 -1       804-2.87394E-05 3.06101E-06 0.00000E+00
 -1       805-1.16763E-05 1.49645E-06 5.29396E-23
 -1       806 1.38866E-04 1.28562E-05 1.65436E-24
 -1       807 1.39118E-04 1.18648E-05-1.65436E-24
 -1       808 1.39357E-04 1.09040E-05-1.65436E-24
 -1       809 1.39584E-04 9.97651E-06-1.65436E-24
 -1       810 1.39798E-04 9.08513E-06 3.30872E-24
 -1       811 1.39997E-04 8.23254E-06-8.27181E-25
 -1       812 1.40180E-04 7.42146E-06 0.00000E+00
 -1       813 1.40347E-04 6.65458E-06 0.00000E+00
 -1       814 1.40496E-04 5.93456E-06 1.65436E-24
 -1       815 1.40627E-04 5.26409E-06 0.00000E+00
 -1       816 1.40738E-04 4.64582E-06 1.65436E-24
 -1       817 1.40828E-04 4.08242E-06 8.27181E-25
 -1       818 1.40897E-04 3.57655E-06 1.65436E-24
 -1       819 1.40944E-04 3.13086E-06 1.65436E-24
 -1       820 1.40968E-04 2.74797E-06-3.30872E-24
 -1       821 1.39205E-04 1.20470E-06-8.27181E-25
 -1       822 1.39092E-04 4.43356E-07 8.27181E-25
 -1       823 1.38980E-04-3.64909E-07 3.30872E-24
 -1       824 1.38866E-04-1.11446E-06 0.00000E+00
 -1       825 1.38753E-04-1.71336E-06 0.00000E+00
 -1       826 1.38639E-04-2.07038E-06 1.65436E-24
 -1       827 1.38526E-04-2.15035E-06 3.30872E-24
 -1       828 1.38412E-04-1.91946E-06 0.00000E+00
 -1       829 1.38298E-04-1.41592E-06 3.30872E-24
 -1       830 1.38184E-04-6.79277E-07-1.65436E-24
 -1       831 1.38070E-04 1.96928E-07 0.00000E+00
 -1       832 1.37957E-04 1.11845E-06-1.65436E-24
 -1       833 1.37843E-04 1.98051E-06-3.30872E-24
 -1       834 1.37731E-04 2.67870E-06-8.27181E-25
 -1       835 1.37618E-04 3.14640E-06 8.27181E-25
 -1       836 1.39761E-04 1.91630E-06 0.00000E+00
 -1       837 1.40100E-04 2.02125E-06 0.00000E+00
 -1       838 1.40360E-04 2.12605E-06 0.00000E+00
 -1       839 1.40570E-04 2.23020E-06-8.27181E-25
 -1       840 1.40763E-04 2.33418E-06 0.00000E+00
 -1       856 1.37491E-04 3.40555E-06 0.00000E+00
 -1       857 1.37465E-04 3.61238E-06-1.03398E-25
 -1       858 1.37440E-04 3.91999E-06 0.00000E+00
 -1       859 1.37415E-04 4.30961E-06 0.00000E+00
 -1       860 1.37389E-04 4.76236E-06 0.00000E+00
 -1       861 1.37363E-04 5.25932E-06 4.13590E-25
 -1       862 1.37337E-04 5.78154E-06 0.00000E+00
 -1       863 1.37311E-04 6.31002E-06-4.13590E-25
 -1       864 1.37285E-04 6.82576E-06 0.00000E+00
 -1       865 1.37260E-04 7.30979E-06 0.00000E+00
 -1       866 1.37234E-04 7.74315E-06-8.27181E-25
 -1       867 1.37208E-04 8.10693E-06 4.13590E-25
 -1       868 1.37182E-04 8.38231E-06 0.00000E+00
 -1       869 1.37156E-04 8.55053E-06 0.00000E+00
 -1       870 1.37130E-04 8.59294E-06 8.27181E-25
 -1       871 1.37666E-04 3.31632E-06-8.27181E-25
 -1       872 1.37944E-04 3.31180E-06 0.00000E+00
 -1       873 1.38290E-04 3.30678E-06 0.00000E+00
 -1       874 1.38650E-04 3.30114E-06 1.55096E-25
 -1       875 1.38968E-04 3.29496E-06 4.13590E-25
 -1       876 1.37589E-04 3.41721E-06 0.00000E+00
 -1       877 1.37646E-04 3.57450E-06 1.65436E-24
 -1       878 1.37684E-04 3.78303E-06 0.00000E+00
 -1       879 1.37706E-04 4.03631E-06-1.65436E-24
 -1       880 1.37713E-04 4.32779E-06 0.00000E+00
 -1       881 1.37709E-04 4.65098E-06-1.65436E-24
 -1       882 1.37695E-04 4.99940E-06-3.30872E-24
 -1       883 1.37674E-04 5.36656E-06-1.65436E-24
 -1       884 1.37648E-04 5.74599E-06 3.30872E-24
 -1       885 1.37620E-04 6.13123E-06 0.00000E+00
 -1       886 1.37592E-04 6.51580E-06 0.00000E+00
 -1       887 1.37567E-04 6.89321E-06 0.00000E+00
 -1       888 1.37547E-04 7.25697E-06 3.30872E-24
 -1       889 1.37534E-04 7.60048E-06-8.27181E-25
 -1       890 1.37530E-04 7.91728E-06 0.00000E+00
 -1       891 1.37303E-04 8.44214E-06-1.65436E-24
 -1       892 1.37482E-04 8.39310E-06 4.13590E-25
 -1       893 1.37618E-04 8.34410E-06-1.65436E-24
 -1       894 1.37687E-04 8.29525E-06 4.13590E-25
 -1       895 1.37666E-04 8.24653E-06-8.27181E-25
 -1       956 1.40859E-04 2.24972E-06 3.30872E-24
 -1       957 1.40748E-04 2.13949E-06 8.27181E-25
 -1       958 1.40637E-04 2.09178E-06 1.65436E-24
 -1       959 1.40525E-04 2.09812E-06 0.00000E+00
 -1       960 1.40413E-04 2.15001E-06 0.00000E+00
 -1       961 1.40302E-04 2.23892E-06 0.00000E+00
 -1       962 1.40190E-04 2.35633E-06 0.00000E+00
 -1       963 1.40079E-04 2.49367E-06 1.65436E-24
 -1       964 1.39967E-04 2.64242E-06 3.30872E-24
 -1       965 1.39855E-04 2.79402E-06-1.65436E-24
 -1       966 1.39744E-04 2.93992E-06 0.00000E+00
 -1       967 1.39632E-04 3.07159E-06 0.00000E+00
 -1       968 1.39520E-04 3.18047E-06-3.30872E-24
 -1       969 1.39409E-04 3.25806E-06 0.00000E+00
 -1       970 1.39298E-04 3.29585E-06 0.00000E+00
 -1       971 1.39086E-04 3.28801E-06 3.30872E-24
 -1       972 1.38983E-04 3.37721E-06-1.65436E-24
 -1       973 1.38879E-04 3.54371E-06 0.00000E+00
 -1       974 1.38775E-04 3.77754E-06 0.00000E+00
 -1       975 1.38671E-04 4.06876E-06-3.30872E-24
 -1       976 1.38567E-04 4.40736E-06 1.65436E-24
 -1       977 1.38463E-04 4.78336E-06 3.30872E-24
 -1       978 1.38359E-04 5.18676E-06 0.00000E+00
 -1       979 1.38255E-04 5.60753E-06 0.00000E+00
 -1       980 1.38151E-04 6.03569E-06 0.00000E+00
 -1       981 1.38047E-04 6.46121E-06 3.30872E-24
 -1       982 1.37943E-04 6.87407E-06 0.00000E+00
 -1       983 1.37839E-04 7.26428E-06-3.30872E-24
 -1       984 1.37736E-04 7.62184E-06 0.00000E+00
 -1       985 1.37633E-04 7.93675E-06 1.65436E-24
 -3
    1PSTEP                        22          11           1          
  100CL  111 5.83008E-01         409                     0   11           1
 -4  STRESS      6    1
 -5  SXX         1    4    1    1
 -5  SYY         1    4    2    2
 -5  SZZ         1    4    3    3
 -5  SXY         1    4    1    2
 -5  SYZ         1    4    2    3
 -5  SZX         1    4    3    1
 -1         1-3.18551E+06-1.26303E+06-6.91210E+05-1.41232E+06 1.23691E-10 1.20781E-08
 -1         2 1.79262E+03-1.04890E+06 5.80148E+03 1.79538E+03 1.50408E-10-1.26803E-08
 -1         3-4.90685E+02-1.38022E+06 5.06489E+02-1.14886E+03-3.56735E-10-1.93613E-08
 -1         5-3.73998E+00 3.12985E+05 7.96996E+00-1.71214E-01-8.47983E-11-1.41267E-08
 -1         8-9.54294E+05-3.29413E+05-9.83829E+04-4.13079E+05 3.63798E-12 1.26965E-08
 -1         9 5.07222E+05-7.70157E+05 1.74682E+05-8.35494E+05 1.75147E-08-2.60654E-08
 -1        10-2.61030E+03-1.47044E+06-3.61066E+03-8.47461E+03-2.99042E-09-5.60590E-09
 -1        12-4.72288E-01 3.13001E+05 2.58167E+02-1.27856E+00-1.62679E-10 2.05409E-09
 -1        15 1.66744E+03 9.16356E+02 5.38998E+03 3.13809E+00-1.97844E-10 1.80167E-07
 -1        16 3.19102E+06-7.77524E+05 4.48901E+05-1.13862E+06 1.51146E-08 9.28218E-08
 -1        17 7.88031E+05 5.39243E+05 2.74527E+05 6.66489E+05 1.29367E-08 8.43429E-09
 -1        18 1.91325E+04 4.61713E+02-2.02347E+04-8.91479E+04 1.07329E-08 5.00131E-09
 -1        19 1.00708E+05 1.15725E+05-8.27055E+02 1.94730E+04 1.69894E-10-2.08383E-09
 -1        20-5.60165E+04-4.75840E+05-1.05942E+05 2.75771E+04 1.31043E-09 1.52068E-09
 -1        21-4.18188E+01-2.60313E+05-8.26224E+02 3.21166E+01 7.33721E-10-5.64934E-09
 -1        24 8.54737E+05 1.67610E+06 5.86580E+05 1.33887E+06-8.51966E-08-2.97441E-08
 -1        25-7.63208E+04-4.77949E+05-9.04772E+04-2.36696E+05-6.07770E-10 6.21931E-09
 -1        26-4.04259E+04 7.51250E+04-1.97051E+04-3.22127E+03 1.19144E-09 3.37684E-08
 -1        27-6.80668E+04-2.58551E+05-9.57976E+04 5.82072E+04 4.99449E-09-9.99535E-10
 -1        28 1.99113E+04-7.35270E+04 1.47971E+04 2.04768E+04 2.95870E-11 2.71364E-09
 -1        32-1.44588E+06-2.39230E+06-9.65526E+04-2.75316E+05-2.95367E-08-6.30973E-09
 -1        33-1.51182E+05 7.51919E+04 2.67393E+04-3.46397E+04-2.95017E-10 1.67044E-10
 -1        34-1.90092E+05-1.98246E+04 5.24200E+02 6.12287E+04 5.03064E-11-4.38725E-09
 -1        35-2.03417E+04-2.91956E+04-1.15444E+03 4.53373E+04 1.70352E-09 6.30462E-09
 -1        51 3.33767E+04-2.87374E+05 7.54843E+04-8.20099E+05 1.45519E-11 3.94066E-08
 -1        52 1.40686E+04-2.77880E+05 4.32429E+04-9.56292E+05 1.96451E-10 3.68673E-08
 -1        53 6.17934E+03-2.92611E+05 2.82777E+04-8.17159E+05 5.31145E-10-9.60426E-10
 -1        54 1.61331E+04-2.90139E+05 3.48712E+04-9.59349E+05 2.91038E-10-5.90735E-08
 -1        55 3.26603E+04-3.02022E+05 5.59841E+04-8.16702E+05 2.98314E-10-5.43878E-09
 -1        56-6.05525E+06-6.78439E+05-5.10091E+05-2.35091E+06-2.72121E-09-2.12458E-09
 -1        57-6.31348E+06-1.08859E+06-3.44177E+05-2.27041E+06 1.16434E-08 4.48017E-08
 -1        58-6.14966E+06-8.48720E+05-1.19893E+05-2.32798E+06 1.55342E-09 4.96220E-09
 -1        59-6.20621E+06-8.86665E+05-7.15661E+04-2.29529E+06 2.88674E-09 1.13432E-08
 -1        60-6.16095E+06-8.74922E+05-2.79333E+04-2.32772E+06-2.48974E-09 1.62881E-08
 -1        61-6.19262E+06-8.56435E+05-1.58550E+04-2.29609E+06 1.21249E-08-4.41696E-08
 -1        62-6.16294E+06-8.78206E+05-7.54675E+03-2.32737E+06-9.62893E-09-9.79269E-08
 -1        63-6.18750E+06-8.55950E+05-6.12482E+03-2.29977E+06 1.80142E-08-6.93444E-09
 -1        64-6.16597E+06-8.75352E+05-6.85024E+03-2.32402E+06-5.81394E-09-1.53153E-08
 -1        65-6.18124E+06-8.66551E+05-1.37016E+04-2.30830E+06-1.14815E-08-6.64056E-09
 -1        66-6.16918E+06-8.67718E+05-2.39628E+04-2.31878E+06 7.86713E-10-1.59707E-08
 -1        67-6.18534E+06-8.99851E+05-6.11001E+04-2.31626E+06-8.46376E-09-8.06876E-08
 -1        68-6.16216E+06-8.42675E+05-1.02363E+05-2.31592E+06 2.72848E-09 2.08456E-08
 -1        69-6.27484E+06-1.07445E+06-2.93764E+05-2.29779E+06 2.41562E-09-8.21274E-08
 -1        70-6.08117E+06-6.97714E+05-4.35478E+05-2.33590E+06-8.77480E-09 8.49832E-09
 -1        86-8.97566E+02-1.05070E+06 6.23448E+03-8.97699E+02-6.29370E-10-5.96365E-08
 -1        87 5.94861E+03-1.04695E+06 1.29766E+04 3.23874E+03-1.22259E-09-3.31647E-08
 -1        88-5.03632E+03-1.05265E+06 1.99298E+04-2.34110E+03-1.15870E-09-2.22323E-08
 -1        89 3.75410E+04-1.03237E+06 5.36653E+04 5.20152E+03-1.73168E-09-4.60593E-08
 -1        90-3.23767E+04-1.06524E+06 7.59362E+04-2.86061E+03-1.42245E-09-6.70416E-08
 -1       121-7.16857E+02-1.38203E+06 2.49052E+02 5.72456E+02 8.77634E-10-1.82517E-08
 -1       122-3.12925E+02-1.38015E+06 1.07695E+03-2.29474E+03-3.24915E-09-1.07611E-08
 -1       123-8.14090E+02-1.38216E+06 1.50413E+03 1.71060E+03 2.62628E-09-9.65156E-09
 -1       124 1.68629E+03-1.37907E+06 4.44033E+03-4.84218E+03-6.09634E-09 5.39876E-09
 -1       125-2.04402E+03-1.38328E+06 6.58998E+03 3.11293E+03 4.15730E-09 5.63887E-09
 -1       191-4.19182E+00 3.13012E+05 9.62866E+00 8.59945E-02-1.04706E-10 6.81302E-09
 -1       192-4.47143E+00 3.12985E+05 1.68692E+01-6.73807E-01-1.54569E-10-1.43789E-08
 -1       193-6.13685E+00 3.13012E+05 3.14710E+01 5.90610E-01-2.65157E-10-1.42495E-08
 -1       194-6.82533E+00 3.12988E+05 6.37923E+01-1.57735E+00-1.18486E-10-6.29757E-09
 -1       195-9.87453E+00 3.13010E+05 1.24879E+02 9.94991E-01-2.99231E-10 2.45564E-09
 -1       251-1.77826E+06-8.43238E+02-1.17309E+05-8.98915E+04 1.57343E-09-1.39771E-08
 -1       252-1.39423E+06 3.01509E+03-1.78114E+03 2.74843E+05-1.63891E-09-1.57993E-08
 -1       253-1.60065E+06-3.89087E+03-2.21096E+04-1.83979E+05 2.63208E-09-5.45333E-09
 -1       254-1.57005E+06 2.40766E+04-1.13138E+03 3.61266E+05-1.37618E-10 3.16959E-08
 -1       255-1.62041E+06-7.24607E+03-1.21043E+04-1.77410E+05-9.69249E-09-1.10883E-08
 -1       256-1.34289E+06 2.09247E+04 4.85771E+04 2.50390E+05 9.57971E-09-1.71497E-08
 -1       257-1.80570E+06-1.86622E+04-4.86418E+04-7.18695E+04 1.50503E-08-3.08402E-08
 -1       258-1.14830E+06 1.64950E+04 8.64818E+04-9.88624E+03 2.89474E-08 4.11162E-08
 -1       259-1.79595E+06-1.82548E+04-4.53024E+04 8.20095E+04-6.16637E-09-3.01985E-08
 -1       260-1.36476E+06 2.26885E+04 4.79636E+04-2.63706E+05 2.40561E-10 8.51742E-09
 -1       261-1.61048E+06-7.63539E+03-3.48606E+03 1.81304E+05 3.98713E-08 3.13922E-08
 -1       262-1.56742E+06 3.16969E+04 1.44789E+04-3.61310E+05-2.96123E-09-1.40064E-07
 -1       263-1.61329E+06-1.10176E+04 1.16348E+03 1.80791E+05 2.39770E-08-2.31466E-09
 -1       264-1.34932E+06 5.10701E+04 7.14591E+04-2.62221E+05 7.60574E-08 4.50309E-08
 -1       265-1.80827E+06-4.33846E+04-2.15444E+04 8.10278E+04 2.92457E-08 4.72883E-08
 -1       266-3.01856E+04-1.41137E+04 7.08293E+04-6.71498E+01 2.91038E-11-2.51795E-08
 -1       267 3.49940E+04 1.64515E+04 5.00585E+04 7.74720E+01 6.54836E-11-3.95300E-08
 -1       268-4.69261E+03-2.32990E+03 1.86067E+04-9.87159E+00 8.64020E-11 2.61826E-08
 -1       269 5.54062E+03 2.78850E+03 1.20939E+04 1.14986E+01 7.43512E-11 3.11321E-08
 -1       270-8.31650E+02-4.58164E+02 5.83790E+03-1.56046E+00-9.34506E-11 6.09700E-08
 -1       271-2.76904E+06-3.42310E+05-2.07971E+05-1.07266E+06 1.39698E-09 3.71365E-08
 -1       272-2.86583E+06-4.72868E+05-1.33857E+05-1.04659E+06 7.86554E-09-4.71173E-08
 -1       273-2.80798E+06-3.94535E+05-4.91099E+04-1.06359E+06-8.75295E-09-5.68252E-08
 -1       274-2.81956E+06-4.09374E+05-2.75207E+04-1.06058E+06 1.96494E-08 4.27899E-08
 -1       275-2.81415E+06-3.99218E+05-1.14493E+04-1.06107E+06-4.58567E-09 1.52586E-08
 -1       276-2.81115E+06-4.04814E+05-6.04038E+03-1.06515E+06 4.87807E-09-5.79078E-08
 -1       277-2.81627E+06-3.98410E+05-2.98534E+03-1.05928E+06 3.91083E-10 2.92248E-08
 -1       278-2.80769E+06-4.06889E+05-2.04468E+03-1.06860E+06 2.76623E-09 5.27931E-08
 -1       279-2.81768E+06-3.97034E+05-2.16548E+03-1.05770E+06 3.69982E-09 3.54435E-08
 -1       280-2.80557E+06-4.09838E+05-3.78948E+03-1.07155E+06-5.09863E-09-1.77536E-08
 -1       281-2.81852E+06-3.95416E+05-6.90481E+03-1.05641E+06-1.89266E-09-2.70346E-08
 -1       282-2.80680E+06-4.16427E+05-1.64655E+04-1.07338E+06 3.62161E-09 2.68756E-09
 -1       283-2.81667E+06-3.90765E+05-2.92892E+04-1.05582E+06-6.50016E-09 2.40225E-08
 -1       284-2.83108E+06-4.57696E+05-7.98693E+04-1.06897E+06 4.45880E-09 9.93168E-09
 -1       285-2.79501E+06-3.58048E+05-1.24069E+05-1.05946E+06-7.04131E-09 4.74029E-08
 -1       301 2.24282E+04-2.28595E+05 1.73055E+05-4.30487E+05 3.05590E-10-4.72173E-08
 -1       302 2.39422E+04-1.85180E+05 1.09849E+05-6.30034E+05-5.82077E-11 3.79532E-08
 -1       303 4.44895E+02-2.11724E+05 7.72561E+04-4.29568E+05 1.89175E-10 2.31594E-08
 -1       304 2.12572E+04-1.84860E+05 1.04144E+05-6.29534E+05 5.09317E-10-3.62907E-08
 -1       305 1.87740E+04-2.24575E+05 1.60136E+05-4.31039E+05 5.09317E-11-5.00586E-08
 -1       306-1.19085E+07-1.77205E+06-2.30000E+06-2.01532E+06-4.41505E-08 5.56174E-08
 -1       307 2.95677E+06-1.67107E+06 1.10651E+06-5.57548E+06-3.97136E-07-1.98997E-08
 -1       308-7.85847E+06 2.94767E+05-2.62644E+05 6.53846E+05-8.21747E-08 1.47873E-07
 -1       309-3.45249E+06-1.63584E+06 3.17602E+05-9.05211E+06 2.07339E-07 5.00986E-08
 -1       310-8.08921E+06 2.40341E+05-2.40261E+05 5.64051E+05-4.94474E-08-4.31701E-08
 -1       311 3.48584E+06-1.80099E+06 1.41365E+06-5.08634E+06 8.55653E-08-7.60174E-08
 -1       312-1.19500E+07-1.78671E+06-1.76970E+06-2.28113E+06-1.33005E-07 1.74405E-08
 -1       313 6.60644E+06 1.38460E+06 2.40569E+06 2.55282E+06-4.06872E-08-2.99915E-08
 -1       314-9.42166E+06-4.17122E+06-1.73233E+06-4.87388E+06 4.27826E-08-5.98957E-08
 -1       315-4.40644E+06 5.74220E+06 1.35709E+06 2.98351E+06-2.79200E-07-2.02126E-08
 -1       316-3.61348E+06-4.06112E+06-1.99669E+05-4.15913E+06-4.49829E-07-1.93148E-07
 -1       317-1.16537E+07 6.54852E+06 3.03919E+05-5.72996E+04 3.06318E-07-2.42092E-07
 -1       318-3.64308E+06-4.07846E+06-3.26992E+05-4.16054E+06-4.29325E-07-7.61065E-09
 -1       319-4.28467E+06 5.85679E+06 1.10048E+06 2.96657E+06-6.03541E-08 4.80795E-08
 -1       320-9.50271E+06-4.27532E+06-2.42962E+06-4.83970E+06 8.90577E-08-1.55014E-08
 -1       336 1.23457E+03-1.56053E+06-1.34746E+04 5.32364E+03-5.63341E-09-3.65981E-09
 -1       337-5.14076E+03-1.56288E+06-1.49168E+04-1.30718E+04-4.68617E-09 8.74752E-09
 -1       338 8.86090E+02-1.56082E+06-1.96033E+04 7.68002E+03-7.65249E-09 1.38680E-08
 -1       339-2.07579E+04-1.57305E+06-4.29934E+04-1.76687E+04-5.33601E-09 2.00653E-08
 -1       340 1.43361E+04-1.55122E+06-6.62880E+04 9.87013E+03-8.93488E-09 3.32584E-08
 -1       406 1.93463E+01 3.12998E+05 5.09782E+02 2.95702E-01-3.83622E-10 1.15460E-08
 -1       407 1.77220E+02 3.13091E+05 1.08322E+03 5.33970E+00-8.99263E-11 1.03846E-08
 -1       408 5.57199E+02 3.12920E+05 2.16352E+03-5.78346E+00-5.37085E-10 1.00599E-08
 -1       409 2.33870E+03 3.13782E+05 4.87040E+03 5.81329E+01-2.02078E-10 4.84488E-09
 -1       410 6.72030E+03 3.12305E+05 9.94275E+03-5.50751E+01-6.88260E-10 1.22770E-08
 -1       521-1.41026E+07-2.32848E+06-2.97697E+06-2.18230E+06-4.13274E-08 4.44707E-08
 -1       522 3.55123E+06-1.90588E+06 1.25242E+06-7.27283E+06-2.21815E-07-1.56739E-07
 -1       523-9.35487E+06 2.63342E+05-3.22750E+05 9.42888E+05 5.08153E-08-1.70548E-07
 -1       524-4.81502E+06-1.32158E+06 4.01138E+05-1.14887E+07 4.86320E-07-2.40945E-07
 -1       525-9.66450E+06 1.73860E+05-3.02074E+05 8.27477E+05 3.26050E-07-1.14591E-07
 -1       526 4.38530E+06-2.08742E+06 1.68253E+06-6.58643E+06-4.26080E-08-3.20397E-08
 -1       527-1.41807E+07-2.40070E+06-2.27453E+06-2.53273E+06-4.40050E-08 2.55677E-08
 -1       528 8.43518E+06 1.65155E+06 2.82896E+06 3.35028E+06 8.37026E-08-9.61882E-09
 -1       529-1.10733E+07-5.33277E+06-2.22417E+06-5.69237E+06-1.61235E-08-4.19968E-08
 -1       530-5.68630E+06 7.55286E+06 1.62131E+06 3.59348E+06-2.14728E-07 2.44705E-07
 -1       531-4.16948E+06-5.11332E+06-2.40766E+05-4.92594E+06-3.58996E-07 3.22907E-08
 -1       532-1.46732E+07 8.53003E+06 4.06778E+05-7.84180E+05 2.96219E-07-3.47969E-07
 -1       533-4.16665E+06-5.12700E+06-3.65876E+05-4.91423E+06-7.26141E-09-4.93252E-07
 -1       534-5.64740E+06 7.76246E+06 1.35074E+06 3.51777E+06-5.43660E-08 3.48664E-07
 -1       535-1.11365E+07-5.51320E+06-2.97755E+06-5.65063E+06 2.72412E-08 2.30088E-07
 -1       536-5.04756E+05-3.22064E+04 1.64241E+04-2.85663E+04-9.17180E-09 3.17887E-08
 -1       537-2.48227E+05 3.36069E+04 5.53055E+04 6.98862E+04-6.95940E-08 6.97837E-08
 -1       538-3.81528E+05-8.31904E+02 1.04877E+04-4.28990E+04 1.72501E-08 7.35213E-08
 -1       539-3.32719E+05 3.29132E+03 1.49156E+04 8.02468E+04 9.27826E-08 5.99480E-08
 -1       540-4.22194E+05-3.32078E+02-6.07420E+03-3.90427E+04 7.23048E-09 5.24951E-08
 -1       541-1.71018E+05 6.84556E+03 4.26096E+04 5.17780E+04-3.36354E-08 3.69080E-08
 -1       542-5.38898E+05-7.94590E+03-3.22617E+04-1.42301E+04 2.40734E-08 1.10576E-08
 -1       543-7.54635E+04 1.05423E+04 6.05728E+04-8.99241E+03 8.73615E-09-5.74346E-10
 -1       544-5.15213E+05-6.10523E+03-2.84639E+04 2.15638E+04 6.03950E-09-2.62017E-08
 -1       545-2.24893E+05 2.92662E+03 2.85661E+04-6.40042E+04 1.19336E-07-5.07480E-08
 -1       546-3.93426E+05 2.90895E+03-5.75491E+03 4.07131E+04 3.74500E-05 1.54688E-06
 -1       547-3.43247E+05-4.19943E+03-5.15191E+02-8.23353E+04 7.50056E-05 3.60386E-06
 -1       548-3.99977E+05 3.58066E+03-1.60195E+04 4.00531E+04 3.73320E-05 1.49431E-06
 -1       549-2.14674E+05-6.71784E+03 5.62322E+03-6.08214E+04 7.48737E-08-3.85517E-08
 -1       550-5.18474E+05 2.52497E+03-7.56689E+04 1.90278E+04 7.40738E-09-1.26856E-08
 -1       551 2.65792E+04-6.89006E+05 1.80320E+04-1.08555E+06-6.82558E-08-1.83354E-09
 -1       552 5.89085E+04-7.10488E+05 2.88759E+04-1.54720E+06-4.97530E-08 2.05691E-08
 -1       553 4.31733E+04-7.14150E+05 4.45935E+04-1.08091E+06-8.11997E-08 1.99216E-08
 -1       554 8.92914E+04-7.13131E+05 9.55434E+04-1.54895E+06-4.97384E-08 1.49939E-08
 -1       555 7.23110E+04-7.34489E+05 1.69964E+05-1.08153E+06-8.32806E-08-7.03949E-09
 -1       556 1.45769E+05-2.62265E+05 6.10638E+04-3.11004E+05-1.55705E-08-1.84518E-08
 -1       557 2.45466E+05-3.42408E+05 3.29983E+04-3.94961E+05 3.20142E-09 3.37786E-09
 -1       558 1.39135E+05-2.66664E+05 1.19000E+04-3.06674E+05-1.60653E-08-1.46974E-09
 -1       559 2.28007E+05-3.49251E+05 6.48510E+03-4.05615E+05 1.39771E-08-6.45196E-09
 -1       560 1.31891E+05-2.62047E+05 1.83975E+03-3.11678E+05 7.43603E-09 9.77161E-09
 -1       561 2.18379E+05-3.45783E+05 1.30389E+03-4.11959E+05 4.06726E-09 1.13923E-08
 -1       562 1.26187E+05-2.58425E+05 5.88671E+01-3.15773E+05 3.28873E-09-4.25644E-09
 -1       563 2.11668E+05-3.42860E+05 3.12873E+02-4.16291E+05 5.35510E-09 3.29919E-09
 -1       564 1.22314E+05-2.55989E+05-4.52030E+01-3.18508E+05 7.91624E-09-8.15726E-09
 -1       565 2.07569E+05-3.41079E+05 1.22680E+02-4.18895E+05 9.42237E-10 1.35697E-09
 -1       566 1.20341E+05-2.54731E+05-2.42795E+01-3.19893E+05-4.95857E-09-4.26917E-09
 -1       567 2.06057E+05-3.40410E+05-1.17560E+02-4.19755E+05 1.77333E-08 2.15805E-08
 -1       568 1.20323E+05-2.54734E+05-5.05563E+02-3.19998E+05-1.90448E-09 1.89029E-08
 -1       569 2.06133E+05-3.40358E+05-1.26699E+03-4.18006E+05-1.46047E-08 7.40692E-09
 -1       570 1.23068E+05-2.57068E+05-2.92007E+03-3.19438E+05-1.57888E-09 9.14952E-10
 -1       571 2.37200E+05 8.69372E+03 1.27231E+04-6.53901E+04 1.87629E-09 1.52181E-09
 -1       572 2.39077E+05 3.10763E+03 6.23408E+03-7.17300E+04 2.08729E-10-6.20639E-09
 -1       573 2.37952E+05 8.23622E+02 2.76976E+03-6.52514E+04 9.07858E-09 2.18142E-09
 -1       574 2.38163E+05 3.56035E+02 1.38822E+03-7.18939E+04 1.93445E-08 3.12866E-10
 -1       575 2.38036E+05 1.43992E+02 6.54848E+02-6.52328E+04 9.23319E-09-7.67295E-09
 -1       576 2.38044E+05 1.31023E+02 3.34463E+02-7.19157E+04-2.75401E-09 6.41558E-09
 -1       577 2.38058E+05 1.02193E+02 1.66465E+02-6.52304E+04-8.37645E-10 8.59063E-09
 -1       578 2.38046E+05 1.11643E+02 9.45398E+01-7.19185E+04-3.55431E-09-4.83396E-10
 -1       579 2.38089E+05 8.90335E+01 6.38311E+01-6.52302E+04 7.80346E-10 3.66072E-10
 -1       580 2.38090E+05 9.16770E+01 7.06254E+01-7.19148E+04-5.33373E-09 1.27893E-08
 -1       581 2.38138E+05 6.68910E+01 1.06384E+02-6.52342E+04-1.92813E-10 1.71103E-08
 -1       582 2.38174E+05 8.96889E+01 2.12521E+02-7.18730E+04 4.63842E-11 6.81121E-09
 -1       583 2.38196E+05 1.28194E+02 4.11144E+02-6.52720E+04-9.31323E-09-2.36696E-10
 -1       584 2.38397E+05 4.57074E+02 9.26055E+02-7.15550E+04-1.52640E-08 1.23839E-09
 -1       585 2.38161E+05 1.26364E+03 1.88053E+03-6.55523E+04-9.37143E-09-1.52795E-09
 -1       586-2.96773E+03 8.13600E+04-3.38267E+03-2.11008E+05-1.19326E-09 8.95943E-09
 -1       587-8.14652E+02 8.09677E+04 6.23498E+01-2.32258E+05-3.27964E-09 4.60841E-09
 -1       588 6.92161E+02 8.09690E+04 3.48163E+03-2.10908E+05-1.58798E-09-1.76315E-08
 -1       589 4.43910E+03 8.28400E+04 9.53258E+03-2.32017E+05-3.08501E-09-3.99305E-08
 -1       590 1.34213E+04 7.99167E+04 2.01934E+04-2.11272E+05-2.44927E-09-1.20035E-08
 -1       591-5.06231E+04-1.24737E+04-1.69326E+04-2.35584E+04-2.87878E-09-1.24437E-08
 -1       592-5.31376E+04-1.57058E+04-9.17181E+03-2.69184E+04 9.89075E-12-1.55535E-08
 -1       593-5.23216E+04-1.12398E+04-3.81798E+03-2.47950E+04 3.82840E-10-1.80291E-08
 -1       594-5.07921E+04-1.32294E+04-1.90420E+03-2.70169E+04 6.03518E-09 5.68843E-09
 -1       595-5.24513E+04-1.12352E+04-8.74592E+02-2.48514E+04 6.03254E-09 1.35155E-08
 -1       596-5.06321E+04-1.31161E+04-4.45092E+02-2.69987E+04 4.13877E-09 4.42668E-10
 -1       597-5.24676E+04-1.12466E+04-2.43388E+02-2.48535E+04-5.54058E-09-1.17507E-08
 -1       598-5.06164E+04-1.31117E+04-1.97534E+02-2.69936E+04-3.68999E-09-2.46766E-09
 -1       599-5.24665E+04-1.12468E+04-2.54665E+02-2.48531E+04-1.36572E-09-8.05392E-09
 -1       600-5.06327E+04-1.31171E+04-4.74955E+02-2.69975E+04-1.10276E-10-1.18780E-09
 -1       601-5.24469E+04-1.12355E+04-9.37948E+02-2.48501E+04-3.55203E-09-1.14838E-08
 -1       602-5.08042E+04-1.32381E+04-2.04467E+03-2.70143E+04-1.95666E-09-1.19669E-08
 -1       603-5.23055E+04-1.12427E+04-4.10067E+03-2.47901E+04-1.25874E-09-1.82808E-10
 -1       604-5.33363E+04-1.58834E+04-9.85057E+03-2.68899E+04 6.36237E-09 1.41570E-08
 -1       605-5.04658E+04-1.25812E+04-1.81858E+04-2.34763E+04 4.68481E-09 5.69707E-09
 -1       606 2.72671E+04-1.14279E+04-2.05287E+04 2.59792E+04-4.00178E-10 2.21326E-09
 -1       607 2.37553E+04-3.71032E+03-1.02225E+04 2.91728E+04-7.16682E-10-8.92965E-09
 -1       608 2.57504E+04-6.48712E+02-4.57727E+03 2.57790E+04 5.25688E-10 5.74119E-10
 -1       609 2.53595E+04-1.96271E+02-2.31199E+03 2.94021E+04-6.63931E-10 1.72599E-08
 -1       610 2.55708E+04-1.39645E+00-1.10385E+03 2.57562E+04 7.00311E-10 9.88530E-09
 -1       611 2.55022E+04 7.16749E+00-5.56529E+02 2.94270E+04 4.27463E-11 6.58906E-09
 -1       612 2.55256E+04 1.42874E+01-2.65399E+02 2.57540E+04-2.12640E-09 5.25870E-09
 -1       613 2.55037E+04 1.48212E+01-1.19608E+02 2.94300E+04-5.53473E-09-2.03272E-10
 -1       614 2.55019E+04 1.30167E+01-3.01282E+01 2.57532E+04 7.42148E-10 3.21074E-09
 -1       615 2.54932E+04 1.94306E+01 4.54193E+01 2.94304E+04 2.36423E-09 1.02059E-08
 -1       616 2.54836E+04 1.83297E+01 1.40477E+02 2.57535E+04-2.24463E-09 3.57841E-09
 -1       617 2.55055E+04 5.21737E+01 3.22365E+02 2.94299E+04 9.50422E-10-1.04926E-08
 -1       618 2.54522E+04 1.13416E+02 6.50351E+02 2.57536E+04 4.34284E-10 6.99856E-10
 -1       619 2.57324E+04 5.56788E+02 1.46088E+03 2.94291E+04-2.85581E-09-4.40627E-09
 -1       620 2.52344E+04 1.65716E+03 2.93639E+03 2.57531E+04 1.77329E-09-4.08909E-09
 -1       621 2.98391E+02 2.42491E+05 2.67106E+03 2.03166E+04 1.06411E-10-1.80016E-08
 -1       622 3.72887E+02 2.43137E+05 2.47691E+03 2.95464E+04 2.45336E-10-4.19495E-08
 -1       623 3.52555E+01 2.42637E+05 3.11892E+03 2.02206E+04 2.57046E-10-1.16629E-08
 -1       624 1.51671E+03 2.44159E+05 6.16018E+03 2.96435E+04 4.49667E-10-3.08944E-09
 -1       625 1.51766E+03 2.41421E+05 1.08203E+04 2.02179E+04 4.83851E-10-6.96366E-09
 -1       626 2.13942E+05 5.49096E+04 4.60224E+03 1.09613E+05-6.49879E-09-2.00835E-08
 -1       627 2.11585E+05 5.64391E+04 2.21776E+03 1.13755E+05-7.38510E-10-8.74786E-09
 -1       628 2.14074E+05 5.27804E+04 9.37277E+02 1.10365E+05-7.44876E-10 3.32170E-09
 -1       629 2.10980E+05 5.58587E+04 4.58839E+02 1.13999E+05 3.14139E-09 1.34068E-08
 -1       630 2.14085E+05 5.26793E+04 2.12159E+02 1.10392E+05-1.04592E-10 3.25107E-09
 -1       631 2.10911E+05 5.58402E+04 1.13383E+02 1.14000E+05 2.58115E-09 4.72988E-09
 -1       632 2.14077E+05 5.26854E+04 7.32074E+01 1.10385E+05-2.31603E-09-1.75146E-09
 -1       633 2.10899E+05 5.58444E+04 7.94204E+01 1.13993E+05-1.64118E-09-1.10667E-08
 -1       634 2.14069E+05 5.26853E+04 1.26419E+02 1.10382E+05-2.51525E-08-1.12102E-08
 -1       635 2.10907E+05 5.58448E+04 2.54737E+02 1.13995E+05-3.50816E-08 2.50141E-08
 -1       636 2.14058E+05 5.26826E+04 5.13831E+02 1.10380E+05-9.31945E-09 2.47205E-08
 -1       637 2.11015E+05 5.59255E+04 1.12915E+03 1.13992E+05 4.82044E-09-1.77806E-08
 -1       638 2.14016E+05 5.29330E+04 2.32009E+03 1.10266E+05-7.45945E-09-1.99370E-08
 -1       639 2.12233E+05 5.76201E+04 5.48892E+03 1.13631E+05-1.36470E-08 1.87463E-08
 -1       640 2.13851E+05 5.79893E+04 1.13905E+04 1.08127E+05-5.39831E-09 9.01355E-09
 -1       656 5.59384E+04-1.42409E+06-1.35036E+05-9.34848E+02-1.60071E-10 5.08422E-09
 -1       657-7.39676E+04-1.48507E+06-1.11788E+05 7.02010E+03-3.01952E-10 1.21360E-09
 -1       658 1.77952E+04-1.44144E+06-6.87467E+04-2.51963E+03 2.75350E-10 6.76089E-09
 -1       659-7.97085E+04-1.48779E+06-1.19330E+05 8.20230E+03-6.60293E-10 2.87830E-09
 -1       660 6.16661E+04-1.42137E+06-1.48004E+05-2.11703E+03-8.80391E-10 3.93641E-09
 -1       661 1.64690E+05 1.76540E+04 1.64715E+04 6.44005E+04 1.86674E-09 5.93809E-09
 -1       662 1.73632E+05 3.02156E+04 1.10997E+04 6.11268E+04 2.39487E-09-9.61791E-09
 -1       663 1.67923E+05 2.29400E+04 3.88244E+03 6.34640E+04-1.67006E-10-5.58657E-09
 -1       664 1.69887E+05 2.40313E+04 2.32180E+03 6.22684E+04 2.98505E-09-9.96741E-09
 -1       665 1.68410E+05 2.36645E+04 9.15925E+02 6.33241E+04-1.65642E-09 2.70600E-09
 -1       666 1.69312E+05 2.32007E+04 5.35083E+02 6.24495E+04-6.12204E-10 8.48950E-09
 -1       667 1.68494E+05 2.37489E+04 2.83219E+02 6.32909E+04-1.98978E-09 1.14938E-08
 -1       668 1.69221E+05 2.31374E+04 2.86276E+02 6.24978E+04 6.74120E-10-1.14723E-08
 -1       669 1.68501E+05 2.37260E+04 3.85693E+02 6.32764E+04-1.17856E-09-2.82782E-09
 -1       670 1.69316E+05 2.33447E+04 8.38090E+02 6.24995E+04 2.32426E-10 6.92918E-09
 -1       671 1.68399E+05 2.35458E+04 1.48750E+03 6.32874E+04-2.11484E-09-2.67090E-09
 -1       672 1.70182E+05 2.47917E+04 3.80526E+03 6.22899E+04 6.70070E-10-4.87103E-09
 -1       673 1.67638E+05 2.23154E+04 6.37682E+03 6.34721E+04-8.24230E-11-1.42199E-08
 -1       674 1.76253E+05 3.50351E+04 1.82363E+04 6.05051E+04-8.90850E-10-8.58586E-09
 -1       675 1.62368E+05 1.35890E+04 2.70688E+04 6.49643E+04 1.05138E-09 1.66983E-09
 -1       676 2.14389E+01-2.60245E+05-9.95815E+02-1.60587E+01 6.25789E-10-1.12860E-08
 -1       677-2.64457E+02-2.60485E+05-1.82248E+03 3.20964E+01 9.36353E-10-1.11858E-08
 -1       678 1.76541E+02-2.60073E+05-3.22168E+03-1.60269E+01-3.53907E-10-8.58614E-09
 -1       679-3.22264E+03-2.62430E+05-7.65326E+03 3.19745E+01 2.31285E-09-1.28759E-08
 -1       680 1.92330E+03-2.58301E+05-1.23345E+04-1.57564E+01 7.23958E-10 9.85162E-10
 -1       771-2.74597E+06-5.80977E+05-9.47173E+04-1.24160E+06-2.50584E-08-1.29512E-08
 -1       772-2.69819E+06-6.42105E+05-4.94558E+04-1.31150E+06-2.73722E-08 6.86850E-09
 -1       773-2.76326E+06-5.67326E+05-2.39050E+04-1.24807E+06-1.16415E-08 1.00626E-08
 -1       774-2.68939E+06-6.32116E+05-1.09467E+04-1.32437E+06 1.99434E-08-9.89530E-10
 -1       775-2.77096E+06-5.61869E+05-7.32676E+03-1.25052E+06 2.56114E-09 1.19326E-09
 -1       776-2.69367E+06-6.31382E+05-2.88482E+03-1.33338E+06 3.71074E-09 1.28966E-09
 -1       777-2.77737E+06-5.57176E+05-2.93721E+03-1.25266E+06 5.90808E-09 8.91305E-10
 -1       778-2.69838E+06-6.30809E+05-8.83800E+02-1.34104E+06 5.95901E-09 5.43514E-09
 -1       779-2.78277E+06-5.53148E+05-1.38063E+03-1.25451E+06-1.68802E-09-5.63887E-09
 -1       780-2.70253E+06-6.30233E+05-2.50944E+02-1.34726E+06-1.98634E-09-5.10772E-09
 -1       781-2.78699E+06-5.49938E+05-5.31138E+02-1.25595E+06-1.72586E-08-2.12094E-09
 -1       782-2.70570E+06-6.29710E+05 1.50150E+02-1.35183E+06-2.54768E-08-3.00588E-09
 -1       783-2.78994E+06-5.47742E+05 2.27758E+02-1.25697E+06-5.36966E-09-1.02207E-08
 -1       784-2.70745E+06-6.29068E+05 1.04458E+03-1.35463E+06-1.34078E-08 7.32143E-11
 -1       785-2.79162E+06-5.46476E+05 1.83080E+03-1.25762E+06-2.56096E-08 5.65706E-10
 -1       786 1.24765E+05-9.09972E+03 2.10518E+04-1.55147E+02 2.43853E-09-3.07591E-09
 -1       787 1.33894E+05 1.05347E+04 1.48935E+04 5.04739E+00 3.38449E-09 5.00859E-09
 -1       788 1.28285E+05-1.42634E+03 5.44714E+03-1.27706E+02 1.27772E-09 5.67388E-09
 -1       789 1.29793E+05 1.65025E+03 3.42036E+03-3.89083E+01-7.88008E-10 5.31082E-09
 -1       790 1.28867E+05-2.22514E+02 1.38671E+03-1.11198E+02-2.74586E-09 5.64626E-09
 -1       791 1.29114E+05 2.57195E+02 8.04592E+02-6.75384E+01-2.39571E-09 5.57694E-09
 -1       792 1.28965E+05-3.43265E+01 3.48249E+02-9.90768E+01-2.92161E-09-3.56557E-09
 -1       793 1.28999E+05 3.91512E+01 1.89633E+02-9.03691E+01 3.37662E-10-9.58470E-09
 -1       794 1.28982E+05-4.60799E+00 8.14694E+01-8.83667E+01 1.44730E-09-4.79995E-09
 -1       795 1.28977E+05 1.60144E+00 3.25919E+01-1.12672E+02-1.71775E-09 9.32297E-09
 -1       796 1.28987E+05 3.20413E+00-2.74628E+00-7.67738E+01 1.70237E-09 5.06315E-11
 -1       797 1.28961E+05-2.82317E+01-4.91221E+01-1.39170E+02 1.89261E-09-1.36943E-08
 -1       798 1.28998E+05 2.52016E+01-9.12757E+01-6.18683E+01 9.52634E-10 2.88733E-09
 -1       799 1.28888E+05-1.86405E+02-2.61134E+02-1.75467E+02 1.66723E-09 4.50766E-09
 -1       800 1.29060E+05 1.61239E+02-3.72367E+02-4.04757E+01 2.04071E-10 2.72212E-09
 -1       801 5.14423E+04-5.07775E+06-5.78690E+05 3.58307E+05 4.60568E-08-2.91402E-08
 -1       802 3.26754E+04-1.60836E+06 2.85238E+05-3.70283E+05 1.30007E-07-1.63845E-08
 -1       803-8.46732E+04-5.58552E+06-4.19491E+05 2.81634E+05 4.98549E-08 2.43053E-08
 -1       804 1.77971E+03-2.61689E+06 2.05106E+05 2.56053E+05-3.23312E-08-1.92285E-08
 -1       805 6.64735E+04-4.07786E+06-7.70646E+04-2.67317E+05-1.36479E-08-1.24446E-08
 -1       806-2.59634E+05-4.91054E+04-1.89092E+04-1.01549E+05-4.60750E-09-4.73392E-09
 -1       807-2.61307E+05-4.58328E+04-9.28986E+03-1.05917E+05 4.17890E-09-8.38889E-09
 -1       808-2.60139E+05-4.23053E+04-3.94116E+03-1.04789E+05-2.40243E-09-8.91646E-10
 -1       809-2.59362E+05-4.32152E+04-1.92716E+03-1.06138E+05-4.19732E-09 6.70354E-09
 -1       810-2.60217E+05-4.20684E+04-8.83230E+02-1.04933E+05 1.10413E-09 4.36557E-09
 -1       811-2.59213E+05-4.31091E+04-4.39166E+02-1.06109E+05-2.74031E-09-1.11826E-08
 -1       812-2.60230E+05-4.20880E+04-2.21849E+02-1.04933E+05-1.18280E-09-1.19810E-08
 -1       813-2.59194E+05-4.31102E+04-1.43874E+02-1.06095E+05-8.92669E-10-2.82089E-08
 -1       814-2.60226E+05-4.20949E+04-1.41906E+02-1.04931E+05-3.54066E-09-1.29935E-08
 -1       815-2.59198E+05-4.31115E+04-2.28377E+02-1.06091E+05 1.15688E-09 4.33829E-09
 -1       816-2.60212E+05-4.20929E+04-4.32327E+02-1.04929E+05 1.18143E-09 3.83625E-09
 -1       817-2.59274E+05-4.31523E+04-9.28236E+02-1.06084E+05-3.41242E-09 1.36033E-08
 -1       818-2.60158E+05-4.22220E+04-1.89292E+03-1.04868E+05 5.14410E-09 7.71706E-09
 -1       819-2.60310E+05-4.42980E+04-4.45474E+03-1.05844E+05 4.54838E-09-1.74628E-08
 -1       820-2.59809E+05-4.55803E+04-9.06655E+03-1.03424E+05 3.04044E-09 6.04712E-09
 -1       821-3.17083E+05 1.75199E+04-4.05218E+04 5.46939E+02-1.09801E-06 8.89613E-08
 -1       822-3.34626E+05-2.02821E+04-2.86723E+04-1.21660E+03-2.27636E-06-1.52068E-08
 -1       823-3.23848E+05 2.74739E+03-1.04942E+04 6.16404E+02-1.12855E-06-1.52663E-08
 -1       824-3.26715E+05-3.17869E+03-6.60034E+03-1.05715E+03-2.97516E-09-7.24765E-09
 -1       825-3.24992E+05 4.29277E+02-2.71842E+03 3.87495E+02 1.80263E-09-6.03632E-09
 -1       826-3.25368E+05-5.05173E+02-1.62839E+03-4.08997E+02 1.45950E-09 2.86900E-09
 -1       827-3.25193E+05 7.48125E+01-8.58034E+02-3.17624E+01 1.16820E-10-4.71573E-10
 -1       828-3.25189E+05-1.54095E+02-7.43399E+02 4.22845E+02-2.54227E-09 1.00676E-08
 -1       829-3.25170E+05 7.84767E+01-8.74637E+02-4.44360E+02 3.28797E-10-1.89522E-09
 -1       830-3.25429E+05-5.27214E+02-1.69902E+03 1.04665E+03 1.67754E-09 6.05141E-09
 -1       831-3.24954E+05 4.48678E+02-2.82150E+03-6.55580E+02-2.77141E-09 2.19745E-09
 -1       832-3.26797E+05-3.31057E+03-6.87544E+03 1.16828E+03-1.74209E-09 1.19690E-08
 -1       833-3.23804E+05 2.86012E+03-1.09303E+04-5.65991E+02-1.85668E-09 7.86804E-09
 -1       834-3.34974E+05-2.11191E+04-2.98502E+04 7.25603E+02-1.95694E-09 6.14045E-09
 -1       835-3.16779E+05 1.82427E+04-4.22063E+04-2.12890E+02 5.19642E-09 1.30403E-08
 -1       836-1.09860E+03 3.00607E+05 1.83305E+04-1.60856E+04-1.74987E-09 2.68074E-09
 -1       837 3.97233E+03 3.06318E+05 1.56580E+04-3.24353E+04-1.38050E-09-6.00267E-11
 -1       838-4.26333E+02 3.02190E+05 1.61603E+04-1.60203E+04-1.10822E-09 7.00038E-09
 -1       839 1.03164E+04 3.11047E+05 3.07736E+04-3.24769E+04-9.93168E-10 9.91167E-09
 -1       840-3.14458E+03 2.95834E+05 4.91611E+04-1.60443E+04-1.03864E-09 2.69551E-10
 -1       856-6.99076E+04 7.65211E+03-2.01655E+04-4.14085E+02 5.22675E-10-1.15979E-08
 -1       857-7.82297E+04-8.98003E+03-1.38827E+04 4.94369E+03 6.71236E-10-1.59371E-08
 -1       858-7.31981E+04 1.07248E+03-5.23302E+03-4.36304E+02-1.41245E-09 2.38970E-10
 -1       859-7.44521E+04-1.25146E+03-3.15929E+03 4.97826E+03-1.15335E-10 1.30972E-08
 -1       860-7.36899E+04 1.49495E+02-1.32632E+03-4.48659E+02-6.51710E-10 1.09616E-08
 -1       861-7.38860E+04-1.68942E+02-7.34424E+02 4.99517E+03-6.78938E-10 1.06990E-08
 -1       862-7.37666E+04 1.98635E+01-3.14887E+02-4.53228E+02 1.88704E-09 6.43305E-09
 -1       863-7.37936E+04-1.34611E+01-1.36492E+02 4.99747E+03 4.56856E-09 1.57569E-09
 -1       864-7.37826E+04-2.51989E+00-4.02831E+00-4.50964E+02 1.00370E-09 4.66598E-09
 -1       865-7.37540E+04 4.23143E+01 1.34242E+02 4.98555E+03 4.07670E-09 7.31197E-09
 -1       866-7.38044E+04-3.61877E+01 2.95696E+02-4.41300E+02-2.63213E-10 7.56710E-09
 -1       867-7.36081E+04 3.01026E+02 7.44060E+02 4.95925E+03 1.69030E-09 1.36694E-08
 -1       868-7.39245E+04-2.57315E+02 1.24023E+03-4.24664E+02-1.16052E-09 8.93414E-09
 -1       869-7.26939E+04 2.14073E+03 3.30840E+03 4.91548E+03-4.00405E-10-7.49242E-09
 -1       870-7.47125E+04-1.82703E+03 4.80029E+03-3.97525E+02-5.32054E-11-7.33326E-09
 -1       871-4.76217E+03-1.30715E+04-1.59156E+04 1.05978E+05-4.38376E-10-1.48248E-10
 -1       872-1.94664E+03-1.66882E+04-6.56819E+03 1.37403E+05-1.72895E-09-7.84712E-09
 -1       873 8.63412E+01-1.49801E+04 7.23026E+02 1.05745E+05-7.00311E-10-3.20961E-09
 -1       874 2.51173E+03-1.28131E+04 8.55064E+03 1.37441E+05-1.53727E-09 5.41968E-09
 -1       875 5.66172E+03-1.70124E+04 1.91016E+04 1.05940E+05-1.05501E-09 4.51837E-09
 -1       876 2.50296E+05 4.26554E+04 1.30759E+04 1.01001E+05-5.96555E-09-7.49424E-10
 -1       877 2.51111E+05 4.54588E+04 6.98296E+03 1.04797E+05-1.11650E-08-1.60401E-09
 -1       878 2.51518E+05 4.12083E+04 2.92554E+03 1.02074E+05-4.87307E-09-5.08112E-09
 -1       879 2.49333E+05 4.36859E+04 1.45755E+03 1.04887E+05 5.43719E-09 5.40206E-09
 -1       880 2.51606E+05 4.11929E+04 6.78793E+02 1.02118E+05 4.86625E-09 2.20257E-09
 -1       881 2.49215E+05 4.36104E+04 3.62127E+02 1.04868E+05-1.68041E-09-1.61330E-08
 -1       882 2.51614E+05 4.12039E+04 2.31072E+02 1.02119E+05 4.16890E-09 4.83399E-09
 -1       883 2.49206E+05 4.36066E+04 2.47434E+02 1.04862E+05 1.78352E-09 6.62475E-09
 -1       884 2.51609E+05 4.12013E+04 3.92728E+02 1.02119E+05 8.79453E-09 5.33265E-09
 -1       885 2.49237E+05 4.36121E+04 7.89054E+02 1.04871E+05 1.43862E-09 1.59587E-08
 -1       886 2.51578E+05 4.11783E+04 1.59005E+03 1.02116E+05 6.23768E-09-7.86213E-09
 -1       887 2.49517E+05 4.37954E+04 3.47318E+03 1.04912E+05 1.15641E-08-6.01585E-09
 -1       888 2.51359E+05 4.12169E+04 6.99855E+03 1.02005E+05 9.74325E-10 1.31513E-09
 -1       889 2.53685E+05 4.81268E+04 1.67186E+04 1.04782E+05-7.49390E-09 7.21866E-09
 -1       890 2.48507E+05 4.46054E+04 3.13131E+04 9.93365E+04-1.82968E-09 1.53159E-09
 -1       891-1.25935E+02-1.40388E+05-1.69366E+03 2.50425E+04-2.57387E-10-5.17844E-09
 -1       892-2.25475E+02-1.40809E+05-1.82852E+03 3.79398E+04 5.66615E-10 5.48243E-09
 -1       893-1.33714E+01-1.40441E+05-2.59879E+03 2.50482E+04 1.10595E-09 1.29025E-08
 -1       894-1.37157E+03-1.41796E+05-5.38567E+03 3.78026E+04 1.62345E-10-9.04038E-09
 -1       895-1.07886E+03-1.39319E+05-9.48691E+03 2.51789E+04-4.82032E-11 4.82032E-10
 -1       956-3.18261E+05-4.49167E+03-1.12417E+04 2.27653E+04 3.58523E-09 1.33355E-09
 -1       957-3.20476E+05-1.53555E+03-5.77078E+03 2.74028E+04 6.34464E-09 4.72710E-09
 -1       958-3.19263E+05-1.43433E+02-2.60008E+03 2.26314E+04-1.25783E-09 4.66298E-09
 -1       959-3.19436E+05-4.72205E+01-1.32799E+03 2.75519E+04-1.15156E-08 5.23278E-09
 -1       960-3.19355E+05 1.63058E+01-6.47527E+02 2.26182E+04-3.30647E-09-1.37306E-08
 -1       961-3.19363E+05 1.04724E+01-3.43661E+02 2.75671E+04 2.37901E-09-1.61415E-08
 -1       962-3.19375E+05 1.29255E+01-1.97047E+02 2.26161E+04 8.47649E-10-1.59571E-09
 -1       963-3.19360E+05 1.24997E+01-1.58777E+02 2.75698E+04-1.15324E-09-2.99224E-09
 -1       964-3.19379E+05 1.52538E+01-1.93595E+02 2.26155E+04-2.77896E-09 3.62206E-10
 -1       965-3.19371E+05 1.54266E+01-3.35258E+02 2.75695E+04 1.05786E-10-4.58704E-09
 -1       966-3.19367E+05 2.32331E+01-6.29904E+02 2.26164E+04-8.52651E-11 5.61613E-09
 -1       967-3.19451E+05-3.58794E+01-1.29212E+03 2.75595E+04-1.79784E-09 1.82624E-08
 -1       968-3.19284E+05-1.27626E+02-2.52906E+03 2.26255E+04 2.05546E-10 5.07919E-09
 -1       969-3.20472E+05-1.47993E+03-5.61502E+03 2.74536E+04 1.77647E-09 7.67164E-09
 -1       970-3.18315E+05-4.35563E+03-1.09375E+04 2.27217E+04-1.06638E-09 4.47289E-09
 -1       971-2.96451E+05-1.52278E+03-8.37195E+03 1.37898E+04 3.93811E-10-9.30000E-09
 -1       972-2.98480E+05-1.10183E+03-4.55929E+03 1.91990E+04 5.61613E-10-2.39056E-08
 -1       973-2.97383E+05-2.58553E+01-2.04183E+03 1.36766E+04-6.56655E-10 6.72799E-10
 -1       974-2.97518E+05-3.14361E+01-1.05803E+03 1.93233E+04 5.82077E-10 7.10486E-09
 -1       975-2.97456E+05 1.39283E+01-5.28361E+02 1.36658E+04-9.91804E-10 7.43739E-09
 -1       976-2.97461E+05 1.29201E+01-3.03896E+02 1.93367E+04-3.71324E-09-1.09244E-08
 -1       977-2.97470E+05 1.41533E+01-2.18906E+02 1.36631E+04 2.48156E-09 7.91613E-09
 -1       978-2.97465E+05 1.81639E+01-2.53903E+02 1.93406E+04 6.38158E-09 6.99333E-09
 -1       979-2.97470E+05 2.12594E+01-4.05999E+02 1.36620E+04 7.91601E-09 5.96981E-09
 -1       980-2.97496E+05 2.07456E+01-7.82714E+02 1.93413E+04 6.85981E-09-6.19434E-09
 -1       981-2.97445E+05 4.07864E+01-1.51530E+03 1.36624E+04 3.04703E-09 5.17122E-09
 -1       982-2.97704E+05-9.11626E+01-3.13173E+03 1.93354E+04 1.31138E-09-2.50822E-09
 -1       983-2.97255E+05-5.61650E+01-6.08477E+03 1.36680E+04 1.95246E-09 3.32375E-09
 -1       984-3.00630E+05-3.26891E+03-1.36262E+04 1.92577E+04-1.18507E-09-1.12577E-08
 -1       985-2.94500E+05-4.50861E+03-2.50221E+04 1.37414E+04-1.27420E-09 1.28130E-08
 -3
    1PSTEP                        23          12           1          
  100CL  112 5.96191E-01         409                     0   12           1
 -4  DISP        4    1
 -5  D1          1    2    1    0
 -5  D2          1    2    2    0
 -5  D3          1    2    3    0
 -5  ALL         1    2    0    0    1ALL
 -1         1 1.00654E-03 0.00000E+00 0.00000E+00
 -1         2 9.45076E-04 1.23718E-29 0.00000E+00
 -1         3 2.47956E-04-5.99281E-27 0.00000E+00
 -1         5 1.42619E-04-2.46507E-27 1.65436E-24
 -1         8 9.86035E-04-6.53906E-07 0.00000E+00
 -1         9 9.58611E-04-2.89449E-06 0.00000E+00
 -1        10 2.27099E-04-3.10473E-06 0.00000E+00
 -1        12 1.43249E-04 6.82312E-07 1.65436E-24
 -1        15 9.61361E-04-7.21460E-07 0.00000E+00
 -1        16 9.68018E-04-3.56763E-06 0.00000E+00
 -1        17 1.58888E-04-6.92662E-06 0.00000E+00
 -1        18 1.43768E-04 1.73857E-05 0.00000E+00
 -1        19 1.45138E-04 1.36089E-06 0.00000E+00
 -1        20 1.45285E-04 3.38498E-06 0.00000E+00
 -1        21 1.44562E-04 2.85544E-06-3.30872E-24
 -1        24 2.63588E-05-9.86953E-06 0.00000E+00
 -1        25 1.48444E-04 1.75601E-05 0.00000E+00
 -1        26 1.49148E-04 1.88569E-06 0.00000E+00
 -1        27 1.47283E-04 3.16114E-07 0.00000E+00
 -1        28 1.46892E-04 2.30035E-06 0.00000E+00
 -1        32 0.00000E+00 0.00000E+00 0.00000E+00
 -1        33 1.52092E-04 2.52627E-06 0.00000E+00
 -1        34 1.50257E-04 2.80073E-07 0.00000E+00
 -1        35 1.48557E-04 2.00063E-06 0.00000E+00
 -1        51 1.00522E-03-1.16009E-07 0.00000E+00
 -1        52 1.00276E-03-2.20873E-07 0.00000E+00
 -1        53 9.99381E-04-3.25005E-07 0.00000E+00
 -1        54 9.95315E-04-4.30362E-07 0.00000E+00
 -1        55 9.90790E-04-5.38238E-07 2.48154E-24
 -1        56 1.00377E-03-5.09758E-07 5.29396E-23
 -1        57 1.00057E-03-1.48578E-07 0.00000E+00
 -1        58 9.97080E-04 1.00704E-06-5.29396E-23
 -1        59 9.93333E-04 2.78378E-06 0.00000E+00
 -1        60 9.89440E-04 4.94428E-06 0.00000E+00
 -1        61 9.85500E-04 7.22026E-06 5.29396E-23
 -1        62 9.81623E-04 9.33019E-06 0.00000E+00
 -1        63 9.77911E-04 1.10018E-05 0.00000E+00
 -1        64 9.74446E-04 1.20186E-05 1.05879E-22
 -1        65 9.71294E-04 1.22047E-05 0.00000E+00
 -1        66 9.68482E-04 1.14891E-05-1.05879E-22
 -1        67 9.66016E-04 9.85770E-06-5.29396E-23
 -1        68 9.63855E-04 7.41098E-06 0.00000E+00
 -1        69 9.61956E-04 4.30634E-06-2.64698E-23
 -1        70 9.60211E-04 7.72602E-07 0.00000E+00
 -1        86 9.45618E-04-4.77413E-07 1.32349E-23
 -1        87 9.47234E-04-9.56195E-07 0.00000E+00
 -1        88 9.49664E-04-1.43656E-06 0.00000E+00
 -1        89 9.52637E-04-1.91997E-06 6.61744E-24
 -1        90 9.55753E-04-2.40323E-06-1.32349E-23
 -1       121 2.47371E-04-5.09662E-07-1.32349E-23
 -1       122 2.45618E-04-1.02065E-06-6.61744E-24
 -1       123 2.42701E-04-1.53427E-06-1.32349E-23
 -1       124 2.38633E-04-2.05193E-06 0.00000E+00
 -1       125 2.33426E-04-2.57461E-06 0.00000E+00
 -1       191 1.42637E-04 1.13729E-07 3.30872E-24
 -1       192 1.42689E-04 2.27456E-07 8.27181E-25
 -1       193 1.42777E-04 3.41181E-07 1.65436E-24
 -1       194 1.42899E-04 4.54901E-07-8.27181E-25
 -1       195 1.43057E-04 5.68612E-07 0.00000E+00
 -1       251 9.85330E-04 1.58617E-05 0.00000E+00
 -1       252 9.83940E-04 5.68305E-05 0.00000E+00
 -1       253 9.81761E-04 1.14913E-04 1.32349E-23
 -1       254 9.79012E-04 1.82376E-04 6.61744E-24
 -1       255 9.76319E-04 2.48935E-04 0.00000E+00
 -1       256 9.74282E-04 3.04328E-04 6.61744E-24
 -1       257 9.73036E-04 3.41323E-04 1.32349E-23
 -1       258 9.72382E-04 3.53111E-04-6.61744E-24
 -1       259 9.71706E-04 3.39503E-04 0.00000E+00
 -1       260 9.70403E-04 3.00924E-04 0.00000E+00
 -1       261 9.68304E-04 2.44362E-04 0.00000E+00
 -1       262 9.65573E-04 1.77215E-04-6.61744E-24
 -1       263 9.62823E-04 1.09761E-04 1.32349E-23
 -1       264 9.60671E-04 5.22814E-05 0.00000E+00
 -1       265 9.59318E-04 1.23403E-05 2.64698E-23
 -1       266 9.81923E-04-6.74579E-07-3.30872E-24
 -1       267 9.77811E-04-6.84691E-07 0.00000E+00
 -1       268 9.73698E-04-6.95471E-07 0.00000E+00
 -1       269 9.69586E-04-7.04270E-07 0.00000E+00
 -1       270 9.65473E-04-7.13023E-07-4.13590E-25
 -1       271 9.83532E-04 2.92608E-06 0.00000E+00
 -1       272 9.81125E-04 6.15040E-06 0.00000E+00
 -1       273 9.78870E-04 8.97712E-06 2.64698E-23
 -1       274 9.76779E-04 1.13542E-05-1.32349E-23
 -1       275 9.74874E-04 1.32399E-05 2.64698E-23
 -1       276 9.73166E-04 1.45971E-05 0.00000E+00
 -1       277 9.71669E-04 1.53962E-05 0.00000E+00
 -1       278 9.70390E-04 1.56150E-05 0.00000E+00
 -1       279 9.69334E-04 1.52390E-05 0.00000E+00
 -1       280 9.68503E-04 1.42617E-05 0.00000E+00
 -1       281 9.67897E-04 1.26849E-05-2.64698E-23
 -1       282 9.67511E-04 1.05184E-05 0.00000E+00
 -1       283 9.67339E-04 7.77987E-06 0.00000E+00
 -1       284 9.67374E-04 4.49571E-06-1.32349E-23
 -1       285 9.67599E-04 6.97425E-07 0.00000E+00
 -1       301 9.60339E-04-3.02572E-06 1.32349E-23
 -1       302 9.61413E-04-3.12993E-06 0.00000E+00
 -1       303 9.62273E-04-3.23202E-06 6.61744E-24
 -1       304 9.63365E-04-3.33398E-06 6.61744E-24
 -1       305 9.65134E-04-3.43858E-06 0.00000E+00
 -1       306 9.81454E-04-8.50417E-05 0.00000E+00
 -1       307 1.03706E-03-3.18639E-04-2.64698E-23
 -1       308 1.10417E-03-6.65843E-04 0.00000E+00
 -1       309 1.17206E-03-1.07571E-03 2.64698E-23
 -1       310 1.23993E-03-1.47949E-03 0.00000E+00
 -1       311 1.30610E-03-1.80905E-03 5.29396E-23
 -1       312 1.35755E-03-2.01685E-03 0.00000E+00
 -1       313 1.37144E-03-2.06988E-03-5.29396E-23
 -1       314 1.32309E-03-1.96897E-03 1.05879E-22
 -1       315 1.19574E-03-1.73309E-03 0.00000E+00
 -1       316 9.98310E-04-1.40368E-03-1.05879E-22
 -1       317 7.56524E-04-1.02515E-03 0.00000E+00
 -1       318 5.16405E-04-6.48411E-04 0.00000E+00
 -1       319 3.23545E-04-3.24441E-04-2.64698E-23
 -1       320 2.02012E-04-9.70981E-05 0.00000E+00
 -1       336 2.19432E-04-3.70697E-06 0.00000E+00
 -1       337 2.10219E-04-4.32291E-06-6.61744E-24
 -1       338 1.99501E-04-4.95290E-06 0.00000E+00
 -1       339 1.87332E-04-5.59722E-06 0.00000E+00
 -1       340 1.73772E-04-6.25888E-06 0.00000E+00
 -1       406 1.43476E-04 7.95990E-07 0.00000E+00
 -1       407 1.43739E-04 9.09625E-07 8.27181E-25
 -1       408 1.44036E-04 1.02318E-06-3.30872E-24
 -1       409 1.44369E-04 1.13652E-06 0.00000E+00
 -1       410 1.44736E-04 1.24943E-06 0.00000E+00
 -1       521 9.92269E-04-9.41110E-05 1.05879E-22
 -1       522 1.04967E-03-3.47828E-04 5.29396E-23
 -1       523 1.11691E-03-7.24249E-04 0.00000E+00
 -1       524 1.18316E-03-1.16722E-03 0.00000E+00
 -1       525 1.24958E-03-1.60305E-03-1.05879E-22
 -1       526 1.31621E-03-1.95880E-03 0.00000E+00
 -1       527 1.36920E-03-2.18217E-03-1.05879E-22
 -1       528 1.38308E-03-2.23848E-03 0.00000E+00
 -1       529 1.32882E-03-2.12799E-03 0.00000E+00
 -1       530 1.18722E-03-1.87341E-03 0.00000E+00
 -1       531 9.67108E-04-1.51918E-03 0.00000E+00
 -1       532 6.97415E-04-1.11346E-03-5.29396E-23
 -1       533 4.29145E-04-7.09176E-04 1.05879E-22
 -1       534 2.12920E-04-3.59309E-04 5.29396E-23
 -1       535 7.62501E-05-1.11602E-04 0.00000E+00
 -1       536 1.58444E-04 1.75801E-05 0.00000E+00
 -1       537 1.57434E-04 5.99629E-05 0.00000E+00
 -1       538 1.55915E-04 1.13636E-04 3.30872E-24
 -1       539 1.54147E-04 1.71953E-04 0.00000E+00
 -1       540 1.52556E-04 2.26921E-04 0.00000E+00
 -1       541 1.51504E-04 2.70567E-04 0.00000E+00
 -1       542 1.50988E-04 2.98079E-04 0.00000E+00
 -1       543 1.50816E-04 3.04747E-04 1.65436E-24
 -1       544 1.50579E-04 2.91218E-04 3.30872E-24
 -1       545 1.49909E-04 2.58279E-04-1.65436E-24
 -1       546 1.48736E-04 2.11787E-04-3.30872E-24
 -1       547 1.47195E-04 1.57681E-04 0.00000E+00
 -1       548 1.45678E-04 1.04066E-04 3.30872E-24
 -1       549 1.44571E-04 5.90457E-05 1.65436E-24
 -1       550 1.43969E-04 2.82916E-05-1.65436E-24
 -1       551 1.40698E-04-7.33992E-06 0.00000E+00
 -1       552 1.19821E-04-7.79816E-06 0.00000E+00
 -1       553 9.70965E-05-8.29279E-06-8.68540E-24
 -1       554 7.33769E-05-8.81086E-06 0.00000E+00
 -1       555 4.95151E-05-9.33463E-06-2.64698E-23
 -1       556 1.53586E-04 6.71434E-06 0.00000E+00
 -1       557 1.49362E-04 1.76189E-05 0.00000E+00
 -1       558 1.46109E-04 2.60112E-05 0.00000E+00
 -1       559 1.43729E-04 3.21334E-05 0.00000E+00
 -1       560 1.42122E-04 3.62278E-05 0.00000E+00
 -1       561 1.41191E-04 3.85383E-05 0.00000E+00
 -1       562 1.40842E-04 3.93097E-05 0.00000E+00
 -1       563 1.40978E-04 3.87872E-05 0.00000E+00
 -1       564 1.41507E-04 3.72164E-05 0.00000E+00
 -1       565 1.42336E-04 3.48436E-05 0.00000E+00
 -1       566 1.43372E-04 3.19150E-05 0.00000E+00
 -1       567 1.44523E-04 2.86771E-05 0.00000E+00
 -1       568 1.45697E-04 2.53767E-05 0.00000E+00
 -1       569 1.46803E-04 2.22601E-05 0.00000E+00
 -1       570 1.47749E-04 1.95738E-05 0.00000E+00
 -1       571 1.43852E-04 1.63512E-05-8.27181E-25
 -1       572 1.43936E-04 1.52646E-05 8.27181E-25
 -1       573 1.44022E-04 1.41376E-05-1.65436E-24
 -1       574 1.44107E-04 1.29821E-05-8.27181E-25
 -1       575 1.44193E-04 1.18106E-05 0.00000E+00
 -1       576 1.44279E-04 1.06351E-05 0.00000E+00
 -1       577 1.44365E-04 9.46793E-06 3.30872E-24
 -1       578 1.44450E-04 8.32142E-06 1.65436E-24
 -1       579 1.44536E-04 7.20780E-06-6.61744E-24
 -1       580 1.44622E-04 6.13935E-06 0.00000E+00
 -1       581 1.44708E-04 5.12835E-06 0.00000E+00
 -1       582 1.44794E-04 4.18702E-06 6.61744E-24
 -1       583 1.44880E-04 3.32764E-06 0.00000E+00
 -1       584 1.44966E-04 2.56232E-06-6.61744E-24
 -1       585 1.45052E-04 1.90306E-06 0.00000E+00
 -1       586 1.44496E-04 1.74166E-05 0.00000E+00
 -1       587 1.45195E-04 1.74469E-05-2.06795E-25
 -1       588 1.45901E-04 1.74769E-05 0.00000E+00
 -1       589 1.46653E-04 1.75064E-05 0.00000E+00
 -1       590 1.47489E-04 1.75348E-05 0.00000E+00
 -1       591 1.44108E-04 1.64162E-05 0.00000E+00
 -1       592 1.44454E-04 1.54227E-05 0.00000E+00
 -1       593 1.44806E-04 1.44111E-05 0.00000E+00
 -1       594 1.45162E-04 1.33864E-05-4.13590E-25
 -1       595 1.45522E-04 1.23536E-05 0.00000E+00
 -1       596 1.45883E-04 1.13176E-05 0.00000E+00
 -1       597 1.46242E-04 1.02836E-05-8.27181E-25
 -1       598 1.46600E-04 9.25642E-06 4.13590E-25
 -1       599 1.46953E-04 8.24111E-06 8.27181E-25
 -1       600 1.47299E-04 7.24263E-06 2.06795E-25
 -1       601 1.47638E-04 6.26598E-06 4.13590E-25
 -1       602 1.47966E-04 5.31612E-06-4.13590E-25
 -1       603 1.48283E-04 4.39806E-06 2.06795E-25
 -1       604 1.48586E-04 3.51686E-06 0.00000E+00
 -1       605 1.48874E-04 2.67743E-06 0.00000E+00
 -1       606 1.45151E-04 1.01137E-06 0.00000E+00
 -1       607 1.45161E-04 7.53310E-07 1.65436E-24
 -1       608 1.45171E-04 5.81328E-07 0.00000E+00
 -1       609 1.45180E-04 4.89373E-07 0.00000E+00
 -1       610 1.45189E-04 4.71350E-07 3.30872E-24
 -1       611 1.45198E-04 5.21087E-07 0.00000E+00
 -1       612 1.45207E-04 6.32406E-07 0.00000E+00
 -1       613 1.45215E-04 7.99125E-07 0.00000E+00
 -1       614 1.45224E-04 1.01506E-06 0.00000E+00
 -1       615 1.45233E-04 1.27402E-06 0.00000E+00
 -1       616 1.45242E-04 1.56982E-06-1.65436E-24
 -1       617 1.45251E-04 1.89628E-06 0.00000E+00
 -1       618 1.45259E-04 2.24721E-06 0.00000E+00
 -1       619 1.45268E-04 2.61642E-06-4.13590E-25
 -1       620 1.45277E-04 2.99774E-06 0.00000E+00
 -1       621 1.45634E-04 1.44862E-06-1.65436E-24
 -1       622 1.46225E-04 1.53664E-06-8.27181E-25
 -1       623 1.46891E-04 1.62458E-06-1.65436E-24
 -1       624 1.47614E-04 1.71233E-06-8.27181E-25
 -1       625 1.48372E-04 1.79990E-06-1.65436E-24
 -1       626 1.45366E-04 1.04205E-06 0.00000E+00
 -1       627 1.45569E-04 7.94858E-07 0.00000E+00
 -1       628 1.45747E-04 6.11551E-07 0.00000E+00
 -1       629 1.45905E-04 4.83972E-07 4.96308E-24
 -1       630 1.46045E-04 4.03953E-07 3.30872E-24
 -1       631 1.46170E-04 3.63289E-07-1.65436E-24
 -1       632 1.46283E-04 3.53777E-07-3.30872E-24
 -1       633 1.46388E-04 3.67211E-07 0.00000E+00
 -1       634 1.46488E-04 3.95390E-07-3.30872E-24
 -1       635 1.46585E-04 4.30109E-07 0.00000E+00
 -1       636 1.46682E-04 4.63167E-07 0.00000E+00
 -1       637 1.46783E-04 4.86358E-07 0.00000E+00
 -1       638 1.46891E-04 4.91475E-07-1.65436E-24
 -1       639 1.47009E-04 4.70303E-07 1.65436E-24
 -1       640 1.47139E-04 4.14622E-07 0.00000E+00
 -1       656 1.45120E-04 2.88588E-06 0.00000E+00
 -1       657 1.45351E-04 2.36669E-06 6.61744E-24
 -1       658 1.45839E-04 1.84892E-06 0.00000E+00
 -1       659 1.46438E-04 1.33153E-06 0.00000E+00
 -1       660 1.46976E-04 8.12544E-07 0.00000E+00
 -1       661 1.45225E-04 3.73561E-06 0.00000E+00
 -1       662 1.45197E-04 4.01146E-06 0.00000E+00
 -1       663 1.45196E-04 4.21612E-06 0.00000E+00
 -1       664 1.45220E-04 4.35443E-06 0.00000E+00
 -1       665 1.45267E-04 4.43061E-06-1.65436E-24
 -1       666 1.45336E-04 4.44897E-06 0.00000E+00
 -1       667 1.45425E-04 4.41360E-06-1.65436E-24
 -1       668 1.45533E-04 4.32851E-06 0.00000E+00
 -1       669 1.45658E-04 4.19758E-06-1.65436E-24
 -1       670 1.45799E-04 4.02457E-06-8.27181E-25
 -1       671 1.45954E-04 3.81317E-06 0.00000E+00
 -1       672 1.46122E-04 3.56691E-06 0.00000E+00
 -1       673 1.46302E-04 3.28934E-06 0.00000E+00
 -1       674 1.46491E-04 2.98360E-06 0.00000E+00
 -1       675 1.46690E-04 2.65344E-06 0.00000E+00
 -1       676 1.44952E-04 2.76238E-06 0.00000E+00
 -1       677 1.45341E-04 2.66936E-06 0.00000E+00
 -1       678 1.45730E-04 2.57639E-06-3.30872E-24
 -1       679 1.46118E-04 2.48369E-06-1.65436E-24
 -1       680 1.46506E-04 2.39101E-06 0.00000E+00
 -1       771 1.76724E-05 9.12535E-06 0.00000E+00
 -1       772 1.03115E-05 2.47180E-05 0.00000E+00
 -1       773 4.21314E-06 3.70797E-05 0.00000E+00
 -1       774-7.07911E-07 4.64006E-05 2.64698E-23
 -1       775-4.53559E-06 5.28767E-05 5.29396E-23
 -1       776-7.35721E-06 5.67150E-05 2.64698E-23
 -1       777-9.26039E-06 5.81282E-05 0.00000E+00
 -1       778-1.03347E-05 5.73379E-05 2.64698E-23
 -1       779-1.06697E-05 5.45706E-05 0.00000E+00
 -1       780-1.03564E-05 5.00602E-05 0.00000E+00
 -1       781-9.48588E-06 4.40443E-05 0.00000E+00
 -1       782-8.15011E-06 3.67662E-05 0.00000E+00
 -1       783-6.44094E-06 2.84720E-05 0.00000E+00
 -1       784-4.45113E-06 1.94115E-05 0.00000E+00
 -1       785-2.27301E-06 9.83646E-06 0.00000E+00
 -1       786 1.48484E-04 1.63679E-05 0.00000E+00
 -1       787 1.48528E-04 1.52226E-05 4.13590E-25
 -1       788 1.48571E-04 1.41164E-05 0.00000E+00
 -1       789 1.48615E-04 1.30417E-05-8.27181E-25
 -1       790 1.48659E-04 1.19941E-05 1.65436E-24
 -1       791 1.48703E-04 1.09690E-05-8.27181E-25
 -1       792 1.48748E-04 9.96434E-06 1.65436E-24
 -1       793 1.48792E-04 8.97804E-06 0.00000E+00
 -1       794 1.48836E-04 8.00986E-06 1.65436E-24
 -1       795 1.48881E-04 7.05964E-06 0.00000E+00
 -1       796 1.48925E-04 6.12905E-06 0.00000E+00
 -1       797 1.48970E-04 5.21976E-06-8.27181E-25
 -1       798 1.49014E-04 4.33566E-06-1.65436E-24
 -1       799 1.49058E-04 3.48068E-06 0.00000E+00
 -1       800 1.49103E-04 2.66170E-06 1.65436E-24
 -1       801 1.20026E-04 1.55048E-05 0.00000E+00
 -1       802 3.35187E-05 1.02131E-05 0.00000E+00
 -1       803-4.41144E-05 5.51606E-06 5.29396E-23
 -1       804-4.65668E-05 3.69476E-06 0.00000E+00
 -1       805-1.67088E-05 1.70747E-06 0.00000E+00
 -1       806 1.48792E-04 1.63104E-05-1.65436E-24
 -1       807 1.49127E-04 1.50873E-05-8.27181E-25
 -1       808 1.49449E-04 1.38950E-05 1.65436E-24
 -1       809 1.49759E-04 1.27365E-05 0.00000E+00
 -1       810 1.50054E-04 1.16147E-05 3.30872E-24
 -1       811 1.50335E-04 1.05326E-05 8.27181E-25
 -1       812 1.50600E-04 9.49300E-06-3.30872E-24
 -1       813 1.50848E-04 8.49888E-06 8.27181E-25
 -1       814 1.51077E-04 7.55308E-06-3.30872E-24
 -1       815 1.51288E-04 6.65848E-06-8.27181E-25
 -1       816 1.51478E-04 5.81796E-06 1.65436E-24
 -1       817 1.51647E-04 5.03436E-06 8.27181E-25
 -1       818 1.51794E-04 4.31056E-06-1.65436E-24
 -1       819 1.51917E-04 3.64940E-06-8.27181E-25
 -1       820 1.52017E-04 3.05371E-06-3.30872E-24
 -1       821 1.49037E-04 1.02638E-06 0.00000E+00
 -1       822 1.48920E-04-4.05056E-08 0.00000E+00
 -1       823 1.48804E-04-1.18850E-06 0.00000E+00
 -1       824 1.48686E-04-2.29072E-06 1.65436E-24
 -1       825 1.48568E-04-3.23132E-06-3.30872E-24
 -1       826 1.48450E-04-3.89531E-06-1.65436E-24
 -1       827 1.48332E-04-4.23387E-06 0.00000E+00
 -1       828 1.48214E-04-4.19993E-06 0.00000E+00
 -1       829 1.48096E-04-3.83552E-06-3.30872E-24
 -1       830 1.47979E-04-3.18442E-06 0.00000E+00
 -1       831 1.47860E-04-2.35899E-06-3.30872E-24
 -1       832 1.47743E-04-1.47251E-06 1.65436E-24
 -1       833 1.47625E-04-6.52919E-07 3.30872E-24
 -1       834 1.47509E-04-2.77472E-08 0.00000E+00
 -1       835 1.47392E-04 3.21827E-07 0.00000E+00
 -1       836 1.49818E-04 1.99216E-06-3.30872E-24
 -1       837 1.50376E-04 2.10114E-06 0.00000E+00
 -1       838 1.50852E-04 2.20999E-06 3.30872E-24
 -1       839 1.51276E-04 2.31818E-06 0.00000E+00
 -1       840 1.51679E-04 2.42619E-06 0.00000E+00
 -1       856 1.47262E-04 1.97649E-07 0.00000E+00
 -1       857 1.47238E-04 2.01321E-07-5.16988E-26
 -1       858 1.47214E-04 3.08047E-07-4.13590E-25
 -1       859 1.47190E-04 4.98673E-07-4.13590E-25
 -1       860 1.47165E-04 7.53940E-07-8.27181E-25
 -1       861 1.47140E-04 1.05455E-06 0.00000E+00
 -1       862 1.47116E-04 1.38115E-06 8.27181E-25
 -1       863 1.47091E-04 1.71438E-06 4.13590E-25
 -1       864 1.47067E-04 2.03485E-06 8.27181E-25
 -1       865 1.47042E-04 2.32321E-06 0.00000E+00
 -1       866 1.47017E-04 2.56011E-06-8.27181E-25
 -1       867 1.46992E-04 2.72626E-06-4.13590E-25
 -1       868 1.46968E-04 2.80246E-06 0.00000E+00
 -1       869 1.46943E-04 2.76954E-06 0.00000E+00
 -1       870 1.46918E-04 2.60848E-06 0.00000E+00
 -1       871 1.47650E-04 3.13814E-07 0.00000E+00
 -1       872 1.48145E-04 3.08731E-07 0.00000E+00
 -1       873 1.48711E-04 3.03109E-07 4.13590E-25
 -1       874 1.49290E-04 2.96848E-07 1.55096E-25
 -1       875 1.49824E-04 2.90041E-07 2.06795E-25
 -1       876 1.47439E-04 2.09847E-07 3.30872E-24
 -1       877 1.47576E-04 1.63256E-07 0.00000E+00
 -1       878 1.47694E-04 1.69163E-07 0.00000E+00
 -1       879 1.47794E-04 2.20933E-07-1.65436E-24
 -1       880 1.47880E-04 3.11878E-07 0.00000E+00
 -1       881 1.47954E-04 4.35360E-07 0.00000E+00
 -1       882 1.48018E-04 5.84749E-07-3.30872E-24
 -1       883 1.48075E-04 7.53426E-07 0.00000E+00
 -1       884 1.48127E-04 9.34775E-07-3.30872E-24
 -1       885 1.48177E-04 1.12219E-06 0.00000E+00
 -1       886 1.48226E-04 1.30904E-06-3.30872E-24
 -1       887 1.48279E-04 1.48871E-06 0.00000E+00
 -1       888 1.48336E-04 1.65456E-06 0.00000E+00
 -1       889 1.48401E-04 1.79985E-06-1.65436E-24
 -1       890 1.48475E-04 1.91797E-06-1.65436E-24
 -1       891 1.47300E-04 2.25010E-06 0.00000E+00
 -1       892 1.47687E-04 2.19971E-06 0.00000E+00
 -1       893 1.48029E-04 2.14936E-06 8.27181E-25
 -1       894 1.48304E-04 2.09918E-06 4.13590E-25
 -1       895 1.48487E-04 2.04914E-06 4.13590E-25
 -1       956 1.51979E-04 2.14197E-06 1.65436E-24
 -1       957 1.51865E-04 1.83180E-06 1.65436E-24
 -1       958 1.51750E-04 1.58728E-06-3.30872E-24
 -1       959 1.51635E-04 1.39944E-06 0.00000E+00
 -1       960 1.51520E-04 1.25929E-06 0.00000E+00
 -1       961 1.51405E-04 1.15779E-06-1.65436E-24
 -1       962 1.51290E-04 1.08592E-06 3.30872E-24
 -1       963 1.51174E-04 1.03462E-06 0.00000E+00
 -1       964 1.51059E-04 9.94844E-07 0.00000E+00
 -1       965 1.50944E-04 9.57553E-07 1.65436E-24
 -1       966 1.50829E-04 9.13694E-07 0.00000E+00
 -1       967 1.50714E-04 8.54222E-07 0.00000E+00
 -1       968 1.50599E-04 7.70096E-07 0.00000E+00
 -1       969 1.50484E-04 6.52303E-07 0.00000E+00
 -1       970 1.50369E-04 4.91846E-07 3.30872E-24
 -1       971 1.50151E-04 7.86177E-08-1.65436E-24
 -1       972 1.50045E-04-3.47556E-08 8.27181E-25
 -1       973 1.49938E-04-6.97571E-08-3.30872E-24
 -1       974 1.49832E-04-3.64878E-08 0.00000E+00
 -1       975 1.49725E-04 5.49598E-08 0.00000E+00
 -1       976 1.49618E-04 1.94456E-07 0.00000E+00
 -1       977 1.49511E-04 3.71869E-07 0.00000E+00
 -1       978 1.49404E-04 5.77053E-07 0.00000E+00
 -1       979 1.49297E-04 7.99860E-07-3.30872E-24
 -1       980 1.49190E-04 1.03014E-06 0.00000E+00
 -1       981 1.49084E-04 1.25774E-06 0.00000E+00
 -1       982 1.48977E-04 1.47250E-06 0.00000E+00
 -1       983 1.48870E-04 1.66428E-06 3.30872E-24
 -1       984 1.48764E-04 1.82295E-06 0.00000E+00
 -1       985 1.48658E-04 1.93836E-06-1.65436E-24
 -3
    1PSTEP                        24          12           1          
  100CL  112 5.96191E-01         409                     0   12           1
 -4  STRESS      6    1
 -5  SXX         1    4    1    1
 -5  SYY         1    4    2    2
 -5  SZZ         1    4    3    3
 -5  SXY         1    4    1    2
 -5  SYZ         1    4    2    3
 -5  SZX         1    4    3    1
 -1         1-3.48287E+06-1.35950E+06-7.59572E+05-1.46442E+06 1.96451E-10-7.60483E-08
 -1         2 1.32728E+03-1.36139E+06 4.37556E+03 6.28989E+03 2.01823E-10 1.18584E-07
 -1         3-6.09273E+02-1.45220E+06 5.33997E+02-1.34054E+03-3.95573E-10-6.88669E-09
 -1         5-9.49917E+00 3.25447E+05 8.32615E+00-3.22620E-01-1.57897E-10 2.12203E-08
 -1         8-8.69946E+05-2.98366E+05-8.60687E+04-3.72935E+05-2.91038E-11 7.94535E-09
 -1         9 2.09050E+06-7.19350E+05 4.30714E+05-8.48281E+05 1.97615E-08-1.93948E-08
 -1        10-2.82923E+03-1.54713E+06-3.99088E+03-9.88554E+03-3.75076E-09-3.86493E-08
 -1        12-6.09577E+00 3.25464E+05 2.70085E+02-2.36342E+00-2.85564E-10 3.15049E-09
 -1        15 1.55979E+03 8.57193E+02 5.04201E+03 2.77388E+00-1.34776E-10-3.98454E-08
 -1        16 6.25772E+06-5.63209E+05 9.01656E+05-1.07808E+06 9.85650E-09 4.97093E-08
 -1        17 2.00798E+06 1.29415E+06 5.75924E+05 1.40486E+06 1.90397E-08 1.06462E-08
 -1        18 4.18047E+04 6.51668E+03-1.56707E+04-9.45474E+04 1.06095E-08 3.84262E-09
 -1        19 1.04404E+05 1.20122E+05-8.45999E+02 1.98872E+04 6.01904E-10-6.46542E-09
 -1        20-6.05666E+04-4.92480E+05-1.09827E+05 2.70953E+04 8.57199E-10-9.31201E-09
 -1        21-4.25548E+01-2.66199E+05-8.42131E+02 7.11363E+01 3.33900E-09-3.60133E-08
 -1        24 2.95856E+06 3.05502E+06 1.08500E+06 2.69890E+06-9.89870E-08-3.84559E-08
 -1        25-4.04499E+04-3.43101E+05-5.61730E+04-3.06100E+05-1.13537E-09 7.97518E-09
 -1        26-4.33977E+04 7.79459E+04-2.06340E+04-2.34039E+03 9.21864E-10 4.78713E-09
 -1        27-6.95148E+04-2.67325E+05-9.88105E+04 5.99931E+04 4.87929E-09-5.76832E-09
 -1        28 2.02964E+04-7.55005E+04 1.51456E+04 2.04600E+04-5.30036E-10-4.51952E-09
 -1        32-1.49470E+06-2.56163E+06-1.22580E+05-1.45133E+05-3.11702E-08-5.22027E-09
 -1        33-1.55799E+05 7.82215E+04 2.76972E+04-3.52267E+04-8.08958E-10 8.79481E-10
 -1        34-1.95734E+05-2.07134E+04 5.53178E+02 6.36899E+04-9.13478E-10-7.78118E-09
 -1        35-2.07685E+04-2.99704E+04-1.18689E+03 4.63538E+04 6.59128E-10-1.44852E-08
 -1        51 3.73620E+04-2.67778E+05 8.32577E+04-7.70570E+05-1.45519E-11 3.25381E-08
 -1        52 1.49643E+04-2.56338E+05 4.68048E+04-8.98490E+05 1.23691E-10-5.20376E-08
 -1        53 5.83248E+03-2.71153E+05 2.93266E+04-7.67790E+05 1.23691E-10-2.91475E-08
 -1        54 1.48188E+04-2.68380E+05 3.41035E+04-9.01385E+05-1.23691E-10 4.16185E-09
 -1        55 3.03079E+04-2.79628E+05 5.31591E+04-7.67365E+05 6.91216E-10 1.13836E-07
 -1        56-6.61069E+06-7.42393E+05-5.60916E+05-2.57130E+06-2.12458E-09-8.85339E-08
 -1        57-6.90750E+06-1.18006E+06-3.78410E+05-2.46739E+06-7.27596E-10 7.27014E-08
 -1        58-6.71022E+06-9.33814E+05-1.31821E+05-2.55076E+06 2.98314E-09 8.03921E-08
 -1        59-6.79531E+06-9.52462E+05-7.86546E+04-2.48874E+06-1.10322E-08 6.84486E-09
 -1        60-6.72125E+06-9.63886E+05-3.06891E+04-2.55191E+06-9.88621E-10 3.25817E-08
 -1        61-6.77953E+06-9.20071E+05-1.74169E+04-2.49063E+06 4.92906E-09-4.15412E-08
 -1        62-6.72565E+06-9.65372E+05-8.32509E+03-2.54909E+06-1.32467E-08 4.30555E-08
 -1        63-6.76659E+06-9.26531E+05-6.70762E+03-2.50241E+06 4.01997E-09 5.99978E-08
 -1        64-6.73390E+06-9.57486E+05-7.67016E+03-2.53998E+06-2.95904E-09 4.37502E-08
 -1        65-6.74911E+06-9.48611E+05-1.51337E+04-2.52347E+06-3.91265E-09-7.74066E-08
 -1        66-6.74298E+06-9.43507E+05-2.67178E+04-2.52786E+06-8.76389E-09-9.12678E-09
 -1        67-6.74435E+06-9.95173E+05-6.78834E+04-2.54335E+06 9.23683E-09 4.89163E-08
 -1        68-6.73910E+06-9.11553E+05-1.13863E+05-2.52001E+06-3.23053E-09 1.69675E-08
 -1        69-6.83937E+06-1.19444E+06-3.26792E+05-2.52879E+06-9.73705E-09 9.53150E-08
 -1        70-6.64990E+06-7.49217E+05-4.84379E+05-2.54111E+06-9.82254E-10-7.07223E-09
 -1        86-6.87625E+02-1.36423E+06 4.38287E+03-3.14495E+03-1.78795E-09-3.59634E-08
 -1        87 4.33548E+03-1.36042E+06 9.46394E+03 1.10150E+04-3.19665E-09 8.62057E-08
 -1        88-3.65001E+03-1.36524E+06 1.43309E+04-7.87009E+03-3.42607E-09 9.03403E-08
 -1        89 2.71263E+04-1.35045E+06 3.86788E+04 1.65494E+04-5.22459E-09-1.20357E-08
 -1        90-2.33560E+04-1.37422E+06 5.46865E+04-8.67973E+03-3.29237E-09 2.20267E-08
 -1       121-8.78874E+02-1.45440E+06 1.99816E+02 6.67581E+02 8.10473E-10-2.88383E-08
 -1       122-4.17213E+02-1.45214E+06 1.12779E+03-2.67787E+03-3.73809E-09 1.09303E-08
 -1       123-9.76073E+02-1.45454E+06 1.50695E+03 1.99435E+03 2.85308E-09 1.33332E-08
 -1       124 1.69922E+03-1.45104E+06 4.63237E+03-5.63107E+03-6.50698E-09 2.05619E-08
 -1       125-2.25915E+03-1.45573E+06 6.79656E+03 3.61070E+03 4.44561E-09-8.66567E-09
 -1       191-1.02472E+01 3.25474E+05 9.77601E+00 1.62717E-01-1.88654E-10 1.44919E-08
 -1       192-1.02667E+01 3.25447E+05 1.76370E+01-1.21454E+00-2.57552E-10 4.93856E-09
 -1       193-1.22864E+01 3.25473E+05 3.26280E+01 1.06113E+00-4.16929E-10 4.08363E-10
 -1       194-1.27359E+01 3.25450E+05 6.67292E+01-2.82472E+00-2.45796E-10-1.07116E-08
 -1       195-1.62046E+01 3.25471E+05 1.30351E+02 1.78699E+00-5.54266E-10-1.52759E-08
 -1       251-1.85843E+06-1.10364E+04-1.40879E+05-1.04849E+05 1.67347E-09-8.19709E-08
 -1       252-1.30490E+06 1.52228E+04 1.48898E+04 3.22782E+05-4.79713E-09 1.93709E-08
 -1       253-1.60821E+06-7.16886E+03-2.55744E+04-2.16260E+05-5.82986E-09 6.06451E-08
 -1       254-1.56145E+06 3.52951E+04 1.99661E+03 4.27080E+05 4.26553E-09 2.20205E-08
 -1       255-1.62766E+06-1.01132E+04-1.44620E+04-2.10976E+05-1.35515E-09-5.40203E-08
 -1       256-1.25543E+06 2.95566E+04 6.65869E+04 3.02361E+05-1.31408E-08 5.40490E-09
 -1       257-1.88436E+06-2.56763E+04-6.62159E+04-8.95508E+04-8.91123E-09-3.30272E-08
 -1       258-9.77351E+05 2.28640E+04 1.19987E+05-5.12304E+03 1.17097E-08-4.44904E-08
 -1       259-1.87847E+06-2.55360E+04-6.35755E+04 9.51950E+04-9.82072E-09-2.65434E-08
 -1       260-1.26853E+06 3.13082E+04 6.79871E+04-3.08985E+05 1.63168E-08-1.03578E-08
 -1       261-1.62179E+06-1.09160E+04-6.00637E+03 2.13158E+05 3.23898E-08-1.79148E-08
 -1       262-1.55812E+06 4.38537E+04 1.94638E+04-4.26710E+05-2.76597E-08-6.63664E-08
 -1       263-1.61745E+06-1.48489E+04 1.37405E+03 2.14879E+05 5.98266E-09 8.62610E-09
 -1       264-1.26639E+06 6.90490E+04 9.43156E+04-3.16399E+05 9.81277E-08-8.78913E-08
 -1       265-1.88632E+06-5.80830E+04-3.30800E+04 1.00946E+05 3.72947E-08 3.13212E-08
 -1       266-2.82371E+04-1.32030E+04 6.62554E+04-5.93550E+01-1.30967E-10-2.05520E-08
 -1       267 3.27349E+04 1.53894E+04 4.68267E+04 6.84806E+01 5.54792E-11-4.02102E-08
 -1       268-4.38967E+03-2.17951E+03 1.74054E+04-8.72581E+00 1.06411E-10 4.29613E-08
 -1       269 5.18293E+03 2.60847E+03 1.13131E+04 1.01641E+01-1.45519E-10-1.29201E-07
 -1       270-7.77965E+02-4.28590E+02 5.46101E+03-1.37934E+00 1.88720E-10 4.78021E-08
 -1       271-2.58298E+06-3.17461E+05-1.93594E+05-9.98037E+05 4.24552E-09 4.58895E-08
 -1       272-2.68363E+06-4.28665E+05-1.24633E+05-9.62085E+05-8.22138E-09-5.43605E-08
 -1       273-2.61882E+06-3.66509E+05-4.57054E+04-9.90058E+05 5.11886E-09 1.62490E-08
 -1       274-2.64106E+06-3.68968E+05-2.56292E+04-9.74362E+05-5.87693E-09 1.03100E-07
 -1       275-2.62438E+06-3.71092E+05-1.06556E+04-9.87931E+05 1.11827E-08 3.47936E-08
 -1       276-2.63328E+06-3.64577E+05-5.61741E+03-9.78327E+05-1.49157E-09 2.23281E-08
 -1       277-2.62636E+06-3.70354E+05-2.78610E+03-9.86225E+05-4.59386E-09 7.23535E-08
 -1       278-2.62966E+06-3.66797E+05-1.87310E+03-9.81751E+05-4.56384E-09-8.38645E-09
 -1       279-2.62791E+06-3.68867E+05-2.00830E+03-9.84473E+05-6.94854E-10-7.15918E-08
 -1       280-2.62687E+06-3.70234E+05-3.41917E+03-9.85210E+05-2.97905E-09 7.30342E-08
 -1       281-2.62914E+06-3.66950E+05-6.30000E+03-9.82751E+05-3.61069E-09 3.03485E-08
 -1       282-2.62678E+06-3.77344E+05-1.48834E+04-9.88143E+05-4.11546E-09-9.09398E-09
 -1       283-2.62812E+06-3.62086E+05-2.65631E+04-9.81455E+05-3.43425E-09-6.35100E-09
 -1       284-2.64725E+06-4.16194E+05-7.22681E+04-9.85912E+05-1.66101E-08-1.17984E-07
 -1       285-2.60938E+06-3.31629E+05-1.12349E+05-9.83768E+05 5.35147E-09-5.33473E-08
 -1       301 2.09888E+04-2.89982E+05 1.73248E+05-5.36140E+05 5.31145E-10 2.40725E-08
 -1       302 2.25246E+04-2.46449E+05 1.08798E+05-7.84382E+05-9.93168E-10 5.63477E-08
 -1       303-6.63146E+02-2.73555E+05 7.40920E+04-5.34916E+05 4.80213E-10-4.17040E-08
 -1       304 1.74564E+04-2.47279E+05 9.64786E+04-7.83824E+05 4.54747E-10 4.44707E-08
 -1       305 1.45045E+04-2.83192E+05 1.45578E+05-5.36719E+05 2.80124E-10 2.60479E-08
 -1       306-1.48822E+07-2.51414E+06-3.30583E+06-1.95765E+06-5.21541E-08-1.64728E-08
 -1       307 7.04540E+06-1.18446E+06 1.85090E+06-6.78951E+06-4.71118E-07 1.21508E-08
 -1       308-8.08385E+06 2.56336E+05-3.35830E+05 1.56442E+06-5.22414E-08 1.84315E-07
 -1       309-3.25500E+06-5.68419E+05 5.59383E+05-1.12283E+07 1.60202E-07-8.36735E-10
 -1       310-8.64425E+06 1.54135E+05-4.07264E+05 1.41356E+06-5.97793E-08-8.95216E-08
 -1       311 8.31971E+06-1.56140E+06 2.23902E+06-5.79032E+06 3.28029E-07-1.31258E-08
 -1       312-1.49980E+07-2.50601E+06-2.76648E+06-2.52512E+06 9.53441E-08 5.84550E-08
 -1       313 1.33508E+07 2.82782E+06 3.71426E+06 5.39854E+06-1.91620E-07 9.73741E-08
 -1       314-1.11691E+07-5.92754E+06-2.65884E+06-6.09745E+06 2.47557E-07-1.30472E-07
 -1       315-3.23437E+06 8.97872E+06 2.07929E+06 4.88485E+06-2.54855E-07 8.26549E-09
 -1       316-2.76966E+06-5.20219E+06-2.76776E+05-4.34210E+06-5.91011E-07-2.76181E-07
 -1       317-1.32320E+07 9.37792E+06 5.42595E+05-5.54882E+05 4.87031E-07-3.60251E-07
 -1       318-3.00469E+06-5.31230E+06-4.89342E+05-4.41409E+06-4.61121E-07 3.91010E-08
 -1       319-2.40303E+06 9.21096E+06 1.94252E+06 5.06616E+06-7.64849E-08 7.50442E-08
 -1       320-1.16225E+07-6.14361E+06-3.51765E+06-6.00705E+06 1.09605E-07-2.61534E-08
 -1       336 1.14828E+03-1.64223E+06-1.46609E+04 6.22275E+03-6.66660E-09 1.04519E-08
 -1       337-5.62254E+03-1.64450E+06-1.65605E+04-1.52515E+04-5.46788E-09 9.27685E-09
 -1       338 9.39148E+02-1.64244E+06-2.22830E+04 8.93805E+03-8.37281E-09 1.18671E-08
 -1       339-2.37116E+04-1.65638E+06-4.91498E+04-2.05465E+04-6.25641E-09 9.65338E-09
 -1       340 1.63875E+04-1.63144E+06-7.59404E+04 1.14547E+04-9.47330E-09 1.59889E-08
 -1       406 1.43629E+01 3.25459E+05 5.33026E+02 6.11103E-01-6.68820E-10-5.71526E-09
 -1       407 1.79835E+02 3.25558E+05 1.13323E+03 8.98415E+00-2.00032E-10-2.98242E-08
 -1       408 5.77134E+02 3.25377E+05 2.26304E+03-9.84507E+00-9.29589E-10-4.06726E-09
 -1       409 2.44151E+03 3.26281E+05 5.09501E+03 9.98571E+01-2.13589E-10-5.68434E-09
 -1       410 7.02575E+03 3.24733E+05 1.04010E+04-9.49039E+01-1.14414E-09-1.71808E-08
 -1       521-1.69938E+07-3.20080E+06-4.10322E+06-2.01169E+06-3.72529E-08-4.55184E-08
 -1       522 7.75515E+06-1.28189E+06 1.99039E+06-8.77124E+06-3.34476E-07-7.53134E-08
 -1       523-9.44537E+06 1.64744E+05-3.93658E+05 1.92283E+06 2.74158E-08-1.33020E-07
 -1       524-4.94805E+06 1.76707E+05 6.61566E+05-1.38575E+07 3.63782E-07-4.60688E-07
 -1       525-1.01196E+07 6.08113E+03-4.84758E+05 1.74578E+06 3.98606E-07-2.07319E-07
 -1       526 9.54596E+06-1.78232E+06 2.52651E+06-7.49133E+06 9.08040E-08-9.27903E-08
 -1       527-1.71701E+07-3.27558E+06-3.38122E+06-2.69376E+06-1.72120E-07-8.01519E-08
 -1       528 1.56432E+07 3.19534E+06 4.14692E+06 6.49559E+06 1.20373E-07-1.07262E-07
 -1       529-1.27005E+07-7.27590E+06-3.24648E+06-6.83266E+06-7.44476E-08-5.30854E-08
 -1       530-4.67210E+06 1.12489E+07 2.35652E+06 5.49065E+06-1.94414E-07 3.09577E-07
 -1       531-3.19369E+06-6.33293E+06-3.16522E+05-5.00398E+06-5.52740E-07 1.66474E-07
 -1       532-1.63978E+07 1.16007E+07 6.65204E+05-1.75970E+06 1.82015E-07-3.28899E-07
 -1       533-3.40388E+06-6.44121E+06-5.37207E+05-5.05695E+06-1.82190E-08-6.13421E-07
 -1       534-3.85553E+06 1.15577E+07 2.20146E+06 5.65614E+06-1.05079E-07 4.42669E-07
 -1       535-1.31598E+07-7.56890E+06-4.18759E+06-6.72507E+06 2.37487E-08 2.76879E-07
 -1       536-5.43881E+05-3.57316E+04 6.28346E+03-3.34163E+04-2.33058E-09 4.50873E-08
 -1       537-2.12062E+05 3.65752E+04 6.21165E+04 8.08139E+04-8.71880E-08 7.22448E-08
 -1       538-3.85074E+05-1.71551E+02 9.66620E+03-4.92463E+04 2.79759E-08 6.89406E-08
 -1       539-3.22321E+05 3.20515E+03 1.69380E+04 9.27347E+04 1.10179E-07 6.92039E-08
 -1       540-4.36222E+05-2.45901E+02-8.59643E+03-4.55151E+04 1.09824E-08 6.98502E-08
 -1       541-1.13879E+05 8.65235E+03 5.43173E+04 6.11613E+04-1.05524E-08 6.94556E-08
 -1       542-5.87928E+05-1.02229E+04-4.18536E+04-1.73752E+04 1.51540E-08 1.65243E-08
 -1       543 1.26245E+04 1.36849E+04 7.86210E+04-9.80324E+03-1.45174E-08-1.37018E-08
 -1       544-5.59362E+05-8.03759E+03-3.70332E+04 2.52112E+04-6.52199E-09-3.16275E-08
 -1       545-1.79187E+05 4.08603E+03 3.79668E+04-7.41430E+04-2.15257E-08-6.27397E-08
 -1       546-4.01213E+05 3.55651E+03-6.87342E+03 4.68568E+04 2.80102E-09-5.35866E-08
 -1       547-3.34079E+05-4.39467E+03 1.44953E+03-9.49841E+04-9.42316E-08-6.18539E-08
 -1       548-4.08574E+05 3.82307E+03-1.74838E+04 4.62883E+04-8.34282E-08-7.12917E-08
 -1       549-1.66474E+05-2.53843E+03 1.58408E+04-7.11229E+04-4.87363E-08-6.02286E-08
 -1       550-5.64272E+05-2.04930E+03-8.56541E+04 2.27435E+04 2.31921E-09-1.22218E-08
 -1       551 2.89995E+04-7.11482E+05 1.30417E+04-1.11201E+06-7.35527E-08-9.70613E-09
 -1       552 6.45256E+04-7.36633E+05 2.60824E+04-1.58516E+06-5.21977E-08 2.56987E-08
 -1       553 4.77971E+04-7.39139E+05 4.27103E+04-1.10706E+06-8.75589E-08 1.85537E-08
 -1       554 9.61921E+04-7.41398E+05 9.33189E+04-1.58699E+06-5.56756E-08 1.23100E-08
 -1       555 7.70373E+04-7.60005E+05 1.66560E+05-1.10753E+06-8.88176E-08-9.68066E-09
 -1       556 1.58768E+05-2.83257E+05 5.69351E+04-3.29213E+05-1.98779E-08-1.55997E-08
 -1       557 2.64209E+05-3.67944E+05 3.10815E+04-4.19498E+05 1.16415E-09 4.64388E-09
 -1       558 1.50370E+05-2.86044E+05 1.07178E+04-3.26021E+05-1.16124E-08-4.38013E-09
 -1       559 2.45445E+05-3.73929E+05 6.00589E+03-4.31685E+05 1.49012E-08-1.47193E-08
 -1       560 1.41881E+05-2.80654E+05 1.39658E+03-3.31936E+05 4.59841E-09 8.93124E-09
 -1       561 2.34325E+05-3.69812E+05 1.15745E+03-4.39067E+05-1.16415E-10 1.44537E-08
 -1       562 1.35193E+05-2.76428E+05-1.32992E+02-3.36743E+05-1.39698E-09-4.57840E-09
 -1       563 2.26438E+05-3.66376E+05 2.68559E+02-4.44170E+05-4.36557E-09-2.70520E-08
 -1       564 1.30593E+05-2.73542E+05-1.22353E+02-3.39992E+05 8.87667E-09 2.33422E-09
 -1       565 2.21514E+05-3.64234E+05 1.09239E+02-4.47302E+05 1.97906E-09 6.43831E-09
 -1       566 1.28159E+05-2.71993E+05-5.97158E+01-3.41698E+05-4.60932E-09 3.71983E-09
 -1       567 2.19540E+05-3.63368E+05-1.63305E+02-4.48450E+05 1.26565E-08 9.96442E-09
 -1       568 1.27949E+05-2.71878E+05-6.18602E+02-3.41939E+05-2.36469E-11 3.26690E-09
 -1       569 2.19443E+05-3.63332E+05-1.55709E+03-4.46733E+05-1.60071E-10 1.43918E-08
 -1       570 1.30823E+05-2.74381E+05-3.52090E+03-3.41286E+05 2.57569E-09-4.36376E-09
 -1       571 2.46317E+05 8.99263E+03 1.31076E+04-7.05731E+04 2.87127E-09-6.59838E-09
 -1       572 2.48245E+05 3.24253E+03 6.42267E+03-7.74190E+04 7.25322E-10 3.24189E-09
 -1       573 2.47088E+05 8.86307E+02 2.85359E+03-7.04278E+04 2.25482E-08 3.98950E-09
 -1       574 2.47301E+05 4.09081E+02 1.43037E+03-7.75932E+04 4.19723E-08-1.51922E-08
 -1       575 2.47174E+05 1.86604E+02 6.74801E+02-7.04082E+04 1.90994E-08 5.48607E-09
 -1       576 2.47179E+05 1.76906E+02 3.44807E+02-7.76164E+04-6.85213E-09 8.98581E-10
 -1       577 2.47199E+05 1.42299E+02 1.71730E+02-7.04056E+04-2.21962E-09-4.22006E-10
 -1       578 2.47185E+05 1.54784E+02 9.78627E+01-7.76195E+04 2.44427E-09-1.12032E-08
 -1       579 2.47236E+05 1.25728E+02 6.63724E+01-7.04054E+04 3.85262E-09-3.23780E-10
 -1       580 2.47237E+05 1.30305E+02 7.41956E+01-7.76155E+04-4.20914E-09-1.92631E-09
 -1       581 2.47295E+05 9.83198E+01 1.11974E+02-7.04097E+04 6.44650E-09-1.18926E-08
 -1       582 2.47335E+05 1.23484E+02 2.24464E+02-7.75702E+04 3.71983E-09-2.50793E-09
 -1       583 2.47364E+05 1.57906E+02 4.33732E+02-7.04509E+04 6.85759E-10 6.35532E-09
 -1       584 2.47582E+05 5.06059E+02 9.77729E+02-7.72244E+04 1.12868E-09-1.25146E-09
 -1       585 2.47337E+05 1.35284E+03 1.98454E+03-7.07555E+04 1.49157E-10-8.29823E-09
 -1       586-3.03068E+03 8.75241E+04-3.29385E+03-2.17773E+05-3.08910E-09-5.68468E-09
 -1       587-8.91626E+02 8.71574E+04 1.90315E+02-2.39698E+05-2.35195E-09-3.99859E-08
 -1       588 6.53306E+02 8.71253E+04 3.70778E+03-2.17667E+05-2.95404E-09-1.80180E-08
 -1       589 4.56653E+03 8.91008E+04 1.00277E+04-2.39459E+05-5.68252E-09-2.45564E-09
 -1       590 1.39948E+04 8.60227E+04 2.11963E+04-2.18041E+05-3.04135E-09 6.17911E-09
 -1       591-5.48748E+04-1.30714E+04-1.79000E+04-2.50089E+04 7.17591E-10 1.59826E-08
 -1       592-5.76686E+04-1.63526E+04-9.69585E+03-2.84067E+04 5.51336E-09 2.10821E-09
 -1       593-5.66689E+04-1.17684E+04-4.03607E+03-2.63175E+04 4.66679E-09-8.81801E-09
 -1       594-5.51909E+04-1.37328E+04-2.01295E+03-2.85084E+04 2.34991E-10-6.47486E-09
 -1       595-5.68059E+04-1.17638E+04-9.24452E+02-2.63771E+04 2.38788E-09 1.24955E-08
 -1       596-5.50218E+04-1.36129E+04-4.70309E+02-2.84889E+04 2.58337E-09 8.16090E-09
 -1       597-5.68231E+04-1.17758E+04-2.56845E+02-2.63793E+04 1.97119E-09 1.30382E-09
 -1       598-5.50052E+04-1.36083E+04-2.07850E+02-2.84835E+04-5.42786E-09-4.66116E-09
 -1       599-5.68219E+04-1.17761E+04-2.67217E+02-2.63790E+04-5.34078E-09-1.74764E-08
 -1       600-5.50223E+04-1.36138E+04-4.97772E+02-2.84876E+04 9.74990E-09 1.58366E-09
 -1       601-5.68015E+04-1.17643E+04-9.82700E+02-2.63759E+04-3.53339E-10 4.33090E-09
 -1       602-5.52020E+04-1.37407E+04-2.14206E+03-2.85053E+04-6.91307E-09-2.22553E-09
 -1       603-5.66535E+04-1.17716E+04-4.29591E+03-2.63130E+04-3.03089E-09 5.73300E-09
 -1       604-5.78530E+04-1.65137E+04-1.03196E+04-2.83773E+04 3.16356E-09 1.43266E-08
 -1       605-5.47276E+04-1.31726E+04-1.90517E+04-2.49355E+04 1.01454E-09 7.64885E-09
 -1       606 2.71094E+04-1.19255E+04-2.14123E+04 2.55643E+04 1.47884E-09-5.70071E-09
 -1       607 2.34474E+04-3.87718E+03-1.06627E+04 2.87101E+04-6.52108E-10-6.44013E-09
 -1       608 2.55293E+04-6.82894E+02-4.77412E+03 2.53698E+04-6.05723E-10-3.27873E-09
 -1       609 2.51234E+04-2.13085E+02-2.41149E+03 2.89361E+04 1.22236E-09-1.74123E-09
 -1       610 2.53441E+04-8.97513E+00-1.15118E+03 2.53475E+04 2.05728E-09-6.24709E-09
 -1       611 2.52746E+04-2.12419E+00-5.80397E+02 2.89607E+04 1.58843E-09-3.11206E-09
 -1       612 2.52987E+04 6.27413E+00-2.76587E+02 2.53453E+04-4.96584E-10 9.02446E-09
 -1       613 2.52779E+04 4.83001E+00-1.24491E+02 2.89636E+04-2.11367E-09 1.39594E-08
 -1       614 2.52754E+04 4.04326E+00-3.08706E+01 2.53445E+04-1.53523E-09-2.72485E-09
 -1       615 2.52685E+04 8.83540E+00 4.83770E+01 2.89640E+04-1.28421E-09 3.58409E-09
 -1       616 2.52573E+04 8.92374E+00 1.48519E+02 2.53448E+04-2.83808E-09 1.28557E-09
 -1       617 2.52826E+04 4.27556E+01 3.40354E+02 2.89635E+04-1.13869E-09-5.83032E-09
 -1       618 2.52250E+04 1.08784E+02 6.86500E+02 2.53450E+04 4.07454E-10 1.61435E-11
 -1       619 2.55227E+04 5.74984E+02 1.54196E+03 2.89628E+04 4.21664E-10 9.03037E-09
 -1       620 2.49956E+04 1.73794E+03 3.09935E+03 2.53447E+04 1.83729E-09 9.43464E-09
 -1       621 3.30515E+02 2.52522E+05 2.87874E+03 2.39756E+04 2.86491E-10-1.18962E-09
 -1       622 4.16918E+02 2.53214E+05 2.64305E+03 3.48535E+04 4.82260E-10 7.60770E-09
 -1       623 4.79955E+01 2.52678E+05 3.29482E+03 2.38636E+04 5.93161E-10 3.50155E-10
 -1       624 1.61239E+03 2.54273E+05 6.48196E+03 3.49661E+04 5.29923E-10-8.77185E-09
 -1       625 1.60758E+03 2.51398E+05 1.13733E+04 2.38609E+04 5.57066E-10-1.71177E-08
 -1       626 2.21970E+05 5.59764E+04 4.69122E+03 1.12482E+05-2.06546E-09-2.82707E-08
 -1       627 2.19626E+05 5.74772E+04 2.26063E+03 1.16640E+05-2.50839E-09-1.70473E-08
 -1       628 2.22101E+05 5.38110E+04 9.55542E+02 1.13255E+05-2.60115E-10-7.33212E-09
 -1       629 2.19016E+05 5.68792E+04 4.67755E+02 1.16883E+05-2.76214E-09-2.24685E-09
 -1       630 2.22113E+05 5.37077E+04 2.16442E+02 1.13284E+05 2.45018E-09-7.81202E-09
 -1       631 2.18948E+05 5.68593E+04 1.15842E+02 1.16884E+05 1.98906E-09-2.87213E-09
 -1       632 2.22106E+05 5.37134E+04 7.51117E+01 1.13278E+05 7.29506E-09-9.13042E-09
 -1       633 2.18936E+05 5.68631E+04 8.19596E+01 1.16878E+05 7.96808E-09-1.96987E-08
 -1       634 2.22098E+05 5.37128E+04 1.30911E+02 1.13275E+05 6.47719E-09-9.27821E-09
 -1       635 2.18945E+05 5.68631E+04 2.64027E+02 1.16880E+05 9.91861E-10 9.07562E-09
 -1       636 2.22088E+05 5.37096E+04 5.32720E+02 1.13273E+05 4.53417E-09-1.18189E-09
 -1       637 2.19058E+05 5.69466E+04 1.17080E+03 1.16878E+05 7.56359E-10-1.26429E-08
 -1       638 2.22045E+05 5.39690E+04 2.40564E+03 1.13155E+05-1.55128E-08-2.40721E-08
 -1       639 2.20321E+05 5.87037E+04 5.69141E+03 1.16504E+05-1.87163E-08-3.07227E-09
 -1       640 2.21873E+05 5.92127E+04 1.18107E+04 1.10939E+05-3.42061E-09 3.44166E-08
 -1       656 5.77408E+04-1.47159E+06-1.39387E+05-1.18412E+03 1.67347E-10 1.54995E-09
 -1       657-7.63577E+04-1.53455E+06-1.15407E+05 6.72449E+03-6.54836E-11-1.57434E-08
 -1       658 1.83767E+04-1.48950E+06-7.09942E+04-2.84724E+03 2.47383E-10-2.36753E-09
 -1       659-8.23438E+04-1.53739E+06-1.23271E+05 7.99226E+03-8.87667E-10-5.89972E-09
 -1       660 6.37132E+04-1.46876E+06-1.52909E+05-2.45187E+03-1.11322E-09 7.39712E-09
 -1       661 1.63250E+05 1.74260E+04 1.64818E+04 6.38330E+04-8.68567E-11-7.69705E-09
 -1       662 1.72266E+05 2.99284E+04 1.11068E+04 6.04798E+04 1.56746E-09-1.59738E-08
 -1       663 1.66485E+05 2.27150E+04 3.88484E+03 6.28955E+04 1.45826E-09-1.11413E-09
 -1       664 1.68517E+05 2.37411E+04 2.32336E+03 6.16231E+04-4.01116E-09 3.55183E-09
 -1       665 1.66974E+05 2.34395E+04 9.16546E+02 6.27549E+04 1.23447E-09-2.12225E-08
 -1       666 1.67941E+05 2.29109E+04 5.35633E+02 6.18053E+04-7.64757E-10 1.45933E-09
 -1       667 1.67058E+05 2.35234E+04 2.83730E+02 6.27212E+04 1.13488E-10 8.69348E-09
 -1       668 1.67849E+05 2.28483E+04 2.87292E+02 6.18544E+04 1.85410E-09 2.35359E-09
 -1       669 1.67065E+05 2.35002E+04 3.87480E+02 6.27064E+04 1.07748E-09 1.01310E-08
 -1       670 1.67944E+05 2.30570E+04 8.42361E+02 6.18562E+04-2.12980E-09-2.30648E-09
 -1       671 1.66963E+05 2.33191E+04 1.49521E+03 6.27175E+04 3.90685E-10 6.03995E-09
 -1       672 1.68816E+05 2.45115E+04 3.82509E+03 6.16454E+04 5.95094E-09-2.83922E-09
 -1       673 1.66198E+05 2.20824E+04 6.41010E+03 6.29032E+04 2.10775E-10-4.12001E-10
 -1       674 1.74918E+05 3.48086E+04 1.83315E+04 5.98515E+04-1.03728E-09-5.52177E-09
 -1       675 1.60900E+05 1.33101E+04 2.72102E+04 6.44030E+04-6.71662E-10 6.72298E-09
 -1       676 2.18588E+01-2.66129E+05-1.01499E+03-3.55690E+01 2.34735E-10-2.57240E-08
 -1       677-2.69482E+02-2.66374E+05-1.85758E+03 7.10899E+01 2.48633E-09-8.42942E-09
 -1       678 1.79949E+02-2.65955E+05-3.28372E+03-3.54969E+01 2.63071E-10 2.56659E-09
 -1       679-3.28465E+03-2.68357E+05-7.80065E+03 7.08135E+01 2.39265E-09-1.44870E-09
 -1       680 1.96037E+03-2.64148E+05-1.25720E+04-3.48946E+01 7.23048E-11 2.22201E-09
 -1       771-2.79834E+06-6.09309E+05-1.05074E+05-1.28079E+06-1.85537E-08-1.87720E-08
 -1       772-2.74510E+06-6.75598E+05-5.46945E+04-1.35678E+06-9.25502E-09 5.73345E-09
 -1       773-2.81783E+06-5.93948E+05-2.67753E+04-1.28836E+06-4.62751E-09 6.78847E-09
 -1       774-2.73620E+06-6.64416E+05-1.21825E+04-1.37164E+06 2.38069E-08-1.06229E-09
 -1       775-2.82687E+06-5.87550E+05-8.38013E+03-1.29146E+06-3.08501E-09 1.74623E-09
 -1       776-2.74166E+06-6.63359E+05-3.25574E+03-1.38224E+06-1.80662E-08 2.72848E-10
 -1       777-2.83446E+06-5.82007E+05-3.44523E+03-1.29419E+06 5.06407E-09 3.33966E-09
 -1       778-2.74756E+06-6.62475E+05-1.01761E+03-1.39126E+06 8.03266E-09 5.75892E-09
 -1       779-2.84089E+06-5.77234E+05-1.64452E+03-1.29652E+06-7.29051E-09-6.07542E-09
 -1       780-2.75274E+06-6.61612E+05-2.86319E+02-1.39859E+06-4.13274E-09-2.61934E-10
 -1       781-2.84593E+06-5.73424E+05-6.24650E+02-1.29835E+06-2.19879E-08-1.85355E-09
 -1       782-2.75670E+06-6.60850E+05 2.16544E+02-1.40398E+06-2.65172E-08-1.34514E-09
 -1       783-2.84945E+06-5.70808E+05 3.42010E+02-1.29964E+06-9.61882E-09-9.31755E-09
 -1       784-2.75886E+06-6.59954E+05 1.42394E+03-1.40729E+06-2.70884E-08-4.53292E-09
 -1       785-2.85150E+06-5.69272E+05 2.51110E+03-1.30047E+06-3.02534E-08 7.22230E-09
 -1       786 1.23939E+05-9.19496E+03 2.12723E+04-1.84210E+02 1.43931E-09-2.06819E-09
 -1       787 1.33164E+05 1.06450E+04 1.50495E+04-1.96139E+01 4.65700E-09-5.67911E-09
 -1       788 1.27496E+05-1.44122E+03 5.50407E+03-1.55547E+02 2.65292E-09 4.35807E-09
 -1       789 1.29020E+05 1.66754E+03 3.45594E+03-6.51303E+01-6.68763E-10-5.26899E-09
 -1       790 1.28084E+05-2.24775E+02 1.40075E+03-1.38702E+02-2.64344E-09-2.53777E-09
 -1       791 1.28334E+05 2.59787E+02 8.11992E+02-9.42723E+01-4.50378E-09-1.45303E-09
 -1       792 1.28183E+05-3.45236E+01 3.49969E+02-1.26406E+02-2.96650E-09 4.39368E-09
 -1       793 1.28217E+05 3.87290E+01 1.87381E+02-1.17417E+02 5.10079E-10-1.20993E-08
 -1       794 1.28201E+05-3.85703E+00 7.46388E+01-1.15557E+02 2.28954E-09-1.04656E-08
 -1       795 1.28192E+05-3.98026E+00 1.52484E+01-1.39990E+02-2.30121E-09 6.88703E-09
 -1       796 1.28208E+05 8.16329E+00-3.32386E+01-1.03832E+02 1.93400E-09 8.59317E-09
 -1       797 1.28161E+05-6.47053E+01-1.24749E+02-1.66768E+02 2.49955E-09 5.50859E-09
 -1       798 1.28231E+05 5.68215E+01-2.11857E+02-8.87787E+01 7.42894E-10 2.92653E-09
 -1       799 1.27998E+05-4.19626E+02-5.90925E+02-2.03439E+02 2.26179E-09 1.05515E-08
 -1       800 1.28371E+05 3.62787E+02-8.38540E+02-6.71605E+01 1.06789E-10 1.58116E-08
 -1       801 1.80049E+04-5.99660E+06-7.28331E+05 5.35481E+05 5.85133E-08-4.11565E-08
 -1       802 1.52864E+05-2.50414E+05 6.26802E+05-5.90218E+05 1.61752E-07-1.30863E-08
 -1       803-1.68433E+05-7.17199E+06-6.85314E+05 3.71354E+05 5.49371E-08 3.07209E-08
 -1       804 4.95992E+04-1.74962E+06 4.39368E+05 3.46792E+05-5.67070E-08-4.36539E-08
 -1       805 9.56425E+04-4.50911E+06-1.12754E+05-3.99940E+05-2.36687E-08-3.19556E-08
 -1       806-2.67992E+05-5.08963E+04-1.95604E+04-1.05077E+05-1.53932E-09 7.25504E-09
 -1       807-2.69686E+05-4.75481E+04-9.60981E+03-1.09638E+05 6.75755E-09-7.34119E-09
 -1       808-2.68517E+05-4.38593E+04-4.07688E+03-1.08424E+05-3.46108E-09 9.85017E-09
 -1       809-2.67672E+05-4.48416E+04-1.99353E+03-1.09868E+05-6.03177E-09-1.68041E-09
 -1       810-2.68598E+05-4.36142E+04-9.13671E+02-1.08573E+05 4.61796E-09-2.06433E-09
 -1       811-2.67518E+05-4.47321E+04-4.54329E+02-1.09838E+05 8.39191E-09 5.35238E-09
 -1       812-2.68611E+05-4.36346E+04-2.29593E+02-1.08573E+05-4.98494E-09-8.09746E-09
 -1       813-2.67497E+05-4.47334E+04-1.49018E+02-1.09823E+05-3.17050E-09-1.03146E-08
 -1       814-2.68607E+05-4.36420E+04-1.47206E+02-1.08570E+05 1.32604E-09-2.31512E-09
 -1       815-2.67502E+05-4.47348E+04-2.37055E+02-1.09819E+05 3.47563E-09 1.86101E-08
 -1       816-2.68591E+05-4.36401E+04-4.48911E+02-1.08568E+05 1.27911E-08 6.85213E-09
 -1       817-2.67580E+05-4.47773E+04-9.63801E+02-1.09811E+05 1.64900E-08 7.72457E-09
 -1       818-2.68535E+05-4.37745E+04-1.96552E+03-1.08505E+05 8.46012E-09-3.31602E-09
 -1       819-2.68656E+05-4.59665E+04-4.62546E+03-1.09561E+05 7.37600E-09 7.61906E-09
 -1       820-2.68172E+05-4.72628E+04-9.41410E+03-1.07007E+05 2.12731E-09-1.29219E-08
 -1       821-3.28592E+05 1.81409E+04-4.19628E+04 6.99245E+02 5.19341E-09 8.73115E-11
 -1       822-3.46742E+05-2.10010E+04-2.96890E+04-1.39544E+03 2.25819E-10 5.70208E-09
 -1       823-3.35586E+05 2.84504E+03-1.08666E+04 8.23935E+02-3.17479E-09 8.45193E-09
 -1       824-3.38551E+05-3.29114E+03-6.83361E+03-1.26542E+03 5.27768E-10 8.94488E-09
 -1       825-3.36779E+05 4.44174E+02-2.81637E+03 5.69234E+02 3.82059E-09 7.53869E-09
 -1       826-3.37136E+05-5.22069E+02-1.68091E+03-5.00437E+02 3.90191E-09-1.70871E-09
 -1       827-3.36999E+05 7.65149E+01-8.92152E+02 5.89380E+01 6.89454E-10-9.13369E-09
 -1       828-3.36945E+05-1.58620E+02-7.63263E+02 5.28029E+02-8.45894E-10-3.33666E-09
 -1       829-3.36970E+05 8.09073E+01-9.07669E+02-4.59248E+02-1.43885E-10 1.40878E-09
 -1       830-3.37212E+05-5.45851E+02-1.75580E+03 1.31955E+03-1.80052E-11 5.64350E-09
 -1       831-3.36734E+05 4.64921E+02-2.91972E+03-7.32599E+02-1.96502E-09-1.95928E-09
 -1       832-3.38636E+05-3.42638E+03-7.11395E+03 1.48822E+03-1.67421E-09 3.31022E-09
 -1       833-3.35548E+05 2.95984E+03-1.13117E+04-6.27922E+02-1.62666E-09-4.90672E-10
 -1       834-3.47079E+05-2.18528E+04-3.08846E+04 9.44308E+02-1.36927E-09 7.88714E-09
 -1       835-3.28291E+05 1.88760E+04-4.36790E+04-1.88670E+02 5.18590E-09-3.43425E-09
 -1       836-1.15261E+03 3.12430E+05 1.91137E+04-1.60247E+04-2.66391E-09-5.32918E-09
 -1       837 4.12798E+03 3.18392E+05 1.62935E+04-3.23786E+04-2.50498E-09-5.52404E-09
 -1       838-4.48891E+02 3.14087E+05 1.67695E+04-1.59585E+04-2.15414E-09 5.83032E-09
 -1       839 1.06734E+04 3.23270E+05 3.18885E+04-3.24223E+04-1.96724E-09 1.15476E-08
 -1       840-3.26286E+03 3.07506E+05 5.09225E+04-1.59823E+04-1.92085E-09 3.31906E-09
 -1       856-6.65503E+04 7.70285E+03-2.02991E+04-4.07468E+02 2.17824E-10 1.10076E-08
 -1       857-7.49251E+04-9.04142E+03-1.39745E+04 5.05994E+03 1.52974E-09-7.52948E-09
 -1       858-6.98625E+04 1.07971E+03-5.26758E+03-4.29994E+02-1.95200E-10 7.41329E-09
 -1       859-7.11228E+04-1.26163E+03-3.17989E+03 5.09471E+03-2.93639E-10 2.41951E-08
 -1       860-7.03576E+04 1.50631E+02-1.33454E+03-4.42194E+02 3.92873E-10 6.70366E-09
 -1       861-7.05530E+04-1.71835E+02-7.38064E+02 5.11140E+03-1.60979E-09-5.70783E-09
 -1       862-7.04348E+04 2.00822E+01-3.14635E+02-4.46692E+02 1.87992E-09 5.86545E-09
 -1       863-7.04597E+04-1.47365E+01-1.32392E+02 5.11374E+03 2.41664E-09 7.72226E-09
 -1       864-7.04512E+04-2.95416E+00 5.29159E+00-4.44532E+02 1.29354E-09-5.30278E-10
 -1       865-7.04173E+04 4.55899E+01 1.55935E+02 5.10219E+03 2.25768E-09 2.59148E-09
 -1       866-7.04753E+04-4.04675E+01 3.34792E+02-4.35147E+02-3.62064E-10 3.15296E-09
 -1       867-7.02543E+04 3.36142E+02 8.37294E+02 5.07665E+03 2.31131E-09-9.43940E-09
 -1       868-7.06101E+04-2.88865E+02 1.39447E+03-4.18984E+02-1.43876E-09 1.93842E-09
 -1       869-6.92280E+04 2.40366E+03 3.71794E+03 5.03411E+03 1.44456E-09-1.75961E-08
 -1       870-7.14953E+04-2.05271E+03 5.39483E+03-3.92593E+02-1.79477E-09 1.31399E-09
 -1       871-4.89692E+03-1.45163E+04-1.65262E+04 1.10161E+05-1.15870E-09-4.30373E-09
 -1       872-1.96057E+03-1.82872E+04-6.84136E+03 1.42829E+05-3.24599E-09 1.46974E-09
 -1       873 1.34673E+02-1.64979E+04 6.97732E+02 1.09919E+05-1.73986E-09 7.43626E-10
 -1       874 2.63817E+03-1.42891E+04 8.75462E+03 1.42865E+05-3.51065E-09 4.44811E-09
 -1       875 5.85524E+03-1.85805E+04 1.95960E+04 1.10122E+05-1.42973E-09-3.52429E-09
 -1       876 2.57600E+05 4.38067E+04 1.34126E+04 1.03838E+05 1.99731E-09 2.45564E-09
 -1       877 2.58446E+05 4.66721E+04 7.16279E+03 1.07722E+05 3.57159E-09 6.26642E-09
 -1       878 2.58853E+05 4.23221E+04 3.00087E+03 1.04938E+05-1.15460E-09-4.19072E-09
 -1       879 2.56622E+05 4.48534E+04 1.49511E+03 1.07815E+05 5.37329E-09 8.48502E-09
 -1       880 2.58944E+05 4.23063E+04 6.96311E+02 1.04983E+05 3.81056E-09 1.04138E-08
 -1       881 2.56501E+05 4.47758E+04 3.71551E+02 1.07795E+05 4.07317E-09-9.03648E-09
 -1       882 2.58952E+05 4.23177E+04 2.37220E+02 1.04985E+05 5.49448E-09-4.91948E-09
 -1       883 2.56492E+05 4.47719E+04 2.54236E+02 1.07788E+05 3.51770E-09-4.64809E-10
 -1       884 2.58946E+05 4.23151E+04 4.03725E+02 1.04985E+05 2.83558E-09-1.56154E-08
 -1       885 2.56524E+05 4.47776E+04 8.11272E+02 1.07798E+05-1.90329E-09 8.66021E-09
 -1       886 2.58915E+05 4.22914E+04 1.63488E+03 1.04982E+05 6.85034E-10 8.51298E-09
 -1       887 2.56812E+05 4.49660E+04 3.57112E+03 1.07840E+05 1.84332E-09-1.13470E-08
 -1       888 2.58689E+05 4.23311E+04 7.19592E+03 1.04867E+05-1.98023E-08-1.47747E-09
 -1       889 2.61097E+05 4.94199E+04 1.71900E+04 1.07707E+05-2.29454E-08 1.88709E-08
 -1       890 2.55756E+05 4.58160E+04 3.21961E+04 1.02125E+05-1.32841E-08-7.09588E-09
 -1       891-1.19921E+02-1.44127E+05-1.74499E+03 2.53768E+04-3.92674E-10 3.07296E-09
 -1       892-2.17242E+02-1.44566E+05-1.88174E+03 3.84615E+04 9.01537E-10-6.63704E-10
 -1       893-3.82070E+00-1.44182E+05-2.67217E+03 2.53827E+04-1.81899E-10 1.03055E-08
 -1       894-1.39479E+03-1.45580E+05-5.53610E+03 3.83219E+04 8.74934E-10 5.45742E-09
 -1       895-1.09897E+03-1.43029E+05-9.75122E+03 2.55161E+04-2.68756E-10-7.71161E-09
 -1       956-3.28222E+05-4.65108E+03-1.16143E+04 2.41587E+04-8.88485E-09 7.38055E-10
 -1       957-3.30510E+05-1.59842E+03-5.96194E+03 2.90710E+04-1.97283E-08-1.55642E-08
 -1       958-3.29259E+05-1.57950E+02-2.68628E+03 2.40189E+04-1.44291E-08-1.21463E-08
 -1       959-3.29436E+05-6.00085E+01-1.37195E+03 2.92280E+04-1.23509E-08-1.36583E-09
 -1       960-3.29355E+05 7.81095E+00-6.68974E+02 2.40050E+04-4.20778E-09-8.22979E-09
 -1       961-3.29362E+05 1.83718E-01-3.54980E+02 2.92441E+04 1.16756E-09 4.02224E-09
 -1       962-3.29376E+05 4.73299E+00-2.03481E+02 2.40028E+04 1.43041E-09 5.60931E-09
 -1       963-3.29360E+05 2.53783E+00-1.63849E+02 2.92470E+04 1.79273E-09-6.05019E-09
 -1       964-3.29380E+05 7.22149E+00-1.99680E+02 2.40022E+04 3.30752E-09-7.30574E-09
 -1       965-3.29371E+05 5.48169E+00-3.45714E+02 2.92466E+04 6.80279E-09-7.06109E-09
 -1       966-3.29368E+05 1.52129E+01-6.49551E+02 2.40032E+04 3.66413E-09-1.34496E-08
 -1       967-3.29453E+05-4.78318E+01-1.33239E+03 2.92358E+04 7.05768E-10-3.03726E-09
 -1       968-3.29282E+05-1.40908E+02-2.60795E+03 2.40129E+04 8.98126E-10-2.78925E-09
 -1       969-3.30504E+05-1.53755E+03-5.79007E+03 2.91225E+04 1.54614E-09 1.42173E-08
 -1       970-3.28281E+05-4.50146E+03-1.12786E+04 2.41146E+04-1.36879E-09 1.73268E-08
 -1       971-3.04653E+05-1.55604E+03-8.52400E+03 1.40398E+04-2.19188E-10-2.66481E-09
 -1       972-3.06716E+05-1.12953E+03-4.64210E+03 1.95244E+04-4.11819E-09-3.59751E-09
 -1       973-3.05602E+05-3.18092E+01-2.07898E+03 1.39253E+04 1.29876E-09 7.21002E-09
 -1       974-3.05736E+05-3.96505E+01-1.07736E+03 1.96508E+04 2.85945E-09 1.40096E-09
 -1       975-3.05676E+05 8.78456E+00-5.38196E+02 1.39143E+04 1.67620E-09-8.77890E-10
 -1       976-3.05679E+05 5.58202E+00-3.09893E+02 1.96646E+04 3.66708E-09-4.83715E-09
 -1       977-3.05691E+05 9.08533E+00-2.23829E+02 1.39115E+04 2.49338E-09-6.64534E-09
 -1       978-3.05684E+05 1.09787E+01-2.60445E+02 1.96686E+04 6.74106E-09-1.43069E-08
 -1       979-3.05691E+05 1.64159E+01-4.17178E+02 1.39103E+04 8.86769E-09 1.13664E-09
 -1       980-3.05715E+05 1.36381E+01-8.04718E+02 1.96693E+04 1.21102E-08 8.28902E-09
 -1       981-3.05665E+05 3.65011E+01-1.55813E+03 1.39107E+04 5.20777E-09 8.94602E-10
 -1       982-3.05928E+05-1.01438E+02-3.22038E+03 1.96633E+04 8.15362E-10-5.87086E-09
 -1       983-3.05469E+05-6.31964E+01-6.25709E+03 1.39164E+04 3.02316E-09 7.76595E-09
 -1       984-3.08938E+05-3.36919E+03-1.40122E+04 1.95844E+04 1.73259E-09 1.77113E-08
 -1       985-3.02636E+05-4.64173E+03-2.57309E+04 1.39895E+04-6.73481E-10 1.27329E-09
 -3
    1PSTEP                        25          13           1          
  100CL  113 6.09375E-01         409                     0   13           1
 -4  DISP        4    1
 -5  D1          1    2    1    0
 -5  D2          1    2    2    0
 -5  D3          1    2    3    0
 -5  ALL         1    2    0    0    1ALL
 -1         1 1.30375E-03 0.00000E+00 0.00000E+00
 -1         2 1.22750E-03 1.92730E-28-1.32349E-23
 -1         3 2.66649E-04-1.69269E-27 0.00000E+00
 -1         5 1.49672E-04 1.03111E-28-1.65436E-24
 -1         8 1.28434E-03-6.11058E-07 0.00000E+00
 -1         9 1.25218E-03-3.63689E-06 0.00000E+00
 -1        10 2.43892E-04-3.23927E-06 0.00000E+00
 -1        12 1.50547E-04 7.07637E-07 0.00000E+00
 -1        15 1.26092E-03-6.72635E-07-2.06795E-25
 -1        16 1.26786E-03-4.44756E-06 0.00000E+00
 -1        17 1.69630E-04-7.27287E-06 0.00000E+00
 -1        18 1.51754E-04 2.08031E-05 0.00000E+00
 -1        19 1.53169E-04 1.41115E-06 0.00000E+00
 -1        20 1.53315E-04 7.17102E-07 0.00000E+00
 -1        21 1.52561E-04-2.82866E-06 0.00000E+00
 -1        24 2.72498E-05-1.04699E-05 0.00000E+00
 -1        25 1.57655E-04 2.09883E-05 0.00000E+00
 -1        26 1.58355E-04 1.95541E-06 0.00000E+00
 -1        27 1.56425E-04-2.44879E-06 0.00000E+00
 -1        28 1.56051E-04-3.39657E-06 0.00000E+00
 -1        32 0.00000E+00 0.00000E+00 0.00000E+00
 -1        33 1.62489E-04 2.61897E-06 0.00000E+00
 -1        34 1.60599E-04-2.48841E-06 0.00000E+00
 -1        35 1.58854E-04-3.70434E-06 0.00000E+00
 -1        51 1.30251E-03-1.10448E-07 0.00000E+00
 -1        52 1.30018E-03-2.08604E-07 0.00000E+00
 -1        53 1.29698E-03-3.05618E-07 0.00000E+00
 -1        54 1.29313E-03-4.03502E-07 0.00000E+00
 -1        55 1.28885E-03-5.03635E-07-8.27181E-25
 -1        56 1.30069E-03-3.24982E-07 0.00000E+00
 -1        57 1.29699E-03 7.20991E-07 0.00000E+00
 -1        58 1.29284E-03 2.96828E-06 1.05879E-22
 -1        59 1.28833E-03 6.11468E-06 0.00000E+00
 -1        60 1.28363E-03 9.75185E-06-1.05879E-22
 -1        61 1.27892E-03 1.34309E-05 0.00000E+00
 -1        62 1.27436E-03 1.66985E-05 1.05879E-22
 -1        63 1.27011E-03 1.91280E-05-5.29396E-23
 -1        64 1.26630E-03 2.04068E-05 0.00000E+00
 -1        65 1.26302E-03 2.02994E-05-5.29396E-23
 -1        66 1.26027E-03 1.87587E-05 0.00000E+00
 -1        67 1.25805E-03 1.58349E-05-5.29396E-23
 -1        68 1.25625E-03 1.17653E-05-1.05879E-22
 -1        69 1.25477E-03 6.87097E-06-2.64698E-23
 -1        70 1.25344E-03 1.57300E-06 5.29396E-23
 -1        86 1.22858E-03-5.96214E-07 0.00000E+00
 -1        87 1.23180E-03-1.19701E-06 0.00000E+00
 -1        88 1.23654E-03-1.80340E-06 1.32349E-23
 -1        89 1.24212E-03-2.41491E-06 1.32349E-23
 -1        90 1.24763E-03-3.02576E-06 0.00000E+00
 -1       121 2.66010E-04-5.30655E-07-1.32349E-23
 -1       122 2.64096E-04-1.06289E-06-6.61744E-24
 -1       123 2.60914E-04-1.59825E-06 0.00000E+00
 -1       124 2.56474E-04-2.13839E-06 0.00000E+00
 -1       125 2.50793E-04-2.68451E-06 0.00000E+00
 -1       191 1.49697E-04 1.17957E-07 0.00000E+00
 -1       192 1.49770E-04 2.35910E-07 1.65436E-24
 -1       193 1.49891E-04 3.53859E-07 0.00000E+00
 -1       194 1.50061E-04 4.71800E-07-8.27181E-25
 -1       195 1.50279E-04 5.89727E-07-3.30872E-24
 -1       251 1.28361E-03 1.72269E-05 1.32349E-23
 -1       252 1.28203E-03 6.25418E-05 0.00000E+00
 -1       253 1.27946E-03 1.27203E-04 0.00000E+00
 -1       254 1.27616E-03 2.02631E-04 6.61744E-24
 -1       255 1.27292E-03 2.77307E-04 0.00000E+00
 -1       256 1.27048E-03 3.39729E-04 6.61744E-24
 -1       257 1.26904E-03 3.81737E-04-1.32349E-23
 -1       258 1.26835E-03 3.95641E-04 0.00000E+00
 -1       259 1.26765E-03 3.81114E-04 1.32349E-23
 -1       260 1.26618E-03 3.38522E-04-6.61744E-24
 -1       261 1.26372E-03 2.75583E-04 0.00000E+00
 -1       262 1.26044E-03 2.00483E-04 6.61744E-24
 -1       263 1.25712E-03 1.24727E-04-1.32349E-23
 -1       264 1.25453E-03 5.98339E-05 0.00000E+00
 -1       265 1.25294E-03 1.43450E-05 0.00000E+00
 -1       266 1.28044E-03-6.30165E-07 3.30872E-24
 -1       267 1.27653E-03-6.39350E-07 0.00000E+00
 -1       268 1.27263E-03-6.49164E-07 0.00000E+00
 -1       269 1.26873E-03-6.57115E-07 0.00000E+00
 -1       270 1.26483E-03-6.65023E-07-2.06795E-25
 -1       271 1.28194E-03 2.87965E-06 0.00000E+00
 -1       272 1.27958E-03 6.18179E-06 0.00000E+00
 -1       273 1.27732E-03 9.22135E-06 2.64698E-23
 -1       274 1.27519E-03 1.19131E-05 0.00000E+00
 -1       275 1.27322E-03 1.41802E-05-2.64698E-23
 -1       276 1.27143E-03 1.59492E-05 0.00000E+00
 -1       277 1.26986E-03 1.71534E-05 0.00000E+00
 -1       278 1.26852E-03 1.77328E-05 0.00000E+00
 -1       279 1.26743E-03 1.76356E-05 0.00000E+00
 -1       280 1.26662E-03 1.68182E-05 0.00000E+00
 -1       281 1.26609E-03 1.52463E-05 0.00000E+00
 -1       282 1.26585E-03 1.28949E-05-1.32349E-23
 -1       283 1.26590E-03 9.74894E-06-2.64698E-23
 -1       284 1.26626E-03 5.80432E-06 0.00000E+00
 -1       285 1.26691E-03 1.06479E-06 2.64698E-23
 -1       301 1.25504E-03-3.79222E-06-6.61744E-24
 -1       302 1.25710E-03-3.91912E-06 0.00000E+00
 -1       303 1.25890E-03-4.04342E-06-6.61744E-24
 -1       304 1.26094E-03-4.16764E-06 0.00000E+00
 -1       305 1.26375E-03-4.29535E-06 1.32349E-23
 -1       306 1.27866E-03-1.00885E-04 1.05879E-22
 -1       307 1.33881E-03-3.75222E-04-5.29396E-23
 -1       308 1.40656E-03-7.82590E-04 1.05879E-22
 -1       309 1.47096E-03-1.26259E-03 0.00000E+00
 -1       310 1.53589E-03-1.73356E-03 0.00000E+00
 -1       311 1.60353E-03-2.11474E-03 5.29396E-23
 -1       312 1.65872E-03-2.35071E-03-1.05879E-22
 -1       313 1.67235E-03-2.40499E-03 0.00000E+00
 -1       314 1.61086E-03-2.27960E-03 0.00000E+00
 -1       315 1.45180E-03-2.00068E-03-5.29396E-23
 -1       316 1.20502E-03-1.61726E-03 0.00000E+00
 -1       317 9.02919E-04-1.18064E-03 0.00000E+00
 -1       318 6.04378E-04-7.47339E-04 1.05879E-22
 -1       319 3.67305E-04-3.74156E-04 0.00000E+00
 -1       320 2.20450E-04-1.11650E-04-1.05879E-22
 -1       336 2.35533E-04-3.87046E-06-1.32349E-23
 -1       337 2.25491E-04-4.51769E-06 6.61744E-24
 -1       338 2.13816E-04-5.18156E-06-1.32349E-23
 -1       339 2.00567E-04-5.86245E-06 0.00000E+00
 -1       340 1.85813E-04-6.56374E-06 1.32349E-23
 -1       406 1.50862E-04 8.25519E-07 1.65436E-24
 -1       407 1.51227E-04 9.43348E-07 8.27181E-25
 -1       408 1.51640E-04 1.06109E-06 0.00000E+00
 -1       409 1.52101E-04 1.17859E-06 8.27181E-25
 -1       410 1.52611E-04 1.29564E-06 1.65436E-24
 -1       521 1.29555E-03-1.10093E-04 0.00000E+00
 -1       522 1.35664E-03-4.03923E-04 0.00000E+00
 -1       523 1.42299E-03-8.39287E-04 0.00000E+00
 -1       524 1.48388E-03-1.35042E-03-5.29396E-23
 -1       525 1.54562E-03-1.85131E-03 0.00000E+00
 -1       526 1.61252E-03-2.25699E-03 0.00000E+00
 -1       527 1.66859E-03-2.50713E-03 0.00000E+00
 -1       528 1.68183E-03-2.56380E-03 0.00000E+00
 -1       529 1.61380E-03-2.42843E-03 0.00000E+00
 -1       530 1.43953E-03-2.13150E-03 0.00000E+00
 -1       531 1.16873E-03-1.72506E-03 0.00000E+00
 -1       532 8.37410E-04-1.26398E-03 0.00000E+00
 -1       533 5.09485E-04-8.05843E-04-1.05879E-22
 -1       534 2.47900E-04-4.08570E-04 0.00000E+00
 -1       535 8.52106E-05-1.26527E-04-1.05879E-22
 -1       536 1.69126E-04 1.95198E-05-6.61744E-24
 -1       537 1.67935E-04 6.60511E-05 3.30872E-24
 -1       538 1.66124E-04 1.25098E-04 0.00000E+00
 -1       539 1.64005E-04 1.89370E-04-1.65436E-24
 -1       540 1.62096E-04 2.50037E-04-3.30872E-24
 -1       541 1.60838E-04 2.98288E-04 0.00000E+00
 -1       542 1.60234E-04 3.28824E-04 3.30872E-24
 -1       543 1.60051E-04 3.36456E-04 1.65436E-24
 -1       544 1.59796E-04 3.21858E-04 3.30872E-24
 -1       545 1.59020E-04 2.85861E-04-1.65436E-24
 -1       546 1.57636E-04 2.34877E-04 3.30872E-24
 -1       547 1.55801E-04 1.75408E-04 0.00000E+00
 -1       548 1.53991E-04 1.16407E-04-3.30872E-24
 -1       549 1.52676E-04 6.68260E-05 0.00000E+00
 -1       550 1.51971E-04 3.29092E-05 0.00000E+00
 -1       551 1.50004E-04-7.71822E-06 0.00000E+00
 -1       552 1.27581E-04-8.21497E-06 0.00000E+00
 -1       553 1.03220E-04-8.75278E-06-3.87741E-25
 -1       554 7.77965E-05-9.31715E-06-3.30872E-24
 -1       555 5.21833E-05-9.88849E-06-2.64698E-23
 -1       556 1.63849E-04 7.58422E-06 0.00000E+00
 -1       557 1.59224E-04 1.95091E-05 0.00000E+00
 -1       558 1.55645E-04 2.87387E-05 0.00000E+00
 -1       559 1.53005E-04 3.55293E-05 0.00000E+00
 -1       560 1.51198E-04 4.01370E-05 0.00000E+00
 -1       561 1.50123E-04 4.28202E-05 0.00000E+00
 -1       562 1.49677E-04 4.38376E-05 0.00000E+00
 -1       563 1.49759E-04 4.34488E-05 0.00000E+00
 -1       564 1.50271E-04 4.19141E-05 0.00000E+00
 -1       565 1.51114E-04 3.94938E-05-6.61744E-24
 -1       566 1.52189E-04 3.64488E-05 0.00000E+00
 -1       567 1.53400E-04 3.30403E-05 3.30872E-24
 -1       568 1.54649E-04 2.95294E-05 8.27181E-25
 -1       569 1.55839E-04 2.61771E-05 0.00000E+00
 -1       570 1.56873E-04 2.32444E-05 0.00000E+00
 -1       571 1.51840E-04 1.95491E-05-8.27181E-25
 -1       572 1.51927E-04 1.82403E-05 8.27181E-25
 -1       573 1.52016E-04 1.68890E-05 1.65436E-24
 -1       574 1.52104E-04 1.55084E-05-1.65436E-24
 -1       575 1.52193E-04 1.41114E-05 0.00000E+00
 -1       576 1.52281E-04 1.27112E-05 1.65436E-24
 -1       577 1.52370E-04 1.13207E-05 0.00000E+00
 -1       578 1.52458E-04 9.95327E-06 0.00000E+00
 -1       579 1.52547E-04 8.62189E-06 0.00000E+00
 -1       580 1.52636E-04 7.33972E-06 0.00000E+00
 -1       581 1.52725E-04 6.11988E-06 0.00000E+00
 -1       582 1.52813E-04 4.97547E-06 0.00000E+00
 -1       583 1.52902E-04 3.91959E-06 0.00000E+00
 -1       584 1.52991E-04 2.96519E-06 0.00000E+00
 -1       585 1.53080E-04 2.12512E-06 0.00000E+00
 -1       586 1.52688E-04 2.08359E-05 0.00000E+00
 -1       587 1.53591E-04 2.08680E-05-4.13590E-25
 -1       588 1.54500E-04 2.08999E-05-8.27181E-25
 -1       589 1.55455E-04 2.09311E-05 0.00000E+00
 -1       590 1.56494E-04 2.09614E-05 0.00000E+00
 -1       591 1.52172E-04 1.96198E-05 0.00000E+00
 -1       592 1.52595E-04 1.84135E-05 2.06795E-25
 -1       593 1.53025E-04 1.71898E-05 8.27181E-25
 -1       594 1.53458E-04 1.59538E-05 0.00000E+00
 -1       595 1.53895E-04 1.47104E-05 0.00000E+00
 -1       596 1.54332E-04 1.34645E-05 0.00000E+00
 -1       597 1.54768E-04 1.22211E-05 0.00000E+00
 -1       598 1.55202E-04 1.09851E-05 4.13590E-25
 -1       599 1.55630E-04 9.76145E-06-8.27181E-25
 -1       600 1.56053E-04 8.55503E-06-2.06795E-25
 -1       601 1.56467E-04 7.37077E-06 0.00000E+00
 -1       602 1.56871E-04 6.21358E-06 4.13590E-25
 -1       603 1.57263E-04 5.08840E-06 2.06795E-25
 -1       604 1.57642E-04 4.00024E-06-7.75482E-26
 -1       605 1.58006E-04 2.95395E-06 0.00000E+00
 -1       606 1.53182E-04 8.97941E-07 0.00000E+00
 -1       607 1.53193E-04 4.74996E-07-1.65436E-24
 -1       608 1.53202E-04 1.37019E-07 0.00000E+00
 -1       609 1.53211E-04-1.21965E-07 0.00000E+00
 -1       610 1.53220E-04-3.07978E-07 0.00000E+00
 -1       611 1.53229E-04-4.27111E-07 0.00000E+00
 -1       612 1.53237E-04-4.85460E-07 0.00000E+00
 -1       613 1.53246E-04-4.89132E-07 0.00000E+00
 -1       614 1.53255E-04-4.44233E-07 0.00000E+00
 -1       615 1.53264E-04-3.56871E-07 0.00000E+00
 -1       616 1.53272E-04-2.33150E-07 0.00000E+00
 -1       617 1.53281E-04-7.91775E-08 0.00000E+00
 -1       618 1.53290E-04 9.89382E-08 8.27181E-25
 -1       619 1.53299E-04 2.95095E-07 0.00000E+00
 -1       620 1.53307E-04 5.03185E-07 0.00000E+00
 -1       621 1.53838E-04 1.50217E-06 0.00000E+00
 -1       622 1.54615E-04 1.59348E-06-1.65436E-24
 -1       623 1.55478E-04 1.68469E-06-1.65436E-24
 -1       624 1.56404E-04 1.77568E-06 8.27181E-25
 -1       625 1.57370E-04 1.86648E-06 1.65436E-24
 -1       626 1.53462E-04 9.29719E-07 3.30872E-24
 -1       627 1.53729E-04 5.18153E-07-1.65436E-24
 -1       628 1.53973E-04 1.68678E-07 0.00000E+00
 -1       629 1.54198E-04-1.26857E-07 0.00000E+00
 -1       630 1.54405E-04-3.76624E-07 0.00000E+00
 -1       631 1.54598E-04-5.88821E-07 1.65436E-24
 -1       632 1.54780E-04-7.71647E-07-3.30872E-24
 -1       633 1.54954E-04-9.33306E-07 1.65436E-24
 -1       634 1.55123E-04-1.08200E-06 0.00000E+00
 -1       635 1.55290E-04-1.22592E-06-1.65436E-24
 -1       636 1.55459E-04-1.37327E-06 0.00000E+00
 -1       637 1.55632E-04-1.53225E-06-8.27181E-25
 -1       638 1.55812E-04-1.71107E-06 1.65436E-24
 -1       639 1.56003E-04-1.91794E-06 8.27181E-25
 -1       640 1.56207E-04-2.16107E-06 0.00000E+00
 -1       656 1.53326E-04 2.02291E-07-6.61744E-24
 -1       657 1.53737E-04-3.33286E-07 0.00000E+00
 -1       658 1.54409E-04-8.67451E-07-1.32349E-23
 -1       659 1.55198E-04-1.40125E-06-6.61744E-24
 -1       660 1.55927E-04-1.93667E-06 0.00000E+00
 -1       661 1.53321E-04 8.92745E-07-8.27181E-25
 -1       662 1.53360E-04 9.90195E-07 0.00000E+00
 -1       663 1.53426E-04 1.01337E-06 1.65436E-24
 -1       664 1.53518E-04 9.67461E-07-8.27181E-25
 -1       665 1.53635E-04 8.56991E-07 0.00000E+00
 -1       666 1.53774E-04 6.86604E-07 8.27181E-25
 -1       667 1.53935E-04 4.60693E-07 1.65436E-24
 -1       668 1.54114E-04 1.83599E-07-8.27181E-25
 -1       669 1.54311E-04-1.40504E-07 1.65436E-24
 -1       670 1.54524E-04-5.07526E-07 0.00000E+00
 -1       671 1.54752E-04-9.13495E-07 0.00000E+00
 -1       672 1.54992E-04-1.35455E-06 0.00000E+00
 -1       673 1.55244E-04-1.82686E-06 1.65436E-24
 -1       674 1.55506E-04-2.32696E-06 8.27181E-25
 -1       675 1.55777E-04-2.85078E-06 4.13590E-25
 -1       676 1.53144E-04-2.92387E-06 3.30872E-24
 -1       677 1.53728E-04-3.01903E-06 1.65436E-24
 -1       678 1.54310E-04-3.11415E-06 3.30872E-24
 -1       679 1.54892E-04-3.20898E-06 0.00000E+00
 -1       680 1.55472E-04-3.30380E-06 1.65436E-24
 -1       771 1.79048E-05 1.00996E-05-5.29396E-23
 -1       772 9.99998E-06 2.69876E-05 0.00000E+00
 -1       773 3.46662E-06 4.03778E-05 0.00000E+00
 -1       774-1.78822E-06 5.04744E-05 0.00000E+00
 -1       775-5.85598E-06 5.74888E-05 0.00000E+00
 -1       776-8.83176E-06 6.16438E-05 0.00000E+00
 -1       777-1.08109E-05 6.31692E-05 0.00000E+00
 -1       778-1.18908E-05 6.23044E-05 0.00000E+00
 -1       779-1.21687E-05 5.92944E-05 0.00000E+00
 -1       780-1.17437E-05 5.43924E-05 0.00000E+00
 -1       781-1.07142E-05 4.78559E-05 0.00000E+00
 -1       782-9.18037E-06 3.99486E-05-2.64698E-23
 -1       783-7.24156E-06 3.09373E-05 0.00000E+00
 -1       784-4.99835E-06 2.10930E-05-2.64698E-23
 -1       785-2.55075E-06 1.06890E-05 0.00000E+00
 -1       786 1.57695E-04 1.95832E-05 0.00000E+00
 -1       787 1.57738E-04 1.82257E-05 4.13590E-25
 -1       788 1.57781E-04 1.69078E-05 0.00000E+00
 -1       789 1.57825E-04 1.56218E-05 0.00000E+00
 -1       790 1.57869E-04 1.43631E-05 1.65436E-24
 -1       791 1.57913E-04 1.31273E-05-8.27181E-25
 -1       792 1.57957E-04 1.19123E-05 0.00000E+00
 -1       793 1.58001E-04 1.07158E-05-8.27181E-25
 -1       794 1.58045E-04 9.53781E-06 0.00000E+00
 -1       795 1.58089E-04 8.37801E-06 8.27181E-25
 -1       796 1.58134E-04 7.23816E-06 0.00000E+00
 -1       797 1.58178E-04 6.11996E-06 0.00000E+00
 -1       798 1.58222E-04 5.02738E-06 0.00000E+00
 -1       799 1.58266E-04 3.96441E-06 0.00000E+00
 -1       800 1.58311E-04 2.93805E-06 1.65436E-24
 -1       801 1.24997E-04 1.86389E-05 0.00000E+00
 -1       802 2.57842E-05 1.20496E-05 0.00000E+00
 -1       803-6.15404E-05 6.36104E-06-5.29396E-23
 -1       804-5.95328E-05 4.31655E-06-2.64698E-23
 -1       805-2.04824E-05 1.90388E-06 5.29396E-23
 -1       806 1.58080E-04 1.95235E-05-1.65436E-24
 -1       807 1.58491E-04 1.80853E-05-8.27181E-25
 -1       808 1.58890E-04 1.66780E-05 0.00000E+00
 -1       809 1.59276E-04 1.53047E-05 0.00000E+00
 -1       810 1.59648E-04 1.39688E-05 0.00000E+00
 -1       811 1.60005E-04 1.26732E-05-8.27181E-25
 -1       812 1.60345E-04 1.14211E-05 1.65436E-24
 -1       813 1.60668E-04 1.02157E-05-8.27181E-25
 -1       814 1.60972E-04 9.05994E-06-1.65436E-24
 -1       815 1.61257E-04 7.95696E-06 0.00000E+00
 -1       816 1.61521E-04 6.90983E-06 1.65436E-24
 -1       817 1.61762E-04 5.92161E-06 8.27181E-25
 -1       818 1.61981E-04 4.99538E-06 3.30872E-24
 -1       819 1.62176E-04 4.13418E-06-8.27181E-25
 -1       820 1.62345E-04 3.34105E-06 0.00000E+00
 -1       821 1.58241E-04 8.52108E-07 0.00000E+00
 -1       822 1.58119E-04-5.33882E-07 0.00000E+00
 -1       823 1.57998E-04-2.04924E-06-3.30872E-24
 -1       824 1.57876E-04-3.53991E-06 0.00000E+00
 -1       825 1.57754E-04-4.85810E-06 3.30872E-24
 -1       826 1.57631E-04-5.85690E-06 1.65436E-24
 -1       827 1.57510E-04-6.46821E-06 0.00000E+00
 -1       828 1.57388E-04-6.62607E-06 0.00000E+00
 -1       829 1.57266E-04-6.37637E-06 0.00000E+00
 -1       830 1.57144E-04-5.76720E-06 0.00000E+00
 -1       831 1.57022E-04-4.93532E-06 3.30872E-24
 -1       832 1.56900E-04-4.01875E-06 0.00000E+00
 -1       833 1.56779E-04-3.17641E-06-3.30872E-24
 -1       834 1.56659E-04-2.56676E-06 0.00000E+00
 -1       835 1.56538E-04-2.29109E-06-8.27181E-25
 -1       836 1.59231E-04 2.06565E-06 3.30872E-24
 -1       837 1.59990E-04 2.17852E-06 0.00000E+00
 -1       838 1.60665E-04 2.29128E-06 0.00000E+00
 -1       839 1.61286E-04 2.40336E-06 0.00000E+00
 -1       840 1.61884E-04 2.51527E-06-4.13590E-25
 -1       856 1.56405E-04-2.75698E-06 0.00000E+00
 -1       857 1.56382E-04-2.94034E-06 0.00000E+00
 -1       858 1.56359E-04-3.01836E-06 0.00000E+00
 -1       859 1.56336E-04-3.01059E-06 0.00000E+00
 -1       860 1.56312E-04-2.93666E-06 0.00000E+00
 -1       861 1.56289E-04-2.81627E-06 0.00000E+00
 -1       862 1.56265E-04-2.66916E-06 0.00000E+00
 -1       863 1.56242E-04-2.51508E-06 0.00000E+00
 -1       864 1.56218E-04-2.37380E-06 0.00000E+00
 -1       865 1.56194E-04-2.26507E-06 0.00000E+00
 -1       866 1.56171E-04-2.20860E-06 0.00000E+00
 -1       867 1.56147E-04-2.22410E-06-4.13590E-25
 -1       868 1.56123E-04-2.33115E-06 0.00000E+00
 -1       869 1.56100E-04-2.54932E-06-4.13590E-25
 -1       870 1.56076E-04-2.89801E-06 8.27181E-25
 -1       871 1.56990E-04-2.45154E-06 4.13590E-25
 -1       872 1.57686E-04-2.45720E-06 0.00000E+00
 -1       873 1.58455E-04-2.46343E-06 0.00000E+00
 -1       874 1.59236E-04-2.47031E-06 2.58494E-25
 -1       875 1.59971E-04-2.47775E-06-1.65436E-24
 -1       876 1.56656E-04-2.74428E-06 0.00000E+00
 -1       877 1.56866E-04-2.97867E-06 0.00000E+00
 -1       878 1.57057E-04-3.15931E-06 0.00000E+00
 -1       879 1.57230E-04-3.29298E-06-1.65436E-24
 -1       880 1.57389E-04-3.38651E-06 0.00000E+00
 -1       881 1.57535E-04-3.44668E-06 0.00000E+00
 -1       882 1.57671E-04-3.48026E-06 0.00000E+00
 -1       883 1.57799E-04-3.49402E-06 0.00000E+00
 -1       884 1.57923E-04-3.49472E-06-3.30872E-24
 -1       885 1.58044E-04-3.48911E-06 1.65436E-24
 -1       886 1.58165E-04-3.48395E-06-3.30872E-24
 -1       887 1.58289E-04-3.48602E-06 0.00000E+00
 -1       888 1.58418E-04-3.50208E-06 3.30872E-24
 -1       889 1.58555E-04-3.53904E-06-1.65436E-24
 -1       890 1.58701E-04-3.60363E-06 1.65436E-24
 -1       891 1.56651E-04-3.44819E-06-1.65436E-24
 -1       892 1.57229E-04-3.49996E-06 4.13590E-25
 -1       893 1.57762E-04-3.55167E-06 1.65436E-24
 -1       894 1.58226E-04-3.60320E-06-4.13590E-25
 -1       895 1.58598E-04-3.65456E-06 0.00000E+00
 -1       956 1.62373E-04 2.04629E-06 1.65436E-24
 -1       957 1.62255E-04 1.55122E-06 0.00000E+00
 -1       958 1.62137E-04 1.12482E-06 0.00000E+00
 -1       959 1.62018E-04 7.57656E-07 0.00000E+00
 -1       960 1.61900E-04 4.40256E-07-3.30872E-24
 -1       961 1.61781E-04 1.63113E-07 0.00000E+00
 -1       962 1.61663E-04-8.32871E-08-3.30872E-24
 -1       963 1.61544E-04-3.08472E-07-1.65436E-24
 -1       964 1.61425E-04-5.21966E-07 0.00000E+00
 -1       965 1.61307E-04-7.33293E-07-1.65436E-24
 -1       966 1.61188E-04-9.51985E-07 0.00000E+00
 -1       967 1.61070E-04-1.18756E-06 1.65436E-24
 -1       968 1.60951E-04-1.44955E-06 0.00000E+00
 -1       969 1.60833E-04-1.74743E-06 1.65436E-24
 -1       970 1.60715E-04-2.09068E-06 3.30872E-24
 -1       971 1.60491E-04-2.87782E-06 1.65436E-24
 -1       972 1.60381E-04-3.17788E-06 0.00000E+00
 -1       973 1.60272E-04-3.39844E-06 0.00000E+00
 -1       974 1.60162E-04-3.54975E-06-1.65436E-24
 -1       975 1.60053E-04-3.64204E-06 0.00000E+00
 -1       976 1.59943E-04-3.68560E-06-1.65436E-24
 -1       977 1.59833E-04-3.69069E-06 3.30872E-24
 -1       978 1.59724E-04-3.66762E-06-1.65436E-24
 -1       979 1.59614E-04-3.62667E-06-3.30872E-24
 -1       980 1.59504E-04-3.57815E-06 0.00000E+00
 -1       981 1.59395E-04-3.53236E-06-3.30872E-24
 -1       982 1.59285E-04-3.49960E-06 0.00000E+00
 -1       983 1.59176E-04-3.49016E-06 0.00000E+00
 -1       984 1.59067E-04-3.51432E-06 0.00000E+00
 -1       985 1.58958E-04-3.58237E-06 1.65436E-24
 -3
    1PSTEP                        26          13           1          
  100CL  113 6.09375E-01         409                     0   13           1
 -4  STRESS      6    1
 -5  SXX         1    4    1    1
 -5  SYY         1    4    2    2
 -5  SZZ         1    4    3    3
 -5  SXY         1    4    1    2
 -5  SYZ         1    4    2    3
 -5  SZX         1    4    3    1
 -1         1-3.76028E+06-1.44884E+06-8.23151E+05-1.51357E+06 9.09495E-10-1.00699E-07
 -1         2 9.03745E+02-1.69619E+06 3.22059E+03 1.56840E+04 3.02549E-10-1.22801E-07
 -1         3-7.30888E+02-1.51132E+06 5.57635E+02-1.52280E+03-4.06555E-10-5.10408E-08
 -1         5-1.75396E+01 3.37577E+05 8.66744E+00-4.85309E-01-3.12714E-10 2.67119E-08
 -1         8-7.94382E+05-2.70682E+05-7.48707E+04-3.37994E+05-3.41970E-10-5.93718E-08
 -1         9 3.70525E+06-6.95142E+05 6.83744E+05-8.92291E+05 2.29513E-08-4.85452E-08
 -1        10-3.02698E+03-1.61011E+06-4.32702E+03-1.12267E+04-4.04361E-09-1.97364E-08
 -1        12-1.40121E+01 3.37595E+05 2.81676E+02-3.49612E+00-2.01563E-10 1.15965E-08
 -1        15 1.46553E+03 8.05388E+02 4.73729E+03 2.47345E+00-4.07567E-11-8.19877E-08
 -1        16 9.35134E+06-3.91751E+05 1.34694E+06-1.08298E+06 1.26311E-08 1.55803E-07
 -1        17 3.21939E+06 2.10495E+06 8.81972E+05 2.18596E+06 2.02097E-08 3.11527E-08
 -1        18 6.27482E+04 1.21154E+04-1.14966E+04-9.96196E+04 1.33068E-08-9.64064E-10
 -1        19 1.07991E+05 1.24413E+05-8.63987E+02 2.02966E+04 5.90808E-10 4.19641E-09
 -1        20-6.48461E+04-5.08645E+05-1.13591E+05 2.66972E+04 1.72349E-10 6.39496E-09
 -1        21-4.32548E+01-2.72086E+05-8.58263E+02 1.08896E+02 5.48557E-09 1.29091E-08
 -1        24 5.03969E+06 4.52405E+06 1.58868E+06 4.12861E+06-1.10483E-07-3.92514E-08
 -1        25-7.38956E+03-2.19922E+05-2.47490E+04-3.70818E+05-1.28402E-09 7.50279E-09
 -1        26-4.61159E+04 8.07280E+04-2.15031E+04-1.56629E+03 9.29140E-10 4.32514E-09
 -1        27-7.09658E+04-2.75866E+05-1.01752E+05 6.17426E+04 4.64676E-09-5.27083E-09
 -1        28 2.06842E+04-7.74484E+04 1.54925E+04 2.04835E+04-1.01971E-09-5.13199E-09
 -1        32-1.53491E+06-2.69391E+06-1.39908E+05-2.82432E+04-3.35604E-08-6.91057E-09
 -1        33-1.60293E+05 8.11639E+04 2.86298E+04-3.58674E+04-1.32047E-09 1.74338E-08
 -1        34-2.01260E+05-2.15706E+04 5.80546E+02 6.60659E+04-2.10965E-09-1.21360E-08
 -1        35-2.11970E+04-3.07360E+04-1.21885E+03 4.73703E+04-1.77830E-10 8.09572E-09
 -1        51 4.10301E+04-2.50544E+05 9.04534E+04-7.27248E+05-1.01863E-10 6.27624E-08
 -1        52 1.58248E+04-2.37354E+05 5.01236E+04-8.47934E+05 2.18279E-11 1.69959E-07
 -1        53 5.55978E+03-2.52318E+05 3.03338E+04-7.24608E+05 5.42059E-10 2.28465E-08
 -1        54 1.37159E+04-2.49300E+05 3.34783E+04-8.50687E+05-7.27596E-12-1.38858E-07
 -1        55 2.82930E+04-2.60001E+05 5.07076E+04-7.24210E+05 3.56522E-10-1.33659E-07
 -1        56-7.12693E+06-8.03192E+05-6.08267E+05-2.77782E+06 5.18048E-09-7.77072E-08
 -1        57-7.46367E+06-1.26166E+06-4.10180E+05-2.64680E+06-1.16415E-10 3.43680E-08
 -1        58-7.22925E+06-1.01603E+06-1.42929E+05-2.76151E+06 7.62157E-09 9.62100E-08
 -1        59-7.34945E+06-1.00802E+06-8.52266E+04-2.66272E+06-4.76575E-10 1.07830E-08
 -1        60-7.23967E+06-1.04997E+06-3.32393E+04-2.76427E+06 6.98674E-09 5.08189E-08
 -1        61-7.33041E+06-9.74748E+05-1.88399E+04-2.66684E+06-1.67341E-08 1.11811E-07
 -1        62-7.24785E+06-1.04841E+06-9.09357E+03-2.75758E+06-5.04406E-09 9.82568E-08
 -1        63-7.30584E+06-9.91588E+05-7.16533E+03-2.69026E+06-2.64072E-09 1.97175E-08
 -1        64-7.26352E+06-1.03346E+06-8.53634E+03-2.74038E+06-9.93259E-09-4.88177E-08
 -1        65-7.27316E+06-1.02901E+06-1.63691E+04-2.72823E+06 7.28051E-10-8.24325E-08
 -1        66-7.28020E+06-1.01134E+06-2.93515E+04-2.71931E+06-1.01772E-08 8.56362E-08
 -1        67-7.25766E+06-1.09085E+06-7.41526E+04-2.76292E+06-3.49301E-08 6.86778E-08
 -1        68-7.27985E+06-9.72101E+05-1.24556E+05-2.70585E+06 8.74206E-09 4.86689E-08
 -1        69-7.35858E+06-1.31262E+06-3.57536E+05-2.75175E+06-8.53652E-09-1.28475E-07
 -1        70-7.18182E+06-7.94771E+05-5.29888E+05-2.72934E+06-1.02737E-08-7.35163E-08
 -1        86-5.54033E+02-1.70352E+06 2.06652E+03-7.84176E+03-3.43044E-09-3.59912E-08
 -1        87 2.65307E+03-1.69753E+06 5.74388E+03 2.65963E+04-5.92081E-09-8.05135E-08
 -1        88-2.12442E+03-1.70240E+06 8.04368E+03-1.87544E+04-6.27188E-09-4.49722E-08
 -1        89 1.56291E+04-1.69356E+06 2.19299E+04 3.70427E+04-9.51241E-09-7.96778E-08
 -1        90-1.33236E+04-1.70767E+06 3.07400E+04-1.82895E+04-5.26597E-09-3.85148E-08
 -1       121-1.04441E+03-1.51391E+06 1.44114E+02 7.57910E+02 1.02546E-09-8.48377E-09
 -1       122-5.25637E+02-1.51127E+06 1.16980E+03-3.04236E+03-3.86525E-09 1.16706E-08
 -1       123-1.14015E+03-1.51406E+06 1.49271E+03 2.26376E+03 3.23689E-09-1.04628E-08
 -1       124 1.69096E+03-1.51016E+06 4.78611E+03-6.38063E+03-7.17182E-09-1.80589E-08
 -1       125-2.46395E+03-1.51530E+06 6.94292E+03 4.08250E+03 4.87489E-09-5.58066E-09
 -1       191-1.86959E+01 3.37604E+05 9.78955E+00 2.46038E-01-2.95216E-10-8.28550E-09
 -1       192-1.83434E+01 3.37578E+05 1.83787E+01-1.75811E+00-3.67111E-10-6.13454E-09
 -1       193-2.08289E+01 3.37603E+05 3.36241E+01 1.53365E+00-4.74671E-10 9.68976E-09
 -1       194-2.09280E+01 3.37581E+05 6.95820E+01-4.06537E+00-2.65509E-10 2.56609E-08
 -1       195-2.49266E+01 3.37601E+05 1.35547E+02 2.58182E+00-7.37863E-10 2.13786E-08
 -1       251-1.93120E+06-2.04288E+04-1.62199E+05-1.17280E+05 2.67028E-09 1.38207E-08
 -1       252-1.22197E+06 2.64668E+04 3.04063E+04 3.61805E+05 2.38424E-09 5.45947E-08
 -1       253-1.61511E+06-1.02411E+04-2.88076E+04-2.42105E+05-2.44227E-08 2.09584E-08
 -1       254-1.55297E+06 4.56313E+04 4.91226E+03 4.79815E+05-1.83036E-08 3.83297E-08
 -1       255-1.63317E+06-1.27289E+04-1.64897E+04-2.37894E+05 1.49976E-09-7.30142E-08
 -1       256-1.17665E+06 3.75062E+04 8.27388E+04 3.44916E+05 7.73980E-08-7.33826E-08
 -1       257-1.95463E+06-3.20236E+04-8.20453E+04-1.04434E+05 2.31230E-08 6.20689E-08
 -1       258-8.21347E+05 2.86553E+04 1.50453E+05-7.12575E+02 6.80384E-08 1.37264E-07
 -1       259-1.95359E+06-3.21996E+04-8.03334E+04 1.05970E+05 2.67028E-09-1.49348E-08
 -1       260-1.17860E+06 3.91818E+04 8.65586E+04-3.45545E+05 2.79852E-09-2.15225E-08
 -1       261-1.63250E+06-1.40286E+04-8.51409E+03 2.38688E+05 4.15921E-08 4.19070E-08
 -1       262-1.54886E+06 5.50732E+04 2.41033E+04-4.79039E+05-5.18515E-08-2.23944E-08
 -1       263-1.61986E+06-1.83475E+04 1.78804E+03 2.42251E+05-6.00267E-11 2.12849E-08
 -1       264-1.19250E+06 8.56633E+04 1.14880E+05-3.60949E+05 1.06131E-07 5.56097E-08
 -1       265-1.95562E+06-7.15111E+04-4.31051E+04 1.17965E+05 4.04689E-08 5.14865E-08
 -1       266-2.65306E+04-1.24054E+04 6.22501E+04-5.29254E+01-6.91216E-11-9.45507E-08
 -1       267 3.07565E+04 1.44593E+04 4.39966E+04 6.10637E+01-2.54659E-11-9.90023E-08
 -1       268-4.12439E+03-2.04781E+03 1.63534E+04-7.78068E+00-5.63887E-11-1.15525E-07
 -1       269 4.86970E+03 2.45082E+03 1.06294E+04 9.06323E+00 1.47111E-10 4.82501E-08
 -1       270-7.30946E+02-4.02686E+02 5.13096E+03-1.22995E+00-8.66294E-11-5.11795E-08
 -1       271-2.42029E+06-2.95702E+05-1.81041E+05-9.32720E+05-1.50321E-08 1.09285E-08
 -1       272-2.52456E+06-3.89672E+05-1.16566E+05-8.87789E+05 2.31357E-08 4.84742E-08
 -1       273-2.45347E+06-3.41913E+05-4.27333E+04-9.25646E+05-1.67890E-08 1.04574E-08
 -1       274-2.48520E+06-3.33356E+05-2.39738E+04-8.98670E+05 2.76978E-08 4.09236E-08
 -1       275-2.45850E+06-3.46379E+05-9.96157E+03-9.23831E+05-1.46110E-09 6.01112E-08
 -1       276-2.47794E+06-3.29137E+05-5.24655E+03-9.02151E+05 4.41469E-09 7.74869E-08
 -1       277-2.46038E+06-3.45699E+05-2.61264E+03-9.22202E+05 1.34605E-09 1.07269E-07
 -1       278-2.47418E+06-3.31469E+05-1.72152E+03-9.05512E+05-6.11226E-09 3.87549E-08
 -1       279-2.46202E+06-3.44146E+05-1.87900E+03-9.20318E+05 2.02454E-08-1.20162E-08
 -1       280-2.47082E+06-3.35284E+05-3.09480E+03-9.09312E+05-1.58416E-08-7.14990E-08
 -1       281-2.46356E+06-3.42028E+05-5.79794E+03-9.18263E+05-1.39698E-09-1.42459E-08
 -1       282-2.46960E+06-3.42772E+05-1.35162E+04-9.13040E+05-1.36424E-09 1.24126E-07
 -1       283-2.46320E+06-3.37055E+05-2.42579E+04-9.16405E+05-6.83212E-09-4.83979E-08
 -1       284-2.48681E+06-3.79455E+05-6.57405E+04-9.12498E+05-2.11121E-08-7.61611E-08
 -1       285-2.44688E+06-3.08621E+05-1.02361E+05-9.17636E+05-1.14669E-08 1.11744E-07
 -1       301 1.91651E+04-3.48190E+05 1.73267E+05-6.32501E+05 1.10595E-09 7.07587E-09
 -1       302 2.06764E+04-3.04510E+05 1.07769E+05-9.25098E+05-8.54925E-10-6.21003E-09
 -1       303-2.04372E+03-3.32347E+05 7.11337E+04-6.30997E+05 4.47471E-10-5.69089E-08
 -1       304 1.33835E+04-3.06333E+05 8.93631E+04-9.24488E+05-3.56522E-10-2.19188E-08
 -1       305 1.00166E+04-3.38770E+05 1.32015E+05-6.33083E+05 4.36557E-11 1.18373E-07
 -1       306-1.78605E+07-3.25758E+06-4.32391E+06-1.84811E+06-4.65079E-08 2.32831E-09
 -1       307 1.10114E+07-5.61080E+05 2.59411E+06-8.08991E+06-5.55170E-07-6.49452E-08
 -1       308-8.16894E+06 1.07061E+05-4.04641E+05 2.38746E+06-1.01252E-07 9.77961E-08
 -1       309-3.22524E+06 8.21176E+05 8.27941E+05-1.32112E+07 4.00874E-07-5.37675E-08
 -1       310-9.18282E+06-5.68015E+04-6.05702E+05 2.19625E+06 3.86208E-08-2.67501E-08
 -1       311 1.33240E+07-1.25710E+06 3.09697E+06-6.50003E+06 3.28524E-07-2.24099E-08
 -1       312-1.81030E+07-3.24045E+06-3.79114E+06-2.79329E+06 1.08033E-07 1.35871E-07
 -1       313 2.00301E+07 4.43364E+06 5.03170E+06 8.39113E+06 8.23056E-08 4.89672E-08
 -1       314-1.28058E+07-7.79693E+06-3.59381E+06-7.33647E+06 2.45171E-07-7.00529E-08
 -1       315-2.24933E+06 1.24189E+07 2.80100E+06 6.61542E+06-1.65594E-07-1.30822E-07
 -1       316-1.97322E+06-6.26963E+06-3.49778E+05-4.34980E+06-6.62621E-07-3.67276E-07
 -1       317-1.45319E+07 1.20809E+07 8.07733E+05-1.43280E+06 4.31770E-07-4.08196E-07
 -1       318-2.46664E+06-6.54747E+06-6.82010E+05-4.54651E+06-5.40720E-07-1.12050E-08
 -1       319-5.23286E+05 1.28018E+07 2.81684E+06 7.16790E+06-4.91200E-08 7.13917E-08
 -1       320-1.37337E+07-8.10036E+06-4.63863E+06-7.20717E+06 1.34693E-07-5.82950E-08
 -1       336 1.03699E+03-1.70942E+06-1.57085E+04 7.07638E+03-6.98128E-09 4.57294E-09
 -1       337-6.04620E+03-1.71155E+06-1.80195E+04-1.73223E+04-5.05997E-09-1.19326E-08
 -1       338 9.66715E+02-1.70956E+06-2.47054E+04 1.01303E+04-9.92077E-09-6.58110E-09
 -1       339-2.63668E+04-1.72502E+06-5.47072E+04-2.32762E+04-7.05495E-09 3.84898E-09
 -1       340 1.82269E+04-1.69729E+06-8.46703E+04 1.29546E+04-9.59699E-09 1.46174E-08
 -1       406 6.94852E+00 3.37588E+05 5.55506E+02 9.88837E-01-7.73845E-10-1.00545E-08
 -1       407 1.79946E+02 3.37693E+05 1.18188E+03 1.21882E+01-2.81297E-10 2.11094E-09
 -1       408 5.93993E+02 3.37503E+05 2.35967E+03-1.35065E+01-1.13437E-09 1.84082E-09
 -1       409 2.53926E+03 3.38447E+05 5.31339E+03 1.38266E+02-1.52568E-10 5.53428E-10
 -1       410 7.32076E+03 3.36830E+05 1.08465E+04-1.31804E+02-1.40790E-09-8.68476E-09
 -1       521-1.98641E+07-4.07738E+06-5.23698E+06-1.79909E+06-3.96976E-08 6.10016E-08
 -1       522 1.17921E+07-5.03966E+05 2.72283E+06-1.03516E+07-3.73780E-07-2.47383E-07
 -1       523-9.38805E+06-4.03293E+04-4.57112E+05 2.79519E+06-5.52973E-09-1.77421E-07
 -1       524-5.26238E+06 1.99686E+06 9.45918E+05-1.59804E+07 7.01868E-07-3.72283E-07
 -1       525-1.05454E+07-2.86715E+05-6.98452E+05 2.58014E+06 4.79689E-07-1.54228E-07
 -1       526 1.48639E+07-1.41833E+06 3.39644E+06-8.40151E+06 6.83067E-08-6.75354E-08
 -1       527-2.01950E+07-4.16716E+06-4.51446E+06-2.88526E+06-1.08383E-07-1.16488E-07
 -1       528 2.27340E+07 4.91872E+06 5.46478E+06 9.79598E+06-1.38942E-07 1.19733E-07
 -1       529-1.42122E+07-9.31330E+06-4.27318E+06-7.96736E+06-6.99074E-08 1.25146E-07
 -1       530-3.86830E+06 1.51431E+07 3.08586E+06 7.16443E+06-3.03320E-07 4.20318E-07
 -1       531-2.28323E+06-7.44823E+06-3.85140E+05-4.89609E+06-6.93020E-07 1.25583E-07
 -1       532-1.77689E+07 1.44547E+07 9.46989E+05-3.14525E+06 3.74726E-07-5.12475E-07
 -1       533-2.75783E+06-7.72759E+06-7.38292E+05-5.06452E+06-3.69619E-08-6.71571E-07
 -1       534-2.08428E+06 1.55900E+07 3.07811E+06 7.77334E+06-1.16335E-07 5.05592E-07
 -1       535-1.51714E+07-9.69727E+06-5.42981E+06-7.81477E+06 3.35276E-08 3.23271E-07
 -1       536-5.78960E+05-3.87519E+04-3.50508E+03-3.78175E+04-9.02355E-09 3.84189E-08
 -1       537-1.78642E+05 3.90709E+04 6.79686E+04 9.02938E+04-8.74638E-08 7.68596E-08
 -1       538-3.87694E+05 4.60977E+02 8.78796E+03-5.45746E+04 1.89863E-08 7.85230E-08
 -1       539-3.11992E+05 3.15002E+03 1.87703E+04 1.03274E+05 1.18686E-07 8.22039E-08
 -1       540-4.48815E+05-2.06523E+02-1.10087E+04-5.10403E+04-9.25024E-09 8.69690E-08
 -1       541-6.05639E+04 1.03399E+04 6.51104E+04 6.92714E+04 5.63807E-09 8.07672E-08
 -1       542-6.32377E+05-1.23054E+04-5.06683E+04-2.01728E+04 2.93453E-08 3.82549E-08
 -1       543 9.41361E+04 1.65588E+04 9.51982E+04-1.05414E+04 1.65994E-08-1.22304E-09
 -1       544-5.99394E+05-9.81429E+03-4.49162E+04 2.84581E+04 1.43214E-08-4.07756E-08
 -1       545-1.36417E+05 5.17560E+03 4.66491E+04-8.28981E+04 1.93676E-08-6.79793E-08
 -1       546-4.07964E+05 4.12855E+03-7.93587E+03 5.20347E+04 2.98064E-08-6.60704E-08
 -1       547-3.24948E+05-4.52838E+03 3.29441E+03-1.05670E+05-1.06369E-07-7.76589E-08
 -1       548-4.15877E+05 4.03525E+03-1.88182E+04 5.15466E+04-7.87797E-08-7.79978E-08
 -1       549-1.21829E+05 1.32150E+03 2.52078E+04-8.00456E+04-5.72841E-08-5.89544E-08
 -1       550-6.05607E+05-6.25226E+03-9.47634E+04 2.60751E+04 7.91806E-09-2.25446E-08
 -1       551 3.13253E+04-7.30724E+05 7.91778E+03-1.13859E+06-8.01956E-08-9.60426E-09
 -1       552 7.00245E+04-7.59550E+05 2.32203E+04-1.62328E+06-5.89353E-08 2.19952E-08
 -1       553 5.23447E+04-7.60904E+05 4.08021E+04-1.13333E+06-9.38380E-08 1.55487E-08
 -1       554 1.02978E+05-7.66384E+05 9.10942E+04-1.62517E+06-5.91099E-08 1.97542E-08
 -1       555 8.16638E+04-7.82262E+05 1.63171E+05-1.13368E+06-9.69885E-08-1.31549E-08
 -1       556 1.71215E+05-3.03048E+05 5.24443E+04-3.45797E+05-2.06637E-08 4.51109E-09
 -1       557 2.81958E+05-3.91888E+05 2.89762E+04-4.42019E+05-6.98492E-09-2.80852E-09
 -1       558 1.61065E+05-3.04188E+05 9.45488E+03-3.43807E+05-1.35042E-08 2.02999E-09
 -1       559 2.61933E+05-3.96962E+05 5.48662E+03-4.55719E+05 1.64582E-08-4.30737E-09
 -1       560 1.51340E+05-2.98031E+05 9.33261E+02-3.50635E+05 6.28643E-09 1.70330E-08
 -1       561 2.49332E+05-3.92199E+05 1.00117E+03-4.64136E+05-6.69388E-09 1.02427E-08
 -1       562 1.43672E+05-2.93207E+05-3.31469E+02-3.56152E+05-1.78989E-09-1.22418E-09
 -1       563 2.40274E+05-3.88250E+05 2.21201E+02-4.70009E+05-4.94765E-10-9.13587E-09
 -1       564 1.38345E+05-2.89871E+05-2.02562E+02-3.59917E+05 1.05501E-08-7.03130E-09
 -1       565 2.34523E+05-3.85749E+05 9.52426E+01-4.73670E+05 2.22281E-09 5.06225E-09
 -1       566 1.35446E+05-2.88029E+05-9.53993E+01-3.61948E+05-6.84668E-09-1.04956E-09
 -1       567 2.32080E+05-3.84680E+05-2.05243E+02-4.75112E+05 8.78026E-09-7.95262E-09
 -1       568 1.35038E+05-2.87790E+05-7.23292E+02-3.62328E+05 6.95763E-10 1.34605E-08
 -1       569 2.31805E+05-3.84653E+05-1.82463E+03-4.73435E+05-4.51837E-09 1.54832E-08
 -1       570 1.38027E+05-2.90447E+05-4.07706E+03-3.61594E+05 3.95084E-09-8.21183E-09
 -1       571 2.55131E+05 9.28645E+03 1.34821E+04-7.55078E+04 2.12367E-09-2.64549E-09
 -1       572 2.57109E+05 3.37689E+03 6.60642E+03-8.28348E+04 2.88719E-09-9.00673E-09
 -1       573 2.55921E+05 9.50073E+02 2.93527E+03-7.53560E+04 1.92404E-08 3.68163E-09
 -1       574 2.56135E+05 4.63771E+02 1.47145E+03-8.30190E+04 3.94330E-08-5.13592E-09
 -1       575 2.56009E+05 2.30844E+02 6.94244E+02-7.53355E+04 1.66938E-08-6.15091E-09
 -1       576 2.56010E+05 2.24601E+02 3.54885E+02-8.30435E+04-3.21279E-09-2.94494E-09
 -1       577 2.56036E+05 1.84033E+02 1.76846E+02-7.53327E+04 4.63388E-10 1.15679E-08
 -1       578 2.56020E+05 1.99687E+02 1.01073E+02-8.30468E+04-9.85892E-10 3.73348E-09
 -1       579 2.56079E+05 1.63970E+02 6.87761E+01-7.53325E+04 2.31285E-09-2.85945E-09
 -1       580 2.56081E+05 1.70583E+02 7.75345E+01-8.30426E+04-6.34827E-09 1.38998E-08
 -1       581 2.56148E+05 1.31141E+02 1.17118E+02-7.53371E+04 3.94721E-09 4.76030E-09
 -1       582 2.56193E+05 1.58624E+02 2.35483E+02-8.29940E+04-8.64020E-11-3.05590E-10
 -1       583 2.56229E+05 1.88384E+02 4.54455E+02-7.53814E+04 2.01544E-09 1.16067E-08
 -1       584 2.56463E+05 5.54361E+02 1.02523E+03-8.26219E+04 4.50564E-09 7.34531E-09
 -1       585 2.56211E+05 1.43741E+03 2.07999E+03-7.57091E+04-6.62112E-10 3.40515E-09
 -1       586-3.09683E+03 9.34125E+04-3.21405E+03-2.24317E+05-2.77896E-09-3.58182E-09
 -1       587-9.69353E+02 9.30694E+04 3.09405E+02-2.46895E+05-3.33603E-09-1.46056E-08
 -1       588 6.12781E+02 9.30056E+04 3.92096E+03-2.24204E+05-6.94854E-10-1.52531E-08
 -1       589 4.68321E+03 9.50805E+04 1.04959E+04-2.46657E+05-5.15865E-09-1.64646E-08
 -1       590 1.45341E+04 9.18558E+04 2.21455E+04-2.24589E+05-2.79033E-09-8.04903E-09
 -1       591-5.89481E+04-1.36593E+04-1.88304E+04-2.64181E+04-2.88856E-09 7.45786E-10
 -1       592-6.20032E+04-1.69952E+04-1.01999E+04-2.98607E+04-1.89937E-09 3.56442E-09
 -1       593-6.08344E+04-1.22898E+04-4.24584E+03-2.77959E+04-1.94348E-10 2.75782E-09
 -1       594-5.93983E+04-1.42375E+04-2.11756E+03-2.99657E+04 3.90520E-09 1.51859E-08
 -1       595-6.09783E+04-1.22850E+04-9.72414E+02-2.78586E+04-3.39426E-09 2.21493E-08
 -1       596-5.92203E+04-1.41114E+04-4.94572E+02-2.99450E+04 3.75428E-09-1.19404E-08
 -1       597-6.09964E+04-1.22977E+04-2.69808E+02-2.78609E+04 3.32500E-09-6.96792E-09
 -1       598-5.92028E+04-1.41065E+04-2.17815E+02-2.99392E+04-3.89568E-09-5.54905E-09
 -1       599-6.09952E+04-1.22981E+04-2.79378E+02-2.78606E+04-4.91605E-09 2.02226E-09
 -1       600-5.92207E+04-1.41122E+04-5.19910E+02-2.99435E+04-5.78802E-09 6.55632E-09
 -1       601-6.09740E+04-1.22857E+04-1.02614E+03-2.78574E+04-3.76576E-09-1.06706E-09
 -1       602-5.94084E+04-1.42446E+04-2.23661E+03-2.99621E+04-7.39101E-09-1.36471E-08
 -1       603-6.08196E+04-1.22932E+04-4.48546E+03-2.77918E+04-1.03933E-09-3.67118E-09
 -1       604-6.21749E+04-1.71417E+04-1.07750E+04-2.98305E+04 2.93818E-09-1.35315E-08
 -1       605-5.88098E+04-1.37549E+04-1.98922E+04-2.63525E+04 5.12114E-09 1.13387E-08
 -1       606 2.70165E+04-1.24055E+04-2.22653E+04 2.52309E+04 3.97176E-09-5.10772E-09
 -1       607 2.32095E+04-4.03781E+03-1.10876E+04 2.83389E+04-3.23780E-10-9.56516E-09
 -1       608 2.53751E+04-7.15492E+02-4.96419E+03 2.50413E+04-1.60799E-09 5.96333E-09
 -1       609 2.49546E+04-2.28768E+02-2.50756E+03 2.85623E+04 3.40879E-09-7.23048E-10
 -1       610 2.51843E+04-1.57954E+01-1.19688E+03 2.50195E+04 7.62157E-10 2.76486E-10
 -1       611 2.51137E+04-1.04535E+01-6.03446E+02 2.85865E+04 4.99767E-10 1.20035E-08
 -1       612 2.51386E+04-8.83877E-01-2.87404E+02 2.50173E+04-5.99357E-10 3.57113E-09
 -1       613 2.51187E+04-4.09881E+00-1.29221E+02 2.85894E+04 5.52973E-10-1.56622E-08
 -1       614 2.51155E+04-3.97514E+00-3.16225E+01 2.50166E+04-1.19144E-10 2.09184E-10
 -1       615 2.51102E+04-6.17442E-01 5.11697E+01 2.85899E+04 2.28238E-09 2.19723E-08
 -1       616 2.50976E+04 5.36565E-01 1.56157E+02 2.50169E+04-5.80258E-10 1.48773E-08
 -1       617 2.51260E+04 3.44598E+01 3.57461E+02 2.85894E+04-7.79664E-10 3.92743E-09
 -1       618 2.50644E+04 1.04967E+02 7.20883E+02 2.50171E+04-1.48930E-09 5.99266E-09
 -1       619 2.53787E+04 5.92978E+02 1.61909E+03 2.85886E+04-5.12955E-10-4.28145E-10
 -1       620 2.48239E+04 1.81539E+03 3.25437E+03 2.50171E+04 2.17847E-09-4.31555E-10
 -1       621 3.63423E+02 2.62292E+05 3.08178E+03 2.73955E+04 5.19321E-10 7.33235E-09
 -1       622 4.62673E+02 2.63027E+05 2.80508E+03 3.98121E+04 6.42103E-10 9.78571E-09
 -1       623 6.23508E+01 2.62457E+05 3.46562E+03 2.72686E+04 6.98719E-10 1.74896E-09
 -1       624 1.70827E+03 2.64120E+05 6.79379E+03 3.99390E+04 8.23178E-10-2.44040E-09
 -1       625 1.69690E+03 2.61115E+05 1.19090E+04 2.72658E+04 8.92669E-10-2.23365E-08
 -1       626 2.29732E+05 5.70499E+04 4.77661E+03 1.15312E+05 1.45883E-09-1.10176E-08
 -1       627 2.27395E+05 5.85283E+04 2.30179E+03 1.19491E+05-3.23780E-10-1.09163E-08
 -1       628 2.29862E+05 5.48492E+04 9.73063E+02 1.16105E+05-4.78394E-10-7.79073E-09
 -1       629 2.26780E+05 5.79138E+04 4.76315E+02 1.19733E+05 9.50422E-10-1.17398E-08
 -1       630 2.29874E+05 5.47440E+04 2.20548E+02 1.16135E+05 9.05857E-10-2.48855E-09
 -1       631 2.26712E+05 5.78927E+04 1.18204E+02 1.19734E+05-1.26920E-09 1.38303E-08
 -1       632 2.29868E+05 5.47494E+04 7.69437E+01 1.16129E+05 3.98813E-10-1.67316E-08
 -1       633 2.26701E+05 5.78961E+04 8.44137E+01 1.19729E+05-2.19916E-09-3.66572E-09
 -1       634 2.29861E+05 5.47483E+04 1.35255E+02 1.16127E+05-4.19732E-10 2.80761E-09
 -1       635 2.26711E+05 5.78957E+04 2.73021E+02 1.19732E+05-4.81350E-10 8.43784E-09
 -1       636 2.29851E+05 5.47445E+04 5.51003E+02 1.16126E+05-1.04243E-08-2.46328E-08
 -1       637 2.26828E+05 5.79819E+04 1.21110E+03 1.19730E+05-4.34238E-09-8.41283E-11
 -1       638 2.29807E+05 5.50127E+04 2.48844E+03 1.16004E+05-1.19326E-09 9.71750E-09
 -1       639 2.28135E+05 5.97996E+04 5.88740E+03 1.19344E+05-5.32577E-09 2.53322E-08
 -1       640 2.29629E+05 6.04378E+04 1.22174E+04 1.13712E+05-1.16188E-08-5.86101E-09
 -1       656 5.95003E+04-1.51787E+06-1.43634E+05-1.43028E+03-2.91038E-11-3.02359E-09
 -1       657-7.86907E+04-1.58275E+06-1.18938E+05 6.44363E+03-8.73115E-11-1.62040E-08
 -1       658 1.89436E+04-1.53631E+06-7.31858E+04-3.17310E+03 2.71939E-10-3.10151E-09
 -1       659-8.49120E+04-1.58570E+06-1.27112E+05 7.79758E+03-1.21145E-09 1.59971E-09
 -1       660 6.57075E+04-1.51492E+06-1.57688E+05-2.78420E+03-1.18598E-09 2.30852E-09
 -1       661 1.62244E+05 1.72509E+04 1.65228E+04 6.34361E+04-2.54659E-11 1.57961E-08
 -1       662 1.71345E+05 2.97233E+04 1.11346E+04 6.00038E+04-2.05955E-09-7.51788E-09
 -1       663 1.65488E+05 2.25528E+04 3.89448E+03 6.24959E+04-1.91494E-09 6.14341E-09
 -1       664 1.67586E+05 2.35214E+04 2.32924E+03 6.11509E+04-3.61410E-10-2.30866E-08
 -1       665 1.65979E+05 2.32786E+04 9.18870E+02 6.23544E+04-4.38831E-10-8.13054E-09
 -1       666 1.67007E+05 2.26901E+04 5.37165E+02 6.13346E+04 4.70168E-09-7.54222E-10
 -1       667 1.66063E+05 2.33624E+04 2.84740E+02 6.23201E+04-5.83952E-10 3.37236E-09
 -1       668 1.66915E+05 2.26281E+04 2.88771E+02 6.13844E+04 2.97304E-09-2.20085E-08
 -1       669 1.66070E+05 2.33388E+04 3.89853E+02 6.23050E+04 3.43465E-09 4.70740E-09
 -1       670 1.67010E+05 2.28384E+04 8.47873E+02 6.13865E+04-7.42097E-09 8.16630E-09
 -1       671 1.65968E+05 2.31564E+04 1.50511E+03 6.23161E+04 1.38387E-09-5.12517E-09
 -1       672 1.67887E+05 2.43026E+04 3.85052E+03 6.11742E+04 3.30346E-10 8.89190E-09
 -1       673 1.65198E+05 2.19115E+04 6.45276E+03 6.25032E+04 1.83036E-09-1.67711E-09
 -1       674 1.74030E+05 3.46685E+04 1.84535E+04 5.93686E+04-1.87686E-09-5.18776E-09
 -1       675 1.59865E+05 1.30807E+04 2.73913E+04 6.40126E+04 3.45153E-10-2.78669E-09
 -1       676 2.22921E+01-2.72014E+05-1.03443E+03-5.44491E+01 2.06228E-10 3.52257E-09
 -1       677-2.74533E+02-2.72264E+05-1.89317E+03 1.08822E+02 4.17322E-09-1.56574E-08
 -1       678 1.83413E+02-2.71836E+05-3.34664E+03-5.43362E+01 4.46789E-10 1.35565E-08
 -1       679-3.34749E+03-2.74284E+05-7.95013E+03 1.08389E+02 3.56658E-09 9.27756E-10
 -1       680 1.99797E+03-2.69995E+05-1.28129E+04-5.34094E+01 2.53749E-10 1.54124E-09
 -1       771-2.85108E+06-6.36535E+05-1.15642E+05-1.31849E+06-3.28873E-08-2.41562E-08
 -1       772-2.79288E+06-7.07525E+05-6.00452E+04-1.40003E+06-2.67755E-08 1.43118E-08
 -1       773-2.87276E+06-6.19485E+05-2.97002E+04-1.32721E+06-1.24855E-08 9.41509E-09
 -1       774-2.78387E+06-6.95103E+05-1.34439E+04-1.41687E+06 2.77505E-08 7.65431E-09
 -1       775-2.88313E+06-6.12154E+05-9.45217E+03-1.33099E+06-8.32370E-09 2.25555E-09
 -1       776-2.79053E+06-6.93712E+05-3.63432E+03-1.42905E+06-1.68220E-08 3.72529E-09
 -1       777-2.89192E+06-6.05759E+05-3.96239E+03-1.33431E+06 1.97906E-09 9.74251E-09
 -1       778-2.79763E+06-6.92505E+05-1.15505E+03-1.43945E+06 5.66070E-09 9.48421E-09
 -1       779-2.89937E+06-6.00238E+05-1.91465E+03-1.33715E+06-4.96220E-09-5.64614E-09
 -1       780-2.80387E+06-6.91341E+05-3.25989E+02-1.44789E+06 2.19006E-09-5.67525E-10
 -1       781-2.90524E+06-5.95822E+05-7.26918E+02-1.33938E+06-1.92813E-08-1.95723E-09
 -1       782-2.80865E+06-6.90330E+05 2.68659E+02-1.45411E+06-2.95404E-08-4.55748E-09
 -1       783-2.90934E+06-5.92782E+05 4.27373E+02-1.34094E+06-1.10449E-08-1.00854E-08
 -1       784-2.81125E+06-6.89188E+05 1.73568E+03-1.45794E+06-1.90921E-08 8.14134E-09
 -1       785-2.91176E+06-5.90982E+05 3.06625E+03-1.34195E+06-3.23198E-08 7.45968E-09
 -1       786 1.23810E+05-9.30858E+03 2.15353E+04-2.11764E+02 9.59940E-10-2.75668E-09
 -1       787 1.33149E+05 1.07767E+04 1.52355E+04-4.30453E+01 6.12211E-09 8.31642E-09
 -1       788 1.27411E+05-1.45897E+03 5.57203E+03-1.81882E+02 2.77312E-09 2.28019E-08
 -1       789 1.28954E+05 1.68817E+03 3.49847E+03-9.01228E+01 3.41334E-10 2.90299E-09
 -1       790 1.28005E+05-2.27479E+02 1.41767E+03-1.64696E+02-3.21362E-09 1.79344E-08
 -1       791 1.28259E+05 2.62930E+02 8.21175E+02-1.19789E+02-5.77585E-09 2.56256E-08
 -1       792 1.28106E+05-3.47981E+01 3.52688E+02-1.52217E+02-3.43614E-09 1.08007E-08
 -1       793 1.28140E+05 3.85299E+01 1.86160E+02-1.43276E+02-7.03666E-10 7.42551E-09
 -1       794 1.28124E+05-3.22106E+00 6.91462E+01-1.41208E+02 2.27586E-09-7.79362E-09
 -1       795 1.28112E+05-8.68648E+00 6.70016E-01-1.66194E+02-2.85777E-09-1.55870E-09
 -1       796 1.28133E+05 1.23931E+01-5.90874E+01-1.29299E+02 1.80156E-09-1.26773E-08
 -1       797 1.28069E+05-9.56963E+01-1.89013E+02-1.93417E+02 2.13413E-09-4.75368E-09
 -1       798 1.28168E+05 8.37227E+01-3.14369E+02-1.13985E+02 1.16154E-09 8.04457E-09
 -1       799 1.27828E+05-6.17913E+02-8.71336E+02-2.30802E+02 4.20552E-09 1.22959E-08
 -1       800 1.28374E+05 5.34177E+02-1.23493E+03-9.19139E+01 2.34317E-10 6.18377E-09
 -1       801-1.47991E+04-6.82119E+06-8.63607E+05 7.01241E+05 6.68806E-08-3.61943E-08
 -1       802 2.66170E+05 1.01128E+06 9.42657E+05-8.01756E+05 1.86224E-07-1.80298E-08
 -1       803-2.45231E+05-8.62869E+06-9.31403E+05 4.62694E+05 6.03250E-08 2.49311E-08
 -1       804 9.71278E+04-9.12216E+05 6.62108E+05 4.20890E+05-7.35163E-08-5.72331E-08
 -1       805 1.18358E+05-4.91128E+06-1.47984E+05-5.18913E+05-3.09519E-08-3.46422E-08
 -1       806-2.76101E+05-5.26607E+04-2.02067E+04-1.08525E+05-6.85213E-09-8.57563E-09
 -1       807-2.77813E+05-4.92393E+04-9.92733E+03-1.13282E+05 4.10523E-09 3.59677E-10
 -1       808-2.76646E+05-4.53884E+04-4.21157E+03-1.11980E+05-2.06410E-09 1.49419E-09
 -1       809-2.75732E+05-4.64449E+04-2.05938E+03-1.13521E+05-7.45354E-09 3.19282E-08
 -1       810-2.76730E+05-4.51351E+04-9.43871E+02-1.12134E+05 4.97812E-09 7.28869E-09
 -1       811-2.75572E+05-4.63320E+04-4.69363E+02-1.13490E+05 8.04221E-10-1.56283E-08
 -1       812-2.76743E+05-4.51564E+04-2.37255E+02-1.12134E+05-4.40923E-09 3.53657E-09
 -1       813-2.75550E+05-4.63335E+04-1.54078E+02-1.13474E+05-4.06226E-09 5.17957E-10
 -1       814-2.76738E+05-4.51642E+04-1.52377E+02-1.12131E+05-1.88993E-09 1.33959E-08
 -1       815-2.75555E+05-4.63350E+04-2.45478E+02-1.13469E+05 6.10180E-09-6.04359E-09
 -1       816-2.76722E+05-4.51624E+04-4.64988E+02-1.12128E+05 3.96540E-10 7.24322E-09
 -1       817-2.75635E+05-4.63791E+04-9.98260E+02-1.13461E+05-1.35228E-08 4.23029E-09
 -1       818-2.76663E+05-4.53020E+04-2.03587E+03-1.12062E+05-4.34193E-09-9.34415E-09
 -1       819-2.76750E+05-4.76104E+04-4.79085E+03-1.13201E+05 9.26593E-09-1.99379E-08
 -1       820-2.76285E+05-4.89164E+04-9.75080E+03-1.10512E+05 6.77483E-09 2.94972E-09
 -1       821-3.39721E+05 1.87424E+04-4.33631E+04 8.69660E+02 6.48260E-09-5.37693E-09
 -1       822-3.58443E+05-2.16977E+04-3.06739E+04-1.64012E+03 1.05072E-09-1.35333E-09
 -1       823-3.46929E+05 2.93989E+03-1.12278E+04 1.07628E+03-4.52442E-09-3.33330E-09
 -1       824-3.49987E+05-3.40011E+03-7.05946E+03-1.56545E+03 8.28287E-10-2.71939E-10
 -1       825-3.48174E+05 4.58512E+02-2.91214E+03 7.95005E+02 6.05347E-09-7.76163E-09
 -1       826-3.48492E+05-5.37844E+02-1.72866E+03-6.56045E+02 5.63620E-09-2.58896E-09
 -1       827-3.48420E+05 7.74832E+01-9.27787E+02 1.66853E+02 2.10025E-09-5.47229E-09
 -1       828-3.48283E+05-1.62260E+02-7.78057E+02 6.32760E+02-3.11791E-09 3.66776E-09
 -1       829-3.48382E+05 8.28870E+01-9.41607E+02-4.93821E+02 1.50472E-10 1.96698E-09
 -1       830-3.48588E+05-5.63900E+02-1.80886E+03 1.65436E+03 3.05619E-10 1.10444E-08
 -1       831-3.48118E+05 4.80977E+02-3.01494E+03-8.54768E+02-2.53236E-09 1.51397E-08
 -1       832-3.50073E+05-3.53886E+03-7.34450E+03 1.89505E+03-4.26108E-10 1.15656E-08
 -1       833-3.46899E+05 3.05651E+03-1.16815E+04-7.34513E+02-1.84749E-09 1.23300E-08
 -1       834-3.58764E+05-2.25626E+04-3.18836E+04 1.22320E+03-1.51623E-09 6.00267E-11
 -1       835-3.39428E+05 1.94883E+04-4.51081E+04-1.82899E+02 4.91337E-09 1.68293E-08
 -1       836-1.20482E+03 3.23943E+05 1.98731E+04-1.60428E+04-3.42243E-09 4.65343E-09
 -1       837 4.27935E+03 3.30147E+05 1.69105E+04-3.24810E+04-3.86399E-09 7.99560E-09
 -1       838-4.70579E+02 3.25670E+05 1.73621E+04-1.59756E+04-2.94767E-09 2.22258E-08
 -1       839 1.10215E+04 3.35171E+05 3.29739E+04-3.25265E+04-2.50475E-09 6.48578E-09
 -1       840-3.37781E+03 3.18870E+05 5.26379E+04-1.59994E+04-2.60115E-09-6.56422E-09
 -1       856-6.36207E+04 7.76407E+03-2.04603E+04-4.03230E+02 1.51431E-10-5.46152E-09
 -1       857-7.20597E+04-9.11505E+03-1.40853E+04 5.17514E+03 3.79242E-09-5.45720E-09
 -1       858-6.69592E+04 1.08841E+03-5.30932E+03-4.26099E+02-2.32831E-10-2.90356E-09
 -1       859-6.82275E+04-1.27345E+03-3.20485E+03 5.21018E+03-4.12021E-09 6.57582E-09
 -1       860-6.74581E+04 1.51963E+02-1.34462E+03-4.38184E+02-1.74737E-10 4.46477E-09
 -1       861-6.76534E+04-1.74892E+02-7.42816E+02 5.22670E+03-1.70385E-09-6.57747E-09
 -1       862-6.75360E+04 2.03246E+01-3.15015E+02-4.42625E+02 1.38582E-09 5.56827E-09
 -1       863-6.75590E+04-1.60125E+01-1.28910E+02 5.22907E+03 3.48951E-10-1.17770E-09
 -1       864-6.75529E+04-3.35204E+00 1.38018E+01-4.40552E+02 4.33289E-10-1.34874E-09
 -1       865-6.75139E+04 4.85790E+01 1.76023E+02 5.21784E+03 1.78379E-09 6.00818E-09
 -1       866-6.75792E+04-4.44461E+01 3.71094E+02-4.31397E+02-6.74277E-10-2.21510E-09
 -1       867-6.73350E+04 3.68727E+02 9.23948E+02 5.19292E+03 2.03005E-09-1.17671E-08
 -1       868-6.77275E+04-3.18196E+02 1.53783E+03-4.15631E+02-1.32434E-09 3.20767E-10
 -1       869-6.62044E+04 2.64801E+03 4.09865E+03 5.15145E+03 2.14072E-10-1.02432E-09
 -1       870-6.87031E+04-2.26251E+03 5.94748E+03-3.89897E+02-1.18359E-09-4.26257E-09
 -1       871-5.02616E+03-1.58808E+04-1.71165E+04 1.14193E+05-1.91721E-09 1.47957E-08
 -1       872-1.97235E+03-1.98013E+04-7.10450E+03 1.48059E+05-4.77485E-09 1.71335E-08
 -1       873 1.82770E+02-1.79334E+04 6.75554E+02 1.13943E+05-2.52203E-09-3.12662E-09
 -1       874 2.76336E+03-1.56832E+04 8.95711E+03 1.48094E+05-4.97130E-09 1.14330E-08
 -1       875 6.04637E+03-2.00654E+04 2.00841E+04 1.14153E+05-2.01180E-09-3.98904E-09
 -1       876 2.64767E+05 4.49406E+04 1.37465E+04 1.06627E+05-1.57775E-09-4.39923E-09
 -1       877 2.65643E+05 4.78684E+04 7.34108E+03 1.10600E+05 3.43880E-09 4.11092E-09
 -1       878 2.66052E+05 4.34188E+04 3.07557E+03 1.07754E+05-1.72486E-09-5.51063E-09
 -1       879 2.63774E+05 4.60042E+04 1.53235E+03 1.10694E+05-1.48520E-09-1.74497E-08
 -1       880 2.66144E+05 4.34027E+04 7.13677E+02 1.07800E+05-5.27257E-09 2.34860E-09
 -1       881 2.63650E+05 4.59247E+04 3.80888E+02 1.10673E+05-2.23247E-09 8.72046E-09
 -1       882 2.66153E+05 4.34145E+04 2.43297E+02 1.07802E+05 5.49653E-09 3.42548E-09
 -1       883 2.63641E+05 4.59206E+04 2.60941E+02 1.10667E+05-3.08478E-09 9.02560E-09
 -1       884 2.66147E+05 4.34118E+04 4.14545E+02 1.07802E+05-1.59946E-09 5.17775E-09
 -1       885 2.63674E+05 4.59264E+04 8.33123E+02 1.10677E+05-1.34645E-09 1.26124E-09
 -1       886 2.66115E+05 4.33875E+04 1.67897E+03 1.07799E+05 1.60867E-09-4.70322E-09
 -1       887 2.63969E+05 4.61199E+04 3.66743E+03 1.10719E+05 2.82540E-10-8.91941E-09
 -1       888 2.65883E+05 4.34283E+04 7.38998E+03 1.07681E+05 1.21796E-09 4.30964E-09
 -1       889 2.68370E+05 5.06942E+04 1.76536E+04 1.10583E+05 4.27540E-09-2.58797E-09
 -1       890 2.62870E+05 4.70080E+04 3.30644E+04 1.04865E+05-5.91172E-10 6.02085E-09
 -1       891-1.14276E+02-1.47818E+05-1.79511E+03 2.57279E+04-7.61702E-10-3.72734E-09
 -1       892-2.09567E+02-1.48275E+05-1.93390E+03 3.90083E+04 1.00181E-09 1.07475E-08
 -1       893 5.23442E+00-1.47876E+05-2.74429E+03 2.57341E+04-3.80169E-10-3.81988E-11
 -1       894-1.41818E+03-1.49315E+05-5.68413E+03 3.88662E+04 1.21145E-09 1.27875E-08
 -1       895-1.11917E+03-1.46692E+05-1.00114E+04 2.58701E+04-1.53364E-10 5.04133E-09
 -1       956-3.37948E+05-4.80780E+03-1.19794E+04 2.54923E+04 7.33417E-09-5.76051E-09
 -1       957-3.40306E+05-1.66061E+03-6.14926E+03 3.06671E+04 4.56203E-09-3.90173E-10
 -1       958-3.39019E+05-1.72645E+02-2.77075E+03 2.53468E+04-2.74576E-09-6.73549E-09
 -1       959-3.39200E+05-7.30743E+01-1.41504E+03 3.08318E+04-6.23777E-09 1.09071E-09
 -1       960-3.39119E+05-9.48180E-01-6.89991E+02 2.53322E+04-1.44337E-09-2.07569E-09
 -1       961-3.39124E+05-1.04046E+01-3.66068E+02 3.08487E+04 3.62115E-09 7.02607E-09
 -1       962-3.39141E+05-3.70866E+00-2.09779E+02 2.53299E+04-1.47338E-10-2.23986E-09
 -1       963-3.39123E+05-7.71520E+00-1.68806E+02 3.08517E+04 9.60426E-10 1.11368E-08
 -1       964-3.39146E+05-1.05562E+00-2.05620E+02 2.53292E+04-3.07631E-09 7.67477E-09
 -1       965-3.39134E+05-4.75351E+00-3.55916E+02 3.08513E+04-1.04262E-09-5.69185E-09
 -1       966-3.39133E+05 6.94125E+00-6.68719E+02 2.53303E+04 2.27533E-09-2.44381E-09
 -1       967-3.39217E+05-6.00392E+01-1.37167E+03 3.08398E+04-2.83421E-09 1.97540E-08
 -1       968-3.39043E+05-1.54334E+02-2.68491E+03 2.53407E+04 2.35104E-09 1.41447E-08
 -1       969-3.40299E+05-1.59434E+03-5.96084E+03 3.07195E+04 3.58591E-09-1.47983E-09
 -1       970-3.38012E+05-4.64423E+03-1.16114E+04 2.54475E+04-1.20463E-09 3.44608E-09
 -1       971-3.12727E+05-1.58954E+03-8.67874E+03 1.42973E+04 1.85082E-09-2.49202E-08
 -1       972-3.14825E+05-1.15722E+03-4.72637E+03 1.98612E+04-1.77715E-09-1.37607E-08
 -1       973-3.13693E+05-3.75245E+01-2.11677E+03 1.41816E+04-1.97269E-09 3.72506E-09
 -1       974-3.13828E+05-4.75042E+01-1.09702E+03 1.99896E+04 1.20713E-09 7.78073E-09
 -1       975-3.13769E+05 3.90314E+00-5.48182E+02 1.41703E+04 2.55204E-09 5.30349E-10
 -1       976-3.13770E+05-1.37121E+00-3.15947E+02 2.00038E+04 9.77479E-09 9.52957E-09
 -1       977-3.13784E+05 4.28588E+00-2.28746E+02 1.41673E+04 4.87989E-09 6.80370E-09
 -1       978-3.13774E+05 4.18445E+00-2.66913E+02 2.00079E+04-2.28283E-10 6.26721E-09
 -1       979-3.13784E+05 1.18410E+01-4.28184E+02 1.41661E+04-3.97040E-09 1.94837E-09
 -1       980-3.13806E+05 6.92227E+00-8.26353E+02 2.00087E+04-7.90209E-09-4.80100E-09
 -1       981-3.13757E+05 3.24735E+01-1.60023E+03 1.41666E+04-6.20446E-09 2.04352E-10
 -1       982-3.14026E+05-1.11273E+02-3.30752E+03 2.00026E+04-1.03391E-08-9.83098E-09
 -1       983-3.13556E+05-6.99303E+01-6.42647E+03 1.41723E+04-1.63072E-09-7.54198E-10
 -1       984-3.17117E+05-3.46751E+03-1.43916E+04 1.99224E+04 4.75393E-09 4.14707E-09
 -1       985-3.10647E+05-4.77240E+03-2.64275E+04 1.42451E+04 2.61252E-09-1.12777E-10
 -3
    1PSTEP                        27          14           1          
  100CL  114 6.22559E-01         409                     0   14           1
 -4  DISP        4    1
 -5  D1          1    2    1    0
 -5  D2          1    2    2    0
 -5  D3          1    2    3    0
 -5  ALL         1    2    0    0    1ALL
 -1         1 1.60721E-03 0.00000E+00 0.00000E+00
 -1         2 1.50850E-03-3.54681E-29-2.64698E-23
 -1         3 2.84481E-04 1.32366E-27-1.32349E-23
 -1         5 1.56443E-04 7.38735E-26-1.65436E-24
 -1         8 1.58880E-03-5.72004E-07 0.00000E+00
 -1         9 1.55216E-03-4.51491E-06 0.00000E+00
 -1        10 2.59916E-04-3.35372E-06 6.61744E-24
 -1        12 1.57549E-04 7.32460E-07 8.27181E-25
 -1        15 1.56653E-03-6.28323E-07 2.06795E-25
 -1        16 1.57381E-03-5.46671E-06 0.00000E+00
 -1        17 1.79899E-04-7.57835E-06 0.00000E+00
 -1        18 1.59407E-04 2.40547E-05 0.00000E+00
 -1        19 1.60867E-04 1.46036E-06 0.00000E+00
 -1        20 1.61012E-04-1.79982E-06 0.00000E+00
 -1        21 1.60226E-04-8.19555E-06 3.30872E-24
 -1        24 2.81262E-05-1.10286E-05 0.00000E+00
 -1        25 1.66472E-04 2.42501E-05 0.00000E+00
 -1        26 1.67170E-04 2.02352E-06 0.00000E+00
 -1        27 1.65175E-04-5.06127E-06 0.00000E+00
 -1        28 1.64815E-04-8.77645E-06 0.00000E+00
 -1        32 0.00000E+00 0.00000E+00 0.00000E+00
 -1        33 1.72431E-04 2.70945E-06 0.00000E+00
 -1        34 1.70486E-04-5.10453E-06 0.00000E+00
 -1        35 1.68696E-04-9.09238E-06 0.00000E+00
 -1        51 1.60603E-03-1.05414E-07 0.00000E+00
 -1        52 1.60383E-03-1.97450E-07 0.00000E+00
 -1        53 1.60080E-03-2.87966E-07 0.00000E+00
 -1        54 1.59714E-03-3.79031E-07 0.00000E+00
 -1        55 1.59308E-03-4.72102E-07-2.48154E-24
 -1        56 1.60382E-03-6.24062E-08 5.29396E-23
 -1        57 1.59955E-03 1.88894E-06 5.29396E-23
 -1        58 1.59463E-03 5.55669E-06 1.05879E-22
 -1        59 1.58922E-03 1.04639E-05 0.00000E+00
 -1        60 1.58357E-03 1.59717E-05 0.00000E+00
 -1        61 1.57796E-03 2.13900E-05-5.29396E-23
 -1        62 1.57264E-03 2.60430E-05 0.00000E+00
 -1        63 1.56784E-03 2.93086E-05 0.00000E+00
 -1        64 1.56373E-03 3.07658E-05 1.05879E-22
 -1        65 1.56042E-03 3.01234E-05 5.29396E-23
 -1        66 1.55788E-03 2.73949E-05-1.05879E-22
 -1        67 1.55606E-03 2.27451E-05 0.00000E+00
 -1        68 1.55479E-03 1.66170E-05 0.00000E+00
 -1        69 1.55388E-03 9.56818E-06 0.00000E+00
 -1        70 1.55306E-03 2.27678E-06 0.00000E+00
 -1        86 1.51062E-03-7.25924E-07 2.64698E-23
 -1        87 1.51691E-03-1.46875E-06 0.00000E+00
 -1        88 1.52591E-03-2.23066E-06 0.00000E+00
 -1        89 1.53607E-03-3.00345E-06 1.32349E-23
 -1        90 1.54546E-03-3.76916E-06-2.64698E-23
 -1       121 2.83791E-04-5.48253E-07 0.00000E+00
 -1       122 2.81724E-04-1.09835E-06 6.61744E-24
 -1       123 2.78288E-04-1.65208E-06 1.32349E-23
 -1       124 2.73496E-04-2.21135E-06 0.00000E+00
 -1       125 2.67364E-04-2.77759E-06 1.32349E-23
 -1       191 1.56474E-04 1.22102E-07 2.48154E-24
 -1       192 1.56566E-04 2.44199E-07 8.27181E-25
 -1       193 1.56719E-04 3.66290E-07-2.48154E-24
 -1       194 1.56934E-04 4.88367E-07 4.13590E-25
 -1       195 1.57211E-04 6.10426E-07-2.48154E-24
 -1       251 1.58803E-03 1.83776E-05 0.00000E+00
 -1       252 1.58628E-03 6.73768E-05 6.61744E-24
 -1       253 1.58335E-03 1.37626E-04 0.00000E+00
 -1       254 1.57954E-03 2.19836E-04 0.00000E+00
 -1       255 1.57577E-03 3.01431E-04 0.00000E+00
 -1       256 1.57295E-03 3.69855E-04-6.61744E-24
 -1       257 1.57132E-03 4.16157E-04-1.32349E-23
 -1       258 1.57060E-03 4.31900E-04 0.00000E+00
 -1       259 1.56989E-03 4.16628E-04 0.00000E+00
 -1       260 1.56827E-03 3.70651E-04-6.61744E-24
 -1       261 1.56546E-03 3.02297E-04 0.00000E+00
 -1       262 1.56166E-03 2.20408E-04 6.61744E-24
 -1       263 1.55780E-03 1.37535E-04 0.00000E+00
 -1       264 1.55479E-03 6.62505E-05 0.00000E+00
 -1       265 1.55297E-03 1.59321E-05-2.64698E-23
 -1       266 1.58508E-03-5.89713E-07 0.00000E+00
 -1       267 1.58137E-03-5.98085E-07-8.27181E-25
 -1       268 1.57766E-03-6.07049E-07 0.00000E+00
 -1       269 1.57395E-03-6.14260E-07 0.00000E+00
 -1       270 1.57024E-03-6.21431E-07 2.06795E-25
 -1       271 1.58650E-03 2.83643E-06 1.32349E-23
 -1       272 1.58418E-03 6.20837E-06 1.32349E-23
 -1       273 1.58192E-03 9.43996E-06 0.00000E+00
 -1       274 1.57975E-03 1.24153E-05-1.32349E-23
 -1       275 1.57771E-03 1.50254E-05 0.00000E+00
 -1       276 1.57586E-03 1.71634E-05-1.32349E-23
 -1       277 1.57422E-03 1.87289E-05 0.00000E+00
 -1       278 1.57283E-03 1.96276E-05-1.32349E-23
 -1       279 1.57172E-03 1.97733E-05 0.00000E+00
 -1       280 1.57093E-03 1.90885E-05-1.32349E-23
 -1       281 1.57047E-03 1.75056E-05 2.64698E-23
 -1       282 1.57037E-03 1.49674E-05 0.00000E+00
 -1       283 1.57064E-03 1.14282E-05 0.00000E+00
 -1       284 1.57130E-03 6.85469E-06 1.32349E-23
 -1       285 1.57235E-03 1.22400E-06-2.64698E-23
 -1       301 1.55610E-03-4.69509E-06-1.32349E-23
 -1       302 1.55911E-03-4.84520E-06 3.30872E-24
 -1       303 1.56179E-03-4.99210E-06-1.32349E-23
 -1       304 1.56473E-03-5.13900E-06 0.00000E+00
 -1       305 1.56854E-03-5.29040E-06 2.64698E-23
 -1       306 1.58165E-03-1.15378E-04 1.05879E-22
 -1       307 1.64451E-03-4.25868E-04 0.00000E+00
 -1       308 1.71009E-03-8.86430E-04 1.05879E-22
 -1       309 1.76774E-03-1.42809E-03 5.29396E-23
 -1       310 1.82671E-03-1.95763E-03 1.05879E-22
 -1       311 1.89367E-03-2.38301E-03 5.29396E-23
 -1       312 1.95123E-03-2.64182E-03 0.00000E+00
 -1       313 1.96388E-03-2.69515E-03 5.29396E-23
 -1       314 1.88899E-03-2.54628E-03 1.05879E-22
 -1       315 1.69867E-03-2.22889E-03 0.00000E+00
 -1       316 1.40360E-03-1.79892E-03-1.05879E-22
 -1       317 1.04281E-03-1.31342E-03 0.00000E+00
 -1       318 6.87825E-04-8.32655E-04-1.05879E-22
 -1       319 4.08533E-04-4.17563E-04 5.29396E-23
 -1       320 2.37908E-04-1.24628E-04 0.00000E+00
 -1       336 2.50898E-04-4.01020E-06 0.00000E+00
 -1       337 2.40069E-04-4.68511E-06 6.61744E-24
 -1       338 2.27482E-04-5.37936E-06-1.32349E-23
 -1       339 2.13207E-04-6.09339E-06-6.61744E-24
 -1       340 1.97318E-04-6.83097E-06 0.00000E+00
 -1       406 1.57948E-04 8.54458E-07 8.27181E-25
 -1       407 1.58409E-04 9.76391E-07 1.65436E-24
 -1       408 1.58932E-04 1.09822E-06-8.27181E-25
 -1       409 1.59516E-04 1.21980E-06 4.13590E-25
 -1       410 1.60161E-04 1.34088E-06-1.65436E-24
 -1       521 1.60435E-03-1.24824E-04 1.05879E-22
 -1       522 1.66744E-03-4.54497E-04 0.00000E+00
 -1       523 1.73035E-03-9.42280E-04-1.05879E-22
 -1       524 1.78297E-03-1.51362E-03 0.00000E+00
 -1       525 1.83740E-03-2.07146E-03 0.00000E+00
 -1       526 1.90267E-03-2.52013E-03 0.00000E+00
 -1       527 1.96062E-03-2.79204E-03 1.05879E-22
 -1       528 1.97255E-03-2.84697E-03 0.00000E+00
 -1       529 1.89040E-03-2.68759E-03 0.00000E+00
 -1       530 1.68374E-03-2.35259E-03 0.00000E+00
 -1       531 1.36315E-03-1.90096E-03 1.05879E-22
 -1       532 9.71735E-04-1.39319E-03 0.00000E+00
 -1       533 5.86042E-04-8.89784E-04-1.05879E-22
 -1       534 2.80958E-04-4.51947E-04 0.00000E+00
 -1       535 9.36886E-05-1.39972E-04 1.05879E-22
 -1       536 1.79336E-04 2.12988E-05 6.61744E-24
 -1       537 1.77971E-04 7.15090E-05 0.00000E+00
 -1       538 1.75881E-04 1.35276E-04 3.30872E-24
 -1       539 1.73427E-04 2.04750E-04-1.65436E-24
 -1       540 1.71215E-04 2.70377E-04 3.30872E-24
 -1       541 1.69763E-04 3.22618E-04 1.65436E-24
 -1       542 1.69075E-04 3.55764E-04-3.30872E-24
 -1       543 1.68882E-04 3.64224E-04 1.65436E-24
 -1       544 1.68610E-04 3.48698E-04-3.30872E-24
 -1       545 1.67736E-04 3.10057E-04 1.65436E-24
 -1       546 1.66153E-04 2.55188E-04 3.30872E-24
 -1       547 1.64041E-04 1.91075E-04 0.00000E+00
 -1       548 1.61955E-04 1.27408E-04 0.00000E+00
 -1       549 1.60443E-04 7.38756E-05-1.65436E-24
 -1       550 1.59642E-04 3.72143E-05-1.65436E-24
 -1       551 1.58905E-04-8.05545E-06 0.00000E+00
 -1       552 1.35008E-04-8.59048E-06 0.00000E+00
 -1       553 1.09086E-04-9.17129E-06-2.06795E-24
 -1       554 8.20360E-05-9.78183E-06 3.30872E-24
 -1       555 5.47526E-05-1.04007E-05 2.64698E-23
 -1       556 1.73661E-04 8.43380E-06 0.00000E+00
 -1       557 1.68655E-04 2.13273E-05 0.00000E+00
 -1       558 1.64765E-04 3.13516E-05 0.00000E+00
 -1       559 1.61878E-04 3.87761E-05 0.00000E+00
 -1       560 1.59882E-04 4.38704E-05 0.00000E+00
 -1       561 1.58670E-04 4.69061E-05 0.00000E+00
 -1       562 1.58132E-04 4.81557E-05 0.00000E+00
 -1       563 1.58164E-04 4.78924E-05 0.00000E+00
 -1       564 1.58661E-04 4.63901E-05 0.00000E+00
 -1       565 1.59517E-04 4.39231E-05 0.00000E+00
 -1       566 1.60631E-04 4.07660E-05 6.61744E-24
 -1       567 1.61899E-04 3.71939E-05 0.00000E+00
 -1       568 1.63219E-04 3.34817E-05 0.00000E+00
 -1       569 1.64490E-04 2.99044E-05 0.00000E+00
 -1       570 1.65607E-04 2.67370E-05 0.00000E+00
 -1       571 1.59496E-04 2.25920E-05 8.27181E-25
 -1       572 1.59587E-04 2.10719E-05 0.00000E+00
 -1       573 1.59677E-04 1.95075E-05 0.00000E+00
 -1       574 1.59769E-04 1.79126E-05 8.27181E-25
 -1       575 1.59860E-04 1.63011E-05 0.00000E+00
 -1       576 1.59951E-04 1.46869E-05-1.65436E-24
 -1       577 1.60043E-04 1.30840E-05 6.61744E-24
 -1       578 1.60134E-04 1.15063E-05 1.65436E-24
 -1       579 1.60225E-04 9.96766E-06 0.00000E+00
 -1       580 1.60317E-04 8.48212E-06 0.00000E+00
 -1       581 1.60408E-04 7.06361E-06 6.61744E-24
 -1       582 1.60500E-04 5.72603E-06 0.00000E+00
 -1       583 1.60592E-04 4.48331E-06 0.00000E+00
 -1       584 1.60684E-04 3.34922E-06 0.00000E+00
 -1       585 1.60776E-04 2.33740E-06 0.00000E+00
 -1       586 1.60538E-04 2.40892E-05 1.65436E-24
 -1       587 1.61634E-04 2.41232E-05 4.13590E-25
 -1       588 1.62736E-04 2.41568E-05-8.27181E-25
 -1       589 1.63883E-04 2.41898E-05 0.00000E+00
 -1       590 1.65116E-04 2.42217E-05 0.00000E+00
 -1       591 1.59900E-04 2.26683E-05 0.00000E+00
 -1       592 1.60397E-04 2.12595E-05-2.06795E-25
 -1       593 1.60900E-04 1.98342E-05-8.27181E-25
 -1       594 1.61407E-04 1.83972E-05-4.13590E-25
 -1       595 1.61916E-04 1.69535E-05 0.00000E+00
 -1       596 1.62426E-04 1.55079E-05 4.13590E-25
 -1       597 1.62935E-04 1.40653E-05 0.00000E+00
 -1       598 1.63441E-04 1.26306E-05-4.13590E-25
 -1       599 1.63942E-04 1.12087E-05 0.00000E+00
 -1       600 1.64437E-04 9.80443E-06-4.13590E-25
 -1       601 1.64923E-04 8.42268E-06-8.27181E-25
 -1       602 1.65399E-04 7.06831E-06 2.06795E-25
 -1       603 1.65863E-04 5.74620E-06 0.00000E+00
 -1       604 1.66313E-04 4.46132E-06-1.61559E-25
 -1       605 1.66749E-04 3.21846E-06 0.00000E+00
 -1       606 1.60881E-04 7.91989E-07 3.30872E-24
 -1       607 1.60891E-04 2.12888E-07 0.00000E+00
 -1       608 1.60900E-04-2.82186E-07 0.00000E+00
 -1       609 1.60909E-04-6.99141E-07 0.00000E+00
 -1       610 1.60918E-04-1.04393E-06 0.00000E+00
 -1       611 1.60926E-04-1.32259E-06 0.00000E+00
 -1       612 1.60935E-04-1.54114E-06 0.00000E+00
 -1       613 1.60944E-04-1.70562E-06 0.00000E+00
 -1       614 1.60952E-04-1.82208E-06-1.65436E-24
 -1       615 1.60961E-04-1.89654E-06 0.00000E+00
 -1       616 1.60970E-04-1.93506E-06 1.65436E-24
 -1       617 1.60979E-04-1.94367E-06 0.00000E+00
 -1       618 1.60987E-04-1.92841E-06 0.00000E+00
 -1       619 1.60996E-04-1.89533E-06 2.06795E-25
 -1       620 1.61004E-04-1.85045E-06 0.00000E+00
 -1       621 1.61701E-04 1.55458E-06-3.30872E-24
 -1       622 1.62654E-04 1.64908E-06-1.65436E-24
 -1       623 1.63703E-04 1.74347E-06 3.30872E-24
 -1       624 1.64822E-04 1.83761E-06 0.00000E+00
 -1       625 1.65986E-04 1.93154E-06 0.00000E+00
 -1       626 1.61221E-04 8.24833E-07 3.30872E-24
 -1       627 1.61550E-04 2.57588E-07-1.65436E-24
 -1       628 1.61857E-04-2.49176E-07 3.30872E-24
 -1       629 1.62144E-04-7.03615E-07 1.65436E-24
 -1       630 1.62414E-04-1.11392E-06-3.30872E-24
 -1       631 1.62672E-04-1.48828E-06 0.00000E+00
 -1       632 1.62918E-04-1.83491E-06-3.30872E-24
 -1       633 1.63158E-04-2.16202E-06-1.65436E-24
 -1       634 1.63393E-04-2.47782E-06 0.00000E+00
 -1       635 1.63627E-04-2.79050E-06-1.65436E-24
 -1       636 1.63863E-04-3.10829E-06 0.00000E+00
 -1       637 1.64104E-04-3.43938E-06-1.65436E-24
 -1       638 1.64353E-04-3.79199E-06 3.30872E-24
 -1       639 1.64613E-04-4.17434E-06 1.65436E-24
 -1       640 1.64886E-04-4.59466E-06 3.30872E-24
 -1       656 1.61189E-04-2.33010E-06-6.61744E-24
 -1       657 1.61770E-04-2.88182E-06-6.61744E-24
 -1       658 1.62617E-04-3.43213E-06-1.32349E-23
 -1       659 1.63585E-04-3.98207E-06 6.61744E-24
 -1       660 1.64496E-04-4.53369E-06 0.00000E+00
 -1       661 1.61080E-04-1.78909E-06 0.00000E+00
 -1       662 1.61181E-04-1.85986E-06 0.00000E+00
 -1       663 1.61311E-04-2.00789E-06-1.65436E-24
 -1       664 1.61468E-04-2.22768E-06-8.27181E-25
 -1       665 1.61651E-04-2.51439E-06-1.65436E-24
 -1       666 1.61857E-04-2.86306E-06-8.27181E-25
 -1       667 1.62084E-04-3.26901E-06-1.65436E-24
 -1       668 1.62331E-04-3.72759E-06 0.00000E+00
 -1       669 1.62596E-04-4.23433E-06 0.00000E+00
 -1       670 1.62878E-04-4.78484E-06 0.00000E+00
 -1       671 1.63174E-04-5.37486E-06-1.65436E-24
 -1       672 1.63483E-04-6.00024E-06 0.00000E+00
 -1       673 1.63804E-04-6.65686E-06 0.00000E+00
 -1       674 1.64134E-04-7.34095E-06-8.27181E-25
 -1       675 1.64473E-04-8.04816E-06-4.13590E-25
 -1       676 1.60994E-04-8.29293E-06 0.00000E+00
 -1       677 1.61760E-04-8.39027E-06-1.65436E-24
 -1       678 1.62526E-04-8.48756E-06 0.00000E+00
 -1       679 1.63291E-04-8.58456E-06 0.00000E+00
 -1       680 1.64054E-04-8.68155E-06 1.65436E-24
 -1       771 1.81512E-05 1.10377E-05 0.00000E+00
 -1       772 9.72569E-06 2.91576E-05 2.64698E-23
 -1       773 2.77578E-06 4.35264E-05 0.00000E+00
 -1       774-2.79897E-06 5.43617E-05-2.64698E-23
 -1       775-7.09718E-06 6.18886E-05 5.29396E-23
 -1       776-1.02214E-05 6.63455E-05 2.64698E-23
 -1       777-1.22744E-05 6.79779E-05 0.00000E+00
 -1       778-1.33611E-05 6.70421E-05 2.64698E-23
 -1       779-1.35861E-05 6.38009E-05 0.00000E+00
 -1       780-1.30560E-05 5.85255E-05 0.00000E+00
 -1       781-1.18766E-05 5.14925E-05 0.00000E+00
 -1       782-1.01555E-05 4.29849E-05 0.00000E+00
 -1       783-7.99948E-06 3.32894E-05 0.00000E+00
 -1       784-5.51643E-06 2.26974E-05 0.00000E+00
 -1       785-2.81371E-06 1.15025E-05 0.00000E+00
 -1       786 1.66512E-04 2.26428E-05 5.16988E-26
 -1       787 1.66555E-04 2.10835E-05 0.00000E+00
 -1       788 1.66598E-04 1.95644E-05 0.00000E+00
 -1       789 1.66641E-04 1.80774E-05-8.27181E-25
 -1       790 1.66685E-04 1.66181E-05 1.65436E-24
 -1       791 1.66729E-04 1.51819E-05 8.27181E-25
 -1       792 1.66773E-04 1.37667E-05-1.65436E-24
 -1       793 1.66817E-04 1.23704E-05 0.00000E+00
 -1       794 1.66861E-04 1.09927E-05-1.65436E-24
 -1       795 1.66905E-04 9.63343E-06 8.27181E-25
 -1       796 1.66949E-04 8.29447E-06 0.00000E+00
 -1       797 1.66993E-04 6.97751E-06-8.27181E-25
 -1       798 1.67037E-04 5.68661E-06-1.65436E-24
 -1       799 1.67081E-04 4.42586E-06 0.00000E+00
 -1       800 1.67125E-04 3.20241E-06 0.00000E+00
 -1       801 1.30252E-04 2.16242E-05 0.00000E+00
 -1       802 2.03704E-05 1.38087E-05-2.64698E-23
 -1       803-7.52348E-05 7.18226E-06 0.00000E+00
 -1       804-6.99570E-05 4.91609E-06 0.00000E+00
 -1       805-2.35962E-05 2.09045E-06 0.00000E+00
 -1       806 1.66970E-04 2.25809E-05 1.65436E-24
 -1       807 1.67454E-04 2.09381E-05 0.00000E+00
 -1       808 1.67925E-04 1.93263E-05 3.30872E-24
 -1       809 1.68384E-04 1.77488E-05 0.00000E+00
 -1       810 1.68828E-04 1.62090E-05 0.00000E+00
 -1       811 1.69256E-04 1.47104E-05 1.65436E-24
 -1       812 1.69669E-04 1.32562E-05 0.00000E+00
 -1       813 1.70063E-04 1.18497E-05-8.27181E-25
 -1       814 1.70438E-04 1.04943E-05 0.00000E+00
 -1       815 1.70793E-04 9.19307E-06-8.27181E-25
 -1       816 1.71126E-04 7.94948E-06 0.00000E+00
 -1       817 1.71437E-04 6.76673E-06-8.27181E-25
 -1       818 1.71724E-04 5.64811E-06-1.65436E-24
 -1       819 1.71986E-04 4.59688E-06-1.65436E-24
 -1       820 1.72221E-04 3.61627E-06-1.65436E-24
 -1       821 1.67052E-04 6.71396E-07 0.00000E+00
 -1       822 1.66926E-04-1.06899E-06 1.65436E-24
 -1       823 1.66800E-04-3.00852E-06-3.30872E-24
 -1       824 1.66673E-04-4.95694E-06 0.00000E+00
 -1       825 1.66547E-04-6.72195E-06 3.30872E-24
 -1       826 1.66420E-04-8.11223E-06-1.65436E-24
 -1       827 1.66294E-04-9.03158E-06 0.00000E+00
 -1       828 1.66169E-04-9.38650E-06 0.00000E+00
 -1       829 1.66043E-04-9.22672E-06 0.00000E+00
 -1       830 1.65917E-04-8.60486E-06 0.00000E+00
 -1       831 1.65791E-04-7.69080E-06 0.00000E+00
 -1       832 1.65666E-04-6.65612E-06 0.00000E+00
 -1       833 1.65540E-04-5.70302E-06 0.00000E+00
 -1       834 1.65416E-04-5.03320E-06 0.00000E+00
 -1       835 1.65292E-04-4.77673E-06 0.00000E+00
 -1       836 1.68239E-04 2.13743E-06 0.00000E+00
 -1       837 1.69191E-04 2.25409E-06 0.00000E+00
 -1       838 1.70054E-04 2.37064E-06-3.30872E-24
 -1       839 1.70861E-04 2.48651E-06 8.27181E-25
 -1       840 1.71643E-04 2.60222E-06 0.00000E+00
 -1       856 1.65156E-04-5.54882E-06 4.13590E-25
 -1       857 1.65134E-04-5.90887E-06-5.16988E-26
 -1       858 1.65112E-04-6.16129E-06 0.00000E+00
 -1       859 1.65089E-04-6.32601E-06 2.06795E-25
 -1       860 1.65067E-04-6.42307E-06 8.27181E-25
 -1       861 1.65044E-04-6.47256E-06-4.13590E-25
 -1       862 1.65022E-04-6.49460E-06-8.27181E-25
 -1       863 1.64999E-04-6.50934E-06-4.13590E-25
 -1       864 1.64976E-04-6.53693E-06-8.27181E-25
 -1       865 1.64953E-04-6.59753E-06 0.00000E+00
 -1       866 1.64931E-04-6.71123E-06 8.27181E-25
 -1       867 1.64908E-04-6.89813E-06-4.13590E-25
 -1       868 1.64885E-04-7.17821E-06 0.00000E+00
 -1       869 1.64862E-04-7.57143E-06-4.13590E-25
 -1       870 1.64839E-04-8.09760E-06 8.27181E-25
 -1       871 1.65927E-04-5.06448E-06 0.00000E+00
 -1       872 1.66814E-04-5.07073E-06 0.00000E+00
 -1       873 1.67775E-04-5.07757E-06 0.00000E+00
 -1       874 1.68749E-04-5.08509E-06 5.16988E-26
 -1       875 1.69673E-04-5.09317E-06-1.03398E-24
 -1       876 1.65476E-04-5.53565E-06 3.30872E-24
 -1       877 1.65756E-04-5.94754E-06 0.00000E+00
 -1       878 1.66016E-04-6.30442E-06 0.00000E+00
 -1       879 1.66258E-04-6.61321E-06 1.65436E-24
 -1       880 1.66485E-04-6.88091E-06 3.30872E-24
 -1       881 1.66699E-04-7.11443E-06 1.65436E-24
 -1       882 1.66903E-04-7.32069E-06 0.00000E+00
 -1       883 1.67100E-04-7.50660E-06-1.65436E-24
 -1       884 1.67291E-04-7.67907E-06 0.00000E+00
 -1       885 1.67480E-04-7.84498E-06 1.65436E-24
 -1       886 1.67669E-04-8.01125E-06 3.30872E-24
 -1       887 1.67860E-04-8.18478E-06 1.65436E-24
 -1       888 1.68057E-04-8.37250E-06 0.00000E+00
 -1       889 1.68261E-04-8.58146E-06 1.65436E-24
 -1       890 1.68475E-04-8.81852E-06 0.00000E+00
 -1       891 1.65597E-04-8.82946E-06-1.65436E-24
 -1       892 1.66357E-04-8.88262E-06 0.00000E+00
 -1       893 1.67070E-04-8.93572E-06 0.00000E+00
 -1       894 1.67714E-04-8.98861E-06 8.27181E-25
 -1       895 1.68264E-04-9.04132E-06 4.13590E-25
 -1       956 1.72312E-04 1.95818E-06 1.65436E-24
 -1       957 1.72190E-04 1.28791E-06-8.27181E-25
 -1       958 1.72068E-04 6.89272E-07-1.65436E-24
 -1       959 1.71946E-04 1.52368E-07 1.65436E-24
 -1       960 1.71824E-04-3.32738E-07-3.30872E-24
 -1       961 1.71702E-04-7.76014E-07 0.00000E+00
 -1       962 1.71580E-04-1.18744E-06 0.00000E+00
 -1       963 1.71458E-04-1.57700E-06 0.00000E+00
 -1       964 1.71336E-04-1.95470E-06 0.00000E+00
 -1       965 1.71214E-04-2.33051E-06 0.00000E+00
 -1       966 1.71092E-04-2.71444E-06-3.30872E-24
 -1       967 1.70971E-04-3.11648E-06 0.00000E+00
 -1       968 1.70849E-04-3.54659E-06-3.30872E-24
 -1       969 1.70727E-04-4.01475E-06-1.65436E-24
 -1       970 1.70606E-04-4.53088E-06-3.30872E-24
 -1       971 1.70375E-04-5.67174E-06-3.30872E-24
 -1       972 1.70263E-04-6.14829E-06 0.00000E+00
 -1       973 1.70150E-04-6.54418E-06 0.00000E+00
 -1       974 1.70038E-04-6.86982E-06 1.65436E-24
 -1       975 1.69925E-04-7.13557E-06 3.30872E-24
 -1       976 1.69813E-04-7.35188E-06 0.00000E+00
 -1       977 1.69700E-04-7.52917E-06 0.00000E+00
 -1       978 1.69588E-04-7.67788E-06 0.00000E+00
 -1       979 1.69475E-04-7.80846E-06 3.30872E-24
 -1       980 1.69363E-04-7.93137E-06-1.65436E-24
 -1       981 1.69251E-04-8.05705E-06 0.00000E+00
 -1       982 1.69138E-04-8.19595E-06-1.65436E-24
 -1       983 1.69026E-04-8.35853E-06 3.30872E-24
 -1       984 1.68914E-04-8.55522E-06-1.65436E-24
 -1       985 1.68803E-04-8.79644E-06 0.00000E+00
 -3
    1PSTEP                        28          14           1          
  100CL  114 6.22559E-01         409                     0   14           1
 -4  STRESS      6    1
 -5  SXX         1    4    1    1
 -5  SYY         1    4    2    2
 -5  SZZ         1    4    3    3
 -5  SXY         1    4    1    2
 -5  SYZ         1    4    2    3
 -5  SZX         1    4    3    1
 -1         1-4.02655E+06-1.53305E+06-8.83892E+05-1.55986E+06-2.61934E-10-2.75904E-08
 -1         2 8.46077E+02-2.04828E+06 3.69596E+03 3.72239E+04 9.24587E-10-1.66481E-07
 -1         3-8.56812E+02-1.56071E+06 5.78544E+02-1.69829E+03-5.31401E-10 2.09802E-08
 -1         5-2.75697E+01 3.49481E+05 8.99709E+00-6.60445E-01-2.22730E-10-5.08426E-08
 -1         8-7.24046E+05-2.45003E+05-6.43526E+04-3.06057E+05 4.91127E-11-7.94171E-09
 -1         9 5.33192E+06-6.99958E+05 9.31168E+05-9.71034E+05 2.69618E-08-5.95814E-08
 -1        10-3.21009E+03-1.66273E+06-4.62825E+03-1.25179E+04-3.89264E-09-3.11632E-08
 -1        12-2.39292E+01 3.49500E+05 2.93026E+02-4.68719E+00-3.11154E-10 8.54652E-09
 -1        15 1.37907E+03 7.57874E+02 4.45783E+03 2.21291E+00-1.37362E-10 4.60232E-07
 -1        16 1.24493E+07-2.64539E+05 1.78127E+06-1.15660E+06 1.60847E-08 3.80290E-08
 -1        17 4.40440E+06 2.96279E+06 1.18863E+06 3.00077E+06 2.97296E-08 3.38070E-08
 -1        18 8.25004E+04 1.74012E+04-7.59256E+03-1.04490E+05 1.21615E-08 7.24594E-09
 -1        19 1.11509E+05 1.28629E+05-8.81854E+02 2.07043E+04 9.72068E-10-2.18221E-08
 -1        20-6.89569E+04-5.24507E+05-1.17279E+05 2.63495E+04-2.78305E-10-5.45697E-10
 -1        21-4.39212E+01-2.77972E+05-8.74532E+02 1.46289E+02 8.60540E-09 2.63446E-09
 -1        24 7.07198E+06 6.07143E+06 2.09201E+06 5.61433E+06-1.29895E-07-5.06795E-08
 -1        25 2.41151E+04-1.03346E+05 5.05756E+03-4.33742E+05-1.14160E-09 8.08359E-09
 -1        26-4.86496E+04 8.34851E+04-2.23290E+04-8.61818E+02 6.90125E-10-1.13781E-09
 -1        27-7.23851E+04-2.84249E+05-1.04642E+05 6.34750E+04 4.71952E-09 1.09321E-09
 -1        28 2.10729E+04-7.93807E+04 1.58383E+04 2.05317E+04-2.29824E-09-5.88066E-09
 -1        32-1.57180E+06-2.81227E+06-1.54004E+05 8.33065E+04-3.58268E-08-9.02526E-09
 -1        33-1.64713E+05 8.40479E+04 2.95459E+04-3.65343E+04-1.59158E-09 7.57821E-09
 -1        34-2.06714E+05-2.24079E+04 6.06906E+02 6.83892E+04-2.52915E-09-9.32626E-09
 -1        35-2.16263E+04-3.14962E+04-1.25051E+03 4.83865E+04-1.44279E-09 5.61704E-09
 -1        51 4.45105E+04-2.34682E+05 9.73091E+04-6.87544E+05 3.05590E-10-2.20898E-08
 -1        52 1.66671E+04-2.19863E+05 5.32996E+04-8.01602E+05-1.45519E-10 6.76300E-08
 -1        53 5.33379E+03-2.35018E+05 3.13162E+04-6.85032E+05 2.29193E-10-1.25998E-07
 -1        54 1.27431E+04-2.31789E+05 3.29361E+04-8.04224E+05 5.38421E-10-1.32932E-07
 -1        55 2.64811E+04-2.41997E+05 4.84741E+04-6.84657E+05 8.58563E-10 3.85407E-08
 -1        56-7.61957E+06-8.63215E+05-6.53713E+05-2.97732E+06-1.18889E-08-1.81608E-08
 -1        57-8.00052E+06-1.33420E+06-4.40444E+05-2.81230E+06 4.49836E-09-1.07306E-07
 -1        58-7.72174E+06-1.09893E+06-1.53583E+05-2.96782E+06 1.36388E-08-1.41830E-07
 -1        59-7.88795E+06-1.05274E+06-9.14791E+04-2.82021E+06-3.04426E-08-2.18951E-07
 -1        60-7.73116E+06-1.13683E+06-3.56611E+04-2.97243E+06 1.22918E-09-5.88007E-08
 -1        61-7.86368E+06-1.02050E+06-2.01389E+04-2.82840E+06 1.50906E-08 1.52890E-07
 -1        62-7.74535E+06-1.13033E+06-9.92658E+03-2.95971E+06-1.71140E-08 2.93821E-08
 -1        63-7.82149E+06-1.05300E+06-7.44169E+03-2.86888E+06-1.27761E-08-4.88162E-08
 -1        64-7.77180E+06-1.10522E+06-9.55171E+03-2.93087E+06 7.03221E-09 2.31707E-08
 -1        65-7.76783E+06-1.11153E+06-1.73829E+04-2.93037E+06-4.82487E-09-1.59429E-07
 -1        66-7.79850E+06-1.07229E+06-3.19582E+04-2.89779E+06 5.46061E-09 5.42259E-08
 -1        67-7.73926E+06-1.19156E+06-8.00602E+04-2.98404E+06-2.61534E-08-1.11984E-07
 -1        68-7.80203E+06-1.02520E+06-1.34699E+05-2.87793E+06 1.89393E-08-1.32532E-07
 -1        69-7.84729E+06-1.43356E+06-3.86772E+05-2.97498E+06-6.81757E-09-1.86148E-07
 -1        70-7.69376E+06-8.35602E+05-5.73214E+05-2.90598E+06-5.34055E-09 4.09782E-08
 -1        86-8.20367E+02-2.07351E+06-1.40958E+03-1.86093E+04-7.18205E-09-9.51904E-08
 -1        87 1.32986E+03-2.05713E+06 2.48475E+03 6.09431E+04-1.18595E-08 2.63167E-08
 -1        88-5.39057E+02-2.06556E+06 1.18769E+03-4.23311E+04-1.20080E-08-8.75166E-08
 -1        89 3.80247E+03-2.06176E+06 4.04167E+03 7.78804E+04-1.80125E-08-1.19505E-07
 -1        90-2.80041E+03-2.06945E+06 3.86504E+03-3.55527E+04-8.53061E-09-1.26723E-07
 -1       121-1.21531E+03-1.56371E+06 8.23858E+01 8.44750E+02 1.12252E-09-2.09584E-08
 -1       122-6.39106E+02-1.56067E+06 1.20539E+03-3.39352E+03-3.92311E-09-3.81442E-09
 -1       123-1.30843E+03-1.56386E+06 1.46463E+03 2.52273E+03 3.09365E-09 2.76486E-10
 -1       124 1.66505E+03-1.55957E+06 4.91144E+03-7.10219E+03-8.28231E-09-1.66801E-09
 -1       125-2.66337E+03-1.56515E+06 7.04350E+03 4.53566E+03 4.96220E-09-3.09556E-08
 -1       191-2.92321E+01 3.49506E+05 9.68805E+00 3.36755E-01-3.59034E-10-4.98403E-09
 -1       192-2.84102E+01 3.49481E+05 1.91008E+01-2.31272E+00-5.36686E-10 2.22744E-08
 -1       193-3.14593E+01 3.49506E+05 3.44850E+01 2.01689E+00-6.68116E-10 4.18913E-09
 -1       194-3.11113E+01 3.49484E+05 7.23721E+01-5.32011E+00-4.07770E-10 4.09364E-09
 -1       195-3.57369E+01 3.49503E+05 1.40521E+02 3.39422E+00-9.51779E-10-2.21917E-09
 -1       251-1.99955E+06-2.93250E+04-1.82169E+05-1.28307E+05 6.94854E-10 4.91891E-08
 -1       252-1.14306E+06 3.71232E+04 4.52012E+04 3.95821E+05 8.74752E-09-3.42334E-08
 -1       253-1.62171E+06-1.31987E+04-3.19104E+04-2.64283E+05-4.46380E-09 6.80084E-08
 -1       254-1.54466E+06 5.54432E+04 7.69946E+03 5.25097E+05 1.12386E-08-3.74441E-08
 -1       255-1.63774E+06-1.52021E+04-1.83234E+04-2.60999E+05 4.65297E-09 1.03078E-07
 -1       256-1.10327E+06 4.50493E+04 9.77614E+04 3.82131E+05 2.32067E-08 2.31666E-08
 -1       257-2.01990E+06-3.79685E+04-9.68124E+04-1.17740E+05 1.20690E-08-6.58847E-08
 -1       258-6.74515E+05 3.40960E+04 1.79079E+05 3.51276E+03-5.09472E-08 9.27835E-08
 -1       259-2.02436E+06-3.84909E+04-9.61738E+04 1.15407E+05 4.98403E-09 8.55988E-09
 -1       260-1.09247E+06 4.66190E+04 1.04286E+05-3.77181E+05 3.29419E-08-8.76673E-08
 -1       261-1.64306E+06-1.70703E+04-1.10237E+04 2.60640E+05 9.01855E-08 1.35986E-07
 -1       262-1.53970E+06 6.57726E+04 2.85853E+04-5.23894E+05-3.26019E-08 2.63435E-07
 -1       263-1.62127E+06-2.16748E+04 2.40107E+03 2.65778E+05-7.53334E-09 8.24766E-08
 -1       264-1.12436E+06 1.01605E+05 1.34200E+05-4.00032E+05 1.31387E-07 1.37312E-07
 -1       265-2.01965E+06-8.42842E+04-5.19336E+04 1.33396E+05 4.05598E-08 2.13397E-07
 -1       266-2.49656E+04-1.16739E+04 5.85769E+04-4.73498E+01 1.16415E-10 1.38703E-08
 -1       267 2.89422E+04 1.36063E+04 4.14011E+04 5.46318E+01 1.07320E-10-6.47015E-09
 -1       268-3.88109E+03-1.92702E+03 1.53886E+04-6.96107E+00-1.10049E-10 3.19705E-08
 -1       269 4.58243E+03 2.30624E+03 1.00023E+04 8.10858E+00-2.81034E-10-1.53161E-07
 -1       270-6.87828E+02-3.78933E+02 4.82827E+03-1.10039E+00 4.00178E-11 1.35700E-07
 -1       271-2.27120E+06-2.75752E+05-1.69553E+05-8.72826E+05-4.33283E-09 8.69259E-08
 -1       272-2.37888E+06-3.53785E+05-1.09172E+05-8.19518E+05-8.53561E-10 1.53868E-08
 -1       273-2.30199E+06-3.19312E+05-4.00137E+04-8.66539E+05-3.46017E-09-4.84033E-09
 -1       274-2.34244E+06-3.00625E+05-2.24553E+04-8.29214E+05-3.72813E-09-9.52532E-08
 -1       275-2.30657E+06-3.23640E+05-9.32537E+03-8.64987E+05 6.65159E-09 6.90052E-08
 -1       276-2.33565E+06-2.96586E+05-4.90549E+03-8.32286E+05-3.56649E-08 1.44247E-07
 -1       277-2.30834E+06-3.23014E+05-2.45360E+03-8.63425E+05-1.58889E-09 4.45493E-08
 -1       278-2.33175E+06-2.99005E+05-1.57977E+03-8.35558E+05 9.68612E-10-1.21359E-07
 -1       279-2.31005E+06-3.21429E+05-1.76404E+03-8.61441E+05-3.05372E-08-3.11243E-08
 -1       280-2.32787E+06-3.03116E+05-2.78993E+03-8.39572E+05 4.62460E-08 1.54499E-07
 -1       281-2.31182E+06-3.19180E+05-5.34637E+03-8.59120E+05 1.96451E-10 1.86553E-07
 -1       282-2.32564E+06-3.10866E+05-1.22434E+04-8.43876E+05-2.00453E-09 1.29443E-07
 -1       283-2.31201E+06-3.14187E+05-2.21520E+04-8.56805E+05-4.49290E-10-1.34203E-07
 -1       284-2.33988E+06-3.45426E+05-5.96951E+04-8.44695E+05 7.23503E-09-2.33682E-07
 -1       285-2.29786E+06-2.87722E+05-9.31760E+04-8.57109E+05 9.41873E-09-6.80848E-08
 -1       301 1.70122E+04-4.05064E+05 1.73398E+05-7.23457E+05 9.96806E-10 7.11443E-08
 -1       302 1.84644E+04-3.61148E+05 1.06897E+05-1.05786E+06-1.25510E-09 3.40569E-08
 -1       303-3.67564E+03-3.89920E+05 6.83943E+04-7.21687E+05 3.12866E-10 1.04137E-08
 -1       304 9.03980E+03-3.63887E+05 8.26978E+04-1.05721E+06-4.29281E-10 1.21145E-07
 -1       305 5.30158E+03-3.93104E+05 1.19216E+05-7.24021E+05 6.73026E-10 8.00719E-08
 -1       306-2.08173E+07-3.98978E+06-5.34310E+06-1.68066E+06-7.62520E-08-1.67493E-07
 -1       307 1.48325E+07 1.68795E+05 3.32799E+06-9.48963E+06-6.08503E-07-1.34416E-07
 -1       308-8.14415E+06-1.20748E+05-4.67974E+05 3.14348E+06-2.38360E-07 1.56902E-07
 -1       309-3.30303E+06 2.45333E+06 1.11985E+06-1.50520E+07 3.27513E-07 1.08585E-07
 -1       310-9.72818E+06-3.63044E+05-8.33647E+05 2.94108E+06 8.48377E-08-9.40199E-08
 -1       311 1.84609E+07-9.18624E+05 3.97641E+06-7.24224E+06 4.25498E-07-3.23489E-08
 -1       312-2.12330E+07-3.97428E+06-4.83105E+06-3.08156E+06-4.16767E-08-5.13974E-08
 -1       313 2.65447E+07 6.20375E+06 6.34225E+06 1.15016E+07-1.52504E-07-2.15659E-08
 -1       314-1.43025E+07-9.77409E+06-4.52771E+06-8.57814E+06 5.22414E-07-1.16765E-07
 -1       315-1.48562E+06 1.60488E+07 3.51446E+06 8.16402E+06-4.38275E-07-6.40575E-08
 -1       316-1.21598E+06-7.27053E+06-4.17910E+05-4.21457E+06-8.54314E-07-3.76167E-07
 -1       317-1.55864E+07 1.46715E+07 1.09595E+06-2.61299E+06 6.01816E-07-5.10026E-07
 -1       318-2.00430E+06-7.80295E+06-9.03146E+05-4.58637E+06-5.71483E-07 1.03028E-07
 -1       319 1.28061E+06 1.66324E+07 3.71199E+06 9.26347E+06-8.11706E-08 1.79047E-07
 -1       320-1.58010E+07-1.01307E+07-5.77905E+06-8.43205E+06 1.38418E-07-4.80068E-08
 -1       336 9.02969E+02-1.76564E+06-1.66504E+04 7.89678E+03-8.12179E-09 7.76708E-09
 -1       337-6.42527E+03-1.76758E+06-1.93322E+04-1.93149E+04-7.21639E-09 6.12818E-09
 -1       338 9.70737E+02-1.76571E+06-2.69230E+04 1.12751E+04-1.02009E-08 1.82663E-08
 -1       339-2.87811E+04-1.78253E+06-5.97821E+04-2.59003E+04-7.79983E-09 1.69257E-08
 -1       340 1.98927E+04-1.75229E+06-9.26589E+04 1.43939E+04-1.12923E-08 2.07692E-08
 -1       406-2.58415E+00 3.49490E+05 5.77407E+02 1.42870E+00-1.18429E-09 9.28958E-09
 -1       407 1.77901E+02 3.49601E+05 1.22951E+03 1.50718E+01-3.03089E-10-4.89126E-09
 -1       408 6.08261E+02 3.49401E+05 2.45416E+03-1.68842E+01-1.55705E-09 1.62581E-08
 -1       409 2.63299E+03 3.50385E+05 5.52715E+03 1.74488E+02-3.71926E-10 2.18993E-08
 -1       410 7.60779E+03 3.48700E+05 1.12825E+04-1.66818E+02-1.77351E-09 3.29510E-09
 -1       521-2.26964E+07-4.94547E+06-6.36914E+06-1.53923E+06-5.79748E-08 7.24103E-08
 -1       522 1.56479E+07 3.98188E+05 3.44318E+06-1.20225E+07-3.55329E-07-3.25861E-07
 -1       523-9.21568E+06-3.19121E+05-5.12379E+05 3.58100E+06 4.13274E-08-2.08813E-07
 -1       524-5.69367E+06 4.05671E+06 1.25107E+06-1.79121E+07 6.88029E-07-5.68281E-07
 -1       525-1.09674E+07-6.75015E+05-9.41450E+05 3.35884E+06 3.00526E-07-2.20833E-07
 -1       526 2.03088E+07-1.02444E+06 4.28314E+06-9.33927E+06 2.66795E-07-2.25802E-07
 -1       527-2.32329E+07-5.05968E+06-5.66325E+06-3.10388E+06 1.71131E-08 2.88710E-08
 -1       528 2.96187E+07 6.82813E+06 6.77005E+06 1.32263E+07 1.08150E-07 1.22949E-07
 -1       529-1.55860E+07-1.14414E+07-5.29618E+06-9.08762E+06 2.64554E-07-2.26428E-08
 -1       530-3.29639E+06 1.92169E+07 3.80334E+06 8.60397E+06-5.68252E-08 3.43192E-07
 -1       531-1.43175E+06-8.46632E+06-4.46102E+05-4.63743E+06-5.85598E-07 2.12051E-07
 -1       532-1.88174E+07 1.71055E+07 1.24912E+06-4.85455E+06 4.51626E-07-4.53911E-07
 -1       533-2.20662E+06-9.00439E+06-9.67497E+05-4.96769E+06-9.16189E-08-7.50093E-07
 -1       534-3.99252E+05 1.98631E+07 3.97123E+06 9.86151E+06-7.10206E-08 5.68805E-07
 -1       535-1.71424E+07-1.18866E+07-6.69232E+06-8.91646E+06 6.68224E-08 3.61062E-07
 -1       536-6.11380E+05-4.14321E+04-1.30441E+04-4.19573E+04-3.90219E-09 5.24997E-08
 -1       537-1.47301E+05 4.12477E+04 7.31548E+04 9.88906E+04-9.24542E-08 7.10870E-08
 -1       538-3.89781E+05 1.07358E+03 7.87853E+03-5.92680E+04 2.54904E-08 9.92986E-08
 -1       539-3.01798E+05 3.12246E+03 2.04830E+04 1.12614E+05 1.19958E-07 1.00856E-07
 -1       540-4.60647E+05-2.10553E+02-1.33645E+04-5.59886E+04 4.70436E-09 8.37349E-08
 -1       541-9.83581E+03 1.19546E+04 7.53110E+04 7.66110E+04-2.54148E-08 5.75673E-08
 -1       542-6.73902E+05-1.42582E+04-5.89666E+04-2.27613E+04 3.58723E-08 4.35854E-08
 -1       543 1.71120E+05 1.92504E+04 1.10789E+05-1.12357E+04-2.03972E-08-8.23184E-09
 -1       544-6.36774E+05-1.14852E+04-5.23358E+04 3.14650E+04-8.81028E-09-3.48921E-08
 -1       545-9.57540E+04 6.21844E+03 5.48463E+04-9.08063E+04 1.61153E-08-7.30539E-08
 -1       546-4.14152E+05 4.64578E+03-8.96354E+03 5.66168E+04 1.05933E-08-7.52040E-08
 -1       547-3.15952E+05-4.61758E+03 5.06044E+03-1.15142E+05-8.62028E-08-6.66499E-08
 -1       548-4.22449E+05 4.22314E+03-2.00718E+04 5.61998E+04-9.36636E-08-8.32260E-08
 -1       549-7.96927E+04 4.96349E+03 3.39970E+04-8.81215E+04-4.82493E-08-6.08634E-08
 -1       550-6.44063E+05-1.02016E+04-1.03295E+05 2.91766E+04 4.30555E-09-3.21234E-08
 -1       551 3.36336E+04-7.47395E+05 2.75625E+03-1.16526E+06-8.50341E-08-1.13214E-08
 -1       552 7.55222E+04-7.79913E+05 2.03506E+04-1.66150E+06-6.23259E-08 4.06872E-08
 -1       553 5.68932E+04-7.80119E+05 3.89092E+04-1.15968E+06-9.69740E-08 2.69647E-08
 -1       554 1.09782E+05-7.88800E+05 8.89222E+04-1.66342E+06-5.98957E-08 1.12414E-09
 -1       555 8.62972E+04-8.01965E+05 1.59880E+05-1.15992E+06-1.04577E-07-1.68657E-08
 -1       556 1.83418E+05-3.22156E+05 4.77006E+04-3.61334E+05-1.55705E-08-2.65136E-08
 -1       557 2.99211E+05-4.14905E+05 2.67428E+04-4.63257E+05-5.12227E-09-7.94898E-10
 -1       558 1.71504E+05-3.21616E+05 8.13088E+03-3.60605E+05-1.49594E-08-4.91855E-09
 -1       559 2.77927E+05-4.19025E+05 4.93870E+03-4.78480E+05 1.96160E-08-2.48692E-08
 -1       560 1.60530E+05-3.14686E+05 4.51664E+02-3.68362E+05 1.29512E-08 1.60799E-09
 -1       561 2.63830E+05-4.13609E+05 8.37126E+02-4.87946E+05 3.41242E-09-3.29965E-09
 -1       562 1.51870E+05-3.09257E+05-5.37218E+02-3.74602E+05 8.93488E-09-7.12498E-09
 -1       563 2.53582E+05-4.09141E+05 1.71277E+02-4.94603E+05 8.52742E-09-3.54257E-08
 -1       564 1.45806E+05-3.05465E+05-2.86174E+02-3.78891E+05 1.04192E-08 1.27784E-10
 -1       565 2.46991E+05-4.06272E+05 8.08173E+01-4.98804E+05-1.13505E-09 3.61524E-10
 -1       566 1.42431E+05-3.03323E+05-1.31612E+02-3.81254E+05 1.60071E-10 8.65839E-10
 -1       567 2.44066E+05-4.04996E+05-2.44409E+02-5.00547E+05 2.03217E-08-6.12272E-09
 -1       568 1.41816E+05-3.02955E+05-8.22292E+02-3.81780E+05 2.08115E-09 1.14633E-08
 -1       569 2.43606E+05-4.04968E+05-2.07675E+03-4.98917E+05-1.15997E-08 2.31521E-08
 -1       570 1.44910E+05-3.05757E+05-4.60334E+03-3.80970E+05 7.96717E-09 1.63482E-08
 -1       571 2.63752E+05 9.57819E+03 1.38507E+04-8.02772E+04 1.68166E-09 1.11031E-08
 -1       572 2.65778E+05 3.51205E+03 6.78723E+03-8.80688E+04 1.22873E-09-1.50758E-08
 -1       573 2.64560E+05 1.01552E+03 3.01565E+03-8.01192E+04-6.66932E-09-8.95761E-09
 -1       574 2.64775E+05 5.20597E+02 1.51188E+03-8.82628E+04-1.49366E-08 4.63115E-09
 -1       575 2.64649E+05 2.77102E+02 7.13380E+02-8.00978E+04-1.19287E-08 7.21229E-10
 -1       576 2.64647E+05 2.74520E+02 3.64806E+02-8.82886E+04-1.09947E-08-3.02316E-09
 -1       577 2.64679E+05 2.27750E+02 1.81873E+02-8.00949E+04-7.55381E-09 2.24009E-09
 -1       578 2.64662E+05 2.46732E+02 1.04220E+02-8.82921E+04-4.24188E-09-3.05772E-09
 -1       579 2.64729E+05 2.04075E+02 7.10995E+01-8.00946E+04 4.77939E-09-1.55069E-08
 -1       580 2.64731E+05 2.12845E+02 8.07457E+01-8.82878E+04-4.46744E-09-6.48197E-09
 -1       581 2.64807E+05 1.65628E+02 1.22005E+02-8.00996E+04 2.85581E-09 1.42063E-09
 -1       582 2.64857E+05 1.95445E+02 2.45986E+02-8.82359E+04 3.09137E-09-4.31282E-09
 -1       583 2.64902E+05 2.20033E+02 4.74118E+02-8.01468E+04 2.70848E-09-1.13164E-09
 -1       584 2.65151E+05 6.03055E+02 1.07038E+03-8.78386E+04 1.65528E-09-1.91890E-08
 -1       585 2.64893E+05 1.52000E+03 2.17061E+03-8.04967E+04-3.52520E-09-2.09584E-08
 -1       586-3.16707E+03 9.91143E+04-3.14103E+03-2.30731E+05-3.95448E-09 2.94858E-09
 -1       587-1.04923E+03 9.87936E+04 4.22460E+02-2.53950E+05-2.50657E-09 3.38378E-09
 -1       588 5.69889E+02 9.86992E+04 4.12597E+03-2.30612E+05-7.76708E-10 1.07202E-08
 -1       589 4.79188E+03 1.00870E+05 1.09477E+04-2.53713E+05-6.65023E-09-8.71660E-09
 -1       590 1.50510E+04 9.75040E+04 2.30619E+04-2.31008E+05-1.92267E-09 1.67747E-08
 -1       591-6.28910E+04-1.42368E+04-1.97352E+04-2.77927E+04-4.92878E-09-1.20917E-08
 -1       592-6.61958E+04-1.76302E+04-1.06900E+04-3.12837E+04-7.25734E-10-1.03846E-08
 -1       593-6.48669E+04-1.28025E+04-4.44983E+03-2.92376E+04 1.55856E-09 7.25572E-09
 -1       594-6.34672E+04-1.47384E+04-2.21928E+03-3.13919E+04 2.05378E-09 1.57196E-08
 -1       595-6.50177E+04-1.27975E+04-1.01906E+03-2.93033E+04-2.76884E-10 1.15578E-08
 -1       596-6.32806E+04-1.46061E+04-5.18171E+02-3.13701E+04 5.62119E-09-7.99275E-09
 -1       597-6.50366E+04-1.28109E+04-2.82427E+02-2.93058E+04 2.31222E-09-1.50013E-08
 -1       598-6.32623E+04-1.46010E+04-2.27533E+02-3.13639E+04-4.14502E-09-4.66804E-09
 -1       599-6.50354E+04-1.28113E+04-2.91261E+02-2.93054E+04 3.47279E-09-2.95108E-09
 -1       600-6.32809E+04-1.46069E+04-5.41560E+02-3.13684E+04 3.93584E-09-2.58711E-09
 -1       601-6.50133E+04-1.27984E+04-1.06863E+03-2.93022E+04 7.37373E-10-6.10294E-09
 -1       602-6.34764E+04-1.47448E+04-2.32910E+03-3.13879E+04-4.16139E-09-1.27433E-08
 -1       603-6.48527E+04-1.28062E+04-4.67088E+03-2.92339E+04-1.87470E-09-7.70342E-10
 -1       604-6.63559E+04-1.77631E+04-1.12204E+04-3.12526E+04 2.16687E-10-2.16096E-08
 -1       605-6.27608E+04-1.43274E+04-2.07145E+04-2.77343E+04 3.47313E-09 1.52158E-08
 -1       606 2.69631E+04-1.28741E+04-2.30985E+04 2.49489E+04 4.51200E-09-3.04635E-09
 -1       607 2.30144E+04-4.19438E+03-1.15026E+04 2.80255E+04 1.05229E-09 4.36989E-09
 -1       608 2.52617E+04-7.47052E+02-5.14983E+03 2.47640E+04-1.68802E-09 6.74027E-09
 -1       609 2.48269E+04-2.43711E+02-2.60139E+03 2.82467E+04 1.73623E-09-1.56847E-08
 -1       610 2.50653E+04-2.21199E+01-1.24153E+03 2.47426E+04 2.41653E-09 4.03543E-09
 -1       611 2.49936E+04-1.81557E+01-6.25962E+02 2.82707E+04 4.31555E-10 9.45442E-09
 -1       612 2.50193E+04-7.48547E+00-2.97979E+02 2.47405E+04-2.49202E-10-5.09522E-09
 -1       613 2.50002E+04-1.23377E+01-1.33852E+02 2.82736E+04 1.23327E-09-6.70730E-09
 -1       614 2.49964E+04-1.13742E+01-3.23789E+01 2.47397E+04 1.01591E-09 1.59516E-08
 -1       615 2.49924E+04-9.33012E+00 5.38590E+01 2.82740E+04 1.49748E-09 1.06929E-08
 -1       616 2.49786E+04-7.19123E+00 1.63542E+02 2.47400E+04 6.92580E-10-6.04632E-09
 -1       617 2.50099E+04 2.68916E+01 3.74014E+02 2.82735E+04 1.53500E-09-1.48364E-08
 -1       618 2.49445E+04 1.01682E+02 7.54157E+02 2.47402E+04-3.75439E-09 6.28211E-09
 -1       619 2.52747E+04 6.10868E+02 1.69374E+03 2.82728E+04-1.25965E-09 1.07100E-08
 -1       620 2.46932E+04 1.89076E+03 3.40440E+03 2.47406E+04 7.82961E-10 1.53041E-08
 -1       621 3.96992E+02 2.71874E+05 3.28026E+03 3.06630E+04 5.67979E-10-7.00584E-09
 -1       622 5.10032E+02 2.72651E+05 2.96346E+03 4.45485E+04 7.49424E-10 1.14578E-08
 -1       623 7.82423E+01 2.72048E+05 3.63238E+03 3.05219E+04 9.08017E-10 1.22541E-08
 -1       624 1.80486E+03 2.73777E+05 7.09815E+03 4.46888E+04 1.05587E-09-7.43512E-09
 -1       625 1.78617E+03 2.70645E+05 1.24316E+04 3.05191E+04 8.54470E-10-4.54543E-09
 -1       626 2.37325E+05 5.81279E+04 4.86049E+03 1.18118E+05-1.07998E-08-2.46418E-08
 -1       627 2.34991E+05 5.95878E+04 2.34221E+03 1.22321E+05 4.31282E-09-1.00755E-08
 -1       628 2.37455E+05 5.58926E+04 9.90265E+02 1.18929E+05-9.83164E-09-1.41813E-08
 -1       629 2.34371E+05 5.89575E+04 4.84723E+02 1.22563E+05-2.23299E-08-2.83940E-09
 -1       630 2.37468E+05 5.57854E+04 2.24575E+02 1.18961E+05-1.01927E-08 8.42064E-09
 -1       631 2.34304E+05 5.89352E+04 1.20521E+02 1.22564E+05 3.51588E-09 1.23962E-08
 -1       632 2.37462E+05 5.57904E+04 7.87358E+01 1.18956E+05 4.78985E-09-6.97048E-09
 -1       633 2.34293E+05 5.89382E+04 8.68154E+01 1.22559E+05 4.93253E-09 2.59283E-08
 -1       634 2.37456E+05 5.57890E+04 1.39502E+02 1.18954E+05-1.54841E-09 6.61521E-09
 -1       635 2.34305E+05 5.89375E+04 2.81821E+02 1.22562E+05-3.67953E-09 1.02873E-08
 -1       636 2.37446E+05 5.57847E+04 5.68890E+02 1.18952E+05-1.85310E-10 3.92674E-09
 -1       637 2.34426E+05 5.90264E+04 1.25054E+03 1.22561E+05-5.49676E-10 6.73526E-09
 -1       638 2.37400E+05 5.60614E+04 2.56946E+03 1.18827E+05-6.99583E-09-1.38998E-08
 -1       639 2.35776E+05 6.09034E+04 6.07918E+03 1.22162E+05 3.93015E-09 9.92782E-09
 -1       640 2.37216E+05 6.16641E+04 1.26154E+04 1.16462E+05 7.12680E-09-9.81277E-09
 -1       656 6.12324E+04-1.56335E+06-1.47814E+05-1.67810E+03 6.54836E-11 4.21261E-09
 -1       657-8.09871E+04-1.63013E+06-1.22414E+05 6.16738E+03 1.67347E-10 5.20932E-09
 -1       658 1.95013E+04-1.58233E+06-7.53417E+04-3.50216E+03 2.13049E-10 5.54863E-10
 -1       659-8.74375E+04-1.63319E+06-1.30889E+05 7.60884E+03-1.09867E-09-2.80685E-09
 -1       660 6.76682E+04-1.56030E+06-1.62386E+05-3.11954E+03-1.65892E-09-7.87594E-10
 -1       661 1.61506E+05 1.71085E+04 1.65826E+04 6.31443E+04-1.69939E-09-4.98403E-10
 -1       662 1.70698E+05 2.95688E+04 1.11750E+04 5.96332E+04-1.34742E-09-3.93993E-09
 -1       663 1.64762E+05 2.24292E+04 3.90856E+03 6.22002E+04-1.55819E-09 6.11089E-09
 -1       664 1.66924E+05 2.33452E+04 2.33777E+03 6.07853E+04-3.22302E-09-5.03491E-09
 -1       665 1.65255E+05 2.31572E+04 9.22236E+02 6.20576E+04 1.70076E-10-1.08805E-08
 -1       666 1.66343E+05 2.25118E+04 5.39299E+02 6.09706E+04 4.27174E-09 1.11369E-08
 -1       667 1.65340E+05 2.32409E+04 2.86055E+02 6.20228E+04 1.26283E-09 1.72705E-08
 -1       668 1.66249E+05 2.24503E+04 2.90535E+02 6.10213E+04-2.03185E-09 6.49417E-09
 -1       669 1.65348E+05 2.32169E+04 3.92586E+02 6.20074E+04-1.14113E-09 1.32105E-08
 -1       670 1.66345E+05 2.26624E+04 8.54148E+02 6.10236E+04-2.11713E-09 5.62137E-09
 -1       671 1.65244E+05 2.30331E+04 1.51636E+03 6.20185E+04-4.42853E-10-2.01607E-09
 -1       672 1.67229E+05 2.41376E+04 3.87939E+03 6.08096E+04 2.14857E-09-7.40499E-10
 -1       673 1.64469E+05 2.17790E+04 6.50117E+03 6.22071E+04 1.33582E-09-3.13776E-09
 -1       674 1.73417E+05 3.45815E+04 1.85920E+04 5.89909E+04-2.84786E-09 7.26982E-09
 -1       675 1.59096E+05 1.28815E+04 2.75969E+04 6.37274E+04-1.22782E-09-1.23509E-08
 -1       676 2.27324E+01-2.77899E+05-1.05404E+03-7.31463E+01 3.22359E-10 1.88365E-09
 -1       677-2.79587E+02-2.78154E+05-1.92906E+03 1.46186E+02 5.27444E-09-9.84585E-09
 -1       678 1.86910E+02-2.77717E+05-3.41009E+03-7.29911E+01 6.82803E-10 1.77570E-08
 -1       679-3.41084E+03-2.80212E+05-8.10089E+03 1.45593E+02 4.55123E-09 1.46349E-08
 -1       680 2.03589E+03-2.75842E+05-1.30559E+04-7.17394E+01 1.01863E-10 1.23878E-08
 -1       771-2.90400E+06-6.63099E+05-1.26339E+05-1.35517E+06-2.54076E-08-2.18570E-08
 -1       772-2.84111E+06-7.38465E+05-6.54593E+04-1.44189E+06-2.13622E-08 8.24002E-09
 -1       773-2.92786E+06-6.44370E+05-3.26688E+04-1.36510E+06-1.07393E-08 4.91855E-09
 -1       774-2.83201E+06-7.24775E+05-1.47230E+04-1.46072E+06 2.72848E-08-7.68341E-09
 -1       775-2.93957E+06-6.36098E+05-1.05459E+04-1.36957E+06-2.47383E-09 4.67844E-09
 -1       776-2.83990E+06-7.23039E+05-4.02005E+03-1.47452E+06-3.50701E-09 9.10950E-09
 -1       777-2.94957E+06-6.28840E+05-4.49291E+03-1.37351E+06 2.40107E-09 2.15368E-09
 -1       778-2.84825E+06-7.21495E+05-1.29639E+03-1.48631E+06 8.08359E-09 6.70661E-09
 -1       779-2.95807E+06-6.22555E+05-2.19345E+03-1.37688E+06-5.36966E-09-5.82804E-09
 -1       780-2.85558E+06-7.20015E+05-3.68775E+02-1.49590E+06-1.13505E-09 3.67618E-09
 -1       781-2.96479E+06-6.17519E+05-8.36276E+02-1.37951E+06-1.79134E-08-4.34011E-09
 -1       782-2.86121E+06-7.18740E+05 3.13733E+02-1.50296E+06-2.09220E-08-6.38011E-09
 -1       783-2.96949E+06-6.14044E+05 4.98050E+02-1.38136E+06-7.89441E-09-1.80489E-08
 -1       784-2.86427E+06-7.17353E+05 2.01545E+03-1.50731E+06-1.95287E-08 1.13282E-08
 -1       785-2.97227E+06-6.11979E+05 3.56181E+03-1.38256E+06-3.49319E-08 3.24508E-09
 -1       786 1.24048E+05-9.43200E+03 2.18211E+04-2.38546E+02 3.42681E-09 5.68434E-09
 -1       787 1.33512E+05 1.09197E+04 1.54376E+04-6.57360E+01 7.47716E-09 3.42152E-09
 -1       788 1.27697E+05-1.47825E+03 5.64588E+03-2.07428E+02 3.95660E-09 1.43375E-08
 -1       789 1.29261E+05 1.71059E+03 3.54470E+03-1.14404E+02 1.55867E-09 1.51013E-08
 -1       790 1.28300E+05-2.30419E+02 1.43613E+03-1.89890E+02-1.38207E-09 9.30652E-09
 -1       791 1.28556E+05 2.66369E+02 8.31311E+02-1.44615E+02-7.14067E-09 4.33744E-09
 -1       792 1.28402E+05-3.51133E+01 3.55942E+02-1.77218E+02-4.65530E-09-7.86852E-09
 -1       793 1.28436E+05 3.84521E+01 1.85495E+02-1.68469E+02-1.56585E-09-7.60861E-09
 -1       794 1.28421E+05-2.64683E+00 6.43782E+01-1.66035E+02 3.23719E-09-6.62991E-09
 -1       795 1.28406E+05-1.29159E+01-1.24069E+01-1.91776E+02-2.00904E-09-2.74258E-09
 -1       796 1.28431E+05 1.62268E+01-8.24130E+01-1.53911E+02 3.79582E-09-1.29409E-08
 -1       797 1.28351E+05-1.23705E+02-2.47099E+02-2.19533E+02 3.79676E-09-3.59532E-08
 -1       798 1.28476E+05 1.08059E+02-4.07058E+02-1.38277E+02 1.45279E-09-2.37488E-08
 -1       799 1.28040E+05-7.97204E+02-1.12490E+03-2.57818E+02 4.70579E-09 2.85655E-09
 -1       800 1.28742E+05 6.89171E+02-1.59338E+03-1.15626E+02 3.93674E-10 1.33019E-08
 -1       801-4.82817E+04-7.59184E+06-9.90874E+05 8.63081E+05 7.40984E-08-4.12219E-08
 -1       802 3.75653E+05 2.20313E+06 1.24102E+06-1.01193E+06 2.06390E-07-2.01403E-08
 -1       803-3.16860E+05-9.99671E+06-1.16328E+06 5.56650E+05 6.41849E-08 2.02654E-08
 -1       804 1.42918E+05-1.13740E+05 8.73740E+05 4.86374E+05-8.73115E-08-6.59427E-08
 -1       805 1.37588E+05-5.28964E+06-1.81508E+05-6.31869E+05-3.61397E-08-4.65989E-08
 -1       806-2.84064E+05-5.44019E+04-2.08480E+04-1.11920E+05-9.86984E-09-2.11803E-08
 -1       807-2.85794E+05-5.09083E+04-1.02424E+04-1.16870E+05 8.98967E-09 9.95554E-09
 -1       808-2.84629E+05-4.68962E+04-4.34520E+03-1.15481E+05-1.16779E-09 5.44480E-09
 -1       809-2.83645E+05-4.80267E+04-2.12472E+03-1.17118E+05-8.06358E-09-7.82507E-09
 -1       810-2.84715E+05-4.66347E+04-9.73834E+02-1.15639E+05 8.31278E-10 3.35649E-09
 -1       811-2.83479E+05-4.79105E+04-4.84275E+02-1.17086E+05 2.70711E-09 7.61020E-09
 -1       812-2.84729E+05-4.66568E+04-2.44846E+02-1.15639E+05-2.28283E-10 1.12059E-08
 -1       813-2.83457E+05-4.79121E+04-1.59077E+02-1.17070E+05-3.53066E-09-1.45656E-09
 -1       814-2.84723E+05-4.66651E+04-1.57463E+02-1.15636E+05 1.20963E-10-2.55027E-08
 -1       815-2.83462E+05-4.79139E+04-2.53737E+02-1.17064E+05 2.56568E-09-1.15674E-08
 -1       816-2.84706E+05-4.66635E+04-4.80740E+02-1.15633E+05 1.41990E-08 1.01550E-08
 -1       817-2.83544E+05-4.79595E+04-1.03201E+03-1.17055E+05 8.95079E-09-9.95897E-11
 -1       818-2.84645E+05-4.68082E+04-2.10476E+03-1.15565E+05 4.71937E-09 3.03316E-09
 -1       819-2.84697E+05-4.92320E+04-4.95282E+03-1.16785E+05-4.79395E-09-4.92332E-09
 -1       820-2.84252E+05-5.05460E+04-1.00806E+04-1.13963E+05-1.73168E-09-7.10315E-10
 -1       821-3.50468E+05 1.93241E+04-4.47260E+04 1.06960E+03 8.01940E-09-1.11395E-08
 -1       822-3.69712E+05-2.23720E+04-3.16263E+04-1.98456E+03 1.22847E-09-9.45511E-09
 -1       823-3.57866E+05 3.03211E+03-1.15784E+04 1.39945E+03-4.68162E-09-6.38693E-09
 -1       824-3.61009E+05-3.50569E+03-7.27772E+03-2.00562E+03 1.09014E-09 4.32465E-09
 -1       825-3.59167E+05 4.72302E+02-3.00628E+03 1.09069E+03 8.22421E-09 1.86232E-08
 -1       826-3.59412E+05-5.52059E+02-1.76917E+03-9.09430E+02 1.00513E-08 1.65136E-08
 -1       827-3.59457E+05 7.71781E+01-9.67069E+02 3.03229E+02 3.65688E-09 7.04932E-09
 -1       828-3.59174E+05-1.64339E+02-7.83990E+02 7.38656E+02-1.88223E-09 1.64697E-08
 -1       829-3.59404E+05 8.40554E+01-9.78266E+02-5.57427E+02 4.05599E-10-5.11372E-09
 -1       830-3.59538E+05-5.81294E+02-1.85649E+03 2.08776E+03-2.58254E-10-7.93693E-09
 -1       831-3.59097E+05 4.97129E+02-3.10750E+03-1.04589E+03-2.78067E-09-1.01909E-09
 -1       832-3.61097E+05-3.64845E+03-7.56721E+03 2.43978E+03-1.94140E-09 1.96451E-09
 -1       833-3.57849E+05 3.15044E+03-1.20412E+04-9.09456E+02-2.05782E-09 2.90311E-09
 -1       834-3.70006E+05-2.32491E+04-3.28471E+04 1.59826E+03-1.55742E-09 1.63450E-08
 -1       835-3.50187E+05 2.00799E+04-4.64991E+04-2.04352E+02 4.97212E-09 2.00998E-09
 -1       836-1.25585E+03 3.35242E+05 2.06161E+04-1.61013E+04-4.37376E-09 1.84218E-09
 -1       837 4.42759E+03 3.41683E+05 1.75147E+04-3.26657E+04-4.73847E-09 6.00448E-09
 -1       838-4.91760E+02 3.37039E+05 1.79434E+04-1.60329E+04-3.80487E-09 9.21546E-10
 -1       839 1.13638E+04 3.46851E+05 3.40399E+04-3.27129E+04-4.05180E-09-2.80352E-09
 -1       840-3.49064E+03 3.30022E+05 5.43231E+04-1.60569E+04-3.78350E-09 4.23370E-09
 -1       856-6.09568E+04 7.83185E+03-2.06389E+04-4.00652E+02 1.81609E-09-2.78033E-09
 -1       857-6.94671E+04-9.19636E+03-1.42081E+04 5.28948E+03 2.07049E-09-6.20503E-10
 -1       858-6.43243E+04 1.09801E+03-5.35556E+03-4.23883E+02 1.54904E-09-1.88872E-08
 -1       859-6.56018E+04-1.28631E+03-3.23254E+03 5.32483E+03-3.53174E-09-6.73714E-09
 -1       860-6.48275E+04 1.53415E+02-1.35587E+03-4.35873E+02 1.73341E-09 8.41413E-09
 -1       861-6.50228E+04-1.78074E+02-7.48264E+02 5.34121E+03-1.87686E-09-1.06138E-09
 -1       862-6.49061E+04 2.05802E+01-3.15790E+02-4.40264E+02 2.54866E-09 1.80854E-08
 -1       863-6.49272E+04-1.73108E+01-1.25812E+02 5.34361E+03 1.58460E-09-6.83060E-09
 -1       864-6.49235E+04-3.72912E+00 2.18083E+01-4.38267E+02 1.17754E-09-1.07271E-08
 -1       865-6.48796E+04 5.13683E+01 1.95113E+02 5.33266E+03 2.89288E-09 9.55112E-10
 -1       866-6.49518E+04-4.82397E+01 4.05662E+02-4.29316E+02-1.04382E-09 6.86450E-09
 -1       867-6.46854E+04 3.99720E+02 1.00652E+03 5.30829E+03 2.17400E-09 1.30677E-09
 -1       868-6.51132E+04-3.46154E+02 1.67444E+03-4.13904E+02-3.70505E-10-5.83100E-09
 -1       869-6.34554E+04 2.88080E+03 4.46147E+03 5.26781E+03 3.45835E-10-2.95024E-08
 -1       870-6.61749E+04-2.46246E+03 6.47415E+03-3.88786E+02-2.62150E-09-1.22554E-09
 -1       871-5.15121E+03-1.71936E+04-1.76940E+04 1.18132E+05-2.69392E-09-2.86036E-09
 -1       872-1.98180E+03-2.12611E+04-7.36132E+03 1.53169E+05-6.53927E-09 9.59699E-09
 -1       873 2.31486E+02-1.93158E+04 6.55392E+02 1.17873E+05-3.24417E-09 4.51371E-09
 -1       874 2.88880E+03-1.70248E+04 9.15880E+03 1.53202E+05-6.31189E-09 7.62338E-09
 -1       875 6.23679E+03-2.14967E+04 2.05685E+04 1.18090E+05-2.30284E-09 7.40692E-09
 -1       876 2.71851E+05 4.60631E+04 1.40785E+04 1.09385E+05-1.13539E-09-1.03810E-08
 -1       877 2.72756E+05 4.90534E+04 7.51839E+03 1.13447E+05 5.37602E-09-6.13431E-09
 -1       878 2.73167E+05 4.45043E+04 3.14985E+03 1.10540E+05-4.02861E-09 1.19132E-08
 -1       879 2.70842E+05 4.71441E+04 1.56938E+03 1.13543E+05 2.95609E-09 1.45520E-08
 -1       880 2.73261E+05 4.44879E+04 7.30943E+02 1.10587E+05 7.06586E-09 2.19042E-08
 -1       881 2.70715E+05 4.70625E+04 3.90167E+02 1.13521E+05-2.04727E-09-6.38553E-09
 -1       882 2.73270E+05 4.45001E+04 2.49330E+02 1.10588E+05-5.38421E-09-7.65685E-09
 -1       883 2.70706E+05 4.70584E+04 2.67585E+02 1.13515E+05-4.67134E-09 1.23514E-09
 -1       884 2.73264E+05 4.44974E+04 4.25257E+02 1.10588E+05 9.79981E-11-4.81651E-09
 -1       885 2.70740E+05 4.70643E+04 8.54747E+02 1.13525E+05 7.07416E-10-3.89741E-09
 -1       886 2.73231E+05 4.44724E+04 1.72259E+03 1.10585E+05-3.69859E-09-1.17325E-10
 -1       887 2.71042E+05 4.72628E+04 3.76273E+03 1.13569E+05-4.36557E-11-5.59100E-09
 -1       888 2.72993E+05 4.45143E+04 7.58202E+03 1.10465E+05-1.20951E-08-3.50610E-10
 -1       889 2.75557E+05 5.19563E+04 1.81122E+04 1.13429E+05-1.77989E-08 7.71979E-09
 -1       890 2.69901E+05 4.81878E+04 3.39235E+04 1.07576E+05-1.46497E-08 2.84308E-09
 -1       891-1.08785E+02-1.51481E+05-1.84444E+03 2.60888E+04-6.15273E-10 6.21912E-09
 -1       892-2.02124E+02-1.51955E+05-1.98539E+03 3.95698E+04 9.63837E-10 4.84829E-09
 -1       893 1.40514E+01-1.51540E+05-2.81566E+03 2.60952E+04-6.47560E-10 2.39152E-09
 -1       894-1.44157E+03-1.53021E+05-5.83070E+03 3.94251E+04 2.18051E-09 1.47297E-08
 -1       895-1.13937E+03-1.50325E+05-1.02691E+04 2.62339E+04 9.20863E-11-4.50473E-09
 -1       956-3.47528E+05-4.96293E+03-1.23395E+04 2.67876E+04 3.65253E-09-9.21932E-09
 -1       957-3.49955E+05-1.72259E+03-6.33400E+03 3.22169E+04 4.86580E-11-1.72622E-09
 -1       958-3.48632E+05-1.87674E+02-2.85407E+03 2.66366E+04-1.02837E-08 9.92941E-09
 -1       959-3.48818E+05-8.65756E+01-1.45752E+03 3.23891E+04-1.21108E-08 5.44856E-09
 -1       960-3.48737E+05-1.00873E+01-7.10720E+02 2.66213E+04-2.27374E-09-1.65032E-08
 -1       961-3.48741E+05-2.14334E+01-3.77001E+02 3.24069E+04 1.07950E-08-1.91810E-08
 -1       962-3.48761E+05-1.25136E+01-2.15990E+02 2.66189E+04-4.38285E-09-3.83670E-09
 -1       963-3.48740E+05-1.83994E+01-1.73691E+02 3.24100E+04-7.20502E-09-2.17483E-09
 -1       964-3.48765E+05-9.69231E+00-2.11471E+02 2.66182E+04-6.84309E-10-7.70547E-09
 -1       965-3.48751E+05-1.54216E+01-3.65964E+02 3.24095E+04-3.52236E-09-4.55839E-09
 -1       966-3.48751E+05-1.69921E+00-6.87599E+02 2.66194E+04-2.92152E-09-1.13935E-08
 -1       967-3.48836E+05-7.26667E+01-1.41036E+03 3.23974E+04 3.73120E-10 6.57224E-09
 -1       968-3.48658E+05-1.68076E+02-2.76072E+03 2.66303E+04-7.01357E-09 1.36853E-08
 -1       969-3.49947E+05-1.65090E+03-6.12904E+03 3.22703E+04-1.01466E-08 1.56422E-09
 -1       970-3.47597E+05-4.78540E+03-1.19392E+04 2.67422E+04-6.03677E-09 1.59780E-08
 -1       971-3.20721E+05-1.62328E+03-8.83523E+03 1.45605E+04 2.11458E-09 3.47492E-09
 -1       972-3.22855E+05-1.18499E+03-4.81158E+03 2.02058E+04 6.48151E-09 4.47199E-09
 -1       973-3.21705E+05-4.31423E+01-2.15499E+03 1.44434E+04 1.38971E-09-1.88106E-09
 -1       974-3.21840E+05-5.51998E+01-1.11689E+03 2.03364E+04-1.37516E-09 6.61930E-09
 -1       975-3.21783E+05-8.63941E-01-5.58268E+02 1.44318E+04-6.02085E-10-1.97815E-09
 -1       976-3.21782E+05-8.14945E+00-3.22041E+02 2.03509E+04 8.34007E-10-1.29290E-08
 -1       977-3.21798E+05-3.94237E-01-2.33662E+02 1.44288E+04-3.22416E-10-4.44015E-09
 -1       978-3.21786E+05-2.43001E+00-2.73338E+02 2.03553E+04-2.04011E-09 3.45040E-10
 -1       979-3.21798E+05 7.38607E+00-4.39084E+02 1.44275E+04 6.29365E-09 1.47953E-08
 -1       980-3.21819E+05 3.86905E-01-8.47763E+02 2.03561E+04 7.93536E-09 4.21221E-09
 -1       981-3.21771E+05 2.85590E+01-1.64189E+03 1.44280E+04 3.30851E-09-7.68921E-10
 -1       982-3.22044E+05-1.20897E+02-3.39373E+03 2.03499E+04 3.37400E-09 1.24018E-08
 -1       983-3.21564E+05-7.65272E+01-6.59402E+03 1.44338E+04-5.19822E-09 1.13500E-08
 -1       984-3.25216E+05-3.56467E+03-1.47669E+04 2.02683E+04-1.11818E-08 1.26784E-08
 -1       985-3.18579E+05-4.90161E+03-2.71166E+04 1.45064E+04-7.51379E-09 6.58656E-09
 -3
    1PSTEP                        29          15           1          
  100CL  115 6.42334E-01         409                     0   15           1
 -4  DISP        4    1
 -5  D1          1    2    1    0
 -5  D2          1    2    2    0
 -5  D3          1    2    3    0
 -5  ALL         1    2    0    0    1ALL
 -1         1 2.07333E-03 0.00000E+00 0.00000E+00
 -1         2 1.85859E-03 1.84865E-27 0.00000E+00
 -1         3 3.10254E-04-3.04051E-27 0.00000E+00
 -1         5 1.66279E-04-5.36500E-26-2.06795E-24
 -1         8 2.05638E-03-5.16192E-07 0.00000E+00
 -1         9 2.01373E-03-7.90493E-06 0.00000E+00
 -1        10 2.83086E-04-3.49272E-06-6.61744E-24
 -1        12 1.67719E-04 7.69146E-07 3.10193E-25
 -1        15 2.03581E-03-5.65177E-07 2.06795E-25
 -1        16 2.04434E-03-9.08352E-06 0.00000E+00
 -1        17 1.94775E-04-7.97196E-06 0.00000E+00
 -1        18 1.70517E-04 2.87553E-05 0.00000E+00
 -1        19 1.72041E-04 1.53297E-06 0.00000E+00
 -1        20 1.72184E-04-5.41407E-06 0.00000E+00
 -1        21 1.71350E-04-1.59075E-05-3.30872E-24
 -1        24 2.94252E-05-1.18058E-05 0.00000E+00
 -1        25 1.79259E-04 2.89653E-05 0.00000E+00
 -1        26 1.79955E-04 2.12377E-06 0.00000E+00
 -1        27 1.77863E-04-8.81733E-06 0.00000E+00
 -1        28 1.77522E-04-1.65082E-05 0.00000E+00
 -1        32 0.00000E+00 0.00000E+00 0.00000E+00
 -1        33 1.86840E-04 2.84250E-06 0.00000E+00
 -1        34 1.84813E-04-8.86626E-06 0.00000E+00
 -1        35 1.82955E-04-1.68366E-05 0.00000E+00
 -1        51 2.07225E-03-9.82507E-08-6.61744E-24
 -1        52 2.07022E-03-1.81535E-07 0.00000E+00
 -1        53 2.06743E-03-2.62757E-07 0.00000E+00
 -1        54 2.06407E-03-3.44072E-07 0.00000E+00
 -1        55 2.06032E-03-4.27048E-07 0.00000E+00
 -1        56 2.06936E-03 6.05812E-07 0.00000E+00
 -1        57 2.06393E-03 4.70365E-06 5.29396E-23
 -1        58 2.05741E-03 1.16668E-05 0.00000E+00
 -1        59 2.05011E-03 2.05802E-05 0.00000E+00
 -1        60 2.04253E-03 3.02411E-05 0.00000E+00
 -1        61 2.03514E-03 3.93796E-05 0.00000E+00
 -1        62 2.02841E-03 4.68096E-05 0.00000E+00
 -1        63 2.02273E-03 5.14768E-05 5.29396E-23
 -1        64 2.01834E-03 5.27637E-05 0.00000E+00
 -1        65 2.01536E-03 5.03187E-05 0.00000E+00
 -1        66 2.01367E-03 4.43823E-05 0.00000E+00
 -1        67 2.01308E-03 3.54734E-05 0.00000E+00
 -1        68 2.01321E-03 2.45839E-05 1.05879E-22
 -1        69 2.01367E-03 1.28717E-05 5.29396E-23
 -1        70 2.01395E-03 1.61234E-06-5.29396E-23
 -1        86 1.86748E-03-9.87511E-07-2.64698E-23
 -1        87 1.89381E-03-2.27028E-06 0.00000E+00
 -1        88 1.92991E-03-3.83122E-06 2.64698E-23
 -1        89 1.96774E-03-5.45271E-06-1.32349E-23
 -1        90 1.99852E-03-6.85307E-06 2.64698E-23
 -1       121 3.09491E-04-5.69101E-07-1.32349E-23
 -1       122 3.07204E-04-1.14045E-06 0.00000E+00
 -1       123 3.03403E-04-1.71625E-06-1.32349E-23
 -1       124 2.98102E-04-2.29878E-06-6.61744E-24
 -1       125 2.91320E-04-2.88984E-06 0.00000E+00
 -1       191 1.66319E-04 1.28231E-07-2.06795E-25
 -1       192 1.66439E-04 2.56455E-07-1.03398E-25
 -1       193 1.66639E-04 3.84667E-07 2.89513E-24
 -1       194 1.66919E-04 5.12859E-07 2.06795E-25
 -1       195 1.67279E-04 6.41021E-07 1.86116E-24
 -1       251 2.05558E-03 1.97254E-05 0.00000E+00
 -1       252 2.05361E-03 7.31221E-05-6.61744E-24
 -1       253 2.05020E-03 1.50068E-04-1.32349E-23
 -1       254 2.04571E-03 2.40412E-04-6.61744E-24
 -1       255 2.04125E-03 3.30304E-04 0.00000E+00
 -1       256 2.03794E-03 4.05909E-04 0.00000E+00
 -1       257 2.03606E-03 4.57325E-04 0.00000E+00
 -1       258 2.03530E-03 4.75212E-04-6.61744E-24
 -1       259 2.03456E-03 4.58950E-04 0.00000E+00
 -1       260 2.03274E-03 4.08776E-04 0.00000E+00
 -1       261 2.02946E-03 3.33734E-04 0.00000E+00
 -1       262 2.02497E-03 2.43442E-04 6.61744E-24
 -1       263 2.02036E-03 1.51715E-04 1.32349E-23
 -1       264 2.01677E-03 7.24002E-05 0.00000E+00
 -1       265 2.01462E-03 1.58970E-05-2.64698E-23
 -1       266 2.05295E-03-5.31927E-07-3.30872E-24
 -1       267 2.04952E-03-5.39169E-07 0.00000E+00
 -1       268 2.04610E-03-5.46948E-07 8.27181E-25
 -1       269 2.04267E-03-5.53134E-07 2.06795E-25
 -1       270 2.03924E-03-5.59282E-07 0.00000E+00
 -1       271 2.05423E-03 2.74636E-06 0.00000E+00
 -1       272 2.05200E-03 6.15260E-06-1.32349E-23
 -1       273 2.04977E-03 9.55980E-06 0.00000E+00
 -1       274 2.04760E-03 1.28128E-05 1.32349E-23
 -1       275 2.04554E-03 1.57614E-05 0.00000E+00
 -1       276 2.04365E-03 1.82570E-05 0.00000E+00
 -1       277 2.04199E-03 2.01563E-05 0.00000E+00
 -1       278 2.04060E-03 2.13220E-05-1.32349E-23
 -1       279 2.03953E-03 2.16245E-05-2.64698E-23
 -1       280 2.03884E-03 2.09435E-05-1.32349E-23
 -1       281 2.03855E-03 1.91689E-05 0.00000E+00
 -1       282 2.03871E-03 1.62024E-05-1.32349E-23
 -1       283 2.03935E-03 1.19581E-05 0.00000E+00
 -1       284 2.04048E-03 6.36469E-06 0.00000E+00
 -1       285 2.04214E-03-6.36822E-07 0.00000E+00
 -1       301 2.01931E-03-8.12541E-06 0.00000E+00
 -1       302 2.02376E-03-8.31269E-06 3.30872E-24
 -1       303 2.02777E-03-8.49560E-06 0.00000E+00
 -1       304 2.03207E-03-8.67862E-06-1.32349E-23
 -1       305 2.03736E-03-8.86793E-06 2.64698E-23
 -1       306 2.04696E-03-1.37416E-04 1.05879E-22
 -1       307 2.11149E-03-4.96285E-04-5.29396E-23
 -1       308 2.17022E-03-1.02752E-03-1.05879E-22
 -1       309 2.21359E-03-1.65033E-03-5.29396E-23
 -1       310 2.26003E-03-2.25606E-03 0.00000E+00
 -1       311 2.32349E-03-2.73761E-03 5.29396E-23
 -1       312 2.38297E-03-3.02312E-03 0.00000E+00
 -1       313 2.39298E-03-3.07152E-03 5.29396E-23
 -1       314 2.29698E-03-2.88817E-03 0.00000E+00
 -1       315 2.05951E-03-2.51884E-03 5.29396E-23
 -1       316 1.69252E-03-2.02895E-03 0.00000E+00
 -1       317 1.24517E-03-1.48263E-03 5.29396E-23
 -1       318 8.07675E-04-9.42980E-04 0.00000E+00
 -1       319 4.67360E-04-4.74618E-04-5.29396E-23
 -1       320 2.62978E-04-1.42113E-04 0.00000E+00
 -1       336 2.73119E-04-4.18129E-06-1.32349E-23
 -1       337 2.61154E-04-4.89206E-06 0.00000E+00
 -1       338 2.47255E-04-5.62638E-06-1.32349E-23
 -1       339 2.31500E-04-6.38488E-06 0.00000E+00
 -1       340 2.13974E-04-7.17185E-06 0.00000E+00
 -1       406 1.68240E-04 8.97218E-07 2.89513E-24
 -1       407 1.68840E-04 1.02521E-06-7.23783E-25
 -1       408 1.69520E-04 1.15307E-06 4.13590E-25
 -1       409 1.70281E-04 1.28064E-06-8.27181E-25
 -1       410 1.71121E-04 1.40766E-06-3.30872E-24
 -1       521 2.07841E-03-1.47298E-04 0.00000E+00
 -1       522 2.14227E-03-5.25189E-04 0.00000E+00
 -1       523 2.19667E-03-1.08290E-03 0.00000E+00
 -1       524 2.23316E-03-1.73371E-03 0.00000E+00
 -1       525 2.27344E-03-2.36583E-03-1.05879E-22
 -1       526 2.33414E-03-2.86931E-03 5.29396E-23
 -1       527 2.39347E-03-3.16661E-03-1.05879E-22
 -1       528 2.40226E-03-3.21547E-03 0.00000E+00
 -1       529 2.29775E-03-3.02070E-03-1.05879E-22
 -1       530 2.04196E-03-2.63402E-03 5.29396E-23
 -1       531 1.64694E-03-2.12415E-03 0.00000E+00
 -1       532 1.16673E-03-1.55840E-03-5.29396E-23
 -1       533 6.96436E-04-9.98905E-04 1.05879E-22
 -1       534 3.28238E-04-5.09383E-04-5.29396E-23
 -1       535 1.05852E-04-1.58257E-04 0.00000E+00
 -1       536 1.94124E-04 2.37957E-05 0.00000E+00
 -1       537 1.92504E-04 7.89662E-05 3.30872E-24
 -1       538 1.90008E-04 1.49033E-04-3.30872E-24
 -1       539 1.87067E-04 2.25411E-04 0.00000E+00
 -1       540 1.84419E-04 2.97590E-04 3.30872E-24
 -1       541 1.82689E-04 3.55078E-04 0.00000E+00
 -1       542 1.81881E-04 3.91641E-04-3.30872E-24
 -1       543 1.81673E-04 4.01180E-04 1.65436E-24
 -1       544 1.81377E-04 3.84430E-04 0.00000E+00
 -1       545 1.80363E-04 3.42320E-04 0.00000E+00
 -1       546 1.78498E-04 2.82351E-04 0.00000E+00
 -1       547 1.75990E-04 2.12133E-04-1.65436E-24
 -1       548 1.73509E-04 1.42327E-04-3.30872E-24
 -1       549 1.71715E-04 8.35979E-05-1.65436E-24
 -1       550 1.70775E-04 4.33203E-05 1.65436E-24
 -1       551 1.71806E-04-8.49684E-06 0.00000E+00
 -1       552 1.45777E-04-9.08966E-06 3.30872E-24
 -1       553 1.17597E-04-9.73554E-06 6.61744E-24
 -1       554 8.81947E-05-1.04161E-05 6.61744E-24
 -1       555 5.84967E-05-1.11071E-05 0.00000E+00
 -1       556 1.87876E-04 9.70413E-06 0.00000E+00
 -1       557 1.82320E-04 2.39926E-05 0.00000E+00
 -1       558 1.77981E-04 3.51607E-05-5.29396E-23
 -1       559 1.74737E-04 4.34971E-05 0.00000E+00
 -1       560 1.72470E-04 4.92904E-05 0.00000E+00
 -1       561 1.71060E-04 5.28318E-05 0.00000E+00
 -1       562 1.70392E-04 5.44135E-05 0.00000E+00
 -1       563 1.70352E-04 5.43284E-05 0.00000E+00
 -1       564 1.70826E-04 5.28701E-05 0.00000E+00
 -1       565 1.71704E-04 5.03330E-05-6.61744E-24
 -1       566 1.72874E-04 4.70116E-05 0.00000E+00
 -1       567 1.74225E-04 4.32011E-05-1.65436E-24
 -1       568 1.75649E-04 3.91965E-05-8.27181E-25
 -1       569 1.77036E-04 3.52930E-05 0.00000E+00
 -1       570 1.78275E-04 3.17857E-05 0.00000E+00
 -1       571 1.70609E-04 2.69912E-05-1.65436E-24
 -1       572 1.70703E-04 2.51657E-05 4.13590E-25
 -1       573 1.70798E-04 2.32932E-05-3.30872E-24
 -1       574 1.70894E-04 2.13886E-05 0.00000E+00
 -1       575 1.70989E-04 1.94670E-05-3.30872E-24
 -1       576 1.71084E-04 1.75436E-05-1.65436E-24
 -1       577 1.71179E-04 1.56334E-05 0.00000E+00
 -1       578 1.71275E-04 1.37516E-05 0.00000E+00
 -1       579 1.71370E-04 1.19134E-05 6.61744E-24
 -1       580 1.71466E-04 1.01338E-05 0.00000E+00
 -1       581 1.71561E-04 8.42811E-06-6.61744E-24
 -1       582 1.71657E-04 6.81137E-06-6.61744E-24
 -1       583 1.71753E-04 5.29870E-06 0.00000E+00
 -1       584 1.71849E-04 3.90508E-06 0.00000E+00
 -1       585 1.71945E-04 2.64531E-06 0.00000E+00
 -1       586 1.71930E-04 2.87923E-05-1.65436E-24
 -1       587 1.73305E-04 2.88288E-05 0.00000E+00
 -1       588 1.74684E-04 2.88649E-05 8.27181E-25
 -1       589 1.76109E-04 2.89004E-05 0.00000E+00
 -1       590 1.77620E-04 2.89347E-05 0.00000E+00
 -1       591 1.71116E-04 2.70755E-05-2.06795E-25
 -1       592 1.71720E-04 2.53743E-05 2.06795E-25
 -1       593 1.72329E-04 2.36576E-05 1.65436E-24
 -1       594 1.72942E-04 2.19301E-05 4.13590E-25
 -1       595 1.73557E-04 2.01968E-05 0.00000E+00
 -1       596 1.74172E-04 1.84624E-05 0.00000E+00
 -1       597 1.74785E-04 1.67319E-05 8.27181E-25
 -1       598 1.75396E-04 1.50100E-05 0.00000E+00
 -1       599 1.76001E-04 1.33015E-05 8.27181E-25
 -1       600 1.76600E-04 1.16112E-05 0.00000E+00
 -1       601 1.77190E-04 9.94405E-06 0.00000E+00
 -1       602 1.77770E-04 8.30471E-06-2.06795E-25
 -1       603 1.78337E-04 6.69806E-06-8.27181E-25
 -1       604 1.78891E-04 5.12900E-06-7.75482E-26
 -1       605 1.79430E-04 3.60227E-06 0.00000E+00
 -1       606 1.72054E-04 6.40979E-07-3.30872E-24
 -1       607 1.72064E-04-1.63043E-07 0.00000E+00
 -1       608 1.72073E-04-8.84261E-07 3.30872E-24
 -1       609 1.72082E-04-1.52850E-06 0.00000E+00
 -1       610 1.72091E-04-2.10163E-06 0.00000E+00
 -1       611 1.72099E-04-2.60960E-06 0.00000E+00
 -1       612 1.72108E-04-3.05833E-06 0.00000E+00
 -1       613 1.72116E-04-3.45380E-06 0.00000E+00
 -1       614 1.72125E-04-3.80194E-06 0.00000E+00
 -1       615 1.72134E-04-4.10872E-06 0.00000E+00
 -1       616 1.72142E-04-4.38009E-06-1.65436E-24
 -1       617 1.72151E-04-4.62199E-06 0.00000E+00
 -1       618 1.72159E-04-4.84039E-06 0.00000E+00
 -1       619 1.72168E-04-5.04123E-06-2.06795E-25
 -1       620 1.72176E-04-5.23048E-06 0.00000E+00
 -1       621 1.73111E-04 1.63188E-06 1.65436E-24
 -1       622 1.74320E-04 1.73106E-06 8.27181E-25
 -1       623 1.75637E-04 1.83009E-06-1.65436E-24
 -1       624 1.77035E-04 1.92884E-06 8.27181E-25
 -1       625 1.78484E-04 2.02734E-06 1.65436E-24
 -1       626 1.72483E-04 6.75377E-07-6.61744E-24
 -1       627 1.72901E-04-1.16106E-07 0.00000E+00
 -1       628 1.73297E-04-8.49324E-07 0.00000E+00
 -1       629 1.73675E-04-1.53246E-06 0.00000E+00
 -1       630 1.74037E-04-2.17372E-06 0.00000E+00
 -1       631 1.74387E-04-2.78132E-06 0.00000E+00
 -1       632 1.74727E-04-3.36351E-06-3.30872E-24
 -1       633 1.75060E-04-3.92850E-06 1.65436E-24
 -1       634 1.75391E-04-4.48453E-06 3.30872E-24
 -1       635 1.75721E-04-5.03982E-06-1.65436E-24
 -1       636 1.76054E-04-5.60261E-06 3.30872E-24
 -1       637 1.76392E-04-6.18112E-06 1.65436E-24
 -1       638 1.76740E-04-6.78359E-06 0.00000E+00
 -1       639 1.77099E-04-7.41826E-06 0.00000E+00
 -1       640 1.77473E-04-8.09339E-06-1.65436E-24
 -1       656 1.72598E-04-5.96731E-06 0.00000E+00
 -1       657 1.73425E-04-6.54298E-06 0.00000E+00
 -1       658 1.74524E-04-7.11725E-06-1.32349E-23
 -1       659 1.75751E-04-7.69116E-06 0.00000E+00
 -1       660 1.76924E-04-8.26680E-06 6.61744E-24
 -1       661 1.72340E-04-5.63996E-06 0.00000E+00
 -1       662 1.72531E-04-5.95220E-06 0.00000E+00
 -1       663 1.72753E-04-6.34609E-06-1.65436E-24
 -1       664 1.73004E-04-6.81567E-06 0.00000E+00
 -1       665 1.73281E-04-7.35563E-06-1.65436E-24
 -1       666 1.73582E-04-7.96059E-06-8.27181E-25
 -1       667 1.73906E-04-8.62540E-06 0.00000E+00
 -1       668 1.74250E-04-9.34499E-06 8.27181E-25
 -1       669 1.74613E-04-1.01145E-05 0.00000E+00
 -1       670 1.74993E-04-1.09290E-05 0.00000E+00
 -1       671 1.75388E-04-1.17839E-05 1.65436E-24
 -1       672 1.75796E-04-1.26746E-05 8.27181E-25
 -1       673 1.76216E-04-1.35966E-05 0.00000E+00
 -1       674 1.76645E-04-1.45457E-05 0.00000E+00
 -1       675 1.77082E-04-1.55170E-05 0.00000E+00
 -1       676 1.72382E-04-1.60082E-05 3.30872E-24
 -1       677 1.73413E-04-1.61089E-05 0.00000E+00
 -1       678 1.74444E-04-1.62095E-05-3.30872E-24
 -1       679 1.75473E-04-1.63098E-05-1.65436E-24
 -1       680 1.76499E-04-1.64100E-05 0.00000E+00
 -1       771 1.85355E-05 1.24185E-05 0.00000E+00
 -1       772 9.35405E-06 3.23156E-05 0.00000E+00
 -1       773 1.79912E-06 4.80970E-05 0.00000E+00
 -1       774-4.24052E-06 5.99989E-05 2.64698E-23
 -1       775-8.87395E-06 6.82665E-05 0.00000E+00
 -1       776-1.22147E-05 7.31595E-05-2.64698E-23
 -1       777-1.43761E-05 7.49464E-05-5.29396E-23
 -1       778-1.54741E-05 7.39077E-05 0.00000E+00
 -1       779-1.56241E-05 7.03314E-05-5.29396E-23
 -1       780-1.49435E-05 6.45152E-05 5.29396E-23
 -1       781-1.35489E-05 5.67627E-05 0.00000E+00
 -1       782-1.15587E-05 4.73854E-05 2.64698E-23
 -1       783-9.09014E-06 3.66985E-05 0.00000E+00
 -1       784-6.26201E-06 2.50228E-05-2.64698E-23
 -1       785-3.19215E-06 1.26815E-05 5.29396E-23
 -1       786 1.79299E-04 2.70659E-05 5.16988E-26
 -1       787 1.79341E-04 2.52152E-05-4.13590E-25
 -1       788 1.79384E-04 2.34053E-05 0.00000E+00
 -1       789 1.79428E-04 2.16280E-05 0.00000E+00
 -1       790 1.79471E-04 1.98788E-05 0.00000E+00
 -1       791 1.79515E-04 1.81530E-05-8.27181E-25
 -1       792 1.79559E-04 1.64485E-05-1.65436E-24
 -1       793 1.79602E-04 1.47632E-05 0.00000E+00
 -1       794 1.79646E-04 1.30968E-05 0.00000E+00
 -1       795 1.79690E-04 1.14493E-05 0.00000E+00
 -1       796 1.79734E-04 9.82248E-06 0.00000E+00
 -1       797 1.79778E-04 8.21820E-06 0.00000E+00
 -1       798 1.79822E-04 6.64067E-06 0.00000E+00
 -1       799 1.79866E-04 5.09412E-06 8.27181E-25
 -1       800 1.79910E-04 3.58598E-06 1.65436E-24
 -1       801 1.38424E-04 2.59422E-05-2.64698E-23
 -1       802 1.47462E-05 1.63564E-05 0.00000E+00
 -1       803-9.17501E-05 8.37168E-06 0.00000E+00
 -1       804-8.28557E-05 5.78119E-06 0.00000E+00
 -1       805-2.75593E-05 2.35898E-06 0.00000E+00
 -1       806 1.79862E-04 2.70007E-05-3.30872E-24
 -1       807 1.80450E-04 2.50623E-05-1.65436E-24
 -1       808 1.81027E-04 2.31548E-05-3.30872E-24
 -1       809 1.81589E-04 2.12821E-05 1.65436E-24
 -1       810 1.82138E-04 1.94478E-05 0.00000E+00
 -1       811 1.82671E-04 1.76556E-05 0.00000E+00
 -1       812 1.83186E-04 1.59092E-05 0.00000E+00
 -1       813 1.83683E-04 1.42121E-05 0.00000E+00
 -1       814 1.84161E-04 1.25680E-05 1.65436E-24
 -1       815 1.84617E-04 1.09804E-05 8.27181E-25
 -1       816 1.85051E-04 9.45289E-06 0.00000E+00
 -1       817 1.85461E-04 7.98912E-06 1.65436E-24
 -1       818 1.85846E-04 6.59265E-06 0.00000E+00
 -1       819 1.86205E-04 5.26704E-06-8.27181E-25
 -1       820 1.86536E-04 4.01583E-06-1.65436E-24
 -1       821 1.79831E-04 3.59707E-07-1.65436E-24
 -1       822 1.79699E-04-2.05028E-06 1.65436E-24
 -1       823 1.79566E-04-4.83442E-06 0.00000E+00
 -1       824 1.79431E-04-7.71867E-06 1.65436E-24
 -1       825 1.79297E-04-1.04030E-05 3.30872E-24
 -1       826 1.79164E-04-1.25883E-05 1.65436E-24
 -1       827 1.79032E-04-1.41073E-05-3.30872E-24
 -1       828 1.78901E-04-1.47966E-05 0.00000E+00
 -1       829 1.78770E-04-1.47115E-05 0.00000E+00
 -1       830 1.78639E-04-1.39120E-05 0.00000E+00
 -1       831 1.78507E-04-1.26462E-05 0.00000E+00
 -1       832 1.78375E-04-1.11653E-05-1.65436E-24
 -1       833 1.78244E-04-9.77712E-06 0.00000E+00
 -1       834 1.78114E-04-8.78891E-06 0.00000E+00
 -1       835 1.77985E-04-8.40281E-06-8.27181E-25
 -1       836 1.81305E-04 2.24305E-06 0.00000E+00
 -1       837 1.82531E-04 2.36526E-06 0.00000E+00
 -1       838 1.83667E-04 2.48738E-06-3.30872E-24
 -1       839 1.84742E-04 2.60882E-06 0.00000E+00
 -1       840 1.85789E-04 2.73008E-06-8.27181E-25
 -1       856 1.77845E-04-9.56291E-06 0.00000E+00
 -1       857 1.77824E-04-1.01769E-05 1.29247E-26
 -1       858 1.77804E-04-1.06799E-05 0.00000E+00
 -1       859 1.77782E-04-1.10923E-05 0.00000E+00
 -1       860 1.77761E-04-1.14348E-05 0.00000E+00
 -1       861 1.77740E-04-1.17281E-05 0.00000E+00
 -1       862 1.77718E-04-1.19929E-05 0.00000E+00
 -1       863 1.77697E-04-1.22498E-05 0.00000E+00
 -1       864 1.77675E-04-1.25197E-05 8.27181E-25
 -1       865 1.77654E-04-1.28234E-05 0.00000E+00
 -1       866 1.77632E-04-1.31814E-05 0.00000E+00
 -1       867 1.77611E-04-1.36144E-05 0.00000E+00
 -1       868 1.77589E-04-1.41432E-05 0.00000E+00
 -1       869 1.77567E-04-1.47881E-05 0.00000E+00
 -1       870 1.77545E-04-1.55697E-05-8.27181E-25
 -1       871 1.78884E-04-8.82128E-06-8.27181E-25
 -1       872 1.80046E-04-8.82843E-06 0.00000E+00
 -1       873 1.81285E-04-8.83623E-06-4.13590E-25
 -1       874 1.82535E-04-8.84474E-06-4.13590E-25
 -1       875 1.83733E-04-8.85382E-06 1.03398E-24
 -1       876 1.78265E-04-9.54907E-06 3.30872E-24
 -1       877 1.78646E-04-1.02162E-05 0.00000E+00
 -1       878 1.79005E-04-1.08264E-05-3.30872E-24
 -1       879 1.79347E-04-1.13869E-05 1.65436E-24
 -1       880 1.79672E-04-1.19049E-05 0.00000E+00
 -1       881 1.79985E-04-1.23875E-05 0.00000E+00
 -1       882 1.80286E-04-1.28418E-05 0.00000E+00
 -1       883 1.80580E-04-1.32750E-05 1.65436E-24
 -1       884 1.80869E-04-1.36942E-05 3.30872E-24
 -1       885 1.81155E-04-1.41064E-05 0.00000E+00
 -1       886 1.81441E-04-1.45189E-05-3.30872E-24
 -1       887 1.81729E-04-1.49387E-05 0.00000E+00
 -1       888 1.82023E-04-1.53730E-05 3.30872E-24
 -1       889 1.82324E-04-1.58290E-05-1.65436E-24
 -1       890 1.82636E-04-1.63139E-05 1.65436E-24
 -1       891 1.78566E-04-1.65633E-05 1.65436E-24
 -1       892 1.79588E-04-1.66186E-05 0.00000E+00
 -1       893 1.80562E-04-1.66738E-05 0.00000E+00
 -1       894 1.81464E-04-1.67288E-05 0.00000E+00
 -1       895 1.82270E-04-1.67836E-05-8.27181E-25
 -1       956 1.86715E-04 1.83380E-06-3.30872E-24
 -1       957 1.86589E-04 9.11109E-07-8.27181E-25
 -1       958 1.86462E-04 6.44181E-08 3.30872E-24
 -1       959 1.86335E-04-7.16852E-07 0.00000E+00
 -1       960 1.86208E-04-1.44332E-06 0.00000E+00
 -1       961 1.86080E-04-2.12562E-06-1.65436E-24
 -1       962 1.85953E-04-2.77442E-06 3.30872E-24
 -1       963 1.85826E-04-3.40041E-06 0.00000E+00
 -1       964 1.85699E-04-4.01423E-06 0.00000E+00
 -1       965 1.85572E-04-4.62657E-06 0.00000E+00
 -1       966 1.85445E-04-5.24812E-06 3.30872E-24
 -1       967 1.85318E-04-5.88952E-06 0.00000E+00
 -1       968 1.85191E-04-6.56146E-06-3.30872E-24
 -1       969 1.85064E-04-7.27455E-06 0.00000E+00
 -1       970 1.84938E-04-8.03942E-06 0.00000E+00
 -1       971 1.84698E-04-9.68934E-06 1.65436E-24
 -1       972 1.84581E-04-1.04198E-05 0.00000E+00
 -1       973 1.84464E-04-1.10678E-05 0.00000E+00
 -1       974 1.84348E-04-1.16440E-05 1.65436E-24
 -1       975 1.84231E-04-1.21590E-05 3.30872E-24
 -1       976 1.84114E-04-1.26234E-05 0.00000E+00
 -1       977 1.83997E-04-1.30480E-05-3.30872E-24
 -1       978 1.83881E-04-1.34434E-05-1.65436E-24
 -1       979 1.83764E-04-1.38202E-05-3.30872E-24
 -1       980 1.83647E-04-1.41893E-05 0.00000E+00
 -1       981 1.83531E-04-1.45611E-05 0.00000E+00
 -1       982 1.83414E-04-1.49465E-05 0.00000E+00
 -1       983 1.83298E-04-1.53561E-05-3.30872E-24
 -1       984 1.83182E-04-1.58006E-05 1.65436E-24
 -1       985 1.83066E-04-1.62906E-05 0.00000E+00
 -3
    1PSTEP                        30          15           1          
  100CL  115 6.42334E-01         409                     0   15           1
 -4  STRESS      6    1
 -5  SXX         1    4    1    1
 -5  SYY         1    4    2    2
 -5  SZZ         1    4    3    3
 -5  SXY         1    4    1    2
 -5  SYZ         1    4    2    3
 -5  SZX         1    4    3    1
 -1         1-4.42251E+06-1.65078E+06-9.73067E+05-1.62101E+06 1.54250E-09-1.28261E-07
 -1         2 1.30226E+04-2.37620E+06 5.53394E+04 2.06026E+05 3.40970E-09-4.96057E-08
 -1         3-1.05561E+03-1.61889E+06 6.05698E+02-1.94978E+03-3.87978E-10-2.91620E-08
 -1         5-4.61513E+01 3.67097E+05 9.47623E+00-9.49418E-01-5.45376E-10 6.07542E-09
 -1         8-6.26099E+05-2.09182E+05-5.00809E+04-2.61004E+05 3.00133E-11 9.30268E-08
 -1         9 7.78550E+06-7.24175E+05 1.29875E+06-1.13715E+06 2.87546E-08-9.79984E-08
 -1        10-3.46381E+03-1.72472E+06-5.02181E+03-1.43693E+04-4.12365E-09-1.03234E-08
 -1        12-4.23602E+01 3.67117E+05 3.09793E+02-6.60507E+00-5.30775E-10 4.64379E-08
 -1        15 1.25442E+03 6.89370E+02 4.05489E+03 1.85912E+00-2.06754E-10 1.89085E-07
 -1        16 1.70973E+07-1.54487E+05 2.41110E+06-1.39922E+06 1.69966E-08-1.35042E-08
 -1        17 6.12528E+06 4.33295E+06 1.64788E+06 4.27929E+06 3.36382E-08 2.03843E-08
 -1        18 1.10687E+05 2.49575E+04-2.06635E+03-1.11580E+05 1.15112E-08 5.54610E-09
 -1        19 1.16708E+05 1.34872E+05-9.08933E+02 2.13149E+04 1.33150E-09-4.39504E-09
 -1        20-7.49471E+04-5.47971E+05-1.22728E+05 2.58765E+04-1.55903E-09 9.66429E-09
 -1        21-4.48473E+01-2.86801E+05-8.99069E+02 2.03049E+02 9.76962E-09-1.05088E-08
 -1        24 1.00216E+07 8.53650E+06 2.84451E+06 7.94010E+06-1.42851E-07-4.47617E-08
 -1        25 7.00441E+04 6.54167E+04 4.83018E+04-5.27719E+05-1.79534E-09 1.58874E-08
 -1        26-5.20800E+04 8.76359E+04-2.34823E+04 9.79375E+01 2.62298E-10 2.49245E-09
 -1        27-7.43346E+04-2.96616E+05-1.08883E+05 6.60762E+04 4.16579E-09-1.09776E-09
 -1        28 2.16552E+04-8.22637E+04 1.63556E+04 2.06288E+04-1.79546E-09 2.45481E-09
 -1        32-1.62447E+06-2.98034E+06-1.72946E+05 2.47890E+05-3.84389E-08-1.01303E-08
 -1        33-1.71272E+05 8.83131E+04 3.09028E+04-3.75632E+04-2.18510E-09 2.12688E-08
 -1        34-2.14822E+05-2.36440E+04 6.45389E+02 7.18219E+04-3.83864E-09-5.20928E-09
 -1        35-2.22702E+04-3.26316E+04-1.29771E+03 4.99104E+04-2.21308E-09 7.45786E-09
 -1        51 4.96129E+04-2.11838E+05 1.07381E+05-6.29989E+05-7.27596E-11 1.03100E-07
 -1        52 1.79335E+04-1.94669E+05 5.79767E+04-7.34447E+05 4.51109E-10-2.08966E-08
 -1        53 5.04220E+03-2.10155E+05 3.27745E+04-6.27667E+05 6.65750E-10 2.39335E-07
 -1        54 1.13950E+04-2.06647E+05 3.21741E+04-7.36875E+05-5.02041E-10 1.02882E-08
 -1        55 2.39152E+04-2.16148E+05 4.52559E+04-6.27325E+05 2.25555E-10 4.40596E-08
 -1        56-8.34167E+06-9.58187E+05-7.21489E+05-3.27789E+06-2.41853E-08-9.93023E-08
 -1        57-8.80934E+06-1.42015E+06-4.84560E+05-3.03312E+06 1.26311E-08-1.38134E-07
 -1        58-8.43437E+06-1.23488E+06-1.69406E+05-3.28688E+06-1.75896E-08 7.29124E-08
 -1        59-8.71052E+06-1.08934E+06-1.00568E+05-3.02196E+06 4.88490E-09-4.74902E-08
 -1        60-8.44181E+06-1.27862E+06-3.91903E+04-3.29423E+06-1.24305E-08 2.12804E-08
 -1        61-8.66904E+06-1.06652E+06-2.17208E+04-3.04381E+06 1.63559E-08-8.72751E-09
 -1        62-8.47395E+06-1.25755E+06-1.16978E+04-3.26425E+06-1.05101E-08-4.33511E-08
 -1        63-8.57772E+06-1.14191E+06-7.08764E+03-3.12928E+06-7.99082E-09 7.24540E-08
 -1        64-8.52846E+06-1.20623E+06-1.18922E+04-3.20538E+06 1.60944E-08 1.36663E-07
 -1        65-8.47376E+06-1.25177E+06-1.82084E+04-3.24931E+06-2.82735E-08-6.71798E-09
 -1        66-8.57758E+06-1.14809E+06-3.60820E+04-3.14397E+06 1.69421E-08 1.70421E-08
 -1        67-8.42025E+06-1.36796E+06-8.84942E+04-3.34490E+06-3.14285E-08 1.58805E-07
 -1        68-8.58700E+06-1.08789E+06-1.49341E+05-3.11290E+06 4.86034E-09-9.45874E-10
 -1        69-8.54498E+06-1.63308E+06-4.29211E+05-3.33190E+06-1.50394E-08-2.41314E-07
 -1        70-8.45735E+06-8.88357E+05-6.36715E+05-3.15658E+06 3.93193E-08 5.51227E-08
 -1        86-1.35819E+04-2.80929E+06-3.45263E+04-1.02799E+05-2.82265E-08-1.76398E-07
 -1        87 1.53671E+04-2.54665E+06 2.05024E+04 3.14288E+05-4.82182E-08-2.04452E-08
 -1        88 4.69777E+02-2.65652E+06-8.14458E+03-2.11335E+05-4.62774E-08-2.10127E-09
 -1        89 7.86499E+03-2.58580E+06-4.70851E+03 3.44922E+05-6.85745E-08-7.22067E-08
 -1        90-2.78211E+03-2.77389E+06-6.58582E+04-1.33556E+05-2.16205E-08 8.68167E-08
 -1       121-1.48428E+03-1.62252E+06-2.17126E+01 9.68948E+02 1.32317E-09 6.77755E-09
 -1       122-8.20376E+02-1.61887E+06 1.24856E+03-3.89729E+03-4.63314E-09-1.55196E-08
 -1       123-1.57149E+03-1.62269E+06 1.39833E+03 2.89310E+03 3.68823E-09-1.03610E-08
 -1       124 1.59458E+03-1.61779E+06 5.05341E+03-8.13729E+03-8.63474E-09-8.54925E-09
 -1       125-2.95735E+03-1.62404E+06 7.11842E+03 5.18400E+03 5.71708E-09-2.73212E-09
 -1       191-4.87471E+01 3.67119E+05 9.33791E+00 4.88643E-01-4.50369E-10 4.13638E-09
 -1       192-4.70482E+01 3.67097E+05 2.01600E+01-3.17950E+00-5.40658E-10 5.75710E-10
 -1       193-5.11175E+01 3.67119E+05 3.55575E+01 2.77693E+00-8.73841E-10-1.16761E-08
 -1       194-4.99278E+01 3.67100E+05 7.64884E+01-7.26334E+00-4.48286E-10-8.85575E-09
 -1       195-5.56690E+01 3.67116E+05 1.47672E+02 4.67122E+00-1.18344E-09 3.20233E-08
 -1       251-2.08900E+06-4.09788E+04-2.08982E+05-1.42260E+05-1.41154E-09 1.79847E-07
 -1       252-1.03697E+06 5.11076E+04 6.46619E+04 4.38496E+05 1.91721E-09 4.47048E-08
 -1       253-1.62959E+06-1.71122E+04-3.61719E+04-2.91218E+05-4.09000E-09-1.78088E-08
 -1       254-1.53232E+06 6.84687E+04 1.13818E+04 5.80602E+05-1.79591E-09 2.32915E-08
 -1       255-1.64251E+06-1.84565E+04-2.07441E+04-2.88961E+05 4.53338E-08 5.90367E-08
 -1       256-1.00536E+06 5.50659E+04 1.17570E+05 4.28527E+05 4.71300E-08 1.09709E-07
 -1       257-2.10492E+06-4.58101E+04-1.16313E+05-1.34406E+05 5.58066E-08 1.22105E-07
 -1       258-4.78208E+05 4.13116E+04 2.17132E+05 9.28224E+03 9.82527E-09 4.57653E-08
 -1       259-2.11779E+06-4.69126E+04-1.17321E+05 1.27427E+05 1.98415E-08-2.37809E-07
 -1       260-9.74980E+05 5.66770E+04 1.28289E+05-4.16026E+05 2.93885E-08-8.09050E-08
 -1       261-1.65705E+06-2.13762E+04-1.45190E+04 2.87686E+05 1.13719E-07-1.03789E-07
 -1       262-1.52622E+06 8.04697E+04 3.49056E+04-5.78377E+05-3.60465E-08-1.47729E-07
 -1       263-1.62095E+06-2.62988E+04 3.88194E+03 2.94738E+05-1.03864E-09-1.26101E-08
 -1       264-1.03526E+06 1.24001E+05 1.60627E+05-4.48962E+05 1.33083E-07 2.68928E-08
 -1       265-2.10226E+06-1.02019E+05-6.15349E+04 1.53808E+05 4.67699E-08 1.14891E-07
 -1       266-2.27092E+04-1.06191E+04 5.32810E+04-3.97787E+01 3.23780E-10 5.68417E-08
 -1       267 2.63262E+04 1.23764E+04 3.76588E+04 4.58975E+01-1.89175E-10-8.59876E-08
 -1       268-3.53029E+03-1.75286E+03 1.39976E+04-5.84810E+00 4.54747E-12-1.87722E-08
 -1       269 4.16823E+03 2.09777E+03 9.09823E+03 6.81221E+00-7.16227E-11 4.93244E-08
 -1       270-6.25657E+02-3.44682E+02 4.39185E+03-9.24462E-01 2.43290E-11 6.43969E-08
 -1       271-2.05545E+06-2.47042E+05-1.52939E+05-7.86321E+05 1.01136E-09-4.84288E-08
 -1       272-2.16673E+06-3.03247E+05-9.84639E+04-7.22290E+05 1.81467E-08-1.34401E-07
 -1       273-2.08291E+06-2.86610E+05-3.60839E+04-7.81017E+05-5.32782E-09-1.09305E-07
 -1       274-2.13432E+06-2.54871E+05-2.02532E+04-7.30546E+05 8.91123E-09-3.71565E-08
 -1       275-2.08691E+06-2.90651E+05-8.40686E+03-7.79754E+05 2.83339E-08 2.55750E-09
 -1       276-2.12812E+06-2.51190E+05-4.40827E+03-7.33155E+05 1.56856E-08-1.51864E-07
 -1       277-2.08856E+06-2.90080E+05-2.22348E+03-7.78264E+05 9.16316E-09-1.11013E-08
 -1       278-2.12404E+06-2.53717E+05-1.36736E+03-7.36273E+05 5.50790E-09 1.06891E-08
 -1       279-2.09032E+06-2.88495E+05-1.59445E+03-7.76181E+05-1.09303E-08 3.92911E-08
 -1       280-2.11951E+06-2.58120E+05-2.32450E+03-7.40412E+05-1.20790E-08-3.76676E-08
 -1       281-2.09234E+06-2.86175E+05-4.66973E+03-7.73585E+05 2.80124E-09 2.03780E-07
 -1       282-2.11597E+06-2.65988E+05-1.03054E+04-7.45220E+05-2.58842E-08 2.67355E-07
 -1       283-2.09317E+06-2.81348E+05-1.89769E+04-7.70773E+05 2.96495E-09 5.53820E-08
 -1       284-2.12603E+06-2.96927E+05-5.05138E+04-7.47576E+05-3.08864E-08-9.79441E-08
 -1       285-2.08208E+06-2.58137E+05-7.92855E+04-7.69932E+05-6.00267E-09 1.28421E-09
 -1       301 1.30422E+04-4.91233E+05 1.74093E+05-8.56802E+05 1.38971E-09-1.13847E-07
 -1       302 1.43505E+04-4.46722E+05 1.06004E+05-1.25238E+06-1.86265E-09 3.94175E-09
 -1       303-6.68457E+03-4.77420E+05 6.46485E+04-8.54632E+05 1.70985E-10 1.69164E-07
 -1       304 1.82312E+03-4.50870E+05 7.32915E+04-1.25167E+06 2.18279E-10 2.33471E-07
 -1       305-2.37332E+03-4.75621E+05 1.00918E+05-8.57290E+05 8.03993E-10 3.26836E-08
 -1       306-2.51945E+07-5.06099E+06-6.86670E+06-1.31637E+06-1.19093E-07-5.85569E-08
 -1       307 2.02712E+07 1.44307E+06 4.40527E+06-1.17824E+07-7.07412E-07 2.52039E-08
 -1       308-7.92835E+06-5.68444E+05-5.48653E+05 4.17422E+06-1.80997E-07 2.57438E-07
 -1       309-3.54837E+06 5.26727E+06 1.59857E+06-1.76152E+07 4.68921E-07 1.01045E-07
 -1       310-1.05907E+07-9.70062E+05-1.23121E+06 4.02320E+06 5.35510E-08-1.02591E-08
 -1       311 2.64149E+07-3.74411E+05 5.33095E+06-8.42277E+06 5.12373E-07 9.02219E-08
 -1       312-2.59580E+07-5.06790E+06-6.41393E+06-3.56585E+06 1.65310E-08-6.50471E-08
 -1       313 3.59170E+07 9.20854E+06 8.28696E+06 1.63845E+07-4.67990E-07-3.07205E-07
 -1       314-1.62539E+07-1.29537E+07-5.92119E+06-1.04253E+07 1.79803E-07-1.92085E-07
 -1       315-7.74150E+05 2.18342E+07 4.56400E+06 1.01017E+07-3.66701E-07 2.49449E-07
 -1       316-1.44238E+05-8.64368E+06-5.07426E+05-3.77674E+06-1.00714E-06-3.37255E-07
 -1       317-1.67316E+07 1.83559E+07 1.56895E+06-4.87051E+06 6.71862E-07-7.05521E-07
 -1       318-1.42345E+06-9.75278E+06-1.28821E+06-4.49965E+06-7.82980E-07 1.62952E-07
 -1       319 3.78794E+06 2.28557E+07 5.08882E+06 1.23794E+07-8.16144E-08 1.72964E-07
 -1       320-1.88003E+07-1.33099E+07-7.52039E+06-1.03111E+07 1.92202E-07-6.65314E-08
 -1       336 6.58756E+02-1.83203E+06-1.78914E+04 9.06936E+03-8.26731E-09-2.94312E-09
 -1       337-6.92299E+03-1.83360E+06-2.10569E+04-2.21707E+04-6.66569E-09-6.38101E-09
 -1       338 9.32062E+02-1.83201E+06-2.99103E+04 1.29116E+04-1.12213E-08-8.48013E-09
 -1       339-3.20010E+04-1.85060E+06-6.65869E+04-2.96604E+04-8.38190E-09 1.09576E-08
 -1       340 2.20954E+04-1.81705E+06-1.03404E+05 1.64521E+04-1.20926E-08 3.34621E-08
 -1       406-2.06344E+01 3.67103E+05 6.09565E+02 2.21009E+00-1.49898E-09 1.84773E-08
 -1       407 1.71118E+02 3.67224E+05 1.29989E+03 1.89634E+01-2.11422E-10-9.93077E-09
 -1       408 6.25426E+02 3.67008E+05 2.59351E+03-2.15833E+01-1.90414E-09 6.19184E-09
 -1       409 2.76798E+03 3.68052E+05 5.84283E+03 2.26366E+02-3.02862E-10 2.19052E-08
 -1       410 8.02861E+03 3.66265E+05 1.19261E+04-2.17330E+02-2.24827E-09 8.69022E-09
 -1       521-2.68678E+07-6.22548E+06-8.06084E+06-1.05528E+06-1.14203E-07-1.15600E-07
 -1       522 2.10863E+07 1.96320E+06 4.49732E+06-1.47060E+07-4.02419E-07-5.15225E-07
 -1       523-8.77425E+06-8.31765E+05-5.76491E+05 4.62421E+06-3.45171E-08-4.18309E-07
 -1       524-6.47649E+06 7.50220E+06 1.74583E+06-2.05328E+07 6.20174E-07-4.54180E-07
 -1       525-1.16295E+07-1.40425E+06-1.36215E+06 4.46073E+06 5.75150E-07-2.32889E-07
 -1       526 2.87334E+07-4.07613E+05 5.64242E+06-1.08016E+07 7.70087E-08-3.14321E-08
 -1       527-2.78098E+07-6.39464E+06-7.41326E+06-3.49578E+06 3.87314E-07 1.03028E-07
 -1       528 3.94811E+07 1.00955E+07 8.70018E+06 1.86203E+07 5.47152E-08 8.80100E-08
 -1       529-1.73633E+07-1.48201E+07-6.82104E+06-1.07259E+07 3.03262E-08-6.75209E-08
 -1       530-2.87709E+06 2.56478E+07 4.85471E+06 1.02796E+07-2.56725E-07 5.45057E-07
 -1       531-2.55034E+05-9.81098E+06-5.19912E+05-4.00641E+06-8.09669E-07 2.15368E-09
 -1       532-1.98084E+07 2.07151E+07 1.73888E+06-7.93031E+06 4.12067E-07-6.68490E-07
 -1       533-1.52988E+06-1.09324E+07-1.36499E+06-4.65915E+06-3.03233E-07-9.10310E-07
 -1       534 1.91822E+06 2.67609E+07 5.33949E+06 1.29272E+07-1.06957E-07 6.03846E-07
 -1       535-2.00094E+07-1.52877E+07-8.62188E+06-1.05932E+07 8.55653E-08 3.89235E-07
 -1       536-6.56798E+05-4.50072E+04-2.71303E+04-4.79050E+04-1.58389E-09 3.96230E-08
 -1       537-1.03019E+05 4.40944E+04 8.00452E+04 1.10787E+05-9.27710E-08 6.84126E-08
 -1       538-3.92282E+05 1.97683E+03 6.46489E+03-6.55556E+04 2.57620E-08 8.64861E-08
 -1       539-2.86652E+05 3.13177E+03 2.29168E+04 1.25230E+05 1.45498E-07 1.17961E-07
 -1       540-4.77703E+05-2.86995E+02-1.68688E+04-6.27581E+04-2.03759E-08 9.15392E-08
 -1       541 6.32993E+04 1.43070E+04 8.99441E+04 8.67629E+04-1.46947E-08 9.28826E-08
 -1       542-7.32820E+05-1.70327E+04-7.08092E+04-2.64200E+04 6.65177E-08 4.92630E-08
 -1       543 2.81179E+05 2.30669E+04 1.33009E+05-1.22280E+04 1.42713E-08-9.78343E-09
 -1       544-6.89754E+05-1.38643E+04-6.29141E+04 3.57168E+04-8.19819E-09-4.75495E-08
 -1       545-3.73017E+04 7.73443E+03 6.65727E+04-1.01705E+05-3.55712E-08-5.77811E-08
 -1       546-4.22866E+05 5.35068E+03-1.04719E+04 6.27959E+04 1.77874E-09-8.61351E-08
 -1       547-3.02640E+05-4.68120E+03 7.62752E+03-1.27930E+05-1.21048E-07-1.18216E-07
 -1       548-4.31521E+05 4.47228E+03-2.18618E+04 6.24716E+04-9.68776E-08-8.56030E-08
 -1       549-1.95503E+04 1.01718E+04 4.64885E+04-9.92713E+04-6.10326E-08-4.08854E-08
 -1       550-6.98370E+05-1.58207E+04-1.15410E+05 3.35847E+04-7.88077E-10-1.76369E-08
 -1       551 3.71522E+04-7.67955E+05-4.99564E+03-1.20537E+06-9.39326E-08 3.37604E-09
 -1       552 8.39099E+04-8.06072E+05 1.60713E+04-1.71894E+06-6.49161E-08 4.19313E-08
 -1       553 6.38181E+04-8.04560E+05 3.61225E+04-1.19931E+06-1.10151E-07 3.29310E-08
 -1       554 1.20186E+05-8.18063E+05 8.57933E+04-1.72089E+06-6.76664E-08 1.62399E-08
 -1       555 9.33913E+04-8.27169E+05 1.55172E+05-1.19937E+06-1.12035E-07-1.39262E-08
 -1       556 2.01644E+05-3.50179E+05 4.01498E+04-3.83331E+05-2.10421E-08-9.02219E-09
 -1       557 3.24757E+05-4.48500E+05 2.31781E+04-4.93561E+05-3.14321E-09-6.51016E-09
 -1       558 1.87027E+05-3.47042E+05 6.03250E+03-3.84616E+05-2.04600E-08-1.65601E-08
 -1       559 3.01542E+05-4.51107E+05 4.06665E+03-5.11124E+05 1.98052E-08 8.97489E-09
 -1       560 1.74128E+05-3.38924E+05-3.08395E+02-3.93820E+05 1.28639E-08 1.20053E-09
 -1       561 2.85132E+05-4.44681E+05 5.76491E+02-5.22219E+05 1.21654E-08-3.04972E-08
 -1       562 1.63933E+05-3.32559E+05-8.62119E+02-4.01184E+05 7.88714E-09 8.94943E-09
 -1       563 2.73042E+05-4.39410E+05 9.14197E+01-5.30092E+05 9.31323E-10-2.32958E-08
 -1       564 1.56723E+05-3.28057E+05-4.19139E+02-4.06288E+05 1.64000E-08 1.14042E-08
 -1       565 2.65141E+05-4.35970E+05 5.82284E+01-5.35134E+05 2.99369E-08 1.18357E-08
 -1       566 1.52605E+05-3.25448E+05-1.87676E+02-4.09169E+05-1.45519E-09 2.52840E-09
 -1       567 2.61459E+05-4.34367E+05-2.99610E+02-5.37352E+05 1.76860E-08 1.30021E-08
 -1       568 1.51659E+05-3.24874E+05-9.64028E+02-4.09927E+05 5.40695E-10 1.29839E-08
 -1       569 2.60708E+05-4.34327E+05-2.43633E+03-5.35805E+05-6.53927E-09 1.58252E-08
 -1       570 1.54900E+05-3.27881E+05-5.35773E+03-4.09016E+05 5.29690E-09 3.66526E-09
 -1       571 2.76472E+05 1.00158E+04 1.43968E+04-8.72579E+04-1.99761E-08 6.87669E-09
 -1       572 2.78570E+05 3.71827E+03 7.05518E+03-9.57288E+04-3.76708E-08-9.16225E-09
 -1       573 2.77307E+05 1.11798E+03 3.13476E+03-8.70908E+04-2.54058E-08 1.23837E-08
 -1       574 2.77522E+05 6.10900E+02 1.57181E+03-9.59372E+04-1.50621E-08 1.82163E-08
 -1       575 2.77398E+05 3.51160E+02 7.41745E+02-8.70681E+04-1.00380E-08 1.64882E-08
 -1       576 2.77390E+05 3.54530E+02 3.79519E+02-9.59649E+04-9.72796E-09-3.69164E-09
 -1       577 2.77432E+05 2.97886E+02 1.89320E+02-8.70650E+04-8.53379E-09 2.71666E-09
 -1       578 2.77412E+05 3.22221E+02 1.08878E+02-9.59688E+04-1.05247E-08 2.00907E-09
 -1       579 2.77492E+05 2.68497E+02 7.44969E+01-8.70647E+04 1.75714E-09-6.66478E-09
 -1       580 2.77495E+05 2.80769E+02 8.54330E+01-9.59642E+04-1.00772E-08-1.21727E-08
 -1       581 2.77586E+05 2.21149E+02 1.29051E+02-8.70701E+04 5.66797E-09-3.76531E-10
 -1       582 2.77643E+05 2.54573E+02 2.61191E+02-9.59078E+04 4.39377E-09 3.59069E-09
 -1       583 2.77701E+05 2.70422E+02 5.02435E+02-8.71216E+04 2.05546E-10-1.48971E-08
 -1       584 2.77974E+05 6.78236E+02 1.13554E+03-9.54736E+04 2.72485E-09-7.44717E-09
 -1       585 2.77707E+05 1.64310E+03 2.30118E+03-8.75038E+04-1.16779E-09 2.28501E-08
 -1       586-3.28034E+03 1.07468E+05-3.03913E+03-2.40219E+05-4.35193E-09-4.39286E-09
 -1       587-1.17495E+03 1.07180E+05 5.85360E+02-2.64385E+05-4.61660E-09-2.68976E-08
 -1       588 4.99762E+02 1.07040E+05 4.42451E+03-2.40090E+05-3.18141E-09-1.15233E-09
 -1       589 4.94264E+03 1.09353E+05 1.16074E+04-2.64150E+05-3.03044E-09-2.81298E-08
 -1       590 1.57988E+04 1.05780E+05 2.44006E+04-2.40503E+05-4.25916E-09-1.50612E-09
 -1       591-6.86495E+04-1.50884E+04-2.10631E+04-2.98100E+04 1.48498E-09-3.88627E-09
 -1       592-7.23165E+04-1.85705E+04-1.14094E+04-3.33771E+04 9.23143E-09-1.82898E-08
 -1       593-7.07573E+04-1.35587E+04-4.74922E+03-3.13533E+04 3.37469E-09 1.85446E-09
 -1       594-6.94062E+04-1.54821E+04-2.36857E+03-3.34900E+04-2.88514E-09 3.57437E-09
 -1       595-7.09181E+04-1.35535E+04-1.08751E+03-3.14234E+04 3.90279E-09 8.99561E-09
 -1       596-6.92071E+04-1.53408E+04-5.52814E+02-3.34666E+04 3.69045E-09 6.71054E-09
 -1       597-7.09382E+04-1.35679E+04-3.00964E+02-3.14261E+04 2.61826E-09 5.83941E-09
 -1       598-6.91875E+04-1.53353E+04-2.41833E+02-3.34600E+04-5.45401E-09 4.12689E-09
 -1       599-7.09370E+04-1.35683E+04-3.08778E+02-3.14257E+04 7.61088E-09 3.81203E-09
 -1       600-6.92072E+04-1.53415E+04-5.73502E+02-3.34647E+04 1.68473E-08-7.23071E-09
 -1       601-7.09137E+04-1.35547E+04-1.13134E+03-3.14223E+04 6.77983E-09 1.34412E-08
 -1       602-6.94143E+04-1.54875E+04-2.46560E+03-3.34855E+04-6.05178E-09-6.49379E-10
 -1       603-7.07438E+04-1.35628E+04-4.94453E+03-3.13500E+04-3.93561E-09-1.97124E-08
 -1       604-7.24607E+04-1.86846E+04-1.18778E+04-3.33446E+04 3.06329E-09-1.50544E-09
 -1       605-6.85305E+04-1.51720E+04-2.19281E+04-2.97615E+04 3.59421E-09 3.92447E-09
 -1       606 2.69224E+04-1.35647E+04-2.43270E+04 2.45811E+04 5.11227E-09-4.83874E-09
 -1       607 2.27647E+04-4.42483E+03-1.21146E+04 2.76172E+04 1.96451E-09-4.29827E-09
 -1       608 2.51325E+04-7.93226E+02-5.42356E+03 2.44029E+04-5.09135E-09-3.44949E-09
 -1       609 2.46764E+04-2.65267E+02-2.73975E+03 2.78358E+04 1.61890E-09-9.31971E-09
 -1       610 2.49278E+04-3.10170E+01-1.30738E+03 2.43820E+04 5.26597E-09 1.34364E-08
 -1       611 2.48543E+04-2.89705E+01-6.59164E+02 2.78595E+04 6.40057E-09-5.70026E-09
 -1       612 2.48811E+04-1.67329E+01-3.13583E+02 2.43799E+04 5.79348E-10 2.73008E-09
 -1       613 2.48631E+04-2.38900E+01-1.40691E+02 2.78623E+04-3.56522E-10 7.55404E-09
 -1       614 2.48584E+04-2.17502E+01-3.35165E+01 2.43792E+04-2.18097E-09 7.34190E-09
 -1       615 2.48564E+04-2.15388E+01 5.77853E+01 2.78627E+04-1.89175E-10-1.58225E-08
 -1       616 2.48408E+04-1.80171E+01 1.74351E+02 2.43794E+04 1.50158E-09-1.24414E-08
 -1       617 2.48761E+04 1.63871E+01 3.98260E+02 2.78622E+04 4.07454E-09-1.30985E-08
 -1       618 2.48052E+04 9.73859E+01 8.02901E+02 2.43797E+04 5.84350E-10 6.84213E-09
 -1       619 2.51588E+04 6.37675E+02 1.80309E+03 2.78615E+04-6.84054E-10 1.33473E-08
 -1       620 2.45381E+04 2.00171E+03 3.62418E+03 2.43806E+04-7.71934E-11 1.49630E-08
 -1       621 4.49003E+02 2.86042E+05 3.57273E+03 3.54095E+04 8.44011E-10-1.98033E-08
 -1       622 5.84644E+02 2.86880E+05 3.19682E+03 5.14260E+04 8.54470E-10-6.59156E-09
 -1       623 1.05072E+02 2.86228E+05 3.87765E+03 3.52480E+04 1.01659E-09-6.86123E-09
 -1       624 1.95243E+03 2.88051E+05 7.54557E+03 5.15859E+04 9.86233E-10 3.74826E-09
 -1       625 1.92128E+03 2.84735E+05 1.31997E+04 3.52450E+04 1.06320E-09 1.22914E-08
 -1       626 2.48530E+05 5.97488E+04 4.98427E+03 1.22297E+05-6.55382E-09-3.89628E-09
 -1       627 2.46197E+05 6.11852E+04 2.40187E+03 1.26541E+05-1.98343E-08 1.22709E-08
 -1       628 2.48659E+05 5.74618E+04 1.01564E+03 1.23136E+05-2.09538E-08-1.04335E-08
 -1       629 2.45569E+05 6.05317E+04 4.97132E+02 1.26782E+05-3.81442E-09 3.62262E-09
 -1       630 2.48672E+05 5.73518E+04 2.30509E+02 1.23170E+05 4.69663E-09 1.34989E-08
 -1       631 2.45502E+05 6.05078E+04 1.23937E+02 1.26784E+05 3.63434E-09-4.49529E-09
 -1       632 2.48668E+05 5.73564E+04 8.13739E+01 1.23165E+05 5.94719E-09-1.00071E-08
 -1       633 2.45492E+05 6.05102E+04 9.03552E+01 1.26779E+05-7.21684E-10-1.66517E-08
 -1       634 2.48662E+05 5.73543E+04 1.45759E+02 1.23164E+05-3.29180E-09 6.00721E-10
 -1       635 2.45505E+05 6.05091E+04 2.94791E+02 1.26784E+05-4.89216E-09-3.11320E-09
 -1       636 2.48653E+05 5.73493E+04 5.95251E+02 1.23163E+05 1.77943E-09 1.83227E-08
 -1       637 2.45633E+05 6.06019E+04 1.30867E+03 1.26782E+05-3.24610E-09-2.23818E-08
 -1       638 2.48606E+05 5.76386E+04 2.68887E+03 1.23032E+05 3.17505E-09-2.11221E-08
 -1       639 2.47045E+05 6.25662E+04 6.36182E+03 1.26366E+05 5.57793E-09 9.90440E-09
 -1       640 2.48412E+05 6.35030E+04 1.32019E+04 1.20558E+05 1.27161E-08 3.55790E-08
 -1       656 6.38001E+04-1.63072E+06-1.54010E+05-2.06085E+03 2.18279E-11-1.41833E-08
 -1       657-8.43915E+04-1.70030E+06-1.27566E+05 5.74621E+03 3.84716E-10-1.57628E-08
 -1       658 2.03275E+04-1.65049E+06-7.85362E+04-4.00983E+03 2.32376E-10-1.22024E-08
 -1       659-9.11793E+04-1.70353E+06-1.36485E+05 7.32260E+03-2.18188E-09-9.15977E-09
 -1       660 7.05727E+04-1.62751E+06-1.69345E+05-3.63722E+03-2.61207E-09-1.32709E-09
 -1       661 1.60669E+05 1.69279E+04 1.66912E+04 6.28127E+04-1.45019E-09 1.60908E-08
 -1       662 1.70004E+05 2.93882E+04 1.12484E+04 5.91838E+04-4.56851E-10-1.26029E-08
 -1       663 1.63947E+05 2.22830E+04 3.93413E+03 6.18618E+04-1.99691E-09-1.60187E-08
 -1       664 1.66205E+05 2.31251E+04 2.35322E+03 6.03449E+04-4.51450E-10-1.34612E-08
 -1       665 1.64444E+05 2.30151E+04 9.28332E+02 6.17175E+04-6.29655E-10 2.69893E-09
 -1       666 1.65618E+05 2.22875E+04 5.43105E+02 6.05328E+04 7.68215E-09 1.43170E-08
 -1       667 1.64531E+05 2.30988E+04 2.88335E+02 6.16818E+04-4.33630E-10 6.96132E-09
 -1       668 1.65522E+05 2.22266E+04 2.93468E+02 6.05848E+04-4.76865E-09 1.46133E-08
 -1       669 1.64538E+05 2.30742E+04 3.97050E+02 6.16659E+04-2.20021E-09-1.91918E-09
 -1       670 1.65619E+05 2.24418E+04 8.64334E+02 6.05875E+04-9.58964E-09-8.07830E-09
 -1       671 1.64434E+05 2.28881E+04 1.53461E+03 6.16771E+04 6.75925E-10 4.69191E-09
 -1       672 1.66513E+05 2.39348E+04 3.92619E+03 6.03709E+04 2.48315E-09 9.42578E-10
 -1       673 1.63648E+05 2.16189E+04 6.57964E+03 6.18680E+04 9.72932E-10 3.52975E-09
 -1       674 1.72776E+05 3.45052E+04 1.88164E+04 5.85307E+04-4.43049E-09-8.40373E-09
 -1       675 1.58211E+05 1.26136E+04 2.79300E+04 6.34062E+04-1.08230E-09-2.37742E-09
 -1       676 2.34066E+01-2.86726E+05-1.08362E+03-1.01527E+02 2.88821E-10 2.21810E-09
 -1       677-2.87131E+02-2.86988E+05-1.98319E+03 2.02899E+02 5.84967E-09-1.55812E-08
 -1       678 1.92194E+02-2.86539E+05-3.50579E+03-1.01305E+02 2.09411E-10-1.35572E-08
 -1       679-3.50630E+03-2.89104E+05-8.32827E+03 2.02050E+02 6.11908E-09 7.39051E-09
 -1       680 2.09310E+03-2.84611E+05-1.34223E+04-9.95534E+01 1.16779E-09 8.04704E-09
 -1       771-2.98339E+06-7.02308E+05-1.42626E+05-1.40889E+06-3.08064E-08-2.87546E-08
 -1       772-2.91373E+06-7.83803E+05-7.36908E+04-1.50290E+06-2.40107E-08 6.39557E-09
 -1       773-3.01053E+06-6.81054E+05-3.72155E+04-1.42071E+06-1.94123E-08 4.33647E-09
 -1       774-2.90455E+06-7.68176E+05-1.66763E+04-1.52479E+06 1.97324E-08-4.14730E-10
 -1       775-3.02433E+06-6.71337E+05-1.22388E+04-1.42629E+06-6.92671E-09 3.53612E-09
 -1       776-2.91438E+06-7.65899E+05-4.61455E+03-1.54109E+06-1.06666E-08-1.36788E-09
 -1       777-3.03619E+06-6.62741E+05-5.32235E+03-1.43120E+06-5.15138E-09-1.38243E-10
 -1       778-2.92468E+06-7.63816E+05-1.51717E+03-1.55506E+06-9.92441E-09 7.28687E-09
 -1       779-3.04635E+06-6.55266E+05-2.63278E+03-1.43540E+06-4.80213E-09-5.83168E-09
 -1       780-2.93374E+06-7.61826E+05-4.38320E+02-1.56642E+06 1.23182E-08-8.58199E-09
 -1       781-3.05439E+06-6.49260E+05-1.01357E+03-1.43869E+06-1.82772E-08-3.15049E-09
 -1       782-2.94071E+06-7.60126E+05 3.74185E+02-1.57481E+06-3.80387E-08-3.54930E-09
 -1       783-3.06004E+06-6.45101E+05 5.88131E+02-1.44100E+06-1.24273E-08-1.41076E-08
 -1       784-2.94454E+06-7.58357E+05 2.40546E+03-1.57998E+06-1.66110E-08 5.04906E-09
 -1       785-3.06337E+06-6.42625E+05 4.24888E+03-1.44247E+06-2.85763E-08 1.54796E-08
 -1       786 1.24817E+05-9.62807E+03 2.22751E+04-2.78320E+02 4.86057E-10 9.44965E-10
 -1       787 1.34477E+05 1.11469E+04 1.57588E+04-9.92821E+01 4.33457E-09 1.70216E-08
 -1       788 1.28541E+05-1.50888E+03 5.76322E+03-2.45298E+02 2.57921E-09 1.23339E-08
 -1       789 1.30138E+05 1.74623E+03 3.61820E+03-1.50408E+02 1.41979E-09-6.34287E-09
 -1       790 1.29157E+05-2.35083E+02 1.46552E+03-2.27208E+02-3.30715E-09 1.04646E-08
 -1       791 1.29419E+05 2.71865E+02 8.47576E+02-1.81473E+02-5.93500E-09 5.61545E-09
 -1       792 1.29261E+05-3.56219E+01 3.61414E+02-2.14235E+02-3.57146E-09-8.13107E-09
 -1       793 1.29295E+05 3.84769E+01 1.85101E+02-2.05909E+02-1.21812E-09-2.17063E-08
 -1       794 1.29280E+05-1.84243E+00 5.80063E+01-2.02773E+02 4.64871E-09-6.19209E-09
 -1       795 1.29262E+05-1.87401E+01-3.04144E+01-2.29850E+02-3.08409E-09-1.25412E-08
 -1       796 1.29293E+05 2.15636E+01-1.14703E+02-1.90293E+02 2.85175E-09 9.16815E-09
 -1       797 1.29191E+05-1.62522E+02-3.27627E+02-2.58512E+02 5.25483E-09 9.43908E-09
 -1       798 1.29352E+05 1.41831E+02-5.35594E+02-1.74110E+02 1.91286E-09 2.47218E-09
 -1       799 1.28784E+05-1.04583E+03-1.47656E+03-2.98374E+02 5.01589E-09 1.33597E-08
 -1       800 1.29701E+05 9.04149E+02-2.09050E+03-1.50432E+02 3.27187E-10 1.82295E-08
 -1       801-1.01133E+05-8.69045E+06-1.17379E+06 1.10608E+06 8.32079E-08-5.36129E-08
 -1       802 5.37352E+05 3.90900E+06 1.66873E+06-1.33262E+06 2.32452E-07-2.60452E-08
 -1       803-4.17860E+05-1.19433E+07-1.49406E+06 7.04388E+05 7.07296E-08 2.27701E-08
 -1       804 2.08735E+05 1.02809E+06 1.17627E+06 5.75039E+05-1.04716E-07-7.14708E-08
 -1       805 1.62476E+05-5.82472E+06-2.28756E+05-7.97056E+05-4.30155E-08-5.57757E-08
 -1       806-2.95859E+05-5.69882E+04-2.18055E+04-1.16953E+05-1.00777E-08-6.55564E-09
 -1       807-2.97617E+05-5.33869E+04-1.07128E+04-1.22194E+05 3.79828E-09 3.00449E-08
 -1       808-2.96454E+05-4.91336E+04-4.54474E+03-1.20673E+05-5.40513E-09 7.55585E-09
 -1       809-2.95366E+05-5.03752E+04-2.22227E+03-1.22455E+05-9.86256E-09 6.10271E-09
 -1       810-2.96544E+05-4.88601E+04-1.01857E+03-1.20838E+05 9.53742E-09 1.84205E-08
 -1       811-2.95192E+05-5.02539E+04-5.06533E+02-1.22422E+05 1.18098E-08 1.18500E-08
 -1       812-2.96558E+05-4.88834E+04-2.56168E+02-1.20837E+05-1.62527E-09-9.45511E-09
 -1       813-2.95169E+05-5.02559E+04-1.66514E+02-1.22404E+05-3.02043E-09-2.98280E-08
 -1       814-2.96552E+05-4.88924E+04-1.65004E+02-1.20834E+05-2.30102E-09-6.58565E-09
 -1       815-2.95173E+05-5.02579E+04-2.65954E+02-1.22398E+05 2.69392E-09 1.02864E-08
 -1       816-2.96533E+05-4.88911E+04-5.04029E+02-1.20830E+05 1.06829E-08 1.44082E-08
 -1       817-2.95259E+05-5.03058E+04-1.08188E+03-1.22387E+05 2.85172E-09 1.42563E-08
 -1       818-2.96468E+05-4.90433E+04-2.20658E+03-1.20759E+05 5.33873E-10-5.39558E-09
 -1       819-2.96467E+05-5.16393E+04-5.19218E+03-1.22103E+05 2.44654E-10-1.80210E-08
 -1       820-2.96054E+05-5.29637E+04-1.05678E+04-1.19082E+05 6.99401E-10-1.65596E-09
 -1       821-3.65560E+05 2.01427E+04-4.66835E+04 1.46610E+03 1.05021E-08 9.20409E-10
 -1       822-3.85385E+05-2.33230E+04-3.29645E+04-2.82456E+03 2.43459E-09-5.71526E-09
 -1       823-3.73149E+05 3.16414E+03-1.20778E+04 2.11679E+03-7.38223E-09 1.51590E-08
 -1       824-3.76391E+05-3.65539E+03-7.58418E+03-3.12381E+03 3.18359E-10 1.97699E-08
 -1       825-3.74552E+05 4.91862E+02-3.14486E+03 1.76539E+03 1.21268E-08 9.81640E-09
 -1       826-3.74549E+05-5.67847E+02-1.80216E+03-1.61081E+03 1.49203E-08-1.07090E-08
 -1       827-3.74981E+05 7.14461E+01-1.04339E+03 6.03734E+02 8.22439E-09-2.19504E-08
 -1       828-3.74204E+05-1.60681E+02-7.54939E+02 9.01138E+02-1.90264E-09-1.55617E-08
 -1       829-3.74893E+05 8.21266E+01-1.04756E+03-7.46588E+02 1.08244E-09 1.31517E-08
 -1       830-3.74748E+05-6.05025E+02-1.90635E+03 3.06401E+03-8.22808E-10 7.01468E-09
 -1       831-3.74446E+05 5.22477E+02-3.24044E+03-1.55916E+03-3.26030E-09 2.13802E-08
 -1       832-3.76478E+05-3.80624E+03-7.87992E+03 3.71492E+03-2.32393E-09-5.53075E-09
 -1       833-3.73169E+05 3.28485E+03-1.25565E+04-1.39751E+03-1.33928E-09 5.46515E-09
 -1       834-3.85606E+05-2.42170E+04-3.41936E+04 2.48203E+03-2.90929E-09 6.40102E-09
 -1       835-3.65314E+05 2.09113E+04-4.84991E+04-3.26245E+02 5.55066E-09-5.52245E-09
 -1       836-1.33121E+03 3.51967E+05 2.17118E+04-1.62325E+04-5.52791E-09-2.18233E-09
 -1       837 4.64614E+03 3.58759E+05 1.84071E+04-3.30344E+04-5.81736E-09 8.20569E-09
 -1       838-5.23096E+02 3.53867E+05 1.88035E+04-1.61624E+04-4.62751E-09 1.96412E-08
 -1       839 1.18707E+04 3.64141E+05 3.56186E+04-3.30840E+04-4.86398E-09 7.85525E-09
 -1       840-3.65776E+03 3.46530E+05 5.68195E+04-1.61870E+04-4.67844E-09 1.13607E-08
 -1       856-5.72362E+04 7.94037E+03-2.09247E+04-3.99015E+02 3.43880E-09-5.04588E-09
 -1       857-6.58610E+04-9.32640E+03-1.44047E+04 5.45963E+03 3.43974E-09 1.39153E-08
 -1       858-6.06503E+04 1.11337E+03-5.42962E+03-4.22794E+02 3.57340E-09 1.26136E-08
 -1       859-6.19426E+04-1.30675E+03-3.27691E+03 5.49546E+03-1.84075E-09 1.06974E-09
 -1       860-6.11604E+04 1.55724E+02-1.37397E+03-4.34651E+02 1.22083E-09-5.22988E-09
 -1       861-6.13557E+04-1.83024E+02-7.57160E+02 5.51164E+03-1.20508E-10-5.16606E-09
 -1       862-6.12401E+04 2.09823E+01-3.17365E+02-4.38966E+02 9.01544E-10-2.24026E-09
 -1       863-6.12584E+04-1.93273E+01-1.21564E+02 5.51407E+03-2.64478E-09-1.86450E-08
 -1       864-6.12581E+04-4.26829E+00 3.32980E+01-4.37074E+02 9.46869E-11 5.41101E-09
 -1       865-6.12070E+04 5.53000E+01 2.22721E+02 5.50351E+03-8.90395E-10 7.18260E-09
 -1       866-6.12895E+04-5.37344E+01 4.55727E+02-4.28407E+02-2.19927E-10-1.85204E-08
 -1       867-6.09908E+04 4.44518E+02 1.12617E+03 5.47993E+03-1.62800E-10-2.72042E-08
 -1       868-6.14697E+04-3.86667E+02 1.87240E+03-4.13502E+02-7.13953E-11-8.47149E-09
 -1       869-5.96167E+04 3.21803E+03 4.98725E+03 5.44091E+03 1.00385E-09-4.16867E-09
 -1       870-6.26562E+04-2.75222E+03 7.23735E+03-3.89307E+02-2.57046E-09 7.74753E-09
 -1       871-5.33263E+03-1.91102E+04-1.85473E+04 1.23947E+05-3.89991E-09 1.02591E-08
 -1       872-1.99103E+03-2.33962E+04-7.74001E+03 1.60712E+05-7.79983E-09-1.16597E-08
 -1       873 3.07158E+02-2.13359E+04 6.27279E+02 1.23675E+05-3.85990E-09-1.05460E-08
 -1       874 3.07978E+03-1.89844E+04 9.46065E+03 1.60744E+05-8.25730E-09 3.14685E-08
 -1       875 6.52357E+03-2.35892E+04 2.12913E+04 1.23902E+05-4.34193E-09 1.07748E-08
 -1       876 2.82393E+05 4.77340E+04 1.45746E+04 1.13490E+05 5.52359E-09-2.26555E-09
 -1       877 2.83342E+05 5.08180E+04 7.78338E+03 1.17684E+05 8.38986E-09 5.69912E-09
 -1       878 2.83756E+05 4.61199E+04 3.26086E+03 1.14685E+05-4.21414E-09-1.47927E-08
 -1       879 2.81361E+05 4.88411E+04 1.62473E+03 1.17784E+05 7.20456E-09-1.13794E-08
 -1       880 2.83854E+05 4.61031E+04 7.56745E+02 1.14734E+05 2.76282E-09 4.44015E-09
 -1       881 2.81229E+05 4.87567E+04 4.04029E+02 1.17761E+05-3.39196E-09 2.59186E-09
 -1       882 2.83862E+05 4.61158E+04 2.58334E+02 1.14735E+05-3.61752E-09 3.37626E-09
 -1       883 2.81220E+05 4.87523E+04 2.77490E+02 1.17754E+05-8.28317E-09 2.26714E-09
 -1       884 2.83856E+05 4.61130E+04 4.41214E+02 1.14735E+05-1.84366E-09 4.78667E-09
 -1       885 2.81255E+05 4.87584E+04 8.86955E+02 1.17765E+05-1.56675E-08-1.66206E-08
 -1       886 2.83822E+05 4.60871E+04 1.78756E+03 1.14732E+05-5.10249E-09 2.81182E-08
 -1       887 2.81569E+05 4.89644E+04 3.90466E+03 1.17810E+05 8.38327E-09 1.62345E-08
 -1       888 2.83575E+05 4.61306E+04 7.86800E+03 1.14607E+05 1.30797E-10-3.87399E-09
 -1       889 2.86254E+05 5.38352E+04 1.87953E+04 1.17666E+05 5.99435E-10 1.12050E-09
 -1       890 2.80365E+05 4.99439E+04 3.52030E+04 1.11611E+05-7.20775E-10-6.29188E-09
 -1       891-1.00512E+02-1.56946E+05-1.91759E+03 2.66384E+04-2.04773E-09 1.46601E-08
 -1       892-1.90906E+02-1.57445E+05-2.06192E+03 4.04250E+04 1.44746E-09-6.98492E-10
 -1       893 2.72127E+01-1.57008E+05-2.92191E+03 2.66453E+04-1.80580E-09-2.02795E-08
 -1       894-1.47638E+03-1.58550E+05-6.04907E+03 4.02763E+04 2.84217E-10 4.83669E-09
 -1       895-1.16948E+03-1.55747E+05-1.06531E+04 2.67880E+04-7.71365E-10-3.68891E-09
 -1       956-3.61751E+05-5.19470E+03-1.28747E+04 2.86927E+04 2.88856E-09-8.24252E-09
 -1       957-3.64280E+05-1.81609E+03-6.60855E+03 3.44955E+04-5.34192E-09-1.93254E-08
 -1       958-3.62905E+05-2.11145E+02-2.97790E+03 2.85336E+04-1.66801E-09-7.65226E-09
 -1       959-3.63097E+05-1.07952E+02-1.52067E+03 3.46788E+04 3.48518E-09-1.65414E-09
 -1       960-3.63016E+05-2.47353E+01-7.41527E+02 2.85174E+04 7.37691E-09 4.26098E-09
 -1       961-3.63018E+05-3.90779E+01-3.93247E+02 3.46978E+04 5.66979E-09-1.22645E-08
 -1       962-3.63042E+05-2.66238E+01-2.25216E+02 2.85147E+04 5.93354E-09-3.05818E-10
 -1       963-3.63017E+05-3.55054E+01-1.80944E+02 3.47012E+04 1.46292E-08-4.89308E-09
 -1       964-3.63047E+05-2.35426E+01-2.20159E+02 2.85140E+04 8.96105E-09-2.73030E-09
 -1       965-3.63029E+05-3.25095E+01-3.80881E+02 3.47006E+04-2.15960E-09 1.33318E-08
 -1       966-3.63032E+05-1.55768E+01-7.15633E+02 2.85153E+04 2.06433E-09-2.31219E-08
 -1       967-3.63117E+05-9.27022E+01-1.46780E+03 3.46874E+04-3.62252E-09-1.75214E-08
 -1       968-3.62934E+05-1.89581E+02-2.87329E+03 2.85271E+04 5.46606E-10 1.61253E-09
 -1       969-3.64271E+05-1.73624E+03-6.37881E+03 3.45505E+04 6.39375E-10 1.57641E-08
 -1       970-3.61827E+05-4.99619E+03-1.24260E+04 2.86461E+04-1.02727E-09-1.32331E-09
 -1       971-3.32633E+05-1.67422E+03-9.07173E+03 1.49631E+04 5.97447E-09 7.48402E-09
 -1       972-3.34820E+05-1.22689E+03-4.94037E+03 2.07331E+04 3.81260E-09-1.99552E-08
 -1       973-3.33643E+05-5.15849E+01-2.21276E+03 1.48438E+04 2.31012E-09-1.10497E-08
 -1       974-3.33779E+05-6.67348E+01-1.14691E+03 2.08669E+04-3.83352E-09 1.52786E-08
 -1       975-3.33723E+05-8.00916E+00-5.73498E+02 1.48319E+04-2.82216E-09 7.36759E-09
 -1       976-3.33719E+05-1.82878E+01-3.31222E+02 2.08821E+04 1.42973E-09-5.53359E-09
 -1       977-3.33739E+05-7.40132E+00-2.41034E+02 1.48287E+04-3.62411E-09 6.93808E-09
 -1       978-3.33724E+05-1.23159E+01-2.82929E+02 2.08867E+04-8.77799E-09 2.53294E-10
 -1       979-3.33739E+05 7.18649E-01-4.55326E+02 1.48273E+04-2.60133E-09 9.46716E-09
 -1       980-3.33758E+05-9.37916E+00-8.79645E+02 2.08876E+04-4.66373E-09 5.65160E-09
 -1       981-3.33711E+05 2.26952E+01-1.70391E+03 1.48278E+04-5.60613E-09 1.76203E-09
 -1       982-3.33992E+05-1.35266E+02-3.52209E+03 2.08811E+04 2.64072E-09-3.32947E-09
 -1       983-3.33496E+05-8.63921E+01-6.84351E+03 1.48337E+04-6.75482E-09 2.67846E-10
 -1       984-3.37283E+05-3.70939E+03-1.53257E+04 2.07975E+04-3.17550E-09 1.87592E-08
 -1       985-3.30398E+05-5.09405E+03-2.81428E+04 1.49061E+04-3.56113E-09 1.67220E-08
 -3
    1PSTEP                        31          16           1          
  100CL  116 6.47278E-01         409                     0   16           1
 -4  DISP        4    1
 -5  D1          1    2    1    0
 -5  D2          1    2    2    0
 -5  D3          1    2    3    0
 -5  ALL         1    2    0    0    1ALL
 -1         1 2.19493E-03 0.00000E+00 0.00000E+00
 -1         2 1.84188E-03-4.94483E-27-2.64698E-23
 -1         3 3.16646E-04-8.86010E-28-1.32349E-23
 -1         5 1.68720E-04 2.02650E-26 1.83531E-24
 -1         8 2.17845E-03-5.00827E-07 0.00000E+00
 -1         9 2.13608E-03-1.44103E-05 0.00000E+00
 -1        10 2.88837E-04-3.51646E-06 0.00000E+00
 -1        12 1.70244E-04 7.78321E-07-5.88074E-25
 -1        15 2.15848E-03-5.47466E-07 0.00000E+00
 -1        16 2.16934E-03-1.56553E-05 0.00000E+00
 -1        17 1.98473E-04-8.04833E-06 0.00000E+00
 -1        18 1.73277E-04 2.99344E-05 0.00000E+00
 -1        19 1.74817E-04 1.55110E-06 0.00000E+00
 -1        20 1.74960E-04-6.32122E-06 0.00000E+00
 -1        21 1.74113E-04-1.78432E-05 0.00000E+00
 -1        24 2.97452E-05-1.19788E-05 0.00000E+00
 -1        25 1.82441E-04 3.01480E-05 0.00000E+00
 -1        26 1.83136E-04 2.14876E-06 0.00000E+00
 -1        27 1.81019E-04-9.76002E-06 0.00000E+00
 -1        28 1.80683E-04-1.84488E-05 0.00000E+00
 -1        32 0.00000E+00 0.00000E+00 0.00000E+00
 -1        33 1.90429E-04 2.87563E-06 0.00000E+00
 -1        34 1.88380E-04-9.81043E-06 0.00000E+00
 -1        35 1.86505E-04-1.87804E-05 0.00000E+00
 -1        51 2.19387E-03-9.62984E-08-6.61744E-24
 -1        52 2.19190E-03-1.77191E-07 0.00000E+00
 -1        53 2.18919E-03-2.55864E-07 0.00000E+00
 -1        54 2.18593E-03-3.34493E-07 0.00000E+00
 -1        55 2.18229E-03-4.14676E-07-1.65436E-24
 -1        56 2.19077E-03 8.73403E-07 5.29396E-23
 -1        57 2.18493E-03 5.78661E-06 0.00000E+00
 -1        58 2.17785E-03 1.39466E-05-1.05879E-22
 -1        59 2.16993E-03 2.42339E-05 0.00000E+00
 -1        60 2.16174E-03 3.52076E-05-1.05879E-22
 -1        61 2.15386E-03 4.53623E-05 0.00000E+00
 -1        62 2.14683E-03 5.33264E-05-1.05879E-22
 -1        63 2.14110E-03 5.79012E-05 0.00000E+00
 -1        64 2.13690E-03 5.84362E-05-1.05879E-22
 -1        65 2.13433E-03 5.46060E-05 0.00000E+00
 -1        66 2.13324E-03 4.67949E-05 0.00000E+00
 -1        67 2.13335E-03 3.57120E-05 0.00000E+00
 -1        68 2.13420E-03 2.26004E-05 0.00000E+00
 -1        69 2.13529E-03 8.87760E-06 5.29396E-23
 -1        70 2.13605E-03-3.95286E-06-5.29396E-23
 -1        86 1.85948E-03-1.20180E-06-2.64698E-23
 -1        87 1.91152E-03-3.55766E-06 0.00000E+00
 -1        88 1.98213E-03-6.95068E-06 2.64698E-23
 -1        89 2.05467E-03-1.04766E-05 0.00000E+00
 -1        90 2.11162E-03-1.30801E-05-2.64698E-23
 -1       121 3.15864E-04-5.72452E-07 1.32349E-23
 -1       122 3.13524E-04-1.14726E-06 0.00000E+00
 -1       123 3.09633E-04-1.72673E-06 0.00000E+00
 -1       124 3.04207E-04-2.31324E-06 6.61744E-24
 -1       125 2.97265E-04-2.90869E-06 0.00000E+00
 -1       191 1.68762E-04 1.29765E-07 6.59160E-25
 -1       192 1.68889E-04 2.59522E-07-7.81944E-25
 -1       193 1.69101E-04 3.89265E-07 1.21169E-25
 -1       194 1.69397E-04 5.18986E-07-9.27751E-25
 -1       195 1.69778E-04 6.48674E-07-2.84990E-24
 -1       251 2.17766E-03 1.95323E-05 0.00000E+00
 -1       252 2.17571E-03 7.25006E-05 0.00000E+00
 -1       253 2.17235E-03 1.48829E-04 0.00000E+00
 -1       254 2.16793E-03 2.38401E-04 6.61744E-24
 -1       255 2.16355E-03 3.27455E-04-1.32349E-23
 -1       256 2.16029E-03 4.02239E-04 6.61744E-24
 -1       257 2.15845E-03 4.52927E-04-1.32349E-23
 -1       258 2.15770E-03 4.70248E-04 0.00000E+00
 -1       259 2.15695E-03 4.53596E-04 0.00000E+00
 -1       260 2.15512E-03 4.03218E-04 0.00000E+00
 -1       261 2.15185E-03 3.28101E-04 0.00000E+00
 -1       262 2.14735E-03 2.37807E-04 0.00000E+00
 -1       263 2.14274E-03 1.46065E-04 0.00000E+00
 -1       264 2.13914E-03 6.66333E-05-6.61744E-24
 -1       265 2.13699E-03 9.86063E-06 2.64698E-23
 -1       266 2.17512E-03-5.15958E-07 3.30872E-24
 -1       267 2.17179E-03-5.22835E-07 0.00000E+00
 -1       268 2.16847E-03-5.30234E-07 8.27181E-25
 -1       269 2.16514E-03-5.36084E-07 0.00000E+00
 -1       270 2.16181E-03-5.41898E-07 0.00000E+00
 -1       271 2.17638E-03 2.64365E-06-1.32349E-23
 -1       272 2.17425E-03 5.87570E-06 0.00000E+00
 -1       273 2.17213E-03 9.05483E-06 0.00000E+00
 -1       274 2.17009E-03 1.20291E-05 1.32349E-23
 -1       275 2.16819E-03 1.46518E-05 0.00000E+00
 -1       276 2.16647E-03 1.67784E-05-1.32349E-23
 -1       277 2.16499E-03 1.82698E-05-2.64698E-23
 -1       278 2.16379E-03 1.89932E-05-1.32349E-23
 -1       279 2.16294E-03 1.88237E-05-2.64698E-23
 -1       280 2.16246E-03 1.76453E-05 0.00000E+00
 -1       281 2.16240E-03 1.53529E-05 0.00000E+00
 -1       282 2.16278E-03 1.18521E-05 0.00000E+00
 -1       283 2.16365E-03 7.06156E-06-2.64698E-23
 -1       284 2.16502E-03 9.13512E-07-1.32349E-23
 -1       285 2.16691E-03-6.64732E-06 0.00000E+00
 -1       301 2.14216E-03-1.46427E-05 6.61744E-24
 -1       302 2.14703E-03-1.48408E-05-3.30872E-24
 -1       303 2.15145E-03-1.50342E-05 0.00000E+00
 -1       304 2.15615E-03-1.52277E-05-1.32349E-23
 -1       305 2.16187E-03-1.54281E-05 0.00000E+00
 -1       306 2.17016E-03-1.48486E-04 0.00000E+00
 -1       307 2.23477E-03-5.18835E-04 0.00000E+00
 -1       308 2.29124E-03-1.06660E-03-1.05879E-22
 -1       309 2.33044E-03-1.70809E-03 0.00000E+00
 -1       310 2.37328E-03-2.33099E-03 0.00000E+00
 -1       311 2.43559E-03-2.82467E-03 5.29396E-23
 -1       312 2.49527E-03-3.11504E-03-1.05879E-22
 -1       313 2.50415E-03-3.16081E-03-5.29396E-23
 -1       314 2.40209E-03-2.96802E-03 1.05879E-22
 -1       315 2.15189E-03-2.58574E-03 0.00000E+00
 -1       316 1.76599E-03-2.08171E-03-1.05879E-22
 -1       317 1.29627E-03-1.52158E-03-5.29396E-23
 -1       318 8.37707E-04-9.68651E-04-1.05879E-22
 -1       319 4.81985E-04-4.88040E-04 0.00000E+00
 -1       320 2.69209E-04-1.46288E-04 0.00000E+00
 -1       336 2.78635E-04-4.21105E-06-1.32349E-23
 -1       337 2.66391E-04-4.92884E-06 6.61744E-24
 -1       338 2.52168E-04-5.67129E-06 1.32349E-23
 -1       339 2.36046E-04-6.43908E-06-6.61744E-24
 -1       340 2.18115E-04-7.23665E-06 1.32349E-23
 -1       406 1.70795E-04 9.07911E-07 1.84823E-24
 -1       407 1.71430E-04 1.03741E-06 7.80329E-25
 -1       408 1.72150E-04 1.16678E-06-2.06795E-24
 -1       409 1.72955E-04 1.29584E-06 7.23783E-25
 -1       410 1.73844E-04 1.42435E-06-1.65436E-24
 -1       521 2.20422E-03-1.58491E-04 0.00000E+00
 -1       522 2.26793E-03-5.47869E-04 0.00000E+00
 -1       523 2.31969E-03-1.12200E-03 0.00000E+00
 -1       524 2.35159E-03-1.79114E-03 0.00000E+00
 -1       525 2.38793E-03-2.44004E-03 0.00000E+00
 -1       526 2.44725E-03-2.95538E-03 0.00000E+00
 -1       527 2.50668E-03-3.25723E-03 2.11758E-22
 -1       528 2.51420E-03-3.30316E-03 0.00000E+00
 -1       529 2.40324E-03-3.09867E-03-1.05879E-22
 -1       530 2.13412E-03-2.69907E-03 0.00000E+00
 -1       531 1.71946E-03-2.17544E-03 0.00000E+00
 -1       532 1.21623E-03-1.59655E-03 5.29396E-23
 -1       533 7.24264E-04-1.02441E-03-1.05879E-22
 -1       534 3.40059E-04-5.22976E-04 0.00000E+00
 -1       535 1.08888E-04-1.62653E-04 0.00000E+00
 -1       536 1.97800E-04 2.44210E-05 6.61744E-24
 -1       537 1.96115E-04 8.07740E-05 0.00000E+00
 -1       538 1.93517E-04 1.52333E-04-3.30872E-24
 -1       539 1.90456E-04 2.30340E-04 0.00000E+00
 -1       540 1.87699E-04 3.04059E-04 3.30872E-24
 -1       541 1.85900E-04 3.62776E-04 0.00000E+00
 -1       542 1.85062E-04 4.00138E-04 0.00000E+00
 -1       543 1.84850E-04 4.09928E-04 1.65436E-24
 -1       544 1.84549E-04 3.92890E-04 0.00000E+00
 -1       545 1.83500E-04 3.49967E-04-1.65436E-24
 -1       546 1.81565E-04 2.88803E-04 3.30872E-24
 -1       547 1.78959E-04 2.17153E-04-1.65436E-24
 -1       548 1.76380E-04 1.45908E-04 0.00000E+00
 -1       549 1.74516E-04 8.59597E-05-1.65436E-24
 -1       550 1.73542E-04 4.48327E-05-1.65436E-24
 -1       551 1.75013E-04-8.58510E-06 0.00000E+00
 -1       552 1.48454E-04-9.19241E-06 0.00000E+00
 -1       553 1.19712E-04-9.85469E-06 1.32349E-23
 -1       554 8.97244E-05-1.05529E-05-6.61744E-24
 -1       555 5.94253E-05-1.12622E-05-2.64698E-23
 -1       556 1.91409E-04 1.00411E-05-5.29396E-23
 -1       557 1.85716E-04 2.46760E-05 0.00000E+00
 -1       558 1.81266E-04 3.61281E-05 0.00000E+00
 -1       559 1.77934E-04 4.46906E-05 0.00000E+00
 -1       560 1.75599E-04 5.06571E-05 0.00000E+00
 -1       561 1.74140E-04 5.43236E-05 0.00000E+00
 -1       562 1.73440E-04 5.59871E-05 0.00000E+00
 -1       563 1.73382E-04 5.59455E-05 0.00000E+00
 -1       564 1.73851E-04 5.44974E-05 0.00000E+00
 -1       565 1.74735E-04 5.19419E-05 0.00000E+00
 -1       566 1.75919E-04 4.85788E-05 0.00000E+00
 -1       567 1.77291E-04 4.47082E-05-1.65436E-24
 -1       568 1.78741E-04 4.06301E-05 8.27181E-25
 -1       569 1.80157E-04 3.66447E-05 0.00000E+00
 -1       570 1.81427E-04 3.30521E-05 0.00000E+00
 -1       571 1.73371E-04 2.80947E-05-8.27181E-25
 -1       572 1.73466E-04 2.61926E-05-8.27181E-25
 -1       573 1.73562E-04 2.42428E-05 1.65436E-24
 -1       574 1.73658E-04 2.22605E-05 8.27181E-25
 -1       575 1.73754E-04 2.02612E-05 0.00000E+00
 -1       576 1.73850E-04 1.82601E-05 0.00000E+00
 -1       577 1.73947E-04 1.62728E-05-3.30872E-24
 -1       578 1.74043E-04 1.43148E-05-3.30872E-24
 -1       579 1.74139E-04 1.24014E-05 0.00000E+00
 -1       580 1.74236E-04 1.05481E-05-6.61744E-24
 -1       581 1.74333E-04 8.77034E-06 6.61744E-24
 -1       582 1.74429E-04 7.08357E-06 0.00000E+00
 -1       583 1.74526E-04 5.50319E-06-6.61744E-24
 -1       584 1.74623E-04 4.04446E-06 0.00000E+00
 -1       585 1.74720E-04 2.72248E-06 0.00000E+00
 -1       586 1.74761E-04 2.99720E-05 0.00000E+00
 -1       587 1.76207E-04 3.00091E-05 0.00000E+00
 -1       588 1.77656E-04 3.00459E-05-8.27181E-25
 -1       589 1.79150E-04 3.00819E-05 0.00000E+00
 -1       590 1.80731E-04 3.01168E-05 0.00000E+00
 -1       591 1.73904E-04 2.81810E-05-2.06795E-25
 -1       592 1.74534E-04 2.64065E-05 2.06795E-25
 -1       593 1.75170E-04 2.46166E-05 0.00000E+00
 -1       594 1.75809E-04 2.28163E-05 4.13590E-25
 -1       595 1.76451E-04 2.10103E-05-8.27181E-25
 -1       596 1.77092E-04 1.92035E-05 0.00000E+00
 -1       597 1.77732E-04 1.74008E-05 0.00000E+00
 -1       598 1.78369E-04 1.56068E-05 4.13590E-25
 -1       599 1.79000E-04 1.38264E-05 0.00000E+00
 -1       600 1.79625E-04 1.20644E-05-4.13590E-25
 -1       601 1.80241E-04 1.03256E-05 8.27181E-25
 -1       602 1.80847E-04 8.61476E-06 0.00000E+00
 -1       603 1.81440E-04 6.93672E-06 4.13590E-25
 -1       604 1.82021E-04 5.29637E-06-1.55096E-25
 -1       605 1.82585E-04 3.69841E-06 0.00000E+00
 -1       606 1.74831E-04 6.03009E-07 0.00000E+00
 -1       607 1.74841E-04-2.57449E-07 0.00000E+00
 -1       608 1.74850E-04-1.03541E-06 0.00000E+00
 -1       609 1.74858E-04-1.73669E-06 0.00000E+00
 -1       610 1.74867E-04-2.36712E-06 0.00000E+00
 -1       611 1.74876E-04-2.93263E-06 0.00000E+00
 -1       612 1.74884E-04-3.43914E-06 0.00000E+00
 -1       613 1.74893E-04-3.89257E-06 0.00000E+00
 -1       614 1.74901E-04-4.29887E-06 0.00000E+00
 -1       615 1.74910E-04-4.66395E-06 0.00000E+00
 -1       616 1.74918E-04-4.99376E-06 0.00000E+00
 -1       617 1.74927E-04-5.29423E-06 0.00000E+00
 -1       618 1.74936E-04-5.57127E-06 0.00000E+00
 -1       619 1.74944E-04-5.83083E-06 0.00000E+00
 -1       620 1.74952E-04-6.07884E-06-2.06795E-25
 -1       621 1.75948E-04 1.65118E-06 1.65436E-24
 -1       622 1.77220E-04 1.75153E-06 0.00000E+00
 -1       623 1.78605E-04 1.85171E-06-1.65436E-24
 -1       624 1.80072E-04 1.95159E-06-1.65436E-24
 -1       625 1.81593E-04 2.05123E-06 3.30872E-24
 -1       626 1.75281E-04 6.37794E-07 0.00000E+00
 -1       627 1.75722E-04-2.09956E-07 0.00000E+00
 -1       628 1.76141E-04-9.99998E-07 0.00000E+00
 -1       629 1.76541E-04-1.74052E-06 0.00000E+00
 -1       630 1.76926E-04-2.43974E-06 0.00000E+00
 -1       631 1.77299E-04-3.10588E-06 0.00000E+00
 -1       632 1.77663E-04-3.74717E-06 0.00000E+00
 -1       633 1.78020E-04-4.37186E-06 0.00000E+00
 -1       634 1.78374E-04-4.98818E-06-3.30872E-24
 -1       635 1.78728E-04-5.60436E-06 0.00000E+00
 -1       636 1.79085E-04-6.22863E-06 3.30872E-24
 -1       637 1.79448E-04-6.86924E-06 1.65436E-24
 -1       638 1.79821E-04-7.53441E-06-1.65436E-24
 -1       639 1.80205E-04-8.23242E-06 1.65436E-24
 -1       640 1.80604E-04-8.97150E-06-1.65436E-24
 -1       656 1.75434E-04-6.88022E-06 0.00000E+00
 -1       657 1.76322E-04-7.46189E-06 6.61744E-24
 -1       658 1.77484E-04-8.04216E-06 1.32349E-23
 -1       659 1.78776E-04-8.62207E-06 0.00000E+00
 -1       660 1.80015E-04-9.20374E-06 6.61744E-24
 -1       661 1.75138E-04-6.60651E-06 0.00000E+00
 -1       662 1.75352E-04-6.97937E-06-8.27181E-25
 -1       663 1.75597E-04-7.43497E-06 0.00000E+00
 -1       664 1.75871E-04-7.96725E-06 0.00000E+00
 -1       665 1.76171E-04-8.57079E-06 0.00000E+00
 -1       666 1.76497E-04-9.24007E-06-8.27181E-25
 -1       667 1.76845E-04-9.96986E-06-1.65436E-24
 -1       668 1.77214E-04-1.07550E-05 0.00000E+00
 -1       669 1.77601E-04-1.15904E-05 1.65436E-24
 -1       670 1.78006E-04-1.24712E-05-8.27181E-25
 -1       671 1.78425E-04-1.33926E-05-1.65436E-24
 -1       672 1.78858E-04-1.43499E-05 0.00000E+00
 -1       673 1.79303E-04-1.53385E-05 1.65436E-24
 -1       674 1.79757E-04-1.63540E-05 0.00000E+00
 -1       675 1.80219E-04-1.73917E-05 0.00000E+00
 -1       676 1.75212E-04-1.79447E-05 0.00000E+00
 -1       677 1.76310E-04-1.80462E-05-1.65436E-24
 -1       678 1.77407E-04-1.81476E-05-3.30872E-24
 -1       679 1.78502E-04-1.82488E-05 1.65436E-24
 -1       680 1.79594E-04-1.83499E-05-1.65436E-24
 -1       771 1.86270E-05 1.27824E-05 0.00000E+00
 -1       772 9.25682E-06 3.31217E-05 0.00000E+00
 -1       773 1.55095E-06 4.92545E-05 0.00000E+00
 -1       774-4.60457E-06 6.14216E-05 2.64698E-23
 -1       775-9.32144E-06 6.98730E-05 0.00000E+00
 -1       776-1.27159E-05 7.48739E-05 0.00000E+00
 -1       777-1.49040E-05 7.66984E-05-5.29396E-23
 -1       778-1.60044E-05 7.56329E-05-2.64698E-23
 -1       779-1.61354E-05 7.19718E-05 0.00000E+00
 -1       780-1.54168E-05 6.60194E-05 0.00000E+00
 -1       781-1.39682E-05 5.80860E-05 0.00000E+00
 -1       782-1.19104E-05 4.84902E-05 0.00000E+00
 -1       783-9.36346E-06 3.75543E-05 5.29396E-23
 -1       784-6.44883E-06 2.56065E-05 0.00000E+00
 -1       785-3.28697E-06 1.29774E-05 0.00000E+00
 -1       786 1.82480E-04 2.81753E-05-2.58494E-26
 -1       787 1.82523E-04 2.62516E-05-4.13590E-25
 -1       788 1.82566E-04 2.43686E-05 0.00000E+00
 -1       789 1.82609E-04 2.25185E-05 0.00000E+00
 -1       790 1.82653E-04 2.06966E-05-1.65436E-24
 -1       791 1.82696E-04 1.88982E-05-8.27181E-25
 -1       792 1.82740E-04 1.71211E-05-1.65436E-24
 -1       793 1.82784E-04 1.53633E-05 0.00000E+00
 -1       794 1.82827E-04 1.36245E-05 0.00000E+00
 -1       795 1.82871E-04 1.19047E-05 8.27181E-25
 -1       796 1.82915E-04 1.02057E-05 1.65436E-24
 -1       797 1.82959E-04 8.52931E-06-8.27181E-25
 -1       798 1.83003E-04 6.87987E-06-1.65436E-24
 -1       799 1.83047E-04 5.26163E-06-8.27181E-25
 -1       800 1.83091E-04 3.68206E-06 1.65436E-24
 -1       801 1.40524E-04 2.70255E-05 0.00000E+00
 -1       802 1.36181E-05 1.69954E-05 0.00000E+00
 -1       803-9.54517E-05 8.66914E-06 0.00000E+00
 -1       804-8.57976E-05 5.99735E-06 0.00000E+00
 -1       805-2.84809E-05 2.42618E-06 5.29396E-23
 -1       806 1.83070E-04 2.81093E-05-1.65436E-24
 -1       807 1.83684E-04 2.60967E-05-1.65436E-24
 -1       808 1.84287E-04 2.41150E-05-3.30872E-24
 -1       809 1.84876E-04 2.21682E-05-1.65436E-24
 -1       810 1.85451E-04 2.02601E-05 0.00000E+00
 -1       811 1.86010E-04 1.83943E-05 0.00000E+00
 -1       812 1.86551E-04 1.65745E-05-3.30872E-24
 -1       813 1.87074E-04 1.48045E-05 0.00000E+00
 -1       814 1.87577E-04 1.30879E-05 0.00000E+00
 -1       815 1.88059E-04 1.14285E-05-8.27181E-25
 -1       816 1.88518E-04 9.82980E-06-1.65436E-24
 -1       817 1.88953E-04 8.29553E-06 8.27181E-25
 -1       818 1.89363E-04 6.82936E-06-1.65436E-24
 -1       819 1.89746E-04 5.43492E-06 1.65436E-24
 -1       820 1.90101E-04 4.11582E-06 1.65436E-24
 -1       821 1.83011E-04 2.67094E-07 0.00000E+00
 -1       822 1.82877E-04-2.35352E-06 0.00000E+00
 -1       823 1.82742E-04-5.41232E-06-3.30872E-24
 -1       824 1.82605E-04-8.60584E-06 1.65436E-24
 -1       825 1.82469E-04-1.15952E-05 0.00000E+00
 -1       826 1.82334E-04-1.40427E-05-1.65436E-24
 -1       827 1.82200E-04-1.57547E-05 0.00000E+00
 -1       828 1.82068E-04-1.65420E-05-1.65436E-24
 -1       829 1.81936E-04-1.64614E-05 3.30872E-24
 -1       830 1.81803E-04-1.55746E-05-1.65436E-24
 -1       831 1.81670E-04-1.41579E-05 0.00000E+00
 -1       832 1.81537E-04-1.24907E-05 0.00000E+00
 -1       833 1.81404E-04-1.09189E-05-3.30872E-24
 -1       834 1.81273E-04-9.78822E-06 1.65436E-24
 -1       835 1.81142E-04-9.32707E-06 0.00000E+00
 -1       836 1.84556E-04 2.26936E-06 3.30872E-24
 -1       837 1.85852E-04 2.39296E-06 1.65436E-24
 -1       838 1.87055E-04 2.51647E-06 3.30872E-24
 -1       839 1.88198E-04 2.63928E-06-8.27181E-25
 -1       840 1.89312E-04 2.76193E-06 0.00000E+00
 -1       856 1.81002E-04-1.05703E-05 8.27181E-25
 -1       857 1.80981E-04-1.12481E-05 0.00000E+00
 -1       858 1.80961E-04-1.18140E-05 0.00000E+00
 -1       859 1.80940E-04-1.22886E-05 0.00000E+00
 -1       860 1.80919E-04-1.26927E-05 4.13590E-25
 -1       861 1.80898E-04-1.30472E-05 0.00000E+00
 -1       862 1.80877E-04-1.33729E-05 8.27181E-25
 -1       863 1.80855E-04-1.36906E-05 0.00000E+00
 -1       864 1.80834E-04-1.40214E-05 0.00000E+00
 -1       865 1.80813E-04-1.43860E-05 4.13590E-25
 -1       866 1.80792E-04-1.48054E-05 0.00000E+00
 -1       867 1.80771E-04-1.53002E-05 0.00000E+00
 -1       868 1.80749E-04-1.58914E-05 0.00000E+00
 -1       869 1.80728E-04-1.65995E-05-4.13590E-25
 -1       870 1.80706E-04-1.74452E-05-8.27181E-25
 -1       871 1.82108E-04-9.76416E-06 0.00000E+00
 -1       872 1.83339E-04-9.77155E-06 0.00000E+00
 -1       873 1.84647E-04-9.77960E-06 0.00000E+00
 -1       874 1.85967E-04-9.78838E-06 3.10193E-25
 -1       875 1.87234E-04-9.79771E-06 6.20385E-25
 -1       876 1.81447E-04-1.05563E-05 0.00000E+00
 -1       877 1.81853E-04-1.12875E-05-1.65436E-24
 -1       878 1.82237E-04-1.19614E-05 0.00000E+00
 -1       879 1.82604E-04-1.25851E-05-1.65436E-24
 -1       880 1.82954E-04-1.31659E-05-3.30872E-24
 -1       881 1.83291E-04-1.37110E-05-1.65436E-24
 -1       882 1.83617E-04-1.42276E-05-3.30872E-24
 -1       883 1.83935E-04-1.47228E-05-1.65436E-24
 -1       884 1.84248E-04-1.52039E-05-3.30872E-24
 -1       885 1.84559E-04-1.56780E-05 1.65436E-24
 -1       886 1.84869E-04-1.61523E-05-3.30872E-24
 -1       887 1.85182E-04-1.66339E-05 1.65436E-24
 -1       888 1.85500E-04-1.71301E-05 3.30872E-24
 -1       889 1.85826E-04-1.76482E-05 1.65436E-24
 -1       890 1.86162E-04-1.81953E-05 0.00000E+00
 -1       891 1.81793E-04-1.85045E-05 0.00000E+00
 -1       892 1.82880E-04-1.85604E-05-8.27181E-25
 -1       893 1.83920E-04-1.86161E-05 0.00000E+00
 -1       894 1.84887E-04-1.86716E-05 4.13590E-25
 -1       895 1.85757E-04-1.87269E-05 0.00000E+00
 -1       956 1.90302E-04 1.80235E-06 3.30872E-24
 -1       957 1.90175E-04 8.16333E-07 8.27181E-25
 -1       958 1.90046E-04-9.25926E-08-3.30872E-24
 -1       959 1.89918E-04-9.35174E-07 0.00000E+00
 -1       960 1.89790E-04-1.72220E-06 0.00000E+00
 -1       961 1.89661E-04-2.46448E-06 0.00000E+00
 -1       962 1.89533E-04-3.17284E-06 0.00000E+00
 -1       963 1.89404E-04-3.85815E-06 0.00000E+00
 -1       964 1.89276E-04-4.53123E-06 0.00000E+00
 -1       965 1.89147E-04-5.20293E-06 1.65436E-24
 -1       966 1.89019E-04-5.88410E-06 0.00000E+00
 -1       967 1.88891E-04-6.58558E-06 0.00000E+00
 -1       968 1.88762E-04-7.31819E-06-3.30872E-24
 -1       969 1.88634E-04-8.09276E-06-1.65436E-24
 -1       970 1.88506E-04-8.92006E-06 3.30872E-24
 -1       971 1.88264E-04-1.06977E-05 3.30872E-24
 -1       972 1.88147E-04-1.14919E-05 0.00000E+00
 -1       973 1.88029E-04-1.22032E-05 0.00000E+00
 -1       974 1.87911E-04-1.28422E-05 1.65436E-24
 -1       975 1.87793E-04-1.34198E-05-3.30872E-24
 -1       976 1.87675E-04-1.39465E-05 1.65436E-24
 -1       977 1.87558E-04-1.44332E-05 0.00000E+00
 -1       978 1.87440E-04-1.48905E-05 0.00000E+00
 -1       979 1.87322E-04-1.53292E-05 3.30872E-24
 -1       980 1.87204E-04-1.57600E-05 0.00000E+00
 -1       981 1.87086E-04-1.61937E-05-3.30872E-24
 -1       982 1.86969E-04-1.66409E-05 1.65436E-24
 -1       983 1.86851E-04-1.71126E-05 0.00000E+00
 -1       984 1.86734E-04-1.76193E-05 0.00000E+00
 -1       985 1.86618E-04-1.81717E-05 0.00000E+00
 -3
    1PSTEP                        32          16           1          
  100CL  116 6.47278E-01         409                     0   16           1
 -4  STRESS      6    1
 -5  SXX         1    4    1    1
 -5  SYY         1    4    2    2
 -5  SZZ         1    4    3    3
 -5  SXY         1    4    1    2
 -5  SYZ         1    4    2    3
 -5  SZX         1    4    3    1
 -1         1-4.53479E+06-1.67776E+06-9.97296E+05-1.63074E+06 1.30967E-10-2.18570E-07
 -1         2 5.41451E+04-1.69627E+06 2.23443E+05 4.60359E+05 6.68297E-09 1.42472E-07
 -1         3-1.10773E+03-1.62811E+06 6.10973E+02-2.00755E+03-4.87088E-10 2.31812E-08
 -1         5-5.15762E+01 3.71507E+05 9.59454E+00-1.02836E+00-4.65201E-10 1.45083E-08
 -1         8-6.13640E+05-2.03884E+05-4.98577E+04-2.51018E+05 6.36646E-11 6.38465E-09
 -1         9 8.42830E+06-6.01438E+05 1.41978E+06-1.15353E+06 1.93366E-08 2.92901E-08
 -1        10-3.52107E+03-1.73453E+06-5.10253E+03-1.47953E+04-4.55657E-09-1.80469E-08
 -1        12-4.77510E+01 3.71528E+05 3.13989E+02-7.12092E+00-7.16312E-10-1.45910E-08
 -1        15 1.21918E+03 6.70005E+02 3.94098E+03 1.75485E+00 9.64349E-11 2.23324E-07
 -1        16 1.82815E+07-1.46131E+05 2.56632E+06-1.49406E+06 2.50293E-08 1.30075E-07
 -1        17 6.55827E+06 4.70005E+06 1.76581E+06 4.61645E+06 3.59199E-08 2.06055E-08
 -1        18 1.17647E+05 2.68277E+04-7.06293E+02-1.13349E+05 1.20585E-08-6.78529E-09
 -1        19 1.18008E+05 1.36435E+05-9.15935E+02 2.14680E+04 1.31131E-09-4.76612E-09
 -1        20-7.64509E+04-5.53841E+05-1.24092E+05 2.57544E+04-1.11686E-09 7.81195E-09
 -1        21-4.50608E+01-2.89008E+05-9.05194E+02 2.17796E+02 1.31189E-08 2.48882E-08
 -1        24 1.07660E+07 9.19660E+06 3.03813E+06 8.55413E+06-1.47789E-07-5.37839E-08
 -1        25 8.16286E+04 1.07827E+05 5.91800E+04-5.51885E+05-1.07111E-09 1.44908E-08
 -1        26-5.28557E+04 8.86949E+04-2.37520E+04 3.29914E+02 3.25963E-10-3.12322E-09
 -1        27-7.47500E+04-2.99692E+05-1.09926E+05 6.67360E+04 3.96797E-09 1.54969E-08
 -1        28 2.17999E+04-8.29854E+04 1.64848E+04 2.06517E+04-3.53234E-09 2.64250E-08
 -1        32-1.63745E+06-3.02250E+06-1.77683E+05 2.90111E+05-3.87445E-08-7.63384E-09
 -1        33-1.72915E+05 8.93816E+04 3.12427E+04-3.78200E+04-2.65508E-09 3.04517E-08
 -1        34-2.16852E+05-2.39543E+04 6.55041E+02 7.26834E+04-4.53124E-09-1.90539E-10
 -1        35-2.24307E+04-3.29160E+04-1.30953E+03 5.02911E+04-3.37989E-09 1.57925E-08
 -1        51 5.10266E+04-2.05704E+05 1.10142E+05-6.12658E+05-8.73115E-11 3.12866E-08
 -1        52 1.82846E+04-1.87884E+05 5.92518E+04-7.14237E+05 6.22094E-10-1.11701E-07
 -1        53 4.96062E+03-2.03438E+05 3.31618E+04-6.10398E+05 6.18456E-10-7.42584E-08
 -1        54 1.10023E+04-1.99845E+05 3.19341E+04-7.16598E+05-4.36557E-10 5.55228E-08
 -1        55 2.31648E+04-2.09128E+05 4.43121E+04-6.10072E+05 8.00355E-11 1.18082E-07
 -1        56-8.53746E+06-9.86687E+05-7.40329E+05-3.36258E+06 8.29459E-10-2.16416E-07
 -1        57-9.04152E+06-1.43143E+06-4.96458E+05-3.08011E+06 1.59125E-08-1.54425E-07
 -1        58-8.62527E+06-1.27592E+06-1.73720E+05-3.37829E+06-2.59752E-08-1.65615E-07
 -1        59-8.94767E+06-1.08695E+06-1.03014E+05-3.06421E+06 2.83480E-08 4.08618E-08
 -1        60-8.63380E+06-1.31972E+06-4.01720E+04-3.38467E+06-5.74823E-09-7.23958E-08
 -1        61-8.89441E+06-1.07247E+06-2.19476E+04-3.09531E+06 1.01854E-08-1.60444E-08
 -1        62-8.67555E+06-1.29093E+06-1.25142E+04-3.34561E+06-2.53149E-08-1.07020E-08
 -1        63-8.77981E+06-1.16812E+06-6.62030E+03-3.20186E+06-2.52749E-09-6.63103E-08
 -1        64-8.74212E+06-1.22818E+06-1.28988E+04-3.27355E+06-3.07882E-08 1.19265E-07
 -1        65-8.65688E+06-1.29833E+06-1.82066E+04-3.34625E+06 1.11795E-08-5.87576E-08
 -1        66-8.79882E+06-1.16067E+06-3.72499E+04-3.20151E+06 1.67056E-08 2.63444E-08
 -1        67-8.59754E+06-1.42509E+06-9.07865E+04-3.45561E+06-5.35701E-08-6.51635E-08
 -1        68-8.80837E+06-1.09801E+06-1.53284E+05-3.16863E+06 9.42600E-09-1.40280E-08
 -1        69-8.73128E+06-1.69125E+06-4.40717E+05-3.43488E+06-6.68060E-08-5.39585E-08
 -1        70-8.66946E+06-9.00235E+05-6.54408E+05-3.22166E+06-1.94123E-08-2.04600E-08
 -1        86-5.52260E+04-3.38494E+06-1.26524E+05-2.28504E+05-5.84689E-08 9.50204E-08
 -1        87 6.94242E+04-2.36607E+06 9.57989E+04 6.65656E+05-9.92277E-08 1.59725E-08
 -1        88-4.84975E+03-2.78742E+06-4.30706E+03-4.36058E+05-7.81683E-08-1.97673E-09
 -1        89 8.15943E+04-2.43712E+06 6.32520E+04 7.01736E+05-1.27684E-07-5.87215E-08
 -1        90-5.99021E+04-3.32203E+06-1.68425E+05-2.65090E+05-3.77113E-08 4.79813E-08
 -1       121-1.55453E+03-1.63190E+06-5.11076E+01 9.97399E+02 1.31357E-09 6.39193E-09
 -1       122-8.68680E+02-1.62809E+06 1.25576E+03-4.01317E+03-4.57061E-09 2.26282E-08
 -1       123-1.63977E+03-1.63207E+06 1.37391E+03 2.97798E+03 3.92879E-09-8.82574E-09
 -1       124 1.56657E+03-1.62702E+06 5.07298E+03-8.37611E+03-8.91760E-09 9.07130E-09
 -1       125-3.02836E+03-1.63343E+06 7.11113E+03 5.33336E+03 5.74619E-09 1.30531E-08
 -1       191-5.44438E+01 3.71529E+05 9.20910E+00 5.30600E-01-4.75728E-10 2.00362E-08
 -1       192-5.24877E+01 3.71508E+05 2.04236E+01-3.40857E+00-5.60777E-10-1.26465E-08
 -1       193-5.68510E+01 3.71529E+05 3.57849E+01 2.97917E+00-9.08226E-10 1.64364E-08
 -1       194-5.54134E+01 3.71511E+05 7.75175E+01-7.77406E+00-5.48023E-10 2.80088E-08
 -1       195-6.14727E+01 3.71527E+05 1.49421E+02 5.01090E+00-1.25349E-09 9.29685E-09
 -1       251-2.07890E+06-3.94258E+04-2.08602E+05-1.41332E+05 1.21508E-09-1.64935E-07
 -1       252-1.04279E+06 4.92399E+04 6.19384E+04 4.37061E+05 1.22391E-08-4.51764E-08
 -1       253-1.62520E+06-1.65019E+04-3.61081E+04-2.88913E+05-1.85264E-09-9.67220E-08
 -1       254-1.52981E+06 6.71321E+04 1.08621E+04 5.77551E+05 2.62464E-08-5.30054E-09
 -1       255-1.63996E+06-1.80772E+04-2.08428E+04-2.86301E+05-3.91992E-10-1.29357E-08
 -1       256-1.00672E+06 5.40784E+04 1.16520E+05 4.25582E+05 4.66298E-09 1.69417E-07
 -1       257-2.09704E+06-4.52230E+04-1.15206E+05-1.32304E+05 2.89729E-08 1.41776E-07
 -1       258-4.86552E+05 4.08401E+04 2.14911E+05 8.98449E+03 3.17150E-08 1.20031E-07
 -1       259-2.10893E+06-4.64928E+04-1.15995E+05 1.27430E+05 3.09228E-09 2.21033E-07
 -1       260-9.78762E+05 5.64358E+04 1.27057E+05-4.12880E+05-3.47882E-09-7.73762E-08
 -1       261-1.65324E+06-2.14286E+04-1.41681E+04 2.86433E+05 7.35281E-08 1.34657E-07
 -1       262-1.52448E+06 8.03454E+04 3.50492E+04-5.74068E+05-1.56296E-08 2.03195E-08
 -1       263-1.61706E+06-2.64707E+04 4.83886E+03 2.93545E+05 7.31234E-09-3.13230E-09
 -1       264-1.03903E+06 1.24823E+05 1.61151E+05-4.46036E+05 1.43751E-07 4.36157E-08
 -1       265-2.09354E+06-1.02508E+05-5.71829E+04 1.53977E+05 4.50964E-08-4.88253E-08
 -1       266-2.20713E+04-1.03209E+04 5.17839E+04-3.75475E+01 4.36557E-11 1.97047E-07
 -1       267 2.55866E+04 1.20287E+04 3.66010E+04 4.33234E+01 8.54925E-11 7.69759E-08
 -1       268-3.43112E+03-1.70363E+03 1.36044E+04-5.52009E+00-1.55524E-10 4.93089E-08
 -1       269 4.05114E+03 2.03884E+03 8.84266E+03 6.43015E+00 1.53022E-10-3.41988E-08
 -1       270-6.08082E+02-3.35000E+02 4.26848E+03-8.72614E-01-1.67802E-10-2.17855E-07
 -1       271-1.99149E+06-2.39021E+05-1.47979E+05-7.61319E+05 4.39832E-09-7.42584E-08
 -1       272-2.09980E+06-2.92757E+05-9.52711E+04-6.98590E+05 3.76281E-08-2.37969E-07
 -1       273-2.01817E+06-2.77206E+05-3.49189E+04-7.56059E+05-1.81317E-08 1.79680E-07
 -1       274-2.06819E+06-2.46166E+05-1.95932E+04-7.06782E+05 4.64383E-08 4.70500E-08
 -1       275-2.02214E+06-2.81032E+05-8.14340E+03-7.54724E+05 3.12639E-09-1.66410E-08
 -1       276-2.06198E+06-2.42786E+05-4.25684E+03-7.09482E+05-4.88171E-09 1.33585E-07
 -1       277-2.02381E+06-2.80410E+05-2.15995E+03-7.53190E+05-2.66118E-09 6.08243E-08
 -1       278-2.05787E+06-2.45374E+05-1.30319E+03-7.12645E+05-2.74413E-08-3.37150E-09
 -1       279-2.02557E+06-2.78821E+05-1.53414E+03-7.51101E+05-2.68483E-09 5.30717E-08
 -1       280-2.05337E+06-2.49728E+05-2.18403E+03-7.16766E+05-2.98405E-08 8.25539E-08
 -1       281-2.02757E+06-2.76545E+05-4.42684E+03-7.48537E+05-2.57387E-09 4.21537E-08
 -1       282-2.04983E+06-2.57331E+05-9.69805E+03-7.21515E+05 1.20399E-08 6.67114E-09
 -1       283-2.02844E+06-2.71910E+05-1.79066E+04-7.45776E+05-1.40408E-08 2.02805E-08
 -1       284-2.05911E+06-2.86658E+05-4.75794E+04-7.23961E+05-2.75832E-08-8.22934E-09
 -1       285-2.01809E+06-2.49955E+05-7.47305E+04-7.44869E+05-2.00162E-08-5.07061E-08
 -1       301 1.16720E+04-5.14950E+05 1.74172E+05-8.94225E+05 9.67702E-10 1.25503E-07
 -1       302 1.29263E+04-4.70269E+05 1.05738E+05-1.30693E+06-2.29193E-09-1.47886E-07
 -1       303-7.68770E+03-5.01634E+05 6.36578E+04-8.91938E+05 9.31323E-10 2.09813E-07
 -1       304-3.80881E+02-4.74819E+05 7.08341E+04-1.30622E+06-1.33878E-09 1.83540E-07
 -1       305-4.66042E+03-4.98446E+05 9.61164E+04-8.94676E+05-8.38554E-10 1.82059E-07
 -1       306-2.62892E+07-5.32580E+06-7.25059E+06-1.19862E+06-4.02797E-08-2.52359E-07
 -1       307 2.15731E+07 1.79884E+06 4.67054E+06-1.24107E+07-7.79197E-07-5.99102E-08
 -1       308-7.83153E+06-6.93137E+05-5.61941E+05 4.41680E+06-1.94181E-07 2.97834E-07
 -1       309-3.61128E+06 6.03298E+06 1.72872E+06-1.82408E+07 4.11397E-07 3.14729E-07
 -1       310-1.08410E+07-1.15048E+06-1.34841E+06 4.29203E+06 4.83124E-09-1.83936E-08
 -1       311 2.85338E+07-2.39305E+05 5.68801E+06-8.70810E+06 7.67061E-07-1.49477E-07
 -1       312-2.71704E+07-5.35387E+06-6.82494E+06-3.72025E+06 4.97210E-07-3.12866E-09
 -1       313 3.81913E+07 1.00805E+07 8.77864E+06 1.76972E+07 1.01078E-07-4.63915E-08
 -1       314-1.66691E+07-1.38202E+07-6.27209E+06-1.08894E+07 4.14031E-07-2.70782E-07
 -1       315-7.09459E+05 2.33792E+07 4.82320E+06 1.04862E+07-4.26735E-07-9.42964E-08
 -1       316 1.26595E+05-8.96253E+06-5.23507E+05-3.61463E+06-9.32298E-07-3.41883E-07
 -1       317-1.69343E+07 1.92525E+07 1.69746E+06-5.54388E+06 6.66580E-07-5.26532E-07
 -1       318-1.29992E+06-1.02770E+07-1.40133E+06-4.45346E+06-7.62171E-07 8.24803E-08
 -1       319 4.40465E+06 2.45494E+07 5.45100E+06 1.31766E+07-1.10333E-07 1.70519E-07
 -1       320-1.95517E+07-1.41505E+07-7.97346E+06-1.08006E+07 1.63913E-07-2.84344E-08
 -1       336 5.84030E+02-1.84262E+06-1.81475E+04 9.33748E+03-8.12361E-09-2.29193E-10
 -1       337-7.02795E+03-1.84407E+06-2.14146E+04-2.28277E+04-6.50107E-09-1.46101E-08
 -1       338 9.08606E+02-1.84258E+06-3.05585E+04 1.32875E+04-1.13441E-08 7.91988E-09
 -1       339-3.26940E+04-1.86152E+06-6.80544E+04-3.05286E+04-7.97627E-09 9.52787E-09
 -1       340 2.25590E+04-1.82728E+06-1.05734E+05 1.69267E+04-1.16997E-08 2.09511E-08
 -1       406-2.59684E+01 3.71512E+05 6.17574E+02 2.43301E+00-1.70963E-09 9.59153E-09
 -1       407 1.68646E+02 3.71637E+05 1.31750E+03 1.98938E+01-4.22347E-10 3.64644E-08
 -1       408 6.28917E+02 3.71417E+05 2.62834E+03-2.27310E+01-2.26714E-09 2.43472E-08
 -1       409 2.80105E+03 3.72476E+05 5.92181E+03 2.39321E+02-2.24190E-10 1.94705E-08
 -1       410 8.13327E+03 3.70663E+05 1.20871E+04-2.30007E+02-2.38470E-09 4.14821E-09
 -1       521-2.79096E+07-6.54454E+06-8.48818E+06-9.10513E+05-9.95351E-08 5.66943E-08
 -1       522 2.23810E+07 2.40015E+06 4.75706E+06-1.54328E+07-4.68717E-07-3.49246E-08
 -1       523-8.62042E+06-9.69912E+05-5.84550E+05 4.86474E+06 1.34169E-07-2.21655E-07
 -1       524-6.67377E+06 8.42595E+06 1.87980E+06-2.11632E+07 8.82170E-07-5.33746E-07
 -1       525-1.18266E+07-1.61619E+06-1.48617E+06 4.72936E+06 4.95813E-07-1.66052E-07
 -1       526 3.09864E+07-2.59961E+05 6.00036E+06-1.11545E+07 3.28873E-08 5.82950E-08
 -1       527-2.89862E+07-6.74389E+06-7.86929E+06-3.62922E+06 1.11992E-07 6.76664E-08
 -1       528 4.18683E+07 1.10533E+07 9.18818E+06 2.00760E+07-1.28988E-07-1.16415E-07
 -1       529-1.77367E+07-1.57344E+07-7.20564E+06-1.11323E+07-1.99943E-07-9.28994E-08
 -1       530-2.88728E+06 2.73561E+07 5.11445E+06 1.05728E+07 1.24681E-07 4.39235E-07
 -1       531 3.65552E+04-1.01131E+07-5.30742E+05-3.79398E+06-6.23593E-07 4.14264E-07
 -1       532-1.99413E+07 2.15610E+07 1.87130E+06-8.81838E+06 3.59330E-07-5.82255E-07
 -1       533-1.38895E+06-1.14424E+07-1.48213E+06-4.55289E+06-2.03465E-07-9.76666E-07
 -1       534 2.48726E+06 2.86345E+07 5.69934E+06 1.37069E+07-2.74740E-08 6.72182E-07
 -1       535-2.07314E+07-1.61848E+07-9.12578E+06-1.10290E+07 9.66247E-08 4.17989E-07
 -1       536-6.67873E+05-4.58050E+04-3.07945E+04-4.93865E+04-6.83349E-09 4.56075E-08
 -1       537-9.21909E+04 4.47034E+04 8.15887E+04 1.13678E+05-9.64587E-08 8.61719E-08
 -1       538-3.92826E+05 2.21203E+03 6.07004E+03-6.70494E+04 1.52746E-08 1.04676E-07
 -1       539-2.82820E+05 3.13516E+03 2.35011E+04 1.28248E+05 1.40157E-07 1.10772E-07
 -1       540-4.81969E+05-3.17961E+02-1.77677E+04-6.43926E+04 1.13027E-08 1.15211E-07
 -1       541 8.15028E+04 1.48963E+04 9.35730E+04 8.92327E+04 1.24639E-08 8.31922E-08
 -1       542-7.47344E+05-1.77164E+04-7.37394E+04-2.73221E+04 4.72319E-08 4.28017E-08
 -1       543 3.08411E+05 2.40059E+04 1.38497E+05-1.24738E+04 2.90340E-08-5.26461E-09
 -1       544-7.02804E+05-1.44515E+04-6.55280E+04 3.67656E+04-3.09183E-08-2.80102E-08
 -1       545-2.27924E+04 8.11422E+03 6.94764E+04-1.04347E+05-3.11235E-08-7.35665E-08
 -1       546-4.25014E+05 5.51888E+03-1.08522E+04 6.42721E+04 1.74941E-08-7.10020E-08
 -1       547-2.99280E+05-4.68534E+03 8.27061E+03-1.30987E+05-1.14769E-07-9.12059E-08
 -1       548-4.33727E+05 4.53016E+03-2.23049E+04 6.39692E+04-9.64546E-08-8.91700E-08
 -1       549-4.69024E+03 1.14620E+04 4.95687E+04-1.01978E+05-6.17223E-08-6.15801E-08
 -1       550-7.11714E+05-1.72073E+04-1.18395E+05 3.46757E+04 5.74801E-09-3.72911E-08
 -1       551 3.80529E+04-7.71472E+05-6.98959E+03-1.21543E+06-9.54897E-08-3.95812E-09
 -1       552 8.60609E+04-8.11025E+05 1.49730E+04-1.73331E+06-6.64586E-08 3.52666E-08
 -1       553 6.55938E+04-8.09074E+05 3.54114E+04-1.20924E+06-1.11424E-07 3.51138E-08
 -1       554 1.22859E+05-8.23812E+05 8.50028E+04-1.73526E+06-7.08096E-08 1.78115E-08
 -1       555 9.52172E+04-8.31885E+05 1.53988E+05-1.20926E+06-1.14691E-07-1.29476E-08
 -1       556 2.06300E+05-3.57250E+05 3.80419E+04-3.88711E+05-2.23808E-08-6.14091E-09
 -1       557 3.31220E+05-4.56938E+05 2.21768E+04-5.01033E+05 2.09548E-09 2.32903E-08
 -1       558 1.90976E+05-3.53417E+05 5.45403E+03-3.90545E+05-2.04309E-08 1.60871E-08
 -1       559 3.07514E+05-4.59132E+05 3.82397E+03-5.19205E+05 1.53086E-08 1.10958E-09
 -1       560 1.77574E+05-3.44989E+05-5.14439E+02-4.00129E+05 8.58563E-09 1.29367E-08
 -1       561 2.90503E+05-4.52442E+05 5.04832E+02-5.30727E+05 5.60249E-09 6.43195E-09
 -1       562 1.66978E+05-3.38380E+05-9.49262E+02-4.07787E+05 5.41331E-09 8.67840E-09
 -1       563 2.77930E+05-4.46961E+05 6.95556E+01-5.38919E+05-9.26229E-09-1.26156E-08
 -1       564 1.59467E+05-3.33693E+05-4.54770E+02-4.13104E+05 3.05590E-10-1.09999E-08
 -1       565 2.69686E+05-4.43372E+05 5.21422E+01-5.44182E+05 5.03860E-09 1.20067E-08
 -1       566 1.55154E+05-3.30961E+05-2.02411E+02-4.16122E+05-4.32192E-09-1.64036E-08
 -1       567 2.65805E+05-4.41682E+05-3.13172E+02-5.46525E+05 1.38607E-08-9.29140E-09
 -1       568 1.54120E+05-3.30331E+05-9.99172E+02-4.16942E+05 4.59977E-09 3.58341E-09
 -1       569 2.64976E+05-4.41636E+05-2.52521E+03-5.45001E+05-5.57247E-09 6.47560E-09
 -1       570 1.57397E+05-3.33389E+05-5.54484E+03-4.16006E+05 8.06904E-09-3.73257E-09
 -1       571 2.79654E+05 1.01264E+04 1.45332E+04-8.90084E+04-6.86668E-09 1.17020E-08
 -1       572 2.81769E+05 3.77127E+03 7.12214E+03-9.76496E+04-1.47515E-08 6.05905E-09
 -1       573 2.80496E+05 1.14493E+03 3.16454E+03-8.88391E+04-7.38601E-09 6.41830E-09
 -1       574 2.80711E+05 6.34963E+02 1.58679E+03-9.78616E+04-2.74849E-09-6.11180E-09
 -1       575 2.80588E+05 3.71019E+02 7.48837E+02-8.88160E+04 3.05334E-10 4.23370E-09
 -1       576 2.80578E+05 3.76003E+02 3.83200E+02-9.78898E+04 6.32554E-09 3.95448E-09
 -1       577 2.80623E+05 3.16722E+02 1.91183E+02-8.88129E+04 4.28372E-09 8.34007E-09
 -1       578 2.80601E+05 3.42497E+02 1.10047E+02-9.78937E+04-2.92857E-10 1.87993E-09
 -1       579 2.80685E+05 2.85814E+02 7.53464E+01-8.88126E+04 7.63976E-09-1.54523E-09
 -1       580 2.80689E+05 2.99038E+02 8.66112E+01-9.78891E+04-7.29779E-09 8.64020E-10
 -1       581 2.80783E+05 2.36104E+02 1.30811E+02-8.88181E+04 3.85626E-09 1.25283E-08
 -1       582 2.80842E+05 2.70481E+02 2.65006E+02-9.78315E+04 2.92493E-09 2.00571E-08
 -1       583 2.80904E+05 2.83919E+02 5.09515E+02-8.88707E+04 1.73532E-09 2.96473E-09
 -1       584 2.81182E+05 6.97984E+02 1.15185E+03-9.73881E+04 4.70391E-09-1.07398E-08
 -1       585 2.80914E+05 1.67468E+03 2.33384E+03-8.92610E+04-2.81943E-09-3.78350E-09
 -1       586-3.31047E+03 1.09561E+05-3.01376E+03-2.42595E+05-6.93126E-09 1.14346E-08
 -1       587-1.20829E+03 1.09281E+05 6.26026E+02-2.66998E+05-7.77254E-09 2.52271E-09
 -1       588 4.80496E+02 1.09130E+05 4.49909E+03-2.42465E+05-2.86673E-09 1.67829E-08
 -1       589 4.97838E+03 1.11479E+05 1.17722E+04-2.66764E+05-4.84215E-09 2.10966E-08
 -1       590 1.59838E+04 1.07853E+05 2.47351E+04-2.42881E+05-4.71937E-09 1.05210E-08
 -1       591-7.00839E+04-1.52997E+04-2.13948E+04-3.03113E+04-2.77328E-09 3.29146E-09
 -1       592-7.38416E+04-1.88037E+04-1.15891E+04-3.38970E+04 3.40606E-09-2.18261E-08
 -1       593-7.22246E+04-1.37462E+04-4.82400E+03-3.18790E+04-3.33668E-09-2.47328E-08
 -1       594-7.08858E+04-1.56662E+04-2.40586E+03-3.40112E+04-4.38047E-09-1.79986E-08
 -1       595-7.23879E+04-1.37410E+04-1.10461E+03-3.19503E+04-2.08314E-09 2.22460E-08
 -1       596-7.06836E+04-1.55227E+04-5.61468E+02-3.39873E+04 1.05915E-08 4.76780E-09
 -1       597-7.24084E+04-1.37555E+04-3.05595E+02-3.19530E+04-3.44079E-09 8.20239E-09
 -1       598-7.06637E+04-1.55171E+04-2.45407E+02-3.39806E+04-9.77911E-09 7.57473E-09
 -1       599-7.24071E+04-1.37560E+04-3.13159E+02-3.19526E+04 1.96712E-09 2.94358E-09
 -1       600-7.06837E+04-1.55233E+04-5.81493E+02-3.39854E+04 2.94119E-09-1.63261E-08
 -1       601-7.23835E+04-1.37421E+04-1.14703E+03-3.19492E+04-3.04658E-09-1.00376E-08
 -1       602-7.08936E+04-1.56714E+04-2.49975E+03-3.40065E+04-4.92150E-09-8.57244E-09
 -1       603-7.22112E+04-1.37504E+04-5.01300E+03-3.18759E+04-1.72508E-09 1.28302E-08
 -1       604-7.39818E+04-1.89132E+04-1.20423E+04-3.38643E+04 4.88353E-09 3.42925E-09
 -1       605-6.99676E+04-1.53816E+04-2.22317E+04-3.02652E+04 6.89101E-09 2.67646E-08
 -1       606 2.69099E+04-1.37376E+04-2.46346E+04 2.44879E+04-7.97172E-09-5.16502E-09
 -1       607 2.26998E+04-4.48248E+03-1.22678E+04 2.75139E+04-1.80398E-08-1.16961E-08
 -1       608 2.50978E+04-8.04742E+02-5.49210E+03 2.43114E+04-1.37934E-08 1.52468E-08
 -1       609 2.46363E+04-2.70614E+02-2.77439E+03 2.77318E+04-8.29459E-10 6.07133E-09
 -1       610 2.48910E+04-3.32002E+01-1.32387E+03 2.42907E+04 3.34330E-09-6.93717E-09
 -1       611 2.48170E+04-3.16277E+01-6.67477E+02 2.77554E+04 5.34237E-09 1.23955E-08
 -1       612 2.48441E+04-1.90040E+01-3.17490E+02 2.42886E+04-4.78394E-10 1.47566E-09
 -1       613 2.48264E+04-2.67319E+01-1.42403E+02 2.77581E+04 6.10817E-09-3.68875E-08
 -1       614 2.48215E+04-2.43040E+01-3.38004E+01 2.42879E+04-3.94721E-10-1.16415E-10
 -1       615 2.48200E+04-2.45453E+01 5.87703E+01 2.77586E+04-2.30102E-09 1.17716E-08
 -1       616 2.48039E+04-2.06836E+01 1.77062E+02 2.42882E+04 3.49064E-09 3.09865E-09
 -1       617 2.48402E+04 1.38079E+01 4.04339E+02 2.77581E+04 4.41719E-09 3.62593E-09
 -1       618 2.47680E+04 9.63563E+01 8.15120E+02 2.42884E+04-2.52840E-10 7.73753E-10
 -1       619 2.51274E+04 6.44450E+02 1.83051E+03 2.77574E+04-4.37353E-09-6.71685E-09
 -1       620 2.44969E+04 2.02957E+03 3.67928E+03 2.42894E+04 3.85853E-10 2.23827E-09
 -1       621 4.62538E+02 2.89586E+05 3.64575E+03 3.66037E+04 8.98126E-10-1.94696E-08
 -1       622 6.04327E+02 2.90438E+05 3.25507E+03 5.31560E+04 1.05865E-09-8.59382E-09
 -1       623 1.12518E+02 2.89775E+05 3.93879E+03 3.64371E+04 1.07082E-09-9.95897E-09
 -1       624 1.99043E+03 2.91621E+05 7.65704E+03 5.33207E+04 9.89530E-10-1.00827E-08
 -1       625 1.95580E+03 2.88259E+05 1.33911E+04 3.64341E+04 1.17097E-09-1.40449E-09
 -1       626 2.51332E+05 6.01532E+04 5.01503E+03 1.23341E+05 2.70120E-09-5.08226E-09
 -1       627 2.49000E+05 6.15837E+04 2.41670E+03 1.27595E+05-1.84082E-09-1.24855E-08
 -1       628 2.51461E+05 5.78534E+04 1.02195E+03 1.24187E+05 4.70936E-09 1.79857E-08
 -1       629 2.48370E+05 6.09245E+04 5.00216E+02 1.27836E+05-5.82577E-09 6.23055E-09
 -1       630 2.51475E+05 5.77427E+04 2.31984E+02 1.24222E+05-1.04310E-08-7.38601E-09
 -1       631 2.48302E+05 6.09002E+04 1.24786E+02 1.27838E+05 5.77370E-09 9.66236E-09
 -1       632 2.51470E+05 5.77471E+04 8.20300E+01 1.24217E+05 3.98677E-09-1.70423E-08
 -1       633 2.48293E+05 6.09025E+04 9.12374E+01 1.27834E+05 3.16106E-09-9.65110E-09
 -1       634 2.51465E+05 5.77449E+04 1.47318E+02 1.24216E+05 1.08162E-09 2.24600E-09
 -1       635 2.48306E+05 6.09013E+04 2.98026E+02 1.27838E+05-3.20712E-09 1.25228E-08
 -1       636 2.51455E+05 5.77397E+04 6.01825E+02 1.24215E+05 2.99565E-09 1.39380E-08
 -1       637 2.48436E+05 6.09950E+04 1.32316E+03 1.27837E+05-1.72076E-09-9.10995E-09
 -1       638 2.51408E+05 5.80322E+04 2.71865E+03 1.24083E+05 1.14824E-09 1.85628E-09
 -1       639 2.49864E+05 6.29811E+04 6.43232E+03 1.27416E+05 9.19863E-09-3.90173E-10
 -1       640 2.51212E+05 6.39619E+04 1.33482E+04 1.21582E+05 5.40649E-09 1.11299E-08
 -1       656 6.44422E+04-1.64757E+06-1.55560E+05-2.16155E+03-4.22006E-10 2.86269E-09
 -1       657-8.52430E+04-1.71786E+06-1.28854E+05 5.63461E+03-6.80302E-10-2.15041E-08
 -1       658 2.05341E+04-1.66754E+06-7.93352E+04-4.14238E+03-1.63027E-10-9.98801E-09
 -1       659-9.21154E+04-1.72112E+06-1.37885E+05 7.24578E+03-2.57296E-09-1.10294E-08
 -1       660 7.12992E+04-1.64432E+06-1.71086E+05-3.77271E+03-1.91358E-09 1.23848E-08
 -1       661 1.60446E+05 1.68811E+04 1.67173E+04 6.27244E+04-7.04858E-11-8.44921E-10
 -1       662 1.69816E+05 2.93406E+04 1.12661E+04 5.90662E+04-9.98682E-10 2.48383E-09
 -1       663 1.63729E+05 2.22446E+04 3.94027E+03 6.17719E+04-1.67313E-09-8.05744E-09
 -1       664 1.66010E+05 2.30679E+04 2.35694E+03 6.02293E+04-2.83808E-09 3.23108E-08
 -1       665 1.64227E+05 2.29776E+04 9.29798E+02 6.16271E+04 1.83741E-09-1.63777E-09
 -1       666 1.65422E+05 2.22294E+04 5.44023E+02 6.04179E+04-5.42286E-11-1.35692E-09
 -1       667 1.64314E+05 2.30613E+04 2.88888E+02 6.15912E+04 2.42872E-09-6.36199E-09
 -1       668 1.65327E+05 2.21687E+04 2.94186E+02 6.04702E+04-4.84798E-09-1.57409E-08
 -1       669 1.64322E+05 2.30365E+04 3.98147E+02 6.15752E+04-1.40818E-09 1.60671E-09
 -1       670 1.65424E+05 2.23846E+04 8.66842E+02 6.04730E+04-7.22439E-09 3.91751E-10
 -1       671 1.64217E+05 2.28499E+04 1.53910E+03 6.15864E+04 6.76167E-10-1.72133E-09
 -1       672 1.66320E+05 2.38819E+04 3.93771E+03 6.02558E+04 1.64779E-09-3.41629E-11
 -1       673 1.63429E+05 2.15770E+04 6.59896E+03 6.17779E+04 8.06722E-10-8.36735E-11
 -1       674 1.72601E+05 3.44836E+04 1.88716E+04 5.84103E+04-7.17250E-10-7.94921E-09
 -1       675 1.57976E+05 1.25451E+04 2.80121E+04 6.33205E+04-3.02452E-09-5.99539E-09
 -1       676 2.35770E+01-2.88933E+05-1.09100E+03-1.08901E+02 7.06052E-10-8.01165E-09
 -1       677-2.88997E+02-2.89197E+05-1.99671E+03 2.17633E+02 7.43034E-09-3.06500E-08
 -1       678 1.93515E+02-2.88745E+05-3.52968E+03-1.08660E+02 6.33918E-10-7.47359E-09
 -1       679-3.53011E+03-2.91327E+05-8.38503E+03 2.16715E+02 8.45102E-09-4.48597E-09
 -1       680 2.10738E+03-2.86803E+05-1.35138E+04-1.06778E+02 1.35515E-10 7.93483E-09
 -1       771-3.00313E+06-7.12160E+05-1.46886E+05-1.42220E+06-3.36149E-08-2.77942E-08
 -1       772-2.93179E+06-7.95158E+05-7.58428E+04-1.51799E+06-2.42289E-08 1.22236E-08
 -1       773-3.03112E+06-6.90255E+05-3.84069E+04-1.43452E+06-1.91794E-08 1.13505E-08
 -1       774-2.92260E+06-7.79022E+05-1.71879E+04-1.54068E+06 1.03028E-08 9.08767E-09
 -1       775-3.04546E+06-6.80163E+05-1.26842E+04-1.44039E+06-1.41736E-08 4.80213E-10
 -1       776-2.93293E+06-7.76600E+05-4.77081E+03-1.55764E+06-7.15954E-09 5.80621E-09
 -1       777-3.05782E+06-6.71217E+05-5.54146E+03-1.44556E+06 3.81260E-09 2.93949E-09
 -1       778-2.94376E+06-7.74373E+05-1.57555E+03-1.57217E+06 4.10364E-09 3.66708E-09
 -1       779-3.06840E+06-6.63429E+05-2.74925E+03-1.44999E+06-7.11589E-09-7.83984E-09
 -1       780-2.95328E+06-7.72245E+05-4.57040E+02-1.58401E+06-2.32831E-09 2.16460E-09
 -1       781-3.07679E+06-6.57167E+05-1.06117E+03-1.45345E+06-2.88564E-08-3.28146E-09
 -1       782-2.96060E+06-7.70430E+05 3.88943E+02-1.59274E+06-4.40195E-08-2.02908E-09
 -1       783-3.08269E+06-6.52828E+05 6.09481E+02-1.45588E+06-1.85973E-08-1.66483E-08
 -1       784-2.96463E+06-7.68560E+05 2.50283E+03-1.59812E+06-2.01399E-08 1.49885E-09
 -1       785-3.08617E+06-6.50244E+05 4.41993E+03-1.45743E+06-3.30765E-08 1.25983E-08
 -1       786 1.25007E+05-9.67684E+03 2.23880E+04-2.88385E+02 1.69622E-09-1.27493E-08
 -1       787 1.34716E+05 1.12034E+04 1.58386E+04-1.07738E+02 4.03001E-09 3.84080E-09
 -1       788 1.28751E+05-1.51650E+03 5.79240E+03-2.54874E+02 1.75514E-09 1.65496E-08
 -1       789 1.30355E+05 1.75510E+03 3.63647E+03-1.59495E+02 9.01105E-10 2.27374E-11
 -1       790 1.29369E+05-2.36239E+02 1.47283E+03-2.36643E+02-9.23762E-10 6.31445E-09
 -1       791 1.29632E+05 2.73235E+02 8.51617E+02-1.90778E+02-6.22037E-09 2.18164E-08
 -1       792 1.29474E+05-3.57444E+01 3.62768E+02-2.23592E+02-3.31486E-09 3.05249E-10
 -1       793 1.29508E+05 3.84835E+01 1.84988E+02-2.15361E+02-4.19797E-10-1.58148E-09
 -1       794 1.29493E+05-1.63611E+00 5.63938E+01-2.12060E+02 3.66620E-09-7.62597E-10
 -1       795 1.29474E+05-2.02053E+01-3.49568E+01-2.39460E+02-5.16572E-09 1.58853E-08
 -1       796 1.29507E+05 2.29119E+01-1.22844E+02-1.99492E+02 3.27416E-09-4.52211E-09
 -1       797 1.29399E+05-1.72302E+02-3.47926E+02-2.68349E+02 2.44430E-09-1.04139E-08
 -1       798 1.29569E+05 1.50346E+02-5.67994E+02-1.83171E+02 1.19967E-09 6.33008E-09
 -1       799 1.28967E+05-1.10850E+03-1.56519E+03-3.08612E+02 5.13975E-09 2.94766E-08
 -1       800 1.29939E+05 9.58339E+02-2.21581E+03-1.59230E+02 8.84406E-10-4.83499E-09
 -1       801-1.15222E+05-8.96375E+06-1.21957E+06 1.16883E+06 8.43429E-08-5.05024E-08
 -1       802 5.78591E+05 4.33386E+06 1.77541E+06-1.41625E+06 2.38892E-07-2.83462E-08
 -1       803-4.42754E+05-1.24265E+07-1.57629E+06 7.43541E+05 7.33453E-08 2.12822E-08
 -1       804 2.25094E+05 1.31163E+06 1.25140E+06 5.96406E+05-1.07302E-07-9.11033E-08
 -1       805 1.68286E+05-5.95663E+06-2.40390E+05-8.39042E+05-4.45361E-08-5.97647E-08
 -1       806-2.98815E+05-5.76350E+04-2.20460E+04-1.18213E+05-2.54204E-10 2.42458E-08
 -1       807-3.00580E+05-5.40065E+04-1.08310E+04-1.23526E+05 5.03223E-09-6.15411E-09
 -1       808-2.99418E+05-4.96928E+04-4.59487E+03-1.21972E+05-1.29785E-09 1.90140E-08
 -1       809-2.98304E+05-5.09620E+04-2.24678E+03-1.23791E+05-9.22478E-09 3.75144E-09
 -1       810-2.99509E+05-4.94162E+04-1.02981E+03-1.22139E+05 4.80895E-09-5.44560E-09
 -1       811-2.98128E+05-5.08395E+04-5.12124E+02-1.23757E+05 2.91402E-09-9.92532E-09
 -1       812-2.99523E+05-4.94398E+04-2.59012E+02-1.22138E+05-9.56152E-09-9.17271E-09
 -1       813-2.98104E+05-5.08415E+04-1.68381E+02-1.23739E+05-1.90130E-09-7.49878E-09
 -1       814-2.99517E+05-4.94490E+04-1.66896E+02-1.22134E+05-6.20275E-09-1.75492E-08
 -1       815-2.98108E+05-5.08436E+04-2.69015E+02-1.23732E+05 1.20281E-09 2.47951E-09
 -1       816-2.99497E+05-4.94478E+04-5.09863E+02-1.22131E+05 1.74987E-09-4.07181E-09
 -1       817-2.98195E+05-5.08921E+04-1.09438E+03-1.23721E+05-1.79857E-08 7.84598E-09
 -1       818-2.99431E+05-4.96019E+04-2.23208E+03-1.22058E+05-4.87216E-09 1.13641E-09
 -1       819-2.99417E+05-5.22409E+04-5.25213E+03-1.23433E+05 3.72165E-09 5.27166E-09
 -1       820-2.99012E+05-5.35681E+04-1.06899E+04-1.20362E+05-9.45874E-11 5.94810E-10
 -1       821-3.69034E+05 2.03314E+04-4.71506E+04 1.59328E+03 1.12915E-08-2.39561E-09
 -1       822-3.88929E+05-2.35431E+04-3.32719E+04-3.12724E+03 2.55238E-09-1.51203E-09
 -1       823-3.76637E+05 3.19545E+03-1.21955E+04 2.36356E+03-8.82653E-09 7.75526E-09
 -1       824-3.79892E+05-3.69042E+03-7.65458E+03-3.53527E+03 1.64151E-09 2.73451E-09
 -1       825-3.78071E+05 4.96536E+02-3.17903E+03 2.00136E+03 1.35796E-08-3.68027E-09
 -1       826-3.77954E+05-5.69951E+02-1.80067E+03-1.87896E+03 1.67500E-08 4.92034E-09
 -1       827-3.78562E+05 6.81052E+01-1.06910E+03 7.07190E+02 7.73809E-09-5.95276E-09
 -1       828-3.77558E+05-1.57241E+02-7.33621E+02 9.42937E+02 1.12856E-10 2.98964E-09
 -1       829-3.78462E+05 8.02244E+01-1.07058E+03-8.20569E+02 1.96917E-09-7.21258E-10
 -1       830-3.78180E+05-6.10102E+02-1.91094E+03 3.40295E+03 4.93959E-10-3.72449E-09
 -1       831-3.77952E+05 5.29297E+02-3.27224E+03-1.75286E+03-2.66474E-09 1.65055E-08
 -1       832-3.79979E+05-3.84398E+03-7.95180E+03 4.16715E+03-2.56632E-09 2.37278E-08
 -1       833-3.76671E+05 3.31674E+03-1.26790E+04-1.58479E+03-1.62316E-09 1.94032E-08
 -1       834-3.89122E+05-2.44410E+04-3.45007E+04 2.79685E+03-2.45686E-09 7.56700E-09
 -1       835-3.68802E+05 2.11027E+04-4.89772E+04-3.82511E+02 4.58027E-09-5.26052E-09
 -1       836-1.35009E+03 3.56157E+05 2.19856E+04-1.62643E+04-5.88261E-09-5.66070E-09
 -1       837 4.70067E+03 3.63036E+05 1.86302E+04-3.31261E+04-6.43638E-09-1.45244E-08
 -1       838-5.30978E+02 3.58082E+05 1.90188E+04-1.61938E+04-5.24233E-09 2.95495E-09
 -1       839 1.19976E+04 3.68471E+05 3.60140E+04-3.31764E+04-5.71936E-09-7.97553E-09
 -1       840-3.69965E+03 3.50665E+05 5.74449E+04-1.62186E+04-4.96220E-09 2.94054E-09
 -1       856-5.62956E+04 7.96727E+03-2.09956E+04-3.98876E+02 3.13264E-09-2.82034E-09
 -1       857-6.49487E+04-9.35866E+03-1.44534E+04 5.50189E+03 4.17529E-09 9.41236E-09
 -1       858-5.97212E+04 1.11718E+03-5.44798E+03-4.22784E+02 3.63730E-09 9.15020E-09
 -1       859-6.10172E+04-1.31185E+03-3.28791E+03 5.53782E+03-8.34547E-10 3.59853E-09
 -1       860-6.02330E+04 1.56298E+02-1.37846E+03-4.34599E+02 1.21824E-09 8.49786E-09
 -1       861-6.04283E+04-1.84282E+02-7.59359E+02 5.55394E+03 3.08785E-09-1.63303E-08
 -1       862-6.03130E+04 2.10832E+01-3.17744E+02-4.38892E+02-1.92660E-10-2.08900E-11
 -1       863-6.03306E+04-1.98558E+01-1.20487E+02 5.55637E+03-7.82620E-10 1.17714E-08
 -1       864-6.03312E+04-4.40311E+00 3.61909E+01-4.37027E+02-2.27487E-10 1.56260E-09
 -1       865-6.02782E+04 5.62657E+01 2.29665E+02 5.54591E+03 2.80806E-11 2.29739E-08
 -1       866-6.03633E+04-5.51150E+01 4.68314E+02-4.28436E+02-2.04727E-09 1.78493E-08
 -1       867-6.00565E+04 4.55758E+02 1.15625E+03 5.52256E+03 1.30422E-09-2.39769E-08
 -1       868-6.05482E+04-3.96852E+02 1.92217E+03-4.13669E+02 1.51772E-11-1.59231E-08
 -1       869-5.86462E+04 3.30279E+03 5.11944E+03 5.48393E+03 2.65760E-09-3.07887E-09
 -1       870-6.17662E+04-2.82507E+03 7.42923E+03-3.89729E+02-1.64232E-09 6.23049E-09
 -1       871-5.37715E+03-1.95920E+04-1.87612E+04 1.25406E+05-3.95994E-09 2.78078E-08
 -1       872-1.99205E+03-2.39331E+04-7.83494E+03 1.62604E+05-7.81438E-09 6.00448E-09
 -1       873 3.27115E+02-2.18437E+04 6.20191E+02 1.25130E+05-3.83170E-09-1.67845E-08
 -1       874 3.12890E+03-1.94774E+04 9.53620E+03 1.62636E+05-9.11768E-09-7.56677E-09
 -1       875 6.59633E+03-2.41151E+04 2.14722E+04 1.25361E+05-4.34375E-09-1.93359E-08
 -1       876 2.85034E+05 4.81515E+04 1.46988E+04 1.14517E+05 7.31131E-09 3.46245E-09
 -1       877 2.85994E+05 5.12589E+04 7.84969E+03 1.18745E+05 1.28421E-09 1.39494E-09
 -1       878 2.86408E+05 4.65236E+04 3.28864E+03 1.15722E+05-2.48383E-09 7.35804E-09
 -1       879 2.83996E+05 4.92651E+04 1.63857E+03 1.18844E+05 1.92608E-09 1.67439E-08
 -1       880 2.86507E+05 4.65067E+04 7.63202E+02 1.15771E+05-6.86214E-10 6.84167E-10
 -1       881 2.83863E+05 4.91799E+04 4.07498E+02 1.18822E+05-2.21144E-09 1.21940E-08
 -1       882 2.86516E+05 4.65195E+04 2.60587E+02 1.15773E+05-1.62026E-09 2.98236E-08
 -1       883 2.83854E+05 4.91755E+04 2.79969E+02 1.18814E+05-1.56911E-09 1.23883E-08
 -1       884 2.86509E+05 4.65167E+04 4.45209E+02 1.15773E+05-7.23435E-09-6.93541E-09
 -1       885 2.83889E+05 4.91817E+04 8.95019E+02 1.18825E+05-1.51588E-08-2.97405E-10
 -1       886 2.86475E+05 4.64906E+04 1.80383E+03 1.15769E+05-8.61920E-09 9.85619E-09
 -1       887 2.84206E+05 4.93896E+04 3.94020E+03 1.18871E+05 4.78218E-09-1.33700E-08
 -1       888 2.86226E+05 4.65344E+04 7.93960E+03 1.15643E+05 5.83498E-10-5.23187E-09
 -1       889 2.88933E+05 5.43048E+04 1.89663E+04 1.18726E+05 1.19513E-09 1.19771E-08
 -1       890 2.82986E+05 5.03827E+04 3.55234E+04 1.12620E+05-1.01923E-08-8.44375E-09
 -1       891-9.83433E+01-1.58314E+05-1.93588E+03 2.67745E+04-1.31672E-09 3.14180E-08
 -1       892-1.87949E+02-1.58819E+05-2.08106E+03 4.06370E+04 2.38424E-09-3.74962E-09
 -1       893 3.06007E+01-1.58376E+05-2.94851E+03 2.67815E+04-2.04454E-09 1.61554E-08
 -1       894-1.48496E+03-1.59934E+05-6.10374E+03 4.04874E+04 1.62618E-09 5.29053E-09
 -1       895-1.17693E+03-1.57104E+05-1.07492E+04 2.69253E+04-6.56769E-10 7.75526E-09
 -1       956-3.65314E+05-5.25309E+03-1.30088E+04 2.91714E+04 4.27553E-09 1.04433E-09
 -1       957-3.67869E+05-1.83988E+03-6.67735E+03 3.50680E+04 3.95630E-11-4.17444E-08
 -1       958-3.66481E+05-2.17322E+02-3.00893E+03 2.90104E+04-4.71573E-09-1.21236E-08
 -1       959-3.66674E+05-1.13652E+02-1.53649E+03 3.52540E+04 1.44701E-09 8.72865E-09
 -1       960-3.66594E+05-2.86854E+01-7.49247E+02 2.89939E+04 3.59796E-09-7.43898E-09
 -1       961-3.66595E+05-4.38305E+01-3.97317E+02 3.52733E+04 1.07252E-08 1.35378E-09
 -1       962-3.66620E+05-3.04304E+01-2.27527E+02 2.89912E+04 7.87668E-09 1.67749E-08
 -1       963-3.66594E+05-4.01179E+01-1.82761E+02 3.52768E+04 1.19994E-08 1.88327E-08
 -1       964-3.66625E+05-2.72829E+01-2.22336E+02 2.89904E+04 3.19216E-09 1.12846E-09
 -1       965-3.66606E+05-3.71202E+01-3.84619E+02 3.52762E+04-8.53390E-10-1.16925E-08
 -1       966-3.66610E+05-1.93303E+01-7.22660E+02 2.89918E+04 2.27101E-09-2.14329E-08
 -1       967-3.66694E+05-9.80619E+01-1.48220E+03 3.52628E+04 1.16142E-09-3.39446E-09
 -1       968-3.66510E+05-1.95260E+02-2.90151E+03 2.90038E+04-7.47605E-10-3.36445E-09
 -1       969-3.67859E+05-1.75798E+03-6.44142E+03 3.51233E+04 3.76758E-09 9.66384E-09
 -1       970-3.65392E+05-5.04933E+03-1.25480E+04 2.91246E+04 8.52651E-10-5.80258E-10
 -1       971-3.35614E+05-1.68701E+03-9.13078E+03 1.50645E+04 4.51928E-09 1.51402E-08
 -1       972-3.37815E+05-1.23743E+03-4.97253E+03 2.08656E+04 8.96125E-09 7.77482E-09
 -1       973-3.36632E+05-5.37584E+01-2.22718E+03 1.49448E+04 7.15318E-09 1.41290E-09
 -1       974-3.36767E+05-6.97028E+01-1.15441E+03 2.10003E+04 6.06451E-09 8.22729E-09
 -1       975-3.36712E+05-9.85741E+00-5.77300E+02 1.49327E+04 4.01815E-09-3.52645E-09
 -1       976-3.36707E+05-2.09061E+01-3.33515E+02 2.10156E+04-4.63388E-10-1.49279E-08
 -1       977-3.36728E+05-9.21415E+00-2.42877E+02 1.49295E+04-2.69665E-09-8.81732E-09
 -1       978-3.36712E+05-1.48705E+01-2.85329E+02 2.10203E+04-7.94705E-09 1.20849E-10
 -1       979-3.36728E+05-1.00878E+00-4.59391E+02 1.49281E+04-2.73474E-10 4.07113E-10
 -1       980-3.36746E+05-1.19036E+01-8.87627E+02 2.10212E+04-2.55562E-09 1.64511E-08
 -1       981-3.36699E+05 2.11689E+01-1.71944E+03 1.49286E+04 3.58568E-10 4.70777E-09
 -1       982-3.36982E+05-1.38943E+02-3.55422E+03 2.10147E+04 5.88761E-09-1.66250E-08
 -1       983-3.36483E+05-8.89205E+01-6.90597E+03 1.49345E+04-2.61616E-09 1.37879E-09
 -1       984-3.40304E+05-3.74571E+03-1.54656E+04 2.09306E+04-2.68301E-09 8.68658E-09
 -1       985-3.33356E+05-5.14229E+03-2.83997E+04 1.50068E+04-5.10772E-09 1.30640E-08
 -3
    1PSTEP                        33          17           1          
  100CL  117 6.52222E-01         409                     0   17           1
 -4  DISP        4    1
 -5  D1          1    2    1    0
 -5  D2          1    2    2    0
 -5  D3          1    2    3    0
 -5  ALL         1    2    0    0    1ALL
 -1         1 2.33337E-03 0.00000E+00 0.00000E+00
 -1         2 1.63595E-03-1.00986E-26-2.64698E-23
 -1         3 3.23364E-04-3.22752E-28 1.32349E-23
 -1         5 1.71262E-04-3.73797E-27-1.65436E-24
 -1         8 2.31787E-03-4.80780E-07 0.00000E+00
 -1         9 2.28480E-03-4.82437E-05 0.00000E+00
 -1        10 2.94897E-04-3.50933E-06 0.00000E+00
 -1        12 1.72879E-04 7.87831E-07-1.03398E-24
 -1        15 2.29924E-03-5.22683E-07 0.00000E+00
 -1        16 2.32218E-03-4.95818E-05 0.00000E+00
 -1        17 2.02379E-04-8.06134E-06 0.00000E+00
 -1        18 1.76175E-04 3.12338E-05 0.00000E+00
 -1        19 1.77732E-04 1.56988E-06 0.00000E+00
 -1        20 1.77874E-04-7.33821E-06 0.00000E+00
 -1        21 1.77013E-04-2.00098E-05 0.00000E+00
 -1        24 3.00484E-05-1.20866E-05 0.00000E+00
 -1        25 1.85806E-04 3.14512E-05 0.00000E+00
 -1        26 1.86498E-04 2.17456E-06 0.00000E+00
 -1        27 1.84356E-04-1.08138E-05 0.00000E+00
 -1        28 1.84025E-04-2.06206E-05 0.00000E+00
 -1        32 0.00000E+00 0.00000E+00 0.00000E+00
 -1        33 1.94244E-04 2.90980E-06 0.00000E+00
 -1        34 1.92174E-04-1.08658E-05 0.00000E+00
 -1        35 1.90281E-04-2.09555E-05 0.00000E+00
 -1        51 2.33237E-03-9.38874E-08-6.61744E-24
 -1        52 2.33051E-03-1.71753E-07 0.00000E+00
 -1        53 2.32796E-03-2.47141E-07 0.00000E+00
 -1        54 2.32488E-03-3.22245E-07 0.00000E+00
 -1        55 2.32146E-03-3.98700E-07-1.65436E-24
 -1        56 2.32894E-03 1.26266E-06 0.00000E+00
 -1        57 2.32255E-03 7.27196E-06 0.00000E+00
 -1        58 2.31481E-03 1.68236E-05-1.05879E-22
 -1        59 2.30628E-03 2.83523E-05 0.00000E+00
 -1        60 2.29770E-03 3.99877E-05 0.00000E+00
 -1        61 2.28982E-03 4.98409E-05 5.29396E-23
 -1        62 2.28323E-03 5.63196E-05 1.05879E-22
 -1        63 2.27843E-03 5.81073E-05-5.29396E-23
 -1        64 2.27559E-03 5.46691E-05 0.00000E+00
 -1        65 2.27472E-03 4.59049E-05 0.00000E+00
 -1        66 2.27550E-03 3.26089E-05 0.00000E+00
 -1        67 2.27750E-03 1.59586E-05 5.29396E-23
 -1        68 2.28007E-03-2.30282E-06-1.05879E-22
 -1        69 2.28257E-03-2.02873E-05-5.29396E-23
 -1        70 2.28430E-03-3.61674E-05 0.00000E+00
 -1        86 1.67597E-03-2.14169E-06 2.64698E-23
 -1        87 1.79376E-03-1.02061E-05 0.00000E+00
 -1        88 1.95248E-03-2.34544E-05 0.00000E+00
 -1        89 2.11352E-03-3.70666E-05 0.00000E+00
 -1        90 2.23705E-03-4.57742E-05 0.00000E+00
 -1       121 3.22564E-04-5.70629E-07 1.32349E-23
 -1       122 3.20168E-04-1.14372E-06-6.61744E-24
 -1       123 3.16185E-04-1.72170E-06 1.32349E-23
 -1       124 3.10631E-04-2.30705E-06 0.00000E+00
 -1       125 3.03525E-04-2.90177E-06 0.00000E+00
 -1       191 1.71307E-04 1.31355E-07 3.10193E-24
 -1       192 1.71442E-04 2.62701E-07-1.13737E-24
 -1       193 1.71666E-04 3.94032E-07-3.10193E-24
 -1       194 1.71981E-04 5.25337E-07 6.20385E-25
 -1       195 1.72385E-04 6.56607E-07 2.68834E-24
 -1       251 2.31716E-03 1.65652E-05 0.00000E+00
 -1       252 2.31563E-03 6.10767E-05 0.00000E+00
 -1       253 2.31313E-03 1.24754E-04 0.00000E+00
 -1       254 2.30993E-03 1.98860E-04 0.00000E+00
 -1       255 2.30682E-03 2.71845E-04 0.00000E+00
 -1       256 2.30451E-03 3.32184E-04 0.00000E+00
 -1       257 2.30317E-03 3.71755E-04-1.32349E-23
 -1       258 2.30252E-03 3.82910E-04 6.61744E-24
 -1       259 2.30179E-03 3.65338E-04 0.00000E+00
 -1       260 2.30019E-03 3.19423E-04-6.61744E-24
 -1       261 2.29750E-03 2.52864E-04-1.32349E-23
 -1       262 2.29394E-03 1.73830E-04-6.61744E-24
 -1       263 2.29031E-03 9.38468E-05 0.00000E+00
 -1       264 2.28744E-03 2.44604E-05 0.00000E+00
 -1       265 2.28564E-03-2.56536E-05 2.64698E-23
 -1       266 2.31477E-03-4.94820E-07-3.30872E-24
 -1       267 2.31166E-03-5.00943E-07 0.00000E+00
 -1       268 2.30855E-03-5.07568E-07 0.00000E+00
 -1       269 2.30545E-03-5.12708E-07 0.00000E+00
 -1       270 2.30234E-03-5.17814E-07 2.06795E-25
 -1       271 2.31604E-03 2.15798E-06 0.00000E+00
 -1       272 2.31435E-03 4.33612E-06 1.32349E-23
 -1       273 2.31287E-03 5.97438E-06 0.00000E+00
 -1       274 2.31161E-03 6.98772E-06 0.00000E+00
 -1       275 2.31062E-03 7.30030E-06 0.00000E+00
 -1       276 2.30992E-03 6.84155E-06-1.32349E-23
 -1       277 2.30954E-03 5.54893E-06 0.00000E+00
 -1       278 2.30948E-03 3.36770E-06 1.32349E-23
 -1       279 2.30977E-03 2.52026E-07-2.64698E-23
 -1       280 2.31042E-03-3.83498E-06 0.00000E+00
 -1       281 2.31145E-03-8.92043E-06-2.64698E-23
 -1       282 2.31284E-03-1.50220E-05 0.00000E+00
 -1       283 2.31462E-03-2.21471E-05 0.00000E+00
 -1       284 2.31677E-03-3.02924E-05 0.00000E+00
 -1       285 2.31929E-03-3.94465E-05 0.00000E+00
 -1       301 2.29162E-03-4.84926E-05-1.32349E-23
 -1       302 2.29717E-03-4.87058E-05 3.30872E-24
 -1       303 2.30221E-03-4.89137E-05 0.00000E+00
 -1       304 2.30754E-03-4.91218E-05 0.00000E+00
 -1       305 2.31394E-03-4.93378E-05 0.00000E+00
 -1       306 2.31982E-03-1.87408E-04 0.00000E+00
 -1       307 2.38438E-03-5.69989E-04 0.00000E+00
 -1       308 2.43826E-03-1.13477E-03 0.00000E+00
 -1       309 2.47303E-03-1.79467E-03 0.00000E+00
 -1       310 2.51228E-03-2.43341E-03-1.05879E-22
 -1       311 2.57354E-03-2.93661E-03 5.29396E-23
 -1       312 2.63303E-03-3.22802E-03 0.00000E+00
 -1       313 2.63925E-03-3.26676E-03 0.00000E+00
 -1       314 2.52814E-03-3.06009E-03 1.05879E-22
 -1       315 2.26099E-03-2.66114E-03 0.00000E+00
 -1       316 1.85138E-03-2.14022E-03-1.05879E-22
 -1       317 1.35476E-03-1.56442E-03 5.29396E-23
 -1       318 8.71527E-04-9.96766E-04 0.00000E+00
 -1       319 4.98137E-04-5.02666E-04-5.29396E-23
 -1       320 2.75935E-04-1.50793E-04 0.00000E+00
 -1       336 2.84454E-04-4.20425E-06 1.32349E-23
 -1       337 2.71918E-04-4.92342E-06-6.61744E-24
 -1       338 2.57357E-04-5.66845E-06-1.32349E-23
 -1       339 2.40852E-04-6.44013E-06 0.00000E+00
 -1       340 2.22492E-04-7.24303E-06-1.32349E-23
 -1       406 1.73463E-04 9.18993E-07 3.10193E-24
 -1       407 1.74137E-04 1.05006E-06 3.10193E-25
 -1       408 1.74901E-04 1.18098E-06-1.55096E-24
 -1       409 1.75755E-04 1.31159E-06 2.06795E-25
 -1       410 1.76699E-04 1.44163E-06 2.48154E-24
 -1       521 2.35795E-03-1.97627E-04-1.05879E-22
 -1       522 2.42139E-03-5.99331E-04 0.00000E+00
 -1       523 2.47015E-03-1.19046E-03 0.00000E+00
 -1       524 2.49719E-03-1.87774E-03 0.00000E+00
 -1       525 2.52961E-03-2.54214E-03-1.05879E-22
 -1       526 2.58772E-03-3.06673E-03-5.29396E-23
 -1       527 2.64688E-03-3.36926E-03 2.11758E-22
 -1       528 2.65155E-03-3.40773E-03-5.29396E-23
 -1       529 2.53097E-03-3.18895E-03 1.05879E-22
 -1       530 2.24403E-03-2.77264E-03 0.00000E+00
 -1       531 1.80460E-03-2.23253E-03 1.05879E-22
 -1       532 1.27351E-03-1.63867E-03 5.29396E-23
 -1       533 7.56011E-04-1.05247E-03-1.05879E-22
 -1       534 3.53332E-04-5.37857E-04 0.00000E+00
 -1       535 1.12233E-04-1.67412E-04 0.00000E+00
 -1       536 2.01682E-04 2.51529E-05 0.00000E+00
 -1       537 1.99927E-04 8.27553E-05 0.00000E+00
 -1       538 1.97220E-04 1.55887E-04-3.30872E-24
 -1       539 1.94028E-04 2.35609E-04-1.65436E-24
 -1       540 1.91154E-04 3.10949E-04-3.30872E-24
 -1       541 1.89282E-04 3.70957E-04-1.65436E-24
 -1       542 1.88412E-04 4.09155E-04 0.00000E+00
 -1       543 1.88196E-04 4.19207E-04 0.00000E+00
 -1       544 1.87888E-04 4.01864E-04 0.00000E+00
 -1       545 1.86802E-04 3.58085E-04-1.65436E-24
 -1       546 1.84792E-04 2.95662E-04-3.30872E-24
 -1       547 1.82081E-04 2.22504E-04 0.00000E+00
 -1       548 1.79396E-04 1.49743E-04 0.00000E+00
 -1       549 1.77458E-04 8.85095E-05 0.00000E+00
 -1       550 1.76446E-04 4.64863E-05-1.65436E-24
 -1       551 1.78396E-04-8.60930E-06 0.00000E+00
 -1       552 1.51272E-04-9.23062E-06 0.00000E+00
 -1       553 1.21932E-04-9.90896E-06 4.96308E-24
 -1       554 9.13203E-05-1.06247E-05-3.30872E-24
 -1       555 6.03797E-05-1.13521E-05-2.64698E-23
 -1       556 1.95140E-04 1.04696E-05 0.00000E+00
 -1       557 1.89300E-04 2.54741E-05 0.00000E+00
 -1       558 1.84731E-04 3.72286E-05 0.00000E+00
 -1       559 1.81305E-04 4.60317E-05 0.00000E+00
 -1       560 1.78898E-04 5.21820E-05 0.00000E+00
 -1       561 1.77387E-04 5.59806E-05 0.00000E+00
 -1       562 1.76653E-04 5.77299E-05 0.00000E+00
 -1       563 1.76577E-04 5.77328E-05 0.00000E+00
 -1       564 1.77042E-04 5.62934E-05 0.00000E+00
 -1       565 1.77932E-04 5.37162E-05 0.00000E+00
 -1       566 1.79132E-04 5.03062E-05 0.00000E+00
 -1       567 1.80529E-04 4.63688E-05 0.00000E+00
 -1       568 1.82007E-04 4.22096E-05 8.27181E-25
 -1       569 1.83455E-04 3.81339E-05 0.00000E+00
 -1       570 1.84758E-04 3.44475E-05 0.00000E+00
 -1       571 1.76270E-04 2.93106E-05 1.65436E-24
 -1       572 1.76366E-04 2.73240E-05 4.13590E-25
 -1       573 1.76463E-04 2.52889E-05 0.00000E+00
 -1       574 1.76560E-04 2.32209E-05-8.27181E-25
 -1       575 1.76657E-04 2.11359E-05 0.00000E+00
 -1       576 1.76754E-04 1.90493E-05 0.00000E+00
 -1       577 1.76852E-04 1.69772E-05 0.00000E+00
 -1       578 1.76949E-04 1.49351E-05 0.00000E+00
 -1       579 1.77046E-04 1.29389E-05 0.00000E+00
 -1       580 1.77144E-04 1.10043E-05 0.00000E+00
 -1       581 1.77241E-04 9.14715E-06-6.61744E-24
 -1       582 1.77339E-04 7.38314E-06 0.00000E+00
 -1       583 1.77437E-04 5.72802E-06 0.00000E+00
 -1       584 1.77535E-04 4.19738E-06 0.00000E+00
 -1       585 1.77634E-04 2.80662E-06-6.61744E-24
 -1       586 1.77738E-04 3.12721E-05-1.65436E-24
 -1       587 1.79261E-04 3.13099E-05 0.00000E+00
 -1       588 1.80787E-04 3.13472E-05 0.00000E+00
 -1       589 1.82358E-04 3.13840E-05 0.00000E+00
 -1       590 1.84018E-04 3.14195E-05 0.00000E+00
 -1       591 1.76831E-04 2.93991E-05-1.03398E-25
 -1       592 1.77491E-04 2.75435E-05 0.00000E+00
 -1       593 1.78157E-04 2.56730E-05 0.00000E+00
 -1       594 1.78825E-04 2.37923E-05 0.00000E+00
 -1       595 1.79496E-04 2.19062E-05 0.00000E+00
 -1       596 1.80166E-04 2.00196E-05 4.13590E-25
 -1       597 1.80835E-04 1.81372E-05-8.27181E-25
 -1       598 1.81501E-04 1.62638E-05 0.00000E+00
 -1       599 1.82161E-04 1.44042E-05-8.27181E-25
 -1       600 1.82815E-04 1.25631E-05 0.00000E+00
 -1       601 1.83460E-04 1.07453E-05 0.00000E+00
 -1       602 1.84094E-04 8.95560E-06-2.06795E-25
 -1       603 1.84716E-04 7.19875E-06-8.27181E-25
 -1       604 1.85325E-04 5.47964E-06 7.75482E-26
 -1       605 1.85918E-04 3.80294E-06 4.13590E-25
 -1       606 1.77745E-04 5.59479E-07 0.00000E+00
 -1       607 1.77755E-04-3.63751E-07 0.00000E+00
 -1       608 1.77764E-04-1.20493E-06 0.00000E+00
 -1       609 1.77772E-04-1.96981E-06-1.65436E-24
 -1       610 1.77781E-04-2.66424E-06 0.00000E+00
 -1       611 1.77789E-04-3.29409E-06 0.00000E+00
 -1       612 1.77798E-04-3.86524E-06 0.00000E+00
 -1       613 1.77806E-04-4.38361E-06 0.00000E+00
 -1       614 1.77815E-04-4.85510E-06 0.00000E+00
 -1       615 1.77823E-04-5.28559E-06 0.00000E+00
 -1       616 1.77832E-04-5.68100E-06 0.00000E+00
 -1       617 1.77841E-04-6.04722E-06 0.00000E+00
 -1       618 1.77849E-04-6.39015E-06 0.00000E+00
 -1       619 1.77858E-04-6.71570E-06 0.00000E+00
 -1       620 1.77866E-04-7.02975E-06 0.00000E+00
 -1       621 1.78928E-04 1.67116E-06 0.00000E+00
 -1       622 1.80271E-04 1.77269E-06-8.27181E-25
 -1       623 1.81730E-04 1.87405E-06 0.00000E+00
 -1       624 1.83276E-04 1.97511E-06-1.65436E-24
 -1       625 1.84875E-04 2.07590E-06-1.65436E-24
 -1       626 1.78220E-04 5.94668E-07 0.00000E+00
 -1       627 1.78685E-04-3.15671E-07 0.00000E+00
 -1       628 1.79129E-04-1.16899E-06-6.61744E-24
 -1       629 1.79555E-04-1.97348E-06 1.65436E-24
 -1       630 1.79965E-04-2.73736E-06 0.00000E+00
 -1       631 1.80364E-04-3.46884E-06 1.65436E-24
 -1       632 1.80754E-04-4.17616E-06 3.30872E-24
 -1       633 1.81137E-04-4.86757E-06 0.00000E+00
 -1       634 1.81518E-04-5.55128E-06 0.00000E+00
 -1       635 1.81899E-04-6.23553E-06 1.65436E-24
 -1       636 1.82283E-04-6.92855E-06-3.30872E-24
 -1       637 1.82673E-04-7.63858E-06 0.00000E+00
 -1       638 1.83073E-04-8.37386E-06 3.30872E-24
 -1       639 1.83485E-04-9.14263E-06 0.00000E+00
 -1       640 1.83912E-04-9.95315E-06-1.65436E-24
 -1       656 1.78414E-04-7.90316E-06 6.61744E-24
 -1       657 1.79370E-04-8.49104E-06-6.61744E-24
 -1       658 1.80603E-04-9.07752E-06 0.00000E+00
 -1       659 1.81967E-04-9.66365E-06-6.61744E-24
 -1       660 1.83278E-04-1.02516E-05 6.61744E-24
 -1       661 1.78076E-04-7.69024E-06 8.27181E-25
 -1       662 1.78316E-04-8.13113E-06 8.27181E-25
 -1       663 1.78586E-04-8.65593E-06 0.00000E+00
 -1       664 1.78886E-04-9.25845E-06-8.27181E-25
 -1       665 1.79213E-04-9.93315E-06 0.00000E+00
 -1       666 1.79565E-04-1.06744E-05-8.27181E-25
 -1       667 1.79940E-04-1.14768E-05 1.65436E-24
 -1       668 1.80336E-04-1.23351E-05 0.00000E+00
 -1       669 1.80751E-04-1.32442E-05-1.65436E-24
 -1       670 1.81183E-04-1.41990E-05 8.27181E-25
 -1       671 1.81630E-04-1.51945E-05 0.00000E+00
 -1       672 1.82091E-04-1.62261E-05 0.00000E+00
 -1       673 1.82563E-04-1.72889E-05-1.65436E-24
 -1       674 1.83044E-04-1.83785E-05 0.00000E+00
 -1       675 1.83534E-04-1.94900E-05 0.00000E+00
 -1       676 1.78186E-04-2.01122E-05 0.00000E+00
 -1       677 1.79358E-04-2.02146E-05 0.00000E+00
 -1       678 1.80528E-04-2.03169E-05-3.30872E-24
 -1       679 1.81697E-04-2.04188E-05-1.65436E-24
 -1       680 1.82863E-04-2.05208E-05 0.00000E+00
 -1       771 1.86857E-05 1.32502E-05 0.00000E+00
 -1       772 9.11414E-06 3.40626E-05 0.00000E+00
 -1       773 1.24777E-06 5.05704E-05 5.29396E-23
 -1       774-5.03028E-06 6.30192E-05 0.00000E+00
 -1       775-9.83459E-06 7.16644E-05 0.00000E+00
 -1       776-1.32843E-05 7.67770E-05-2.64698E-23
 -1       777-1.54986E-05 7.86371E-05-5.29396E-23
 -1       778-1.65990E-05 7.75378E-05 2.64698E-23
 -1       779-1.67065E-05 7.37801E-05 0.00000E+00
 -1       780-1.59442E-05 6.76754E-05-2.64698E-23
 -1       781-1.44345E-05 5.95415E-05 0.00000E+00
 -1       782-1.23010E-05 4.97045E-05 2.64698E-23
 -1       783-9.66671E-06 3.84945E-05 5.29396E-23
 -1       784-6.65597E-06 2.62475E-05-2.64698E-23
 -1       785-3.39206E-06 1.33023E-05-5.29396E-23
 -1       786 1.85845E-04 2.93974E-05 0.00000E+00
 -1       787 1.85887E-04 2.73929E-05 4.13590E-25
 -1       788 1.85930E-04 2.54294E-05-8.27181E-25
 -1       789 1.85973E-04 2.34989E-05 0.00000E+00
 -1       790 1.86016E-04 2.15967E-05 0.00000E+00
 -1       791 1.86060E-04 1.97182E-05-8.27181E-25
 -1       792 1.86103E-04 1.78611E-05-1.65436E-24
 -1       793 1.86147E-04 1.60234E-05-8.27181E-25
 -1       794 1.86191E-04 1.42049E-05 1.65436E-24
 -1       795 1.86234E-04 1.24054E-05 0.00000E+00
 -1       796 1.86278E-04 1.06268E-05-1.65436E-24
 -1       797 1.86322E-04 8.87104E-06-8.27181E-25
 -1       798 1.86366E-04 7.14232E-06-1.65436E-24
 -1       799 1.86409E-04 5.44498E-06 0.00000E+00
 -1       800 1.86453E-04 3.78651E-06 0.00000E+00
 -1       801 1.42730E-04 2.82194E-05-2.64698E-23
 -1       802 1.23675E-05 1.77005E-05 2.64698E-23
 -1       803-9.94523E-05 8.99968E-06 5.29396E-23
 -1       804-8.89762E-05 6.23778E-06 0.00000E+00
 -1       805-2.94807E-05 2.50066E-06 5.29396E-23
 -1       806 1.86463E-04 2.93306E-05 1.65436E-24
 -1       807 1.87107E-04 2.72360E-05 0.00000E+00
 -1       808 1.87739E-04 2.51725E-05-3.30872E-24
 -1       809 1.88357E-04 2.31440E-05-1.65436E-24
 -1       810 1.88961E-04 2.11544E-05 0.00000E+00
 -1       811 1.89548E-04 1.92073E-05 0.00000E+00
 -1       812 1.90119E-04 1.73068E-05 0.00000E+00
 -1       813 1.90670E-04 1.54564E-05-1.65436E-24
 -1       814 1.91201E-04 1.36600E-05 0.00000E+00
 -1       815 1.91711E-04 1.19213E-05-1.65436E-24
 -1       816 1.92198E-04 1.02440E-05-1.65436E-24
 -1       817 1.92661E-04 8.63192E-06-8.27181E-25
 -1       818 1.93098E-04 7.08876E-06-1.65436E-24
 -1       819 1.93508E-04 5.61825E-06 0.00000E+00
 -1       820 1.93890E-04 4.22405E-06 1.65436E-24
 -1       821 1.86372E-04 1.58679E-07 0.00000E+00
 -1       822 1.86236E-04-2.70713E-06 0.00000E+00
 -1       823 1.86099E-04-6.08780E-06 0.00000E+00
 -1       824 1.85960E-04-9.64507E-06-1.65436E-24
 -1       825 1.85821E-04-1.29938E-05 3.30872E-24
 -1       826 1.85684E-04-1.57500E-05 0.00000E+00
 -1       827 1.85549E-04-1.76886E-05 3.30872E-24
 -1       828 1.85415E-04-1.85895E-05 0.00000E+00
 -1       829 1.85282E-04-1.85107E-05-3.30872E-24
 -1       830 1.85148E-04-1.75161E-05-1.65436E-24
 -1       831 1.85014E-04-1.59153E-05-3.30872E-24
 -1       832 1.84879E-04-1.40212E-05 0.00000E+00
 -1       833 1.84744E-04-1.22257E-05 0.00000E+00
 -1       834 1.84612E-04-1.09199E-05 0.00000E+00
 -1       835 1.84480E-04-1.03640E-05 0.00000E+00
 -1       836 1.87996E-04 2.29653E-06-3.30872E-24
 -1       837 1.89369E-04 2.42154E-06 0.00000E+00
 -1       838 1.90648E-04 2.54647E-06 0.00000E+00
 -1       839 1.91866E-04 2.67071E-06 0.00000E+00
 -1       840 1.93054E-04 2.79478E-06 0.00000E+00
 -1       856 1.84339E-04-1.16964E-05-8.27181E-25
 -1       857 1.84318E-04-1.24455E-05 0.00000E+00
 -1       858 1.84298E-04-1.30817E-05 0.00000E+00
 -1       859 1.84278E-04-1.36261E-05-2.06795E-25
 -1       860 1.84257E-04-1.40994E-05 0.00000E+00
 -1       861 1.84236E-04-1.45226E-05 0.00000E+00
 -1       862 1.84216E-04-1.49167E-05 8.27181E-25
 -1       863 1.84195E-04-1.53028E-05 4.13590E-25
 -1       864 1.84174E-04-1.57020E-05 0.00000E+00
 -1       865 1.84153E-04-1.61351E-05-4.13590E-25
 -1       866 1.84133E-04-1.66233E-05 0.00000E+00
 -1       867 1.84112E-04-1.71874E-05 0.00000E+00
 -1       868 1.84091E-04-1.78485E-05 0.00000E+00
 -1       869 1.84069E-04-1.86272E-05-4.13590E-25
 -1       870 1.84048E-04-1.95444E-05 8.27181E-25
 -1       871 1.85520E-04-1.08181E-05 0.00000E+00
 -1       872 1.86827E-04-1.08258E-05 0.00000E+00
 -1       873 1.88213E-04-1.08341E-05 4.13590E-25
 -1       874 1.89610E-04-1.08432E-05 2.58494E-26
 -1       875 1.90953E-04-1.08528E-05 8.27181E-25
 -1       876 1.84811E-04-1.16822E-05 6.61744E-24
 -1       877 1.85245E-04-1.24850E-05 1.65436E-24
 -1       878 1.85658E-04-1.32300E-05 0.00000E+00
 -1       879 1.86052E-04-1.39244E-05 0.00000E+00
 -1       880 1.86430E-04-1.45755E-05 3.30872E-24
 -1       881 1.86794E-04-1.51907E-05 0.00000E+00
 -1       882 1.87148E-04-1.57771E-05 0.00000E+00
 -1       883 1.87493E-04-1.63419E-05 1.65436E-24
 -1       884 1.87834E-04-1.68925E-05 0.00000E+00
 -1       885 1.88171E-04-1.74359E-05-1.65436E-24
 -1       886 1.88509E-04-1.79795E-05 0.00000E+00
 -1       887 1.88849E-04-1.85305E-05-1.65436E-24
 -1       888 1.89194E-04-1.90961E-05 0.00000E+00
 -1       889 1.89547E-04-1.96837E-05 0.00000E+00
 -1       890 1.89911E-04-2.03004E-05 0.00000E+00
 -1       891 1.85208E-04-2.06768E-05 0.00000E+00
 -1       892 1.86369E-04-2.07332E-05 8.27181E-25
 -1       893 1.87481E-04-2.07895E-05 8.27181E-25
 -1       894 1.88520E-04-2.08456E-05-4.13590E-25
 -1       895 1.89462E-04-2.09015E-05 4.13590E-25
 -1       956 1.94116E-04 1.76485E-06 3.30872E-24
 -1       957 1.93987E-04 7.08476E-07-1.65436E-24
 -1       958 1.93857E-04-2.69669E-07 0.00000E+00
 -1       959 1.93728E-04-1.18051E-06 1.65436E-24
 -1       960 1.93598E-04-2.03501E-06 0.00000E+00
 -1       961 1.93468E-04-2.84417E-06 0.00000E+00
 -1       962 1.93338E-04-3.61899E-06 0.00000E+00
 -1       963 1.93209E-04-4.37052E-06 1.65436E-24
 -1       964 1.93079E-04-5.10977E-06 3.30872E-24
 -1       965 1.92949E-04-5.84776E-06 1.65436E-24
 -1       966 1.92819E-04-6.59553E-06 0.00000E+00
 -1       967 1.92690E-04-7.36410E-06-1.65436E-24
 -1       968 1.92560E-04-8.16449E-06-3.30872E-24
 -1       969 1.92431E-04-9.00767E-06 0.00000E+00
 -1       970 1.92301E-04-9.90462E-06 0.00000E+00
 -1       971 1.92057E-04-1.18248E-05 3.30872E-24
 -1       972 1.91938E-04-1.26901E-05-1.65436E-24
 -1       973 1.91819E-04-1.34721E-05 0.00000E+00
 -1       974 1.91700E-04-1.41815E-05-1.65436E-24
 -1       975 1.91581E-04-1.48291E-05-3.30872E-24
 -1       976 1.91462E-04-1.54257E-05 0.00000E+00
 -1       977 1.91343E-04-1.59819E-05 3.30872E-24
 -1       978 1.91224E-04-1.65087E-05-1.65436E-24
 -1       979 1.91106E-04-1.70167E-05 0.00000E+00
 -1       980 1.90987E-04-1.75169E-05 0.00000E+00
 -1       981 1.90868E-04-1.80199E-05 0.00000E+00
 -1       982 1.90749E-04-1.85366E-05-1.65436E-24
 -1       983 1.90631E-04-1.90777E-05 0.00000E+00
 -1       984 1.90512E-04-1.96541E-05 0.00000E+00
 -1       985 1.90395E-04-2.02765E-05 0.00000E+00
 -3
    1PSTEP                        34          17           1          
  100CL  117 6.52222E-01         409                     0   17           1
 -4  STRESS      6    1
 -5  SXX         1    4    1    1
 -5  SYY         1    4    2    2
 -5  SZZ         1    4    3    3
 -5  SXY         1    4    1    2
 -5  SYZ         1    4    2    3
 -5  SZX         1    4    3    1
 -1         1-4.70300E+06-1.69742E+06-1.02982E+06-1.62054E+06 2.09548E-09-1.67231E-07
 -1         2 2.92680E+05 2.77610E+06 1.15553E+06 1.46168E+06 1.50321E-08 9.94660E-08
 -1         3-1.16264E+03-1.62254E+06 6.11648E+02-2.04847E+03-3.13509E-10-2.65572E-09
 -1         5-5.79503E+01 3.76084E+05 9.71571E+00-1.11714E+00-4.96249E-10-3.33184E-08
 -1         8-6.62413E+05-2.17505E+05-6.61977E+04-2.49303E+05 3.23780E-10-8.95125E-08
 -1         9 9.22975E+06 2.41532E+05 1.70367E+06-1.03243E+06 1.85450E-08 1.11642E-07
 -1        10-3.56170E+03-1.72858E+06-5.13932E+03-1.51001E+04-5.60431E-09-2.47866E-08
 -1        12-5.40926E+01 3.76104E+05 3.18343E+02-7.69840E+00-5.30150E-10 1.23637E-08
 -1        15 1.16912E+03 6.42491E+02 3.77915E+03 1.57008E+00-3.51022E-10 1.87473E-07
 -1        16 1.95748E+07-1.69218E+05 2.72826E+06-1.64731E+06 7.50879E-09 2.71946E-07
 -1        17 7.05873E+06 5.12332E+06 1.90155E+06 4.99867E+06 3.88915E-08 2.79630E-08
 -1        18 1.25093E+05 2.88366E+04 7.56992E+02-1.15221E+05 1.70487E-08-1.15060E-08
 -1        19 1.19358E+05 1.38050E+05-9.23788E+02 2.16231E+04 1.34896E-09 6.37592E-09
 -1        20-7.80830E+04-5.59929E+05-1.25511E+05 2.55889E+04-1.60677E-09-1.53947E-08
 -1        21-4.52500E+01-2.91216E+05-9.11206E+02 2.34237E+02 1.04004E-08 6.12012E-09
 -1        24 1.16353E+07 9.95584E+06 3.26279E+06 9.25384E+06-1.50962E-07-4.54214E-08
 -1        25 9.42739E+04 1.54270E+05 7.10767E+04-5.78791E+05-1.10731E-09 2.10548E-09
 -1        26-5.36691E+04 8.97928E+04-2.40312E+04 6.01897E+02 3.17596E-10-9.32704E-09
 -1        27-7.51006E+04-3.02862E+05-1.10988E+05 6.74199E+04 4.11622E-09-8.46315E-09
 -1        28 2.19417E+04-8.37198E+04 1.66146E+04 2.06552E+04-3.26366E-09 1.63452E-08
 -1        32-1.65075E+06-3.06846E+06-1.83159E+05 3.37746E+05-4.01706E-08-1.15994E-08
 -1        33-1.74617E+05 9.04929E+04 3.15947E+04-3.80531E+04-2.45075E-09 1.05835E-08
 -1        34-2.18936E+05-2.42808E+04 6.65411E+02 7.35870E+04-4.62680E-09-7.16333E-09
 -1        35-2.25897E+04-3.32054E+04-1.32160E+03 5.06715E+04-2.66228E-09-6.03056E-09
 -1        51 5.30212E+04-1.98550E+05 1.13907E+05-5.83222E+05-2.91038E-10 2.06011E-07
 -1        52 1.87683E+04-1.79791E+05 6.09641E+04-6.79960E+05 4.43833E-10-4.66942E-07
 -1        53 4.82755E+03-1.95320E+05 3.36490E+04-5.81092E+05 7.78527E-10-1.04723E-07
 -1        54 1.03487E+04-1.91559E+05 3.15029E+04-6.82166E+05-7.27596E-12-2.07525E-07
 -1        55 2.19429E+04-2.00452E+05 4.28228E+04-5.80810E+05 2.11003E-10-9.81818E-08
 -1        56-8.79842E+06-1.02830E+06-7.65756E+05-3.48017E+06-1.21072E-08-2.01457E-07
 -1        57-9.38699E+06-1.41467E+06-5.12505E+05-3.10847E+06 8.65839E-10 9.91495E-08
 -1        58-8.88206E+06-1.33079E+06-1.79224E+05-3.50127E+06 3.96649E-08 1.31862E-07
 -1        59-9.28747E+06-1.06348E+06-1.06264E+05-3.09845E+06-1.96646E-08-1.34118E-07
 -1        60-8.90156E+06-1.36691E+06-4.17596E+04-3.49740E+06-8.96580E-09 3.07846E-08
 -1        61-9.19620E+06-1.07826E+06-2.16914E+04-3.15954E+06 3.80442E-09-1.00158E-07
 -1        62-8.96658E+06-1.31906E+06-1.44173E+04-3.43578E+06-2.18279E-09 3.88809E-08
 -1        63-9.03569E+06-1.21556E+06-5.41266E+03-3.31174E+06-2.79342E-08 1.11431E-07
 -1        64-9.05346E+06-1.23536E+06-1.45974E+04-3.33901E+06-8.60018E-09 1.76849E-07
 -1        65-8.88882E+06-1.37596E+06-1.82128E+04-3.49691E+06-8.64384E-09-6.93916E-08
 -1        66-9.11715E+06-1.15631E+06-3.85328E+04-3.25342E+06 4.41687E-08 6.15983E-08
 -1        67-8.83271E+06-1.50727E+06-9.41909E+04-3.61549E+06-3.72384E-08 1.73045E-07
 -1        68-9.11983E+06-1.09835E+06-1.58876E+05-3.22717E+06-1.11650E-08 3.32002E-08
 -1        69-8.99178E+06-1.75798E+06-4.56663E+05-3.56074E+06 2.03727E-09-2.74820E-07
 -1        70-8.95983E+06-9.13498E+05-6.80373E+05-3.30559E+06-4.16403E-08 1.27387E-07
 -1        86-2.96716E+05-5.82759E+06-6.31578E+05-7.10996E+05-1.31059E-07 7.74235E-08
 -1        87 4.05406E+05-6.74751E+05 5.20202E+05 1.77602E+06-2.16040E-07 4.05826E-08
 -1        88-4.71334E+04-2.76259E+06 3.30234E+04-1.05384E+06-1.97231E-07 1.43030E-07
 -1        89 5.50572E+05-7.98771E+05 4.96934E+05 1.82889E+06-2.82420E-07-8.11779E-08
 -1        90-4.20879E+05-5.72426E+06-7.07531E+05-7.66835E+05-6.15073E-08-7.02712E-08
 -1       121-1.62787E+03-1.62650E+06-8.76843E+01 1.01740E+03 1.30410E-09 2.52185E-08
 -1       122-9.21851E+02-1.62253E+06 1.25243E+03-4.09571E+03-4.87483E-09-2.01071E-08
 -1       123-1.71023E+03-1.62668E+06 1.32926E+03 3.03777E+03 3.66504E-09 3.48518E-09
 -1       124 1.51167E+03-1.62148E+06 5.04685E+03-8.54985E+03-9.53605E-09 5.35492E-08
 -1       125-3.08853E+03-1.62803E+06 7.03090E+03 5.44226E+03 5.71345E-09-1.60035E-08
 -1       191-6.11367E+01 3.76105E+05 9.03577E+00 5.78082E-01-5.05127E-10-1.53577E-08
 -1       192-5.88773E+01 3.76084E+05 2.06956E+01-3.66443E+00-6.68253E-10 7.24322E-09
 -1       193-6.35828E+01 3.76104E+05 3.59812E+01 3.20633E+00-9.59982E-10-6.15546E-09
 -1       194-6.18521E+01 3.76087E+05 7.85839E+01-8.34410E+00-5.18679E-10-2.13986E-08
 -1       195-6.82788E+01 3.76102E+05 1.51197E+02 5.39238E+00-1.22341E-09-1.95960E-08
 -1       251-1.90496E+06-1.58858E+04-1.72580E+05-1.17834E+05 1.04847E-08 4.02433E-08
 -1       252-1.20470E+06 2.10250E+04 2.21865E+04 3.72479E+05-1.93031E-08 1.98391E-07
 -1       253-1.58788E+06-8.40105E+03-3.06689E+04-2.39634E+05-5.92354E-09-1.16096E-07
 -1       254-1.52733E+06 4.34381E+04 3.36357E+03 4.85587E+05 2.84968E-08-2.36662E-07
 -1       255-1.61466E+06-1.19744E+04-1.81480E+04-2.33428E+05 1.83873E-08-9.80845E-08
 -1       256-1.13778E+06 3.61689E+04 8.49836E+04 3.47496E+05 4.92073E-08 2.32741E-07
 -1       257-1.93934E+06-3.20351E+04-8.39073E+04-9.88192E+04 1.50540E-08 5.58786E-08
 -1       258-7.80949E+05 2.90450E+04 1.53731E+05 7.89875E+02 7.75799E-09 1.49864E-07
 -1       259-1.93635E+06-3.33398E+04-8.15982E+04 1.11241E+05-1.46119E-08 2.03363E-07
 -1       260-1.14523E+06 4.19874E+04 8.96333E+04-3.42658E+05-1.65419E-08-1.40492E-07
 -1       261-1.61067E+06-1.61120E+04-7.79988E+03 2.43013E+05 3.92656E-08-1.07139E-07
 -1       262-1.52732E+06 6.06019E+04 2.79018E+04-4.76314E+05-2.61264E-08-3.90872E-09
 -1       263-1.59189E+06-2.13826E+04 8.39409E+03 2.48000E+05 1.38216E-08 1.62730E-07
 -1       264-1.16958E+06 1.00672E+05 1.30569E+05-3.64262E+05 1.19251E-07 5.06479E-08
 -1       265-1.93558E+06-8.26273E+04-2.02570E+04 1.28117E+05 4.10546E-08 3.82606E-08
 -1       266-2.11650E+04-9.89723E+03 4.96570E+04-3.35938E+01 8.36735E-11 4.54943E-09
 -1       267 2.45360E+04 1.15347E+04 3.50980E+04 3.87619E+01 0.00000E+00 3.90777E-08
 -1       268-3.29023E+03-1.63368E+03 1.30457E+04-4.93887E+00-7.73070E-11 6.67934E-08
 -1       269 3.88479E+03 1.95512E+03 8.47954E+03 5.75313E+00 2.53635E-10 1.52499E-08
 -1       270-5.83112E+02-3.21243E+02 4.09319E+03-7.80736E-01-4.77485E-11-2.73779E-08
 -1       271-1.88757E+06-2.28217E+05-1.39857E+05-7.23455E+05 9.28594E-09 4.03234E-08
 -1       272-1.97389E+06-2.94558E+05-8.99852E+04-6.81587E+05 4.76442E-08 1.69743E-07
 -1       273-1.91374E+06-2.63379E+05-3.30683E+04-7.17367E+05 1.88866E-08 2.33211E-07
 -1       274-1.94227E+06-2.52196E+05-1.84772E+04-6.91103E+05-3.46049E-08 8.14598E-08
 -1       275-1.91814E+06-2.66342E+05-7.77022E+03-7.15350E+05 3.62616E-08 1.28366E-08
 -1       276-1.93548E+06-2.50006E+05-3.98916E+03-6.94903E+05-3.65026E-09 1.43111E-07
 -1       277-1.92009E+06-2.65340E+05-2.08061E+03-7.13484E+05-1.85428E-08-1.50444E-08
 -1       278-1.93147E+06-2.52817E+05-1.19887E+03-6.98606E+05-1.70667E-08-1.98295E-07
 -1       279-1.92184E+06-2.63683E+05-1.39980E+03-7.11448E+05-1.87210E-08 3.51897E-08
 -1       280-1.92783E+06-2.56654E+05-1.97228E+03-7.02632E+05 1.54614E-09 1.19581E-07
 -1       281-1.92352E+06-2.61653E+05-3.89861E+03-7.09310E+05 9.45147E-09 9.19099E-08
 -1       282-1.92568E+06-2.62841E+05-8.69330E+03-7.06647E+05-3.24872E-08 2.03825E-07
 -1       283-1.92395E+06-2.57766E+05-1.58392E+04-7.07306E+05-3.58705E-09 7.31388E-08
 -1       284-1.93549E+06-2.87906E+05-4.24938E+04-7.07977E+05-8.40373E-10-1.60440E-07
 -1       285-1.91408E+06-2.38682E+05-6.64030E+04-7.07267E+05 2.00089E-09 2.88856E-08
 -1       301 9.30354E+03-5.45748E+05 1.72878E+05-9.48008E+05 3.35422E-09-3.01152E-08
 -1       302 1.04137E+04-5.01102E+05 1.04663E+05-1.38533E+06 2.72848E-09 1.65835E-07
 -1       303-9.33027E+03-5.33312E+05 6.20825E+04-9.45564E+05 4.36557E-11 8.93306E-09
 -1       304-3.75939E+03-5.05865E+05 6.75792E+04-1.38460E+06 1.32422E-09 4.59877E-08
 -1       305-8.11475E+03-5.28124E+05 8.99377E+04-9.48419E+05 1.08230E-09 1.53639E-07
 -1       306-2.74479E+07-5.60035E+06-7.65854E+06-1.04595E+06-1.08033E-07 2.07045E-07
 -1       307 2.28520E+07 2.19173E+06 4.93835E+06-1.31543E+07-8.38147E-07 4.77303E-09
 -1       308-7.66080E+06-8.07748E+05-5.54501E+05 4.66481E+06-1.67813E-07 2.60421E-07
 -1       309-3.59108E+06 6.83370E+06 1.87945E+06-1.89381E+07 4.36470E-07 3.21568E-07
 -1       310-1.12235E+07-1.36021E+06-1.50942E+06 4.56818E+06-2.49420E-07 1.73022E-08
 -1       311 3.11171E+07-1.33872E+05 6.11202E+06-8.88099E+06 3.46277E-07 2.75904E-08
 -1       312-2.85245E+07-5.71465E+06-7.29715E+06-3.99553E+06 2.18628E-07-4.79486E-08
 -1       313 4.04964E+07 1.12541E+07 9.32091E+06 1.93018E+07-1.56928E-07-6.07688E-08
 -1       314-1.69772E+07-1.48667E+07-6.64457E+06-1.13917E+07 4.11121E-07-1.39291E-07
 -1       315-8.53309E+05 2.51522E+07 5.08627E+06 1.07175E+07-5.62504E-07 2.61469E-07
 -1       316 4.70307E+05-9.27402E+06-5.19417E+05-3.37068E+06-1.05635E-06-2.29717E-07
 -1       317-1.70852E+07 2.02089E+07 1.84559E+06-6.38839E+06 7.54568E-07-6.47611E-07
 -1       318-1.20107E+06-1.09270E+07-1.55596E+06-4.40216E+06-8.52364E-07 7.24685E-08
 -1       319 5.16792E+06 2.65316E+07 5.87959E+06 1.41139E+07-1.52620E-07 2.22586E-07
 -1       320-2.04098E+07-1.51135E+07-8.49398E+06-1.13598E+07 1.89524E-07-7.80565E-08
 -1       336 4.76745E+02-1.83652E+06-1.82605E+04 9.52390E+03-9.63973E-09 1.31549E-08
 -1       337-7.08835E+03-1.83775E+06-2.15910E+04-2.32982E+04-7.04586E-09-6.88306E-09
 -1       338 8.53234E+02-1.83646E+06-3.09720E+04 1.35571E+04-1.15679E-08 3.34330E-09
 -1       339-3.31354E+04-1.85554E+06-6.89729E+04-3.11662E+04-9.39690E-09-6.67569E-10
 -1       340 2.28171E+04-1.82095E+06-1.07231E+05 1.72755E+04-1.36642E-08 2.50184E-08
 -1       406-3.22882E+01 3.76088E+05 6.25843E+02 2.68687E+00-1.63046E-09-2.07037E-08
 -1       407 1.65337E+02 3.76215E+05 1.33577E+03 2.09186E+01-2.84686E-10-2.08211E-08
 -1       408 6.31763E+02 3.75990E+05 2.66442E+03-2.39960E+01-2.15800E-09-3.25235E-09
 -1       409 2.83467E+03 3.77066E+05 6.00372E+03 2.53681E+02-6.30166E-10 9.59699E-09
 -1       410 8.24122E+03 3.75226E+05 1.22540E+04-2.44065E+02-2.69392E-09-5.87170E-09
 -1       521-2.90128E+07-6.87818E+06-8.94342E+06-7.28441E+05-5.39003E-08-3.74275E-08
 -1       522 2.36435E+07 2.89034E+06 5.02078E+06-1.62928E+07-4.47617E-07-2.76079E-07
 -1       523-8.38853E+06-1.09450E+06-5.69040E+05 5.10866E+06 2.46800E-08-3.19837E-07
 -1       524-6.78649E+06 9.39340E+06 2.03570E+06-2.18759E+07 9.01608E-07-9.10779E-07
 -1       525-1.21520E+07-1.86401E+06-1.65856E+06 5.00331E+06 5.27070E-07-5.10132E-07
 -1       526 3.37681E+07-1.61413E+05 6.42716E+06-1.13872E+07-5.21541E-08-1.08994E-07
 -1       527-3.03085E+07-7.17960E+06-8.39708E+06-3.88525E+06 2.86615E-07 5.13246E-08
 -1       528 4.42782E+07 1.23630E+07 9.72893E+06 2.18676E+07-1.20839E-07 9.10659E-08
 -1       529-1.79974E+07-1.68373E+07-7.61524E+06-1.15679E+07 9.61008E-08-7.00238E-08
 -1       530-3.12110E+06 2.93156E+07 5.37963E+06 1.06624E+07-1.76646E-07 3.02447E-07
 -1       531 4.03157E+05-1.04022E+07-5.18437E+05-3.49219E+06-8.12317E-07 3.69007E-07
 -1       532-1.99880E+07 2.24386E+07 2.02431E+06-9.91669E+06 2.29920E-07-6.99758E-07
 -1       533-1.27395E+06-1.20767E+07-1.64450E+06-4.42860E+06-1.83936E-07-9.86503E-07
 -1       534 3.20730E+06 3.08344E+07 6.12706E+06 1.46323E+07-1.54832E-08 6.91711E-07
 -1       535-2.15637E+07-1.72177E+07-9.70890E+06-1.15293E+07 9.59262E-08 4.20492E-07
 -1       536-6.79603E+05-4.64105E+04-3.52999E+04-5.09788E+04-2.00271E-09 6.79192E-08
 -1       537-8.07358E+04 4.50686E+04 8.28280E+04 1.16763E+05-1.12944E-07 1.05576E-07
 -1       538-3.93367E+05 2.50324E+03 5.49894E+03-6.86292E+04 3.58926E-08 7.88250E-08
 -1       539-2.78694E+05 3.10014E+03 2.40403E+04 1.31450E+05 1.49319E-07 9.66430E-08
 -1       540-4.86570E+05-3.50964E+02-1.87786E+04-6.61321E+04-3.19255E-09 1.15497E-07
 -1       541 1.01078E+05 1.55256E+04 9.74524E+04 9.18702E+04-1.23337E-08 7.90983E-08
 -1       542-7.62914E+05-1.84480E+04-7.68923E+04-2.82889E+04 5.70321E-08 4.98950E-08
 -1       543 3.37633E+05 2.50107E+04 1.44379E+05-1.27379E+04-2.75011E-08-1.12668E-08
 -1       544-7.16790E+05-1.50812E+04-6.83340E+04 3.78921E+04-2.76314E-08-4.33092E-08
 -1       545-7.20417E+03 8.52427E+03 7.25931E+04-1.07163E+05-1.09595E-08-6.07497E-08
 -1       546-4.27322E+05 5.69640E+03-1.12637E+04 6.58379E+04 3.62802E-08-7.99496E-08
 -1       547-2.95650E+05-4.68385E+03 8.96477E+03-1.34227E+05-1.24460E-07-1.03087E-07
 -1       548-4.36082E+05 4.59007E+03-2.27797E+04 6.55570E+04-1.12430E-07-8.58040E-08
 -1       549 1.12465E+04 1.28499E+04 5.28733E+04-1.04864E+05-5.21236E-08-7.47641E-08
 -1       550-7.26002E+05-1.86961E+04-1.21589E+05 3.58493E+04 4.83124E-09-5.77911E-08
 -1       551 3.89759E+04-7.70297E+05-9.29492E+03-1.22558E+06-9.94041E-08-1.17579E-08
 -1       552 8.83068E+04-8.11408E+05 1.36856E+04-1.74778E+06-6.95436E-08 3.62343E-08
 -1       553 6.74688E+04-8.08968E+05 3.45676E+04-1.21926E+06-1.14858E-07 3.36004E-08
 -1       554 1.25664E+05-8.25049E+05 8.40428E+04-1.74973E+06-7.20684E-08 9.59517E-09
 -1       555 9.71309E+04-8.31996E+05 1.52545E+05-1.21923E+06-1.17921E-07-9.50240E-09
 -1       556 2.11382E+05-3.64964E+05 3.51513E+04-3.94366E+05-2.74449E-08-3.37022E-08
 -1       557 3.38126E+05-4.66084E+05 2.07783E+04-5.09008E+05-1.51340E-08 5.85715E-09
 -1       558 1.95251E+05-3.60268E+05 4.69300E+03-3.96873E+05-1.70839E-08 1.86847E-08
 -1       559 3.13955E+05-4.67749E+05 3.49529E+03-5.27845E+05 2.42144E-08 1.64728E-08
 -1       560 1.81297E+05-3.51500E+05-7.69037E+02-4.06875E+05 2.88128E-09 1.73095E-08
 -1       561 2.96290E+05-4.60768E+05 4.12216E+02-5.39832E+05-1.35187E-08 8.99672E-09
 -1       562 1.70262E+05-3.44625E+05-1.05149E+03-4.14855E+05-6.17001E-09 3.81988E-10
 -1       563 2.83191E+05-4.55057E+05 4.23092E+01-5.48374E+05-1.52868E-08-2.90020E-08
 -1       564 1.62423E+05-3.39736E+05-4.95525E+02-4.20407E+05-1.61526E-09-2.86805E-08
 -1       565 2.74570E+05-4.51304E+05 4.46988E+01-5.53878E+05 6.05360E-09 2.11649E-08
 -1       566 1.57895E+05-3.36869E+05-2.18968E+02-4.23575E+05-2.47383E-09-9.08585E-09
 -1       567 2.70469E+05-4.49519E+05-3.27948E+02-5.56359E+05 1.89993E-08 5.22414E-09
 -1       568 1.56763E+05-3.36178E+05-1.03717E+03-4.24463E+05 1.78261E-10 1.20053E-08
 -1       569 2.69554E+05-4.49466E+05-2.62100E+03-5.54862E+05-5.65888E-09 4.13747E-08
 -1       570 1.60077E+05-3.39288E+05-5.74653E+03-4.23501E+05 5.18048E-09-1.81899E-09
 -1       571 2.82975E+05 1.02423E+04 1.46740E+04-9.08801E+04 1.37952E-08 1.07784E-08
 -1       572 2.85108E+05 3.82788E+03 7.19124E+03-9.97036E+04 2.55764E-08 8.31324E-09
 -1       573 2.83823E+05 1.17449E+03 3.19526E+03-9.07085E+04 9.92895E-09 1.37470E-08
 -1       574 2.84038E+05 6.61727E+02 1.60226E+03-9.99193E+04 1.96155E-09 1.63936E-08
 -1       575 2.83916E+05 3.93251E+02 7.56160E+02-9.06851E+04-1.61600E-09 2.11739E-08
 -1       576 2.83904E+05 4.00059E+02 3.87007E+02-9.99481E+04-3.40674E-09 5.84441E-09
 -1       577 2.83952E+05 3.37835E+02 1.93115E+02-9.06820E+04-5.00677E-09 8.84393E-09
 -1       578 2.83930E+05 3.65223E+02 1.11275E+02-9.99521E+04-2.22599E-09-3.15686E-09
 -1       579 2.84017E+05 3.05240E+02 7.62545E+01-9.06816E+04 5.37511E-09-4.39377E-09
 -1       580 2.84021E+05 3.19545E+02 8.79007E+01-9.99474E+04-9.33778E-09 1.40626E-08
 -1       581 2.84120E+05 2.52925E+02 1.32757E+02-9.06873E+04 5.69162E-09-1.09276E-08
 -1       582 2.84181E+05 2.88396E+02 2.69235E+02-9.98886E+04 2.67028E-09-1.14978E-08
 -1       583 2.84246E+05 2.99160E+02 5.17376E+02-9.07411E+04 1.19289E-08 3.56272E-09
 -1       584 2.84532E+05 7.20208E+02 1.16997E+03-9.94352E+04 2.79924E-08-2.50309E-08
 -1       585 2.84262E+05 1.71005E+03 2.37012E+03-9.11400E+04 9.99353E-09-1.15615E-08
 -1       586-3.34293E+03 1.11790E+05-2.98441E+03-2.45068E+05-4.76757E-09 9.88598E-09
 -1       587-1.24547E+03 1.11519E+05 6.70321E+02-2.69719E+05-6.22458E-09-8.66521E-10
 -1       588 4.58023E+02 1.11355E+05 4.57864E+03-2.44935E+05-2.46109E-09-4.56293E-09
 -1       589 5.01389E+03 1.13742E+05 1.19471E+04-2.69484E+05-7.31052E-09-1.48038E-08
 -1       590 1.61777E+04 1.10061E+05 2.50896E+04-2.45356E+05-5.68525E-09 2.20098E-10
 -1       591-7.15986E+04-1.55145E+04-2.17436E+04-3.08297E+04 2.80579E-10 4.28736E-09
 -1       592-7.54552E+04-1.90380E+04-1.17780E+04-3.44310E+04 1.68573E-09-6.63931E-11
 -1       593-7.37739E+04-1.39360E+04-4.90263E+03-3.24233E+04-8.00692E-09 1.52545E-09
 -1       594-7.24518E+04-1.58487E+04-2.44507E+03-3.45463E+04-7.99088E-09 1.89075E-08
 -1       595-7.39397E+04-1.39307E+04-1.12259E+03-3.24957E+04-4.11354E-09 1.11201E-08
 -1       596-7.22462E+04-1.57029E+04-5.70564E+02-3.45220E+04 4.43436E-10 2.01400E-08
 -1       597-7.39606E+04-1.39455E+04-3.10457E+02-3.24984E+04 3.81874E-09 1.58456E-08
 -1       598-7.22260E+04-1.56971E+04-2.49148E+02-3.45152E+04-1.13951E-08-3.07364E-09
 -1       599-7.39593E+04-1.39460E+04-3.17728E+02-3.24981E+04 1.08287E-09-2.15268E-08
 -1       600-7.22463E+04-1.57035E+04-5.89813E+02-3.45200E+04 4.56930E-09-1.42414E-08
 -1       601-7.39354E+04-1.39319E+04-1.16335E+03-3.24947E+04 7.52402E-09-1.20860E-08
 -1       602-7.24593E+04-1.58536E+04-2.53529E+03-3.45415E+04-1.14985E-08-1.10467E-08
 -1       603-7.37607E+04-1.39402E+04-5.08425E+03-3.24203E+04-3.44494E-09 1.89148E-08
 -1       604-7.55908E+04-1.91421E+04-1.22135E+04-3.43979E+04-8.41271E-09 6.88829E-09
 -1       605-7.14855E+04-1.55944E+04-2.25477E+04-3.07865E+04-4.94970E-09-7.99173E-09
 -1       606 2.68655E+04-1.39186E+04-2.49567E+04 2.43569E+04 7.07041E-09-2.86263E-10
 -1       607 2.26007E+04-4.54287E+03-1.24283E+04 2.73682E+04-1.96451E-10-1.25942E-09
 -1       608 2.50302E+04-8.16823E+02-5.56387E+03 2.41825E+04-3.85626E-09 9.35370E-09
 -1       609 2.45632E+04-2.76276E+02-2.81067E+03 2.75851E+04 1.61526E-09-1.57593E-08
 -1       610 2.48213E+04-3.55474E+01-1.34112E+03 2.41620E+04 2.84399E-09-2.06383E-08
 -1       611 2.47469E+04-3.45124E+01-6.76180E+02 2.76085E+04 6.73754E-09-1.79648E-09
 -1       612 2.47743E+04-2.14789E+01-3.21574E+02 2.41599E+04 1.20599E-09 1.74282E-09
 -1       613 2.47570E+04-2.98432E+01-1.44187E+02 2.76113E+04 4.59568E-09-7.21730E-09
 -1       614 2.47518E+04-2.71040E+01-3.40806E+01 2.41592E+04 5.52154E-09-3.49246E-10
 -1       615 2.47508E+04-2.78545E+01 5.98326E+01 2.76117E+04 4.00541E-09 5.99880E-09
 -1       616 2.47343E+04-2.36229E+01 1.79961E+02 2.41595E+04 1.11868E-08-2.23440E-09
 -1       617 2.47718E+04 1.09382E+01 4.10831E+02 2.76112E+04 1.42413E-08-1.16381E-08
 -1       618 2.46980E+04 9.51517E+01 8.28168E+02 2.41597E+04 8.28322E-09-1.71660E-08
 -1       619 2.50637E+04 6.51556E+02 1.85978E+03 2.76106E+04 3.07296E-10 1.67247E-08
 -1       620 2.44227E+04 2.05921E+03 3.73811E+03 2.41609E+04 1.47679E-10 7.16454E-09
 -1       621 4.77073E+02 2.93256E+05 3.72101E+03 3.79151E+04 9.44965E-10-7.22139E-09
 -1       622 6.25804E+02 2.94123E+05 3.31533E+03 5.50555E+04 1.13505E-09-3.57250E-09
 -1       623 1.21041E+02 2.93447E+05 4.00222E+03 3.77428E+04 1.13596E-09 1.79080E-09
 -1       624 2.03122E+03 2.95316E+05 7.77294E+03 5.52255E+04 1.28398E-09 2.33922E-09
 -1       625 1.99260E+03 2.91907E+05 1.35901E+04 3.77398E+04 1.34514E-09 5.22846E-09
 -1       626 2.54256E+05 6.05527E+04 5.04692E+03 1.24401E+05-6.26596E-09 8.16362E-09
 -1       627 2.51927E+05 6.19747E+04 2.43207E+03 1.28662E+05-6.80393E-09 2.90565E-08
 -1       628 2.54385E+05 5.82398E+04 1.02849E+03 1.25254E+05-1.89266E-09 3.14571E-08
 -1       629 2.51295E+05 6.13093E+04 5.03412E+02 1.28903E+05-2.55113E-09 8.79790E-09
 -1       630 2.54399E+05 5.81283E+04 2.33514E+02 1.25289E+05-3.64071E-09 7.54869E-09
 -1       631 2.51228E+05 6.12845E+04 1.25668E+02 1.28905E+05 1.29421E-09 7.37214E-09
 -1       632 2.54394E+05 5.81327E+04 8.27107E+01 1.25285E+05 1.38975E-08-2.79315E-08
 -1       633 2.51219E+05 6.12867E+04 9.21536E+01 1.28901E+05 2.85736E-08-2.01599E-08
 -1       634 2.54389E+05 5.81302E+04 1.48938E+02 1.25284E+05 7.12475E-09-3.44062E-09
 -1       635 2.51232E+05 6.12853E+04 3.01387E+02 1.28906E+05-8.37349E-09 1.28796E-08
 -1       636 2.54380E+05 5.81249E+04 6.08656E+02 1.25283E+05 2.29534E-09-2.15714E-08
 -1       637 2.51363E+05 6.13800E+04 1.33823E+03 1.28905E+05 1.45519E-10-1.49757E-08
 -1       638 2.54332E+05 5.84206E+04 2.74960E+03 1.25150E+05 3.19778E-09 8.03857E-09
 -1       639 2.52807E+05 6.33888E+04 6.50560E+03 1.28480E+05 6.96514E-09 3.93852E-08
 -1       640 2.54133E+05 6.44182E+04 1.35003E+04 1.22621E+05-2.27237E-09-4.15730E-09
 -1       656 6.51038E+04-1.66498E+06-1.57157E+05-2.27493E+03-1.07684E-09-1.19468E-08
 -1       657-8.61206E+04-1.73599E+06-1.30182E+05 5.50317E+03 2.72848E-12-1.01659E-09
 -1       658 2.07473E+04-1.68515E+06-8.01597E+04-4.28802E+03-1.67574E-10 4.55424E-09
 -1       659-9.30823E+04-1.73930E+06-1.39330E+05 7.15087E+03-1.87356E-09-2.10617E-10
 -1       660 7.20499E+04-1.66169E+06-1.72885E+05-3.92261E+03-2.66300E-09 7.81824E-09
 -1       661 1.60013E+05 1.68093E+04 1.67286E+04 6.25545E+04 1.27875E-09 6.60202E-09
 -1       662 1.69414E+05 2.92540E+04 1.12738E+04 5.88668E+04 9.01935E-10 5.80712E-09
 -1       663 1.63299E+05 2.21762E+04 3.94292E+03 6.16011E+04-7.48059E-10 3.50019E-09
 -1       664 1.65605E+05 2.29774E+04 2.35858E+03 6.00311E+04 4.24734E-10-4.80290E-09
 -1       665 1.63797E+05 2.29096E+04 9.30442E+02 6.14561E+04-2.63242E-10 3.05533E-11
 -1       666 1.65016E+05 2.21386E+04 5.44469E+02 6.02201E+04 1.14817E-08 5.66067E-09
 -1       667 1.63884E+05 2.29932E+04 2.89200E+02 6.14199E+04 1.08369E-09-1.54534E-08
 -1       668 1.64920E+05 2.20781E+04 2.94682E+02 6.02727E+04-4.36881E-09-1.69914E-08
 -1       669 1.63892E+05 2.29683E+04 3.98963E+02 6.14038E+04-4.42458E-09 1.20948E-08
 -1       670 1.65017E+05 2.22946E+04 8.68755E+02 6.02755E+04-6.28594E-09-4.64760E-09
 -1       671 1.63787E+05 2.27813E+04 1.54254E+03 6.14151E+04-4.39051E-10-4.67639E-09
 -1       672 1.65916E+05 2.37953E+04 3.94655E+03 6.00578E+04 8.10866E-09-1.45601E-08
 -1       673 1.62998E+05 2.15055E+04 6.61380E+03 6.16070E+04 4.11183E-09-8.77753E-09
 -1       674 1.72211E+05 3.44209E+04 1.89141E+04 5.82083E+04-5.22004E-09-1.65328E-08
 -1       675 1.57533E+05 1.24532E+04 2.80751E+04 6.31529E+04-6.07542E-10-4.46016E-09
 -1       676 2.37466E+01-2.91140E+05-1.09824E+03-1.17122E+02-8.44864E-10-5.04261E-09
 -1       677-2.90808E+02-2.91405E+05-2.00997E+03 2.34060E+02 7.16511E-09-2.57391E-10
 -1       678 1.94814E+02-2.90951E+05-3.55313E+03-1.16861E+02-3.84489E-10-1.85050E-08
 -1       679-3.55346E+03-2.93550E+05-8.44074E+03 2.33065E+02 7.38783E-09-2.51248E-08
 -1       680 2.12140E+03-2.88996E+05-1.36036E+04-1.14833E+02 8.29459E-10-1.42339E-09
 -1       771-3.02244E+06-7.22575E+05-1.51905E+05-1.43576E+06-3.05154E-08-2.58442E-08
 -1       772-2.94935E+06-8.07230E+05-7.83901E+04-1.53352E+06-1.84955E-08 1.74405E-08
 -1       773-3.05140E+06-6.99937E+05-3.97942E+04-1.44867E+06-1.47847E-08 1.14815E-08
 -1       774-2.94010E+06-7.90478E+05-1.77882E+04-1.55708E+06 1.39698E-08 1.70257E-09
 -1       775-3.06633E+06-6.89433E+05-1.31926E+04-1.45487E+06-8.44011E-09 4.19823E-09
 -1       776-2.95100E+06-7.87890E+05-4.95130E+03-1.57476E+06-4.61296E-09 2.16096E-09
 -1       777-3.07923E+06-6.80102E+05-5.78737E+03-1.46033E+06-2.09548E-09 8.65839E-09
 -1       778-2.96240E+06-7.85500E+05-1.64182E+03-1.58993E+06 1.33878E-09 5.43150E-09
 -1       779-3.09029E+06-6.71971E+05-2.87880E+03-1.46501E+06-3.36149E-09-7.27232E-09
 -1       780-2.97244E+06-7.83217E+05-4.77948E+02-1.60228E+06 3.08501E-09-4.34375E-09
 -1       781-3.09906E+06-6.65427E+05-1.11361E+03-1.46866E+06-1.85100E-08 2.35923E-09
 -1       782-2.98016E+06-7.81272E+05 4.06097E+02-1.61139E+06-3.36076E-08-5.86351E-09
 -1       783-3.10524E+06-6.60889E+05 6.34903E+02-1.47123E+06-9.61882E-09-2.01326E-08
 -1       784-2.98442E+06-7.79287E+05 2.61499E+03-1.61701E+06-1.83209E-08 9.90440E-10
 -1       785-3.10888E+06-6.58186E+05 4.61740E+03-1.47286E+06-3.54485E-08 6.27733E-09
 -1       786 1.24903E+05-9.71630E+03 2.24794E+04-2.98898E+02 2.63131E-09 1.00927E-08
 -1       787 1.34652E+05 1.12491E+04 1.59033E+04-1.16523E+02 3.78771E-09 1.37516E-08
 -1       788 1.28662E+05-1.52265E+03 5.81601E+03-2.64890E+02 2.41863E-09 9.21818E-09
 -1       789 1.30273E+05 1.76228E+03 3.65124E+03-1.68916E+02 4.24791E-10-1.25635E-08
 -1       790 1.29283E+05-2.37162E+02 1.47869E+03-2.46520E+02-4.48267E-09 4.18106E-09
 -1       791 1.29547E+05 2.74336E+02 8.54767E+02-2.00410E+02-8.00293E-09 2.98485E-09
 -1       792 1.29388E+05-3.58201E+01 3.63636E+02-2.33398E+02-3.17650E-09-3.36061E-09
 -1       793 1.29422E+05 3.83946E+01 1.84396E+02-2.25123E+02 7.25780E-10-2.24242E-08
 -1       794 1.29408E+05-1.37037E+00 5.41811E+01-2.21807E+02 4.53802E-09-3.60387E-10
 -1       795 1.29388E+05-2.20486E+01-4.07222E+01-2.49347E+02-5.00635E-09-6.14442E-09
 -1       796 1.29422E+05 2.45895E+01-1.33031E+02-2.09174E+02 4.14217E-09-1.41398E-09
 -1       797 1.29307E+05-1.84489E+02-3.73228E+02-2.78392E+02 2.74706E-09 2.98615E-08
 -1       798 1.29488E+05 1.60947E+02-6.08347E+02-1.92762E+02 1.31536E-09 1.51220E-08
 -1       799 1.28845E+05-1.18653E+03-1.67557E+03-3.18932E+02 5.85808E-09-1.00271E-08
 -1       800 1.29885E+05 1.02581E+03-2.37183E+03-1.68634E+02 1.20968E-10 1.25240E-08
 -1       801-1.30996E+05-9.26372E+06-1.26989E+06 1.23889E+06 8.75152E-08-4.92437E-08
 -1       802 6.24303E+05 4.80153E+06 1.89290E+06-1.50991E+06 2.42704E-07-2.95258E-08
 -1       803-4.70058E+05-1.29589E+07-1.66706E+06 7.87275E+05 7.24467E-08 1.84773E-08
 -1       804 2.43097E+05 1.62476E+06 1.33418E+06 6.19903E+05-1.11468E-07-7.79463E-08
 -1       805 1.74553E+05-6.10190E+06-2.53515E+05-8.85862E+05-4.64352E-08-5.69817E-08
 -1       806-3.01889E+05-5.82960E+04-2.22938E+04-1.19508E+05-1.80808E-09-1.88402E-09
 -1       807-3.03661E+05-5.46381E+04-1.09527E+04-1.24895E+05 1.14803E-08-5.44986E-09
 -1       808-3.02499E+05-5.02635E+04-4.64650E+03-1.23309E+05 9.50422E-11-7.39681E-09
 -1       809-3.01359E+05-5.15599E+04-2.27203E+03-1.25163E+05 7.97081E-09 1.56315E-08
 -1       810-3.02591E+05-4.99838E+04-1.04138E+03-1.23477E+05 7.44785E-09-5.51063E-09
 -1       811-3.01181E+05-5.14362E+04-5.17886E+02-1.25129E+05-3.26145E-09-3.03630E-08
 -1       812-3.02605E+05-5.00078E+04-2.61947E+02-1.23477E+05-3.32784E-09 9.71568E-09
 -1       813-3.01157E+05-5.14382E+04-1.70312E+02-1.25111E+05-3.39969E-09-1.93604E-08
 -1       814-3.02598E+05-5.00171E+04-1.68861E+02-1.23473E+05-9.83164E-10-1.07534E-08
 -1       815-3.01161E+05-5.14403E+04-2.72203E+02-1.25104E+05 6.29234E-09 1.43489E-08
 -1       816-3.02578E+05-5.00160E+04-5.15944E+02-1.23469E+05 4.50109E-09-6.93581E-09
 -1       817-3.01249E+05-5.14895E+04-1.10739E+03-1.25093E+05-1.47352E-08-1.14478E-08
 -1       818-3.02512E+05-5.01721E+04-2.25867E+03-1.23396E+05-6.98492E-09-4.27599E-09
 -1       819-3.02485E+05-5.28542E+04-5.31461E+03-1.24801E+05 1.31331E-09-3.21349E-08
 -1       820-3.02087E+05-5.41859E+04-1.08171E+04-1.21680E+05 2.91675E-09 2.22417E-09
 -1       821-3.72415E+05 2.05147E+04-4.76166E+04 1.74099E+03 1.18903E-08 5.01313E-09
 -1       822-3.92331E+05-2.37576E+04-3.35697E+04-3.48677E+03 4.12599E-09 2.01235E-08
 -1       823-3.80010E+05 3.22650E+03-1.23119E+04 2.65531E+03-1.04490E-08 2.01544E-09
 -1       824-3.83270E+05-3.72486E+03-7.72283E+03-4.02761E+03 1.13760E-09-6.05121E-09
 -1       825-3.81477E+05 5.01229E+02-3.21385E+03 2.28189E+03 1.64486E-08 5.75290E-09
 -1       826-3.81211E+05-5.70886E+02-1.79259E+03-2.20281E+03 2.22369E-08 1.75305E-10
 -1       827-3.82053E+05 6.33721E+01-1.10008E+03 8.30433E+02 5.79715E-09 1.18600E-08
 -1       828-3.80745E+05-1.51970E+02-7.02032E+02 9.88528E+02-3.95463E-09 2.25386E-09
 -1       829-3.81936E+05 7.72740E+01-1.09828E+03-9.09492E+02 2.06177E-09-3.18749E-09
 -1       830-3.81469E+05-6.14745E+02-1.91021E+03 3.80463E+03 1.38814E-09 3.60419E-09
 -1       831-3.81343E+05 5.36659E+02-3.30412E+03-1.98569E+03-4.66559E-09 1.10158E-08
 -1       832-3.83355E+05-3.88178E+03-8.02169E+03 4.70596E+03-2.43306E-09 2.29408E-08
 -1       833-3.80060E+05 3.34851E+03-1.28010E+04-1.81085E+03-2.10720E-09-6.56109E-09
 -1       834-3.92489E+05-2.46600E+04-3.47977E+04 3.17268E+03-1.85471E-09-1.16052E-08
 -1       835-3.72199E+05 2.12890E+04-4.94557E+04-4.52365E+02 5.26242E-09-1.08084E-08
 -1       836-1.36977E+03 3.60499E+05 2.22704E+04-1.62605E+04-6.01449E-09 5.92581E-09
 -1       837 4.75720E+03 3.67470E+05 1.88620E+04-3.31493E+04-6.48674E-09 1.32377E-08
 -1       838-5.39249E+02 3.62451E+05 1.92420E+04-1.61896E+04-5.45515E-09-5.20777E-09
 -1       839 1.21288E+04 3.72960E+05 3.64236E+04-3.32002E+04-5.87170E-09 2.24686E-08
 -1       840-3.74311E+03 3.54951E+05 5.80924E+04-1.62145E+04-5.35147E-09 5.13662E-09
 -1       856-5.51561E+04 7.98933E+03-2.10537E+04-3.98524E+02 4.33022E-09 7.69342E-09
 -1       857-6.38322E+04-9.38533E+03-1.44933E+04 5.54387E+03 3.83119E-09 1.02391E-08
 -1       858-5.85912E+04 1.12032E+03-5.46302E+03-4.22524E+02 3.00645E-09-1.30372E-08
 -1       859-5.98899E+04-1.31625E+03-3.29689E+03 5.57984E+03 1.10072E-09-9.63860E-09
 -1       860-5.91044E+04 1.56783E+02-1.38208E+03-4.34263E+02-1.29663E-09-9.20511E-09
 -1       861-5.92995E+04-1.85517E+02-7.61044E+02 5.59585E+03 1.77924E-09 1.88835E-09
 -1       862-5.91846E+04 2.11747E+01-3.17830E+02-4.38518E+02-2.13047E-09 1.54381E-08
 -1       863-5.92014E+04-2.04357E+01-1.19122E+02 5.59827E+03-3.52182E-09 1.10075E-08
 -1       864-5.92030E+04-4.55324E+00 3.94623E+01-4.36688E+02-3.57421E-09 1.10518E-08
 -1       865-5.91480E+04 5.73134E+01 2.37359E+02 5.58796E+03-2.12161E-09 1.13895E-08
 -1       866-5.92359E+04-5.66348E+01 4.82209E+02-4.28205E+02-1.92114E-09-3.15907E-10
 -1       867-5.89201E+04 4.68128E+02 1.18941E+03 5.56490E+03 2.13549E-09-9.99722E-09
 -1       868-5.94260E+04-4.08073E+02 1.97703E+03-4.13631E+02-3.89889E-09 1.79156E-08
 -1       869-5.74699E+04 3.39618E+03 5.26511E+03 5.52682E+03 3.50553E-09-1.81533E-08
 -1       870-6.06786E+04-2.90534E+03 7.64069E+03-3.90041E+02-5.38876E-11-1.19153E-08
 -1       871-5.42208E+03-2.01143E+04-1.89847E+04 1.26937E+05-3.97267E-09 1.52959E-08
 -1       872-1.99110E+03-2.45134E+04-7.93462E+03 1.64591E+05-9.81345E-09 4.38831E-09
 -1       873 3.49484E+02-2.23931E+04 6.11630E+02 1.26658E+05-4.49290E-09-9.60654E-10
 -1       874 3.18157E+03-2.00123E+04 9.61247E+03 1.64622E+05-1.06920E-08-8.00424E-09
 -1       875 6.67240E+03-2.46828E+04 2.16562E+04 1.26891E+05-4.32556E-09-1.10440E-08
 -1       876 2.87742E+05 4.85759E+04 1.48243E+04 1.15566E+05 1.31990E-10 2.09557E-08
 -1       877 2.88713E+05 5.17064E+04 7.91677E+03 1.19826E+05-9.64064E-10 1.60838E-08
 -1       878 2.89128E+05 4.69340E+04 3.31674E+03 1.16781E+05-1.00235E-08-3.76872E-09
 -1       879 2.86698E+05 4.96956E+04 1.65259E+03 1.19927E+05-6.87578E-10 5.23710E-09
 -1       880 2.89227E+05 4.69169E+04 7.69735E+02 1.16830E+05-4.77894E-09 2.26805E-11
 -1       881 2.86564E+05 4.96096E+04 4.11012E+02 1.19904E+05-8.57199E-09 6.17936E-09
 -1       882 2.89236E+05 4.69299E+04 2.62876E+02 1.16832E+05-2.00316E-10 1.08192E-08
 -1       883 2.86555E+05 4.96051E+04 2.82496E+02 1.19897E+05 2.35559E-10 2.71882E-09
 -1       884 2.89230E+05 4.69271E+04 4.49289E+02 1.16832E+05 1.17453E-08-8.85581E-09
 -1       885 2.86590E+05 4.96114E+04 9.03259E+02 1.19907E+05 2.06957E-08-2.94114E-08
 -1       886 2.89195E+05 4.69008E+04 1.82045E+03 1.16829E+05 6.60107E-09-2.20978E-08
 -1       887 2.86910E+05 4.98212E+04 3.97651E+03 1.19954E+05 4.07454E-09 1.04695E-08
 -1       888 2.88943E+05 4.69450E+04 8.01279E+03 1.16701E+05 1.03682E-09-4.18595E-09
 -1       889 2.91681E+05 5.47818E+04 1.91411E+04 1.19807E+05 3.19325E-10-3.19696E-08
 -1       890 2.85674E+05 5.08291E+04 3.58508E+04 1.13651E+05 4.76120E-10-1.84082E-09
 -1       891-9.58234E+01-1.59705E+05-1.95469E+03 2.69009E+04-2.75668E-09-1.02204E-09
 -1       892-1.84459E+02-1.60217E+05-2.10069E+03 4.08351E+04 1.70803E-09-7.65704E-09
 -1       893 3.43893E+01-1.59767E+05-2.97570E+03 2.69080E+04-2.06182E-09 1.08976E-08
 -1       894-1.49321E+03-1.61341E+05-6.15956E+03 4.06845E+04 2.60570E-10-8.75252E-09
 -1       895-1.18418E+03-1.58484E+05-1.08473E+04 2.70528E+04-3.87104E-10 2.67210E-09
 -1       956-3.68989E+05-5.31360E+03-1.31467E+04 2.96814E+04 4.11001E-09-4.91900E-09
 -1       957-3.71570E+05-1.86489E+03-6.74807E+03 3.56775E+04 2.59297E-09-8.47467E-09
 -1       958-3.70169E+05-2.24126E+02-3.04083E+03 2.95182E+04-3.99814E-09-1.25599E-08
 -1       959-3.70363E+05-1.20048E+02-1.55275E+03 3.58664E+04 3.72529E-09-2.03934E-08
 -1       960-3.70283E+05-3.31821E+01-7.57183E+02 2.95015E+04 5.09226E-09-3.55044E-09
 -1       961-3.70283E+05-4.92394E+01-4.01501E+02 3.58861E+04 1.07093E-08 1.15126E-08
 -1       962-3.70310E+05-3.47722E+01-2.29905E+02 2.94987E+04 2.66255E-09 1.47547E-08
 -1       963-3.70283E+05-4.53802E+01-1.84632E+02 3.58896E+04 3.87490E-09 2.67414E-09
 -1       964-3.70315E+05-3.15584E+01-2.24582E+02 2.94980E+04 1.77732E-09-1.01336E-08
 -1       965-3.70295E+05-4.23876E+01-3.88479E+02 3.58890E+04-2.99906E-09-8.64793E-09
 -1       966-3.70300E+05-2.36306E+01-7.29918E+02 2.94994E+04 3.70505E-09-1.48771E-09
 -1       967-3.70384E+05-1.04119E+02-1.49708E+03 3.58753E+04-9.32687E-10-2.29647E-11
 -1       968-3.70199E+05-2.01570E+02-2.93066E+03 2.95116E+04-1.26192E-09-9.92117E-09
 -1       969-3.71560E+05-1.78098E+03-6.50609E+03 3.57331E+04 3.08501E-09-1.00012E-08
 -1       970-3.69069E+05-5.10470E+03-1.26741E+04 2.96344E+04 4.53838E-10 1.73131E-08
 -1       971-3.38657E+05-1.69978E+03-9.18851E+03 1.51645E+04 5.06225E-09 2.47221E-09
 -1       972-3.40871E+05-1.24812E+03-5.00397E+03 2.09950E+04 7.47013E-09 7.51561E-09
 -1       973-3.39680E+05-5.61541E+01-2.24128E+03 1.50442E+04 3.39605E-09 2.85922E-09
 -1       974-3.39816E+05-7.29872E+01-1.16174E+03 2.11305E+04-1.94450E-09 2.17892E-09
 -1       975-3.39761E+05-1.19373E+01-5.81029E+02 1.50321E+04-2.03590E-09-8.78447E-09
 -1       976-3.39755E+05-2.38510E+01-3.35779E+02 2.11460E+04 4.83260E-09-3.78077E-08
 -1       977-3.39777E+05-1.12603E+01-2.44722E+02 1.50288E+04-4.57794E-09-1.26458E-08
 -1       978-3.39760E+05-1.77538E+01-2.87763E+02 2.11507E+04-8.24275E-09-3.94982E-09
 -1       979-3.39777E+05-2.96896E+00-4.63538E+02 1.50274E+04-1.41108E-09 1.57204E-08
 -1       980-3.39795E+05-1.47569E+01-8.95783E+02 2.11516E+04 2.26089E-09-1.00025E-08
 -1       981-3.39748E+05 1.94150E+01-1.73532E+03 1.50279E+04-3.69789E-09-1.29093E-08
 -1       982-3.40033E+05-1.42973E+02-3.58708E+03 2.11451E+04 2.91357E-09-2.28823E-08
 -1       983-3.39530E+05-9.16963E+01-6.96984E+03 1.50339E+04-8.34007E-10-1.58141E-08
 -1       984-3.43385E+05-3.78310E+03-1.56087E+04 2.10605E+04 5.51154E-10 1.12052E-08
 -1       985-3.36374E+05-5.19180E+03-2.86624E+04 1.51060E+04-3.50656E-09 9.49512E-09
 -3
    1PSTEP                        35          18           1          
  100CL  118 6.57166E-01         409                     0   18           1
 -4  DISP        4    1
 -5  D1          1    2    1    0
 -5  D2          1    2    2    0
 -5  D3          1    2    3    0
 -5  ALL         1    2    0    0    1ALL
 -1         1 2.49423E-03 0.00000E+00 0.00000E+00
 -1         2 1.43800E-03 1.90447E-26 0.00000E+00
 -1         3 3.30488E-04-1.21772E-27-1.32349E-23
 -1         5 1.73932E-04 1.24188E-26 2.48154E-24
 -1         8 2.48035E-03-4.56811E-07 0.00000E+00
 -1         9 2.46596E-03-1.13044E-04 0.00000E+00
 -1        10 3.01345E-04-3.46444E-06-6.61744E-24
 -1        12 1.75654E-04 7.97759E-07 1.24077E-24
 -1        15 2.46398E-03-4.91533E-07 0.00000E+00
 -1        16 2.50968E-03-1.14512E-04 0.00000E+00
 -1        17 2.06548E-04-7.99688E-06 0.00000E+00
 -1        18 1.79246E-04 3.26833E-05 0.00000E+00
 -1        19 1.80820E-04 1.58945E-06 0.00000E+00
 -1        20 1.80961E-04-8.49211E-06 0.00000E+00
 -1        21 1.80085E-04-2.24645E-05 0.00000E+00
 -1        24 3.03313E-05-1.21147E-05 0.00000E+00
 -1        25 1.89401E-04 3.29046E-05 0.00000E+00
 -1        26 1.90088E-04 2.20137E-06 0.00000E+00
 -1        27 1.87919E-04-1.20060E-05 0.00000E+00
 -1        28 1.87595E-04-2.30804E-05 0.00000E+00
 -1        32 0.00000E+00 0.00000E+00 0.00000E+00
 -1        33 1.98344E-04 2.94528E-06 0.00000E+00
 -1        34 1.96252E-04-1.20599E-05 0.00000E+00
 -1        35 1.94341E-04-2.34188E-05 0.00000E+00
 -1        51 2.49332E-03-9.12007E-08 0.00000E+00
 -1        52 2.49164E-03-1.65544E-07-3.30872E-24
 -1        53 2.48934E-03-2.37043E-07 0.00000E+00
 -1        54 2.48659E-03-3.07902E-07 0.00000E+00
 -1        55 2.48353E-03-3.79805E-07 8.27181E-25
 -1        56 2.48931E-03 2.11458E-06 0.00000E+00
 -1        57 2.48186E-03 1.04673E-05 0.00000E+00
 -1        58 2.47279E-03 2.29869E-05 0.00000E+00
 -1        59 2.46305E-03 3.71743E-05 0.00000E+00
 -1        60 2.45374E-03 5.02687E-05 1.05879E-22
 -1        61 2.44588E-03 5.95917E-05 0.00000E+00
 -1        62 2.44025E-03 6.31127E-05 1.05879E-22
 -1        63 2.43738E-03 5.92953E-05 5.29396E-23
 -1        64 2.43731E-03 4.78737E-05-1.05879E-22
 -1        65 2.43984E-03 2.92442E-05-5.29396E-23
 -1        66 2.44433E-03 5.06655E-06 0.00000E+00
 -1        67 2.45001E-03-2.25078E-05 0.00000E+00
 -1        68 2.45591E-03-5.07280E-05 0.00000E+00
 -1        69 2.46108E-03-7.67777E-05-5.29396E-23
 -1        70 2.46464E-03-9.82372E-05 5.29396E-23
 -1        86 1.50230E-03-3.92689E-06 5.29396E-23
 -1        87 1.69007E-03-2.29615E-05 0.00000E+00
 -1        88 1.94251E-03-5.52101E-05 2.64698E-23
 -1        89 2.19781E-03-8.81912E-05 1.32349E-23
 -1        90 2.39260E-03-1.08484E-04 2.64698E-23
 -1       121 3.29669E-04-5.62483E-07 0.00000E+00
 -1       122 3.27217E-04-1.12755E-06 0.00000E+00
 -1       123 3.23140E-04-1.69773E-06 1.32349E-23
 -1       124 3.17453E-04-2.27562E-06 6.61744E-24
 -1       125 3.10179E-04-2.86334E-06 0.00000E+00
 -1       191 1.73980E-04 1.33016E-07 1.65436E-24
 -1       192 1.74124E-04 2.66021E-07 4.13590E-25
 -1       193 1.74363E-04 3.99010E-07 1.24077E-24
 -1       194 1.74698E-04 5.31970E-07 1.03398E-24
 -1       195 1.75128E-04 6.64890E-07-2.89513E-24
 -1       251 2.47980E-03 8.23695E-06 0.00000E+00
 -1       252 2.47909E-03 2.86154E-05 0.00000E+00
 -1       253 2.47821E-03 5.63895E-05 0.00000E+00
 -1       254 2.47724E-03 8.71123E-05-6.61744E-24
 -1       255 2.47633E-03 1.15605E-04 0.00000E+00
 -1       256 2.47560E-03 1.36738E-04 0.00000E+00
 -1       257 2.47503E-03 1.47203E-04 0.00000E+00
 -1       258 2.47450E-03 1.43923E-04 0.00000E+00
 -1       259 2.47384E-03 1.27195E-04 0.00000E+00
 -1       260 2.47290E-03 9.76059E-05 0.00000E+00
 -1       261 2.47167E-03 5.89079E-05 1.32349E-23
 -1       262 2.47023E-03 1.50423E-05 6.61744E-24
 -1       263 2.46879E-03-2.87650E-05 1.32349E-23
 -1       264 2.46756E-03-6.72893E-05 0.00000E+00
 -1       265 2.46662E-03-9.66222E-05 0.00000E+00
 -1       266 2.47762E-03-4.69236E-07 0.00000E+00
 -1       267 2.47489E-03-4.74214E-07 0.00000E+00
 -1       268 2.47216E-03-4.79663E-07 8.27181E-25
 -1       269 2.46943E-03-4.83716E-07 2.06795E-25
 -1       270 2.46671E-03-4.87735E-07 0.00000E+00
 -1       271 2.47894E-03 1.22802E-06 0.00000E+00
 -1       272 2.47808E-03 1.35824E-06 6.61744E-24
 -1       273 2.47780E-03-1.76995E-08 2.64698E-23
 -1       274 2.47805E-03-2.84713E-06 1.32349E-23
 -1       275 2.47881E-03-7.06118E-06-2.64698E-23
 -1       276 2.48006E-03-1.25800E-05 0.00000E+00
 -1       277 2.48176E-03-1.93108E-05 2.64698E-23
 -1       278 2.48386E-03-2.71504E-05 1.32349E-23
 -1       279 2.48632E-03-3.59852E-05-2.64698E-23
 -1       280 2.48911E-03-4.56922E-05 1.32349E-23
 -1       281 2.49216E-03-5.61405E-05 0.00000E+00
 -1       282 2.49544E-03-6.71926E-05 1.32349E-23
 -1       283 2.49888E-03-7.87051E-05-2.64698E-23
 -1       284 2.50244E-03-9.05300E-05 0.00000E+00
 -1       285 2.50605E-03-1.02518E-04-1.32349E-23
 -1       301 2.47390E-03-1.13316E-04-6.61744E-24
 -1       302 2.48047E-03-1.13550E-04 3.30872E-24
 -1       303 2.48648E-03-1.13778E-04 0.00000E+00
 -1       304 2.49280E-03-1.14006E-04 1.32349E-23
 -1       305 2.50025E-03-1.14244E-04 0.00000E+00
 -1       306 2.50203E-03-2.57999E-04 0.00000E+00
 -1       307 2.56640E-03-6.53795E-04 1.05879E-22
 -1       308 2.61732E-03-1.23624E-03 0.00000E+00
 -1       309 2.64741E-03-1.91431E-03 0.00000E+00
 -1       310 2.68315E-03-2.56737E-03 0.00000E+00
 -1       311 2.74358E-03-3.07702E-03 0.00000E+00
 -1       312 2.80241E-03-3.36498E-03 0.00000E+00
 -1       313 2.80407E-03-3.39145E-03 0.00000E+00
 -1       314 2.68012E-03-3.16572E-03 0.00000E+00
 -1       315 2.39073E-03-2.74587E-03 0.00000E+00
 -1       316 1.95146E-03-2.20509E-03-1.05879E-22
 -1       317 1.42233E-03-1.61165E-03 5.29396E-23
 -1       318 9.10009E-04-1.02774E-03-1.05879E-22
 -1       319 5.16171E-04-5.18727E-04 5.29396E-23
 -1       320 2.83277E-04-1.55698E-04 0.00000E+00
 -1       336 2.90651E-04-4.15272E-06 0.00000E+00
 -1       337 2.77812E-04-4.86637E-06 6.61744E-24
 -1       338 2.62895E-04-5.60721E-06 1.32349E-23
 -1       339 2.45983E-04-6.37618E-06 0.00000E+00
 -1       340 2.27166E-04-7.17800E-06 0.00000E+00
 -1       406 1.76276E-04 9.30559E-07 4.13590E-25
 -1       407 1.76993E-04 1.06325E-06-2.06795E-25
 -1       408 1.77807E-04 1.19580E-06-1.24077E-24
 -1       409 1.78716E-04 1.32802E-06-1.49926E-24
 -1       410 1.79720E-04 1.45965E-06 2.48154E-24
 -1       521 2.54648E-03-2.68572E-04 0.00000E+00
 -1       522 2.60946E-03-6.83732E-04 5.29396E-23
 -1       523 2.65481E-03-1.29265E-03-1.05879E-22
 -1       524 2.67672E-03-1.99797E-03-5.29396E-23
 -1       525 2.70534E-03-2.67642E-03 1.05879E-22
 -1       526 2.76250E-03-3.20722E-03 5.29396E-23
 -1       527 2.82095E-03-3.50580E-03 2.11758E-22
 -1       528 2.82077E-03-3.53139E-03 0.00000E+00
 -1       529 2.68651E-03-3.29296E-03 0.00000E+00
 -1       530 2.37605E-03-2.85562E-03-5.29396E-23
 -1       531 1.90545E-03-2.29606E-03 0.00000E+00
 -1       532 1.34046E-03-1.68532E-03-5.29396E-23
 -1       533 7.92642E-04-1.08356E-03 1.05879E-22
 -1       534 3.68414E-04-5.54301E-04 5.29396E-23
 -1       535 1.15964E-04-1.72618E-04-2.11758E-22
 -1       536 2.05824E-04 2.60170E-05-6.61744E-24
 -1       537 2.03993E-04 8.49537E-05-3.30872E-24
 -1       538 2.01167E-04 1.59762E-04-3.30872E-24
 -1       539 1.97833E-04 2.41309E-04-1.65436E-24
 -1       540 1.94832E-04 3.18372E-04 0.00000E+00
 -1       541 1.92879E-04 3.79750E-04 0.00000E+00
 -1       542 1.91975E-04 4.18835E-04-3.30872E-24
 -1       543 1.91754E-04 4.29161E-04 1.65436E-24
 -1       544 1.91440E-04 4.11491E-04 0.00000E+00
 -1       545 1.90314E-04 3.66799E-04-1.65436E-24
 -1       546 1.88222E-04 3.03038E-04 0.00000E+00
 -1       547 1.85396E-04 2.28274E-04 1.65436E-24
 -1       548 1.82597E-04 1.53897E-04 0.00000E+00
 -1       549 1.80576E-04 9.12954E-05 0.00000E+00
 -1       550 1.79524E-04 4.83163E-05 0.00000E+00
 -1       551 1.82001E-04-8.55518E-06 0.00000E+00
 -1       552 1.54268E-04-9.18994E-06 0.00000E+00
 -1       553 1.24284E-04-9.88399E-06 8.27181E-24
 -1       554 9.30004E-05-1.06170E-05 0.00000E+00
 -1       555 6.13674E-05-1.13625E-05 1.32349E-23
 -1       556 1.99118E-04 1.10107E-05 0.00000E+00
 -1       557 1.93121E-04 2.64138E-05 0.00000E+00
 -1       558 1.88423E-04 3.84943E-05 0.00000E+00
 -1       559 1.84896E-04 4.75561E-05 0.00000E+00
 -1       560 1.82411E-04 5.39035E-05 0.00000E+00
 -1       561 1.80846E-04 5.78431E-05 0.00000E+00
 -1       562 1.80076E-04 5.96830E-05 0.00000E+00
 -1       563 1.79981E-04 5.97320E-05 0.00000E+00
 -1       564 1.80442E-04 5.82997E-05 0.00000E+00
 -1       565 1.81340E-04 5.56964E-05 6.61744E-24
 -1       566 1.82559E-04 5.22330E-05 0.00000E+00
 -1       567 1.83982E-04 4.82207E-05 0.00000E+00
 -1       568 1.85492E-04 4.39708E-05 0.00000E+00
 -1       569 1.86976E-04 3.97946E-05-8.27181E-25
 -1       570 1.88317E-04 3.60036E-05 0.00000E+00
 -1       571 1.79342E-04 3.06667E-05 0.00000E+00
 -1       572 1.79439E-04 2.85856E-05-1.65436E-24
 -1       573 1.79537E-04 2.64553E-05-3.30872E-24
 -1       574 1.79635E-04 2.42918E-05 0.00000E+00
 -1       575 1.79733E-04 2.21110E-05 3.30872E-24
 -1       576 1.79832E-04 1.99292E-05 0.00000E+00
 -1       577 1.79930E-04 1.77623E-05 3.30872E-24
 -1       578 1.80028E-04 1.56266E-05 0.00000E+00
 -1       579 1.80127E-04 1.35380E-05 0.00000E+00
 -1       580 1.80225E-04 1.15128E-05-6.61744E-24
 -1       581 1.80324E-04 9.56706E-06 0.00000E+00
 -1       582 1.80423E-04 7.71683E-06 3.30872E-24
 -1       583 1.80522E-04 5.97824E-06-6.61744E-24
 -1       584 1.80621E-04 4.36719E-06 0.00000E+00
 -1       585 1.80720E-04 2.89945E-06 6.61744E-24
 -1       586 1.80897E-04 3.27223E-05 1.65436E-24
 -1       587 1.82507E-04 3.27607E-05 4.13590E-25
 -1       588 1.84120E-04 3.27987E-05 0.00000E+00
 -1       589 1.85778E-04 3.28361E-05 0.00000E+00
 -1       590 1.87525E-04 3.28723E-05 0.00000E+00
 -1       591 1.79936E-04 3.07576E-05 1.03398E-25
 -1       592 1.80629E-04 2.88114E-05 2.06795E-25
 -1       593 1.81327E-04 2.68508E-05-8.27181E-25
 -1       594 1.82028E-04 2.48803E-05 4.13590E-25
 -1       595 1.82731E-04 2.29048E-05-8.27181E-25
 -1       596 1.83434E-04 2.09291E-05 0.00000E+00
 -1       597 1.84136E-04 1.89579E-05-8.27181E-25
 -1       598 1.84833E-04 1.69959E-05-4.13590E-25
 -1       599 1.85526E-04 1.50479E-05 0.00000E+00
 -1       600 1.86212E-04 1.31185E-05 4.13590E-25
 -1       601 1.86889E-04 1.12126E-05 0.00000E+00
 -1       602 1.87556E-04 9.33481E-06 2.06795E-25
 -1       603 1.88210E-04 7.48991E-06-8.27181E-25
 -1       604 1.88851E-04 5.68274E-06-2.58494E-26
 -1       605 1.89476E-04 3.91793E-06 0.00000E+00
 -1       606 1.80833E-04 5.09016E-07 0.00000E+00
 -1       607 1.80843E-04-4.84883E-07 0.00000E+00
 -1       608 1.80852E-04-1.39732E-06 0.00000E+00
 -1       609 1.80860E-04-2.23403E-06-1.65436E-24
 -1       610 1.80869E-04-3.00079E-06 0.00000E+00
 -1       611 1.80877E-04-3.70343E-06 0.00000E+00
 -1       612 1.80885E-04-4.34782E-06 0.00000E+00
 -1       613 1.80894E-04-4.93981E-06 0.00000E+00
 -1       614 1.80902E-04-5.48525E-06 0.00000E+00
 -1       615 1.80911E-04-5.99000E-06 0.00000E+00
 -1       616 1.80919E-04-6.45992E-06 0.00000E+00
 -1       617 1.80928E-04-6.90088E-06 0.00000E+00
 -1       618 1.80936E-04-7.31871E-06 0.00000E+00
 -1       619 1.80945E-04-7.71930E-06 2.06795E-25
 -1       620 1.80953E-04-8.10848E-06 0.00000E+00
 -1       621 1.82090E-04 1.69197E-06 1.65436E-24
 -1       622 1.83512E-04 1.79474E-06-8.27181E-25
 -1       623 1.85056E-04 1.89731E-06 1.65436E-24
 -1       624 1.86688E-04 1.99957E-06 8.27181E-25
 -1       625 1.88376E-04 2.10155E-06 0.00000E+00
 -1       626 1.81335E-04 5.44633E-07 0.00000E+00
 -1       627 1.81828E-04-4.36175E-07-3.30872E-24
 -1       628 1.82300E-04-1.36082E-06 0.00000E+00
 -1       629 1.82754E-04-2.23749E-06 1.65436E-24
 -1       630 1.83194E-04-3.07437E-06 0.00000E+00
 -1       631 1.83621E-04-3.87969E-06 0.00000E+00
 -1       632 1.84040E-04-4.66167E-06 3.30872E-24
 -1       633 1.84453E-04-5.42853E-06-1.65436E-24
 -1       634 1.84864E-04-6.18849E-06 0.00000E+00
 -1       635 1.85275E-04-6.94976E-06 1.65436E-24
 -1       636 1.85690E-04-7.72058E-06-3.30872E-24
 -1       637 1.86111E-04-8.50918E-06-1.65436E-24
 -1       638 1.86542E-04-9.32375E-06-3.30872E-24
 -1       639 1.86985E-04-1.01726E-05 0.00000E+00
 -1       640 1.87444E-04-1.10639E-05 3.30872E-24
 -1       656 1.81576E-04-9.06326E-06 6.61744E-24
 -1       657 1.82610E-04-9.65761E-06 0.00000E+00
 -1       658 1.83922E-04-1.02506E-05 0.00000E+00
 -1       659 1.85367E-04-1.08432E-05-6.61744E-24
 -1       660 1.86760E-04-1.14376E-05-6.61744E-24
 -1       661 1.81191E-04-8.92002E-06 0.00000E+00
 -1       662 1.81459E-04-9.43818E-06 8.27181E-25
 -1       663 1.81759E-04-1.00415E-05 0.00000E+00
 -1       664 1.82088E-04-1.07237E-05-8.27181E-25
 -1       665 1.82445E-04-1.14790E-05 1.65436E-24
 -1       666 1.82827E-04-1.23017E-05-8.27181E-25
 -1       667 1.83233E-04-1.31864E-05 0.00000E+00
 -1       668 1.83659E-04-1.41274E-05 0.00000E+00
 -1       669 1.84105E-04-1.51197E-05 0.00000E+00
 -1       670 1.84568E-04-1.61580E-05 0.00000E+00
 -1       671 1.85046E-04-1.72374E-05 1.65436E-24
 -1       672 1.85538E-04-1.83527E-05 0.00000E+00
 -1       673 1.86041E-04-1.94993E-05-1.65436E-24
 -1       674 1.86553E-04-2.06724E-05-4.13590E-25
 -1       675 1.87074E-04-2.18671E-05-4.13590E-25
 -1       676 1.81341E-04-2.25677E-05 0.00000E+00
 -1       677 1.82597E-04-2.26709E-05 1.65436E-24
 -1       678 1.83850E-04-2.27741E-05 0.00000E+00
 -1       679 1.85102E-04-2.28769E-05 0.00000E+00
 -1       680 1.86351E-04-2.29798E-05-1.65436E-24
 -1       771 1.87042E-05 1.38463E-05 0.00000E+00
 -1       772 8.91521E-06 3.51708E-05 5.29396E-23
 -1       773 8.76295E-07 5.20832E-05 0.00000E+00
 -1       774-5.53272E-06 6.48346E-05 2.64698E-23
 -1       775-1.04296E-05 7.36863E-05 0.00000E+00
 -1       776-1.39367E-05 7.89154E-05-2.64698E-23
 -1       777-1.61764E-05 8.08089E-05-5.29396E-23
 -1       778-1.72735E-05 7.96669E-05 2.64698E-23
 -1       779-1.73524E-05 7.57979E-05-5.29396E-23
 -1       780-1.65392E-05 6.95210E-05 0.00000E+00
 -1       781-1.49595E-05 6.11621E-05 5.29396E-23
 -1       782-1.27402E-05 5.10556E-05 0.00000E+00
 -1       783-1.00074E-05 3.95400E-05 0.00000E+00
 -1       784-6.88850E-06 2.69601E-05 0.00000E+00
 -1       785-3.50999E-06 1.36635E-05 0.00000E+00
 -1       786 1.89440E-04 3.07601E-05 0.00000E+00
 -1       787 1.89482E-04 2.86652E-05-4.13590E-25
 -1       788 1.89524E-04 2.66117E-05 8.27181E-25
 -1       789 1.89567E-04 2.45913E-05 0.00000E+00
 -1       790 1.89610E-04 2.25995E-05-1.65436E-24
 -1       791 1.89653E-04 2.06316E-05 0.00000E+00
 -1       792 1.89696E-04 1.86852E-05 0.00000E+00
 -1       793 1.89740E-04 1.67584E-05 0.00000E+00
 -1       794 1.89783E-04 1.48509E-05 0.00000E+00
 -1       795 1.89826E-04 1.29626E-05-8.27181E-25
 -1       796 1.89870E-04 1.10953E-05 0.00000E+00
 -1       797 1.89913E-04 9.25094E-06 8.27181E-25
 -1       798 1.89957E-04 7.43376E-06 1.65436E-24
 -1       799 1.90000E-04 5.64808E-06 0.00000E+00
 -1       800 1.90044E-04 3.90141E-06 1.65436E-24
 -1       801 1.45070E-04 2.95510E-05 0.00000E+00
 -1       802 1.09669E-05 1.84882E-05 0.00000E+00
 -1       803-1.03823E-04 9.37154E-06-5.29396E-23
 -1       804-9.24487E-05 6.50853E-06 0.00000E+00
 -1       805-3.05778E-05 2.58426E-06 0.00000E+00
 -1       806 1.90091E-04 3.06924E-05-1.65436E-24
 -1       807 1.90768E-04 2.85063E-05 0.00000E+00
 -1       808 1.91432E-04 2.63513E-05 3.30872E-24
 -1       809 1.92083E-04 2.42315E-05 0.00000E+00
 -1       810 1.92719E-04 2.21509E-05 0.00000E+00
 -1       811 1.93339E-04 2.01133E-05 0.00000E+00
 -1       812 1.93941E-04 1.81225E-05 0.00000E+00
 -1       813 1.94524E-04 1.61825E-05 1.65436E-24
 -1       814 1.95088E-04 1.42969E-05-1.65436E-24
 -1       815 1.95629E-04 1.24697E-05-1.65436E-24
 -1       816 1.96147E-04 1.07047E-05 0.00000E+00
 -1       817 1.96641E-04 9.00570E-06-8.27181E-25
 -1       818 1.97108E-04 7.37646E-06 0.00000E+00
 -1       819 1.97548E-04 5.82083E-06 8.27181E-25
 -1       820 1.97960E-04 4.34253E-06 1.65436E-24
 -1       821 1.89960E-04 3.12939E-08-1.65436E-24
 -1       822 1.89822E-04-3.12063E-06 0.00000E+00
 -1       823 1.89683E-04-6.87882E-06-3.30872E-24
 -1       824 1.89541E-04-1.08640E-05 0.00000E+00
 -1       825 1.89400E-04-1.46359E-05 0.00000E+00
 -1       826 1.89261E-04-1.77557E-05-1.65436E-24
 -1       827 1.89124E-04-1.99607E-05 3.30872E-24
 -1       828 1.88989E-04-2.09938E-05 0.00000E+00
 -1       829 1.88855E-04-2.09144E-05 3.30872E-24
 -1       830 1.88720E-04-1.97887E-05 0.00000E+00
 -1       831 1.88584E-04-1.79655E-05-3.30872E-24
 -1       832 1.88447E-04-1.57979E-05-1.65436E-24
 -1       833 1.88311E-04-1.37321E-05-3.30872E-24
 -1       834 1.88178E-04-1.22136E-05-1.65436E-24
 -1       835 1.88044E-04-1.15406E-05-8.27181E-25
 -1       836 1.91674E-04 2.32476E-06 0.00000E+00
 -1       837 1.93133E-04 2.45123E-06-1.65436E-24
 -1       838 1.94498E-04 2.57764E-06-3.30872E-24
 -1       839 1.95800E-04 2.70334E-06 0.00000E+00
 -1       840 1.97072E-04 2.82889E-06 0.00000E+00
 -1       856 1.87902E-04-1.29703E-05 0.00000E+00
 -1       857 1.87883E-04-1.38001E-05 0.00000E+00
 -1       858 1.87863E-04-1.45162E-05 2.06795E-25
 -1       859 1.87843E-04-1.51396E-05 0.00000E+00
 -1       860 1.87823E-04-1.56915E-05-4.13590E-25
 -1       861 1.87802E-04-1.61928E-05 2.06795E-25
 -1       862 1.87782E-04-1.66648E-05 0.00000E+00
 -1       863 1.87762E-04-1.71287E-05-4.13590E-25
 -1       864 1.87741E-04-1.76055E-05 0.00000E+00
 -1       865 1.87721E-04-1.81165E-05 0.00000E+00
 -1       866 1.87701E-04-1.86829E-05 0.00000E+00
 -1       867 1.87680E-04-1.93256E-05 0.00000E+00
 -1       868 1.87660E-04-2.00658E-05 8.27181E-25
 -1       869 1.87639E-04-2.09245E-05-4.13590E-25
 -1       870 1.87618E-04-2.19224E-05 0.00000E+00
 -1       871 1.89168E-04-1.20106E-05-8.27181E-25
 -1       872 1.90562E-04-1.20186E-05 0.00000E+00
 -1       873 1.92034E-04-1.20272E-05 0.00000E+00
 -1       874 1.93518E-04-1.20366E-05 1.03398E-25
 -1       875 1.94946E-04-1.20466E-05-8.27181E-25
 -1       876 1.88407E-04-1.29559E-05-3.30872E-24
 -1       877 1.88872E-04-1.38397E-05 0.00000E+00
 -1       878 1.89316E-04-1.46652E-05-3.30872E-24
 -1       879 1.89741E-04-1.54397E-05 0.00000E+00
 -1       880 1.90150E-04-1.61705E-05 0.00000E+00
 -1       881 1.90545E-04-1.68651E-05-1.65436E-24
 -1       882 1.90930E-04-1.75307E-05-3.30872E-24
 -1       883 1.91306E-04-1.81745E-05 0.00000E+00
 -1       884 1.91678E-04-1.88038E-05 0.00000E+00
 -1       885 1.92046E-04-1.94260E-05 1.65436E-24
 -1       886 1.92414E-04-2.00483E-05 0.00000E+00
 -1       887 1.92785E-04-2.06779E-05 0.00000E+00
 -1       888 1.93161E-04-2.13222E-05 0.00000E+00
 -1       889 1.93545E-04-2.19887E-05 0.00000E+00
 -1       890 1.93939E-04-2.26844E-05 0.00000E+00
 -1       891 1.88861E-04-2.31372E-05 0.00000E+00
 -1       892 1.90103E-04-2.31942E-05 0.00000E+00
 -1       893 1.91297E-04-2.32511E-05 8.27181E-25
 -1       894 1.92418E-04-2.33078E-05 4.13590E-25
 -1       895 1.93441E-04-2.33642E-05-8.27181E-25
 -1       956 1.98215E-04 1.71981E-06 1.65436E-24
 -1       957 1.98084E-04 5.84307E-07 8.27181E-25
 -1       958 1.97953E-04-4.71765E-07 0.00000E+00
 -1       959 1.97822E-04-1.45952E-06 0.00000E+00
 -1       960 1.97691E-04-2.39012E-06 3.30872E-24
 -1       961 1.97560E-04-3.27476E-06-1.65436E-24
 -1       962 1.97429E-04-4.12464E-06-3.30872E-24
 -1       963 1.97297E-04-4.95099E-06-1.65436E-24
 -1       964 1.97166E-04-5.76502E-06 0.00000E+00
 -1       965 1.97035E-04-6.57796E-06 0.00000E+00
 -1       966 1.96904E-04-7.40103E-06 0.00000E+00
 -1       967 1.96773E-04-8.24545E-06 1.65436E-24
 -1       968 1.96642E-04-9.12242E-06-3.30872E-24
 -1       969 1.96511E-04-1.00431E-05 0.00000E+00
 -1       970 1.96380E-04-1.10187E-05-3.30872E-24
 -1       971 1.96133E-04-1.30997E-05 0.00000E+00
 -1       972 1.96013E-04-1.40454E-05 1.65436E-24
 -1       973 1.95893E-04-1.49075E-05 0.00000E+00
 -1       974 1.95773E-04-1.56966E-05 0.00000E+00
 -1       975 1.95653E-04-1.64236E-05 3.30872E-24
 -1       976 1.95533E-04-1.70993E-05 1.65436E-24
 -1       977 1.95413E-04-1.77345E-05 0.00000E+00
 -1       978 1.95293E-04-1.83401E-05 0.00000E+00
 -1       979 1.95173E-04-1.89269E-05 3.30872E-24
 -1       980 1.95053E-04-1.95057E-05 1.65436E-24
 -1       981 1.94933E-04-2.00875E-05 3.30872E-24
 -1       982 1.94813E-04-2.06830E-05-1.65436E-24
 -1       983 1.94693E-04-2.13030E-05 3.30872E-24
 -1       984 1.94574E-04-2.19585E-05 1.65436E-24
 -1       985 1.94455E-04-2.26602E-05 0.00000E+00
 -3
    1PSTEP                        36          18           1          
  100CL  118 6.57166E-01         409                     0   18           1
 -4  STRESS      6    1
 -5  SXX         1    4    1    1
 -5  SYY         1    4    2    2
 -5  SZZ         1    4    3    3
 -5  SXY         1    4    1    2
 -5  SYZ         1    4    2    3
 -5  SZX         1    4    3    1
 -1         1-4.94580E+06-1.70103E+06-1.07254E+06-1.57660E+06-1.83354E-09 1.34518E-07
 -1         2 7.93562E+05 1.13908E+07 2.92926E+06 3.53418E+06 1.84227E-08 1.25736E-07
 -1         3-1.22070E+03-1.59891E+06 6.06682E+02-2.06722E+03-6.71182E-10-3.95121E-08
 -1         5-6.55540E+01 3.80867E+05 9.84039E+00-1.21822E+00-4.79314E-10 6.61021E-09
 -1         8-7.46648E+05-2.44817E+05-9.35140E+04-2.62207E+05 5.88443E-10 7.25377E-08
 -1         9 1.02443E+07 1.88895E+06 2.17494E+06-7.04907E+05-1.87429E-09 1.35507E-07
 -1        10-3.58270E+03-1.70336E+06-5.12275E+03-1.52451E+04-5.57884E-09-4.97677E-08
 -1        12-6.16662E+01 3.80888E+05 3.22893E+02-8.35241E+00-6.33065E-10-3.62525E-09
 -1        15 1.09992E+03 6.04466E+02 3.55546E+03 1.29754E+00-3.28157E-10 1.26933E-08
 -1        16 2.09989E+07-2.30655E+05 2.89776E+06-1.87446E+06 1.49206E-08 1.27824E-07
 -1        17 7.64105E+06 5.61811E+06 2.05932E+06 5.43816E+06 4.04078E-08 2.37953E-08
 -1        18 1.33146E+05 3.10192E+04 2.34983E+03-1.17221E+05 1.52477E-08 1.35333E-08
 -1        19 1.20771E+05 1.39731E+05-9.32691E+02 2.17806E+04 1.45137E-09 7.34944E-09
 -1        20-7.98747E+04-5.66288E+05-1.26999E+05 2.53693E+04-1.66847E-09 8.08965E-09
 -1        21-4.54079E+01-2.93423E+05-9.17077E+02 2.52776E+02 1.53990E-08 1.35678E-08
 -1        24 1.26578E+07 1.08436E+07 3.52634E+06 1.00640E+07-1.57568E-07-5.60928E-08
 -1        25 1.08241E+05 2.05724E+05 8.42403E+04-6.09145E+05-6.05542E-10-2.18533E-09
 -1        26-5.45218E+04 9.09414E+04-2.43206E+04 9.24118E+02 1.04410E-10 5.45272E-09
 -1        27-7.53651E+04-3.06145E+05-1.12069E+05 6.81333E+04 3.85959E-09 4.22006E-09
 -1        28 2.20797E+04-8.44698E+04 1.67450E+04 2.06343E+04-4.12817E-09 5.22303E-09
 -1        32-1.66444E+06-3.11917E+06-1.89560E+05 3.92196E+05-4.17567E-08-6.03211E-09
 -1        33-1.76390E+05 9.16576E+04 3.19620E+04-3.82572E+04-2.74429E-09 5.80349E-09
 -1        34-2.21086E+05-2.46277E+04 6.76676E+02 7.45432E+04-5.63900E-09-1.09443E-09
 -1        35-2.27467E+04-3.35008E+04-1.33397E+03 5.10515E+04-5.73368E-09-7.67735E-09
 -1        51 5.57257E+04-1.90802E+05 1.18936E+05-5.38000E+05-5.82077E-11 6.32353E-08
 -1        52 1.94133E+04-1.70758E+05 6.32202E+04-6.27334E+05 9.82254E-11-1.22949E-07
 -1        53 4.62888E+03-1.86183E+05 3.42383E+04-5.36084E+05 1.09139E-10-7.07805E-08
 -1        54 9.37395E+03-1.82179E+05 3.07798E+04-6.29276E+05 8.36735E-11 1.99108E-07
 -1        55 2.01061E+04-1.90465E+05 4.05420E+04-5.35884E+05 4.58385E-10-5.22232E-09
 -1        56-9.14057E+06-1.09398E+06-8.00899E+05-3.64698E+06 2.47383E-09-3.48373E-08
 -1        57-9.89614E+06-1.34002E+06-5.33177E+05-3.09084E+06-2.72121E-09 1.45053E-07
 -1        58-9.21114E+06-1.41696E+06-1.86297E+05-3.67965E+06 1.20308E-08 3.86353E-08
 -1        59-9.78577E+06-9.83968E+05-1.09981E+05-3.09300E+06-5.33237E-08-4.98296E-07
 -1        60-9.25621E+06-1.43582E+06-4.48786E+04-3.65354E+06-1.77606E-08-4.09975E-07
 -1        61-9.60746E+06-1.06340E+06-1.93836E+04-3.21602E+06-3.17086E-08 1.06184E-07
 -1        62-9.37153E+06-1.34822E+06-1.95555E+04-3.54387E+06 2.19334E-08-1.12450E-07
 -1        63-9.35348E+06-1.28657E+06-1.61029E+03-3.46515E+06-3.35258E-08 1.51586E-07
 -1        64-9.49717E+06-1.22151E+06-1.83813E+04-3.39545E+06-2.99769E-09 2.36581E-07
 -1        65-9.16874E+06-1.50408E+06-1.74329E+04-3.73571E+06-8.93488E-08 1.64803E-07
 -1        66-9.57076E+06-1.12088E+06-4.00006E+04-3.28400E+06-1.19253E-08 1.65750E-07
 -1        67-9.12388E+06-1.63817E+06-9.85240E+04-3.86647E+06-9.63155E-10 3.14321E-08
 -1        68-9.55900E+06-1.07708E+06-1.67216E+05-3.27582E+06-1.98688E-08-1.93148E-07
 -1        69-9.32647E+06-1.84797E+06-4.76984E+05-3.73221E+06-1.29594E-08-1.44937E-07
 -1        70-9.36003E+06-9.26399E+05-7.19077E+05-3.40871E+06-1.53159E-08-1.71567E-07
 -1        86-8.06849E+05-1.02832E+07-1.59791E+06-1.68389E+06-2.09515E-07-3.07627E-08
 -1        87 1.18894E+06 2.55145E+06 1.32960E+06 3.53891E+06-3.63223E-07 5.48671E-08
 -1        88-1.83174E+05-2.48021E+06 1.12741E+05-1.81611E+06-2.99091E-07-6.20553E-08
 -1        89 1.60711E+06 2.39483E+06 1.34495E+06 3.63451E+06-4.33894E-07-2.30328E-07
 -1        90-1.18165E+06-1.01652E+07-1.74635E+06-1.78928E+06-1.07440E-07 1.14815E-08
 -1       121-1.70461E+03-1.60305E+06-1.32876E+02 1.02628E+03 1.29401E-09-1.88338E-08
 -1       122-9.80797E+02-1.59890E+06 1.23619E+03-4.13435E+03-4.74250E-09-4.02906E-09
 -1       123-1.78306E+03-1.60322E+06 1.25996E+03 3.06456E+03 3.91492E-09 4.14293E-08
 -1       124 1.42380E+03-1.59788E+06 4.96476E+03-8.63781E+03-9.79981E-09 1.62545E-08
 -1       125-3.13533E+03-1.60456E+06 6.86144E+03 5.49785E+03 5.76983E-09-1.17798E-08
 -1       191-6.91201E+01 3.80887E+05 8.80454E+00 6.32529E-01-4.75939E-10 2.52530E-08
 -1       192-6.64979E+01 3.80868E+05 2.09780E+01-3.95359E+00-7.27098E-10 5.26088E-08
 -1       193-7.16078E+01 3.80887E+05 3.61366E+01 3.46477E+00-1.05616E-09 2.25027E-08
 -1       194-6.95253E+01 3.80871E+05 7.96973E+01-8.98787E+00-5.00466E-10 1.66892E-09
 -1       195-7.63833E+01 3.80884E+05 1.53003E+02 5.82638E+00-1.50919E-09-5.19867E-09
 -1       251-1.51579E+06 2.55970E+04-9.83734E+04-5.81501E+04 9.06766E-10-9.83709E-09
 -1       252-1.42570E+06-2.80769E+04-4.44843E+04 1.91243E+05 4.60204E-09-2.72477E-07
 -1       253-1.46382E+06 4.62043E+03-2.13026E+04-1.03934E+05 2.57660E-09 1.37989E-08
 -1       254-1.45633E+06 3.17180E+03-8.72020E+03 2.23362E+05 5.63864E-09 3.96089E-08
 -1       255-1.48838E+06-8.15069E+02-9.90129E+03-9.04053E+04 1.45747E-09-3.53621E-08
 -1       256-1.35541E+06 5.75231E+03 1.97016E+04 1.43055E+05 2.13258E-08-1.81507E-08
 -1       257-1.55599E+06-6.71958E+03-2.03886E+04-2.34246E+04-9.36689E-09 2.93911E-07
 -1       258-1.29571E+06 6.41677E+03 3.37281E+04-1.01036E+04 7.96581E-09-1.18292E-07
 -1       259-1.54330E+06-7.51228E+03-1.59274E+04 6.23996E+04 2.31466E-09-7.07448E-08
 -1       260-1.38680E+06 1.20155E+04 2.00633E+04-1.51700E+05-1.24874E-08-8.33656E-08
 -1       261-1.47292E+06-4.57141E+03 3.19489E+03 1.18157E+05 4.43897E-08-2.73919E-07
 -1       262-1.46071E+06 2.08488E+04 1.57394E+04-2.06674E+05-2.43628E-08-1.33478E-07
 -1       263-1.47579E+06-9.38485E+03 1.72312E+04 1.17751E+05-6.53154E-09 6.80293E-08
 -1       264-1.36611E+06 5.37028E+04 7.15880E+04-1.50514E+05 7.99812E-08 1.87447E-07
 -1       265-1.56077E+06-4.42022E+04 5.56812E+04 6.16143E+04 7.98718E-09 2.58922E-07
 -1       266-1.99123E+04-9.31157E+03 4.67171E+04-2.77620E+01 3.81988E-11 4.85450E-08
 -1       267 2.30837E+04 1.08519E+04 3.30204E+04 3.20334E+01 1.74168E-10 7.32784E-08
 -1       268-3.09548E+03-1.53698E+03 1.22734E+04-4.08153E+00 1.35060E-10-2.98268E-08
 -1       269 3.65485E+03 1.83939E+03 7.97761E+03 4.75447E+00-7.16227E-11-3.19793E-07
 -1       270-5.48591E+02-3.02222E+02 3.85091E+03-6.45210E-01-1.86901E-10 1.43555E-10
 -1       271-1.74209E+06-2.15486E+05-1.29096E+05-6.72619E+05 1.60378E-09 1.49150E-07
 -1       272-1.78359E+06-3.10823E+05-8.25134E+04-6.73419E+05 3.54858E-08-4.26007E-09
 -1       273-1.76789E+06-2.45806E+05-3.07651E+04-6.65070E+05-3.45244E-08 1.71534E-07
 -1       274-1.75250E+06-2.74715E+05-1.68345E+04-6.86055E+05 5.70972E-08 1.17972E-07
 -1       275-1.77312E+06-2.47140E+05-7.37034E+03-6.61935E+05 1.07539E-08-2.71148E-08
 -1       276-1.74549E+06-2.74279E+05-3.56998E+03-6.92267E+05-4.88944E-09-1.86272E-07
 -1       277-1.77557E+06-2.45354E+05-1.98979E+03-6.59547E+05 4.24261E-08-4.19236E-08
 -1       278-1.74213E+06-2.77340E+05-1.03730E+03-6.97152E+05-1.73377E-08-2.21389E-08
 -1       279-1.77729E+06-2.43534E+05-1.17891E+03-6.57631E+05-4.67662E-09-2.19478E-07
 -1       280-1.74004E+06-2.80266E+05-1.66202E+03-7.00984E+05 5.13364E-09-5.09845E-08
 -1       281-1.77842E+06-2.41970E+05-3.11085E+03-6.56229E+05-3.43007E-08 6.31562E-08
 -1       282-1.73994E+06-2.84157E+05-7.21572E+03-7.03421E+05 1.59598E-08 2.44469E-07
 -1       283-1.77800E+06-2.39462E+05-1.28730E+04-6.55528E+05 1.18598E-09 3.11397E-08
 -1       284-1.75040E+06-3.02634E+05-3.50432E+04-7.02179E+05 8.39918E-09-3.02225E-07
 -1       285-1.76854E+06-2.25050E+05-5.44523E+04-6.57066E+05-5.01550E-08-4.91891E-08
 -1       301 5.52713E+03-5.84118E+05 1.70022E+05-1.01877E+06 4.82396E-09 2.28465E-08
 -1       302 6.24763E+03-5.39600E+05 1.02683E+05-1.48844E+06-1.20781E-09-1.85028E-08
 -1       303-1.19994E+04-5.72962E+05 5.98752E+04-1.01613E+06 6.83940E-10-1.77999E-07
 -1       304-8.91248E+03-5.44249E+05 6.34975E+04-1.48767E+06-5.06407E-09-5.23578E-08
 -1       305-1.32328E+04-5.65015E+05 8.23272E+04-1.01914E+06 3.04681E-09-4.05271E-08
 -1       306-2.86811E+07-5.88695E+06-8.09512E+06-8.48449E+05-8.89413E-08-7.82893E-09
 -1       307 2.40902E+07 2.63487E+06 5.20821E+06-1.40358E+07-8.84669E-07 6.98783E-08
 -1       308-7.39658E+06-9.07221E+05-5.20219E+05 4.91741E+06-2.68337E-08 3.51618E-07
 -1       309-3.45387E+06 7.67262E+06 2.05694E+06-1.97275E+07 6.15142E-07-3.03044E-09
 -1       310-1.17818E+07-1.60578E+06-1.72796E+06 4.85664E+06 5.06989E-08-2.65165E-07
 -1       311 3.42884E+07-6.59197E+04 6.62062E+06-8.89566E+06 2.39728E-07-6.75209E-09
 -1       312-3.00481E+07-6.17349E+06-7.84543E+06-4.43042E+06 3.75672E-07 4.86616E-08
 -1       313 4.27981E+07 1.28400E+07 9.92520E+06 2.12713E+07-3.30620E-08 1.30502E-07
 -1       314-1.71420E+07-1.61442E+07-7.04308E+06-1.19264E+07 3.47791E-07 1.92143E-07
 -1       315-1.24783E+06 2.71953E+07 5.35344E+06 1.07269E+07-4.12125E-07-1.20257E-07
 -1       316 8.93539E+05-9.56180E+06-4.89382E+05-3.02026E+06-1.16297E-06-3.16824E-07
 -1       317-1.71533E+07 2.12290E+07 2.01927E+06-7.44567E+06 6.10686E-07-7.18672E-07
 -1       318-1.13416E+06-1.17417E+07-1.76490E+06-4.34179E+06-8.65286E-07 8.78936E-08
 -1       319 6.09934E+06 2.88957E+07 6.39195E+06 1.52279E+07-1.25627E-07 2.39350E-07
 -1       320-2.13970E+07-1.62308E+07-9.09848E+06-1.20067E+07 1.88360E-07-4.72064E-08
 -1       336 3.29557E+02-1.81003E+06-1.81993E+04 9.60275E+03-9.24319E-09 5.35147E-09
 -1       337-7.09637E+03-1.81094E+06-2.15474E+04-2.35229E+04-6.94149E-09 5.68980E-09
 -1       338 7.58510E+02-1.80994E+06-3.11016E+04 1.36864E+04-1.20308E-08 2.76850E-08
 -1       339-3.32754E+04-1.82888E+06-6.92270E+04-3.14996E+04-9.35688E-09 1.96724E-08
 -1       340 2.28254E+04-1.79437E+06-1.07720E+05 1.74583E+04-1.37225E-08 2.90966E-08
 -1       406-3.98856E+01 3.80870E+05 6.34438E+02 2.97984E+00-1.71397E-09-2.55568E-09
 -1       407 1.60938E+02 3.81000E+05 1.35488E+03 2.20617E+01-5.02723E-10 6.85486E-09
 -1       408 6.33762E+02 3.80771E+05 2.70208E+03-2.54067E+01-2.20462E-09-3.42698E-09
 -1       409 2.86894E+03 3.81863E+05 6.08932E+03 2.69792E+02-3.87104E-10-3.66790E-08
 -1       410 8.35325E+03 3.79994E+05 1.24284E+04-2.59847E+02-2.72667E-09-6.78483E-09
 -1       521-3.01887E+07-7.23029E+06-9.43245E+06-4.97663E+05-8.95234E-08 2.76545E-07
 -1       522 2.48534E+07 3.45362E+06 5.28898E+06-1.73142E+07-6.00470E-07-2.30881E-07
 -1       523-8.05731E+06-1.19975E+06-5.22962E+05 5.35538E+06 1.35042E-08-2.04513E-07
 -1       524-6.77904E+06 1.04122E+07 2.22053E+06-2.26965E+07 6.05025E-07-4.47406E-07
 -1       525-1.26490E+07-2.15718E+06-1.89513E+06 5.28811E+06 5.54777E-07-1.84955E-07
 -1       526 3.72272E+07-1.25337E+05 6.94189E+06-1.14492E+07 1.49710E-07-3.47180E-07
 -1       527-3.18086E+07-7.72864E+06-9.01541E+06-4.30306E+06-2.32598E-07-3.72966E-07
 -1       528 4.66715E+07 1.41580E+07 1.03354E+07 2.40819E+07-2.52796E-07 6.27188E-08
 -1       529-1.81090E+07-1.81822E+07-8.05571E+06-1.20237E+07 1.10595E-07-1.74041E-07
 -1       530-3.61932E+06 3.15716E+07 5.65144E+06 1.04617E+07-5.45260E-07 4.76663E-07
 -1       531 8.51066E+05-1.06593E+07-4.76419E+05-3.07417E+06-9.72141E-07 2.58384E-07
 -1       532-1.99030E+07 2.33427E+07 2.20451E+06-1.12761E+07 6.86152E-07-6.65445E-07
 -1       533-1.19413E+06-1.28737E+07-1.86658E+06-4.27837E+06-2.73256E-07-1.01514E-06
 -1       534 4.10040E+06 3.34716E+07 6.64123E+06 1.57425E+07-6.00121E-08 7.66246E-07
 -1       535-2.25311E+07-1.84237E+07-1.03920E+07-1.21119E+07 1.20490E-07 4.48548E-07
 -1       536-6.92160E+05-4.67799E+04-4.08495E+04-5.27105E+04-2.53704E-09 6.23131E-08
 -1       537-6.84921E+04 4.51339E+04 8.36939E+04 1.20092E+05-1.14171E-07 7.47168E-08
 -1       538-3.93906E+05 2.86396E+03 4.70965E+03-7.03188E+04 2.52206E-08 1.09535E-07
 -1       539-2.74200E+05 3.01779E+03 2.45247E+04 1.34889E+05 1.46921E-07 1.08153E-07
 -1       540-4.91591E+05-3.86633E+02-1.99293E+04-6.80053E+04 3.12602E-08 1.15149E-07
 -1       541 1.22373E+05 1.62052E+04 1.01646E+05 9.47205E+04 7.78277E-09 9.29745E-08
 -1       542-7.79797E+05-1.92399E+04-8.03247E+04-2.93373E+04 6.66519E-08 4.68484E-08
 -1       543 3.69352E+05 2.60979E+04 1.50754E+05-1.30250E+04 3.53157E-09-2.23326E-08
 -1       544-7.31951E+05-1.57642E+04-7.13811E+04 3.91168E+04 2.34086E-08-5.09399E-08
 -1       545 9.73584E+03 8.97235E+03 7.59770E+04-1.10201E+05 1.59276E-08-9.86802E-08
 -1       546-4.29830E+05 5.88559E+03-1.17144E+04 6.75177E+04 2.69688E-09-7.45496E-08
 -1       547-2.91682E+05-4.67523E+03 9.72301E+03-1.37701E+05-1.00801E-07-7.97010E-08
 -1       548-4.38628E+05 4.65254E+03-2.32943E+04 6.72599E+04-9.95294E-08-6.85836E-08
 -1       549 2.85328E+04 1.43606E+04 5.64592E+04-1.07978E+05-5.85597E-08-6.95939E-08
 -1       550-7.41475E+05-2.03129E+04-1.25046E+05 3.71271E+04 2.50202E-09-3.08755E-08
 -1       551 3.99238E+04-7.63367E+05-1.19917E+04-1.23585E+06-1.00074E-07 1.08848E-08
 -1       552 9.06665E+04-8.06187E+05 1.21593E+04-1.76234E+06-6.96600E-08 6.60657E-08
 -1       553 6.94641E+04-8.03196E+05 3.35543E+04-1.22939E+06-1.16488E-07 4.42233E-08
 -1       554 1.28627E+05-8.20756E+05 8.28627E+04-1.76429E+06-7.24031E-08 2.07801E-08
 -1       555 9.91491E+04-8.26456E+05 1.50764E+05-1.22930E+06-1.17478E-07-5.50790E-09
 -1       556 2.16998E+05-3.73480E+05 3.12914E+04-4.00362E+05-2.29920E-08-7.53789E-09
 -1       557 3.45587E+05-4.76111E+05 1.88881E+04-5.17607E+05 1.25146E-09 3.55249E-09
 -1       558 1.99935E+05-3.67714E+05 3.70573E+03-4.03697E+05-1.38534E-08-1.41008E-08
 -1       559 3.20980E+05-4.77104E+05 3.06011E+03-5.37181E+05 2.08529E-08-4.35102E-09
 -1       560 1.85367E+05-3.58569E+05-1.08390E+03-4.14166E+05 1.58616E-08 1.04046E-08
 -1       561 3.02597E+05-4.69798E+05 2.93616E+02-5.49682E+05 5.55883E-09 1.22418E-08
 -1       562 1.73845E+05-3.51399E+05-1.17249E+03-4.22503E+05 3.66708E-09-7.63976E-10
 -1       563 2.88915E+05-4.63834E+05 8.37705E+00-5.58611E+05-2.51748E-09-5.68980E-09
 -1       564 1.65642E+05-3.46285E+05-5.42676E+02-4.28315E+05 9.56061E-09-7.05950E-09
 -1       565 2.79877E+05-4.59898E+05 3.55655E+01-5.64384E+05 1.04192E-08 5.78984E-09
 -1       566 1.60876E+05-3.43269E+05-2.37803E+02-4.31649E+05-5.23141E-09-1.09212E-08
 -1       567 2.75532E+05-4.58007E+05-3.44234E+02-5.67017E+05 1.20854E-08 2.21298E-08
 -1       568 1.59634E+05-3.42510E+05-1.07872E+03-4.32613E+05 2.77487E-09 4.88581E-09
 -1       569 2.74520E+05-4.57945E+05-2.72539E+03-5.65552E+05-2.95586E-09-3.18323E-09
 -1       570 1.62987E+05-3.45677E+05-5.96638E+03-4.31625E+05 9.67702E-09-6.57292E-09
 -1       571 2.86469E+05 1.03648E+04 1.48202E+04-9.29034E+04 4.99040E-09 2.12667E-08
 -1       572 2.88620E+05 3.88900E+03 7.26298E+03-1.01924E+05 7.17773E-09 7.39055E-09
 -1       573 2.87323E+05 1.20733E+03 3.22715E+03-9.27295E+04 6.89761E-09 1.15560E-08
 -1       574 2.87538E+05 6.91894E+02 1.61832E+03-1.02144E+05 4.18481E-09 7.38146E-09
 -1       575 2.87416E+05 4.18474E+02 7.63769E+02-9.27057E+04-3.94107E-09 1.22182E-08
 -1       576 2.87403E+05 4.27367E+02 3.90970E+02-1.02173E+05-1.27823E-08 4.10182E-09
 -1       577 2.87454E+05 3.61816E+02 1.95133E+02-9.27025E+04-7.92170E-09 5.53428E-09
 -1       578 2.87431E+05 3.91036E+02 1.12576E+02-1.02177E+05-1.11340E-08 1.56588E-08
 -1       579 2.87523E+05 3.27322E+02 7.72348E+01-9.27022E+04 5.24960E-09 8.98217E-09
 -1       580 2.87527E+05 3.42874E+02 8.93277E+01-1.02172E+05-6.14091E-09-1.47138E-08
 -1       581 2.87631E+05 2.72099E+02 1.34931E+02-9.27079E+04 6.04450E-09-6.78301E-09
 -1       582 2.87694E+05 3.08843E+02 2.73977E+02-1.02112E+05 5.52245E-09 6.79393E-10
 -1       583 2.87764E+05 3.16599E+02 5.26201E+02-9.27630E+04-1.90594E-08-1.57615E-09
 -1       584 2.88056E+05 7.45534E+02 1.19031E+03-1.01648E+05-3.61124E-08 2.73212E-09
 -1       585 2.87784E+05 1.75013E+03 2.41086E+03-9.31715E+04-2.24973E-08 1.22309E-08
 -1       586-3.37826E+03 1.14187E+05-2.95005E+03-2.47661E+05-4.91991E-09 2.23076E-09
 -1       587-1.28742E+03 1.13927E+05 7.19169E+02-2.72571E+05-7.81256E-09 1.32986E-08
 -1       588 4.31552E+02 1.13749E+05 4.66441E+03-2.47526E+05-4.54202E-09-1.69166E-10
 -1       589 5.04912E+03 1.16176E+05 1.21345E+04-2.72337E+05-8.89304E-09-3.36431E-08
 -1       590 1.63827E+04 1.12436E+05 2.54692E+04-2.47951E+05-3.54703E-09-2.10457E-09
 -1       591-7.32133E+04-1.57337E+04-2.21136E+04-3.13696E+04 1.24180E-08-9.48239E-09
 -1       592-7.71792E+04-1.92736E+04-1.19785E+04-3.49825E+04 1.32646E-08-2.96610E-08
 -1       593-7.54253E+04-1.41287E+04-4.98606E+03-3.29906E+04 8.41908E-09-6.93717E-10
 -1       594-7.41253E+04-1.60294E+04-2.48668E+03-3.50990E+04-1.55006E-09 2.35202E-08
 -1       595-7.55940E+04-1.41234E+04-1.14167E+03-3.30643E+04 3.83125E-09-4.36665E-09
 -1       596-7.39163E+04-1.58811E+04-5.80210E+02-3.50742E+04 5.54233E-09-6.18797E-10
 -1       597-7.56151E+04-1.41385E+04-3.15606E+02-3.30671E+04 6.89795E-10-1.24863E-08
 -1       598-7.38957E+04-1.58752E+04-2.53095E+02-3.50672E+04-7.51504E-09-2.96177E-09
 -1       599-7.56139E+04-1.41390E+04-3.22532E+02-3.30667E+04-2.33683E-09 5.97709E-09
 -1       600-7.39163E+04-1.58816E+04-5.98546E+02-3.50721E+04 8.72376E-10 1.83161E-09
 -1       601-7.55896E+04-1.41247E+04-1.18048E+03-3.30633E+04 3.65571E-09-8.96944E-09
 -1       602-7.41324E+04-1.60340E+04-2.57257E+03-3.50940E+04-4.79474E-09-6.91944E-09
 -1       603-7.54124E+04-1.41331E+04-5.15898E+03-3.29879E+04-9.44283E-10 2.00198E-08
 -1       604-7.73095E+04-1.93714E+04-1.23930E+04-3.49491E+04 1.13920E-09 5.25256E-09
 -1       605-7.31041E+04-1.58111E+04-2.28791E+04-3.13297E+04 2.41442E-09 1.13614E-08
 -1       606 2.67815E+04-1.41098E+04-2.52969E+04 2.41787E+04 8.58017E-09 8.50059E-09
 -1       607 2.24588E+04-4.60668E+03-1.25977E+04 2.71697E+04 1.18598E-09-3.11366E-09
 -1       608 2.49218E+04-8.29593E+02-5.63967E+03 2.40070E+04-6.17547E-09-1.63870E-08
 -1       609 2.44490E+04-2.82314E+02-2.84898E+03 2.73852E+04 7.75799E-10-3.34558E-09
 -1       610 2.47107E+04-3.80845E+01-1.35935E+03 2.39867E+04 2.98860E-09-6.32576E-09
 -1       611 2.46360E+04-3.76636E+01-6.85369E+02 2.74085E+04 6.54609E-09-3.30738E-09
 -1       612 2.46637E+04-2.41926E+01-3.25878E+02 2.39846E+04 4.34011E-09-1.92849E-08
 -1       613 2.46467E+04-3.32722E+01-1.46062E+02 2.74112E+04 7.51606E-09-8.04766E-09
 -1       614 2.46414E+04-3.01951E+01-3.43562E+01 2.39839E+04 4.85488E-09 1.71601E-08
 -1       615 2.46410E+04-3.15228E+01 6.09912E+01 2.74116E+04-1.13141E-09-1.55924E-08
 -1       616 2.46239E+04-2.68859E+01 1.83097E+02 2.39842E+04 2.04254E-08-2.31155E-08
 -1       617 2.46627E+04 7.72517E+00 4.17839E+02 2.74112E+04 3.73409E-08-2.27853E-08
 -1       618 2.45873E+04 9.37453E+01 8.42247E+02 2.39845E+04 5.32918E-09 1.14410E-08
 -1       619 2.49598E+04 6.59095E+02 1.89135E+03 2.74105E+04-2.09789E-08 8.51242E-09
 -1       620 2.43075E+04 2.09106E+03 3.80157E+03 2.39858E+04-9.30311E-09 6.67205E-09
 -1       621 4.92896E+02 2.97084E+05 3.79915E+03 3.93727E+04 9.94078E-10 1.25192E-08
 -1       622 6.49580E+02 2.97965E+05 3.37812E+03 5.71666E+04 1.23009E-09 5.52518E-09
 -1       623 1.30942E+02 2.97276E+05 4.06853E+03 3.91942E+04 1.15529E-09 9.18408E-09
 -1       624 2.07557E+03 2.99170E+05 7.89435E+03 5.73426E+04 1.13698E-09-1.35599E-08
 -1       625 2.03229E+03 2.95712E+05 1.37987E+04 3.91911E+04 1.30240E-09-5.65092E-09
 -1       626 2.57331E+05 6.09461E+04 5.08013E+03 1.25481E+05-1.59598E-08-5.33328E-09
 -1       627 2.55008E+05 6.23561E+04 2.44807E+03 1.29746E+05-1.26242E-08 2.27848E-08
 -1       628 2.57460E+05 5.86197E+04 1.03531E+03 1.26342E+05-9.69339E-09 1.61663E-08
 -1       629 2.54374E+05 6.16840E+04 5.06740E+02 1.29987E+05-5.82941E-09 1.02651E-08
 -1       630 2.57474E+05 5.85075E+04 2.35110E+02 1.26378E+05-9.06493E-09 1.43070E-08
 -1       631 2.54307E+05 6.16587E+04 1.26588E+02 1.29989E+05-1.42350E-08 2.03408E-09
 -1       632 2.57470E+05 5.85116E+04 8.34211E+01 1.26373E+05-9.42691E-10-1.28762E-09
 -1       633 2.54299E+05 6.16607E+04 9.31116E+01 1.29985E+05 1.51954E-09-1.64846E-08
 -1       634 2.57465E+05 5.85090E+04 1.50633E+02 1.26372E+05-7.38964E-12-7.65749E-09
 -1       635 2.54313E+05 6.16592E+04 3.04905E+02 1.29990E+05-5.23005E-09 1.85396E-08
 -1       636 2.57456E+05 5.85034E+04 6.15807E+02 1.26372E+05-1.06638E-09 7.28096E-09
 -1       637 2.54446E+05 6.17550E+04 1.35401E+03 1.29989E+05-1.37595E-09 1.60990E-08
 -1       638 2.57408E+05 5.88026E+04 2.78201E+03 1.26237E+05 5.18594E-09 1.69730E-08
 -1       639 2.55907E+05 6.37875E+04 6.58232E+03 1.29559E+05 5.79530E-09-1.02773E-10
 -1       640 2.57206E+05 6.48713E+04 1.36595E+04 1.23679E+05 4.05089E-09 4.49927E-09
 -1       656 6.57897E+04-1.68309E+06-1.58812E+05-2.40416E+03-1.74623E-10-2.91664E-09
 -1       657-8.70308E+04-1.75485E+06-1.31560E+05 5.34703E+03-1.60071E-10 3.87357E-09
 -1       658 2.09686E+04-1.70348E+06-8.10159E+04-4.44996E+03-5.75710E-10-2.43730E-09
 -1       659-9.40876E+04-1.75821E+06-1.40833E+05 7.03338E+03-1.99088E-09-3.69032E-09
 -1       660 7.28307E+04-1.67975E+06-1.74756E+05-4.09049E+03-2.43745E-09-7.93975E-09
 -1       661 1.59320E+05 1.67061E+04 1.67214E+04 6.22827E+04-3.55249E-09 9.42055E-09
 -1       662 1.68744E+05 2.91190E+04 1.12690E+04 5.85656E+04 1.98361E-09-1.89125E-08
 -1       663 1.62604E+05 2.20707E+04 3.94122E+03 6.13296E+04-2.85206E-09 5.42786E-09
 -1       664 1.64936E+05 2.28453E+04 2.35761E+03 5.97297E+04-2.08010E-09 2.09491E-08
 -1       665 1.63102E+05 2.28036E+04 9.30062E+02 6.11844E+04-1.21889E-09-7.99781E-09
 -1       666 1.64347E+05 2.20071E+04 5.44327E+02 5.99190E+04 9.00877E-09-5.01738E-09
 -1       667 1.63190E+05 2.28870E+04 2.89214E+02 6.11481E+04 4.32266E-10 5.62700E-09
 -1       668 1.64250E+05 2.19470E+04 2.94902E+02 5.99718E+04-5.13074E-09-5.10064E-09
 -1       669 1.63198E+05 2.28620E+04 3.99429E+02 6.11320E+04-2.75580E-09 9.22668E-09
 -1       670 1.64348E+05 2.21638E+04 8.69927E+02 5.99746E+04-8.09550E-09 4.88285E-09
 -1       671 1.63092E+05 2.26747E+04 1.54467E+03 6.11433E+04-1.40955E-09-6.00267E-11
 -1       672 1.65248E+05 2.36666E+04 3.95206E+03 5.97566E+04 1.21730E-08 1.54100E-08
 -1       673 1.62302E+05 2.13973E+04 6.62303E+03 6.13355E+04 4.10751E-10-5.39740E-09
 -1       674 1.71551E+05 3.43071E+04 1.89405E+04 5.79046E+04-3.87001E-09-8.12793E-09
 -1       675 1.56829E+05 1.23322E+04 2.81143E+04 6.28834E+04-4.82351E-09-1.18016E-08
 -1       676 2.39155E+01-2.93347E+05-1.10532E+03-1.26392E+02-4.98744E-10 1.01835E-08
 -1       677-2.92550E+02-2.93614E+05-2.02292E+03 2.52583E+02 7.98082E-09-2.10633E-08
 -1       678 1.96086E+02-2.93156E+05-3.57603E+03-1.26108E+02 8.89031E-10 1.87813E-08
 -1       679-3.57624E+03-2.95773E+05-8.49514E+03 2.51501E+02 6.59838E-09 1.19990E-08
 -1       680 2.13510E+03-2.91189E+05-1.36913E+04-1.23915E+02 1.49339E-09-2.05814E-09
 -1       771-3.04121E+06-7.33696E+05-1.57878E+05-1.44964E+06-3.70346E-08-2.51457E-08
 -1       772-2.96628E+06-8.20205E+05-8.14334E+04-1.54959E+06-4.05416E-08 8.85120E-09
 -1       773-3.07126E+06-7.10222E+05-4.14273E+04-1.46325E+06-2.45927E-08 7.26141E-09
 -1       774-2.95693E+06-8.02704E+05-1.85000E+04-1.57413E+06 2.62226E-08 1.22236E-08
 -1       775-3.08686E+06-6.99261E+05-1.37802E+04-1.46982E+06-1.24273E-08-5.60249E-10
 -1       776-2.96846E+06-7.99923E+05-5.16224E+03-1.59261E+06-1.03610E-08 2.85218E-09
 -1       777-3.10037E+06-6.89502E+05-6.06705E+03-1.47561E+06-3.37604E-09 9.96806E-09
 -1       778-2.98052E+06-7.97344E+05-1.71803E+03-1.60847E+06-4.04543E-09 5.86806E-09
 -1       779-3.11196E+06-6.80987E+05-3.02487E+03-1.48057E+06-1.43627E-08-4.88581E-09
 -1       780-2.99113E+06-7.94883E+05-5.01617E+02-1.62140E+06-7.51606E-09 7.25777E-10
 -1       781-3.12117E+06-6.74130E+05-1.17218E+03-1.48444E+06-2.55386E-08-1.89175E-09
 -1       782-2.99930E+06-7.92789E+05 4.26235E+02-1.63093E+06-3.39787E-08-1.15415E-09
 -1       783-3.12765E+06-6.69370E+05 6.65381E+02-1.48716E+06-7.84348E-09-1.44714E-08
 -1       784-3.00382E+06-7.90672E+05 2.74563E+03-1.63681E+06-1.78552E-08 5.82531E-10
 -1       785-3.13148E+06-6.66532E+05 4.84787E+03-1.48889E+06-3.70346E-08 6.85031E-09
 -1       786 1.24438E+05-9.74437E+03 2.25444E+04-3.09893E+02 2.04797E-09 7.47514E-09
 -1       787 1.34215E+05 1.12817E+04 1.59493E+04-1.25650E+02 3.37920E-09-8.68340E-10
 -1       788 1.28207E+05-1.52701E+03 5.83280E+03-2.75378E+02 4.47998E-09 2.01735E-08
 -1       789 1.29823E+05 1.76740E+03 3.66171E+03-1.78684E+02-1.68712E-09 5.77091E-09
 -1       790 1.28830E+05-2.37801E+02 1.48278E+03-2.56875E+02-5.29221E-09 9.19346E-09
 -1       791 1.29095E+05 2.75107E+02 8.56826E+02-2.10377E+02-8.53967E-09 1.31141E-08
 -1       792 1.28936E+05-3.58384E+01 3.63909E+02-2.43687E+02-4.14838E-09 2.67696E-08
 -1       793 1.28970E+05 3.81882E+01 1.83215E+02-2.35202E+02 2.14851E-10 3.02319E-08
 -1       794 1.28956E+05-1.03142E+00 5.12290E+01-2.32050E+02 3.66885E-09 2.02526E-08
 -1       795 1.28934E+05-2.43582E+01-4.79956E+01-2.59507E+02-4.90822E-09 1.19070E-08
 -1       796 1.28971E+05 2.66731E+01-1.45742E+02-2.19382E+02 4.28206E-09 5.93456E-09
 -1       797 1.28848E+05-1.99641E+02-4.04701E+02-2.88619E+02 3.58032E-09 2.70522E-08
 -1       798 1.29042E+05 1.74120E+02-6.58511E+02-2.02937E+02 2.26865E-09 1.79968E-08
 -1       799 1.28348E+05-1.28353E+03-1.81276E+03-3.29284E+02 5.84488E-09 1.84858E-08
 -1       800 1.29471E+05 1.10967E+03-2.56574E+03-1.78718E+02-2.40118E-10 2.36652E-08
 -1       801-1.48903E+05-9.59687E+06-1.32586E+06 1.31815E+06 9.09204E-08-5.36347E-08
 -1       802 6.75618E+05 5.32243E+06 2.02381E+06-1.61619E+06 2.50409E-07-3.87372E-08
 -1       803-5.00343E+05-1.35528E+07-1.76846E+06 8.36769E+05 7.52443E-08 1.79061E-08
 -1       804 2.63148E+05 1.97468E+06 1.42645E+06 6.46079E+05-1.15542E-07-9.77113E-08
 -1       805 1.81365E+05-6.26375E+06-2.68491E+05-9.38770E+05-4.79122E-08-6.60330E-08
 -1       806-3.05107E+05-5.89749E+04-2.25505E+04-1.20850E+05 1.35697E-09-5.11227E-09
 -1       807-3.06890E+05-5.52853E+04-1.10789E+04-1.26311E+05 2.53478E-08-1.04198E-08
 -1       808-3.05725E+05-5.08489E+04-4.70001E+03-1.24693E+05-3.69437E-09-1.65719E-08
 -1       809-3.04561E+05-5.21720E+04-2.29819E+03-1.26583E+05-1.03662E-08-1.06879E-08
 -1       810-3.05819E+05-5.05660E+04-1.05338E+03-1.24863E+05-3.22871E-11-2.44518E-08
 -1       811-3.04381E+05-5.20469E+04-5.23859E+02-1.26548E+05-9.25866E-10-1.30058E-08
 -1       812-3.05833E+05-5.05903E+04-2.64994E+02-1.24862E+05-1.73359E-08 5.58884E-10
 -1       813-3.04356E+05-5.20490E+04-1.72323E+02-1.26529E+05-1.66765E-08-7.87350E-09
 -1       814-3.05826E+05-5.05998E+04-1.70920E+02-1.24858E+05-1.30767E-08-6.08861E-09
 -1       815-3.04360E+05-5.20512E+04-2.75548E+02-1.26522E+05-4.63479E-09 5.24551E-10
 -1       816-3.05806E+05-5.05988E+04-5.22331E+02-1.24855E+05 6.37556E-09 3.35663E-08
 -1       817-3.04449E+05-5.21010E+04-1.12107E+03-1.26511E+05-1.51804E-08-1.41472E-08
 -1       818-3.05738E+05-5.07569E+04-2.28659E+03-1.24780E+05-8.26094E-09-3.91992E-09
 -1       819-3.05701E+05-5.34824E+04-5.38025E+03-1.26215E+05 2.46246E-09 5.27621E-09
 -1       820-3.05307E+05-5.48209E+04-1.09507E+04-1.23044E+05-1.30603E-09-1.05083E-08
 -1       821-3.75658E+05 2.06901E+04-4.80798E+04 1.91275E+03 1.26081E-08-1.66256E-09
 -1       822-3.95524E+05-2.39637E+04-3.38534E+04-3.91240E+03 4.02002E-09-1.28712E-08
 -1       823-3.83213E+05 3.25709E+03-1.24262E+04 2.99966E+03-1.09008E-08 1.28557E-09
 -1       824-3.86467E+05-3.75841E+03-7.78792E+03-4.61416E+03 1.43281E-09 9.47659E-09
 -1       825-3.84719E+05 5.05961E+02-3.24938E+03 2.61459E+03 1.78508E-08 5.17593E-09
 -1       826-3.84253E+05-5.70247E+02-1.77559E+03-2.59160E+03 2.27290E-08-1.30897E-08
 -1       827-3.85408E+05 5.67608E+01-1.13814E+03 9.76999E+02 9.77440E-09-1.01821E-08
 -1       828-3.83692E+05-1.44199E+02-6.56465E+02 1.03864E+03-4.56475E-09-6.60686E-09
 -1       829-3.85272E+05 7.28767E+01-1.13233E+03-1.01568E+03 1.99952E-09 6.53097E-09
 -1       830-3.84551E+05-6.18750E+02-1.90213E+03 4.27971E+03 2.27581E-09 1.87695E-08
 -1       831-3.84565E+05 5.44725E+02-3.33603E+03-2.26410E+03-6.10301E-09-2.48292E-10
 -1       832-3.86550E+05-3.91952E+03-8.08857E+03 5.34608E+03-3.12165E-09-2.39150E-08
 -1       833-3.83285E+05 3.37998E+03-1.29219E+04-2.08208E+03-2.89948E-09-8.43283E-09
 -1       834-3.95640E+05-2.48712E+04-3.50796E+04 3.61999E+03-2.96694E-09 1.62486E-08
 -1       835-3.75463E+05 2.14677E+04-4.99330E+04-5.37941E+02 6.10720E-09 1.22345E-08
 -1       836-1.39045E+03 3.65033E+05 2.25689E+04-1.62128E+04-6.56655E-09-1.28302E-08
 -1       837 4.81627E+03 3.72099E+05 1.91046E+04-3.30882E+04-7.18296E-09-3.00247E-09
 -1       838-5.47988E+02 3.67013E+05 1.94752E+04-1.61416E+04-6.02540E-09-3.56727E-09
 -1       839 1.22654E+04 3.77647E+05 3.68509E+04-3.31399E+04-6.30644E-09-1.23018E-08
 -1       840-3.78853E+03 3.59426E+05 5.87678E+04-1.61665E+04-5.66433E-09-8.97893E-09
 -1       856-5.37688E+04 8.00535E+03-2.10959E+04-3.97952E+02 4.48836E-09 4.07272E-09
 -1       857-6.24611E+04-9.40502E+03-1.45223E+04 5.58547E+03 1.48407E-09 8.91009E-09
 -1       858-5.72107E+04 1.12261E+03-5.47392E+03-4.21996E+02 3.57733E-09-3.92447E-10
 -1       859-5.85111E+04-1.31976E+03-3.30337E+03 5.62138E+03 1.42801E-09 1.81681E-08
 -1       860-5.77249E+04 1.57158E+02-1.38462E+03-4.33615E+02 9.04009E-10 1.32264E-08
 -1       861-5.79195E+04-1.86722E+02-7.62088E+02 5.63722E+03 5.58878E-09 2.31974E-08
 -1       862-5.78053E+04 2.12547E+01-3.17550E+02-4.37814E+02-1.31950E-09 7.43145E-09
 -1       863-5.78211E+04-2.10788E+01-1.17399E+02 5.63963E+03-2.73140E-09 2.77655E-09
 -1       864-5.78238E+04-4.72249E+00 4.32053E+01-4.36029E+02-5.97070E-09-5.81662E-09
 -1       865-5.77665E+04 5.84642E+01 2.45990E+02 5.62951E+03-1.42499E-09-3.60080E-09
 -1       866-5.78577E+04-5.83281E+01 4.97732E+02-4.27693E+02-2.25634E-09-4.67583E-09
 -1       867-5.75319E+04 4.81908E+02 1.22641E+03 5.60687E+03 2.68790E-09 2.54317E-08
 -1       868-5.80536E+04-4.20585E+02 2.03822E+03-4.13383E+02-2.42062E-09-4.92776E-09
 -1       869-5.60372E+04 3.50034E+03 5.42760E+03 5.56953E+03 1.37723E-09-1.86153E-08
 -1       870-5.93448E+04-2.99487E+03 7.87658E+03-3.90259E+02-2.73360E-09-4.49973E-09
 -1       871-5.46749E+03-2.06871E+04-1.92203E+04 1.28558E+05-4.90400E-09-6.14182E-09
 -1       872-1.98767E+03-2.51479E+04-8.04023E+03 1.66694E+05-9.42055E-09 2.31194E-09
 -1       873 3.74873E+02-2.29944E+04 6.01229E+02 1.28276E+05-5.55292E-09-8.69386E-09
 -1       874 3.23871E+03-2.05995E+04 9.68964E+03 1.66724E+05-1.15397E-08 4.78212E-09
 -1       875 6.75261E+03-2.53026E+04 2.18439E+04 1.28512E+05-4.78758E-09 3.67800E-09
 -1       876 2.90533E+05 4.90088E+04 1.49517E+04 1.16642E+05 3.38878E-09-2.91311E-09
 -1       877 2.91517E+05 5.21623E+04 7.98482E+03 1.20935E+05 8.17636E-09-9.38371E-10
 -1       878 2.91931E+05 4.73527E+04 3.34524E+03 1.17867E+05-5.58293E-09 1.42018E-09
 -1       879 2.89485E+05 5.01340E+04 1.66680E+03 1.21036E+05 2.71507E-09-2.78817E-10
 -1       880 2.92031E+05 4.73355E+04 7.76365E+02 1.17917E+05 5.20913E-10-2.82398E-10
 -1       881 2.89350E+05 5.00473E+04 4.14581E+02 1.21013E+05-8.03004E-09 1.57459E-08
 -1       882 2.92040E+05 4.73486E+04 2.65208E+02 1.17918E+05-1.97497E-09 8.92089E-09
 -1       883 2.89340E+05 5.00428E+04 2.85083E+02 1.21005E+05-2.44790E-09 5.19287E-09
 -1       884 2.92034E+05 4.73458E+04 4.53474E+02 1.17918E+05 8.74365E-10-1.69218E-08
 -1       885 2.89376E+05 5.00491E+04 9.11718E+02 1.21016E+05-6.40753E-09-4.65866E-09
 -1       886 2.91999E+05 4.73193E+04 1.83752E+03 1.17915E+05-6.49010E-11 4.14002E-09
 -1       887 2.89699E+05 5.02608E+04 4.01381E+03 1.21063E+05 8.12099E-09 7.53710E-09
 -1       888 2.91745E+05 4.73639E+04 8.08794E+03 1.17786E+05-2.05202E-09 1.34150E-08
 -1       889 2.94514E+05 5.52681E+04 1.93206E+04 1.20915E+05 1.74781E-09 2.10694E-08
 -1       890 2.88444E+05 5.12848E+04 3.61870E+04 1.14708E+05-6.62158E-09-2.66118E-09
 -1       891-9.28722E+01-1.61124E+05-1.97414E+03 2.70152E+04-4.49518E-10 1.16852E-08
 -1       892-1.80314E+02-1.61643E+05-2.12090E+03 4.10158E+04 3.67891E-09-1.27309E-08
 -1       893 3.86707E+01-1.61187E+05-3.00361E+03 2.70224E+04 3.20824E-10-1.28966E-09
 -1       894-1.50106E+03-1.62778E+05-6.21682E+03 4.08643E+04 3.44949E-09 1.44291E-09
 -1       895-1.19119E+03-1.59892E+05-1.09480E+04 2.71683E+04-2.03613E-10-1.39426E-08
 -1       956-3.72804E+05-5.37676E+03-1.32893E+04 3.02302E+04 9.21682E-09-1.84295E-08
 -1       957-3.75412E+05-1.89144E+03-6.82122E+03 3.63333E+04 2.57251E-09-1.29958E-08
 -1       958-3.73997E+05-2.31717E+02-3.07382E+03 3.00649E+04-2.46837E-09 7.66340E-09
 -1       959-3.74192E+05-1.27319E+02-1.56957E+03 3.65254E+04 1.33423E-09-5.37511E-10
 -1       960-3.74113E+05-3.83675E+01-7.65392E+02 3.00479E+04 5.42605E-09-2.44881E-10
 -1       961-3.74112E+05-5.54756E+01-4.05829E+02 3.65454E+04 1.14178E-08 2.52246E-08
 -1       962-3.74140E+05-3.97887E+01-2.32365E+02 3.00451E+04-1.01090E-09-8.06972E-09
 -1       963-3.74112E+05-5.14617E+01-1.86571E+02 3.65490E+04 3.13537E-09-1.02091E-08
 -1       964-3.74146E+05-3.65091E+01-2.26913E+02 3.00443E+04-3.61109E-09 7.01152E-09
 -1       965-3.74124E+05-4.84833E+01-3.92490E+02 3.65483E+04-1.41341E-08 1.94923E-08
 -1       966-3.74130E+05-2.86208E+01-7.37465E+02 3.00458E+04-3.05840E-09 6.22231E-09
 -1       967-3.74213E+05-1.11055E+02-1.51254E+03 3.65343E+04-3.83807E-10 4.78917E-09
 -1       968-3.74027E+05-2.08672E+02-2.96097E+03 3.00582E+04 7.42921E-09-2.74269E-09
 -1       969-3.75401E+05-1.80556E+03-6.57333E+03 3.63892E+04 1.18453E-08-3.04753E-08
 -1       970-3.72885E+05-5.16283E+03-1.28051E+04 3.01831E+04 2.14004E-09-7.10315E-10
 -1       971-3.41774E+05-1.71253E+03-9.24461E+03 1.52625E+04 4.09000E-09 1.44177E-08
 -1       972-3.44001E+05-1.25899E+03-5.03452E+03 2.11204E+04 3.79441E-09 1.96292E-08
 -1       973-3.42804E+05-5.88238E+01-2.25499E+03 1.51419E+04 2.57660E-09 4.25871E-09
 -1       974-3.42940E+05-7.66619E+01-1.16888E+03 2.12566E+04-2.72871E-09 1.53796E-08
 -1       975-3.42886E+05-1.43033E+01-5.84666E+02 1.51296E+04-1.96769E-09 1.26360E-08
 -1       976-3.42878E+05-2.71990E+01-3.38007E+02 2.12722E+04 2.87832E-09-1.04114E-08
 -1       977-3.42902E+05-1.35946E+01-2.46569E+02 1.51263E+04-2.26396E-09-1.72167E-08
 -1       978-3.42884E+05-2.10428E+01-2.90240E+02 2.12770E+04-6.40807E-09 3.81965E-09
 -1       979-3.42902E+05-5.21674E+00-4.67788E+02 1.51249E+04-4.78047E-09 1.95172E-08
 -1       980-3.42919E+05-1.80160E+01-9.04157E+02 2.12780E+04-1.67763E-09 4.77405E-09
 -1       981-3.42873E+05 1.73797E+01-1.75162E+03 1.51254E+04 3.06363E-09 5.68264E-10
 -1       982-3.43159E+05-1.47439E+02-3.62084E+03 2.12714E+04-2.84126E-09-2.00196E-08
 -1       983-3.42652E+05-9.47778E+01-7.03545E+03 1.51314E+04-2.42471E-09 2.59661E-10
 -1       984-3.46543E+05-3.82184E+03-1.57556E+04 2.11863E+04-2.95404E-09 1.44282E-08
 -1       985-3.39467E+05-5.24289E+03-2.89322E+04 1.52032E+04-6.41603E-09 6.35191E-09
 -3
    1PSTEP                        37          19           1          
  100CL  119 6.62109E-01         409                     0   19           1
 -4  DISP        4    1
 -5  D1          1    2    1    0
 -5  D2          1    2    2    0
 -5  D3          1    2    3    0
 -5  ALL         1    2    0    0    1ALL
 -1         1 2.65481E-03 0.00000E+00 0.00000E+00
 -1         2 1.41314E-03-7.53645E-27 0.00000E+00
 -1         3 3.37475E-04-1.07410E-27-1.32349E-23
 -1         5 1.76570E-04-1.81494E-26 3.30872E-24
 -1         8 2.64277E-03-4.28131E-07 0.00000E+00
 -1         9 2.63546E-03-1.57899E-04 0.00000E+00
 -1        10 3.07664E-04-3.43470E-06 1.32349E-23
 -1        12 1.78392E-04 8.07542E-07-1.65436E-24
 -1        15 2.62880E-03-4.55843E-07 2.06795E-25
 -1        16 2.68957E-03-1.59544E-04 0.00000E+00
 -1        17 2.10637E-04-7.96456E-06 0.00000E+00
 -1        18 1.82268E-04 3.40772E-05 0.00000E+00
 -1        19 1.83858E-04 1.60873E-06 0.00000E+00
 -1        20 1.83998E-04-9.59504E-06 0.00000E+00
 -1        21 1.83108E-04-2.48118E-05 0.00000E+00
 -1        24 3.06275E-05-1.21790E-05 0.00000E+00
 -1        25 1.92926E-04 3.43024E-05 0.00000E+00
 -1        26 1.93609E-04 2.22777E-06 0.00000E+00
 -1        27 1.91413E-04-1.31467E-05 0.00000E+00
 -1        28 1.91096E-04-2.54330E-05 0.00000E+00
 -1        32 0.00000E+00 0.00000E+00 0.00000E+00
 -1        33 2.02353E-04 2.98021E-06 0.00000E+00
 -1        34 2.00239E-04-1.32024E-05 0.00000E+00
 -1        35 1.98310E-04-2.57748E-05 0.00000E+00
 -1        51 2.65401E-03-8.79487E-08 0.00000E+00
 -1        52 2.65254E-03-1.58029E-07 0.00000E+00
 -1        53 2.65054E-03-2.24858E-07 0.00000E+00
 -1        54 2.64815E-03-2.90663E-07-1.65436E-24
 -1        55 2.64551E-03-3.57183E-07-1.65436E-24
 -1        56 2.64865E-03 4.83020E-06 5.29396E-23
 -1        57 2.63793E-03 2.09947E-05 5.29396E-23
 -1        58 2.62418E-03 4.47764E-05-1.05879E-22
 -1        59 2.60914E-03 7.17065E-05 5.29396E-23
 -1        60 2.59484E-03 9.67882E-05 1.05879E-22
 -1        61 2.58321E-03 1.15174E-04-5.29396E-23
 -1        62 2.57563E-03 1.23206E-04 0.00000E+00
 -1        63 2.57300E-03 1.18141E-04-5.29396E-23
 -1        64 2.57527E-03 9.96022E-05 0.00000E+00
 -1        65 2.58196E-03 6.84482E-05 5.29396E-23
 -1        66 2.59184E-03 2.78668E-05 1.05879E-22
 -1        67 2.60349E-03-1.80664E-05-5.29396E-23
 -1        68 2.61524E-03-6.42739E-05-1.05879E-22
 -1        69 2.62541E-03-1.05645E-04 0.00000E+00
 -1        70 2.63252E-03-1.37983E-04 5.29396E-23
 -1        86 1.48991E-03-5.15591E-06 5.29396E-23
 -1        87 1.71289E-03-3.16724E-05 0.00000E+00
 -1        88 2.01260E-03-7.69893E-05-2.64698E-23
 -1        89 2.31591E-03-1.23410E-04 0.00000E+00
 -1        90 2.54764E-03-1.51812E-04 0.00000E+00
 -1       121 3.36638E-04-5.56853E-07 1.32349E-23
 -1       122 3.34130E-04-1.11641E-06 6.61744E-24
 -1       123 3.29959E-04-1.68131E-06 0.00000E+00
 -1       124 3.24143E-04-2.25428E-06-6.61744E-24
 -1       125 3.16701E-04-2.83753E-06 0.00000E+00
 -1       191 1.76621E-04 1.34653E-07 2.48154E-24
 -1       192 1.76773E-04 2.69294E-07 8.27181E-25
 -1       193 1.77026E-04 4.03915E-07 0.00000E+00
 -1       194 1.77380E-04 5.38506E-07-1.24077E-24
 -1       195 1.77835E-04 6.73052E-07-1.65436E-24
 -1       251 2.64241E-03 2.48864E-06 0.00000E+00
 -1       252 2.64204E-03 6.47469E-06 0.00000E+00
 -1       253 2.64167E-03 1.02526E-05-1.32349E-23
 -1       254 2.64130E-03 1.25477E-05-6.61744E-24
 -1       255 2.64094E-03 1.23516E-05 0.00000E+00
 -1       256 2.64056E-03 8.69324E-06 0.00000E+00
 -1       257 2.64017E-03 1.22177E-06-1.32349E-23
 -1       258 2.63974E-03-1.03565E-05 0.00000E+00
 -1       259 2.63927E-03-2.56000E-05 1.32349E-23
 -1       260 2.63874E-03-4.40121E-05 0.00000E+00
 -1       261 2.63817E-03-6.45283E-05 0.00000E+00
 -1       262 2.63758E-03-8.60534E-05-6.61744E-24
 -1       263 2.63700E-03-1.07311E-04 0.00000E+00
 -1       264 2.63644E-03-1.27028E-04-6.61744E-24
 -1       265 2.63593E-03-1.44211E-04-1.32349E-23
 -1       266 2.64044E-03-4.38796E-07 0.00000E+00
 -1       267 2.63811E-03-4.42678E-07-8.27181E-25
 -1       268 2.63578E-03-4.46989E-07-8.27181E-25
 -1       269 2.63345E-03-4.50028E-07 0.00000E+00
 -1       270 2.63113E-03-4.53037E-07-2.06795E-25
 -1       271 2.64169E-03 5.33429E-07-1.32349E-23
 -1       272 2.64141E-03-6.93821E-07-6.61744E-24
 -1       273 2.64191E-03-3.99392E-06 0.00000E+00
 -1       274 2.64312E-03-9.24171E-06 0.00000E+00
 -1       275 2.64500E-03-1.62928E-05 0.00000E+00
 -1       276 2.64748E-03-2.49890E-05-1.32349E-23
 -1       277 2.65050E-03-3.51575E-05 0.00000E+00
 -1       278 2.65398E-03-4.66131E-05 1.32349E-23
 -1       279 2.65786E-03-5.91597E-05 0.00000E+00
 -1       280 2.66206E-03-7.25918E-05 0.00000E+00
 -1       281 2.66651E-03-8.66961E-05 0.00000E+00
 -1       282 2.67111E-03-1.01254E-04-1.32349E-23
 -1       283 2.67580E-03-1.16043E-04 0.00000E+00
 -1       284 2.68050E-03-1.30837E-04 0.00000E+00
 -1       285 2.68511E-03-1.45412E-04-1.32349E-23
 -1       301 2.64529E-03-1.58203E-04 1.32349E-23
 -1       302 2.65360E-03-1.58466E-04 0.00000E+00
 -1       303 2.66129E-03-1.58721E-04 0.00000E+00
 -1       304 2.66925E-03-1.58976E-04-6.61744E-24
 -1       305 2.67838E-03-1.59243E-04 0.00000E+00
 -1       306 2.67269E-03-3.09181E-04 1.05879E-22
 -1       307 2.73670E-03-7.18241E-04-5.29396E-23
 -1       308 2.78443E-03-1.31811E-03 0.00000E+00
 -1       309 2.80957E-03-2.01408E-03-5.29396E-23
 -1       310 2.84159E-03-2.68154E-03 0.00000E+00
 -1       311 2.90108E-03-3.19841E-03 0.00000E+00
 -1       312 2.95939E-03-3.48437E-03 1.05879E-22
 -1       313 2.95710E-03-3.50070E-03 0.00000E+00
 -1       314 2.82154E-03-3.25847E-03-1.05879E-22
 -1       315 2.51176E-03-2.82046E-03 0.00000E+00
 -1       316 2.04510E-03-2.26254E-03 0.00000E+00
 -1       317 1.48579E-03-1.65394E-03-5.29396E-23
 -1       318 9.46329E-04-1.05588E-03-1.05879E-22
 -1       319 5.33311E-04-5.33523E-04 0.00000E+00
 -1       320 2.90366E-04-1.60297E-04 0.00000E+00
 -1       336 2.96722E-04-4.11920E-06-1.32349E-23
 -1       337 2.83585E-04-4.83019E-06 0.00000E+00
 -1       338 2.68320E-04-5.56970E-06 0.00000E+00
 -1       339 2.51010E-04-6.33879E-06 0.00000E+00
 -1       340 2.31747E-04-7.14235E-06 1.32349E-23
 -1       406 1.79050E-04 9.41956E-07-1.65436E-24
 -1       407 1.79809E-04 1.07626E-06 1.65436E-24
 -1       408 1.80670E-04 1.21040E-06 2.89513E-24
 -1       409 1.81632E-04 1.34420E-06-7.23783E-25
 -1       410 1.82695E-04 1.47740E-06-2.48154E-24
 -1       521 2.72745E-03-3.20073E-04 0.00000E+00
 -1       522 2.78982E-03-7.48916E-04 0.00000E+00
 -1       523 2.83141E-03-1.37579E-03-1.05879E-22
 -1       524 2.84776E-03-2.09943E-03-5.29396E-23
 -1       525 2.87220E-03-2.79260E-03 0.00000E+00
 -1       526 2.92823E-03-3.33083E-03 0.00000E+00
 -1       527 2.98610E-03-3.62719E-03 2.11758E-22
 -1       528 2.98167E-03-3.64203E-03 5.29396E-23
 -1       529 2.83479E-03-3.38629E-03-2.11758E-22
 -1       530 2.50229E-03-2.93035E-03 5.29396E-23
 -1       531 2.00221E-03-2.35368E-03 1.05879E-22
 -1       532 1.40495E-03-1.72818E-03-5.29396E-23
 -1       533 8.28068E-04-1.11259E-03 1.05879E-22
 -1       534 3.83054E-04-5.69887E-04 0.00000E+00
 -1       535 1.19617E-04-1.77645E-04 0.00000E+00
 -1       536 2.09886E-04 2.68197E-05-6.61744E-24
 -1       537 2.07982E-04 8.70325E-05 1.65436E-24
 -1       538 2.05038E-04 1.63440E-04 0.00000E+00
 -1       539 2.01567E-04 2.46726E-04-1.65436E-24
 -1       540 1.98442E-04 3.25428E-04 0.00000E+00
 -1       541 1.96411E-04 3.88108E-04 1.65436E-24
 -1       542 1.95473E-04 4.28034E-04-3.30872E-24
 -1       543 1.95249E-04 4.38622E-04 0.00000E+00
 -1       544 1.94927E-04 4.20642E-04 3.30872E-24
 -1       545 1.93762E-04 3.75087E-04-1.65436E-24
 -1       546 1.91592E-04 3.10055E-04-3.30872E-24
 -1       547 1.88655E-04 2.33768E-04 0.00000E+00
 -1       548 1.85744E-04 1.57858E-04 3.30872E-24
 -1       549 1.83645E-04 9.39585E-05-1.65436E-24
 -1       550 1.82553E-04 5.00722E-05-1.65436E-24
 -1       551 1.85540E-04-8.53387E-06 0.00000E+00
 -1       552 1.57216E-04-9.18272E-06 0.00000E+00
 -1       553 1.26604E-04-9.89312E-06-6.61744E-24
 -1       554 9.46632E-05-1.06441E-05 3.30872E-24
 -1       555 6.23532E-05-1.14083E-05 0.00000E+00
 -1       556 2.03022E-04 1.15063E-05 0.00000E+00
 -1       557 1.96870E-04 2.72973E-05 0.00000E+00
 -1       558 1.92048E-04 3.96951E-05 0.00000E+00
 -1       559 1.88421E-04 4.90090E-05 0.00000E+00
 -1       560 1.85862E-04 5.55487E-05 0.00000E+00
 -1       561 1.84242E-04 5.96264E-05 0.00000E+00
 -1       562 1.83438E-04 6.15555E-05 0.00000E+00
 -1       563 1.83324E-04 6.16503E-05 0.00000E+00
 -1       564 1.83780E-04 6.02261E-05 0.00000E+00
 -1       565 1.84686E-04 5.75987E-05 0.00000E+00
 -1       566 1.85922E-04 5.40847E-05 0.00000E+00
 -1       567 1.87370E-04 5.00008E-05-3.30872E-24
 -1       568 1.88912E-04 4.56641E-05-1.65436E-24
 -1       569 1.90430E-04 4.13915E-05-8.27181E-25
 -1       570 1.91806E-04 3.75001E-05 0.00000E+00
 -1       571 1.82365E-04 3.19709E-05 2.48154E-24
 -1       572 1.82463E-04 2.97990E-05-8.27181E-25
 -1       573 1.82562E-04 2.75772E-05 1.65436E-24
 -1       574 1.82661E-04 2.53218E-05 0.00000E+00
 -1       575 1.82760E-04 2.30491E-05 3.30872E-24
 -1       576 1.82860E-04 2.07756E-05 0.00000E+00
 -1       577 1.82959E-04 1.85176E-05-6.61744E-24
 -1       578 1.83058E-04 1.62918E-05 0.00000E+00
 -1       579 1.83158E-04 1.41144E-05 0.00000E+00
 -1       580 1.83258E-04 1.20020E-05 0.00000E+00
 -1       581 1.83357E-04 9.97105E-06 6.61744E-24
 -1       582 1.83457E-04 8.03792E-06 0.00000E+00
 -1       583 1.83557E-04 6.21907E-06 6.61744E-24
 -1       584 1.83658E-04 4.53076E-06-3.30872E-24
 -1       585 1.83758E-04 2.98907E-06 0.00000E+00
 -1       586 1.84003E-04 3.41169E-05 0.00000E+00
 -1       587 1.85698E-04 3.41559E-05 0.00000E+00
 -1       588 1.87394E-04 3.41947E-05-8.27181E-25
 -1       589 1.89135E-04 3.42327E-05 0.00000E+00
 -1       590 1.90965E-04 3.42695E-05 0.00000E+00
 -1       591 1.82990E-04 3.20641E-05 1.03398E-25
 -1       592 1.83715E-04 3.00310E-05 0.00000E+00
 -1       593 1.84444E-04 2.79837E-05-8.27181E-25
 -1       594 1.85177E-04 2.59269E-05 0.00000E+00
 -1       595 1.85911E-04 2.38655E-05 8.27181E-25
 -1       596 1.86646E-04 2.18041E-05-4.13590E-25
 -1       597 1.87378E-04 1.97475E-05 0.00000E+00
 -1       598 1.88107E-04 1.77003E-05 0.00000E+00
 -1       599 1.88831E-04 1.56672E-05 0.00000E+00
 -1       600 1.89547E-04 1.36530E-05 0.00000E+00
 -1       601 1.90255E-04 1.16623E-05-8.27181E-25
 -1       602 1.90953E-04 9.69981E-06 4.13590E-25
 -1       603 1.91638E-04 7.77027E-06-4.13590E-25
 -1       604 1.92310E-04 5.87847E-06 1.29247E-25
 -1       605 1.92966E-04 4.02902E-06 0.00000E+00
 -1       606 1.83872E-04 4.61125E-07 0.00000E+00
 -1       607 1.83881E-04-6.00512E-07 0.00000E+00
 -1       608 1.83890E-04-1.58122E-06 0.00000E+00
 -1       609 1.83899E-04-2.48670E-06 0.00000E+00
 -1       610 1.83907E-04-3.32269E-06 0.00000E+00
 -1       611 1.83915E-04-4.09499E-06 0.00000E+00
 -1       612 1.83924E-04-4.80941E-06 0.00000E+00
 -1       613 1.83932E-04-5.47178E-06 0.00000E+00
 -1       614 1.83940E-04-6.08791E-06 0.00000E+00
 -1       615 1.83949E-04-6.66362E-06 0.00000E+00
 -1       616 1.83957E-04-7.20474E-06 0.00000E+00
 -1       617 1.83966E-04-7.71708E-06 0.00000E+00
 -1       618 1.83974E-04-8.20645E-06 0.00000E+00
 -1       619 1.83982E-04-8.67870E-06 0.00000E+00
 -1       620 1.83990E-04-9.13962E-06 0.00000E+00
 -1       621 1.85200E-04 1.71247E-06 1.65436E-24
 -1       622 1.86698E-04 1.81645E-06 0.00000E+00
 -1       623 1.88322E-04 1.92022E-06 1.65436E-24
 -1       624 1.90037E-04 2.02366E-06 8.27181E-25
 -1       625 1.91811E-04 2.12681E-06 0.00000E+00
 -1       626 1.84400E-04 4.97159E-07 0.00000E+00
 -1       627 1.84920E-04-5.51196E-07 0.00000E+00
 -1       628 1.85419E-04-1.54418E-06 6.61744E-24
 -1       629 1.85900E-04-2.48997E-06 0.00000E+00
 -1       630 1.86367E-04-3.39676E-06-3.30872E-24
 -1       631 1.86822E-04-4.27276E-06-1.65436E-24
 -1       632 1.87269E-04-5.12617E-06 0.00000E+00
 -1       633 1.87711E-04-5.96523E-06 0.00000E+00
 -1       634 1.88150E-04-6.79813E-06 3.30872E-24
 -1       635 1.88590E-04-7.63310E-06 1.65436E-24
 -1       636 1.89034E-04-8.47835E-06 0.00000E+00
 -1       637 1.89484E-04-9.34209E-06 0.00000E+00
 -1       638 1.89945E-04-1.02325E-05 3.30872E-24
 -1       639 1.90418E-04-1.11580E-05-8.27181E-25
 -1       640 1.90907E-04-1.21265E-05-1.65436E-24
 -1       656 1.84686E-04-1.01723E-05-6.61744E-24
 -1       657 1.85794E-04-1.07730E-05 0.00000E+00
 -1       658 1.87182E-04-1.13723E-05-1.32349E-23
 -1       659 1.88703E-04-1.19713E-05 6.61744E-24
 -1       660 1.90175E-04-1.25721E-05 0.00000E+00
 -1       661 1.84256E-04-1.00954E-05 8.27181E-25
 -1       662 1.84551E-04-1.06874E-05 0.00000E+00
 -1       663 1.84878E-04-1.13658E-05 0.00000E+00
 -1       664 1.85236E-04-1.21241E-05 8.27181E-25
 -1       665 1.85622E-04-1.29565E-05 1.65436E-24
 -1       666 1.86033E-04-1.38572E-05-8.27181E-25
 -1       667 1.86467E-04-1.48204E-05 1.65436E-24
 -1       668 1.86923E-04-1.58407E-05 8.27181E-25
 -1       669 1.87398E-04-1.69127E-05-1.65436E-24
 -1       670 1.87891E-04-1.80310E-05-8.27181E-25
 -1       671 1.88399E-04-1.91905E-05 0.00000E+00
 -1       672 1.88920E-04-2.03861E-05 8.27181E-25
 -1       673 1.89453E-04-2.16128E-05 0.00000E+00
 -1       674 1.89995E-04-2.28660E-05 4.13590E-25
 -1       675 1.90545E-04-2.41404E-05 0.00000E+00
 -1       676 1.84444E-04-2.49160E-05-3.30872E-24
 -1       677 1.85779E-04-2.50200E-05-1.65436E-24
 -1       678 1.87113E-04-2.51241E-05-3.30872E-24
 -1       679 1.88444E-04-2.52278E-05 1.65436E-24
 -1       680 1.89772E-04-2.53315E-05 0.00000E+00
 -1       771 1.87406E-05 1.43933E-05 5.29396E-23
 -1       772 8.73792E-06 3.62199E-05 0.00000E+00
 -1       773 5.29189E-07 5.35297E-05-5.29396E-23
 -1       774-6.00901E-06 6.65790E-05 0.00000E+00
 -1       775-1.09975E-05 7.56347E-05-5.29396E-23
 -1       776-1.45618E-05 8.09801E-05 2.64698E-23
 -1       777-1.68276E-05 8.29087E-05-5.29396E-23
 -1       778-1.79228E-05 8.17275E-05 0.00000E+00
 -1       779-1.79748E-05 7.77521E-05 5.29396E-23
 -1       780-1.71131E-05 7.13095E-05 0.00000E+00
 -1       781-1.54662E-05 6.27333E-05-5.29396E-23
 -1       782-1.31643E-05 5.23659E-05-2.64698E-23
 -1       783-1.03364E-05 4.05542E-05-5.29396E-23
 -1       784-7.11317E-06 2.76515E-05 0.00000E+00
 -1       785-3.62395E-06 1.40139E-05 0.00000E+00
 -1       786 1.92964E-04 3.20708E-05 1.29247E-26
 -1       787 1.93006E-04 2.98892E-05 0.00000E+00
 -1       788 1.93048E-04 2.77491E-05 0.00000E+00
 -1       789 1.93091E-04 2.56424E-05-8.27181E-25
 -1       790 1.93133E-04 2.35645E-05 0.00000E+00
 -1       791 1.93176E-04 2.15105E-05-8.27181E-25
 -1       792 1.93219E-04 1.94784E-05 0.00000E+00
 -1       793 1.93262E-04 1.74658E-05 8.27181E-25
 -1       794 1.93305E-04 1.54727E-05 0.00000E+00
 -1       795 1.93348E-04 1.34989E-05 0.00000E+00
 -1       796 1.93392E-04 1.15463E-05 1.65436E-24
 -1       797 1.93435E-04 9.61674E-06 8.27181E-25
 -1       798 1.93478E-04 7.71448E-06 0.00000E+00
 -1       799 1.93521E-04 5.84385E-06 0.00000E+00
 -1       800 1.93565E-04 4.01240E-06 1.65436E-24
 -1       801 1.47416E-04 3.08317E-05 0.00000E+00
 -1       802 9.80131E-06 1.92446E-05-2.64698E-23
 -1       803-1.07797E-04 9.72587E-06 5.29396E-23
 -1       804-9.56430E-05 6.76644E-06 2.64698E-23
 -1       805-3.15985E-05 2.66428E-06 0.00000E+00
 -1       806 1.93648E-04 3.20022E-05-1.65436E-24
 -1       807 1.94355E-04 2.97281E-05 0.00000E+00
 -1       808 1.95051E-04 2.74853E-05 0.00000E+00
 -1       809 1.95733E-04 2.52779E-05 0.00000E+00
 -1       810 1.96400E-04 2.31098E-05 3.30872E-24
 -1       811 1.97051E-04 2.09850E-05 1.65436E-24
 -1       812 1.97684E-04 1.89075E-05 3.30872E-24
 -1       813 1.98298E-04 1.68812E-05 0.00000E+00
 -1       814 1.98891E-04 1.49099E-05-3.30872E-24
 -1       815 1.99463E-04 1.29976E-05-8.27181E-25
 -1       816 2.00011E-04 1.11483E-05 0.00000E+00
 -1       817 2.00534E-04 9.36564E-06 0.00000E+00
 -1       818 2.01031E-04 7.65368E-06-3.30872E-24
 -1       819 2.01501E-04 6.01624E-06 8.27181E-25
 -1       820 2.01941E-04 4.45716E-06 3.30872E-24
 -1       821 1.93480E-04-1.00117E-07-1.65436E-24
 -1       822 1.93340E-04-3.55598E-06 1.65436E-24
 -1       823 1.93198E-04-7.71972E-06 0.00000E+00
 -1       824 1.93054E-04-1.21668E-05-1.65436E-24
 -1       825 1.92910E-04-1.63962E-05 3.30872E-24
 -1       826 1.92768E-04-1.99082E-05 0.00000E+00
 -1       827 1.92630E-04-2.23982E-05 0.00000E+00
 -1       828 1.92494E-04-2.35678E-05 1.65436E-24
 -1       829 1.92358E-04-2.34778E-05 0.00000E+00
 -1       830 1.92222E-04-2.21966E-05-1.65436E-24
 -1       831 1.92085E-04-2.01164E-05 3.30872E-24
 -1       832 1.91947E-04-1.76346E-05-1.65436E-24
 -1       833 1.91809E-04-1.52576E-05 0.00000E+00
 -1       834 1.91674E-04-1.34914E-05 1.65436E-24
 -1       835 1.91539E-04-1.26763E-05-8.27181E-25
 -1       836 1.95278E-04 2.35255E-06 3.30872E-24
 -1       837 1.96821E-04 2.48047E-06-1.65436E-24
 -1       838 1.98267E-04 2.60832E-06 0.00000E+00
 -1       839 1.99651E-04 2.73548E-06 0.00000E+00
 -1       840 2.01002E-04 2.86247E-06 0.00000E+00
 -1       856 1.91397E-04-1.41891E-05 0.00000E+00
 -1       857 1.91377E-04-1.50961E-05-1.29247E-26
 -1       858 1.91358E-04-1.58885E-05 0.00000E+00
 -1       859 1.91338E-04-1.65876E-05-2.06795E-25
 -1       860 1.91319E-04-1.72145E-05 0.00000E+00
 -1       861 1.91299E-04-1.77905E-05-2.06795E-25
 -1       862 1.91279E-04-1.83369E-05 0.00000E+00
 -1       863 1.91259E-04-1.88750E-05-4.13590E-25
 -1       864 1.91239E-04-1.94260E-05 8.27181E-25
 -1       865 1.91219E-04-2.00115E-05 0.00000E+00
 -1       866 1.91199E-04-2.06525E-05 0.00000E+00
 -1       867 1.91179E-04-2.13704E-05 0.00000E+00
 -1       868 1.91159E-04-2.21863E-05 8.27181E-25
 -1       869 1.91138E-04-2.31214E-05 0.00000E+00
 -1       870 1.91118E-04-2.41966E-05-8.27181E-25
 -1       871 1.92743E-04-1.31515E-05 8.27181E-25
 -1       872 1.94219E-04-1.31598E-05 0.00000E+00
 -1       873 1.95776E-04-1.31688E-05 0.00000E+00
 -1       874 1.97343E-04-1.31785E-05-2.84343E-25
 -1       875 1.98853E-04-1.31887E-05-4.13590E-25
 -1       876 1.91931E-04-1.41746E-05-3.30872E-24
 -1       877 1.92427E-04-1.51359E-05 0.00000E+00
 -1       878 1.92901E-04-1.60383E-05 0.00000E+00
 -1       879 1.93356E-04-1.68894E-05-1.65436E-24
 -1       880 1.93795E-04-1.76966E-05-3.30872E-24
 -1       881 1.94220E-04-1.84671E-05 1.65436E-24
 -1       882 1.94634E-04-1.92083E-05 0.00000E+00
 -1       883 1.95040E-04-1.99276E-05-1.65436E-24
 -1       884 1.95440E-04-2.06323E-05-3.30872E-24
 -1       885 1.95838E-04-2.13297E-05 0.00000E+00
 -1       886 1.96236E-04-2.20271E-05 3.30872E-24
 -1       887 1.96636E-04-2.27320E-05 0.00000E+00
 -1       888 1.97042E-04-2.34515E-05 3.30872E-24
 -1       889 1.97455E-04-2.41933E-05 0.00000E+00
 -1       890 1.97879E-04-2.49647E-05 0.00000E+00
 -1       891 1.92440E-04-2.54904E-05 1.65436E-24
 -1       892 1.93761E-04-2.55480E-05 8.27181E-25
 -1       893 1.95034E-04-2.56054E-05 0.00000E+00
 -1       894 1.96233E-04-2.56627E-05 8.27181E-25
 -1       895 1.97333E-04-2.57196E-05 4.13590E-25
 -1       956 2.02223E-04 1.67750E-06-1.65436E-24
 -1       957 2.02091E-04 4.66122E-07 0.00000E+00
 -1       958 2.01958E-04-6.64643E-07 0.00000E+00
 -1       959 2.01826E-04-1.72610E-06 1.65436E-24
 -1       960 2.01693E-04-2.72959E-06 0.00000E+00
 -1       961 2.01561E-04-3.68651E-06-1.65436E-24
 -1       962 2.01428E-04-4.60824E-06 3.30872E-24
 -1       963 2.01296E-04-5.50620E-06 0.00000E+00
 -1       964 2.01163E-04-6.39181E-06 0.00000E+00
 -1       965 2.01030E-04-7.27647E-06 0.00000E+00
 -1       966 2.00898E-04-8.17159E-06 3.30872E-24
 -1       967 2.00765E-04-9.08859E-06 0.00000E+00
 -1       968 2.00633E-04-1.00389E-05 0.00000E+00
 -1       969 2.00501E-04-1.10338E-05-3.30872E-24
 -1       970 2.00369E-04-1.20847E-05 0.00000E+00
 -1       971 2.00119E-04-1.43196E-05-3.30872E-24
 -1       972 1.99998E-04-1.53423E-05 0.00000E+00
 -1       973 1.99877E-04-1.62809E-05 0.00000E+00
 -1       974 1.99756E-04-1.71463E-05-1.65436E-24
 -1       975 1.99634E-04-1.79492E-05 3.30872E-24
 -1       976 1.99513E-04-1.87006E-05 1.65436E-24
 -1       977 1.99392E-04-1.94113E-05 0.00000E+00
 -1       978 1.99271E-04-2.00922E-05 0.00000E+00
 -1       979 1.99150E-04-2.07542E-05 0.00000E+00
 -1       980 1.99028E-04-2.14083E-05 0.00000E+00
 -1       981 1.98907E-04-2.20653E-05-3.30872E-24
 -1       982 1.98786E-04-2.27360E-05 0.00000E+00
 -1       983 1.98666E-04-2.34315E-05 3.30872E-24
 -1       984 1.98545E-04-2.41626E-05 0.00000E+00
 -1       985 1.98425E-04-2.49401E-05 0.00000E+00
 -3
    1PSTEP                        38          19           1          
  100CL  119 6.62109E-01         409                     0   19           1
 -4  STRESS      6    1
 -5  SXX         1    4    1    1
 -5  SYY         1    4    2    2
 -5  SZZ         1    4    3    3
 -5  SXY         1    4    1    2
 -5  SYZ         1    4    2    3
 -5  SZX         1    4    3    1
 -1         1-5.22467E+06-1.68481E+06-1.12069E+06-1.49583E+06 8.87667E-10-2.61265E-07
 -1         2 1.16566E+06 1.71649E+07 4.12091E+06 5.15544E+06 2.54076E-08 3.31420E-08
 -1         3-1.27927E+03-1.58245E+06 6.04079E+02-2.09346E+03-3.53015E-10 2.46364E-08
 -1         5-7.32962E+01 3.85582E+05 9.96307E+00-1.31929E+00-5.99968E-10 5.92809E-09
 -1         8-6.32075E+05-2.19069E+05-7.45798E+04-2.59686E+05 1.98270E-10 6.39702E-08
 -1         9 1.12672E+07 2.97691E+06 2.54423E+06-5.16106E+05 9.68575E-09 5.87199E-08
 -1        10-3.61372E+03-1.68579E+06-5.12800E+03-1.54443E+04-5.26779E-09-6.16875E-08
 -1        12-6.93801E+01 3.85604E+05 3.27388E+02-9.00155E+00-7.06887E-10 3.18778E-09
 -1        15 1.00190E+03 5.50596E+02 3.23858E+03 1.00858E+00-1.22336E-09-3.60007E-07
 -1        16 2.24062E+07-2.83789E+05 3.06571E+06-2.11303E+06 3.80290E-09 3.81842E-08
 -1        17 8.17992E+06 6.09956E+06 2.20818E+06 5.86529E+06 4.02448E-08 2.01515E-08
 -1        18 1.40947E+05 3.31327E+04 3.88815E+03-1.19175E+05 1.40910E-08-7.67022E-09
 -1        19 1.22160E+05 1.41390E+05-9.41180E+02 2.19374E+04 1.75733E-09-1.42514E-08
 -1        20-8.16072E+04-5.72540E+05-1.28460E+05 2.51685E+04-2.15975E-09 1.33993E-08
 -1        21-4.55633E+01-2.95631E+05-9.22997E+02 2.70868E+02 1.27191E-08 3.70785E-08
 -1        24 1.36283E+07 1.17369E+07 3.78165E+06 1.08756E+07-1.64660E-07-5.10481E-08
 -1        25 1.21811E+05 2.55497E+05 9.69893E+04-6.38664E+05-1.41754E-09 8.38081E-09
 -1        26-5.52349E+04 9.21040E+04-2.45775E+04 1.21824E+03-1.53523E-10 6.41479E-09
 -1        27-7.55659E+04-3.09360E+05-1.13118E+05 6.88426E+04 4.42621E-09-5.57369E-09
 -1        28 2.22186E+04-8.52143E+04 1.68752E+04 2.06219E+04-3.20421E-09 2.50463E-08
 -1        32-1.67789E+06-3.16862E+06-1.95702E+05 4.44801E+05-4.19823E-08-7.44012E-09
 -1        33-1.78136E+05 9.28050E+04 3.23241E+04-3.84776E+04-3.26899E-09-6.59747E-09
 -1        34-2.23213E+05-2.49678E+04 6.87617E+02 7.54816E+04-5.49963E-09-8.64929E-10
 -1        35-2.29042E+04-3.37942E+04-1.34623E+03 5.14314E+04-3.26267E-09 9.05735E-09
 -1        51 5.89641E+04-1.80880E+05 1.25094E+05-4.78085E+05 2.91038E-11-7.92134E-08
 -1        52 2.01615E+04-1.59290E+05 6.59337E+04-5.57534E+05 3.84716E-10-2.31084E-08
 -1        53 4.35531E+03-1.74699E+05 3.48164E+04-4.76415E+05 4.94765E-10 4.15166E-08
 -1        54 8.13319E+03-1.70539E+05 2.95734E+04-5.59196E+05-2.18279E-11 1.38007E-08
 -1        55 1.76277E+04-1.78046E+05 3.71055E+04-4.76282E+05 1.38243E-10 3.65579E-07
 -1        56-9.55998E+06-1.21860E+06-8.56334E+05-3.89026E+06-3.99887E-08 1.71509E-07
 -1        57-1.05794E+07-1.15601E+06-5.52753E+05-2.98546E+06-1.07393E-08 2.20949E-07
 -1        58-9.54183E+06-1.60692E+06-1.95539E+05-3.98724E+06 3.05590E-10-2.59060E-07
 -1        59-1.05532E+07-7.30390E+05-1.12452E+05-2.95350E+06-5.64251E-08-3.88636E-07
 -1        60-9.61109E+06-1.61597E+06-5.03304E+04-3.94675E+06 6.53017E-09-2.09056E-07
 -1        61-1.01965E+07-9.18917E+05-9.11424E+03-3.15224E+06-1.34896E-08 1.20272E-07
 -1        62-9.84345E+06-1.45470E+06-3.72614E+04-3.74690E+06-2.70811E-08 2.98242E-08
 -1        63-9.69678E+06-1.34316E+06 1.49563E+04-3.60390E+06-6.06524E-08 1.80080E-07
 -1        64-1.00712E+07-1.21953E+06-3.40410E+04-3.46894E+06 1.47775E-08 1.55760E-07
 -1        65-9.40895E+06-1.72488E+06-9.25749E+03-4.12344E+06-4.96693E-08-1.95871E-07
 -1        66-1.01804E+07-1.03897E+06-4.31587E+04-3.26381E+06 8.84756E-09 2.52838E-07
 -1        67-9.36604E+06-1.91226E+06-1.01435E+05-4.36091E+06-4.38104E-08 2.37802E-07
 -1        68-1.01624E+07-9.99585E+05-1.78430E+05-3.26287E+06-1.69285E-08-9.24920E-08
 -1        69-9.59424E+06-2.06387E+06-4.95222E+05-4.09177E+06-6.49115E-08-1.97986E-07
 -1        70-9.91177E+06-9.26176E+05-7.78208E+05-3.50214E+06-3.87809E-09-9.98261E-08
 -1        86-1.18771E+06-1.32262E+07-2.25167E+06-2.43519E+06-2.41018E-07-3.88536E-08
 -1        87 1.81743E+06 4.63816E+06 1.87398E+06 4.73797E+06-4.06915E-07-1.38730E-08
 -1        88-3.16877E+05-2.21313E+06 1.70224E+05-2.24349E+06-3.66988E-07-2.68301E-08
 -1        89 2.44011E+06 4.42697E+06 1.91451E+06 4.87890E+06-5.59929E-07 9.14188E-08
 -1        90-1.74434E+06-1.30708E+07-2.44325E+06-2.59416E+06-1.37530E-07 9.16771E-09
 -1       121-1.78236E+03-1.58677E+06-1.75701E+02 1.03889E+03 1.29597E-09 9.62609E-09
 -1       122-1.03920E+03-1.58245E+06 1.22519E+03-4.18787E+03-5.36076E-09 1.35769E-08
 -1       123-1.85730E+03-1.58694E+06 1.19936E+03 3.10241E+03 4.20800E-09-2.52840E-09
 -1       124 1.34728E+03-1.58146E+06 4.90490E+03-8.75481E+03-9.58062E-09 8.22183E-10
 -1       125-3.18974E+03-1.58827E+06 6.72615E+03 5.57127E+03 6.05905E-09 4.55839E-09
 -1       191-7.72487E+01 3.85601E+05 8.56384E+00 6.87283E-01-5.50608E-10 2.73940E-09
 -1       192-7.42568E+01 3.85583E+05 2.12565E+01-4.23827E+00-7.47550E-10-1.82918E-08
 -1       193-7.97779E+01 3.85600E+05 3.62779E+01 3.72029E+00-1.10448E-09 9.08585E-09
 -1       194-7.73370E+01 3.85586E+05 8.07968E+01-9.62002E+00-6.62817E-10-5.26688E-09
 -1       195-8.46327E+01 3.85598E+05 1.54776E+02 6.25539E+00-1.52489E-09-5.38785E-09
 -1       251-1.03291E+06 2.11391E+04-4.98627E+04-1.84639E+04 1.26386E-09 1.11646E-07
 -1       252-1.05280E+06-2.43212E+04-3.48310E+04 6.23153E+04 2.98306E-09 1.31105E-07
 -1       253-1.04161E+06 3.37615E+03-1.30016E+04-1.75390E+04 7.19660E-09 1.12382E-07
 -1       254-1.03743E+06-3.74049E+03-6.69925E+03 5.03055E+04-5.32418E-09 2.04212E-07
 -1       255-1.04765E+06 2.36473E+02-4.34665E+03-6.45479E+03-3.93356E-11 1.71177E-07
 -1       256-1.02825E+06-3.73000E+02 1.09754E+03 2.22158E+04 1.47907E-10 2.13528E-08
 -1       257-1.05006E+06-6.22379E+02-2.06613E+03 1.05407E+04 2.19188E-10 5.22883E-08
 -1       258-1.02954E+06 8.71902E+02 3.12553E+03-1.10596E+04-1.83148E-08 1.53564E-07
 -1       259-1.04652E+06-9.82582E+02 7.05254E+02 2.68125E+04 4.85829E-09 8.87935E-08
 -1       260-1.03803E+06 2.86652E+03 5.21359E+03-3.65829E+04-1.31404E-08 1.26144E-07
 -1       261-1.04238E+06-1.94939E+03 7.48136E+03 3.60813E+04 2.37519E-08-1.11542E-07
 -1       262-1.03868E+06 1.06868E+04 1.87582E+04-4.46108E+04-8.91136E-09-1.75078E-09
 -1       263-1.04622E+06-8.43772E+03 2.95136E+04 3.48535E+04 3.41129E-09 2.19849E-07
 -1       264-1.00983E+06 5.86798E+04 8.24504E+04-3.20713E+04 1.83688E-08 2.74898E-07
 -1       265-1.07060E+06-5.02602E+04 1.13553E+05 2.35252E+04 1.16563E-08 1.83376E-07
 -1       266-1.81377E+04-8.48194E+03 4.25528E+04-2.15788E+01-1.22054E-09-5.61664E-07
 -1       267 2.10264E+04 9.88475E+03 3.00775E+04 2.48994E+01-1.89721E-09-6.39166E-07
 -1       268-2.81960E+03-1.40001E+03 1.11796E+04-3.17252E+00-1.75987E-09-5.95567E-07
 -1       269 3.32912E+03 1.67546E+03 7.26663E+03 3.69563E+00-1.51977E-09-6.01695E-07
 -1       270-4.99697E+02-2.75285E+02 3.50770E+03-5.01520E-01-1.15699E-09-4.54478E-07
 -1       271-1.59896E+06-2.00738E+05-1.19648E+05-6.20076E+05 4.72573E-08-1.75343E-07
 -1       272-1.61371E+06-3.08261E+05-7.58506E+04-6.43778E+05-1.21954E-08 5.83132E-08
 -1       273-1.62367E+06-2.27414E+05-2.87491E+04-6.12143E+05-1.29621E-08 1.51133E-07
 -1       274-1.58469E+06-2.76390E+05-1.53660E+04-6.57933E+05-1.69093E-08 1.23559E-07
 -1       275-1.62916E+06-2.27754E+05-7.01399E+03-6.08599E+05 2.02526E-08 1.71251E-07
 -1       276-1.57832E+06-2.76763E+05-3.19162E+03-6.65497E+05-2.21689E-08 1.88278E-07
 -1       277-1.63182E+06-2.25510E+05-1.90908E+03-6.06012E+05-5.57884E-09-1.82681E-07
 -1       278-1.57559E+06-2.79883E+05-8.72862E+02-6.71121E+05 2.45000E-08 1.61253E-09
 -1       279-1.63354E+06-2.23554E+05-9.99734E+02-6.04137E+05-3.09701E-08 1.40203E-08
 -1       280-1.57417E+06-2.82423E+05-1.31419E+03-6.74986E+05 3.80846E-08 1.59220E-07
 -1       281-1.63449E+06-2.22186E+05-2.42168E+03-6.03002E+05-3.04253E-08 2.23658E-07
 -1       282-1.57451E+06-2.85205E+05-5.65778E+03-6.76785E+05-8.87303E-09-3.23203E-08
 -1       283-1.63391E+06-2.20481E+05-1.00621E+04-6.02753E+05-2.72803E-09-3.43408E-07
 -1       284-1.58332E+06-2.98862E+05-2.74321E+04-6.74681E+05 2.47837E-11-2.35168E-07
 -1       285-1.62590E+06-2.09896E+05-4.26924E+04-6.04627E+05 3.55520E-08-2.76706E-07
 -1       301-1.40636E+02-6.23239E+05 1.68213E+05-1.08821E+06 1.10158E-08 1.81288E-07
 -1       302-3.49861E+02-5.77976E+05 1.01323E+05-1.58925E+06-1.17725E-08-5.07480E-08
 -1       303-1.62748E+04-6.13825E+05 5.79522E+04-1.08532E+06-7.82165E-09 4.49381E-08
 -1       304-1.62456E+04-5.83477E+05 5.95600E+04-1.58852E+06-1.35187E-08-7.02348E-08
 -1       305-1.96276E+04-6.03559E+05 7.48357E+04-1.08842E+06-1.14596E-09 2.08485E-07
 -1       306-2.98555E+07-6.16140E+06-8.51220E+06-6.29527E+05-1.09780E-07 7.43894E-08
 -1       307 2.52334E+07 3.10797E+06 5.46759E+06-1.49013E+07-7.91173E-07-2.86993E-07
 -1       308-7.12440E+06-1.01826E+06-4.87376E+05 5.15338E+06-1.71014E-07 9.36998E-08
 -1       309-3.36112E+06 8.54032E+06 2.23069E+06-2.04608E+07 3.11615E-07 3.26421E-07
 -1       310-1.23064E+07-1.85924E+06-1.94090E+06 5.14846E+06-8.42847E-08-9.25647E-08
 -1       311 3.73116E+07 2.05759E+04 7.10726E+06-8.94936E+06 4.07832E-07-2.76195E-08
 -1       312-3.15038E+07-6.60176E+06-8.36957E+06-4.82824E+06 6.72881E-08 3.24027E-07
 -1       313 4.49834E+07 1.43817E+07 1.05025E+07 2.31367E+07 4.44707E-08-5.61122E-08
 -1       314-1.73035E+07-1.73717E+07-7.42906E+06-1.24164E+07 5.96337E-07-2.43483E-07
 -1       315-1.58308E+06 2.91517E+07 5.61484E+06 1.07151E+07-7.30404E-07-9.22009E-08
 -1       316 1.25861E+06-9.81201E+06-4.65713E+05-2.67686E+06-1.38246E-06-4.39701E-07
 -1       317-1.71654E+07 2.21751E+07 2.18885E+06-8.47390E+06 7.68690E-07-8.33381E-07
 -1       318-1.06676E+06-1.25114E+07-1.96293E+06-4.25993E+06-1.01031E-06 1.20664E-07
 -1       319 6.90809E+06 3.12180E+07 6.87742E+06 1.62654E+07-1.31397E-07 3.11062E-07
 -1       320-2.23105E+07-1.73101E+07-9.67443E+06-1.26247E+07 1.59023E-07-6.70843E-08
 -1       336 1.94465E+02-1.79164E+06-1.82108E+04 9.71759E+03-8.89213E-09-2.14277E-08
 -1       337-7.12832E+03-1.79226E+06-2.15944E+04-2.38307E+04-6.72117E-09-6.02995E-09
 -1       338 6.76297E+02-1.79152E+06-3.13521E+04 1.38625E+04-1.20262E-08-6.58110E-09
 -1       339-3.35445E+04-1.81044E+06-6.97604E+04-3.19356E+04-9.05948E-09 3.34549E-08
 -1       340 2.29347E+04-1.77583E+06-1.08636E+05 1.76963E+04-1.34642E-08 2.32540E-08
 -1       406-4.76347E+01 3.85583E+05 6.42917E+02 3.27849E+00-1.83934E-09-1.19308E-08
 -1       407 1.56361E+02 3.85717E+05 1.37375E+03 2.31298E+01-3.50710E-10-8.51651E-09
 -1       408 6.35494E+02 3.85483E+05 2.73927E+03-2.67398E+01-2.37219E-09-4.90945E-09
 -1       409 2.90258E+03 3.86592E+05 6.17386E+03 2.85213E+02-4.46903E-10-1.85919E-08
 -1       410 8.46372E+03 3.84695E+05 1.26007E+04-2.74992E+02-2.87764E-09-1.04774E-08
 -1       521-3.13497E+07-7.58216E+06-9.91935E+06-2.47702E+05-8.69622E-08-1.46159E-07
 -1       522 2.60253E+07 4.06426E+06 5.55754E+06-1.83317E+07-6.30069E-07-2.65340E-07
 -1       523-7.71943E+06-1.32271E+06-4.81050E+05 5.59164E+06-6.94999E-08-3.24595E-07
 -1       524-6.82494E+06 1.14948E+07 2.40635E+06-2.34717E+07 8.02014E-07-3.99705E-07
 -1       525-1.31156E+07-2.46434E+06-2.12859E+06 5.58496E+06 7.07514E-07-4.35393E-08
 -1       526 4.05939E+07-5.78680E+04 7.44569E+06-1.15696E+07-1.18453E-07-2.14670E-07
 -1       527-3.32845E+07-8.25375E+06-9.62325E+06-4.68690E+06 1.09780E-07-1.28915E-07
 -1       528 4.90251E+07 1.59424E+07 1.09318E+07 2.62302E+07-8.45175E-08 7.74453E-08
 -1       529-1.82381E+07-1.95054E+07-8.49747E+06-1.24489E+07 2.69501E-08-3.11993E-08
 -1       530-4.04109E+06 3.37877E+07 5.92717E+06 1.02529E+07-3.48038E-07 7.97038E-07
 -1       531 1.24118E+06-1.08827E+07-4.42313E+05-2.65835E+06-9.31075E-07 5.00469E-07
 -1       532-1.97509E+07 2.41895E+07 2.38574E+06-1.26217E+07 4.07046E-07-5.26430E-07
 -1       533-1.11663E+06-1.36378E+07-2.08147E+06-4.10566E+06-3.21539E-07-1.02929E-06
 -1       534 4.88127E+06 3.61357E+07 7.14135E+06 1.67951E+07 5.82950E-08 7.21077E-07
 -1       535-2.34522E+07-1.96201E+07-1.10624E+07-1.26838E+07 9.70904E-08 4.62518E-07
 -1       536-7.04321E+05-4.72337E+04-4.59966E+04-5.43972E+04-2.30557E-09 5.38112E-08
 -1       537-5.66225E+04 4.53106E+04 8.46799E+04 1.23301E+05-1.13419E-07 9.79617E-08
 -1       538-3.94410E+05 3.19745E+03 4.00503E+03-7.19320E+04 3.21605E-08 1.21233E-07
 -1       539-2.69800E+05 2.96404E+03 2.50371E+04 1.38182E+05 1.67377E-07 1.15326E-07
 -1       540-4.96489E+05-4.30786E+02-2.10390E+04-6.98084E+04-4.08318E-09 1.14972E-07
 -1       541 1.43054E+05 1.68716E+04 1.05727E+05 9.74717E+04-7.05741E-08 9.34605E-08
 -1       542-7.96140E+05-2.00065E+04-8.36455E+04-3.03553E+04 3.15595E-08 5.22726E-08
 -1       543 4.00083E+05 2.71495E+04 1.56930E+05-1.33023E+04-3.91287E-09-4.14821E-09
 -1       544-7.46625E+05-1.64256E+04-7.43312E+04 4.03030E+04 8.90759E-09-3.70951E-08
 -1       545 2.61690E+04 9.40894E+03 7.92585E+04-1.13126E+05 2.17684E-08-8.25366E-08
 -1       546-4.32267E+05 6.06587E+03-1.21546E+04 6.91258E+04 2.19572E-08-7.68620E-08
 -1       547-2.87812E+05-4.66136E+03 1.04618E+04-1.41029E+05-1.01751E-07-9.23168E-08
 -1       548-4.41084E+05 4.71139E+03-2.37934E+04 6.88895E+04-9.28485E-08-1.01945E-07
 -1       549 4.52670E+04 1.58246E+04 5.99283E+04-1.10978E+05-6.18737E-08-7.01179E-08
 -1       550-7.56433E+05-2.18773E+04-1.28392E+05 3.83670E+04 1.19535E-08-2.90383E-08
 -1       551 4.08632E+04-7.58447E+05-1.45451E+04-1.24581E+06-1.04366E-07-1.09139E-08
 -1       552 9.29999E+04-8.02923E+05 1.07148E+04-1.77648E+06-7.31670E-08 1.80517E-08
 -1       553 7.14270E+04-7.99416E+05 3.25842E+04-1.23921E+06-1.18263E-07 2.58005E-08
 -1       554 1.31553E+05-8.18438E+05 8.17220E+04-1.77842E+06-7.73289E-08 9.98989E-09
 -1       555 1.01148E+05-8.22923E+05 1.49032E+05-1.23907E+06-1.25772E-07-1.52359E-08
 -1       556 2.22475E+05-3.81715E+05 2.77768E+04-4.06160E+05-2.44181E-08-2.96859E-08
 -1       557 3.52914E+05-4.85817E+05 1.71757E+04-5.25895E+05-4.94765E-09 2.00616E-08
 -1       558 2.04514E+05-3.74950E+05 2.79516E+03-4.10281E+05-2.46509E-08 1.78261E-09
 -1       559 3.27839E+05-4.86184E+05 2.66218E+03-5.46196E+05 1.81026E-08 2.81070E-08
 -1       560 1.89341E+05-3.65432E+05-1.38087E+03-4.21210E+05 6.60657E-09 1.13941E-08
 -1       561 3.08743E+05-4.78559E+05 1.83410E+02-5.59207E+05-1.51340E-09 6.83031E-09
 -1       562 1.77338E+05-3.57972E+05-1.28923E+03-4.29902E+05-5.82077E-11-1.74987E-08
 -1       563 2.94484E+05-4.72343E+05-2.36949E+01-5.68519E+05-4.04543E-09-1.82608E-08
 -1       564 1.68774E+05-3.52635E+05-5.88875E+02-4.35971E+05 3.81260E-09-5.33237E-09
 -1       565 2.85031E+05-4.68227E+05 2.68852E+01-5.74558E+05 5.79166E-09-2.26373E-09
 -1       566 1.63771E+05-3.49470E+05-2.56277E+02-4.39470E+05-6.50471E-09-2.57533E-08
 -1       567 2.80443E+05-4.66231E+05-3.59781E+02-5.77344E+05 1.71422E-08 2.17551E-09
 -1       568 1.62420E+05-3.48643E+05-1.11875E+03-4.40511E+05 2.79397E-09 2.74849E-08
 -1       569 2.79336E+05-4.66159E+05-2.82592E+03-5.75912E+05-1.13741E-08 2.58515E-08
 -1       570 1.65810E+05-3.51865E+05-6.17843E+03-4.39497E+05 7.10861E-09 1.82317E-08
 -1       571 2.89893E+05 1.04853E+04 1.49639E+04-9.48749E+04 1.06356E-08-1.22009E-08
 -1       572 2.92062E+05 3.94935E+03 7.33348E+03-1.04087E+05 2.08056E-08 2.43836E-09
 -1       573 2.90754E+05 1.23987E+03 3.25850E+03-9.46987E+04 1.54805E-08-7.39965E-09
 -1       574 2.90968E+05 7.21841E+02 1.63410E+03-1.04311E+05 4.74233E-09 6.42467E-09
 -1       575 2.90848E+05 4.43537E+02 7.71247E+02-9.46746E+04 1.47580E-10 1.90548E-08
 -1       576 2.90833E+05 4.54510E+02 3.94864E+02-1.04341E+05-8.38190E-09 9.86802E-09
 -1       577 2.90888E+05 3.85657E+02 1.97112E+02-9.46713E+04-6.74390E-09 1.63882E-08
 -1       578 2.90863E+05 4.16700E+02 1.13846E+02-1.04345E+05-3.60342E-09 1.15733E-08
 -1       579 2.90959E+05 3.49280E+02 7.81804E+01-9.46709E+04 1.03319E-08 5.13592E-09
 -1       580 2.90964E+05 3.66072E+02 9.06940E+01-1.04340E+05-4.67116E-09 2.23718E-08
 -1       581 2.91072E+05 2.91165E+02 1.36993E+02-9.46768E+04 8.87121E-09 2.09911E-09
 -1       582 2.91138E+05 3.29144E+02 2.78482E+02-1.04279E+05 7.60883E-09-4.94219E-09
 -1       583 2.91211E+05 3.33837E+02 5.34556E+02-9.47332E+04 9.64064E-09 4.71755E-09
 -1       584 2.91511E+05 7.70270E+02 1.20959E+03-1.03804E+05 2.19588E-08 5.55178E-09
 -1       585 2.91237E+05 1.78868E+03 2.44944E+03-9.51508E+04 6.46651E-09 7.50151E-09
 -1       586-3.41344E+03 1.16526E+05-2.91726E+03-2.50207E+05-8.17408E-09 9.04720E-10
 -1       587-1.32874E+03 1.16276E+05 7.66433E+02-2.75371E+05-8.99854E-09-1.00148E-08
 -1       588 4.05475E+02 1.16085E+05 4.74785E+03-2.50069E+05-3.13594E-09 3.95630E-09
 -1       589 5.08316E+03 1.18552E+05 1.23172E+04-2.75138E+05-6.04814E-09 2.06128E-08
 -1       590 1.65822E+04 1.14754E+05 2.58390E+04-2.50500E+05-2.36651E-09 1.61381E-08
 -1       591-7.47865E+04-1.59509E+04-2.24754E+04-3.19002E+04-2.89015E-09 1.05774E-09
 -1       592-7.88575E+04-1.95086E+04-1.21745E+04-3.55265E+04-1.57577E-10-3.60342E-09
 -1       593-7.70344E+04-1.43200E+04-5.06762E+03-3.35481E+04-8.06871E-10-9.83346E-09
 -1       594-7.57542E+04-1.62107E+04-2.52735E+03-3.56441E+04-4.76103E-09 7.89271E-09
 -1       595-7.72057E+04-1.43146E+04-1.16031E+03-3.36230E+04 2.03856E-09 1.39324E-08
 -1       596-7.55417E+04-1.60599E+04-5.89644E+02-3.56189E+04 7.09626E-09-3.09927E-09
 -1       597-7.72272E+04-1.43300E+04-3.20646E+02-3.36258E+04 4.26837E-10 7.39618E-09
 -1       598-7.55208E+04-1.60539E+04-2.56968E+02-3.56118E+04-2.26794E-09 1.19452E-08
 -1       599-7.72260E+04-1.43305E+04-3.27257E+02-3.36255E+04-2.36696E-10 1.21854E-08
 -1       600-7.55418E+04-1.60604E+04-6.07146E+02-3.56167E+04-2.76145E-10-1.33718E-09
 -1       601-7.72014E+04-1.43160E+04-1.19736E+03-3.36220E+04 2.68028E-09 1.76956E-08
 -1       602-7.57610E+04-1.62149E+04-2.60930E+03-3.56389E+04-4.17776E-09-1.44610E-09
 -1       603-7.70217E+04-1.43244E+04-5.23261E+03-3.35455E+04 5.87761E-10-3.66981E-10
 -1       604-7.89828E+04-1.96006E+04-1.25699E+04-3.54927E+04 5.94889E-09 9.60426E-10
 -1       605-7.46808E+04-1.60262E+04-2.32057E+04-3.18634E+04 2.81443E-09 1.52113E-08
 -1       606 2.67113E+04-1.42972E+04-2.56305E+04 2.40186E+04 5.66433E-09 2.69688E-09
 -1       607 2.23319E+04-4.66917E+03-1.27639E+04 2.69915E+04-1.30876E-09 1.10413E-09
 -1       608 2.48278E+04-8.42059E+02-5.71398E+03 2.38495E+04-5.89534E-09-3.51019E-09
 -1       609 2.43492E+04-2.88154E+02-2.88655E+03 2.72058E+04 1.42609E-09 7.71365E-10
 -1       610 2.46145E+04-4.04992E+01-1.37721E+03 2.38294E+04 6.45377E-09-7.81074E-09
 -1       611 2.45393E+04-4.06545E+01-6.94380E+02 2.72290E+04 1.08444E-08 4.33579E-09
 -1       612 2.45674E+04-2.67635E+01-3.30102E+02 2.38273E+04 2.77760E-09 1.50771E-09
 -1       613 2.45508E+04-3.65199E+01-1.47904E+02 2.72317E+04 4.52746E-09-2.07435E-08
 -1       614 2.45453E+04-3.31222E+01-3.46342E+01 2.38266E+04 2.18097E-09 8.84938E-10
 -1       615 2.45455E+04-3.49927E+01 6.21133E+01 2.72321E+04 1.00954E-09 6.15887E-09
 -1       616 2.45279E+04-2.99714E+01 1.86143E+02 2.38269E+04 7.41693E-10-4.27258E-09
 -1       617 2.45678E+04 4.70548E+00 4.24652E+02 2.72316E+04-1.76988E-09-3.49837E-09
 -1       618 2.44909E+04 9.24711E+01 8.55937E+02 2.38272E+04 7.87395E-09 6.76800E-09
 -1       619 2.48699E+04 6.66536E+02 1.92206E+03 2.72310E+04 1.23164E-08 1.99768E-08
 -1       620 2.42067E+04 2.12214E+03 3.86329E+03 2.38287E+04 8.54391E-09 8.21137E-09
 -1       621 5.08745E+02 3.00859E+05 3.87685E+03 4.07809E+04 1.13596E-09 1.31649E-08
 -1       622 6.73379E+02 3.01755E+05 3.44028E+03 5.92058E+04 1.06957E-09 2.04509E-08
 -1       623 1.40891E+02 3.01054E+05 4.13377E+03 4.05964E+04 1.31570E-09 1.10394E-08
 -1       624 2.11941E+03 3.02971E+05 8.01345E+03 5.93875E+04 1.39664E-09 5.99607E-09
 -1       625 2.07144E+03 2.99465E+05 1.40030E+04 4.05932E+04 1.32786E-09 2.38279E-08
 -1       626 2.60343E+05 6.13408E+04 5.11209E+03 1.26551E+05 4.68117E-09 1.33496E-08
 -1       627 2.58024E+05 6.27405E+04 2.46347E+03 1.30822E+05 2.08092E-09-1.15381E-08
 -1       628 2.60471E+05 5.90015E+04 1.04186E+03 1.27419E+05-3.45517E-09 8.63383E-09
 -1       629 2.57389E+05 6.20620E+04 5.09942E+02 1.31062E+05-3.21461E-09-1.24133E-08
 -1       630 2.60485E+05 5.88885E+04 2.36646E+02 1.27456E+05 5.57066E-10 7.83410E-09
 -1       631 2.57322E+05 6.20362E+04 1.27475E+02 1.31064E+05 6.37556E-09-1.20320E-08
 -1       632 2.60482E+05 5.88924E+04 8.41100E+01 1.27452E+05 7.86986E-09 4.57135E-09
 -1       633 2.57314E+05 6.20381E+04 9.40459E+01 1.31061E+05-1.51363E-09 1.98370E-08
 -1       634 2.60477E+05 5.88896E+04 1.52289E+02 1.27451E+05-1.55061E-08-7.82848E-09
 -1       635 2.57328E+05 6.20364E+04 3.08345E+02 1.31066E+05-1.17848E-08 3.03648E-08
 -1       636 2.60468E+05 5.88839E+04 6.22800E+02 1.27451E+05 5.16548E-09-3.36013E-09
 -1       637 2.57463E+05 6.21332E+04 1.36944E+03 1.31066E+05 3.42447E-09-4.54975E-09
 -1       638 2.60420E+05 5.91864E+04 2.81370E+03 1.27314E+05 2.73485E-09-5.27780E-09
 -1       639 2.58941E+05 6.41889E+04 6.65736E+03 1.30630E+05 3.45312E-09-1.80626E-08
 -1       640 2.60215E+05 6.53247E+04 1.38152E+04 1.24728E+05 2.05414E-08 2.70807E-08
 -1       656 6.64658E+04-1.70092E+06-1.60444E+05-2.53079E+03 2.61934E-10-1.15446E-08
 -1       657-8.79280E+04-1.77343E+06-1.32918E+05 5.19618E+03 9.04038E-10 1.51481E-09
 -1       658 2.11866E+04-1.72151E+06-8.18594E+04-4.60945E+03-2.59206E-10 1.30213E-08
 -1       659-9.50777E+04-1.77682E+06-1.42314E+05 6.92100E+03-2.09548E-09 8.57631E-09
 -1       660 7.35996E+04-1.69754E+06-1.76598E+05-4.25559E+03-1.58616E-09-2.53866E-09
 -1       661 1.58719E+05 1.66142E+04 1.67208E+04 6.20472E+04-4.61114E-10 1.45601E-08
 -1       662 1.68168E+05 2.90013E+04 1.12686E+04 5.83008E+04-2.45876E-09-9.14588E-09
 -1       663 1.62004E+05 2.19785E+04 3.94105E+03 6.10940E+04 5.40126E-10-1.29576E-08
 -1       664 1.64360E+05 2.27281E+04 2.35756E+03 5.94651E+04-1.99475E-09-2.82921E-09
 -1       665 1.62502E+05 2.27112E+04 9.30043E+02 6.09486E+04 1.60958E-09-2.03596E-09
 -1       666 1.63771E+05 2.18903E+04 5.44392E+02 5.96548E+04 7.71496E-09 2.94241E-08
 -1       667 1.62589E+05 2.27945E+04 2.89332E+02 6.09122E+04 1.59147E-09-2.97030E-09
 -1       668 1.63674E+05 2.18304E+04 2.95219E+02 5.97077E+04-1.16290E-09-2.06023E-08
 -1       669 1.62597E+05 2.27694E+04 4.00020E+02 6.08959E+04-3.44824E-09-1.44580E-08
 -1       670 1.63772E+05 2.20477E+04 8.71362E+02 5.97107E+04-8.13722E-09-2.17162E-08
 -1       671 1.62492E+05 2.25818E+04 1.54728E+03 6.09072E+04 2.19246E-09-6.79131E-09
 -1       672 1.64673E+05 2.35530E+04 3.95875E+03 5.94922E+04 5.71389E-09-1.09389E-09
 -1       673 1.61700E+05 2.13022E+04 6.63427E+03 6.10998E+04 6.04746E-09 5.28735E-09
 -1       674 1.70987E+05 3.42117E+04 1.89726E+04 5.76371E+04-3.33739E-09-1.13416E-08
 -1       675 1.56218E+05 1.22216E+04 2.81620E+04 6.26503E+04-3.11866E-09 5.28053E-09
 -1       676 2.40861E+01-2.95553E+05-1.11246E+03-1.35438E+02 1.24496E-09 4.10937E-09
 -1       677-2.94302E+02-2.95822E+05-2.03598E+03 2.70659E+02 1.21326E-08-7.07286E-09
 -1       678 1.97368E+02-2.95362E+05-3.59911E+03-1.35132E+02 2.85877E-09-1.34603E-08
 -1       679-3.59920E+03-2.97995E+05-8.55000E+03 2.69491E+02 8.95454E-09-1.10832E-08
 -1       680 2.14891E+03-2.93382E+05-1.37797E+04-1.32777E+02 1.40972E-10-1.53537E-08
 -1       771-3.06005E+06-7.44660E+05-1.63614E+05-1.46336E+06-3.71947E-08-3.06463E-08
 -1       772-2.98329E+06-8.32944E+05-8.43492E+04-1.56542E+06-2.84635E-08 1.46720E-08
 -1       773-3.09118E+06-7.20372E+05-4.30074E+04-1.47765E+06-2.69793E-08 8.22183E-09
 -1       774-2.97387E+06-8.14727E+05-1.91855E+04-1.59092E+06 2.00816E-08-1.58616E-09
 -1       775-3.10745E+06-7.08956E+05-1.43560E+04-1.48459E+06-1.14669E-08 4.85306E-09
 -1       776-2.98604E+06-8.11755E+05-5.36750E+03-1.61021E+06-1.81026E-08 2.84490E-09
 -1       777-3.12155E+06-6.98771E+05-6.34436E+03-1.49072E+06 5.82077E-10 9.83709E-09
 -1       778-2.99875E+06-8.08989E+05-1.79313E+03-1.62677E+06-7.29051E-09 6.94126E-09
 -1       779-3.13368E+06-6.89874E+05-3.17073E+03-1.49596E+06-7.71252E-09 2.91038E-11
 -1       780-3.00994E+06-8.06348E+05-5.25397E+02-1.64027E+06-8.49832E-09 7.09406E-10
 -1       781-3.14332E+06-6.82702E+05-1.23142E+03-1.50005E+06-3.42552E-08 1.41881E-10
 -1       782-3.01856E+06-8.04105E+05 4.44956E+02-1.65022E+06-3.82133E-08-5.76392E-09
 -1       783-3.15010E+06-6.77720E+05 6.92908E+02-1.50292E+06-4.10364E-09-9.49285E-09
 -1       784-3.02334E+06-8.01857E+05 2.86924E+03-1.65637E+06-2.12422E-08 1.42700E-09
 -1       785-3.15412E+06-6.74749E+05 5.06534E+03-1.50474E+06-3.70383E-08 1.42281E-08
 -1       786 1.24163E+05-9.77859E+03 2.26237E+04-3.20757E+02 4.57511E-09 1.25328E-08
 -1       787 1.33975E+05 1.13214E+04 1.60053E+04-1.34708E+02 5.35494E-09 2.28483E-08
 -1       788 1.27946E+05-1.53234E+03 5.85326E+03-2.85733E+02 2.31940E-09 9.58062E-09
 -1       789 1.29568E+05 1.77363E+03 3.67450E+03-1.88388E+02-1.20796E-10-6.17547E-10
 -1       790 1.28571E+05-2.38590E+02 1.48782E+03-2.67094E+02-4.15258E-09-9.77712E-09
 -1       791 1.28838E+05 2.76059E+02 8.59468E+02-2.20285E+02-6.78415E-09-1.20045E-08
 -1       792 1.28677E+05-3.58840E+01 3.64492E+02-2.53838E+02-5.62354E-09-1.23330E-09
 -1       793 1.28711E+05 3.80434E+01 1.82329E+02-2.45230E+02-1.29766E-09-9.10125E-09
 -1       794 1.28698E+05-7.24820E-01 4.86340E+01-2.42149E+02 5.12451E-09-7.50754E-09
 -1       795 1.28675E+05-2.64438E+01-5.45515E+01-2.69636E+02-4.49815E-09-7.74034E-09
 -1       796 1.28714E+05 2.85673E+01-1.57257E+02-2.29432E+02 3.99000E-09 1.64903E-10
 -1       797 1.28582E+05-2.13388E+02-4.33253E+02-2.98861E+02 3.27369E-09-2.45603E-09
 -1       798 1.28790E+05 1.86078E+02-7.04033E+02-2.12924E+02 1.50012E-09-1.63337E-09
 -1       799 1.28048E+05-1.37155E+03-1.93726E+03-3.39738E+02 6.47762E-09-4.17057E-09
 -1       800 1.29248E+05 1.18578E+03-2.74172E+03-1.88556E+02 3.58828E-10 7.39283E-09
 -1       801-1.66694E+05-9.91630E+06-1.37972E+06 1.39535E+06 9.24629E-08-4.81450E-08
 -1       802 7.25409E+05 5.82109E+06 2.14927E+06-1.72015E+06 2.55430E-07-4.08563E-08
 -1       803-5.29184E+05-1.41195E+07-1.86526E+06 8.85713E+05 7.53862E-08 1.56360E-08
 -1       804 2.82263E+05 2.30785E+06 1.51445E+06 6.70667E+05-1.19329E-07-1.02379E-07
 -1       805 1.87692E+05-6.41730E+06-2.82517E+05-9.89863E+05-4.95056E-08-6.07888E-08
 -1       806-3.08270E+05-5.96497E+04-2.28047E+04-1.22177E+05-7.54335E-09-5.96629E-09
 -1       807-3.10061E+05-5.59296E+04-1.12037E+04-1.27713E+05 1.31120E-08 1.95533E-08
 -1       808-3.08896E+05-5.14311E+04-4.75296E+03-1.26062E+05-5.45697E-09 9.52423E-09
 -1       809-3.07706E+05-5.27816E+04-2.32408E+03-1.27988E+05-1.09312E-08-2.24982E-08
 -1       810-3.08990E+05-5.11450E+04-1.06526E+03-1.26234E+05 7.87531E-09 1.77474E-08
 -1       811-3.07523E+05-5.26552E+04-5.29770E+02-1.27953E+05 5.73527E-09 8.06904E-09
 -1       812-3.09004E+05-5.11696E+04-2.68007E+02-1.26233E+05-6.94490E-09-4.13092E-09
 -1       813-3.07498E+05-5.26574E+04-1.74308E+02-1.27934E+05-3.74894E-09-8.63361E-09
 -1       814-3.08997E+05-5.11793E+04-1.72946E+02-1.26229E+05-4.10182E-09 2.23417E-09
 -1       815-3.07502E+05-5.26596E+04-2.78837E+02-1.27927E+05-8.03357E-09 1.75332E-08
 -1       816-3.08976E+05-5.11784E+04-5.28608E+02-1.26225E+05 3.41606E-09 1.65619E-08
 -1       817-3.07592E+05-5.27100E+04-1.13451E+03-1.27915E+05-4.11092E-09 1.76176E-08
 -1       818-3.08907E+05-5.13386E+04-2.31403E+03-1.26150E+05 1.28057E-09 3.07909E-09
 -1       819-3.08858E+05-5.41080E+04-5.44475E+03-1.27615E+05 5.61204E-09 5.20777E-09
 -1       820-3.08471E+05-5.54517E+04-1.10821E+04-1.24393E+05 6.69388E-10-5.85260E-10
 -1       821-3.78548E+05 2.08463E+04-4.85142E+04 2.09620E+03 1.38077E-08 9.42237E-09
 -1       822-3.98280E+05-2.41486E+04-3.41042E+04-4.38459E+03 5.53814E-09 1.24919E-09
 -1       823-3.86027E+05 3.28549E+03-1.25319E+04 3.37571E+03-1.24221E-08 1.67488E-08
 -1       824-3.89261E+05-3.78913E+03-7.84564E+03-5.26786E+03 1.18020E-09 4.03247E-10
 -1       825-3.87573E+05 5.10568E+02-3.28373E+03 2.97959E+03 2.22615E-08 8.59507E-09
 -1       826-3.86860E+05-5.67838E+02-1.74891E+03-3.02913E+03 2.87361E-08-6.77392E-09
 -1       827-3.88403E+05 4.82834E+01-1.18260E+03 1.13684E+03 1.24483E-08-2.89084E-08
 -1       828-3.86176E+05-1.33804E+02-5.96488E+02 1.08671E+03-1.70405E-09-8.59217E-10
 -1       829-3.88245E+05 6.69193E+01-1.17222E+03-1.13627E+03 3.76073E-09 1.01375E-08
 -1       830-3.87202E+05-6.21622E+02-1.88539E+03 4.80021E+03 3.03001E-09 6.56513E-09
 -1       831-3.87398E+05 5.53116E+02-3.36613E+03-2.57668E+03-6.33661E-09-1.18007E-09
 -1       832-3.89341E+05-3.95486E+03-8.14784E+03 6.05178E+03-2.59607E-09-6.64966E-09
 -1       833-3.86122E+05 3.40923E+03-1.30343E+04-2.38789E+03-2.05448E-09-1.22554E-08
 -1       834-3.98348E+05-2.50606E+04-3.53265E+04 4.11370E+03-4.38453E-09 1.70985E-09
 -1       835-3.78376E+05 2.16265E+04-5.03806E+04-6.38522E+02 5.38930E-09 1.48466E-08
 -1       836-1.41077E+03 3.69508E+05 2.28622E+04-1.61881E+04-7.09133E-09 8.47240E-09
 -1       837 4.87432E+03 3.76668E+05 1.93432E+04-3.30729E+04-7.65897E-09 1.42188E-08
 -1       838-5.56573E+02 3.71515E+05 1.97048E+04-1.61165E+04-6.26233E-09 1.01104E-08
 -1       839 1.24002E+04 3.82273E+05 3.72721E+04-3.31253E+04-6.59929E-09 4.99085E-09
 -1       840-3.83330E+03 3.63843E+05 5.94338E+04-1.61415E+04-5.96629E-09-5.63255E-09
 -1       856-5.24715E+04 8.02357E+03-2.11439E+04-3.97723E+02 3.72131E-09-2.81152E-08
 -1       857-6.11825E+04-9.42726E+03-1.45552E+04 5.62696E+03 4.35963E-09-1.10595E-08
 -1       858-5.59212E+04 1.12522E+03-5.48633E+03-4.21823E+02 1.82933E-09 9.47375E-09
 -1       859-5.72236E+04-1.32361E+03-3.31076E+03 5.66283E+03-2.29954E-09 2.42258E-08
 -1       860-5.64365E+04 1.57573E+02-1.38756E+03-4.33333E+02 8.83631E-11 9.88456E-09
 -1       861-5.66307E+04-1.87952E+02-7.63365E+02 5.67851E+03 3.22650E-09 2.74449E-08
 -1       862-5.65171E+04 2.13394E+01-3.17402E+02-4.37481E+02-3.05575E-09 1.66378E-08
 -1       863-5.65319E+04-2.17133E+01-1.15806E+02 5.68092E+03-2.84155E-09 2.07023E-08
 -1       864-5.65358E+04-4.88431E+00 4.67776E+01-4.35737E+02-1.36464E-09-6.30749E-10
 -1       865-5.64763E+04 5.95633E+01 2.54282E+02 5.67097E+03-2.03471E-09 3.08840E-09
 -1       866-5.65706E+04-5.99581E+01 5.12665E+02-4.27536E+02-4.14673E-10-7.45470E-09
 -1       867-5.62351E+04 4.95163E+02 1.26202E+03 5.64871E+03 1.32968E-09-4.71869E-09
 -1       868-5.67721E+04-4.32629E+02 2.09713E+03-4.13471E+02-7.93420E-10-2.21348E-09
 -1       869-5.46976E+04 3.60059E+03 5.58400E+03 5.61206E+03 3.68721E-09-3.30333E-08
 -1       870-5.81004E+04-3.08106E+03 8.10363E+03-3.90787E+02-3.78964E-09 2.13095E-09
 -1       871-5.51210E+03-2.12429E+04-1.94516E+04 1.30148E+05-5.03314E-09 3.55703E-09
 -1       872-1.98428E+03-2.57645E+04-8.14372E+03 1.68757E+05-1.10431E-08-2.51694E-08
 -1       873 3.99835E+02-2.35782E+04 5.91488E+02 1.29862E+05-6.81121E-09-3.92311E-09
 -1       874 3.29509E+03-2.11694E+04 9.76649E+03 1.68786E+05-1.19371E-08 3.92738E-08
 -1       875 6.83196E+03-2.59049E+04 2.20302E+04 1.30101E+05-5.65160E-09 1.78688E-08
 -1       876 2.93295E+05 4.94383E+04 1.50786E+04 1.17707E+05 9.35722E-09-1.87574E-08
 -1       877 2.94291E+05 5.26146E+04 8.05255E+03 1.22033E+05 1.32632E-08 3.39764E-09
 -1       878 2.94706E+05 4.77680E+04 3.37362E+03 1.18942E+05-1.26383E-08-4.19413E-09
 -1       879 2.92242E+05 5.05691E+04 1.68095E+03 1.22135E+05 5.30076E-09 1.05419E-08
 -1       880 2.94806E+05 4.77507E+04 7.82964E+02 1.18993E+05 6.64841E-09 5.32145E-09
 -1       881 2.92106E+05 5.04816E+04 4.18133E+02 1.22112E+05-6.34191E-09 5.93965E-09
 -1       882 2.94816E+05 4.77640E+04 2.67525E+02 1.18994E+05-1.99088E-09-1.61924E-08
 -1       883 2.92096E+05 5.04771E+04 2.87648E+02 1.22104E+05-1.85446E-09-1.05266E-08
 -1       884 2.94809E+05 4.77612E+04 4.57622E+02 1.18995E+05 3.70380E-09-1.13947E-08
 -1       885 2.92132E+05 5.04834E+04 9.20100E+02 1.22115E+05 3.99325E-09-8.80874E-09
 -1       886 2.94773E+05 4.77343E+04 1.85443E+03 1.18991E+05 1.66792E-09-7.14590E-09
 -1       887 2.92458E+05 5.06971E+04 4.05076E+03 1.22162E+05 7.77948E-09 1.19908E-08
 -1       888 2.94517E+05 4.77794E+04 8.16239E+03 1.18862E+05 3.11509E-09 1.35037E-08
 -1       889 2.97318E+05 5.57505E+04 1.94984E+04 1.22013E+05-5.80417E-09 1.39153E-09
 -1       890 2.91186E+05 5.17368E+04 3.65201E+04 1.15755E+05-3.84216E-09 8.21819E-09
 -1       891-9.00297E+01-1.62533E+05-1.99334E+03 2.71334E+04-1.31649E-09 7.05404E-09
 -1       892-1.76333E+02-1.63059E+05-2.14089E+03 4.12021E+04 7.52607E-11-1.42618E-08
 -1       893 4.28181E+01-1.62597E+05-3.03126E+03 2.71407E+04-9.72932E-10 2.50748E-09
 -1       894-1.50900E+03-1.64204E+05-6.27357E+03 4.10497E+04 2.12640E-09 2.46328E-08
 -1       895-1.19825E+03-1.61290E+05-1.10477E+04 2.72876E+04-2.26703E-09-1.06411E-10
 -1       956-3.76569E+05-5.43932E+03-1.34305E+04 3.07663E+04 4.90672E-09 3.79350E-09
 -1       957-3.79204E+05-1.91773E+03-6.89368E+03 3.69739E+04-2.48929E-09-2.40229E-08
 -1       958-3.77776E+05-2.39236E+02-3.10651E+03 3.05989E+04-4.47926E-09-1.66388E-08
 -1       959-3.77972E+05-1.34516E+02-1.58624E+03 3.71690E+04 1.40790E-09-2.54909E-09
 -1       960-3.77893E+05-4.35003E+01-7.73523E+02 3.05817E+04 2.05091E-09-2.46769E-09
 -1       961-3.77892E+05-6.16453E+01-4.10115E+02 3.71893E+04 1.22432E-08-1.20051E-08
 -1       962-3.77921E+05-4.47516E+01-2.34801E+02 3.05788E+04 6.24595E-09-6.31417E-10
 -1       963-3.77892E+05-5.74760E+01-1.88488E+02 3.71930E+04 8.09041E-09 1.41654E-09
 -1       964-3.77927E+05-4.14051E+01-2.29215E+02 3.05780E+04-3.77415E-09 8.11633E-09
 -1       965-3.77904E+05-5.45101E+01-3.96448E+02 3.71923E+04-1.39889E-08 1.06718E-08
 -1       966-3.77910E+05-3.35551E+01-7.44911E+02 3.05795E+04 1.53659E-09-1.07132E-08
 -1       967-3.77994E+05-1.17911E+02-1.52780E+03 3.71780E+04-4.46130E-09-4.06135E-09
 -1       968-3.77807E+05-2.15692E+02-2.99088E+03 3.05921E+04 2.48747E-10 4.71118E-09
 -1       969-3.79192E+05-1.82983E+03-6.63967E+03 3.70300E+04 3.79214E-09-3.32909E-09
 -1       970-3.76652E+05-5.22021E+03-1.29345E+04 3.07190E+04-1.29057E-09-5.66342E-09
 -1       971-3.44865E+05-1.72531E+03-9.30125E+03 1.53619E+04 7.32780E-09-4.55275E-09
 -1       972-3.47104E+05-1.26982E+03-5.06536E+03 2.12479E+04 9.62655E-09-1.91344E-08
 -1       973-3.45901E+05-6.14267E+01-2.26882E+03 1.52408E+04 8.47285E-09-2.85672E-09
 -1       974-3.46037E+05-8.02376E+01-1.17608E+03 2.13848E+04 4.21437E-09 5.32100E-09
 -1       975-3.45983E+05-1.65975E+01-5.88332E+02 1.52285E+04-1.66256E-09 7.75299E-09
 -1       976-3.45975E+05-3.04431E+01-3.40246E+02 2.14006E+04 5.61522E-09 2.51907E-09
 -1       977-3.46000E+05-1.58559E+01-2.48415E+02 1.52251E+04-2.46428E-09 5.87556E-09
 -1       978-3.45980E+05-2.42267E+01-2.92701E+02 2.14055E+04-5.40570E-09-1.80386E-08
 -1       979-3.46000E+05-7.39151E+00-4.72000E+02 1.52236E+04-4.50842E-09 1.00944E-08
 -1       980-3.46016E+05-2.11699E+01-9.12453E+02 2.14064E+04-4.94902E-09 1.52681E-08
 -1       981-3.45970E+05 1.54152E+01-1.76778E+03 1.52242E+04-2.52999E-09-1.07624E-08
 -1       982-3.46258E+05-1.51789E+02-3.65427E+03 2.13998E+04-1.06832E-09-8.67696E-09
 -1       983-3.45748E+05-9.77803E+01-7.10044E+03 1.52302E+04-5.96492E-09 2.77760E-09
 -1       984-3.49674E+05-3.86014E+03-1.59012E+04 2.13142E+04 3.51747E-09 1.90194E-08
 -1       985-3.42533E+05-5.29344E+03-2.91995E+04 1.53017E+04 1.22327E-10-1.02245E-08
 -3
    1PSTEP                        39          20           1          
  100CL  120 6.62418E-01         409                     0   20           1
 -4  DISP        4    1
 -5  D1          1    2    1    0
 -5  D2          1    2    2    0
 -5  D3          1    2    3    0
 -5  ALL         1    2    0    0    1ALL
 -1         1 2.66690E-03 0.00000E+00 0.00000E+00
 -1         2 1.40969E-03 4.21075E-27 0.00000E+00
 -1         3 3.37947E-04-2.91085E-28 0.00000E+00
 -1         5 1.76747E-04 6.05822E-27-3.30872E-24
 -1         8 2.65502E-03-4.25151E-07 0.00000E+00
 -1         9 2.64792E-03-1.61918E-04 0.00000E+00
 -1        10 3.08091E-04-3.43119E-06 0.00000E+00
 -1        12 1.78576E-04 8.08183E-07 1.24077E-24
 -1        15 2.64126E-03-4.52268E-07-2.06795E-25
 -1        16 2.70339E-03-1.63583E-04 0.00000E+00
 -1        17 2.10914E-04-7.95921E-06 0.00000E+00
 -1        18 1.82472E-04 3.41745E-05 0.00000E+00
 -1        19 1.84063E-04 1.61000E-06 0.00000E+00
 -1        20 1.84203E-04-9.67321E-06 0.00000E+00
 -1        21 1.83313E-04-2.49779E-05 0.00000E+00
 -1        24 3.06455E-05-1.21798E-05 0.00000E+00
 -1        25 1.93165E-04 3.43999E-05 0.00000E+00
 -1        26 1.93848E-04 2.22949E-06 0.00000E+00
 -1        27 1.91650E-04-1.32273E-05 0.00000E+00
 -1        28 1.91334E-04-2.55994E-05 0.00000E+00
 -1        32 0.00000E+00 0.00000E+00 0.00000E+00
 -1        33 2.02626E-04 2.98249E-06 0.00000E+00
 -1        34 2.00511E-04-1.32832E-05 0.00000E+00
 -1        35 1.98580E-04-2.59414E-05 0.00000E+00
 -1        51 2.66611E-03-8.75842E-08 0.00000E+00
 -1        52 2.66465E-03-1.57213E-07 0.00000E+00
 -1        53 2.66268E-03-2.23555E-07 0.00000E+00
 -1        54 2.66032E-03-2.88841E-07 1.65436E-24
 -1        55 2.65772E-03-3.54813E-07-8.27181E-25
 -1        56 2.66056E-03 5.24413E-06 5.29396E-23
 -1        57 2.64934E-03 2.26006E-05 0.00000E+00
 -1        58 2.63487E-03 4.81229E-05 1.05879E-22
 -1        59 2.61899E-03 7.70620E-05 0.00000E+00
 -1        60 2.60388E-03 1.04093E-04-1.05879E-22
 -1        61 2.59161E-03 1.24047E-04-5.29396E-23
 -1        62 2.58365E-03 1.33011E-04 1.05879E-22
 -1        63 2.58096E-03 1.28050E-04-5.29396E-23
 -1        64 2.58348E-03 1.08749E-04 0.00000E+00
 -1        65 2.59069E-03 7.60177E-05 0.00000E+00
 -1        66 2.60127E-03 3.32534E-05-1.05879E-22
 -1        67 2.61373E-03-1.51938E-05 0.00000E+00
 -1        68 2.62627E-03-6.39048E-05 0.00000E+00
 -1        69 2.63714E-03-1.07428E-04 0.00000E+00
 -1        70 2.64475E-03-1.41297E-04-5.29396E-23
 -1        86 1.48747E-03-5.26498E-06 0.00000E+00
 -1        87 1.71328E-03-3.24428E-05 0.00000E+00
 -1        88 2.01682E-03-7.89220E-05 0.00000E+00
 -1        89 2.32405E-03-1.26549E-04 1.32349E-23
 -1        90 2.55883E-03-1.55687E-04 0.00000E+00
 -1       121 3.37109E-04-5.56223E-07 0.00000E+00
 -1       122 3.34597E-04-1.11516E-06-6.61744E-24
 -1       123 3.30420E-04-1.67945E-06-1.32349E-23
 -1       124 3.24595E-04-2.25183E-06 0.00000E+00
 -1       125 3.17142E-04-2.83453E-06 1.32349E-23
 -1       191 1.76798E-04 1.34760E-07-3.30872E-24
 -1       192 1.76950E-04 2.69508E-07 8.27181E-25
 -1       193 1.77204E-04 4.04237E-07-2.48154E-24
 -1       194 1.77560E-04 5.38934E-07 1.24077E-24
 -1       195 1.78017E-04 6.73587E-07-8.27181E-25
 -1       251 2.65467E-03 2.30858E-06 0.00000E+00
 -1       252 2.65431E-03 5.82235E-06 0.00000E+00
 -1       253 2.65396E-03 8.92424E-06 0.00000E+00
 -1       254 2.65361E-03 1.04280E-05 0.00000E+00
 -1       255 2.65325E-03 9.42484E-06 0.00000E+00
 -1       256 2.65289E-03 5.04188E-06-6.61744E-24
 -1       257 2.65251E-03-3.00793E-06 0.00000E+00
 -1       258 2.65209E-03-1.49587E-05 0.00000E+00
 -1       259 2.65162E-03-3.03693E-05 0.00000E+00
 -1       260 2.65111E-03-4.87482E-05 0.00000E+00
 -1       261 2.65055E-03-6.90895E-05 0.00000E+00
 -1       262 2.64998E-03-9.03598E-05 0.00000E+00
 -1       263 2.64942E-03-1.11364E-04 0.00000E+00
 -1       264 2.64888E-03-1.30911E-04-6.61744E-24
 -1       265 2.64838E-03-1.48063E-04 1.32349E-23
 -1       266 2.65272E-03-4.35659E-07-3.30872E-24
 -1       267 2.65043E-03-4.39448E-07 0.00000E+00
 -1       268 2.64814E-03-4.43663E-07 0.00000E+00
 -1       269 2.64585E-03-4.46618E-07 0.00000E+00
 -1       270 2.64356E-03-4.49544E-07 0.00000E+00
 -1       271 2.65397E-03 4.75303E-07 0.00000E+00
 -1       272 2.65374E-03-8.63711E-07 0.00000E+00
 -1       273 2.65430E-03-4.32146E-06 2.64698E-23
 -1       274 2.65559E-03-9.76763E-06 1.32349E-23
 -1       275 2.65756E-03-1.70525E-05-2.64698E-23
 -1       276 2.66015E-03-2.60125E-05-1.32349E-23
 -1       277 2.66328E-03-3.64689E-05-2.64698E-23
 -1       278 2.66688E-03-4.82311E-05 0.00000E+00
 -1       279 2.67088E-03-6.10969E-05-2.64698E-23
 -1       280 2.67521E-03-7.48550E-05 0.00000E+00
 -1       281 2.67977E-03-8.92863E-05 0.00000E+00
 -1       282 2.68450E-03-1.04166E-04-1.32349E-23
 -1       283 2.68931E-03-1.19266E-04 2.64698E-23
 -1       284 2.69412E-03-1.34356E-04 0.00000E+00
 -1       285 2.69884E-03-1.49205E-04 0.00000E+00
 -1       301 2.65799E-03-1.62226E-04 0.00000E+00
 -1       302 2.66654E-03-1.62492E-04-6.61744E-24
 -1       303 2.67445E-03-1.62749E-04 1.32349E-23
 -1       304 2.68263E-03-1.63008E-04-6.61744E-24
 -1       305 2.69198E-03-1.63278E-04 0.00000E+00
 -1       306 2.68525E-03-3.13753E-04-1.05879E-22
 -1       307 2.74924E-03-7.23815E-04 5.29396E-23
 -1       308 2.79673E-03-1.32491E-03-1.05879E-22
 -1       309 2.82154E-03-2.02206E-03 5.29396E-23
 -1       310 2.85332E-03-2.69040E-03 1.05879E-22
 -1       311 2.91276E-03-3.20759E-03-5.29396E-23
 -1       312 2.97102E-03-3.49319E-03-2.11758E-22
 -1       313 2.96837E-03-3.50861E-03 5.29396E-23
 -1       314 2.83186E-03-3.26506E-03 0.00000E+00
 -1       315 2.52051E-03-2.82569E-03 0.00000E+00
 -1       316 2.05180E-03-2.26652E-03-1.05879E-22
 -1       317 1.49029E-03-1.65686E-03-5.29396E-23
 -1       318 9.48881E-04-1.05782E-03 1.05879E-22
 -1       319 5.34502E-04-5.34542E-04-5.29396E-23
 -1       320 2.90852E-04-1.60612E-04-1.05879E-22
 -1       336 2.97133E-04-4.11515E-06 1.32349E-23
 -1       337 2.83976E-04-4.82568E-06-6.61744E-24
 -1       338 2.68688E-04-5.56482E-06 0.00000E+00
 -1       339 2.51351E-04-6.33364E-06 6.61744E-24
 -1       340 2.32058E-04-7.13705E-06 1.32349E-23
 -1       406 1.79237E-04 9.42703E-07 8.27181E-25
 -1       407 1.79999E-04 1.07711E-06 8.27181E-25
 -1       408 1.80863E-04 1.21135E-06 8.27181E-25
 -1       409 1.81829E-04 1.34526E-06 2.06795E-25
 -1       410 1.82896E-04 1.47856E-06 2.89513E-24
 -1       521 2.74137E-03-3.24672E-04 0.00000E+00
 -1       522 2.80368E-03-7.54576E-04 0.00000E+00
 -1       523 2.84499E-03-1.38277E-03 0.00000E+00
 -1       524 2.86093E-03-2.10770E-03 5.29396E-23
 -1       525 2.88509E-03-2.80184E-03 0.00000E+00
 -1       526 2.94105E-03-3.34046E-03-5.29396E-23
 -1       527 2.99886E-03-3.63647E-03 0.00000E+00
 -1       528 2.99405E-03-3.65035E-03-5.29396E-23
 -1       529 2.84612E-03-3.39320E-03-2.11758E-22
 -1       530 2.51187E-03-2.93581E-03-5.29396E-23
 -1       531 2.00950E-03-2.35787E-03 0.00000E+00
 -1       532 1.40977E-03-1.73128E-03-5.29396E-23
 -1       533 8.30696E-04-1.11469E-03 0.00000E+00
 -1       534 3.84130E-04-5.71016E-04 5.29396E-23
 -1       535 1.19881E-04-1.78007E-04 0.00000E+00
 -1       536 2.10162E-04 2.68775E-05 6.61744E-24
 -1       537 2.08252E-04 8.71772E-05-1.65436E-24
 -1       538 2.05301E-04 1.63694E-04 3.30872E-24
 -1       539 2.01820E-04 2.47097E-04-1.65436E-24
 -1       540 1.98687E-04 3.25911E-04 0.00000E+00
 -1       541 1.96650E-04 3.88680E-04 1.65436E-24
 -1       542 1.95710E-04 4.28663E-04 0.00000E+00
 -1       543 1.95485E-04 4.39268E-04-1.65436E-24
 -1       544 1.95164E-04 4.21268E-04-3.30872E-24
 -1       545 1.93996E-04 3.75653E-04 0.00000E+00
 -1       546 1.91820E-04 3.10536E-04 3.30872E-24
 -1       547 1.88875E-04 2.34145E-04 0.00000E+00
 -1       548 1.85957E-04 1.58131E-04 0.00000E+00
 -1       549 1.83852E-04 9.41423E-05 0.00000E+00
 -1       550 1.82758E-04 5.01942E-05 1.65436E-24
 -1       551 1.85781E-04-8.52919E-06 0.00000E+00
 -1       552 1.57415E-04-9.17892E-06 0.00000E+00
 -1       553 1.26761E-04-9.89036E-06-9.92617E-24
 -1       554 9.47754E-05-1.06425E-05 0.00000E+00
 -1       555 6.24189E-05-1.14079E-05 0.00000E+00
 -1       556 2.03287E-04 1.15433E-05 0.00000E+00
 -1       557 1.97125E-04 2.73607E-05 0.00000E+00
 -1       558 1.92293E-04 3.97801E-05 0.00000E+00
 -1       559 1.88660E-04 4.91112E-05 0.00000E+00
 -1       560 1.86096E-04 5.56640E-05 0.00000E+00
 -1       561 1.84473E-04 5.97510E-05 0.00000E+00
 -1       562 1.83665E-04 6.16861E-05 0.00000E+00
 -1       563 1.83551E-04 6.17840E-05 1.32349E-23
 -1       564 1.84007E-04 6.03603E-05 0.00000E+00
 -1       565 1.84913E-04 5.77313E-05 0.00000E+00
 -1       566 1.86150E-04 5.42137E-05 0.00000E+00
 -1       567 1.87600E-04 5.01249E-05 0.00000E+00
 -1       568 1.89144E-04 4.57822E-05 1.65436E-24
 -1       569 1.90664E-04 4.15029E-05 8.27181E-25
 -1       570 1.92043E-04 3.76045E-05 0.00000E+00
 -1       571 1.82569E-04 3.20619E-05 8.27181E-25
 -1       572 1.82667E-04 2.98837E-05-4.13590E-25
 -1       573 1.82766E-04 2.76555E-05 0.00000E+00
 -1       574 1.82866E-04 2.53936E-05-8.27181E-25
 -1       575 1.82965E-04 2.31145E-05 3.30872E-24
 -1       576 1.83064E-04 2.08346E-05 0.00000E+00
 -1       577 1.83164E-04 1.85703E-05 0.00000E+00
 -1       578 1.83263E-04 1.63382E-05 3.30872E-24
 -1       579 1.83363E-04 1.41546E-05 6.61744E-24
 -1       580 1.83462E-04 1.20361E-05 6.61744E-24
 -1       581 1.83562E-04 9.99921E-06 0.00000E+00
 -1       582 1.83662E-04 8.06030E-06 0.00000E+00
 -1       583 1.83762E-04 6.23584E-06 6.61744E-24
 -1       584 1.83863E-04 4.54213E-06 0.00000E+00
 -1       585 1.83963E-04 2.99526E-06 0.00000E+00
 -1       586 1.84213E-04 3.42142E-05-1.65436E-24
 -1       587 1.85914E-04 3.42533E-05 0.00000E+00
 -1       588 1.87616E-04 3.42921E-05 0.00000E+00
 -1       589 1.89363E-04 3.43302E-05 0.00000E+00
 -1       590 1.91199E-04 3.43670E-05 0.00000E+00
 -1       591 1.83196E-04 3.21553E-05-1.03398E-25
 -1       592 1.83923E-04 3.01160E-05 2.06795E-25
 -1       593 1.84655E-04 2.80627E-05 0.00000E+00
 -1       594 1.85390E-04 2.59999E-05-4.13590E-25
 -1       595 1.86126E-04 2.39325E-05 8.27181E-25
 -1       596 1.86863E-04 2.18651E-05 4.13590E-25
 -1       597 1.87598E-04 1.98025E-05 0.00000E+00
 -1       598 1.88329E-04 1.77494E-05 0.00000E+00
 -1       599 1.89055E-04 1.57104E-05 0.00000E+00
 -1       600 1.89773E-04 1.36902E-05 0.00000E+00
 -1       601 1.90483E-04 1.16936E-05 0.00000E+00
 -1       602 1.91183E-04 9.72522E-06-2.06795E-25
 -1       603 1.91871E-04 7.78976E-06 8.27181E-25
 -1       604 1.92544E-04 5.89205E-06 1.55096E-25
 -1       605 1.93203E-04 4.03667E-06 0.00000E+00
 -1       606 1.84077E-04 4.57667E-07 3.30872E-24
 -1       607 1.84086E-04-6.08738E-07 0.00000E+00
 -1       608 1.84095E-04-1.59426E-06 3.30872E-24
 -1       609 1.84104E-04-2.50459E-06 0.00000E+00
 -1       610 1.84112E-04-3.34547E-06 0.00000E+00
 -1       611 1.84120E-04-4.12269E-06 0.00000E+00
 -1       612 1.84129E-04-4.84207E-06 0.00000E+00
 -1       613 1.84137E-04-5.50942E-06 0.00000E+00
 -1       614 1.84145E-04-6.13056E-06 0.00000E+00
 -1       615 1.84154E-04-6.71131E-06 8.27181E-25
 -1       616 1.84162E-04-7.25747E-06 0.00000E+00
 -1       617 1.84171E-04-7.77488E-06 0.00000E+00
 -1       618 1.84179E-04-8.26934E-06 8.27181E-25
 -1       619 1.84187E-04-8.74667E-06 0.00000E+00
 -1       620 1.84196E-04-9.21269E-06 0.00000E+00
 -1       621 1.85410E-04 1.71381E-06-1.65436E-24
 -1       622 1.86914E-04 1.81787E-06 8.27181E-25
 -1       623 1.88543E-04 1.92172E-06 0.00000E+00
 -1       624 1.90264E-04 2.02523E-06-8.27181E-25
 -1       625 1.92044E-04 2.12847E-06 1.65436E-24
 -1       626 1.84607E-04 4.93728E-07 3.30872E-24
 -1       627 1.85129E-04-5.59381E-07 0.00000E+00
 -1       628 1.85630E-04-1.55718E-06 0.00000E+00
 -1       629 1.86113E-04-2.50784E-06 0.00000E+00
 -1       630 1.86582E-04-3.41957E-06 0.00000E+00
 -1       631 1.87039E-04-4.30055E-06 0.00000E+00
 -1       632 1.87488E-04-5.15901E-06 3.30872E-24
 -1       633 1.87931E-04-6.00317E-06 0.00000E+00
 -1       634 1.88372E-04-6.84124E-06 0.00000E+00
 -1       635 1.88814E-04-7.68141E-06 0.00000E+00
 -1       636 1.89260E-04-8.53192E-06-3.30872E-24
 -1       637 1.89713E-04-9.40098E-06-1.65436E-24
 -1       638 1.90176E-04-1.02968E-05 3.30872E-24
 -1       639 1.90651E-04-1.12276E-05-1.65436E-24
 -1       640 1.91142E-04-1.22017E-05 3.30872E-24
 -1       656 1.84896E-04-1.02509E-05 0.00000E+00
 -1       657 1.86009E-04-1.08520E-05-6.61744E-24
 -1       658 1.87402E-04-1.14517E-05 0.00000E+00
 -1       659 1.88930E-04-1.20512E-05 0.00000E+00
 -1       660 1.90407E-04-1.26524E-05 0.00000E+00
 -1       661 1.84463E-04-1.01787E-05 8.27181E-25
 -1       662 1.84760E-04-1.07760E-05 8.27181E-25
 -1       663 1.85089E-04-1.14597E-05 1.65436E-24
 -1       664 1.85449E-04-1.22234E-05 0.00000E+00
 -1       665 1.85836E-04-1.30613E-05 1.65436E-24
 -1       666 1.86250E-04-1.39674E-05-8.27181E-25
 -1       667 1.86686E-04-1.49362E-05-1.65436E-24
 -1       668 1.87144E-04-1.59621E-05 0.00000E+00
 -1       669 1.87622E-04-1.70397E-05 1.65436E-24
 -1       670 1.88116E-04-1.81636E-05 0.00000E+00
 -1       671 1.88626E-04-1.93288E-05-1.65436E-24
 -1       672 1.89149E-04-2.05301E-05-8.27181E-25
 -1       673 1.89684E-04-2.17624E-05 0.00000E+00
 -1       674 1.90228E-04-2.30213E-05 0.00000E+00
 -1       675 1.90780E-04-2.43012E-05 0.00000E+00
 -1       676 1.84654E-04-2.50821E-05 0.00000E+00
 -1       677 1.85995E-04-2.51863E-05 0.00000E+00
 -1       678 1.87334E-04-2.52903E-05-3.30872E-24
 -1       679 1.88671E-04-2.53941E-05 0.00000E+00
 -1       680 1.90004E-04-2.54979E-05-3.30872E-24
 -1       771 1.87407E-05 1.44350E-05 0.00000E+00
 -1       772 8.72325E-06 3.62964E-05 0.00000E+00
 -1       773 5.02833E-07 5.36337E-05 5.29396E-23
 -1       774-6.04421E-06 6.67036E-05-2.64698E-23
 -1       775-1.10389E-05 7.57732E-05 0.00000E+00
 -1       776-1.46071E-05 8.11265E-05 0.00000E+00
 -1       777-1.68745E-05 8.30573E-05 0.00000E+00
 -1       778-1.79694E-05 8.18731E-05 0.00000E+00
 -1       779-1.80193E-05 7.78901E-05-1.05879E-22
 -1       780-1.71541E-05 7.14357E-05-7.94093E-23
 -1       781-1.55024E-05 6.28441E-05-5.29396E-23
 -1       782-1.31945E-05 5.24582E-05 0.00000E+00
 -1       783-1.03599E-05 4.06257E-05 0.00000E+00
 -1       784-7.12916E-06 2.77002E-05 0.00000E+00
 -1       785-3.63206E-06 1.40386E-05-5.29396E-23
 -1       786 1.93203E-04 3.21623E-05 0.00000E+00
 -1       787 1.93245E-04 2.99745E-05 0.00000E+00
 -1       788 1.93287E-04 2.78284E-05-8.27181E-25
 -1       789 1.93330E-04 2.57157E-05 0.00000E+00
 -1       790 1.93373E-04 2.36318E-05 0.00000E+00
 -1       791 1.93415E-04 2.15718E-05 0.00000E+00
 -1       792 1.93458E-04 1.95337E-05 1.65436E-24
 -1       793 1.93501E-04 1.75151E-05 0.00000E+00
 -1       794 1.93544E-04 1.55161E-05 0.00000E+00
 -1       795 1.93587E-04 1.35363E-05 0.00000E+00
 -1       796 1.93631E-04 1.15777E-05 0.00000E+00
 -1       797 1.93674E-04 9.64220E-06 0.00000E+00
 -1       798 1.93717E-04 7.73399E-06-1.65436E-24
 -1       799 1.93760E-04 5.85743E-06 0.00000E+00
 -1       800 1.93804E-04 4.02005E-06 1.65436E-24
 -1       801 1.47574E-04 3.09211E-05-2.64698E-23
 -1       802 9.71831E-06 1.92974E-05 0.00000E+00
 -1       803-1.08072E-04 9.75073E-06 0.00000E+00
 -1       804-9.58644E-05 6.78455E-06 2.64698E-23
 -1       805-3.16695E-05 2.66989E-06 0.00000E+00
 -1       806 1.93889E-04 3.20936E-05-1.65436E-24
 -1       807 1.94599E-04 2.98134E-05 1.65436E-24
 -1       808 1.95297E-04 2.75644E-05 0.00000E+00
 -1       809 1.95981E-04 2.53508E-05 0.00000E+00
 -1       810 1.96650E-04 2.31766E-05 0.00000E+00
 -1       811 1.97303E-04 2.10458E-05 0.00000E+00
 -1       812 1.97938E-04 1.89622E-05-3.30872E-24
 -1       813 1.98555E-04 1.69299E-05 0.00000E+00
 -1       814 1.99150E-04 1.49526E-05 0.00000E+00
 -1       815 1.99724E-04 1.30344E-05-1.65436E-24
 -1       816 2.00274E-04 1.11791E-05-1.65436E-24
 -1       817 2.00800E-04 9.39068E-06 0.00000E+00
 -1       818 2.01299E-04 7.67293E-06 0.00000E+00
 -1       819 2.01770E-04 6.02977E-06 0.00000E+00
 -1       820 2.02212E-04 4.46503E-06 1.65436E-24
 -1       821 1.93719E-04-1.09331E-07-1.65436E-24
 -1       822 1.93579E-04-3.58614E-06 0.00000E+00
 -1       823 1.93437E-04-7.77778E-06-3.30872E-24
 -1       824 1.93292E-04-1.22566E-05 0.00000E+00
 -1       825 1.93148E-04-1.65175E-05 0.00000E+00
 -1       826 1.93007E-04-2.00565E-05 1.65436E-24
 -1       827 1.92868E-04-2.25662E-05 0.00000E+00
 -1       828 1.92732E-04-2.37453E-05 0.00000E+00
 -1       829 1.92596E-04-2.36548E-05 3.30872E-24
 -1       830 1.92460E-04-2.23631E-05 0.00000E+00
 -1       831 1.92322E-04-2.02655E-05 3.30872E-24
 -1       832 1.92184E-04-1.77623E-05 1.65436E-24
 -1       833 1.92046E-04-1.53641E-05 3.30872E-24
 -1       834 1.91911E-04-1.35811E-05 1.65436E-24
 -1       835 1.91777E-04-1.27564E-05 0.00000E+00
 -1       836 1.95523E-04 2.35437E-06 0.00000E+00
 -1       837 1.97071E-04 2.48238E-06-1.65436E-24
 -1       838 1.98524E-04 2.61033E-06 3.30872E-24
 -1       839 1.99913E-04 2.73758E-06 0.00000E+00
 -1       840 2.01270E-04 2.86466E-06 0.00000E+00
 -1       856 1.91634E-04-1.42753E-05 0.00000E+00
 -1       857 1.91615E-04-1.51877E-05 0.00000E+00
 -1       858 1.91595E-04-1.59855E-05 2.06795E-25
 -1       859 1.91576E-04-1.66900E-05 0.00000E+00
 -1       860 1.91556E-04-1.73222E-05-4.13590E-25
 -1       861 1.91536E-04-1.79035E-05 0.00000E+00
 -1       862 1.91516E-04-1.84552E-05 0.00000E+00
 -1       863 1.91496E-04-1.89985E-05 0.00000E+00
 -1       864 1.91477E-04-1.95549E-05 0.00000E+00
 -1       865 1.91457E-04-2.01456E-05-4.13590E-25
 -1       866 1.91437E-04-2.07919E-05 8.27181E-25
 -1       867 1.91417E-04-2.15151E-05 4.13590E-25
 -1       868 1.91397E-04-2.23364E-05 8.27181E-25
 -1       869 1.91376E-04-2.32768E-05-4.13590E-25
 -1       870 1.91356E-04-2.43575E-05 0.00000E+00
 -1       871 1.92986E-04-1.32322E-05 0.00000E+00
 -1       872 1.94468E-04-1.32405E-05 0.00000E+00
 -1       873 1.96030E-04-1.32494E-05-4.13590E-25
 -1       874 1.97603E-04-1.32592E-05-1.80946E-25
 -1       875 1.99119E-04-1.32695E-05 4.13590E-25
 -1       876 1.92170E-04-1.42608E-05 6.61744E-24
 -1       877 1.92668E-04-1.52275E-05 1.65436E-24
 -1       878 1.93144E-04-1.61354E-05 0.00000E+00
 -1       879 1.93602E-04-1.69919E-05-1.65436E-24
 -1       880 1.94042E-04-1.78044E-05 0.00000E+00
 -1       881 1.94470E-04-1.85803E-05 0.00000E+00
 -1       882 1.94886E-04-1.93269E-05 0.00000E+00
 -1       883 1.95294E-04-2.00515E-05 1.65436E-24
 -1       884 1.95696E-04-2.07616E-05 3.30872E-24
 -1       885 1.96096E-04-2.14643E-05 0.00000E+00
 -1       886 1.96496E-04-2.21671E-05-3.30872E-24
 -1       887 1.96898E-04-2.28772E-05 0.00000E+00
 -1       888 1.97306E-04-2.36022E-05-3.30872E-24
 -1       889 1.97721E-04-2.43493E-05 0.00000E+00
 -1       890 1.98147E-04-2.51260E-05 1.65436E-24
 -1       891 1.92684E-04-2.56569E-05 0.00000E+00
 -1       892 1.94010E-04-2.57145E-05 0.00000E+00
 -1       893 1.95288E-04-2.57720E-05 1.65436E-24
 -1       894 1.96493E-04-2.58293E-05-4.13590E-25
 -1       895 1.97598E-04-2.58863E-05-4.13590E-25
 -1       956 2.02496E-04 1.67436E-06 0.00000E+00
 -1       957 2.02364E-04 4.57639E-07 0.00000E+00
 -1       958 2.02231E-04-6.78384E-07 3.30872E-24
 -1       959 2.02099E-04-1.74503E-06 1.65436E-24
 -1       960 2.01966E-04-2.75366E-06 0.00000E+00
 -1       961 2.01833E-04-3.71568E-06 0.00000E+00
 -1       962 2.01701E-04-4.64248E-06-3.30872E-24
 -1       963 2.01568E-04-5.54550E-06 0.00000E+00
 -1       964 2.01435E-04-6.43617E-06-3.30872E-24
 -1       965 2.01303E-04-7.32588E-06-1.65436E-24
 -1       966 2.01170E-04-8.22610E-06 3.30872E-24
 -1       967 2.01038E-04-9.14823E-06 0.00000E+00
 -1       968 2.00905E-04-1.01037E-05 0.00000E+00
 -1       969 2.00773E-04-1.11038E-05-3.30872E-24
 -1       970 2.00641E-04-1.21600E-05-3.30872E-24
 -1       971 2.00391E-04-1.44059E-05 0.00000E+00
 -1       972 2.00270E-04-1.54340E-05 0.00000E+00
 -1       973 2.00148E-04-1.63780E-05 0.00000E+00
 -1       974 2.00027E-04-1.72487E-05 0.00000E+00
 -1       975 1.99906E-04-1.80570E-05 3.30872E-24
 -1       976 1.99785E-04-1.88138E-05-1.65436E-24
 -1       977 1.99663E-04-1.95298E-05 3.30872E-24
 -1       978 1.99542E-04-2.02161E-05 1.65436E-24
 -1       979 1.99421E-04-2.08834E-05 0.00000E+00
 -1       980 1.99300E-04-2.15428E-05-1.65436E-24
 -1       981 1.99178E-04-2.22051E-05 0.00000E+00
 -1       982 1.99057E-04-2.28813E-05 0.00000E+00
 -1       983 1.98936E-04-2.35821E-05 0.00000E+00
 -1       984 1.98816E-04-2.43185E-05-1.65436E-24
 -1       985 1.98696E-04-2.51014E-05-3.30872E-24
 -3
    1PSTEP                        40          20           1          
  100CL  120 6.62418E-01         409                     0   20           1
 -4  STRESS      6    1
 -5  SXX         1    4    1    1
 -5  SYY         1    4    2    2
 -5  SZZ         1    4    3    3
 -5  SXY         1    4    1    2
 -5  SYZ         1    4    2    3
 -5  SZX         1    4    3    1
 -1         1-5.24702E+06-1.67818E+06-1.12406E+06-1.48266E+06-1.78989E-09-9.44128E-08
 -1         2 1.19972E+06 1.76713E+07 4.22555E+06 5.30624E+06 2.06055E-08-8.05449E-09
 -1         3-1.28320E+03-1.58063E+06 6.03670E+02-2.09419E+03-2.28919E-10 3.28982E-08
 -1         5-7.38561E+01 3.85892E+05 9.97104E+00-1.32637E+00-5.72365E-10 9.64428E-09
 -1         8-6.19143E+05-2.15954E+05-7.23079E+04-2.58045E+05 4.58385E-10 7.76963E-08
 -1         9 1.13478E+07 3.07014E+06 2.57504E+06-5.00242E+05-1.78465E-08-2.79862E-08
 -1        10-3.61494E+03-1.68384E+06-5.12623E+03-1.54502E+04-5.90808E-09-4.26108E-08
 -1        12-6.99383E+01 3.85913E+05 3.27684E+02-9.04692E+00-5.92991E-10 1.75060E-08
 -1        15 9.92220E+02 5.45274E+02 3.20733E+03 9.83421E-01-2.77268E-10 5.89403E-07
 -1        16 2.25072E+07-2.88933E+05 3.07737E+06-2.13490E+06 2.13428E-09-4.81959E-08
 -1        17 8.21829E+06 6.13384E+06 2.21876E+06 5.89542E+06 3.63914E-08 3.55765E-08
 -1        18 1.41481E+05 3.32779E+04 3.99437E+03-1.19306E+05 1.34194E-08 2.05364E-09
 -1        19 1.22251E+05 1.41498E+05-9.41763E+02 2.19473E+04 1.65364E-09-8.35571E-09
 -1        20-8.17261E+04-5.72949E+05-1.28556E+05 2.51524E+04-1.81853E-09 1.14712E-08
 -1        21-4.55711E+01-2.95769E+05-9.23358E+02 2.72134E+02 1.37218E-08-2.56171E-08
 -1        24 1.37012E+07 1.18039E+07 3.80078E+06 1.09362E+07-1.64669E-07-5.56465E-08
 -1        25 1.22752E+05 2.58957E+05 9.78743E+04-6.40733E+05-5.87806E-10 3.12284E-09
 -1        26-5.52828E+04 9.21801E+04-2.45944E+04 1.23994E+03-6.22094E-11 9.12219E-09
 -1        27-7.55741E+04-3.09569E+05-1.13186E+05 6.88887E+04 4.03512E-09-1.42597E-08
 -1        28 2.22270E+04-8.52619E+04 1.68833E+04 2.06196E+04-3.66421E-09-1.90946E-09
 -1        32-1.67876E+06-3.17206E+06-1.96152E+05 4.48531E+05-4.26953E-08-7.53357E-09
 -1        33-1.78250E+05 9.28804E+04 3.23478E+04-3.84898E+04-3.18009E-09 1.53950E-08
 -1        34-2.23350E+05-2.49904E+04 6.88359E+02 7.55437E+04-5.78639E-09-9.69885E-09
 -1        35-2.29139E+04-3.38130E+04-1.34702E+03 5.14551E+04-4.89861E-09-6.37131E-09
 -1        51 5.92421E+04-1.79779E+05 1.25623E+05-4.72450E+05-1.30967E-10 3.41228E-07
 -1        52 2.02245E+04-1.58057E+05 6.61636E+04-5.50968E+05 1.53705E-10 3.52655E-07
 -1        53 4.32998E+03-1.73465E+05 3.48581E+04-4.70802E+05 6.76664E-10 1.92878E-07
 -1        54 8.02021E+03-1.69295E+05 2.94515E+04-5.52604E+05 1.09139E-10 1.06769E-07
 -1        55 1.73970E+04-1.76730E+05 3.67737E+04-4.70674E+05 4.58385E-10 1.80167E-07
 -1        56-9.59583E+06-1.23502E+06-8.62900E+05-3.91562E+06 5.35510E-09 7.83475E-08
 -1        57-1.06470E+07-1.12498E+06-5.53517E+05-2.96223E+06 4.47180E-08-2.72048E-08
 -1        58-9.56162E+06-1.63234E+06-1.96386E+05-4.02268E+06-5.28307E-08-2.77119E-07
 -1        59-1.06386E+07-6.88013E+05-1.12348E+05-2.92474E+06 1.21145E-08 2.14059E-08
 -1        60-9.63349E+06-1.64074E+06-5.10549E+04-3.98116E+06-1.12777E-09 4.30373E-08
 -1        61-1.02540E+07-8.91783E+05-7.06644E+03-3.13122E+06 9.05493E-09-8.32661E-08
 -1        62-9.88420E+06-1.46961E+06-4.05738E+04-3.76912E+06-3.76604E-08 1.40059E-07
 -1        63-9.71519E+06-1.34592E+06 1.82246E+04-3.61077E+06-2.16096E-08 4.45616E-08
 -1        64-1.01272E+07-1.21837E+06-3.70769E+04-3.47192E+06-2.52476E-08-1.62636E-08
 -1        65-9.41445E+06-1.75199E+06-7.48650E+03-4.16937E+06-3.76094E-08-1.58325E-08
 -1        66-1.02406E+07-1.02505E+06-4.35824E+04-3.25185E+06 1.03937E-08-3.63822E-07
 -1        67-9.37397E+06-1.94761E+06-1.01362E+05-4.42558E+06-9.29558E-08-1.88462E-07
 -1        68-1.02223E+07-9.85698E+05-1.79534E+05-3.25108E+06-2.28497E-08-5.51809E-08
 -1        69-9.60115E+06-2.09139E+06-4.95727E+05-4.13697E+06 8.25503E-09-1.96356E-07
 -1        70-9.96672E+06-9.24522E+05-7.85128E+05-3.50574E+06-8.31278E-09-5.45115E-08
 -1        86-1.22263E+06-1.34827E+07-2.30926E+06-2.50478E+06-2.44065E-07 1.00888E-07
 -1        87 1.87643E+06 4.81842E+06 1.92181E+06 4.84483E+06-4.35517E-07 1.22860E-07
 -1        88-3.30252E+05-2.18690E+06 1.75385E+05-2.27895E+06-3.64773E-07-1.33686E-07
 -1        89 2.51845E+06 4.59928E+06 1.96426E+06 4.99080E+06-5.34405E-07-1.93848E-07
 -1        90-1.79596E+06-1.33214E+07-2.50415E+06-2.66980E+06-1.41124E-07-6.95436E-08
 -1       121-1.78754E+03-1.58496E+06-1.78840E+02 1.03922E+03 1.34537E-09-2.08820E-09
 -1       122-1.04323E+03-1.58063E+06 1.22393E+03-4.18941E+03-5.18475E-09 4.05453E-09
 -1       123-1.86221E+03-1.58513E+06 1.19438E+03 3.10341E+03 3.80805E-09 2.22281E-09
 -1       124 1.34093E+03-1.57964E+06 4.89864E+03-8.75863E+03-9.68203E-09 3.11993E-08
 -1       125-3.19271E+03-1.58646E+06 6.71358E+03 5.57369E+03 6.25187E-09-2.61571E-09
 -1       191-7.78364E+01 3.85910E+05 8.54532E+00 6.91137E-01-5.56350E-10 4.58749E-09
 -1       192-7.48178E+01 3.85892E+05 2.12747E+01-4.25819E+00-7.00853E-10 1.47975E-09
 -1       193-8.03685E+01 3.85910E+05 3.62845E+01 3.73826E+00-1.13794E-09 2.04091E-09
 -1       194-7.79015E+01 3.85895E+05 8.08690E+01-9.66427E+00-6.75367E-10-1.88165E-08
 -1       195-8.52286E+01 3.85907E+05 1.54890E+02 6.28556E+00-1.46875E-09 7.54335E-09
 -1       251-9.96820E+05 1.99832E+04-4.69912E+04-1.72731E+04 3.97756E-09 1.11795E-07
 -1       252-1.01574E+06-2.30375E+04-3.28680E+04 5.85549E+04 4.89356E-09-4.08691E-07
 -1       253-1.00552E+06 3.14261E+03-1.23303E+04-1.55049E+04-9.67214E-09 1.69730E-08
 -1       254-1.00095E+06-3.60903E+03-6.26794E+03 4.60176E+04 1.27761E-08 1.97395E-07
 -1       255-1.01102E+06 1.83212E+02-4.11710E+03-4.73644E+03-5.41309E-09 2.61266E-07
 -1       256-9.92930E+05-3.81293E+02 9.94309E+02 1.94658E+04 3.59648E-09 3.97358E-07
 -1       257-1.01288E+06-5.85133E+02-1.83789E+03 1.10365E+04 4.39263E-09 7.92962E-08
 -1       258-9.94530E+05 8.42669E+02 2.90909E+03-1.11345E+04-1.38762E-08-2.40467E-07
 -1       259-1.00956E+06-9.34129E+02 8.98930E+02 2.58570E+04 7.09156E-09 1.35013E-07
 -1       260-1.00215E+06 2.79987E+03 5.22749E+03-3.42831E+04-1.40117E-08 1.85781E-08
 -1       261-1.00600E+06-1.96211E+03 7.71861E+03 3.42007E+04 1.75689E-08-4.97066E-08
 -1       262-1.00216E+06 1.07991E+04 1.92977E+04-4.14334E+04-3.70330E-09 1.17396E-07
 -1       263-1.00989E+06-8.64075E+03 3.04447E+04 3.30184E+04 9.50683E-09-2.30921E-08
 -1       264-9.73288E+05 6.02787E+04 8.47912E+04-2.99087E+04 3.73311E-08 9.58808E-08
 -1       265-1.03428E+06-5.16735E+04 1.17247E+05 2.26618E+04 8.89531E-09 9.48785E-09
 -1       266-1.79627E+04-8.40011E+03 4.21420E+04-2.10407E+01-4.91127E-11-1.41916E-07
 -1       267 2.08235E+04 9.78934E+03 2.97872E+04 2.42786E+01 2.88765E-10-6.87403E-09
 -1       268-2.79240E+03-1.38651E+03 1.10717E+04-3.09341E+00-3.45608E-11 7.48998E-08
 -1       269 3.29699E+03 1.65928E+03 7.19650E+03 3.60347E+00-2.40107E-10-4.39841E-07
 -1       270-4.94883E+02-2.72636E+02 3.47385E+03-4.89011E-01-1.09480E-10-1.73591E-07
 -1       271-1.58475E+06-1.99210E+05-1.18699E+05-6.14778E+05 2.37387E-08 6.60220E-08
 -1       272-1.59740E+06-3.07385E+05-7.51845E+04-6.40125E+05-5.12955E-09-1.10143E-07
 -1       273-1.60932E+06-2.25551E+05-2.85455E+04-6.06836E+05 2.92239E-08 1.97928E-07
 -1       274-1.56862E+06-2.75897E+05-1.52195E+04-6.54377E+05-2.62844E-09 1.76708E-07
 -1       275-1.61481E+06-2.25810E+05-6.97806E+03-6.03269E+05 1.16415E-08 1.39830E-07
 -1       276-1.56233E+06-2.76331E+05-3.15360E+03-6.62044E+05-2.65736E-08 2.30071E-07
 -1       277-1.61749E+06-2.23529E+05-1.90207E+03-6.00669E+05 1.47738E-08 2.04512E-07
 -1       278-1.55966E+06-2.79456E+05-8.55603E+02-6.67733E+05 7.05768E-09 4.69829E-07
 -1       279-1.61922E+06-2.21558E+05-9.83499E+02-5.98793E+05 9.25684E-09-1.15860E-07
 -1       280-1.55828E+06-2.81975E+05-1.27748E+03-6.71618E+05 3.05631E-08 1.38923E-08
 -1       281-1.62017E+06-2.20196E+05-2.35334E+03-5.97669E+05 1.95541E-08-7.13069E-09
 -1       282-1.55863E+06-2.84682E+05-5.49627E+03-6.73395E+05-3.57431E-10 2.22027E-07
 -1       283-1.61959E+06-2.18549E+05-9.77461E+03-5.97439E+05-7.03608E-09-4.91505E-08
 -1       284-1.56721E+06-2.97898E+05-2.66471E+04-6.71276E+05-1.31308E-08-9.08904E-08
 -1       285-1.61177E+06-2.08322E+05-4.14815E+04-5.99307E+05-1.88439E-08-2.96623E-08
 -1       301-8.59389E+02-6.26678E+05 1.68073E+05-1.09467E+06-4.65661E-09 9.58462E-08
 -1       302-1.20813E+03-5.81279E+05 1.01218E+05-1.59859E+06-1.39626E-08-1.22025E-07
 -1       303-1.68281E+04-6.17476E+05 5.77904E+04-1.09176E+06-1.32059E-08-1.42380E-07
 -1       304-1.71340E+04-5.86937E+05 5.92170E+04-1.59788E+06-9.50240E-09 2.24663E-07
 -1       305-2.03401E+04-6.07043E+05 7.41807E+04-1.09486E+06-9.79890E-09 8.55071E-08
 -1       306-2.99314E+07-6.17878E+06-8.53919E+06-6.10478E+05-1.07335E-07-3.00788E-07
 -1       307 2.52962E+07 3.14304E+06 5.48343E+06-1.49661E+07-8.95932E-07 6.50180E-08
 -1       308-7.09952E+06-1.02435E+06-4.83188E+05 5.16859E+06-2.45142E-07 4.15574E-07
 -1       309-3.34917E+06 8.59807E+06 2.24313E+06-2.05113E+07 4.19968E-07 1.18998E-08
 -1       310-1.23507E+07-1.87786E+06-1.95817E+06 5.16785E+06 1.64146E-08 4.46016E-08
 -1       311 3.75382E+07 2.45310E+04 7.14318E+06-8.94268E+06 2.81027E-07 8.67294E-08
 -1       312-3.16049E+07-6.63462E+06-8.40704E+06-4.86238E+06-1.60886E-07-5.76256E-08
 -1       313 4.51209E+07 1.45027E+07 1.05425E+07 2.32745E+07-2.27708E-07 1.10216E-07
 -1       314-1.73055E+07-1.74612E+07-7.45470E+06-1.24482E+07 2.17988E-07-3.90573E-08
 -1       315-1.61687E+06 2.92887E+07 5.63149E+06 1.07019E+07-5.57367E-07-9.51113E-08
 -1       316 1.28570E+06-9.82570E+06-4.62774E+05-2.64948E+06-1.18115E-06-2.21597E-07
 -1       317-1.71614E+07 2.22380E+07 2.20083E+06-8.54941E+06 7.24605E-07-7.36851E-07
 -1       318-1.06400E+06-1.25685E+07-1.97830E+06-4.25410E+06-9.06206E-07 9.47039E-08
 -1       319 6.96790E+06 3.13856E+07 6.91256E+06 1.63405E+07 1.83572E-08 2.10042E-07
 -1       320-2.23747E+07-1.73864E+07-9.71523E+06-1.26683E+07 1.89873E-07-3.83588E-08
 -1       336 1.84031E+02-1.78959E+06-1.82045E+04 9.72031E+03-9.57243E-09 1.35915E-08
 -1       337-7.12837E+03-1.79019E+06-2.15887E+04-2.38399E+04-7.46581E-09-1.17179E-08
 -1       338 6.69379E+02-1.78947E+06-3.13575E+04 1.38677E+04-1.17088E-08 2.93730E-08
 -1       339-3.35506E+04-1.80838E+06-6.97695E+04-3.19505E+04-8.61201E-09 2.77796E-08
 -1       340 2.29322E+04-1.77378E+06-1.08657E+05 1.77044E+04-1.38934E-08 1.70621E-08
 -1       406-4.81978E+01 3.85893E+05 6.43472E+02 3.29953E+00-2.04057E-09 2.20571E-08
 -1       407 1.56010E+02 3.86027E+05 1.37499E+03 2.32050E+01-5.88649E-10 1.25547E-08
 -1       408 6.35556E+02 3.85792E+05 2.74171E+03-2.68333E+01-2.34172E-09-1.57543E-08
 -1       409 2.90475E+03 3.86902E+05 6.17942E+03 2.86296E+02-1.79512E-10-4.93219E-09
 -1       410 8.47095E+03 3.85003E+05 1.26120E+04-2.76055E+02-2.92312E-09-2.15641E-08
 -1       521-3.14303E+07-7.60649E+06-9.95348E+06-2.26367E+05-9.91859E-08 1.16182E-07
 -1       522 2.60966E+07 4.11176E+06 5.57552E+06-1.84103E+07-4.77972E-07-3.16330E-07
 -1       523-7.68993E+06-1.33018E+06-4.76339E+05 5.60782E+06 2.22004E-07-7.16827E-08
 -1       524-6.82280E+06 1.15720E+07 2.42038E+06-2.35287E+07 8.30114E-07-3.59800E-07
 -1       525-1.31564E+07-2.48804E+06-2.14804E+06 5.60601E+06 5.60249E-07-8.11997E-09
 -1       526 4.08571E+07-5.56594E+04 7.48446E+06-1.15689E+07 6.69621E-07-1.23953E-07
 -1       527-3.33931E+07-8.29508E+06-9.66901E+06-4.72070E+06 2.73925E-07-1.59926E-08
 -1       528 4.91834E+07 1.60880E+07 1.09755E+07 2.63960E+07-1.78057E-07-5.15429E-08
 -1       529-1.82396E+07-1.96063E+07-8.52887E+06-1.24778E+07 1.49652E-07-2.95695E-07
 -1       530-4.08079E+06 3.39510E+07 5.94621E+06 1.02243E+07-3.47049E-07 6.70843E-07
 -1       531 1.27089E+06-1.08955E+07-4.38605E+05-2.62467E+06-8.96995E-07 4.17582E-07
 -1       532-1.97336E+07 2.42477E+07 2.39929E+06-1.27246E+07 3.47791E-07-6.59114E-07
 -1       533-1.11294E+06-1.36970E+07-2.09885E+06-4.09241E+06-2.10071E-07-9.38890E-07
 -1       534 4.94148E+06 3.63381E+07 7.17934E+06 1.68751E+07 8.04139E-08 6.82310E-07
 -1       535-2.35207E+07-1.97095E+07-1.11126E+07-1.27263E+07 1.22003E-07 4.54020E-07
 -1       536-7.05151E+05-4.72524E+04-4.63792E+04-5.45132E+04-2.51839E-09 5.60321E-08
 -1       537-5.58139E+04 4.53084E+04 8.47271E+04 1.23521E+05-1.07297E-07 8.40155E-08
 -1       538-3.94444E+05 3.22229E+03 3.94915E+03-7.20421E+04 3.27949E-08 9.82971E-08
 -1       539-2.69498E+05 2.95833E+03 2.50678E+04 1.38408E+05 1.58875E-07 1.03421E-07
 -1       540-4.96826E+05-4.33717E+02-2.11174E+04-6.99319E+04-1.86674E-09 1.04537E-07
 -1       541 1.44476E+05 1.69172E+04 1.06006E+05 9.76606E+04-3.09897E-08 7.50977E-08
 -1       542-7.97262E+05-2.00591E+04-8.38741E+04-3.04253E+04 1.99107E-08 3.46154E-08
 -1       543 4.02194E+05 2.72216E+04 1.57354E+05-1.33212E+04-3.19651E-08-1.99407E-09
 -1       544-7.47633E+05-1.64710E+04-7.45341E+04 4.03846E+04-2.94585E-08-4.41685E-08
 -1       545 2.72992E+04 9.43907E+03 7.94842E+04-1.13327E+05-6.26221E-08-8.42392E-08
 -1       546-4.32435E+05 6.07812E+03-1.21850E+04 6.92358E+04 1.18921E-08-1.00009E-07
 -1       547-2.87545E+05-4.66014E+03 1.05128E+04-1.41256E+05-9.51909E-08-1.05620E-07
 -1       548-4.41252E+05 4.71534E+03-2.38276E+04 6.90009E+04-9.43069E-08-8.86303E-08
 -1       549 4.64162E+04 1.59254E+04 6.01668E+04-1.11184E+05-7.44304E-08-6.03388E-08
 -1       550-7.57460E+05-2.19849E+04-1.28621E+05 3.84524E+04 3.01407E-09-4.58986E-08
 -1       551 4.09216E+04-7.57846E+05-1.47283E+04-1.24641E+06-1.00743E-07-1.41445E-08
 -1       552 9.31505E+04-8.02434E+05 1.06089E+04-1.77732E+06-7.22503E-08 2.86382E-08
 -1       553 7.15555E+04-7.98893E+05 3.25102E+04-1.23979E+06-1.19806E-07 1.86847E-08
 -1       554 1.31743E+05-8.18016E+05 8.16304E+04-1.77926E+06-7.45276E-08 1.55596E-08
 -1       555 1.01277E+05-8.22417E+05 1.48891E+05-1.23965E+06-1.21945E-07-1.51413E-08
 -1       556 2.22852E+05-3.82282E+05 2.75045E+04-4.06548E+05-2.11294E-08-9.60426E-09
 -1       557 3.53411E+05-4.86482E+05 1.70421E+04-5.26457E+05 1.93540E-09 1.62581E-08
 -1       558 2.04828E+05-3.75443E+05 2.72580E+03-4.10727E+05-2.06928E-08 1.13359E-08
 -1       559 3.28307E+05-4.86802E+05 2.63150E+03-5.46808E+05 1.74769E-08 7.33053E-09
 -1       560 1.89613E+05-3.65900E+05-1.40285E+03-4.21688E+05 1.30094E-08 1.92376E-08
 -1       561 3.09162E+05-4.79155E+05 1.75077E+02-5.59854E+05-9.89530E-10 8.76753E-10
 -1       562 1.77577E+05-3.58419E+05-1.29764E+03-4.30404E+05-2.03727E-10-5.21686E-09
 -1       563 2.94864E+05-4.72922E+05-2.60818E+01-5.69192E+05-7.69796E-09-2.59188E-08
 -1       564 1.68988E+05-3.53067E+05-5.92161E+02-4.36491E+05 3.60887E-09 7.71615E-09
 -1       565 2.85383E+05-4.68793E+05 2.62407E+01-5.75250E+05 7.94535E-09 6.26369E-09
 -1       566 1.63969E+05-3.49892E+05-2.57582E+02-4.40002E+05-4.63479E-09 8.36735E-11
 -1       567 2.80778E+05-4.66790E+05-3.60861E+02-5.78046E+05 1.35624E-08-7.51606E-09
 -1       568 1.62610E+05-3.49060E+05-1.12150E+03-4.41048E+05-4.24461E-09-2.20571E-08
 -1       569 2.79663E+05-4.66717E+05-2.83282E+03-5.76616E+05-9.40236E-09-5.44969E-09
 -1       570 1.66002E+05-3.52285E+05-6.19298E+03-4.40032E+05 1.08848E-08 5.94719E-09
 -1       571 2.90118E+05 1.04933E+04 1.49732E+04-9.50086E+04 4.99767E-09 6.24095E-09
 -1       572 2.92289E+05 3.95341E+03 7.33806E+03-1.04234E+05 1.89902E-09-5.17139E-09
 -1       573 2.90980E+05 1.24211E+03 3.26054E+03-9.48323E+04 1.31513E-09 9.20500E-09
 -1       574 2.91194E+05 7.23928E+02 1.63513E+03-1.04458E+05 2.95518E-09-5.68525E-09
 -1       575 2.91074E+05 4.45293E+02 7.71732E+02-9.48081E+04 5.29838E-10 7.25413E-09
 -1       576 2.91058E+05 4.56413E+02 3.95118E+02-1.04488E+05-4.69936E-09 1.42682E-08
 -1       577 2.91114E+05 3.87330E+02 1.97242E+02-9.48048E+04-6.05360E-09 1.38507E-08
 -1       578 2.91089E+05 4.18501E+02 1.13930E+02-1.04492E+05-5.61840E-09-2.61025E-09
 -1       579 2.91186E+05 3.50822E+02 7.82439E+01-9.48045E+04 7.49969E-09-8.82210E-10
 -1       580 2.91190E+05 3.67701E+02 9.07877E+01-1.04487E+05-7.96808E-09-2.46928E-09
 -1       581 2.91299E+05 2.92506E+02 1.37135E+02-9.48104E+04 5.12955E-09-1.50339E-08
 -1       582 2.91365E+05 3.30574E+02 2.78795E+02-1.04426E+05 5.42877E-09 2.49538E-08
 -1       583 2.91439E+05 3.35053E+02 5.35136E+02-9.48669E+04-3.52884E-10 4.06749E-09
 -1       584 2.91739E+05 7.72009E+02 1.21093E+03-1.03950E+05 3.20142E-09-1.04508E-08
 -1       585 2.91464E+05 1.79138E+03 2.45212E+03-9.52851E+04-3.64707E-09-1.73131E-08
 -1       586-3.41577E+03 1.16684E+05-2.91482E+03-2.50374E+05-4.48290E-09 9.27866E-09
 -1       587-1.33161E+03 1.16435E+05 7.69722E+02-2.75555E+05-9.38235E-09 2.20404E-08
 -1       588 4.03601E+02 1.16243E+05 4.75350E+03-2.50236E+05-3.97449E-09 2.06628E-08
 -1       589 5.08530E+03 1.18712E+05 1.23294E+04-2.75322E+05-5.24597E-09-2.96131E-09
 -1       590 1.65955E+04 1.14910E+05 2.58638E+04-2.50666E+05-6.26278E-09-6.43377E-09
 -1       591-7.48924E+04-1.59650E+04-2.24995E+04-3.19352E+04-5.40626E-09 2.08211E-08
 -1       592-7.89706E+04-1.95236E+04-1.21875E+04-3.55621E+04-3.20120E-09 2.30443E-10
 -1       593-7.71426E+04-1.43323E+04-5.07306E+03-3.35849E+04-2.65021E-09-9.19044E-10
 -1       594-7.58640E+04-1.62221E+04-2.53006E+03-3.56798E+04-1.50449E-09 8.48644E-09
 -1       595-7.73142E+04-1.43269E+04-1.16156E+03-3.36598E+04-3.70604E-09 1.01655E-08
 -1       596-7.56513E+04-1.60712E+04-5.90273E+02-3.56545E+04 4.42458E-09 1.62138E-08
 -1       597-7.73357E+04-1.43423E+04-3.20981E+02-3.36627E+04 9.94550E-09 1.08286E-08
 -1       598-7.56303E+04-1.60652E+04-2.57225E+02-3.56474E+04 8.37474E-10 7.10003E-10
 -1       599-7.73344E+04-1.43428E+04-3.27569E+02-3.36623E+04 3.26622E-09-2.52689E-08
 -1       600-7.56513E+04-1.60717E+04-6.07714E+02-3.56524E+04 3.34842E-09-1.24675E-08
 -1       601-7.73098E+04-1.43283E+04-1.19847E+03-3.36589E+04 3.25895E-09-1.97747E-09
 -1       602-7.58708E+04-1.62263E+04-2.61172E+03-3.56746E+04-5.43423E-10 1.08430E-08
 -1       603-7.71300E+04-1.43368E+04-5.23747E+03-3.35823E+04-5.36602E-11 1.33650E-08
 -1       604-7.90956E+04-1.96151E+04-1.25816E+04-3.55283E+04 6.18650E-09 5.76642E-09
 -1       605-7.47869E+04-1.60401E+04-2.32272E+04-3.18986E+04 5.62437E-09 2.24300E-08
 -1       606 2.67044E+04-1.43096E+04-2.56526E+04 2.40055E+04 4.60295E-09-1.09917E-08
 -1       607 2.23212E+04-4.67331E+03-1.27749E+04 2.69769E+04-7.25686E-09-1.35442E-08
 -1       608 2.48192E+04-8.42885E+02-5.71890E+03 2.38365E+04-8.14180E-09-4.68935E-09
 -1       609 2.43403E+04-2.88544E+02-2.88903E+03 2.71911E+04 4.00178E-11-1.35263E-08
 -1       610 2.46059E+04-4.06632E+01-1.37840E+03 2.38164E+04 5.21413E-09-1.22964E-09
 -1       611 2.45306E+04-4.08597E+01-6.94976E+02 2.72142E+04 8.17636E-09 9.51036E-09
 -1       612 2.45588E+04-2.69405E+01-3.30381E+02 2.38144E+04 3.20415E-09 2.39356E-09
 -1       613 2.45421E+04-3.67445E+01-1.48025E+02 2.72169E+04 1.59707E-09-2.14345E-09
 -1       614 2.45366E+04-3.33249E+01-3.46514E+01 2.38137E+04-5.18048E-09 3.44312E-09
 -1       615 2.45368E+04-3.52340E+01 6.21897E+01 2.72174E+04-1.16452E-08 1.26176E-08
 -1       616 2.45192E+04-3.01862E+01 1.86349E+02 2.38140E+04-1.92913E-08-5.33578E-09
 -1       617 2.45592E+04 4.49342E+00 4.25112E+02 2.72169E+04-3.13375E-08 1.85810E-09
 -1       618 2.44822E+04 9.23776E+01 8.56860E+02 2.38143E+04-2.50384E-08-1.40199E-08
 -1       619 2.48617E+04 6.67029E+02 1.92413E+03 2.72163E+04-2.15741E-08 1.51042E-08
 -1       620 2.41977E+04 2.12423E+03 3.86745E+03 2.38158E+04-1.06951E-08 1.51285E-08
 -1       621 5.09827E+02 3.01107E+05 3.88197E+03 4.08787E+04 8.54016E-10-5.68434E-10
 -1       622 6.75022E+02 3.02004E+05 3.44439E+03 5.93475E+04 1.15779E-09-1.13687E-08
 -1       623 1.41599E+02 3.01302E+05 4.13808E+03 4.06938E+04 1.31195E-09 1.85473E-08
 -1       624 2.12239E+03 3.03220E+05 8.02132E+03 5.95296E+04 1.34787E-09 1.71431E-08
 -1       625 2.07409E+03 2.99711E+05 1.40166E+04 4.06906E+04 1.31786E-09 1.92927E-09
 -1       626 2.60541E+05 6.13651E+04 5.11413E+03 1.26619E+05-1.15097E-09-1.42227E-08
 -1       627 2.58223E+05 6.27639E+04 2.46446E+03 1.30891E+05-1.05501E-09-1.05276E-08
 -1       628 2.60669E+05 5.90249E+04 1.04228E+03 1.27488E+05-4.32101E-09 1.03994E-08
 -1       629 2.57588E+05 6.20849E+04 5.10147E+02 1.31131E+05-7.16318E-09 1.11942E-08
 -1       630 2.60684E+05 5.89118E+04 2.36744E+02 1.27525E+05 1.45110E-09-3.15663E-09
 -1       631 2.57521E+05 6.20591E+04 1.27533E+02 1.31133E+05 3.41515E-09 2.31967E-09
 -1       632 2.60680E+05 5.89158E+04 8.41547E+01 1.27520E+05 1.03964E-08-1.33241E-08
 -1       633 2.57513E+05 6.20609E+04 9.41069E+01 1.31129E+05 1.22623E-09-1.63395E-08
 -1       634 2.60676E+05 5.89130E+04 1.52397E+02 1.27520E+05-8.60541E-09-1.33894E-08
 -1       635 2.57527E+05 6.20592E+04 3.08570E+02 1.31134E+05-1.63612E-09 4.52383E-09
 -1       636 2.60666E+05 5.89072E+04 6.23259E+02 1.27520E+05 3.40356E-09 1.70166E-09
 -1       637 2.57662E+05 6.21562E+04 1.37045E+03 1.31134E+05-4.84306E-10 4.92491E-09
 -1       638 2.60618E+05 5.92099E+04 2.81578E+03 1.27383E+05 1.23509E-09-8.15817E-09
 -1       639 2.59141E+05 6.42133E+04 6.66228E+03 1.30698E+05 9.19044E-09 2.11739E-08
 -1       640 2.60413E+05 6.53528E+04 1.38254E+04 1.24794E+05 7.45831E-09-1.62004E-09
 -1       656 6.65097E+04-1.70209E+06-1.60550E+05-2.53972E+03-5.45697E-10 8.94374E-09
 -1       657-8.79863E+04-1.77463E+06-1.33006E+05 5.18516E+03-9.06766E-10 2.69888E-09
 -1       658 2.12007E+04-1.72269E+06-8.19143E+04-4.62046E+03 7.11680E-10-5.70579E-09
 -1       659-9.51422E+04-1.77803E+06-1.42410E+05 6.91252E+03-3.63798E-10-1.28451E-08
 -1       660 7.36496E+04-1.69870E+06-1.76718E+05-4.26706E+03-2.63390E-09-9.43081E-09
 -1       661 1.58665E+05 1.66064E+04 1.67195E+04 6.20258E+04-1.88447E-09 9.19226E-09
 -1       662 1.68115E+05 2.89907E+04 1.12678E+04 5.82776E+04-6.63874E-10-7.29608E-09
 -1       663 1.61949E+05 2.19703E+04 3.94076E+03 6.10727E+04-2.13618E-10 5.91444E-09
 -1       664 1.64307E+05 2.27181E+04 2.35739E+03 5.94418E+04-2.06080E-09-5.36178E-09
 -1       665 1.62447E+05 2.27029E+04 9.29975E+02 6.09273E+04 1.38584E-10 5.22846E-10
 -1       666 1.63717E+05 2.18803E+04 5.44358E+02 5.96315E+04 8.62460E-09-1.24401E-09
 -1       667 1.62534E+05 2.27862E+04 2.89320E+02 6.08909E+04-8.39862E-11 4.26469E-09
 -1       668 1.63621E+05 2.18205E+04 2.95221E+02 5.96845E+04-6.25666E-09 3.97043E-09
 -1       669 1.62542E+05 2.27611E+04 4.00034E+02 6.08746E+04-1.65511E-09 8.44011E-10
 -1       670 1.63718E+05 2.20377E+04 8.71404E+02 5.96874E+04-1.32346E-08-1.32982E-08
 -1       671 1.62437E+05 2.25735E+04 1.54735E+03 6.08859E+04 2.71406E-10-1.14644E-08
 -1       672 1.64620E+05 2.35431E+04 3.95895E+03 5.94689E+04 1.68265E-09 1.21836E-08
 -1       673 1.61645E+05 2.12938E+04 6.63460E+03 6.10785E+04 2.96711E-09-2.66937E-10
 -1       674 1.70935E+05 3.42024E+04 1.89736E+04 5.76138E+04-4.32328E-09 5.93354E-09
 -1       675 1.56163E+05 1.22128E+04 2.81635E+04 6.26290E+04-2.65936E-09-5.08771E-09
 -1       676 2.40967E+01-2.95691E+05-1.11289E+03-1.36071E+02 1.70041E-09-1.22702E-08
 -1       677-2.94407E+02-2.95960E+05-2.03678E+03 2.71923E+02 9.44223E-09-4.69622E-09
 -1       678 1.97447E+02-2.95500E+05-3.60052E+03-1.35763E+02 2.11071E-09 1.69927E-08
 -1       679-3.60060E+03-2.98134E+05-8.55335E+03 2.70750E+02 1.03025E-08 1.60540E-08
 -1       680 2.14975E+03-2.93519E+05-1.37851E+04-1.33397E+02 9.89530E-10-4.89233E-09
 -1       771-3.06119E+06-7.45403E+05-1.64040E+05-1.46425E+06-3.10538E-08-2.97150E-08
 -1       772-2.98430E+06-8.33813E+05-8.45659E+04-1.56646E+06-2.50875E-08 1.12013E-08
 -1       773-3.09240E+06-7.21057E+05-4.31235E+04-1.47859E+06-1.74041E-08 5.54428E-09
 -1       774-2.97487E+06-8.15543E+05-1.92362E+04-1.59203E+06 2.32540E-08-2.35741E-09
 -1       775-3.10871E+06-7.09609E+05-1.43977E+04-1.48556E+06-8.14907E-09 1.90630E-09
 -1       776-2.98709E+06-8.12557E+05-5.38249E+03-1.61137E+06-5.29690E-09 2.71757E-09
 -1       777-3.12286E+06-6.99393E+05-6.36418E+03-1.49171E+06-7.36327E-09-2.13913E-09
 -1       778-2.99984E+06-8.09777E+05-1.79854E+03-1.62798E+06 7.42148E-10 6.31553E-09
 -1       779-3.13502E+06-6.90469E+05-3.18108E+03-1.49696E+06-6.73754E-09-8.32006E-09
 -1       780-3.01108E+06-8.07123E+05-5.27089E+02-1.64152E+06-3.92902E-09-2.25555E-09
 -1       781-3.14469E+06-6.83276E+05-1.23560E+03-1.50108E+06-2.69938E-08 5.38421E-10
 -1       782-3.01973E+06-8.04869E+05 4.46323E+02-1.65150E+06-4.36921E-08-7.49287E-09
 -1       783-3.15150E+06-6.78278E+05 6.94950E+02-1.50396E+06-2.08820E-09-1.09908E-08
 -1       784-3.02452E+06-8.02612E+05 2.87821E+03-1.65767E+06-1.42027E-08 8.13543E-10
 -1       785-3.15552E+06-6.75297E+05 5.08115E+03-1.50579E+06-4.03816E-08 5.52245E-09
 -1       786 1.24126E+05-9.78010E+03 2.26272E+04-3.21472E+02 4.24652E-09-6.35737E-10
 -1       787 1.33939E+05 1.13232E+04 1.60078E+04-1.35306E+02 7.69619E-09 3.11047E-10
 -1       788 1.27909E+05-1.53257E+03 5.85417E+03-2.86417E+02 4.34556E-09 1.48843E-08
 -1       789 1.29531E+05 1.77391E+03 3.67506E+03-1.89026E+02 2.07974E-10-9.97426E-09
 -1       790 1.28534E+05-2.38624E+02 1.48803E+03-2.67770E+02-3.15050E-09 1.30524E-09
 -1       791 1.28801E+05 2.76100E+02 8.59573E+02-2.20935E+02-6.46221E-09 2.62531E-08
 -1       792 1.28640E+05-3.58836E+01 3.64495E+02-2.54510E+02-5.38633E-09 2.60462E-08
 -1       793 1.28674E+05 3.80277E+01 1.82241E+02-2.45886E+02-9.14967E-10-4.86651E-09
 -1       794 1.28661E+05-7.01426E-01 4.84292E+01-2.42818E+02 4.04424E-09 8.76464E-09
 -1       795 1.28638E+05-2.66013E+01-5.50487E+01-2.70296E+02-4.78644E-09 2.08573E-09
 -1       796 1.28677E+05 2.87092E+01-1.58124E+02-2.30100E+02 3.69698E-09 6.20500E-09
 -1       797 1.28545E+05-2.14419E+02-4.35396E+02-2.99523E+02 3.87620E-09 6.36234E-09
 -1       798 1.28753E+05 1.86975E+02-7.07448E+02-2.13591E+02 2.03952E-09-7.59161E-09
 -1       799 1.28008E+05-1.37815E+03-1.94660E+03-3.40405E+02 6.00445E-09-1.01464E-08
 -1       800 1.29214E+05 1.19149E+03-2.75492E+03-1.89219E+02 5.62839E-11 1.39620E-08
 -1       801-1.67946E+05-9.93853E+06-1.38348E+06 1.40077E+06 8.99308E-08-5.76256E-08
 -1       802 7.28895E+05 5.85587E+06 2.15802E+06-1.72746E+06 2.58820E-07-4.12183E-08
 -1       803-5.31191E+05-1.41591E+07-1.87203E+06 8.89151E+05 7.74708E-08 1.20053E-08
 -1       804 2.83593E+05 2.33113E+06 1.52059E+06 6.72384E+05-1.20006E-07-1.05336E-07
 -1       805 1.88130E+05-6.42800E+06-2.83514E+05-9.93456E+05-4.93892E-08-7.57173E-08
 -1       806-3.08476E+05-5.96933E+04-2.28211E+04-1.22263E+05-3.62115E-09 1.71340E-08
 -1       807-3.10269E+05-5.59712E+04-1.12118E+04-1.27804E+05 1.53339E-08 2.44538E-08
 -1       808-3.09103E+05-5.14688E+04-4.75640E+03-1.26151E+05 5.50472E-09 5.91456E-09
 -1       809-3.07911E+05-5.28210E+04-2.32576E+03-1.28079E+05-1.34639E-08-2.55634E-08
 -1       810-3.09197E+05-5.11824E+04-1.06603E+03-1.26323E+05 8.90441E-09 2.87241E-09
 -1       811-3.07729E+05-5.26944E+04-5.30153E+02-1.28044E+05 6.72480E-09-1.10419E-08
 -1       812-3.09211E+05-5.12071E+04-2.68203E+02-1.26322E+05-3.69255E-09-1.15274E-08
 -1       813-3.07704E+05-5.26966E+04-1.74437E+02-1.28025E+05-3.63843E-09-3.91180E-08
 -1       814-3.09204E+05-5.12168E+04-1.73079E+02-1.26318E+05-8.64020E-10-9.66520E-09
 -1       815-3.07707E+05-5.26989E+04-2.79053E+02-1.28018E+05 5.70435E-09 1.12750E-08
 -1       816-3.09184E+05-5.12159E+04-5.29021E+02-1.26314E+05 8.64929E-09 1.09230E-08
 -1       817-3.07797E+05-5.27493E+04-1.13540E+03-1.28006E+05-2.20462E-09 1.29967E-08
 -1       818-3.09115E+05-5.13762E+04-2.31584E+03-1.26239E+05 4.71846E-09-1.02473E-08
 -1       819-3.09065E+05-5.41483E+04-5.44899E+03-1.27706E+05 1.46570E-08 1.67620E-08
 -1       820-3.08678E+05-5.54926E+04-1.10907E+04-1.24481E+05 1.11859E-08 3.16627E-08
 -1       821-3.78725E+05 2.08559E+04-4.85416E+04 2.10877E+03 1.37530E-08-7.02130E-09
 -1       822-3.98445E+05-2.41600E+04-3.41195E+04-4.41680E+03 5.53791E-09 5.06043E-09
 -1       823-3.86198E+05 3.28727E+03-1.25385E+04 3.40150E+03-1.18803E-08-3.07864E-09
 -1       824-3.89430E+05-3.79104E+03-7.84915E+03-5.31256E+03 3.12966E-09 1.89495E-08
 -1       825-3.87747E+05 5.10863E+02-3.28594E+03 3.00465E+03 1.91129E-08-8.24275E-09
 -1       826-3.87016E+05-5.67613E+02-1.74681E+03-3.05908E+03 2.62637E-08-1.37362E-08
 -1       827-3.88587E+05 4.76585E+01-1.18575E+03 1.14787E+03 1.03909E-08-6.32534E-09
 -1       828-3.86322E+05-1.33028E+02-5.92029E+02 1.09000E+03-3.71004E-09 1.04441E-08
 -1       829-3.88428E+05 6.64726E+01-1.17506E+03-1.14446E+03 1.19033E-09 2.29320E-08
 -1       830-3.87361E+05-6.21773E+02-1.88398E+03 4.83590E+03 2.66625E-09 1.96876E-08
 -1       831-3.87570E+05 5.53680E+02-3.36804E+03-2.59804E+03-6.10816E-09-1.81576E-08
 -1       832-3.89510E+05-3.95710E+03-8.15145E+03 6.10019E+03-2.66200E-09-1.19109E-08
 -1       833-3.86295E+05 3.41108E+03-1.30413E+04-2.40880E+03-1.84271E-09 9.69339E-09
 -1       834-3.98510E+05-2.50722E+04-3.53415E+04 4.14760E+03-4.64201E-09 2.29056E-08
 -1       835-3.78554E+05 2.16362E+04-5.04089E+04-6.45368E+02 5.46166E-09 7.78527E-10
 -1       836-1.41211E+03 3.69801E+05 2.28815E+04-1.61841E+04-6.94672E-09 1.18712E-08
 -1       837 4.87813E+03 3.76967E+05 1.93589E+04-3.30673E+04-7.50964E-09 1.98459E-08
 -1       838-5.57142E+02 3.71810E+05 1.97199E+04-1.61125E+04-6.18729E-09-1.35356E-09
 -1       839 1.24090E+04 3.82576E+05 3.72997E+04-3.31197E+04-6.61066E-09-9.46483E-09
 -1       840-3.83623E+03 3.64132E+05 5.94774E+04-1.61374E+04-5.98811E-09-1.03798E-09
 -1       856-5.23742E+04 8.02431E+03-2.11458E+04-3.97692E+02 5.43150E-09 3.88809E-09
 -1       857-6.10859E+04-9.42819E+03-1.45566E+04 5.62953E+03 4.02292E-09 9.36484E-09
 -1       858-5.58242E+04 1.12532E+03-5.48683E+03-4.21793E+02 2.33052E-09-7.00743E-09
 -1       859-5.71267E+04-1.32379E+03-3.31105E+03 5.66540E+03-2.98290E-09-7.93193E-09
 -1       860-5.63396E+04 1.57591E+02-1.38767E+03-4.33293E+02 2.37989E-09 1.81839E-08
 -1       861-5.65338E+04-1.88027E+02-7.63403E+02 5.68106E+03-2.71325E-09 1.58690E-09
 -1       862-5.64202E+04 2.13439E+01-3.17369E+02-4.37436E+02 1.06555E-09-4.36037E-09
 -1       863-5.64349E+04-2.17570E+01-1.15683E+02 5.68347E+03-5.98368E-09-1.60072E-08
 -1       864-5.64389E+04-4.89569E+00 4.70318E+01-4.35696E+02-7.77831E-10 6.68751E-09
 -1       865-5.63792E+04 5.96388E+01 2.54861E+02 5.67353E+03 1.42690E-09-1.82846E-08
 -1       866-5.64737E+04-6.00713E+01 5.13705E+02-4.27506E+02-3.45324E-10-5.08209E-09
 -1       867-5.61376E+04 4.96084E+02 1.26450E+03 5.65130E+03-1.70579E-09-4.59465E-10
 -1       868-5.66756E+04-4.33466E+02 2.10122E+03-4.13461E+02-4.91571E-09 1.09486E-08
 -1       869-5.45971E+04 3.60756E+03 5.59488E+03 5.61471E+03 8.13287E-09-6.20503E-10
 -1       870-5.80065E+04-3.08705E+03 8.11942E+03-3.90811E+02-3.51156E-09-2.54613E-08
 -1       871-5.51493E+03-2.12811E+04-1.94669E+04 1.30254E+05-4.53292E-09-5.81986E-09
 -1       872-1.98391E+03-2.58067E+04-8.15058E+03 1.68893E+05-1.03764E-08 4.43060E-09
 -1       873 4.01587E+02-2.36183E+04 5.90754E+02 1.29967E+05-6.05678E-09 1.14301E-09
 -1       874 3.29890E+03-2.12086E+04 9.77134E+03 1.68923E+05-1.13059E-08-6.97355E-10
 -1       875 6.83718E+03-2.59461E+04 2.20421E+04 1.30206E+05-5.15138E-09-9.06402E-09
 -1       876 2.93473E+05 4.94657E+04 1.50866E+04 1.17776E+05 2.87162E-09-1.38489E-08
 -1       877 2.94470E+05 5.26435E+04 8.05685E+03 1.22104E+05 7.07951E-09-1.01300E-08
 -1       878 2.94884E+05 4.77945E+04 3.37542E+03 1.19011E+05-1.05633E-08 7.87622E-10
 -1       879 2.92420E+05 5.05968E+04 1.68185E+03 1.22206E+05 2.47314E-09 2.57496E-08
 -1       880 2.94985E+05 4.77772E+04 7.83383E+02 1.19062E+05-5.13478E-09-1.16747E-08
 -1       881 2.92284E+05 5.05093E+04 4.18358E+02 1.22182E+05-5.39853E-09 4.29679E-10
 -1       882 2.94994E+05 4.77905E+04 2.67673E+02 1.19063E+05-1.33150E-09-1.56894E-09
 -1       883 2.92274E+05 5.05047E+04 2.87812E+02 1.22175E+05-5.59112E-10 1.55824E-08
 -1       884 2.94988E+05 4.77877E+04 4.57889E+02 1.19064E+05 7.88373E-09 8.62025E-09
 -1       885 2.92310E+05 5.05111E+04 9.20638E+02 1.22186E+05-1.21443E-09 5.63455E-09
 -1       886 2.94952E+05 4.77608E+04 1.85552E+03 1.19060E+05-3.43786E-09-1.23123E-09
 -1       887 2.92636E+05 5.07249E+04 4.05313E+03 1.22233E+05 1.14078E-08-1.00866E-08
 -1       888 2.94696E+05 4.78059E+04 8.16717E+03 1.18930E+05 3.16709E-09 4.07454E-09
 -1       889 2.97498E+05 5.57813E+04 1.95098E+04 1.22084E+05-4.34385E-09 1.56042E-08
 -1       890 2.91362E+05 5.17657E+04 3.65415E+04 1.15822E+05-4.89081E-09 2.04127E-08
 -1       891-8.98240E+01-1.62623E+05-1.99458E+03 2.71400E+04-2.22235E-09 8.67681E-09
 -1       892-1.76042E+02-1.63149E+05-2.14218E+03 4.12126E+04 1.89311E-09-1.54594E-08
 -1       893 4.31094E+01-1.62687E+05-3.03304E+03 2.71473E+04-3.22507E-09 3.07728E-09
 -1       894-1.50947E+03-1.64295E+05-6.27722E+03 4.10602E+04 4.44993E-09 3.16186E-09
 -1       895-1.19868E+03-1.61379E+05-1.10541E+04 2.72942E+04 1.58821E-10-8.74752E-09
 -1       956-3.76813E+05-5.44342E+03-1.34397E+04 3.08024E+04 6.83485E-09-8.70250E-09
 -1       957-3.79450E+05-1.91947E+03-6.89838E+03 3.70170E+04-2.07228E-09-1.13055E-08
 -1       958-3.78021E+05-2.39756E+02-3.10863E+03 3.06349E+04-3.47154E-09-5.92036E-09
 -1       959-3.78217E+05-1.35022E+02-1.58732E+03 3.72124E+04 9.71340E-09 1.20463E-08
 -1       960-3.78139E+05-4.38649E+01-7.74051E+02 3.06177E+04 5.70708E-09 1.16604E-08
 -1       961-3.78137E+05-6.20836E+01-4.10393E+02 3.72327E+04 4.24916E-09 1.61456E-08
 -1       962-3.78166E+05-4.51046E+01-2.34959E+02 3.06148E+04 2.74031E-09-1.01659E-08
 -1       963-3.78138E+05-5.79040E+01-1.88612E+02 3.72364E+04 3.61797E-09-2.00630E-08
 -1       964-3.78172E+05-4.17539E+01-2.29365E+02 3.06140E+04 3.79991E-09 2.71366E-08
 -1       965-3.78150E+05-5.49393E+01-3.96705E+02 3.72357E+04 7.77447E-10-5.08908E-09
 -1       966-3.78156E+05-3.39073E+01-7.45395E+02 3.06155E+04 4.66753E-09-1.60753E-10
 -1       967-3.78239E+05-1.18395E+02-1.52879E+03 3.72214E+04 2.94858E-09 1.19294E-08
 -1       968-3.78052E+05-2.16181E+02-2.99282E+03 3.06282E+04 1.79762E-09 2.19609E-09
 -1       969-3.79439E+05-1.83144E+03-6.64399E+03 3.70732E+04-2.04091E-09 9.48552E-09
 -1       970-3.76897E+05-5.22397E+03-1.29429E+04 3.07551E+04-2.80124E-09-4.15366E-09
 -1       971-3.45063E+05-1.72611E+03-9.30468E+03 1.53680E+04 1.01609E-08-7.15708E-09
 -1       972-3.47303E+05-1.27051E+03-5.06723E+03 2.12556E+04 1.63177E-08 7.75572E-10
 -1       973-3.46100E+05-6.16071E+01-2.26966E+03 1.52469E+04 9.91713E-09 1.63664E-09
 -1       974-3.46235E+05-8.04864E+01-1.17651E+03 2.13926E+04-1.63936E-09 1.71040E-08
 -1       975-3.46182E+05-1.67595E+01-5.88555E+02 1.52345E+04-4.42878E-09 1.06556E-08
 -1       976-3.46174E+05-3.06721E+01-3.40384E+02 2.14084E+04 1.81262E-09-1.44324E-08
 -1       977-3.46198E+05-1.60160E+01-2.48530E+02 1.52311E+04 1.88720E-09-6.30212E-09
 -1       978-3.46179E+05-2.44521E+01-2.92857E+02 2.14132E+04 2.38333E-09 4.22904E-09
 -1       979-3.46198E+05-7.54613E+00-4.72270E+02 1.52297E+04 2.88748E-09-1.53819E-08
 -1       980-3.46214E+05-2.13934E+01-9.12986E+02 2.14142E+04-1.43856E-09-2.05085E-08
 -1       981-3.46169E+05 1.52741E+01-1.76881E+03 1.52302E+04 4.80145E-09-1.00473E-08
 -1       982-3.46457E+05-1.52089E+02-3.65642E+03 2.14076E+04-1.28068E-09-5.17186E-09
 -1       983-3.45946E+05-9.79878E+01-7.10462E+03 1.52362E+04-7.88577E-09 8.81687E-09
 -1       984-3.49874E+05-3.86262E+03-1.59106E+04 2.13220E+04 9.30186E-10 1.50320E-08
 -1       985-3.42729E+05-5.29670E+03-2.92167E+04 1.53077E+04-4.14730E-09-7.29779E-09
 -3
    1PSTEP                        41          21           1          
  100CL  121 6.62727E-01         409                     0   21           1
 -4  DISP        4    1
 -5  D1          1    2    1    0
 -5  D2          1    2    2    0
 -5  D3          1    2    3    0
 -5  ALL         1    2    0    0    1ALL
 -1         1 2.68039E-03 0.00000E+00 0.00000E+00
 -1         2 1.40362E-03-1.56585E-27 0.00000E+00
 -1         3 3.38445E-04-5.13747E-28-1.32349E-23
 -1         5 1.76933E-04-4.86818E-27-1.65436E-24
 -1         8 2.66871E-03-4.21474E-07 0.00000E+00
 -1         9 2.66181E-03-1.67035E-04 0.00000E+00
 -1        10 3.08543E-04-3.42634E-06 6.61744E-24
 -1        12 1.78770E-04 8.08847E-07-4.13590E-25
 -1        15 2.65521E-03-4.47887E-07 2.06795E-25
 -1        16 2.71908E-03-1.68727E-04 0.00000E+00
 -1        17 2.11208E-04-7.95116E-06 0.00000E+00
 -1        18 1.82688E-04 3.42795E-05 0.00000E+00
 -1        19 1.84280E-04 1.61130E-06 0.00000E+00
 -1        20 1.84419E-04-9.75843E-06 0.00000E+00
 -1        21 1.83528E-04-2.51589E-05 3.30872E-24
 -1        24 3.06631E-05-1.21779E-05 0.00000E+00
 -1        25 1.93418E-04 3.45052E-05 0.00000E+00
 -1        26 1.94101E-04 2.23128E-06 0.00000E+00
 -1        27 1.91901E-04-1.33151E-05 0.00000E+00
 -1        28 1.91585E-04-2.57807E-05 0.00000E+00
 -1        32 0.00000E+00 0.00000E+00 0.00000E+00
 -1        33 2.02916E-04 2.98484E-06 0.00000E+00
 -1        34 2.00799E-04-1.33711E-05 0.00000E+00
 -1        35 1.98868E-04-2.61229E-05 0.00000E+00
 -1        51 2.67961E-03-8.71253E-08 3.30872E-24
 -1        52 2.67818E-03-1.56195E-07 0.00000E+00
 -1        53 2.67624E-03-2.21937E-07 0.00000E+00
 -1        54 2.67392E-03-2.86584E-07 0.00000E+00
 -1        55 2.67136E-03-3.51883E-07 3.30872E-24
 -1        56 2.67381E-03 5.79064E-06-5.29396E-23
 -1        57 2.66195E-03 2.47195E-05 5.29396E-23
 -1        58 2.64653E-03 5.25390E-05 0.00000E+00
 -1        59 2.62953E-03 8.41323E-05 5.29396E-23
 -1        60 2.61335E-03 1.13744E-04 0.00000E+00
 -1        61 2.60023E-03 1.35778E-04 5.29396E-23
 -1        62 2.59176E-03 1.45991E-04 0.00000E+00
 -1        63 2.58898E-03 1.41188E-04-5.29396E-23
 -1        64 2.59183E-03 1.20906E-04-1.05879E-22
 -1        65 2.59971E-03 8.61154E-05-5.29396E-23
 -1        66 2.61122E-03 4.04915E-05 0.00000E+00
 -1        67 2.62472E-03-1.12555E-05 5.29396E-23
 -1        68 2.63830E-03-6.32561E-05 0.00000E+00
 -1        69 2.65007E-03-1.09609E-04 0.00000E+00
 -1        70 2.65835E-03-1.45490E-04-5.29396E-23
 -1        86 1.48267E-03-5.40373E-06 5.29396E-23
 -1        87 1.71204E-03-3.34219E-05 0.00000E+00
 -1        88 2.02036E-03-8.13799E-05-2.64698E-23
 -1        89 2.33250E-03-1.30544E-04 1.32349E-23
 -1        90 2.57112E-03-1.60620E-04 0.00000E+00
 -1       121 3.37605E-04-5.55369E-07-1.32349E-23
 -1       122 3.35089E-04-1.11346E-06-6.61744E-24
 -1       123 3.30906E-04-1.67692E-06 0.00000E+00
 -1       124 3.25072E-04-2.24850E-06 6.61744E-24
 -1       125 3.17608E-04-2.83042E-06 0.00000E+00
 -1       191 1.76984E-04 1.34871E-07-8.27181E-25
 -1       192 1.77137E-04 2.69730E-07 4.13590E-25
 -1       193 1.77392E-04 4.04570E-07-2.48154E-24
 -1       194 1.77749E-04 5.39378E-07-1.24077E-24
 -1       195 1.78208E-04 6.74141E-07-2.48154E-24
 -1       251 2.66837E-03 2.12296E-06 6.61744E-24
 -1       252 2.66803E-03 5.16001E-06 0.00000E+00
 -1       253 2.66769E-03 7.58017E-06 0.00000E+00
 -1       254 2.66736E-03 8.28234E-06 6.61744E-24
 -1       255 2.66702E-03 6.45236E-06 1.32349E-23
 -1       256 2.66667E-03 1.31114E-06-6.61744E-24
 -1       257 2.66629E-03-7.36789E-06-1.32349E-23
 -1       258 2.66588E-03-1.97622E-05 0.00000E+00
 -1       259 2.66542E-03-3.54301E-05 0.00000E+00
 -1       260 2.66492E-03-5.38839E-05-6.61744E-24
 -1       261 2.66438E-03-7.41711E-05 1.32349E-23
 -1       262 2.66383E-03-9.53147E-05 6.61744E-24
 -1       263 2.66328E-03-1.16194E-04 0.00000E+00
 -1       264 2.66276E-03-1.35692E-04 0.00000E+00
 -1       265 2.66227E-03-1.52924E-04 1.32349E-23
 -1       266 2.66646E-03-4.31794E-07-3.30872E-24
 -1       267 2.66421E-03-4.35475E-07 0.00000E+00
 -1       268 2.66196E-03-4.39576E-07 8.27181E-25
 -1       269 2.65971E-03-4.42432E-07 0.00000E+00
 -1       270 2.65746E-03-4.45258E-07 0.00000E+00
 -1       271 2.66770E-03 4.03827E-07 0.00000E+00
 -1       272 2.66753E-03-1.07470E-06-6.61744E-24
 -1       273 2.66817E-03-4.73035E-06 0.00000E+00
 -1       274 2.66956E-03-1.04264E-05 1.32349E-23
 -1       275 2.67165E-03-1.80064E-05 2.64698E-23
 -1       276 2.67436E-03-2.72999E-05-1.32349E-23
 -1       277 2.67763E-03-3.81212E-05-5.29396E-23
 -1       278 2.68138E-03-5.02723E-05 1.32349E-23
 -1       279 2.68554E-03-6.35439E-05 2.64698E-23
 -1       280 2.69002E-03-7.77172E-05-1.32349E-23
 -1       281 2.69475E-03-9.25657E-05 0.00000E+00
 -1       282 2.69963E-03-1.07858E-04 1.32349E-23
 -1       283 2.70459E-03-1.23357E-04 0.00000E+00
 -1       284 2.70954E-03-1.38827E-04 0.00000E+00
 -1       285 2.71440E-03-1.54029E-04 0.00000E+00
 -1       301 2.67222E-03-1.67348E-04-6.61744E-24
 -1       302 2.68107E-03-1.67618E-04 3.30872E-24
 -1       303 2.68927E-03-1.67880E-04 0.00000E+00
 -1       304 2.69774E-03-1.68143E-04-6.61744E-24
 -1       305 2.70737E-03-1.68417E-04 0.00000E+00
 -1       306 2.69927E-03-3.19522E-04 1.05879E-22
 -1       307 2.76323E-03-7.30704E-04 5.29396E-23
 -1       308 2.81046E-03-1.33313E-03-1.05879E-22
 -1       309 2.83492E-03-2.03151E-03 5.29396E-23
 -1       310 2.86647E-03-2.70071E-03 0.00000E+00
 -1       311 2.92587E-03-3.21811E-03 0.00000E+00
 -1       312 2.98405E-03-3.50318E-03-2.11758E-22
 -1       313 2.98097E-03-3.51747E-03 0.00000E+00
 -1       314 2.84336E-03-3.27238E-03 1.05879E-22
 -1       315 2.53020E-03-2.83144E-03 0.00000E+00
 -1       316 2.05918E-03-2.27088E-03-1.05879E-22
 -1       317 1.49521E-03-1.66004E-03 0.00000E+00
 -1       318 9.51655E-04-1.05993E-03 1.05879E-22
 -1       319 5.35787E-04-5.35643E-04 0.00000E+00
 -1       320 2.91372E-04-1.60950E-04-1.05879E-22
 -1       336 2.97568E-04-4.10952E-06-1.32349E-23
 -1       337 2.84390E-04-4.81935E-06 0.00000E+00
 -1       338 2.69077E-04-5.55788E-06 0.00000E+00
 -1       339 2.51712E-04-6.32621E-06 0.00000E+00
 -1       340 2.32387E-04-7.12924E-06 1.32349E-23
 -1       406 1.79433E-04 9.43476E-07-8.27181E-25
 -1       407 1.80198E-04 1.07799E-06-1.24077E-24
 -1       408 1.81066E-04 1.21234E-06-4.13590E-25
 -1       409 1.82036E-04 1.34636E-06-8.27181E-25
 -1       410 1.83107E-04 1.47976E-06 2.48154E-24
 -1       521 2.75717E-03-3.30476E-04-1.05879E-22
 -1       522 2.81942E-03-7.61580E-04 0.00000E+00
 -1       523 2.86041E-03-1.39124E-03 0.00000E+00
 -1       524 2.87592E-03-2.11755E-03-5.29396E-23
 -1       525 2.89978E-03-2.81268E-03 0.00000E+00
 -1       526 2.95568E-03-3.35162E-03 0.00000E+00
 -1       527 3.01342E-03-3.64713E-03 2.11758E-22
 -1       528 3.00814E-03-3.65981E-03 5.29396E-23
 -1       529 2.85897E-03-3.40100E-03 0.00000E+00
 -1       530 2.52268E-03-2.94194E-03 5.29396E-23
 -1       531 2.01768E-03-2.36253E-03-1.05879E-22
 -1       532 1.41516E-03-1.73474E-03 0.00000E+00
 -1       533 8.33623E-04-1.11703E-03 0.00000E+00
 -1       534 3.85322E-04-5.72263E-04-5.29396E-23
 -1       535 1.20171E-04-1.78403E-04-2.11758E-22
 -1       536 2.10454E-04 2.69414E-05 6.61744E-24
 -1       537 2.08538E-04 8.73337E-05 1.65436E-24
 -1       538 2.05579E-04 1.63966E-04 0.00000E+00
 -1       539 2.02087E-04 2.47496E-04 0.00000E+00
 -1       540 1.98945E-04 3.26428E-04 0.00000E+00
 -1       541 1.96903E-04 3.89291E-04-1.65436E-24
 -1       542 1.95960E-04 4.29336E-04 0.00000E+00
 -1       543 1.95735E-04 4.39960E-04 0.00000E+00
 -1       544 1.95413E-04 4.21937E-04 0.00000E+00
 -1       545 1.94243E-04 3.76260E-04 0.00000E+00
 -1       546 1.92061E-04 3.11050E-04 0.00000E+00
 -1       547 1.89108E-04 2.34548E-04 0.00000E+00
 -1       548 1.86182E-04 1.58423E-04 3.30872E-24
 -1       549 1.84070E-04 9.43399E-05 1.65436E-24
 -1       550 1.82974E-04 5.03258E-05 1.65436E-24
 -1       551 1.86035E-04-8.52178E-06 0.00000E+00
 -1       552 1.57627E-04-9.17238E-06 0.00000E+00
 -1       553 1.26926E-04-9.88485E-06 6.61744E-24
 -1       554 9.48935E-05-1.06381E-05 3.30872E-24
 -1       555 6.24875E-05-1.14048E-05-1.32349E-23
 -1       556 2.03567E-04 1.15849E-05 0.00000E+00
 -1       557 1.97394E-04 2.74304E-05 0.00000E+00
 -1       558 1.92553E-04 3.98728E-05 0.00000E+00
 -1       559 1.88913E-04 4.92221E-05-2.64698E-23
 -1       560 1.86343E-04 5.57888E-05 0.00000E+00
 -1       561 1.84716E-04 5.98858E-05 0.00000E+00
 -1       562 1.83906E-04 6.18273E-05 0.00000E+00
 -1       563 1.83790E-04 6.19284E-05 0.00000E+00
 -1       564 1.84246E-04 6.05052E-05 0.00000E+00
 -1       565 1.85153E-04 5.78743E-05 0.00000E+00
 -1       566 1.86391E-04 5.43529E-05 0.00000E+00
 -1       567 1.87843E-04 5.02588E-05 3.30872E-24
 -1       568 1.89389E-04 4.59095E-05 0.00000E+00
 -1       569 1.90912E-04 4.16231E-05 0.00000E+00
 -1       570 1.92294E-04 3.77172E-05 0.00000E+00
 -1       571 1.82784E-04 3.21601E-05-1.65436E-24
 -1       572 1.82883E-04 2.99750E-05-1.24077E-24
 -1       573 1.82982E-04 2.77400E-05-1.65436E-24
 -1       574 1.83081E-04 2.54712E-05-8.27181E-25
 -1       575 1.83180E-04 2.31852E-05 0.00000E+00
 -1       576 1.83280E-04 2.08983E-05 0.00000E+00
 -1       577 1.83379E-04 1.86272E-05 0.00000E+00
 -1       578 1.83479E-04 1.63883E-05 3.30872E-24
 -1       579 1.83578E-04 1.41980E-05 0.00000E+00
 -1       580 1.83678E-04 1.20729E-05 0.00000E+00
 -1       581 1.83778E-04 1.00296E-05 6.61744E-24
 -1       582 1.83878E-04 8.08444E-06 6.61744E-24
 -1       583 1.83978E-04 6.25393E-06-6.61744E-24
 -1       584 1.84079E-04 4.55437E-06 0.00000E+00
 -1       585 1.84179E-04 3.00190E-06 0.00000E+00
 -1       586 1.84435E-04 3.43192E-05-1.65436E-24
 -1       587 1.86142E-04 3.43584E-05-4.13590E-25
 -1       588 1.87850E-04 3.43972E-05 0.00000E+00
 -1       589 1.89603E-04 3.44354E-05 0.00000E+00
 -1       590 1.91446E-04 3.44722E-05 0.00000E+00
 -1       591 1.83414E-04 3.22537E-05-2.06795E-25
 -1       592 1.84143E-04 3.02079E-05 0.00000E+00
 -1       593 1.84877E-04 2.81480E-05-8.27181E-25
 -1       594 1.85615E-04 2.60787E-05 0.00000E+00
 -1       595 1.86354E-04 2.40048E-05 0.00000E+00
 -1       596 1.87092E-04 2.19310E-05 0.00000E+00
 -1       597 1.87829E-04 1.98619E-05 0.00000E+00
 -1       598 1.88563E-04 1.78024E-05 0.00000E+00
 -1       599 1.89291E-04 1.57569E-05-8.27181E-25
 -1       600 1.90012E-04 1.37304E-05 0.00000E+00
 -1       601 1.90725E-04 1.17274E-05-8.27181E-25
 -1       602 1.91427E-04 9.75261E-06 0.00000E+00
 -1       603 1.92116E-04 7.81077E-06 4.13590E-25
 -1       604 1.92793E-04 5.90665E-06-1.55096E-25
 -1       605 1.93453E-04 4.04487E-06 0.00000E+00
 -1       606 1.84293E-04 4.53853E-07 0.00000E+00
 -1       607 1.84303E-04-6.17726E-07 0.00000E+00
 -1       608 1.84312E-04-1.60848E-06 0.00000E+00
 -1       609 1.84320E-04-2.52408E-06 0.00000E+00
 -1       610 1.84328E-04-3.37028E-06 3.30872E-24
 -1       611 1.84337E-04-4.15286E-06 0.00000E+00
 -1       612 1.84345E-04-4.87764E-06 0.00000E+00
 -1       613 1.84353E-04-5.55042E-06 0.00000E+00
 -1       614 1.84362E-04-6.17702E-06 0.00000E+00
 -1       615 1.84370E-04-6.76325E-06 0.00000E+00
 -1       616 1.84378E-04-7.31493E-06 0.00000E+00
 -1       617 1.84387E-04-7.83787E-06 0.00000E+00
 -1       618 1.84395E-04-8.33787E-06 0.00000E+00
 -1       619 1.84404E-04-8.82076E-06 0.00000E+00
 -1       620 1.84412E-04-9.29234E-06 0.00000E+00
 -1       621 1.85631E-04 1.71520E-06 0.00000E+00
 -1       622 1.87141E-04 1.81933E-06 8.27181E-25
 -1       623 1.88777E-04 1.92326E-06 1.65436E-24
 -1       624 1.90504E-04 2.02686E-06 8.27181E-25
 -1       625 1.92290E-04 2.13017E-06 0.00000E+00
 -1       626 1.84826E-04 4.89943E-07 0.00000E+00
 -1       627 1.85349E-04-5.68327E-07 0.00000E+00
 -1       628 1.85852E-04-1.57136E-06 0.00000E+00
 -1       629 1.86337E-04-2.52732E-06 1.65436E-24
 -1       630 1.86808E-04-3.44440E-06-3.30872E-24
 -1       631 1.87268E-04-4.33082E-06-1.65436E-24
 -1       632 1.87719E-04-5.19477E-06 0.00000E+00
 -1       633 1.88164E-04-6.04448E-06-1.65436E-24
 -1       634 1.88608E-04-6.88816E-06 3.30872E-24
 -1       635 1.89052E-04-7.73400E-06 1.65436E-24
 -1       636 1.89500E-04-8.59024E-06 0.00000E+00
 -1       637 1.89955E-04-9.46508E-06-1.65436E-24
 -1       638 1.90420E-04-1.03667E-05 3.30872E-24
 -1       639 1.90898E-04-1.13034E-05-1.65436E-24
 -1       640 1.91391E-04-1.22834E-05-1.65436E-24
 -1       656 1.85118E-04-1.03365E-05-6.61744E-24
 -1       657 1.86237E-04-1.09381E-05 0.00000E+00
 -1       658 1.87635E-04-1.15382E-05-1.32349E-23
 -1       659 1.89169E-04-1.21381E-05 6.61744E-24
 -1       660 1.90652E-04-1.27397E-05 6.61744E-24
 -1       661 1.84681E-04-1.02696E-05 0.00000E+00
 -1       662 1.84980E-04-1.08725E-05 0.00000E+00
 -1       663 1.85312E-04-1.15620E-05 0.00000E+00
 -1       664 1.85674E-04-1.23316E-05-8.27181E-25
 -1       665 1.86063E-04-1.31754E-05 0.00000E+00
 -1       666 1.86479E-04-1.40876E-05-8.27181E-25
 -1       667 1.86918E-04-1.50625E-05 0.00000E+00
 -1       668 1.87378E-04-1.60944E-05 0.00000E+00
 -1       669 1.87857E-04-1.71781E-05 1.65436E-24
 -1       670 1.88354E-04-1.83082E-05 0.00000E+00
 -1       671 1.88866E-04-1.94795E-05-1.65436E-24
 -1       672 1.89392E-04-2.06869E-05 8.27181E-25
 -1       673 1.89929E-04-2.19254E-05-1.65436E-24
 -1       674 1.90475E-04-2.31904E-05 0.00000E+00
 -1       675 1.91030E-04-2.44764E-05 0.00000E+00
 -1       676 1.84875E-04-2.52631E-05 3.30872E-24
 -1       677 1.86222E-04-2.53673E-05 1.65436E-24
 -1       678 1.87567E-04-2.54714E-05 0.00000E+00
 -1       679 1.88910E-04-2.55753E-05 1.65436E-24
 -1       680 1.90250E-04-2.56791E-05 1.65436E-24
 -1       771 1.87390E-05 1.44824E-05 0.00000E+00
 -1       772 8.70582E-06 3.63812E-05 0.00000E+00
 -1       773 4.72944E-07 5.37478E-05 0.00000E+00
 -1       774-6.08350E-06 6.68397E-05 0.00000E+00
 -1       775-1.10847E-05 7.59242E-05 0.00000E+00
 -1       776-1.46569E-05 8.12858E-05-2.64698E-23
 -1       777-1.69260E-05 8.32188E-05-5.29396E-23
 -1       778-1.80204E-05 8.20312E-05 0.00000E+00
 -1       779-1.80681E-05 7.80398E-05 5.29396E-23
 -1       780-1.71989E-05 7.15725E-05 0.00000E+00
 -1       781-1.55418E-05 6.29641E-05 0.00000E+00
 -1       782-1.32275E-05 5.25583E-05 0.00000E+00
 -1       783-1.03854E-05 4.07031E-05 0.00000E+00
 -1       784-7.14660E-06 2.77529E-05 0.00000E+00
 -1       785-3.64089E-06 1.40653E-05 0.00000E+00
 -1       786 1.93457E-04 3.22610E-05 1.29247E-26
 -1       787 1.93499E-04 3.00667E-05-4.13590E-25
 -1       788 1.93541E-04 2.79140E-05 0.00000E+00
 -1       789 1.93583E-04 2.57948E-05 0.00000E+00
 -1       790 1.93626E-04 2.37043E-05-1.65436E-24
 -1       791 1.93669E-04 2.16379E-05 0.00000E+00
 -1       792 1.93711E-04 1.95933E-05 0.00000E+00
 -1       793 1.93754E-04 1.75683E-05 0.00000E+00
 -1       794 1.93797E-04 1.55628E-05 0.00000E+00
 -1       795 1.93841E-04 1.35766E-05 0.00000E+00
 -1       796 1.93884E-04 1.16116E-05 0.00000E+00
 -1       797 1.93927E-04 9.66962E-06 8.27181E-25
 -1       798 1.93970E-04 7.75500E-06 1.65436E-24
 -1       799 1.94013E-04 5.87203E-06 0.00000E+00
 -1       800 1.94057E-04 4.02824E-06 1.65436E-24
 -1       801 1.47740E-04 3.10175E-05-2.64698E-23
 -1       802 9.62491E-06 1.93545E-05 0.00000E+00
 -1       803-1.08373E-04 9.77770E-06 5.29396E-23
 -1       804-9.61048E-05 6.80421E-06 0.00000E+00
 -1       805-3.17466E-05 2.67596E-06 0.00000E+00
 -1       806 1.94145E-04 3.21922E-05 0.00000E+00
 -1       807 1.94857E-04 2.99054E-05-1.65436E-24
 -1       808 1.95557E-04 2.76498E-05 3.30872E-24
 -1       809 1.96244E-04 2.54296E-05 1.65436E-24
 -1       810 1.96915E-04 2.32488E-05 3.30872E-24
 -1       811 1.97571E-04 2.11114E-05 0.00000E+00
 -1       812 1.98208E-04 1.90213E-05 0.00000E+00
 -1       813 1.98827E-04 1.69824E-05 0.00000E+00
 -1       814 1.99425E-04 1.49987E-05 0.00000E+00
 -1       815 2.00001E-04 1.30741E-05-1.65436E-24
 -1       816 2.00553E-04 1.12124E-05 1.65436E-24
 -1       817 2.01081E-04 9.41766E-06-8.27181E-25
 -1       818 2.01582E-04 7.69365E-06 1.65436E-24
 -1       819 2.02056E-04 6.04430E-06-8.27181E-25
 -1       820 2.02500E-04 4.47343E-06 1.65436E-24
 -1       821 1.93972E-04-1.19157E-07 1.65436E-24
 -1       822 1.93831E-04-3.61793E-06 0.00000E+00
 -1       823 1.93689E-04-7.83875E-06-3.30872E-24
 -1       824 1.93544E-04-1.23508E-05-1.65436E-24
 -1       825 1.93400E-04-1.66446E-05 3.30872E-24
 -1       826 1.93258E-04-2.02118E-05-1.65436E-24
 -1       827 1.93120E-04-2.27421E-05 0.00000E+00
 -1       828 1.92983E-04-2.39314E-05 1.65436E-24
 -1       829 1.92848E-04-2.38405E-05 0.00000E+00
 -1       830 1.92711E-04-2.25382E-05 0.00000E+00
 -1       831 1.92574E-04-2.04228E-05 0.00000E+00
 -1       832 1.92435E-04-1.78977E-05-1.65436E-24
 -1       833 1.92297E-04-1.54779E-05 3.30872E-24
 -1       834 1.92162E-04-1.36777E-05-1.65436E-24
 -1       835 1.92028E-04-1.28434E-05 0.00000E+00
 -1       836 1.95782E-04 2.35624E-06 0.00000E+00
 -1       837 1.97337E-04 2.48435E-06 0.00000E+00
 -1       838 1.98796E-04 2.61240E-06 0.00000E+00
 -1       839 2.00191E-04 2.73974E-06 0.00000E+00
 -1       840 2.01554E-04 2.86692E-06 0.00000E+00
 -1       856 1.91885E-04-1.43691E-05-8.27181E-25
 -1       857 1.91866E-04-1.52874E-05 0.00000E+00
 -1       858 1.91847E-04-1.60911E-05-2.06795E-25
 -1       859 1.91827E-04-1.68014E-05 0.00000E+00
 -1       860 1.91807E-04-1.74394E-05-4.13590E-25
 -1       861 1.91787E-04-1.80265E-05 2.06795E-25
 -1       862 1.91768E-04-1.85839E-05 0.00000E+00
 -1       863 1.91748E-04-1.91330E-05-4.13590E-25
 -1       864 1.91728E-04-1.96952E-05 0.00000E+00
 -1       865 1.91708E-04-2.02916E-05 0.00000E+00
 -1       866 1.91688E-04-2.09437E-05-8.27181E-25
 -1       867 1.91668E-04-2.16727E-05 0.00000E+00
 -1       868 1.91648E-04-2.24998E-05-8.27181E-25
 -1       869 1.91628E-04-2.34462E-05 0.00000E+00
 -1       870 1.91607E-04-2.45328E-05-8.27181E-25
 -1       871 1.93243E-04-1.33200E-05 8.27181E-25
 -1       872 1.94732E-04-1.33283E-05 0.00000E+00
 -1       873 1.96300E-04-1.33373E-05 0.00000E+00
 -1       874 1.97880E-04-1.33470E-05 7.75482E-26
 -1       875 1.99402E-04-1.33573E-05-2.06795E-25
 -1       876 1.92424E-04-1.43545E-05 0.00000E+00
 -1       877 1.92924E-04-1.53272E-05-1.65436E-24
 -1       878 1.93402E-04-1.62410E-05 0.00000E+00
 -1       879 1.93862E-04-1.71035E-05 0.00000E+00
 -1       880 1.94305E-04-1.79218E-05 0.00000E+00
 -1       881 1.94734E-04-1.87036E-05 0.00000E+00
 -1       882 1.95153E-04-1.94560E-05 0.00000E+00
 -1       883 1.95563E-04-2.01865E-05 0.00000E+00
 -1       884 1.95968E-04-2.09023E-05 3.30872E-24
 -1       885 1.96370E-04-2.16109E-05-1.65436E-24
 -1       886 1.96772E-04-2.23195E-05-3.30872E-24
 -1       887 1.97177E-04-2.30354E-05 1.65436E-24
 -1       888 1.97587E-04-2.37662E-05 0.00000E+00
 -1       889 1.98004E-04-2.45191E-05 0.00000E+00
 -1       890 1.98432E-04-2.53016E-05 0.00000E+00
 -1       891 1.92941E-04-2.58382E-05 1.65436E-24
 -1       892 1.94274E-04-2.58958E-05-8.27181E-25
 -1       893 1.95558E-04-2.59534E-05-1.65436E-24
 -1       894 1.96768E-04-2.60107E-05-4.13590E-25
 -1       895 1.97880E-04-2.60677E-05 4.13590E-25
 -1       956 2.02786E-04 1.67083E-06 1.65436E-24
 -1       957 2.02654E-04 4.48319E-07 1.65436E-24
 -1       958 2.02521E-04-6.93411E-07 0.00000E+00
 -1       959 2.02388E-04-1.76569E-06 0.00000E+00
 -1       960 2.02256E-04-2.77991E-06 0.00000E+00
 -1       961 2.02123E-04-3.74747E-06 0.00000E+00
 -1       962 2.01990E-04-4.67978E-06 0.00000E+00
 -1       963 2.01857E-04-5.58831E-06-1.65436E-24
 -1       964 2.01725E-04-6.48447E-06 0.00000E+00
 -1       965 2.01592E-04-7.37970E-06 0.00000E+00
 -1       966 2.01459E-04-8.28545E-06 3.30872E-24
 -1       967 2.01327E-04-9.21315E-06 1.65436E-24
 -1       968 2.01194E-04-1.01742E-05-6.61744E-24
 -1       969 2.01062E-04-1.11801E-05 0.00000E+00
 -1       970 2.00930E-04-1.22421E-05 0.00000E+00
 -1       971 2.00679E-04-1.44997E-05 0.00000E+00
 -1       972 2.00558E-04-1.55337E-05 0.00000E+00
 -1       973 2.00437E-04-1.64836E-05 0.00000E+00
 -1       974 2.00316E-04-1.73602E-05-1.65436E-24
 -1       975 2.00194E-04-1.81744E-05 0.00000E+00
 -1       976 2.00073E-04-1.89369E-05 0.00000E+00
 -1       977 1.99951E-04-1.96588E-05-3.30872E-24
 -1       978 1.99830E-04-2.03509E-05-1.65436E-24
 -1       979 1.99709E-04-2.10241E-05 3.30872E-24
 -1       980 1.99588E-04-2.16893E-05 0.00000E+00
 -1       981 1.99466E-04-2.23574E-05 0.00000E+00
 -1       982 1.99345E-04-2.30394E-05 1.65436E-24
 -1       983 1.99224E-04-2.37460E-05 0.00000E+00
 -1       984 1.99104E-04-2.44883E-05 1.65436E-24
 -1       985 1.98983E-04-2.52771E-05-3.30872E-24
 -3
    1PSTEP                        42          21           1          
  100CL  121 6.62727E-01         409                     0   21           1
 -4  STRESS      6    1
 -5  SXX         1    4    1    1
 -5  SYY         1    4    2    2
 -5  SZZ         1    4    3    3
 -5  SXY         1    4    1    2
 -5  SYZ         1    4    2    3
 -5  SZX         1    4    3    1
 -1         1-5.27199E+06-1.66811E+06-1.12759E+06-1.46459E+06 1.20781E-09-2.97732E-08
 -1         2 1.24327E+06 1.83139E+07 4.35836E+06 5.49961E+06 2.24099E-08 1.03573E-07
 -1         3-1.28729E+03-1.57816E+06 6.03061E+02-2.09419E+03-2.84182E-10-1.82408E-08
 -1         5-7.44652E+01 3.86212E+05 9.97924E+00-1.33396E+00-6.46098E-10 3.01934E-08
 -1         8-6.04485E+05-2.12429E+05-6.98018E+04-2.55908E+05 2.65572E-10 1.24513E-07
 -1         9 1.14400E+07 3.18804E+06 2.61252E+06-4.78742E+05-1.16765E-08 1.08825E-07
 -1        10-3.61554E+03-1.68121E+06-5.12272E+03-1.54508E+04-4.74211E-09-5.04710E-08
 -1        12-7.05457E+01 3.86234E+05 3.27990E+02-9.09560E+00-7.02805E-10 1.04737E-08
 -1        15 9.80584E+02 5.38880E+02 3.16972E+03 9.53601E-01-3.08077E-10 4.80609E-07
 -1        16 2.26172E+07-2.95428E+05 3.08985E+06-2.16131E+06-1.72683E-09 5.32406E-08
 -1        17 8.26048E+06 6.17115E+06 2.23034E+06 5.92809E+06 3.95346E-08 2.53436E-08
 -1        18 1.42050E+05 3.34330E+04 4.10830E+03-1.19444E+05 1.55997E-08 2.46791E-09
 -1        19 1.22345E+05 1.41610E+05-9.42388E+02 2.19572E+04 1.68784E-09 4.32847E-09
 -1        20-8.18529E+04-5.73372E+05-1.28656E+05 2.51337E+04-2.34892E-09 3.62343E-09
 -1        21-4.55776E+01-2.95906E+05-9.23711E+02 2.73498E+02 1.71332E-08-2.66350E-08
 -1        24 1.37831E+07 1.18783E+07 3.82220E+06 1.10035E+07-1.63389E-07-5.72763E-08
 -1        25 1.23761E+05 2.62678E+05 9.88253E+04-6.42968E+05-3.67436E-10 1.77013E-08
 -1        26-5.53356E+04 9.22584E+04-2.46124E+04 1.26432E+03-8.54925E-11 3.16903E-09
 -1        27-7.55805E+04-3.09784E+05-1.13254E+05 6.89360E+04 4.02239E-09-1.10616E-08
 -1        28 2.22353E+04-8.53102E+04 1.68915E+04 2.06160E+04-3.99345E-09-3.85742E-09
 -1        32-1.67965E+06-3.17574E+06-1.96650E+05 4.52588E+05-4.23097E-08-1.31930E-08
 -1        33-1.78367E+05 9.29586E+04 3.23722E+04-3.85007E+04-3.22022E-09 4.00087E-09
 -1        34-2.23491E+05-2.50140E+04 6.89146E+02 7.56084E+04-5.49467E-09 3.52429E-10
 -1        35-2.29236E+04-3.38320E+04-1.34782E+03 5.14788E+04-2.46722E-09 1.25219E-08
 -1        51 5.95634E+04-1.78405E+05 1.26233E+05-4.65744E+05 1.45519E-10-7.65285E-08
 -1        52 2.02969E+04-1.56528E+05 6.64276E+04-5.43155E+05 2.55568E-10 9.57516E-09
 -1        53 4.29992E+03-1.71933E+05 3.49034E+04-4.64123E+05 3.38332E-10 1.93395E-07
 -1        54 7.88649E+03-1.67754E+05 2.93043E+04-5.44760E+05-5.45697E-11-4.24718E-07
 -1        55 1.71233E+04-1.75102E+05 3.63780E+04-4.64002E+05 3.89264E-10 5.18721E-08
 -1        56-9.63726E+06-1.25633E+06-8.71298E+05-3.94663E+06 3.41970E-08 1.17288E-08
 -1        57-1.07285E+07-1.08262E+06-5.53964E+05-2.92943E+06-8.47649E-10 1.88287E-07
 -1        58-9.58107E+06-1.66516E+06-1.97377E+05-4.06689E+06 2.56769E-08-1.55516E-07
 -1        59-1.07449E+07-6.30672E+05-1.12066E+05-2.88503E+06-6.43759E-08-2.45269E-07
 -1        60-9.65634E+06-1.67276E+06-5.20065E+04-4.02415E+06-2.64845E-09-2.05921E-07
 -1        61-1.03225E+07-8.54604E+05-4.15685E+03-3.10082E+06-1.56797E-09 1.66649E-07
 -1        62-9.93179E+06-1.48890E+06-4.52279E+04-3.79628E+06-5.84987E-09 2.46910E-08
 -1        63-9.73099E+06-1.34834E+06 2.28494E+04-3.61658E+06-8.58236E-08 4.06619E-07
 -1        64-1.01948E+07-1.21647E+06-4.13547E+04-3.47367E+06-8.80391E-09 1.01390E-08
 -1        65-9.41444E+06-1.78628E+06-4.94345E+03-4.22739E+06-5.17903E-08-3.84714E-08
 -1        66-1.03131E+07-1.00613E+06-4.41222E+04-3.23369E+06 1.61017E-08 7.15991E-08
 -1        67-9.37833E+06-1.99249E+06-1.01113E+05-4.50896E+06-2.93585E-08-1.80306E-07
 -1        68-1.02945E+07-9.66791E+05-1.80865E+05-3.23308E+06-5.34587E-08-1.94952E-07
 -1        69-9.60268E+06-2.12610E+06-4.95805E+05-4.19431E+06-4.51362E-08-3.77971E-07
 -1        70-1.00333E+07-9.22106E+05-7.93975E+05-3.50810E+06 1.77533E-09 6.95582E-08
 -1        86-1.26726E+06-1.38080E+07-2.38238E+06-2.59396E+06-2.43348E-07-5.18921E-08
 -1        87 1.95233E+06 5.04658E+06 1.98257E+06 4.98090E+06-4.12932E-07 2.86491E-09
 -1        88-3.47448E+05-2.15287E+06 1.82015E+05-2.32355E+06-3.89929E-07 1.56281E-07
 -1        89 2.61923E+06 4.81687E+06 2.02743E+06 5.13346E+06-5.57411E-07-1.01434E-07
 -1        90-1.86195E+06-1.36386E+07-2.58146E+06-2.76690E+06-1.30578E-07 6.93253E-08
 -1       121-1.79291E+03-1.58250E+06-1.82325E+02 1.03918E+03 1.42629E-09 4.53656E-09
 -1       122-1.04752E+03-1.57816E+06 1.22220E+03-4.18952E+03-5.11071E-09-1.09867E-08
 -1       123-1.86727E+03-1.58268E+06 1.18848E+03 3.10333E+03 3.92401E-09-2.99406E-09
 -1       124 1.33335E+03-1.57718E+06 4.89037E+03-8.75966E+03-9.77388E-09 1.81026E-08
 -1       125-3.19527E+03-1.58400E+06 6.69774E+03 5.57437E+03 6.31371E-09-1.52577E-08
 -1       191-7.84759E+01 3.86230E+05 8.52459E+00 6.95276E-01-5.57105E-10-1.90212E-08
 -1       192-7.54281E+01 3.86213E+05 2.12936E+01-4.27961E+00-6.37046E-10-5.23005E-08
 -1       193-8.10109E+01 3.86230E+05 3.62898E+01 3.75762E+00-1.06783E-09-2.58096E-08
 -1       194-7.85155E+01 3.86216E+05 8.09439E+01-9.71189E+00-6.25612E-10-2.04991E-08
 -1       195-8.58765E+01 3.86228E+05 1.55007E+02 6.31806E+00-1.49569E-09 2.17005E-09
 -1       251-9.57831E+05 1.87442E+04-4.39531E+04-1.61101E+04 2.66778E-09-2.76212E-07
 -1       252-9.75513E+05-2.16277E+04-3.07470E+04 5.49289E+04 6.72298E-09-1.16408E-07
 -1       253-9.66407E+05 2.92865E+03-1.16015E+04-1.35629E+04-1.08022E-08-1.93641E-08
 -1       254-9.61365E+05-3.41066E+03-5.77670E+03 4.19267E+04 1.54698E-08-1.43637E-07
 -1       255-9.71407E+05 1.57962E+02-3.87173E+03-3.10918E+03-3.45517E-09-5.42451E-08
 -1       256-9.54418E+05-3.57082E+02 9.39461E+02 1.68419E+04 6.73583E-09 3.78331E-08
 -1       257-9.72784E+05-5.50163E+02-1.62595E+03 1.15118E+04 1.50158E-09 9.54688E-08
 -1       258-9.56322E+05 8.24812E+02 2.73624E+03-1.12543E+04-1.62212E-08 2.28648E-07
 -1       259-9.69669E+05-8.94366E+02 1.08177E+03 2.49819E+04 1.09758E-08 8.42357E-08
 -1       260-9.63183E+05 2.76708E+03 5.27728E+03-3.21993E+04-1.43605E-08-1.06324E-07
 -1       261-9.66600E+05-1.96674E+03 7.98396E+03 3.24715E+04 2.64195E-08-1.19093E-07
 -1       262-9.62593E+05 1.09861E+04 1.99050E+04-3.85461E+04-2.60743E-08 9.24665E-08
 -1       263-9.70551E+05-8.85482E+03 3.14662E+04 3.13384E+04 3.29430E-09 7.60156E-08
 -1       264-9.33560E+05 6.20767E+04 8.73905E+04-2.79735E+04 2.26320E-08-4.97848E-08
 -1       265-9.95095E+05-5.32410E+04 1.21251E+05 2.18864E+04 4.99722E-09 1.96953E-07
 -1       266-1.77521E+04-8.30163E+03 4.16478E+04-2.04027E+01-2.54659E-11-1.28594E-08
 -1       267 2.05793E+04 9.67454E+03 2.94379E+04 2.35424E+01-2.22826E-10-1.70189E-07
 -1       268-2.75966E+03-1.37025E+03 1.09418E+04-2.99962E+00-5.77529E-11-3.42455E-09
 -1       269 3.25833E+03 1.63982E+03 7.11210E+03 3.49421E+00-9.09495E-13-2.22070E-07
 -1       270-4.89079E+02-2.69439E+02 3.43311E+03-4.74185E-01-1.79625E-11 1.19112E-07
 -1       271-1.56712E+06-1.97330E+05-1.17511E+05-6.08212E+05 3.65781E-08-5.02987E-08
 -1       272-1.57714E+06-3.06314E+05-7.43480E+04-6.35618E+05 3.09446E-08 1.54325E-07
 -1       273-1.59152E+06-2.23248E+05-2.82916E+04-6.00259E+05-4.76539E-08 1.14225E-07
 -1       274-1.54867E+06-2.75306E+05-1.50348E+04-6.49994E+05 9.62791E-09 1.71765E-07
 -1       275-1.59703E+06-2.23404E+05-6.93383E+03-5.96663E+05-4.19059E-08 1.01979E-07
 -1       276-1.54247E+06-2.75816E+05-3.10518E+03-6.57792E+05-1.31058E-09 7.52702E-08
 -1       277-1.59972E+06-2.21076E+05-1.89359E+03-5.94047E+05-2.75941E-09 8.15926E-08
 -1       278-1.53988E+06-2.78948E+05-8.33368E+02-6.63566E+05-3.39833E-08 1.62162E-07
 -1       279-1.60146E+06-2.19083E+05-9.63128E+02-5.92169E+05 4.15857E-08-1.92816E-07
 -1       280-1.53856E+06-2.81443E+05-1.23103E+03-6.67480E+05-2.77832E-08 4.63407E-08
 -1       281-1.60240E+06-2.17729E+05-2.26759E+03-5.91057E+05-2.58478E-09-8.39323E-08
 -1       282-1.53892E+06-2.84057E+05-5.29368E+03-6.69234E+05-7.61397E-08 3.84905E-07
 -1       283-1.60183E+06-2.16153E+05-9.41458E+03-5.90849E+05 5.43275E-08 6.33436E-08
 -1       284-1.54721E+06-2.96727E+05-2.56640E+04-6.67099E+05-1.12180E-08-2.55116E-07
 -1       285-1.59424E+06-2.06372E+05-3.99656E+04-5.92707E+05-1.23205E-08 4.48144E-08
 -1       301-1.79735E+03-6.30750E+05 1.67896E+05-1.10251E+06 2.77942E-09-9.29285E-08
 -1       302-2.33564E+03-5.85165E+05 1.01091E+05-1.60991E+06 1.82627E-09-1.70519E-07
 -1       303-1.75540E+04-6.21821E+05 5.75969E+04-1.09956E+06-5.54428E-09-1.27236E-07
 -1       304-1.82851E+04-5.91033E+05 5.88091E+04-1.60922E+06-9.67702E-09 2.61614E-07
 -1       305-2.12480E+04-6.11199E+05 7.34033E+04-1.10266E+06 5.42059E-10 1.22731E-07
 -1       306-3.00100E+07-6.19649E+06-8.56710E+06-5.88125E+05-7.11298E-08 1.92085E-08
 -1       307 2.53546E+07 3.18139E+06 5.49917E+06-1.50383E+07-8.26549E-07 6.74918E-08
 -1       308-7.06944E+06-1.02970E+06-4.77539E+05 5.18438E+06-2.33355E-07 1.91503E-07
 -1       309-3.33225E+06 8.65774E+06 2.25671E+06-2.05659E+07 2.22484E-07 1.32510E-07
 -1       310-1.24032E+07-1.89823E+06-1.97821E+06 5.18800E+06 2.62342E-07-2.47208E-07
 -1       311 3.77925E+07 2.72634E+04 7.18318E+06-8.92848E+06 1.00001E-06 5.92554E-08
 -1       312-3.17139E+07-6.67213E+06-8.44806E+06-4.90337E+06-6.68224E-08 1.08310E-07
 -1       313 4.52607E+07 1.46412E+07 1.05854E+07 2.34283E+07-1.49943E-07 3.30852E-07
 -1       314-1.73021E+07-1.75602E+07-7.48157E+06-1.24815E+07 6.15371E-07-5.39585E-08
 -1       315-1.66010E+06 2.94368E+07 5.64844E+06 1.06804E+07-2.83297E-07-7.60192E-08
 -1       316 1.31652E+06-9.83861E+06-4.58750E+05-2.61796E+06-1.28268E-06-1.83645E-07
 -1       317-1.71551E+07 2.23045E+07 2.21383E+06-8.63293E+06 5.55810E-07-7.86065E-07
 -1       318-1.06223E+06-1.26324E+07-1.99589E+06-4.24811E+06-8.77306E-07 5.11645E-08
 -1       319 7.03581E+06 3.15691E+07 6.95137E+06 1.64238E+07-6.84013E-08 2.57307E-07
 -1       320-2.24449E+07-1.74693E+07-9.75972E+06-1.27156E+07 1.89408E-07-6.58620E-08
 -1       336 1.72079E+02-1.78682E+06-1.81925E+04 9.71948E+03-8.92851E-09 1.91867E-08
 -1       337-7.12678E+03-1.78739E+06-2.15760E+04-2.38409E+04-7.70024E-09 1.25074E-08
 -1       338 6.61081E+02-1.78670E+06-3.13541E+04 1.38684E+04-1.23855E-08 2.90383E-08
 -1       339-3.35476E+04-1.80559E+06-6.97584E+04-3.19554E+04-9.45329E-09 3.04990E-08
 -1       340 2.29218E+04-1.77101E+06-1.08647E+05 1.77071E+04-1.36970E-08 3.13012E-08
 -1       406-4.88116E+01 3.86213E+05 6.44046E+02 3.32207E+00-1.84777E-09-2.47383E-10
 -1       407 1.55617E+02 3.86347E+05 1.37628E+03 2.32872E+01-4.39314E-10-1.01554E-08
 -1       408 6.35590E+02 3.86113E+05 2.74424E+03-2.69349E+01-2.47769E-09-4.30555E-09
 -1       409 2.90697E+03 3.87223E+05 6.18519E+03 2.87470E+02 5.37739E-11 1.82263E-09
 -1       410 8.47842E+03 3.85323E+05 1.26238E+04-2.77207E+02-2.70484E-09 1.83536E-09
 -1       521-3.15167E+07-7.63241E+06-9.99016E+06-2.01424E+05-1.79512E-07-5.22123E-08
 -1       522 2.61673E+07 4.16491E+06 5.59432E+06-1.84991E+07-4.95696E-07-5.20871E-07
 -1       523-7.65485E+06-1.33723E+06-4.70143E+05 5.62515E+06 1.41386E-07-2.76399E-07
 -1       524-6.81636E+06 1.16548E+07 2.43604E+06-2.35921E+07 9.11707E-07-3.78193E-07
 -1       525-1.32055E+07-2.51458E+06-2.17086E+06 5.62861E+06 9.13744E-07-1.75729E-07
 -1       526 4.11578E+07-5.52445E+04 7.52836E+06-1.15615E+07 3.63740E-07 2.24682E-08
 -1       527-3.35131E+07-8.34261E+06-9.72022E+06-4.76171E+06 2.88012E-07-5.88625E-08
 -1       528 4.93499E+07 1.62572E+07 1.10237E+07 2.65840E+07-8.14907E-09-4.19095E-07
 -1       529-1.82365E+07-1.97200E+07-8.56283E+06-1.25087E+07 1.68395E-07-3.08151E-07
 -1       530-4.13052E+06 3.41317E+07 5.96643E+06 1.01852E+07 2.87546E-08 5.39876E-07
 -1       531 1.30504E+06-1.09078E+07-4.33707E+05-2.58571E+06-8.10483E-07 2.21655E-07
 -1       532-1.97119E+07 2.43104E+07 2.41436E+06-1.28404E+07 2.43628E-07-6.41478E-07
 -1       533-1.10999E+06-1.37645E+07-2.11904E+06-4.07785E+06-1.96625E-07-9.44012E-07
 -1       534 5.01111E+06 3.65648E+07 7.22214E+06 1.69657E+07-9.50240E-08 7.39354E-07
 -1       535-2.35972E+07-1.98088E+07-1.11686E+07-1.27736E+07 1.12341E-07 4.73403E-07
 -1       536-7.06034E+05-4.72635E+04-4.68092E+04-5.46369E+04-3.43152E-09 5.70444E-08
 -1       537-5.49539E+04 4.52956E+04 8.47630E+04 1.23756E+05-1.15361E-07 1.13228E-07
 -1       538-3.94479E+05 3.25026E+03 3.88399E+03-7.21597E+04 1.48715E-08 1.07234E-07
 -1       539-2.69176E+05 2.95061E+03 2.50973E+04 1.38648E+05 1.66432E-07 1.07271E-07
 -1       540-4.97187E+05-4.36623E+02-2.12025E+04-7.00638E+04 1.18871E-08 1.18875E-07
 -1       541 1.45995E+05 1.69656E+04 1.06304E+05 9.78625E+04-3.44266E-08 8.64918E-08
 -1       542-7.98462E+05-2.01152E+04-8.41188E+04-3.05002E+04 5.00909E-08 3.54775E-08
 -1       543 4.04451E+05 2.72987E+04 1.57807E+05-1.33414E+04-4.58006E-08-2.59197E-08
 -1       544-7.48711E+05-1.65196E+04-7.47510E+04 4.04719E+04-1.40999E-08-2.64021E-08
 -1       545 2.85073E+04 9.47133E+03 7.97254E+04-1.13541E+05-1.96906E-08-5.31788E-08
 -1       546-4.32615E+05 6.09118E+03-1.22175E+04 6.93532E+04 3.32745E-08-8.31061E-08
 -1       547-2.87260E+05-4.65876E+03 1.05674E+04-1.41499E+05-1.10102E-07-1.27837E-07
 -1       548-4.41433E+05 4.71953E+03-2.38640E+04 6.91199E+04-1.10085E-07-1.09765E-07
 -1       549 4.76443E+04 1.60334E+04 6.04219E+04-1.11404E+05-6.50034E-08-5.92177E-08
 -1       550-7.58558E+05-2.21001E+04-1.28866E+05 3.85438E+04 7.98536E-09-4.02943E-08
 -1       551 4.09799E+04-7.57018E+05-1.49299E+04-1.24699E+06-1.03551E-07-6.40284E-09
 -1       552 9.33047E+04-8.01723E+05 1.04910E+04-1.77814E+06-7.34726E-08 3.87881E-08
 -1       553 7.16884E+04-7.98146E+05 3.24263E+04-1.24036E+06-1.20053E-07 4.23606E-08
 -1       554 1.31939E+05-8.17380E+05 8.15242E+04-1.78008E+06-7.39819E-08 2.10475E-08
 -1       555 1.01410E+05-8.21689E+05 1.48726E+05-1.24021E+06-1.23175E-07-1.71458E-08
 -1       556 2.23255E+05-3.82889E+05 2.71914E+04-4.06957E+05-2.12458E-08-5.23869E-09
 -1       557 3.53937E+05-4.87192E+05 1.68878E+04-5.27053E+05 4.04543E-09 1.18816E-08
 -1       558 2.05162E+05-3.75967E+05 2.64686E+03-4.11200E+05-2.12167E-08 3.25963E-09
 -1       559 3.28805E+05-4.87459E+05 2.59634E+03-5.47457E+05 3.83588E-08 1.21654E-08
 -1       560 1.89902E+05-3.66396E+05-1.42741E+03-4.22196E+05 1.07393E-08 6.99947E-09
 -1       561 3.09609E+05-4.79788E+05 1.65642E+02-5.60541E+05 4.78758E-09 1.43336E-08
 -1       562 1.77831E+05-3.58895E+05-1.30687E+03-4.30938E+05 3.17232E-09-2.44690E-08
 -1       563 2.95268E+05-4.73537E+05-2.87552E+01-5.69907E+05 7.49424E-10 4.36557E-10
 -1       564 1.69215E+05-3.53526E+05-5.95730E+02-4.37044E+05 7.53789E-09 1.85328E-08
 -1       565 2.85756E+05-4.69394E+05 2.55202E+01-5.75984E+05 9.34233E-09 1.08794E-08
 -1       566 1.64179E+05-3.50340E+05-2.58995E+02-4.40567E+05-4.22733E-09-2.76486E-09
 -1       567 2.81133E+05-4.67384E+05-3.62027E+02-5.78792E+05 2.45345E-08 4.04543E-09
 -1       568 1.62812E+05-3.49502E+05-1.12445E+03-4.41618E+05 3.19505E-09 3.00788E-08
 -1       569 2.80012E+05-4.67310E+05-2.84020E+03-5.77365E+05-1.29603E-09 1.42827E-08
 -1       570 1.66206E+05-3.52732E+05-6.20852E+03-4.40601E+05 7.55244E-09-8.12088E-09
 -1       571 2.90353E+05 1.05015E+04 1.49828E+04-9.51504E+04 3.96994E-09 2.09589E-08
 -1       572 2.92524E+05 3.95768E+03 7.34277E+03-1.04390E+05 3.48246E-09 2.91348E-08
 -1       573 2.91215E+05 1.24450E+03 3.26263E+03-9.49738E+04 9.59517E-10 2.04309E-08
 -1       574 2.91429E+05 7.26165E+02 1.63618E+03-1.04614E+05 3.51815E-09 8.95579E-09
 -1       575 2.91309E+05 4.47180E+02 7.72233E+02-9.49497E+04-6.69885E-10 3.78350E-09
 -1       576 2.91293E+05 4.58458E+02 3.95379E+02-1.04644E+05-1.13214E-08 4.52928E-09
 -1       577 2.91349E+05 3.89127E+02 1.97375E+02-9.49464E+04-8.09359E-09 1.37879E-09
 -1       578 2.91324E+05 4.20435E+02 1.14017E+02-1.04648E+05-7.22775E-09 1.44864E-08
 -1       579 2.91421E+05 3.52479E+02 7.83109E+01-9.49460E+04-3.16322E-09 5.94628E-09
 -1       580 2.91425E+05 3.69453E+02 9.08880E+01-1.04643E+05-2.74504E-08-3.51702E-09
 -1       581 2.91535E+05 2.93949E+02 1.37289E+02-9.49520E+04-2.41016E-09-1.09758E-08
 -1       582 2.91600E+05 3.32113E+02 2.79131E+02-1.04581E+05-1.83445E-09-4.47199E-09
 -1       583 2.91675E+05 3.36366E+02 5.35762E+02-9.50085E+04-1.49266E-08-9.67680E-09
 -1       584 2.91976E+05 7.73888E+02 1.21237E+03-1.04105E+05-1.40135E-08 3.88354E-10
 -1       585 2.91701E+05 1.79429E+03 2.45501E+03-9.54274E+04-8.88031E-09 3.87809E-09
 -1       586-3.41820E+03 1.16851E+05-2.91209E+03-2.50546E+05-7.93125E-09-9.41327E-10
 -1       587-1.33468E+03 1.16603E+05 7.73263E+02-2.75744E+05-7.12498E-09-1.79652E-08
 -1       588 4.01557E+02 1.16410E+05 4.75948E+03-2.50408E+05-4.44743E-09-1.80189E-08
 -1       589 5.08747E+03 1.18882E+05 1.23424E+04-2.75512E+05-8.58017E-09-3.22252E-08
 -1       590 1.66093E+04 1.15076E+05 2.58900E+04-2.50839E+05-7.42693E-09-1.85482E-08
 -1       591-7.50040E+04-1.59794E+04-2.25248E+04-3.19716E+04-2.67232E-09-4.99040E-09
 -1       592-7.90900E+04-1.95388E+04-1.22012E+04-3.55989E+04-5.03803E-09-9.98716E-09
 -1       593-7.72568E+04-1.43450E+04-5.07877E+03-3.36232E+04 1.14137E-09-5.57975E-10
 -1       594-7.59800E+04-1.62336E+04-2.53291E+03-3.57167E+04-3.51827E-09 9.71022E-09
 -1       595-7.74285E+04-1.43396E+04-1.16286E+03-3.36982E+04-2.14923E-09 3.08866E-08
 -1       596-7.57670E+04-1.60825E+04-5.90932E+02-3.56914E+04 1.11802E-09 8.36337E-09
 -1       597-7.74501E+04-1.43550E+04-3.21333E+02-3.37010E+04 4.01900E-09 1.31911E-08
 -1       598-7.57461E+04-1.60765E+04-2.57493E+02-3.56843E+04 4.30373E-09 1.05231E-08
 -1       599-7.74488E+04-1.43555E+04-3.27895E+02-3.37007E+04 1.32604E-09-9.97443E-09
 -1       600-7.57671E+04-1.60830E+04-6.08304E+02-3.56893E+04 2.80852E-09 3.30283E-09
 -1       601-7.74241E+04-1.43410E+04-1.19963E+03-3.36972E+04 4.01178E-09-7.09747E-09
 -1       602-7.59867E+04-1.62378E+04-2.61424E+03-3.57115E+04-9.23046E-09-7.93284E-09
 -1       603-7.72442E+04-1.43494E+04-5.24252E+03-3.36206E+04-2.31989E-09 1.65483E-09
 -1       604-7.92146E+04-1.96299E+04-1.25937E+04-3.55651E+04 2.30182E-09-1.41299E-08
 -1       605-7.48989E+04-1.60543E+04-2.32496E+04-3.19353E+04 8.68073E-09 5.28507E-09
 -1       606 2.66954E+04-1.43226E+04-2.56756E+04 2.39900E+04 7.90897E-09 1.85150E-09
 -1       607 2.23083E+04-4.67763E+03-1.27864E+04 2.69596E+04 4.18004E-09 4.71800E-10
 -1       608 2.48086E+04-8.43749E+02-5.72403E+03 2.38212E+04-3.08501E-09-3.05772E-09
 -1       609 2.43293E+04-2.88956E+02-2.89163E+03 2.71736E+04 2.30284E-09 2.13140E-09
 -1       610 2.45951E+04-4.08378E+01-1.37963E+03 2.38011E+04 3.41242E-09-3.06704E-09
 -1       611 2.45199E+04-4.10795E+01-6.95598E+02 2.71967E+04 6.67478E-09-6.83326E-09
 -1       612 2.45480E+04-2.71306E+01-3.30672E+02 2.37991E+04 8.38554E-10 5.21982E-09
 -1       613 2.45314E+04-3.69864E+01-1.48152E+02 2.71994E+04 3.04772E-09 2.13572E-09
 -1       614 2.45259E+04-3.35435E+01-3.46684E+01 2.37984E+04 2.05000E-09-8.65657E-09
 -1       615 2.45262E+04-3.54947E+01 6.22710E+01 2.71999E+04 3.88309E-09-5.54087E-09
 -1       616 2.45085E+04-3.04185E+01 1.86567E+02 2.37986E+04 5.61204E-09 4.26030E-09
 -1       617 2.45486E+04 4.26267E+00 4.25597E+02 2.71994E+04 5.33419E-09-1.26547E-08
 -1       618 2.44715E+04 9.22727E+01 8.57837E+02 2.37989E+04 4.72482E-09 5.88284E-09
 -1       619 2.48514E+04 6.67542E+02 1.92632E+03 2.71988E+04 1.35606E-08-6.20889E-09
 -1       620 2.41866E+04 2.12643E+03 3.87185E+03 2.38005E+04 1.06978E-08-8.38145E-09
 -1       621 5.10970E+02 3.01363E+05 3.88728E+03 4.09840E+04 1.06775E-09 7.70979E-09
 -1       622 6.76770E+02 3.02261E+05 3.44865E+03 5.95000E+04 1.19098E-09 1.10504E-08
 -1       623 1.42365E+02 3.01558E+05 4.14256E+03 4.07986E+04 1.23941E-09-1.43355E-08
 -1       624 2.12554E+03 3.03478E+05 8.02951E+03 5.96825E+04 1.28205E-09-2.97096E-08
 -1       625 2.07687E+03 2.99966E+05 1.40306E+04 4.07954E+04 1.49521E-09-1.40358E-08
 -1       626 2.60747E+05 6.13890E+04 5.11623E+03 1.26688E+05-1.20144E-09-1.04046E-08
 -1       627 2.58429E+05 6.27867E+04 2.46547E+03 1.30960E+05-8.14907E-10-1.69712E-09
 -1       628 2.60875E+05 5.90479E+04 1.04271E+03 1.27558E+05-7.82074E-09 1.74737E-09
 -1       629 2.57795E+05 6.21073E+04 5.10358E+02 1.31200E+05-4.02406E-09-1.50812E-08
 -1       630 2.60890E+05 5.89348E+04 2.36845E+02 1.27594E+05-6.39511E-09-5.27217E-09
 -1       631 2.57728E+05 6.20815E+04 1.27591E+02 1.31202E+05 2.06137E-09 1.55221E-08
 -1       632 2.60886E+05 5.89388E+04 8.42007E+01 1.27590E+05 7.26413E-09-1.58925E-08
 -1       633 2.57719E+05 6.20833E+04 9.41701E+01 1.31198E+05 1.71167E-09 1.33878E-09
 -1       634 2.60882E+05 5.89359E+04 1.52510E+02 1.27590E+05-7.30751E-09-1.06349E-08
 -1       635 2.57734E+05 6.20816E+04 3.08804E+02 1.31204E+05-1.42023E-09 5.58020E-09
 -1       636 2.60872E+05 5.89301E+04 6.23735E+02 1.27589E+05-2.64276E-09 2.73349E-09
 -1       637 2.57869E+05 6.21786E+04 1.37150E+03 1.31203E+05 2.02135E-10-6.25414E-09
 -1       638 2.60824E+05 5.92331E+04 2.81794E+03 1.27453E+05 2.32194E-09 4.18913E-09
 -1       639 2.59349E+05 6.42373E+04 6.66739E+03 1.30767E+05 5.29781E-09 2.69936E-08
 -1       640 2.60619E+05 6.53807E+04 1.38360E+04 1.24862E+05 5.33646E-09 7.17296E-09
 -1       656 6.65548E+04-1.70328E+06-1.60659E+05-2.54939E+03-4.72937E-10-1.99597E-08
 -1       657-8.80462E+04-1.77588E+06-1.33097E+05 5.17299E+03-1.92813E-09-1.42867E-08
 -1       658 2.12153E+04-1.72390E+06-8.19708E+04-4.63221E+03-7.33962E-10-9.92240E-09
 -1       659-9.52086E+04-1.77928E+06-1.42509E+05 6.90296E+03-2.66118E-09-3.96794E-09
 -1       660 7.37012E+04-1.69989E+06-1.76842E+05-4.27935E+03-1.92085E-09 3.55172E-09
 -1       661 1.58597E+05 1.65971E+04 1.67174E+04 6.19994E+04-7.97627E-10 7.43057E-10
 -1       662 1.68048E+05 2.89778E+04 1.12663E+04 5.82493E+04 2.08104E-09-2.01046E-08
 -1       663 1.61881E+05 2.19603E+04 3.94025E+03 6.10464E+04-5.14888E-10-1.74339E-08
 -1       664 1.64241E+05 2.27059E+04 2.35709E+03 5.94134E+04-1.39067E-09-1.69041E-08
 -1       665 1.62379E+05 2.26928E+04 9.29856E+02 6.09010E+04 7.12816E-10 2.40138E-09
 -1       666 1.63651E+05 2.18683E+04 5.44294E+02 5.96031E+04 7.60519E-09 1.42657E-08
 -1       667 1.62466E+05 2.27761E+04 2.89293E+02 6.08645E+04 2.76148E-09 6.29147E-09
 -1       668 1.63555E+05 2.18085E+04 2.95209E+02 5.96561E+04-7.80815E-09 1.11693E-08
 -1       669 1.62474E+05 2.27509E+04 4.00030E+02 6.08483E+04-7.90493E-10 2.10455E-08
 -1       670 1.63652E+05 2.20258E+04 8.71408E+02 5.96590E+04-1.37697E-08-2.14527E-10
 -1       671 1.62369E+05 2.25633E+04 1.54736E+03 6.08596E+04 2.83070E-09-6.67933E-09
 -1       672 1.64554E+05 2.35312E+04 3.95898E+03 5.94405E+04 5.62891E-09 7.74526E-09
 -1       673 1.61577E+05 2.12836E+04 6.63466E+03 6.10522E+04 3.89832E-09-1.07643E-08
 -1       674 1.70868E+05 3.41905E+04 1.89737E+04 5.75854E+04-2.63515E-09-1.99370E-08
 -1       675 1.56095E+05 1.22025E+04 2.81637E+04 6.26027E+04-1.49475E-09-9.40236E-09
 -1       676 2.41072E+01-2.95829E+05-1.11332E+03-1.36753E+02 5.46606E-10-1.23125E-08
 -1       677-2.94509E+02-2.96099E+05-2.03756E+03 2.73286E+02 6.73867E-09 3.48764E-09
 -1       678 1.97524E+02-2.95637E+05-3.60190E+03-1.36444E+02 1.22509E-09-3.18669E-09
 -1       679-3.60197E+03-2.98273E+05-8.55662E+03 2.72106E+02 9.89348E-09-9.04980E-09
 -1       680 2.15058E+03-2.93656E+05-1.37904E+04-1.34066E+02 2.59297E-09 2.27060E-08
 -1       771-3.06230E+06-7.46187E+05-1.64514E+05-1.46516E+06-3.20142E-08-2.99187E-08
 -1       772-2.98527E+06-8.34737E+05-8.48081E+04-1.56753E+06-2.36323E-08 1.02518E-08
 -1       773-3.09359E+06-7.21777E+05-4.32523E+04-1.47955E+06-1.15251E-08 6.19912E-09
 -1       774-2.97583E+06-8.16406E+05-1.92925E+04-1.59318E+06 2.50293E-08-1.76078E-09
 -1       775-3.10995E+06-7.10295E+05-1.44434E+04-1.48655E+06-1.20199E-08 3.35422E-09
 -1       776-2.98810E+06-8.13404E+05-5.39904E+03-1.61258E+06-9.76434E-09 2.89947E-09
 -1       777-3.12414E+06-7.00047E+05-6.38572E+03-1.49273E+06 4.48199E-09 3.74712E-09
 -1       778-3.00091E+06-8.10609E+05-1.80446E+03-1.62924E+06 1.39698E-08 7.00311E-09
 -1       779-3.13635E+06-6.91094E+05-3.19226E+03-1.49801E+06-3.11411E-09 1.63709E-10
 -1       780-3.01218E+06-8.07941E+05-5.28920E+02-1.64282E+06-3.51429E-09-1.33150E-09
 -1       781-3.14605E+06-6.83877E+05-1.24008E+03-1.50214E+06-2.98023E-08-4.70391E-09
 -1       782-3.02087E+06-8.05675E+05 4.47846E+02-1.65284E+06-4.05416E-08-1.09071E-08
 -1       783-3.15288E+06-6.78862E+05 6.97257E+02-1.50503E+06-1.06156E-08-2.00102E-08
 -1       784-3.02569E+06-8.03408E+05 2.88814E+03-1.65902E+06-2.04200E-08 1.34332E-09
 -1       785-3.15692E+06-6.75871E+05 5.09866E+03-1.50686E+06-3.44444E-08 1.27056E-08
 -1       786 1.24072E+05-9.78110E+03 2.26295E+04-3.22213E+02 5.47794E-09-6.22003E-09
 -1       787 1.33886E+05 1.13243E+04 1.60094E+04-1.35927E+02 7.90060E-09 1.93825E-08
 -1       788 1.27856E+05-1.53272E+03 5.85476E+03-2.87126E+02 3.75449E-09 9.04606E-09
 -1       789 1.29478E+05 1.77409E+03 3.67543E+03-1.89686E+02-9.35508E-10 3.96341E-09
 -1       790 1.28481E+05-2.38644E+02 1.48817E+03-2.68471E+02-4.08380E-09 1.18982E-08
 -1       791 1.28747E+05 2.76127E+02 8.59628E+02-2.21606E+02-5.85202E-09 1.31928E-08
 -1       792 1.28587E+05-3.58807E+01 3.64471E+02-2.55208E+02-5.52356E-09 4.32240E-09
 -1       793 1.28621E+05 3.80066E+01 1.82125E+02-2.46562E+02-8.18536E-10-3.00316E-08
 -1       794 1.28607E+05-6.74655E-01 4.81901E+01-2.43515E+02 4.46805E-09-2.47519E-08
 -1       795 1.28584E+05-2.67804E+01-5.56160E+01-2.70974E+02-6.82451E-09 1.28521E-08
 -1       796 1.28623E+05 2.88701E+01-1.59107E+02-2.30796E+02 2.84793E-09 2.40343E-08
 -1       797 1.28491E+05-2.15589E+02-4.37826E+02-3.00199E+02 3.02796E-09 7.79431E-09
 -1       798 1.28700E+05 1.87992E+02-7.11319E+02-2.14290E+02 2.57200E-09 1.76891E-08
 -1       799 1.27951E+05-1.38563E+03-1.95718E+03-3.41079E+02 5.38964E-09 1.54034E-08
 -1       800 1.29163E+05 1.19796E+03-2.76989E+03-1.89918E+02 1.03995E-09 1.07054E-08
 -1       801-1.69294E+05-9.96252E+06-1.38752E+06 1.40664E+06 9.31614E-08-5.31036E-08
 -1       802 7.32657E+05 5.89344E+06 2.16747E+06-1.73538E+06 2.58588E-07-2.71093E-08
 -1       803-5.33358E+05-1.42019E+07-1.87935E+06 8.92853E+05 7.66304E-08 1.62036E-08
 -1       804 2.85029E+05 2.35633E+06 1.52722E+06 6.74249E+05-1.19529E-07-9.00818E-08
 -1       805 1.88604E+05-6.43959E+06-2.84608E+05-9.97348E+05-4.93965E-08-6.99119E-08
 -1       806-3.08690E+05-5.97380E+04-2.28381E+04-1.22352E+05-4.72528E-09 1.40567E-08
 -1       807-3.10483E+05-5.60137E+04-1.12201E+04-1.27898E+05 5.83236E-09 5.45626E-09
 -1       808-3.09317E+05-5.15072E+04-4.75993E+03-1.26242E+05-1.27716E-08-6.00733E-09
 -1       809-3.08124E+05-5.28612E+04-2.32748E+03-1.28173E+05-2.41271E-08 3.92106E-10
 -1       810-3.09412E+05-5.12207E+04-1.06682E+03-1.26415E+05 9.31323E-10 1.41636E-08
 -1       811-3.07942E+05-5.27346E+04-5.30547E+02-1.28138E+05 1.70330E-08-5.21777E-09
 -1       812-3.09426E+05-5.12454E+04-2.68405E+02-1.26414E+05 7.34235E-09 2.53426E-08
 -1       813-3.07916E+05-5.27368E+04-1.74571E+02-1.28119E+05-6.12272E-09-6.27369E-09
 -1       814-3.09419E+05-5.12551E+04-1.73217E+02-1.26410E+05-1.21508E-09 5.12819E-09
 -1       815-3.07920E+05-5.27390E+04-2.79278E+02-1.28111E+05-1.07912E-09 2.41221E-09
 -1       816-3.09398E+05-5.12542E+04-5.29450E+02-1.26406E+05 6.97582E-09 2.56346E-08
 -1       817-3.08010E+05-5.27895E+04-1.13631E+03-1.28100E+05-1.26420E-08-2.78305E-10
 -1       818-3.09329E+05-5.14147E+04-2.31771E+03-1.26330E+05-3.36877E-09-1.41208E-08
 -1       819-3.09278E+05-5.41897E+04-5.45340E+03-1.27799E+05-4.29964E-09-6.33804E-09
 -1       820-3.08892E+05-5.55344E+04-1.10997E+04-1.24571E+05-5.29963E-09-4.70277E-09
 -1       821-3.78906E+05 2.08656E+04-4.85698E+04 2.12190E+03 1.39246E-08 1.95978E-08
 -1       822-3.98614E+05-2.41715E+04-3.41350E+04-4.45008E+03 4.80559E-09 6.95991E-09
 -1       823-3.86372E+05 3.28909E+03-1.25453E+04 3.42831E+03-1.21749E-08-2.20380E-08
 -1       824-3.89602E+05-3.79299E+03-7.85274E+03-5.35878E+03 1.61351E-09-5.06134E-10
 -1       825-3.87924E+05 5.11165E+02-3.28821E+03 3.03072E+03 2.16431E-08 1.17910E-08
 -1       826-3.87174E+05-5.67370E+02-1.74459E+03-3.09001E+03 2.89583E-08 5.08936E-09
 -1       827-3.88775E+05 4.70044E+01-1.18902E+03 1.15939E+03 1.37597E-08 6.36024E-09
 -1       828-3.86471E+05-1.32215E+02-5.87362E+02 1.09354E+03-7.42332E-10 2.76226E-08
 -1       829-3.88614E+05 6.60054E+01-1.17800E+03-1.15286E+03 4.78082E-10 9.77087E-09
 -1       830-3.87523E+05-6.21927E+02-1.88249E+03 4.87299E+03-1.34261E-09-3.31107E-09
 -1       831-3.87746E+05 5.54266E+02-3.37000E+03-2.62008E+03-3.25113E-09-1.70369E-08
 -1       832-3.89682E+05-3.95940E+03-8.15515E+03 6.15046E+03-4.43209E-09 7.10179E-09
 -1       833-3.86471E+05 3.41297E+03-1.30486E+04-2.43037E+03-2.06698E-09 2.34932E-08
 -1       834-3.98675E+05-2.50841E+04-3.53568E+04 4.18281E+03-3.44764E-09 2.69465E-08
 -1       835-3.78737E+05 2.16461E+04-5.04380E+04-6.52350E+02 4.80085E-09-2.76850E-09
 -1       836-1.41351E+03 3.70104E+05 2.29015E+04-1.61780E+04-7.14226E-09 1.41886E-08
 -1       837 4.88208E+03 3.77277E+05 1.93751E+04-3.30577E+04-7.63021E-09 1.00592E-08
 -1       838-5.57735E+02 3.72116E+05 1.97354E+04-1.61064E+04-6.20184E-09-4.11660E-09
 -1       839 1.24181E+04 3.82889E+05 3.73281E+04-3.31102E+04-6.70752E-09-2.33499E-08
 -1       840-3.83926E+03 3.64432E+05 5.95223E+04-1.61314E+04-6.11544E-09-5.96249E-09
 -1       856-5.22645E+04 8.02475E+03-2.11470E+04-3.97645E+02 4.01894E-09 4.12092E-09
 -1       857-6.09766E+04-9.42877E+03-1.45574E+04 5.63209E+03 1.41796E-09 1.64839E-08
 -1       858-5.57147E+04 1.12539E+03-5.48713E+03-4.21743E+02 2.61781E-09-9.97034E-10
 -1       859-5.70172E+04-1.32393E+03-3.31123E+03 5.66795E+03-2.18961E-10-2.03369E-09
 -1       860-5.62301E+04 1.57605E+02-1.38773E+03-4.33232E+02 1.31058E-09-1.49024E-08
 -1       861-5.64243E+04-1.88100E+02-7.63409E+02 5.68359E+03-2.00544E-10-1.07933E-08
 -1       862-5.63108E+04 2.13478E+01-3.17318E+02-4.37370E+02-2.14043E-09-6.12403E-09
 -1       863-5.63254E+04-2.18036E+01-1.15542E+02 5.68600E+03-6.58544E-09 1.32466E-09
 -1       864-5.63295E+04-4.90801E+00 4.73095E+01-4.35633E+02-1.19887E-09-3.86554E-09
 -1       865-5.62696E+04 5.97197E+01 2.55487E+02 5.67608E+03-2.69858E-09-2.08750E-08
 -1       866-5.63644E+04-6.01932E+01 5.14826E+02-4.27457E+02-9.03185E-10-4.03983E-09
 -1       867-5.60275E+04 4.97076E+02 1.26716E+03 5.65388E+03 8.78345E-10 6.19747E-09
 -1       868-5.65667E+04-4.34368E+02 2.10564E+03-4.13434E+02 1.75515E-09-1.17138E-08
 -1       869-5.44838E+04 3.61507E+03 5.60659E+03 5.61736E+03 1.94413E-09-1.85846E-08
 -1       870-5.79003E+04-3.09350E+03 8.13642E+03-3.90825E+02-2.91550E-09-1.26702E-08
 -1       871-5.51780E+03-2.13219E+04-1.94827E+04 1.30363E+05-4.71300E-09-6.49379E-09
 -1       872-1.98344E+03-2.58516E+04-8.15774E+03 1.69036E+05-9.81163E-09-1.89993E-09
 -1       873 4.03476E+02-2.36610E+04 5.89926E+02 1.30077E+05-5.07316E-09 1.37873E-08
 -1       874 3.30291E+03-2.12505E+04 9.77624E+03 1.69065E+05-1.16834E-08 1.45906E-08
 -1       875 6.84259E+03-2.59899E+04 2.20542E+04 1.30316E+05-4.99494E-09-6.85577E-09
 -1       876 2.93656E+05 4.94935E+04 1.50948E+04 1.17845E+05 4.38274E-09 1.26647E-08
 -1       877 2.94653E+05 5.26727E+04 8.06120E+03 1.22175E+05 7.46604E-09 1.88426E-08
 -1       878 2.95067E+05 4.78214E+04 3.37724E+03 1.19082E+05-1.05738E-08-4.51450E-09
 -1       879 2.92602E+05 5.06250E+04 1.68275E+03 1.22278E+05-3.23507E-09-1.05615E-10
 -1       880 2.95168E+05 4.78041E+04 7.83807E+02 1.19132E+05 4.65207E-10 1.36107E-08
 -1       881 2.92465E+05 5.05374E+04 4.18587E+02 1.22254E+05-8.86985E-09 2.39678E-08
 -1       882 2.95178E+05 4.78174E+04 2.67822E+02 1.19134E+05-4.56566E-10-1.90142E-09
 -1       883 2.92456E+05 5.05328E+04 2.87980E+02 1.22246E+05-7.75628E-10 5.71680E-09
 -1       884 2.95171E+05 4.78146E+04 4.58160E+02 1.19134E+05-9.38655E-09-1.57883E-09
 -1       885 2.92492E+05 5.05392E+04 9.21187E+02 1.22257E+05-1.84182E-08 3.08160E-09
 -1       886 2.95135E+05 4.77877E+04 1.85663E+03 1.19130E+05-6.69363E-10 1.01500E-09
 -1       887 2.92818E+05 5.07531E+04 4.05555E+03 1.22305E+05 5.70185E-09 8.78083E-09
 -1       888 2.94879E+05 4.78329E+04 8.17205E+03 1.19001E+05 1.82641E-09 1.81758E-08
 -1       889 2.97683E+05 5.58126E+04 1.95215E+04 1.22155E+05-5.96434E-09 2.13422E-08
 -1       890 2.91543E+05 5.17950E+04 3.65633E+04 1.15891E+05-6.66205E-09 9.58062E-09
 -1       891-8.95978E+01-1.62714E+05-1.99586E+03 2.71460E+04-1.66619E-09 2.26687E-08
 -1       892-1.75720E+02-1.63241E+05-2.14350E+03 4.12223E+04 6.80757E-10 2.80063E-08
 -1       893 4.34243E+01-1.62778E+05-3.03485E+03 2.71534E+04-7.84894E-10 1.24201E-08
 -1       894-1.50992E+03-1.64388E+05-6.28093E+03 4.10698E+04 4.77121E-09 1.67784E-08
 -1       895-1.19909E+03-1.61470E+05-1.10606E+04 2.73003E+04 1.11868E-10 9.49603E-09
 -1       956-3.77065E+05-5.44764E+03-1.34491E+04 3.08406E+04 6.34918E-09-2.09229E-09
 -1       957-3.79704E+05-1.92129E+03-6.90320E+03 3.70626E+04-2.53431E-09 1.42118E-08
 -1       958-3.78273E+05-2.40312E+02-3.11080E+03 3.06729E+04 2.32376E-09 7.13680E-09
 -1       959-3.78470E+05-1.35567E+02-1.58843E+03 3.72581E+04 1.18266E-08 2.26019E-08
 -1       960-3.78391E+05-4.42599E+01-7.74592E+02 3.06556E+04 1.22718E-08 7.60861E-09
 -1       961-3.78389E+05-6.25583E+01-4.10678E+02 3.72785E+04 2.33085E-08 8.72615E-09
 -1       962-3.78419E+05-4.54875E+01-2.35121E+02 3.06527E+04 8.98945E-09 2.78078E-10
 -1       963-3.78390E+05-5.83682E+01-1.88740E+02 3.72822E+04 6.46253E-09 1.24624E-09
 -1       964-3.78424E+05-4.21326E+01-2.29519E+02 3.06520E+04 7.55279E-10 8.57403E-09
 -1       965-3.78402E+05-5.54052E+01-3.96970E+02 3.72815E+04-2.68551E-09-9.20568E-09
 -1       966-3.78408E+05-3.42898E+01-7.45894E+02 3.06535E+04 3.86763E-09-3.44426E-09
 -1       967-3.78492E+05-1.18918E+02-1.52981E+03 3.72671E+04-6.42103E-09 1.00883E-08
 -1       968-3.78304E+05-2.16706E+02-2.99482E+03 3.06661E+04-3.76986E-10-1.35585E-08
 -1       969-3.79692E+05-1.83313E+03-6.64842E+03 3.71188E+04 1.78898E-09-3.79896E-09
 -1       970-3.77148E+05-5.22787E+03-1.29515E+04 3.07933E+04-7.18501E-10 8.54197E-09
 -1       971-3.45265E+05-1.72690E+03-9.30803E+03 1.53739E+04 9.78253E-09-7.21616E-09
 -1       972-3.47506E+05-1.27121E+03-5.06905E+03 2.12630E+04 9.08358E-09-3.28473E-08
 -1       973-3.46302E+05-6.18005E+01-2.27048E+03 1.52528E+04 7.10770E-09-1.40617E-08
 -1       974-3.46437E+05-8.07538E+01-1.17694E+03 2.14001E+04-2.82921E-09-5.51472E-09
 -1       975-3.46384E+05-1.69350E+01-5.88773E+02 1.52405E+04-3.14139E-09-9.05402E-10
 -1       976-3.46376E+05-3.09203E+01-3.40519E+02 2.14159E+04 3.69437E-09-2.10275E-08
 -1       977-3.46400E+05-1.61898E+01-2.48646E+02 1.52371E+04-1.54705E-09-1.42471E-08
 -1       978-3.46381E+05-2.46969E+01-2.93016E+02 2.14207E+04-1.48793E-09-1.29760E-08
 -1       979-3.46400E+05-7.71449E+00-4.72545E+02 1.52356E+04 2.02306E-10 8.61860E-10
 -1       980-3.46417E+05-2.16364E+01-9.13529E+02 2.14217E+04-7.07728E-09 4.53474E-09
 -1       981-3.46371E+05 1.51196E+01-1.76987E+03 1.52361E+04 7.77959E-10 1.35486E-08
 -1       982-3.46659E+05-1.52411E+02-3.65861E+03 2.14151E+04 2.27340E-09-2.49770E-08
 -1       983-3.46148E+05-9.82099E+01-7.10888E+03 1.52422E+04-4.85761E-09 5.24506E-09
 -1       984-3.50079E+05-3.86517E+03-1.59201E+04 2.13295E+04-1.18962E-09-1.25760E-09
 -1       985-3.42930E+05-5.30004E+03-2.92343E+04 1.53136E+04-5.88125E-09-9.16043E-09
 -3
    1PSTEP                        43          22           1          
  100CL  122 6.62843E-01         409                     0   22           1
 -4  DISP        4    1
 -5  D1          1    2    1    0
 -5  D2          1    2    2    0
 -5  D3          1    2    3    0
 -5  ALL         1    2    0    0    1ALL
 -1         1 2.68613E-03 0.00000E+00 0.00000E+00
 -1         2 1.40007E-03-1.20373E-27 0.00000E+00
 -1         3 3.38644E-04-5.43693E-28 1.32349E-23
 -1         5 1.77007E-04-4.38873E-27 2.48154E-24
 -1         8 2.67454E-03-4.19764E-07 0.00000E+00
 -1         9 2.66772E-03-1.69488E-04 0.00000E+00
 -1        10 3.08724E-04-3.42388E-06 0.00000E+00
 -1        12 1.78847E-04 8.09107E-07 8.27181E-25
 -1        15 2.66116E-03-4.45860E-07 0.00000E+00
 -1        16 2.72586E-03-1.71192E-04 0.00000E+00
 -1        17 2.11326E-04-7.94683E-06 0.00000E+00
 -1        18 1.82774E-04 3.43226E-05 0.00000E+00
 -1        19 1.84366E-04 1.61181E-06 0.00000E+00
 -1        20 1.84506E-04-9.79380E-06 0.00000E+00
 -1        21 1.83614E-04-2.52339E-05-3.30872E-24
 -1        24 3.06694E-05-1.21759E-05 0.00000E+00
 -1        25 1.93520E-04 3.45484E-05 0.00000E+00
 -1        26 1.94202E-04 2.23197E-06 0.00000E+00
 -1        27 1.92002E-04-1.33514E-05 0.00000E+00
 -1        28 1.91686E-04-2.58558E-05 0.00000E+00
 -1        32 0.00000E+00 0.00000E+00 0.00000E+00
 -1        33 2.03033E-04 2.98576E-06 0.00000E+00
 -1        34 2.00916E-04-1.34075E-05 0.00000E+00
 -1        35 1.98984E-04-2.61982E-05 0.00000E+00
 -1        51 2.68535E-03-8.69084E-08 0.00000E+00
 -1        52 2.68394E-03-1.55717E-07-3.30872E-24
 -1        53 2.68201E-03-2.21180E-07 0.00000E+00
 -1        54 2.67971E-03-2.85530E-07 1.65436E-24
 -1        55 2.67717E-03-3.50518E-07-8.27181E-25
 -1        56 2.67944E-03 6.05819E-06 5.29396E-23
 -1        57 2.66726E-03 2.57563E-05 5.29396E-23
 -1        58 2.65137E-03 5.46998E-05 0.00000E+00
 -1        59 2.63383E-03 8.75928E-05-5.29396E-23
 -1        60 2.61712E-03 1.18469E-04 0.00000E+00
 -1        61 2.60357E-03 1.41525E-04 0.00000E+00
 -1        62 2.59485E-03 1.52354E-04 0.00000E+00
 -1        63 2.59204E-03 1.47636E-04-5.29396E-23
 -1        64 2.59504E-03 1.26880E-04-1.05879E-22
 -1        65 2.60325E-03 9.10888E-05 0.00000E+00
 -1        66 2.61520E-03 4.40715E-05-1.05879E-22
 -1        67 2.62921E-03-9.28569E-06 5.29396E-23
 -1        68 2.64329E-03-6.28924E-05 1.05879E-22
 -1        69 2.65551E-03-1.10627E-04-5.29396E-23
 -1        70 2.66411E-03-1.47492E-04 0.00000E+00
 -1        86 1.47972E-03-5.47018E-06 0.00000E+00
 -1        87 1.71077E-03-3.38906E-05 0.00000E+00
 -1        88 2.02136E-03-8.25567E-05 0.00000E+00
 -1        89 2.33582E-03-1.32458E-04-1.32349E-23
 -1        90 2.57627E-03-1.62984E-04-5.29396E-23
 -1       121 3.37804E-04-5.54940E-07 0.00000E+00
 -1       122 3.35286E-04-1.11260E-06 6.61744E-24
 -1       123 3.31101E-04-1.67565E-06 1.32349E-23
 -1       124 3.25263E-04-2.24682E-06-6.61744E-24
 -1       125 3.17794E-04-2.82834E-06 0.00000E+00
 -1       191 1.77058E-04 1.34914E-07 8.27181E-25
 -1       192 1.77211E-04 2.69817E-07-8.27181E-25
 -1       193 1.77467E-04 4.04701E-07 2.48154E-24
 -1       194 1.77825E-04 5.39552E-07 8.27181E-25
 -1       195 1.78284E-04 6.74358E-07 2.48154E-24
 -1       251 2.67421E-03 2.04851E-06 6.61744E-24
 -1       252 2.67388E-03 4.89809E-06 3.30872E-24
 -1       253 2.67354E-03 7.05010E-06 0.00000E+00
 -1       254 2.67321E-03 7.43498E-06 0.00000E+00
 -1       255 2.67288E-03 5.27364E-06 0.00000E+00
 -1       256 2.67253E-03-1.78312E-07 6.61744E-24
 -1       257 2.67216E-03-9.12493E-06 1.32349E-23
 -1       258 2.67175E-03-2.17226E-05 0.00000E+00
 -1       259 2.67130E-03-3.75287E-05 0.00000E+00
 -1       260 2.67080E-03-5.60566E-05 0.00000E+00
 -1       261 2.67027E-03-7.63726E-05 0.00000E+00
 -1       262 2.66972E-03-9.75192E-05 0.00000E+00
 -1       263 2.66918E-03-1.18402E-04 0.00000E+00
 -1       264 2.66865E-03-1.37931E-04 0.00000E+00
 -1       265 2.66817E-03-1.55239E-04 0.00000E+00
 -1       266 2.67231E-03-4.29999E-07 0.00000E+00
 -1       267 2.67008E-03-4.33631E-07 0.00000E+00
 -1       268 2.66785E-03-4.37681E-07 8.27181E-25
 -1       269 2.66562E-03-4.40492E-07 0.00000E+00
 -1       270 2.66339E-03-4.43275E-07 2.06795E-25
 -1       271 2.67354E-03 3.70572E-07 0.00000E+00
 -1       272 2.67340E-03-1.17375E-06 0.00000E+00
 -1       273 2.67408E-03-4.92317E-06 0.00000E+00
 -1       274 2.67552E-03-1.07379E-05-1.32349E-23
 -1       275 2.67767E-03-1.84585E-05 0.00000E+00
 -1       276 2.68044E-03-2.79110E-05 0.00000E+00
 -1       277 2.68378E-03-3.89066E-05 0.00000E+00
 -1       278 2.68760E-03-5.12436E-05 0.00000E+00
 -1       279 2.69183E-03-6.47094E-05 0.00000E+00
 -1       280 2.69639E-03-7.90818E-05 1.32349E-23
 -1       281 2.70119E-03-9.41306E-05 0.00000E+00
 -1       282 2.70615E-03-1.09621E-04 0.00000E+00
 -1       283 2.71118E-03-1.25313E-04 1.32349E-23
 -1       284 2.71620E-03-1.40966E-04 6.61744E-24
 -1       285 2.72112E-03-1.56339E-04 0.00000E+00
 -1       301 2.67829E-03-1.69803E-04 0.00000E+00
 -1       302 2.68729E-03-1.70076E-04 3.30872E-24
 -1       303 2.69564E-03-1.70339E-04-2.64698E-23
 -1       304 2.70424E-03-1.70604E-04 0.00000E+00
 -1       305 2.71401E-03-1.70881E-04 0.00000E+00
 -1       306 2.70524E-03-3.22268E-04-1.05879E-22
 -1       307 2.76918E-03-7.33926E-04 0.00000E+00
 -1       308 2.81631E-03-1.33689E-03 0.00000E+00
 -1       309 2.84063E-03-2.03577E-03 5.29396E-23
 -1       310 2.87209E-03-2.70527E-03 0.00000E+00
 -1       311 2.93148E-03-3.22271E-03-5.29396E-23
 -1       312 2.98963E-03-3.50750E-03-1.05879E-22
 -1       313 2.98634E-03-3.52125E-03 0.00000E+00
 -1       314 2.84823E-03-3.27547E-03 0.00000E+00
 -1       315 2.53429E-03-2.83385E-03-5.29396E-23
 -1       316 2.06227E-03-2.27270E-03 0.00000E+00
 -1       317 1.49727E-03-1.66137E-03 0.00000E+00
 -1       318 9.52804E-04-1.06080E-03 0.00000E+00
 -1       319 5.36315E-04-5.36097E-04 0.00000E+00
 -1       320 2.91584E-04-1.61088E-04 1.05879E-22
 -1       336 2.97742E-04-4.10665E-06-1.32349E-23
 -1       337 2.84556E-04-4.81610E-06 6.61744E-24
 -1       338 2.69233E-04-5.55429E-06 1.32349E-23
 -1       339 2.51857E-04-6.32232E-06 6.61744E-24
 -1       340 2.32520E-04-7.12510E-06-1.32349E-23
 -1       406 1.79511E-04 9.43779E-07-2.48154E-24
 -1       407 1.80278E-04 1.07834E-06-1.24077E-24
 -1       408 1.81147E-04 1.21273E-06-1.65436E-24
 -1       409 1.82118E-04 1.34679E-06-1.65436E-24
 -1       410 1.83192E-04 1.48023E-06-2.06795E-24
 -1       521 2.76401E-03-3.33238E-04 1.05879E-22
 -1       522 2.82623E-03-7.64859E-04 0.00000E+00
 -1       523 2.86709E-03-1.39513E-03 1.05879E-22
 -1       524 2.88242E-03-2.12201E-03 5.29396E-23
 -1       525 2.90616E-03-2.81752E-03 0.00000E+00
 -1       526 2.96205E-03-3.35655E-03 0.00000E+00
 -1       527 3.01975E-03-3.65179E-03 0.00000E+00
 -1       528 3.01425E-03-3.66392E-03 0.00000E+00
 -1       529 2.86453E-03-3.40436E-03 0.00000E+00
 -1       530 2.52733E-03-2.94456E-03 0.00000E+00
 -1       531 2.02119E-03-2.36452E-03 0.00000E+00
 -1       532 1.41746E-03-1.73620E-03 0.00000E+00
 -1       533 8.34866E-04-1.11801E-03 0.00000E+00
 -1       534 3.85825E-04-5.72788E-04 0.00000E+00
 -1       535 1.20293E-04-1.78569E-04 0.00000E+00
 -1       536 2.10571E-04 2.69683E-05 0.00000E+00
 -1       537 2.08653E-04 8.73981E-05 0.00000E+00
 -1       538 2.05690E-04 1.64078E-04 3.30872E-24
 -1       539 2.02195E-04 2.47659E-04 0.00000E+00
 -1       540 1.99049E-04 3.26639E-04 3.30872E-24
 -1       541 1.97004E-04 3.89541E-04 1.65436E-24
 -1       542 1.96061E-04 4.29610E-04 3.30872E-24
 -1       543 1.95835E-04 4.40241E-04 0.00000E+00
 -1       544 1.95513E-04 4.22209E-04 0.00000E+00
 -1       545 1.94341E-04 3.76507E-04 0.00000E+00
 -1       546 1.92158E-04 3.11259E-04 3.30872E-24
 -1       547 1.89201E-04 2.34713E-04 1.65436E-24
 -1       548 1.86271E-04 1.58542E-04 0.00000E+00
 -1       549 1.84158E-04 9.44207E-05 0.00000E+00
 -1       550 1.83060E-04 5.03797E-05 0.00000E+00
 -1       551 1.86137E-04-8.51768E-06 0.00000E+00
 -1       552 1.57712E-04-9.16860E-06 0.00000E+00
 -1       553 1.26993E-04-9.88147E-06 6.61744E-24
 -1       554 9.49407E-05-1.06352E-05-3.30872E-24
 -1       555 6.25145E-05-1.14023E-05 0.00000E+00
 -1       556 2.03680E-04 1.16028E-05 0.00000E+00
 -1       557 1.97502E-04 2.74596E-05 0.00000E+00
 -1       558 1.92658E-04 3.99113E-05 0.00000E+00
 -1       559 1.89015E-04 4.92680E-05 0.00000E+00
 -1       560 1.86443E-04 5.58403E-05 0.00000E+00
 -1       561 1.84814E-04 5.99413E-05 0.00000E+00
 -1       562 1.84003E-04 6.18853E-05 0.00000E+00
 -1       563 1.83887E-04 6.19877E-05 0.00000E+00
 -1       564 1.84342E-04 6.05647E-05 0.00000E+00
 -1       565 1.85249E-04 5.79330E-05 0.00000E+00
 -1       566 1.86488E-04 5.44101E-05 0.00000E+00
 -1       567 1.87940E-04 5.03137E-05 3.30872E-24
 -1       568 1.89488E-04 4.59618E-05-1.65436E-24
 -1       569 1.91012E-04 4.16724E-05 0.00000E+00
 -1       570 1.92394E-04 3.77635E-05 0.00000E+00
 -1       571 1.82870E-04 3.22005E-05 1.65436E-24
 -1       572 1.82969E-04 3.00126E-05-8.27181E-25
 -1       573 1.83068E-04 2.77746E-05 0.00000E+00
 -1       574 1.83167E-04 2.55030E-05 1.65436E-24
 -1       575 1.83267E-04 2.32142E-05 0.00000E+00
 -1       576 1.83366E-04 2.09245E-05 0.00000E+00
 -1       577 1.83466E-04 1.86505E-05-6.61744E-24
 -1       578 1.83565E-04 1.64088E-05-6.61744E-24
 -1       579 1.83665E-04 1.42158E-05 0.00000E+00
 -1       580 1.83765E-04 1.20881E-05 0.00000E+00
 -1       581 1.83864E-04 1.00421E-05-6.61744E-24
 -1       582 1.83965E-04 8.09435E-06 0.00000E+00
 -1       583 1.84065E-04 6.26135E-06 6.61744E-24
 -1       584 1.84165E-04 4.55939E-06 3.30872E-24
 -1       585 1.84266E-04 3.00461E-06 6.61744E-24
 -1       586 1.84524E-04 3.43624E-05 1.65436E-24
 -1       587 1.86233E-04 3.44016E-05 8.27181E-25
 -1       588 1.87944E-04 3.44404E-05 8.27181E-25
 -1       589 1.89700E-04 3.44786E-05 0.00000E+00
 -1       590 1.91545E-04 3.45154E-05 0.00000E+00
 -1       591 1.83501E-04 3.22941E-05 0.00000E+00
 -1       592 1.84231E-04 3.02456E-05 0.00000E+00
 -1       593 1.84966E-04 2.81830E-05-8.27181E-25
 -1       594 1.85705E-04 2.61110E-05 0.00000E+00
 -1       595 1.86445E-04 2.40345E-05-8.27181E-25
 -1       596 1.87184E-04 2.19580E-05 0.00000E+00
 -1       597 1.87922E-04 1.98863E-05 0.00000E+00
 -1       598 1.88657E-04 1.78241E-05 0.00000E+00
 -1       599 1.89386E-04 1.57761E-05 0.00000E+00
 -1       600 1.90108E-04 1.37469E-05 4.13590E-25
 -1       601 1.90821E-04 1.17412E-05 0.00000E+00
 -1       602 1.91524E-04 9.76384E-06 0.00000E+00
 -1       603 1.92215E-04 7.81937E-06 8.27181E-25
 -1       604 1.92892E-04 5.91262E-06-7.75482E-26
 -1       605 1.93554E-04 4.04821E-06 0.00000E+00
 -1       606 1.84380E-04 4.52251E-07 0.00000E+00
 -1       607 1.84389E-04-6.21466E-07 0.00000E+00
 -1       608 1.84398E-04-1.61438E-06 0.00000E+00
 -1       609 1.84406E-04-2.53216E-06 0.00000E+00
 -1       610 1.84415E-04-3.38056E-06 3.30872E-24
 -1       611 1.84423E-04-4.16537E-06 0.00000E+00
 -1       612 1.84431E-04-4.89238E-06 0.00000E+00
 -1       613 1.84440E-04-5.56742E-06 0.00000E+00
 -1       614 1.84448E-04-6.19629E-06 0.00000E+00
 -1       615 1.84457E-04-6.78480E-06 0.00000E+00
 -1       616 1.84465E-04-7.33877E-06 0.00000E+00
 -1       617 1.84473E-04-7.86400E-06 0.00000E+00
 -1       618 1.84482E-04-8.36631E-06 0.00000E+00
 -1       619 1.84490E-04-8.85150E-06 0.00000E+00
 -1       620 1.84498E-04-9.32540E-06 2.06795E-25
 -1       621 1.85720E-04 1.71574E-06 1.65436E-24
 -1       622 1.87233E-04 1.81991E-06 0.00000E+00
 -1       623 1.88871E-04 1.92387E-06 0.00000E+00
 -1       624 1.90600E-04 2.02750E-06 0.00000E+00
 -1       625 1.92389E-04 2.13084E-06 3.30872E-24
 -1       626 1.84913E-04 4.88352E-07 0.00000E+00
 -1       627 1.85437E-04-5.72049E-07 6.61744E-24
 -1       628 1.85941E-04-1.57724E-06 0.00000E+00
 -1       629 1.86427E-04-2.53539E-06 1.65436E-24
 -1       630 1.86899E-04-3.45470E-06 0.00000E+00
 -1       631 1.87359E-04-4.34336E-06-1.65436E-24
 -1       632 1.87811E-04-5.20959E-06 3.30872E-24
 -1       633 1.88258E-04-6.06160E-06 1.65436E-24
 -1       634 1.88702E-04-6.90760E-06-3.30872E-24
 -1       635 1.89147E-04-7.75580E-06 0.00000E+00
 -1       636 1.89596E-04-8.61441E-06 0.00000E+00
 -1       637 1.90052E-04-9.49165E-06 0.00000E+00
 -1       638 1.90518E-04-1.03957E-05 3.30872E-24
 -1       639 1.90997E-04-1.13349E-05-8.27181E-25
 -1       640 1.91491E-04-1.23173E-05-3.30872E-24
 -1       656 1.85207E-04-1.03720E-05 0.00000E+00
 -1       657 1.86328E-04-1.09738E-05 6.61744E-24
 -1       658 1.87729E-04-1.15741E-05 0.00000E+00
 -1       659 1.89265E-04-1.21741E-05 0.00000E+00
 -1       660 1.90750E-04-1.27759E-05 6.61744E-24
 -1       661 1.84768E-04-1.03073E-05 0.00000E+00
 -1       662 1.85068E-04-1.09126E-05-8.27181E-25
 -1       663 1.85401E-04-1.16045E-05 1.65436E-24
 -1       664 1.85764E-04-1.23765E-05-8.27181E-25
 -1       665 1.86154E-04-1.32228E-05 1.65436E-24
 -1       666 1.86571E-04-1.41375E-05 8.27181E-25
 -1       667 1.87010E-04-1.51148E-05 0.00000E+00
 -1       668 1.87471E-04-1.61493E-05-8.27181E-25
 -1       669 1.87952E-04-1.72355E-05 0.00000E+00
 -1       670 1.88450E-04-1.83682E-05 0.00000E+00
 -1       671 1.88963E-04-1.95420E-05-1.65436E-24
 -1       672 1.89489E-04-2.07520E-05 0.00000E+00
 -1       673 1.90027E-04-2.19930E-05-1.65436E-24
 -1       674 1.90575E-04-2.32605E-05-4.13590E-25
 -1       675 1.91130E-04-2.45491E-05 0.00000E+00
 -1       676 1.84964E-04-2.53382E-05-3.30872E-24
 -1       677 1.86313E-04-2.54424E-05 0.00000E+00
 -1       678 1.87661E-04-2.55465E-05-3.30872E-24
 -1       679 1.89006E-04-2.56504E-05 0.00000E+00
 -1       680 1.90348E-04-2.57542E-05 0.00000E+00
 -1       771 1.87376E-05 1.45030E-05-5.29396E-23
 -1       772 8.69795E-06 3.64169E-05 0.00000E+00
 -1       773 4.60025E-07 5.37956E-05 0.00000E+00
 -1       774-6.10021E-06 6.68963E-05 2.64698E-23
 -1       775-1.11041E-05 7.59869E-05 0.00000E+00
 -1       776-1.46779E-05 8.13518E-05 0.00000E+00
 -1       777-1.69475E-05 8.32856E-05-5.29396E-23
 -1       778-1.80417E-05 8.20966E-05 0.00000E+00
 -1       779-1.80884E-05 7.81016E-05 0.00000E+00
 -1       780-1.72175E-05 7.16290E-05 0.00000E+00
 -1       781-1.55583E-05 6.30137E-05-5.29396E-23
 -1       782-1.32412E-05 5.25995E-05 0.00000E+00
 -1       783-1.03960E-05 4.07350E-05-5.29396E-23
 -1       784-7.15383E-06 2.77747E-05-2.64698E-23
 -1       785-3.64456E-06 1.40763E-05 0.00000E+00
 -1       786 1.93559E-04 3.23015E-05-1.29247E-26
 -1       787 1.93601E-04 3.01045E-05 4.13590E-25
 -1       788 1.93642E-04 2.79491E-05 0.00000E+00
 -1       789 1.93685E-04 2.58273E-05 0.00000E+00
 -1       790 1.93728E-04 2.37341E-05 0.00000E+00
 -1       791 1.93770E-04 2.16650E-05-8.27181E-25
 -1       792 1.93813E-04 1.96177E-05 1.65436E-24
 -1       793 1.93856E-04 1.75901E-05 0.00000E+00
 -1       794 1.93899E-04 1.55819E-05 1.65436E-24
 -1       795 1.93942E-04 1.35931E-05 0.00000E+00
 -1       796 1.93985E-04 1.16255E-05 0.00000E+00
 -1       797 1.94028E-04 9.68086E-06 0.00000E+00
 -1       798 1.94072E-04 7.76360E-06 1.65436E-24
 -1       799 1.94115E-04 5.87800E-06 0.00000E+00
 -1       800 1.94158E-04 4.03157E-06-1.65436E-24
 -1       801 1.47806E-04 3.10572E-05 0.00000E+00
 -1       802 9.58475E-06 1.93780E-05-2.64698E-23
 -1       803-1.08497E-04 9.78884E-06 5.29396E-23
 -1       804-9.62042E-05 6.81233E-06 0.00000E+00
 -1       805-3.17784E-05 2.67847E-06 0.00000E+00
 -1       806 1.94248E-04 3.22327E-05 0.00000E+00
 -1       807 1.94961E-04 2.99431E-05 0.00000E+00
 -1       808 1.95662E-04 2.76848E-05-3.30872E-24
 -1       809 1.96349E-04 2.54619E-05 0.00000E+00
 -1       810 1.97022E-04 2.32784E-05 0.00000E+00
 -1       811 1.97678E-04 2.11383E-05 0.00000E+00
 -1       812 1.98317E-04 1.90455E-05 3.30872E-24
 -1       813 1.98937E-04 1.70040E-05 0.00000E+00
 -1       814 1.99535E-04 1.50176E-05 3.30872E-24
 -1       815 2.00112E-04 1.30903E-05-8.27181E-25
 -1       816 2.00666E-04 1.12261E-05 1.65436E-24
 -1       817 2.01194E-04 9.42872E-06 8.27181E-25
 -1       818 2.01697E-04 7.70213E-06-1.65436E-24
 -1       819 2.02171E-04 6.05023E-06 8.27181E-25
 -1       820 2.02617E-04 4.47684E-06 3.30872E-24
 -1       821 1.94073E-04-1.23132E-07 0.00000E+00
 -1       822 1.93933E-04-3.63063E-06 1.65436E-24
 -1       823 1.93791E-04-7.86298E-06-3.30872E-24
 -1       824 1.93646E-04-1.23881E-05 1.65436E-24
 -1       825 1.93501E-04-1.66949E-05 0.00000E+00
 -1       826 1.93360E-04-2.02733E-05-1.65436E-24
 -1       827 1.93221E-04-2.28118E-05 0.00000E+00
 -1       828 1.93085E-04-2.40051E-05 0.00000E+00
 -1       829 1.92949E-04-2.39142E-05 3.30872E-24
 -1       830 1.92812E-04-2.26079E-05-1.65436E-24
 -1       831 1.92675E-04-2.04856E-05-3.30872E-24
 -1       832 1.92536E-04-1.79521E-05 1.65436E-24
 -1       833 1.92398E-04-1.55240E-05 0.00000E+00
 -1       834 1.92263E-04-1.37173E-05 0.00000E+00
 -1       835 1.92129E-04-1.28793E-05-8.27181E-25
 -1       836 1.95887E-04 2.35697E-06 0.00000E+00
 -1       837 1.97444E-04 2.48512E-06 0.00000E+00
 -1       838 1.98905E-04 2.61320E-06-3.30872E-24
 -1       839 2.00303E-04 2.74058E-06-8.27181E-25
 -1       840 2.01668E-04 2.86781E-06 0.00000E+00
 -1       856 1.91986E-04-1.44079E-05 8.27181E-25
 -1       857 1.91967E-04-1.53287E-05 0.00000E+00
 -1       858 1.91948E-04-1.61349E-05 0.00000E+00
 -1       859 1.91928E-04-1.68476E-05 2.06795E-25
 -1       860 1.91908E-04-1.74880E-05 0.00000E+00
 -1       861 1.91888E-04-1.80775E-05-2.06795E-25
 -1       862 1.91869E-04-1.86373E-05 0.00000E+00
 -1       863 1.91849E-04-1.91888E-05 0.00000E+00
 -1       864 1.91829E-04-1.97533E-05 8.27181E-25
 -1       865 1.91809E-04-2.03522E-05 0.00000E+00
 -1       866 1.91789E-04-2.10067E-05 8.27181E-25
 -1       867 1.91769E-04-2.17381E-05 0.00000E+00
 -1       868 1.91749E-04-2.25676E-05-8.27181E-25
 -1       869 1.91729E-04-2.35164E-05 0.00000E+00
 -1       870 1.91708E-04-2.46055E-05 0.00000E+00
 -1       871 1.93347E-04-1.33563E-05-8.27181E-25
 -1       872 1.94838E-04-1.33646E-05 0.00000E+00
 -1       873 1.96409E-04-1.33737E-05 4.13590E-25
 -1       874 1.97991E-04-1.33834E-05 3.36042E-25
 -1       875 1.99516E-04-1.33937E-05 1.24077E-24
 -1       876 1.92526E-04-1.43934E-05-3.30872E-24
 -1       877 1.93027E-04-1.53685E-05 0.00000E+00
 -1       878 1.93506E-04-1.62848E-05 0.00000E+00
 -1       879 1.93967E-04-1.71497E-05 0.00000E+00
 -1       880 1.94411E-04-1.79705E-05 3.30872E-24
 -1       881 1.94841E-04-1.87547E-05 0.00000E+00
 -1       882 1.95260E-04-1.95095E-05 0.00000E+00
 -1       883 1.95672E-04-2.02424E-05 0.00000E+00
 -1       884 1.96077E-04-2.09607E-05 0.00000E+00
 -1       885 1.96480E-04-2.16716E-05 0.00000E+00
 -1       886 1.96883E-04-2.23826E-05 0.00000E+00
 -1       887 1.97289E-04-2.31010E-05 0.00000E+00
 -1       888 1.97700E-04-2.38342E-05-3.30872E-24
 -1       889 1.98118E-04-2.45895E-05-1.65436E-24
 -1       890 1.98547E-04-2.53744E-05 0.00000E+00
 -1       891 1.93045E-04-2.59134E-05 0.00000E+00
 -1       892 1.94380E-04-2.59710E-05 0.00000E+00
 -1       893 1.95666E-04-2.60286E-05-1.65436E-24
 -1       894 1.96879E-04-2.60859E-05 4.13590E-25
 -1       895 1.97993E-04-2.61430E-05-4.13590E-25
 -1       956 2.02903E-04 1.66932E-06-1.65436E-24
 -1       957 2.02771E-04 4.44419E-07 8.27181E-25
 -1       958 2.02638E-04-6.99669E-07 0.00000E+00
 -1       959 2.02505E-04-1.77428E-06 1.65436E-24
 -1       960 2.02372E-04-2.79081E-06 0.00000E+00
 -1       961 2.02240E-04-3.76066E-06 1.65436E-24
 -1       962 2.02107E-04-4.69526E-06 3.30872E-24
 -1       963 2.01974E-04-5.60606E-06 0.00000E+00
 -1       964 2.01841E-04-6.50450E-06 3.30872E-24
 -1       965 2.01709E-04-7.40201E-06 0.00000E+00
 -1       966 2.01576E-04-8.31006E-06 0.00000E+00
 -1       967 2.01443E-04-9.24007E-06-1.65436E-24
 -1       968 2.01311E-04-1.02035E-05 0.00000E+00
 -1       969 2.01178E-04-1.12117E-05-3.30872E-24
 -1       970 2.01046E-04-1.22761E-05 0.00000E+00
 -1       971 2.00796E-04-1.45386E-05-3.30872E-24
 -1       972 2.00675E-04-1.55750E-05-1.65436E-24
 -1       973 2.00553E-04-1.65274E-05 0.00000E+00
 -1       974 2.00432E-04-1.74064E-05 0.00000E+00
 -1       975 2.00310E-04-1.82230E-05-3.30872E-24
 -1       976 2.00189E-04-1.89880E-05 0.00000E+00
 -1       977 2.00068E-04-1.97123E-05 0.00000E+00
 -1       978 1.99946E-04-2.04068E-05 1.65436E-24
 -1       979 1.99825E-04-2.10824E-05-3.30872E-24
 -1       980 1.99704E-04-2.17500E-05-1.65436E-24
 -1       981 1.99582E-04-2.24206E-05 0.00000E+00
 -1       982 1.99461E-04-2.31049E-05 1.65436E-24
 -1       983 1.99340E-04-2.38140E-05 3.30872E-24
 -1       984 1.99220E-04-2.45587E-05-1.65436E-24
 -1       985 1.99099E-04-2.53499E-05 3.30872E-24
 -3
    1PSTEP                        44          22           1          
  100CL  122 6.62843E-01         409                     0   22           1
 -4  STRESS      6    1
 -5  SXX         1    4    1    1
 -5  SYY         1    4    2    2
 -5  SZZ         1    4    3    3
 -5  SXY         1    4    1    2
 -5  SYZ         1    4    2    3
 -5  SZX         1    4    3    1
 -1         1-5.28256E+06-1.66269E+06-1.12898E+06-1.45548E+06-4.65661E-10-1.19471E-07
 -1         2 1.26422E+06 1.86210E+07 4.42185E+06 5.59282E+06 2.44763E-08 2.61556E-07
 -1         3-1.28891E+03-1.57693E+06 6.02735E+02-2.09383E+03-2.37584E-10 1.62727E-08
 -1         5-7.47171E+01 3.86338E+05 9.98243E+00-1.33705E+00-5.25187E-10 3.63489E-08
 -1         8-5.98189E+05-2.10918E+05-6.87562E+04-2.54877E+05 1.53705E-10-7.09915E-08
 -1         9 1.14802E+07 3.24426E+06 2.62981E+06-4.67890E+05 5.16884E-09 4.09549E-08
 -1        10-3.61546E+03-1.67990E+06-5.12057E+03-1.54485E+04-5.76802E-09-2.98718E-08
 -1        12-7.07970E+01 3.86359E+05 3.28111E+02-9.11544E+00-6.92296E-10 3.63507E-08
 -1        15 9.75290E+02 5.35970E+02 3.15260E+03 9.40184E-01-5.19549E-11 4.98491E-07
 -1        16 2.26629E+07-2.98513E+05 3.09493E+06-2.17340E+06 7.48939E-09 1.49788E-07
 -1        17 8.27816E+06 6.18661E+06 2.23516E+06 5.94156E+06 4.91273E-08 2.93716E-08
 -1        18 1.42281E+05 3.34961E+04 4.15476E+03-1.19499E+05 1.47156E-08 1.34478E-08
 -1        19 1.22382E+05 1.41654E+05-9.42642E+02 2.19610E+04 1.51504E-09-3.19124E-09
 -1        20-8.19044E+04-5.73537E+05-1.28695E+05 2.51253E+04-2.66361E-09 6.87275E-09
 -1        21-4.55795E+01-2.95958E+05-9.23841E+02 2.74057E+02 1.48616E-08 7.83117E-09
 -1        24 1.38182E+07 1.19098E+07 3.83134E+06 1.10319E+07-1.65872E-07-5.40749E-08
 -1        25 1.24173E+05 2.64201E+05 9.92139E+04-6.43886E+05-1.92704E-09 4.74847E-09
 -1        26-5.53578E+04 9.22887E+04-2.46198E+04 1.27476E+03-2.88492E-10 5.10544E-09
 -1        27-7.55821E+04-3.09868E+05-1.13281E+05 6.89544E+04 4.88626E-09-4.84761E-10
 -1        28 2.22383E+04-8.53287E+04 1.68946E+04 2.06141E+04-4.11706E-09-2.05549E-09
 -1        32-1.67999E+06-3.17724E+06-1.96860E+05 4.54268E+05-4.22297E-08-1.69996E-08
 -1        33-1.78412E+05 9.29893E+04 3.23818E+04-3.85042E+04-2.84354E-09 2.58639E-08
 -1        34-2.23545E+05-2.50234E+04 6.89463E+02 7.56340E+04-6.70576E-09 8.67233E-09
 -1        35-2.29271E+04-3.38393E+04-1.34813E+03 5.14877E+04-2.88217E-09-5.40967E-09
 -1        51 5.97044E+04-1.77760E+05 1.26501E+05-4.62722E+05-1.89175E-10-1.13017E-07
 -1        52 2.03284E+04-1.55815E+05 6.65427E+04-5.39634E+05-2.54659E-11 1.44573E-07
 -1        53 4.28638E+03-1.71218E+05 3.49221E+04-4.61114E+05 4.03816E-10-2.44821E-07
 -1        54 7.82648E+03-1.67035E+05 2.92371E+04-5.41226E+05-1.60071E-10-2.22079E-07
 -1        55 1.70002E+04-1.74343E+05 3.61994E+04-4.60996E+05 4.29281E-10 1.05254E-07
 -1        56-9.65546E+06-1.26666E+06-8.75330E+05-3.96093E+06 1.02154E-08-1.21741E-07
 -1        57-1.07657E+07-1.06134E+06-5.53972E+05-2.91258E+06 9.13860E-09-2.04411E-07
 -1        58-9.58820E+06-1.68095E+06-1.97819E+05-4.08761E+06-1.14451E-08 8.92760E-08
 -1        59-1.07947E+07-6.02061E+05-1.11874E+05-2.86498E+06 2.54149E-08-1.90339E-08
 -1        60-9.66512E+06-1.68819E+06-5.24735E+04-4.04430E+06-2.25591E-08 3.91810E-08
 -1        61-1.03534E+07-8.35891E+05-2.64772E+03-3.08497E+06-1.11286E-08 1.87456E-07
 -1        62-9.95291E+06-1.49822E+06-4.76241E+04-3.80880E+06-1.80808E-08-4.44779E-08
 -1        63-9.73557E+06-1.34907E+06 2.52421E+04-3.61822E+06-2.88892E-08-2.24063E-08
 -1        64-1.02257E+07-1.21543E+06-4.35623E+04-3.47375E+06 2.02635E-08-1.15371E-07
 -1        65-9.41179E+06-1.80250E+06-3.61633E+03-4.25485E+06-4.12256E-08-5.76415E-08
 -1        66-1.03461E+07-9.96677E+05-4.43827E+04-3.22394E+06-3.34694E-10-1.16741E-07
 -1        67-9.37832E+06-2.01378E+06-1.00936E+05-4.54909E+06-3.26254E-08-1.25388E-07
 -1        68-1.03274E+07-9.57340E+05-1.81475E+05-3.22338E+06-4.96448E-08 1.86890E-07
 -1        69-9.60068E+06-2.14248E+06-4.95624E+05-4.22156E+06-6.75304E-08-2.20462E-09
 -1        70-1.00637E+07-9.20858E+05-7.98222E+05-3.50840E+06 9.85892E-10-7.68923E-08
 -1        86-1.28872E+06-1.39633E+07-2.41735E+06-2.63693E+06-2.50700E-07-4.23315E-08
 -1        87 1.98899E+06 5.15535E+06 2.01163E+06 5.04613E+06-4.35415E-07-1.13501E-07
 -1        88-3.55797E+05-2.13637E+06 1.85197E+05-2.34472E+06-3.99390E-07-1.21936E-08
 -1        89 2.66790E+06 4.92040E+06 2.05762E+06 5.20191E+06-5.59106E-07 9.09858E-09
 -1        90-1.89370E+06-1.37900E+07-2.61843E+06-2.81376E+06-1.30942E-07 8.10396E-08
 -1       121-1.79502E+03-1.58127E+06-1.83798E+02 1.03899E+03 1.32385E-09 1.73786E-08
 -1       122-1.04925E+03-1.57693E+06 1.22133E+03-4.18886E+03-5.19529E-09 2.12531E-08
 -1       123-1.86925E+03-1.58145E+06 1.18582E+03 3.10278E+03 3.99473E-09-1.45992E-08
 -1       124 1.32992E+03-1.57594E+06 4.88629E+03-8.75869E+03-9.75388E-09-1.21727E-08
 -1       125-3.19604E+03-1.58277E+06 6.69021E+03 5.57380E+03 6.03723E-09-9.82254E-11
 -1       191-7.87404E+01 3.86356E+05 8.51577E+00 6.96965E-01-5.86096E-10 2.06401E-08
 -1       192-7.56805E+01 3.86338E+05 2.13009E+01-4.28837E+00-7.67658E-10 2.35295E-08
 -1       193-8.12765E+01 3.86355E+05 3.62912E+01 3.76555E+00-1.06927E-09 6.24641E-09
 -1       194-7.87693E+01 3.86341E+05 8.09733E+01-9.73137E+00-5.01881E-10-1.85210E-08
 -1       195-8.61443E+01 3.86353E+05 1.55052E+02 6.33138E+00-1.51676E-09-8.73115E-10
 -1       251-9.41877E+05 1.82424E+04-4.27365E+04-1.56726E+04-4.37166E-09-7.40401E-08
 -1       252-9.59011E+05-2.10563E+04-2.98880E+04 5.35875E+04 2.03147E-08 1.22400E-07
 -1       253-9.50384E+05 2.84241E+03-1.13090E+04-1.28396E+04-1.09658E-08-3.44244E-07
 -1       254-9.45121E+05-3.32855E+03-5.57404E+03 4.04155E+04 1.17730E-08-4.39877E-08
 -1       255-9.55198E+05 1.46473E+02-3.77761E+03-2.50204E+03-2.92744E-09 6.46279E-08
 -1       256-9.38563E+05-3.45136E+02 9.30993E+02 1.58667E+04 4.78508E-10 4.02747E-07
 -1       257-9.56406E+05-5.39755E+02-1.55023E+03 1.16992E+04 2.56796E-09-4.72727E-09
 -1       258-9.40579E+05 8.21797E+02 2.68269E+03-1.13196E+04-1.69648E-08 3.59163E-08
 -1       259-9.53358E+05-8.82682E+02 1.14917E+03 2.46798E+04 2.97905E-09 2.97382E-08
 -1       260-9.47184E+05 2.76191E+03 5.30588E+03-3.14676E+04-3.51116E-09 1.07086E-07
 -1       261-9.50457E+05-1.97262E+03 8.09316E+03 3.18616E+04 2.01140E-08 2.18066E-07
 -1       262-9.46385E+05 1.10742E+04 2.01579E+04-3.75265E+04-2.84120E-08-1.99418E-07
 -1       263-9.54434E+05-8.94786E+03 3.18877E+04 3.07481E+04 1.27177E-08-1.31477E-08
 -1       264-9.17238E+05 6.28322E+04 8.84763E+04-2.73011E+04 2.77585E-08 1.18321E-07
 -1       265-9.79082E+05-5.38974E+04 1.22898E+05 2.16241E+04 1.38264E-08 1.12894E-07
 -1       266-1.76562E+04-8.25682E+03 4.14228E+04-2.01156E+01 7.27596E-12 1.57551E-09
 -1       267 2.04682E+04 9.62230E+03 2.92789E+04 2.32112E+01 3.14685E-10 2.99407E-07
 -1       268-2.74475E+03-1.36285E+03 1.08827E+04-2.95741E+00 2.91038E-11-6.56222E-08
 -1       269 3.24073E+03 1.63097E+03 7.07370E+03 3.44504E+00-8.19682E-11-1.06450E-07
 -1       270-4.86437E+02-2.67983E+02 3.41457E+03-4.67512E-01 1.55183E-10 2.03543E-07
 -1       271-1.55889E+06-1.96458E+05-1.16952E+05-6.05146E+05 2.86564E-08-9.11314E-08
 -1       272-1.56766E+06-3.05825E+05-7.39530E+04-6.33526E+05 3.62488E-08-4.57329E-07
 -1       273-1.58320E+06-2.22176E+05-2.81726E+04-5.97189E+05-1.80517E-08 9.88985E-08
 -1       274-1.53933E+06-2.75043E+05-1.49474E+04-6.47962E+05 6.30953E-08 2.97087E-07
 -1       275-1.58872E+06-2.22282E+05-6.91342E+03-5.93579E+05-9.11314E-09 1.44064E-07
 -1       276-1.53318E+06-2.75588E+05-3.08211E+03-6.55824E+05 2.54850E-08 3.83355E-07
 -1       277-1.59142E+06-2.19931E+05-1.88983E+03-5.90955E+05 6.21549E-09 2.60486E-07
 -1       278-1.53062E+06-2.78725E+05-8.22738E+02-6.61640E+05 8.38190E-09 8.34143E-09
 -1       279-1.59316E+06-2.17927E+05-9.53615E+02-5.89075E+05-8.64438E-08-2.72107E-08
 -1       280-1.52933E+06-2.81208E+05-1.20906E+03-6.65569E+05 4.09209E-08-9.36834E-08
 -1       281-1.59410E+06-2.16576E+05-2.22721E+03-5.87969E+05-2.23936E-08 1.72423E-07
 -1       282-1.52969E+06-2.83780E+05-5.19821E+03-6.67314E+05 1.60305E-08 4.92823E-07
 -1       283-1.59354E+06-2.15033E+05-9.24506E+03-5.87770E+05 2.00213E-08-2.34587E-07
 -1       284-1.53785E+06-2.96194E+05-2.52009E+04-6.65172E+05 2.12306E-08-1.41179E-07
 -1       285-1.58606E+06-2.05462E+05-3.92519E+04-5.89623E+05 8.47990E-09 1.83234E-07
 -1       301-2.25459E+03-6.32579E+05 1.67812E+05-1.10610E+06-2.18279E-10 2.35450E-08
 -1       302-2.88834E+03-5.86900E+05 1.01032E+05-1.61511E+06 4.96220E-09 5.00515E-07
 -1       303-1.79095E+04-6.23781E+05 5.75091E+04-1.10314E+06 7.34872E-09 2.55464E-07
 -1       304-1.88436E+04-5.92872E+05 5.86251E+04-1.61442E+06 1.04774E-08-3.52404E-07
 -1       305-2.16826E+04-6.13078E+05 7.30534E+04-1.10624E+06 1.70821E-08-1.25016E-07
 -1       306-3.00408E+07-6.20330E+06-8.57802E+06-5.78159E+05-1.10595E-07-4.41796E-08
 -1       307 2.53745E+07 3.19733E+06 5.50504E+06-1.50689E+07-8.59087E-07-1.83703E-07
 -1       308-7.05568E+06-1.03134E+06-4.74717E+05 5.19058E+06-2.53058E-07 2.87895E-07
 -1       309-3.32351E+06 8.68102E+06 2.26236E+06-2.05883E+07 1.28461E-07 2.03985E-07
 -1       310-1.24270E+07-1.90670E+06-1.98707E+06 5.19590E+06-5.33182E-08-2.62153E-07
 -1       311 3.79012E+07 2.77000E+04 7.20015E+06-8.91953E+06 3.90370E-07-2.79979E-07
 -1       312-3.17585E+07-6.68845E+06-8.46517E+06-4.92205E+06 3.56231E-08 9.38016E-08
 -1       313 4.53143E+07 1.47016E+07 1.06030E+07 2.34936E+07-2.80095E-07 2.73867E-08
 -1       314-1.72983E+07-1.76019E+07-7.49224E+06-1.24947E+07 5.08677E-07 2.29338E-08
 -1       315-1.68085E+06 2.94978E+07 5.65496E+06 1.06684E+07-7.39994E-07-1.93249E-08
 -1       316 1.32989E+06-9.84309E+06-4.56719E+05-2.60416E+06-1.22888E-06-1.29658E-07
 -1       317-1.71516E+07 2.23312E+07 2.21919E+06-8.66810E+06 9.44900E-07-9.16407E-07
 -1       318-1.06204E+06-1.26596E+07-2.00354E+06-4.24581E+06-8.99629E-07 1.24332E-07
 -1       319 7.06522E+06 3.16456E+07 6.96770E+06 1.64590E+07-1.36577E-07 2.51166E-07
 -1       320-2.24741E+07-1.75035E+07-9.77818E+06-1.27351E+07 1.81142E-07-3.78932E-08
 -1       336 1.66865E+02-1.78543E+06-1.81851E+04 9.71745E+03-9.08949E-09 2.41635E-08
 -1       337-7.12539E+03-1.78599E+06-2.15678E+04-2.38375E+04-7.12134E-09-1.02846E-08
 -1       338 6.57306E+02-1.78531E+06-3.13487E+04 1.38664E+04-1.26138E-08-1.49157E-10
 -1       339-3.35422E+04-1.80419E+06-6.97444E+04-3.19525E+04-9.23319E-09 1.99070E-08
 -1       340 2.29142E+04-1.76963E+06-1.08629E+05 1.77055E+04-1.32168E-08 2.43199E-08
 -1       406-4.90661E+01 3.86338E+05 6.44271E+02 3.33124E+00-1.91156E-09 5.05497E-09
 -1       407 1.55449E+02 3.86473E+05 1.37678E+03 2.33214E+01-5.62196E-10 4.62842E-09
 -1       408 6.35590E+02 3.86238E+05 2.74523E+03-2.69769E+01-2.60638E-09 2.07365E-09
 -1       409 2.90783E+03 3.87349E+05 6.18745E+03 2.87955E+02-3.92674E-10-1.75205E-08
 -1       410 8.48133E+03 3.85448E+05 1.26284E+04-2.77682E+02-2.95404E-09-1.37788E-08
 -1       521-3.15518E+07-7.64291E+06-1.00052E+07-1.90337E+05-6.58911E-08-6.88015E-08
 -1       522 2.61936E+07 4.18756E+06 5.60176E+06-1.85373E+07-6.23084E-07-1.47033E-07
 -1       523-7.63900E+06-1.33967E+06-4.67105E+05 5.63221E+06-3.40515E-08-1.41154E-07
 -1       524-6.81185E+06 1.16884E+07 2.44271E+06-2.36190E+07 9.32996E-07-5.47254E-07
 -1       525-1.32279E+07-2.52590E+06-2.18104E+06 5.63783E+06 4.95522E-07-2.88768E-07
 -1       526 4.12886E+07-5.59537E+04 7.54730E+06-1.15555E+07-5.51809E-08-2.93629E-07
 -1       527-3.35636E+07-8.36344E+06-9.74205E+06-4.78056E+06 5.62286E-08 8.23929E-08
 -1       528 4.94164E+07 1.63320E+07 1.10440E+07 2.66653E+07 8.78936E-08 1.76020E-07
 -1       529-1.82330E+07-1.97688E+07-8.57680E+06-1.25213E+07 1.39698E-07 9.01055E-08
 -1       530-4.15400E+06 3.42079E+07 5.97458E+06 1.01655E+07-6.20348E-08 7.49365E-07
 -1       531 1.32002E+06-1.09123E+07-4.31297E+05-2.56856E+06-7.36531E-07 5.13450E-07
 -1       532-1.97017E+07 2.43362E+07 2.42074E+06-1.28901E+07 2.48343E-07-7.66202E-07
 -1       533-1.10923E+06-1.37938E+07-2.12796E+06-4.07176E+06-3.50992E-07-1.01962E-06
 -1       534 5.04181E+06 3.66614E+07 7.24052E+06 1.70048E+07 3.17814E-08 6.79924E-07
 -1       535-2.36298E+07-1.98509E+07-1.11924E+07-1.27937E+07 1.42725E-07 4.51517E-07
 -1       536-7.06391E+05-4.72639E+04-4.69933E+04-5.46872E+04-2.34195E-09 3.74876E-08
 -1       537-5.46064E+04 4.52858E+04 8.47710E+04 1.23851E+05-1.15431E-07 9.69376E-08
 -1       538-3.94493E+05 3.26226E+03 3.85507E+03-7.22075E+04 2.56275E-08 9.00516E-08
 -1       539-2.69046E+05 2.94673E+03 2.51077E+04 1.38746E+05 1.42136E-07 1.03738E-07
 -1       540-4.97333E+05-4.37696E+02-2.12377E+04-7.01174E+04 1.16720E-08 1.25688E-07
 -1       541 1.46612E+05 1.69852E+04 1.06425E+05 9.79446E+04-4.58454E-08 7.62158E-08
 -1       542-7.98950E+05-2.01380E+04-8.42183E+04-3.05306E+04 6.15996E-08 3.23118E-08
 -1       543 4.05368E+05 2.73300E+04 1.57991E+05-1.33496E+04-1.28421E-08-3.11697E-08
 -1       544-7.49149E+05-1.65394E+04-7.48392E+04 4.05073E+04-5.09772E-10-4.20228E-08
 -1       545 2.89982E+04 9.48445E+03 7.98234E+04-1.13628E+05-1.95878E-08-8.31840E-08
 -1       546-4.32688E+05 6.09648E+03-1.22308E+04 6.94009E+04 1.79989E-08-9.26906E-08
 -1       547-2.87144E+05-4.65817E+03 1.05896E+04-1.41598E+05-8.62458E-08-1.05373E-07
 -1       548-4.41506E+05 4.72122E+03-2.38788E+04 6.91682E+04-1.01550E-07-9.71195E-08
 -1       549 4.81431E+04 1.60773E+04 6.05256E+04-1.11493E+05-6.61780E-08-5.76920E-08
 -1       550-7.59004E+05-2.21470E+04-1.28965E+05 3.85809E+04 7.80983E-09-3.02698E-08
 -1       551 4.10016E+04-7.56597E+05-1.50143E+04-1.24720E+06-1.02693E-07-2.97732E-08
 -1       552 9.33642E+04-8.01350E+05 1.04411E+04-1.77843E+06-7.25122E-08 3.14249E-08
 -1       553 7.17403E+04-7.97758E+05 3.23901E+04-1.24057E+06-1.18627E-07 3.00497E-08
 -1       554 1.32014E+05-8.17037E+05 8.14773E+04-1.78037E+06-7.66158E-08 1.31822E-08
 -1       555 1.01462E+05-8.21309E+05 1.48652E+05-1.24042E+06-1.24317E-07-1.12232E-08
 -1       556 2.23419E+05-3.83135E+05 2.70543E+04-4.07121E+05-2.35741E-08-3.31493E-08
 -1       557 3.54148E+05-4.87480E+05 1.68200E+04-5.27294E+05-1.11468E-08-2.61934E-08
 -1       558 2.05297E+05-3.76178E+05 2.61264E+03-4.11391E+05-2.40107E-08-2.20462E-08
 -1       559 3.29007E+05-4.87725E+05 2.58098E+03-5.47719E+05 4.77303E-09-5.03496E-09
 -1       560 1.90019E+05-3.66596E+05-1.43787E+03-4.22400E+05-1.48430E-09-8.44011E-10
 -1       561 3.09789E+05-4.80044E+05 1.61571E+02-5.60818E+05-6.21367E-09 1.44792E-08
 -1       562 1.77934E+05-3.59086E+05-1.31073E+03-4.31153E+05-3.36149E-09-7.23958E-10
 -1       563 2.95431E+05-4.73785E+05-2.98959E+01-5.70196E+05 5.67525E-09-2.60206E-09
 -1       564 1.69307E+05-3.53711E+05-5.97205E+02-4.37266E+05 1.71713E-09 1.60726E-08
 -1       565 2.85907E+05-4.69637E+05 2.52134E+01-5.76281E+05 5.31145E-09 9.98853E-09
 -1       566 1.64264E+05-3.50520E+05-2.59577E+02-4.40794E+05-1.55705E-09-6.37738E-09
 -1       567 2.81277E+05-4.67623E+05-3.62505E+02-5.79093E+05 1.19653E-08-1.45119E-08
 -1       568 1.62893E+05-3.49681E+05-1.12566E+03-4.41848E+05 3.05590E-10-1.24674E-08
 -1       569 2.80152E+05-4.67549E+05-2.84321E+03-5.77667E+05-3.32511E-09 1.56142E-08
 -1       570 1.66289E+05-3.52912E+05-6.21483E+03-4.40830E+05 4.55475E-09-1.55023E-08
 -1       571 2.90445E+05 1.05048E+04 1.49865E+04-9.52073E+04 8.03266E-09 2.13722E-08
 -1       572 2.92617E+05 3.95938E+03 7.34460E+03-1.04452E+05 3.89809E-09-2.46746E-09
 -1       573 2.91308E+05 1.24546E+03 3.26345E+03-9.50308E+04 4.31191E-09-6.50016E-09
 -1       574 2.91522E+05 7.27076E+02 1.63659E+03-1.04677E+05 2.00180E-09 4.87489E-10
 -1       575 2.91401E+05 4.47951E+02 7.72427E+02-9.50066E+04-6.46385E-09 1.41563E-08
 -1       576 2.91386E+05 4.59293E+02 3.95481E+02-1.04706E+05-1.38052E-08 6.24550E-09
 -1       577 2.91441E+05 3.89861E+02 1.97427E+02-9.50033E+04-6.06815E-09 1.20235E-08
 -1       578 2.91416E+05 4.21226E+02 1.14052E+02-1.04711E+05-5.43741E-09 2.31130E-08
 -1       579 2.91513E+05 3.53156E+02 7.83378E+01-9.50029E+04 5.51699E-09-9.42146E-09
 -1       580 2.91518E+05 3.70169E+02 9.09287E+01-1.04706E+05-6.19730E-09-4.66753E-09
 -1       581 2.91627E+05 2.94540E+02 1.37352E+02-9.50089E+04 5.15683E-09 3.03044E-09
 -1       582 2.91693E+05 3.32744E+02 2.79270E+02-1.04644E+05-1.01863E-10 4.78576E-09
 -1       583 2.91768E+05 3.36904E+02 5.36019E+02-9.50654E+04 9.24047E-10 1.47097E-08
 -1       584 2.92069E+05 7.74659E+02 1.21297E+03-1.04168E+05 6.62658E-09 1.05620E-08
 -1       585 2.91794E+05 1.79549E+03 2.45620E+03-9.54846E+04-1.86628E-09-1.56833E-08
 -1       586-3.41916E+03 1.16918E+05-2.91092E+03-2.50614E+05-7.39328E-09 7.44444E-09
 -1       587-1.33593E+03 1.16670E+05 7.74713E+02-2.75819E+05-7.66158E-09 2.04218E-08
 -1       588 4.00709E+02 1.16477E+05 4.76189E+03-2.50476E+05-5.28962E-09 2.30084E-08
 -1       589 5.08829E+03 1.18950E+05 1.23476E+04-2.75586E+05-8.77480E-09 1.86592E-08
 -1       590 1.66148E+04 1.15142E+05 2.59004E+04-2.50907E+05-6.57383E-09 2.16824E-08
 -1       591-7.50487E+04-1.59850E+04-2.25349E+04-3.19859E+04-7.41920E-10-9.34051E-10
 -1       592-7.91379E+04-1.95447E+04-1.22067E+04-3.56133E+04-1.56798E-09-1.22338E-09
 -1       593-7.73024E+04-1.43498E+04-5.08104E+03-3.36383E+04 8.52083E-10 3.89264E-10
 -1       594-7.60265E+04-1.62380E+04-2.53404E+03-3.57312E+04 1.97940E-09 7.75918E-09
 -1       595-7.74742E+04-1.43444E+04-1.16338E+03-3.37133E+04 4.25516E-10 1.20100E-08
 -1       596-7.58134E+04-1.60867E+04-5.91195E+02-3.57058E+04 8.13662E-09 1.50131E-08
 -1       597-7.74958E+04-1.43599E+04-3.21472E+02-3.37162E+04 4.81714E-09-1.88527E-08
 -1       598-7.57924E+04-1.60808E+04-2.57600E+02-3.56987E+04-3.49706E-09-1.36340E-08
 -1       599-7.74946E+04-1.43604E+04-3.28023E+02-3.37158E+04 2.22440E-09-4.55555E-09
 -1       600-7.58135E+04-1.60873E+04-6.08537E+02-3.57037E+04 3.18636E-09-1.50585E-08
 -1       601-7.74699E+04-1.43458E+04-1.20008E+03-3.37124E+04 8.54357E-09-2.37424E-09
 -1       602-7.60332E+04-1.62421E+04-2.61523E+03-3.57259E+04-5.84123E-09-1.63529E-08
 -1       603-7.72898E+04-1.43543E+04-5.24450E+03-3.36357E+04-2.11799E-09 1.19962E-09
 -1       604-7.92623E+04-1.96356E+04-1.25985E+04-3.55795E+04 2.14283E-09 1.43407E-08
 -1       605-7.49437E+04-1.60598E+04-2.32584E+04-3.19497E+04 6.21901E-09 1.64437E-09
 -1       606 2.66911E+04-1.43277E+04-2.56847E+04 2.39830E+04 6.40739E-09 2.40266E-09
 -1       607 2.23025E+04-4.67934E+03-1.27909E+04 2.69517E+04-1.51886E-10-6.75982E-09
 -1       608 2.48037E+04-8.44090E+02-5.72605E+03 2.38143E+04-4.30919E-09 2.19961E-09
 -1       609 2.43242E+04-2.89120E+02-2.89265E+03 2.71657E+04-3.55340E-09 1.50128E-08
 -1       610 2.45901E+04-4.09085E+01-1.38012E+03 2.37942E+04 4.73392E-09 1.52854E-08
 -1       611 2.45149E+04-4.11691E+01-6.95843E+02 2.71889E+04 1.05156E-08-3.79032E-10
 -1       612 2.45430E+04-2.72083E+01-3.30786E+02 2.37922E+04 3.72074E-09 1.40246E-08
 -1       613 2.45265E+04-3.70856E+01-1.48201E+02 2.71916E+04 3.86990E-09 1.26342E-08
 -1       614 2.45209E+04-3.36332E+01-3.46748E+01 2.37915E+04-1.25874E-09 1.86869E-08
 -1       615 2.45212E+04-3.56019E+01 6.23038E+01 2.71920E+04-1.17552E-09 1.41372E-08
 -1       616 2.45035E+04-3.05142E+01 1.86655E+02 2.37918E+04 5.90899E-09 1.57006E-08
 -1       617 2.45437E+04 4.16706E+00 4.25792E+02 2.71915E+04 3.16140E-09 3.75621E-09
 -1       618 2.44665E+04 9.22279E+01 8.58228E+02 2.37920E+04 3.42880E-10 9.30550E-09
 -1       619 2.48466E+04 6.67745E+02 1.92720E+03 2.71909E+04-2.57296E-09 3.35535E-09
 -1       620 2.41815E+04 2.12731E+03 3.87361E+03 2.37936E+04-6.68138E-10-4.38376E-10
 -1       621 5.11429E+02 3.01463E+05 3.88936E+03 4.10271E+04 9.69521E-10 2.38651E-09
 -1       622 6.77475E+02 3.02362E+05 3.45033E+03 5.95623E+04 1.06547E-09-1.17957E-08
 -1       623 1.42680E+02 3.01659E+05 4.14433E+03 4.08415E+04 1.18882E-09 4.99858E-09
 -1       624 2.12680E+03 3.03579E+05 8.03274E+03 5.97450E+04 1.41409E-09 1.84309E-08
 -1       625 2.07799E+03 3.00065E+05 1.40362E+04 4.08383E+04 1.60253E-09 2.74326E-09
 -1       626 2.60828E+05 6.13978E+04 5.11704E+03 1.26715E+05 3.40060E-09-7.60156E-09
 -1       627 2.58511E+05 6.27951E+04 2.46586E+03 1.30986E+05 4.41014E-09-5.56952E-09
 -1       628 2.60956E+05 5.90564E+04 1.04288E+03 1.27584E+05-3.47427E-09 5.25552E-09
 -1       629 2.57876E+05 6.21155E+04 5.10439E+02 1.31226E+05-6.22458E-09-1.36454E-09
 -1       630 2.60971E+05 5.89433E+04 2.36885E+02 1.27621E+05-8.12133E-09-2.47794E-08
 -1       631 2.57809E+05 6.20896E+04 1.27614E+02 1.31228E+05-1.30058E-09 1.90182E-08
 -1       632 2.60967E+05 5.89472E+04 8.42187E+01 1.27617E+05 5.12318E-09 1.98543E-09
 -1       633 2.57801E+05 6.20914E+04 9.41949E+01 1.31224E+05 2.85718E-09-2.15086E-08
 -1       634 2.60963E+05 5.89444E+04 1.52554E+02 1.27616E+05-1.92586E-10-9.61791E-09
 -1       635 2.57815E+05 6.20897E+04 3.08896E+02 1.31230E+05-5.04900E-09 1.09667E-08
 -1       636 2.60953E+05 5.89386E+04 6.23922E+02 1.27616E+05-1.21531E-09 9.30277E-09
 -1       637 2.57950E+05 6.21867E+04 1.37192E+03 1.31229E+05-2.78601E-09 1.37106E-08
 -1       638 2.60905E+05 5.92416E+04 2.81879E+03 1.27479E+05 1.22645E-09-9.17544E-09
 -1       639 2.59431E+05 6.42461E+04 6.66940E+03 1.30793E+05 5.19685E-09 3.06977E-09
 -1       640 2.60700E+05 6.53911E+04 1.38402E+04 1.24888E+05 3.03498E-09 1.82247E-08
 -1       656 6.65724E+04-1.70375E+06-1.60701E+05-2.55336E+03-1.06957E-09 6.49720E-09
 -1       657-8.80695E+04-1.77637E+06-1.33132E+05 5.16786E+03 4.13820E-10-2.26394E-08
 -1       658 2.12210E+04-1.72437E+06-8.19928E+04-4.63697E+03 1.86560E-09-1.47818E-08
 -1       659-9.52345E+04-1.77977E+06-1.42548E+05 6.89887E+03-1.77351E-09-1.14325E-08
 -1       660 7.37214E+04-1.70036E+06-1.76890E+05-4.28435E+03-2.51748E-09 1.33838E-08
 -1       661 1.58565E+05 1.65928E+04 1.67161E+04 6.19870E+04 8.82210E-10-3.27418E-09
 -1       662 1.68016E+05 2.89718E+04 1.12655E+04 5.82363E+04 6.68706E-10 8.17636E-09
 -1       663 1.61849E+05 2.19556E+04 3.93996E+03 6.10341E+04 1.16461E-09-8.39191E-09
 -1       664 1.64209E+05 2.27004E+04 2.35692E+03 5.94003E+04-3.64076E-09-1.91408E-08
 -1       665 1.62347E+05 2.26881E+04 9.29787E+02 6.08887E+04 3.65674E-10-4.50839E-09
 -1       666 1.63620E+05 2.18629E+04 5.44256E+02 5.95899E+04 6.69979E-09-2.67908E-09
 -1       667 1.62434E+05 2.27713E+04 2.89276E+02 6.08523E+04 3.93030E-09 1.96544E-08
 -1       668 1.63524E+05 2.18030E+04 2.95198E+02 5.96429E+04-5.88005E-09-1.30062E-08
 -1       669 1.62442E+05 2.27462E+04 4.00021E+02 6.08360E+04-2.22033E-09-2.50265E-09
 -1       670 1.63621E+05 2.20203E+04 8.71392E+02 5.96459E+04-4.95226E-09-3.85842E-09
 -1       671 1.62337E+05 2.25586E+04 1.54734E+03 6.08473E+04 4.56196E-09-7.61111E-09
 -1       672 1.64523E+05 2.35257E+04 3.95892E+03 5.94273E+04 1.15673E-08 7.31461E-10
 -1       673 1.61545E+05 2.12789E+04 6.63455E+03 6.10399E+04 4.88694E-09-1.71030E-09
 -1       674 1.70837E+05 3.41848E+04 1.89734E+04 5.75723E+04-1.48339E-09-7.78232E-09
 -1       675 1.56063E+05 1.21980E+04 2.81632E+04 6.25904E+04-3.48155E-09-2.82489E-09
 -1       676 2.41111E+01-2.95881E+05-1.11347E+03-1.37033E+02-9.67219E-10 9.47330E-09
 -1       677-2.94546E+02-2.96150E+05-2.03785E+03 2.73845E+02 7.24697E-09 1.16473E-08
 -1       678 1.97552E+02-2.95689E+05-3.60241E+03-1.36722E+02-1.58252E-10-5.91607E-09
 -1       679-3.60247E+03-2.98325E+05-8.55782E+03 2.72662E+02 5.19879E-09-6.66399E-09
 -1       680 2.15088E+03-2.93707E+05-1.37923E+04-1.34339E+02 3.42698E-09-1.20163E-09
 -1       771-3.06270E+06-7.46501E+05-1.64715E+05-1.46551E+06-3.21888E-08-2.62808E-08
 -1       772-2.98562E+06-8.35109E+05-8.49112E+04-1.56795E+06-2.53203E-08 6.99220E-09
 -1       773-3.09402E+06-7.22065E+05-4.33066E+04-1.47993E+06-1.26602E-08 1.71276E-08
 -1       774-2.97618E+06-8.16752E+05-1.93164E+04-1.59363E+06 2.15368E-08 2.19734E-09
 -1       775-3.11040E+06-7.10568E+05-1.44625E+04-1.48694E+06-5.15138E-09 2.28465E-09
 -1       776-2.98846E+06-8.13744E+05-5.40600E+03-1.61305E+06-3.63798E-10 7.23230E-09
 -1       777-3.12462E+06-7.00307E+05-6.39463E+03-1.49313E+06-4.39468E-09 3.33239E-09
 -1       778-3.00129E+06-8.10942E+05-1.80692E+03-1.62974E+06-6.98492E-09-1.03682E-09
 -1       779-3.13684E+06-6.91342E+05-3.19686E+03-1.49841E+06-2.03727E-09-7.34872E-09
 -1       780-3.01258E+06-8.08269E+05-5.29673E+02-1.64333E+06-7.76345E-09-5.85715E-10
 -1       781-3.14655E+06-6.84116E+05-1.24190E+03-1.50255E+06-3.03698E-08 4.80213E-09
 -1       782-3.02129E+06-8.05998E+05 4.48493E+02-1.65337E+06-3.95157E-08 2.63526E-09
 -1       783-3.15339E+06-6.79094E+05 6.98250E+02-1.50545E+06-1.51194E-08-1.84814E-08
 -1       784-3.02611E+06-8.03726E+05 2.89232E+03-1.65956E+06-2.28174E-08 1.12095E-09
 -1       785-3.15744E+06-6.76099E+05 5.10605E+03-1.50729E+06-3.66053E-08 5.41695E-09
 -1       786 1.24043E+05-9.78122E+03 2.26298E+04-3.22504E+02 2.11798E-09-3.03407E-09
 -1       787 1.33858E+05 1.13245E+04 1.60096E+04-1.36171E+02 6.91450E-09 5.53837E-09
 -1       788 1.27827E+05-1.53274E+03 5.85483E+03-2.87404E+02 6.35602E-09 2.21521E-08
 -1       789 1.29449E+05 1.77411E+03 3.67547E+03-1.89944E+02 2.37063E-10 1.62813E-08
 -1       790 1.28452E+05-2.38646E+02 1.48818E+03-2.68747E+02-2.73528E-09-4.23603E-09
 -1       791 1.28719E+05 2.76129E+02 8.59625E+02-2.21867E+02-6.13614E-09-1.99532E-08
 -1       792 1.28558E+05-3.58783E+01 3.64449E+02-2.55483E+02-5.10810E-09-7.55765E-09
 -1       793 1.28592E+05 3.79960E+01 1.82068E+02-2.46825E+02-2.37148E-10-1.47730E-08
 -1       794 1.28579E+05-6.62983E-01 4.80838E+01-2.43789E+02 3.36402E-09-1.02631E-08
 -1       795 1.28556E+05-2.68581E+01-5.58627E+01-2.71236E+02-5.55348E-09 2.25167E-09
 -1       796 1.28595E+05 2.89395E+01-1.59533E+02-2.31072E+02 4.37717E-09 1.02733E-08
 -1       797 1.28462E+05-2.16094E+02-4.38876E+02-3.00459E+02 4.40256E-09 1.50620E-08
 -1       798 1.28672E+05 1.88431E+02-7.12992E+02-2.14567E+02 2.30296E-09 2.50552E-09
 -1       799 1.27921E+05-1.38887E+03-1.96176E+03-3.41335E+02 6.66762E-09-1.34519E-08
 -1       800 1.29136E+05 1.20075E+03-2.77635E+03-1.90197E+02-1.89344E-10 1.00890E-08
 -1       801-1.69846E+05-9.97236E+06-1.38918E+06 1.40905E+06 9.17935E-08-4.73774E-08
 -1       802 7.34202E+05 5.90888E+06 2.17135E+06-1.73863E+06 2.57518E-07-3.87290E-08
 -1       803-5.34249E+05-1.42195E+07-1.88236E+06 8.94368E+05 7.57827E-08 1.63855E-08
 -1       804 2.85619E+05 2.36672E+06 1.52995E+06 6.75021E+05-1.20548E-07-8.46812E-08
 -1       805 1.88800E+05-6.44436E+06-2.85066E+05-9.98952E+05-4.96948E-08-6.29025E-08
 -1       806-3.08774E+05-5.97553E+04-2.28446E+04-1.22386E+05-8.68658E-09 2.03431E-08
 -1       807-3.10567E+05-5.60301E+04-1.12233E+04-1.27934E+05 8.79049E-09-4.95874E-09
 -1       808-3.09401E+05-5.15221E+04-4.76129E+03-1.26278E+05-3.57295E-09 7.25004E-09
 -1       809-3.08207E+05-5.28767E+04-2.32815E+03-1.28209E+05-8.04562E-09 4.43151E-09
 -1       810-3.09496E+05-5.12355E+04-1.06713E+03-1.26450E+05 1.76988E-09 3.81535E-08
 -1       811-3.08025E+05-5.27501E+04-5.30700E+02-1.28174E+05 5.41422E-09 5.05884E-09
 -1       812-3.09510E+05-5.12602E+04-2.68483E+02-1.26449E+05-6.06997E-09-6.74027E-09
 -1       813-3.08000E+05-5.27523E+04-1.74623E+02-1.28155E+05-1.14719E-08-9.41509E-09
 -1       814-3.09503E+05-5.12699E+04-1.73270E+02-1.26445E+05-2.66573E-09 6.09361E-10
 -1       815-3.08003E+05-5.27545E+04-2.79366E+02-1.28148E+05 6.81030E-09 1.34037E-08
 -1       816-3.09482E+05-5.12690E+04-5.29618E+02-1.26441E+05 1.14433E-08 1.46601E-08
 -1       817-3.08093E+05-5.28050E+04-1.13667E+03-1.28136E+05-7.95671E-09 1.29442E-08
 -1       818-3.09413E+05-5.14295E+04-2.31845E+03-1.26366E+05 2.69301E-09-8.53106E-09
 -1       819-3.09362E+05-5.42056E+04-5.45513E+03-1.27835E+05 1.66983E-09-1.08148E-08
 -1       820-3.08975E+05-5.55506E+04-1.11032E+04-1.24606E+05 2.30375E-09 1.81922E-09
 -1       821-3.78976E+05 2.08694E+04-4.85807E+04 2.12709E+03 1.40667E-08-7.38146E-09
 -1       822-3.98679E+05-2.41760E+04-3.41410E+04-4.46305E+03 6.23223E-09 1.20053E-09
 -1       823-3.86440E+05 3.28979E+03-1.25479E+04 3.43884E+03-1.22955E-08 2.61070E-09
 -1       824-3.89669E+05-3.79374E+03-7.85412E+03-5.37680E+03 2.23286E-09 1.30103E-09
 -1       825-3.87993E+05 5.11282E+02-3.28909E+03 3.04095E+03 2.12113E-08 1.77675E-08
 -1       826-3.87236E+05-5.67272E+02-1.74371E+03-3.10204E+03 2.51491E-08 2.65661E-08
 -1       827-3.88848E+05 4.67467E+01-1.19031E+03 1.16394E+03 1.23499E-08-7.31248E-09
 -1       828-3.86529E+05-1.31896E+02-5.85525E+02 1.09498E+03-3.06885E-09-1.57158E-08
 -1       829-3.88687E+05 6.58218E+01-1.17916E+03-1.15610E+03 2.24833E-09 6.43638E-09
 -1       830-3.87585E+05-6.21987E+02-1.88189E+03 4.88755E+03 3.31696E-09 1.71737E-08
 -1       831-3.87814E+05 5.54496E+02-3.37077E+03-2.62865E+03-6.16088E-09-5.07316E-09
 -1       832-3.89749E+05-3.96029E+03-8.15658E+03 6.17015E+03-7.59326E-09-1.77442E-09
 -1       833-3.86539E+05 3.41370E+03-1.30514E+04-2.43875E+03-3.79254E-09 2.46955E-08
 -1       834-3.98738E+05-2.50887E+04-3.53627E+04 4.19660E+03-4.52502E-09 4.72346E-09
 -1       835-3.78808E+05 2.16500E+04-5.04493E+04-6.55023E+02 5.40791E-09 2.69938E-09
 -1       836-1.41406E+03 3.70223E+05 2.29094E+04-1.61748E+04-6.98310E-09-3.62661E-09
 -1       837 4.88363E+03 3.77398E+05 1.93815E+04-3.30523E+04-7.53374E-09-3.95016E-09
 -1       838-5.57969E+02 3.72235E+05 1.97415E+04-1.61032E+04-6.45787E-09-2.33604E-09
 -1       839 1.24216E+04 3.83012E+05 3.73393E+04-3.31047E+04-6.92080E-09 2.52129E-09
 -1       840-3.84045E+03 3.64549E+05 5.95399E+04-1.61281E+04-6.22458E-09 1.17118E-08
 -1       856-5.22174E+04 8.02477E+03-2.11470E+04-3.97619E+02 5.20311E-09 3.81988E-10
 -1       857-6.09295E+04-9.42882E+03-1.45574E+04 5.63304E+03 3.97779E-09 5.74232E-09
 -1       858-5.56676E+04 1.12539E+03-5.48714E+03-4.21716E+02 5.87949E-09-1.38043E-08
 -1       859-5.69701E+04-1.32396E+03-3.31123E+03 5.66889E+03-5.86761E-09-9.31004E-09
 -1       860-5.61831E+04 1.57607E+02-1.38773E+03-4.33199E+02 8.75247E-10 2.85308E-09
 -1       861-5.63771E+04-1.88126E+02-7.63395E+02 5.68453E+03 3.53878E-09-5.64241E-09
 -1       862-5.62637E+04 2.13490E+01-3.17290E+02-4.37334E+02-2.34334E-09-7.22051E-09
 -1       863-5.62783E+04-2.18225E+01-1.15480E+02 5.68694E+03-4.21132E-09-2.45791E-08
 -1       864-5.62824E+04-4.91310E+00 4.74250E+01-4.35599E+02-2.91061E-09-1.41527E-08
 -1       865-5.62225E+04 5.97527E+01 2.55745E+02 5.67703E+03 1.34116E-09 6.05115E-09
 -1       866-5.63173E+04-6.02431E+01 5.15286E+02-4.27428E+02-1.21179E-09-2.89148E-09
 -1       867-5.59802E+04 4.97481E+02 1.26826E+03 5.65485E+03 2.97692E-09 1.58728E-08
 -1       868-5.65198E+04-4.34737E+02 2.10744E+03-4.13417E+02-2.28465E-09-4.38069E-09
 -1       869-5.44352E+04 3.61815E+03 5.61139E+03 5.61835E+03 3.97006E-09-1.14940E-08
 -1       870-5.78546E+04-3.09615E+03 8.14339E+03-3.90825E+02-7.92522E-09-1.08271E-08
 -1       871-5.51889E+03-2.13384E+04-1.94890E+04 1.30407E+05-2.87946E-09 1.95441E-08
 -1       872-1.98321E+03-2.58699E+04-8.16057E+03 1.69092E+05-1.06320E-08 1.44846E-08
 -1       873 4.04250E+02-2.36782E+04 5.89570E+02 1.30120E+05-5.35783E-09-1.75077E-08
 -1       874 3.30451E+03-2.12675E+04 9.77809E+03 1.69121E+05-1.27520E-08-9.82823E-09
 -1       875 6.84472E+03-2.60077E+04 2.20588E+04 1.30359E+05-3.32511E-09 9.26684E-09
 -1       876 2.93726E+05 4.95042E+04 1.50979E+04 1.17872E+05 2.79738E-09 6.18911E-09
 -1       877 2.94724E+05 5.26839E+04 8.06286E+03 1.22203E+05 7.46786E-09-2.00973E-08
 -1       878 2.95138E+05 4.78317E+04 3.37794E+03 1.19109E+05 2.44836E-09-3.59796E-09
 -1       879 2.92672E+05 5.06357E+04 1.68310E+03 1.22305E+05 1.47340E-08 1.01336E-08
 -1       880 2.95239E+05 4.78145E+04 7.83968E+02 1.19159E+05 4.01997E-10 2.02730E-08
 -1       881 2.92536E+05 5.05481E+04 4.18674E+02 1.22282E+05-5.00870E-09 1.58575E-08
 -1       882 2.95248E+05 4.78277E+04 2.67880E+02 1.19161E+05 3.02794E-09-6.84910E-09
 -1       883 2.92526E+05 5.05436E+04 2.88044E+02 1.22274E+05-8.24929E-09-1.38966E-08
 -1       884 2.95242E+05 4.78249E+04 4.58264E+02 1.19161E+05-1.23451E-08-2.03354E-08
 -1       885 2.92562E+05 5.05499E+04 9.21399E+02 1.22285E+05-1.52559E-08-1.35519E-08
 -1       886 2.95206E+05 4.77980E+04 1.85705E+03 1.19158E+05-4.87125E-09-3.73507E-09
 -1       887 2.92889E+05 5.07639E+04 4.05648E+03 1.22332E+05 4.33158E-09 4.14582E-09
 -1       888 2.94949E+05 4.78432E+04 8.17393E+03 1.19028E+05-2.95897E-09 6.44741E-09
 -1       889 2.97755E+05 5.58245E+04 1.95260E+04 1.22183E+05 2.65011E-10 8.40919E-09
 -1       890 2.91613E+05 5.18062E+04 3.65717E+04 1.15917E+05-2.76214E-09-1.32568E-08
 -1       891-8.95031E+01-1.62749E+05-1.99635E+03 2.71480E+04-2.66823E-09 8.07222E-09
 -1       892-1.75584E+02-1.63276E+05-2.14401E+03 4.12255E+04 3.49883E-09 2.07863E-08
 -1       893 4.35539E+01-1.62813E+05-3.03555E+03 2.71553E+04-3.72347E-09 1.80089E-08
 -1       894-1.51008E+03-1.64423E+05-6.28235E+03 4.10730E+04-1.33787E-09 2.19407E-08
 -1       895-1.19924E+03-1.61504E+05-1.10631E+04 2.73023E+04-1.28546E-09-1.18471E-08
 -1       956-3.77162E+05-5.44929E+03-1.34527E+04 3.08558E+04 4.95493E-09 1.08387E-08
 -1       957-3.79802E+05-1.92201E+03-6.90507E+03 3.70808E+04 1.77715E-09-1.58750E-08
 -1       958-3.78371E+05-2.40537E+02-3.11165E+03 3.06881E+04 2.39015E-09-2.77032E-09
 -1       959-3.78568E+05-1.35790E+02-1.58886E+03 3.72764E+04 2.83262E-09 2.35559E-09
 -1       960-3.78489E+05-4.44226E+01-7.74802E+02 3.06708E+04 3.10956E-09-2.58092E-09
 -1       961-3.78487E+05-6.27539E+01-4.10789E+02 3.72969E+04 2.87355E-09 1.55117E-08
 -1       962-3.78517E+05-4.56454E+01-2.35184E+02 3.06679E+04-2.87537E-09 6.91671E-10
 -1       963-3.78488E+05-5.85596E+01-1.88790E+02 3.73005E+04-1.72838E-09-1.85446E-08
 -1       964-3.78522E+05-4.22889E+01-2.29578E+02 3.06672E+04-1.15878E-09-1.12332E-08
 -1       965-3.78500E+05-5.55974E+01-3.97072E+02 3.72998E+04-3.57562E-09 1.37402E-09
 -1       966-3.78506E+05-3.44479E+01-7.46087E+02 3.06687E+04 3.00633E-09-1.94991E-08
 -1       967-3.78590E+05-1.19133E+02-1.53021E+03 3.72854E+04-2.15891E-09-1.63466E-08
 -1       968-3.78402E+05-2.16919E+02-2.99560E+03 3.06814E+04-1.23009E-09 3.95119E-09
 -1       969-3.79790E+05-1.83380E+03-6.65015E+03 3.71370E+04 4.43197E-09 2.73671E-08
 -1       970-3.77246E+05-5.22939E+03-1.29549E+04 3.08085E+04-6.87578E-10 1.95223E-08
 -1       971-3.45342E+05-1.72720E+03-9.30924E+03 1.53761E+04-4.60204E-10 1.34457E-08
 -1       972-3.47583E+05-1.27147E+03-5.06972E+03 2.12657E+04-1.02955E-09-1.74396E-09
 -1       973-3.46380E+05-6.18792E+01-2.27078E+03 1.52550E+04 9.86802E-10 3.66163E-09
 -1       974-3.46515E+05-8.08630E+01-1.17709E+03 2.14028E+04-4.90581E-09 1.89948E-08
 -1       975-3.46462E+05-1.70075E+01-5.88853E+02 1.52426E+04-5.06316E-09 2.46371E-09
 -1       976-3.46453E+05-3.10227E+01-3.40569E+02 2.14186E+04 7.02494E-09 4.72482E-09
 -1       977-3.46478E+05-1.62616E+01-2.48689E+02 1.52392E+04-3.26440E-09 1.49142E-08
 -1       978-3.46459E+05-2.47981E+01-2.93077E+02 2.14234E+04-1.28792E-08 1.16971E-08
 -1       979-3.46478E+05-7.78425E+00-4.72651E+02 1.52378E+04-3.71494E-09 2.53817E-09
 -1       980-3.46494E+05-2.17369E+01-9.13739E+02 2.14244E+04-1.35698E-08-1.88777E-09
 -1       981-3.46449E+05 1.50552E+01-1.77028E+03 1.52383E+04-9.85528E-09-3.00582E-09
 -1       982-3.46737E+05-1.52541E+02-3.65946E+03 2.14178E+04-2.13390E-10-7.96928E-09
 -1       983-3.46226E+05-9.83003E+01-7.11052E+03 1.52443E+04-5.83896E-09 8.52106E-09
 -1       984-3.50157E+05-3.86616E+03-1.59238E+04 2.13322E+04-5.76370E-09 1.23026E-08
 -1       985-3.43006E+05-5.30134E+03-2.92410E+04 1.53158E+04-4.06908E-09-1.12595E-09
 -3
    1PSTEP                        45          23           1          
  100CL  123 6.62959E-01         409                     0   23           1
 -4  DISP        4    1
 -5  D1          1    2    1    0
 -5  D2          1    2    2    0
 -5  D3          1    2    3    0
 -5  ALL         1    2    0    0    1ALL
 -1         1 2.69261E-03 0.00000E+00 0.00000E+00
 -1         2 1.39513E-03 1.08391E-27-5.29396E-23
 -1         3 3.38857E-04-6.00815E-28 1.32349E-23
 -1         5 1.77086E-04-1.65505E-27-1.65436E-24
 -1         8 2.68113E-03-4.17693E-07 0.00000E+00
 -1         9 2.67439E-03-1.72527E-04 0.00000E+00
 -1        10 3.08918E-04-3.42072E-06 0.00000E+00
 -1        12 1.78929E-04 8.09378E-07 8.27181E-25
 -1        15 2.66790E-03-4.43415E-07 0.00000E+00
 -1        16 2.73363E-03-1.74248E-04 0.00000E+00
 -1        17 2.11452E-04-7.94108E-06 0.00000E+00
 -1        18 1.82866E-04 3.43699E-05 0.00000E+00
 -1        19 1.84459E-04 1.61235E-06 0.00000E+00
 -1        20 1.84598E-04-9.83292E-06 0.00000E+00
 -1        21 1.83706E-04-2.53168E-05 0.00000E+00
 -1        24 3.06755E-05-1.21725E-05 0.00000E+00
 -1        25 1.93630E-04 3.45958E-05 0.00000E+00
 -1        26 1.94311E-04 2.23270E-06 0.00000E+00
 -1        27 1.92111E-04-1.33916E-05 0.00000E+00
 -1        28 1.91795E-04-2.59389E-05 0.00000E+00
 -1        32 0.00000E+00 0.00000E+00 0.00000E+00
 -1        33 2.03159E-04 2.98672E-06 0.00000E+00
 -1        34 2.01041E-04-1.34477E-05 0.00000E+00
 -1        35 1.99109E-04-2.62813E-05 0.00000E+00
 -1        51 2.69185E-03-8.66427E-08-6.61744E-24
 -1        52 2.69044E-03-1.55134E-07 0.00000E+00
 -1        53 2.68853E-03-2.20259E-07 0.00000E+00
 -1        54 2.68625E-03-2.84251E-07 0.00000E+00
 -1        55 2.68374E-03-3.48863E-07-2.48154E-24
 -1        56 2.68579E-03 6.39323E-06-5.29396E-23
 -1        57 2.67321E-03 2.70541E-05 0.00000E+00
 -1        58 2.65673E-03 5.74046E-05 0.00000E+00
 -1        59 2.63851E-03 9.19247E-05-5.29396E-23
 -1        60 2.62113E-03 1.24385E-04 1.05879E-22
 -1        61 2.60706E-03 1.48723E-04-5.29396E-23
 -1        62 2.59802E-03 1.60328E-04 1.05879E-22
 -1        63 2.59515E-03 1.55719E-04-5.29396E-23
 -1        64 2.59835E-03 1.34376E-04 0.00000E+00
 -1        65 2.60697E-03 9.73358E-05-5.29396E-23
 -1        66 2.61948E-03 4.85778E-05 0.00000E+00
 -1        67 2.63411E-03-6.79233E-06 0.00000E+00
 -1        68 2.64883E-03-6.24079E-05 0.00000E+00
 -1        69 2.66159E-03-1.11872E-04 0.00000E+00
 -1        70 2.67059E-03-1.49966E-04-5.29396E-23
 -1        86 1.47552E-03-5.55249E-06 5.29396E-23
 -1        87 1.70862E-03-3.44707E-05 2.64698E-23
 -1        88 2.02200E-03-8.40140E-05 0.00000E+00
 -1        89 2.33931E-03-1.34828E-04 0.00000E+00
 -1        90 2.58199E-03-1.65914E-04 0.00000E+00
 -1       121 3.38016E-04-5.54393E-07 0.00000E+00
 -1       122 3.35497E-04-1.11151E-06 0.00000E+00
 -1       123 3.31309E-04-1.67402E-06-1.32349E-23
 -1       124 3.25468E-04-2.24466E-06 0.00000E+00
 -1       125 3.17994E-04-2.82567E-06 0.00000E+00
 -1       191 1.77137E-04 1.34960E-07-8.27181E-25
 -1       192 1.77290E-04 2.69908E-07 8.27181E-25
 -1       193 1.77546E-04 4.04837E-07-1.65436E-24
 -1       194 1.77905E-04 5.39733E-07-8.27181E-25
 -1       195 1.78366E-04 6.74585E-07 3.30872E-24
 -1       251 2.68081E-03 1.96741E-06 6.61744E-24
 -1       252 2.68048E-03 4.61603E-06 3.30872E-24
 -1       253 2.68016E-03 6.48022E-06 6.61744E-24
 -1       254 2.67983E-03 6.52239E-06 0.00000E+00
 -1       255 2.67950E-03 3.99915E-06-1.32349E-23
 -1       256 2.67916E-03-1.79862E-06 0.00000E+00
 -1       257 2.67879E-03-1.10518E-05 0.00000E+00
 -1       258 2.67838E-03-2.38949E-05 0.00000E+00
 -1       259 2.67793E-03-3.98840E-05 1.32349E-23
 -1       260 2.67744E-03-5.85326E-05-6.61744E-24
 -1       261 2.67691E-03-7.89252E-05 0.00000E+00
 -1       262 2.67637E-03-1.00124E-04-6.61744E-24
 -1       263 2.67583E-03-1.21059E-04 0.00000E+00
 -1       264 2.67532E-03-1.40666E-04-6.61744E-24
 -1       265 2.67484E-03-1.58096E-04-1.32349E-23
 -1       266 2.67893E-03-4.27828E-07 0.00000E+00
 -1       267 2.67672E-03-4.31402E-07-8.27181E-25
 -1       268 2.67451E-03-4.35392E-07 8.27181E-25
 -1       269 2.67231E-03-4.38151E-07-2.06795E-25
 -1       270 2.67010E-03-4.40881E-07 0.00000E+00
 -1       271 2.68016E-03 3.30240E-07 1.32349E-23
 -1       272 2.68005E-03-1.29467E-06 0.00000E+00
 -1       273 2.68078E-03-5.15940E-06 0.00000E+00
 -1       274 2.68228E-03-1.11204E-05-1.32349E-23
 -1       275 2.68449E-03-1.90143E-05 0.00000E+00
 -1       276 2.68734E-03-2.86633E-05 1.32349E-23
 -1       277 2.69076E-03-3.98743E-05 0.00000E+00
 -1       278 2.69467E-03-5.24414E-05 1.32349E-23
 -1       279 2.69899E-03-6.61478E-05-2.64698E-23
 -1       280 2.70365E-03-8.07669E-05 0.00000E+00
 -1       281 2.70854E-03-9.60643E-05 0.00000E+00
 -1       282 2.71359E-03-1.11801E-04-1.32349E-23
 -1       283 2.71871E-03-1.27732E-04-1.32349E-23
 -1       284 2.72382E-03-1.43613E-04-6.61744E-24
 -1       285 2.72882E-03-1.59200E-04 1.32349E-23
 -1       301 2.68516E-03-1.72846E-04 1.32349E-23
 -1       302 2.69435E-03-1.73121E-04-3.30872E-24
 -1       303 2.70288E-03-1.73387E-04-1.32349E-23
 -1       304 2.71166E-03-1.73654E-04 0.00000E+00
 -1       305 2.72161E-03-1.73933E-04 2.64698E-23
 -1       306 2.71198E-03-3.25652E-04 1.05879E-22
 -1       307 2.77590E-03-7.37850E-04 0.00000E+00
 -1       308 2.82292E-03-1.34142E-03 1.05879E-22
 -1       309 2.84709E-03-2.04081E-03 5.29396E-23
 -1       310 2.87847E-03-2.71061E-03 1.05879E-22
 -1       311 2.93786E-03-3.22803E-03 5.29396E-23
 -1       312 2.99595E-03-3.51244E-03 2.11758E-22
 -1       313 2.99241E-03-3.52555E-03 5.29396E-23
 -1       314 2.85373E-03-3.27896E-03 0.00000E+00
 -1       315 2.53887E-03-2.83656E-03 5.29396E-23
 -1       316 2.06572E-03-2.27472E-03 0.00000E+00
 -1       317 1.49954E-03-1.66283E-03 5.29396E-23
 -1       318 9.54071E-04-1.06176E-03 0.00000E+00
 -1       319 5.36893E-04-5.36595E-04-1.05879E-22
 -1       320 2.91813E-04-1.61239E-04 0.00000E+00
 -1       336 2.97929E-04-4.10294E-06-1.32349E-23
 -1       337 2.84734E-04-4.81188E-06 0.00000E+00
 -1       338 2.69401E-04-5.54961E-06 0.00000E+00
 -1       339 2.52012E-04-6.31723E-06-6.61744E-24
 -1       340 2.32661E-04-7.11964E-06 0.00000E+00
 -1       406 1.79594E-04 9.44095E-07-8.27181E-25
 -1       407 1.80363E-04 1.07870E-06 1.24077E-24
 -1       408 1.81233E-04 1.21314E-06 4.13590E-25
 -1       409 1.82206E-04 1.34724E-06-2.06795E-25
 -1       410 1.83282E-04 1.48072E-06-2.06795E-24
 -1       521 2.77184E-03-3.36644E-04 0.00000E+00
 -1       522 2.83404E-03-7.68855E-04 0.00000E+00
 -1       523 2.87474E-03-1.39981E-03-1.05879E-22
 -1       524 2.88988E-03-2.12730E-03 5.29396E-23
 -1       525 2.91351E-03-2.82322E-03 0.00000E+00
 -1       526 2.96937E-03-3.36230E-03-5.29396E-23
 -1       527 3.02703E-03-3.65718E-03 2.11758E-22
 -1       528 3.02126E-03-3.66863E-03 1.05879E-22
 -1       529 2.87089E-03-3.40819E-03 0.00000E+00
 -1       530 2.53264E-03-2.94753E-03 5.29396E-23
 -1       531 2.02517E-03-2.36676E-03 0.00000E+00
 -1       532 1.42006E-03-1.73785E-03-5.29396E-23
 -1       533 8.36268E-04-1.11912E-03-1.05879E-22
 -1       534 3.86390E-04-5.73377E-04-5.29396E-23
 -1       535 1.20428E-04-1.78753E-04 0.00000E+00
 -1       536 2.10697E-04 2.69985E-05-6.61744E-24
 -1       537 2.08777E-04 8.74689E-05 1.65436E-24
 -1       538 2.05810E-04 1.64199E-04-3.30872E-24
 -1       539 2.02310E-04 2.47836E-04 0.00000E+00
 -1       540 1.99160E-04 3.26869E-04 0.00000E+00
 -1       541 1.97113E-04 3.89811E-04-1.65436E-24
 -1       542 1.96168E-04 4.29907E-04 0.00000E+00
 -1       543 1.95943E-04 4.40547E-04 0.00000E+00
 -1       544 1.95620E-04 4.22505E-04 3.30872E-24
 -1       545 1.94447E-04 3.76775E-04-1.65436E-24
 -1       546 1.92261E-04 3.11487E-04 0.00000E+00
 -1       547 1.89301E-04 2.34892E-04 0.00000E+00
 -1       548 1.86367E-04 1.58671E-04 3.30872E-24
 -1       549 1.84251E-04 9.45088E-05-1.65436E-24
 -1       550 1.83152E-04 5.04387E-05 0.00000E+00
 -1       551 1.86246E-04-8.51214E-06 0.00000E+00
 -1       552 1.57802E-04-9.16337E-06 0.00000E+00
 -1       553 1.27064E-04-9.87663E-06-6.61744E-24
 -1       554 9.49910E-05-1.06308E-05 0.00000E+00
 -1       555 6.25431E-05-1.13984E-05 0.00000E+00
 -1       556 2.03800E-04 1.16231E-05 0.00000E+00
 -1       557 1.97618E-04 2.74922E-05 2.64698E-23
 -1       558 1.92770E-04 3.99539E-05 0.00000E+00
 -1       559 1.89123E-04 4.93185E-05 0.00000E+00
 -1       560 1.86549E-04 5.58968E-05 0.00000E+00
 -1       561 1.84919E-04 6.00021E-05 0.00000E+00
 -1       562 1.84107E-04 6.19489E-05 0.00000E+00
 -1       563 1.83990E-04 6.20527E-05 0.00000E+00
 -1       564 1.84445E-04 6.06298E-05 0.00000E+00
 -1       565 1.85353E-04 5.79973E-05 0.00000E+00
 -1       566 1.86592E-04 5.44726E-05 0.00000E+00
 -1       567 1.88045E-04 5.03739E-05 0.00000E+00
 -1       568 1.89593E-04 4.60191E-05-1.65436E-24
 -1       569 1.91119E-04 4.17265E-05 0.00000E+00
 -1       570 1.92503E-04 3.78142E-05 0.00000E+00
 -1       571 1.82962E-04 3.22446E-05 2.48154E-24
 -1       572 1.83061E-04 3.00537E-05 4.13590E-25
 -1       573 1.83160E-04 2.78126E-05 1.65436E-24
 -1       574 1.83259E-04 2.55379E-05 8.27181E-25
 -1       575 1.83359E-04 2.32459E-05 0.00000E+00
 -1       576 1.83458E-04 2.09531E-05 0.00000E+00
 -1       577 1.83558E-04 1.86761E-05 0.00000E+00
 -1       578 1.83657E-04 1.64313E-05 0.00000E+00
 -1       579 1.83757E-04 1.42353E-05 0.00000E+00
 -1       580 1.83857E-04 1.21046E-05-6.61744E-24
 -1       581 1.83957E-04 1.00558E-05 0.00000E+00
 -1       582 1.84057E-04 8.10520E-06 3.30872E-24
 -1       583 1.84157E-04 6.26946E-06 0.00000E+00
 -1       584 1.84258E-04 4.56487E-06 3.30872E-24
 -1       585 1.84358E-04 3.00756E-06 0.00000E+00
 -1       586 1.84619E-04 3.44096E-05 0.00000E+00
 -1       587 1.86331E-04 3.44488E-05 8.27181E-25
 -1       588 1.88044E-04 3.44877E-05 0.00000E+00
 -1       589 1.89804E-04 3.45259E-05 0.00000E+00
 -1       590 1.91651E-04 3.45628E-05 0.00000E+00
 -1       591 1.83594E-04 3.23383E-05 2.06795E-25
 -1       592 1.84325E-04 3.02868E-05-2.06795E-25
 -1       593 1.85062E-04 2.82213E-05 8.27181E-25
 -1       594 1.85801E-04 2.61464E-05 0.00000E+00
 -1       595 1.86542E-04 2.40670E-05 0.00000E+00
 -1       596 1.87283E-04 2.19876E-05-4.13590E-25
 -1       597 1.88022E-04 1.99130E-05 0.00000E+00
 -1       598 1.88757E-04 1.78479E-05 0.00000E+00
 -1       599 1.89488E-04 1.57970E-05 0.00000E+00
 -1       600 1.90211E-04 1.37649E-05 4.13590E-25
 -1       601 1.90925E-04 1.17564E-05-8.27181E-25
 -1       602 1.91629E-04 9.77613E-06 0.00000E+00
 -1       603 1.92321E-04 7.82877E-06 8.27181E-25
 -1       604 1.92999E-04 5.91914E-06 2.58494E-26
 -1       605 1.93662E-04 4.05183E-06 0.00000E+00
 -1       606 1.84472E-04 4.50460E-07-3.30872E-24
 -1       607 1.84482E-04-6.25611E-07 0.00000E+00
 -1       608 1.84490E-04-1.62090E-06 0.00000E+00
 -1       609 1.84499E-04-2.54109E-06 0.00000E+00
 -1       610 1.84507E-04-3.39193E-06 0.00000E+00
 -1       611 1.84516E-04-4.17919E-06 0.00000E+00
 -1       612 1.84524E-04-4.90867E-06 0.00000E+00
 -1       613 1.84532E-04-5.58621E-06 0.00000E+00
 -1       614 1.84541E-04-6.21758E-06-1.65436E-24
 -1       615 1.84549E-04-6.80861E-06 8.27181E-25
 -1       616 1.84557E-04-7.36511E-06 0.00000E+00
 -1       617 1.84566E-04-7.89289E-06 0.00000E+00
 -1       618 1.84574E-04-8.39775E-06 0.00000E+00
 -1       619 1.84582E-04-8.88550E-06 0.00000E+00
 -1       620 1.84591E-04-9.36196E-06 0.00000E+00
 -1       621 1.85815E-04 1.71630E-06-3.30872E-24
 -1       622 1.87330E-04 1.82051E-06-1.65436E-24
 -1       623 1.88971E-04 1.92450E-06-3.30872E-24
 -1       624 1.90704E-04 2.02816E-06-8.27181E-25
 -1       625 1.92495E-04 2.13153E-06 0.00000E+00
 -1       626 1.85006E-04 4.86573E-07 0.00000E+00
 -1       627 1.85532E-04-5.76176E-07-3.30872E-24
 -1       628 1.86036E-04-1.58375E-06-6.61744E-24
 -1       629 1.86523E-04-2.54432E-06 1.65436E-24
 -1       630 1.86996E-04-3.46607E-06-3.30872E-24
 -1       631 1.87457E-04-4.35722E-06 0.00000E+00
 -1       632 1.87910E-04-5.22595E-06 0.00000E+00
 -1       633 1.88358E-04-6.08051E-06 1.65436E-24
 -1       634 1.88803E-04-6.92908E-06 0.00000E+00
 -1       635 1.89249E-04-7.77987E-06 0.00000E+00
 -1       636 1.89699E-04-8.64110E-06 0.00000E+00
 -1       637 1.90156E-04-9.52099E-06 0.00000E+00
 -1       638 1.90623E-04-1.04277E-05-3.30872E-24
 -1       639 1.91103E-04-1.13696E-05-8.27181E-25
 -1       640 1.91598E-04-1.23547E-05 1.65436E-24
 -1       656 1.85302E-04-1.04113E-05 0.00000E+00
 -1       657 1.86425E-04-1.10132E-05-6.61744E-24
 -1       658 1.87829E-04-1.16137E-05-1.32349E-23
 -1       659 1.89368E-04-1.22139E-05 6.61744E-24
 -1       660 1.90856E-04-1.28159E-05 6.61744E-24
 -1       661 1.84862E-04-1.03490E-05 0.00000E+00
 -1       662 1.85163E-04-1.09569E-05-8.27181E-25
 -1       663 1.85496E-04-1.16515E-05 0.00000E+00
 -1       664 1.85860E-04-1.24262E-05 0.00000E+00
 -1       665 1.86252E-04-1.32752E-05-1.65436E-24
 -1       666 1.86669E-04-1.41926E-05-8.27181E-25
 -1       667 1.87110E-04-1.51728E-05 0.00000E+00
 -1       668 1.87572E-04-1.62100E-05-8.27181E-25
 -1       669 1.88053E-04-1.72991E-05 0.00000E+00
 -1       670 1.88552E-04-1.84345E-05 8.27181E-25
 -1       671 1.89066E-04-1.96111E-05 1.65436E-24
 -1       672 1.89594E-04-2.08239E-05 0.00000E+00
 -1       673 1.90133E-04-2.20677E-05 0.00000E+00
 -1       674 1.90681E-04-2.33380E-05-4.13590E-25
 -1       675 1.91237E-04-2.46294E-05-2.06795E-25
 -1       676 1.85059E-04-2.54211E-05 0.00000E+00
 -1       677 1.86411E-04-2.55253E-05-1.65436E-24
 -1       678 1.87761E-04-2.56295E-05 0.00000E+00
 -1       679 1.89109E-04-2.57334E-05 0.00000E+00
 -1       680 1.90454E-04-2.58372E-05 0.00000E+00
 -1       771 1.87352E-05 1.45267E-05 0.00000E+00
 -1       772 8.68861E-06 3.64571E-05 5.29396E-23
 -1       773 4.45228E-07 5.38488E-05 5.29396E-23
 -1       774-6.11910E-06 6.69592E-05 2.64698E-23
 -1       775-1.11258E-05 7.60562E-05 0.00000E+00
 -1       776-1.47013E-05 8.14247E-05 0.00000E+00
 -1       777-1.69715E-05 8.33592E-05 5.29396E-23
 -1       778-1.80654E-05 8.21685E-05-2.64698E-23
 -1       779-1.81109E-05 7.81697E-05 5.29396E-23
 -1       780-1.72382E-05 7.16911E-05 0.00000E+00
 -1       781-1.55764E-05 6.30682E-05 0.00000E+00
 -1       782-1.32564E-05 5.26449E-05 5.29396E-23
 -1       783-1.04078E-05 4.07701E-05 0.00000E+00
 -1       784-7.16184E-06 2.77986E-05 2.64698E-23
 -1       785-3.64862E-06 1.40884E-05 0.00000E+00
 -1       786 1.93668E-04 3.23459E-05-1.29247E-26
 -1       787 1.93710E-04 3.01459E-05-4.13590E-25
 -1       788 1.93752E-04 2.79876E-05 0.00000E+00
 -1       789 1.93794E-04 2.58628E-05 0.00000E+00
 -1       790 1.93837E-04 2.37667E-05 1.65436E-24
 -1       791 1.93880E-04 2.16947E-05-8.27181E-25
 -1       792 1.93922E-04 1.96445E-05 0.00000E+00
 -1       793 1.93965E-04 1.76140E-05 8.27181E-25
 -1       794 1.94008E-04 1.56029E-05 1.65436E-24
 -1       795 1.94051E-04 1.36112E-05 0.00000E+00
 -1       796 1.94094E-04 1.16406E-05 0.00000E+00
 -1       797 1.94138E-04 9.69316E-06 8.27181E-25
 -1       798 1.94181E-04 7.77301E-06-1.65436E-24
 -1       799 1.94224E-04 5.88451E-06 0.00000E+00
 -1       800 1.94267E-04 4.03520E-06-1.65436E-24
 -1       801 1.47877E-04 3.11006E-05 0.00000E+00
 -1       802 9.53891E-06 1.94037E-05-2.64698E-23
 -1       803-1.08635E-04 9.80111E-06 0.00000E+00
 -1       804-9.63138E-05 6.82128E-06 2.64698E-23
 -1       805-3.18135E-05 2.68122E-06 5.29396E-23
 -1       806 1.94358E-04 3.22771E-05 1.65436E-24
 -1       807 1.95073E-04 2.99845E-05 0.00000E+00
 -1       808 1.95775E-04 2.77232E-05 0.00000E+00
 -1       809 1.96463E-04 2.54973E-05 0.00000E+00
 -1       810 1.97137E-04 2.33109E-05 0.00000E+00
 -1       811 1.97794E-04 2.11678E-05 0.00000E+00
 -1       812 1.98434E-04 1.90720E-05 0.00000E+00
 -1       813 1.99054E-04 1.70276E-05 1.65436E-24
 -1       814 1.99654E-04 1.50383E-05 0.00000E+00
 -1       815 2.00232E-04 1.31082E-05-8.27181E-25
 -1       816 2.00787E-04 1.12410E-05 1.65436E-24
 -1       817 2.01316E-04 9.44081E-06 0.00000E+00
 -1       818 2.01819E-04 7.71140E-06-1.65436E-24
 -1       819 2.02295E-04 6.05670E-06 8.27181E-25
 -1       820 2.02742E-04 4.48054E-06-1.65436E-24
 -1       821 1.94182E-04-1.27423E-07 1.65436E-24
 -1       822 1.94042E-04-3.64415E-06 0.00000E+00
 -1       823 1.93899E-04-7.88868E-06 0.00000E+00
 -1       824 1.93754E-04-1.24276E-05-1.65436E-24
 -1       825 1.93610E-04-1.67480E-05 0.00000E+00
 -1       826 1.93468E-04-2.03382E-05 0.00000E+00
 -1       827 1.93330E-04-2.28854E-05 3.30872E-24
 -1       828 1.93193E-04-2.40831E-05 0.00000E+00
 -1       829 1.93057E-04-2.39924E-05 3.30872E-24
 -1       830 1.92921E-04-2.26819E-05-1.65436E-24
 -1       831 1.92783E-04-2.05527E-05 3.30872E-24
 -1       832 1.92645E-04-1.80106E-05 0.00000E+00
 -1       833 1.92507E-04-1.55739E-05 3.30872E-24
 -1       834 1.92372E-04-1.37605E-05-1.65436E-24
 -1       835 1.92237E-04-1.29188E-05-8.27181E-25
 -1       836 1.95999E-04 2.35774E-06-3.30872E-24
 -1       837 1.97559E-04 2.48592E-06 0.00000E+00
 -1       838 1.99023E-04 2.61404E-06 3.30872E-24
 -1       839 2.00423E-04 2.74147E-06 0.00000E+00
 -1       840 2.01792E-04 2.86873E-06 0.00000E+00
 -1       856 1.92094E-04-1.44508E-05-8.27181E-25
 -1       857 1.92075E-04-1.53743E-05 2.58494E-26
 -1       858 1.92056E-04-1.61832E-05 0.00000E+00
 -1       859 1.92036E-04-1.68986E-05 0.00000E+00
 -1       860 1.92017E-04-1.75417E-05 0.00000E+00
 -1       861 1.91997E-04-1.81338E-05 0.00000E+00
 -1       862 1.91977E-04-1.86963E-05 0.00000E+00
 -1       863 1.91957E-04-1.92504E-05 0.00000E+00
 -1       864 1.91937E-04-1.98176E-05 8.27181E-25
 -1       865 1.91918E-04-2.04191E-05 4.13590E-25
 -1       866 1.91898E-04-2.10762E-05 8.27181E-25
 -1       867 1.91878E-04-2.18103E-05 0.00000E+00
 -1       868 1.91858E-04-2.26425E-05-8.27181E-25
 -1       869 1.91837E-04-2.35940E-05 4.13590E-25
 -1       870 1.91817E-04-2.46858E-05-8.27181E-25
 -1       871 1.93458E-04-1.33965E-05 8.27181E-25
 -1       872 1.94952E-04-1.34048E-05 0.00000E+00
 -1       873 1.96526E-04-1.34138E-05 0.00000E+00
 -1       874 1.98111E-04-1.34236E-05-2.06795E-25
 -1       875 1.99638E-04-1.34340E-05-6.20385E-25
 -1       876 1.92635E-04-1.44362E-05 3.30872E-24
 -1       877 1.93137E-04-1.54141E-05 0.00000E+00
 -1       878 1.93618E-04-1.63331E-05 0.00000E+00
 -1       879 1.94079E-04-1.72007E-05 0.00000E+00
 -1       880 1.94524E-04-1.80242E-05 0.00000E+00
 -1       881 1.94956E-04-1.88111E-05 0.00000E+00
 -1       882 1.95376E-04-1.95686E-05-3.30872E-24
 -1       883 1.95788E-04-2.03042E-05 1.65436E-24
 -1       884 1.96195E-04-2.10251E-05 0.00000E+00
 -1       885 1.96599E-04-2.17387E-05 0.00000E+00
 -1       886 1.97003E-04-2.24524E-05 0.00000E+00
 -1       887 1.97410E-04-2.31735E-05 1.65436E-24
 -1       888 1.97822E-04-2.39093E-05-3.30872E-24
 -1       889 1.98241E-04-2.46673E-05 1.65436E-24
 -1       890 1.98671E-04-2.54549E-05-1.65436E-24
 -1       891 1.93156E-04-2.59964E-05-1.65436E-24
 -1       892 1.94494E-04-2.60541E-05 0.00000E+00
 -1       893 1.95783E-04-2.61117E-05 8.27181E-25
 -1       894 1.96999E-04-2.61690E-05-4.13590E-25
 -1       895 1.98115E-04-2.62261E-05-8.27181E-25
 -1       956 2.03029E-04 1.66760E-06-1.65436E-24
 -1       957 2.02897E-04 4.40074E-07 0.00000E+00
 -1       958 2.02764E-04-7.06611E-07 3.30872E-24
 -1       959 2.02631E-04-1.78379E-06-1.65436E-24
 -1       960 2.02498E-04-2.80287E-06 3.30872E-24
 -1       961 2.02365E-04-3.77525E-06 0.00000E+00
 -1       962 2.02233E-04-4.71236E-06 0.00000E+00
 -1       963 2.02100E-04-5.62568E-06 1.65436E-24
 -1       964 2.01967E-04-6.52663E-06 0.00000E+00
 -1       965 2.01834E-04-7.42666E-06 1.65436E-24
 -1       966 2.01702E-04-8.33724E-06 3.30872E-24
 -1       967 2.01569E-04-9.26980E-06 0.00000E+00
 -1       968 2.01436E-04-1.02358E-05 0.00000E+00
 -1       969 2.01304E-04-1.12466E-05 0.00000E+00
 -1       970 2.01171E-04-1.23136E-05 0.00000E+00
 -1       971 2.00921E-04-1.45815E-05-3.30872E-24
 -1       972 2.00800E-04-1.56207E-05 0.00000E+00
 -1       973 2.00678E-04-1.65757E-05 0.00000E+00
 -1       974 2.00557E-04-1.74574E-05-1.65436E-24
 -1       975 2.00436E-04-1.82767E-05-3.30872E-24
 -1       976 2.00314E-04-1.90444E-05-1.65436E-24
 -1       977 2.00193E-04-1.97713E-05-3.30872E-24
 -1       978 2.00071E-04-2.04685E-05 1.65436E-24
 -1       979 1.99950E-04-2.11468E-05-3.30872E-24
 -1       980 1.99829E-04-2.18171E-05 0.00000E+00
 -1       981 1.99707E-04-2.24903E-05 3.30872E-24
 -1       982 1.99586E-04-2.31773E-05 0.00000E+00
 -1       983 1.99465E-04-2.38891E-05 0.00000E+00
 -1       984 1.99345E-04-2.46365E-05 1.65436E-24
 -1       985 1.99224E-04-2.54303E-05 0.00000E+00
 -3
    1PSTEP                        46          23           1          
  100CL  123 6.62959E-01         409                     0   23           1
 -4  STRESS      6    1
 -5  SXX         1    4    1    1
 -5  SYY         1    4    2    2
 -5  SZZ         1    4    3    3
 -5  SXY         1    4    1    2
 -5  SYZ         1    4    2    3
 -5  SZX         1    4    3    1
 -1         1-5.29440E+06-1.65548E+06-1.13044E+06-1.44383E+06 8.73115E-10 1.00525E-07
 -1         2 1.29026E+06 1.90008E+07 4.50038E+06 5.70882E+06 3.01516E-08-1.86352E-07
 -1         3-1.29061E+03-1.57535E+06 6.02304E+02-2.09310E+03-5.06038E-10-1.98052E-08
 -1         5-7.49945E+01 3.86469E+05 9.98574E+00-1.34042E+00-3.94130E-10 3.01443E-08
 -1         8-5.91036E+05-2.09206E+05-6.75980E+04-2.53600E+05 2.51930E-10 1.24979E-07
 -1         9 1.15265E+07 3.31368E+06 2.65065E+06-4.53938E+05-1.17114E-08 4.29340E-08
 -1        10-3.61506E+03-1.67822E+06-5.11751E+03-1.54435E+04-5.40422E-09-9.32289E-09
 -1        12-7.10740E+01 3.86490E+05 3.28237E+02-9.13702E+00-5.95875E-10-1.16734E-08
 -1        15 9.68981E+02 5.32503E+02 3.13221E+03 9.24316E-01-3.27802E-10-9.24337E-07
 -1        16 2.27133E+07-3.02308E+05 3.10043E+06-2.18786E+06-8.28489E-09-3.24100E-07
 -1        17 8.29790E+06 6.20367E+06 2.24052E+06 5.95636E+06 4.27710E-08 3.42727E-08
 -1        18 1.42531E+05 3.35644E+04 4.20534E+03-1.19558E+05 1.40149E-08-9.00855E-10
 -1        19 1.22420E+05 1.41699E+05-9.42918E+02 2.19648E+04 1.62145E-09 2.22462E-09
 -1        20-8.19602E+04-5.73710E+05-1.28736E+05 2.51156E+04-2.02241E-09 1.40311E-08
 -1        21-4.55807E+01-2.96010E+05-9.23966E+02 2.74668E+02 1.97174E-08-1.06561E-08
 -1        24 1.38582E+07 1.19453E+07 3.84169E+06 1.10639E+07-1.60479E-07-5.18048E-08
 -1        25 1.24621E+05 2.65863E+05 9.96377E+04-6.44891E+05-2.54749E-09 1.42199E-08
 -1        26-5.53826E+04 9.23201E+04-2.46278E+04 1.28664E+03-1.41881E-10 5.70411E-09
 -1        27-7.55829E+04-3.09956E+05-1.13309E+05 6.89734E+04 4.27857E-09 7.41087E-09
 -1        28 2.22412E+04-8.53477E+04 1.68978E+04 2.06115E+04-3.64349E-09 4.84926E-09
 -1        32-1.68035E+06-3.17888E+06-1.97096E+05 4.56121E+05-4.24116E-08-1.32337E-08
 -1        33-1.78460E+05 9.30215E+04 3.23917E+04-3.85069E+04-3.19847E-09 1.78849E-08
 -1        34-2.23601E+05-2.50333E+04 6.89803E+02 7.56609E+04-5.19809E-09-1.22949E-08
 -1        35-2.29307E+04-3.38467E+04-1.34845E+03 5.14966E+04-3.40389E-09 8.55168E-09
 -1        51 5.98678E+04-1.76974E+05 1.26810E+05-4.59149E+05 7.27596E-11 8.44229E-08
 -1        52 2.03648E+04-1.54950E+05 6.66753E+04-5.35471E+05 2.54659E-10 1.33863E-07
 -1        53 4.27038E+03-1.70351E+05 3.49427E+04-4.57555E+05 3.03771E-10 1.57561E-07
 -1        54 7.75570E+03-1.66162E+05 2.91570E+04-5.37047E+05 4.72937E-11 6.31499E-08
 -1        55 1.68548E+04-1.73424E+05 3.59879E+04-4.57441E+05 6.14818E-10 8.80264E-08
 -1        56-9.67658E+06-1.27954E+06-8.80329E+05-3.97813E+06 1.49012E-08 8.24220E-08
 -1        57-1.08099E+07-1.03422E+06-5.53806E+05-2.89083E+06-4.54020E-09 2.99129E-07
 -1        58-9.59518E+06-1.70054E+06-1.98341E+05-4.11278E+06-4.47180E-08 6.94708E-08
 -1        59-1.08552E+07-5.65774E+05-1.11594E+05-2.83939E+06-4.73478E-08-5.71890E-08
 -1        60-9.67416E+06-1.70734E+06-5.30651E+04-4.06881E+06-3.33857E-08-1.10136E-07
 -1        61-1.03897E+07-8.12021E+05-6.82036E+02-3.06433E+06 1.27038E-08 2.76106E-07
 -1        62-9.97761E+06-1.50979E+06-5.07352E+04-3.82383E+06-2.90456E-08-1.54432E-07
 -1        63-9.73863E+06-1.34961E+06 2.83575E+04-3.61926E+06 5.22668E-08 3.72856E-08
 -1        64-1.02626E+07-1.21404E+06-4.64341E+04-3.47320E+06-2.14059E-08-1.12757E-07
 -1        65-9.40629E+06-1.82235E+06-1.88336E+03-4.28848E+06-3.61033E-08-3.52766E-07
 -1        66-1.03855E+07-9.84708E+05-4.47130E+04-3.21101E+06 2.41453E-08 9.13587E-08
 -1        67-9.37662E+06-2.03987E+06-1.00673E+05-4.59879E+06-2.78924E-08 6.47015E-09
 -1        68-1.03666E+07-9.45367E+05-1.82212E+05-3.21049E+06-3.46008E-08-9.95351E-09
 -1        69-9.59590E+06-2.16247E+06-4.95213E+05-4.25499E+06-9.38780E-08 4.82250E-08
 -1        70-1.01002E+07-9.19260E+05-8.03487E+05-3.50807E+06 7.17409E-09 3.87081E-08
 -1        86-1.31541E+06-1.41553E+07-2.46063E+06-2.69037E+06-2.61491E-07 1.48430E-08
 -1        87 2.03463E+06 5.28958E+06 2.04756E+06 5.12698E+06-4.28961E-07-4.96275E-08
 -1        88-3.66276E+05-2.11580E+06 1.89131E+05-2.37077E+06-3.92205E-07-1.44659E-07
 -1        89 2.72850E+06 5.04799E+06 2.09493E+06 5.28681E+06-5.53169E-07-1.39356E-07
 -1        90-1.93317E+06-1.39770E+07-2.66417E+06-2.87210E+06-1.31942E-07 3.05590E-10
 -1       121-1.79723E+03-1.57971E+06-1.85453E+02 1.03861E+03 1.42771E-09-1.89757E-08
 -1       122-1.05112E+03-1.57535E+06 1.22021E+03-4.18745E+03-5.27476E-09-3.19706E-08
 -1       123-1.87131E+03-1.57988E+06 1.18267E+03 3.10166E+03 3.92333E-09-4.49909E-08
 -1       124 1.32585E+03-1.57437E+06 4.88114E+03-8.75626E+03-9.50740E-09-1.51304E-08
 -1       125-3.19659E+03-1.58120E+06 6.68096E+03 5.57231E+03 6.37192E-09-2.30939E-08
 -1       191-7.90316E+01 3.86487E+05 8.50581E+00 6.98803E-01-5.83528E-10-7.96717E-10
 -1       192-7.59585E+01 3.86470E+05 2.13086E+01-4.29792E+00-8.84823E-10 1.75969E-08
 -1       193-8.15690E+01 3.86487E+05 3.62920E+01 3.77421E+00-1.01886E-09 9.31686E-09
 -1       194-7.90489E+01 3.86473E+05 8.10040E+01-9.75263E+00-4.86770E-10 1.33759E-08
 -1       195-8.64391E+01 3.86484E+05 1.55098E+02 6.34592E+00-1.47835E-09-9.24956E-09
 -1       251-9.24486E+05 1.77026E+04-4.14355E+04-1.52246E+04-3.60893E-09-1.21765E-07
 -1       252-9.41003E+05-2.04420E+04-2.89634E+04 5.22383E+04 9.50848E-10 2.35927E-08
 -1       253-9.32912E+05 2.74960E+03-1.09967E+04-1.20972E+04 1.20303E-09 1.27740E-07
 -1       254-9.27383E+05-3.23989E+03-5.35221E+03 3.88851E+04-6.02881E-10-2.28359E-07
 -1       255-9.37540E+05 1.32712E+02-3.68073E+03-1.87322E+03-3.32830E-09 1.74230E-08
 -1       256-9.21215E+05-3.31276E+02 9.31809E+02 1.48699E+04 3.62752E-09 6.15730E-08
 -1       257-9.38579E+05-5.31552E+02-1.47561E+03 1.19082E+04 1.97042E-09 8.95503E-08
 -1       258-9.23352E+05 8.21654E+02 2.63598E+03-1.14061E+04-3.83670E-09 5.08974E-08
 -1       259-9.35592E+05-8.73568E+02 1.21776E+03 2.43988E+04-2.87446E-09 1.29274E-07
 -1       260-9.29714E+05 2.76264E+03 5.34257E+03-3.07567E+04 1.06101E-08-2.00080E-07
 -1       261-9.32849E+05-1.98238E+03 8.21293E+03 3.12730E+04 1.32929E-08-1.38857E-07
 -1       262-9.28710E+05 1.11793E+04 2.04372E+04-3.65293E+04-1.03628E-09-4.09709E-08
 -1       263-9.36859E+05-9.05387E+03 3.23506E+04 3.01805E+04-2.08310E-08 1.32943E-07
 -1       264-8.99409E+05 6.36720E+04 8.96781E+04-2.66527E+04 5.20043E-08-5.10272E-08
 -1       265-9.61646E+05-5.46256E+04 1.24704E+05 2.13848E+04-5.04929E-09 7.99191E-08
 -1       266-1.75420E+04-8.20343E+03 4.11548E+04-1.97760E+01 3.81988E-11 6.78876E-08
 -1       267 2.03358E+04 9.56006E+03 2.90895E+04 2.28194E+01 2.37833E-10 4.17350E-08
 -1       268-2.72700E+03-1.35404E+03 1.08123E+04-2.90749E+00-2.86491E-11-1.25242E-07
 -1       269 3.21977E+03 1.62042E+03 7.02794E+03 3.38690E+00-4.92264E-11 5.11981E-08
 -1       270-4.83292E+02-2.66251E+02 3.39249E+03-4.59621E-01-5.77529E-11-1.72977E-07
 -1       271-1.54888E+06-1.95404E+05-1.16269E+05-6.01423E+05-4.03816E-10 1.86650E-07
 -1       272-1.55611E+06-3.05242E+05-7.34692E+04-6.30998E+05 3.37550E-08-5.93154E-08
 -1       273-1.57309E+06-2.20876E+05-2.80278E+04-5.93460E+05 2.02017E-08-1.06691E-07
 -1       274-1.52797E+06-2.74737E+05-1.48401E+04-6.45510E+05 2.28665E-08 2.20917E-07
 -1       275-1.57862E+06-2.20922E+05-6.88894E+03-5.89833E+05-8.73115E-11 1.18364E-07
 -1       276-1.52187E+06-2.75327E+05-3.05374E+03-6.53452E+05-2.04418E-08 8.17113E-08
 -1       277-1.58133E+06-2.18541E+05-1.88554E+03-5.87199E+05-1.95359E-08 1.30531E-07
 -1       278-1.51935E+06-2.78468E+05-8.09696E+02-6.59320E+05-1.75924E-08 1.47043E-07
 -1       279-1.58308E+06-2.16524E+05-9.42161E+02-5.85317E+05-1.51977E-08-1.32422E-07
 -1       280-1.51810E+06-2.80939E+05-1.18224E+03-6.63270E+05-6.30057E-08 3.63319E-08
 -1       281-1.58402E+06-2.15176E+05-2.17797E+03-5.84217E+05-6.32099E-09-2.23383E-07
 -1       282-1.51846E+06-2.83460E+05-5.08159E+03-6.65005E+05-1.22491E-08 1.93811E-08
 -1       283-1.58346E+06-2.13673E+05-9.03802E+03-5.84028E+05 2.61771E-08-1.47920E-08
 -1       284-1.52646E+06-2.95561E+05-2.46352E+04-6.62855E+05-2.19487E-10 6.03613E-08
 -1       285-1.57612E+06-2.04358E+05-3.83801E+04-5.85875E+05-1.41547E-08-8.47049E-08
 -1       301-2.82739E+03-6.34736E+05 1.67709E+05-1.11042E+06-5.90808E-09 1.58470E-08
 -1       302-3.58342E+03-5.88937E+05 1.00960E+05-1.62132E+06 3.31784E-09-6.01503E-08
 -1       303-1.83564E+04-6.26101E+05 5.74044E+04-1.10743E+06 8.66567E-09-3.80460E-08
 -1       304-1.95411E+04-5.95039E+05 5.84071E+04-1.62065E+06-4.22006E-09-9.16625E-08
 -1       305-2.22207E+04-6.15305E+05 7.26395E+04-1.11053E+06 1.67674E-08-8.82283E-08
 -1       306-3.00730E+07-6.21029E+06-8.58943E+06-5.66467E+05-9.86038E-08-9.03383E-08
 -1       307 2.53921E+07 3.21498E+06 5.51087E+06-1.51035E+07-7.98842E-07-3.02680E-08
 -1       308-7.03919E+06-1.03257E+06-4.71128E+05 5.19712E+06-2.86818E-07 4.84462E-07
 -1       309-3.31212E+06 8.70528E+06 2.26860E+06-2.06129E+07 4.70682E-07 1.74256E-07
 -1       310-1.24551E+07-1.91610E+06-1.99739E+06 5.20420E+06-2.50991E-07-3.43542E-07
 -1       311 3.80246E+07 2.74949E+04 7.21928E+06-8.90660E+06 4.88944E-07-1.57161E-07
 -1       312-3.18074E+07-6.70723E+06-8.48416E+06-4.94435E+06-3.16650E-08-2.48532E-07
 -1       313 4.53692E+07 1.47711E+07 1.06222E+07 2.35673E+07-7.29924E-08-3.51953E-07
 -1       314-1.72917E+07-1.76486E+07-7.50356E+06-1.25086E+07 5.41739E-07-3.59141E-08
 -1       315-1.70657E+06 2.95647E+07 5.66164E+06 1.06522E+07-3.23067E-07 2.39816E-08
 -1       316 1.34526E+06-9.84720E+06-4.54120E+05-2.58820E+06-1.23767E-06-2.61498E-07
 -1       317-1.71469E+07 2.23600E+07 2.22509E+06-8.70746E+06 8.40868E-07-7.65955E-07
 -1       318-1.06236E+06-1.26905E+07-2.01237E+06-4.24344E+06-9.31643E-07 1.66183E-07
 -1       319 7.09899E+06 3.17304E+07 6.98597E+06 1.64986E+07-1.88957E-08 2.00089E-07
 -1       320-2.25065E+07-1.75412E+07-9.79860E+06-1.27567E+07 1.75205E-07-4.79631E-08
 -1       336 1.60851E+02-1.78366E+06-1.81748E+04 9.71356E+03-9.52059E-09 1.41808E-08
 -1       337-7.12313E+03-1.78421E+06-2.15559E+04-2.38297E+04-7.87713E-09-3.79987E-09
 -1       338 6.52805E+02-1.78354E+06-3.13387E+04 1.38620E+04-1.26856E-08 5.24597E-09
 -1       339-3.35320E+04-1.80240E+06-6.97199E+04-3.19444E+04-1.02291E-08 1.83791E-08
 -1       340 2.29025E+04-1.76786E+06-1.08595E+05 1.77010E+04-1.39735E-08 3.15631E-08
 -1       406-4.93470E+01 3.86470E+05 6.44505E+02 3.34118E+00-2.03336E-09-1.54760E-08
 -1       407 1.55261E+02 3.86604E+05 1.37731E+03 2.33593E+01-5.33817E-10-5.17957E-09
 -1       408 6.35576E+02 3.86369E+05 2.74627E+03-2.70233E+01-2.53112E-09-2.00453E-09
 -1       409 2.90872E+03 3.87481E+05 6.18982E+03 2.88488E+02-2.73417E-10-1.62736E-08
 -1       410 8.48438E+03 3.85579E+05 1.26332E+04-2.78204E+02-3.09228E-09-1.41372E-08
 -1       521-3.15901E+07-7.65426E+06-1.00215E+07-1.77353E+05-1.12806E-07 4.54602E-08
 -1       522 2.62195E+07 4.21317E+06 5.60965E+06-1.85810E+07-4.34695E-07-2.30037E-07
 -1       523-7.62021E+06-1.34188E+06-4.63285E+05 5.63990E+06 1.25030E-07-3.76967E-07
 -1       524-6.80504E+06 1.17250E+07 2.45024E+06-2.36494E+07 8.60164E-07-6.62600E-07
 -1       525-1.32548E+07-2.53871E+06-2.19300E+06 5.64786E+06 2.98198E-07-3.31958E-07
 -1       526 4.14392E+07-5.76077E+04 7.56896E+06-1.15460E+07 5.30854E-08-2.95811E-07
 -1       527-3.36203E+07-8.38756E+06-9.76678E+06-4.80321E+06 1.50059E-07 1.40761E-07
 -1       528 4.94873E+07 1.64192E+07 1.10667E+07 2.67585E+07 1.84868E-07-5.71599E-08
 -1       529-1.82272E+07-1.98242E+07-8.59214E+06-1.25349E+07 1.16648E-07-3.63216E-07
 -1       530-4.18277E+06 3.42932E+07 5.98337E+06 1.01403E+07-1.54410E-07 5.85220E-07
 -1       531 1.33739E+06-1.09167E+07-4.28263E+05-2.54865E+06-9.13598E-07 4.29747E-07
 -1       532-1.96894E+07 2.43644E+07 2.42792E+06-1.29465E+07 5.76809E-07-7.56903E-07
 -1       533-1.10884E+06-1.38275E+07-2.13836E+06-4.06500E+06-2.53582E-07-1.03627E-06
 -1       534 5.07757E+06 3.67708E+07 7.26144E+06 1.70497E+07-1.42609E-08 7.68749E-07
 -1       535-2.36668E+07-1.98984E+07-1.12193E+07-1.28163E+07 1.09198E-07 4.80679E-07
 -1       536-7.06777E+05-4.72603E+04-4.72026E+04-5.47415E+04-4.24279E-09 5.08307E-08
 -1       537-5.42315E+04 4.52703E+04 8.47730E+04 1.23954E+05-1.15189E-07 7.57077E-08
 -1       538-3.94509E+05 3.27591E+03 3.82122E+03-7.22592E+04 2.64615E-08 1.09290E-07
 -1       539-2.68905E+05 2.94177E+03 2.51175E+04 1.38852E+05 1.85079E-07 1.05963E-07
 -1       540-4.97492E+05-4.38750E+02-2.12765E+04-7.01755E+04 2.67755E-09 8.80866E-08
 -1       541 1.47280E+05 1.70063E+04 1.06555E+05 9.80336E+04-9.37346E-08 6.31039E-08
 -1       542-7.99478E+05-2.01627E+04-8.43264E+04-3.05636E+04 6.95236E-08 3.94966E-08
 -1       543 4.06362E+05 2.73640E+04 1.58190E+05-1.33584E+04 3.81078E-09-2.12267E-08
 -1       544-7.49624E+05-1.65608E+04-7.49349E+04 4.05458E+04-8.74070E-09-4.58907E-08
 -1       545 2.95307E+04 9.49869E+03 7.99297E+04-1.13722E+05 1.62918E-08-6.58456E-08
 -1       546-4.32768E+05 6.10221E+03-1.22452E+04 6.94527E+04 5.66197E-08-8.83388E-08
 -1       547-2.87019E+05-4.65752E+03 1.06137E+04-1.41704E+05-9.57715E-08-1.21257E-07
 -1       548-4.41586E+05 4.72303E+03-2.38948E+04 6.92207E+04-9.17532E-08-9.09063E-08
 -1       549 4.86840E+04 1.61250E+04 6.06382E+04-1.11590E+05-7.84167E-08-4.98310E-08
 -1       550-7.59488E+05-2.21978E+04-1.29073E+05 3.86212E+04 5.73618E-09-3.29273E-08
 -1       551 4.10233E+04-7.56056E+05-1.51085E+04-1.24740E+06-1.03289E-07-2.02272E-08
 -1       552 9.34257E+04-8.00860E+05 1.03847E+04-1.77872E+06-7.17555E-08 3.42843E-08
 -1       553 7.17946E+04-7.97253E+05 3.23486E+04-1.24077E+06-1.20403E-07 3.67145E-08
 -1       554 1.32093E+05-8.16580E+05 8.14226E+04-1.78066E+06-7.48259E-08 2.45927E-08
 -1       555 1.01515E+05-8.20812E+05 1.48567E+05-1.24061E+06-1.23815E-07-1.05738E-08
 -1       556 2.23596E+05-3.83404E+05 2.68956E+04-4.07296E+05-2.25846E-08-1.45519E-10
 -1       557 3.54374E+05-4.87792E+05 1.67413E+04-5.27552E+05-1.39698E-09 8.27276E-09
 -1       558 2.05443E+05-3.76406E+05 2.57335E+03-4.11597E+05-1.49303E-08-6.86123E-09
 -1       559 3.29223E+05-4.88010E+05 2.56325E+03-5.48001E+05 3.06609E-08 7.74162E-09
 -1       560 1.90145E+05-3.66812E+05-1.44969E+03-4.22621E+05 4.71482E-09 5.52973E-10
 -1       561 3.09984E+05-4.80319E+05 1.56917E+02-5.61116E+05-6.83940E-10 2.55877E-08
 -1       562 1.78044E+05-3.59293E+05-1.31502E+03-4.31385E+05-3.20142E-10-2.88856E-09
 -1       563 2.95607E+05-4.74052E+05-3.11880E+01-5.70506E+05-3.73984E-09-2.05200E-08
 -1       564 1.69406E+05-3.53911E+05-5.98829E+02-4.37506E+05-2.77942E-09-2.06801E-08
 -1       565 2.86070E+05-4.69899E+05 2.48665E+01-5.76600E+05 7.21775E-09 8.58745E-09
 -1       566 1.64355E+05-3.50715E+05-2.60215E+02-4.41040E+05-2.67028E-09-2.52876E-08
 -1       567 2.81432E+05-4.67881E+05-3.63029E+02-5.79417E+05 1.67784E-08-1.30967E-10
 -1       568 1.62981E+05-3.49873E+05-1.12696E+03-4.42096E+05 1.73259E-09 3.79441E-09
 -1       569 2.80304E+05-4.67807E+05-2.84646E+03-5.77992E+05-7.88168E-09-3.94357E-09
 -1       570 1.66377E+05-3.53106E+05-6.22167E+03-4.41078E+05 8.69477E-09-1.64528E-09
 -1       571 2.90542E+05 1.05082E+04 1.49904E+04-9.52686E+04 5.91717E-09 1.18798E-08
 -1       572 2.92714E+05 3.96118E+03 7.34651E+03-1.04519E+05-8.22183E-10 5.26416E-09
 -1       573 2.91405E+05 1.24651E+03 3.26429E+03-9.50919E+04-5.85715E-10 2.42835E-10
 -1       574 2.91619E+05 7.28064E+02 1.63702E+03-1.04744E+05-3.88354E-10 1.52886E-09
 -1       575 2.91498E+05 4.48789E+02 7.72630E+02-9.50677E+04-4.50638E-09 1.63345E-08
 -1       576 2.91483E+05 4.60202E+02 3.95587E+02-1.04774E+05-1.06347E-08-2.00434E-08
 -1       577 2.91538E+05 3.90661E+02 1.97482E+02-9.50644E+04-3.61069E-09-3.44789E-09
 -1       578 2.91513E+05 4.22086E+02 1.14088E+02-1.04778E+05-3.51747E-09-3.04863E-09
 -1       579 2.91611E+05 3.53893E+02 7.83665E+01-9.50641E+04-2.77760E-09-1.77406E-08
 -1       580 2.91615E+05 3.70950E+02 9.09730E+01-1.04773E+05-2.98687E-08-8.82483E-09
 -1       581 2.91725E+05 2.95184E+02 1.37421E+02-9.50700E+04-3.36149E-09 1.24264E-08
 -1       582 2.91791E+05 3.33432E+02 2.79421E+02-1.04711E+05 3.23507E-09 1.39853E-08
 -1       583 2.91865E+05 3.37494E+02 5.36301E+02-9.51266E+04-1.16052E-09 1.28052E-08
 -1       584 2.92167E+05 7.75505E+02 1.21362E+03-1.04235E+05 1.80626E-09 5.81917E-09
 -1       585 2.91892E+05 1.79681E+03 2.45750E+03-9.55461E+04 3.52884E-10 1.21872E-09
 -1       586-3.42016E+03 1.16990E+05-2.90960E+03-2.50685E+05-7.36463E-09-1.27040E-08
 -1       587-1.33728E+03 1.16742E+05 7.76298E+02-2.75897E+05-8.82937E-09-1.28233E-08
 -1       588 3.99771E+02 1.16548E+05 4.76447E+03-2.50546E+05-5.28053E-09-5.07862E-09
 -1       589 5.08913E+03 1.19023E+05 1.23531E+04-2.75664E+05-8.75661E-09-9.04038E-09
 -1       590 1.66207E+04 1.15214E+05 2.59115E+04-2.50978E+05-1.06429E-08 5.16957E-09
 -1       591-7.50965E+04-1.59908E+04-2.25456E+04-3.20010E+04 8.75389E-11 1.19462E-08
 -1       592-7.91891E+04-1.95506E+04-1.22125E+04-3.56284E+04 8.78097E-09 3.14874E-08
 -1       593-7.73513E+04-1.43549E+04-5.08345E+03-3.36541E+04 9.59397E-09-8.27140E-09
 -1       594-7.60762E+04-1.62423E+04-2.53524E+03-3.57463E+04 2.52851E-09 1.54868E-08
 -1       595-7.75232E+04-1.43495E+04-1.16393E+03-3.37292E+04-1.71954E-09 3.17450E-08
 -1       596-7.58631E+04-1.60910E+04-5.91473E+02-3.57209E+04 6.87024E-09 1.64197E-08
 -1       597-7.75447E+04-1.43649E+04-3.21620E+02-3.37321E+04 3.82556E-09-6.89892E-09
 -1       598-7.58421E+04-1.60851E+04-2.57712E+02-3.57138E+04-2.94040E-09-2.64962E-08
 -1       599-7.75435E+04-1.43654E+04-3.28158E+02-3.37318E+04-1.90323E-09-2.03918E-08
 -1       600-7.58631E+04-1.60916E+04-6.08781E+02-3.57188E+04 4.55384E-09 1.16214E-08
 -1       601-7.75188E+04-1.43509E+04-1.20056E+03-3.37283E+04 4.92082E-09 1.07491E-08
 -1       602-7.60829E+04-1.62465E+04-2.61627E+03-3.57410E+04-9.05106E-09 1.20264E-08
 -1       603-7.73387E+04-1.43593E+04-5.24659E+03-3.36516E+04-2.49202E-10-2.93994E-09
 -1       604-7.93133E+04-1.96413E+04-1.26035E+04-3.55946E+04 6.71355E-09-2.71939E-10
 -1       605-7.49916E+04-1.60655E+04-2.32677E+04-3.19649E+04 5.15456E-09 2.38088E-08
 -1       606 2.66858E+04-1.43330E+04-2.56943E+04 2.39747E+04-3.36513E-09-5.30531E-09
 -1       607 2.22955E+04-4.68114E+03-1.27957E+04 2.69425E+04-2.24427E-08-8.19136E-09
 -1       608 2.47977E+04-8.44451E+02-5.72819E+03 2.38061E+04-1.87338E-08-6.42990E-09
 -1       609 2.43181E+04-2.89295E+02-2.89373E+03 2.71564E+04-3.12866E-10-7.32643E-09
 -1       610 2.45841E+04-4.09849E+01-1.38063E+03 2.37861E+04-2.09548E-09-3.40378E-10
 -1       611 2.45088E+04-4.12666E+01-6.96102E+02 2.71795E+04-1.13178E-08-2.80806E-09
 -1       612 2.45370E+04-2.72931E+01-3.30907E+02 2.37840E+04-1.09039E-08 1.73327E-09
 -1       613 2.45204E+04-3.71940E+01-1.48253E+02 2.71822E+04-3.00543E-09-1.07748E-08
 -1       614 2.45148E+04-3.37313E+01-3.46810E+01 2.37833E+04-1.08685E-09 1.04872E-08
 -1       615 2.45152E+04-3.57195E+01 6.23392E+01 2.71827E+04-1.93904E-09 1.75078E-08
 -1       616 2.44975E+04-3.06192E+01 1.86749E+02 2.37836E+04 5.50426E-09-1.61322E-09
 -1       617 2.45376E+04 4.06143E+00 4.26001E+02 2.71822E+04 3.01338E-09 1.15438E-09
 -1       618 2.44605E+04 9.21769E+01 8.58647E+02 2.37839E+04-3.07546E-09 6.98105E-09
 -1       619 2.48408E+04 6.67958E+02 1.92814E+03 2.71816E+04-3.20927E-09 7.68114E-09
 -1       620 2.41753E+04 2.12825E+03 3.87550E+03 2.37855E+04 5.13182E-10 1.94668E-08
 -1       621 5.11920E+02 3.01568E+05 3.89155E+03 4.10741E+04 9.15861E-10 2.11276E-09
 -1       622 6.78236E+02 3.02467E+05 3.45209E+03 5.96304E+04 8.68113E-10 9.83709E-09
 -1       623 1.43025E+02 3.01763E+05 4.14619E+03 4.08883E+04 1.22486E-09 5.45515E-09
 -1       624 2.12816E+03 3.03685E+05 8.03615E+03 5.98133E+04 1.33514E-09 1.32384E-08
 -1       625 2.07918E+03 3.00170E+05 1.40420E+04 4.08851E+04 1.21508E-09 1.68468E-08
 -1       626 2.60914E+05 6.14064E+04 5.11788E+03 1.26742E+05 4.14548E-09 1.98152E-08
 -1       627 2.58596E+05 6.28031E+04 2.46627E+03 1.31013E+05-3.89264E-10 1.54014E-08
 -1       628 2.61041E+05 5.90647E+04 1.04305E+03 1.27612E+05-5.69162E-09 1.91417E-08
 -1       629 2.57962E+05 6.21234E+04 5.10523E+02 1.31253E+05-7.41375E-09 1.03651E-08
 -1       630 2.61056E+05 5.89516E+04 2.36925E+02 1.27648E+05-7.00493E-09 6.93865E-09
 -1       631 2.57895E+05 6.20975E+04 1.27638E+02 1.31255E+05 2.75486E-09 1.82708E-08
 -1       632 2.61052E+05 5.89555E+04 8.42374E+01 1.27644E+05 7.73525E-10-1.87999E-08
 -1       633 2.57886E+05 6.20993E+04 9.42207E+01 1.31251E+05-1.30933E-08-1.52431E-08
 -1       634 2.61048E+05 5.89527E+04 1.52600E+02 1.27644E+05-1.08720E-08-1.57570E-10
 -1       635 2.57901E+05 6.20975E+04 3.08993E+02 1.31257E+05-5.95134E-09-6.62203E-09
 -1       636 2.61039E+05 5.89469E+04 6.24117E+02 1.27643E+05 2.42153E-09 1.37575E-08
 -1       637 2.58036E+05 6.21946E+04 1.37235E+03 1.31256E+05 1.13050E-09 3.79623E-09
 -1       638 2.60990E+05 5.92500E+04 2.81968E+03 1.27506E+05 3.44517E-09 3.03953E-09
 -1       639 2.59517E+05 6.42546E+04 6.67150E+03 1.30820E+05 6.47105E-09 5.39262E-09
 -1       640 2.60785E+05 6.54015E+04 1.38445E+04 1.24914E+05 8.28732E-09 3.27896E-09
 -1       656 6.65906E+04-1.70424E+06-1.60745E+05-2.55772E+03 2.47383E-10-1.93911E-08
 -1       657-8.80937E+04-1.77687E+06-1.33168E+05 5.16213E+03-3.02862E-10-2.31667E-08
 -1       658 2.12269E+04-1.72486E+06-8.20156E+04-4.64213E+03-1.74623E-10 9.70205E-09
 -1       659-9.52614E+04-1.78028E+06-1.42588E+05 6.89420E+03-2.40470E-09-1.02103E-08
 -1       660 7.37423E+04-1.70084E+06-1.76940E+05-4.28978E+03-2.34286E-09-7.29557E-10
 -1       661 1.58527E+05 1.65877E+04 1.67144E+04 6.19719E+04-3.31238E-09-1.18962E-09
 -1       662 1.67978E+05 2.89645E+04 1.12643E+04 5.82205E+04-9.59744E-10-5.76256E-09
 -1       663 1.61810E+05 2.19500E+04 3.93955E+03 6.10191E+04-1.95064E-09-3.02316E-09
 -1       664 1.64171E+05 2.26937E+04 2.35667E+03 5.93844E+04 6.50601E-10-1.89925E-09
 -1       665 1.62308E+05 2.26823E+04 9.29691E+02 6.08738E+04-7.58234E-10 1.35961E-09
 -1       666 1.63582E+05 2.18563E+04 5.44203E+02 5.95741E+04 6.42717E-09 1.59530E-08
 -1       667 1.62396E+05 2.27656E+04 2.89251E+02 6.08373E+04 1.45340E-09 4.19709E-09
 -1       668 1.63486E+05 2.17965E+04 2.95180E+02 5.96271E+04-1.00162E-08-2.49471E-08
 -1       669 1.62403E+05 2.27405E+04 4.00002E+02 6.08210E+04-1.84457E-09-1.40687E-10
 -1       670 1.63583E+05 2.20138E+04 8.71356E+02 5.96300E+04-1.00982E-08 2.08778E-08
 -1       671 1.62298E+05 2.25529E+04 1.54728E+03 6.08324E+04-1.28054E-09 4.22887E-09
 -1       672 1.64485E+05 2.35191E+04 3.95876E+03 5.94115E+04 5.39356E-09 1.34744E-08
 -1       673 1.61506E+05 2.12733E+04 6.63429E+03 6.10250E+04 6.63817E-10 9.45784E-09
 -1       674 1.70799E+05 3.41778E+04 1.89727E+04 5.75565E+04-3.44437E-09-1.71578E-08
 -1       675 1.56025E+05 1.21927E+04 2.81621E+04 6.25754E+04-2.42926E-09-1.33659E-08
 -1       676 2.41150E+01-2.95933E+05-1.11362E+03-1.37338E+02 2.72050E-09 1.35755E-08
 -1       677-2.94581E+02-2.96202E+05-2.03812E+03 2.74455E+02 7.92090E-09 3.88118E-09
 -1       678 1.97579E+02-2.95741E+05-3.60290E+03-1.37027E+02 1.22759E-09-1.08999E-08
 -1       679-3.60296E+03-2.98377E+05-8.55899E+03 2.73270E+02 7.20604E-09-1.16085E-08
 -1       680 2.15117E+03-2.93759E+05-1.37942E+04-1.34639E+02 2.73394E-09 4.46562E-10
 -1       771-3.06308E+06-7.46838E+05-1.64942E+05-1.46587E+06-3.25672E-08-2.75322E-08
 -1       772-2.98594E+06-8.35510E+05-8.50278E+04-1.56840E+06-2.41562E-08 1.05938E-08
 -1       773-3.09445E+06-7.22371E+05-4.33677E+04-1.48032E+06-1.40280E-08 1.19617E-08
 -1       774-2.97650E+06-8.17123E+05-1.93434E+04-1.59410E+06 2.48838E-08 2.50293E-09
 -1       775-3.11085E+06-7.10859E+05-1.44838E+04-1.48734E+06-3.46336E-09 5.75528E-09
 -1       776-2.98881E+06-8.14107E+05-5.41378E+03-1.61355E+06-1.06957E-08 4.94765E-09
 -1       777-3.12508E+06-7.00584E+05-6.40445E+03-1.49354E+06 5.23869E-09 3.12866E-09
 -1       778-3.00166E+06-8.11299E+05-1.80965E+03-1.63026E+06 2.32831E-10 8.03630E-09
 -1       779-3.13732E+06-6.91607E+05-3.20190E+03-1.49884E+06-1.89175E-10-8.46194E-09
 -1       780-3.01297E+06-8.08619E+05-5.30498E+02-1.64388E+06-5.09317E-10-2.92857E-09
 -1       781-3.14705E+06-6.84369E+05-1.24389E+03-1.50298E+06-3.42552E-08-7.09770E-09
 -1       782-3.02169E+06-8.06343E+05 4.49223E+02-1.65392E+06-3.39496E-08-7.16909E-09
 -1       783-3.15390E+06-6.79340E+05 6.99385E+02-1.50589E+06-9.21864E-09-1.91681E-08
 -1       784-3.02652E+06-8.04067E+05 2.89701E+03-1.66013E+06-1.86265E-08 1.20917E-09
 -1       785-3.15796E+06-6.76340E+05 5.11434E+03-1.50773E+06-3.52084E-08 9.10768E-09
 -1       786 1.24006E+05-9.78106E+03 2.26295E+04-3.22808E+02-1.43761E-10-4.24643E-09
 -1       787 1.33820E+05 1.13243E+04 1.60094E+04-1.36426E+02 6.17546E-09-1.11843E-08
 -1       788 1.27790E+05-1.53272E+03 5.85474E+03-2.87696E+02 4.00700E-09 1.37441E-08
 -1       789 1.29412E+05 1.77409E+03 3.67541E+03-1.90214E+02-5.03349E-09 9.91753E-09
 -1       790 1.28415E+05-2.38641E+02 1.48815E+03-2.69037E+02-3.58535E-09 1.23472E-08
 -1       791 1.28681E+05 2.76124E+02 8.59595E+02-2.22140E+02-5.07425E-09 4.86767E-09
 -1       792 1.28521E+05-3.58746E+01 3.64412E+02-2.55772E+02-4.18856E-09 2.78435E-09
 -1       793 1.28555E+05 3.79825E+01 1.81997E+02-2.47099E+02-9.77136E-10-2.05897E-08
 -1       794 1.28541E+05-6.49528E-01 4.79593E+01-2.44078E+02 7.38918E-09 4.88027E-09
 -1       795 1.28518E+05-2.69474E+01-5.61468E+01-2.71508E+02-5.31257E-09 1.42128E-08
 -1       796 1.28558E+05 2.90190E+01-1.60021E+02-2.31362E+02 4.29036E-09-2.28061E-08
 -1       797 1.28425E+05-2.16673E+02-4.40080E+02-3.00726E+02 4.85027E-09-1.65667E-08
 -1       798 1.28635E+05 1.88934E+02-7.14909E+02-2.14861E+02 2.56786E-09 2.01088E-08
 -1       799 1.27882E+05-1.39257E+03-1.96700E+03-3.41594E+02 5.98370E-09-1.86434E-08
 -1       800 1.29100E+05 1.20396E+03-2.78376E+03-1.90495E+02-3.48326E-11-1.21991E-08
 -1       801-1.70448E+05-9.98313E+06-1.39100E+06 1.41170E+06 9.22300E-08-5.58030E-08
 -1       802 7.35893E+05 5.92580E+06 2.17561E+06-1.74219E+06 2.59592E-07-3.24872E-08
 -1       803-5.35225E+05-1.42388E+07-1.88567E+06 8.96022E+05 7.77836E-08 2.49602E-08
 -1       804 2.86267E+05 2.37813E+06 1.53294E+06 6.75871E+05-1.22440E-07-9.38480E-08
 -1       805 1.89015E+05-6.44960E+06-2.85575E+05-1.00071E+06-4.96657E-08-6.79302E-08
 -1       806-3.08861E+05-5.97731E+04-2.28514E+04-1.22422E+05 5.20231E-10-6.91352E-09
 -1       807-3.10655E+05-5.60471E+04-1.12267E+04-1.27971E+05 1.70292E-08-1.62574E-08
 -1       808-3.09489E+05-5.15374E+04-4.76271E+03-1.26315E+05-3.93220E-09-1.36097E-08
 -1       809-3.08294E+05-5.28927E+04-2.32885E+03-1.28247E+05-1.49321E-08-7.99616E-09
 -1       810-3.09583E+05-5.12507E+04-1.06744E+03-1.26487E+05 3.16459E-09-5.63409E-09
 -1       811-3.08112E+05-5.27660E+04-5.30859E+02-1.28212E+05 4.44697E-09 2.19870E-09
 -1       812-3.09597E+05-5.12754E+04-2.68564E+02-1.26486E+05-9.65520E-09 1.81308E-09
 -1       813-3.08086E+05-5.27682E+04-1.74677E+02-1.28193E+05-6.12499E-09-9.69521E-09
 -1       814-3.09590E+05-5.12851E+04-1.73327E+02-1.26482E+05 2.04818E-09-1.76674E-08
 -1       815-3.08090E+05-5.27705E+04-2.79458E+02-1.28186E+05 7.89623E-09 4.73119E-09
 -1       816-3.09569E+05-5.12843E+04-5.29795E+02-1.26478E+05 6.23913E-09-7.69251E-09
 -1       817-3.08180E+05-5.28210E+04-1.13705E+03-1.28174E+05-1.13355E-08 1.93759E-08
 -1       818-3.09500E+05-5.14448E+04-2.31922E+03-1.26403E+05-3.94721E-10-1.26556E-09
 -1       819-3.09449E+05-5.42220E+04-5.45694E+03-1.27873E+05 1.40153E-09-1.14164E-09
 -1       820-3.09063E+05-5.55673E+04-1.11069E+04-1.24642E+05-2.36651E-09 5.87761E-09
 -1       821-3.79049E+05 2.08733E+04-4.85920E+04 2.13255E+03 1.39061E-08-3.60160E-10
 -1       822-3.98746E+05-2.41807E+04-3.41472E+04-4.47653E+03 5.10084E-09-1.36606E-08
 -1       823-3.86510E+05 3.29052E+03-1.25507E+04 3.44988E+03-1.26909E-08 1.32463E-08
 -1       824-3.89738E+05-3.79452E+03-7.85556E+03-5.39554E+03 2.12775E-09 1.84286E-08
 -1       825-3.88064E+05 5.11402E+02-3.29001E+03 3.05168E+03 2.11735E-08 1.75887E-08
 -1       826-3.87299E+05-5.67168E+02-1.74279E+03-3.11453E+03 2.80522E-08 6.59676E-09
 -1       827-3.88924E+05 4.64766E+01-1.19165E+03 1.16873E+03 1.07303E-08 2.68309E-09
 -1       828-3.86589E+05-1.31561E+02-5.83601E+02 1.09654E+03-1.41767E-09 1.10285E-09
 -1       829-3.88762E+05 6.56299E+01-1.18037E+03-1.15943E+03 2.57569E-09 7.12268E-09
 -1       830-3.87650E+05-6.22051E+02-1.88127E+03 4.90279E+03-9.55907E-10-1.77079E-09
 -1       831-3.87885E+05 5.54736E+02-3.37156E+03-2.63754E+03-5.55339E-09-2.43081E-08
 -1       832-3.89818E+05-3.96123E+03-8.15806E+03 6.19074E+03-5.25939E-09 2.24555E-08
 -1       833-3.86610E+05 3.41447E+03-1.30544E+04-2.44743E+03-2.79529E-09 1.90339E-08
 -1       834-3.98805E+05-2.50935E+04-3.53688E+04 4.21104E+03-3.53799E-09 1.51531E-08
 -1       835-3.78882E+05 2.16540E+04-5.04610E+04-6.57750E+02 5.47550E-09 1.46611E-08
 -1       836-1.41464E+03 3.70347E+05 2.29177E+04-1.61705E+04-6.94308E-09 1.50931E-08
 -1       837 4.88525E+03 3.77525E+05 1.93882E+04-3.30447E+04-7.85963E-09 5.36056E-09
 -1       838-5.58216E+02 3.72360E+05 1.97479E+04-1.60989E+04-6.18684E-09-9.16407E-09
 -1       839 1.24253E+04 3.83140E+05 3.73509E+04-3.30972E+04-6.78983E-09-4.58948E-09
 -1       840-3.84169E+03 3.64672E+05 5.95582E+04-1.61238E+04-6.01722E-09-9.22746E-09
 -1       856-5.21637E+04 8.02463E+03-2.11466E+04-3.97584E+02 3.26168E-09-1.07930E-08
 -1       857-6.08756E+04-9.42868E+03-1.45571E+04 5.63399E+03 5.63338E-09-7.59792E-09
 -1       858-5.56139E+04 1.12538E+03-5.48704E+03-4.21678E+02 1.67438E-09-3.10843E-09
 -1       859-5.69163E+04-1.32397E+03-3.31117E+03 5.66983E+03-1.31551E-09-2.20627E-08
 -1       860-5.61293E+04 1.57606E+02-1.38770E+03-4.33155E+02-2.28280E-09-1.05351E-08
 -1       861-5.63234E+04-1.88152E+02-7.63365E+02 5.68546E+03 4.55714E-09-3.11595E-08
 -1       862-5.62099E+04 2.13499E+01-3.17252E+02-4.37287E+02-3.11862E-09-1.69933E-09
 -1       863-5.62245E+04-2.18428E+01-1.15409E+02 5.68787E+03-8.14937E-09 8.30060E-09
 -1       864-5.62287E+04-4.91870E+00 4.75530E+01-4.35554E+02-2.79263E-09 9.08713E-10
 -1       865-5.61686E+04 5.97886E+01 2.56027E+02 5.67797E+03-1.37037E-09-2.69222E-09
 -1       866-5.62636E+04-6.02976E+01 5.15789E+02-4.27390E+02-3.32574E-09-2.58520E-08
 -1       867-5.59261E+04 4.97925E+02 1.26945E+03 5.65580E+03 4.08565E-09-6.53415E-09
 -1       868-5.64663E+04-4.35140E+02 2.10942E+03-4.13390E+02-4.12012E-09-5.19424E-09
 -1       869-5.43797E+04 3.62151E+03 5.61663E+03 5.61934E+03 1.76331E-09-3.76749E-08
 -1       870-5.78023E+04-3.09903E+03 8.15100E+03-3.90819E+02-3.68357E-09-2.85672E-09
 -1       871-5.52000E+03-2.13563E+04-1.94955E+04 1.30452E+05-5.67161E-09 9.20409E-09
 -1       872-1.98293E+03-2.58895E+04-8.16356E+03 1.69151E+05-1.14760E-08-8.21728E-10
 -1       873 4.05095E+02-2.36970E+04 5.89163E+02 1.30166E+05-5.65387E-09 6.52176E-09
 -1       874 3.30622E+03-2.12859E+04 9.77997E+03 1.69181E+05-1.15306E-08 2.48228E-08
 -1       875 6.84694E+03-2.60268E+04 2.20635E+04 1.30405E+05-3.85626E-09 1.02673E-08
 -1       876 2.93799E+05 4.95151E+04 1.51010E+04 1.17900E+05 5.81144E-09-1.84764E-08
 -1       877 2.94797E+05 5.26953E+04 8.06454E+03 1.22231E+05 1.25610E-08-1.96371E-09
 -1       878 2.95211E+05 4.78423E+04 3.37864E+03 1.19137E+05 2.13595E-09 1.49755E-08
 -1       879 2.92744E+05 5.06467E+04 1.68345E+03 1.22333E+05 1.00504E-08 2.84967E-08
 -1       880 2.95312E+05 4.78250E+04 7.84132E+02 1.19187E+05 2.67300E-09 1.27175E-08
 -1       881 2.92608E+05 5.05591E+04 4.18762E+02 1.22310E+05-8.48831E-09 3.54134E-09
 -1       882 2.95321E+05 4.78383E+04 2.67938E+02 1.19189E+05-3.48632E-09 5.99925E-10
 -1       883 2.92598E+05 5.05545E+04 2.88109E+02 1.22302E+05-4.52474E-10 9.85727E-09
 -1       884 2.95314E+05 4.78355E+04 4.58371E+02 1.19189E+05 8.58915E-09-8.83597E-09
 -1       885 2.92635E+05 5.05609E+04 9.21616E+02 1.22313E+05-4.14516E-09-5.81326E-09
 -1       886 2.95279E+05 4.78086E+04 1.85749E+03 1.19185E+05 1.74011E-09 6.08907E-10
 -1       887 2.92961E+05 5.07749E+04 4.05744E+03 1.22360E+05 1.05969E-08-7.85803E-09
 -1       888 2.95022E+05 4.78538E+04 8.17586E+03 1.19056E+05 2.13996E-09-9.76524E-09
 -1       889 2.97828E+05 5.58367E+04 1.95306E+04 1.22211E+05-4.47528E-10-1.45519E-10
 -1       890 2.91685E+05 5.18177E+04 3.65804E+04 1.15944E+05-5.36147E-10-8.43283E-09
 -1       891-8.93975E+01-1.62785E+05-1.99686E+03 2.71496E+04-6.84395E-10 1.45417E-08
 -1       892-1.75431E+02-1.63312E+05-2.14453E+03 4.12283E+04 1.44314E-09 2.12656E-08
 -1       893 4.36960E+01-1.62849E+05-3.03626E+03 2.71570E+04-2.60320E-09 2.10503E-09
 -1       894-1.51023E+03-1.64459E+05-6.28382E+03 4.10757E+04 4.76984E-09 6.91216E-09
 -1       895-1.19939E+03-1.61540E+05-1.10657E+04 2.73040E+04 8.07972E-10-1.11741E-08
 -1       956-3.77264E+05-5.45100E+03-1.34565E+04 3.08722E+04 9.14406E-09-2.32080E-09
 -1       957-3.79904E+05-1.92276E+03-6.90701E+03 3.71003E+04 1.90266E-09 1.22213E-08
 -1       958-3.78473E+05-2.40781E+02-3.11252E+03 3.07044E+04-5.27598E-09-9.40872E-10
 -1       959-3.78669E+05-1.36033E+02-1.58930E+03 3.72960E+04 8.20364E-10 2.08338E-08
 -1       960-3.78591E+05-4.46013E+01-7.75019E+02 3.06871E+04-1.71713E-09 1.45471E-08
 -1       961-3.78589E+05-6.29687E+01-4.10904E+02 3.73164E+04 4.45220E-09-3.05690E-08
 -1       962-3.78619E+05-4.58189E+01-2.35249E+02 3.06842E+04-3.88718E-09-4.10660E-09
 -1       963-3.78590E+05-5.87701E+01-1.88841E+02 3.73201E+04-1.15946E-08 1.93199E-09
 -1       964-3.78624E+05-4.24609E+01-2.29640E+02 3.06834E+04-1.00019E-08-1.08721E-08
 -1       965-3.78602E+05-5.58089E+01-3.97179E+02 3.73194E+04-6.06036E-09 1.07673E-08
 -1       966-3.78608E+05-3.46220E+01-7.46288E+02 3.06849E+04 4.00496E-09-1.52556E-08
 -1       967-3.78691E+05-1.19368E+02-1.53062E+03 3.73050E+04 2.35309E-09-3.91969E-09
 -1       968-3.78504E+05-2.17152E+02-2.99641E+03 3.06976E+04 3.91492E-09-6.34634E-09
 -1       969-3.79892E+05-1.83451E+03-6.65194E+03 3.71565E+04-3.92674E-09-2.07692E-09
 -1       970-3.77347E+05-5.23099E+03-1.29584E+04 3.08249E+04-4.06453E-09 1.10849E-08
 -1       971-3.45422E+05-1.72749E+03-9.31041E+03 1.53782E+04-3.88354E-10-6.40484E-09
 -1       972-3.47663E+05-1.27174E+03-5.07035E+03 2.12683E+04-5.75801E-09 2.84940E-08
 -1       973-3.46459E+05-6.19649E+01-2.27106E+03 1.52571E+04 3.27418E-11 3.19869E-09
 -1       974-3.46594E+05-8.09821E+01-1.17724E+03 2.14054E+04-4.40423E-09-2.46905E-08
 -1       975-3.46541E+05-1.70871E+01-5.88930E+02 1.52447E+04-3.89127E-09 6.91443E-09
 -1       976-3.46533E+05-3.11353E+01-3.40618E+02 2.14212E+04 2.69210E-09 2.67028E-09
 -1       977-3.46558E+05-1.63407E+01-2.48732E+02 1.52414E+04-7.10065E-09-1.36116E-08
 -1       978-3.46538E+05-2.49095E+01-2.93138E+02 2.14260E+04-7.71752E-09 8.51844E-09
 -1       979-3.46558E+05-7.86129E+00-4.72759E+02 1.52399E+04-4.99620E-09 1.83736E-08
 -1       980-3.46574E+05-2.18477E+01-9.13953E+02 2.14270E+04-3.41504E-09 7.52652E-09
 -1       981-3.46528E+05 1.49837E+01-1.77070E+03 1.52404E+04 2.13572E-09-6.41853E-09
 -1       982-3.46817E+05-1.52683E+02-3.66033E+03 2.14204E+04-3.96096E-09 6.49569E-09
 -1       983-3.46305E+05-9.83984E+01-7.11221E+03 1.52465E+04-4.34147E-09 2.91266E-09
 -1       984-3.50238E+05-3.86718E+03-1.59276E+04 2.13347E+04 4.18368E-10-7.92181E-09
 -1       985-3.43085E+05-5.30267E+03-2.92479E+04 1.53179E+04-3.94220E-09 2.08274E-09
 -3
    1PSTEP                        47          24           1          
  100CL  124 6.63133E-01         409                     0   24           1
 -4  DISP        4    1
 -5  D1          1    2    1    0
 -5  D2          1    2    2    0
 -5  D3          1    2    3    0
 -5  ALL         1    2    0    0    1ALL
 -1         1 2.70682E-03 0.00000E+00 0.00000E+00
 -1         2 1.37932E-03 4.29334E-28 0.00000E+00
 -1         3 3.39260E-04-5.41073E-28 1.32349E-23
 -1         5 1.77232E-04-1.66134E-28 1.65436E-24
 -1         8 2.69560E-03-4.12457E-07 0.00000E+00
 -1         9 2.68897E-03-1.80614E-04 0.00000E+00
 -1        10 3.09286E-04-3.41174E-06 6.61744E-24
 -1        12 1.79082E-04 8.09858E-07-1.24077E-24
 -1        15 2.68271E-03-4.37273E-07 0.00000E+00
 -1        16 2.75123E-03-1.82379E-04 0.00000E+00
 -1        17 2.11694E-04-7.92386E-06 0.00000E+00
 -1        18 1.83039E-04 3.44654E-05 0.00000E+00
 -1        19 1.84633E-04 1.61329E-06 0.00000E+00
 -1        20 1.84773E-04-9.91412E-06 0.00000E+00
 -1        21 1.83879E-04-2.54885E-05 0.00000E+00
 -1        24 3.06831E-05-1.21588E-05 0.00000E+00
 -1        25 1.93839E-04 3.46915E-05 0.00000E+00
 -1        26 1.94519E-04 2.23397E-06 0.00000E+00
 -1        27 1.92317E-04-1.34746E-05 0.00000E+00
 -1        28 1.92002E-04-2.61107E-05 0.00000E+00
 -1        32 0.00000E+00 0.00000E+00 0.00000E+00
 -1        33 2.03402E-04 2.98839E-06 0.00000E+00
 -1        34 2.01283E-04-1.35309E-05 0.00000E+00
 -1        35 1.99350E-04-2.64533E-05 0.00000E+00
 -1        51 2.70607E-03-8.59558E-08 3.30872E-24
 -1        52 2.70469E-03-1.53642E-07 0.00000E+00
 -1        53 2.70283E-03-2.17912E-07 0.00000E+00
 -1        54 2.70060E-03-2.81002E-07-1.65436E-24
 -1        55 2.69815E-03-3.44667E-07 0.00000E+00
 -1        56 2.69962E-03 7.29351E-06-5.29396E-23
 -1        57 2.68597E-03 3.05388E-05 0.00000E+00
 -1        58 2.66791E-03 6.46658E-05 0.00000E+00
 -1        59 2.64783E-03 1.03555E-04 0.00000E+00
 -1        60 2.62866E-03 1.40273E-04 0.00000E+00
 -1        61 2.61316E-03 1.68062E-04 5.29396E-23
 -1        62 2.60328E-03 1.81762E-04 0.00000E+00
 -1        63 2.60026E-03 1.77464E-04 5.29396E-23
 -1        64 2.60398E-03 1.54559E-04 1.05879E-22
 -1        65 2.61369E-03 1.14180E-04 0.00000E+00
 -1        66 2.62767E-03 6.07572E-05 0.00000E+00
 -1        67 2.64398E-03-1.33597E-08 0.00000E+00
 -1        68 2.66036E-03-6.10225E-05 0.00000E+00
 -1        69 2.67460E-03-1.15131E-04 5.29396E-23
 -1        70 2.68467E-03-1.56532E-04 5.29396E-23
 -1        86 1.46164E-03-5.77129E-06 0.00000E+00
 -1        87 1.70013E-03-3.60112E-05-2.64698E-23
 -1        88 2.02077E-03-8.78857E-05-2.64698E-23
 -1        89 2.34554E-03-1.41130E-04 1.32349E-23
 -1        90 2.59409E-03-1.73705E-04 5.29396E-23
 -1       121 3.38418E-04-5.52863E-07 1.32349E-23
 -1       122 3.35896E-04-1.10846E-06 0.00000E+00
 -1       123 3.31703E-04-1.66945E-06 0.00000E+00
 -1       124 3.25855E-04-2.23860E-06-6.61744E-24
 -1       125 3.18373E-04-2.81814E-06 0.00000E+00
 -1       191 1.77283E-04 1.35040E-07 8.27181E-25
 -1       192 1.77437E-04 2.70069E-07-8.27181E-25
 -1       193 1.77694E-04 4.05078E-07-2.48154E-24
 -1       194 1.78054E-04 5.40054E-07 8.27181E-25
 -1       195 1.78517E-04 6.74985E-07 8.27181E-25
 -1       251 2.69529E-03 1.80120E-06 0.00000E+00
 -1       252 2.69498E-03 4.05289E-06 0.00000E+00
 -1       253 2.69466E-03 5.34576E-06 6.61744E-24
 -1       254 2.69435E-03 4.69521E-06 3.30872E-24
 -1       255 2.69403E-03 1.41916E-06-6.61744E-24
 -1       256 2.69369E-03-5.13069E-06 0.00000E+00
 -1       257 2.69333E-03-1.50933E-05 1.32349E-23
 -1       258 2.69293E-03-2.85637E-05 0.00000E+00
 -1       259 2.69249E-03-4.50918E-05 1.32349E-23
 -1       260 2.69200E-03-6.41876E-05 0.00000E+00
 -1       261 2.69147E-03-8.49617E-05 0.00000E+00
 -1       262 2.69094E-03-1.06504E-04-6.61744E-24
 -1       263 2.69040E-03-1.27784E-04 1.32349E-23
 -1       264 2.68989E-03-1.47774E-04 0.00000E+00
 -1       265 2.68942E-03-1.65651E-04 0.00000E+00
 -1       266 2.69345E-03-4.22347E-07 0.00000E+00
 -1       267 2.69130E-03-4.25782E-07 8.27181E-25
 -1       268 2.68915E-03-4.29626E-07 0.00000E+00
 -1       269 2.68701E-03-4.32258E-07 2.06795E-25
 -1       270 2.68486E-03-4.34862E-07-2.06795E-25
 -1       271 2.69468E-03 2.27362E-07 0.00000E+00
 -1       272 2.69466E-03-1.60731E-06 0.00000E+00
 -1       273 2.69551E-03-5.77432E-06-1.32349E-23
 -1       274 2.69717E-03-1.21203E-05 0.00000E+00
 -1       275 2.69956E-03-2.04717E-05-2.64698E-23
 -1       276 2.70261E-03-3.06403E-05 0.00000E+00
 -1       277 2.70625E-03-4.24218E-05 0.00000E+00
 -1       278 2.71039E-03-5.55996E-05-1.32349E-23
 -1       279 2.71495E-03-6.99454E-05 0.00000E+00
 -1       280 2.71985E-03-8.52213E-05 0.00000E+00
 -1       281 2.72500E-03-1.01182E-04 2.64698E-23
 -1       282 2.73030E-03-1.17575E-04 0.00000E+00
 -1       283 2.73566E-03-1.34148E-04-1.32349E-23
 -1       284 2.74100E-03-1.50643E-04 0.00000E+00
 -1       285 2.74621E-03-1.66804E-04 1.32349E-23
 -1       301 2.70029E-03-1.80941E-04 1.32349E-23
 -1       302 2.71000E-03-1.81223E-04-3.30872E-24
 -1       303 2.71903E-03-1.81496E-04 1.32349E-23
 -1       304 2.72829E-03-1.81769E-04 6.61744E-24
 -1       305 2.73872E-03-1.82056E-04 0.00000E+00
 -1       306 2.72673E-03-3.34572E-04 0.00000E+00
 -1       307 2.79062E-03-7.47953E-04-5.29396E-23
 -1       308 2.83740E-03-1.35274E-03-1.05879E-22
 -1       309 2.86131E-03-2.05306E-03 5.29396E-23
 -1       310 2.89257E-03-2.72328E-03 1.05879E-22
 -1       311 2.95198E-03-3.24036E-03 5.29396E-23
 -1       312 3.00995E-03-3.52365E-03 0.00000E+00
 -1       313 3.00578E-03-3.53509E-03 0.00000E+00
 -1       314 2.86570E-03-3.28656E-03 0.00000E+00
 -1       315 2.54874E-03-2.84233E-03 0.00000E+00
 -1       316 2.07304E-03-2.27898E-03 0.00000E+00
 -1       317 1.50431E-03-1.66588E-03-5.29396E-23
 -1       318 9.56687E-04-1.06374E-03 0.00000E+00
 -1       319 5.38063E-04-5.37610E-04 0.00000E+00
 -1       320 2.92263E-04-1.61540E-04 0.00000E+00
 -1       336 2.98284E-04-4.09238E-06 0.00000E+00
 -1       337 2.85073E-04-4.79980E-06 6.61744E-24
 -1       338 2.69721E-04-5.53608E-06 0.00000E+00
 -1       339 2.52310E-04-6.30235E-06 0.00000E+00
 -1       340 2.32933E-04-7.10353E-06 1.32349E-23
 -1       406 1.79750E-04 9.44654E-07 8.27181E-25
 -1       407 1.80521E-04 1.07933E-06-1.65436E-24
 -1       408 1.81395E-04 1.21385E-06 2.48154E-24
 -1       409 1.82372E-04 1.34803E-06 1.65436E-24
 -1       410 1.83452E-04 1.48159E-06-1.24077E-24
 -1       521 2.78959E-03-3.45618E-04-1.05879E-22
 -1       522 2.85172E-03-7.79159E-04 0.00000E+00
 -1       523 2.89211E-03-1.41158E-03 0.00000E+00
 -1       524 2.90686E-03-2.14031E-03 5.29396E-23
 -1       525 2.93027E-03-2.83691E-03 0.00000E+00
 -1       526 2.98614E-03-3.37587E-03 0.00000E+00
 -1       527 3.04367E-03-3.66969E-03 2.11758E-22
 -1       528 3.03722E-03-3.67939E-03 0.00000E+00
 -1       529 2.88525E-03-3.41682E-03-2.11758E-22
 -1       530 2.54453E-03-2.95414E-03 5.29396E-23
 -1       531 2.03402E-03-2.37170E-03 1.05879E-22
 -1       532 1.42579E-03-1.74145E-03 0.00000E+00
 -1       533 8.39326E-04-1.12153E-03 0.00000E+00
 -1       534 3.87609E-04-5.74642E-04 5.29396E-23
 -1       535 1.20712E-04-1.79142E-04 0.00000E+00
 -1       536 2.10936E-04 2.70633E-05 0.00000E+00
 -1       537 2.09012E-04 8.76131E-05 0.00000E+00
 -1       538 2.06038E-04 1.64444E-04 0.00000E+00
 -1       539 2.02529E-04 2.48188E-04 1.65436E-24
 -1       540 1.99371E-04 3.27324E-04 0.00000E+00
 -1       541 1.97319E-04 3.90348E-04-1.65436E-24
 -1       542 1.96372E-04 4.30496E-04 3.30872E-24
 -1       543 1.96147E-04 4.41153E-04 1.65436E-24
 -1       544 1.95824E-04 4.23091E-04 3.30872E-24
 -1       545 1.94648E-04 3.77306E-04 0.00000E+00
 -1       546 1.92457E-04 3.11938E-04 0.00000E+00
 -1       547 1.89489E-04 2.35247E-04 0.00000E+00
 -1       548 1.86549E-04 1.58930E-04-3.30872E-24
 -1       549 1.84428E-04 9.46852E-05-1.65436E-24
 -1       550 1.83326E-04 5.05575E-05-1.65436E-24
 -1       551 1.86455E-04-8.49517E-06 0.00000E+00
 -1       552 1.57975E-04-9.14684E-06 0.00000E+00
 -1       553 1.27199E-04-9.86068E-06 9.92617E-24
 -1       554 9.50853E-05-1.06155E-05-3.30872E-24
 -1       555 6.25950E-05-1.13839E-05-1.32349E-23
 -1       556 2.04031E-04 1.16687E-05 0.00000E+00
 -1       557 1.97839E-04 2.75614E-05 0.00000E+00
 -1       558 1.92983E-04 4.00424E-05 0.00000E+00
 -1       559 1.89331E-04 4.94223E-05 0.00000E+00
 -1       560 1.86752E-04 5.60122E-05 0.00000E+00
 -1       561 1.85118E-04 6.01258E-05 0.00000E+00
 -1       562 1.84304E-04 6.20778E-05 0.00000E+00
 -1       563 1.84186E-04 6.21842E-05 0.00000E+00
 -1       564 1.84641E-04 6.07615E-05 0.00000E+00
 -1       565 1.85549E-04 5.81271E-05 0.00000E+00
 -1       566 1.86790E-04 5.45990E-05 0.00000E+00
 -1       567 1.88245E-04 5.04954E-05 0.00000E+00
 -1       568 1.89795E-04 4.61348E-05 0.00000E+00
 -1       569 1.91323E-04 4.18357E-05 0.00000E+00
 -1       570 1.92709E-04 3.79167E-05 0.00000E+00
 -1       571 1.83136E-04 3.23340E-05-2.48154E-24
 -1       572 1.83235E-04 3.01368E-05 8.27181E-25
 -1       573 1.83334E-04 2.78894E-05 1.65436E-24
 -1       574 1.83433E-04 2.56084E-05 1.65436E-24
 -1       575 1.83533E-04 2.33101E-05 0.00000E+00
 -1       576 1.83632E-04 2.10110E-05-1.65436E-24
 -1       577 1.83732E-04 1.87278E-05-6.61744E-24
 -1       578 1.83831E-04 1.64768E-05 0.00000E+00
 -1       579 1.83931E-04 1.42748E-05-6.61744E-24
 -1       580 1.84031E-04 1.21381E-05 6.61744E-24
 -1       581 1.84131E-04 1.00834E-05 0.00000E+00
 -1       582 1.84231E-04 8.12710E-06-3.30872E-24
 -1       583 1.84332E-04 6.28582E-06 0.00000E+00
 -1       584 1.84432E-04 4.57587E-06 0.00000E+00
 -1       585 1.84533E-04 3.01342E-06 0.00000E+00
 -1       586 1.84798E-04 3.45052E-05 0.00000E+00
 -1       587 1.86516E-04 3.45445E-05-4.13590E-25
 -1       588 1.88236E-04 3.45834E-05-8.27181E-25
 -1       589 1.90001E-04 3.46216E-05 0.00000E+00
 -1       590 1.91854E-04 3.46585E-05 0.00000E+00
 -1       591 1.83770E-04 3.24278E-05 1.03398E-25
 -1       592 1.84503E-04 3.03703E-05 2.06795E-25
 -1       593 1.85242E-04 2.82989E-05-8.27181E-25
 -1       594 1.85984E-04 2.62180E-05 4.13590E-25
 -1       595 1.86727E-04 2.41326E-05-8.27181E-25
 -1       596 1.87470E-04 2.20474E-05 0.00000E+00
 -1       597 1.88211E-04 1.99669E-05 8.27181E-25
 -1       598 1.88948E-04 1.78960E-05 0.00000E+00
 -1       599 1.89681E-04 1.58392E-05 8.27181E-25
 -1       600 1.90406E-04 1.38013E-05 0.00000E+00
 -1       601 1.91123E-04 1.17870E-05 0.00000E+00
 -1       602 1.91829E-04 9.80088E-06 0.00000E+00
 -1       603 1.92523E-04 7.84768E-06-4.13590E-25
 -1       604 1.93203E-04 5.93220E-06 1.29247E-25
 -1       605 1.93868E-04 4.05901E-06-4.13590E-25
 -1       606 1.84646E-04 4.46640E-07 0.00000E+00
 -1       607 1.84656E-04-6.34262E-07 0.00000E+00
 -1       608 1.84665E-04-1.63445E-06 0.00000E+00
 -1       609 1.84673E-04-2.55961E-06 0.00000E+00
 -1       610 1.84682E-04-3.41546E-06 0.00000E+00
 -1       611 1.84690E-04-4.20779E-06 0.00000E+00
 -1       612 1.84698E-04-4.94240E-06 0.00000E+00
 -1       613 1.84707E-04-5.62510E-06 0.00000E+00
 -1       614 1.84715E-04-6.26168E-06 0.00000E+00
 -1       615 1.84723E-04-6.85794E-06 0.00000E+00
 -1       616 1.84732E-04-7.41971E-06 0.00000E+00
 -1       617 1.84740E-04-7.95278E-06 0.00000E+00
 -1       618 1.84748E-04-8.46295E-06-8.27181E-25
 -1       619 1.84757E-04-8.95603E-06-2.06795E-25
 -1       620 1.84765E-04-9.43782E-06 0.00000E+00
 -1       621 1.85994E-04 1.71730E-06 3.30872E-24
 -1       622 1.87515E-04 1.82156E-06-8.27181E-25
 -1       623 1.89161E-04 1.92561E-06 0.00000E+00
 -1       624 1.90900E-04 2.02933E-06-8.27181E-25
 -1       625 1.92697E-04 2.13275E-06 0.00000E+00
 -1       626 1.85183E-04 4.82774E-07-3.30872E-24
 -1       627 1.85710E-04-5.84795E-07 0.00000E+00
 -1       628 1.86216E-04-1.59727E-06 0.00000E+00
 -1       629 1.86705E-04-2.56281E-06 0.00000E+00
 -1       630 1.87180E-04-3.48961E-06 0.00000E+00
 -1       631 1.87643E-04-4.38588E-06 1.65436E-24
 -1       632 1.88098E-04-5.25980E-06-3.30872E-24
 -1       633 1.88548E-04-6.11960E-06 1.65436E-24
 -1       634 1.88995E-04-6.97348E-06 3.30872E-24
 -1       635 1.89443E-04-7.82963E-06 1.65436E-24
 -1       636 1.89895E-04-8.69629E-06 0.00000E+00
 -1       637 1.90354E-04-9.58165E-06 0.00000E+00
 -1       638 1.90823E-04-1.04939E-05 1.65436E-24
 -1       639 1.91305E-04-1.14413E-05-8.27181E-25
 -1       640 1.91803E-04-1.24321E-05-3.30872E-24
 -1       656 1.85482E-04-1.04928E-05-6.61744E-24
 -1       657 1.86610E-04-1.10950E-05 6.61744E-24
 -1       658 1.88019E-04-1.16958E-05 1.32349E-23
 -1       659 1.89563E-04-1.22963E-05 0.00000E+00
 -1       660 1.91057E-04-1.28986E-05 0.00000E+00
 -1       661 1.85038E-04-1.04356E-05-8.27181E-25
 -1       662 1.85341E-04-1.10489E-05 0.00000E+00
 -1       663 1.85676E-04-1.17490E-05-1.65436E-24
 -1       664 1.86042E-04-1.25293E-05 0.00000E+00
 -1       665 1.86436E-04-1.33840E-05 1.65436E-24
 -1       666 1.86855E-04-1.43071E-05 0.00000E+00
 -1       667 1.87298E-04-1.52929E-05 0.00000E+00
 -1       668 1.87762E-04-1.63360E-05 0.00000E+00
 -1       669 1.88246E-04-1.74307E-05 1.65436E-24
 -1       670 1.88747E-04-1.85719E-05 0.00000E+00
 -1       671 1.89263E-04-1.97544E-05 0.00000E+00
 -1       672 1.89793E-04-2.09729E-05 0.00000E+00
 -1       673 1.90334E-04-2.22225E-05 0.00000E+00
 -1       674 1.90884E-04-2.34985E-05 0.00000E+00
 -1       675 1.91443E-04-2.47956E-05 0.00000E+00
 -1       676 1.85238E-04-2.55928E-05-3.30872E-24
 -1       677 1.86596E-04-2.56971E-05 0.00000E+00
 -1       678 1.87952E-04-2.58013E-05 0.00000E+00
 -1       679 1.89305E-04-2.59052E-05 0.00000E+00
 -1       680 1.90656E-04-2.60091E-05 0.00000E+00
 -1       771 1.87260E-05 1.45806E-05 0.00000E+00
 -1       772 8.66579E-06 3.65438E-05 0.00000E+00
 -1       773 4.11760E-07 5.39611E-05-5.29396E-23
 -1       774-6.16047E-06 6.70904E-05-2.64698E-23
 -1       775-1.11725E-05 7.62000E-05 5.29396E-23
 -1       776-1.47510E-05 8.15751E-05 2.64698E-23
 -1       777-1.70223E-05 8.35109E-05 0.00000E+00
 -1       778-1.81152E-05 8.23164E-05-2.64698E-23
 -1       779-1.81582E-05 7.83092E-05 5.29396E-23
 -1       780-1.72814E-05 7.18183E-05 2.64698E-23
 -1       781-1.56143E-05 6.31795E-05 0.00000E+00
 -1       782-1.32879E-05 5.27376E-05 0.00000E+00
 -1       783-1.04322E-05 4.08417E-05 0.00000E+00
 -1       784-7.17846E-06 2.78473E-05-2.64698E-23
 -1       785-3.65704E-06 1.41131E-05-5.29396E-23
 -1       786 1.93877E-04 3.24356E-05 1.29247E-26
 -1       787 1.93919E-04 3.02297E-05 0.00000E+00
 -1       788 1.93960E-04 2.80654E-05 8.27181E-25
 -1       789 1.94003E-04 2.59346E-05-8.27181E-25
 -1       790 1.94045E-04 2.38326E-05 1.65436E-24
 -1       791 1.94088E-04 2.17547E-05 8.27181E-25
 -1       792 1.94131E-04 1.96986E-05-1.65436E-24
 -1       793 1.94174E-04 1.76622E-05 8.27181E-25
 -1       794 1.94217E-04 1.56452E-05 0.00000E+00
 -1       795 1.94260E-04 1.36476E-05 0.00000E+00
 -1       796 1.94303E-04 1.16712E-05-1.65436E-24
 -1       797 1.94346E-04 9.71790E-06 0.00000E+00
 -1       798 1.94389E-04 7.79190E-06-1.65436E-24
 -1       799 1.94432E-04 5.89755E-06 0.00000E+00
 -1       800 1.94476E-04 4.04236E-06 0.00000E+00
 -1       801 1.48007E-04 3.11883E-05-2.64698E-23
 -1       802 9.43574E-06 1.94558E-05-2.64698E-23
 -1       803-1.08922E-04 9.82629E-06 5.29396E-23
 -1       804-9.65401E-05 6.83968E-06-2.64698E-23
 -1       805-3.18857E-05 2.68685E-06 0.00000E+00
 -1       806 1.94569E-04 3.23668E-05 0.00000E+00
 -1       807 1.95286E-04 3.00681E-05 0.00000E+00
 -1       808 1.95990E-04 2.78008E-05 3.30872E-24
 -1       809 1.96681E-04 2.55689E-05 1.65436E-24
 -1       810 1.97357E-04 2.33764E-05 3.30872E-24
 -1       811 1.98016E-04 2.12274E-05 0.00000E+00
 -1       812 1.98658E-04 1.91257E-05 0.00000E+00
 -1       813 1.99281E-04 1.70753E-05 0.00000E+00
 -1       814 1.99883E-04 1.50801E-05 0.00000E+00
 -1       815 2.00463E-04 1.31441E-05 8.27181E-25
 -1       816 2.01019E-04 1.12711E-05 0.00000E+00
 -1       817 2.01551E-04 9.46513E-06 8.27181E-25
 -1       818 2.02056E-04 7.72999E-06-1.65436E-24
 -1       819 2.02534E-04 6.06960E-06-8.27181E-25
 -1       820 2.02982E-04 4.48780E-06-1.65436E-24
 -1       821 1.94390E-04-1.35736E-07-1.65436E-24
 -1       822 1.94250E-04-3.66938E-06 1.65436E-24
 -1       823 1.94107E-04-7.93591E-06 0.00000E+00
 -1       824 1.93962E-04-1.24997E-05-1.65436E-24
 -1       825 1.93818E-04-1.68447E-05 0.00000E+00
 -1       826 1.93676E-04-2.04561E-05 0.00000E+00
 -1       827 1.93537E-04-2.30192E-05 3.30872E-24
 -1       828 1.93400E-04-2.42253E-05 0.00000E+00
 -1       829 1.93265E-04-2.41356E-05 3.30872E-24
 -1       830 1.93128E-04-2.28189E-05 1.65436E-24
 -1       831 1.92990E-04-2.06783E-05 3.30872E-24
 -1       832 1.92852E-04-1.81219E-05 0.00000E+00
 -1       833 1.92714E-04-1.56712E-05-3.30872E-24
 -1       834 1.92578E-04-1.38470E-05 0.00000E+00
 -1       835 1.92444E-04-1.29999E-05 0.00000E+00
 -1       836 1.96213E-04 2.35907E-06-3.30872E-24
 -1       837 1.97778E-04 2.48732E-06 1.65436E-24
 -1       838 1.99249E-04 2.61551E-06-3.30872E-24
 -1       839 2.00655E-04 2.74300E-06-8.27181E-25
 -1       840 2.02029E-04 2.87034E-06 0.00000E+00
 -1       856 1.92301E-04-1.45395E-05-8.27181E-25
 -1       857 1.92282E-04-1.54686E-05 0.00000E+00
 -1       858 1.92263E-04-1.62831E-05 0.00000E+00
 -1       859 1.92243E-04-1.70040E-05 0.00000E+00
 -1       860 1.92224E-04-1.76527E-05 0.00000E+00
 -1       861 1.92204E-04-1.82503E-05 2.06795E-25
 -1       862 1.92184E-04-1.88183E-05 0.00000E+00
 -1       863 1.92164E-04-1.93780E-05 4.13590E-25
 -1       864 1.92145E-04-1.99506E-05 8.27181E-25
 -1       865 1.92125E-04-2.05577E-05 0.00000E+00
 -1       866 1.92105E-04-2.12203E-05 8.27181E-25
 -1       867 1.92085E-04-2.19599E-05 0.00000E+00
 -1       868 1.92065E-04-2.27977E-05 0.00000E+00
 -1       869 1.92045E-04-2.37547E-05-4.13590E-25
 -1       870 1.92024E-04-2.48521E-05 8.27181E-25
 -1       871 1.93670E-04-1.34795E-05-8.27181E-25
 -1       872 1.95170E-04-1.34879E-05 0.00000E+00
 -1       873 1.96750E-04-1.34969E-05 0.00000E+00
 -1       874 1.98341E-04-1.35067E-05 5.16988E-26
 -1       875 1.99874E-04-1.35171E-05-8.27181E-25
 -1       876 1.92844E-04-1.45249E-05 0.00000E+00
 -1       877 1.93348E-04-1.55084E-05-1.65436E-24
 -1       878 1.93831E-04-1.64330E-05 3.30872E-24
 -1       879 1.94294E-04-1.73062E-05 0.00000E+00
 -1       880 1.94742E-04-1.81353E-05-3.30872E-24
 -1       881 1.95175E-04-1.89277E-05 0.00000E+00
 -1       882 1.95598E-04-1.96908E-05 0.00000E+00
 -1       883 1.96012E-04-2.04319E-05 0.00000E+00
 -1       884 1.96421E-04-2.11584E-05 0.00000E+00
 -1       885 1.96827E-04-2.18775E-05 0.00000E+00
 -1       886 1.97234E-04-2.25968E-05 0.00000E+00
 -1       887 1.97642E-04-2.33233E-05 0.00000E+00
 -1       888 1.98056E-04-2.40647E-05-3.30872E-24
 -1       889 1.98478E-04-2.48283E-05 0.00000E+00
 -1       890 1.98910E-04-2.56214E-05 0.00000E+00
 -1       891 1.93369E-04-2.61683E-05-1.65436E-24
 -1       892 1.94713E-04-2.62260E-05 0.00000E+00
 -1       893 1.96007E-04-2.62836E-05 0.00000E+00
 -1       894 1.97229E-04-2.63410E-05-4.13590E-25
 -1       895 1.98351E-04-2.63981E-05-4.13590E-25
 -1       956 2.03272E-04 1.66381E-06 3.30872E-24
 -1       957 2.03139E-04 4.30888E-07 8.27181E-25
 -1       958 2.03007E-04-7.21128E-07 0.00000E+00
 -1       959 2.02874E-04-1.80359E-06 0.00000E+00
 -1       960 2.02741E-04-2.82790E-06-3.30872E-24
 -1       961 2.02608E-04-3.80550E-06 0.00000E+00
 -1       962 2.02475E-04-4.74780E-06 3.30872E-24
 -1       963 2.02342E-04-5.66630E-06 0.00000E+00
 -1       964 2.02209E-04-6.57244E-06 0.00000E+00
 -1       965 2.02077E-04-7.47768E-06 1.65436E-24
 -1       966 2.01944E-04-8.39348E-06 0.00000E+00
 -1       967 2.01811E-04-9.33130E-06-1.65436E-24
 -1       968 2.01678E-04-1.03026E-05 0.00000E+00
 -1       969 2.01546E-04-1.13188E-05 0.00000E+00
 -1       970 2.01413E-04-1.23912E-05-3.30872E-24
 -1       971 2.01163E-04-1.46702E-05 0.00000E+00
 -1       972 2.01042E-04-1.57149E-05 0.00000E+00
 -1       973 2.00920E-04-1.66755E-05 0.00000E+00
 -1       974 2.00799E-04-1.75628E-05 0.00000E+00
 -1       975 2.00677E-04-1.83876E-05 3.30872E-24
 -1       976 2.00556E-04-1.91609E-05 0.00000E+00
 -1       977 2.00434E-04-1.98934E-05 0.00000E+00
 -1       978 2.00313E-04-2.05961E-05-1.65436E-24
 -1       979 2.00191E-04-2.12800E-05 3.30872E-24
 -1       980 2.00070E-04-2.19558E-05 0.00000E+00
 -1       981 1.99949E-04-2.26346E-05 0.00000E+00
 -1       982 1.99827E-04-2.33271E-05 0.00000E+00
 -1       983 1.99706E-04-2.40444E-05 3.30872E-24
 -1       984 1.99586E-04-2.47974E-05 0.00000E+00
 -1       985 1.99465E-04-2.55968E-05 0.00000E+00
 -3
    1PSTEP                        48          24           1          
  100CL  124 6.63133E-01         409                     0   24           1
 -4  STRESS      6    1
 -5  SXX         1    4    1    1
 -5  SYY         1    4    2    2
 -5  SZZ         1    4    3    3
 -5  SXY         1    4    1    2
 -5  SYZ         1    4    2    3
 -5  SZX         1    4    3    1
 -1         1-5.31944E+06-1.63399E+06-1.13297E+06-1.41123E+06-9.89530E-10-2.78524E-08
 -1         2 1.35991E+06 2.00069E+07 4.70854E+06 6.02000E+06 2.77068E-08 1.82001E-07
 -1         3-1.29370E+03-1.57096E+06 6.01021E+02-2.08971E+03-3.37671E-10 1.45264E-08
 -1         5-7.55632E+01 3.86701E+05 9.99146E+00-1.34706E+00-4.31467E-10-1.15015E-08
 -1         8-5.75261E+05-2.05459E+05-6.52037E+04-2.50246E+05 1.73713E-10 1.99252E-08
 -1         9 1.16330E+07 3.49722E+06 2.70329E+06-4.14137E+05 3.24799E-09-8.80333E-08
 -1        10-3.61247E+03-1.67354E+06-5.10745E+03-1.54194E+04-5.98629E-09-3.13361E-08
 -1        12-7.16418E+01 3.86723E+05 3.28461E+02-9.17974E+00-7.38197E-10 1.38198E-08
 -1        15 9.53544E+02 5.24024E+02 3.08228E+03 8.85949E-01 1.67120E-11 3.09816E-07
 -1        16 2.28175E+07-3.12250E+05 3.11129E+06-2.22380E+06-1.84324E-09 3.09199E-07
 -1        17 8.33980E+06 6.23884E+06 2.25175E+06 5.98655E+06 4.30446E-08 2.80445E-08
 -1        18 1.43020E+05 3.36990E+04 4.30592E+03-1.19669E+05 1.70162E-08-5.51199E-09
 -1        19 1.22489E+05 1.41779E+05-9.43465E+02 2.19707E+04 1.49630E-09-5.28416E-09
 -1        20-8.20695E+04-5.74014E+05-1.28809E+05 2.50923E+04-2.78624E-09 1.69190E-08
 -1        21-4.55785E+01-2.96088E+05-9.24133E+02 2.75895E+02 1.67066E-08-3.15683E-08
 -1        24 1.39472E+07 1.20222E+07 3.86452E+06 1.11332E+07-1.67415E-07-5.01944E-08
 -1        25 1.25513E+05 2.69192E+05 1.00484E+05-6.46923E+05-1.21836E-09-4.35302E-09
 -1        26-5.54363E+04 9.23735E+04-2.46437E+04 1.31306E+03-1.30603E-10-6.53541E-09
 -1        27-7.55795E+04-3.10108E+05-1.13356E+05 6.90059E+04 3.47685E-09 3.05499E-09
 -1        28 2.22451E+04-8.53785E+04 1.69025E+04 2.06038E+04-4.52050E-09-8.83398E-09
 -1        32-1.68095E+06-3.18212E+06-1.97603E+05 4.59941E+05-4.26444E-08-1.25876E-08
 -1        33-1.78542E+05 9.30787E+04 3.24092E+04-3.85069E+04-2.87775E-09 2.46719E-08
 -1        34-2.23696E+05-2.50514E+04 6.90455E+02 7.57097E+04-4.82466E-09-8.07874E-09
 -1        35-2.29357E+04-3.38588E+04-1.34897E+03 5.15098E+04-3.55588E-09-8.11633E-09
 -1        51 6.02447E+04-1.74962E+05 1.27519E+05-4.50529E+05 1.45519E-11-3.03604E-07
 -1        52 2.04474E+04-1.52756E+05 6.69771E+04-5.25430E+05 7.26686E-10-1.76504E-07
 -1        53 4.23168E+03-1.68146E+05 3.49844E+04-4.48971E+05 7.09406E-11-3.88973E-08
 -1        54 7.58568E+03-1.63946E+05 2.89598E+04-5.26965E+05-2.54659E-11-5.98233E-07
 -1        55 1.65049E+04-1.71097E+05 3.54763E+04-4.48866E+05 4.65661E-10-2.55204E-08
 -1        56-9.72563E+06-1.31395E+06-8.93616E+05-4.02102E+06 3.54776E-08 4.00178E-08
 -1        57-1.09178E+07-9.58810E+05-5.52452E+05-2.82920E+06 4.42378E-08 6.69606E-08
 -1        58-9.60471E+06-1.75215E+06-1.99559E+05-4.17680E+06-6.40284E-09-6.82121E-08
 -1        59-1.10092E+07-4.65738E+05-1.10569E+05-2.76852E+06-2.09639E-08-6.52115E-07
 -1        60-9.68927E+06-1.75786E+06-5.46566E+04-4.13118E+06-6.37010E-08-2.00554E-07
 -1        61-1.04765E+07-7.45618E+05 5.04245E+03-3.00501E+06 1.93249E-08 7.82547E-08
 -1        62-1.00360E+07-1.54055E+06-5.97036E+04-3.86122E+06-2.68628E-08 1.18136E-07
 -1        63-9.73368E+06-1.34921E+06 3.73855E+04-3.61706E+06 5.40458E-08-1.09103E-07
 -1        64-1.03538E+07-1.20996E+06-5.47277E+04-3.46867E+06-3.50265E-08 4.30664E-08
 -1        65-9.38094E+06-1.87323E+06 3.20994E+03-4.37527E+06-6.46469E-09-1.31009E-07
 -1        66-1.04817E+07-9.51791E+05-4.55596E+04-3.17282E+06 1.10595E-09-9.83018E-08
 -1        67-9.36404E+06-2.10680E+06-9.96764E+04-4.72994E+06-5.27580E-08 3.14472E-07
 -1        68-1.04625E+07-9.12420E+05-1.84008E+05-3.17235E+06-4.06781E-08-1.72295E-08
 -1        69-9.57209E+06-2.21346E+06-4.93149E+05-4.34163E+06-5.99293E-08-3.06100E-08
 -1        70-1.01905E+07-9.14863E+05-8.17479E+05-3.50388E+06 2.55568E-08-1.49070E-07
 -1        86-1.38674E+06-1.46637E+07-2.57542E+06-2.83365E+06-2.60596E-07-1.58601E-07
 -1        87 2.15756E+06 5.64405E+06 2.14289E+06 5.34217E+06-4.39351E-07-1.65714E-07
 -1        88-3.94450E+05-2.05995E+06 1.99707E+05-2.43912E+06-3.99290E-07-1.14999E-07
 -1        89 2.89171E+06 5.38413E+06 2.19390E+06 5.51306E+06-5.67292E-07-1.22804E-07
 -1        90-2.03873E+06-1.44713E+07-2.78549E+06-3.02880E+06-1.42245E-07-1.93046E-07
 -1       121-1.80117E+03-1.57533E+06-1.89028E+02 1.03689E+03 1.42464E-09 1.38425E-08
 -1       122-1.05475E+03-1.57097E+06 1.21707E+03-4.18079E+03-5.27837E-09-4.18095E-08
 -1       123-1.87490E+03-1.57550E+06 1.17502E+03 3.09657E+03 3.91310E-09 7.93079E-09
 -1       124 1.31587E+03-1.56999E+06 4.86702E+03-8.74382E+03-9.53241E-09 3.50155E-09
 -1       125-3.19613E+03-1.57682E+06 6.65671E+03 5.56463E+03 6.14637E-09-1.24528E-08
 -1       191-7.96285E+01 3.86719E+05 8.48408E+00 7.02446E-01-5.44470E-10 6.01722E-09
 -1       192-7.65280E+01 3.86702E+05 2.13221E+01-4.31697E+00-7.76941E-10 2.06455E-08
 -1       193-8.21681E+01 3.86719E+05 3.62893E+01 3.79157E+00-1.05472E-09-2.59024E-09
 -1       194-7.96213E+01 3.86705E+05 8.10585E+01-9.79517E+00-4.80718E-10-6.03995E-09
 -1       195-8.70425E+01 3.86717E+05 1.55177E+02 6.37508E+00-1.68728E-09 1.61344E-09
 -1       251-8.89949E+05 1.66782E+04-3.89833E+04-1.44585E+04 8.86067E-09-2.21069E-07
 -1       252-9.05187E+05-1.92770E+04-2.72002E+04 5.00720E+04-1.10383E-08-1.48815E-07
 -1       253-8.98222E+05 2.57402E+03-1.04135E+04-1.07778E+04 2.45700E-09 5.07134E-08
 -1       254-8.92019E+05-3.07074E+03-4.90681E+03 3.63147E+04 3.36354E-09-2.33422E-08
 -1       255-9.02548E+05 1.02325E+02-3.51607E+03-7.03673E+02-1.65096E-09 1.53340E-07
 -1       256-8.86502E+05-2.99103E+02 9.76650E+02 1.31292E+04-1.03500E-09 2.45880E-07
 -1       257-9.03292E+05-5.26347E+02-1.35848E+03 1.23978E+04-1.43109E-09 2.17258E-07
 -1       258-8.88897E+05 8.37760E+02 2.58873E+03-1.16570E+04 2.70541E-09-2.06783E-07
 -1       259-9.00366E+05-8.69684E+02 1.33704E+03 2.40796E+04-1.15197E-08-5.75507E-08
 -1       260-8.94938E+05 2.79457E+03 5.43692E+03-2.96894E+04 2.42710E-09-4.81133E-07
 -1       261-8.97855E+05-2.01639E+03 8.45582E+03 3.04444E+04 1.69832E-08-8.14939E-08
 -1       262-8.93606E+05 1.14307E+04 2.10096E+04-3.49909E+04-8.78376E-09-2.48696E-07
 -1       263-9.01941E+05-9.28491E+03 3.32895E+04 2.93897E+04 1.98511E-08-1.41745E-07
 -1       264-8.63869E+05 6.54185E+04 9.21502E+04-2.56944E+04 1.47645E-08-3.87026E-08
 -1       265-9.27111E+05-5.61299E+04 1.28353E+05 2.11368E+04 1.56427E-08 1.37785E-07
 -1       266-1.72623E+04-8.07267E+03 4.04986E+04-1.89552E+01 1.18234E-10 1.16910E-07
 -1       267 2.00116E+04 9.40765E+03 2.86258E+04 2.18723E+01 2.88765E-10 1.07148E-07
 -1       268-2.68352E+03-1.33244E+03 1.06400E+04-2.78681E+00-1.36424E-12-5.78626E-08
 -1       269 3.16845E+03 1.59460E+03 6.91590E+03 3.24632E+00-1.27670E-10-4.16423E-08
 -1       270-4.75576E+02-2.61995E+02 3.33841E+03-4.40544E-01-3.02407E-11-1.66365E-07
 -1       271-1.52337E+06-1.92752E+05-1.14512E+05-5.91950E+05 1.86556E-08 5.46861E-08
 -1       272-1.52656E+06-3.03835E+05-7.22174E+04-6.24652E+05 8.58563E-10-2.51456E-07
 -1       273-1.54734E+06-2.17583E+05-2.76577E+04-5.83969E+05-1.13323E-08 3.87754E-08
 -1       274-1.49889E+06-2.74048E+05-1.45610E+04-6.39371E+05-9.33505E-09 8.73833E-08
 -1       275-1.55288E+06-2.17467E+05-6.82791E+03-5.80298E+05-3.16431E-08 1.36697E-09
 -1       276-1.49296E+06-2.74752E+05-2.97878E+03-6.47530E+05 1.05356E-08 2.26119E-08
 -1       277-1.55563E+06-2.15006E+05-1.87522E+03-5.77635E+05-4.17458E-09-4.87034E-08
 -1       278-1.49056E+06-2.77908E+05-7.74713E+02-6.53544E+05 4.87807E-08-2.45171E-07
 -1       279-1.55739E+06-2.12950E+05-9.12402E+02-5.75746E+05-2.65318E-08-2.00575E-07
 -1       280-1.48938E+06-2.80349E+05-1.11203E+03-6.57554E+05-1.54796E-08-1.34409E-08
 -1       281-1.55833E+06-2.11606E+05-2.05042E+03-5.74659E+05 3.91356E-09-7.43484E-08
 -1       282-1.48975E+06-2.82740E+05-4.78027E+03-6.59267E+05-6.72662E-09-9.66722E-08
 -1       283-1.55779E+06-2.10204E+05-8.50419E+03-5.74497E+05-3.55846E-08-1.07937E-07
 -1       284-1.49731E+06-2.94042E+05-2.31771E+04-6.57102E+05-4.02076E-09-2.29389E-07
 -1       285-1.55080E+06-2.01549E+05-3.61350E+04-5.76325E+05-3.73898E-08 2.16265E-07
 -1       301-4.37623E+03-6.39922E+05 1.67432E+05-1.12112E+06 5.55883E-09 1.43031E-07
 -1       302-5.47811E+03-5.93784E+05 1.00775E+05-1.63675E+06-3.11120E-08 9.52532E-08
 -1       303-1.95736E+04-6.31714E+05 5.71471E+04-1.11808E+06 1.15760E-08-1.25943E-07
 -1       304-2.14200E+04-6.00238E+05 5.78786E+04-1.63610E+06-3.68163E-09-9.96515E-08
 -1       305-2.36458E+04-6.20711E+05 7.16403E+04-1.12118E+06-3.84171E-09 7.88859E-08
 -1       306-3.01300E+07-6.22188E+06-8.60956E+06-5.38621E+05-8.40519E-08 7.41275E-08
 -1       307 2.54054E+07 3.25159E+06 5.51939E+06-1.51789E+07-8.66217E-07-4.36848E-08
 -1       308-6.99821E+06-1.03202E+06-4.61157E+05 5.20891E+06-3.52535E-07 4.02157E-07
 -1       309-3.27921E+06 8.74752E+06 2.28157E+06-2.06628E+07 3.42858E-07 2.25300E-08
 -1       310-1.25236E+07-1.93563E+06-2.02162E+06 5.21895E+06 6.12345E-08-2.40107E-07
 -1       311 3.82977E+07 2.33733E+04 7.26089E+06-8.86334E+06 6.28876E-07-1.57306E-07
 -1       312-3.19057E+07-6.75018E+06-8.52395E+06-4.99946E+06 2.98256E-07 1.25248E-07
 -1       313 4.54599E+07 1.49305E+07 1.06607E+07 2.37283E+07-2.04891E-07 1.67114E-07
 -1       314-1.72650E+07-1.77484E+07-7.52447E+06-1.25344E+07 3.14845E-07-2.31550E-07
 -1       315-1.77480E+06 2.97006E+07 5.67270E+06 1.06025E+07-3.06347E-07-1.50496E-07
 -1       316 1.38036E+06-9.85119E+06-4.46810E+05-2.55135E+06-1.12657E-06-2.90340E-07
 -1       317-1.71330E+07 2.24152E+07 2.23712E+06-8.79156E+06 7.15590E-07-8.04954E-07
 -1       318-1.06585E+06-1.27584E+07-2.03255E+06-4.23960E+06-9.20874E-07 1.35915E-07
 -1       319 7.17584E+06 3.19077E+07 7.02503E+06 1.65843E+07-8.27422E-08 2.10042E-07
 -1       320-2.25742E+07-1.76186E+07-9.84096E+06-1.28010E+07 1.77999E-07-3.30037E-08
 -1       336 1.47037E+02-1.77872E+06-1.81409E+04 9.69654E+03-8.64384E-09 4.68644E-08
 -1       337-7.11453E+03-1.77923E+06-2.15158E+04-2.37928E+04-8.49900E-09 2.43090E-08
 -1       338 6.41708E+02-1.77859E+06-3.12964E+04 1.38410E+04-1.20071E-08 1.02154E-08
 -1       339-3.34882E+04-1.79740E+06-6.96192E+04-3.19010E+04-8.36462E-09 1.81390E-08
 -1       340 2.28605E+04-1.76293E+06-1.08447E+05 1.76774E+04-1.28784E-08 1.30240E-08
 -1       406-4.99256E+01 3.86702E+05 6.44918E+02 3.36073E+00-1.81134E-09-1.40608E-09
 -1       407 1.54850E+02 3.86837E+05 1.37825E+03 2.34387E+01-2.46132E-10-2.08165E-08
 -1       408 6.35472E+02 3.86601E+05 2.74811E+03-2.71190E+01-2.48519E-09-2.02999E-08
 -1       409 2.91023E+03 3.87714E+05 6.19402E+03 2.89581E+02-4.18709E-10-2.21553E-08
 -1       410 8.48973E+03 3.85810E+05 1.26417E+04-2.79271E+02-3.00679E-09-2.24827E-09
 -1       521-3.16657E+07-7.67637E+06-1.00541E+07-1.46534E+05-9.35979E-08 1.68453E-07
 -1       522 2.62567E+07 4.26929E+06 5.62412E+06-1.86790E+07-5.48171E-07-2.77563E-07
 -1       523-7.57443E+06-1.34384E+06-4.52871E+05 5.65523E+06 7.24685E-08-3.84316E-08
 -1       524-6.78099E+06 1.17970E+07 2.46671E+06-2.37159E+07 9.43517E-07-2.51814E-07
 -1       525-1.33217E+07-2.56685E+06-2.22159E+06 5.66776E+06 5.92554E-07-7.65722E-08
 -1       526 4.17837E+07-6.57262E+04 7.61776E+06-1.15105E+07 1.41736E-07-3.95230E-07
 -1       527-3.37416E+07-8.44350E+06-9.82116E+06-4.85996E+06 1.10478E-07-1.45577E-07
 -1       528 4.96206E+07 1.66240E+07 1.11151E+07 2.69690E+07 1.42958E-07 1.57452E-07
 -1       529-1.82039E+07-1.99477E+07-8.62330E+06-1.25619E+07 3.00468E-07 3.11993E-08
 -1       530-4.25756E+06 3.44763E+07 6.00034E+06 1.00700E+07-2.97528E-07 3.07162E-07
 -1       531 1.37785E+06-1.09224E+07-4.19955E+05-2.50220E+06-1.04636E-06 4.36092E-07
 -1       532-1.96580E+07 2.44217E+07 2.44346E+06-1.30719E+07 5.25135E-07-7.20844E-07
 -1       533-1.11044E+06-1.39045E+07-2.16281E+06-4.05086E+06-3.28233E-07-9.78529E-07
 -1       534 5.16166E+06 3.70109E+07 7.30808E+06 1.71509E+07-1.34169E-08 7.72707E-07
 -1       535-2.37481E+07-2.00013E+07-1.12782E+07-1.28655E+07 1.41910E-07 4.72937E-07
 -1       536-7.07529E+05-4.72305E+04-4.76675E+04-5.48482E+04-3.65799E-09 4.89927E-08
 -1       537-5.35037E+04 4.52137E+04 8.47403E+04 1.24158E+05-1.06682E-07 9.19495E-08
 -1       538-3.94538E+05 3.30635E+03 3.74092E+03-7.23612E+04 1.46414E-08 9.45554E-08
 -1       539-2.68630E+05 2.92785E+03 2.51281E+04 1.39061E+05 1.58312E-07 8.02016E-08
 -1       540-4.97803E+05-4.40179E+02-2.13561E+04-7.02899E+04 3.38728E-08 1.11889E-07
 -1       541 1.48595E+05 1.70471E+04 1.06810E+05 9.82091E+04-1.31440E-08 9.84863E-08
 -1       542-8.00519E+05-2.02112E+04-8.45400E+04-3.06286E+04 2.95331E-08 4.23831E-08
 -1       543 4.08319E+05 2.74307E+04 1.58582E+05-1.33756E+04-2.66555E-08-2.10307E-08
 -1       544-7.50561E+05-1.66030E+04-7.51236E+04 4.06216E+04-2.78046E-08-4.94138E-08
 -1       545 3.05791E+04 9.52681E+03 8.01390E+04-1.13907E+05 3.04188E-08-7.81783E-08
 -1       546-4.32925E+05 6.11344E+03-1.22735E+04 6.95546E+04 1.69330E-08-7.82696E-08
 -1       547-2.86772E+05-4.65609E+03 1.06613E+04-1.41915E+05-1.28297E-07-1.08730E-07
 -1       548-4.41742E+05 4.72657E+03-2.39261E+04 6.93240E+04-1.00469E-07-1.11736E-07
 -1       549 4.97482E+04 1.62193E+04 6.08602E+04-1.11781E+05-6.60219E-08-6.40612E-08
 -1       550-7.60441E+05-2.22983E+04-1.29284E+05 3.87008E+04 6.31917E-09-3.32238E-08
 -1       551 4.10553E+04-7.54526E+05-1.53081E+04-1.24766E+06-1.02867E-07-1.24273E-08
 -1       552 9.35291E+04-7.99425E+05 1.02622E+04-1.77906E+06-6.93108E-08 5.76620E-08
 -1       553 7.18900E+04-7.95788E+05 3.22550E+04-1.24102E+06-1.20068E-07 3.09665E-08
 -1       554 1.32227E+05-8.15214E+05 8.12939E+04-1.78100E+06-7.30652E-08 2.57278E-08
 -1       555 1.01606E+05-8.19364E+05 1.48362E+05-1.24086E+06-1.21661E-07-1.01809E-08
 -1       556 2.23944E+05-3.83933E+05 2.65280E+04-4.07625E+05-1.81608E-08 6.51926E-09
 -1       557 3.54805E+05-4.88402E+05 1.65575E+04-5.28052E+05 4.24916E-09-6.85031E-09
 -1       558 2.05726E+05-3.76846E+05 2.48403E+03-4.11993E+05-2.34868E-08-4.74392E-09
 -1       559 3.29643E+05-4.88563E+05 2.52240E+03-5.48546E+05 1.76369E-08 1.87138E-08
 -1       560 1.90390E+05-3.67229E+05-1.47560E+03-4.23046E+05 1.11468E-08 2.86891E-08
 -1       561 3.10360E+05-4.80851E+05 1.46437E+02-5.61692E+05-2.91038E-10 3.19560E-08
 -1       562 1.78259E+05-3.59692E+05-1.32404E+03-4.31832E+05 4.80213E-10 1.04301E-08
 -1       563 2.95948E+05-4.74568E+05-3.40331E+01-5.71106E+05-4.13274E-09-1.23709E-08
 -1       564 1.69599E+05-3.54296E+05-6.02158E+02-4.37970E+05 5.93718E-09 4.29782E-09
 -1       565 2.86384E+05-4.70403E+05 2.41055E+01-5.77216E+05 2.24099E-09-1.10731E-09
 -1       566 1.64532E+05-3.51091E+05-2.61512E+02-4.41514E+05-9.61154E-09-2.60388E-08
 -1       567 2.81731E+05-4.68379E+05-3.64090E+02-5.80043E+05 2.90092E-08 1.45410E-08
 -1       568 1.63151E+05-3.50245E+05-1.12955E+03-4.42575E+05-2.91038E-10-7.98536E-09
 -1       569 2.80596E+05-4.68304E+05-2.85290E+03-5.78621E+05-9.64792E-09 1.24855E-08
 -1       570 1.66549E+05-3.53480E+05-6.23513E+03-4.41555E+05 9.90985E-09 8.88122E-09
 -1       571 2.90716E+05 1.05143E+04 1.49971E+04-9.53858E+04 1.42882E-09 4.31601E-09
 -1       572 2.92889E+05 3.96455E+03 7.34979E+03-1.04648E+05 2.80443E-09-1.44701E-09
 -1       573 2.91579E+05 1.24852E+03 3.26576E+03-9.52090E+04-1.82636E-08 5.84805E-10
 -1       574 2.91793E+05 7.30015E+02 1.63776E+03-1.04873E+05-4.03641E-08 2.56478E-10
 -1       575 2.91673E+05 4.50456E+02 7.72980E+02-9.51848E+04-1.86286E-08 1.64246E-08
 -1       576 2.91657E+05 4.62011E+02 3.95771E+02-1.04903E+05-4.68935E-09-7.69160E-09
 -1       577 2.91713E+05 3.92252E+02 1.97577E+02-9.51815E+04-5.62795E-09-1.36797E-08
 -1       578 2.91688E+05 4.23799E+02 1.14154E+02-1.04907E+05-7.85394E-09-1.82345E-08
 -1       579 2.91785E+05 3.55363E+02 7.84209E+01-9.51811E+04 8.68749E-09 3.29783E-09
 -1       580 2.91790E+05 3.72506E+02 9.10605E+01-1.04902E+05 6.56655E-09 8.86939E-09
 -1       581 2.91900E+05 2.96472E+02 1.37559E+02-9.51871E+04 1.61181E-08-8.72387E-09
 -1       582 2.91966E+05 3.34812E+02 2.79726E+02-1.04840E+05 4.44925E-09-2.10448E-08
 -1       583 2.92041E+05 3.38681E+02 5.36872E+02-9.52438E+04 4.50382E-09 6.84554E-09
 -1       584 2.92342E+05 7.77213E+02 1.21493E+03-1.04363E+05 7.90715E-09-3.72029E-09
 -1       585 2.92067E+05 1.79947E+03 2.46014E+03-9.56638E+04-6.00267E-10-1.96815E-08
 -1       586-3.42195E+03 1.17126E+05-2.90668E+03-2.50809E+05-5.88307E-09-3.35649E-09
 -1       587-1.33995E+03 1.16880E+05 7.79481E+02-2.76034E+05-7.86349E-09-1.79089E-08
 -1       588 3.97830E+02 1.16685E+05 4.76940E+03-2.50671E+05-4.36557E-09 8.12906E-09
 -1       589 5.09049E+03 1.19162E+05 1.23635E+04-2.75801E+05-6.48834E-09 1.24255E-08
 -1       590 1.66314E+04 1.15349E+05 2.59324E+04-2.51103E+05-4.34375E-09 3.75076E-09
 -1       591-7.51867E+04-1.60007E+04-2.25653E+04-3.20282E+04-2.33263E-09-1.62372E-08
 -1       592-7.92862E+04-1.95604E+04-1.22232E+04-3.56550E+04 9.37813E-09-3.07782E-08
 -1       593-7.74434E+04-1.43634E+04-5.08790E+03-3.36828E+04 3.99451E-09-1.98540E-08
 -1       594-7.61707E+04-1.62491E+04-2.53746E+03-3.57729E+04-1.46844E-09 6.82275E-09
 -1       595-7.76155E+04-1.43580E+04-1.16495E+03-3.37579E+04-1.05867E-09 1.96002E-08
 -1       596-7.59573E+04-1.60977E+04-5.91987E+02-3.57475E+04 3.40850E-09 2.21919E-08
 -1       597-7.76370E+04-1.43734E+04-3.21893E+02-3.37608E+04-5.47413E-09 1.72514E-09
 -1       598-7.59363E+04-1.60917E+04-2.57917E+02-3.57404E+04-5.65058E-09 1.96946E-08
 -1       599-7.76358E+04-1.43739E+04-3.28402E+02-3.37605E+04 9.52821E-09-3.51702E-09
 -1       600-7.59574E+04-1.60982E+04-6.09221E+02-3.57454E+04 7.09366E-09-1.15893E-08
 -1       601-7.76111E+04-1.43594E+04-1.20142E+03-3.37570E+04 1.16188E-09-8.85689E-09
 -1       602-7.61773E+04-1.62532E+04-2.61814E+03-3.57676E+04-9.48057E-09 5.45333E-09
 -1       603-7.74309E+04-1.43678E+04-5.25034E+03-3.36802E+04-7.63293E-10 7.59837E-09
 -1       604-7.94099E+04-1.96505E+04-1.26125E+04-3.56211E+04 4.38780E-09-1.42602E-08
 -1       605-7.50821E+04-1.60752E+04-2.32843E+04-3.19923E+04 8.80323E-09-2.63208E-09
 -1       606 2.66715E+04-1.43428E+04-2.57117E+04 2.39546E+04 3.02043E-09-8.26890E-09
 -1       607 2.22783E+04-4.68441E+03-1.28043E+04 2.69200E+04 4.11092E-10-2.09411E-10
 -1       608 2.47822E+04-8.45110E+02-5.73207E+03 2.37862E+04-2.19006E-09-4.99927E-09
 -1       609 2.43023E+04-2.89623E+02-2.89569E+03 2.71338E+04 5.39330E-10-1.31852E-08
 -1       610 2.45685E+04-4.11339E+01-1.38156E+03 2.37662E+04 1.44782E-08 3.08887E-09
 -1       611 2.44932E+04-4.14603E+01-6.96571E+02 2.71569E+04 2.71284E-08 3.01113E-08
 -1       612 2.45214E+04-2.74626E+01-3.31125E+02 2.37642E+04 1.13259E-08 2.90561E-09
 -1       613 2.45049E+04-3.74126E+01-1.48347E+02 2.71596E+04 1.18280E-09 5.79757E-09
 -1       614 2.44993E+04-3.39296E+01-3.46899E+01 2.37635E+04 2.24645E-10 1.11324E-08
 -1       615 2.44997E+04-3.59586E+01 6.24077E+01 2.71600E+04 1.26965E-09 2.05164E-08
 -1       616 2.44819E+04-3.08331E+01 1.86927E+02 2.37638E+04 6.20048E-09-2.36241E-10
 -1       617 2.45222E+04 3.84287E+00 4.26397E+02 2.71595E+04 3.31943E-09-1.48534E-08
 -1       618 2.44449E+04 9.20638E+01 8.59442E+02 2.37640E+04-3.83807E-10 4.06317E-09
 -1       619 2.48256E+04 6.68344E+02 1.92992E+03 2.71589E+04 2.24645E-10 1.80398E-09
 -1       620 2.41595E+04 2.13001E+03 3.87909E+03 2.37656E+04-8.07745E-10 6.88533E-09
 -1       621 5.12849E+02 3.01753E+05 3.89542E+03 4.11683E+04 1.13505E-09-4.81577E-09
 -1       622 6.79705E+02 3.02652E+05 3.45523E+03 5.97668E+04 1.43291E-09 8.82437E-09
 -1       623 1.43722E+02 3.01948E+05 4.14953E+03 4.09821E+04 1.40767E-09-6.14091E-09
 -1       624 2.13073E+03 3.03871E+05 8.04230E+03 5.99501E+04 1.22935E-09-7.31166E-09
 -1       625 2.08142E+03 3.00353E+05 1.40526E+04 4.09789E+04 1.29512E-09-1.83491E-08
 -1       626 2.61066E+05 6.14183E+04 5.11931E+03 1.26785E+05 1.04637E-09-2.07956E-08
 -1       627 2.58750E+05 6.28136E+04 2.46696E+03 1.31056E+05 3.11184E-09-8.32006E-09
 -1       628 2.61194E+05 5.90761E+04 1.04335E+03 1.27656E+05-8.76753E-09-9.38826E-09
 -1       629 2.58115E+05 6.21335E+04 5.10667E+02 1.31296E+05-3.43562E-09 7.14540E-09
 -1       630 2.61209E+05 5.89629E+04 2.36995E+02 1.27692E+05-2.75168E-09-5.29860E-09
 -1       631 2.58049E+05 6.21076E+04 1.27679E+02 1.31298E+05 7.88623E-09 1.52407E-08
 -1       632 2.61205E+05 5.89668E+04 8.42701E+01 1.27688E+05 1.86305E-08-4.48699E-09
 -1       633 2.58040E+05 6.21093E+04 9.42665E+01 1.31294E+05 1.91228E-08 5.37830E-09
 -1       634 2.61201E+05 5.89640E+04 1.52682E+02 1.27688E+05 5.81201E-09 1.40137E-08
 -1       635 2.58055E+05 6.21076E+04 3.09164E+02 1.31300E+05-4.04037E-09 2.87441E-08
 -1       636 2.61191E+05 5.89582E+04 6.24466E+02 1.27687E+05-2.14322E-09-2.28829E-09
 -1       637 2.58190E+05 6.22047E+04 1.37312E+03 1.31299E+05 4.29259E-09-1.42791E-09
 -1       638 2.61143E+05 5.92614E+04 2.82126E+03 1.27550E+05-2.41016E-09-9.14815E-09
 -1       639 2.59672E+05 6.42659E+04 6.67525E+03 1.30863E+05-2.98314E-10 1.19423E-08
 -1       640 2.60938E+05 6.54164E+04 1.38523E+04 1.24957E+05 6.30598E-09 1.92929E-08
 -1       656 6.66219E+04-1.70508E+06-1.60821E+05-2.56656E+03-2.61934E-10-9.08335E-09
 -1       657-8.81354E+04-1.77775E+06-1.33232E+05 5.14987E+03-3.49246E-10-1.54644E-08
 -1       658 2.12371E+04-1.72572E+06-8.20551E+04-4.65219E+03 1.23237E-09-2.71383E-09
 -1       659-9.53081E+04-1.78116E+06-1.42658E+05 6.88383E+03-2.01908E-09 9.53314E-10
 -1       660 7.37786E+04-1.70168E+06-1.77027E+05-4.30050E+03-3.87081E-09 2.27937E-08
 -1       661 1.58428E+05 1.65751E+04 1.67089E+04 6.19332E+04-1.85128E-09 5.82168E-09
 -1       662 1.67878E+05 2.89458E+04 1.12606E+04 5.81808E+04-3.49746E-09-1.46214E-08
 -1       663 1.61710E+05 2.19356E+04 3.93824E+03 6.09807E+04-1.17473E-09-1.28055E-08
 -1       664 1.64072E+05 2.26772E+04 2.35590E+03 5.93443E+04-4.05635E-09-3.91796E-09
 -1       665 1.62208E+05 2.26677E+04 9.29386E+02 6.08354E+04 2.66971E-09-6.07878E-09
 -1       666 1.63483E+05 2.18400E+04 5.44030E+02 5.95339E+04 8.77117E-09-1.96288E-08
 -1       667 1.62295E+05 2.27509E+04 2.89166E+02 6.07990E+04 3.01520E-09 5.23292E-09
 -1       668 1.63387E+05 2.17803E+04 2.95108E+02 5.95869E+04-7.62492E-09-1.14355E-09
 -1       669 1.62303E+05 2.27258E+04 3.99918E+02 6.07827E+04-4.91585E-09 1.92882E-08
 -1       670 1.63484E+05 2.19975E+04 8.71185E+02 5.95898E+04-9.44785E-09-1.98609E-09
 -1       671 1.62198E+05 2.25383E+04 1.54698E+03 6.07940E+04-9.02283E-10 2.19069E-09
 -1       672 1.64386E+05 2.35025E+04 3.95800E+03 5.93713E+04 1.07617E-09 6.17183E-09
 -1       673 1.61406E+05 2.12589E+04 6.63301E+03 6.09866E+04 4.75825E-09 3.24917E-09
 -1       674 1.70699E+05 3.41592E+04 1.89690E+04 5.75166E+04-5.66490E-09 1.73691E-09
 -1       675 1.55925E+05 1.21801E+04 2.81567E+04 6.25367E+04-5.01223E-09-5.99175E-09
 -1       676 2.41206E+01-2.96010E+05-1.11382E+03-1.37952E+02 1.82615E-09-1.26214E-08
 -1       677-2.94624E+02-2.96280E+05-2.03849E+03 2.75681E+02 1.04892E-08-7.04087E-09
 -1       678 1.97616E+02-2.95818E+05-3.60354E+03-1.37639E+02 1.94768E-09-1.26290E-09
 -1       679-3.60359E+03-2.98455E+05-8.56053E+03 2.74489E+02 8.20000E-09 1.07838E-08
 -1       680 2.15156E+03-2.93836E+05-1.37966E+04-1.35240E+02 3.10138E-10 1.02041E-08
 -1       771-3.06356E+06-7.47475E+05-1.65439E+05-1.46649E+06-3.14903E-08-2.66300E-08
 -1       772-2.98632E+06-8.36282E+05-8.52835E+04-1.56917E+06-1.94850E-08 1.02627E-08
 -1       773-3.09501E+06-7.22946E+05-4.34993E+04-1.48099E+06-1.00990E-08 1.00845E-08
 -1       774-2.97686E+06-8.17829E+05-1.94019E+04-1.59494E+06 3.44880E-08-3.72893E-09
 -1       775-3.11146E+06-7.11404E+05-1.45285E+04-1.48805E+06-6.69388E-09-2.39379E-09
 -1       776-2.98921E+06-8.14798E+05-5.43038E+03-1.61445E+06-2.09111E-08-2.13913E-09
 -1       777-3.12573E+06-7.01100E+05-6.42461E+03-1.49427E+06-6.14091E-09 3.77622E-09
 -1       778-3.00210E+06-8.11976E+05-1.81533E+03-1.63121E+06-4.27826E-09 6.47924E-09
 -1       779-3.13801E+06-6.92096E+05-3.21210E+03-1.49958E+06-7.10133E-09-7.57427E-09
 -1       780-3.01346E+06-8.09283E+05-5.32169E+02-1.64486E+06-5.33328E-09-4.18368E-10
 -1       781-3.14777E+06-6.84838E+05-1.24784E+03-1.50375E+06-2.86236E-08 3.33239E-09
 -1       782-3.02221E+06-8.06996E+05 4.50816E+02-1.65493E+06-3.34257E-08-4.69754E-09
 -1       783-3.15464E+06-6.79794E+05 7.01938E+02-1.50666E+06-8.76753E-09-1.75073E-08
 -1       784-3.02706E+06-8.04709E+05 2.90709E+03-1.66115E+06-2.14204E-08 1.40744E-09
 -1       785-3.15870E+06-6.76785E+05 5.13223E+03-1.50851E+06-3.74348E-08 7.07769E-09
 -1       786 1.23896E+05-9.77917E+03 2.26251E+04-3.23346E+02 8.74749E-11 1.46192E-08
 -1       787 1.33709E+05 1.13221E+04 1.60063E+04-1.36880E+02 7.34141E-09 6.19002E-09
 -1       788 1.27680E+05-1.53242E+03 5.85360E+03-2.88216E+02 2.54990E-09 1.99705E-08
 -1       789 1.29301E+05 1.77374E+03 3.67469E+03-1.90688E+02 7.19248E-10-1.52222E-08
 -1       790 1.28305E+05-2.38591E+02 1.48785E+03-2.69555E+02-5.16042E-09 1.66533E-08
 -1       791 1.28571E+05 2.76068E+02 8.59391E+02-2.22616E+02-1.01024E-08 1.76565E-08
 -1       792 1.28410E+05-3.58606E+01 3.64270E+02-2.56290E+02-4.21153E-09-2.36405E-09
 -1       793 1.28445E+05 3.79449E+01 1.81803E+02-2.47572E+02 9.58861E-10-2.19463E-08
 -1       794 1.28431E+05-6.18549E-01 4.76626E+01-2.44599E+02 5.19963E-09 1.65146E-09
 -1       795 1.28408E+05-2.71509E+01-5.67973E+01-2.71973E+02-5.44258E-09 1.98173E-08
 -1       796 1.28447E+05 2.91987E+01-1.61130E+02-2.31889E+02 3.82277E-09 1.34772E-08
 -1       797 1.28314E+05-2.17984E+02-4.42804E+02-3.01171E+02 4.17644E-09-4.49853E-09
 -1       798 1.28525E+05 1.90071E+02-7.19245E+02-2.15401E+02 2.50564E-09 1.99495E-08
 -1       799 1.27768E+05-1.40095E+03-1.97885E+03-3.42005E+02 6.10164E-09 3.55129E-08
 -1       800 1.28993E+05 1.21120E+03-2.80051E+03-1.91056E+02 6.57701E-10-1.08176E-08
 -1       801-1.71654E+05-1.00049E+07-1.39466E+06 1.41705E+06 9.33360E-08-5.82841E-08
 -1       802 7.39308E+05 5.96013E+06 2.18424E+06-1.74941E+06 2.57802E-07-3.32766E-08
 -1       803-5.37204E+05-1.42781E+07-1.89241E+06 8.99336E+05 7.83875E-08 2.18533E-08
 -1       804 2.87578E+05 2.40142E+06 1.53903E+06 6.77622E+05-1.21388E-07-9.69517E-08
 -1       805 1.89456E+05-6.46028E+06-2.86650E+05-1.00431E+06-4.99276E-08-6.31280E-08
 -1       806-3.09015E+05-5.98031E+04-2.28631E+04-1.22483E+05-9.49058E-09-1.01900E-08
 -1       807-3.10809E+05-5.60755E+04-1.12324E+04-1.28036E+05 7.59428E-09 1.63836E-08
 -1       808-3.09643E+05-5.15633E+04-4.76514E+03-1.26378E+05-6.41830E-09 1.08207E-08
 -1       809-3.08448E+05-5.29195E+04-2.33003E+03-1.28312E+05-1.99077E-08 1.68484E-10
 -1       810-3.09737E+05-5.12764E+04-1.06799E+03-1.26550E+05 7.42421E-09 3.18660E-08
 -1       811-3.08265E+05-5.27928E+04-5.31130E+02-1.28276E+05 1.04337E-08 8.92987E-09
 -1       812-3.09751E+05-5.13011E+04-2.68704E+02-1.26550E+05 2.24099E-09 2.63753E-09
 -1       813-3.08239E+05-5.27949E+04-1.74771E+02-1.28258E+05 9.13087E-09-1.60044E-08
 -1       814-3.09744E+05-5.13108E+04-1.73426E+02-1.26545E+05 4.60204E-10-1.26452E-08
 -1       815-3.08243E+05-5.27972E+04-2.79622E+02-1.28250E+05 8.20819E-10 2.91022E-08
 -1       816-3.09723E+05-5.13100E+04-5.30110E+02-1.26542E+05 3.98722E-09 7.47605E-10
 -1       817-3.08333E+05-5.28478E+04-1.13773E+03-1.28238E+05-1.18230E-08-3.77895E-09
 -1       818-3.09654E+05-5.14706E+04-2.32060E+03-1.26466E+05-4.31010E-09 5.01450E-09
 -1       819-3.09603E+05-5.42497E+04-5.46018E+03-1.27937E+05 3.15822E-09-1.12141E-08
 -1       820-3.09216E+05-5.55956E+04-1.11135E+04-1.24704E+05 5.70162E-09 1.05845E-08
 -1       821-3.79176E+05 2.08800E+04-4.86115E+04 2.14240E+03 1.39509E-08 1.36752E-08
 -1       822-3.98864E+05-2.41886E+04-3.41579E+04-4.49972E+03 5.37861E-09-1.41254E-08
 -1       823-3.86631E+05 3.29177E+03-1.25554E+04 3.46939E+03-1.10328E-08 3.79396E-09
 -1       824-3.89858E+05-3.79585E+03-7.85802E+03-5.42781E+03 9.50692E-10 5.12955E-10
 -1       825-3.88188E+05 5.11603E+02-3.29160E+03 3.07061E+03 1.99846E-08 1.43934E-08
 -1       826-3.87409E+05-5.66976E+02-1.74117E+03-3.13589E+03 2.63774E-08 1.12827E-08
 -1       827-3.89055E+05 4.60022E+01-1.19399E+03 1.17733E+03 1.24807E-08-3.58975E-09
 -1       828-3.86692E+05-1.30978E+02-5.80238E+02 1.09965E+03-1.10144E-09 8.24232E-09
 -1       829-3.88892E+05 6.52969E+01-1.18247E+03-1.16496E+03 2.52871E-09 5.85715E-10
 -1       830-3.87763E+05-6.22168E+02-1.88018E+03 4.92966E+03-3.89036E-10-1.76078E-09
 -1       831-3.88008E+05 5.55159E+02-3.37293E+03-2.65270E+03-5.26594E-09-1.28327E-08
 -1       832-3.89938E+05-3.96286E+03-8.16063E+03 6.22686E+03-4.05300E-09 5.05133E-09
 -1       833-3.86733E+05 3.41580E+03-1.30594E+04-2.46221E+03-1.85798E-09-2.29193E-09
 -1       834-3.98919E+05-2.51018E+04-3.53794E+04 4.23637E+03-3.73009E-09 4.51473E-09
 -1       835-3.79009E+05 2.16609E+04-5.04814E+04-6.62129E+02 5.05568E-09-1.40790E-09
 -1       836-1.41568E+03 3.70566E+05 2.29325E+04-1.61575E+04-7.14135E-09 1.49544E-08
 -1       837 4.88814E+03 3.77748E+05 1.94001E+04-3.30209E+04-7.50339E-09 1.35335E-08
 -1       838-5.58663E+02 3.72580E+05 1.97591E+04-1.60859E+04-6.33736E-09 1.25965E-10
 -1       839 1.24317E+04 3.83366E+05 3.73712E+04-3.30735E+04-6.69570E-09-1.46354E-08
 -1       840-3.84387E+03 3.64888E+05 5.95903E+04-1.61108E+04-6.34464E-09-7.77744E-09
 -1       856-5.20438E+04 8.02345E+03-2.11435E+04-3.97476E+02 4.22733E-09 6.22094E-10
 -1       857-6.07543E+04-9.42736E+03-1.45550E+04 5.63538E+03 5.11378E-09-1.01268E-08
 -1       858-5.54934E+04 1.12521E+03-5.48623E+03-4.21559E+02 2.31705E-09 3.18732E-09
 -1       859-5.67956E+04-1.32384E+03-3.31067E+03 5.67119E+03-5.97004E-09 8.57631E-09
 -1       860-5.60088E+04 1.57587E+02-1.38748E+03-4.33020E+02-1.69848E-10 1.09295E-08
 -1       861-5.62027E+04-1.88184E+02-7.63217E+02 5.68680E+03 1.24915E-09 4.81964E-09
 -1       862-5.60894E+04 2.13494E+01-3.17137E+02-4.37145E+02-3.73081E-09-7.98019E-09
 -1       863-5.61039E+04-2.18824E+01-1.15246E+02 5.68920E+03-4.70166E-09 1.88474E-08
 -1       864-5.61081E+04-4.93013E+00 4.78200E+01-4.35417E+02-4.57398E-09 1.74524E-10
 -1       865-5.60480E+04 5.98598E+01 2.56599E+02 5.67932E+03-3.73359E-09 5.02967E-09
 -1       866-5.61431E+04-6.04069E+01 5.16802E+02-4.27269E+02-1.70530E-11-3.31062E-09
 -1       867-5.58050E+04 4.98815E+02 1.27185E+03 5.65720E+03 2.83902E-09 2.80835E-08
 -1       868-5.63462E+04-4.35951E+02 2.11339E+03-4.13297E+02-1.31269E-09 1.10226E-08
 -1       869-5.42557E+04 3.62826E+03 5.62717E+03 5.62081E+03 4.26712E-09-1.95929E-08
 -1       870-5.76847E+04-3.10484E+03 8.16630E+03-3.90775E+02-4.15480E-09-1.38243E-09
 -1       871-5.52181E+03-2.13915E+04-1.95073E+04 1.30535E+05-5.28962E-09 3.41724E-08
 -1       872-1.98218E+03-2.59279E+04-8.16899E+03 1.69259E+05-1.05883E-08 2.08274E-08
 -1       873 4.06793E+02-2.37335E+04 5.88251E+02 1.30248E+05-5.30326E-09 1.27599E-08
 -1       874 3.30942E+03-2.13221E+04 9.78291E+03 1.69288E+05-1.12386E-08-7.69137E-09
 -1       875 6.85088E+03-2.60641E+04 2.20711E+04 1.30487E+05-6.08270E-09-1.16133E-08
 -1       876 2.93921E+05 4.95328E+04 1.51060E+04 1.17945E+05-5.45924E-10-2.42371E-08
 -1       877 2.94920E+05 5.27138E+04 8.06721E+03 1.22278E+05 1.09835E-08-1.28275E-08
 -1       878 2.95333E+05 4.78594E+04 3.37976E+03 1.19183E+05-4.52155E-09 4.43424E-09
 -1       879 2.92866E+05 5.06645E+04 1.68401E+03 1.22380E+05-6.25732E-10 3.65083E-09
 -1       880 2.95434E+05 4.78422E+04 7.84394E+02 1.19233E+05-3.63661E-09 1.47651E-08
 -1       881 2.92730E+05 5.05769E+04 4.18904E+02 1.22357E+05-6.80438E-09 6.54470E-09
 -1       882 2.95444E+05 4.78554E+04 2.68033E+02 1.19235E+05-1.34605E-09-1.34893E-08
 -1       883 2.92720E+05 5.05723E+04 2.88217E+02 1.22349E+05-3.76076E-10 8.82437E-10
 -1       884 2.95437E+05 4.78526E+04 4.58549E+02 1.19235E+05-1.41279E-09-7.98929E-09
 -1       885 2.92757E+05 5.05786E+04 9.21976E+02 1.22360E+05-2.42579E-09-5.54428E-09
 -1       886 2.95401E+05 4.78257E+04 1.85822E+03 1.19231E+05-1.13535E-09-1.08025E-08
 -1       887 2.93083E+05 5.07928E+04 4.05903E+03 1.22407E+05 9.49703E-09-6.30507E-09
 -1       888 2.95145E+05 4.78709E+04 8.17906E+03 1.19102E+05 1.27703E-09 1.07402E-08
 -1       889 2.97952E+05 5.58566E+04 1.95382E+04 1.22258E+05-2.15977E-09 1.97997E-08
 -1       890 2.91806E+05 5.18365E+04 3.65947E+04 1.15989E+05-6.42285E-09 1.28821E-08
 -1       891-8.91738E+01-1.62843E+05-1.99773E+03 2.71502E+04-1.55273E-09 2.43460E-08
 -1       892-1.75103E+02-1.63371E+05-2.14541E+03 4.12297E+04 2.90152E-09 4.46441E-08
 -1       893 4.39845E+01-1.62907E+05-3.03745E+03 2.71576E+04-5.71163E-10 4.46244E-09
 -1       894-1.51040E+03-1.64518E+05-6.28624E+03 4.10771E+04 5.04724E-09-1.50098E-08
 -1       895-1.19957E+03-1.61597E+05-1.10699E+04 2.73046E+04-3.63457E-10 2.08547E-09
 -1       956-3.77438E+05-5.45400E+03-1.34629E+04 3.09030E+04 7.17409E-09 1.36697E-09
 -1       957-3.80079E+05-1.92413E+03-6.91032E+03 3.71371E+04 2.65618E-09-2.81216E-08
 -1       958-3.78647E+05-2.41257E+02-3.11401E+03 3.07351E+04-6.71571E-09-1.43773E-08
 -1       959-3.78844E+05-1.36520E+02-1.59006E+03 3.73329E+04-1.36924E-09 1.81271E-08
 -1       960-3.78766E+05-4.49645E+01-7.75390E+02 3.07178E+04 1.24965E-09 2.76214E-09
 -1       961-3.78764E+05-6.34056E+01-4.11099E+02 3.73534E+04 1.62913E-09-2.81602E-08
 -1       962-3.78793E+05-4.61726E+01-2.35360E+02 3.07149E+04-1.95587E-09-5.67525E-09
 -1       963-3.78764E+05-5.91993E+01-1.88929E+02 3.73571E+04 7.85258E-09 9.89417E-09
 -1       964-3.78799E+05-4.28123E+01-2.29747E+02 3.07141E+04-1.13104E-10 3.88854E-09
 -1       965-3.78776E+05-5.62409E+01-3.97363E+02 3.73564E+04-1.51567E-09 2.97632E-10
 -1       966-3.78783E+05-3.49784E+01-7.46635E+02 3.07156E+04 1.63845E-09-7.04108E-09
 -1       967-3.78866E+05-1.19843E+02-1.53133E+03 3.73420E+04-1.33696E-10-4.60022E-09
 -1       968-3.78679E+05-2.17611E+02-2.99780E+03 3.07283E+04 1.35378E-09 7.09315E-09
 -1       969-3.80067E+05-1.83580E+03-6.65503E+03 3.71933E+04 2.91948E-09 8.59757E-09
 -1       970-3.77522E+05-5.23380E+03-1.29644E+04 3.08557E+04 2.78305E-10 1.63518E-08
 -1       971-3.45553E+05-1.72793E+03-9.31190E+03 1.53810E+04 8.50832E-09-2.06980E-08
 -1       972-3.47795E+05-1.27217E+03-5.07116E+03 2.12714E+04 2.55068E-09-2.89765E-09
 -1       973-3.46591E+05-6.21345E+01-2.27143E+03 1.52599E+04 2.30466E-09-1.03194E-08
 -1       974-3.46726E+05-8.12197E+01-1.17743E+03 2.14085E+04 2.02090E-09 1.77439E-08
 -1       975-3.46673E+05-1.72497E+01-5.89030E+02 1.52475E+04-9.61791E-10 8.58404E-09
 -1       976-3.46664E+05-3.13653E+01-3.40686E+02 2.14243E+04 3.56340E-09-1.25258E-08
 -1       977-3.46689E+05-1.65030E+01-2.48798E+02 1.52442E+04 2.50634E-09-6.93581E-09
 -1       978-3.46670E+05-2.51383E+01-2.93237E+02 2.14292E+04-1.74225E-09 9.59290E-10
 -1       979-3.46689E+05-8.02037E+00-4.72937E+02 1.52427E+04 7.27596E-12-2.11537E-08
 -1       980-3.46705E+05-2.20755E+01-9.14310E+02 2.14302E+04-5.20193E-09-8.51855E-09
 -1       981-3.46660E+05 1.48339E+01-1.77140E+03 1.52432E+04-2.32717E-10-1.13096E-09
 -1       982-3.46948E+05-1.52962E+02-3.66177E+03 2.14236E+04 9.15577E-09-1.49727E-08
 -1       983-3.46437E+05-9.85919E+01-7.11501E+03 1.52493E+04-1.86901E-09-4.00451E-09
 -1       984-3.50370E+05-3.86892E+03-1.59339E+04 2.13379E+04-4.37876E-09 3.52273E-08
 -1       985-3.43215E+05-5.30491E+03-2.92595E+04 1.53206E+04-3.75849E-09-4.27099E-09
 -3
    1PSTEP                        49          25           1          
  100CL  125 6.63149E-01         409                     0   25           1
 -4  DISP        4    1
 -5  D1          1    2    1    0
 -5  D2          1    2    2    0
 -5  D3          1    2    3    0
 -5  ALL         1    2    0    0    1ALL
 -1         1 2.71002E-03 0.00000E+00 0.00000E+00
 -1         2 1.37434E-03-1.49404E-28-5.29396E-23
 -1         3 3.39332E-04-5.43655E-28-1.32349E-23
 -1         5 1.77257E-04-2.74088E-27 2.48154E-24
 -1         8 2.69887E-03-4.11078E-07 0.00000E+00
 -1         9 2.69225E-03-1.82848E-04 0.00000E+00
 -1        10 3.09353E-04-3.40913E-06 6.61744E-24
 -1        12 1.79109E-04 8.09933E-07-8.27181E-25
 -1        15 2.68607E-03-4.35665E-07 2.06795E-25
 -1        16 2.75536E-03-1.84625E-04 0.00000E+00
 -1        17 2.11738E-04-7.91867E-06 0.00000E+00
 -1        18 1.83070E-04 3.44847E-05 0.00000E+00
 -1        19 1.84664E-04 1.61343E-06 0.00000E+00
 -1        20 1.84804E-04-9.93116E-06 0.00000E+00
 -1        21 1.83910E-04-2.55244E-05 0.00000E+00
 -1        24 3.06831E-05-1.21539E-05 0.00000E+00
 -1        25 1.93877E-04 3.47109E-05 0.00000E+00
 -1        26 1.94558E-04 2.23416E-06 0.00000E+00
 -1        27 1.92355E-04-1.34919E-05 0.00000E+00
 -1        28 1.92040E-04-2.61467E-05 0.00000E+00
 -1        32 0.00000E+00 0.00000E+00 0.00000E+00
 -1        33 2.03448E-04 2.98864E-06 0.00000E+00
 -1        34 2.01328E-04-1.35482E-05 0.00000E+00
 -1        35 1.99395E-04-2.64893E-05 0.00000E+00
 -1        51 2.70927E-03-8.57712E-08 0.00000E+00
 -1        52 2.70791E-03-1.53244E-07 0.00000E+00
 -1        53 2.70605E-03-2.17290E-07 0.00000E+00
 -1        54 2.70384E-03-2.80142E-07 0.00000E+00
 -1        55 2.70140E-03-3.43560E-07 3.30872E-24
 -1        56 2.70272E-03 7.54255E-06 5.29396E-23
 -1        57 2.68878E-03 3.15020E-05 0.00000E+00
 -1        58 2.67028E-03 6.66726E-05 0.00000E+00
 -1        59 2.64968E-03 1.06769E-04 0.00000E+00
 -1        60 2.63001E-03 1.44665E-04 0.00000E+00
 -1        61 2.61412E-03 1.73409E-04-5.29396E-23
 -1        62 2.60400E-03 1.87689E-04 0.00000E+00
 -1        63 2.60094E-03 1.83481E-04 0.00000E+00
 -1        64 2.60480E-03 1.60146E-04 1.05879E-22
 -1        65 2.61481E-03 1.18846E-04 0.00000E+00
 -1        66 2.62920E-03 6.41338E-05 0.00000E+00
 -1        67 2.64596E-03 1.86966E-06 0.00000E+00
 -1        68 2.66281E-03-6.06319E-05-1.05879E-22
 -1        69 2.67744E-03-1.16026E-04 0.00000E+00
 -1        70 2.68781E-03-1.58343E-04 5.29396E-23
 -1        86 1.45718E-03-5.83169E-06 5.29396E-23
 -1        87 1.69713E-03-3.64360E-05 2.64698E-23
 -1        88 2.01974E-03-8.89540E-05 0.00000E+00
 -1        89 2.34655E-03-1.42870E-04-1.32349E-23
 -1        90 2.59669E-03-1.75857E-04 0.00000E+00
 -1       121 3.38490E-04-5.52423E-07 0.00000E+00
 -1       122 3.35968E-04-1.10758E-06 6.61744E-24
 -1       123 3.31774E-04-1.66814E-06-1.32349E-23
 -1       124 3.25925E-04-2.23685E-06 0.00000E+00
 -1       125 3.18442E-04-2.81596E-06-1.32349E-23
 -1       191 1.77309E-04 1.35053E-07-2.48154E-24
 -1       192 1.77463E-04 2.70094E-07 1.24077E-24
 -1       193 1.77720E-04 4.05116E-07 8.27181E-25
 -1       194 1.78080E-04 5.40105E-07-1.24077E-24
 -1       195 1.78543E-04 6.75048E-07 8.27181E-25
 -1       251 2.69856E-03 1.76611E-06-6.61744E-24
 -1       252 2.69825E-03 3.93803E-06 3.30872E-24
 -1       253 2.69794E-03 5.11505E-06 0.00000E+00
 -1       254 2.69763E-03 4.32008E-06 0.00000E+00
 -1       255 2.69731E-03 8.80848E-07 0.00000E+00
 -1       256 2.69698E-03-5.84121E-06 0.00000E+00
 -1       257 2.69662E-03-1.59776E-05-1.32349E-23
 -1       258 2.69621E-03-2.96163E-05 0.00000E+00
 -1       259 2.69577E-03-4.63048E-05-1.32349E-23
 -1       260 2.69528E-03-6.55512E-05-6.61744E-24
 -1       261 2.69476E-03-8.64688E-05 1.32349E-23
 -1       262 2.69422E-03-1.08150E-04 0.00000E+00
 -1       263 2.69369E-03-1.29568E-04-1.32349E-23
 -1       264 2.69317E-03-1.49702E-04 0.00000E+00
 -1       265 2.69270E-03-1.67727E-04 0.00000E+00
 -1       266 2.69674E-03-4.20906E-07 3.30872E-24
 -1       267 2.69460E-03-4.24306E-07-8.27181E-25
 -1       268 2.69247E-03-4.28112E-07 8.27181E-25
 -1       269 2.69033E-03-4.30713E-07 0.00000E+00
 -1       270 2.68820E-03-4.33285E-07 0.00000E+00
 -1       271 2.69796E-03 1.99997E-07-1.32349E-23
 -1       272 2.69797E-03-1.69152E-06 0.00000E+00
 -1       273 2.69885E-03-5.94098E-06-1.32349E-23
 -1       274 2.70055E-03-1.23924E-05 0.00000E+00
 -1       275 2.70299E-03-2.08693E-05 0.00000E+00
 -1       276 2.70610E-03-3.11806E-05 1.32349E-23
 -1       277 2.70979E-03-4.31192E-05-2.64698E-23
 -1       278 2.71400E-03-5.64654E-05 0.00000E+00
 -1       279 2.71863E-03-7.09877E-05-2.64698E-23
 -1       280 2.72360E-03-8.64452E-05-1.32349E-23
 -1       281 2.72881E-03-1.02589E-04 0.00000E+00
 -1       282 2.73418E-03-1.19165E-04 0.00000E+00
 -1       283 2.73961E-03-1.35916E-04 0.00000E+00
 -1       284 2.74501E-03-1.52581E-04-6.61744E-24
 -1       285 2.75029E-03-1.68904E-04 0.00000E+00
 -1       301 2.70373E-03-1.83177E-04 6.61744E-24
 -1       302 2.71358E-03-1.83462E-04-3.30872E-24
 -1       303 2.72275E-03-1.83736E-04-1.32349E-23
 -1       304 2.73215E-03-1.84012E-04 0.00000E+00
 -1       305 2.74271E-03-1.84300E-04 0.00000E+00
 -1       306 2.73005E-03-3.37016E-04 0.00000E+00
 -1       307 2.79394E-03-7.50665E-04 0.00000E+00
 -1       308 2.84067E-03-1.35570E-03 1.05879E-22
 -1       309 2.86453E-03-2.05618E-03 0.00000E+00
 -1       310 2.89579E-03-2.72641E-03-1.05879E-22
 -1       311 2.95522E-03-3.24333E-03-5.29396E-23
 -1       312 3.01314E-03-3.52628E-03-1.05879E-22
 -1       313 3.00880E-03-3.53728E-03-5.29396E-23
 -1       314 2.86838E-03-3.28826E-03 0.00000E+00
 -1       315 2.55091E-03-2.84360E-03 0.00000E+00
 -1       316 2.07463E-03-2.27990E-03 0.00000E+00
 -1       317 1.50533E-03-1.66652E-03 0.00000E+00
 -1       318 9.57231E-04-1.06416E-03-1.05879E-22
 -1       319 5.38299E-04-5.37818E-04-5.29396E-23
 -1       320 2.92350E-04-1.61600E-04 0.00000E+00
 -1       336 2.98349E-04-4.08930E-06-1.32349E-23
 -1       337 2.85135E-04-4.79626E-06 6.61744E-24
 -1       338 2.69779E-04-5.53209E-06 0.00000E+00
 -1       339 2.52364E-04-6.29794E-06 0.00000E+00
 -1       340 2.32982E-04-7.09871E-06 0.00000E+00
 -1       406 1.79778E-04 9.44741E-07-2.48154E-24
 -1       407 1.80549E-04 1.07943E-06-8.27181E-25
 -1       408 1.81424E-04 1.21396E-06 8.27181E-25
 -1       409 1.82402E-04 1.34815E-06-1.44757E-24
 -1       410 1.83482E-04 1.48172E-06-8.27181E-25
 -1       521 2.79376E-03-3.48078E-04-1.05879E-22
 -1       522 2.85588E-03-7.81929E-04 0.00000E+00
 -1       523 2.89619E-03-1.41467E-03 0.00000E+00
 -1       524 2.91087E-03-2.14365E-03 0.00000E+00
 -1       525 2.93425E-03-2.84035E-03-1.05879E-22
 -1       526 2.99012E-03-3.37921E-03 0.00000E+00
 -1       527 3.04762E-03-3.67271E-03 0.00000E+00
 -1       528 3.04099E-03-3.68195E-03 0.00000E+00
 -1       529 2.88862E-03-3.41883E-03-2.11758E-22
 -1       530 2.54729E-03-2.95566E-03 0.00000E+00
 -1       531 2.03605E-03-2.37282E-03 0.00000E+00
 -1       532 1.42710E-03-1.74227E-03 5.29396E-23
 -1       533 8.40013E-04-1.12207E-03 0.00000E+00
 -1       534 3.87878E-04-5.74921E-04-5.29396E-23
 -1       535 1.20773E-04-1.79225E-04 0.00000E+00
 -1       536 2.10980E-04 2.70775E-05 0.00000E+00
 -1       537 2.09055E-04 8.76425E-05 0.00000E+00
 -1       538 2.06079E-04 1.64492E-04 3.30872E-24
 -1       539 2.02569E-04 2.48258E-04-1.65436E-24
 -1       540 1.99410E-04 3.27413E-04 0.00000E+00
 -1       541 1.97357E-04 3.90453E-04 0.00000E+00
 -1       542 1.96409E-04 4.30612E-04-3.30872E-24
 -1       543 1.96184E-04 4.41271E-04 0.00000E+00
 -1       544 1.95861E-04 4.23206E-04-3.30872E-24
 -1       545 1.94685E-04 3.77410E-04 0.00000E+00
 -1       546 1.92492E-04 3.12026E-04-3.30872E-24
 -1       547 1.89524E-04 2.35316E-04 0.00000E+00
 -1       548 1.86582E-04 1.58981E-04 0.00000E+00
 -1       549 1.84460E-04 9.47202E-05 0.00000E+00
 -1       550 1.83358E-04 5.05814E-05-1.65436E-24
 -1       551 1.86493E-04-8.48996E-06 0.00000E+00
 -1       552 1.58007E-04-9.14166E-06 0.00000E+00
 -1       553 1.27223E-04-9.85555E-06-9.92617E-24
 -1       554 9.51021E-05-1.06105E-05 3.30872E-24
 -1       555 6.26036E-05-1.13790E-05 0.00000E+00
 -1       556 2.04073E-04 1.16792E-05 0.00000E+00
 -1       557 1.97879E-04 2.75763E-05 0.00000E+00
 -1       558 1.93022E-04 4.00609E-05-5.29396E-23
 -1       559 1.89369E-04 4.94438E-05 0.00000E+00
 -1       560 1.86789E-04 5.60359E-05 0.00000E+00
 -1       561 1.85155E-04 6.01509E-05 0.00000E+00
 -1       562 1.84340E-04 6.21039E-05 0.00000E+00
 -1       563 1.84222E-04 6.22107E-05 0.00000E+00
 -1       564 1.84677E-04 6.07880E-05 0.00000E+00
 -1       565 1.85585E-04 5.81533E-05 0.00000E+00
 -1       566 1.86826E-04 5.46244E-05 0.00000E+00
 -1       567 1.88282E-04 5.05198E-05 0.00000E+00
 -1       568 1.89832E-04 4.61581E-05-1.65436E-24
 -1       569 1.91360E-04 4.18578E-05-8.27181E-25
 -1       570 1.92747E-04 3.79373E-05 0.00000E+00
 -1       571 1.83167E-04 3.23520E-05-1.65436E-24
 -1       572 1.83266E-04 3.01535E-05-8.27181E-25
 -1       573 1.83365E-04 2.79049E-05-1.65436E-24
 -1       574 1.83464E-04 2.56226E-05 8.27181E-25
 -1       575 1.83564E-04 2.33231E-05-3.30872E-24
 -1       576 1.83663E-04 2.10227E-05 0.00000E+00
 -1       577 1.83763E-04 1.87382E-05 0.00000E+00
 -1       578 1.83863E-04 1.64860E-05-6.61744E-24
 -1       579 1.83962E-04 1.42827E-05 0.00000E+00
 -1       580 1.84062E-04 1.21448E-05-6.61744E-24
 -1       581 1.84162E-04 1.00889E-05 0.00000E+00
 -1       582 1.84262E-04 8.13151E-06 0.00000E+00
 -1       583 1.84363E-04 6.28911E-06 0.00000E+00
 -1       584 1.84463E-04 4.57807E-06 0.00000E+00
 -1       585 1.84564E-04 3.01458E-06 6.61744E-24
 -1       586 1.84831E-04 3.45245E-05-1.65436E-24
 -1       587 1.86550E-04 3.45638E-05 4.13590E-25
 -1       588 1.88271E-04 3.46027E-05 8.27181E-25
 -1       589 1.90037E-04 3.46409E-05 0.00000E+00
 -1       590 1.91891E-04 3.46779E-05 0.00000E+00
 -1       591 1.83801E-04 3.24459E-05 0.00000E+00
 -1       592 1.84536E-04 3.03872E-05 0.00000E+00
 -1       593 1.85274E-04 2.83145E-05 8.27181E-25
 -1       594 1.86016E-04 2.62325E-05-4.13590E-25
 -1       595 1.86760E-04 2.41459E-05 8.27181E-25
 -1       596 1.87503E-04 2.20594E-05 4.13590E-25
 -1       597 1.88245E-04 1.99778E-05 8.27181E-25
 -1       598 1.88983E-04 1.79057E-05-4.13590E-25
 -1       599 1.89716E-04 1.58477E-05 0.00000E+00
 -1       600 1.90442E-04 1.38087E-05 0.00000E+00
 -1       601 1.91159E-04 1.17932E-05-8.27181E-25
 -1       602 1.91865E-04 9.80585E-06-2.06795E-25
 -1       603 1.92560E-04 7.85147E-06-4.13590E-25
 -1       604 1.93240E-04 5.93479E-06 1.29247E-25
 -1       605 1.93906E-04 4.06040E-06 4.13590E-25
 -1       606 1.84678E-04 4.45807E-07 0.00000E+00
 -1       607 1.84687E-04-6.36092E-07 0.00000E+00
 -1       608 1.84696E-04-1.63730E-06 0.00000E+00
 -1       609 1.84705E-04-2.56348E-06 0.00000E+00
 -1       610 1.84713E-04-3.42038E-06 0.00000E+00
 -1       611 1.84721E-04-4.21377E-06 0.00000E+00
 -1       612 1.84730E-04-4.94945E-06 0.00000E+00
 -1       613 1.84738E-04-5.63323E-06 0.00000E+00
 -1       614 1.84746E-04-6.27090E-06 0.00000E+00
 -1       615 1.84755E-04-6.86827E-06 0.00000E+00
 -1       616 1.84763E-04-7.43114E-06 0.00000E+00
 -1       617 1.84771E-04-7.96532E-06 0.00000E+00
 -1       618 1.84780E-04-8.47661E-06 0.00000E+00
 -1       619 1.84788E-04-8.97081E-06 0.00000E+00
 -1       620 1.84796E-04-9.45373E-06 0.00000E+00
 -1       621 1.86027E-04 1.71746E-06 0.00000E+00
 -1       622 1.87548E-04 1.82173E-06 0.00000E+00
 -1       623 1.89196E-04 1.92578E-06-3.30872E-24
 -1       624 1.90936E-04 2.02951E-06-1.65436E-24
 -1       625 1.92734E-04 2.13294E-06 0.00000E+00
 -1       626 1.85214E-04 4.81945E-07 0.00000E+00
 -1       627 1.85742E-04-5.86619E-07 0.00000E+00
 -1       628 1.86249E-04-1.60011E-06 6.61744E-24
 -1       629 1.86738E-04-2.56668E-06 0.00000E+00
 -1       630 1.87213E-04-3.49453E-06 0.00000E+00
 -1       631 1.87677E-04-4.39186E-06 0.00000E+00
 -1       632 1.88132E-04-5.26686E-06-3.30872E-24
 -1       633 1.88582E-04-6.12776E-06 1.65436E-24
 -1       634 1.89030E-04-6.98274E-06 3.30872E-24
 -1       635 1.89479E-04-7.84002E-06 0.00000E+00
 -1       636 1.89931E-04-8.70781E-06 0.00000E+00
 -1       637 1.90391E-04-9.59430E-06-1.65436E-24
 -1       638 1.90860E-04-1.05077E-05 1.65436E-24
 -1       639 1.91342E-04-1.14563E-05-8.27181E-25
 -1       640 1.91841E-04-1.24482E-05 3.30872E-24
 -1       656 1.85514E-04-1.05099E-05 0.00000E+00
 -1       657 1.86644E-04-1.11121E-05 0.00000E+00
 -1       658 1.88054E-04-1.17130E-05 0.00000E+00
 -1       659 1.89599E-04-1.23135E-05 0.00000E+00
 -1       660 1.91094E-04-1.29159E-05 0.00000E+00
 -1       661 1.85070E-04-1.04537E-05 0.00000E+00
 -1       662 1.85373E-04-1.10683E-05 0.00000E+00
 -1       663 1.85709E-04-1.17695E-05 0.00000E+00
 -1       664 1.86075E-04-1.25510E-05-8.27181E-25
 -1       665 1.86469E-04-1.34068E-05 1.65436E-24
 -1       666 1.86889E-04-1.43311E-05 8.27181E-25
 -1       667 1.87332E-04-1.53182E-05-1.65436E-24
 -1       668 1.87797E-04-1.63624E-05 0.00000E+00
 -1       669 1.88281E-04-1.74583E-05-1.65436E-24
 -1       670 1.88783E-04-1.86007E-05 8.27181E-25
 -1       671 1.89299E-04-1.97844E-05-1.65436E-24
 -1       672 1.89829E-04-2.10041E-05 8.27181E-25
 -1       673 1.90371E-04-2.22549E-05 0.00000E+00
 -1       674 1.90922E-04-2.35321E-05 0.00000E+00
 -1       675 1.91480E-04-2.48303E-05 0.00000E+00
 -1       676 1.85270E-04-2.56287E-05 0.00000E+00
 -1       677 1.86629E-04-2.57330E-05-1.65436E-24
 -1       678 1.87986E-04-2.58372E-05 0.00000E+00
 -1       679 1.89341E-04-2.59411E-05 0.00000E+00
 -1       680 1.90693E-04-2.60450E-05 0.00000E+00
 -1       771 1.87228E-05 1.45933E-05 0.00000E+00
 -1       772 8.65997E-06 3.65629E-05 5.29396E-23
 -1       773 4.03906E-07 5.39852E-05 0.00000E+00
 -1       774-6.16980E-06 6.71182E-05 2.64698E-23
 -1       775-1.11828E-05 7.62302E-05 5.29396E-23
 -1       776-1.47619E-05 8.16065E-05-2.64698E-23
 -1       777-1.70332E-05 8.35423E-05 0.00000E+00
 -1       778-1.81259E-05 8.23469E-05 0.00000E+00
 -1       779-1.81682E-05 7.83379E-05-5.29396E-23
 -1       780-1.72905E-05 7.18444E-05 2.64698E-23
 -1       781-1.56223E-05 6.32024E-05 0.00000E+00
 -1       782-1.32945E-05 5.27566E-05 2.64698E-23
 -1       783-1.04373E-05 4.08564E-05 0.00000E+00
 -1       784-7.18195E-06 2.78573E-05 0.00000E+00
 -1       785-3.65880E-06 1.41182E-05 0.00000E+00
 -1       786 1.93915E-04 3.24537E-05-1.29247E-26
 -1       787 1.93957E-04 3.02466E-05 4.13590E-25
 -1       788 1.93999E-04 2.80810E-05-8.27181E-25
 -1       789 1.94041E-04 2.59491E-05-8.27181E-25
 -1       790 1.94084E-04 2.38459E-05 0.00000E+00
 -1       791 1.94126E-04 2.17667E-05 0.00000E+00
 -1       792 1.94169E-04 1.97095E-05 1.65436E-24
 -1       793 1.94212E-04 1.76719E-05 8.27181E-25
 -1       794 1.94255E-04 1.56537E-05-1.65436E-24
 -1       795 1.94298E-04 1.36549E-05 0.00000E+00
 -1       796 1.94341E-04 1.16774E-05-1.65436E-24
 -1       797 1.94384E-04 9.72286E-06 8.27181E-25
 -1       798 1.94427E-04 7.79567E-06-1.65436E-24
 -1       799 1.94470E-04 5.90014E-06 8.27181E-25
 -1       800 1.94514E-04 4.04376E-06-1.65436E-24
 -1       801 1.48030E-04 3.12061E-05 0.00000E+00
 -1       802 9.41161E-06 1.94664E-05 2.64698E-23
 -1       803-1.08982E-04 9.83148E-06 0.00000E+00
 -1       804-9.65872E-05 6.84348E-06 0.00000E+00
 -1       805-3.19007E-05 2.68800E-06-5.29396E-23
 -1       806 1.94608E-04 3.23849E-05-3.30872E-24
 -1       807 1.95325E-04 3.00850E-05 0.00000E+00
 -1       808 1.96030E-04 2.78165E-05 0.00000E+00
 -1       809 1.96721E-04 2.55833E-05 0.00000E+00
 -1       810 1.97397E-04 2.33896E-05 0.00000E+00
 -1       811 1.98057E-04 2.12394E-05 0.00000E+00
 -1       812 1.98699E-04 1.91365E-05 0.00000E+00
 -1       813 1.99323E-04 1.70849E-05 0.00000E+00
 -1       814 1.99925E-04 1.50885E-05 0.00000E+00
 -1       815 2.00506E-04 1.31513E-05 8.27181E-25
 -1       816 2.01063E-04 1.12772E-05 1.65436E-24
 -1       817 2.01595E-04 9.47001E-06-8.27181E-25
 -1       818 2.02100E-04 7.73370E-06-1.65436E-24
 -1       819 2.02578E-04 6.07215E-06-1.65436E-24
 -1       820 2.03027E-04 4.48920E-06-1.65436E-24
 -1       821 1.94428E-04-1.37299E-07 0.00000E+00
 -1       822 1.94288E-04-3.67380E-06 1.65436E-24
 -1       823 1.94145E-04-7.94395E-06 0.00000E+00
 -1       824 1.94000E-04-1.25118E-05 0.00000E+00
 -1       825 1.93856E-04-1.68608E-05-3.30872E-24
 -1       826 1.93714E-04-2.04757E-05 0.00000E+00
 -1       827 1.93575E-04-2.30414E-05 0.00000E+00
 -1       828 1.93438E-04-2.42491E-05 1.65436E-24
 -1       829 1.93303E-04-2.41598E-05 0.00000E+00
 -1       830 1.93166E-04-2.28424E-05 0.00000E+00
 -1       831 1.93028E-04-2.07004E-05-3.30872E-24
 -1       832 1.92890E-04-1.81422E-05 0.00000E+00
 -1       833 1.92752E-04-1.56897E-05-3.30872E-24
 -1       834 1.92616E-04-1.38642E-05 0.00000E+00
 -1       835 1.92482E-04-1.30166E-05 8.27181E-25
 -1       836 1.96252E-04 2.35928E-06 0.00000E+00
 -1       837 1.97819E-04 2.48754E-06 1.65436E-24
 -1       838 1.99290E-04 2.61574E-06 0.00000E+00
 -1       839 2.00698E-04 2.74324E-06 0.00000E+00
 -1       840 2.02073E-04 2.87058E-06 8.27181E-25
 -1       856 1.92339E-04-1.45579E-05 0.00000E+00
 -1       857 1.92320E-04-1.54883E-05-2.58494E-26
 -1       858 1.92301E-04-1.63039E-05 2.06795E-25
 -1       859 1.92281E-04-1.70260E-05 0.00000E+00
 -1       860 1.92262E-04-1.76758E-05 4.13590E-25
 -1       861 1.92242E-04-1.82747E-05 0.00000E+00
 -1       862 1.92222E-04-1.88438E-05 0.00000E+00
 -1       863 1.92202E-04-1.94046E-05 0.00000E+00
 -1       864 1.92183E-04-1.99785E-05-8.27181E-25
 -1       865 1.92163E-04-2.05866E-05 4.13590E-25
 -1       866 1.92143E-04-2.12505E-05 0.00000E+00
 -1       867 1.92123E-04-2.19912E-05 4.13590E-25
 -1       868 1.92103E-04-2.28301E-05 0.00000E+00
 -1       869 1.92083E-04-2.37883E-05 0.00000E+00
 -1       870 1.92062E-04-2.48868E-05 0.00000E+00
 -1       871 1.93709E-04-1.34968E-05 8.27181E-25
 -1       872 1.95211E-04-1.35052E-05 0.00000E+00
 -1       873 1.96792E-04-1.35142E-05 4.13590E-25
 -1       874 1.98384E-04-1.35240E-05-3.61892E-25
 -1       875 1.99918E-04-1.35344E-05 1.03398E-24
 -1       876 1.92882E-04-1.45434E-05 0.00000E+00
 -1       877 1.93387E-04-1.55280E-05 0.00000E+00
 -1       878 1.93870E-04-1.64538E-05 0.00000E+00
 -1       879 1.94334E-04-1.73282E-05 0.00000E+00
 -1       880 1.94782E-04-1.81584E-05 3.30872E-24
 -1       881 1.95216E-04-1.89520E-05 0.00000E+00
 -1       882 1.95639E-04-1.97163E-05 3.30872E-24
 -1       883 1.96054E-04-2.04586E-05 1.65436E-24
 -1       884 1.96463E-04-2.11862E-05-3.30872E-24
 -1       885 1.96870E-04-2.19065E-05 1.65436E-24
 -1       886 1.97276E-04-2.26269E-05 0.00000E+00
 -1       887 1.97686E-04-2.33546E-05 0.00000E+00
 -1       888 1.98100E-04-2.40971E-05 0.00000E+00
 -1       889 1.98522E-04-2.48619E-05 0.00000E+00
 -1       890 1.98955E-04-2.56562E-05 1.65436E-24
 -1       891 1.93408E-04-2.62042E-05 0.00000E+00
 -1       892 1.94753E-04-2.62619E-05 0.00000E+00
 -1       893 1.96049E-04-2.63196E-05-8.27181E-25
 -1       894 1.97271E-04-2.63769E-05 0.00000E+00
 -1       895 1.98395E-04-2.64340E-05-4.13590E-25
 -1       956 2.03317E-04 1.66294E-06 1.65436E-24
 -1       957 2.03185E-04 4.28909E-07 8.27181E-25
 -1       958 2.03052E-04-7.24208E-07-3.30872E-24
 -1       959 2.02919E-04-1.80776E-06 0.00000E+00
 -1       960 2.02786E-04-2.83316E-06 3.30872E-24
 -1       961 2.02653E-04-3.81184E-06-1.65436E-24
 -1       962 2.02520E-04-4.75522E-06 0.00000E+00
 -1       963 2.02387E-04-5.67480E-06 0.00000E+00
 -1       964 2.02255E-04-6.58202E-06 3.30872E-24
 -1       965 2.02122E-04-7.48834E-06 0.00000E+00
 -1       966 2.01989E-04-8.40523E-06 0.00000E+00
 -1       967 2.01856E-04-9.34414E-06 1.65436E-24
 -1       968 2.01723E-04-1.03165E-05 0.00000E+00
 -1       969 2.01591E-04-1.13338E-05 0.00000E+00
 -1       970 2.01458E-04-1.24074E-05 3.30872E-24
 -1       971 2.01208E-04-1.46887E-05 0.00000E+00
 -1       972 2.01087E-04-1.57346E-05 0.00000E+00
 -1       973 2.00965E-04-1.66963E-05 0.00000E+00
 -1       974 2.00844E-04-1.75848E-05-1.65436E-24
 -1       975 2.00722E-04-1.84108E-05 3.30872E-24
 -1       976 2.00601E-04-1.91852E-05 0.00000E+00
 -1       977 2.00479E-04-1.99189E-05 0.00000E+00
 -1       978 2.00358E-04-2.06228E-05 1.65436E-24
 -1       979 2.00237E-04-2.13078E-05 0.00000E+00
 -1       980 2.00115E-04-2.19848E-05 0.00000E+00
 -1       981 1.99994E-04-2.26647E-05 3.30872E-24
 -1       982 1.99873E-04-2.33584E-05 1.65436E-24
 -1       983 1.99751E-04-2.40769E-05 0.00000E+00
 -1       984 1.99631E-04-2.48310E-05-1.65436E-24
 -1       985 1.99511E-04-2.56316E-05 0.00000E+00
 -3
    1PSTEP                        50          25           1          
  100CL  125 6.63149E-01         409                     0   25           1
 -4  STRESS      6    1
 -5  SXX         1    4    1    1
 -5  SYY         1    4    2    2
 -5  SZZ         1    4    3    3
 -5  SXY         1    4    1    2
 -5  SYZ         1    4    2    3
 -5  SZX         1    4    3    1
 -1         1-5.32479E+06-1.62754E+06-1.13336E+06-1.40188E+06 2.79397E-09-4.43251E-08
 -1         2 1.37925E+06 2.02838E+07 4.76586E+06 6.10663E+06 3.14030E-08-4.57949E-08
 -1         3-1.29421E+03-1.56971E+06 6.00635E+02-2.08844E+03-5.64899E-10 6.09725E-09
 -1         5-7.56800E+01 3.86738E+05 9.99232E+00-1.34835E+00-5.25125E-10-1.28057E-08
 -1         8-5.71680E+05-2.04617E+05-6.47059E+04-2.49333E+05-5.54792E-11 9.16116E-08
 -1         9 1.16584E+07 3.54765E+06 2.71716E+06-4.02465E+05 3.71365E-09-3.96743E-08
 -1        10-3.61139E+03-1.67219E+06-5.10423E+03-1.54103E+04-5.55701E-09-1.87048E-08
 -1        12-7.17586E+01 3.86759E+05 3.28496E+02-9.18808E+00-6.44917E-10 3.25144E-08
 -1        15 9.49590E+02 5.21847E+02 3.06952E+03 8.76263E-01-4.10722E-10 3.87355E-07
 -1        16 2.28393E+07-3.14957E+05 3.11340E+06-2.23311E+06 1.79668E-08-2.28950E-08
 -1        17 8.34887E+06 6.24614E+06 2.25414E+06 5.99272E+06 4.44183E-08 2.49478E-08
 -1        18 1.43113E+05 3.37250E+04 4.32571E+03-1.19689E+05 1.59673E-08 2.09729E-09
 -1        19 1.22500E+05 1.41791E+05-9.43571E+02 2.19714E+04 1.65892E-09 4.01851E-09
 -1        20-8.20905E+04-5.74061E+05-1.28820E+05 2.50866E+04-2.63177E-09 2.40871E-08
 -1        21-4.55767E+01-2.96095E+05-9.24139E+02 2.76140E+02 1.53874E-08 5.32212E-09
 -1        24 1.39677E+07 1.20392E+07 3.86970E+06 1.11486E+07-1.73110E-07-5.80912E-08
 -1        25 1.25688E+05 2.69854E+05 1.00651E+05-6.47333E+05 8.40373E-11 5.10754E-09
 -1        26-5.54482E+04 9.23811E+04-2.46468E+04 1.31914E+03-1.00408E-10 8.40142E-09
 -1        27-7.55772E+04-3.10132E+05-1.13363E+05 6.90106E+04 4.67662E-09-2.00695E-10
 -1        28 2.22452E+04-8.53824E+04 1.69030E+04 2.06015E+04-3.33540E-09 1.12422E-08
 -1        32-1.68103E+06-3.18276E+06-1.97715E+05 4.60735E+05-4.23752E-08-1.15775E-08
 -1        33-1.78554E+05 9.30878E+04 3.24119E+04-3.85052E+04-3.05245E-09 6.68175E-09
 -1        34-2.23710E+05-2.50545E+04 6.90575E+02 7.57177E+04-4.29507E-09 1.64164E-09
 -1        35-2.29360E+04-3.38604E+04-1.34904E+03 5.15110E+04-4.94257E-09 1.24904E-10
 -1        51 6.03351E+04-1.74427E+05 1.27688E+05-4.48362E+05-7.27596E-11 5.65487E-08
 -1        52 2.04669E+04-1.52176E+05 6.70483E+04-5.22905E+05 1.79170E-10 3.20462E-07
 -1        53 4.22190E+03-1.67563E+05 3.49928E+04-4.46813E+05 2.51021E-10 1.56986E-07
 -1        54 7.54305E+03-1.63361E+05 2.89093E+04-5.24430E+05 3.38332E-10-3.69555E-07
 -1        55 1.64171E+04-1.70483E+05 3.53473E+04-4.46710E+05 3.41970E-10 1.46398E-07
 -1        56-9.73752E+06-1.32347E+06-8.97288E+05-4.03215E+06 4.97676E-09 6.55709E-08
 -1        57-1.09452E+07-9.37395E+05-5.51889E+05-2.81140E+06-3.09956E-09 3.24413E-07
 -1        58-9.60537E+06-1.76630E+06-1.99896E+05-4.19368E+06-5.83532E-09 1.93468E-08
 -1        59-1.10501E+07-4.37575E+05-1.10273E+05-2.74846E+06 9.23683E-09-3.49413E-07
 -1        60-9.69148E+06-1.77172E+06-5.51371E+04-4.14764E+06-3.95084E-09-2.43148E-07
 -1        61-1.04981E+07-7.26756E+05 6.71875E+03-2.98771E+06 3.24217E-08-6.68751E-08
 -1        62-1.00504E+07-1.54901E+06-6.23471E+04-3.87089E+06-7.42148E-10-1.19631E-07
 -1        63-9.72921E+06-1.34867E+06 4.00531E+04-3.61528E+06 4.74465E-08-8.67349E-08
 -1        64-1.03772E+07-1.20881E+06-5.71863E+04-3.46672E+06-5.25179E-08 9.11241E-08
 -1        65-9.37159E+06-1.88682E+06 4.69016E+03-4.39847E+06 6.74117E-09 3.22254E-08
 -1        66-1.05063E+07-9.42670E+05-4.58444E+04-3.16147E+06-1.45883E-08 2.86833E-07
 -1        67-9.35899E+06-2.12471E+06-9.94047E+04-4.76571E+06-4.49927E-08 6.97783E-08
 -1        68-1.04870E+07-9.03286E+05-1.84523E+05-3.16098E+06-5.17921E-08-1.87487E-07
 -1        69-9.56309E+06-2.22701E+06-4.92389E+05-4.36488E+06-8.99490E-10-4.01378E-07
 -1        70-1.02138E+07-9.13680E+05-8.21351E+05-3.50196E+06 1.54178E-08 1.90223E-07
 -1        86-1.40661E+06-1.48036E+07-2.60707E+06-2.87350E+06-2.69443E-07-6.91216E-09
 -1        87 2.19160E+06 5.74100E+06 2.16904E+06 5.40165E+06-4.42313E-07-1.50412E-07
 -1        88-4.02657E+05-2.04459E+06 2.02519E+05-2.45777E+06-4.01740E-07-2.07750E-07
 -1        89 2.93695E+06 5.47583E+06 2.22103E+06 5.57567E+06-5.66411E-07-4.89563E-08
 -1        90-2.06815E+06-1.46072E+07-2.81896E+06-3.07246E+06-1.36020E-07-5.99539E-08
 -1       121-1.80180E+03-1.57407E+06-1.89820E+02 1.03624E+03 1.42103E-09 8.98581E-10
 -1       122-1.05543E+03-1.56971E+06 1.21616E+03-4.17828E+03-5.13526E-09-3.76895E-08
 -1       123-1.87544E+03-1.57424E+06 1.17307E+03 3.09467E+03 3.76212E-09-6.41012E-09
 -1       124 1.31331E+03-1.56873E+06 4.86302E+03-8.73900E+03-9.69476E-09 1.10940E-08
 -1       125-3.19555E+03-1.57556E+06 6.65011E+03 5.56164E+03 6.27369E-09-5.22050E-09
 -1       191-7.97512E+01 3.86756E+05 8.47922E+00 7.03158E-01-6.06977E-10-1.95378E-08
 -1       192-7.66450E+01 3.86738E+05 2.13242E+01-4.32074E+00-7.70009E-10-1.32095E-08
 -1       193-8.22912E+01 3.86756E+05 3.62875E+01 3.79503E+00-1.04139E-09-1.24546E-08
 -1       194-7.97388E+01 3.86742E+05 8.10671E+01-9.80361E+00-5.27847E-10-2.82207E-08
 -1       195-8.71663E+01 3.86753E+05 1.55188E+02 6.38088E+00-1.40778E-09-7.97991E-09
 -1       251-8.83179E+05 1.64934E+04-3.85429E+04-1.43414E+04-5.69847E-09 7.51206E-08
 -1       252-8.98161E+05-1.90682E+04-2.68793E+04 4.97924E+04 8.92103E-09-7.41375E-08
 -1       253-8.91433E+05 2.54139E+03-1.03116E+04-1.05510E+04-6.76539E-09 2.54531E-08
 -1       254-8.85051E+05-3.04219E+03-4.81878E+03 3.59300E+04 9.27912E-09-1.68414E-07
 -1       255-8.95720E+05 9.36987E+01-3.49291E+03-4.81659E+02-5.04315E-10-1.37567E-08
 -1       256-8.79634E+05-2.93975E+02 9.96152E+02 1.28428E+04-7.10986E-09 2.89809E-07
 -1       257-8.96412E+05-5.30413E+02-1.34437E+03 1.25261E+04 1.01820E-08-3.27781E-08
 -1       258-8.82091E+05 8.43438E+02 2.58990E+03-1.17298E+04-1.10576E-08-2.12883E-07
 -1       259-8.93481E+05-8.74865E+02 1.35573E+03 2.40883E+04-4.80100E-09 1.37275E-07
 -1       260-8.88110E+05 2.80757E+03 5.45992E+03-2.95657E+04 3.63046E-08-2.41773E-08
 -1       261-8.90995E+05-2.02919E+03 8.50433E+03 3.03763E+04 1.44630E-08 1.11557E-07
 -1       262-8.86732E+05 1.14902E+04 2.11262E+04-3.47967E+04-3.26017E-08 4.09297E-07
 -1       263-8.95099E+05-9.33803E+03 3.34789E+04 2.93278E+04 4.01258E-09 1.91110E-07
 -1       264-8.56877E+05 6.57818E+04 9.26585E+04-2.55868E+04 2.84172E-08 2.56956E-07
 -1       265-9.20372E+05-5.64436E+04 1.29088E+05 2.11554E+04 4.74358E-09 1.78319E-07
 -1       266-1.71910E+04-8.03930E+03 4.03311E+04-1.87479E+01-2.36469E-11-1.39521E-07
 -1       267 1.99288E+04 9.36873E+03 2.85074E+04 2.16332E+01 4.45652E-11-3.02846E-07
 -1       268-2.67243E+03-1.32694E+03 1.05959E+04-2.75634E+00-4.41105E-11-7.63623E-08
 -1       269 3.15533E+03 1.58799E+03 6.88729E+03 3.21083E+00 1.02318E-11 7.95352E-09
 -1       270-4.73619E+02-2.60921E+02 3.32459E+03-4.35728E-01 7.65112E-11 2.23760E-07
 -1       271-1.51661E+06-1.92057E+05-1.14042E+05-5.89440E+05 4.77012E-08 1.41154E-08
 -1       272-1.51869E+06-3.03483E+05-7.18807E+04-6.22994E+05-8.33388E-08-2.07772E-07
 -1       273-1.54051E+06-2.16715E+05-2.75597E+04-5.81455E+05 1.95905E-08-3.18869E-09
 -1       274-1.49115E+06-2.73890E+05-1.44860E+04-6.37772E+05 8.29459E-09 1.79694E-07
 -1       275-1.54605E+06-2.16555E+05-6.81266E+03-5.77771E+05-2.13913E-08 1.03688E-07
 -1       276-1.48526E+06-2.74626E+05-2.95893E+03-6.45992E+05 1.47811E-08 2.73169E-07
 -1       277-1.54881E+06-2.14072E+05-1.87347E+03-5.75100E+05 3.32329E-09 2.39485E-07
 -1       278-1.48289E+06-2.77787E+05-7.65917E+02-6.52048E+05-3.93175E-09-9.51823E-08
 -1       279-1.55057E+06-2.12005E+05-9.05359E+02-5.73209E+05 1.41918E-08-1.21553E-07
 -1       280-1.48174E+06-2.80220E+05-1.09399E+03-6.56075E+05-3.83543E-08 7.30746E-08
 -1       281-1.55152E+06-2.10661E+05-2.01711E+03-5.72125E+05-2.53222E-08 5.75403E-09
 -1       282-1.48211E+06-2.82578E+05-4.70033E+03-6.57784E+05 1.68204E-08-3.64837E-08
 -1       283-1.55098E+06-2.09286E+05-8.36198E+03-5.71969E+05-3.27736E-08-1.81271E-08
 -1       284-1.48956E+06-2.93666E+05-2.27872E+04-6.55615E+05 5.47004E-09-1.85726E-07
 -1       285-1.54408E+06-2.00808E+05-3.55345E+04-5.73792E+05-1.81203E-08-2.29993E-07
 -1       301-4.81129E+03-6.41223E+05 1.67354E+05-1.12389E+06-9.28412E-09-2.94312E-08
 -1       302-6.01354E+03-5.94986E+05 1.00724E+05-1.64074E+06-9.03674E-09-2.89767E-07
 -1       303-1.99179E+04-6.33131E+05 5.70804E+04-1.12083E+06-2.69210E-09-1.70166E-08
 -1       304-2.19458E+04-6.01538E+05 5.77444E+04-1.64010E+06 4.58385E-09 4.35983E-07
 -1       305-2.40394E+04-6.22080E+05 7.13881E+04-1.12394E+06 1.51613E-08-9.31468E-08
 -1       306-3.01389E+07-6.22344E+06-8.61271E+06-5.31711E+05-9.44128E-08-1.04279E-07
 -1       307 2.54012E+07 3.25925E+06 5.52010E+06-1.51958E+07-8.48086E-07 1.39058E-07
 -1       308-6.98760E+06-1.03096E+06-4.58309E+05 5.21085E+06-2.88448E-07 3.76953E-07
 -1       309-3.26950E+06 8.75392E+06 2.28428E+06-2.06729E+07 4.19950E-07 1.72295E-07
 -1       310-1.25411E+07-1.93974E+06-2.02755E+06 5.22130E+06-4.90691E-08-4.91855E-08
 -1       311 3.83600E+07 2.13952E+04 7.27020E+06-8.84933E+06 4.80592E-07 6.05360E-09
 -1       312-3.19254E+07-6.76040E+06-8.53242E+06-5.01366E+06 1.50409E-07 3.88536E-09
 -1       313 4.54720E+07 1.49684E+07 1.06683E+07 2.37645E+07-3.58123E-07-1.45665E-07
 -1       314-1.72556E+07-1.77702E+07-7.52808E+06-1.25388E+07 2.02155E-07-2.25322E-07
 -1       315-1.79359E+06 2.97282E+07 5.67416E+06 1.05872E+07-1.81317E-07 1.13505E-07
 -1       316 1.38867E+06-9.85070E+06-4.44710E+05-2.54251E+06-9.91917E-07-2.51341E-07
 -1       317-1.71289E+07 2.24254E+07 2.23958E+06-8.80991E+06 5.70129E-07-9.74862E-07
 -1       318-1.06745E+06-1.27737E+07-2.03735E+06-4.23912E+06-9.27947E-07 5.10481E-08
 -1       319 7.19402E+06 3.19452E+07 7.03356E+06 1.66033E+07-8.76607E-08 2.13826E-07
 -1       320-2.25886E+07-1.76345E+07-9.84983E+06-1.28102E+07 1.76951E-07-7.73289E-08
 -1       336 1.43739E+02-1.77730E+06-1.81301E+04 9.69028E+03-8.80482E-09-1.19035E-08
 -1       337-7.11155E+03-1.77780E+06-2.15027E+04-2.37787E+04-6.87601E-09 1.68948E-08
 -1       338 6.38854E+02-1.77717E+06-3.12810E+04 1.38330E+04-1.23318E-08 5.28016E-08
 -1       339-3.34722E+04-1.79596E+06-6.95831E+04-3.18839E+04-8.49104E-09 4.55566E-08
 -1       340 2.28464E+04-1.76152E+06-1.08393E+05 1.76681E+04-1.43082E-08 1.42682E-08
 -1       406-5.00455E+01 3.86738E+05 6.44982E+02 3.36449E+00-1.98307E-09 2.08292E-08
 -1       407 1.54759E+02 3.86873E+05 1.37840E+03 2.34555E+01-3.98387E-10 5.49880E-09
 -1       408 6.35428E+02 3.86638E+05 2.74840E+03-2.71389E+01-2.44859E-09 1.07466E-08
 -1       409 2.91044E+03 3.87751E+05 6.19469E+03 2.89805E+02-3.74030E-10-4.81668E-09
 -1       410 8.49055E+03 3.85847E+05 1.26431E+04-2.79490E+02-2.84672E-09-1.96087E-09
 -1       521-3.16805E+07-7.68058E+06-1.00605E+07-1.38908E+05-9.05711E-08 9.49949E-08
 -1       522 2.62596E+07 4.28193E+06 5.62658E+06-1.87017E+07-4.94096E-07-3.41097E-08
 -1       523-7.56280E+06-1.34346E+06-4.49942E+05 5.65827E+06 1.24797E-07-2.49041E-07
 -1       524-6.77296E+06 1.18109E+07 2.47042E+06-2.37308E+07 8.35425E-07-7.63648E-07
 -1       525-1.33390E+07-2.57321E+06-2.22871E+06 5.67166E+06 5.68631E-07-3.53670E-07
 -1       526 4.18656E+07-6.88397E+04 7.62915E+06-1.14984E+07-7.59028E-08 3.03495E-07
 -1       527-3.37682E+07-8.45703E+06-9.83350E+06-4.87479E+06-4.07686E-07 1.72076E-07
 -1       528 4.96444E+07 1.66742E+07 1.11257E+07 2.70183E+07 1.43424E-07-1.16212E-07
 -1       529-1.81956E+07-1.99761E+07-8.62964E+06-1.25671E+07 8.13743E-08-1.54832E-07
 -1       530-4.27782E+06 3.45165E+07 6.00350E+06 1.00499E+07-2.73416E-07 3.72413E-07
 -1       531 1.38764E+06-1.09226E+07-4.17623E+05-2.49093E+06-9.21660E-07 3.79223E-07
 -1       532-1.96497E+07 2.44334E+07 2.44690E+06-1.31007E+07 4.16883E-07-5.35365E-07
 -1       533-1.11150E+06-1.39228E+07-2.16880E+06-4.04788E+06-1.50147E-07-9.90753E-07
 -1       534 5.18230E+06 3.70652E+07 7.31884E+06 1.71746E+07-2.12749E-08 7.36210E-07
 -1       535-2.37666E+07-2.00243E+07-1.12914E+07-1.28765E+07 1.28872E-07 4.76139E-07
 -1       536-7.07672E+05-4.72176E+04-4.77742E+04-5.48686E+04-5.64614E-09 7.51334E-08
 -1       537-5.33661E+04 4.51944E+04 8.47224E+04 1.24197E+05-1.16453E-07 8.18291E-08
 -1       538-3.94543E+05 3.31335E+03 3.72105E+03-7.23809E+04 4.93076E-08 1.07360E-07
 -1       539-2.68578E+05 2.92382E+03 2.51274E+04 1.39102E+05 1.79222E-07 1.28204E-07
 -1       540-4.97864E+05-4.40262E+02-2.13725E+04-7.03120E+04 2.42007E-08 1.06367E-07
 -1       541 1.48848E+05 1.70547E+04 1.06858E+05 9.82431E+04-7.74799E-09 8.46088E-08
 -1       542-8.00720E+05-2.02206E+04-8.45815E+04-3.06411E+04 5.00590E-08 1.75906E-08
 -1       543 4.08697E+05 2.74435E+04 1.58658E+05-1.33789E+04 2.23727E-08-3.57254E-08
 -1       544-7.50742E+05-1.66112E+04-7.51602E+04 4.06362E+04-1.29080E-08-3.79013E-08
 -1       545 3.07820E+04 9.53227E+03 8.01795E+04-1.13943E+05 1.28841E-09-9.44826E-08
 -1       546-4.32956E+05 6.11559E+03-1.22791E+04 6.95744E+04 1.98229E-08-9.85351E-08
 -1       547-2.86724E+05-4.65579E+03 1.06705E+04-1.41956E+05-9.77348E-08-1.14473E-07
 -1       548-4.41773E+05 4.72722E+03-2.39321E+04 6.93440E+04-8.84932E-08-1.13173E-07
 -1       549 4.99539E+04 1.62377E+04 6.09033E+04-1.11818E+05-6.61233E-08-6.66985E-08
 -1       550-7.60625E+05-2.23178E+04-1.29325E+05 3.87162E+04 5.61613E-09-2.95331E-08
 -1       551 4.10581E+04-7.54081E+05-1.53512E+04-1.24766E+06-1.01980E-07-2.41562E-08
 -1       552 9.35435E+04-7.98998E+05 1.02348E+04-1.77907E+06-7.43748E-08 3.33821E-08
 -1       553 7.19048E+04-7.95355E+05 3.22331E+04-1.24102E+06-1.17259E-07 2.97441E-08
 -1       554 1.32246E+05-8.14801E+05 8.12623E+04-1.78101E+06-7.40984E-08 9.19681E-09
 -1       555 1.01619E+05-8.18935E+05 1.48312E+05-1.24086E+06-1.25037E-07-1.56542E-08
 -1       556 2.24011E+05-3.84035E+05 2.64394E+04-4.07684E+05-2.95113E-08-1.79280E-08
 -1       557 3.54883E+05-4.88519E+05 1.65129E+04-5.28145E+05 1.28057E-09 4.65297E-09
 -1       558 2.05780E+05-3.76929E+05 2.46296E+03-4.12067E+05-2.06928E-08 5.74073E-09
 -1       559 3.29722E+05-4.88666E+05 2.51261E+03-5.48648E+05 3.16941E-08 5.08953E-09
 -1       560 1.90436E+05-3.67307E+05-1.48145E+03-4.23126E+05 1.14087E-08 1.06229E-09
 -1       561 3.10431E+05-4.80951E+05 1.43992E+02-5.61800E+05-3.49246E-10 2.36159E-08
 -1       562 1.78300E+05-3.59766E+05-1.32596E+03-4.31916E+05-9.25502E-09-6.11180E-09
 -1       563 2.96012E+05-4.74665E+05-3.46788E+01-5.71218E+05-1.05938E-08 1.22527E-08
 -1       564 1.69635E+05-3.54368E+05-6.02844E+02-4.38057E+05 3.50701E-09 1.09853E-08
 -1       565 2.86444E+05-4.70498E+05 2.39336E+01-5.77332E+05 1.29367E-08-1.74850E-09
 -1       566 1.64566E+05-3.51161E+05-2.61776E+02-4.41602E+05-6.14818E-09-1.01099E-08
 -1       567 2.81787E+05-4.68472E+05-3.64304E+02-5.80161E+05 1.42682E-08 2.13258E-08
 -1       568 1.63183E+05-3.50314E+05-1.13005E+03-4.42665E+05-3.24326E-09 2.81034E-08
 -1       569 2.80651E+05-4.68397E+05-2.85415E+03-5.78739E+05-8.46103E-09 2.82307E-09
 -1       570 1.66582E+05-3.53550E+05-6.23773E+03-4.41644E+05 5.63887E-09-3.45608E-09
 -1       571 2.90744E+05 1.05153E+04 1.49981E+04-9.54074E+04 4.07090E-09 1.51476E-09
 -1       572 2.92917E+05 3.96513E+03 7.35028E+03-1.04672E+05 9.20409E-10 6.40375E-09
 -1       573 2.91607E+05 1.24890E+03 3.26597E+03-9.52306E+04 9.09495E-13 1.67238E-08
 -1       574 2.91821E+05 7.30393E+02 1.63787E+03-1.04896E+05-2.91971E-09 2.85690E-08
 -1       575 2.91701E+05 4.50783E+02 7.73032E+02-9.52064E+04-5.74470E-09 1.16652E-08
 -1       576 2.91685E+05 4.62366E+02 3.95799E+02-1.04926E+05-1.16424E-08 3.27418E-10
 -1       577 2.91741E+05 3.92565E+02 1.97592E+02-9.52031E+04-6.04359E-09 1.87165E-08
 -1       578 2.91716E+05 4.24136E+02 1.14165E+02-1.04931E+05-2.39606E-09 3.28600E-09
 -1       579 2.91814E+05 3.55652E+02 7.84307E+01-9.52027E+04-1.84846E-08-1.96997E-09
 -1       580 2.91818E+05 3.72813E+02 9.10775E+01-1.04926E+05-6.76300E-08 1.66683E-08
 -1       581 2.91928E+05 2.96727E+02 1.37587E+02-9.52087E+04-2.57005E-08-1.10067E-08
 -1       582 2.91994E+05 3.35086E+02 2.79787E+02-1.04864E+05-1.57161E-09-1.57142E-08
 -1       583 2.92069E+05 3.38919E+02 5.36988E+02-9.52654E+04-1.08412E-09-1.07400E-08
 -1       584 2.92371E+05 7.77557E+02 1.21520E+03-1.04386E+05 3.77804E-09-8.29777E-09
 -1       585 2.92096E+05 1.80001E+03 2.46068E+03-9.56855E+04-2.61389E-09 1.12195E-08
 -1       586-3.42224E+03 1.17151E+05-2.90602E+03-2.50829E+05-7.83984E-09-9.24160E-09
 -1       587-1.34047E+03 1.16905E+05 7.80117E+02-2.76055E+05-5.90444E-09-7.04563E-09
 -1       588 3.97424E+02 1.16709E+05 4.77030E+03-2.50691E+05-3.94903E-09 1.11668E-08
 -1       589 5.09066E+03 1.19187E+05 1.23653E+04-2.75823E+05-6.01722E-09-4.90036E-09
 -1       590 1.66332E+04 1.15373E+05 2.59361E+04-2.51122E+05-7.84348E-09-9.67157E-09
 -1       591-7.52029E+04-1.60021E+04-2.25688E+04-3.20326E+04-2.69597E-09-6.15455E-09
 -1       592-7.93038E+04-1.95616E+04-1.22251E+04-3.56591E+04 1.08366E-09 4.35762E-09
 -1       593-7.74600E+04-1.43645E+04-5.08868E+03-3.36875E+04 3.19716E-10-5.36147E-10
 -1       594-7.61878E+04-1.62498E+04-2.53785E+03-3.57770E+04 6.46476E-09-6.81516E-09
 -1       595-7.76321E+04-1.43592E+04-1.16513E+03-3.37627E+04 4.04162E-09 6.59055E-09
 -1       596-7.59744E+04-1.60984E+04-5.92076E+02-3.57517E+04 1.27804E-08 2.43701E-08
 -1       597-7.76536E+04-1.43746E+04-3.21939E+02-3.37655E+04 7.29352E-09-9.97824E-09
 -1       598-7.59534E+04-1.60924E+04-2.57951E+02-3.57445E+04 1.58047E-09-3.46529E-09
 -1       599-7.76524E+04-1.43751E+04-3.28442E+02-3.37652E+04 1.05970E-08-7.87463E-09
 -1       600-7.59745E+04-1.60989E+04-6.09292E+02-3.57495E+04 2.37037E-09 1.73844E-08
 -1       601-7.76277E+04-1.43606E+04-1.20156E+03-3.37617E+04-6.52335E-10 1.02418E-08
 -1       602-7.61944E+04-1.62539E+04-2.61845E+03-3.57718E+04-5.51563E-09-6.95206E-09
 -1       603-7.74474E+04-1.43690E+04-5.25095E+03-3.36849E+04-2.37651E-09 1.48520E-09
 -1       604-7.94274E+04-1.96516E+04-1.26140E+04-3.56253E+04 1.05683E-09 1.04592E-08
 -1       605-7.50984E+04-1.60766E+04-2.32870E+04-3.19968E+04 1.95212E-09-7.71252E-10
 -1       606 2.66676E+04-1.43444E+04-2.57146E+04 2.39495E+04 8.83938E-09-2.50475E-09
 -1       607 2.22738E+04-4.68495E+03-1.28058E+04 2.69143E+04 3.63161E-09-4.93446E-09
 -1       608 2.47780E+04-8.45221E+02-5.73271E+03 2.37812E+04-3.53612E-09 1.79477E-08
 -1       609 2.42981E+04-2.89682E+02-2.89602E+03 2.71280E+04 1.03864E-09 9.82891E-09
 -1       610 2.45643E+04-4.11624E+01-1.38171E+03 2.37612E+04 1.23018E-08 5.43014E-09
 -1       611 2.44890E+04-4.14984E+01-6.96649E+02 2.71511E+04 2.24736E-08 5.57225E-09
 -1       612 2.45172E+04-2.74964E+01-3.31161E+02 2.37591E+04 1.22291E-08 1.63504E-09
 -1       613 2.45007E+04-3.74565E+01-1.48362E+02 2.71538E+04 7.72752E-09 1.14926E-08
 -1       614 2.44951E+04-3.39696E+01-3.46905E+01 2.37584E+04 1.02827E-08 2.10362E-08
 -1       615 2.44955E+04-3.60073E+01 6.24206E+01 2.71543E+04 1.28275E-08 1.33903E-08
 -1       616 2.44778E+04-3.08768E+01 1.86960E+02 2.37587E+04 1.21822E-08-1.11843E-08
 -1       617 2.45180E+04 3.79712E+00 4.26469E+02 2.71538E+04 5.42082E-09-2.28172E-08
 -1       618 2.44408E+04 9.20377E+01 8.59587E+02 2.37590E+04 2.70711E-09 1.94063E-09
 -1       619 2.48215E+04 6.68407E+02 1.93025E+03 2.71532E+04-1.70019E-09 2.26942E-09
 -1       620 2.41553E+04 2.13032E+03 3.87974E+03 2.37606E+04 4.09727E-10 7.06495E-09
 -1       621 5.13017E+02 3.01782E+05 3.89604E+03 4.11870E+04 8.34007E-10 8.19000E-09
 -1       622 6.79980E+02 3.02681E+05 3.45574E+03 5.97940E+04 1.17279E-09-9.06584E-09
 -1       623 1.43862E+02 3.01977E+05 4.15008E+03 4.10008E+04 1.33673E-09 7.07223E-09
 -1       624 2.13119E+03 3.03900E+05 8.04332E+03 5.99773E+04 1.42700E-09 1.10672E-08
 -1       625 2.08181E+03 3.00382E+05 1.40544E+04 4.09976E+04 1.50931E-09 2.87901E-09
 -1       626 2.61091E+05 6.14190E+04 5.11952E+03 1.26791E+05 5.38421E-09 1.03410E-09
 -1       627 2.58775E+05 6.28140E+04 2.46705E+03 1.31061E+05 3.95994E-09-3.82590E-09
 -1       628 2.61219E+05 5.90767E+04 1.04339E+03 1.27661E+05-6.96400E-09-1.31829E-08
 -1       629 2.58140E+05 6.21337E+04 5.10687E+02 1.31301E+05-3.76531E-09-2.17202E-08
 -1       630 2.61233E+05 5.89635E+04 2.37005E+02 1.27698E+05-2.39288E-09-3.41720E-09
 -1       631 2.58074E+05 6.21078E+04 1.27685E+02 1.31303E+05 5.65615E-09-9.65952E-09
 -1       632 2.61230E+05 5.89674E+04 8.42751E+01 1.27694E+05 9.49240E-09-1.58614E-08
 -1       633 2.58065E+05 6.21096E+04 9.42737E+01 1.31299E+05 1.46586E-08-5.19321E-10
 -1       634 2.61225E+05 5.89646E+04 1.52695E+02 1.27693E+05 5.56838E-09 1.72483E-08
 -1       635 2.58080E+05 6.21079E+04 3.09191E+02 1.31305E+05-4.11316E-09 5.60613E-09
 -1       636 2.61216E+05 5.89588E+04 6.24522E+02 1.27693E+05-1.65278E-09-1.40967E-08
 -1       637 2.58215E+05 6.22050E+04 1.37324E+03 1.31304E+05-2.86491E-09-1.42745E-09
 -1       638 2.61168E+05 5.92621E+04 2.82151E+03 1.27556E+05 9.99080E-10-3.20642E-09
 -1       639 2.59697E+05 6.42663E+04 6.67585E+03 1.30868E+05 2.68392E-09-7.77504E-09
 -1       640 2.60962E+05 6.54176E+04 1.38535E+04 1.24962E+05 8.40691E-09 1.47413E-08
 -1       656 6.66265E+04-1.70521E+06-1.60832E+05-2.56835E+03-2.61934E-10-1.01824E-09
 -1       657-8.81416E+04-1.77788E+06-1.33241E+05 5.14719E+03-1.01863E-10-1.94689E-11
 -1       658 2.12386E+04-1.72585E+06-8.20610E+04-4.65411E+03 2.43517E-10-7.34070E-09
 -1       659-9.53151E+04-1.78129E+06-1.42668E+05 6.88144E+03-1.99361E-09 7.13874E-09
 -1       660 7.37841E+04-1.70181E+06-1.77040E+05-4.30258E+03-2.87400E-09 2.52657E-08
 -1       661 1.58401E+05 1.65719E+04 1.67071E+04 6.19229E+04-1.78989E-09 8.60655E-09
 -1       662 1.67851E+05 2.89409E+04 1.12594E+04 5.81703E+04 1.94950E-09-7.11702E-09
 -1       663 1.61683E+05 2.19318E+04 3.93783E+03 6.09705E+04 2.85581E-10-3.00633E-09
 -1       664 1.64046E+05 2.26729E+04 2.35565E+03 5.93337E+04-1.75913E-09-1.24532E-08
 -1       665 1.62181E+05 2.26638E+04 9.29289E+02 6.08251E+04 5.53257E-10 2.51549E-09
 -1       666 1.63456E+05 2.18358E+04 5.43975E+02 5.95233E+04 6.62749E-09 1.22353E-08
 -1       667 1.62268E+05 2.27470E+04 2.89138E+02 6.07887E+04 1.95516E-09 2.60544E-08
 -1       668 1.63360E+05 2.17760E+04 2.95083E+02 5.95762E+04-2.55494E-09 1.24545E-08
 -1       669 1.62276E+05 2.27219E+04 3.99887E+02 6.07724E+04-3.02373E-09 1.27585E-10
 -1       670 1.63457E+05 2.19932E+04 8.71120E+02 5.95792E+04-1.21788E-08-4.30252E-09
 -1       671 1.62171E+05 2.25344E+04 1.54686E+03 6.07838E+04-1.21854E-09-1.98165E-08
 -1       672 1.64359E+05 2.34981E+04 3.95770E+03 5.93607E+04 4.15389E-09 2.64544E-09
 -1       673 1.61379E+05 2.12551E+04 6.63252E+03 6.09763E+04 1.46792E-09 5.77165E-09
 -1       674 1.70671E+05 3.41540E+04 1.89676E+04 5.75062E+04-4.80361E-09-3.48541E-09
 -1       675 1.55899E+05 1.21769E+04 2.81546E+04 6.25263E+04-1.57343E-10 1.51704E-08
 -1       676 2.41209E+01-2.96017E+05-1.11383E+03-1.38074E+02 1.47071E-09-2.28149E-08
 -1       677-2.94624E+02-2.96287E+05-2.03850E+03 2.75925E+02 7.40920E-09-2.20635E-08
 -1       678 1.97618E+02-2.95826E+05-3.60357E+03-1.37761E+02 2.17642E-09-1.27977E-09
 -1       679-3.60362E+03-2.98462E+05-8.56059E+03 2.74733E+02 1.04873E-08-1.14788E-08
 -1       680 2.15158E+03-2.93843E+05-1.37967E+04-1.35360E+02 7.36691E-10-2.69935E-10
 -1       771-3.06356E+06-7.47590E+05-1.65551E+05-1.46658E+06-3.71074E-08-2.48256E-08
 -1       772-2.98631E+06-8.36426E+05-8.53412E+04-1.56929E+06-2.47819E-08 1.58325E-08
 -1       773-3.09503E+06-7.23048E+05-4.35284E+04-1.48109E+06-1.73168E-08 1.64873E-08
 -1       774-2.97684E+06-8.17958E+05-1.94150E+04-1.59508E+06 1.16415E-08-8.73115E-10
 -1       775-3.11149E+06-7.11500E+05-1.45381E+04-1.48815E+06-1.36206E-08 1.14960E-09
 -1       776-2.98920E+06-8.14923E+05-5.43400E+03-1.61459E+06-1.62399E-08 9.58971E-09
 -1       777-3.12577E+06-7.01190E+05-6.42877E+03-1.49438E+06-7.24685E-09 4.75120E-09
 -1       778-3.00210E+06-8.12098E+05-1.81653E+03-1.63136E+06 3.18687E-09 9.78253E-09
 -1       779-3.13805E+06-6.92181E+05-3.21416E+03-1.49970E+06-1.01863E-08-4.46744E-09
 -1       780-3.01347E+06-8.09402E+05-5.32507E+02-1.64502E+06-8.81846E-09 3.12684E-09
 -1       781-3.14782E+06-6.84919E+05-1.24861E+03-1.50386E+06-2.93076E-08 3.92538E-09
 -1       782-3.02223E+06-8.07113E+05 4.51174E+02-1.65510E+06-4.79049E-08-1.02509E-08
 -1       783-3.15469E+06-6.79872E+05 7.02534E+02-1.50678E+06-1.14960E-08-1.16515E-08
 -1       784-3.02708E+06-8.04825E+05 2.90931E+03-1.66132E+06-2.10421E-08 3.57431E-10
 -1       785-3.15876E+06-6.76861E+05 5.13618E+03-1.50863E+06-3.71947E-08 7.35054E-09
 -1       786 1.23864E+05-9.77830E+03 2.26231E+04-3.23431E+02 1.36351E-09 2.71302E-09
 -1       787 1.33676E+05 1.13211E+04 1.60049E+04-1.36953E+02 4.39268E-09 6.76755E-09
 -1       788 1.27647E+05-1.53228E+03 5.85308E+03-2.88299E+02 4.62832E-09 2.50111E-12
 -1       789 1.29268E+05 1.77359E+03 3.67436E+03-1.90762E+02 1.86955E-09-1.83491E-08
 -1       790 1.28272E+05-2.38569E+02 1.48771E+03-2.69638E+02-3.43083E-09 8.16101E-09
 -1       791 1.28538E+05 2.76042E+02 8.59305E+02-2.22689E+02-6.55984E-09 3.64345E-09
 -1       792 1.28377E+05-3.58559E+01 3.64220E+02-2.56374E+02-5.10763E-09-8.48495E-09
 -1       793 1.28411E+05 3.79340E+01 1.81749E+02-2.47643E+02-2.38205E-10-3.36817E-08
 -1       794 1.28398E+05-6.11199E-01 4.75889E+01-2.44684E+02 5.42333E-09-2.27040E-08
 -1       795 1.28375E+05-2.71991E+01-5.69522E+01-2.72041E+02-3.51845E-09 7.20075E-09
 -1       796 1.28414E+05 2.92407E+01-1.61391E+02-2.31977E+02 3.65894E-09-7.70542E-09
 -1       797 1.28280E+05-2.18292E+02-4.43444E+02-3.01231E+02 3.62208E-09 1.71084E-09
 -1       798 1.28492E+05 1.90338E+02-7.20263E+02-2.15494E+02 1.74769E-09 2.58397E-08
 -1       799 1.27734E+05-1.40292E+03-1.98163E+03-3.42052E+02 5.91819E-09 7.77277E-09
 -1       800 1.28961E+05 1.21290E+03-2.80444E+03-1.91157E+02 6.45205E-10 2.27965E-09
 -1       801-1.71893E+05-1.00093E+07-1.39540E+06 1.41814E+06 9.40054E-08-6.81866E-08
 -1       802 7.39995E+05 5.96709E+06 2.18598E+06-1.75087E+06 2.58507E-07-2.82089E-08
 -1       803-5.37606E+05-1.42861E+07-1.89379E+06 8.99994E+05 7.60483E-08 1.28421E-09
 -1       804 2.87844E+05 2.40619E+06 1.54027E+06 6.77986E+05-1.19657E-07-1.06304E-07
 -1       805 1.89547E+05-6.46247E+06-2.86881E+05-1.00504E+06-4.99858E-08-6.25641E-08
 -1       806-3.09039E+05-5.98073E+04-2.28648E+04-1.22492E+05-3.80260E-09 5.41604E-10
 -1       807-3.10833E+05-5.60794E+04-1.12332E+04-1.28045E+05 1.54159E-08 2.32303E-08
 -1       808-3.09666E+05-5.15669E+04-4.76549E+03-1.26387E+05-1.98452E-09 1.15941E-08
 -1       809-3.08471E+05-5.29232E+04-2.33020E+03-1.28321E+05-7.92852E-10 8.45830E-09
 -1       810-3.09761E+05-5.12800E+04-1.06807E+03-1.26560E+05 9.27139E-09-1.69273E-08
 -1       811-3.08288E+05-5.27964E+04-5.31170E+02-1.28286E+05 5.96447E-09-8.33120E-09
 -1       812-3.09775E+05-5.13047E+04-2.68724E+02-1.26559E+05-3.88900E-09-2.32067E-08
 -1       813-3.08263E+05-5.27986E+04-1.74785E+02-1.28267E+05 1.96405E-09-2.13245E-08
 -1       814-3.09768E+05-5.13144E+04-1.73442E+02-1.26555E+05 3.28873E-09 1.91835E-08
 -1       815-3.08267E+05-5.28009E+04-2.79648E+02-1.28260E+05 1.48430E-09-3.31829E-09
 -1       816-3.09747E+05-5.13136E+04-5.30160E+02-1.26551E+05 3.36058E-09-2.71939E-10
 -1       817-3.08357E+05-5.28515E+04-1.13784E+03-1.28248E+05-1.12418E-08-1.65262E-08
 -1       818-3.09678E+05-5.14742E+04-2.32082E+03-1.26475E+05-3.53339E-09-9.93623E-10
 -1       819-3.09627E+05-5.42535E+04-5.46070E+03-1.27947E+05 4.07454E-10-1.25237E-09
 -1       820-3.09240E+05-5.55995E+04-1.11145E+04-1.24713E+05-2.74122E-09-7.80415E-09
 -1       821-3.79195E+05 2.08809E+04-4.86144E+04 2.14402E+03 1.41778E-08 1.02009E-08
 -1       822-3.98881E+05-2.41898E+04-3.41595E+04-4.50312E+03 5.10269E-09-7.93762E-09
 -1       823-3.86650E+05 3.29196E+03-1.25560E+04 3.47245E+03-1.31649E-08 2.22462E-09
 -1       824-3.89877E+05-3.79605E+03-7.85838E+03-5.43255E+03 2.21931E-09 1.59790E-08
 -1       825-3.88207E+05 5.11631E+02-3.29184E+03 3.07357E+03 2.18804E-08 2.10110E-08
 -1       826-3.87426E+05-5.66945E+02-1.74092E+03-3.13898E+03 2.93550E-08 8.98129E-09
 -1       827-3.89075E+05 4.59295E+01-1.19435E+03 1.17872E+03 1.08730E-08-1.06811E-08
 -1       828-3.86708E+05-1.30891E+02-5.79730E+02 1.10026E+03-5.04500E-10 2.26049E-08
 -1       829-3.88912E+05 6.52475E+01-1.18279E+03-1.16569E+03 2.27811E-09-5.59277E-09
 -1       830-3.87780E+05-6.22189E+02-1.88002E+03 4.93384E+03 1.97390E-09 4.49381E-09
 -1       831-3.88026E+05 5.55224E+02-3.37314E+03-2.65488E+03-5.90848E-09 6.34031E-09
 -1       832-3.89957E+05-3.96310E+03-8.16102E+03 6.23241E+03-2.64173E-09 1.10521E-08
 -1       833-3.86751E+05 3.41600E+03-1.30602E+04-2.46431E+03-1.47871E-09 8.19637E-09
 -1       834-3.98937E+05-2.51031E+04-3.53810E+04 4.24027E+03-3.34666E-09 5.05270E-09
 -1       835-3.79029E+05 2.16619E+04-5.04845E+04-6.62656E+02 6.43740E-09-2.60479E-09
 -1       836-1.41585E+03 3.70600E+05 2.29349E+04-1.61536E+04-7.13135E-09 2.41516E-09
 -1       837 4.88859E+03 3.77783E+05 1.94020E+04-3.30135E+04-7.94671E-09 5.84350E-11
 -1       838-5.58737E+02 3.72614E+05 1.97609E+04-1.60820E+04-6.33372E-09 2.88333E-09
 -1       839 1.24327E+04 3.83402E+05 3.73743E+04-3.30660E+04-6.81575E-09 9.37507E-09
 -1       840-3.84421E+03 3.64921E+05 5.95952E+04-1.61069E+04-6.11180E-09-1.37322E-09
 -1       856-5.20160E+04 8.02294E+03-2.11422E+04-3.97443E+02 3.82579E-09-1.49157E-09
 -1       857-6.07260E+04-9.42677E+03-1.45541E+04 5.63549E+03 4.94538E-09 9.80413E-09
 -1       858-5.54654E+04 1.12514E+03-5.48588E+03-4.21522E+02 6.15444E-10-3.85739E-09
 -1       859-5.67675E+04-1.32376E+03-3.31046E+03 5.67130E+03-4.92845E-09 1.10188E-08
 -1       860-5.59808E+04 1.57578E+02-1.38738E+03-4.32978E+02 2.13777E-09-7.27414E-09
 -1       861-5.61747E+04-1.88185E+02-7.63160E+02 5.68690E+03 3.36649E-09 3.19881E-09
 -1       862-5.60614E+04 2.13485E+01-3.17102E+02-4.37102E+02-1.17752E-09-2.71640E-09
 -1       863-5.60759E+04-2.18899E+01-1.15207E+02 5.68930E+03-3.31405E-09-1.31883E-08
 -1       864-5.60801E+04-4.93254E+00 4.78765E+01-4.35374E+02-1.77977E-10-1.54242E-08
 -1       865-5.60199E+04 5.98737E+01 2.56715E+02 5.67943E+03 5.45568E-09-2.35467E-08
 -1       866-5.61151E+04-6.04288E+01 5.17005E+02-4.27230E+02-3.35405E-09-1.63677E-08
 -1       867-5.57769E+04 4.98993E+02 1.27233E+03 5.65732E+03-1.81629E-09 6.60125E-09
 -1       868-5.63183E+04-4.36113E+02 2.11419E+03-4.13267E+02-5.67979E-10-2.67585E-09
 -1       869-5.42270E+04 3.62961E+03 5.62928E+03 5.62095E+03 1.32331E-10-2.45593E-08
 -1       870-5.76573E+04-3.10600E+03 8.16936E+03-3.90756E+02-3.75348E-09-7.01584E-09
 -1       871-5.52203E+03-2.13982E+04-1.95092E+04 1.30549E+05-4.19641E-09 2.95022E-08
 -1       872-1.98197E+03-2.59352E+04-8.16990E+03 1.69276E+05-1.08648E-08 1.25692E-08
 -1       873 4.07132E+02-2.37405E+04 5.88039E+02 1.30262E+05-5.39012E-09 1.53905E-08
 -1       874 3.30999E+03-2.13290E+04 9.78324E+03 1.69306E+05-1.18534E-08 2.26319E-08
 -1       875 6.85150E+03-2.60712E+04 2.20721E+04 1.30501E+05-5.02223E-09 1.36315E-08
 -1       876 2.93937E+05 4.95351E+04 1.51066E+04 1.17951E+05-9.89303E-10-1.07912E-08
 -1       877 2.94937E+05 5.27161E+04 8.06753E+03 1.22284E+05 6.48652E-09-1.58680E-08
 -1       878 2.95350E+05 4.78616E+04 3.37990E+03 1.19189E+05-4.77485E-09-1.86492E-09
 -1       879 2.92883E+05 5.06667E+04 1.68408E+03 1.22386E+05 9.91258E-09 1.21604E-08
 -1       880 2.95452E+05 4.78443E+04 7.84425E+02 1.19239E+05 8.51969E-10 7.51083E-09
 -1       881 2.92747E+05 5.05791E+04 4.18921E+02 1.22363E+05-1.17500E-08-2.97482E-09
 -1       882 2.95461E+05 4.78576E+04 2.68045E+02 1.19241E+05-3.78100E-09-2.85227E-09
 -1       883 2.92737E+05 5.05745E+04 2.88231E+02 1.22355E+05 2.10196E-09-1.97403E-08
 -1       884 2.95454E+05 4.78548E+04 4.58573E+02 1.19241E+05-1.12436E-10 9.23183E-09
 -1       885 2.92774E+05 5.05809E+04 9.22024E+02 1.22366E+05 2.07064E-09-3.25713E-09
 -1       886 2.95418E+05 4.78279E+04 1.85832E+03 1.19237E+05-6.50905E-09-3.50792E-09
 -1       887 2.93100E+05 5.07950E+04 4.05924E+03 1.22413E+05 8.97788E-09-1.53090E-08
 -1       888 2.95162E+05 4.78731E+04 8.17949E+03 1.19108E+05 3.60635E-09 6.12727E-09
 -1       889 2.97970E+05 5.58591E+04 1.95393E+04 1.22264E+05 1.26961E-09 1.20590E-08
 -1       890 2.91823E+05 5.18389E+04 3.65966E+04 1.15995E+05-4.27917E-10-7.24867E-09
 -1       891-8.91256E+01-1.62850E+05-1.99786E+03 2.71495E+04-1.92404E-09 1.44817E-08
 -1       892-1.75031E+02-1.63378E+05-2.14553E+03 4.12287E+04 9.40190E-10-4.39741E-09
 -1       893 4.40430E+01-1.62914E+05-3.03761E+03 2.71569E+04-4.34420E-09 9.09449E-09
 -1       894-1.51039E+03-1.64526E+05-6.28657E+03 4.10761E+04 6.04132E-09 6.03904E-09
 -1       895-1.19957E+03-1.61605E+05-1.10705E+04 2.73039E+04-3.31056E-10-6.92671E-09
 -1       956-3.77463E+05-5.45445E+03-1.34639E+04 3.09085E+04 7.54062E-09 1.62618E-09
 -1       957-3.80105E+05-1.92435E+03-6.91079E+03 3.71437E+04 1.96451E-09-1.69575E-08
 -1       958-3.78673E+05-2.41348E+02-3.11423E+03 3.07406E+04-2.08638E-09-1.25046E-08
 -1       959-3.78870E+05-1.36616E+02-1.59017E+03 3.73396E+04-1.15506E-09 6.33372E-09
 -1       960-3.78791E+05-4.50385E+01-7.75444E+02 3.07233E+04 6.37556E-09 2.11990E-08
 -1       961-3.78789E+05-6.34945E+01-4.11127E+02 3.73600E+04 1.25738E-08 2.64563E-08
 -1       962-3.78819E+05-4.62449E+01-2.35376E+02 3.07204E+04 4.24961E-09 8.61769E-09
 -1       963-3.78790E+05-5.92871E+01-1.88942E+02 3.73637E+04 4.54293E-09-2.21394E-09
 -1       964-3.78825E+05-4.28844E+01-2.29763E+02 3.07196E+04-3.02400E-09-8.16613E-09
 -1       965-3.78802E+05-5.63294E+01-3.97390E+02 3.73630E+04-1.05063E-08 1.11777E-09
 -1       966-3.78808E+05-3.50518E+01-7.46686E+02 3.07212E+04 1.84355E-09 1.07098E-08
 -1       967-3.78892E+05-1.19939E+02-1.53143E+03 3.73486E+04 2.30284E-09 1.79348E-08
 -1       968-3.78704E+05-2.17700E+02-2.99801E+03 3.07339E+04 3.72575E-09 7.68409E-10
 -1       969-3.80093E+05-1.83602E+03-6.65549E+03 3.71999E+04 3.51019E-09-7.85172E-09
 -1       970-3.77547E+05-5.23424E+03-1.29653E+04 3.08612E+04-2.98678E-09-5.90262E-09
 -1       971-3.45571E+05-1.72797E+03-9.31192E+03 1.53811E+04 4.54293E-09 3.36591E-09
 -1       972-3.47812E+05-1.27222E+03-5.07118E+03 2.12714E+04-4.01997E-10-6.98265E-09
 -1       973-3.46608E+05-6.21677E+01-2.27143E+03 1.52600E+04 7.46059E-09-1.21490E-08
 -1       974-3.46743E+05-8.12667E+01-1.17744E+03 2.14085E+04-8.76753E-10-1.78829E-09
 -1       975-3.46690E+05-1.72831E+01-5.89033E+02 1.52477E+04-2.20234E-09-1.23063E-08
 -1       976-3.46682E+05-3.14125E+01-3.40689E+02 2.14243E+04 8.24548E-09-8.23172E-09
 -1       977-3.46707E+05-1.65365E+01-2.48804E+02 1.52443E+04-4.73369E-09-3.10547E-09
 -1       978-3.46687E+05-2.51856E+01-2.93249E+02 2.14292E+04-9.21364E-09-1.99520E-09
 -1       979-3.46706E+05-8.05356E+00-4.72961E+02 1.52428E+04-4.33903E-09 9.11734E-09
 -1       980-3.46722E+05-2.21227E+01-9.14358E+02 2.14302E+04-3.26769E-09-4.05021E-09
 -1       981-3.46677E+05 1.48020E+01-1.77149E+03 1.52433E+04 4.22915E-10-7.46121E-09
 -1       982-3.46966E+05-1.53016E+02-3.66197E+03 2.14235E+04-3.21870E-09-3.66924E-08
 -1       983-3.46454E+05-9.86295E+01-7.11539E+03 1.52494E+04-6.16546E-09-4.49222E-09
 -1       984-3.50388E+05-3.86917E+03-1.59347E+04 2.13379E+04-1.91903E-10 1.36262E-08
 -1       985-3.43232E+05-5.30523E+03-2.92611E+04 1.53207E+04-3.59387E-09 3.29783E-09
 -3
    1PSTEP                        51          26           1          
  100CL  126 6.63165E-01         409                     0   26           1
 -4  DISP        4    1
 -5  D1          1    2    1    0
 -5  D2          1    2    2    0
 -5  D3          1    2    3    0
 -5  ALL         1    2    0    0    1ALL
 -1         1 2.70146E-03 0.00000E+00 0.00000E+00
 -1         2 1.39108E-03 8.54666E-28 5.29396E-23
 -1         3 3.39187E-04-5.40220E-28 0.00000E+00
 -1         5 1.77209E-04-1.43163E-27 0.00000E+00
 -1         8 2.69012E-03-4.15130E-07 0.00000E+00
 -1         9 2.68353E-03-1.75821E-04 0.00000E+00
 -1        10 3.09218E-04-3.41760E-06 0.00000E+00
 -1        12 1.79057E-04 8.09820E-07-4.13590E-25
 -1        15 2.67706E-03-4.40359E-07 0.00000E+00
 -1        16 2.74391E-03-1.77559E-04 0.00000E+00
 -1        17 2.11647E-04-7.93596E-06 0.00000E+00
 -1        18 1.83008E-04 3.44394E-05 0.00000E+00
 -1        19 1.84602E-04 1.61321E-06 0.00000E+00
 -1        20 1.84742E-04-9.88924E-06 0.00000E+00
 -1        21 1.83849E-04-2.54364E-05 3.30872E-24
 -1        24 3.06873E-05-1.21715E-05 0.00000E+00
 -1        25 1.93798E-04 3.46654E-05 0.00000E+00
 -1        26 1.94479E-04 2.23388E-06 0.00000E+00
 -1        27 1.92277E-04-1.34496E-05 0.00000E+00
 -1        28 1.91962E-04-2.60587E-05 0.00000E+00
 -1        32 0.00000E+00 0.00000E+00 0.00000E+00
 -1        33 2.03352E-04 2.98828E-06 0.00000E+00
 -1        34 2.01232E-04-1.35058E-05 0.00000E+00
 -1        35 1.99299E-04-2.64013E-05 0.00000E+00
 -1        51 2.70070E-03-8.63239E-08-3.30872E-24
 -1        52 2.69931E-03-1.54425E-07 0.00000E+00
 -1        53 2.69742E-03-2.19132E-07 0.00000E+00
 -1        54 2.69517E-03-2.82679E-07 0.00000E+00
 -1        55 2.69269E-03-3.46821E-07-3.30872E-24
 -1        56 2.69447E-03 6.77310E-06 0.00000E+00
 -1        57 2.68145E-03 2.85287E-05 0.00000E+00
 -1        58 2.66431E-03 6.04810E-05-1.05879E-22
 -1        59 2.64532E-03 9.68553E-05 0.00000E+00
 -1        60 2.62720E-03 1.31122E-04 0.00000E+00
 -1        61 2.61253E-03 1.56921E-04 5.29396E-23
 -1        62 2.60314E-03 1.69410E-04 1.05879E-22
 -1        63 2.60021E-03 1.64930E-04 5.29396E-23
 -1        64 2.60362E-03 1.42925E-04-1.05879E-22
 -1        65 2.61271E-03 1.04477E-04 0.00000E+00
 -1        66 2.62586E-03 5.37564E-05 0.00000E+00
 -1        67 2.64123E-03-3.88208E-06 0.00000E+00
 -1        68 2.65667E-03-6.17592E-05 0.00000E+00
 -1        69 2.67007E-03-1.13166E-04 0.00000E+00
 -1        70 2.67953E-03-1.52637E-04-5.29396E-23
 -1        86 1.47231E-03-5.64143E-06 5.29396E-23
 -1        87 1.70777E-03-3.51018E-05 0.00000E+00
 -1        88 2.02431E-03-8.55984E-05 0.00000E+00
 -1        89 2.34487E-03-1.37402E-04-1.32349E-23
 -1        90 2.59008E-03-1.69091E-04 0.00000E+00
 -1       121 3.38345E-04-5.53843E-07 0.00000E+00
 -1       122 3.35824E-04-1.11042E-06 6.61744E-24
 -1       123 3.31632E-04-1.67239E-06 1.32349E-23
 -1       124 3.25784E-04-2.24251E-06-6.61744E-24
 -1       125 3.18303E-04-2.82303E-06 0.00000E+00
 -1       191 1.77260E-04 1.35034E-07-1.65436E-24
 -1       192 1.77414E-04 2.70056E-07 0.00000E+00
 -1       193 1.77671E-04 4.05058E-07-1.65436E-24
 -1       194 1.78030E-04 5.40029E-07 1.24077E-24
 -1       195 1.78492E-04 6.74953E-07 2.48154E-24
 -1       251 2.68981E-03 1.84331E-06 6.61744E-24
 -1       252 2.68949E-03 4.17556E-06 0.00000E+00
 -1       253 2.68917E-03 5.59068E-06 0.00000E+00
 -1       254 2.68886E-03 5.10952E-06 0.00000E+00
 -1       255 2.68854E-03 2.05044E-06 0.00000E+00
 -1       256 2.68820E-03-4.23479E-06 0.00000E+00
 -1       257 2.68784E-03-1.38892E-05-1.32349E-23
 -1       258 2.68744E-03-2.70120E-05 0.00000E+00
 -1       259 2.68700E-03-4.31603E-05-1.32349E-23
 -1       260 2.68652E-03-6.18512E-05 6.61744E-24
 -1       261 2.68600E-03-8.22041E-05 0.00000E+00
 -1       262 2.68547E-03-1.03318E-04 0.00000E+00
 -1       263 2.68495E-03-1.24171E-04 1.32349E-23
 -1       264 2.68444E-03-1.43745E-04 0.00000E+00
 -1       265 2.68397E-03-1.61226E-04 0.00000E+00
 -1       266 2.68794E-03-4.25133E-07 0.00000E+00
 -1       267 2.68577E-03-4.28631E-07-8.27181E-25
 -1       268 2.68359E-03-4.32541E-07 8.27181E-25
 -1       269 2.68141E-03-4.35231E-07 0.00000E+00
 -1       270 2.67924E-03-4.37892E-07 0.00000E+00
 -1       271 2.68917E-03 2.82371E-07 0.00000E+00
 -1       272 2.68910E-03-1.43425E-06 0.00000E+00
 -1       273 2.68988E-03-5.42809E-06 0.00000E+00
 -1       274 2.69145E-03-1.15515E-05-1.32349E-23
 -1       275 2.69373E-03-1.96366E-05 0.00000E+00
 -1       276 2.69667E-03-2.95013E-05-1.32349E-23
 -1       277 2.70018E-03-4.09477E-05 2.64698E-23
 -1       278 2.70419E-03-5.37655E-05 0.00000E+00
 -1       279 2.70861E-03-6.77331E-05 0.00000E+00
 -1       280 2.71336E-03-8.26190E-05 3.97047E-23
 -1       281 2.71836E-03-9.81842E-05 0.00000E+00
 -1       282 2.72351E-03-1.14184E-04-1.32349E-23
 -1       283 2.72873E-03-1.30372E-04-1.32349E-23
 -1       284 2.73393E-03-1.46495E-04 0.00000E+00
 -1       285 2.73902E-03-1.62307E-04 0.00000E+00
 -1       301 2.69451E-03-1.76143E-04 0.00000E+00
 -1       302 2.70390E-03-1.76421E-04-3.30872E-24
 -1       303 2.71261E-03-1.76690E-04 0.00000E+00
 -1       304 2.72157E-03-1.76959E-04 0.00000E+00
 -1       305 2.73170E-03-1.77241E-04 0.00000E+00
 -1       306 2.72120E-03-3.29372E-04 0.00000E+00
 -1       307 2.78510E-03-7.42304E-04 0.00000E+00
 -1       308 2.83195E-03-1.34675E-03 0.00000E+00
 -1       309 2.85588E-03-2.04695E-03-5.29396E-23
 -1       310 2.88711E-03-2.71733E-03 1.05879E-22
 -1       311 2.94647E-03-3.23491E-03 0.00000E+00
 -1       312 3.00452E-03-3.51898E-03 1.05879E-22
 -1       313 3.00070E-03-3.53136E-03 0.00000E+00
 -1       314 2.86129E-03-3.28376E-03 1.05879E-22
 -1       315 2.54525E-03-2.84033E-03 0.00000E+00
 -1       316 2.07058E-03-2.27758E-03-1.05879E-22
 -1       317 1.50279E-03-1.66492E-03 0.00000E+00
 -1       318 9.55902E-04-1.06315E-03 0.00000E+00
 -1       319 5.37742E-04-5.37320E-04 5.29396E-23
 -1       320 2.92157E-04-1.61462E-04 0.00000E+00
 -1       336 2.98217E-04-4.09933E-06-1.32349E-23
 -1       337 2.85008E-04-4.80782E-06 0.00000E+00
 -1       338 2.69659E-04-5.54517E-06-1.32349E-23
 -1       339 2.52252E-04-6.31248E-06 0.00000E+00
 -1       340 2.32880E-04-7.11467E-06 0.00000E+00
 -1       406 1.79725E-04 9.44609E-07 2.48154E-24
 -1       407 1.80495E-04 1.07928E-06 0.00000E+00
 -1       408 1.81368E-04 1.21380E-06-3.30872E-24
 -1       409 1.82344E-04 1.34797E-06 0.00000E+00
 -1       410 1.83422E-04 1.48152E-06 1.65436E-24
 -1       521 2.78219E-03-3.40382E-04 0.00000E+00
 -1       522 2.84435E-03-7.73377E-04 0.00000E+00
 -1       523 2.88484E-03-1.40529E-03 1.05879E-22
 -1       524 2.89970E-03-2.13369E-03 0.00000E+00
 -1       525 2.92312E-03-2.83027E-03 0.00000E+00
 -1       526 2.97895E-03-3.36958E-03 0.00000E+00
 -1       527 3.03656E-03-3.66413E-03-2.11758E-22
 -1       528 3.03049E-03-3.67481E-03 5.29396E-23
 -1       529 2.87931E-03-3.41328E-03-2.11758E-22
 -1       530 2.53973E-03-2.95154E-03 0.00000E+00
 -1       531 2.03054E-03-2.36981E-03 0.00000E+00
 -1       532 1.42360E-03-1.74011E-03-5.29396E-23
 -1       533 8.38190E-04-1.12065E-03 1.05879E-22
 -1       534 3.87174E-04-5.74195E-04 0.00000E+00
 -1       535 1.20619E-04-1.79013E-04 0.00000E+00
 -1       536 2.10890E-04 2.70406E-05 0.00000E+00
 -1       537 2.08966E-04 8.75723E-05 0.00000E+00
 -1       538 2.05994E-04 1.64380E-04 0.00000E+00
 -1       539 2.02487E-04 2.48099E-04 1.65436E-24
 -1       540 1.99332E-04 3.27211E-04 0.00000E+00
 -1       541 1.97280E-04 3.90216E-04 1.65436E-24
 -1       542 1.96334E-04 4.30352E-04 0.00000E+00
 -1       543 1.96108E-04 4.41005E-04 1.65436E-24
 -1       544 1.95786E-04 4.22948E-04-3.30872E-24
 -1       545 1.94611E-04 3.77176E-04 0.00000E+00
 -1       546 1.92421E-04 3.11827E-04 3.30872E-24
 -1       547 1.89455E-04 2.35158E-04-1.65436E-24
 -1       548 1.86516E-04 1.58865E-04 0.00000E+00
 -1       549 1.84396E-04 9.46395E-05-1.65436E-24
 -1       550 1.83295E-04 5.05257E-05 0.00000E+00
 -1       551 1.86415E-04-8.50745E-06 0.00000E+00
 -1       552 1.57943E-04-9.15927E-06 0.00000E+00
 -1       553 1.27174E-04-9.87322E-06-6.61744E-24
 -1       554 9.50694E-05-1.06282E-05 3.30872E-24
 -1       555 6.25886E-05-1.13966E-05 1.32349E-23
 -1       556 2.03986E-04 1.16505E-05 0.00000E+00
 -1       557 1.97796E-04 2.75382E-05 0.00000E+00
 -1       558 1.92942E-04 4.00151E-05 0.00000E+00
 -1       559 1.89291E-04 4.93918E-05 0.00000E+00
 -1       560 1.86713E-04 5.59794E-05 0.00000E+00
 -1       561 1.85080E-04 6.00913E-05 0.00000E+00
 -1       562 1.84267E-04 6.20423E-05 0.00000E+00
 -1       563 1.84149E-04 6.21483E-05 1.32349E-23
 -1       564 1.84604E-04 6.07257E-05 0.00000E+00
 -1       565 1.85512E-04 5.80919E-05 0.00000E+00
 -1       566 1.86752E-04 5.45647E-05 0.00000E+00
 -1       567 1.88207E-04 5.04624E-05 0.00000E+00
 -1       568 1.89756E-04 4.61034E-05 0.00000E+00
 -1       569 1.91283E-04 4.18060E-05-8.27181E-25
 -1       570 1.92669E-04 3.78887E-05 0.00000E+00
 -1       571 1.83105E-04 3.23096E-05 1.65436E-24
 -1       572 1.83204E-04 3.01141E-05 0.00000E+00
 -1       573 1.83303E-04 2.78685E-05 0.00000E+00
 -1       574 1.83402E-04 2.55892E-05 8.27181E-25
 -1       575 1.83502E-04 2.32926E-05 3.30872E-24
 -1       576 1.83601E-04 2.09953E-05 0.00000E+00
 -1       577 1.83701E-04 1.87137E-05 0.00000E+00
 -1       578 1.83800E-04 1.64645E-05 0.00000E+00
 -1       579 1.83900E-04 1.42640E-05-6.61744E-24
 -1       580 1.84000E-04 1.21290E-05 0.00000E+00
 -1       581 1.84100E-04 1.00759E-05-6.61744E-24
 -1       582 1.84200E-04 8.12117E-06 0.00000E+00
 -1       583 1.84301E-04 6.28143E-06 6.61744E-24
 -1       584 1.84401E-04 4.57297E-06 3.30872E-24
 -1       585 1.84502E-04 3.01196E-06 0.00000E+00
 -1       586 1.84766E-04 3.44792E-05-1.65436E-24
 -1       587 1.86482E-04 3.45184E-05 4.13590E-25
 -1       588 1.88200E-04 3.45573E-05 0.00000E+00
 -1       589 1.89963E-04 3.45955E-05 0.00000E+00
 -1       590 1.91815E-04 3.46324E-05 0.00000E+00
 -1       591 1.83738E-04 3.24034E-05 2.06795E-25
 -1       592 1.84471E-04 3.03476E-05 0.00000E+00
 -1       593 1.85209E-04 2.82778E-05 8.27181E-25
 -1       594 1.85950E-04 2.61986E-05 4.13590E-25
 -1       595 1.86693E-04 2.41148E-05 8.27181E-25
 -1       596 1.87435E-04 2.20311E-05 4.13590E-25
 -1       597 1.88176E-04 1.99523E-05 0.00000E+00
 -1       598 1.88913E-04 1.78830E-05 4.13590E-25
 -1       599 1.89645E-04 1.58278E-05 0.00000E+00
 -1       600 1.90369E-04 1.37915E-05 0.00000E+00
 -1       601 1.91085E-04 1.17788E-05-8.27181E-25
 -1       602 1.91791E-04 9.79425E-06-2.06795E-25
 -1       603 1.92484E-04 7.84267E-06 4.13590E-25
 -1       604 1.93164E-04 5.92881E-06 2.58494E-26
 -1       605 1.93828E-04 4.05726E-06 0.00000E+00
 -1       606 1.84616E-04 4.47943E-07 0.00000E+00
 -1       607 1.84625E-04-6.31549E-07 0.00000E+00
 -1       608 1.84634E-04-1.63030E-06 0.00000E+00
 -1       609 1.84642E-04-2.55398E-06-1.65436E-24
 -1       610 1.84651E-04-3.40833E-06 0.00000E+00
 -1       611 1.84659E-04-4.19913E-06 0.00000E+00
 -1       612 1.84667E-04-4.93218E-06 0.00000E+00
 -1       613 1.84676E-04-5.61330E-06 0.00000E+00
 -1       614 1.84684E-04-6.24829E-06 0.00000E+00
 -1       615 1.84692E-04-6.84295E-06 0.00000E+00
 -1       616 1.84701E-04-7.40309E-06 0.00000E+00
 -1       617 1.84709E-04-7.93452E-06 0.00000E+00
 -1       618 1.84718E-04-8.44304E-06 0.00000E+00
 -1       619 1.84726E-04-8.93447E-06-2.06795E-25
 -1       620 1.84734E-04-9.41460E-06 0.00000E+00
 -1       621 1.85962E-04 1.71723E-06 3.30872E-24
 -1       622 1.87481E-04 1.82149E-06-8.27181E-25
 -1       623 1.89126E-04 1.92553E-06-3.30872E-24
 -1       624 1.90863E-04 2.02924E-06-8.27181E-25
 -1       625 1.92658E-04 2.13267E-06 0.00000E+00
 -1       626 1.85151E-04 4.84075E-07 6.61744E-24
 -1       627 1.85678E-04-5.82087E-07-6.61744E-24
 -1       628 1.86184E-04-1.59312E-06 0.00000E+00
 -1       629 1.86672E-04-2.55719E-06 0.00000E+00
 -1       630 1.87146E-04-3.48249E-06 0.00000E+00
 -1       631 1.87609E-04-4.37722E-06-1.65436E-24
 -1       632 1.88063E-04-5.24959E-06 0.00000E+00
 -1       633 1.88512E-04-6.10781E-06-1.65436E-24
 -1       634 1.88959E-04-6.96009E-06-3.30872E-24
 -1       635 1.89407E-04-7.81463E-06-1.65436E-24
 -1       636 1.89858E-04-8.67965E-06 0.00000E+00
 -1       637 1.90317E-04-9.56336E-06 0.00000E+00
 -1       638 1.90785E-04-1.04740E-05 3.30872E-24
 -1       639 1.91266E-04-1.14197E-05 0.00000E+00
 -1       640 1.91763E-04-1.24088E-05 3.30872E-24
 -1       656 1.85449E-04-1.04679E-05-6.61744E-24
 -1       657 1.86576E-04-1.10701E-05 0.00000E+00
 -1       658 1.87984E-04-1.16709E-05 1.32349E-23
 -1       659 1.89526E-04-1.22714E-05 0.00000E+00
 -1       660 1.91018E-04-1.28736E-05 0.00000E+00
 -1       661 1.85007E-04-1.04090E-05 0.00000E+00
 -1       662 1.85309E-04-1.10207E-05 8.27181E-25
 -1       663 1.85644E-04-1.17191E-05-1.65436E-24
 -1       664 1.86009E-04-1.24977E-05 8.27181E-25
 -1       665 1.86402E-04-1.33507E-05-1.65436E-24
 -1       666 1.86821E-04-1.42720E-05 0.00000E+00
 -1       667 1.87263E-04-1.52562E-05 0.00000E+00
 -1       668 1.87727E-04-1.62975E-05 0.00000E+00
 -1       669 1.88210E-04-1.73905E-05 1.65436E-24
 -1       670 1.88710E-04-1.85300E-05 0.00000E+00
 -1       671 1.89226E-04-1.97107E-05 1.65436E-24
 -1       672 1.89755E-04-2.09276E-05 0.00000E+00
 -1       673 1.90295E-04-2.21755E-05 0.00000E+00
 -1       674 1.90845E-04-2.34498E-05 4.13590E-25
 -1       675 1.91403E-04-2.47452E-05-2.06795E-25
 -1       676 1.85205E-04-2.55407E-05 0.00000E+00
 -1       677 1.86562E-04-2.56450E-05 1.65436E-24
 -1       678 1.87916E-04-2.57492E-05 0.00000E+00
 -1       679 1.89268E-04-2.58531E-05-1.65436E-24
 -1       680 1.90617E-04-2.59570E-05 3.30872E-24
 -1       771 1.87342E-05 1.45578E-05 0.00000E+00
 -1       772 8.67723E-06 3.65130E-05 2.64698E-23
 -1       773 4.25593E-07 5.39241E-05 0.00000E+00
 -1       774-6.14496E-06 6.70490E-05 2.64698E-23
 -1       775-1.11560E-05 7.61559E-05 0.00000E+00
 -1       776-1.47341E-05 8.15299E-05-2.64698E-23
 -1       777-1.70055E-05 8.34660E-05-5.29396E-23
 -1       778-1.80991E-05 8.22730E-05 0.00000E+00
 -1       779-1.81431E-05 7.82686E-05 0.00000E+00
 -1       780-1.72678E-05 7.17816E-05-2.64698E-23
 -1       781-1.56025E-05 6.31475E-05 0.00000E+00
 -1       782-1.32781E-05 5.27110E-05 0.00000E+00
 -1       783-1.04247E-05 4.08212E-05 0.00000E+00
 -1       784-7.17336E-06 2.78334E-05 0.00000E+00
 -1       785-3.65446E-06 1.41061E-05-5.29396E-23
 -1       786 1.93836E-04 3.24112E-05 0.00000E+00
 -1       787 1.93878E-04 3.02069E-05 0.00000E+00
 -1       788 1.93920E-04 2.80443E-05 8.27181E-25
 -1       789 1.93962E-04 2.59151E-05 0.00000E+00
 -1       790 1.94005E-04 2.38148E-05 1.65436E-24
 -1       791 1.94047E-04 2.17385E-05-8.27181E-25
 -1       792 1.94090E-04 1.96840E-05-1.65436E-24
 -1       793 1.94133E-04 1.76492E-05-8.27181E-25
 -1       794 1.94176E-04 1.56338E-05-1.65436E-24
 -1       795 1.94219E-04 1.36378E-05-8.27181E-25
 -1       796 1.94262E-04 1.16630E-05 0.00000E+00
 -1       797 1.94305E-04 9.71131E-06 0.00000E+00
 -1       798 1.94348E-04 7.78691E-06-1.65436E-24
 -1       799 1.94392E-04 5.89418E-06-8.27181E-25
 -1       800 1.94435E-04 4.04062E-06-1.65436E-24
 -1       801 1.47987E-04 3.11644E-05 2.64698E-23
 -1       802 9.47795E-06 1.94414E-05 2.64698E-23
 -1       803-1.08832E-04 9.81894E-06 0.00000E+00
 -1       804-9.64722E-05 6.83428E-06-2.64698E-23
 -1       805-3.18643E-05 2.68524E-06-5.29396E-23
 -1       806 1.94528E-04 3.23423E-05 0.00000E+00
 -1       807 1.95244E-04 3.00454E-05-1.65436E-24
 -1       808 1.95947E-04 2.77797E-05 0.00000E+00
 -1       809 1.96637E-04 2.55494E-05 1.65436E-24
 -1       810 1.97313E-04 2.33586E-05 0.00000E+00
 -1       811 1.97971E-04 2.12112E-05 0.00000E+00
 -1       812 1.98613E-04 1.91111E-05 0.00000E+00
 -1       813 1.99235E-04 1.70624E-05-1.65436E-24
 -1       814 1.99836E-04 1.50688E-05 3.30872E-24
 -1       815 2.00416E-04 1.31344E-05-8.27181E-25
 -1       816 2.00972E-04 1.12631E-05 3.30872E-24
 -1       817 2.01503E-04 9.45866E-06-8.27181E-25
 -1       818 2.02008E-04 7.72512E-06-1.65436E-24
 -1       819 2.02484E-04 6.06632E-06 8.27181E-25
 -1       820 2.02932E-04 4.48611E-06-1.65436E-24
 -1       821 1.94350E-04-1.33966E-07 1.65436E-24
 -1       822 1.94209E-04-3.66538E-06 1.65436E-24
 -1       823 1.94067E-04-7.92942E-06 3.30872E-24
 -1       824 1.93922E-04-1.24906E-05 0.00000E+00
 -1       825 1.93777E-04-1.68330E-05 3.30872E-24
 -1       826 1.93635E-04-2.04421E-05 0.00000E+00
 -1       827 1.93497E-04-2.30030E-05-3.30872E-24
 -1       828 1.93360E-04-2.42075E-05 1.65436E-24
 -1       829 1.93224E-04-2.41165E-05 0.00000E+00
 -1       830 1.93088E-04-2.27989E-05 0.00000E+00
 -1       831 1.92950E-04-2.06577E-05-3.30872E-24
 -1       832 1.92812E-04-1.81008E-05-1.65436E-24
 -1       833 1.92673E-04-1.56496E-05 0.00000E+00
 -1       834 1.92538E-04-1.38245E-05 1.65436E-24
 -1       835 1.92404E-04-1.29764E-05 0.00000E+00
 -1       836 1.96171E-04 2.35898E-06 3.30872E-24
 -1       837 1.97735E-04 2.48723E-06 0.00000E+00
 -1       838 1.99203E-04 2.61542E-06 0.00000E+00
 -1       839 2.00608E-04 2.74291E-06 0.00000E+00
 -1       840 2.01980E-04 2.87023E-06 0.00000E+00
 -1       856 1.92261E-04-1.45128E-05 0.00000E+00
 -1       857 1.92242E-04-1.54402E-05 2.58494E-26
 -1       858 1.92222E-04-1.62530E-05 2.06795E-25
 -1       859 1.92203E-04-1.69722E-05 0.00000E+00
 -1       860 1.92183E-04-1.76192E-05 0.00000E+00
 -1       861 1.92163E-04-1.82151E-05-2.06795E-25
 -1       862 1.92144E-04-1.87814E-05 0.00000E+00
 -1       863 1.92124E-04-1.93394E-05 0.00000E+00
 -1       864 1.92104E-04-1.99103E-05-8.27181E-25
 -1       865 1.92084E-04-2.05156E-05 0.00000E+00
 -1       866 1.92064E-04-2.11766E-05 8.27181E-25
 -1       867 1.92044E-04-2.19145E-05 0.00000E+00
 -1       868 1.92024E-04-2.27506E-05 8.27181E-25
 -1       869 1.92004E-04-2.37059E-05 0.00000E+00
 -1       870 1.91984E-04-2.48017E-05 8.27181E-25
 -1       871 1.93628E-04-1.34545E-05 0.00000E+00
 -1       872 1.95127E-04-1.34629E-05 0.00000E+00
 -1       873 1.96705E-04-1.34719E-05 0.00000E+00
 -1       874 1.98294E-04-1.34817E-05-2.58494E-26
 -1       875 1.99826E-04-1.34920E-05 8.27181E-25
 -1       876 1.92803E-04-1.44982E-05 0.00000E+00
 -1       877 1.93307E-04-1.54800E-05 0.00000E+00
 -1       878 1.93789E-04-1.64030E-05 0.00000E+00
 -1       879 1.94252E-04-1.72744E-05 0.00000E+00
 -1       880 1.94698E-04-1.81018E-05-3.30872E-24
 -1       881 1.95131E-04-1.88926E-05 1.65436E-24
 -1       882 1.95553E-04-1.96540E-05-3.30872E-24
 -1       883 1.95967E-04-2.03934E-05 0.00000E+00
 -1       884 1.96375E-04-2.11182E-05 3.30872E-24
 -1       885 1.96781E-04-2.18356E-05 0.00000E+00
 -1       886 1.97186E-04-2.25531E-05 3.30872E-24
 -1       887 1.97594E-04-2.32780E-05 0.00000E+00
 -1       888 1.98008E-04-2.40177E-05 0.00000E+00
 -1       889 1.98429E-04-2.47796E-05 0.00000E+00
 -1       890 1.98860E-04-2.55710E-05 0.00000E+00
 -1       891 1.93327E-04-2.61162E-05 1.65436E-24
 -1       892 1.94669E-04-2.61740E-05-8.27181E-25
 -1       893 1.95962E-04-2.62316E-05-8.27181E-25
 -1       894 1.97181E-04-2.62889E-05-4.13590E-25
 -1       895 1.98302E-04-2.63460E-05 8.27181E-25
 -1       956 2.03221E-04 1.66528E-06 0.00000E+00
 -1       957 2.03089E-04 4.33920E-07 1.65436E-24
 -1       958 2.02956E-04-7.16538E-07 3.30872E-24
 -1       959 2.02823E-04-1.79745E-06-1.65436E-24
 -1       960 2.02690E-04-2.82021E-06-3.30872E-24
 -1       961 2.02557E-04-3.79626E-06 1.65436E-24
 -1       962 2.02425E-04-4.73702E-06 0.00000E+00
 -1       963 2.02292E-04-5.65397E-06 1.65436E-24
 -1       964 2.02159E-04-6.55856E-06 3.30872E-24
 -1       965 2.02026E-04-7.46223E-06-1.65436E-24
 -1       966 2.01893E-04-8.37647E-06 0.00000E+00
 -1       967 2.01760E-04-9.31272E-06 0.00000E+00
 -1       968 2.01628E-04-1.02824E-05 6.61744E-24
 -1       969 2.01495E-04-1.12970E-05 0.00000E+00
 -1       970 2.01363E-04-1.23678E-05 3.30872E-24
 -1       971 2.01112E-04-1.46435E-05 0.00000E+00
 -1       972 2.00991E-04-1.56866E-05 0.00000E+00
 -1       973 2.00870E-04-1.66455E-05 3.30872E-24
 -1       974 2.00748E-04-1.75311E-05 0.00000E+00
 -1       975 2.00627E-04-1.83543E-05 0.00000E+00
 -1       976 2.00505E-04-1.91258E-05 0.00000E+00
 -1       977 2.00384E-04-1.98566E-05-3.30872E-24
 -1       978 2.00262E-04-2.05577E-05 0.00000E+00
 -1       979 2.00141E-04-2.12398E-05-3.30872E-24
 -1       980 2.00020E-04-2.19139E-05 0.00000E+00
 -1       981 1.99898E-04-2.25910E-05 3.30872E-24
 -1       982 1.99777E-04-2.32818E-05 0.00000E+00
 -1       983 1.99656E-04-2.39975E-05-3.30872E-24
 -1       984 1.99535E-04-2.47487E-05 0.00000E+00
 -1       985 1.99415E-04-2.55464E-05 3.30872E-24
 -3
    1PSTEP                        52          26           1          
  100CL  126 6.63165E-01         409                     0   26           1
 -4  FORC        4    1
 -5  F1          1    2    1    0
 -5  F2          1    2    2    0
 -5  F3          1    2    3    0
 -5  ALL         1    2    0    0    1ALL
 -1         1 4.99856E-03 0.00000E+00 0.00000E+00
 -1         2 0.00000E+00 0.00000E+00 0.00000E+00
 -1         3 0.00000E+00 0.00000E+00 0.00000E+00
 -1         5 0.00000E+00 0.00000E+00 0.00000E+00
 -1         8 2.84375E-04-2.41104E-04 0.00000E+00
 -1         9-1.37830E-02 9.08916E-04 0.00000E+00
 -1        10-4.17870E-08 2.00681E-07 0.00000E+00
 -1        12 0.00000E+00 0.00000E+00 0.00000E+00
 -1        15 0.00000E+00 0.00000E+00 0.00000E+00
 -1        16-1.97875E-03-1.96606E-02 0.00000E+00
 -1        17-2.99620E-04 1.67973E-04 0.00000E+00
 -1        18 2.80860E-06 2.31883E-06 0.00000E+00
 -1        19 7.97379E-07-1.81933E-07 0.00000E+00
 -1        20-1.31967E-06 1.46559E-07 0.00000E+00
 -1        21 0.00000E+00 5.24972E-07 0.00000E+00
 -1        24-8.10793E-04 2.61249E-04 0.00000E+00
 -1        25 1.53823E-06-1.44144E-06 0.00000E+00
 -1        26-8.53653E-07-6.08928E-07 0.00000E+00
 -1        27-4.39144E-07 8.37768E-07 0.00000E+00
 -1        28-4.09270E-07 2.49730E-07 0.00000E+00
 -1        32 0.00000E+00 0.00000E+00 0.00000E+00
 -1        33-5.68650E-08-1.07293E-06 0.00000E+00
 -1        34-3.12437E-07-1.10756E-06 0.00000E+00
 -1        35-1.85739E-06-1.19406E-06 0.00000E+00
 -1        51 0.00000E+00 0.00000E+00 0.00000E+00
 -1        52 0.00000E+00 0.00000E+00 0.00000E+00
 -1        53 0.00000E+00 0.00000E+00 0.00000E+00
 -1        54 0.00000E+00 0.00000E+00 0.00000E+00
 -1        55 0.00000E+00 0.00000E+00 0.00000E+00
 -1        56 0.00000E+00 0.00000E+00 0.00000E+00
 -1        57 0.00000E+00 0.00000E+00 0.00000E+00
 -1        58 0.00000E+00 0.00000E+00 0.00000E+00
 -1        59 0.00000E+00 0.00000E+00 0.00000E+00
 -1        60 0.00000E+00 0.00000E+00 0.00000E+00
 -1        61 0.00000E+00 0.00000E+00 0.00000E+00
 -1        62 0.00000E+00 0.00000E+00 0.00000E+00
 -1        63 0.00000E+00 0.00000E+00 0.00000E+00
 -1        64 0.00000E+00 0.00000E+00 0.00000E+00
 -1        65 0.00000E+00 0.00000E+00 0.00000E+00
 -1        66 0.00000E+00 0.00000E+00 0.00000E+00
 -1        67 0.00000E+00 0.00000E+00 0.00000E+00
 -1        68 0.00000E+00 0.00000E+00 0.00000E+00
 -1        69 0.00000E+00 0.00000E+00 0.00000E+00
 -1        70 0.00000E+00 0.00000E+00 0.00000E+00
 -1        86 0.00000E+00 0.00000E+00 0.00000E+00
 -1        87 0.00000E+00 0.00000E+00 0.00000E+00
 -1        88 0.00000E+00 0.00000E+00 0.00000E+00
 -1        89 0.00000E+00 0.00000E+00 0.00000E+00
 -1        90 0.00000E+00 0.00000E+00 0.00000E+00
 -1       121 0.00000E+00 0.00000E+00 0.00000E+00
 -1       122 0.00000E+00 0.00000E+00 0.00000E+00
 -1       123 0.00000E+00 0.00000E+00 0.00000E+00
 -1       124 0.00000E+00 0.00000E+00 0.00000E+00
 -1       125 0.00000E+00 0.00000E+00 0.00000E+00
 -1       191 0.00000E+00 0.00000E+00 0.00000E+00
 -1       192 0.00000E+00 0.00000E+00 0.00000E+00
 -1       193 0.00000E+00 0.00000E+00 0.00000E+00
 -1       194 0.00000E+00 0.00000E+00 0.00000E+00
 -1       195 0.00000E+00 0.00000E+00 0.00000E+00
 -1       251 0.00000E+00 0.00000E+00 0.00000E+00
 -1       252 0.00000E+00 0.00000E+00 0.00000E+00
 -1       253 0.00000E+00 0.00000E+00 0.00000E+00
 -1       254 0.00000E+00 0.00000E+00 0.00000E+00
 -1       255 0.00000E+00 0.00000E+00 0.00000E+00
 -1       256 0.00000E+00 0.00000E+00 0.00000E+00
 -1       257 0.00000E+00 0.00000E+00 0.00000E+00
 -1       258 0.00000E+00 0.00000E+00 0.00000E+00
 -1       259 0.00000E+00 0.00000E+00 0.00000E+00
 -1       260 0.00000E+00 0.00000E+00 0.00000E+00
 -1       261 0.00000E+00 0.00000E+00 0.00000E+00
 -1       262 0.00000E+00 0.00000E+00 0.00000E+00
 -1       263 0.00000E+00 0.00000E+00 0.00000E+00
 -1       264 0.00000E+00 0.00000E+00 0.00000E+00
 -1       265 0.00000E+00 0.00000E+00 0.00000E+00
 -1       266 0.00000E+00 0.00000E+00 0.00000E+00
 -1       267 0.00000E+00 0.00000E+00 0.00000E+00
 -1       268 0.00000E+00 0.00000E+00 0.00000E+00
 -1       269 0.00000E+00 0.00000E+00 0.00000E+00
 -1       270 0.00000E+00 0.00000E+00 0.00000E+00
 -1       271 0.00000E+00 0.00000E+00 0.00000E+00
 -1       272 0.00000E+00 0.00000E+00 0.00000E+00
 -1       273 0.00000E+00 0.00000E+00 0.00000E+00
 -1       274 0.00000E+00 0.00000E+00 0.00000E+00
 -1       275 0.00000E+00 0.00000E+00 0.00000E+00
 -1       276 0.00000E+00 0.00000E+00 0.00000E+00
 -1       277 0.00000E+00 0.00000E+00 0.00000E+00
 -1       278 0.00000E+00 0.00000E+00 0.00000E+00
 -1       279 0.00000E+00 0.00000E+00 0.00000E+00
 -1       280 0.00000E+00 0.00000E+00 0.00000E+00
 -1       281 0.00000E+00 0.00000E+00 0.00000E+00
 -1       282 0.00000E+00 0.00000E+00 0.00000E+00
 -1       283 0.00000E+00 0.00000E+00 0.00000E+00
 -1       284 0.00000E+00 0.00000E+00 0.00000E+00
 -1       285 0.00000E+00 0.00000E+00 0.00000E+00
 -1       301 0.00000E+00 0.00000E+00 0.00000E+00
 -1       302 0.00000E+00 0.00000E+00 0.00000E+00
 -1       303 0.00000E+00 0.00000E+00 0.00000E+00
 -1       304 0.00000E+00 0.00000E+00 0.00000E+00
 -1       305 0.00000E+00 0.00000E+00 0.00000E+00
 -1       306 0.00000E+00 0.00000E+00 0.00000E+00
 -1       307 0.00000E+00 0.00000E+00 0.00000E+00
 -1       308 0.00000E+00 0.00000E+00 0.00000E+00
 -1       309 0.00000E+00 0.00000E+00 0.00000E+00
 -1       310 0.00000E+00 0.00000E+00 0.00000E+00
 -1       311 0.00000E+00 0.00000E+00 0.00000E+00
 -1       312 0.00000E+00 0.00000E+00 0.00000E+00
 -1       313 0.00000E+00 0.00000E+00 0.00000E+00
 -1       314 0.00000E+00 0.00000E+00 0.00000E+00
 -1       315 0.00000E+00 0.00000E+00 0.00000E+00
 -1       316 0.00000E+00 0.00000E+00 0.00000E+00
 -1       317 0.00000E+00 0.00000E+00 0.00000E+00
 -1       318 0.00000E+00 0.00000E+00 0.00000E+00
 -1       319 0.00000E+00 0.00000E+00 0.00000E+00
 -1       320 0.00000E+00 0.00000E+00 0.00000E+00
 -1       336 0.00000E+00 0.00000E+00 0.00000E+00
 -1       337 0.00000E+00 0.00000E+00 0.00000E+00
 -1       338 0.00000E+00 0.00000E+00 0.00000E+00
 -1       339 0.00000E+00 0.00000E+00 0.00000E+00
 -1       340 0.00000E+00 0.00000E+00 0.00000E+00
 -1       406 0.00000E+00 0.00000E+00 0.00000E+00
 -1       407 0.00000E+00 0.00000E+00 0.00000E+00
 -1       408 0.00000E+00 0.00000E+00 0.00000E+00
 -1       409 0.00000E+00 0.00000E+00 0.00000E+00
 -1       410 0.00000E+00 0.00000E+00 0.00000E+00
 -1       521 0.00000E+00 0.00000E+00 0.00000E+00
 -1       522 0.00000E+00 0.00000E+00 0.00000E+00
 -1       523 0.00000E+00 0.00000E+00 0.00000E+00
 -1       524 0.00000E+00 0.00000E+00 0.00000E+00
 -1       525 0.00000E+00 0.00000E+00 0.00000E+00
 -1       526 0.00000E+00 0.00000E+00 0.00000E+00
 -1       527 0.00000E+00 0.00000E+00 0.00000E+00
 -1       528 0.00000E+00 0.00000E+00 0.00000E+00
 -1       529 0.00000E+00 0.00000E+00 0.00000E+00
 -1       530 0.00000E+00 0.00000E+00 0.00000E+00
 -1       531 0.00000E+00 0.00000E+00 0.00000E+00
 -1       532 0.00000E+00 0.00000E+00 0.00000E+00
 -1       533 0.00000E+00 0.00000E+00 0.00000E+00
 -1       534 0.00000E+00 0.00000E+00 0.00000E+00
 -1       535 0.00000E+00 0.00000E+00 0.00000E+00
 -1       536 0.00000E+00 0.00000E+00 0.00000E+00
 -1       537 0.00000E+00 0.00000E+00 0.00000E+00
 -1       538 0.00000E+00 0.00000E+00 0.00000E+00
 -1       539 0.00000E+00 0.00000E+00 0.00000E+00
 -1       540 0.00000E+00 0.00000E+00 0.00000E+00
 -1       541 0.00000E+00 0.00000E+00 0.00000E+00
 -1       542 0.00000E+00 0.00000E+00 0.00000E+00
 -1       543 0.00000E+00 0.00000E+00 0.00000E+00
 -1       544 0.00000E+00 0.00000E+00 0.00000E+00
 -1       545 0.00000E+00 0.00000E+00 0.00000E+00
 -1       546 0.00000E+00 0.00000E+00 0.00000E+00
 -1       547 0.00000E+00 0.00000E+00 0.00000E+00
 -1       548 0.00000E+00 0.00000E+00 0.00000E+00
 -1       549 0.00000E+00 0.00000E+00 0.00000E+00
 -1       550 0.00000E+00 0.00000E+00 0.00000E+00
 -1       551 0.00000E+00 0.00000E+00 0.00000E+00
 -1       552 0.00000E+00 0.00000E+00 0.00000E+00
 -1       553 0.00000E+00 0.00000E+00 0.00000E+00
 -1       554 0.00000E+00 0.00000E+00 0.00000E+00
 -1       555 0.00000E+00 0.00000E+00 0.00000E+00
 -1       556 0.00000E+00 0.00000E+00 0.00000E+00
 -1       557 0.00000E+00 0.00000E+00 0.00000E+00
 -1       558 0.00000E+00 0.00000E+00 0.00000E+00
 -1       559 0.00000E+00 0.00000E+00 0.00000E+00
 -1       560 0.00000E+00 0.00000E+00 0.00000E+00
 -1       561 0.00000E+00 0.00000E+00 0.00000E+00
 -1       562 0.00000E+00 0.00000E+00 0.00000E+00
 -1       563 0.00000E+00 0.00000E+00 0.00000E+00
 -1       564 0.00000E+00 0.00000E+00 0.00000E+00
 -1       565 0.00000E+00 0.00000E+00 0.00000E+00
 -1       566 0.00000E+00 0.00000E+00 0.00000E+00
 -1       567 0.00000E+00 0.00000E+00 0.00000E+00
 -1       568 0.00000E+00 0.00000E+00 0.00000E+00
 -1       569 0.00000E+00 0.00000E+00 0.00000E+00
 -1       570 0.00000E+00 0.00000E+00 0.00000E+00
 -1       571 0.00000E+00 0.00000E+00 0.00000E+00
 -1       572 0.00000E+00 0.00000E+00 0.00000E+00
 -1       573 0.00000E+00 0.00000E+00 0.00000E+00
 -1       574 0.00000E+00 0.00000E+00 0.00000E+00
 -1       575 0.00000E+00 0.00000E+00 0.00000E+00
 -1       576 0.00000E+00 0.00000E+00 0.00000E+00
 -1       577 0.00000E+00 0.00000E+00 0.00000E+00
 -1       578 0.00000E+00 0.00000E+00 0.00000E+00
 -1       579 0.00000E+00 0.00000E+00 0.00000E+00
 -1       580 0.00000E+00 0.00000E+00 0.00000E+00
 -1       581 0.00000E+00 0.00000E+00 0.00000E+00
 -1       582 0.00000E+00 0.00000E+00 0.00000E+00
 -1       583 0.00000E+00 0.00000E+00 0.00000E+00
 -1       584 0.00000E+00 0.00000E+00 0.00000E+00
 -1       585 0.00000E+00 0.00000E+00 0.00000E+00
 -1       586 0.00000E+00 0.00000E+00 0.00000E+00
 -1       587 0.00000E+00 0.00000E+00 0.00000E+00
 -1       588 0.00000E+00 0.00000E+00 0.00000E+00
 -1       589 0.00000E+00 0.00000E+00 0.00000E+00
 -1       590 0.00000E+00 0.00000E+00 0.00000E+00
 -1       591 0.00000E+00 0.00000E+00 0.00000E+00
 -1       592 0.00000E+00 0.00000E+00 0.00000E+00
 -1       593 0.00000E+00 0.00000E+00 0.00000E+00
 -1       594 0.00000E+00 0.00000E+00 0.00000E+00
 -1       595 0.00000E+00 0.00000E+00 0.00000E+00
 -1       596 0.00000E+00 0.00000E+00 0.00000E+00
 -1       597 0.00000E+00 0.00000E+00 0.00000E+00
 -1       598 0.00000E+00 0.00000E+00 0.00000E+00
 -1       599 0.00000E+00 0.00000E+00 0.00000E+00
 -1       600 0.00000E+00 0.00000E+00 0.00000E+00
 -1       601 0.00000E+00 0.00000E+00 0.00000E+00
 -1       602 0.00000E+00 0.00000E+00 0.00000E+00
 -1       603 0.00000E+00 0.00000E+00 0.00000E+00
 -1       604 0.00000E+00 0.00000E+00 0.00000E+00
 -1       605 0.00000E+00 0.00000E+00 0.00000E+00
 -1       606 0.00000E+00 0.00000E+00 0.00000E+00
 -1       607 0.00000E+00 0.00000E+00 0.00000E+00
 -1       608 0.00000E+00 0.00000E+00 0.00000E+00
 -1       609 0.00000E+00 0.00000E+00 0.00000E+00
 -1       610 0.00000E+00 0.00000E+00 0.00000E+00
 -1       611 0.00000E+00 0.00000E+00 0.00000E+00
 -1       612 0.00000E+00 0.00000E+00 0.00000E+00
 -1       613 0.00000E+00 0.00000E+00 0.00000E+00
 -1       614 0.00000E+00 0.00000E+00 0.00000E+00
 -1       615 0.00000E+00 0.00000E+00 0.00000E+00
 -1       616 0.00000E+00 0.00000E+00 0.00000E+00
 -1       617 0.00000E+00 0.00000E+00 0.00000E+00
 -1       618 0.00000E+00 0.00000E+00 0.00000E+00
 -1       619 0.00000E+00 0.00000E+00 0.00000E+00
 -1       620 0.00000E+00 0.00000E+00 0.00000E+00
 -1       621 0.00000E+00 0.00000E+00 0.00000E+00
 -1       622 0.00000E+00 0.00000E+00 0.00000E+00
 -1       623 0.00000E+00 0.00000E+00 0.00000E+00
 -1       624 0.00000E+00 0.00000E+00 0.00000E+00
 -1       625 0.00000E+00 0.00000E+00 0.00000E+00
 -1       626 0.00000E+00 0.00000E+00 0.00000E+00
 -1       627 0.00000E+00 0.00000E+00 0.00000E+00
 -1       628 0.00000E+00 0.00000E+00 0.00000E+00
 -1       629 0.00000E+00 0.00000E+00 0.00000E+00
 -1       630 0.00000E+00 0.00000E+00 0.00000E+00
 -1       631 0.00000E+00 0.00000E+00 0.00000E+00
 -1       632 0.00000E+00 0.00000E+00 0.00000E+00
 -1       633 0.00000E+00 0.00000E+00 0.00000E+00
 -1       634 0.00000E+00 0.00000E+00 0.00000E+00
 -1       635 0.00000E+00 0.00000E+00 0.00000E+00
 -1       636 0.00000E+00 0.00000E+00 0.00000E+00
 -1       637 0.00000E+00 0.00000E+00 0.00000E+00
 -1       638 0.00000E+00 0.00000E+00 0.00000E+00
 -1       639 0.00000E+00 0.00000E+00 0.00000E+00
 -1       640 0.00000E+00 0.00000E+00 0.00000E+00
 -1       656 0.00000E+00 0.00000E+00 0.00000E+00
 -1       657 0.00000E+00 0.00000E+00 0.00000E+00
 -1       658 0.00000E+00 0.00000E+00 0.00000E+00
 -1       659 0.00000E+00 0.00000E+00 0.00000E+00
 -1       660 0.00000E+00 0.00000E+00 0.00000E+00
 -1       661 0.00000E+00 0.00000E+00 0.00000E+00
 -1       662 0.00000E+00 0.00000E+00 0.00000E+00
 -1       663 0.00000E+00 0.00000E+00 0.00000E+00
 -1       664 0.00000E+00 0.00000E+00 0.00000E+00
 -1       665 0.00000E+00 0.00000E+00 0.00000E+00
 -1       666 0.00000E+00 0.00000E+00 0.00000E+00
 -1       667 0.00000E+00 0.00000E+00 0.00000E+00
 -1       668 0.00000E+00 0.00000E+00 0.00000E+00
 -1       669 0.00000E+00 0.00000E+00 0.00000E+00
 -1       670 0.00000E+00 0.00000E+00 0.00000E+00
 -1       671 0.00000E+00 0.00000E+00 0.00000E+00
 -1       672 0.00000E+00 0.00000E+00 0.00000E+00
 -1       673 0.00000E+00 0.00000E+00 0.00000E+00
 -1       674 0.00000E+00 0.00000E+00 0.00000E+00
 -1       675 0.00000E+00 0.00000E+00 0.00000E+00
 -1       676 0.00000E+00 0.00000E+00 0.00000E+00
 -1       677 0.00000E+00 0.00000E+00 0.00000E+00
 -1       678 0.00000E+00 0.00000E+00 0.00000E+00
 -1       679 0.00000E+00 0.00000E+00 0.00000E+00
 -1       680 0.00000E+00 0.00000E+00 0.00000E+00
 -1       771 0.00000E+00 0.00000E+00 0.00000E+00
 -1       772 0.00000E+00 0.00000E+00 0.00000E+00
 -1       773 0.00000E+00 0.00000E+00 0.00000E+00
 -1       774 0.00000E+00 0.00000E+00 0.00000E+00
 -1       775 0.00000E+00 0.00000E+00 0.00000E+00
 -1       776 0.00000E+00 0.00000E+00 0.00000E+00
 -1       777 0.00000E+00 0.00000E+00 0.00000E+00
 -1       778 0.00000E+00 0.00000E+00 0.00000E+00
 -1       779 0.00000E+00 0.00000E+00 0.00000E+00
 -1       780 0.00000E+00 0.00000E+00 0.00000E+00
 -1       781 0.00000E+00 0.00000E+00 0.00000E+00
 -1       782 0.00000E+00 0.00000E+00 0.00000E+00
 -1       783 0.00000E+00 0.00000E+00 0.00000E+00
 -1       784 0.00000E+00 0.00000E+00 0.00000E+00
 -1       785 0.00000E+00 0.00000E+00 0.00000E+00
 -1       786 0.00000E+00 0.00000E+00 0.00000E+00
 -1       787 0.00000E+00 0.00000E+00 0.00000E+00
 -1       788 0.00000E+00 0.00000E+00 0.00000E+00
 -1       789 0.00000E+00 0.00000E+00 0.00000E+00
 -1       790 0.00000E+00 0.00000E+00 0.00000E+00
 -1       791 0.00000E+00 0.00000E+00 0.00000E+00
 -1       792 0.00000E+00 0.00000E+00 0.00000E+00
 -1       793 0.00000E+00 0.00000E+00 0.00000E+00
 -1       794 0.00000E+00 0.00000E+00 0.00000E+00
 -1       795 0.00000E+00 0.00000E+00 0.00000E+00
 -1       796 0.00000E+00 0.00000E+00 0.00000E+00
 -1       797 0.00000E+00 0.00000E+00 0.00000E+00
 -1       798 0.00000E+00 0.00000E+00 0.00000E+00
 -1       799 0.00000E+00 0.00000E+00 0.00000E+00
 -1       800 0.00000E+00 0.00000E+00 0.00000E+00
 -1       801 0.00000E+00 0.00000E+00 0.00000E+00
 -1       802 0.00000E+00 0.00000E+00 0.00000E+00
 -1       803 0.00000E+00 0.00000E+00 0.00000E+00
 -1       804 0.00000E+00 0.00000E+00 0.00000E+00
 -1       805 0.00000E+00 0.00000E+00 0.00000E+00
 -1       806 0.00000E+00 0.00000E+00 0.00000E+00
 -1       807 0.00000E+00 0.00000E+00 0.00000E+00
 -1       808 0.00000E+00 0.00000E+00 0.00000E+00
 -1       809 0.00000E+00 0.00000E+00 0.00000E+00
 -1       810 0.00000E+00 0.00000E+00 0.00000E+00
 -1       811 0.00000E+00 0.00000E+00 0.00000E+00
 -1       812 0.00000E+00 0.00000E+00 0.00000E+00
 -1       813 0.00000E+00 0.00000E+00 0.00000E+00
 -1       814 0.00000E+00 0.00000E+00 0.00000E+00
 -1       815 0.00000E+00 0.00000E+00 0.00000E+00
 -1       816 0.00000E+00 0.00000E+00 0.00000E+00
 -1       817 0.00000E+00 0.00000E+00 0.00000E+00
 -1       818 0.00000E+00 0.00000E+00 0.00000E+00
 -1       819 0.00000E+00 0.00000E+00 0.00000E+00
 -1       820 0.00000E+00 0.00000E+00 0.00000E+00
 -1       821 0.00000E+00 0.00000E+00 0.00000E+00
 -1       822 0.00000E+00 0.00000E+00 0.00000E+00
 -1       823 0.00000E+00 0.00000E+00 0.00000E+00
 -1       824 0.00000E+00 0.00000E+00 0.00000E+00
 -1       825 0.00000E+00 0.00000E+00 0.00000E+00
 -1       826 0.00000E+00 0.00000E+00 0.00000E+00
 -1       827 0.00000E+00 0.00000E+00 0.00000E+00
 -1       828 0.00000E+00 0.00000E+00 0.00000E+00
 -1       829 0.00000E+00 0.00000E+00 0.00000E+00
 -1       830 0.00000E+00 0.00000E+00 0.00000E+00
 -1       831 0.00000E+00 0.00000E+00 0.00000E+00
 -1       832 0.00000E+00 0.00000E+00 0.00000E+00
 -1       833 0.00000E+00 0.00000E+00 0.00000E+00
 -1       834 0.00000E+00 0.00000E+00 0.00000E+00
 -1       835 0.00000E+00 0.00000E+00 0.00000E+00
 -1       836 0.00000E+00 0.00000E+00 0.00000E+00
 -1       837 0.00000E+00 0.00000E+00 0.00000E+00
 -1       838 0.00000E+00 0.00000E+00 0.00000E+00
 -1       839 0.00000E+00 0.00000E+00 0.00000E+00
 -1       840 0.00000E+00 0.00000E+00 0.00000E+00
 -1       856 0.00000E+00 0.00000E+00 0.00000E+00
 -1       857 0.00000E+00 0.00000E+00 0.00000E+00
 -1       858 0.00000E+00 0.00000E+00 0.00000E+00
 -1       859 0.00000E+00 0.00000E+00 0.00000E+00
 -1       860 0.00000E+00 0.00000E+00 0.00000E+00
 -1       861 0.00000E+00 0.00000E+00 0.00000E+00
 -1       862 0.00000E+00 0.00000E+00 0.00000E+00
 -1       863 0.00000E+00 0.00000E+00 0.00000E+00
 -1       864 0.00000E+00 0.00000E+00 0.00000E+00
 -1       865 0.00000E+00 0.00000E+00 0.00000E+00
 -1       866 0.00000E+00 0.00000E+00 0.00000E+00
 -1       867 0.00000E+00 0.00000E+00 0.00000E+00
 -1       868 0.00000E+00 0.00000E+00 0.00000E+00
 -1       869 0.00000E+00 0.00000E+00 0.00000E+00
 -1       870 0.00000E+00 0.00000E+00 0.00000E+00
 -1       871 0.00000E+00 0.00000E+00 0.00000E+00
 -1       872 0.00000E+00 0.00000E+00 0.00000E+00
 -1       873 0.00000E+00 0.00000E+00 0.00000E+00
 -1       874 0.00000E+00 0.00000E+00 0.00000E+00
 -1       875 0.00000E+00 0.00000E+00 0.00000E+00
 -1       876 0.00000E+00 0.00000E+00 0.00000E+00
 -1       877 0.00000E+00 0.00000E+00 0.00000E+00
 -1       878 0.00000E+00 0.00000E+00 0.00000E+00
 -1       879 0.00000E+00 0.00000E+00 0.00000E+00
 -1       880 0.00000E+00 0.00000E+00 0.00000E+00
 -1       881 0.00000E+00 0.00000E+00 0.00000E+00
 -1       882 0.00000E+00 0.00000E+00 0.00000E+00
 -1       883 0.00000E+00 0.00000E+00 0.00000E+00
 -1       884 0.00000E+00 0.00000E+00 0.00000E+00
 -1       885 0.00000E+00 0.00000E+00 0.00000E+00
 -1       886 0.00000E+00 0.00000E+00 0.00000E+00
 -1       887 0.00000E+00 0.00000E+00 0.00000E+00
 -1       888 0.00000E+00 0.00000E+00 0.00000E+00
 -1       889 0.00000E+00 0.00000E+00 0.00000E+00
 -1       890 0.00000E+00 0.00000E+00 0.00000E+00
 -1       891 0.00000E+00 0.00000E+00 0.00000E+00
 -1       892 0.00000E+00 0.00000E+00 0.00000E+00
 -1       893 0.00000E+00 0.00000E+00 0.00000E+00
 -1       894 0.00000E+00 0.00000E+00 0.00000E+00
 -1       895 0.00000E+00 0.00000E+00 0.00000E+00
 -1       956 0.00000E+00 0.00000E+00 0.00000E+00
 -1       957 0.00000E+00 0.00000E+00 0.00000E+00
 -1       958 0.00000E+00 0.00000E+00 0.00000E+00
 -1       959 0.00000E+00 0.00000E+00 0.00000E+00
 -1       960 0.00000E+00 0.00000E+00 0.00000E+00
 -1       961 0.00000E+00 0.00000E+00 0.00000E+00
 -1       962 0.00000E+00 0.00000E+00 0.00000E+00
 -1       963 0.00000E+00 0.00000E+00 0.00000E+00
 -1       964 0.00000E+00 0.00000E+00 0.00000E+00
 -1       965 0.00000E+00 0.00000E+00 0.00000E+00
 -1       966 0.00000E+00 0.00000E+00 0.00000E+00
 -1       967 0.00000E+00 0.00000E+00 0.00000E+00
 -1       968 0.00000E+00 0.00000E+00 0.00000E+00
 -1       969 0.00000E+00 0.00000E+00 0.00000E+00
 -1       970 0.00000E+00 0.00000E+00 0.00000E+00
 -1       971 0.00000E+00 0.00000E+00 0.00000E+00
 -1       972 0.00000E+00 0.00000E+00 0.00000E+00
 -1       973 0.00000E+00 0.00000E+00 0.00000E+00
 -1       974 0.00000E+00 0.00000E+00 0.00000E+00
 -1       975 0.00000E+00 0.00000E+00 0.00000E+00
 -1       976 0.00000E+00 0.00000E+00 0.00000E+00
 -1       977 0.00000E+00 0.00000E+00 0.00000E+00
 -1       978 0.00000E+00 0.00000E+00 0.00000E+00
 -1       979 0.00000E+00 0.00000E+00 0.00000E+00
 -1       980 0.00000E+00 0.00000E+00 0.00000E+00
 -1       981 0.00000E+00 0.00000E+00 0.00000E+00
 -1       982 0.00000E+00 0.00000E+00 0.00000E+00
 -1       983 0.00000E+00 0.00000E+00 0.00000E+00
 -1       984 0.00000E+00 0.00000E+00 0.00000E+00
 -1       985 0.00000E+00 0.00000E+00 0.00000E+00
 -3
