
 stresses (elem, integ.pnt.,sxx,syy,szz,sxy,sxz,syz) for set ELALL and time  0.1000000E+01

         1   1  2.792653E+06  1.018207E+07  2.649993E+06 -1.925461E+06  1.281217E+05  1.009809E+06
         1   2  2.253239E+06  8.687180E+06  1.789443E+06 -1.767534E+06  4.317864E+05  4.630797E+05
         1   3  1.866729E+06  7.307280E+06  1.320631E+06 -1.843351E+06  5.043527E+05 -8.195650E+04
         1   4  1.259893E+05 -6.945122E+05  1.321587E+05 -1.811124E+06  1.315160E+05  8.673017E+04
         1   5  3.995313E+04 -7.030126E+05  6.994434E+04 -1.694535E+06  4.342529E+05  5.310520E+04
         1   6  1.966838E+04 -6.858256E+05  4.683817E+04 -1.811654E+06  5.043499E+05  1.973619E+04
         1   7 -2.548474E+06 -1.146108E+07 -2.390441E+06 -1.698549E+06  1.346224E+05 -8.205019E+05
         1   8 -2.178214E+06 -1.000796E+07 -1.652539E+06 -1.622462E+06  4.366516E+05 -3.509014E+05
         1   9 -1.830572E+06 -8.615832E+06 -1.228584E+06 -1.780206E+06  5.043570E+05  1.201772E+05
         1  10  2.792366E+06  1.018099E+07  2.648074E+06 -1.925565E+06 -3.698247E-09 -2.352247E-08
         1  11  2.252981E+06  8.686901E+06  1.788693E+06 -1.767694E+06 -1.160894E-08  1.090358E-08
         1  12  1.866454E+06  7.307204E+06  1.320141E+06 -1.843318E+06 -4.192472E-09  4.612974E-08
         1  13  1.259687E+05 -6.945249E+05  1.321119E+05 -1.811134E+06  4.990207E-10 -1.923261E-11
         1  14  3.974987E+04 -7.030663E+05  6.958451E+04 -1.694553E+06 -3.172687E-09 -4.724062E-11
         1  15  1.939519E+04 -6.858942E+05  4.635946E+04 -1.811663E+06  1.669005E-08 -7.312810E-11
         1  16 -2.548678E+06 -1.146182E+07 -2.391762E+06 -1.698460E+06 -1.746070E-09  2.297511E-08
         1  17 -2.178452E+06 -1.000814E+07 -1.653130E+06 -1.622339E+06 -2.039277E-09 -1.069156E-08
         1  18 -1.830850E+06 -8.615916E+06 -1.229090E+06 -1.780255E+06 -4.949623E-09 -4.556307E-08
         1  19  2.792653E+06  1.018207E+07  2.649993E+06 -1.925461E+06 -1.281217E+05 -1.009809E+06
         1  20  2.253239E+06  8.687180E+06  1.789443E+06 -1.767534E+06 -4.317864E+05 -4.630797E+05
         1  21  1.866729E+06  7.307280E+06  1.320631E+06 -1.843351E+06 -5.043527E+05  8.195650E+04
         1  22  1.259893E+05 -6.945122E+05  1.321587E+05 -1.811124E+06 -1.315160E+05 -8.673017E+04
         1  23  3.995313E+04 -7.030126E+05  6.994434E+04 -1.694535E+06 -4.342529E+05 -5.310520E+04
         1  24  1.966838E+04 -6.858256E+05  4.683817E+04 -1.811654E+06 -5.043499E+05 -1.973619E+04
         1  25 -2.548474E+06 -1.146108E+07 -2.390441E+06 -1.698549E+06 -1.346224E+05  8.205019E+05
         1  26 -2.178214E+06 -1.000796E+07 -1.652539E+06 -1.622462E+06 -4.366516E+05  3.509014E+05
         1  27 -1.830572E+06 -8.615832E+06 -1.228584E+06 -1.780206E+06 -5.043570E+05 -1.201772E+05
         2   1  1.651652E+06  6.391795E+06  1.140237E+06 -1.851608E+06  4.682644E+05 -9.439113E+04
         2   2  1.311467E+06  4.946627E+06  8.704095E+05 -1.714634E+06  4.060599E+05 -1.774656E+05
         2   3  9.987551E+05  3.520824E+06  6.611124E+05 -1.828236E+06  3.154830E+05 -2.607338E+05
         2   4  2.073017E+04 -6.875812E+05  4.145481E+04 -1.815426E+06  4.680629E+05  1.251566E+04
         2   5  2.144885E+04 -6.881530E+05  4.086616E+04 -1.690043E+06  4.051809E+05 -8.014132E+03
         2   6  3.900725E+04 -6.821413E+05  5.767007E+04 -1.815367E+06  3.137929E+05 -2.891754E+04
         2   7 -1.612626E+06 -7.717200E+06 -1.058455E+06 -1.779526E+06  4.678720E+05  1.182582E+05
         2   8 -1.270030E+06 -6.291067E+06 -7.891396E+05 -1.665591E+06  4.043095E+05  1.599717E+05
         2   9 -9.215158E+05 -4.867206E+06 -5.458432E+05 -1.802531E+06  3.121043E+05  2.014030E+05
         2  10  1.651414E+06  6.391726E+06  1.139809E+06 -1.851573E+06 -8.704885E-09 -8.433973E-08
         2  11  1.311282E+06  4.946550E+06  8.700419E+05 -1.714576E+06  5.759506E-09  4.205210E-08
         2  12  9.986305E+05  3.520725E+06  6.607995E+05 -1.828171E+06  2.992640E-09  1.617487E-07
         2  13  2.049493E+04 -6.876401E+05  4.104288E+04 -1.815431E+06  3.902757E-09 -5.012568E-11
         2  14  2.127262E+04 -6.881970E+05  4.055769E+04 -1.690041E+06 -7.764835E-09 -7.985800E-11
         2  15  3.890138E+04 -6.821686E+05  5.748366E+04 -1.815360E+06 -1.979370E-08 -3.450887E-10
         2  16 -1.612865E+06 -7.717274E+06 -1.058893E+06 -1.779571E+06 -1.005224E-08  8.359206E-08
         2  17 -1.270213E+06 -6.291139E+06 -7.894960E+05 -1.665643E+06 -2.566070E-09 -4.214336E-08
         2  18 -9.216316E+05 -4.867276E+06 -5.461038E+05 -1.802582E+06  5.148535E-09 -1.609417E-07
         2  19  1.651652E+06  6.391795E+06  1.140237E+06 -1.851608E+06 -4.682644E+05  9.439113E+04
         2  20  1.311467E+06  4.946627E+06  8.704095E+05 -1.714634E+06 -4.060599E+05  1.774656E+05
         2  21  9.987551E+05  3.520824E+06  6.611124E+05 -1.828236E+06 -3.154830E+05  2.607338E+05
         2  22  2.073017E+04 -6.875812E+05  4.145481E+04 -1.815426E+06 -4.680629E+05 -1.251566E+04
         2  23  2.144885E+04 -6.881530E+05  4.086616E+04 -1.690043E+06 -4.051809E+05  8.014132E+03
         2  24  3.900725E+04 -6.821413E+05  5.767007E+04 -1.815367E+06 -3.137929E+05  2.891754E+04
         2  25 -1.612626E+06 -7.717200E+06 -1.058455E+06 -1.779526E+06 -4.678720E+05 -1.182582E+05
         2  26 -1.270030E+06 -6.291067E+06 -7.891396E+05 -1.665591E+06 -4.043095E+05 -1.599717E+05
         2  27 -9.215158E+05 -4.867206E+06 -5.458432E+05 -1.802531E+06 -3.121043E+05 -2.014030E+05
         3   1  8.000426E+05  2.629816E+06  5.410138E+05 -1.831689E+06  2.529630E+05 -2.714719E+05
         3   2  5.230249E+05  1.180649E+06  3.885645E+05 -1.621698E+06  1.460847E+05 -3.419214E+05
         3   3  3.530131E+05 -2.333217E+05  3.078807E+05 -1.664306E+06  3.634085E+04 -4.123617E+05
         3   4  4.598735E+04 -6.752605E+05  7.204101E+04 -1.815858E+06  2.511157E+05 -3.915263E+04
         3   5  9.767126E+04 -6.902534E+05  1.246121E+05 -1.688907E+06  1.440969E+05 -1.034996E+05
         3   6  2.554337E+05 -6.733613E+05  2.445553E+05 -1.814409E+06  3.422763E+04 -1.679751E+05
         3   7 -7.085311E+05 -3.969194E+06 -3.968847E+05 -1.800079E+06  2.492733E+05  1.919875E+05
         3   8 -3.277888E+05 -2.557479E+06 -1.391715E+05 -1.755894E+06  1.420534E+05  1.342362E+05
         3   9  1.579641E+05 -1.113027E+06  1.814640E+05 -1.964402E+06  3.199511E+04  7.624560E+04
         3  10  7.999545E+05  2.629720E+06  5.407566E+05 -1.831633E+06  5.682701E-09 -6.788674E-08
         3  11  5.229709E+05  1.180518E+06  3.883058E+05 -1.621658E+06 -4.605642E-09 -3.993468E-08
         3  12  3.529660E+05 -2.335046E+05  3.075587E+05 -1.664294E+06 -1.796087E-09 -5.636272E-09
         3  13  4.591930E+04 -6.752791E+05  7.191982E+04 -1.815850E+06 -2.532600E-08 -1.891360E-10
         3  14  9.764616E+04 -6.902704E+05  1.245531E+05 -1.688895E+06 -1.638753E-08 -2.912903E-10
         3  15  2.554249E+05 -6.733919E+05  2.445001E+05 -1.814404E+06 -7.126675E-09 -2.279374E-10
         3  16 -7.086079E+05 -3.969251E+06 -3.970718E+05 -1.800118E+06  2.904977E-09  6.718380E-08
         3  17 -3.278154E+05 -2.557504E+06 -1.392436E+05 -1.755910E+06  2.395827E-09  4.021185E-08
         3  18  1.579614E+05 -1.113033E+06  1.814511E+05 -1.964404E+06 -1.018495E-09  5.605011E-09
         3  19  8.000426E+05  2.629816E+06  5.410138E+05 -1.831689E+06 -2.529630E+05  2.714719E+05
         3  20  5.230249E+05  1.180649E+06  3.885645E+05 -1.621698E+06 -1.460847E+05  3.419214E+05
         3  21  3.530131E+05 -2.333217E+05  3.078807E+05 -1.664306E+06 -3.634085E+04  4.123617E+05
         3  22  4.598735E+04 -6.752605E+05  7.204101E+04 -1.815858E+06 -2.511157E+05  3.915263E+04
         3  23  9.767126E+04 -6.902534E+05  1.246121E+05 -1.688907E+06 -1.440969E+05  1.034996E+05
         3  24  2.554337E+05 -6.733613E+05  2.445553E+05 -1.814409E+06 -3.422763E+04  1.679751E+05
         3  25 -7.085311E+05 -3.969194E+06 -3.968847E+05 -1.800079E+06 -2.492733E+05 -1.919875E+05
         3  26 -3.277888E+05 -2.557479E+06 -1.391715E+05 -1.755894E+06 -1.420534E+05 -1.342362E+05
         3  27  1.579641E+05 -1.113027E+06  1.814640E+05 -1.964402E+06 -3.199511E+04 -7.624560E+04
         4   1 -9.019072E+06 -2.691035E+06 -1.819506E+06 -3.174209E+06 -1.219890E+06 -4.598066E+05
         4   2 -8.590415E+06 -8.151752E+05 -6.379155E+05 -3.443155E+06 -7.811419E+05 -3.035496E+05
         4   3 -8.787969E+06 -1.033704E+06 -3.138216E+05 -3.390317E+06 -3.440681E+05 -1.426269E+05
         4   4 -9.589152E+06 -2.721165E+06 -1.940379E+06 -3.136943E+06 -1.220823E+06 -4.606251E+05
         4   5 -9.175972E+06 -9.897752E+05 -7.901563E+05 -3.552922E+06 -7.816030E+05 -3.038011E+05
         4   6 -9.389602E+06 -1.354025E+06 -4.983603E+05 -3.646978E+06 -3.440651E+05 -1.425617E+05
         4   7 -1.015884E+07 -2.751239E+06 -2.061247E+06 -3.099745E+06 -1.221754E+06 -4.614441E+05
         4   8 -9.761192E+06 -1.164382E+06 -9.424237E+05 -3.662608E+06 -7.820632E+05 -3.040526E+05
         4   9 -9.990858E+06 -1.674204E+06 -6.829353E+05 -3.903375E+06 -3.440620E+05 -1.424965E+05
         4  10 -9.020749E+06 -2.691673E+06 -1.822753E+06 -3.174666E+06 -8.711526E-10  2.333536E-10
         4  11 -8.591104E+06 -8.154426E+05 -6.392572E+05 -3.443347E+06  8.004350E-09 -2.051542E-10
         4  12 -8.788103E+06 -1.033759E+06 -3.140866E+05 -3.390357E+06  5.115662E-09 -1.720279E-09
         4  13 -9.590833E+06 -2.721805E+06 -1.943635E+06 -3.137401E+06  4.558848E-09  2.674973E-10
         4  14 -9.176662E+06 -9.900432E+05 -7.915009E+05 -3.553115E+06  1.848555E-09  4.056428E-10
         4  15 -9.389737E+06 -1.354079E+06 -4.986256E+05 -3.647018E+06  3.854729E-09 -2.106779E-09
         4  16 -1.016053E+07 -2.751880E+06 -2.064511E+06 -3.100204E+06  2.047409E-09  3.809581E-10
         4  17 -9.761884E+06 -1.164651E+06 -9.437713E+05 -3.662802E+06  1.930131E-09  1.617829E-09
         4  18 -9.990993E+06 -1.674259E+06 -6.832008E+05 -3.903415E+06 -1.939903E-09 -3.976058E-10
         4  19 -9.019072E+06 -2.691035E+06 -1.819506E+06 -3.174209E+06  1.219890E+06  4.598066E+05
         4  20 -8.590415E+06 -8.151752E+05 -6.379155E+05 -3.443155E+06  7.811419E+05  3.035496E+05
         4  21 -8.787969E+06 -1.033704E+06 -3.138216E+05 -3.390317E+06  3.440681E+05  1.426269E+05
         4  22 -9.589152E+06 -2.721165E+06 -1.940379E+06 -3.136943E+06  1.220823E+06  4.606251E+05
         4  23 -9.175972E+06 -9.897752E+05 -7.901563E+05 -3.552922E+06  7.816030E+05  3.038011E+05
         4  24 -9.389602E+06 -1.354025E+06 -4.983603E+05 -3.646978E+06  3.440651E+05  1.425617E+05
         4  25 -1.015884E+07 -2.751239E+06 -2.061247E+06 -3.099745E+06  1.221754E+06  4.614441E+05
         4  26 -9.761192E+06 -1.164382E+06 -9.424237E+05 -3.662608E+06  7.820632E+05  3.040526E+05
         4  27 -9.990858E+06 -1.674204E+06 -6.829353E+05 -3.903375E+06  3.440620E+05  1.424965E+05
         5   1 -8.301532E+06 -1.169865E+06 -1.223475E+05 -3.220920E+06 -2.680607E+05 -1.163499E+05
         5   2 -8.243762E+06 -9.046665E+05  1.039706E+05 -3.269356E+06 -1.696017E+05 -8.276294E+04
         5   3 -8.285632E+06 -9.324663E+05  1.817197E+05 -3.256037E+06 -7.319648E+04 -4.375241E+04
         5   4 -9.358517E+06 -1.546917E+06 -4.098958E+05 -3.482401E+06 -2.688788E+05 -1.166759E+05
         5   5 -9.293515E+06 -1.300302E+06 -1.854245E+05 -3.550769E+06 -1.695016E+05 -8.272939E+04
         5   6 -9.328528E+06 -1.347178E+06 -1.104574E+05 -3.557335E+06 -7.217841E+04 -4.336295E+04
         5   7 -1.041442E+07 -1.923939E+06 -6.975441E+05 -3.743489E+06 -2.696950E+05 -1.170013E+05
         5   8 -1.034219E+07 -1.695880E+06 -4.749212E+05 -3.831748E+06 -1.694014E+05 -8.269582E+04
         5   9 -1.037036E+07 -1.761801E+06 -4.027377E+05 -3.858159E+06 -7.116214E+04 -4.297423E+04
         5  10 -8.301614E+06 -1.169900E+06 -1.225105E+05 -3.220945E+06 -6.086598E-09 -4.315730E-09
         5  11 -8.243796E+06 -9.046818E+05  1.039027E+05 -3.269367E+06 -1.146081E-08 -4.348951E-10
         5  12 -8.285638E+06 -9.324698E+05  1.817059E+05 -3.256039E+06 -5.260554E-09  1.554802E-09
         5  13 -9.358600E+06 -1.546952E+06 -4.100600E+05 -3.482427E+06  7.048119E-10 -2.453727E-09
         5  14 -9.293548E+06 -1.300318E+06 -1.854925E+05 -3.550780E+06 -4.896448E-09 -2.399058E-09
         5  15 -9.328534E+06 -1.347182E+06 -1.104710E+05 -3.557338E+06 -1.632535E-09  7.235126E-10
         5  16 -1.041450E+07 -1.923974E+06 -6.977096E+05 -3.743515E+06  8.101991E-09 -3.760437E-09
         5  17 -1.034223E+07 -1.695896E+06 -4.749893E+05 -3.831759E+06  4.596536E-09 -8.896282E-10
         5  18 -1.037037E+07 -1.761804E+06 -4.027510E+05 -3.858162E+06  6.294224E-09  4.026435E-09
         5  19 -8.301532E+06 -1.169865E+06 -1.223475E+05 -3.220920E+06  2.680607E+05  1.163499E+05
         5  20 -8.243762E+06 -9.046665E+05  1.039706E+05 -3.269356E+06  1.696017E+05  8.276294E+04
         5  21 -8.285632E+06 -9.324663E+05  1.817197E+05 -3.256037E+06  7.319648E+04  4.375241E+04
         5  22 -9.358517E+06 -1.546917E+06 -4.098958E+05 -3.482401E+06  2.688788E+05  1.166759E+05
         5  23 -9.293515E+06 -1.300302E+06 -1.854245E+05 -3.550769E+06  1.695016E+05  8.272939E+04
         5  24 -9.328528E+06 -1.347178E+06 -1.104574E+05 -3.557335E+06  7.217841E+04  4.336295E+04
         5  25 -1.041442E+07 -1.923939E+06 -6.975441E+05 -3.743489E+06  2.696950E+05  1.170013E+05
         5  26 -1.034219E+07 -1.695880E+06 -4.749212E+05 -3.831748E+06  1.694014E+05  8.269582E+04
         5  27 -1.037036E+07 -1.761801E+06 -4.027377E+05 -3.858159E+06  7.116214E+04  4.297423E+04
         6   1 -8.592714E+06 -1.055065E+06  1.222459E+05 -3.292364E+06 -5.669340E+04 -3.564235E+04
         6   2 -8.617922E+06 -1.131768E+06  1.381098E+05 -3.412017E+06 -3.584094E+04 -2.522762E+04
         6   3 -8.805790E+06 -1.102316E+06  1.270292E+05 -3.356989E+06 -1.621753E+04 -1.166301E+04
         6   4 -9.355078E+06 -1.344982E+06 -8.839471E+04 -3.499338E+06 -5.653232E+04 -3.558228E+04
         6   5 -9.271426E+06 -1.383180E+06 -4.310400E+04 -3.592311E+06 -3.507711E+04 -2.493479E+04
         6   6 -9.350606E+06 -1.315365E+06 -2.527169E+04 -3.510592E+06 -1.484736E+04 -1.113441E+04
         6   7 -1.011688E+07 -1.634867E+06 -2.990899E+05 -3.706081E+06 -5.637142E+04 -3.552228E+04
         6   8 -9.924515E+06 -1.634565E+06 -2.243581E+05 -3.772432E+06 -3.431415E+04 -2.464229E+04
         6   9 -9.895134E+06 -1.528394E+06 -1.776010E+05 -3.664072E+06 -1.347853E+04 -1.060635E+04
         6  10 -8.592718E+06 -1.055067E+06  1.222373E+05 -3.292366E+06 -4.287918E-09  1.125591E-09
         6  11 -8.617924E+06 -1.131770E+06  1.381061E+05 -3.412018E+06 -9.365794E-10 -3.568050E-09
         6  12 -8.805790E+06 -1.102316E+06  1.270285E+05 -3.356989E+06  2.318632E-09  2.730164E-09
         6  13 -9.355081E+06 -1.344984E+06 -8.840324E+04 -3.499340E+06  3.230533E-09 -4.798416E-10
         6  14 -9.271427E+06 -1.383181E+06 -4.310754E+04 -3.592312E+06  7.885117E-09 -8.155344E-10
         6  15 -9.350607E+06 -1.315366E+06 -2.527235E+04 -3.510593E+06 -8.221188E-10  2.184532E-09
         6  16 -1.011688E+07 -1.634869E+06 -2.990984E+05 -3.706083E+06  3.362877E-09 -2.450547E-09
         6  17 -9.924516E+06 -1.634566E+06 -2.243615E+05 -3.772432E+06  2.294012E-09 -2.992277E-09
         6  18 -9.895134E+06 -1.528394E+06 -1.776016E+05 -3.664072E+06  2.210018E-10 -1.038906E-09
         6  19 -8.592714E+06 -1.055065E+06  1.222459E+05 -3.292364E+06  5.669340E+04  3.564235E+04
         6  20 -8.617922E+06 -1.131768E+06  1.381098E+05 -3.412017E+06  3.584094E+04  2.522762E+04
         6  21 -8.805790E+06 -1.102316E+06  1.270292E+05 -3.356989E+06  1.621753E+04  1.166301E+04
         6  22 -9.355078E+06 -1.344982E+06 -8.839471E+04 -3.499338E+06  5.653232E+04  3.558228E+04
         6  23 -9.271426E+06 -1.383180E+06 -4.310400E+04 -3.592311E+06  3.507711E+04  2.493479E+04
         6  24 -9.350606E+06 -1.315365E+06 -2.527169E+04 -3.510592E+06  1.484736E+04  1.113441E+04
         6  25 -1.011688E+07 -1.634867E+06 -2.990899E+05 -3.706081E+06  5.637142E+04  3.552228E+04
         6  26 -9.924515E+06 -1.634565E+06 -2.243581E+05 -3.772432E+06  3.431415E+04  2.464229E+04
         6  27 -9.895134E+06 -1.528394E+06 -1.776010E+05 -3.664072E+06  1.347853E+04  1.060635E+04
         7   1 -9.518048E+06 -1.375685E+06 -6.562162E+04 -3.545003E+06 -1.381973E+04 -6.255208E+03
         7   2 -9.556444E+06 -1.510901E+06 -9.272720E+04 -3.682466E+06 -9.595457E+03  1.417883E+03
         7   3 -9.779188E+06 -1.472465E+06 -1.265118E+05 -3.617708E+06 -4.829798E+03  7.701101E+03
         7   4 -9.357181E+06 -1.312726E+06 -2.030813E+04 -3.499700E+06 -1.263511E+04 -5.797684E+03
         7   5 -9.264805E+06 -1.398058E+06 -1.168682E+04 -3.601424E+06 -8.686782E+03  1.768020E+03
         7   6 -9.356729E+06 -1.309687E+06 -9.519204E+03 -3.500940E+06 -4.195740E+03  7.944792E+03
         7   7 -9.196289E+06 -1.249765E+06  2.500278E+04 -3.454387E+06 -1.145015E+04 -5.340024E+03
         7   8 -8.973084E+06 -1.285209E+06  6.934551E+04 -3.520347E+06 -7.777628E+03  2.118342E+03
         7   9 -8.934096E+06 -1.146897E+06  1.074568E+05 -3.384099E+06 -3.561197E+03  8.188668E+03
         7  10 -9.518049E+06 -1.375686E+06 -6.562206E+04 -3.545003E+06  3.575411E-09  3.038430E-09
         7  11 -9.556444E+06 -1.510901E+06 -9.272738E+04 -3.682466E+06  4.602766E-09 -6.814628E-09
         7  12 -9.779188E+06 -1.472465E+06 -1.265120E+05 -3.617708E+06 -2.056656E-09  3.296077E-09
         7  13 -9.357181E+06 -1.312726E+06 -2.030850E+04 -3.499700E+06 -1.695388E-10  2.019759E-09
         7  14 -9.264805E+06 -1.398058E+06 -1.168697E+04 -3.601424E+06 -3.253355E-09 -5.189354E-09
         7  15 -9.356729E+06 -1.309687E+06 -9.519355E+03 -3.500940E+06 -3.384061E-09  2.161400E-09
         7  16 -9.196289E+06 -1.249765E+06  2.500247E+04 -3.454387E+06  2.054963E-09 -3.170919E-09
         7  17 -8.973084E+06 -1.285209E+06  6.934538E+04 -3.520347E+06  2.202196E-09  5.166436E-09
         7  18 -8.934096E+06 -1.146897E+06  1.074567E+05 -3.384099E+06 -2.996203E-10 -2.532410E-09
         7  19 -9.518048E+06 -1.375685E+06 -6.562162E+04 -3.545003E+06  1.381973E+04  6.255208E+03
         7  20 -9.556444E+06 -1.510901E+06 -9.272720E+04 -3.682466E+06  9.595457E+03 -1.417883E+03
         7  21 -9.779188E+06 -1.472465E+06 -1.265118E+05 -3.617708E+06  4.829798E+03 -7.701101E+03
         7  22 -9.357181E+06 -1.312726E+06 -2.030813E+04 -3.499700E+06  1.263511E+04  5.797684E+03
         7  23 -9.264805E+06 -1.398058E+06 -1.168682E+04 -3.601424E+06  8.686782E+03 -1.768020E+03
         7  24 -9.356729E+06 -1.309687E+06 -9.519204E+03 -3.500940E+06  4.195740E+03 -7.944792E+03
         7  25 -9.196289E+06 -1.249765E+06  2.500278E+04 -3.454387E+06  1.145015E+04  5.340024E+03
         7  26 -8.973084E+06 -1.285209E+06  6.934551E+04 -3.520347E+06  7.777628E+03 -2.118342E+03
         7  27 -8.934096E+06 -1.146897E+06  1.074568E+05 -3.384099E+06  3.561197E+03 -8.188668E+03
         8   1 -1.027133E+07 -1.700133E+06 -2.714367E+05 -3.791455E+06 -5.069194E+03  1.090180E+04
         8   2 -1.028866E+07 -1.745679E+06 -2.860512E+05 -3.837291E+06  2.525245E+02  1.738210E+04
         8   3 -1.036228E+07 -1.735279E+06 -3.056274E+05 -3.811403E+06  7.367309E+03  1.919123E+04
         8   4 -9.328469E+06 -1.335719E+06 -8.960589E+03 -3.530105E+06 -3.831887E+03  1.137578E+04
         8   5 -9.300733E+06 -1.365753E+06 -1.188857E+04 -3.565251E+06  5.684164E+02  1.750087E+04
         8   6 -9.329077E+06 -1.339650E+06 -1.902741E+04 -3.528682E+06  6.760945E+03  1.895860E+04
         8   7 -8.384746E+06 -9.712475E+05  2.534314E+05 -3.268388E+06 -2.592472E+03  1.185058E+04
         8   8 -8.311855E+06 -9.857661E+05  2.621825E+05 -3.292811E+06  8.848628E+02  1.761984E+04
         8   9 -8.294835E+06 -9.439567E+05  2.674730E+05 -3.245527E+06  6.153427E+03  1.872555E+04
         8  10 -1.027133E+07 -1.700133E+06 -2.714369E+05 -3.791455E+06  8.345351E-09  5.133365E-09
         8  11 -1.028866E+07 -1.745679E+06 -2.860517E+05 -3.837291E+06  4.281321E-09  3.279368E-09
         8  12 -1.036228E+07 -1.735280E+06 -3.056282E+05 -3.811403E+06 -3.357479E-09  6.815157E-10
         8  13 -9.328469E+06 -1.335719E+06 -8.960858E+03 -3.530105E+06  1.341841E-09  3.260544E-09
         8  14 -9.300733E+06 -1.365753E+06 -1.188914E+04 -3.565251E+06 -4.064110E-09 -2.535565E-09
         8  15 -9.329077E+06 -1.339650E+06 -1.902818E+04 -3.528682E+06 -3.888040E-10  1.170411E-09
         8  16 -8.384746E+06 -9.712477E+05  2.534311E+05 -3.268388E+06 -4.483734E-09 -3.612645E-09
         8  17 -8.311855E+06 -9.857664E+05  2.621819E+05 -3.292811E+06  3.003094E-09 -4.388250E-10
         8  18 -8.294835E+06 -9.439571E+05  2.674722E+05 -3.245527E+06  3.258751E-09 -3.042899E-09
         8  19 -1.027133E+07 -1.700133E+06 -2.714367E+05 -3.791455E+06  5.069194E+03 -1.090180E+04
         8  20 -1.028866E+07 -1.745679E+06 -2.860512E+05 -3.837291E+06 -2.525245E+02 -1.738210E+04
         8  21 -1.036228E+07 -1.735279E+06 -3.056274E+05 -3.811403E+06 -7.367309E+03 -1.919123E+04
         8  22 -9.328469E+06 -1.335719E+06 -8.960589E+03 -3.530105E+06  3.831887E+03 -1.137578E+04
         8  23 -9.300733E+06 -1.365753E+06 -1.188857E+04 -3.565251E+06 -5.684164E+02 -1.750087E+04
         8  24 -9.329077E+06 -1.339650E+06 -1.902741E+04 -3.528682E+06 -6.760945E+03 -1.895860E+04
         8  25 -8.384746E+06 -9.712475E+05  2.534314E+05 -3.268388E+06  2.592472E+03 -1.185058E+04
         8  26 -8.311855E+06 -9.857661E+05  2.621825E+05 -3.292811E+06 -8.848628E+02 -1.761984E+04
         8  27 -8.294835E+06 -9.439567E+05  2.674730E+05 -3.245527E+06 -6.153427E+03 -1.872555E+04
         9   1 -1.021855E+07 -1.729270E+06 -2.808636E+05 -3.828799E+06  1.022458E+04  1.954554E+04
         9   2 -1.019184E+07 -1.635962E+06 -2.756560E+05 -3.743050E+06  3.237048E+04  2.696219E+04
         9   3 -1.006832E+07 -1.689818E+06 -2.962741E+05 -3.769463E+06  5.596342E+04  3.052204E+04
         9   4 -9.293341E+06 -1.373289E+06 -2.401473E+04 -3.573847E+06  1.045491E+04  1.963124E+04
         9   5 -9.343864E+06 -1.313123E+06 -4.099836E+04 -3.512830E+06  3.186068E+04  2.676820E+04
         9   6 -9.297422E+06 -1.399926E+06 -8.318623E+04 -3.563971E+06  5.470953E+04  3.004950E+04
         9   7 -8.367298E+06 -1.017254E+06  2.327538E+05 -3.318545E+06  1.068561E+04  1.971709E+04
         9   8 -8.495189E+06 -9.902431E+05  1.935921E+05 -3.282322E+06  3.135008E+04  2.657390E+04
         9   9 -8.525945E+06 -1.110003E+06  1.298462E+05 -3.358247E+06  5.345384E+04  2.957630E+04
         9  10 -1.021855E+07 -1.729271E+06 -2.808645E+05 -3.828800E+06 -4.474418E-09  3.003355E-09
         9  11 -1.019184E+07 -1.635963E+06 -2.756594E+05 -3.743051E+06 -8.924442E-10  3.502863E-09
         9  12 -1.006833E+07 -1.689820E+06 -2.962819E+05 -3.769464E+06  1.885099E-09 -4.322037E-09
         9  13 -9.293341E+06 -1.373289E+06 -2.401566E+04 -3.573848E+06 -8.943842E-10  3.161417E-09
         9  14 -9.343866E+06 -1.313124E+06 -4.100166E+04 -3.512831E+06  1.287746E-09  2.496123E-09
         9  15 -9.297426E+06 -1.399927E+06 -8.319367E+04 -3.563973E+06 -9.245243E-09 -4.543089E-09
         9  16 -8.367298E+06 -1.017255E+06  2.327529E+05 -3.318545E+06 -1.366260E-09  3.938840E-09
         9  17 -8.495190E+06 -9.902441E+05  1.935889E+05 -3.282323E+06 -8.082552E-09  3.953430E-09
         9  18 -8.525949E+06 -1.110005E+06  1.298391E+05 -3.358249E+06 -8.081946E-10 -6.350855E-10
         9  19 -1.021855E+07 -1.729270E+06 -2.808636E+05 -3.828799E+06 -1.022458E+04 -1.954554E+04
         9  20 -1.019184E+07 -1.635962E+06 -2.756560E+05 -3.743050E+06 -3.237048E+04 -2.696219E+04
         9  21 -1.006832E+07 -1.689818E+06 -2.962741E+05 -3.769463E+06 -5.596342E+04 -3.052204E+04
         9  22 -9.293341E+06 -1.373289E+06 -2.401473E+04 -3.573847E+06 -1.045491E+04 -1.963124E+04
         9  23 -9.343864E+06 -1.313123E+06 -4.099836E+04 -3.512830E+06 -3.186068E+04 -2.676820E+04
         9  24 -9.297422E+06 -1.399926E+06 -8.318623E+04 -3.563971E+06 -5.470953E+04 -3.004950E+04
         9  25 -8.367298E+06 -1.017254E+06  2.327538E+05 -3.318545E+06 -1.068561E+04 -1.971709E+04
         9  26 -8.495189E+06 -9.902431E+05  1.935921E+05 -3.282322E+06 -3.135008E+04 -2.657390E+04
         9  27 -8.525945E+06 -1.110003E+06  1.298462E+05 -3.358247E+06 -5.345384E+04 -2.957630E+04
        10   1 -9.404823E+06 -1.442487E+06 -1.382816E+05 -3.645207E+06  7.268384E+04  3.243111E+04
        10   2 -9.331802E+06 -1.244615E+06 -1.705440E+05 -3.485980E+06  1.666803E+05  6.209336E+04
        10   3 -9.187408E+06 -1.500387E+06 -3.456946E+05 -3.469994E+06  2.600923E+05  9.337270E+04
        10   4 -9.291222E+06 -1.386609E+06 -1.047070E+05 -3.601300E+06  7.154041E+04  3.200387E+04
        10   5 -9.340733E+06 -1.253991E+06 -1.741791E+05 -3.494542E+06  1.658546E+05  6.178128E+04
        10   6 -9.318980E+06 -1.575103E+06 -3.868140E+05 -3.531043E+06  2.595641E+05  9.316118E+04
        10   7 -9.177609E+06 -1.330728E+06 -7.113367E+04 -3.557384E+06  7.039674E+04  3.157647E+04
        10   8 -9.349663E+06 -1.263367E+06 -1.778141E+05 -3.503104E+06  1.650289E+05  6.146924E+04
        10   9 -9.450534E+06 -1.649810E+06 -4.279350E+05 -3.592079E+06  2.590360E+05  9.294976E+04
        10  10 -9.404829E+06 -1.442489E+06 -1.382937E+05 -3.645209E+06  3.920684E-09 -5.785213E-09
        10  11 -9.331833E+06 -1.244627E+06 -1.706045E+05 -3.485989E+06 -3.909775E-09  1.779493E-09
        10  12 -9.187484E+06 -1.500415E+06 -3.458405E+05 -3.470014E+06 -3.895511E-10 -1.002165E-09
        10  13 -9.291228E+06 -1.386612E+06 -1.047188E+05 -3.601302E+06 -4.625901E-09 -7.045147E-09
        10  14 -9.340764E+06 -1.254003E+06 -1.742390E+05 -3.494551E+06 -5.752474E-09  2.174563E-09
        10  15 -9.319056E+06 -1.575131E+06 -3.869594E+05 -3.531063E+06 -4.013448E-09  1.242537E-09
        10  16 -9.177614E+06 -1.330731E+06 -7.114505E+04 -3.557386E+06  4.170931E-09 -2.571482E-09
        10  17 -9.349694E+06 -1.263379E+06 -1.778734E+05 -3.503112E+06 -9.709329E-09 -3.354852E-09
        10  18 -9.450610E+06 -1.649838E+06 -4.280799E+05 -3.592098E+06 -4.997983E-09 -7.818168E-10
        10  19 -9.404823E+06 -1.442487E+06 -1.382816E+05 -3.645207E+06 -7.268384E+04 -3.243111E+04
        10  20 -9.331802E+06 -1.244615E+06 -1.705440E+05 -3.485980E+06 -1.666803E+05 -6.209336E+04
        10  21 -9.187408E+06 -1.500387E+06 -3.456946E+05 -3.469994E+06 -2.600923E+05 -9.337270E+04
        10  22 -9.291222E+06 -1.386609E+06 -1.047070E+05 -3.601300E+06 -7.154041E+04 -3.200387E+04
        10  23 -9.340733E+06 -1.253991E+06 -1.741791E+05 -3.494542E+06 -1.658546E+05 -6.178128E+04
        10  24 -9.318980E+06 -1.575103E+06 -3.868140E+05 -3.531043E+06 -2.595641E+05 -9.316118E+04
        10  25 -9.177609E+06 -1.330728E+06 -7.113367E+04 -3.557384E+06 -7.039674E+04 -3.157647E+04
        10  26 -9.349663E+06 -1.263367E+06 -1.778141E+05 -3.503104E+06 -1.650289E+05 -6.146924E+04
        10  27 -9.450534E+06 -1.649810E+06 -4.279350E+05 -3.592079E+06 -2.590360E+05 -9.294976E+04
        11   1 -8.543974E+06 -1.104833E+06 -2.507990E+05 -3.486297E+06  3.345567E+05  1.155081E+05
        11   2 -8.341803E+06 -6.616609E+05 -5.063147E+05 -3.294787E+06  7.449448E+05  2.645168E+05
        11   3 -8.774076E+06 -2.140486E+06 -1.566677E+06 -2.742493E+06  1.149227E+06  4.299737E+05
        11   4 -9.394817E+06 -1.342871E+06 -4.693417E+05 -3.629503E+06  3.316226E+05  1.144622E+05
        11   5 -9.172401E+06 -1.023883E+06 -7.449646E+05 -3.567627E+06  7.447328E+05  2.643661E+05
        11   6 -9.586045E+06 -2.629082E+06 -1.828523E+06 -3.144694E+06  1.151747E+06  4.305129E+05
        11   7 -1.024495E+07 -1.580929E+06 -6.879376E+05 -3.772565E+06  3.286926E+05  1.134171E+05
        11   8 -1.000232E+07 -1.386000E+06 -9.836822E+05 -3.840110E+06  7.445205E+05  2.642153E+05
        11   9 -1.039728E+07 -3.117271E+06 -2.090431E+06 -3.546310E+06  1.154263E+06  4.310480E+05
        11  10 -8.544099E+06 -1.104879E+06 -2.510382E+05 -3.486329E+06  5.013925E-09 -3.307513E-09
        11  11 -8.342425E+06 -6.618890E+05 -5.075078E+05 -3.294947E+06  2.536859E-09  1.402611E-09
        11  12 -8.775562E+06 -2.141049E+06 -1.569551E+06 -2.742895E+06  3.251378E-09 -3.825816E-10
        11  13 -9.394941E+06 -1.342915E+06 -4.695771E+05 -3.629534E+06  1.294092E-09 -9.946454E-10
        11  14 -9.173024E+06 -1.024111E+06 -7.461588E+05 -3.567787E+06 -5.258821E-09 -4.190166E-10
        11  15 -9.587540E+06 -2.629648E+06 -1.831414E+06 -3.145097E+06 -5.453756E-11  2.842940E-10
        11  16 -1.024507E+07 -1.580973E+06 -6.881692E+05 -3.772595E+06 -2.188555E-09 -1.382694E-09
        11  17 -1.000294E+07 -1.386229E+06 -9.848774E+05 -3.840270E+06  3.623794E-09  2.818156E-09
        11  18 -1.039878E+07 -3.117840E+06 -2.093339E+06 -3.546716E+06 -1.118383E-10  1.046592E-10
        11  19 -8.543974E+06 -1.104833E+06 -2.507990E+05 -3.486297E+06 -3.345567E+05 -1.155081E+05
        11  20 -8.341803E+06 -6.616609E+05 -5.063147E+05 -3.294787E+06 -7.449448E+05 -2.645168E+05
        11  21 -8.774076E+06 -2.140486E+06 -1.566677E+06 -2.742493E+06 -1.149227E+06 -4.299737E+05
        11  22 -9.394817E+06 -1.342871E+06 -4.693417E+05 -3.629503E+06 -3.316226E+05 -1.144622E+05
        11  23 -9.172401E+06 -1.023883E+06 -7.449646E+05 -3.567627E+06 -7.447328E+05 -2.643661E+05
        11  24 -9.586045E+06 -2.629082E+06 -1.828523E+06 -3.144694E+06 -1.151747E+06 -4.305129E+05
        11  25 -1.024495E+07 -1.580929E+06 -6.879376E+05 -3.772565E+06 -3.286926E+05 -1.134171E+05
        11  26 -1.000232E+07 -1.386000E+06 -9.836822E+05 -3.840110E+06 -7.445205E+05 -2.642153E+05
        11  27 -1.039728E+07 -3.117271E+06 -2.090431E+06 -3.546310E+06 -1.154263E+06 -4.310480E+05
        12   1  1.619242E+05 -7.433503E+05  1.557498E+05 -2.999020E+02  2.323890E+04 -5.956899E+01
        12   2  1.614779E+05 -7.451815E+05  1.554889E+05  7.663208E+01  2.319579E+04 -5.506942E+02
        12   3  1.613224E+05 -7.465094E+05  1.556990E+05 -5.916349E+02  2.304245E+04 -1.041982E+03
        12   4 -6.691194E+01 -1.397526E+06  7.304321E+02 -2.322239E+02  2.324055E+04 -6.639610E+01
        12   5 -1.198659E+02 -1.397772E+06  8.498844E+02  2.902801E+02  2.319741E+04 -4.936726E+02
        12   6  1.068075E+02 -1.397525E+06  1.396277E+03 -2.320796E+02  2.304399E+04 -9.211115E+02
        12   7 -1.620888E+05 -2.051308E+06 -1.543187E+05 -1.646076E+02  2.324220E+04 -7.321603E+01
        12   8 -1.617483E+05 -2.049970E+06 -1.538187E+05  5.037452E+02  2.319903E+04 -4.367105E+02
        12   9 -1.611393E+05 -2.048151E+06 -1.529360E+05  1.271727E+02  2.304552E+04 -8.003672E+02
        12  10  1.619236E+05 -7.433505E+05  1.557488E+05 -2.999009E+02  4.341337E-10  9.762015E-09
        12  11  1.614773E+05 -7.451816E+05  1.554878E+05  7.664237E+01 -2.622065E-09  1.930910E-09
        12  12  1.613218E+05 -7.465096E+05  1.556980E+05 -5.916156E+02 -1.966989E-09 -2.593215E-09
        12  13 -6.749156E+01 -1.397526E+06  7.294177E+02 -2.322226E+02  4.723662E-09  9.589954E-11
        12  14 -1.204434E+02 -1.397772E+06  8.488733E+02  2.902893E+02 -1.632517E-09  6.691451E-11
        12  15  1.062375E+02 -1.397526E+06  1.395278E+03 -2.320625E+02 -4.042432E-10  2.345282E-10
        12  16 -1.620894E+05 -2.051308E+06 -1.543197E+05 -1.646062E+02  5.803744E-09 -9.634961E-09
        12  17 -1.617489E+05 -2.049970E+06 -1.538197E+05  5.037534E+02 -1.019553E-08 -2.857463E-09
        12  18 -1.611399E+05 -2.048151E+06 -1.529370E+05  1.271876E+02 -4.775239E-09  2.430678E-09
        12  19  1.619242E+05 -7.433503E+05  1.557498E+05 -2.999020E+02 -2.323890E+04  5.956899E+01
        12  20  1.614779E+05 -7.451815E+05  1.554889E+05  7.663208E+01 -2.319579E+04  5.506942E+02
        12  21  1.613224E+05 -7.465094E+05  1.556990E+05 -5.916349E+02 -2.304245E+04  1.041982E+03
        12  22 -6.691194E+01 -1.397526E+06  7.304321E+02 -2.322239E+02 -2.324055E+04  6.639610E+01
        12  23 -1.198659E+02 -1.397772E+06  8.498844E+02  2.902801E+02 -2.319741E+04  4.936726E+02
        12  24  1.068075E+02 -1.397525E+06  1.396277E+03 -2.320796E+02 -2.304399E+04  9.211115E+02
        12  25 -1.620888E+05 -2.051308E+06 -1.543187E+05 -1.646076E+02 -2.324220E+04  7.321603E+01
        12  26 -1.617483E+05 -2.049970E+06 -1.538187E+05  5.037452E+02 -2.319903E+04  4.367105E+02
        12  27 -1.611393E+05 -2.048151E+06 -1.529360E+05  1.271727E+02 -2.304552E+04  8.003672E+02
        13   1  1.601178E+05 -7.500623E+05  1.551009E+05 -1.452392E+03  2.307893E+04 -1.075454E+03
        13   2  1.587858E+05 -7.553818E+05  1.550745E+05  3.775263E+02  2.283742E+04 -3.042630E+03
        13   3  1.598937E+05 -7.594887E+05  1.570140E+05 -9.071556E+02  2.167657E+04 -5.011603E+03
        13   4 -1.718949E+02 -1.397385E+06  1.735685E+03 -6.930173E+02  2.308068E+04 -1.198997E+03
        13   5 -3.304651E+02 -1.397943E+06  2.808898E+03  8.659131E+02  2.283847E+04 -2.635692E+03
        13   6  1.859820E+03 -1.397381E+06  5.480240E+03 -6.899544E+02  2.167651E+04 -4.074197E+03
        13   7 -1.604917E+05 -2.044321E+06 -1.516587E+05  6.565500E+01  2.308242E+04 -1.322412E+03
        13   8 -1.594765E+05 -2.040125E+06 -1.494855E+05  1.353916E+03  2.283952E+04 -2.229172E+03
        13   9 -1.562034E+05 -2.034899E+06 -1.460820E+05 -4.728228E+02  2.167644E+04 -3.137748E+03
        13  10  1.601172E+05 -7.500624E+05  1.550999E+05 -1.452372E+03  1.665695E-10 -1.397707E-09
        13  11  1.587853E+05 -7.553820E+05  1.550735E+05  3.775823E+02  3.676754E-09 -4.190473E-09
        13  12  1.598932E+05 -7.594889E+05  1.570131E+05 -9.070681E+02 -9.478473E-10 -3.435065E-09
        13  13 -1.724670E+02 -1.397385E+06  1.734682E+03 -6.929950E+02  6.928080E-09  5.816882E-10
        13  14 -3.310267E+02 -1.397944E+06  2.807906E+03  8.659616E+02  2.079582E-09  8.160392E-11
        13  15  1.859311E+03 -1.397381E+06  5.479326E+03 -6.898833E+02 -6.433768E-09  4.948341E-10
        13  16 -1.604923E+05 -2.044321E+06 -1.516597E+05  6.567961E+01  4.596106E-09  2.024737E-09
        13  17 -1.594770E+05 -2.040125E+06 -1.494865E+05  1.353957E+03 -3.862296E-10  1.383251E-09
        13  18 -1.562039E+05 -2.034899E+06 -1.460829E+05 -4.727679E+02 -5.807675E-09  2.848273E-09
        13  19  1.601178E+05 -7.500623E+05  1.551009E+05 -1.452392E+03 -2.307893E+04  1.075454E+03
        13  20  1.587858E+05 -7.553818E+05  1.550745E+05  3.775263E+02 -2.283742E+04  3.042630E+03
        13  21  1.598937E+05 -7.594887E+05  1.570140E+05 -9.071556E+02 -2.167657E+04  5.011603E+03
        13  22 -1.718949E+02 -1.397385E+06  1.735685E+03 -6.930173E+02 -2.308068E+04  1.198997E+03
        13  23 -3.304651E+02 -1.397943E+06  2.808898E+03  8.659131E+02 -2.283847E+04  2.635692E+03
        13  24  1.859820E+03 -1.397381E+06  5.480240E+03 -6.899544E+02 -2.167651E+04  4.074197E+03
        13  25 -1.604917E+05 -2.044321E+06 -1.516587E+05  6.565500E+01 -2.308242E+04  1.322412E+03
        13  26 -1.594765E+05 -2.040125E+06 -1.494855E+05  1.353916E+03 -2.283952E+04  2.229172E+03
        13  27 -1.562034E+05 -2.034899E+06 -1.460820E+05 -4.728228E+02 -2.167644E+04  3.137748E+03
        14   1  1.549646E+05 -7.653838E+05  1.558124E+05 -4.941736E+03  2.335382E+04 -1.912449E+03
        14   2  1.516088E+05 -7.772395E+05  1.582863E+05  2.639708E+03  2.205843E+04 -1.563441E+04
        14   3  1.737515E+05 -7.806258E+05  1.761407E+05  4.758103E+03  7.036764E+03 -2.939166E+04
        14   4 -1.151981E+03 -1.396053E+06  6.713738E+03 -1.228613E+03  2.336135E+04 -5.098192E+03
        14   5 -2.503583E+03 -1.399595E+06  1.077475E+04  1.528323E+03  2.204963E+04 -1.091466E+04
        14   6  2.028213E+04 -1.396036E+06  2.472676E+04 -1.178169E+03  7.005705E+03 -1.676658E+04
        14   7 -1.572970E+05 -2.026356E+06 -1.424125E+05  2.480882E+03  2.336885E+04 -8.280710E+03
        14   8 -1.566438E+05 -2.021593E+06 -1.367637E+05  4.182517E+02  2.204081E+04 -6.199628E+03
        14   9 -1.332152E+05 -2.011100E+06 -1.267145E+05 -7.108323E+03  6.974388E+03 -4.154005E+03
        14  10  1.549640E+05 -7.653840E+05  1.558114E+05 -4.941700E+03 -5.535291E-09  8.971742E-09
        14  11  1.516082E+05 -7.772399E+05  1.582849E+05  2.639986E+03  1.315328E-09 -2.375776E-09
        14  12  1.737512E+05 -7.806268E+05  1.761389E+05  4.758270E+03 -1.519372E-08 -1.082651E-08
        14  13 -1.152574E+03 -1.396053E+06  6.712664E+03 -1.228517E+03 -1.286234E-09  9.821921E-10
        14  14 -2.504137E+03 -1.399595E+06  1.077361E+04  1.528516E+03 -5.831756E-10  8.013270E-11
        14  15  2.028200E+04 -1.396036E+06  2.472614E+04 -1.178074E+03 -1.988302E-08  8.283253E-10
        14  16 -1.572977E+05 -2.026356E+06 -1.424136E+05  2.481038E+03 -3.381568E-09 -7.943752E-09
        14  17 -1.566444E+05 -2.021594E+06 -1.367646E+05  4.183619E+02 -1.203275E-08 -2.264176E-09
        14  18 -1.332152E+05 -2.011100E+06 -1.267146E+05 -7.108299E+03 -1.724160E-08  9.746739E-09
        14  19  1.549646E+05 -7.653838E+05  1.558124E+05 -4.941736E+03 -2.335382E+04  1.912449E+03
        14  20  1.516088E+05 -7.772395E+05  1.582863E+05  2.639708E+03 -2.205843E+04  1.563441E+04
        14  21  1.737515E+05 -7.806258E+05  1.761407E+05  4.758103E+03 -7.036764E+03  2.939166E+04
        14  22 -1.151981E+03 -1.396053E+06  6.713738E+03 -1.228613E+03 -2.336135E+04  5.098192E+03
        14  23 -2.503583E+03 -1.399595E+06  1.077475E+04  1.528323E+03 -2.204963E+04  1.091466E+04
        14  24  2.028213E+04 -1.396036E+06  2.472676E+04 -1.178169E+03 -7.005705E+03  1.676658E+04
        14  25 -1.572970E+05 -2.026356E+06 -1.424125E+05  2.480882E+03 -2.336885E+04  8.280710E+03
        14  26 -1.566438E+05 -2.021593E+06 -1.367637E+05  4.182517E+02 -2.204081E+04  6.199628E+03
        14  27 -1.332152E+05 -2.011100E+06 -1.267145E+05 -7.108323E+03 -6.974388E+03  4.154005E+03
        15   1  8.865509E+04  9.610288E+05  4.980216E+04 -3.989646E+00  3.112016E+04  2.192788E-01
        15   2  8.866019E+04  9.610520E+05  4.981027E+04 -2.317844E+01  3.112136E+04 -5.605164E+00
        15   3  8.866646E+04  9.610845E+05  4.982512E+04 -3.932069E+01  3.112378E+04 -1.142928E+01
        15   4 -3.139095E+01  5.670296E+05  1.557146E+01  6.773053E-01  3.112224E+04 -1.214776E+00
        15   5 -3.293602E+01  5.670247E+05  1.854603E+01 -8.456940E-01  3.112345E+04 -9.948569E+00
        15   6 -3.280065E+01  5.670296E+05  3.028522E+01  6.785825E-01  3.112586E+04 -1.868207E+01
        15   7 -8.872418E+04  1.731896E+05 -4.977150E+04  5.341710E+00  3.112433E+04 -2.647966E+00
        15   8 -8.873237E+04  1.731566E+05 -4.977367E+04  2.147468E+01  3.112553E+04 -1.428936E+01
        15   9 -8.873838E+04  1.731340E+05 -4.976504E+04  4.065564E+01  3.112795E+04 -2.593050E+01
        15  10  8.865405E+04  9.610286E+05  4.980034E+04 -3.989652E+00  1.282501E-08  1.614283E-07
        15  11  8.865915E+04  9.610517E+05  4.980845E+04 -2.317830E+01  5.065610E-09  3.199687E-08
        15  12  8.866542E+04  9.610842E+05  4.982330E+04 -3.932040E+01  2.800701E-09 -1.008440E-07
        15  13 -3.243133E+01  5.670294E+05  1.375079E+01  6.773353E-01  2.566357E-08  2.709910E-11
        15  14 -3.397648E+01  5.670244E+05  1.672523E+01 -8.454448E-01  6.678450E-09 -1.477373E-10
        15  15 -3.384127E+01  5.670293E+05  2.846413E+01  6.790508E-01 -9.591772E-09  1.123150E-10
        15  16 -8.872523E+04  1.731894E+05 -4.977333E+04  5.341776E+00  1.171683E-08 -1.613620E-07
        15  17 -8.873341E+04  1.731563E+05 -4.977549E+04  2.147503E+01  8.724655E-09 -3.205595E-08
        15  18 -8.873942E+04  1.731337E+05 -4.976687E+04  4.065629E+01  9.588269E-10  1.008679E-07
        15  19  8.865509E+04  9.610288E+05  4.980216E+04 -3.989646E+00 -3.112016E+04 -2.192785E-01
        15  20  8.866019E+04  9.610520E+05  4.981027E+04 -2.317844E+01 -3.112136E+04  5.605164E+00
        15  21  8.866646E+04  9.610845E+05  4.982512E+04 -3.932069E+01 -3.112378E+04  1.142928E+01
        15  22 -3.139095E+01  5.670296E+05  1.557146E+01  6.773047E-01 -3.112224E+04  1.214776E+00
        15  23 -3.293602E+01  5.670247E+05  1.854603E+01 -8.456941E-01 -3.112345E+04  9.948569E+00
        15  24 -3.280065E+01  5.670296E+05  3.028522E+01  6.785828E-01 -3.112586E+04  1.868207E+01
        15  25 -8.872418E+04  1.731896E+05 -4.977150E+04  5.341709E+00 -3.112433E+04  2.647966E+00
        15  26 -8.873237E+04  1.731566E+05 -4.977367E+04  2.147468E+01 -3.112553E+04  1.428936E+01
        15  27 -8.873838E+04  1.731340E+05 -4.976504E+04  4.065564E+01 -3.112795E+04  2.593050E+01
        16   1  8.867364E+04  9.611195E+05  4.983902E+04 -4.706526E+01  3.112596E+04 -1.463991E+01
        16   2  8.868957E+04  9.611959E+05  4.988072E+04 -7.441820E+01  3.112961E+04 -4.907884E+01
        16   3  8.870823E+04  9.612858E+05  4.994817E+04 -8.857610E+01  3.113228E+04 -8.351700E+01
        16   4 -3.350453E+01  5.670303E+05  3.902951E+01  2.933928E+00  3.112804E+04 -2.458726E+01
        16   5 -3.717020E+01  5.670237E+05  6.570575E+01 -3.663559E+00  3.113170E+04 -5.662872E+01
        16   6 -3.851899E+01  5.670303E+05  1.164727E+02  2.934475E+00  3.113437E+04 -8.866939E+01
        16   7 -8.874696E+04  1.731004E+05 -4.976145E+04  5.290536E+01  3.113013E+04 -3.452862E+01
        16   8 -8.877023E+04  1.730109E+05 -4.974981E+04  6.705143E+01  3.113379E+04 -6.417403E+01
        16   9 -8.879160E+04  1.729341E+05 -4.971572E+04  9.439349E+01  3.113645E+04 -9.381866E+01
        16  10  8.867260E+04  9.611192E+05  4.983720E+04 -4.706489E+01  4.026564E-10  1.107476E-07
        16  11  8.868853E+04  9.611956E+05  4.987890E+04 -7.441697E+01  6.288859E-10  1.233350E-08
        16  12  8.870719E+04  9.612856E+05  4.994635E+04 -8.857401E+01 -5.094329E-09 -8.337679E-08
        16  13 -3.454530E+01  5.670301E+05  3.720817E+01  2.934544E+00 -1.580211E-08  1.373741E-10
        16  14 -3.821121E+01  5.670235E+05  6.388398E+01 -3.662140E+00 -1.658169E-08 -4.668801E-10
        16  15 -3.956018E+01  5.670300E+05  1.146506E+02  2.936698E+00 -3.509658E-09  2.911654E-10
        16  16 -8.874800E+04  1.731002E+05 -4.976327E+04  5.290623E+01 -6.650609E-10 -1.109186E-07
        16  17 -8.877127E+04  1.730107E+05 -4.975163E+04  6.705304E+01 -2.198682E-09 -1.256809E-08
        16  18 -8.879264E+04  1.729339E+05 -4.971754E+04  9.439585E+01 -4.670703E-09  8.343082E-08
        16  19  8.867364E+04  9.611195E+05  4.983902E+04 -4.706526E+01 -3.112596E+04  1.463991E+01
        16  20  8.868957E+04  9.611959E+05  4.988072E+04 -7.441820E+01 -3.112961E+04  4.907884E+01
        16  21  8.870823E+04  9.612858E+05  4.994817E+04 -8.857610E+01 -3.113228E+04  8.351700E+01
        16  22 -3.350453E+01  5.670303E+05  3.902951E+01  2.933928E+00 -3.112804E+04  2.458726E+01
        16  23 -3.717020E+01  5.670237E+05  6.570575E+01 -3.663559E+00 -3.113170E+04  5.662872E+01
        16  24 -3.851899E+01  5.670303E+05  1.164727E+02  2.934475E+00 -3.113437E+04  8.866939E+01
        16  25 -8.874696E+04  1.731004E+05 -4.976145E+04  5.290536E+01 -3.113013E+04  3.452862E+01
        16  26 -8.877023E+04  1.730109E+05 -4.974981E+04  6.705143E+01 -3.113379E+04  6.417403E+01
        16  27 -8.879160E+04  1.729341E+05 -4.971572E+04  9.439349E+01 -3.113645E+04  9.381866E+01
        17   1  8.872314E+04  9.613593E+05  4.999959E+04 -1.002356E+02  3.113441E+04 -1.061727E+02
        17   2  8.875390E+04  9.614797E+05  5.015640E+04 -1.365802E+02  3.112840E+04 -2.804180E+02
        17   3  8.880663E+04  9.616366E+05  5.043468E+04 -1.508202E+02  3.110480E+04 -4.546670E+02
        17   4 -4.041590E+01  5.670338E+05  1.537552E+02  4.913277E+00  3.113650E+04 -1.126876E+02
        17   5 -4.529757E+01  5.670192E+05  2.673596E+02 -6.137931E+00  3.113048E+04 -2.445919E+02
        17   6 -3.553337E+01  5.670338E+05  4.731099E+02  4.915615E+00  3.110686E+04 -3.765004E+02
        17   7 -8.881030E+04  1.728678E+05 -4.969258E+04  1.100026E+02  3.113859E+04 -1.191986E+02
        17   8 -8.885083E+04  1.727183E+05 -4.962218E+04  1.242299E+02  3.113255E+04 -2.087873E+02
        17   9 -8.888405E+04  1.725906E+05 -4.948898E+04  1.605620E+02  3.110891E+04 -2.983809E+02
        17  10  8.872210E+04  9.613591E+05  4.999777E+04 -1.002329E+02 -3.425706E-09  3.568372E-09
        17  11  8.875286E+04  9.614794E+05  5.015458E+04 -1.365732E+02 -2.297371E-09 -9.234585E-10
        17  12  8.880559E+04  9.616363E+05  5.043286E+04 -1.508088E+02 -2.859509E-09 -3.657839E-09
        17  13 -4.145723E+01  5.670336E+05  1.519329E+02  4.916103E+00 -6.701041E-09  3.041372E-10
        17  14 -4.633852E+01  5.670189E+05  2.655378E+02 -6.131800E+00 -4.435002E-09 -7.375894E-10
        17  15 -3.657276E+01  5.670335E+05  4.712908E+02  4.925046E+00 -3.041219E-10  5.269375E-10
        17  16 -8.881134E+04  1.728676E+05 -4.969440E+04  1.100056E+02 -1.268093E-09 -4.020504E-09
        17  17 -8.885187E+04  1.727180E+05 -4.962401E+04  1.242351E+02 -2.408609E-09  7.198117E-10
        17  18 -8.888508E+04  1.725903E+05 -4.949080E+04  1.605695E+02 -2.258322E-09  3.847529E-09
        17  19  8.872314E+04  9.613593E+05  4.999959E+04 -1.002356E+02 -3.113441E+04  1.061727E+02
        17  20  8.875390E+04  9.614797E+05  5.015640E+04 -1.365802E+02 -3.112840E+04  2.804180E+02
        17  21  8.880663E+04  9.616366E+05  5.043468E+04 -1.508202E+02 -3.110480E+04  4.546670E+02
        17  22 -4.041590E+01  5.670338E+05  1.537552E+02  4.913277E+00 -3.113650E+04  1.126876E+02
        17  23 -4.529757E+01  5.670192E+05  2.673596E+02 -6.137931E+00 -3.113048E+04  2.445919E+02
        17  24 -3.553337E+01  5.670338E+05  4.731099E+02  4.915615E+00 -3.110686E+04  3.765004E+02
        17  25 -8.881030E+04  1.728678E+05 -4.969258E+04  1.100026E+02 -3.113859E+04  1.191986E+02
        17  26 -8.885083E+04  1.727183E+05 -4.962218E+04  1.242299E+02 -3.113255E+04  2.087873E+02
        17  27 -8.888405E+04  1.725906E+05 -4.948898E+04  1.605620E+02 -3.110891E+04  2.983809E+02
        18   1 -8.573298E+06 -2.620544E+06 -1.663786E+06 -3.076960E+06 -1.011756E+06 -3.832201E+05
        18   2 -8.351600E+06 -1.154863E+06 -7.294774E+05 -3.334530E+06 -6.499005E+05 -2.393865E+05
        18   3 -8.766807E+06 -1.169580E+06 -4.806976E+05 -3.178242E+06 -2.864611E+05 -9.979416E+04
        18   4 -8.565877E+06 -2.316474E+06 -1.601558E+06 -2.771465E+06 -1.008813E+06 -3.827147E+05
        18   5 -8.160780E+06 -9.985721E+05 -6.616072E+05 -3.197907E+06 -6.488034E+05 -2.390774E+05
        18   6 -8.392138E+06 -1.160624E+06 -4.056888E+05 -3.210591E+06 -2.870861E+05 -9.995546E+04
        18   7 -8.558241E+06 -2.011928E+06 -1.539277E+06 -2.465909E+06 -1.005871E+06 -3.822058E+05
        18   8 -7.969906E+06 -8.422205E+05 -5.937383E+05 -3.061233E+06 -6.477058E+05 -2.387679E+05
        18   9 -8.017294E+06 -1.151636E+06 -3.306752E+05 -3.242976E+06 -2.877115E+05 -1.001166E+05
        18  10 -8.574451E+06 -2.620984E+06 -1.666021E+06 -3.077276E+06 -1.660612E-09 -8.194365E-10
        18  11 -8.352074E+06 -1.155041E+06 -7.303932E+05 -3.334656E+06 -4.261850E-09 -1.210666E-09
        18  12 -8.766899E+06 -1.169613E+06 -4.808734E+05 -3.178265E+06 -2.251633E-09  1.545706E-09
        18  13 -8.567023E+06 -2.316911E+06 -1.603780E+06 -2.771779E+06  6.247626E-09 -1.007684E-10
        18  14 -8.161253E+06 -9.987494E+05 -6.625196E+05 -3.198033E+06  7.405235E-09 -1.476725E-10
        18  15 -8.392231E+06 -1.160658E+06 -4.058652E+05 -3.210615E+06  4.493063E-09  9.962324E-10
        18  16 -8.559381E+06 -2.012364E+06 -1.541486E+06 -2.466222E+06  6.366213E-10  4.960605E-10
        18  17 -7.970378E+06 -8.423972E+05 -5.946473E+05 -3.061359E+06  8.385896E-09  4.361423E-10
        18  18 -8.017387E+06 -1.151669E+06 -3.308523E+05 -3.242999E+06  4.570145E-09  1.592383E-10
        18  19 -8.573298E+06 -2.620544E+06 -1.663786E+06 -3.076960E+06  1.011756E+06  3.832201E+05
        18  20 -8.351600E+06 -1.154863E+06 -7.294774E+05 -3.334530E+06  6.499005E+05  2.393865E+05
        18  21 -8.766807E+06 -1.169580E+06 -4.806976E+05 -3.178242E+06  2.864611E+05  9.979416E+04
        18  22 -8.565877E+06 -2.316474E+06 -1.601558E+06 -2.771465E+06  1.008813E+06  3.827147E+05
        18  23 -8.160780E+06 -9.985721E+05 -6.616072E+05 -3.197907E+06  6.488034E+05  2.390774E+05
        18  24 -8.392138E+06 -1.160624E+06 -4.056888E+05 -3.210591E+06  2.870861E+05  9.995546E+04
        18  25 -8.558241E+06 -2.011928E+06 -1.539277E+06 -2.465909E+06  1.005871E+06  3.822058E+05
        18  26 -7.969906E+06 -8.422205E+05 -5.937383E+05 -3.061233E+06  6.477058E+05  2.387679E+05
        18  27 -8.017294E+06 -1.151636E+06 -3.306752E+05 -3.242976E+06  2.877115E+05  1.001166E+05
        19   1 -8.624876E+06 -1.479315E+06 -4.155405E+05 -3.226406E+06 -2.294278E+05 -7.807152E+04
        19   2 -8.599256E+06 -1.307727E+06 -2.421827E+05 -3.261455E+06 -1.483929E+05 -4.603549E+04
        19   3 -8.659784E+06 -1.311150E+06 -1.798315E+05 -3.243347E+06 -6.704985E+04 -1.479533E+04
        19   4 -8.338939E+06 -1.336148E+06 -3.313312E+05 -3.113594E+06 -2.289501E+05 -7.790522E+04
        19   5 -8.285372E+06 -1.179203E+06 -1.555735E+05 -3.166461E+06 -1.482012E+05 -4.596537E+04
        19   6 -8.317863E+06 -1.197157E+06 -9.055548E+04 -3.166180E+06 -6.714000E+04 -1.482792E+04
        19   7 -8.052919E+06 -1.192956E+06 -2.471302E+05 -3.000729E+06 -2.284721E+05 -7.773875E+04
        19   8 -7.971391E+06 -1.050668E+06 -6.897353E+04 -3.071421E+06 -1.480094E+05 -4.589519E+04
        19   9 -7.975826E+06 -1.083163E+06 -1.288835E+03 -3.088976E+06 -6.723020E+04 -1.486052E+04
        19  10 -8.624935E+06 -1.479336E+06 -4.156526E+05 -3.226420E+06 -5.832311E-09  3.560786E-09
        19  11 -8.599280E+06 -1.307735E+06 -2.422288E+05 -3.261461E+06 -3.103308E-09 -9.806687E-10
        19  12 -8.659789E+06 -1.311152E+06 -1.798405E+05 -3.243348E+06  3.747103E-09 -1.669601E-09
        19  13 -8.338997E+06 -1.336168E+06 -3.314428E+05 -3.113609E+06 -2.515972E-09  2.105286E-10
        19  14 -8.285397E+06 -1.179211E+06 -1.556195E+05 -3.166466E+06 -1.291022E-10 -1.558705E-09
        19  15 -8.317868E+06 -1.197159E+06 -9.056450E+04 -3.166181E+06 -7.222195E-09  6.910026E-10
        19  16 -8.052977E+06 -1.192977E+06 -2.472412E+05 -3.000743E+06 -1.857161E-10 -1.380123E-09
        19  17 -7.971416E+06 -1.050676E+06 -6.901933E+04 -3.071427E+06 -8.660404E-09 -1.141373E-10
        19  18 -7.975831E+06 -1.083164E+06 -1.297873E+03 -3.088977E+06 -5.483306E-09  6.260663E-10
        19  19 -8.624876E+06 -1.479315E+06 -4.155405E+05 -3.226406E+06  2.294278E+05  7.807152E+04
        19  20 -8.599256E+06 -1.307727E+06 -2.421827E+05 -3.261455E+06  1.483929E+05  4.603549E+04
        19  21 -8.659784E+06 -1.311150E+06 -1.798315E+05 -3.243347E+06  6.704985E+04  1.479533E+04
        19  22 -8.338939E+06 -1.336148E+06 -3.313312E+05 -3.113594E+06  2.289501E+05  7.790522E+04
        19  23 -8.285372E+06 -1.179203E+06 -1.555735E+05 -3.166461E+06  1.482012E+05  4.596537E+04
        19  24 -8.317863E+06 -1.197157E+06 -9.055548E+04 -3.166180E+06  6.714000E+04  1.482792E+04
        19  25 -8.052919E+06 -1.192956E+06 -2.471302E+05 -3.000729E+06  2.284721E+05  7.773875E+04
        19  26 -7.971391E+06 -1.050668E+06 -6.897353E+04 -3.071421E+06  1.480094E+05  4.589519E+04
        19  27 -7.975826E+06 -1.083163E+06 -1.288835E+03 -3.088976E+06  6.723020E+04  1.486052E+04
        20   1 -8.636399E+06 -1.349317E+06 -1.606951E+05 -3.250897E+06 -5.413506E+04 -9.915290E+03
        20   2 -8.626265E+06 -1.321729E+06 -1.232986E+05 -3.248537E+06 -3.554986E+04 -2.980976E+03
        20   3 -8.620729E+06 -1.322038E+06 -1.057902E+05 -3.247725E+06 -1.680238E+04  3.527321E+03
        20   4 -8.307996E+06 -1.220366E+06 -7.111834E+04 -3.157096E+06 -5.411823E+04 -9.909664E+03
        20   5 -8.304428E+06 -1.198150E+06 -3.609507E+04 -3.159429E+06 -3.569376E+04 -3.036141E+03
        20   6 -8.305420E+06 -1.203791E+06 -2.082272E+04 -3.163310E+06 -1.710730E+04  3.411171E+03
        20   7 -7.979487E+06 -1.091406E+06  1.844856E+04 -3.063250E+06 -5.410138E+04 -9.904032E+03
        20   8 -7.982490E+06 -1.074564E+06  5.109902E+04 -3.070278E+06 -3.583774E+04 -3.091335E+03
        20   9 -7.990014E+06 -1.085539E+06  6.413569E+04 -3.078856E+06 -1.741240E+04  3.294959E+03
        20  10 -8.636402E+06 -1.349318E+06 -1.607009E+05 -3.250897E+06 -1.384374E-09 -9.874749E-10
        20  11 -8.626266E+06 -1.321729E+06 -1.233011E+05 -3.248537E+06  9.688774E-10 -3.536213E-10
        20  12 -8.620729E+06 -1.322038E+06 -1.057908E+05 -3.247725E+06  4.511980E-09 -2.943465E-10
        20  13 -8.307999E+06 -1.220367E+06 -7.112412E+04 -3.157097E+06 -2.506915E-09  2.442495E-10
        20  14 -8.304429E+06 -1.198150E+06 -3.609752E+04 -3.159429E+06 -2.810117E-09  1.533578E-10
        20  15 -8.305420E+06 -1.203791E+06 -2.082330E+04 -3.163310E+06  1.382701E-10 -3.243029E-10
        20  16 -7.979490E+06 -1.091407E+06  1.844279E+04 -3.063250E+06 -5.015520E-09  3.547476E-10
        20  17 -7.982491E+06 -1.074565E+06  5.109656E+04 -3.070278E+06 -4.646822E-09  9.265058E-11
        20  18 -7.990014E+06 -1.085539E+06  6.413509E+04 -3.078856E+06 -2.368388E-09  9.951667E-10
        20  19 -8.636399E+06 -1.349317E+06 -1.606951E+05 -3.250897E+06  5.413506E+04  9.915290E+03
        20  20 -8.626265E+06 -1.321729E+06 -1.232986E+05 -3.248537E+06  3.554986E+04  2.980976E+03
        20  21 -8.620729E+06 -1.322038E+06 -1.057902E+05 -3.247725E+06  1.680238E+04 -3.527321E+03
        20  22 -8.307996E+06 -1.220366E+06 -7.111834E+04 -3.157096E+06  5.411823E+04  9.909664E+03
        20  23 -8.304428E+06 -1.198150E+06 -3.609507E+04 -3.159429E+06  3.569376E+04  3.036141E+03
        20  24 -8.305420E+06 -1.203791E+06 -2.082272E+04 -3.163310E+06  1.710730E+04 -3.411171E+03
        20  25 -7.979487E+06 -1.091406E+06  1.844856E+04 -3.063250E+06  5.410138E+04  9.904032E+03
        20  26 -7.982490E+06 -1.074564E+06  5.109902E+04 -3.070278E+06  3.583774E+04  3.091335E+03
        20  27 -7.990014E+06 -1.085539E+06  6.413569E+04 -3.078856E+06  1.741240E+04 -3.294959E+03
        21   1 -8.584211E+06 -1.316679E+06 -9.270219E+04 -3.242476E+06 -1.362142E+04  4.239703E+03
        21   2 -8.566948E+06 -1.295837E+06 -7.923728E+04 -3.226144E+06 -8.308575E+03  5.251696E+03
        21   3 -8.533994E+06 -1.295193E+06 -7.026894E+04 -3.228744E+06 -2.878645E+03  5.954001E+03
        21   4 -8.301865E+06 -1.208646E+06 -1.632129E+04 -3.164675E+06 -1.391432E+04  4.128161E+03
        21   5 -8.309574E+06 -1.197661E+06 -9.630089E+03 -3.155540E+06 -8.723049E+03  5.094152E+03
        21   6 -8.301568E+06 -1.206848E+06 -7.336385E+03 -3.165336E+06 -3.414975E+03  5.750422E+03
        21   7 -8.019440E+06 -1.100607E+06  6.005273E+04 -3.086842E+06 -1.420736E+04  4.016562E+03
        21   8 -8.052135E+06 -1.099481E+06  5.997104E+04 -3.084909E+06 -9.137714E+03  4.936535E+03
        21   9 -8.069091E+06 -1.118501E+06  5.559087E+04 -3.101907E+06 -3.951524E+03  5.546760E+03
        21  10 -8.584212E+06 -1.316679E+06 -9.270258E+04 -3.242476E+06  1.049167E-09 -1.479535E-09
        21  11 -8.566949E+06 -1.295837E+06 -7.923746E+04 -3.226144E+06 -7.313533E-11  5.647911E-10
        21  12 -8.533994E+06 -1.295193E+06 -7.026902E+04 -3.228744E+06 -2.765063E-09  2.241244E-09
        21  13 -8.301865E+06 -1.208646E+06 -1.632169E+04 -3.164675E+06  3.897006E-09  9.958760E-11
        21  14 -8.309574E+06 -1.197661E+06 -9.630282E+03 -3.155540E+06 -3.106654E-09 -1.344331E-09
        21  15 -8.301568E+06 -1.206848E+06 -7.336469E+03 -3.165336E+06  1.996318E-09 -3.116583E-09
        21  16 -8.019440E+06 -1.100607E+06  6.005232E+04 -3.086841E+06  8.187306E-10  1.894486E-09
        21  17 -8.052135E+06 -1.099481E+06  5.997084E+04 -3.084909E+06  1.979425E-09  7.925855E-10
        21  18 -8.069091E+06 -1.118501E+06  5.559078E+04 -3.101907E+06  6.847938E-10  1.424399E-09
        21  19 -8.584211E+06 -1.316679E+06 -9.270219E+04 -3.242476E+06  1.362142E+04 -4.239703E+03
        21  20 -8.566948E+06 -1.295837E+06 -7.923728E+04 -3.226144E+06  8.308575E+03 -5.251696E+03
        21  21 -8.533994E+06 -1.295193E+06 -7.026894E+04 -3.228744E+06  2.878645E+03 -5.954001E+03
        21  22 -8.301865E+06 -1.208646E+06 -1.632129E+04 -3.164675E+06  1.391432E+04 -4.128161E+03
        21  23 -8.309574E+06 -1.197661E+06 -9.630089E+03 -3.155540E+06  8.723049E+03 -5.094152E+03
        21  24 -8.301568E+06 -1.206848E+06 -7.336385E+03 -3.165336E+06  3.414975E+03 -5.750422E+03
        21  25 -8.019440E+06 -1.100607E+06  6.005273E+04 -3.086842E+06  1.420736E+04 -4.016562E+03
        21  26 -8.052135E+06 -1.099481E+06  5.997104E+04 -3.084909E+06  9.137714E+03 -4.936535E+03
        21  27 -8.069091E+06 -1.118501E+06  5.559087E+04 -3.101907E+06  3.951524E+03 -5.546760E+03
        22   1 -8.474736E+06 -1.275516E+06 -5.438485E+04 -3.215442E+06 -1.384087E+03  5.619161E+03
        22   2 -8.450213E+06 -1.248266E+06 -4.599432E+04 -3.190986E+06  3.539670E+03  5.859279E+03
        22   3 -8.402075E+06 -1.248644E+06 -4.157204E+04 -3.194416E+06  8.521699E+03  5.944674E+03
        22   4 -8.299823E+06 -1.208640E+06 -7.159444E+03 -3.167271E+06 -1.921645E+03  5.415247E+03
        22   5 -8.311748E+06 -1.195524E+06 -8.563276E+03 -3.153075E+06  2.941237E+03  5.632408E+03
        22   6 -8.300046E+06 -1.210024E+06 -1.388579E+04 -3.166765E+06  7.862108E+03  5.694756E+03
        22   7 -8.124879E+06 -1.141761E+06  4.006337E+04 -3.119088E+06 -2.459374E+03  5.211269E+03
        22   8 -8.173263E+06 -1.142781E+06  2.886625E+04 -3.115156E+06  2.342651E+03  5.405479E+03
        22   9 -8.198007E+06 -1.171402E+06  1.379974E+04 -3.139110E+06  7.202390E+03  5.444791E+03
        22  10 -8.474736E+06 -1.275516E+06 -5.438492E+04 -3.215442E+06  3.273507E-09  2.713143E-09
        22  11 -8.450213E+06 -1.248267E+06 -4.599441E+04 -3.190986E+06 -3.560747E-10  2.394390E-11
        22  12 -8.402075E+06 -1.248644E+06 -4.157225E+04 -3.194416E+06 -3.081896E-09 -7.510653E-10
        22  13 -8.299823E+06 -1.208640E+06 -7.159506E+03 -3.167271E+06  4.533141E-09 -3.672006E-09
        22  14 -8.311748E+06 -1.195524E+06 -8.563352E+03 -3.153075E+06  2.718361E-09 -2.863619E-09
        22  15 -8.300046E+06 -1.210024E+06 -1.388597E+04 -3.166765E+06  1.455395E-09 -1.628307E-09
        22  16 -8.124879E+06 -1.141761E+06  4.006330E+04 -3.119088E+06 -3.635172E-09  1.105309E-09
        22  17 -8.173263E+06 -1.142781E+06  2.886618E+04 -3.115156E+06 -5.400629E-09 -1.428619E-09
        22  18 -8.198007E+06 -1.171402E+06  1.379959E+04 -3.139110E+06 -1.558422E-09  1.736757E-09
        22  19 -8.474736E+06 -1.275516E+06 -5.438485E+04 -3.215442E+06  1.384087E+03 -5.619161E+03
        22  20 -8.450213E+06 -1.248266E+06 -4.599432E+04 -3.190986E+06 -3.539670E+03 -5.859279E+03
        22  21 -8.402075E+06 -1.248644E+06 -4.157204E+04 -3.194416E+06 -8.521699E+03 -5.944674E+03
        22  22 -8.299823E+06 -1.208640E+06 -7.159444E+03 -3.167271E+06  1.921645E+03 -5.415247E+03
        22  23 -8.311748E+06 -1.195524E+06 -8.563276E+03 -3.153075E+06 -2.941237E+03 -5.632408E+03
        22  24 -8.300046E+06 -1.210024E+06 -1.388579E+04 -3.166765E+06 -7.862108E+03 -5.694756E+03
        22  25 -8.124879E+06 -1.141761E+06  4.006337E+04 -3.119088E+06  2.459374E+03 -5.211269E+03
        22  26 -8.173263E+06 -1.142781E+06  2.886625E+04 -3.115156E+06 -2.342651E+03 -5.405479E+03
        22  27 -8.198007E+06 -1.171402E+06  1.379974E+04 -3.139110E+06 -7.202390E+03 -5.444791E+03
        23   1 -8.330356E+06 -1.221830E+06 -2.586751E+04 -3.178645E+06  1.147662E+04  5.941554E+03
        23   2 -8.302096E+06 -1.188712E+06 -2.768526E+04 -3.149580E+06  2.744265E+04  1.009460E+04
        23   3 -8.255090E+06 -1.201573E+06 -4.601823E+04 -3.147583E+06  4.338608E+04  1.430928E+04
        23   4 -8.300344E+06 -1.208677E+06 -1.756259E+04 -3.168640E+06  1.080171E+04  5.685935E+03
        23   5 -8.310779E+06 -1.192583E+06 -3.014154E+04 -3.152532E+06  2.679196E+04  9.848073E+03
        23   6 -8.302474E+06 -1.222474E+06 -5.925585E+04 -3.163492E+06  4.275861E+04  1.407132E+04
        23   7 -8.270331E+06 -1.195523E+06 -9.257808E+03 -3.158634E+06  1.012677E+04  5.430298E+03
        23   8 -8.319461E+06 -1.196455E+06 -3.259782E+04 -3.155483E+06  2.614129E+04  9.601553E+03
        23   9 -8.349857E+06 -1.243376E+06 -7.249367E+04 -3.179400E+06  4.213118E+04  1.383339E+04
        23  10 -8.330357E+06 -1.221830E+06 -2.586783E+04 -3.178645E+06  2.411919E-10 -1.792206E-09
        23  11 -8.302097E+06 -1.188712E+06 -2.768689E+04 -3.149580E+06  3.785514E-10 -9.016559E-10
        23  12 -8.255092E+06 -1.201574E+06 -4.602221E+04 -3.147584E+06 -3.255454E-09 -1.045057E-09
        23  13 -8.300344E+06 -1.208677E+06 -1.756287E+04 -3.168640E+06  1.294206E-11  1.575976E-10
        23  14 -8.310780E+06 -1.192584E+06 -3.014309E+04 -3.152532E+06 -1.242659E-09  1.400053E-09
        23  15 -8.302476E+06 -1.222475E+06 -5.925972E+04 -3.163493E+06  1.074979E-09  4.388303E-09
        23  16 -8.270331E+06 -1.195523E+06 -9.258060E+03 -3.158634E+06 -2.067403E-09 -4.439494E-10
        23  17 -8.319462E+06 -1.196455E+06 -3.259930E+04 -3.155483E+06  3.551238E-09 -2.627299E-09
        23  18 -8.349859E+06 -1.243376E+06 -7.249742E+04 -3.179400E+06  2.098193E-09  3.517457E-09
        23  19 -8.330356E+06 -1.221830E+06 -2.586751E+04 -3.178645E+06 -1.147662E+04 -5.941554E+03
        23  20 -8.302096E+06 -1.188712E+06 -2.768526E+04 -3.149580E+06 -2.744265E+04 -1.009460E+04
        23  21 -8.255090E+06 -1.201573E+06 -4.601823E+04 -3.147583E+06 -4.338608E+04 -1.430928E+04
        23  22 -8.300344E+06 -1.208677E+06 -1.756259E+04 -3.168640E+06 -1.080171E+04 -5.685935E+03
        23  23 -8.310779E+06 -1.192583E+06 -3.014154E+04 -3.152532E+06 -2.679196E+04 -9.848073E+03
        23  24 -8.302474E+06 -1.222474E+06 -5.925585E+04 -3.163492E+06 -4.275861E+04 -1.407132E+04
        23  25 -8.270331E+06 -1.195523E+06 -9.257808E+03 -3.158634E+06 -1.012677E+04 -5.430298E+03
        23  26 -8.319461E+06 -1.196455E+06 -3.259782E+04 -3.155483E+06 -2.614129E+04 -9.601553E+03
        23  27 -8.349857E+06 -1.243376E+06 -7.249367E+04 -3.179400E+06 -4.213118E+04 -1.383339E+04
        24   1 -8.179418E+06 -1.169163E+06 -4.292169E+04 -3.151395E+06  5.479281E+04  1.742448E+04
        24   2 -8.146767E+06 -1.110525E+06 -8.751963E+04 -3.107792E+06  1.226655E+05  4.137041E+04
        24   3 -8.155619E+06 -1.227562E+06 -2.240630E+05 -3.054036E+06  1.902378E+05  6.611720E+04
        24   4 -8.309085E+06 -1.204747E+06 -7.541235E+04 -3.172830E+06  5.400401E+04  1.712710E+04
        24   5 -8.296991E+06 -1.174802E+06 -1.294917E+05 -3.156109E+06  1.221787E+05  4.118404E+04
        24   6 -8.326483E+06 -1.320622E+06 -2.757792E+05 -3.129236E+06  1.900503E+05  6.603526E+04
        24   7 -8.438735E+06 -1.240333E+06 -1.079042E+05 -3.194261E+06  5.321539E+04  1.682975E+04
        24   8 -8.447194E+06 -1.239076E+06 -1.714659E+05 -3.204415E+06  1.216919E+05  4.099773E+04
        24   9 -8.497315E+06 -1.413670E+06 -3.274982E+05 -3.204413E+06  1.898630E+05  6.595336E+04
        24  10 -8.179421E+06 -1.169164E+06 -4.292800E+04 -3.151396E+06 -2.801424E-09 -1.223082E-09
        24  11 -8.146784E+06 -1.110531E+06 -8.755160E+04 -3.107796E+06 -4.376431E-09 -4.143808E-09
        24  12 -8.155659E+06 -1.227577E+06 -2.241404E+05 -3.054046E+06  1.605674E-09  1.866422E-09
        24  13 -8.309088E+06 -1.204748E+06 -7.541847E+04 -3.172830E+06 -2.722618E-09  8.138499E-10
        24  14 -8.297008E+06 -1.174808E+06 -1.295234E+05 -3.156113E+06 -1.962112E-09 -2.696003E-09
        24  15 -8.326523E+06 -1.320637E+06 -2.758565E+05 -3.129246E+06  6.809536E-10 -1.172040E-09
        24  16 -8.438739E+06 -1.240334E+06 -1.079102E+05 -3.194262E+06  9.605441E-10  2.426180E-09
        24  17 -8.447210E+06 -1.239082E+06 -1.714974E+05 -3.204419E+06  3.236725E-09 -1.595888E-09
        24  18 -8.497356E+06 -1.413684E+06 -3.275754E+05 -3.204423E+06  6.274352E-10  1.592091E-09
        24  19 -8.179418E+06 -1.169163E+06 -4.292169E+04 -3.151395E+06 -5.479281E+04 -1.742448E+04
        24  20 -8.146767E+06 -1.110525E+06 -8.751963E+04 -3.107792E+06 -1.226655E+05 -4.137041E+04
        24  21 -8.155619E+06 -1.227562E+06 -2.240630E+05 -3.054036E+06 -1.902378E+05 -6.611720E+04
        24  22 -8.309085E+06 -1.204747E+06 -7.541235E+04 -3.172830E+06 -5.400401E+04 -1.712710E+04
        24  23 -8.296991E+06 -1.174802E+06 -1.294917E+05 -3.156109E+06 -1.221787E+05 -4.118404E+04
        24  24 -8.326483E+06 -1.320622E+06 -2.757792E+05 -3.129236E+06 -1.900503E+05 -6.603526E+04
        24  25 -8.438735E+06 -1.240333E+06 -1.079042E+05 -3.194261E+06 -5.321539E+04 -1.682975E+04
        24  26 -8.447194E+06 -1.239076E+06 -1.714659E+05 -3.204415E+06 -1.216919E+05 -4.099773E+04
        24  27 -8.497315E+06 -1.413670E+06 -3.274982E+05 -3.204413E+06 -1.898630E+05 -6.595336E+04
        25   1 -8.044379E+06 -1.161292E+06 -2.711703E+05 -3.233389E+06  2.409752E+05  8.338906E+04
        25   2 -7.974651E+06 -8.716607E+05 -4.781782E+05 -3.051786E+06  5.403279E+05  1.957876E+05
        25   3 -8.401381E+06 -1.845041E+06 -1.252235E+06 -2.562292E+06  8.370741E+05  3.151441E+05
        25   4 -8.370808E+06 -1.174461E+06 -3.376643E+05 -3.209847E+06  2.390836E+05  8.272547E+04
        25   5 -8.193788E+06 -1.024154E+06 -5.507719E+05 -3.181898E+06  5.410521E+05  1.959867E+05
        25   6 -8.514082E+06 -2.137822E+06 -1.333210E+06 -2.845946E+06  8.404726E+05  3.160098E+05
        25   7 -8.697106E+06 -1.187608E+06 -4.041556E+05 -3.186330E+06  2.371930E+05  8.206147E+04
        25   8 -8.412865E+06 -1.176598E+06 -6.233690E+05 -3.311956E+06  5.417760E+05  1.961854E+05
        25   9 -8.626620E+06 -2.430237E+06 -1.414153E+06 -3.129498E+06  8.438707E+05  3.168717E+05
        25  10 -8.044444E+06 -1.161316E+06 -2.712943E+05 -3.233405E+06 -3.683901E-09  2.063618E-09
        25  11 -7.974979E+06 -8.717821E+05 -4.788082E+05 -3.051872E+06 -6.493187E-09 -2.306558E-10
        25  12 -8.402169E+06 -1.845340E+06 -1.253761E+06 -2.562507E+06  3.516819E-10 -5.218434E-10
        25  13 -8.370872E+06 -1.174484E+06 -3.377865E+05 -3.209863E+06 -1.852457E-09  3.121448E-09
        25  14 -8.194117E+06 -1.024276E+06 -5.514039E+05 -3.181984E+06 -8.221213E-09  2.650889E-09
        25  15 -8.514877E+06 -2.138124E+06 -1.334749E+06 -2.846162E+06 -2.111117E-09  5.296977E-10
        25  16 -8.697169E+06 -1.187631E+06 -4.042759E+05 -3.186346E+06 -9.276810E-10  3.893163E-09
        25  17 -8.413195E+06 -1.176720E+06 -6.240029E+05 -3.312042E+06 -3.167976E-09  1.737118E-09
        25  18 -8.627422E+06 -2.430541E+06 -1.415705E+06 -3.129715E+06 -3.843378E-10 -1.432188E-09
        25  19 -8.044379E+06 -1.161292E+06 -2.711703E+05 -3.233389E+06 -2.409752E+05 -8.338906E+04
        25  20 -7.974651E+06 -8.716607E+05 -4.781782E+05 -3.051786E+06 -5.403279E+05 -1.957876E+05
        25  21 -8.401381E+06 -1.845041E+06 -1.252235E+06 -2.562292E+06 -8.370741E+05 -3.151441E+05
        25  22 -8.370808E+06 -1.174461E+06 -3.376643E+05 -3.209847E+06 -2.390836E+05 -8.272547E+04
        25  23 -8.193788E+06 -1.024154E+06 -5.507719E+05 -3.181898E+06 -5.410521E+05 -1.959867E+05
        25  24 -8.514082E+06 -2.137822E+06 -1.333210E+06 -2.845946E+06 -8.404726E+05 -3.160098E+05
        25  25 -8.697106E+06 -1.187608E+06 -4.041556E+05 -3.186330E+06 -2.371930E+05 -8.206147E+04
        25  26 -8.412865E+06 -1.176598E+06 -6.233690E+05 -3.311956E+06 -5.417760E+05 -1.961854E+05
        25  27 -8.626620E+06 -2.430237E+06 -1.414153E+06 -3.129498E+06 -8.438707E+05 -3.168717E+05
        26   1  4.031256E+05  2.168220E+05  4.444522E+05 -2.631951E+05  1.145539E+03  2.683159E+05
        26   2  1.034792E+05  1.263314E+05  2.338352E+05 -1.388130E+05  6.381847E+03  1.558495E+05
        26   3  2.922246E+04  1.067107E+05  1.527920E+05 -2.735999E+04  5.986717E+03  4.336740E+04
        26   4  3.476307E+05  2.400622E+03  3.928102E+05 -5.085780E+04  1.287576E+03  2.567869E+05
        26   5  6.420616E+04 -3.228614E+04  2.010756E+05 -4.515628E+04  6.418197E+03  1.529387E+05
        26   6  4.658966E+03  2.396277E+03  1.329506E+05 -5.236252E+04  5.959697E+03  4.906388E+04
        26   7  2.923014E+05 -2.118821E+05  3.411894E+05  1.614056E+05  1.421765E+03  2.452619E+05
        26   8  2.496435E+04 -1.908611E+05  1.683193E+05  4.847600E+04  6.453674E+03  1.500287E+05
        26   9 -1.990277E+04 -1.019063E+05  1.131093E+05 -7.736073E+04  5.932216E+03  5.475942E+04
        26  10  4.031062E+05  2.167447E+05  4.443169E+05 -2.631954E+05 -1.554744E-09  5.277265E-08
        26  11  1.034726E+05  1.263053E+05  2.337895E+05 -1.388138E+05 -4.079093E-09 -1.685753E-08
        26  12  2.922192E+04  1.067087E+05  1.527884E+05 -2.736020E+04 -4.648596E-09 -8.486486E-08
        26  13  3.476130E+05  2.329834E+03  3.926863E+05 -5.085807E+04 -1.531318E-09  1.249538E-09
        26  14  6.419983E+04 -3.231126E+04  2.010316E+05 -4.515708E+04 -2.105742E-09  1.285066E-09
        26  15  4.658282E+03  2.393683E+03  1.329460E+05 -5.236275E+04 -1.486789E-09  1.219658E-09
        26  16  2.922852E+05 -2.119467E+05  3.410764E+05  1.614053E+05  3.922702E-12 -5.310270E-08
        26  17  2.495826E+04 -1.908853E+05  1.682770E+05  4.847522E+04 -4.926265E-09  1.511427E-08
        26  18 -1.990361E+04 -1.019095E+05  1.131036E+05 -7.736100E+04 -1.739889E-09  8.219006E-08
        26  19  4.031256E+05  2.168220E+05  4.444522E+05 -2.631951E+05 -1.145539E+03 -2.683159E+05
        26  20  1.034792E+05  1.263314E+05  2.338352E+05 -1.388130E+05 -6.381847E+03 -1.558495E+05
        26  21  2.922246E+04  1.067107E+05  1.527920E+05 -2.735999E+04 -5.986717E+03 -4.336740E+04
        26  22  3.476307E+05  2.400622E+03  3.928102E+05 -5.085780E+04 -1.287576E+03 -2.567869E+05
        26  23  6.420616E+04 -3.228614E+04  2.010756E+05 -4.515628E+04 -6.418197E+03 -1.529387E+05
        26  24  4.658966E+03  2.396277E+03  1.329506E+05 -5.236252E+04 -5.959697E+03 -4.906388E+04
        26  25  2.923014E+05 -2.118821E+05  3.411894E+05  1.614056E+05 -1.421765E+03 -2.452619E+05
        26  26  2.496435E+04 -1.908611E+05  1.683193E+05  4.847600E+04 -6.453674E+03 -1.500287E+05
        26  27 -1.990277E+04 -1.019063E+05  1.131093E+05 -7.736073E+04 -5.932216E+03 -5.475942E+04
        27   1  2.971288E+04  5.662366E+04  1.319830E+05 -6.220365E+04  3.823675E+03  2.450150E+04
        27   2  7.049538E+03 -6.518028E+03  1.175718E+05 -4.471607E+04  8.675186E+02 -3.327036E+04
        27   3  1.252749E+04 -5.524418E+04  1.477846E+05 -4.105909E+04 -2.129146E+03 -9.103865E+04
        27   4  1.378075E+04 -9.819837E+03  1.192860E+05 -5.233843E+04  3.802225E+03  2.940660E+04
        27   5  4.576090E+03 -1.701840E+04  1.156673E+05 -4.540204E+04  8.454358E+02 -2.830373E+04
        27   6  2.350198E+04 -9.816012E+03  1.566304E+05 -5.229519E+04 -2.149919E+03 -8.601542E+04
        27   7 -2.151260E+03 -7.625883E+04  1.065890E+05 -4.247428E+04  3.780929E+03  3.431120E+04
        27   8  2.102650E+03 -2.751862E+04  1.137628E+05 -4.608800E+04  8.233417E+02 -2.333717E+04
        27   9  3.447683E+04  3.561446E+04  1.654763E+05 -6.353213E+04 -2.170873E+03 -8.099183E+04
        27  10  2.971270E+04  5.662301E+04  1.319818E+05 -6.220373E+04 -1.946509E-09  1.934600E-08
        27  11  7.049240E+03 -6.519216E+03  1.175697E+05 -4.471605E+04  2.067114E-10 -4.321046E-09
        27  12  1.252526E+04 -5.525308E+04  1.477690E+05 -4.105925E+04  1.636318E-09 -2.780116E-08
        27  13  1.378051E+04 -9.820770E+03  1.192844E+05 -5.233852E+04  2.600203E-09  4.497770E-09
        27  14  4.575874E+03 -1.701926E+04  1.156658E+05 -4.540202E+04  2.641065E-10  1.713660E-09
        27  15  2.349999E+04 -9.823957E+03  1.566165E+05 -5.229534E+04  4.355667E-09  2.909097E-09
        27  16 -2.151591E+03 -7.626009E+04  1.065868E+05 -4.247438E+04 -1.442161E-09 -2.050402E-08
        27  17  2.102503E+03 -2.751920E+04  1.137618E+05 -4.608799E+04  4.640133E-09  4.253106E-09
        27  18  3.447506E+04  3.560742E+04  1.654640E+05 -6.353228E+04  1.618672E-09  2.962505E-08
        27  19  2.971288E+04  5.662366E+04  1.319830E+05 -6.220365E+04 -3.823675E+03 -2.450150E+04
        27  20  7.049538E+03 -6.518028E+03  1.175718E+05 -4.471607E+04 -8.675186E+02  3.327036E+04
        27  21  1.252749E+04 -5.524418E+04  1.477846E+05 -4.105909E+04  2.129146E+03  9.103865E+04
        27  22  1.378075E+04 -9.819837E+03  1.192860E+05 -5.233843E+04 -3.802225E+03 -2.940660E+04
        27  23  4.576090E+03 -1.701840E+04  1.156673E+05 -4.540204E+04 -8.454358E+02  2.830373E+04
        27  24  2.350198E+04 -9.816012E+03  1.566304E+05 -5.229519E+04  2.149919E+03  8.601542E+04
        27  25 -2.151260E+03 -7.625883E+04  1.065890E+05 -4.247428E+04 -3.780929E+03 -3.431120E+04
        27  26  2.102650E+03 -2.751862E+04  1.137628E+05 -4.608800E+04 -8.233417E+02  2.333717E+04
        27  27  3.447683E+04  3.561446E+04  1.654763E+05 -6.353213E+04  2.170873E+03  8.099183E+04
        28   1 -1.215704E+04 -7.088845E+04  1.750925E+05 -9.653600E+04 -4.255157E+03 -1.181137E+05
        28   2  7.283291E+04 -1.820308E+05  2.934352E+05  1.096808E+05 -4.826998E+03 -2.769149E+05
        28   3  5.305522E+05 -1.793390E+05  6.084330E+05  3.034200E+05 -4.204858E+02 -4.356755E+05
        28   4  7.253611E+03  1.256018E+04  1.910646E+05 -5.240390E+04 -4.289069E+03 -1.123855E+05
        28   5  1.075688E+05 -4.496363E+04  3.220563E+05 -4.489554E+04 -4.748835E+03 -2.790189E+05
        28   6  5.817746E+05  1.257836E+04  6.550909E+05 -4.987812E+04 -1.290916E+02 -4.456271E+05
        28   7  2.667124E+04  9.601982E+04  2.070375E+05 -8.265737E+03 -4.322164E+03 -1.066565E+05
        28   8  1.423931E+05  9.217248E+04  3.506891E+05 -1.995067E+05 -4.669638E+03 -2.811233E+05
        28   9  6.334629E+05  2.047969E+05  7.018133E+05 -4.032868E+05  1.735589E+02 -4.555818E+05
        28  10 -1.216081E+04 -7.090343E+04  1.750663E+05 -9.653641E+04  1.028633E-09  1.835144E-08
        28  11  7.281230E+04 -1.821132E+05  2.932910E+05  1.096797E+05  2.351773E-09  7.883769E-09
        28  12  5.305013E+05 -1.795427E+05  6.080762E+05  3.034198E+05  3.710693E-09 -1.336408E-09
        28  13  7.250202E+03  1.254662E+04  1.910408E+05 -5.240429E+04  2.135322E-10  4.374767E-09
        28  14  1.075479E+05 -4.504722E+04  3.219099E+05 -4.489660E+04  4.826355E-09  3.836439E-09
        28  15  5.817213E+05  1.236522E+04  6.547177E+05 -4.987817E+04 -1.199897E-09  2.572908E-09
        28  16  2.666816E+04  9.600760E+04  2.070161E+05 -8.266108E+03  2.211748E-09 -1.840964E-08
        28  17  1.423719E+05  9.208765E+04  3.505406E+05 -1.995078E+05 -1.422624E-09 -1.012577E-08
        28  18  6.334072E+05  2.045742E+05  7.014234E+05 -4.032868E+05  2.282744E-09  4.136103E-09
        28  19 -1.215704E+04 -7.088845E+04  1.750925E+05 -9.653600E+04  4.255157E+03  1.181137E+05
        28  20  7.283291E+04 -1.820308E+05  2.934352E+05  1.096808E+05  4.826998E+03  2.769149E+05
        28  21  5.305522E+05 -1.793390E+05  6.084330E+05  3.034200E+05  4.204858E+02  4.356755E+05
        28  22  7.253611E+03  1.256018E+04  1.910646E+05 -5.240390E+04  4.289069E+03  1.123855E+05
        28  23  1.075688E+05 -4.496363E+04  3.220563E+05 -4.489554E+04  4.748835E+03  2.790189E+05
        28  24  5.817746E+05  1.257836E+04  6.550909E+05 -4.987812E+04  1.290916E+02  4.456271E+05
        28  25  2.667124E+04  9.601982E+04  2.070375E+05 -8.265737E+03  4.322164E+03  1.066565E+05
        28  26  1.423931E+05  9.217248E+04  3.506891E+05 -1.995067E+05  4.669638E+03  2.811233E+05
        28  27  6.334629E+05  2.047969E+05  7.018133E+05 -4.032868E+05 -1.735589E+02  4.555818E+05
        29   1 -6.838106E+06 -2.145541E+06 -1.329769E+06 -2.329390E+06 -4.684033E+05 -1.515945E+05
        29   2 -6.676750E+06 -1.436995E+06 -8.880942E+05 -2.365304E+06 -3.102884E+05 -3.954108E+04
        29   3 -6.706686E+06 -1.435671E+06 -7.522374E+05 -2.305940E+06 -1.327170E+05  2.120883E+04
        29   4 -4.583391E+06 -1.157720E+06 -6.838477E+05 -1.581711E+06 -4.410133E+05 -1.413359E+05
        29   5 -4.454152E+06 -5.597581E+05 -2.840250E+05 -1.722473E+06 -3.029048E+05 -3.679817E+04
        29   6 -4.511311E+06 -6.636112E+05 -1.731893E+05 -1.768199E+06 -1.453894E+05  1.645325E+04
        29   7 -2.323711E+06 -1.691156E+05 -3.842538E+04 -8.313922E+05 -4.135101E+05 -1.310198E+05
        29   8 -2.226745E+06  3.178904E+05  3.195939E+05 -1.077501E+06 -2.954903E+05 -3.404237E+04
        29   9 -2.311257E+06  1.085769E+05  4.054494E+05 -1.228793E+06 -1.581109E+05  1.168225E+04
        29  10 -6.838350E+06 -2.145626E+06 -1.330230E+06 -2.329448E+06  1.175413E-09 -4.603750E-10
        29  11 -6.676854E+06 -1.437023E+06 -8.882802E+05 -2.365314E+06 -1.683613E-09 -3.868630E-09
        29  12 -6.706706E+06 -1.435676E+06 -7.522717E+05 -2.305938E+06  3.669061E-09 -1.352437E-09
        29  13 -4.583607E+06 -1.157794E+06 -6.842541E+05 -1.581761E+06  2.160373E-10  2.639331E-09
        29  14 -4.454251E+06 -5.597845E+05 -2.842013E+05 -1.722482E+06 -8.768784E-11  1.624260E-09
        29  15 -4.511334E+06 -6.636172E+05 -1.732298E+05 -1.768197E+06  2.967859E-09 -9.573049E-10
        29  16 -2.323900E+06 -1.691803E+05 -3.878046E+04 -8.314360E+05 -2.115608E-09  7.330299E-10
        29  17 -2.226840E+06  3.178656E+05  3.194270E+05 -1.077509E+06 -2.523520E-10  2.514106E-09
        29  18 -2.311284E+06  1.085700E+05  4.054020E+05 -1.228792E+06  1.639100E-10 -3.672918E-09
        29  19 -6.838106E+06 -2.145541E+06 -1.329769E+06 -2.329390E+06  4.684033E+05  1.515945E+05
        29  20 -6.676750E+06 -1.436995E+06 -8.880942E+05 -2.365304E+06  3.102884E+05  3.954108E+04
        29  21 -6.706686E+06 -1.435671E+06 -7.522374E+05 -2.305940E+06  1.327170E+05 -2.120883E+04
        29  22 -4.583391E+06 -1.157720E+06 -6.838477E+05 -1.581711E+06  4.410133E+05  1.413359E+05
        29  23 -4.454152E+06 -5.597581E+05 -2.840250E+05 -1.722473E+06  3.029048E+05  3.679817E+04
        29  24 -4.511311E+06 -6.636112E+05 -1.731893E+05 -1.768199E+06  1.453894E+05 -1.645325E+04
        29  25 -2.323711E+06 -1.691156E+05 -3.842538E+04 -8.313922E+05  4.135101E+05  1.310198E+05
        29  26 -2.226745E+06  3.178904E+05  3.195939E+05 -1.077501E+06  2.954903E+05  3.404237E+04
        29  27 -2.311257E+06  1.085769E+05  4.054494E+05 -1.228793E+06  1.581109E+05 -1.168225E+04
        30   1 -6.390812E+06 -1.481859E+06 -6.586846E+05 -2.269199E+06 -1.170207E+05  1.523903E+04
        30   2 -6.275054E+06 -1.289658E+06 -5.400566E+05 -2.174898E+06 -7.918828E+04  2.784537E+04
        30   3 -6.079675E+06 -1.282100E+06 -4.692003E+05 -2.184138E+06 -3.917170E+04  3.454227E+04
        30   4 -4.480376E+06 -7.477038E+05 -1.416588E+05 -1.737251E+06 -1.165921E+05  1.538302E+04
        30   5 -4.516053E+06 -6.252813E+05 -6.717247E+04 -1.696765E+06 -8.101964E+04  2.715161E+04
        30   6 -4.471593E+06 -6.868821E+05 -3.853589E+04 -1.759827E+06 -4.327627E+04  3.301329E+04
        30   7 -2.566389E+06 -1.329693E+04  3.750404E+05 -1.203796E+06 -1.161616E+05  1.552778E+04
        30   8 -2.754046E+06  3.928079E+04  4.054376E+05 -1.217396E+06 -8.285653E+04  2.645578E+04
        30   9 -2.861004E+06 -9.153674E+04  3.919011E+05 -1.334523E+06 -4.739253E+04  3.148011E+04
        30  10 -6.390826E+06 -1.481863E+06 -6.587110E+05 -2.269197E+06 -2.224601E-09 -2.117205E-09
        30  11 -6.275061E+06 -1.289660E+06 -5.400699E+05 -2.174896E+06 -1.921115E-09 -1.349259E-09
        30  12 -6.079676E+06 -1.282101E+06 -4.692055E+05 -2.184137E+06 -6.398426E-09 -2.858858E-09
        30  13 -4.480391E+06 -7.477078E+05 -1.416849E+05 -1.737249E+06  3.262654E-09  6.446422E-10
        30  14 -4.516061E+06 -6.252839E+05 -6.718625E+04 -1.696763E+06 -5.076776E-09 -1.499259E-09
        30  15 -4.471595E+06 -6.868838E+05 -3.854146E+04 -1.759825E+06 -4.671121E-09  2.545876E-09
        30  16 -2.566404E+06 -1.330082E+04  3.750145E+05 -1.203795E+06  2.336982E-09 -1.814773E-09
        30  17 -2.754053E+06  3.927819E+04  4.054234E+05 -1.217394E+06  6.517404E-09  2.797995E-09
        30  18 -2.861006E+06 -9.153841E+04  3.918950E+05 -1.334522E+06  4.739363E-09  6.811971E-09
        30  19 -6.390812E+06 -1.481859E+06 -6.586846E+05 -2.269199E+06  1.170207E+05 -1.523903E+04
        30  20 -6.275054E+06 -1.289658E+06 -5.400566E+05 -2.174898E+06  7.918828E+04 -2.784537E+04
        30  21 -6.079675E+06 -1.282100E+06 -4.692003E+05 -2.184138E+06  3.917170E+04 -3.454227E+04
        30  22 -4.480376E+06 -7.477038E+05 -1.416588E+05 -1.737251E+06  1.165921E+05 -1.538302E+04
        30  23 -4.516053E+06 -6.252813E+05 -6.717247E+04 -1.696765E+06  8.101964E+04 -2.715161E+04
        30  24 -4.471593E+06 -6.868821E+05 -3.853589E+04 -1.759827E+06  4.327627E+04 -3.301329E+04
        30  25 -2.566389E+06 -1.329693E+04  3.750404E+05 -1.203796E+06  1.161616E+05 -1.552778E+04
        30  26 -2.754046E+06  3.928079E+04  4.054376E+05 -1.217396E+06  8.285653E+04 -2.645578E+04
        30  27 -2.861004E+06 -9.153674E+04  3.919011E+05 -1.334523E+06  4.739253E+04 -3.148011E+04
        31   1 -5.735369E+06 -1.179957E+06 -3.714347E+05 -2.105143E+06 -3.295340E+04  3.094973E+04
        31   2 -5.598654E+06 -1.025496E+06 -3.023290E+05 -1.971965E+06 -2.168440E+04  2.647978E+04
        31   3 -5.328194E+06 -1.016527E+06 -2.416336E+05 -1.995430E+06 -1.001664E+04  2.086215E+04
        31   4 -4.462763E+06 -7.026488E+05 -3.051354E+04 -1.762450E+06 -3.580288E+04  2.989024E+04
        31   5 -4.529035E+06 -6.258741E+05 -1.568636E+04 -1.685618E+06 -2.497680E+04  2.526183E+04
        31   6 -4.461516E+06 -6.944769E+05 -8.899537E+03 -1.765427E+06 -1.375538E+04  1.948567E+04
        31   7 -3.188589E+06 -2.252493E+05  3.102640E+05 -1.419120E+06 -3.865878E+04  2.882837E+04
        31   8 -3.458307E+06 -2.261895E+05  2.708554E+05 -1.398823E+06 -2.827545E+04  2.404157E+04
        31   9 -3.594110E+06 -3.723873E+05  2.237687E+05 -1.535134E+06 -1.749989E+04  1.810709E+04
        31  10 -5.735370E+06 -1.179959E+06 -3.714386E+05 -2.105142E+06  5.858144E-11  1.395843E-09
        31  11 -5.598655E+06 -1.025497E+06 -3.023312E+05 -1.971965E+06  2.084426E-09 -2.905975E-09
        31  12 -5.328194E+06 -1.016528E+06 -2.416346E+05 -1.995430E+06 -7.146149E-10 -2.449496E-09
        31  13 -4.462765E+06 -7.026501E+05 -3.051763E+04 -1.762450E+06 -1.575391E-09  3.022645E-10
        31  14 -4.529036E+06 -6.258749E+05 -1.568873E+04 -1.685617E+06  3.344328E-09 -7.946370E-09
        31  15 -4.461517E+06 -6.944773E+05 -8.900604E+03 -1.765427E+06  8.988489E-09  6.100358E-09
        31  16 -3.188591E+06 -2.252506E+05  3.102596E+05 -1.419119E+06  2.539023E-09 -2.625625E-09
        31  17 -3.458308E+06 -2.261903E+05  2.708528E+05 -1.398822E+06  7.305769E-09 -3.579521E-09
        31  18 -3.594110E+06 -3.723877E+05  2.237675E+05 -1.535133E+06  5.403829E-09  2.894359E-09
        31  19 -5.735369E+06 -1.179957E+06 -3.714347E+05 -2.105143E+06  3.295340E+04 -3.094973E+04
        31  20 -5.598654E+06 -1.025496E+06 -3.023290E+05 -1.971965E+06  2.168440E+04 -2.647978E+04
        31  21 -5.328194E+06 -1.016527E+06 -2.416336E+05 -1.995430E+06  1.001664E+04 -2.086215E+04
        31  22 -4.462763E+06 -7.026488E+05 -3.051354E+04 -1.762450E+06  3.580288E+04 -2.989024E+04
        31  23 -4.529035E+06 -6.258741E+05 -1.568636E+04 -1.685618E+06  2.497680E+04 -2.526183E+04
        31  24 -4.461516E+06 -6.944769E+05 -8.899537E+03 -1.765427E+06  1.375538E+04 -1.948567E+04
        31  25 -3.188589E+06 -2.252493E+05  3.102640E+05 -1.419120E+06  3.865878E+04 -2.882837E+04
        31  26 -3.458307E+06 -2.261895E+05  2.708554E+05 -1.398823E+06  2.827545E+04 -2.404157E+04
        31  27 -3.594110E+06 -3.723873E+05  2.237687E+05 -1.535134E+06  1.749989E+04 -1.810709E+04
        32   1 -4.936125E+06 -8.766169E+05 -1.342410E+05 -1.895953E+06 -6.858562E+03  1.593337E+04
        32   2 -4.785349E+06 -7.168485E+05 -7.202101E+04 -1.748180E+06 -1.175930E+03  7.690855E+03
        32   3 -4.486044E+06 -7.080239E+05 -1.198077E+04 -1.775918E+06  4.575333E+03 -7.562241E+02
        32   4 -4.458492E+06 -6.987515E+05 -7.178176E+03 -1.768434E+06 -1.047650E+04  1.460409E+04
        32   5 -4.532651E+06 -6.227879E+05 -4.398523E+03 -1.680851E+06 -4.874631E+03  6.333221E+03
        32   6 -4.458319E+06 -6.977487E+05 -3.729181E+03 -1.768793E+06  7.948310E+02 -2.142295E+03
        32   7 -3.980637E+06 -5.208735E+05  1.198650E+05 -1.640826E+06 -1.409750E+04  1.327368E+04
        32   8 -4.279893E+06 -5.287242E+05  6.321814E+04 -1.613498E+06 -8.574978E+03  4.974982E+03
        32   9 -4.430594E+06 -6.874735E+05  4.522321E+03 -1.761668E+06 -2.985825E+03 -3.528419E+03
        32  10 -4.936126E+06 -8.766172E+05 -1.342416E+05 -1.895952E+06  5.295351E-10  9.845739E-10
        32  11 -4.785349E+06 -7.168486E+05 -7.202113E+04 -1.748180E+06 -4.221595E-10 -1.416908E-09
        32  12 -4.486044E+06 -7.080239E+05 -1.198081E+04 -1.775918E+06 -3.544253E-10 -4.782013E-10
        32  13 -4.458492E+06 -6.987518E+05 -7.178782E+03 -1.768434E+06  3.247600E-09 -2.207437E-09
        32  14 -4.532651E+06 -6.227879E+05 -4.398643E+03 -1.680851E+06  1.019879E-10  3.825700E-09
        32  15 -4.458319E+06 -6.977487E+05 -3.729191E+03 -1.768793E+06 -1.140620E-09 -5.062319E-09
        32  16 -3.980637E+06 -5.208737E+05  1.198643E+05 -1.640826E+06  2.452452E-09  7.409203E-09
        32  17 -4.279893E+06 -5.287243E+05  6.321795E+04 -1.613498E+06 -5.697609E-10  4.396664E-09
        32  18 -4.430594E+06 -6.874736E+05  4.522280E+03 -1.761668E+06 -3.050666E-09  3.654027E-09
        32  19 -4.936125E+06 -8.766169E+05 -1.342410E+05 -1.895953E+06  6.858562E+03 -1.593337E+04
        32  20 -4.785349E+06 -7.168485E+05 -7.202101E+04 -1.748180E+06  1.175930E+03 -7.690855E+03
        32  21 -4.486044E+06 -7.080239E+05 -1.198077E+04 -1.775918E+06 -4.575333E+03  7.562241E+02
        32  22 -4.458492E+06 -6.987515E+05 -7.178176E+03 -1.768434E+06  1.047650E+04 -1.460409E+04
        32  23 -4.532651E+06 -6.227879E+05 -4.398523E+03 -1.680851E+06  4.874631E+03 -6.333221E+03
        32  24 -4.458319E+06 -6.977487E+05 -3.729181E+03 -1.768793E+06 -7.948310E+02  2.142295E+03
        32  25 -3.980637E+06 -5.208735E+05  1.198650E+05 -1.640826E+06  1.409750E+04 -1.327368E+04
        32  26 -4.279893E+06 -5.287242E+05  6.321814E+04 -1.613498E+06  8.574978E+03 -4.974982E+03
        32  27 -4.430594E+06 -6.874735E+05  4.522321E+03 -1.761668E+06  2.985825E+03  3.528419E+03
        33   1 -4.083753E+06 -5.574027E+05  9.738815E+04 -1.668285E+06  7.215979E+03 -6.028142E+03
        33   2 -3.937041E+06 -4.023474E+05  1.539630E+05 -1.523376E+06  1.305583E+04 -1.431554E+04
        33   3 -3.644698E+06 -3.949081E+05  2.083594E+05 -1.549501E+06  1.875561E+04 -2.217244E+04
        33   4 -4.458993E+06 -6.968685E+05 -3.808145E+03 -1.767878E+06  3.432430E+03 -7.416076E+03
        33   5 -4.531909E+06 -6.238395E+05 -5.167077E+03 -1.682057E+06  9.441261E+03 -1.564491E+04
        33   6 -4.459267E+06 -6.984763E+05 -8.836987E+03 -1.767301E+06  1.530891E+04 -2.344319E+04
        33   7 -4.834100E+06 -8.363282E+05 -1.050177E+05 -1.867417E+06 -3.486256E+02 -8.803100E+03
        33   8 -5.126438E+06 -8.453142E+05 -1.643293E+05 -1.840601E+06  5.830480E+03 -1.697288E+04
        33   9 -5.273199E+06 -1.002010E+06 -2.260926E+05 -1.984844E+06  1.186717E+04 -2.471212E+04
        33  10 -4.083753E+06 -5.574028E+05  9.738798E+04 -1.668285E+06 -1.266238E-09 -1.150662E-09
        33  11 -3.937041E+06 -4.023476E+05  1.539623E+05 -1.523376E+06  6.189267E-10 -3.910667E-09
        33  12 -3.644698E+06 -3.949087E+05  2.083578E+05 -1.549501E+06  4.525996E-09 -9.264938E-10
        33  13 -4.458993E+06 -6.968686E+05 -3.808270E+03 -1.767877E+06 -3.789922E-09 -5.777573E-09
        33  14 -4.531909E+06 -6.238398E+05 -5.167703E+03 -1.682057E+06  5.114358E-10  1.001007E-08
        33  15 -4.459268E+06 -6.984770E+05 -8.838457E+03 -1.767301E+06  2.308467E-10  7.786382E-10
        33  16 -4.834100E+06 -8.363283E+05 -1.050178E+05 -1.867417E+06 -1.257631E-09  5.706281E-09
        33  17 -5.126438E+06 -8.453146E+05 -1.643299E+05 -1.840601E+06 -1.777832E-09  6.888207E-09
        33  18 -5.273199E+06 -1.002011E+06 -2.260940E+05 -1.984844E+06 -2.998104E-09  3.948542E-09
        33  19 -4.083753E+06 -5.574027E+05  9.738815E+04 -1.668285E+06 -7.215979E+03  6.028142E+03
        33  20 -3.937041E+06 -4.023474E+05  1.539630E+05 -1.523376E+06 -1.305583E+04  1.431554E+04
        33  21 -3.644698E+06 -3.949081E+05  2.083594E+05 -1.549501E+06 -1.875561E+04  2.217244E+04
        33  22 -4.458993E+06 -6.968685E+05 -3.808145E+03 -1.767878E+06 -3.432430E+03  7.416076E+03
        33  23 -4.531909E+06 -6.238395E+05 -5.167077E+03 -1.682057E+06 -9.441261E+03  1.564491E+04
        33  24 -4.459267E+06 -6.984763E+05 -8.836987E+03 -1.767301E+06 -1.530891E+04  2.344319E+04
        33  25 -4.834100E+06 -8.363282E+05 -1.050177E+05 -1.867417E+06  3.486256E+02  8.803100E+03
        33  26 -5.126438E+06 -8.453142E+05 -1.643293E+05 -1.840601E+06 -5.830480E+03  1.697288E+04
        33  27 -5.273199E+06 -1.002010E+06 -2.260926E+05 -1.984844E+06 -1.186717E+04  2.471212E+04
        34   1 -3.278229E+06 -2.514505E+05  3.066789E+05 -1.447075E+06  2.237897E+04 -2.663453E+04
        34   2 -3.153602E+06 -1.151157E+05  3.477329E+05 -1.320198E+06  3.498387E+04 -3.127987E+04
        34   3 -2.904681E+06 -1.163250E+05  3.793002E+05 -1.336806E+06  4.712150E+04 -3.456349E+04
        34   4 -4.463730E+06 -6.923484E+05 -1.105942E+04 -1.762724E+06  1.880259E+04 -2.795701E+04
        34   5 -4.526584E+06 -6.286265E+05 -1.983459E+04 -1.689090E+06  3.193118E+04 -3.241595E+04
        34   6 -4.465286E+06 -7.025940E+05 -3.852827E+04 -1.758974E+06  4.458883E+04 -3.551286E+04
        34   7 -5.647862E+06 -1.133169E+06 -3.289187E+05 -2.077825E+06  1.523375E+04 -2.927672E+04
        34   8 -5.897738E+06 -1.142032E+06 -3.875671E+05 -2.057243E+06  2.888591E+04 -3.354929E+04
        34   9 -6.023539E+06 -1.288725E+06 -4.565731E+05 -2.180182E+06  4.206309E+04 -3.645965E+04
        34  10 -3.278230E+06 -2.514514E+05  3.066766E+05 -1.447075E+06  2.096258E-09 -8.354852E-10
        34  11 -3.153603E+06 -1.151170E+05  3.477287E+05 -1.320197E+06 -2.982850E-10  1.863112E-09
        34  12 -2.904683E+06 -1.163268E+05  3.792938E+05 -1.336804E+06 -2.317574E-09  3.525490E-09
        34  13 -4.463731E+06 -6.923493E+05 -1.106155E+04 -1.762723E+06 -2.179473E-09 -3.054443E-09
        34  14 -4.526585E+06 -6.286279E+05 -1.983848E+04 -1.689090E+06 -4.841311E-09  2.347002E-09
        34  15 -4.465288E+06 -7.025959E+05 -3.853438E+04 -1.758973E+06 -1.984792E-09  3.121379E-09
        34  16 -5.647862E+06 -1.133170E+06 -3.289207E+05 -2.077824E+06 -3.870772E-09  2.495274E-09
        34  17 -5.897739E+06 -1.142033E+06 -3.875708E+05 -2.057243E+06 -1.785914E-09 -8.934172E-10
        34  18 -6.023541E+06 -1.288726E+06 -4.565789E+05 -2.180181E+06  9.529786E-10  1.943669E-09
        34  19 -3.278229E+06 -2.514505E+05  3.066789E+05 -1.447075E+06 -2.237897E+04  2.663453E+04
        34  20 -3.153602E+06 -1.151157E+05  3.477329E+05 -1.320198E+06 -3.498387E+04  3.127987E+04
        34  21 -2.904681E+06 -1.163250E+05  3.793002E+05 -1.336806E+06 -4.712150E+04  3.456349E+04
        34  22 -4.463730E+06 -6.923484E+05 -1.105942E+04 -1.762724E+06 -1.880259E+04  2.795701E+04
        34  23 -4.526584E+06 -6.286265E+05 -1.983459E+04 -1.689090E+06 -3.193118E+04  3.241595E+04
        34  24 -4.465286E+06 -7.025940E+05 -3.852827E+04 -1.758974E+06 -4.458883E+04  3.551286E+04
        34  25 -5.647862E+06 -1.133169E+06 -3.289187E+05 -2.077825E+06 -1.523375E+04  2.927672E+04
        34  26 -5.897738E+06 -1.142032E+06 -3.875671E+05 -2.057243E+06 -2.888591E+04  3.354929E+04
        34  27 -6.023539E+06 -1.288725E+06 -4.565731E+05 -2.180182E+06 -4.206309E+04  3.645965E+04
        35   1 -2.612658E+06  6.686861E+03  4.492439E+05 -1.262901E+06  5.719623E+04 -3.618082E+04
        35   2 -2.521456E+06  1.258931E+05  4.489933E+05 -1.158229E+06  1.015178E+05 -2.676071E+04
        35   3 -2.372293E+06  5.705665E+04  3.927832E+05 -1.132951E+06  1.435455E+05 -1.110983E+04
        35   4 -4.476127E+06 -6.832403E+05 -4.875573E+04 -1.756325E+06  5.336015E+04 -3.761962E+04
        35   5 -4.510361E+06 -6.270925E+05 -8.497773E+04 -1.702351E+06  1.000523E+05 -2.732463E+04
        35   6 -4.487251E+06 -7.596970E+05 -1.791936E+05 -1.727782E+06  1.444374E+05 -1.079539E+04
        35   7 -6.336238E+06 -1.372994E+06 -5.470600E+05 -2.248417E+06  4.953664E+04 -3.905392E+04
        35   8 -6.495434E+06 -1.379835E+06 -6.192987E+05 -2.244890E+06  9.859159E+04 -2.788676E+04
        35   9 -6.597871E+06 -1.576129E+06 -7.515707E+05 -2.320754E+06  1.453253E+05 -1.048259E+04
        35  10 -2.612662E+06  6.684582E+03  4.492353E+05 -1.262900E+06 -1.554347E-09  3.865077E-09
        35  11 -2.521468E+06  1.258896E+05  4.489726E+05 -1.158226E+06  2.492647E-09  4.974082E-10
        35  12 -2.372315E+06  5.705096E+04  3.927441E+05 -1.132950E+06  2.653022E-09 -5.017857E-10
        35  13 -4.476130E+06 -6.832425E+05 -4.876375E+04 -1.756323E+06 -2.440828E-09  1.666102E-09
        35  14 -4.510372E+06 -6.270960E+05 -8.499803E+04 -1.702349E+06 -8.918580E-10 -1.958917E-10
        35  15 -4.487274E+06 -7.597028E+05 -1.792333E+05 -1.727781E+06  4.652115E-10 -1.550912E-09
        35  16 -6.336241E+06 -1.372996E+06 -5.470674E+05 -2.248415E+06  2.607243E-10 -4.913251E-11
        35  17 -6.495444E+06 -1.379838E+06 -6.193186E+05 -2.244887E+06 -1.885563E-09 -2.076629E-09
        35  18 -6.597894E+06 -1.576135E+06 -7.516110E+05 -2.320752E+06 -1.897723E-09 -2.319670E-09
        35  19 -2.612658E+06  6.686861E+03  4.492439E+05 -1.262901E+06 -5.719623E+04  3.618082E+04
        35  20 -2.521456E+06  1.258931E+05  4.489933E+05 -1.158229E+06 -1.015178E+05  2.676071E+04
        35  21 -2.372293E+06  5.705665E+04  3.927832E+05 -1.132951E+06 -1.435455E+05  1.110983E+04
        35  22 -4.476127E+06 -6.832403E+05 -4.875573E+04 -1.756325E+06 -5.336015E+04  3.761962E+04
        35  23 -4.510361E+06 -6.270925E+05 -8.497773E+04 -1.702351E+06 -1.000523E+05  2.732463E+04
        35  24 -4.487251E+06 -7.596970E+05 -1.791936E+05 -1.727782E+06 -1.444374E+05  1.079539E+04
        35  25 -6.336238E+06 -1.372994E+06 -5.470600E+05 -2.248417E+06 -4.953664E+04  3.905392E+04
        35  26 -6.495434E+06 -1.379835E+06 -6.192987E+05 -2.244890E+06 -9.859159E+04  2.788676E+04
        35  27 -6.597871E+06 -1.576129E+06 -7.515707E+05 -2.320754E+06 -1.453253E+05  1.048259E+04
        36   1 -2.157243E+06  1.679495E+05  4.018708E+05 -1.196155E+06  1.923594E+05 -4.091819E+03
        36   2 -2.085844E+06  3.943458E+05  2.791745E+05 -1.041349E+06  3.698175E+05  5.852545E+04
        36   3 -2.284523E+06 -2.239798E+05 -1.920650E+05 -7.235924E+05  5.271133E+05  1.741828E+05
        36   4 -4.524904E+06 -6.552931E+05 -2.192048E+05 -1.769198E+06  1.796799E+05 -8.869021E+03
        36   5 -4.433251E+06 -5.418286E+05 -3.591420E+05 -1.732347E+06  3.778130E+05  6.150461E+04
        36   6 -4.617008E+06 -1.279180E+06 -8.651469E+05 -1.532230E+06  5.557424E+05  1.849299E+05
        36   7 -6.887148E+06 -1.478410E+06 -8.407531E+05 -2.340354E+06  1.670527E+05 -1.363020E+04
        36   8 -6.775300E+06 -1.477502E+06 -9.979580E+05 -2.420911E+06  3.857726E+05  6.446855E+04
        36   9 -6.944141E+06 -2.333374E+06 -1.538757E+06 -2.337880E+06  5.842487E+05  1.956106E+05
        36  10 -2.157283E+06  1.679395E+05  4.018010E+05 -1.196155E+06  2.899464E-09 -1.340927E-09
        36  11 -2.085992E+06  3.943052E+05  2.789100E+05 -1.041367E+06  3.928534E-09 -5.420511E-09
        36  12 -2.284830E+06 -2.240875E+05 -1.926465E+05 -7.236666E+05 -1.338017E-09 -1.089891E-09
        36  13 -4.524938E+06 -6.553019E+05 -2.192660E+05 -1.769197E+06  1.860222E-09  1.181527E-10
        36  14 -4.433406E+06 -5.418714E+05 -3.594195E+05 -1.732365E+06  4.513771E-10  8.017769E-11
        36  15 -4.617351E+06 -1.279301E+06 -8.657970E+05 -1.532313E+06  1.056111E-10  5.641735E-10
        36  16 -6.887178E+06 -1.478417E+06 -8.408064E+05 -2.340352E+06  5.982204E-10 -8.308930E-10
        36  17 -6.775463E+06 -1.477547E+06 -9.982489E+05 -2.420932E+06 -4.431603E-09  3.938859E-09
        36  18 -6.944521E+06 -2.333509E+06 -1.539479E+06 -2.337973E+06  3.369876E-09  1.641590E-10
        36  19 -2.157243E+06  1.679495E+05  4.018708E+05 -1.196155E+06 -1.923594E+05  4.091819E+03
        36  20 -2.085844E+06  3.943458E+05  2.791745E+05 -1.041349E+06 -3.698175E+05 -5.852545E+04
        36  21 -2.284523E+06 -2.239798E+05 -1.920650E+05 -7.235924E+05 -5.271133E+05 -1.741828E+05
        36  22 -4.524904E+06 -6.552931E+05 -2.192048E+05 -1.769198E+06 -1.796799E+05  8.869021E+03
        36  23 -4.433251E+06 -5.418286E+05 -3.591420E+05 -1.732347E+06 -3.778130E+05 -6.150461E+04
        36  24 -4.617008E+06 -1.279180E+06 -8.651469E+05 -1.532230E+06 -5.557424E+05 -1.849299E+05
        36  25 -6.887148E+06 -1.478410E+06 -8.407531E+05 -2.340354E+06 -1.670527E+05  1.363020E+04
        36  26 -6.775300E+06 -1.477502E+06 -9.979580E+05 -2.420911E+06 -3.857726E+05 -6.446855E+04
        36  27 -6.944141E+06 -2.333374E+06 -1.538757E+06 -2.337880E+06 -5.842487E+05 -1.956106E+05
        37   1  1.912105E+05 -8.100319E+05  1.807201E+05  3.515641E+03  8.638235E+03 -6.777482E+03
        37   2  2.156755E+05 -8.222715E+05  1.871621E+05  3.384984E+03  2.649676E+04 -5.901768E+03
        37   3  2.079269E+05 -8.418699E+05  1.851833E+05 -8.678477E+03  2.612947E+04 -5.077446E+03
        37   4 -2.577741E+04 -1.679163E+06 -3.415272E+04 -2.704229E+03  8.674996E+03 -1.969310E+04
        37   5  3.944068E+03 -1.674706E+06 -1.795961E+04  3.300467E+03  2.651306E+04 -1.008714E+04
        37   6 -9.045670E+01 -1.679139E+06 -1.627081E+04 -2.628506E+03  2.611423E+04 -5.323578E+02
        37   7 -2.428216E+05 -2.547606E+06 -2.490810E+05 -8.914893E+03  8.712044E+03 -3.259061E+04
        37   8 -2.078404E+05 -2.526474E+06 -2.231331E+05  3.216614E+03  2.652938E+04 -1.426678E+04
        37   9 -2.081589E+05 -2.515765E+06 -2.177748E+05  3.413880E+03  2.609906E+04  4.006616E+03
        37  10  1.912104E+05 -8.100319E+05  1.807198E+05  3.515688E+03 -1.516202E-08  7.778318E-09
        37  11  2.156747E+05 -8.222717E+05  1.871607E+05  3.385110E+03  8.114085E-09 -7.953248E-09
        37  12  2.079261E+05 -8.418701E+05  1.851820E+05 -8.678370E+03  6.517181E-09 -8.644931E-09
        37  13 -2.577760E+04 -1.679164E+06 -3.415359E+04 -2.704091E+03 -1.645353E-08  7.742004E-11
        37  14  3.943286E+03 -1.674707E+06 -1.796113E+04  3.300683E+03  8.100063E-09 -3.380158E-09
        37  15 -9.118851E+01 -1.679139E+06 -1.627209E+04 -2.628495E+03  2.050031E-09  1.644312E-10
        37  16 -2.428220E+05 -2.547607E+06 -2.490832E+05 -8.914664E+03 -1.533024E-08 -8.649645E-09
        37  17 -2.078412E+05 -2.526475E+06 -2.231348E+05  3.216919E+03 -6.702770E-10  2.557158E-09
        37  18 -2.081596E+05 -2.515765E+06 -2.177762E+05  3.413796E+03  8.843283E-10  8.377852E-09
        37  19  1.912105E+05 -8.100319E+05  1.807201E+05  3.515641E+03 -8.638235E+03  6.777482E+03
        37  20  2.156755E+05 -8.222715E+05  1.871621E+05  3.384984E+03 -2.649676E+04  5.901768E+03
        37  21  2.079269E+05 -8.418699E+05  1.851833E+05 -8.678477E+03 -2.612947E+04  5.077446E+03
        37  22 -2.577741E+04 -1.679163E+06 -3.415272E+04 -2.704229E+03 -8.674996E+03  1.969310E+04
        37  23  3.944068E+03 -1.674706E+06 -1.795961E+04  3.300467E+03 -2.651306E+04  1.008714E+04
        37  24 -9.045670E+01 -1.679139E+06 -1.627081E+04 -2.628506E+03 -2.611423E+04  5.323578E+02
        37  25 -2.428216E+05 -2.547606E+06 -2.490810E+05 -8.914893E+03 -8.712044E+03  3.259061E+04
        37  26 -2.078404E+05 -2.526474E+06 -2.231331E+05  3.216614E+03 -2.652938E+04  1.426678E+04
        37  27 -2.081589E+05 -2.515765E+06 -2.177748E+05  3.413880E+03 -2.609906E+04 -4.006616E+03
        38   1  1.991085E+05 -8.682341E+05  1.787292E+05 -3.882013E+03  2.322853E+04  3.242023E+03
        38   2  1.980108E+05 -8.876916E+05  1.698290E+05  1.399773E+03  2.379028E+04  1.226024E+04
        38   3  1.781719E+05 -9.124416E+05  1.504893E+05 -1.068048E+04  2.175380E+04  2.126471E+04
        38   4 -2.241706E+03 -1.678380E+06 -1.682211E+04 -3.847329E+03  2.323431E+04  2.329934E+03
        38   5  2.220892E+03 -1.675625E+06 -1.998216E+04  4.808702E+03  2.379079E+04  1.258268E+04
        38   6 -1.228592E+04 -1.678386E+06 -3.444969E+04 -3.898820E+03  2.174766E+04  2.282197E+04
        38   7 -2.036399E+05 -2.487923E+06 -2.124204E+05 -3.812067E+03  2.324010E+04  1.419030E+03
        38   8 -1.936144E+05 -2.462989E+06 -2.098377E+05  8.213938E+03  2.379130E+04  1.290470E+04
        38   9 -2.027866E+05 -2.443793E+06 -2.194308E+05  2.875125E+03  2.174156E+04  2.437731E+04
        38  10  1.991079E+05 -8.682342E+05  1.787281E+05 -3.882073E+03 -1.240322E-09  4.969713E-09
        38  11  1.980102E+05 -8.876919E+05  1.698276E+05  1.399539E+03  7.983236E-10 -3.875632E-09
        38  12  1.781713E+05 -9.124422E+05  1.504876E+05 -1.068086E+04 -7.562409E-10  1.612618E-09
        38  13 -2.242287E+03 -1.678380E+06 -1.682313E+04 -3.847373E+03 -3.082547E-09  1.776227E-10
        38  14  2.220242E+03 -1.675625E+06 -1.998352E+04  4.808461E+03 -1.316714E-09 -4.994121E-09
        38  15 -1.228657E+04 -1.678387E+06 -3.445156E+04 -3.899220E+03 -1.749451E-09  5.114018E-10
        38  16 -2.036405E+05 -2.487923E+06 -2.124215E+05 -3.812093E+03 -1.206497E-09 -5.968135E-09
        38  17 -1.936150E+05 -2.462990E+06 -2.098390E+05  8.213691E+03 -4.273442E-09 -3.530036E-09
        38  18 -2.027873E+05 -2.443793E+06 -2.194328E+05  2.874697E+03 -5.029536E-09 -1.817694E-09
        38  19  1.991085E+05 -8.682341E+05  1.787292E+05 -3.882013E+03 -2.322853E+04 -3.242023E+03
        38  20  1.980108E+05 -8.876916E+05  1.698290E+05  1.399773E+03 -2.379028E+04 -1.226024E+04
        38  21  1.781719E+05 -9.124416E+05  1.504893E+05 -1.068048E+04 -2.175380E+04 -2.126471E+04
        38  22 -2.241706E+03 -1.678380E+06 -1.682211E+04 -3.847329E+03 -2.323431E+04 -2.329934E+03
        38  23  2.220892E+03 -1.675625E+06 -1.998216E+04  4.808702E+03 -2.379079E+04 -1.258268E+04
        38  24 -1.228592E+04 -1.678386E+06 -3.444969E+04 -3.898820E+03 -2.174766E+04 -2.282197E+04
        38  25 -2.036399E+05 -2.487923E+06 -2.124204E+05 -3.812067E+03 -2.324010E+04 -1.419030E+03
        38  26 -1.936144E+05 -2.462989E+06 -2.098377E+05  8.213938E+03 -2.379130E+04 -1.290470E+04
        38  27 -2.027866E+05 -2.443793E+06 -2.194308E+05  2.875125E+03 -2.174156E+04 -2.437731E+04
        39   1  1.867298E+05 -9.555296E+05  1.344195E+05  6.999101E+03  2.282292E+04  3.200863E+04
        39   2  1.917238E+05 -9.641565E+05  1.049770E+05 -6.775497E+03  2.139624E+04  6.002587E+04
        39   3  5.486075E+04 -1.011628E+06  2.187280E+04 -4.337789E+04  6.321563E+03  8.795460E+04
        39   4  5.465091E+03 -1.686015E+06 -4.124510E+04 -4.849483E+03  2.283855E+04  2.932449E+04
        39   5  1.719137E+04 -1.666052E+06 -6.398907E+04  6.199324E+03  2.137634E+04  6.385148E+04
        39   6 -1.141586E+05 -1.686110E+06 -1.449646E+05 -5.583966E+03  6.261513E+03  9.829053E+04
        39   7 -1.758379E+05 -2.416010E+06 -2.169476E+05 -1.668339E+04  2.285429E+04  2.664347E+04
        39   8 -1.573765E+05 -2.367496E+06 -2.329902E+05  1.916005E+04  2.135659E+04  6.767275E+04
        39   9 -2.832069E+05 -2.360174E+06 -3.118348E+05  3.216942E+04  6.202694E+03  1.086152E+05
        39  10  1.867290E+05 -9.555309E+05  1.344166E+05  6.998513E+03 -2.098862E-09  2.885187E-09
        39  11  1.917223E+05 -9.641605E+05  1.049693E+05 -6.776532E+03 -4.006259E-10 -8.545616E-09
        39  12  5.485863E+04 -1.011636E+06  2.185817E+04 -4.337834E+04 -9.853653E-10 -3.687517E-10
        39  13  5.464300E+03 -1.686016E+06 -4.124770E+04 -4.850023E+03 -6.723731E-09 -2.092619E-10
        39  14  1.718978E+04 -1.666057E+06 -6.399761E+04  6.198224E+03 -4.976944E-09 -6.323161E-09
        39  15 -1.141612E+05 -1.686120E+06 -1.449829E+05 -5.584462E+03  1.579359E-09  4.260521E-10
        39  16 -1.758387E+05 -2.416011E+06 -2.169499E+05 -1.668388E+04 -1.221388E-09 -4.062257E-09
        39  17 -1.573782E+05 -2.367501E+06 -2.329997E+05  1.915889E+04 -7.931400E-10 -8.925851E-10
        39  18 -2.832102E+05 -2.360187E+06 -3.118571E+05  3.216888E+04  7.862990E-10 -3.656666E-11
        39  19  1.867298E+05 -9.555296E+05  1.344195E+05  6.999101E+03 -2.282292E+04 -3.200863E+04
        39  20  1.917238E+05 -9.641565E+05  1.049770E+05 -6.775497E+03 -2.139624E+04 -6.002587E+04
        39  21  5.486075E+04 -1.011628E+06  2.187280E+04 -4.337789E+04 -6.321563E+03 -8.795460E+04
        39  22  5.465091E+03 -1.686015E+06 -4.124510E+04 -4.849483E+03 -2.283855E+04 -2.932449E+04
        39  23  1.719137E+04 -1.666052E+06 -6.398907E+04  6.199324E+03 -2.137634E+04 -6.385148E+04
        39  24 -1.141586E+05 -1.686110E+06 -1.449646E+05 -5.583966E+03 -6.261513E+03 -9.829053E+04
        39  25 -1.758379E+05 -2.416010E+06 -2.169476E+05 -1.668339E+04 -2.285429E+04 -2.664347E+04
        39  26 -1.573765E+05 -2.367496E+06 -2.329902E+05  1.916005E+04 -2.135659E+04 -6.767275E+04
        39  27 -2.832069E+05 -2.360174E+06 -3.118348E+05  3.216942E+04 -6.202694E+03 -1.086152E+05
        40   1  8.884232E+04  9.617693E+05  5.063843E+04 -1.819805E+02  3.109013E+04 -5.599041E+02
        40   2  8.896738E+04  9.618757E+05  5.131834E+04 -1.505893E+02  3.098436E+04 -1.442768E+03
        40   3  8.930996E+04  9.621595E+05  5.262939E+04 -1.015698E+02  3.073825E+04 -2.325730E+03
        40   4 -3.265421E+01  5.670537E+05  6.256760E+02  3.906635E+00  3.109218E+04 -4.732651E+02
        40   5  1.778082E+01  5.669940E+05  1.098198E+03 -4.856179E+00  3.098624E+04 -1.018548E+03
        40   6  2.272587E+02  5.670534E+05  1.967865E+03  4.009422E+00  3.073991E+04 -1.563921E+03
        40   7 -8.891398E+04  1.724978E+05 -4.938761E+04  1.896854E+02  3.109423E+04 -3.866784E+02
        40   8 -8.893820E+04  1.722722E+05 -4.912252E+04  1.407972E+02  3.098812E+04 -5.945828E+02
        40   9 -8.886187E+04  1.721071E+05 -4.869436E+04  1.095376E+02  3.074157E+04 -8.025725E+02
        40  10  8.884128E+04  9.617691E+05  5.063661E+04 -1.819665E+02 -1.631513E-09  7.016579E-08
        40  11  8.896635E+04  9.618754E+05  5.131653E+04 -1.505533E+02  4.339758E-09 -1.194009E-09
        40  12  8.930894E+04  9.621593E+05  5.262760E+04 -1.015123E+02 -1.041820E-09 -7.154383E-08
        40  13 -3.369264E+01  5.670534E+05  6.238584E+02  3.918483E+00 -3.871418E-09  4.885760E-10
        40  14  1.674924E+01  5.669938E+05  1.096391E+03 -4.830765E+00 -2.505495E-09 -9.450331E-10
        40  15  2.262431E+02  5.670532E+05  1.966085E+03  4.048132E+00  2.798201E-09  6.449372E-10
        40  16 -8.891502E+04  1.724975E+05 -4.938943E+04  1.896951E+02 -3.748176E-09 -7.078624E-08
        40  17 -8.893923E+04  1.722719E+05 -4.912433E+04  1.408120E+02 -5.456447E-09  9.888072E-10
        40  18 -8.886289E+04  1.721069E+05 -4.869614E+04  1.095575E+02 -3.842213E-09  7.178806E-08
        40  19  8.884232E+04  9.617693E+05  5.063843E+04 -1.819805E+02 -3.109013E+04  5.599041E+02
        40  20  8.896738E+04  9.618757E+05  5.131834E+04 -1.505893E+02 -3.098436E+04  1.442768E+03
        40  21  8.930996E+04  9.621595E+05  5.262939E+04 -1.015698E+02 -3.073825E+04  2.325730E+03
        40  22 -3.265421E+01  5.670537E+05  6.256760E+02  3.906634E+00 -3.109218E+04  4.732651E+02
        40  23  1.778082E+01  5.669940E+05  1.098198E+03 -4.856179E+00 -3.098624E+04  1.018548E+03
        40  24  2.272587E+02  5.670534E+05  1.967865E+03  4.009422E+00 -3.073991E+04  1.563921E+03
        40  25 -8.891398E+04  1.724978E+05 -4.938761E+04  1.896854E+02 -3.109423E+04  3.866784E+02
        40  26 -8.893820E+04  1.722722E+05 -4.912252E+04  1.407972E+02 -3.098812E+04  5.945828E+02
        40  27 -8.886187E+04  1.721071E+05 -4.869436E+04  1.095376E+02 -3.074157E+04  8.025725E+02
        41   1  8.952255E+04  9.625058E+05  5.357149E+04 -2.309186E+02  3.058279E+04 -2.790968E+03
        41   2  9.064548E+04  9.621827E+05  5.700168E+04  8.928859E+02  2.971097E+04 -7.649908E+03
        41   3  9.384878E+04  9.630194E+05  6.411412E+04  1.966469E+03  2.779113E+04 -1.250965E+04
        41   4  3.380703E+02  5.671877E+05  2.613632E+03 -1.122426E+01  3.058437E+04 -1.947978E+03
        41   5  1.179319E+03  5.668253E+05  4.667346E+03  1.476609E+01  2.971094E+04 -4.287031E+03
        41   6  3.664590E+03  5.671864E+05  8.656087E+03 -9.473356E+00  2.778916E+04 -6.626858E+03
        41   7 -8.885287E+04  1.720295E+05 -4.834501E+04  2.083441E+02  3.058595E+04 -1.105498E+03
        41   8 -8.829345E+04  1.716274E+05 -4.766812E+04 -8.627466E+02  2.971090E+04 -9.261902E+02
        41   9 -8.652654E+04  1.715120E+05 -4.680385E+04 -1.984078E+03  2.778715E+04 -7.476491E+02
        41  10  8.952154E+04  9.625056E+05  5.356972E+04 -2.308499E+02  3.348282E-10 -6.615150E-09
        41  11  9.064452E+04  9.621824E+05  5.699992E+04  8.930689E+02  4.350499E-09 -4.245330E-08
        41  12  9.384791E+04  9.630190E+05  6.411238E+04  1.966749E+03 -6.809992E-09 -7.202425E-08
        41  13  3.370646E+02  5.671874E+05  2.611867E+03 -1.117629E+01  4.644243E-09  5.517761E-10
        41  14  1.178365E+03  5.668251E+05  4.665652E+03  1.486865E+01  6.580336E-09 -1.362111E-09
        41  15  3.663749E+03  5.671861E+05  8.654553E+03 -9.325073E+00  1.350516E-08  7.217505E-10
        41  16 -8.885388E+04  1.720292E+05 -4.834677E+04  2.083713E+02 -4.128394E-09  5.808783E-09
        41  17 -8.829440E+04  1.716271E+05 -4.766978E+04 -8.627245E+02 -1.706583E-09  4.196871E-08
        41  18 -8.652737E+04  1.715118E+05 -4.680530E+04 -1.984061E+03 -1.416839E-09  7.223874E-08
        41  19  8.952255E+04  9.625058E+05  5.357149E+04 -2.309186E+02 -3.058279E+04  2.790968E+03
        41  20  9.064548E+04  9.621827E+05  5.700168E+04  8.928859E+02 -2.971097E+04  7.649908E+03
        41  21  9.384878E+04  9.630194E+05  6.411412E+04  1.966469E+03 -2.779113E+04  1.250965E+04
        41  22  3.380703E+02  5.671877E+05  2.613632E+03 -1.122426E+01 -3.058437E+04  1.947978E+03
        41  23  1.179319E+03  5.668253E+05  4.667346E+03  1.476609E+01 -2.971094E+04  4.287031E+03
        41  24  3.664590E+03  5.671864E+05  8.656087E+03 -9.473356E+00 -2.778916E+04  6.626858E+03
        41  25 -8.885287E+04  1.720295E+05 -4.834501E+04  2.083441E+02 -3.058595E+04  1.105498E+03
        41  26 -8.829345E+04  1.716274E+05 -4.766812E+04 -8.627466E+02 -2.971090E+04  9.261902E+02
        41  27 -8.652654E+04  1.715120E+05 -4.680385E+04 -1.984078E+03 -2.778715E+04  7.476491E+02
        42   1  9.579889E+04  9.648061E+05  6.914668E+04  1.215412E+03  2.657790E+04 -1.463922E+04
        42   2  1.069559E+05  9.608128E+05  8.896943E+04  1.444497E+04  2.001342E+04 -4.422454E+04
        42   3  1.375877E+05  9.655408E+05  1.329038E+05  2.706030E+04  5.687872E+03 -7.381713E+04
        42   4  5.052469E+03  5.682457E+05  1.160838E+04 -1.365106E+02  2.657522E+04 -8.138219E+03
        42   5  1.448465E+04  5.654961E+05  2.145330E+04  1.823705E+02  1.999732E+04 -1.907095E+04
        42   6  4.016206E+04  5.682359E+05  4.247195E+04 -1.132549E+02  5.657327E+03 -3.001026E+04
        42   7 -8.570115E+04  1.718437E+05 -4.593234E+04 -1.487509E+03  2.657251E+04 -1.641191E+03
        42   8 -7.799381E+04  1.703347E+05 -4.606553E+04 -1.407085E+04  1.998007E+04  6.067166E+03
        42   9 -5.727066E+04  1.710830E+05 -4.796259E+04 -2.726926E+04  5.622943E+03  1.376886E+04
        42  10  9.579807E+04  9.648057E+05  6.914495E+04  1.215725E+03 -2.751332E-09  6.571713E-08
        42  11  1.069550E+05  9.608106E+05  8.896501E+04  1.444569E+04  1.675350E-09  3.513451E-08
        42  12  1.375862E+05  9.655350E+05  1.328936E+05  2.706064E+04  6.340416E-10  3.004097E-09
        42  13  5.051692E+03  5.682454E+05  1.160693E+04 -1.363365E+02  1.483255E-08  7.176552E-10
        42  14  1.448413E+04  5.654956E+05  2.145187E+04  1.826776E+02  9.093607E-09 -1.453335E-09
        42  15  4.016179E+04  5.682350E+05  4.247020E+04 -1.131182E+02  2.948208E-09  1.014152E-09
        42  16 -8.570191E+04  1.718435E+05 -4.593367E+04 -1.487474E+03 -5.920116E-09 -6.676055E-08
        42  17 -7.799425E+04  1.703345E+05 -4.606635E+04 -1.407095E+04 -3.309432E-09 -3.553329E-08
        42  18 -5.727075E+04  1.710828E+05 -4.796300E+04 -2.726933E+04  5.392782E-10 -2.841344E-09
        42  19  9.579889E+04  9.648061E+05  6.914668E+04  1.215412E+03 -2.657790E+04  1.463922E+04
        42  20  1.069559E+05  9.608128E+05  8.896943E+04  1.444497E+04 -2.001342E+04  4.422454E+04
        42  21  1.375877E+05  9.655408E+05  1.329038E+05  2.706030E+04 -5.687872E+03  7.381713E+04
        42  22  5.052469E+03  5.682457E+05  1.160838E+04 -1.365106E+02 -2.657522E+04  8.138219E+03
        42  23  1.448465E+04  5.654961E+05  2.145330E+04  1.823705E+02 -1.999732E+04  1.907095E+04
        42  24  4.016206E+04  5.682359E+05  4.247195E+04 -1.132549E+02 -5.657327E+03  3.001026E+04
        42  25 -8.570115E+04  1.718437E+05 -4.593234E+04 -1.487509E+03 -2.657251E+04  1.641191E+03
        42  26 -7.799381E+04  1.703347E+05 -4.606553E+04 -1.407085E+04 -1.998007E+04 -6.067166E+03
        42  27 -5.727066E+04  1.710830E+05 -4.796259E+04 -2.726926E+04 -5.622943E+03 -1.376886E+04
        43   1 -1.065444E+07 -3.181093E+06 -1.965010E+06 -3.678578E+06 -8.962764E+05 -3.152997E+05
        43   2 -1.043889E+07 -1.889987E+06 -1.141241E+06 -3.866358E+06 -5.847652E+05 -1.470491E+05
        43   3 -1.073235E+07 -1.899458E+06 -9.162849E+05 -3.732565E+06 -2.554031E+05 -2.588148E+04
        43   4 -8.689291E+06 -2.173506E+06 -1.370441E+06 -2.881731E+06 -8.714085E+05 -3.063375E+05
        43   5 -8.364060E+06 -1.031000E+06 -5.671532E+05 -3.228821E+06 -5.777874E+05 -1.445162E+05
        43   6 -8.542670E+06 -1.182964E+06 -3.468569E+05 -3.254829E+06 -2.662906E+05 -2.992991E+04
        43   7 -6.720172E+06 -1.164639E+06 -7.762561E+05 -2.082241E+06 -8.464485E+05 -2.973129E+05
        43   8 -6.284986E+06 -1.715198E+05  6.531915E+03 -2.589238E+06 -5.707805E+05 -1.419700E+05
        43   9 -6.348291E+06 -4.664646E+05  2.221797E+05 -2.775676E+06 -2.772195E+05 -3.398895E+04
        43  10 -1.065534E+07 -3.181423E+06 -1.966740E+06 -3.678809E+06  2.356451E-10 -7.392953E-10
        43  11 -1.043927E+07 -1.890105E+06 -1.141938E+06 -3.866428E+06  8.124651E-11 -1.122356E-09
        43  12 -1.073242E+07 -1.899477E+06 -9.164110E+05 -3.732570E+06  2.383568E-10 -4.306994E-09
        43  13 -8.690142E+06 -2.173816E+06 -1.372069E+06 -2.881948E+06  1.373227E-09  4.082826E-10
        43  14 -8.364428E+06 -1.031114E+06 -5.678302E+05 -3.228889E+06 -2.939964E-09  6.630736E-10
        43  15 -8.542747E+06 -1.182984E+06 -3.469939E+05 -3.254836E+06 -3.230511E-09 -2.043610E-09
        43  16 -6.720972E+06 -1.164930E+06 -7.777868E+05 -2.082445E+06 -2.428896E-09  6.758642E-10
        43  17 -6.285344E+06 -1.716305E+05  5.874081E+03 -2.589304E+06 -7.659015E-10 -8.150747E-10
        43  18 -6.348374E+06 -4.664868E+05  2.220315E+05 -2.775684E+06 -2.640256E-09 -2.758733E-09
        43  19 -1.065444E+07 -3.181093E+06 -1.965010E+06 -3.678578E+06  8.962764E+05  3.152997E+05
        43  20 -1.043889E+07 -1.889987E+06 -1.141241E+06 -3.866358E+06  5.847652E+05  1.470491E+05
        43  21 -1.073235E+07 -1.899458E+06 -9.162849E+05 -3.732565E+06  2.554031E+05  2.588148E+04
        43  22 -8.689291E+06 -2.173506E+06 -1.370441E+06 -2.881731E+06  8.714085E+05  3.063375E+05
        43  23 -8.364060E+06 -1.031000E+06 -5.671532E+05 -3.228821E+06  5.777874E+05  1.445162E+05
        43  24 -8.542670E+06 -1.182964E+06 -3.468569E+05 -3.254829E+06  2.662906E+05  2.992991E+04
        43  25 -6.720172E+06 -1.164639E+06 -7.762561E+05 -2.082241E+06  8.464485E+05  2.973129E+05
        43  26 -6.284986E+06 -1.715198E+05  6.531915E+03 -2.589238E+06  5.707805E+05  1.419700E+05
        43  27 -6.348291E+06 -4.664646E+05  2.221797E+05 -2.775676E+06  2.772195E+05  3.398895E+04
        44   1 -1.041920E+07 -2.111129E+06 -8.133560E+05 -3.744274E+06 -2.141771E+05 -1.984917E+04
        44   2 -1.030456E+07 -1.857349E+06 -6.250179E+05 -3.676030E+06 -1.418920E+05  6.766861E+03
        44   3 -1.015818E+07 -1.852043E+06 -5.320593E+05 -3.675286E+06 -6.717761E+04  2.685917E+04
        44   4 -8.481254E+06 -1.349776E+06 -2.833819E+05 -3.190944E+06 -2.134683E+05 -1.960955E+04
        44   5 -8.488608E+06 -1.165630E+06 -1.336659E+05 -3.179526E+06 -1.435681E+05  6.128032E+03
        44   6 -8.463571E+06 -1.229161E+06 -7.717734E+04 -3.235636E+06 -7.125813E+04  2.533842E+04
        44   7 -6.539619E+06 -5.881207E+05  2.462489E+05 -2.635995E+06 -2.127561E+05 -1.936852E+04
        44   8 -6.669430E+06 -4.737041E+05  3.573898E+05 -2.681680E+06 -1.452492E+05  5.487341E+03
        44   9 -6.766160E+06 -6.061524E+05  3.774506E+05 -2.794900E+06 -7.535088E+04  2.381339E+04
        44  10 -1.041925E+07 -2.111142E+06 -8.134445E+05 -3.744277E+06 -1.641090E-09 -3.385016E-09
        44  11 -1.030458E+07 -1.857354E+06 -6.250564E+05 -3.676029E+06  3.980822E-10 -1.210695E-09
        44  12 -1.015818E+07 -1.852045E+06 -5.320692E+05 -3.675284E+06 -9.646673E-10 -3.203541E-09
        44  13 -8.481304E+06 -1.349788E+06 -2.834695E+05 -3.190948E+06  1.281029E-09 -5.708205E-10
        44  14 -8.488631E+06 -1.165636E+06 -1.337052E+05 -3.179525E+06 -1.457706E-09 -2.630295E-09
        44  15 -8.463576E+06 -1.229163E+06 -7.718817E+04 -3.235635E+06  2.949607E-09 -3.336270E-09
        44  16 -6.539668E+06 -5.881335E+05  2.461622E+05 -2.635998E+06  1.061817E-09 -1.155462E-09
        44  17 -6.669453E+06 -4.737099E+05  3.573497E+05 -2.681679E+06  1.759404E-09 -9.649237E-10
        44  18 -6.766166E+06 -6.061545E+05  3.774388E+05 -2.794898E+06  4.665265E-09  9.480821E-10
        44  19 -1.041920E+07 -2.111129E+06 -8.133560E+05 -3.744274E+06  2.141771E+05  1.984917E+04
        44  20 -1.030456E+07 -1.857349E+06 -6.250179E+05 -3.676030E+06  1.418920E+05 -6.766861E+03
        44  21 -1.015818E+07 -1.852043E+06 -5.320593E+05 -3.675286E+06  6.717761E+04 -2.685917E+04
        44  22 -8.481254E+06 -1.349776E+06 -2.833819E+05 -3.190944E+06  2.134683E+05  1.960955E+04
        44  23 -8.488608E+06 -1.165630E+06 -1.336659E+05 -3.179526E+06  1.435681E+05 -6.128032E+03
        44  24 -8.463571E+06 -1.229161E+06 -7.717734E+04 -3.235636E+06  7.125813E+04 -2.533842E+04
        44  25 -6.539619E+06 -5.881207E+05  2.462489E+05 -2.635995E+06  2.127561E+05  1.936852E+04
        44  26 -6.669430E+06 -4.737041E+05  3.573898E+05 -2.681680E+06  1.452492E+05 -5.487341E+03
        44  27 -6.766160E+06 -6.061524E+05  3.774506E+05 -2.794900E+06  7.535088E+04 -2.381339E+04
        45   1 -9.792805E+06 -1.768608E+06 -4.239829E+05 -3.604252E+06 -5.527109E+04  2.535192E+04
        45   2 -9.640555E+06 -1.589585E+06 -3.339644E+05 -3.458505E+06 -3.572545E+04  2.331102E+04
        45   3 -9.344471E+06 -1.579955E+06 -2.609690E+05 -3.484088E+06 -1.554918E+04  1.949307E+04
        45   4 -8.445292E+06 -1.260169E+06 -6.086590E+04 -3.240586E+06 -5.823554E+04  2.424859E+04
        45   5 -8.516080E+06 -1.167844E+06 -3.107254E+04 -3.157729E+06 -3.936332E+04  2.196503E+04
        45   6 -8.442940E+06 -1.244734E+06 -1.772783E+04 -3.246202E+06 -1.986765E+04  1.790355E+04
        45   7 -7.096006E+06 -7.516258E+05  3.020879E+05 -2.876196E+06 -6.120705E+04  2.314262E+04
        45   8 -7.390369E+06 -7.460331E+05  2.717065E+05 -2.856453E+06 -4.300849E+04  2.061634E+04
        45   9 -7.540614E+06 -9.094709E+05  2.254414E+05 -3.008001E+06 -2.419309E+04  1.631150E+04
        45  10 -9.792808E+06 -1.768609E+06 -4.239899E+05 -3.604250E+06  3.197756E-09 -3.420873E-09
        45  11 -9.640557E+06 -1.589586E+06 -3.339678E+05 -3.458504E+06  1.782993E-09 -3.357783E-09
        45  12 -9.344472E+06 -1.579955E+06 -2.609702E+05 -3.484088E+06 -4.209543E-09 -3.352767E-09
        45  13 -8.445296E+06 -1.260171E+06 -6.087343E+04 -3.240585E+06  4.607270E-09 -3.907453E-10
        45  14 -8.516082E+06 -1.167845E+06 -3.107637E+04 -3.157728E+06 -3.576695E-09 -2.462420E-09
        45  15 -8.442941E+06 -1.244734E+06 -1.772917E+04 -3.246202E+06  3.889884E-09  5.700122E-09
        45  16 -7.096010E+06 -7.516274E+05  3.020798E+05 -2.876195E+06  1.669757E-09 -1.856348E-09
        45  17 -7.390371E+06 -7.460340E+05  2.717022E+05 -2.856453E+06  2.535901E-09  1.847958E-09
        45  18 -7.540615E+06 -9.094714E+05  2.254398E+05 -3.008001E+06  3.460885E-09  2.092285E-09
        45  19 -9.792805E+06 -1.768608E+06 -4.239829E+05 -3.604252E+06  5.527109E+04 -2.535192E+04
        45  20 -9.640555E+06 -1.589585E+06 -3.339644E+05 -3.458505E+06  3.572545E+04 -2.331102E+04
        45  21 -9.344471E+06 -1.579955E+06 -2.609690E+05 -3.484088E+06  1.554918E+04 -1.949307E+04
        45  22 -8.445292E+06 -1.260169E+06 -6.086590E+04 -3.240586E+06  5.823554E+04 -2.424859E+04
        45  23 -8.516080E+06 -1.167844E+06 -3.107254E+04 -3.157729E+06  3.936332E+04 -2.196503E+04
        45  24 -8.442940E+06 -1.244734E+06 -1.772783E+04 -3.246202E+06  1.986765E+04 -1.790355E+04
        45  25 -7.096006E+06 -7.516258E+05  3.020879E+05 -2.876196E+06  6.120705E+04 -2.314262E+04
        45  26 -7.390369E+06 -7.460331E+05  2.717065E+05 -2.856453E+06  4.300849E+04 -2.061634E+04
        45  27 -7.540614E+06 -9.094709E+05  2.254414E+05 -3.008001E+06  2.419309E+04 -1.631150E+04
        46   1 -8.885884E+06 -1.420561E+06 -1.339972E+05 -3.371570E+06 -1.076889E+04  1.413680E+04
        46   2 -8.708938E+06 -1.231669E+06 -5.820782E+04 -3.198137E+06 -2.472190E+03  5.084919E+03
        46   3 -8.357866E+06 -1.221483E+06  1.348043E+04 -3.231059E+06  5.915626E+03 -4.226601E+03
        46   4 -8.436849E+06 -1.252709E+06 -1.409693E+04 -3.251751E+06 -1.498053E+04  1.258986E+04
        46   5 -8.523744E+06 -1.162506E+06 -8.406266E+03 -3.148871E+06 -6.785287E+03  3.501812E+03
        46   6 -8.436561E+06 -1.250986E+06 -6.726928E+03 -3.252368E+06  1.498906E+03 -5.846327E+03
        46   7 -7.987617E+06 -1.084847E+06  1.057856E+05 -3.131852E+06 -1.919555E+04  1.104167E+04
        46   8 -8.338517E+06 -1.093341E+06  4.139225E+04 -3.099591E+06 -1.109981E+04  1.918181E+03
        46   9 -8.515250E+06 -1.280489E+06 -2.693466E+04 -3.273674E+06 -2.917185E+03 -7.465816E+03
        46  10 -8.885885E+06 -1.420561E+06 -1.339977E+05 -3.371570E+06 -3.999116E-09 -2.964813E-09
        46  11 -8.708938E+06 -1.231669E+06 -5.820788E+04 -3.198137E+06 -5.500602E-09 -9.811118E-09
        46  12 -8.357866E+06 -1.221483E+06  1.348033E+04 -3.231059E+06 -2.429531E-09 -8.143829E-09
        46  13 -8.436850E+06 -1.252710E+06 -1.409765E+04 -3.251750E+06 -7.424497E-09 -2.767286E-09
        46  14 -8.523744E+06 -1.162506E+06 -8.406376E+03 -3.148871E+06 -8.009331E-10  3.430179E-09
        46  15 -8.436561E+06 -1.250986E+06 -6.726996E+03 -3.252368E+06  1.560783E-09  1.768481E-09
        46  16 -7.987617E+06 -1.084847E+06  1.057847E+05 -3.131852E+06  3.396876E-09  5.362854E-09
        46  17 -8.338517E+06 -1.093341E+06  4.139201E+04 -3.099591E+06 -1.040443E-09  5.552485E-09
        46  18 -8.515250E+06 -1.280489E+06 -2.693478E+04 -3.273674E+06 -1.644411E-10 -4.939995E-09
        46  19 -8.885884E+06 -1.420561E+06 -1.339972E+05 -3.371570E+06  1.076889E+04 -1.413680E+04
        46  20 -8.708938E+06 -1.231669E+06 -5.820782E+04 -3.198137E+06  2.472190E+03 -5.084919E+03
        46  21 -8.357866E+06 -1.221483E+06  1.348043E+04 -3.231059E+06 -5.915626E+03  4.226601E+03
        46  22 -8.436849E+06 -1.252709E+06 -1.409693E+04 -3.251751E+06  1.498053E+04 -1.258986E+04
        46  23 -8.523744E+06 -1.162506E+06 -8.406266E+03 -3.148871E+06  6.785287E+03 -3.501812E+03
        46  24 -8.436561E+06 -1.250986E+06 -6.726928E+03 -3.252368E+06 -1.498906E+03  5.846327E+03
        46  25 -7.987617E+06 -1.084847E+06  1.057856E+05 -3.131852E+06  1.919555E+04 -1.104167E+04
        46  26 -8.338517E+06 -1.093341E+06  4.139225E+04 -3.099591E+06  1.109981E+04 -1.918181E+03
        46  27 -8.515250E+06 -1.280489E+06 -2.693466E+04 -3.273674E+06  2.917185E+03  7.465816E+03
        47   1 -7.889172E+06 -1.043223E+06  1.421019E+05 -3.103477E+06  9.387265E+03 -1.030622E+04
        47   2 -7.725382E+06 -8.687316E+05  2.053537E+05 -2.940838E+06  1.718210E+04 -1.941142E+04
        47   3 -7.397857E+06 -8.608204E+05  2.651989E+05 -2.969949E+06  2.463608E+04 -2.751616E+04
        47   4 -8.438964E+06 -1.248206E+06 -6.638433E+03 -3.249207E+06  4.968787E+03 -1.192822E+04
        47   5 -8.520974E+06 -1.166063E+06 -8.523290E+03 -3.152882E+06  1.315630E+04 -2.089444E+04
        47   6 -8.439381E+06 -1.250602E+06 -1.412831E+04 -3.248351E+06  2.100092E+04 -2.885998E+04
        47   7 -8.988463E+06 -1.453175E+06 -1.554062E+05 -3.394819E+06  5.546396E+02 -1.354863E+04
        47   8 -9.315950E+06 -1.463360E+06 -2.224568E+05 -3.364677E+06  9.136204E+03 -2.237536E+04
        47   9 -9.479845E+06 -1.640323E+06 -2.935516E+05 -3.526325E+06  1.737251E+04 -3.020130E+04
        47  10 -7.889172E+06 -1.043223E+06  1.421015E+05 -3.103477E+06 -3.315707E-09 -4.223736E-09
        47  11 -7.725382E+06 -8.687320E+05  2.053524E+05 -2.940838E+06 -2.319349E-09 -1.058542E-08
        47  12 -7.397858E+06 -8.608214E+05  2.651963E+05 -2.969949E+06 -8.455053E-11 -1.802097E-09
        47  13 -8.438964E+06 -1.248207E+06 -6.638746E+03 -3.249207E+06 -2.561417E-09 -8.423750E-09
        47  14 -8.520974E+06 -1.166063E+06 -8.524432E+03 -3.152882E+06  5.358495E-09  9.626611E-09
        47  15 -8.439381E+06 -1.250603E+06 -1.413070E+04 -3.248350E+06 -1.433847E-10  2.268022E-09
        47  16 -8.988463E+06 -1.453175E+06 -1.554065E+05 -3.394819E+06  3.776694E-09 -2.358767E-09
        47  17 -9.315950E+06 -1.463361E+06 -2.224579E+05 -3.364677E+06  1.811197E-09  8.419430E-09
        47  18 -9.479846E+06 -1.640324E+06 -2.935539E+05 -3.526324E+06 -7.886607E-10  1.408157E-09
        47  19 -7.889172E+06 -1.043223E+06  1.421019E+05 -3.103477E+06 -9.387265E+03  1.030622E+04
        47  20 -7.725382E+06 -8.687316E+05  2.053537E+05 -2.940838E+06 -1.718210E+04  1.941142E+04
        47  21 -7.397857E+06 -8.608204E+05  2.651989E+05 -2.969949E+06 -2.463608E+04  2.751616E+04
        47  22 -8.438964E+06 -1.248206E+06 -6.638433E+03 -3.249207E+06 -4.968787E+03  1.192822E+04
        47  23 -8.520974E+06 -1.166063E+06 -8.523290E+03 -3.152882E+06 -1.315630E+04  2.089444E+04
        47  24 -8.439381E+06 -1.250602E+06 -1.412831E+04 -3.248351E+06 -2.100092E+04  2.885998E+04
        47  25 -8.988463E+06 -1.453175E+06 -1.554062E+05 -3.394819E+06 -5.546396E+02  1.354863E+04
        47  26 -9.315950E+06 -1.463360E+06 -2.224568E+05 -3.364677E+06 -9.136204E+03  2.237536E+04
        47  27 -9.479845E+06 -1.640323E+06 -2.935516E+05 -3.526325E+06 -1.737251E+04  3.020130E+04
        48   1 -7.018065E+06 -7.033297E+05  3.678922E+05 -2.856397E+06  2.929796E+04 -3.192090E+04
        48   2 -6.903279E+06 -5.745320E+05  4.005013E+05 -2.737259E+06  4.736124E+04 -3.447854E+04
        48   3 -6.674590E+06 -5.811960E+05  4.180167E+05 -2.749252E+06  6.459983E+04 -3.470177E+04
        48   4 -8.449946E+06 -1.237710E+06 -1.766140E+04 -3.237225E+06  2.555976E+04 -3.330799E+04
        48   5 -8.507986E+06 -1.177641E+06 -3.135986E+04 -3.168794E+06  4.451501E+04 -3.554377E+04
        48   6 -8.452346E+06 -1.253276E+06 -6.089706E+04 -3.231527E+06  6.263986E+04 -3.544402E+04
        48   7 -9.879826E+06 -1.771981E+06 -4.033969E+05 -3.617251E+06  2.183112E+04 -3.469159E+04
        48   8 -1.011018E+07 -1.780606E+06 -4.634506E+05 -3.599308E+06  4.167687E+04 -3.660601E+04
        48   9 -1.022702E+07 -1.925170E+06 -5.400944E+05 -3.712538E+06  6.068595E+04 -3.618402E+04
        48  10 -7.018066E+06 -7.033310E+05  3.678887E+05 -2.856396E+06  1.028104E-09 -1.352043E-09
        48  11 -6.903282E+06 -5.745338E+05  4.004949E+05 -2.737258E+06  1.616757E-10  2.348692E-10
        48  12 -6.674595E+06 -5.811984E+05  4.180065E+05 -2.749250E+06 -6.161729E-10  8.216217E-10
        48  13 -8.449947E+06 -1.237711E+06 -1.766471E+04 -3.237224E+06 -1.606903E-09 -1.795772E-09
        48  14 -8.507988E+06 -1.177643E+06 -3.136597E+04 -3.168793E+06  9.932339E-10  6.360886E-10
        48  15 -8.452351E+06 -1.253279E+06 -6.090683E+04 -3.231526E+06 -5.367278E-09 -5.490061E-09
        48  16 -9.879827E+06 -1.771983E+06 -4.034000E+05 -3.617251E+06 -2.548372E-09  4.024751E-09
        48  17 -1.011018E+07 -1.780608E+06 -4.634564E+05 -3.599307E+06 -1.859087E-09 -8.769485E-10
        48  18 -1.022703E+07 -1.925173E+06 -5.401038E+05 -3.712536E+06  4.799871E-10  4.303893E-09
        48  19 -7.018065E+06 -7.033297E+05  3.678922E+05 -2.856397E+06 -2.929796E+04  3.192090E+04
        48  20 -6.903279E+06 -5.745320E+05  4.005013E+05 -2.737259E+06 -4.736124E+04  3.447854E+04
        48  21 -6.674590E+06 -5.811960E+05  4.180167E+05 -2.749252E+06 -6.459983E+04  3.470177E+04
        48  22 -8.449946E+06 -1.237710E+06 -1.766140E+04 -3.237225E+06 -2.555976E+04  3.330799E+04
        48  23 -8.507986E+06 -1.177641E+06 -3.135986E+04 -3.168794E+06 -4.451501E+04  3.554377E+04
        48  24 -8.452346E+06 -1.253276E+06 -6.089706E+04 -3.231527E+06 -6.263986E+04  3.544402E+04
        48  25 -9.879826E+06 -1.771981E+06 -4.033969E+05 -3.617251E+06 -2.183112E+04  3.469159E+04
        48  26 -1.011018E+07 -1.780606E+06 -4.634506E+05 -3.599308E+06 -4.167687E+04  3.660601E+04
        48  27 -1.022702E+07 -1.925170E+06 -5.400944E+05 -3.712538E+06 -6.068595E+04  3.618402E+04
        49   1 -6.459969E+06 -4.738837E+05  4.628746E+05 -2.693522E+06  7.805785E+04 -3.378477E+04
        49   2 -6.412028E+06 -3.911927E+05  4.236289E+05 -2.626997E+06  1.470869E+05 -1.242540E+04
        49   3 -6.377089E+06 -5.073047E+05  2.935832E+05 -2.571616E+06  2.136922E+05  1.543528E+04
        49   4 -8.473996E+06 -1.219109E+06 -7.729392E+04 -3.223063E+06  7.506884E+04 -3.491393E+04
        49   5 -8.476077E+06 -1.179328E+06 -1.340724E+05 -3.195067E+06  1.464747E+05 -1.267369E+04
        49   6 -8.491863E+06 -1.339184E+06 -2.837962E+05 -3.178184E+06  2.154464E+05  1.606934E+04
        49   7 -1.048407E+07 -1.964140E+06 -6.178214E+05 -3.751049E+06  7.209035E+04 -3.603937E+04
        49   8 -1.053597E+07 -1.967190E+06 -6.921561E+05 -3.761399E+06  1.458640E+05 -1.292142E+04
        49   9 -1.060226E+07 -2.170702E+06 -8.615837E+05 -3.782824E+06  2.171929E+05  1.670020E+04
        49  10 -6.459976E+06 -4.738865E+05  4.628610E+05 -2.693520E+06  3.376915E-09  2.568761E-09
        49  11 -6.412051E+06 -3.911988E+05  4.235876E+05 -2.626996E+06  1.848440E-09 -5.666261E-10
        49  12 -6.377138E+06 -5.073174E+05  2.934960E+05 -2.571619E+06  1.233329E-09  1.773111E-09
        49  13 -8.474002E+06 -1.219112E+06 -7.730687E+04 -3.223061E+06  5.717797E-10  1.893607E-09
        49  14 -8.476101E+06 -1.179334E+06 -1.341135E+05 -3.195065E+06  1.168818E-09 -6.419885E-10
        49  15 -8.491913E+06 -1.339197E+06 -2.838851E+05 -3.178187E+06 -2.764840E-10  1.875801E-09
        49  16 -1.048408E+07 -1.964143E+06 -6.178337E+05 -3.751047E+06 -3.979451E-09  4.219150E-10
        49  17 -1.053599E+07 -1.967196E+06 -6.921970E+05 -3.761397E+06 -3.580442E-09 -1.623069E-09
        49  18 -1.060231E+07 -2.170716E+06 -8.616744E+05 -3.782827E+06  7.454957E-10  2.403719E-09
        49  19 -6.459969E+06 -4.738837E+05  4.628746E+05 -2.693522E+06 -7.805785E+04  3.378477E+04
        49  20 -6.412028E+06 -3.911927E+05  4.236289E+05 -2.626997E+06 -1.470869E+05  1.242540E+04
        49  21 -6.377089E+06 -5.073047E+05  2.935832E+05 -2.571616E+06 -2.136922E+05 -1.543528E+04
        49  22 -8.473996E+06 -1.219109E+06 -7.729392E+04 -3.223063E+06 -7.506884E+04  3.491393E+04
        49  23 -8.476077E+06 -1.179328E+06 -1.340724E+05 -3.195067E+06 -1.464747E+05  1.267369E+04
        49  24 -8.491863E+06 -1.339184E+06 -2.837962E+05 -3.178184E+06 -2.154464E+05 -1.606934E+04
        49  25 -1.048407E+07 -1.964140E+06 -6.178214E+05 -3.751049E+06 -7.209035E+04  3.603937E+04
        49  26 -1.053597E+07 -1.967190E+06 -6.921561E+05 -3.761399E+06 -1.458640E+05  1.292142E+04
        49  27 -1.060226E+07 -2.170702E+06 -8.615837E+05 -3.782824E+06 -2.171929E+05 -1.670020E+04
        50   1 -6.322675E+06 -4.374594E+05  2.320416E+05 -2.747646E+06  2.762867E+05  3.233196E+04
        50   2 -6.310410E+06 -1.961283E+05 -4.299294E+03 -2.612493E+06  5.703341E+05  1.451450E+05
        50   3 -6.853015E+06 -1.191306E+06 -8.102292E+05 -2.094803E+06  8.477189E+05  3.015417E+05
        50   4 -8.554375E+06 -1.171803E+06 -3.475579E+05 -3.241933E+06  2.674040E+05  2.900966E+04
        50   5 -8.348892E+06 -1.045334E+06 -5.681306E+05 -3.245504E+06  5.778968E+05  1.479263E+05
        50   6 -8.703279E+06 -2.161385E+06 -1.372905E+06 -2.865973E+06  8.717879E+05  3.103058E+05
        50   7 -1.078122E+07 -1.906128E+06 -9.275645E+05 -3.734729E+06  2.585553E+05  2.569621E+04
        50   8 -1.038328E+07 -1.894047E+06 -1.132350E+06 -3.876523E+06  5.854289E+05  1.506935E+05
        50   9 -1.055000E+07 -3.130230E+06 -1.935918E+06 -3.634725E+06  8.957733E+05  3.190114E+05
        50  10 -6.322758E+06 -4.374813E+05  2.318946E+05 -2.747653E+06  3.660211E-09  4.762330E-10
        50  11 -6.310768E+06 -1.962398E+05 -4.957942E+03 -2.612560E+06  1.219692E-09 -8.706916E-09
        50  12 -6.853819E+06 -1.191600E+06 -8.117692E+05 -2.095010E+06 -4.768800E-09 -3.085429E-09
        50  13 -8.554453E+06 -1.171823E+06 -3.476958E+05 -3.241940E+06  4.041948E-09  8.304043E-10
        50  14 -8.349261E+06 -1.045450E+06 -5.688097E+05 -3.245573E+06 -4.858627E-09 -1.591872E-09
        50  15 -8.704132E+06 -2.161697E+06 -1.374539E+06 -2.866193E+06  8.310901E-10 -8.370701E-10
        50  16 -1.078129E+07 -1.906148E+06 -9.276937E+05 -3.734734E+06 -1.304714E-09  6.350611E-10
        50  17 -1.038366E+07 -1.894166E+06 -1.133050E+06 -3.876595E+06 -4.289469E-09  9.825124E-10
        50  18 -1.055091E+07 -3.130562E+06 -1.937650E+06 -3.634959E+06 -5.333107E-10 -1.127171E-11
        50  19 -6.322675E+06 -4.374594E+05  2.320416E+05 -2.747646E+06 -2.762867E+05 -3.233196E+04
        50  20 -6.310410E+06 -1.961283E+05 -4.299294E+03 -2.612493E+06 -5.703341E+05 -1.451450E+05
        50  21 -6.853015E+06 -1.191306E+06 -8.102292E+05 -2.094803E+06 -8.477189E+05 -3.015417E+05
        50  22 -8.554375E+06 -1.171803E+06 -3.475579E+05 -3.241933E+06 -2.674040E+05 -2.900966E+04
        50  23 -8.348892E+06 -1.045334E+06 -5.681306E+05 -3.245504E+06 -5.778968E+05 -1.479263E+05
        50  24 -8.703279E+06 -2.161385E+06 -1.372905E+06 -2.865973E+06 -8.717879E+05 -3.103058E+05
        50  25 -1.078122E+07 -1.906128E+06 -9.275645E+05 -3.734729E+06 -2.585553E+05 -2.569621E+04
        50  26 -1.038328E+07 -1.894047E+06 -1.132350E+06 -3.876523E+06 -5.854289E+05 -1.506935E+05
        50  27 -1.055000E+07 -3.130230E+06 -1.935918E+06 -3.634725E+06 -8.957733E+05 -3.190114E+05
        51   1 -1.618197E+06 -2.438407E+05 -1.979348E+05 -1.057277E+04  1.150938E+05  1.515275E+04
        51   2 -1.560974E+06 -4.014958E+05 -2.799575E+05 -2.089604E+03  8.253857E+04  4.372285E+04
        51   3 -1.445851E+06 -3.623914E+05 -2.907284E+05 -6.830926E+04  5.016220E+04  4.015354E+04
        51   4 -2.169976E+04  1.542447E+05  1.973767E+05 -4.624858E+04  1.346619E+05  1.526038E+04
        51   5 -5.178348E+04 -2.637918E+04  8.549018E+04 -8.439635E+03  8.814791E+04  4.374240E+04
        51   6 -2.167928E+04 -8.075025E+03  5.442365E+04 -4.531955E+04  4.181837E+04  4.011644E+04
        51   7  1.577122E+06  5.521453E+05  5.925008E+05 -8.201980E+04  1.542801E+05  1.536562E+04
        51   8  1.459492E+06  3.485708E+05  4.507742E+05 -1.480777E+04  9.377066E+04  4.376182E+04
        51   9  1.404349E+06  3.460943E+05  3.994300E+05 -2.227858E+04  3.345534E+04  4.007876E+04
        51  10 -1.618212E+06 -2.438445E+05 -1.979602E+05 -1.057418E+04 -1.412598E-09  2.252105E-09
        51  11 -1.560982E+06 -4.014997E+05 -2.799740E+05 -2.092513E+03 -1.513249E-09 -1.303614E-09
        51  12 -1.445854E+06 -3.623938E+05 -2.907361E+05 -6.831088E+04 -9.474782E-10  5.827758E-10
        51  13 -2.171930E+04  1.542396E+05  1.973421E+05 -4.625023E+04  2.148634E-09  8.967422E-10
        51  14 -5.179234E+04 -2.638332E+04  8.547199E+04 -8.442740E+03 -2.790472E-09 -6.302204E-09
        51  15 -2.168159E+04 -8.077223E+03  5.441733E+04 -4.532090E+04  9.578658E-10  1.077742E-10
        51  16  1.577096E+06  5.521387E+05  5.924558E+05 -8.202171E+04  3.015821E-10 -4.165596E-10
        51  17  1.459482E+06  3.485664E+05  4.507541E+05 -1.481107E+04 -4.763831E-10 -6.690296E-10
        51  18  1.404348E+06  3.460922E+05  3.994249E+05 -2.227966E+04  1.431667E-09 -2.287097E-09
        51  19 -1.618197E+06 -2.438407E+05 -1.979348E+05 -1.057277E+04 -1.150938E+05 -1.515275E+04
        51  20 -1.560974E+06 -4.014958E+05 -2.799575E+05 -2.089604E+03 -8.253857E+04 -4.372285E+04
        51  21 -1.445851E+06 -3.623914E+05 -2.907284E+05 -6.830926E+04 -5.016220E+04 -4.015354E+04
        51  22 -2.169976E+04  1.542447E+05  1.973767E+05 -4.624858E+04 -1.346619E+05 -1.526038E+04
        51  23 -5.178348E+04 -2.637918E+04  8.549018E+04 -8.439635E+03 -8.814791E+04 -4.374240E+04
        51  24 -2.167928E+04 -8.075025E+03  5.442365E+04 -4.531955E+04 -4.181837E+04 -4.011644E+04
        51  25  1.577122E+06  5.521453E+05  5.925008E+05 -8.201980E+04 -1.542801E+05 -1.536562E+04
        51  26  1.459492E+06  3.485708E+05  4.507742E+05 -1.480777E+04 -9.377066E+04 -4.376182E+04
        51  27  1.404349E+06  3.460943E+05  3.994300E+05 -2.227858E+04 -3.345534E+04 -4.007876E+04
        52   1 -1.318164E+06 -3.024045E+05 -2.677175E+05 -4.440338E+04  3.276527E+04  3.345642E+04
        52   2 -1.237192E+06 -3.016574E+05 -2.687320E+05 -9.455467E+03  2.259170E+04  3.297040E+04
        52   3 -1.146502E+06 -2.781137E+05 -2.568567E+05 -4.923508E+04  1.241738E+04  2.964077E+04
        52   4 -3.273807E+04  1.731132E+04  4.451109E+04 -4.564565E+04  3.323020E+04  3.345325E+04
        52   5 -3.768341E+04 -3.400626E+03  2.211580E+04 -8.257607E+03  2.180919E+04  3.296422E+04
        52   6 -3.271165E+04 -1.121902E+03  1.345892E+04 -4.558779E+04  1.038885E+04  2.963395E+04
        52   7  1.254198E+06  3.369057E+05  3.566203E+05 -4.689170E+04  3.369603E+04  3.345008E+04
        52   8  1.163141E+06  2.947505E+05  3.128598E+05 -7.058248E+03  2.102514E+04  3.295804E+04
        52   9  1.082213E+06  2.757788E+05  2.836850E+05 -4.193436E+04  8.356680E+03  2.962711E+04
        52  10 -1.318165E+06 -3.024060E+05 -2.677217E+05 -4.440427E+04 -3.799137E-09 -1.696544E-09
        52  11 -1.237193E+06 -3.016587E+05 -2.687350E+05 -9.456068E+03 -5.307696E-09  8.395563E-10
        52  12 -1.146503E+06 -2.781147E+05 -2.568586E+05 -4.923538E+04 -8.359620E-10 -2.322088E-09
        52  13 -3.273955E+04  1.730983E+04  4.450691E+04 -4.564654E+04 -2.146571E-09 -8.569917E-10
        52  14 -3.768422E+04 -3.401921E+03  2.211287E+04 -8.258186E+03  1.799472E-09 -7.580396E-10
        52  15 -3.271200E+04 -1.122874E+03  1.345707E+04 -4.558804E+04  6.089234E-10 -3.062352E-09
        52  16  1.254197E+06  3.369042E+05  3.566160E+05 -4.689261E+04  6.801313E-09  9.600672E-10
        52  17  1.163141E+06  2.947492E+05  3.128570E+05 -7.058806E+03 -3.989177E-09 -3.234868E-09
        52  18  1.082213E+06  2.757778E+05  2.836832E+05 -4.193456E+04  1.837620E-09 -2.311904E-09
        52  19 -1.318164E+06 -3.024045E+05 -2.677175E+05 -4.440338E+04 -3.276527E+04 -3.345642E+04
        52  20 -1.237192E+06 -3.016574E+05 -2.687320E+05 -9.455467E+03 -2.259170E+04 -3.297040E+04
        52  21 -1.146502E+06 -2.781137E+05 -2.568567E+05 -4.923508E+04 -1.241738E+04 -2.964077E+04
        52  22 -3.273807E+04  1.731132E+04  4.451109E+04 -4.564565E+04 -3.323020E+04 -3.345325E+04
        52  23 -3.768341E+04 -3.400626E+03  2.211580E+04 -8.257607E+03 -2.180919E+04 -3.296422E+04
        52  24 -3.271165E+04 -1.121902E+03  1.345892E+04 -4.558779E+04 -1.038885E+04 -2.963395E+04
        52  25  1.254198E+06  3.369057E+05  3.566203E+05 -4.689170E+04 -3.369603E+04 -3.345008E+04
        52  26  1.163141E+06  2.947505E+05  3.128598E+05 -7.058248E+03 -2.102514E+04 -3.295804E+04
        52  27  1.082213E+06  2.757788E+05  2.836850E+05 -4.193436E+04 -8.356680E+03 -2.962711E+04
        53   1 -1.008747E+06 -2.405413E+05 -2.255632E+05 -4.620754E+04  9.496443E+03  2.730054E+04
        53   2 -9.239298E+05 -2.214183E+05 -2.098711E+05 -8.593810E+03  6.806006E+03  2.425556E+04
        53   3 -8.367635E+05 -1.996834E+05 -1.914929E+05 -4.591168E+04  4.108491E+03  2.095724E+04
        53   4 -3.430543E+04  1.687035E+03  1.052398E+04 -4.565228E+04  8.247391E+03  2.729618E+04
        53   5 -3.547527E+04 -5.403838E+02  5.549470E+03 -8.188705E+03  5.443597E+03  2.425240E+04
        53   6 -3.428515E+04 -1.376422E+02  3.337159E+03 -4.565011E+04  2.633093E+03  2.095547E+04
        53   7  9.410043E+05  2.438457E+05  2.465428E+05 -4.509638E+04  6.996375E+03  2.729181E+04
        53   8  8.537009E+05  2.202796E+05  2.209131E+05 -7.783133E+03  4.079237E+03  2.424924E+04
        53   9  7.687817E+05  1.993608E+05  1.981207E+05 -4.538819E+04  1.155790E+03  2.095370E+04
        53  10 -1.008747E+06 -2.405421E+05 -2.255648E+05 -4.620775E+04 -2.034984E-09 -8.012423E-11
        53  11 -9.239300E+05 -2.214190E+05 -2.098723E+05 -8.593943E+03 -5.048978E-09  2.607040E-10
        53  12 -8.367636E+05 -1.996839E+05 -1.914937E+05 -4.591175E+04  6.249709E-11  1.626018E-10
        53  13 -3.430570E+04  1.686217E+03  1.052246E+04 -4.565246E+04 -2.149693E-09 -1.571116E-09
        53  14 -3.547546E+04 -5.410234E+02  5.548309E+03 -8.188812E+03 -3.335244E-09  1.424026E-09
        53  15 -3.428528E+04 -1.381156E+02  3.336321E+03 -4.565016E+04  6.468046E-09 -1.535495E-11
        53  16  9.410041E+05  2.438449E+05  2.465413E+05 -4.509653E+04  3.510414E-09 -2.175541E-09
        53  17  8.537007E+05  2.202790E+05  2.209120E+05 -7.783213E+03 -8.035238E-10  1.635435E-10
        53  18  7.687816E+05  1.993603E+05  1.981199E+05 -4.538821E+04  2.981475E-09  2.139376E-10
        53  19 -1.008747E+06 -2.405413E+05 -2.255632E+05 -4.620754E+04 -9.496443E+03 -2.730054E+04
        53  20 -9.239298E+05 -2.214183E+05 -2.098711E+05 -8.593810E+03 -6.806006E+03 -2.425556E+04
        53  21 -8.367635E+05 -1.996834E+05 -1.914929E+05 -4.591168E+04 -4.108491E+03 -2.095724E+04
        53  22 -3.430543E+04  1.687035E+03  1.052398E+04 -4.565228E+04 -8.247391E+03 -2.729618E+04
        53  23 -3.547527E+04 -5.403838E+02  5.549470E+03 -8.188705E+03 -5.443597E+03 -2.425240E+04
        53  24 -3.428515E+04 -1.376422E+02  3.337159E+03 -4.565011E+04 -2.633093E+03 -2.095547E+04
        53  25  9.410043E+05  2.438457E+05  2.465428E+05 -4.509638E+04 -6.996375E+03 -2.729181E+04
        53  26  8.537009E+05  2.202796E+05  2.209131E+05 -7.783133E+03 -4.079237E+03 -2.424924E+04
        53  27  7.687817E+05  1.993608E+05  1.981207E+05 -4.538819E+04 -1.155790E+03 -2.095370E+04
        54   1 -6.974261E+05 -1.645977E+05 -1.579141E+05 -4.554382E+04  3.506424E+03  1.900110E+04
        54   2 -6.115617E+05 -1.434345E+05 -1.384797E+05 -7.898360E+03  2.855461E+03  1.572643E+04
        54   3 -5.251196E+05 -1.218888E+05 -1.184447E+05 -4.529290E+04  2.199840E+03  1.242878E+04
        54   4 -3.462221E+04  1.071390E+02  2.515100E+03 -4.567528E+04  2.099292E+03  1.900019E+04
        54   5 -3.490195E+04 -9.825128E+01  1.317454E+03 -8.157408E+03  1.437674E+03  1.572642E+04
        54   6 -3.460897E+04  8.120490E+01  7.277784E+02 -4.567524E+04  7.714870E+02  1.242971E+04
        54   7  6.285834E+05  1.647798E+05  1.629127E+05 -4.580683E+04  6.906602E+02  1.899927E+04
        54   8  5.420617E+05  1.432136E+05  1.410906E+05 -8.416646E+03  1.857175E+01  1.572642E+04
        54   9  4.561215E+05  1.220335E+05  1.198829E+05 -4.605781E+04 -6.579918E+02  1.243065E+04
        54  10 -6.974262E+05 -1.645981E+05 -1.579148E+05 -4.554387E+04 -1.515840E-09 -3.411994E-10
        54  11 -6.115617E+05 -1.434348E+05 -1.384801E+05 -7.898396E+03 -5.444451E-09  1.577222E-10
        54  12 -5.251197E+05 -1.218889E+05 -1.184450E+05 -4.529292E+04  2.881261E-10  5.441967E-10
        54  13 -3.462232E+04  1.067502E+02  2.514413E+03 -4.567531E+04  2.168881E-09 -2.115492E-10
        54  14 -3.490201E+04 -9.851741E+01  1.316986E+03 -8.157426E+03  7.449353E-11 -9.594269E-10
        54  15 -3.460901E+04  8.103884E+01  7.274869E+02 -4.567525E+04 -3.141897E-10 -1.118241E-09
        54  16  6.285833E+05  1.647794E+05  1.629120E+05 -4.580684E+04  2.822269E-09 -7.630496E-10
        54  17  5.420617E+05  1.432133E+05  1.410901E+05 -8.416646E+03 -1.542085E-09  2.629198E-11
        54  18  4.561214E+05  1.220333E+05  1.198826E+05 -4.605780E+04 -1.112020E-09 -1.364488E-09
        54  19 -6.974261E+05 -1.645977E+05 -1.579141E+05 -4.554382E+04 -3.506424E+03 -1.900110E+04
        54  20 -6.115617E+05 -1.434345E+05 -1.384797E+05 -7.898360E+03 -2.855461E+03 -1.572643E+04
        54  21 -5.251196E+05 -1.218888E+05 -1.184447E+05 -4.529290E+04 -2.199840E+03 -1.242878E+04
        54  22 -3.462221E+04  1.071390E+02  2.515100E+03 -4.567528E+04 -2.099292E+03 -1.900019E+04
        54  23 -3.490195E+04 -9.825128E+01  1.317454E+03 -8.157408E+03 -1.437674E+03 -1.572642E+04
        54  24 -3.460897E+04  8.120490E+01  7.277784E+02 -4.567524E+04 -7.714870E+02 -1.242971E+04
        54  25  6.285834E+05  1.647798E+05  1.629127E+05 -4.580683E+04 -6.906602E+02 -1.899927E+04
        54  26  5.420617E+05  1.432136E+05  1.410906E+05 -8.416646E+03 -1.857175E+01 -1.572642E+04
        54  27  4.561215E+05  1.220335E+05  1.198829E+05 -4.605781E+04  6.579918E+02 -1.243065E+04
        55   1 -3.853564E+05 -8.701383E+04 -8.426052E+04 -4.538333E+04  2.083760E+03  1.050347E+04
        55   2 -2.990490E+05 -6.568579E+04 -6.400825E+04 -7.872168E+03  2.041034E+03  7.205595E+03
        55   3 -2.128488E+05 -4.421509E+04 -4.372640E+04 -4.546254E+04  1.996223E+03  3.915911E+03
        55   4 -3.472687E+04  7.497122E+01  4.640250E+02 -4.568943E+04  6.581260E+02  1.050490E+04
        55   5 -3.466720E+04  1.773533E+01  7.300001E+01 -8.139654E+03  6.188163E+02  7.207426E+03
        55   6 -3.472080E+04  1.034327E+02 -2.900814E+02 -4.568942E+04  5.774263E+02  3.918170E+03
        55   7  3.160151E+05  8.715478E+04  8.517977E+04 -4.599568E+04 -7.683111E+02  1.050632E+04
        55   8  2.297785E+05  6.571614E+04  6.414922E+04 -8.407232E+03 -8.040058E+02  7.209258E+03
        55   9  1.434361E+05  4.441961E+04  4.314394E+04 -4.591635E+04 -8.417762E+02  3.920430E+03
        55  10 -3.853565E+05 -8.701395E+04 -8.426074E+04 -4.538334E+04  1.410584E-09 -6.681392E-11
        55  11 -2.990490E+05 -6.568585E+04 -6.400835E+04 -7.872180E+03 -1.530679E-10 -6.039090E-10
        55  12 -2.128488E+05 -4.421510E+04 -4.372644E+04 -4.546255E+04 -1.908850E-09  1.261670E-09
        55  13 -3.472690E+04  7.485260E+01  4.638168E+02 -4.568944E+04  2.167642E-09  9.434272E-10
        55  14 -3.466722E+04  1.767944E+01  7.290168E+01 -8.139658E+03  2.350908E-09  1.829546E-09
        55  15 -3.472080E+04  1.034161E+02 -2.901108E+02 -4.568942E+04 -1.957811E-09 -8.625787E-10
        55  16  3.160151E+05  8.715466E+04  8.517956E+04 -4.599567E+04  2.443924E-10 -7.057213E-10
        55  17  2.297785E+05  6.571608E+04  6.414912E+04 -8.407227E+03 -2.532337E-09  1.383666E-09
        55  18  1.434361E+05  4.441960E+04  4.314391E+04 -4.591634E+04  2.082140E-09  7.296136E-10
        55  19 -3.853564E+05 -8.701383E+04 -8.426052E+04 -4.538333E+04 -2.083760E+03 -1.050347E+04
        55  20 -2.990490E+05 -6.568579E+04 -6.400825E+04 -7.872168E+03 -2.041034E+03 -7.205595E+03
        55  21 -2.128488E+05 -4.421509E+04 -4.372640E+04 -4.546254E+04 -1.996223E+03 -3.915911E+03
        55  22 -3.472687E+04  7.497122E+01  4.640250E+02 -4.568943E+04 -6.581260E+02 -1.050490E+04
        55  23 -3.466720E+04  1.773533E+01  7.300001E+01 -8.139654E+03 -6.188163E+02 -7.207426E+03
        55  24 -3.472080E+04  1.034327E+02 -2.900814E+02 -4.568942E+04 -5.774263E+02 -3.918170E+03
        55  25  3.160151E+05  8.715478E+04  8.517977E+04 -4.599568E+04  7.683111E+02 -1.050632E+04
        55  26  2.297785E+05  6.571614E+04  6.414922E+04 -8.407232E+03  8.040058E+02 -7.209258E+03
        55  27  1.434361E+05  4.441961E+04  4.314394E+04 -4.591635E+04  8.417762E+02 -3.920430E+03
        56   1 -7.291057E+04 -9.261975E+03 -9.472833E+03 -4.571365E+04  2.096267E+03  1.975860E+03
        56   2  1.359808E+04  1.206973E+04  1.064318E+04 -8.181041E+03  2.555068E+03 -1.325552E+03
        56   3  9.967933E+04  3.307492E+04  3.031545E+04 -4.576576E+04  3.014512E+03 -4.501254E+03
        56   4 -3.478564E+04  1.583194E+02 -4.977568E+02 -4.569320E+04  6.432919E+02  1.978304E+03
        56   5 -3.456369E+04  1.034405E+02 -1.025758E+03 -8.134718E+03  1.156251E+03 -1.323288E+03
        56   6 -3.478676E+04 -2.872121E+02 -2.035075E+03 -4.569392E+04  1.669789E+03 -4.499140E+03
        56   7  3.340640E+03  9.578511E+03  8.477228E+03 -4.567275E+04 -8.097721E+02  1.980748E+03
        56   8 -8.272333E+04 -1.186302E+04 -1.269485E+04 -8.088397E+03 -2.424588E+02 -1.321023E+03
        56   9 -1.692363E+05 -3.365066E+04 -3.438688E+04 -4.562209E+04  3.253564E+02 -4.497025E+03
        56  10 -7.291058E+04 -9.261980E+03 -9.472849E+03 -4.571365E+04 -4.231499E-09  2.600254E-09
        56  11  1.359808E+04  1.206973E+04  1.064316E+04 -8.181039E+03 -3.709716E-09 -1.229492E-09
        56  12  9.967932E+04  3.307490E+04  3.031539E+04 -4.576575E+04  6.022722E-10 -8.198754E-10
        56  13 -3.478564E+04  1.583151E+02 -4.977650E+02 -4.569320E+04 -1.193883E-11 -3.129993E-10
        56  14 -3.456369E+04  1.034382E+02 -1.025764E+03 -8.134717E+03 -1.964667E-09 -2.766377E-09
        56  15 -3.478677E+04 -2.872346E+02 -2.035118E+03 -4.569392E+04  4.927766E-10 -4.395051E-10
        56  16  3.340638E+03  9.578506E+03  8.477219E+03 -4.567275E+04  4.246201E-09  2.032926E-09
        56  17 -8.272333E+04 -1.186302E+04 -1.269486E+04 -8.088398E+03  4.416712E-10 -2.497762E-09
        56  18 -1.692363E+05 -3.365069E+04 -3.438691E+04 -4.562209E+04  2.998229E-09 -1.876623E-09
        56  19 -7.291057E+04 -9.261975E+03 -9.472833E+03 -4.571365E+04 -2.096267E+03 -1.975860E+03
        56  20  1.359808E+04  1.206973E+04  1.064318E+04 -8.181041E+03 -2.555068E+03  1.325552E+03
        56  21  9.967933E+04  3.307492E+04  3.031545E+04 -4.576576E+04 -3.014512E+03  4.501254E+03
        56  22 -3.478564E+04  1.583194E+02 -4.977568E+02 -4.569320E+04 -6.432919E+02 -1.978304E+03
        56  23 -3.456369E+04  1.034405E+02 -1.025758E+03 -8.134718E+03 -1.156251E+03  1.323288E+03
        56  24 -3.478676E+04 -2.872121E+02 -2.035075E+03 -4.569392E+04 -1.669789E+03  4.499140E+03
        56  25  3.340640E+03  9.578511E+03  8.477228E+03 -4.567275E+04  8.097721E+02 -1.980748E+03
        56  26 -8.272333E+04 -1.186302E+04 -1.269485E+04 -8.088397E+03  2.424588E+02  1.321023E+03
        56  27 -1.692363E+05 -3.365066E+04 -3.438688E+04 -4.562209E+04 -3.253564E+02  4.497025E+03
        57   1  2.394746E+05  6.855629E+04  6.415249E+04 -4.646150E+04  3.810705E+03 -6.630568E+03
        57   2  3.264270E+05  9.020878E+04  8.296385E+04 -8.256569E+03  5.464231E+03 -9.934497E+03
        57   3  4.120615E+05  1.075389E+05  9.960948E+04 -4.510730E+04  7.122162E+03 -1.181654E+04
        57   4 -3.502294E+04  3.108895E+02 -2.600532E+03 -4.567887E+04  2.075979E+03 -6.628089E+03
        57   5 -3.431097E+04  5.991585E+02 -4.412433E+03 -8.151729E+03  4.342756E+03 -9.933469E+03
        57   6 -3.503132E+04 -3.542436E+03 -8.816618E+03 -4.568306E+04  6.613709E+03 -1.181658E+04
        57   7 -3.094517E+05 -6.794006E+04 -6.935901E+04 -4.489657E+04  3.420175E+02 -6.625614E+03
        57   8 -3.949301E+05 -8.902000E+04 -9.179808E+04 -8.046913E+03  3.221929E+03 -9.932442E+03
        57   9 -4.819417E+05 -1.146385E+05 -1.172571E+05 -4.625835E+04  6.105620E+03 -1.181662E+04
        57  10  2.394746E+05  6.855624E+04  6.415238E+04 -4.646148E+04  1.215403E-10 -1.847503E-09
        57  11  3.264269E+05  9.020867E+04  8.296361E+04 -8.256525E+03  1.762833E-09  8.434369E-10
        57  12  4.120614E+05  1.075388E+05  9.960912E+04 -4.510724E+04  5.344689E-09  4.528223E-10
        57  13 -3.502296E+04  3.108412E+02 -2.600623E+03 -4.567886E+04  1.601019E-13 -3.045197E-12
        57  14 -3.431101E+04  5.990475E+02 -4.412654E+03 -8.151694E+03  1.551094E-10  8.479134E-10
        57  15 -3.503140E+04 -3.542598E+03 -8.816962E+03 -4.568300E+04  2.396715E-09  4.676504E-10
        57  16 -3.094517E+05 -6.794010E+04 -6.935909E+04 -4.489657E+04  4.037148E-10  1.658626E-10
        57  17 -3.949301E+05 -8.902011E+04 -9.179828E+04 -8.046887E+03 -7.993638E-10  2.143824E-09
        57  18 -4.819418E+05 -1.146386E+05 -1.172575E+05 -4.625829E+04 -1.848852E-09 -4.916519E-10
        57  19  2.394746E+05  6.855629E+04  6.415249E+04 -4.646150E+04 -3.810705E+03  6.630568E+03
        57  20  3.264270E+05  9.020878E+04  8.296385E+04 -8.256569E+03 -5.464231E+03  9.934497E+03
        57  21  4.120615E+05  1.075389E+05  9.960948E+04 -4.510730E+04 -7.122162E+03  1.181654E+04
        57  22 -3.502294E+04  3.108895E+02 -2.600532E+03 -4.567887E+04 -2.075979E+03  6.628089E+03
        57  23 -3.431097E+04  5.991585E+02 -4.412433E+03 -8.151729E+03 -4.342756E+03  9.933469E+03
        57  24 -3.503132E+04 -3.542436E+03 -8.816618E+03 -4.568306E+04 -6.613709E+03  1.181658E+04
        57  25 -3.094517E+05 -6.794006E+04 -6.935901E+04 -4.489657E+04 -3.420175E+02  6.625614E+03
        57  26 -3.949301E+05 -8.902000E+04 -9.179808E+04 -8.046913E+03 -3.221929E+03  9.932442E+03
        57  27 -4.819417E+05 -1.146385E+05 -1.172571E+05 -4.625835E+04 -6.105620E+03  1.181662E+04
        58   1  5.500577E+05  1.473768E+05  1.314777E+05 -4.969556E+04  1.321006E+04 -1.608248E+04
        58   2  6.410015E+05  1.720573E+05  1.456098E+05 -6.030698E+03  1.552739E+04 -1.941055E+04
        58   3  7.227961E+05  1.587451E+05  1.488679E+05 -3.699376E+04  1.784689E+04 -6.704158E+03
        58   4 -3.705955E+04  1.539708E+03 -1.073780E+04 -4.558456E+04  8.300056E+03 -1.607936E+04
        58   5 -3.188284E+04  4.992282E+03 -1.709183E+04 -8.267670E+03  1.754183E+04 -1.941263E+04
        58   6 -3.707534E+04 -3.077151E+04 -3.913753E+04 -4.558440E+04  2.678525E+04 -6.703830E+03
        58   7 -6.238620E+05 -1.443226E+05 -1.529780E+05 -4.147738E+04  3.394678E+03 -1.607631E+04
        58   8 -7.043536E+05 -1.621058E+05 -1.798260E+05 -1.050218E+04  1.955409E+04 -1.941472E+04
        58   9 -7.964222E+05 -2.203310E+05 -2.271856E+05 -5.416453E+04  3.571268E+04 -6.703749E+03
        58  10  5.500574E+05  1.473765E+05  1.314769E+05 -4.969539E+04 -4.783510E-10 -1.845118E-10
        58  11  6.410012E+05  1.720568E+05  1.456087E+05 -6.030455E+03  2.407404E-09 -3.535439E-10
        58  12  7.227957E+05  1.587450E+05  1.488673E+05 -3.699366E+04 -3.424064E-10 -5.537927E-11
        58  13 -3.705969E+04  1.539412E+03 -1.073841E+04 -4.558445E+04  2.103319E-11  8.787285E-10
        58  14 -3.188327E+04  4.991795E+03 -1.709312E+04 -8.267396E+03  2.188867E-09 -2.866162E-10
        58  15 -3.707612E+04 -3.077175E+04 -3.913896E+04 -4.558426E+04 -2.412618E-09 -1.009405E-10
        58  16 -6.238621E+05 -1.443229E+05 -1.529785E+05 -4.147733E+04 -1.666620E-10 -9.854931E-10
        58  17 -7.043542E+05 -1.621063E+05 -1.798274E+05 -1.050187E+04  3.495554E-10  3.384766E-11
        58  18 -7.964236E+05 -2.203314E+05 -2.271881E+05 -5.416434E+04  1.263389E-09  1.902797E-10
        58  19  5.500577E+05  1.473768E+05  1.314777E+05 -4.969556E+04 -1.321006E+04  1.608248E+04
        58  20  6.410015E+05  1.720573E+05  1.456098E+05 -6.030698E+03 -1.552739E+04  1.941055E+04
        58  21  7.227961E+05  1.587451E+05  1.488679E+05 -3.699376E+04 -1.784689E+04  6.704158E+03
        58  22 -3.705955E+04  1.539708E+03 -1.073780E+04 -4.558456E+04 -8.300056E+03  1.607936E+04
        58  23 -3.188284E+04  4.992282E+03 -1.709183E+04 -8.267670E+03 -1.754183E+04  1.941263E+04
        58  24 -3.707534E+04 -3.077151E+04 -3.913753E+04 -4.558440E+04 -2.678525E+04  6.703830E+03
        58  25 -6.238620E+05 -1.443226E+05 -1.529780E+05 -4.147738E+04 -3.394678E+03  1.607631E+04
        58  26 -7.043536E+05 -1.621058E+05 -1.798260E+05 -1.050218E+04 -1.955409E+04  1.941472E+04
        58  27 -7.964222E+05 -2.203310E+05 -2.271856E+05 -5.416453E+04 -3.571268E+04  6.703749E+03
        59   1  1.340149E+06  4.435304E+06  1.286000E+06 -1.250044E+06  5.480096E+04  3.145669E+05
        59   2  9.419614E+05  3.142071E+06  8.234247E+05 -1.068260E+06  1.697429E+05  9.000144E+04
        59   3  6.276829E+05  1.896817E+06  5.269525E+05 -1.192578E+06  1.538124E+05 -1.349620E+05
        59   4  8.111990E+04 -6.542720E+05  7.381727E+04 -1.177387E+06  5.723123E+04  3.901128E+04
        59   5  2.672137E+04 -6.585898E+05  4.520605E+04 -1.024582E+06  1.705044E+05  1.689452E+04
        59   6  2.156894E+04 -6.512009E+05  4.286729E+04 -1.177932E+06  1.525578E+05 -6.092678E+03
        59   7 -1.179724E+06 -5.720011E+06 -1.139898E+06 -1.105255E+06  5.960910E+04 -2.343088E+05
        59   8 -8.894181E+05 -4.445553E+06 -7.337605E+05 -9.811345E+05  1.712585E+05 -5.577477E+04
        59   9 -5.849164E+05 -3.192930E+06 -4.414466E+05 -1.163327E+06  1.513062E+05  1.222616E+05
        59  10  1.340119E+06  4.435198E+06  1.285809E+06 -1.250057E+06 -1.811354E-09 -3.283398E-09
        59  11  9.419282E+05  3.142055E+06  8.233553E+05 -1.068272E+06 -5.212411E-09 -2.230663E-08
        59  12  6.276527E+05  1.896791E+06  5.268741E+05 -1.192561E+06 -5.394334E-10 -3.304427E-08
        59  13  8.111597E+04 -6.542746E+05  7.380824E+04 -1.177389E+06  2.572056E-09  3.344777E-09
        59  14  2.669008E+04 -6.585979E+05  4.515087E+04 -1.024585E+06  5.581809E-09 -4.325052E-09
        59  15  2.154395E+04 -6.512072E+05  4.282351E+04 -1.177931E+06  1.184507E-08  2.456188E-09
        59  16 -1.179742E+06 -5.720072E+06 -1.140009E+06 -1.105244E+06 -1.320227E-09  3.210018E-09
        59  17 -8.894504E+05 -4.445565E+06 -7.338214E+05 -9.811268E+05  4.793528E-09  1.929035E-08
        59  18 -5.849450E+05 -3.192953E+06 -4.415180E+05 -1.163342E+06 -4.300178E-09  2.570258E-08
        59  19  1.340149E+06  4.435304E+06  1.286000E+06 -1.250044E+06 -5.480096E+04 -3.145669E+05
        59  20  9.419614E+05  3.142071E+06  8.234247E+05 -1.068260E+06 -1.697429E+05 -9.000144E+04
        59  21  6.276829E+05  1.896817E+06  5.269525E+05 -1.192578E+06 -1.538124E+05  1.349620E+05
        59  22  8.111990E+04 -6.542720E+05  7.381727E+04 -1.177387E+06 -5.723123E+04 -3.901128E+04
        59  23  2.672137E+04 -6.585898E+05  4.520605E+04 -1.024582E+06 -1.705044E+05 -1.689452E+04
        59  24  2.156894E+04 -6.512009E+05  4.286729E+04 -1.177932E+06 -1.525578E+05  6.092678E+03
        59  25 -1.179724E+06 -5.720011E+06 -1.139898E+06 -1.105255E+06 -5.960910E+04  2.343088E+05
        59  26 -8.894181E+05 -4.445553E+06 -7.337605E+05 -9.811345E+05 -1.712585E+05  5.577477E+04
        59  27 -5.849164E+05 -3.192930E+06 -4.414466E+05 -1.163327E+06 -1.513062E+05 -1.222616E+05
        60   1  4.276745E+05  1.044387E+06  3.691502E+05 -1.196573E+06  1.030623E+05 -1.241398E+05
        60   2  1.230714E+05 -2.250221E+05  1.436968E+05 -1.024410E+06  3.106857E+04 -1.599741E+05
        60   3 -1.598439E+05 -1.489125E+06 -5.476198E+04 -1.166287E+06 -4.250589E+04 -1.957805E+05
        60   4  2.371123E+04 -6.523655E+05  4.679658E+04 -1.179623E+06  1.019408E+05 -1.412048E+04
        60   5  2.169674E+04 -6.538273E+05  6.582064E+04 -1.022523E+06  2.990676E+04 -4.761265E+04
        60   6  4.103169E+04 -6.519923E+05  1.101872E+05 -1.179449E+06 -4.371098E+04 -8.114548E+04
        60   7 -3.804138E+05 -2.346317E+06 -2.756405E+05 -1.162711E+06  1.008233E+05  9.560574E+04
        60   8 -7.968150E+04 -1.082426E+06 -1.201533E+04 -1.020637E+06  2.874514E+04  6.467326E+04
        60   9  2.418722E+05  1.858416E+05  2.751518E+05 -1.192627E+06 -4.491995E+04  3.364118E+04
        60  10  4.276590E+05  1.044367E+06  3.691014E+05 -1.196562E+06  3.142608E-10 -2.239230E-08
        60  11  1.230635E+05 -2.250499E+05  1.436469E+05 -1.024406E+06  4.588692E-09  1.065526E-08
        60  12 -1.598562E+05 -1.489167E+06 -5.483765E+04 -1.166293E+06  7.243065E-10  4.817355E-08
        60  13  2.370003E+04 -6.523685E+05  4.677669E+04 -1.179622E+06  1.174094E-08  3.948353E-09
        60  14  2.169518E+04 -6.538300E+05  6.581470E+04 -1.022522E+06 -2.376132E-09 -5.614854E-09
        60  15  4.102786E+04 -6.519999E+05  1.101712E+05 -1.179452E+06 -1.827545E-10  2.935130E-09
        60  16 -3.804272E+05 -2.346329E+06 -2.756769E+05 -1.162719E+06  1.117117E-09  2.165446E-08
        60  17 -7.968352E+04 -1.082431E+06 -1.202477E+04 -1.020638E+06  3.091615E-09 -1.757062E-08
        60  18  2.418698E+05  1.858399E+05  2.751459E+05 -1.192626E+06  2.493107E-09 -5.513449E-08
        60  19  4.276745E+05  1.044387E+06  3.691502E+05 -1.196573E+06 -1.030623E+05  1.241398E+05
        60  20  1.230714E+05 -2.250221E+05  1.436968E+05 -1.024410E+06 -3.106857E+04  1.599741E+05
        60  21 -1.598439E+05 -1.489125E+06 -5.476198E+04 -1.166287E+06  4.250589E+04  1.957805E+05
        60  22  2.371123E+04 -6.523655E+05  4.679658E+04 -1.179623E+06 -1.019408E+05  1.412048E+04
        60  23  2.169674E+04 -6.538273E+05  6.582064E+04 -1.022523E+06 -2.990676E+04  4.761265E+04
        60  24  4.103169E+04 -6.519923E+05  1.101872E+05 -1.179449E+06  4.371098E+04  8.114548E+04
        60  25 -3.804138E+05 -2.346317E+06 -2.756405E+05 -1.162711E+06 -1.008233E+05 -9.560574E+04
        60  26 -7.968150E+04 -1.082426E+06 -1.201533E+04 -1.020637E+06 -2.874514E+04 -6.467326E+04
        60  27  2.418722E+05  1.858416E+05  2.751518E+05 -1.192627E+06  4.491995E+04 -3.364118E+04
        61   1 -3.750023E+05 -2.318978E+06 -1.846506E+05 -1.201812E+06 -9.334581E+04 -2.303251E+05
        61   2 -6.107953E+05 -3.610835E+06 -3.594883E+05 -8.812253E+05 -1.235080E+05 -1.904206E+05
        61   3 -5.720168E+05 -4.841961E+06 -4.928521E+05 -8.674074E+05 -4.303157E+04 -1.497712E+05
        61   4  2.716673E+04 -6.335793E+05  1.414401E+05 -1.178387E+06 -9.469075E+04 -1.005554E+05
        61   5  1.020622E+05 -6.787294E+05  2.505515E+05 -1.023124E+06 -1.230378E+05 -2.303145E+05
        61   6  4.802506E+05 -6.357908E+05  5.188011E+05 -1.174228E+06 -4.100652E+04 -3.592697E+05
        61   7  4.291786E+05  1.054596E+06  4.674623E+05 -1.154888E+06 -9.602364E+04  2.955992E+04
        61   8  8.144375E+05  2.261590E+06  8.601336E+05 -1.165682E+06 -1.225507E+05 -2.703927E+05
        61   9  1.531575E+06  3.586941E+06  1.529401E+06 -1.483100E+06 -3.878161E+04 -5.701841E+05
        61  10 -3.750260E+05 -2.319037E+06 -1.847672E+05 -1.201830E+06  3.045903E-10  7.641932E-09
        61  11 -6.108215E+05 -3.610878E+06 -3.595856E+05 -8.812443E+05  3.521457E-09  6.276089E-11
        61  12 -5.720249E+05 -4.841986E+06 -4.928981E+05 -8.674126E+05 -1.643506E-10 -1.740296E-09
        61  13  2.715436E+04 -6.335926E+05  1.414041E+05 -1.178395E+06  1.845786E-09  4.760953E-09
        61  14  1.020317E+05 -6.787905E+05  2.504230E+05 -1.023147E+06 -9.605550E-09 -4.657783E-09
        61  15  4.802140E+05 -6.359300E+05  5.185550E+05 -1.174240E+06  1.461951E-09  2.717290E-09
        61  16  4.291685E+05  1.054593E+06  4.674433E+05 -1.154885E+06 -2.051984E-09 -6.331767E-09
        61  17  8.144017E+05  2.261508E+06  8.599682E+05 -1.165709E+06  2.804050E-09 -4.537336E-09
        61  18  1.531486E+06  3.586593E+06  1.528790E+06 -1.483118E+06  1.649095E-09 -4.305375E-09
        61  19 -3.750023E+05 -2.318978E+06 -1.846506E+05 -1.201812E+06  9.334581E+04  2.303251E+05
        61  20 -6.107953E+05 -3.610835E+06 -3.594883E+05 -8.812253E+05  1.235080E+05  1.904206E+05
        61  21 -5.720168E+05 -4.841961E+06 -4.928521E+05 -8.674074E+05  4.303157E+04  1.497712E+05
        61  22  2.716673E+04 -6.335793E+05  1.414401E+05 -1.178387E+06  9.469075E+04  1.005554E+05
        61  23  1.020622E+05 -6.787294E+05  2.505515E+05 -1.023124E+06  1.230378E+05  2.303145E+05
        61  24  4.802506E+05 -6.357908E+05  5.188011E+05 -1.174228E+06  4.100652E+04  3.592697E+05
        61  25  4.291786E+05  1.054596E+06  4.674623E+05 -1.154888E+06  9.602364E+04 -2.955992E+04
        61  26  8.144375E+05  2.261590E+06  8.601336E+05 -1.165682E+06  1.225507E+05  2.703927E+05
        61  27  1.531575E+06  3.586941E+06  1.529401E+06 -1.483100E+06  3.878161E+04  5.701841E+05
        62   1 -4.628665E+06 -1.805447E+06 -1.040516E+06 -1.574388E+06 -2.590349E+05 -1.952492E+04
        62   2 -4.324898E+06 -1.735472E+06 -8.499226E+05 -1.463915E+06 -1.760295E+05  1.948036E+05
        62   3 -3.965858E+06 -1.680441E+06 -7.545148E+05 -1.433088E+06 -4.626361E+04  2.872005E+05
        62   4 -9.765664E+04 -1.484059E+05  1.291878E+05 -3.836574E+05  5.641391E+04  1.007874E+05
        62   5 -1.494946E+05 -2.087467E+05  5.853353E+04 -3.244536E+05 -3.473683E+04  2.483910E+05
        62   6 -1.114919E+05 -2.495175E+05  3.152930E+04 -3.448735E+05 -7.937822E+04  2.744643E+05
        62   7  4.453479E+06  1.509679E+06  1.297596E+06  8.148554E+05  3.744010E+05  2.219880E+05
        62   8  4.043683E+06  1.319292E+06  9.660323E+05  8.220411E+05  1.075889E+05  3.023574E+05
        62   9  3.758297E+06  1.182807E+06  8.168406E+05  7.496618E+05 -1.127169E+05  2.616425E+05
        62  10 -4.628738E+06 -1.805466E+06 -1.040644E+06 -1.574392E+06  5.003462E-09 -2.012087E-09
        62  11 -4.324942E+06 -1.735521E+06 -8.500522E+05 -1.463888E+06  2.854798E-09 -5.136007E-09
        62  12 -3.965883E+06 -1.680530E+06 -7.546738E+05 -1.433077E+06  7.629232E-11 -6.077361E-09
        62  13 -9.766279E+04 -1.484177E+05  1.291627E+05 -3.836620E+05  4.076438E-09  2.992315E-09
        62  14 -1.495125E+05 -2.088132E+05  5.841531E+04 -3.244467E+05 -1.126302E-09  1.441390E-09
        62  15 -1.115189E+05 -2.496001E+05  3.137591E+04 -3.448559E+05  1.025471E-09 -3.843930E-09
        62  16  4.453316E+06  1.509589E+06  1.297243E+06  8.147888E+05 -1.524907E-09  1.692978E-10
        62  17  4.043646E+06  1.319191E+06  9.658392E+05  8.220150E+05  1.329342E-09  2.021500E-09
        62  18  3.758265E+06  1.182731E+06  8.166881E+05  7.496855E+05 -4.168777E-10  1.255394E-09
        62  19 -4.628665E+06 -1.805447E+06 -1.040516E+06 -1.574388E+06  2.590349E+05  1.952492E+04
        62  20 -4.324898E+06 -1.735472E+06 -8.499226E+05 -1.463915E+06  1.760295E+05 -1.948036E+05
        62  21 -3.965858E+06 -1.680441E+06 -7.545148E+05 -1.433088E+06  4.626361E+04 -2.872005E+05
        62  22 -9.765664E+04 -1.484059E+05  1.291878E+05 -3.836574E+05 -5.641391E+04 -1.007874E+05
        62  23 -1.494946E+05 -2.087467E+05  5.853353E+04 -3.244536E+05  3.473683E+04 -2.483910E+05
        62  24 -1.114919E+05 -2.495175E+05  3.152930E+04 -3.448735E+05  7.937822E+04 -2.744643E+05
        62  25  4.453479E+06  1.509679E+06  1.297596E+06  8.148554E+05 -3.744010E+05 -2.219880E+05
        62  26  4.043683E+06  1.319292E+06  9.660323E+05  8.220411E+05 -1.075889E+05 -3.023574E+05
        62  27  3.758297E+06  1.182807E+06  8.168406E+05  7.496618E+05  1.127169E+05 -2.616425E+05
        63   1 -3.761962E+06 -1.588988E+06 -7.167433E+05 -1.367452E+06 -6.780977E+04  2.634278E+05
        63   2 -3.482192E+06 -1.444328E+06 -6.537036E+05 -1.245678E+06 -5.761009E+04  2.543382E+05
        63   3 -3.140417E+06 -1.358424E+06 -5.941355E+05 -1.192235E+06 -4.428246E+04  2.368127E+05
        63   4 -1.140059E+05 -2.469333E+05  2.399025E+04 -3.496147E+05 -7.785095E+04  2.594641E+05
        63   5 -1.459476E+05 -2.198492E+05  1.242880E+04 -3.148753E+05 -7.972966E+04  2.458397E+05
        63   6 -1.136046E+05 -2.491106E+05  6.983557E+03 -3.484790E+05 -7.849280E+04  2.238033E+05
        63   7  3.547713E+06  1.096298E+06  7.640582E+05  6.737816E+05 -8.795683E+04  2.554768E+05
        63   8  3.201828E+06  1.005620E+06  6.780273E+05  6.205768E+05 -1.019781E+05  2.372932E+05
        63   9  2.922691E+06  8.610142E+05  6.076690E+05  4.990974E+05 -1.128832E+05  2.107263E+05
        63  10 -3.761985E+06 -1.589063E+06 -7.168823E+05 -1.367438E+06  3.441807E-09 -4.429104E-09
        63  11 -3.482213E+06 -1.444398E+06 -6.538314E+05 -1.245666E+06  1.961856E-09 -5.676884E-09
        63  12 -3.140434E+06 -1.358484E+06 -5.942446E+05 -1.192226E+06 -2.189319E-09 -4.173455E-09
        63  13 -1.140305E+05 -2.470072E+05  2.385237E+04 -3.495984E+05 -1.503791E-10 -2.466745E-09
        63  14 -1.459707E+05 -2.199158E+05  1.230330E+04 -3.148595E+05 -4.668895E-10 -8.122725E-09
        63  15 -1.136247E+05 -2.491661E+05  6.877868E+03 -3.484649E+05 -7.622591E-09 -4.052352E-09
        63  16  3.547687E+06  1.096226E+06  7.639210E+05  6.737996E+05 -1.989935E-09 -2.859120E-10
        63  17  3.201802E+06  1.005557E+06  6.779020E+05  6.205963E+05 -5.028336E-09 -5.064716E-09
        63  18  2.922665E+06  8.609631E+05  6.075617E+05  4.991165E+05  1.354739E-10 -1.193290E-09
        63  19 -3.761962E+06 -1.588988E+06 -7.167433E+05 -1.367452E+06  6.780977E+04 -2.634278E+05
        63  20 -3.482192E+06 -1.444328E+06 -6.537036E+05 -1.245678E+06  5.761009E+04 -2.543382E+05
        63  21 -3.140417E+06 -1.358424E+06 -5.941355E+05 -1.192235E+06  4.428246E+04 -2.368127E+05
        63  22 -1.140059E+05 -2.469333E+05  2.399025E+04 -3.496147E+05  7.785095E+04 -2.594641E+05
        63  23 -1.459476E+05 -2.198492E+05  1.242880E+04 -3.148753E+05  7.972966E+04 -2.458397E+05
        63  24 -1.136046E+05 -2.491106E+05  6.983557E+03 -3.484790E+05  7.849280E+04 -2.238033E+05
        63  25  3.547713E+06  1.096298E+06  7.640582E+05  6.737816E+05  8.795683E+04 -2.554768E+05
        63  26  3.201828E+06  1.005620E+06  6.780273E+05  6.205768E+05  1.019781E+05 -2.372932E+05
        63  27  2.922691E+06  8.610142E+05  6.076690E+05  4.990974E+05  1.128832E+05 -2.107263E+05
        64   1 -2.929870E+06 -1.279279E+06 -5.521258E+05 -1.132825E+06 -4.153207E+04  2.219208E+05
        64   2 -2.649074E+06 -1.133405E+06 -4.927547E+05 -1.010825E+06 -3.325089E+04  1.986183E+05
        64   3 -2.306412E+06 -1.047807E+06 -4.326914E+05 -9.575965E+05 -2.480191E+04  1.747015E+05
        64   4 -1.137188E+05 -2.487801E+05  5.191281E+03 -3.489110E+05 -7.419156E+04  2.095259E+05
        64   5 -1.443064E+05 -2.180342E+05  2.703981E+03 -3.146559E+05 -6.678930E+04  1.859358E+05
        64   6 -1.129799E+05 -2.473881E+05  1.587325E+03 -3.491964E+05 -5.921955E+04  1.617330E+05
        64   7  2.710691E+06  7.824364E+05  5.621498E+05  4.383169E+05 -1.070113E+05  1.970709E+05
        64   8  2.366984E+06  6.978980E+05  4.978782E+05  3.841268E+05 -1.004738E+05  1.731985E+05
        64   9  2.085442E+06  5.534543E+05  4.356464E+05  2.612002E+05 -9.376824E+04  1.487154E+05
        64  10 -2.929885E+06 -1.279332E+06 -5.522216E+05 -1.132817E+06  5.545728E-09  2.610730E-09
        64  11 -2.649086E+06 -1.133448E+06 -4.928309E+05 -1.010820E+06 -5.310529E-09 -3.006552E-09
        64  12 -2.306420E+06 -1.047839E+06 -4.327499E+05 -9.575930E+05 -1.334965E-08 -9.240392E-09
        64  13 -1.137365E+05 -2.488288E+05  5.098452E+03 -3.488985E+05 -4.991573E-09 -1.198661E-09
        64  14 -1.443205E+05 -2.180726E+05  2.630641E+03 -3.146459E+05 -4.939266E-09  2.446115E-09
        64  15 -1.129907E+05 -2.474172E+05  1.531588E+03 -3.491887E+05 -2.898172E-09  3.842372E-09
        64  16  2.710668E+06  7.823916E+05  5.620553E+05  4.383339E+05 -1.222640E-08 -6.879517E-09
        64  17  2.366965E+06  6.978630E+05  4.978029E+05  3.841408E+05  9.521601E-10 -4.034818E-09
        64  18  2.085427E+06  5.534282E+05  4.355883E+05  2.612114E+05  2.106896E-08 -5.274260E-10
        64  19 -2.929870E+06 -1.279279E+06 -5.521258E+05 -1.132825E+06  4.153207E+04 -2.219208E+05
        64  20 -2.649074E+06 -1.133405E+06 -4.927547E+05 -1.010825E+06  3.325089E+04 -1.986183E+05
        64  21 -2.306412E+06 -1.047807E+06 -4.326914E+05 -9.575965E+05  2.480191E+04 -1.747015E+05
        64  22 -1.137188E+05 -2.487801E+05  5.191281E+03 -3.489110E+05  7.419156E+04 -2.095259E+05
        64  23 -1.443064E+05 -2.180342E+05  2.703981E+03 -3.146559E+05  6.678930E+04 -1.859358E+05
        64  24 -1.129799E+05 -2.473881E+05  1.587325E+03 -3.491964E+05  5.921955E+04 -1.617330E+05
        64  25  2.710691E+06  7.824364E+05  5.621498E+05  4.383169E+05  1.070113E+05 -1.970709E+05
        64  26  2.366984E+06  6.978980E+05  4.978782E+05  3.841268E+05  1.004738E+05 -1.731985E+05
        64  27  2.085442E+06  5.534543E+05  4.356464E+05  2.612002E+05  9.376824E+04 -1.487154E+05
        65   1 -2.094657E+06 -9.696196E+05 -3.893781E+05 -8.987477E+05 -1.985177E+04  1.605966E+05
        65   2 -1.812152E+06 -8.244901E+05 -3.289162E+05 -7.770148E+05 -1.102376E+04  1.365446E+05
        65   3 -1.468473E+06 -7.397569E+05 -2.681638E+05 -7.245175E+05 -2.214940E+03  1.124293E+05
        65   4 -1.129395E+05 -2.471899E+05  1.147147E+03 -3.493159E+05 -5.419102E+04  1.476796E+05
        65   5 -1.432331E+05 -2.164974E+05  5.476941E+02 -3.147947E+05 -4.545342E+04  1.236233E+05
        65   6 -1.124485E+05 -2.461859E+05  2.994582E+02 -3.495392E+05 -3.673497E+04  9.950382E+04
        65   7  1.872838E+06  4.755800E+05  3.914917E+05  2.017403E+05 -8.864797E+04  1.347186E+05
        65   8  1.528575E+06  3.917397E+05  3.298875E+05  1.485788E+05 -7.998265E+04  1.106647E+05
        65   9  1.245493E+06  2.475497E+05  2.686849E+05  2.620206E+04 -7.133634E+04  8.654796E+04
        65  10 -2.094665E+06 -9.696474E+05 -3.894273E+05 -8.987451E+05 -9.300155E-09 -8.083625E-09
        65  11 -1.812157E+06 -8.245102E+05 -3.289515E+05 -7.770136E+05 -1.779802E-10 -3.023448E-09
        65  12 -1.468476E+06 -7.397705E+05 -2.681876E+05 -7.245174E+05  9.211976E-09  2.891927E-09
        65  13 -1.129485E+05 -2.472142E+05  1.100652E+03 -3.493094E+05 -6.058776E-09  2.533874E-09
        65  14 -1.432394E+05 -2.165144E+05  5.150977E+02 -3.147901E+05 -7.795299E-09 -7.635112E-10
        65  15 -1.124526E+05 -2.461969E+05  2.783198E+02 -3.495362E+05 -4.220096E-09  1.257477E-10
        65  16  1.872824E+06  4.755584E+05  3.914428E+05  2.017499E+05  1.069602E-08 -4.313705E-09
        65  17  1.528565E+06  3.917249E+05  3.298524E+05  1.485859E+05 -5.279928E-09 -7.404208E-09
        65  18  1.245486E+06  2.475403E+05  2.686613E+05  2.620702E+04 -1.592697E-08 -7.358481E-09
        65  19 -2.094657E+06 -9.696196E+05 -3.893781E+05 -8.987477E+05  1.985177E+04 -1.605966E+05
        65  20 -1.812152E+06 -8.244901E+05 -3.289162E+05 -7.770148E+05  1.102376E+04 -1.365446E+05
        65  21 -1.468473E+06 -7.397569E+05 -2.681638E+05 -7.245175E+05  2.214940E+03 -1.124293E+05
        65  22 -1.129395E+05 -2.471899E+05  1.147147E+03 -3.493159E+05  5.419102E+04 -1.476796E+05
        65  23 -1.432331E+05 -2.164974E+05  5.476941E+02 -3.147947E+05  4.545342E+04 -1.236233E+05
        65  24 -1.124485E+05 -2.461859E+05  2.994582E+02 -3.495392E+05  3.673497E+04 -9.950382E+04
        65  25  1.872838E+06  4.755800E+05  3.914917E+05  2.017403E+05  8.864797E+04 -1.347186E+05
        65  26  1.528575E+06  3.917397E+05  3.298875E+05  1.485788E+05  7.998265E+04 -1.106647E+05
        65  27  1.245493E+06  2.475497E+05  2.686849E+05  2.620206E+04  7.133634E+04 -8.654796E+04
        66   1 -1.255954E+06 -6.618844E+05 -2.245186E+05 -6.658567E+05  2.999492E+03  9.841087E+04
        66   2 -9.723545E+05 -5.172900E+05 -1.637132E+05 -5.442432E+05  1.204304E+04  7.437167E+04
        66   3 -6.280162E+05 -4.331473E+05 -1.028998E+05 -4.921329E+05  2.106398E+04  5.033516E+04
        66   4 -1.124139E+05 -2.460676E+05  1.521282E+02 -3.495998E+05 -3.153742E+04  8.549233E+04
        66   5 -1.426042E+05 -2.155880E+05 -9.197384E+01 -3.148864E+05 -2.249363E+04  6.146786E+04
        66   6 -1.121656E+05 -2.455653E+05 -3.348066E+02 -3.497100E+05 -1.347255E+04  3.744630E+04
        66   7  1.032484E+06  1.698642E+05  2.247679E+05 -3.280222E+04 -6.614263E+04  7.254825E+04
        66   8  6.878576E+05  8.617321E+04  1.635014E+05 -8.524601E+04 -5.707970E+04  4.854558E+04
        66   9  4.039582E+05 -5.796127E+04  1.022214E+05 -2.071782E+05 -4.803959E+04  2.454605E+04
        66  10 -1.255957E+06 -6.618949E+05 -2.245368E+05 -6.658569E+05  4.417866E-08  1.814323E-08
        66  11 -9.723561E+05 -5.172960E+05 -1.637238E+05 -5.442439E+05 -1.355996E-08 -1.699830E-09
        66  12 -6.280174E+05 -4.331501E+05 -1.029054E+05 -4.921338E+05 -6.011794E-08 -1.874833E-08
        66  13 -1.124169E+05 -2.460757E+05  1.365268E+02 -3.495976E+05 -2.042569E-09  6.158058E-10
        66  14 -1.426058E+05 -2.155922E+05 -1.000235E+02 -3.148853E+05 -1.227322E-08  2.044018E-09
        66  15 -1.121661E+05 -2.455669E+05 -3.377823E+02 -3.497096E+05 -3.174466E-09  2.048544E-09
        66  16  1.032478E+06  1.698573E+05  2.247498E+05 -3.279836E+04 -5.477135E-08 -1.564916E-08
        66  17  6.878535E+05  8.616981E+04  1.634909E+05 -8.524377E+04 -1.137279E-08  5.059654E-09
        66  18  4.039555E+05 -5.796253E+04  1.022160E+05 -2.071772E+05  5.034491E-08  2.197386E-08
        66  19 -1.255954E+06 -6.618844E+05 -2.245186E+05 -6.658567E+05 -2.999492E+03 -9.841087E+04
        66  20 -9.723545E+05 -5.172900E+05 -1.637132E+05 -5.442432E+05 -1.204304E+04 -7.437167E+04
        66  21 -6.280162E+05 -4.331473E+05 -1.028998E+05 -4.921329E+05 -2.106398E+04 -5.033516E+04
        66  22 -1.124139E+05 -2.460676E+05  1.521282E+02 -3.495998E+05  3.153742E+04 -8.549233E+04
        66  23 -1.426042E+05 -2.155880E+05 -9.197384E+01 -3.148864E+05  2.249363E+04 -6.146786E+04
        66  24 -1.121656E+05 -2.455653E+05 -3.348066E+02 -3.497100E+05  1.347255E+04 -3.744630E+04
        66  25  1.032484E+06  1.698642E+05  2.247679E+05 -3.280222E+04  6.614263E+04 -7.254825E+04
        66  26  6.878576E+05  8.617321E+04  1.635014E+05 -8.524601E+04  5.707970E+04 -4.854558E+04
        66  27  4.039582E+05 -5.796127E+04  1.022214E+05 -2.071782E+05  4.803959E+04 -2.454605E+04
        67   1 -4.150316E+05 -3.554432E+05 -5.926621E+04 -4.335103E+05  2.642117E+04  3.636923E+04
        67   2 -1.309491E+05 -2.111634E+05  1.366742E+03 -3.118511E+05  3.551654E+04  1.249022E+04
        67   3  2.137136E+05 -1.273308E+05  6.188733E+04 -2.597720E+05  4.451313E+04 -1.112425E+04
        67   4 -1.121746E+05 -2.455238E+05 -5.199798E+02 -3.497361E+05 -8.176119E+03  2.346205E+04
        67   5 -1.423751E+05 -2.152728E+05 -1.059738E+03 -3.149187E+05  1.290252E+03 -2.789426E+02
        67   6 -1.121800E+05 -2.455561E+05 -2.011082E+03 -3.497246E+05  1.065768E+04 -2.375518E+04
        67   7  1.907829E+05 -1.355943E+05  5.822806E+04 -2.659225E+05 -4.279179E+04  1.054800E+04
        67   8 -1.537984E+05 -2.193812E+05 -3.481222E+03 -3.179856E+05 -3.293551E+04 -1.304792E+04
        67   9 -4.379613E+05 -3.637713E+05 -6.590946E+04 -4.396329E+05 -2.317874E+04 -3.637901E+04
        67  10 -4.150327E+05 -3.554448E+05 -5.927002E+04 -4.335111E+05 -7.459050E-09 -1.886102E-09
        67  11 -1.309505E+05 -2.111639E+05  1.364077E+03 -3.118515E+05  1.280950E-09 -1.992298E-09
        67  12  2.137115E+05 -1.273314E+05  6.188337E+04 -2.597716E+05  7.290092E-09  3.878518E-09
        67  13 -1.121748E+05 -2.455244E+05 -5.211397E+02 -3.497359E+05  4.274268E-09 -2.959948E-09
        67  14 -1.423751E+05 -2.152728E+05 -1.059741E+03 -3.149187E+05  9.069218E-10 -1.037670E-08
        67  15 -1.121803E+05 -2.455567E+05 -2.012356E+03 -3.497244E+05 -4.956155E-09 -1.142265E-08
        67  16  1.907809E+05 -1.355950E+05  5.822441E+04 -2.659222E+05  9.510254E-09  8.958996E-10
        67  17 -1.537996E+05 -2.193817E+05 -3.483582E+03 -3.179860E+05 -2.888002E-09 -1.763562E-09
        67  18 -4.379623E+05 -3.637729E+05 -6.591296E+04 -4.396336E+05 -1.492448E-08 -5.774549E-09
        67  19 -4.150316E+05 -3.554432E+05 -5.926621E+04 -4.335103E+05 -2.642117E+04 -3.636923E+04
        67  20 -1.309491E+05 -2.111634E+05  1.366742E+03 -3.118511E+05 -3.551654E+04 -1.249022E+04
        67  21  2.137136E+05 -1.273308E+05  6.188733E+04 -2.597720E+05 -4.451313E+04  1.112425E+04
        67  22 -1.121746E+05 -2.455238E+05 -5.199798E+02 -3.497361E+05  8.176119E+03 -2.346205E+04
        67  23 -1.423751E+05 -2.152728E+05 -1.059738E+03 -3.149187E+05 -1.290252E+03  2.789426E+02
        67  24 -1.121800E+05 -2.455561E+05 -2.011082E+03 -3.497246E+05 -1.065768E+04  2.375518E+04
        67  25  1.907829E+05 -1.355943E+05  5.822806E+04 -2.659225E+05  4.279179E+04 -1.054800E+04
        67  26 -1.537984E+05 -2.193812E+05 -3.481222E+03 -3.179856E+05  3.293551E+04  1.304792E+04
        67  27 -4.379613E+05 -3.637713E+05 -6.590946E+04 -4.396329E+05  2.317874E+04  3.637901E+04
        68   1  4.270099E+05 -4.968252E+04  1.050633E+05 -2.011790E+05  5.084922E+04 -2.470698E+04
        68   2  7.105646E+05  9.471693E+04  1.657054E+05 -7.906816E+04  5.608905E+04 -4.794065E+04
        68   3  1.054967E+06  1.786767E+05  2.285535E+05 -2.603108E+04  5.990181E+04 -6.731419E+04
        68   4 -1.123469E+05 -2.455045E+05 -2.694151E+03 -3.497342E+05  1.625612E+04 -3.761759E+04
        68   5 -1.424061E+05 -2.157542E+05 -5.004955E+03 -3.148302E+05  2.703886E+04 -5.879643E+04
        68   6 -1.128118E+05 -2.475554E+05 -9.496848E+03 -3.490463E+05  3.639500E+04 -7.611151E+04
        68   7 -6.513967E+05 -4.412994E+05 -1.104592E+05 -4.981685E+05 -1.830446E+04 -5.051610E+04
        68   8 -9.946255E+05 -5.261625E+05 -1.757469E+05 -5.502927E+05 -1.968539E+03 -6.963622E+04
        68   9 -1.279200E+06 -6.736756E+05 -2.476168E+05 -6.715037E+05  1.293545E+04 -8.489112E+04
        68  10  4.270070E+05 -4.968387E+04  1.050573E+05 -2.011780E+05  2.523611E-10  5.898088E-09
        68  11  7.105606E+05  9.471362E+04  1.656952E+05 -7.906599E+04 -4.519481E-09  2.864974E-09
        68  12  1.054962E+06  1.786709E+05  2.285383E+05 -2.602783E+04 -1.213602E-08 -4.720461E-09
        68  13 -1.123475E+05 -2.455061E+05 -2.697306E+03 -3.497338E+05 -2.687238E-09 -6.518086E-09
        68  14 -1.424078E+05 -2.157581E+05 -5.012823E+03 -3.148289E+05 -5.501080E-10 -2.415372E-09
        68  15 -1.128148E+05 -2.475620E+05 -9.510219E+03 -3.490441E+05 -3.065102E-10 -2.789064E-09
        68  16 -6.513978E+05 -4.413022E+05 -1.104646E+05 -4.981692E+05 -7.790882E-09 -7.532051E-10
        68  17 -9.946268E+05 -5.261677E+05 -1.757560E+05 -5.502929E+05  7.418816E-09  2.428455E-09
        68  18 -1.279202E+06 -6.736834E+05 -2.476306E+05 -6.715028E+05  1.594901E-08  5.235848E-09
        68  19  4.270099E+05 -4.968252E+04  1.050633E+05 -2.011790E+05 -5.084922E+04  2.470698E+04
        68  20  7.105646E+05  9.471693E+04  1.657054E+05 -7.906816E+04 -5.608905E+04  4.794065E+04
        68  21  1.054967E+06  1.786767E+05  2.285535E+05 -2.603108E+04 -5.990181E+04  6.731419E+04
        68  22 -1.123469E+05 -2.455045E+05 -2.694151E+03 -3.497342E+05 -1.625612E+04  3.761759E+04
        68  23 -1.424061E+05 -2.157542E+05 -5.004955E+03 -3.148302E+05 -2.703886E+04  5.879643E+04
        68  24 -1.128118E+05 -2.475554E+05 -9.496848E+03 -3.490463E+05 -3.639500E+04  7.611151E+04
        68  25 -6.513967E+05 -4.412994E+05 -1.104592E+05 -4.981685E+05  1.830446E+04  5.051610E+04
        68  26 -9.946255E+05 -5.261625E+05 -1.757469E+05 -5.502927E+05  1.968539E+03  6.963622E+04
        68  27 -1.279200E+06 -6.736756E+05 -2.476168E+05 -6.715037E+05 -1.293545E+04  8.489112E+04
        69   1  1.271431E+06  2.561040E+05  2.701937E+05  2.953350E+04  7.720950E+04 -7.664874E+04
        69   2  1.543203E+06  4.060664E+05  3.484597E+05  1.618838E+05  7.362174E+03 -9.792141E+04
        69   3  1.877293E+06  4.863107E+05  4.738055E+05  2.349778E+05 -8.351617E+04 -6.328104E+04
        69   4 -1.149010E+05 -2.458269E+05 -1.243166E+04 -3.495730E+05  4.300242E+04 -8.945615E+04
        69   5 -1.410438E+05 -2.230687E+05 -2.343660E+04 -3.124789E+05  5.378381E+04 -8.057124E+04
        69   6 -1.209145E+05 -2.860301E+05 -5.116127E+04 -3.346905E+05  4.354429E+04 -1.567890E+04
        69   7 -1.499267E+06 -7.476058E+05 -2.951516E+05 -7.279039E+05  8.877154E+03 -1.022335E+05
        69   8 -1.822397E+06 -8.519480E+05 -3.954916E+05 -7.856465E+05  1.000690E+05 -6.327416E+04
        69   9 -2.115155E+06 -1.058018E+06 -5.763823E+05 -9.026538E+05  1.701534E+05  3.174161E+04
        69  10  1.271423E+06  2.560961E+05  2.701715E+05  2.953826E+04  7.100192E-10 -1.438721E-09
        69  11  1.543200E+06  4.060560E+05  3.484415E+05  1.618844E+05 -1.384810E-12 -5.555620E-10
        69  12  1.877284E+06  4.863045E+05  4.737849E+05  2.349736E+05 -1.379801E-09 -2.834147E-10
        69  13 -1.149051E+05 -2.458359E+05 -1.245016E+04 -3.495700E+05  2.016227E-09  2.819015E-10
        69  14 -1.410486E+05 -2.230765E+05 -2.345423E+04 -3.124755E+05  2.618995E-10  2.602653E-11
        69  15 -1.209166E+05 -2.860309E+05 -5.116529E+04 -3.346899E+05 -1.233524E-10 -1.873701E-10
        69  16 -1.499270E+06 -7.476170E+05 -2.951714E+05 -7.279032E+05  1.265533E-09  6.149167E-10
        69  17 -1.822409E+06 -8.519549E+05 -3.955179E+05 -7.856414E+05 -7.916743E-10 -1.752034E-09
        69  18 -2.115186E+06 -1.058027E+06 -5.764388E+05 -9.026581E+05 -1.830762E-09 -2.359322E-10
        69  19  1.271431E+06  2.561040E+05  2.701937E+05  2.953350E+04 -7.720950E+04  7.664874E+04
        69  20  1.543203E+06  4.060664E+05  3.484597E+05  1.618838E+05 -7.362174E+03  9.792141E+04
        69  21  1.877293E+06  4.863107E+05  4.738055E+05  2.349778E+05  8.351617E+04  6.328104E+04
        69  22 -1.149010E+05 -2.458269E+05 -1.243166E+04 -3.495730E+05 -4.300242E+04  8.945615E+04
        69  23 -1.410438E+05 -2.230687E+05 -2.343660E+04 -3.124789E+05 -5.378381E+04  8.057124E+04
        69  24 -1.209145E+05 -2.860301E+05 -5.116127E+04 -3.346905E+05 -4.354429E+04  1.567890E+04
        69  25 -1.499267E+06 -7.476058E+05 -2.951516E+05 -7.279039E+05 -8.877154E+03  1.022335E+05
        69  26 -1.822397E+06 -8.519480E+05 -3.954916E+05 -7.856465E+05 -1.000690E+05  6.327416E+04
        69  27 -2.115155E+06 -1.058018E+06 -5.763823E+05 -9.026538E+05 -1.701534E+05 -3.174161E+04
        70   1 -1.897608E+05 -9.490918E+04 -8.396582E+04 -6.908069E+04 -1.786053E+04  6.673810E+03
        70   2 -1.185483E+05 -9.990705E+04 -6.440136E+04 -7.804230E+04 -2.368294E+03  2.220563E+04
        70   3 -4.602544E+04 -9.170400E+04 -5.162311E+04 -9.760465E+04  1.313066E+04  2.624093E+04
        70   4  3.759072E+05  4.439087E+04  4.700000E+04 -9.929607E+04  3.320983E+04  6.683029E+03
        70   5  3.728778E+05  1.598802E+04  2.374021E+04 -9.399434E+04  2.111485E+04  2.220681E+04
        70   6  3.759377E+05  5.567866E+03  1.284762E+04 -9.929176E+04  9.024583E+03  2.623899E+04
        70   7  9.418783E+05  1.836733E+05  1.779547E+05 -1.295392E+05  8.432639E+04  6.687274E+03
        70   8  8.645409E+05  1.318709E+05  1.118747E+05 -1.099594E+05  4.461606E+04  2.220679E+04
        70   9  7.980790E+05  1.028312E+05  7.731458E+04 -1.009800E+05  4.915824E+03  2.623706E+04
        70  10 -1.897612E+05 -9.490932E+04 -8.396650E+04 -6.908059E+04  2.835937E-09 -6.845028E-12
        70  11 -1.185484E+05 -9.990758E+04 -6.440230E+04 -7.804226E+04  2.066897E-09  4.354242E-10
        70  12 -4.602581E+04 -9.170479E+04 -5.162472E+04 -9.760493E+04 -2.113820E-09  1.653930E-09
        70  13  3.759060E+05  4.439052E+04  4.699784E+04 -9.929625E+04 -2.037210E-09  2.165069E-10
        70  14  3.728772E+05  1.598737E+04  2.373845E+04 -9.399472E+04  4.481085E-09  6.035095E-10
        70  15  3.759374E+05  5.567105E+03  1.284618E+04 -9.929195E+04 -1.459189E-10  1.712202E-09
        70  16  9.418707E+05  1.836713E+05  1.779413E+05 -1.295396E+05  1.352181E-09  2.900662E-10
        70  17  8.645387E+05  1.318699E+05  1.118700E+05 -1.099602E+05  1.193462E-09  8.589304E-10
        70  18  7.980788E+05  1.028304E+05  7.731324E+04 -1.009802E+05  2.869465E-09  2.209110E-09
        70  19 -1.897608E+05 -9.490918E+04 -8.396582E+04 -6.908069E+04  1.786053E+04 -6.673810E+03
        70  20 -1.185483E+05 -9.990705E+04 -6.440136E+04 -7.804230E+04  2.368294E+03 -2.220563E+04
        70  21 -4.602544E+04 -9.170400E+04 -5.162311E+04 -9.760465E+04 -1.313066E+04 -2.624093E+04
        70  22  3.759072E+05  4.439087E+04  4.700000E+04 -9.929607E+04 -3.320983E+04 -6.683029E+03
        70  23  3.728778E+05  1.598802E+04  2.374021E+04 -9.399434E+04 -2.111485E+04 -2.220681E+04
        70  24  3.759377E+05  5.567866E+03  1.284762E+04 -9.929176E+04 -9.024583E+03 -2.623899E+04
        70  25  9.418783E+05  1.836733E+05  1.779547E+05 -1.295392E+05 -8.432639E+04 -6.687274E+03
        70  26  8.645409E+05  1.318709E+05  1.118747E+05 -1.099594E+05 -4.461606E+04 -2.220679E+04
        70  27  7.980790E+05  1.028312E+05  7.731458E+04 -1.009800E+05 -4.915824E+03 -2.623706E+04
        71   1 -2.120501E+03 -8.243807E+04 -4.600975E+04 -9.710222E+04  1.237449E+04  2.471220E+04
        71   2  6.956208E+04 -6.804992E+04 -3.688961E+04 -9.259669E+04  1.351653E+04  2.184134E+04
        71   3  1.414040E+05 -5.249261E+04 -2.821770E+04 -9.954137E+04  1.465834E+04  1.741671E+04
        71   4  3.747688E+05  4.042505E+03  9.580203E+03 -9.948163E+04  7.352324E+03  2.471060E+04
        71   5  3.743762E+05  1.309382E+03  5.167037E+03 -9.375681E+04  4.763693E+03  2.184039E+04
        71   6  3.747847E+05  3.926351E+02  2.894945E+03 -9.948169E+04  2.174713E+03  1.741683E+04
        71   7  7.518011E+05  9.051649E+04  6.516770E+04 -1.018625E+05  2.327237E+03  2.470904E+04
        71   8  6.792848E+05  7.066465E+04  4.722291E+04 -9.491752E+04 -3.993248E+03  2.183948E+04
        71   9  6.082213E+05  5.327564E+04  3.400774E+04 -9.942197E+04 -1.031339E+04  1.741695E+04
        71  10 -2.120830E+03 -8.243876E+04 -4.601119E+04 -9.710247E+04  6.266845E-08  3.146065E-09
        71  11  6.956175E+04 -6.805048E+04 -3.689085E+04 -9.259692E+04 -1.415470E-09  4.579431E-09
        71  12  1.414037E+05 -5.249299E+04 -2.821868E+04 -9.954158E+04 -7.004702E-08  3.468514E-09
        71  13  3.747686E+05  4.041835E+03  9.578954E+03 -9.948177E+04 -2.022718E-09  3.425294E-09
        71  14  3.743761E+05  1.308863E+03  5.166098E+03 -9.375689E+04 -3.012339E-09  4.626779E-09
        71  15  3.747846E+05  3.923080E+02  2.894366E+03 -9.948172E+04 -2.562984E-09  3.109013E-09
        71  16  7.518010E+05  9.051583E+04  6.516654E+04 -1.018626E+05 -6.262637E-08  3.467448E-09
        71  17  6.792847E+05  7.066413E+04  4.722199E+04 -9.491745E+04  1.999921E-09  4.565454E-09
        71  18  6.082211E+05  5.327529E+04  3.400697E+04 -9.942183E+04  7.114631E-08  2.795946E-09
        71  19 -2.120501E+03 -8.243807E+04 -4.600975E+04 -9.710222E+04 -1.237449E+04 -2.471220E+04
        71  20  6.956208E+04 -6.804992E+04 -3.688961E+04 -9.259669E+04 -1.351653E+04 -2.184134E+04
        71  21  1.414040E+05 -5.249261E+04 -2.821770E+04 -9.954137E+04 -1.465834E+04 -1.741671E+04
        71  22  3.747688E+05  4.042505E+03  9.580203E+03 -9.948163E+04 -7.352324E+03 -2.471060E+04
        71  23  3.743762E+05  1.309382E+03  5.167037E+03 -9.375681E+04 -4.763693E+03 -2.184039E+04
        71  24  3.747847E+05  3.926351E+02  2.894945E+03 -9.948169E+04 -2.174713E+03 -1.741683E+04
        71  25  7.518011E+05  9.051649E+04  6.516770E+04 -1.018625E+05 -2.327237E+03 -2.470904E+04
        71  26  6.792848E+05  7.066465E+04  4.722291E+04 -9.491752E+04  3.993248E+03 -2.183948E+04
        71  27  6.082213E+05  5.327564E+04  3.400774E+04 -9.942197E+04  1.031339E+04 -1.741695E+04
        72   1  1.856087E+05 -4.249189E+04 -2.268799E+04 -9.944853E+04  1.435601E+04  1.431797E+04
        72   2  2.573286E+05 -2.644910E+04 -1.407780E+04 -9.372868E+04  1.425323E+04  8.961543E+03
        72   3  3.290917E+05 -1.032105E+04 -5.378261E+03 -9.957143E+04  1.415013E+04  3.395976E+03
        72   4  3.746382E+05  2.757778E+02  2.180327E+03 -9.950679E+04  1.748856E+03  1.431852E+04
        72   5  3.745781E+05  5.181882E+01  1.219204E+03 -9.372558E+04  1.143190E+03  8.962547E+03
        72   6  3.746441E+05  7.190331E-01  6.962769E+02 -9.950683E+04  5.372313E+02  3.397448E+03
        72   7  5.637045E+05  4.304203E+04  2.704899E+04 -9.956506E+04 -1.086195E+04  1.431907E+04
        72   8  4.918421E+05  2.655225E+04  1.651677E+04 -9.372248E+04 -1.196920E+04  8.963552E+03
        72   9  4.201991E+05  1.032250E+04  6.771494E+03 -9.944222E+04 -1.307662E+04  3.398918E+03
        72  10  1.856084E+05 -4.249217E+04 -2.268876E+04 -9.944869E+04 -3.374676E-08  3.648388E-09
        72  11  2.573284E+05 -2.644924E+04 -1.407833E+04 -9.372879E+04 -3.326390E-08  7.433284E-09
        72  12  3.290915E+05 -1.032112E+04 -5.378658E+03 -9.957146E+04 -3.044417E-08  1.185230E-08
        72  13  3.746381E+05  2.755567E+02  2.179936E+03 -9.950681E+04  2.031392E-09 -1.353481E-09
        72  14  3.745781E+05  5.173219E+01  1.219051E+03 -9.372559E+04 -1.071991E-09 -1.307024E-08
        72  15  3.746441E+05  7.065584E-01  6.962546E+02 -9.950683E+04 -8.024269E-10 -2.383028E-08
        72  16  5.637043E+05  4.304178E+04  2.704838E+04 -9.956494E+04  3.409117E-08  2.516261E-09
        72  17  4.918419E+05  2.655213E+04  1.651635E+04 -9.372240E+04  3.116333E-08  5.858439E-09
        72  18  4.201990E+05  1.032244E+04  6.771151E+03 -9.944219E+04  3.088519E-08  1.033761E-08
        72  19  1.856087E+05 -4.249189E+04 -2.268799E+04 -9.944853E+04 -1.435601E+04 -1.431797E+04
        72  20  2.573286E+05 -2.644910E+04 -1.407780E+04 -9.372868E+04 -1.425323E+04 -8.961543E+03
        72  21  3.290917E+05 -1.032105E+04 -5.378261E+03 -9.957143E+04 -1.415013E+04 -3.395976E+03
        72  22  3.746382E+05  2.757778E+02  2.180327E+03 -9.950679E+04 -1.748856E+03 -1.431852E+04
        72  23  3.745781E+05  5.181882E+01  1.219204E+03 -9.372558E+04 -1.143190E+03 -8.962547E+03
        72  24  3.746441E+05  7.190331E-01  6.962769E+02 -9.950683E+04 -5.372313E+02 -3.397448E+03
        72  25  5.637045E+05  4.304203E+04  2.704899E+04 -9.956506E+04  1.086195E+04 -1.431907E+04
        72  26  4.918421E+05  2.655225E+04  1.651677E+04 -9.372248E+04  1.196920E+04 -8.963552E+03
        72  27  4.201991E+05  1.032250E+04  6.771494E+03 -9.944222E+04  1.307662E+04 -3.398918E+03
        73   1  3.733283E+05 -2.977619E+02  3.421036E+02 -9.955352E+04  1.405828E+04  8.636535E+01
        73   2  4.450639E+05  1.584065E+04  9.158079E+03 -9.375493E+04  1.396387E+04 -5.601112E+03
        73   3  5.168226E+05  3.198281E+04  1.803775E+04 -9.953387E+04  1.386966E+04 -1.131117E+04
        73   4  3.746223E+05 -1.874118E+00  5.277619E+02 -9.951020E+04  4.287156E+02  8.788911E+01
        73   5  3.746076E+05 -1.513195E+01  3.016647E+02 -9.372140E+04  2.792000E+02 -5.599839E+03
        73   6  3.746189E+05 -1.529853E+01  1.766419E+02 -9.951020E+04  1.298941E+02 -1.131016E+04
        73   7  3.759168E+05  2.941133E+02  7.141178E+02 -9.946688E+04 -1.320087E+04  8.941096E+01
        73   8  3.041567E+05 -1.587101E+04 -8.554059E+03 -9.368787E+04 -1.340399E+04 -5.598567E+03
        73   9  2.324363E+05 -3.201413E+04 -1.768381E+04 -9.948654E+04 -1.360688E+04 -1.130915E+04
        73  10  3.733280E+05 -2.978150E+02  3.417324E+02 -9.955352E+04  2.673184E-08  1.219231E-08
        73  11  4.450637E+05  1.584056E+04  9.157654E+03 -9.375487E+04  3.222143E-08  7.635318E-09
        73  12  5.168224E+05  3.198262E+04  1.803715E+04 -9.953375E+04  3.070024E-08  1.680024E-09
        73  13  3.746223E+05 -1.874176E+00  5.277615E+02 -9.951020E+04  9.083351E-12 -2.348389E-08
        73  14  3.746076E+05 -1.516565E+01  3.016056E+02 -9.372140E+04 -3.290739E-09 -1.247422E-08
        73  15  3.746188E+05 -1.543593E+01  1.764015E+02 -9.951020E+04 -2.546665E-09 -2.571082E-09
        73  16  3.759166E+05  2.940665E+02  7.137905E+02 -9.946688E+04 -2.506061E-08  1.082328E-08
        73  17  3.041565E+05 -1.587110E+04 -8.554456E+03 -9.368793E+04 -2.972441E-08  6.826986E-09
        73  18  2.324361E+05 -3.201431E+04 -1.768440E+04 -9.948666E+04 -2.798192E-08  2.107777E-09
        73  19  3.733283E+05 -2.977619E+02  3.421036E+02 -9.955352E+04 -1.405828E+04 -8.636535E+01
        73  20  4.450639E+05  1.584065E+04  9.158079E+03 -9.375493E+04 -1.396387E+04  5.601112E+03
        73  21  5.168226E+05  3.198281E+04  1.803775E+04 -9.953387E+04 -1.386966E+04  1.131117E+04
        73  22  3.746223E+05 -1.874118E+00  5.277619E+02 -9.951020E+04 -4.287156E+02 -8.788911E+01
        73  23  3.746076E+05 -1.513195E+01  3.016647E+02 -9.372140E+04 -2.792000E+02  5.599839E+03
        73  24  3.746189E+05 -1.529853E+01  1.766419E+02 -9.951020E+04 -1.298941E+02  1.131016E+04
        73  25  3.759168E+05  2.941133E+02  7.141178E+02 -9.946688E+04  1.320087E+04 -8.941096E+01
        73  26  3.041567E+05 -1.587101E+04 -8.554059E+03 -9.368787E+04  1.340399E+04  5.598567E+03
        73  27  2.324363E+05 -3.201413E+04 -1.768381E+04 -9.948654E+04  1.360688E+04  1.130915E+04
        74   1  5.610763E+05  4.199671E+04  2.384881E+04 -9.952876E+04  1.384120E+04 -1.464334E+04
        74   2  6.328306E+05  5.813332E+04  3.281738E+04 -9.372505E+04  1.370478E+04 -2.034396E+04
        74   3  7.046204E+05  7.428577E+04  4.188108E+04 -9.950029E+04  1.356910E+04 -2.600476E+04
        74   4  3.746134E+05 -1.781737E+01  1.366842E+02 -9.951057E+04  1.014598E+02 -1.464269E+04
        74   5  3.746002E+05 -2.881719E+01  8.402482E+01 -9.372095E+04  5.993213E+01 -2.034427E+04
        74   6  3.746006E+05 -4.036137E+01  6.015439E+01 -9.951057E+04  1.915752E+01 -2.600603E+04
        74   7  1.881865E+05 -4.203367E+04 -2.357487E+04 -9.949238E+04 -1.363436E+04 -1.464204E+04
        74   8  1.164387E+05 -5.819358E+04 -3.264886E+04 -9.371685E+04 -1.357953E+04 -2.034458E+04
        74   9  4.469299E+04 -7.437084E+04 -4.176046E+04 -9.952084E+04 -1.352395E+04 -2.600729E+04
        74  10  5.610760E+05  4.199643E+04  2.384805E+04 -9.952860E+04  2.545941E-09  3.508576E-10
        74  11  6.328303E+05  5.813283E+04  3.281625E+04 -9.372482E+04  2.320510E-09  1.487042E-09
        74  12  7.046200E+05  7.428500E+04  4.187947E+04 -9.950001E+04 -1.022996E-09  7.335892E-10
        74  13  3.746133E+05 -1.804765E+01  1.362812E+02 -9.951057E+04  2.403859E-09  6.280163E-10
        74  14  3.746001E+05 -2.926172E+01  8.324690E+01 -9.372095E+04 -5.099605E-09  1.587037E-09
        74  15  3.746004E+05 -4.108774E+01  5.888324E+01 -9.951057E+04 -4.787833E-10  1.155272E-09
        74  16  1.881863E+05 -4.203395E+04 -2.357562E+04 -9.949254E+04  3.787790E-09  9.226105E-10
        74  17  1.164384E+05 -5.819407E+04 -3.264998E+04 -9.371708E+04  3.036514E-09  1.543076E-09
        74  18  4.469261E+04 -7.437162E+04 -4.176207E+04 -9.952112E+04 -1.555844E-09  1.484581E-09
        74  19  5.610763E+05  4.199671E+04  2.384881E+04 -9.952876E+04 -1.384120E+04  1.464334E+04
        74  20  6.328306E+05  5.813332E+04  3.281738E+04 -9.372505E+04 -1.370478E+04  2.034396E+04
        74  21  7.046204E+05  7.428577E+04  4.188108E+04 -9.950029E+04 -1.356910E+04  2.600476E+04
        74  22  3.746134E+05 -1.781737E+01  1.366842E+02 -9.951057E+04 -1.014598E+02  1.464269E+04
        74  23  3.746002E+05 -2.881719E+01  8.402482E+01 -9.372095E+04 -5.993213E+01  2.034427E+04
        74  24  3.746006E+05 -4.036137E+01  6.015439E+01 -9.951057E+04 -1.915752E+01  2.600603E+04
        74  25  1.881865E+05 -4.203367E+04 -2.357487E+04 -9.949238E+04  1.363436E+04  1.464204E+04
        74  26  1.164387E+05 -5.819358E+04 -3.264886E+04 -9.371685E+04  1.357953E+04  2.034458E+04
        74  27  4.469299E+04 -7.437084E+04 -4.176046E+04 -9.952084E+04  1.352395E+04  2.600729E+04
        75   1  7.489179E+05  8.431393E+04  4.779813E+04 -9.948592E+04  1.353543E+04 -2.929668E+04
        75   2  8.206516E+05  1.005076E+05  5.717787E+04 -9.367762E+04  1.272508E+04 -3.476368E+04
        75   3  8.925485E+05  1.168402E+05  6.712464E+04 -9.943047E+04  1.191581E+04 -3.990445E+04
        75   4  3.745969E+05 -4.912243E+01  5.557247E+01 -9.950666E+04  9.147117E+00 -2.929871E+04
        75   5  3.745744E+05 -6.906781E+01  5.633683E+01 -9.372584E+04 -1.794795E+01 -3.476726E+04
        75   6  3.745750E+05 -8.557938E+01  8.060039E+01 -9.950666E+04 -4.388187E+01 -3.990947E+04
        75   7  4.199820E+02 -8.441783E+04 -4.768686E+04 -9.952738E+04 -1.350938E+04 -2.930074E+04
        75   8 -7.129870E+04 -1.006539E+05 -5.706546E+04 -9.377401E+04 -1.275227E+04 -3.477085E+04
        75   9 -1.431239E+05 -1.170225E+05 -6.696435E+04 -9.958277E+04 -1.199409E+04 -3.991448E+04
        75  10  7.489175E+05  8.431296E+04  4.779617E+04 -9.948560E+04  2.037616E-08  1.020817E-09
        75  11  8.206511E+05  1.005063E+05  5.717530E+04 -9.367726E+04 -8.141021E-08  1.815956E-09
        75  12  8.925480E+05  1.168385E+05  6.712139E+04 -9.943009E+04 -1.793463E-07  1.541443E-09
        75  13  3.745967E+05 -5.004437E+01  5.395905E+01 -9.950666E+04 -3.285052E-11 -1.000757E-09
        75  14  3.745741E+05 -7.036604E+01  5.406493E+01 -9.372584E+04  2.049635E-09 -7.938536E-09
        75  15  3.745745E+05 -8.729004E+01  7.760674E+01 -9.950666E+04 -6.557331E-09 -1.570856E-08
        75  16  4.195554E+02 -8.441880E+04 -4.768881E+04 -9.952770E+04 -1.852484E-08  1.391595E-09
        75  17 -7.129920E+04 -1.006552E+05 -5.706804E+04 -9.377437E+04  8.261303E-08  1.823670E-09
        75  18 -1.431245E+05 -1.170242E+05 -6.696761E+04 -9.958315E+04  1.794770E-07  2.342255E-09
        75  19  7.489179E+05  8.431393E+04  4.779813E+04 -9.948592E+04 -1.353543E+04  2.929668E+04
        75  20  8.206516E+05  1.005076E+05  5.717787E+04 -9.367762E+04 -1.272508E+04  3.476368E+04
        75  21  8.925485E+05  1.168402E+05  6.712464E+04 -9.943047E+04 -1.191581E+04  3.990445E+04
        75  22  3.745969E+05 -4.912243E+01  5.557247E+01 -9.950666E+04 -9.147117E+00  2.929871E+04
        75  23  3.745744E+05 -6.906781E+01  5.633683E+01 -9.372584E+04  1.794795E+01  3.476726E+04
        75  24  3.745750E+05 -8.557938E+01  8.060039E+01 -9.950666E+04  4.388187E+01  3.990947E+04
        75  25  4.199820E+02 -8.441783E+04 -4.768686E+04 -9.952738E+04  1.350938E+04  2.930074E+04
        75  26 -7.129870E+04 -1.006539E+05 -5.706546E+04 -9.377401E+04  1.275227E+04  3.477085E+04
        75  27 -1.431239E+05 -1.170225E+05 -6.696435E+04 -9.958277E+04  1.199409E+04  3.991448E+04
        76   1  9.370349E+05  1.270138E+05  7.362603E+04 -9.936374E+04  1.171100E+04 -4.286688E+04
        76   2  1.008385E+06  1.436912E+05  8.576071E+04 -9.365744E+04  5.805385E+03 -4.655370E+04
        76   3  1.080811E+06  1.614381E+05  1.020127E+05 -9.933413E+04 -1.009071E+02 -4.781708E+04
        76   4  3.745742E+05 -9.578944E+01  1.017519E+02 -9.946712E+04 -5.817493E+01 -4.287292E+04
        76   5  3.745288E+05 -9.476119E+01  1.680375E+02 -9.377526E+04 -1.395643E+02 -4.656010E+04
        76   6  3.745434E+05 -3.410929E+01  3.111240E+02 -9.946714E+04 -2.208872E+02 -4.782253E+04
        76   7 -1.875630E+05 -1.272186E+05 -7.342400E+04 -9.957039E+04 -1.181721E+04 -4.287895E+04
        76   8 -2.589189E+05 -1.438980E+05 -8.542827E+04 -9.389296E+04 -6.078731E+03 -4.656650E+04
        76   9 -3.312215E+05 -1.615291E+05 -1.013983E+05 -9.960000E+04 -3.407367E+02 -4.782798E+04
        76  10  9.370343E+05  1.270118E+05  7.362231E+04 -9.936334E+04  1.780283E-07  1.394133E-09
        76  11  1.008385E+06  1.436889E+05  8.575658E+04 -9.365722E+04  8.424201E-08  1.954664E-09
        76  12  1.080811E+06  1.614357E+05  1.020084E+05 -9.933413E+04 -2.271747E-08  1.967193E-09
        76  13  3.745737E+05 -9.776358E+01  9.829720E+01 -9.946712E+04 -2.155432E-09 -1.572461E-08
        76  14  3.745282E+05 -9.708949E+01  1.639630E+02 -9.377527E+04 -1.018992E-09 -7.862654E-09
        76  15  3.745428E+05 -3.656557E+01  3.068255E+02 -9.946715E+04 -5.854776E-09 -3.666129E-10
        76  16 -1.875636E+05 -1.272206E+05 -7.342771E+04 -9.957080E+04 -1.861835E-07  2.285504E-09
        76  17 -2.589195E+05 -1.439004E+05 -8.543242E+04 -9.389319E+04 -8.383201E-08  2.877168E-09
        76  18 -3.312221E+05 -1.615316E+05 -1.014026E+05 -9.960001E+04  1.910184E-08  1.991323E-09
        76  19  9.370349E+05  1.270138E+05  7.362603E+04 -9.936374E+04 -1.171100E+04  4.286688E+04
        76  20  1.008385E+06  1.436912E+05  8.576071E+04 -9.365744E+04 -5.805385E+03  4.655370E+04
        76  21  1.080811E+06  1.614381E+05  1.020127E+05 -9.933413E+04  1.009071E+02  4.781708E+04
        76  22  3.745742E+05 -9.578944E+01  1.017519E+02 -9.946712E+04  5.817493E+01  4.287292E+04
        76  23  3.745288E+05 -9.476119E+01  1.680375E+02 -9.377526E+04  1.395643E+02  4.656010E+04
        76  24  3.745434E+05 -3.410929E+01  3.111240E+02 -9.946714E+04  2.208872E+02  4.782253E+04
        76  25 -1.875630E+05 -1.272186E+05 -7.342400E+04 -9.957039E+04  1.181721E+04  4.287895E+04
        76  26 -2.589189E+05 -1.438980E+05 -8.542827E+04 -9.389296E+04  6.078731E+03  4.656650E+04
        76  27 -3.312215E+05 -1.615291E+05 -1.013983E+05 -9.960000E+04  3.407367E+02  4.782798E+04
        77   1  1.126487E+06  1.727089E+05  1.127142E+05 -9.897133E+04 -1.583656E+03 -4.833052E+04
        77   2  1.194685E+06  1.930708E+05  1.449908E+05 -9.435578E+04 -4.507243E+04 -3.883759E+04
        77   3  1.270614E+06  2.215248E+05  2.075803E+05 -9.979083E+04 -8.858417E+04 -1.141255E+04
        77   4  3.745752E+05  6.275963E-01  4.176126E+02 -9.917062E+04 -2.755452E+02 -4.833572E+04
        77   5  3.744283E+05  3.260202E+02  7.609109E+02 -9.414606E+04 -6.538245E+02 -3.882004E+04
        77   6  3.745372E+05  1.271372E+03  1.512790E+03 -9.917120E+04 -1.048535E+03 -1.136139E+04
        77   7 -3.767700E+05 -1.727343E+05 -1.118899E+05 -9.936967E+04  1.031047E+03 -4.834092E+04
        77   8 -4.451670E+05 -1.924544E+05 -1.434860E+05 -9.393665E+04  4.370792E+04 -3.880244E+04
        77   9 -5.207818E+05 -2.190340E+05 -2.045791E+05 -9.855252E+04  8.636197E+04 -1.131003E+04
        77  10  1.126487E+06  1.727064E+05  1.127098E+05 -9.897139E+04  4.384730E-09  1.657160E-09
        77  11  1.194682E+06  1.930686E+05  1.449841E+05 -9.435719E+04  4.284528E-09  2.433427E-10
        77  12  1.270606E+06  2.215226E+05  2.075654E+05 -9.979164E+04  3.924078E-09  8.448684E-11
        77  13  3.745745E+05 -1.881691E+00  4.132212E+02 -9.917063E+04 -2.555726E-09  1.121929E-10
        77  14  3.744279E+05  3.244015E+02  7.580776E+02 -9.414608E+04 -1.657635E-09  3.425112E-09
        77  15  3.745371E+05  1.271233E+03  1.512546E+03 -9.917121E+04 -2.608475E-09  6.806501E-10
        77  16 -3.767707E+05 -1.727369E+05 -1.118943E+05 -9.936963E+04 -3.123299E-09  1.954481E-09
        77  17 -4.451695E+05 -1.924565E+05 -1.434924E+05 -9.393528E+04 -6.701580E-09  3.429834E-09
        77  18 -5.207899E+05 -2.190361E+05 -2.045934E+05 -9.855174E+04 -3.892870E-09  2.480229E-10
        77  19  1.126487E+06  1.727089E+05  1.127142E+05 -9.897133E+04  1.583656E+03  4.833052E+04
        77  20  1.194685E+06  1.930708E+05  1.449908E+05 -9.435578E+04  4.507243E+04  3.883759E+04
        77  21  1.270614E+06  2.215248E+05  2.075803E+05 -9.979083E+04  8.858417E+04  1.141255E+04
        77  22  3.745752E+05  6.275963E-01  4.176126E+02 -9.917062E+04  2.755452E+02  4.833572E+04
        77  23  3.744283E+05  3.260202E+02  7.609109E+02 -9.414606E+04  6.538245E+02  3.882004E+04
        77  24  3.745372E+05  1.271372E+03  1.512790E+03 -9.917120E+04  1.048535E+03  1.136139E+04
        77  25 -3.767700E+05 -1.727343E+05 -1.118899E+05 -9.936967E+04 -1.031047E+03  4.834092E+04
        77  26 -4.451670E+05 -1.924544E+05 -1.434860E+05 -9.393665E+04 -4.370792E+04  3.880244E+04
        77  27 -5.207818E+05 -2.190340E+05 -2.045791E+05 -9.855252E+04 -8.636197E+04  1.131003E+04
        78   1  2.023020E+05  9.746760E+05  1.938344E+05 -2.854154E+05  7.559184E+03  5.325101E+04
        78   2  1.390996E+05  7.488299E+05  1.154324E+05 -2.650519E+05  2.229882E+04  1.285633E+04
        78   3  8.466704E+04  5.304599E+05  6.548902E+04 -2.824267E+05  1.934420E+04 -2.752879E+04
        78   4  4.362648E+03  1.737485E+05  4.545361E+03 -2.820829E+05  7.603367E+03  1.755149E+03
        78   5  1.668599E+03  1.734279E+05  3.382343E+03 -2.632141E+05  2.231213E+04  5.749041E+01
        78   6  1.039990E+03  1.738331E+05  3.833891E+03 -2.820854E+05  1.931926E+04 -1.644856E+03
        78   7 -1.936212E+05 -6.265842E+05 -1.847781E+05 -2.787544E+05  7.647037E+03 -4.967472E+04
        78   8 -1.357821E+05 -4.016563E+05 -1.086828E+05 -2.613778E+05  2.232538E+04 -1.272976E+04
        78   9 -8.259354E+04 -1.826676E+05 -5.782311E+04 -2.817443E+05  1.929433E+04  2.422468E+04
        78  10  2.023012E+05  9.746729E+05  1.938289E+05 -2.854157E+05 -1.115042E-09  6.698246E-08
        78  11  1.390990E+05  7.488296E+05  1.154312E+05 -2.650521E+05  4.595415E-11 -1.945780E-09
        78  12  8.466643E+04  5.304590E+05  6.548690E+04 -2.824263E+05  1.677656E-09 -7.052210E-08
        78  13  4.362585E+03  1.737485E+05  4.545246E+03 -2.820829E+05 -3.222198E-10 -4.357718E-10
        78  14  1.668064E+03  1.734278E+05  3.381407E+03 -2.632141E+05 -2.414545E-09 -4.652753E-10
        78  15  1.039588E+03  1.738330E+05  3.833185E+03 -2.820854E+05  1.935611E-09 -1.390503E-09
        78  16 -1.936219E+05 -6.265869E+05 -1.847828E+05 -2.787541E+05  8.025299E-11 -6.709829E-08
        78  17 -1.357827E+05 -4.016566E+05 -1.086841E+05 -2.613776E+05 -1.756475E-10  1.965223E-09
        78  18 -8.259410E+04 -1.826683E+05 -5.782491E+04 -2.817446E+05  2.875621E-09  7.046321E-08
        78  19  2.023020E+05  9.746760E+05  1.938344E+05 -2.854154E+05 -7.559184E+03 -5.325101E+04
        78  20  1.390996E+05  7.488299E+05  1.154324E+05 -2.650519E+05 -2.229882E+04 -1.285633E+04
        78  21  8.466704E+04  5.304599E+05  6.548902E+04 -2.824267E+05 -1.934420E+04  2.752879E+04
        78  22  4.362648E+03  1.737485E+05  4.545361E+03 -2.820829E+05 -7.603367E+03 -1.755149E+03
        78  23  1.668599E+03  1.734279E+05  3.382343E+03 -2.632141E+05 -2.231213E+04 -5.749041E+01
        78  24  1.039990E+03  1.738331E+05  3.833891E+03 -2.820854E+05 -1.931926E+04  1.644856E+03
        78  25 -1.936212E+05 -6.265842E+05 -1.847781E+05 -2.787544E+05 -7.647037E+03  4.967472E+04
        78  26 -1.357821E+05 -4.016563E+05 -1.086828E+05 -2.613778E+05 -2.232538E+04  1.272976E+04
        78  27 -8.259354E+04 -1.826676E+05 -5.782311E+04 -2.817443E+05 -1.929433E+04 -2.422468E+04
        79   1  5.192927E+04  3.907668E+05  4.219207E+04 -2.829135E+05  1.165552E+04 -2.857145E+04
        79   2  5.517302E+02  1.683222E+05  6.400646E+03 -2.619326E+05 -3.333728E+02 -3.209799E+04
        79   3 -4.845673E+04 -5.306446E+04 -2.651801E+04 -2.798309E+05 -1.229601E+04 -3.562333E+04
        79   4  1.038703E+03  1.739128E+05  4.526086E+03 -2.823385E+05  1.162896E+04 -2.341545E+03
        79   5  1.719877E+03  1.734029E+05  7.149226E+03 -2.628976E+05 -3.597412E+02 -5.930100E+03
        79   6  4.782386E+03  1.739115E+05  1.268585E+04 -2.823352E+05 -1.232222E+04 -9.518618E+03
        79   7 -4.985403E+04 -4.289364E+04 -3.313895E+04 -2.817637E+05  1.160243E+04  2.387948E+04
        79   8  2.888394E+03  1.784851E+05  7.900379E+03 -2.638625E+05 -3.861908E+02  2.023799E+04
        79   9  5.801912E+04  4.009395E+05  5.189050E+04 -2.848404E+05 -1.234863E+04  1.659534E+04
        79  10  5.192891E+04  3.907659E+05  4.219028E+04 -2.829132E+05 -1.833682E-09 -3.505673E-09
        79  11  5.514536E+02  1.683211E+05  6.398710E+03 -2.619327E+05 -8.235676E-10 -3.726749E-09
        79  12 -4.845724E+04 -5.306586E+04 -2.652068E+04 -2.798313E+05 -1.473056E-09 -2.716426E-09
        79  13  1.038557E+03  1.739128E+05  4.525822E+03 -2.823385E+05 -1.934132E-09 -5.931622E-10
        79  14  1.719868E+03  1.734029E+05  7.149160E+03 -2.628976E+05 -3.035841E-09 -6.105034E-10
        79  15  4.782198E+03  1.739114E+05  1.268539E+04 -2.823353E+05 -5.656326E-10 -1.460519E-09
        79  16 -4.985433E+04 -4.289429E+04 -3.314028E+04 -2.817639E+05  8.572043E-10  3.182645E-09
        79  17  2.888284E+03  1.784847E+05  7.899609E+03 -2.638625E+05 -1.500574E-09  3.502662E-09
        79  18  5.801889E+04  4.009392E+05  5.188970E+04 -2.848402E+05  8.526912E-10  2.720505E-09
        79  19  5.192927E+04  3.907668E+05  4.219207E+04 -2.829135E+05 -1.165552E+04  2.857145E+04
        79  20  5.517302E+02  1.683222E+05  6.400646E+03 -2.619326E+05  3.333728E+02  3.209799E+04
        79  21 -4.845673E+04 -5.306446E+04 -2.651801E+04 -2.798309E+05  1.229601E+04  3.562333E+04
        79  22  1.038703E+03  1.739128E+05  4.526086E+03 -2.823385E+05 -1.162896E+04  2.341545E+03
        79  23  1.719877E+03  1.734029E+05  7.149226E+03 -2.628976E+05  3.597412E+02  5.930100E+03
        79  24  4.782386E+03  1.739115E+05  1.268585E+04 -2.823352E+05  1.232222E+04  9.518618E+03
        79  25 -4.985403E+04 -4.289364E+04 -3.313895E+04 -2.817637E+05 -1.160243E+04 -2.387948E+04
        79  26  2.888394E+03  1.784851E+05  7.900379E+03 -2.638625E+05  3.861908E+02 -2.023799E+04
        79  27  5.801912E+04  4.009395E+05  5.189050E+04 -2.848404E+05  1.234863E+04 -1.659534E+04
        80   1 -7.993833E+04 -1.911228E+05 -4.642502E+04 -2.812456E+05 -1.996214E+04 -3.746276E+04
        80   2 -1.209469E+05 -4.139356E+05 -8.310388E+04 -2.433900E+05 -2.282208E+04 -1.404719E+04
        80   3 -1.428871E+05 -6.349854E+05 -1.302695E+05 -2.432628E+05 -7.761133E+03  9.364685E+03
        80   4  6.048097E+03  1.755583E+05  1.680770E+04 -2.820795E+05 -1.998679E+04 -1.171820E+04
        80   5  1.892184E+04  1.712648E+05  3.075578E+04 -2.631998E+05 -2.280781E+04 -2.742839E+04
        80   6  5.764579E+04  1.754679E+05  6.138383E+04 -2.820396E+05 -7.717170E+03 -4.313378E+04
        80   7  9.202767E+04  5.423729E+05  8.003832E+04 -2.829139E+05 -2.001149E+04  1.404110E+04
        80   8  1.587716E+05  7.567952E+05  1.446001E+05 -2.830285E+05 -2.279269E+04 -4.082193E+04
        80   9  2.581386E+05  9.865343E+05  2.530028E+05 -3.208670E+05 -7.666687E+03 -9.570044E+04
        80  10 -7.993914E+04 -1.911244E+05 -4.642841E+04 -2.812462E+05 -6.703127E-10  3.220386E-09
        80  11 -1.209475E+05 -4.139359E+05 -8.310523E+04 -2.433902E+05  5.123950E-09 -4.722453E-10
        80  12 -1.428872E+05 -6.349855E+05 -1.302698E+05 -2.432628E+05  1.958270E-09 -3.403629E-09
        80  13  6.047631E+03  1.755581E+05  1.680670E+04 -2.820797E+05  4.643772E-09 -5.985526E-10
        80  14  1.892108E+04  1.712639E+05  3.075339E+04 -2.632003E+05  2.205494E-09 -5.218549E-10
        80  15  5.764522E+04  1.754659E+05  6.138022E+04 -2.820399E+05  8.377639E-10 -9.841842E-10
        80  16  9.202718E+04  5.423725E+05  8.003720E+04 -2.829136E+05  1.476511E-09 -3.396961E-09
        80  17  1.587706E+05  7.567933E+05  1.445960E+05 -2.830293E+05  1.302792E-11  4.305915E-10
        80  18  2.581361E+05  9.865245E+05  2.529855E+05 -3.208676E+05  1.522670E-10  3.470190E-09
        80  19 -7.993833E+04 -1.911228E+05 -4.642502E+04 -2.812456E+05  1.996214E+04  3.746276E+04
        80  20 -1.209469E+05 -4.139356E+05 -8.310388E+04 -2.433900E+05  2.282208E+04  1.404719E+04
        80  21 -1.428871E+05 -6.349854E+05 -1.302695E+05 -2.432628E+05  7.761133E+03 -9.364685E+03
        80  22  6.048097E+03  1.755583E+05  1.680770E+04 -2.820795E+05  1.998679E+04  1.171820E+04
        80  23  1.892184E+04  1.712648E+05  3.075578E+04 -2.631998E+05  2.280781E+04  2.742839E+04
        80  24  5.764579E+04  1.754679E+05  6.138383E+04 -2.820396E+05  7.717170E+03  4.313378E+04
        80  25  9.202767E+04  5.423729E+05  8.003832E+04 -2.829139E+05  2.001149E+04 -1.404110E+04
        80  26  1.587716E+05  7.567952E+05  1.446001E+05 -2.830285E+05  2.279269E+04  4.082193E+04
        80  27  2.581386E+05  9.865343E+05  2.530028E+05 -3.208670E+05  7.666687E+03  9.570044E+04
        81   1 -3.919818E+05 -2.203433E+05 -1.385220E+05 -1.659371E+05 -6.771772E+04 -2.169853E+04
        81   2 -3.680581E+05 -1.364777E+05 -7.955669E+04 -1.549905E+05 -4.232263E+04 -3.951091E+03
        81   3 -3.600983E+05 -1.038505E+05 -5.407373E+04 -1.386591E+05 -1.460840E+04  7.624909E+03
        81   4 -1.951810E+05 -1.086177E+05 -8.013450E+04 -7.313540E+04 -5.293598E+04 -1.615556E+04
        81   5 -1.836767E+05 -5.264647E+04 -3.662030E+04 -8.754622E+04 -3.640956E+04 -1.733574E+03
        81   6 -1.863736E+05 -4.615024E+04 -1.955433E+04 -9.657511E+04 -1.756523E+04  6.515198E+03
        81   7  1.659243E+03  3.126764E+03 -2.175030E+04  1.969665E+04 -3.814936E+04 -1.060849E+04
        81   8  7.393039E+02  3.119264E+04  6.313823E+03 -2.008201E+04 -3.049462E+04  4.850289E+02
        81   9 -1.261701E+04  1.155160E+04  1.496393E+04 -5.448054E+04 -2.052297E+04  5.405216E+03
        81  10 -3.919869E+05 -2.203451E+05 -1.385315E+05 -1.659383E+05 -1.580205E-09  8.033502E-11
        81  11 -3.680601E+05 -1.364782E+05 -7.956009E+04 -1.549906E+05 -2.081263E-09  7.329511E-10
        81  12 -3.600986E+05 -1.038506E+05 -5.407424E+04 -1.386590E+05  4.679817E-09 -2.592427E-09
        81  13 -1.951840E+05 -1.086187E+05 -8.014026E+04 -7.313609E+04 -1.236645E-10  5.946551E-10
        81  14 -1.836782E+05 -5.264683E+04 -3.662279E+04 -8.754627E+04  2.251635E-09  4.580887E-10
        81  15 -1.863740E+05 -4.615037E+04 -1.955499E+04 -9.657502E+04 -7.923110E-10  2.066671E-10
        81  16  1.657650E+03  3.126252E+03 -2.175324E+04  1.969633E+04  2.307569E-09  3.065626E-10
        81  17  7.383053E+02  3.119239E+04  6.312075E+03 -2.008200E+04 -1.342791E-09  9.706580E-10
        81  18 -1.261747E+04  1.155145E+04  1.496309E+04 -5.448045E+04 -4.639968E-09  2.566815E-09
        81  19 -3.919818E+05 -2.203433E+05 -1.385220E+05 -1.659371E+05  6.771772E+04  2.169853E+04
        81  20 -3.680581E+05 -1.364777E+05 -7.955669E+04 -1.549905E+05  4.232263E+04  3.951091E+03
        81  21 -3.600983E+05 -1.038505E+05 -5.407373E+04 -1.386591E+05  1.460840E+04 -7.624909E+03
        81  22 -1.951810E+05 -1.086177E+05 -8.013450E+04 -7.313540E+04  5.293598E+04  1.615556E+04
        81  23 -1.836767E+05 -5.264647E+04 -3.662030E+04 -8.754622E+04  3.640956E+04  1.733574E+03
        81  24 -1.863736E+05 -4.615024E+04 -1.955433E+04 -9.657511E+04  1.756523E+04 -6.515198E+03
        81  25  1.659243E+03  3.126764E+03 -2.175030E+04  1.969665E+04  3.814936E+04  1.060849E+04
        81  26  7.393039E+02  3.119264E+04  6.313823E+03 -2.008201E+04  3.049462E+04 -4.850289E+02
        81  27 -1.261701E+04  1.155160E+04  1.496393E+04 -5.448054E+04  2.052297E+04 -5.405216E+03
        82   1 -3.340643E+05 -1.039956E+05 -4.555350E+04 -1.371919E+05 -1.308098E+04  6.827875E+03
        82   2 -3.090391E+05 -8.857182E+04 -3.251720E+04 -1.267259E+05 -7.959870E+03  7.096369E+03
        82   3 -2.801375E+05 -8.053627E+04 -2.344814E+04 -1.219286E+05 -2.679266E+03  6.939798E+03
        82   4 -1.839499E+05 -4.828073E+04 -1.492365E+04 -9.471050E+04 -1.486014E+04  6.160037E+03
        82   5 -1.857726E+05 -4.340606E+04 -7.883791E+03 -9.234109E+04 -1.034920E+04  6.199757E+03
        82   6 -1.835982E+05 -4.579843E+04 -4.326882E+03 -9.564072E+04 -5.678963E+03  5.814374E+03
        82   7 -3.381362E+04  7.435760E+03  1.570473E+04 -5.221989E+04 -1.663975E+04  5.492025E+03
        82   8 -6.249039E+04  1.761047E+03  1.674891E+04 -5.794996E+04 -1.273905E+04  5.302952E+03
        82   9 -8.704842E+04 -1.105953E+04  1.479420E+04 -6.934884E+04 -8.679187E+03  4.688760E+03
        82  10 -3.340645E+05 -1.039957E+05 -4.555391E+04 -1.371918E+05 -1.798847E-08 -1.261495E-08
        82  11 -3.090391E+05 -8.857189E+04 -3.251741E+04 -1.267259E+05 -5.374294E-09 -8.462126E-09
        82  12 -2.801375E+05 -8.053633E+04 -2.344825E+04 -1.219286E+05  1.625003E-08  1.682165E-09
        82  13 -1.839502E+05 -4.828083E+04 -1.492413E+04 -9.471043E+04 -5.590069E-09 -2.583593E-09
        82  14 -1.857727E+05 -4.340613E+04 -7.884064E+03 -9.234104E+04 -1.716829E-08 -6.974174E-09
        82  15 -1.835982E+05 -4.579847E+04 -4.327006E+03 -9.564069E+04 -1.577200E-08 -6.869571E-09
        82  16 -3.381393E+04  7.435653E+03  1.570415E+04 -5.221982E+04  7.871962E-09  7.230234E-09
        82  17 -6.249057E+04  1.760974E+03  1.674856E+04 -5.794990E+04 -1.683795E-08 -5.544956E-09
        82  18 -8.704850E+04 -1.105957E+04  1.479402E+04 -6.934881E+04 -3.727393E-08 -1.547009E-08
        82  19 -3.340643E+05 -1.039956E+05 -4.555350E+04 -1.371919E+05  1.308098E+04 -6.827875E+03
        82  20 -3.090391E+05 -8.857182E+04 -3.251720E+04 -1.267259E+05  7.959870E+03 -7.096369E+03
        82  21 -2.801375E+05 -8.053627E+04 -2.344814E+04 -1.219286E+05  2.679266E+03 -6.939798E+03
        82  22 -1.839499E+05 -4.828073E+04 -1.492365E+04 -9.471050E+04  1.486014E+04 -6.160037E+03
        82  23 -1.857726E+05 -4.340606E+04 -7.883791E+03 -9.234109E+04  1.034920E+04 -6.199757E+03
        82  24 -1.835982E+05 -4.579843E+04 -4.326882E+03 -9.564072E+04  5.678963E+03 -5.814374E+03
        82  25 -3.381362E+04  7.435760E+03  1.570473E+04 -5.221989E+04  1.663975E+04 -5.492025E+03
        82  26 -6.249039E+04  1.761047E+03  1.674891E+04 -5.794996E+04  1.273905E+04 -5.302952E+03
        82  27 -8.704842E+04 -1.105953E+04  1.479420E+04 -6.934884E+04  8.679187E+03 -4.688760E+03
        83   1 -2.612264E+05 -7.409739E+04 -1.856847E+04 -1.169704E+05 -1.697017E+03  5.922645E+03
        83   2 -2.364757E+05 -6.148256E+04 -1.175499E+04 -1.064157E+05  5.312124E+00  4.228437E+03
        83   3 -2.066138E+05 -5.424416E+04 -5.661638E+03 -1.019115E+05  1.718574E+03  2.504807E+03
        83   4 -1.834203E+05 -4.589078E+04 -3.256221E+03 -9.553212E+04 -4.616131E+03  4.827527E+03
        83   5 -1.859758E+05 -4.318258E+04 -1.790642E+03 -9.251561E+04 -2.956012E+03  3.117563E+03
        83   6 -1.834125E+05 -4.584238E+04 -1.011637E+03 -9.554981E+04 -1.285010E+03  1.378167E+03
        83   7 -1.056080E+05 -1.768365E+04  1.205578E+04 -7.409142E+04 -7.535637E+03  3.732264E+03
        83   8 -1.354735E+05 -2.488246E+04  8.173564E+03 -7.861457E+04 -5.917581E+03  2.006598E+03
        83   9 -1.602108E+05 -3.744064E+04  3.638320E+03 -8.918795E+04 -4.288688E+03  2.514924E+02
        83  10 -2.612264E+05 -7.409743E+04 -1.856854E+04 -1.169703E+05 -1.484647E-09 -3.438669E-09
        83  11 -2.364757E+05 -6.148258E+04 -1.175503E+04 -1.064157E+05 -7.242848E-09 -2.814126E-09
        83  12 -2.066138E+05 -5.424416E+04 -5.661655E+03 -1.019115E+05 -2.269616E-09 -6.084155E-10
        83  13 -1.834204E+05 -4.589081E+04 -3.256305E+03 -9.553211E+04 -1.096857E-08 -6.058112E-09
        83  14 -1.859758E+05 -4.318259E+04 -1.790677E+03 -9.251561E+04 -7.978157E-09 -5.325067E-09
        83  15 -1.834125E+05 -4.584239E+04 -1.011644E+03 -9.554981E+04 -3.650390E-09 -2.805479E-09
        83  16 -1.056081E+05 -1.768368E+04  1.205564E+04 -7.409140E+04 -1.713674E-08 -8.820829E-09
        83  17 -1.354736E+05 -2.488248E+04  8.173490E+03 -7.861457E+04 -5.228507E-09 -8.476484E-09
        83  18 -1.602109E+05 -3.744064E+04  3.638286E+03 -8.918795E+04  9.843149E-11 -4.775604E-09
        83  19 -2.612264E+05 -7.409739E+04 -1.856847E+04 -1.169704E+05  1.697017E+03 -5.922645E+03
        83  20 -2.364757E+05 -6.148256E+04 -1.175499E+04 -1.064157E+05 -5.312124E+00 -4.228437E+03
        83  21 -2.066138E+05 -5.424416E+04 -5.661638E+03 -1.019115E+05 -1.718574E+03 -2.504807E+03
        83  22 -1.834203E+05 -4.589078E+04 -3.256221E+03 -9.553212E+04  4.616131E+03 -4.827527E+03
        83  23 -1.859758E+05 -4.318258E+04 -1.790642E+03 -9.251561E+04  2.956012E+03 -3.117563E+03
        83  24 -1.834125E+05 -4.584238E+04 -1.011637E+03 -9.554981E+04  1.285010E+03 -1.378167E+03
        83  25 -1.056080E+05 -1.768365E+04  1.205578E+04 -7.409142E+04  7.535637E+03 -3.732264E+03
        83  26 -1.354735E+05 -2.488246E+04  8.173564E+03 -7.861457E+04  5.917581E+03 -2.006598E+03
        83  27 -1.602108E+05 -3.744064E+04  3.638320E+03 -8.918795E+04  4.288688E+03 -2.514924E+02
        84   1 -1.880875E+05 -4.749988E+04 -1.624102E+03 -9.680073E+04  2.317950E+03  1.342682E+03
        84   2 -1.634138E+05 -3.495539E+04  3.969607E+03 -8.622077E+04  3.346146E+03 -6.512037E+02
        84   3 -1.335044E+05 -2.768718E+04  9.379820E+03 -8.168385E+04  4.375016E+03 -2.646755E+03
        84   4 -1.833900E+05 -4.584597E+04 -7.789322E+02 -9.553920E+04 -6.801875E+02  2.180980E+02
        84   5 -1.860083E+05 -4.321294E+04 -4.885283E+02 -9.251559E+04  3.455106E+02 -1.776768E+03
        84   6 -1.833918E+05 -4.585605E+04 -3.798403E+02 -9.553555E+04  1.371869E+03 -3.773298E+03
        84   7 -1.786925E+05 -4.419203E+04  6.628690E+01 -9.427764E+04 -3.678375E+03 -9.065045E+02
        84   8 -2.086024E+05 -5.147048E+04 -4.946677E+03 -9.881023E+04 -2.655021E+03 -2.902293E+03
        84   9 -2.332766E+05 -6.402470E+04 -1.013958E+04 -1.093862E+05 -1.631021E+03 -4.899745E+03
        84  10 -1.880875E+05 -4.749989E+04 -1.624116E+03 -9.680073E+04  1.340647E-08  5.418617E-09
        84  11 -1.634138E+05 -3.495540E+04  3.969586E+03 -8.622077E+04  2.037855E-08  7.800616E-09
        84  12 -1.335044E+05 -2.768719E+04  9.379771E+03 -8.168384E+04  3.164926E-08  7.373843E-09
        84  13 -1.833900E+05 -4.584597E+04 -7.789332E+02 -9.553920E+04 -1.265005E-09  1.258335E-09
        84  14 -1.860083E+05 -4.321295E+04 -4.885345E+02 -9.251559E+04 -1.406871E-08  1.154798E-08
        84  15 -1.833918E+05 -4.585606E+04 -3.798706E+02 -9.553555E+04 -7.288893E-09  2.352762E-08
        84  16 -1.786925E+05 -4.419204E+04  6.625992E+01 -9.427764E+04 -1.905242E-08 -9.625276E-09
        84  17 -2.086024E+05 -5.147049E+04 -4.946706E+03 -9.881023E+04 -3.670878E-08 -1.420253E-08
        84  18 -2.332766E+05 -6.402473E+04 -1.013963E+04 -1.093862E+05 -2.496754E-08 -1.285110E-08
        84  19 -1.880875E+05 -4.749988E+04 -1.624102E+03 -9.680073E+04 -2.317950E+03 -1.342682E+03
        84  20 -1.634138E+05 -3.495539E+04  3.969607E+03 -8.622077E+04 -3.346146E+03  6.512037E+02
        84  21 -1.335044E+05 -2.768718E+04  9.379820E+03 -8.168385E+04 -4.375016E+03  2.646755E+03
        84  22 -1.833900E+05 -4.584597E+04 -7.789322E+02 -9.553920E+04  6.801875E+02 -2.180980E+02
        84  23 -1.860083E+05 -4.321294E+04 -4.885283E+02 -9.251559E+04 -3.455106E+02  1.776768E+03
        84  24 -1.833918E+05 -4.585605E+04 -3.798403E+02 -9.553555E+04 -1.371869E+03  3.773298E+03
        84  25 -1.786925E+05 -4.419203E+04  6.628690E+01 -9.427764E+04  3.678375E+03  9.065045E+02
        84  26 -2.086024E+05 -5.147048E+04 -4.946677E+03 -9.881023E+04  2.655021E+03  2.902293E+03
        84  27 -2.332766E+05 -6.402470E+04 -1.013958E+04 -1.093862E+05  1.631021E+03  4.899745E+03
        85   1 -1.150170E+05 -2.092878E+04  1.318586E+04 -7.656962E+04  4.894320E+03 -3.838713E+03
        85   2 -9.035235E+04 -8.379689E+03  1.838799E+04 -6.599295E+04  5.909046E+03 -5.838504E+03
        85   3 -6.045096E+04 -1.104173E+03  2.341726E+04 -6.145676E+04  6.922707E+03 -7.834945E+03
        85   4 -1.833925E+05 -4.585631E+04 -3.773951E+02 -9.553500E+04  1.891227E+03 -4.965288E+03
        85   5 -1.860105E+05 -4.321739E+04 -4.750367E+02 -9.251555E+04  2.910615E+03 -6.963473E+03
        85   6 -1.833934E+05 -4.585298E+04 -7.492020E+02 -9.553685E+04  3.928931E+03 -8.958319E+03
        85   7 -2.517626E+05 -7.078321E+04 -1.394067E+04 -1.144983E+05 -1.111487E+03 -6.091720E+03
        85   8 -2.816592E+05 -7.805428E+04 -1.933844E+04 -1.190344E+05 -8.732117E+01 -8.088256E+03
        85   9 -3.063212E+05 -9.060085E+04 -2.491661E+04 -1.296110E+05  9.357668E+02 -1.008146E+04
        85  10 -1.150170E+05 -2.092880E+04  1.318579E+04 -7.656960E+04 -4.988822E-08 -2.588086E-08
        85  11 -9.035240E+04 -8.379735E+03  1.838786E+04 -6.599292E+04 -3.976846E-08 -2.198734E-08
        85  12 -6.045103E+04 -1.104251E+03  2.341706E+04 -6.145672E+04  1.498783E-09 -6.427536E-09
        85  13 -1.833925E+05 -4.585633E+04 -3.774481E+02 -9.553499E+04 -1.283410E-08  2.147070E-08
        85  14 -1.860105E+05 -4.321744E+04 -4.751438E+02 -9.251554E+04 -1.974432E-08  5.884382E-09
        85  15 -1.833934E+05 -4.585307E+04 -7.493818E+02 -9.553682E+04 -1.424367E-08 -4.919284E-09
        85  16 -2.517626E+05 -7.078325E+04 -1.394074E+04 -1.144983E+05  4.919734E-08  1.624278E-08
        85  17 -2.816592E+05 -7.805435E+04 -1.933857E+04 -1.190344E+05  1.341033E-08  3.350077E-09
        85  18 -3.063212E+05 -9.060096E+04 -2.491680E+04 -1.296110E+05 -1.316639E-08 -9.797858E-09
        85  19 -1.150170E+05 -2.092878E+04  1.318586E+04 -7.656962E+04 -4.894320E+03  3.838713E+03
        85  20 -9.035235E+04 -8.379689E+03  1.838799E+04 -6.599295E+04 -5.909046E+03  5.838504E+03
        85  21 -6.045096E+04 -1.104173E+03  2.341726E+04 -6.145676E+04 -6.922707E+03  7.834945E+03
        85  22 -1.833925E+05 -4.585631E+04 -3.773951E+02 -9.553500E+04 -1.891227E+03  4.965288E+03
        85  23 -1.860105E+05 -4.321739E+04 -4.750367E+02 -9.251555E+04 -2.910615E+03  6.963473E+03
        85  24 -1.833934E+05 -4.585298E+04 -7.492020E+02 -9.553685E+04 -3.928931E+03  8.958319E+03
        85  25 -2.517626E+05 -7.078321E+04 -1.394067E+04 -1.144983E+05  1.111487E+03  6.091720E+03
        85  26 -2.816592E+05 -7.805428E+04 -1.933844E+04 -1.190344E+05  8.732117E+01  8.088256E+03
        85  27 -3.063212E+05 -9.060085E+04 -2.491661E+04 -1.296110E+05 -9.357668E+02  1.008146E+04
        86   1 -4.198271E+04  5.644967E+03  2.699804E+04 -5.636495E+04  7.529242E+03 -8.993258E+03
        86   2 -1.728000E+04  1.819422E+04  3.157066E+04 -4.579573E+04  9.094916E+03 -1.076120E+04
        86   3  1.255843E+04  2.539708E+04  3.553724E+04 -4.126802E+04  1.064416E+04 -1.248438E+04
        86   4 -1.834166E+05 -4.584997E+04 -9.705615E+02 -9.554585E+04  4.527737E+03 -1.011966E+04
        86   5 -1.859834E+05 -4.319655E+04 -1.714129E+03 -9.251587E+04  6.157404E+03 -1.186384E+04
        86   6 -1.834277E+05 -4.590240E+04 -3.114513E+03 -9.552783E+04  7.770594E+03 -1.356327E+04
        86   7 -3.248297E+05 -9.734315E+04 -2.894005E+04 -1.347185E+05  1.526967E+03 -1.124578E+04
        86   8 -3.546565E+05 -1.045846E+05 -3.499999E+04 -1.392241E+05  3.220762E+03 -1.296615E+04
        86   9 -3.793724E+05 -1.171979E+05 -4.176755E+04 -1.497713E+05  4.898028E+03 -1.464179E+04
        86  10 -4.198280E+04  5.644865E+03  2.699779E+04 -5.636489E+04 -7.493442E-09 -7.617503E-09
        86  11 -1.728012E+04  1.819407E+04  3.157029E+04 -4.579565E+04 -1.310551E-08 -5.984945E-09
        86  12  1.255827E+04  2.539688E+04  3.553674E+04 -4.126791E+04 -1.177832E-08 -2.306778E-09
        86  13 -1.834166E+05 -4.585009E+04 -9.707924E+02 -9.554581E+04 -8.796056E-09 -6.532881E-09
        86  14 -1.859835E+05 -4.319671E+04 -1.714464E+03 -9.251581E+04 -1.082743E-08 -5.745205E-09
        86  15 -1.834278E+05 -4.590261E+04 -3.114973E+03 -9.552775E+04 -4.526218E-09 -3.641412E-09
        86  16 -3.248298E+05 -9.734329E+04 -2.894029E+04 -1.347185E+05  5.144968E-10 -5.825035E-09
        86  17 -3.546566E+05 -1.045847E+05 -3.500033E+04 -1.392240E+05 -2.660994E-09 -6.451695E-09
        86  18 -3.793725E+05 -1.171981E+05 -4.176799E+04 -1.497713E+05  3.571419E-09 -4.226334E-09
        86  19 -4.198271E+04  5.644967E+03  2.699804E+04 -5.636495E+04 -7.529242E+03  8.993258E+03
        86  20 -1.728000E+04  1.819422E+04  3.157066E+04 -4.579573E+04 -9.094916E+03  1.076120E+04
        86  21  1.255843E+04  2.539708E+04  3.553724E+04 -4.126802E+04 -1.064416E+04  1.248438E+04
        86  22 -1.834166E+05 -4.584997E+04 -9.705615E+02 -9.554585E+04 -4.527737E+03  1.011966E+04
        86  23 -1.859834E+05 -4.319655E+04 -1.714129E+03 -9.251587E+04 -6.157404E+03  1.186384E+04
        86  24 -1.834277E+05 -4.590240E+04 -3.114513E+03 -9.552783E+04 -7.770594E+03  1.356327E+04
        86  25 -3.248297E+05 -9.734315E+04 -2.894005E+04 -1.347185E+05 -1.526967E+03  1.124578E+04
        86  26 -3.546565E+05 -1.045846E+05 -3.499999E+04 -1.392241E+05 -3.220762E+03  1.296615E+04
        86  27 -3.793724E+05 -1.171979E+05 -4.176755E+04 -1.497713E+05 -4.898028E+03  1.464179E+04
        87   1  3.109528E+04  3.202867E+04  3.832119E+04 -3.650258E+04  1.180126E+04 -1.343320E+04
        87   2  5.558636E+04  4.482781E+04  4.053146E+04 -2.517036E+04  1.533632E+04 -1.411605E+04
        87   3  8.429996E+04  5.065302E+04  4.014300E+04 -1.949463E+04  1.863152E+04 -1.415833E+04
        87   4 -1.836001E+05 -4.581160E+04 -4.137331E+03 -9.562671E+04  8.806554E+03 -1.455773E+04
        87   5 -1.857897E+05 -4.342221E+04 -7.538271E+03 -9.235289E+04  1.326126E+04 -1.489573E+04
        87   6 -1.839407E+05 -4.819007E+04 -1.426766E+04 -9.473635E+04  1.747592E+04 -1.459308E+04
        87   7 -3.982497E+05 -1.236487E+05 -4.659848E+04 -1.547325E+05  5.812933E+03 -1.568187E+04
        87   8 -4.271067E+05 -1.316675E+05 -5.561106E+04 -1.595115E+05  1.118706E+04 -1.567510E+04
        87   9 -4.521073E+05 -1.470267E+05 -6.868193E+04 -1.699479E+05  1.632085E+04 -1.502763E+04
        87  10  3.109509E+04  3.202843E+04  3.832059E+04 -3.650245E+04 -6.609912E-10 -2.844180E-10
        87  11  5.558606E+04  4.482753E+04  4.053064E+04 -2.517019E+04 -4.666050E-09 -3.464129E-10
        87  12  8.429953E+04  5.065271E+04  4.014197E+04 -1.949442E+04 -2.191093E-09  1.849184E-10
        87  13 -1.836002E+05 -4.581185E+04 -4.137875E+03 -9.562661E+04  3.488013E-10 -1.684226E-09
        87  14 -1.857900E+05 -4.342249E+04 -7.539019E+03 -9.235273E+04 -2.234375E-09  7.932905E-10
        87  15 -1.839411E+05 -4.819038E+04 -1.426863E+04 -9.473614E+04 -2.393105E-09  1.251881E-09
        87  16 -3.982498E+05 -1.236489E+05 -4.659901E+04 -1.547324E+05  4.898840E-09 -2.494046E-09
        87  17 -4.271069E+05 -1.316678E+05 -5.561175E+04 -1.595114E+05 -3.407137E-09  1.766932E-09
        87  18 -4.521076E+05 -1.470270E+05 -6.868285E+04 -1.699478E+05 -2.150705E-11  2.367906E-09
        87  19  3.109528E+04  3.202867E+04  3.832119E+04 -3.650258E+04 -1.180126E+04  1.343320E+04
        87  20  5.558636E+04  4.482781E+04  4.053146E+04 -2.517036E+04 -1.533632E+04  1.411605E+04
        87  21  8.429996E+04  5.065302E+04  4.014300E+04 -1.949463E+04 -1.863152E+04  1.415833E+04
        87  22 -1.836001E+05 -4.581160E+04 -4.137331E+03 -9.562671E+04 -8.806554E+03  1.455773E+04
        87  23 -1.857897E+05 -4.342221E+04 -7.538271E+03 -9.235289E+04 -1.326126E+04  1.489573E+04
        87  24 -1.839407E+05 -4.819007E+04 -1.426766E+04 -9.473635E+04 -1.747592E+04  1.459308E+04
        87  25 -3.982497E+05 -1.236487E+05 -4.659848E+04 -1.547325E+05 -5.812933E+03  1.568187E+04
        87  26 -4.271067E+05 -1.316675E+05 -5.561106E+04 -1.595115E+05 -1.118706E+04  1.567510E+04
        87  27 -4.521073E+05 -1.470267E+05 -6.868193E+04 -1.699479E+05 -1.632085E+04  1.502763E+04
        88   1  1.054524E+05  5.496498E+04  3.964328E+04 -2.135215E+04  2.300863E+04 -1.387457E+04
        88   2  1.189436E+05  7.437161E+04  3.331211E+04  1.165450E+04  2.704836E+04 -9.373823E+03
        88   3  1.215776E+05  4.909673E+04  1.229370E+04  4.974948E+04  2.759629E+04  4.422559E+03
        88   4 -1.862911E+05 -4.612127E+04 -1.869429E+04 -9.647998E+04  2.007862E+04 -1.497556E+04
        88   5 -1.837516E+05 -5.230170E+04 -3.501081E+04 -8.781662E+04  3.748239E+04 -5.456605E+03
        88   6 -1.947258E+05 -1.058260E+05 -7.660963E+04 -7.406416E+04  5.139291E+04  1.335957E+04
        88   7 -4.779469E+05 -1.472023E+05 -7.703582E+04 -1.715760E+05  1.715010E+04 -1.607607E+04
        88   8 -4.863488E+05 -1.789581E+05 -1.033379E+05 -1.872392E+05  4.791080E+04 -1.542145E+03
        88   9 -5.109194E+05 -2.607155E+05 -1.655174E+05 -1.978105E+05  7.517574E+04  2.228789E+04
        88  10  1.054518E+05  5.496463E+04  3.964192E+04 -2.135190E+04 -3.710508E-10  8.952514E-10
        88  11  1.189428E+05  7.437132E+04  3.331057E+04  1.165471E+04 -6.588905E-10 -3.619921E-10
        88  12  1.215768E+05  4.909650E+04  1.229224E+04  4.974938E+04 -2.691912E-09 -1.576703E-09
        88  13 -1.862916E+05 -4.612162E+04 -1.869547E+04 -9.647974E+04  2.139367E-09 -3.433636E-10
        88  14 -1.837531E+05 -5.230210E+04 -3.501351E+04 -8.781646E+04  1.698606E-09 -6.618012E-10
        88  15 -1.947287E+05 -1.058269E+05 -7.661493E+04 -7.406471E+04  1.735064E-09  6.287850E-11
        88  16 -4.779473E+05 -1.472026E+05 -7.703686E+04 -1.715758E+05 -4.405381E-09 -6.130305E-10
        88  17 -4.863513E+05 -1.789588E+05 -1.033422E+05 -1.872391E+05  2.881919E-09 -9.482277E-10
        88  18 -5.109256E+05 -2.607175E+05 -1.655289E+05 -1.978118E+05  2.617750E-09 -2.386247E-11
        88  19  1.054524E+05  5.496498E+04  3.964328E+04 -2.135215E+04 -2.300863E+04  1.387457E+04
        88  20  1.189436E+05  7.437161E+04  3.331211E+04  1.165450E+04 -2.704836E+04  9.373823E+03
        88  21  1.215776E+05  4.909673E+04  1.229370E+04  4.974948E+04 -2.759629E+04 -4.422559E+03
        88  22 -1.862911E+05 -4.612127E+04 -1.869429E+04 -9.647998E+04 -2.007862E+04  1.497556E+04
        88  23 -1.837516E+05 -5.230170E+04 -3.501081E+04 -8.781662E+04 -3.748239E+04  5.456605E+03
        88  24 -1.947258E+05 -1.058260E+05 -7.660963E+04 -7.406416E+04 -5.139291E+04 -1.335957E+04
        88  25 -4.779469E+05 -1.472023E+05 -7.703582E+04 -1.715760E+05 -1.715010E+04  1.607607E+04
        88  26 -4.863488E+05 -1.789581E+05 -1.033379E+05 -1.872392E+05 -4.791080E+04  1.542145E+03
        88  27 -5.109194E+05 -2.607155E+05 -1.655174E+05 -1.978105E+05 -7.517574E+04 -2.228789E+04
        89   1  8.900440E+05  1.407591E+05  1.252745E+05  1.587530E+04  3.738478E+04 -1.053966E+04
        89   2  8.525519E+05  1.561614E+05  1.043599E+05  2.927985E+04  1.551936E+04 -3.646338E+04
        89   3  8.139854E+05  1.557774E+05  9.374140E+04  4.805121E+04 -6.355485E+03 -4.624697E+04
        89   4  1.188084E+05 -4.886172E+04 -5.237851E+04  4.803241E+04 -3.687131E+04 -1.060550E+04
        89   5  1.224171E+05 -1.585353E+04 -2.619408E+04  4.532542E+04 -2.344980E+04 -3.650574E+04
        89   6  1.188229E+05 -4.766153E+03 -1.420644E+04  4.798494E+04 -1.003946E+04 -4.625600E+04
        89   7 -6.518636E+05 -2.385173E+05 -2.300497E+05  8.014917E+04 -1.110359E+05 -1.067907E+04
        89   8 -6.071945E+05 -1.878962E+05 -1.567626E+05  6.135146E+04 -6.237448E+04 -3.655014E+04
        89   9 -5.758576E+05 -1.653333E+05 -1.221654E+05  4.791861E+04 -1.371946E+04 -4.626504E+04
        89  10  8.900425E+05  1.407586E+05  1.252717E+05  1.587562E+04  6.914246E-09 -1.451558E-09
        89  11  8.525513E+05  1.561599E+05  1.043570E+05  2.928031E+04  3.728462E-09 -5.268639E-09
        89  12  8.139848E+05  1.557751E+05  9.373731E+04  4.805097E+04  1.266947E-09 -4.203852E-09
        89  13  1.188069E+05 -4.886221E+04 -5.238128E+04  4.803210E+04  2.205835E-09 -3.668271E-10
        89  14  1.224161E+05 -1.585511E+04 -2.619762E+04  4.532473E+04  1.911898E-09 -4.185863E-09
        89  15  1.188222E+05 -4.768477E+03 -1.421065E+04  4.798457E+04  4.087731E-09 -2.513294E-09
        89  16 -6.518768E+05 -2.385207E+05 -2.300731E+05  8.014822E+04 -7.391430E-09 -7.197780E-10
        89  17 -6.071990E+05 -1.878987E+05 -1.567724E+05  6.134962E+04 -5.252368E-10 -5.656416E-09
        89  18 -5.758584E+05 -1.653357E+05 -1.221698E+05  4.791810E+04 -2.017018E-09 -5.329514E-09
        89  19  8.900440E+05  1.407591E+05  1.252745E+05  1.587530E+04 -3.738478E+04  1.053966E+04
        89  20  8.525519E+05  1.561614E+05  1.043599E+05  2.927985E+04 -1.551936E+04  3.646338E+04
        89  21  8.139854E+05  1.557774E+05  9.374140E+04  4.805121E+04  6.355485E+03  4.624697E+04
        89  22  1.188084E+05 -4.886172E+04 -5.237851E+04  4.803241E+04  3.687131E+04  1.060550E+04
        89  23  1.224171E+05 -1.585353E+04 -2.619408E+04  4.532542E+04  2.344980E+04  3.650574E+04
        89  24  1.188229E+05 -4.766153E+03 -1.420644E+04  4.798494E+04  1.003946E+04  4.625600E+04
        89  25 -6.518636E+05 -2.385173E+05 -2.300497E+05  8.014917E+04  1.110359E+05  1.067907E+04
        89  26 -6.071945E+05 -1.878962E+05 -1.567626E+05  6.135146E+04  6.237448E+04  3.655014E+04
        89  27 -5.758576E+05 -1.653333E+05 -1.221654E+05  4.791861E+04  1.371946E+04  4.626504E+04
        90   1  7.907299E+05  1.506254E+05  9.066160E+04  4.683022E+04 -4.868399E+03 -4.658110E+04
        90   2  7.529012E+05  1.435750E+05  8.521424E+04  4.467812E+04 -6.306788E+03 -4.711690E+04
        90   3  7.149983E+05  1.354476E+05  8.043733E+04  4.905673E+04 -7.747952E+03 -4.566936E+04
        90   4  1.202456E+05 -3.654505E+03 -1.064410E+04  4.824641E+04 -8.197353E+03 -4.658987E+04
        90   5  1.206671E+05 -1.002208E+03 -5.779218E+03  4.497853E+04 -5.301928E+03 -4.712042E+04
        90   6  1.202612E+05 -1.795777E+02 -3.252489E+03  4.824180E+04 -2.409284E+03 -4.566659E+04
        90   7 -5.497884E+05 -1.579558E+05 -1.119589E+05  4.966087E+04 -1.152285E+04 -4.659866E+04
        90   8 -5.111638E+05 -1.455977E+05 -9.677890E+04  4.527848E+04 -4.298044E+03 -4.712395E+04
        90   9 -4.741180E+05 -1.358226E+05 -8.694692E+04  4.742755E+04  2.924498E+03 -4.566383E+04
        90  10  7.907293E+05  1.506230E+05  9.065748E+04  4.683004E+04  6.726385E-08 -3.611248E-09
        90  11  7.529006E+05  1.435726E+05  8.521000E+04  4.467788E+04  1.612517E-10  8.158214E-10
        90  12  7.149977E+05  1.354454E+05  8.043330E+04  4.905645E+04 -6.105518E-08  2.850934E-09
        90  13  1.202449E+05 -3.656854E+03 -1.064830E+04  4.824610E+04  1.739167E-11 -3.238099E-09
        90  14  1.206665E+05 -1.004600E+03 -5.783444E+03  4.497832E+04  4.021863E-09 -5.140137E-10
        90  15  1.202606E+05 -1.818188E+02 -3.256419E+03  4.824171E+04 -3.053942E-09 -8.796578E-10
        90  16 -5.497892E+05 -1.579582E+05 -1.119633E+05  4.966044E+04 -6.514247E-08 -2.061536E-09
        90  17 -5.111644E+05 -1.456001E+05 -9.678310E+04  4.527831E+04 -2.215962E-09 -1.316475E-10
        90  18 -4.741186E+05 -1.358248E+05 -8.695086E+04  4.742766E+04  6.052254E-08  4.268196E-10
        90  19  7.907299E+05  1.506254E+05  9.066160E+04  4.683022E+04  4.868399E+03  4.658110E+04
        90  20  7.529012E+05  1.435750E+05  8.521424E+04  4.467812E+04  6.306788E+03  4.711690E+04
        90  21  7.149983E+05  1.354476E+05  8.043733E+04  4.905673E+04  7.747952E+03  4.566936E+04
        90  22  1.202456E+05 -3.654505E+03 -1.064410E+04  4.824641E+04  8.197353E+03  4.658987E+04
        90  23  1.206671E+05 -1.002208E+03 -5.779218E+03  4.497853E+04  5.301928E+03  4.712042E+04
        90  24  1.202612E+05 -1.795777E+02 -3.252489E+03  4.824180E+04  2.409284E+03  4.566659E+04
        90  25 -5.497884E+05 -1.579558E+05 -1.119589E+05  4.966087E+04  1.152285E+04  4.659866E+04
        90  26 -5.111638E+05 -1.455977E+05 -9.677890E+04  4.527848E+04  4.298044E+03  4.712395E+04
        90  27 -4.741180E+05 -1.358226E+05 -8.694692E+04  4.742755E+04 -2.924498E+03  4.566383E+04
        91   1  6.914232E+05  1.300138E+05  7.743764E+04  4.890730E+04 -7.306139E+03 -4.416857E+04
        91   2  6.536119E+05  1.214645E+05  7.272184E+04  4.558664E+04 -7.153584E+03 -4.158571E+04
        91   3  6.157693E+05  1.128829E+05  6.789772E+04  4.893389E+04 -7.002224E+03 -3.875957E+04
        91   4  1.204224E+05 -1.105155E+02 -2.456436E+03  4.827261E+04 -1.925037E+03 -4.416518E+04
        91   5  1.204918E+05  6.797301E+01 -1.382548E+03  4.493831E+04 -1.241358E+03 -4.158067E+04
        91   6  1.204361E+05  1.219654E+02 -7.859652E+02  4.827225E+04 -5.588644E+02 -3.875276E+04
        91   7 -4.502481E+05 -1.302493E+05 -8.235458E+04  4.763841E+04  3.451338E+03 -4.416181E+04
        91   8 -4.123402E+05 -1.213411E+05 -7.549026E+04  4.429045E+04  4.666021E+03 -4.157563E+04
        91   9 -3.746482E+05 -1.126498E+05 -6.947242E+04  4.761107E+04  5.879587E+03 -3.874596E+04
        91  10  6.914227E+05  1.300117E+05  7.743388E+04  4.890704E+04  1.137932E-07  2.883266E-09
        91  11  6.536114E+05  1.214626E+05  7.271849E+04  4.558640E+04 -1.160384E-08 -2.737892E-09
        91  12  6.157688E+05  1.128813E+05  6.789481E+04  4.893367E+04 -1.451506E-07 -1.068785E-08
        91  13  1.204219E+05 -1.126112E+02 -2.460109E+03  4.827254E+04 -5.844630E-11  2.860132E-09
        91  14  1.204913E+05  6.611590E+01 -1.385800E+03  4.493827E+04 -1.399119E-09  1.703314E-08
        91  15  1.204357E+05  1.203526E+02 -7.887880E+02  4.827224E+04  1.867278E-09  2.737101E-08
        91  16 -4.502487E+05 -1.302514E+05 -8.235826E+04  4.763853E+04 -1.149504E-07  6.710194E-10
        91  17 -4.123407E+05 -1.213430E+05 -7.549355E+04  4.429061E+04  1.231002E-08 -1.722860E-09
        91  18 -3.746487E+05 -1.126514E+05 -6.947530E+04  4.761126E+04  1.436054E-07 -1.022767E-08
        91  19  6.914232E+05  1.300138E+05  7.743764E+04  4.890730E+04  7.306139E+03  4.416857E+04
        91  20  6.536119E+05  1.214645E+05  7.272184E+04  4.558664E+04  7.153584E+03  4.158571E+04
        91  21  6.157693E+05  1.128829E+05  6.789772E+04  4.893389E+04  7.002224E+03  3.875957E+04
        91  22  1.204224E+05 -1.105155E+02 -2.456436E+03  4.827261E+04  1.925037E+03  4.416518E+04
        91  23  1.204918E+05  6.797301E+01 -1.382548E+03  4.493831E+04  1.241358E+03  4.158067E+04
        91  24  1.204361E+05  1.219654E+02 -7.859652E+02  4.827225E+04  5.588644E+02  3.875276E+04
        91  25 -4.502481E+05 -1.302493E+05 -8.235458E+04  4.763841E+04 -3.451338E+03  4.416181E+04
        91  26 -4.123402E+05 -1.213411E+05 -7.549026E+04  4.429045E+04 -4.666021E+03  4.157563E+04
        91  27 -3.746482E+05 -1.126498E+05 -6.947242E+04  4.761107E+04 -5.879587E+03  3.874596E+04
        92   1  5.921863E+05  1.074790E+05  6.464609E+04  4.889597E+04 -6.885435E+03 -3.703424E+04
        92   2  5.543903E+05  9.887594E+04  5.967498E+04  4.551419E+04 -6.789017E+03 -3.406955E+04
        92   3  5.165759E+05  9.029848E+04  5.464351E+04  4.881321E+04 -6.693387E+03 -3.107538E+04
        92   4  1.204611E+05  1.252486E+02 -5.931398E+02  4.827515E+04 -4.377046E+02 -3.702689E+04
        92   5  1.204825E+05  1.268829E+02 -3.321075E+02  4.493461E+04 -2.772038E+02 -3.406127E+04
        92   6  1.204723E+05  1.428951E+02 -1.762694E+02  4.827513E+04 -1.174851E+02 -3.106617E+04
        92   7 -3.510382E+05 -1.072383E+05 -6.583480E+04  4.765473E+04  6.005349E+03 -3.701955E+04
        92   8 -3.132342E+05 -9.863045E+04 -6.034123E+04  4.435537E+04  6.230265E+03 -3.405300E+04
        92   9 -2.754720E+05 -9.001959E+04 -5.499773E+04  4.773734E+04  6.454411E+03 -3.105697E+04
        92  10  5.921859E+05  1.074776E+05  6.464342E+04  4.889576E+04  7.858011E-08 -1.069362E-08
        92  11  5.543899E+05  9.887469E+04  5.967271E+04  4.551400E+04  8.336823E-09 -2.242534E-09
        92  12  5.165756E+05  9.029743E+04  5.464161E+04  4.881305E+04 -5.938349E-08  2.505253E-09
        92  13  1.204608E+05  1.237763E+02 -5.957167E+02  4.827514E+04 -1.373046E-11  2.423198E-08
        92  14  1.204822E+05  1.256370E+02 -3.342880E+02  4.493460E+04 -1.390880E-09  1.706164E-08
        92  15  1.204721E+05  1.418587E+02 -1.780831E+02  4.827513E+04 -1.666477E-09  4.531480E-09
        92  16 -3.510386E+05 -1.072398E+05 -6.583745E+04  4.765491E+04 -7.792092E-08 -1.163977E-08
        92  17 -3.132345E+05 -9.863171E+04 -6.034348E+04  4.435554E+04 -1.021372E-08 -5.071471E-09
        92  18 -2.754723E+05 -9.002063E+04 -5.499962E+04  4.773750E+04  5.770085E-08 -6.212510E-10
        92  19  5.921863E+05  1.074790E+05  6.464609E+04  4.889597E+04  6.885435E+03  3.703424E+04
        92  20  5.543903E+05  9.887594E+04  5.967498E+04  4.551419E+04  6.789017E+03  3.406955E+04
        92  21  5.165759E+05  9.029848E+04  5.464351E+04  4.881321E+04  6.693387E+03  3.107538E+04
        92  22  1.204611E+05  1.252486E+02 -5.931398E+02  4.827515E+04  4.377046E+02  3.702689E+04
        92  23  1.204825E+05  1.268829E+02 -3.321075E+02  4.493461E+04  2.772038E+02  3.406127E+04
        92  24  1.204723E+05  1.428951E+02 -1.762694E+02  4.827513E+04  1.174851E+02  3.106617E+04
        92  25 -3.510382E+05 -1.072383E+05 -6.583480E+04  4.765473E+04 -6.005349E+03  3.701955E+04
        92  26 -3.132342E+05 -9.863045E+04 -6.034123E+04  4.435537E+04 -6.230265E+03  3.405300E+04
        92  27 -2.754720E+05 -9.001959E+04 -5.499773E+04  4.773734E+04 -6.454411E+03  3.105697E+04
        93   1  4.929996E+05  8.490725E+04  5.129682E+04  4.878724E+04 -6.668610E+03 -2.932311E+04
        93   2  4.552188E+05  7.631333E+04  4.621750E+04  4.540317E+04 -6.659769E+03 -2.631274E+04
        93   3  4.174228E+05  6.774619E+04  4.113244E+04  4.870264E+04 -6.651504E+03 -2.329953E+04
        93   4  1.204789E+05  1.455085E+02 -1.225215E+02  4.827573E+04 -9.287297E+01 -2.931346E+04
        93   5  1.204918E+05  1.385342E+02 -3.951109E+01  4.493385E+04 -7.796255E+01 -2.630244E+04
        93   6  1.204876E+05  1.574637E+02  3.359659E+01  4.827572E+04 -6.362689E+01 -2.328858E+04
        93   7 -2.519008E+05 -8.462231E+04 -5.154329E+04  4.776448E+04  6.479097E+03 -2.930382E+04
        93   8 -2.141214E+05 -7.604117E+04 -4.629766E+04  4.446475E+04  6.500456E+03 -2.629215E+04
        93   9 -1.763582E+05 -6.743512E+04 -4.106612E+04  4.784898E+04  6.521241E+03 -2.327763E+04
        93  10  4.929993E+05  8.490631E+04  5.129512E+04  4.878708E+04  4.542680E-09  7.505941E-10
        93  11  4.552185E+05  7.631257E+04  4.621612E+04  4.540303E+04 -2.941596E-09 -3.047554E-09
        93  12  4.174227E+05  6.774559E+04  4.113134E+04  4.870252E+04 -8.046081E-09 -2.857194E-09
        93  13  1.204787E+05  1.445858E+02 -1.241364E+02  4.827573E+04  4.389117E-09  4.900516E-09
        93  14  1.204916E+05  1.377913E+02 -4.081124E+01  4.493385E+04 -4.160457E-10 -1.642978E-09
        93  15  1.204874E+05  1.568812E+02  3.257733E+01  4.827572E+04 -6.057888E-10 -2.969824E-09
        93  16 -2.519011E+05 -8.462325E+04 -5.154498E+04  4.776463E+04 -6.604908E-09  2.059455E-09
        93  17 -2.141216E+05 -7.604192E+04 -4.629903E+04  4.446489E+04  3.065312E-09 -2.374990E-09
        93  18 -1.763583E+05 -6.743572E+04 -4.106722E+04  4.784910E+04  1.157302E-08 -2.413942E-09
        93  19  4.929996E+05  8.490725E+04  5.129682E+04  4.878724E+04  6.668610E+03  2.932311E+04
        93  20  4.552188E+05  7.631333E+04  4.621750E+04  4.540317E+04  6.659769E+03  2.631274E+04
        93  21  4.174228E+05  6.774619E+04  4.113244E+04  4.870264E+04  6.651504E+03  2.329953E+04
        93  22  1.204789E+05  1.455085E+02 -1.225215E+02  4.827573E+04  9.287297E+01  2.931346E+04
        93  23  1.204918E+05  1.385342E+02 -3.951109E+01  4.493385E+04  7.796255E+01  2.630244E+04
        93  24  1.204876E+05  1.574637E+02  3.359659E+01  4.827572E+04  6.362689E+01  2.328858E+04
        93  25 -2.519008E+05 -8.462231E+04 -5.154329E+04  4.776448E+04 -6.479097E+03  2.930382E+04
        93  26 -2.141214E+05 -7.604117E+04 -4.629766E+04  4.446475E+04 -6.500456E+03  2.629215E+04
        93  27 -1.763582E+05 -6.743512E+04 -4.106612E+04  4.784898E+04 -6.521241E+03  2.327763E+04
        94   1  3.938574E+05  6.235814E+04  3.777604E+04  4.867626E+04 -6.663067E+03 -2.154480E+04
        94   2  3.560835E+05  5.377132E+04  3.271724E+04  4.528315E+04 -6.744339E+03 -1.853213E+04
        94   3  3.183057E+05  4.522886E+04  2.771414E+04  4.857058E+04 -6.826001E+03 -1.552305E+04
        94   4  1.204930E+05  1.602619E+02  7.183634E+01  4.827505E+04 -7.581456E+01 -2.153353E+04
        94   5  1.204980E+05  1.572196E+02  1.694293E+02  4.493468E+04 -1.651020E+02 -1.852042E+04
        94   6  1.204991E+05  1.999610E+02  3.281849E+02  4.827499E+04 -2.547844E+02 -1.551091E+04
        94   7 -1.527954E+05 -6.204087E+04 -3.763306E+04  4.787399E+04  6.508669E+03 -2.152227E+04
        94   8 -1.150310E+05 -5.345930E+04 -3.237886E+04  4.458632E+04  6.411751E+03 -1.850872E+04
        94   9 -7.726775E+04 -4.483065E+04 -2.705807E+04  4.797947E+04  6.314433E+03 -1.549877E+04
        94  10  3.938572E+05  6.235763E+04  3.777509E+04  4.867614E+04 -6.719404E-09  7.622236E-10
        94  11  3.560833E+05  5.377094E+04  3.271651E+04  4.528305E+04 -2.686224E-09 -9.634042E-12
        94  12  3.183056E+05  4.522859E+04  2.771360E+04  4.857050E+04 -6.462038E-09  1.409208E-09
        94  13  1.204929E+05  1.597639E+02  7.096491E+01  4.827505E+04 -4.074490E-12 -9.020279E-10
        94  14  1.204979E+05  1.568513E+02  1.687846E+02  4.493468E+04 -1.566404E-09  6.143499E-10
        94  15  1.204990E+05  1.997026E+02  3.277326E+02  4.827498E+04 -3.035138E-09  2.268678E-09
        94  16 -1.527956E+05 -6.204138E+04 -3.763401E+04  4.787410E+04  3.753834E-09  1.364209E-09
        94  17 -1.150311E+05 -5.345968E+04 -3.237958E+04  4.458641E+04  6.096950E-09 -3.726078E-09
        94  18 -7.726786E+04 -4.483091E+04 -2.705860E+04  4.797955E+04  5.784706E-09 -3.852365E-10
        94  19  3.938574E+05  6.235814E+04  3.777604E+04  4.867626E+04  6.663067E+03  2.154480E+04
        94  20  3.560835E+05  5.377132E+04  3.271724E+04  4.528315E+04  6.744339E+03  1.853213E+04
        94  21  3.183057E+05  4.522886E+04  2.771414E+04  4.857058E+04  6.826001E+03  1.552305E+04
        94  22  1.204930E+05  1.602619E+02  7.183634E+01  4.827505E+04  7.581456E+01  2.153353E+04
        94  23  1.204980E+05  1.572196E+02  1.694293E+02  4.493468E+04  1.651020E+02  1.852042E+04
        94  24  1.204991E+05  1.999610E+02  3.281849E+02  4.827499E+04  2.547844E+02  1.551091E+04
        94  25 -1.527954E+05 -6.204087E+04 -3.763306E+04  4.787399E+04 -6.508669E+03  2.152227E+04
        94  26 -1.150310E+05 -5.345930E+04 -3.237886E+04  4.458632E+04 -6.411751E+03  1.850872E+04
        94  27 -7.726775E+04 -4.483065E+04 -2.705807E+04  4.797947E+04 -6.314433E+03  1.549877E+04
        95   1  2.947641E+05  3.984884E+04  2.442870E+04  4.856121E+04 -6.893438E+03 -1.377182E+04
        95   2  2.569565E+05  3.136229E+04  1.959828E+04  4.501465E+04 -7.229077E+03 -1.078079E+04
        95   3  2.192318E+05  2.314657E+04  1.504478E+04  4.814444E+04 -7.564868E+03 -7.820720E+03
        95   4  1.205222E+05  2.108390E+02  4.413926E+02  4.827412E+04 -3.233181E+02 -1.375946E+04
        95   5  1.204776E+05  3.120187E+02  7.948614E+02  4.493545E+04 -7.267486E+02 -1.076831E+04
        95   6  1.205257E+05  6.956994E+02  1.472045E+03  4.827320E+04 -1.130348E+03 -7.808119E+03
        95   7 -5.368883E+04 -3.942847E+04 -2.354609E+04  4.798710E+04  6.245041E+03 -1.374712E+04
        95   8 -1.598227E+04 -3.073904E+04 -1.800861E+04  4.485627E+04  5.774215E+03 -1.075583E+04
        95   9  2.182946E+04 -2.175557E+04 -1.210064E+04  4.840194E+04  5.303195E+03 -7.795513E+03
        95  10  2.947640E+05  3.984862E+04  2.442825E+04  4.856113E+04 -6.884055E-09  3.961943E-09
        95  11  2.569564E+05  3.136215E+04  1.959796E+04  4.501459E+04  9.376066E-10  6.869426E-11
        95  12  2.192318E+05  2.314649E+04  1.504456E+04  4.814439E+04  1.821147E-09  1.419344E-09
        95  13  1.205221E+05  2.106356E+02  4.410366E+02  4.827412E+04 -2.165807E-09  2.930406E-09
        95  14  1.204776E+05  3.118941E+02  7.946425E+02  4.493545E+04 -2.662257E-09 -2.941463E-10
        95  15  1.205256E+05  6.956336E+02  1.471928E+03  4.827320E+04 -2.771917E-09 -3.625991E-09
        95  16 -5.368892E+04 -3.942868E+04 -2.354652E+04  4.798717E+04  4.500106E-09  1.452851E-09
        95  17 -1.598234E+04 -3.073918E+04 -1.800889E+04  4.485632E+04  2.965924E-09 -1.281911E-09
        95  18  2.182941E+04 -2.175565E+04 -1.210081E+04  4.840197E+04 -6.745739E-09 -7.758708E-09
        95  19  2.947641E+05  3.984884E+04  2.442870E+04  4.856121E+04  6.893438E+03  1.377182E+04
        95  20  2.569565E+05  3.136229E+04  1.959828E+04  4.501465E+04  7.229077E+03  1.078079E+04
        95  21  2.192318E+05  2.314657E+04  1.504478E+04  4.814444E+04  7.564868E+03  7.820720E+03
        95  22  1.205222E+05  2.108390E+02  4.413926E+02  4.827412E+04  3.233181E+02  1.375946E+04
        95  23  1.204776E+05  3.120187E+02  7.948614E+02  4.493545E+04  7.267486E+02  1.076831E+04
        95  24  1.205257E+05  6.956994E+02  1.472045E+03  4.827320E+04  1.130348E+03  7.808119E+03
        95  25 -5.368883E+04 -3.942847E+04 -2.354609E+04  4.798710E+04 -6.245041E+03  1.374712E+04
        95  26 -1.598227E+04 -3.073904E+04 -1.800861E+04  4.485627E+04 -5.774215E+03  1.075583E+04
        95  27  2.182946E+04 -2.175557E+04 -1.210064E+04  4.840194E+04 -5.303195E+03  7.795513E+03
        96   1  1.958541E+05  1.789919E+04  1.209667E+04  4.831184E+04 -7.817114E+03 -6.098494E+03
        96   2  1.576583E+05  1.078777E+04  8.336811E+03  4.269120E+04 -9.128177E+03 -3.283816E+03
        96   3  1.203458E+05  6.651568E+03  6.164354E+03  4.372531E+04 -1.043879E+04 -7.203263E+02
        96   4  1.207231E+05  8.498397E+02  1.966542E+03  4.826927E+04 -1.388447E+03 -6.085804E+03
        96   5  1.202346E+05  2.373262E+03  3.627890E+03  4.493599E+04 -3.248312E+03 -3.272179E+03
        96   6  1.207237E+05  6.967394E+03  7.257733E+03  4.825737E+04 -5.107798E+03 -7.097595E+02
        96   7  4.559795E+04 -1.619973E+04 -8.163487E+03  4.822671E+04  5.039478E+03 -6.073115E+03
        96   8  8.281245E+04 -6.041261E+03 -1.080903E+03  4.718065E+04  2.631216E+03 -3.260499E+03
        96   9  1.211018E+05  7.283313E+03  8.351232E+03  5.278944E+04  2.231969E+02 -6.991149E+02
        96  10  1.958540E+05  1.789914E+04  1.209649E+04  4.831180E+04 -2.112423E-09 -4.752752E-11
        96  11  1.576582E+05  1.078773E+04  8.336634E+03  4.269118E+04  4.185393E-10 -4.109722E-09
        96  12  1.203457E+05  6.651538E+03  6.164148E+03  4.372530E+04 -5.684527E-09 -1.545463E-09
        96  13  1.207231E+05  8.497994E+02  1.966469E+03  4.826927E+04  9.088296E-11  1.726071E-10
        96  14  1.202346E+05  2.373247E+03  3.627850E+03  4.493599E+04 -7.055058E-09 -8.068557E-09
        96  15  1.207237E+05  6.967387E+03  7.257683E+03  4.825737E+04 -3.516510E-09  1.385478E-09
        96  16  4.559792E+04 -1.619978E+04 -8.163604E+03  4.822673E+04  5.705256E-09 -3.001374E-09
        96  17  8.281244E+04 -6.041274E+03 -1.080936E+03  4.718065E+04  4.656954E-09 -2.124639E-09
        96  18  1.211018E+05  7.283312E+03  8.351231E+03  5.278944E+04  2.119245E-09 -1.315733E-09
        96  19  1.958541E+05  1.789919E+04  1.209667E+04  4.831184E+04  7.817114E+03  6.098494E+03
        96  20  1.576583E+05  1.078777E+04  8.336811E+03  4.269120E+04  9.128177E+03  3.283816E+03
        96  21  1.203458E+05  6.651568E+03  6.164354E+03  4.372531E+04  1.043879E+04  7.203263E+02
        96  22  1.207231E+05  8.498397E+02  1.966542E+03  4.826927E+04  1.388447E+03  6.085804E+03
        96  23  1.202346E+05  2.373262E+03  3.627890E+03  4.493599E+04  3.248312E+03  3.272179E+03
        96  24  1.207237E+05  6.967394E+03  7.257733E+03  4.825737E+04  5.107798E+03  7.097595E+02
        96  25  4.559795E+04 -1.619973E+04 -8.163487E+03  4.822671E+04 -5.039478E+03  6.073115E+03
        96  26  8.281245E+04 -6.041261E+03 -1.080903E+03  4.718065E+04 -2.631216E+03  3.260499E+03
        96  27  1.211018E+05  7.283313E+03  8.351232E+03  5.278944E+04 -2.231969E+02  6.991149E+02
        97   1  1.350280E+04  4.299317E+05  1.459454E+04 -3.647539E+04 -1.413664E+02  2.985104E+03
        97   2 -2.940793E+02  3.949140E+05  4.157871E+03 -2.998918E+04 -1.191237E+03 -8.188161E+02
        97   3 -9.522253E+03  3.615174E+05 -2.665430E+03 -3.194831E+04 -3.133557E+03 -4.623261E+03
        97   4  6.666405E+03  4.027192E+05  7.654127E+03 -3.232910E+04 -1.421357E+02  3.917684E+03
        97   5  1.241366E+03  4.020284E+05  4.742943E+03 -2.810913E+04 -1.193175E+03  1.485231E+03
        97   6  1.472428E+02  4.027201E+05  4.493414E+03 -3.233440E+04 -3.136633E+03 -9.479246E+02
        97   7 -1.699832E+02  3.755074E+05  7.136679E+02 -2.818299E+04 -1.428926E+02  4.850223E+03
        97   8  2.776827E+03  4.091428E+05  5.328038E+03 -2.622906E+04 -1.195099E+03  3.789303E+03
        97   9  9.816655E+03  4.439244E+05  1.165225E+04 -3.272052E+04 -3.139714E+03  2.727648E+03
        97  10  1.350280E+04  4.299317E+05  1.459452E+04 -3.647539E+04  2.088300E-09 -2.036319E-08
        97  11 -2.940811E+02  3.949140E+05  4.157867E+03 -2.998918E+04  8.360228E-09  2.001377E-10
        97  12 -9.522269E+03  3.615174E+05 -2.665488E+03 -3.194832E+04 -1.536042E-09  2.554787E-08
        97  13  6.666401E+03  4.027192E+05  7.654098E+03 -3.232910E+04  4.398905E-09  8.764263E-10
        97  14  1.241364E+03  4.020284E+05  4.742936E+03 -2.810913E+04  6.967062E-09 -8.088808E-10
        97  15  1.472320E+02  4.027201E+05  4.493394E+03 -3.233441E+04 -1.373069E-09  1.000981E-09
        97  16 -1.699895E+02  3.755074E+05  7.136237E+02 -2.818299E+04  3.619832E-09  2.078588E-08
        97  17  2.776822E+03  4.091428E+05  5.328008E+03 -2.622905E+04  5.560383E-09 -2.226806E-09
        97  18  9.816642E+03  4.439244E+05  1.165222E+04 -3.272051E+04 -1.945329E-10 -2.509762E-08
        97  19  1.350280E+04  4.299317E+05  1.459454E+04 -3.647539E+04  1.413664E+02 -2.985104E+03
        97  20 -2.940793E+02  3.949140E+05  4.157871E+03 -2.998918E+04  1.191237E+03  8.188161E+02
        97  21 -9.522253E+03  3.615174E+05 -2.665430E+03 -3.194831E+04  3.133557E+03  4.623261E+03
        97  22  6.666405E+03  4.027192E+05  7.654127E+03 -3.232910E+04  1.421357E+02 -3.917684E+03
        97  23  1.241366E+03  4.020284E+05  4.742943E+03 -2.810913E+04  1.193175E+03 -1.485231E+03
        97  24  1.472428E+02  4.027201E+05  4.493414E+03 -3.233440E+04  3.136633E+03  9.479246E+02
        97  25 -1.699832E+02  3.755074E+05  7.136679E+02 -2.818299E+04  1.428926E+02 -4.850223E+03
        97  26  2.776827E+03  4.091428E+05  5.328038E+03 -2.622906E+04  1.195099E+03 -3.789303E+03
        97  27  9.816655E+03  4.439244E+05  1.165225E+04 -3.272052E+04  3.139714E+03 -2.727648E+03
        98   1 -1.482712E+04  3.385742E+05 -6.481926E+03 -3.279945E+04 -4.564464E+03 -5.331755E+03
        98   2 -2.289796E+04  3.039690E+05 -1.076441E+04 -2.790779E+04 -6.721653E+03 -8.281935E+03
        98   3 -2.934750E+04  2.701394E+05 -1.272555E+04 -3.149637E+04 -8.509882E+03 -1.123153E+04
        98   4  2.594078E+02  4.026062E+05  4.950167E+03 -3.234158E+04 -4.567441E+03 -1.730007E+03
        98   5  2.967780E+02  4.021683E+05  7.047172E+03 -2.810079E+04 -6.724028E+03 -5.247700E+03
        98   6  2.053776E+03  4.026031E+05  1.185909E+04 -3.234009E+04 -8.511681E+03 -8.764965E+03
        98   7  1.534572E+04  4.666422E+05  1.638215E+04 -3.188367E+04 -4.570412E+03  1.872103E+03
        98   8  2.349098E+04  5.003770E+05  2.485841E+04 -2.829381E+04 -6.726405E+03 -2.212999E+03
        98   9  3.345405E+04  5.350838E+05  3.644302E+04 -3.318400E+04 -8.513487E+03 -6.297888E+03
        98  10 -1.482715E+04  3.385741E+05 -6.482019E+03 -3.279947E+04 -6.200287E-09  3.999048E-08
        98  11 -2.289803E+04  3.039689E+05 -1.076463E+04 -2.790784E+04 -2.547583E-09 -3.378546E-09
        98  12 -2.934762E+04  2.701392E+05 -1.272593E+04 -3.149645E+04 -3.170367E-09 -4.203358E-08
        98  13  2.593846E+02  4.026062E+05  4.950122E+03 -3.234159E+04 -4.485199E-09  8.862406E-10
        98  14  2.967220E+02  4.021683E+05  7.047035E+03 -2.810081E+04 -5.899943E-09 -8.617878E-10
        98  15  2.053677E+03  4.026030E+05  1.185881E+04 -3.234015E+04 -1.071875E-08  9.560409E-10
        98  16  1.534569E+04  4.666422E+05  1.638211E+04 -3.188366E+04 -1.651220E-09 -3.956845E-08
        98  17  2.349093E+04  5.003770E+05  2.485831E+04 -2.829382E+04  4.245672E-09  1.676541E-09
        98  18  3.345397E+04  5.350837E+05  3.644281E+04 -3.318404E+04 -1.418660E-09  4.251239E-08
        98  19 -1.482712E+04  3.385742E+05 -6.481926E+03 -3.279945E+04  4.564464E+03  5.331755E+03
        98  20 -2.289796E+04  3.039690E+05 -1.076441E+04 -2.790779E+04  6.721653E+03  8.281935E+03
        98  21 -2.934750E+04  2.701394E+05 -1.272555E+04 -3.149637E+04  8.509882E+03  1.123153E+04
        98  22  2.594078E+02  4.026062E+05  4.950167E+03 -3.234158E+04  4.567441E+03  1.730007E+03
        98  23  2.967780E+02  4.021683E+05  7.047172E+03 -2.810079E+04  6.724028E+03  5.247700E+03
        98  24  2.053776E+03  4.026031E+05  1.185909E+04 -3.234009E+04  8.511681E+03  8.764965E+03
        98  25  1.534572E+04  4.666422E+05  1.638215E+04 -3.188367E+04  4.570412E+03 -1.872103E+03
        98  26  2.349098E+04  5.003770E+05  2.485841E+04 -2.829381E+04  6.726405E+03  2.212999E+03
        98  27  3.345405E+04  5.350838E+05  3.644302E+04 -3.318400E+04  8.513487E+03  6.297888E+03
        99   1 -3.626798E+04  2.490875E+05 -1.377965E+04 -3.606784E+04 -9.825906E+03 -1.410329E+04
        99   2 -3.616999E+04  2.106440E+05 -1.095291E+04 -1.489586E+04 -9.165103E+03 -1.949682E+04
        99   3 -5.481978E+03  1.805433E+05  3.031033E+03 -1.857107E+03 -2.872302E+03 -2.488616E+04
        99   4  6.200054E+02  4.045953E+05  1.524425E+04 -3.226857E+04 -9.828373E+03 -1.078851E+04
        99   5  9.258259E+03  3.996687E+05  2.711263E+04 -2.818430E+04 -9.160516E+03 -2.483859E+04
        99   6  4.998236E+04  4.045816E+05  5.614445E+04 -3.223225E+04 -2.861146E+03 -3.888485E+04
        99   7  3.750666E+04  5.601266E+05  4.426718E+04 -2.846832E+04 -9.830800E+03 -7.472921E+03
        99   8  5.468498E+04  5.887279E+05  6.517655E+04 -4.147685E+04 -9.155702E+03 -3.018195E+04
        99   9  1.054467E+05  6.286683E+05  1.092556E+05 -6.261839E+04 -2.848623E+03 -5.288856E+04
        99  10 -3.626814E+04  2.490873E+05 -1.378021E+04 -3.606795E+04  3.806283E-09  4.832159E-08
        99  11 -3.617018E+04  2.106436E+05 -1.095379E+04 -1.489600E+04  4.916033E-09  4.454497E-09
        99  12 -5.482153E+03  1.805427E+05  3.029854E+03 -1.857164E+03  2.370343E-09 -3.568287E-08
        99  13  6.198704E+02  4.045952E+05  1.524385E+04 -3.226865E+04 -3.845530E-09  8.825780E-10
        99  14  9.258003E+03  3.996680E+05  2.711132E+04 -2.818448E+04 -2.885679E-09 -7.975256E-10
        99  15  4.998195E+04  4.045799E+05  5.614159E+04 -3.223233E+04 -1.196681E-09  7.266740E-10
        99  16  3.750654E+04  5.601265E+05  4.426689E+04 -2.846838E+04  1.253965E-11 -4.789681E-08
        99  17  5.468464E+04  5.887269E+05  6.517468E+04 -4.147707E+04  2.707666E-10 -6.176737E-09
        99  18  1.054459E+05  6.286653E+05  1.092503E+05 -6.261851E+04  2.231397E-10  3.620039E-08
        99  19 -3.626798E+04  2.490875E+05 -1.377965E+04 -3.606784E+04  9.825906E+03  1.410329E+04
        99  20 -3.616999E+04  2.106440E+05 -1.095291E+04 -1.489586E+04  9.165103E+03  1.949682E+04
        99  21 -5.481978E+03  1.805433E+05  3.031033E+03 -1.857107E+03  2.872302E+03  2.488616E+04
        99  22  6.200054E+02  4.045953E+05  1.524425E+04 -3.226857E+04  9.828373E+03  1.078851E+04
        99  23  9.258259E+03  3.996687E+05  2.711263E+04 -2.818430E+04  9.160516E+03  2.483859E+04
        99  24  4.998236E+04  4.045816E+05  5.614445E+04 -3.223225E+04  2.861146E+03  3.888485E+04
        99  25  3.750666E+04  5.601266E+05  4.426718E+04 -2.846832E+04  9.830800E+03  7.472921E+03
        99  26  5.468498E+04  5.887279E+05  6.517655E+04 -4.147685E+04  9.155702E+03  3.018195E+04
        99  27  1.054467E+05  6.286683E+05  1.092556E+05 -6.261839E+04  2.848623E+03  5.288856E+04
       100   1  9.672912E+05  3.469825E+05  1.749315E+05  3.590884E+05  6.822331E+04  1.420466E+04
       100   2  9.152758E+05  3.187141E+05  1.247301E+05  3.434445E+05  4.421375E+04 -2.212568E+04
       100   3  8.635536E+05  3.023291E+05  1.004724E+05  3.348568E+05  1.406414E+04 -4.210372E+04
       100   4  2.693742E+05  8.682685E+04 -1.926213E+03  1.688556E+05  2.506358E+03 -1.051071E+04
       100   5  2.726574E+05  8.491389E+04 -9.200600E+02  1.650646E+05  1.198647E+04 -3.425291E+04
       100   6  2.696067E+05  8.826005E+04 -4.745884E+02  1.683293E+05  1.531861E+04 -4.163646E+04
       100   7 -4.280277E+05 -1.732830E+05 -1.787961E+05 -2.117369E+04 -6.312698E+04 -3.519491E+04
       100   8 -3.695161E+05 -1.488435E+05 -1.265803E+05 -1.314003E+04 -2.020433E+04 -4.636648E+04
       100   9 -3.239639E+05 -1.257733E+05 -1.014307E+05  1.951079E+03  1.657181E+04 -4.116970E+04
       100  10  9.672861E+05  3.469811E+05  1.749224E+05  3.590876E+05 -5.177631E-08 -2.081327E-08
       100  11  9.152736E+05  3.187131E+05  1.247255E+05  3.434453E+05 -1.340859E-08 -7.509422E-09
       100  12  8.635529E+05  3.023272E+05  1.004687E+05  3.348572E+05  3.793566E-08  1.793468E-08
       100  13  2.693742E+05  8.682673E+04 -1.926433E+03  1.688556E+05 -4.725223E-09 -1.105554E-09
       100  14  2.726569E+05  8.491259E+04 -9.225352E+02  1.650650E+05 -7.571812E-09 -8.482090E-09
       100  15  2.696060E+05  8.825812E+04 -4.782877E+02  1.683298E+05 -4.989968E-09 -1.418961E-09
       100  16 -4.280324E+05 -1.732854E+05 -1.788059E+05 -2.117548E+04  3.674966E-08  1.528613E-08
       100  17 -3.695171E+05 -1.488459E+05 -1.265851E+05 -1.314078E+04 -2.000367E-08 -8.169491E-09
       100  18 -3.239647E+05 -1.257752E+05 -1.014344E+05  1.951628E+03 -5.067490E-08 -2.142287E-08
       100  19  9.672912E+05  3.469825E+05  1.749315E+05  3.590884E+05 -6.822331E+04 -1.420466E+04
       100  20  9.152758E+05  3.187141E+05  1.247301E+05  3.434445E+05 -4.421375E+04  2.212568E+04
       100  21  8.635536E+05  3.023291E+05  1.004724E+05  3.348568E+05 -1.406414E+04  4.210372E+04
       100  22  2.693742E+05  8.682685E+04 -1.926213E+03  1.688556E+05 -2.506358E+03  1.051071E+04
       100  23  2.726574E+05  8.491389E+04 -9.200600E+02  1.650646E+05 -1.198647E+04  3.425291E+04
       100  24  2.696067E+05  8.826005E+04 -4.745884E+02  1.683293E+05 -1.531861E+04  4.163646E+04
       100  25 -4.280277E+05 -1.732830E+05 -1.787961E+05 -2.117369E+04  6.312698E+04  3.519491E+04
       100  26 -3.695161E+05 -1.488435E+05 -1.265803E+05 -1.314003E+04  2.020433E+04  4.636648E+04
       100  27 -3.239639E+05 -1.257733E+05 -1.014307E+05  1.951079E+03 -1.657181E+04  4.116970E+04
       101   1  8.304407E+05  2.902682E+05  9.282422E+04  3.259466E+05  1.448143E+04 -4.094771E+04
       101   2  7.827870E+05  2.679610E+05  8.067437E+04  3.079980E+05  1.053043E+04 -4.111638E+04
       101   3  7.289706E+05  2.531860E+05  7.130513E+04  2.978966E+05  5.914918E+03 -3.952143E+04
       101   4  2.694780E+05  8.848732E+04 -3.531133E+02  1.685540E+05  1.504223E+04 -4.074115E+04
       101   5  2.729352E+05  8.514665E+04 -1.848509E+02  1.646084E+05  1.470266E+04 -3.954975E+04
       101   6  2.695135E+05  8.862394E+04 -9.473285E+01  1.685096E+05  1.369805E+04 -3.659397E+04
       101   7 -2.911562E+05 -1.132644E+05 -9.354001E+04  1.129237E+04  1.560249E+04 -4.053479E+04
       101   8 -2.366407E+05 -9.764183E+04 -8.104974E+04  2.132836E+04  1.887130E+04 -3.798447E+04
       101   9 -1.897162E+05 -7.591587E+04 -7.149781E+04  3.921260E+04  2.147510E+04 -3.366881E+04
       101  10  8.304400E+05  2.902663E+05  9.282068E+04  3.259471E+05  5.527928E-09  6.186955E-09
       101  11  7.827864E+05  2.679592E+05  8.067098E+04  3.079984E+05 -3.009227E-09 -2.950318E-10
       101  12  7.289702E+05  2.531844E+05  7.130213E+04  2.978967E+05 -4.550384E-09 -2.411577E-09
       101  13  2.694773E+05  8.848548E+04 -3.566582E+02  1.685544E+05 -4.303892E-09 -1.349383E-09
       101  14  2.729345E+05  8.514491E+04 -1.881971E+02  1.646089E+05 -2.535868E-09  4.252179E-09
       101  15  2.695130E+05  8.862245E+04 -9.760240E+01  1.685100E+05 -5.402338E-09 -2.098130E-09
       101  16 -2.911569E+05 -1.132662E+05 -9.354356E+04  1.129288E+04 -1.054538E-08 -6.601216E-09
       101  17 -2.366415E+05 -9.764348E+04 -8.105312E+04  2.132894E+04 -1.240653E-08 -1.386967E-09
       101  18 -1.897170E+05 -7.591721E+04 -7.150080E+04  3.921318E+04  1.029447E-09 -4.754007E-10
       101  19  8.304407E+05  2.902682E+05  9.282422E+04  3.259466E+05 -1.448143E+04  4.094771E+04
       101  20  7.827870E+05  2.679610E+05  8.067437E+04  3.079980E+05 -1.053043E+04  4.111638E+04
       101  21  7.289706E+05  2.531860E+05  7.130513E+04  2.978966E+05 -5.914918E+03  3.952143E+04
       101  22  2.694780E+05  8.848732E+04 -3.531133E+02  1.685540E+05 -1.504223E+04  4.074115E+04
       101  23  2.729352E+05  8.514665E+04 -1.848509E+02  1.646084E+05 -1.470266E+04  3.954975E+04
       101  24  2.695135E+05  8.862394E+04 -9.473285E+01  1.685096E+05 -1.369805E+04  3.659397E+04
       101  25 -2.911562E+05 -1.132644E+05 -9.354001E+04  1.129237E+04 -1.560249E+04  4.053479E+04
       101  26 -2.366407E+05 -9.764183E+04 -8.104974E+04  2.132836E+04 -1.887130E+04  3.798447E+04
       101  27 -1.897162E+05 -7.591587E+04 -7.149781E+04  3.921260E+04 -2.147510E+04  3.366881E+04
       102   1  6.969832E+05  2.417021E+05  6.594874E+04  2.889494E+05  5.151352E+03 -3.721942E+04
       102   2  6.498516E+05  2.200928E+05  5.787358E+04  2.707642E+05  3.327115E+03 -3.350100E+04
       102   3  5.958538E+05  2.055129E+05  5.009664E+04  2.605061E+05  1.430713E+03 -2.959373E+04
       102   4  2.695028E+05  8.865268E+04 -6.875900E+01  1.685298E+05  1.285693E+04 -3.432037E+04
       102   5  2.729866E+05  8.519480E+04 -2.941957E+01  1.645629E+05  1.141927E+04 -3.045517E+04
       102   6  2.695240E+05  8.868976E+04  1.381784E+00  1.685228E+05  9.909391E+03 -2.640105E+04
       102   7 -1.577753E+05 -6.437530E+04 -6.608741E+04  4.818951E+04  2.055681E+04 -3.142346E+04
       102   8 -1.037249E+05 -4.968803E+04 -5.793424E+04  5.842236E+04  1.950625E+04 -2.741129E+04
       102   9 -5.669460E+04 -2.812347E+04 -5.009621E+04  7.658393E+04  1.838346E+04 -2.321010E+04
       102  10  6.969828E+05  2.417006E+05  6.594609E+04  2.889496E+05  3.231751E-09  1.932170E-09
       102  11  6.498512E+05  2.200916E+05  5.787145E+04  2.707642E+05 -3.778075E-09  3.080363E-09
       102  12  5.958536E+05  2.055120E+05  5.009499E+04  2.605062E+05 -2.322075E-09 -2.148820E-09
       102  13  2.695023E+05  8.865137E+04 -7.128354E+01  1.685301E+05  2.590255E-09 -2.743763E-10
       102  14  2.729862E+05  8.519377E+04 -3.140794E+01  1.645632E+05  2.364580E-09 -4.768279E-09
       102  15  2.695237E+05  8.868898E+04 -1.128243E-01  1.685230E+05 -1.917368E-09  3.077188E-09
       102  16 -1.577761E+05 -6.437647E+04 -6.609006E+04  4.819003E+04 -5.483300E-09 -1.450839E-09
       102  17 -1.037255E+05 -4.968894E+04 -5.793637E+04  5.842279E+04 -2.016367E-09  3.204671E-09
       102  18 -5.669511E+04 -2.812414E+04 -5.009786E+04  7.658427E+04 -1.873185E-09  6.605499E-09
       102  19  6.969832E+05  2.417021E+05  6.594874E+04  2.889494E+05 -5.151352E+03  3.721942E+04
       102  20  6.498516E+05  2.200928E+05  5.787358E+04  2.707642E+05 -3.327115E+03  3.350100E+04
       102  21  5.958538E+05  2.055129E+05  5.009664E+04  2.605061E+05 -1.430713E+03  2.959373E+04
       102  22  2.695028E+05  8.865268E+04 -6.875900E+01  1.685298E+05 -1.285693E+04  3.432037E+04
       102  23  2.729866E+05  8.519480E+04 -2.941957E+01  1.645629E+05 -1.141927E+04  3.045517E+04
       102  24  2.695240E+05  8.868976E+04  1.381784E+00  1.685228E+05 -9.909391E+03  2.640105E+04
       102  25 -1.577753E+05 -6.437530E+04 -6.608741E+04  4.818951E+04 -2.055681E+04  3.142346E+04
       102  26 -1.037249E+05 -4.968803E+04 -5.793424E+04  5.842236E+04 -1.950625E+04  2.741129E+04
       102  27 -5.669460E+04 -2.812347E+04 -5.009621E+04  7.658393E+04 -1.838346E+04  2.321010E+04
       103   1  5.640225E+05  1.940920E+05  4.498811E+04  2.515564E+05  5.293941E+02 -2.717387E+04
       103   2  5.169912E+05  1.725644E+05  3.736452E+04  2.333550E+05 -1.093340E+03 -2.304988E+04
       103   3  4.630172E+05  1.580047E+05  2.978924E+04  2.230830E+05 -2.723694E+03 -1.890748E+04
       103   4  2.695259E+05  8.869638E+04  1.403324E+01  1.685224E+05  8.997864E+03 -2.398441E+04
       103   5  2.730078E+05  8.522485E+04  4.653786E+01  1.645569E+05  7.412621E+03 -1.984549E+04
       103   6  2.695367E+05  8.871345E+04  9.715210E+01  1.685197E+05  5.819758E+03 -1.568817E+04
       103   7 -2.487676E+04 -1.668982E+04 -4.496092E+04  8.552560E+04  1.746209E+04 -2.079656E+04
       103   8  2.909050E+04 -2.107635E+03 -3.727155E+04  9.578473E+04  1.591500E+04 -1.664245E+04
       103   9  7.609912E+04  1.942718E+04 -2.959450E+04  1.139731E+05  1.436029E+04 -1.246996E+04
       103  10  5.640223E+05  1.940912E+05  4.498672E+04  2.515564E+05  2.580986E-08  1.179158E-08
       103  11  5.169910E+05  1.725638E+05  3.736352E+04  2.333550E+05  1.885769E-09  3.189344E-11
       103  12  4.630171E+05  1.580043E+05  2.978855E+04  2.230829E+05 -2.673492E-08 -1.988520E-08
       103  13  2.695256E+05  8.869574E+04  1.279988E+01  1.685226E+05 -4.208324E-09  7.450780E-09
       103  14  2.730076E+05  8.522441E+04  4.569435E+01  1.645570E+05 -1.243008E-09  1.398023E-08
       103  15  2.695366E+05  8.871318E+04  9.662586E+01  1.685198E+05 -3.464497E-09  1.217533E-08
       103  16 -2.487720E+04 -1.669037E+04 -4.496230E+04  8.552590E+04 -2.372945E-08 -1.702119E-09
       103  17  2.909015E+04 -2.108001E+03 -3.727254E+04  9.578494E+04  7.824287E-10  2.678146E-09
       103  18  7.609885E+04  1.942695E+04 -2.959518E+04  1.139733E+05  2.134619E-08  4.941510E-09
       103  19  5.640225E+05  1.940920E+05  4.498811E+04  2.515564E+05 -5.293941E+02  2.717387E+04
       103  20  5.169912E+05  1.725644E+05  3.736452E+04  2.333550E+05  1.093340E+03  2.304988E+04
       103  21  4.630172E+05  1.580047E+05  2.978924E+04  2.230830E+05  2.723694E+03  1.890748E+04
       103  22  2.695259E+05  8.869638E+04  1.403324E+01  1.685224E+05 -8.997864E+03  2.398441E+04
       103  23  2.730078E+05  8.522485E+04  4.653786E+01  1.645569E+05 -7.412621E+03  1.984549E+04
       103  24  2.695367E+05  8.871345E+04  9.715210E+01  1.685197E+05 -5.819758E+03  1.568817E+04
       103  25 -2.487676E+04 -1.668982E+04 -4.496092E+04  8.552560E+04 -1.746209E+04  2.079656E+04
       103  26  2.909050E+04 -2.107635E+03 -3.727155E+04  9.578473E+04 -1.591500E+04  1.664245E+04
       103  27  7.609912E+04  1.942718E+04 -2.959450E+04  1.139731E+05 -1.436029E+04  1.246996E+04
       104   1  4.312215E+05  1.465893E+05  2.473106E+04  2.141377E+05 -3.657040E+03 -1.648343E+04
       104   2  3.842155E+05  1.250677E+05  1.722916E+04  1.959461E+05 -5.332422E+03 -1.235261E+04
       104   3  3.302680E+05  1.105097E+05  9.805393E+03  1.856830E+05 -7.004883E+03 -8.230374E+03
       104   4  2.695432E+05  8.871591E+04  1.326634E+02  1.685207E+05  4.884475E+03 -1.326449E+04
       104   5  2.730148E+05  8.523335E+04  2.444445E+02  1.645571E+05  3.191350E+03 -9.139971E+03
       104   6  2.695468E+05  8.871801E+04  4.484735E+02  1.685214E+05  1.501146E+03 -5.024041E+03
       104   7  1.078912E+05  3.084463E+04 -2.446633E+04  1.229144E+05  1.342374E+04 -1.004641E+04
       104   8  1.618269E+05  4.540008E+04 -1.674033E+04  1.331733E+05  1.171356E+04 -5.927916E+03
       104   9  2.088296E+05  6.692678E+04 -8.908199E+03  1.513613E+05  1.000630E+04 -1.818039E+03
       104  10  4.312214E+05  1.465890E+05  2.473052E+04  2.141377E+05 -2.696239E-08 -2.373946E-08
       104  11  3.842155E+05  1.250676E+05  1.722882E+04  1.959461E+05 -1.453386E-08 -1.030976E-08
       104  12  3.302680E+05  1.105096E+05  9.805173E+03  1.856830E+05  1.549008E-08  3.009708E-09
       104  13  2.695431E+05  8.871571E+04  1.322878E+02  1.685208E+05 -1.285544E-08  7.146979E-09
       104  14  2.730148E+05  8.523326E+04  2.442684E+02  1.645572E+05 -2.275035E-08 -7.874330E-11
       104  15  2.695467E+05  8.871799E+04  4.484219E+02  1.685214E+05 -1.191070E-08 -2.712419E-09
       104  16  1.078910E+05  3.084447E+04 -2.446686E+04  1.229145E+05  7.291100E-09  2.334099E-09
       104  17  1.618267E+05  4.540001E+04 -1.674065E+04  1.331733E+05 -1.962964E-08 -3.774383E-09
       104  18  2.088295E+05  6.692675E+04 -8.908393E+03  1.513614E+05 -3.362716E-08 -1.462220E-08
       104  19  4.312215E+05  1.465893E+05  2.473106E+04  2.141377E+05  3.657040E+03  1.648343E+04
       104  20  3.842155E+05  1.250677E+05  1.722916E+04  1.959461E+05  5.332422E+03  1.235261E+04
       104  21  3.302680E+05  1.105097E+05  9.805393E+03  1.856830E+05  7.004883E+03  8.230374E+03
       104  22  2.695432E+05  8.871591E+04  1.326634E+02  1.685207E+05 -4.884475E+03  1.326449E+04
       104  23  2.730148E+05  8.523335E+04  2.444445E+02  1.645571E+05 -3.191350E+03  9.139971E+03
       104  24  2.695468E+05  8.871801E+04  4.484735E+02  1.685214E+05 -1.501146E+03  5.024041E+03
       104  25  1.078912E+05  3.084463E+04 -2.446633E+04  1.229144E+05 -1.342374E+04  1.004641E+04
       104  26  1.618269E+05  4.540008E+04 -1.674033E+04  1.331733E+05 -1.171356E+04  5.927916E+03
       104  27  2.088296E+05  6.692678E+04 -8.908199E+03  1.513613E+05 -1.000630E+04  1.818039E+03
       105   1  2.984871E+05  9.910205E+04  4.854088E+03  1.767605E+05 -8.007765E+03 -5.840299E+03
       105   2  2.514782E+05  7.756554E+04 -2.351158E+03  1.585476E+05 -9.908556E+03 -1.860485E+03
       105   3  1.975931E+05  6.306203E+04 -9.275194E+03  1.482496E+05 -1.177350E+04  2.024620E+03
       105   4  2.695658E+05  8.871571E+04  5.992426E+02  1.685281E+05  5.016994E+02 -2.632591E+03
       105   5  2.729945E+05  8.524201E+04  1.091064E+03  1.645477E+05 -1.593288E+03  1.273939E+03
       105   6  2.695823E+05  8.883924E+04  2.017553E+03  1.684811E+05 -3.652473E+03  5.085769E+03
       105   7  2.406459E+05  7.832965E+04 -3.655205E+03  1.602962E+05  9.010647E+03  5.749201E+02
       105   8  2.945115E+05  9.291858E+04  4.533573E+03  1.705481E+05  6.722285E+03  4.408476E+03
       105   9  3.415781E+05  1.146174E+05  1.331073E+04  1.887150E+05  4.469647E+03  8.147327E+03
       105  10  2.984870E+05  9.910199E+04  4.853904E+03  1.767605E+05 -2.561201E-08 -1.190146E-08
       105  11  2.514781E+05  7.756551E+04 -2.351349E+03  1.585476E+05 -3.556135E-08 -8.300592E-09
       105  12  1.975930E+05  6.306199E+04 -9.275462E+03  1.482497E+05 -3.876252E-08  7.426292E-10
       105  13  2.695658E+05  8.871570E+04  5.992291E+02  1.685281E+05 -6.957424E-09 -3.437777E-09
       105  14  2.729945E+05  8.524200E+04  1.091056E+03  1.645477E+05 -9.746253E-09 -1.601126E-08
       105  15  2.695823E+05  8.883921E+04  2.017479E+03  1.684811E+05 -7.115065E-09 -3.096734E-08
       105  16  2.406458E+05  7.832963E+04 -3.655358E+03  1.602962E+05  2.243869E-08  8.708089E-09
       105  17  2.945114E+05  9.291855E+04  4.533452E+03  1.705481E+05  2.932375E-08  1.528672E-08
       105  18  3.415781E+05  1.146173E+05  1.331057E+04  1.887149E+05  2.108207E-08  1.473706E-08
       105  19  2.984871E+05  9.910205E+04  4.854088E+03  1.767605E+05  8.007765E+03  5.840299E+03
       105  20  2.514782E+05  7.756554E+04 -2.351158E+03  1.585476E+05  9.908556E+03  1.860485E+03
       105  21  1.975931E+05  6.306203E+04 -9.275194E+03  1.482496E+05  1.177350E+04 -2.024620E+03
       105  22  2.695658E+05  8.871571E+04  5.992426E+02  1.685281E+05 -5.016994E+02  2.632591E+03
       105  23  2.729945E+05  8.524201E+04  1.091064E+03  1.645477E+05  1.593288E+03 -1.273939E+03
       105  24  2.695823E+05  8.883924E+04  2.017553E+03  1.684811E+05  3.652473E+03 -5.085769E+03
       105  25  2.406459E+05  7.832965E+04 -3.655205E+03  1.602962E+05 -9.010647E+03 -5.749201E+02
       105  26  2.945115E+05  9.291858E+04  4.533573E+03  1.705481E+05 -6.722285E+03 -4.408476E+03
       105  27  3.415781E+05  1.146174E+05  1.331073E+04  1.887150E+05 -4.469647E+03 -8.147327E+03
       106   1  1.657775E+05  5.175421E+04 -1.382395E+04  1.394767E+05 -1.306047E+04  4.222400E+03
       106   2  1.192427E+05  3.002819E+04 -2.005498E+04  1.203623E+05 -1.511434E+04  7.501585E+03
       106   3  6.637051E+04  1.646933E+04 -2.540947E+04  1.088120E+05 -1.683648E+04  9.901643E+03
       106   4  2.697294E+05  8.886399E+04  2.699065E+03  1.685149E+05 -4.902093E+03  7.297475E+03
       106   5  2.729052E+05  8.591559E+04  4.986162E+03  1.642374E+05 -8.755159E+03  9.898034E+03
       106   6  2.700969E+05  9.148991E+04  9.574804E+03  1.675228E+05 -1.227659E+04  1.161957E+04
       106   7  3.736929E+05  1.259749E+05  1.922214E+04  1.975576E+05  3.257728E+03  1.037309E+04
       106   8  4.265921E+05  1.418052E+05  3.002669E+04  2.081225E+05 -2.394352E+03  1.229511E+04
       106   9  4.738650E+05  1.665141E+05  4.455731E+04  2.262510E+05 -7.715164E+03  1.333811E+04
       106  10  1.657773E+05  5.175414E+04 -1.382430E+04  1.394768E+05  6.811609E-08  4.308336E-08
       106  11  1.192424E+05  3.002807E+04 -2.005551E+04  1.203624E+05  2.139222E-08  1.864792E-08
       106  12  6.637018E+04  1.646915E+04 -2.541019E+04  1.088121E+05 -3.789352E-08 -1.016026E-08
       106  13  2.697293E+05  8.886392E+04  2.698920E+03  1.685149E+05 -5.374232E-09 -2.371223E-08
       106  14  2.729051E+05  8.591546E+04  4.985833E+03  1.642374E+05 -1.853359E-09 -1.586293E-08
       106  15  2.700967E+05  9.148972E+04  9.574267E+03  1.675229E+05  2.222901E-09 -1.281915E-09
       106  16  3.736929E+05  1.259748E+05  1.922192E+04  1.975575E+05 -8.483688E-08 -2.667305E-08
       106  17  4.265920E+05  1.418051E+05  3.002639E+04  2.081225E+05 -3.086841E-08 -2.697498E-09
       106  18  4.738649E+05  1.665139E+05  4.455686E+04  2.262511E+05  3.395472E-08  1.772366E-08
       106  19  1.657775E+05  5.175421E+04 -1.382395E+04  1.394767E+05  1.306047E+04 -4.222400E+03
       106  20  1.192427E+05  3.002819E+04 -2.005498E+04  1.203623E+05  1.511434E+04 -7.501585E+03
       106  21  6.637051E+04  1.646933E+04 -2.540947E+04  1.088120E+05  1.683648E+04 -9.901643E+03
       106  22  2.697294E+05  8.886399E+04  2.699065E+03  1.685149E+05  4.902093E+03 -7.297475E+03
       106  23  2.729052E+05  8.591559E+04  4.986162E+03  1.642374E+05  8.755159E+03 -9.898034E+03
       106  24  2.700969E+05  9.148991E+04  9.574804E+03  1.675228E+05  1.227659E+04 -1.161957E+04
       106  25  3.736929E+05  1.259749E+05  1.922214E+04  1.975576E+05 -3.257728E+03 -1.037309E+04
       106  26  4.265921E+05  1.418052E+05  3.002669E+04  2.081225E+05  2.394352E+03 -1.229511E+04
       106  27  4.738650E+05  1.665141E+05  4.455731E+04  2.262510E+05  7.715164E+03 -1.333811E+04
       107   1  3.421778E+04  6.649010E+03 -2.852830E+04  1.015297E+05 -1.925224E+04  1.088085E+04
       107   2 -3.304061E+03 -1.751715E+04 -3.278220E+04  6.771839E+04 -1.474441E+04  1.066865E+04
       107   3 -4.086228E+04 -1.692635E+04 -3.485817E+04  3.610157E+04 -7.168805E+03  2.309907E+03
       107   4  2.716239E+05  9.214544E+04  1.287276E+04  1.677156E+05 -1.434897E+04  1.272796E+04
       107   5  2.727624E+05  9.766477E+04  2.472982E+04  1.592510E+05 -2.650284E+04  6.237102E+03
       107   6  2.771598E+05  1.312351E+05  5.196490E+04  1.529813E+05 -3.559008E+04 -8.398201E+03
       107   7  5.090940E+05  1.776489E+05  5.427338E+04  2.339261E+05 -9.443612E+03  1.457585E+04
       107   8  5.489080E+05  2.128599E+05  8.223831E+04  2.508234E+05 -3.826683E+04  1.802782E+03
       107   9  5.952776E+05  2.794174E+05  1.387803E+05  2.699185E+05 -6.402658E+04 -1.911536E+04
       107  10  3.421735E+04  6.648784E+03 -2.852922E+04  1.015299E+05 -5.740865E-08 -1.892123E-08
       107  11 -3.304325E+03 -1.751733E+04 -3.278282E+04  6.771852E+04 -1.115602E-08 -3.820621E-09
       107  12 -4.086234E+04 -1.692637E+04 -3.485827E+04  3.610158E+04  5.076060E-08  1.981693E-08
       107  13  2.716237E+05  9.214521E+04  1.287207E+04  1.677157E+05 -3.721326E-09 -8.693797E-10
       107  14  2.727617E+05  9.766454E+04  2.472843E+04  1.592511E+05 -1.134657E-08 -2.095682E-09
       107  15  2.771585E+05  1.312347E+05  5.196239E+04  1.529811E+05 -1.914311E-09 -1.355401E-09
       107  16  5.090938E+05  1.776486E+05  5.427281E+04  2.339263E+05  4.648202E-08  2.184156E-08
       107  17  5.489065E+05  2.128595E+05  8.223555E+04  2.508234E+05 -7.859065E-09 -2.365206E-09
       107  18  5.952731E+05  2.794160E+05  1.387719E+05  2.699175E+05 -6.033567E-08 -2.432019E-08
       107  19  3.421778E+04  6.649010E+03 -2.852830E+04  1.015297E+05  1.925224E+04 -1.088085E+04
       107  20 -3.304061E+03 -1.751715E+04 -3.278220E+04  6.771839E+04  1.474441E+04 -1.066865E+04
       107  21 -4.086228E+04 -1.692635E+04 -3.485817E+04  3.610157E+04  7.168805E+03 -2.309907E+03
       107  22  2.716239E+05  9.214544E+04  1.287276E+04  1.677156E+05  1.434897E+04 -1.272796E+04
       107  23  2.727624E+05  9.766477E+04  2.472982E+04  1.592510E+05  2.650284E+04 -6.237102E+03
       107  24  2.771598E+05  1.312351E+05  5.196490E+04  1.529813E+05  3.559008E+04  8.398201E+03
       107  25  5.090940E+05  1.776489E+05  5.427338E+04  2.339261E+05  9.443612E+03 -1.457585E+04
       107  26  5.489080E+05  2.128599E+05  8.223831E+04  2.508234E+05  3.826683E+04 -1.802782E+03
       107  27  5.952776E+05  2.794174E+05  1.387803E+05  2.699185E+05  6.402658E+04  1.911536E+04
       108   1 -2.451672E+05 -1.171729E+06 -2.793849E+05  8.012251E+04 -3.914204E+03 -1.113734E+05
       108   2 -7.677283E+04 -1.066324E+06 -1.687340E+05  1.910887E+04 -1.134598E+04 -6.726777E+04
       108   3 -7.331788E+04 -1.007416E+06 -1.279797E+05  2.916741E+04 -8.290317E+03 -2.313948E+04
       108   4 -1.260372E+05 -6.954325E+05 -1.613003E+05  4.433826E+04 -3.917108E+03 -1.059873E+05
       108   5  2.115695E+04 -6.725637E+05 -7.340558E+04  8.912170E+03 -1.134578E+04 -6.637926E+04
       108   6  4.249794E+03 -6.953833E+05 -5.224400E+04  4.456022E+04 -8.286302E+03 -2.675473E+04
       108   7 -6.919542E+03 -2.189270E+05 -4.323190E+04  8.526561E+03 -3.920636E+03 -1.005970E+05
       108   8  1.190757E+05 -2.786615E+05  2.191178E+04 -1.290973E+03 -1.134561E+04 -6.549018E+04
       108   9  8.181122E+04 -3.832611E+05  2.348490E+04  5.996082E+04 -8.282468E+03 -3.037180E+04
       108  10 -2.451706E+05 -1.171742E+06 -2.794082E+05  8.012216E+04  3.676215E-09  1.297368E-11
       108  11 -7.677419E+04 -1.066329E+06 -1.687428E+05  1.910825E+04  4.445749E-09  1.810410E-09
       108  12 -7.331810E+04 -1.007416E+06 -1.279809E+05  2.916725E+04 -1.737879E-09 -5.182940E-09
       108  13 -1.260403E+05 -6.954446E+05 -1.613215E+05  4.433792E+04  4.209987E-09  5.114365E-09
       108  14  2.115562E+04 -6.725685E+05 -7.341411E+04  8.911563E+03  7.574840E-09 -3.936721E-09
       108  15  4.249528E+03 -6.953840E+05 -5.224547E+04  4.456004E+04  9.886228E-10 -2.413582E-11
       108  16 -6.922277E+03 -2.189379E+05 -4.325096E+04  8.526244E+03  4.354073E-09 -2.542304E-09
       108  17  1.190744E+05 -2.786662E+05  2.190347E+04 -1.291572E+03  6.348084E-09  9.829435E-10
       108  18  8.181090E+04 -3.832621E+05  2.348304E+04  5.996062E+04 -2.008370E-09  3.316673E-09
       108  19 -2.451672E+05 -1.171729E+06 -2.793849E+05  8.012251E+04  3.914204E+03  1.113734E+05
       108  20 -7.677283E+04 -1.066324E+06 -1.687340E+05  1.910887E+04  1.134598E+04  6.726777E+04
       108  21 -7.331788E+04 -1.007416E+06 -1.279797E+05  2.916741E+04  8.290317E+03  2.313948E+04
       108  22 -1.260372E+05 -6.954325E+05 -1.613003E+05  4.433826E+04  3.917108E+03  1.059873E+05
       108  23  2.115695E+04 -6.725637E+05 -7.340558E+04  8.912170E+03  1.134578E+04  6.637926E+04
       108  24  4.249794E+03 -6.953833E+05 -5.224400E+04  4.456022E+04  8.286302E+03  2.675473E+04
       108  25 -6.919542E+03 -2.189270E+05 -4.323190E+04  8.526561E+03  3.920636E+03  1.005970E+05
       108  26  1.190757E+05 -2.786615E+05  2.191178E+04 -1.290973E+03  1.134561E+04  6.549018E+04
       108  27  8.181122E+04 -3.832611E+05  2.348490E+04  5.996082E+04  8.282468E+03  3.037180E+04
       109   1 -5.819925E+04 -8.654467E+05 -8.985438E+04  5.055323E+04 -4.830223E+03 -1.723188E+04
       109   2 -1.849893E+04 -7.764736E+05 -5.922321E+04  8.670692E+03 -2.603409E+03  1.620561E+03
       109   3 -1.735117E+04 -6.993802E+05 -5.047199E+04  3.904447E+04 -4.887110E+01  2.047524E+04
       109   4 -1.401956E+04 -6.878562E+05 -4.677754E+04  4.475009E+04 -4.828986E+03 -1.813410E+04
       109   5  5.011089E+03 -6.819252E+05 -3.629818E+04  8.622319E+03 -2.602281E+03  5.804333E+02
       109   6 -1.448309E+04 -6.878543E+05 -4.759941E+04  4.475095E+04 -4.754483E+01  1.929471E+04
       109   7  3.015793E+04 -5.102368E+05 -3.702963E+03  3.894529E+04 -4.827732E+03 -1.903657E+04
       109   8  2.852045E+04 -5.873685E+05 -1.337378E+04  8.573941E+03 -2.601153E+03 -4.598521E+02
       109   9 -1.161490E+04 -6.763282E+05 -4.472681E+04  5.045754E+04 -4.624030E+01  1.811416E+04
       109  10 -5.819935E+04 -8.654470E+05 -8.985498E+04  5.055316E+04 -1.469409E-09 -2.898581E-09
       109  11 -1.849894E+04 -7.764736E+05 -5.922322E+04  8.670696E+03  5.994252E-10  4.704371E-09
       109  12 -1.735128E+04 -6.993807E+05 -5.047278E+04  3.904447E+04 -5.912160E-10  2.979101E-09
       109  13 -1.401968E+04 -6.878565E+05 -4.677821E+04  4.475002E+04 -2.247645E-09  1.513620E-09
       109  14  5.011082E+03 -6.819252E+05 -3.629819E+04  8.622320E+03 -7.639038E-10 -3.972187E-09
       109  15 -1.448319E+04 -6.878547E+05 -4.760011E+04  4.475096E+04 -6.181166E-10 -8.026127E-10
       109  16  3.015780E+04 -5.102372E+05 -3.703689E+03  3.894521E+04  2.380349E-09  2.453904E-10
       109  17  2.852044E+04 -5.873685E+05 -1.337380E+04  8.573940E+03  3.975358E-09 -2.295512E-09
       109  18 -1.161499E+04 -6.763285E+05 -4.472743E+04  5.045754E+04  2.354399E-09 -3.061173E-09
       109  19 -5.819925E+04 -8.654467E+05 -8.985438E+04  5.055323E+04  4.830223E+03  1.723188E+04
       109  20 -1.849893E+04 -7.764736E+05 -5.922321E+04  8.670692E+03  2.603409E+03 -1.620561E+03
       109  21 -1.735117E+04 -6.993802E+05 -5.047199E+04  3.904447E+04  4.887110E+01 -2.047524E+04
       109  22 -1.401956E+04 -6.878562E+05 -4.677754E+04  4.475009E+04  4.828986E+03  1.813410E+04
       109  23  5.011089E+03 -6.819252E+05 -3.629818E+04  8.622319E+03  2.602281E+03 -5.804333E+02
       109  24 -1.448309E+04 -6.878543E+05 -4.759941E+04  4.475095E+04  4.754483E+01 -1.929471E+04
       109  25  3.015793E+04 -5.102368E+05 -3.702963E+03  3.894529E+04  4.827732E+03  1.903657E+04
       109  26  2.852045E+04 -5.873685E+05 -1.337378E+04  8.573941E+03  2.601153E+03  4.598521E+02
       109  27 -1.161490E+04 -6.763282E+05 -4.472681E+04  5.045754E+04  4.624030E+01 -1.811416E+04
       110   1  3.520300E+04 -5.722492E+05 -2.336538E+04  6.078309E+04  2.938262E+03  3.090565E+04
       110   2  7.309638E+04 -4.660075E+05 -2.567429E+04 -1.533000E+03  5.997290E+03  6.874586E+04
       110   3 -5.772122E+04 -4.065851E+05 -9.474326E+04  7.962650E+03  2.220511E+03  1.065833E+05
       110   4  4.516342E+03 -6.957373E+05 -5.341667E+04  4.471072E+04  2.940276E+03  2.808694E+04
       110   5  2.185851E+04 -6.720813E+05 -7.552298E+04  8.717443E+03  5.998399E+03  6.886506E+04
       110   6 -1.300545E+05 -6.957836E+05 -1.664498E+05  4.453949E+04  2.222923E+03  1.096352E+05
       110   7 -2.617046E+04 -8.192108E+05 -8.346889E+04  2.864155E+04  2.942436E+03  2.526878E+04
       110   8 -2.938209E+04 -8.781160E+05 -1.253747E+05  1.896448E+04  5.999513E+03  6.898422E+04
       110   9 -2.023890E+05 -9.849032E+05 -2.381619E+05  8.109929E+04  2.225697E+03  1.126857E+05
       110  10  3.520274E+04 -5.722502E+05 -2.336719E+04  6.078302E+04 -4.567972E-09 -3.371764E-09
       110  11  7.309507E+04 -4.660126E+05 -2.568324E+04 -1.533332E+03 -1.067820E-11  1.658539E-09
       110  12 -5.772428E+04 -4.065973E+05 -9.476463E+04  7.962459E+03 -1.377192E-10 -5.671658E-10
       110  13  4.516121E+03 -6.957381E+05 -5.341817E+04  4.471065E+04 -1.768567E-09  2.383133E-09
       110  14  2.185720E+04 -6.720864E+05 -7.553197E+04  8.717110E+03  6.249832E-10 -2.093605E-09
       110  15 -1.300577E+05 -6.957965E+05 -1.664724E+05  4.453930E+04 -2.839725E-09 -3.104528E-10
       110  16 -2.617064E+04 -8.192115E+05 -8.347011E+04  2.864149E+04  1.115799E-09  9.248576E-10
       110  17 -2.938341E+04 -8.781212E+05 -1.253837E+05  1.896415E+04  6.340965E-09  2.034531E-09
       110  18 -2.023925E+05 -9.849168E+05 -2.381858E+05  8.109909E+04  2.351679E-09 -9.164684E-10
       110  19  3.520300E+04 -5.722492E+05 -2.336538E+04  6.078309E+04 -2.938262E+03 -3.090565E+04
       110  20  7.309638E+04 -4.660075E+05 -2.567429E+04 -1.533000E+03 -5.997290E+03 -6.874586E+04
       110  21 -5.772122E+04 -4.065851E+05 -9.474326E+04  7.962650E+03 -2.220511E+03 -1.065833E+05
       110  22  4.516342E+03 -6.957373E+05 -5.341667E+04  4.471072E+04 -2.940276E+03 -2.808694E+04
       110  23  2.185851E+04 -6.720813E+05 -7.552298E+04  8.717443E+03 -5.998399E+03 -6.886506E+04
       110  24 -1.300545E+05 -6.957836E+05 -1.664498E+05  4.453949E+04 -2.222923E+03 -1.096352E+05
       110  25 -2.617046E+04 -8.192108E+05 -8.346889E+04  2.864155E+04 -2.942436E+03 -2.526878E+04
       110  26 -2.938209E+04 -8.781160E+05 -1.253747E+05  1.896448E+04 -5.999513E+03 -6.898422E+04
       110  27 -2.023890E+05 -9.849032E+05 -2.381619E+05  8.109929E+04 -2.225697E+03 -1.126857E+05
       111   1  4.647083E+05  1.583519E+05  9.690367E+04  1.713726E+05  4.782347E+04  1.681026E+04
       111   2  4.480333E+05  8.384505E+04  5.122078E+04  1.722184E+05  3.076328E+04  7.977480E+03
       111   3  4.514237E+05  7.715062E+04  3.584261E+04  1.635006E+05  1.276451E+04  1.634022E+03
       111   4  3.842556E+05  1.095181E+05  7.150768E+04  1.304901E+05  4.586547E+04  1.606987E+04
       111   5  3.705932E+05  4.920540E+04  3.013881E+04  1.452903E+05  3.026220E+04  7.788069E+03
       111   6  3.767106E+05  5.642056E+04  1.792348E+04  1.505261E+05  1.372003E+04  1.994714E+03
       111   7  3.038109E+05  6.068907E+04  4.611141E+04  8.961383E+04  4.390776E+04  1.532974E+04
       111   8  2.931592E+05  1.456698E+04  9.056368E+03  1.183656E+05  2.976118E+04  7.598697E+03
       111   9  3.020028E+05  3.569028E+04  3.897308E+00  1.375527E+05  1.467543E+04  2.355389E+03
       111  10  4.647058E+05  1.583510E+05  9.689885E+04  1.713719E+05  1.610312E-10  7.635560E-10
       111  11  4.480322E+05  8.384472E+04  5.121888E+04  1.722182E+05 -6.118716E-10 -8.870449E-10
       111  12  4.514235E+05  7.715058E+04  3.584230E+04  1.635005E+05 -1.355991E-09  4.370910E-09
       111  13  3.842533E+05  1.095173E+05  7.150325E+04  1.304895E+05  2.514042E-09 -2.924329E-09
       111  14  3.705922E+05  4.920509E+04  3.013697E+04  1.452901E+05  4.913530E-09 -6.192975E-09
       111  15  3.767104E+05  5.642051E+04  1.792312E+04  1.505261E+05 -1.926845E-10 -1.604819E-09
       111  16  3.038088E+05  6.068830E+04  4.610735E+04  8.961329E+04  4.028173E-09  4.365200E-09
       111  17  2.931583E+05  1.456668E+04  9.054596E+03  1.183654E+05  3.697624E-09  1.984432E-09
       111  18  3.020025E+05  3.569021E+04  3.482389E+00  1.375526E+05  1.037363E-09 -2.232681E-09
       111  19  4.647083E+05  1.583519E+05  9.690367E+04  1.713726E+05 -4.782347E+04 -1.681026E+04
       111  20  4.480333E+05  8.384505E+04  5.122078E+04  1.722184E+05 -3.076328E+04 -7.977480E+03
       111  21  4.514237E+05  7.715062E+04  3.584261E+04  1.635006E+05 -1.276451E+04 -1.634022E+03
       111  22  3.842556E+05  1.095181E+05  7.150768E+04  1.304901E+05 -4.586547E+04 -1.606987E+04
       111  23  3.705932E+05  4.920540E+04  3.013881E+04  1.452903E+05 -3.026220E+04 -7.788069E+03
       111  24  3.767106E+05  5.642056E+04  1.792348E+04  1.505261E+05 -1.372003E+04 -1.994714E+03
       111  25  3.038109E+05  6.068907E+04  4.611141E+04  8.961383E+04 -4.390776E+04 -1.532974E+04
       111  26  2.931592E+05  1.456698E+04  9.056368E+03  1.183656E+05 -2.976118E+04 -7.598697E+03
       111  27  3.020028E+05  3.569028E+04  3.897308E+00  1.375527E+05 -1.467543E+04 -2.355389E+03
       112   1  4.286686E+05  8.527614E+04  2.883922E+04  1.629281E+05  1.079724E+04  1.660373E+03
       112   2  4.185380E+05  7.165727E+04  1.829962E+04  1.570802E+05  6.884343E+03  6.558068E+02
       112   3  4.054157E+05  6.960197E+04  1.215326E+04  1.562854E+05  2.913049E+03 -1.937663E+02
       112   4  3.744007E+05  6.334588E+04  1.448688E+04  1.464673E+05  1.099288E+04  1.734153E+03
       112   5  3.755546E+05  5.510263E+04  7.105592E+03  1.448734E+05  7.170885E+03  7.639262E+02
       112   6  3.736989E+05  5.840517E+04  4.045852E+03  1.483325E+05  3.290420E+03 -5.134518E+01
       112   7  3.201357E+05  4.141594E+04  1.342775E+02  1.300078E+05  1.118851E+04  1.807924E+03
       112   8  3.325731E+05  3.854816E+04 -4.088567E+03  1.326674E+05  7.457405E+03  8.720367E+02
       112   9  3.419832E+05  4.720845E+04 -4.061603E+03  1.403800E+05  3.667768E+03  9.106857E+01
       112  10  4.286685E+05  8.527611E+04  2.883900E+04  1.629280E+05  7.096320E-09  6.451603E-09
       112  11  4.185379E+05  7.165726E+04  1.829953E+04  1.570802E+05  5.209142E-09  4.196406E-09
       112  12  4.054157E+05  6.960197E+04  1.215324E+04  1.562854E+05  8.932569E-10  2.350257E-10
       112  13  3.744006E+05  6.334585E+04  1.448664E+04  1.464673E+05 -1.014859E-09 -3.857813E-09
       112  14  3.755545E+05  5.510262E+04  7.105494E+03  1.448734E+05  3.178345E-09 -3.601135E-09
       112  15  3.736989E+05  5.840517E+04  4.045832E+03  1.483325E+05 -1.481416E-09  1.035975E-08
       112  16  3.201356E+05  4.141590E+04  1.340362E+02  1.300078E+05 -8.878084E-09 -3.319924E-09
       112  17  3.325730E+05  3.854815E+04 -4.088673E+03  1.326674E+05 -2.980988E-09  1.276754E-08
       112  18  3.419832E+05  4.720845E+04 -4.061628E+03  1.403800E+05  3.456577E-09  5.700689E-09
       112  19  4.286686E+05  8.527614E+04  2.883922E+04  1.629281E+05 -1.079724E+04 -1.660373E+03
       112  20  4.185380E+05  7.165727E+04  1.829962E+04  1.570802E+05 -6.884343E+03 -6.558068E+02
       112  21  4.054157E+05  6.960197E+04  1.215326E+04  1.562854E+05 -2.913049E+03  1.937663E+02
       112  22  3.744007E+05  6.334588E+04  1.448688E+04  1.464673E+05 -1.099288E+04 -1.734153E+03
       112  23  3.755546E+05  5.510263E+04  7.105592E+03  1.448734E+05 -7.170885E+03 -7.639262E+02
       112  24  3.736989E+05  5.840517E+04  4.045852E+03  1.483325E+05 -3.290420E+03  5.134518E+01
       112  25  3.201357E+05  4.141594E+04  1.342775E+02  1.300078E+05 -1.118851E+04 -1.807924E+03
       112  26  3.325731E+05  3.854816E+04 -4.088567E+03  1.326674E+05 -7.457405E+03 -8.720367E+02
       112  27  3.419832E+05  4.720845E+04 -4.061603E+03  1.403800E+05 -3.667768E+03 -9.106857E+01
       113   1  3.906436E+05  6.558831E+04  7.563724E+03  1.527620E+05  2.248823E+03 -3.530469E+01
       113   2  3.812942E+05  5.766027E+04  3.015901E+03  1.462941E+05  1.187970E+03  2.139305E+02
       113   3  3.665908E+05  5.596122E+04 -7.535313E+02  1.461608E+05  1.234946E+02  4.727653E+02
       113   4  3.734350E+05  5.902957E+04  3.134708E+03  1.479357E+05  2.578390E+03  8.907699E+01
       113   5  3.760806E+05  5.569103E+04  1.665438E+03  1.448533E+05  1.523173E+03  3.404420E+02
       113   6  3.733713E+05  5.858048E+04  9.701994E+02  1.481053E+05  4.643176E+02  6.014005E+02
       113   7  3.562266E+05  5.247082E+04 -1.294349E+03  1.431096E+05  2.907949E+03  2.134552E+02
       113   8  3.708671E+05  5.372179E+04  3.149713E+02  1.434124E+05  1.858374E+03  4.669526E+02
       113   9  3.801518E+05  6.119974E+04  2.693927E+03  1.500499E+05  8.051447E+02  7.300374E+02
       113  10  3.906436E+05  6.558831E+04  7.563714E+03  1.527620E+05  5.757873E-10  1.597447E-09
       113  11  3.812942E+05  5.766027E+04  3.015898E+03  1.462941E+05 -1.052137E-09  1.006945E-09
       113  12  3.665908E+05  5.596122E+04 -7.535318E+02  1.461608E+05 -1.422047E-09  6.420809E-09
       113  13  3.734350E+05  5.902957E+04  3.134695E+03  1.479357E+05 -1.828024E-09  9.972164E-10
       113  14  3.760806E+05  5.569103E+04  1.665434E+03  1.448533E+05 -4.547991E-09  3.849677E-09
       113  15  3.733713E+05  5.858048E+04  9.701984E+02  1.481053E+05 -5.417753E-09 -2.315965E-09
       113  16  3.562266E+05  5.247082E+04 -1.294365E+03  1.431096E+05 -1.685972E-09  6.126194E-09
       113  17  3.708671E+05  5.372179E+04  3.149644E+02  1.434124E+05 -2.626293E-09  9.892533E-10
       113  18  3.801518E+05  6.119974E+04  2.693925E+03  1.500499E+05 -1.095209E-09  1.206200E-09
       113  19  3.906436E+05  6.558831E+04  7.563724E+03  1.527620E+05 -2.248823E+03  3.530469E+01
       113  20  3.812942E+05  5.766027E+04  3.015901E+03  1.462941E+05 -1.187970E+03 -2.139305E+02
       113  21  3.665908E+05  5.596122E+04 -7.535313E+02  1.461608E+05 -1.234946E+02 -4.727653E+02
       113  22  3.734350E+05  5.902957E+04  3.134708E+03  1.479357E+05 -2.578390E+03 -8.907699E+01
       113  23  3.760806E+05  5.569103E+04  1.665438E+03  1.448533E+05 -1.523173E+03 -3.404420E+02
       113  24  3.733713E+05  5.858048E+04  9.701994E+02  1.481053E+05 -4.643176E+02 -6.014005E+02
       113  25  3.562266E+05  5.247082E+04 -1.294349E+03  1.431096E+05 -2.907949E+03 -2.134552E+02
       113  26  3.708671E+05  5.372179E+04  3.149713E+02  1.434124E+05 -1.858374E+03 -4.669526E+02
       113  27  3.801518E+05  6.119974E+04  2.693927E+03  1.500499E+05 -8.051447E+02 -7.300374E+02
       114   1  3.526086E+05  5.083512E+04 -4.636632E+03  1.423810E+05 -1.443780E+02  7.581305E+02
       114   2  3.433403E+05  4.341100E+04 -7.969988E+03  1.358403E+05 -6.220431E+02  1.239304E+03
       114   3  3.284493E+05  4.172938E+04 -1.109462E+04  1.357509E+05 -1.100184E+03  1.721898E+03
       114   4  3.733349E+05  5.863597E+04  7.701596E+02  1.480695E+05  1.936701E+02  8.857145E+02
       114   5  3.761438E+05  5.574730E+04  5.167921E+02  1.448505E+05 -2.831833E+02  1.367182E+03
       114   6  3.733297E+05  5.860092E+04  4.715217E+02  1.480827E+05 -7.605197E+02  1.850068E+03
       114   7  3.940616E+05  6.643681E+04  6.176896E+03  1.537583E+05  5.317294E+02  1.013303E+03
       114   8  4.089483E+05  6.808367E+04  9.003483E+03  1.538612E+05  5.569618E+01  1.495066E+03
       114   9  4.182123E+05  7.547265E+04  1.203754E+04  1.604153E+05 -4.208270E+02  1.978248E+03
       114  10  3.526086E+05  5.083512E+04 -4.636633E+03  1.423810E+05 -3.489462E-09 -1.783164E-09
       114  11  3.433403E+05  4.341100E+04 -7.969992E+03  1.358403E+05 -5.530571E-09  6.560698E-09
       114  12  3.284493E+05  4.172937E+04 -1.109463E+04  1.357509E+05  1.336369E-09  9.251295E-09
       114  13  3.733349E+05  5.863597E+04  7.701580E+02  1.480695E+05 -9.098355E-10 -3.419290E-10
       114  14  3.761438E+05  5.574730E+04  5.167884E+02  1.448505E+05  1.207277E-09  5.965968E-09
       114  15  3.733297E+05  5.860092E+04  4.715142E+02  1.480827E+05 -3.625467E-10 -1.685215E-09
       114  16  3.940616E+05  6.643681E+04  6.176894E+03  1.537583E+05  3.093037E-09  8.938204E-09
       114  17  4.089483E+05  6.808367E+04  9.003479E+03  1.538612E+05 -1.043108E-09 -3.124752E-09
       114  18  4.182123E+05  7.547265E+04  1.203753E+04  1.604153E+05  1.830439E-09  5.638328E-09
       114  19  3.526086E+05  5.083512E+04 -4.636632E+03  1.423810E+05  1.443780E+02 -7.581305E+02
       114  20  3.433403E+05  4.341100E+04 -7.969988E+03  1.358403E+05  6.220431E+02 -1.239304E+03
       114  21  3.284493E+05  4.172938E+04 -1.109462E+04  1.357509E+05  1.100184E+03 -1.721898E+03
       114  22  3.733349E+05  5.863597E+04  7.701596E+02  1.480695E+05 -1.936701E+02 -8.857145E+02
       114  23  3.761438E+05  5.574730E+04  5.167921E+02  1.448505E+05  2.831833E+02 -1.367182E+03
       114  24  3.733297E+05  5.860092E+04  4.715217E+02  1.480827E+05  7.605197E+02 -1.850068E+03
       114  25  3.940616E+05  6.643681E+04  6.176896E+03  1.537583E+05 -5.317294E+02 -1.013303E+03
       114  26  4.089483E+05  6.808367E+04  9.003483E+03  1.538612E+05 -5.569618E+01 -1.495066E+03
       114  27  4.182123E+05  7.547265E+04  1.203754E+04  1.604153E+05  4.208270E+02 -1.978248E+03
       115   1  3.144885E+05  3.649033E+04 -1.475579E+04  1.319560E+05 -1.309850E+03  2.029559E+03
       115   2  3.051552E+05  2.905078E+04 -1.764060E+04  1.253574E+05 -1.891609E+03  2.475640E+03
       115   3  2.901960E+05  2.742380E+04 -2.022998E+04  1.252488E+05 -2.473521E+03  2.922448E+03
       115   4  3.733272E+05  5.860669E+04  5.085731E+02  1.480948E+05 -9.694874E+02  2.157980E+03
       115   5  3.761444E+05  5.573068E+04  7.226573E+02  1.448384E+05 -1.550881E+03  2.604172E+03
       115   6  3.733354E+05  5.866708E+04  1.231832E+03  1.480719E+05 -2.132435E+03  3.051088E+03
       115   7  4.321693E+05  8.072325E+04  1.577265E+04  1.642350E+05 -6.290895E+02  2.286414E+03
       115   8  4.471384E+05  8.241084E+04  1.908546E+04  1.643213E+05 -1.210111E+03  2.732720E+03
       115   9  4.564812E+05  8.991069E+04  2.269300E+04  1.708976E+05 -1.791300E+03  3.179747E+03
       115  10  3.144885E+05  3.649033E+04 -1.475580E+04  1.319560E+05 -2.890775E-09  3.051646E-09
       115  11  3.051552E+05  2.905078E+04 -1.764061E+04  1.253574E+05  3.108926E-09  2.042678E-09
       115  12  2.901960E+05  2.742379E+04 -2.023001E+04  1.252488E+05  4.393055E-09  2.175904E-10
       115  13  3.733272E+05  5.860668E+04  5.085626E+02  1.480948E+05  1.894852E-09  7.036746E-09
       115  14  3.761444E+05  5.573067E+04  7.226400E+02  1.448384E+05 -2.051718E-09 -1.416400E-09
       115  15  3.733354E+05  5.866707E+04  1.231806E+03  1.480719E+05 -3.069086E-10  2.716068E-09
       115  16  4.321693E+05  8.072325E+04  1.577264E+04  1.642350E+05  4.178602E-09 -1.030591E-10
       115  17  4.471384E+05  8.241083E+04  1.908544E+04  1.643214E+05 -5.532300E-09 -4.166947E-09
       115  18  4.564812E+05  8.991068E+04  2.269297E+04  1.708976E+05 -2.348730E-10 -3.445680E-09
       115  19  3.144885E+05  3.649033E+04 -1.475579E+04  1.319560E+05  1.309850E+03 -2.029559E+03
       115  20  3.051552E+05  2.905078E+04 -1.764060E+04  1.253574E+05  1.891609E+03 -2.475640E+03
       115  21  2.901960E+05  2.742380E+04 -2.022998E+04  1.252488E+05  2.473521E+03 -2.922448E+03
       115  22  3.733272E+05  5.860669E+04  5.085731E+02  1.480948E+05  9.694874E+02 -2.157980E+03
       115  23  3.761444E+05  5.573068E+04  7.226573E+02  1.448384E+05  1.550881E+03 -2.604172E+03
       115  24  3.733354E+05  5.866708E+04  1.231832E+03  1.480719E+05  2.132435E+03 -3.051088E+03
       115  25  4.321693E+05  8.072325E+04  1.577265E+04  1.642350E+05  6.290895E+02 -2.286414E+03
       115  26  4.471384E+05  8.241084E+04  1.908546E+04  1.643213E+05  1.210111E+03 -2.732720E+03
       115  27  4.564812E+05  8.991069E+04  2.269300E+04  1.708976E+05  1.791300E+03 -3.179747E+03
       116   1  2.760802E+05  2.213975E+04 -2.359274E+04  1.215861E+05 -2.842873E+03  3.176087E+03
       116   2  2.665645E+05  1.444312E+04 -2.550291E+04  1.147566E+05 -4.478913E+03  3.229757E+03
       116   3  2.518249E+05  1.347772E+04 -2.610271E+04  1.143110E+05 -6.108288E+03  3.266167E+03
       116   4  3.733844E+05  5.858993E+04  1.598900E+03  1.481542E+05 -2.494696E+03  3.307380E+03
       116   5  3.760493E+05  5.560709E+04  2.821977E+03  1.448173E+05 -4.141087E+03  3.357104E+03
       116   6  3.734925E+05  5.935747E+04  5.363515E+03  1.478643E+05 -5.780842E+03  3.389560E+03
       116   7  4.706980E+05  9.504083E+04  2.678984E+04  1.747262E+05 -2.146458E+03  3.438695E+03
       116   8  4.855460E+05  9.677190E+04  3.114592E+04  1.748829E+05 -3.803196E+03  3.484477E+03
       116   9  4.951745E+05  1.052382E+05  3.682852E+04  1.814236E+05 -5.453325E+03  3.512980E+03
       116  10  2.760802E+05  2.213973E+04 -2.359277E+04  1.215861E+05 -2.179088E-09  2.332386E-10
       116  11  2.665644E+05  1.444310E+04 -2.550296E+04  1.147566E+05 -4.597344E-10  8.904045E-09
       116  12  2.518248E+05  1.347770E+04 -2.610280E+04  1.143110E+05  8.658496E-10 -7.192532E-10
       116  13  3.733843E+05  5.858992E+04  1.598867E+03  1.481542E+05 -1.575169E-09 -2.618082E-09
       116  14  3.760493E+05  5.560707E+04  2.821923E+03  1.448173E+05 -2.452828E-09 -9.685694E-10
       116  15  3.734925E+05  5.935745E+04  5.363431E+03  1.478643E+05 -5.873436E-10 -1.376002E-09
       116  16  4.706980E+05  9.504082E+04  2.678981E+04  1.747262E+05  4.337519E-09 -1.216817E-09
       116  17  4.855460E+05  9.677189E+04  3.114587E+04  1.748829E+05  3.074067E-11  5.119886E-09
       116  18  4.951745E+05  1.052382E+05  3.682844E+04  1.814236E+05 -1.563710E-09  5.556254E-09
       116  19  2.760802E+05  2.213975E+04 -2.359274E+04  1.215861E+05  2.842873E+03 -3.176087E+03
       116  20  2.665645E+05  1.444312E+04 -2.550291E+04  1.147566E+05  4.478913E+03 -3.229757E+03
       116  21  2.518249E+05  1.347772E+04 -2.610271E+04  1.143110E+05  6.108288E+03 -3.266167E+03
       116  22  3.733844E+05  5.858993E+04  1.598900E+03  1.481542E+05  2.494696E+03 -3.307380E+03
       116  23  3.760493E+05  5.560709E+04  2.821977E+03  1.448173E+05  4.141087E+03 -3.357104E+03
       116  24  3.734925E+05  5.935747E+04  5.363515E+03  1.478643E+05  5.780842E+03 -3.389560E+03
       116  25  4.706980E+05  9.504083E+04  2.678984E+04  1.747262E+05  2.146458E+03 -3.438695E+03
       116  26  4.855460E+05  9.677190E+04  3.114592E+04  1.748829E+05  3.803196E+03 -3.484477E+03
       116  27  4.951745E+05  1.052382E+05  3.682852E+04  1.814236E+05  5.453325E+03 -3.512980E+03
       117   1  2.369789E+05  8.089398E+03 -2.829250E+04  1.122844E+05 -7.342738E+03  3.245135E+03
       117   2  2.271390E+05 -1.711670E+03 -2.622190E+04  1.035398E+05 -1.366367E+04  1.516567E+03
       117   3  2.160211E+05  4.383397E+03 -1.687347E+04  9.905486E+04 -1.986443E+04 -5.300832E+02
       117   4  3.739355E+05  5.829917E+04  6.934407E+03  1.485614E+05 -6.915627E+03  3.406088E+03
       117   5  3.751573E+05  5.457615E+04  1.219362E+04  1.448318E+05 -1.342398E+04  1.606780E+03
       117   6  3.751371E+05  6.678454E+04  2.487778E+04  1.453617E+05 -1.981231E+04 -5.106718E+02
       117   7  5.109099E+05  1.085097E+05  4.215965E+04  1.848454E+05 -6.488414E+03  3.567076E+03
       117   8  5.231969E+05  1.108655E+05  5.060731E+04  1.861327E+05 -1.318423E+04  1.697017E+03
       117   9  5.342782E+05  1.291881E+05  6.662702E+04  1.916796E+05 -1.976018E+04 -4.912540E+02
       117  10  2.369788E+05  8.089372E+03 -2.829262E+04  1.122844E+05  3.042307E-09  1.186791E-09
       117  11  2.271388E+05 -1.711722E+03 -2.622226E+04  1.035398E+05  4.431789E-09 -4.730467E-09
       117  12  2.160206E+05  4.383291E+03 -1.687421E+04  9.905485E+04  2.378247E-09 -1.097762E-08
       117  13  3.739355E+05  5.829915E+04  6.934295E+03  1.485614E+05 -1.548563E-09 -4.928038E-09
       117  14  3.751571E+05  5.457610E+04  1.219328E+04  1.448318E+05  7.077140E-09  8.493888E-11
       117  15  3.751367E+05  6.678444E+04  2.487704E+04  1.453617E+05  2.064292E-10 -5.042452E-09
       117  16  5.109099E+05  1.085097E+05  4.215955E+04  1.848454E+05 -1.930420E-09  5.118959E-09
       117  17  5.231967E+05  1.108655E+05  5.060698E+04  1.861327E+05  4.340959E-09  1.621090E-09
       117  18  5.342778E+05  1.291880E+05  6.662629E+04  1.916796E+05  1.181932E-09  1.538629E-09
       117  19  2.369789E+05  8.089398E+03 -2.829250E+04  1.122844E+05  7.342738E+03 -3.245135E+03
       117  20  2.271390E+05 -1.711670E+03 -2.622190E+04  1.035398E+05  1.366367E+04 -1.516567E+03
       117  21  2.160211E+05  4.383397E+03 -1.687347E+04  9.905486E+04  1.986443E+04  5.300832E+02
       117  22  3.739355E+05  5.829917E+04  6.934407E+03  1.485614E+05  6.915627E+03 -3.406088E+03
       117  23  3.751573E+05  5.457615E+04  1.219362E+04  1.448318E+05  1.342398E+04 -1.606780E+03
       117  24  3.751371E+05  6.678454E+04  2.487778E+04  1.453617E+05  1.981231E+04  5.106718E+02
       117  25  5.109099E+05  1.085097E+05  4.215965E+04  1.848454E+05  6.488414E+03 -3.567076E+03
       117  26  5.231969E+05  1.108655E+05  5.060731E+04  1.861327E+05  1.318423E+04 -1.697017E+03
       117  27  5.342782E+05  1.291881E+05  6.662702E+04  1.916796E+05  1.976018E+04  4.912540E+02
       118   1  1.943833E+05 -1.869454E+03 -1.452683E+04  1.146271E+05 -2.607674E+04 -1.681270E+03
       118   2  1.854411E+05 -3.309006E+04  3.091665E+03  8.613985E+04 -5.130485E+04 -1.093989E+04
       118   3  2.137735E+05  4.725616E+04  6.841550E+04  3.686656E+04 -7.459676E+04 -2.533788E+04
       118   4  3.791078E+05  5.488971E+04  3.078237E+04  1.523314E+05 -2.445385E+04 -1.069372E+03
       118   5  3.666395E+05  4.443750E+04  5.176184E+04  1.455396E+05 -5.269445E+04 -1.146441E+04
       118   6  3.920283E+05  1.461267E+05  1.228222E+05  1.179656E+05 -7.899895E+04 -2.700019E+04
       118   7  5.638660E+05  1.116488E+05  7.608922E+04  1.900448E+05 -2.283044E+04 -4.573563E+02
       118   8  5.478692E+05  1.219696E+05  1.004289E+05  2.049556E+05 -5.408448E+04 -1.198915E+04
       118   9  5.703142E+05  2.450108E+05  1.772252E+05  1.990883E+05 -8.340247E+04 -2.866356E+04
       118  10  1.943826E+05 -1.869640E+03 -1.452811E+04  1.146270E+05  6.455555E-09 -5.259939E-09
       118  11  1.854383E+05 -3.309089E+04  3.086496E+03  8.613940E+04 -1.390076E-10 -8.180079E-10
       118  12  2.137673E+05  4.725398E+04  6.840384E+04  3.686504E+04 -3.541616E-09  2.118197E-12
       118  13  3.791072E+05  5.488955E+04  3.078124E+04  1.523314E+05  5.359341E-09 -4.759680E-09
       118  14  3.666365E+05  4.443661E+04  5.175638E+04  1.455391E+05 -4.444151E-09 -5.585444E-09
       118  15  3.920214E+05  1.461242E+05  1.228091E+05  1.179639E+05  1.779117E-09 -5.684911E-09
       118  16  5.638654E+05  1.116486E+05  7.608825E+04  1.900448E+05 -4.226789E-09 -3.247355E-09
       118  17  5.478661E+05  1.219686E+05  1.004231E+05  2.049551E+05  9.715162E-11 -2.501769E-09
       118  18  5.703065E+05  2.450081E+05  1.772106E+05  1.990864E+05  2.566626E-10 -1.264029E-09
       118  19  1.943833E+05 -1.869454E+03 -1.452683E+04  1.146271E+05  2.607674E+04  1.681270E+03
       118  20  1.854411E+05 -3.309006E+04  3.091665E+03  8.613985E+04  5.130485E+04  1.093989E+04
       118  21  2.137735E+05  4.725616E+04  6.841550E+04  3.686656E+04  7.459676E+04  2.533788E+04
       118  22  3.791078E+05  5.488971E+04  3.078237E+04  1.523314E+05  2.445385E+04  1.069372E+03
       118  23  3.666395E+05  4.443750E+04  5.176184E+04  1.455396E+05  5.269445E+04  1.146441E+04
       118  24  3.920283E+05  1.461267E+05  1.228222E+05  1.179656E+05  7.899895E+04  2.700019E+04
       118  25  5.638660E+05  1.116488E+05  7.608922E+04  1.900448E+05  2.283044E+04  4.573563E+02
       118  26  5.478692E+05  1.219696E+05  1.004289E+05  2.049556E+05  5.408448E+04  1.198915E+04
       118  27  5.703142E+05  2.450108E+05  1.772252E+05  1.990883E+05  8.340247E+04  2.866356E+04
       119   1 -2.693397E+02 -5.219080E+05 -2.443711E+03 -1.651807E+02 -5.196320E+01  1.774768E+02
       119   2 -6.077104E+02 -5.234983E+05 -3.356535E+03  3.118506E+02 -1.016195E+02  1.507376E+03
       119   3 -1.644842E+03 -5.254406E+05 -5.311219E+03 -3.655668E+02 -1.766775E+02  2.837256E+03
       119   4 -1.487227E+01 -5.208764E+05 -2.205004E+03 -2.563563E+02 -5.199023E+01  1.977297E+02
       119   5  8.493501E+01 -5.206994E+05 -2.693745E+03  3.205337E+02 -1.016659E+02  1.542256E+03
       119   6 -5.165505E+02 -5.208767E+05 -4.234500E+03 -2.570237E+02 -1.767428E+02  2.886767E+03
       119   7  2.395951E+02 -5.198448E+05 -1.966296E+03 -3.475319E+02 -5.201727E+01  2.179826E+02
       119   8  7.775798E+02 -5.179004E+05 -2.030956E+03  3.292167E+02 -1.017123E+02  1.577136E+03
       119   9  6.117398E+02 -5.163129E+05 -3.157783E+03 -1.484797E+02 -1.768081E+02  2.936278E+03
       119  10 -2.693397E+02 -5.219080E+05 -2.443711E+03 -1.651807E+02  1.283079E-09  6.171905E-09
       119  11 -6.077110E+02 -5.234983E+05 -3.356539E+03  3.118508E+02  3.335513E-09  1.731790E-09
       119  12 -1.644844E+03 -5.254406E+05 -5.311234E+03 -3.655664E+02 -2.682220E-09 -1.842501E-09
       119  13 -1.487228E+01 -5.208764E+05 -2.205004E+03 -2.563563E+02  1.669846E-09 -1.002527E-09
       119  14  8.493436E+01 -5.206994E+05 -2.693750E+03  3.205338E+02  1.062906E-09 -4.684692E-09
       119  15 -5.165528E+02 -5.208768E+05 -4.234516E+03 -2.570233E+02 -6.426389E-09 -4.468112E-09
       119  16  2.395951E+02 -5.198448E+05 -1.966296E+03 -3.475319E+02 -3.629886E-09 -7.550091E-09
       119  17  7.775791E+02 -5.179004E+05 -2.030961E+03  3.292168E+02 -2.989644E-10 -2.295307E-09
       119  18  6.117374E+02 -5.163129E+05 -3.157799E+03 -1.484793E+02 -3.372585E-09  3.600294E-09
       119  19 -2.693397E+02 -5.219080E+05 -2.443711E+03 -1.651807E+02  5.196320E+01 -1.774768E+02
       119  20 -6.077104E+02 -5.234983E+05 -3.356535E+03  3.118506E+02  1.016195E+02 -1.507376E+03
       119  21 -1.644842E+03 -5.254406E+05 -5.311219E+03 -3.655668E+02  1.766775E+02 -2.837256E+03
       119  22 -1.487227E+01 -5.208764E+05 -2.205004E+03 -2.563563E+02  5.199023E+01 -1.977297E+02
       119  23  8.493501E+01 -5.206994E+05 -2.693745E+03  3.205337E+02  1.016659E+02 -1.542256E+03
       119  24 -5.165505E+02 -5.208767E+05 -4.234500E+03 -2.570237E+02  1.767428E+02 -2.886767E+03
       119  25  2.395951E+02 -5.198448E+05 -1.966296E+03 -3.475319E+02  5.201727E+01 -2.179826E+02
       119  26  7.775798E+02 -5.179004E+05 -2.030956E+03  3.292167E+02  1.017123E+02 -1.577136E+03
       119  27  6.117398E+02 -5.163129E+05 -3.157783E+03 -1.484797E+02  1.768081E+02 -2.936278E+03
       120   1 -1.339418E+03 -5.279246E+05 -6.850619E+03  6.095499E+02 -2.293174E+02  3.677818E+03
       120   2 -1.357440E+03 -5.285461E+05 -1.066698E+04 -1.136466E+02 -3.082249E+02  8.117459E+03
       120   3 -8.155515E+03 -5.314453E+05 -1.907130E+04 -1.990301E+03 -3.648560E+02  1.255710E+04
       120   4  3.028745E+02 -5.213034E+05 -5.277937E+03 -2.539319E+02 -2.293868E+02  3.726287E+03
       120   5  7.148427E+02 -5.201669E+05 -8.682767E+03  3.188642E+02 -3.082662E+02  8.153149E+03
       120   6 -5.650974E+03 -5.213057E+05 -1.666664E+04 -2.617988E+02 -3.648507E+02  1.258002E+04
       120   7  1.945167E+03 -5.146821E+05 -3.705257E+03 -1.117423E+03 -2.294562E+02  3.774756E+03
       120   8  2.787121E+03 -5.117875E+05 -6.698564E+03  7.513809E+02 -3.083073E+02  8.188839E+03
       120   9 -3.146428E+03 -5.111661E+05 -1.426198E+04  1.466732E+03 -3.648452E+02  1.260295E+04
       120  10 -1.339422E+03 -5.279246E+05 -6.850644E+03  6.095506E+02 -3.834764E-09  1.059378E-08
       120  11 -1.357458E+03 -5.285462E+05 -1.066710E+04 -1.136446E+02  3.727916E-09  1.359918E-09
       120  12 -8.155557E+03 -5.314455E+05 -1.907160E+04 -1.990298E+03 -1.323454E-09 -5.120127E-09
       120  13  3.028707E+02 -5.213034E+05 -5.277963E+03 -2.539313E+02 -5.625886E-09 -1.114990E-09
       120  14  7.148247E+02 -5.201669E+05 -8.682892E+03  3.188663E+02  3.279327E-09  5.619317E-10
       120  15 -5.651016E+03 -5.213059E+05 -1.666694E+04 -2.617951E+02 -1.992158E-09 -5.293155E-09
       120  16  1.945163E+03 -5.146821E+05 -3.705284E+03 -1.117422E+03 -2.623337E-09 -1.306413E-08
       120  17  2.787103E+03 -5.117876E+05 -6.698690E+03  7.513830E+02  2.175138E-09 -2.571562E-09
       120  18 -3.146471E+03 -5.111662E+05 -1.426228E+04  1.466736E+03 -1.107040E-10  5.483031E-09
       120  19 -1.339418E+03 -5.279246E+05 -6.850619E+03  6.095499E+02  2.293174E+02 -3.677818E+03
       120  20 -1.357440E+03 -5.285461E+05 -1.066698E+04 -1.136466E+02  3.082249E+02 -8.117459E+03
       120  21 -8.155515E+03 -5.314453E+05 -1.907130E+04 -1.990301E+03  3.648560E+02 -1.255710E+04
       120  22  3.028745E+02 -5.213034E+05 -5.277937E+03 -2.539319E+02  2.293868E+02 -3.726287E+03
       120  23  7.148427E+02 -5.201669E+05 -8.682767E+03  3.188642E+02  3.082662E+02 -8.153149E+03
       120  24 -5.650974E+03 -5.213057E+05 -1.666664E+04 -2.617988E+02  3.648507E+02 -1.258002E+04
       120  25  1.945167E+03 -5.146821E+05 -3.705257E+03 -1.117423E+03  2.294562E+02 -3.774756E+03
       120  26  2.787121E+03 -5.117875E+05 -6.698564E+03  7.513809E+02  3.083073E+02 -8.188839E+03
       120  27 -3.146428E+03 -5.111661E+05 -1.426198E+04  1.466732E+03  3.648452E+02 -1.260295E+04
       121   1  1.820863E+02 -5.374128E+05 -2.335841E+04  8.158629E+03 -4.634029E+02  1.557367E+04
       121   2  3.711558E+03 -5.291497E+05 -3.636779E+04 -5.931742E+03 -5.354859E+02  3.358148E+04
       121   3 -6.373106E+04 -5.409834E+05 -7.885135E+04 -2.121161E+04 -2.340532E+02  5.158953E+04
       121   4  3.217797E+03 -5.252542E+05 -2.047758E+04 -2.396483E+02 -4.637913E+02  1.570919E+04
       121   5  7.135531E+03 -5.152324E+05 -3.307468E+04  3.141965E+02 -5.350421E+02  3.350185E+04
       121   6 -5.988139E+04 -5.252700E+05 -7.499612E+04 -3.219657E+02 -2.319306E+02  5.129482E+04
       121   7  6.253762E+03 -5.130954E+05 -1.759672E+04 -8.638092E+03 -4.641834E+02  1.584470E+04
       121   8  1.055964E+04 -5.013148E+05 -2.978157E+04  6.560276E+03 -5.345998E+02  3.342222E+04
       121   9 -5.603011E+04 -5.095554E+05 -7.114068E+04  2.056820E+04 -2.298279E+02  5.100010E+04
       121  10  1.820209E+02 -5.374130E+05 -2.335887E+04  8.158635E+03 -2.627506E-09  9.033277E-09
       121  11  3.711255E+03 -5.291509E+05 -3.636991E+04 -5.931728E+03  2.682928E-09  2.603681E-09
       121  12 -6.373177E+04 -5.409863E+05 -7.885635E+04 -2.121160E+04  2.855491E-09 -4.636160E-09
       121  13  3.217731E+03 -5.252545E+05 -2.047805E+04 -2.396424E+02 -3.288735E-09  4.015871E-11
       121  14  7.135229E+03 -5.152336E+05 -3.307680E+04  3.142109E+02  6.740244E-09 -2.122364E-09
       121  15 -5.988210E+04 -5.252728E+05 -7.500107E+04 -3.219562E+02 -3.534971E-10 -3.843258E-09
       121  16  6.253695E+03 -5.130957E+05 -1.759720E+04 -8.638086E+03 -1.481563E-09 -8.836881E-09
       121  17  1.055934E+04 -5.013160E+05 -2.978368E+04  6.560290E+03  7.447722E-09 -1.285351E-10
       121  18 -5.603081E+04 -5.095582E+05 -7.114558E+04  2.056821E+04  1.273788E-09  3.682675E-09
       121  19  1.820863E+02 -5.374128E+05 -2.335841E+04  8.158629E+03  4.634029E+02 -1.557367E+04
       121  20  3.711558E+03 -5.291497E+05 -3.636779E+04 -5.931742E+03  5.354859E+02 -3.358148E+04
       121  21 -6.373106E+04 -5.409834E+05 -7.885135E+04 -2.121161E+04  2.340532E+02 -5.158953E+04
       121  22  3.217797E+03 -5.252542E+05 -2.047758E+04 -2.396483E+02  4.637913E+02 -1.570919E+04
       121  23  7.135531E+03 -5.152324E+05 -3.307468E+04  3.141965E+02  5.350421E+02 -3.350185E+04
       121  24 -5.988139E+04 -5.252700E+05 -7.499612E+04 -3.219657E+02  2.319306E+02 -5.129482E+04
       121  25  6.253762E+03 -5.130954E+05 -1.759672E+04 -8.638092E+03  4.641834E+02 -1.584470E+04
       121  26  1.055964E+04 -5.013148E+05 -2.978157E+04  6.560276E+03  5.345998E+02 -3.342222E+04
       121  27 -5.603011E+04 -5.095554E+05 -7.114068E+04  2.056820E+04  2.298279E+02 -5.100010E+04
       122   1 -7.274387E+06 -2.372745E+06 -1.227048E+06 -2.604324E+06 -4.299611E+05 -9.276728E+04
       122   2 -7.066125E+06 -2.074160E+06 -9.044907E+05 -2.528275E+06 -2.862308E+05  1.287393E+05
       122   3 -6.895107E+06 -1.947091E+06 -7.672799E+05 -2.466548E+06 -1.009868E+05  2.423304E+05
       122   4 -3.377981E+06 -7.975678E+05 -1.908306E+05 -1.433304E+06 -1.466909E+05  1.545219E+04
       122   5 -3.363800E+06 -6.537164E+05 -8.751697E+04 -1.454000E+06 -1.561921E+05  1.781923E+05
       122   6 -3.355815E+06 -6.502511E+05 -4.649498E+04 -1.489115E+06 -1.244038E+05  2.332696E+05
       122   7  5.334745E+05  7.792131E+05  8.443808E+05 -2.553174E+05  1.385494E+05  1.245292E+05
       122   8  3.526251E+05  7.681128E+05  7.286860E+05 -3.736647E+05 -2.530478E+04  2.279900E+05
       122   9  1.965518E+05  6.476693E+05  6.736731E+05 -5.064746E+05 -1.479665E+05  2.241554E+05
       122  10 -7.274590E+06 -2.372805E+06 -1.227417E+06 -2.604357E+06  4.709536E-09 -4.494059E-10
       122  11 -7.066218E+06 -2.074199E+06 -9.046768E+05 -2.528246E+06  7.449805E-09 -2.693510E-09
       122  12 -6.895134E+06 -1.947157E+06 -7.674091E+05 -2.466528E+06  9.248287E-09 -2.801654E-09
       122  13 -3.378004E+06 -7.975739E+05 -1.908716E+05 -1.433302E+06  4.443281E-09  3.896762E-09
       122  14 -3.363835E+06 -6.537569E+05 -8.762238E+04 -1.453978E+06 -1.181652E-09  6.265661E-09
       122  15 -3.355847E+06 -6.503135E+05 -4.662607E+04 -1.489092E+06  1.353294E-09  4.549153E-09
       122  16  5.334498E+05  7.791913E+05  8.443156E+05 -2.553313E+05 -2.552782E-09 -2.264548E-09
       122  17  3.526105E+05  7.680569E+05  7.285872E+05 -3.736601E+05 -4.848501E-10 -1.485470E-09
       122  18  1.965149E+05  6.476096E+05  6.735378E+05 -5.064479E+05  7.560089E-10 -2.395457E-09
       122  19 -7.274387E+06 -2.372745E+06 -1.227048E+06 -2.604324E+06  4.299611E+05  9.276728E+04
       122  20 -7.066125E+06 -2.074160E+06 -9.044907E+05 -2.528275E+06  2.862308E+05 -1.287393E+05
       122  21 -6.895107E+06 -1.947091E+06 -7.672799E+05 -2.466548E+06  1.009868E+05 -2.423304E+05
       122  22 -3.377981E+06 -7.975678E+05 -1.908306E+05 -1.433304E+06  1.466909E+05 -1.545219E+04
       122  23 -3.363800E+06 -6.537164E+05 -8.751697E+04 -1.454000E+06  1.561921E+05 -1.781923E+05
       122  24 -3.355815E+06 -6.502511E+05 -4.649498E+04 -1.489115E+06  1.244038E+05 -2.332696E+05
       122  25  5.334745E+05  7.792131E+05  8.443808E+05 -2.553174E+05 -1.385494E+05 -1.245292E+05
       122  26  3.526251E+05  7.681128E+05  7.286860E+05 -3.736647E+05  2.530478E+04 -2.279900E+05
       122  27  1.965518E+05  6.476693E+05  6.736731E+05 -5.064746E+05  1.479665E+05 -2.241554E+05
       123   1 -6.724358E+06 -1.906927E+06 -7.239362E+05 -2.432951E+06 -1.121856E+05  2.270173E+05
       123   2 -6.522702E+06 -1.792364E+06 -6.512929E+05 -2.345617E+06 -8.949271E+04  2.287287E+05
       123   3 -6.280999E+06 -1.727594E+06 -5.951792E+05 -2.306005E+06 -6.393656E+04  2.228031E+05
       123   4 -3.348749E+06 -6.563070E+05 -3.553099E+04 -1.486250E+06 -1.154071E+05  2.256523E+05
       123   5 -3.369068E+06 -6.289564E+05 -1.897572E+04 -1.463618E+06 -1.035228E+05  2.232814E+05
       123   6 -3.347213E+06 -6.492007E+05 -1.026749E+04 -1.488710E+06 -8.879128E+04  2.132917E+05
       123   7  3.872096E+04  5.953518E+05  6.522988E+05 -5.347197E+05 -1.186477E+05  2.242806E+05
       123   8 -2.050661E+05  5.353522E+05  6.128589E+05 -5.774199E+05 -1.176304E+05  2.178053E+05
       123   9 -4.044631E+05  4.299579E+05  5.742311E+05 -6.678013E+05 -1.137735E+05  2.037326E+05
       123  10 -6.724385E+06 -1.906986E+06 -7.240565E+05 -2.432931E+06 -3.506977E-09 -4.206060E-09
       123  11 -6.522725E+06 -1.792422E+06 -6.514060E+05 -2.345601E+06 -5.522074E-09 -4.515295E-09
       123  12 -6.281016E+06 -1.727648E+06 -5.952800E+05 -2.305994E+06 -3.924461E-09 -3.683396E-09
       123  13 -3.348777E+06 -6.563651E+05 -3.565148E+04 -1.486229E+06  3.363271E-09  7.613963E-09
       123  14 -3.369093E+06 -6.290127E+05 -1.908933E+04 -1.463599E+06  1.914742E-09 -3.484618E-10
       123  15 -3.347234E+06 -6.492516E+05 -1.036760E+04 -1.488694E+06 -1.182819E-09 -9.602965E-10
       123  16  3.869241E+04  5.952941E+05  6.521780E+05 -5.346983E+05  6.646589E-09  4.447996E-09
       123  17 -2.050936E+05  5.352976E+05  6.127439E+05 -5.773993E+05  8.804654E-09  2.924820E-10
       123  18 -4.044881E+05  4.299099E+05  5.741290E+05 -6.677826E+05  5.823569E-09  1.860526E-09
       123  19 -6.724358E+06 -1.906927E+06 -7.239362E+05 -2.432951E+06  1.121856E+05 -2.270173E+05
       123  20 -6.522702E+06 -1.792364E+06 -6.512929E+05 -2.345617E+06  8.949271E+04 -2.287287E+05
       123  21 -6.280999E+06 -1.727594E+06 -5.951792E+05 -2.306005E+06  6.393656E+04 -2.228031E+05
       123  22 -3.348749E+06 -6.563070E+05 -3.553099E+04 -1.486250E+06  1.154071E+05 -2.256523E+05
       123  23 -3.369068E+06 -6.289564E+05 -1.897572E+04 -1.463618E+06  1.035228E+05 -2.232814E+05
       123  24 -3.347213E+06 -6.492007E+05 -1.026749E+04 -1.488710E+06  8.879128E+04 -2.132917E+05
       123  25  3.872096E+04  5.953518E+05  6.522988E+05 -5.347197E+05  1.186477E+05 -2.242806E+05
       123  26 -2.050661E+05  5.353522E+05  6.128589E+05 -5.774199E+05  1.176304E+05 -2.178053E+05
       123  27 -4.044631E+05  4.299579E+05  5.742311E+05 -6.678013E+05  1.137735E+05 -2.037326E+05
       124   1 -6.125493E+06 -1.670819E+06 -5.605014E+05 -2.263265E+06 -5.975908E+04  2.127077E+05
       124   2 -5.917768E+06 -1.561903E+06 -5.109035E+05 -2.172703E+06 -5.012155E+04  1.969357E+05
       124   3 -5.664316E+06 -1.498171E+06 -4.634358E+05 -2.133104E+06 -4.026365E+04  1.804574E+05
       124   4 -3.346363E+06 -6.495995E+05 -7.769443E+03 -1.488983E+06 -8.346725E+04  2.036516E+05
       124   5 -3.368993E+06 -6.264990E+05 -4.404321E+03 -1.463635E+06 -7.482032E+04  1.875382E+05
       124   6 -3.345771E+06 -6.483784E+05 -2.383094E+03 -1.489258E+06 -6.595492E+04  1.707199E+05
       124   7 -5.591398E+05  3.723258E+05  5.446074E+05 -7.114459E+05 -1.072909E+05  1.945522E+05
       124   8 -8.134230E+05  3.094923E+05  5.017948E+05 -7.518363E+05 -9.962926E+04  1.780995E+05
       124   9 -1.021614E+06  2.018938E+05  4.584190E+05 -8.431615E+05 -9.175025E+04  1.609433E+05
       124  10 -6.125508E+06 -1.670868E+06 -5.605930E+05 -2.263255E+06 -2.345766E-09 -5.054749E-10
       124  11 -5.917781E+06 -1.561945E+06 -5.109810E+05 -2.172695E+06 -2.155385E-09 -3.207472E-09
       124  12 -5.664327E+06 -1.498207E+06 -4.634999E+05 -2.133098E+06 -4.196027E-09 -2.484937E-09
       124  13 -3.346381E+06 -6.496458E+05 -7.860300E+03 -1.488970E+06 -4.928472E-10 -9.220170E-10
       124  14 -3.369009E+06 -6.265382E+05 -4.480788E+03 -1.463623E+06  2.391759E-09 -6.819450E-10
       124  15 -3.345783E+06 -6.484108E+05 -2.445920E+03 -1.489249E+06  1.271827E-10 -1.329016E-09
       124  16 -5.591623E+05  3.722822E+05  5.445148E+05 -7.114291E+05  1.633746E-09 -9.501339E-10
       124  17 -8.134421E+05  3.094557E+05  5.017167E+05 -7.518220E+05  2.574415E-09  6.326094E-10
       124  18 -1.021630E+06  2.018638E+05  4.583546E+05 -8.431496E+05  3.715302E-09  4.093008E-10
       124  19 -6.125493E+06 -1.670819E+06 -5.605014E+05 -2.263265E+06  5.975908E+04 -2.127077E+05
       124  20 -5.917768E+06 -1.561903E+06 -5.109035E+05 -2.172703E+06  5.012155E+04 -1.969357E+05
       124  21 -5.664316E+06 -1.498171E+06 -4.634358E+05 -2.133104E+06  4.026365E+04 -1.804574E+05
       124  22 -3.346363E+06 -6.495995E+05 -7.769443E+03 -1.488983E+06  8.346725E+04 -2.036516E+05
       124  23 -3.368993E+06 -6.264990E+05 -4.404321E+03 -1.463635E+06  7.482032E+04 -1.875382E+05
       124  24 -3.345771E+06 -6.483784E+05 -2.383094E+03 -1.489258E+06  6.595492E+04 -1.707199E+05
       124  25 -5.591398E+05  3.723258E+05  5.446074E+05 -7.114459E+05  1.072909E+05 -1.945522E+05
       124  26 -8.134230E+05  3.094923E+05  5.017948E+05 -7.518363E+05  9.962926E+04 -1.780995E+05
       124  27 -1.021614E+06  2.018938E+05  4.584190E+05 -8.431615E+05  9.175025E+04 -1.609433E+05
       125   1 -5.505085E+06 -1.439355E+06 -4.298868E+05 -2.089013E+06 -3.582217E+04  1.701026E+05
       125   2 -5.291272E+06 -1.328624E+06 -3.826511E+05 -1.996453E+06 -2.809493E+04  1.522541E+05
       125   3 -5.030740E+06 -1.263896E+06 -3.358717E+05 -1.956431E+06 -2.033542E+04  1.342209E+05
       125   4 -3.345409E+06 -6.484700E+05 -1.859051E+03 -1.489588E+06 -6.162577E+04  1.603409E+05
       125   5 -3.368548E+06 -6.250741E+05 -1.227461E+03 -1.463402E+06 -5.415652E+04  1.424215E+05
       125   6 -3.344983E+06 -6.476276E+05 -8.533091E+02 -1.489769E+06 -4.665546E+04  1.243176E+05
       125   7 -1.180881E+06  1.428235E+05  4.259485E+05 -8.882159E+05 -8.752641E+04  1.505428E+05
       125   8 -1.441965E+06  7.880376E+04  3.800258E+05 -9.288074E+05 -8.030550E+04  1.325562E+05
       125   9 -1.656248E+06 -3.110377E+04  3.340380E+05 -1.021919E+06 -7.305304E+04  1.143852E+05
       125  10 -5.505094E+06 -1.439386E+06 -4.299435E+05 -2.089008E+06 -2.617780E-09 -1.303907E-09
       125  11 -5.291279E+06 -1.328649E+06 -3.826961E+05 -1.996449E+06 -1.094197E-09 -1.541988E-10
       125  12 -5.030745E+06 -1.263915E+06 -3.359063E+05 -1.956429E+06 -1.889590E-09 -1.005835E-09
       125  13 -3.345420E+06 -6.484986E+05 -1.914396E+03 -1.489580E+06  2.043425E-10 -8.961934E-10
       125  14 -3.368556E+06 -6.250966E+05 -1.271008E+03 -1.463396E+06  1.158199E-09  3.324496E-10
       125  15 -3.344989E+06 -6.476447E+05 -8.863801E+02 -1.489765E+06 -5.670192E-10 -3.567305E-10
       125  16 -1.180895E+06  1.427972E+05  4.258916E+05 -8.882053E+05  2.428188E-09  7.222903E-10
       125  17 -1.441977E+06  7.878321E+04  3.799807E+05 -9.287988E+05  3.479813E-10  2.352747E-10
       125  18 -1.656258E+06 -3.111922E+04  3.340034E+05 -1.021913E+06  6.555943E-10  1.526060E-09
       125  19 -5.505085E+06 -1.439355E+06 -4.298868E+05 -2.089013E+06  3.582217E+04 -1.701026E+05
       125  20 -5.291272E+06 -1.328624E+06 -3.826511E+05 -1.996453E+06  2.809493E+04 -1.522541E+05
       125  21 -5.030740E+06 -1.263896E+06 -3.358717E+05 -1.956431E+06  2.033542E+04 -1.342209E+05
       125  22 -3.345409E+06 -6.484700E+05 -1.859051E+03 -1.489588E+06  6.162577E+04 -1.603409E+05
       125  23 -3.368548E+06 -6.250741E+05 -1.227461E+03 -1.463402E+06  5.415652E+04 -1.424215E+05
       125  24 -3.344983E+06 -6.476276E+05 -8.533091E+02 -1.489769E+06  4.665546E+04 -1.243176E+05
       125  25 -1.180881E+06  1.428235E+05  4.259485E+05 -8.882159E+05  8.752641E+04 -1.505428E+05
       125  26 -1.441965E+06  7.880376E+04  3.800258E+05 -9.288074E+05  8.030550E+04 -1.325562E+05
       125  27 -1.656248E+06 -3.110377E+04  3.340380E+05 -1.021919E+06  7.305304E+04 -1.143852E+05
       126   1 -4.867825E+06 -1.204010E+06 -3.021423E+05 -1.911547E+06 -1.600627E+04  1.235644E+05
       126   2 -4.649443E+06 -1.091835E+06 -2.550158E+05 -1.817612E+06 -8.357921E+03  1.052406E+05
       126   3 -4.383930E+06 -1.026469E+06 -2.083056E+05 -1.777349E+06 -6.994500E+02  8.682203E+04
       126   4 -3.344763E+06 -6.476809E+05 -8.602970E+02 -1.490021E+06 -4.247221E+04  1.136196E+05
       126   5 -3.368158E+06 -6.239886E+05 -1.089647E+03 -1.463243E+06 -3.495724E+04  9.526348E+04
       126   6 -3.344464E+06 -6.470779E+05 -1.634581E+03 -1.490153E+06 -2.743252E+04  7.681278E+04
       126   7 -1.819282E+06 -9.114742E+04  3.003166E+05 -1.067527E+06 -6.900833E+04  1.036485E+05
       126   8 -2.085167E+06 -1.559999E+05  2.527611E+05 -1.108191E+06 -6.161577E+04  8.526422E+04
       126   9 -2.303880E+06 -2.675960E+05  2.049860E+05 -1.202510E+06 -5.421371E+04  6.678554E+04
       126  10 -4.867829E+06 -1.204026E+06 -3.021714E+05 -1.911545E+06 -1.223226E-09 -1.915081E-09
       126  11 -4.649446E+06 -1.091847E+06 -2.550367E+05 -1.817612E+06 -3.495664E-09 -3.422485E-09
       126  12 -4.383932E+06 -1.026477E+06 -2.083198E+05 -1.777349E+06 -2.608678E-09 -4.142468E-10
       126  13 -3.344769E+06 -6.476953E+05 -8.878943E+02 -1.490017E+06  2.550744E-10 -2.986311E-10
       126  14 -3.368162E+06 -6.239986E+05 -1.108962E+03 -1.463240E+06  1.019912E-10 -8.373029E-10
       126  15 -3.344466E+06 -6.470845E+05 -1.647060E+03 -1.490151E+06  1.519414E-09  1.784211E-09
       126  16 -1.819290E+06 -9.116020E+04  3.002875E+05 -1.067522E+06  1.904802E-09  2.111747E-09
       126  17 -2.085173E+06 -1.560087E+05  2.527403E+05 -1.108187E+06  3.192384E-09  1.923800E-09
       126  18 -2.303885E+06 -2.676016E+05  2.049721E+05 -1.202507E+06  1.894483E-09 -1.219790E-09
       126  19 -4.867825E+06 -1.204010E+06 -3.021423E+05 -1.911547E+06  1.600627E+04 -1.235644E+05
       126  20 -4.649443E+06 -1.091835E+06 -2.550158E+05 -1.817612E+06  8.357921E+03 -1.052406E+05
       126  21 -4.383930E+06 -1.026469E+06 -2.083056E+05 -1.777349E+06  6.994500E+02 -8.682203E+04
       126  22 -3.344763E+06 -6.476809E+05 -8.602970E+02 -1.490021E+06  4.247221E+04 -1.136196E+05
       126  23 -3.368158E+06 -6.239886E+05 -1.089647E+03 -1.463243E+06  3.495724E+04 -9.526348E+04
       126  24 -3.344464E+06 -6.470779E+05 -1.634581E+03 -1.490153E+06  2.743252E+04 -7.681278E+04
       126  25 -1.819282E+06 -9.114742E+04  3.003166E+05 -1.067527E+06  6.900833E+04 -1.036485E+05
       126  26 -2.085167E+06 -1.559999E+05  2.527611E+05 -1.108191E+06  6.161577E+04 -8.526422E+04
       126  27 -2.303880E+06 -2.675960E+05  2.049860E+05 -1.202510E+06  5.421371E+04 -6.678554E+04
       127   1 -4.218472E+06 -9.658904E+05 -1.745853E+05 -1.731940E+06  3.810131E+03  7.606276E+04
       127   2 -3.997183E+06 -8.529016E+05 -1.283577E+05 -1.637154E+06  1.259917E+04  5.798630E+04
       127   3 -3.728740E+06 -7.873754E+05 -8.347595E+04 -1.596739E+06  2.134767E+04  3.998660E+04
       127   4 -3.344390E+06 -6.471042E+05 -2.137953E+03 -1.490332E+06 -2.303802E+04  6.601847E+04
       127   5 -3.367853E+06 -6.232629E+05 -3.786412E+03 -1.463148E+06 -1.414050E+04  4.799120E+04
       127   6 -3.344259E+06 -6.469118E+05 -6.872498E+03 -1.490358E+06 -5.284309E+03  3.004050E+04
       127   7 -2.469503E+06 -3.282474E+05  1.702793E+05 -1.248403E+06 -4.992719E+04  5.595884E+04
       127   8 -2.738107E+06 -3.935879E+05  1.207702E+05 -1.288976E+06 -4.090954E+04  3.798509E+04
       127   9 -2.959622E+06 -5.064346E+05  6.972702E+04 -1.383915E+06 -3.193409E+04  2.008772E+04
       127  10 -4.218474E+06 -9.658967E+05 -1.745962E+05 -1.731940E+06  4.907860E-10  1.544737E-09
       127  11 -3.997184E+06 -8.529053E+05 -1.283643E+05 -1.637155E+06  6.130357E-10  4.905573E-10
       127  12 -3.728741E+06 -7.873772E+05 -8.347983E+04 -1.596740E+06 -1.190364E-09 -1.805730E-09
       127  13 -3.344392E+06 -6.471090E+05 -2.147123E+03 -1.490330E+06 -1.142054E-09 -2.059608E-09
       127  14 -3.367854E+06 -6.232655E+05 -3.791107E+03 -1.463148E+06 -2.505938E-09 -3.585919E-09
       127  15 -3.344259E+06 -6.469128E+05 -6.874244E+03 -1.490358E+06 -1.515856E-09 -4.001820E-09
       127  16 -2.469506E+06 -3.282514E+05  1.702687E+05 -1.248401E+06 -1.023932E-09 -2.548857E-09
       127  17 -2.738109E+06 -3.935899E+05  1.207644E+05 -1.288975E+06  1.154486E-09  1.801375E-10
       127  18 -2.959623E+06 -5.064353E+05  6.972435E+04 -1.383915E+06  4.349315E-10 -2.365141E-09
       127  19 -4.218472E+06 -9.658904E+05 -1.745853E+05 -1.731940E+06 -3.810131E+03 -7.606276E+04
       127  20 -3.997183E+06 -8.529016E+05 -1.283577E+05 -1.637154E+06 -1.259917E+04 -5.798630E+04
       127  21 -3.728740E+06 -7.873754E+05 -8.347595E+04 -1.596739E+06 -2.134767E+04 -3.998660E+04
       127  22 -3.344390E+06 -6.471042E+05 -2.137953E+03 -1.490332E+06  2.303802E+04 -6.601847E+04
       127  23 -3.367853E+06 -6.232629E+05 -3.786412E+03 -1.463148E+06  1.414050E+04 -4.799120E+04
       127  24 -3.344259E+06 -6.469118E+05 -6.872498E+03 -1.490358E+06  5.284309E+03 -3.004050E+04
       127  25 -2.469503E+06 -3.282474E+05  1.702793E+05 -1.248403E+06  4.992719E+04 -5.595884E+04
       127  26 -2.738107E+06 -3.935879E+05  1.207702E+05 -1.288976E+06  4.090954E+04 -3.798509E+04
       127  27 -2.959622E+06 -5.064346E+05  6.972702E+04 -1.383915E+06  3.193409E+04 -2.008772E+04
       128   1 -3.561841E+06 -7.266893E+05 -5.127962E+04 -1.551695E+06  2.711247E+04  2.961856E+04
       128   2 -3.340020E+06 -6.129653E+05 -9.961248E+03 -1.454904E+06  3.957930E+04  1.381435E+04
       128   3 -3.072915E+06 -5.503585E+05  2.605304E+04 -1.411848E+06  5.135728E+04 -1.408431E+02
       128   4 -3.344607E+06 -6.467144E+05 -9.146750E+03 -1.490628E+06  9.500101E+01  1.953113E+04
       128   5 -3.367336E+06 -6.235285E+05 -1.670001E+04 -1.462768E+06  1.520132E+04  4.711977E+03
       128   6 -3.345373E+06 -6.519929E+05 -3.166118E+04 -1.488670E+06  2.961642E+04 -8.258957E+03
       128   7 -3.127323E+06 -5.667351E+05  3.298670E+04 -1.429541E+06 -2.693242E+04  9.439879E+03
       128   8 -3.394650E+06 -6.340910E+05 -2.343627E+04 -1.470632E+06 -9.175487E+03 -4.389913E+03
       128   9 -3.617756E+06 -7.536209E+05 -8.937813E+04 -1.565462E+06  7.885696E+03 -1.637312E+04
       128  10 -3.561842E+06 -7.266905E+05 -5.128267E+04 -1.551696E+06 -1.779336E-09 -7.701573E-10
       128  11 -3.340021E+06 -6.129660E+05 -9.964571E+03 -1.454904E+06 -2.381235E-09 -1.470174E-09
       128  12 -3.072918E+06 -5.503592E+05  2.604806E+04 -1.411848E+06 -7.612090E-10  2.968840E-10
       128  13 -3.344607E+06 -6.467148E+05 -9.147466E+03 -1.490628E+06  4.280909E-10 -4.831031E-10
       128  14 -3.367336E+06 -6.235286E+05 -1.670049E+04 -1.462769E+06 -8.739699E-10 -9.149309E-10
       128  15 -3.345374E+06 -6.519932E+05 -3.166297E+04 -1.488670E+06 -2.547512E-09 -3.673299E-09
       128  16 -3.127324E+06 -5.667354E+05  3.298516E+04 -1.429540E+06  1.933039E-09 -1.004871E-09
       128  17 -3.394650E+06 -6.340911E+05 -2.343647E+04 -1.470632E+06  5.548197E-11 -2.313489E-09
       128  18 -3.617756E+06 -7.536212E+05 -8.937875E+04 -1.565462E+06 -3.828661E-10 -4.897982E-10
       128  19 -3.561841E+06 -7.266893E+05 -5.127962E+04 -1.551695E+06 -2.711247E+04 -2.961856E+04
       128  20 -3.340020E+06 -6.129653E+05 -9.961248E+03 -1.454904E+06 -3.957930E+04 -1.381435E+04
       128  21 -3.072915E+06 -5.503585E+05  2.605304E+04 -1.411848E+06 -5.135728E+04  1.408431E+02
       128  22 -3.344607E+06 -6.467144E+05 -9.146750E+03 -1.490628E+06 -9.500101E+01 -1.953113E+04
       128  23 -3.367336E+06 -6.235285E+05 -1.670001E+04 -1.462768E+06 -1.520132E+04 -4.711977E+03
       128  24 -3.345373E+06 -6.519929E+05 -3.166118E+04 -1.488670E+06 -2.961642E+04  8.258957E+03
       128  25 -3.127323E+06 -5.667351E+05  3.298670E+04 -1.429541E+06  2.693242E+04 -9.439879E+03
       128  26 -3.394650E+06 -6.340910E+05 -2.343627E+04 -1.470632E+06  9.175487E+03  4.389913E+03
       128  27 -3.617756E+06 -7.536209E+05 -8.937813E+04 -1.565462E+06 -7.885696E+03  1.637312E+04
       129   1 -2.900003E+06 -4.945583E+05  5.102561E+04 -1.381267E+06  6.533586E+04 -7.387664E+03
       129   2 -2.703726E+06 -3.666918E+05  7.602587E+04 -1.237104E+06  6.950291E+04 -1.180212E+04
       129   3 -2.494395E+06 -3.717922E+05  7.545678E+04 -1.122274E+06  6.357087E+04  1.078034E+04
       129   4 -3.350706E+06 -6.472759E+05 -4.149325E+04 -1.492416E+06  3.846054E+04 -1.742413E+04
       129   5 -3.362829E+06 -6.435175E+05 -7.780931E+04 -1.452914E+06  8.127413E+04 -7.411617E+03
       129   6 -3.369697E+06 -7.805099E+05 -1.704659E+05 -1.442787E+06  1.139798E+05  2.961084E+04
       129   7 -3.801201E+06 -7.999842E+05 -1.340201E+05 -1.603494E+06  1.160620E+04 -2.745412E+04
       129   8 -4.021477E+06 -9.202682E+05 -2.316705E+05 -1.668497E+06  9.303159E+04 -3.027894E+03
       129   9 -4.244197E+06 -1.189034E+06 -4.164399E+05 -1.762834E+06  1.643090E+05  4.839495E+04
       129  10 -2.900008E+06 -4.945595E+05  5.101745E+04 -1.381267E+06 -7.920390E-10 -1.072548E-09
       129  11 -2.703731E+06 -3.666932E+05  7.601650E+04 -1.237103E+06  5.859167E-10  5.536291E-10
       129  12 -2.494400E+06 -3.717934E+05  7.544894E+04 -1.122275E+06 -4.694451E-10 -7.000954E-10
       129  13 -3.350707E+06 -6.472766E+05 -4.149661E+04 -1.492416E+06  1.149225E-09  1.868908E-09
       129  14 -3.362836E+06 -6.435194E+05 -7.782189E+04 -1.452914E+06  1.568147E-09  2.465974E-09
       129  15 -3.369711E+06 -7.805143E+05 -1.704921E+05 -1.442789E+06  2.451817E-10  1.160372E-10
       129  16 -3.801201E+06 -7.999850E+05 -1.340218E+05 -1.603494E+06  1.280657E-09  2.535244E-09
       129  17 -4.021486E+06 -9.202706E+05 -2.316869E+05 -1.668496E+06 -1.494332E-09 -1.829521E-09
       129  18 -4.244227E+06 -1.189044E+06 -4.164954E+05 -1.762840E+06 -4.447469E-10 -7.894156E-10
       129  19 -2.900003E+06 -4.945583E+05  5.102561E+04 -1.381267E+06 -6.533586E+04  7.387664E+03
       129  20 -2.703726E+06 -3.666918E+05  7.602587E+04 -1.237104E+06 -6.950291E+04  1.180212E+04
       129  21 -2.494395E+06 -3.717922E+05  7.545678E+04 -1.122274E+06 -6.357087E+04 -1.078034E+04
       129  22 -3.350706E+06 -6.472759E+05 -4.149325E+04 -1.492416E+06 -3.846054E+04  1.742413E+04
       129  23 -3.362829E+06 -6.435175E+05 -7.780931E+04 -1.452914E+06 -8.127413E+04  7.411617E+03
       129  24 -3.369697E+06 -7.805099E+05 -1.704659E+05 -1.442787E+06 -1.139798E+05 -2.961084E+04
       129  25 -3.801201E+06 -7.999842E+05 -1.340201E+05 -1.603494E+06 -1.160620E+04  2.745412E+04
       129  26 -4.021477E+06 -9.202682E+05 -2.316705E+05 -1.668497E+06 -9.303159E+04  3.027894E+03
       129  27 -4.244197E+06 -1.189034E+06 -4.164399E+05 -1.762834E+06 -1.643090E+05 -4.839495E+04
       130   1  2.296556E+05  4.695822E+04  6.672431E+04  1.520575E+04  6.104639E+04  8.957171E+02
       130   2  2.256759E+05 -3.401944E+04  1.800590E+04  4.775634E+03  4.048787E+04  2.577842E+03
       130   3  2.472748E+05 -2.345556E+04  5.559669E+03 -1.326954E+04  1.992917E+04  2.231705E+03
       130   4  3.277793E+05  7.141530E+04  9.099801E+04 -4.578613E+03  6.222173E+04  8.941370E+02
       130   5  3.149215E+05 -1.186258E+04  3.958768E+04 -7.598295E+02  4.078332E+04  2.577533E+03
       130   6  3.277904E+05 -3.454168E+03  2.505619E+04 -4.555916E+03  1.934505E+04  2.231852E+03
       130   7  4.259126E+05  9.587314E+04  1.152712E+05 -2.436611E+04  6.339726E+04  8.924822E+02
       130   8  4.041745E+05  1.029381E+04  6.116889E+04 -6.296092E+03  4.107881E+04  2.577218E+03
       130   9  4.083121E+05  1.654704E+04  4.455228E+04  4.158843E+03  1.876085E+04  2.231982E+03
       130  10  2.296516E+05  4.695722E+04  6.671731E+04  1.520571E+04  3.476425E-10  1.279210E-10
       130  11  2.256742E+05 -3.401988E+04  1.800281E+04  4.775550E+03 -1.456933E-09  8.615271E-10
       130  12  2.472744E+05 -2.345567E+04  5.558913E+03 -1.326958E+04 -8.872236E-10 -8.646431E-10
       130  13  3.277751E+05  7.141426E+04  9.099073E+04 -4.578658E+03  2.434885E-09  4.953240E-10
       130  14  3.149198E+05 -1.186303E+04  3.958454E+04 -7.599142E+02  1.148524E-10  5.695919E-10
       130  15  3.277900E+05 -3.454273E+03  2.505548E+04 -4.555951E+03 -8.923196E-10 -5.139614E-10
       130  16  4.259083E+05  9.587206E+04  1.152636E+05 -2.436615E+04  1.456730E-09  3.342906E-10
       130  17  4.041727E+05  1.029335E+04  6.116571E+04 -6.296177E+03  1.598545E-10  3.869538E-10
       130  18  4.083117E+05  1.654694E+04  4.455161E+04  4.158810E+03  1.979055E-09  5.690947E-10
       130  19  2.296556E+05  4.695822E+04  6.672431E+04  1.520575E+04 -6.104639E+04 -8.957171E+02
       130  20  2.256759E+05 -3.401944E+04  1.800590E+04  4.775634E+03 -4.048787E+04 -2.577842E+03
       130  21  2.472748E+05 -2.345556E+04  5.559669E+03 -1.326954E+04 -1.992917E+04 -2.231705E+03
       130  22  3.277793E+05  7.141530E+04  9.099801E+04 -4.578613E+03 -6.222173E+04 -8.941370E+02
       130  23  3.149215E+05 -1.186258E+04  3.958768E+04 -7.598295E+02 -4.078332E+04 -2.577533E+03
       130  24  3.277904E+05 -3.454168E+03  2.505619E+04 -4.555916E+03 -1.934505E+04 -2.231852E+03
       130  25  4.259126E+05  9.587314E+04  1.152712E+05 -2.436611E+04 -6.339726E+04 -8.924822E+02
       130  26  4.041745E+05  1.029381E+04  6.116889E+04 -6.296092E+03 -4.107881E+04 -2.577218E+03
       130  27  4.083121E+05  1.654704E+04  4.455228E+04  4.158843E+03 -1.876085E+04 -2.231982E+03
       131   1  2.564223E+05 -8.213049E+03  4.416247E+03 -2.444716E+03  1.541669E+04  1.739864E+03
       131   2  2.633949E+05 -1.574456E+04 -3.697188E+03 -2.631604E+02  1.019291E+04  1.586762E+03
       131   3  2.737251E+05 -1.259538E+04 -5.738816E+03 -5.606100E+03  4.969057E+03  1.255583E+03
       131   4  3.228202E+05  8.282476E+03  2.052150E+04 -4.543534E+03  1.539047E+04  1.739796E+03
       131   5  3.211359E+05 -1.403289E+03  1.028741E+04 -7.806495E+02  1.008921E+04  1.586730E+03
       131   6  3.228222E+05 -3.955069E+02  6.178430E+03 -4.542193E+03  4.787953E+03  1.255569E+03
       131   7  3.892221E+05  2.477769E+04  3.662643E+04 -6.642577E+03  1.536425E+04  1.739727E+03
       131   8  3.788800E+05  1.293774E+04  2.427177E+04 -1.298187E+03  9.985504E+03  1.586699E+03
       131   9  3.719216E+05  1.180419E+04  1.809550E+04 -3.478203E+03  4.606835E+03  1.255556E+03
       131  10  2.564221E+05 -8.213116E+03  4.415795E+03 -2.444738E+03  9.066563E-10 -9.206716E-10
       131  11  2.633948E+05 -1.574459E+04 -3.697388E+03 -2.631734E+02  3.251996E-09  4.553821E-10
       131  12  2.737251E+05 -1.259539E+04 -5.738865E+03 -5.606105E+03  1.979332E-10 -3.013940E-10
       131  13  3.228199E+05  8.282409E+03  2.052105E+04 -4.543556E+03 -6.230362E-09 -2.220792E-10
       131  14  3.211358E+05 -1.403319E+03  1.028721E+04 -7.806624E+02  1.246046E-09 -6.726006E-11
       131  15  3.228222E+05 -3.955147E+02  6.178384E+03 -4.542198E+03  2.596256E-09 -2.923612E-10
       131  16  3.892218E+05  2.477763E+04  3.662598E+04 -6.642598E+03 -3.914651E-10 -7.326907E-11
       131  17  3.788799E+05  1.293771E+04  2.427158E+04 -1.298200E+03 -5.215725E-09 -7.166263E-10
       131  18  3.719215E+05  1.180419E+04  1.809546E+04 -3.478207E+03 -3.020586E-09 -1.331795E-10
       131  19  2.564223E+05 -8.213049E+03  4.416247E+03 -2.444716E+03 -1.541669E+04 -1.739864E+03
       131  20  2.633949E+05 -1.574456E+04 -3.697188E+03 -2.631604E+02 -1.019291E+04 -1.586762E+03
       131  21  2.737251E+05 -1.259538E+04 -5.738816E+03 -5.606100E+03 -4.969057E+03 -1.255583E+03
       131  22  3.228202E+05  8.282476E+03  2.052150E+04 -4.543534E+03 -1.539047E+04 -1.739796E+03
       131  23  3.211359E+05 -1.403289E+03  1.028741E+04 -7.806495E+02 -1.008921E+04 -1.586730E+03
       131  24  3.228222E+05 -3.955069E+02  6.178430E+03 -4.542193E+03 -4.787953E+03 -1.255569E+03
       131  25  3.892221E+05  2.477769E+04  3.662643E+04 -6.642577E+03 -1.536425E+04 -1.739727E+03
       131  26  3.788800E+05  1.293774E+04  2.427177E+04 -1.298187E+03 -9.985504E+03 -1.586699E+03
       131  27  3.719216E+05  1.180419E+04  1.809550E+04 -3.478203E+03 -4.606835E+03 -1.255556E+03
       132   1  2.870399E+05 -7.775855E+03 -3.629018E+03 -4.337138E+03  3.939237E+03  1.037716E+03
       132   2  2.953744E+05 -6.765752E+03 -3.811103E+03 -7.686784E+02  2.624315E+03  7.251029E+02
       132   3  3.041918E+05 -4.517117E+03 -2.827375E+03 -4.663317E+03  1.309377E+03  3.973925E+02
       132   4  3.221808E+05  9.480366E+02  4.861457E+03 -4.529001E+03  3.807573E+03  1.037702E+03
       132   5  3.219390E+05 -1.676442E+02  2.623881E+03 -7.974314E+02  2.486057E+03  7.250937E+02
       132   6  3.221812E+05 -4.365130E+01  1.556675E+03 -4.528940E+03  1.164543E+03  3.973877E+02
       132   7  3.573229E+05  9.671839E+03  1.335184E+04 -4.720876E+03  3.675902E+03  1.037688E+03
       132   8  3.485043E+05  6.430412E+03  9.058814E+03 -8.261856E+02  2.347793E+03  7.250845E+02
       132   9  3.401710E+05  4.429791E+03  5.940701E+03 -4.394559E+03  1.019704E+03  3.973829E+02
       132  10  2.870398E+05 -7.775861E+03 -3.629049E+03 -4.337141E+03 -2.155802E-09 -2.414986E-10
       132  11  2.953744E+05 -6.765755E+03 -3.811117E+03 -7.686799E+02  1.547277E-09  5.930892E-10
       132  12  3.041918E+05 -4.517118E+03 -2.827379E+03 -4.663318E+03  5.213320E-10 -3.245442E-10
       132  13  3.221808E+05  9.480316E+02  4.861428E+03 -4.529004E+03  2.074829E-09  9.266145E-11
       132  14  3.219390E+05 -1.676464E+02  2.623868E+03 -7.974328E+02  1.077084E-09  6.083478E-10
       132  15  3.221812E+05 -4.365184E+01  1.556672E+03 -4.528940E+03  2.186435E-09 -5.545618E-10
       132  16  3.573229E+05  9.671834E+03  1.335182E+04 -4.720879E+03 -1.229424E-09  4.289643E-10
       132  17  3.485043E+05  6.430410E+03  9.058803E+03 -8.261870E+02  2.431192E-10  4.561323E-10
       132  18  3.401710E+05  4.429791E+03  5.940699E+03 -4.394559E+03 -3.154653E-09 -6.312720E-10
       132  19  2.870399E+05 -7.775855E+03 -3.629018E+03 -4.337138E+03 -3.939237E+03 -1.037716E+03
       132  20  2.953744E+05 -6.765752E+03 -3.811103E+03 -7.686784E+02 -2.624315E+03 -7.251029E+02
       132  21  3.041918E+05 -4.517117E+03 -2.827375E+03 -4.663317E+03 -1.309377E+03 -3.973925E+02
       132  22  3.221808E+05  9.480366E+02  4.861457E+03 -4.529001E+03 -3.807573E+03 -1.037702E+03
       132  23  3.219390E+05 -1.676442E+02  2.623881E+03 -7.974314E+02 -2.486057E+03 -7.250937E+02
       132  24  3.221812E+05 -4.365130E+01  1.556675E+03 -4.528940E+03 -1.164543E+03 -3.973877E+02
       132  25  3.573229E+05  9.671839E+03  1.335184E+04 -4.720876E+03 -3.675902E+03 -1.037688E+03
       132  26  3.485043E+05  6.430412E+03  9.058814E+03 -8.261856E+02 -2.347793E+03 -7.250845E+02
       132  27  3.401710E+05  4.429791E+03  5.940701E+03 -4.394559E+03 -1.019704E+03 -3.973829E+02
       133   1  3.179852E+05 -9.097193E+02  2.470794E+02 -4.514978E+03  1.055982E+03  2.046591E+02
       133   2  3.264996E+05  1.083679E+03  1.800541E+03 -8.051452E+02  6.965833E+02 -1.211401E+02
       133   3  3.350984E+05  3.224657E+03  3.624953E+03 -4.542330E+03  3.371779E+02 -4.483279E+02
       133   4  3.220925E+05  1.052298E+02  1.215986E+03 -4.525392E+03  9.154872E+02  2.046555E+02
       133   5  3.220503E+05 -2.141240E+01  7.227113E+02 -8.018807E+02  5.554838E+02 -1.211446E+02
       133   6  3.220926E+05 -3.976114E-01  5.007744E+02 -4.525390E+03  1.954788E+02 -4.483330E+02
       133   7  3.261998E+05  1.120178E+03  2.184891E+03 -4.535807E+03  7.749914E+02  2.046519E+02
       133   8  3.176011E+05 -1.126505E+03 -3.551198E+02 -7.986162E+02  4.143854E+02 -1.211490E+02
       133   9  3.090869E+05 -3.225464E+03 -2.623416E+03 -4.508450E+03  5.378257E+01 -4.483380E+02
       133  10  3.179852E+05 -9.097197E+02  2.470772E+02 -4.514978E+03 -1.114920E-10 -5.507971E-10
       133  11  3.264996E+05  1.083678E+03  1.800540E+03 -8.051451E+02 -6.558634E-10  2.859629E-10
       133  12  3.350984E+05  3.224656E+03  3.624952E+03 -4.542330E+03  2.492216E-10 -4.426323E-11
       133  13  3.220925E+05  1.052295E+02  1.215984E+03 -4.525393E+03 -2.148322E-09 -5.756787E-10
       133  14  3.220503E+05 -2.141250E+01  7.227107E+02 -8.018806E+02  1.018941E-09  2.152199E-10
       133  15  3.220926E+05 -3.978375E-01  5.007740E+02 -4.525390E+03 -4.162995E-10 -3.773859E-10
       133  16  3.261998E+05  1.120178E+03  2.184890E+03 -4.535807E+03 -8.736403E-10 -5.083712E-10
       133  17  3.176011E+05 -1.126505E+03 -3.551201E+02 -7.986162E+02 -5.307519E-10  2.236770E-10
       133  18  3.090869E+05 -3.225464E+03 -2.623417E+03 -4.508450E+03  1.976484E-10 -8.122277E-10
       133  19  3.179852E+05 -9.097193E+02  2.470794E+02 -4.514978E+03 -1.055982E+03 -2.046591E+02
       133  20  3.264996E+05  1.083679E+03  1.800541E+03 -8.051452E+02 -6.965833E+02  1.211401E+02
       133  21  3.350984E+05  3.224657E+03  3.624953E+03 -4.542330E+03 -3.371779E+02  4.483279E+02
       133  22  3.220925E+05  1.052298E+02  1.215986E+03 -4.525392E+03 -9.154872E+02 -2.046555E+02
       133  23  3.220503E+05 -2.141240E+01  7.227113E+02 -8.018807E+02 -5.554838E+02  1.211446E+02
       133  24  3.220926E+05 -3.976114E-01  5.007744E+02 -4.525390E+03 -1.954788E+02  4.483330E+02
       133  25  3.261998E+05  1.120178E+03  2.184891E+03 -4.535807E+03 -7.749914E+02 -2.046519E+02
       133  26  3.176011E+05 -1.126505E+03 -3.551198E+02 -7.986162E+02 -4.143854E+02  1.211490E+02
       133  27  3.090869E+05 -3.225464E+03 -2.623416E+03 -4.508450E+03 -5.378257E+01  4.483380E+02
       134   1  3.489856E+05  6.695490E+03  6.992181E+03 -4.525841E+03  2.515736E+02 -6.393541E+02
       134   2  3.575517E+05  8.803738E+03  9.037724E+03 -7.921927E+02  3.229681E+01 -9.672787E+02
       134   3  3.661682E+05  1.098662E+04  1.124528E+04 -4.535688E+03 -1.869552E+02 -1.294481E+03
       134   4  3.220849E+05  8.772576E+00  4.493217E+02 -4.532090E+03  1.096943E+02 -6.393614E+02
       134   5  3.220596E+05 -1.150497E+01  4.401212E+02 -7.935065E+02 -1.092613E+02 -9.672919E+02
       134   6  3.220848E+05  4.280855E+01  5.927233E+02 -4.532093E+03 -3.281890E+02 -1.294500E+03
       134   7  2.951847E+05 -6.677999E+03 -6.093590E+03 -4.538339E+03 -3.217897E+01 -6.393688E+02
       134   8  2.865687E+05 -8.826840E+03 -8.157572E+03 -7.948203E+02 -2.508113E+02 -9.673050E+02
       134   9  2.780031E+05 -1.090115E+04 -1.005997E+04 -4.528498E+03 -4.694128E+02 -1.294518E+03
       134  10  3.489856E+05  6.695490E+03  6.992180E+03 -4.525840E+03 -3.975923E-09  2.935644E-10
       134  11  3.575517E+05  8.803737E+03  9.037722E+03 -7.921927E+02  3.449722E-10  9.475510E-10
       134  12  3.661682E+05  1.098662E+04  1.124528E+04 -4.535689E+03  1.719870E-09 -1.675757E-09
       134  13  3.220849E+05  8.772133E+00  4.493209E+02 -4.532090E+03  2.392138E-09  1.558334E-10
       134  14  3.220596E+05 -1.150598E+01  4.401194E+02 -7.935066E+02  2.386857E-09  1.221110E-09
       134  15  3.220848E+05  4.280672E+01  5.927200E+02 -4.532093E+03 -2.347220E-09 -1.488878E-09
       134  16  2.951847E+05 -6.677999E+03 -6.093591E+03 -4.538339E+03  1.346468E-09 -1.207775E-10
       134  17  2.865687E+05 -8.826841E+03 -8.157574E+03 -7.948204E+02  2.418571E-09  1.271893E-09
       134  18  2.780031E+05 -1.090115E+04 -1.005998E+04 -4.528499E+03 -8.013977E-10 -1.373594E-09
       134  19  3.489856E+05  6.695490E+03  6.992181E+03 -4.525841E+03 -2.515736E+02  6.393541E+02
       134  20  3.575517E+05  8.803738E+03  9.037724E+03 -7.921927E+02 -3.229681E+01  9.672787E+02
       134  21  3.661682E+05  1.098662E+04  1.124528E+04 -4.535688E+03  1.869552E+02  1.294481E+03
       134  22  3.220849E+05  8.772576E+00  4.493217E+02 -4.532090E+03 -1.096943E+02  6.393614E+02
       134  23  3.220596E+05 -1.150497E+01  4.401212E+02 -7.935065E+02  1.092613E+02  9.672919E+02
       134  24  3.220848E+05  4.280855E+01  5.927233E+02 -4.532093E+03  3.281890E+02  1.294500E+03
       134  25  2.951847E+05 -6.677999E+03 -6.093590E+03 -4.538339E+03  3.217897E+01  6.393688E+02
       134  26  2.865687E+05 -8.826840E+03 -8.157572E+03 -7.948203E+02  2.508113E+02  9.673050E+02
       134  27  2.780031E+05 -1.090115E+04 -1.005997E+04 -4.528498E+03  4.694128E+02  1.294518E+03
       135   1  3.802001E+05  1.441150E+04  1.481411E+04 -4.488692E+03 -2.987384E+02 -1.489674E+03
       135   2  3.887708E+05  1.650794E+04  1.731652E+04 -7.770960E+02 -8.843325E+02 -1.820740E+03
       135   3  3.975593E+05  1.913108E+04  2.033367E+04 -4.620013E+03 -1.469878E+03 -2.131623E+03
       135   4  3.221212E+05 -1.874331E+01  7.190613E+02 -4.549265E+03 -4.461287E+02 -1.489699E+03
       135   5  3.220129E+05 -7.248347E+01  1.145737E+03 -7.720231E+02 -1.022944E+03 -1.820775E+03
       135   6  3.221209E+05  3.990173E+02  2.081148E+03 -4.549345E+03 -1.599703E+03 -2.131666E+03
       135   7  2.640454E+05 -1.444923E+04 -1.337623E+04 -4.609833E+03 -5.935051E+02 -1.489725E+03
       135   8  2.552591E+05 -1.665323E+04 -1.502537E+04 -7.669510E+02 -1.161541E+03 -1.820810E+03
       135   9  2.466877E+05 -1.833346E+04 -1.617179E+04 -4.478685E+03 -1.729512E+03 -2.131710E+03
       135  10  3.802001E+05  1.441149E+04  1.481411E+04 -4.488693E+03 -1.352289E-09 -1.462759E-09
       135  11  3.887708E+05  1.650794E+04  1.731651E+04 -7.770973E+02  6.881043E-09  5.779780E-10
       135  12  3.975593E+05  1.913107E+04  2.033366E+04 -4.620016E+03  3.339966E-09 -1.799021E-10
       135  13  3.221212E+05 -1.874575E+01  7.190567E+02 -4.549266E+03  7.703445E-11 -1.397112E-09
       135  14  3.220129E+05 -7.248731E+01  1.145729E+03 -7.720246E+02 -4.424934E-09  1.008047E-09
       135  15  3.221209E+05  3.990118E+02  2.081135E+03 -4.549347E+03 -2.981418E-09 -2.797580E-10
       135  16  2.640454E+05 -1.444923E+04 -1.337624E+04 -4.609834E+03 -1.339927E-09 -1.426854E-09
       135  17  2.552591E+05 -1.665324E+04 -1.502537E+04 -7.669527E+02 -5.087722E-09  1.399151E-09
       135  18  2.466877E+05 -1.833346E+04 -1.617180E+04 -4.478688E+03 -3.805440E-09  8.505339E-11
       135  19  3.802001E+05  1.441150E+04  1.481411E+04 -4.488692E+03  2.987384E+02  1.489674E+03
       135  20  3.887708E+05  1.650794E+04  1.731652E+04 -7.770960E+02  8.843325E+02  1.820740E+03
       135  21  3.975593E+05  1.913108E+04  2.033367E+04 -4.620013E+03  1.469878E+03  2.131623E+03
       135  22  3.221212E+05 -1.874331E+01  7.190613E+02 -4.549265E+03  4.461287E+02  1.489699E+03
       135  23  3.220129E+05 -7.248347E+01  1.145737E+03 -7.720231E+02  1.022944E+03  1.820775E+03
       135  24  3.221209E+05  3.990173E+02  2.081148E+03 -4.549345E+03  1.599703E+03  2.131666E+03
       135  25  2.640454E+05 -1.444923E+04 -1.337623E+04 -4.609833E+03  5.935051E+02  1.489725E+03
       135  26  2.552591E+05 -1.665323E+04 -1.502537E+04 -7.669510E+02  1.161541E+03  1.820810E+03
       135  27  2.466877E+05 -1.833346E+04 -1.617179E+04 -4.478685E+03  1.729512E+03  2.131710E+03
       136   1  4.120153E+05  2.209335E+04  2.436727E+04 -4.109704E+03 -1.819613E+03 -2.363051E+03
       136   2  4.201087E+05  2.385001E+04  2.821089E+04 -9.385033E+02 -4.179598E+03 -2.700374E+03
       136   3  4.296677E+05  3.015800E+04  3.473231E+04 -5.439677E+03 -6.539672E+03 -2.789010E+03
       136   4  3.223938E+05 -1.701771E+02  2.635579E+03 -4.575088E+03 -2.018695E+03 -2.363119E+03
       136   5  3.216698E+05 -5.974810E+02  4.370614E+03 -7.395259E+02 -4.270876E+03 -2.700431E+03
       136   6  3.223928E+05  3.508208E+03  8.708903E+03 -4.576394E+03 -6.523110E+03 -2.789044E+03
       136   7  2.327797E+05 -2.243429E+04 -1.909669E+04 -5.040406E+03 -2.217749E+03 -2.363187E+03
       136   8  2.232398E+05 -2.504568E+04 -1.947036E+04 -5.405808E+02 -4.362139E+03 -2.700489E+03
       136   9  2.151284E+05 -2.314243E+04 -1.731534E+04 -3.713262E+03 -6.506552E+03 -2.789079E+03
       136  10  4.120153E+05  2.209334E+04  2.436725E+04 -4.109707E+03 -9.945142E-10 -4.657121E-10
       136  11  4.201087E+05  2.385000E+04  2.821084E+04 -9.385124E+02  2.593532E-09  5.808751E-10
       136  12  4.296676E+05  3.015798E+04  3.473222E+04 -5.439691E+03  9.507783E-10 -1.010114E-10
       136  13  3.223938E+05 -1.701842E+02  2.635561E+03 -4.575092E+03 -2.012896E-09 -8.358026E-10
       136  14  3.216698E+05 -5.974937E+02  4.370566E+03 -7.395352E+02 -4.308481E-09  4.925242E-11
       136  15  3.223927E+05  3.508188E+03  8.708808E+03 -4.576409E+03 -2.818047E-09 -1.451213E-11
       136  16  2.327796E+05 -2.243430E+04 -1.909671E+04 -5.040410E+03  5.923966E-10 -1.019050E-09
       136  17  2.232397E+05 -2.504570E+04 -1.947041E+04 -5.405903E+02 -1.194837E-09  2.882205E-10
       136  18  2.151283E+05 -2.314245E+04 -1.731543E+04 -3.713276E+03  1.405586E-09  4.376108E-10
       136  19  4.120153E+05  2.209335E+04  2.436727E+04 -4.109704E+03  1.819613E+03  2.363051E+03
       136  20  4.201087E+05  2.385001E+04  2.821089E+04 -9.385033E+02  4.179598E+03  2.700374E+03
       136  21  4.296677E+05  3.015800E+04  3.473231E+04 -5.439677E+03  6.539672E+03  2.789010E+03
       136  22  3.223938E+05 -1.701771E+02  2.635579E+03 -4.575088E+03  2.018695E+03  2.363119E+03
       136  23  3.216698E+05 -5.974810E+02  4.370614E+03 -7.395259E+02  4.270876E+03  2.700431E+03
       136  24  3.223928E+05  3.508208E+03  8.708903E+03 -4.576394E+03  6.523110E+03  2.789044E+03
       136  25  2.327797E+05 -2.243429E+04 -1.909669E+04 -5.040406E+03  2.217749E+03  2.363187E+03
       136  26  2.232398E+05 -2.504568E+04 -1.947036E+04 -5.405808E+02  4.362139E+03  2.700489E+03
       136  27  2.151284E+05 -2.314243E+04 -1.731534E+04 -3.713262E+03  6.506552E+03  2.789079E+03
       137   1  4.462403E+05  2.876423E+04  4.009696E+04 -8.691153E+02 -7.437000E+03 -3.403717E+03
       137   2  4.497204E+05  2.740890E+04  4.839306E+04 -3.011758E+03 -1.775907E+04 -3.759089E+03
       137   3  4.643521E+05  6.515106E+04  7.318753E+04 -1.295742E+04 -2.808292E+04 -1.275230E+03
       137   4  3.245027E+05 -1.469658E+03  1.063151E+04 -4.598935E+03 -8.201157E+03 -3.404038E+03
       137   5  3.190298E+05 -5.035745E+03  1.679005E+04 -7.066255E+02 -1.729436E+04 -3.758968E+03
       137   6  3.244974E+05  3.028670E+04  3.859632E+04 -4.617300E+03 -2.638918E+04 -1.274604E+03
       137   7  2.027786E+05 -3.170458E+04 -1.883499E+04 -8.328023E+03 -8.965165E+03 -3.404350E+03
       137   8  1.883547E+05 -3.748162E+04 -1.481418E+04  1.598018E+03 -1.682976E+04 -3.758843E+03
       137   9  1.846607E+05 -4.578863E+03  4.003717E+03  3.720941E+03 -2.469583E+04 -1.273933E+03
       137  10  4.462402E+05  2.876421E+04  4.009683E+04 -8.691357E+02 -3.447177E-11 -9.449831E-10
       137  11  4.497201E+05  2.740880E+04  4.839245E+04 -3.011811E+03 -8.946926E-10 -1.617429E-09
       137  12  4.643513E+05  6.515085E+04  7.318604E+04 -1.295745E+04  6.602842E-10 -5.105208E-10
       137  13  3.245026E+05 -1.469689E+03  1.063137E+04 -4.598958E+03  4.214863E-09 -2.099624E-09
       137  14  3.190294E+05 -5.035840E+03  1.678946E+04 -7.066779E+02  1.420614E-09  5.898106E-10
       137  15  3.244967E+05  3.028651E+04  3.859501E+04 -4.617327E+03  7.099156E-10 -3.270756E-10
       137  16  2.027785E+05 -3.170462E+04 -1.883516E+04 -8.328048E+03  2.349533E-09 -2.287277E-10
       137  17  1.883544E+05 -3.748171E+04 -1.481474E+04  1.597967E+03  1.505022E-09  5.496032E-11
       137  18  1.846600E+05 -4.579029E+03  4.002568E+03  3.720916E+03  1.815494E-09 -8.875849E-10
       137  19  4.462403E+05  2.876423E+04  4.009696E+04 -8.691153E+02  7.437000E+03  3.403717E+03
       137  20  4.497204E+05  2.740890E+04  4.839306E+04 -3.011758E+03  1.775907E+04  3.759089E+03
       137  21  4.643521E+05  6.515106E+04  7.318753E+04 -1.295742E+04  2.808292E+04  1.275230E+03
       137  22  3.245027E+05 -1.469658E+03  1.063151E+04 -4.598935E+03  8.201157E+03  3.404038E+03
       137  23  3.190298E+05 -5.035745E+03  1.679005E+04 -7.066255E+02  1.729436E+04  3.758968E+03
       137  24  3.244974E+05  3.028670E+04  3.859632E+04 -4.617300E+03  2.638918E+04  1.274604E+03
       137  25  2.027786E+05 -3.170458E+04 -1.883499E+04 -8.328023E+03  8.965165E+03  3.404350E+03
       137  26  1.883547E+05 -3.748162E+04 -1.481418E+04  1.598018E+03  1.682976E+04  3.758843E+03
       137  27  1.846607E+05 -4.578863E+03  4.003717E+03  3.720941E+03  2.469583E+04  1.273933E+03
       138   1  2.978855E+06  1.207849E+07  2.981409E+06 -1.428856E+06  9.734034E+04  1.744287E+05
       138   2  2.230790E+06  9.412382E+06  2.242162E+06 -3.217586E+05  2.651614E+05  3.492875E+04
       138   3  1.677249E+06  6.894589E+06  1.655959E+06 -1.444157E+06  1.709447E+05 -1.066075E+05
       138   4  6.709221E+04  3.241974E+05  9.215345E+04 -1.364661E+06  9.811596E+04  4.338270E+04
       138   5 -2.859533E+04  2.662541E+05  4.336565E+04 -2.486969E+05  2.655775E+05  1.939552E+04
       138   6  5.127491E+04  3.304555E+05  6.931260E+04 -1.364335E+06  1.692976E+05 -7.227069E+03
       138   7 -2.854877E+06 -1.130595E+07 -2.807208E+06 -1.301385E+06  9.887477E+04 -8.522786E+04
       138   8 -2.294040E+06 -8.804082E+06 -2.161382E+06 -1.764920E+05  2.659941E+05  4.086337E+03
       138   9 -1.577829E+06 -6.194567E+06 -1.520388E+06 -1.285141E+06  1.676665E+05  9.111499E+04
       138  10  2.978836E+06  1.207845E+07  2.981335E+06 -1.428870E+06  2.460756E-09  4.289877E-09
       138  11  2.230714E+06  9.412361E+06  2.242028E+06 -3.217660E+05 -4.957586E-09  2.597754E-09
       138  12  1.677215E+06  6.894569E+06  1.655883E+06 -1.444142E+06 -4.161886E-09  4.416022E-09
       138  13  6.708135E+04  3.241927E+05  9.213178E+04 -1.364665E+06  4.235983E-09 -5.665684E-11
       138  14 -2.867118E+04  2.662347E+05  4.323237E+04 -2.487010E+05  2.938158E-09  5.345574E-09
       138  15  5.124412E+04  3.304478E+05  6.925865E+04 -1.364334E+06 -1.156394E-09  1.830228E-09
       138  16 -2.854889E+06 -1.130596E+07 -2.807240E+06 -1.301378E+06  8.568554E-10 -5.786025E-09
       138  17 -2.294116E+06 -8.804101E+06 -2.161515E+06 -1.764929E+05  4.930123E-09  4.322242E-09
       138  18 -1.577862E+06 -6.194583E+06 -1.520457E+06 -1.285153E+06  7.190249E-10  7.380286E-09
       138  19  2.978855E+06  1.207849E+07  2.981409E+06 -1.428856E+06 -9.734034E+04 -1.744287E+05
       138  20  2.230790E+06  9.412382E+06  2.242162E+06 -3.217586E+05 -2.651614E+05 -3.492875E+04
       138  21  1.677249E+06  6.894589E+06  1.655959E+06 -1.444157E+06 -1.709447E+05  1.066075E+05
       138  22  6.709221E+04  3.241974E+05  9.215345E+04 -1.364661E+06 -9.811596E+04 -4.338270E+04
       138  23 -2.859533E+04  2.662541E+05  4.336565E+04 -2.486969E+05 -2.655775E+05 -1.939552E+04
       138  24  5.127491E+04  3.304555E+05  6.931260E+04 -1.364335E+06 -1.692976E+05  7.227069E+03
       138  25 -2.854877E+06 -1.130595E+07 -2.807208E+06 -1.301385E+06 -9.887477E+04  8.522786E+04
       138  26 -2.294040E+06 -8.804082E+06 -2.161382E+06 -1.764920E+05 -2.659941E+05 -4.086337E+03
       138  27 -1.577829E+06 -6.194567E+06 -1.520388E+06 -1.285141E+06 -1.676665E+05 -9.111499E+04
       139   1  6.378500E+05  2.690241E+06  6.443597E+05 -1.403684E+06  7.069903E+04 -5.502994E+04
       139   2 -4.381120E+04  1.522214E+05  5.193839E+04 -2.437354E+05 -2.930665E+03 -1.041474E+05
       139   3 -5.777052E+05 -2.432785E+06 -4.929865E+05 -1.310881E+06 -7.577742E+04 -1.530222E+05
       139   4  4.480527E+04  3.023954E+05  6.786719E+04 -1.363688E+06  7.008126E+04 -2.259319E+04
       139   5  2.884715E+02  3.288866E+05  9.475786E+04 -2.496937E+05 -3.524176E+03 -7.211821E+04
       139   6  1.040098E+05  3.022861E+05  1.697401E+05 -1.362598E+06 -7.635934E+04 -1.215965E+05
       139   7 -5.486525E+05 -2.080250E+06 -5.090297E+05 -1.323815E+06  6.946636E+04  9.719750E+03
       139   8  4.438650E+04  5.055826E+05  1.375789E+05 -2.556535E+05 -4.118214E+03 -4.007991E+04
       139   9  7.851813E+05  3.044211E+06  8.319319E+05 -1.414503E+06 -7.694513E+04 -9.003149E+04
       139  10  6.378438E+05  2.690236E+06  6.443447E+05 -1.403681E+06 -5.132734E-09  1.849157E-08
       139  11 -4.381412E+04  1.522098E+05  5.191800E+04 -2.437357E+05  1.254717E-08  1.215983E-08
       139  12 -5.777177E+05 -2.432812E+06 -4.930416E+05 -1.310891E+06 -1.374149E-08  3.289295E-09
       139  13  4.479987E+04  3.023936E+05  6.785701E+04 -1.363687E+06 -3.887633E-10 -1.191593E-10
       139  14  2.870628E+02  3.288810E+05  9.474806E+04 -2.496939E+05  1.348740E-08  9.972287E-09
       139  15  1.039996E+05  3.022686E+05  1.697013E+05 -1.362605E+06  8.924657E-09  2.221901E-09
       139  16 -5.486577E+05 -2.080251E+06 -5.090390E+05 -1.323816E+06  1.998679E-09 -2.794852E-08
       139  17  4.438605E+04  5.055809E+05  1.375759E+05 -2.556537E+05 -9.747019E-09 -2.279943E-09
       139  18  7.851727E+05  3.044200E+06  8.319056E+05 -1.414508E+06 -3.589996E-09  1.134681E-08
       139  19  6.378500E+05  2.690241E+06  6.443597E+05 -1.403684E+06 -7.069903E+04  5.502994E+04
       139  20 -4.381120E+04  1.522214E+05  5.193839E+04 -2.437354E+05  2.930665E+03  1.041474E+05
       139  21 -5.777052E+05 -2.432785E+06 -4.929865E+05 -1.310881E+06  7.577742E+04  1.530222E+05
       139  22  4.480527E+04  3.023954E+05  6.786719E+04 -1.363688E+06 -7.008126E+04  2.259319E+04
       139  23  2.884715E+02  3.288866E+05  9.475786E+04 -2.496937E+05  3.524176E+03  7.211821E+04
       139  24  1.040098E+05  3.022861E+05  1.697401E+05 -1.362598E+06  7.635934E+04  1.215965E+05
       139  25 -5.486525E+05 -2.080250E+06 -5.090297E+05 -1.323815E+06 -6.946636E+04 -9.719750E+03
       139  26  4.438650E+04  5.055826E+05  1.375789E+05 -2.556535E+05  4.118214E+03  4.007991E+04
       139  27  7.851813E+05  3.044211E+06  8.319319E+05 -1.414503E+06  7.694513E+04  9.003149E+04
       140   1 -1.695003E+06 -6.504169E+06 -1.460882E+06 -1.343343E+06 -1.746728E+05 -2.570775E+05
       140   2 -2.467499E+06 -9.209104E+06 -1.984208E+06 -1.393178E+05 -2.728976E+05 -3.087955E+05
       140   3 -2.443886E+06 -1.161252E+07 -2.257161E+06 -1.169796E+06 -1.003274E+05 -3.577928E+05
       140   4  1.944075E+04  3.719756E+05  2.138076E+05 -1.365642E+06 -1.762879E+05 -1.582546E+05
       140   5 -1.128544E+05  2.120371E+05  3.064800E+05 -2.484036E+05 -2.724144E+05 -3.278693E+05
       140   6  5.664510E+05  3.654704E+05  7.288736E+05 -1.363298E+06 -9.954863E+04 -4.950176E+05
       140   7  1.730404E+06  7.291574E+06  1.885107E+06 -1.387957E+06 -1.779005E+05 -5.832344E+04
       140   8  2.235263E+06  9.714991E+06  2.590747E+06 -3.589530E+05 -2.719296E+05 -3.472047E+05
       140   9  3.566072E+06  1.247530E+07  3.704207E+06 -1.560320E+06 -9.869469E+04 -6.348507E+05
       140  10 -1.695054E+06 -6.504249E+06 -1.461065E+06 -1.343379E+06 -8.566453E-09  1.157398E-08
       140  11 -2.467605E+06 -9.209228E+06 -1.984530E+06 -1.393861E+05  1.010508E-08  1.124972E-08
       140  12 -2.443933E+06 -1.161266E+07 -2.257425E+06 -1.169825E+06  4.867991E-09  2.301642E-09
       140  13  1.940057E+04  3.719403E+05  2.137019E+05 -1.365664E+06 -1.575167E-08 -6.360218E-12
       140  14 -1.129629E+05  2.119017E+05  3.061385E+05 -2.484755E+05  6.681615E-09  5.073480E-09
       140  15  5.663744E+05  3.652046E+05  7.283943E+05 -1.363338E+06  1.262431E-09  3.061488E-10
       140  16  1.730369E+06  7.291562E+06  1.885041E+06 -1.387965E+06  6.661208E-09 -1.987067E-08
       140  17  2.235152E+06  9.714843E+06  2.590385E+06 -3.590285E+05  1.307979E-09 -7.029560E-09
       140  18  3.565955E+06  1.247487E+07  3.703445E+06 -1.560370E+06 -2.448265E-09 -7.951415E-10
       140  19 -1.695003E+06 -6.504169E+06 -1.460882E+06 -1.343343E+06  1.746728E+05  2.570775E+05
       140  20 -2.467499E+06 -9.209104E+06 -1.984208E+06 -1.393178E+05  2.728976E+05  3.087955E+05
       140  21 -2.443886E+06 -1.161252E+07 -2.257161E+06 -1.169796E+06  1.003274E+05  3.577928E+05
       140  22  1.944075E+04  3.719756E+05  2.138076E+05 -1.365642E+06  1.762879E+05  1.582546E+05
       140  23 -1.128544E+05  2.120371E+05  3.064800E+05 -2.484036E+05  2.724144E+05  3.278693E+05
       140  24  5.664510E+05  3.654704E+05  7.288736E+05 -1.363298E+06  9.954863E+04  4.950176E+05
       140  25  1.730404E+06  7.291574E+06  1.885107E+06 -1.387957E+06  1.779005E+05  5.832344E+04
       140  26  2.235263E+06  9.714991E+06  2.590747E+06 -3.589530E+05  2.719296E+05  3.472047E+05
       140  27  3.566072E+06  1.247530E+07  3.704207E+06 -1.560320E+06  9.869469E+04  6.348507E+05
       141   1 -5.067734E+05 -2.233812E+05 -1.111004E+05 -2.238751E+05 -5.503136E+04 -1.728912E+04
       141   2 -4.781679E+05 -1.648719E+05 -6.383833E+04 -2.108417E+05 -3.331911E+04 -1.578446E+03
       141   3 -4.576129E+05 -1.348363E+05 -4.114572E+04 -1.972120E+05 -9.571281E+03  8.715955E+03
       141   4 -3.026468E+05 -1.174604E+05 -5.335959E+04 -1.376611E+05 -3.595421E+04 -1.013260E+04
       141   5 -2.968842E+05 -8.422315E+04 -2.538963E+04 -1.454988E+05 -2.530929E+04  1.426214E+03
       141   6 -2.969757E+05 -7.726310E+04 -1.321320E+04 -1.527422E+05 -1.263029E+04  7.567786E+03
       141   7 -9.848055E+04 -1.152592E+04  4.377860E+03 -5.141920E+04 -1.687064E+04 -2.971389E+03
       141   8 -1.155667E+05 -3.567104E+03  1.305732E+04 -8.013711E+04 -1.729702E+04  4.432268E+03
       141   9 -1.363099E+05 -1.968696E+04  1.471894E+04 -1.082614E+05 -1.569016E+04  6.419296E+03
       141  10 -5.067767E+05 -2.233823E+05 -1.111067E+05 -2.238759E+05 -2.474256E-08 -8.533639E-09
       141  11 -4.781691E+05 -1.648722E+05 -6.384042E+04 -2.108417E+05  2.625705E-09  6.010195E-09
       141  12 -4.576130E+05 -1.348364E+05 -4.114603E+04 -1.972120E+05  3.553635E-08  2.055548E-08
       141  13 -3.026482E+05 -1.174608E+05 -5.336222E+04 -1.376614E+05 -1.447652E-09 -7.570763E-10
       141  14 -2.968849E+05 -8.422333E+04 -2.539084E+04 -1.454988E+05  2.091806E-09 -5.151312E-09
       141  15 -2.969759E+05 -7.726320E+04 -1.321361E+04 -1.527422E+05 -6.263438E-10 -1.036253E-08
       141  16 -9.848085E+04 -1.152601E+04  4.377309E+03 -5.141924E+04  2.529019E-08  1.122605E-08
       141  17 -1.155671E+05 -3.567206E+03  1.305672E+04 -8.013704E+04 -6.791934E-09  3.403992E-09
       141  18 -1.363101E+05 -1.968707E+04  1.471840E+04 -1.082613E+05 -3.767044E-08 -5.534099E-09
       141  19 -5.067734E+05 -2.233812E+05 -1.111004E+05 -2.238751E+05  5.503136E+04  1.728912E+04
       141  20 -4.781679E+05 -1.648719E+05 -6.383833E+04 -2.108417E+05  3.331911E+04  1.578446E+03
       141  21 -4.576129E+05 -1.348363E+05 -4.114572E+04 -1.972120E+05  9.571281E+03 -8.715955E+03
       141  22 -3.026468E+05 -1.174604E+05 -5.335959E+04 -1.376611E+05  3.595421E+04  1.013260E+04
       141  23 -2.968842E+05 -8.422315E+04 -2.538963E+04 -1.454988E+05  2.530929E+04 -1.426214E+03
       141  24 -2.969757E+05 -7.726310E+04 -1.321320E+04 -1.527422E+05  1.263029E+04 -7.567786E+03
       141  25 -9.848055E+04 -1.152592E+04  4.377860E+03 -5.141920E+04  1.687064E+04  2.971389E+03
       141  26 -1.155667E+05 -3.567104E+03  1.305732E+04 -8.013711E+04  1.729702E+04 -4.432268E+03
       141  27 -1.363099E+05 -1.968696E+04  1.471894E+04 -1.082614E+05  1.569016E+04 -6.419296E+03
       142   1 -4.339659E+05 -1.279347E+05 -3.361825E+04 -1.928029E+05 -7.923745E+03  8.144646E+03
       142   2 -4.036539E+05 -1.110589E+05 -2.248100E+04 -1.811983E+05 -3.516313E+03  7.885781E+03
       142   3 -3.701085E+05 -1.004868E+05 -1.465325E+04 -1.743317E+05  1.110661E+03  7.041969E+03
       142   4 -2.954348E+05 -7.655222E+04 -9.827761E+03 -1.525076E+05 -1.075327E+04  7.082685E+03
       142   5 -2.969771E+05 -7.216056E+04 -5.118254E+03 -1.506474E+05 -7.540871E+03  6.375605E+03
       142   6 -2.950497E+05 -7.383555E+04 -2.770576E+03 -1.535257E+05 -4.109112E+03  5.083551E+03
       142   7 -1.568849E+05 -2.516812E+04  1.396177E+04 -1.122041E+05 -1.358343E+04  6.020468E+03
       142   8 -1.902881E+05 -3.326091E+04  1.224432E+04 -1.200915E+05 -1.156616E+04  4.865144E+03
       142   9 -2.199839E+05 -4.718343E+04  9.112359E+03 -1.327170E+05 -9.329614E+03  3.124865E+03
       142  10 -4.339659E+05 -1.279348E+05 -3.361849E+04 -1.928028E+05 -5.822076E-08 -1.612518E-08
       142  11 -4.036540E+05 -1.110590E+05 -2.248114E+04 -1.811983E+05  3.769182E-09  4.531930E-09
       142  12 -3.701086E+05 -1.004868E+05 -1.465335E+04 -1.743318E+05  6.357760E-08  2.822391E-08
       142  13 -2.954349E+05 -7.655230E+04 -9.828072E+03 -1.525075E+05  5.984454E-09 -1.211678E-08
       142  14 -2.969772E+05 -7.216062E+04 -5.118437E+03 -1.506473E+05  2.413215E-09 -1.391867E-08
       142  15 -2.950497E+05 -7.383559E+04 -2.770656E+03 -1.535257E+05  5.237147E-10 -1.534976E-08
       142  16 -1.568851E+05 -2.516820E+04  1.396135E+04 -1.122041E+05  6.028587E-08  3.135455E-08
       142  17 -1.902882E+05 -3.326097E+04  1.224402E+04 -1.200914E+05 -6.802582E-09  7.984680E-09
       142  18 -2.199840E+05 -4.718346E+04  9.112177E+03 -1.327170E+05 -7.001050E-08 -1.937609E-08
       142  19 -4.339659E+05 -1.279347E+05 -3.361825E+04 -1.928029E+05  7.923745E+03 -8.144646E+03
       142  20 -4.036539E+05 -1.110589E+05 -2.248100E+04 -1.811983E+05  3.516313E+03 -7.885781E+03
       142  21 -3.701085E+05 -1.004868E+05 -1.465325E+04 -1.743317E+05 -1.110661E+03 -7.041969E+03
       142  22 -2.954348E+05 -7.655222E+04 -9.827761E+03 -1.525076E+05  1.075327E+04 -7.082685E+03
       142  23 -2.969771E+05 -7.216056E+04 -5.118254E+03 -1.506474E+05  7.540871E+03 -6.375605E+03
       142  24 -2.950497E+05 -7.383555E+04 -2.770576E+03 -1.535257E+05  4.109112E+03 -5.083551E+03
       142  25 -1.568849E+05 -2.516812E+04  1.396177E+04 -1.122041E+05  1.358343E+04 -6.020468E+03
       142  26 -1.902881E+05 -3.326091E+04  1.224432E+04 -1.200915E+05  1.156616E+04 -4.865144E+03
       142  27 -2.199839E+05 -4.718343E+04  9.112359E+03 -1.327170E+05  9.329614E+03 -3.124865E+03
       143   1 -3.494152E+05 -9.325637E+04 -1.059786E+04 -1.687291E+05  2.024768E+03  5.668146E+03
       143   2 -3.192079E+05 -7.933163E+04 -4.610293E+03 -1.571256E+05  3.681150E+03  3.353988E+03
       143   3 -2.846964E+05 -6.999507E+04  8.275181E+02 -1.506054E+05  5.361134E+03  9.767929E+02
       143   4 -2.949007E+05 -7.380452E+04 -2.072209E+03 -1.534882E+05 -3.170650E+03  3.718939E+03
       143   5 -2.970555E+05 -7.145790E+04 -1.124425E+03 -1.509708E+05 -1.643166E+03  1.356474E+03
       143   6 -2.948818E+05 -7.367398E+04 -6.242639E+02 -1.535370E+05 -9.212374E+01 -1.069036E+03
       143   7 -2.403829E+05 -5.435235E+04  6.453499E+03 -1.382461E+05 -8.366549E+03  1.769553E+03
       143   8 -2.749028E+05 -6.358416E+04  2.361515E+03 -1.448158E+05 -6.967651E+03 -6.411022E+02
       143   9 -3.050669E+05 -7.735280E+04 -2.075884E+03 -1.564684E+05 -5.545221E+03 -3.114804E+03
       143  10 -3.494152E+05 -9.325640E+04 -1.059793E+04 -1.687291E+05 -3.799167E-08 -9.171444E-09
       143  11 -3.192079E+05 -7.933164E+04 -4.610339E+03 -1.571256E+05 -1.140934E-08  1.735331E-09
       143  12 -2.846964E+05 -6.999508E+04  8.274623E+02 -1.506054E+05  2.132845E-08  1.150619E-08
       143  13 -2.949007E+05 -7.380453E+04 -2.072254E+03 -1.534882E+05 -6.498209E-09 -1.399631E-08
       143  14 -2.970555E+05 -7.145791E+04 -1.124434E+03 -1.509708E+05 -5.390082E-09 -7.789211E-09
       143  15 -2.948818E+05 -7.367398E+04 -6.242661E+02 -1.535370E+05 -9.966814E-10 -1.486110E-09
       143  16 -2.403830E+05 -5.435237E+04  6.453362E+03 -1.382461E+05  3.221739E-08  1.609481E-08
       143  17 -2.749028E+05 -6.358417E+04  2.361423E+03 -1.448158E+05  2.889755E-09  2.103718E-09
       143  18 -3.050670E+05 -7.735282E+04 -2.075960E+03 -1.564684E+05 -2.562391E-08 -1.006086E-08
       143  19 -3.494152E+05 -9.325637E+04 -1.059786E+04 -1.687291E+05 -2.024768E+03 -5.668146E+03
       143  20 -3.192079E+05 -7.933163E+04 -4.610293E+03 -1.571256E+05 -3.681150E+03 -3.353988E+03
       143  21 -2.846964E+05 -6.999507E+04  8.275181E+02 -1.506054E+05 -5.361134E+03 -9.767929E+02
       143  22 -2.949007E+05 -7.380452E+04 -2.072209E+03 -1.534882E+05  3.170650E+03 -3.718939E+03
       143  23 -2.970555E+05 -7.145790E+04 -1.124425E+03 -1.509708E+05  1.643166E+03 -1.356474E+03
       143  24 -2.948818E+05 -7.367398E+04 -6.242639E+02 -1.535370E+05  9.212374E+01  1.069036E+03
       143  25 -2.403829E+05 -5.435235E+04  6.453499E+03 -1.382461E+05  8.366549E+03 -1.769553E+03
       143  26 -2.749028E+05 -6.358416E+04  2.361515E+03 -1.448158E+05  6.967651E+03  6.411022E+02
       143  27 -3.050669E+05 -7.735280E+04 -2.075884E+03 -1.564684E+05  5.545221E+03  3.114804E+03
       144   1 -2.642779E+05 -6.270906E+04  4.251632E+03 -1.449045E+05  6.031700E+03 -5.451608E+02
       144   2 -2.341295E+05 -4.895469E+04  9.339049E+03 -1.332803E+05  7.181393E+03 -3.158465E+03
       144   3 -1.995555E+05 -3.965522E+04  1.431472E+04 -1.267497E+05  8.333121E+03 -5.776883E+03
       144   4 -2.948640E+05 -7.367681E+04 -4.732304E+02 -1.535292E+05  5.811711E+02 -2.589992E+03
       144   5 -2.970784E+05 -7.145489E+04 -2.762285E+02 -1.509805E+05  1.720173E+03 -5.207455E+03
       144   6 -2.948668E+05 -7.368626E+04 -1.828343E+02 -1.535262E+05  2.861199E+03 -7.830029E+03
       144   7 -3.254494E+05 -8.464459E+04 -5.198084E+03 -1.621536E+05 -4.869140E+03 -4.634740E+03
       144   8 -3.600232E+05 -9.395480E+04 -9.891546E+03 -1.686792E+05 -3.740496E+03 -7.256238E+03
       144   9 -3.901682E+05 -1.077163E+05 -1.468040E+04 -1.802989E+05 -2.609838E+03 -9.882844E+03
       144  10 -2.642780E+05 -6.270907E+04  4.251563E+03 -1.449045E+05  6.097195E-09  2.242752E-09
       144  11 -2.341296E+05 -4.895472E+04  9.338934E+03 -1.332803E+05  2.103509E-09 -5.714002E-10
       144  12 -1.995556E+05 -3.965527E+04  1.431453E+04 -1.267497E+05  3.301103E-09 -1.030676E-09
       144  13 -2.948640E+05 -7.367682E+04 -4.732437E+02 -1.535292E+05 -4.196765E-09 -1.517910E-10
       144  14 -2.970784E+05 -7.145492E+04 -2.762850E+02 -1.509805E+05 -4.738791E-09 -9.955043E-10
       144  15 -2.948668E+05 -7.368633E+04 -1.829649E+02 -1.535262E+05 -7.196422E-09 -1.175260E-09
       144  16 -3.254495E+05 -8.464462E+04 -5.198169E+03 -1.621536E+05 -8.501199E-09 -2.207108E-09
       144  17 -3.600233E+05 -9.395486E+04 -9.891671E+03 -1.686792E+05 -1.037470E-08 -9.671016E-10
       144  18 -3.901683E+05 -1.077164E+05 -1.468059E+04 -1.802989E+05 -8.107575E-09 -1.064010E-09
       144  19 -2.642779E+05 -6.270906E+04  4.251632E+03 -1.449045E+05 -6.031700E+03  5.451608E+02
       144  20 -2.341295E+05 -4.895469E+04  9.339049E+03 -1.332803E+05 -7.181393E+03  3.158465E+03
       144  21 -1.995555E+05 -3.965522E+04  1.431472E+04 -1.267497E+05 -8.333121E+03  5.776883E+03
       144  22 -2.948640E+05 -7.367681E+04 -4.732304E+02 -1.535292E+05 -5.811711E+02  2.589992E+03
       144  23 -2.970784E+05 -7.145489E+04 -2.762285E+02 -1.509805E+05 -1.720173E+03  5.207455E+03
       144  24 -2.948668E+05 -7.368626E+04 -1.828343E+02 -1.535262E+05 -2.861199E+03  7.830029E+03
       144  25 -3.254494E+05 -8.464459E+04 -5.198084E+03 -1.621536E+05  4.869140E+03  4.634740E+03
       144  26 -3.600232E+05 -9.395480E+04 -9.891546E+03 -1.686792E+05  3.740496E+03  7.256238E+03
       144  27 -3.901682E+05 -1.077163E+05 -1.468040E+04 -1.802989E+05  2.609838E+03  9.882844E+03
       145   1 -1.791748E+05 -3.235930E+04  1.759971E+04 -1.210411E+05  8.946511E+03 -7.324603E+03
       145   2 -1.490507E+05 -1.860788E+04  2.248302E+04 -1.094153E+05  1.000392E+04 -9.973758E+03
       145   3 -1.144868E+05 -9.298630E+03  2.732619E+04 -1.028788E+05  1.105677E+04 -1.261008E+04
       145   4 -2.948669E+05 -7.368818E+04 -1.626510E+02 -1.535246E+05  3.474868E+03 -9.377773E+03
       145   5 -2.970857E+05 -7.146939E+04 -1.633479E+02 -1.509785E+05  4.558259E+03 -1.201749E+04
       145   6 -2.948707E+05 -7.369790E+04 -2.247269E+02 -1.535220E+05  5.637099E+03 -1.464438E+04
       145   7 -4.105430E+05 -1.150151E+05 -1.792469E+04 -1.860020E+05 -1.995633E+03 -1.143051E+04
       145   8 -4.450968E+05 -1.243286E+05 -2.280990E+04 -1.925324E+05 -8.860304E+02 -1.406070E+04
       145   9 -4.752216E+05 -1.380945E+05 -2.777657E+04 -2.041520E+05  2.190240E+02 -1.667808E+04
       145  10 -1.791749E+05 -3.235938E+04  1.759945E+04 -1.210410E+05 -7.601046E-09 -1.538751E-09
       145  11 -1.490509E+05 -1.860802E+04  2.248264E+04 -1.094152E+05  3.638171E-10  2.852008E-09
       145  12 -1.144870E+05 -9.298833E+03  2.732566E+04 -1.028787E+05  1.798793E-09  3.312249E-09
       145  13 -2.948669E+05 -7.368828E+04 -1.628389E+02 -1.535245E+05 -6.627200E-09  3.452375E-10
       145  14 -2.970857E+05 -7.146955E+04 -1.636583E+02 -1.509785E+05  9.532971E-10  2.599141E-09
       145  15 -2.948708E+05 -7.369813E+04 -2.251896E+02 -1.535220E+05 -5.692551E-10  2.280491E-09
       145  16 -4.105430E+05 -1.150152E+05 -1.792495E+04 -1.860020E+05  1.170680E-09  2.127383E-09
       145  17 -4.450969E+05 -1.243288E+05 -2.281027E+04 -1.925324E+05 -2.992285E-09  3.034507E-09
       145  18 -4.752216E+05 -1.380948E+05 -2.777710E+04 -2.041520E+05 -3.899760E-09  1.194342E-09
       145  19 -1.791748E+05 -3.235930E+04  1.759971E+04 -1.210411E+05 -8.946511E+03  7.324603E+03
       145  20 -1.490507E+05 -1.860788E+04  2.248302E+04 -1.094153E+05 -1.000392E+04  9.973758E+03
       145  21 -1.144868E+05 -9.298630E+03  2.732619E+04 -1.028788E+05 -1.105677E+04  1.261008E+04
       145  22 -2.948669E+05 -7.368818E+04 -1.626510E+02 -1.535246E+05 -3.474868E+03  9.377773E+03
       145  23 -2.970857E+05 -7.146939E+04 -1.633479E+02 -1.509785E+05 -4.558259E+03  1.201749E+04
       145  24 -2.948707E+05 -7.369790E+04 -2.247269E+02 -1.535220E+05 -5.637099E+03  1.464438E+04
       145  25 -4.105430E+05 -1.150151E+05 -1.792469E+04 -1.860020E+05  1.995633E+03  1.143051E+04
       145  26 -4.450968E+05 -1.243286E+05 -2.280990E+04 -1.925324E+05  8.860304E+02  1.406070E+04
       145  27 -4.752216E+05 -1.380945E+05 -2.777657E+04 -2.041520E+05 -2.190240E+02  1.667808E+04
       146   1 -9.411778E+04 -2.001175E+03  3.054885E+04 -9.717550E+04  1.168342E+04 -1.414071E+04
       146   2 -6.402658E+04  1.175773E+04  3.533742E+04 -8.555069E+04  1.265188E+04 -1.673475E+04
       146   3 -2.949603E+04  2.108019E+04  4.012994E+04 -7.899915E+04  1.357550E+04 -1.920828E+04
       146   4 -2.948813E+05 -7.369808E+04 -2.814898E+02 -1.535225E+05  6.259807E+03 -1.617674E+04
       146   5 -2.970842E+05 -7.148966E+04 -4.828958E+02 -1.509741E+05  7.474367E+03 -1.867890E+04
       146   6 -2.948974E+05 -7.376669E+04 -8.753617E+02 -1.534996E+05  8.644078E+03 -2.106051E+04
       146   7 -4.956012E+05 -1.453907E+05 -3.111227E+04 -2.098523E+05  8.380452E+02 -1.821207E+04
       146   8 -5.300816E+05 -1.547307E+05 -3.630349E+04 -2.163740E+05  2.298939E+03 -2.062226E+04
       146   9 -5.602194E+05 -1.686049E+05 -4.188074E+04 -2.279691E+05  3.714940E+03 -2.291189E+04
       146  10 -9.411798E+04 -2.001426E+03  3.054822E+04 -9.717537E+04  7.514176E-10  1.693764E-09
       146  11 -6.402683E+04  1.175739E+04  3.533660E+04 -8.555052E+04 -1.572846E-09 -1.004308E-09
       146  12 -2.949632E+04  2.107974E+04  4.012890E+04 -7.899894E+04 -1.222574E-09 -3.191909E-09
       146  13 -2.948815E+05 -7.369837E+04 -2.820551E+02 -1.535224E+05 -6.735508E-10  1.617242E-09
       146  14 -2.970844E+05 -7.149005E+04 -4.836563E+02 -1.509740E+05 -1.208226E-09  2.564333E-11
       146  15 -2.948976E+05 -7.376719E+04 -8.763355E+02 -1.534994E+05  3.435667E-09 -7.731700E-10
       146  16 -4.956013E+05 -1.453910E+05 -3.111290E+04 -2.098523E+05  2.294209E-10  6.952006E-10
       146  17 -5.300817E+05 -1.547312E+05 -3.630430E+04 -2.163739E+05  4.427719E-10  6.676137E-10
       146  18 -5.602195E+05 -1.686055E+05 -4.188175E+04 -2.279690E+05  9.139700E-09  3.008023E-09
       146  19 -9.411778E+04 -2.001175E+03  3.054885E+04 -9.717550E+04 -1.168342E+04  1.414071E+04
       146  20 -6.402658E+04  1.175773E+04  3.533742E+04 -8.555069E+04 -1.265188E+04  1.673475E+04
       146  21 -2.949603E+04  2.108019E+04  4.012994E+04 -7.899915E+04 -1.357550E+04  1.920828E+04
       146  22 -2.948813E+05 -7.369808E+04 -2.814898E+02 -1.535225E+05 -6.259807E+03  1.617674E+04
       146  23 -2.970842E+05 -7.148966E+04 -4.828958E+02 -1.509741E+05 -7.474367E+03  1.867890E+04
       146  24 -2.948974E+05 -7.376669E+04 -8.753617E+02 -1.534996E+05 -8.644078E+03  2.106051E+04
       146  25 -4.956012E+05 -1.453907E+05 -3.111227E+04 -2.098523E+05 -8.380452E+02  1.821207E+04
       146  26 -5.300816E+05 -1.547307E+05 -3.630349E+04 -2.163740E+05 -2.298939E+03  2.062226E+04
       146  27 -5.602194E+05 -1.686049E+05 -4.188074E+04 -2.279691E+05 -3.714940E+03  2.291189E+04
       147   1 -9.097807E+03  2.837071E+04  4.327594E+04 -7.334436E+04  1.432400E+04 -2.058378E+04
       147   2  2.066835E+04  4.225852E+04  4.830822E+04 -6.143588E+04  1.384632E+04 -2.290691E+04
       147   3  5.487067E+04  5.153412E+04  5.414938E+04 -5.439540E+04  1.295230E+04 -2.412057E+04
       147   4 -2.949703E+05 -7.377125E+04 -1.165800E+03 -1.535007E+05  9.347195E+03 -2.245337E+04
       147   5 -2.970482E+05 -7.181617E+04 -2.149017E+03 -1.508517E+05  1.113791E+04 -2.392540E+04
       147   6 -2.951411E+05 -7.492356E+04 -4.121102E+03 -1.530717E+05  1.251227E+04 -2.428758E+04
       147   7 -5.807582E+05 -1.759060E+05 -4.560974E+04 -2.336232E+05  4.372756E+03 -2.432207E+04
       147   8 -6.146583E+05 -1.858810E+05 -5.260867E+04 -2.402250E+05  8.430956E+03 -2.494334E+04
       147   9 -6.450222E+05 -2.013686E+05 -6.239462E+04 -2.516958E+05  1.207250E+04 -2.445448E+04
       147  10 -9.098141E+03  2.837020E+04  4.327476E+04 -7.334412E+04 -1.117802E-07 -4.643419E-08
       147  11  2.066801E+04  4.225791E+04  4.830687E+04 -6.143563E+04 -1.212640E-08 -8.907719E-09
       147  12  5.487033E+04  5.153346E+04  5.414797E+04 -5.439514E+04  1.064116E-07  3.938607E-08
       147  13 -2.949705E+05 -7.377181E+04 -1.166912E+03 -1.535005E+05 -2.034908E-09 -3.910541E-09
       147  14 -2.970485E+05 -7.181682E+04 -2.150325E+03 -1.508515E+05 -1.775915E-08 -8.428337E-09
       147  15 -2.951414E+05 -7.492423E+04 -4.122504E+03 -1.530715E+05 -4.572955E-09 -4.335979E-09
       147  16 -5.807583E+05 -1.759066E+05 -4.561089E+04 -2.336231E+05  1.095074E-07  4.042530E-08
       147  17 -6.146586E+05 -1.858817E+05 -5.260997E+04 -2.402248E+05 -1.579715E-08 -7.741605E-09
       147  18 -6.450225E+05 -2.013693E+05 -6.239602E+04 -2.516956E+05 -1.165657E-07 -4.676961E-08
       147  19 -9.097807E+03  2.837071E+04  4.327594E+04 -7.334436E+04 -1.432400E+04  2.058378E+04
       147  20  2.066835E+04  4.225852E+04  4.830822E+04 -6.143588E+04 -1.384632E+04  2.290691E+04
       147  21  5.487067E+04  5.153412E+04  5.414938E+04 -5.439540E+04 -1.295230E+04  2.412057E+04
       147  22 -2.949703E+05 -7.377125E+04 -1.165800E+03 -1.535007E+05 -9.347195E+03  2.245337E+04
       147  23 -2.970482E+05 -7.181617E+04 -2.149017E+03 -1.508517E+05 -1.113791E+04  2.392540E+04
       147  24 -2.951411E+05 -7.492356E+04 -4.121102E+03 -1.530717E+05 -1.251227E+04  2.428758E+04
       147  25 -5.807582E+05 -1.759060E+05 -4.560974E+04 -2.336232E+05 -4.372756E+03  2.432207E+04
       147  26 -6.146583E+05 -1.858810E+05 -5.260867E+04 -2.402250E+05 -8.430956E+03  2.494334E+04
       147  27 -6.450222E+05 -2.013686E+05 -6.239462E+04 -2.516958E+05 -1.207250E+04  2.445448E+04
       148   1  7.571844E+04  5.855051E+04  5.765558E+04 -4.925597E+04  1.422535E+04 -2.429816E+04
       148   2  1.008401E+05  7.403719E+04  6.811535E+04 -3.196106E+04 -3.035706E+03 -2.540905E+04
       148   3  1.297851E+05  8.058698E+04  8.859975E+04 -1.681560E+04 -2.415741E+04 -1.625229E+04
       148   4 -2.958822E+05 -7.513090E+04 -5.539222E+03 -1.530621E+05  1.335098E+04 -2.462842E+04
       148   5 -2.969077E+05 -7.700030E+04 -1.064481E+04 -1.488281E+05  1.709132E+04 -1.785001E+04
       148   6 -2.982731E+05 -9.197033E+04 -2.236807E+04 -1.467442E+05  1.697099E+04 -7.999680E+02
       148   7 -6.673353E+05 -2.087984E+05 -6.873754E+04 -2.568099E+05  1.247716E+04 -2.495847E+04
       148   8 -6.944833E+05 -2.280170E+05 -8.940860E+04 -2.656221E+05  3.720419E+04 -1.029679E+04
       148   9 -7.261340E+05 -2.645006E+05 -1.333401E+05 -2.765835E+05  5.806709E+04  1.463815E+04
       148  10  7.571807E+04  5.854983E+04  5.765409E+04 -4.925570E+04 -2.325351E-10  6.450570E-10
       148  11  1.008399E+05  7.403650E+04  6.811412E+04 -3.196112E+04  4.091204E-09  1.089508E-09
       148  12  1.297844E+05  8.058654E+04  8.859816E+04 -1.681592E+04  2.826177E-09  1.214045E-09
       148  13 -2.958826E+05 -7.513160E+04 -5.540697E+03 -1.530618E+05  3.009751E-09 -6.778164E-10
       148  14 -2.969081E+05 -7.700072E+04 -1.064595E+04 -1.488278E+05  3.329109E-09  7.699813E-10
       148  15 -2.982734E+05 -9.197041E+04 -2.236862E+04 -1.467442E+05 -3.623220E-10  1.328450E-09
       148  16 -6.673356E+05 -2.087991E+05 -6.873901E+04 -2.568096E+05  9.089191E-10 -1.453709E-09
       148  17 -6.944848E+05 -2.280175E+05 -8.941141E+04 -2.656218E+05 -2.132367E-09  1.593607E-09
       148  18 -7.261377E+05 -2.645017E+05 -1.333468E+05 -2.765842E+05 -2.513091E-09 -1.457982E-10
       148  19  7.571844E+04  5.855051E+04  5.765558E+04 -4.925597E+04 -1.422535E+04  2.429816E+04
       148  20  1.008401E+05  7.403719E+04  6.811535E+04 -3.196106E+04  3.035706E+03  2.540905E+04
       148  21  1.297851E+05  8.058698E+04  8.859975E+04 -1.681560E+04  2.415741E+04  1.625229E+04
       148  22 -2.958822E+05 -7.513090E+04 -5.539222E+03 -1.530621E+05 -1.335098E+04  2.462842E+04
       148  23 -2.969077E+05 -7.700030E+04 -1.064481E+04 -1.488281E+05 -1.709132E+04  1.785001E+04
       148  24 -2.982731E+05 -9.197033E+04 -2.236807E+04 -1.467442E+05 -1.697099E+04  7.999680E+02
       148  25 -6.673353E+05 -2.087984E+05 -6.873754E+04 -2.568099E+05 -1.247716E+04  2.495847E+04
       148  26 -6.944833E+05 -2.280170E+05 -8.940860E+04 -2.656221E+05 -3.720419E+04  1.029679E+04
       148  27 -7.261340E+05 -2.645006E+05 -1.333401E+05 -2.765835E+05 -5.806709E+04 -1.463815E+04
       149   1 -1.996258E+05 -3.508619E+04 -5.993741E+04 -1.891287E+04 -7.505902E+04 -2.014792E+03
       149   2 -1.951643E+05  6.584818E+04  2.777281E+02 -6.044561E+03 -5.016595E+04 -5.936689E+03
       149   3 -2.224418E+05  5.261070E+04  1.575560E+04  1.664634E+04 -2.527723E+04 -5.472110E+03
       149   4 -4.166778E+05 -8.921675E+04 -1.136589E+05  5.705997E+03 -7.768793E+04 -2.019653E+03
       149   5 -4.006297E+05  1.481151E+04 -4.944518E+04  7.600564E+02 -5.090923E+04 -5.937998E+03
       149   6 -4.166598E+05  4.318872E+03 -3.128985E+04  5.637038E+03 -2.413434E+04 -5.470655E+03
       149   7 -6.336857E+05 -1.433485E+05 -1.673835E+05  3.031624E+04 -8.031592E+04 -2.024724E+03
       149   8 -6.060564E+05 -3.622807E+04 -9.917109E+04  7.562406E+03 -5.165226E+04 -5.939323E+03
       149   9 -6.108431E+05 -4.397528E+04 -7.833794E+04 -5.368813E+03 -2.299180E+04 -5.469241E+03
       149  10 -1.996319E+05 -3.508771E+04 -5.994801E+04 -1.891300E+04 -1.168674E-09 -7.019355E-11
       149  11 -1.951670E+05  6.584746E+04  2.729310E+02 -6.044801E+03  3.588418E-09 -1.264955E-09
       149  12 -2.224424E+05  5.261050E+04  1.575434E+04  1.664623E+04 -1.399238E-09 -1.465579E-09
       149  13 -4.166843E+05 -8.921837E+04 -1.136703E+05  5.705870E+03 -1.924565E-09  8.240345E-10
       149  14 -4.006325E+05  1.481078E+04 -4.945012E+04  7.598129E+02  2.208009E-12 -5.912567E-11
       149  15 -4.166604E+05  4.318683E+03 -3.129100E+04  5.636932E+03  1.850382E-09 -2.978137E-10
       149  16 -6.336926E+05 -1.433503E+05 -1.673957E+05  3.031611E+04  1.825343E-10  7.775986E-10
       149  17 -6.060593E+05 -3.622883E+04 -9.917618E+04  7.562159E+03  2.329734E-10 -1.308094E-09
       149  18 -6.108436E+05 -4.397545E+04 -7.833899E+04 -5.368914E+03 -3.067026E-10 -3.341086E-09
       149  19 -1.996258E+05 -3.508619E+04 -5.993741E+04 -1.891287E+04  7.505902E+04  2.014792E+03
       149  20 -1.951643E+05  6.584818E+04  2.777281E+02 -6.044561E+03  5.016595E+04  5.936689E+03
       149  21 -2.224418E+05  5.261070E+04  1.575560E+04  1.664634E+04  2.527723E+04  5.472110E+03
       149  22 -4.166778E+05 -8.921675E+04 -1.136589E+05  5.705997E+03  7.768793E+04  2.019653E+03
       149  23 -4.006297E+05  1.481151E+04 -4.944518E+04  7.600564E+02  5.090923E+04  5.937998E+03
       149  24 -4.166598E+05  4.318872E+03 -3.128985E+04  5.637038E+03  2.413434E+04  5.470655E+03
       149  25 -6.336857E+05 -1.433485E+05 -1.673835E+05  3.031624E+04  8.031592E+04  2.024724E+03
       149  26 -6.060564E+05 -3.622807E+04 -9.917109E+04  7.562406E+03  5.165226E+04  5.939323E+03
       149  27 -6.108431E+05 -4.397528E+04 -7.833794E+04 -5.368813E+03  2.299180E+04  5.469241E+03
       150   1 -2.350067E+05  3.327109E+04  1.696928E+04  3.265409E+03 -1.914398E+04 -4.570535E+03
       150   2 -2.446822E+05  4.243078E+04  2.681953E+04  1.272709E+02 -1.269121E+04 -4.505288E+03
       150   3 -2.585136E+05  3.828441E+04  2.914380E+04  7.219618E+03 -6.239019E+03 -4.044979E+03
       150   4 -4.104641E+05 -1.034608E+04 -2.562975E+04  5.758885E+03 -1.920038E+04 -4.570760E+03
       150   5 -4.083691E+05  1.748855E+03 -1.285366E+04  6.376244E+02 -1.257868E+04 -4.505247E+03
       150   6 -4.104606E+05  5.064352E+02 -7.722408E+03  5.747027E+03 -5.957437E+03 -4.044667E+03
       150   7 -5.858934E+05 -5.396548E+04 -6.823101E+04  8.251646E+03 -1.925675E+04 -4.570985E+03
       150   8 -5.720315E+05 -3.893504E+04 -5.252879E+04  1.147836E+03 -1.246618E+04 -4.505206E+03
       150   9 -5.623864E+05 -3.727323E+04 -4.459028E+04  4.274791E+03 -5.675924E+03 -4.044357E+03
       150  10 -2.350071E+05  3.327096E+04  1.696856E+04  3.265338E+03 -4.672533E-09 -2.560821E-09
       150  11 -2.446824E+05  4.243072E+04  2.681919E+04  1.272249E+02  1.039312E-11  2.418985E-10
       150  12 -2.585137E+05  3.828439E+04  2.914369E+04  7.219597E+03  1.129691E-09  1.470406E-09
       150  13 -4.104645E+05 -1.034620E+04 -2.563048E+04  5.758814E+03 -1.571081E-09 -2.466058E-09
       150  14 -4.083693E+05  1.748790E+03 -1.285400E+04  6.375787E+02  1.077893E-09 -7.476829E-10
       150  15 -4.104606E+05  5.064081E+02 -7.722506E+03  5.747007E+03  1.840210E-09 -1.072052E-09
       150  16 -5.858938E+05 -5.396560E+04 -6.823174E+04  8.251576E+03  1.541901E-09 -1.782893E-09
       150  17 -5.720317E+05 -3.893510E+04 -5.252912E+04  1.147790E+03  2.206307E-09 -4.557367E-10
       150  18 -5.623864E+05 -3.727326E+04 -4.459037E+04  4.274772E+03  2.173369E-09  4.971164E-10
       150  19 -2.350067E+05  3.327109E+04  1.696928E+04  3.265409E+03  1.914398E+04  4.570535E+03
       150  20 -2.446822E+05  4.243078E+04  2.681953E+04  1.272709E+02  1.269121E+04  4.505288E+03
       150  21 -2.585136E+05  3.828441E+04  2.914380E+04  7.219618E+03  6.239019E+03  4.044979E+03
       150  22 -4.104641E+05 -1.034608E+04 -2.562975E+04  5.758885E+03  1.920038E+04  4.570760E+03
       150  23 -4.083691E+05  1.748855E+03 -1.285366E+04  6.376244E+02  1.257868E+04  4.505247E+03
       150  24 -4.104606E+05  5.064352E+02 -7.722408E+03  5.747027E+03  5.957437E+03  4.044667E+03
       150  25 -5.858934E+05 -5.396548E+04 -6.823101E+04  8.251646E+03  1.925675E+04  4.570985E+03
       150  26 -5.720315E+05 -3.893504E+04 -5.252879E+04  1.147836E+03  1.246618E+04  4.505206E+03
       150  27 -5.623864E+05 -3.727323E+04 -4.459028E+04  4.274791E+03  5.675924E+03  4.044357E+03
       151   1 -2.770628E+05  3.177879E+04  2.603448E+04  5.702847E+03 -4.908356E+03 -3.721387E+03
       151   2 -2.888188E+05  3.017036E+04  2.591822E+04  6.515633E+02 -3.262883E+03 -3.294768E+03
       151   3 -3.011838E+05  2.704390E+04  2.434762E+04  6.101272E+03 -1.617624E+03 -2.828827E+03
       151   4 -4.096651E+05 -1.174685E+03 -6.083719E+03  5.812182E+03 -4.732894E+03 -3.721204E+03
       151   5 -4.093585E+05  2.089047E+02 -3.302932E+03  5.607656E+02 -3.070760E+03 -3.294535E+03
       151   6 -4.096641E+05  7.138406E+01 -1.988289E+03  5.810472E+03 -1.408809E+03 -2.828543E+03
       151   7 -5.422513E+05 -3.412945E+04 -3.820318E+04  5.921488E+03 -4.557470E+03 -3.721022E+03
       151   8 -5.298850E+05 -2.975362E+04 -3.252514E+04  4.699808E+02 -2.878675E+03 -3.294303E+03
       151   9 -5.181336E+05 -2.690200E+04 -2.832505E+04  5.519719E+03 -1.200031E+03 -2.828258E+03
       151  10 -2.770628E+05  3.177877E+04  2.603441E+04  5.702832E+03  3.849661E-09  3.430822E-09
       151  11 -2.888189E+05  3.017035E+04  2.591818E+04  6.515547E+02  1.237281E-09  3.190933E-09
       151  12 -3.011838E+05  2.704389E+04  2.434760E+04  6.101268E+03  1.591315E-09  1.480536E-10
       151  13 -4.096651E+05 -1.174706E+03 -6.083787E+03  5.812168E+03  3.132476E-09 -8.847978E-10
       151  14 -4.093586E+05  2.088905E+02 -3.302970E+03  5.607574E+02  2.149423E-09  2.991703E-09
       151  15 -4.096641E+05  7.137494E+01 -1.988308E+03  5.810469E+03  1.717977E-10  4.341096E-09
       151  16 -5.422513E+05 -3.412947E+04 -3.820325E+04  5.921474E+03  1.822179E-09  1.991474E-09
       151  17 -5.298850E+05 -2.975363E+04 -3.252517E+04  4.699732E+02  6.263132E-10  3.380360E-09
       151  18 -5.181336E+05 -2.690201E+04 -2.832507E+04  5.519716E+03 -2.492305E-10  3.117952E-09
       151  19 -2.770628E+05  3.177879E+04  2.603448E+04  5.702847E+03  4.908356E+03  3.721387E+03
       151  20 -2.888188E+05  3.017036E+04  2.591822E+04  6.515633E+02  3.262883E+03  3.294768E+03
       151  21 -3.011838E+05  2.704390E+04  2.434762E+04  6.101272E+03  1.617624E+03  2.828827E+03
       151  22 -4.096651E+05 -1.174685E+03 -6.083719E+03  5.812182E+03  4.732894E+03  3.721204E+03
       151  23 -4.093585E+05  2.089047E+02 -3.302932E+03  5.607656E+02  3.070760E+03  3.294535E+03
       151  24 -4.096641E+05  7.138406E+01 -1.988289E+03  5.810472E+03  1.408809E+03  2.828543E+03
       151  25 -5.422513E+05 -3.412945E+04 -3.820318E+04  5.921488E+03  4.557470E+03  3.721022E+03
       151  26 -5.298850E+05 -2.975362E+04 -3.252514E+04  4.699808E+02  2.878675E+03  3.294303E+03
       151  27 -5.181336E+05 -2.690200E+04 -2.832505E+04  5.519719E+03  1.200031E+03  2.828258E+03
       152   1 -3.208519E+05  2.192682E+04  1.988920E+04  5.940797E+03 -1.288692E+03 -2.551905E+03
       152   2 -3.330592E+05  1.902793E+04  1.751903E+04  6.028564E+02 -7.894032E+02 -2.086168E+03
       152   3 -3.454055E+05  1.596722E+04  1.477610E+04  5.953259E+03 -2.902273E+02 -1.614436E+03
       152   4 -4.095581E+05 -1.153256E+02 -1.579124E+03  5.852793E+03 -1.089098E+03 -2.551619E+03
       152   5 -4.094880E+05  3.000688E+01 -1.009643E+03  5.084803E+02 -5.872870E+02 -2.085861E+03
       152   6 -4.095577E+05  1.302704E+01 -8.147679E+02  5.852592E+03 -8.557852E+01 -1.614106E+03
       152   7 -4.982570E+05 -2.215805E+04 -2.304801E+04  5.764800E+03 -8.895332E+02 -2.551332E+03
       152   8 -4.859114E+05 -1.896835E+04 -1.953874E+04  4.141137E+02 -3.851955E+02 -2.085553E+03
       152   9 -4.737062E+05 -1.594147E+04 -1.640593E+04  5.751934E+03  1.190492E+02 -1.613777E+03
       152  10 -3.208519E+05  2.192681E+04  1.988918E+04  5.940794E+03  1.249384E-10 -4.967481E-10
       152  11 -3.330592E+05  1.902793E+04  1.751902E+04  6.028550E+02  3.801213E-09  4.380704E-09
       152  12 -3.454055E+05  1.596722E+04  1.477609E+04  5.953259E+03 -1.497449E-10  3.312748E-09
       152  13 -4.095581E+05 -1.153329E+02 -1.579138E+03  5.852791E+03 -1.316218E-09  9.347773E-10
       152  14 -4.094880E+05  3.000212E+01 -1.009652E+03  5.084793E+02  1.856129E-09  3.264330E-09
       152  15 -4.095577E+05  1.302424E+01 -8.147728E+02  5.852592E+03  1.159352E-09  6.138384E-10
       152  16 -4.982570E+05 -2.215806E+04 -2.304802E+04  5.764798E+03 -2.077079E-10  1.405953E-09
       152  17 -4.859114E+05 -1.896835E+04 -1.953875E+04  4.141131E+02  1.577705E-09 -2.243863E-09
       152  18 -4.737062E+05 -1.594148E+04 -1.640593E+04  5.751935E+03 -1.789420E-09 -8.311266E-10
       152  19 -3.208519E+05  2.192682E+04  1.988920E+04  5.940797E+03  1.288692E+03  2.551905E+03
       152  20 -3.330592E+05  1.902793E+04  1.751903E+04  6.028563E+02  7.894032E+02  2.086168E+03
       152  21 -3.454055E+05  1.596722E+04  1.477610E+04  5.953259E+03  2.902273E+02  1.614436E+03
       152  22 -4.095581E+05 -1.153256E+02 -1.579124E+03  5.852793E+03  1.089098E+03  2.551619E+03
       152  23 -4.094880E+05  3.000688E+01 -1.009643E+03  5.084803E+02  5.872870E+02  2.085861E+03
       152  24 -4.095577E+05  1.302704E+01 -8.147679E+02  5.852592E+03  8.557852E+01  1.614106E+03
       152  25 -4.982570E+05 -2.215805E+04 -2.304801E+04  5.764800E+03  8.895332E+02  2.551332E+03
       152  26 -4.859114E+05 -1.896835E+04 -1.953874E+04  4.141137E+02  3.851955E+02  2.085553E+03
       152  27 -4.737062E+05 -1.594147E+04 -1.640593E+04  5.751934E+03 -1.190492E+02  1.613777E+03
       153   1 -3.654534E+05  1.096713E+04  9.844502E+03  5.912488E+03 -1.438396E+02 -1.338315E+03
       153   2 -3.777750E+05  7.912647E+03  6.706955E+03  5.175144E+02  3.436742E+02 -8.642884E+02
       153   3 -3.902429E+05  4.704954E+03  3.204151E+03  5.916129E+03  8.311495E+02 -3.903665E+02
       153   4 -4.095585E+05  1.135686E+01 -8.101804E+02  5.875972E+03  6.051404E+01 -1.337976E+03
       153   5 -4.094854E+05  3.017610E+01 -9.808613E+02  4.792600E+02  5.479592E+02 -8.639434E+02
       153   6 -4.095585E+05 -1.041502E+02 -1.516706E+03  5.876171E+03  1.035376E+03 -3.900141E+02
       153   7 -4.536618E+05 -1.094456E+04 -1.146500E+04  5.839457E+03  2.648532E+02 -1.337638E+03
       153   8 -4.411948E+05 -7.852368E+03 -8.668750E+03  4.410072E+02  7.522338E+02 -8.635984E+02
       153   9 -4.288737E+05 -4.913282E+03 -6.237589E+03  5.836214E+03  1.239595E+03 -3.896617E+02
       153  10 -3.654534E+05  1.096713E+04  9.844498E+03  5.912488E+03  3.604698E-09  1.449250E-09
       153  11 -3.777750E+05  7.912646E+03  6.706954E+03  5.175147E+02  1.479677E-09  1.086551E-09
       153  12 -3.902429E+05  4.704954E+03  3.204149E+03  5.916130E+03  5.714067E-10 -1.771814E-09
       153  13 -4.095585E+05  1.135494E+01 -8.101838E+02  5.875972E+03 -1.555663E-09  5.767653E-09
       153  14 -4.094854E+05  3.017522E+01 -9.808633E+02  4.792604E+02 -5.538098E-09  2.486100E-09
       153  15 -4.095585E+05 -1.041507E+02 -1.516708E+03  5.876172E+03  3.865826E-10 -2.033271E-09
       153  16 -4.536618E+05 -1.094456E+04 -1.146501E+04  5.839457E+03 -3.244648E-09  3.153147E-09
       153  17 -4.411948E+05 -7.852369E+03 -8.668753E+03  4.410077E+02  9.352463E-10  8.065647E-10
       153  18 -4.288737E+05 -4.913283E+03 -6.237592E+03  5.836215E+03  1.857820E-09 -2.821911E-09
       153  19 -3.654534E+05  1.096713E+04  9.844502E+03  5.912488E+03  1.438396E+02  1.338315E+03
       153  20 -3.777750E+05  7.912647E+03  6.706955E+03  5.175144E+02 -3.436742E+02  8.642884E+02
       153  21 -3.902429E+05  4.704954E+03  3.204151E+03  5.916129E+03 -8.311495E+02  3.903665E+02
       153  22 -4.095585E+05  1.135686E+01 -8.101804E+02  5.875972E+03 -6.051404E+01  1.337976E+03
       153  23 -4.094854E+05  3.017610E+01 -9.808613E+02  4.792600E+02 -5.479592E+02  8.639434E+02
       153  24 -4.095585E+05 -1.041502E+02 -1.516706E+03  5.876171E+03 -1.035376E+03  3.900141E+02
       153  25 -4.536618E+05 -1.094456E+04 -1.146500E+04  5.839457E+03 -2.648532E+02  1.337638E+03
       153  26 -4.411948E+05 -7.852368E+03 -8.668750E+03  4.410072E+02 -7.522338E+02  8.635984E+02
       153  27 -4.288737E+05 -4.913282E+03 -6.237589E+03  5.836214E+03 -1.239595E+03  3.896617E+02
       154   1 -4.105060E+05 -1.456889E+02 -2.148255E+03  5.719349E+03  1.132769E+03 -1.102902E+02
       154   2 -4.226142E+05 -3.092818E+03 -6.367628E+03  4.936186E+02  2.727977E+03  3.676128E+02
       154   3 -4.353378E+05 -7.485653E+03 -1.199729E+04  6.079857E+03  4.323199E+03  8.261231E+02
       154   4 -4.096623E+05  7.233559E+01 -1.905525E+03  5.879451E+03  1.342128E+03 -1.099270E+02
       154   5 -4.093556E+05  2.028455E+02 -3.153519E+03  4.744863E+02  2.928993E+03  3.679578E+02
       154   6 -4.096629E+05 -1.110862E+03 -5.805952E+03  5.881480E+03  4.515904E+03  8.264496E+02
       154   7 -4.088186E+05  2.903602E+02 -1.662796E+03  6.039552E+03  1.551487E+03 -1.095637E+02
       154   8 -3.960968E+05  3.498496E+03  6.057644E+01  4.553535E+02  3.130014E+03  3.683028E+02
       154   9 -3.839873E+05  5.263880E+03  3.853358E+02  5.683095E+03  4.708616E+03  8.267761E+02
       154  10 -4.105060E+05 -1.456893E+02 -2.148257E+03  5.719350E+03 -1.814790E-09  1.094875E-09
       154  11 -4.226142E+05 -3.092820E+03 -6.367642E+03  4.936178E+02 -4.757328E-09  1.045444E-09
       154  12 -4.353379E+05 -7.485659E+03 -1.199732E+04  6.079854E+03 -8.833309E-11  5.265906E-10
       154  13 -4.096623E+05  7.233509E+01 -1.905529E+03  5.879451E+03 -1.218085E-09 -6.918773E-10
       154  14 -4.093556E+05  2.028431E+02 -3.153536E+03  4.744854E+02 -2.156833E-09  1.890255E-09
       154  15 -4.096629E+05 -1.110869E+03 -5.805991E+03  5.881477E+03  7.370482E-11 -2.450595E-10
       154  16 -4.088186E+05  2.903595E+02 -1.662800E+03  6.039552E+03  5.284460E-09  5.797541E-10
       154  17 -3.960968E+05  3.498494E+03  6.055776E+01  4.553526E+02  4.460930E-09 -3.412182E-09
       154  18 -3.839874E+05  5.263874E+03  3.852928E+02  5.683092E+03  3.441124E-09 -1.983402E-09
       154  19 -4.105060E+05 -1.456889E+02 -2.148255E+03  5.719349E+03 -1.132769E+03  1.102902E+02
       154  20 -4.226142E+05 -3.092818E+03 -6.367628E+03  4.936186E+02 -2.727977E+03 -3.676128E+02
       154  21 -4.353378E+05 -7.485653E+03 -1.199729E+04  6.079857E+03 -4.323199E+03 -8.261231E+02
       154  22 -4.096623E+05  7.233559E+01 -1.905525E+03  5.879451E+03 -1.342128E+03  1.099270E+02
       154  23 -4.093556E+05  2.028455E+02 -3.153519E+03  4.744863E+02 -2.928993E+03 -3.679578E+02
       154  24 -4.096629E+05 -1.110862E+03 -5.805952E+03  5.881480E+03 -4.515904E+03 -8.264496E+02
       154  25 -4.088186E+05  2.903602E+02 -1.662796E+03  6.039552E+03 -1.551487E+03  1.095637E+02
       154  26 -3.960968E+05  3.498496E+03  6.057644E+01  4.553535E+02 -3.130014E+03 -3.683028E+02
       154  27 -3.839873E+05  5.263880E+03  3.853358E+02  5.683095E+03 -4.708616E+03 -8.267761E+02
       155   1 -4.562071E+05 -1.090196E+04 -1.850503E+04  4.539570E+03  5.433394E+03  1.135228E+03
       155   2 -4.665240E+05 -1.277034E+04 -2.634547E+04  1.045001E+03  1.184126E+04  1.619186E+03
       155   3 -4.808978E+05 -2.736820E+04 -4.155064E+04  8.302602E+03  1.824929E+04  1.887169E+03
       155   4 -4.104244E+05  4.914090E+02 -7.369362E+03  5.861408E+03  5.684619E+03  1.135661E+03
       155   5 -4.084055E+05  1.673955E+03 -1.225904E+04  4.937402E+02  1.199976E+04  1.619427E+03
       155   6 -4.104275E+05 -9.856228E+03 -2.444850E+04  5.878243E+03  1.831518E+04  1.887188E+03
       155   7 -3.646397E+05  1.188463E+04  3.766153E+03  7.183342E+03  5.935864E+03  1.136095E+03
       155   8 -3.502840E+05  1.611800E+04  1.827142E+03 -5.757370E+01  1.215827E+04  1.619667E+03
       155   9 -3.399525E+05  7.655406E+03 -7.346722E+03  3.453607E+03  1.838108E+04  1.887206E+03
       155  10 -4.562071E+05 -1.090197E+04 -1.850509E+04  4.539565E+03 -2.061939E-09  3.439844E-09
       155  11 -4.665241E+05 -1.277038E+04 -2.634573E+04  1.044985E+03  3.725211E-09  2.423949E-09
       155  12 -4.808982E+05 -2.736830E+04 -4.155127E+04  8.302574E+03  1.922583E-09  1.782692E-09
       155  13 -4.104244E+05  4.913990E+02 -7.369425E+03  5.861402E+03 -1.262995E-09  3.870383E-10
       155  14 -4.084057E+05  1.673913E+03 -1.225932E+04  4.937245E+02  2.154206E-09  2.161442E-09
       155  15 -4.104278E+05 -9.856322E+03 -2.444914E+04  5.878215E+03  3.086279E-09 -6.130478E-10
       155  16 -3.646397E+05  1.188462E+04  3.766084E+03  7.183337E+03  5.108517E-09 -1.518412E-09
       155  17 -3.502842E+05  1.611796E+04  1.826860E+03 -5.758956E+01 -1.488456E-09 -1.764225E-09
       155  18 -3.399529E+05  7.655311E+03 -7.347364E+03  3.453579E+03 -3.213809E-09 -2.598579E-09
       155  19 -4.562071E+05 -1.090196E+04 -1.850503E+04  4.539570E+03 -5.433394E+03 -1.135228E+03
       155  20 -4.665240E+05 -1.277034E+04 -2.634547E+04  1.045001E+03 -1.184126E+04 -1.619186E+03
       155  21 -4.808978E+05 -2.736820E+04 -4.155064E+04  8.302602E+03 -1.824929E+04 -1.887169E+03
       155  22 -4.104244E+05  4.914090E+02 -7.369362E+03  5.861408E+03 -5.684619E+03 -1.135661E+03
       155  23 -4.084055E+05  1.673955E+03 -1.225904E+04  4.937402E+02 -1.199976E+04 -1.619427E+03
       155  24 -4.104275E+05 -9.856228E+03 -2.444850E+04  5.878243E+03 -1.831518E+04 -1.887188E+03
       155  25 -3.646397E+05  1.188463E+04  3.766153E+03  7.183342E+03 -5.935864E+03 -1.136095E+03
       155  26 -3.502840E+05  1.611800E+04  1.827142E+03 -5.757370E+01 -1.215827E+04 -1.619667E+03
       155  27 -3.399525E+05  7.655406E+03 -7.346722E+03  3.453607E+03 -1.838108E+04 -1.887206E+03
       156   1 -5.066860E+05 -1.836775E+04 -5.175642E+04 -4.668915E+03  2.229547E+04  2.517834E+03
       156   2 -5.035053E+05 -1.130705E+04 -7.195907E+04  7.040271E+03  4.887208E+04  3.030208E+03
       156   3 -5.311726E+05 -1.136675E+05 -1.368335E+05  2.939120E+04  7.545227E+04  1.128746E+03
       156   4 -4.163400E+05  4.131801E+03 -2.984798E+04  5.800311E+03  2.302205E+04  2.519335E+03
       156   5 -4.010173E+05  1.413675E+04 -4.715987E+04  5.443597E+02  4.855967E+04  3.029184E+03
       156   6 -4.163572E+05 -8.509024E+04 -1.084164E+05  5.930531E+03  7.410142E+04  1.123918E+03
       156   7 -3.259863E+05  2.663117E+04 -7.940070E+03  1.627106E+04  2.374873E+04  2.520860E+03
       156   8 -2.985196E+05  3.957994E+04 -2.236140E+04 -5.952632E+03  4.824721E+04  3.028166E+03
       156   9 -3.015286E+05 -5.651185E+04 -7.999996E+04 -1.753449E+04  7.275033E+04  1.119192E+03
       156  10 -5.066866E+05 -1.836789E+04 -5.175737E+04 -4.668960E+03 -2.817548E-10  5.024986E-11
       156  11 -5.035079E+05 -1.130770E+04 -7.196358E+04  7.040152E+03 -2.643034E-09  4.341765E-10
       156  12 -5.311788E+05 -1.136691E+05 -1.368443E+05  2.939113E+04  1.271439E-09  2.193959E-10
       156  13 -4.163406E+05  4.131652E+03 -2.984899E+04  5.800264E+03  4.867687E-09  2.766014E-09
       156  14 -4.010199E+05  1.413611E+04 -4.716432E+04  5.442412E+02  2.786959E-10 -1.883262E-09
       156  15 -4.163631E+05 -8.509172E+04 -1.084267E+05  5.930464E+03 -1.515149E-09  1.685389E-09
       156  16 -3.259869E+05  2.663101E+04 -7.941142E+03  1.627102E+04  5.260173E-09  2.498819E-09
       156  17 -2.985221E+05  3.957930E+04 -2.236579E+04 -5.952749E+03  2.867919E-10  5.574010E-10
       156  18 -3.015343E+05 -5.651327E+04 -8.000991E+04 -1.753456E+04 -5.998791E-10 -6.810081E-10
       156  19 -5.066860E+05 -1.836775E+04 -5.175642E+04 -4.668915E+03 -2.229547E+04 -2.517834E+03
       156  20 -5.035053E+05 -1.130705E+04 -7.195907E+04  7.040271E+03 -4.887208E+04 -3.030208E+03
       156  21 -5.311726E+05 -1.136675E+05 -1.368335E+05  2.939120E+04 -7.545227E+04 -1.128746E+03
       156  22 -4.163400E+05  4.131801E+03 -2.984798E+04  5.800311E+03 -2.302205E+04 -2.519335E+03
       156  23 -4.010173E+05  1.413675E+04 -4.715987E+04  5.443597E+02 -4.855967E+04 -3.029184E+03
       156  24 -4.163572E+05 -8.509024E+04 -1.084164E+05  5.930531E+03 -7.410142E+04 -1.123918E+03
       156  25 -3.259863E+05  2.663117E+04 -7.940070E+03  1.627106E+04 -2.374873E+04 -2.520860E+03
       156  26 -2.985196E+05  3.957994E+04 -2.236140E+04 -5.952632E+03 -4.824721E+04 -3.028166E+03
       156  27 -3.015286E+05 -5.651185E+04 -7.999996E+04 -1.753449E+04 -7.275033E+04 -1.119192E+03
       157   1  1.718861E+05  9.504684E+05  1.844110E+05 -9.583110E+04  4.657140E+03  6.501556E+04
       157   2  7.608694E+04  8.376939E+05  1.119504E+05 -5.314821E+04  1.339601E+04  3.353304E+04
       157   3  4.940964E+04  7.462453E+05  7.723686E+04 -5.456299E+04  1.055757E+04  2.046471E+03
       157   4  6.778657E+04  5.318349E+05  8.248138E+04 -6.412144E+04  4.670527E+03  5.245289E+04
       157   5 -1.275005E+03  5.220562E+05  4.065103E+04 -4.210276E+04  1.339931E+04  3.099660E+04
       157   6 -2.933661E+03  5.318702E+05  2.962697E+04 -6.417956E+04  1.055025E+04  9.530948E+03
       157   7 -3.632203E+04  1.133635E+05 -1.945988E+04 -3.243315E+04  4.682639E+03  3.989864E+04
       157   8 -7.864334E+04  2.065112E+05 -3.065466E+04 -3.106295E+04  1.340252E+04  2.846143E+04
       157   9 -5.527968E+04  3.175382E+05 -1.798552E+04 -7.379276E+04  1.054269E+04  1.701287E+04
       157  10  1.718849E+05  9.504639E+05  1.844031E+05 -9.583135E+04  2.331077E-10 -9.505444E-10
       157  11  7.608645E+04  8.376927E+05  1.119480E+05 -5.314857E+04  1.729923E-09 -2.271708E-09
       157  12  4.940952E+04  7.462453E+05  7.723664E+04 -5.456301E+04  1.027903E-09  5.446352E-11
       157  13  6.778581E+04  5.318319E+05  8.247617E+04 -6.412164E+04  1.410473E-10  5.752195E-10
       157  14 -1.275456E+03  5.220551E+05  4.064889E+04 -4.210310E+04 -5.175079E-09  9.112997E-10
       157  15 -2.933805E+03  5.318700E+05  2.962659E+04 -6.417964E+04 -4.927204E-09  9.000653E-10
       157  16 -3.632248E+04  1.133618E+05 -1.946292E+04 -3.243330E+04 -3.006159E-10  1.304575E-09
       157  17 -7.864375E+04  2.065103E+05 -3.065652E+04 -3.106326E+04 -2.667082E-09  4.951388E-10
       157  18 -5.527988E+04  3.175378E+05 -1.798627E+04 -7.379291E+04 -3.129525E-09 -2.074887E-09
       157  19  1.718861E+05  9.504684E+05  1.844110E+05 -9.583110E+04 -4.657140E+03 -6.501556E+04
       157  20  7.608694E+04  8.376939E+05  1.119504E+05 -5.314821E+04 -1.339601E+04 -3.353304E+04
       157  21  4.940964E+04  7.462453E+05  7.723686E+04 -5.456299E+04 -1.055757E+04 -2.046471E+03
       157  22  6.778657E+04  5.318349E+05  8.248138E+04 -6.412144E+04 -4.670527E+03 -5.245289E+04
       157  23 -1.275005E+03  5.220562E+05  4.065103E+04 -4.210276E+04 -1.339931E+04 -3.099660E+04
       157  24 -2.933661E+03  5.318702E+05  2.962697E+04 -6.417956E+04 -1.055025E+04 -9.530948E+03
       157  25 -3.632203E+04  1.133635E+05 -1.945988E+04 -3.243315E+04 -4.682639E+03 -3.989864E+04
       157  26 -7.864334E+04  2.065112E+05 -3.065466E+04 -3.106295E+04 -1.340252E+04 -2.846143E+04
       157  27 -5.527968E+04  3.175382E+05 -1.798552E+04 -7.379276E+04 -1.054269E+04 -1.701287E+04
       158   1  3.499117E+04  6.567536E+05  5.644478E+04 -6.726097E+04  6.149039E+03  6.250829E+02
       158   2  5.982889E+03  5.524428E+05  3.382322E+04 -4.168965E+04  1.313069E+03 -1.351214E+04
       158   3 -1.050846E+04  4.530061E+05  2.350451E+04 -6.063041E+04 -3.581083E+03 -2.764743E+04
       158   4  3.658185E+03  5.285989E+05  2.788576E+04 -6.425663E+04  6.144779E+03  4.793330E+03
       158   5 -4.341356E+02  5.261710E+05  2.799006E+04 -4.199857E+04  1.308710E+03 -9.292865E+03
       158   6  7.982405E+03  5.285983E+05  4.036246E+04 -6.425215E+04 -3.585430E+03 -2.337938E+04
       158   7 -2.767587E+04  4.004595E+05 -6.742192E+02 -6.125291E+04  6.140560E+03  8.960726E+03
       158   8 -6.851197E+03  4.998998E+05  2.215692E+04 -4.230748E+04  1.304347E+03 -5.073768E+03
       158   9  2.647294E+04  6.041958E+05  5.722014E+04 -6.787433E+04 -3.589826E+03 -1.911081E+04
       158  10  3.499113E+04  6.567536E+05  5.644470E+04 -6.726097E+04 -2.363518E-10  8.704274E-09
       158  11  5.982839E+03  5.524426E+05  3.382287E+04 -4.168964E+04 -2.213629E-09 -4.161258E-09
       158  12 -1.050868E+04  4.530053E+05  2.350305E+04 -6.063049E+04 -1.123200E-09 -1.274716E-08
       158  13  3.658138E+03  5.285988E+05  2.788564E+04 -6.425665E+04 -1.760773E-09  9.915779E-10
       158  14 -4.341606E+02  5.261709E+05  2.798989E+04 -4.199856E+04 -3.157285E-09  8.776429E-10
       158  15  7.982244E+03  5.285977E+05  4.036141E+04 -6.425221E+04 -2.078298E-09  9.657187E-10
       158  16 -2.767593E+04  4.004594E+05 -6.744409E+02 -6.125295E+04 -1.197915E-09 -8.058680E-09
       158  17 -6.851206E+03  4.998998E+05  2.215687E+04 -4.230747E+04  9.195239E-10  1.795214E-09
       158  18  2.647283E+04  6.041954E+05  5.721943E+04 -6.787438E+04 -2.120172E-09  1.086759E-08
       158  19  3.499117E+04  6.567536E+05  5.644478E+04 -6.726097E+04 -6.149039E+03 -6.250829E+02
       158  20  5.982889E+03  5.524428E+05  3.382322E+04 -4.168965E+04 -1.313069E+03  1.351214E+04
       158  21 -1.050846E+04  4.530061E+05  2.350451E+04 -6.063041E+04  3.581083E+03  2.764743E+04
       158  22  3.658185E+03  5.285989E+05  2.788576E+04 -6.425663E+04 -6.144779E+03 -4.793330E+03
       158  23 -4.341356E+02  5.261710E+05  2.799006E+04 -4.199857E+04 -1.308710E+03  9.292865E+03
       158  24  7.982405E+03  5.285983E+05  4.036246E+04 -6.425215E+04  3.585430E+03  2.337938E+04
       158  25 -2.767587E+04  4.004595E+05 -6.742192E+02 -6.125291E+04 -6.140560E+03 -8.960726E+03
       158  26 -6.851197E+03  4.998998E+05  2.215692E+04 -4.230748E+04 -1.304347E+03  5.073768E+03
       158  27  2.647294E+04  6.041958E+05  5.722014E+04 -6.787433E+04  3.589826E+03  1.911081E+04
       159   1 -4.616698E+04  3.744420E+05  1.207148E+04 -8.399330E+04 -7.858017E+03 -3.767061E+04
       159   2 -6.705747E+04  2.536667E+05  1.722102E+04 -2.027016E+04 -1.100714E+04 -6.947297E+04
       159   3  4.591967E+04  1.704543E+05  7.652926E+04 -6.464785E+02 -3.911268E+03 -1.012603E+05
       159   4 -6.686842E+03  5.362022E+05  4.803736E+04 -6.419587E+04 -7.866521E+03 -3.050251E+04
       159   5 -2.536512E+03  5.166454E+05  7.671909E+04 -4.208676E+04 -1.100281E+04 -7.117825E+04
       159   6  1.369820E+05  5.361527E+05  1.656981E+05 -6.407034E+04 -3.891778E+03 -1.118445E+05
       159   7  3.279304E+04  6.979878E+05  8.400202E+04 -4.439322E+04 -7.874567E+03 -2.333257E+04
       159   8  6.198147E+04  7.796894E+05  1.362130E+05 -6.391268E+04 -1.099835E+04 -7.288424E+04
       159   9  2.280496E+05  9.019819E+05  2.548598E+05 -1.275316E+05 -3.870135E+03 -1.224349E+05
       159  10 -4.616743E+04  3.744404E+05  1.206870E+04 -8.399354E+04 -3.041076E-10 -1.094065E-09
       159  11 -6.705890E+04  2.536615E+05  1.721172E+04 -2.027078E+04  1.189063E-09 -2.689631E-09
       159  12  4.591691E+04  1.704433E+05  7.650996E+04 -6.467974E+02 -2.351483E-09 -1.688377E-09
       159  13 -6.687158E+03  5.362012E+05  4.803550E+04 -6.419606E+04  5.583971E-10  1.148086E-09
       159  14 -2.538000E+03  5.166399E+05  7.670935E+04 -4.208739E+04  3.931250E-09  7.971177E-10
       159  15  1.369786E+05  5.361393E+05  1.656746E+05 -6.407069E+04 -1.271717E-09  9.763665E-10
       159  16  3.279282E+04  6.979872E+05  8.400088E+04 -4.439336E+04  1.308043E-09  1.598244E-09
       159  17  6.197992E+04  7.796837E+05  1.362028E+05 -6.391332E+04  1.935861E-09  7.307153E-10
       159  18  2.280456E+05  9.019658E+05  2.548316E+05 -1.275320E+05  1.332208E-09  3.649096E-10
       159  19 -4.616698E+04  3.744420E+05  1.207148E+04 -8.399330E+04  7.858017E+03  3.767061E+04
       159  20 -6.705747E+04  2.536667E+05  1.722102E+04 -2.027016E+04  1.100714E+04  6.947297E+04
       159  21  4.591967E+04  1.704543E+05  7.652926E+04 -6.464785E+02  3.911268E+03  1.012603E+05
       159  22 -6.686842E+03  5.362022E+05  4.803736E+04 -6.419587E+04  7.866521E+03  3.050251E+04
       159  23 -2.536512E+03  5.166454E+05  7.671909E+04 -4.208676E+04  1.100281E+04  7.117825E+04
       159  24  1.369820E+05  5.361527E+05  1.656981E+05 -6.407034E+04  3.891778E+03  1.118445E+05
       159  25  3.279304E+04  6.979878E+05  8.400202E+04 -4.439322E+04  7.874567E+03  2.333257E+04
       159  26  6.198147E+04  7.796894E+05  1.362130E+05 -6.391268E+04  1.099835E+04  7.288424E+04
       159  27  2.280496E+05  9.019819E+05  2.548598E+05 -1.275316E+05  3.870135E+03  1.224349E+05
       160   1  5.635860E+04  2.286235E+04  3.733854E+03 -8.854213E+03 -5.356232E+04 -4.358342E+03
       160   2  3.445091E+04  9.377314E+04  4.210729E+04 -1.171651E+02 -3.785421E+04 -1.305842E+04
       160   3 -1.008345E+04  8.229122E+04  4.967155E+04  2.836883E+04 -2.216138E+04 -1.246239E+04
       160   4 -3.269906E+05 -7.254447E+04 -9.035934E+04  1.762337E+04 -6.187980E+04 -4.373239E+03
       160   5 -3.151583E+05  7.447839E+03 -4.002221E+04  7.688229E+03 -4.038252E+04 -1.306360E+04
       160   6 -3.269737E+05  4.015582E+03 -2.452922E+04  1.750327E+04 -1.889943E+04 -1.245647E+04
       160   7 -7.102042E+05 -1.679595E+05 -1.844627E+05  4.408451E+04 -7.019214E+04 -4.388851E+03
       160   8 -6.646549E+05 -7.888593E+04 -1.221600E+05  1.548915E+04 -4.290940E+04 -1.306885E+04
       160   9 -6.437711E+05 -7.426676E+04 -9.873673E+04  6.643250E+03 -1.563913E+04 -1.245067E+04
       160  10  5.635551E+04  2.286156E+04  3.728427E+03 -8.854401E+03 -3.441413E-09  1.769131E-09
       160  11  3.444933E+04  9.377257E+04  4.210427E+04 -1.175631E+02  1.050263E-09  5.206305E-09
       160  12 -1.008402E+04  8.229092E+04  4.967033E+04  2.836861E+04  7.862650E-09  1.340150E-09
       160  13 -3.269947E+05 -7.254552E+04 -9.036657E+04  1.762315E+04 -1.928972E-09 -1.894549E-09
       160  14 -3.151601E+05  7.447218E+03 -4.002560E+04  7.687804E+03 -3.112378E-09 -4.456856E-09
       160  15 -3.269741E+05  4.015320E+03 -2.453018E+04  1.750308E+04 -1.772359E-09  1.178983E-10
       160  16 -7.102095E+05 -1.679608E+05 -1.844720E+05  4.408427E+04  4.700793E-09  5.826884E-10
       160  17 -6.646569E+05 -7.888661E+04 -1.221638E+05  1.548870E+04 -6.709347E-10  3.663351E-09
       160  18 -6.437714E+05 -7.426699E+04 -9.873748E+04  6.643093E+03 -8.045536E-09 -1.152234E-09
       160  19  5.635860E+04  2.286235E+04  3.733854E+03 -8.854213E+03  5.356232E+04  4.358342E+03
       160  20  3.445091E+04  9.377314E+04  4.210729E+04 -1.171651E+02  3.785421E+04  1.305842E+04
       160  21 -1.008345E+04  8.229122E+04  4.967155E+04  2.836883E+04  2.216138E+04  1.246239E+04
       160  22 -3.269906E+05 -7.254447E+04 -9.035934E+04  1.762337E+04  6.187980E+04  4.373239E+03
       160  23 -3.151583E+05  7.447839E+03 -4.002221E+04  7.688229E+03  4.038252E+04  1.306360E+04
       160  24 -3.269737E+05  4.015582E+03 -2.452922E+04  1.750327E+04  1.889943E+04  1.245647E+04
       160  25 -7.102042E+05 -1.679595E+05 -1.844627E+05  4.408451E+04  7.019214E+04  4.388851E+03
       160  26 -6.646549E+05 -7.888593E+04 -1.221600E+05  1.548915E+04  4.290940E+04  1.306885E+04
       160  27 -6.437711E+05 -7.426676E+04 -9.873673E+04  6.643250E+03  1.563913E+04  1.245067E+04
       161   1 -4.142176E+04  6.307961E+04  4.615471E+04  1.600070E+04 -1.561373E+04 -1.037040E+04
       161   2 -7.353222E+04  6.184061E+04  4.771788E+04  7.423167E+03 -1.069305E+04 -9.435588E+03
       161   3 -1.081560E+05  5.332769E+04  4.424767E+04  1.897858E+04 -5.774359E+03 -7.960715E+03
       161   4 -3.222878E+05 -6.301426E+03 -1.987314E+04  1.763385E+04 -1.520023E+04 -1.036998E+04
       161   5 -3.209978E+05  7.278860E+02 -1.033699E+04  7.560442E+03 -9.944760E+03 -9.434334E+03
       161   6 -3.222821E+05  4.232963E+02 -6.068610E+03  1.762059E+04 -4.691012E+03 -7.958555E+03
       161   7 -6.030812E+05 -7.568807E+04 -8.590640E+04  1.926622E+04 -1.478691E+04 -1.036955E+04
       161   8 -5.684070E+05 -6.038919E+04 -6.839604E+04  7.697634E+03 -9.196761E+03 -9.433080E+03
       161   9 -5.363661E+05 -5.248436E+04 -5.638803E+04  1.626304E+04 -3.608037E+03 -7.956399E+03
       161  10 -4.142205E+04  6.307943E+04  4.615405E+04  1.600057E+04  7.490773E-09 -3.070452E-09
       161  11 -7.353236E+04  6.184048E+04  4.771750E+04  7.423086E+03  7.898318E-09  1.795355E-09
       161  12 -1.081561E+05  5.332761E+04  4.424749E+04  1.897855E+04  2.859384E-09  5.566037E-09
       161  13 -3.222881E+05 -6.301603E+03 -1.987378E+04  1.763372E+04  1.922854E-09  5.887922E-09
       161  14 -3.209980E+05  7.277638E+02 -1.033734E+04  7.560367E+03 -1.961738E-09 -1.060373E-08
       161  15 -3.222822E+05  4.232224E+02 -6.068770E+03  1.762056E+04 -1.044826E-09  8.510762E-09
       161  16 -6.030815E+05 -7.568825E+04 -8.590702E+04  1.926610E+04 -1.097846E-08 -6.346431E-09
       161  17 -5.684071E+05 -6.038931E+04 -6.839637E+04  7.697564E+03 -7.521791E-09 -4.293202E-09
       161  18 -5.363661E+05 -5.248443E+04 -5.638817E+04  1.626302E+04 -1.340904E-09  4.357827E-10
       161  19 -4.142176E+04  6.307961E+04  4.615471E+04  1.600070E+04  1.561373E+04  1.037040E+04
       161  20 -7.353222E+04  6.184061E+04  4.771788E+04  7.423167E+03  1.069305E+04  9.435588E+03
       161  21 -1.081560E+05  5.332769E+04  4.424767E+04  1.897858E+04  5.774359E+03  7.960715E+03
       161  22 -3.222878E+05 -6.301426E+03 -1.987314E+04  1.763385E+04  1.520023E+04  1.036998E+04
       161  23 -3.209978E+05  7.278860E+02 -1.033699E+04  7.560442E+03  9.944760E+03  9.434334E+03
       161  24 -3.222821E+05  4.232963E+02 -6.068610E+03  1.762059E+04  4.691012E+03  7.958555E+03
       161  25 -6.030812E+05 -7.568807E+04 -8.590640E+04  1.926622E+04  1.478691E+04  1.036955E+04
       161  26 -5.684070E+05 -6.038919E+04 -6.839604E+04  7.697634E+03  9.196761E+03  9.433080E+03
       161  27 -5.363661E+05 -5.248436E+04 -5.638803E+04  1.626304E+04  3.608037E+03  7.956399E+03
       162   1 -1.438874E+05  4.345297E+04  3.693397E+04  1.785619E+04 -4.664217E+03 -7.003212E+03
       162   2 -1.772283E+05  3.576042E+04  3.125005E+04  7.776811E+03 -3.382739E+03 -5.509672E+03
       162   3 -2.109750E+05  2.750561E+04  2.456930E+04  1.795870E+04 -2.101775E+03 -3.982883E+03
       162   4 -3.217977E+05 -4.679097E+02 -4.714086E+03  1.765391E+04 -3.743880E+03 -7.001313E+03
       162   5 -3.215913E+05  1.061649E+02 -2.615526E+03  7.522475E+03 -2.442018E+03 -5.507619E+03
       162   6 -3.217951E+05  1.145096E+02 -1.528012E+03  1.765260E+04 -1.140599E+03 -3.980669E+03
       162   7 -4.996789E+05 -4.439103E+04 -4.636429E+04  1.745168E+04 -2.823806E+03 -6.999414E+03
       162   8 -4.659352E+05 -3.554957E+04 -3.648252E+04  7.268188E+03 -1.501514E+03 -5.505567E+03
       162   9 -4.326038E+05 -2.727746E+04 -2.762617E+04  1.734655E+04 -1.795947E+02 -3.978455E+03
       162  10 -1.438875E+05  4.345291E+04  3.693383E+04  1.785616E+04 -5.618038E-10 -3.954511E-09
       162  11 -1.772283E+05  3.576038E+04  3.124997E+04  7.776796E+03 -3.677907E-09 -7.103581E-09
       162  12 -2.109750E+05  2.750559E+04  2.456927E+04  1.795870E+04 -4.241542E-10 -5.193611E-09
       162  13 -3.217978E+05 -4.679661E+02 -4.714205E+03  1.765389E+04 -2.135668E-09  3.313580E-09
       162  14 -3.215913E+05  1.061307E+02 -2.615594E+03  7.522464E+03  2.765313E-09 -2.930255E-09
       162  15 -3.217951E+05  1.144923E+02 -1.528044E+03  1.765260E+04  2.042961E-09  3.193656E-10
       162  16 -4.996789E+05 -4.439109E+04 -4.636440E+04  1.745166E+04  1.671555E-09 -5.056057E-09
       162  17 -4.659352E+05 -3.554960E+04 -3.648258E+04  7.268181E+03  3.071835E-09 -3.505727E-10
       162  18 -4.326038E+05 -2.727748E+04 -2.762620E+04  1.734655E+04  4.727019E-09  2.703235E-09
       162  19 -1.438874E+05  4.345297E+04  3.693397E+04  1.785619E+04  4.664217E+03  7.003212E+03
       162  20 -1.772283E+05  3.576042E+04  3.125005E+04  7.776811E+03  3.382739E+03  5.509672E+03
       162  21 -2.109750E+05  2.750561E+04  2.456930E+04  1.795870E+04  2.101775E+03  3.982883E+03
       162  22 -3.217977E+05 -4.679097E+02 -4.714086E+03  1.765391E+04  3.743880E+03  7.001313E+03
       162  23 -3.215913E+05  1.061649E+02 -2.615526E+03  7.522475E+03  2.442018E+03  5.507619E+03
       162  24 -3.217951E+05  1.145096E+02 -1.528012E+03  1.765260E+04  1.140599E+03  3.980669E+03
       162  25 -4.996789E+05 -4.439103E+04 -4.636429E+04  1.745168E+04  2.823806E+03  6.999414E+03
       162  26 -4.659352E+05 -3.554957E+04 -3.648252E+04  7.268188E+03  1.501514E+03  5.505567E+03
       162  27 -4.326038E+05 -2.727746E+04 -2.762617E+04  1.734655E+04  1.795947E+02  3.978455E+03
       163   1 -2.472796E+05  1.841168E+04  1.618532E+04  1.781030E+04 -1.851940E+03 -3.088486E+03
       163   2 -2.808339E+05  1.013093E+04  8.869562E+03  7.593148E+03 -1.506101E+03 -1.559848E+03
       163   3 -3.145430E+05  1.885319E+03  1.311080E+03  1.769081E+04 -1.160398E+03 -2.889857E+01
       163   4 -3.217369E+05  4.163329E+01 -1.182037E+03  1.766493E+04 -8.995499E+02 -3.086245E+03
       163   5 -3.216585E+05  4.753405E+01 -7.078271E+02  7.507423E+03 -5.523308E+02 -1.557575E+03
       163   6 -3.217361E+05  8.839548E+01 -4.772726E+02  1.766481E+04 -2.052286E+02 -2.658804E+01
       163   7 -3.961890E+05 -1.832880E+04 -1.854977E+04  1.751957E+04  5.272652E+01 -3.084005E+03
       163   8 -3.624815E+05 -1.003598E+04 -1.028533E+04  7.421704E+03  4.013773E+02 -1.555302E+03
       163   9 -3.289293E+05 -1.708532E+03 -2.265625E+03  1.763882E+04  7.499300E+02 -2.427759E+01
       163  10 -2.472796E+05  1.841166E+04  1.618530E+04  1.781030E+04 -1.475836E-09 -5.753877E-09
       163  11 -2.808340E+05  1.013093E+04  8.869553E+03  7.593146E+03 -6.606747E-09  3.323468E-09
       163  12 -3.145430E+05  1.885319E+03  1.311077E+03  1.769081E+04 -7.097957E-09 -3.838296E-10
       163  13 -3.217369E+05  4.162285E+01 -1.182056E+03  1.766492E+04  2.788051E-11  2.483874E-09
       163  14 -3.216585E+05  4.753137E+01 -7.078322E+02  7.507423E+03  2.836422E-09 -4.056121E-09
       163  15 -3.217361E+05  8.839547E+01 -4.772727E+02  1.766481E+04 -5.242851E-09 -2.696726E-09
       163  16 -3.961890E+05 -1.832881E+04 -1.854979E+04  1.751957E+04  1.452244E-09 -1.136085E-09
       163  17 -3.624816E+05 -1.003598E+04 -1.028533E+04  7.421705E+03  5.142683E-09  5.225290E-09
       163  18 -3.289293E+05 -1.708532E+03 -2.265626E+03  1.763882E+04  5.186740E-09  2.155033E-09
       163  19 -2.472796E+05  1.841168E+04  1.618532E+04  1.781030E+04  1.851940E+03  3.088486E+03
       163  20 -2.808339E+05  1.013093E+04  8.869562E+03  7.593148E+03  1.506101E+03  1.559848E+03
       163  21 -3.145430E+05  1.885319E+03  1.311080E+03  1.769081E+04  1.160398E+03  2.889857E+01
       163  22 -3.217369E+05  4.163329E+01 -1.182037E+03  1.766493E+04  8.995499E+02  3.086245E+03
       163  23 -3.216585E+05  4.753405E+01 -7.078271E+02  7.507423E+03  5.523308E+02  1.557575E+03
       163  24 -3.217361E+05  8.839548E+01 -4.772726E+02  1.766481E+04  2.052286E+02  2.658804E+01
       163  25 -3.961890E+05 -1.832880E+04 -1.854977E+04  1.751957E+04 -5.272652E+01  3.084005E+03
       163  26 -3.624815E+05 -1.003598E+04 -1.028533E+04  7.421704E+03 -4.013773E+02  1.555302E+03
       163  27 -3.289293E+05 -1.708532E+03 -2.265625E+03  1.763882E+04 -7.499300E+02  2.427759E+01
       164   1 -3.509386E+05 -7.149257E+03 -7.374075E+03  1.761118E+04 -1.081428E+03  8.626969E+02
       164   2 -3.844947E+05 -1.547694E+04 -1.514125E+04  7.396681E+03 -8.847084E+02  2.393056E+03
       164   3 -4.181751E+05 -2.373719E+04 -2.304546E+04  1.749126E+04 -6.878241E+02  3.920624E+03
       164   4 -3.217296E+05  8.557934E+01 -4.205890E+02  1.766351E+04 -1.263379E+02  8.650015E+02
       164   5 -3.216673E+05  4.185130E+01 -4.011521E+02  7.509066E+03  6.862435E+01  2.395305E+03
       164   6 -3.217306E+05  6.581307E+01 -5.175944E+02  1.766356E+04  2.637619E+02  3.922823E+03
       164   7 -2.925198E+05  7.320354E+03  6.532841E+03  1.771585E+04  8.287970E+02  8.673062E+02
       164   8 -2.588363E+05  1.556036E+04  1.433868E+04  7.621461E+03  1.022053E+03  2.397555E+03
       164   9 -2.252775E+05  2.386815E+04  2.200965E+04  1.783588E+04  1.215495E+03  3.925022E+03
       164  10 -3.509386E+05 -7.149258E+03 -7.374079E+03  1.761118E+04 -3.221793E-09 -3.440471E-10
       164  11 -3.844947E+05 -1.547695E+04 -1.514126E+04  7.396682E+03 -4.251893E-10 -3.339651E-09
       164  12 -4.181751E+05 -2.373720E+04 -2.304549E+04  1.749126E+04 -4.158307E-09 -2.326122E-09
       164  13 -3.217296E+05  8.557853E+01 -4.205905E+02  1.766351E+04 -2.397068E-09  4.744776E-09
       164  14 -3.216673E+05  4.184513E+01 -4.011629E+02  7.509066E+03 -6.006618E-09 -2.180750E-09
       164  15 -3.217306E+05  6.579653E+01 -5.176235E+02  1.766356E+04  3.456275E-10 -4.237171E-09
       164  16 -2.925198E+05  7.320353E+03  6.532838E+03  1.771585E+04  1.246202E-09  4.320638E-11
       164  17 -2.588363E+05  1.556035E+04  1.433867E+04  7.621459E+03 -3.536547E-09 -1.301553E-08
       164  18 -2.252775E+05  2.386814E+04  2.200962E+04  1.783588E+04  5.332572E-09 -8.005766E-09
       164  19 -3.509386E+05 -7.149257E+03 -7.374075E+03  1.761118E+04  1.081428E+03 -8.626969E+02
       164  20 -3.844947E+05 -1.547694E+04 -1.514125E+04  7.396681E+03  8.847084E+02 -2.393056E+03
       164  21 -4.181751E+05 -2.373719E+04 -2.304546E+04  1.749126E+04  6.878241E+02 -3.920624E+03
       164  22 -3.217296E+05  8.557934E+01 -4.205890E+02  1.766351E+04  1.263379E+02 -8.650015E+02
       164  23 -3.216673E+05  4.185130E+01 -4.011521E+02  7.509066E+03 -6.862435E+01 -2.395305E+03
       164  24 -3.217306E+05  6.581307E+01 -5.175944E+02  1.766356E+04 -2.637619E+02 -3.922823E+03
       164  25 -2.925198E+05  7.320354E+03  6.532841E+03  1.771585E+04 -8.287970E+02 -8.673062E+02
       164  26 -2.588363E+05  1.556036E+04  1.433868E+04  7.621461E+03 -1.022053E+03 -2.397555E+03
       164  27 -2.252775E+05  2.386815E+04  2.200965E+04  1.783588E+04 -1.215495E+03 -3.925022E+03
       165   1 -4.545256E+05 -3.272496E+04 -3.187815E+04  1.737629E+04 -5.963721E+02  4.814413E+03
       165   2 -4.879319E+05 -4.101744E+04 -4.001861E+04  7.249020E+03 -7.719892E+01  6.338307E+03
       165   3 -5.215366E+05 -4.946770E+04 -4.855731E+04  1.736021E+04  4.424813E+02  7.826972E+03
       165   4 -3.217482E+05  9.355047E+01 -6.254802E+02  1.764765E+04  3.642754E+02  4.816574E+03
       165   5 -3.216521E+05  5.737749E+01 -1.004399E+03  7.528829E+03  8.615834E+02  6.340288E+03
       165   6 -3.217510E+05 -1.325318E+02 -1.766102E+03  1.764814E+04  1.359426E+03  7.828782E+03
       165   7 -1.889546E+05  3.291080E+04  3.062598E+04  1.791905E+04  1.325127E+03  4.818735E+03
       165   8 -1.553467E+05  4.113022E+04  3.800792E+04  7.808700E+03  1.800616E+03  6.342270E+03
       165   9 -1.219286E+05  4.919980E+04  4.502239E+04  1.793614E+04  2.276664E+03  7.830592E+03
       165  10 -4.545256E+05 -3.272498E+04 -3.187819E+04  1.737629E+04 -5.954245E-09  1.231750E-10
       165  11 -4.879319E+05 -4.101748E+04 -4.001868E+04  7.249020E+03  2.243356E-09 -6.146802E-09
       165  12 -5.215367E+05 -4.946776E+04 -4.855743E+04  1.736021E+04  1.145454E-09 -1.298402E-09
       165  13 -3.217482E+05  9.352552E+01 -6.255241E+02  1.764765E+04  2.118407E-12 -2.013855E-09
       165  14 -3.216521E+05  5.733413E+01 -1.004476E+03  7.528825E+03 -6.008563E-10  4.137860E-10
       165  15 -3.217510E+05 -1.325981E+02 -1.766220E+03  1.764813E+04  1.072975E-09  2.455139E-09
       165  16 -1.889547E+05  3.291078E+04  3.062593E+04  1.791905E+04  7.213382E-09  3.306053E-09
       165  17 -1.553468E+05  4.113018E+04  3.800784E+04  7.808691E+03  2.380463E-09 -3.257053E-10
       165  18 -1.219286E+05  4.919973E+04  4.502226E+04  1.793613E+04 -1.012572E-09  4.431320E-09
       165  19 -4.545256E+05 -3.272496E+04 -3.187815E+04  1.737629E+04  5.963721E+02 -4.814413E+03
       165  20 -4.879319E+05 -4.101744E+04 -4.001861E+04  7.249020E+03  7.719892E+01 -6.338307E+03
       165  21 -5.215366E+05 -4.946770E+04 -4.855731E+04  1.736021E+04 -4.424813E+02 -7.826972E+03
       165  22 -3.217482E+05  9.355047E+01 -6.254802E+02  1.764765E+04 -3.642754E+02 -4.816574E+03
       165  23 -3.216521E+05  5.737749E+01 -1.004399E+03  7.528829E+03 -8.615834E+02 -6.340288E+03
       165  24 -3.217510E+05 -1.325318E+02 -1.766102E+03  1.764814E+04 -1.359426E+03 -7.828782E+03
       165  25 -1.889546E+05  3.291080E+04  3.062598E+04  1.791905E+04 -1.325127E+03 -4.818735E+03
       165  26 -1.553467E+05  4.113022E+04  3.800792E+04  7.808700E+03 -1.800616E+03 -6.342270E+03
       165  27 -1.219286E+05  4.919980E+04  4.502239E+04  1.793614E+04 -2.276664E+03 -7.830592E+03
       166   1 -5.578693E+05 -5.810580E+04 -5.770901E+04  1.686823E+04  6.235748E+02  8.785321E+03
       166   2 -5.906548E+05 -6.622674E+04 -6.701672E+04  7.364537E+03  2.927344E+03  1.025028E+04
       166   3 -6.244659E+05 -7.707426E+04 -7.851725E+04  1.795876E+04  5.232720E+03  1.114657E+04
       166   4 -3.219260E+05  1.988160E+02 -2.261480E+03  1.761511E+04  1.711842E+03  8.787379E+03
       166   5 -3.214462E+05  2.781325E+02 -3.841212E+03  7.568788E+03  3.661777E+03  1.025142E+04
       166   6 -3.219310E+05 -2.306877E+03 -7.367180E+03  1.761987E+04  5.613442E+03  1.114690E+04
       166   7 -8.593145E+04  5.849946E+04  5.318223E+04  1.836226E+04  2.800520E+03  8.789439E+03
       166   8 -5.217079E+04  6.677784E+04  5.932933E+04  7.773094E+03  4.396527E+03  1.025256E+04
       166   9 -1.931167E+04  7.245397E+04  6.377660E+04  1.728076E+04  5.994349E+03  1.114722E+04
       166  10 -5.578693E+05 -5.810588E+04 -5.770916E+04  1.686822E+04  3.028277E-10  1.541831E-09
       166  11 -5.906549E+05 -6.622685E+04 -6.701693E+04  7.364513E+03 -2.959962E-09  6.558355E-09
       166  12 -6.244660E+05 -7.707440E+04 -7.851753E+04  1.795871E+04  4.387399E-09 -1.092116E-09
       166  13 -3.219260E+05  1.987324E+02 -2.261631E+03  1.761510E+04  2.208779E-10 -4.260428E-09
       166  14 -3.214463E+05  2.780160E+02 -3.841435E+03  7.568757E+03  1.276325E-09  3.054811E-09
       166  15 -3.219310E+05 -2.307018E+03 -7.367473E+03  1.761982E+04  8.101729E-10 -2.915658E-09
       166  16 -8.593148E+04  5.849938E+04  5.318207E+04  1.836224E+04  1.072937E-09 -1.083093E-09
       166  17 -5.217084E+04  6.677772E+04  5.932910E+04  7.773058E+03 -5.127280E-09 -7.199733E-09
       166  18 -1.931174E+04  7.245383E+04  6.377630E+04  1.728071E+04 -4.069979E-09  3.521430E-09
       166  19 -5.578693E+05 -5.810580E+04 -5.770901E+04  1.686823E+04 -6.235748E+02 -8.785321E+03
       166  20 -5.906548E+05 -6.622674E+04 -6.701672E+04  7.364537E+03 -2.927344E+03 -1.025028E+04
       166  21 -6.244659E+05 -7.707426E+04 -7.851725E+04  1.795876E+04 -5.232720E+03 -1.114657E+04
       166  22 -3.219260E+05  1.988160E+02 -2.261480E+03  1.761511E+04 -1.711842E+03 -8.787379E+03
       166  23 -3.214462E+05  2.781325E+02 -3.841212E+03  7.568788E+03 -3.661777E+03 -1.025142E+04
       166  24 -3.219310E+05 -2.306877E+03 -7.367180E+03  1.761987E+04 -5.613442E+03 -1.114690E+04
       166  25 -8.593145E+04  5.849946E+04  5.318223E+04  1.836226E+04 -2.800520E+03 -8.789439E+03
       166  26 -5.217079E+04  6.677784E+04  5.932933E+04  7.773094E+03 -4.396527E+03 -1.025256E+04
       166  27 -1.931167E+04  7.245397E+04  6.377660E+04  1.728076E+04 -5.994349E+03 -1.114722E+04
       167   1 -6.621618E+05 -8.209759E+04 -8.837112E+04  1.319648E+04  3.602666E+03  1.328661E+04
       167   2 -6.903692E+05 -8.893473E+04 -1.020488E+05  1.032057E+04  1.766638E+04  1.382944E+04
       167   3 -7.283639E+05 -1.276844E+05 -1.328626E+05  2.708140E+04  3.174280E+04  4.579475E+03
       167   4 -3.236601E+05  1.514366E+03 -9.089036E+03  1.750159E+04  6.981588E+03  1.329204E+04
       167   5 -3.193037E+05  2.752933E+03 -1.483731E+04  7.704119E+03  1.494428E+04  1.382455E+04
       167   6 -3.236704E+05 -2.685111E+04 -3.347648E+04  1.754323E+04  2.292062E+04  4.566558E+03
       167   7  1.494745E+04  8.511824E+04  7.018528E+04  2.180902E+04  1.036234E+04  1.329751E+04
       167   8  5.188876E+04  9.443081E+04  7.236479E+04  5.086043E+03  1.222055E+04  1.381969E+04
       167   9  8.117280E+04  7.397044E+04  6.589792E+04  7.998772E+03  1.409269E+04  4.553916E+03
       167  10 -6.621619E+05 -8.209778E+04 -8.837147E+04  1.319644E+04 -1.240815E-08 -2.680430E-09
       167  11 -6.903696E+05 -8.893502E+04 -1.020498E+05  1.032037E+04 -1.695720E-09  3.704648E-09
       167  12 -7.283650E+05 -1.276847E+05 -1.328645E+05  2.708128E+04  1.206135E-08  5.267273E-09
       167  13 -3.236602E+05  1.514163E+03 -9.089460E+03  1.750152E+04 -2.163491E-09 -2.120150E-09
       167  14 -3.193040E+05  2.752667E+03 -1.483809E+04  7.703953E+03  3.875652E-09  2.150182E-10
       167  15 -3.236709E+05 -2.685127E+04 -3.347751E+04  1.754314E+04  1.185765E-09  4.256951E-09
       167  16  1.494729E+04  8.511802E+04  7.018474E+04  2.180891E+04  8.866271E-09  4.309502E-09
       167  17  5.188855E+04  9.443056E+04  7.236415E+04  5.085907E+03 -4.073824E-10  2.930050E-09
       167  18  8.117258E+04  7.397036E+04  6.589751E+04  7.998720E+03 -1.188189E-08  1.620564E-10
       167  19 -6.621618E+05 -8.209759E+04 -8.837112E+04  1.319648E+04 -3.602666E+03 -1.328661E+04
       167  20 -6.903692E+05 -8.893473E+04 -1.020488E+05  1.032057E+04 -1.766638E+04 -1.382944E+04
       167  21 -7.283639E+05 -1.276844E+05 -1.328626E+05  2.708140E+04 -3.174280E+04 -4.579475E+03
       167  22 -3.236601E+05  1.514366E+03 -9.089036E+03  1.750159E+04 -6.981588E+03 -1.329204E+04
       167  23 -3.193037E+05  2.752933E+03 -1.483731E+04  7.704119E+03 -1.494428E+04 -1.382455E+04
       167  24 -3.236704E+05 -2.685111E+04 -3.347648E+04  1.754323E+04 -2.292062E+04 -4.566558E+03
       167  25  1.494745E+04  8.511824E+04  7.018528E+04  2.180902E+04 -1.036234E+04 -1.329751E+04
       167  26  5.188876E+04  9.443081E+04  7.236479E+04  5.086043E+03 -1.222055E+04 -1.381969E+04
       167  27  8.117280E+04  7.397044E+04  6.589792E+04  7.998772E+03 -1.409269E+04 -4.553916E+03
       168   1 -2.468829E+05 -9.217381E+05 -2.417280E+05  2.106591E+05 -1.002670E+04 -7.286031E+04
       168   2 -1.662688E+05 -7.104364E+05 -1.509568E+05  1.754714E+05 -3.027117E+04 -3.062735E+04
       168   3 -1.107903E+05 -5.106760E+05 -9.397267E+04  1.898879E+05 -2.802213E+04  1.165208E+04
       168   4 -3.033684E+04 -4.819228E+04 -3.330758E+04  1.920362E+05 -1.007413E+04 -2.462518E+04
       168   5 -5.964157E+03 -4.535985E+04 -1.490679E+04  1.672486E+05 -3.028107E+04 -1.688840E+04
       168   6 -7.160110E+02 -4.810375E+04 -6.304847E+03  1.920659E+05 -2.800410E+04 -9.120556E+03
       168   7  1.861565E+05  8.260598E+05  1.750681E+05  1.733870E+05 -1.012442E+04  2.367761E+04
       168   8  1.543131E+05  6.201379E+05  1.211206E+05  1.590168E+05 -3.029134E+04 -3.134975E+03
       168   9  1.093460E+05  4.146760E+05  8.135509E+04  1.942455E+05 -2.798621E+04 -2.990831E+04
       168  10 -2.468844E+05 -9.217439E+05 -2.417381E+05  2.106585E+05 -9.022682E-10 -2.459406E-09
       168  11 -1.662701E+05 -7.104377E+05 -1.509603E+05  1.754707E+05 -2.367888E-09 -1.810836E-08
       168  12 -1.107912E+05 -5.106764E+05 -9.397440E+04  1.898882E+05 -1.308256E-09 -2.717552E-08
       168  13 -3.033711E+04 -4.819296E+04 -3.330891E+04  1.920360E+05 -1.403146E-09  1.101098E-11
       168  14 -5.965218E+03 -4.536040E+04 -1.490905E+04  1.672482E+05  5.378323E-09 -2.414528E-09
       168  15 -7.168753E+02 -4.810405E+04 -6.306476E+03  1.920657E+05  7.875067E-09  2.049521E-09
       168  16  1.861563E+05  8.260592E+05  1.750668E+05  1.733872E+05  1.796359E-09  9.814886E-10
       168  17  1.543121E+05  6.201376E+05  1.211188E+05  1.590168E+05  9.453927E-10  1.463487E-08
       168  18  1.093450E+05  4.146749E+05  8.135193E+04  1.942449E+05 -3.213000E-09  2.706512E-08
       168  19 -2.468829E+05 -9.217381E+05 -2.417280E+05  2.106591E+05  1.002670E+04  7.286031E+04
       168  20 -1.662688E+05 -7.104364E+05 -1.509568E+05  1.754714E+05  3.027117E+04  3.062735E+04
       168  21 -1.107903E+05 -5.106760E+05 -9.397267E+04  1.898879E+05  2.802213E+04 -1.165208E+04
       168  22 -3.033684E+04 -4.819228E+04 -3.330758E+04  1.920362E+05  1.007413E+04  2.462518E+04
       168  23 -5.964157E+03 -4.535985E+04 -1.490679E+04  1.672486E+05  3.028107E+04  1.688840E+04
       168  24 -7.160110E+02 -4.810375E+04 -6.304847E+03  1.920659E+05  2.800410E+04  9.120556E+03
       168  25  1.861565E+05  8.260598E+05  1.750681E+05  1.733870E+05  1.012442E+04 -2.367761E+04
       168  26  1.543131E+05  6.201379E+05  1.211206E+05  1.590168E+05  3.029134E+04  3.134975E+03
       168  27  1.093460E+05  4.146760E+05  8.135509E+04  1.942455E+05  2.798621E+04  2.990831E+04
       169   1 -7.888174E+04 -3.715220E+05 -6.465972E+04  1.925829E+05 -1.982713E+04  9.043691E+03
       169   2 -2.839158E+04 -1.662541E+05 -1.895635E+04  1.672182E+05 -8.184566E+03  8.401705E+03
       169   3  2.252499E+04  3.938766E+04  2.730298E+04  1.927922E+05  3.906021E+03  7.758799E+03
       169   4 -1.630389E+03 -4.674261E+04 -3.264905E+03  1.923561E+05 -1.981336E+04 -8.489809E+03
       169   5 -1.997887E+02 -4.696157E+04  2.692261E+03  1.668884E+05 -8.171091E+03 -9.821846E+03
       169   6  1.779600E+03 -4.672638E+04  9.686243E+03  1.923587E+05  3.919065E+03 -1.115460E+04
       169   7  7.561498E+04  2.781393E+05  5.812640E+04  1.921293E+05 -1.979959E+04 -2.603226E+04
       169   8  2.799138E+04  7.234557E+04  2.434156E+04  1.665585E+05 -8.157598E+03 -2.804880E+04
       169   9 -1.896606E+04 -1.328326E+05 -7.929547E+03  1.919252E+05  3.932137E+03 -3.006543E+04
       169  10 -7.888219E+04 -3.715222E+05 -6.466061E+04  1.925830E+05 -7.807848E-10  3.330891E-08
       169  11 -2.839167E+04 -1.662542E+05 -1.895661E+04  1.672183E+05  1.969214E-09  1.620033E-08
       169  12  2.252495E+04  3.938759E+04  2.730284E+04  1.927922E+05  3.737796E-10 -5.738055E-09
       169  13 -1.630829E+03 -4.674279E+04 -3.265778E+03  1.923560E+05  8.509968E-09 -5.511884E-10
       169  14 -1.998863E+02 -4.696169E+04  2.691954E+03  1.668883E+05  6.446238E-09 -1.638513E-09
       169  15  1.779550E+03 -4.672652E+04  9.685980E+03  1.923587E+05  3.195834E-09 -2.406631E-10
       169  16  7.561437E+04  2.781385E+05  5.812440E+04  1.921289E+05 -2.776402E-09 -3.451087E-08
       169  17  2.799110E+04  7.234470E+04  2.433995E+04  1.665583E+05  3.700386E-10 -1.729997E-08
       169  18 -1.896632E+04 -1.328336E+05 -7.931276E+03  1.919253E+05  1.756743E-09  5.546351E-09
       169  19 -7.888174E+04 -3.715220E+05 -6.465972E+04  1.925829E+05  1.982713E+04 -9.043691E+03
       169  20 -2.839158E+04 -1.662541E+05 -1.895635E+04  1.672182E+05  8.184566E+03 -8.401705E+03
       169  21  2.252499E+04  3.938766E+04  2.730298E+04  1.927922E+05 -3.906021E+03 -7.758799E+03
       169  22 -1.630389E+03 -4.674261E+04 -3.264905E+03  1.923561E+05  1.981336E+04  8.489809E+03
       169  23 -1.997887E+02 -4.696157E+04  2.692261E+03  1.668884E+05  8.171091E+03  9.821846E+03
       169  24  1.779600E+03 -4.672638E+04  9.686243E+03  1.923587E+05 -3.919065E+03  1.115460E+04
       169  25  7.561498E+04  2.781393E+05  5.812640E+04  1.921293E+05  1.979959E+04  2.603226E+04
       169  26  2.799138E+04  7.234557E+04  2.434156E+04  1.665585E+05  8.157598E+03  2.804880E+04
       169  27 -1.896606E+04 -1.328326E+05 -7.929547E+03  1.919252E+05 -3.932137E+03  3.006543E+04
       170   1  5.372315E+04  1.791612E+05  5.753266E+04  1.878921E+05  1.223385E+04  8.362973E+03
       170   2  1.123673E+05  3.774799E+05  1.161045E+05  1.803251E+05  1.771423E+04 -3.134446E+04
       170   3  2.083314E+05  5.904970E+05  2.098802E+05  2.227968E+05  6.478801E+03 -7.108507E+04
       170   4  2.361048E+02 -4.456549E+04  1.384399E+04  1.921491E+05  1.224924E+04 -1.284963E+04
       170   5  9.160372E+03 -4.970088E+04  2.702843E+04  1.671546E+05  1.771221E+04 -2.686451E+04
       170   6  5.096281E+04 -4.462067E+04  5.759022E+04  1.921953E+05  6.456338E+03 -4.089925E+04
       170   7 -5.325364E+04 -2.682432E+05 -2.984538E+04  1.964046E+05  1.226435E+04 -3.405475E+04
       170   8 -9.405751E+04 -4.767086E+05 -6.205753E+04  1.539933E+05  1.771000E+04 -2.238758E+04
       170   9 -1.064310E+05 -6.793650E+05 -9.472439E+04  1.616252E+05  6.430894E+03 -1.074415E+04
       170  10  5.372297E+04  1.791611E+05  5.753225E+04  1.878920E+05  2.478499E-10  5.303941E-09
       170  11  1.123667E+05  3.774788E+05  1.161020E+05  1.803255E+05  2.366390E-10  5.667709E-10
       170  12  2.083300E+05  5.904915E+05  2.098706E+05  2.227971E+05  9.074162E-10 -3.397666E-09
       170  13  2.358993E+02 -4.456571E+04  1.384340E+04  1.921493E+05  1.644634E-09  1.216335E-12
       170  14  9.159841E+03 -4.970174E+04  2.702648E+04  1.671550E+05  8.821784E-10 -9.222959E-10
       170  15  5.096232E+04 -4.462248E+04  5.758700E+04  1.921955E+05  1.296176E-09  1.292308E-09
       170  16 -5.325411E+04 -2.682445E+05 -2.984784E+04  1.964049E+05 -1.902689E-09 -6.416294E-09
       170  17 -9.405798E+04 -4.767093E+05 -6.205906E+04  1.539936E+05  3.469278E-09 -1.249776E-09
       170  18 -1.064311E+05 -6.793652E+05 -9.472469E+04  1.616253E+05  3.373897E-09  3.000728E-09
       170  19  5.372315E+04  1.791612E+05  5.753266E+04  1.878921E+05 -1.223385E+04 -8.362973E+03
       170  20  1.123673E+05  3.774799E+05  1.161045E+05  1.803251E+05 -1.771423E+04  3.134446E+04
       170  21  2.083314E+05  5.904970E+05  2.098802E+05  2.227968E+05 -6.478801E+03  7.108507E+04
       170  22  2.361048E+02 -4.456549E+04  1.384399E+04  1.921491E+05 -1.224924E+04  1.284963E+04
       170  23  9.160372E+03 -4.970088E+04  2.702843E+04  1.671546E+05 -1.771221E+04  2.686451E+04
       170  24  5.096281E+04 -4.462067E+04  5.759022E+04  1.921953E+05 -6.456338E+03  4.089925E+04
       170  25 -5.325364E+04 -2.682432E+05 -2.984538E+04  1.964046E+05 -1.226435E+04  3.405475E+04
       170  26 -9.405751E+04 -4.767086E+05 -6.205753E+04  1.539933E+05 -1.771000E+04  2.238758E+04
       170  27 -1.064310E+05 -6.793650E+05 -9.472439E+04  1.616252E+05 -6.430894E+03  1.074415E+04
       171   1  7.482121E+05  2.740019E+05  1.671452E+05  2.721373E+05  6.951660E+04  2.170670E+04
       171   2  7.238535E+05  1.762410E+05  1.040675E+05  2.675050E+05  4.504953E+04  2.985617E+03
       171   3  7.226835E+05  1.574536E+05  8.109388E+04  2.531837E+05  1.757149E+04 -7.736916E+03
       171   4  4.851888E+05  1.446776E+05  9.099239E+04  1.692243E+05  5.952215E+04  1.793770E+04
       171   5  4.693102E+05  7.107910E+04  3.924176E+04  1.871660E+05  4.153992E+04  1.661941E+03
       171   6  4.753475E+05  7.518660E+04  2.247140E+04  1.954157E+05  2.054515E+04 -6.616263E+03
       171   7  2.222389E+05  1.537508E+04  1.483457E+04  6.635691E+04  4.953248E+04  1.417172E+04
       171   8  2.148319E+05 -3.407391E+04 -2.558888E+04  1.068586E+05  3.803189E+04  3.390020E+02
       171   9  2.280700E+05 -7.079679E+03 -3.615575E+04  1.376669E+05  2.351754E+04 -5.495969E+03
       171  10  7.482068E+05  2.740001E+05  1.671353E+05  2.721361E+05  1.665299E-09 -7.080193E-10
       171  11  7.238513E+05  1.762405E+05  1.040637E+05  2.675049E+05 -8.577879E-10  1.643017E-09
       171  12  7.226832E+05  1.574535E+05  8.109319E+04  2.531838E+05  3.055637E-09  3.469538E-09
       171  13  4.851849E+05  1.446763E+05  9.098514E+04  1.692234E+05 -3.601780E-09 -4.094015E-09
       171  14  4.693083E+05  7.107863E+04  3.923852E+04  1.871659E+05 -1.259072E-08 -4.057606E-10
       171  15  4.753471E+05  7.518644E+04  2.247053E+04  1.954158E+05 -3.100837E-09  4.321960E-09
       171  16  2.222362E+05  1.537421E+04  1.482959E+04  6.635635E+04 -3.107032E-09  2.812821E-09
       171  17  2.148304E+05 -3.407430E+04 -2.559159E+04  1.068586E+05 -4.793295E-09 -1.626472E-09
       171  18  2.280694E+05 -7.079860E+03 -3.615685E+04  1.376670E+05  1.779481E-09  3.539748E-10
       171  19  7.482121E+05  2.740019E+05  1.671452E+05  2.721373E+05 -6.951660E+04 -2.170670E+04
       171  20  7.238535E+05  1.762410E+05  1.040675E+05  2.675050E+05 -4.504953E+04 -2.985617E+03
       171  21  7.226835E+05  1.574536E+05  8.109388E+04  2.531837E+05 -1.757149E+04  7.736916E+03
       171  22  4.851888E+05  1.446776E+05  9.099239E+04  1.692243E+05 -5.952215E+04 -1.793770E+04
       171  23  4.693102E+05  7.107910E+04  3.924176E+04  1.871660E+05 -4.153992E+04 -1.661941E+03
       171  24  4.753475E+05  7.518660E+04  2.247140E+04  1.954157E+05 -2.054515E+04  6.616263E+03
       171  25  2.222389E+05  1.537508E+04  1.483457E+04  6.635691E+04 -4.953248E+04 -1.417172E+04
       171  26  2.148319E+05 -3.407391E+04 -2.558888E+04  1.068586E+05 -3.803189E+04 -3.390020E+02
       171  27  2.280700E+05 -7.079679E+03 -3.615575E+04  1.376669E+05 -2.351754E+04  5.495969E+03
       172   1  6.916770E+05  1.658682E+05  7.203713E+04  2.529810E+05  1.651448E+04 -6.327929E+03
       172   2  6.726798E+05  1.483946E+05  5.768863E+04  2.430698E+05  1.126644E+04 -7.358986E+03
       172   3  6.486338E+05  1.432203E+05  4.830808E+04  2.406392E+05  5.881899E+03 -8.028306E+03
       172   4  4.724333E+05  8.242056E+04  1.787963E+04  1.910235E+05  1.703652E+04 -6.131520E+03
       172   5  4.746700E+05  7.405540E+04  9.116575E+03  1.881305E+05  1.208300E+04 -7.051381E+03
       172   6  4.717998E+05  7.793230E+04  5.089560E+03  1.927178E+05  6.992794E+03 -7.609536E+03
       172   7  2.532370E+05 -1.023280E+03 -3.628156E+04  1.290860E+05  1.755836E+04 -5.935191E+03
       172   8  2.766993E+05 -2.807810E+02 -3.945831E+04  1.332073E+05  1.289928E+04 -6.743887E+03
       172   9  2.949975E+05  1.264658E+04 -3.813108E+04  1.448091E+05  8.103340E+03 -7.190896E+03
       172  10  6.916767E+05  1.658681E+05  7.203654E+04  2.529811E+05  5.638712E-10  2.295752E-09
       172  11  6.726797E+05  1.483945E+05  5.768829E+04  2.430698E+05 -4.381760E-09  4.778925E-09
       172  12  6.486337E+05  1.432202E+05  4.830790E+04  2.406392E+05  4.643252E-09  3.263390E-09
       172  13  4.724330E+05  8.242045E+04  1.787901E+04  1.910236E+05 -3.107860E-09  7.244713E-09
       172  14  4.746699E+05  7.405531E+04  9.116207E+03  1.881305E+05 -3.581261E-10 -5.754436E-09
       172  15  4.717998E+05  7.793222E+04  5.089359E+03  1.927179E+05  1.859260E-09  2.334278E-09
       172  16  2.532366E+05 -1.023401E+03 -3.628220E+04  1.290861E+05  2.804883E-09 -8.971920E-10
       172  17  2.766991E+05 -2.808745E+02 -3.945871E+04  1.332073E+05  2.782430E-10  5.857952E-09
       172  18  2.949974E+05  1.264651E+04 -3.813130E+04  1.448091E+05  2.523155E-09 -7.989664E-10
       172  19  6.916770E+05  1.658682E+05  7.203713E+04  2.529810E+05 -1.651448E+04  6.327929E+03
       172  20  6.726798E+05  1.483946E+05  5.768863E+04  2.430698E+05 -1.126644E+04  7.358986E+03
       172  21  6.486338E+05  1.432203E+05  4.830808E+04  2.406392E+05 -5.881899E+03  8.028306E+03
       172  22  4.724333E+05  8.242056E+04  1.787963E+04  1.910235E+05 -1.703652E+04  6.131520E+03
       172  23  4.746700E+05  7.405540E+04  9.116575E+03  1.881305E+05 -1.208300E+04  7.051381E+03
       172  24  4.717998E+05  7.793230E+04  5.089560E+03  1.927178E+05 -6.992794E+03  7.609536E+03
       172  25  2.532370E+05 -1.023280E+03 -3.628156E+04  1.290860E+05 -1.755836E+04  5.935191E+03
       172  26  2.766993E+05 -2.807810E+02 -3.945831E+04  1.332073E+05 -1.289928E+04  6.743887E+03
       172  27  2.949975E+05  1.264658E+04 -3.813108E+04  1.448091E+05 -8.103340E+03  7.190896E+03
       173   1  6.284960E+05  1.369847E+05  4.224239E+04  2.356413E+05  4.986605E+03 -7.483654E+03
       173   2  6.102369E+05  1.247890E+05  3.518606E+04  2.254221E+05  3.450713E+03 -6.648947E+03
       173   3  5.847973E+05  1.203737E+05  2.901179E+04  2.236362E+05  1.909364E+03 -5.800484E+03
       173   4  4.715436E+05  7.836973E+04  3.885424E+03  1.923914E+05  5.982878E+03 -7.108033E+03
       173   5  4.751171E+05  7.434875E+04  2.112169E+03  1.882249E+05  4.458418E+03 -6.268901E+03
       173   6  4.715080E+05  7.810615E+04  1.212243E+03  1.924917E+05  2.928462E+03 -5.416024E+03
       173   7  3.146148E+05  1.975621E+04 -3.447361E+04  1.491512E+05  6.978881E+03 -6.732513E+03
       173   8  3.400151E+05  2.390961E+04 -3.096319E+04  1.510350E+05  5.465886E+03 -5.888943E+03
       173   9  3.582313E+05  3.583945E+04 -2.658828E+04  1.613523E+05  3.947357E+03 -5.031641E+03
       173  10  6.284960E+05  1.369846E+05  4.224224E+04  2.356413E+05  1.595314E-09 -4.474770E-09
       173  11  6.102368E+05  1.247890E+05  3.518595E+04  2.254221E+05  5.398745E-09  4.299656E-09
       173  12  5.847973E+05  1.203737E+05  2.901172E+04  2.236362E+05  3.424453E-09  4.762557E-09
       173  13  4.715436E+05  7.836967E+04  3.885262E+03  1.923914E+05  5.431422E-09 -1.459376E-09
       173  14  4.751171E+05  7.434870E+04  2.112057E+03  1.882249E+05  6.539351E-09  5.155727E-09
       173  15  4.715080E+05  7.810611E+04  1.212172E+03  1.924917E+05 -1.932017E-09  5.689033E-09
       173  16  3.146147E+05  1.975615E+04 -3.447378E+04  1.491513E+05  6.791152E-09 -6.688361E-10
       173  17  3.400150E+05  2.390957E+04 -3.096331E+04  1.510350E+05  8.562018E-10  1.410579E-09
       173  18  3.582312E+05  3.583942E+04 -2.658836E+04  1.613524E+05 -3.817035E-09  1.831810E-09
       173  19  6.284960E+05  1.369847E+05  4.224239E+04  2.356413E+05 -4.986605E+03  7.483654E+03
       173  20  6.102369E+05  1.247890E+05  3.518606E+04  2.254221E+05 -3.450713E+03  6.648947E+03
       173  21  5.847973E+05  1.203737E+05  2.901179E+04  2.236362E+05 -1.909364E+03  5.800484E+03
       173  22  4.715436E+05  7.836973E+04  3.885424E+03  1.923914E+05 -5.982878E+03  7.108033E+03
       173  23  4.751171E+05  7.434875E+04  2.112169E+03  1.882249E+05 -4.458418E+03  6.268901E+03
       173  24  4.715080E+05  7.810615E+04  1.212243E+03  1.924917E+05 -2.928462E+03  5.416024E+03
       173  25  3.146148E+05  1.975621E+04 -3.447361E+04  1.491512E+05 -6.978881E+03  6.732513E+03
       173  26  3.400151E+05  2.390961E+04 -3.096319E+04  1.510350E+05 -5.465886E+03  5.888943E+03
       173  27  3.582313E+05  3.583945E+04 -2.658828E+04  1.613523E+05 -3.947357E+03  5.031641E+03
       174   1  5.655565E+05  1.132362E+05  2.389917E+04  2.183704E+05  1.462080E+03 -5.134418E+03
       174   2  5.474845E+05  1.014099E+05  1.833053E+04  2.081685E+05  6.794862E+02 -4.001636E+03
       174   3  5.220534E+05  9.702234E+04  1.299929E+04  2.063959E+05 -1.029287E+02 -2.869674E+03
       174   4  4.714824E+05  7.812097E+04  9.481759E+02  1.924571E+05  2.474451E+03 -4.752444E+03
       174   5  4.751622E+05  7.439717E+04  6.253427E+02  1.882444E+05  1.691239E+03 -3.619837E+03
       174   6  4.714823E+05  7.811220E+04  5.404486E+02  1.924609E+05  9.081907E+02 -2.488051E+03
       174   7  3.774175E+05  4.300657E+04 -2.200336E+04  1.665475E+05  3.486649E+03 -4.370534E+03
       174   8  4.028450E+05  4.738477E+04 -1.708023E+04  1.683224E+05  2.702862E+03 -3.238087E+03
       174   9  4.209135E+05  5.920216E+04 -1.191865E+04  1.785270E+05  1.919225E+03 -2.106461E+03
       174  10  5.655565E+05  1.132361E+05  2.389912E+04  2.183704E+05  3.312064E-09 -1.858697E-09
       174  11  5.474845E+05  1.014099E+05  1.833050E+04  2.081685E+05  8.619787E-10 -6.246014E-10
       174  12  5.220534E+05  9.702233E+04  1.299928E+04  2.063959E+05 -4.196885E-10 -6.499593E-09
       174  13  4.714824E+05  7.812095E+04  9.481219E+02  1.924571E+05 -3.938737E-11 -4.563006E-11
       174  14  4.751622E+05  7.439716E+04  6.253127E+02  1.882444E+05  1.081685E-09 -1.788378E-09
       174  15  4.714823E+05  7.811220E+04  5.404354E+02  1.924610E+05 -1.569669E-09 -7.389326E-09
       174  16  3.774175E+05  4.300654E+04 -2.200342E+04  1.665476E+05 -3.582923E-09 -4.534670E-10
       174  17  4.028450E+05  4.738476E+04 -1.708027E+04  1.683224E+05  5.104114E-09 -3.885142E-09
       174  18  4.209135E+05  5.920215E+04 -1.191867E+04  1.785270E+05 -9.589648E-10 -1.428940E-09
       174  19  5.655565E+05  1.132362E+05  2.389917E+04  2.183704E+05 -1.462080E+03  5.134418E+03
       174  20  5.474845E+05  1.014099E+05  1.833053E+04  2.081685E+05 -6.794862E+02  4.001636E+03
       174  21  5.220534E+05  9.702234E+04  1.299929E+04  2.063959E+05  1.029287E+02  2.869674E+03
       174  22  4.714824E+05  7.812097E+04  9.481759E+02  1.924571E+05 -2.474451E+03  4.752444E+03
       174  23  4.751622E+05  7.439717E+04  6.253427E+02  1.882444E+05 -1.691239E+03  3.619837E+03
       174  24  4.714823E+05  7.811220E+04  5.404486E+02  1.924609E+05 -9.081907E+02  2.488051E+03
       174  25  3.774175E+05  4.300657E+04 -2.200336E+04  1.665475E+05 -3.486649E+03  4.370534E+03
       174  26  4.028450E+05  4.738477E+04 -1.708023E+04  1.683224E+05 -2.702862E+03  3.238087E+03
       174  27  4.209135E+05  5.920216E+04 -1.191865E+04  1.785270E+05 -1.919225E+03  2.106461E+03
       175   1  5.029465E+05  8.985911E+04  8.195398E+03  2.011435E+05 -4.686338E+02 -2.177613E+03
       175   2  4.849096E+05  7.806523E+04  3.177049E+03  1.909575E+05 -1.330300E+03 -1.077432E+03
       175   3  4.595404E+05  7.370471E+04 -1.542668E+03  1.891837E+05 -2.191689E+03  2.207582E+01
       175   4  4.714883E+05  7.810889E+04  5.688972E+02  1.924580E+05  5.416980E+02 -1.796266E+03
       175   5  4.751559E+05  7.440093E+04  7.854347E+02  1.882488E+05 -3.205363E+02 -6.962930E+02
       175   6  4.714908E+05  7.812634E+04  1.301033E+03  1.924515E+05 -1.182508E+03  4.030020E+02
       175   7  4.400310E+05  6.635873E+04 -7.057671E+03  1.837729E+05  1.551974E+03 -1.414939E+03
       175   8  4.654024E+05  7.073664E+04 -1.606176E+03  1.855401E+05  6.892074E+02 -3.151612E+02
       175   9  4.834413E+05  8.254797E+04  4.144713E+03  1.957192E+05 -1.733104E+02  7.839342E+02
       175  10  5.029465E+05  8.985911E+04  8.195389E+03  2.011435E+05  1.139224E-08  3.516656E-09
       175  11  4.849096E+05  7.806523E+04  3.177043E+03  1.909575E+05  3.166245E-09 -4.884279E-09
       175  12  4.595404E+05  7.370471E+04 -1.542677E+03  1.891837E+05 -1.104968E-08 -3.588633E-09
       175  13  4.714883E+05  7.810888E+04  5.688906E+02  1.924580E+05  7.237529E-10  5.739077E-09
       175  14  4.751559E+05  7.440093E+04  7.854336E+02  1.882488E+05  4.104350E-09  2.615897E-10
       175  15  4.714908E+05  7.812634E+04  1.301031E+03  1.924515E+05  2.086884E-09 -2.983373E-10
       175  16  4.400310E+05  6.635873E+04 -7.057680E+03  1.837729E+05 -8.202207E-09 -5.814174E-09
       175  17  4.654024E+05  7.073664E+04 -1.606177E+03  1.855401E+05  1.060952E-08 -8.651106E-09
       175  18  4.834413E+05  8.254796E+04  4.144712E+03  1.957192E+05  1.553605E-08 -6.557124E-10
       175  19  5.029465E+05  8.985911E+04  8.195398E+03  2.011435E+05  4.686338E+02  2.177613E+03
       175  20  4.849096E+05  7.806523E+04  3.177049E+03  1.909575E+05  1.330300E+03  1.077432E+03
       175  21  4.595404E+05  7.370471E+04 -1.542668E+03  1.891837E+05  2.191689E+03 -2.207582E+01
       175  22  4.714883E+05  7.810889E+04  5.688972E+02  1.924580E+05 -5.416980E+02  1.796266E+03
       175  23  4.751559E+05  7.440093E+04  7.854347E+02  1.882488E+05  3.205363E+02  6.962930E+02
       175  24  4.714908E+05  7.812634E+04  1.301033E+03  1.924515E+05  1.182508E+03 -4.030020E+02
       175  25  4.400310E+05  6.635873E+04 -7.057671E+03  1.837729E+05 -1.551974E+03  1.414939E+03
       175  26  4.654024E+05  7.073664E+04 -1.606176E+03  1.855401E+05 -6.892074E+02  3.151612E+02
       175  27  4.834413E+05  8.254797E+04  4.144713E+03  1.957192E+05  1.733104E+02 -7.839342E+02
       176   1  4.404340E+05  6.656269E+04 -5.978193E+03  1.840274E+05 -2.717414E+03  6.547119E+02
       176   2  4.222996E+05  5.467601E+04 -9.903131E+03  1.737380E+05 -4.687511E+03  1.334868E+03
       176   3  3.971289E+05  5.066470E+04 -1.259100E+04  1.718107E+05 -6.653343E+03  2.004136E+03
       176   4  4.715383E+05  7.809508E+04  1.696109E+03  1.924893E+05 -1.704269E+03  1.037124E+03
       176   5  4.750825E+05  7.434950E+04  3.013160E+03  1.882351E+05 -3.683344E+03  1.713849E+03
       176   6  4.715921E+05  7.848115E+04  5.574443E+03  1.923430E+05 -5.658208E+03  2.379666E+03
       176   7  5.026438E+05  8.962760E+04  9.370382E+03  2.009516E+05 -6.910627E+02  1.419558E+03
       176   8  5.278683E+05  9.402324E+04  1.592928E+04  2.027334E+05 -2.679081E+03  2.092865E+03
       176   9  5.460609E+05  1.062980E+05  2.373947E+04  2.128775E+05 -4.662943E+03  2.755245E+03
       176  10  4.404340E+05  6.656269E+04 -5.978207E+03  1.840274E+05 -3.727909E-09 -5.227316E-09
       176  11  4.222995E+05  5.467600E+04 -9.903175E+03  1.737380E+05 -1.123937E-09 -6.521042E-09
       176  12  3.971288E+05  5.066468E+04 -1.259109E+04  1.718108E+05 -2.532484E-09  2.464258E-09
       176  13  4.715383E+05  7.809508E+04  1.696102E+03  1.924893E+05  6.247746E-09  6.637831E-10
       176  14  4.750825E+05  7.434950E+04  3.013129E+03  1.882351E+05  2.687467E-09  5.945935E-09
       176  15  4.715921E+05  7.848113E+04  5.574372E+03  1.923430E+05 -3.958521E-09 -2.918913E-09
       176  16  5.026438E+05  8.962759E+04  9.370378E+03  2.009516E+05  3.649383E-09  5.299380E-09
       176  17  5.278683E+05  9.402323E+04  1.592926E+04  2.027334E+05 -2.716024E-09  6.078246E-10
       176  18  5.460608E+05  1.062980E+05  2.373942E+04  2.128776E+05  5.373083E-10 -7.933925E-09
       176  19  4.404340E+05  6.656269E+04 -5.978193E+03  1.840274E+05  2.717414E+03 -6.547119E+02
       176  20  4.222996E+05  5.467601E+04 -9.903131E+03  1.737380E+05  4.687511E+03 -1.334868E+03
       176  21  3.971289E+05  5.066470E+04 -1.259100E+04  1.718107E+05  6.653343E+03 -2.004136E+03
       176  22  4.715383E+05  7.809508E+04  1.696109E+03  1.924893E+05  1.704269E+03 -1.037124E+03
       176  23  4.750825E+05  7.434950E+04  3.013160E+03  1.882351E+05  3.683344E+03 -1.713849E+03
       176  24  4.715921E+05  7.848115E+04  5.574443E+03  1.923430E+05  5.658208E+03 -2.379666E+03
       176  25  5.026438E+05  8.962760E+04  9.370382E+03  2.009516E+05  6.910627E+02 -1.419558E+03
       176  26  5.278683E+05  9.402324E+04  1.592928E+04  2.027334E+05  2.679081E+03 -2.092865E+03
       176  27  5.460609E+05  1.062980E+05  2.373947E+04  2.128775E+05  4.662943E+03 -2.755245E+03
       177   1  3.775507E+05  4.365449E+04 -1.568336E+04  1.679187E+05 -8.051147E+03  2.339815E+03
       177   2  3.594344E+05  3.040919E+04 -1.517459E+04  1.558415E+05 -1.496601E+04  1.102643E+03
       177   3  3.372687E+05  3.137676E+04 -8.025035E+03  1.507005E+05 -2.178275E+04 -3.933437E+02
       177   4  4.719715E+05  7.784257E+04  7.309704E+03  1.928015E+05 -6.974722E+03  2.745992E+03
       177   5  4.744334E+05  7.394706E+04  1.310872E+04  1.881133E+05 -1.410042E+04  1.429137E+03
       177   6  4.728866E+05  8.430495E+04  2.571450E+04  1.903611E+05 -2.112826E+04 -1.466451E+02
       177   7  5.664006E+05  1.120310E+05  3.030198E+04  2.176876E+05 -5.898123E+03  3.152229E+03
       177   8  5.894454E+05  1.174859E+05  4.139103E+04  2.203906E+05 -1.323465E+04  1.755700E+03
       177   9  6.085233E+05  1.372351E+05  5.945278E+04  2.300298E+05 -2.047361E+04  1.001196E+02
       177  10  3.775507E+05  4.365446E+04 -1.568349E+04  1.679188E+05  1.414442E-09  7.307015E-09
       177  11  3.594342E+05  3.040913E+04 -1.517501E+04  1.558415E+05  9.389032E-10  5.657498E-09
       177  12  3.372682E+05  3.137663E+04 -8.025926E+03  1.507005E+05  7.877048E-10 -3.781036E-10
       177  13  4.719714E+05  7.784255E+04  7.309599E+03  1.928015E+05  5.314081E-10 -5.144626E-09
       177  14  4.744332E+05  7.394700E+04  1.310835E+04  1.881133E+05 -3.855761E-09  2.776171E-09
       177  15  4.728862E+05  8.430483E+04  2.571366E+04  1.903610E+05 -1.404505E-09  1.322904E-09
       177  16  5.664005E+05  1.120310E+05  3.030190E+04  2.176876E+05 -1.021520E-09 -3.018698E-09
       177  17  5.894452E+05  1.174859E+05  4.139070E+04  2.203907E+05  2.128338E-09  6.518765E-10
       177  18  6.085229E+05  1.372350E+05  5.945200E+04  2.300298E+05 -1.177812E-09  3.559184E-09
       177  19  3.775507E+05  4.365449E+04 -1.568336E+04  1.679187E+05  8.051147E+03 -2.339815E+03
       177  20  3.594344E+05  3.040919E+04 -1.517459E+04  1.558415E+05  1.496601E+04 -1.102643E+03
       177  21  3.372687E+05  3.137676E+04 -8.025035E+03  1.507005E+05  2.178275E+04  3.933437E+02
       177  22  4.719715E+05  7.784257E+04  7.309704E+03  1.928015E+05  6.974722E+03 -2.745992E+03
       177  23  4.744334E+05  7.394706E+04  1.310872E+04  1.881133E+05  1.410042E+04 -1.429137E+03
       177  24  4.728866E+05  8.430495E+04  2.571450E+04  1.903611E+05  2.112826E+04  1.466451E+02
       177  25  5.664006E+05  1.120310E+05  3.030198E+04  2.176876E+05  5.898123E+03 -3.152229E+03
       177  26  5.894454E+05  1.174859E+05  4.139103E+04  2.203906E+05  1.323465E+04 -1.755700E+03
       177  27  6.085233E+05  1.372351E+05  5.945278E+04  2.300298E+05  2.047361E+04 -1.001196E+02
       178   1  3.099234E+05  2.595777E+04 -5.958982E+03  1.655160E+05 -2.822317E+04 -1.300869E+03
       178   2  2.990356E+05 -7.532998E+03  1.227605E+04  1.256793E+05 -5.400864E+04 -1.088726E+04
       178   3  3.220035E+05  6.656771E+04  7.715969E+04  6.816924E+04 -7.764048E+04 -2.618129E+04
       178   4  4.770505E+05  7.392801E+04  3.231946E+04  1.967058E+05 -2.581916E+04 -3.934383E+02
       178   5  4.667635E+05  6.964705E+04  5.644750E+04  1.866941E+05 -5.623396E+04 -1.172824E+04
       178   6  4.912342E+05  1.738521E+05  1.308814E+05  1.590123E+05 -8.449548E+04 -2.877282E+04
       178   7  6.442057E+05  1.218980E+05  7.059633E+04  2.279021E+05 -2.341444E+04  5.141208E+02
       178   8  6.345184E+05  1.468329E+05  1.006163E+05  2.477248E+05 -5.845992E+04 -1.256958E+04
       178   9  6.604947E+05  2.811563E+05  1.846000E+05  2.498813E+05 -9.135238E+04 -3.136628E+04
       178  10  3.099226E+05  2.595755E+04 -5.960481E+03  1.655160E+05  5.441052E-09  2.420604E-09
       178  11  2.990325E+05 -7.533908E+03  1.227035E+04  1.256789E+05  7.007121E-09 -2.398947E-09
       178  12  3.219968E+05  6.656536E+04  7.714708E+04  6.816760E+04  2.193964E-09  1.500724E-09
       178  13  4.770498E+05  7.392783E+04  3.231821E+04  1.967058E+05  3.806230E-09  4.220175E-09
       178  14  4.667601E+05  6.964605E+04  5.644131E+04  1.866935E+05  1.913563E-09 -1.384840E-09
       178  15  4.912263E+05  1.738493E+05  1.308665E+05  1.590104E+05  3.572729E-09  4.460274E-09
       178  16  6.442051E+05  1.218979E+05  7.059530E+04  2.279021E+05 -2.838893E-10 -4.840773E-10
       178  17  6.345147E+05  1.468318E+05  1.006096E+05  2.477242E+05  6.651425E-09 -2.437742E-09
       178  18  6.604855E+05  2.811530E+05  1.845825E+05  2.498790E+05  4.142188E-09  1.922514E-09
       178  19  3.099234E+05  2.595777E+04 -5.958982E+03  1.655160E+05  2.822317E+04  1.300869E+03
       178  20  2.990356E+05 -7.532998E+03  1.227605E+04  1.256793E+05  5.400864E+04  1.088726E+04
       178  21  3.220035E+05  6.656771E+04  7.715969E+04  6.816924E+04  7.764048E+04  2.618129E+04
       178  22  4.770505E+05  7.392801E+04  3.231946E+04  1.967058E+05  2.581916E+04  3.934383E+02
       178  23  4.667635E+05  6.964705E+04  5.644750E+04  1.866941E+05  5.623396E+04  1.172824E+04
       178  24  4.912342E+05  1.738521E+05  1.308814E+05  1.590123E+05  8.449548E+04  2.877282E+04
       178  25  6.442057E+05  1.218980E+05  7.059633E+04  2.279021E+05  2.341444E+04 -5.141208E+02
       178  26  6.345184E+05  1.468329E+05  1.006163E+05  2.477248E+05  5.845992E+04  1.256958E+04
       178  27  6.604947E+05  2.811563E+05  1.846000E+05  2.498813E+05  9.135238E+04  3.136628E+04
       179   1 -1.100294E+05 -6.314116E+05 -1.119328E+05  8.712389E+04 -3.716010E+03 -2.086488E+04
       179   2 -5.893181E+04 -4.929805E+05 -6.509877E+04  4.945824E+04 -9.603508E+03 -7.643730E+03
       179   3 -2.588244E+04 -3.605461E+05 -3.135401E+04  7.790557E+04 -4.679340E+03  5.592795E+03
       179   4 -1.572800E+04 -2.529843E+05 -1.914278E+04  8.010414E+04 -3.725362E+03 -1.221329E+04
       179   5  7.118943E+02 -2.506889E+05 -9.304253E+03  4.705708E+04 -9.603597E+03 -7.286302E+03
       179   6  5.494767E+02 -2.529645E+05 -6.787462E+03  8.012250E+04 -4.671861E+03 -2.346978E+03
       179   7  7.856295E+04  1.255738E+05  7.363702E+04  7.308013E+04 -3.734907E+03 -3.556443E+03
       179   8  6.035151E+04 -8.342880E+03  4.648637E+04  4.465500E+04 -9.603689E+03 -6.928735E+03
       179   9  2.698064E+04 -1.453720E+05  1.777857E+04  8.233981E+04 -4.664439E+03 -1.028811E+04
       179  10 -1.100295E+05 -6.314121E+05 -1.119336E+05  8.712383E+04 -8.966231E-10  1.098225E-08
       179  11 -5.893193E+04 -4.929806E+05 -6.509905E+04  4.945818E+04  1.478010E-09  5.718929E-09
       179  12 -2.588247E+04 -3.605461E+05 -3.135411E+04  7.790560E+04  9.201076E-10 -9.158259E-09
       179  13 -1.572806E+04 -2.529845E+05 -1.914308E+04  8.010411E+04  2.064603E-10 -5.466318E-10
       179  14  7.117810E+02 -2.506889E+05 -9.304527E+03  4.705703E+04 -1.027328E-09  5.472954E-10
       179  15  5.494518E+02 -2.529645E+05 -6.787513E+03  8.012249E+04  7.395153E-10 -4.875415E-09
       179  16  7.856293E+04  1.255738E+05  7.363697E+04  7.308012E+04  1.266181E-09 -1.015101E-08
       179  17  6.035140E+04 -8.342956E+03  4.648611E+04  4.465495E+04  3.688724E-09 -1.782997E-09
       179  18  2.698059E+04 -1.453721E+05  1.777833E+04  8.233977E+04  1.002631E-09  6.241665E-09
       179  19 -1.100294E+05 -6.314116E+05 -1.119328E+05  8.712389E+04  3.716010E+03  2.086488E+04
       179  20 -5.893181E+04 -4.929805E+05 -6.509877E+04  4.945824E+04  9.603508E+03  7.643730E+03
       179  21 -2.588244E+04 -3.605461E+05 -3.135401E+04  7.790557E+04  4.679340E+03 -5.592795E+03
       179  22 -1.572800E+04 -2.529843E+05 -1.914278E+04  8.010414E+04  3.725362E+03  1.221329E+04
       179  23  7.118943E+02 -2.506889E+05 -9.304253E+03  4.705708E+04  9.603597E+03  7.286302E+03
       179  24  5.494767E+02 -2.529645E+05 -6.787462E+03  8.012250E+04  4.671861E+03  2.346978E+03
       179  25  7.856295E+04  1.255738E+05  7.363702E+04  7.308013E+04  3.734907E+03  3.556443E+03
       179  26  6.035151E+04 -8.342880E+03  4.648637E+04  4.465500E+04  9.603689E+03  6.928735E+03
       179  27  2.698064E+04 -1.453720E+05  1.777857E+04  8.233981E+04  4.664439E+03  1.028811E+04
       180   1  2.868593E+03 -2.359825E+05 -2.636763E+03  8.092801E+04  6.560536E+02  3.633429E+03
       180   2  3.732991E+04 -1.000702E+05  2.827950E+04  4.674838E+04  6.839115E+03  6.500777E+03
       180   3  6.832980E+04  3.482053E+04  5.650454E+04  7.907673E+04  1.266987E+04  9.369770E+03
       180   4 -1.116144E+03 -2.521877E+05 -6.359111E+03  8.020548E+04  6.605523E+02 -1.251461E+03
       180   5  1.118660E+02 -2.516504E+05 -6.200160E+03  4.695034E+04  6.843888E+03  1.885473E+03
       180   6 -2.167679E+03 -2.521992E+05 -8.919309E+03  8.020437E+04  1.267482E+04  5.023444E+03
       180   7 -5.100885E+03 -2.683926E+05 -1.008139E+04  7.948297E+04  6.650623E+02 -6.136225E+03
       180   8 -3.710775E+04 -4.032093E+05 -4.068123E+04  4.715225E+04  6.848658E+03 -2.728714E+03
       180   9 -7.267085E+04 -5.391424E+05 -7.434846E+04  8.133150E+04  1.267976E+04  6.791095E+02
       180  10  2.868589E+03 -2.359825E+05 -2.636788E+03  8.092800E+04  1.242080E-09  6.667948E-09
       180  11  3.732984E+04 -1.000702E+05  2.827934E+04  4.674835E+04  2.985103E-09  4.794591E-09
       180  12  6.832960E+04  3.482039E+04  5.650408E+04  7.907664E+04  3.251240E-09 -5.929492E-09
       180  13 -1.116145E+03 -2.521877E+05 -6.359115E+03  8.020548E+04  8.022576E-10 -3.385064E-09
       180  14  1.118147E+02 -2.516504E+05 -6.200254E+03  4.695033E+04  4.608945E-09  7.144335E-11
       180  15 -2.167858E+03 -2.521992E+05 -8.919658E+03  8.020432E+04 -1.530083E-09 -9.339120E-09
       180  16 -5.100895E+03 -2.683926E+05 -1.008146E+04  7.948297E+04 -7.744048E-10 -5.527174E-09
       180  17 -3.710780E+04 -4.032093E+05 -4.068134E+04  4.715226E+04  1.854655E-09 -3.512032E-09
       180  18 -7.267102E+04 -5.391424E+05 -7.434876E+04  8.133149E+04 -1.996159E-09  1.847038E-09
       180  19  2.868593E+03 -2.359825E+05 -2.636763E+03  8.092801E+04 -6.560536E+02 -3.633429E+03
       180  20  3.732991E+04 -1.000702E+05  2.827950E+04  4.674838E+04 -6.839115E+03 -6.500777E+03
       180  21  6.832980E+04  3.482053E+04  5.650454E+04  7.907673E+04 -1.266987E+04 -9.369770E+03
       180  22 -1.116144E+03 -2.521877E+05 -6.359111E+03  8.020548E+04 -6.605523E+02  1.251461E+03
       180  23  1.118660E+02 -2.516504E+05 -6.200160E+03  4.695034E+04 -6.843888E+03 -1.885473E+03
       180  24 -2.167679E+03 -2.521992E+05 -8.919309E+03  8.020437E+04 -1.267482E+04 -5.023444E+03
       180  25 -5.100885E+03 -2.683926E+05 -1.008139E+04  7.948297E+04 -6.650623E+02  6.136225E+03
       180  26 -3.710775E+04 -4.032093E+05 -4.068123E+04  4.715225E+04 -6.848658E+03  2.728714E+03
       180  27 -7.267085E+04 -5.391424E+05 -7.434846E+04  8.133150E+04 -1.267976E+04 -6.791095E+02
       181   1  1.021520E+05  1.570426E+05  8.281476E+04  8.401873E+04  1.877696E+04  1.641087E+04
       181   2  1.353897E+05  2.954666E+05  1.085405E+05  4.246006E+04  2.238256E+04  1.117282E+04
       181   3  1.400658E+05  4.278404E+05  1.306162E+05  6.661600E+04  7.700240E+03  5.905868E+03
       181   4  1.311844E+03 -2.538693E+05 -1.051752E+04  8.004250E+04  1.878872E+04  6.616932E+03
       181   5  1.345769E+03 -2.496352E+05 -1.653325E+04  4.715994E+04  2.237820E+04  1.542368E+04
       181   6 -2.963301E+04 -2.539132E+05 -3.595779E+04  7.999707E+04  7.672482E+03  2.420231E+04
       181   7 -9.953983E+04 -6.646242E+05 -1.038604E+05  7.606896E+04  1.880060E+04 -3.170585E+03
       181   8 -1.327188E+05 -7.944619E+05 -1.416265E+05  5.185574E+04  2.237391E+04  1.967084E+04
       181   9 -1.993653E+05 -9.352421E+05 -2.025643E+05  9.336357E+04  7.645498E+03  4.247870E+04
       181  10  1.021515E+05  1.570422E+05  8.281360E+04  8.401848E+04  3.497052E-10  5.713300E-09
       181  11  1.353891E+05  2.954664E+05  1.085393E+05  4.245986E+04  3.741219E-09  7.692679E-09
       181  12  1.400657E+05  4.278404E+05  1.306160E+05  6.661596E+04  1.717289E-09 -1.264465E-11
       181  13  1.311453E+03 -2.538695E+05 -1.051827E+04  8.004240E+04  2.941124E-09 -4.941623E-09
       181  14  1.345167E+03 -2.496356E+05 -1.653464E+04  4.715966E+04  4.561277E-09 -1.566054E-09
       181  15 -2.963323E+04 -2.539138E+05 -3.595900E+04  7.999692E+04  2.609501E-09 -8.953543E-09
       181  16 -9.954021E+04 -6.646244E+05 -1.038611E+05  7.606901E+04 -1.273771E-09 -4.285972E-09
       181  17 -1.327194E+05 -7.944625E+05 -1.416281E+05  5.185539E+04  3.277914E-09 -8.927605E-09
       181  18 -1.993659E+05 -9.352441E+05 -2.025678E+05  9.336330E+04  1.271499E-09 -1.213542E-09
       181  19  1.021520E+05  1.570426E+05  8.281476E+04  8.401873E+04 -1.877696E+04 -1.641087E+04
       181  20  1.353897E+05  2.954666E+05  1.085405E+05  4.246006E+04 -2.238256E+04 -1.117282E+04
       181  21  1.400658E+05  4.278404E+05  1.306162E+05  6.661600E+04 -7.700240E+03 -5.905868E+03
       181  22  1.311844E+03 -2.538693E+05 -1.051752E+04  8.004250E+04 -1.878872E+04 -6.616932E+03
       181  23  1.345769E+03 -2.496352E+05 -1.653325E+04  4.715994E+04 -2.237820E+04 -1.542368E+04
       181  24 -2.963301E+04 -2.539132E+05 -3.595779E+04  7.999707E+04 -7.672482E+03 -2.420231E+04
       181  25 -9.953983E+04 -6.646242E+05 -1.038604E+05  7.606896E+04 -1.880060E+04  3.170585E+03
       181  26 -1.327188E+05 -7.944619E+05 -1.416265E+05  5.185574E+04 -2.237391E+04 -1.967084E+04
       181  27 -1.993653E+05 -9.352421E+05 -2.025643E+05  9.336357E+04 -7.645498E+03 -4.247870E+04
       182   1  2.477713E+05  1.374294E+05  1.246513E+05  3.243983E+04  2.421552E+04 -9.876820E+03
       182   2  1.932203E+05  1.468910E+05  1.061230E+05  3.940574E+04  6.267726E+03 -3.301349E+04
       182   3  1.367942E+05  1.393964E+05  9.505591E+04  5.780047E+04 -1.168938E+04 -3.929053E+04
       182   4 -4.593253E+05 -3.715105E+04 -4.130759E+04  5.518058E+04 -2.878762E+04 -9.921166E+03
       182   5 -4.559083E+05 -8.164424E+03 -2.006079E+04  4.944790E+04 -1.840454E+04 -3.303973E+04
       182   6 -4.592945E+05 -1.064026E+03 -1.103249E+04  5.514491E+04 -8.032619E+03 -3.928986E+04
       182   7 -1.165954E+06 -2.117636E+05 -2.072899E+05  7.789517E+04 -8.173077E+04 -9.969423E+03
       182   8 -1.104631E+06 -1.632444E+05 -1.462621E+05  5.947922E+04 -4.305157E+04 -3.306679E+04
       182   9 -1.055036E+06 -1.415441E+05 -1.171342E+05  5.249187E+04 -4.379271E+03 -3.928922E+04
       182  10  2.477707E+05  1.374292E+05  1.246500E+05  3.244002E+04  1.774205E-09 -9.791170E-10
       182  11  1.932199E+05  1.468898E+05  1.061209E+05  3.940590E+04 -2.553590E-09 -3.501195E-09
       182  12  1.367936E+05  1.393947E+05  9.505276E+04  5.780010E+04 -3.382937E-09 -2.321772E-09
       182  13 -4.593262E+05 -3.715138E+04 -4.130933E+04  5.518035E+04 -1.922580E-09  1.252745E-10
       182  14 -4.559090E+05 -8.165687E+03 -2.006347E+04  4.944741E+04 -2.613669E-09 -1.900922E-09
       182  15 -4.592950E+05 -1.065701E+03 -1.103551E+04  5.514466E+04 -3.568492E-09 -1.780425E-10
       182  16 -1.165962E+06 -2.117655E+05 -2.073026E+05  7.789451E+04 -1.635865E-09  1.596251E-11
       182  17 -1.104633E+06 -1.632460E+05 -1.462677E+05  5.947807E+04  3.322345E-09 -2.808766E-09
       182  18 -1.055037E+06 -1.415457E+05 -1.171371E+05  5.249173E+04 -6.585311E-10 -2.843268E-09
       182  19  2.477713E+05  1.374294E+05  1.246513E+05  3.243983E+04 -2.421552E+04  9.876820E+03
       182  20  1.932203E+05  1.468910E+05  1.061230E+05  3.940574E+04 -6.267726E+03  3.301349E+04
       182  21  1.367942E+05  1.393964E+05  9.505591E+04  5.780047E+04  1.168938E+04  3.929053E+04
       182  22 -4.593253E+05 -3.715105E+04 -4.130759E+04  5.518058E+04  2.878762E+04  9.921166E+03
       182  23 -4.559083E+05 -8.164424E+03 -2.006079E+04  4.944790E+04  1.840454E+04  3.303973E+04
       182  24 -4.592945E+05 -1.064026E+03 -1.103249E+04  5.514491E+04  8.032619E+03  3.928986E+04
       182  25 -1.165954E+06 -2.117636E+05 -2.072899E+05  7.789517E+04  8.173077E+04  9.969423E+03
       182  26 -1.104631E+06 -1.632444E+05 -1.462621E+05  5.947922E+04  4.305157E+04  3.306679E+04
       182  27 -1.055036E+06 -1.415441E+05 -1.171342E+05  5.249187E+04  4.379271E+03  3.928922E+04
       183   1  1.012131E+05  1.299416E+05  9.017438E+04  5.520063E+04 -8.333291E+03 -3.770431E+04
       183   2  4.582565E+04  1.178447E+05  8.197808E+04  4.938651E+04 -8.547163E+03 -3.592331E+04
       183   3 -9.709983E+03  1.050671E+05  7.374984E+04  5.611938E+04 -8.763859E+03 -3.264010E+04
       183   4 -4.579061E+05 -1.616620E+03 -8.402771E+03  5.539791E+04 -6.598048E+03 -3.770535E+04
       183   5 -4.576020E+05 -1.835337E+02 -4.627001E+03  4.912298E+04 -4.289569E+03 -3.592071E+04
       183   6 -4.578868E+05  1.307734E+02 -2.635732E+03  5.539568E+04 -1.983890E+03 -3.263325E+04
       183   7 -1.016720E+06 -1.331920E+05 -1.069914E+05  5.559491E+04 -4.864320E+03 -3.770638E+04
       183   8 -9.607807E+05 -1.182253E+05 -9.124062E+04  4.885958E+04 -3.531977E+01 -3.591811E+04
       183   9 -9.058660E+05 -1.048162E+05 -7.902775E+04  5.467246E+04  4.791340E+03 -3.262642E+04
       183  10  1.012126E+05  1.299401E+05  9.017158E+04  5.520037E+04 -2.844484E-09 -2.054270E-09
       183  11  4.582522E+04  1.178433E+05  8.197552E+04  4.938627E+04 -3.968976E-09 -1.681242E-10
       183  12 -9.710351E+03  1.050659E+05  7.374770E+04  5.611915E+04  2.330129E-09 -5.232018E-10
       183  13 -4.579066E+05 -1.618158E+03 -8.405524E+03  5.539771E+04 -1.606514E-09 -1.646770E-09
       183  14 -4.576024E+05 -1.849239E+02 -4.629460E+03  4.912286E+04  1.541892E-09 -2.296284E-10
       183  15 -4.578871E+05  1.296290E+02 -2.637741E+03  5.539563E+04  3.458746E-09 -3.128191E-09
       183  16 -1.016720E+06 -1.331935E+05 -1.069941E+05  5.559476E+04  2.764230E-09 -3.621650E-10
       183  17 -9.607811E+05 -1.182267E+05 -9.124304E+04  4.885958E+04 -3.817986E-10  2.657580E-10
       183  18 -9.058663E+05 -1.048173E+05 -7.902980E+04  5.467258E+04 -2.877261E-09 -1.038905E-09
       183  19  1.012131E+05  1.299416E+05  9.017438E+04  5.520063E+04  8.333291E+03  3.770431E+04
       183  20  4.582565E+04  1.178447E+05  8.197808E+04  4.938651E+04  8.547163E+03  3.592331E+04
       183  21 -9.709983E+03  1.050671E+05  7.374984E+04  5.611938E+04  8.763859E+03  3.264010E+04
       183  22 -4.579061E+05 -1.616620E+03 -8.402771E+03  5.539791E+04  6.598048E+03  3.770535E+04
       183  23 -4.576020E+05 -1.835337E+02 -4.627001E+03  4.912298E+04  4.289569E+03  3.592071E+04
       183  24 -4.578868E+05  1.307734E+02 -2.635732E+03  5.539568E+04  1.983890E+03  3.263325E+04
       183  25 -1.016720E+06 -1.331920E+05 -1.069914E+05  5.559491E+04  4.864320E+03  3.770638E+04
       183  26 -9.607807E+05 -1.182253E+05 -9.124062E+04  4.885958E+04  3.531977E+01  3.591811E+04
       183  27 -9.058660E+05 -1.048162E+05 -7.902775E+04  5.467246E+04 -4.791340E+03  3.262642E+04
       184   1 -4.587334E+04  9.648415E+04  6.791313E+04  5.594474E+04 -8.193277E+03 -3.026224E+04
       184   2 -1.013820E+05  8.351383E+04  5.925536E+04  4.954760E+04 -7.856967E+03 -2.625871E+04
       184   3 -1.569560E+05  7.056033E+04  5.037497E+04  5.581398E+04 -7.521930E+03 -2.211976E+04
       184   4 -4.577739E+05  9.740409E+01 -2.003539E+03  5.542186E+04 -1.581322E+03 -3.025501E+04
       184   5 -4.577133E+05  1.445084E+02 -1.146969E+03  4.908983E+04 -1.018113E+03 -2.625030E+04
       184   6 -4.577606E+05  1.690838E+02 -6.709307E+02  5.542176E+04 -4.561475E+02 -2.211012E+04
       184   7 -8.695074E+05 -9.629830E+04 -7.192556E+04  5.489927E+04  5.026386E+03 -3.024778E+04
       184   8 -8.139194E+05 -8.323150E+04 -6.155323E+04  4.863229E+04  5.816942E+03 -2.624190E+04
       184   9 -7.584760E+05 -7.022692E+04 -5.171958E+04  5.502969E+04  6.606320E+03 -2.210050E+04
       184  10 -4.587366E+04  9.648315E+04  6.791128E+04  5.594454E+04 -8.692630E-09  1.022746E-09
       184  11 -1.013822E+05  8.351307E+04  5.925395E+04  4.954743E+04  1.110075E-08  2.643508E-09
       184  12 -1.569562E+05  7.055979E+04  5.037394E+04  5.581384E+04  2.795079E-08  8.720339E-11
       184  13 -4.577742E+05  9.642069E+01 -2.005263E+03  5.542182E+04  1.013302E-09 -3.128953E-09
       184  14 -4.577135E+05  1.437683E+02 -1.148266E+03  4.908981E+04  4.667303E-09  2.066994E-09
       184  15 -4.577608E+05  1.685590E+02 -6.718496E+02  5.542175E+04  3.637331E-09  3.576817E-09
       184  16 -8.695076E+05 -9.629929E+04 -7.192732E+04  5.489940E+04  9.413041E-09  3.789635E-10
       184  17 -8.139197E+05 -8.323225E+04 -6.155459E+04  4.863242E+04 -9.867547E-09  2.640112E-09
       184  18 -7.584762E+05 -7.022746E+04 -5.172058E+04  5.502981E+04 -3.188309E-08  5.034329E-10
       184  19 -4.587334E+04  9.648415E+04  6.791313E+04  5.594474E+04  8.193277E+03  3.026224E+04
       184  20 -1.013820E+05  8.351383E+04  5.925536E+04  4.954760E+04  7.856967E+03  2.625871E+04
       184  21 -1.569560E+05  7.056033E+04  5.037497E+04  5.581398E+04  7.521930E+03  2.211976E+04
       184  22 -4.577739E+05  9.740409E+01 -2.003539E+03  5.542186E+04  1.581322E+03  3.025501E+04
       184  23 -4.577133E+05  1.445084E+02 -1.146969E+03  4.908983E+04  1.018113E+03  2.625030E+04
       184  24 -4.577606E+05  1.690838E+02 -6.709307E+02  5.542176E+04  4.561475E+02  2.211012E+04
       184  25 -8.695074E+05 -9.629830E+04 -7.192556E+04  5.489927E+04 -5.026386E+03  3.024778E+04
       184  26 -8.139194E+05 -8.323150E+04 -6.155323E+04  4.863229E+04 -5.816942E+03  2.624190E+04
       184  27 -7.584760E+05 -7.022692E+04 -5.171958E+04  5.502969E+04 -6.606320E+03  2.210050E+04
       185   1 -1.931955E+05  6.203133E+04  4.414045E+04  5.576659E+04 -7.404642E+03 -1.966854E+04
       185   2 -2.487711E+05  4.903373E+04  3.502510E+04  4.934906E+04 -7.267528E+03 -1.546316E+04
       185   3 -3.043931E+05  3.607547E+04  2.581861E+04  5.561727E+04 -7.131086E+03 -1.124528E+04
       185   4 -4.577446E+05  1.694627E+02 -5.209872E+02  5.542667E+04 -3.518565E+02 -1.965851E+04
       185   5 -4.577138E+05  1.569648E+02 -3.310684E+02  4.908368E+04 -1.941806E+02 -1.545257E+04
       185   6 -4.577369E+05  1.801023E+02 -2.469765E+02  5.542667E+04 -3.716399E+01 -1.123413E+04
       185   7 -7.222247E+05 -6.169607E+04 -4.518447E+04  5.508688E+04  6.698021E+03 -1.964848E+04
       185   8 -6.666134E+05 -4.872208E+04 -3.568845E+04  4.881837E+04  6.876863E+03 -1.544198E+04
       185   9 -6.110574E+05 -3.571648E+04 -2.631314E+04  5.523610E+04  7.055061E+03 -1.122298E+04
       185  10 -1.931957E+05  6.203090E+04  4.413962E+04  5.576648E+04 -2.170213E-08  5.774738E-10
       185  11 -2.487713E+05  4.903346E+04  3.502455E+04  4.934897E+04 -7.892169E-09  5.983246E-09
       185  12 -3.043932E+05  3.607532E+04  2.581827E+04  5.561721E+04  4.995789E-09  3.807208E-09
       185  13 -4.577447E+05  1.690477E+02 -5.217135E+02  5.542667E+04  7.821119E-10  3.338263E-10
       185  14 -4.577139E+05  1.567085E+02 -3.315171E+02  4.908368E+04 -3.282800E-09  5.423575E-09
       185  15 -4.577369E+05  1.799668E+02 -2.472136E+02  5.542667E+04  2.201892E-09  1.618392E-09
       185  16 -7.222248E+05 -6.169649E+04 -4.518528E+04  5.508698E+04  2.134213E-08  3.865316E-10
       185  17 -6.666135E+05 -4.872235E+04 -3.568899E+04  4.881846E+04  7.012253E-09  1.596306E-09
       185  18 -6.110575E+05 -3.571663E+04 -2.631347E+04  5.523616E+04 -6.094963E-09  8.470170E-10
       185  19 -1.931955E+05  6.203133E+04  4.414045E+04  5.576659E+04  7.404642E+03  1.966854E+04
       185  20 -2.487711E+05  4.903373E+04  3.502510E+04  4.934906E+04  7.267528E+03  1.546316E+04
       185  21 -3.043931E+05  3.607547E+04  2.581861E+04  5.561727E+04  7.131086E+03  1.124528E+04
       185  22 -4.577446E+05  1.694627E+02 -5.209872E+02  5.542667E+04  3.518565E+02  1.965851E+04
       185  23 -4.577138E+05  1.569648E+02 -3.310684E+02  4.908368E+04  1.941806E+02  1.545257E+04
       185  24 -4.577369E+05  1.801023E+02 -2.469765E+02  5.542667E+04  3.716399E+01  1.123413E+04
       185  25 -7.222247E+05 -6.169607E+04 -4.518447E+04  5.508688E+04 -6.698021E+03  1.964848E+04
       185  26 -6.666134E+05 -4.872208E+04 -3.568845E+04  4.881837E+04 -6.876863E+03  1.544198E+04
       185  27 -6.110574E+05 -3.571648E+04 -2.631314E+04  5.523610E+04 -7.055061E+03  1.122298E+04
       186   1 -3.406682E+05  2.754322E+04  1.944759E+04  5.557162E+04 -7.091514E+03 -8.785957E+03
       186   2 -3.962645E+05  1.454048E+04  1.012132E+04  4.914412E+04 -6.955750E+03 -4.564105E+03
       186   3 -4.519160E+05  1.572775E+03  7.013628E+02  5.541114E+04 -6.820174E+03 -3.482931E+02
       186   4 -4.577354E+05  1.823615E+02 -2.354992E+02  5.542858E+04  2.824123E+00 -8.774601E+03
       186   5 -4.577064E+05  1.683759E+02 -2.671125E+02  4.908128E+04  1.281826E+02 -4.552612E+03
       186   6 -4.577331E+05  1.915545E+02 -3.850603E+02  5.542857E+04  2.533637E+02 -3.366606E+02
       186   7 -5.747889E+05 -2.717919E+04 -1.991883E+04  5.528556E+04  7.095868E+03 -8.763247E+03
       186   8 -5.191445E+05 -1.420390E+04 -1.065548E+04  4.901845E+04  7.211436E+03 -4.541120E+03
       186   9 -4.635502E+05 -1.189641E+03 -1.471297E+03  5.544600E+04  7.326837E+03 -3.250276E+02
       186  10 -3.406683E+05  2.754313E+04  1.944735E+04  5.557157E+04  3.025948E-09  6.721311E-10
       186  11 -3.962645E+05  1.454045E+04  1.012119E+04  4.914409E+04 -1.126864E-09 -6.376516E-10
       186  12 -4.519160E+05  1.572762E+03  7.012751E+02  5.541114E+04 -4.303153E-09 -8.669602E-10
       186  13 -4.577354E+05  1.822788E+02 -2.356438E+02  5.542858E+04  2.599529E-09  4.921381E-09
       186  14 -4.577064E+05  1.683537E+02 -2.671515E+02  4.908128E+04 -2.070809E-09  8.376215E-11
       186  15 -4.577331E+05  1.915543E+02 -3.850607E+02  5.542857E+04 -9.982930E-10 -1.217693E-09
       186  16 -5.747890E+05 -2.717929E+04 -1.991907E+04  5.528561E+04 -3.038133E-09  3.617639E-09
       186  17 -5.191446E+05 -1.420394E+04 -1.065562E+04  4.901847E+04  1.532158E-09 -2.772840E-10
       186  18 -4.635502E+05 -1.189656E+03 -1.471398E+03  5.544600E+04  3.372215E-09 -1.891645E-09
       186  19 -3.406682E+05  2.754322E+04  1.944759E+04  5.557162E+04  7.091514E+03  8.785957E+03
       186  20 -3.962645E+05  1.454048E+04  1.012132E+04  4.914412E+04  6.955750E+03  4.564105E+03
       186  21 -4.519160E+05  1.572775E+03  7.013628E+02  5.541114E+04  6.820174E+03  3.482931E+02
       186  22 -4.577354E+05  1.823615E+02 -2.354992E+02  5.542858E+04 -2.824123E+00  8.774601E+03
       186  23 -4.577064E+05  1.683759E+02 -2.671125E+02  4.908128E+04 -1.281826E+02  4.552612E+03
       186  24 -4.577331E+05  1.915545E+02 -3.850603E+02  5.542857E+04 -2.533637E+02  3.366606E+02
       186  25 -5.747889E+05 -2.717919E+04 -1.991883E+04  5.528556E+04 -7.095868E+03  8.763247E+03
       186  26 -5.191445E+05 -1.420390E+04 -1.065548E+04  4.901845E+04 -7.211436E+03  4.541120E+03
       186  27 -4.635502E+05 -1.189641E+03 -1.471297E+03  5.544600E+04 -7.326837E+03  3.250276E+02
       187   1 -4.882086E+05 -6.962339E+03 -5.787681E+03  5.535242E+04 -6.754647E+03  2.108528E+03
       187   2 -5.437645E+05 -1.997509E+04 -1.545516E+04  4.892430E+04 -6.218170E+03  6.285851E+03
       187   3 -5.994420E+05 -3.301522E+04 -2.549277E+04  5.518471E+04 -5.681355E+03  1.037899E+04
       187   4 -4.577432E+05  1.946832E+02 -4.855847E+02  5.542718E+04  3.280188E+02  2.120158E+03
       187   5 -4.576947E+05  1.778778E+02 -8.115267E+02  4.908301E+04  7.229207E+02  6.297033E+03
       187   6 -4.577465E+05  1.584175E+02 -1.409280E+03  5.542724E+04  1.118207E+03  1.038974E+04
       187   7 -4.272768E+05  7.351682E+03  4.816668E+03  5.550194E+04  7.411022E+03  2.131788E+03
       187   8 -3.716176E+05  2.033048E+04  1.383205E+04  4.924173E+04  7.664944E+03  6.308217E+03
       187   9 -3.160311E+05  3.333102E+04  2.267373E+04  5.566982E+04  7.919273E+03  1.040048E+04
       187  10 -4.882087E+05 -6.962356E+03 -5.787775E+03  5.535243E+04 -6.462676E-10  1.140229E-09
       187  11 -5.437645E+05 -1.997515E+04 -1.545531E+04  4.892434E+04  2.426176E-10 -7.271824E-10
       187  12 -5.994421E+05 -3.301535E+04 -2.549303E+04  5.518476E+04 -3.632390E-09 -1.733380E-09
       187  13 -4.577432E+05  1.946784E+02 -4.855933E+02  5.542718E+04  2.992948E-09 -6.815985E-10
       187  14 -4.576948E+05  1.778350E+02 -8.116021E+02  4.908300E+04  2.483336E-10 -1.495199E-09
       187  15 -4.577465E+05  1.583012E+02 -1.409485E+03  5.542723E+04  5.098445E-11 -1.323830E-09
       187  16 -4.272768E+05  7.351663E+03  4.816556E+03  5.550193E+04  1.040820E-09  1.047880E-10
       187  17 -3.716177E+05  2.033042E+04  1.383186E+04  4.924169E+04  2.601735E-09 -6.580020E-09
       187  18 -3.160312E+05  3.333089E+04  2.267341E+04  5.566976E+04  5.153582E-10 -2.311720E-09
       187  19 -4.882086E+05 -6.962339E+03 -5.787681E+03  5.535242E+04  6.754647E+03 -2.108528E+03
       187  20 -5.437645E+05 -1.997509E+04 -1.545516E+04  4.892430E+04  6.218170E+03 -6.285851E+03
       187  21 -5.994420E+05 -3.301522E+04 -2.549277E+04  5.518471E+04  5.681355E+03 -1.037899E+04
       187  22 -4.577432E+05  1.946832E+02 -4.855847E+02  5.542718E+04 -3.280188E+02 -2.120158E+03
       187  23 -4.576947E+05  1.778778E+02 -8.115267E+02  4.908301E+04 -7.229207E+02 -6.297033E+03
       187  24 -4.577465E+05  1.584175E+02 -1.409280E+03  5.542724E+04 -1.118207E+03 -1.038974E+04
       187  25 -4.272768E+05  7.351682E+03  4.816668E+03  5.550194E+04 -7.411022E+03 -2.131788E+03
       187  26 -3.716176E+05  2.033048E+04  1.383205E+04  4.924173E+04 -7.664944E+03 -6.308217E+03
       187  27 -3.160311E+05  3.333102E+04  2.267373E+04  5.566982E+04 -7.919273E+03 -1.040048E+04
       188   1 -6.358277E+05 -4.154540E+04 -3.238060E+04  5.500224E+04 -5.506365E+03  1.279129E+04
       188   2 -6.910541E+05 -5.484154E+04 -4.366210E+04  4.896936E+04 -2.309360E+03  1.643829E+04
       188   3 -7.469955E+05 -6.918446E+04 -5.729961E+04  5.555757E+04  8.892594E+02  1.914182E+04
       188   4 -4.578250E+05  1.844755E+02 -1.851739E+03  5.541193E+04  1.399214E+03  1.280197E+04
       188   5 -4.576079E+05 -3.797077E+01 -3.245036E+03  4.910247E+04  3.012882E+03  1.644596E+04
       188   6 -4.578342E+05 -1.031930E+03 -5.893841E+03  5.541382E+04  4.628464E+03  1.914668E+04
       188   7 -2.797911E+05  4.191268E+04  2.867624E+04  5.582173E+04  8.306713E+03  1.281265E+04
       188   8 -2.241081E+05  5.476268E+04  3.717025E+04  4.923560E+04  8.337065E+03  1.645364E+04
       188   9 -1.685912E+05  6.711599E+04  4.550885E+04  5.526998E+04  8.369361E+03  1.915153E+04
       188  10 -6.358278E+05 -4.154559E+04 -3.238096E+04  5.500229E+04 -3.065803E-08  2.025383E-10
       188  11 -6.910541E+05 -5.484183E+04 -4.366262E+04  4.896939E+04 -7.326479E-10 -5.188362E-10
       188  12 -7.469956E+05 -6.918485E+04 -5.730030E+04  5.555755E+04  2.881598E-08  3.674774E-09
       188  13 -4.578251E+05  1.842990E+02 -1.852050E+03  5.541191E+04  2.966282E-09  3.709381E-10
       188  14 -4.576080E+05 -3.826358E+01 -3.245561E+03  4.910243E+04 -4.040140E-09  1.258783E-09
       188  15 -4.578344E+05 -1.032330E+03 -5.894570E+03  5.541375E+04 -6.992250E-10  2.019819E-10
       188  16 -2.797912E+05  4.191249E+04  2.867580E+04  5.582164E+04  2.741580E-08  4.370060E-10
       188  17 -2.241083E+05  5.476237E+04  3.716961E+04  4.923549E+04 -4.586394E-09  5.300133E-11
       188  18 -1.685914E+05  6.711558E+04  4.550803E+04  5.526985E+04 -3.087470E-08 -3.740709E-09
       188  19 -6.358277E+05 -4.154540E+04 -3.238060E+04  5.500224E+04  5.506365E+03 -1.279129E+04
       188  20 -6.910541E+05 -5.484154E+04 -4.366210E+04  4.896936E+04  2.309360E+03 -1.643829E+04
       188  21 -7.469955E+05 -6.918446E+04 -5.729961E+04  5.555757E+04 -8.892594E+02 -1.914182E+04
       188  22 -4.578250E+05  1.844755E+02 -1.851739E+03  5.541193E+04 -1.399214E+03 -1.280197E+04
       188  23 -4.576079E+05 -3.797077E+01 -3.245036E+03  4.910247E+04 -3.012882E+03 -1.644596E+04
       188  24 -4.578342E+05 -1.031930E+03 -5.893841E+03  5.541382E+04 -4.628464E+03 -1.914668E+04
       188  25 -2.797911E+05  4.191268E+04  2.867624E+04  5.582173E+04 -8.306713E+03 -1.281265E+04
       188  26 -2.241081E+05  5.476268E+04  3.717025E+04  4.923560E+04 -8.337065E+03 -1.645364E+04
       188  27 -1.685912E+05  6.711599E+04  4.550885E+04  5.526998E+04 -8.369361E+03 -1.915153E+04
       189   1 -7.847137E+05 -7.757797E+04 -6.624681E+04  5.336721E+04  6.877021E+02  2.105525E+04
       189   2 -8.363860E+05 -9.657899E+04 -8.867129E+04  5.627643E+04  2.573716E+04  1.873885E+04
       189   3 -8.959584E+05 -1.340253E+05 -1.320321E+05  7.111341E+04  5.079706E+04  5.826075E+03
       189   4 -4.588081E+05 -6.423462E+02 -7.738301E+03  5.525508E+04  5.632885E+03  2.106159E+04
       189   5 -4.564135E+05 -5.630930E+03 -1.406808E+04  4.930873E+04  1.290277E+04  1.871962E+04
       189   6 -4.588274E+05 -2.596930E+04 -2.897336E+04  5.529063E+04  2.018552E+04  5.783544E+03
       189   7 -1.327987E+05  7.628739E+04  5.076621E+04  5.714392E+04  1.058059E+04  2.106795E+04
       189   8 -7.630206E+04  8.530868E+04  6.052879E+04  4.233661E+04  6.067708E+01  1.870069E+04
       189   9 -2.151773E+04  8.207446E+04  7.407582E+04  3.945656E+04 -1.044748E+04  5.742592E+03
       189  10 -7.847138E+05 -7.757845E+04 -6.624765E+04  5.336720E+04 -3.141223E-10  3.158583E-09
       189  11 -8.363868E+05 -9.657955E+04 -8.867320E+04  5.627604E+04  4.191037E-09 -1.153912E-09
       189  12 -8.959612E+05 -1.340260E+05 -1.320370E+05  7.111317E+04 -3.152302E-10  5.045109E-10
       189  13 -4.588082E+05 -6.428309E+02 -7.739194E+03  5.525498E+04  4.726619E-09  2.975389E-09
       189  14 -4.564138E+05 -5.631351E+03 -1.406905E+04  4.930853E+04  1.775370E-09 -1.457588E-09
       189  15 -4.588278E+05 -2.596944E+04 -2.897419E+04  5.529053E+04 -1.578061E-09  1.198443E-09
       189  16 -1.327990E+05  7.628688E+04  5.076517E+04  5.714374E+04 -1.444980E-09  1.933760E-10
       189  17 -7.630216E+04  8.530831E+04  6.052813E+04  4.233661E+04 -9.043716E-10  2.219779E-09
       189  18 -2.151785E+04  8.207440E+04  7.407555E+04  3.945661E+04  3.773911E-10  3.422435E-10
       189  19 -7.847137E+05 -7.757797E+04 -6.624681E+04  5.336721E+04 -6.877021E+02 -2.105525E+04
       189  20 -8.363860E+05 -9.657899E+04 -8.867129E+04  5.627643E+04 -2.573716E+04 -1.873885E+04
       189  21 -8.959584E+05 -1.340253E+05 -1.320321E+05  7.111341E+04 -5.079706E+04 -5.826075E+03
       189  22 -4.588081E+05 -6.423462E+02 -7.738301E+03  5.525508E+04 -5.632885E+03 -2.106159E+04
       189  23 -4.564135E+05 -5.630930E+03 -1.406808E+04  4.930873E+04 -1.290277E+04 -1.871962E+04
       189  24 -4.588274E+05 -2.596930E+04 -2.897336E+04  5.529063E+04 -2.018552E+04 -5.783544E+03
       189  25 -1.327987E+05  7.628739E+04  5.076621E+04  5.714392E+04 -1.058059E+04 -2.106795E+04
       189  26 -7.630206E+04  8.530868E+04  6.052879E+04  4.233661E+04 -6.067708E+01 -1.870069E+04
       189  27 -2.151773E+04  8.207446E+04  7.407582E+04  3.945656E+04  1.044748E+04 -5.742592E+03
       190   1 -8.505352E+04  7.785324E+04  6.610385E+04  2.984221E+03 -1.846337E+04 -6.330982E+03
       190   2 -1.170655E+05  1.105122E+05  7.728466E+04  8.129246E+03 -1.686313E+04 -1.986028E+04
       190   3 -1.593412E+05  1.028418E+05  7.735988E+04  2.894877E+04 -1.527933E+04 -2.076634E+04
       190   4 -5.708160E+05 -4.285824E+04 -5.181881E+04  2.225640E+04 -3.558678E+04 -6.354332E+03
       190   5 -5.647216E+05  8.130444E+02 -2.350833E+04  1.438657E+04 -2.308849E+04 -1.987059E+04
       190   6 -5.707941E+05  2.245556E+03 -1.388262E+04  2.219233E+04 -1.060629E+04 -2.075958E+04
       190   7 -1.056361E+06 -1.635855E+05 -1.697572E+05  4.151339E+04 -5.269681E+04 -6.378755E+03
       190   8 -1.012191E+06 -1.088997E+05 -1.243139E+05  2.063926E+04 -2.930939E+04 -1.988102E+04
       190   9 -9.820888E+05 -9.836197E+04 -1.051355E+05  1.544036E+04 -5.936310E+03 -2.075293E+04
       190  10 -8.505390E+04  7.785311E+04  6.610313E+04  2.984127E+03 -4.988107E-10  1.530827E-09
       190  11 -1.170659E+05  1.105117E+05  7.728338E+04  8.128976E+03 -5.527676E-10  4.846481E-09
       190  12 -1.593415E+05  1.028413E+05  7.735863E+04  2.894851E+04 -3.465367E-09  8.705499E-11
       190  13 -5.708173E+05 -4.285863E+04 -5.182127E+04  2.225622E+04  3.852821E-10 -2.966828E-10
       190  14 -5.647223E+05  8.124773E+02 -2.351008E+04  1.438620E+04 -1.523567E-09 -1.899101E-10
       190  15 -5.707944E+05  2.245063E+03 -1.388364E+04  2.219215E+04  8.331106E-10  3.660278E-09
       190  16 -1.056364E+06 -1.635863E+05 -1.697625E+05  4.151312E+04  5.469296E-10  1.583917E-10
       190  17 -1.012192E+06 -1.089004E+05 -1.243163E+05  2.063879E+04 -6.372626E-10  4.152367E-09
       190  18 -9.820890E+05 -9.836244E+04 -1.051364E+05  1.544026E+04  1.749468E-09 -1.637700E-09
       190  19 -8.505352E+04  7.785324E+04  6.610385E+04  2.984221E+03  1.846337E+04  6.330982E+03
       190  20 -1.170655E+05  1.105122E+05  7.728466E+04  8.129246E+03  1.686313E+04  1.986028E+04
       190  21 -1.593412E+05  1.028418E+05  7.735988E+04  2.894877E+04  1.527933E+04  2.076634E+04
       190  22 -5.708160E+05 -4.285824E+04 -5.181881E+04  2.225640E+04  3.558678E+04  6.354332E+03
       190  23 -5.647216E+05  8.130444E+02 -2.350833E+04  1.438657E+04  2.308849E+04  1.987059E+04
       190  24 -5.707941E+05  2.245556E+03 -1.388262E+04  2.219233E+04  1.060629E+04  2.075958E+04
       190  25 -1.056361E+06 -1.635855E+05 -1.697572E+05  4.151339E+04  5.269681E+04  6.378755E+03
       190  26 -1.012191E+06 -1.088997E+05 -1.243139E+05  2.063926E+04  2.930939E+04  1.988102E+04
       190  27 -9.820888E+05 -9.836197E+04 -1.051355E+05  1.544036E+04  5.936310E+03  2.075293E+04
       191   1 -1.885041E+05  9.044138E+04  7.359939E+04  2.195800E+04 -9.551404E+03 -1.836239E+04
       191   2 -2.253957E+05  8.386322E+04  7.011033E+04  1.444850E+04 -7.043942E+03 -1.700250E+04
       191   3 -2.632534E+05  7.482958E+04  6.436909E+04  2.326808E+04 -4.538511E+03 -1.507175E+04
       191   4 -5.683211E+05 -2.484847E+03 -1.107375E+04  2.235776E+04 -8.623388E+03 -1.836163E+04
       191   5 -5.677897E+05  1.393038E+02 -5.968464E+03  1.419049E+04 -5.624487E+03 -1.700060E+04
       191   6 -5.683122E+05  2.216630E+02 -3.458020E+03  2.235290E+04 -2.627474E+03 -1.506856E+04
       191   7 -9.480036E+05 -9.542087E+04 -9.575593E+04  2.275722E+04 -7.695933E+03 -1.836087E+04
       191   8 -9.100741E+05 -8.359255E+04 -8.205455E+04  1.393257E+04 -4.205805E+03 -1.699869E+04
       191   9 -8.732842E+05 -7.439256E+04 -7.129092E+04  2.143813E+04 -7.173656E+02 -1.506537E+04
       191  10 -1.885043E+05  9.044100E+04  7.359859E+04  2.195786E+04  1.683349E-09 -3.128547E-09
       191  11 -2.253959E+05  8.386289E+04  7.010969E+04  1.444840E+04 -4.117664E-10 -2.546604E-11
       191  12 -2.632535E+05  7.482933E+04  6.436862E+04  2.326802E+04 -3.577157E-09  5.282520E-09
       191  13 -5.683213E+05 -2.485229E+03 -1.107452E+04  2.235764E+04 -4.346573E-10  8.449422E-09
       191  14 -5.677898E+05  1.389851E+02 -5.969067E+03  1.419041E+04 -1.392912E-09 -9.662994E-09
       191  15 -5.683123E+05  2.214174E+02 -3.458459E+03  2.235286E+04 -3.883544E-09  4.709577E-09
       191  16 -9.480037E+05 -9.542125E+04 -9.575668E+04  2.275711E+04 -2.318688E-09 -4.892805E-09
       191  17 -9.100742E+05 -8.359286E+04 -8.205513E+04  1.393251E+04 -1.960455E-09 -2.892692E-09
       191  18 -8.732843E+05 -7.439280E+04 -7.129134E+04  2.143812E+04  1.688924E-10  9.065245E-10
       191  19 -1.885041E+05  9.044138E+04  7.359939E+04  2.195800E+04  9.551404E+03  1.836239E+04
       191  20 -2.253957E+05  8.386322E+04  7.011033E+04  1.444850E+04  7.043942E+03  1.700250E+04
       191  21 -2.632534E+05  7.482958E+04  6.436909E+04  2.326808E+04  4.538511E+03  1.507175E+04
       191  22 -5.683211E+05 -2.484847E+03 -1.107375E+04  2.235776E+04  8.623388E+03  1.836163E+04
       191  23 -5.677897E+05  1.393038E+02 -5.968464E+03  1.419049E+04  5.624487E+03  1.700060E+04
       191  24 -5.683122E+05  2.216630E+02 -3.458020E+03  2.235290E+04  2.627474E+03  1.506856E+04
       191  25 -9.480036E+05 -9.542087E+04 -9.575593E+04  2.275722E+04  7.695933E+03  1.836087E+04
       191  26 -9.100741E+05 -8.359255E+04 -8.205455E+04  1.393257E+04  4.205805E+03  1.699869E+04
       191  27 -8.732842E+05 -7.439256E+04 -7.129092E+04  2.143813E+04  7.173656E+02  1.506537E+04
       192   1 -2.947341E+05  6.676962E+04  5.794639E+04  2.282486E+04 -3.838571E+03 -1.381545E+04
       192   2 -3.322901E+05  5.771046E+04  5.080838E+04  1.455210E+04 -3.107433E+03 -1.177670E+04
       192   3 -3.700259E+05  4.856269E+04  4.315728E+04  2.275834E+04 -2.377040E+03 -9.708367E+03
       192   4 -5.681150E+05 -5.555486E+01 -2.664504E+03  2.238767E+04 -2.091153E+03 -1.381238E+04
       192   5 -5.680197E+05  7.199198E+01 -1.532655E+03  1.414782E+04 -1.334805E+03 -1.177332E+04
       192   6 -5.681096E+05  1.067037E+02 -9.314070E+02  2.238734E+04 -5.791570E+02 -9.704681E+03
       192   7 -8.414261E+05 -6.688578E+04 -6.328003E+04  2.195064E+04 -3.444971E+02 -1.380931E+04
       192   8 -8.036975E+05 -5.757024E+04 -5.387714E+04  1.374366E+04  4.371577E+02 -1.176995E+04
       192   9 -7.661566E+05 -4.835195E+04 -4.502254E+04  2.201644E+04  1.218158E+03 -9.700996E+03
       192  10 -2.947342E+05  6.676941E+04  5.794600E+04  2.282482E+04 -7.149284E-10 -2.947433E-09
       192  11 -3.322901E+05  5.771031E+04  5.080811E+04  1.455207E+04  3.880659E-09 -3.578793E-09
       192  12 -3.700260E+05  4.856259E+04  4.315710E+04  2.275832E+04 -4.904115E-09 -1.530367E-09
       192  13 -5.681151E+05 -5.576084E+01 -2.664870E+03  2.238765E+04 -2.176761E-09 -1.527698E-09
       192  14 -5.680198E+05  7.184269E+01 -1.532918E+03  1.414780E+04 -1.419359E-09 -3.489318E-09
       192  15 -5.681096E+05  1.066025E+02 -9.315846E+02  2.238733E+04  1.467313E-09 -1.879190E-09
       192  16 -8.414261E+05 -6.688598E+04 -6.328038E+04  2.195064E+04 -2.605113E-09 -4.815953E-09
       192  17 -8.036975E+05 -5.757039E+04 -5.387740E+04  1.374366E+04 -1.661977E-09  2.692478E-09
       192  18 -7.661567E+05 -4.835205E+04 -4.502272E+04  2.201645E+04  3.154739E-09  7.454912E-09
       192  19 -2.947341E+05  6.676962E+04  5.794639E+04  2.282486E+04  3.838571E+03  1.381545E+04
       192  20 -3.322901E+05  5.771046E+04  5.080838E+04  1.455210E+04  3.107433E+03  1.177670E+04
       192  21 -3.700259E+05  4.856269E+04  4.315728E+04  2.275834E+04  2.377040E+03  9.708367E+03
       192  22 -5.681150E+05 -5.555486E+01 -2.664504E+03  2.238767E+04  2.091153E+03  1.381238E+04
       192  23 -5.680197E+05  7.199198E+01 -1.532655E+03  1.414782E+04  1.334805E+03  1.177332E+04
       192  24 -5.681096E+05  1.067037E+02 -9.314070E+02  2.238734E+04  5.791570E+02  9.704681E+03
       192  25 -8.414261E+05 -6.688578E+04 -6.328003E+04  2.195064E+04  3.444971E+02  1.380931E+04
       192  26 -8.036975E+05 -5.757024E+04 -5.387714E+04  1.374366E+04 -4.371577E+02  1.176995E+04
       192  27 -7.661566E+05 -4.835195E+04 -4.502254E+04  2.201644E+04 -1.218158E+03  9.700996E+03
       193   1 -4.018645E+05  4.071686E+04  3.604953E+04  2.269831E+04 -2.223107E+03 -8.497042E+03
       193   2 -4.396344E+05  3.146734E+04  2.795977E+04  1.434986E+04 -1.958279E+03 -6.418502E+03
       193   3 -4.775078E+05  2.227942E+04  1.969297E+04  2.255748E+04 -1.693834E+03 -4.336529E+03
       193   4 -5.680892E+05  9.294158E+01 -7.522838E+02  2.240453E+04 -4.300527E+02 -8.493241E+03
       193   5 -5.680351E+05  7.019173E+01 -5.505425E+02  1.412638E+04 -1.623699E+02 -6.414556E+03
       193   6 -5.680864E+05  1.086244E+02 -5.278144E+02  2.240450E+04  1.049463E+02 -4.332433E+03
       193   7 -7.342881E+05 -4.053284E+04 -3.755579E+04  2.211082E+04  1.362527E+03 -8.489441E+03
       193   8 -6.964204E+05 -3.132807E+04 -2.906187E+04  1.390294E+04  1.633172E+03 -6.410611E+03
       193   9 -6.586573E+05 -2.206273E+04 -2.074911E+04  2.225154E+04  1.903466E+03 -4.328337E+03
       193  10 -4.018645E+05  4.071678E+04  3.604938E+04  2.269829E+04  6.141588E-10 -5.285991E-09
       193  11 -4.396344E+05  3.146729E+04  2.795969E+04  1.434985E+04 -2.090189E-09 -1.157751E-09
       193  12 -4.775078E+05  2.227940E+04  1.969293E+04  2.255747E+04 -7.448826E-09  9.815958E-10
       193  13 -5.680892E+05  9.286409E+01 -7.524197E+02  2.240453E+04 -2.946990E-11  1.967587E-09
       193  14 -5.680351E+05  7.014755E+01 -5.506199E+02  1.412638E+04  1.972712E-09 -5.706934E-09
       193  15 -5.680864E+05  1.086042E+02 -5.278497E+02  2.240450E+04  9.735374E-10 -3.470962E-09
       193  16 -7.342881E+05 -4.053292E+04 -3.755593E+04  2.211083E+04 -2.889787E-09  3.087459E-09
       193  17 -6.964204E+05 -3.132811E+04 -2.906195E+04  1.390295E+04 -1.476930E-10  5.072450E-09
       193  18 -6.586573E+05 -2.206275E+04 -2.074915E+04  2.225155E+04  7.658554E-09  2.921120E-09
       193  19 -4.018645E+05  4.071686E+04  3.604953E+04  2.269831E+04  2.223107E+03  8.497042E+03
       193  20 -4.396344E+05  3.146734E+04  2.795977E+04  1.434986E+04  1.958279E+03  6.418502E+03
       193  21 -4.775078E+05  2.227942E+04  1.969297E+04  2.255748E+04  1.693834E+03  4.336529E+03
       193  22 -5.680892E+05  9.294158E+01 -7.522838E+02  2.240453E+04  4.300527E+02  8.493241E+03
       193  23 -5.680351E+05  7.019173E+01 -5.505425E+02  1.412638E+04  1.623699E+02  6.414556E+03
       193  24 -5.680864E+05  1.086244E+02 -5.278144E+02  2.240450E+04 -1.049463E+02  4.332433E+03
       193  25 -7.342881E+05 -4.053284E+04 -3.755579E+04  2.211082E+04 -1.362527E+03  8.489441E+03
       193  26 -6.964204E+05 -3.132807E+04 -2.906187E+04  1.390294E+04 -1.633172E+03  6.410611E+03
       193  27 -6.586573E+05 -2.206273E+04 -2.074911E+04  2.225154E+04 -1.903466E+03  4.328337E+03
       194   1 -5.094738E+05  1.442149E+04  1.233032E+04  2.250324E+04 -1.597484E+03 -3.123440E+03
       194   2 -5.472996E+05  5.147154E+03  3.782662E+03  1.412799E+04 -1.196862E+03 -1.038311E+03
       194   3 -5.852575E+05 -4.074146E+03 -5.034787E+03  2.234055E+04 -7.963266E+02  1.046472E+03
       194   4 -5.680916E+05  1.089772E+02 -5.781423E+02  2.241151E+04  2.022814E+02 -3.119290E+03
       194   5 -5.680245E+05  7.925657E+01 -8.192863E+02  1.411760E+04  6.025290E+02 -1.034141E+03
       194   6 -5.680913E+05  1.025849E+02 -1.330060E+03  2.241153E+04  1.002713E+03  1.050666E+03
       194   7 -6.267062E+05 -1.420377E+04 -1.348680E+04  2.231980E+04  2.001879E+03 -3.115140E+03
       194   8 -5.887489E+05 -4.988669E+03 -5.421249E+03  1.410722E+04  2.401860E+03 -1.029972E+03
       194   9 -5.509248E+05  4.279298E+03  2.374661E+03  2.248251E+04  2.801802E+03  1.054860E+03
       194  10 -5.094738E+05  1.442148E+04  1.233029E+04  2.250323E+04 -4.268137E-10 -6.447484E-10
       194  11 -5.472996E+05  5.147153E+03  3.782657E+03  1.412799E+04  5.258065E-10 -5.818816E-09
       194  12 -5.852575E+05 -4.074147E+03 -5.034790E+03  2.234055E+04 -6.459431E-09 -1.218480E-09
       194  13 -5.680916E+05  1.089668E+02 -5.781607E+02  2.241151E+04 -3.995222E-10  7.247968E-09
       194  14 -5.680245E+05  7.925533E+01 -8.192890E+02  1.411760E+04 -6.085239E-10 -2.579978E-09
       194  15 -5.680913E+05  1.025834E+02 -1.330064E+03  2.241153E+04 -2.351848E-11 -1.668354E-09
       194  16 -6.267062E+05 -1.420378E+04 -1.348683E+04  2.231980E+04  1.803390E-09  3.675252E-09
       194  17 -5.887489E+05 -4.988671E+03 -5.421262E+03  1.410722E+04 -1.504792E-09 -1.090139E-08
       194  18 -5.509248E+05  4.279294E+03  2.374644E+03  2.248251E+04  3.966455E-09 -3.917123E-09
       194  19 -5.094738E+05  1.442149E+04  1.233032E+04  2.250324E+04  1.597484E+03  3.123440E+03
       194  20 -5.472996E+05  5.147154E+03  3.782662E+03  1.412799E+04  1.196862E+03  1.038311E+03
       194  21 -5.852575E+05 -4.074146E+03 -5.034787E+03  2.234055E+04  7.963266E+02 -1.046472E+03
       194  22 -5.680916E+05  1.089772E+02 -5.781423E+02  2.241151E+04 -2.022814E+02  3.119290E+03
       194  23 -5.680245E+05  7.925657E+01 -8.192863E+02  1.411760E+04 -6.025290E+02  1.034141E+03
       194  24 -5.680913E+05  1.025849E+02 -1.330060E+03  2.241153E+04 -1.002713E+03 -1.050666E+03
       194  25 -6.267062E+05 -1.420377E+04 -1.348680E+04  2.231980E+04 -2.001879E+03  3.115140E+03
       194  26 -5.887489E+05 -4.988669E+03 -5.421249E+03  1.410722E+04 -2.401860E+03  1.029972E+03
       194  27 -5.509248E+05  4.279298E+03  2.374661E+03  2.248251E+04 -2.801802E+03 -1.054860E+03
       195   1 -6.172799E+05 -1.190950E+04 -1.274233E+04  2.222537E+04 -5.290266E+02  2.262216E+03
       195   2 -6.549651E+05 -2.116768E+04 -2.227130E+04  1.389821E+04  9.459398E+02  4.345174E+03
       195   3 -6.929951E+05 -3.067554E+04 -3.284517E+04  2.214373E+04  2.421123E+03  6.408653E+03
       195   4 -5.681382E+05  1.302828E+02 -1.721737E+03  2.240792E+04  1.274799E+03  2.266398E+03
       195   5 -5.679681E+05  1.088004E+02 -2.949811E+03  1.412199E+04  2.733103E+03  4.349219E+03
       195   6 -5.681406E+05 -1.591693E+02 -5.210840E+03  2.240859E+04  4.191713E+03  6.412569E+03
       195   7 -5.189942E+05  1.216990E+04  9.298716E+03  2.259048E+04  3.078765E+03  2.270581E+03
       195   8 -4.809640E+05  2.138477E+04  1.637122E+04  1.434579E+04  4.520514E+03  4.353266E+03
       195   9 -4.432716E+05  3.035615E+04  2.242253E+04  2.267349E+04  5.962654E+03  6.416486E+03
       195  10 -6.172799E+05 -1.190950E+04 -1.274234E+04  2.222537E+04 -6.541551E-09  3.572903E-10
       195  11 -6.549651E+05 -2.116770E+04 -2.227134E+04  1.389821E+04  2.951509E-09 -6.384128E-09
       195  12 -6.929951E+05 -3.067558E+04 -3.284526E+04  2.214372E+04  1.880452E-09  3.566885E-10
       195  13 -5.681382E+05  1.302768E+02 -1.721750E+03  2.240791E+04 -2.144551E-09 -2.167859E-10
       195  14 -5.679681E+05  1.087780E+02 -2.949860E+03  1.412198E+04 -1.686855E-09  2.787519E-09
       195  15 -5.681407E+05 -1.592181E+02 -5.210950E+03  2.240857E+04  7.084507E-10  1.292658E-09
       195  16 -5.189942E+05  1.216989E+04  9.298689E+03  2.259047E+04  1.330379E-09  4.734366E-09
       195  17 -4.809641E+05  2.138474E+04  1.637115E+04  1.434577E+04 -3.086603E-09 -3.432825E-09
       195  18 -4.432717E+05  3.035609E+04  2.242239E+04  2.267346E+04 -3.214066E-09  3.439886E-09
       195  19 -6.172799E+05 -1.190950E+04 -1.274233E+04  2.222537E+04  5.290266E+02 -2.262216E+03
       195  20 -6.549651E+05 -2.116768E+04 -2.227130E+04  1.389821E+04 -9.459398E+02 -4.345174E+03
       195  21 -6.929951E+05 -3.067554E+04 -3.284517E+04  2.214373E+04 -2.421123E+03 -6.408653E+03
       195  22 -5.681382E+05  1.302828E+02 -1.721737E+03  2.240792E+04 -1.274799E+03 -2.266398E+03
       195  23 -5.679681E+05  1.088004E+02 -2.949811E+03  1.412199E+04 -2.733103E+03 -4.349219E+03
       195  24 -5.681406E+05 -1.591693E+02 -5.210840E+03  2.240859E+04 -4.191713E+03 -6.412569E+03
       195  25 -5.189942E+05  1.216990E+04  9.298716E+03  2.259048E+04 -3.078765E+03 -2.270581E+03
       195  26 -4.809640E+05  2.138477E+04  1.637122E+04  1.434579E+04 -4.520514E+03 -4.353266E+03
       195  27 -4.432716E+05  3.035615E+04  2.242253E+04  2.267349E+04 -5.962654E+03 -6.416486E+03
       196   1 -7.252938E+05 -3.797482E+04 -4.170098E+04  2.120414E+04  3.356831E+03  7.659601E+03
       196   2 -7.619382E+05 -4.729208E+04 -5.496272E+04  1.423931E+04  9.598609E+03  9.656904E+03
       196   3 -8.007510E+05 -6.173654E+04 -7.359092E+04  2.377757E+04  1.584132E+04  1.125035E+04
       196   4 -5.685349E+05  3.885591E+02 -6.785585E+03  2.238961E+04  5.244263E+03  7.663686E+03
       196   5 -5.674844E+05  2.725553E+02 -1.173292E+04  1.414387E+04  1.113907E+04  9.660006E+03
       196   6 -5.685422E+05 -4.909226E+03 -2.180417E+04  2.240098E+04  1.703519E+04  1.125251E+04
       196   7 -4.117531E+05  3.875028E+04  2.812829E+04  2.357538E+04  7.132166E+03  7.667777E+03
       196   8 -3.729951E+05  4.783463E+04  3.149454E+04  1.404839E+04  1.268001E+04  9.663108E+03
       196   9 -3.362830E+05  5.191443E+04  2.997919E+04  2.102385E+04  1.822950E+04  1.125466E+04
       196  10 -7.252939E+05 -3.797489E+04 -4.170112E+04  2.120412E+04  6.169811E-09 -1.402303E-09
       196  11 -7.619384E+05 -4.729220E+04 -5.496307E+04  1.423923E+04  3.093378E-09 -1.446807E-09
       196  12 -8.007513E+05 -6.173674E+04 -7.359163E+04  2.377742E+04 -2.657341E-09 -4.273652E-09
       196  13 -5.685350E+05  3.884886E+02 -6.785747E+03  2.238958E+04  4.044292E-10 -9.799283E-09
       196  14 -5.674845E+05  2.724218E+02 -1.173333E+04  1.414379E+04  2.043794E-09  1.590736E-09
       196  15 -5.685425E+05 -4.909440E+03 -2.180496E+04  2.240083E+04  4.345235E-10 -7.325573E-10
       196  16 -4.117532E+05  3.875020E+04  2.812808E+04  2.357533E+04 -6.563382E-09 -2.100214E-09
       196  17 -3.729953E+05  4.783448E+04  3.149406E+04  1.404829E+04 -4.747626E-09 -9.778014E-09
       196  18 -3.362834E+05  5.191421E+04  2.997833E+04  2.102368E+04  3.644748E-09  2.009283E-09
       196  19 -7.252938E+05 -3.797482E+04 -4.170098E+04  2.120414E+04 -3.356831E+03 -7.659601E+03
       196  20 -7.619382E+05 -4.729208E+04 -5.496272E+04  1.423931E+04 -9.598609E+03 -9.656904E+03
       196  21 -8.007510E+05 -6.173654E+04 -7.359092E+04  2.377757E+04 -1.584132E+04 -1.125035E+04
       196  22 -5.685349E+05  3.885591E+02 -6.785585E+03  2.238961E+04 -5.244263E+03 -7.663686E+03
       196  23 -5.674844E+05  2.725553E+02 -1.173292E+04  1.414387E+04 -1.113907E+04 -9.660006E+03
       196  24 -5.685422E+05 -4.909226E+03 -2.180417E+04  2.240098E+04 -1.703519E+04 -1.125251E+04
       196  25 -4.117531E+05  3.875028E+04  2.812829E+04  2.357538E+04 -7.132166E+03 -7.667777E+03
       196  26 -3.729951E+05  4.783463E+04  3.149454E+04  1.404839E+04 -1.268001E+04 -9.663108E+03
       196  27 -3.362830E+05  5.191443E+04  2.997919E+04  2.102385E+04 -1.822950E+04 -1.125466E+04
       197   1 -8.375054E+05 -6.022650E+04 -8.596171E+04  9.542145E+03  1.709646E+04  1.331045E+04
       197   2 -8.624694E+05 -7.213618E+04 -1.141482E+05  2.713969E+04  4.938628E+04  1.335166E+04
       197   3 -9.128574E+05 -1.687065E+05 -1.845498E+05  6.086280E+04  8.168960E+04  4.443892E+03
       197   4 -5.734224E+05  4.417148E+03 -2.734189E+04  2.226584E+04  2.094402E+04  1.331826E+04
       197   5 -5.614010E+05  1.637262E+03 -4.628751E+04  1.428649E+04  4.551867E+04  1.334266E+04
       197   6 -5.734530E+05 -8.444270E+04 -1.020739E+05  2.243482E+04  7.010933E+04  4.417364E+03
       197   7 -3.092739E+05  6.905667E+04  3.127373E+04  3.499499E+04  2.479319E+04  1.332622E+04
       197   8 -2.602478E+05  7.540513E+04  2.156756E+04  1.426950E+03  4.164920E+04  1.333382E+04
       197   9 -2.339397E+05 -1.816902E+02 -1.960500E+04 -1.601430E+04  5.852272E+04  4.392281E+03
       197  10 -8.375057E+05 -6.022677E+04 -8.596259E+04  9.541961E+03  1.317094E-09 -3.052197E-09
       197  11 -8.624721E+05 -7.213703E+04 -1.141531E+05  2.713916E+04  6.313605E-09 -1.524791E-09
       197  12 -9.128646E+05 -1.687083E+05 -1.845624E+05  6.086251E+04  2.650853E-09  4.147062E-09
       197  13 -5.734229E+05  4.416840E+03 -2.734305E+04  2.226562E+04 -1.099554E-11 -8.747747E-10
       197  14 -5.614033E+05  1.636514E+03 -4.629174E+04  1.428600E+04 -4.826428E-09  3.892697E-09
       197  15 -5.734583E+05 -8.444404E+04 -1.020832E+05  2.243457E+04 -2.816139E-09  4.121108E-09
       197  16 -3.092746E+05  6.905632E+04  3.127224E+04  3.499472E+04 -1.749127E-09  4.086841E-09
       197  17 -2.602497E+05  7.540448E+04  2.156396E+04  1.426503E+03 -6.642786E-09  4.119615E-09
       197  18 -2.339434E+05 -1.826308E+02 -1.961147E+04 -1.601451E+04 -4.615802E-09  3.947597E-09
       197  19 -8.375054E+05 -6.022650E+04 -8.596171E+04  9.542145E+03 -1.709646E+04 -1.331045E+04
       197  20 -8.624694E+05 -7.213618E+04 -1.141482E+05  2.713969E+04 -4.938628E+04 -1.335166E+04
       197  21 -9.128574E+05 -1.687065E+05 -1.845498E+05  6.086280E+04 -8.168960E+04 -4.443892E+03
       197  22 -5.734224E+05  4.417148E+03 -2.734189E+04  2.226584E+04 -2.094402E+04 -1.331826E+04
       197  23 -5.614010E+05  1.637262E+03 -4.628751E+04  1.428649E+04 -4.551867E+04 -1.334266E+04
       197  24 -5.734530E+05 -8.444270E+04 -1.020739E+05  2.243482E+04 -7.010933E+04 -4.417364E+03
       197  25 -3.092739E+05  6.905667E+04  3.127373E+04  3.499499E+04 -2.479319E+04 -1.332622E+04
       197  26 -2.602478E+05  7.540513E+04  2.156756E+04  1.426950E+03 -4.164920E+04 -1.333382E+04
       197  27 -2.339397E+05 -1.816902E+02 -1.960500E+04 -1.601430E+04 -5.852272E+04 -4.392281E+03
