    1C
    1UUSER                                                              
    1UDATE              11.october.2022                                 
    1UTIME              17:33:30                                        
    1UHOST                                                              
    1UPGM               CalculiX                                        
    1UVERSION           Version 2.20                             
    1UCOMPILETIME       Sun Jul 31 18:08:37 CEST 2022                    
    1UDIR                                                               
    1UDBN                                                               
    1UMAT    1MESH_MATERIAL                                             
    2C                           841                                     1
 -1         1 0.00000E+00 0.00000E+00 0.00000E+00
 -1         2 1.66667E-02 0.00000E+00 0.00000E+00
 -1         3 3.33333E-02 0.00000E+00 0.00000E+00
 -1         4 5.00000E-02 0.00000E+00 0.00000E+00
 -1         5 6.66667E-02 0.00000E+00 0.00000E+00
 -1         8 0.00000E+00 6.25000E-03 0.00000E+00
 -1         9 1.66667E-02 6.25000E-03 0.00000E+00
 -1        10 3.33333E-02 6.25000E-03 0.00000E+00
 -1        11 5.00000E-02 6.25000E-03 0.00000E+00
 -1        12 6.66667E-02 6.25000E-03 0.00000E+00
 -1        15 0.00000E+00 1.25000E-02 0.00000E+00
 -1        16 1.66667E-02 1.25000E-02 0.00000E+00
 -1        17 3.33333E-02 1.25000E-02 0.00000E+00
 -1        18 5.00000E-02 1.25000E-02 0.00000E+00
 -1        19 6.66667E-02 1.25000E-02 0.00000E+00
 -1        20 8.33333E-02 1.25000E-02 0.00000E+00
 -1        21 1.00000E-01 1.25000E-02 0.00000E+00
 -1        22 0.00000E+00 1.87500E-02 0.00000E+00
 -1        23 1.66667E-02 1.87500E-02 0.00000E+00
 -1        24 3.33333E-02 1.87500E-02 0.00000E+00
 -1        25 5.00000E-02 1.87500E-02 0.00000E+00
 -1        26 6.66667E-02 1.87500E-02 0.00000E+00
 -1        27 8.33333E-02 1.87500E-02 0.00000E+00
 -1        28 1.00000E-01 1.87500E-02 0.00000E+00
 -1        29 0.00000E+00 2.50000E-02 0.00000E+00
 -1        30 1.66667E-02 2.50000E-02 0.00000E+00
 -1        31 3.33333E-02 2.50000E-02 0.00000E+00
 -1        32 5.00000E-02 2.50000E-02 0.00000E+00
 -1        33 6.66667E-02 2.50000E-02 0.00000E+00
 -1        34 8.33333E-02 2.50000E-02 0.00000E+00
 -1        35 1.00000E-01 2.50000E-02 0.00000E+00
 -1        36 1.04167E-03 0.00000E+00 0.00000E+00
 -1        37 2.08333E-03 0.00000E+00 0.00000E+00
 -1        38 3.12500E-03 0.00000E+00 0.00000E+00
 -1        39 4.16667E-03 0.00000E+00 0.00000E+00
 -1        40 5.20833E-03 0.00000E+00 0.00000E+00
 -1        41 6.25000E-03 0.00000E+00 0.00000E+00
 -1        42 7.29167E-03 0.00000E+00 0.00000E+00
 -1        43 8.33333E-03 0.00000E+00 0.00000E+00
 -1        44 9.37500E-03 0.00000E+00 0.00000E+00
 -1        45 1.04167E-02 0.00000E+00 0.00000E+00
 -1        46 1.14583E-02 0.00000E+00 0.00000E+00
 -1        47 1.25000E-02 0.00000E+00 0.00000E+00
 -1        48 1.35417E-02 0.00000E+00 0.00000E+00
 -1        49 1.45833E-02 0.00000E+00 0.00000E+00
 -1        50 1.56250E-02 0.00000E+00 0.00000E+00
 -1        51 0.00000E+00 1.04167E-03 0.00000E+00
 -1        52 0.00000E+00 2.08333E-03 0.00000E+00
 -1        53 0.00000E+00 3.12500E-03 0.00000E+00
 -1        54 0.00000E+00 4.16667E-03 0.00000E+00
 -1        55 0.00000E+00 5.20833E-03 0.00000E+00
 -1        56 1.04167E-03 3.90630E-04 0.00000E+00
 -1        57 2.08333E-03 7.81250E-04 0.00000E+00
 -1        58 3.12500E-03 1.17188E-03 0.00000E+00
 -1        59 4.16667E-03 1.56250E-03 0.00000E+00
 -1        60 5.20833E-03 1.95312E-03 0.00000E+00
 -1        61 6.25000E-03 2.34375E-03 0.00000E+00
 -1        62 7.29167E-03 2.73438E-03 0.00000E+00
 -1        63 8.33333E-03 3.12500E-03 0.00000E+00
 -1        64 9.37500E-03 3.51563E-03 0.00000E+00
 -1        65 1.04167E-02 3.90625E-03 0.00000E+00
 -1        66 1.14583E-02 4.29688E-03 0.00000E+00
 -1        67 1.25000E-02 4.68750E-03 0.00000E+00
 -1        68 1.35417E-02 5.07813E-03 0.00000E+00
 -1        69 1.45833E-02 5.46875E-03 0.00000E+00
 -1        70 1.56250E-02 5.85938E-03 0.00000E+00
 -1        71 1.77083E-02 0.00000E+00 0.00000E+00
 -1        72 1.87500E-02 0.00000E+00 0.00000E+00
 -1        73 1.97917E-02 0.00000E+00 0.00000E+00
 -1        74 2.08333E-02 0.00000E+00 0.00000E+00
 -1        75 2.18750E-02 0.00000E+00 0.00000E+00
 -1        76 2.29167E-02 0.00000E+00 0.00000E+00
 -1        77 2.39583E-02 0.00000E+00 0.00000E+00
 -1        78 2.50000E-02 0.00000E+00 0.00000E+00
 -1        79 2.60417E-02 0.00000E+00 0.00000E+00
 -1        80 2.70833E-02 0.00000E+00 0.00000E+00
 -1        81 2.81250E-02 0.00000E+00 0.00000E+00
 -1        82 2.91667E-02 0.00000E+00 0.00000E+00
 -1        83 3.02083E-02 0.00000E+00 0.00000E+00
 -1        84 3.12500E-02 0.00000E+00 0.00000E+00
 -1        85 3.22917E-02 0.00000E+00 0.00000E+00
 -1        86 1.66667E-02 1.04167E-03 0.00000E+00
 -1        87 1.66667E-02 2.08333E-03 0.00000E+00
 -1        88 1.66667E-02 3.12500E-03 0.00000E+00
 -1        89 1.66667E-02 4.16667E-03 0.00000E+00
 -1        90 1.66667E-02 5.20833E-03 0.00000E+00
 -1        91 1.77083E-02 3.90630E-04 0.00000E+00
 -1        92 1.87500E-02 7.81250E-04 0.00000E+00
 -1        93 1.97917E-02 1.17188E-03 0.00000E+00
 -1        94 2.08333E-02 1.56250E-03 0.00000E+00
 -1        95 2.18750E-02 1.95312E-03 0.00000E+00
 -1        96 2.29167E-02 2.34375E-03 0.00000E+00
 -1        97 2.39583E-02 2.73438E-03 0.00000E+00
 -1        98 2.50000E-02 3.12500E-03 0.00000E+00
 -1        99 2.60417E-02 3.51563E-03 0.00000E+00
 -1       100 2.70833E-02 3.90625E-03 0.00000E+00
 -1       101 2.81250E-02 4.29688E-03 0.00000E+00
 -1       102 2.91667E-02 4.68750E-03 0.00000E+00
 -1       103 3.02083E-02 5.07813E-03 0.00000E+00
 -1       104 3.12500E-02 5.46875E-03 0.00000E+00
 -1       105 3.22917E-02 5.85938E-03 0.00000E+00
 -1       106 3.43750E-02 0.00000E+00 0.00000E+00
 -1       107 3.54167E-02 0.00000E+00 0.00000E+00
 -1       108 3.64583E-02 0.00000E+00 0.00000E+00
 -1       109 3.75000E-02 0.00000E+00 0.00000E+00
 -1       110 3.85417E-02 0.00000E+00 0.00000E+00
 -1       111 3.95833E-02 0.00000E+00 0.00000E+00
 -1       112 4.06250E-02 0.00000E+00 0.00000E+00
 -1       113 4.16667E-02 0.00000E+00 0.00000E+00
 -1       114 4.27083E-02 0.00000E+00 0.00000E+00
 -1       115 4.37500E-02 0.00000E+00 0.00000E+00
 -1       116 4.47917E-02 0.00000E+00 0.00000E+00
 -1       117 4.58333E-02 0.00000E+00 0.00000E+00
 -1       118 4.68750E-02 0.00000E+00 0.00000E+00
 -1       119 4.79167E-02 0.00000E+00 0.00000E+00
 -1       120 4.89583E-02 0.00000E+00 0.00000E+00
 -1       121 3.33333E-02 1.04167E-03 0.00000E+00
 -1       122 3.33333E-02 2.08333E-03 0.00000E+00
 -1       123 3.33333E-02 3.12500E-03 0.00000E+00
 -1       124 3.33333E-02 4.16667E-03 0.00000E+00
 -1       125 3.33333E-02 5.20833E-03 0.00000E+00
 -1       126 3.43750E-02 3.90630E-04 0.00000E+00
 -1       127 3.54167E-02 7.81250E-04 0.00000E+00
 -1       128 3.64583E-02 1.17188E-03 0.00000E+00
 -1       129 3.75000E-02 1.56250E-03 0.00000E+00
 -1       130 3.85417E-02 1.95312E-03 0.00000E+00
 -1       131 3.95833E-02 2.34375E-03 0.00000E+00
 -1       132 4.06250E-02 2.73438E-03 0.00000E+00
 -1       133 4.16667E-02 3.12500E-03 0.00000E+00
 -1       134 4.27083E-02 3.51563E-03 0.00000E+00
 -1       135 4.37500E-02 3.90625E-03 0.00000E+00
 -1       136 4.47917E-02 4.29688E-03 0.00000E+00
 -1       137 4.58333E-02 4.68750E-03 0.00000E+00
 -1       138 4.68750E-02 5.07813E-03 0.00000E+00
 -1       139 4.79167E-02 5.46875E-03 0.00000E+00
 -1       140 4.89583E-02 5.85938E-03 0.00000E+00
 -1       141 5.10417E-02 0.00000E+00 0.00000E+00
 -1       142 5.20833E-02 0.00000E+00 0.00000E+00
 -1       143 5.31250E-02 0.00000E+00 0.00000E+00
 -1       144 5.41667E-02 0.00000E+00 0.00000E+00
 -1       145 5.52083E-02 0.00000E+00 0.00000E+00
 -1       146 5.62500E-02 0.00000E+00 0.00000E+00
 -1       147 5.72917E-02 0.00000E+00 0.00000E+00
 -1       148 5.83333E-02 0.00000E+00 0.00000E+00
 -1       149 5.93750E-02 0.00000E+00 0.00000E+00
 -1       150 6.04167E-02 0.00000E+00 0.00000E+00
 -1       151 6.14583E-02 0.00000E+00 0.00000E+00
 -1       152 6.25000E-02 0.00000E+00 0.00000E+00
 -1       153 6.35417E-02 0.00000E+00 0.00000E+00
 -1       154 6.45833E-02 0.00000E+00 0.00000E+00
 -1       155 6.56250E-02 0.00000E+00 0.00000E+00
 -1       156 5.00000E-02 1.04167E-03 0.00000E+00
 -1       157 5.00000E-02 2.08333E-03 0.00000E+00
 -1       158 5.00000E-02 3.12500E-03 0.00000E+00
 -1       159 5.00000E-02 4.16667E-03 0.00000E+00
 -1       160 5.00000E-02 5.20833E-03 0.00000E+00
 -1       161 5.10417E-02 3.90630E-04 0.00000E+00
 -1       162 5.20833E-02 7.81250E-04 0.00000E+00
 -1       163 5.31250E-02 1.17188E-03 0.00000E+00
 -1       164 5.41667E-02 1.56250E-03 0.00000E+00
 -1       165 5.52083E-02 1.95312E-03 0.00000E+00
 -1       166 5.62500E-02 2.34375E-03 0.00000E+00
 -1       167 5.72917E-02 2.73438E-03 0.00000E+00
 -1       168 5.83333E-02 3.12500E-03 0.00000E+00
 -1       169 5.93750E-02 3.51563E-03 0.00000E+00
 -1       170 6.04167E-02 3.90625E-03 0.00000E+00
 -1       171 6.14583E-02 4.29688E-03 0.00000E+00
 -1       172 6.25000E-02 4.68750E-03 0.00000E+00
 -1       173 6.35417E-02 5.07813E-03 0.00000E+00
 -1       174 6.45833E-02 5.46875E-03 0.00000E+00
 -1       175 6.56250E-02 5.85938E-03 0.00000E+00
 -1       191 6.66667E-02 1.04167E-03 0.00000E+00
 -1       192 6.66667E-02 2.08333E-03 0.00000E+00
 -1       193 6.66667E-02 3.12500E-03 0.00000E+00
 -1       194 6.66667E-02 4.16667E-03 0.00000E+00
 -1       195 6.66667E-02 5.20833E-03 0.00000E+00
 -1       251 1.04167E-03 6.25000E-03 0.00000E+00
 -1       252 2.08333E-03 6.25000E-03 0.00000E+00
 -1       253 3.12500E-03 6.25000E-03 0.00000E+00
 -1       254 4.16667E-03 6.25000E-03 0.00000E+00
 -1       255 5.20833E-03 6.25000E-03 0.00000E+00
 -1       256 6.25000E-03 6.25000E-03 0.00000E+00
 -1       257 7.29167E-03 6.25000E-03 0.00000E+00
 -1       258 8.33333E-03 6.25000E-03 0.00000E+00
 -1       259 9.37500E-03 6.25000E-03 0.00000E+00
 -1       260 1.04167E-02 6.25000E-03 0.00000E+00
 -1       261 1.14583E-02 6.25000E-03 0.00000E+00
 -1       262 1.25000E-02 6.25000E-03 0.00000E+00
 -1       263 1.35417E-02 6.25000E-03 0.00000E+00
 -1       264 1.45833E-02 6.25000E-03 0.00000E+00
 -1       265 1.56250E-02 6.25000E-03 0.00000E+00
 -1       266 0.00000E+00 7.29167E-03 0.00000E+00
 -1       267 0.00000E+00 8.33333E-03 0.00000E+00
 -1       268 0.00000E+00 9.37500E-03 0.00000E+00
 -1       269 0.00000E+00 1.04167E-02 0.00000E+00
 -1       270 0.00000E+00 1.14583E-02 0.00000E+00
 -1       271 1.04167E-03 6.64063E-03 0.00000E+00
 -1       272 2.08333E-03 7.03125E-03 0.00000E+00
 -1       273 3.12500E-03 7.42188E-03 0.00000E+00
 -1       274 4.16667E-03 7.81250E-03 0.00000E+00
 -1       275 5.20833E-03 8.20313E-03 0.00000E+00
 -1       276 6.25000E-03 8.59375E-03 0.00000E+00
 -1       277 7.29167E-03 8.98438E-03 0.00000E+00
 -1       278 8.33333E-03 9.37500E-03 0.00000E+00
 -1       279 9.37500E-03 9.76562E-03 0.00000E+00
 -1       280 1.04167E-02 1.01562E-02 0.00000E+00
 -1       281 1.14583E-02 1.05469E-02 0.00000E+00
 -1       282 1.25000E-02 1.09375E-02 0.00000E+00
 -1       283 1.35417E-02 1.13281E-02 0.00000E+00
 -1       284 1.45833E-02 1.17188E-02 0.00000E+00
 -1       285 1.56250E-02 1.21094E-02 0.00000E+00
 -1       286 1.77083E-02 6.25000E-03 0.00000E+00
 -1       287 1.87500E-02 6.25000E-03 0.00000E+00
 -1       288 1.97917E-02 6.25000E-03 0.00000E+00
 -1       289 2.08333E-02 6.25000E-03 0.00000E+00
 -1       290 2.18750E-02 6.25000E-03 0.00000E+00
 -1       291 2.29167E-02 6.25000E-03 0.00000E+00
 -1       292 2.39583E-02 6.25000E-03 0.00000E+00
 -1       293 2.50000E-02 6.25000E-03 0.00000E+00
 -1       294 2.60417E-02 6.25000E-03 0.00000E+00
 -1       295 2.70833E-02 6.25000E-03 0.00000E+00
 -1       296 2.81250E-02 6.25000E-03 0.00000E+00
 -1       297 2.91667E-02 6.25000E-03 0.00000E+00
 -1       298 3.02083E-02 6.25000E-03 0.00000E+00
 -1       299 3.12500E-02 6.25000E-03 0.00000E+00
 -1       300 3.22917E-02 6.25000E-03 0.00000E+00
 -1       301 1.66667E-02 7.29167E-03 0.00000E+00
 -1       302 1.66667E-02 8.33333E-03 0.00000E+00
 -1       303 1.66667E-02 9.37500E-03 0.00000E+00
 -1       304 1.66667E-02 1.04167E-02 0.00000E+00
 -1       305 1.66667E-02 1.14583E-02 0.00000E+00
 -1       306 1.77083E-02 6.64063E-03 0.00000E+00
 -1       307 1.87500E-02 7.03125E-03 0.00000E+00
 -1       308 1.97917E-02 7.42188E-03 0.00000E+00
 -1       309 2.08333E-02 7.81250E-03 0.00000E+00
 -1       310 2.18750E-02 8.20313E-03 0.00000E+00
 -1       311 2.29167E-02 8.59375E-03 0.00000E+00
 -1       312 2.39583E-02 8.98438E-03 0.00000E+00
 -1       313 2.50000E-02 9.37500E-03 0.00000E+00
 -1       314 2.60417E-02 9.76562E-03 0.00000E+00
 -1       315 2.70833E-02 1.01562E-02 0.00000E+00
 -1       316 2.81250E-02 1.05469E-02 0.00000E+00
 -1       317 2.91667E-02 1.09375E-02 0.00000E+00
 -1       318 3.02083E-02 1.13281E-02 0.00000E+00
 -1       319 3.12500E-02 1.17188E-02 0.00000E+00
 -1       320 3.22917E-02 1.21094E-02 0.00000E+00
 -1       321 3.43750E-02 6.25000E-03 0.00000E+00
 -1       322 3.54167E-02 6.25000E-03 0.00000E+00
 -1       323 3.64583E-02 6.25000E-03 0.00000E+00
 -1       324 3.75000E-02 6.25000E-03 0.00000E+00
 -1       325 3.85417E-02 6.25000E-03 0.00000E+00
 -1       326 3.95833E-02 6.25000E-03 0.00000E+00
 -1       327 4.06250E-02 6.25000E-03 0.00000E+00
 -1       328 4.16667E-02 6.25000E-03 0.00000E+00
 -1       329 4.27083E-02 6.25000E-03 0.00000E+00
 -1       330 4.37500E-02 6.25000E-03 0.00000E+00
 -1       331 4.47917E-02 6.25000E-03 0.00000E+00
 -1       332 4.58333E-02 6.25000E-03 0.00000E+00
 -1       333 4.68750E-02 6.25000E-03 0.00000E+00
 -1       334 4.79167E-02 6.25000E-03 0.00000E+00
 -1       335 4.89583E-02 6.25000E-03 0.00000E+00
 -1       336 3.33333E-02 7.29167E-03 0.00000E+00
 -1       337 3.33333E-02 8.33333E-03 0.00000E+00
 -1       338 3.33333E-02 9.37500E-03 0.00000E+00
 -1       339 3.33333E-02 1.04167E-02 0.00000E+00
 -1       340 3.33333E-02 1.14583E-02 0.00000E+00
 -1       341 3.43750E-02 6.64063E-03 0.00000E+00
 -1       342 3.54167E-02 7.03125E-03 0.00000E+00
 -1       343 3.64583E-02 7.42188E-03 0.00000E+00
 -1       344 3.75000E-02 7.81250E-03 0.00000E+00
 -1       345 3.85417E-02 8.20313E-03 0.00000E+00
 -1       346 3.95833E-02 8.59375E-03 0.00000E+00
 -1       347 4.06250E-02 8.98438E-03 0.00000E+00
 -1       348 4.16667E-02 9.37500E-03 0.00000E+00
 -1       349 4.27083E-02 9.76562E-03 0.00000E+00
 -1       350 4.37500E-02 1.01562E-02 0.00000E+00
 -1       351 4.47917E-02 1.05469E-02 0.00000E+00
 -1       352 4.58333E-02 1.09375E-02 0.00000E+00
 -1       353 4.68750E-02 1.13281E-02 0.00000E+00
 -1       354 4.79167E-02 1.17188E-02 0.00000E+00
 -1       355 4.89583E-02 1.21094E-02 0.00000E+00
 -1       356 5.10417E-02 6.25000E-03 0.00000E+00
 -1       357 5.20833E-02 6.25000E-03 0.00000E+00
 -1       358 5.31250E-02 6.25000E-03 0.00000E+00
 -1       359 5.41667E-02 6.25000E-03 0.00000E+00
 -1       360 5.52083E-02 6.25000E-03 0.00000E+00
 -1       361 5.62500E-02 6.25000E-03 0.00000E+00
 -1       362 5.72917E-02 6.25000E-03 0.00000E+00
 -1       363 5.83333E-02 6.25000E-03 0.00000E+00
 -1       364 5.93750E-02 6.25000E-03 0.00000E+00
 -1       365 6.04167E-02 6.25000E-03 0.00000E+00
 -1       366 6.14583E-02 6.25000E-03 0.00000E+00
 -1       367 6.25000E-02 6.25000E-03 0.00000E+00
 -1       368 6.35417E-02 6.25000E-03 0.00000E+00
 -1       369 6.45833E-02 6.25000E-03 0.00000E+00
 -1       370 6.56250E-02 6.25000E-03 0.00000E+00
 -1       371 5.00000E-02 7.29167E-03 0.00000E+00
 -1       372 5.00000E-02 8.33333E-03 0.00000E+00
 -1       373 5.00000E-02 9.37500E-03 0.00000E+00
 -1       374 5.00000E-02 1.04167E-02 0.00000E+00
 -1       375 5.00000E-02 1.14583E-02 0.00000E+00
 -1       376 5.10417E-02 6.64063E-03 0.00000E+00
 -1       377 5.20833E-02 7.03125E-03 0.00000E+00
 -1       378 5.31250E-02 7.42188E-03 0.00000E+00
 -1       379 5.41667E-02 7.81250E-03 0.00000E+00
 -1       380 5.52083E-02 8.20313E-03 0.00000E+00
 -1       381 5.62500E-02 8.59375E-03 0.00000E+00
 -1       382 5.72917E-02 8.98438E-03 0.00000E+00
 -1       383 5.83333E-02 9.37500E-03 0.00000E+00
 -1       384 5.93750E-02 9.76562E-03 0.00000E+00
 -1       385 6.04167E-02 1.01562E-02 0.00000E+00
 -1       386 6.14583E-02 1.05469E-02 0.00000E+00
 -1       387 6.25000E-02 1.09375E-02 0.00000E+00
 -1       388 6.35417E-02 1.13281E-02 0.00000E+00
 -1       389 6.45833E-02 1.17188E-02 0.00000E+00
 -1       390 6.56250E-02 1.21094E-02 0.00000E+00
 -1       406 6.66667E-02 7.29167E-03 0.00000E+00
 -1       407 6.66667E-02 8.33333E-03 0.00000E+00
 -1       408 6.66667E-02 9.37500E-03 0.00000E+00
 -1       409 6.66667E-02 1.04167E-02 0.00000E+00
 -1       410 6.66667E-02 1.14583E-02 0.00000E+00
 -1       466 1.04167E-03 1.25000E-02 0.00000E+00
 -1       467 2.08333E-03 1.25000E-02 0.00000E+00
 -1       468 3.12500E-03 1.25000E-02 0.00000E+00
 -1       469 4.16667E-03 1.25000E-02 0.00000E+00
 -1       470 5.20833E-03 1.25000E-02 0.00000E+00
 -1       471 6.25000E-03 1.25000E-02 0.00000E+00
 -1       472 7.29167E-03 1.25000E-02 0.00000E+00
 -1       473 8.33333E-03 1.25000E-02 0.00000E+00
 -1       474 9.37500E-03 1.25000E-02 0.00000E+00
 -1       475 1.04167E-02 1.25000E-02 0.00000E+00
 -1       476 1.14583E-02 1.25000E-02 0.00000E+00
 -1       477 1.25000E-02 1.25000E-02 0.00000E+00
 -1       478 1.35417E-02 1.25000E-02 0.00000E+00
 -1       479 1.45833E-02 1.25000E-02 0.00000E+00
 -1       480 1.56250E-02 1.25000E-02 0.00000E+00
 -1       481 0.00000E+00 1.35417E-02 0.00000E+00
 -1       482 0.00000E+00 1.45833E-02 0.00000E+00
 -1       483 0.00000E+00 1.56250E-02 0.00000E+00
 -1       484 0.00000E+00 1.66667E-02 0.00000E+00
 -1       485 0.00000E+00 1.77083E-02 0.00000E+00
 -1       486 1.04167E-03 1.28906E-02 0.00000E+00
 -1       487 2.08333E-03 1.32813E-02 0.00000E+00
 -1       488 3.12500E-03 1.36719E-02 0.00000E+00
 -1       489 4.16667E-03 1.40625E-02 0.00000E+00
 -1       490 5.20833E-03 1.44531E-02 0.00000E+00
 -1       491 6.25000E-03 1.48437E-02 0.00000E+00
 -1       492 7.29167E-03 1.52344E-02 0.00000E+00
 -1       493 8.33333E-03 1.56250E-02 0.00000E+00
 -1       494 9.37500E-03 1.60156E-02 0.00000E+00
 -1       495 1.04167E-02 1.64062E-02 0.00000E+00
 -1       496 1.14583E-02 1.67969E-02 0.00000E+00
 -1       497 1.25000E-02 1.71875E-02 0.00000E+00
 -1       498 1.35417E-02 1.75781E-02 0.00000E+00
 -1       499 1.45833E-02 1.79687E-02 0.00000E+00
 -1       500 1.56250E-02 1.83594E-02 0.00000E+00
 -1       501 1.77083E-02 1.25000E-02 0.00000E+00
 -1       502 1.87500E-02 1.25000E-02 0.00000E+00
 -1       503 1.97917E-02 1.25000E-02 0.00000E+00
 -1       504 2.08333E-02 1.25000E-02 0.00000E+00
 -1       505 2.18750E-02 1.25000E-02 0.00000E+00
 -1       506 2.29167E-02 1.25000E-02 0.00000E+00
 -1       507 2.39583E-02 1.25000E-02 0.00000E+00
 -1       508 2.50000E-02 1.25000E-02 0.00000E+00
 -1       509 2.60417E-02 1.25000E-02 0.00000E+00
 -1       510 2.70833E-02 1.25000E-02 0.00000E+00
 -1       511 2.81250E-02 1.25000E-02 0.00000E+00
 -1       512 2.91667E-02 1.25000E-02 0.00000E+00
 -1       513 3.02083E-02 1.25000E-02 0.00000E+00
 -1       514 3.12500E-02 1.25000E-02 0.00000E+00
 -1       515 3.22917E-02 1.25000E-02 0.00000E+00
 -1       516 1.66667E-02 1.35417E-02 0.00000E+00
 -1       517 1.66667E-02 1.45833E-02 0.00000E+00
 -1       518 1.66667E-02 1.56250E-02 0.00000E+00
 -1       519 1.66667E-02 1.66667E-02 0.00000E+00
 -1       520 1.66667E-02 1.77083E-02 0.00000E+00
 -1       521 1.77083E-02 1.28906E-02 0.00000E+00
 -1       522 1.87500E-02 1.32813E-02 0.00000E+00
 -1       523 1.97917E-02 1.36719E-02 0.00000E+00
 -1       524 2.08333E-02 1.40625E-02 0.00000E+00
 -1       525 2.18750E-02 1.44531E-02 0.00000E+00
 -1       526 2.29167E-02 1.48437E-02 0.00000E+00
 -1       527 2.39583E-02 1.52344E-02 0.00000E+00
 -1       528 2.50000E-02 1.56250E-02 0.00000E+00
 -1       529 2.60417E-02 1.60156E-02 0.00000E+00
 -1       530 2.70833E-02 1.64062E-02 0.00000E+00
 -1       531 2.81250E-02 1.67969E-02 0.00000E+00
 -1       532 2.91667E-02 1.71875E-02 0.00000E+00
 -1       533 3.02083E-02 1.75781E-02 0.00000E+00
 -1       534 3.12500E-02 1.79687E-02 0.00000E+00
 -1       535 3.22917E-02 1.83594E-02 0.00000E+00
 -1       536 3.43750E-02 1.25000E-02 0.00000E+00
 -1       537 3.54167E-02 1.25000E-02 0.00000E+00
 -1       538 3.64583E-02 1.25000E-02 0.00000E+00
 -1       539 3.75000E-02 1.25000E-02 0.00000E+00
 -1       540 3.85417E-02 1.25000E-02 0.00000E+00
 -1       541 3.95833E-02 1.25000E-02 0.00000E+00
 -1       542 4.06250E-02 1.25000E-02 0.00000E+00
 -1       543 4.16667E-02 1.25000E-02 0.00000E+00
 -1       544 4.27083E-02 1.25000E-02 0.00000E+00
 -1       545 4.37500E-02 1.25000E-02 0.00000E+00
 -1       546 4.47917E-02 1.25000E-02 0.00000E+00
 -1       547 4.58333E-02 1.25000E-02 0.00000E+00
 -1       548 4.68750E-02 1.25000E-02 0.00000E+00
 -1       549 4.79167E-02 1.25000E-02 0.00000E+00
 -1       550 4.89583E-02 1.25000E-02 0.00000E+00
 -1       551 3.33333E-02 1.35417E-02 0.00000E+00
 -1       552 3.33333E-02 1.45833E-02 0.00000E+00
 -1       553 3.33333E-02 1.56250E-02 0.00000E+00
 -1       554 3.33333E-02 1.66667E-02 0.00000E+00
 -1       555 3.33333E-02 1.77083E-02 0.00000E+00
 -1       556 3.43750E-02 1.28906E-02 0.00000E+00
 -1       557 3.54167E-02 1.32813E-02 0.00000E+00
 -1       558 3.64583E-02 1.36719E-02 0.00000E+00
 -1       559 3.75000E-02 1.40625E-02 0.00000E+00
 -1       560 3.85417E-02 1.44531E-02 0.00000E+00
 -1       561 3.95833E-02 1.48437E-02 0.00000E+00
 -1       562 4.06250E-02 1.52344E-02 0.00000E+00
 -1       563 4.16667E-02 1.56250E-02 0.00000E+00
 -1       564 4.27083E-02 1.60156E-02 0.00000E+00
 -1       565 4.37500E-02 1.64062E-02 0.00000E+00
 -1       566 4.47917E-02 1.67969E-02 0.00000E+00
 -1       567 4.58333E-02 1.71875E-02 0.00000E+00
 -1       568 4.68750E-02 1.75781E-02 0.00000E+00
 -1       569 4.79167E-02 1.79687E-02 0.00000E+00
 -1       570 4.89583E-02 1.83594E-02 0.00000E+00
 -1       571 5.10417E-02 1.25000E-02 0.00000E+00
 -1       572 5.20833E-02 1.25000E-02 0.00000E+00
 -1       573 5.31250E-02 1.25000E-02 0.00000E+00
 -1       574 5.41667E-02 1.25000E-02 0.00000E+00
 -1       575 5.52083E-02 1.25000E-02 0.00000E+00
 -1       576 5.62500E-02 1.25000E-02 0.00000E+00
 -1       577 5.72917E-02 1.25000E-02 0.00000E+00
 -1       578 5.83333E-02 1.25000E-02 0.00000E+00
 -1       579 5.93750E-02 1.25000E-02 0.00000E+00
 -1       580 6.04167E-02 1.25000E-02 0.00000E+00
 -1       581 6.14583E-02 1.25000E-02 0.00000E+00
 -1       582 6.25000E-02 1.25000E-02 0.00000E+00
 -1       583 6.35417E-02 1.25000E-02 0.00000E+00
 -1       584 6.45833E-02 1.25000E-02 0.00000E+00
 -1       585 6.56250E-02 1.25000E-02 0.00000E+00
 -1       586 5.00000E-02 1.35417E-02 0.00000E+00
 -1       587 5.00000E-02 1.45833E-02 0.00000E+00
 -1       588 5.00000E-02 1.56250E-02 0.00000E+00
 -1       589 5.00000E-02 1.66667E-02 0.00000E+00
 -1       590 5.00000E-02 1.77083E-02 0.00000E+00
 -1       591 5.10417E-02 1.28906E-02 0.00000E+00
 -1       592 5.20833E-02 1.32813E-02 0.00000E+00
 -1       593 5.31250E-02 1.36719E-02 0.00000E+00
 -1       594 5.41667E-02 1.40625E-02 0.00000E+00
 -1       595 5.52083E-02 1.44531E-02 0.00000E+00
 -1       596 5.62500E-02 1.48437E-02 0.00000E+00
 -1       597 5.72917E-02 1.52344E-02 0.00000E+00
 -1       598 5.83333E-02 1.56250E-02 0.00000E+00
 -1       599 5.93750E-02 1.60156E-02 0.00000E+00
 -1       600 6.04167E-02 1.64062E-02 0.00000E+00
 -1       601 6.14583E-02 1.67969E-02 0.00000E+00
 -1       602 6.25000E-02 1.71875E-02 0.00000E+00
 -1       603 6.35417E-02 1.75781E-02 0.00000E+00
 -1       604 6.45833E-02 1.79687E-02 0.00000E+00
 -1       605 6.56250E-02 1.83594E-02 0.00000E+00
 -1       606 6.77083E-02 1.25000E-02 0.00000E+00
 -1       607 6.87500E-02 1.25000E-02 0.00000E+00
 -1       608 6.97917E-02 1.25000E-02 0.00000E+00
 -1       609 7.08333E-02 1.25000E-02 0.00000E+00
 -1       610 7.18750E-02 1.25000E-02 0.00000E+00
 -1       611 7.29167E-02 1.25000E-02 0.00000E+00
 -1       612 7.39583E-02 1.25000E-02 0.00000E+00
 -1       613 7.50000E-02 1.25000E-02 0.00000E+00
 -1       614 7.60417E-02 1.25000E-02 0.00000E+00
 -1       615 7.70833E-02 1.25000E-02 0.00000E+00
 -1       616 7.81250E-02 1.25000E-02 0.00000E+00
 -1       617 7.91667E-02 1.25000E-02 0.00000E+00
 -1       618 8.02083E-02 1.25000E-02 0.00000E+00
 -1       619 8.12500E-02 1.25000E-02 0.00000E+00
 -1       620 8.22917E-02 1.25000E-02 0.00000E+00
 -1       621 6.66667E-02 1.35417E-02 0.00000E+00
 -1       622 6.66667E-02 1.45833E-02 0.00000E+00
 -1       623 6.66667E-02 1.56250E-02 0.00000E+00
 -1       624 6.66667E-02 1.66667E-02 0.00000E+00
 -1       625 6.66667E-02 1.77083E-02 0.00000E+00
 -1       626 6.77083E-02 1.28906E-02 0.00000E+00
 -1       627 6.87500E-02 1.32813E-02 0.00000E+00
 -1       628 6.97917E-02 1.36719E-02 0.00000E+00
 -1       629 7.08333E-02 1.40625E-02 0.00000E+00
 -1       630 7.18750E-02 1.44531E-02 0.00000E+00
 -1       631 7.29167E-02 1.48437E-02 0.00000E+00
 -1       632 7.39583E-02 1.52344E-02 0.00000E+00
 -1       633 7.50000E-02 1.56250E-02 0.00000E+00
 -1       634 7.60417E-02 1.60156E-02 0.00000E+00
 -1       635 7.70833E-02 1.64062E-02 0.00000E+00
 -1       636 7.81250E-02 1.67969E-02 0.00000E+00
 -1       637 7.91667E-02 1.71875E-02 0.00000E+00
 -1       638 8.02083E-02 1.75781E-02 0.00000E+00
 -1       639 8.12500E-02 1.79687E-02 0.00000E+00
 -1       640 8.22917E-02 1.83594E-02 0.00000E+00
 -1       641 8.43750E-02 1.25000E-02 0.00000E+00
 -1       642 8.54167E-02 1.25000E-02 0.00000E+00
 -1       643 8.64583E-02 1.25000E-02 0.00000E+00
 -1       644 8.75000E-02 1.25000E-02 0.00000E+00
 -1       645 8.85417E-02 1.25000E-02 0.00000E+00
 -1       646 8.95833E-02 1.25000E-02 0.00000E+00
 -1       647 9.06250E-02 1.25000E-02 0.00000E+00
 -1       648 9.16667E-02 1.25000E-02 0.00000E+00
 -1       649 9.27083E-02 1.25000E-02 0.00000E+00
 -1       650 9.37500E-02 1.25000E-02 0.00000E+00
 -1       651 9.47917E-02 1.25000E-02 0.00000E+00
 -1       652 9.58333E-02 1.25000E-02 0.00000E+00
 -1       653 9.68750E-02 1.25000E-02 0.00000E+00
 -1       654 9.79167E-02 1.25000E-02 0.00000E+00
 -1       655 9.89583E-02 1.25000E-02 0.00000E+00
 -1       656 8.33333E-02 1.35417E-02 0.00000E+00
 -1       657 8.33333E-02 1.45833E-02 0.00000E+00
 -1       658 8.33333E-02 1.56250E-02 0.00000E+00
 -1       659 8.33333E-02 1.66667E-02 0.00000E+00
 -1       660 8.33333E-02 1.77083E-02 0.00000E+00
 -1       661 8.43750E-02 1.28906E-02 0.00000E+00
 -1       662 8.54167E-02 1.32813E-02 0.00000E+00
 -1       663 8.64583E-02 1.36719E-02 0.00000E+00
 -1       664 8.75000E-02 1.40625E-02 0.00000E+00
 -1       665 8.85417E-02 1.44531E-02 0.00000E+00
 -1       666 8.95833E-02 1.48437E-02 0.00000E+00
 -1       667 9.06250E-02 1.52344E-02 0.00000E+00
 -1       668 9.16667E-02 1.56250E-02 0.00000E+00
 -1       669 9.27083E-02 1.60156E-02 0.00000E+00
 -1       670 9.37500E-02 1.64062E-02 0.00000E+00
 -1       671 9.47917E-02 1.67969E-02 0.00000E+00
 -1       672 9.58333E-02 1.71875E-02 0.00000E+00
 -1       673 9.68750E-02 1.75781E-02 0.00000E+00
 -1       674 9.79167E-02 1.79687E-02 0.00000E+00
 -1       675 9.89583E-02 1.83594E-02 0.00000E+00
 -1       676 1.00000E-01 1.35417E-02 0.00000E+00
 -1       677 1.00000E-01 1.45833E-02 0.00000E+00
 -1       678 1.00000E-01 1.56250E-02 0.00000E+00
 -1       679 1.00000E-01 1.66667E-02 0.00000E+00
 -1       680 1.00000E-01 1.77083E-02 0.00000E+00
 -1       681 1.04167E-03 1.87500E-02 0.00000E+00
 -1       682 2.08333E-03 1.87500E-02 0.00000E+00
 -1       683 3.12500E-03 1.87500E-02 0.00000E+00
 -1       684 4.16667E-03 1.87500E-02 0.00000E+00
 -1       685 5.20833E-03 1.87500E-02 0.00000E+00
 -1       686 6.25000E-03 1.87500E-02 0.00000E+00
 -1       687 7.29167E-03 1.87500E-02 0.00000E+00
 -1       688 8.33333E-03 1.87500E-02 0.00000E+00
 -1       689 9.37500E-03 1.87500E-02 0.00000E+00
 -1       690 1.04167E-02 1.87500E-02 0.00000E+00
 -1       691 1.14583E-02 1.87500E-02 0.00000E+00
 -1       692 1.25000E-02 1.87500E-02 0.00000E+00
 -1       693 1.35417E-02 1.87500E-02 0.00000E+00
 -1       694 1.45833E-02 1.87500E-02 0.00000E+00
 -1       695 1.56250E-02 1.87500E-02 0.00000E+00
 -1       696 0.00000E+00 1.97917E-02 0.00000E+00
 -1       697 0.00000E+00 2.08333E-02 0.00000E+00
 -1       698 0.00000E+00 2.18750E-02 0.00000E+00
 -1       699 0.00000E+00 2.29167E-02 0.00000E+00
 -1       700 0.00000E+00 2.39583E-02 0.00000E+00
 -1       701 1.04167E-03 1.91406E-02 0.00000E+00
 -1       702 2.08333E-03 1.95312E-02 0.00000E+00
 -1       703 3.12500E-03 1.99219E-02 0.00000E+00
 -1       704 4.16667E-03 2.03125E-02 0.00000E+00
 -1       705 5.20833E-03 2.07031E-02 0.00000E+00
 -1       706 6.25000E-03 2.10938E-02 0.00000E+00
 -1       707 7.29167E-03 2.14844E-02 0.00000E+00
 -1       708 8.33333E-03 2.18750E-02 0.00000E+00
 -1       709 9.37500E-03 2.22656E-02 0.00000E+00
 -1       710 1.04167E-02 2.26563E-02 0.00000E+00
 -1       711 1.14583E-02 2.30469E-02 0.00000E+00
 -1       712 1.25000E-02 2.34375E-02 0.00000E+00
 -1       713 1.35417E-02 2.38281E-02 0.00000E+00
 -1       714 1.45833E-02 2.42187E-02 0.00000E+00
 -1       715 1.56250E-02 2.46094E-02 0.00000E+00
 -1       716 1.77083E-02 1.87500E-02 0.00000E+00
 -1       717 1.87500E-02 1.87500E-02 0.00000E+00
 -1       718 1.97917E-02 1.87500E-02 0.00000E+00
 -1       719 2.08333E-02 1.87500E-02 0.00000E+00
 -1       720 2.18750E-02 1.87500E-02 0.00000E+00
 -1       721 2.29167E-02 1.87500E-02 0.00000E+00
 -1       722 2.39583E-02 1.87500E-02 0.00000E+00
 -1       723 2.50000E-02 1.87500E-02 0.00000E+00
 -1       724 2.60417E-02 1.87500E-02 0.00000E+00
 -1       725 2.70833E-02 1.87500E-02 0.00000E+00
 -1       726 2.81250E-02 1.87500E-02 0.00000E+00
 -1       727 2.91667E-02 1.87500E-02 0.00000E+00
 -1       728 3.02083E-02 1.87500E-02 0.00000E+00
 -1       729 3.12500E-02 1.87500E-02 0.00000E+00
 -1       730 3.22917E-02 1.87500E-02 0.00000E+00
 -1       731 1.66667E-02 1.97917E-02 0.00000E+00
 -1       732 1.66667E-02 2.08333E-02 0.00000E+00
 -1       733 1.66667E-02 2.18750E-02 0.00000E+00
 -1       734 1.66667E-02 2.29167E-02 0.00000E+00
 -1       735 1.66667E-02 2.39583E-02 0.00000E+00
 -1       736 1.77083E-02 1.91406E-02 0.00000E+00
 -1       737 1.87500E-02 1.95312E-02 0.00000E+00
 -1       738 1.97917E-02 1.99219E-02 0.00000E+00
 -1       739 2.08333E-02 2.03125E-02 0.00000E+00
 -1       740 2.18750E-02 2.07031E-02 0.00000E+00
 -1       741 2.29167E-02 2.10938E-02 0.00000E+00
 -1       742 2.39583E-02 2.14844E-02 0.00000E+00
 -1       743 2.50000E-02 2.18750E-02 0.00000E+00
 -1       744 2.60417E-02 2.22656E-02 0.00000E+00
 -1       745 2.70833E-02 2.26563E-02 0.00000E+00
 -1       746 2.81250E-02 2.30469E-02 0.00000E+00
 -1       747 2.91667E-02 2.34375E-02 0.00000E+00
 -1       748 3.02083E-02 2.38281E-02 0.00000E+00
 -1       749 3.12500E-02 2.42187E-02 0.00000E+00
 -1       750 3.22917E-02 2.46094E-02 0.00000E+00
 -1       751 3.43750E-02 1.87500E-02 0.00000E+00
 -1       752 3.54167E-02 1.87500E-02 0.00000E+00
 -1       753 3.64583E-02 1.87500E-02 0.00000E+00
 -1       754 3.75000E-02 1.87500E-02 0.00000E+00
 -1       755 3.85417E-02 1.87500E-02 0.00000E+00
 -1       756 3.95833E-02 1.87500E-02 0.00000E+00
 -1       757 4.06250E-02 1.87500E-02 0.00000E+00
 -1       758 4.16667E-02 1.87500E-02 0.00000E+00
 -1       759 4.27083E-02 1.87500E-02 0.00000E+00
 -1       760 4.37500E-02 1.87500E-02 0.00000E+00
 -1       761 4.47917E-02 1.87500E-02 0.00000E+00
 -1       762 4.58333E-02 1.87500E-02 0.00000E+00
 -1       763 4.68750E-02 1.87500E-02 0.00000E+00
 -1       764 4.79167E-02 1.87500E-02 0.00000E+00
 -1       765 4.89583E-02 1.87500E-02 0.00000E+00
 -1       766 3.33333E-02 1.97917E-02 0.00000E+00
 -1       767 3.33333E-02 2.08333E-02 0.00000E+00
 -1       768 3.33333E-02 2.18750E-02 0.00000E+00
 -1       769 3.33333E-02 2.29167E-02 0.00000E+00
 -1       770 3.33333E-02 2.39583E-02 0.00000E+00
 -1       771 3.43750E-02 1.91406E-02 0.00000E+00
 -1       772 3.54167E-02 1.95312E-02 0.00000E+00
 -1       773 3.64583E-02 1.99219E-02 0.00000E+00
 -1       774 3.75000E-02 2.03125E-02 0.00000E+00
 -1       775 3.85417E-02 2.07031E-02 0.00000E+00
 -1       776 3.95833E-02 2.10938E-02 0.00000E+00
 -1       777 4.06250E-02 2.14844E-02 0.00000E+00
 -1       778 4.16667E-02 2.18750E-02 0.00000E+00
 -1       779 4.27083E-02 2.22656E-02 0.00000E+00
 -1       780 4.37500E-02 2.26563E-02 0.00000E+00
 -1       781 4.47917E-02 2.30469E-02 0.00000E+00
 -1       782 4.58333E-02 2.34375E-02 0.00000E+00
 -1       783 4.68750E-02 2.38281E-02 0.00000E+00
 -1       784 4.79167E-02 2.42187E-02 0.00000E+00
 -1       785 4.89583E-02 2.46094E-02 0.00000E+00
 -1       786 5.10417E-02 1.87500E-02 0.00000E+00
 -1       787 5.20833E-02 1.87500E-02 0.00000E+00
 -1       788 5.31250E-02 1.87500E-02 0.00000E+00
 -1       789 5.41667E-02 1.87500E-02 0.00000E+00
 -1       790 5.52083E-02 1.87500E-02 0.00000E+00
 -1       791 5.62500E-02 1.87500E-02 0.00000E+00
 -1       792 5.72917E-02 1.87500E-02 0.00000E+00
 -1       793 5.83333E-02 1.87500E-02 0.00000E+00
 -1       794 5.93750E-02 1.87500E-02 0.00000E+00
 -1       795 6.04167E-02 1.87500E-02 0.00000E+00
 -1       796 6.14583E-02 1.87500E-02 0.00000E+00
 -1       797 6.25000E-02 1.87500E-02 0.00000E+00
 -1       798 6.35417E-02 1.87500E-02 0.00000E+00
 -1       799 6.45833E-02 1.87500E-02 0.00000E+00
 -1       800 6.56250E-02 1.87500E-02 0.00000E+00
 -1       801 5.00000E-02 1.97917E-02 0.00000E+00
 -1       802 5.00000E-02 2.08333E-02 0.00000E+00
 -1       803 5.00000E-02 2.18750E-02 0.00000E+00
 -1       804 5.00000E-02 2.29167E-02 0.00000E+00
 -1       805 5.00000E-02 2.39583E-02 0.00000E+00
 -1       806 5.10417E-02 1.91406E-02 0.00000E+00
 -1       807 5.20833E-02 1.95312E-02 0.00000E+00
 -1       808 5.31250E-02 1.99219E-02 0.00000E+00
 -1       809 5.41667E-02 2.03125E-02 0.00000E+00
 -1       810 5.52083E-02 2.07031E-02 0.00000E+00
 -1       811 5.62500E-02 2.10938E-02 0.00000E+00
 -1       812 5.72917E-02 2.14844E-02 0.00000E+00
 -1       813 5.83333E-02 2.18750E-02 0.00000E+00
 -1       814 5.93750E-02 2.22656E-02 0.00000E+00
 -1       815 6.04167E-02 2.26563E-02 0.00000E+00
 -1       816 6.14583E-02 2.30469E-02 0.00000E+00
 -1       817 6.25000E-02 2.34375E-02 0.00000E+00
 -1       818 6.35417E-02 2.38281E-02 0.00000E+00
 -1       819 6.45833E-02 2.42187E-02 0.00000E+00
 -1       820 6.56250E-02 2.46094E-02 0.00000E+00
 -1       821 6.77083E-02 1.87500E-02 0.00000E+00
 -1       822 6.87500E-02 1.87500E-02 0.00000E+00
 -1       823 6.97917E-02 1.87500E-02 0.00000E+00
 -1       824 7.08333E-02 1.87500E-02 0.00000E+00
 -1       825 7.18750E-02 1.87500E-02 0.00000E+00
 -1       826 7.29167E-02 1.87500E-02 0.00000E+00
 -1       827 7.39583E-02 1.87500E-02 0.00000E+00
 -1       828 7.50000E-02 1.87500E-02 0.00000E+00
 -1       829 7.60417E-02 1.87500E-02 0.00000E+00
 -1       830 7.70833E-02 1.87500E-02 0.00000E+00
 -1       831 7.81250E-02 1.87500E-02 0.00000E+00
 -1       832 7.91667E-02 1.87500E-02 0.00000E+00
 -1       833 8.02083E-02 1.87500E-02 0.00000E+00
 -1       834 8.12500E-02 1.87500E-02 0.00000E+00
 -1       835 8.22917E-02 1.87500E-02 0.00000E+00
 -1       836 6.66667E-02 1.97917E-02 0.00000E+00
 -1       837 6.66667E-02 2.08333E-02 0.00000E+00
 -1       838 6.66667E-02 2.18750E-02 0.00000E+00
 -1       839 6.66667E-02 2.29167E-02 0.00000E+00
 -1       840 6.66667E-02 2.39583E-02 0.00000E+00
 -1       841 6.77083E-02 1.91406E-02 0.00000E+00
 -1       842 6.87500E-02 1.95312E-02 0.00000E+00
 -1       843 6.97917E-02 1.99219E-02 0.00000E+00
 -1       844 7.08333E-02 2.03125E-02 0.00000E+00
 -1       845 7.18750E-02 2.07031E-02 0.00000E+00
 -1       846 7.29167E-02 2.10938E-02 0.00000E+00
 -1       847 7.39583E-02 2.14844E-02 0.00000E+00
 -1       848 7.50000E-02 2.18750E-02 0.00000E+00
 -1       849 7.60417E-02 2.22656E-02 0.00000E+00
 -1       850 7.70833E-02 2.26563E-02 0.00000E+00
 -1       851 7.81250E-02 2.30469E-02 0.00000E+00
 -1       852 7.91667E-02 2.34375E-02 0.00000E+00
 -1       853 8.02083E-02 2.38281E-02 0.00000E+00
 -1       854 8.12500E-02 2.42187E-02 0.00000E+00
 -1       855 8.22917E-02 2.46094E-02 0.00000E+00
 -1       856 8.43750E-02 1.87500E-02 0.00000E+00
 -1       857 8.54167E-02 1.87500E-02 0.00000E+00
 -1       858 8.64583E-02 1.87500E-02 0.00000E+00
 -1       859 8.75000E-02 1.87500E-02 0.00000E+00
 -1       860 8.85417E-02 1.87500E-02 0.00000E+00
 -1       861 8.95833E-02 1.87500E-02 0.00000E+00
 -1       862 9.06250E-02 1.87500E-02 0.00000E+00
 -1       863 9.16667E-02 1.87500E-02 0.00000E+00
 -1       864 9.27083E-02 1.87500E-02 0.00000E+00
 -1       865 9.37500E-02 1.87500E-02 0.00000E+00
 -1       866 9.47917E-02 1.87500E-02 0.00000E+00
 -1       867 9.58333E-02 1.87500E-02 0.00000E+00
 -1       868 9.68750E-02 1.87500E-02 0.00000E+00
 -1       869 9.79167E-02 1.87500E-02 0.00000E+00
 -1       870 9.89583E-02 1.87500E-02 0.00000E+00
 -1       871 8.33333E-02 1.97917E-02 0.00000E+00
 -1       872 8.33333E-02 2.08333E-02 0.00000E+00
 -1       873 8.33333E-02 2.18750E-02 0.00000E+00
 -1       874 8.33333E-02 2.29167E-02 0.00000E+00
 -1       875 8.33333E-02 2.39583E-02 0.00000E+00
 -1       876 8.43750E-02 1.91406E-02 0.00000E+00
 -1       877 8.54167E-02 1.95312E-02 0.00000E+00
 -1       878 8.64583E-02 1.99219E-02 0.00000E+00
 -1       879 8.75000E-02 2.03125E-02 0.00000E+00
 -1       880 8.85417E-02 2.07031E-02 0.00000E+00
 -1       881 8.95833E-02 2.10938E-02 0.00000E+00
 -1       882 9.06250E-02 2.14844E-02 0.00000E+00
 -1       883 9.16667E-02 2.18750E-02 0.00000E+00
 -1       884 9.27083E-02 2.22656E-02 0.00000E+00
 -1       885 9.37500E-02 2.26563E-02 0.00000E+00
 -1       886 9.47917E-02 2.30469E-02 0.00000E+00
 -1       887 9.58333E-02 2.34375E-02 0.00000E+00
 -1       888 9.68750E-02 2.38281E-02 0.00000E+00
 -1       889 9.79167E-02 2.42187E-02 0.00000E+00
 -1       890 9.89583E-02 2.46094E-02 0.00000E+00
 -1       891 1.00000E-01 1.97917E-02 0.00000E+00
 -1       892 1.00000E-01 2.08333E-02 0.00000E+00
 -1       893 1.00000E-01 2.18750E-02 0.00000E+00
 -1       894 1.00000E-01 2.29167E-02 0.00000E+00
 -1       895 1.00000E-01 2.39583E-02 0.00000E+00
 -1       896 1.04167E-03 2.50000E-02 0.00000E+00
 -1       897 2.08333E-03 2.50000E-02 0.00000E+00
 -1       898 3.12500E-03 2.50000E-02 0.00000E+00
 -1       899 4.16667E-03 2.50000E-02 0.00000E+00
 -1       900 5.20833E-03 2.50000E-02 0.00000E+00
 -1       901 6.25000E-03 2.50000E-02 0.00000E+00
 -1       902 7.29167E-03 2.50000E-02 0.00000E+00
 -1       903 8.33333E-03 2.50000E-02 0.00000E+00
 -1       904 9.37500E-03 2.50000E-02 0.00000E+00
 -1       905 1.04167E-02 2.50000E-02 0.00000E+00
 -1       906 1.14583E-02 2.50000E-02 0.00000E+00
 -1       907 1.25000E-02 2.50000E-02 0.00000E+00
 -1       908 1.35417E-02 2.50000E-02 0.00000E+00
 -1       909 1.45833E-02 2.50000E-02 0.00000E+00
 -1       910 1.56250E-02 2.50000E-02 0.00000E+00
 -1       911 1.77083E-02 2.50000E-02 0.00000E+00
 -1       912 1.87500E-02 2.50000E-02 0.00000E+00
 -1       913 1.97917E-02 2.50000E-02 0.00000E+00
 -1       914 2.08333E-02 2.50000E-02 0.00000E+00
 -1       915 2.18750E-02 2.50000E-02 0.00000E+00
 -1       916 2.29167E-02 2.50000E-02 0.00000E+00
 -1       917 2.39583E-02 2.50000E-02 0.00000E+00
 -1       918 2.50000E-02 2.50000E-02 0.00000E+00
 -1       919 2.60417E-02 2.50000E-02 0.00000E+00
 -1       920 2.70833E-02 2.50000E-02 0.00000E+00
 -1       921 2.81250E-02 2.50000E-02 0.00000E+00
 -1       922 2.91667E-02 2.50000E-02 0.00000E+00
 -1       923 3.02083E-02 2.50000E-02 0.00000E+00
 -1       924 3.12500E-02 2.50000E-02 0.00000E+00
 -1       925 3.22917E-02 2.50000E-02 0.00000E+00
 -1       926 3.43750E-02 2.50000E-02 0.00000E+00
 -1       927 3.54167E-02 2.50000E-02 0.00000E+00
 -1       928 3.64583E-02 2.50000E-02 0.00000E+00
 -1       929 3.75000E-02 2.50000E-02 0.00000E+00
 -1       930 3.85417E-02 2.50000E-02 0.00000E+00
 -1       931 3.95833E-02 2.50000E-02 0.00000E+00
 -1       932 4.06250E-02 2.50000E-02 0.00000E+00
 -1       933 4.16667E-02 2.50000E-02 0.00000E+00
 -1       934 4.27083E-02 2.50000E-02 0.00000E+00
 -1       935 4.37500E-02 2.50000E-02 0.00000E+00
 -1       936 4.47917E-02 2.50000E-02 0.00000E+00
 -1       937 4.58333E-02 2.50000E-02 0.00000E+00
 -1       938 4.68750E-02 2.50000E-02 0.00000E+00
 -1       939 4.79167E-02 2.50000E-02 0.00000E+00
 -1       940 4.89583E-02 2.50000E-02 0.00000E+00
 -1       941 5.10417E-02 2.50000E-02 0.00000E+00
 -1       942 5.20833E-02 2.50000E-02 0.00000E+00
 -1       943 5.31250E-02 2.50000E-02 0.00000E+00
 -1       944 5.41667E-02 2.50000E-02 0.00000E+00
 -1       945 5.52083E-02 2.50000E-02 0.00000E+00
 -1       946 5.62500E-02 2.50000E-02 0.00000E+00
 -1       947 5.72917E-02 2.50000E-02 0.00000E+00
 -1       948 5.83333E-02 2.50000E-02 0.00000E+00
 -1       949 5.93750E-02 2.50000E-02 0.00000E+00
 -1       950 6.04167E-02 2.50000E-02 0.00000E+00
 -1       951 6.14583E-02 2.50000E-02 0.00000E+00
 -1       952 6.25000E-02 2.50000E-02 0.00000E+00
 -1       953 6.35417E-02 2.50000E-02 0.00000E+00
 -1       954 6.45833E-02 2.50000E-02 0.00000E+00
 -1       955 6.56250E-02 2.50000E-02 0.00000E+00
 -1       956 6.77083E-02 2.50000E-02 0.00000E+00
 -1       957 6.87500E-02 2.50000E-02 0.00000E+00
 -1       958 6.97917E-02 2.50000E-02 0.00000E+00
 -1       959 7.08333E-02 2.50000E-02 0.00000E+00
 -1       960 7.18750E-02 2.50000E-02 0.00000E+00
 -1       961 7.29167E-02 2.50000E-02 0.00000E+00
 -1       962 7.39583E-02 2.50000E-02 0.00000E+00
 -1       963 7.50000E-02 2.50000E-02 0.00000E+00
 -1       964 7.60417E-02 2.50000E-02 0.00000E+00
 -1       965 7.70833E-02 2.50000E-02 0.00000E+00
 -1       966 7.81250E-02 2.50000E-02 0.00000E+00
 -1       967 7.91667E-02 2.50000E-02 0.00000E+00
 -1       968 8.02083E-02 2.50000E-02 0.00000E+00
 -1       969 8.12500E-02 2.50000E-02 0.00000E+00
 -1       970 8.22917E-02 2.50000E-02 0.00000E+00
 -1       971 8.43750E-02 2.50000E-02 0.00000E+00
 -1       972 8.54167E-02 2.50000E-02 0.00000E+00
 -1       973 8.64583E-02 2.50000E-02 0.00000E+00
 -1       974 8.75000E-02 2.50000E-02 0.00000E+00
 -1       975 8.85417E-02 2.50000E-02 0.00000E+00
 -1       976 8.95833E-02 2.50000E-02 0.00000E+00
 -1       977 9.06250E-02 2.50000E-02 0.00000E+00
 -1       978 9.16667E-02 2.50000E-02 0.00000E+00
 -1       979 9.27083E-02 2.50000E-02 0.00000E+00
 -1       980 9.37500E-02 2.50000E-02 0.00000E+00
 -1       981 9.47917E-02 2.50000E-02 0.00000E+00
 -1       982 9.58333E-02 2.50000E-02 0.00000E+00
 -1       983 9.68750E-02 2.50000E-02 0.00000E+00
 -1       984 9.79167E-02 2.50000E-02 0.00000E+00
 -1       985 9.89583E-02 2.50000E-02 0.00000E+00
 -3
    3C                           440                                     1
 -1         1   12    0    1
 -2         1        37        36
 -1         2   12    0    1
 -2        37        39        38
 -1         3   12    0    1
 -2        39        41        40
 -1         4   12    0    1
 -2        41        43        42
 -1         5   12    0    1
 -2        43        45        44
 -1         6   12    0    1
 -2        45        47        46
 -1         7   12    0    1
 -2        47        49        48
 -1         8   12    0    1
 -2        49         2        50
 -1         9   12    0    1
 -2         1        52        51
 -1        10   12    0    1
 -2        52        54        53
 -1        11   12    0    1
 -2        54         8        55
 -1        12   12    0    1
 -2         1        57        56
 -1        13   12    0    1
 -2        57        59        58
 -1        14   12    0    1
 -2        59        61        60
 -1        15   12    0    1
 -2        61        63        62
 -1        16   12    0    1
 -2        63        65        64
 -1        17   12    0    1
 -2        65        67        66
 -1        18   12    0    1
 -2        67        69        68
 -1        19   12    0    1
 -2        69         9        70
 -1        20   12    0    1
 -2         2        72        71
 -1        21   12    0    1
 -2        72        74        73
 -1        22   12    0    1
 -2        74        76        75
 -1        23   12    0    1
 -2        76        78        77
 -1        24   12    0    1
 -2        78        80        79
 -1        25   12    0    1
 -2        80        82        81
 -1        26   12    0    1
 -2        82        84        83
 -1        27   12    0    1
 -2        84         3        85
 -1        28   12    0    1
 -2         2        87        86
 -1        29   12    0    1
 -2        87        89        88
 -1        30   12    0    1
 -2        89         9        90
 -1        31   12    0    1
 -2         2        92        91
 -1        32   12    0    1
 -2        92        94        93
 -1        33   12    0    1
 -2        94        96        95
 -1        34   12    0    1
 -2        96        98        97
 -1        35   12    0    1
 -2        98       100        99
 -1        36   12    0    1
 -2       100       102       101
 -1        37   12    0    1
 -2       102       104       103
 -1        38   12    0    1
 -2       104        10       105
 -1        39   12    0    1
 -2         3       107       106
 -1        40   12    0    1
 -2       107       109       108
 -1        41   12    0    1
 -2       109       111       110
 -1        42   12    0    1
 -2       111       113       112
 -1        43   12    0    1
 -2       113       115       114
 -1        44   12    0    1
 -2       115       117       116
 -1        45   12    0    1
 -2       117       119       118
 -1        46   12    0    1
 -2       119         4       120
 -1        47   12    0    1
 -2         3       122       121
 -1        48   12    0    1
 -2       122       124       123
 -1        49   12    0    1
 -2       124        10       125
 -1        50   12    0    1
 -2         3       127       126
 -1        51   12    0    1
 -2       127       129       128
 -1        52   12    0    1
 -2       129       131       130
 -1        53   12    0    1
 -2       131       133       132
 -1        54   12    0    1
 -2       133       135       134
 -1        55   12    0    1
 -2       135       137       136
 -1        56   12    0    1
 -2       137       139       138
 -1        57   12    0    1
 -2       139        11       140
 -1        58   12    0    1
 -2         4       142       141
 -1        59   12    0    1
 -2       142       144       143
 -1        60   12    0    1
 -2       144       146       145
 -1        61   12    0    1
 -2       146       148       147
 -1        62   12    0    1
 -2       148       150       149
 -1        63   12    0    1
 -2       150       152       151
 -1        64   12    0    1
 -2       152       154       153
 -1        65   12    0    1
 -2       154         5       155
 -1        66   12    0    1
 -2         4       157       156
 -1        67   12    0    1
 -2       157       159       158
 -1        68   12    0    1
 -2       159        11       160
 -1        69   12    0    1
 -2         4       162       161
 -1        70   12    0    1
 -2       162       164       163
 -1        71   12    0    1
 -2       164       166       165
 -1        72   12    0    1
 -2       166       168       167
 -1        73   12    0    1
 -2       168       170       169
 -1        74   12    0    1
 -2       170       172       171
 -1        75   12    0    1
 -2       172       174       173
 -1        76   12    0    1
 -2       174        12       175
 -1        77   12    0    1
 -2         5       192       191
 -1        78   12    0    1
 -2       192       194       193
 -1        79   12    0    1
 -2       194        12       195
 -1        80   12    0    1
 -2         8       252       251
 -1        81   12    0    1
 -2       252       254       253
 -1        82   12    0    1
 -2       254       256       255
 -1        83   12    0    1
 -2       256       258       257
 -1        84   12    0    1
 -2       258       260       259
 -1        85   12    0    1
 -2       260       262       261
 -1        86   12    0    1
 -2       262       264       263
 -1        87   12    0    1
 -2       264         9       265
 -1        88   12    0    1
 -2         8       267       266
 -1        89   12    0    1
 -2       267       269       268
 -1        90   12    0    1
 -2       269        15       270
 -1        91   12    0    1
 -2         8       272       271
 -1        92   12    0    1
 -2       272       274       273
 -1        93   12    0    1
 -2       274       276       275
 -1        94   12    0    1
 -2       276       278       277
 -1        95   12    0    1
 -2       278       280       279
 -1        96   12    0    1
 -2       280       282       281
 -1        97   12    0    1
 -2       282       284       283
 -1        98   12    0    1
 -2       284        16       285
 -1        99   12    0    1
 -2         9       287       286
 -1       100   12    0    1
 -2       287       289       288
 -1       101   12    0    1
 -2       289       291       290
 -1       102   12    0    1
 -2       291       293       292
 -1       103   12    0    1
 -2       293       295       294
 -1       104   12    0    1
 -2       295       297       296
 -1       105   12    0    1
 -2       297       299       298
 -1       106   12    0    1
 -2       299        10       300
 -1       107   12    0    1
 -2         9       302       301
 -1       108   12    0    1
 -2       302       304       303
 -1       109   12    0    1
 -2       304        16       305
 -1       110   12    0    1
 -2         9       307       306
 -1       111   12    0    1
 -2       307       309       308
 -1       112   12    0    1
 -2       309       311       310
 -1       113   12    0    1
 -2       311       313       312
 -1       114   12    0    1
 -2       313       315       314
 -1       115   12    0    1
 -2       315       317       316
 -1       116   12    0    1
 -2       317       319       318
 -1       117   12    0    1
 -2       319        17       320
 -1       118   12    0    1
 -2        10       322       321
 -1       119   12    0    1
 -2       322       324       323
 -1       120   12    0    1
 -2       324       326       325
 -1       121   12    0    1
 -2       326       328       327
 -1       122   12    0    1
 -2       328       330       329
 -1       123   12    0    1
 -2       330       332       331
 -1       124   12    0    1
 -2       332       334       333
 -1       125   12    0    1
 -2       334        11       335
 -1       126   12    0    1
 -2        10       337       336
 -1       127   12    0    1
 -2       337       339       338
 -1       128   12    0    1
 -2       339        17       340
 -1       129   12    0    1
 -2        10       342       341
 -1       130   12    0    1
 -2       342       344       343
 -1       131   12    0    1
 -2       344       346       345
 -1       132   12    0    1
 -2       346       348       347
 -1       133   12    0    1
 -2       348       350       349
 -1       134   12    0    1
 -2       350       352       351
 -1       135   12    0    1
 -2       352       354       353
 -1       136   12    0    1
 -2       354        18       355
 -1       137   12    0    1
 -2        11       357       356
 -1       138   12    0    1
 -2       357       359       358
 -1       139   12    0    1
 -2       359       361       360
 -1       140   12    0    1
 -2       361       363       362
 -1       141   12    0    1
 -2       363       365       364
 -1       142   12    0    1
 -2       365       367       366
 -1       143   12    0    1
 -2       367       369       368
 -1       144   12    0    1
 -2       369        12       370
 -1       145   12    0    1
 -2        11       372       371
 -1       146   12    0    1
 -2       372       374       373
 -1       147   12    0    1
 -2       374        18       375
 -1       148   12    0    1
 -2        11       377       376
 -1       149   12    0    1
 -2       377       379       378
 -1       150   12    0    1
 -2       379       381       380
 -1       151   12    0    1
 -2       381       383       382
 -1       152   12    0    1
 -2       383       385       384
 -1       153   12    0    1
 -2       385       387       386
 -1       154   12    0    1
 -2       387       389       388
 -1       155   12    0    1
 -2       389        19       390
 -1       156   12    0    1
 -2        12       407       406
 -1       157   12    0    1
 -2       407       409       408
 -1       158   12    0    1
 -2       409        19       410
 -1       159   12    0    1
 -2        15       467       466
 -1       160   12    0    1
 -2       467       469       468
 -1       161   12    0    1
 -2       469       471       470
 -1       162   12    0    1
 -2       471       473       472
 -1       163   12    0    1
 -2       473       475       474
 -1       164   12    0    1
 -2       475       477       476
 -1       165   12    0    1
 -2       477       479       478
 -1       166   12    0    1
 -2       479        16       480
 -1       167   12    0    1
 -2        15       482       481
 -1       168   12    0    1
 -2       482       484       483
 -1       169   12    0    1
 -2       484        22       485
 -1       170   12    0    1
 -2        15       487       486
 -1       171   12    0    1
 -2       487       489       488
 -1       172   12    0    1
 -2       489       491       490
 -1       173   12    0    1
 -2       491       493       492
 -1       174   12    0    1
 -2       493       495       494
 -1       175   12    0    1
 -2       495       497       496
 -1       176   12    0    1
 -2       497       499       498
 -1       177   12    0    1
 -2       499        23       500
 -1       178   12    0    1
 -2        16       502       501
 -1       179   12    0    1
 -2       502       504       503
 -1       180   12    0    1
 -2       504       506       505
 -1       181   12    0    1
 -2       506       508       507
 -1       182   12    0    1
 -2       508       510       509
 -1       183   12    0    1
 -2       510       512       511
 -1       184   12    0    1
 -2       512       514       513
 -1       185   12    0    1
 -2       514        17       515
 -1       186   12    0    1
 -2        16       517       516
 -1       187   12    0    1
 -2       517       519       518
 -1       188   12    0    1
 -2       519        23       520
 -1       189   12    0    1
 -2        16       522       521
 -1       190   12    0    1
 -2       522       524       523
 -1       191   12    0    1
 -2       524       526       525
 -1       192   12    0    1
 -2       526       528       527
 -1       193   12    0    1
 -2       528       530       529
 -1       194   12    0    1
 -2       530       532       531
 -1       195   12    0    1
 -2       532       534       533
 -1       196   12    0    1
 -2       534        24       535
 -1       197   12    0    1
 -2        17       537       536
 -1       198   12    0    1
 -2       537       539       538
 -1       199   12    0    1
 -2       539       541       540
 -1       200   12    0    1
 -2       541       543       542
 -1       201   12    0    1
 -2       543       545       544
 -1       202   12    0    1
 -2       545       547       546
 -1       203   12    0    1
 -2       547       549       548
 -1       204   12    0    1
 -2       549        18       550
 -1       205   12    0    1
 -2        17       552       551
 -1       206   12    0    1
 -2       552       554       553
 -1       207   12    0    1
 -2       554        24       555
 -1       208   12    0    1
 -2        17       557       556
 -1       209   12    0    1
 -2       557       559       558
 -1       210   12    0    1
 -2       559       561       560
 -1       211   12    0    1
 -2       561       563       562
 -1       212   12    0    1
 -2       563       565       564
 -1       213   12    0    1
 -2       565       567       566
 -1       214   12    0    1
 -2       567       569       568
 -1       215   12    0    1
 -2       569        25       570
 -1       216   12    0    1
 -2        18       572       571
 -1       217   12    0    1
 -2       572       574       573
 -1       218   12    0    1
 -2       574       576       575
 -1       219   12    0    1
 -2       576       578       577
 -1       220   12    0    1
 -2       578       580       579
 -1       221   12    0    1
 -2       580       582       581
 -1       222   12    0    1
 -2       582       584       583
 -1       223   12    0    1
 -2       584        19       585
 -1       224   12    0    1
 -2        18       587       586
 -1       225   12    0    1
 -2       587       589       588
 -1       226   12    0    1
 -2       589        25       590
 -1       227   12    0    1
 -2        18       592       591
 -1       228   12    0    1
 -2       592       594       593
 -1       229   12    0    1
 -2       594       596       595
 -1       230   12    0    1
 -2       596       598       597
 -1       231   12    0    1
 -2       598       600       599
 -1       232   12    0    1
 -2       600       602       601
 -1       233   12    0    1
 -2       602       604       603
 -1       234   12    0    1
 -2       604        26       605
 -1       235   12    0    1
 -2        19       607       606
 -1       236   12    0    1
 -2       607       609       608
 -1       237   12    0    1
 -2       609       611       610
 -1       238   12    0    1
 -2       611       613       612
 -1       239   12    0    1
 -2       613       615       614
 -1       240   12    0    1
 -2       615       617       616
 -1       241   12    0    1
 -2       617       619       618
 -1       242   12    0    1
 -2       619        20       620
 -1       243   12    0    1
 -2        19       622       621
 -1       244   12    0    1
 -2       622       624       623
 -1       245   12    0    1
 -2       624        26       625
 -1       246   12    0    1
 -2        19       627       626
 -1       247   12    0    1
 -2       627       629       628
 -1       248   12    0    1
 -2       629       631       630
 -1       249   12    0    1
 -2       631       633       632
 -1       250   12    0    1
 -2       633       635       634
 -1       251   12    0    1
 -2       635       637       636
 -1       252   12    0    1
 -2       637       639       638
 -1       253   12    0    1
 -2       639        27       640
 -1       254   12    0    1
 -2        20       642       641
 -1       255   12    0    1
 -2       642       644       643
 -1       256   12    0    1
 -2       644       646       645
 -1       257   12    0    1
 -2       646       648       647
 -1       258   12    0    1
 -2       648       650       649
 -1       259   12    0    1
 -2       650       652       651
 -1       260   12    0    1
 -2       652       654       653
 -1       261   12    0    1
 -2       654        21       655
 -1       262   12    0    1
 -2        20       657       656
 -1       263   12    0    1
 -2       657       659       658
 -1       264   12    0    1
 -2       659        27       660
 -1       265   12    0    1
 -2        20       662       661
 -1       266   12    0    1
 -2       662       664       663
 -1       267   12    0    1
 -2       664       666       665
 -1       268   12    0    1
 -2       666       668       667
 -1       269   12    0    1
 -2       668       670       669
 -1       270   12    0    1
 -2       670       672       671
 -1       271   12    0    1
 -2       672       674       673
 -1       272   12    0    1
 -2       674        28       675
 -1       273   12    0    1
 -2        21       677       676
 -1       274   12    0    1
 -2       677       679       678
 -1       275   12    0    1
 -2       679        28       680
 -1       276   12    0    1
 -2        22       682       681
 -1       277   12    0    1
 -2       682       684       683
 -1       278   12    0    1
 -2       684       686       685
 -1       279   12    0    1
 -2       686       688       687
 -1       280   12    0    1
 -2       688       690       689
 -1       281   12    0    1
 -2       690       692       691
 -1       282   12    0    1
 -2       692       694       693
 -1       283   12    0    1
 -2       694        23       695
 -1       284   12    0    1
 -2        22       697       696
 -1       285   12    0    1
 -2       697       699       698
 -1       286   12    0    1
 -2       699        29       700
 -1       287   12    0    1
 -2        22       702       701
 -1       288   12    0    1
 -2       702       704       703
 -1       289   12    0    1
 -2       704       706       705
 -1       290   12    0    1
 -2       706       708       707
 -1       291   12    0    1
 -2       708       710       709
 -1       292   12    0    1
 -2       710       712       711
 -1       293   12    0    1
 -2       712       714       713
 -1       294   12    0    1
 -2       714        30       715
 -1       295   12    0    1
 -2        23       717       716
 -1       296   12    0    1
 -2       717       719       718
 -1       297   12    0    1
 -2       719       721       720
 -1       298   12    0    1
 -2       721       723       722
 -1       299   12    0    1
 -2       723       725       724
 -1       300   12    0    1
 -2       725       727       726
 -1       301   12    0    1
 -2       727       729       728
 -1       302   12    0    1
 -2       729        24       730
 -1       303   12    0    1
 -2        23       732       731
 -1       304   12    0    1
 -2       732       734       733
 -1       305   12    0    1
 -2       734        30       735
 -1       306   12    0    1
 -2        23       737       736
 -1       307   12    0    1
 -2       737       739       738
 -1       308   12    0    1
 -2       739       741       740
 -1       309   12    0    1
 -2       741       743       742
 -1       310   12    0    1
 -2       743       745       744
 -1       311   12    0    1
 -2       745       747       746
 -1       312   12    0    1
 -2       747       749       748
 -1       313   12    0    1
 -2       749        31       750
 -1       314   12    0    1
 -2        24       752       751
 -1       315   12    0    1
 -2       752       754       753
 -1       316   12    0    1
 -2       754       756       755
 -1       317   12    0    1
 -2       756       758       757
 -1       318   12    0    1
 -2       758       760       759
 -1       319   12    0    1
 -2       760       762       761
 -1       320   12    0    1
 -2       762       764       763
 -1       321   12    0    1
 -2       764        25       765
 -1       322   12    0    1
 -2        24       767       766
 -1       323   12    0    1
 -2       767       769       768
 -1       324   12    0    1
 -2       769        31       770
 -1       325   12    0    1
 -2        24       772       771
 -1       326   12    0    1
 -2       772       774       773
 -1       327   12    0    1
 -2       774       776       775
 -1       328   12    0    1
 -2       776       778       777
 -1       329   12    0    1
 -2       778       780       779
 -1       330   12    0    1
 -2       780       782       781
 -1       331   12    0    1
 -2       782       784       783
 -1       332   12    0    1
 -2       784        32       785
 -1       333   12    0    1
 -2        25       787       786
 -1       334   12    0    1
 -2       787       789       788
 -1       335   12    0    1
 -2       789       791       790
 -1       336   12    0    1
 -2       791       793       792
 -1       337   12    0    1
 -2       793       795       794
 -1       338   12    0    1
 -2       795       797       796
 -1       339   12    0    1
 -2       797       799       798
 -1       340   12    0    1
 -2       799        26       800
 -1       341   12    0    1
 -2        25       802       801
 -1       342   12    0    1
 -2       802       804       803
 -1       343   12    0    1
 -2       804        32       805
 -1       344   12    0    1
 -2        25       807       806
 -1       345   12    0    1
 -2       807       809       808
 -1       346   12    0    1
 -2       809       811       810
 -1       347   12    0    1
 -2       811       813       812
 -1       348   12    0    1
 -2       813       815       814
 -1       349   12    0    1
 -2       815       817       816
 -1       350   12    0    1
 -2       817       819       818
 -1       351   12    0    1
 -2       819        33       820
 -1       352   12    0    1
 -2        26       822       821
 -1       353   12    0    1
 -2       822       824       823
 -1       354   12    0    1
 -2       824       826       825
 -1       355   12    0    1
 -2       826       828       827
 -1       356   12    0    1
 -2       828       830       829
 -1       357   12    0    1
 -2       830       832       831
 -1       358   12    0    1
 -2       832       834       833
 -1       359   12    0    1
 -2       834        27       835
 -1       360   12    0    1
 -2        26       837       836
 -1       361   12    0    1
 -2       837       839       838
 -1       362   12    0    1
 -2       839        33       840
 -1       363   12    0    1
 -2        26       842       841
 -1       364   12    0    1
 -2       842       844       843
 -1       365   12    0    1
 -2       844       846       845
 -1       366   12    0    1
 -2       846       848       847
 -1       367   12    0    1
 -2       848       850       849
 -1       368   12    0    1
 -2       850       852       851
 -1       369   12    0    1
 -2       852       854       853
 -1       370   12    0    1
 -2       854        34       855
 -1       371   12    0    1
 -2        27       857       856
 -1       372   12    0    1
 -2       857       859       858
 -1       373   12    0    1
 -2       859       861       860
 -1       374   12    0    1
 -2       861       863       862
 -1       375   12    0    1
 -2       863       865       864
 -1       376   12    0    1
 -2       865       867       866
 -1       377   12    0    1
 -2       867       869       868
 -1       378   12    0    1
 -2       869        28       870
 -1       379   12    0    1
 -2        27       872       871
 -1       380   12    0    1
 -2       872       874       873
 -1       381   12    0    1
 -2       874        34       875
 -1       382   12    0    1
 -2        27       877       876
 -1       383   12    0    1
 -2       877       879       878
 -1       384   12    0    1
 -2       879       881       880
 -1       385   12    0    1
 -2       881       883       882
 -1       386   12    0    1
 -2       883       885       884
 -1       387   12    0    1
 -2       885       887       886
 -1       388   12    0    1
 -2       887       889       888
 -1       389   12    0    1
 -2       889        35       890
 -1       390   12    0    1
 -2        28       892       891
 -1       391   12    0    1
 -2       892       894       893
 -1       392   12    0    1
 -2       894        35       895
 -1       393   12    0    1
 -2        29       897       896
 -1       394   12    0    1
 -2       897       899       898
 -1       395   12    0    1
 -2       899       901       900
 -1       396   12    0    1
 -2       901       903       902
 -1       397   12    0    1
 -2       903       905       904
 -1       398   12    0    1
 -2       905       907       906
 -1       399   12    0    1
 -2       907       909       908
 -1       400   12    0    1
 -2       909        30       910
 -1       401   12    0    1
 -2        30       912       911
 -1       402   12    0    1
 -2       912       914       913
 -1       403   12    0    1
 -2       914       916       915
 -1       404   12    0    1
 -2       916       918       917
 -1       405   12    0    1
 -2       918       920       919
 -1       406   12    0    1
 -2       920       922       921
 -1       407   12    0    1
 -2       922       924       923
 -1       408   12    0    1
 -2       924        31       925
 -1       409   12    0    1
 -2        31       927       926
 -1       410   12    0    1
 -2       927       929       928
 -1       411   12    0    1
 -2       929       931       930
 -1       412   12    0    1
 -2       931       933       932
 -1       413   12    0    1
 -2       933       935       934
 -1       414   12    0    1
 -2       935       937       936
 -1       415   12    0    1
 -2       937       939       938
 -1       416   12    0    1
 -2       939        32       940
 -1       417   12    0    1
 -2        32       942       941
 -1       418   12    0    1
 -2       942       944       943
 -1       419   12    0    1
 -2       944       946       945
 -1       420   12    0    1
 -2       946       948       947
 -1       421   12    0    1
 -2       948       950       949
 -1       422   12    0    1
 -2       950       952       951
 -1       423   12    0    1
 -2       952       954       953
 -1       424   12    0    1
 -2       954        33       955
 -1       425   12    0    1
 -2        33       957       956
 -1       426   12    0    1
 -2       957       959       958
 -1       427   12    0    1
 -2       959       961       960
 -1       428   12    0    1
 -2       961       963       962
 -1       429   12    0    1
 -2       963       965       964
 -1       430   12    0    1
 -2       965       967       966
 -1       431   12    0    1
 -2       967       969       968
 -1       432   12    0    1
 -2       969        34       970
 -1       433   12    0    1
 -2        34       972       971
 -1       434   12    0    1
 -2       972       974       973
 -1       435   12    0    1
 -2       974       976       975
 -1       436   12    0    1
 -2       976       978       977
 -1       437   12    0    1
 -2       978       980       979
 -1       438   12    0    1
 -2       980       982       981
 -1       439   12    0    1
 -2       982       984       983
 -1       440   12    0    1
 -2       984        35       985
 -3
    1PSTEP                         1           1           1          
  100CL  101 1.000000000         841                     0    1           1
 -4  DISP        4    1
 -5  D1          1    2    1    0
 -5  D2          1    2    2    0
 -5  D3          1    2    3    0
 -5  ALL         1    2    0    0    1ALL
 -1         1 7.44925E-05 0.00000E+00 0.00000E+00
 -1         2 5.90392E-05 0.00000E+00 0.00000E+00
 -1         3 5.32128E-05 0.00000E+00 0.00000E+00
 -1         4 5.18364E-05 0.00000E+00 0.00000E+00
 -1         5 5.19069E-05 0.00000E+00 0.00000E+00
 -1         8 4.84423E-05-1.20317E-06 0.00000E+00
 -1         9 4.88725E-05 1.27892E-06 0.00000E+00
 -1        10 4.80758E-05-1.70355E-06 0.00000E+00
 -1        11 4.82181E-05-4.35821E-07 0.00000E+00
 -1        12 4.91683E-05 3.01950E-06 0.00000E+00
 -1        15 2.18437E-05-1.75253E-06 0.00000E+00
 -1        16 2.84720E-05 1.48272E-06 0.00000E+00
 -1        17 3.06081E-05-3.45549E-06 0.00000E+00
 -1        18 3.60679E-05-8.48734E-07 0.00000E+00
 -1        19 4.05241E-05 5.94052E-06 0.00000E+00
 -1        20 4.16592E-05 5.64303E-05 0.00000E+00
 -1        21 4.16084E-05 1.17682E-04 0.00000E+00
 -1        22 9.13016E-06-1.11288E-06 0.00000E+00
 -1        23 1.18783E-05 1.88553E-06 0.00000E+00
 -1        24 1.40456E-05-4.01496E-06 0.00000E+00
 -1        25 2.30847E-05-5.92507E-07 0.00000E+00
 -1        26 2.86522E-05 7.70592E-06 0.00000E+00
 -1        27 2.49654E-05 5.53392E-05 0.00000E+00
 -1        28 2.23508E-05 1.16708E-04 0.00000E+00
 -1        29 0.00000E+00 0.00000E+00 0.00000E+00
 -1        30 4.44163E-06 2.28645E-06 0.00000E+00
 -1        31 5.63603E-06-3.08689E-06 0.00000E+00
 -1        32 0.00000E+00 0.00000E+00 0.00000E+00
 -1        33 1.15508E-05 1.07215E-05 0.00000E+00
 -1        34 9.64199E-06 5.52318E-05 0.00000E+00
 -1        35 5.96148E-06 1.16178E-04 0.00000E+00
 -1        36 7.35435E-05 9.52912E-22 0.00000E+00
 -1        37 7.25769E-05-4.02341E-21 1.32349E-23
 -1        38 7.16103E-05-6.48510E-22 0.00000E+00
 -1        39 7.06412E-05 5.75718E-21 1.32349E-23
 -1        40 6.96717E-05 8.48356E-21 2.64698E-23
 -1        41 6.87017E-05 3.26902E-21 1.32349E-23
 -1        42 6.77316E-05-3.41460E-21 0.00000E+00
 -1        43 6.67614E-05-1.60870E-20 1.32349E-23
 -1        44 6.57912E-05-2.35449E-20 2.64698E-23
 -1        45 6.48211E-05-2.95932E-20 0.00000E+00
 -1        46 6.38512E-05-1.57363E-20 0.00000E+00
 -1        47 6.28819E-05-1.81252E-20-1.32349E-23
 -1        48 6.19131E-05-1.39033E-20 2.64698E-23
 -1        49 6.09476E-05-9.22472E-21-1.32349E-23
 -1        50 5.99821E-05-3.11020E-21 2.64698E-23
 -1        51 7.27879E-05-2.10930E-07-1.32349E-23
 -1        52 6.96039E-05-4.07128E-07 0.00000E+00
 -1        53 6.52535E-05-6.02867E-07 0.00000E+00
 -1        54 6.00602E-05-8.00024E-07 0.00000E+00
 -1        55 5.43484E-05-9.99379E-07-6.61744E-24
 -1        56 7.31837E-05-5.96850E-07-2.64698E-23
 -1        57 7.18878E-05-1.33632E-06 0.00000E+00
 -1        58 7.06227E-05-2.15659E-06 0.00000E+00
 -1        59 6.93645E-05-3.01022E-06 2.64698E-23
 -1        60 6.80988E-05-3.84589E-06 0.00000E+00
 -1        61 6.68069E-05-4.61415E-06 0.00000E+00
 -1        62 6.54710E-05-5.26589E-06-5.29396E-23
 -1        63 6.40735E-05-5.75346E-06 0.00000E+00
 -1        64 6.25970E-05-6.03065E-06 0.00000E+00
 -1        65 6.10253E-05-6.05351E-06 2.64698E-23
 -1        66 5.93427E-05-5.78036E-06-5.29396E-23
 -1        67 5.75355E-05-5.17248E-06 0.00000E+00
 -1        68 5.55901E-05-4.19446E-06 5.29396E-23
 -1        69 5.35001E-05-2.81272E-06 1.32349E-23
 -1        70 5.12476E-05-1.00198E-06-2.64698E-23
 -1        71 5.86711E-05-1.95711E-21 0.00000E+00
 -1        72 5.83061E-05-5.88456E-21 0.00000E+00
 -1        73 5.79411E-05-1.01445E-20 0.00000E+00
 -1        74 5.75765E-05-1.12298E-20-6.61744E-24
 -1        75 5.72121E-05-1.75842E-20-1.32349E-23
 -1        76 5.68477E-05-2.44713E-20 6.61744E-24
 -1        77 5.64833E-05-2.15117E-20 0.00000E+00
 -1        78 5.61190E-05-1.62988E-20 6.61744E-24
 -1        79 5.57547E-05-8.66058E-21 1.32349E-23
 -1        80 5.53904E-05-7.10052E-21 0.00000E+00
 -1        81 5.50262E-05 3.27564E-22-1.32349E-23
 -1        82 5.46621E-05-7.41981E-21-6.61744E-24
 -1        83 5.42981E-05-6.65715E-21 0.00000E+00
 -1        84 5.39348E-05-1.89093E-21 0.00000E+00
 -1        85 5.35715E-05 2.49809E-22-6.61744E-24
 -1        86 5.86951E-05 1.94529E-07 0.00000E+00
 -1        87 5.77369E-05 4.16463E-07-8.27181E-25
 -1        88 5.62202E-05 6.37221E-07 0.00000E+00
 -1        89 5.42008E-05 8.58223E-07 0.00000E+00
 -1        90 5.17334E-05 1.07904E-06 0.00000E+00
 -1        91 5.84287E-05-2.81857E-07 0.00000E+00
 -1        92 5.78356E-05-6.36203E-07 6.61744E-24
 -1        93 5.72612E-05-1.03995E-06 1.32349E-23
 -1        94 5.66965E-05-1.47340E-06 0.00000E+00
 -1        95 5.61351E-05-1.91586E-06-2.64698E-23
 -1        96 5.55691E-05-2.34699E-06 0.00000E+00
 -1        97 5.49913E-05-2.74646E-06 0.00000E+00
 -1        98 5.43939E-05-3.09415E-06 1.32349E-23
 -1        99 5.37698E-05-3.37011E-06-2.64698E-23
 -1       100 5.31114E-05-3.55476E-06 0.00000E+00
 -1       101 5.24117E-05-3.62891E-06 2.64698E-23
 -1       102 5.16638E-05-3.57383E-06 6.61744E-24
 -1       103 5.08609E-05-3.37142E-06 0.00000E+00
 -1       104 4.99982E-05-3.00369E-06 0.00000E+00
 -1       105 4.90671E-05-2.45468E-06 0.00000E+00
 -1       106 5.31188E-05 2.95883E-21 6.61744E-24
 -1       107 5.30319E-05 1.04035E-20 0.00000E+00
 -1       108 5.29450E-05 2.05699E-20 0.00000E+00
 -1       109 5.28592E-05 2.36247E-20 1.65436E-24
 -1       110 5.27735E-05 2.11593E-20-3.30872E-24
 -1       111 5.26880E-05 1.82273E-20 0.00000E+00
 -1       112 5.26026E-05 1.82505E-20-3.30872E-24
 -1       113 5.25172E-05 1.97829E-20 1.65436E-24
 -1       114 5.24319E-05 2.32214E-20 3.30872E-24
 -1       115 5.23466E-05 2.52129E-20 0.00000E+00
 -1       116 5.22612E-05 2.18740E-20-3.30872E-24
 -1       117 5.21760E-05 9.03943E-21-1.65436E-24
 -1       118 5.20907E-05 3.48657E-21-3.30872E-24
 -1       119 5.20056E-05 3.53992E-21 0.00000E+00
 -1       120 5.19205E-05 1.97283E-21 1.65436E-24
 -1       121 5.29683E-05-2.82053E-07 6.61744E-24
 -1       122 5.23550E-05-5.65519E-07 0.00000E+00
 -1       123 5.14653E-05-8.49209E-07 6.61744E-24
 -1       124 5.03931E-05-1.13344E-06 0.00000E+00
 -1       125 4.92319E-05-1.41779E-06 6.61744E-24
 -1       126 5.29460E-05-1.46475E-07 0.00000E+00
 -1       127 5.27011E-05-3.55078E-07 0.00000E+00
 -1       128 5.24732E-05-6.08806E-07 6.61744E-24
 -1       129 5.22557E-05-8.91024E-07 0.00000E+00
 -1       130 5.20425E-05-1.18492E-06 6.61744E-24
 -1       131 5.18275E-05-1.47370E-06 0.00000E+00
 -1       132 5.16042E-05-1.74061E-06 0.00000E+00
 -1       133 5.13664E-05-1.96893E-06 0.00000E+00
 -1       134 5.11080E-05-2.14199E-06 6.61744E-24
 -1       135 5.08226E-05-2.24327E-06 0.00000E+00
 -1       136 5.05043E-05-2.25637E-06-6.61744E-24
 -1       137 5.01469E-05-2.16504E-06 0.00000E+00
 -1       138 4.97446E-05-1.95327E-06 6.61744E-24
 -1       139 4.92921E-05-1.60500E-06-3.30872E-24
 -1       140 4.87827E-05-1.10513E-06 0.00000E+00
 -1       141 5.18360E-05 7.90371E-22 8.27181E-25
 -1       142 5.18383E-05 2.20644E-21 0.00000E+00
 -1       143 5.18406E-05-7.70128E-21 2.06795E-25
 -1       144 5.18433E-05-1.82286E-20 0.00000E+00
 -1       145 5.18460E-05-1.86719E-20-2.58494E-26
 -1       146 5.18488E-05-1.41758E-20-2.58494E-26
 -1       147 5.18517E-05-6.91950E-22 0.00000E+00
 -1       148 5.18546E-05 8.71967E-21-5.16988E-26
 -1       149 5.18575E-05 1.72023E-20 0.00000E+00
 -1       150 5.18605E-05 2.08469E-20 0.00000E+00
 -1       151 5.18637E-05 1.95876E-20-4.13590E-25
 -1       152 5.18673E-05 1.49335E-20 4.13590E-25
 -1       153 5.18714E-05 7.80181E-21 0.00000E+00
 -1       154 5.18777E-05 3.90171E-21 0.00000E+00
 -1       155 5.18841E-05 4.80178E-22-6.61744E-24
 -1       156 5.16796E-05-7.15663E-08-1.65436E-24
 -1       157 5.12759E-05-1.43735E-07-8.27181E-25
 -1       158 5.06764E-05-2.16036E-07-1.65436E-24
 -1       159 4.99326E-05-2.88717E-07-8.27181E-25
 -1       160 4.90960E-05-3.61480E-07 0.00000E+00
 -1       161 5.17579E-05-4.92546E-08 0.00000E+00
 -1       162 5.16863E-05-1.20049E-07 0.00000E+00
 -1       163 5.16183E-05-2.00640E-07 0.00000E+00
 -1       164 5.15496E-05-2.79720E-07 0.00000E+00
 -1       165 5.14760E-05-3.45877E-07-3.30872E-24
 -1       166 5.13933E-05-3.87756E-07-1.65436E-24
 -1       167 5.12972E-05-3.94011E-07 0.00000E+00
 -1       168 5.11835E-05-3.53322E-07-1.65436E-24
 -1       169 5.10481E-05-2.54395E-07 0.00000E+00
 -1       170 5.08866E-05-8.59564E-08 8.27181E-25
 -1       171 5.06950E-05 1.63215E-07 0.00000E+00
 -1       172 5.04694E-05 5.04405E-07 0.00000E+00
 -1       173 5.02055E-05 9.48690E-07 0.00000E+00
 -1       174 4.99016E-05 1.50798E-06 0.00000E+00
 -1       175 4.95505E-05 2.19215E-06-3.30872E-24
 -1       191 5.18345E-05 4.99877E-07 0.00000E+00
 -1       192 5.16105E-05 1.00478E-06 6.61744E-24
 -1       193 5.12330E-05 1.51048E-06-1.32349E-23
 -1       194 5.07007E-05 2.01606E-06 6.61744E-24
 -1       195 5.00125E-05 2.52060E-06 0.00000E+00
 -1       251 4.84488E-05 3.02253E-06 0.00000E+00
 -1       252 4.84731E-05 5.87101E-06 1.65436E-24
 -1       253 4.85002E-05 7.52040E-06 0.00000E+00
 -1       254 4.85303E-05 8.15017E-06 0.00000E+00
 -1       255 4.85610E-05 7.93940E-06 8.27181E-25
 -1       256 4.85918E-05 7.06704E-06 2.84343E-25
 -1       257 4.86222E-05 5.71192E-06 8.27181E-25
 -1       258 4.86523E-05 4.05280E-06 4.13590E-25
 -1       259 4.86821E-05 2.26832E-06 8.27181E-25
 -1       260 4.87120E-05 5.37152E-07 0.00000E+00
 -1       261 4.87422E-05-9.62027E-07 0.00000E+00
 -1       262 4.87725E-05-2.05054E-06 0.00000E+00
 -1       263 4.88028E-05-2.54957E-06 0.00000E+00
 -1       264 4.88314E-05-2.28029E-06 6.20385E-25
 -1       265 4.88592E-05-1.06346E-06-3.30872E-24
 -1       266 4.32460E-05-1.30622E-06 0.00000E+00
 -1       267 3.80338E-05-1.40104E-06 0.00000E+00
 -1       268 3.30464E-05-1.49471E-06 0.00000E+00
 -1       269 2.85252E-05-1.58469E-06 1.65436E-24
 -1       270 2.47112E-05-1.67172E-06-3.30872E-24
 -1       271 4.58003E-05 2.75388E-06 0.00000E+00
 -1       272 4.35887E-05 5.47605E-06 0.00000E+00
 -1       273 4.17885E-05 7.11091E-06 0.00000E+00
 -1       274 4.03387E-05 7.80214E-06 0.00000E+00
 -1       275 3.91852E-05 7.70285E-06-2.64698E-23
 -1       276 3.82679E-05 6.97130E-06 0.00000E+00
 -1       277 3.75262E-05 5.77029E-06 2.64698E-23
 -1       278 3.68977E-05 4.26638E-06 1.32349E-23
 -1       279 3.63195E-05 2.62818E-06 0.00000E+00
 -1       280 3.57281E-05 1.02546E-06 1.32349E-23
 -1       281 3.50603E-05-3.72300E-07 0.00000E+00
 -1       282 3.42541E-05-1.39717E-06 0.00000E+00
 -1       283 3.32470E-05-1.88397E-06 2.64698E-23
 -1       284 3.19832E-05-1.67032E-06-1.32349E-23
 -1       285 3.03974E-05-6.02218E-07-2.64698E-23
 -1       286 4.88114E-05 3.81151E-06 0.00000E+00
 -1       287 4.87611E-05 5.49946E-06-1.65436E-24
 -1       288 4.87118E-05 6.44484E-06 0.00000E+00
 -1       289 4.86642E-05 6.75099E-06 0.00000E+00
 -1       290 4.86169E-05 6.52128E-06 0.00000E+00
 -1       291 4.85697E-05 5.85927E-06 8.27181E-25
 -1       292 4.85223E-05 4.86865E-06 0.00000E+00
 -1       293 4.84747E-05 3.65319E-06 0.00000E+00
 -1       294 4.84270E-05 2.31675E-06-1.65436E-24
 -1       295 4.83792E-05 9.63220E-07-8.27181E-25
 -1       296 4.83314E-05-3.03540E-07-1.65436E-24
 -1       297 4.82835E-05-1.37966E-06 0.00000E+00
 -1       298 4.82356E-05-2.16131E-06-3.30872E-24
 -1       299 4.81862E-05-2.54483E-06 1.65436E-24
 -1       300 4.81369E-05-2.42650E-06 0.00000E+00
 -1       301 4.55911E-05 1.30202E-06 0.00000E+00
 -1       302 4.21770E-05 1.33799E-06 0.00000E+00
 -1       303 3.86937E-05 1.37616E-06 0.00000E+00
 -1       304 3.52055E-05 1.41490E-06 0.00000E+00
 -1       305 3.17772E-05 1.45265E-06 0.00000E+00
 -1       306 4.68443E-05 3.44586E-06 2.64698E-23
 -1       307 4.50832E-05 4.79586E-06 0.00000E+00
 -1       308 4.35914E-05 5.43178E-06 2.64698E-23
 -1       309 4.23268E-05 5.44795E-06-1.32349E-23
 -1       310 4.12557E-05 4.94656E-06 0.00000E+00
 -1       311 4.03381E-05 4.03269E-06 1.32349E-23
 -1       312 3.95342E-05 2.81466E-06 0.00000E+00
 -1       313 3.88025E-05 1.40322E-06 1.32349E-23
 -1       314 3.81012E-05-8.94247E-08 0.00000E+00
 -1       315 3.73882E-05-1.55037E-06 1.32349E-23
 -1       316 3.66214E-05-2.86702E-06 2.64698E-23
 -1       317 3.57599E-05-3.92781E-06 1.32349E-23
 -1       318 3.47624E-05-4.62327E-06 0.00000E+00
 -1       319 3.35934E-05-4.84545E-06 0.00000E+00
 -1       320 3.22082E-05-4.49335E-06 0.00000E+00
 -1       321 4.80696E-05-7.90567E-07 0.00000E+00
 -1       322 4.80776E-05-1.82490E-07 0.00000E+00
 -1       323 4.80856E-05 1.61958E-07 1.65436E-24
 -1       324 4.80957E-05 2.84422E-07 0.00000E+00
 -1       325 4.81062E-05 2.26455E-07 0.00000E+00
 -1       326 4.81170E-05 2.96244E-08 7.75482E-26
 -1       327 4.81280E-05-2.64519E-07-2.06795E-25
 -1       328 4.81389E-05-6.14429E-07-1.03398E-25
 -1       329 4.81499E-05-9.78556E-07 4.13590E-25
 -1       330 4.81609E-05-1.31537E-06 0.00000E+00
 -1       331 4.81719E-05-1.58332E-06 0.00000E+00
 -1       332 4.81828E-05-1.74085E-06 0.00000E+00
 -1       333 4.81935E-05-1.74641E-06 0.00000E+00
 -1       334 4.82035E-05-1.55846E-06 1.03398E-25
 -1       335 4.82134E-05-1.13536E-06 0.00000E+00
 -1       336 4.62012E-05-1.99509E-06 0.00000E+00
 -1       337 4.33293E-05-2.28743E-06 0.00000E+00
 -1       338 3.98958E-05-2.58122E-06 6.61744E-24
 -1       339 3.63390E-05-2.87484E-06 0.00000E+00
 -1       340 3.30976E-05-3.16749E-06-6.61744E-24
 -1       341 4.70950E-05-9.99439E-07 0.00000E+00
 -1       342 4.61988E-05-5.63260E-07 6.61744E-24
 -1       343 4.53881E-05-3.54157E-07-1.32349E-23
 -1       344 4.46468E-05-3.35937E-07 0.00000E+00
 -1       345 4.39624E-05-4.70265E-07-2.64698E-23
 -1       346 4.33205E-05-7.18655E-07 0.00000E+00
 -1       347 4.27066E-05-1.04206E-06 2.64698E-23
 -1       348 4.21060E-05-1.40111E-06 0.00000E+00
 -1       349 4.15040E-05-1.75628E-06 0.00000E+00
 -1       350 4.08858E-05-2.06804E-06 1.32349E-23
 -1       351 4.02368E-05-2.29710E-06-2.64698E-23
 -1       352 3.95429E-05-2.40441E-06 6.61744E-24
 -1       353 3.87895E-05-2.35163E-06 0.00000E+00
 -1       354 3.79658E-05-2.10000E-06-6.61744E-24
 -1       355 3.70538E-05-1.61426E-06 1.32349E-23
 -1       356 4.82680E-05 3.00574E-07-8.27181E-25
 -1       357 4.83250E-05 8.21173E-07-2.06795E-25
 -1       358 4.83822E-05 1.15729E-06 8.27181E-25
 -1       359 4.84404E-05 1.34043E-06-8.27181E-25
 -1       360 4.84988E-05 1.40200E-06-1.65436E-24
 -1       361 4.85574E-05 1.37338E-06 0.00000E+00
 -1       362 4.86160E-05 1.28589E-06 0.00000E+00
 -1       363 4.86747E-05 1.17087E-06 0.00000E+00
 -1       364 4.87335E-05 1.05963E-06 1.65436E-24
 -1       365 4.87924E-05 9.83465E-07 0.00000E+00
 -1       366 4.88513E-05 9.73709E-07 0.00000E+00
 -1       367 4.89107E-05 1.06171E-06 1.65436E-24
 -1       368 4.89703E-05 1.27885E-06 0.00000E+00
 -1       369 4.90319E-05 1.65654E-06 0.00000E+00
 -1       370 4.90934E-05 2.22632E-06 0.00000E+00
 -1       371 4.68233E-05-5.05996E-07-3.30872E-24
 -1       372 4.47680E-05-5.75333E-07 0.00000E+00
 -1       373 4.23580E-05-6.45276E-07-1.65436E-24
 -1       374 3.99003E-05-7.14696E-07 8.27181E-25
 -1       375 3.77016E-05-7.83538E-07 0.00000E+00
 -1       376 4.76594E-05 1.89069E-07 0.00000E+00
 -1       377 4.71749E-05 5.92276E-07-3.30872E-24
 -1       378 4.67577E-05 8.16500E-07 6.61744E-24
 -1       379 4.63915E-05 9.01674E-07 3.30872E-24
 -1       380 4.60618E-05 8.88746E-07-6.61744E-24
 -1       381 4.57535E-05 8.18540E-07 3.30872E-24
 -1       382 4.54512E-05 7.32054E-07-6.61744E-24
 -1       383 4.51396E-05 6.70280E-07 3.30872E-24
 -1       384 4.48035E-05 6.74171E-07-6.61744E-24
 -1       385 4.44274E-05 7.84543E-07 0.00000E+00
 -1       386 4.39964E-05 1.04198E-06-6.61744E-24
 -1       387 4.34955E-05 1.48687E-06 3.30872E-24
 -1       388 4.29098E-05 2.15904E-06-6.61744E-24
 -1       389 4.22269E-05 3.09883E-06-3.30872E-24
 -1       390 4.14289E-05 4.34390E-06 8.27181E-25
 -1       406 4.81398E-05 3.50549E-06 0.00000E+00
 -1       407 4.69397E-05 3.99607E-06-6.61744E-24
 -1       408 4.55724E-05 4.48701E-06 0.00000E+00
 -1       409 4.40435E-05 4.97699E-06-6.61744E-24
 -1       410 4.23586E-05 5.46458E-06 1.32349E-23
 -1       466 2.22396E-05 3.93809E-08 0.00000E+00
 -1       467 2.26547E-05 1.09134E-06-6.61744E-24
 -1       468 2.30703E-05 1.51893E-06-1.32349E-23
 -1       469 2.34886E-05 1.43677E-06-6.61744E-24
 -1       470 2.39073E-05 9.58221E-07 1.32349E-23
 -1       471 2.43263E-05 1.95485E-07 0.00000E+00
 -1       472 2.47454E-05-7.39864E-07-1.32349E-23
 -1       473 2.51644E-05-1.73675E-06-6.61744E-24
 -1       474 2.55835E-05-2.68427E-06 0.00000E+00
 -1       475 2.60026E-05-3.47134E-06 0.00000E+00
 -1       476 2.64216E-05-3.98652E-06 0.00000E+00
 -1       477 2.68401E-05-4.11760E-06 6.61744E-24
 -1       478 2.72580E-05-3.75146E-06 0.00000E+00
 -1       479 2.76719E-05-2.77359E-06 0.00000E+00
 -1       480 2.80849E-05-1.06792E-06 0.00000E+00
 -1       481 1.95200E-05-1.65049E-06 0.00000E+00
 -1       482 1.71503E-05-1.54352E-06 8.27181E-25
 -1       483 1.48306E-05-1.43649E-06 0.00000E+00
 -1       484 1.26567E-05-1.32868E-06 0.00000E+00
 -1       485 1.07246E-05-1.22026E-06 1.65436E-24
 -1       486 2.06475E-05 5.91269E-08 0.00000E+00
 -1       487 1.96022E-05 1.40961E-06-6.61744E-24
 -1       488 1.87097E-05 2.35513E-06 0.00000E+00
 -1       489 1.79477E-05 2.94523E-06 6.61744E-24
 -1       490 1.72990E-05 3.23244E-06 0.00000E+00
 -1       491 1.67437E-05 3.26957E-06 6.61744E-24
 -1       492 1.62619E-05 3.11033E-06 0.00000E+00
 -1       493 1.58333E-05 2.80907E-06 6.61744E-24
 -1       494 1.54374E-05 2.42057E-06-1.32349E-23
 -1       495 1.50536E-05 1.99993E-06 0.00000E+00
 -1       496 1.46613E-05 1.60238E-06 0.00000E+00
 -1       497 1.42401E-05 1.28310E-06 0.00000E+00
 -1       498 1.37693E-05 1.09696E-06 0.00000E+00
 -1       499 1.32306E-05 1.09904E-06 0.00000E+00
 -1       500 1.26012E-05 1.34224E-06 0.00000E+00
 -1       501 2.85917E-05 3.96561E-06 0.00000E+00
 -1       502 2.87252E-05 5.48203E-06 4.13590E-25
 -1       503 2.88598E-05 6.15994E-06 1.65436E-24
 -1       504 2.89963E-05 6.12775E-06 0.00000E+00
 -1       505 2.91329E-05 5.51310E-06 3.30872E-24
 -1       506 2.92696E-05 4.44316E-06 1.65436E-24
 -1       507 2.94059E-05 3.04476E-06-3.30872E-24
 -1       508 2.95421E-05 1.44438E-06-1.65436E-24
 -1       509 2.96781E-05-2.31632E-07 0.00000E+00
 -1       510 2.98141E-05-1.85697E-06-1.65436E-24
 -1       511 2.99503E-05-3.30535E-06-3.30872E-24
 -1       512 3.00864E-05-4.45028E-06 1.65436E-24
 -1       513 3.02224E-05-5.16502E-06-6.61744E-24
 -1       514 3.03565E-05-5.32252E-06 0.00000E+00
 -1       515 3.04904E-05-4.79511E-06 8.27181E-25
 -1       516 2.52060E-05 1.54194E-06-8.27181E-25
 -1       517 2.18213E-05 1.60997E-06 1.55096E-25
 -1       518 1.85568E-05 1.67819E-06 0.00000E+00
 -1       519 1.56519E-05 1.74783E-06 0.00000E+00
 -1       520 1.33462E-05 1.81912E-06 0.00000E+00
 -1       521 2.66401E-05 3.71020E-06 1.32349E-23
 -1       522 2.51032E-05 5.05708E-06-1.32349E-23
 -1       523 2.38553E-05 5.63717E-06 0.00000E+00
 -1       524 2.28504E-05 5.55670E-06-1.32349E-23
 -1       525 2.20502E-05 4.92882E-06 0.00000E+00
 -1       526 2.14107E-05 3.86921E-06 0.00000E+00
 -1       527 2.08882E-05 2.49632E-06 0.00000E+00
 -1       528 2.04376E-05 9.30692E-07 0.00000E+00
 -1       529 2.00136E-05-7.05977E-07 0.00000E+00
 -1       530 1.95706E-05-2.29146E-06 0.00000E+00
 -1       531 1.90630E-05-3.70390E-06 0.00000E+00
 -1       532 1.84463E-05-4.82248E-06 0.00000E+00
 -1       533 1.76757E-05-5.52836E-06 0.00000E+00
 -1       534 1.67109E-05-5.70442E-06-1.32349E-23
 -1       535 1.55049E-05-5.23932E-06 0.00000E+00
 -1       536 3.09233E-05-1.90480E-06-1.65436E-24
 -1       537 3.12633E-05-8.28154E-07 0.00000E+00
 -1       538 3.16037E-05-1.62170E-07 0.00000E+00
 -1       539 3.19478E-05 1.56137E-07 3.30872E-24
 -1       540 3.22925E-05 1.88989E-07 1.32349E-23
 -1       541 3.26378E-05-2.04214E-09 0.00000E+00
 -1       542 3.29834E-05-3.55814E-07-1.32349E-23
 -1       543 3.33290E-05-8.11573E-07 0.00000E+00
 -1       544 3.36746E-05-1.30875E-06 0.00000E+00
 -1       545 3.40201E-05-1.78689E-06 6.61744E-24
 -1       546 3.43656E-05-2.18549E-06-1.32349E-23
 -1       547 3.47107E-05-2.44386E-06 0.00000E+00
 -1       548 3.50555E-05-2.50104E-06 0.00000E+00
 -1       549 3.53981E-05-2.29563E-06-3.30872E-24
 -1       550 3.57406E-05-1.76562E-06-6.61744E-24
 -1       551 2.81648E-05-3.55207E-06 4.75629E-24
 -1       552 2.53957E-05-3.64336E-06 1.24077E-24
 -1       553 2.24487E-05-3.73406E-06-3.30872E-24
 -1       554 1.94746E-05-3.82495E-06 0.00000E+00
 -1       555 1.66241E-05-3.91676E-06-6.61744E-24
 -1       556 2.97011E-05-2.09776E-06 0.00000E+00
 -1       557 2.89397E-05-1.14435E-06 0.00000E+00
 -1       558 2.83099E-05-5.43639E-07 0.00000E+00
 -1       559 2.77920E-05-2.42655E-07-6.61744E-24
 -1       560 2.73665E-05-1.88316E-07 0.00000E+00
 -1       561 2.70135E-05-3.27301E-07 0.00000E+00
 -1       562 2.67129E-05-6.06237E-07 0.00000E+00
 -1       563 2.64448E-05-9.71677E-07-6.61744E-24
 -1       564 2.61890E-05-1.37014E-06-1.32349E-23
 -1       565 2.59256E-05-1.74815E-06-6.61744E-24
 -1       566 2.56346E-05-2.05220E-06 0.00000E+00
 -1       567 2.52960E-05-2.22882E-06-6.61744E-24
 -1       568 2.48899E-05-2.22458E-06-6.61744E-24
 -1       569 2.43972E-05-1.98608E-06 3.30872E-24
 -1       570 2.37988E-05-1.46002E-06 0.00000E+00
 -1       571 3.63306E-05 2.93746E-08 2.32645E-24
 -1       572 3.66061E-05 6.34765E-07-1.65436E-24
 -1       573 3.68844E-05 1.01135E-06 0.00000E+00
 -1       574 3.71641E-05 1.20486E-06-3.30872E-24
 -1       575 3.74443E-05 1.26105E-06-6.61744E-24
 -1       576 3.77249E-05 1.22583E-06 3.30872E-24
 -1       577 3.80055E-05 1.14507E-06 6.61744E-24
 -1       578 3.82862E-05 1.06467E-06 0.00000E+00
 -1       579 3.85669E-05 1.03052E-06 1.32349E-23
 -1       580 3.88476E-05 1.08853E-06 0.00000E+00
 -1       581 3.91283E-05 1.28461E-06 0.00000E+00
 -1       582 3.94088E-05 1.66472E-06 6.61744E-24
 -1       583 3.96891E-05 2.27480E-06 1.32349E-23
 -1       584 3.99689E-05 3.16067E-06-6.61744E-24
 -1       585 4.02479E-05 4.36811E-06 0.00000E+00
 -1       586 3.42424E-05-8.05767E-07 0.00000E+00
 -1       587 3.20625E-05-7.61095E-07 0.00000E+00
 -1       588 2.96912E-05-7.16506E-07 0.00000E+00
 -1       589 2.72943E-05-6.72452E-07 0.00000E+00
 -1       590 2.50377E-05-6.29426E-07 0.00000E+00
 -1       591 3.54831E-05 4.11466E-08-6.61744E-24
 -1       592 3.49603E-05 7.35283E-07 0.00000E+00
 -1       593 3.44967E-05 1.26664E-06 0.00000E+00
 -1       594 3.40812E-05 1.66676E-06 3.30872E-24
 -1       595 3.37028E-05 1.96721E-06 0.00000E+00
 -1       596 3.33498E-05 2.19950E-06 0.00000E+00
 -1       597 3.30104E-05 2.39515E-06 0.00000E+00
 -1       598 3.26730E-05 2.58564E-06 0.00000E+00
 -1       599 3.23257E-05 2.80249E-06 6.61744E-24
 -1       600 3.19567E-05 3.07718E-06 0.00000E+00
 -1       601 3.15542E-05 3.44120E-06 3.30872E-24
 -1       602 3.11067E-05 3.92603E-06-1.65436E-24
 -1       603 3.06024E-05 4.56316E-06 4.96308E-24
 -1       604 3.00306E-05 5.38415E-06-2.89513E-24
 -1       605 2.93804E-05 6.42054E-06 1.65436E-24
 -1       606 4.06066E-05 7.99134E-06 0.00000E+00
 -1       607 4.06819E-05 1.02637E-05 0.00000E+00
 -1       608 4.07554E-05 1.27430E-05 6.61744E-24
 -1       609 4.08276E-05 1.54130E-05 0.00000E+00
 -1       610 4.08991E-05 1.82577E-05 0.00000E+00
 -1       611 4.09700E-05 2.12607E-05 0.00000E+00
 -1       612 4.10405E-05 2.44059E-05 0.00000E+00
 -1       613 4.11105E-05 2.76771E-05 0.00000E+00
 -1       614 4.11802E-05 3.10578E-05 0.00000E+00
 -1       615 4.12496E-05 3.45320E-05 0.00000E+00
 -1       616 4.13186E-05 3.80834E-05 0.00000E+00
 -1       617 4.13875E-05 4.16957E-05 0.00000E+00
 -1       618 4.14561E-05 4.53527E-05-3.30872E-24
 -1       619 4.15245E-05 4.90383E-05 0.00000E+00
 -1       620 4.15926E-05 5.27362E-05-1.65436E-24
 -1       621 3.84839E-05 6.23482E-06 0.00000E+00
 -1       622 3.64104E-05 6.53188E-06 3.30872E-24
 -1       623 3.43468E-05 6.82919E-06 6.61744E-24
 -1       624 3.23370E-05 7.12580E-06 0.00000E+00
 -1       625 3.04246E-05 7.42067E-06-6.61744E-24
 -1       626 3.99100E-05 8.09229E-06 0.00000E+00
 -1       627 3.91990E-05 1.04923E-05 0.00000E+00
 -1       628 3.84030E-05 1.31161E-05 0.00000E+00
 -1       629 3.75322E-05 1.59369E-05 0.00000E+00
 -1       630 3.65970E-05 1.89278E-05 0.00000E+00
 -1       631 3.56077E-05 2.20619E-05 0.00000E+00
 -1       632 3.45743E-05 2.53121E-05 6.61744E-24
 -1       633 3.35072E-05 2.86515E-05 0.00000E+00
 -1       634 3.24165E-05 3.20531E-05-6.61744E-24
 -1       635 3.13125E-05 3.54899E-05-3.30872E-24
 -1       636 3.02052E-05 3.89350E-05-6.61744E-24
 -1       637 2.91049E-05 4.23615E-05 1.65436E-24
 -1       638 2.80216E-05 4.57422E-05 3.30872E-24
 -1       639 2.69651E-05 4.90504E-05-8.27181E-25
 -1       640 2.59449E-05 5.22587E-05 2.48154E-24
 -1       641 4.16586E-05 6.01225E-05 8.27181E-25
 -1       642 4.16562E-05 6.38949E-05-2.06795E-25
 -1       643 4.16536E-05 6.77342E-05 4.13590E-25
 -1       644 4.16505E-05 7.16271E-05 1.03398E-25
 -1       645 4.16472E-05 7.55602E-05-2.06795E-25
 -1       646 4.16438E-05 7.95204E-05 0.00000E+00
 -1       647 4.16403E-05 8.34943E-05 1.03398E-25
 -1       648 4.16368E-05 8.74686E-05 5.16988E-26
 -1       649 4.16333E-05 9.14300E-05 5.16988E-26
 -1       650 4.16299E-05 9.53652E-05 5.16988E-26
 -1       651 4.16267E-05 9.92610E-05 0.00000E+00
 -1       652 4.16235E-05 1.03104E-04 0.00000E+00
 -1       653 4.16205E-05 1.06881E-04 0.00000E+00
 -1       654 4.16172E-05 1.10578E-04 0.00000E+00
 -1       655 4.16143E-05 1.14183E-04-1.65436E-24
 -1       656 3.83191E-05 5.62532E-05 3.30872E-24
 -1       657 3.53960E-05 5.60681E-05 1.65436E-24
 -1       658 3.27449E-05 5.58840E-05 0.00000E+00
 -1       659 3.02199E-05 5.57000E-05 0.00000E+00
 -1       660 2.76753E-05 5.55158E-05 3.30872E-24
 -1       661 4.04515E-05 6.01827E-05-3.30872E-24
 -1       662 3.92244E-05 6.40055E-05 3.30872E-24
 -1       663 3.79769E-05 6.78820E-05-6.61744E-24
 -1       664 3.67152E-05 7.17984E-05 0.00000E+00
 -1       665 3.54440E-05 7.57402E-05 6.61744E-24
 -1       666 3.41688E-05 7.96932E-05 0.00000E+00
 -1       667 3.28947E-05 8.36433E-05 0.00000E+00
 -1       668 3.16271E-05 8.75764E-05 3.30872E-24
 -1       669 3.03713E-05 9.14782E-05 6.61744E-24
 -1       670 2.91327E-05 9.53346E-05 0.00000E+00
 -1       671 2.79166E-05 9.91313E-05 0.00000E+00
 -1       672 2.67284E-05 1.02854E-04-3.30872E-24
 -1       673 2.55735E-05 1.06488E-04-6.61744E-24
 -1       674 2.44562E-05 1.10018E-04 0.00000E+00
 -1       675 2.33836E-05 1.13431E-04 0.00000E+00
 -1       676 3.82347E-05 1.17521E-04 0.00000E+00
 -1       677 3.49574E-05 1.17357E-04 0.00000E+00
 -1       678 3.17535E-05 1.17193E-04 0.00000E+00
 -1       679 2.85999E-05 1.17030E-04 0.00000E+00
 -1       680 2.54734E-05 1.16866E-04 0.00000E+00
 -1       681 9.29768E-06 5.38789E-08-3.30872E-24
 -1       682 9.46995E-06 8.86488E-07-1.65436E-24
 -1       683 9.64244E-06 1.42895E-06 0.00000E+00
 -1       684 9.81565E-06 1.72530E-06 0.00000E+00
 -1       685 9.98901E-06 1.81930E-06 0.00000E+00
 -1       686 1.01625E-05 1.75446E-06-3.30872E-24
 -1       687 1.03360E-05 1.57416E-06 6.61744E-24
 -1       688 1.05095E-05 1.32164E-06 0.00000E+00
 -1       689 1.06830E-05 1.04005E-06 0.00000E+00
 -1       690 1.08564E-05 7.72525E-07 3.30872E-24
 -1       691 1.10298E-05 5.62210E-07-6.61744E-24
 -1       692 1.12029E-05 4.52313E-07 0.00000E+00
 -1       693 1.13757E-05 4.86144E-07 0.00000E+00
 -1       694 1.15469E-05 7.07166E-07-1.65436E-24
 -1       695 1.17181E-05 1.15908E-06 0.00000E+00
 -1       696 7.65091E-06-9.32490E-07 3.30872E-24
 -1       697 6.04590E-06-7.47206E-07 0.00000E+00
 -1       698 4.39661E-06-5.61923E-07-6.61744E-24
 -1       699 2.78474E-06-3.75595E-07-3.30872E-24
 -1       700 1.29202E-06-1.88952E-07 6.61744E-24
 -1       701 8.49605E-06 4.02090E-08 0.00000E+00
 -1       702 7.94646E-06 9.35038E-07 0.00000E+00
 -1       703 7.48246E-06 1.60257E-06-6.61744E-24
 -1       704 7.09206E-06 2.06957E-06 0.00000E+00
 -1       705 6.76617E-06 2.36410E-06 0.00000E+00
 -1       706 6.49427E-06 2.51401E-06-3.30872E-24
 -1       707 6.26601E-06 2.54739E-06 0.00000E+00
 -1       708 6.07083E-06 2.49247E-06 0.00000E+00
 -1       709 5.89814E-06 2.37756E-06 0.00000E+00
 -1       710 5.73733E-06 2.23109E-06-3.30872E-24
 -1       711 5.57776E-06 2.08152E-06 6.61744E-24
 -1       712 5.40894E-06 1.95734E-06 0.00000E+00
 -1       713 5.22018E-06 1.88698E-06 6.61744E-24
 -1       714 5.00211E-06 1.89922E-06 0.00000E+00
 -1       715 4.74253E-06 2.02174E-06 1.65436E-24
 -1       716 1.20056E-05 2.46459E-06-4.13590E-25
 -1       717 1.21423E-05 2.52722E-06 0.00000E+00
 -1       718 1.22791E-05 2.15718E-06 3.30872E-24
 -1       719 1.24169E-05 1.43850E-06-1.65436E-24
 -1       720 1.25548E-05 4.54818E-07-3.30872E-24
 -1       721 1.26928E-05-7.10441E-07 0.00000E+00
 -1       722 1.28307E-05-1.97398E-06 0.00000E+00
 -1       723 1.29686E-05-3.25265E-06-1.65436E-24
 -1       724 1.31066E-05-4.46325E-06-3.30872E-24
 -1       725 1.32447E-05-5.52253E-06 1.65436E-24
 -1       726 1.33828E-05-6.34717E-06-3.30872E-24
 -1       727 1.35207E-05-6.85356E-06 0.00000E+00
 -1       728 1.36582E-05-6.95788E-06 0.00000E+00
 -1       729 1.37934E-05-6.57596E-06-8.27181E-25
 -1       730 1.39281E-05-5.62312E-06 0.00000E+00
 -1       731 1.07343E-05 1.94678E-06 0.00000E+00
 -1       732 9.31739E-06 2.01406E-06 0.00000E+00
 -1       733 7.80341E-06 2.08121E-06-1.65436E-24
 -1       734 6.36865E-06 2.14930E-06-8.27181E-25
 -1       735 5.18946E-06 2.21785E-06 8.27181E-25
 -1       736 1.11731E-05 2.46191E-06-6.61744E-24
 -1       737 1.05546E-05 2.75964E-06-6.61744E-24
 -1       738 1.00268E-05 2.81601E-06 0.00000E+00
 -1       739 9.57533E-06 2.66262E-06 0.00000E+00
 -1       740 9.18946E-06 2.33321E-06-1.32349E-23
 -1       741 8.85653E-06 1.86143E-06 0.00000E+00
 -1       742 8.56402E-06 1.28148E-06-1.32349E-23
 -1       743 8.29904E-06 6.27797E-07 0.00000E+00
 -1       744 8.04868E-06-6.49022E-08-1.32349E-23
 -1       745 7.79993E-06-7.61785E-07 0.00000E+00
 -1       746 7.53980E-06-1.42803E-06-1.32349E-23
 -1       747 7.25550E-06-2.02884E-06 0.00000E+00
 -1       748 6.93406E-06-2.52968E-06 1.32349E-23
 -1       749 6.56420E-06-2.89585E-06 6.61744E-24
 -1       750 6.13126E-06-3.09422E-06-6.61744E-24
 -1       751 1.45742E-05-2.32536E-06-3.30872E-24
 -1       752 1.51383E-05-1.14676E-06-6.61744E-24
 -1       753 1.57029E-05-4.08968E-07 1.32349E-23
 -1       754 1.62726E-05-4.29185E-08 0.00000E+00
 -1       755 1.68434E-05 1.91900E-08 0.00000E+00
 -1       756 1.74150E-05-1.56017E-07 6.61744E-24
 -1       757 1.79869E-05-5.02654E-07 0.00000E+00
 -1       758 1.85589E-05-9.55520E-07-6.61744E-24
 -1       759 1.91308E-05-1.44973E-06 1.32349E-23
 -1       760 1.97027E-05-1.92060E-06 0.00000E+00
 -1       761 2.02744E-05-2.30333E-06 0.00000E+00
 -1       762 2.08454E-05-2.53278E-06 0.00000E+00
 -1       763 2.14157E-05-2.54337E-06 1.32349E-23
 -1       764 2.19818E-05-2.26861E-06-6.61744E-24
 -1       765 2.25478E-05-1.64110E-06 6.61744E-24
 -1       766 1.20661E-05-3.87349E-06 0.00000E+00
 -1       767 1.02132E-05-3.71468E-06-4.13590E-25
 -1       768 8.56500E-06-3.55588E-06 1.65436E-24
 -1       769 7.20020E-06-3.39605E-06 0.00000E+00
 -1       770 6.19764E-06-3.23535E-06 0.00000E+00
 -1       771 1.27188E-05-2.50440E-06 0.00000E+00
 -1       772 1.14871E-05-1.30604E-06 0.00000E+00
 -1       773 1.03565E-05-3.86525E-07-5.29396E-23
 -1       774 9.31704E-06 2.84286E-07 0.00000E+00
 -1       775 8.35901E-06 7.36667E-07 0.00000E+00
 -1       776 7.47133E-06 1.00084E-06 1.32349E-23
 -1       777 6.64281E-06 1.10710E-06 0.00000E+00
 -1       778 5.86210E-06 1.08585E-06 1.32349E-23
 -1       779 5.11782E-06 9.67544E-07-2.64698E-23
 -1       780 4.39854E-06 7.82727E-07 0.00000E+00
 -1       781 3.69288E-06 5.61987E-07 2.64698E-23
 -1       782 2.98956E-06 3.35987E-07 0.00000E+00
 -1       783 2.27734E-06 1.35413E-07 2.64698E-23
 -1       784 1.54612E-06-8.75043E-09 0.00000E+00
 -1       785 7.85749E-07-6.55643E-08 0.00000E+00
 -1       786 2.34123E-05 5.42873E-07 0.00000E+00
 -1       787 2.37594E-05 1.39736E-06 0.00000E+00
 -1       788 2.41068E-05 2.01426E-06-6.61744E-24
 -1       789 2.44570E-05 2.43666E-06 0.00000E+00
 -1       790 2.48078E-05 2.70718E-06 0.00000E+00
 -1       791 2.51591E-05 2.86814E-06 0.00000E+00
 -1       792 2.55105E-05 2.96160E-06 0.00000E+00
 -1       793 2.58621E-05 3.02948E-06 0.00000E+00
 -1       794 2.62137E-05 3.11364E-06 1.32349E-23
 -1       795 2.65652E-05 3.25601E-06 6.61744E-24
 -1       796 2.69166E-05 3.49858E-06 0.00000E+00
 -1       797 2.72677E-05 3.88363E-06 0.00000E+00
 -1       798 2.76184E-05 4.45369E-06-1.32349E-23
 -1       799 2.79672E-05 5.25173E-06 3.30872E-24
 -1       800 2.83158E-05 6.32122E-06-6.61744E-24
 -1       801 2.03727E-05-4.93754E-07 0.00000E+00
 -1       802 1.60153E-05-3.91161E-07 0.00000E+00
 -1       803 1.09050E-05-2.91984E-07 8.27181E-25
 -1       804 5.93620E-06-1.93292E-07 0.00000E+00
 -1       805 2.00368E-06-9.05993E-08-6.61744E-24
 -1       806 2.22733E-05 3.98955E-07 0.00000E+00
 -1       807 2.15151E-05 1.20860E-06 0.00000E+00
 -1       808 2.08103E-05 1.86926E-06 0.00000E+00
 -1       809 2.01484E-05 2.41135E-06-6.61744E-24
 -1       810 1.95192E-05 2.86536E-06 1.32349E-23
 -1       811 1.89114E-05 3.26163E-06-6.61744E-24
 -1       812 1.83138E-05 3.63050E-06 1.32349E-23
 -1       813 1.77150E-05 4.00230E-06-6.61744E-24
 -1       814 1.71038E-05 4.40736E-06 0.00000E+00
 -1       815 1.64687E-05 4.87599E-06-6.61744E-24
 -1       816 1.57984E-05 5.43848E-06 6.61744E-24
 -1       817 1.50818E-05 6.12512E-06-6.61744E-24
 -1       818 1.43077E-05 6.96614E-06 0.00000E+00
 -1       819 1.34659E-05 7.99192E-06 0.00000E+00
 -1       820 1.25463E-05 9.23275E-06 0.00000E+00
 -1       821 2.84376E-05 9.45853E-06-1.65436E-24
 -1       822 2.82096E-05 1.15330E-05 0.00000E+00
 -1       823 2.79810E-05 1.38966E-05 0.00000E+00
 -1       824 2.77500E-05 1.65158E-05 3.30872E-24
 -1       825 2.75180E-05 1.93568E-05-6.61744E-24
 -1       826 2.72852E-05 2.23853E-05 0.00000E+00
 -1       827 2.70519E-05 2.55668E-05-6.61744E-24
 -1       828 2.68181E-05 2.88669E-05 3.30872E-24
 -1       829 2.65840E-05 3.22505E-05-6.61744E-24
 -1       830 2.63498E-05 3.56828E-05 0.00000E+00
 -1       831 2.61157E-05 3.91288E-05 0.00000E+00
 -1       832 2.58819E-05 4.25534E-05 3.30872E-24
 -1       833 2.56485E-05 4.59215E-05-6.61744E-24
 -1       834 2.54169E-05 4.91984E-05-3.30872E-24
 -1       835 2.51857E-05 5.23491E-05 3.30872E-24
 -1       836 2.64859E-05 8.19961E-06 0.00000E+00
 -1       837 2.35859E-05 8.70982E-06 0.00000E+00
 -1       838 2.02974E-05 9.21832E-06-1.32349E-23
 -1       839 1.69654E-05 9.72590E-06-6.61744E-24
 -1       840 1.39349E-05 1.02348E-05 6.61744E-24
 -1       841 2.79349E-05 9.44859E-06 0.00000E+00
 -1       842 2.70835E-05 1.15298E-05 4.13590E-25
 -1       843 2.61176E-05 1.39143E-05-8.27181E-25
 -1       844 2.50506E-05 1.65641E-05-8.27181E-25
 -1       845 2.38974E-05 1.94416E-05-1.65436E-24
 -1       846 2.26723E-05 2.25088E-05-8.27181E-25
 -1       847 2.13897E-05 2.57277E-05 0.00000E+00
 -1       848 2.00641E-05 2.90602E-05 8.27181E-25
 -1       849 1.87099E-05 3.24682E-05-1.65436E-24
 -1       850 1.73415E-05 3.59135E-05-8.27181E-25
 -1       851 1.59734E-05 3.93580E-05 0.00000E+00
 -1       852 1.46202E-05 4.27635E-05 0.00000E+00
 -1       853 1.32961E-05 4.60917E-05-1.65436E-24
 -1       854 1.20155E-05 4.93046E-05 0.00000E+00
 -1       855 1.07930E-05 5.23640E-05 3.30872E-24
 -1       856 2.48122E-05 5.83916E-05 1.65436E-24
 -1       857 2.46508E-05 6.17250E-05 0.00000E+00
 -1       858 2.44886E-05 6.53024E-05 0.00000E+00
 -1       859 2.43246E-05 6.90862E-05-1.65436E-24
 -1       860 2.41599E-05 7.30383E-05 0.00000E+00
 -1       861 2.39944E-05 7.71209E-05 0.00000E+00
 -1       862 2.38285E-05 8.12956E-05-3.30872E-24
 -1       863 2.36624E-05 8.55244E-05 3.30872E-24
 -1       864 2.34962E-05 8.97688E-05 6.61744E-24
 -1       865 2.33301E-05 9.39906E-05 0.00000E+00
 -1       866 2.31642E-05 9.81515E-05 0.00000E+00
 -1       867 2.29989E-05 1.02213E-04 3.30872E-24
 -1       868 2.28342E-05 1.06137E-04 3.30872E-24
 -1       869 2.26708E-05 1.09886E-04 0.00000E+00
 -1       870 2.25082E-05 1.13422E-04-3.30872E-24
 -1       871 2.22826E-05 5.53233E-05 0.00000E+00
 -1       872 1.97163E-05 5.53064E-05 0.00000E+00
 -1       873 1.72181E-05 5.52893E-05 0.00000E+00
 -1       874 1.47390E-05 5.52717E-05 2.06795E-25
 -1       875 1.22298E-05 5.52534E-05 4.13590E-25
 -1       876 2.40345E-05 5.84386E-05 0.00000E+00
 -1       877 2.30244E-05 6.17735E-05-3.30872E-24
 -1       878 2.19377E-05 6.53103E-05 0.00000E+00
 -1       879 2.07872E-05 6.90193E-05-3.30872E-24
 -1       880 1.95830E-05 7.28704E-05-6.61744E-24
 -1       881 1.83365E-05 7.68337E-05 3.30872E-24
 -1       882 1.70586E-05 8.08798E-05-6.61744E-24
 -1       883 1.57605E-05 8.49794E-05-3.30872E-24
 -1       884 1.44532E-05 8.91032E-05-6.61744E-24
 -1       885 1.31479E-05 9.32219E-05 3.30872E-24
 -1       886 1.18554E-05 9.73063E-05 0.00000E+00
 -1       887 1.05868E-05 1.01327E-04-3.30872E-24
 -1       888 9.35321E-06 1.05255E-04 0.00000E+00
 -1       889 8.16465E-06 1.09059E-04 3.30872E-24
 -1       890 7.03386E-06 1.12712E-04-3.30872E-24
 -1       891 1.94403E-05 1.16620E-04 0.00000E+00
 -1       892 1.67930E-05 1.16531E-04 0.00000E+00
 -1       893 1.42654E-05 1.16443E-04 0.00000E+00
 -1       894 1.17135E-05 1.16354E-04 8.27181E-25
 -1       895 8.99337E-06 1.16266E-04 0.00000E+00
 -1       896 2.76035E-07 9.92176E-07 0.00000E+00
 -1       897 5.54283E-07 1.73262E-06 3.30872E-24
 -1       898 8.32674E-07 2.25167E-06-6.61744E-24
 -1       899 1.11143E-06 2.57952E-06 3.30872E-24
 -1       900 1.39027E-06 2.74600E-06 0.00000E+00
 -1       901 1.66918E-06 2.78070E-06-3.30872E-24
 -1       902 1.94811E-06 2.71295E-06-6.61744E-24
 -1       903 2.22702E-06 2.57191E-06 0.00000E+00
 -1       904 2.50591E-06 2.38663E-06-6.61744E-24
 -1       905 2.78475E-06 2.18606E-06 0.00000E+00
 -1       906 3.06351E-06 1.99915E-06-6.61744E-24
 -1       907 3.34203E-06 1.85486E-06 3.30872E-24
 -1       908 3.62031E-06 1.78220E-06 6.61744E-24
 -1       909 3.89725E-06 1.81034E-06 3.30872E-24
 -1       910 4.17417E-06 1.96863E-06 0.00000E+00
 -1       911 4.51650E-06 2.56706E-06 0.00000E+00
 -1       912 4.59221E-06 2.61687E-06 0.00000E+00
 -1       913 4.66791E-06 2.46769E-06 0.00000E+00
 -1       914 4.74369E-06 2.15155E-06 8.27181E-25
 -1       915 4.81944E-06 1.70033E-06 0.00000E+00
 -1       916 4.89516E-06 1.14589E-06 8.27181E-25
 -1       917 4.97084E-06 5.20008E-07 0.00000E+00
 -1       918 5.04649E-06-1.45557E-07 0.00000E+00
 -1       919 5.12212E-06-8.19060E-07-1.65436E-24
 -1       920 5.19771E-06-1.46876E-06 0.00000E+00
 -1       921 5.27324E-06-2.06292E-06 0.00000E+00
 -1       922 5.34859E-06-2.56976E-06 0.00000E+00
 -1       923 5.42373E-06-2.95746E-06 0.00000E+00
 -1       924 5.49760E-06-3.19417E-06 0.00000E+00
 -1       925 5.57148E-06-3.24791E-06-8.27181E-25
 -1       926 5.29332E-06-2.82671E-06 6.61744E-24
 -1       927 4.94165E-06-2.61410E-06 0.00000E+00
 -1       928 4.58998E-06-2.44097E-06 0.00000E+00
 -1       929 4.23705E-06-2.29908E-06 6.61744E-24
 -1       930 3.88389E-06-2.18014E-06-1.32349E-23
 -1       931 3.53049E-06-2.07580E-06 0.00000E+00
 -1       932 3.17702E-06-1.97769E-06 0.00000E+00
 -1       933 2.82351E-06-1.87740E-06-6.61744E-24
 -1       934 2.46998E-06-1.76656E-06 1.32349E-23
 -1       935 2.11645E-06-1.63680E-06 0.00000E+00
 -1       936 1.76293E-06-1.47979E-06-1.32349E-23
 -1       937 1.40949E-06-1.28727E-06-6.61744E-24
 -1       938 1.05610E-06-1.05106E-06 0.00000E+00
 -1       939 7.03119E-07-7.63063E-07 0.00000E+00
 -1       940 3.50122E-07-4.15301E-07-1.32349E-23
 -1       941 6.78297E-07 4.09249E-07 0.00000E+00
 -1       942 1.39981E-06 7.55587E-07 0.00000E+00
 -1       943 2.12141E-06 1.05979E-06 0.00000E+00
 -1       944 2.84913E-06 1.34249E-06 1.32349E-23
 -1       945 3.57798E-06 1.62423E-06 0.00000E+00
 -1       946 4.30794E-06 1.92558E-06 0.00000E+00
 -1       947 5.03824E-06 2.26714E-06 0.00000E+00
 -1       948 5.76872E-06 2.66975E-06 0.00000E+00
 -1       949 6.49919E-06 3.15447E-06-2.64698E-23
 -1       950 7.22947E-06 3.74279E-06-1.32349E-23
 -1       951 7.95940E-06 4.45662E-06 2.64698E-23
 -1       952 8.68837E-06 5.31848E-06 0.00000E+00
 -1       953 9.41631E-06 6.35151E-06 0.00000E+00
 -1       954 1.01393E-05 7.57967E-06 0.00000E+00
 -1       955 1.08620E-05 9.02779E-06 0.00000E+00
 -1       956 1.14365E-05 1.27118E-05 8.27181E-25
 -1       957 1.13191E-05 1.48996E-05-1.65436E-24
 -1       958 1.12008E-05 1.72664E-05 2.89513E-24
 -1       959 1.10819E-05 1.97924E-05-8.27181E-25
 -1       960 1.09625E-05 2.24576E-05-2.48154E-24
 -1       961 1.08427E-05 2.52421E-05 1.24077E-24
 -1       962 1.07227E-05 2.81258E-05 3.30872E-24
 -1       963 1.06024E-05 3.10886E-05 8.27181E-25
 -1       964 1.04820E-05 3.41105E-05-3.30872E-24
 -1       965 1.03614E-05 3.71713E-05 0.00000E+00
 -1       966 1.02408E-05 4.02511E-05 0.00000E+00
 -1       967 1.01203E-05 4.33296E-05 0.00000E+00
 -1       968 9.99985E-06 4.63869E-05 3.30872E-24
 -1       969 9.87969E-06 4.94030E-05 1.65436E-24
 -1       970 9.76000E-06 5.23577E-05-3.30872E-24
 -1       971 9.42053E-06 5.81697E-05 0.00000E+00
 -1       972 9.19222E-06 6.13908E-05 3.30872E-24
 -1       973 8.96312E-06 6.48602E-05 0.00000E+00
 -1       974 8.73243E-06 6.85425E-05 3.30872E-24
 -1       975 8.50094E-06 7.24020E-05-6.61744E-24
 -1       976 8.26878E-06 7.64025E-05 3.30872E-24
 -1       977 8.03616E-06 8.05081E-05 0.00000E+00
 -1       978 7.80324E-06 8.46823E-05 0.00000E+00
 -1       979 7.57020E-06 8.88887E-05 6.61744E-24
 -1       980 7.33722E-06 9.30908E-05 3.30872E-24
 -1       981 7.10447E-06 9.72521E-05 0.00000E+00
 -1       982 6.87224E-06 1.01336E-04-3.30872E-24
 -1       983 6.64065E-06 1.05307E-04-6.61744E-24
 -1       984 6.41080E-06 1.09128E-04 0.00000E+00
 -1       985 6.18162E-06 1.12764E-04 0.00000E+00
 -3
    1PSTEP                         2           1           1          
  100CL  101 1.000000000         841                     0    1           1
 -4  STRESS      6    1
 -5  SXX         1    4    1    1
 -5  SYY         1    4    2    2
 -5  SZZ         1    4    3    3
 -5  SXY         1    4    1    2
 -5  SYZ         1    4    2    3
 -5  SZX         1    4    3    1
 -1         1-2.04119E+06-6.09884E+05-2.16050E+05-7.66657E+05 9.70128E-11-4.28796E-09
 -1         2-1.24567E+06 3.39871E+03 2.24209E+03-1.52942E+05-2.22826E-11 9.96806E-10
 -1         3-5.02452E+05-2.23967E+05 1.72513E+02-8.51955E+04-1.29489E-10 1.16415E-09
 -1         4-1.14146E+05-5.78694E+04 1.93031E+02-3.03839E+04 5.21254E-11 5.92763E-10
 -1         5 3.08231E+04 5.87494E+05-9.86818E+04 1.99360E+03 1.06957E-09 1.25237E-09
 -1         8-5.82567E+05-3.65051E+05-3.43104E+04-5.93634E+05 5.45697E-12 2.47383E-09
 -1         9-9.85575E+05-1.68312E+05-8.23712E+04-4.12854E+05 2.54659E-10-2.75031E-09
 -1        10-5.50432E+05-3.49031E+05 3.44629E+02-2.69564E+05 8.95398E-10 1.25753E-09
 -1        11-1.99869E+05-1.07832E+05 1.49499E+02-1.38368E+05-3.44168E-10-3.59546E-09
 -1        12 7.40994E+03 5.75986E+05-9.97249E+04-7.55446E+03 2.68119E-09 1.67807E-09
 -1        15 7.85497E+03-2.24018E+04 1.63657E+03-1.81224E+05-1.41881E-10 4.03816E-10
 -1        16-5.12182E+05-1.50320E+05-5.03530E+04-3.70577E+05 1.04289E-10-3.15291E-10
 -1        17-3.56952E+05-2.85425E+05-7.48000E+02-3.92676E+05-9.76191E-10-1.23934E-09
 -1        18-7.02338E+04-9.13998E+04-2.98592E+04-2.95690E+05-1.46853E-09-1.20902E-09
 -1        19 1.34718E+05 3.03993E+05-4.43326E+04-3.88233E+04 5.77226E-10-7.01524E-10
 -1        20 1.37227E+05-9.36581E+04-1.53014E+04 8.45108E+04 1.02398E-08-8.25821E-10
 -1        21-2.14291E+04-2.02308E+05-9.18756E+02 1.46449E+04 3.50037E-08-4.76227E-09
 -1        22 2.96053E+04 1.73543E+05 7.25869E+02-7.77641E+04-1.00044E-10-2.71575E-09
 -1        23-2.06542E+05-1.26263E+04 1.41957E+03-1.95514E+05 9.30716E-11-9.62245E-10
 -1        24-2.50404E+05-4.01301E+04 8.27319E+04-3.51946E+05 8.37948E-10-2.83277E-09
 -1        25 2.02078E+05 8.87845E+04 1.15820E+05-3.60705E+05 1.90388E-10-1.96208E-09
 -1        26 1.49892E+04 3.23709E+05 2.52201E+04-1.12361E+05-4.45046E-10-5.62371E-10
 -1        27-6.00849E+04-7.46912E+04-3.56602E+04 1.18447E+05 1.00572E-08-3.08076E-09
 -1        28-1.45036E+04-1.39527E+05-1.03443E+03 7.36829E+04 3.14622E-08-3.61492E-09
 -1        29 3.85067E+05 2.83760E+05 1.00359E+03-4.38506E+04-4.84022E-11 2.48747E-10
 -1        30 1.35683E+05 3.39046E+04 1.02122E+03-8.14042E+04-7.07701E-12-3.25599E-10
 -1        31-4.30617E+05 3.29639E+04 2.20533E+03-1.16578E+05-2.37677E-12-3.21961E-10
 -1        32-6.69355E+04 1.25393E+05 1.73854E+05-3.38098E+05-1.89721E-09 2.13549E-09
 -1        33 3.13802E+05 4.10592E+05 1.76082E+05-1.48633E+05 3.77283E-09-1.96724E-09
 -1        34-2.76629E+05-3.83416E+04-1.56025E+04 5.73077E+04 7.08970E-09-3.04681E-10
 -1        35-4.29343E+04-4.59386E+04-8.06395E+02 1.02458E+05 2.90277E-08 6.28158E-10
 -1        36-2.75350E+06 1.88015E+04-1.09422E+05-2.88192E-08 2.20492E-10-9.89530E-10
 -1        37-2.79062E+06-2.97600E+04-6.82166E+04-2.93994E-08 7.24998E-10 4.77939E-09
 -1        38-2.76936E+06 1.75220E+03-2.82148E+04 5.34874E-09 1.49792E-10 1.05174E-08
 -1        39-2.77306E+06-2.52724E+03-1.54309E+04-2.20916E-08-7.79987E-10 6.63294E-09
 -1        40-2.77096E+06 1.85849E+02-7.21788E+03-2.79775E-08-7.04623E-10-2.38015E-09
 -1        41-2.77125E+06-2.11396E+02-3.96180E+03 5.32012E-08-4.71110E-10 2.35087E-09
 -1        42-2.77115E+06 2.97810E+01-2.32619E+03-2.17446E-08 1.26396E-09-2.82756E-09
 -1        43-2.77106E+06-3.73752E+01-2.05793E+03-2.65706E-08-2.45376E-09 3.35697E-09
 -1        44-2.77114E+06 3.55516E+01-2.70536E+03-7.16575E-09 8.29411E-10 1.03284E-09
 -1        45-2.77133E+06-2.71245E+02-4.95002E+03-2.47454E-08-8.02770E-10-1.20508E-10
 -1        46-2.77089E+06 2.38462E+02-9.21197E+03-9.19110E-09 8.30879E-11-1.70576E-09
 -1        47-2.77367E+06-3.25038E+03-1.98101E+04-1.79332E-08 2.71755E-10-5.32509E-10
 -1        48-2.76883E+06 2.25348E+03-3.62694E+04 5.35795E-09 1.10335E-11-5.02041E-09
 -1        49-2.79625E+06-3.82752E+04-8.77253E+04 9.02583E-09-9.79543E-10 1.61526E-09
 -1        50-2.74843E+06 2.41840E+04-1.40710E+05-1.74005E-08-4.95968E-11 1.78261E-09
 -1        51 4.47810E+04-5.14691E+05 1.08251E+05-9.72352E+05-2.03727E-10 9.89530E-10
 -1        52 1.97710E+04-5.00597E+05 5.82911E+04-1.15352E+06-4.00178E-10 9.45874E-11
 -1        53 7.88318E+03-5.21150E+05 3.04590E+04-9.68812E+05-5.09317E-10 3.04135E-09
 -1        54 1.57680E+04-5.22473E+05 2.59952E+04-1.15691E+06-8.94943E-10-4.65661E-10
 -1        55 2.22888E+04-5.29899E+05 3.17033E+04-9.68600E+05-4.65661E-10-1.14960E-09
 -1        56-3.42294E+06-4.51653E+05-2.07035E+05-1.30999E+06 9.09495E-11-8.39646E-09
 -1        57-3.48781E+06-5.70402E+05-1.27274E+05-1.31814E+06 1.62618E-09-4.62023E-10
 -1        58-3.45654E+06-4.89832E+05-4.86654E+04-1.30759E+06-5.93900E-10 5.80803E-09
 -1        59-3.44876E+06-5.15563E+05-2.60910E+04-1.32537E+06 2.58979E-10 4.32692E-10
 -1        60-3.45996E+06-4.93579E+05-1.13219E+04-1.30752E+06 1.78352E-09 6.29825E-09
 -1        61-3.44498E+06-5.10227E+05-5.99743E+03-1.32547E+06 3.05772E-09 2.88662E-09
 -1        62-3.46010E+06-4.94220E+05-3.31491E+03-1.30780E+06-1.48611E-09 4.21096E-09
 -1        63-3.44522E+06-5.09150E+05-2.93618E+03-1.32465E+06-5.61386E-10-2.72848E-12
 -1        64-3.45962E+06-4.94674E+05-4.02755E+03-1.30829E+06 3.21052E-10 1.36652E-09
 -1        65-3.44679E+06-5.08701E+05-7.91110E+03-1.32336E+06 4.88399E-10 4.67321E-09
 -1        66-3.45841E+06-4.94813E+05-1.52959E+04-1.30897E+06-1.24328E-09-1.70348E-09
 -1        67-3.45361E+06-5.14177E+05-3.53768E+04-1.32108E+06-1.17120E-09-2.73576E-09
 -1        68-3.45290E+06-4.90599E+05-6.61034E+04-1.31000E+06 1.45747E-09 1.60799E-09
 -1        69-3.50815E+06-5.87046E+05-1.72816E+05-1.30938E+06 2.11003E-10-5.32964E-10
 -1        70-3.40649E+06-4.39481E+05-2.81117E+05-1.31408E+06 3.92902E-10-1.84809E-09
 -1        71-1.04480E+06-3.38016E+03 1.97356E+04 6.38556E-09 5.81713E-10-4.90218E-10
 -1        72-1.03797E+06 5.35880E+03 1.22944E+04 8.56653E-09-5.75770E-10 5.08589E-09
 -1        73-1.04194E+06-3.14943E+02 5.07884E+03-6.08173E-09-4.46248E-10 2.94358E-09
 -1        74-1.04113E+06 4.54750E+02 2.75782E+03 4.23366E-09 7.49486E-10-3.92686E-09
 -1        75-1.04165E+06-3.29932E+01 1.24950E+03-3.06364E-08 4.37955E-10 1.46093E-09
 -1        76-1.04146E+06 3.75219E+01 6.04809E+02-2.88303E-08-2.41706E-09 7.10304E-09
 -1        77-1.04161E+06-3.27021E+00 2.01813E+02-2.45837E-08-3.53207E-10 1.66213E-09
 -1        78-1.04152E+06-1.39584E+00-7.74503E+01-8.93556E-09 4.90423E-10-9.17307E-09
 -1        79-1.04160E+06 5.72283E+00-3.91140E+02-1.95549E-08 4.32821E-10 1.58127E-09
 -1        80-1.04159E+06-5.55784E+01-9.39911E+02-3.78236E-09-3.59018E-10 9.97815E-10
 -1        81-1.04154E+06 4.88824E+01-1.86706E+03 6.63355E-09 6.19739E-11-1.43064E-09
 -1        82-1.04207E+06-6.71093E+02-4.08148E+03-1.73734E-08 2.40468E-10-5.03542E-09
 -1        83-1.04111E+06 4.64856E+02-7.50033E+03-9.23799E-09 1.33693E-10-2.44927E-09
 -1        84-1.04674E+06-7.90809E+03-1.81457E+04 7.30802E-09-9.15541E-10 2.80215E-09
 -1        85-1.03689E+06 4.98923E+03-2.91199E+04 3.86217E-09 1.68344E-10 1.75532E-09
 -1        86-3.06834E+04 6.27818E+05 1.83250E+05-1.62643E+04 2.83762E-10 2.64117E-09
 -1        87 5.09587E+04 6.91223E+05 1.27219E+05-4.41739E+04 2.74667E-10-4.54747E-10
 -1        88-4.99405E+03 6.51489E+05 7.78787E+04-1.62719E+04 5.81622E-10 3.77258E-09
 -1        89 3.93559E+04 6.83329E+05 1.04130E+05-4.40522E+04 4.30191E-10 5.72982E-11
 -1        90-2.24714E+04 6.35197E+05 1.38398E+05-1.63515E+04 9.53150E-10 8.97671E-10
 -1        91-1.58662E+06-2.17402E+05-4.98298E+04-6.03183E+05-1.36697E-09-6.61930E-09
 -1        92-1.59948E+06-2.48576E+05-3.06176E+04-6.08193E+05 1.28955E-09-5.50654E-09
 -1        93-1.59473E+06-2.26544E+05-1.17235E+04-6.02597E+05 8.93692E-10-7.73070E-11
 -1        94-1.59006E+06-2.35443E+05-6.28914E+03-6.09973E+05 1.55154E-10-1.84366E-09
 -1        95-1.59557E+06-2.27423E+05-2.73852E+03-6.02561E+05-8.26446E-10-4.00701E-09
 -1        96-1.58912E+06-2.34209E+05-1.46503E+03-6.10055E+05 2.50907E-10-9.50337E-10
 -1        97-1.59564E+06-2.27546E+05-8.35564E+02-6.02598E+05 1.20963E-09 2.09707E-09
 -1        98-1.58912E+06-2.34014E+05-7.87872E+02-6.09936E+05 2.18165E-10 4.12814E-09
 -1        99-1.59555E+06-2.27613E+05-1.12966E+03-6.02675E+05 7.30779E-10 1.19553E-09
 -1       100-1.58945E+06-2.34013E+05-2.26158E+03-6.09723E+05 4.54406E-10 4.39343E-09
 -1       101-1.59528E+06-2.27578E+05-4.38559E+03-6.02789E+05-9.49512E-10 2.94358E-09
 -1       102-1.59126E+06-2.35732E+05-1.01537E+04-6.09249E+05-7.93989E-10 4.97948E-10
 -1       103-1.59378E+06-2.26291E+05-1.89675E+04-6.02991E+05-3.88695E-10 5.47516E-10
 -1       104-1.60673E+06-2.56741E+05-4.95442E+04-6.06076E+05 2.07666E-09 1.25419E-09
 -1       105-1.58054E+06-2.11611E+05-8.06387E+04-6.04067E+05-6.83031E-10 1.45519E-09
 -1       106-2.51367E+05-7.66560E+03 4.48131E+04 1.01772E-09 4.61344E-11-1.15870E-09
 -1       107-2.36047E+05 1.21594E+04 2.79211E+04 2.10862E-08-1.00949E-09-3.74712E-10
 -1       108-2.44862E+05-7.14258E+02 1.15503E+04-7.18506E-09 3.18051E-10-2.85127E-10
 -1       109-2.43221E+05 1.03150E+03 6.29433E+03-9.13775E-09-5.04174E-11-7.00311E-09
 -1       110-2.44201E+05-7.53185E+01 2.89850E+03-7.28454E-09-3.38714E-10 4.36216E-10
 -1       111-2.43965E+05 8.56103E+01 1.49593E+03-2.25461E-08-2.06962E-10 1.33016E-09
 -1       112-2.44119E+05-9.71480E+00 6.98084E+02-2.59045E-08 5.27491E-10-1.00619E-09
 -1       113-2.44063E+05 5.67648E+00 3.15762E+02-9.87058E-09-9.40473E-11-7.12696E-10
 -1       114-2.44103E+05-2.59780E-01 7.37308E+01-1.62676E-08 2.65834E-10 2.54680E-09
 -1       115-2.44093E+05-1.21889E+01-1.30282E+02-6.93530E-09-6.99576E-10 4.35026E-09
 -1       116-2.44089E+05 1.07121E+01-3.82130E+02 1.60855E-09 1.59487E-09-7.25151E-10
 -1       117-2.44206E+05-1.51577E+02-9.02748E+02-8.05834E-09 1.11725E-09-1.56138E-09
 -1       118-2.43991E+05 1.04882E+02-1.68637E+03-2.04163E-08-4.19082E-09-1.34844E-09
 -1       119-2.45261E+05-1.78666E+03-4.09743E+03-6.44775E-09 3.85635E-10-5.97458E-09
 -1       120-2.43034E+05 1.12660E+03-6.58134E+03-2.38682E-08 1.97971E-09-2.67391E-09
 -1       121 1.23011E+03-8.09262E+05-7.33757E+03-2.52441E+04-5.85715E-10 2.07092E-09
 -1       122-1.82086E+03-8.11632E+05-3.65395E+03-7.19306E+04 6.32099E-10-4.88399E-09
 -1       123 1.28230E+01-8.10592E+05 2.00563E+02-2.49317E+04-6.47105E-10-9.69976E-10
 -1       124 2.29247E+03-8.09223E+05 4.28420E+03-7.22701E+04 4.47471E-10-4.41491E-09
 -1       125-1.39206E+03-8.11974E+05 8.14908E+03-2.49037E+04-5.19321E-10 7.41615E-10
 -1       126-7.07031E+05-1.00869E+05-7.28684E+03-2.69368E+05-1.45235E-10 9.24047E-10
 -1       127-7.04439E+05-1.09839E+05-4.47738E+03-2.75157E+05-4.67651E-10-2.93124E-09
 -1       128-7.08243E+05-1.02176E+05-1.71946E+03-2.69254E+05-4.67253E-10 1.52113E-10
 -1       129-7.03038E+05-1.07951E+05-9.29505E+02-2.75454E+05-3.27441E-09 2.37820E-09
 -1       130-7.08371E+05-1.02299E+05-4.20922E+02-2.69244E+05-3.47057E-10 2.39196E-09
 -1       131-7.02901E+05-1.07771E+05-2.57934E+02-2.75466E+05 2.67562E-10-1.50209E-09
 -1       132-7.08373E+05-1.02321E+05-2.11931E+02-2.69254E+05 1.90084E-10-3.00412E-09
 -1       133-7.02928E+05-1.07733E+05-3.09862E+02-2.75427E+05-9.67702E-10-2.93198E-10
 -1       134-7.08336E+05-1.02340E+05-5.60890E+02-2.69279E+05 5.04770E-10-1.76669E-10
 -1       135-7.03081E+05-1.07771E+05-1.20630E+03-2.75350E+05 1.63072E-09-1.10549E-09
 -1       136-7.08208E+05-1.02302E+05-2.37901E+03-2.69318E+05-6.47788E-10 2.92061E-09
 -1       137-7.04016E+05-1.08752E+05-5.52659E+03-2.75142E+05 1.14051E-09-3.53339E-10
 -1       138-7.07411E+05-1.01577E+05-1.03335E+04-2.69396E+05 1.04592E-10-1.19462E-09
 -1       139-7.12384E+05-1.20231E+05-2.69805E+04-2.73463E+05-9.20863E-11 1.20053E-09
 -1       140-7.00210E+05-9.35748E+04-4.39198E+04-2.69954E+05 5.57066E-10 4.80213E-10
 -1       141 5.46729E+03-2.87244E+03 1.67893E+04-1.40963E-08-9.64639E-11-4.17640E-09
 -1       142 1.12009E+04 4.55647E+03 1.04531E+04-3.87389E-08 4.30447E-10 1.75260E-09
 -1       143 7.90753E+03-2.67438E+02 4.30508E+03-1.11781E-08-2.14597E-10 8.63793E-10
 -1       144 8.51112E+03 3.86520E+02 2.30912E+03 3.70319E-09-6.66692E-11-6.27665E-10
 -1       145 8.15675E+03-2.74104E+01 9.87005E+02 1.14204E-08-7.93692E-10-6.79847E-11
 -1       146 8.22486E+03 3.11879E+01 3.57049E+02-1.58561E-08 6.95979E-10-3.77977E-09
 -1       147 8.19379E+03 2.00618E-01-1.39569E+02 4.23103E-10 5.23206E-11-1.37558E-09
 -1       148 8.15223E+03-1.26761E+01-7.05897E+02-6.56465E-10-9.79654E-11 2.80879E-09
 -1       149 8.22938E+03 2.20930E+01-1.58579E+03-1.24569E-08 3.77535E-10 2.55477E-09
 -1       150 7.92803E+03-1.95191E+02-3.40961E+03-2.30297E-08-1.16480E-09 6.62294E-09
 -1       151 8.41807E+03 1.71763E+02-6.61120E+03-1.09895E-08 6.68681E-10-1.10185E-09
 -1       152 6.23117E+03-2.35227E+03-1.43584E+04-2.20323E-08-7.75613E-10 1.24987E-09
 -1       153 9.92726E+03 1.62903E+03-2.63454E+04-2.87241E-08 4.91954E-11 2.65209E-09
 -1       154-1.01268E+04-2.77297E+04-6.36849E+04-6.70661E-09-4.25330E-10-7.36873E-09
 -1       155 2.47934E+04 1.74901E+04-1.02158E+05-2.30712E-08 1.30719E-09-4.36557E-11
 -1       156 4.77541E+02-2.05794E+05-2.64164E+03-1.41266E+04-6.31275E-10 6.82121E-10
 -1       157-5.95873E+02-2.06613E+05-6.55051E+02-3.98876E+04-1.07093E-09 3.68846E-09
 -1       158-9.80673E+01-2.06418E+05 1.62679E+03-1.39996E+04-1.12186E-09 4.90036E-09
 -1       159 2.56849E+03-2.04678E+05 5.50514E+03-4.00297E+04-2.01510E-09-3.12048E-09
 -1       160-1.60129E+03-2.07863E+05 9.35860E+03-1.39838E+04-1.31058E-09 2.27226E-09
 -1       161-2.13612E+05-3.07860E+04-6.46392E+03-8.31479E+04 2.10662E-10-5.09544E-09
 -1       162-2.12433E+05-3.76693E+04-3.97682E+03-8.70601E+04-1.38467E-09-3.81169E-09
 -1       163-2.14663E+05-3.19699E+04-1.53620E+03-8.30737E+04 4.06857E-10 1.59105E-09
 -1       164-2.11217E+05-3.59658E+04-8.48512E+02-8.72870E+04 5.98845E-11 3.49566E-09
 -1       165-2.14770E+05-3.20863E+04-4.22628E+02-8.30719E+04 2.15380E-10 3.12050E-09
 -1       166-2.11102E+05-3.58054E+04-3.34092E+02-8.72940E+04 7.00993E-10 9.06880E-10
 -1       167-2.14770E+05-3.21004E+04-4.03994E+02-8.30761E+04 1.93040E-10-3.70045E-09
 -1       168-2.11135E+05-3.58049E+04-7.43147E+02-8.72833E+04-3.07239E-10-2.62298E-09
 -1       169-2.14730E+05-3.20856E+04-1.44847E+03-8.30800E+04 4.18368E-10-5.74801E-10
 -1       170-2.11415E+05-3.60507E+04-3.17789E+03-8.72616E+04-4.63842E-11 2.95927E-10
 -1       171-2.14484E+05-3.18837E+04-6.28623E+03-8.30825E+04-1.20724E-09-3.66981E-10
 -1       172-2.13699E+05-3.88575E+04-1.46281E+04-8.69792E+04 3.67436E-10-3.85080E-09
 -1       173-2.12511E+05-2.98296E+04-2.73424E+04-8.31501E+04 5.98675E-10-8.73115E-10
 -1       174-2.35513E+05-6.95663E+04-7.14016E+04-8.29620E+04-1.99225E-09 5.61158E-10
 -1       175-1.93667E+05-8.41513E+03-1.16176E+05-8.43650E+04-1.64073E-09 1.07684E-09
 -1       191 1.53366E+04 1.44940E+06 3.66713E+04 2.53060E+03-2.07365E-10-1.28057E-09
 -1       192 5.13607E+03 1.45644E+06 2.19710E+04 3.74654E+03-8.27640E-11-4.67026E-09
 -1       193 1.03220E+03 1.45209E+06 1.65068E+04 2.80901E+03-5.97183E-10-2.74667E-09
 -1       194 5.55927E+03 1.45673E+06 2.31938E+04 3.19226E+03-8.30823E-10 3.20506E-09
 -1       195 1.66839E+04 1.44914E+06 3.96142E+04 3.11560E+03-4.18368E-10 5.44605E-09
 -1       251 7.84605E+04-1.54669E+04 7.98434E+04-4.95681E+04 4.29281E-10 5.99175E-09
 -1       252 1.08209E+05 2.06330E+04 5.02252E+04-1.39214E+05-1.16415E-10-3.88900E-09
 -1       253 8.94719E+04-2.09704E+03 2.04676E+04-4.91145E+04-2.98314E-10-7.36691E-10
 -1       254 9.32022E+04 1.44298E+03 1.13938E+04-1.39621E+05 7.53062E-10 1.42018E-09
 -1       255 9.01447E+04-3.76912E+02 5.18871E+03-4.91464E+04 5.74801E-10-1.88993E-09
 -1       256 9.05330E+04 3.31338E+02 2.90395E+03-1.39568E+05 1.62981E-09 3.26690E-09
 -1       257 8.99904E+04 6.39740E+01 1.60959E+03-4.91720E+04-2.69210E-10 6.64841E-10
 -1       258 8.97763E+04 4.73324E+02 1.33378E+03-1.39532E+05-1.22259E-09 7.23958E-10
 -1       259 8.99141E+04 1.48984E+02 1.59735E+03-4.91813E+04-9.75433E-11-1.44564E-09
 -1       260 9.00200E+04 5.50921E+02 2.79942E+03-1.39538E+05 3.91083E-10 6.10089E-09
 -1       261 8.99198E+04-1.17993E+02 5.06595E+03-4.91657E+04 1.51522E-09 2.69188E-09
 -1       262 9.21280E+04 1.81916E+03 1.09423E+04-1.39563E+05-6.62112E-10-2.64127E-09
 -1       263 8.91400E+04-1.62119E+03 1.97889E+04-4.91566E+04-1.14051E-09-7.41238E-10
 -1       264 1.06099E+05 2.04125E+04 4.82367E+04-1.39198E+05-7.74889E-10 2.02044E-09
 -1       265 7.84503E+04-1.43045E+04 7.68928E+04-4.95448E+04-9.56788E-10-2.33922E-09
 -1       266-8.03780E+03-2.38163E+05 5.00726E+04-6.51337E+04 2.34650E-10-6.10041E-09
 -1       267 1.52300E+04-2.22133E+05 2.92129E+04-1.86828E+05 2.72394E-10-5.87033E-09
 -1       268-5.04422E+01-2.30278E+05 8.06948E+03-6.51060E+04 6.09361E-11-1.07138E-09
 -1       269-2.68431E+03-2.32071E+05-5.03266E+03-1.86389E+05 3.45608E-11-8.29459E-10
 -1       270 2.95870E+03-2.26201E+05-1.68695E+04-6.56078E+04-1.09139E-11 3.53975E-09
 -1       271-2.55390E+06-3.55939E+05-1.93588E+05-1.01309E+06-1.31422E-10 1.87720E-09
 -1       272-2.58302E+06-4.95834E+05-1.18646E+05-1.05417E+06 5.44787E-10-4.83851E-09
 -1       273-2.58734E+06-3.89268E+05-4.56560E+04-1.00911E+06-4.25644E-10 4.72937E-11
 -1       274-2.54468E+06-4.47628E+05-2.42999E+04-1.06520E+06 5.31145E-10 3.22234E-09
 -1       275-2.59210E+06-3.91137E+05-1.06491E+04-1.00779E+06 6.23913E-10 2.99679E-09
 -1       276-2.53976E+06-4.44688E+05-5.52568E+03-1.06844E+06-4.03816E-10 2.19097E-09
 -1       277-2.59336E+06-3.90537E+05-2.99910E+03-1.00708E+06 2.81034E-10 6.33008E-10
 -1       278-2.53885E+06-4.45129E+05-2.49965E+03-1.06980E+06-7.25777E-10-1.13255E-09
 -1       279-2.59361E+06-3.90254E+05-3.27573E+03-1.00688E+06-7.41181E-10-3.51565E-09
 -1       280-2.53938E+06-4.45503E+05-6.35992E+03-1.06964E+06 4.80213E-10-3.63661E-09
 -1       281-2.59277E+06-3.90258E+05-1.22771E+04-1.00718E+06 6.63931E-10-7.98536E-10
 -1       282-2.54446E+06-4.49962E+05-2.83314E+04-1.06748E+06-3.09228E-11 2.21553E-09
 -1       283-2.58797E+06-3.87337E+05-5.30577E+04-1.00813E+06-8.27640E-11 1.23691E-10
 -1       284-2.58823E+06-5.07460E+05-1.38340E+05-1.05646E+06 3.59250E-11-4.89308E-10
 -1       285-2.54980E+06-3.47566E+05-2.25400E+05-1.01201E+06 5.72982E-10 8.39646E-09
 -1       286-1.42499E+05-1.03127E+04 5.63718E+04-2.88472E+04 3.01952E-09 1.14960E-09
 -1       287-1.22296E+05 1.49257E+04 3.53061E+04-8.02351E+04 8.33097E-10-2.17460E-09
 -1       288-1.34520E+05-1.21452E+03 1.44918E+04-2.84416E+04 2.34650E-10-1.50249E-09
 -1       289-1.32125E+05 1.15352E+03 8.00728E+03-8.06972E+04-2.71939E-10-1.58252E-09
 -1       290-1.33875E+05-1.96631E+02 3.69344E+03-2.83750E+04 1.09321E-09-5.15229E-10
 -1       291-1.33566E+05 1.81214E+02 2.06464E+03-8.07966E+04 2.12185E-09-1.95678E-09
 -1       292-1.33893E+05 1.24397E+01 1.19514E+03-2.83432E+04 8.76753E-10-1.84468E-09
 -1       293-1.33924E+05 2.08809E+02 1.06646E+03-8.08412E+04 8.25139E-10 4.02110E-09
 -1       294-1.33940E+05 5.71109E+01 1.38757E+03-2.83301E+04 9.40190E-10-3.62866E-09
 -1       295-1.33812E+05 3.35632E+02 2.52507E+03-8.08450E+04 2.49793E-09-2.62537E-09
 -1       296-1.34037E+05-7.91938E+01 4.67152E+03-2.83392E+04 9.81345E-10-1.50246E-09
 -1       297-1.32410E+05 1.74080E+03 1.00508E+04-8.07955E+04 1.64846E-09-3.31318E-09
 -1       298-1.34982E+05-1.21075E+03 1.83346E+04-2.83794E+04 7.51243E-10-3.23234E-09
 -1       299-1.20530E+05 1.92469E+04 4.44076E+04-8.04612E+04-9.13133E-10-2.21144E-09
 -1       300-1.45157E+05-1.24696E+04 7.11192E+04-2.86806E+04 3.58341E-10-3.57613E-09
 -1       301 4.11254E+04 1.25599E+05 9.31842E+04-1.94167E+05-1.64437E-09 2.24736E-09
 -1       302 1.48505E+04 1.43186E+05 5.22714E+04-2.31093E+05-2.70302E-09-1.94996E-09
 -1       303 3.56943E+03 1.32585E+05 3.32419E+04-1.93962E+05-1.51522E-09-4.22688E-10
 -1       304 1.01002E+04 1.40066E+05 3.86541E+04-2.31119E+05-3.01952E-09 1.38107E-09
 -1       305 2.60381E+04 1.28672E+05 6.03943E+04-1.94196E+05-2.08638E-09 3.90901E-09
 -1       306-2.71093E+06-3.63390E+05-2.11327E+05-1.05929E+06 1.75532E-09-2.51748E-09
 -1       307-2.76319E+06-4.97438E+05-1.29763E+05-1.08256E+06 2.93767E-10 3.07591E-09
 -1       308-2.74651E+06-4.00940E+05-4.97475E+04-1.05564E+06-7.05768E-10 2.85945E-09
 -1       309-2.72180E+06-4.43567E+05-2.65876E+04-1.09265E+06 4.05635E-10 4.25462E-09
 -1       310-2.75104E+06-4.03700E+05-1.15589E+04-1.05462E+06 9.06766E-10 3.56067E-09
 -1       311-2.71665E+06-4.39692E+05-6.02361E+03-1.09491E+06-1.22964E-09-1.24487E-09
 -1       312-2.75202E+06-4.03488E+05-3.19974E+03-1.05411E+06-2.28147E-09-1.99941E-09
 -1       313-2.71577E+06-4.39850E+05-2.58961E+03-1.09577E+06 6.50857E-10-1.73941E-09
 -1       314-2.75217E+06-4.03323E+05-3.27392E+03-1.05397E+06-6.75726E-10-1.64869E-09
 -1       315-2.71629E+06-4.40211E+05-6.26024E+03-1.09563E+06 1.52590E-09 2.89492E-09
 -1       316-2.75147E+06-4.03205E+05-1.20090E+04-1.05420E+06 4.20187E-10-6.80302E-10
 -1       317-2.72123E+06-4.44799E+05-2.77285E+04-1.09403E+06 2.67937E-09-6.18456E-10
 -1       318-2.74708E+06-3.99993E+05-5.18229E+04-1.05496E+06-3.63798E-11 1.26602E-09
 -1       319-2.76390E+06-5.01592E+05-1.35330E+05-1.08430E+06 9.01707E-10 1.92085E-09
 -1       320-2.71031E+06-3.60468E+05-2.20289E+05-1.05842E+06-1.50067E-09-3.63798E-09
 -1       321 1.78298E+04-1.48907E+04 8.65902E+04-1.15268E+04-1.31877E-10 2.49202E-09
 -1       322 4.75002E+04 2.34365E+04 5.39708E+04-3.23073E+04-1.00681E-09-5.49335E-10
 -1       323 3.03679E+04-1.41841E+03 2.23228E+04-1.14119E+04 2.14641E-10-2.92857E-10
 -1       324 3.35327E+04 1.97460E+03 1.21912E+04-3.24185E+04-1.15688E-09 2.79215E-09
 -1       325 3.16191E+04-1.55891E+02 5.64304E+03-1.14078E+04 5.57066E-10-3.30147E-10
 -1       326 3.20331E+04 1.76081E+02 2.98430E+03-3.24201E+04 7.27596E-12-1.98781E-09
 -1       327 3.17622E+04-1.52435E+01 1.52831E+03-1.14104E+04-6.30052E-10 4.59829E-09
 -1       328 3.18335E+04 3.94837E+01 9.78242E+02-3.24174E+04-7.32626E-10 6.00926E-09
 -1       329 3.17766E+04-2.89543E+00 8.60268E+02-1.14107E+04 3.94039E-10 1.77192E-09
 -1       330 3.18826E+04 7.73684E+01 1.24250E+03-3.24177E+04 7.06223E-10 4.00667E-09
 -1       331 3.17338E+04-5.71338E+01 2.13165E+03-1.14101E+04-4.65207E-10-4.09443E-10
 -1       332 3.24518E+04 7.20179E+02 4.48390E+03-3.24165E+04 1.05729E-10-3.71142E-09
 -1       333 3.12907E+04-5.30697E+02 8.15132E+03-1.14118E+04 1.47793E-10-2.88264E-09
 -1       334 3.75973E+04 8.52450E+03 1.96880E+04-3.23158E+04 3.63798E-11 1.32241E-09
 -1       335 2.67353E+04-5.46751E+03 3.15524E+04-1.15131E+04-2.50111E-10 9.64064E-11
 -1       336-1.39272E+03-8.24707E+05 6.04589E+03-1.18251E+05-2.01453E-09 1.01500E-09
 -1       337 3.58784E+03-8.23664E+05 2.38230E+03-3.38031E+05 1.67165E-09-1.05592E-09
 -1       338 9.63789E+02-8.24183E+05-2.39785E+03-1.17458E+05-1.55342E-09 4.67935E-10
 -1       339-2.17455E+03-8.28167E+05-9.43138E+03-3.38270E+05 2.78305E-10 9.96806E-10
 -1       340 3.13334E+03-8.21187E+05-1.67511E+04-1.18011E+05-2.63753E-11 1.08776E-09
 -1       341-1.59403E+06-2.16478E+05-8.23159E+04-6.13577E+05 9.26775E-10-2.39379E-09
 -1       342-1.61436E+06-2.68894E+05-5.05713E+04-6.22910E+05 4.68560E-10-8.14907E-10
 -1       343-1.60761E+06-2.31391E+05-1.93778E+04-6.12424E+05 3.96312E-10-2.08274E-09
 -1       344-1.59855E+06-2.47504E+05-1.03944E+04-6.26242E+05-3.25599E-10-1.13391E-09
 -1       345-1.60915E+06-2.32690E+05-4.54334E+03-6.12217E+05-3.50838E-10 2.62639E-09
 -1       346-1.59676E+06-2.45718E+05-2.45521E+03-6.26704E+05 1.92927E-10 3.25616E-09
 -1       347-1.60939E+06-2.32755E+05-1.45390E+03-6.12141E+05-1.36970E-09-2.46493E-09
 -1       348-1.59657E+06-2.45632E+05-1.46256E+03-6.26798E+05 8.42221E-10-4.30077E-10
 -1       349-1.60936E+06-2.32743E+05-2.19156E+03-6.12144E+05 6.01744E-10 1.70462E-09
 -1       350-1.59699E+06-2.45895E+05-4.46540E+03-6.26690E+05 1.85571E-09 5.93411E-09
 -1       351-1.60896E+06-2.32540E+05-8.68779E+03-6.12223E+05 2.72848E-11 2.29556E-09
 -1       352-1.60031E+06-2.49569E+05-2.01446E+04-6.26048E+05 8.05130E-10-2.07365E-09
 -1       353-1.60610E+06-2.29857E+05-3.76338E+04-6.12471E+05-4.90218E-10 6.73026E-11
 -1       354-1.63071E+06-2.91549E+05-9.83221E+04-6.20064E+05 9.45192E-10 2.24099E-09
 -1       355-1.57995E+06-2.00567E+05-1.59976E+05-6.14426E+05-1.04592E-09-4.75848E-09
 -1       356 1.60892E+05-7.60099E+03 4.41804E+04-8.65440E+03 4.63842E-10 1.24419E-09
 -1       357 1.76025E+05 1.19555E+04 2.75327E+04-2.44227E+04 3.81078E-10 3.57068E-09
 -1       358 1.67294E+05-7.24132E+02 1.13689E+04-8.59333E+03-6.26642E-10 3.55840E-09
 -1       359 1.68894E+05 1.00384E+03 6.17156E+03-2.44698E+04-3.55612E-10 5.74778E-09
 -1       360 1.67935E+05-7.92515E+01 2.78028E+03-8.60417E+03-1.40290E-10-3.55612E-09
 -1       361 1.68123E+05 8.45714E+01 1.31744E+03-2.44526E+04-7.22252E-10-2.72451E-09
 -1       362 1.68015E+05-5.24205E+00 3.74941E+02-8.61059E+03-9.27685E-11 2.00100E-09
 -1       363 1.67988E+05-7.90807E-01-3.33467E+02-2.44466E+04-1.18447E-11 1.24032E-09
 -1       364 1.68054E+05 1.80139E+01-1.19132E+03-8.61024E+03 6.18570E-10 2.70541E-09
 -1       365 1.67804E+05-1.61643E+02-2.76131E+03-2.44553E+04 8.29914E-11 3.29419E-09
 -1       366 1.68219E+05 1.34999E+02-5.44785E+03-8.60195E+03-4.53610E-10-4.85670E-09
 -1       367 1.66432E+05-1.96315E+03-1.18756E+04-2.44737E+04-4.18822E-10 3.61911E-09
 -1       368 1.69484E+05 1.32623E+03-2.18200E+04-8.59192E+03 6.03450E-10 3.33239E-09
 -1       369 1.52945E+05-2.29991E+04-5.27358E+04-2.44219E+04-3.09046E-09 5.74164E-09
 -1       370 1.81815E+05 1.44328E+04-8.46231E+04-8.64716E+03 1.67802E-09 7.27596E-11
 -1       371-1.86926E+03-1.93276E+05 9.88110E+03-8.41190E+04-3.02862E-09-3.37059E-09
 -1       372 3.57994E+03-1.90495E+05 4.62339E+03-2.38423E+05-5.26143E-09-2.08092E-09
 -1       373 4.90974E+02-1.91799E+05-1.39146E+03-8.37636E+04-3.81533E-09 5.06554E-09
 -1       374-3.13757E+03-1.95045E+05-8.72432E+03-2.38475E+05-6.27097E-09 2.84990E-09
 -1       375 2.87771E+03-1.88994E+05-1.60222E+04-8.40671E+04-2.29829E-09-2.49202E-10
 -1       376-7.21228E+05-1.00227E+05-4.64371E+04-2.83531E+05 1.35833E-09 7.38510E-10
 -1       377-7.26330E+05-1.36146E+05-2.85268E+04-2.96112E+05-2.11003E-10-4.32919E-10
 -1       378-7.28873E+05-1.08648E+05-1.09408E+04-2.82922E+05-7.53516E-10-6.08452E-10
 -1       379-7.17504E+05-1.24019E+05-5.87835E+03-2.97920E+05 6.82121E-11 3.57011E-09
 -1       380-7.29706E+05-1.09419E+05-2.58983E+03-2.82855E+05-4.29736E-11 9.92031E-10
 -1       381-7.16573E+05-1.22939E+05-1.44170E+03-2.98095E+05-4.01315E-10-2.33725E-09
 -1       382-7.29800E+05-1.09491E+05-9.34742E+02-2.82849E+05-4.04157E-10-1.93847E-09
 -1       383-7.16521E+05-1.22842E+05-1.07279E+03-2.98071E+05 1.29796E-09-2.44319E-09
 -1       384-7.29743E+05-1.09510E+05-1.74304E+03-2.82875E+05-3.36513E-10-7.25777E-10
 -1       385-7.16871E+05-1.23046E+05-3.63433E+03-2.97942E+05 5.04087E-10 2.34490E-09
 -1       386-7.29400E+05-1.09348E+05-7.11856E+03-2.82930E+05-1.32241E-09 2.89856E-09
 -1       387-7.19540E+05-1.26087E+05-1.65089E+04-2.97426E+05 2.95586E-10 7.23503E-10
 -1       388-7.27073E+05-1.07141E+05-3.08615E+04-2.83097E+05-1.09912E-09 2.05000E-09
 -1       389-7.44343E+05-1.60511E+05-8.05607E+04-2.92554E+05-3.23121E-09 3.04863E-09
 -1       390-7.05640E+05-8.31542E+04-1.31110E+05-2.84642E+05-1.61162E-09-1.54978E-09
 -1       406 1.49140E+04 1.41075E+06 3.74138E+04-1.89891E+04-3.71074E-10 2.63935E-09
 -1       407 5.22860E+03 1.41799E+06 2.58362E+04-2.15995E+04-1.18598E-09-1.46883E-09
 -1       408 1.67391E+03 1.41302E+06 2.52275E+04-1.86788E+04-3.88354E-10 1.79716E-09
 -1       409 1.13151E+04 1.42189E+06 4.31764E+04-2.21795E+04-2.53249E-09-8.06722E-10
 -1       410 3.41959E+04 1.40671E+06 7.91675E+04-1.83269E+04-1.21508E-09 1.10776E-09
 -1       466 1.18357E+06-1.98572E+04 1.13355E+05-3.08832E+04-3.63798E-11-2.56114E-09
 -1       467 1.22279E+06 3.04809E+04 7.07718E+04-8.90043E+04-1.37334E-10 1.75351E-09
 -1       468 1.19984E+06-1.99211E+03 2.92470E+04-3.11270E+04 2.00089E-11-1.99361E-09
 -1       469 1.20397E+06 2.57755E+03 1.60561E+04-8.84069E+04 5.50244E-11 1.04592E-11
 -1       470 1.20137E+06-2.07453E+02 7.50415E+03-3.14607E+04 3.18323E-10 1.89175E-09
 -1       471 1.20174E+06 3.44133E+02 4.14827E+03-8.79251E+04 6.50971E-10-2.85127E-10
 -1       472 1.20150E+06 2.63203E+01 2.45087E+03-3.16098E+04 1.51886E-10 1.16165E-09
 -1       473 1.20148E+06 1.99425E+02 2.19009E+03-8.78193E+04-3.18323E-10-8.92896E-10
 -1       474 1.20151E+06-1.13143E+00 2.88332E+03-3.15666E+04-3.89264E-10-5.42173E-10
 -1       475 1.20195E+06 3.57024E+02 5.29207E+03-8.81019E+04-8.77662E-11 1.35731E-09
 -1       476 1.20134E+06-3.30812E+02 9.78920E+03-3.13269E+04 3.87445E-10 6.25278E-10
 -1       477 1.20491E+06 3.29315E+03 2.11114E+04-8.87538E+04-2.43745E-10 5.19299E-09
 -1       478 1.19932E+06-2.67330E+03 3.85059E+04-3.09131E+04-2.81943E-10-1.09503E-09
 -1       479 1.22965E+06 4.00873E+04 9.32387E+04-8.94904E+04-3.01043E-09-2.90493E-09
 -1       480 1.17786E+06-2.61703E+04 1.49379E+05-3.06246E+04-1.62618E-09-1.54978E-09
 -1       481-5.30558E+03 3.11827E+05 3.21500E+04-2.70848E+04 1.03682E-10 4.06089E-10
 -1       482 9.17058E+03 3.22621E+05 2.11063E+04-7.54681E+04-1.66779E-10 5.38284E-09
 -1       483-5.74464E+02 3.16280E+05 1.08009E+04-2.70330E+04 1.59503E-10 2.94767E-09
 -1       484 3.95952E+03 3.19459E+05 1.09738E+04-7.54391E+04 1.05047E-10-1.72804E-10
 -1       485-1.90352E+03 3.15244E+05 1.24028E+04-2.71188E+04 2.26464E-10-2.18006E-09
 -1       486-1.16023E+06-1.52312E+05-1.16722E+05-4.57417E+05-2.82853E-10-3.63798E-11
 -1       487-1.18957E+06-2.26041E+05-7.16894E+04-4.70008E+05 1.09617E-09 2.73576E-09
 -1       488-1.17951E+06-1.73430E+05-2.74828E+04-4.55817E+05-1.59162E-10-9.78616E-10
 -1       489-1.16723E+06-1.95714E+05-1.46993E+04-4.74773E+05 7.82165E-11 1.47793E-09
 -1       490-1.18172E+06-1.75248E+05-6.37693E+03-4.55535E+05 8.32188E-10 2.24463E-09
 -1       491-1.16471E+06-1.93206E+05-3.30740E+03-4.75512E+05 3.37195E-10-1.04455E-09
 -1       492-1.18211E+06-1.75288E+05-1.71167E+03-4.55396E+05 3.00133E-11 1.09253E-10
 -1       493-1.16433E+06-1.93151E+05-1.30105E+03-4.75791E+05 2.26123E-10 2.08894E-10
 -1       494-1.18219E+06-1.75217E+05-1.53785E+03-4.55333E+05-3.07637E-10-3.99723E-10
 -1       495-1.16449E+06-1.93392E+05-2.85051E+03-4.75849E+05 3.45317E-10-6.91443E-10
 -1       496-1.18198E+06-1.75058E+05-5.41348E+03-4.55345E+05 1.25624E-10-4.60659E-10
 -1       497-1.16650E+06-1.95695E+05-1.24770E+04-4.75480E+05-4.59863E-10-4.18368E-11
 -1       498-1.18020E+06-1.73412E+05-2.32863E+04-4.55494E+05-3.26281E-10-4.89308E-10
 -1       499-1.18530E+06-2.21586E+05-6.07911E+04-4.71679E+05 6.68024E-10-4.22006E-10
 -1       500-1.16395E+06-1.55402E+05-9.89453E+04-4.56755E+05-1.21872E-10-3.56522E-10
 -1       501 3.81963E+05-1.35782E+04 7.43989E+04-3.51774E+04 2.69210E-09-2.27737E-09
 -1       502 4.08493E+05 1.97593E+04 4.65959E+04-9.95668E+04 2.50111E-10-2.47383E-10
 -1       503 3.92477E+05-1.55451E+03 1.91421E+04-3.50285E+04 1.01500E-09-1.02318E-09
 -1       504 3.95482E+05 1.61069E+03 1.05726E+04-9.95509E+04 6.06633E-10 1.80285E-09
 -1       505 3.93326E+05-2.07849E+02 4.89185E+03-3.51793E+04 9.96806E-10 5.19776E-10
 -1       506 3.93596E+05 3.21851E+02 2.73126E+03-9.93067E+04 1.83354E-09 1.09731E-09
 -1       507 3.93314E+05 5.54738E+01 1.59509E+03-3.52737E+04 1.99907E-09 5.82077E-10
 -1       508 3.93183E+05 3.31777E+02 1.42541E+03-9.91909E+04 8.16840E-10 4.73619E-10
 -1       509 3.93274E+05 8.76590E+01 1.86365E+03-3.52946E+04 1.26647E-09-7.03494E-10
 -1       510 3.93433E+05 4.58349E+02 3.39964E+03-9.92203E+04 2.08843E-09 2.78021E-10
 -1       511 3.93180E+05-1.34537E+02 6.27795E+03-3.52443E+04 8.94033E-10 1.59895E-09
 -1       512 3.95452E+05 2.29037E+03 1.35346E+04-9.93789E+04 2.77214E-09 2.83399E-09
 -1       513 3.91952E+05-1.70807E+03 2.46555E+04-3.51357E+04 3.78350E-10 4.42014E-10
 -1       514 4.11617E+05 2.57775E+04 5.97780E+04-9.93581E+04-6.57565E-10 1.06866E-09
 -1       515 3.78304E+05-1.69240E+04 9.56732E+04-3.52793E+04-3.61979E-10-1.60071E-10
 -1       516-9.63152E+03 2.06939E+05 6.03834E+04-6.64924E+04 1.33514E-09 1.81899E-09
 -1       517 1.79835E+04 2.27020E+05 4.17654E+04-1.87205E+05 6.30962E-10 6.10453E-09
 -1       518-1.27222E+03 2.14913E+05 2.52464E+04-6.63704E+04 1.09821E-09 3.28419E-09
 -1       519 1.32991E+04 2.25241E+05 3.33094E+04-1.87077E+05 9.80435E-10 1.16052E-09
 -1       520-7.38114E+03 2.10278E+05 4.36639E+04-6.66367E+04 8.24002E-10-1.36242E-09
 -1       521-2.22349E+06-2.99727E+05-1.91404E+05-8.76484E+05 2.64663E-09-1.16415E-09
 -1       522-2.26391E+06-4.27713E+05-1.17480E+05-9.05252E+05 2.38424E-09-2.11003E-10
 -1       523-2.25575E+06-3.33640E+05-4.50756E+04-8.73229E+05 9.09495E-12 1.50612E-09
 -1       524-2.22663E+06-3.78899E+05-2.40664E+04-9.14442E+05-9.09495E-11 1.76124E-09
 -1       525-2.25985E+06-3.36130E+05-1.04581E+04-8.72370E+05 1.09048E-09 7.60338E-10
 -1       526-2.22212E+06-3.75305E+05-5.40907E+03-9.16481E+05-1.18234E-09 7.52948E-10
 -1       527-2.26072E+06-3.35950E+05-2.80493E+03-8.71953E+05 9.36780E-10 1.68166E-09
 -1       528-2.22140E+06-3.75377E+05-2.14105E+03-9.17212E+05 1.10356E-09 6.39830E-10
 -1       529-2.26084E+06-3.35833E+05-2.55160E+03-8.71856E+05 8.68823E-10-2.38742E-10
 -1       530-2.22181E+06-3.75588E+05-4.75096E+03-9.17016E+05 1.97497E-09 1.29626E-09
 -1       531-2.26024E+06-3.35826E+05-9.06392E+03-8.72083E+05 6.11180E-10-1.44155E-09
 -1       532-2.22557E+06-3.78902E+05-2.08626E+04-9.15546E+05 1.34150E-10 5.04315E-10
 -1       533-2.25679E+06-3.33572E+05-3.90161E+04-8.72740E+05 6.51198E-10 3.09228E-10
 -1       534-2.25777E+06-4.21304E+05-1.01757E+05-9.07736E+05 1.06593E-09-1.23691E-10
 -1       535-2.22888E+06-3.04172E+05-1.65754E+05-8.75527E+05-1.19144E-10-5.67525E-10
 -1       536 9.65730E+05-2.60113E+04 1.51158E+05-1.66344E+04-9.27685E-10 2.76486E-10
 -1       537 1.01752E+06 4.08292E+04 9.42188E+04-4.84834E+04-1.43336E-09-9.69521E-10
 -1       538 9.87611E+05-2.50310E+03 3.89844E+04-1.67350E+04 3.81988E-11-8.36735E-11
 -1       539 9.93093E+05 3.41759E+03 2.13129E+04-4.81668E+04 5.60249E-10-1.89175E-10
 -1       540 9.89786E+05-2.85454E+02 9.89350E+03-1.69286E+04 2.00998E-10 9.58607E-10
 -1       541 9.90441E+05 3.00385E+02 5.29382E+03-4.78555E+04 1.77124E-10 3.69710E-10
 -1       542 9.90025E+05-3.04331E+01 2.82370E+03-1.70469E+04-5.73891E-10 3.16641E-09
 -1       543 9.90083E+05 7.84575E+01 2.02491E+03-4.77075E+04 3.25599E-10 1.86333E-09
 -1       544 9.90034E+05-1.02250E+01 2.11901E+03-1.70769E+04 1.42677E-10-4.54747E-13
 -1       545 9.90239E+05 2.15368E+02 3.45079E+03-4.77338E+04-1.08230E-09-1.56271E-09
 -1       546 9.89888E+05-1.59477E+02 6.18601E+03-1.70205E+04 1.26420E-10 2.24759E-10
 -1       547 9.91865E+05 2.13244E+03 1.31628E+04-4.79277E+04 1.58252E-10 3.52532E-09
 -1       548 9.88556E+05-1.52927E+03 2.40121E+04-1.68826E+04 2.02817E-10 1.23327E-09
 -1       549 1.00693E+06 2.51396E+04 5.79866E+04-4.81516E+04-8.30823E-10 4.61114E-10
 -1       550 9.75098E+05-1.60149E+04 9.29899E+04-1.68056E+04-1.28966E-09-1.25146E-09
 -1       551 1.99326E+04-2.47537E+05 4.29894E+04-4.52129E+05 9.45874E-10-6.00267E-10
 -1       552 9.06413E+03-2.40299E+05 2.61458E+04-5.38072E+05-9.53150E-10 7.38510E-10
 -1       553 3.90440E+03-2.45547E+05 2.00835E+04-4.51355E+05 6.69388E-10-3.41061E-10
 -1       554 1.01050E+04-2.39909E+05 2.88117E+04-5.38178E+05-3.31056E-10 1.42427E-09
 -1       555 2.30875E+04-2.48481E+05 4.94263E+04-4.52009E+05-3.27418E-11-2.13731E-09
 -1       556-7.96206E+05-2.29985E+05-3.66539E+04-4.31980E+05-1.47702E-09-7.05768E-10
 -1       557-7.82838E+05-2.41215E+05-1.80872E+04-4.59575E+05-1.24055E-09 1.32695E-09
 -1       558-7.98518E+05-2.16943E+05-7.72273E+03-4.37585E+05 3.12866E-10-9.64064E-11
 -1       559-7.78914E+05-2.36788E+05-3.76666E+03-4.61091E+05-2.48838E-09-5.31509E-09
 -1       560-7.99143E+05-2.16260E+05-1.76336E+03-4.38019E+05 6.25732E-10-2.99565E-10
 -1       561-7.78937E+05-2.36519E+05-9.10126E+02-4.61388E+05-1.62618E-09-3.55590E-09
 -1       562-7.99417E+05-2.16146E+05-5.54661E+02-4.38157E+05-8.93124E-10 1.55705E-09
 -1       563-7.79068E+05-2.36457E+05-5.41989E+02-4.61509E+05-9.05857E-10-3.97449E-10
 -1       564-7.99465E+05-2.16100E+05-8.29091E+02-4.38192E+05 7.02585E-10 2.24827E-09
 -1       565-7.79097E+05-2.36462E+05-1.64395E+03-4.61504E+05-7.27596E-10 2.29556E-09
 -1       566-7.99272E+05-2.16117E+05-3.32645E+03-4.38122E+05-8.45830E-10 1.78261E-10
 -1       567-7.79455E+05-2.36862E+05-7.24174E+03-4.61357E+05 1.57615E-09-1.41335E-09
 -1       568-7.98592E+05-2.17083E+05-1.48297E+04-4.37513E+05 3.36149E-09 5.08589E-09
 -1       569-7.87060E+05-2.45854E+05-3.49031E+04-4.59659E+05 1.19508E-09 1.37697E-09
 -1       570-7.95289E+05-2.41367E+05-7.05993E+04-4.26370E+05-3.55067E-09-6.67933E-09
 -1       571 7.96720E+05 3.66672E+04 8.43007E+04-1.37893E+05 1.99361E-09-1.72804E-09
 -1       572 8.12708E+05 1.17835E+04 4.29048E+04-1.63283E+05-1.12959E-09-3.61615E-09
 -1       573 8.03344E+05 1.07091E+03 1.92895E+04-1.37264E+05-1.33878E-09 3.40151E-10
 -1       574 8.04646E+05 2.67321E+02 9.83362E+03-1.63881E+05 8.26731E-10 2.29375E-09
 -1       575 8.03665E+05-1.74199E+02 4.74034E+03-1.37224E+05-2.92857E-10-3.05590E-10
 -1       576 8.03757E+05-4.35215E+01 2.44099E+03-1.63924E+05-1.43109E-09 1.41699E-09
 -1       577 8.03655E+05-4.47155E+01 1.23515E+03-1.37223E+05-6.31189E-10-1.34605E-10
 -1       578 8.03664E+05-1.27356E+01 7.13638E+02-1.63930E+05-1.02045E-09-4.22915E-09
 -1       579 8.03762E+05-6.97364E+01 5.02242E+02-1.37219E+05 2.07183E-09-5.20595E-09
 -1       580 8.03881E+05-1.25601E+02 5.76599E+02-1.63941E+05 4.06089E-09-1.40426E-09
 -1       581 8.04029E+05-2.49605E+02 8.87659E+02-1.37211E+05-2.88128E-09-9.28594E-10
 -1       582 8.04434E+05-2.90468E+02 1.75531E+03-1.63898E+05-3.62525E-09-1.36606E-09
 -1       583 8.04383E+05-2.92521E+02 3.35600E+03-1.37261E+05-1.01500E-09-3.47882E-10
 -1       584 8.06435E+05 1.43102E+03 7.50483E+03-1.63139E+05-5.51518E-09 3.91992E-10
 -1       585 8.03736E+05 5.65390E+03 1.46673E+04-1.37985E+05 1.11686E-09 3.57250E-09
 -1       586 8.29874E+03 1.36047E+05 1.73342E+04-4.98791E+05 2.19006E-09-3.08137E-09
 -1       587 5.02101E+03 1.38266E+05 1.28557E+04-5.93406E+05 3.86353E-09 3.26963E-09
 -1       588 3.16144E+03 1.35735E+05 1.35704E+04-4.97937E+05 2.57205E-09 4.22415E-09
 -1       589 9.12921E+03 1.40646E+05 2.42862E+04-5.93497E+05 4.60568E-09 2.28465E-09
 -1       590 2.11793E+04 1.33091E+05 4.48711E+04-4.98678E+05 2.67300E-09-1.59707E-09
 -1       591-5.27769E+05-1.58381E+05-6.35941E+04-2.70354E+05 2.17824E-09 2.78669E-09
 -1       592-5.26270E+05-1.56543E+05-3.14587E+04-2.93479E+05-7.56700E-10 2.00134E-09
 -1       593-5.30346E+05-1.36758E+05-1.33622E+04-2.80422E+05-1.10595E-09 3.78895E-09
 -1       594-5.19339E+05-1.48362E+05-6.54533E+03-2.94634E+05-3.20870E-09 1.22188E-09
 -1       595-5.30770E+05-1.35999E+05-3.02762E+03-2.80883E+05 1.37788E-09 8.31278E-09
 -1       596-5.18897E+05-1.48040E+05-1.54994E+03-2.94644E+05 3.78350E-09 6.81530E-09
 -1       597-5.30863E+05-1.36025E+05-8.79479E+02-2.80904E+05 7.16227E-10 2.61207E-09
 -1       598-5.18856E+05-1.48041E+05-7.68275E+02-2.94631E+05-2.54198E-09-3.66435E-09
 -1       599-5.30832E+05-1.36032E+05-1.06183E+03-2.80890E+05-8.29459E-10-1.60071E-09
 -1       600-5.18870E+05-1.48058E+05-2.02932E+03-2.94612E+05 4.91127E-10-3.76940E-09
 -1       601-5.30660E+05-1.36013E+05-4.05059E+03-2.80839E+05-2.48474E-09-1.21872E-09
 -1       602-5.19437E+05-1.48504E+05-8.80075E+03-2.94577E+05 1.20599E-09-6.43922E-10
 -1       603-5.30077E+05-1.37045E+05-1.79836E+04-2.80207E+05 2.07365E-09 3.09774E-09
 -1       604-5.28724E+05-1.59547E+05-4.23399E+04-2.93054E+05 4.28372E-10-9.89530E-10
 -1       605-5.26644E+05-1.66081E+05-8.55817E+04-2.66607E+05-6.00267E-11 2.70666E-09
 -1       606 2.19499E+05-2.01572E+04-4.59131E+04 4.96838E+04-1.26129E-08 1.80944E-09
 -1       607 2.10661E+05-6.48128E+03-2.33497E+04 5.81639E+04-2.34832E-09-1.74032E-09
 -1       608 2.15540E+05-6.10547E+02-1.05168E+04 4.92342E+04 1.08812E-08 2.85490E-09
 -1       609 2.14643E+05-1.18571E+01-5.34238E+03 5.86110E+04-6.09543E-09-1.63982E-09
 -1       610 2.15096E+05 2.39611E+02-2.57506E+03 4.91965E+04-1.60871E-08-3.15913E-09
 -1       611 2.14875E+05 2.96948E+02-1.29377E+03 5.86444E+04-2.98769E-08-1.04865E-09
 -1       612 2.14950E+05 2.63956E+02-6.13991E+02 4.91964E+04-1.20399E-08 1.56524E-09
 -1       613 2.14824E+05 3.36126E+02-2.57538E+02 5.86423E+04-2.08329E-08 2.80625E-09
 -1       614 2.14861E+05 2.86319E+02-2.72885E+01 4.91973E+04-3.56886E-09-1.48384E-09
 -1       615 2.14768E+05 3.67399E+02 1.98499E+02 5.86381E+04 1.34651E-08 2.40561E-10
 -1       616 2.14795E+05 3.06783E+02 5.09131E+02 4.91997E+04-8.94488E-09-3.06500E-10
 -1       617 2.14798E+05 4.44019E+02 1.12481E+03 5.86306E+04-2.76123E-09-1.65664E-09
 -1       618 2.14694E+05 4.91081E+02 2.23971E+03 4.92034E+04-2.30602E-09-4.41469E-09
 -1       619 2.15664E+05 1.82540E+03 4.99763E+03 5.85882E+04 4.15184E-10-2.05409E-09
 -1       620 2.13864E+05 4.67268E+03 9.83015E+03 4.92217E+04 7.62810E-10 3.91083E-10
 -1       621 9.59626E+03 8.58248E+05 2.35640E+04-1.32977E+05-9.14497E-10-1.25306E-09
 -1       622 3.92915E+03 8.62719E+05 1.78585E+04-1.58168E+05-3.15868E-09 3.30192E-09
 -1       623 1.85854E+03 8.59522E+05 1.97778E+04-1.32884E+05-8.13088E-10 1.64437E-09
 -1       624 1.02882E+04 8.67029E+05 3.62331E+04-1.57962E+05-2.34468E-09-1.43973E-09
 -1       625 2.98628E+04 8.54244E+05 6.77910E+04-1.33153E+05 7.51243E-10-3.09228E-09
 -1       626 3.73687E+05 1.00577E+05-1.76000E+04 2.14888E+05-9.83528E-09-1.10595E-09
 -1       627 3.61241E+05 1.13910E+05-8.69622E+03 2.22994E+05-7.97627E-09-3.24030E-09
 -1       628 3.73229E+05 1.06202E+05-3.70403E+03 2.11565E+05 4.96948E-09 1.71499E-08
 -1       629 3.62572E+05 1.16662E+05-1.79527E+03 2.23064E+05 1.25528E-08 4.25780E-09
 -1       630 3.73030E+05 1.06446E+05-8.10056E+02 2.11330E+05-4.36012E-09-4.24336E-09
 -1       631 3.62545E+05 1.16826E+05-3.53029E+02 2.23013E+05-2.30248E-08-5.54138E-10
 -1       632 3.72914E+05 1.06483E+05-8.60078E+01 2.11269E+05-5.42059E-09 1.41392E-09
 -1       633 3.62487E+05 1.16856E+05 1.30957E+02 2.22964E+05-2.69165E-09 2.70029E-09
 -1       634 3.72847E+05 1.06489E+05 4.10572E+02 2.11240E+05 6.07088E-09 4.85670E-10
 -1       635 3.62499E+05 1.16860E+05 9.53961E+02 2.22959E+05 1.85796E-08 1.03455E-08
 -1       636 3.72798E+05 1.06454E+05 1.98417E+03 2.11238E+05 5.31350E-09 1.37788E-09
 -1       637 3.62866E+05 1.17049E+05 4.35838E+03 2.23007E+05 1.19037E-08-3.81624E-09
 -1       638 3.72617E+05 1.06896E+05 8.90915E+03 2.10989E+05 4.85988E-09-4.24916E-09
 -1       639 3.67664E+05 1.22439E+05 2.09990E+04 2.22350E+05-2.72662E-08-4.08363E-09
 -1       640 3.71075E+05 1.21241E+05 4.24329E+04 2.04353E+05-2.39115E-08 1.05319E-09
 -1       641 1.32663E+04 1.73671E+03-1.00233E+04 3.72487E+03-1.86249E-08-1.18916E-09
 -1       642 9.79915E+03-2.64519E+03-6.24300E+03 1.03877E+04-1.79765E-08-5.37557E-09
 -1       643 1.18071E+04 1.85313E+02-2.57978E+03 3.69525E+03-1.54942E-08-5.04906E-09
 -1       644 1.13953E+04-1.53076E+02-1.39792E+03 1.04163E+04 3.53640E-09-4.02429E-09
 -1       645 1.16571E+04 4.43589E+01-6.28687E+02 3.69346E+03-9.39394E-10-1.52016E-09
 -1       646 1.15591E+04 6.04343E+01-2.93821E+02 1.04177E+04-1.71154E-08-4.48077E-09
 -1       647 1.16368E+04 2.97804E+01-7.58906E+01 3.69357E+03 8.45525E-09-3.69113E-10
 -1       648 1.15881E+04 8.11120E+01 9.41761E+01 1.04178E+04 3.12928E-08-1.34810E-09
 -1       649 1.16280E+04 2.33448E+01 3.05708E+02 3.69334E+03 2.18256E-08-4.42844E-09
 -1       650 1.16413E+04 1.18452E+02 7.00600E+02 1.04178E+04 3.24132E-08 1.87413E-10
 -1       651 1.15899E+04-1.01797E+01 1.37666E+03 3.69348E+03 3.61729E-09-3.52475E-09
 -1       652 1.20049E+04 5.66471E+02 3.00237E+03 1.04160E+04-8.82619E-09-3.29868E-09
 -1       653 1.12770E+04-3.18556E+02 5.51152E+03 3.69482E+03 1.93995E-09-2.76191E-09
 -1       654 1.54417E+04 5.87332E+03 1.33301E+04 1.03695E+04-1.22928E-08-4.40355E-09
 -1       655 8.17270E+03-3.64148E+03 2.13887E+04 3.73454E+03 1.69869E-08-1.65619E-09
 -1       656 9.92872E+03-5.14254E+05-6.22740E+04 4.15830E+04-1.43518E-08-3.88627E-09
 -1       657-1.80402E+04-5.35224E+05-4.40377E+04 1.14657E+05-1.09674E-08 1.65528E-09
 -1       658 1.57663E+03-5.22270E+05-2.85022E+04 4.13066E+04-1.59603E-08 1.26329E-09
 -1       659-1.61917E+04-5.34295E+05-4.05621E+04 1.14842E+05-1.20490E-08-5.47485E-09
 -1       660 8.86762E+03-5.15516E+05-5.54619E+04 4.14049E+04-1.62454E-08 1.42290E-09
 -1       661 4.63958E+05 6.25617E+04 3.68163E+04 1.82022E+05 1.24464E-09 2.61025E-09
 -1       662 4.73629E+05 8.54599E+04 2.26195E+04 1.85559E+05 6.40563E-09 5.02746E-09
 -1       663 4.69911E+05 6.93481E+04 8.67161E+03 1.81649E+05 4.22372E-09 4.19323E-09
 -1       664 4.66733E+05 7.57245E+04 4.65335E+03 1.86807E+05 1.33031E-08 8.36508E-10
 -1       665 4.70523E+05 7.00108E+04 2.02913E+03 1.81639E+05 3.38184E-09-3.00497E-09
 -1       666 4.66023E+05 7.48258E+04 1.08712E+03 1.86881E+05 1.15450E-09 4.66163E-09
 -1       667 4.70595E+05 7.00757E+04 6.21919E+02 1.81640E+05-7.66306E-09 3.61902E-09
 -1       668 4.65951E+05 7.47652E+04 5.89806E+02 1.86896E+05-2.04982E-08-3.32989E-09
 -1       669 4.70598E+05 7.00603E+04 8.45354E+02 1.81630E+05-1.36067E-08-3.30658E-09
 -1       670 4.66058E+05 7.49178E+04 1.69760E+03 1.86928E+05 2.09388E-08 2.81710E-09
 -1       671 4.70497E+05 6.99310E+04 3.28535E+03 1.81608E+05 7.72388E-09 5.53314E-09
 -1       672 4.67200E+05 7.64233E+04 7.60934E+03 1.86850E+05-9.85585E-09 3.49405E-09
 -1       673 4.69507E+05 6.88280E+04 1.42034E+04 1.81609E+05-2.49460E-08-5.80258E-09
 -1       674 4.78491E+05 9.24030E+04 3.70758E+04 1.84832E+05-3.22120E-09 3.78532E-09
 -1       675 4.59756E+05 5.76968E+04 6.03500E+04 1.82216E+05 1.00317E-09-6.57383E-09
 -1       676 3.76304E+03-4.53378E+05-2.34162E+04 7.80625E+03 2.59533E-08-2.74667E-09
 -1       677-6.75339E+03-4.61372E+05-1.74692E+04 1.93597E+04 1.86350E-08 4.98324E-09
 -1       678 7.60249E+02-4.56158E+05-1.28394E+04 7.74288E+03 2.95013E-08 4.07829E-09
 -1       679-8.36354E+03-4.62428E+05-2.06463E+04 1.94260E+04 3.66279E-08 2.40311E-09
 -1       680 4.87553E+03-4.52344E+05-2.95881E+04 7.73899E+03 3.04935E-08 8.54556E-10
 -1       681 4.92390E+05-4.81354E+03 2.75192E+04-1.18767E+04 6.82121E-11-1.24328E-09
 -1       682 5.01896E+05 7.39290E+03 1.71825E+04-3.40106E+04-3.63798E-12-9.94987E-10
 -1       683 4.96356E+05-4.89710E+02 7.10497E+03-1.18553E+04 3.27418E-11-6.28461E-10
 -1       684 4.97363E+05 6.00570E+02 3.91081E+03-3.39618E+04-1.64846E-10-6.21071E-10
 -1       685 4.96732E+05-6.40027E+01 1.84871E+03-1.19227E+04 3.01497E-10 1.30512E-10
 -1       686 4.96833E+05 5.42125E+01 1.06821E+03-3.38542E+04-2.72848E-10-5.47288E-10
 -1       687 4.96761E+05-6.98257E+00 7.16085E+02-1.19631E+04-1.35742E-10 1.25726E-09
 -1       688 4.96763E+05 3.07082E+01 7.84461E+02-3.38029E+04-2.49429E-10 1.17853E-09
 -1       689 4.96745E+05-9.51945E+00 1.19815E+03-1.19739E+04 5.30918E-11 9.34278E-10
 -1       690 4.96903E+05 1.41986E+02 2.31952E+03-3.38130E+04-1.64619E-10 8.60602E-10
 -1       691 4.96632E+05-1.15828E+02 4.37778E+03-1.19530E+04 1.44837E-10 2.22826E-11
 -1       692 4.98062E+05 1.53494E+03 9.44724E+03-3.38785E+04-2.43062E-10-3.50155E-10
 -1       693 4.95662E+05-1.09471E+03 1.72957E+04-1.19081E+04-7.86713E-11 9.36780E-11
 -1       694 5.08888E+05 1.81479E+04 4.18042E+04-3.39023E+04-9.65883E-10-1.90994E-10
 -1       695 4.85948E+05-1.15306E+04 6.70609E+04-1.19343E+04-4.72028E-10-2.28465E-09
 -1       696-5.26800E+03 5.31561E+05 3.06546E+04-2.33217E+04-2.72848E-11-4.32919E-10
 -1       697 8.40942E+03 5.41813E+05 1.78642E+04-6.45067E+04 9.23137E-11-2.03272E-10
 -1       698-2.38211E+02 5.36273E+05 4.95168E+03-2.32740E+04-1.26420E-10 9.84755E-10
 -1       699-2.28763E+03 5.34951E+05-3.16604E+03-6.45165E+04-2.65544E-10 2.16187E-09
 -1       700 1.99739E+03 5.38487E+05-1.02453E+04-2.33159E+04-1.84627E-10 1.58843E-09
 -1       701-4.58347E+05-5.78864E+04-6.47958E+04-1.83586E+05-3.69710E-10 2.14641E-10
 -1       702-4.74818E+05-9.87061E+04-3.98032E+04-1.90491E+05-7.35895E-10 8.18090E-10
 -1       703-4.68950E+05-6.97097E+04-1.52576E+04-1.82804E+05-4.27463E-11 1.53705E-10
 -1       704-4.62554E+05-8.17174E+04-8.16810E+03-1.92918E+05 1.25419E-09-9.78616E-10
 -1       705-4.70101E+05-7.08005E+04-3.54443E+03-1.82724E+05 2.36469E-11 7.97627E-10
 -1       706-4.61242E+05-8.02176E+04-1.84817E+03-1.93177E+05-7.04858E-10 2.95586E-11
 -1       707-4.70268E+05-7.08748E+04-9.70083E+02-1.82694E+05-3.27645E-10 2.04750E-10
 -1       708-4.61083E+05-8.01301E+04-7.65090E+02-1.93251E+05 2.77396E-11 4.99043E-10
 -1       709-4.70289E+05-7.08539E+04-9.39061E+02-1.82677E+05 2.09866E-10 4.17572E-10
 -1       710-4.61195E+05-8.02714E+04-1.76969E+03-1.93274E+05 2.72166E-10-5.11022E-10
 -1       711-4.70169E+05-7.07409E+04-3.37441E+03-1.82673E+05-2.07692E-11 3.00133E-10
 -1       712-4.62408E+05-8.17584E+04-7.78481E+03-1.93119E+05-5.16138E-11 6.32099E-11
 -1       713-4.69111E+05-6.96621E+04-1.45262E+04-1.82719E+05-2.20780E-10-1.47338E-10
 -1       714-4.74029E+05-9.80238E+04-3.79196E+04-1.90921E+05-2.39254E-10 3.56067E-10
 -1       715-4.59066E+05-5.83375E+04-6.17115E+04-1.83410E+05-1.50976E-10 3.63798E-12
 -1       716 3.87983E+05-1.00927E+04 5.77578E+04-2.33111E+04 5.60249E-10-7.09406E-11
 -1       717 4.07920E+05 1.56310E+04 3.60646E+04-6.54975E+04 2.83762E-10 1.14960E-09
 -1       718 3.96272E+05-9.79477E+02 1.49067E+04-2.32241E+04-3.55612E-10 1.91903E-10
 -1       719 3.98328E+05 1.40233E+03 8.19096E+03-6.55123E+04-5.70708E-10-6.61203E-10
 -1       720 3.97049E+05-7.16772E+01 3.84939E+03-2.32915E+04 9.51786E-10 1.09094E-09
 -1       721 3.97205E+05 2.57838E+02 2.16522E+03-6.54171E+04 1.81717E-09 3.60296E-09
 -1       722 3.97121E+05 4.05466E+01 1.35286E+03-2.33196E+04 1.10379E-09 2.16392E-09
 -1       723 3.97104E+05 1.76398E+02 1.33016E+03-6.54081E+04 1.28728E-09 1.04910E-09
 -1       724 3.97127E+05 1.09872E+01 1.88591E+03-2.33005E+04 9.59062E-10 2.44540E-09
 -1       725 3.97444E+05 2.85158E+02 3.57177E+03-6.54954E+04 2.34877E-09 1.45570E-09
 -1       726 3.97010E+05-2.10386E+02 6.66431E+03-2.32322E+04-8.09450E-11-2.19643E-10
 -1       727 3.99436E+05 2.30899E+03 1.44110E+04-6.56681E+04 1.46974E-09-2.21235E-10
 -1       728 3.95617E+05-1.79490E+03 2.63077E+04-2.31271E+04-6.87578E-10-7.02130E-10
 -1       729 4.16269E+05 2.75049E+04 6.37217E+04-6.56853E+04-9.02219E-10-4.80213E-10
 -1       730 3.80922E+05-1.78355E+04 1.02107E+05-2.32309E+04 3.43789E-10-2.38651E-09
 -1       731-6.69429E+03 1.92745E+05 3.96169E+04-4.88043E+04 5.05679E-10-1.08776E-09
 -1       732 1.11867E+04 2.06031E+05 2.49940E+04-1.37619E+05 4.94651E-10-1.21838E-09
 -1       733-5.42717E+02 1.98386E+05 1.08622E+04-4.86773E+04 3.66754E-10 1.21554E-09
 -1       734 2.11370E+03 2.00374E+05 7.26091E+03-1.37593E+05-1.81899E-10 9.33596E-10
 -1       735-6.56125E+02 1.98655E+05 5.09058E+03-4.88330E+04 7.07132E-11 8.54925E-10
 -1       736-1.09892E+06-1.43933E+05-9.20108E+04-4.27081E+05 1.21872E-10-2.03727E-10
 -1       737-1.12445E+06-1.99775E+05-5.65272E+04-4.34421E+05 4.11262E-10-7.66704E-10
 -1       738-1.11402E+06-1.60687E+05-2.16543E+04-4.25898E+05-4.86352E-10 5.00222E-11
 -1       739-1.10692E+06-1.75738E+05-1.15929E+04-4.37979E+05 1.02318E-11 5.89353E-10
 -1       740-1.11570E+06-1.62191E+05-5.01946E+03-4.25724E+05 4.72482E-10 5.26597E-10
 -1       741-1.10497E+06-1.73680E+05-2.60703E+03-4.38426E+05-4.73847E-10-3.83011E-10
 -1       742-1.11596E+06-1.62276E+05-1.34242E+03-4.25652E+05-1.41199E-10-1.15574E-09
 -1       743-1.10470E+06-1.73582E+05-1.01531E+03-4.38555E+05 6.96332E-11 1.50720E-10
 -1       744-1.11599E+06-1.62249E+05-1.18959E+03-4.25624E+05 4.26155E-10-5.12614E-10
 -1       745-1.10484E+06-1.73741E+05-2.19628E+03-4.38561E+05 1.43928E-10-6.76209E-10
 -1       746-1.11582E+06-1.62134E+05-4.16572E+03-4.25642E+05-3.63457E-10-4.46335E-10
 -1       747-1.10640E+06-1.75509E+05-9.59798E+03-4.38282E+05 7.21002E-10 9.18362E-10
 -1       748-1.11446E+06-1.60856E+05-1.79076E+04-4.25752E+05 4.03929E-10 1.90084E-10
 -1       749-1.12085E+06-1.95447E+05-4.67543E+04-4.35412E+05 6.46423E-10 5.07498E-10
 -1       750-1.10200E+06-1.46971E+05-7.60945E+04-4.26703E+05-3.31056E-10 8.36735E-11
 -1       751 1.60406E+06-3.72796E+04 2.17283E+05-1.76441E+04-7.40329E-10-1.13505E-09
 -1       752 1.67839E+06 5.86806E+04 1.35398E+05-5.28780E+04-2.34195E-09-2.71393E-09
 -1       753 1.63554E+06-3.56548E+03 5.60619E+04-1.79501E+04-3.53793E-10-7.78527E-10
 -1       754 1.64337E+06 4.92128E+03 3.06599E+04-5.21865E+04 8.34461E-10 1.07957E-09
 -1       755 1.63868E+06-4.01447E+02 1.42756E+04-1.83001E+04 1.19144E-10 9.27685E-11
 -1       756 1.63961E+06 4.25997E+02 7.70472E+03-5.16316E+04-4.00178E-10-1.87356E-09
 -1       757 1.63904E+06-4.79521E+01 4.24460E+03-1.85061E+04-3.61524E-10 3.12639E-10
 -1       758 1.63914E+06 1.03888E+02 3.28666E+03-5.13764E+04-1.64277E-11 2.16744E-09
 -1       759 1.63904E+06-3.06389E+01 3.78043E+03-1.85556E+04-9.52696E-11 8.60837E-10
 -1       760 1.63946E+06 3.80573E+02 6.48753E+03-5.14311E+04-5.33078E-10 1.53841E-09
 -1       761 1.63874E+06-3.06240E+02 1.18315E+04-1.84512E+04-5.41149E-11 1.37879E-09
 -1       762 1.64251E+06 4.09599E+03 2.52796E+04-5.17883E+04 1.21327E-09-1.68257E-11
 -1       763 1.63614E+06-2.90250E+03 4.61851E+04-1.81975E+04-1.99179E-10-2.06273E-09
 -1       764 1.67132E+06 4.83667E+04 1.11489E+05-5.23021E+04 6.73026E-11-3.08501E-09
 -1       765 1.61022E+06-3.06603E+04 1.78892E+05-1.79574E+04-2.10821E-09-1.14960E-09
 -1       766-1.86947E+04 4.53523E+05 1.13049E+05-2.23315E+04-6.14818E-10-2.01862E-09
 -1       767 3.16473E+04 4.92360E+05 7.85962E+04-6.19884E+04-4.36557E-10 2.49202E-10
 -1       768-3.02022E+03 4.68207E+05 4.84021E+04-2.22877E+04-4.82260E-10 1.09776E-09
 -1       769 2.47053E+04 4.88201E+05 6.51283E+04-6.19898E+04-2.86491E-10 1.86446E-09
 -1       770-1.42064E+04 4.58085E+05 8.67746E+04-2.23467E+04-7.27596E-11 1.24783E-09
 -1       771-1.67396E+06-3.39148E+05-1.23812E+05-6.88617E+05-9.63382E-10-2.61934E-10
 -1       772-1.68256E+06-3.23937E+05-6.12456E+04-7.20192E+05-1.31877E-09 5.98448E-10
 -1       773-1.67876E+06-2.97251E+05-2.60121E+04-7.08313E+05 6.33008E-10-6.20275E-10
 -1       774-1.66911E+06-3.07946E+05-1.27289E+04-7.22334E+05 8.07631E-10-1.51067E-09
 -1       775-1.67960E+06-2.95748E+05-5.87397E+03-7.09195E+05-2.14641E-10-1.07775E-09
 -1       776-1.66826E+06-3.07335E+05-2.95943E+03-7.22433E+05 8.73115E-11-2.37947E-10
 -1       777-1.67989E+06-2.95742E+05-1.59217E+03-7.09262E+05 1.16415E-10 5.57861E-10
 -1       778-1.66826E+06-3.07320E+05-1.22073E+03-7.22530E+05 6.54836E-10 5.18526E-10
 -1       779-1.67999E+06-2.95679E+05-1.49751E+03-7.09303E+05 4.17458E-10 2.61480E-10
 -1       780-1.66840E+06-3.07305E+05-2.72151E+03-7.22643E+05-1.98270E-10 7.79437E-10
 -1       781-1.67993E+06-2.95562E+05-5.35778E+03-7.09317E+05-7.94898E-10-9.13133E-10
 -1       782-1.66930E+06-3.07855E+05-1.16229E+04-7.22770E+05 5.19435E-10-6.27551E-10
 -1       783-1.67936E+06-2.96800E+05-2.37276E+04-7.08564E+05 3.62320E-10 1.33332E-09
 -1       784-1.68153E+06-3.22656E+05-5.59303E+04-7.21232E+05-6.79847E-11-1.21327E-09
 -1       785-1.67524E+06-3.34859E+05-1.13031E+05-6.90491E+05 7.27596E-10 1.41881E-10
 -1       786 9.87332E+05-2.06234E+04 1.20344E+05-1.12152E+04 5.78439E-10-3.10683E-09
 -1       787 1.02843E+06 3.25509E+04 7.49962E+04-3.30062E+04-1.00772E-09-1.21236E-09
 -1       788 1.00479E+06-1.95158E+03 3.10488E+04-1.12743E+04-4.55202E-10-8.02174E-10
 -1       789 1.00909E+06 2.73242E+03 1.69634E+04-3.28280E+04-9.09495E-11-1.39244E-09
 -1       790 1.00655E+06-2.15290E+02 7.88255E+03-1.13805E+04 7.19410E-10 2.10093E-10
 -1       791 1.00705E+06 2.19756E+02 4.21175E+03-3.26732E+04-1.78261E-10 5.91172E-10
 -1       792 1.00675E+06-3.15181E+01 2.24751E+03-1.14292E+04 1.08002E-10 2.53408E-09
 -1       793 1.00681E+06 2.36358E+01 1.60752E+03-3.26365E+04-6.42302E-10 8.57654E-10
 -1       794 1.00677E+06-2.55058E+01 1.67865E+03-1.14173E+04-3.56295E-10-2.00396E-09
 -1       795 1.00695E+06 1.24180E+02 2.73276E+03-3.27224E+04 2.33172E-10 2.63105E-09
 -1       796 1.00666E+06-1.45062E+02 4.89654E+03-1.13433E+04-1.17916E-09-3.15401E-09
 -1       797 1.00823E+06 1.64540E+03 1.04217E+04-3.29239E+04-1.34560E-09-2.41971E-09
 -1       798 1.00559E+06-1.22238E+03 1.90129E+04-1.12157E+04-2.44654E-10-7.31234E-10
 -1       799 1.02012E+06 1.98753E+04 4.59117E+04-3.31360E+04-5.17048E-09-5.06407E-09
 -1       800 9.94923E+05-1.26759E+04 7.36298E+04-1.11404E+04 1.02500E-09-7.63976E-10
 -1       801-1.02316E+04 3.19236E+05 6.14414E+04-2.47829E+05-6.64295E-09-9.27685E-10
 -1       802 2.43948E+04 3.36967E+05 5.00993E+04-6.98526E+05-1.06702E-08-9.57698E-10
 -1       803-1.27648E+02 3.23842E+05 4.16622E+04-2.47177E+05-7.50333E-09 4.80395E-09
 -1       804 3.58683E+04 3.46209E+05 7.38056E+04-6.98477E+05-1.23146E-08-3.41970E-09
 -1       805-1.94481E+04 3.12300E+05 1.07156E+05-2.47895E+05-2.66300E-09 2.77214E-09
 -1       806-9.53185E+05-2.23182E+05-8.36727E+04-4.24092E+05 7.88532E-10-2.83762E-10
 -1       807-9.55196E+05-2.16786E+05-4.13975E+04-4.49901E+05 1.51795E-09-3.08091E-09
 -1       808-9.56407E+05-1.94873E+05-1.75746E+04-4.37415E+05-3.31420E-09-5.56611E-09
 -1       809-9.46107E+05-2.05936E+05-8.60773E+03-4.51253E+05-2.95222E-09 3.10484E-09
 -1       810-9.56911E+05-1.93907E+05-3.97302E+03-4.38000E+05-1.52249E-09 2.10866E-09
 -1       811-9.45491E+05-2.05522E+05-2.02135E+03-4.51231E+05 1.54387E-10-1.96906E-10
 -1       812-9.57013E+05-1.93956E+05-1.11938E+03-4.38014E+05 1.25169E-09-3.50155E-10
 -1       813-9.45424E+05-2.05528E+05-9.29981E+02-4.51202E+05-5.49107E-10 4.98858E-09
 -1       814-9.56976E+05-1.93971E+05-1.22923E+03-4.37998E+05-1.45428E-09 2.20825E-09
 -1       815-9.45447E+05-2.05541E+05-2.30860E+03-4.51176E+05 4.69299E-10-1.27602E-09
 -1       816-9.56791E+05-1.93948E+05-4.58610E+03-4.37950E+05-2.51930E-09-1.62436E-09
 -1       817-9.46115E+05-2.06032E+05-9.95524E+03-4.51144E+05 1.65528E-09-2.04818E-09
 -1       818-9.56154E+05-1.95103E+05-2.03373E+04-4.37253E+05 2.07183E-09-2.33740E-09
 -1       819-9.56625E+05-2.18548E+05-4.78918E+04-4.49489E+05 2.88674E-09-1.22600E-09
 -1       820-9.52364E+05-2.27879E+05-9.68005E+04-4.21844E+05 5.55883E-09-1.45519E-11
 -1       821-6.40851E+05 1.36908E+04-8.02072E+04 7.92871E+03-1.01081E-08-2.10275E-09
 -1       822-6.68140E+05-2.16972E+04-4.99759E+04 2.44488E+04-5.01404E-09-5.75437E-09
 -1       823-6.52530E+05 1.27571E+03-2.07040E+04 7.67910E+03 9.23046E-09-5.34692E-09
 -1       824-6.55401E+05-1.73703E+03-1.12991E+04 2.48006E+04-2.70347E-09-1.74259E-09
 -1       825-6.53735E+05 1.59792E+02-5.27123E+03 7.56782E+03-1.37170E-08-3.95016E-09
 -1       826-6.54147E+05-1.11136E+01-2.83031E+03 2.49831E+04-2.61361E-08-1.29967E-09
 -1       827-6.53896E+05 6.41459E+01-1.55877E+03 7.49469E+03-1.38257E-08-5.14490E-09
 -1       828-6.54046E+05 1.42759E+02-1.19401E+03 2.50965E+04-2.03316E-08-6.08412E-09
 -1       829-6.53910E+05 7.20306E+01-1.36600E+03 7.45383E+03-3.28669E-09-6.41029E-09
 -1       830-6.54175E+05 4.88735E+01-2.33761E+03 2.51432E+04 1.22751E-08-9.19360E-09
 -1       831-6.53798E+05 1.65716E+02-4.26593E+03 7.44777E+03-7.89794E-09-7.33269E-09
 -1       832-6.55233E+05-1.31849E+03-9.11686E+03 2.51203E+04-2.30671E-10-6.10908E-09
 -1       833-6.52842E+05 1.07979E+03-1.66718E+04 7.47801E+03-1.04956E-09-6.61294E-09
 -1       834-6.65539E+05-1.73817E+04-4.02634E+04 2.49828E+04-2.67141E-09-6.82576E-09
 -1       835-6.43445E+05 1.10948E+04-6.45973E+04 7.59930E+03 7.58882E-09-5.74073E-09
 -1       836-2.02870E+04 1.46776E+06 1.25261E+05-9.94839E+04-4.12547E-09-3.41970E-10
 -1       837 3.70817E+04 1.51010E+06 9.36088E+04-2.73984E+05 5.81076E-09-2.21189E-09
 -1       838-3.65878E+03 1.48221E+06 6.87324E+04-9.95341E+04-5.54155E-09 3.44141E-09
 -1       839 4.56394E+04 1.51541E+06 1.10333E+05-2.73909E+05 6.71571E-09-7.54881E-10
 -1       840-2.59509E+04 1.46217E+06 1.57859E+05-9.95520E+04-5.01313E-09 1.83354E-09
 -1       841-1.52666E+05-9.30663E+03-3.38469E+04-5.16900E+04-1.21145E-08 4.58385E-10
 -1       842-1.77889E+05-1.38821E+04-2.07705E+04-3.62980E+04-1.66874E-08 3.83261E-09
 -1       843-1.58047E+05-1.56259E+04-7.97314E+03-5.14965E+04 1.68257E-10-1.38232E-09
 -1       844-1.71777E+05-4.77617E+03-4.25138E+03-3.73422E+04 1.73754E-08-2.06427E-10
 -1       845-1.58606E+05-1.62319E+04-1.83259E+03-5.15274E+04-3.52929E-09 5.40598E-09
 -1       846-1.71220E+05-3.89521E+03-9.13438E+02-3.74049E+04-1.44285E-08 4.01116E-10
 -1       847-1.58671E+05-1.62942E+04-4.02977E+02-5.15574E+04 2.66527E-09-1.19601E-09
 -1       848-1.71197E+05-3.78377E+03-1.70910E+02-3.74002E+04 8.53390E-09 3.51699E-09
 -1       849-1.58682E+05-1.63035E+04-2.68228E+01-5.15732E+04 6.75209E-09 7.43759E-09
 -1       850-1.71191E+05-3.75295E+03 1.03541E+02-3.73970E+04-2.85507E-09 5.80712E-09
 -1       851-1.58696E+05-1.63143E+04 2.73185E+02-5.15734E+04-1.74385E-08-3.44414E-09
 -1       852-1.71058E+05-3.63338E+03 6.76482E+02-3.74121E+04 5.35795E-09 1.03591E-09
 -1       853-1.58793E+05-1.64096E+04 1.27242E+03-5.15542E+04 2.17710E-09 5.27439E-09
 -1       854-1.69923E+05-2.27632E+03 3.34515E+03-3.76599E+04-6.05041E-09-1.03819E-09
 -1       855-1.59727E+05-1.73660E+04 5.43157E+03-5.14144E+04-1.16238E-08 4.54747E-12
 -1       856-4.43352E+05 7.83902E+03-4.57968E+04 8.95401E+03-1.45310E-08-7.69796E-09
 -1       857-4.58992E+05-1.22606E+04-2.85262E+04 2.76760E+04-1.09485E-08-4.60705E-09
 -1       858-4.50030E+05 7.69091E+02-1.18191E+04 8.77407E+03-1.05802E-08-7.29960E-09
 -1       859-4.51755E+05-8.54441E+02-6.44551E+03 2.79087E+04-2.25918E-09-6.48197E-09
 -1       860-4.50725E+05 1.40197E+02-2.99926E+03 8.71096E+03-1.92586E-09-5.48221E-09
 -1       861-4.51054E+05 1.37214E+02-1.59723E+03 2.80005E+04-2.04432E-08-7.14283E-09
 -1       862-4.50819E+05 8.73242E+01-8.52146E+02 8.68064E+03 1.98261E-08-9.28856E-09
 -1       863-4.50990E+05 2.24757E+02-6.07541E+02 2.80356E+04 3.54117E-08-1.03093E-08
 -1       864-4.50826E+05 8.62795E+01-6.35057E+02 8.67539E+03 1.66003E-08-8.47456E-09
 -1       865-4.51023E+05 1.77341E+02-1.03370E+03 2.80199E+04 2.11858E-08-8.05579E-09
 -1       866-4.50770E+05 1.17036E+02-1.86012E+03 8.69646E+03-3.50087E-09-7.71033E-09
 -1       867-4.51441E+05-4.31965E+02-3.95105E+03 2.79499E+04-8.12975E-09-8.00310E-09
 -1       868-4.50341E+05 4.96020E+02-7.22774E+03 8.74659E+03 6.49698E-09-6.39329E-09
 -1       869-4.55839E+05-7.40803E+03-1.74274E+04 2.77451E+04-2.71186E-08-7.97604E-09
 -1       870-4.46256E+05 4.80461E+03-2.79822E+04 8.90841E+03 2.74940E-09-6.97037E-09
 -1       871-4.61381E+03-3.87969E+04-7.79930E+03 1.47778E+05 1.75442E-09-2.83035E-09
 -1       872-2.00819E+03-4.01855E+04-2.15588E+03 1.75777E+05-4.47471E-10-1.72440E-09
 -1       873-5.29506E+02-3.98036E+04 2.63303E+03 1.47518E+05 4.90581E-09-2.40971E-09
 -1       874 2.04148E+03-3.76088E+04 9.36042E+03 1.75853E+05-1.67984E-09-3.39924E-11
 -1       875 8.19755E+03-4.14995E+04 1.99250E+04 1.47748E+05 1.07775E-09 4.14275E-09
 -1       876 5.30893E+05 7.22201E+04 5.06757E+04 2.11861E+05 1.09821E-09-3.63798E-11
 -1       877 5.40811E+05 1.07214E+05 3.11425E+04 2.20654E+05 1.34708E-09 9.27685E-09
 -1       878 5.39065E+05 8.15908E+04 1.19295E+04 2.11353E+05 4.94902E-09 4.20005E-09
 -1       879 5.31330E+05 9.37696E+04 6.40132E+03 2.22294E+05 1.15228E-08 1.74896E-09
 -1       880 5.39865E+05 8.25474E+04 2.77755E+03 2.11372E+05 6.39056E-09-2.31239E-10
 -1       881 5.30390E+05 9.24759E+04 1.46858E+03 2.22306E+05 1.96917E-09-1.26083E-08
 -1       882 5.39931E+05 8.26732E+04 7.97069E+02 2.11401E+05-5.83418E-09-4.17964E-09
 -1       883 5.30316E+05 9.23426E+04 6.83779E+02 2.22260E+05-1.32700E-08 8.52509E-11
 -1       884 5.39918E+05 8.26810E+04 9.04677E+02 2.11409E+05-1.89718E-09-2.55386E-09
 -1       885 5.30442E+05 9.24740E+04 1.75988E+03 2.22263E+05 3.28071E-08-2.61724E-09
 -1       886 5.39809E+05 8.25544E+04 3.38028E+03 2.11394E+05 4.97835E-09-5.09817E-09
 -1       887 5.31623E+05 9.40141E+04 7.81260E+03 2.22184E+05-1.11877E-08-9.30413E-10
 -1       888 5.38799E+05 8.14152E+04 1.45753E+04 2.11393E+05-1.19993E-08-3.46517E-09
 -1       889 5.43221E+05 1.10411E+05 3.80446E+04 2.20130E+05 2.57168E-08 6.83212E-09
 -1       890 5.28800E+05 6.99844E+04 6.19191E+04 2.12018E+05 1.86769E-08-2.56114E-09
 -1       891 1.28364E+03-2.43475E+05-9.65262E+03 4.02556E+04 3.18360E-08-1.34605E-09
 -1       892-3.31374E+03-2.46438E+05-7.48702E+03 1.12693E+05 1.02086E-08 1.10322E-09
 -1       893 1.85623E+02-2.44602E+05-6.02173E+03 4.01093E+04 2.83621E-08 1.08759E-09
 -1       894-4.80092E+03-2.47348E+05-1.03825E+04 1.12666E+05 3.01470E-08 1.66619E-09
 -1       895 2.26072E+03-2.42502E+05-1.52924E+04 4.02804E+04 2.65509E-08 4.36557E-10
 -1       896 7.96515E+05-2.19156E+03 1.24594E+04-7.88796E+03 1.85537E-10-5.80712E-10
 -1       897 8.00790E+05 3.33498E+03 7.78568E+03-2.31270E+04 8.18545E-11 1.42336E-10
 -1       898 7.98310E+05-2.30082E+02 3.22249E+03-7.92354E+03 1.98725E-10-2.89674E-10
 -1       899 7.98728E+05 2.63021E+02 1.78612E+03-2.30008E+04-1.87356E-10 2.12822E-10
 -1       900 7.98477E+05-3.45823E+01 8.64237E+02-8.01317E+03-3.22871E-11-2.25782E-10
 -1       901 7.98482E+05 1.96654E+01 5.42202E+02-2.28527E+04-1.84400E-10-2.08445E-10
 -1       902 7.98486E+05-6.90912E+00 4.37967E+02-8.07167E+03-3.27418E-11-3.79714E-11
 -1       903 7.98452E+05 1.65815E+01 5.90325E+02-2.27681E+04 3.52429E-10-1.91108E-10
 -1       904 7.98467E+05-1.05884E+01 1.00239E+03-8.09779E+03 1.69337E-10 1.52085E-10
 -1       905 7.98568E+05 1.20511E+02 2.00778E+03-2.27499E+04 1.95541E-10-1.38339E-10
 -1       906 7.98361E+05-9.73439E+01 3.82552E+03-8.08982E+03-8.44693E-11 3.64935E-11
 -1       907 7.99554E+05 1.35301E+03 8.26944E+03-2.27954E+04 8.50378E-11-8.56062E-11
 -1       908 7.97500E+05-9.41569E+02 1.51543E+04-8.05222E+03-3.44698E-10-7.09406E-11
 -1       909 8.08985E+05 1.59193E+04 3.66134E+04-2.28460E+04 2.62844E-10 7.77618E-11
 -1       910 7.88970E+05-1.00583E+04 5.87490E+04-8.04138E+03 3.44698E-10-7.20320E-10
 -1       911 2.16385E+05-8.80555E+02 4.89185E+03-8.87841E+03-7.73070E-11-2.22542E-10
 -1       912 2.18092E+05 1.31735E+03 3.06711E+03-2.49036E+04-2.18051E-10 2.08956E-10
 -1       913 2.17079E+05-9.33132E+01 1.27167E+03-8.82036E+03-2.97860E-10 1.14142E-10
 -1       914 2.17246E+05 1.22160E+02 7.20533E+02-2.49442E+04-1.46429E-10-5.08862E-10
 -1       915 2.17136E+05-7.31366E+00 3.73874E+02-8.83773E+03 4.62478E-10 5.91740E-11
 -1       916 2.17132E+05 3.53659E+01 2.85064E+02-2.49155E+04 8.48445E-10-2.62446E-10
 -1       917 2.17133E+05 6.66371E+00 3.13290E+02-8.84903E+03 1.70076E-10 2.43517E-10
 -1       918 2.17128E+05 4.11262E+01 5.21262E+02-2.49030E+04 7.62952E-10-6.85873E-10
 -1       919 2.17116E+05-2.15472E+00 9.59364E+02-8.85020E+03 1.25027E-09 4.40082E-10
 -1       920 2.17258E+05 1.38918E+02 1.96683E+03-2.49105E+04 1.13323E-09-3.49161E-10
 -1       921 2.17016E+05-9.33241E+01 3.76739E+03-8.84145E+03-1.43473E-10-5.07043E-11
 -1       922 2.18252E+05 1.34945E+03 8.16183E+03-2.49341E+04 1.39084E-09-9.80890E-10
 -1       923 2.16173E+05-9.34616E+02 1.49586E+04-8.82643E+03 1.11413E-10 3.16504E-10
 -1       924 2.27594E+05 1.57348E+04 3.61637E+04-2.48924E+04-1.23691E-10-4.16094E-10
 -1       925 2.07761E+05-9.95474E+03 5.80229E+04-8.88485E+03 3.61979E-10-1.52795E-10
 -1       926-1.00183E+06 9.55477E+03-5.57736E+04-2.46594E+03 5.99925E-10-8.73115E-11
 -1       927-1.02078E+06-1.51501E+04-3.47626E+04-6.54277E+03-5.51154E-10 5.94810E-10
 -1       928-1.00993E+06 8.89121E+02-1.43800E+04-2.41915E+03 1.12777E-10-1.72804E-11
 -1       929-1.01185E+06-1.28726E+03-7.84587E+03-6.60904E+03 2.68329E-10-1.03557E-09
 -1       930-1.01075E+06 9.34682E+01-3.63195E+03-2.40097E+03-4.01883E-11-3.26736E-10
 -1       931-1.01093E+06-1.08234E+02-1.91424E+03-6.63183E+03-2.03237E-10 1.27898E-12
 -1       932-1.01085E+06 1.26983E+01-9.73548E+02-2.39638E+03 2.42139E-10-3.34921E-10
 -1       933-1.01081E+06-1.23562E+01-6.09318E+02-6.62870E+03 5.95435E-12-1.57673E-10
 -1       934-1.01086E+06 5.43027E+00-5.16093E+02-2.40410E+03 1.44894E-10-5.52518E-11
 -1       935-1.01083E+06-3.72595E+01-7.22216E+02-6.60052E+03 3.60842E-10-5.73024E-10
 -1       936-1.01083E+06 2.93083E+01-1.22740E+03-2.42456E+03 2.06001E-10-1.57002E-10
 -1       937-1.01112E+06-4.20222E+02-2.56837E+03-6.54658E+03 1.95598E-10-6.68024E-10
 -1       938-1.01056E+06 2.85773E+02-4.67444E+03-2.45802E+03 3.64935E-10-8.49013E-10
 -1       939-1.01401E+06-4.91536E+03-1.12746E+04-6.44397E+03 5.39330E-10-6.98037E-11
 -1       940-1.00794E+06 3.09271E+03-1.80858E+04-2.52651E+03-3.15367E-10 2.83762E-10
 -1       941 2.04997E+06-4.59173E+04 2.69706E+05-5.04295E+03 1.26374E-09 1.99361E-09
 -1       942 2.14177E+06 7.29815E+04 1.67958E+05-1.55398E+04 9.00798E-10-2.25191E-09
 -1       943 2.08913E+06-4.28230E+03 6.96111E+04-5.07547E+03 3.92447E-10-3.34694E-10
 -1       944 2.09871E+06 6.17739E+03 3.80313E+04-1.54973E+04-4.62072E-10-8.24912E-10
 -1       945 2.09313E+06-4.56610E+02 1.77215E+04-5.07532E+03 7.20433E-10 1.44883E-09
 -1       946 2.09428E+06 5.04441E+02 9.53039E+03-1.55585E+04 1.18462E-09 3.45653E-09
 -1       947 2.09362E+06-7.42208E+01 5.21450E+03-5.01410E+03 8.48559E-10 1.94382E-09
 -1       948 2.09379E+06 5.32727E+01 3.96467E+03-1.57456E+04 5.92991E-10 1.92364E-09
 -1       949 2.09365E+06-6.94697E+01 4.46881E+03-4.88812E+03-1.57706E-09-2.70563E-09
 -1       950 2.09417E+06 3.70520E+02 7.59498E+03-1.60638E+04 2.61298E-09 2.53988E-09
 -1       951 2.09328E+06-3.74492E+02 1.38107E+04-4.69564E+03-1.99316E-09-2.69483E-09
 -1       952 2.09763E+06 4.73904E+03 2.94749E+04-1.65115E+04-1.64823E-09-5.65706E-10
 -1       953 2.09021E+06-3.34805E+03 5.38599E+04-4.44086E+03-1.22100E-09-1.45519E-11
 -1       954 2.13099E+06 5.63951E+04 1.29935E+05-1.70314E+04-6.48333E-09-8.65839E-10
 -1       955 2.05991E+06-3.55833E+04 2.08565E+05-4.20629E+03-3.05590E-10-9.60426E-10
 -1       956-3.30257E+05-7.82778E+03-1.80524E+04 5.94346E+04-1.35569E-08 2.39379E-09
 -1       957-3.33737E+05-2.39406E+03-9.17506E+03 7.01514E+04-4.75120E-09 1.69075E-09
 -1       958-3.31896E+05-1.01641E+02-4.13895E+03 5.90254E+04 9.76797E-09 1.13687E-10
 -1       959-3.32276E+05 2.00485E+02-2.10386E+03 7.05866E+04-5.10408E-09 9.74524E-10
 -1       960-3.32142E+05 2.78986E+02-1.02432E+03 5.89828E+04-1.72167E-08 8.53106E-10
 -1       961-3.32257E+05 3.62576E+02-5.30838E+02 7.06341E+04-3.02543E-08 2.46064E-09
 -1       962-3.32245E+05 3.20961E+02-2.87231E+02 5.89756E+04-1.22982E-08 8.92669E-10
 -1       963-3.32321E+05 4.03591E+02-1.95704E+02 7.06437E+04-1.77188E-08 2.62889E-09
 -1       964-3.32299E+05 3.50309E+02-1.98233E+02 5.89722E+04-4.33829E-09 1.53250E-10
 -1       965-3.32369E+05 4.26892E+02-3.08390E+02 7.06456E+04 1.60160E-08 8.05358E-10
 -1       966-3.32307E+05 3.66945E+02-5.61770E+02 5.89732E+04-9.46581E-09 1.41199E-09
 -1       967-3.32444E+05 3.75221E+02-1.14465E+03 7.06270E+04-6.65750E-10 3.62797E-09
 -1       968-3.32220E+05 1.90118E+02-2.24230E+03 5.89915E+04-4.33283E-09 9.01309E-10
 -1       969-3.33285E+05-1.01092E+03-4.97989E+03 7.04280E+04 2.06910E-10 9.57698E-10
 -1       970-3.31356E+05-3.99449E+03-9.79402E+03 5.91872E+04 6.76573E-09-3.24690E-10
 -1       971-6.36222E+05 6.42366E+03-3.75740E+04 7.78120E+03-1.63318E-08-3.72893E-10
 -1       972-6.49018E+05-1.00494E+04-2.34022E+04 2.53277E+04-1.98561E-08 1.55342E-09
 -1       973-6.41700E+05 6.28037E+02-9.70424E+03 7.56431E+03-1.49985E-08-5.03405E-10
 -1       974-6.43096E+05-6.86218E+02-5.30068E+03 2.56272E+04-1.90084E-09 2.33786E-09
 -1       975-6.42273E+05 1.16168E+02-2.49005E+03 7.47348E+03-3.26690E-09-2.19597E-09
 -1       976-6.42534E+05 1.32626E+02-1.36821E+03 2.57656E+04-2.02294E-08 2.50157E-09
 -1       977-6.42352E+05 7.69383E+01-8.14685E+02 7.42436E+03 1.83029E-08-3.11138E-09
 -1       978-6.42501E+05 2.04760E+02-7.34961E+02 2.58294E+04 4.03452E-08-8.97330E-10
 -1       979-6.42351E+05 8.38600E+01-9.84333E+02 7.40924E+03 1.71153E-08-4.16048E-09
 -1       980-6.42596E+05 1.18089E+02-1.81394E+03 2.58246E+04 2.50637E-08-6.62936E-11
 -1       981-6.42254E+05 1.52656E+02-3.38474E+03 7.42915E+03 9.21818E-09-2.63697E-09
 -1       982-6.43419E+05-9.86561E+02-7.27324E+03 2.57486E+04 9.00900E-09 8.72205E-10
 -1       983-6.41481E+05 8.73997E+02-1.33242E+04 7.48684E+03 1.26147E-08-4.04407E-09
 -1       984-6.51624E+05-1.38393E+04-3.21788E+04 2.55379E+04-6.08907E-09 3.00588E-10
 -1       985-6.33962E+05 8.86637E+03-5.16433E+04 7.65302E+03 1.23355E-08-2.57205E-09
 -3
 9999
