
 stresses (elem, integ.pnt.,sxx,syy,szz,sxy,sxz,syz) for set ELALL and time  0.1000000E+01

         1   1 -2.785568E+06 -1.988297E+05 -2.467261E+05 -7.552709E+04 -1.686968E+05  2.061072E+01
         1   2 -2.753378E+06  1.879591E+04 -1.094361E+05 -2.338322E+04 -1.100497E+05  4.162607E+00
         1   3 -2.785292E+06  1.091095E+04 -6.682156E+04  2.876449E+04 -5.140245E+04 -2.391857E+00
         1   4 -2.785575E+06 -1.988404E+05 -2.467277E+05  7.327138E-09 -1.686968E+05  2.197127E-11
         1   5 -2.753379E+06  1.879488E+04 -1.094363E+05 -2.767793E-10 -1.100497E+05  3.409812E-10
         1   6 -2.785293E+06  1.090939E+04 -6.682178E+04 -6.298828E-09 -5.140245E+04  6.356202E-10
         1   7 -2.785568E+06 -1.988297E+05 -2.467261E+05  7.552709E+04 -1.686968E+05 -2.061072E+01
         1   8 -2.753378E+06  1.879591E+04 -1.094361E+05  2.338322E+04 -1.100497E+05 -4.162607E+00
         1   9 -2.785292E+06  1.091095E+04 -6.682156E+04 -2.876449E+04 -5.140245E+04  2.391857E+00
         1  10 -2.785599E+06 -1.988374E+05 -2.467799E+05 -7.552709E+04 -6.190505E-10 -2.361350E-10
         1  11 -2.753391E+06  1.879264E+04 -1.094590E+05 -2.338322E+04 -6.795361E-10 -9.311514E-10
         1  12 -2.785295E+06  1.091024E+04 -6.682654E+04  2.876449E+04 -2.689371E-09  5.192111E-10
         1  13 -2.785605E+06 -1.988481E+05 -2.467814E+05  2.025861E-08  1.007377E-10  2.636593E-11
         1  14 -2.753392E+06  1.879161E+04 -1.094591E+05  1.480813E-08 -4.318155E-09  2.127577E-10
         1  15 -2.785296E+06  1.090868E+04 -6.682677E+04  8.262315E-09 -5.116117E-09  5.686696E-10
         1  16 -2.785599E+06 -1.988374E+05 -2.467799E+05  7.552709E+04  1.011979E-09  5.981592E-10
         1  17 -2.753391E+06  1.879264E+04 -1.094590E+05  2.338322E+04  6.930964E-10  1.089032E-09
         1  18 -2.785295E+06  1.091024E+04 -6.682654E+04 -2.876449E+04  1.993364E-09  3.350390E-10
         1  19 -2.785568E+06 -1.988297E+05 -2.467261E+05 -7.552709E+04  1.686968E+05 -2.061072E+01
         1  20 -2.753378E+06  1.879591E+04 -1.094361E+05 -2.338322E+04  1.100497E+05 -4.162607E+00
         1  21 -2.785292E+06  1.091095E+04 -6.682156E+04  2.876449E+04  5.140245E+04  2.391857E+00
         1  22 -2.785575E+06 -1.988404E+05 -2.467277E+05  7.373317E-09  1.686968E+05  2.481850E-11
         1  23 -2.753379E+06  1.879488E+04 -1.094363E+05 -2.274179E-10  1.100497E+05  7.728988E-11
         1  24 -2.785293E+06  1.090939E+04 -6.682178E+04  1.584123E-08  5.140245E+04  4.814187E-10
         1  25 -2.785568E+06 -1.988297E+05 -2.467261E+05  7.552709E+04  1.686968E+05  2.061072E+01
         1  26 -2.753378E+06  1.879591E+04 -1.094361E+05  2.338322E+04  1.100497E+05  4.162607E+00
         1  27 -2.785292E+06  1.091095E+04 -6.682156E+04 -2.876449E+04  5.140245E+04 -2.391857E+00
         2   1 -2.772596E+06 -1.675999E+04 -5.405059E+04 -5.449353E+03 -4.139107E+04  3.648693E-01
         2   2 -2.769221E+06  1.752112E+03 -2.821444E+04 -1.372387E+03 -2.707259E+04  6.010232E-02
         2   3 -2.772556E+06  9.361264E+02 -1.656250E+04  2.704556E+03 -1.275390E+04 -5.579897E-02
         2   4 -2.772596E+06 -1.676005E+04 -5.405059E+04 -1.414196E-08 -4.139107E+04  1.081686E-09
         2   5 -2.769221E+06  1.752109E+03 -2.821444E+04 -7.045404E-09 -2.707259E+04  7.102247E-10
         2   6 -2.772556E+06  9.361126E+02 -1.656250E+04  4.350167E-09 -1.275390E+04 -1.375737E-09
         2   7 -2.772596E+06 -1.675999E+04 -5.405059E+04  5.449353E+03 -4.139107E+04 -3.648693E-01
         2   8 -2.769221E+06  1.752112E+03 -2.821444E+04  1.372387E+03 -2.707259E+04 -6.010232E-02
         2   9 -2.772556E+06  9.361264E+02 -1.656250E+04 -2.704556E+03 -1.275390E+04  5.579897E-02
         2  10 -2.772598E+06 -1.676046E+04 -5.405382E+04 -5.449353E+03 -5.414240E-09  1.424052E-09
         2  11 -2.769222E+06  1.751915E+03 -2.821582E+04 -1.372387E+03 -3.868849E-09  6.594569E-10
         2  12 -2.772556E+06  9.360825E+02 -1.656281E+04  2.704556E+03 -2.645673E-09 -3.066177E-10
         2  13 -2.772598E+06 -1.676051E+04 -5.405383E+04  3.022265E-09 -6.425494E-09  7.203663E-10
         2  14 -2.769222E+06  1.751911E+03 -2.821582E+04  1.514719E-09 -3.071065E-09  5.601563E-10
         2  15 -2.772556E+06  9.360687E+02 -1.656281E+04  6.470227E-09  1.353289E-09 -2.636052E-10
         2  16 -2.772598E+06 -1.676046E+04 -5.405382E+04  5.449353E+03  3.128455E-09  9.460887E-11
         2  17 -2.769222E+06  1.751915E+03 -2.821582E+04  1.372387E+03  4.563394E-11  1.227840E-10
         2  18 -2.772556E+06  9.360825E+02 -1.656281E+04 -2.704556E+03  6.333963E-10 -9.273624E-11
         2  19 -2.772596E+06 -1.675999E+04 -5.405059E+04 -5.449353E+03  4.139107E+04 -3.648693E-01
         2  20 -2.769221E+06  1.752112E+03 -2.821444E+04 -1.372387E+03  2.707259E+04 -6.010232E-02
         2  21 -2.772556E+06  9.361264E+02 -1.656250E+04  2.704556E+03  1.275390E+04  5.579897E-02
         2  22 -2.772596E+06 -1.676005E+04 -5.405059E+04  1.160752E-08  4.139107E+04  4.098577E-10
         2  23 -2.769221E+06  1.752109E+03 -2.821444E+04  1.007063E-08  2.707259E+04  2.304243E-10
         2  24 -2.772556E+06  9.361126E+02 -1.656250E+04  1.714826E-08  1.275390E+04  7.555404E-10
         2  25 -2.772596E+06 -1.675999E+04 -5.405059E+04  5.449353E+03  4.139107E+04  3.648693E-01
         2  26 -2.769221E+06  1.752112E+03 -2.821444E+04  1.372387E+03  2.707259E+04  6.010232E-02
         2  27 -2.772556E+06  9.361264E+02 -1.656250E+04 -2.704556E+03  1.275390E+04 -5.579897E-02
         3   1 -2.771265E+06 -1.362040E+03 -1.286507E+04 -2.131534E+02 -1.016941E+04  3.506503E-03
         3   2 -2.770820E+06  1.858461E+02 -7.217558E+03  3.540460E+01 -6.574408E+03 -3.765338E-04
         3   3 -2.771258E+06  8.122350E+01 -4.331406E+03  2.839582E+02 -2.979445E+03 -1.368600E-03
         3   4 -2.771265E+06 -1.362040E+03 -1.286507E+04  1.016500E-08 -1.016941E+04 -1.895445E-09
         3   5 -2.770820E+06  1.858461E+02 -7.217558E+03  1.574535E-08 -6.574408E+03 -7.514962E-10
         3   6 -2.771258E+06  8.122335E+01 -4.331406E+03  8.944040E-10 -2.979445E+03 -4.027626E-10
         3   7 -2.771265E+06 -1.362040E+03 -1.286507E+04  2.131534E+02 -1.016941E+04 -3.506507E-03
         3   8 -2.770820E+06  1.858461E+02 -7.217558E+03 -3.540460E+01 -6.574408E+03  3.765318E-04
         3   9 -2.771258E+06  8.122350E+01 -4.331406E+03 -2.839582E+02 -2.979445E+03  1.368599E-03
         3  10 -2.771265E+06 -1.362068E+03 -1.286527E+04 -2.131534E+02 -1.368637E-09 -9.671345E-10
         3  11 -2.770820E+06  1.858344E+02 -7.217640E+03  3.540460E+01  1.818852E-09 -9.211273E-10
         3  12 -2.771258E+06  8.122110E+01 -4.331422E+03  2.839582E+02  3.481735E-09 -4.988286E-11
         3  13 -2.771265E+06 -1.362068E+03 -1.286527E+04  2.308058E-08  1.297550E-10 -6.331514E-10
         3  14 -2.770820E+06  1.858344E+02 -7.217640E+03 -1.007533E-08  1.075764E-09 -6.734996E-10
         3  15 -2.771258E+06  8.122095E+01 -4.331422E+03 -2.314025E-09  2.017813E-10 -6.521624E-10
         3  16 -2.771265E+06 -1.362068E+03 -1.286527E+04  2.131534E+02 -1.533932E-10 -9.842477E-11
         3  17 -2.770820E+06  1.858344E+02 -7.217640E+03 -3.540460E+01  2.544339E-10 -4.860095E-10
         3  18 -2.771258E+06  8.122110E+01 -4.331422E+03 -2.839582E+02 -1.401911E-09 -1.377666E-09
         3  19 -2.771265E+06 -1.362040E+03 -1.286507E+04 -2.131534E+02  1.016941E+04 -3.506505E-03
         3  20 -2.770820E+06  1.858461E+02 -7.217558E+03  3.540460E+01  6.574408E+03  3.765322E-04
         3  21 -2.771258E+06  8.122350E+01 -4.331406E+03  2.839582E+02  2.979445E+03  1.368600E-03
         3  22 -2.771265E+06 -1.362040E+03 -1.286507E+04  1.445130E-08  1.016941E+04  6.400041E-10
         3  23 -2.770820E+06  1.858461E+02 -7.217558E+03 -1.652788E-08  6.574408E+03 -7.127081E-10
         3  24 -2.771258E+06  8.122335E+01 -4.331406E+03 -1.630956E-08  2.979445E+03 -8.580211E-10
         3  25 -2.771265E+06 -1.362040E+03 -1.286507E+04  2.131534E+02  1.016941E+04  3.506506E-03
         3  26 -2.770820E+06  1.858461E+02 -7.217558E+03 -3.540460E+01  6.574408E+03 -3.765331E-04
         3  27 -2.771258E+06  8.122350E+01 -4.331406E+03 -2.839582E+02  2.979445E+03 -1.368602E-03
         4   1 -2.771103E+06 -9.718772E+01 -3.440918E+03  3.645810E+01 -2.282600E+03 -1.346178E-04
         4   2 -2.771008E+06  2.978060E+01 -2.326073E+03  2.536672E+01 -1.131795E+03 -4.644067E-05
         4   3 -2.771102E+06  2.080154E+00 -2.001638E+03  1.427518E+01  1.902741E+01  4.380035E-07
         4   4 -2.771103E+06 -9.718772E+01 -3.440918E+03  2.382741E-08 -2.282600E+03  7.514517E-10
         4   5 -2.771008E+06  2.978059E+01 -2.326073E+03 -4.992055E-09 -1.131795E+03  1.925857E-09
         4   6 -2.771102E+06  2.080153E+00 -2.001638E+03  1.119591E-09  1.902741E+01 -2.352194E-09
         4   7 -2.771103E+06 -9.718772E+01 -3.440918E+03 -3.645810E+01 -2.282600E+03  1.346198E-04
         4   8 -2.771008E+06  2.978060E+01 -2.326073E+03 -2.536672E+01 -1.131795E+03  4.644375E-05
         4   9 -2.771102E+06  2.080154E+00 -2.001638E+03 -1.427518E+01  1.902741E+01 -4.417453E-07
         4  10 -2.771103E+06 -9.718912E+01 -3.440927E+03  3.645810E+01  6.321680E-10  1.213467E-09
         4  11 -2.771008E+06  2.978025E+01 -2.326075E+03  2.536672E+01  2.353843E-09  1.318368E-09
         4  12 -2.771102E+06  2.080154E+00 -2.001638E+03  1.427518E+01  3.654554E-09 -1.243596E-09
         4  13 -2.771103E+06 -9.718913E+01 -3.440927E+03 -5.985690E-09 -2.209615E-09  2.427996E-10
         4  14 -2.771008E+06  2.978025E+01 -2.326075E+03 -2.895078E-09 -4.177833E-09  1.165578E-09
         4  15 -2.771102E+06  2.080153E+00 -2.001638E+03  8.784914E-09 -8.339806E-10 -1.022964E-09
         4  16 -2.771103E+06 -9.718912E+01 -3.440927E+03 -3.645810E+01 -7.406179E-10 -6.971021E-10
         4  17 -2.771008E+06  2.978025E+01 -2.326075E+03 -2.536672E+01 -2.414794E-09  1.083046E-09
         4  18 -2.771102E+06  2.080154E+00 -2.001638E+03 -1.427518E+01 -2.084762E-09 -8.701463E-10
         4  19 -2.771103E+06 -9.718772E+01 -3.440918E+03  3.645810E+01  2.282600E+03  1.346207E-04
         4  20 -2.771008E+06  2.978060E+01 -2.326073E+03  2.536672E+01  1.131795E+03  4.644374E-05
         4  21 -2.771102E+06  2.080154E+00 -2.001638E+03  1.427518E+01 -1.902741E+01 -4.394571E-07
         4  22 -2.771103E+06 -9.718772E+01 -3.440918E+03 -1.407664E-09  2.282600E+03 -3.549419E-10
         4  23 -2.771008E+06  2.978059E+01 -2.326073E+03 -1.372205E-08  1.131795E+03  2.244751E-10
         4  24 -2.771102E+06  2.080153E+00 -2.001638E+03 -4.523110E-09 -1.902741E+01  3.475363E-10
         4  25 -2.771103E+06 -9.718772E+01 -3.440918E+03 -3.645810E+01  2.282600E+03 -1.346216E-04
         4  26 -2.771008E+06  2.978060E+01 -2.326073E+03 -2.536672E+01  1.131795E+03 -4.644209E-05
         4  27 -2.771102E+06  2.080154E+00 -2.001638E+03 -1.427518E+01 -1.902741E+01  4.397447E-07
         5   1 -2.771110E+06  5.092458E+00 -2.071544E+03 -3.123330E+01  3.864763E+02 -1.952912E-05
         5   2 -2.770999E+06  3.555083E+01 -2.705221E+03 -4.135688E+01  1.725116E+03 -1.154113E-04
         5   3 -2.771111E+06 -1.253734E+02 -4.261175E+03 -5.148048E+01  3.063753E+03 -2.551414E-04
         5   4 -2.771110E+06  5.092456E+00 -2.071544E+03  1.177505E-08  3.864763E+02 -2.386775E-09
         5   5 -2.770999E+06  3.555083E+01 -2.705221E+03  1.774456E-08  1.725116E+03  1.635471E-09
         5   6 -2.771111E+06 -1.253734E+02 -4.261175E+03  1.026273E-08  3.063753E+03  2.137137E-10
         5   7 -2.771110E+06  5.092458E+00 -2.071544E+03  3.123330E+01  3.864763E+02  1.952376E-05
         5   8 -2.770999E+06  3.555083E+01 -2.705221E+03  4.135688E+01  1.725116E+03  1.154134E-04
         5   9 -2.771111E+06 -1.253734E+02 -4.261175E+03  5.148048E+01  3.063753E+03  2.551429E-04
         5  10 -2.771110E+06  5.092418E+00 -2.071544E+03 -3.123330E+01 -2.854518E-09 -7.729711E-10
         5  11 -2.770999E+06  3.555003E+01 -2.705227E+03 -4.135688E+01 -2.682390E-10  1.084375E-09
         5  12 -2.771112E+06 -1.253760E+02 -4.261193E+03 -5.148048E+01 -3.674552E-10 -1.707758E-10
         5  13 -2.771110E+06  5.092416E+00 -2.071544E+03  7.881221E-09  1.527725E-09 -9.503666E-10
         5  14 -2.770999E+06  3.555003E+01 -2.705227E+03  4.879372E-09 -4.177836E-09  1.124534E-09
         5  15 -2.771112E+06 -1.253760E+02 -4.261193E+03 -1.318329E-08  8.062833E-10 -7.704685E-11
         5  16 -2.771110E+06  5.092418E+00 -2.071544E+03  3.123330E+01  1.396517E-09 -1.029946E-09
         5  17 -2.770999E+06  3.555003E+01 -2.705227E+03  4.135688E+01  8.542226E-10  1.232053E-09
         5  18 -2.771112E+06 -1.253760E+02 -4.261193E+03  5.148048E+01 -1.448052E-09  2.798008E-10
         5  19 -2.771110E+06  5.092458E+00 -2.071544E+03 -3.123330E+01 -3.864763E+02  1.952680E-05
         5  20 -2.770999E+06  3.555083E+01 -2.705221E+03 -4.135688E+01 -1.725116E+03  1.154132E-04
         5  21 -2.771111E+06 -1.253734E+02 -4.261175E+03 -5.148048E+01 -3.063753E+03  2.551418E-04
         5  22 -2.771110E+06  5.092456E+00 -2.071544E+03  1.261455E-08 -3.864763E+02  5.761805E-10
         5  23 -2.770999E+06  3.555083E+01 -2.705221E+03  4.927643E-09 -1.725116E+03  8.138547E-10
         5  24 -2.771111E+06 -1.253734E+02 -4.261175E+03  1.014160E-08 -3.063753E+03 -4.194210E-10
         5  25 -2.771110E+06  5.092458E+00 -2.071544E+03  3.123330E+01 -3.864763E+02 -1.952659E-05
         5  26 -2.770999E+06  3.555083E+01 -2.705221E+03  4.135688E+01 -1.725116E+03 -1.154120E-04
         5  27 -2.771111E+06 -1.253734E+02 -4.261175E+03  5.148048E+01 -3.063753E+03 -2.551426E-04
         6   1 -2.771313E+06  1.039058E+02 -5.446299E+03 -3.688761E+02  3.933809E+03 -2.347366E-03
         6   2 -2.770752E+06  2.384540E+02 -9.211588E+03 -4.785807E+01  8.522405E+03 -6.597863E-04
         6   3 -2.771323E+06 -1.751797E+03 -1.650537E+04  2.731564E+02  1.311090E+04  5.793360E-03
         6   4 -2.771313E+06  1.039056E+02 -5.446299E+03  3.026130E-08  3.933809E+03 -7.264647E-10
         6   5 -2.770752E+06  2.384540E+02 -9.211588E+03  8.913804E-09  8.522405E+03  1.785953E-10
         6   6 -2.771323E+06 -1.751797E+03 -1.650537E+04 -7.046492E-09  1.311090E+04  4.278623E-10
         6   7 -2.771313E+06  1.039058E+02 -5.446299E+03  3.688761E+02  3.933809E+03  2.347365E-03
         6   8 -2.770752E+06  2.384540E+02 -9.211588E+03  4.785807E+01  8.522405E+03  6.597859E-04
         6   9 -2.771323E+06 -1.751797E+03 -1.650537E+04 -2.731564E+02  1.311090E+04 -5.793359E-03
         6  10 -2.771313E+06  1.039016E+02 -5.446328E+03 -3.688761E+02 -2.262879E-10 -7.975356E-10
         6  11 -2.770752E+06  2.384344E+02 -9.211725E+03 -4.785807E+01  1.992101E-09  7.663919E-10
         6  12 -2.771323E+06 -1.751843E+03 -1.650569E+04  2.731564E+02 -1.053703E-10  7.996854E-10
         6  13 -2.771313E+06  1.039014E+02 -5.446328E+03  1.319585E-08 -2.167590E-10 -7.037469E-10
         6  14 -2.770752E+06  2.384344E+02 -9.211725E+03 -6.088281E-09 -2.503366E-10  3.458507E-10
         6  15 -2.771323E+06 -1.751843E+03 -1.650569E+04 -1.566530E-08  8.881563E-10  4.625711E-10
         6  16 -2.771313E+06  1.039016E+02 -5.446328E+03  3.688761E+02 -9.578573E-10 -5.118650E-10
         6  17 -2.770752E+06  2.384344E+02 -9.211725E+03  4.785807E+01 -2.242437E-09 -3.515088E-10
         6  18 -2.771323E+06 -1.751843E+03 -1.650569E+04 -2.731564E+02 -1.796621E-10  3.007992E-10
         6  19 -2.771313E+06  1.039058E+02 -5.446299E+03 -3.688761E+02 -3.933809E+03  2.347364E-03
         6  20 -2.770752E+06  2.384540E+02 -9.211588E+03 -4.785807E+01 -8.522405E+03  6.597882E-04
         6  21 -2.771323E+06 -1.751797E+03 -1.650537E+04  2.731564E+02 -1.311090E+04 -5.793359E-03
         6  22 -2.771313E+06  1.039056E+02 -5.446299E+03  1.764166E-08 -3.933809E+03 -7.172188E-10
         6  23 -2.770752E+06  2.384540E+02 -9.211588E+03 -8.170572E-09 -8.522405E+03  1.280777E-10
         6  24 -2.771323E+06 -1.751797E+03 -1.650537E+04 -2.783274E-09 -1.311090E+04  4.894763E-10
         6  25 -2.771313E+06  1.039058E+02 -5.446299E+03  3.688761E+02 -3.933809E+03 -2.347366E-03
         6  26 -2.770752E+06  2.384540E+02 -9.211588E+03  4.785807E+01 -8.522405E+03 -6.597873E-04
         6  27 -2.771323E+06 -1.751797E+03 -1.650537E+04 -2.731564E+02 -1.311090E+04  5.793359E-03
         7   1 -2.772984E+06  1.203788E+03 -2.127066E+04 -3.479381E+03  1.642861E+04 -9.246777E-02
         7   2 -2.768696E+06  2.253299E+03 -3.626938E+04  1.764544E+03  3.483548E+04  9.943483E-02
         7   3 -2.773036E+06 -2.155583E+04 -6.950452E+04  7.008584E+03  5.324228E+04  6.036322E-01
         7   4 -2.772984E+06  1.203765E+03 -2.127066E+04  4.925843E-09  1.642861E+04  7.021386E-11
         7   5 -2.768696E+06  2.253294E+03 -3.626938E+04  5.343543E-09  3.483548E+04 -3.380587E-10
         7   6 -2.773036E+06 -2.155592E+04 -6.950454E+04  1.545583E-08  5.324228E+04 -1.359507E-10
         7   7 -2.772984E+06  1.203788E+03 -2.127066E+04  3.479381E+03  1.642861E+04  9.246777E-02
         7   8 -2.768696E+06  2.253299E+03 -3.626938E+04 -1.764544E+03  3.483548E+04 -9.943484E-02
         7   9 -2.773036E+06 -2.155583E+04 -6.950452E+04 -7.008584E+03  5.324228E+04 -6.036322E-01
         7  10 -2.772984E+06  1.203715E+03 -2.127117E+04 -3.479381E+03 -8.259047E-10 -5.724840E-11
         7  11 -2.768697E+06  2.252972E+03 -3.627167E+04  1.764544E+03 -3.347171E-09 -8.869883E-10
         7  12 -2.773039E+06 -2.155659E+04 -6.950987E+04  7.008584E+03 -2.289676E-09 -7.722363E-10
         7  13 -2.772984E+06  1.203693E+03 -2.127117E+04  4.873372E-09  1.459762E-09  3.099666E-10
         7  14 -2.768697E+06  2.252966E+03 -3.627167E+04  9.858264E-10 -1.200585E-09 -4.471514E-11
         7  15 -2.773039E+06 -2.155668E+04 -6.950989E+04  1.409819E-09 -3.138554E-09 -7.019213E-10
         7  16 -2.772984E+06  1.203715E+03 -2.127117E+04  3.479381E+03  4.223510E-10  7.045816E-10
         7  17 -2.768697E+06  2.252972E+03 -3.627167E+04 -1.764544E+03  1.238869E-09  5.925558E-10
         7  18 -2.773039E+06 -2.155659E+04 -6.950987E+04 -7.008584E+03 -3.198240E-09 -7.878980E-10
         7  19 -2.772984E+06  1.203788E+03 -2.127066E+04 -3.479381E+03 -1.642861E+04  9.246777E-02
         7  20 -2.768696E+06  2.253299E+03 -3.626938E+04  1.764544E+03 -3.483548E+04 -9.943484E-02
         7  21 -2.773036E+06 -2.155583E+04 -6.950452E+04  7.008584E+03 -5.324228E+04 -6.036322E-01
         7  22 -2.772984E+06  1.203765E+03 -2.127066E+04  2.202288E-08 -1.642861E+04  5.295616E-10
         7  23 -2.768696E+06  2.253294E+03 -3.626938E+04  5.228112E-09 -3.483548E+04  2.409578E-10
         7  24 -2.773036E+06 -2.155592E+04 -6.950454E+04  1.102894E-08 -5.324228E+04 -1.251074E-09
         7  25 -2.772984E+06  1.203788E+03 -2.127066E+04  3.479381E+03 -1.642861E+04 -9.246777E-02
         7  26 -2.768696E+06  2.253299E+03 -3.626938E+04 -1.764544E+03 -3.483548E+04  9.943484E-02
         7  27 -2.773036E+06 -2.155583E+04 -6.950452E+04 -7.008584E+03 -5.324228E+04  6.036322E-01
         8   1 -2.789363E+06  1.403351E+04 -8.593088E+04 -3.699495E+04  6.611585E+04 -3.956809E+00
         8   2 -2.748318E+06  2.417427E+04 -1.407353E+05  3.007432E+04  1.415430E+05  6.885768E+00
         8   3 -2.789714E+06 -2.557158E+05 -3.172981E+05  9.713850E+04  2.169715E+05  3.409390E+01
         8   4 -2.789365E+06  1.403093E+04 -8.593125E+04  2.100281E-08  6.611585E+04  2.123630E-10
         8   5 -2.748319E+06  2.417257E+04 -1.407356E+05  9.750229E-09  1.415430E+05  1.555781E-10
         8   6 -2.789724E+06 -2.557336E+05 -3.173006E+05  3.306138E-09  2.169715E+05 -9.069516E-12
         8   7 -2.789363E+06  1.403351E+04 -8.593088E+04  3.699495E+04  6.611585E+04  3.956809E+00
         8   8 -2.748318E+06  2.417427E+04 -1.407353E+05 -3.007432E+04  1.415430E+05 -6.885768E+00
         8   9 -2.789714E+06 -2.557158E+05 -3.172981E+05 -9.713850E+04  2.169715E+05 -3.409390E+01
         8  10 -2.789368E+06  1.403233E+04 -8.593913E+04 -3.699495E+04 -2.005933E-09  1.278787E-10
         8  11 -2.748340E+06  2.416886E+04 -1.407732E+05  3.007432E+04  1.578778E-09  7.017625E-10
         8  12 -2.789765E+06 -2.557285E+05 -3.173869E+05  9.713849E+04  5.346854E-10  3.464958E-10
         8  13 -2.789369E+06  1.402975E+04 -8.593950E+04  8.239967E-09 -4.235572E-09 -4.791038E-10
         8  14 -2.748341E+06  2.416716E+04 -1.407734E+05  1.170598E-09 -1.490308E-09  4.033104E-10
         8  15 -2.789775E+06 -2.557464E+05 -3.173895E+05 -5.195998E-10 -2.316436E-09  2.475130E-10
         8  16 -2.789368E+06  1.403233E+04 -8.593913E+04  3.699495E+04 -8.792679E-10 -7.624316E-10
         8  17 -2.748340E+06  2.416886E+04 -1.407732E+05 -3.007432E+04  7.408603E-10  2.496618E-10
         8  18 -2.789765E+06 -2.557285E+05 -3.173869E+05 -9.713849E+04 -1.740622E-09  2.426154E-10
         8  19 -2.789363E+06  1.403351E+04 -8.593088E+04 -3.699495E+04 -6.611585E+04  3.956809E+00
         8  20 -2.748318E+06  2.417427E+04 -1.407353E+05  3.007432E+04 -1.415430E+05 -6.885768E+00
         8  21 -2.789714E+06 -2.557158E+05 -3.172981E+05  9.713850E+04 -2.169715E+05 -3.409390E+01
         8  22 -2.789365E+06  1.403093E+04 -8.593125E+04  4.083695E-09 -6.611585E+04 -1.101148E-09
         8  23 -2.748319E+06  2.417257E+04 -1.407356E+05 -7.396490E-09 -1.415430E+05  6.016857E-10
         8  24 -2.789724E+06 -2.557336E+05 -3.173006E+05 -9.188074E-09 -2.169715E+05  4.792959E-10
         8  25 -2.789363E+06  1.403351E+04 -8.593088E+04  3.699495E+04 -6.611585E+04 -3.956809E+00
         8  26 -2.748318E+06  2.417427E+04 -1.407353E+05 -3.007432E+04 -1.415430E+05  6.885768E+00
         8  27 -2.789714E+06 -2.557158E+05 -3.172981E+05 -9.713850E+04 -2.169715E+05  3.409390E+01
         9   1  2.017695E+06  6.841491E+06  1.952250E+06 -1.220547E+06  9.254743E+04  6.805706E+05
         9   2  1.548136E+06  5.754738E+06  1.333061E+06 -1.045100E+06  3.031736E+05  3.149576E+05
         9   3  1.251881E+06  4.762494E+06  9.943223E+05 -1.083733E+06  3.389297E+05 -4.990852E+04
         9   4  2.032906E+05 -5.283816E+05  2.236521E+05 -1.078403E+06  9.387450E+04  1.546891E+05
         9   5  4.674906E+04 -5.466480E+05  1.095653E+05 -9.716897E+05  3.041295E+05  9.912735E+04
         9   6  1.094875E+04 -5.242365E+05  6.245963E+04 -1.079011E+06  3.387803E+05  4.362238E+04
         9   7 -1.614755E+06 -7.847940E+06 -1.507626E+06 -9.378778E+05  9.497500E+04 -3.650472E+05
         9   8 -1.456967E+06 -6.810010E+06 -1.115633E+06 -8.989807E+05  3.050415E+05 -1.145796E+05
         9   9 -1.231506E+06 -5.783744E+06 -8.703959E+05 -1.074280E+06  3.386315E+05  1.363836E+05
         9  10  2.017563E+06  6.840995E+06  1.951372E+06 -1.220597E+06 -2.209452E-10 -1.346339E-09
         9  11  1.548011E+06  5.754607E+06  1.332703E+06 -1.045177E+06  3.099335E-09 -1.318692E-09
         9  12  1.251757E+06  4.762460E+06  9.941020E+05 -1.083719E+06  2.107550E-10 -1.639678E-09
         9  13  2.032747E+05 -5.284098E+05  2.235904E+05 -1.078415E+06 -2.242405E-10 -5.035702E-11
         9  14  4.664707E+04 -5.466834E+05  1.093729E+05 -9.717140E+05 -7.700012E-10 -8.794825E-11
         9  15  1.082499E+04 -5.242694E+05  6.224030E+04 -1.079023E+06 -2.059816E-09 -4.494562E-11
         9  16 -1.614801E+06 -7.848087E+06 -1.507896E+06 -9.378498E+05 -2.377118E-10  1.212241E-09
         9  17 -1.457070E+06 -6.810049E+06 -1.115833E+06 -8.989525E+05 -2.406185E-09  1.122215E-09
         9  18 -1.231635E+06 -5.783795E+06 -8.706469E+05 -1.074318E+06 -4.256097E-09  1.514481E-09
         9  19  2.017695E+06  6.841491E+06  1.952250E+06 -1.220547E+06 -9.254743E+04 -6.805706E+05
         9  20  1.548136E+06  5.754738E+06  1.333061E+06 -1.045100E+06 -3.031736E+05 -3.149576E+05
         9  21  1.251881E+06  4.762494E+06  9.943223E+05 -1.083733E+06 -3.389297E+05  4.990852E+04
         9  22  2.032906E+05 -5.283816E+05  2.236521E+05 -1.078403E+06 -9.387450E+04 -1.546891E+05
         9  23  4.674906E+04 -5.466480E+05  1.095653E+05 -9.716897E+05 -3.041295E+05 -9.912735E+04
         9  24  1.094875E+04 -5.242365E+05  6.245963E+04 -1.079011E+06 -3.387803E+05 -4.362238E+04
         9  25 -1.614755E+06 -7.847940E+06 -1.507626E+06 -9.378778E+05 -9.497500E+04  3.650472E+05
         9  26 -1.456967E+06 -6.810010E+06 -1.115633E+06 -8.989807E+05 -3.050415E+05  1.145796E+05
         9  27 -1.231506E+06 -5.783744E+06 -8.703959E+05 -1.074280E+06 -3.386315E+05 -1.363836E+05
        10   1  1.094006E+06  4.073472E+06  8.509681E+05 -1.100606E+06  3.038946E+05 -4.195117E+04
        10   2  8.400860E+05  3.030135E+06  6.322211E+05 -9.822212E+05  2.526105E+05 -8.435129E+04
        10   3  6.009913E+05  1.996441E+06  4.444754E+05 -1.089480E+06  1.860216E+05 -1.268931E+05
        10   4  1.453689E+04 -5.311257E+05  4.873020E+04 -1.081560E+06  3.037222E+05  3.509035E+04
        10   5  8.412023E+03 -5.318866E+05  3.070070E+04 -9.687157E+05  2.521839E+05  1.968253E+04
        10   6  1.253101E+04 -5.286862E+05  2.505515E+04 -1.081590E+06  1.852951E+05  4.065416E+03
        10   7 -1.066076E+06 -5.115016E+06 -7.542365E+05 -1.062619E+06  3.035537E+05  1.115798E+05
        10   8 -8.239237E+05 -4.081420E+06 -5.711858E+05 -9.552653E+05  2.517601E+05  1.231407E+05
        10   9 -5.762509E+05 -3.047489E+06 -3.944938E+05 -1.073719E+06  1.845700E+05  1.345104E+05
        10  10  1.093907E+06  4.073445E+06  8.507914E+05 -1.100596E+06 -9.111972E-10 -2.878200E-08
        10  11  8.400156E+05  3.030110E+06  6.320880E+05 -9.822041E+05 -1.811218E-09 -1.144606E-10
        10  12  6.009500E+05  1.996415E+06  4.443805E+05 -1.089461E+06 -3.157701E-10  2.915651E-08
        10  13  1.443750E+04 -5.311518E+05  4.855449E+04 -1.081569E+06 -1.260340E-09 -6.320821E-11
        10  14  8.343635E+03 -5.319041E+05  3.058046E+04 -9.687198E+05 -1.823775E-09  7.071769E-11
        10  15  1.249414E+04 -5.286954E+05  2.499061E+04 -1.081590E+06  8.369390E-11  2.459026E-10
        10  16 -1.066179E+06 -5.115054E+06 -7.544334E+05 -1.062646E+06 -2.724046E-09  2.858827E-08
        10  17 -8.239960E+05 -4.081454E+06 -5.713338E+05 -9.552904E+05 -1.325721E-09 -1.678963E-10
        10  18 -5.762924E+05 -3.047517E+06 -3.945922E+05 -1.073739E+06 -6.266750E-10 -2.885559E-08
        10  19  1.094006E+06  4.073472E+06  8.509681E+05 -1.100606E+06 -3.038946E+05  4.195117E+04
        10  20  8.400860E+05  3.030135E+06  6.322211E+05 -9.822212E+05 -2.526105E+05  8.435129E+04
        10  21  6.009913E+05  1.996441E+06  4.444754E+05 -1.089480E+06 -1.860216E+05  1.268931E+05
        10  22  1.453689E+04 -5.311257E+05  4.873020E+04 -1.081560E+06 -3.037222E+05 -3.509035E+04
        10  23  8.412023E+03 -5.318866E+05  3.070070E+04 -9.687157E+05 -2.521839E+05 -1.968253E+04
        10  24  1.253101E+04 -5.286862E+05  2.505515E+04 -1.081590E+06 -1.852951E+05 -4.065416E+03
        10  25 -1.066076E+06 -5.115016E+06 -7.542365E+05 -1.062619E+06 -3.035537E+05 -1.115798E+05
        10  26 -8.239237E+05 -4.081420E+06 -5.711858E+05 -9.552653E+05 -2.517601E+05 -1.231407E+05
        10  27 -5.762509E+05 -3.047489E+06 -3.944938E+05 -1.073719E+06 -1.845700E+05 -1.345104E+05
        11   1  4.437711E+05  1.324621E+06  3.271299E+05 -1.091260E+06  1.415790E+05 -1.307870E+05
        11   2  2.096629E+05  2.850123E+05  1.535194E+05 -9.567441E+05  7.280141E+04 -1.273589E+05
        11   3  3.001647E+03 -7.494338E+05 -1.615638E+04 -1.048227E+06  1.538843E+04 -1.239387E+05
        11   4  1.306208E+04 -5.273268E+05  2.489668E+04 -1.081673E+06  1.407943E+05 -2.084180E+02
        11   5  2.231888E+04 -5.308059E+05  3.167014E+04 -9.685527E+05  7.211064E+04 -1.678717E+04
        11   6  6.254378E+04 -5.267488E+05  5.623533E+04 -1.081409E+06  1.479721E+04 -3.336650E+04
        11   7 -4.178128E+05 -2.375843E+06 -2.773699E+05 -1.072107E+06  1.400122E+05  1.299947E+05
        11   8 -1.650492E+05 -1.345929E+06 -9.014583E+04 -9.803437E+05  7.141507E+04  9.364516E+04
        11   9  1.220895E+05 -3.040026E+05  1.286534E+05 -1.114604E+06  1.419640E+04  5.723924E+04
        11  10  4.437451E+05  1.324597E+06  3.270603E+05 -1.091245E+06 -5.484814E-10  9.382190E-10
        11  11  2.096528E+05  2.849935E+05  1.534790E+05 -9.567367E+05 -1.492713E-09  7.632899E-10
        11  12  2.997269E+03 -7.494503E+05 -1.618571E+04 -1.048225E+06 -2.310077E-10  1.199725E-10
        11  13  1.304080E+04 -5.273321E+05  2.485943E+04 -1.081672E+06 -1.819019E-09  3.425041E-10
        11  14  2.231323E+04 -5.308076E+05  3.165985E+04 -9.685517E+05 -6.589103E-10  2.018310E-10
        11  15  6.254325E+04 -5.267501E+05  5.623283E+04 -1.081409E+06  6.279703E-10  3.432122E-12
        11  16 -4.178385E+05 -2.375867E+06 -2.774388E+05 -1.072122E+06  1.705895E-10 -6.956723E-10
        11  17 -1.650571E+05 -1.345940E+06 -9.017197E+04 -9.803491E+05  2.404809E-09 -5.135488E-10
        11  18  1.220884E+05 -3.040061E+05  1.286468E+05 -1.114604E+06 -7.755937E-10 -3.425888E-10
        11  19  4.437711E+05  1.324621E+06  3.271299E+05 -1.091260E+06 -1.415790E+05  1.307870E+05
        11  20  2.096629E+05  2.850123E+05  1.535194E+05 -9.567441E+05 -7.280141E+04  1.273589E+05
        11  21  3.001647E+03 -7.494338E+05 -1.615638E+04 -1.048227E+06 -1.538843E+04  1.239387E+05
        11  22  1.306208E+04 -5.273268E+05  2.489668E+04 -1.081673E+06 -1.407943E+05  2.084180E+02
        11  23  2.231888E+04 -5.308059E+05  3.167014E+04 -9.685527E+05 -7.211064E+04  1.678717E+04
        11  24  6.254378E+04 -5.267488E+05  5.623533E+04 -1.081409E+06 -1.479721E+04  3.336650E+04
        11  25 -4.178128E+05 -2.375843E+06 -2.773699E+05 -1.072107E+06 -1.400122E+05 -1.299947E+05
        11  26 -1.650492E+05 -1.345929E+06 -9.014583E+04 -9.803437E+05 -7.141507E+04 -9.364516E+04
        11  27  1.220895E+05 -3.040026E+05  1.286534E+05 -1.114604E+06 -1.419640E+04 -5.723924E+04
        12   1 -3.647617E+06 -1.029947E+06 -5.494106E+05 -1.363961E+06 -3.168707E+05 -1.159319E+05
        12   2 -3.567811E+06 -5.452352E+05 -2.519796E+05 -1.389864E+06 -2.023928E+05 -6.791924E+04
        12   3 -3.643201E+06 -5.009366E+05 -1.568055E+05 -1.328742E+06 -8.565270E+04 -2.591375E+04
        12   4 -3.526156E+06 -8.548051E+05 -4.909151E+05 -1.197888E+06 -3.123622E+05 -1.143251E+05
        12   5 -3.422830E+06 -4.516687E+05 -2.070982E+05 -1.309958E+06 -2.015172E+05 -6.760723E+04
        12   6 -3.473938E+06 -4.881962E+05 -1.226158E+05 -1.335022E+06 -8.840522E+04 -2.693653E+04
        12   7 -3.404639E+06 -6.795523E+05 -4.324130E+05 -1.031768E+06 -3.078527E+05 -1.127155E+05
        12   8 -3.277824E+06 -3.580848E+05 -1.622184E+05 -1.230031E+06 -2.006414E+05 -6.729499E+04
        12   9 -3.304641E+06 -4.754522E+05 -8.842578E+04 -1.341307E+06 -9.115859E+04 -2.795905E+04
        12  10 -3.647729E+06 -1.029989E+06 -5.496260E+05 -1.363991E+06 -1.467728E-09 -4.687291E-11
        12  11 -3.567856E+06 -5.452513E+05 -2.520658E+05 -1.389876E+06  6.294233E-10  8.669999E-12
        12  12 -3.643209E+06 -5.009393E+05 -1.568206E+05 -1.328744E+06  1.959065E-10  2.410626E-10
        12  13 -3.526265E+06 -8.548456E+05 -4.911243E+05 -1.197917E+06  2.066087E-09  2.490978E-11
        12  14 -3.422875E+06 -4.516846E+05 -2.071836E+05 -1.309969E+06 -1.173478E-09  2.839355E-10
        12  15 -3.473947E+06 -4.881991E+05 -1.226320E+05 -1.335024E+06 -7.151091E-10  1.071783E-09
        12  16 -3.404744E+06 -6.795916E+05 -4.326162E+05 -1.031796E+06 -1.029715E-09 -2.322062E-10
        12  17 -3.277869E+06 -3.581006E+05 -1.623031E+05 -1.230042E+06  1.850687E-09  6.280981E-10
        12  18 -3.304650E+06 -4.754553E+05 -8.844298E+04 -1.341309E+06  1.874186E-09  1.654253E-09
        12  19 -3.647617E+06 -1.029947E+06 -5.494106E+05 -1.363961E+06  3.168707E+05  1.159319E+05
        12  20 -3.567811E+06 -5.452352E+05 -2.519796E+05 -1.389864E+06  2.023928E+05  6.791924E+04
        12  21 -3.643201E+06 -5.009366E+05 -1.568055E+05 -1.328742E+06  8.565270E+04  2.591375E+04
        12  22 -3.526156E+06 -8.548051E+05 -4.909151E+05 -1.197888E+06  3.123622E+05  1.143251E+05
        12  23 -3.422830E+06 -4.516687E+05 -2.070982E+05 -1.309958E+06  2.015172E+05  6.760723E+04
        12  24 -3.473938E+06 -4.881962E+05 -1.226158E+05 -1.335022E+06  8.840522E+04  2.693653E+04
        12  25 -3.404639E+06 -6.795523E+05 -4.324130E+05 -1.031768E+06  3.078527E+05  1.127155E+05
        12  26 -3.277824E+06 -3.580848E+05 -1.622184E+05 -1.230031E+06  2.006414E+05  6.729499E+04
        12  27 -3.304641E+06 -4.754522E+05 -8.842578E+04 -1.341307E+06  9.115859E+04  2.795905E+04
        13   1 -3.535568E+06 -5.746705E+05 -1.209531E+05 -1.339578E+06 -6.998702E+04 -2.231531E+04
        13   2 -3.496708E+06 -5.075928E+05 -5.958900E+04 -1.321249E+06 -4.406667E+04 -1.455066E+04
        13   3 -3.456303E+06 -4.985323E+05 -2.762231E+04 -1.315918E+06 -1.800571E+04 -7.153584E+03
        13   4 -3.457948E+06 -5.353020E+05 -9.895046E+04 -1.307859E+06 -7.091080E+04 -2.266289E+04
        13   5 -3.456376E+06 -4.898081E+05 -4.866626E+04 -1.307523E+06 -4.521001E+04 -1.497924E+04
        13   6 -3.453213E+06 -5.022855E+05 -2.760052E+04 -1.320185E+06 -1.937033E+04 -7.664581E+03
        13   7 -3.380322E+06 -4.959314E+05 -7.694843E+04 -1.276137E+06 -7.183471E+04 -2.301055E+04
        13   8 -3.416042E+06 -4.720232E+05 -3.774371E+04 -1.293796E+06 -4.635344E+04 -1.540787E+04
        13   9 -3.450123E+06 -5.060386E+05 -2.757870E+04 -1.324453E+06 -2.073496E+04 -8.175550E+03
        13  10 -3.535573E+06 -5.746724E+05 -1.209633E+05 -1.339579E+06  2.224319E-09  8.864818E-10
        13  11 -3.496710E+06 -5.075935E+05 -5.959307E+04 -1.321250E+06 -4.949604E-10  8.435505E-10
        13  12 -3.456303E+06 -4.985324E+05 -2.762302E+04 -1.315918E+06 -2.852730E-09 -6.655772E-10
        13  13 -3.457954E+06 -5.353039E+05 -9.896094E+04 -1.307860E+06  3.931720E-09  8.030572E-10
        13  14 -3.456378E+06 -4.898089E+05 -4.867055E+04 -1.307524E+06  2.491175E-09 -5.625547E-10
        13  15 -3.453213E+06 -5.022857E+05 -2.760134E+04 -1.320185E+06 -3.393246E-10 -1.715041E-10
        13  16 -3.380328E+06 -4.959334E+05 -7.695919E+04 -1.276138E+06 -2.709297E-09  3.268702E-10
        13  17 -3.416044E+06 -4.720240E+05 -3.774823E+04 -1.293797E+06  3.739667E-09 -2.283764E-09
        13  18 -3.450123E+06 -5.060388E+05 -2.757964E+04 -1.324453E+06 -8.597247E-11  2.690666E-10
        13  19 -3.535568E+06 -5.746705E+05 -1.209531E+05 -1.339578E+06  6.998702E+04  2.231531E+04
        13  20 -3.496708E+06 -5.075928E+05 -5.958900E+04 -1.321249E+06  4.406667E+04  1.455066E+04
        13  21 -3.456303E+06 -4.985323E+05 -2.762231E+04 -1.315918E+06  1.800571E+04  7.153584E+03
        13  22 -3.457948E+06 -5.353020E+05 -9.895046E+04 -1.307859E+06  7.091080E+04  2.266289E+04
        13  23 -3.456376E+06 -4.898081E+05 -4.866626E+04 -1.307523E+06  4.521001E+04  1.497924E+04
        13  24 -3.453213E+06 -5.022855E+05 -2.760052E+04 -1.320185E+06  1.937033E+04  7.664581E+03
        13  25 -3.380322E+06 -4.959314E+05 -7.694843E+04 -1.276137E+06  7.183471E+04  2.301055E+04
        13  26 -3.416042E+06 -4.720232E+05 -3.774371E+04 -1.293796E+06  4.635344E+04  1.540787E+04
        13  27 -3.450123E+06 -5.060386E+05 -2.757870E+04 -1.324453E+06  2.073496E+04  8.175550E+03
        14   1 -3.402629E+06 -4.886160E+05 -8.680387E+03 -1.304901E+06 -1.372684E+04 -7.006665E+03
        14   2 -3.368918E+06 -4.595036E+05  1.214844E+04 -1.282741E+06 -7.243419E+03 -6.943393E+03
        14   3 -3.318092E+06 -4.531252E+05  2.776650E+04 -1.281897E+06 -7.598253E+02 -6.878230E+03
        14   4 -3.451447E+06 -5.063628E+05 -2.133307E+04 -1.317577E+06 -1.497872E+04 -7.475652E+03
        14   5 -3.459795E+06 -4.935544E+05 -1.132077E+04 -1.307457E+06 -8.494713E+03 -7.412276E+03
        14   6 -3.451029E+06 -5.034806E+05 -6.519255E+03 -1.318651E+06 -2.010965E+03 -7.347174E+03
        14   7 -3.500263E+06 -5.241096E+05 -3.398606E+04 -1.330253E+06 -1.623050E+04 -7.944604E+03
        14   8 -3.550665E+06 -5.276050E+05 -3.479080E+04 -1.332168E+06 -9.745813E+03 -7.881087E+03
        14   9 -3.583950E+06 -5.538350E+05 -4.080663E+04 -1.355399E+06 -3.261815E+03 -7.816008E+03
        14  10 -3.402629E+06 -4.886161E+05 -8.680836E+03 -1.304901E+06 -4.095267E-11 -7.021916E-11
        14  11 -3.368918E+06 -4.595036E+05  1.214825E+04 -1.282741E+06  1.878168E-09  6.852214E-10
        14  12 -3.318092E+06 -4.531252E+05  2.776641E+04 -1.281897E+06  1.036032E-09  1.460139E-09
        14  13 -3.451447E+06 -5.063629E+05 -2.133360E+04 -1.317577E+06  1.889898E-09  3.782734E-10
        14  14 -3.459795E+06 -4.935545E+05 -1.132101E+04 -1.307457E+06  8.816256E-10  1.070966E-09
        14  15 -3.451029E+06 -5.034806E+05 -6.519364E+03 -1.318651E+06  2.133912E-09  2.343689E-09
        14  16 -3.500263E+06 -5.241097E+05 -3.398667E+04 -1.330253E+06  3.475581E-09  4.543155E-10
        14  17 -3.550665E+06 -5.276051E+05 -3.479110E+04 -1.332169E+06  4.080957E-09  6.349524E-10
        14  18 -3.583950E+06 -5.538351E+05 -4.080676E+04 -1.355399E+06  2.953931E-09  2.632818E-09
        14  19 -3.402629E+06 -4.886160E+05 -8.680387E+03 -1.304901E+06  1.372684E+04  7.006665E+03
        14  20 -3.368918E+06 -4.595036E+05  1.214844E+04 -1.282741E+06  7.243419E+03  6.943393E+03
        14  21 -3.318092E+06 -4.531252E+05  2.776650E+04 -1.281897E+06  7.598253E+02  6.878230E+03
        14  22 -3.451447E+06 -5.063628E+05 -2.133307E+04 -1.317577E+06  1.497872E+04  7.475652E+03
        14  23 -3.459795E+06 -4.935544E+05 -1.132077E+04 -1.307457E+06  8.494713E+03  7.412276E+03
        14  24 -3.451029E+06 -5.034806E+05 -6.519255E+03 -1.318651E+06  2.010965E+03  7.347174E+03
        14  25 -3.500263E+06 -5.241096E+05 -3.398606E+04 -1.330253E+06  1.623050E+04  7.944604E+03
        14  26 -3.550665E+06 -5.276050E+05 -3.479080E+04 -1.332168E+06  9.745813E+03  7.881087E+03
        14  27 -3.583950E+06 -5.538350E+05 -4.080663E+04 -1.355399E+06  3.261815E+03  7.816008E+03
        15   1 -3.271202E+06 -4.361263E+05  4.148956E+04 -1.269190E+06  6.197460E+02 -7.727154E+03
        15   2 -3.239713E+06 -4.115206E+05  5.359389E+04 -1.247690E+06  2.998575E+03 -9.130129E+03
        15   3 -3.190244E+06 -4.055572E+05  6.440208E+04 -1.247111E+06  5.360092E+03 -1.048387E+04
        15   4 -3.450991E+06 -5.036143E+05 -5.118145E+03 -1.318176E+06 -6.093904E+02 -8.187994E+03
        15   5 -3.459966E+06 -4.941974E+05 -3.311547E+03 -1.307751E+06  1.798517E+03 -9.580351E+03
        15   6 -3.450970E+06 -5.034292E+05 -2.824446E+03 -1.318248E+06  4.189000E+03 -1.092350E+04
        15   7 -3.630747E+06 -5.710999E+05 -5.172822E+04 -1.367150E+06 -1.838127E+03 -8.648683E+03
        15   8 -3.680172E+06 -5.768709E+05 -6.022089E+04 -1.367793E+06  5.989300E+02 -1.003040E+04
        15   9 -3.711630E+06 -6.012971E+05 -7.005677E+04 -1.389358E+06  3.018447E+03 -1.136293E+04
        15  10 -3.271202E+06 -4.361264E+05  4.148945E+04 -1.269190E+06  2.609452E-09  2.175010E-09
        15  11 -3.239713E+06 -4.115206E+05  5.359372E+04 -1.247690E+06 -1.326225E-10 -6.287934E-10
        15  12 -3.190244E+06 -4.055573E+05  6.440182E+04 -1.247111E+06 -1.126185E-09 -1.342989E-09
        15  13 -3.450991E+06 -5.036144E+05 -5.118272E+03 -1.318176E+06  5.211711E-10  1.709479E-09
        15  14 -3.459966E+06 -4.941975E+05 -3.311725E+03 -1.307751E+06 -1.451419E-09 -6.405014E-10
        15  15 -3.450970E+06 -5.034293E+05 -2.824703E+03 -1.318248E+06 -1.063249E-09 -6.931434E-10
        15  16 -3.630747E+06 -5.710999E+05 -5.172837E+04 -1.367150E+06 -1.154835E-09  9.444258E-10
        15  17 -3.680172E+06 -5.768710E+05 -6.022108E+04 -1.367793E+06  2.320785E-09 -9.735264E-10
        15  18 -3.711630E+06 -6.012972E+05 -7.005703E+04 -1.389358E+06 -9.370412E-10 -3.470221E-10
        15  19 -3.271202E+06 -4.361263E+05  4.148956E+04 -1.269190E+06 -6.197460E+02  7.727154E+03
        15  20 -3.239713E+06 -4.115206E+05  5.359389E+04 -1.247690E+06 -2.998575E+03  9.130129E+03
        15  21 -3.190244E+06 -4.055572E+05  6.440208E+04 -1.247111E+06 -5.360092E+03  1.048387E+04
        15  22 -3.450991E+06 -5.036143E+05 -5.118145E+03 -1.318176E+06  6.093904E+02  8.187994E+03
        15  23 -3.459966E+06 -4.941974E+05 -3.311547E+03 -1.307751E+06 -1.798517E+03  9.580351E+03
        15  24 -3.450970E+06 -5.034292E+05 -2.824446E+03 -1.318248E+06 -4.189000E+03  1.092350E+04
        15  25 -3.630747E+06 -5.710999E+05 -5.172822E+04 -1.367150E+06  1.838127E+03  8.648683E+03
        15  26 -3.680172E+06 -5.768709E+05 -6.022089E+04 -1.367793E+06 -5.989300E+02  1.003040E+04
        15  27 -3.711630E+06 -6.012971E+05 -7.005677E+04 -1.389358E+06 -3.018447E+03  1.136293E+04
        16   1 -3.147114E+06 -3.889043E+05  7.579291E+04 -1.234961E+06  6.226891E+03 -1.143204E+04
        16   2 -3.118433E+06 -3.666014E+05  8.410634E+04 -1.215223E+06  8.880377E+03 -1.254904E+04
        16   3 -3.073383E+06 -3.614455E+05  9.086316E+04 -1.214533E+06  1.150471E+04 -1.358427E+04
        16   4 -3.451331E+06 -5.030619E+05 -2.944716E+03 -1.317849E+06  5.083532E+03 -1.186151E+04
        16   5 -3.459539E+06 -4.946551E+05 -4.019509E+03 -1.308262E+06  7.785150E+03 -1.296085E+04
        16   6 -3.451388E+06 -5.034057E+05 -6.689724E+03 -1.317724E+06  1.045748E+04 -1.397844E+04
        16   7 -3.755457E+06 -6.172134E+05 -8.168977E+04 -1.400699E+06  3.940795E+03 -1.229074E+04
        16   8 -3.800531E+06 -6.227014E+05 -9.215503E+04 -1.401254E+06  6.690586E+03 -1.337241E+04
        16   9 -3.829254E+06 -6.453572E+05 -1.042548E+05 -1.420858E+06  9.410955E+03 -1.437235E+04
        16  10 -3.147114E+06 -3.889044E+05  7.579259E+04 -1.234961E+06  5.234281E-10 -4.689765E-10
        16  11 -3.118434E+06 -3.666015E+05  8.410589E+04 -1.215223E+06  1.384707E-09  1.148212E-09
        16  12 -3.073383E+06 -3.614458E+05  9.086256E+04 -1.214532E+06 -2.649123E-10  3.136895E-10
        16  13 -3.451331E+06 -5.030621E+05 -2.945029E+03 -1.317849E+06  1.501136E-10 -1.538860E-10
        16  14 -3.459539E+06 -4.946553E+05 -4.019938E+03 -1.308262E+06  2.055217E-09  2.420930E-10
        16  15 -3.451388E+06 -5.034059E+05 -6.690296E+03 -1.317724E+06  2.079816E-09  5.138627E-10
        16  16 -3.755457E+06 -6.172135E+05 -8.169008E+04 -1.400699E+06 -4.081088E-09 -1.004316E-10
        16  17 -3.800531E+06 -6.227016E+05 -9.215545E+04 -1.401254E+06 -1.066422E-09 -9.869544E-11
        16  18 -3.829254E+06 -6.453574E+05 -1.042554E+05 -1.420858E+06  1.649702E-09  1.025887E-09
        16  19 -3.147114E+06 -3.889043E+05  7.579291E+04 -1.234961E+06 -6.226891E+03  1.143204E+04
        16  20 -3.118433E+06 -3.666014E+05  8.410634E+04 -1.215223E+06 -8.880377E+03  1.254904E+04
        16  21 -3.073383E+06 -3.614455E+05  9.086316E+04 -1.214533E+06 -1.150471E+04  1.358427E+04
        16  22 -3.451331E+06 -5.030619E+05 -2.944716E+03 -1.317849E+06 -5.083532E+03  1.186151E+04
        16  23 -3.459539E+06 -4.946551E+05 -4.019509E+03 -1.308262E+06 -7.785150E+03  1.296085E+04
        16  24 -3.451388E+06 -5.034057E+05 -6.689724E+03 -1.317724E+06 -1.045748E+04  1.397844E+04
        16  25 -3.755457E+06 -6.172134E+05 -8.168977E+04 -1.400699E+06 -3.940795E+03  1.229074E+04
        16  26 -3.800531E+06 -6.227014E+05 -9.215503E+04 -1.401254E+06 -6.690586E+03  1.337241E+04
        16  27 -3.829254E+06 -6.453572E+05 -1.042548E+05 -1.420858E+06 -9.410955E+03  1.437235E+04
        17   1 -3.035104E+06 -3.463986E+05  9.913826E+04 -1.204298E+06  1.311191E+04 -1.412047E+04
        17   2 -3.010005E+06 -3.261744E+05  1.006127E+05 -1.186358E+06  2.132409E+04 -1.287234E+04
        17   3 -2.973061E+06 -3.251805E+05  9.516636E+04 -1.183957E+06  2.947707E+04 -1.146168E+04
        17   4 -3.452200E+06 -5.024424E+05 -8.650366E+03 -1.317484E+06  1.208718E+04 -1.450648E+04
        17   5 -3.458405E+06 -4.947992E+05 -1.528210E+04 -1.308974E+06  2.039187E+04 -1.322405E+04
        17   6 -3.452786E+06 -5.064083E+05 -2.891192E+04 -1.316003E+06  2.863689E+04 -1.177922E+04
        17   7 -3.869126E+06 -6.584755E+05 -1.164535E+05 -1.430601E+06  1.106321E+04 -1.489220E+04
        17   8 -3.906608E+06 -6.634108E+05 -1.311934E+05 -1.431509E+06  1.946039E+04 -1.357548E+04
        17   9 -3.932284E+06 -6.876201E+05 -1.530089E+05 -1.447956E+06  2.779743E+04 -1.209649E+04
        17  10 -3.035104E+06 -3.463988E+05  9.913756E+04 -1.204298E+06  1.838892E-09  3.691359E-10
        17  11 -3.010005E+06 -3.261747E+05  1.006115E+05 -1.186358E+06 -2.643204E-09 -4.414774E-10
        17  12 -2.973062E+06 -3.251809E+05  9.516448E+04 -1.183956E+06  9.822677E-10 -1.631810E-09
        17  13 -3.452200E+06 -5.024426E+05 -8.651035E+03 -1.317484E+06 -4.571009E-10  6.576061E-10
        17  14 -3.458406E+06 -4.947995E+05 -1.528321E+04 -1.308974E+06 -1.054060E-11 -1.740572E-10
        17  15 -3.452787E+06 -5.064086E+05 -2.891373E+04 -1.316003E+06  3.291839E-09 -1.302174E-09
        17  16 -3.869127E+06 -6.584758E+05 -1.164541E+05 -1.430601E+06  4.714116E-10  5.181136E-10
        17  17 -3.906608E+06 -6.634111E+05 -1.311944E+05 -1.431508E+06  1.748908E-09 -1.214261E-09
        17  18 -3.932284E+06 -6.876205E+05 -1.530107E+05 -1.447956E+06  5.317527E-10 -1.733126E-09
        17  19 -3.035104E+06 -3.463986E+05  9.913826E+04 -1.204298E+06 -1.311191E+04  1.412047E+04
        17  20 -3.010005E+06 -3.261744E+05  1.006127E+05 -1.186358E+06 -2.132409E+04  1.287234E+04
        17  21 -2.973061E+06 -3.251805E+05  9.516636E+04 -1.183957E+06 -2.947707E+04  1.146168E+04
        17  22 -3.452200E+06 -5.024424E+05 -8.650366E+03 -1.317484E+06 -1.208718E+04  1.450648E+04
        17  23 -3.458405E+06 -4.947992E+05 -1.528210E+04 -1.308974E+06 -2.039187E+04  1.322405E+04
        17  24 -3.452786E+06 -5.064083E+05 -2.891192E+04 -1.316003E+06 -2.863689E+04  1.177922E+04
        17  25 -3.869126E+06 -6.584755E+05 -1.164535E+05 -1.430601E+06 -1.106321E+04  1.489220E+04
        17  26 -3.906608E+06 -6.634108E+05 -1.311934E+05 -1.431509E+06 -1.946039E+04  1.357548E+04
        17  27 -3.932284E+06 -6.876201E+05 -1.530089E+05 -1.447956E+06 -2.779743E+04  1.209649E+04
        18   1 -2.938313E+06 -3.122182E+05  9.517088E+04 -1.184099E+06  3.538374E+04 -1.032689E+04
        18   2 -2.917456E+06 -2.853658E+05  7.304662E+04 -1.159646E+06  6.922001E+04  1.020365E+03
        18   3 -2.908698E+06 -3.223546E+05  1.184800E+04 -1.135856E+06  1.026436E+05  1.346875E+04
        18   4 -3.455831E+06 -5.001966E+05 -3.743001E+04 -1.318780E+06  3.429735E+04 -1.073703E+04
        18   5 -3.452960E+06 -4.905925E+05 -6.608695E+04 -1.310037E+06  6.876915E+04  8.483520E+02
        18   6 -3.462335E+06 -5.449883E+05 -1.343506E+05 -1.301954E+06  1.028270E+05  1.353349E+04
        18   7 -3.973090E+06 -6.881632E+05 -1.700533E+05 -1.453362E+06  3.321194E+04 -1.114682E+04
        18   8 -3.988183E+06 -6.957985E+05 -2.052449E+05 -1.460308E+06  6.831870E+04  6.764971E+02
        18   9 -4.015671E+06 -7.675903E+05 -2.805758E+05 -1.467912E+06  1.030102E+05  1.359814E+04
        18  10 -2.938315E+06 -3.122187E+05  9.516832E+04 -1.184099E+06 -2.613100E-10 -1.023201E-09
        18  11 -2.917461E+06 -2.853671E+05  7.303758E+04 -1.159647E+06  6.156084E-10  4.838178E-10
        18  12 -2.908710E+06 -3.223577E+05  1.182776E+04 -1.135857E+06  2.098423E-09  8.537503E-11
        18  13 -3.455833E+06 -5.001971E+05 -3.743245E+04 -1.318780E+06  2.582387E-09 -1.185109E-09
        18  14 -3.452965E+06 -4.905938E+05 -6.609589E+04 -1.310037E+06  4.372706E-09  5.832745E-11
        18  15 -3.462346E+06 -5.449913E+05 -1.343710E+05 -1.301955E+06  7.455888E-10 -6.312425E-10
        18  16 -3.973091E+06 -6.881637E+05 -1.700556E+05 -1.453362E+06  1.021792E-09 -7.292182E-10
        18  17 -3.988188E+06 -6.957997E+05 -2.052538E+05 -1.460308E+06  2.478041E-09  4.489479E-10
        18  18 -4.015682E+06 -7.675934E+05 -2.805962E+05 -1.467913E+06 -7.517726E-10  3.171660E-10
        18  19 -2.938313E+06 -3.122182E+05  9.517088E+04 -1.184099E+06 -3.538374E+04  1.032689E+04
        18  20 -2.917456E+06 -2.853658E+05  7.304662E+04 -1.159646E+06 -6.922001E+04 -1.020365E+03
        18  21 -2.908698E+06 -3.223546E+05  1.184800E+04 -1.135856E+06 -1.026436E+05 -1.346875E+04
        18  22 -3.455831E+06 -5.001966E+05 -3.743001E+04 -1.318780E+06 -3.429735E+04  1.073703E+04
        18  23 -3.452960E+06 -4.905925E+05 -6.608695E+04 -1.310037E+06 -6.876915E+04 -8.483520E+02
        18  24 -3.462335E+06 -5.449883E+05 -1.343506E+05 -1.301954E+06 -1.028270E+05 -1.353349E+04
        18  25 -3.973090E+06 -6.881632E+05 -1.700533E+05 -1.453362E+06 -3.321194E+04  1.114682E+04
        18  26 -3.988183E+06 -6.957985E+05 -2.052449E+05 -1.460308E+06 -6.831870E+04 -6.764971E+02
        18  27 -4.015671E+06 -7.675903E+05 -2.805758E+05 -1.467912E+06 -1.030102E+05 -1.359814E+04
        19   1 -2.845297E+06 -3.092337E+05 -1.459306E+04 -1.234168E+06  1.312405E+05  2.112459E+04
        19   2 -2.839368E+06 -1.720290E+05 -1.242682E+05 -1.103610E+06  2.740898E+05  7.568995E+04
        19   3 -3.058729E+06 -6.113762E+05 -4.966419E+05 -8.341137E+05  4.107953E+05  1.465385E+05
        19   4 -3.484456E+06 -4.806052E+05 -1.664850E+05 -1.338368E+06  1.265676E+05  1.937615E+04
        19   5 -3.406672E+06 -4.395672E+05 -2.812184E+05 -1.314192E+06  2.790912E+05  7.754854E+04
        19   6 -3.556365E+06 -9.773989E+05 -6.665412E+05 -1.150997E+06  4.254836E+05  1.519463E+05
        19   7 -4.123206E+06 -6.519862E+05 -3.184018E+05 -1.442492E+06  1.218999E+05  1.762839E+04
        19   8 -3.973651E+06 -7.070267E+05 -4.381973E+05 -1.524579E+06  2.840874E+05  7.940408E+04
        19   9 -4.053679E+06 -1.343121E+06 -8.364552E+05 -1.467581E+06  4.401590E+05  1.573385E+05
        19  10 -2.845316E+06 -3.092388E+05 -1.462643E+04 -1.234170E+06  2.030062E-09 -2.891405E-10
        19  11 -2.839450E+06 -1.720555E+05 -1.244209E+05 -1.103627E+06 -1.690689E-09  4.462945E-10
        19  12 -3.058917E+06 -6.114449E+05 -4.970013E+05 -8.341623E+05  6.452716E-10 -5.189331E-10
        19  13 -3.484473E+06 -4.806100E+05 -1.665160E+05 -1.338370E+06  2.512569E-09 -3.658712E-10
        19  14 -3.406757E+06 -4.395947E+05 -2.813771E+05 -1.314209E+06  2.187089E-09 -5.377970E-10
        19  15 -3.556567E+06 -9.774728E+05 -6.669273E+05 -1.151049E+06 -2.313380E-09  9.520932E-10
        19  16 -4.123222E+06 -6.519906E+05 -3.184306E+05 -1.442493E+06 -1.411158E-09  5.496210E-11
        19  17 -3.973740E+06 -7.070553E+05 -4.383620E+05 -1.524597E+06  6.788478E-10 -2.256818E-10
        19  18 -4.053895E+06 -1.343200E+06 -8.368688E+05 -1.467637E+06  1.858145E-09 -3.428967E-10
        19  19 -2.845297E+06 -3.092337E+05 -1.459306E+04 -1.234168E+06 -1.312405E+05 -2.112459E+04
        19  20 -2.839368E+06 -1.720290E+05 -1.242682E+05 -1.103610E+06 -2.740898E+05 -7.568995E+04
        19  21 -3.058729E+06 -6.113762E+05 -4.966419E+05 -8.341137E+05 -4.107953E+05 -1.465385E+05
        19  22 -3.484456E+06 -4.806052E+05 -1.664850E+05 -1.338368E+06 -1.265676E+05 -1.937615E+04
        19  23 -3.406672E+06 -4.395672E+05 -2.812184E+05 -1.314192E+06 -2.790912E+05 -7.754854E+04
        19  24 -3.556365E+06 -9.773989E+05 -6.665412E+05 -1.150997E+06 -4.254836E+05 -1.519463E+05
        19  25 -4.123206E+06 -6.519862E+05 -3.184018E+05 -1.442492E+06 -1.218999E+05 -1.762839E+04
        19  26 -3.973651E+06 -7.070267E+05 -4.381973E+05 -1.524579E+06 -2.840874E+05 -7.940408E+04
        19  27 -4.053679E+06 -1.343121E+06 -8.364552E+05 -1.467581E+06 -4.401590E+05 -1.573385E+05
        20   1 -1.038971E+06  3.583131E+04  4.447283E+04  1.363550E+04  3.044519E+04  6.697522E-01
        20   2 -1.044751E+06 -3.380618E+03  1.973380E+04  4.221879E+03  1.986779E+04  1.353262E-01
        20   3 -1.038991E+06 -1.966020E+03  1.204664E+04 -5.191502E+03  9.290525E+03 -7.781364E-02
        20   4 -1.038971E+06  3.583096E+04  4.447278E+04  3.771526E-10  3.044519E+04  6.692225E-10
        20   5 -1.044751E+06 -3.380652E+03  1.973379E+04  7.289996E-09  1.986779E+04  1.424597E-09
        20   6 -1.038991E+06 -1.966071E+03  1.204663E+04  2.166195E-10  9.290525E+03 -2.858143E-10
        20   7 -1.038971E+06  3.583131E+04  4.447283E+04 -1.363550E+04  3.044519E+04 -6.697522E-01
        20   8 -1.044751E+06 -3.380618E+03  1.973380E+04 -4.221879E+03  1.986779E+04 -1.353262E-01
        20   9 -1.038991E+06 -1.966020E+03  1.204664E+04  5.191502E+03  9.290525E+03  7.781364E-02
        20  10 -1.038972E+06  3.583106E+04  4.447109E+04  1.363550E+04  2.373687E-11  1.699195E-10
        20  11 -1.044752E+06 -3.380724E+03  1.973305E+04  4.221879E+03  1.341452E-09  5.026868E-10
        20  12 -1.038991E+06 -1.966043E+03  1.204648E+04 -5.191502E+03  1.284163E-09 -7.387053E-10
        20  13 -1.038972E+06  3.583071E+04  4.447104E+04 -1.675053E-09  1.171262E-09  2.795102E-10
        20  14 -1.044752E+06 -3.380758E+03  1.973305E+04  8.109517E-10 -1.614809E-09  5.296586E-10
        20  15 -1.038991E+06 -1.966094E+03  1.204647E+04 -4.234461E-09 -3.989648E-09 -1.968723E-10
        20  16 -1.038972E+06  3.583106E+04  4.447109E+04 -1.363550E+04 -7.346283E-10  2.515692E-10
        20  17 -1.044752E+06 -3.380724E+03  1.973305E+04 -4.221879E+03 -5.900763E-10  6.671846E-10
        20  18 -1.038991E+06 -1.966043E+03  1.204648E+04  5.191502E+03 -8.059912E-10  2.042075E-10
        20  19 -1.038971E+06  3.583131E+04  4.447283E+04  1.363550E+04 -3.044519E+04 -6.697522E-01
        20  20 -1.044751E+06 -3.380618E+03  1.973380E+04  4.221879E+03 -1.986779E+04 -1.353262E-01
        20  21 -1.038991E+06 -1.966020E+03  1.204664E+04 -5.191502E+03 -9.290525E+03  7.781363E-02
        20  22 -1.038971E+06  3.583096E+04  4.447278E+04  5.725963E-10 -3.044519E+04 -9.481303E-11
        20  23 -1.044751E+06 -3.380652E+03  1.973379E+04 -9.982509E-09 -1.986779E+04 -3.018763E-10
        20  24 -1.038991E+06 -1.966071E+03  1.204663E+04  4.758303E-09 -9.290525E+03 -1.323026E-10
        20  25 -1.038971E+06  3.583131E+04  4.447283E+04 -1.363550E+04 -3.044519E+04  6.697522E-01
        20  26 -1.044751E+06 -3.380618E+03  1.973380E+04 -4.221879E+03 -1.986779E+04  1.353262E-01
        20  27 -1.038991E+06 -1.966020E+03  1.204664E+04  5.191502E+03 -9.290525E+03 -7.781364E-02
        21   1 -1.041284E+06  3.018029E+03  9.741551E+03  9.826139E+02  7.482836E+03  1.186241E-02
        21   2 -1.041888E+06 -3.149682E+02  5.078524E+03  2.469570E+02  4.904115E+03  1.953917E-03
        21   3 -1.041286E+06 -1.684537E+02  2.966417E+03 -4.887115E+02  2.325363E+03 -1.833441E-03
        21   4 -1.041284E+06  3.018027E+03  9.741551E+03 -6.119091E-09  7.482836E+03 -1.140192E-09
        21   5 -1.041888E+06 -3.149683E+02  5.078524E+03  5.369239E-09  4.904115E+03 -5.674090E-10
        21   6 -1.041286E+06 -1.684542E+02  2.966417E+03  2.334015E-09  2.325363E+03  5.579099E-10
        21   7 -1.041284E+06  3.018029E+03  9.741551E+03 -9.826139E+02  7.482836E+03 -1.186242E-02
        21   8 -1.041888E+06 -3.149682E+02  5.078524E+03 -2.469570E+02  4.904115E+03 -1.953918E-03
        21   9 -1.041286E+06 -1.684537E+02  2.966417E+03  4.887115E+02  2.325363E+03  1.833442E-03
        21  10 -1.041284E+06  3.018014E+03  9.741445E+03  9.826139E+02  4.864333E-11 -1.078528E-09
        21  11 -1.041888E+06 -3.149747E+02  5.078479E+03  2.469570E+02  2.290968E-09 -3.458264E-10
        21  12 -1.041286E+06 -1.684552E+02  2.966407E+03 -4.887115E+02 -1.549799E-09  2.119402E-10
        21  13 -1.041284E+06  3.018012E+03  9.741445E+03 -6.111729E-09 -5.160532E-09 -6.292017E-10
        21  14 -1.041888E+06 -3.149748E+02  5.078479E+03 -7.496451E-09 -1.991768E-09 -3.890944E-10
        21  15 -1.041286E+06 -1.684556E+02  2.966407E+03  8.222154E-10 -5.315149E-10  4.102511E-10
        21  16 -1.041284E+06  3.018014E+03  9.741445E+03 -9.826139E+02 -3.183035E-11 -2.324321E-10
        21  17 -1.041888E+06 -3.149747E+02  5.078479E+03 -2.469570E+02 -7.939837E-10 -5.026023E-10
        21  18 -1.041286E+06 -1.684552E+02  2.966407E+03  4.887115E+02  4.682409E-10  6.673493E-10
        21  19 -1.041284E+06  3.018029E+03  9.741551E+03  9.826139E+02 -7.482836E+03 -1.186242E-02
        21  20 -1.041888E+06 -3.149682E+02  5.078524E+03  2.469570E+02 -4.904115E+03 -1.953918E-03
        21  21 -1.041286E+06 -1.684537E+02  2.966417E+03 -4.887115E+02 -2.325363E+03  1.833442E-03
        21  22 -1.041284E+06  3.018027E+03  9.741551E+03 -6.102270E-09 -7.482836E+03 -1.200796E-10
        21  23 -1.041888E+06 -3.149683E+02  5.078524E+03 -1.174053E-08 -4.904115E+03 -2.484142E-10
        21  24 -1.041286E+06 -1.684542E+02  2.966417E+03 -6.071137E-09 -2.325363E+03  2.784245E-10
        21  25 -1.041284E+06  3.018029E+03  9.741551E+03 -9.826139E+02 -7.482836E+03  1.186242E-02
        21  26 -1.041888E+06 -3.149682E+02  5.078524E+03 -2.469570E+02 -4.904115E+03  1.953917E-03
        21  27 -1.041286E+06 -1.684537E+02  2.966417E+03  4.887115E+02 -2.325363E+03 -1.833442E-03
        22   1 -1.041520E+06  2.450980E+02  2.291529E+03  3.748629E+01  1.863020E+03  1.126725E-04
        22   2 -1.041598E+06 -3.299485E+01  1.249429E+03 -8.285803E+00  1.240089E+03 -1.657654E-05
        22   3 -1.041520E+06 -1.420281E+01  6.876185E+02 -5.405792E+01  6.171582E+02 -5.382650E-05
        22   4 -1.041520E+06  2.450980E+02  2.291529E+03 -1.180644E-08  1.863020E+03  1.233667E-09
        22   5 -1.041598E+06 -3.299485E+01  1.249429E+03 -4.495995E-09  1.240089E+03  6.095682E-10
        22   6 -1.041520E+06 -1.420282E+01  6.876185E+02  3.698036E-08  6.171582E+02 -2.345700E-09
        22   7 -1.041520E+06  2.450980E+02  2.291529E+03 -3.748629E+01  1.863020E+03 -1.126701E-04
        22   8 -1.041598E+06 -3.299485E+01  1.249429E+03  8.285803E+00  1.240089E+03  1.657738E-05
        22   9 -1.041520E+06 -1.420281E+01  6.876185E+02  5.405792E+01  6.171582E+02  5.382201E-05
        22  10 -1.041520E+06  2.450971E+02  2.291522E+03  3.748629E+01 -7.807352E-10  7.853722E-10
        22  11 -1.041598E+06 -3.299526E+01  1.249426E+03 -8.285803E+00 -4.462754E-09  5.747975E-10
        22  12 -1.041520E+06 -1.420291E+01  6.876178E+02 -5.405792E+01 -4.807478E-09 -1.612329E-09
        22  13 -1.041520E+06  2.450971E+02  2.291522E+03 -7.393775E-09 -3.229572E-09  8.983018E-10
        22  14 -1.041598E+06 -3.299526E+01  1.249426E+03  7.265986E-10 -3.485370E-09  4.522044E-10
        22  15 -1.041520E+06 -1.420292E+01  6.876178E+02  9.923498E-09 -4.430690E-09 -1.549776E-09
        22  16 -1.041520E+06  2.450971E+02  2.291522E+03 -3.748629E+01 -2.003889E-09  1.010152E-09
        22  17 -1.041598E+06 -3.299526E+01  1.249426E+03  8.285803E+00 -3.816011E-10  3.452295E-10
        22  18 -1.041520E+06 -1.420291E+01  6.876178E+02  5.405792E+01  1.720101E-09 -1.513152E-09
        22  19 -1.041520E+06  2.450980E+02  2.291529E+03  3.748629E+01 -1.863020E+03 -1.126707E-04
        22  20 -1.041598E+06 -3.299485E+01  1.249429E+03 -8.285803E+00 -1.240089E+03  1.657778E-05
        22  21 -1.041520E+06 -1.420281E+01  6.876185E+02 -5.405792E+01 -6.171582E+02  5.382368E-05
        22  22 -1.041520E+06  2.450980E+02  2.291529E+03  5.627906E-09 -1.863020E+03  6.235282E-10
        22  23 -1.041598E+06 -3.299485E+01  1.249429E+03 -1.988733E-08 -1.240089E+03  2.856723E-10
        22  24 -1.041520E+06 -1.420282E+01  6.876185E+02 -2.844420E-08 -6.171582E+02 -7.581625E-10
        22  25 -1.041520E+06  2.450980E+02  2.291529E+03 -3.748629E+01 -1.863020E+03  1.126721E-04
        22  26 -1.041598E+06 -3.299485E+01  1.249429E+03  8.285803E+00 -1.240089E+03 -1.657708E-05
        22  27 -1.041520E+06 -1.420281E+01  6.876185E+02  5.405792E+01 -6.171582E+02 -5.382520E-05
        23   1 -1.041551E+06  1.775021E+01  4.963366E+02 -1.014681E+01  5.110254E+02 -8.367505E-06
        23   2 -1.041560E+06 -3.270295E+00  2.018021E+02 -1.128559E+01  4.109450E+02 -7.481388E-06
        23   3 -1.041551E+06 -2.202213E+00 -2.197441E+01 -1.242435E+01  3.108661E+02 -6.230804E-06
        23   4 -1.041551E+06  1.775021E+01  4.963366E+02 -1.478214E-08  5.110254E+02 -2.260256E-09
        23   5 -1.041560E+06 -3.270295E+00  2.018021E+02 -1.143295E-08  4.109450E+02  4.946795E-10
        23   6 -1.041551E+06 -2.202213E+00 -2.197441E+01  6.451385E-09  3.108661E+02  2.024866E-10
        23   7 -1.041551E+06  1.775021E+01  4.963366E+02  1.014681E+01  5.110254E+02  8.363122E-06
        23   8 -1.041560E+06 -3.270295E+00  2.018021E+02  1.128559E+01  4.109450E+02  7.481958E-06
        23   9 -1.041551E+06 -2.202213E+00 -2.197441E+01  1.242435E+01  3.108661E+02  6.231245E-06
        23  10 -1.041551E+06  1.775014E+01  4.963361E+02 -1.014681E+01  4.957520E-09 -1.794968E-09
        23  11 -1.041560E+06 -3.270340E+00  2.018017E+02 -1.128559E+01  3.763479E-09  6.143816E-11
        23  12 -1.041551E+06 -2.202239E+00 -2.197459E+01 -1.242435E+01 -4.060500E-10  4.190439E-10
        23  13 -1.041551E+06  1.775014E+01  4.963361E+02  1.139272E-08 -4.527983E-09 -1.760901E-09
        23  14 -1.041560E+06 -3.270340E+00  2.018017E+02 -8.054932E-09 -3.041304E-09 -1.831280E-10
        23  15 -1.041551E+06 -2.202239E+00 -2.197459E+01  5.861190E-09 -2.660966E-09  4.633140E-10
        23  16 -1.041551E+06  1.775014E+01  4.963361E+02  1.014681E+01 -5.345347E-09 -1.777078E-09
        23  17 -1.041560E+06 -3.270340E+00  2.018017E+02  1.128559E+01 -4.920869E-09 -4.991751E-10
        23  18 -1.041551E+06 -2.202239E+00 -2.197459E+01  1.242435E+01 -3.314115E-10  5.658998E-10
        23  19 -1.041551E+06  1.775021E+01  4.963366E+02 -1.014681E+01 -5.110254E+02  8.364105E-06
        23  20 -1.041560E+06 -3.270295E+00  2.018021E+02 -1.128559E+01 -4.109450E+02  7.481642E-06
        23  21 -1.041551E+06 -2.202213E+00 -2.197441E+01 -1.242435E+01 -3.108661E+02  6.231752E-06
        23  22 -1.041551E+06  1.775021E+01  4.963366E+02  2.250469E-08 -5.110254E+02 -1.327581E-09
        23  23 -1.041560E+06 -3.270295E+00  2.018021E+02 -1.759623E-08 -4.109450E+02 -8.911487E-10
        23  24 -1.041551E+06 -2.202213E+00 -2.197441E+01 -1.032387E-08 -3.108661E+02  7.388693E-10
        23  25 -1.041551E+06  1.775021E+01  4.963366E+02  1.014681E+01 -5.110254E+02 -8.366957E-06
        23  26 -1.041560E+06 -3.270295E+00  2.018021E+02  1.128559E+01 -4.109450E+02 -7.483501E-06
        23  27 -1.041551E+06 -2.202213E+00 -2.197441E+01  1.242435E+01 -3.108661E+02 -6.230537E-06
        24   1 -1.041563E+06  2.476785E+00 -1.313300E+02 -1.413125E+01  3.247178E+02 -7.403225E-06
        24   2 -1.041546E+06  5.722838E+00 -3.911192E+02 -1.380367E+01  5.185264E+02 -1.154694E-05
        24   3 -1.041563E+06 -2.607027E+01 -7.860025E+02 -1.347608E+01  7.123378E+02 -1.548649E-05
        24   4 -1.041563E+06  2.476785E+00 -1.313300E+02  2.928728E-10  3.247178E+02 -1.111476E-10
        24   5 -1.041546E+06  5.722838E+00 -3.911192E+02  3.361817E-09  5.185264E+02  4.374279E-10
        24   6 -1.041563E+06 -2.607027E+01 -7.860025E+02 -9.187221E-09  7.123378E+02  4.034471E-10
        24   7 -1.041563E+06  2.476785E+00 -1.313300E+02  1.413125E+01  3.247178E+02  7.403088E-06
        24   8 -1.041546E+06  5.722838E+00 -3.911192E+02  1.380367E+01  5.185264E+02  1.154780E-05
        24   9 -1.041563E+06 -2.607027E+01 -7.860025E+02  1.347608E+01  7.123378E+02  1.548727E-05
        24  10 -1.041563E+06  2.476757E+00 -1.313302E+02 -1.413125E+01 -9.984191E-10  4.247224E-10
        24  11 -1.041546E+06  5.722766E+00 -3.911197E+02 -1.380367E+01  1.689191E-09  3.502018E-10
        24  12 -1.041563E+06 -2.607040E+01 -7.860035E+02 -1.347608E+01  1.425426E-09 -4.155094E-11
        24  13 -1.041563E+06  2.476756E+00 -1.313302E+02  1.108437E-08  2.119417E-09  5.332746E-10
        24  14 -1.041546E+06  5.722766E+00 -3.911197E+02  5.472828E-09 -8.374342E-10  3.836524E-10
        24  15 -1.041563E+06 -2.607040E+01 -7.860035E+02  6.322525E-09 -1.480318E-09 -1.884994E-10
        24  16 -1.041563E+06  2.476757E+00 -1.313302E+02  1.413125E+01  6.862271E-10  7.094031E-10
        24  17 -1.041546E+06  5.722766E+00 -3.911197E+02  1.380367E+01 -6.935597E-10  3.643374E-10
        24  18 -1.041563E+06 -2.607040E+01 -7.860035E+02  1.347608E+01 -2.398424E-09 -2.987965E-10
        24  19 -1.041563E+06  2.476785E+00 -1.313300E+02 -1.413125E+01 -3.247178E+02  7.404115E-06
        24  20 -1.041546E+06  5.722838E+00 -3.911192E+02 -1.380367E+01 -5.185264E+02  1.154804E-05
        24  21 -1.041563E+06 -2.607027E+01 -7.860025E+02 -1.347608E+01 -7.123378E+02  1.548674E-05
        24  22 -1.041563E+06  2.476785E+00 -1.313300E+02  6.792989E-09 -3.247178E+02  1.176668E-09
        24  23 -1.041546E+06  5.722838E+00 -3.911192E+02  1.189728E-08 -5.185264E+02  3.541520E-10
        24  24 -1.041563E+06 -2.607027E+01 -7.860025E+02 -1.421967E-08 -7.123378E+02 -7.667643E-10
        24  25 -1.041563E+06  2.476785E+00 -1.313300E+02  1.413125E+01 -3.247178E+02 -7.401622E-06
        24  26 -1.041546E+06  5.722838E+00 -3.911192E+02  1.380367E+01 -5.185264E+02 -1.154731E-05
        24  27 -1.041563E+06 -2.607027E+01 -7.860025E+02  1.347608E+01 -7.123378E+02 -1.548809E-05
        25   1 -1.041607E+06  2.114484E+01 -1.055292E+03 -7.857895E+01  8.774831E+02 -1.112416E-04
        25   2 -1.041491E+06  4.888355E+01 -1.866963E+03 -1.146737E+01  1.808198E+03 -3.345289E-05
        25   3 -1.041607E+06 -3.616923E+02 -3.394908E+03  5.564425E+01  2.738912E+03  2.458793E-04
        25   4 -1.041607E+06  2.114483E+01 -1.055292E+03  7.291242E-09  8.774831E+02  1.234914E-10
        25   5 -1.041491E+06  4.888355E+01 -1.866963E+03  8.390455E-09  1.808198E+03 -2.395426E-11
        25   6 -1.041607E+06 -3.616923E+02 -3.394908E+03  3.576144E-09  2.738912E+03  5.731609E-10
        25   7 -1.041607E+06  2.114484E+01 -1.055292E+03  7.857895E+01  8.774831E+02  1.112419E-04
        25   8 -1.041491E+06  4.888355E+01 -1.866963E+03  1.146737E+01  1.808198E+03  3.345258E-05
        25   9 -1.041607E+06 -3.616923E+02 -3.394908E+03 -5.564425E+01  2.738912E+03 -2.458784E-04
        25  10 -1.041607E+06  2.114463E+01 -1.055293E+03 -7.857895E+01  5.454682E-10 -8.806128E-11
        25  11 -1.041491E+06  4.888267E+01 -1.866970E+03 -1.146737E+01  1.922851E-09  2.342658E-10
        25  12 -1.041607E+06 -3.616943E+02 -3.394922E+03  5.564425E+01 -4.665281E-10 -1.773444E-10
        25  13 -1.041607E+06  2.114462E+01 -1.055293E+03  5.193892E-09  2.218052E-10 -2.796581E-10
        25  14 -1.041491E+06  4.888267E+01 -1.866970E+03 -1.912549E-10 -7.264382E-10  1.447295E-10
        25  15 -1.041607E+06 -3.616943E+02 -3.394922E+03 -1.849259E-08  5.352280E-10  3.046602E-10
        25  16 -1.041607E+06  2.114463E+01 -1.055293E+03  7.857895E+01 -1.981780E-11 -5.035303E-10
        25  17 -1.041491E+06  4.888267E+01 -1.866970E+03  1.146737E+01  1.418140E-09 -1.362408E-12
        25  18 -1.041607E+06 -3.616943E+02 -3.394922E+03 -5.564425E+01 -3.995267E-10  8.850981E-10
        25  19 -1.041607E+06  2.114484E+01 -1.055292E+03 -7.857895E+01 -8.774831E+02  1.112417E-04
        25  20 -1.041491E+06  4.888355E+01 -1.866963E+03 -1.146737E+01 -1.808198E+03  3.345351E-05
        25  21 -1.041607E+06 -3.616923E+02 -3.394908E+03  5.564425E+01 -2.738912E+03 -2.458799E-04
        25  22 -1.041607E+06  2.114483E+01 -1.055292E+03 -1.200091E-09 -8.774831E+02 -6.389613E-10
        25  23 -1.041491E+06  4.888355E+01 -1.866963E+03 -1.586789E-10 -1.808198E+03  3.148341E-10
        25  24 -1.041607E+06 -3.616923E+02 -3.394908E+03  3.580346E-09 -2.738912E+03  3.869528E-11
        25  25 -1.041607E+06  2.114484E+01 -1.055292E+03  7.857895E+01 -8.774831E+02 -1.112430E-04
        25  26 -1.041491E+06  4.888355E+01 -1.866963E+03  1.146737E+01 -1.808198E+03 -3.345274E-05
        25  27 -1.041607E+06 -3.616923E+02 -3.394908E+03 -5.564425E+01 -2.738912E+03  2.458798E-04
        26   1 -1.041951E+06  2.486815E+02 -4.387596E+03 -7.209064E+02  3.423305E+03 -3.981516E-03
        26   2 -1.041063E+06  4.648707E+02 -7.500005E+03  3.646487E+02  7.231667E+03  4.254381E-03
        26   3 -1.041955E+06 -4.453853E+03 -1.437860E+04  1.450189E+03  1.103996E+04  2.582948E-02
        26   4 -1.041951E+06  2.486806E+02 -4.387596E+03 -2.556573E-09  3.423305E+03  6.831095E-10
        26   5 -1.041063E+06  4.648705E+02 -7.500005E+03 -5.265239E-09  7.231667E+03  9.068674E-12
        26   6 -1.041955E+06 -4.453857E+03 -1.437860E+04 -8.248264E-09  1.103996E+04 -4.619529E-10
        26   7 -1.041951E+06  2.486815E+02 -4.387596E+03  7.209064E+02  3.423305E+03  3.981517E-03
        26   8 -1.041063E+06  4.648707E+02 -7.500005E+03 -3.646487E+02  7.231667E+03 -4.254381E-03
        26   9 -1.041955E+06 -4.453853E+03 -1.437860E+04 -1.450189E+03  1.103996E+04 -2.582948E-02
        26  10 -1.041951E+06  2.486784E+02 -4.387618E+03 -7.209064E+02  5.717668E-10 -8.812997E-11
        26  11 -1.041063E+06  4.648566E+02 -7.500103E+03  3.646487E+02  1.099894E-09  8.519332E-11
        26  12 -1.041956E+06 -4.453885E+03 -1.437883E+04  1.450189E+03 -1.082600E-09 -4.846984E-10
        26  13 -1.041951E+06  2.486774E+02 -4.387618E+03  8.208666E-09 -1.093332E-09  3.498682E-10
        26  14 -1.041063E+06  4.648564E+02 -7.500103E+03 -1.010627E-09 -7.006943E-10  1.419587E-10
        26  15 -1.041956E+06 -4.453889E+03 -1.437883E+04 -1.454021E-08 -4.030210E-11 -6.070061E-10
        26  16 -1.041951E+06  2.486784E+02 -4.387618E+03  7.209064E+02 -1.101619E-09  8.216761E-10
        26  17 -1.041063E+06  4.648566E+02 -7.500103E+03 -3.646487E+02  7.242940E-10  1.649536E-10
        26  18 -1.041956E+06 -4.453885E+03 -1.437883E+04 -1.450189E+03 -7.406883E-10 -6.809372E-10
        26  19 -1.041951E+06  2.486815E+02 -4.387596E+03 -7.209064E+02 -3.423305E+03  3.981516E-03
        26  20 -1.041063E+06  4.648707E+02 -7.500005E+03  3.646487E+02 -7.231667E+03 -4.254380E-03
        26  21 -1.041955E+06 -4.453853E+03 -1.437860E+04  1.450189E+03 -1.103996E+04 -2.582948E-02
        26  22 -1.041951E+06  2.486806E+02 -4.387596E+03  6.076635E-09 -3.423305E+03  5.924701E-13
        26  23 -1.041063E+06  4.648705E+02 -7.500005E+03  3.240832E-09 -7.231667E+03  2.805022E-10
        26  24 -1.041955E+06 -4.453857E+03 -1.437860E+04  1.576232E-08 -1.103996E+04 -7.853927E-10
        26  25 -1.041951E+06  2.486815E+02 -4.387596E+03  7.209064E+02 -3.423305E+03 -3.981516E-03
        26  26 -1.041063E+06  4.648707E+02 -7.500005E+03 -3.646487E+02 -7.231667E+03  4.254381E-03
        26  27 -1.041955E+06 -4.453853E+03 -1.437860E+04 -1.450189E+03 -1.103996E+04  2.582948E-02
        27   1 -1.045338E+06  2.901633E+03 -1.777902E+04 -7.661289E+03  1.370782E+04 -1.694323E-01
        27   2 -1.036837E+06  4.989089E+03 -2.911958E+04  6.230710E+03  2.931799E+04  2.947079E-01
        27   3 -1.045366E+06 -5.287602E+04 -6.562295E+04  2.012270E+04  4.492846E+04  1.458581E+00
        27   4 -1.045338E+06  2.901523E+03 -1.777903E+04 -1.188629E-08  1.370782E+04 -5.277636E-10
        27   5 -1.036837E+06  4.989016E+03 -2.911959E+04  1.087641E-09  2.931799E+04 -3.134156E-10
        27   6 -1.045367E+06 -5.287678E+04 -6.562306E+04  6.525647E-09  4.492846E+04 -1.621482E-10
        27   7 -1.045338E+06  2.901633E+03 -1.777902E+04  7.661289E+03  1.370782E+04  1.694323E-01
        27   8 -1.036837E+06  4.989089E+03 -2.911958E+04 -6.230710E+03  2.931799E+04 -2.947079E-01
        27   9 -1.045366E+06 -5.287602E+04 -6.562295E+04 -2.012270E+04  4.492846E+04 -1.458581E+00
        27  10 -1.045338E+06  2.901582E+03 -1.777937E+04 -7.661289E+03 -3.651208E-09 -3.699772E-10
        27  11 -1.036838E+06  4.988858E+03 -2.912119E+04  6.230710E+03 -4.078438E-10  3.602011E-10
        27  12 -1.045368E+06 -5.287656E+04 -6.562675E+04  2.012270E+04 -1.148509E-12  1.507846E-10
        27  13 -1.045338E+06  2.901472E+03 -1.777939E+04 -5.270526E-09 -3.585747E-09 -5.238000E-10
        27  14 -1.036838E+06  4.988785E+03 -2.912121E+04 -1.178986E-08 -1.636071E-09  3.252791E-10
        27  15 -1.045369E+06 -5.287732E+04 -6.562686E+04 -4.309786E-09 -2.240903E-09  2.135309E-10
        27  16 -1.045338E+06  2.901582E+03 -1.777937E+04  7.661289E+03  1.124846E-10 -5.578532E-10
        27  17 -1.036838E+06  4.988858E+03 -2.912119E+04 -6.230710E+03 -1.791780E-09  1.776749E-10
        27  18 -1.045368E+06 -5.287656E+04 -6.562675E+04 -2.012270E+04 -9.596430E-11  1.919570E-10
        27  19 -1.045338E+06  2.901633E+03 -1.777902E+04 -7.661289E+03 -1.370782E+04  1.694323E-01
        27  20 -1.036837E+06  4.989089E+03 -2.911958E+04  6.230710E+03 -2.931799E+04 -2.947079E-01
        27  21 -1.045366E+06 -5.287602E+04 -6.562295E+04  2.012270E+04 -4.492846E+04 -1.458581E+00
        27  22 -1.045338E+06  2.901523E+03 -1.777903E+04 -7.276461E-09 -1.370782E+04 -5.411487E-10
        27  23 -1.036837E+06  4.989016E+03 -2.911959E+04  1.167492E-09 -2.931799E+04  9.722221E-10
        27  24 -1.045367E+06 -5.287678E+04 -6.562306E+04  1.068978E-08 -4.492846E+04  5.989372E-10
        27  25 -1.045338E+06  2.901633E+03 -1.777902E+04  7.661289E+03 -1.370782E+04 -1.694323E-01
        27  26 -1.036837E+06  4.989089E+03 -2.911958E+04 -6.230710E+03 -2.931799E+04  2.947079E-01
        27  27 -1.045366E+06 -5.287602E+04 -6.562295E+04 -2.012270E+04 -4.492846E+04  1.458581E+00
        28   1  5.792066E+05  1.717196E+06  6.541093E+05 -1.561314E+05  1.190562E+04  2.913419E+05
        28   2  2.102139E+05  1.604001E+06  4.115008E+05 -5.474143E+04  3.701772E+04  1.769908E+05
        28   3  2.100789E+05  1.598404E+06  3.355583E+05  1.302635E+04  3.715627E+04  6.264524E+04
        28   4  3.210856E+05  6.794181E+05  4.001041E+05 -3.294430E+04  1.196930E+04  2.666830E+05
        28   5 -3.064957E+04  6.270189E+05  1.832431E+05 -1.621146E+04  3.703782E+04  1.686797E+05
        28   6 -1.607467E+04  6.795347E+05  1.218837E+05 -3.308858E+04  3.714643E+04  7.066774E+04
        28   7  6.294218E+04 -3.573474E+05  1.460304E+05  9.003700E+04  1.202330E+04  2.420649E+05
        28   8 -2.715751E+05 -3.490821E+05 -4.507839E+04  2.225775E+04  3.705690E+04  1.603814E+05
        28   9 -2.422796E+05 -2.385529E+05 -9.184641E+04 -7.913470E+04  3.713539E+04  7.867842E+04
        28  10  5.791837E+05  1.717105E+06  6.539500E+05 -1.561342E+05  8.744391E-10  2.864800E-10
        28  11  2.102040E+05  1.603967E+06  4.114395E+05 -5.474670E+04 -1.005769E-09  1.939749E-09
        28  12  2.100764E+05  1.598400E+06  3.355484E+05  1.302448E+04 -3.281455E-09  1.782265E-09
        28  13  3.210664E+05  6.793418E+05  3.999703E+05 -3.294687E+04  8.628686E-10 -7.376246E-11
        28  14 -3.065867E+04  6.269880E+05  1.831871E+05 -1.621649E+04  2.748216E-10 -1.234021E-10
        28  15 -1.607749E+04  6.795290E+05  1.218717E+05 -3.309069E+04  2.424972E-10 -9.694021E-11
        28  16  6.292628E+04 -3.574103E+05  1.459200E+05  9.003466E+04 -1.840505E-09 -2.587517E-10
        28  17 -2.715835E+05 -3.491101E+05 -4.512933E+04  2.225297E+04 -7.486245E-10 -1.732106E-09
        28  18 -2.422828E+05 -2.385599E+05 -9.186064E+04 -7.913706E+04 -9.269500E-10 -1.684739E-09
        28  19  5.792066E+05  1.717196E+06  6.541093E+05 -1.561314E+05 -1.190562E+04 -2.913419E+05
        28  20  2.102139E+05  1.604001E+06  4.115008E+05 -5.474143E+04 -3.701772E+04 -1.769908E+05
        28  21  2.100789E+05  1.598404E+06  3.355583E+05  1.302635E+04 -3.715627E+04 -6.264524E+04
        28  22  3.210856E+05  6.794181E+05  4.001041E+05 -3.294430E+04 -1.196930E+04 -2.666830E+05
        28  23 -3.064957E+04  6.270189E+05  1.832431E+05 -1.621146E+04 -3.703782E+04 -1.686797E+05
        28  24 -1.607467E+04  6.795347E+05  1.218837E+05 -3.308858E+04 -3.714643E+04 -7.066774E+04
        28  25  6.294218E+04 -3.573474E+05  1.460304E+05  9.003700E+04 -1.202330E+04 -2.420649E+05
        28  26 -2.715751E+05 -3.490821E+05 -4.507839E+04  2.225775E+04 -3.705690E+04 -1.603814E+05
        28  27 -2.422796E+05 -2.385529E+05 -9.184641E+04 -7.913470E+04 -3.713539E+04 -7.867842E+04
        29   1  2.372710E+05  1.517892E+06  3.061491E+05 -4.588074E+04  3.250170E+04  5.149239E+04
        29   2  1.920918E+05  1.450685E+06  2.643657E+05 -1.786987E+04  3.132918E+04  1.053034E+04
        29   3  2.012912E+05  1.402686E+06  2.628697E+05 -2.327404E+04  2.812766E+04 -3.043445E+04
        29   4  2.588613E+04  6.604457E+05  1.057991E+05 -3.297480E+04  3.250562E+04  5.158357E+04
        29   5 -4.957701E+03  6.509630E+05  7.790727E+04 -1.626912E+04  3.132945E+04  1.198543E+04
        29   6  1.837976E+04  6.604718E+05  8.939277E+04 -3.298009E+04  2.812457E+04 -2.761917E+04
        29   7 -1.855502E+05 -1.963235E+05 -9.460080E+04 -2.008652E+04  3.250956E+04  5.167459E+04
        29   8 -2.020524E+05 -1.481704E+05 -1.085944E+05 -1.467018E+04  3.132974E+04  1.343866E+04
        29   9 -1.645703E+05 -8.123503E+04 -8.412152E+04 -4.267421E+04  2.812139E+04 -2.480722E+04
        29  10  2.372691E+05  1.517888E+06  3.061421E+05 -4.588208E+04 -1.797684E-09 -1.225516E-08
        29  11  1.920907E+05  1.450685E+06  2.643636E+05 -1.787014E+04  2.958210E-09 -3.783483E-09
        29  12  2.012901E+05  1.402684E+06  2.628665E+05 -2.327335E+04 -9.882390E-11  8.464931E-09
        29  13  2.588428E+04  6.604426E+05  1.057921E+05 -3.297615E+04 -1.130402E-09 -6.880931E-10
        29  14 -4.958794E+03  6.509625E+05  7.790516E+04 -1.626942E+04  1.164579E-09 -4.615888E-10
        29  15  1.837870E+04  6.604708E+05  8.938985E+04 -3.297947E+04  1.618353E-10 -2.931217E-10
        29  16 -1.855520E+05 -1.963267E+05 -9.460781E+04 -2.008787E+04 -2.887317E-09  1.224620E-08
        29  17 -2.020535E+05 -1.481709E+05 -1.085966E+05 -1.467052E+04  7.677871E-10  4.281957E-09
        29  18 -1.645713E+05 -8.123590E+04 -8.412417E+04 -4.267365E+04 -1.272978E-09 -8.350873E-09
        29  19  2.372710E+05  1.517892E+06  3.061491E+05 -4.588074E+04 -3.250170E+04 -5.149239E+04
        29  20  1.920918E+05  1.450685E+06  2.643657E+05 -1.786987E+04 -3.132918E+04 -1.053034E+04
        29  21  2.012912E+05  1.402686E+06  2.628697E+05 -2.327404E+04 -2.812766E+04  3.043445E+04
        29  22  2.588613E+04  6.604457E+05  1.057991E+05 -3.297480E+04 -3.250562E+04 -5.158357E+04
        29  23 -4.957701E+03  6.509630E+05  7.790727E+04 -1.626912E+04 -3.132945E+04 -1.198543E+04
        29  24  1.837976E+04  6.604718E+05  8.939277E+04 -3.298009E+04 -2.812457E+04  2.761917E+04
        29  25 -1.855502E+05 -1.963235E+05 -9.460080E+04 -2.008652E+04 -3.250956E+04 -5.167459E+04
        29  26 -2.020524E+05 -1.481704E+05 -1.085944E+05 -1.467018E+04 -3.132974E+04 -1.343866E+04
        29  27 -1.645703E+05 -8.123503E+04 -8.412152E+04 -4.267421E+04 -2.812139E+04  2.480722E+04
        30   1  1.576259E+05  1.356062E+06  2.568956E+05 -6.865408E+04  2.805211E+04 -4.189993E+04
        30   2  1.316955E+05  1.260930E+06  2.845825E+05  1.040349E+04  2.428435E+04 -1.240915E+05
        30   3  3.768699E+05  1.244293E+06  4.335049E+05  5.687571E+04  7.820648E+03 -2.063139E+05
        30   4 -1.067965E+04  6.734234E+05  9.819585E+04 -3.299298E+04  2.805537E+04 -4.342149E+04
        30   5 -2.246062E+04  6.348452E+05  1.383861E+05 -1.637050E+04  2.427417E+04 -1.173177E+05
        30   6  2.355517E+05  6.733754E+05  2.941269E+05 -3.233345E+04  7.807779E+03 -1.912505E+05
        30   7 -1.790134E+05 -8.783778E+03 -6.053466E+04  2.628944E+03  2.805846E+04 -4.494136E+04
        30   8 -1.766417E+05  9.123145E+03 -7.836314E+03 -4.311713E+04  2.426342E+04 -1.105507E+05
        30   9  9.423994E+04  1.027728E+05  1.547303E+05 -1.214603E+05  7.790592E+03 -1.762009E+05
        30  10  1.576245E+05  1.356060E+06  2.568909E+05 -6.865313E+04 -1.401138E-09  4.401281E-09
        30  11  1.316908E+05  1.260913E+06  2.845525E+05  1.040591E+04  3.741529E-09  3.416988E-10
        30  12  3.768584E+05  1.244247E+06  4.334249E+05  5.687701E+04  1.406488E-10 -7.592003E-10
        30  13 -1.068100E+04  6.734212E+05  9.819084E+04 -3.299200E+04  1.471492E-10 -1.270087E-09
        30  14 -2.246495E+04  6.348303E+05  1.383592E+05 -1.636821E+04  3.320839E-09 -6.688523E-10
        30  15  2.355419E+05  6.733362E+05  2.940581E+05 -3.233225E+04  2.198132E-09 -3.429938E-10
        30  16 -1.790148E+05 -8.786159E+03 -6.053994E+04  2.629960E+03  1.118816E-09 -4.471147E-09
        30  17 -1.766456E+05  9.109865E+03 -7.860384E+03 -4.311497E+04 -2.405302E-09  5.044951E-10
        30  18  9.423154E+04  1.027394E+05  1.546719E+05 -1.214592E+05  5.262648E-10  9.375867E-10
        30  19  1.576259E+05  1.356062E+06  2.568956E+05 -6.865408E+04 -2.805211E+04  4.189993E+04
        30  20  1.316955E+05  1.260930E+06  2.845825E+05  1.040349E+04 -2.428435E+04  1.240915E+05
        30  21  3.768699E+05  1.244293E+06  4.335049E+05  5.687571E+04 -7.820648E+03  2.063139E+05
        30  22 -1.067965E+04  6.734234E+05  9.819585E+04 -3.299298E+04 -2.805537E+04  4.342149E+04
        30  23 -2.246062E+04  6.348452E+05  1.383861E+05 -1.637050E+04 -2.427417E+04  1.173177E+05
        30  24  2.355517E+05  6.733754E+05  2.941269E+05 -3.233345E+04 -7.807779E+03  1.912505E+05
        30  25 -1.790134E+05 -8.783778E+03 -6.053466E+04  2.628944E+03 -2.805846E+04  4.494136E+04
        30  26 -1.766417E+05  9.123145E+03 -7.836314E+03 -4.311713E+04 -2.426342E+04  1.105507E+05
        30  27  9.423994E+04  1.027728E+05  1.547303E+05 -1.214603E+05 -7.790592E+03  1.762009E+05
        31   1 -1.697698E+06 -3.801622E+05 -1.479931E+05 -6.340125E+05 -7.786115E+04 -2.773066E+04
        31   2 -1.672922E+06 -2.591985E+05 -7.389712E+04 -6.364518E+05 -4.986791E+04 -1.444292E+04
        31   3 -1.682402E+06 -2.474293E+05 -4.914223E+04 -6.216290E+05 -2.074013E+04 -4.179680E+03
        31   4 -1.609726E+06 -3.158550E+05 -1.180384E+05 -5.780277E+05 -7.546947E+04 -2.683878E+04
        31   5 -1.586550E+06 -2.173929E+05 -4.983056E+04 -6.031573E+05 -4.930480E+04 -1.423278E+04
        31   6 -1.597262E+06 -2.277547E+05 -2.950688E+04 -6.110269E+05 -2.200562E+04 -4.653582E+03
        31   7 -1.521745E+06 -2.515393E+05 -8.808448E+04 -5.220343E+05 -7.307746E+04 -2.594646E+04
        31   8 -1.500171E+06 -1.755855E+05 -2.576484E+04 -5.698583E+05 -4.874160E+04 -1.402260E+04
        31   9 -1.512113E+06 -2.080803E+05 -9.871921E+03 -6.004239E+05 -2.327130E+04 -5.127492E+03
        31  10 -1.697704E+06 -3.801647E+05 -1.480060E+05 -6.340143E+05  9.411867E-10 -2.093976E-10
        31  11 -1.672924E+06 -2.591994E+05 -7.390221E+04 -6.364524E+05  4.597026E-10 -1.046048E-09
        31  12 -1.682403E+06 -2.474295E+05 -4.914308E+04 -6.216291E+05 -1.541379E-09  7.630717E-10
        31  13 -1.609732E+06 -3.158574E+05 -1.180505E+05 -5.780294E+05 -1.824684E-09 -2.912457E-10
        31  14 -1.586552E+06 -2.173938E+05 -4.983553E+04 -6.031579E+05  3.232279E-09 -4.652070E-10
        31  15 -1.597262E+06 -2.277548E+05 -2.950784E+04 -6.110270E+05 -4.087934E-10  1.148610E-09
        31  16 -1.521751E+06 -2.515415E+05 -8.809581E+04 -5.220359E+05 -1.237571E-09 -6.659952E-10
        31  17 -1.500173E+06 -1.755864E+05 -2.576969E+04 -5.698589E+05  5.236224E-10 -7.145442E-10
        31  18 -1.512114E+06 -2.080804E+05 -9.872991E+03 -6.004240E+05  2.024620E-09  1.094923E-09
        31  19 -1.697698E+06 -3.801622E+05 -1.479931E+05 -6.340125E+05  7.786115E+04  2.773066E+04
        31  20 -1.672922E+06 -2.591985E+05 -7.389712E+04 -6.364518E+05  4.986791E+04  1.444292E+04
        31  21 -1.682402E+06 -2.474293E+05 -4.914223E+04 -6.216290E+05  2.074013E+04  4.179680E+03
        31  22 -1.609726E+06 -3.158550E+05 -1.180384E+05 -5.780277E+05  7.546947E+04  2.683878E+04
        31  23 -1.586550E+06 -2.173929E+05 -4.983056E+04 -6.031573E+05  4.930480E+04  1.423278E+04
        31  24 -1.597262E+06 -2.277547E+05 -2.950688E+04 -6.110269E+05  2.200562E+04  4.653582E+03
        31  25 -1.521745E+06 -2.515393E+05 -8.808448E+04 -5.220343E+05  7.307746E+04  2.594646E+04
        31  26 -1.500171E+06 -1.755855E+05 -2.576484E+04 -5.698583E+05  4.874160E+04  1.402260E+04
        31  27 -1.512113E+06 -2.080803E+05 -9.871921E+03 -6.004239E+05  2.327130E+04  5.127492E+03
        32   1 -1.648479E+06 -2.621921E+05 -3.850135E+04 -6.220748E+05 -1.728700E+04 -3.902872E+03
        32   2 -1.633544E+06 -2.417440E+05 -2.187040E+04 -6.138326E+05 -1.088844E+04 -2.257460E+03
        32   3 -1.614993E+06 -2.384903E+05 -1.234934E+04 -6.124392E+05 -4.420229E+03 -7.969088E+02
        32   4 -1.593393E+06 -2.390826E+05 -2.381320E+04 -6.045085E+05 -1.763160E+04 -4.032132E+03
        32   5 -1.594650E+06 -2.265329E+05 -1.172293E+04 -6.025671E+05 -1.134447E+04 -2.428400E+03
        32   6 -1.592268E+06 -2.311553E+05 -6.653544E+03 -6.074747E+05 -4.987915E+03 -1.009649E+03
        32   7 -1.538304E+06 -2.159725E+05 -9.125214E+03 -5.869406E+05 -1.797623E+04 -4.161408E+03
        32   8 -1.555755E+06 -2.113218E+05 -1.575602E+03 -5.913010E+05 -1.180052E+04 -2.599353E+03
        32   9 -1.569543E+06 -2.238204E+05 -9.578441E+02 -6.025101E+05 -5.555617E+03 -1.222392E+03
        32  10 -1.648479E+06 -2.621922E+05 -3.850194E+04 -6.220748E+05 -8.309199E-10  2.231334E-09
        32  11 -1.633545E+06 -2.417440E+05 -2.187064E+04 -6.138326E+05  2.403192E-09  6.005264E-10
        32  12 -1.614993E+06 -2.384904E+05 -1.234938E+04 -6.124392E+05  5.718066E-10 -3.625377E-10
        32  13 -1.593394E+06 -2.390827E+05 -2.381381E+04 -6.045085E+05  2.716915E-09  1.536937E-09
        32  14 -1.594650E+06 -2.265330E+05 -1.172318E+04 -6.025671E+05  2.793293E-09  3.592949E-10
        32  15 -1.592268E+06 -2.311554E+05 -6.653593E+03 -6.074747E+05  2.515048E-09  1.580775E-10
        32  16 -1.538305E+06 -2.159726E+05 -9.125856E+03 -5.869407E+05  2.161316E-09  1.030768E-09
        32  17 -1.555755E+06 -2.113218E+05 -1.575877E+03 -5.913010E+05  3.477404E-09  4.484456E-10
        32  18 -1.569543E+06 -2.238204E+05 -9.579051E+02 -6.025101E+05  1.918589E-09  5.922010E-10
        32  19 -1.648479E+06 -2.621921E+05 -3.850135E+04 -6.220748E+05  1.728700E+04  3.902872E+03
        32  20 -1.633544E+06 -2.417440E+05 -2.187040E+04 -6.138326E+05  1.088844E+04  2.257460E+03
        32  21 -1.614993E+06 -2.384903E+05 -1.234934E+04 -6.124392E+05  4.420229E+03  7.969088E+02
        32  22 -1.593393E+06 -2.390826E+05 -2.381320E+04 -6.045085E+05  1.763160E+04  4.032132E+03
        32  23 -1.594650E+06 -2.265329E+05 -1.172293E+04 -6.025671E+05  1.134447E+04  2.428400E+03
        32  24 -1.592268E+06 -2.311553E+05 -6.653544E+03 -6.074747E+05  4.987915E+03  1.009649E+03
        32  25 -1.538304E+06 -2.159725E+05 -9.125214E+03 -5.869406E+05  1.797623E+04  4.161408E+03
        32  26 -1.555755E+06 -2.113218E+05 -1.575602E+03 -5.913010E+05  1.180052E+04  2.599353E+03
        32  27 -1.569543E+06 -2.238204E+05 -9.578441E+02 -6.025101E+05  5.555617E+03  1.222392E+03
        33   1 -1.593971E+06 -2.330836E+05 -5.663513E+03 -6.076006E+05 -3.331737E+03 -9.899292E+02
        33   2 -1.580148E+06 -2.216712E+05  1.215548E+03 -5.983555E+05 -1.626562E+03 -1.322376E+03
        33   3 -1.558894E+06 -2.190432E+05  6.833812E+03 -5.980403E+05  8.178195E+01 -1.663061E+03
        33   4 -1.591828E+06 -2.321499E+05 -5.145277E+03 -6.068663E+05 -3.844918E+03 -1.182248E+03
        33   5 -1.595495E+06 -2.274114E+05 -2.738327E+03 -6.025307E+05 -2.144745E+03 -1.516581E+03
        33   6 -1.591729E+06 -2.314563E+05 -1.588100E+03 -6.071254E+05 -4.414403E+02 -1.859167E+03
        33   7 -1.589685E+06 -2.312162E+05 -4.627038E+03 -6.061319E+05 -4.358103E+03 -1.374569E+03
        33   8 -1.610841E+06 -2.331517E+05 -6.692253E+03 -6.067060E+05 -2.662918E+03 -1.710782E+03
        33   9 -1.624563E+06 -2.438695E+05 -1.001020E+04 -6.162101E+05 -9.646382E+02 -2.055263E+03
        33  10 -1.593971E+06 -2.330836E+05 -5.663536E+03 -6.076006E+05 -1.234547E-09 -3.975778E-10
        33  11 -1.580148E+06 -2.216712E+05  1.215540E+03 -5.983555E+05 -4.516155E-09 -7.445178E-10
        33  12 -1.558894E+06 -2.190432E+05  6.833807E+03 -5.980403E+05 -4.510346E-09  2.539588E-10
        33  13 -1.591828E+06 -2.321499E+05 -5.145308E+03 -6.068663E+05 -2.374140E-09 -4.065894E-10
        33  14 -1.595495E+06 -2.274114E+05 -2.738340E+03 -6.025307E+05 -3.052107E-09 -8.871538E-10
        33  15 -1.591729E+06 -2.314563E+05 -1.588107E+03 -6.071254E+05  1.063923E-09 -1.166625E-10
        33  16 -1.589685E+06 -2.312162E+05 -4.627078E+03 -6.061319E+05 -3.128070E-09 -3.917538E-10
        33  17 -1.610841E+06 -2.331517E+05 -6.692272E+03 -6.067060E+05 -4.728722E-09 -8.822425E-10
        33  18 -1.624563E+06 -2.438695E+05 -1.001021E+04 -6.162101E+05  2.128351E-09 -6.865638E-10
        33  19 -1.593971E+06 -2.330836E+05 -5.663513E+03 -6.076006E+05  3.331737E+03  9.899292E+02
        33  20 -1.580148E+06 -2.216712E+05  1.215548E+03 -5.983555E+05  1.626562E+03  1.322376E+03
        33  21 -1.558894E+06 -2.190432E+05  6.833812E+03 -5.980403E+05 -8.178195E+01  1.663061E+03
        33  22 -1.591828E+06 -2.321499E+05 -5.145277E+03 -6.068663E+05  3.844918E+03  1.182248E+03
        33  23 -1.595495E+06 -2.274114E+05 -2.738327E+03 -6.025307E+05  2.144745E+03  1.516581E+03
        33  24 -1.591729E+06 -2.314563E+05 -1.588100E+03 -6.071254E+05  4.414403E+02  1.859167E+03
        33  25 -1.589685E+06 -2.312162E+05 -4.627038E+03 -6.061319E+05  4.358103E+03  1.374569E+03
        33  26 -1.610841E+06 -2.331517E+05 -6.692253E+03 -6.067060E+05  2.662918E+03  1.710782E+03
        33  27 -1.624563E+06 -2.438695E+05 -1.001020E+04 -6.162101E+05  9.646382E+02  2.055263E+03
        34   1 -1.539333E+06 -2.118788E+05  1.230797E+04 -5.927594E+05  4.975592E+02 -2.078671E+03
        34   2 -1.525867E+06 -2.014171E+05  1.712970E+04 -5.835566E+05  1.230764E+03 -2.776060E+03
        34   3 -1.504671E+06 -1.988606E+05  2.162075E+04 -5.833074E+05  1.961789E+03 -3.467292E+03
        34   4 -1.591699E+06 -2.315108E+05 -1.255634E+03 -6.070374E+05 -2.035481E+01 -2.272803E+03
        34   5 -1.595560E+06 -2.275344E+05 -8.352762E+02 -6.025695E+05  7.165246E+02 -2.968850E+03
        34   6 -1.591693E+06 -2.314638E+05 -7.484407E+02 -6.070553E+05  1.451212E+03 -3.658744E+03
        34   7 -1.644061E+06 -2.511425E+05 -1.481932E+04 -6.213141E+05 -5.382155E+02 -2.466915E+03
        34   8 -1.665248E+06 -2.536513E+05 -1.880054E+04 -6.215804E+05  2.023513E+02 -3.161615E+03
        34   9 -1.678707E+06 -2.640664E+05 -2.311822E+04 -6.308000E+05  9.407157E+02 -3.850166E+03
        34  10 -1.539333E+06 -2.118788E+05  1.230796E+04 -5.927594E+05 -1.269756E-09  5.196771E-10
        34  11 -1.525867E+06 -2.014171E+05  1.712968E+04 -5.835566E+05 -1.532709E-09  6.746942E-10
        34  12 -1.504671E+06 -1.988606E+05  2.162072E+04 -5.833074E+05  3.920745E-10  4.586856E-10
        34  13 -1.591699E+06 -2.315108E+05 -1.255643E+03 -6.070374E+05  3.053861E-09  5.865277E-10
        34  14 -1.595560E+06 -2.275344E+05 -8.352937E+02 -6.025695E+05  3.471665E-09  9.835697E-10
        34  15 -1.591693E+06 -2.314638E+05 -7.484698E+02 -6.070553E+05  1.432392E-09  7.173182E-10
        34  16 -1.644061E+06 -2.511425E+05 -1.481933E+04 -6.213142E+05  6.449705E-11  2.847502E-10
        34  17 -1.665248E+06 -2.536513E+05 -1.880056E+04 -6.215804E+05  1.769132E-09  9.859026E-10
        34  18 -1.678707E+06 -2.640664E+05 -2.311825E+04 -6.308000E+05 -1.602823E-09  8.526950E-11
        34  19 -1.539333E+06 -2.118788E+05  1.230797E+04 -5.927594E+05 -4.975592E+02  2.078671E+03
        34  20 -1.525867E+06 -2.014171E+05  1.712970E+04 -5.835566E+05 -1.230764E+03  2.776060E+03
        34  21 -1.504671E+06 -1.988606E+05  2.162075E+04 -5.833074E+05 -1.961789E+03  3.467292E+03
        34  22 -1.591699E+06 -2.315108E+05 -1.255634E+03 -6.070374E+05  2.035481E+01  2.272803E+03
        34  23 -1.595560E+06 -2.275344E+05 -8.352762E+02 -6.025695E+05 -7.165246E+02  2.968850E+03
        34  24 -1.591693E+06 -2.314638E+05 -7.484407E+02 -6.070553E+05 -1.451212E+03  3.658744E+03
        34  25 -1.644061E+06 -2.511425E+05 -1.481932E+04 -6.213141E+05  5.382155E+02  2.466915E+03
        34  26 -1.665248E+06 -2.536513E+05 -1.880054E+04 -6.215804E+05 -2.023513E+02  3.161615E+03
        34  27 -1.678707E+06 -2.640664E+05 -2.311822E+04 -6.308000E+05 -9.407157E+02  3.850166E+03
        35   1 -1.485669E+06 -1.916613E+05  2.660631E+04 -5.780815E+05  2.268834E+03 -3.909954E+03
        35   2 -1.472641E+06 -1.815777E+05  3.053471E+04 -5.691467E+05  3.134923E+03 -4.530554E+03
        35   3 -1.452158E+06 -1.791879E+05  3.401858E+04 -5.688648E+05  3.995785E+03 -5.136531E+03
        35   4 -1.591753E+06 -2.314034E+05 -7.996043E+02 -6.069940E+05  1.762576E+03 -4.099822E+03
        35   5 -1.595486E+06 -2.276027E+05 -1.128543E+03 -6.026501E+05  2.637372E+03 -4.717224E+03
        35   6 -1.591768E+06 -2.314978E+05 -1.909055E+03 -6.069594E+05  3.506922E+03 -5.320007E+03
        35   7 -1.697827E+06 -2.711450E+05 -2.820656E+04 -6.359022E+05  1.256411E+03 -4.289655E+03
        35   8 -1.718318E+06 -2.736269E+05 -3.279311E+04 -6.361475E+05  2.139928E+03 -4.903854E+03
        35   9 -1.731359E+06 -2.838064E+05 -3.783831E+04 -6.450462E+05  3.018180E+03 -5.503437E+03
        35  10 -1.485669E+06 -1.916613E+05  2.660627E+04 -5.780815E+05  7.347980E-10  4.757230E-10
        35  11 -1.472641E+06 -1.815777E+05  3.053465E+04 -5.691467E+05  4.015233E-10  1.233816E-10
        35  12 -1.452158E+06 -1.791879E+05  3.401850E+04 -5.688648E+05 -1.701133E-09  5.062802E-10
        35  13 -1.591753E+06 -2.314034E+05 -7.996417E+02 -6.069940E+05  8.759940E-10  1.586029E-10
        35  14 -1.595486E+06 -2.276027E+05 -1.128598E+03 -6.026501E+05  1.240336E-09  5.814632E-10
        35  15 -1.591768E+06 -2.314978E+05 -1.909131E+03 -6.069594E+05  1.652345E-09  5.747253E-10
        35  16 -1.697827E+06 -2.711451E+05 -2.820660E+04 -6.359022E+05 -1.075008E-09  2.105419E-10
        35  17 -1.718318E+06 -2.736269E+05 -3.279316E+04 -6.361475E+05  1.828548E-09  9.350563E-10
        35  18 -1.731359E+06 -2.838065E+05 -3.783838E+04 -6.450462E+05 -1.713784E-09  4.552689E-10
        35  19 -1.485669E+06 -1.916613E+05  2.660631E+04 -5.780815E+05 -2.268834E+03  3.909954E+03
        35  20 -1.472641E+06 -1.815777E+05  3.053471E+04 -5.691467E+05 -3.134923E+03  4.530554E+03
        35  21 -1.452158E+06 -1.791879E+05  3.401858E+04 -5.688648E+05 -3.995785E+03  5.136531E+03
        35  22 -1.591753E+06 -2.314034E+05 -7.996043E+02 -6.069940E+05 -1.762576E+03  4.099822E+03
        35  23 -1.595486E+06 -2.276027E+05 -1.128543E+03 -6.026501E+05 -2.637372E+03  4.717224E+03
        35  24 -1.591768E+06 -2.314978E+05 -1.909055E+03 -6.069594E+05 -3.506922E+03  5.320007E+03
        35  25 -1.697827E+06 -2.711450E+05 -2.820656E+04 -6.359022E+05 -1.256411E+03  4.289655E+03
        35  26 -1.718318E+06 -2.736269E+05 -3.279311E+04 -6.361475E+05 -2.139928E+03  4.903854E+03
        35  27 -1.731359E+06 -2.838064E+05 -3.783831E+04 -6.450462E+05 -3.018180E+03  5.503437E+03
        36   1 -1.433964E+06 -1.722548E+05  3.827160E+04 -5.640531E+05  4.533331E+03 -5.472672E+03
        36   2 -1.421503E+06 -1.624211E+05  4.040439E+04 -5.553263E+05  7.012598E+03 -5.439992E+03
        36   3 -1.402630E+06 -1.611409E+05  4.054891E+04 -5.545534E+05  9.475582E+03 -5.362955E+03
        36   4 -1.591944E+06 -2.312815E+05 -2.476948E+03 -6.069578E+05  4.043265E+03 -5.656649E+03
        36   5 -1.595229E+06 -2.275680E+05 -4.383353E+03 -6.027692E+05  6.548732E+03 -5.614227E+03
        36   6 -1.592108E+06 -2.324136E+05 -8.299256E+03 -6.065346E+05  9.037861E+03 -5.527465E+03
        36   7 -1.749900E+06 -2.903065E+05 -4.322741E+04 -6.498524E+05  3.553338E+03 -5.840574E+03
        36   8 -1.768926E+06 -2.927130E+05 -4.917360E+04 -6.502000E+05  6.085009E+03 -5.788409E+03
        36   9 -1.781552E+06 -3.036842E+05 -5.715057E+04 -6.585016E+05  8.600285E+03 -5.691919E+03
        36  10 -1.433964E+06 -1.722549E+05  3.827150E+04 -5.640531E+05 -1.453052E-09  3.037565E-10
        36  11 -1.421503E+06 -1.624211E+05  4.040425E+04 -5.553263E+05 -4.044948E-09 -1.036683E-09
        36  12 -1.402630E+06 -1.611410E+05  4.054868E+04 -5.545534E+05 -2.408582E-11 -1.100535E-09
        36  13 -1.591945E+06 -2.312816E+05 -2.477038E+03 -6.069577E+05 -1.064280E-09 -1.791569E-10
        36  14 -1.595229E+06 -2.275681E+05 -4.383493E+03 -6.027692E+05 -1.574642E-09 -7.511918E-10
        36  15 -1.592108E+06 -2.324137E+05 -8.299467E+03 -6.065346E+05 -2.573377E-09 -7.660203E-10
        36  16 -1.749900E+06 -2.903065E+05 -4.322750E+04 -6.498524E+05  1.242518E-09 -3.621254E-10
        36  17 -1.768926E+06 -2.927131E+05 -4.917373E+04 -6.502000E+05 -1.222015E-09 -3.863424E-10
        36  18 -1.781552E+06 -3.036843E+05 -5.715077E+04 -6.585015E+05  7.382358E-10 -4.730338E-10
        36  19 -1.433964E+06 -1.722548E+05  3.827160E+04 -5.640531E+05 -4.533331E+03  5.472672E+03
        36  20 -1.421503E+06 -1.624211E+05  4.040439E+04 -5.553263E+05 -7.012598E+03  5.439992E+03
        36  21 -1.402630E+06 -1.611409E+05  4.054891E+04 -5.545534E+05 -9.475582E+03  5.362955E+03
        36  22 -1.591944E+06 -2.312815E+05 -2.476948E+03 -6.069578E+05 -4.043265E+03  5.656649E+03
        36  23 -1.595229E+06 -2.275680E+05 -4.383353E+03 -6.027692E+05 -6.548732E+03  5.614227E+03
        36  24 -1.592108E+06 -2.324136E+05 -8.299256E+03 -6.065346E+05 -9.037861E+03  5.527465E+03
        36  25 -1.749900E+06 -2.903065E+05 -4.322741E+04 -6.498524E+05 -3.553338E+03  5.840574E+03
        36  26 -1.768926E+06 -2.927130E+05 -4.917360E+04 -6.502000E+05 -6.085009E+03  5.788409E+03
        36  27 -1.781552E+06 -3.036842E+05 -5.715057E+04 -6.585016E+05 -8.600285E+03  5.691919E+03
        37   1 -1.384767E+06 -1.545562E+05  4.260372E+04 -5.525389E+05  1.131036E+04 -5.239619E+03
        37   2 -1.373019E+06 -1.424486E+05  3.814142E+04 -5.416033E+05  2.106727E+04 -2.369275E+03
        37   3 -1.361409E+06 -1.519459E+05  2.254900E+04 -5.347053E+05  3.065338E+04  9.568591E+02
        37   4 -1.592922E+06 -2.307001E+05 -1.074620E+04 -6.074014E+05  1.074967E+04 -5.450325E+03
        37   5 -1.593739E+06 -2.262822E+05 -1.896386E+04 -6.029776E+05  2.077911E+04 -2.477814E+03
        37   6 -1.594751E+06 -2.435272E+05 -3.853109E+04 -6.025915E+05  3.063749E+04  9.503661E+02
        37   7 -1.801034E+06 -3.068418E+05 -6.409965E+04 -6.622474E+05  1.018918E+04 -5.660959E+03
        37   8 -1.814412E+06 -3.101123E+05 -7.607309E+04 -6.643319E+05  2.049106E+04 -2.586310E+03
        37   9 -1.828039E+06 -3.351033E+05 -9.961559E+04 -6.704538E+05  3.062161E+04  9.438750E+02
        37  10 -1.384767E+06 -1.545563E+05  4.260342E+04 -5.525389E+05 -1.490351E-09 -3.721973E-10
        37  11 -1.373020E+06 -1.424487E+05  3.814058E+04 -5.416033E+05  3.048318E-09  2.033347E-09
        37  12 -1.361410E+06 -1.519462E+05  2.254723E+04 -5.347054E+05  2.780945E-09  2.888483E-09
        37  13 -1.592922E+06 -2.307001E+05 -1.074647E+04 -6.074013E+05  1.236833E-09 -7.159027E-10
        37  14 -1.593740E+06 -2.262824E+05 -1.896468E+04 -6.029776E+05 -4.077964E-10 -1.516349E-10
        37  15 -1.594752E+06 -2.435275E+05 -3.853286E+04 -6.025915E+05 -1.676760E-09  9.521972E-10
        37  16 -1.801034E+06 -3.068418E+05 -6.409991E+04 -6.622473E+05  1.063570E-09 -9.035544E-10
        37  17 -1.814412E+06 -3.101124E+05 -7.607389E+04 -6.643319E+05 -3.484386E-10 -1.938880E-09
        37  18 -1.828040E+06 -3.351036E+05 -9.961735E+04 -6.704538E+05 -6.499101E-09 -6.705255E-10
        37  19 -1.384767E+06 -1.545562E+05  4.260372E+04 -5.525389E+05 -1.131036E+04  5.239619E+03
        37  20 -1.373019E+06 -1.424486E+05  3.814142E+04 -5.416033E+05 -2.106727E+04  2.369275E+03
        37  21 -1.361409E+06 -1.519459E+05  2.254900E+04 -5.347053E+05 -3.065338E+04 -9.568591E+02
        37  22 -1.592922E+06 -2.307001E+05 -1.074620E+04 -6.074014E+05 -1.074967E+04  5.450325E+03
        37  23 -1.593739E+06 -2.262822E+05 -1.896386E+04 -6.029776E+05 -2.077911E+04  2.477814E+03
        37  24 -1.594751E+06 -2.435272E+05 -3.853109E+04 -6.025915E+05 -3.063749E+04 -9.503661E+02
        37  25 -1.801034E+06 -3.068418E+05 -6.409965E+04 -6.622474E+05 -1.018918E+04  5.660959E+03
        37  26 -1.814412E+06 -3.101123E+05 -7.607309E+04 -6.643319E+05 -2.049106E+04  2.586310E+03
        37  27 -1.828039E+06 -3.351033E+05 -9.961559E+04 -6.704538E+05 -3.062161E+04 -9.438750E+02
        38   1 -1.334647E+06 -1.449931E+05  1.708580E+04 -5.606242E+05  3.988590E+04  2.887759E+03
        38   2 -1.326638E+06 -1.009887E+05 -1.222936E+04 -5.188775E+05  7.935372E+04  1.770472E+04
        38   3 -1.379139E+06 -2.255537E+05 -1.155370E+05 -4.415943E+05  1.161053E+05  3.975093E+04
        38   4 -1.601084E+06 -2.251205E+05 -4.774605E+04 -6.130539E+05  3.767714E+04  2.058794E+03
        38   5 -1.580518E+06 -2.116121E+05 -8.064072E+04 -6.040662E+05  8.150346E+04  1.851022E+04
        38   6 -1.621357E+06 -3.675865E+05 -1.910122E+05 -5.595346E+05  1.226134E+05  4.218695E+04
        38   7 -1.867452E+06 -3.052490E+05 -1.125831E+05 -6.654661E+05  3.546940E+04  1.230039E+03
        38   8 -1.834334E+06 -3.222249E+05 -1.490579E+05 -6.892212E+05  8.365224E+04  1.931522E+04
        38   9 -1.863511E+06 -5.095855E+05 -2.664924E+05 -6.774250E+05  1.291188E+05  4.462057E+04
        38  10 -1.334649E+06 -1.449935E+05  1.708279E+04 -5.606243E+05 -5.418478E-09 -5.953596E-10
        38  11 -1.326645E+06 -1.009907E+05 -1.224181E+04 -5.188786E+05 -3.576065E-09 -8.257683E-10
        38  12 -1.379154E+06 -2.255590E+05 -1.155654E+05 -4.415980E+05 -3.103297E-10  1.730522E-10
        38  13 -1.601085E+06 -2.251209E+05 -4.774873E+04 -6.130540E+05 -4.983890E-10  1.103239E-09
        38  14 -1.580525E+06 -2.116142E+05 -8.065388E+04 -6.040674E+05  1.022087E-09  5.455036E-12
        38  15 -1.621374E+06 -3.675925E+05 -1.910439E+05 -5.595388E+05  2.420014E-09 -3.857354E-10
        38  16 -1.867453E+06 -3.052494E+05 -1.125855E+05 -6.654662E+05  3.803641E-09  2.843894E-09
        38  17 -1.834342E+06 -3.222272E+05 -1.490718E+05 -6.892225E+05 -5.888160E-10  1.670145E-09
        38  18 -1.863530E+06 -5.095921E+05 -2.665276E+05 -6.774297E+05 -2.201561E-10 -3.937372E-11
        38  19 -1.334647E+06 -1.449931E+05  1.708580E+04 -5.606242E+05 -3.988590E+04 -2.887759E+03
        38  20 -1.326638E+06 -1.009887E+05 -1.222936E+04 -5.188775E+05 -7.935372E+04 -1.770472E+04
        38  21 -1.379139E+06 -2.255537E+05 -1.155370E+05 -4.415943E+05 -1.161053E+05 -3.975093E+04
        38  22 -1.601084E+06 -2.251205E+05 -4.774605E+04 -6.130539E+05 -3.767714E+04 -2.058794E+03
        38  23 -1.580518E+06 -2.116121E+05 -8.064072E+04 -6.040662E+05 -8.150346E+04 -1.851022E+04
        38  24 -1.621357E+06 -3.675865E+05 -1.910122E+05 -5.595346E+05 -1.226134E+05 -4.218695E+04
        38  25 -1.867452E+06 -3.052490E+05 -1.125831E+05 -6.654661E+05 -3.546940E+04 -1.230039E+03
        38  26 -1.834334E+06 -3.222249E+05 -1.490579E+05 -6.892212E+05 -8.365224E+04 -1.931522E+04
        38  27 -1.863511E+06 -5.095855E+05 -2.664924E+05 -6.774250E+05 -1.291188E+05 -4.462057E+04
        39   1 -2.382593E+05  8.133070E+04  1.009509E+05  3.097662E+04  6.914718E+04  3.451425E+00
        39   2 -2.513572E+05 -7.667299E+03  4.480705E+04  9.591983E+03  4.512612E+04  6.974787E-01
        39   3 -2.382720E+05 -4.462755E+03  2.735940E+04 -1.179214E+04  2.110492E+04 -4.010159E-01
        39   4 -2.382604E+05  8.132890E+04  1.009507E+05 -6.642526E-09  6.914718E+04 -1.982665E-11
        39   5 -2.513573E+05 -7.667472E+03  4.480703E+04 -6.682479E-09  4.512612E+04  9.443918E-11
        39   6 -2.382721E+05 -4.463017E+03  2.735936E+04 -2.633748E-10  2.110492E+04 -4.245351E-10
        39   7 -2.382593E+05  8.133070E+04  1.009509E+05 -3.097662E+04  6.914718E+04 -3.451425E+00
        39   8 -2.513572E+05 -7.667299E+03  4.480705E+04 -9.591983E+03  4.512612E+04 -6.974787E-01
        39   9 -2.382720E+05 -4.462755E+03  2.735940E+04  1.179214E+04  2.110492E+04  4.010159E-01
        39  10 -2.382645E+05  8.132942E+04  1.009419E+05  3.097662E+04 -4.790964E-10  3.085163E-10
        39  11 -2.513594E+05 -7.667846E+03  4.480322E+04  9.591983E+03  9.205061E-11  3.426832E-10
        39  12 -2.382725E+05 -4.462875E+03  2.735856E+04 -1.179214E+04  2.142634E-10 -7.666565E-10
        39  13 -2.382655E+05  8.132761E+04  1.009417E+05 -6.558403E-09 -3.303367E-27  2.746495E-10
        39  14 -2.513595E+05 -7.668019E+03  4.480320E+04 -1.103190E-08  2.294118E-09  4.706738E-10
        39  15 -2.382726E+05 -4.463136E+03  2.735852E+04 -6.891164E-09 -2.750700E-10 -4.976291E-10
        39  16 -2.382645E+05  8.132942E+04  1.009419E+05 -3.097662E+04 -3.833323E-11  2.612881E-10
        39  17 -2.513594E+05 -7.667846E+03  4.480322E+04 -9.591983E+03  1.628536E-09  5.495024E-10
        39  18 -2.382725E+05 -4.462875E+03  2.735856E+04  1.179214E+04 -2.293837E-09 -2.394340E-10
        39  19 -2.382593E+05  8.133070E+04  1.009509E+05  3.097662E+04 -6.914718E+04 -3.451425E+00
        39  20 -2.513572E+05 -7.667299E+03  4.480705E+04  9.591983E+03 -4.512612E+04 -6.974787E-01
        39  21 -2.382720E+05 -4.462755E+03  2.735940E+04 -1.179214E+04 -2.110492E+04  4.010159E-01
        39  22 -2.382604E+05  8.132890E+04  1.009507E+05 -1.078295E-08 -6.914718E+04  5.731297E-10
        39  23 -2.513573E+05 -7.667472E+03  4.480703E+04 -6.764532E-09 -4.512612E+04  8.801111E-10
        39  24 -2.382721E+05 -4.463017E+03  2.735936E+04  8.018152E-09 -2.110492E+04 -5.659094E-10
        39  25 -2.382593E+05  8.133070E+04  1.009509E+05 -3.097662E+04 -6.914718E+04  3.451425E+00
        39  26 -2.513572E+05 -7.667299E+03  4.480705E+04 -9.591983E+03 -4.512612E+04  6.974787E-01
        39  27 -2.382720E+05 -4.462755E+03  2.735940E+04  1.179214E+04 -2.110492E+04 -4.010159E-01
        40   1 -2.434800E+05  6.848277E+03  2.212827E+04  2.231526E+03  1.699634E+04  6.111479E-02
        40   2 -2.448497E+05 -7.143333E+02  1.154942E+04  5.611857E+02  1.113060E+04  1.006502E-02
        40   3 -2.434816E+05 -3.825132E+02  6.764241E+03 -1.109133E+03  5.264987E+03 -9.409565E-03
        40   4 -2.434800E+05  6.848268E+03  2.212827E+04  3.523607E-09  1.699634E+04 -1.056163E-10
        40   5 -2.448497E+05 -7.143339E+02  1.154942E+04 -9.389659E-09  1.113060E+04  5.570624E-10
        40   6 -2.434816E+05 -3.825155E+02  6.764241E+03 -8.841159E-09  5.264987E+03 -1.930154E-10
        40   7 -2.434800E+05  6.848277E+03  2.212827E+04 -2.231526E+03  1.699634E+04 -6.111480E-02
        40   8 -2.448497E+05 -7.143333E+02  1.154942E+04 -5.611857E+02  1.113060E+04 -1.006502E-02
        40   9 -2.434816E+05 -3.825132E+02  6.764241E+03  1.109133E+03  5.264987E+03  9.409564E-03
        40  10 -2.434803E+05  6.848200E+03  2.212772E+04  2.231526E+03 -1.399061E-09 -8.116605E-10
        40  11 -2.448498E+05 -7.143666E+02  1.154919E+04  5.611857E+02  1.851607E-09  2.294105E-10
        40  12 -2.434816E+05 -3.825207E+02  6.764189E+03 -1.109133E+03 -1.562327E-10 -1.215340E-10
        40  13 -2.434803E+05  6.848191E+03  2.212772E+04 -2.783533E-09 -1.081091E-09 -5.441492E-10
        40  14 -2.448498E+05 -7.143672E+02  1.154919E+04 -7.348080E-10 -2.562249E-27  3.501023E-10
        40  15 -2.434816E+05 -3.825230E+02  6.764189E+03 -9.454775E-09 -1.563720E-09  2.018249E-10
        40  16 -2.434803E+05  6.848200E+03  2.212772E+04 -2.231526E+03  2.468347E-09 -2.827716E-10
        40  17 -2.448498E+05 -7.143666E+02  1.154919E+04 -5.611857E+02  8.629079E-10  4.308153E-10
        40  18 -2.434816E+05 -3.825207E+02  6.764189E+03  1.109133E+03 -3.744732E-09  5.603437E-10
        40  19 -2.434800E+05  6.848277E+03  2.212827E+04  2.231526E+03 -1.699634E+04 -6.111480E-02
        40  20 -2.448497E+05 -7.143333E+02  1.154942E+04  5.611857E+02 -1.113060E+04 -1.006502E-02
        40  21 -2.434816E+05 -3.825132E+02  6.764241E+03 -1.109133E+03 -5.264987E+03  9.409564E-03
        40  22 -2.434800E+05  6.848268E+03  2.212827E+04  8.138126E-09 -1.699634E+04 -9.856295E-10
        40  23 -2.448497E+05 -7.143339E+02  1.154942E+04 -5.003878E-09 -1.113060E+04  1.539322E-10
        40  24 -2.434816E+05 -3.825155E+02  6.764241E+03 -1.302741E-08 -5.264987E+03  5.994406E-10
        40  25 -2.434800E+05  6.848277E+03  2.212827E+04 -2.231526E+03 -1.699634E+04  6.111479E-02
        40  26 -2.448497E+05 -7.143333E+02  1.154942E+04 -5.611857E+02 -1.113060E+04  1.006502E-02
        40  27 -2.434816E+05 -3.825132E+02  6.764241E+03  1.109133E+03 -5.264987E+03 -9.409563E-03
        41   1 -2.440106E+05  5.559311E+02  5.239617E+03  8.573882E+01  4.208471E+03  5.814201E-04
        41   2 -2.441891E+05 -7.532320E+01  2.898336E+03 -1.699657E+01  2.763348E+03 -7.568054E-05
        41   3 -2.440108E+05 -3.270082E+01  1.666668E+03 -1.197336E+02  1.318206E+03 -2.543243E-04
        41   4 -2.440106E+05  5.559311E+02  5.239617E+03 -6.031004E-10  4.208471E+03 -2.156857E-10
        41   5 -2.441891E+05 -7.532320E+01  2.898336E+03  5.403318E-09  2.763348E+03  5.047114E-10
        41   6 -2.440108E+05 -3.270085E+01  1.666668E+03  6.402761E-10  1.318206E+03 -1.739897E-10
        41   7 -2.440106E+05  5.559311E+02  5.239617E+03 -8.573882E+01  4.208471E+03 -5.814206E-04
        41   8 -2.441891E+05 -7.532320E+01  2.898336E+03  1.699657E+01  2.763348E+03  7.568144E-05
        41   9 -2.440108E+05 -3.270082E+01  1.666668E+03  1.197336E+02  1.318206E+03  2.543240E-04
        41  10 -2.440106E+05  5.559264E+02  5.239584E+03  8.573882E+01 -4.145721E-10 -5.742993E-10
        41  11 -2.441891E+05 -7.532525E+01  2.898322E+03 -1.699657E+01  3.665298E-11 -4.611397E-10
        41  12 -2.440108E+05 -3.270128E+01  1.666665E+03 -1.197336E+02  1.025684E-09  4.033197E-11
        41  13 -2.440106E+05  5.559264E+02  5.239584E+03 -2.787064E-09 -3.230618E-09 -1.279864E-10
        41  14 -2.441891E+05 -7.532525E+01  2.898322E+03  1.089277E-09 -1.121101E-09 -2.921508E-10
        41  15 -2.440108E+05 -3.270131E+01  1.666665E+03  3.889281E-09 -8.171490E-10 -2.445634E-10
        41  16 -2.440106E+05  5.559264E+02  5.239584E+03 -8.573882E+01 -1.783403E-09  2.928363E-10
        41  17 -2.441891E+05 -7.532525E+01  2.898322E+03  1.699657E+01 -3.021214E-09 -1.201158E-10
        41  18 -2.440108E+05 -3.270128E+01  1.666665E+03  1.197336E+02 -1.004647E-09 -5.627314E-10
        41  19 -2.440106E+05  5.559311E+02  5.239617E+03  8.573882E+01 -4.208471E+03 -5.814213E-04
        41  20 -2.441891E+05 -7.532320E+01  2.898336E+03 -1.699657E+01 -2.763348E+03  7.567958E-05
        41  21 -2.440108E+05 -3.270082E+01  1.666668E+03 -1.197336E+02 -1.318206E+03  2.543244E-04
        41  22 -2.440106E+05  5.559311E+02  5.239617E+03 -9.277706E-09 -4.208471E+03 -4.439879E-11
        41  23 -2.441891E+05 -7.532320E+01  2.898336E+03 -3.224234E-09 -2.763348E+03 -1.095123E-09
        41  24 -2.440108E+05 -3.270085E+01  1.666668E+03 -3.631705E-09 -1.318206E+03 -3.223886E-10
        41  25 -2.440106E+05  5.559311E+02  5.239617E+03 -8.573882E+01 -4.208471E+03  5.814211E-04
        41  26 -2.441891E+05 -7.532320E+01  2.898336E+03  1.699657E+01 -2.763348E+03 -7.568181E-05
        41  27 -2.440108E+05 -3.270082E+01  1.666668E+03  1.197336E+02 -1.318206E+03 -2.543251E-04
        42   1 -2.440770E+05  3.992189E+01  1.265324E+03 -1.927425E+01  1.054973E+03 -3.276437E-05
        42   2 -2.441066E+05 -9.714986E+00  6.980460E+02 -1.836884E+01  7.090997E+02 -2.098750E-05
        42   3 -2.440770E+05 -3.013631E+00  3.700984E+02 -1.746343E+01  3.632268E+02 -1.022217E-05
        42   4 -2.440770E+05  3.992189E+01  1.265324E+03  5.908367E-09  1.054973E+03 -1.238795E-10
        42   5 -2.441066E+05 -9.714987E+00  6.980460E+02 -1.092073E-08  7.090997E+02  5.008323E-10
        42   6 -2.440770E+05 -3.013631E+00  3.700984E+02 -9.981773E-09  3.632268E+02 -5.927133E-10
        42   7 -2.440770E+05  3.992189E+01  1.265324E+03  1.927425E+01  1.054973E+03  3.276413E-05
        42   8 -2.441066E+05 -9.714986E+00  6.980460E+02  1.836884E+01  7.090997E+02  2.098848E-05
        42   9 -2.440770E+05 -3.013631E+00  3.700984E+02  1.746343E+01  3.632268E+02  1.022105E-05
        42  10 -2.440770E+05  3.992159E+01  1.265322E+03 -1.927425E+01 -5.062479E-10  6.200343E-10
        42  11 -2.441066E+05 -9.715121E+00  6.980450E+02 -1.836884E+01 -5.126233E-10  8.624538E-10
        42  12 -2.440770E+05 -3.013666E+00  3.700982E+02 -1.746343E+01 -2.700067E-10 -4.481349E-10
        42  13 -2.440770E+05  3.992159E+01  1.265322E+03 -4.652999E-10 -9.885942E-10  9.307496E-11
        42  14 -2.441066E+05 -9.715122E+00  6.980450E+02 -7.686447E-09  1.571166E-09  5.241974E-10
        42  15 -2.440770E+05 -3.013667E+00  3.700982E+02  4.475505E-09 -1.390223E-09  1.484202E-10
        42  16 -2.440770E+05  3.992159E+01  1.265322E+03  1.927425E+01 -1.163696E-09 -4.250846E-10
        42  17 -2.441066E+05 -9.715121E+00  6.980450E+02  1.836884E+01 -1.822057E-09  2.114765E-10
        42  18 -2.440770E+05 -3.013666E+00  3.700982E+02  1.746343E+01  1.053227E-09  7.274458E-10
        42  19 -2.440770E+05  3.992189E+01  1.265324E+03 -1.927425E+01 -1.054973E+03  3.276561E-05
        42  20 -2.441066E+05 -9.714986E+00  6.980460E+02 -1.836884E+01 -7.090997E+02  2.098921E-05
        42  21 -2.440770E+05 -3.013631E+00  3.700984E+02 -1.746343E+01 -3.632268E+02  1.022134E-05
        42  22 -2.440770E+05  3.992189E+01  1.265324E+03 -6.838967E-09 -1.054973E+03  3.051243E-10
        42  23 -2.441066E+05 -9.714987E+00  6.980460E+02 -8.761212E-09 -7.090997E+02  5.494202E-10
        42  24 -2.440770E+05 -3.013631E+00  3.700984E+02  4.932708E-09 -3.632268E+02  8.979631E-10
        42  25 -2.440770E+05  3.992189E+01  1.265324E+03  1.927425E+01 -1.054973E+03 -3.276505E-05
        42  26 -2.441066E+05 -9.714986E+00  6.980460E+02  1.836884E+01 -7.090997E+02 -2.098809E-05
        42  27 -2.440770E+05 -3.013631E+00  3.700984E+02  1.746343E+01 -3.632268E+02 -1.021958E-05
        43   1 -2.440893E+05  1.897857E+00  2.549360E+02 -1.051608E+01  3.067179E+02 -5.198226E-06
        43   2 -2.440913E+05 -2.597434E-01  7.372678E+01 -8.089537E+00  2.703858E+02 -3.523490E-06
        43   3 -2.440894E+05 -6.096782E+00 -8.474330E+01 -5.663028E+00  2.340544E+02 -2.136766E-06
        43   4 -2.440893E+05  1.897857E+00  2.549360E+02  6.661101E-09  3.067179E+02 -4.316271E-10
        43   5 -2.440913E+05 -2.597436E-01  7.372678E+01 -6.430507E-09  2.703858E+02  7.698459E-10
        43   6 -2.440894E+05 -6.096782E+00 -8.474330E+01 -5.791783E-09  2.340544E+02 -4.352955E-10
        43   7 -2.440893E+05  1.897857E+00  2.549360E+02  1.051608E+01  3.067179E+02  5.197402E-06
        43   8 -2.440913E+05 -2.597434E-01  7.372678E+01  8.089537E+00  2.703858E+02  3.525021E-06
        43   9 -2.440894E+05 -6.096782E+00 -8.474330E+01  5.663028E+00  2.340544E+02  2.135940E-06
        43  10 -2.440893E+05  1.897832E+00  2.549359E+02 -1.051608E+01 -3.529877E-10 -3.964740E-10
        43  11 -2.440913E+05 -2.597631E-01  7.372665E+01 -8.089537E+00 -1.712797E-09  4.502534E-10
        43  12 -2.440894E+05 -6.096797E+00 -8.474340E+01 -5.663028E+00  6.032636E-10 -9.860650E-10
        43  13 -2.440893E+05  1.897831E+00  2.549359E+02 -4.042912E-09 -9.844366E-10  9.517000E-11
        43  14 -2.440913E+05 -2.597632E-01  7.372665E+01  7.543544E-09 -4.219248E-09  2.776236E-10
        43  15 -2.440894E+05 -6.096797E+00 -8.474340E+01 -8.865947E-09 -6.833891E-10 -3.798797E-10
        43  16 -2.440893E+05  1.897832E+00  2.549359E+02  1.051608E+01  8.819582E-10  5.701149E-10
        43  17 -2.440913E+05 -2.597631E-01  7.372665E+01  8.089537E+00  1.487693E-09  9.633365E-11
        43  18 -2.440894E+05 -6.096797E+00 -8.474340E+01  5.663028E+00 -1.115864E-09  2.616148E-10
        43  19 -2.440893E+05  1.897857E+00  2.549360E+02 -1.051608E+01 -3.067179E+02  5.197478E-06
        43  20 -2.440913E+05 -2.597434E-01  7.372678E+01 -8.089537E+00 -2.703858E+02  3.524427E-06
        43  21 -2.440894E+05 -6.096782E+00 -8.474330E+01 -5.663028E+00 -2.340544E+02  2.134843E-06
        43  22 -2.440893E+05  1.897857E+00  2.549360E+02  6.792279E-09 -3.067179E+02  6.113433E-10
        43  23 -2.440913E+05 -2.597436E-01  7.372678E+01  9.672832E-09 -2.703858E+02 -2.307152E-10
        43  24 -2.440894E+05 -6.096782E+00 -8.474330E+01  4.745827E-09 -2.340544E+02 -3.234748E-10
        43  25 -2.440893E+05  1.897857E+00  2.549360E+02  1.051608E+01 -3.067179E+02 -5.196249E-06
        43  26 -2.440913E+05 -2.597434E-01  7.372678E+01  8.089537E+00 -2.703858E+02 -3.524921E-06
        43  27 -2.440894E+05 -6.096782E+00 -8.474330E+01  5.663028E+00 -2.340544E+02 -2.135504E-06
        44   1 -2.441012E+05  4.460731E+00 -1.682581E+02 -1.985731E+01  2.566206E+02 -8.212027E-06
        44   2 -2.440765E+05  1.071250E+01 -3.821100E+02 -3.933549E+00  4.473450E+02 -2.833637E-06
        44   3 -2.441013E+05 -8.170644E+01 -7.448339E+02  1.199046E+01  6.380722E+02  1.232959E-05
        44   4 -2.441012E+05  4.460730E+00 -1.682581E+02  5.397745E-09  2.566206E+02 -4.775775E-10
        44   5 -2.440765E+05  1.071250E+01 -3.821100E+02 -1.728719E-08  4.473450E+02  1.170137E-09
        44   6 -2.441013E+05 -8.170644E+01 -7.448339E+02 -7.227924E-08  6.380722E+02  1.317164E-09
        44   7 -2.441012E+05  4.460731E+00 -1.682581E+02  1.985731E+01  2.566206E+02  8.211119E-06
        44   8 -2.440765E+05  1.071250E+01 -3.821100E+02  3.933549E+00  4.473450E+02  2.835912E-06
        44   9 -2.441013E+05 -8.170644E+01 -7.448339E+02 -1.199046E+01  6.380722E+02 -1.232700E-05
        44  10 -2.441012E+05  4.460713E+00 -1.682583E+02 -1.985731E+01 -2.544069E-09 -4.647825E-10
        44  11 -2.440765E+05  1.071244E+01 -3.821104E+02 -3.933549E+00  6.968416E-10  2.194455E-09
        44  12 -2.441013E+05 -8.170655E+01 -7.448346E+02  1.199046E+01 -7.878045E-10  1.701115E-09
        44  13 -2.441012E+05  4.460712E+00 -1.682583E+02 -9.488765E-09 -3.314585E-09  4.142238E-11
        44  14 -2.440765E+05  1.071244E+01 -3.821104E+02 -1.024391E-09 -1.751789E-09  1.595546E-09
        44  15 -2.441013E+05 -8.170655E+01 -7.448346E+02 -1.174964E-09  2.056404E-09  1.491090E-09
        44  16 -2.441012E+05  4.460713E+00 -1.682583E+02  1.985731E+01  3.195891E-09  5.595707E-10
        44  17 -2.440765E+05  1.071244E+01 -3.821104E+02  3.933549E+00 -2.466472E-09  1.029711E-09
        44  18 -2.441013E+05 -8.170655E+01 -7.448346E+02 -1.199046E+01  7.591941E-10  1.262846E-09
        44  19 -2.441012E+05  4.460731E+00 -1.682581E+02 -1.985731E+01 -2.566206E+02  8.211178E-06
        44  20 -2.440765E+05  1.071250E+01 -3.821100E+02 -3.933549E+00 -4.473450E+02  2.838078E-06
        44  21 -2.441013E+05 -8.170644E+01 -7.448339E+02  1.199046E+01 -6.380722E+02 -1.232616E-05
        44  22 -2.441012E+05  4.460730E+00 -1.682581E+02 -2.836593E-09 -2.566206E+02  5.651926E-10
        44  23 -2.440765E+05  1.071250E+01 -3.821100E+02  1.308546E-08 -4.473450E+02  2.030410E-09
        44  24 -2.441013E+05 -8.170644E+01 -7.448339E+02  5.969669E-08 -6.380722E+02  1.660887E-09
        44  25 -2.441012E+05  4.460731E+00 -1.682581E+02  1.985731E+01 -2.566206E+02 -8.210022E-06
        44  26 -2.440765E+05  1.071250E+01 -3.821100E+02  3.933549E+00 -4.473450E+02 -2.833987E-06
        44  27 -2.441013E+05 -8.170644E+01 -7.448339E+02 -1.199046E+01 -6.380722E+02  1.232946E-05
        45   1 -2.441795E+05  5.606123E+01 -9.749786E+02 -1.635653E+02  7.893119E+02 -2.080326E-04
        45   2 -2.439788E+05  1.048879E+02 -1.686283E+03  8.208946E+01  1.645917E+03  2.177080E-04
        45   3 -2.441797E+05 -1.006272E+03 -3.245431E+03  3.277443E+02  2.502522E+03  1.321604E-03
        45   4 -2.441795E+05  5.606118E+01 -9.749786E+02  1.395635E-07  7.893119E+02 -1.231788E-09
        45   5 -2.439788E+05  1.048879E+02 -1.686283E+03  5.403472E-09  1.645917E+03 -4.692312E-09
        45   6 -2.441797E+05 -1.006272E+03 -3.245431E+03 -1.150276E-07  2.502522E+03 -1.161280E-09
        45   7 -2.441795E+05  5.606123E+01 -9.749786E+02  1.635653E+02  7.893119E+02  2.080301E-04
        45   8 -2.439788E+05  1.048879E+02 -1.686283E+03 -8.208946E+01  1.645917E+03 -2.177175E-04
        45   9 -2.441797E+05 -1.006272E+03 -3.245431E+03 -3.277443E+02  2.502522E+03 -1.321606E-03
        45  10 -2.441795E+05  5.606106E+01 -9.749798E+02 -1.635653E+02 -3.308387E-08 -1.080271E-09
        45  11 -2.439788E+05  1.048872E+02 -1.686288E+03  8.208946E+01 -1.776387E-09 -4.144700E-09
        45  12 -2.441797E+05 -1.006273E+03 -3.245443E+03  3.277443E+02  2.816367E-08 -1.095642E-09
        45  13 -2.441795E+05  5.606101E+01 -9.749798E+02  1.643597E-10 -2.149529E-09 -9.162809E-10
        45  14 -2.439788E+05  1.048872E+02 -1.686288E+03 -1.189046E-08 -5.824658E-10 -4.169692E-09
        45  15 -2.441797E+05 -1.006274E+03 -3.245443E+03  7.283401E-09  2.182550E-09 -1.501713E-09
        45  16 -2.441795E+05  5.606106E+01 -9.749798E+02  1.635653E+02  3.245527E-08 -7.687357E-10
        45  17 -2.439788E+05  1.048872E+02 -1.686288E+03 -8.208946E+01  3.123522E-09 -4.178332E-09
        45  18 -2.441797E+05 -1.006273E+03 -3.245443E+03 -3.277443E+02 -2.723428E-08 -1.902715E-09
        45  19 -2.441795E+05  5.606123E+01 -9.749786E+02 -1.635653E+02 -7.893119E+02  2.080305E-04
        45  20 -2.439788E+05  1.048879E+02 -1.686283E+03  8.208946E+01 -1.645917E+03 -2.177163E-04
        45  21 -2.441797E+05 -1.006272E+03 -3.245431E+03  3.277443E+02 -2.502522E+03 -1.321606E-03
        45  22 -2.441795E+05  5.606118E+01 -9.749786E+02 -1.435456E-07 -7.893119E+02 -6.024275E-10
        45  23 -2.439788E+05  1.048879E+02 -1.686283E+03 -9.800746E-09 -1.645917E+03 -3.654399E-09
        45  24 -2.441797E+05 -1.006272E+03 -3.245431E+03  1.355158E-07 -2.502522E+03 -1.846799E-09
        45  25 -2.441795E+05  5.606123E+01 -9.749786E+02  1.635653E+02 -7.893119E+02 -2.080317E-04
        45  26 -2.439788E+05  1.048879E+02 -1.686283E+03 -8.208946E+01 -1.645917E+03  2.177091E-04
        45  27 -2.441797E+05 -1.006272E+03 -3.245431E+03 -3.277443E+02 -2.502522E+03  1.321602E-03
        46   1 -2.449450E+05  6.557841E+02 -4.015593E+03 -1.732910E+03  3.105219E+03 -8.670763E-03
        46   2 -2.430223E+05  1.126657E+03 -6.581027E+03  1.409387E+03  6.633955E+03  1.506574E-02
        46   3 -2.449465E+05 -1.195020E+04 -1.483140E+04  4.551626E+03  1.016264E+04  7.453522E-02
        46   4 -2.449450E+05  6.557785E+02 -4.015594E+03  3.466774E-08  3.105219E+03  1.840134E-09
        46   5 -2.430223E+05  1.126653E+03 -6.581027E+03  5.989984E-11  6.633955E+03  2.571206E-09
        46   6 -2.449465E+05 -1.195024E+04 -1.483140E+04  5.833582E-09  1.016264E+04  9.073077E-10
        46   7 -2.449450E+05  6.557841E+02 -4.015593E+03  1.732910E+03  3.105219E+03  8.670766E-03
        46   8 -2.430223E+05  1.126657E+03 -6.581027E+03 -1.409387E+03  6.633955E+03 -1.506573E-02
        46   9 -2.449465E+05 -1.195020E+04 -1.483140E+04 -4.551626E+03  1.016264E+04 -7.453522E-02
        46  10 -2.449450E+05  6.557816E+02 -4.015612E+03 -1.732910E+03  3.107273E-09  1.347047E-09
        46  11 -2.430223E+05  1.126645E+03 -6.581110E+03  1.409387E+03  6.549794E-10  1.729227E-09
        46  12 -2.449466E+05 -1.195023E+04 -1.483159E+04  4.551626E+03  3.404530E-10  6.160036E-10
        46  13 -2.449450E+05  6.557759E+02 -4.015612E+03 -1.736597E-09  1.811879E-10  1.054302E-09
        46  14 -2.430223E+05  1.126641E+03 -6.581110E+03 -6.417911E-09 -1.678075E-26  1.964745E-09
        46  15 -2.449466E+05 -1.195027E+04 -1.483160E+04 -3.560569E-09  1.505060E-09  7.500806E-10
        46  16 -2.449450E+05  6.557816E+02 -4.015612E+03  1.732910E+03 -3.594625E-09  7.448583E-10
        46  17 -2.430223E+05  1.126645E+03 -6.581110E+03 -1.409387E+03  1.294057E-09  2.165746E-09
        46  18 -2.449466E+05 -1.195023E+04 -1.483159E+04 -4.551626E+03 -7.480006E-10  8.812289E-10
        46  19 -2.449450E+05  6.557841E+02 -4.015593E+03 -1.732910E+03 -3.105219E+03  8.670765E-03
        46  20 -2.430223E+05  1.126657E+03 -6.581027E+03  1.409387E+03 -6.633955E+03 -1.506574E-02
        46  21 -2.449465E+05 -1.195020E+04 -1.483140E+04  4.551626E+03 -1.016264E+04 -7.453522E-02
        46  22 -2.449450E+05  6.557785E+02 -4.015594E+03 -2.521639E-08 -3.105219E+03  2.694043E-10
        46  23 -2.430223E+05  1.126653E+03 -6.581027E+03  2.754429E-11 -6.633955E+03  1.358990E-09
        46  24 -2.449465E+05 -1.195024E+04 -1.483140E+04  9.655746E-09 -1.016264E+04  6.009303E-10
        46  25 -2.449450E+05  6.557841E+02 -4.015593E+03  1.732910E+03 -3.105219E+03 -8.670765E-03
        46  26 -2.430223E+05  1.126657E+03 -6.581027E+03 -1.409387E+03 -6.633955E+03  1.506574E-02
        46  27 -2.449465E+05 -1.195020E+04 -1.483140E+04 -4.551626E+03 -1.016264E+04  7.453522E-02
        47   1  1.562206E+05 -1.284287E+05  1.504152E+05 -4.786672E+04  7.510176E+03  2.736532E+03
        47   2  1.458016E+05 -2.241049E+05  1.297415E+05 -2.378187E+04  2.220496E+04 -4.479175E+03
        47   3  1.217196E+05 -3.220646E+05  1.103912E+05 -5.534410E+04  1.967918E+04 -1.169819E+04
        47   4 -1.402599E+04 -8.116211E+05 -1.729836E+04 -5.307115E+04  7.513406E+03 -1.235252E+04
        47   5  1.250764E+03 -8.094877E+05 -7.317669E+03 -2.524360E+04  2.220810E+04 -8.413197E+03
        47   6  9.204028E+02 -8.115871E+05 -3.766475E+03 -5.306676E+04  1.967494E+04 -4.478090E+03
        47   7 -1.843070E+05 -1.494388E+06 -1.850454E+05 -5.826981E+04  7.516892E+03 -2.742499E+04
        47   8 -1.433244E+05 -1.394554E+06 -1.444002E+05 -2.670391E+04  2.221126E+04 -1.234353E+04
        47   9 -1.198958E+05 -1.300888E+06 -1.179402E+05 -5.079118E+04  1.967075E+04  2.736358E+03
        47  10  1.562205E+05 -1.284287E+05  1.504151E+05 -4.786674E+04  9.394515E-10  7.712220E-10
        47  11  1.458011E+05 -2.241050E+05  1.297405E+05 -2.378179E+04  2.463818E-09 -5.709633E-10
        47  12  1.217192E+05 -3.220648E+05  1.103903E+05 -5.534391E+04  1.914356E-09 -1.271146E-09
        47  13 -1.402609E+04 -8.116213E+05 -1.729876E+04 -5.307108E+04 -6.754300E-10 -7.350546E-11
        47  14  1.250216E+03 -8.094879E+05 -7.318729E+03 -2.524345E+04  1.407786E-09  2.115019E-10
        47  15  9.199819E+02 -8.115872E+05 -3.767240E+03 -5.306669E+04  3.930440E-10  7.326049E-11
        47  16 -1.843073E+05 -1.494388E+06 -1.850469E+05 -5.826965E+04 -6.784036E-10 -7.319834E-10
        47  17 -1.433250E+05 -1.394555E+06 -1.444014E+05 -2.670369E+04  8.358032E-10 -5.949139E-11
        47  18 -1.198962E+05 -1.300888E+06 -1.179410E+05 -5.079122E+04 -1.278170E-09  1.120218E-09
        47  19  1.562206E+05 -1.284287E+05  1.504152E+05 -4.786672E+04 -7.510176E+03 -2.736532E+03
        47  20  1.458016E+05 -2.241049E+05  1.297415E+05 -2.378187E+04 -2.220496E+04  4.479175E+03
        47  21  1.217196E+05 -3.220646E+05  1.103912E+05 -5.534410E+04 -1.967918E+04  1.169819E+04
        47  22 -1.402599E+04 -8.116211E+05 -1.729836E+04 -5.307115E+04 -7.513406E+03  1.235252E+04
        47  23  1.250764E+03 -8.094877E+05 -7.317669E+03 -2.524360E+04 -2.220810E+04  8.413197E+03
        47  24  9.204028E+02 -8.115871E+05 -3.766475E+03 -5.306676E+04 -1.967494E+04  4.478090E+03
        47  25 -1.843070E+05 -1.494388E+06 -1.850454E+05 -5.826981E+04 -7.516892E+03  2.742499E+04
        47  26 -1.433244E+05 -1.394554E+06 -1.444002E+05 -2.670391E+04 -2.221126E+04  1.234353E+04
        47  27 -1.198958E+05 -1.300888E+06 -1.179402E+05 -5.079118E+04 -1.967075E+04 -2.736358E+03
        48   1  9.449535E+04 -4.230785E+05  8.812854E+04 -5.338505E+04  1.484135E+04 -5.960391E+03
        48   2  7.157163E+04 -5.207715E+05  6.791662E+04 -2.492937E+04  1.139198E+04 -6.556663E+03
        48   3  4.897830E+04 -6.183641E+05  4.816016E+04 -5.324923E+04  7.186074E+03 -7.155571E+03
        48   4 -1.203902E+03 -8.106236E+05 -2.563658E+03 -5.331974E+04  1.484029E+04 -3.969542E+03
        48   5  1.791530E+01 -8.106188E+05  2.053227E+02 -2.492988E+04  1.138995E+04 -4.076140E+03
        48   6  1.485597E+03 -8.106078E+05  3.089702E+03 -5.331718E+04  7.182897E+03 -4.185465E+03
        48   7 -9.691383E+04 -1.198030E+06 -9.326608E+04 -5.325445E+04  1.483923E+04 -1.979929E+03
        48   8 -7.154176E+04 -1.100389E+06 -6.751166E+04 -2.493036E+04  1.138793E+04 -1.596768E+03
        48   9 -4.600973E+04 -1.002817E+06 -4.198326E+04 -5.338509E+04  7.179719E+03 -1.216274E+03
        48  10  9.449510E+04 -4.230786E+05  8.812806E+04 -5.338497E+04 -8.349168E-10  1.150283E-09
        48  11  7.157148E+04 -5.207715E+05  6.791629E+04 -2.492931E+04  3.384951E-10 -9.003262E-10
        48  12  4.897823E+04 -6.183641E+05  4.815997E+04 -5.324919E+04 -2.285503E-10 -1.277112E-09
        48  13 -1.204143E+03 -8.106237E+05 -2.564101E+03 -5.331969E+04 -1.336616E-09  1.815988E-11
        48  14  1.777158E+01 -8.106188E+05  2.050478E+02 -2.492984E+04  4.895522E-10  5.215606E-10
        48  15  1.485537E+03 -8.106079E+05  3.089572E+03 -5.331715E+04 -2.154636E-09  8.066997E-11
        48  16 -9.691406E+04 -1.198030E+06 -9.326650E+04 -5.325442E+04 -8.336533E-10 -7.225580E-10
        48  17 -7.154190E+04 -1.100389E+06 -6.751191E+04 -2.493035E+04  1.772503E-09 -4.573925E-10
        48  18 -4.600979E+04 -1.002818E+06 -4.198335E+04 -5.338509E+04 -1.929148E-09  1.029718E-09
        48  19  9.449535E+04 -4.230785E+05  8.812854E+04 -5.338505E+04 -1.484135E+04  5.960391E+03
        48  20  7.157163E+04 -5.207715E+05  6.791662E+04 -2.492937E+04 -1.139198E+04  6.556663E+03
        48  21  4.897830E+04 -6.183641E+05  4.816016E+04 -5.324923E+04 -7.186074E+03  7.155571E+03
        48  22 -1.203902E+03 -8.106236E+05 -2.563658E+03 -5.331974E+04 -1.484029E+04  3.969542E+03
        48  23  1.791530E+01 -8.106188E+05  2.053227E+02 -2.492988E+04 -1.138995E+04  4.076140E+03
        48  24  1.485597E+03 -8.106078E+05  3.089702E+03 -5.331718E+04 -7.182897E+03  4.185465E+03
        48  25 -9.691383E+04 -1.198030E+06 -9.326608E+04 -5.325445E+04 -1.483923E+04  1.979929E+03
        48  26 -7.154176E+04 -1.100389E+06 -6.751166E+04 -2.493036E+04 -1.138793E+04  1.596768E+03
        48  27 -4.600973E+04 -1.002817E+06 -4.198326E+04 -5.338509E+04 -7.179719E+03  1.216274E+03
        49   1  2.129682E+04 -7.197830E+05  2.516061E+04 -5.564892E+04  3.951066E+03 -8.617359E+03
        49   2 -3.391867E+03 -8.199536E+05  6.197861E+03 -2.307508E+04 -1.209531E+02 -1.064227E+04
        49   3 -1.092529E+04 -9.157099E+05 -7.190134E+03 -4.736708E+04 -5.460740E+02 -1.266306E+04
        49   4 -8.338415E+02 -8.095336E+05  4.365282E+03 -5.334327E+04  3.946644E+03 -4.798975E+03
        49   5 -1.391988E+03 -8.119370E+05  8.148676E+03 -2.490165E+04 -1.225731E+02 -9.185243E+03
        49   6  1.561522E+04 -8.095270E+05  1.914762E+04 -5.332509E+04 -5.449055E+02 -1.356767E+04
        49   7 -2.296505E+04 -8.992767E+05 -1.643053E+04 -5.103796E+04  3.942251E+03 -9.811396E+02
        49   8  6.078993E+02 -8.039203E+05  1.009950E+04 -2.672824E+04 -1.242017E+02 -7.728195E+03
        49   9  4.215502E+04 -7.033339E+05  4.548456E+04 -5.928412E+04 -5.437198E+02 -1.447244E+04
        49  10  2.129679E+04 -7.197831E+05  2.516044E+04 -5.564889E+04  5.500100E-10  9.297314E-10
        49  11 -3.391898E+03 -8.199537E+05  6.197648E+03 -2.307508E+04 -2.505043E-09 -1.248049E-09
        49  12 -1.092534E+04 -9.157100E+05 -7.190437E+03 -4.736708E+04 -2.392983E-09 -9.477624E-10
        49  13 -8.338644E+02 -8.095336E+05  4.365210E+03 -5.334326E+04 -2.261211E-09  6.877814E-11
        49  14 -1.392011E+03 -8.119371E+05  8.148517E+03 -2.490165E+04 -1.057122E-09  6.435047E-10
        49  15  1.561517E+04 -8.095272E+05  1.914727E+04 -5.332509E+04  9.522852E-10  5.828641E-11
        49  16 -2.296506E+04 -8.992767E+05 -1.643056E+04 -5.103796E+04 -6.675147E-10 -2.060212E-10
        49  17  6.078833E+02 -8.039204E+05  1.009938E+04 -2.672824E+04  1.532689E-09 -6.183968E-10
        49  18  4.215497E+04 -7.033341E+05  4.548416E+04 -5.928412E+04  9.863282E-11  6.125523E-10
        49  19  2.129682E+04 -7.197830E+05  2.516061E+04 -5.564892E+04 -3.951066E+03  8.617359E+03
        49  20 -3.391867E+03 -8.199536E+05  6.197861E+03 -2.307508E+04  1.209531E+02  1.064227E+04
        49  21 -1.092529E+04 -9.157099E+05 -7.190134E+03 -4.736708E+04  5.460740E+02  1.266306E+04
        49  22 -8.338415E+02 -8.095336E+05  4.365282E+03 -5.334327E+04 -3.946644E+03  4.798975E+03
        49  23 -1.391988E+03 -8.119370E+05  8.148676E+03 -2.490165E+04  1.225731E+02  9.185243E+03
        49  24  1.561522E+04 -8.095270E+05  1.914762E+04 -5.332509E+04  5.449055E+02  1.356767E+04
        49  25 -2.296505E+04 -8.992767E+05 -1.643053E+04 -5.103796E+04 -3.942251E+03  9.811396E+02
        49  26  6.078993E+02 -8.039203E+05  1.009950E+04 -2.672824E+04  1.242017E+02  7.728195E+03
        49  27  4.215502E+04 -7.033339E+05  4.548456E+04 -5.928412E+04  5.437198E+02  1.447244E+04
        50   1 -8.020689E+05 -1.579779E+05 -4.366411E+04 -2.990533E+05 -1.351900E+04 -3.775596E+03
        50   2 -7.890937E+05 -1.329913E+05 -2.871201E+04 -2.931806E+05 -8.770402E+03  4.974969E+02
        50   3 -7.761005E+05 -1.295009E+05 -2.202892E+04 -2.908353E+05 -3.026856E+03  2.117465E+03
        50   4 -7.077395E+05 -1.178895E+05 -1.725017E+04 -2.687078E+05 -1.139168E+04 -2.978048E+03
        50   5 -7.070006E+05 -1.008642E+05 -7.285953E+03 -2.693564E+05 -8.250464E+03  6.923712E+02
        50   6 -7.059242E+05 -1.050152E+05 -4.315338E+03 -2.735328E+05 -4.114464E+03  1.709742E+03
        50   7 -6.134025E+05 -7.780031E+04  9.162656E+03 -2.383583E+05 -9.264025E+03 -2.180335E+03
        50   8 -6.249012E+05 -6.873655E+04  1.413947E+04 -2.455294E+05 -7.730452E+03  8.872761E+02
        50   9 -6.357427E+05 -8.052923E+04  1.339796E+04 -2.562284E+05 -5.202213E+03  1.301975E+03
        50  10 -8.020691E+05 -1.579780E+05 -4.366448E+04 -2.990534E+05 -1.591499E-10  3.254502E-11
        50  11 -7.890937E+05 -1.329914E+05 -2.871216E+04 -2.931806E+05 -1.158966E-09  3.951734E-10
        50  12 -7.761005E+05 -1.295009E+05 -2.202895E+04 -2.908353E+05 -7.181728E-10  5.995542E-10
        50  13 -7.077396E+05 -1.178896E+05 -1.725043E+04 -2.687079E+05 -2.340754E-09  1.740301E-11
        50  14 -7.070007E+05 -1.008642E+05 -7.286082E+03 -2.693564E+05 -1.885921E-09  5.597853E-10
        50  15 -7.059242E+05 -1.050152E+05 -4.315375E+03 -2.735328E+05  7.662540E-10  3.193704E-10
        50  16 -6.134026E+05 -7.780034E+04  9.162486E+03 -2.383583E+05  6.992205E-10  2.408632E-10
        50  17 -6.249013E+05 -6.873656E+04  1.413936E+04 -2.455293E+05 -1.337470E-09  3.278880E-10
        50  18 -6.357427E+05 -8.052924E+04  1.339790E+04 -2.562284E+05  1.739828E-10 -1.632594E-10
        50  19 -8.020689E+05 -1.579779E+05 -4.366411E+04 -2.990533E+05  1.351900E+04  3.775596E+03
        50  20 -7.890937E+05 -1.329913E+05 -2.871201E+04 -2.931806E+05  8.770402E+03 -4.974969E+02
        50  21 -7.761005E+05 -1.295009E+05 -2.202892E+04 -2.908353E+05  3.026856E+03 -2.117465E+03
        50  22 -7.077395E+05 -1.178895E+05 -1.725017E+04 -2.687078E+05  1.139168E+04  2.978048E+03
        50  23 -7.070006E+05 -1.008642E+05 -7.285953E+03 -2.693564E+05  8.250464E+03 -6.923712E+02
        50  24 -7.059242E+05 -1.050152E+05 -4.315338E+03 -2.735328E+05  4.114464E+03 -1.709742E+03
        50  25 -6.134025E+05 -7.780031E+04  9.162656E+03 -2.383583E+05  9.264025E+03  2.180335E+03
        50  26 -6.249012E+05 -6.873655E+04  1.413947E+04 -2.455294E+05  7.730452E+03 -8.872761E+02
        50  27 -6.357427E+05 -8.052923E+04  1.339796E+04 -2.562284E+05  5.202213E+03 -1.301975E+03
        51   1 -7.578808E+05 -1.267296E+05 -1.710674E+04 -2.873097E+05 -2.961498E+03  1.274848E+03
        51   2 -7.464427E+05 -1.165803E+05 -1.158320E+04 -2.797684E+05 -1.777108E+03  1.106940E+03
        51   3 -7.291177E+05 -1.143306E+05 -7.163876E+03 -2.793865E+05 -5.324854E+02  7.782315E+02
        51   4 -7.053381E+05 -1.066910E+05 -3.483964E+03 -2.726039E+05 -3.238079E+03  1.171158E+03
        51   5 -7.082091E+05 -1.021713E+05 -1.719220E+03 -2.692413E+05 -2.151066E+03  9.667645E+02
        51   6 -7.051742E+05 -1.055318E+05 -9.813973E+02 -2.730379E+05 -1.003856E+03  6.015676E+02
        51   7 -6.527925E+05 -8.665217E+04  1.013861E+04 -2.578969E+05 -3.514686E+03  1.067457E+03
        51   8 -6.699743E+05 -8.776237E+04  8.144573E+03 -2.587136E+05 -2.525047E+03  8.265803E+02
        51   9 -6.812304E+05 -9.673306E+04  5.200945E+03 -2.666892E+05 -1.475239E+03  4.248990E+02
        51  10 -7.578808E+05 -1.267296E+05 -1.710676E+04 -2.873097E+05 -1.578159E-09  8.047809E-10
        51  11 -7.464427E+05 -1.165803E+05 -1.158320E+04 -2.797684E+05 -5.427901E-09 -7.567452E-10
        51  12 -7.291177E+05 -1.143306E+05 -7.163877E+03 -2.793865E+05 -6.299905E-09 -3.257179E-09
        51  13 -7.053381E+05 -1.066910E+05 -3.483987E+03 -2.726039E+05 -9.671682E-10  3.784566E-10
        51  14 -7.082091E+05 -1.021713E+05 -1.719231E+03 -2.692413E+05  1.887181E-09  6.695811E-10
        51  15 -7.051742E+05 -1.055318E+05 -9.813998E+02 -2.730379E+05  3.630441E-10 -1.599440E-09
        51  16 -6.527925E+05 -8.665218E+04  1.013859E+04 -2.578969E+05  1.108945E-09 -8.867038E-11
        51  17 -6.699743E+05 -8.776237E+04  8.144559E+03 -2.587136E+05  6.595105E-09  1.203219E-09
        51  18 -6.812304E+05 -9.673306E+04  5.200940E+03 -2.666892E+05  3.986212E-09  1.665033E-10
        51  19 -7.578808E+05 -1.267296E+05 -1.710674E+04 -2.873097E+05  2.961498E+03 -1.274848E+03
        51  20 -7.464427E+05 -1.165803E+05 -1.158320E+04 -2.797684E+05  1.777108E+03 -1.106940E+03
        51  21 -7.291177E+05 -1.143306E+05 -7.163876E+03 -2.793865E+05  5.324854E+02 -7.782315E+02
        51  22 -7.053381E+05 -1.066910E+05 -3.483964E+03 -2.726039E+05  3.238079E+03 -1.171158E+03
        51  23 -7.082091E+05 -1.021713E+05 -1.719220E+03 -2.692413E+05  2.151066E+03 -9.667645E+02
        51  24 -7.051742E+05 -1.055318E+05 -9.813973E+02 -2.730379E+05  1.003856E+03 -6.015676E+02
        51  25 -6.527925E+05 -8.665217E+04  1.013861E+04 -2.578969E+05  3.514686E+03 -1.067457E+03
        51  26 -6.699743E+05 -8.776237E+04  8.144573E+03 -2.587136E+05  2.525047E+03 -8.265803E+02
        51  27 -6.812304E+05 -9.673306E+04  5.200945E+03 -2.666892E+05  1.475239E+03 -4.248990E+02
        52   1 -7.127280E+05 -1.085467E+05 -2.680341E+03 -2.750576E+05 -2.773819E+02  3.767738E+02
        52   2 -7.014374E+05 -9.971338E+04  1.354951E+03 -2.673507E+05  2.033027E+02 -2.440823E+02
        52   3 -6.836748E+05 -9.755322E+04  5.194775E+03 -2.671267E+05  6.872754E+02 -8.736190E+02
        52   4 -7.051069E+05 -1.056809E+05 -7.637448E+02 -2.729535E+05 -7.004768E+02  2.182077E+02
        52   5 -7.083361E+05 -1.022943E+05 -4.208781E+02 -2.692307E+05 -2.250627E+02 -4.046315E+02
        52   6 -7.050925E+05 -1.055800E+05 -2.693199E+02 -2.729912E+05  2.536331E+02 -1.036152E+03
        52   7 -6.974857E+05 -1.028150E+05  1.152872E+03 -2.708493E+05 -1.123582E+03  5.963765E+01
        52   8 -7.152348E+05 -1.048752E+05 -2.196729E+03 -2.711108E+05 -6.534270E+02 -5.651804E+02
        52   9 -7.265099E+05 -1.136067E+05 -5.733499E+03 -2.788555E+05 -1.799963E+02 -1.198681E+03
        52  10 -7.127280E+05 -1.085467E+05 -2.680341E+03 -2.750576E+05  3.233149E-09  3.436973E-11
        52  11 -7.014374E+05 -9.971338E+04  1.354950E+03 -2.673507E+05  2.182147E-09  1.497794E-09
        52  12 -6.836748E+05 -9.755323E+04  5.194772E+03 -2.671267E+05 -2.027334E-11  2.904246E-10
        52  13 -7.051069E+05 -1.056809E+05 -7.637458E+02 -2.729535E+05 -1.417325E-09 -1.775893E-09
        52  14 -7.083361E+05 -1.022943E+05 -4.208786E+02 -2.692307E+05  1.951297E-09 -4.629987E-10
        52  15 -7.050925E+05 -1.055800E+05 -2.693220E+02 -2.729912E+05 -8.098034E-10  7.260396E-10
        52  16 -6.974857E+05 -1.028150E+05  1.152869E+03 -2.708493E+05 -5.516751E-09 -3.551827E-09
        52  17 -7.152348E+05 -1.048752E+05 -2.196730E+03 -2.711108E+05 -2.508306E-09 -1.864214E-09
        52  18 -7.265099E+05 -1.136067E+05 -5.733502E+03 -2.788555E+05  3.742452E-09  1.271577E-09
        52  19 -7.127280E+05 -1.085467E+05 -2.680341E+03 -2.750576E+05  2.773819E+02 -3.767738E+02
        52  20 -7.014374E+05 -9.971338E+04  1.354951E+03 -2.673507E+05 -2.033027E+02  2.440823E+02
        52  21 -6.836748E+05 -9.755322E+04  5.194775E+03 -2.671267E+05 -6.872754E+02  8.736190E+02
        52  22 -7.051069E+05 -1.056809E+05 -7.637448E+02 -2.729535E+05  7.004768E+02 -2.182077E+02
        52  23 -7.083361E+05 -1.022943E+05 -4.208781E+02 -2.692307E+05  2.250627E+02  4.046315E+02
        52  24 -7.050925E+05 -1.055800E+05 -2.693199E+02 -2.729912E+05 -2.536331E+02  1.036152E+03
        52  25 -6.974857E+05 -1.028150E+05  1.152872E+03 -2.708493E+05  1.123582E+03 -5.963765E+01
        52  26 -7.152348E+05 -1.048752E+05 -2.196729E+03 -2.711108E+05  6.534270E+02  5.651804E+02
        52  27 -7.265099E+05 -1.136067E+05 -5.733499E+03 -2.788555E+05  1.799963E+02  1.198681E+03
        53   1 -6.675408E+05 -9.151710E+04  9.489578E+03 -2.627354E+05  8.808401E+02 -1.274569E+03
        53   2 -6.563288E+05 -8.284396E+04  1.317982E+04 -2.550522E+05  1.251277E+03 -1.944297E+03
        53   3 -6.386211E+05 -8.070353E+04  1.678786E+04 -2.548371E+05  1.621131E+03 -2.612270E+03
        53   4 -7.050930E+05 -1.055842E+05 -2.329812E+02 -2.729748E+05  4.505549E+02 -1.435852E+03
        53   5 -7.083405E+05 -1.023164E+05 -2.117701E+02 -2.692414E+05  8.220338E+02 -2.105210E+03
        53   6 -7.050928E+05 -1.055814E+05 -2.735453E+02 -2.729759E+05  1.192930E+03 -2.772815E+03
        53   7 -7.426433E+05 -1.196510E+05 -9.955517E+03 -2.832136E+05  2.030415E+01 -1.597122E+03
        53   8 -7.603493E+05 -1.217886E+05 -1.360352E+04 -2.834294E+05  3.928322E+02 -2.266108E+03
        53   9 -7.715605E+05 -1.304592E+05 -1.733542E+04 -2.911131E+05  7.647771E+02 -2.933343E+03
        53  10 -6.675408E+05 -9.151710E+04  9.489574E+03 -2.627354E+05 -6.448321E-12  6.217749E-10
        53  11 -6.563288E+05 -8.284397E+04  1.317981E+04 -2.550522E+05 -5.943219E-10  8.194605E-10
        53  12 -6.386212E+05 -8.070353E+04  1.678784E+04 -2.548371E+05  8.081044E-10 -2.586621E-10
        53  13 -7.050930E+05 -1.055842E+05 -2.329855E+02 -2.729748E+05 -5.360945E-10  4.581095E-10
        53  14 -7.083405E+05 -1.023164E+05 -2.117797E+02 -2.692414E+05 -2.168658E-09  4.522208E-10
        53  15 -7.050928E+05 -1.055815E+05 -2.735624E+02 -2.729759E+05 -9.330774E-10 -2.521148E-10
        53  16 -7.426433E+05 -1.196510E+05 -9.955522E+03 -2.832136E+05  1.316235E-10  1.112248E-09
        53  17 -7.603493E+05 -1.217886E+05 -1.360353E+04 -2.834294E+05  2.138813E-10 -1.705818E-10
        53  18 -7.715605E+05 -1.304592E+05 -1.733544E+04 -2.911131E+05 -2.290810E-10 -2.685309E-10
        53  19 -6.675408E+05 -9.151710E+04  9.489578E+03 -2.627354E+05 -8.808401E+02  1.274569E+03
        53  20 -6.563288E+05 -8.284396E+04  1.317982E+04 -2.550522E+05 -1.251277E+03  1.944297E+03
        53  21 -6.386211E+05 -8.070353E+04  1.678786E+04 -2.548371E+05 -1.621131E+03  2.612270E+03
        53  22 -7.050930E+05 -1.055842E+05 -2.329812E+02 -2.729748E+05 -4.505549E+02  1.435852E+03
        53  23 -7.083405E+05 -1.023164E+05 -2.117701E+02 -2.692414E+05 -8.220338E+02  2.105210E+03
        53  24 -7.050928E+05 -1.055814E+05 -2.735453E+02 -2.729759E+05 -1.192930E+03  2.772815E+03
        53  25 -7.426433E+05 -1.196510E+05 -9.955517E+03 -2.832136E+05 -2.030415E+01  1.597122E+03
        53  26 -7.603493E+05 -1.217886E+05 -1.360352E+04 -2.834294E+05 -3.928322E+02  2.266108E+03
        53  27 -7.715605E+05 -1.304592E+05 -1.733542E+04 -2.911131E+05 -7.647771E+02  2.933343E+03
        54   1 -6.226522E+05 -7.468259E+04  2.095005E+04 -2.504724E+05  1.823993E+03 -3.004478E+03
        54   2 -6.115832E+05 -6.612161E+04  2.434352E+04 -2.428789E+05  2.363670E+03 -3.601802E+03
        54   3 -5.941414E+05 -6.405876E+04  2.751446E+04 -2.426457E+05  2.901347E+03 -4.193399E+03
        54   4 -7.051186E+05 -1.055580E+05 -3.350373E+02 -2.729583E+05  1.397230E+03 -3.164508E+03
        54   5 -7.083089E+05 -1.023352E+05 -5.602779E+02 -2.692683E+05  1.940320E+03 -3.760596E+03
        54   6 -7.051270E+05 -1.056114E+05 -1.010741E+03 -2.729387E+05  2.481401E+03 -4.350957E+03
        54   7 -7.875783E+05 -1.364329E+05 -2.162068E+04 -2.954415E+05  9.705288E+02 -3.324515E+03
        54   8 -8.050253E+05 -1.385482E+05 -2.546480E+04 -2.956539E+05  1.517042E+03 -3.919363E+03
        54   9 -8.161003E+05 -1.471630E+05 -2.953684E+04 -3.032267E+05  2.061538E+03 -4.508484E+03
        54  10 -6.226522E+05 -7.468260E+04  2.095003E+04 -2.504724E+05 -7.710647E-10 -5.586111E-10
        54  11 -6.115832E+05 -6.612162E+04  2.434349E+04 -2.428789E+05 -6.669525E-10  4.342150E-10
        54  12 -5.941414E+05 -6.405878E+04  2.751441E+04 -2.426457E+05  2.138376E-09  1.010209E-09
        54  13 -7.051186E+05 -1.055580E+05 -3.350598E+02 -2.729583E+05  2.230390E-09 -2.211539E-10
        54  14 -7.083089E+05 -1.023352E+05 -5.603116E+02 -2.692683E+05  4.631689E-10  6.138509E-10
        54  15 -7.051270E+05 -1.056114E+05 -1.010789E+03 -2.729387E+05  2.759069E-09  1.387649E-09
        54  16 -7.875783E+05 -1.364329E+05 -2.162071E+04 -2.954415E+05  5.449460E-10  7.996052E-11
        54  17 -8.050253E+05 -1.385482E+05 -2.546483E+04 -2.956539E+05  1.980728E-09  5.515703E-10
        54  18 -8.161003E+05 -1.471631E+05 -2.953689E+04 -3.032267E+05  5.993416E-10  1.770398E-09
        54  19 -6.226522E+05 -7.468259E+04  2.095005E+04 -2.504724E+05 -1.823993E+03  3.004478E+03
        54  20 -6.115832E+05 -6.612161E+04  2.434352E+04 -2.428789E+05 -2.363670E+03  3.601802E+03
        54  21 -5.941414E+05 -6.405876E+04  2.751446E+04 -2.426457E+05 -2.901347E+03  4.193399E+03
        54  22 -7.051186E+05 -1.055580E+05 -3.350373E+02 -2.729583E+05 -1.397230E+03  3.164508E+03
        54  23 -7.083089E+05 -1.023352E+05 -5.602779E+02 -2.692683E+05 -1.940320E+03  3.760596E+03
        54  24 -7.051270E+05 -1.056114E+05 -1.010741E+03 -2.729387E+05 -2.481401E+03  4.350957E+03
        54  25 -7.875783E+05 -1.364329E+05 -2.162068E+04 -2.954415E+05 -9.705288E+02  3.324515E+03
        54  26 -8.050253E+05 -1.385482E+05 -2.546480E+04 -2.956539E+05 -1.517042E+03  3.919363E+03
        54  27 -8.161003E+05 -1.471630E+05 -2.953684E+04 -3.032267E+05 -2.061538E+03  4.508484E+03
        55   1 -5.784307E+05 -5.812705E+04  3.134847E+04 -2.384647E+05  3.249835E+03 -4.525928E+03
        55   2 -5.675456E+05 -4.960481E+04  3.383981E+04 -2.309004E+05  4.688955E+03 -4.767786E+03
        55   3 -5.507833E+05 -4.811871E+04  3.525620E+04 -2.303942E+05  6.117497E+03 -4.980732E+03
        55   4 -7.052073E+05 -1.055090E+05 -1.327701E+03 -2.729554E+05  2.825544E+03 -4.685151E+03
        55   5 -7.081883E+05 -1.022976E+05 -2.377508E+03 -2.693108E+05  4.281884E+03 -4.920613E+03
        55   6 -7.052959E+05 -1.061261E+05 -4.516176E+03 -2.727247E+05  5.727615E+03 -5.127170E+03
        55   7 -8.319687E+05 -1.528902E+05 -3.400533E+04 -3.074399E+05  2.401345E+03 -4.844340E+03
        55   8 -8.488120E+05 -1.549892E+05 -3.859653E+04 -3.077135E+05  3.874914E+03 -5.073402E+03
        55   9 -8.597853E+05 -1.641320E+05 -4.429053E+04 -3.150456E+05  5.337840E+03 -5.273568E+03
        55  10 -5.784307E+05 -5.812708E+04  3.134841E+04 -2.384646E+05  2.370464E-09  9.150628E-10
        55  11 -5.675456E+05 -4.960484E+04  3.383973E+04 -2.309004E+05 -3.643641E-10 -9.637956E-10
        55  12 -5.507833E+05 -4.811874E+04  3.525608E+04 -2.303941E+05 -1.540073E-10  1.493133E-10
        55  13 -7.052073E+05 -1.055091E+05 -1.327758E+03 -2.729554E+05 -2.476621E-10  8.133187E-10
        55  14 -7.081883E+05 -1.022976E+05 -2.377588E+03 -2.693108E+05 -7.643324E-10 -6.069107E-10
        55  15 -7.052960E+05 -1.061261E+05 -4.516287E+03 -2.727246E+05 -5.409522E-10  3.662237E-10
        55  16 -8.319687E+05 -1.528903E+05 -3.400538E+04 -3.074399E+05  1.861610E-10  6.432537E-10
        55  17 -8.488121E+05 -1.549893E+05 -3.859661E+04 -3.077135E+05 -1.294053E-10 -3.518350E-10
        55  18 -8.597854E+05 -1.641320E+05 -4.429063E+04 -3.150456E+05  2.355495E-09  7.898746E-10
        55  19 -5.784307E+05 -5.812705E+04  3.134847E+04 -2.384647E+05 -3.249835E+03  4.525928E+03
        55  20 -5.675456E+05 -4.960481E+04  3.383981E+04 -2.309004E+05 -4.688955E+03  4.767786E+03
        55  21 -5.507833E+05 -4.811871E+04  3.525620E+04 -2.303942E+05 -6.117497E+03  4.980732E+03
        55  22 -7.052073E+05 -1.055090E+05 -1.327701E+03 -2.729554E+05 -2.825544E+03  4.685151E+03
        55  23 -7.081883E+05 -1.022976E+05 -2.377508E+03 -2.693108E+05 -4.281884E+03  4.920613E+03
        55  24 -7.052959E+05 -1.061261E+05 -4.516176E+03 -2.727247E+05 -5.727615E+03  5.127170E+03
        55  25 -8.319687E+05 -1.528902E+05 -3.400533E+04 -3.074399E+05 -2.401345E+03  4.844340E+03
        55  26 -8.488120E+05 -1.549892E+05 -3.859653E+04 -3.077135E+05 -3.874914E+03  5.073402E+03
        55  27 -8.597853E+05 -1.641320E+05 -4.429053E+04 -3.150456E+05 -5.337840E+03  5.273568E+03
        56   1 -5.350469E+05 -4.230791E+04  3.794430E+04 -2.276871E+05  7.224334E+03 -5.068597E+03
        56   2 -5.243909E+05 -3.242079E+04  3.690938E+04 -2.188069E+05  1.255787E+04 -3.790139E+03
        56   3 -5.113082E+05 -3.675147E+04  2.988132E+04 -2.149604E+05  1.774976E+04 -2.133511E+03
        56   4 -7.057184E+05 -1.052143E+05 -5.851127E+03 -2.732201E+05  6.724511E+03 -5.256332E+03
        56   5 -7.074033E+05 -1.015734E+05 -1.033085E+04 -2.693936E+05  1.228572E+04 -3.892508E+03
        56   6 -7.067079E+05 -1.121969E+05 -2.098561E+04 -2.706006E+05  1.770519E+04 -2.150526E+03
        56   7 -8.763610E+05 -1.681189E+05 -4.964878E+04 -3.187419E+05  6.224839E+03 -5.444011E+03
        56   8 -8.903832E+05 -1.707237E+05 -5.757385E+04 -3.199667E+05  1.201367E+04 -3.994843E+03
        56   9 -9.020712E+05 -1.876397E+05 -7.185595E+04 -3.262249E+05  1.766062E+04 -2.167536E+03
        56  10 -5.350470E+05 -4.230795E+04  3.794416E+04 -2.276870E+05  1.055217E-09  1.071746E-09
        56  11 -5.243911E+05 -3.242085E+04  3.690905E+04 -2.188068E+05  3.781315E-09  9.409798E-11
        56  12 -5.113085E+05 -3.675156E+04  2.988072E+04 -2.149604E+05  2.893969E-10 -2.288231E-10
        56  13 -7.057185E+05 -1.052144E+05 -5.851263E+03 -2.732201E+05 -3.078516E-10  7.628359E-10
        56  14 -7.074035E+05 -1.015734E+05 -1.033116E+04 -2.693935E+05  5.482104E-09  1.987789E-11
        56  15 -7.067083E+05 -1.121970E+05 -2.098621E+04 -2.706005E+05 -1.143128E-09  6.999259E-10
        56  16 -8.763611E+05 -1.681190E+05 -4.964891E+04 -3.187418E+05  3.039382E-09  2.381428E-10
        56  17 -8.903833E+05 -1.707237E+05 -5.757415E+04 -3.199667E+05  3.592109E-09 -3.736037E-12
        56  18 -9.020715E+05 -1.876398E+05 -7.185655E+04 -3.262249E+05  5.321396E-10  1.096096E-09
        56  19 -5.350469E+05 -4.230791E+04  3.794430E+04 -2.276871E+05 -7.224334E+03  5.068597E+03
        56  20 -5.243909E+05 -3.242079E+04  3.690938E+04 -2.188069E+05 -1.255787E+04  3.790139E+03
        56  21 -5.113082E+05 -3.675147E+04  2.988132E+04 -2.149604E+05 -1.774976E+04  2.133511E+03
        56  22 -7.057184E+05 -1.052143E+05 -5.851127E+03 -2.732201E+05 -6.724511E+03  5.256332E+03
        56  23 -7.074033E+05 -1.015734E+05 -1.033085E+04 -2.693936E+05 -1.228572E+04  3.892508E+03
        56  24 -7.067079E+05 -1.121969E+05 -2.098561E+04 -2.706006E+05 -1.770519E+04  2.150526E+03
        56  25 -8.763610E+05 -1.681189E+05 -4.964878E+04 -3.187419E+05 -6.224839E+03  5.444011E+03
        56  26 -8.903832E+05 -1.707237E+05 -5.757385E+04 -3.199667E+05 -1.201367E+04  3.994843E+03
        56  27 -9.020712E+05 -1.876397E+05 -7.185595E+04 -3.262249E+05 -1.766062E+04  2.167536E+03
        57   1 -4.904737E+05 -3.065699E+04  2.842375E+04 -2.273790E+05  2.364183E+04 -1.276612E+03
        57   2 -4.817332E+05 -3.298764E+03  1.398158E+04 -2.016286E+05  4.381451E+04  6.201146E+03
        57   3 -5.030943E+05 -6.997439E+04 -3.965353E+04 -1.594477E+05  6.166923E+04  1.984768E+04
        57   4 -7.101498E+05 -1.021914E+05 -2.600446E+04 -2.763114E+05  2.171353E+04 -2.000716E+03
        57   5 -7.002157E+05 -9.357551E+04 -4.391736E+04 -2.699603E+05  4.561813E+04  6.877897E+03
        57   6 -7.211364E+05 -1.797544E+05 -1.039932E+05 -2.471755E+05  6.720415E+04  2.192472E+04
        57   7 -9.297788E+05 -1.737253E+05 -8.043628E+04 -3.252295E+05  1.978596E+04 -2.724624E+03
        57   8 -9.186510E+05 -1.838462E+05 -1.018203E+05 -3.382691E+05  4.742105E+04  7.554323E+03
        57   9 -9.391295E+05 -2.895189E+05 -1.683372E+05 -3.348715E+05  7.273692E+04  2.400032E+04
        57  10 -4.904743E+05 -3.065714E+04  2.842270E+04 -2.273790E+05  3.197372E-10  1.413373E-09
        57  11 -4.817353E+05 -3.299321E+03  1.397790E+04 -2.016288E+05  1.193924E-09  1.143373E-09
        57  12 -5.030985E+05 -6.997583E+04 -3.966143E+04 -1.594487E+05 -3.882995E-10  7.359606E-10
        57  13 -7.101503E+05 -1.021915E+05 -2.600536E+04 -2.763114E+05  1.660701E-10  1.059880E-10
        57  14 -7.002180E+05 -9.357612E+04 -4.392137E+04 -2.699606E+05  9.549608E-11  1.038305E-09
        57  15 -7.211414E+05 -1.797561E+05 -1.040027E+05 -2.471767E+05  4.826624E-10 -9.416003E-11
        57  16 -9.297792E+05 -1.737254E+05 -8.043703E+04 -3.252294E+05  6.277956E-10  7.165389E-10
        57  17 -9.186535E+05 -1.838468E+05 -1.018246E+05 -3.382694E+05 -3.627119E-10  5.104522E-10
        57  18 -9.391354E+05 -2.895209E+05 -1.683482E+05 -3.348729E+05 -2.027580E-09  2.164940E-10
        57  19 -4.904737E+05 -3.065699E+04  2.842375E+04 -2.273790E+05 -2.364183E+04  1.276612E+03
        57  20 -4.817332E+05 -3.298764E+03  1.398158E+04 -2.016286E+05 -4.381451E+04 -6.201146E+03
        57  21 -5.030943E+05 -6.997439E+04 -3.965353E+04 -1.594477E+05 -6.166923E+04 -1.984768E+04
        57  22 -7.101498E+05 -1.021914E+05 -2.600446E+04 -2.763114E+05 -2.171353E+04  2.000716E+03
        57  23 -7.002157E+05 -9.357551E+04 -4.391736E+04 -2.699603E+05 -4.561813E+04 -6.877897E+03
        57  24 -7.211364E+05 -1.797544E+05 -1.039932E+05 -2.471755E+05 -6.720415E+04 -2.192472E+04
        57  25 -9.297788E+05 -1.737253E+05 -8.043628E+04 -3.252295E+05 -1.978596E+04  2.724624E+03
        57  26 -9.186510E+05 -1.838462E+05 -1.018203E+05 -3.382691E+05 -4.742105E+04 -7.554323E+03
        57  27 -9.391295E+05 -2.895189E+05 -1.683372E+05 -3.348715E+05 -7.273692E+04 -2.400032E+04
        58   1  1.037196E+04  3.047984E+04  3.783023E+04  1.161227E+04  2.592496E+04  4.849033E-01
        58   2  5.466595E+03 -2.872805E+03  1.678787E+04  3.595752E+03  1.692339E+04  9.801639E-02
        58   3  1.037178E+04 -1.672590E+03  1.024450E+04 -4.420811E+03  7.921657E+03 -5.640742E-02
        58   4  1.037181E+04  3.047959E+04  3.783019E+04 -3.537565E-09  2.592496E+04 -4.102252E-10
        58   5  5.466581E+03 -2.872830E+03  1.678786E+04 -4.084116E-09  1.692339E+04 -5.437582E-10
        58   6  1.037176E+04 -1.672627E+03  1.024450E+04 -2.477208E-09  7.921657E+03  7.398952E-10
        58   7  1.037196E+04  3.047984E+04  3.783023E+04 -1.161227E+04  2.592496E+04 -4.849033E-01
        58   8  5.466595E+03 -2.872805E+03  1.678787E+04 -3.595752E+03  1.692339E+04 -9.801639E-02
        58   9  1.037178E+04 -1.672590E+03  1.024450E+04  4.420811E+03  7.921657E+03  5.640742E-02
        58  10  1.037124E+04  3.047966E+04  3.782897E+04  1.161227E+04 -8.786734E-10 -2.618334E-10
        58  11  5.466288E+03 -2.872882E+03  1.678733E+04  3.595752E+03 -8.914506E-10 -5.400428E-10
        58  12  1.037171E+04 -1.672607E+03  1.024438E+04 -4.420811E+03 -3.195356E-09  8.720813E-11
        58  13  1.037109E+04  3.047941E+04  3.782893E+04  7.375314E-10  1.080072E-09 -1.089144E-10
        58  14  5.466274E+03 -2.872906E+03  1.678732E+04  9.930658E-09 -1.076023E-09 -1.913817E-10
        58  15  1.037169E+04 -1.672644E+03  1.024438E+04  6.200491E-09 -1.080183E-09  1.614536E-10
        58  16  1.037124E+04  3.047966E+04  3.782897E+04 -1.161227E+04  3.469669E-10  3.104746E-11
        58  17  5.466288E+03 -2.872882E+03  1.678733E+04 -3.595752E+03  3.586354E-09  1.588416E-10
        58  18  1.037171E+04 -1.672607E+03  1.024438E+04  4.420811E+03  2.042500E-09  2.365532E-10
        58  19  1.037196E+04  3.047984E+04  3.783023E+04  1.161227E+04 -2.592496E+04 -4.849033E-01
        58  20  5.466595E+03 -2.872805E+03  1.678787E+04  3.595752E+03 -1.692339E+04 -9.801639E-02
        58  21  1.037178E+04 -1.672590E+03  1.024450E+04 -4.420811E+03 -7.921657E+03  5.640742E-02
        58  22  1.037181E+04  3.047959E+04  3.783019E+04  2.857455E-09 -2.592496E+04  1.901399E-10
        58  23  5.466581E+03 -2.872830E+03  1.678786E+04  1.102222E-08 -1.692339E+04  1.505194E-10
        58  24  1.037176E+04 -1.672627E+03  1.024450E+04  7.877873E-09 -7.921657E+03 -4.158222E-10
        58  25  1.037196E+04  3.047984E+04  3.783023E+04 -1.161227E+04 -2.592496E+04  4.849033E-01
        58  26  5.466595E+03 -2.872805E+03  1.678787E+04 -3.595752E+03 -1.692339E+04  9.801639E-02
        58  27  1.037178E+04 -1.672590E+03  1.024450E+04  4.420811E+03 -7.921657E+03 -5.640742E-02
        59   1  8.419253E+03  2.566277E+03  8.280375E+03  8.360684E+02  6.383607E+03  8.596618E-03
        59   2  7.907104E+03 -2.674589E+02  4.304812E+03  2.094868E+02  4.196722E+03  1.416076E-03
        59   3  8.419255E+03 -1.430174E+02  2.492562E+03 -4.170954E+02  2.009843E+03 -1.350259E-03
        59   4  8.419252E+03  2.566275E+03  8.280375E+03 -1.584914E-08  6.383607E+03  8.412025E-10
        59   5  7.907104E+03 -2.674590E+02  4.304812E+03 -7.854350E-09  4.196722E+03 -2.352240E-10
        59   6  8.419254E+03 -1.430178E+02  2.492562E+03 -2.013543E-09  2.009843E+03 -2.059612E-10
        59   7  8.419253E+03  2.566277E+03  8.280375E+03 -8.360684E+02  6.383607E+03 -8.596617E-03
        59   8  7.907104E+03 -2.674589E+02  4.304812E+03 -2.094868E+02  4.196722E+03 -1.416076E-03
        59   9  8.419255E+03 -1.430174E+02  2.492562E+03  4.170954E+02  2.009843E+03  1.350258E-03
        59  10  8.419209E+03  2.566266E+03  8.280298E+03  8.360684E+02  3.887144E-10  2.718912E-10
        59  11  7.907085E+03 -2.674636E+02  4.304779E+03  2.094868E+02  1.033338E-10 -9.840076E-11
        59  12  8.419250E+03 -1.430185E+02  2.492554E+03 -4.170954E+02  1.697787E-09 -1.359969E-10
        59  13  8.419209E+03  2.566264E+03  8.280298E+03 -2.991350E-09  2.565822E-12  1.494977E-10
        59  14  7.907085E+03 -2.674637E+02  4.304779E+03 -3.563466E-09  5.423394E-10 -2.404493E-10
        59  15  8.419250E+03 -1.430189E+02  2.492554E+03  4.480312E-09 -1.886229E-09 -1.703783E-10
        59  16  8.419209E+03  2.566266E+03  8.280298E+03 -8.360684E+02 -9.282262E-10  2.544764E-11
        59  17  7.907085E+03 -2.674636E+02  4.304779E+03 -2.094868E+02 -3.685989E-10 -3.834421E-10
        59  18  8.419250E+03 -1.430185E+02  2.492554E+03  4.170954E+02 -1.224358E-09 -2.052347E-10
        59  19  8.419253E+03  2.566277E+03  8.280375E+03  8.360684E+02 -6.383607E+03 -8.596618E-03
        59  20  7.907104E+03 -2.674589E+02  4.304812E+03  2.094868E+02 -4.196722E+03 -1.416076E-03
        59  21  8.419255E+03 -1.430174E+02  2.492562E+03 -4.170954E+02 -2.009843E+03  1.350258E-03
        59  22  8.419252E+03  2.566275E+03  8.280375E+03 -3.057418E-09 -6.383607E+03 -5.429635E-10
        59  23  7.907104E+03 -2.674590E+02  4.304812E+03  7.274154E-10 -4.196722E+03 -2.462214E-10
        59  24  8.419254E+03 -1.430178E+02  2.492562E+03 -1.680328E-09 -2.009843E+03 -1.350056E-10
        59  25  8.419253E+03  2.566277E+03  8.280375E+03 -8.360684E+02 -6.383607E+03  8.596617E-03
        59  26  7.907104E+03 -2.674589E+02  4.304812E+03 -2.094868E+02 -4.196722E+03  1.416076E-03
        59  27  8.419255E+03 -1.430174E+02  2.492562E+03  4.170954E+02 -2.009843E+03 -1.350259E-03
        60   1  8.219867E+03  2.083475E+02  1.907119E+03  3.072735E+01  1.622816E+03  8.031751E-05
        60   2  8.156337E+03 -2.741184E+01  9.869500E+02 -9.656127E+00  1.130210E+03 -1.757981E-05
        60   3  8.219870E+03 -1.146878E+01  4.504031E+02 -5.003903E+01  6.376125E+02 -5.139032E-05
        60   4  8.219867E+03  2.083475E+02  1.907119E+03  1.088983E-08  1.622816E+03 -6.652543E-10
        60   5  8.156337E+03 -2.741184E+01  9.869500E+02  8.846007E-09  1.130210E+03 -1.434452E-09
        60   6  8.219870E+03 -1.146879E+01  4.504031E+02  1.417376E-09  6.376125E+02  2.272083E-10
        60   7  8.219867E+03  2.083475E+02  1.907119E+03 -3.072735E+01  1.622816E+03 -8.031883E-05
        60   8  8.156337E+03 -2.741184E+01  9.869500E+02  9.656127E+00  1.130210E+03  1.757695E-05
        60   9  8.219870E+03 -1.146878E+01  4.504031E+02  5.003903E+01  6.376125E+02  5.139079E-05
        60  10  8.219864E+03  2.083468E+02  1.907114E+03  3.072735E+01  1.195921E-09 -4.127922E-10
        60  11  8.156336E+03 -2.741219E+01  9.869476E+02 -9.656127E+00  1.155560E-09 -6.776458E-10
        60  12  8.219869E+03 -1.146889E+01  4.504023E+02 -5.003903E+01  1.056735E-09  3.968225E-10
        60  13  8.219864E+03  2.083468E+02  1.907114E+03  1.508656E-08 -1.079595E-09 -4.249929E-10
        60  14  8.156336E+03 -2.741219E+01  9.869476E+02  2.415532E-09  2.154154E-09 -8.006306E-10
        60  15  8.219869E+03 -1.146890E+01  4.504023E+02 -9.178624E-09  2.955867E-09  1.640547E-10
        60  16  8.219864E+03  2.083468E+02  1.907114E+03 -3.072735E+01 -2.277481E-09 -4.375621E-10
        60  17  8.156336E+03 -2.741219E+01  9.869476E+02  9.656127E+00  4.504875E-10 -9.237996E-10
        60  18  8.219869E+03 -1.146889E+01  4.504023E+02  5.003903E+01  3.385097E-09 -6.794844E-11
        60  19  8.219867E+03  2.083475E+02  1.907119E+03  3.072735E+01 -1.622816E+03 -8.031832E-05
        60  20  8.156337E+03 -2.741184E+01  9.869500E+02 -9.656127E+00 -1.130210E+03  1.757847E-05
        60  21  8.219870E+03 -1.146878E+01  4.504031E+02 -5.003903E+01 -6.376125E+02  5.139113E-05
        60  22  8.219867E+03  2.083475E+02  1.907119E+03  6.359640E-09 -1.622816E+03 -1.848702E-10
        60  23  8.156337E+03 -2.741184E+01  9.869500E+02  2.928919E-10 -1.130210E+03 -1.669118E-10
        60  24  8.219870E+03 -1.146879E+01  4.504031E+02  4.457387E-09 -6.376125E+02  1.010469E-10
        60  25  8.219867E+03  2.083475E+02  1.907119E+03 -3.072735E+01 -1.622816E+03  8.031801E-05
        60  26  8.156337E+03 -2.741184E+01  9.869500E+02  9.656127E+00 -1.130210E+03 -1.757882E-05
        60  27  8.219870E+03 -1.146878E+01  4.504031E+02  5.003903E+01 -6.376125E+02 -5.139091E-05
        61   1  8.190238E+03  1.548225E+01  2.440741E+02 -1.367780E+01  5.755855E+02 -1.267981E-05
        61   2  8.193380E+03  2.004260E-01 -1.395624E+02 -1.916384E+01  6.442912E+02 -1.988759E-05
        61   3  8.190240E+03 -4.432620E+00 -5.652632E+02 -2.464997E+01  7.129979E+02 -2.830852E-05
        61   4  8.190238E+03  1.548225E+01  2.440741E+02 -1.915819E-09  5.755855E+02  7.157679E-10
        61   5  8.193380E+03  2.004253E-01 -1.395624E+02 -2.476046E-09  6.442912E+02 -2.600774E-11
        61   6  8.190240E+03 -4.432621E+00 -5.652632E+02  3.156376E-09  7.129979E+02  4.819824E-10
        61   7  8.190238E+03  1.548225E+01  2.440741E+02  1.367780E+01  5.755855E+02  1.268123E-05
        61   8  8.193380E+03  2.004260E-01 -1.395624E+02  1.916384E+01  6.442912E+02  1.988752E-05
        61   9  8.190240E+03 -4.432620E+00 -5.652632E+02  2.464997E+01  7.129979E+02  2.830950E-05
        61  10  8.190237E+03  1.548216E+01  2.440735E+02 -1.367780E+01 -1.599633E-10  7.514565E-10
        61  11  8.193379E+03  2.003146E-01 -1.395631E+02 -1.916384E+01 -3.467704E-10  1.942865E-10
        61  12  8.190239E+03 -4.432756E+00 -5.652642E+02 -2.464997E+01 -7.334893E-10 -1.132427E-10
        61  13  8.190237E+03  1.548216E+01  2.440735E+02  1.742511E-10  2.629349E-13  5.093325E-10
        61  14  8.193379E+03  2.003139E-01 -1.395631E+02 -3.585718E-09 -1.485580E-12  5.488469E-11
        61  15  8.190239E+03 -4.432758E+00 -5.652642E+02  1.096295E-08  8.113384E-10 -1.064533E-10
        61  16  8.190237E+03  1.548216E+01  2.440735E+02  1.367780E+01  6.995763E-10  2.668024E-10
        61  17  8.193379E+03  2.003146E-01 -1.395631E+02  1.916384E+01  6.130436E-10 -8.560362E-11
        61  18  8.190239E+03 -4.432756E+00 -5.652642E+02  2.464997E+01 -4.111030E-10 -1.000273E-10
        61  19  8.190238E+03  1.548225E+01  2.440741E+02 -1.367780E+01 -5.755855E+02  1.268131E-05
        61  20  8.193380E+03  2.004260E-01 -1.395624E+02 -1.916384E+01 -6.442912E+02  1.988798E-05
        61  21  8.190240E+03 -4.432620E+00 -5.652632E+02 -2.464997E+01 -7.129979E+02  2.830829E-05
        61  22  8.190238E+03  1.548225E+01  2.440741E+02  6.572084E-09 -5.755855E+02  3.030651E-10
        61  23  8.193380E+03  2.004253E-01 -1.395624E+02  1.766419E-09 -6.442912E+02  1.354600E-10
        61  24  8.190240E+03 -4.432621E+00 -5.652632E+02  3.691742E-09 -7.129979E+02 -6.944003E-10
        61  25  8.190238E+03  1.548225E+01  2.440741E+02  1.367780E+01 -5.755855E+02 -1.268071E-05
        61  26  8.193380E+03  2.004260E-01 -1.395624E+02  1.916384E+01 -6.442912E+02 -1.988771E-05
        61  27  8.190240E+03 -4.432620E+00 -5.652632E+02  2.464997E+01 -7.129979E+02 -2.830968E-05
        62   1  8.161773E+03  6.934254E+00 -8.320329E+02 -4.017445E+01  8.393542E+02 -5.431351E-05
        62   2  8.228968E+03  2.209261E+01 -1.585706E+03 -4.215205E+01  1.625134E+03 -1.103382E-04
        62   3  8.161780E+03 -9.102984E+01 -2.883018E+03 -4.412965E+01  2.410913E+03 -1.713700E-04
        62   4  8.161773E+03  6.934251E+00 -8.320329E+02  8.385190E-10  8.393542E+02  7.041277E-10
        62   5  8.228968E+03  2.209260E+01 -1.585706E+03 -1.103785E-08  1.625134E+03 -1.325852E-11
        62   6  8.161780E+03 -9.102985E+01 -2.883018E+03  5.625676E-09  2.410913E+03 -1.012717E-09
        62   7  8.161773E+03  6.934254E+00 -8.320329E+02  4.017445E+01  8.393542E+02  5.431493E-05
        62   8  8.228968E+03  2.209261E+01 -1.585706E+03  4.215205E+01  1.625134E+03  1.103382E-04
        62   9  8.161780E+03 -9.102984E+01 -2.883018E+03  4.412965E+01  2.410913E+03  1.713679E-04
        62  10  8.161772E+03  6.934065E+00 -8.320342E+02 -4.017445E+01 -5.150631E-10  3.440691E-10
        62  11  8.228965E+03  2.209190E+01 -1.585711E+03 -4.215205E+01  1.063311E-09  7.632305E-10
        62  12  8.161774E+03 -9.103140E+01 -2.883029E+03 -4.412965E+01  2.499972E-09 -8.360561E-10
        62  13  8.161772E+03  6.934062E+00 -8.320342E+02  3.078947E-09  2.160391E-09  1.896308E-10
        62  14  8.228965E+03  2.209190E+01 -1.585711E+03  2.919859E-09 -1.070539E-09  3.935101E-10
        62  15  8.161774E+03 -9.103141E+01 -2.883029E+03 -6.932007E-09 -4.031025E-10 -6.191099E-10
        62  16  8.161772E+03  6.934065E+00 -8.320342E+02  4.017445E+01  5.166723E-10  3.393508E-11
        62  17  8.228965E+03  2.209190E+01 -1.585711E+03  4.215205E+01  1.092185E-09  2.173006E-11
        62  18  8.161774E+03 -9.103140E+01 -2.883029E+03  4.412965E+01  5.558647E-11 -4.028588E-10
        62  19  8.161773E+03  6.934254E+00 -8.320329E+02 -4.017445E+01 -8.393542E+02  5.431419E-05
        62  20  8.228968E+03  2.209261E+01 -1.585706E+03 -4.215205E+01 -1.625134E+03  1.103398E-04
        62  21  8.161780E+03 -9.102984E+01 -2.883018E+03 -4.412965E+01 -2.410913E+03  1.713683E-04
        62  22  8.161773E+03  6.934251E+00 -8.320329E+02  7.473357E-09 -8.393542E+02 -3.251570E-10
        62  23  8.228968E+03  2.209260E+01 -1.585706E+03  3.953879E-09 -1.625134E+03  8.008339E-10
        62  24  8.161780E+03 -9.102985E+01 -2.883018E+03 -6.565970E-09 -2.410913E+03 -2.305601E-10
        62  25  8.161773E+03  6.934254E+00 -8.320329E+02  4.017445E+01 -8.393542E+02 -5.431488E-05
        62  26  8.228968E+03  2.209261E+01 -1.585706E+03  4.215205E+01 -1.625134E+03 -1.103382E-04
        62  27  8.161780E+03 -9.102984E+01 -2.883018E+03  4.412965E+01 -2.410913E+03 -1.713688E-04
        63   1  8.010884E+03  7.457497E+01 -3.799708E+03 -2.732627E+02  3.011013E+03 -1.325295E-03
        63   2  8.417621E+03  1.717604E+02 -6.610903E+03 -3.891306E+01  6.307644E+03 -3.953495E-04
        63   3  8.010944E+03 -1.267767E+03 -1.195244E+04  1.954337E+02  9.604211E+03  3.023293E-03
        63   4  8.010884E+03  7.457483E+01 -3.799708E+03 -6.150971E-10  3.011013E+03 -4.911719E-10
        63   5  8.417621E+03  1.717604E+02 -6.610903E+03 -5.694119E-09  6.307644E+03  8.345495E-10
        63   6  8.010944E+03 -1.267767E+03 -1.195244E+04 -3.503521E-09  9.604211E+03 -4.639168E-10
        63   7  8.010884E+03  7.457497E+01 -3.799708E+03  2.732627E+02  3.011013E+03  1.325294E-03
        63   8  8.417621E+03  1.717604E+02 -6.610903E+03  3.891306E+01  6.307644E+03  3.953511E-04
        63   9  8.010944E+03 -1.267767E+03 -1.195244E+04 -1.954337E+02  9.604211E+03 -3.023294E-03
        63  10  8.010874E+03  7.457254E+01 -3.799725E+03 -2.732627E+02  2.871678E-10 -9.092985E-10
        63  11  8.417578E+03  1.717497E+02 -6.610978E+03 -3.891306E+01  1.514143E-09  3.926011E-10
        63  12  8.010845E+03 -1.267792E+03 -1.195262E+04  1.954337E+02  6.084842E-10 -4.047857E-10
        63  13  8.010874E+03  7.457240E+01 -3.799725E+03 -3.902288E-10  5.258689E-12 -4.433972E-10
        63  14  8.417578E+03  1.717497E+02 -6.610978E+03 -7.832608E-09 -1.080217E-09  6.880247E-10
        63  15  8.010845E+03 -1.267792E+03 -1.195262E+04 -8.813031E-09 -8.086908E-10 -1.503500E-10
        63  16  8.010874E+03  7.457254E+01 -3.799725E+03  2.732627E+02  7.952836E-10  1.952362E-11
        63  17  8.417578E+03  1.717497E+02 -6.610978E+03  3.891306E+01 -1.524666E-09  9.800618E-10
        63  18  8.010845E+03 -1.267792E+03 -1.195262E+04 -1.954337E+02 -1.550918E-09  1.092066E-10
        63  19  8.010884E+03  7.457497E+01 -3.799708E+03 -2.732627E+02 -3.011013E+03  1.325294E-03
        63  20  8.417621E+03  1.717604E+02 -6.610903E+03 -3.891306E+01 -6.307644E+03  3.953504E-04
        63  21  8.010944E+03 -1.267767E+03 -1.195244E+04  1.954337E+02 -9.604211E+03 -3.023294E-03
        63  22  8.010884E+03  7.457483E+01 -3.799708E+03 -4.473175E-09 -3.011013E+03 -3.957285E-10
        63  23  8.417621E+03  1.717604E+02 -6.610903E+03 -5.663021E-09 -6.307644E+03  5.396118E-10
        63  24  8.010944E+03 -1.267767E+03 -1.195244E+04  1.763047E-09 -9.604211E+03  1.897043E-10
        63  25  8.010884E+03  7.457497E+01 -3.799708E+03  2.732627E+02 -3.011013E+03 -1.325294E-03
        63  26  8.417621E+03  1.717604E+02 -6.610903E+03  3.891306E+01 -6.307644E+03 -3.953493E-04
        63  27  8.010944E+03 -1.267767E+03 -1.195244E+04 -1.954337E+02 -9.604211E+03  3.023294E-03
        64   1  6.804358E+03  8.725066E+02 -1.543057E+04 -2.530347E+03  1.201481E+04 -4.896853E-02
        64   2  9.926228E+03  1.628959E+03 -2.634498E+04  1.280156E+03  2.539700E+04  5.236764E-02
        64   3  6.805110E+03 -1.561870E+04 -5.047154E+04  5.090736E+03  3.877921E+04  3.179787E-01
        64   4  6.804351E+03  8.724945E+02 -1.543057E+04 -7.463881E-09  1.201481E+04 -9.701745E-10
        64   5  9.926226E+03  1.628956E+03 -2.634498E+04  5.258173E-09  2.539700E+04 -4.751381E-10
        64   6  6.805082E+03 -1.561875E+04 -5.047155E+04  7.748491E-09  3.877921E+04 -1.325077E-09
        64   7  6.804358E+03  8.725066E+02 -1.543057E+04  2.530347E+03  1.201481E+04  4.896853E-02
        64   8  9.926228E+03  1.628959E+03 -2.634498E+04 -1.280156E+03  2.539700E+04 -5.236764E-02
        64   9  6.805110E+03 -1.561870E+04 -5.047154E+04 -5.090736E+03  3.877921E+04 -3.179787E-01
        64  10  6.804203E+03  8.724678E+02 -1.543084E+04 -2.530347E+03 -3.432550E-10 -7.711949E-10
        64  11  9.925535E+03  1.628786E+03 -2.634619E+04  1.280156E+03 -7.845511E-11 -2.132319E-10
        64  12  6.803495E+03 -1.561910E+04 -5.047436E+04  5.090736E+03  3.147839E-10 -2.114223E-10
        64  13  6.804196E+03  8.724558E+02 -1.543085E+04 -9.426390E-10 -1.072756E-09 -5.864348E-10
        64  14  9.925534E+03  1.628783E+03 -2.634619E+04  1.496510E-08 -5.332188E-10 -2.440235E-10
        64  15  6.803467E+03 -1.561915E+04 -5.047437E+04  5.025001E-09 -1.753651E-09 -3.223915E-10
        64  16  6.804203E+03  8.724678E+02 -1.543084E+04  2.530347E+03  1.428690E-09 -4.039321E-10
        64  17  9.925535E+03  1.628786E+03 -2.634619E+04 -1.280156E+03  8.996052E-10 -2.802170E-10
        64  18  6.803495E+03 -1.561910E+04 -5.047436E+04 -5.090736E+03 -1.928063E-09 -4.537774E-10
        64  19  6.804358E+03  8.725066E+02 -1.543057E+04 -2.530347E+03 -1.201481E+04  4.896853E-02
        64  20  9.926228E+03  1.628959E+03 -2.634498E+04  1.280156E+03 -2.539700E+04 -5.236764E-02
        64  21  6.805110E+03 -1.561870E+04 -5.047154E+04  5.090736E+03 -3.877921E+04 -3.179787E-01
        64  22  6.804351E+03  8.724945E+02 -1.543057E+04  1.270682E-09 -1.201481E+04 -2.012312E-10
        64  23  9.926226E+03  1.628956E+03 -2.634498E+04  5.286383E-09 -2.539700E+04 -1.049227E-11
        64  24  6.805082E+03 -1.561875E+04 -5.047155E+04  5.532282E-09 -3.877921E+04  6.801734E-10
        64  25  6.804358E+03  8.725066E+02 -1.543057E+04  2.530347E+03 -1.201481E+04 -4.896853E-02
        64  26  9.926228E+03  1.628959E+03 -2.634498E+04 -1.280156E+03 -2.539700E+04  5.236764E-02
        64  27  6.805110E+03 -1.561870E+04 -5.047154E+04 -5.090736E+03 -3.877921E+04  3.179787E-01
        65   1 -5.073746E+03  1.018213E+04 -6.239914E+04 -2.690305E+04  4.815006E+04 -2.086533E+00
        65   2  2.478100E+04  1.748529E+04 -1.021693E+05  2.188729E+04  1.029510E+05  3.629347E+00
        65   3 -5.061430E+03 -1.854855E+05 -2.301744E+05  7.067495E+04  1.577527E+05  1.795803E+01
        65   4 -5.074523E+03  1.018077E+04 -6.239933E+04  1.302739E-09  4.815006E+04 -9.122410E-10
        65   5  2.478049E+04  1.748439E+04 -1.021694E+05  5.195635E-09  1.029510E+05  8.773969E-10
        65   6 -5.066794E+03 -1.854949E+05 -2.301758E+05  3.705875E-09  1.577527E+05 -3.952302E-10
        65   7 -5.073746E+03  1.018213E+04 -6.239914E+04  2.690305E+04  4.815006E+04  2.086533E+00
        65   8  2.478100E+04  1.748529E+04 -1.021693E+05 -2.188729E+04  1.029510E+05 -3.629347E+00
        65   9 -5.061430E+03 -1.854855E+05 -2.301744E+05 -7.067495E+04  1.577527E+05 -1.795803E+01
        65  10 -5.076236E+03  1.018151E+04 -6.240350E+04 -2.690305E+04 -1.512054E-10  6.787192E-12
        65  11  2.476962E+04  1.748245E+04 -1.021892E+05  2.188729E+04  2.298197E-09  5.464774E-10
        65  12 -5.088158E+03 -1.854922E+05 -2.302212E+05  7.067494E+04  1.750631E-09  2.138576E-10
        65  13 -5.077013E+03  1.018015E+04 -6.240369E+04  3.574324E-09 -1.130547E-09 -5.735770E-11
        65  14  2.476911E+04  1.748155E+04 -1.021893E+05  1.982244E-09  1.105281E-09  5.726217E-10
        65  15 -5.093522E+03 -1.855016E+05 -2.302226E+05  6.852189E-09 -1.866219E-09  2.660829E-10
        65  16 -5.076236E+03  1.018151E+04 -6.240350E+04  2.690305E+04 -3.670967E-10 -1.102529E-10
        65  17  2.476962E+04  1.748245E+04 -1.021892E+05 -2.188729E+04 -2.285227E-09  4.954615E-10
        65  18 -5.088158E+03 -1.854922E+05 -2.302212E+05 -7.067494E+04 -2.476827E-09  3.801167E-10
        65  19 -5.073746E+03  1.018213E+04 -6.239914E+04 -2.690305E+04 -4.815006E+04  2.086533E+00
        65  20  2.478100E+04  1.748529E+04 -1.021693E+05  2.188729E+04 -1.029510E+05 -3.629347E+00
        65  21 -5.061430E+03 -1.854855E+05 -2.301744E+05  7.067495E+04 -1.577527E+05 -1.795803E+01
        65  22 -5.074523E+03  1.018077E+04 -6.239933E+04 -4.920620E-09 -4.815006E+04  7.949027E-10
        65  23  2.478049E+04  1.748439E+04 -1.021694E+05 -1.846440E-08 -1.029510E+05  2.719241E-10
        65  24 -5.066794E+03 -1.854949E+05 -2.301758E+05  3.268284E-09 -1.577527E+05  5.341126E-10
        65  25 -5.073746E+03  1.018213E+04 -6.239914E+04  2.690305E+04 -4.815006E+04 -2.086533E+00
        65  26  2.478100E+04  1.748529E+04 -1.021693E+05 -2.188729E+04 -1.029510E+05  3.629347E+00
        65  27 -5.061430E+03 -1.854855E+05 -2.301744E+05 -7.067495E+04 -1.577527E+05  1.795803E+01
        66   1  1.055684E+05  2.397347E+05  1.026457E+05 -2.744366E+04  4.974355E+03  4.762079E+03
        66   2  9.727588E+04  1.862825E+05  8.913291E+04 -1.355262E+04  1.488591E+04 -1.022730E+03
        66   3  8.407931E+04  1.324461E+05  7.817832E+04 -3.042283E+04  1.366795E+04 -6.808744E+03
        66   4 -5.622665E+03 -2.067277E+05 -6.866898E+03 -2.950774E+04  4.975664E+03 -5.266339E+03
        66   5  4.867611E+02 -2.059026E+05 -2.632778E+03 -1.412591E+04  1.488734E+04 -3.837302E+03
        66   6  4.384188E+02 -2.067167E+05 -8.500375E+02 -2.950656E+04  1.366636E+04 -2.409852E+03
        66   7 -1.168285E+05 -6.530084E+05 -1.163937E+05 -3.157032E+04  4.977040E+03 -1.528756E+04
        66   8 -9.631327E+04 -5.979460E+05 -9.440891E+04 -1.469881E+04  1.488878E+04 -6.650107E+03
        66   9 -8.321060E+04 -5.457734E+05 -7.988611E+04 -2.859079E+04  1.366478E+04  1.986655E+03
        66  10  1.055684E+05  2.397347E+05  1.026456E+05 -2.744368E+04 -2.458534E-10  1.768045E-09
        66  11  9.727564E+04  1.862824E+05  8.913249E+04 -1.355261E+04  2.064651E-09  4.548914E-10
        66  12  8.407910E+04  1.324460E+05  7.817789E+04 -3.042276E+04 -1.482785E-09 -2.091458E-09
        66  13 -5.622699E+03 -2.067278E+05 -6.866996E+03 -2.950772E+04  8.219295E-10 -5.959802E-11
        66  14  4.865192E+02 -2.059027E+05 -2.633222E+03 -1.412586E+04  2.571666E-09  1.437666E-10
        66  15  4.382167E+02 -2.067168E+05 -8.503993E+02 -2.950654E+04 -5.562675E-10 -1.675140E-10
        66  16 -1.168286E+05 -6.530087E+05 -1.163942E+05 -3.157026E+04  2.445826E-09 -1.777922E-09
        66  17 -9.631352E+04 -5.979461E+05 -9.440941E+04 -1.469873E+04  3.385556E-09  1.044214E-10
        66  18 -8.321080E+04 -5.457735E+05 -7.988647E+04 -2.859081E+04  2.418898E-09  2.687656E-09
        66  19  1.055684E+05  2.397347E+05  1.026457E+05 -2.744366E+04 -4.974355E+03 -4.762079E+03
        66  20  9.727588E+04  1.862825E+05  8.913291E+04 -1.355262E+04 -1.488591E+04  1.022730E+03
        66  21  8.407931E+04  1.324461E+05  7.817832E+04 -3.042283E+04 -1.366795E+04  6.808744E+03
        66  22 -5.622665E+03 -2.067277E+05 -6.866898E+03 -2.950774E+04 -4.975664E+03  5.266339E+03
        66  23  4.867611E+02 -2.059026E+05 -2.632778E+03 -1.412591E+04 -1.488734E+04  3.837302E+03
        66  24  4.384188E+02 -2.067167E+05 -8.500375E+02 -2.950656E+04 -1.366636E+04  2.409852E+03
        66  25 -1.168285E+05 -6.530084E+05 -1.163937E+05 -3.157032E+04 -4.977040E+03  1.528756E+04
        66  26 -9.631327E+04 -5.979460E+05 -9.440891E+04 -1.469881E+04 -1.488878E+04  6.650107E+03
        66  27 -8.321060E+04 -5.457734E+05 -7.988611E+04 -2.859079E+04 -1.366478E+04 -1.986655E+03
        67   1  6.928571E+04  7.667339E+04  6.603154E+04 -2.980784E+04  1.080614E+04 -3.320183E+03
        67   2  5.644620E+04  2.273220E+04  5.513445E+04 -1.395154E+04  8.999869E+03 -4.534538E+03
        67   3  4.484699E+04 -3.075031E+04  4.533531E+04 -2.931420E+04  6.599095E+03 -5.750050E+03
        67   4 -5.397061E+02 -2.062573E+05 -1.472787E+02 -2.960908E+04  1.080592E+04 -2.341156E+03
        67   5 -9.496181E+01 -2.064486E+05  1.629626E+03 -1.399856E+04  8.999201E+03 -3.170052E+03
        67   6  1.523544E+03 -2.062508E+05  4.237039E+03 -2.960769E+04  6.597867E+03 -4.000208E+03
        67   7 -7.037081E+04 -4.891141E+05 -6.633155E+04 -2.941040E+04  1.080571E+04 -1.362572E+03
        67   8 -5.663984E+04 -4.355809E+05 -5.187875E+04 -1.404555E+04  8.998534E+03 -1.806066E+03
        67   9 -4.180209E+04 -3.817230E+05 -3.686332E+04 -2.990110E+04  6.596638E+03 -2.250857E+03
        67  10  6.928559E+04  7.667335E+04  6.603130E+04 -2.980781E+04  2.275096E-10  1.296360E-09
        67  11  5.644611E+04  2.273216E+04  5.513425E+04 -1.395151E+04  3.515323E-09 -7.685941E-11
        67  12  4.484694E+04 -3.075036E+04  4.533516E+04 -2.931417E+04 -1.504247E-09 -3.175752E-09
        67  13 -5.398329E+02 -2.062573E+05 -1.475084E+02 -2.960906E+04 -1.439411E-09 -5.335857E-10
        67  14 -9.505146E+01 -2.064486E+05  1.629455E+03 -1.399853E+04  8.379154E-10  3.783983E-10
        67  15  1.523493E+03 -2.062509E+05  4.236927E+03 -2.960767E+04 -3.796112E-09 -2.662110E-10
        67  16 -7.037093E+04 -4.891142E+05 -6.633177E+04 -2.941038E+04 -3.005188E-10 -1.302235E-09
        67  17 -5.663993E+04 -4.355810E+05 -5.187891E+04 -1.404554E+04  4.328585E-10  1.450690E-09
        67  18 -4.180214E+04 -3.817230E+05 -3.686341E+04 -2.990108E+04 -2.238723E-09  4.215021E-09
        67  19  6.928571E+04  7.667339E+04  6.603154E+04 -2.980784E+04 -1.080614E+04  3.320183E+03
        67  20  5.644620E+04  2.273220E+04  5.513445E+04 -1.395154E+04 -8.999869E+03  4.534538E+03
        67  21  4.484699E+04 -3.075031E+04  4.533531E+04 -2.931420E+04 -6.599095E+03  5.750050E+03
        67  22 -5.397061E+02 -2.062573E+05 -1.472787E+02 -2.960908E+04 -1.080592E+04  2.341156E+03
        67  23 -9.496181E+01 -2.064486E+05  1.629626E+03 -1.399856E+04 -8.999201E+03  3.170052E+03
        67  24  1.523544E+03 -2.062508E+05  4.237039E+03 -2.960769E+04 -6.597867E+03  4.000208E+03
        67  25 -7.037081E+04 -4.891141E+05 -6.633155E+04 -2.941040E+04 -1.080571E+04  1.362572E+03
        67  26 -5.663984E+04 -4.355809E+05 -5.187875E+04 -1.404555E+04 -8.998534E+03  1.806066E+03
        67  27 -4.180209E+04 -3.817230E+05 -3.686332E+04 -2.990110E+04 -6.596638E+03  2.250857E+03
        68   1  2.845664E+04 -8.585240E+04  3.316824E+04 -3.219415E+04  5.019550E+03 -6.483800E+03
        68   2  1.455235E+04 -1.423624E+05  2.463835E+04 -1.198789E+04  2.606886E+03 -1.127992E+04
        68   3  2.019338E+04 -1.934164E+05  2.410493E+04 -2.304700E+04  5.480314E+02 -1.607556E+04
        68   4 -9.452306E+02 -2.051130E+05  5.462876E+03 -2.962298E+04  5.018218E+03 -4.803023E+03
        68   5 -1.601157E+03 -2.078572E+05  9.358173E+03 -1.398283E+04  2.605730E+03 -9.828101E+03
        68   6  1.732878E+04 -2.051093E+05  2.140908E+04 -2.960778E+04  5.471293E+02 -1.485309E+04
        68   7 -3.034808E+04 -3.243604E+05 -2.224343E+04 -2.705231E+04  5.016900E+03 -3.122566E+03
        68   8 -1.775495E+04 -2.733480E+05 -5.922282E+03 -1.597754E+04  2.604565E+03 -8.376433E+03
        68   9  1.446433E+04 -2.168019E+05  1.871324E+04 -3.616844E+04  5.462014E+02 -1.363065E+04
        68  10  2.845660E+04 -8.585245E+04  3.316811E+04 -3.219412E+04 -1.664730E-09  2.421005E-09
        68  11  1.455231E+04 -1.423625E+05  2.463810E+04 -1.198787E+04  1.979555E-09  2.179175E-09
        68  12  2.019331E+04 -1.934167E+05  2.410445E+04 -2.304699E+04 -4.281683E-10 -7.629850E-10
        68  13 -9.452638E+02 -2.051130E+05  5.462785E+03 -2.962297E+04 -2.236906E-09 -8.018888E-10
        68  14 -1.601190E+03 -2.078573E+05  9.357979E+03 -1.398280E+04  2.476231E-09  4.750868E-10
        68  15  1.732872E+04 -2.051095E+05  2.140866E+04 -2.960777E+04  1.205917E-09 -3.206205E-10
        68  16 -3.034811E+04 -3.243604E+05 -2.224350E+04 -2.705230E+04 -1.558310E-10 -2.416066E-09
        68  17 -1.775498E+04 -2.733480E+05 -5.922426E+03 -1.597753E+04 -7.236200E-10 -4.052549E-10
        68  18  1.446428E+04 -2.168021E+05  1.871289E+04 -3.616843E+04  4.714478E-10  1.936956E-09
        68  19  2.845664E+04 -8.585240E+04  3.316824E+04 -3.219415E+04 -5.019550E+03  6.483800E+03
        68  20  1.455235E+04 -1.423624E+05  2.463835E+04 -1.198789E+04 -2.606886E+03  1.127992E+04
        68  21  2.019338E+04 -1.934164E+05  2.410493E+04 -2.304700E+04 -5.480314E+02  1.607556E+04
        68  22 -9.452306E+02 -2.051130E+05  5.462876E+03 -2.962298E+04 -5.018218E+03  4.803023E+03
        68  23 -1.601157E+03 -2.078572E+05  9.358173E+03 -1.398283E+04 -2.605730E+03  9.828101E+03
        68  24  1.732878E+04 -2.051093E+05  2.140908E+04 -2.960778E+04 -5.471293E+02  1.485309E+04
        68  25 -3.034808E+04 -3.243604E+05 -2.224343E+04 -2.705231E+04 -5.016900E+03  3.122566E+03
        68  26 -1.775495E+04 -2.733480E+05 -5.922282E+03 -1.597754E+04 -2.604565E+03  8.376433E+03
        68  27  1.446433E+04 -2.168019E+05  1.871324E+04 -3.616844E+04 -5.462014E+02  1.363065E+04
        69   1 -2.503766E+05 -6.265591E+04 -2.569916E+04 -9.565949E+04 -1.065220E+04 -3.520351E+03
        69   2 -2.412063E+05 -4.234529E+04 -1.380850E+04 -9.194316E+04 -6.739354E+03 -1.234865E+03
        69   3 -2.331399E+05 -3.968182E+04 -8.650253E+03 -8.990494E+04 -2.413445E+03 -5.056589E+01
        69   4 -2.148907E+05 -4.524915E+04 -1.529777E+04 -8.184326E+04 -9.883456E+03 -3.232172E+03
        69   5 -2.136017E+05 -3.078433E+04 -6.463529E+03 -8.314402E+04 -6.638362E+03 -1.197016E+03
        69   6 -2.132842E+05 -3.383412E+04 -3.832346E+03 -8.612310E+04 -2.980265E+03 -2.630881E+02
        69   7 -1.794037E+05 -2.784215E+04 -4.896569E+03 -6.802632E+04 -9.114674E+03 -2.943965E+03
        69   8 -1.859964E+05 -1.922330E+04  8.813630E+02 -7.434452E+04 -6.537365E+03 -1.159165E+03
        69   9 -1.934279E+05 -2.798640E+04  9.855472E+02 -8.234115E+04 -3.547106E+03 -4.756146E+02
        69  10 -2.503767E+05 -6.265595E+04 -2.569939E+04 -9.565952E+04  4.922648E-10  1.447987E-10
        69  11 -2.412064E+05 -4.234530E+04 -1.380859E+04 -9.194316E+04  1.262424E-10  4.958200E-10
        69  12 -2.331399E+05 -3.968183E+04 -8.650264E+03 -8.990494E+04 -1.441529E-10 -5.438556E-10
        69  13 -2.148908E+05 -4.524919E+04 -1.529797E+04 -8.184329E+04 -1.249357E-09  2.269265E-10
        69  14 -2.136017E+05 -3.078434E+04 -6.463615E+03 -8.314402E+04 -2.253727E-09  3.908117E-10
        69  15 -2.132842E+05 -3.383412E+04 -3.832363E+03 -8.612310E+04 -2.268965E-09 -7.785927E-10
        69  16 -1.794038E+05 -2.784218E+04 -4.896741E+03 -6.802634E+04 -7.355230E-10  4.064666E-10
        69  17 -1.859964E+05 -1.922331E+04  8.812802E+02 -7.434453E+04 -2.165951E-09  1.110285E-10
        69  18 -1.934280E+05 -2.798640E+04  9.855231E+02 -8.234115E+04 -5.395729E-09 -1.275457E-09
        69  19 -2.503766E+05 -6.265591E+04 -2.569916E+04 -9.565949E+04  1.065220E+04  3.520351E+03
        69  20 -2.412063E+05 -4.234529E+04 -1.380850E+04 -9.194316E+04  6.739354E+03  1.234865E+03
        69  21 -2.331399E+05 -3.968182E+04 -8.650253E+03 -8.990494E+04  2.413445E+03  5.056589E+01
        69  22 -2.148907E+05 -4.524915E+04 -1.529777E+04 -8.184326E+04  9.883456E+03  3.232172E+03
        69  23 -2.136017E+05 -3.078433E+04 -6.463529E+03 -8.314402E+04  6.638362E+03  1.197016E+03
        69  24 -2.132842E+05 -3.383412E+04 -3.832346E+03 -8.612310E+04  2.980265E+03  2.630881E+02
        69  25 -1.794037E+05 -2.784215E+04 -4.896569E+03 -6.802632E+04  9.114674E+03  2.943965E+03
        69  26 -1.859964E+05 -1.922330E+04  8.813630E+02 -7.434452E+04  6.537365E+03  1.159165E+03
        69  27 -1.934279E+05 -2.798640E+04  9.855472E+02 -8.234115E+04  3.547106E+03  4.756146E+02
        70   1 -2.202930E+05 -3.843199E+04 -5.085285E+03 -8.765833E+04 -2.065625E+03 -4.056885E+02
        70   2 -2.124776E+05 -3.123736E+04 -9.926373E+02 -8.256170E+04 -1.080082E+03 -5.048127E+02
        70   3 -2.007846E+05 -2.968982E+04  2.153152E+03 -8.226569E+04 -6.979286E+01 -6.698815E+02
        70   4 -2.127823E+05 -3.530096E+04 -3.096319E+03 -8.527745E+04 -2.294856E+03 -4.916384E+02
        70   5 -2.146528E+05 -3.196822E+04 -1.536116E+03 -8.306949E+04 -1.349305E+03 -6.057564E+02
        70   6 -2.126379E+05 -3.427467E+04 -8.910796E+02 -8.566220E+04 -3.790238E+02 -7.858247E+02
        70   7 -2.052716E+05 -3.216992E+04 -1.107361E+03 -8.289654E+04 -2.524089E+03 -5.775896E+02
        70   8 -2.168280E+05 -3.269908E+04 -2.079593E+03 -8.357728E+04 -1.618525E+03 -7.066993E+02
        70   9 -2.244910E+05 -3.885947E+04 -3.935300E+03 -8.905863E+04 -6.882462E+02 -9.017645E+02
        70  10 -2.202930E+05 -3.843200E+04 -5.085293E+03 -8.765833E+04 -2.871167E-09 -1.382136E-09
        70  11 -2.124776E+05 -3.123736E+04 -9.926400E+02 -8.256170E+04 -4.789292E-10  2.040713E-10
        70  12 -2.007846E+05 -2.968982E+04  2.153151E+03 -8.226569E+04  2.648309E-09  3.852210E-10
        70  13 -2.127823E+05 -3.530096E+04 -3.096330E+03 -8.527745E+04 -1.809443E-09 -9.461720E-10
        70  14 -2.146528E+05 -3.196822E+04 -1.536120E+03 -8.306949E+04 -2.415538E-09  1.740476E-11
        70  15 -2.126379E+05 -3.427467E+04 -8.910810E+02 -8.566220E+04 -2.617326E-09  3.007741E-10
        70  16 -2.052716E+05 -3.216992E+04 -1.107374E+03 -8.289654E+04 -7.886494E-10 -5.592327E-10
        70  17 -2.168280E+05 -3.269908E+04 -2.079598E+03 -8.357728E+04 -5.740255E-10  1.659656E-10
        70  18 -2.244910E+05 -3.885947E+04 -3.935302E+03 -8.905863E+04 -1.734450E-09  8.822604E-11
        70  19 -2.202930E+05 -3.843199E+04 -5.085285E+03 -8.765833E+04  2.065625E+03  4.056885E+02
        70  20 -2.124776E+05 -3.123736E+04 -9.926373E+02 -8.256170E+04  1.080082E+03  5.048127E+02
        70  21 -2.007846E+05 -2.968982E+04  2.153152E+03 -8.226569E+04  6.979286E+01  6.698815E+02
        70  22 -2.127823E+05 -3.530096E+04 -3.096319E+03 -8.527745E+04  2.294856E+03  4.916384E+02
        70  23 -2.146528E+05 -3.196822E+04 -1.536116E+03 -8.306949E+04  1.349305E+03  6.057564E+02
        70  24 -2.126379E+05 -3.427467E+04 -8.910796E+02 -8.566220E+04  3.790238E+02  7.858247E+02
        70  25 -2.052716E+05 -3.216992E+04 -1.107361E+03 -8.289654E+04  2.524089E+03  5.775896E+02
        70  26 -2.168280E+05 -3.269908E+04 -2.079593E+03 -8.357728E+04  1.618525E+03  7.066993E+02
        70  27 -2.244910E+05 -3.885947E+04 -3.935300E+03 -8.905863E+04  6.882462E+02  9.017645E+02
        71   1 -1.896535E+05 -2.583108E+04  5.227503E+03 -7.934423E+04  1.466976E+02 -9.190205E+02
        71   2 -1.820030E+05 -1.982495E+04  8.006525E+03 -7.412903E+04  5.406668E+02 -1.316473E+03
        71   3 -1.699881E+05 -1.836378E+04  1.059628E+04 -7.397316E+04  9.359397E+02 -1.717294E+03
        71   4 -2.125834E+05 -3.440140E+04 -7.044916E+02 -8.558100E+04 -1.421955E+02 -1.027342E+03
        71   5 -2.147597E+05 -3.208470E+04 -4.224881E+02 -8.306798E+04  2.497189E+02 -1.425577E+03
        71   6 -2.125710E+05 -3.431253E+04 -3.280722E+02 -8.561435E+04  6.429328E+02 -1.827181E+03
        71   7 -2.355130E+05 -4.297177E+04 -6.636579E+03 -9.181760E+04 -4.310791E+02 -1.135660E+03
        71   8 -2.475156E+05 -4.434444E+04 -8.851644E+03 -9.200655E+04 -4.121384E+01 -1.534676E+03
        71   9 -2.551524E+05 -5.026124E+04 -1.125262E+04 -9.725487E+04  3.499467E+02 -1.937061E+03
        71  10 -1.896535E+05 -2.583108E+04  5.227501E+03 -7.934423E+04  1.401397E-09  1.258178E-10
        71  11 -1.820030E+05 -1.982496E+04  8.006521E+03 -7.412903E+04  1.112760E-09  7.024004E-10
        71  12 -1.699881E+05 -1.836378E+04  1.059627E+04 -7.397316E+04 -2.038567E-09  7.019419E-10
        71  13 -2.125834E+05 -3.440141E+04 -7.044936E+02 -8.558100E+04  2.462995E-11  2.071924E-10
        71  14 -2.147597E+05 -3.208470E+04 -4.224921E+02 -8.306798E+04 -1.936124E-09  2.219154E-10
        71  15 -2.125710E+05 -3.431254E+04 -3.280792E+02 -8.561435E+04 -2.221790E-09  5.947582E-10
        71  16 -2.355130E+05 -4.297177E+04 -6.636582E+03 -9.181760E+04  1.730923E-09  1.270608E-10
        71  17 -2.475156E+05 -4.434445E+04 -8.851648E+03 -9.200655E+04 -1.500275E-09  1.903729E-10
        71  18 -2.551524E+05 -5.026124E+04 -1.125263E+04 -9.725487E+04  3.846469E-10  4.494867E-10
        71  19 -1.896535E+05 -2.583108E+04  5.227503E+03 -7.934423E+04 -1.466976E+02  9.190205E+02
        71  20 -1.820030E+05 -1.982495E+04  8.006525E+03 -7.412903E+04 -5.406668E+02  1.316473E+03
        71  21 -1.699881E+05 -1.836378E+04  1.059628E+04 -7.397316E+04 -9.359397E+02  1.717294E+03
        71  22 -2.125834E+05 -3.440140E+04 -7.044916E+02 -8.558100E+04  1.421955E+02  1.027342E+03
        71  23 -2.147597E+05 -3.208470E+04 -4.224881E+02 -8.306798E+04 -2.497189E+02  1.425577E+03
        71  24 -2.125710E+05 -3.431253E+04 -3.280722E+02 -8.561435E+04 -6.429328E+02  1.827181E+03
        71  25 -2.355130E+05 -4.297177E+04 -6.636579E+03 -9.181760E+04  4.310791E+02  1.135660E+03
        71  26 -2.475156E+05 -4.434444E+04 -8.851644E+03 -9.200655E+04  4.121384E+01  1.534676E+03
        71  27 -2.551524E+05 -5.026124E+04 -1.125262E+04 -9.725487E+04 -3.499467E+02  1.937061E+03
        72   1 -1.590615E+05 -1.428402E+04  1.348053E+04 -7.100223E+04  1.093676E+03 -1.978197E+03
        72   2 -1.514514E+05 -8.401452E+03  1.588795E+04 -6.579365E+04  1.474806E+03 -2.383081E+03
        72   3 -1.394587E+05 -6.961632E+03  1.814000E+04 -6.564519E+04  1.855735E+03 -2.787236E+03
        72   4 -2.125717E+05 -3.431888E+04 -3.256227E+02 -8.560386E+04  8.021308E+02 -2.087545E+03
        72   5 -2.147631E+05 -3.209898E+04 -4.037314E+02 -8.307326E+04  1.183670E+03 -2.492294E+03
        72   6 -2.125723E+05 -3.432191E+04 -6.375652E+02 -8.560281E+04  1.565006E+03 -2.896316E+03
        72   7 -2.660788E+05 -5.435344E+04 -1.413192E+04 -1.002043E+05  5.106152E+02 -2.196883E+03
        72   8 -2.780708E+05 -5.579620E+04 -1.669570E+04 -1.003512E+05  8.925674E+02 -2.601496E+03
        72   9 -2.856810E+05 -6.168193E+04 -1.941562E+04 -1.055584E+05  1.274314E+03 -3.005382E+03
        72  10 -1.590615E+05 -1.428402E+04  1.348052E+04 -7.100223E+04  7.994079E-11  6.342593E-10
        72  11 -1.514514E+05 -8.401459E+03  1.588793E+04 -6.579364E+04  1.760067E-09  1.505635E-10
        72  12 -1.394587E+05 -6.961642E+03  1.813998E+04 -6.564519E+04  3.083024E-09 -4.550374E-10
        72  13 -2.125717E+05 -3.431889E+04 -3.256321E+02 -8.560386E+04 -2.349642E-09  5.104539E-10
        72  14 -2.147631E+05 -3.209898E+04 -4.037457E+02 -8.307326E+04 -4.364418E-11  1.281483E-10
        72  15 -2.125723E+05 -3.432192E+04 -6.375856E+02 -8.560281E+04  2.988529E-09 -1.377378E-10
        72  16 -2.660788E+05 -5.435344E+04 -1.413193E+04 -1.002043E+05  6.102679E-10  3.786917E-10
        72  17 -2.780709E+05 -5.579621E+04 -1.669572E+04 -1.003512E+05  7.472718E-10  1.379151E-10
        72  18 -2.856810E+05 -6.168194E+04 -1.941564E+04 -1.055584E+05 -6.193472E-10  6.499518E-11
        72  19 -1.590615E+05 -1.428402E+04  1.348053E+04 -7.100223E+04 -1.093676E+03  1.978197E+03
        72  20 -1.514514E+05 -8.401452E+03  1.588795E+04 -6.579365E+04 -1.474806E+03  2.383081E+03
        72  21 -1.394587E+05 -6.961632E+03  1.814000E+04 -6.564519E+04 -1.855735E+03  2.787236E+03
        72  22 -2.125717E+05 -3.431888E+04 -3.256227E+02 -8.560386E+04 -8.021308E+02  2.087545E+03
        72  23 -2.147631E+05 -3.209898E+04 -4.037314E+02 -8.307326E+04 -1.183670E+03  2.492294E+03
        72  24 -2.125723E+05 -3.432191E+04 -6.375652E+02 -8.560281E+04 -1.565006E+03  2.896316E+03
        72  25 -2.660788E+05 -5.435344E+04 -1.413192E+04 -1.002043E+05 -5.106152E+02  2.196883E+03
        72  26 -2.780708E+05 -5.579620E+04 -1.669570E+04 -1.003512E+05 -8.925674E+02  2.601496E+03
        72  27 -2.856810E+05 -6.168193E+04 -1.941562E+04 -1.055584E+05 -1.274314E+03  3.005382E+03
        73   1 -1.286066E+05 -2.882600E+03  2.082260E+04 -6.271144E+04  2.081064E+03 -3.020794E+03
        73   2 -1.210041E+05  2.988584E+03  2.266752E+04 -5.750590E+04  2.983157E+03 -3.227193E+03
        73   3 -1.091660E+05  4.285573E+03  2.392929E+04 -5.731276E+04  3.884436E+03 -3.431133E+03
        73   4 -2.125990E+05 -3.430454E+04 -8.228501E+02 -8.560995E+04  1.790561E+03 -3.129806E+03
        73   5 -2.147262E+05 -3.208439E+04 -1.447810E+03 -8.307866E+04  2.694022E+03 -3.335720E+03
        73   6 -2.126183E+05 -3.443871E+04 -2.657053E+03 -8.555978E+04  3.596661E+03 -3.539178E+03
        73   7 -2.965844E+05 -6.572593E+04 -2.246880E+04 -1.085056E+05  1.500101E+03 -3.238801E+03
        73   8 -3.084399E+05 -6.715681E+04 -2.556386E+04 -1.086479E+05  2.404935E+03 -3.444228E+03
        73   9 -3.160606E+05 -7.316246E+04 -2.924438E+04 -1.138026E+05  3.308937E+03 -3.647203E+03
        73  10 -1.286066E+05 -2.882611E+03  2.082257E+04 -6.271144E+04  4.859060E-10 -5.315642E-10
        73  11 -1.210041E+05  2.988571E+03  2.266748E+04 -5.750589E+04  6.059684E-10  4.098351E-10
        73  12 -1.091660E+05  4.285556E+03  2.392924E+04 -5.731275E+04  7.932325E-10  1.520244E-10
        73  13 -2.125990E+05 -3.430455E+04 -8.228745E+02 -8.560995E+04 -2.646182E-11  5.477957E-11
        73  14 -2.147263E+05 -3.208440E+04 -1.447844E+03 -8.307865E+04  1.508203E-09  3.888206E-10
        73  15 -2.126183E+05 -3.443873E+04 -2.657101E+03 -8.555977E+04 -4.788284E-10 -2.373459E-10
        73  16 -2.965844E+05 -6.572594E+04 -2.246883E+04 -1.085056E+05 -6.495817E-10  6.713655E-10
        73  17 -3.084399E+05 -6.715682E+04 -2.556389E+04 -1.086479E+05 -1.408010E-09  8.579954E-10
        73  18 -3.160606E+05 -7.316248E+04 -2.924442E+04 -1.138026E+05 -2.590620E-09  2.941524E-11
        73  19 -1.286066E+05 -2.882600E+03  2.082260E+04 -6.271144E+04 -2.081064E+03  3.020794E+03
        73  20 -1.210041E+05  2.988584E+03  2.266752E+04 -5.750590E+04 -2.983157E+03  3.227193E+03
        73  21 -1.091660E+05  4.285573E+03  2.392929E+04 -5.731276E+04 -3.884436E+03  3.431133E+03
        73  22 -2.125990E+05 -3.430454E+04 -8.228501E+02 -8.560995E+04 -1.790561E+03  3.129806E+03
        73  23 -2.147262E+05 -3.208439E+04 -1.447810E+03 -8.307866E+04 -2.694022E+03  3.335720E+03
        73  24 -2.126183E+05 -3.443871E+04 -2.657053E+03 -8.555978E+04 -3.596661E+03  3.539178E+03
        73  25 -2.965844E+05 -6.572593E+04 -2.246880E+04 -1.085056E+05 -1.500101E+03  3.238801E+03
        73  26 -3.084399E+05 -6.715681E+04 -2.556386E+04 -1.086479E+05 -2.404935E+03  3.444228E+03
        73  27 -3.160606E+05 -7.316246E+04 -2.924438E+04 -1.138026E+05 -3.308937E+03  3.647203E+03
        74   1 -9.833036E+04  8.330320E+03  2.592867E+04 -5.473185E+04  4.499535E+03 -3.518428E+03
        74   2 -9.063219E+04  1.453035E+04  2.559519E+04 -4.922192E+04  7.836286E+03 -2.804453E+03
        74   3 -7.971269E+04  1.439141E+04  2.238538E+04 -4.831834E+04  1.116570E+04 -2.070535E+03
        74   4 -2.127621E+05 -3.424383E+04 -3.503191E+03 -8.569043E+04  4.206930E+03 -3.628306E+03
        74   5 -2.144863E+05 -3.188290E+04 -6.284981E+03 -8.308346E+04  7.555146E+03 -2.910067E+03
        74   6 -2.129916E+05 -3.586359E+04 -1.195262E+04 -8.508295E+04  1.089596E+04 -2.171908E+03
        74   7 -3.271811E+05 -7.681720E+04 -3.293613E+04 -1.166439E+05  3.914383E+03 -3.738163E+03
        74   8 -3.383252E+05 -7.829509E+04 -3.816636E+04 -1.169388E+05  7.274068E+03 -3.015658E+03
        74   9 -3.462528E+05 -8.611723E+04 -4.629195E+04 -1.218403E+05  1.062630E+04 -2.273257E+03
        74  10 -9.833038E+04  8.330301E+03  2.592861E+04 -5.473184E+04 -8.900649E-12 -1.298956E-10
        74  11 -9.063226E+04  1.453032E+04  2.559506E+04 -4.922190E+04 -1.152283E-09  8.813921E-10
        74  12 -7.971282E+04  1.439137E+04  2.238513E+04 -4.831832E+04  1.879742E-09  5.359310E-11
        74  13 -2.127621E+05 -3.424385E+04 -3.503249E+03 -8.569042E+04 -9.662757E-10 -2.449091E-10
        74  14 -2.144863E+05 -3.188292E+04 -6.285104E+03 -8.308344E+04 -1.292959E-10  3.845704E-10
        74  15 -2.129917E+05 -3.586363E+04 -1.195285E+04 -8.508293E+04  5.103102E-10 -1.035027E-09
        74  16 -3.271811E+05 -7.681721E+04 -3.293618E+04 -1.166439E+05  2.211481E-10 -3.624799E-10
        74  17 -3.383253E+05 -7.829511E+04 -3.816647E+04 -1.169388E+05 -1.465647E-09 -1.445031E-09
        74  18 -3.462529E+05 -8.611726E+04 -4.629218E+04 -1.218403E+05  1.418451E-09 -3.169524E-10
        74  19 -9.833036E+04  8.330320E+03  2.592867E+04 -5.473185E+04 -4.499535E+03  3.518428E+03
        74  20 -9.063219E+04  1.453035E+04  2.559519E+04 -4.922192E+04 -7.836286E+03  2.804453E+03
        74  21 -7.971269E+04  1.439141E+04  2.238538E+04 -4.831834E+04 -1.116570E+04  2.070535E+03
        74  22 -2.127621E+05 -3.424383E+04 -3.503191E+03 -8.569043E+04 -4.206930E+03  3.628306E+03
        74  23 -2.144863E+05 -3.188290E+04 -6.284981E+03 -8.308346E+04 -7.555146E+03  2.910067E+03
        74  24 -2.129916E+05 -3.586359E+04 -1.195262E+04 -8.508295E+04 -1.089596E+04  2.171908E+03
        74  25 -3.271811E+05 -7.681720E+04 -3.293613E+04 -1.166439E+05 -3.914383E+03  3.738163E+03
        74  26 -3.383252E+05 -7.829509E+04 -3.816636E+04 -1.169388E+05 -7.274068E+03  3.015658E+03
        74  27 -3.462528E+05 -8.611723E+04 -4.629195E+04 -1.218403E+05 -1.062630E+04  2.273257E+03
        75   1 -6.779832E+04  1.845131E+04  2.165067E+04 -4.941379E+04  1.357591E+04 -1.522340E+03
        75   2 -5.989179E+04  2.885887E+04  1.222791E+04 -3.988714E+04  2.765174E+04  3.260945E+03
        75   3 -5.753612E+04  1.339887E+04 -1.339612E+04 -3.014356E+04  4.161452E+04  8.346518E+03
        75   4 -2.140102E+05 -3.355562E+04 -1.548924E+04 -8.651090E+04  1.321534E+04 -1.657780E+03
        75   5 -2.125195E+05 -2.982954E+04 -2.734041E+04 -8.315408E+04  2.747097E+04  3.192839E+03
        75   6 -2.166179E+05 -5.201060E+04 -5.553851E+04 -7.958029E+04  4.161335E+04  8.345476E+03
        75   7 -3.602019E+05 -8.556192E+04 -5.263100E+04 -1.236005E+05  1.285486E+04 -1.793189E+03
        75   8 -3.651248E+05 -8.851627E+04 -6.691076E+04 -1.264114E+05  2.729024E+04  3.124752E+03
        75   9 -3.756749E+05 -1.174170E+05 -9.768309E+04 -1.290051E+05  4.161218E+04  8.344433E+03
        75  10 -6.779852E+04  1.845126E+04  2.165032E+04 -4.941377E+04  1.883484E-09  2.602173E-10
        75  11 -5.989261E+04  2.885866E+04  1.222645E+04 -3.988721E+04  2.712750E-09  8.273432E-10
        75  12 -5.753800E+04  1.339833E+04 -1.339951E+04 -3.014384E+04 -8.222334E-10 -2.929277E-10
        75  13 -2.140104E+05 -3.355567E+04 -1.548957E+04 -8.651088E+04  9.669488E-10 -1.918456E-11
        75  14 -2.125203E+05 -2.982976E+04 -2.734185E+04 -8.315415E+04 -9.593544E-10  8.396745E-10
        75  15 -2.166197E+05 -5.201114E+04 -5.554189E+04 -7.958057E+04 -1.195956E-09  1.318334E-09
        75  16 -3.602021E+05 -8.556196E+04 -5.263132E+04 -1.236005E+05  2.614137E-09  9.716312E-10
        75  17 -3.651256E+05 -8.851648E+04 -6.691218E+04 -1.264114E+05  2.996865E-09  1.636907E-09
        75  18 -3.756767E+05 -1.174176E+05 -9.768647E+04 -1.290053E+05 -1.567503E-09  1.054511E-09
        75  19 -6.779832E+04  1.845131E+04  2.165067E+04 -4.941379E+04 -1.357591E+04  1.522340E+03
        75  20 -5.989179E+04  2.885887E+04  1.222791E+04 -3.988714E+04 -2.765174E+04 -3.260945E+03
        75  21 -5.753612E+04  1.339887E+04 -1.339612E+04 -3.014356E+04 -4.161452E+04 -8.346518E+03
        75  22 -2.140102E+05 -3.355562E+04 -1.548924E+04 -8.651090E+04 -1.321534E+04  1.657780E+03
        75  23 -2.125195E+05 -2.982954E+04 -2.734041E+04 -8.315408E+04 -2.747097E+04 -3.192839E+03
        75  24 -2.166179E+05 -5.201060E+04 -5.553851E+04 -7.958029E+04 -4.161335E+04 -8.345476E+03
        75  25 -3.602019E+05 -8.556192E+04 -5.263100E+04 -1.236005E+05 -1.285486E+04  1.793189E+03
        75  26 -3.651248E+05 -8.851627E+04 -6.691076E+04 -1.264114E+05 -2.729024E+04 -3.124752E+03
        75  27 -3.756749E+05 -1.174170E+05 -9.768309E+04 -1.290051E+05 -4.161218E+04 -8.344433E+03
        76   1 -3.088256E+04  1.863060E+04 -2.417006E+04 -7.111708E+04  5.291963E+04  1.153775E+04
        76   2 -2.671427E+04  7.626711E+04 -6.902017E+04 -1.595558E+04  1.130929E+05  3.414657E+04
        76   3 -1.146380E+05 -1.052500E+05 -2.230119E+05  9.527029E+04  1.713912E+05  6.175080E+04
        76   4 -2.255495E+05 -2.572616E+04 -6.881994E+04 -9.490848E+04  5.139128E+04  1.096623E+04
        76   5 -1.936953E+05 -8.429023E+03 -1.161918E+05 -8.438041E+04  1.145734E+05  3.469788E+04
        76   6 -2.545635E+05 -2.309323E+05 -2.751131E+05 -1.777842E+04  1.758825E+05  6.341412E+04
        76   7 -4.201781E+05 -7.008389E+04 -1.134717E+05 -1.186958E+05  4.986346E+04  1.039473E+04
        76   8 -3.606468E+05 -9.311523E+04 -1.633656E+05 -1.527859E+05  1.160534E+05  3.524888E+04
        76   9 -3.944550E+05 -3.565701E+05 -3.272135E+05 -1.307941E+05  1.803728E+05  6.507569E+04
        76  10 -3.088561E+04  1.862971E+04 -2.417558E+04 -7.111757E+04 -1.559132E-09 -1.070247E-09
        76  11 -2.672832E+04  7.626243E+04 -6.904640E+04 -1.595869E+04 -3.701466E-11  1.148386E-10
        76  12 -1.146706E+05 -1.052620E+05 -2.230742E+05  9.526177E+04  1.138026E-09  5.133239E-11
        76  13 -2.255524E+05 -2.572700E+04 -6.882513E+04 -9.490894E+04 -1.824752E-09 -1.677799E-09
        76  14 -1.937097E+05 -8.433843E+03 -1.162187E+05 -8.438361E+04 -3.032314E-09  4.347865E-09
        76  15 -2.545978E+05 -2.309449E+05 -2.751788E+05 -1.778741E+04 -8.069858E-10  6.630261E-10
        76  16 -4.201808E+05 -7.008467E+04 -1.134766E+05 -1.186962E+05 -4.132998E-10  7.014423E-10
        76  17 -3.606616E+05 -9.312019E+04 -1.633933E+05 -1.527892E+05  1.467050E-09  1.116561E-09
        76  18 -3.944911E+05 -3.565834E+05 -3.272827E+05 -1.308035E+05  8.230941E-10  1.448176E-10
        76  19 -3.088256E+04  1.863060E+04 -2.417006E+04 -7.111708E+04 -5.291963E+04 -1.153775E+04
        76  20 -2.671427E+04  7.626711E+04 -6.902017E+04 -1.595558E+04 -1.130929E+05 -3.414657E+04
        76  21 -1.146380E+05 -1.052500E+05 -2.230119E+05  9.527029E+04 -1.713912E+05 -6.175080E+04
        76  22 -2.255495E+05 -2.572616E+04 -6.881994E+04 -9.490848E+04 -5.139128E+04 -1.096623E+04
        76  23 -1.936953E+05 -8.429023E+03 -1.161918E+05 -8.438041E+04 -1.145734E+05 -3.469788E+04
        76  24 -2.545635E+05 -2.309323E+05 -2.751131E+05 -1.777842E+04 -1.758825E+05 -6.341412E+04
        76  25 -4.201781E+05 -7.008389E+04 -1.134717E+05 -1.186958E+05 -4.986346E+04 -1.039473E+04
        76  26 -3.606468E+05 -9.311523E+04 -1.633656E+05 -1.527859E+05 -1.160534E+05 -3.524888E+04
        76  27 -3.944550E+05 -3.565701E+05 -3.272135E+05 -1.307941E+05 -1.803728E+05 -6.507569E+04
        77   1  2.235895E+05  2.098867E+06  2.216648E+05 -3.806200E+04  9.850404E+03  1.042992E+05
        77   2  1.684651E+05  2.093926E+06  1.585835E+05 -1.678761E+04  3.418542E+04  5.944293E+04
        77   3  1.548487E+05  2.105218E+06  1.350292E+05  6.252570E+03  4.373855E+04  1.458943E+04
        77   4  6.515465E+04  1.454846E+06  7.221917E+04  3.437508E+03  9.859541E+03  4.855370E+04
        77   5  1.535287E+04  1.448994E+06  3.667837E+04  2.547140E+03  3.419438E+04  2.967722E+04
        77   6  2.579085E+03  1.454887E+06  2.267466E+04  3.423415E+03  4.374351E+04  1.080219E+04
        77   7 -9.330125E+04  8.112165E+05 -7.724179E+04  4.489379E+04  9.861254E+03 -7.134518E+03
        77   8 -1.377817E+05  8.044649E+05 -8.524165E+04  2.186139E+04  3.420151E+04 -5.841506E+01
        77   9 -1.497131E+05  8.049702E+05 -8.969444E+04  5.973298E+02  4.374852E+04  7.018781E+03
        77  10  2.235865E+05  2.098856E+06  2.216443E+05 -3.806283E+04 -1.687412E-11  2.943726E-09
        77  11  1.684629E+05  2.093922E+06  1.585747E+05 -1.678925E+04  3.631981E-10  8.055458E-10
        77  12  1.548465E+05  2.105217E+06  1.350252E+05  6.252056E+03 -3.503737E-09 -1.087456E-09
        77  13  6.515392E+04  1.454843E+06  7.221456E+04  3.437123E+03  1.595610E-09 -6.074696E-11
        77  14  1.535138E+04  1.448993E+06  3.667452E+04  2.546323E+03  1.114523E-09  4.616995E-11
        77  15  2.576998E+03  1.454887E+06  2.267084E+04  3.423035E+03 -1.700422E-09  6.889704E-10
        77  16 -9.330137E+04  8.112164E+05 -7.724207E+04  4.489385E+04  2.127831E-09 -2.960148E-09
        77  17 -1.377830E+05  8.044646E+05 -8.524385E+04  2.186140E+04  2.933625E-09 -8.110769E-10
        77  18 -1.497152E+05  8.049697E+05 -8.969814E+04  5.970825E+02  2.993401E-11  9.629422E-10
        77  19  2.235895E+05  2.098867E+06  2.216648E+05 -3.806200E+04 -9.850404E+03 -1.042992E+05
        77  20  1.684651E+05  2.093926E+06  1.585835E+05 -1.678761E+04 -3.418542E+04 -5.944293E+04
        77  21  1.548487E+05  2.105218E+06  1.350292E+05  6.252570E+03 -4.373855E+04 -1.458943E+04
        77  22  6.515465E+04  1.454846E+06  7.221917E+04  3.437508E+03 -9.859541E+03 -4.855370E+04
        77  23  1.535287E+04  1.448994E+06  3.667837E+04  2.547140E+03 -3.419438E+04 -2.967722E+04
        77  24  2.579085E+03  1.454887E+06  2.267466E+04  3.423415E+03 -4.374351E+04 -1.080219E+04
        77  25 -9.330125E+04  8.112165E+05 -7.724179E+04  4.489379E+04 -9.861254E+03  7.134518E+03
        77  26 -1.377817E+05  8.044649E+05 -8.524165E+04  2.186139E+04 -3.420151E+04  5.841506E+01
        77  27 -1.497131E+05  8.049702E+05 -8.969444E+04  5.973298E+02 -4.374852E+04 -7.018781E+03
        78   1  1.555143E+05  2.104640E+06  1.308969E+05  1.174584E+03  4.473865E+04  1.291421E+04
        78   2  1.539206E+05  2.106791E+06  1.270801E+05  2.625848E+03  4.636119E+04 -2.838049E+02
        78   3  1.575236E+05  2.111997E+06  1.331464E+05  4.877626E+03  4.516956E+04 -1.348304E+04
        78   4  3.083621E+03  1.452762E+06  1.929663E+04  3.209526E+03  4.474459E+04  7.594394E+03
        78   5  1.049522E+03  1.451662E+06  1.651493E+04  2.809001E+03  4.636577E+04 -6.517393E+02
        78   6  3.357415E+03  1.452760E+06  2.019003E+04  3.209031E+03  4.517138E+04 -8.899015E+03
        78   7 -1.493696E+05  8.013009E+05 -9.231782E+04  5.242302E+03  4.475051E+04  2.279970E+03
        78   8 -1.518441E+05  7.969533E+05 -9.406399E+04  2.991997E+03  4.637036E+04 -1.019299E+03
        78   9 -1.508319E+05  7.939491E+05 -9.278082E+04  1.542314E+03  4.517318E+04 -4.319690E+03
        78  10  1.555121E+05  2.104639E+06  1.308929E+05  1.174119E+03 -5.542622E-09  6.770369E-08
        78  11  1.539183E+05  2.106791E+06  1.270761E+05  2.625859E+03 -4.188196E-09 -2.050623E-08
        78  12  1.575214E+05  2.111996E+06  1.331422E+05  4.878116E+03 -1.597159E-09 -1.054877E-07
        78  13  3.081454E+03  1.452762E+06  1.929275E+04  3.209253E+03 -3.881761E-09 -6.241440E-11
        78  14  1.047212E+03  1.451661E+06  1.651089E+04  2.809025E+03 -3.159636E-09 -1.038193E-10
        78  15  3.355201E+03  1.452760E+06  2.018604E+04  3.209355E+03  1.361380E-09  1.556404E-09
        78  16 -1.493718E+05  8.013004E+05 -9.232160E+04  5.242220E+03 -2.257584E-09 -6.780247E-08
        78  17 -1.518464E+05  7.969527E+05 -9.406804E+04  2.992036E+03 -2.973112E-09  2.024738E-08
        78  18 -1.508341E+05  7.939485E+05 -9.278469E+04  1.542471E+03 -1.009655E-09  1.048644E-07
        78  19  1.555143E+05  2.104640E+06  1.308969E+05  1.174584E+03 -4.473865E+04 -1.291421E+04
        78  20  1.539206E+05  2.106791E+06  1.270801E+05  2.625848E+03 -4.636119E+04  2.838049E+02
        78  21  1.575236E+05  2.111997E+06  1.331464E+05  4.877626E+03 -4.516956E+04  1.348304E+04
        78  22  3.083621E+03  1.452762E+06  1.929663E+04  3.209526E+03 -4.474459E+04 -7.594394E+03
        78  23  1.049522E+03  1.451662E+06  1.651493E+04  2.809001E+03 -4.636577E+04  6.517393E+02
        78  24  3.357415E+03  1.452760E+06  2.019003E+04  3.209031E+03 -4.517138E+04  8.899015E+03
        78  25 -1.493696E+05  8.013009E+05 -9.231782E+04  5.242302E+03 -4.475051E+04 -2.279970E+03
        78  26 -1.518441E+05  7.969533E+05 -9.406399E+04  2.991997E+03 -4.637036E+04  1.019299E+03
        78  27 -1.508319E+05  7.939491E+05 -9.278082E+04  1.542314E+03 -4.517318E+04  4.319690E+03
        79   1  1.579415E+05  2.117581E+06  1.386631E+05 -5.814345E+02  4.445260E+04 -1.526322E+04
        79   2  1.744318E+05  2.113090E+06  1.654308E+05  2.364268E+04  3.506159E+04 -6.280836E+04
        79   3  2.358539E+05  2.126037E+06  2.343246E+05  4.768652E+04  1.022738E+04 -1.103706E+05
        79   4  2.796578E+03  1.455108E+06  2.407862E+04  2.984206E+03  4.445490E+04 -1.226875E+04
        79   5  1.670109E+04  1.448708E+06  3.962165E+04  3.097030E+03  3.504476E+04 -3.267193E+04
        79   6  7.085841E+04  1.455059E+06  7.849624E+04  3.028500E+03  1.018755E+04 -5.309026E+04
        79   7 -1.523718E+05  7.930636E+05 -9.052099E+04  6.545999E+03  4.445723E+04 -9.277371E+03
        79   8 -1.410532E+05  7.847540E+05 -8.620349E+04 -1.742610E+04  3.502593E+04 -2.566870E+03
        79   9 -9.415943E+04  7.845063E+05 -7.734902E+04 -4.158098E+04  1.013949E+04  4.128842E+03
        79  10  1.579393E+05  2.117580E+06  1.386589E+05 -5.808886E+02  3.970421E-10  4.809012E-08
        79  11  1.744294E+05  2.113086E+06  1.654211E+05  2.364445E+04  3.854634E-09  1.702170E-08
        79  12  2.358505E+05  2.126024E+06  2.343016E+05  4.768743E+04  1.110617E-09 -1.705894E-08
        79  13  2.794414E+03  1.455107E+06  2.407462E+04  2.984645E+03  1.973542E-09 -9.316094E-11
        79  14  1.669949E+04  1.448707E+06  3.961734E+04  3.097952E+03  3.893355E-09 -8.170875E-11
        79  15  7.085754E+04  1.455056E+06  7.849076E+04  3.028935E+03  2.989193E-09  2.274326E-09
        79  16 -1.523740E+05  7.930629E+05 -9.052486E+04  6.546331E+03  3.626280E-09 -4.853188E-08
        79  17 -1.410546E+05  7.847537E+05 -8.620581E+04 -1.742603E+04  3.829239E-09 -1.670235E-08
        79  18 -9.415954E+04  7.845062E+05 -7.734924E+04 -4.158102E+04  3.617158E-09  1.645603E-08
        79  19  1.579415E+05  2.117581E+06  1.386631E+05 -5.814345E+02 -4.445260E+04  1.526322E+04
        79  20  1.744318E+05  2.113090E+06  1.654308E+05  2.364268E+04 -3.506159E+04  6.280836E+04
        79  21  2.358539E+05  2.126037E+06  2.343246E+05  4.768652E+04 -1.022738E+04  1.103706E+05
        79  22  2.796578E+03  1.455108E+06  2.407862E+04  2.984206E+03 -4.445490E+04  1.226875E+04
        79  23  1.670109E+04  1.448708E+06  3.962165E+04  3.097030E+03 -3.504476E+04  3.267193E+04
        79  24  7.085841E+04  1.455059E+06  7.849624E+04  3.028500E+03 -1.018755E+04  5.309026E+04
        79  25 -1.523718E+05  7.930636E+05 -9.052099E+04  6.545999E+03 -4.445723E+04  9.277371E+03
        79  26 -1.410532E+05  7.847540E+05 -8.620349E+04 -1.742610E+04 -3.502593E+04  2.566870E+03
        79  27 -9.415943E+04  7.845063E+05 -7.734902E+04 -4.158098E+04 -1.013949E+04 -4.128842E+03
        80   1 -2.276897E+06 -4.473094E+05 -4.021232E+05 -5.568707E+04  6.873451E+04  2.752646E+04
        80   2 -2.111370E+06 -5.552565E+05 -4.319547E+05 -3.786405E+04  6.319968E+04  8.345647E+04
        80   3 -1.900859E+06 -5.032708E+05 -4.174338E+05 -1.277193E+05  5.790763E+04  8.128795E+04
        80   4  1.003344E+05  1.448850E+05  1.813465E+05 -1.036455E+05  1.239875E+05  2.775316E+04
        80   5  7.476304E+04 -1.518768E+04  8.009711E+04 -4.952533E+04  8.078498E+04  8.349371E+04
        80   6  1.005348E+05 -9.085744E+03  4.923969E+04 -1.030523E+05  3.782902E+04  8.122605E+04
        80   7  2.482736E+06  7.366713E+05  7.644143E+05 -1.517936E+05  1.794515E+05  2.797090E+04
        80   8  2.265311E+06  5.245422E+05  5.918243E+05 -6.123156E+04  9.843158E+04  8.353025E+04
        80   9  2.105632E+06  4.848179E+05  5.156437E+05 -7.830696E+04  1.768581E+04  8.116267E+04
        80  10 -2.276902E+06 -4.473115E+05 -4.021335E+05 -5.568859E+04 -1.292166E-10  2.857169E-10
        80  11 -2.111377E+06 -5.552650E+05 -4.319753E+05 -3.786831E+04 -7.324613E-10  5.389943E-10
        80  12 -1.900864E+06 -5.032788E+05 -4.174525E+05 -1.277231E+05 -1.956117E-09  1.724409E-11
        80  13  1.003177E+05  1.448800E+05  1.813162E+05 -1.036483E+05 -2.146642E-09  2.148322E-10
        80  14  7.475416E+04 -1.519692E+04  8.007174E+04 -4.953076E+04  5.373051E-10  4.506543E-10
        80  15  1.005315E+05 -9.093214E+03  4.922460E+04 -1.030548E+05  3.911646E-10  1.466586E-10
        80  16  2.482701E+06  7.366619E+05  7.643526E+05 -1.517976E+05 -1.689591E-10  1.358636E-10
        80  17  2.265298E+06  5.245321E+05  5.917930E+05 -6.123817E+04  5.842598E-10  3.833986E-10
        80  18  2.105630E+06  4.848107E+05  5.156308E+05 -7.830811E+04  8.704574E-10  1.798991E-10
        80  19 -2.276897E+06 -4.473094E+05 -4.021232E+05 -5.568707E+04 -6.873451E+04 -2.752646E+04
        80  20 -2.111370E+06 -5.552565E+05 -4.319547E+05 -3.786405E+04 -6.319968E+04 -8.345647E+04
        80  21 -1.900859E+06 -5.032708E+05 -4.174338E+05 -1.277193E+05 -5.790763E+04 -8.128795E+04
        80  22  1.003344E+05  1.448850E+05  1.813465E+05 -1.036455E+05 -1.239875E+05 -2.775316E+04
        80  23  7.476304E+04 -1.518768E+04  8.009711E+04 -4.952533E+04 -8.078498E+04 -8.349371E+04
        80  24  1.005348E+05 -9.085744E+03  4.923969E+04 -1.030523E+05 -3.782902E+04 -8.122605E+04
        80  25  2.482736E+06  7.366713E+05  7.644143E+05 -1.517936E+05 -1.794515E+05 -2.797090E+04
        80  26  2.265311E+06  5.245422E+05  5.918243E+05 -6.123156E+04 -9.843158E+04 -8.353025E+04
        80  27  2.105632E+06  4.848179E+05  5.156437E+05 -7.830696E+04 -1.768581E+04 -8.116267E+04
        81   1 -1.714627E+06 -4.347358E+05 -3.830497E+05 -1.019778E+05  3.266567E+04  6.880842E+04
        81   2 -1.531176E+06 -4.015855E+05 -3.575506E+05 -4.948679E+04  2.429283E+04  6.365994E+04
        81   3 -1.341025E+06 -3.546242E+05 -3.226766E+05 -1.056842E+05  1.590031E+04  5.532086E+04
        81   4  9.087415E+04  1.127215E+04  3.975842E+04 -1.034559E+05  3.043717E+04  6.879064E+04
        81   5  8.743985E+04 -1.944190E+03  2.061012E+04 -4.911185E+04  1.997357E+04  6.364401E+04
        81   6  9.102405E+04 -1.003871E+03  1.227072E+04 -1.034382E+05  9.492790E+03  5.531058E+04
        81   7  1.899384E+06  4.570484E+05  4.623442E+05 -1.049394E+05  2.820212E+04  6.877290E+04
        81   8  1.708475E+06  3.975113E+05  3.985930E+05 -4.873647E+04  1.564304E+04  6.362809E+04
        81   9  1.524966E+06  3.524709E+05  3.470786E+05 -1.011869E+05  3.070543E+03  5.530027E+04
        81  10 -1.714630E+06 -4.347412E+05 -3.830606E+05 -1.019796E+05 -8.382925E-10 -1.667789E-10
        81  11 -1.531178E+06 -4.015900E+05 -3.575593E+05 -4.948803E+04  4.799593E-10  1.251541E-10
        81  12 -1.341026E+06 -3.546275E+05 -3.226828E+05 -1.056849E+05 -2.828002E-10  2.957143E-10
        81  13  9.087188E+04  1.126681E+04  3.974779E+04 -1.034576E+05 -3.235036E-09 -9.265500E-11
        81  14  8.743834E+04 -1.948647E+03  2.060176E+04 -4.911287E+04  5.358566E-10 -1.854524E-10
        81  15  9.102313E+04 -1.007180E+03  1.226480E+04 -1.034386E+05 -1.646195E-09  5.790757E-11
        81  16  1.899382E+06  4.570432E+05  4.623339E+05 -1.049409E+05  1.613509E-10  1.033894E-10
        81  17  1.708474E+06  3.975069E+05  3.985849E+05 -4.873727E+04 -6.788873E-11  1.851440E-10
        81  18  1.524965E+06  3.524676E+05  3.470728E+05 -1.011870E+05 -3.432135E-10 -3.283618E-10
        81  19 -1.714627E+06 -4.347358E+05 -3.830497E+05 -1.019778E+05 -3.266567E+04 -6.880842E+04
        81  20 -1.531176E+06 -4.015855E+05 -3.575506E+05 -4.948679E+04 -2.429283E+04 -6.365994E+04
        81  21 -1.341025E+06 -3.546242E+05 -3.226766E+05 -1.056842E+05 -1.590031E+04 -5.532086E+04
        81  22  9.087415E+04  1.127215E+04  3.975842E+04 -1.034559E+05 -3.043717E+04 -6.879064E+04
        81  23  8.743985E+04 -1.944190E+03  2.061012E+04 -4.911185E+04 -1.997357E+04 -6.364401E+04
        81  24  9.102405E+04 -1.003871E+03  1.227072E+04 -1.034382E+05 -9.492790E+03 -5.531058E+04
        81  25  1.899384E+06  4.570484E+05  4.623442E+05 -1.049394E+05 -2.820212E+04 -6.877290E+04
        81  26  1.708475E+06  3.975113E+05  3.985930E+05 -4.873647E+04 -1.564304E+04 -6.362809E+04
        81  27  1.524966E+06  3.524709E+05  3.470786E+05 -1.011869E+05 -3.070543E+03 -5.530027E+04
        82   1 -1.147094E+06 -3.046054E+05 -2.789401E+05 -1.032472E+05  1.299398E+04  4.985947E+04
        82   2 -9.612546E+05 -2.595949E+05 -2.400649E+05 -4.879704E+04  1.049379E+04  4.137947E+04
        82   3 -7.740881E+05 -2.132654E+05 -1.990927E+05 -1.029026E+05  7.977187E+03  3.272831E+04
        82   4  8.988994E+04  6.340349E+02  9.469675E+03 -1.034148E+05  7.571512E+03  4.985326E+04
        82   5  8.928035E+04 -3.122016E+02  5.249259E+03 -4.914264E+04  4.955101E+03  4.137778E+04
        82   6  8.998692E+04  8.271807E+01  3.205970E+03 -1.034149E+05  2.323022E+03  3.273140E+04
        82   7  1.328287E+06  3.057651E+05  2.977760E+05 -1.035825E+05  2.138291E+03  4.984707E+04
        82   8  1.140834E+06  2.588923E+05  2.504887E+05 -4.948864E+04 -5.929135E+02  4.137611E+04
        82   9  9.547505E+05  2.133778E+05  2.054538E+05 -1.039278E+05 -3.338972E+03  3.273450E+04
        82  10 -1.147095E+06 -3.046081E+05 -2.789451E+05 -1.032478E+05 -5.934820E-10  1.093529E-10
        82  11 -9.612552E+05 -2.595968E+05 -2.400684E+05 -4.879739E+04  2.122776E-09  3.740207E-10
        82  12 -7.740885E+05 -2.132666E+05 -1.990948E+05 -1.029028E+05 -1.207300E-09  1.185032E-09
        82  13  8.988921E+04  6.313505E+02  9.464896E+03 -1.034151E+05 -7.748578E-12 -3.125432E-10
        82  14  8.927986E+04 -3.140468E+02  5.245995E+03 -4.914280E+04  2.153163E-09 -3.292844E-11
        82  15  8.998663E+04  8.156612E+01  3.203947E+03 -1.034150E+05 -6.013925E-10  1.277154E-09
        82  16  1.328287E+06  3.057625E+05  2.977713E+05 -1.035826E+05  6.528883E-11 -5.351791E-10
        82  17  1.140833E+06  2.588905E+05  2.504854E+05 -4.948862E+04  4.300504E-10  1.436676E-10
        82  18  9.547502E+05  2.133767E+05  2.054518E+05 -1.039277E+05  7.275610E-10  1.021675E-09
        82  19 -1.147094E+06 -3.046054E+05 -2.789401E+05 -1.032472E+05 -1.299398E+04 -4.985947E+04
        82  20 -9.612546E+05 -2.595949E+05 -2.400649E+05 -4.879704E+04 -1.049379E+04 -4.137947E+04
        82  21 -7.740881E+05 -2.132654E+05 -1.990927E+05 -1.029026E+05 -7.977187E+03 -3.272831E+04
        82  22  8.988994E+04  6.340349E+02  9.469675E+03 -1.034148E+05 -7.571512E+03 -4.985326E+04
        82  23  8.928035E+04 -3.122016E+02  5.249259E+03 -4.914264E+04 -4.955101E+03 -4.137778E+04
        82  24  8.998692E+04  8.271807E+01  3.205970E+03 -1.034149E+05 -2.323022E+03 -3.273140E+04
        82  25  1.328287E+06  3.057651E+05  2.977760E+05 -1.035825E+05 -2.138291E+03 -4.984707E+04
        82  26  1.140834E+06  2.588923E+05  2.504887E+05 -4.948864E+04  5.929135E+02 -4.137611E+04
        82  27  9.547505E+05  2.133778E+05  2.054538E+05 -1.039278E+05  3.338972E+03 -3.273450E+04
        83   1 -5.794456E+05 -1.648399E+05 -1.531901E+05 -1.028158E+05  7.400255E+03  2.766198E+04
        83   2 -3.930854E+05 -1.190612E+05 -1.110964E+05 -4.868192E+04  6.594667E+03  1.901075E+04
        83   3 -2.067012E+05 -7.291884E+04 -6.843600E+04 -1.030053E+05  5.781586E+03  1.035230E+04
        83   4  8.976855E+04  1.805755E+02  2.490277E+03 -1.033943E+05  1.800795E+03  2.766724E+04
        83   5  8.979587E+04  7.821378E+01  1.622802E+03 -4.916823E+04  9.889784E+02  1.901807E+04
        83   6  8.981303E+04  3.420813E+02  1.326827E+03 -1.033942E+05  1.699058E+02  1.036182E+04
        83   7  7.593963E+05  1.651694E+05  1.581405E+05 -1.039733E+05 -3.804664E+03  2.767250E+04
        83   8  5.728923E+05  1.192011E+05  1.143263E+05 -4.965483E+04 -4.621044E+03  1.902539E+04
        83   9  3.864083E+05  7.359675E+04  7.108373E+04 -1.037832E+05 -5.444439E+03  1.037134E+04
        83  10 -5.794459E+05 -1.648407E+05 -1.531916E+05 -1.028160E+05  1.058081E-09  1.443146E-09
        83  11 -3.930856E+05 -1.190616E+05 -1.110971E+05 -4.868202E+04 -2.391473E-09  5.048677E-10
        83  12 -2.067013E+05 -7.291897E+04 -6.843627E+04 -1.030054E+05 -4.170801E-09 -1.451095E-09
        83  13  8.976835E+04  1.797526E+02  2.488832E+03 -1.033944E+05  3.267589E-12  6.160778E-10
        83  14  8.979577E+04  7.782511E+01  1.622120E+03 -4.916824E+04 -3.234556E-09  4.202249E-10
        83  15  8.981301E+04  3.419660E+02  1.326625E+03 -1.033942E+05  3.337547E-10 -6.104739E-10
        83  16  7.593961E+05  1.651686E+05  1.581391E+05 -1.039732E+05 -9.811785E-10  7.153466E-10
        83  17  5.728922E+05  1.192007E+05  1.143255E+05 -4.965475E+04  3.560925E-09 -5.387150E-10
        83  18  3.864082E+05  7.359663E+04  7.108347E+04 -1.037831E+05  6.754751E-09 -6.296163E-10
        83  19 -5.794456E+05 -1.648399E+05 -1.531901E+05 -1.028158E+05 -7.400255E+03 -2.766198E+04
        83  20 -3.930854E+05 -1.190612E+05 -1.110964E+05 -4.868192E+04 -6.594667E+03 -1.901075E+04
        83  21 -2.067012E+05 -7.291884E+04 -6.843600E+04 -1.030053E+05 -5.781586E+03 -1.035230E+04
        83  22  8.976855E+04  1.805755E+02  2.490277E+03 -1.033943E+05 -1.800795E+03 -2.766724E+04
        83  23  8.979587E+04  7.821378E+01  1.622802E+03 -4.916823E+04 -9.889784E+02 -1.901807E+04
        83  24  8.981303E+04  3.420813E+02  1.326827E+03 -1.033942E+05 -1.699058E+02 -1.036182E+04
        83  25  7.593963E+05  1.651694E+05  1.581405E+05 -1.039733E+05  3.804664E+03 -2.767250E+04
        83  26  5.728923E+05  1.192011E+05  1.143263E+05 -4.965483E+04  4.621044E+03 -1.902539E+04
        83  27  3.864083E+05  7.359675E+04  7.108373E+04 -1.037832E+05  5.444439E+03 -1.037134E+04
        84   1 -1.189933E+04 -2.463784E+04 -2.186727E+04 -1.032565E+05  5.531319E+03  5.311264E+03
        84   2  1.745908E+05  2.104003E+04  2.136254E+04 -4.926189E+04  4.722172E+03 -3.342979E+03
        84   3  3.608900E+05  6.711286E+04  6.511741E+04 -1.036841E+05  3.914068E+03 -1.198999E+04
        84   4  8.978539E+04  3.336390E+02  1.307997E+03 -1.033866E+05 -8.032513E+01  5.321361E+03
        84   5  8.989333E+04  1.501289E+02  1.598220E+03 -4.917773E+04 -8.854756E+02 -3.333326E+03
        84   6  8.977756E+04  3.632141E+02  2.412571E+03 -1.033865E+05 -1.689347E+03 -1.198065E+04
        84   7  1.914798E+05  2.530442E+04  2.448271E+04 -1.035167E+05 -5.692880E+03  5.331460E+03
        84   8  5.202599E+03 -2.074026E+04 -1.816646E+04 -4.909357E+04 -6.492363E+03 -3.323674E+03
        84   9 -1.812669E+05 -6.639157E+04 -6.029707E+04 -1.030890E+05 -7.290334E+03 -1.197132E+04
        84  10 -1.189937E+04 -2.463788E+04 -2.186738E+04 -1.032565E+05  3.622405E-09 -1.211654E-09
        84  11  1.745907E+05  2.104001E+04  2.136247E+04 -4.926187E+04  1.552219E-09  4.503106E-10
        84  12  3.608899E+05  6.711270E+04  6.511712E+04 -1.036840E+05 -1.914286E-09  6.000462E-10
        84  13  8.978538E+04  3.336086E+02  1.307944E+03 -1.033866E+05 -2.148539E-09 -3.807248E-10
        84  14  8.989333E+04  1.501167E+02  1.598198E+03 -4.917773E+04  1.074792E-09  6.672201E-10
        84  15  8.977752E+04  3.630592E+02  2.412296E+03 -1.033865E+05 -1.019207E-09  6.522489E-10
        84  16  1.914797E+05  2.530438E+04  2.448259E+04 -1.035167E+05 -3.506537E-09 -4.687723E-10
        84  17  5.202551E+03 -2.074028E+04 -1.816656E+04 -4.909359E+04 -1.004103E-09  5.774957E-10
        84  18 -1.812670E+05 -6.639174E+04 -6.029743E+04 -1.030891E+05 -5.736264E-10 -1.072702E-10
        84  19 -1.189933E+04 -2.463784E+04 -2.186727E+04 -1.032565E+05 -5.531319E+03 -5.311264E+03
        84  20  1.745908E+05  2.104003E+04  2.136254E+04 -4.926189E+04 -4.722172E+03  3.342979E+03
        84  21  3.608900E+05  6.711286E+04  6.511741E+04 -1.036841E+05 -3.914068E+03  1.198999E+04
        84  22  8.978539E+04  3.336390E+02  1.307997E+03 -1.033866E+05  8.032513E+01 -5.321361E+03
        84  23  8.989333E+04  1.501289E+02  1.598220E+03 -4.917773E+04  8.854756E+02  3.333326E+03
        84  24  8.977756E+04  3.632141E+02  2.412571E+03 -1.033865E+05  1.689347E+03  1.198065E+04
        84  25  1.914798E+05  2.530442E+04  2.448271E+04 -1.035167E+05  5.692880E+03 -5.331460E+03
        84  26  5.202599E+03 -2.074026E+04 -1.816646E+04 -4.909357E+04  6.492363E+03  3.323674E+03
        84  27 -1.812669E+05 -6.639157E+04 -6.029707E+04 -1.030890E+05  7.290334E+03  1.197132E+04
        85   1  5.560061E+05  1.152886E+05  1.123587E+05 -1.037794E+05  3.456097E+03 -1.704635E+04
        85   2  7.422126E+05  1.608194E+05  1.573323E+05 -4.972260E+04  8.075049E+02 -2.568435E+04
        85   3  9.291236E+05  2.077573E+05  2.043652E+05 -1.041331E+05 -1.831959E+03 -3.417774E+04
        85   4  8.993715E+04  2.532518E+02  3.075011E+03 -1.033994E+05 -2.194191E+03 -1.703800E+04
        85   5  8.957731E+04 -9.261326E+01  5.089456E+03 -4.916185E+04 -4.747259E+03 -2.567907E+04
        85   6  8.987695E+04  9.558690E+02  9.101148E+03 -1.033985E+05 -7.290420E+03 -3.417534E+04
        85   7 -3.759318E+05 -1.147975E+05 -1.062234E+05 -1.030197E+05 -7.840265E+03 -1.702966E+04
        85   8 -5.626654E+05 -1.610347E+05 -1.471821E+05 -4.860155E+04 -1.029623E+04 -2.567380E+04
        85   9 -7.487203E+05 -2.058952E+05 -1.862104E+05 -1.026647E+05 -1.274156E+04 -3.417295E+04
        85  10  5.560060E+05  1.152883E+05  1.123581E+05 -1.037793E+05 -1.838952E-09 -8.936635E-11
        85  11  7.422124E+05  1.608187E+05  1.573311E+05 -4.972258E+04 -1.617175E-11  5.324761E-11
        85  12  9.291232E+05  2.077560E+05  2.043630E+05 -1.041331E+05  6.627266E-10  2.392508E-10
        85  13  8.993707E+04  2.529387E+02  3.074456E+03 -1.033995E+05 -2.147043E-09 -2.933714E-10
        85  14  8.957710E+04 -9.332745E+01  5.088174E+03 -4.916194E+04 -1.068868E-09 -6.096825E-11
        85  15  8.987658E+04  9.546005E+02  9.098853E+03 -1.033987E+05 -1.757952E-10 -5.924667E-10
        85  16 -3.759319E+05 -1.147978E+05 -1.062240E+05 -1.030198E+05 -2.125308E-10  1.876270E-10
        85  17 -5.626657E+05 -1.610355E+05 -1.471836E+05 -4.860176E+04  6.940933E-10  1.316645E-10
        85  18 -7.487208E+05 -2.058965E+05 -1.862129E+05 -1.026651E+05 -1.007657E-09 -7.639131E-10
        85  19  5.560061E+05  1.152886E+05  1.123587E+05 -1.037794E+05 -3.456097E+03  1.704635E+04
        85  20  7.422126E+05  1.608194E+05  1.573323E+05 -4.972260E+04 -8.075049E+02  2.568435E+04
        85  21  9.291236E+05  2.077573E+05  2.043652E+05 -1.041331E+05  1.831959E+03  3.417774E+04
        85  22  8.993715E+04  2.532518E+02  3.075011E+03 -1.033994E+05  2.194191E+03  1.703800E+04
        85  23  8.957731E+04 -9.261326E+01  5.089456E+03 -4.916185E+04  4.747259E+03  2.567907E+04
        85  24  8.987695E+04  9.558690E+02  9.101148E+03 -1.033985E+05  7.290420E+03  3.417534E+04
        85  25 -3.759318E+05 -1.147975E+05 -1.062234E+05 -1.030197E+05  7.840265E+03  1.702966E+04
        85  26 -5.626654E+05 -1.610347E+05 -1.471821E+05 -4.860155E+04  1.029623E+04  2.567380E+04
        85  27 -7.487203E+05 -2.058952E+05 -1.862104E+05 -1.026647E+05  1.274156E+04  3.417295E+04
        86   1  1.125429E+06  2.544693E+05  2.535197E+05 -1.020958E+05 -2.850977E+03 -3.955928E+04
        86   2  1.309282E+06  2.994936E+05  3.047197E+05 -5.018589E+04 -1.470904E+04 -4.792069E+04
        86   3  1.499226E+06  3.585497E+05  3.673427E+05 -1.067771E+05 -2.655466E+04 -5.361075E+04
        86   4  9.091824E+04 -6.300149E+02  1.177153E+04 -1.034078E+05 -9.138343E+03 -3.955895E+04
        86   5  8.797943E+04 -1.534116E+03  1.986946E+04 -4.915174E+04 -1.924489E+04 -4.792646E+04
        86   6  9.080527E+04  1.130681E+04  3.819200E+04 -1.034093E+05 -2.933545E+04 -5.362023E+04
        86   7 -9.426075E+05 -2.558051E+05 -2.300492E+05 -1.047175E+05 -1.541530E+04 -3.955859E+04
        86   8 -1.131949E+06 -3.026673E+05 -2.650818E+05 -4.811953E+04 -2.377186E+04 -4.793225E+04
        86   9 -1.315790E+06 -3.360766E+05 -2.910935E+05 -1.000491E+05 -3.210992E+04 -5.362976E+04
        86  10  1.125429E+06  2.544676E+05  2.535168E+05 -1.020959E+05  4.688380E-11 -1.058342E-10
        86  11  1.309281E+06  2.994911E+05  3.047150E+05 -5.018646E+04  3.106254E-09 -6.792295E-10
        86  12  1.499225E+06  3.585464E+05  3.673360E+05 -1.067783E+05 -1.410221E-10 -1.010517E-10
        86  13  9.091773E+04 -6.317179E+02  1.176843E+04 -1.034081E+05 -1.089227E-09 -5.835992E-10
        86  14  8.797842E+04 -1.536682E+03  1.986445E+04 -4.915249E+04 -5.341951E-10 -4.950733E-10
        86  15  9.080357E+04  1.130349E+04  3.818497E+04 -1.034105E+05  1.740845E-09  2.066565E-10
        86  16 -9.426082E+05 -2.558069E+05 -2.300526E+05 -1.047180E+05 -2.398134E-11 -1.285554E-09
        86  17 -1.131950E+06 -3.026699E+05 -2.650871E+05 -4.812045E+04 -4.868998E-10 -3.099959E-10
        86  18 -1.315792E+06 -3.360799E+05 -2.911009E+05 -1.000505E+05 -2.763742E-12  5.932004E-10
        86  19  1.125429E+06  2.544693E+05  2.535197E+05 -1.020958E+05  2.850977E+03  3.955928E+04
        86  20  1.309282E+06  2.994936E+05  3.047197E+05 -5.018589E+04  1.470904E+04  4.792069E+04
        86  21  1.499226E+06  3.585497E+05  3.673427E+05 -1.067771E+05  2.655466E+04  5.361075E+04
        86  22  9.091824E+04 -6.300149E+02  1.177153E+04 -1.034078E+05  9.138343E+03  3.955895E+04
        86  23  8.797943E+04 -1.534116E+03  1.986946E+04 -4.915174E+04  1.924489E+04  4.792646E+04
        86  24  9.080527E+04  1.130681E+04  3.819200E+04 -1.034093E+05  2.933545E+04  5.362023E+04
        86  25 -9.426075E+05 -2.558051E+05 -2.300492E+05 -1.047175E+05  1.541530E+04  3.955859E+04
        86  26 -1.131949E+06 -3.026673E+05 -2.650818E+05 -4.811953E+04  2.377186E+04  4.793225E+04
        86  27 -1.315790E+06 -3.360766E+05 -2.910935E+05 -1.000491E+05  3.210992E+04  5.362976E+04
        87   1  1.704612E+06  3.870570E+05  4.206589E+05 -8.171528E+04 -1.865984E+04 -6.481932E+04
        87   2  1.865882E+06  4.270426E+05  4.953263E+05 -6.380370E+04 -9.164292E+04 -6.809162E+04
        87   3  2.080478E+06  6.318631E+05  6.591678E+05 -1.533874E+05 -1.647656E+05 -2.279195E+04
        87   4  1.000304E+05 -8.232668E+03  4.728601E+04 -1.031006E+05 -3.644587E+04 -6.484418E+04
        87   5  7.597405E+04 -1.411900E+04  7.705861E+04 -4.950373E+04 -7.776876E+04 -6.808423E+04
        87   6  9.986457E+04  1.395914E+05  1.741921E+05 -1.034079E+05 -1.192062E+05 -2.269853E+04
        87   7 -1.502178E+06 -4.037022E+05 -3.262593E+05 -1.244307E+05 -5.418624E+04 -6.486784E+04
        87   8 -1.710985E+06 -4.555066E+05 -3.414260E+05 -3.524626E+04 -6.393399E+04 -6.807619E+04
        87   9 -1.877173E+06 -3.529593E+05 -3.110614E+05 -5.358972E+04 -7.379109E+04 -2.259767E+04
        87  10  1.704611E+06  3.870524E+05  4.206504E+05 -8.171626E+04  5.432283E-10  5.736928E-10
        87  11  1.865871E+06  4.270354E+05  4.953018E+05 -6.380872E+04  2.594457E-09  3.680391E-10
        87  12  2.080449E+06  6.318553E+05  6.591160E+05 -1.533904E+05  1.021684E-10 -2.724045E-10
        87  13  1.000279E+05 -8.237540E+03  4.727561E+04 -1.031025E+05 -2.128427E-09  5.775632E-10
        87  14  7.596631E+04 -1.412560E+04  7.703853E+04 -4.950799E+04 -1.077447E-09  2.916181E-10
        87  15  9.984918E+04  1.395871E+05  1.741644E+05 -1.034101E+05  1.132843E-09  2.076230E-10
        87  16 -1.502183E+06 -4.037075E+05 -3.262727E+05 -1.244335E+05 -5.113559E-11  9.558510E-10
        87  17 -1.710991E+06 -4.555127E+05 -3.414424E+05 -3.524977E+04  8.187432E-10  1.292887E-09
        87  18 -1.877179E+06 -3.529614E+05 -3.110726E+05 -5.359106E+04 -1.280093E-09  1.893684E-10
        87  19  1.704612E+06  3.870570E+05  4.206589E+05 -8.171528E+04  1.865984E+04  6.481932E+04
        87  20  1.865882E+06  4.270426E+05  4.953263E+05 -6.380370E+04  9.164292E+04  6.809162E+04
        87  21  2.080478E+06  6.318631E+05  6.591678E+05 -1.533874E+05  1.647656E+05  2.279195E+04
        87  22  1.000304E+05 -8.232668E+03  4.728601E+04 -1.031006E+05  3.644587E+04  6.484418E+04
        87  23  7.597405E+04 -1.411900E+04  7.705861E+04 -4.950373E+04  7.776876E+04  6.808423E+04
        87  24  9.986457E+04  1.395914E+05  1.741921E+05 -1.034079E+05  1.192062E+05  2.269853E+04
        87  25 -1.502178E+06 -4.037022E+05 -3.262593E+05 -1.244307E+05  5.418624E+04  6.486784E+04
        87  26 -1.710985E+06 -4.555066E+05 -3.414260E+05 -3.524626E+04  6.393399E+04  6.807619E+04
        87  27 -1.877173E+06 -3.529593E+05 -3.110614E+05 -5.358972E+04  7.379109E+04  2.259767E+04
        88   1  1.636941E+05  5.335954E+04  1.835763E+05 -1.739766E+05  1.074102E+03  8.222597E+04
        88   2 -1.591877E+03 -2.127674E+05  5.622350E+04 -7.613335E+04  2.786868E+02  4.919130E+04
        88   3 -5.971040E+04 -4.495304E+05 -2.320818E+04 -1.239719E+05 -1.000021E+04  1.612373E+04
        88   4  9.401463E+04 -2.240389E+05  1.147686E+05 -1.377174E+05  1.091339E+03  7.976659E+04
        88   5 -8.038708E+03 -2.381746E+05  5.006651E+04 -6.512520E+04  2.608857E+02  5.288784E+04
        88   6 -3.980799E+03 -2.240514E+05  2.903288E+04 -1.382049E+05 -1.005069E+04  2.596302E+04
        88   7  2.433422E+04 -5.013647E+05  4.595576E+04 -1.014743E+05  1.108294E+03  7.730831E+04
        88   8 -1.448513E+04 -2.635809E+05  4.390959E+04 -5.411749E+04  2.432153E+02  5.658424E+04
        88   9  5.174599E+04  1.475134E+03  8.127098E+04 -1.524430E+05 -1.010162E+04  3.580586E+04
        88  10  1.636923E+05  5.335228E+04  1.835636E+05 -1.739767E+05 -5.710865E-10  3.289773E-10
        88  11 -1.592527E+03 -2.127700E+05  5.621895E+04 -7.613336E+04 -1.015559E-09 -9.011714E-10
        88  12 -5.971057E+04 -4.495307E+05 -2.320885E+04 -1.239718E+05 -1.487778E-09 -1.395519E-09
        88  13  9.401292E+04 -2.240457E+05  1.147566E+05 -1.377175E+05 -3.696905E-10  8.969433E-11
        88  14 -8.039460E+03 -2.381776E+05  5.006125E+04 -6.512521E+04  3.342545E-09  4.881226E-11
        88  15 -3.981088E+03 -2.240522E+05  2.903142E+04 -1.382047E+05  1.109491E-09 -9.658588E-12
        88  16  2.433261E+04 -5.013712E+05  4.594451E+04 -1.014744E+05 -5.643096E-10 -4.174967E-10
        88  17 -1.448599E+04 -2.635843E+05  4.390357E+04 -5.411750E+04  1.172273E-09  7.246687E-10
        88  18  5.174554E+04  1.473730E+03  8.126838E+04 -1.524428E+05  5.249163E-10  1.400814E-09
        88  19  1.636941E+05  5.335954E+04  1.835763E+05 -1.739766E+05 -1.074102E+03 -8.222597E+04
        88  20 -1.591877E+03 -2.127674E+05  5.622350E+04 -7.613335E+04 -2.786868E+02 -4.919130E+04
        88  21 -5.971040E+04 -4.495304E+05 -2.320818E+04 -1.239719E+05  1.000021E+04 -1.612373E+04
        88  22  9.401463E+04 -2.240389E+05  1.147686E+05 -1.377174E+05 -1.091339E+03 -7.976659E+04
        88  23 -8.038708E+03 -2.381746E+05  5.006651E+04 -6.512520E+04 -2.608857E+02 -5.288784E+04
        88  24 -3.980799E+03 -2.240514E+05  2.903288E+04 -1.382049E+05  1.005069E+04 -2.596302E+04
        88  25  2.433422E+04 -5.013647E+05  4.595576E+04 -1.014743E+05 -1.108294E+03 -7.730831E+04
        88  26 -1.448513E+04 -2.635809E+05  4.390959E+04 -5.411749E+04 -2.432153E+02 -5.658424E+04
        88  27  5.174599E+04  1.475134E+03  8.127098E+04 -1.524430E+05  1.010162E+04 -3.580586E+04
        89   1 -1.113797E+05 -7.189013E+05 -9.216896E+04 -1.383327E+05 -1.831680E+04  1.403766E+04
        89   2 -1.826681E+05 -9.705812E+05 -1.647389E+05 -6.345559E+04 -2.911309E+04  1.110945E+04
        89   3 -2.472489E+05 -1.221398E+06 -2.340169E+05 -1.347076E+05 -3.799221E+04  8.204385E+03
        89   4  9.321868E+03 -2.301490E+05  2.238551E+04 -1.381313E+05 -1.835412E+04  2.167099E+04
        89   5 -1.735056E+01 -2.307078E+05  8.099847E+03 -6.509970E+04 -2.914021E+04  1.749952E+04
        89   6 -2.430535E+03 -2.302438E+05 -2.024986E+03 -1.381858E+05 -3.801035E+04  1.335007E+04
        89   7  1.300065E+05  2.588237E+05  1.369239E+05 -1.379294E+05 -1.839142E+04  2.931029E+04
        89   8  1.825946E+05  5.096709E+05  1.809015E+05 -6.674518E+04 -2.916735E+04  2.389715E+04
        89   9  2.423180E+05  7.618173E+05  2.299001E+05 -1.416686E+05 -3.802854E+04  1.850391E+04
        89  10 -1.113801E+05 -7.189016E+05 -9.216996E+04 -1.383325E+05 -8.173743E-10 -1.751009E-10
        89  11 -1.826690E+05 -9.705815E+05 -1.647407E+05 -6.345533E+04 -9.865609E-10  3.329317E-09
        89  12 -2.472505E+05 -1.221399E+06 -2.340198E+05 -1.347074E+05 -1.215970E-09  5.421542E-09
        89  13  9.321380E+03 -2.301496E+05  2.238399E+04 -1.381310E+05  6.754264E-10  9.155102E-11
        89  14 -1.834445E+01 -2.307084E+05  8.097676E+03 -6.509929E+04  1.530084E-09  1.095859E-10
        89  15 -2.432134E+03 -2.302443E+05 -2.028035E+03 -1.381854E+05 -1.295777E-09 -1.105348E-11
        89  16  1.300059E+05  2.588227E+05  1.369216E+05 -1.379289E+05 -1.383739E-09  2.373900E-10
        89  17  1.825935E+05  5.096701E+05  1.808989E+05 -6.674461E+04 -2.599676E-10 -3.193323E-09
        89  18  2.423164E+05  7.618165E+05  2.298967E+05 -1.416680E+05 -1.911820E-09 -5.119884E-09
        89  19 -1.113797E+05 -7.189013E+05 -9.216896E+04 -1.383327E+05  1.831680E+04 -1.403766E+04
        89  20 -1.826681E+05 -9.705812E+05 -1.647389E+05 -6.345559E+04  2.911309E+04 -1.110945E+04
        89  21 -2.472489E+05 -1.221398E+06 -2.340169E+05 -1.347076E+05  3.799221E+04 -8.204385E+03
        89  22  9.321868E+03 -2.301490E+05  2.238551E+04 -1.381313E+05  1.835412E+04 -2.167099E+04
        89  23 -1.735056E+01 -2.307078E+05  8.099847E+03 -6.509970E+04  2.914021E+04 -1.749952E+04
        89  24 -2.430535E+03 -2.302438E+05 -2.024986E+03 -1.381858E+05  3.801035E+04 -1.335007E+04
        89  25  1.300065E+05  2.588237E+05  1.369239E+05 -1.379294E+05  1.839142E+04 -2.931029E+04
        89  26  1.825946E+05  5.096709E+05  1.809015E+05 -6.674518E+04  2.916735E+04 -2.389715E+04
        89  27  2.423180E+05  7.618173E+05  2.299001E+05 -1.416686E+05  3.802854E+04 -1.850391E+04
        90   1 -3.061918E+05 -1.486825E+06 -2.985960E+05 -1.290710E+05 -5.040252E+04 -4.716251E+03
        90   2 -3.680921E+05 -1.730257E+06 -3.687043E+05 -6.600934E+04 -5.711410E+04  3.296286E+04
        90   3 -4.719495E+05 -1.988625E+06 -4.738048E+05 -1.473571E+05 -1.948041E+04  7.074904E+04
        90   4  3.436899E+03 -2.328378E+05 -6.037452E+03 -1.377478E+05 -5.047036E+04  1.388947E+04
        90   5  3.094437E+03 -2.279439E+05 -1.674025E+04 -6.560627E+04 -5.707173E+04  2.292171E+04
        90   6 -3.416461E+04 -2.330278E+05 -4.247760E+04 -1.378573E+05 -1.937429E+04  3.207740E+04
        90   7  3.129545E+05  1.022603E+06  2.864158E+05 -1.464407E+05 -5.053864E+04  3.253257E+04
        90   8  3.741205E+05  1.276453E+06  3.350702E+05 -6.520043E+04 -5.702942E+04  1.285632E+04
        90   9  4.033924E+05  1.525385E+06  3.886285E+05 -1.283284E+05 -1.926953E+04 -6.703771E+03
        90  10 -3.061945E+05 -1.486825E+06 -2.986008E+05 -1.290712E+05 -1.968845E-09 -4.580482E-09
        90  11 -3.680959E+05 -1.730259E+06 -3.687125E+05 -6.600783E+04 -1.064821E-09 -2.711378E-09
        90  12 -4.719513E+05 -1.988631E+06 -4.738149E+05 -1.473560E+05  1.553270E-11  8.495669E-10
        90  13  3.434112E+03 -2.328387E+05 -6.042600E+03 -1.377472E+05 -3.174967E-09 -4.552815E-11
        90  14  3.090799E+03 -2.279453E+05 -1.674735E+04 -6.560522E+04 -1.307833E-09 -7.349785E-11
        90  15 -3.416529E+04 -2.330290E+05 -4.248024E+04 -1.378568E+05 -3.691988E-10 -1.376738E-11
        90  16  3.129515E+05  1.022601E+06  2.864090E+05 -1.464393E+05 -1.195585E-09  4.626138E-09
        90  17  3.741170E+05  1.276452E+06  3.350637E+05 -6.519984E+04 -1.768142E-10  2.700667E-09
        90  18  4.033920E+05  1.525385E+06  3.886277E+05 -1.283285E+05  6.996450E-10 -8.862022E-10
        90  19 -3.061918E+05 -1.486825E+06 -2.985960E+05 -1.290710E+05  5.040252E+04  4.716251E+03
        90  20 -3.680921E+05 -1.730257E+06 -3.687043E+05 -6.600934E+04  5.711410E+04 -3.296286E+04
        90  21 -4.719495E+05 -1.988625E+06 -4.738048E+05 -1.473571E+05  1.948041E+04 -7.074904E+04
        90  22  3.436899E+03 -2.328378E+05 -6.037452E+03 -1.377478E+05  5.047036E+04 -1.388947E+04
        90  23  3.094437E+03 -2.279439E+05 -1.674025E+04 -6.560627E+04  5.707173E+04 -2.292171E+04
        90  24 -3.416461E+04 -2.330278E+05 -4.247760E+04 -1.378573E+05  1.937429E+04 -3.207740E+04
        90  25  3.129545E+05  1.022603E+06  2.864158E+05 -1.464407E+05  5.053864E+04 -3.253257E+04
        90  26  3.741205E+05  1.276453E+06  3.350702E+05 -6.520043E+04  5.702942E+04 -1.285632E+04
        90  27  4.033924E+05  1.525385E+06  3.886285E+05 -1.283284E+05  1.926953E+04  6.703771E+03
        91   1 -4.304045E+06 -1.504961E+06 -9.355138E+05 -1.509827E+06 -3.386863E+05 -1.039699E+05
        91   2 -4.169031E+06 -1.002863E+06 -6.184755E+05 -1.495764E+06 -2.230231E+05 -9.078118E+03
        91   3 -4.148412E+06 -9.484654E+05 -5.089810E+05 -1.436685E+06 -8.974021E+04  3.954648E+04
        91   4 -2.635018E+06 -7.473298E+05 -4.577211E+05 -9.270315E+05 -2.984244E+05 -8.875405E+04
        91   5 -2.555941E+06 -3.561595E+05 -1.934573E+05 -1.014029E+06 -2.103989E+05 -4.322766E+03
        91   6 -2.585348E+06 -4.065695E+05 -1.143128E+05 -1.056128E+06 -1.047958E+05  3.384828E+04
        91   7 -9.632514E+05  1.082975E+04  1.980627E+04 -3.426939E+05 -2.580418E+05 -7.347222E+04
        91   8 -9.402980E+05  2.908056E+05  2.313366E+05 -5.311202E+05 -1.977379E+05  4.484768E+02
        91   9 -1.019889E+06  1.353953E+05  2.801646E+05 -6.747376E+05 -1.198930E+05  2.813725E+04
        91  10 -4.304172E+06 -1.505004E+06 -9.357515E+05 -1.509855E+06  6.773929E-10  7.003881E-11
        91  11 -4.169085E+06 -1.002877E+06 -6.185697E+05 -1.495766E+06  2.648226E-10  1.402421E-10
        91  12 -4.148421E+06 -9.484692E+05 -5.089991E+05 -1.436682E+06 -1.175341E-09  3.841398E-10
        91  13 -2.635116E+06 -7.473623E+05 -4.579042E+05 -9.270529E+05 -1.624368E-09 -1.332161E-10
        91  14 -2.555989E+06 -3.561714E+05 -1.935408E+05 -1.014030E+06  1.674332E-09 -2.870872E-10
        91  15 -2.585360E+06 -4.065737E+05 -1.143356E+05 -1.056125E+06 -2.139007E-09  1.729912E-10
        91  16 -9.633244E+05  1.080603E+04  1.967076E+04 -3.427092E+05 -1.045342E-09 -2.608005E-10
        91  17 -9.403401E+05  2.907951E+05  2.312630E+05 -5.311202E+05 -3.955264E-10 -4.266715E-10
        91  18 -1.019905E+06  1.353905E+05  2.801361E+05 -6.747349E+05  7.016585E-10  2.729456E-10
        91  19 -4.304045E+06 -1.504961E+06 -9.355138E+05 -1.509827E+06  3.386863E+05  1.039699E+05
        91  20 -4.169031E+06 -1.002863E+06 -6.184755E+05 -1.495764E+06  2.230231E+05  9.078118E+03
        91  21 -4.148412E+06 -9.484654E+05 -5.089810E+05 -1.436685E+06  8.974021E+04 -3.954648E+04
        91  22 -2.635018E+06 -7.473298E+05 -4.577211E+05 -9.270315E+05  2.984244E+05  8.875405E+04
        91  23 -2.555941E+06 -3.561595E+05 -1.934573E+05 -1.014029E+06  2.103989E+05  4.322766E+03
        91  24 -2.585348E+06 -4.065695E+05 -1.143128E+05 -1.056128E+06  1.047958E+05 -3.384828E+04
        91  25 -9.632514E+05  1.082975E+04  1.980627E+04 -3.426939E+05  2.580418E+05  7.347222E+04
        91  26 -9.402980E+05  2.908056E+05  2.313366E+05 -5.311202E+05  1.977379E+05 -4.484768E+02
        91  27 -1.019889E+06  1.353953E+05  2.801646E+05 -6.747376E+05  1.198930E+05 -2.813725E+04
        92   1 -3.954541E+06 -9.837862E+05 -4.533747E+05 -1.422163E+06 -8.448265E+04  3.066965E+04
        92   2 -3.850825E+06 -8.669723E+05 -3.724029E+05 -1.357757E+06 -5.809082E+04  3.698047E+04
        92   3 -3.704374E+06 -8.444035E+05 -3.197726E+05 -1.350617E+06 -3.057864E+04  4.029502E+04
        92   4 -2.569256E+06 -4.518370E+05 -9.230078E+04 -1.032391E+06 -8.561032E+04  3.023211E+04
        92   5 -2.588522E+06 -3.893386E+05 -4.554884E+04 -1.009598E+06 -6.097341E+04  3.588536E+04
        92   6 -2.564686E+06 -4.206796E+05 -2.569058E+04 -1.044075E+06 -3.522268E+04  3.854258E+04
        92   7 -1.182098E+06  8.025347E+04  2.686096E+05 -6.418202E+05 -8.674063E+04  2.979356E+04
        92   8 -1.324660E+06  8.840199E+04  2.811722E+05 -6.607921E+05 -6.386239E+04  3.478782E+04
        92   9 -1.423724E+06  3.120819E+03  2.682849E+05 -7.370238E+05 -3.987611E+04  3.678670E+04
        92  10 -3.954549E+06 -9.837891E+05 -4.533899E+05 -1.422161E+06  8.927701E-10  4.441446E-10
        92  11 -3.850829E+06 -8.669747E+05 -3.724119E+05 -1.357756E+06 -1.206051E-09 -1.093786E-09
        92  12 -3.704376E+06 -8.444055E+05 -3.197774E+05 -1.350616E+06 -3.415580E-10  5.063634E-11
        92  13 -2.569264E+06 -4.518400E+05 -9.231630E+04 -1.032389E+06  1.728392E-09  1.442514E-10
        92  14 -2.588526E+06 -3.893409E+05 -4.555826E+04 -1.009596E+06 -9.076915E-10 -1.014277E-09
        92  15 -2.564687E+06 -4.206816E+05 -2.569570E+04 -1.044074E+06  3.975257E-10 -1.674499E-10
        92  16 -1.182107E+06  8.025049E+04  2.685938E+05 -6.418182E+05 -1.026134E-09 -3.477359E-10
        92  17 -1.324664E+06  8.839960E+04  2.811623E+05 -6.607903E+05  9.449912E-10 -2.584146E-10
        92  18 -1.423726E+06  3.118942E+03  2.682794E+05 -7.370227E+05  5.832631E-11 -6.669526E-11
        92  19 -3.954541E+06 -9.837862E+05 -4.533747E+05 -1.422163E+06  8.448265E+04 -3.066965E+04
        92  20 -3.850825E+06 -8.669723E+05 -3.724029E+05 -1.357757E+06  5.809082E+04 -3.698047E+04
        92  21 -3.704374E+06 -8.444035E+05 -3.197726E+05 -1.350617E+06  3.057864E+04 -4.029502E+04
        92  22 -2.569256E+06 -4.518370E+05 -9.230078E+04 -1.032391E+06  8.561032E+04 -3.023211E+04
        92  23 -2.588522E+06 -3.893386E+05 -4.554884E+04 -1.009598E+06  6.097341E+04 -3.588536E+04
        92  24 -2.564686E+06 -4.206796E+05 -2.569058E+04 -1.044075E+06  3.522268E+04 -3.854258E+04
        92  25 -1.182098E+06  8.025347E+04  2.686096E+05 -6.418202E+05  8.674063E+04 -2.979356E+04
        92  26 -1.324660E+06  8.840199E+04  2.811722E+05 -6.607921E+05  6.386239E+04 -3.478782E+04
        92  27 -1.423724E+06  3.120819E+03  2.682849E+05 -7.370238E+05  3.987611E+04 -3.678670E+04
        93   1 -3.548702E+06 -7.965990E+05 -2.744766E+05 -1.312794E+06 -2.612352E+04  3.717183E+04
        93   2 -3.441076E+06 -7.095667E+05 -2.297443E+05 -1.239367E+06 -1.813805E+04  3.268501E+04
        93   3 -3.272116E+06 -6.884050E+05 -1.898691E+05 -1.236850E+06 -1.004523E+04  2.788051E+04
        93   4 -2.562132E+06 -4.255922E+05 -1.989999E+04 -1.042877E+06 -3.000421E+04  3.570918E+04
        93   5 -2.592559E+06 -3.911553E+05 -1.059979E+04 -1.007979E+06 -2.220127E+04  3.115744E+04
        93   6 -2.561635E+06 -4.225433E+05 -6.004099E+03 -1.043991E+06 -1.429244E+04  2.628779E+04
        93   7 -1.574609E+06 -5.452285E+04  2.345958E+05 -7.725705E+05 -3.389167E+04  3.424398E+04
        93   8 -1.743339E+06 -7.269920E+04  2.084845E+05 -7.763042E+05 -2.627058E+04  2.962758E+04
        93   9 -1.850663E+06 -1.566517E+05  1.778182E+05 -8.509324E+05 -1.854498E+04  2.469309E+04
        93  10 -3.548703E+06 -7.966007E+05 -2.744804E+05 -1.312793E+06  6.014338E-10  1.022390E-09
        93  11 -3.441077E+06 -7.095679E+05 -2.297469E+05 -1.239367E+06  4.768059E-10  4.428427E-10
        93  12 -3.272117E+06 -6.884058E+05 -1.898708E+05 -1.236850E+06  5.858142E-10 -3.015630E-10
        93  13 -2.562133E+06 -4.255938E+05 -1.990408E+04 -1.042877E+06 -4.614991E-10  4.762354E-10
        93  14 -2.592559E+06 -3.911565E+05 -1.060254E+04 -1.007979E+06 -3.776021E-10  9.236890E-11
        93  15 -2.561635E+06 -4.225441E+05 -6.005779E+03 -1.043991E+06 -9.637794E-10 -8.229815E-10
        93  16 -1.574611E+06 -5.452441E+04  2.345914E+05 -7.725696E+05 -3.350398E-11  3.584692E-10
        93  17 -1.743340E+06 -7.270032E+04  2.084816E+05 -7.763036E+05  2.681541E-09  6.278980E-11
        93  18 -1.850663E+06 -1.566525E+05  1.778164E+05 -8.509320E+05 -1.517351E-09 -7.514338E-10
        93  19 -3.548702E+06 -7.965990E+05 -2.744766E+05 -1.312794E+06  2.612352E+04 -3.717183E+04
        93  20 -3.441076E+06 -7.095667E+05 -2.297443E+05 -1.239367E+06  1.813805E+04 -3.268501E+04
        93  21 -3.272116E+06 -6.884050E+05 -1.898691E+05 -1.236850E+06  1.004523E+04 -2.788051E+04
        93  22 -2.562132E+06 -4.255922E+05 -1.989999E+04 -1.042877E+06  3.000421E+04 -3.570918E+04
        93  23 -2.592559E+06 -3.911553E+05 -1.059979E+04 -1.007979E+06  2.220127E+04 -3.115744E+04
        93  24 -2.561635E+06 -4.225433E+05 -6.004099E+03 -1.043991E+06  1.429244E+04 -2.628779E+04
        93  25 -1.574609E+06 -5.452285E+04  2.345958E+05 -7.725705E+05  3.389167E+04 -3.424398E+04
        93  26 -1.743339E+06 -7.269920E+04  2.084845E+05 -7.763042E+05  2.627058E+04 -2.962758E+04
        93  27 -1.850663E+06 -1.566517E+05  1.778182E+05 -8.509324E+05  1.854498E+04 -2.469309E+04
        94   1 -3.112424E+06 -6.300210E+05 -1.465547E+05 -1.194583E+06 -7.638880E+03  2.410737E+04
        94   2 -3.000206E+06 -5.428476E+05 -1.079677E+05 -1.117715E+06 -3.453315E+03  1.761967E+04
        94   3 -2.822939E+06 -5.212462E+05 -7.059403E+04 -1.115744E+06  7.566115E+02  1.105019E+04
        94   4 -2.560906E+06 -4.234989E+05 -4.723898E+03 -1.044475E+06 -1.188403E+04  2.251733E+04
        94   5 -2.593377E+06 -3.905255E+05 -2.987378E+03 -1.007088E+06 -7.746477E+03  1.601346E+04
        94   6 -2.560817E+06 -4.231134E+05 -2.425353E+03 -1.044604E+06 -3.585017E+03  9.427797E+03
        94   7 -2.009087E+06 -2.169564E+05  1.370828E+05 -8.942444E+05 -1.613336E+04  2.092573E+04
        94   8 -2.186387E+06 -2.381934E+05  1.019790E+05 -8.963953E+05 -1.204272E+04  1.440609E+04
        94   9 -2.298631E+06 -3.249774E+05  6.573691E+04 -9.734367E+05 -7.928618E+03  7.804665E+03
        94  10 -3.112424E+06 -6.300217E+05 -1.465559E+05 -1.194583E+06 -1.929189E-09 -1.266657E-09
        94  11 -3.000206E+06 -5.428480E+05 -1.079683E+05 -1.117715E+06 -1.675758E-09 -4.176909E-10
        94  12 -2.822939E+06 -5.212463E+05 -7.059426E+04 -1.115744E+06 -6.300090E-10 -1.600288E-10
        94  13 -2.560906E+06 -4.234994E+05 -4.725115E+03 -1.044475E+06 -2.226908E-09 -9.671257E-10
        94  14 -2.593377E+06 -3.905258E+05 -2.987971E+03 -1.007088E+06 -2.344826E-09  1.780153E-10
        94  15 -2.560817E+06 -4.231135E+05 -2.425544E+03 -1.044604E+06 -2.517498E-09 -4.810529E-10
        94  16 -2.009088E+06 -2.169569E+05  1.370815E+05 -8.942442E+05  4.495238E-11 -2.678459E-11
        94  17 -2.186387E+06 -2.381937E+05  1.019784E+05 -8.963951E+05 -4.546008E-10 -3.133428E-10
        94  18 -2.298631E+06 -3.249775E+05  6.573668E+04 -9.734366E+05  6.820903E-10 -5.769742E-10
        94  19 -3.112424E+06 -6.300210E+05 -1.465547E+05 -1.194583E+06  7.638880E+03 -2.410737E+04
        94  20 -3.000206E+06 -5.428476E+05 -1.079677E+05 -1.117715E+06  3.453315E+03 -1.761967E+04
        94  21 -2.822939E+06 -5.212462E+05 -7.059403E+04 -1.115744E+06 -7.566115E+02 -1.105019E+04
        94  22 -2.560906E+06 -4.234989E+05 -4.723898E+03 -1.044475E+06  1.188403E+04 -2.251733E+04
        94  23 -2.593377E+06 -3.905255E+05 -2.987378E+03 -1.007088E+06  7.746477E+03 -1.601346E+04
        94  24 -2.560817E+06 -4.231134E+05 -2.425353E+03 -1.044604E+06  3.585017E+03 -9.427797E+03
        94  25 -2.009087E+06 -2.169564E+05  1.370828E+05 -8.942444E+05  1.613336E+04 -2.092573E+04
        94  26 -2.186387E+06 -2.381934E+05  1.019790E+05 -8.963953E+05  1.204272E+04 -1.440609E+04
        94  27 -2.298631E+06 -3.249774E+05  6.573691E+04 -9.734367E+05  7.928618E+03 -7.804665E+03
        95   1 -2.659604E+06 -4.602773E+05 -2.747425E+04 -1.071797E+06  2.740950E+03  7.014612E+03
        95   2 -2.545864E+06 -3.724467E+05  9.003464E+03 -9.939197E+05  7.059447E+03  4.261619E+02
        95   3 -2.366523E+06 -3.509938E+05  4.415184E+04 -9.919006E+05  1.137275E+04 -6.144770E+03
        95   4 -2.560679E+06 -4.232927E+05 -2.490861E+03 -1.044812E+06 -1.615211E+03  5.387356E+03
        95   5 -2.593489E+06 -3.902344E+05 -3.274844E+03 -1.006830E+06  2.713124E+03 -1.197716E+03
        95   6 -2.560719E+06 -4.235577E+05 -5.394480E+03 -1.044715E+06  7.035821E+03 -7.765344E+03
        95   7 -2.461744E+06 -3.863073E+05  2.249195E+04 -1.017823E+06 -5.972152E+03  3.759806E+03
        95   8 -2.641112E+06 -4.080221E+05 -1.555336E+04 -1.019739E+06 -1.632866E+03 -2.821470E+03
        95   9 -2.754880E+06 -4.961200E+05 -5.494440E+04 -1.097515E+06  2.700333E+03 -9.385380E+03
        95  10 -2.659604E+06 -4.602774E+05 -2.747436E+04 -1.071797E+06 -8.049605E-10 -1.846032E-10
        95  11 -2.545865E+06 -3.724467E+05  9.003369E+03 -9.939197E+05 -2.298975E-10 -2.066842E-10
        95  12 -2.366524E+06 -3.509939E+05  4.415152E+04 -9.919005E+05  1.081684E-10  3.809988E-10
        95  13 -2.560679E+06 -4.232928E+05 -2.490921E+03 -1.044812E+06 -6.324954E-10 -4.344479E-10
        95  14 -2.593489E+06 -3.902344E+05 -3.274860E+03 -1.006830E+06 -1.373693E-09  8.513605E-11
        95  15 -2.560719E+06 -4.235578E+05 -5.394686E+03 -1.044715E+06 -1.060427E-09 -1.193501E-10
        95  16 -2.461744E+06 -3.863074E+05  2.249186E+04 -1.017823E+06  7.037368E-10 -4.241003E-10
        95  17 -2.641112E+06 -4.080221E+05 -1.555338E+04 -1.019739E+06 -6.352720E-10 -4.343352E-11
        95  18 -2.754880E+06 -4.961201E+05 -5.494458E+04 -1.097515E+06 -3.255600E-11 -2.098290E-10
        95  19 -2.659604E+06 -4.602773E+05 -2.747425E+04 -1.071797E+06 -2.740950E+03 -7.014612E+03
        95  20 -2.545864E+06 -3.724467E+05  9.003464E+03 -9.939197E+05 -7.059447E+03 -4.261619E+02
        95  21 -2.366523E+06 -3.509938E+05  4.415184E+04 -9.919006E+05 -1.137275E+04  6.144770E+03
        95  22 -2.560679E+06 -4.232927E+05 -2.490861E+03 -1.044812E+06  1.615211E+03 -5.387356E+03
        95  23 -2.593489E+06 -3.902344E+05 -3.274844E+03 -1.006830E+06 -2.713124E+03  1.197716E+03
        95  24 -2.560719E+06 -4.235577E+05 -5.394480E+03 -1.044715E+06 -7.035821E+03  7.765344E+03
        95  25 -2.461744E+06 -3.863073E+05  2.249195E+04 -1.017823E+06  5.972152E+03 -3.759806E+03
        95  26 -2.641112E+06 -4.080221E+05 -1.555336E+04 -1.019739E+06  1.632866E+03  2.821470E+03
        95  27 -2.754880E+06 -4.961200E+05 -5.494440E+04 -1.097515E+06 -2.700333E+03  9.385380E+03
        96   1 -2.204041E+06 -2.897478E+05  8.560997E+04 -9.482066E+05  1.397062E+04 -9.950954E+03
        96   2 -2.092247E+06 -2.027653E+05  1.168684E+05 -8.709276E+05  2.267169E+04 -1.477920E+04
        96   3 -1.917628E+06 -1.844390E+05  1.426312E+05 -8.673279E+05  3.129670E+04 -1.937875E+04
        96   4 -2.561206E+06 -4.229151E+05 -6.944467E+03 -1.044675E+06  9.611078E+03 -1.158082E+04
        96   5 -2.592857E+06 -3.902527E+05 -1.226014E+04 -1.007211E+06  1.844394E+04 -1.636209E+04
        96   6 -2.561729E+06 -4.262791E+05 -2.317814E+04 -1.043439E+06  2.719920E+04 -2.091508E+04
        96   7 -2.918243E+06 -5.560734E+05 -9.950846E+04 -1.141091E+06  5.254339E+03 -1.320965E+04
        96   8 -3.093220E+06 -5.777234E+05 -1.414086E+05 -1.143395E+06  1.421996E+04 -1.794357E+04
        96   9 -3.205423E+06 -6.680922E+05 -1.890214E+05 -1.219383E+06  2.310636E+04 -2.244966E+04
        96  10 -2.204042E+06 -2.897480E+05  8.560941E+04 -9.482065E+05 -3.465319E-10 -1.381289E-10
        96  11 -2.092248E+06 -2.027657E+05  1.168670E+05 -8.709273E+05  1.110373E-09 -3.381780E-10
        96  12 -1.917629E+06 -1.844396E+05  1.426286E+05 -8.673274E+05  2.056005E-09  3.542703E-10
        96  13 -2.561206E+06 -4.229152E+05 -6.944892E+03 -1.044675E+06  1.233974E-10 -9.435947E-11
        96  14 -2.592858E+06 -3.902531E+05 -1.226128E+04 -1.007211E+06  6.561644E-10 -8.727608E-10
        96  15 -2.561729E+06 -4.262797E+05 -2.318035E+04 -1.043438E+06  2.138287E-09 -6.188015E-11
        96  16 -2.918243E+06 -5.560736E+05 -9.950884E+04 -1.141091E+06 -2.106074E-10 -3.588796E-10
        96  17 -3.093220E+06 -5.777238E+05 -1.414095E+05 -1.143394E+06 -8.105634E-11 -3.043005E-10
        96  18 -3.205423E+06 -6.680929E+05 -1.890234E+05 -1.219383E+06  5.138772E-10  3.018321E-10
        96  19 -2.204041E+06 -2.897478E+05  8.560997E+04 -9.482066E+05 -1.397062E+04  9.950954E+03
        96  20 -2.092247E+06 -2.027653E+05  1.168684E+05 -8.709276E+05 -2.267169E+04  1.477920E+04
        96  21 -1.917628E+06 -1.844390E+05  1.426312E+05 -8.673279E+05 -3.129670E+04  1.937875E+04
        96  22 -2.561206E+06 -4.229151E+05 -6.944467E+03 -1.044675E+06 -9.611078E+03  1.158082E+04
        96  23 -2.592857E+06 -3.902527E+05 -1.226014E+04 -1.007211E+06 -1.844394E+04  1.636209E+04
        96  24 -2.561729E+06 -4.262791E+05 -2.317814E+04 -1.043439E+06 -2.719920E+04  2.091508E+04
        96  25 -2.918243E+06 -5.560734E+05 -9.950846E+04 -1.141091E+06 -5.254339E+03  1.320965E+04
        96  26 -3.093220E+06 -5.777234E+05 -1.414086E+05 -1.143395E+06 -1.421996E+04  1.794357E+04
        96  27 -3.205423E+06 -6.680922E+05 -1.890214E+05 -1.219383E+06 -2.310636E+04  2.244966E+04
        97   1 -1.758489E+06 -1.244472E+05  1.773467E+05 -8.314302E+05  3.783482E+04 -2.187842E+04
        97   2 -1.652086E+06 -3.316454E+04  1.891750E+05 -7.497574E+05  6.611151E+04 -1.877973E+04
        97   3 -1.502038E+06 -4.513666E+04  1.706511E+05 -7.286012E+05  9.346334E+04 -1.316503E+04
        97   4 -2.564283E+06 -4.210710E+05 -2.996278E+04 -1.045403E+06  3.307448E+04 -2.366490E+04
        97   5 -2.588559E+06 -3.873674E+05 -5.299929E+04 -1.008372E+06  6.283031E+04 -2.001630E+04
        97   6 -2.569531E+06 -4.572672E+05 -1.076019E+05 -1.031873E+06  9.165460E+04 -1.385286E+04
        97   7 -3.369447E+06 -7.176613E+05 -2.373264E+05 -1.259126E+06  2.832090E+04 -2.544897E+04
        97   8 -3.524178E+06 -7.415119E+05 -2.952472E+05 -1.266632E+06  5.955449E+04 -2.125081E+04
        97   9 -3.635912E+06 -8.693084E+05 -3.859513E+05 -1.334665E+06  8.984918E+04 -1.453937E+04
        97  10 -1.758491E+06 -1.244481E+05  1.773431E+05 -8.314296E+05  2.134695E-09  4.154922E-10
        97  11 -1.652091E+06 -3.316609E+04  1.891661E+05 -7.497564E+05  3.962627E-10  3.482741E-11
        97  12 -1.502047E+06 -4.513919E+04  1.706343E+05 -7.286002E+05 -4.815560E-10  4.990866E-10
        97  13 -2.564284E+06 -4.210719E+05 -2.996589E+04 -1.045402E+06  9.076692E-10  3.110302E-10
        97  14 -2.588564E+06 -3.873689E+05 -5.300748E+04 -1.008371E+06 -1.980876E-10 -9.283839E-11
        97  15 -2.569540E+06 -4.572697E+05 -1.076181E+05 -1.031872E+06 -2.996313E-12 -1.408287E-10
        97  16 -3.369448E+06 -7.176622E+05 -2.373292E+05 -1.259126E+06 -2.221154E-10 -5.199126E-10
        97  17 -3.524182E+06 -7.415133E+05 -2.952547E+05 -1.266631E+06 -3.380098E-10 -1.435131E-10
        97  18 -3.635921E+06 -8.693108E+05 -3.859669E+05 -1.334664E+06 -9.902297E-10 -2.533499E-10
        97  19 -1.758489E+06 -1.244472E+05  1.773467E+05 -8.314302E+05 -3.783482E+04  2.187842E+04
        97  20 -1.652086E+06 -3.316454E+04  1.891750E+05 -7.497574E+05 -6.611151E+04  1.877973E+04
        97  21 -1.502038E+06 -4.513666E+04  1.706511E+05 -7.286012E+05 -9.346334E+04  1.316503E+04
        97  22 -2.564283E+06 -4.210710E+05 -2.996278E+04 -1.045403E+06 -3.307448E+04  2.366490E+04
        97  23 -2.588559E+06 -3.873674E+05 -5.299929E+04 -1.008372E+06 -6.283031E+04  2.001630E+04
        97  24 -2.569531E+06 -4.572672E+05 -1.076019E+05 -1.031873E+06 -9.165460E+04  1.385286E+04
        97  25 -3.369447E+06 -7.176613E+05 -2.373264E+05 -1.259126E+06 -2.832090E+04  2.544897E+04
        97  26 -3.524178E+06 -7.415119E+05 -2.952472E+05 -1.266632E+06 -5.955449E+04  2.125081E+04
        97  27 -3.635912E+06 -8.693084E+05 -3.859513E+05 -1.334665E+06 -8.984918E+04  1.453937E+04
        98   1 -1.324208E+06  1.417334E+04  1.818345E+05 -7.713941E+05  1.268481E+05 -1.074701E+04
        98   2 -1.235302E+06  1.903244E+05  1.227785E+05 -6.078228E+05  2.267969E+05  2.380977E+04
        98   3 -1.272019E+06 -1.405885E+05 -1.333979E+05 -3.894180E+05  3.119637E+05  9.758926E+04
        98   4 -2.587828E+06 -4.050193E+05 -1.332809E+05 -1.060159E+06  1.131913E+05 -1.588168E+04
        98   5 -2.551145E+06 -3.477440E+05 -2.253529E+05 -1.012649E+06  2.366378E+05  2.749280E+04
        98   6 -2.645175E+06 -8.028690E+05 -5.335616E+05 -9.102265E+05  3.452714E+05  1.100863E+05
        98   7 -3.849885E+06 -8.241898E+05 -4.485161E+05 -1.348427E+06  9.956494E+04 -2.100797E+04
        98   8 -3.865288E+06 -8.856125E+05 -5.736338E+05 -1.416665E+06  2.464553E+05  3.116526E+04
        98   9 -4.016451E+06 -1.464664E+06 -9.339045E+05 -1.429874E+06  3.784972E+05  1.225332E+05
        98  10 -1.324225E+06  1.416889E+04  1.818040E+05 -7.713930E+05  6.829284E-10  5.582715E-10
        98  11 -1.235358E+06  1.903099E+05  1.226805E+05 -6.078272E+05  4.913183E-09  1.186534E-09
        98  12 -1.272126E+06 -1.406250E+05 -1.335991E+05 -3.894425E+05  2.480709E-09  6.588031E-11
        98  13 -2.587842E+06 -4.050231E+05 -1.333055E+05 -1.060157E+06  1.282754E-09  4.078971E-10
        98  14 -2.551206E+06 -3.477600E+05 -2.254601E+05 -1.012655E+06  3.460608E-09  7.875048E-10
        98  15 -2.645307E+06 -8.029143E+05 -5.338096E+05 -9.102572E+05  1.991956E-09  1.468990E-09
        98  16 -3.849896E+06 -8.241930E+05 -4.485357E+05 -1.348425E+06  2.869433E-09  5.554356E-10
        98  17 -3.865354E+06 -8.856300E+05 -5.737505E+05 -1.416671E+06  2.177084E-09  1.432227E-09
        98  18 -4.016610E+06 -1.464719E+06 -9.342042E+05 -1.429912E+06  1.121767E-09  6.179083E-10
        98  19 -1.324208E+06  1.417334E+04  1.818345E+05 -7.713941E+05 -1.268481E+05  1.074701E+04
        98  20 -1.235302E+06  1.903244E+05  1.227785E+05 -6.078228E+05 -2.267969E+05 -2.380977E+04
        98  21 -1.272019E+06 -1.405885E+05 -1.333979E+05 -3.894180E+05 -3.119637E+05 -9.758926E+04
        98  22 -2.587828E+06 -4.050193E+05 -1.332809E+05 -1.060159E+06 -1.131913E+05  1.588168E+04
        98  23 -2.551145E+06 -3.477440E+05 -2.253529E+05 -1.012649E+06 -2.366378E+05 -2.749280E+04
        98  24 -2.645175E+06 -8.028690E+05 -5.335616E+05 -9.102265E+05 -3.452714E+05 -1.100863E+05
        98  25 -3.849885E+06 -8.241898E+05 -4.485161E+05 -1.348427E+06 -9.956494E+04  2.100797E+04
        98  26 -3.865288E+06 -8.856125E+05 -5.736338E+05 -1.416665E+06 -2.464553E+05 -3.116526E+04
        98  27 -4.016451E+06 -1.464664E+06 -9.339045E+05 -1.429874E+06 -3.784972E+05 -1.225332E+05
        99   1 -1.577011E+06 -2.589761E+05 -2.283427E+05 -2.336173E+04  5.346449E+04  1.680071E+04
        99   2 -1.484722E+06 -3.413815E+05 -2.575109E+05 -1.874591E+04  4.602260E+04  5.115609E+04
        99   3 -1.361665E+06 -3.109170E+05 -2.533278E+05 -7.558672E+04  3.866900E+04  5.014995E+04
        99   4 -1.265743E+05  1.023320E+05  1.275463E+05 -5.967310E+04  8.727169E+04  1.688294E+04
        99   5 -1.438809E+05 -1.020866E+04  5.646433E+04 -2.882545E+04  5.690413E+04  5.116946E+04
        99   6 -1.265140E+05 -6.028402E+03  3.460380E+04 -5.942377E+04  2.662774E+04  5.012779E+04
        99   7  1.325788E+06  4.634898E+05  4.832860E+05 -9.607080E+04  1.211577E+05  1.696113E+04
        99   8  1.198620E+06  3.208368E+05  3.703175E+05 -3.892773E+04  6.780895E+04  5.118246E+04
        99   9  1.110047E+06  2.987532E+05  3.224327E+05 -4.322880E+04  1.456261E+04  5.010503E+04
        99  10 -1.577014E+06 -2.589771E+05 -2.283486E+05 -2.336245E+04 -2.509811E-09  2.773585E-10
        99  11 -1.484724E+06 -3.413848E+05 -2.575198E+05 -1.874780E+04 -6.449473E-10 -7.676646E-10
        99  12 -1.361667E+06 -3.109201E+05 -2.533353E+05 -7.558829E+04 -8.155285E-10 -2.636488E-10
        99  13 -1.265826E+05  1.023296E+05  1.275314E+05 -5.967429E+04 -1.062714E-09 -6.204760E-10
        99  14 -1.438851E+05 -1.021234E+04  5.645332E+04 -2.882779E+04  3.222463E-09  5.899579E-11
        99  15 -1.265155E+05 -6.031290E+03  3.459774E+04 -5.942485E+04 -1.266977E-10 -6.710303E-10
        99  16  1.325772E+06  4.634855E+05  4.832579E+05 -9.607246E+04  2.387288E-10  1.118525E-09
        99  17  1.198614E+06  3.208328E+05  3.703039E+05 -3.893052E+04  3.025780E-09 -1.179288E-10
        99  18  1.110046E+06  2.987504E+05  3.224276E+05 -4.322938E+04 -3.846323E-10 -6.796359E-10
        99  19 -1.577011E+06 -2.589761E+05 -2.283427E+05 -2.336173E+04 -5.346449E+04 -1.680071E+04
        99  20 -1.484722E+06 -3.413815E+05 -2.575109E+05 -1.874591E+04 -4.602260E+04 -5.115609E+04
        99  21 -1.361665E+06 -3.109170E+05 -2.533278E+05 -7.558672E+04 -3.866900E+04 -5.014995E+04
        99  22 -1.265743E+05  1.023320E+05  1.275463E+05 -5.967310E+04 -8.727169E+04 -1.688294E+04
        99  23 -1.438809E+05 -1.020866E+04  5.646433E+04 -2.882545E+04 -5.690413E+04 -5.116946E+04
        99  24 -1.265140E+05 -6.028402E+03  3.460380E+04 -5.942377E+04 -2.662774E+04 -5.012779E+04
        99  25  1.325788E+06  4.634898E+05  4.832860E+05 -9.607080E+04 -1.211577E+05 -1.696113E+04
        99  26  1.198620E+06  3.208368E+05  3.703175E+05 -3.892773E+04 -6.780895E+04 -5.118246E+04
        99  27  1.110047E+06  2.987532E+05  3.224327E+05 -4.322880E+04 -1.456261E+04 -5.010503E+04
       100   1 -1.255659E+06 -2.689568E+05 -2.348526E+05 -5.785905E+04  2.260828E+04  4.274314E+04
       100   2 -1.150000E+06 -2.516548E+05 -2.224883E+05 -2.820691E+04  1.649682E+04  3.990051E+04
       100   3 -1.040277E+06 -2.245795E+05 -2.035197E+05 -6.120094E+04  1.037800E+04  3.510451E+04
       100   4 -1.332021E+05  8.278234E+03  2.796672E+04 -5.976266E+04  2.143118E+04  4.273656E+04
       100   5 -1.353089E+05 -1.154531E+03  1.454738E+04 -2.843934E+04  1.404381E+04  3.989462E+04
       100   6 -1.331494E+05 -6.010073E+02  8.609952E+03 -5.975553E+04  6.650111E+03  3.510074E+04
       100   7  9.904178E+05  2.854237E+05  2.907001E+05 -6.166998E+04  2.025192E+04  4.272999E+04
       100   8  8.803323E+05  2.492727E+05  2.515131E+05 -2.867226E+04  1.158679E+04  3.988873E+04
       100   9  7.747374E+05  2.233190E+05  2.206836E+05 -5.830798E+04  2.916794E+03  3.509696E+04
       100  10 -1.255660E+06 -2.689589E+05 -2.348570E+05 -5.785983E+04  1.574944E-09 -1.755701E-11
       100  11 -1.150000E+06 -2.516566E+05 -2.224918E+05 -2.820744E+04  5.761421E-10  2.715673E-10
       100  12 -1.040277E+06 -2.245808E+05 -2.035222E+05 -6.120123E+04 -7.414742E-10 -3.563307E-10
       100  13 -1.332030E+05  8.276149E+03  2.796243E+04 -5.976340E+04  1.106627E-09 -1.075346E-09
       100  14 -1.353095E+05 -1.156293E+03  1.454402E+04 -2.843979E+04  2.642151E-09  5.041475E-10
       100  15 -1.331498E+05 -6.023421E+02  8.607554E+03 -5.975572E+04 -2.777925E-09 -5.930931E-10
       100  16  9.904168E+05  2.854217E+05  2.906959E+05 -6.167068E+04 -4.029618E-11 -6.228494E-10
       100  17  8.803317E+05  2.492710E+05  2.515099E+05 -2.867263E+04  1.226084E-09 -5.103929E-11
       100  18  7.747371E+05  2.233177E+05  2.206813E+05 -5.830807E+04  1.195381E-09  3.830646E-10
       100  19 -1.255659E+06 -2.689568E+05 -2.348526E+05 -5.785905E+04 -2.260828E+04 -4.274314E+04
       100  20 -1.150000E+06 -2.516548E+05 -2.224883E+05 -2.820691E+04 -1.649682E+04 -3.990051E+04
       100  21 -1.040277E+06 -2.245795E+05 -2.035197E+05 -6.120094E+04 -1.037800E+04 -3.510451E+04
       100  22 -1.332021E+05  8.278234E+03  2.796672E+04 -5.976266E+04 -2.143118E+04 -4.273656E+04
       100  23 -1.353089E+05 -1.154531E+03  1.454738E+04 -2.843934E+04 -1.404381E+04 -3.989462E+04
       100  24 -1.331494E+05 -6.010073E+02  8.609952E+03 -5.975553E+04 -6.650111E+03 -3.510074E+04
       100  25  9.904178E+05  2.854237E+05  2.907001E+05 -6.166998E+04 -2.025192E+04 -4.272999E+04
       100  26  8.803323E+05  2.492727E+05  2.515131E+05 -2.867226E+04 -1.158679E+04 -3.988873E+04
       100  27  7.747374E+05  2.233190E+05  2.206836E+05 -5.830798E+04 -2.916794E+03 -3.509696E+04
       101   1 -9.282131E+05 -1.954450E+05 -1.785651E+05 -5.964173E+04  8.434366E+03  3.193668E+04
       101   2 -8.205556E+05 -1.695650E+05 -1.565508E+05 -2.818494E+04  6.654247E+03  2.703557E+04
       101   3 -7.121642E+05 -1.427779E+05 -1.330924E+05 -5.960485E+04  4.867868E+03  2.202322E+04
       101   4 -1.338849E+05  5.673118E+02  6.667419E+03 -5.980904E+04  5.302299E+03  3.193437E+04
       101   5 -1.342343E+05 -1.690755E+02  3.719157E+03 -2.837292E+04  3.447777E+03  2.703498E+04
       101   6 -1.338485E+05  1.467692E+01  2.265799E+03 -5.980922E+04  1.587300E+03  2.202444E+04
       101   7  6.610258E+05  1.965350E+05  1.918573E+05 -5.997652E+04  2.166243E+03  3.193206E+04
       101   8  5.525217E+05  1.691934E+05  1.639572E+05 -2.856106E+04  2.377794E+02  2.703438E+04
       101   9  4.447758E+05  1.427835E+05  1.376012E+05 -6.001371E+04 -1.696308E+03  2.202566E+04
       101  10 -9.282134E+05 -1.954461E+05 -1.785672E+05 -5.964195E+04 -2.354565E-09 -4.486725E-10
       101  11 -8.205558E+05 -1.695658E+05 -1.565522E+05 -2.818508E+04 -2.061263E-09  9.077362E-10
       101  12 -7.121644E+05 -1.427784E+05 -1.330933E+05 -5.960494E+04 -1.188257E-09  2.617069E-10
       101  13 -1.338852E+05  5.662092E+02  6.665450E+03 -5.980918E+04 -1.083219E-09 -3.275211E-10
       101  14 -1.342345E+05 -1.698635E+02  3.717761E+03 -2.837300E+04 -1.578654E-09  5.762057E-10
       101  15 -1.338486E+05  1.415539E+01  2.264882E+03 -5.980925E+04  8.356830E-10  1.148252E-09
       101  16  6.610256E+05  1.965339E+05  1.918553E+05 -5.997658E+04  1.798050E-09 -1.982914E-10
       101  17  5.525215E+05  1.691927E+05  1.639558E+05 -2.856106E+04  3.015906E-09 -4.513743E-10
       101  18  4.447757E+05  1.427830E+05  1.376003E+05 -6.001368E+04  6.256516E-10  6.969019E-10
       101  19 -9.282131E+05 -1.954450E+05 -1.785651E+05 -5.964173E+04 -8.434366E+03 -3.193668E+04
       101  20 -8.205556E+05 -1.695650E+05 -1.565508E+05 -2.818494E+04 -6.654247E+03 -2.703557E+04
       101  21 -7.121642E+05 -1.427779E+05 -1.330924E+05 -5.960485E+04 -4.867868E+03 -2.202322E+04
       101  22 -1.338849E+05  5.673118E+02  6.667419E+03 -5.980904E+04 -5.302299E+03 -3.193437E+04
       101  23 -1.342343E+05 -1.690755E+02  3.719157E+03 -2.837292E+04 -3.447777E+03 -2.703498E+04
       101  24 -1.338485E+05  1.467692E+01  2.265799E+03 -5.980922E+04 -1.587300E+03 -2.202444E+04
       101  25  6.610258E+05  1.965350E+05  1.918573E+05 -5.997652E+04 -2.166243E+03 -3.193206E+04
       101  26  5.525217E+05  1.691934E+05  1.639572E+05 -2.856106E+04 -2.377794E+02 -2.703438E+04
       101  27  4.447758E+05  1.427835E+05  1.376012E+05 -6.001371E+04  1.696308E+03 -2.202566E+04
       102   1 -5.992029E+05 -1.146545E+05 -1.065202E+05 -5.954409E+04  4.468935E+03  1.908327E+04
       102   2 -4.909875E+05 -8.807609E+04 -8.214683E+04 -2.807746E+04  3.875652E+03  1.406034E+04
       102   3 -3.827077E+05 -6.130253E+04 -5.735535E+04 -5.959997E+04  3.279162E+03  9.029520E+03
       102   4 -1.339692E+05  9.380207E+01  1.785689E+03 -5.983458E+04  1.219099E+03  1.908535E+04
       102   5 -1.339877E+05  2.007256E+01  1.202226E+03 -2.834110E+04  6.200957E+02  1.406331E+04
       102   6 -1.339501E+05  1.436349E+02  1.041597E+03 -5.983454E+04  1.798666E+01  9.033430E+03
       102   7  3.314644E+05  1.148268E+05  1.100770E+05 -6.012523E+04 -2.033158E+03  1.908742E+04
       102   8  2.231297E+05  8.810721E+04  8.454267E+04 -2.860487E+04 -2.637322E+03  1.406628E+04
       102   9  1.148645E+05  6.158540E+04  5.943435E+04 -6.006918E+04 -3.244488E+03  9.037343E+03
       102  10 -5.992030E+05 -1.146549E+05 -1.065209E+05 -5.954416E+04  3.545476E-10  4.849896E-10
       102  11 -4.909876E+05 -8.807631E+04 -8.214723E+04 -2.807750E+04  1.520425E-09 -2.800184E-11
       102  12 -3.827077E+05 -6.130262E+04 -5.735553E+04 -5.959999E+04 -3.998404E-10 -7.680314E-10
       102  13 -1.339693E+05  9.341055E+01  1.785002E+03 -5.983460E+04 -1.092815E-09 -1.661374E-10
       102  14 -1.339878E+05  1.986009E+01  1.201854E+03 -2.834111E+04 -5.145543E-10  1.880705E-11
       102  15 -1.339501E+05  1.435473E+02  1.041444E+03 -5.983454E+04 -2.619806E-10 -1.080417E-09
       102  16  3.314643E+05  1.148264E+05  1.100763E+05 -6.012520E+04 -8.255510E-10  6.878372E-10
       102  17  2.231296E+05  8.810700E+04  8.454228E+04 -2.860484E+04 -1.322910E-09 -4.443206E-10
       102  18  1.148645E+05  6.158531E+04  5.943418E+04 -6.006916E+04  3.710769E-10 -1.440003E-09
       102  19 -5.992029E+05 -1.146545E+05 -1.065202E+05 -5.954409E+04 -4.468935E+03 -1.908327E+04
       102  20 -4.909875E+05 -8.807609E+04 -8.214683E+04 -2.807746E+04 -3.875652E+03 -1.406034E+04
       102  21 -3.827077E+05 -6.130253E+04 -5.735535E+04 -5.959997E+04 -3.279162E+03 -9.029520E+03
       102  22 -1.339692E+05  9.380207E+01  1.785689E+03 -5.983458E+04 -1.219099E+03 -1.908535E+04
       102  23 -1.339877E+05  2.007256E+01  1.202226E+03 -2.834110E+04 -6.200957E+02 -1.406331E+04
       102  24 -1.339501E+05  1.436349E+02  1.041597E+03 -5.983454E+04 -1.798666E+01 -9.033430E+03
       102  25  3.314644E+05  1.148268E+05  1.100770E+05 -6.012523E+04  2.033158E+03 -1.908742E+04
       102  26  2.231297E+05  8.810721E+04  8.454267E+04 -2.860487E+04  2.637322E+03 -1.406628E+04
       102  27  1.148645E+05  6.158540E+04  5.943435E+04 -6.006918E+04  3.244488E+03 -9.037343E+03
       103   1 -2.694593E+05 -3.323012E+04 -3.023977E+04 -5.970305E+04  3.084031E+03  6.098836E+03
       103   2 -1.610991E+05 -6.643858E+03 -4.952280E+03 -2.828133E+04  2.388645E+03  1.066928E+03
       103   3 -5.277219E+04  2.017594E+04  2.080195E+04 -5.989336E+04  1.692899E+03 -3.960975E+03
       103   4 -1.339617E+05  1.374118E+02  1.067804E+03 -5.984494E+04 -1.776121E+02  6.103071E+03
       103   5 -1.339379E+05  5.739895E+01  1.387729E+03 -2.832809E+04 -8.707197E+02  1.071208E+03
       103   6 -1.339602E+05  2.108956E+02  2.173003E+03 -5.984483E+04 -1.564070E+03 -3.956607E+03
       103   7  1.552904E+03  3.350366E+04  3.237419E+04 -5.998685E+04 -3.439962E+03  6.107308E+03
       103   8 -1.067759E+05  6.758609E+03  7.727728E+03 -2.837486E+04 -4.130226E+03  1.075489E+03
       103   9 -2.151420E+05 -1.975460E+04 -1.645634E+04 -5.979630E+04 -4.820616E+03 -3.952239E+03
       103  10 -2.694593E+05 -3.323017E+04 -3.023985E+04 -5.970307E+04 -7.154557E-10  2.711422E-10
       103  11 -1.610991E+05 -6.643860E+03 -4.952293E+03 -2.828133E+04  3.141749E-10  2.029640E-09
       103  12 -5.277220E+04  2.017592E+04  2.080191E+04 -5.989336E+04  1.408520E-09 -4.991268E-10
       103  13 -1.339617E+05  1.373718E+02  1.067734E+03 -5.984494E+04 -1.073118E-09 -4.851341E-10
       103  14 -1.339379E+05  5.739752E+01  1.387725E+03 -2.832809E+04  1.040351E-09 -7.555439E-10
       103  15 -1.339602E+05  2.108782E+02  2.172969E+03 -5.984483E+04  8.170911E-10  4.072392E-10
       103  16  1.552881E+03  3.350362E+04  3.237410E+04 -5.998683E+04  1.361189E-09 -1.691170E-10
       103  17 -1.067759E+05  6.758603E+03  7.727694E+03 -2.837486E+04 -2.304357E-09 -5.904494E-10
       103  18 -2.151420E+05 -1.975462E+04 -1.645641E+04 -5.979631E+04 -1.096360E-09  1.219519E-10
       103  19 -2.694593E+05 -3.323012E+04 -3.023977E+04 -5.970305E+04 -3.084031E+03 -6.098836E+03
       103  20 -1.610991E+05 -6.643858E+03 -4.952280E+03 -2.828133E+04 -2.388645E+03 -1.066928E+03
       103  21 -5.277219E+04  2.017594E+04  2.080195E+04 -5.989336E+04 -1.692899E+03  3.960975E+03
       103  22 -1.339617E+05  1.374118E+02  1.067804E+03 -5.984494E+04  1.776121E+02 -6.103071E+03
       103  23 -1.339379E+05  5.739895E+01  1.387729E+03 -2.832809E+04  8.707197E+02 -1.071208E+03
       103  24 -1.339602E+05  2.108956E+02  2.173003E+03 -5.984483E+04  1.564070E+03  3.956607E+03
       103  25  1.552904E+03  3.350366E+04  3.237419E+04 -5.998685E+04  3.439962E+03 -6.107308E+03
       103  26 -1.067759E+05  6.758609E+03  7.727728E+03 -2.837486E+04  4.130226E+03 -1.075489E+03
       103  27 -2.151420E+05 -1.975460E+04 -1.645634E+04 -5.979630E+04  4.820616E+03  3.952239E+03
       104   1  6.064532E+04  4.814095E+04  4.849241E+04 -5.984714E+04  1.267501E+03 -6.900008E+03
       104   2  1.687028E+05  7.461996E+04  7.534628E+04 -2.856251E+04 -1.124674E+03 -1.191977E+04
       104   3  2.772772E+05  1.023033E+05  1.040318E+05 -6.027635E+04 -3.514561E+03 -1.685750E+04
       104   4 -1.338474E+05  9.856613E+01  2.778051E+03 -5.983780E+04 -2.013787E+03 -6.895841E+03
       104   5 -1.341040E+05 -7.364371E+01  4.676441E+03 -2.833714E+04 -4.351999E+03 -1.191647E+04
       104   6 -1.338634E+05  9.503170E+02  8.370440E+03 -5.983682E+04 -6.687513E+03 -1.685500E+04
       104   7 -3.283053E+05 -4.794651E+04 -4.293887E+04 -5.982846E+04 -5.294053E+03 -6.891673E+03
       104   8 -4.368263E+05 -7.477374E+04 -6.599958E+04 -2.811187E+04 -7.577760E+03 -1.191316E+04
       104   9 -5.448480E+05 -1.004146E+05 -8.730230E+04 -5.939754E+04 -9.858377E+03 -1.685249E+04
       104  10  6.064530E+04  4.814090E+04  4.849232E+04 -5.984713E+04  4.511926E-10 -9.879920E-10
       104  11  1.687028E+05  7.461981E+04  7.534601E+04 -2.856252E+04  9.987314E-10 -3.312424E-10
       104  12  2.772771E+05  1.023030E+05  1.040313E+05 -6.027639E+04 -1.026416E-09  1.136117E-11
       104  13 -1.338474E+05  9.851398E+01  2.777954E+03 -5.983781E+04  1.082344E-09  4.001923E-10
       104  14 -1.341041E+05 -7.380128E+01  4.676138E+03 -2.833719E+04 -1.101649E-09 -6.286575E-10
       104  15 -1.338635E+05  9.499999E+02  8.369823E+03 -5.983691E+04 -1.856089E-09 -6.792190E-10
       104  16 -3.283054E+05 -4.794657E+04 -4.293901E+04 -5.982849E+04 -2.662536E-10  4.409718E-10
       104  17 -4.368264E+05 -7.477390E+04 -6.599995E+04 -2.811194E+04  4.332137E-10  1.498267E-09
       104  18 -5.448482E+05 -1.004149E+05 -8.730301E+04 -5.939768E+04  1.802906E-09 -1.525881E-10
       104  19  6.064532E+04  4.814095E+04  4.849241E+04 -5.984714E+04 -1.267501E+03  6.900008E+03
       104  20  1.687028E+05  7.461996E+04  7.534628E+04 -2.856251E+04  1.124674E+03  1.191977E+04
       104  21  2.772772E+05  1.023033E+05  1.040318E+05 -6.027635E+04  3.514561E+03  1.685750E+04
       104  22 -1.338474E+05  9.856613E+01  2.778051E+03 -5.983780E+04  2.013787E+03  6.895841E+03
       104  23 -1.341040E+05 -7.364371E+01  4.676441E+03 -2.833714E+04  4.351999E+03  1.191647E+04
       104  24 -1.338634E+05  9.503170E+02  8.370440E+03 -5.983682E+04  6.687513E+03  1.685500E+04
       104  25 -3.283053E+05 -4.794651E+04 -4.293887E+04 -5.982846E+04  5.294053E+03  6.891673E+03
       104  26 -4.368263E+05 -7.477374E+04 -6.599958E+04 -2.811187E+04  7.577760E+03  1.191316E+04
       104  27 -5.448480E+05 -1.004146E+05 -8.730230E+04 -5.939754E+04  9.858377E+03  1.685249E+04
       105   1  3.913938E+05  1.288521E+05  1.334458E+05 -5.840254E+04 -4.759997E+03 -1.996708E+04
       105   2  4.971946E+05  1.548028E+05  1.659629E+05 -2.952489E+04 -1.504227E+04 -2.482034E+04
       105   3  6.077336E+05  1.935530E+05  2.084075E+05 -6.349957E+04 -2.532061E+04 -2.821628E+04
       105   4 -1.329856E+05 -5.320747E+02  1.079981E+04 -5.980704E+04 -8.379563E+03 -1.996494E+04
       105   5 -1.352865E+05 -1.187424E+03  1.835524E+04 -2.837654E+04 -1.770842E+04 -2.482053E+04
       105   6 -1.330178E+05  1.080001E+04  3.518473E+04 -5.980193E+04 -2.703160E+04 -2.821819E+04
       105   7 -6.571117E+05 -1.299358E+05 -1.118648E+05 -6.121027E+04 -1.199609E+04 -1.996279E+04
       105   8 -7.673987E+05 -1.572060E+05 -1.292796E+05 -2.722930E+04 -2.037187E+04 -2.482074E+04
       105   9 -8.732638E+05 -1.719918E+05 -1.380754E+05 -5.610866E+04 -2.874054E+04 -2.822011E+04
       105  10  3.913937E+05  1.288517E+05  1.334450E+05 -5.840262E+04 -2.245181E-09  6.212976E-10
       105  11  4.971942E+05  1.548021E+05  1.659614E+05 -2.952520E+04 -7.392072E-10 -3.627529E-10
       105  12  6.077327E+05  1.935519E+05  2.084048E+05 -6.350015E+04  2.615413E-10 -3.671293E-11
       105  13 -1.329858E+05 -5.325216E+02  1.079893E+04 -5.980717E+04 -1.869673E-12  2.720033E-10
       105  14 -1.352870E+05 -1.188170E+03  1.835349E+04 -2.837689E+04  5.888648E-10  7.335036E-10
       105  15 -1.330188E+05  1.079895E+04  3.518186E+04 -5.980254E+04 -7.196278E-10 -3.161895E-10
       105  16 -6.571120E+05 -1.299363E+05 -1.118659E+05 -6.121047E+04  1.102989E-09 -1.734521E-11
       105  17 -7.673993E+05 -1.572068E+05 -1.292815E+05 -2.722971E+04 -2.035688E-09  2.834911E-10
       105  18 -8.732649E+05 -1.719929E+05 -1.380784E+05 -5.610931E+04 -7.658372E-10 -5.597096E-10
       105  19  3.913938E+05  1.288521E+05  1.334458E+05 -5.840254E+04  4.759997E+03  1.996708E+04
       105  20  4.971946E+05  1.548028E+05  1.659629E+05 -2.952489E+04  1.504227E+04  2.482034E+04
       105  21  6.077336E+05  1.935530E+05  2.084075E+05 -6.349957E+04  2.532061E+04  2.821628E+04
       105  22 -1.329856E+05 -5.320747E+02  1.079981E+04 -5.980704E+04  8.379563E+03  1.996494E+04
       105  23 -1.352865E+05 -1.187424E+03  1.835524E+04 -2.837654E+04  1.770842E+04  2.482053E+04
       105  24 -1.330178E+05  1.080001E+04  3.518473E+04 -5.980193E+04  2.703160E+04  2.821819E+04
       105  25 -6.571117E+05 -1.299358E+05 -1.118648E+05 -6.121027E+04  1.199609E+04  1.996279E+04
       105  26 -7.673987E+05 -1.572060E+05 -1.292796E+05 -2.722930E+04  2.037187E+04  2.482074E+04
       105  27 -8.732638E+05 -1.719918E+05 -1.380754E+05 -5.610866E+04  2.874054E+04  2.822011E+04
       106   1  7.293880E+05  2.033347E+05  2.424010E+05 -4.086165E+04 -2.373345E+04 -3.448049E+04
       106   2  8.149277E+05  2.245882E+05  2.958557E+05 -4.363296E+04 -7.904613E+04 -3.651294E+04
       106   3  9.457543E+05  3.954676E+05  4.228389E+05 -1.083265E+05 -1.343900E+05 -1.216703E+04
       106   4 -1.246665E+05 -7.186757E+03  4.352021E+04 -5.957706E+04 -3.357382E+04 -3.448209E+04
       106   5 -1.458680E+05 -1.241890E+04  7.115855E+04 -2.865784E+04 -7.172398E+04 -3.651594E+04
       106   6 -1.247047E+05  1.291179E+05  1.604814E+05 -5.965886E+04 -1.098940E+05 -1.215929E+04
       106   7 -9.780474E+05 -2.177584E+05 -1.554094E+05 -7.826653E+04 -4.340074E+04 -3.448311E+04
       106   8 -1.105813E+06 -2.494906E+05 -1.536011E+05 -1.370607E+04 -6.441302E+04 -3.651858E+04
       106   9 -1.194114E+06 -1.373075E+05 -1.019565E+05 -1.107534E+04 -8.544001E+04 -1.214771E+04
       106  10  7.293870E+05  2.033333E+05  2.423977E+05 -4.086230E+04 -2.073049E-09 -9.453573E-11
       106  11  8.149206E+05  2.245850E+05  2.958415E+05 -4.363529E+04 -2.109875E-09  1.630061E-10
       106  12  9.457349E+05  3.954626E+05  4.228047E+05 -1.083278E+05 -4.447442E-10 -2.208593E-10
       106  13 -1.246680E+05 -7.188337E+03  4.351585E+04 -5.957799E+04 -1.155043E-09 -3.510596E-10
       106  14 -1.458738E+05 -1.242171E+04  7.114638E+04 -2.865995E+04  9.828219E-10  1.028544E-09
       106  15 -1.247177E+05  1.291145E+05  1.604584E+05 -5.965994E+04 -1.946186E-09 -1.866265E-11
       106  16 -9.780498E+05 -2.177602E+05 -1.554151E+05 -7.826773E+04  8.531972E-10 -5.663797E-10
       106  17 -1.105818E+06 -2.494931E+05 -1.536114E+05 -1.370797E+04  4.214929E-09  3.691565E-10
       106  18 -1.194122E+06 -1.373096E+05 -1.019705E+05 -1.107617E+04  3.405645E-10 -7.253039E-11
       106  19  7.293880E+05  2.033347E+05  2.424010E+05 -4.086165E+04  2.373345E+04  3.448049E+04
       106  20  8.149277E+05  2.245882E+05  2.958557E+05 -4.363296E+04  7.904613E+04  3.651294E+04
       106  21  9.457543E+05  3.954676E+05  4.228389E+05 -1.083265E+05  1.343900E+05  1.216703E+04
       106  22 -1.246665E+05 -7.186757E+03  4.352021E+04 -5.957706E+04  3.357382E+04  3.448209E+04
       106  23 -1.458680E+05 -1.241890E+04  7.115855E+04 -2.865784E+04  7.172398E+04  3.651594E+04
       106  24 -1.247047E+05  1.291179E+05  1.604814E+05 -5.965886E+04  1.098940E+05  1.215929E+04
       106  25 -9.780474E+05 -2.177584E+05 -1.554094E+05 -7.826653E+04  4.340074E+04  3.448311E+04
       106  26 -1.105813E+06 -2.494906E+05 -1.536011E+05 -1.370607E+04  6.441302E+04  3.651858E+04
       106  27 -1.194114E+06 -1.373075E+05 -1.019565E+05 -1.107534E+04  8.544001E+04  1.214771E+04
       107   1  3.624843E+05  9.143831E+05  3.708640E+05 -3.245291E+05  7.638135E+03  1.723705E+05
       107   2  1.771598E+05  6.901376E+05  2.067822E+05 -2.450462E+05  2.389196E+04  9.092585E+04
       107   3  9.362169E+04  5.016625E+05  1.210896E+05 -2.092134E+05  2.105366E+04  9.454480E+03
       107   4  1.700764E+05  1.402511E+05  1.866783E+05 -2.156630E+05  7.815859E+03  1.275511E+05
       107   5  4.112651E+04  1.253132E+05  9.317987E+04 -1.941123E+05  2.393903E+04  7.962487E+04
       107   6  8.198260E+03  1.403358E+05  5.485970E+04 -2.161935E+05  2.097724E+04  3.164281E+04
       107   7 -2.232993E+04 -6.333024E+05  2.464262E+03 -1.069326E+05  7.978012E+03  8.278725E+04
       107   8 -9.491692E+04 -4.392016E+05 -2.043697E+04 -1.432254E+05  2.398427E+04  6.833395E+04
       107   9 -7.723210E+04 -2.208631E+05 -1.137363E+04 -2.231694E+05  2.090029E+04  5.381858E+04
       107  10  3.624763E+05  9.143512E+05  3.708082E+05 -3.245302E+05 -8.503858E-10 -5.857069E-09
       107  11  1.771570E+05  6.901286E+05  2.067656E+05 -2.450479E+05 -2.174766E-09  1.751556E-08
       107  12  9.362119E+04  5.016623E+05  1.210886E+05 -2.092136E+05 -2.918862E-09  4.173011E-08
       107  13  1.700719E+05  1.402336E+05  1.866476E+05 -2.156638E+05 -1.099810E-09 -3.478210E-11
       107  14  4.112419E+04  1.253063E+05  9.316688E+04 -1.941138E+05 -1.808741E-09 -3.034405E-10
       107  15  8.197519E+03  1.403346E+05  5.485699E+04 -2.161941E+05 -1.132171E-09 -5.939957E-10
       107  16 -2.233184E+04 -6.333098E+05  2.451250E+03 -1.069331E+05  1.861562E-10  5.843076E-09
       107  17 -9.491879E+04 -4.392067E+05 -2.044684E+04 -1.432267E+05 -1.801804E-09 -1.709243E-08
       107  18 -7.723335E+04 -2.208663E+05 -1.137990E+04 -2.231703E+05 -7.911372E-10 -4.149194E-08
       107  19  3.624843E+05  9.143831E+05  3.708640E+05 -3.245291E+05 -7.638135E+03 -1.723705E+05
       107  20  1.771598E+05  6.901376E+05  2.067822E+05 -2.450462E+05 -2.389196E+04 -9.092585E+04
       107  21  9.362169E+04  5.016625E+05  1.210896E+05 -2.092134E+05 -2.105366E+04 -9.454480E+03
       107  22  1.700764E+05  1.402511E+05  1.866783E+05 -2.156630E+05 -7.815859E+03 -1.275511E+05
       107  23  4.112651E+04  1.253132E+05  9.317987E+04 -1.941123E+05 -2.393903E+04 -7.962487E+04
       107  24  8.198260E+03  1.403358E+05  5.485970E+04 -2.161935E+05 -2.097724E+04 -3.164281E+04
       107  25 -2.232993E+04 -6.333024E+05  2.464262E+03 -1.069326E+05 -7.978012E+03 -8.278725E+04
       107  26 -9.491692E+04 -4.392016E+05 -2.043697E+04 -1.432254E+05 -2.398427E+04 -6.833395E+04
       107  27 -7.723210E+04 -2.208631E+05 -1.137363E+04 -2.231694E+05 -2.090029E+04 -5.381858E+04
       108   1  6.327892E+04  3.612083E+05  8.630485E+04 -2.212385E+05  1.317413E+04  3.568489E+03
       108   2  8.266324E+03  1.526376E+05  3.663406E+04 -1.944028E+05  1.469289E+03 -1.321938E+04
       108   3 -3.771883E+04 -5.180059E+04  4.941005E+01 -2.125238E+05 -1.032281E+04 -3.000237E+04
       108   4  9.611465E+03  1.345951E+05  4.470415E+04 -2.164233E+05  1.310235E+04  2.410523E+04
       108   5  3.569609E+03  1.325636E+05  3.323871E+04 -1.939510E+05  1.396828E+03  7.470607E+03
       108   6  6.531513E+03  1.345980E+05  3.475596E+04 -2.164340E+05 -1.039581E+04 -9.164374E+03
       108   7 -4.405860E+04 -9.196740E+04  3.102933E+03 -2.116098E+05  1.303087E+04  4.463467E+04
       108   8 -1.126898E+03  1.124909E+05  2.984494E+04 -1.934992E+05  1.324396E+03  2.815995E+04
       108   9  5.078014E+04  3.210311E+05  6.946267E+04 -2.203455E+05 -1.046906E+04  1.167972E+04
       108  10  6.327873E+04  3.612083E+05  8.630450E+04 -2.212386E+05 -2.457835E-09 -4.356006E-08
       108  11  8.266275E+03  1.526374E+05  3.663373E+04 -1.944028E+05 -7.438347E-10 -2.037597E-08
       108  12 -3.771919E+04 -5.180158E+04  4.751763E+01 -2.125240E+05 -6.017426E-10  9.315110E-09
       108  13  9.611124E+03  1.345944E+05  4.470273E+04 -2.164236E+05 -1.710593E-09 -1.594875E-10
       108  14  3.569592E+03  1.325635E+05  3.323860E+04 -1.939510E+05  9.913646E-10 -2.207391E-10
       108  15  6.531374E+03  1.345978E+05  3.475560E+04 -2.164341E+05  2.555457E-09 -2.716127E-10
       108  16 -4.405932E+04 -9.196958E+04  3.098869E+03 -2.116103E+05 -4.599061E-09  4.337931E-08
       108  17 -1.127112E+03  1.124901E+05  2.984345E+04 -1.934992E+05  5.828281E-10  2.078431E-08
       108  18  5.077999E+04  3.210309E+05  6.946221E+04 -2.203454E+05  1.226309E-09 -9.153545E-09
       108  19  6.327892E+04  3.612083E+05  8.630485E+04 -2.212385E+05 -1.317413E+04 -3.568489E+03
       108  20  8.266324E+03  1.526376E+05  3.663406E+04 -1.944028E+05 -1.469289E+03  1.321938E+04
       108  21 -3.771883E+04 -5.180059E+04  4.941005E+01 -2.125238E+05  1.032281E+04  3.000237E+04
       108  22  9.611465E+03  1.345951E+05  4.470415E+04 -2.164233E+05 -1.310235E+04 -2.410523E+04
       108  23  3.569609E+03  1.325636E+05  3.323871E+04 -1.939510E+05 -1.396828E+03 -7.470607E+03
       108  24  6.531513E+03  1.345980E+05  3.475596E+04 -2.164340E+05  1.039581E+04  9.164374E+03
       108  25 -4.405860E+04 -9.196740E+04  3.102933E+03 -2.116098E+05 -1.303087E+04 -4.463467E+04
       108  26 -1.126898E+03  1.124909E+05  2.984494E+04 -1.934992E+05 -1.324396E+03 -2.815995E+04
       108  27  5.078014E+04  3.210311E+05  6.946267E+04 -2.203455E+05  1.046906E+04 -1.167972E+04
       109   1 -7.027787E+04 -1.831181E+05 -2.003837E+04 -2.199881E+05 -1.825263E+04 -3.730352E+04
       109   2 -1.003410E+05 -3.961377E+05 -4.561970E+04 -1.617115E+05 -2.196489E+04 -3.652858E+04
       109   3 -7.577667E+04 -5.958431E+05 -5.811493E+04 -1.472145E+05 -7.508029E+03 -3.569997E+04
       109   4  5.738428E+03  1.378543E+05  3.922896E+04 -2.162076E+05 -1.833042E+04 -1.490993E+04
       109   5  2.604637E+04  1.284289E+05  6.039829E+04 -1.941589E+05 -2.192959E+04 -4.597159E+04
       109   6  1.064779E+05  1.377782E+05  1.167488E+05 -2.158763E+05 -7.366782E+03 -7.697978E+04
       109   7  8.174918E+04  4.589278E+05  9.849391E+04 -2.124250E+05 -1.840791E+04  7.494935E+03
       109   8  1.524205E+05  6.532600E+05  1.664029E+05 -2.266340E+05 -2.189333E+04 -5.542242E+04
       109   9  2.887118E+05  8.719069E+05  2.915836E+05 -2.846192E+05 -7.216493E+03 -1.183081E+05
       109  10 -7.027860E+04 -1.831197E+05 -2.004162E+04 -2.199887E+05 -5.872233E-10  1.206616E-09
       109  11 -1.003418E+05 -3.961393E+05 -4.562311E+04 -1.617121E+05  2.194979E-10 -2.224513E-09
       109  12 -7.577707E+04 -5.958445E+05 -5.811744E+04 -1.472147E+05  9.483091E-10 -2.069418E-09
       109  13  5.738008E+03  1.378540E+05  3.922791E+04 -2.162078E+05 -4.283671E-10  1.476137E-10
       109  14  2.604529E+04  1.284265E+05  6.039341E+04 -1.941597E+05 -1.239810E-09 -5.136921E-11
       109  15  1.064762E+05  1.377718E+05  1.167376E+05 -2.158767E+05 -6.208424E-10 -4.313961E-10
       109  16  8.174880E+04  4.589276E+05  9.849317E+04 -2.124249E+05  1.306911E-09 -1.138434E-09
       109  17  1.524192E+05  6.532566E+05  1.663963E+05 -2.266349E+05 -3.570374E-10  2.612506E-09
       109  18  2.887080E+05  8.718919E+05  2.915572E+05 -2.846199E+05  6.845138E-11  2.367293E-09
       109  19 -7.027787E+04 -1.831181E+05 -2.003837E+04 -2.199881E+05  1.825263E+04  3.730352E+04
       109  20 -1.003410E+05 -3.961377E+05 -4.561970E+04 -1.617115E+05  2.196489E+04  3.652858E+04
       109  21 -7.577667E+04 -5.958431E+05 -5.811493E+04 -1.472145E+05  7.508029E+03  3.569997E+04
       109  22  5.738428E+03  1.378543E+05  3.922896E+04 -2.162076E+05  1.833042E+04  1.490993E+04
       109  23  2.604637E+04  1.284289E+05  6.039829E+04 -1.941589E+05  2.192959E+04  4.597159E+04
       109  24  1.064779E+05  1.377782E+05  1.167488E+05 -2.158763E+05  7.366782E+03  7.697978E+04
       109  25  8.174918E+04  4.589278E+05  9.849391E+04 -2.124250E+05  1.840791E+04 -7.494935E+03
       109  26  1.524205E+05  6.532600E+05  1.664029E+05 -2.266340E+05  2.189333E+04  5.542242E+04
       109  27  2.887118E+05  8.719069E+05  2.915836E+05 -2.846192E+05  7.216493E+03  1.183081E+05
       110   1 -3.869121E+06 -1.315602E+06 -8.142881E+05 -1.378156E+06 -3.492704E+05 -1.157427E+05
       110   2 -3.760547E+06 -7.989458E+05 -4.904252E+05 -1.388421E+06 -2.274250E+05 -3.628057E+04
       110   3 -3.798168E+06 -7.479715E+05 -3.841749E+05 -1.325321E+06 -9.406589E+04  1.277976E+04
       110   4 -2.809802E+06 -7.808546E+05 -5.004742E+05 -9.527300E+05 -3.228122E+05 -1.058359E+05
       110   5 -2.711748E+06 -3.635112E+05 -2.113149E+05 -1.059689E+06 -2.191459E+05 -3.318022E+04
       110   6 -2.755988E+06 -4.078135E+05 -1.250229E+05 -1.093366E+06 -1.039824E+05  9.047081E+03
       110   7 -1.749341E+06 -2.457511E+05 -1.867660E+05 -5.265557E+05 -2.963038E+05 -9.589568E+04
       110   8 -1.661867E+06  7.206122E+04  6.769916E+04 -7.304268E+05 -2.108512E+05 -3.007256E+04
       110   9 -1.712749E+06 -6.764812E+04  1.340466E+05 -8.610864E+05 -1.139171E+05  5.309633E+03
       110  10 -3.869257E+06 -1.315650E+06 -8.145443E+05 -1.378189E+06 -1.142061E-09 -5.279840E-10
       110  11 -3.760603E+06 -7.989612E+05 -4.905255E+05 -1.388428E+06 -7.523005E-10  1.258061E-09
       110  12 -3.798178E+06 -7.479741E+05 -3.841920E+05 -1.325320E+06  1.176703E-09  1.840677E-10
       110  13 -2.809917E+06 -7.808948E+05 -5.006921E+05 -9.527576E+05 -1.915089E-10 -9.096412E-10
       110  14 -2.711800E+06 -3.635254E+05 -2.114077E+05 -1.059695E+06  3.602208E-09 -5.186032E-10
       110  15 -2.756000E+06 -4.078165E+05 -1.250435E+05 -1.093365E+06  3.534157E-09 -1.551145E-09
       110  16 -1.749438E+06 -2.457847E+05 -1.869488E+05 -5.265786E+05 -7.399604E-10  4.135308E-10
       110  17 -1.661915E+06  7.204826E+04  6.761365E+04 -7.304319E+05  2.074552E-09 -1.280211E-09
       110  18 -1.712763E+06 -6.765165E+04  1.340221E+05 -8.610859E+05 -8.941900E-10 -6.190796E-10
       110  19 -3.869121E+06 -1.315602E+06 -8.142881E+05 -1.378156E+06  3.492704E+05  1.157427E+05
       110  20 -3.760547E+06 -7.989458E+05 -4.904252E+05 -1.388421E+06  2.274250E+05  3.628057E+04
       110  21 -3.798168E+06 -7.479715E+05 -3.841749E+05 -1.325321E+06  9.406589E+04 -1.277976E+04
       110  22 -2.809802E+06 -7.808546E+05 -5.004742E+05 -9.527300E+05  3.228122E+05  1.058359E+05
       110  23 -2.711748E+06 -3.635112E+05 -2.113149E+05 -1.059689E+06  2.191459E+05  3.318022E+04
       110  24 -2.755988E+06 -4.078135E+05 -1.250229E+05 -1.093366E+06  1.039824E+05 -9.047081E+03
       110  25 -1.749341E+06 -2.457511E+05 -1.867660E+05 -5.265557E+05  2.963038E+05  9.589568E+04
       110  26 -1.661867E+06  7.206122E+04  6.769916E+04 -7.304268E+05  2.108512E+05  3.007256E+04
       110  27 -1.712749E+06 -6.764812E+04  1.340466E+05 -8.610864E+05  1.139171E+05 -5.309633E+03
       111   1 -3.645549E+06 -8.083280E+05 -3.378663E+05 -1.325419E+06 -8.379345E+04  9.508843E+03
       111   2 -3.574256E+06 -7.145727E+05 -2.640134E+05 -1.284625E+06 -5.625585E+04  1.744367E+04
       111   3 -3.482200E+06 -6.987729E+05 -2.207482E+05 -1.278231E+06 -2.797678E+04  2.340332E+04
       111   4 -2.738882E+06 -4.567042E+05 -1.009159E+05 -1.066693E+06 -8.455521E+04  9.216108E+03
       111   5 -2.746940E+06 -4.009605E+05 -4.970265E+04 -1.055821E+06 -5.817312E+04  1.671901E+04
       111   6 -2.733990E+06 -4.229047E+05 -2.812230E+04 -1.079353E+06 -3.105386E+04  2.224577E+04
       111   7 -1.831406E+06 -1.050129E+05  1.359657E+05 -8.076164E+05 -8.531814E+04  8.922912E+03
       111   8 -1.918954E+06 -8.730110E+04  1.645513E+05 -8.267379E+05 -6.009317E+04  1.599330E+04
       111   9 -1.985233E+06 -1.470063E+05  1.644575E+05 -8.802589E+05 -3.413501E+04  2.108676E+04
       111  10 -3.645556E+06 -8.083300E+05 -3.378798E+05 -1.325418E+06 -6.449536E-10 -7.009226E-10
       111  11 -3.574259E+06 -7.145738E+05 -2.640199E+05 -1.284624E+06 -1.083079E-09  3.553769E-11
       111  12 -3.482201E+06 -6.987737E+05 -2.207507E+05 -1.278231E+06  1.426197E-10 -3.815535E-10
       111  13 -2.738889E+06 -4.567062E+05 -1.009295E+05 -1.066692E+06  9.918148E-10 -8.273266E-10
       111  14 -2.746944E+06 -4.009617E+05 -4.970955E+04 -1.055820E+06 -2.177165E-10  9.203353E-11
       111  15 -2.733991E+06 -4.229055E+05 -2.812504E+04 -1.079352E+06 -7.602486E-10 -4.986831E-10
       111  16 -1.831414E+06 -1.050149E+05  1.359519E+05 -8.076158E+05  1.567774E-09 -6.054895E-10
       111  17 -1.918958E+06 -8.730235E+04  1.645440E+05 -8.267371E+05 -1.916235E-09 -1.224008E-10
       111  18 -1.985235E+06 -1.470071E+05  1.644544E+05 -8.802583E+05 -1.199472E-09 -3.083908E-10
       111  19 -3.645549E+06 -8.083280E+05 -3.378663E+05 -1.325419E+06  8.379345E+04 -9.508843E+03
       111  20 -3.574256E+06 -7.145727E+05 -2.640134E+05 -1.284625E+06  5.625585E+04 -1.744367E+04
       111  21 -3.482200E+06 -6.987729E+05 -2.207482E+05 -1.278231E+06  2.797678E+04 -2.340332E+04
       111  22 -2.738882E+06 -4.567042E+05 -1.009159E+05 -1.066693E+06  8.455521E+04 -9.216108E+03
       111  23 -2.746940E+06 -4.009605E+05 -4.970265E+04 -1.055821E+06  5.817312E+04 -1.671901E+04
       111  24 -2.733990E+06 -4.229047E+05 -2.812230E+04 -1.079353E+06  3.105386E+04 -2.224577E+04
       111  25 -1.831406E+06 -1.050129E+05  1.359657E+05 -8.076164E+05  8.531814E+04 -8.922912E+03
       111  26 -1.918954E+06 -8.730110E+04  1.645513E+05 -8.267379E+05  6.009317E+04 -1.599330E+04
       111  27 -1.985233E+06 -1.470063E+05  1.644575E+05 -8.802589E+05  3.413501E+04 -2.108676E+04
       112   1 -3.376463E+06 -6.703894E+05 -1.881696E+05 -1.254043E+06 -2.344410E+04  2.192634E+04
       112   2 -3.304484E+06 -6.112382E+05 -1.544261E+05 -1.205463E+06 -1.587390E+04  1.979634E+04
       112   3 -3.192770E+06 -5.972705E+05 -1.260211E+05 -1.203793E+06 -8.228784E+03  1.745409E+04
       112   4 -2.731512E+06 -4.278255E+05 -2.174900E+04 -1.077555E+06 -2.602219E+04  2.095717E+04
       112   5 -2.751152E+06 -4.036963E+05 -1.153780E+04 -1.054672E+06 -1.857390E+04  1.878303E+04
       112   6 -2.731040E+06 -4.247221E+05 -6.563108E+03 -1.078702E+06 -1.105168E+04  1.639639E+04
       112   7 -2.086157E+06 -1.852356E+05  1.446365E+05 -9.009001E+05 -2.860320E+04  1.998689E+04
       112   8 -2.197521E+06 -1.961352E+05  1.313251E+05 -9.037593E+05 -2.127654E+04  1.776872E+04
       112   9 -2.269100E+06 -2.521603E+05  1.128776E+05 -9.535255E+05 -1.387689E+04  1.533783E+04
       112  10 -3.376464E+06 -6.703901E+05 -1.881716E+05 -1.254043E+06 -1.793927E-09 -2.013289E-10
       112  11 -3.304485E+06 -6.112387E+05 -1.544273E+05 -1.205462E+06 -6.658698E-10  5.092428E-10
       112  12 -3.192770E+06 -5.972708E+05 -1.260218E+05 -1.203793E+06 -1.122358E-09 -4.918178E-10
       112  13 -2.731513E+06 -4.278262E+05 -2.175109E+04 -1.077554E+06 -1.557925E-09 -1.878729E-10
       112  14 -2.751153E+06 -4.036968E+05 -1.153911E+04 -1.054672E+06 -4.376842E-10  1.873671E-10
       112  15 -2.731040E+06 -4.247224E+05 -6.563842E+03 -1.078702E+06 -2.029184E-09  7.644288E-11
       112  16 -2.086158E+06 -1.852363E+05  1.446342E+05 -9.008997E+05  2.398149E-10 -1.437470E-10
       112  17 -2.197521E+06 -1.961357E+05  1.313237E+05 -9.037590E+05  2.658416E-09  1.241433E-10
       112  18 -2.269100E+06 -2.521606E+05  1.128768E+05 -9.535253E+05  1.814187E-09 -8.292007E-11
       112  19 -3.376463E+06 -6.703894E+05 -1.881696E+05 -1.254043E+06  2.344410E+04 -2.192634E+04
       112  20 -3.304484E+06 -6.112382E+05 -1.544261E+05 -1.205463E+06  1.587390E+04 -1.979634E+04
       112  21 -3.192770E+06 -5.972705E+05 -1.260211E+05 -1.203793E+06  8.228784E+03 -1.745409E+04
       112  22 -2.731512E+06 -4.278255E+05 -2.174900E+04 -1.077555E+06  2.602219E+04 -2.095717E+04
       112  23 -2.751152E+06 -4.036963E+05 -1.153780E+04 -1.054672E+06  1.857390E+04 -1.878303E+04
       112  24 -2.731040E+06 -4.247221E+05 -6.563108E+03 -1.078702E+06  1.105168E+04 -1.639639E+04
       112  25 -2.086157E+06 -1.852356E+05  1.446365E+05 -9.009001E+05  2.860320E+04 -1.998689E+04
       112  26 -2.197521E+06 -1.961352E+05  1.313251E+05 -9.037593E+05  2.127654E+04 -1.776872E+04
       112  27 -2.269100E+06 -2.521603E+05  1.128776E+05 -9.535255E+05  1.387689E+04 -1.533783E+04
       113   1 -3.086335E+06 -5.587524E+05 -9.664622E+04 -1.175781E+06 -6.254478E+03  1.508694E+04
       113   2 -3.011620E+06 -5.006989E+05 -7.020896E+04 -1.124684E+06 -2.867697E+03  1.099961E+04
       113   3 -2.893817E+06 -4.863887E+05 -4.507134E+04 -1.123393E+06  5.371717E+02  6.856973E+03
       113   4 -2.730428E+06 -4.254899E+05 -5.126515E+03 -1.078929E+06 -9.076796E+03  1.403027E+04
       113   5 -2.751940E+06 -4.034707E+05 -3.194604E+03 -1.054078E+06 -5.722483E+03  9.931563E+03
       113   6 -2.730369E+06 -4.251869E+05 -2.535458E+03 -1.079035E+06 -2.350396E+03  5.777505E+03
       113   7 -2.374395E+06 -2.922192E+05  8.638297E+04 -9.820259E+05 -1.190090E+04  1.297293E+04
       113   8 -2.492195E+06 -3.062390E+05  6.381377E+04 -9.834458E+05 -8.578566E+03  8.863029E+03
       113   9 -2.566897E+06 -3.639844E+05  3.999759E+04 -1.034666E+06 -5.238761E+03  4.697739E+03
       113  10 -3.086335E+06 -5.587527E+05 -9.664672E+04 -1.175781E+06 -9.794943E-11 -6.552644E-10
       113  11 -3.011620E+06 -5.006990E+05 -7.020920E+04 -1.124684E+06  1.960993E-10 -2.941199E-10
       113  12 -2.893817E+06 -4.863888E+05 -4.507143E+04 -1.123393E+06 -2.726713E-09 -1.542852E-09
       113  13 -2.730428E+06 -4.254902E+05 -5.127039E+03 -1.078929E+06 -2.942999E-09 -4.684637E-10
       113  14 -2.751940E+06 -4.034708E+05 -3.194850E+03 -1.054078E+06 -3.550285E-09 -1.252494E-09
       113  15 -2.730369E+06 -4.251870E+05 -2.535531E+03 -1.079035E+06  1.462687E-10  1.998977E-09
       113  16 -2.374395E+06 -2.922194E+05  8.638239E+04 -9.820257E+05 -1.632683E-09 -1.156948E-10
       113  17 -2.492195E+06 -3.062391E+05  6.381349E+04 -9.834458E+05 -2.744140E-09  2.325429E-10
       113  18 -2.566897E+06 -3.639844E+05  3.999750E+04 -1.034666E+06  6.713848E-11  4.844002E-10
       113  19 -3.086335E+06 -5.587524E+05 -9.664622E+04 -1.175781E+06  6.254478E+03 -1.508694E+04
       113  20 -3.011620E+06 -5.006989E+05 -7.020896E+04 -1.124684E+06  2.867697E+03 -1.099961E+04
       113  21 -2.893817E+06 -4.863887E+05 -4.507134E+04 -1.123393E+06 -5.371717E+02 -6.856973E+03
       113  22 -2.730428E+06 -4.254899E+05 -5.126515E+03 -1.078929E+06  9.076796E+03 -1.403027E+04
       113  23 -2.751940E+06 -4.034707E+05 -3.194604E+03 -1.054078E+06  5.722483E+03 -9.931563E+03
       113  24 -2.730369E+06 -4.251869E+05 -2.535458E+03 -1.079035E+06  2.350396E+03 -5.777505E+03
       113  25 -2.374395E+06 -2.922192E+05  8.638297E+04 -9.820259E+05  1.190090E+04 -1.297293E+04
       113  26 -2.492195E+06 -3.062390E+05  6.381377E+04 -9.834458E+05  8.578566E+03 -8.863029E+03
       113  27 -2.566897E+06 -3.639844E+05  3.999759E+04 -1.034666E+06  5.238761E+03 -4.697739E+03
       114   1 -2.785127E+06 -4.458240E+05 -1.635465E+04 -1.094157E+06  2.007936E+03  4.229066E+03
       114   2 -2.709512E+06 -3.874149E+05  7.692448E+03 -1.042386E+06  5.424987E+03  5.277123E+01
       114   3 -2.590398E+06 -3.732478E+05  3.042233E+04 -1.041018E+06  8.837353E+03 -4.108597E+03
       114   4 -2.730273E+06 -4.253004E+05 -2.555622E+03 -1.079166E+06 -8.886640E+02  3.146450E+03
       114   5 -2.752036E+06 -4.033025E+05 -3.273360E+03 -1.053916E+06  2.536975E+03 -1.026817E+03
       114   6 -2.730311E+06 -4.255500E+05 -5.314948E+03 -1.079073E+06  5.957633E+03 -5.185217E+03
       114   7 -2.675416E+06 -4.047763E+05  1.124338E+04 -1.064173E+06 -3.785578E+03  2.063716E+03
       114   8 -2.794558E+06 -4.191901E+05 -1.423940E+04 -1.065445E+06 -3.508469E+02 -2.106334E+03
       114   9 -2.870205E+06 -4.778514E+05 -4.105410E+04 -1.117122E+06  3.078601E+03 -6.261579E+03
       114  10 -2.785127E+06 -4.458240E+05 -1.635469E+04 -1.094157E+06 -9.025286E-10  8.501013E-10
       114  11 -2.709512E+06 -3.874149E+05  7.692392E+03 -1.042386E+06 -9.214369E-10  3.845680E-11
       114  12 -2.590398E+06 -3.732478E+05  3.042215E+04 -1.041018E+06  1.952029E-09  1.405423E-09
       114  13 -2.730273E+06 -4.253004E+05 -2.555642E+03 -1.079166E+06 -2.092025E-09  3.800392E-10
       114  14 -2.752036E+06 -4.033025E+05 -3.273374E+03 -1.053916E+06 -7.423606E-10  8.099251E-10
       114  15 -2.730311E+06 -4.255500E+05 -5.315066E+03 -1.079073E+06  2.534951E-09  6.659721E-10
       114  16 -2.675416E+06 -4.047763E+05  1.124334E+04 -1.064173E+06 -1.193581E-09 -2.058447E-10
       114  17 -2.794558E+06 -4.191901E+05 -1.423941E+04 -1.065445E+06 -9.661921E-10 -5.733556E-10
       114  18 -2.870205E+06 -4.778514E+05 -4.105419E+04 -1.117122E+06  1.642128E-09 -2.307214E-09
       114  19 -2.785127E+06 -4.458240E+05 -1.635465E+04 -1.094157E+06 -2.007936E+03 -4.229066E+03
       114  20 -2.709512E+06 -3.874149E+05  7.692448E+03 -1.042386E+06 -5.424987E+03 -5.277123E+01
       114  21 -2.590398E+06 -3.732478E+05  3.042233E+04 -1.041018E+06 -8.837353E+03  4.108597E+03
       114  22 -2.730273E+06 -4.253004E+05 -2.555622E+03 -1.079166E+06  8.886640E+02 -3.146450E+03
       114  23 -2.752036E+06 -4.033025E+05 -3.273360E+03 -1.053916E+06 -2.536975E+03  1.026817E+03
       114  24 -2.730311E+06 -4.255500E+05 -5.314948E+03 -1.079073E+06 -5.957633E+03  5.185217E+03
       114  25 -2.675416E+06 -4.047763E+05  1.124338E+04 -1.064173E+06  3.785578E+03 -2.063716E+03
       114  26 -2.794558E+06 -4.191901E+05 -1.423940E+04 -1.065445E+06  3.508469E+02  2.106334E+03
       114  27 -2.870205E+06 -4.778514E+05 -4.105410E+04 -1.117122E+06 -3.078601E+03  6.261579E+03
       115   1 -2.482518E+06 -3.325585E+05  5.746937E+04 -1.012204E+06  1.088612E+04 -6.515466E+03
       115   2 -2.408208E+06 -2.746061E+05  7.655977E+04 -9.607442E+05  1.860591E+04 -8.991657E+03
       115   3 -2.292969E+06 -2.634133E+05  9.022056E+04 -9.579437E+05  2.627152E+04 -1.131065E+04
       115   4 -2.730741E+06 -4.249927E+05 -6.830407E+03 -1.079111E+06  7.992439E+03 -7.597691E+03
       115   5 -2.751430E+06 -4.031911E+05 -1.200069E+04 -1.054191E+06  1.580313E+04 -1.004092E+04
       115   6 -2.731216E+06 -4.281704E+05 -2.267477E+04 -1.077935E+06  2.355869E+04 -1.232727E+04
       115   7 -2.978901E+06 -5.174219E+05 -7.113436E+04 -1.145993E+06  5.100064E+03 -8.679432E+03
       115   8 -3.094535E+06 -5.317683E+05 -1.005705E+05 -1.147591E+06  1.300207E+04 -1.108955E+04
       115   9 -3.169279E+06 -5.929160E+05 -1.355867E+05 -1.197850E+06  2.084795E+04 -1.334310E+04
       115  10 -2.482518E+06 -3.325586E+05  5.746907E+04 -1.012203E+06  9.563755E-10  1.138539E-09
       115  11 -2.408208E+06 -2.746062E+05  7.655896E+04 -9.607440E+05 -1.200234E-09 -1.091666E-09
       115  12 -2.292970E+06 -2.634136E+05  9.021902E+04 -9.579435E+05 -1.791022E-09  1.434773E-10
       115  13 -2.730741E+06 -4.249928E+05 -6.830635E+03 -1.079111E+06  2.277660E-09 -2.426793E-10
       115  14 -2.751430E+06 -4.031913E+05 -1.200135E+04 -1.054191E+06 -1.042710E-09 -1.215815E-09
       115  15 -2.731217E+06 -4.281707E+05 -2.267610E+04 -1.077935E+06 -1.688943E-09  4.027756E-10
       115  16 -2.978901E+06 -5.174220E+05 -7.113455E+04 -1.145993E+06  6.691907E-10 -7.044798E-10
       115  17 -3.094535E+06 -5.317685E+05 -1.005711E+05 -1.147591E+06 -2.322318E-09  7.654714E-10
       115  18 -3.169279E+06 -5.929163E+05 -1.355878E+05 -1.197850E+06  7.801751E-10  1.740347E-09
       115  19 -2.482518E+06 -3.325585E+05  5.746937E+04 -1.012204E+06 -1.088612E+04  6.515466E+03
       115  20 -2.408208E+06 -2.746061E+05  7.655977E+04 -9.607442E+05 -1.860591E+04  8.991657E+03
       115  21 -2.292969E+06 -2.634133E+05  9.022056E+04 -9.579437E+05 -2.627152E+04  1.131065E+04
       115  22 -2.730741E+06 -4.249927E+05 -6.830407E+03 -1.079111E+06 -7.992439E+03  7.597691E+03
       115  23 -2.751430E+06 -4.031911E+05 -1.200069E+04 -1.054191E+06 -1.580313E+04  1.004092E+04
       115  24 -2.731216E+06 -4.281704E+05 -2.267477E+04 -1.077935E+06 -2.355869E+04  1.232727E+04
       115  25 -2.978901E+06 -5.174219E+05 -7.113436E+04 -1.145993E+06 -5.100064E+03  8.679432E+03
       115  26 -3.094535E+06 -5.317683E+05 -1.005705E+05 -1.147591E+06 -1.300207E+04  1.108955E+04
       115  27 -3.169279E+06 -5.929160E+05 -1.355867E+05 -1.197850E+06 -2.084795E+04  1.334310E+04
       116   1 -2.186934E+06 -2.236524E+05  1.110419E+05 -9.366407E+05  3.194838E+04 -1.246370E+04
       116   2 -2.116182E+06 -1.605076E+05  1.116047E+05 -8.800250E+05  5.926198E+04 -7.187690E+03
       116   3 -2.022903E+06 -1.789321E+05  8.200650E+04 -8.603215E+05  8.595226E+04 -2.247793E+02
       116   4 -2.733588E+06 -4.232839E+05 -2.933155E+04 -1.080083E+06  2.879598E+04 -1.364563E+04
       116   5 -2.747274E+06 -3.999971E+05 -5.179750E+04 -1.055041E+06  5.710155E+04 -8.000262E+03
       116   6 -2.738656E+06 -4.585100E+05 -1.052381E+05 -1.066917E+06  8.477961E+04 -6.694217E+02
       116   7 -3.279950E+06 -6.229005E+05 -1.697294E+05 -1.223412E+06  2.564663E+04 -1.482649E+04
       116   8 -3.377975E+06 -6.394587E+05 -2.152326E+05 -1.229895E+06  5.494351E+04 -8.811914E+03
       116   9 -3.453905E+06 -7.380432E+05 -2.925256E+05 -1.273292E+06  8.360840E+04 -1.113474E+03
       116  10 -2.186935E+06 -2.236528E+05  1.110397E+05 -9.366404E+05 -1.831713E-09  8.980717E-10
       116  11 -2.116186E+06 -1.605086E+05  1.115980E+05 -8.800247E+05 -1.116223E-09 -9.929717E-10
       116  12 -2.022911E+06 -1.789341E+05  8.199257E+04 -8.603215E+05 -2.142973E-09 -5.324243E-10
       116  13 -2.733588E+06 -4.232843E+05 -2.933346E+04 -1.080082E+06  2.414935E-09  1.160084E-09
       116  14 -2.747277E+06 -3.999981E+05 -5.180377E+04 -1.055041E+06 -9.108689E-11  4.081342E-10
       116  15 -2.738664E+06 -4.585119E+05 -1.052517E+05 -1.066917E+06 -8.448810E-10  3.170637E-11
       116  16 -3.279950E+06 -6.229010E+05 -1.697311E+05 -1.223411E+06  5.459256E-10  1.009491E-09
       116  17 -3.377979E+06 -6.394596E+05 -2.152385E+05 -1.229895E+06  7.811190E-10  5.417972E-10
       116  18 -3.453913E+06 -7.380451E+05 -2.925388E+05 -1.273292E+06  6.115073E-10  3.759832E-10
       116  19 -2.186934E+06 -2.236524E+05  1.110419E+05 -9.366407E+05 -3.194838E+04  1.246370E+04
       116  20 -2.116182E+06 -1.605076E+05  1.116047E+05 -8.800250E+05 -5.926198E+04  7.187690E+03
       116  21 -2.022903E+06 -1.789321E+05  8.200650E+04 -8.603215E+05 -8.595226E+04  2.247793E+02
       116  22 -2.733588E+06 -4.232839E+05 -2.933155E+04 -1.080083E+06 -2.879598E+04  1.364563E+04
       116  23 -2.747274E+06 -3.999971E+05 -5.179750E+04 -1.055041E+06 -5.710155E+04  8.000262E+03
       116  24 -2.738656E+06 -4.585100E+05 -1.052381E+05 -1.066917E+06 -8.477961E+04  6.694217E+02
       116  25 -3.279950E+06 -6.229005E+05 -1.697294E+05 -1.223412E+06 -2.564663E+04  1.482649E+04
       116  26 -3.377975E+06 -6.394587E+05 -2.152326E+05 -1.229895E+06 -5.494351E+04  8.811914E+03
       116  27 -3.453905E+06 -7.380432E+05 -2.925256E+05 -1.273292E+06 -8.360840E+04  1.113474E+03
       117   1 -1.895922E+06 -1.389657E+05  8.113363E+04 -9.157127E+05  1.138848E+05  3.528775E+03
       117   2 -1.839001E+06  8.920731E+03  1.288458E+04 -7.771911E+05  2.185524E+05  4.089143E+04
       117   3 -1.925370E+06 -3.233153E+05 -2.543149E+05 -5.649792E+05  3.133659E+05  1.044915E+05
       117   4 -2.756303E+06 -4.077369E+05 -1.303822E+05 -1.094977E+06  1.048041E+05  1.253415E+02
       117   5 -2.710856E+06 -3.605684E+05 -2.203080E+05 -1.058694E+06  2.251716E+05  4.335950E+04
       117   6 -2.812103E+06 -7.970914E+05 -5.218911E+05 -9.486643E+05  3.356716E+05  1.128065E+05
       117   7 -3.615962E+06 -6.765118E+05 -3.419527E+05 -1.274042E+06  9.573704E+04 -3.274931E+03
       117   8 -3.581959E+06 -7.299486E+05 -4.535668E+05 -1.339816E+06  2.317805E+05  4.582250E+04
       117   9 -3.698013E+06 -1.270547E+06 -7.895383E+05 -1.331771E+06  3.579418E+05  1.210954E+05
       117  10 -1.895936E+06 -1.389692E+05  8.110916E+04 -9.157130E+05 -1.358191E-09  1.940107E-10
       117  11 -1.839053E+06  8.906050E+03  1.279136E+04 -7.771983E+05 -1.501833E-09  4.977903E-10
       117  12 -1.925478E+06 -3.233535E+05 -2.545206E+05 -5.650056E+05 -3.201734E-10  3.986844E-10
       117  13 -2.756314E+06 -4.077398E+05 -1.304029E+05 -1.094977E+06 -2.215537E-09 -1.283667E-12
       117  14 -2.710911E+06 -3.605842E+05 -2.204073E+05 -1.058702E+06 -3.976009E-09 -4.355172E-10
       117  15 -2.812228E+06 -7.971356E+05 -5.221280E+05 -9.486949E+05  1.529955E-11 -3.631833E-10
       117  16 -3.615972E+06 -6.765143E+05 -3.419700E+05 -1.274041E+06  2.761130E-11 -1.792087E-10
       117  17 -3.582017E+06 -7.299654E+05 -4.536724E+05 -1.339824E+06 -3.224787E-09  3.263472E-10
       117  18 -3.698155E+06 -1.270598E+06 -7.898084E+05 -1.331806E+06  7.997997E-10 -3.056920E-11
       117  19 -1.895922E+06 -1.389657E+05  8.113363E+04 -9.157127E+05 -1.138848E+05 -3.528775E+03
       117  20 -1.839001E+06  8.920731E+03  1.288458E+04 -7.771911E+05 -2.185524E+05 -4.089143E+04
       117  21 -1.925370E+06 -3.233153E+05 -2.543149E+05 -5.649792E+05 -3.133659E+05 -1.044915E+05
       117  22 -2.756303E+06 -4.077369E+05 -1.303822E+05 -1.094977E+06 -1.048041E+05 -1.253415E+02
       117  23 -2.710856E+06 -3.605684E+05 -2.203080E+05 -1.058694E+06 -2.251716E+05 -4.335950E+04
       117  24 -2.812103E+06 -7.970914E+05 -5.218911E+05 -9.486643E+05 -3.356716E+05 -1.128065E+05
       117  25 -3.615962E+06 -6.765118E+05 -3.419527E+05 -1.274042E+06 -9.573704E+04  3.274931E+03
       117  26 -3.581959E+06 -7.299486E+05 -4.535668E+05 -1.339816E+06 -2.317805E+05 -4.582250E+04
       117  27 -3.698013E+06 -1.270547E+06 -7.895383E+05 -1.331771E+06 -3.579418E+05 -1.210954E+05
       118   1 -4.855934E+05  2.557659E+04  6.548970E+04  3.543208E+04  1.213722E+05  6.160223E+03
       118   2 -4.666986E+05 -1.344127E+05 -2.674953E+04  6.756846E+03  8.334098E+04  1.848416E+04
       118   3 -3.984147E+05 -1.175845E+05 -4.996078E+04 -4.686817E+04  4.531760E+04  1.789867E+04
       118   4  4.303575E+04  1.571056E+05  1.951026E+05 -2.405598E+04  1.336402E+05  6.159684E+03
       118   5  1.763892E+04 -1.488276E+04  8.658565E+04 -1.151345E+04  8.721079E+04  1.848348E+04
       118   6  4.304355E+04 -8.676651E+03  5.288808E+04 -2.391871E+04  4.079273E+04  1.789727E+04
       118   7  5.719276E+05  2.886274E+05  3.246975E+05 -8.359486E+04  1.459185E+05  6.156796E+03
       118   8  5.021935E+05  1.046319E+05  1.999051E+05 -2.979813E+04  9.108357E+04  1.848257E+04
       118   9  4.846828E+05  1.002194E+05  1.557241E+05 -9.528164E+02  3.626466E+04  1.789554E+04
       118  10 -4.856093E+05  2.557260E+04  6.546193E+04  3.543147E+04  7.891684E-10  3.654643E-10
       118  11 -4.667062E+05 -1.344150E+05 -2.676324E+04  6.755605E+03  1.639266E-10 -2.127657E-10
       118  12 -3.984170E+05 -1.175854E+05 -4.996524E+04 -4.686883E+04 -9.469558E-10  2.306706E-10
       118  13  4.301656E+04  1.571008E+05  1.950690E+05 -2.405664E+04 -1.060383E-09  1.185524E-10
       118  14  1.763066E+04 -1.488517E+04  8.657072E+04 -1.151475E+04 -1.617128E-09 -8.968128E-10
       118  15  4.304168E+04 -8.677442E+03  5.288435E+04 -2.391929E+04  6.291073E-10  6.908102E-11
       118  16  5.719047E+05  2.886216E+05  3.246574E+05 -8.359559E+04  7.390976E-10 -9.225306E-11
       118  17  5.021845E+05  1.046293E+05  1.998889E+05 -2.979949E+04  1.379911E-09 -2.050238E-10
       118  18  4.846813E+05  1.002187E+05  1.557210E+05 -9.533389E+02 -1.562375E-09 -2.883301E-10
       118  19 -4.855934E+05  2.557659E+04  6.548970E+04  3.543208E+04 -1.213722E+05 -6.160223E+03
       118  20 -4.666986E+05 -1.344127E+05 -2.674953E+04  6.756846E+03 -8.334098E+04 -1.848416E+04
       118  21 -3.984147E+05 -1.175845E+05 -4.996078E+04 -4.686817E+04 -4.531760E+04 -1.789867E+04
       118  22  4.303575E+04  1.571056E+05  1.951026E+05 -2.405598E+04 -1.336402E+05 -6.159684E+03
       118  23  1.763892E+04 -1.488276E+04  8.658565E+04 -1.151345E+04 -8.721079E+04 -1.848348E+04
       118  24  4.304355E+04 -8.676651E+03  5.288808E+04 -2.391871E+04 -4.079273E+04 -1.789727E+04
       118  25  5.719276E+05  2.886274E+05  3.246975E+05 -8.359486E+04 -1.459185E+05 -6.156796E+03
       118  26  5.021935E+05  1.046319E+05  1.999051E+05 -2.979813E+04 -9.108357E+04 -1.848257E+04
       118  27  4.846828E+05  1.002194E+05  1.557241E+05 -9.528164E+02 -3.626466E+04 -1.789554E+04
       119   1 -3.630302E+05 -8.455917E+04 -4.988237E+04 -1.982233E+04  3.339649E+04  1.508365E+04
       119   2 -3.223109E+05 -8.840310E+04 -5.998870E+04 -1.038803E+04  2.252305E+04  1.385617E+04
       119   3 -2.762775E+05 -7.707112E+04 -5.919630E+04 -2.616492E+04  1.164825E+04  1.191845E+04
       119   4  3.296106E+04  1.318257E+04  4.277464E+04 -2.401767E+04  3.284810E+04  1.508256E+04
       119   5  3.026971E+04 -1.411361E+03  2.232763E+04 -1.141063E+04  2.150796E+04  1.385538E+04
       119   6  3.296851E+04 -7.533124E+02  1.309846E+04 -2.401369E+04  1.016723E+04  1.191803E+04
       119   7  4.290969E+05  1.109132E+05  1.354210E+05 -2.821573E+04  3.229935E+04  1.508147E+04
       119   8  3.829650E+05  8.557157E+04  1.046355E+05 -1.243382E+04  2.049230E+04  1.385459E+04
       119   9  3.423027E+05  7.555773E+04  8.538673E+04 -2.186138E+04  8.685472E+03  1.191759E+04
       119  10 -3.630315E+05 -8.455971E+04 -4.988490E+04 -1.982273E+04  6.364250E-10  4.144787E-11
       119  11 -3.223115E+05 -8.840344E+04 -5.999002E+04 -1.038829E+04 -5.773925E-11  3.715958E-10
       119  12 -2.762777E+05 -7.707131E+04 -5.919682E+04 -2.616503E+04  1.658743E-10 -7.483204E-10
       119  13  3.295984E+04  1.318204E+04  4.277219E+04 -2.401807E+04 -2.156216E-09  1.705665E-10
       119  14  3.026916E+04 -1.411691E+03  2.232640E+04 -1.141087E+04  2.156052E-09  2.801939E-10
       119  15  3.296836E+04 -7.534926E+02  1.309800E+04 -2.401378E+04  2.820821E-10 -8.271199E-10
       119  16  4.290958E+05  1.109127E+05  1.354186E+05 -2.821612E+04 -5.769518E-10  3.971509E-10
       119  17  3.829645E+05  8.557125E+04  1.046344E+05 -1.243404E+04 -1.409747E-09  1.347239E-10
       119  18  3.423026E+05  7.555756E+04  8.538633E+04 -2.186146E+04 -2.628983E-09 -8.512261E-10
       119  19 -3.630302E+05 -8.455917E+04 -4.988237E+04 -1.982233E+04 -3.339649E+04 -1.508365E+04
       119  20 -3.223109E+05 -8.840310E+04 -5.998870E+04 -1.038803E+04 -2.252305E+04 -1.385617E+04
       119  21 -2.762775E+05 -7.707112E+04 -5.919630E+04 -2.616492E+04 -1.164825E+04 -1.191845E+04
       119  22  3.296106E+04  1.318257E+04  4.277464E+04 -2.401767E+04 -3.284810E+04 -1.508256E+04
       119  23  3.026971E+04 -1.411361E+03  2.232763E+04 -1.141063E+04 -2.150796E+04 -1.385538E+04
       119  24  3.296851E+04 -7.533124E+02  1.309846E+04 -2.401369E+04 -1.016723E+04 -1.191803E+04
       119  25  4.290969E+05  1.109132E+05  1.354210E+05 -2.821573E+04 -3.229935E+04 -1.508147E+04
       119  26  3.829650E+05  8.557157E+04  1.046355E+05 -1.243382E+04 -2.049230E+04 -1.385459E+04
       119  27  3.423027E+05  7.555773E+04  8.538673E+04 -2.186138E+04 -8.685472E+03 -1.191759E+04
       120   1 -2.319748E+05 -6.402950E+04 -5.133667E+04 -2.384750E+04  9.381541E+03  1.065514E+04
       120   2 -1.889891E+05 -5.456778E+04 -4.583784E+04 -1.142006E+04  6.592952E+03  8.684601E+03
       120   3 -1.452846E+05 -4.380169E+04 -3.819087E+04 -2.421288E+04  3.803373E+03  6.675345E+03
       120   4  3.193744E+04  1.057655E+03  1.015393E+04 -2.401683E+04  8.119684E+03  1.065488E+04
       120   5  3.157951E+04 -1.530449E+02  5.645381E+03 -1.140705E+04  5.304867E+03  8.684560E+03
       120   6  3.194220E+04 -5.525199E+01  3.302344E+03 -2.401695E+04  2.489253E+03  6.675539E+03
       120   7  2.959139E+05  6.613989E+04  7.163982E+04 -2.418623E+04  6.857292E+03  1.065461E+04
       120   8  2.521930E+05  5.425824E+04  5.712531E+04 -1.139402E+04  4.016327E+03  8.684519E+03
       120   9  2.091980E+05  4.368896E+04  4.479343E+04 -2.382096E+04  1.174759E+03  6.675732E+03
       120  10 -2.319749E+05 -6.402965E+04 -5.133705E+04 -2.384758E+04 -1.200244E-09 -7.672919E-10
       120  11 -1.889892E+05 -5.456787E+04 -4.583806E+04 -1.142011E+04  2.336499E-09  2.322517E-10
       120  12 -1.452847E+05 -4.380174E+04 -3.819098E+04 -2.421291E+04 -2.279996E-09  6.577794E-10
       120  13  3.193734E+04  1.057515E+03  1.015359E+04 -2.401690E+04  1.433514E-14 -7.299449E-10
       120  14  3.157946E+04 -1.531334E+02  5.645187E+03 -1.140708E+04 -5.324177E-10  4.121164E-10
       120  15  3.194218E+04 -5.530151E+01  3.302249E+03 -2.401697E+04 -3.103170E-10  3.508994E-10
       120  16  2.959138E+05  6.613975E+04  7.163952E+04 -2.418629E+04  1.168320E-09 -7.181372E-10
       120  17  2.521930E+05  5.425816E+04  5.712513E+04 -1.139405E+04  1.152007E-09  7.072712E-10
       120  18  2.091980E+05  4.368891E+04  4.479334E+04 -2.382097E+04 -5.666421E-10  4.270211E-10
       120  19 -2.319748E+05 -6.402950E+04 -5.133667E+04 -2.384750E+04 -9.381541E+03 -1.065514E+04
       120  20 -1.889891E+05 -5.456778E+04 -4.583784E+04 -1.142006E+04 -6.592952E+03 -8.684601E+03
       120  21 -1.452846E+05 -4.380169E+04 -3.819087E+04 -2.421288E+04 -3.803373E+03 -6.675345E+03
       120  22  3.193744E+04  1.057655E+03  1.015393E+04 -2.401683E+04 -8.119684E+03 -1.065488E+04
       120  23  3.157951E+04 -1.530449E+02  5.645381E+03 -1.140705E+04 -5.304867E+03 -8.684560E+03
       120  24  3.194220E+04 -5.525199E+01  3.302344E+03 -2.401695E+04 -2.489253E+03 -6.675539E+03
       120  25  2.959139E+05  6.613989E+04  7.163982E+04 -2.418623E+04 -6.857292E+03 -1.065461E+04
       120  26  2.521930E+05  5.425824E+04  5.712531E+04 -1.139402E+04 -4.016327E+03 -8.684519E+03
       120  27  2.091980E+05  4.368896E+04  4.479343E+04 -2.382096E+04 -1.174759E+03 -6.675732E+03
       121   1 -1.001033E+05 -3.243255E+04 -2.811088E+04 -2.402314E+04  3.265179E+03  5.498519E+03
       121   2 -5.682702E+04 -2.186604E+04 -1.914520E+04 -1.141982E+04  2.508889E+03  3.487790E+03
       121   3 -1.343187E+04 -1.117432E+04 -9.658791E+03 -2.402727E+04  1.752239E+03  1.475141E+03
       121   4  3.181170E+04  8.363338E+01  2.549197E+03 -2.401487E+04  1.963100E+03  5.498813E+03
       121   5  3.175401E+04 -1.474992E+01  1.528684E+03 -1.140961E+04  1.205378E+03  3.488171E+03
       121   6  3.181361E+04  1.241967E+01  1.029877E+03 -2.401490E+04  4.473480E+02  1.475617E+03
       121   7  1.637428E+05  3.259859E+04  3.320811E+04 -2.400659E+04  6.607448E+02  5.499107E+03
       121   8  1.203423E+05  2.183599E+04  2.220204E+04 -1.139940E+04 -9.831846E+01  3.488552E+03
       121   9  7.706098E+04  1.119902E+04  1.171841E+04 -2.400252E+04 -8.576377E+02  1.476092E+03
       121  10 -1.001033E+05 -3.243258E+04 -2.811096E+04 -2.402316E+04 -1.236445E-09  3.732378E-10
       121  11 -5.682703E+04 -2.186606E+04 -1.914523E+04 -1.141983E+04  1.299165E-09  8.236952E-11
       121  12 -1.343188E+04 -1.117433E+04 -9.658801E+03 -2.402727E+04  6.964377E-10 -1.868785E-10
       121  13  3.181169E+04  8.359988E+01  2.549133E+03 -2.401488E+04 -1.080383E-11  2.663617E-10
       121  14  3.175400E+04 -1.476337E+01  1.528658E+03 -1.140961E+04 -5.327026E-10 -6.379055E-10
       121  15  3.181361E+04  1.241728E+01  1.029873E+03 -2.401490E+04  7.424814E-10 -8.157163E-10
       121  16  1.637428E+05  3.259855E+04  3.320805E+04 -2.400660E+04  2.211592E-10 -6.407630E-10
       121  17  1.203423E+05  2.183598E+04  2.220202E+04 -1.139939E+04 -5.970963E-11 -6.931274E-10
       121  18  7.706098E+04  1.119902E+04  1.171841E+04 -2.400252E+04 -1.521453E-09 -1.203248E-09
       121  19 -1.001033E+05 -3.243255E+04 -2.811088E+04 -2.402314E+04 -3.265179E+03 -5.498519E+03
       121  20 -5.682702E+04 -2.186604E+04 -1.914520E+04 -1.141982E+04 -2.508889E+03 -3.487790E+03
       121  21 -1.343187E+04 -1.117432E+04 -9.658791E+03 -2.402727E+04 -1.752239E+03 -1.475141E+03
       121  22  3.181170E+04  8.363338E+01  2.549197E+03 -2.401487E+04 -1.963100E+03 -5.498813E+03
       121  23  3.175401E+04 -1.474992E+01  1.528684E+03 -1.140961E+04 -1.205378E+03 -3.488171E+03
       121  24  3.181361E+04  1.241967E+01  1.029877E+03 -2.401490E+04 -4.473480E+02 -1.475617E+03
       121  25  1.637428E+05  3.259859E+04  3.320811E+04 -2.400659E+04 -6.607448E+02 -5.499107E+03
       121  26  1.203423E+05  2.183599E+04  2.220204E+04 -1.139940E+04  9.831846E+01 -3.488552E+03
       121  27  7.706098E+04  1.119902E+04  1.171841E+04 -2.400252E+04  8.576377E+02 -1.476092E+03
       122   1  3.186215E+04  5.867592E+01  1.049937E+03 -2.401997E+04  1.576561E+03  3.030875E+02
       122   2  7.517251E+04  1.070226E+04  1.098856E+04 -1.141877E+04  1.148823E+03 -1.709424E+03
       122   3  1.185367E+05  2.140798E+04  2.121660E+04 -2.402710E+04  7.212133E+02 -3.720145E+03
       122   4  3.179974E+04  1.744477E+01  9.062139E+02 -2.401469E+04  2.716726E+02  3.035783E+02
       122   5  3.177301E+04 -2.746789E+00  8.603556E+02 -1.140987E+04 -1.549215E+02 -1.708981E+03
       122   6  3.179881E+04  3.928243E+01  1.103383E+03 -2.401468E+04 -5.813577E+02 -3.719744E+03
       122   7  3.173733E+04 -2.378546E+01  7.624970E+02 -2.400941E+04 -1.033216E+03  3.040690E+02
       122   8 -1.162475E+04 -1.070789E+04 -9.267974E+03 -1.140097E+04 -1.458575E+03 -1.708539E+03
       122   9 -5.493211E+04 -2.132994E+04 -1.901033E+04 -2.400227E+04 -1.883748E+03 -3.719343E+03
       122  10  3.186215E+04  5.867515E+01  1.049932E+03 -2.401997E+04  1.149503E-10 -3.053620E-10
       122  11  7.517251E+04  1.070226E+04  1.098856E+04 -1.141877E+04  3.955339E-09  1.316335E-10
       122  12  1.185367E+05  2.140796E+04  2.121657E+04 -2.402709E+04  6.151115E-09  9.852855E-10
       122  13  3.179974E+04  1.744466E+01  9.062136E+02 -2.401469E+04 -9.700851E-12 -2.794195E-11
       122  14  3.177301E+04 -2.749931E+00  8.603501E+02 -1.140987E+04 -1.088276E-09  6.097118E-10
       122  15  3.179881E+04  3.926748E+01  1.103357E+03 -2.401468E+04 -8.541588E-10  6.097932E-10
       122  16  3.173733E+04 -2.378584E+01  7.624948E+02 -2.400941E+04 -9.709711E-11 -5.894797E-10
       122  17 -1.162475E+04 -1.070789E+04 -9.267984E+03 -1.140097E+04 -1.911041E-09  5.250101E-10
       122  18 -5.493211E+04 -2.132996E+04 -1.901037E+04 -2.400227E+04 -4.655116E-09  9.557670E-10
       122  19  3.186215E+04  5.867592E+01  1.049937E+03 -2.401997E+04 -1.576561E+03 -3.030875E+02
       122  20  7.517251E+04  1.070226E+04  1.098856E+04 -1.141877E+04 -1.148823E+03  1.709424E+03
       122  21  1.185367E+05  2.140798E+04  2.121660E+04 -2.402710E+04 -7.212133E+02  3.720145E+03
       122  22  3.179974E+04  1.744477E+01  9.062139E+02 -2.401469E+04 -2.716726E+02 -3.035783E+02
       122  23  3.177301E+04 -2.746789E+00  8.603556E+02 -1.140987E+04  1.549215E+02  1.708981E+03
       122  24  3.179881E+04  3.928243E+01  1.103383E+03 -2.401468E+04  5.813577E+02  3.719744E+03
       122  25  3.173733E+04 -2.378546E+01  7.624970E+02 -2.400941E+04  1.033216E+03 -3.040690E+02
       122  26 -1.162475E+04 -1.070789E+04 -9.267974E+03 -1.140097E+04  1.458575E+03  1.708539E+03
       122  27 -5.493211E+04 -2.132994E+04 -1.901033E+04 -2.400227E+04  1.883748E+03  3.719343E+03
       123   1  1.639007E+05  3.258607E+04  3.228131E+04 -2.396640E+04  5.124124E+02 -4.896296E+03
       123   2  2.071150E+05  4.320760E+04  4.306554E+04 -1.142574E+04 -5.750571E+02 -6.905275E+03
       123   3  2.506047E+05  5.431743E+04  5.468128E+04 -2.409647E+04 -1.662006E+03 -8.878477E+03
       123   4  3.184440E+04 -1.103584E+01  1.336634E+03 -2.401520E+04 -8.013646E+02 -4.895965E+03
       123   5  3.170797E+04 -5.531482E+01  2.133242E+03 -1.140925E+04 -1.865425E+03 -6.905133E+03
       123   6  3.184063E+04  3.846979E+02  3.745222E+03 -2.401512E+04 -2.928889E+03 -8.878512E+03
       123   7 -1.001958E+05 -3.260938E+04 -2.960923E+04 -2.406398E+04 -2.114864E+03 -4.895634E+03
       123   8 -1.436707E+05 -4.332041E+04 -3.880114E+04 -1.139275E+04 -3.155430E+03 -6.904991E+03
       123   9 -1.868793E+05 -5.355142E+04 -4.719406E+04 -2.393379E+04 -4.195329E+03 -8.878547E+03
       123  10  1.639007E+05  3.258604E+04  3.228126E+04 -2.396640E+04 -6.608977E-09  9.740654E-10
       123  11  2.071150E+05  4.320755E+04  4.306545E+04 -1.142574E+04 -3.768648E-09 -5.234909E-10
       123  12  2.506047E+05  5.431735E+04  5.468112E+04 -2.409648E+04 -2.638654E-09  3.666766E-11
       123  13  3.184440E+04 -1.106175E+01  1.336588E+03 -2.401520E+04 -1.066725E-09  4.442509E-10
       123  14  3.170795E+04 -5.536696E+01  2.133146E+03 -1.140926E+04 -2.675372E-09 -7.426296E-10
       123  15  3.184060E+04  3.846109E+02  3.745058E+03 -2.401514E+04  1.051005E-09 -3.757111E-10
       123  16 -1.001958E+05 -3.260941E+04 -2.960928E+04 -2.406399E+04  6.055569E-09  8.810362E-10
       123  17 -1.436707E+05 -4.332047E+04 -3.880124E+04 -1.139277E+04  3.953695E-09 -9.374295E-10
       123  18 -1.868794E+05 -5.355150E+04 -4.719424E+04 -2.393382E+04  1.413531E-09 -7.609757E-10
       123  19  1.639007E+05  3.258607E+04  3.228131E+04 -2.396640E+04 -5.124124E+02  4.896296E+03
       123  20  2.071150E+05  4.320760E+04  4.306554E+04 -1.142574E+04  5.750571E+02  6.905275E+03
       123  21  2.506047E+05  5.431743E+04  5.468128E+04 -2.409647E+04  1.662006E+03  8.878477E+03
       123  22  3.184440E+04 -1.103584E+01  1.336634E+03 -2.401520E+04  8.013646E+02  4.895965E+03
       123  23  3.170797E+04 -5.531482E+01  2.133242E+03 -1.140925E+04  1.865425E+03  6.905133E+03
       123  24  3.184063E+04  3.846979E+02  3.745222E+03 -2.401512E+04  2.928889E+03  8.878512E+03
       123  25 -1.001958E+05 -3.260938E+04 -2.960923E+04 -2.406398E+04  2.114864E+03  4.895634E+03
       123  26 -1.436707E+05 -4.332041E+04 -3.880114E+04 -1.139275E+04  3.155430E+03  6.904991E+03
       123  27 -1.868793E+05 -5.355142E+04 -4.719406E+04 -2.393379E+04  4.195329E+03  8.878547E+03
       124   1  2.963309E+05  6.488497E+04  6.654956E+04 -2.324876E+04 -2.214097E+03 -1.013337E+04
       124   2  3.386763E+05  7.530423E+04  7.991050E+04 -1.178468E+04 -6.782593E+03 -1.207361E+04
       124   3  3.830980E+05  9.135965E+04  9.766835E+04 -2.552665E+04 -1.135055E+04 -1.336038E+04
       124   4  3.222012E+04 -2.746883E+02  4.810022E+03 -2.401385E+04 -3.682700E+03 -1.013355E+04
       124   5  3.121585E+04 -5.252163E+02  8.155988E+03 -1.141084E+04 -7.825727E+03 -1.207411E+04
       124   6  3.221347E+04  4.788327E+03  1.560515E+04 -2.401457E+04 -1.196790E+04 -1.336105E+04
       124   7 -2.318264E+05 -6.543929E+04 -5.693425E+04 -2.477862E+04 -5.150683E+03 -1.013373E+04
       124   8 -2.761575E+05 -7.636135E+04 -6.360493E+04 -1.103719E+04 -8.868348E+03 -1.207460E+04
       124   9 -3.185576E+05 -8.179172E+04 -6.646641E+04 -2.250336E+04 -1.258490E+04 -1.336173E+04
       124  10  2.963309E+05  6.488486E+04  6.654936E+04 -2.324878E+04 -5.149111E-10  2.077423E-10
       124  11  3.386762E+05  7.530406E+04  7.991014E+04 -1.178475E+04  7.681387E-10 -9.721516E-11
       124  12  3.830978E+05  9.135942E+04  9.766777E+04 -2.552677E+04 -5.153095E-10 -4.693824E-10
       124  13  3.222008E+04 -2.748022E+02  4.809804E+03 -2.401388E+04  1.181191E-12  2.549203E-11
       124  14  3.121574E+04 -5.253893E+02  8.155599E+03 -1.141092E+04 -1.070447E-09  6.512545E-11
       124  15  3.221327E+04  4.788097E+03  1.560455E+04 -2.401470E+04  5.222499E-11 -2.195587E-10
       124  16 -2.318264E+05 -6.543940E+04 -5.693449E+04 -2.477866E+04 -1.122428E-11 -3.139817E-10
       124  17 -2.761576E+05 -7.636153E+04 -6.360535E+04 -1.103728E+04 -5.600027E-10  2.492426E-11
       124  18 -3.185579E+05 -8.179195E+04 -6.646705E+04 -2.250349E+04 -5.152487E-10  2.195947E-10
       124  19  2.963309E+05  6.488497E+04  6.654956E+04 -2.324876E+04  2.214097E+03  1.013337E+04
       124  20  3.386763E+05  7.530423E+04  7.991050E+04 -1.178468E+04  6.782593E+03  1.207361E+04
       124  21  3.830980E+05  9.135965E+04  9.766835E+04 -2.552665E+04  1.135055E+04  1.336038E+04
       124  22  3.222012E+04 -2.746883E+02  4.810022E+03 -2.401385E+04  3.682700E+03  1.013355E+04
       124  23  3.121585E+04 -5.252163E+02  8.155988E+03 -1.141084E+04  7.825727E+03  1.207411E+04
       124  24  3.221347E+04  4.788327E+03  1.560515E+04 -2.401457E+04  1.196790E+04  1.336105E+04
       124  25 -2.318264E+05 -6.543929E+04 -5.693425E+04 -2.477862E+04  5.150683E+03  1.013373E+04
       124  26 -2.761575E+05 -7.636135E+04 -6.360493E+04 -1.103719E+04  8.868348E+03  1.207460E+04
       124  27 -3.185576E+05 -8.179172E+04 -6.646641E+04 -2.250336E+04  1.258490E+04  1.336173E+04
       125   1  4.322935E+05  9.454302E+04  1.116002E+05 -1.552271E+04 -1.059307E+04 -1.603507E+04
       125   2  4.658742E+05  1.029158E+05  1.343033E+05 -1.809470E+04 -3.521617E+04 -1.671412E+04
       125   3  5.193955E+05  1.775868E+05  1.896375E+05 -4.555382E+04 -5.984921E+04 -5.531947E+03
       125   4  3.589723E+04 -3.182672E+03  1.929169E+04 -2.393266E+04 -1.486624E+04 -1.603697E+04
       125   5  2.658405E+04 -5.457077E+03  3.155974E+04 -1.150810E+04 -3.178820E+04 -1.671349E+04
       125   6  3.588762E+04  5.725495E+04  7.112679E+04 -2.397061E+04 -4.871819E+04 -5.526254E+03
       125   7 -3.603540E+05 -1.009192E+05 -7.302728E+04 -3.233721E+04 -1.913669E+04 -1.603875E+04
       125   8 -4.125282E+05 -1.138435E+05 -7.119684E+04 -4.926208E+03 -2.836263E+04 -1.671279E+04
       125   9 -4.474062E+05 -6.309240E+04 -4.740036E+04 -2.404278E+03 -3.759581E+04 -5.519786E+03
       125  10  4.322933E+05  9.454271E+04  1.115995E+05 -1.552284E+04  8.555265E-10 -7.746382E-11
       125  11  4.658728E+05  1.029151E+05  1.343004E+05 -1.809517E+04  2.848296E-09  8.788369E-10
       125  12  5.193917E+05  1.775858E+05  1.896307E+05 -4.555408E+04  1.015840E-09  7.762518E-10
       125  13  3.589693E+04 -3.183007E+03  1.929079E+04 -2.393285E+04 -2.166032E-09 -5.415776E-10
       125  14  2.658289E+04 -5.457648E+03  3.155732E+04 -1.150852E+04 -2.151801E-09  7.172135E-10
       125  15  3.588506E+04  5.725428E+04  7.112227E+04 -2.397083E+04  2.459417E-09 -1.336068E-11
       125  16 -3.603544E+05 -1.009196E+05 -7.302845E+04 -3.233746E+04  6.684446E-10  2.017509E-10
       125  17 -4.125291E+05 -1.138440E+05 -7.119887E+04 -4.926590E+03 -1.281642E-09  6.237467E-11
       125  18 -4.474077E+05 -6.309282E+04 -4.740308E+04 -2.404445E+03 -3.203960E-10  7.415402E-10
       125  19  4.322935E+05  9.454302E+04  1.116002E+05 -1.552271E+04  1.059307E+04  1.603507E+04
       125  20  4.658742E+05  1.029158E+05  1.343033E+05 -1.809470E+04  3.521617E+04  1.671412E+04
       125  21  5.193955E+05  1.775868E+05  1.896375E+05 -4.555382E+04  5.984921E+04  5.531947E+03
       125  22  3.589723E+04 -3.182672E+03  1.929169E+04 -2.393266E+04  1.486624E+04  1.603697E+04
       125  23  2.658405E+04 -5.457077E+03  3.155974E+04 -1.150810E+04  3.178820E+04  1.671349E+04
       125  24  3.588762E+04  5.725495E+04  7.112679E+04 -2.397061E+04  4.871819E+04  5.526254E+03
       125  25 -3.603540E+05 -1.009192E+05 -7.302728E+04 -3.233721E+04  1.913669E+04  1.603875E+04
       125  26 -4.125282E+05 -1.138435E+05 -7.119684E+04 -4.926208E+03  2.836263E+04  1.671279E+04
       125  27 -4.474062E+05 -6.309240E+04 -4.740036E+04 -2.404278E+03  3.759581E+04  5.519786E+03
       126   1  5.222874E+05  1.218169E+06  5.175810E+05 -2.572421E+05  2.112730E+04  5.433458E+04
       126   2  3.896321E+05  7.569642E+05  3.769044E+05 -1.224668E+05  5.964805E+04  1.639890E+04
       126   3  2.794945E+05  3.068783E+05  2.666142E+05 -2.504625E+05  4.482651E+04 -2.161681E+04
       126   4  1.358713E+04 -8.243527E+05  1.606127E+04 -2.496264E+05  2.120573E+04  1.205533E+04
       126   5 -1.238194E+03 -8.266516E+05  6.192822E+03 -1.182343E+05  5.967661E+04  8.760329E+03
       126   6  4.884148E+02 -8.240037E+05  2.709556E+03 -2.496520E+05  4.474519E+04  5.357383E+03
       126   7 -4.954219E+05 -2.863075E+06 -4.857587E+05 -2.420335E+05  2.128328E+04 -3.008532E+04
       126   8 -3.922867E+05 -2.407956E+06 -3.646896E+05 -1.140112E+05  5.970510E+04  1.141080E+03
       126   9 -2.786079E+05 -1.953704E+06 -2.612791E+05 -2.488418E+05  4.466386E+04  3.228277E+04
       126  10  5.222861E+05  1.218166E+06  5.175747E+05 -2.572430E+05 -1.205183E-09  4.990346E-10
       126  11  3.896282E+05  7.569629E+05  3.768972E+05 -1.224676E+05 -1.277907E-09 -3.299116E-09
       126  12  2.794922E+05  3.068772E+05  2.666095E+05 -2.504617E+05  8.053496E-11 -2.456445E-09
       126  13  1.358661E+04 -8.243530E+05  1.606015E+04 -2.496266E+05 -2.292177E-10 -5.436134E-11
       126  14 -1.242037E+03 -8.266526E+05  6.185987E+03 -1.182347E+05  1.471496E-10  1.344193E-09
       126  15  4.862578E+02 -8.240042E+05  2.705740E+03 -2.496522E+05 -1.156486E-09  3.333880E-10
       126  16 -4.954227E+05 -2.863076E+06 -4.857612E+05 -2.420330E+05  1.017540E-09  1.992577E-10
       126  17 -3.922905E+05 -2.407957E+06 -3.646963E+05 -1.140112E+05 -2.733613E-10 -1.909104E-10
       126  18 -2.786103E+05 -1.953706E+06 -2.612848E+05 -2.488430E+05 -1.589536E-09  1.847883E-09
       126  19  5.222874E+05  1.218169E+06  5.175810E+05 -2.572421E+05 -2.112730E+04 -5.433458E+04
       126  20  3.896321E+05  7.569642E+05  3.769044E+05 -1.224668E+05 -5.964805E+04 -1.639890E+04
       126  21  2.794945E+05  3.068783E+05  2.666142E+05 -2.504625E+05 -4.482651E+04  2.161681E+04
       126  22  1.358713E+04 -8.243527E+05  1.606127E+04 -2.496264E+05 -2.120573E+04 -1.205533E+04
       126  23 -1.238194E+03 -8.266516E+05  6.192822E+03 -1.182343E+05 -5.967661E+04 -8.760329E+03
       126  24  4.884148E+02 -8.240037E+05  2.709556E+03 -2.496520E+05 -4.474519E+04 -5.357383E+03
       126  25 -4.954219E+05 -2.863075E+06 -4.857587E+05 -2.420335E+05 -2.128328E+04  3.008532E+04
       126  26 -3.922867E+05 -2.407956E+06 -3.646896E+05 -1.140112E+05 -5.970510E+04 -1.141080E+03
       126  27 -2.786079E+05 -1.953704E+06 -2.612791E+05 -2.488418E+05 -4.466386E+04 -3.228277E+04
       127   1  1.637645E+05 -1.729203E+05  1.536619E+05 -2.517800E+05  2.536167E+04 -6.305099E+03
       127   2  4.923888E+04 -6.287447E+05  4.328096E+04 -1.182280E+05  7.698788E+03 -5.467051E+03
       127   3 -6.548330E+04 -1.086582E+06 -6.817583E+04 -2.503272E+05 -1.047614E+04 -4.637715E+03
       127   4  2.694821E+03 -8.253868E+05  1.148814E+03 -2.502708E+05  2.532440E+04  4.965807E+03
       127   5  9.706020E+02 -8.242353E+05 -2.391793E+03 -1.174492E+05  7.658896E+03  6.132421E+03
       127   6 -9.925350E+02 -8.253454E+05 -7.223319E+03 -2.502837E+05 -1.051940E+04  7.290955E+03
       127   7 -1.584050E+05 -1.477460E+06 -1.513928E+05 -2.487628E+05  2.528716E+04  1.622494E+04
       127   8 -4.730032E+04 -1.019690E+06 -4.806664E+04 -1.166706E+05  7.619027E+03  1.772826E+04
       127   9  6.349346E+04 -5.640451E+05  5.372509E+04 -2.502400E+05 -1.056266E+04  1.922462E+04
       127  10  1.637638E+05 -1.729205E+05  1.536606E+05 -2.517799E+05  3.960331E-10  2.679643E-09
       127  11  4.923881E+04 -6.287447E+05  4.328079E+04 -1.182280E+05 -1.437187E-09 -3.139074E-09
       127  12 -6.548342E+04 -1.086582E+06 -6.817607E+04 -2.503273E+05  7.336865E-10 -2.536349E-09
       127  13  2.694126E+03 -8.253870E+05  1.147562E+03 -2.502709E+05  2.422461E-10  1.326757E-10
       127  14  9.705289E+02 -8.242354E+05 -2.391974E+03 -1.174493E+05 -1.060598E-10  1.868178E-09
       127  15 -9.926680E+02 -8.253455E+05 -7.223627E+03 -2.502836E+05 -4.966457E-10  4.606159E-10
       127  16 -1.584058E+05 -1.477461E+06 -1.513944E+05 -2.487631E+05  1.840839E-10 -1.095548E-09
       127  17 -4.730046E+04 -1.019691E+06 -4.806734E+04 -1.166707E+05  1.074046E-09 -1.823044E-09
       127  18  6.349325E+04 -5.640455E+05  5.372419E+04 -2.502398E+05 -1.295910E-09  2.034273E-09
       127  19  1.637645E+05 -1.729203E+05  1.536619E+05 -2.517800E+05 -2.536167E+04  6.305099E+03
       127  20  4.923888E+04 -6.287447E+05  4.328096E+04 -1.182280E+05 -7.698788E+03  5.467051E+03
       127  21 -6.548330E+04 -1.086582E+06 -6.817583E+04 -2.503272E+05  1.047614E+04  4.637715E+03
       127  22  2.694821E+03 -8.253868E+05  1.148814E+03 -2.502708E+05 -2.532440E+04 -4.965807E+03
       127  23  9.706020E+02 -8.242353E+05 -2.391793E+03 -1.174492E+05 -7.658896E+03 -6.132421E+03
       127  24 -9.925350E+02 -8.253454E+05 -7.223319E+03 -2.502837E+05  1.051940E+04 -7.290955E+03
       127  25 -1.584050E+05 -1.477460E+06 -1.513928E+05 -2.487628E+05 -2.528716E+04 -1.622494E+04
       127  26 -4.730032E+04 -1.019690E+06 -4.806664E+04 -1.166706E+05 -7.619027E+03 -1.772826E+04
       127  27  6.349346E+04 -5.640451E+05  5.372509E+04 -2.502400E+05  1.056266E+04 -1.922462E+04
       128   1 -1.793074E+05 -1.566581E+06 -1.823596E+05 -2.434390E+05 -2.878435E+04 -1.608243E+04
       128   2 -2.915982E+05 -2.014832E+06 -2.963756E+05 -1.191666E+05 -4.488208E+04  2.142682E+04
       128   3 -4.418367E+05 -2.477980E+06 -4.445548E+05 -2.586252E+05 -1.668473E+04  5.902354E+04
       128   4  3.403257E+03 -8.272024E+05 -9.419959E+03 -2.498184E+05 -2.886854E+04  8.574157E+03
       128   5  3.223765E+03 -8.223027E+05 -1.666439E+04 -1.180069E+05 -4.486479E+04  1.746668E+04
       128   6 -2.987094E+04 -8.274846E+05 -3.812609E+04 -2.499010E+05 -1.660282E+04  2.647506E+04
       128   7  1.860755E+05 -8.731743E+04  1.634848E+05 -2.562050E+05 -2.895318E+04  3.325997E+04
       128   8  2.979444E+05  3.715404E+05  2.629496E+05 -1.168440E+05 -4.484754E+04  1.349892E+04
       128   9  3.818926E+05  8.255002E+05  3.681054E+05 -2.411515E+05 -1.652195E+04 -6.160164E+03
       128  10 -1.793083E+05 -1.566582E+06 -1.823617E+05 -2.434394E+05 -6.663874E-10  1.483711E-09
       128  11 -2.916004E+05 -2.014833E+06 -2.963802E+05 -1.191658E+05 -2.932442E-10 -3.032428E-09
       128  12 -4.418379E+05 -2.477984E+06 -4.445618E+05 -2.586244E+05 -9.543326E-10 -1.018467E-09
       128  13  3.402343E+03 -8.272027E+05 -9.421662E+03 -2.498182E+05 -3.944197E-10  8.259459E-11
       128  14  3.221522E+03 -8.223036E+05 -1.666874E+04 -1.180063E+05  8.537967E-10  1.502521E-09
       128  15 -2.987142E+04 -8.274854E+05 -3.812793E+04 -2.499006E+05  3.281166E-10  7.292613E-11
       128  16  1.860743E+05 -8.731884E+04  1.634811E+05 -2.562042E+05 -3.583303E-10  2.513143E-10
       128  17  2.979422E+05  3.715397E+05  2.629454E+05 -1.168435E+05 -1.146752E-09 -1.162722E-09
       128  18  3.818923E+05  8.255001E+05  3.681048E+05 -2.411516E+05  7.539176E-10  3.308717E-10
       128  19 -1.793074E+05 -1.566581E+06 -1.823596E+05 -2.434390E+05  2.878435E+04  1.608243E+04
       128  20 -2.915982E+05 -2.014832E+06 -2.963756E+05 -1.191666E+05  4.488208E+04 -2.142682E+04
       128  21 -4.418367E+05 -2.477980E+06 -4.445548E+05 -2.586252E+05  1.668473E+04 -5.902354E+04
       128  22  3.403257E+03 -8.272024E+05 -9.419959E+03 -2.498184E+05  2.886854E+04 -8.574157E+03
       128  23  3.223765E+03 -8.223027E+05 -1.666439E+04 -1.180069E+05  4.486479E+04 -1.746668E+04
       128  24 -2.987094E+04 -8.274846E+05 -3.812609E+04 -2.499010E+05  1.660282E+04 -2.647506E+04
       128  25  1.860755E+05 -8.731743E+04  1.634848E+05 -2.562050E+05  2.895318E+04 -3.325997E+04
       128  26  2.979444E+05  3.715404E+05  2.629496E+05 -1.168440E+05  4.484754E+04 -1.349892E+04
       128  27  3.818926E+05  8.255002E+05  3.681054E+05 -2.411515E+05  1.652195E+04  6.160164E+03
       129   1 -1.979075E+06 -5.621622E+05 -2.991128E+05 -7.200366E+05 -1.343487E+05 -4.519035E+04
       129   2 -1.936003E+06 -3.604903E+05 -1.735584E+05 -7.231531E+05 -8.709343E+04 -1.656767E+04
       129   3 -1.949215E+06 -3.406214E+05 -1.319535E+05 -6.986239E+05 -3.602556E+04  1.926645E+03
       129   4 -1.631915E+06 -3.794649E+05 -1.949580E+05 -5.724690E+05 -1.255763E+05 -4.190524E+04
       129   5 -1.594051E+06 -2.164837E+05 -8.231466E+04 -6.135963E+05 -8.442905E+04 -1.556949E+04
       129   6 -1.611223E+06 -2.340410E+05 -4.873528E+04 -6.270894E+05 -3.947113E+04  6.329929E+02
       129   7 -1.284631E+06 -1.967223E+05 -9.081471E+04 -4.248158E+05 -1.167985E+05 -3.861626E+04
       129   8 -1.251985E+06 -7.246081E+04  8.918930E+03 -5.039817E+05 -8.176306E+04 -1.457053E+04
       129   9 -1.273119E+06 -1.274603E+05  3.447495E+04 -5.555229E+05 -4.291877E+04 -6.611534E+02
       129  10 -1.979095E+06 -5.621692E+05 -2.991507E+05 -7.200415E+05 -6.156137E-10 -1.115930E-10
       129  11 -1.936011E+06 -3.604927E+05 -1.735733E+05 -7.231542E+05 -2.127574E-09 -2.349895E-10
       129  12 -1.949216E+06 -3.406218E+05 -1.319560E+05 -6.986238E+05 -2.312309E-09 -3.750445E-10
       129  13 -1.631932E+06 -3.794710E+05 -1.949910E+05 -5.724733E+05  2.688522E-10  2.352561E-10
       129  14 -1.594059E+06 -2.164858E+05 -8.232855E+04 -6.135974E+05 -3.265370E-09 -1.442695E-09
       129  15 -1.611225E+06 -2.340414E+05 -4.873822E+04 -6.270893E+05 -2.780387E-09 -1.043691E-09
       129  16 -1.284646E+06 -1.967276E+05 -9.084321E+04 -4.248194E+05 -1.301202E-09 -3.329302E-10
       129  17 -1.251992E+06 -7.246284E+04  8.905939E+03 -5.039827E+05  9.048816E-10 -8.645855E-10
       129  18 -1.273121E+06 -1.274608E+05  3.447148E+04 -5.555229E+05 -2.723671E-10 -1.223581E-09
       129  19 -1.979075E+06 -5.621622E+05 -2.991128E+05 -7.200366E+05  1.343487E+05  4.519035E+04
       129  20 -1.936003E+06 -3.604903E+05 -1.735584E+05 -7.231531E+05  8.709343E+04  1.656767E+04
       129  21 -1.949215E+06 -3.406214E+05 -1.319535E+05 -6.986239E+05  3.602556E+04 -1.926645E+03
       129  22 -1.631915E+06 -3.794649E+05 -1.949580E+05 -5.724690E+05  1.255763E+05  4.190524E+04
       129  23 -1.594051E+06 -2.164837E+05 -8.231466E+04 -6.135963E+05  8.442905E+04  1.556949E+04
       129  24 -1.611223E+06 -2.340410E+05 -4.873528E+04 -6.270894E+05  3.947113E+04 -6.329929E+02
       129  25 -1.284631E+06 -1.967223E+05 -9.081471E+04 -4.248158E+05  1.167985E+05  3.861626E+04
       129  26 -1.251985E+06 -7.246081E+04  8.918930E+03 -5.039817E+05  8.176306E+04  1.457053E+04
       129  27 -1.273119E+06 -1.274603E+05  3.447495E+04 -5.555229E+05  4.291877E+04  6.611534E+02
       130   1 -1.889886E+06 -3.639845E+05 -1.138366E+05 -6.985618E+05 -3.159788E+04  1.052092E+03
       130   2 -1.862622E+06 -3.281009E+05 -8.534785E+04 -6.831488E+05 -2.089846E+04  4.029620E+03
       130   3 -1.827827E+06 -3.221816E+05 -6.874768E+04 -6.807548E+05 -9.961314E+03  6.373579E+03
       130   4 -1.604715E+06 -2.528792E+05 -3.933463E+04 -6.164691E+05 -3.196705E+04  9.127729E+02
       130   5 -1.607584E+06 -2.313830E+05 -1.937276E+04 -6.124154E+05 -2.164652E+04  3.748405E+03
       130   6 -1.602845E+06 -2.397710E+05 -1.099403E+04 -6.213810E+05 -1.108887E+04  5.950263E+03
       130   7 -1.319465E+06 -1.417671E+05  3.516039E+04 -5.343415E+05 -3.233641E+04  7.733795E+02
       130   8 -1.352483E+06 -1.346609E+05  4.659678E+04 -5.416556E+05 -2.239491E+04  3.467062E+03
       130   9 -1.377815E+06 -1.573582E+05  4.675526E+04 -5.619881E+05 -1.221687E+04  5.526791E+03
       130  10 -1.889887E+06 -3.639848E+05 -1.138384E+05 -6.985617E+05 -1.403221E-09 -2.205981E-10
       130  11 -1.862623E+06 -3.281011E+05 -8.534870E+04 -6.831487E+05 -3.821966E-10  4.141017E-10
       130  12 -1.827827E+06 -3.221816E+05 -6.874794E+04 -6.807547E+05 -4.526642E-10  6.426663E-11
       130  13 -1.604716E+06 -2.528795E+05 -3.933655E+04 -6.164690E+05 -9.194526E-10 -4.819908E-10
       130  14 -1.607585E+06 -2.313832E+05 -1.937367E+04 -6.124153E+05  1.911930E-09  7.576437E-11
       130  15 -1.602845E+06 -2.397711E+05 -1.099432E+04 -6.213809E+05 -1.731183E-09  2.214646E-10
       130  16 -1.319466E+06 -1.417674E+05  3.515842E+04 -5.343415E+05 -8.375837E-10 -4.906796E-10
       130  17 -1.352484E+06 -1.346610E+05  4.659581E+04 -5.416556E+05 -1.452417E-10  1.210876E-10
       130  18 -1.377815E+06 -1.573583E+05  4.675492E+04 -5.619881E+05 -2.002183E-10  5.011370E-10
       130  19 -1.889886E+06 -3.639845E+05 -1.138366E+05 -6.985618E+05  3.159788E+04 -1.052092E+03
       130  20 -1.862622E+06 -3.281009E+05 -8.534785E+04 -6.831488E+05  2.089846E+04 -4.029620E+03
       130  21 -1.827827E+06 -3.221816E+05 -6.874768E+04 -6.807548E+05  9.961314E+03 -6.373579E+03
       130  22 -1.604715E+06 -2.528792E+05 -3.933463E+04 -6.164691E+05  3.196705E+04 -9.127729E+02
       130  23 -1.607584E+06 -2.313830E+05 -1.937276E+04 -6.124154E+05  2.164652E+04 -3.748405E+03
       130  24 -1.602845E+06 -2.397710E+05 -1.099403E+04 -6.213810E+05  1.108887E+04 -5.950263E+03
       130  25 -1.319465E+06 -1.417671E+05  3.516039E+04 -5.343415E+05  3.233641E+04 -7.733795E+02
       130  26 -1.352483E+06 -1.346609E+05  4.659678E+04 -5.416556E+05  2.239491E+04 -3.467062E+03
       130  27 -1.377815E+06 -1.573582E+05  4.675526E+04 -5.619881E+05  1.221687E+04 -5.526791E+03
       131   1 -1.788653E+06 -3.117146E+05 -5.657163E+04 -6.716869E+05 -8.191059E+03  5.871133E+03
       131   2 -1.762381E+06 -2.901548E+05 -4.406648E+04 -6.540364E+05 -5.271265E+03  5.145076E+03
       131   3 -1.721791E+06 -2.851333E+05 -3.366375E+04 -6.534364E+05 -2.332157E+03  4.366525E+03
       131   4 -1.602017E+06 -2.415267E+05 -8.508240E+03 -6.205033E+05 -9.142820E+03  5.513890E+03
       131   5 -1.609094E+06 -2.326795E+05 -4.541604E+03 -6.121947E+05 -6.254116E+03  4.776327E+03
       131   6 -1.601847E+06 -2.403641E+05 -2.652286E+03 -6.209369E+05 -3.346243E+03  3.986227E+03
       131   7 -1.415346E+06 -1.713363E+05  3.955246E+04 -5.693055E+05 -1.009490E+04  5.156528E+03
       131   8 -1.455783E+06 -1.752026E+05  3.498141E+04 -5.703435E+05 -7.237235E+03  4.407477E+03
       131   9 -1.481890E+06 -1.955940E+05  2.835799E+04 -5.884317E+05 -4.360544E+03  3.605849E+03
       131  10 -1.788653E+06 -3.117147E+05 -5.657182E+04 -6.716869E+05 -7.809636E-11 -1.147721E-10
       131  11 -1.762381E+06 -2.901549E+05 -4.406658E+04 -6.540364E+05  1.375144E-09  2.675487E-10
       131  12 -1.721791E+06 -2.851333E+05 -3.366379E+04 -6.534364E+05  2.998259E-10  2.704356E-11
       131  13 -1.602017E+06 -2.415268E+05 -8.508455E+03 -6.205033E+05 -1.512395E-10  1.075020E-10
       131  14 -1.609094E+06 -2.326796E+05 -4.541720E+03 -6.121947E+05  2.039145E-09 -1.037487E-10
       131  15 -1.601847E+06 -2.403641E+05 -2.652337E+03 -6.209368E+05 -8.509219E-10  1.573301E-11
       131  16 -1.415346E+06 -1.713364E+05  3.955222E+04 -5.693055E+05  1.508258E-10  2.786108E-10
       131  17 -1.455784E+06 -1.752026E+05  3.498127E+04 -5.703435E+05  1.673470E-09 -1.525501E-10
       131  18 -1.481890E+06 -1.955941E+05  2.835793E+04 -5.884317E+05  2.517007E-09  1.338394E-10
       131  19 -1.788653E+06 -3.117146E+05 -5.657163E+04 -6.716869E+05  8.191059E+03 -5.871133E+03
       131  20 -1.762381E+06 -2.901548E+05 -4.406648E+04 -6.540364E+05  5.271265E+03 -5.145076E+03
       131  21 -1.721791E+06 -2.851333E+05 -3.366375E+04 -6.534364E+05  2.332157E+03 -4.366525E+03
       131  22 -1.602017E+06 -2.415267E+05 -8.508240E+03 -6.205033E+05  9.142820E+03 -5.513890E+03
       131  23 -1.609094E+06 -2.326795E+05 -4.541604E+03 -6.121947E+05  6.254116E+03 -4.776327E+03
       131  24 -1.601847E+06 -2.403641E+05 -2.652286E+03 -6.209369E+05  3.346243E+03 -3.986227E+03
       131  25 -1.415346E+06 -1.713363E+05  3.955246E+04 -5.693055E+05  1.009490E+04 -5.156528E+03
       131  26 -1.455783E+06 -1.752026E+05  3.498141E+04 -5.703435E+05  7.237235E+03 -4.407477E+03
       131  27 -1.481890E+06 -1.955940E+05  2.835799E+04 -5.884317E+05  4.360544E+03 -3.605849E+03
       132   1 -1.683762E+06 -2.712859E+05 -2.314522E+04 -6.432984E+05 -1.582392E+03  3.536996E+03
       132   2 -1.657261E+06 -2.507049E+05 -1.381313E+04 -6.251829E+05 -2.260819E+02  2.142438E+03
       132   3 -1.615522E+06 -2.456661E+05 -5.064487E+03 -6.246949E+05  1.132914E+03  7.403078E+02
       132   4 -1.601701E+06 -2.405578E+05 -2.115243E+03 -6.209090E+05 -2.590216E+03  3.159118E+03
       132   5 -1.609312E+06 -2.327435E+05 -1.453613E+03 -6.121112E+05 -1.238417E+03  1.762919E+03
       132   6 -1.601687E+06 -2.404706E+05 -1.371792E+03 -6.209412E+05  1.160195E+02  3.591389E+02
       132   7 -1.519632E+06 -2.098292E+05  1.891415E+04 -5.985170E+05 -3.598184E+03  2.781185E+03
       132   8 -1.561362E+06 -2.147821E+05  1.090567E+04 -5.990387E+05 -2.250834E+03  1.383370E+03
       132   9 -1.587852E+06 -2.352752E+05  2.320866E+03 -6.171875E+05 -9.008936E+02 -2.203683E+01
       132  10 -1.683762E+06 -2.712859E+05 -2.314524E+04 -6.432984E+05  5.169546E-10 -6.890178E-11
       132  11 -1.657261E+06 -2.507049E+05 -1.381314E+04 -6.251829E+05 -1.389714E-09 -1.005519E-09
       132  12 -1.615522E+06 -2.456661E+05 -5.064491E+03 -6.246949E+05 -3.166282E-09  6.477756E-12
       132  13 -1.601701E+06 -2.405578E+05 -2.115274E+03 -6.209090E+05 -3.010235E-10 -8.611148E-10
       132  14 -1.609312E+06 -2.327435E+05 -1.453622E+03 -6.121112E+05 -2.672973E-09 -8.643801E-10
       132  15 -1.601687E+06 -2.404706E+05 -1.371792E+03 -6.209412E+05 -2.573663E-09  4.431937E-10
       132  16 -1.519632E+06 -2.098292E+05  1.891411E+04 -5.985170E+05 -1.604679E-09 -7.555862E-10
       132  17 -1.561362E+06 -2.147821E+05  1.090565E+04 -5.990386E+05 -4.233726E-09 -1.185293E-09
       132  18 -1.587852E+06 -2.352752E+05  2.320864E+03 -6.171875E+05  7.369260E-10  8.045241E-10
       132  19 -1.683762E+06 -2.712859E+05 -2.314522E+04 -6.432984E+05  1.582392E+03 -3.536996E+03
       132  20 -1.657261E+06 -2.507049E+05 -1.381313E+04 -6.251829E+05  2.260819E+02 -2.142438E+03
       132  21 -1.615522E+06 -2.456661E+05 -5.064487E+03 -6.246949E+05 -1.132914E+03 -7.403078E+02
       132  22 -1.601701E+06 -2.405578E+05 -2.115243E+03 -6.209090E+05  2.590216E+03 -3.159118E+03
       132  23 -1.609312E+06 -2.327435E+05 -1.453613E+03 -6.121112E+05  1.238417E+03 -1.762919E+03
       132  24 -1.601687E+06 -2.404706E+05 -1.371792E+03 -6.209412E+05 -1.160195E+02 -3.591389E+02
       132  25 -1.519632E+06 -2.098292E+05  1.891415E+04 -5.985170E+05  3.598184E+03 -2.781185E+03
       132  26 -1.561362E+06 -2.147821E+05  1.090567E+04 -5.990387E+05  2.250834E+03 -1.383370E+03
       132  27 -1.587852E+06 -2.352752E+05  2.320866E+03 -6.171875E+05  9.008936E+02  2.203683E+01
       133   1 -1.577413E+06 -2.313768E+05  4.879748E+03 -6.143735E+05  1.736936E+03 -1.488682E+02
       133   2 -1.550922E+06 -2.108902E+05  1.284825E+04 -5.962239E+05  3.454807E+03 -1.414961E+03
       133   3 -1.509296E+06 -2.060400E+05  1.993736E+04 -5.956717E+05  5.169586E+03 -2.672026E+03
       133   4 -1.601706E+06 -2.404592E+05 -1.502778E+03 -6.209469E+05  7.202713E+02 -5.299547E+02
       133   5 -1.609286E+06 -2.327316E+05 -2.191118E+03 -6.121142E+05  2.443456E+03 -1.794128E+03
       133   6 -1.601733E+06 -2.406416E+05 -3.762901E+03 -6.208794E+05  4.163479E+03 -3.049290E+03
       133   7 -1.625998E+06 -2.495416E+05 -7.885402E+03 -6.275202E+05 -2.963573E+02 -9.110279E+02
       133   8 -1.667648E+06 -2.545730E+05 -1.723086E+04 -6.280032E+05  1.432204E+03 -2.173257E+03
       133   9 -1.694163E+06 -2.752428E+05 -2.746397E+04 -6.460838E+05  3.157533E+03 -3.426495E+03
       133  10 -1.577413E+06 -2.313768E+05  4.879742E+03 -6.143735E+05  1.014532E-09  1.357019E-09
       133  11 -1.550922E+06 -2.108902E+05  1.284822E+04 -5.962239E+05 -2.966743E-09 -1.533376E-09
       133  12 -1.509296E+06 -2.060400E+05  1.993729E+04 -5.956716E+05 -6.995649E-10 -7.494052E-10
       133  13 -1.601706E+06 -2.404592E+05 -1.502779E+03 -6.209469E+05 -1.314572E-09  4.538215E-10
       133  14 -1.609286E+06 -2.327316E+05 -2.191135E+03 -6.121142E+05 -5.267606E-10 -4.264659E-10
       133  15 -1.601733E+06 -2.406416E+05 -3.762951E+03 -6.208793E+05  1.571922E-09  5.834232E-11
       133  16 -1.625998E+06 -2.495416E+05 -7.885403E+03 -6.275202E+05 -9.045948E-11 -6.795372E-11
       133  17 -1.667648E+06 -2.545730E+05 -1.723087E+04 -6.280032E+05  4.908952E-10  9.476555E-10
       133  18 -1.694163E+06 -2.752428E+05 -2.746401E+04 -6.460837E+05  1.784654E-09  1.308648E-09
       133  19 -1.577413E+06 -2.313768E+05  4.879748E+03 -6.143735E+05 -1.736936E+03  1.488682E+02
       133  20 -1.550922E+06 -2.108902E+05  1.284825E+04 -5.962239E+05 -3.454807E+03  1.414961E+03
       133  21 -1.509296E+06 -2.060400E+05  1.993736E+04 -5.956717E+05 -5.169586E+03  2.672026E+03
       133  22 -1.601706E+06 -2.404592E+05 -1.502778E+03 -6.209469E+05 -7.202713E+02  5.299547E+02
       133  23 -1.609286E+06 -2.327316E+05 -2.191118E+03 -6.121142E+05 -2.443456E+03  1.794128E+03
       133  24 -1.601733E+06 -2.406416E+05 -3.762901E+03 -6.208794E+05 -4.163479E+03  3.049290E+03
       133  25 -1.625998E+06 -2.495416E+05 -7.885402E+03 -6.275202E+05  2.963573E+02  9.110279E+02
       133  26 -1.667648E+06 -2.545730E+05 -1.723086E+04 -6.280032E+05 -1.432204E+03  2.173257E+03
       133  27 -1.694163E+06 -2.752428E+05 -2.746397E+04 -6.460838E+05 -3.157533E+03  3.426495E+03
       134   1 -1.471608E+06 -1.918396E+05  2.876127E+04 -5.858508E+05  6.250127E+03 -3.375146E+03
       134   2 -1.445419E+06 -1.712267E+05  3.346194E+04 -5.675599E+05  1.121490E+04 -3.388543E+03
       134   3 -1.405704E+06 -1.684286E+05  3.419883E+04 -5.660185E+05  1.616005E+04 -3.347134E+03
       134   4 -1.601981E+06 -2.403171E+05 -4.896739E+03 -6.209958E+05  5.237617E+03 -3.754887E+03
       134   5 -1.608902E+06 -2.325297E+05 -8.685686E+03 -6.122011E+05  1.023427E+04 -3.756505E+03
       134   6 -1.602306E+06 -2.425643E+05 -1.646467E+04 -6.201565E+05  1.521105E+04 -3.703403E+03
       134   7 -1.732336E+06 -2.887933E+05 -3.855592E+04 -6.561340E+05  4.225347E+03 -4.134539E+03
       134   8 -1.772358E+06 -2.938309E+05 -5.083542E+04 -6.568315E+05  9.253920E+03 -4.124359E+03
       134   9 -1.798870E+06 -3.166976E+05 -6.713149E+04 -6.742791E+05  1.426238E+04 -4.059547E+03
       134  10 -1.471608E+06 -1.918396E+05  2.876117E+04 -5.858508E+05  1.199934E-09  8.455797E-10
       134  11 -1.445419E+06 -1.712268E+05  3.346168E+04 -5.675599E+05 -6.536513E-10 -5.914992E-10
       134  12 -1.405704E+06 -1.684286E+05  3.419832E+04 -5.660185E+05 -2.622153E-09 -1.543470E-10
       134  13 -1.601981E+06 -2.403171E+05 -4.896817E+03 -6.209958E+05 -1.480361E-10  6.664180E-10
       134  14 -1.608902E+06 -2.325298E+05 -8.685910E+03 -6.122010E+05 -9.909985E-10 -6.298052E-10
       134  15 -1.602306E+06 -2.425643E+05 -1.646513E+04 -6.201565E+05  1.789852E-10  3.049474E-10
       134  16 -1.732336E+06 -2.887933E+05 -3.855598E+04 -6.561340E+05 -7.005339E-10  6.556097E-10
       134  17 -1.772359E+06 -2.938309E+05 -5.083561E+04 -6.568315E+05 -3.896209E-10  1.816768E-10
       134  18 -1.798871E+06 -3.166977E+05 -6.713190E+04 -6.742790E+05 -2.727927E-10  8.873559E-10
       134  19 -1.471608E+06 -1.918396E+05  2.876127E+04 -5.858508E+05 -6.250127E+03  3.375146E+03
       134  20 -1.445419E+06 -1.712267E+05  3.346194E+04 -5.675599E+05 -1.121490E+04  3.388543E+03
       134  21 -1.405704E+06 -1.684286E+05  3.419883E+04 -5.660185E+05 -1.616005E+04  3.347134E+03
       134  22 -1.601981E+06 -2.403171E+05 -4.896739E+03 -6.209958E+05 -5.237617E+03  3.754887E+03
       134  23 -1.608902E+06 -2.325297E+05 -8.685686E+03 -6.122011E+05 -1.023427E+04  3.756505E+03
       134  24 -1.602306E+06 -2.425643E+05 -1.646467E+04 -6.201565E+05 -1.521105E+04  3.703403E+03
       134  25 -1.732336E+06 -2.887933E+05 -3.855592E+04 -6.561340E+05 -4.225347E+03  4.134539E+03
       134  26 -1.772358E+06 -2.938309E+05 -5.083542E+04 -6.568315E+05 -9.253920E+03  4.124359E+03
       134  27 -1.798870E+06 -3.166976E+05 -6.713149E+04 -6.742791E+05 -1.426238E+04  4.059547E+03
       135   1 -1.367494E+06 -1.544744E+05  3.899007E+04 -5.614307E+05  1.975024E+04 -3.164095E+03
       135   2 -1.341914E+06 -1.287236E+05  3.086606E+04 -5.381934E+05  3.932461E+04  2.433917E+03
       135   3 -1.315347E+06 -1.471876E+05  5.296398E+02 -5.244721E+05  5.865615E+04  8.683092E+03
       135   4 -1.603815E+06 -2.392671E+05 -2.132144E+04 -6.219960E+05  1.862099E+04 -3.588018E+03
       135   5 -1.606081E+06 -2.298500E+05 -3.762915E+04 -6.124649E+05  3.858105E+04  2.154222E+03
       135   6 -1.607444E+06 -2.647333E+05 -7.646320E+04 -6.124500E+05  5.829738E+04  8.546983E+03
       135   7 -1.840081E+06 -3.240573E+05 -8.163724E+04 -6.825407E+05  1.749220E+04 -4.011779E+03
       135   8 -1.870180E+06 -3.309711E+05 -1.061302E+05 -6.867076E+05  3.783784E+04  1.874662E+03
       135   9 -1.899460E+06 -3.822705E+05 -1.534637E+05 -7.003894E+05  5.793878E+04  8.410953E+03
       135  10 -1.367495E+06 -1.544745E+05  3.898932E+04 -5.614306E+05  4.743921E-10  6.071803E-10
       135  11 -1.341915E+06 -1.287241E+05  3.086314E+04 -5.381935E+05  8.915244E-10 -3.793459E-10
       135  12 -1.315350E+06 -1.471886E+05  5.230175E+02 -5.244725E+05  1.461135E-09 -6.535290E-10
       135  13 -1.603816E+06 -2.392672E+05 -2.132211E+04 -6.219959E+05 -1.123396E-09  2.209035E-10
       135  14 -1.606083E+06 -2.298504E+05 -3.763197E+04 -6.124650E+05 -5.206168E-10 -8.101850E-10
       135  15 -1.607448E+06 -2.647343E+05 -7.646974E+04 -6.124504E+05  2.511797E-09 -2.057489E-10
       135  16 -1.840081E+06 -3.240574E+05 -8.163785E+04 -6.825406E+05 -1.537514E-09 -2.985833E-11
       135  17 -1.870182E+06 -3.309715E+05 -1.061329E+05 -6.867076E+05  1.360622E-09 -7.535683E-10
       135  18 -1.899463E+06 -3.822715E+05 -1.534701E+05 -7.003898E+05  2.384480E-09 -1.073247E-10
       135  19 -1.367494E+06 -1.544744E+05  3.899007E+04 -5.614307E+05 -1.975024E+04  3.164095E+03
       135  20 -1.341914E+06 -1.287236E+05  3.086606E+04 -5.381934E+05 -3.932461E+04 -2.433917E+03
       135  21 -1.315347E+06 -1.471876E+05  5.296398E+02 -5.244721E+05 -5.865615E+04 -8.683092E+03
       135  22 -1.603815E+06 -2.392671E+05 -2.132144E+04 -6.219960E+05 -1.862099E+04  3.588018E+03
       135  23 -1.606081E+06 -2.298500E+05 -3.762915E+04 -6.124649E+05 -3.858105E+04 -2.154222E+03
       135  24 -1.607444E+06 -2.647333E+05 -7.646320E+04 -6.124500E+05 -5.829738E+04 -8.546983E+03
       135  25 -1.840081E+06 -3.240573E+05 -8.163724E+04 -6.825407E+05 -1.749220E+04  4.011779E+03
       135  26 -1.870180E+06 -3.309711E+05 -1.061302E+05 -6.867076E+05 -3.783784E+04 -1.874662E+03
       135  27 -1.899460E+06 -3.822705E+05 -1.534637E+05 -7.003894E+05 -5.793878E+04 -8.410953E+03
       136   1 -1.258422E+06 -1.320700E+05 -9.098122E+03 -5.750626E+05  7.561584E+04  1.248275E+04
       136   2 -1.239430E+06 -4.235979E+04 -6.638742E+04 -4.900500E+05  1.565551E+05  4.227063E+04
       136   3 -1.339154E+06 -2.894656E+05 -2.724063E+05 -3.366118E+05  2.335918E+05  8.245535E+04
       136   4 -1.619898E+06 -2.283154E+05 -9.474709E+04 -6.333439E+05  7.210449E+04  1.116852E+04
       136   5 -1.579991E+06 -2.005935E+05 -1.600047E+05 -6.144594E+05  1.592849E+05  4.328680E+04
       136   6 -1.660129E+06 -5.110609E+05 -3.790125E+05 -5.271280E+05  2.425629E+05  8.578236E+04
       136   7 -1.981245E+06 -3.245643E+05 -1.804043E+05 -6.916016E+05  6.859537E+04  9.854576E+03
       136   8 -1.920434E+06 -3.587995E+05 -2.536316E+05 -7.387998E+05  1.620131E+05  4.430199E+04
       136   9 -1.980972E+06 -7.325493E+05 -4.856241E+05 -7.175282E+05  2.515288E+05  8.910373E+04
       136  10 -1.258428E+06 -1.320717E+05 -9.109185E+03 -5.750633E+05 -6.752322E-10  4.507193E-10
       136  11 -1.239457E+06 -4.236831E+04 -6.643695E+04 -4.900554E+05  1.027979E-11  8.882886E-10
       136  12 -1.339214E+06 -2.894876E+05 -2.725219E+05 -3.366274E+05 -1.102916E-10  9.658563E-10
       136  13 -1.619904E+06 -2.283170E+05 -9.475712E+04 -6.333445E+05  2.081675E-09 -2.605897E-10
       136  14 -1.580019E+06 -2.006023E+05 -1.600560E+05 -6.144649E+05 -2.104783E-10  1.608216E-09
       136  15 -1.660194E+06 -5.110847E+05 -3.791373E+05 -5.271448E+05  9.291646E-10  2.078503E-10
       136  16 -1.981250E+06 -3.245657E+05 -1.804134E+05 -6.916021E+05  1.892011E-10  7.083748E-10
       136  17 -1.920463E+06 -3.588087E+05 -2.536848E+05 -7.388056E+05 -3.957870E-09  1.697633E-09
       136  18 -1.981043E+06 -7.325749E+05 -4.857584E+05 -7.175463E+05 -2.630195E-09  6.513535E-10
       136  19 -1.258422E+06 -1.320700E+05 -9.098122E+03 -5.750626E+05 -7.561584E+04 -1.248275E+04
       136  20 -1.239430E+06 -4.235979E+04 -6.638742E+04 -4.900500E+05 -1.565551E+05 -4.227063E+04
       136  21 -1.339154E+06 -2.894656E+05 -2.724063E+05 -3.366118E+05 -2.335918E+05 -8.245535E+04
       136  22 -1.619898E+06 -2.283154E+05 -9.474709E+04 -6.333439E+05 -7.210449E+04 -1.116852E+04
       136  23 -1.579991E+06 -2.005935E+05 -1.600047E+05 -6.144594E+05 -1.592849E+05 -4.328680E+04
       136  24 -1.660129E+06 -5.110609E+05 -3.790125E+05 -5.271280E+05 -2.425629E+05 -8.578236E+04
       136  25 -1.981245E+06 -3.245643E+05 -1.804043E+05 -6.916016E+05 -6.859537E+04 -9.854576E+03
       136  26 -1.920434E+06 -3.587995E+05 -2.536316E+05 -7.387998E+05 -1.620131E+05 -4.430199E+04
       136  27 -1.980972E+06 -7.325493E+05 -4.856241E+05 -7.175282E+05 -2.515288E+05 -8.910373E+04
       137   1 -2.026907E+05 -1.351697E+04  7.265936E+03  1.221380E+04  5.953232E+04  4.329426E+03
       137   2 -1.820796E+05 -9.220196E+04 -3.603510E+04  6.576631E+02  4.182621E+04  1.306147E+04
       137   3 -1.365652E+05 -8.096494E+04 -4.530239E+04 -2.980843E+04  2.412525E+04  1.256830E+04
       137   4  1.737480E+05  8.017272E+04  9.955864E+04 -1.813193E+04  6.821549E+04  4.332833E+03
       137   5  1.607907E+05 -7.595821E+03  4.418109E+04 -8.649242E+03  4.451981E+04  1.306195E+04
       137   6  1.737593E+05 -4.431301E+03  2.698162E+04 -1.807501E+04  2.083042E+04  1.256692E+04
       137   7  5.503179E+05  1.738554E+05  1.918417E+05 -4.849612E+04  7.690390E+04  4.335391E+03
       137   8  5.037695E+05  7.700231E+04  1.243894E+05 -1.796134E+04  4.721489E+04  1.306234E+04
       137   9  4.841729E+05  7.209605E+04  9.925923E+04 -6.335689E+03  1.753395E+04  1.256540E+04
       137  10 -2.026945E+05 -1.351794E+04  7.259238E+03  1.221359E+04  2.504836E-10 -7.794077E-10
       137  11 -1.820815E+05 -9.220262E+04 -3.603871E+04  6.572231E+02  1.916925E-09  3.318719E-10
       137  12 -1.365659E+05 -8.096526E+04 -4.530378E+04 -2.980868E+04 -2.615364E-09  1.571407E-10
       137  13  1.737430E+05  8.017146E+04  9.954986E+04 -1.813217E+04  5.560348E-11  3.767051E-10
       137  14  1.607885E+05 -7.596536E+03  4.417705E+04 -8.649710E+03 -1.021349E-09 -1.168435E-10
       137  15  1.737588E+05 -4.431587E+03  2.698051E+04 -1.807522E+04  3.079558E-10  2.057427E-10
       137  16  5.503116E+05  1.738538E+05  1.918306E+05 -4.849639E+04 -6.394962E-10  2.309906E-10
       137  17  5.037670E+05  7.700153E+04  1.243848E+05 -1.796183E+04  1.607163E-09 -2.531380E-10
       137  18  4.841725E+05  7.209579E+04  9.925836E+04 -6.335866E+03  3.487916E-09  1.832725E-09
       137  19 -2.026907E+05 -1.351697E+04  7.265936E+03  1.221380E+04 -5.953232E+04 -4.329426E+03
       137  20 -1.820796E+05 -9.220196E+04 -3.603510E+04  6.576631E+02 -4.182621E+04 -1.306147E+04
       137  21 -1.365652E+05 -8.096494E+04 -4.530239E+04 -2.980843E+04 -2.412525E+04 -1.256830E+04
       137  22  1.737480E+05  8.017272E+04  9.955864E+04 -1.813193E+04 -6.821549E+04 -4.332833E+03
       137  23  1.607907E+05 -7.595821E+03  4.418109E+04 -8.649242E+03 -4.451981E+04 -1.306195E+04
       137  24  1.737593E+05 -4.431301E+03  2.698162E+04 -1.807501E+04 -2.083042E+04 -1.256692E+04
       137  25  5.503179E+05  1.738554E+05  1.918417E+05 -4.849612E+04 -7.690390E+04 -4.335391E+03
       137  26  5.037695E+05  7.700231E+04  1.243894E+05 -1.796134E+04 -4.721489E+04 -1.306234E+04
       137  27  4.841729E+05  7.209605E+04  9.925923E+04 -6.335689E+03 -1.753395E+04 -1.256540E+04
       138   1 -1.072594E+05 -6.135419E+04 -4.271789E+04 -1.600289E+04  1.722989E+04  1.050852E+04
       138   2 -7.579703E+04 -6.067198E+04 -4.535819E+04 -8.086770E+03  1.178442E+04  9.548167E+03
       138   3 -4.164005E+04 -5.226655E+04 -4.251017E+04 -1.923970E+04  6.338259E+03  8.081194E+03
       138   4  1.686126E+05  6.724124E+03  2.181685E+04 -1.812786E+04  1.677798E+04  1.050799E+04
       138   5  1.672402E+05 -7.207550E+02  1.137139E+04 -8.592573E+03  1.100189E+04  9.547712E+03
       138   6  1.686175E+05 -3.868019E+02  6.641976E+03 -1.812578E+04  5.225415E+03  8.080884E+03
       138   7  4.445548E+05  7.479706E+04  8.634641E+04 -2.025378E+04  1.632586E+04  1.050745E+04
       138   8  4.103319E+05  5.922629E+04  6.809695E+04 -9.098579E+03  1.021907E+04  9.547258E+03
       138   9  3.789157E+05  5.148982E+04  5.579112E+04 -1.701149E+04  4.112197E+03  8.080570E+03
       138  10 -1.072598E+05 -6.135439E+04 -4.271866E+04 -1.600304E+04  7.357106E-10  2.417721E-10
       138  11 -7.579720E+04 -6.067212E+04 -4.535862E+04 -8.086861E+03  6.718770E-10  4.613759E-12
       138  12 -4.164011E+04 -5.226663E+04 -4.251037E+04 -1.923974E+04  6.044753E-10 -3.992785E-10
       138  13  1.686123E+05  6.723930E+03  2.181611E+04 -1.812800E+04  1.131612E-09  1.316833E-09
       138  14  1.672401E+05 -7.208854E+02  1.137099E+04 -8.592658E+03 -9.895935E-10 -3.349936E-11
       138  15  1.686174E+05 -3.868793E+02  6.641802E+03 -1.812582E+04  5.108280E-10 -6.701401E-10
       138  16  4.445545E+05  7.479687E+04  8.634571E+04 -2.025392E+04 -2.143579E-10  1.387622E-09
       138  17  4.103318E+05  5.922616E+04  6.809659E+04 -9.098657E+03  2.160347E-09 -5.377730E-10
       138  18  3.789157E+05  5.148974E+04  5.579097E+04 -1.701152E+04 -3.774544E-10 -6.872213E-10
       138  19 -1.072594E+05 -6.135419E+04 -4.271789E+04 -1.600289E+04 -1.722989E+04 -1.050852E+04
       138  20 -7.579703E+04 -6.067198E+04 -4.535819E+04 -8.086770E+03 -1.178442E+04 -9.548167E+03
       138  21 -4.164005E+04 -5.226655E+04 -4.251017E+04 -1.923970E+04 -6.338259E+03 -8.081194E+03
       138  22  1.686126E+05  6.724124E+03  2.181685E+04 -1.812786E+04 -1.677798E+04 -1.050799E+04
       138  23  1.672402E+05 -7.207550E+02  1.137139E+04 -8.592573E+03 -1.100189E+04 -9.547712E+03
       138  24  1.686175E+05 -3.868019E+02  6.641976E+03 -1.812578E+04 -5.225415E+03 -8.080884E+03
       138  25  4.445548E+05  7.479706E+04  8.634641E+04 -2.025378E+04 -1.632586E+04 -1.050745E+04
       138  26  4.103319E+05  5.922629E+04  6.809695E+04 -9.098579E+03 -1.021907E+04 -9.547258E+03
       138  27  3.789157E+05  5.148982E+04  5.579112E+04 -1.701149E+04 -4.112197E+03 -8.080570E+03
       139   1 -7.925688E+03 -4.286166E+04 -3.586700E+04 -1.804512E+04  5.145015E+03  7.130970E+03
       139   2  2.460877E+04 -3.542384E+04 -3.066039E+04 -8.625570E+03  3.775691E+03  5.641788E+03
       139   3  5.750261E+04 -2.732662E+04 -2.439419E+04 -1.823363E+04  2.405947E+03  4.125712E+03
       139   4  1.680901E+05  5.370618E+02  5.125042E+03 -1.811723E+04  4.189551E+03  7.130765E+03
       139   5  1.679105E+05 -7.804404E+01  2.781256E+03 -8.603560E+03  2.802419E+03  5.641690E+03
       139   6  1.680926E+05 -3.059151E+01  1.509356E+03 -1.811722E+04  1.414938E+03  4.125727E+03
       139   7  3.441345E+05  4.393359E+04  4.611499E+04 -1.818937E+04  3.233818E+03  7.130561E+03
       139   8  3.112311E+05  3.526630E+04  3.622152E+04 -8.581545E+03  1.828924E+03  5.641593E+03
       139   9  2.786939E+05  2.726457E+04  2.741207E+04 -1.800080E+04  4.237546E+02  4.125743E+03
       139  10 -7.925730E+03 -4.286172E+04 -3.586714E+04 -1.804515E+04  8.000473E-10 -1.924418E-10
       139  11  2.460875E+04 -3.542388E+04 -3.066048E+04 -8.625587E+03 -4.930058E-10 -5.310498E-13
       139  12  5.750260E+04 -2.732664E+04 -2.439423E+04 -1.823364E+04  1.690558E-09 -5.366651E-10
       139  13  1.680901E+05  5.370025E+02  5.124913E+03 -1.811726E+04  2.091527E-09 -2.222760E-10
       139  14  1.679104E+05 -7.808033E+01  2.781181E+03 -8.603573E+03  2.694726E-09  5.188286E-11
       139  15  1.680926E+05 -3.061033E+01  1.509320E+03 -1.811723E+04  1.434819E-10 -1.781806E-10
       139  16  3.441345E+05  4.393354E+04  4.611487E+04 -1.818938E+04  1.648995E-10 -1.076104E-10
       139  17  3.112311E+05  3.526627E+04  3.622145E+04 -8.581553E+03  3.201334E-10  9.315003E-11
       139  18  2.786939E+05  2.726456E+04  2.741203E+04 -1.800080E+04 -1.071955E-09 -1.099921E-10
       139  19 -7.925688E+03 -4.286166E+04 -3.586700E+04 -1.804512E+04 -5.145015E+03 -7.130970E+03
       139  20  2.460877E+04 -3.542384E+04 -3.066039E+04 -8.625570E+03 -3.775691E+03 -5.641788E+03
       139  21  5.750261E+04 -2.732662E+04 -2.439419E+04 -1.823363E+04 -2.405947E+03 -4.125712E+03
       139  22  1.680901E+05  5.370618E+02  5.125042E+03 -1.811723E+04 -4.189551E+03 -7.130765E+03
       139  23  1.679105E+05 -7.804404E+01  2.781256E+03 -8.603560E+03 -2.802419E+03 -5.641690E+03
       139  24  1.680926E+05 -3.059151E+01  1.509356E+03 -1.811722E+04 -1.414938E+03 -4.125727E+03
       139  25  3.441345E+05  4.393359E+04  4.611499E+04 -1.818937E+04 -3.233818E+03 -7.130561E+03
       139  26  3.112311E+05  3.526630E+04  3.622152E+04 -8.581545E+03 -1.828924E+03 -5.641593E+03
       139  27  2.786939E+05  2.726457E+04  2.741207E+04 -1.800080E+04 -4.237546E+02 -4.125743E+03
       140   1  9.160032E+04 -1.878920E+04 -1.666763E+04 -1.813206E+04  2.165525E+03  3.238542E+03
       140   2  1.242534E+05 -1.079583E+04 -9.834255E+03 -8.634820E+03  1.980077E+03  1.722541E+03
       140   3  1.569418E+05 -2.753711E+03 -2.868545E+03 -1.814190E+04  1.794502E+03  2.053986E+02
       140   4  1.680214E+05  4.010094E+01  1.068583E+03 -1.811209E+04  1.183480E+03  3.238604E+03
       140   5  1.680048E+05 -5.108883E+00  3.750412E+02 -8.609976E+03  9.972288E+02  1.722635E+03
       140   6  1.680221E+05 -1.484747E+00 -1.857159E+02 -1.811210E+04  8.108604E+02  2.055285E+02
       140   7  2.444478E+05  1.886899E+04  1.880441E+04 -1.809212E+04  2.013147E+02  3.238667E+03
       140   8  2.117579E+05  1.078548E+04  1.058421E+04 -8.585131E+03  1.431183E+01  1.722729E+03
       140   9  1.791026E+05  2.750734E+03  2.497108E+03 -1.808230E+04 -1.727989E+02  2.056583E+02
       140  10  9.160031E+04 -1.878921E+04 -1.666766E+04 -1.813207E+04  9.836676E-11 -4.367514E-10
       140  11  1.242534E+05 -1.079584E+04 -9.834268E+03 -8.634822E+03  5.887752E-10  5.398009E-10
       140  12  1.569418E+05 -2.753712E+03 -2.868551E+03 -1.814190E+04 -8.050133E-10  3.427423E-10
       140  13  1.680214E+05  4.008930E+01  1.068561E+03 -1.811210E+04 -6.325998E-12 -3.539871E-10
       140  14  1.680048E+05 -5.112336E+00  3.750337E+02 -8.609978E+03 -1.107377E-09  2.194708E-10
       140  15  1.680221E+05 -1.484969E+00 -1.857173E+02 -1.811210E+04 -2.363877E-09  7.672067E-11
       140  16  2.444478E+05  1.886898E+04  1.880439E+04 -1.809212E+04 -1.154130E-09 -2.696111E-10
       140  17  2.117579E+05  1.078548E+04  1.058421E+04 -8.585131E+03 -3.991319E-10 -8.357798E-11
       140  18  1.791026E+05  2.750733E+03  2.497107E+03 -1.808230E+04  9.815858E-10  2.098333E-10
       140  19  9.160032E+04 -1.878920E+04 -1.666763E+04 -1.813206E+04 -2.165525E+03 -3.238542E+03
       140  20  1.242534E+05 -1.079583E+04 -9.834255E+03 -8.634820E+03 -1.980077E+03 -1.722541E+03
       140  21  1.569418E+05 -2.753711E+03 -2.868545E+03 -1.814190E+04 -1.794502E+03 -2.053986E+02
       140  22  1.680214E+05  4.010094E+01  1.068583E+03 -1.811209E+04 -1.183480E+03 -3.238604E+03
       140  23  1.680048E+05 -5.108883E+00  3.750412E+02 -8.609976E+03 -9.972288E+02 -1.722635E+03
       140  24  1.680221E+05 -1.484747E+00 -1.857159E+02 -1.811210E+04 -8.108604E+02 -2.055285E+02
       140  25  2.444478E+05  1.886899E+04  1.880441E+04 -1.809212E+04 -2.013147E+02 -3.238667E+03
       140  26  2.117579E+05  1.078548E+04  1.058421E+04 -8.585131E+03 -1.431183E+01 -1.722729E+03
       140  27  1.791026E+05  2.750734E+03  2.497108E+03 -1.808230E+04  1.727989E+02 -2.056583E+02
       141   1  1.910607E+05  5.719841E+03  5.005688E+03 -1.815391E+04  1.854089E+03 -6.779796E+02
       141   2  2.237881E+05  1.376625E+04  1.181618E+04 -8.651684E+03  2.443710E+03 -2.195164E+03
       141   3  2.564129E+05  2.171098E+04  1.821698E+04 -1.815493E+04  3.033508E+03 -3.711298E+03
       141   4  1.679915E+05  1.086313E+01 -4.745486E+02 -1.811240E+04  8.703723E+02 -6.778527E+02
       141   5  1.680429E+05  1.821617E+01 -1.191069E+03 -8.609610E+03  1.460596E+03 -2.195082E+03
       141   6  1.679907E+05 -7.615458E+01 -2.317696E+03 -1.811241E+04  2.050966E+03 -3.711257E+03
       141   7  1.449227E+05 -5.698153E+03 -5.954819E+03 -1.807088E+04 -1.133076E+02 -6.777259E+02
       141   8  1.123006E+05 -1.373003E+04 -1.419853E+04 -8.567541E+03  4.775701E+02 -2.195000E+03
       141   9  7.957561E+04 -2.186384E+04 -2.285290E+04 -1.806989E+04  1.068563E+03 -3.711216E+03
       141  10  1.910607E+05  5.719840E+03  5.005681E+03 -1.815391E+04 -6.022761E-10  3.410056E-11
       141  11  2.237881E+05  1.376624E+04  1.181616E+04 -8.651679E+03 -4.926474E-10 -1.578962E-10
       141  12  2.564129E+05  2.171097E+04  1.821694E+04 -1.815493E+04  1.861388E-10  1.219592E-11
       141  13  1.679915E+05  1.086243E+01 -4.745509E+02 -1.811240E+04  1.237444E-10 -1.497901E-11
       141  14  1.680429E+05  1.821042E+01 -1.191082E+03 -8.609608E+03  1.216338E-10 -5.025245E-11
       141  15  1.679907E+05 -7.617050E+01 -2.317730E+03 -1.811240E+04 -6.515952E-10  9.242950E-11
       141  16  1.449227E+05 -5.698153E+03 -5.954820E+03 -1.807088E+04 -5.022993E-10  3.227302E-10
       141  17  1.123006E+05 -1.373004E+04 -1.419853E+04 -8.567540E+03  4.993998E-10  5.120443E-10
       141  18  7.957560E+04 -2.186386E+04 -2.285293E+04 -1.806989E+04 -8.370001E-10  3.641400E-10
       141  19  1.910607E+05  5.719841E+03  5.005688E+03 -1.815391E+04 -1.854089E+03  6.779796E+02
       141  20  2.237881E+05  1.376625E+04  1.181618E+04 -8.651684E+03 -2.443710E+03  2.195164E+03
       141  21  2.564129E+05  2.171098E+04  1.821698E+04 -1.815493E+04 -3.033508E+03  3.711298E+03
       141  22  1.679915E+05  1.086313E+01 -4.745486E+02 -1.811240E+04 -8.703723E+02  6.778527E+02
       141  23  1.680429E+05  1.821617E+01 -1.191069E+03 -8.609610E+03 -1.460596E+03  2.195082E+03
       141  24  1.679907E+05 -7.615458E+01 -2.317696E+03 -1.811241E+04 -2.050966E+03  3.711257E+03
       141  25  1.449227E+05 -5.698153E+03 -5.954819E+03 -1.807088E+04  1.133076E+02  6.777259E+02
       141  26  1.123006E+05 -1.373003E+04 -1.419853E+04 -8.567541E+03 -4.775701E+02  2.195000E+03
       141  27  7.957561E+04 -2.186384E+04 -2.285290E+04 -1.806989E+04 -1.068563E+03  3.711216E+03
       142   1  2.904704E+05  3.031661E+04  2.561013E+04 -1.835184E+04  3.528612E+03 -4.598597E+03
       142   2  3.235236E+05  3.844245E+04  3.079623E+04 -8.629199E+03  6.227081E+03 -6.114356E+03
       142   3  3.559278E+05  4.529756E+04  3.391233E+04 -1.794171E+04  8.926044E+03 -7.602156E+03
       142   4  1.678668E+05  6.167001E+01 -3.092877E+03 -1.811906E+04  2.536620E+03 -4.598608E+03
       142   5  1.681922E+05  1.364179E+02 -5.446268E+03 -8.601307E+03  5.252582E+03 -6.114490E+03
       142   6  1.678646E+05 -1.062665E+03 -9.882060E+03 -1.811901E+04  7.968896E+03 -7.602408E+03
       142   7  4.527699E+04 -3.019433E+04 -3.179690E+04 -1.788633E+04  1.544823E+03 -4.598620E+03
       142   8  1.288291E+04 -3.817132E+04 -4.169040E+04 -8.573423E+03  4.278324E+03 -6.114624E+03
       142   9 -2.016594E+04 -4.742539E+04 -5.367884E+04 -1.829626E+04  7.012036E+03 -7.602659E+03
       142  10  2.904704E+05  3.031658E+04  2.561006E+04 -1.835183E+04 -2.778030E-10  7.333255E-11
       142  11  3.235236E+05  3.844240E+04  3.079608E+04 -8.629168E+03 -1.293019E-10 -4.135466E-12
       142  12  3.559277E+05  4.529747E+04  3.391207E+04 -1.794166E+04 -6.360322E-10 -3.947500E-10
       142  13  1.678667E+05  6.164557E+01 -3.092929E+03 -1.811905E+04 -6.310699E-12  3.284239E-11
       142  14  1.681921E+05  1.363704E+02 -5.446390E+03 -8.601281E+03 -1.680924E-09 -2.955775E-10
       142  15  1.678646E+05 -1.062745E+03 -9.882288E+03 -1.811897E+04  3.222715E-09 -4.708192E-10
       142  16  4.527699E+04 -3.019436E+04 -3.179694E+04 -1.788632E+04 -2.183513E-10 -3.411771E-12
       142  17  1.288288E+04 -3.817137E+04 -4.169050E+04 -8.573402E+03  6.713660E-10 -5.491205E-10
       142  18 -2.016601E+04 -4.742546E+04 -5.367904E+04 -1.829622E+04  1.253099E-09 -3.687835E-10
       142  19  2.904704E+05  3.031661E+04  2.561013E+04 -1.835184E+04 -3.528612E+03  4.598597E+03
       142  20  3.235236E+05  3.844245E+04  3.079623E+04 -8.629199E+03 -6.227081E+03  6.114356E+03
       142  21  3.559278E+05  4.529756E+04  3.391233E+04 -1.794171E+04 -8.926044E+03  7.602156E+03
       142  22  1.678668E+05  6.167001E+01 -3.092877E+03 -1.811906E+04 -2.536620E+03  4.598608E+03
       142  23  1.681922E+05  1.364179E+02 -5.446268E+03 -8.601307E+03 -5.252582E+03  6.114490E+03
       142  24  1.678646E+05 -1.062665E+03 -9.882060E+03 -1.811901E+04 -7.968896E+03  7.602408E+03
       142  25  4.527699E+04 -3.019433E+04 -3.179690E+04 -1.788633E+04 -1.544823E+03  4.598620E+03
       142  26  1.288291E+04 -3.817132E+04 -4.169040E+04 -8.573423E+03 -4.278324E+03  6.114624E+03
       142  27 -2.016594E+04 -4.742539E+04 -5.367884E+04 -1.829626E+04 -7.012036E+03  7.602659E+03
       143   1  3.892033E+05  5.555356E+04  3.919151E+04 -2.019867E+04  1.108312E+04 -8.553580E+03
       143   2  4.245635E+05  6.424812E+04  3.772084E+04 -7.475275E+03  2.182871E+04 -1.001321E+04
       143   3  4.548747E+05  5.809109E+04  2.555861E+04 -1.381802E+04  3.257532E+04 -1.094750E+04
       143   4  1.668701E+05  7.107155E+02 -1.276496E+04 -1.812730E+04  9.962695E+03 -8.553921E+03
       143   5  1.694249E+05  1.329991E+03 -2.181589E+04 -8.591621E+03  2.104469E+04 -1.001375E+04
       143   6  1.668683E+05 -1.296442E+04 -4.179539E+04 -1.812280E+04  3.212716E+04 -1.094824E+04
       143   7 -5.541763E+04 -5.413562E+04 -6.472477E+04 -1.605668E+04  8.842670E+03 -8.554270E+03
       143   8 -8.565362E+04 -6.159274E+04 -8.135703E+04 -9.707509E+03  2.026100E+04 -1.001428E+04
       143   9 -1.210617E+05 -8.402574E+04 -1.091550E+05 -2.242557E+04  3.167920E+04 -1.094898E+04
       143  10  3.892032E+05  5.555345E+04  3.919114E+04 -2.019860E+04  3.932552E-10 -1.167376E-10
       143  11  4.245630E+05  6.424788E+04  3.771976E+04 -7.475099E+03  3.639112E-10  5.415677E-10
       143  12  4.548735E+05  5.809068E+04  2.555640E+04 -1.381774E+04  9.710468E-10 -3.630008E-10
       143  13  1.668699E+05  7.106103E+02 -1.276528E+04 -1.812724E+04  2.164604E-09 -1.086506E-10
       143  14  1.694244E+05  1.329765E+03 -2.181691E+04 -8.591451E+03  2.692489E-09  2.563511E-10
       143  15  1.668671E+05 -1.296482E+04 -4.179756E+04 -1.812252E+04 -1.354161E-09 -7.771670E-10
       143  16 -5.541774E+04 -5.413571E+04 -6.472506E+04 -1.605662E+04  1.274205E-09  8.341375E-11
       143  17 -8.565409E+04 -6.159296E+04 -8.135799E+04 -9.707346E+03  1.696646E-09  9.156723E-10
       143  18 -1.210628E+05 -8.402614E+04 -1.091571E+05 -2.242529E+04  6.423035E-12 -8.711105E-10
       143  19  3.892033E+05  5.555356E+04  3.919151E+04 -2.019867E+04 -1.108312E+04  8.553580E+03
       143  20  4.245635E+05  6.424812E+04  3.772084E+04 -7.475275E+03 -2.182871E+04  1.001321E+04
       143  21  4.548747E+05  5.809109E+04  2.555861E+04 -1.381802E+04 -3.257532E+04  1.094750E+04
       143  22  1.668701E+05  7.107155E+02 -1.276496E+04 -1.812730E+04 -9.962695E+03  8.553921E+03
       143  23  1.694249E+05  1.329991E+03 -2.181589E+04 -8.591621E+03 -2.104469E+04  1.001375E+04
       143  24  1.668683E+05 -1.296442E+04 -4.179539E+04 -1.812280E+04 -3.212716E+04  1.094824E+04
       143  25 -5.541763E+04 -5.413562E+04 -6.472477E+04 -1.605668E+04 -8.842670E+03  8.554270E+03
       143  26 -8.565362E+04 -6.159274E+04 -8.135703E+04 -9.707509E+03 -2.026100E+04  1.001428E+04
       143  27 -1.210617E+05 -8.402574E+04 -1.091550E+05 -2.242557E+04 -3.167920E+04  1.094898E+04
       144   1  4.795957E+05  8.788048E+04  2.342677E+04 -4.025792E+04  4.327565E+04 -1.303609E+04
       144   2  5.367407E+05  1.020497E+05 -1.587841E+03  9.651403E+03  8.250565E+04 -1.344659E+04
       144   3  5.456723E+05 -5.677328E+04 -9.533997E+04  4.081595E+04  1.217313E+05 -4.318510E+03
       144   4  1.570374E+05  8.398334E+03 -5.167225E+04 -1.808734E+04  3.988852E+04 -1.303661E+04
       144   5  1.817014E+05  1.443652E+04 -8.462313E+04 -8.655708E+03  8.527790E+04 -1.344773E+04
       144   6  1.570499E+05 -1.536460E+05 -1.906160E+05 -1.796972E+04  1.306602E+05 -4.322965E+03
       144   7 -1.654240E+05 -7.108930E+04 -1.267780E+05  4.071651E+03  3.650313E+04 -1.303737E+04
       144   8 -1.732210E+05 -7.318434E+04 -1.676668E+05 -2.695231E+04  8.804856E+04 -1.344904E+04
       144   9 -2.314277E+05 -2.505169E+05 -2.859010E+05 -7.671857E+04  1.395836E+05 -4.329115E+03
       144  10  4.795936E+05  8.787980E+04  2.342294E+04 -4.025747E+04  2.035078E-10 -1.276956E-09
       144  11  5.367333E+05  1.020477E+05 -1.600962E+03  9.652297E+03  4.050275E-10 -2.235365E-09
       144  12  5.456564E+05 -5.677728E+04 -9.536782E+04  4.081637E+04 -1.027404E-09 -6.315708E-10
       144  13  1.570356E+05  8.397724E+03 -5.167556E+04 -1.808692E+04  8.788894E-10 -3.065058E-09
       144  14  1.816936E+05  1.443437E+04 -8.463713E+04 -8.654784E+03 -8.439064E-10  1.305123E-09
       144  15  1.570315E+05 -1.536506E+05 -1.906481E+05 -1.796926E+04  9.086861E-10  5.815289E-12
       144  16 -1.654255E+05 -7.108984E+04 -1.267808E+05  4.072035E+03 -2.273611E-10 -1.351606E-09
       144  17 -1.732294E+05 -7.318662E+04 -1.676817E+05 -2.695135E+04  2.181753E-09  1.211448E-09
       144  18 -2.314486E+05 -2.505222E+05 -2.859377E+05 -7.671808E+04  1.169340E-09 -6.139602E-10
       144  19  4.795957E+05  8.788048E+04  2.342677E+04 -4.025792E+04 -4.327565E+04  1.303609E+04
       144  20  5.367407E+05  1.020497E+05 -1.587841E+03  9.651403E+03 -8.250565E+04  1.344659E+04
       144  21  5.456723E+05 -5.677328E+04 -9.533997E+04  4.081595E+04 -1.217313E+05  4.318510E+03
       144  22  1.570374E+05  8.398334E+03 -5.167225E+04 -1.808734E+04 -3.988852E+04  1.303661E+04
       144  23  1.817014E+05  1.443652E+04 -8.462313E+04 -8.655708E+03 -8.527790E+04  1.344773E+04
       144  24  1.570499E+05 -1.536460E+05 -1.906160E+05 -1.796972E+04 -1.306602E+05  4.322965E+03
       144  25 -1.654240E+05 -7.108930E+04 -1.267780E+05  4.071651E+03 -3.650313E+04  1.303737E+04
       144  26 -1.732210E+05 -7.318434E+04 -1.676668E+05 -2.695231E+04 -8.804856E+04  1.344904E+04
       144  27 -2.314277E+05 -2.505169E+05 -2.859010E+05 -7.671857E+04 -1.395836E+05  4.329115E+03
       145   1  3.615457E+05  1.180868E+06  3.610322E+05 -1.852632E+05  1.408133E+04  4.576033E+04
       145   2  2.571319E+05  8.553108E+05  2.555352E+05 -8.771689E+04  3.947289E+04  1.706573E+04
       145   3  1.797442E+05  5.403905E+05  1.754698E+05 -1.749033E+05  2.889125E+04 -1.166804E+04
       145   4  1.996892E+04 -1.909663E+05  2.424728E+04 -1.764674E+05  1.412067E+04  1.761608E+04
       145   5 -1.801315E+03 -1.941420E+05  9.945269E+03 -8.410749E+04  3.948574E+04  1.228222E+04
       145   6 -5.645836E+02 -1.908033E+05  4.892949E+03 -1.764969E+05  2.885112E+04  6.894380E+03
       145   7 -3.217469E+05 -1.561087E+06 -3.126729E+05 -1.676903E+05  1.415926E+04 -1.046621E+04
       145   8 -2.608127E+05 -1.242581E+06 -2.357196E+05 -8.050373E+04  3.949855E+04  7.506720E+03
       145   9 -1.809110E+05 -9.215035E+05 -1.657188E+05 -1.780883E+05  2.881087E+04  2.543509E+04
       145  10  3.615449E+05  1.180866E+06  3.610279E+05 -1.852637E+05  1.356571E-09 -4.216176E-09
       145  11  2.571302E+05  8.553100E+05  2.555317E+05 -8.771743E+04  1.742903E-09  2.160489E-09
       145  12  1.797432E+05  5.403901E+05  1.754679E+05 -1.749031E+05  1.212866E-09  4.511916E-09
       145  13  1.996862E+04 -1.909667E+05  2.424632E+04 -1.764676E+05 -4.090445E-10 -1.092932E-09
       145  14 -1.803030E+03 -1.941426E+05  9.942056E+03 -8.410788E+04  9.795588E-10  9.009825E-10
       145  15 -5.654902E+02 -1.908036E+05  4.891295E+03 -1.764971E+05  4.270325E-10 -7.844277E-10
       145  16 -3.217471E+05 -1.561088E+06 -3.126735E+05 -1.676902E+05  7.899798E-10  4.217765E-09
       145  17 -2.608144E+05 -1.242581E+06 -2.357227E+05 -8.050397E+04  1.096460E-11  1.428361E-09
       145  18 -1.809120E+05 -9.215044E+05 -1.657216E+05 -1.780889E+05 -5.298163E-10 -1.631742E-09
       145  19  3.615457E+05  1.180868E+06  3.610322E+05 -1.852632E+05 -1.408133E+04 -4.576033E+04
       145  20  2.571319E+05  8.553108E+05  2.555352E+05 -8.771689E+04 -3.947289E+04 -1.706573E+04
       145  21  1.797442E+05  5.403905E+05  1.754698E+05 -1.749033E+05 -2.889125E+04  1.166804E+04
       145  22  1.996892E+04 -1.909663E+05  2.424728E+04 -1.764674E+05 -1.412067E+04 -1.761608E+04
       145  23 -1.801315E+03 -1.941420E+05  9.945269E+03 -8.410749E+04 -3.948574E+04 -1.228222E+04
       145  24 -5.645836E+02 -1.908033E+05  4.892949E+03 -1.764969E+05 -2.885112E+04 -6.894380E+03
       145  25 -3.217469E+05 -1.561087E+06 -3.126729E+05 -1.676903E+05 -1.415926E+04  1.046621E+04
       145  26 -2.608127E+05 -1.242581E+06 -2.357196E+05 -8.050373E+04 -3.949855E+04 -7.506720E+03
       145  27 -1.809110E+05 -9.215035E+05 -1.657188E+05 -1.780883E+05 -2.881087E+04 -2.543509E+04
       146   1  1.002306E+05  2.035918E+05  9.547272E+04 -1.775647E+05  1.542786E+04 -1.781612E+03
       146   2  1.922719E+04 -1.159068E+05  1.633648E+04 -8.422556E+04  2.983542E+03 -1.227614E+03
       146   3 -6.203561E+04 -4.364553E+05 -6.346285E+04 -1.769167E+05 -9.659044E+03 -6.760997E+02
       146   4  2.530742E+03 -1.924132E+05  2.980468E+03 -1.767680E+05  1.540898E+04  6.216412E+03
       146   5  4.935535E+02 -1.918251E+05 -1.389225E+03 -8.375745E+04  2.964029E+03  6.897934E+03
       146   6 -1.817541E+03 -1.924019E+05 -6.503211E+03 -1.767784E+05 -9.679542E+03  7.577262E+03
       146   7 -9.518022E+04 -5.882734E+05 -8.952220E+04 -1.759718E+05  1.539012E+04  1.420937E+04
       146   8 -1.824045E+04 -2.677379E+05 -1.911507E+04 -8.328939E+04  2.944526E+03  1.502250E+04
       146   9  5.839634E+04  5.170656E+04  5.045264E+04 -1.766401E+05 -9.700032E+03  1.583385E+04
       146  10  1.002304E+05  2.035917E+05  9.547227E+04 -1.775647E+05 -6.450820E-10  3.554508E-09
       146  11  1.922718E+04 -1.159068E+05  1.633646E+04 -8.422555E+04  3.424563E-09  4.112625E-09
       146  12 -6.203571E+04 -4.364553E+05 -6.346302E+04 -1.769167E+05  1.534960E-09 -9.686602E-10
       146  13  2.530477E+03 -1.924133E+05  2.979949E+03 -1.767681E+05 -3.440716E-11 -2.277126E-09
       146  14  4.935313E+02 -1.918251E+05 -1.389331E+03 -8.375746E+04  3.734463E-09  1.293467E-09
       146  15 -1.817657E+03 -1.924020E+05 -6.503495E+03 -1.767784E+05  2.578527E-10 -9.038045E-10
       146  16 -9.518053E+04 -5.882737E+05 -8.952302E+04 -1.759720E+05 -1.865312E-09 -3.544049E-09
       146  17 -1.824052E+04 -2.677381E+05 -1.911551E+04 -8.328943E+04  3.513332E-09  8.325377E-10
       146  18  5.839617E+04  5.170627E+04  5.045199E+04 -1.766400E+05  4.065748E-10  4.138427E-09
       146  19  1.002306E+05  2.035918E+05  9.547272E+04 -1.775647E+05 -1.542786E+04  1.781612E+03
       146  20  1.922719E+04 -1.159068E+05  1.633648E+04 -8.422556E+04 -2.983542E+03  1.227614E+03
       146  21 -6.203561E+04 -4.364553E+05 -6.346285E+04 -1.769167E+05  9.659044E+03  6.760997E+02
       146  22  2.530742E+03 -1.924132E+05  2.980468E+03 -1.767680E+05 -1.540898E+04 -6.216412E+03
       146  23  4.935535E+02 -1.918251E+05 -1.389225E+03 -8.375745E+04 -2.964029E+03 -6.897934E+03
       146  24 -1.817541E+03 -1.924019E+05 -6.503211E+03 -1.767784E+05  9.679542E+03 -7.577262E+03
       146  25 -9.518022E+04 -5.882734E+05 -8.952220E+04 -1.759718E+05 -1.539012E+04 -1.420937E+04
       146  26 -1.824045E+04 -2.677379E+05 -1.911507E+04 -8.328939E+04 -2.944526E+03 -1.502250E+04
       146  27  5.839634E+04  5.170656E+04  5.045264E+04 -1.766401E+05  9.700032E+03 -1.583385E+04
       147   1 -1.403755E+05 -7.732541E+05 -1.440451E+05 -1.711719E+05 -2.266076E+04 -8.863156E+03
       147   2 -2.186281E+05 -1.086620E+06 -2.261620E+05 -8.634347E+04 -3.376061E+04  2.069000E+04
       147   3 -3.333766E+05 -1.413104E+06 -3.367416E+05 -1.864877E+05 -1.239998E+04  5.028333E+04
       147   4  2.550936E+03 -1.943337E+05 -8.796332E+03 -1.765192E+05 -2.270166E+04  8.790103E+03
       147   5  2.928369E+03 -1.896334E+05 -1.597343E+04 -8.406533E+04 -3.375080E+04  1.734863E+04
       147   6 -2.950597E+04 -1.944782E+05 -3.699785E+04 -1.765718E+05 -1.235951E+04  2.596317E+04
       147   7  1.454538E+05  3.848966E+05  1.264309E+05 -1.818712E+05 -2.274285E+04  2.645973E+04
       147   8  2.244277E+05  7.080956E+05  1.941602E+05 -8.178348E+04 -3.374102E+04  1.400243E+04
       147   9  2.742549E+05  1.025503E+06  2.626387E+05 -1.666357E+05 -1.231987E+04  1.595232E+03
       147  10 -1.403760E+05 -7.732543E+05 -1.440463E+05 -1.711720E+05 -4.555666E-10  7.657257E-09
       147  11 -2.186295E+05 -1.086621E+06 -2.261649E+05 -8.634291E+04  4.818258E-10  3.242162E-09
       147  12 -3.333774E+05 -1.413107E+06 -3.367467E+05 -1.864872E+05 -6.356457E-10 -5.851740E-09
       147  13  2.550362E+03 -1.943340E+05 -8.797445E+03 -1.765190E+05 -2.153274E-09 -2.240117E-09
       147  14  2.927065E+03 -1.896341E+05 -1.597613E+04 -8.406486E+04  1.726313E-09  9.871648E-10
       147  15 -2.950631E+04 -1.944789E+05 -3.699941E+04 -1.765716E+05 -1.614788E-09 -5.252278E-10
       147  16  1.454531E+05  3.848957E+05  1.264286E+05 -1.818707E+05 -1.490402E-09 -7.641250E-09
       147  17  2.244264E+05  7.080951E+05  1.941577E+05 -8.178310E+04  1.056117E-09  6.391662E-10
       147  18  2.742547E+05  1.025503E+06  2.626384E+05 -1.666357E+05 -4.271092E-10  7.571766E-09
       147  19 -1.403755E+05 -7.732541E+05 -1.440451E+05 -1.711719E+05  2.266076E+04  8.863156E+03
       147  20 -2.186281E+05 -1.086620E+06 -2.261620E+05 -8.634347E+04  3.376061E+04 -2.069000E+04
       147  21 -3.333766E+05 -1.413104E+06 -3.367416E+05 -1.864877E+05  1.239998E+04 -5.028333E+04
       147  22  2.550936E+03 -1.943337E+05 -8.796332E+03 -1.765192E+05  2.270166E+04 -8.790103E+03
       147  23  2.928369E+03 -1.896334E+05 -1.597343E+04 -8.406533E+04  3.375080E+04 -1.734863E+04
       147  24 -2.950597E+04 -1.944782E+05 -3.699785E+04 -1.765718E+05  1.235951E+04 -2.596317E+04
       147  25  1.454538E+05  3.848966E+05  1.264309E+05 -1.818712E+05  2.274285E+04 -2.645973E+04
       147  26  2.244277E+05  7.080956E+05  1.941602E+05 -8.178348E+04  3.374102E+04 -1.400243E+04
       147  27  2.742549E+05  1.025503E+06  2.626387E+05 -1.666357E+05  1.231987E+04 -1.595232E+03
       148   1 -1.047333E+06 -3.414943E+05 -1.991455E+05 -3.787572E+05 -7.875293E+04 -2.510647E+04
       148   2 -1.009509E+06 -2.171533E+05 -1.224406E+05 -3.714192E+05 -5.116758E+04 -5.768515E+03
       148   3 -9.960500E+05 -2.033586E+05 -9.452240E+04 -3.573011E+05 -2.028181E+04  4.795467E+03
       148   4 -7.387187E+05 -1.959678E+05 -1.099323E+05 -2.647632E+05 -7.135564E+04 -2.233095E+04
       148   5 -7.212624E+05 -1.002301E+05 -4.643239E+04 -2.835498E+05 -4.907494E+04 -4.983681E+03
       148   6 -7.271013E+05 -1.139614E+05 -2.749367E+04 -2.955620E+05 -2.349607E+04  3.588564E+03
       148   7 -4.300088E+05 -5.041826E+04 -2.072777E+04 -1.507121E+05 -6.395426E+04 -1.955302E+04
       148   8 -4.329336E+05  1.670263E+04  2.956887E+04 -1.956419E+05 -4.698121E+04 -4.198368E+03
       148   9 -4.580821E+05 -2.456321E+04  3.952959E+04 -2.338003E+05 -2.671186E+04  2.381235E+03
       148  10 -1.047340E+06 -3.414966E+05 -1.991583E+05 -3.787588E+05 -7.433601E-10  2.521283E-10
       148  11 -1.009512E+06 -2.171541E+05 -1.224456E+05 -3.714194E+05  1.872230E-09  7.609408E-10
       148  12 -9.960504E+05 -2.033588E+05 -9.452321E+04 -3.573010E+05  4.712239E-10  1.693644E-10
       148  13 -7.387243E+05 -1.959697E+05 -1.099428E+05 -2.647644E+05  1.723337E-09  1.055126E-09
       148  14 -7.212650E+05 -1.002307E+05 -4.643696E+04 -2.835500E+05  5.761824E-10  4.457083E-10
       148  15 -7.271019E+05 -1.139616E+05 -2.749474E+04 -2.955619E+05  5.734680E-10 -6.921678E-10
       148  16 -4.300133E+05 -5.041977E+04 -2.073618E+04 -1.507131E+05 -1.251927E-10  7.800808E-10
       148  17 -4.329360E+05  1.670202E+04  2.956469E+04 -1.956421E+05  4.377867E-11  1.682074E-09
       148  18 -4.580829E+05 -2.456341E+04  3.952824E+04 -2.338003E+05 -6.438691E-10 -3.843811E-10
       148  19 -1.047333E+06 -3.414943E+05 -1.991455E+05 -3.787572E+05  7.875293E+04  2.510647E+04
       148  20 -1.009509E+06 -2.171533E+05 -1.224406E+05 -3.714192E+05  5.116758E+04  5.768515E+03
       148  21 -9.960500E+05 -2.033586E+05 -9.452240E+04 -3.573011E+05  2.028181E+04 -4.795467E+03
       148  22 -7.387187E+05 -1.959678E+05 -1.099323E+05 -2.647632E+05  7.135564E+04  2.233095E+04
       148  23 -7.212624E+05 -1.002301E+05 -4.643239E+04 -2.835498E+05  4.907494E+04  4.983681E+03
       148  24 -7.271013E+05 -1.139614E+05 -2.749367E+04 -2.955620E+05  2.349607E+04 -3.588564E+03
       148  25 -4.300088E+05 -5.041826E+04 -2.072777E+04 -1.507121E+05  6.395426E+04  1.955302E+04
       148  26 -4.329336E+05  1.670263E+04  2.956887E+04 -1.956419E+05  4.698121E+04  4.198368E+03
       148  27 -4.580821E+05 -2.456321E+04  3.952959E+04 -2.338003E+05  2.671186E+04 -2.381235E+03
       149   1 -9.436638E+05 -2.094278E+05 -7.948557E+04 -3.520753E+05 -1.839060E+04  3.059540E+03
       149   2 -9.152219E+05 -1.790796E+05 -5.905732E+04 -3.344322E+05 -1.200420E+04  4.153148E+03
       149   3 -8.749616E+05 -1.732367E+05 -4.541911E+04 -3.328245E+05 -5.417451E+03  4.712379E+03
       149   4 -7.234484E+05 -1.245614E+05 -2.219317E+04 -2.895514E+05 -1.892498E+04  2.858600E+03
       149   5 -7.288651E+05 -1.086448E+05 -1.093798E+04 -2.829194E+05 -1.286041E+04  3.831621E+03
       149   6 -7.223993E+05 -1.171678E+05 -6.215589E+03 -2.923233E+05 -6.595854E+03  4.270181E+03
       149   7 -5.031866E+05 -3.969141E+04  3.509494E+04 -2.270075E+05 -1.945957E+04  2.657578E+03
       149   8 -5.424745E+05 -3.820757E+04  3.717847E+04 -2.313926E+05 -1.371690E+04  3.509987E+03
       149   9 -5.698139E+05 -6.109749E+04  3.298617E+04 -2.518129E+05 -7.774578E+03  3.827868E+03
       149  10 -9.436641E+05 -2.094279E+05 -7.948622E+04 -3.520752E+05 -2.732744E-09 -6.453209E-10
       149  11 -9.152221E+05 -1.790796E+05 -5.905762E+04 -3.344322E+05 -8.620707E-10 -5.785319E-10
       149  12 -8.749617E+05 -1.732367E+05 -4.541920E+04 -3.328245E+05 -1.287624E-09  4.676763E-10
       149  13 -7.234488E+05 -1.245615E+05 -2.219386E+04 -2.895514E+05 -2.844665E-09 -6.951571E-10
       149  14 -7.288653E+05 -1.086448E+05 -1.093832E+04 -2.829194E+05 -2.244905E-09  9.800876E-13
       149  15 -7.223994E+05 -1.171678E+05 -6.215705E+03 -2.923232E+05 -4.249461E-11  9.972066E-11
       149  16 -5.031870E+05 -3.969152E+04  3.509422E+04 -2.270075E+05  3.309825E-10 -5.280955E-10
       149  17 -5.424747E+05 -3.820763E+04  3.717809E+04 -2.313925E+05 -2.181698E-09 -2.538198E-11
       149  18 -5.698139E+05 -6.109753E+04  3.298603E+04 -2.518129E+05 -6.932962E-10 -1.394200E-10
       149  19 -9.436638E+05 -2.094278E+05 -7.948557E+04 -3.520753E+05  1.839060E+04 -3.059540E+03
       149  20 -9.152219E+05 -1.790796E+05 -5.905732E+04 -3.344322E+05  1.200420E+04 -4.153148E+03
       149  21 -8.749616E+05 -1.732367E+05 -4.541911E+04 -3.328245E+05  5.417451E+03 -4.712379E+03
       149  22 -7.234484E+05 -1.245614E+05 -2.219317E+04 -2.895514E+05  1.892498E+04 -2.858600E+03
       149  23 -7.288651E+05 -1.086448E+05 -1.093798E+04 -2.829194E+05  1.286041E+04 -3.831621E+03
       149  24 -7.223993E+05 -1.171678E+05 -6.215589E+03 -2.923233E+05  6.595854E+03 -4.270181E+03
       149  25 -5.031866E+05 -3.969141E+04  3.509494E+04 -2.270075E+05  1.945957E+04 -2.657578E+03
       149  26 -5.424745E+05 -3.820757E+04  3.717847E+04 -2.313926E+05  1.371690E+04 -3.509987E+03
       149  27 -5.698139E+05 -6.109749E+04  3.298617E+04 -2.518129E+05  7.774578E+03 -3.827868E+03
       150   1 -8.343800E+05 -1.603518E+05 -3.367802E+04 -3.226263E+05 -4.287209E+03  3.908664E+03
       150   2 -8.067537E+05 -1.382972E+05 -2.244213E+04 -3.038938E+05 -2.322417E+03  2.706011E+03
       150   3 -7.636173E+05 -1.330151E+05 -1.240615E+04 -3.033034E+05 -3.446326E+02  1.468044E+03
       150   4 -7.219649E+05 -1.181252E+05 -4.816494E+03 -2.917912E+05 -5.307445E+03  3.525891E+03
       150   5 -7.296745E+05 -1.094139E+05 -2.589247E+03 -2.828423E+05 -3.363813E+03  2.315384E+03
       150   6 -7.218707E+05 -1.174706E+05 -1.544782E+03 -2.920358E+05 -1.407275E+03  1.069539E+03
       150   7 -6.095375E+05 -7.589788E+04  2.404399E+04 -2.609510E+05 -6.327884E+03  3.143042E+03
       150   8 -6.525896E+05 -8.053028E+04  1.726311E+04 -2.617886E+05 -4.405348E+03  1.924705E+03
       150   9 -6.801226E+05 -1.019260E+05  9.316403E+03 -2.807676E+05 -2.469993E+03  6.710076E+02
       150  10 -8.343800E+05 -1.603518E+05 -3.367808E+04 -3.226263E+05 -1.945191E-09  7.348784E-10
       150  11 -8.067537E+05 -1.382972E+05 -2.244215E+04 -3.038938E+05  1.088073E-09 -6.770187E-11
       150  12 -7.636173E+05 -1.330151E+05 -1.240615E+04 -3.033034E+05 -1.205445E-09 -1.256097E-10
       150  13 -7.219650E+05 -1.181253E+05 -4.816570E+03 -2.917912E+05 -8.894753E-10  1.101183E-10
       150  14 -7.296745E+05 -1.094139E+05 -2.589279E+03 -2.828423E+05  4.489432E-10 -2.901235E-10
       150  15 -7.218707E+05 -1.174706E+05 -1.544788E+03 -2.920358E+05 -7.732374E-10 -1.761781E-10
       150  16 -6.095376E+05 -7.589790E+04  2.404390E+04 -2.609510E+05  1.646839E-10 -4.915361E-10
       150  17 -6.525896E+05 -8.053029E+04  1.726307E+04 -2.617886E+05 -1.087665E-09 -1.235138E-10
       150  18 -6.801226E+05 -1.019260E+05  9.316390E+03 -2.807676E+05 -2.007509E-10 -2.924672E-10
       150  19 -8.343800E+05 -1.603518E+05 -3.367802E+04 -3.226263E+05  4.287209E+03 -3.908664E+03
       150  20 -8.067537E+05 -1.382972E+05 -2.244213E+04 -3.038938E+05  2.322417E+03 -2.706011E+03
       150  21 -7.636173E+05 -1.330151E+05 -1.240615E+04 -3.033034E+05  3.446326E+02 -1.468044E+03
       150  22 -7.219649E+05 -1.181252E+05 -4.816494E+03 -2.917912E+05  5.307445E+03 -3.525891E+03
       150  23 -7.296745E+05 -1.094139E+05 -2.589247E+03 -2.828423E+05  3.363813E+03 -2.315384E+03
       150  24 -7.218707E+05 -1.174706E+05 -1.544782E+03 -2.920358E+05  1.407275E+03 -1.069539E+03
       150  25 -6.095375E+05 -7.589788E+04  2.404399E+04 -2.609510E+05  6.327884E+03 -3.143042E+03
       150  26 -6.525896E+05 -8.053028E+04  1.726311E+04 -2.617886E+05  4.405348E+03 -1.924705E+03
       150  27 -6.801226E+05 -1.019260E+05  9.316403E+03 -2.807676E+05  2.469993E+03 -6.710076E+02
       151   1 -7.239953E+05 -1.183463E+05 -1.686430E+03 -2.925936E+05  2.578187E+02  5.334566E+02
       151   2 -6.964577E+05 -9.700985E+04  7.642548E+03 -2.737427E+05  1.376797E+03 -1.029518E+03
       151   3 -6.530163E+05 -9.176494E+04  1.660009E+04 -2.732135E+05  2.495996E+03 -2.592646E+03
       151   4 -7.218165E+05 -1.175518E+05 -1.256947E+03 -2.919889E+05 -7.956706E+02  1.384005E+02
       151   5 -7.297649E+05 -1.094859E+05 -9.346347E+02 -2.828352E+05  3.231525E+02 -1.424674E+03
       151   6 -7.218117E+05 -1.175121E+05 -9.838093E+02 -2.920041E+05  1.442160E+03 -2.987902E+03
       151   7 -7.196377E+05 -1.167573E+05 -8.274559E+02 -2.913841E+05 -1.849170E+03 -2.566594E+02
       151   8 -7.630711E+05 -1.219619E+05 -9.511885E+03 -2.919272E+05 -7.304276E+02 -1.819806E+03
       151   9 -7.906018E+05 -1.432587E+05 -1.856790E+04 -3.107926E+05  3.884620E+02 -3.383107E+03
       151  10 -7.239953E+05 -1.183463E+05 -1.686431E+03 -2.925936E+05  6.582045E-10 -1.746742E-10
       151  11 -6.964577E+05 -9.700986E+04  7.642542E+03 -2.737427E+05 -2.622543E-09 -7.667725E-10
       151  12 -6.530164E+05 -9.176495E+04  1.660006E+04 -2.732135E+05 -1.797185E-09 -2.575002E-10
       151  13 -7.218165E+05 -1.175518E+05 -1.256948E+03 -2.919889E+05  1.912671E-10 -4.238056E-10
       151  14 -7.297649E+05 -1.094859E+05 -9.346387E+02 -2.828352E+05  1.226541E-09 -4.682857E-10
       151  15 -7.218117E+05 -1.175121E+05 -9.838299E+02 -2.920041E+05 -7.673936E-12  6.290023E-10
       151  16 -7.196377E+05 -1.167573E+05 -8.274625E+02 -2.913841E+05 -8.584139E-10 -7.100971E-10
       151  17 -7.630711E+05 -1.219619E+05 -9.511892E+03 -2.919272E+05  1.654016E-09 -2.628217E-10
       151  18 -7.906018E+05 -1.432587E+05 -1.856792E+04 -3.107926E+05  2.457509E-09  1.695340E-09
       151  19 -7.239953E+05 -1.183463E+05 -1.686430E+03 -2.925936E+05 -2.578187E+02 -5.334566E+02
       151  20 -6.964577E+05 -9.700985E+04  7.642548E+03 -2.737427E+05 -1.376797E+03  1.029518E+03
       151  21 -6.530163E+05 -9.176494E+04  1.660009E+04 -2.732135E+05 -2.495996E+03  2.592646E+03
       151  22 -7.218165E+05 -1.175518E+05 -1.256947E+03 -2.919889E+05  7.956706E+02 -1.384005E+02
       151  23 -7.297649E+05 -1.094859E+05 -9.346347E+02 -2.828352E+05 -3.231525E+02  1.424674E+03
       151  24 -7.218117E+05 -1.175121E+05 -9.838093E+02 -2.920041E+05 -1.442160E+03  2.987902E+03
       151  25 -7.196377E+05 -1.167573E+05 -8.274559E+02 -2.913841E+05  1.849170E+03  2.566594E+02
       151  26 -7.630711E+05 -1.219619E+05 -9.511885E+03 -2.919272E+05  7.304276E+02  1.819806E+03
       151  27 -7.906018E+05 -1.432587E+05 -1.856790E+04 -3.107926E+05 -3.884620E+02  3.383107E+03
       152   1 -6.136286E+05 -7.695812E+04  2.686758E+04 -2.624919E+05  3.048273E+03 -3.539214E+03
       152   2 -5.862645E+05 -5.578520E+04  3.519650E+04 -2.437180E+05  4.562250E+03 -4.945669E+03
       152   3 -5.431723E+05 -5.071979E+04  4.283232E+04 -2.431245E+05  6.073041E+03 -6.341908E+03
       152   4 -7.218471E+05 -1.174785E+05 -1.125196E+03 -2.919874E+05  1.995902E+03 -3.933984E+03
       152   5 -7.297228E+05 -1.095048E+05 -1.741288E+03 -2.828670E+05  3.515773E+03 -5.338396E+03
       152   6 -7.218721E+05 -1.176400E+05 -3.055100E+03 -2.919278E+05  5.032407E+03 -6.732606E+03
       152   7 -8.300548E+05 -1.579984E+05 -2.911907E+04 -3.214784E+05  9.437265E+02 -4.328680E+03
       152   8 -8.731621E+05 -1.632235E+05 -3.868109E+04 -3.220082E+05  2.469553E+03 -5.731026E+03
       152   9 -9.005429E+05 -1.845590E+05 -4.894571E+04 -3.407190E+05  3.992088E+03 -7.123186E+03
       152  10 -6.136286E+05 -7.695813E+04  2.686754E+04 -2.624919E+05 -7.595378E-10  7.083777E-10
       152  11 -5.862646E+05 -5.578523E+04  3.519642E+04 -2.437179E+05 -4.409093E-10  1.817061E-11
       152  12 -5.431723E+05 -5.071984E+04  4.283218E+04 -2.431244E+05 -1.218402E-09 -5.885883E-10
       152  13 -7.218471E+05 -1.174786E+05 -1.125232E+03 -2.919874E+05  7.592599E-10  6.459142E-10
       152  14 -7.297228E+05 -1.095048E+05 -1.741365E+03 -2.828670E+05  9.516845E-10 -5.898648E-10
       152  15 -7.218722E+05 -1.176401E+05 -3.055233E+03 -2.919278E+05  3.860652E-10 -5.041454E-10
       152  16 -8.300548E+05 -1.579985E+05 -2.911911E+04 -3.214784E+05 -5.637083E-10  5.935421E-10
       152  17 -8.731621E+05 -1.632236E+05 -3.868116E+04 -3.220082E+05 -1.802159E-09 -1.037071E-09
       152  18 -9.005430E+05 -1.845591E+05 -4.894583E+04 -3.407190E+05  2.866310E-10 -2.113602E-10
       152  19 -6.136286E+05 -7.695812E+04  2.686758E+04 -2.624919E+05 -3.048273E+03  3.539214E+03
       152  20 -5.862645E+05 -5.578520E+04  3.519650E+04 -2.437180E+05 -4.562250E+03  4.945669E+03
       152  21 -5.431723E+05 -5.071979E+04  4.283232E+04 -2.431245E+05 -6.073041E+03  6.341908E+03
       152  22 -7.218471E+05 -1.174785E+05 -1.125196E+03 -2.919874E+05 -1.995902E+03  3.933984E+03
       152  23 -7.297228E+05 -1.095048E+05 -1.741288E+03 -2.828670E+05 -3.515773E+03  5.338396E+03
       152  24 -7.218721E+05 -1.176400E+05 -3.055100E+03 -2.919278E+05 -5.032407E+03  6.732606E+03
       152  25 -8.300548E+05 -1.579984E+05 -2.911907E+04 -3.214784E+05 -9.437265E+02  4.328680E+03
       152  26 -8.731621E+05 -1.632235E+05 -3.868109E+04 -3.220082E+05 -2.469553E+03  5.731026E+03
       152  27 -9.005429E+05 -1.845590E+05 -4.894571E+04 -3.407190E+05 -3.992088E+03  7.123186E+03
       153   1 -5.042088E+05 -3.604326E+04  5.218120E+04 -2.328581E+05  7.038396E+03 -7.126471E+03
       153   2 -4.771077E+05 -1.475169E+04  5.786884E+04 -2.139594E+05  1.123146E+04 -7.494788E+03
       153   3 -4.355788E+05 -1.135855E+04  6.032711E+04 -2.125417E+05  1.540342E+04 -7.803911E+03
       153   4 -7.220739E+05 -1.173738E+05 -3.992180E+03 -2.920245E+05  5.987648E+03 -7.521109E+03
       153   5 -7.294174E+05 -1.093464E+05 -7.114313E+03 -2.829376E+05  1.021501E+04 -7.876821E+03
       153   6 -7.223412E+05 -1.192250E+05 -1.349385E+04 -2.913320E+05  1.442107E+04 -8.173407E+03
       153   7 -9.398907E+05 -1.987006E+05 -6.016887E+04 -3.511717E+05  4.937314E+03 -7.915593E+03
       153   8 -9.816636E+05 -2.039365E+05 -7.210231E+04 -3.518900E+05  9.199025E+03 -8.258683E+03
       153   9 -1.009023E+06 -2.270859E+05 -8.732149E+04 -3.700893E+05  1.343922E+04 -8.542715E+03
       153  10 -5.042088E+05 -3.604333E+04  5.218101E+04 -2.328580E+05  3.537825E-10 -4.051640E-10
       153  11 -4.771079E+05 -1.475178E+04  5.786850E+04 -2.139594E+05  6.837409E-10  1.352999E-10
       153  12 -4.355791E+05 -1.135868E+04  6.032655E+04 -2.125416E+05  5.830636E-10 -7.572909E-10
       153  13 -7.220740E+05 -1.173739E+05 -3.992353E+03 -2.920245E+05 -1.121635E-09  7.371445E-11
       153  14 -7.294175E+05 -1.093465E+05 -7.114625E+03 -2.829375E+05  1.054094E-09  6.654123E-10
       153  15 -7.223414E+05 -1.192251E+05 -1.349437E+04 -2.913319E+05  2.727943E-10 -1.922464E-09
       153  16 -9.398907E+05 -1.987007E+05 -6.016903E+04 -3.511717E+05  2.265483E-10  5.462332E-10
       153  17 -9.816638E+05 -2.039366E+05 -7.210260E+04 -3.518899E+05 -5.254561E-10 -3.083315E-10
       153  18 -1.009023E+06 -2.270860E+05 -8.732197E+04 -3.700892E+05  6.341546E-10 -1.208843E-10
       153  19 -5.042088E+05 -3.604326E+04  5.218120E+04 -2.328581E+05 -7.038396E+03  7.126471E+03
       153  20 -4.771077E+05 -1.475169E+04  5.786884E+04 -2.139594E+05 -1.123146E+04  7.494788E+03
       153  21 -4.355788E+05 -1.135855E+04  6.032711E+04 -2.125417E+05 -1.540342E+04  7.803911E+03
       153  22 -7.220739E+05 -1.173738E+05 -3.992180E+03 -2.920245E+05 -5.987648E+03  7.521109E+03
       153  23 -7.294174E+05 -1.093464E+05 -7.114313E+03 -2.829376E+05 -1.021501E+04  7.876821E+03
       153  24 -7.223412E+05 -1.192250E+05 -1.349385E+04 -2.913320E+05 -1.442107E+04  8.173407E+03
       153  25 -9.398907E+05 -1.987006E+05 -6.016887E+04 -3.511717E+05 -4.937314E+03  7.915593E+03
       153  26 -9.816636E+05 -2.039365E+05 -7.210231E+04 -3.518900E+05 -9.199025E+03  8.258683E+03
       153  27 -1.009023E+06 -2.270859E+05 -8.732149E+04 -3.700893E+05 -1.343922E+04  8.542715E+03
       154   1 -3.960325E+05  3.148161E+03  6.639873E+04 -2.065346E+05  1.852431E+04 -7.865166E+03
       154   2 -3.693048E+05  2.878343E+04  6.164285E+04 -1.834715E+05  3.454548E+04 -3.665662E+03
       154   3 -3.382660E+05  1.486669E+04  3.883973E+04 -1.720393E+05  5.026932E+04  1.330564E+03
       154   4 -7.235522E+05 -1.165435E+05 -1.747531E+04 -2.928595E+05  1.731031E+04 -8.321831E+03
       154   5 -7.271413E+05 -1.071425E+05 -3.085249E+04 -2.831260E+05  3.380514E+04 -3.944853E+03
       154   6 -7.265209E+05 -1.373984E+05 -6.266106E+04 -2.850241E+05  5.000171E+04  1.228460E+03
       154   7 -1.050969E+06 -2.362301E+05 -1.013584E+05 -3.791441E+05  1.609701E+04 -8.778250E+03
       154   8 -1.084854E+06 -2.430597E+05 -1.233587E+05 -3.827283E+05  3.306526E+04 -4.223866E+03
       154   9 -1.114629E+06 -2.896502E+05 -1.641747E+05 -3.979436E+05  4.973428E+04  1.126428E+03
       154  10 -3.960329E+05  3.148003E+03  6.639797E+04 -2.065344E+05  6.441388E-10 -6.032292E-10
       154  11 -3.693061E+05  2.878310E+04  6.164058E+04 -1.834714E+05  1.481732E-09 -1.362842E-10
       154  12 -3.382687E+05  1.486601E+04  3.883498E+04 -1.720394E+05 -1.084548E-09  7.552296E-11
       154  13 -7.235525E+05 -1.165436E+05 -1.747600E+04 -2.928594E+05  7.801745E-10 -1.282819E-09
       154  14 -7.271425E+05 -1.071428E+05 -3.085467E+04 -2.831259E+05  3.240140E-09 -3.329450E-10
       154  15 -7.265236E+05 -1.373991E+05 -6.266576E+04 -2.850241E+05 -7.116887E-10  1.955002E-09
       154  16 -1.050969E+06 -2.362303E+05 -1.013590E+05 -3.791440E+05  1.703891E-09 -1.205620E-10
       154  17 -1.084855E+06 -2.430600E+05 -1.233608E+05 -3.827282E+05  2.676828E-09  5.373440E-10
       154  18 -1.114632E+06 -2.896508E+05 -1.641793E+05 -3.979436E+05  2.881212E-09  8.687530E-10
       154  19 -3.960325E+05  3.148161E+03  6.639873E+04 -2.065346E+05 -1.852431E+04  7.865166E+03
       154  20 -3.693048E+05  2.878343E+04  6.164285E+04 -1.834715E+05 -3.454548E+04  3.665662E+03
       154  21 -3.382660E+05  1.486669E+04  3.883973E+04 -1.720393E+05 -5.026932E+04 -1.330564E+03
       154  22 -7.235522E+05 -1.165435E+05 -1.747531E+04 -2.928595E+05 -1.731031E+04  8.321831E+03
       154  23 -7.271413E+05 -1.071425E+05 -3.085249E+04 -2.831260E+05 -3.380514E+04  3.944853E+03
       154  24 -7.265209E+05 -1.373984E+05 -6.266106E+04 -2.850241E+05 -5.000171E+04 -1.228460E+03
       154  25 -1.050969E+06 -2.362301E+05 -1.013584E+05 -3.791441E+05 -1.609701E+04  8.778250E+03
       154  26 -1.084854E+06 -2.430597E+05 -1.233587E+05 -3.827283E+05 -3.306526E+04  4.223866E+03
       154  27 -1.114629E+06 -2.896502E+05 -1.641747E+05 -3.979436E+05 -4.973428E+04 -1.126428E+03
       155   1 -2.829426E+05  3.035468E+04  3.295776E+04 -2.111159E+05  6.585537E+04  4.169397E+03
       155   2 -2.615332E+05  1.086399E+05 -1.185028E+04 -1.373121E+05  1.294732E+05  2.762653E+04
       155   3 -3.332575E+05 -9.171203E+04 -1.762619E+05 -1.128905E+04  1.882075E+05  6.405971E+04
       155   4 -7.366931E+05 -1.076161E+05 -7.764163E+04 -3.021847E+05  6.162858E+04  2.581377E+03
       155   5 -7.057868E+05 -8.318523E+04 -1.311189E+05 -2.847176E+05  1.330616E+05  2.897076E+04
       155   6 -7.696493E+05 -3.390755E+05 -3.104655E+05 -2.150114E+05  1.996090E+05  6.832593E+04
       155   7 -1.190242E+06 -2.455885E+05 -1.882554E+05 -3.932009E+05  5.740517E+04  9.940774E+02
       155   8 -1.149843E+06 -2.749779E+05 -2.504040E+05 -4.320203E+05  1.366471E+05  3.031354E+04
       155   9 -1.205834E+06 -5.863399E+05 -4.446849E+05 -4.185784E+05  2.110015E+05  7.258496E+04
       155  10 -2.829473E+05  3.035350E+04  3.294958E+04 -2.111161E+05 -3.571992E-10 -2.534015E-11
       155  11 -2.615514E+05  1.086345E+05 -1.188324E+04 -1.373150E+05 -1.158797E-10  1.494044E-09
       155  12 -3.332967E+05 -9.172595E+04 -1.763362E+05 -1.129876E+04  1.483972E-09  8.137870E-10
       155  13 -7.366972E+05 -1.076171E+05 -7.764879E+04 -3.021848E+05 -8.674930E-10 -2.373732E-09
       155  14 -7.058061E+05 -8.319089E+04 -1.311538E+05 -2.847207E+05 -1.034426E-09  9.370384E-09
       155  15 -7.696934E+05 -3.390912E+05 -3.105493E+05 -2.150223E+05 -2.249565E-10  2.047890E-09
       155  16 -1.190245E+06 -2.455894E+05 -1.882617E+05 -3.932009E+05  2.233821E-09  1.176053E-09
       155  17 -1.149864E+06 -2.749840E+05 -2.504409E+05 -4.320236E+05 -1.076241E-09  3.353369E-09
       155  18 -1.205883E+06 -5.863575E+05 -4.447787E+05 -4.185907E+05  5.621815E-10  4.655448E-10
       155  19 -2.829426E+05  3.035468E+04  3.295776E+04 -2.111159E+05 -6.585537E+04 -4.169397E+03
       155  20 -2.615332E+05  1.086399E+05 -1.185028E+04 -1.373121E+05 -1.294732E+05 -2.762653E+04
       155  21 -3.332575E+05 -9.171203E+04 -1.762619E+05 -1.128905E+04 -1.882075E+05 -6.405971E+04
       155  22 -7.366931E+05 -1.076161E+05 -7.764163E+04 -3.021847E+05 -6.162858E+04 -2.581377E+03
       155  23 -7.057868E+05 -8.318523E+04 -1.311189E+05 -2.847176E+05 -1.330616E+05 -2.897076E+04
       155  24 -7.696493E+05 -3.390755E+05 -3.104655E+05 -2.150114E+05 -1.996090E+05 -6.832593E+04
       155  25 -1.190242E+06 -2.455885E+05 -1.882554E+05 -3.932009E+05 -5.740517E+04 -9.940774E+02
       155  26 -1.149843E+06 -2.749779E+05 -2.504040E+05 -4.320203E+05 -1.366471E+05 -3.031354E+04
       155  27 -1.205834E+06 -5.863399E+05 -4.446849E+05 -4.185784E+05 -2.110015E+05 -7.258496E+04
       156   1  2.485868E+05  2.167787E+06  2.455407E+05 -6.145783E+04  1.101769E+04  1.081862E+05
       156   2  1.886015E+05  2.140990E+06  1.762495E+05 -3.855184E+04  3.807249E+04  5.842008E+04
       156   3  1.700925E+05  2.131060E+06  1.496812E+05 -1.838246E+04  4.773916E+04  8.643188E+03
       156   4  6.346916E+04  1.416020E+06  7.064363E+04 -2.030093E+04  1.108569E+04  4.544944E+04
       156   5  1.493624E+04  1.410249E+06  3.742493E+04 -1.896879E+04  3.811284E+04  2.624818E+04
       156   6  2.609074E+03  1.416068E+06  2.576595E+04 -2.037172E+04  4.774596E+04  7.033045E+03
       156   7 -1.216799E+05  6.647843E+05 -1.042759E+05  2.080607E+04  1.114545E+04 -1.721215E+04
       156   8 -1.587583E+05  6.800253E+05 -1.014195E+05  5.908614E+02  3.815120E+04 -5.886883E+03
       156   9 -1.649019E+05  7.015752E+05 -9.816707E+04 -2.235848E+04  4.775278E+04  5.424691E+03
       156  10  2.485835E+05  2.167775E+06  2.455185E+05 -6.145879E+04  1.445076E-09  4.456996E-09
       156  11  1.885991E+05  2.140986E+06  1.762404E+05 -3.855363E+04  3.036964E-09 -7.997466E-10
       156  12  1.700901E+05  2.131059E+06  1.496768E+05 -1.838279E+04 -5.796369E-10 -6.601304E-09
       156  13  6.346847E+04  1.416018E+06  7.063953E+04 -2.030133E+04 -2.447489E-10  1.314016E-10
       156  14  1.493449E+04  1.410248E+06  3.742091E+04 -1.896960E+04 -1.311939E-10  6.763219E-12
       156  15  2.606611E+03  1.416067E+06  2.576157E+04 -2.037200E+04 -1.083836E-09  2.910258E-09
       156  16 -1.216801E+05  6.647840E+05 -1.042767E+05  2.080622E+04 -7.365980E-10 -4.855579E-09
       156  17 -1.587599E+05  6.800249E+05 -1.014223E+05  5.910423E+02 -7.155245E-10  1.145368E-09
       156  18 -1.649043E+05  7.015745E+05 -9.817142E+04 -2.235869E+04 -8.067346E-10  5.731623E-09
       156  19  2.485868E+05  2.167787E+06  2.455407E+05 -6.145783E+04 -1.101769E+04 -1.081862E+05
       156  20  1.886015E+05  2.140990E+06  1.762495E+05 -3.855184E+04 -3.807249E+04 -5.842008E+04
       156  21  1.700925E+05  2.131060E+06  1.496812E+05 -1.838246E+04 -4.773916E+04 -8.643188E+03
       156  22  6.346916E+04  1.416020E+06  7.064363E+04 -2.030093E+04 -1.108569E+04 -4.544944E+04
       156  23  1.493624E+04  1.410249E+06  3.742493E+04 -1.896879E+04 -3.811284E+04 -2.624818E+04
       156  24  2.609074E+03  1.416068E+06  2.576595E+04 -2.037172E+04 -4.774596E+04 -7.033045E+03
       156  25 -1.216799E+05  6.647843E+05 -1.042759E+05  2.080607E+04 -1.114545E+04  1.721215E+04
       156  26 -1.587583E+05  6.800253E+05 -1.014195E+05  5.908614E+02 -3.815120E+04  5.886883E+03
       156  27 -1.649019E+05  7.015752E+05 -9.816707E+04 -2.235848E+04 -4.775278E+04 -5.424691E+03
       157   1  1.673639E+05  2.116694E+06  1.443820E+05 -2.371098E+04  4.795502E+04  6.529238E+03
       157   2  1.613418E+05  2.096728E+06  1.407042E+05 -1.889515E+04  4.843094E+04 -1.124661E+04
       157   3  1.628514E+05  2.080985E+06  1.504652E+05 -1.795737E+04  4.596878E+04 -2.902663E+04
       157   4  3.038254E+03  1.414232E+06  2.383207E+04 -2.061886E+04  4.796424E+04  3.150654E+03
       157   5  1.692724E+03  1.412569E+06  2.523574E+04 -1.867748E+04  4.843326E+04 -9.450908E+03
       157   6  6.987240E+03  1.414234E+06  3.650049E+04 -2.061432E+04  4.596274E+04 -2.205710E+04
       157   7 -1.613137E+05  7.122539E+05 -9.673451E+04 -1.753017E+04  4.797343E+04 -2.242400E+02
       157   8 -1.579810E+05  7.288687E+05 -9.024764E+04 -1.845989E+04  4.843558E+04 -7.657114E+03
       157   9 -1.489004E+05  7.479197E+05 -7.747888E+04 -2.326817E+04  4.595663E+04 -1.509478E+04
       157  10  1.673614E+05  2.116693E+06  1.443776E+05 -2.371123E+04 -8.307898E-10  3.775638E-10
       157  11  1.613393E+05  2.096728E+06  1.406995E+05 -1.889471E+04  1.232694E-09 -1.389632E-09
       157  12  1.628489E+05  2.080983E+06  1.504597E+05 -1.795629E+04 -3.428362E-09 -3.729813E-09
       157  13  3.035780E+03  1.414232E+06  2.382772E+04 -2.061898E+04  2.738008E-09  8.112877E-12
       157  14  1.690180E+03  1.412568E+06  2.523117E+04 -1.867711E+04  3.428240E-10  4.878604E-12
       157  15  6.984840E+03  1.414233E+06  3.649561E+04 -2.061350E+04 -1.766098E-09  3.982191E-09
       157  16 -1.613161E+05  7.122533E+05 -9.673884E+04 -1.753016E+04 -9.379991E-10 -1.050198E-09
       157  17 -1.579835E+05  7.288680E+05 -9.025216E+04 -1.845959E+04  3.380955E-09  1.592177E-09
       157  18 -1.489028E+05  7.479189E+05 -7.748327E+04 -2.326761E+04  6.058496E-10  2.526744E-09
       157  19  1.673639E+05  2.116694E+06  1.443820E+05 -2.371098E+04 -4.795502E+04 -6.529238E+03
       157  20  1.613418E+05  2.096728E+06  1.407042E+05 -1.889515E+04 -4.843094E+04  1.124661E+04
       157  21  1.628514E+05  2.080985E+06  1.504652E+05 -1.795737E+04 -4.596878E+04  2.902663E+04
       157  22  3.038254E+03  1.414232E+06  2.383207E+04 -2.061886E+04 -4.796424E+04 -3.150654E+03
       157  23  1.692724E+03  1.412569E+06  2.523574E+04 -1.867748E+04 -4.843326E+04  9.450908E+03
       157  24  6.987240E+03  1.414234E+06  3.650049E+04 -2.061432E+04 -4.596274E+04  2.205710E+04
       157  25 -1.613137E+05  7.122539E+05 -9.673451E+04 -1.753017E+04 -4.797343E+04  2.242400E+02
       157  26 -1.579810E+05  7.288687E+05 -9.024764E+04 -1.845989E+04 -4.843558E+04  7.657114E+03
       157  27 -1.489004E+05  7.479197E+05 -7.747888E+04 -2.326817E+04 -4.595663E+04  1.509478E+04
       158   1  1.593618E+05  2.075190E+06  1.587548E+05 -2.846389E+04  4.439557E+04 -3.370908E+04
       158   2  1.850808E+05  2.042930E+06  1.990329E+05  2.320581E+04  3.430309E+04 -9.942905E+04
       158   3  2.969401E+05  2.040743E+06  3.035438E+05  7.015781E+04  1.003517E+04 -1.651774E+05
       158   4  5.788362E+03  1.419232E+06  4.566966E+04 -2.083161E+04  4.439065E+04 -2.822718E+04
       158   5  3.420248E+04  1.406301E+06  7.916399E+04 -1.836105E+04  3.426107E+04 -6.903109E+04
       158   6  1.444772E+05  1.419145E+06  1.596459E+05 -2.060868E+04  9.959769E+03 -1.098621E+05
       158   7 -1.478079E+05  7.636947E+05 -6.743010E+04 -1.320745E+04  4.438586E+04 -2.275086E+04
       158   8 -1.166922E+05  7.700685E+05 -4.071829E+04 -5.988420E+04  3.421497E+04 -3.866342E+04
       158   9 -7.979922E+03  7.979260E+05  1.573820E+04 -1.112838E+05  9.868212E+03 -5.460154E+04
       158  10  1.593593E+05  2.075189E+06  1.587490E+05 -2.846269E+04 -1.738782E-09  2.451752E-09
       158  11  1.850769E+05  2.042919E+06  1.990122E+05  2.320855E+04  1.496788E-09 -9.397096E-10
       158  12  2.969327E+05  2.040714E+06  3.034925E+05  7.015914E+04  1.217573E-09 -4.898686E-09
       158  13  5.786031E+03  1.419231E+06  4.566447E+04 -2.083060E+04  3.141410E-12  1.590109E-10
       158  14  3.419995E+04  1.406296E+06  7.915284E+04 -1.835914E+04  1.139139E-09 -7.447172E-12
       158  15  1.444739E+05  1.419132E+06  1.596231E+05 -2.060780E+04 -1.028682E-09  4.760777E-09
       158  16 -1.478101E+05  7.636936E+05 -6.743477E+04 -1.320663E+04  1.449379E-09 -3.116252E-09
       158  17 -1.166939E+05  7.700666E+05 -4.072330E+04 -5.988314E+04  1.475392E-09  1.110122E-09
       158  18 -7.980826E+03  7.979228E+05  1.573242E+04 -1.112833E+05 -2.956279E-10  3.576445E-09
       158  19  1.593618E+05  2.075190E+06  1.587548E+05 -2.846389E+04 -4.439557E+04  3.370908E+04
       158  20  1.850808E+05  2.042930E+06  1.990329E+05  2.320581E+04 -3.430309E+04  9.942905E+04
       158  21  2.969401E+05  2.040743E+06  3.035438E+05  7.015781E+04 -1.003517E+04  1.651774E+05
       158  22  5.788362E+03  1.419232E+06  4.566966E+04 -2.083161E+04 -4.439065E+04  2.822718E+04
       158  23  3.420248E+04  1.406301E+06  7.916399E+04 -1.836105E+04 -3.426107E+04  6.903109E+04
       158  24  1.444772E+05  1.419145E+06  1.596459E+05 -2.060868E+04 -9.959769E+03  1.098621E+05
       158  25 -1.478079E+05  7.636947E+05 -6.743010E+04 -1.320745E+04 -4.438586E+04  2.275086E+04
       158  26 -1.166922E+05  7.700685E+05 -4.071829E+04 -5.988420E+04 -3.421497E+04  3.866342E+04
       158  27 -7.979922E+03  7.979260E+05  1.573820E+04 -1.112838E+05 -9.868212E+03  5.460154E+04
       159   1 -8.552837E+04 -1.180006E+05 -6.326865E+04  1.045220E+04  1.452525E+05  1.501534E+04
       159   2  5.337709E+03 -3.100289E+05 -1.618065E+05 -7.736853E+03  1.051697E+05  4.483522E+04
       159   3  1.602205E+05 -2.718393E+05 -1.764455E+05 -9.638909E+04  6.513239E+04  4.274217E+04
       159   4  1.216063E+06  2.055705E+05  2.556392E+05 -6.623982E+04  1.752160E+05  1.505072E+04
       159   5  1.182424E+06 -1.978474E+04  1.134042E+05 -3.084175E+04  1.143434E+05  4.483763E+04
       159   6  1.216255E+06 -1.156343E+04  6.936388E+04 -6.589132E+04  5.352642E+04  4.273152E+04
       159   7  2.519211E+06  5.290392E+05  5.744298E+05 -1.430935E+05  2.052419E+05  1.507868E+04
       159   8  2.360787E+06  2.703634E+05  3.885215E+05 -5.399113E+04  1.235343E+05  4.483935E+04
       159   9  2.273319E+06  2.486373E+05  3.150991E+05 -3.534148E+04  4.190079E+04  4.271974E+04
       159  10 -8.555109E+04 -1.180065E+05 -6.330872E+04  1.045044E+04  2.190443E-10  7.378069E-11
       159  11  5.325292E+03 -3.100340E+05 -1.618311E+05 -7.740651E+03  1.157785E-09  2.233063E-11
       159  12  1.602154E+05 -2.718424E+05 -1.764569E+05 -9.639133E+04  4.029041E-10 -4.328605E-11
       159  13  1.216030E+06  2.055620E+05  2.555812E+05 -6.624195E+04 -1.348095E-12  4.454503E-11
       159  14  1.182409E+06 -1.979040E+04  1.133759E+05 -3.084588E+04 -7.995249E-11 -9.547396E-12
       159  15  1.216251E+06 -1.156616E+04  6.935507E+04 -6.589316E+04 -2.763269E-10 -1.895414E-10
       159  16  2.519166E+06  5.290277E+05  5.743505E+05 -1.430960E+05 -1.298097E-10 -4.448268E-11
       159  17  2.360770E+06  2.703572E+05  3.884891E+05 -5.399559E+04 -1.763734E-09 -1.329868E-10
       159  18  2.273317E+06  2.486348E+05  3.150923E+05 -3.534292E+04 -5.593039E-10 -2.814495E-10
       159  19 -8.552837E+04 -1.180006E+05 -6.326865E+04  1.045220E+04 -1.452525E+05 -1.501534E+04
       159  20  5.337709E+03 -3.100289E+05 -1.618065E+05 -7.736853E+03 -1.051697E+05 -4.483522E+04
       159  21  1.602205E+05 -2.718393E+05 -1.764455E+05 -9.638909E+04 -6.513239E+04 -4.274217E+04
       159  22  1.216063E+06  2.055705E+05  2.556392E+05 -6.623982E+04 -1.752160E+05 -1.505072E+04
       159  23  1.182424E+06 -1.978474E+04  1.134042E+05 -3.084175E+04 -1.143434E+05 -4.483763E+04
       159  24  1.216255E+06 -1.156343E+04  6.936388E+04 -6.589132E+04 -5.352642E+04 -4.273152E+04
       159  25  2.519211E+06  5.290392E+05  5.744298E+05 -1.430935E+05 -2.052419E+05 -1.507868E+04
       159  26  2.360787E+06  2.703634E+05  3.885215E+05 -5.399113E+04 -1.235343E+05 -4.483935E+04
       159  27  2.273319E+06  2.486373E+05  3.150991E+05 -3.534148E+04 -4.190079E+04 -4.271974E+04
       160   1  2.730026E+05 -2.122319E+05 -1.612768E+05 -6.043345E+04  4.482293E+04  3.541817E+04
       160   2  3.883997E+05 -2.018155E+05 -1.598401E+05 -2.981884E+04  3.107844E+04  3.182152E+04
       160   3  5.110438E+05 -1.715856E+05 -1.443966E+05 -6.836242E+04  1.732512E+04  2.651181E+04
       160   4  1.202947E+06  1.707849E+04  5.608857E+04 -6.570230E+04  4.309379E+04  3.541331E+04
       160   5  1.199270E+06 -1.954034E+03  2.928027E+04 -3.112359E+04  2.821836E+04  3.181822E+04
       160   6  1.203012E+06 -9.917583E+02  1.724776E+04 -6.569672E+04  1.333671E+04  2.651093E+04
       160   7  2.133687E+06  2.463278E+05  2.733952E+05 -7.097914E+04  4.136203E+04  3.540849E+04
       160   8  2.010747E+06  1.978610E+05  2.183561E+05 -3.243006E+04  2.535455E+04  3.181493E+04
       160   9  1.895421E+06  1.695683E+05  1.788597E+05 -6.302797E+04  9.343877E+03  2.651003E+04
       160  10  2.730002E+05 -2.122338E+05 -1.612829E+05 -6.043473E+04 -7.315348E-10 -1.606930E-10
       160  11  3.883984E+05 -2.018168E+05 -1.598438E+05 -2.981963E+04  2.445575E-10  1.684336E-10
       160  12  5.110433E+05 -1.715865E+05 -1.443985E+05 -6.836279E+04  9.554820E-11  1.586453E-10
       160  13  1.202945E+06  1.707665E+04  5.608273E+04 -6.570353E+04  3.814738E-11 -1.738703E-10
       160  14  1.199269E+06 -1.955335E+03  2.927687E+04 -3.112431E+04 -1.382346E-09  5.540786E-11
       160  15  1.203012E+06 -9.925611E+02  1.724610E+04 -6.569700E+04 -2.584390E-10  4.051228E-11
       160  16  2.133685E+06  2.463260E+05  2.733896E+05 -7.098032E+04 -6.030113E-11 -1.708131E-10
       160  17  2.010746E+06  1.978597E+05  2.183530E+05 -3.243071E+04 -2.832136E-10 -4.526400E-11
       160  18  1.895421E+06  1.695675E+05  1.788582E+05 -6.302817E+04 -8.007037E-10 -1.707999E-10
       160  19  2.730026E+05 -2.122319E+05 -1.612768E+05 -6.043345E+04 -4.482293E+04 -3.541817E+04
       160  20  3.883997E+05 -2.018155E+05 -1.598401E+05 -2.981884E+04 -3.107844E+04 -3.182152E+04
       160  21  5.110438E+05 -1.715856E+05 -1.443966E+05 -6.836242E+04 -1.732512E+04 -2.651181E+04
       160  22  1.202947E+06  1.707849E+04  5.608857E+04 -6.570230E+04 -4.309379E+04 -3.541331E+04
       160  23  1.199270E+06 -1.954034E+03  2.928027E+04 -3.112359E+04 -2.821836E+04 -3.181822E+04
       160  24  1.203012E+06 -9.917583E+02  1.724776E+04 -6.569672E+04 -1.333671E+04 -2.651093E+04
       160  25  2.133687E+06  2.463278E+05  2.733952E+05 -7.097914E+04 -4.136203E+04 -3.540849E+04
       160  26  2.010747E+06  1.978610E+05  2.183561E+05 -3.243006E+04 -2.535455E+04 -3.181493E+04
       160  27  1.895421E+06  1.695683E+05  1.788597E+05 -6.302797E+04 -9.343877E+03 -2.651003E+04
       161   1  6.326253E+05 -1.387890E+05 -1.189714E+05 -6.504833E+04  1.406182E+04  2.310701E+04
       161   2  7.490077E+05 -1.116089E+05 -9.789600E+04 -3.130396E+04  1.036217E+04  1.777714E+04
       161   3  8.663727E+05 -8.266401E+04 -7.396334E+04 -6.550369E+04  6.657659E+03  1.237602E+04
       161   4  1.201619E+06  1.368173E+03  1.338388E+04 -6.542851E+04  1.063351E+04  2.310705E+04
       161   5  1.201144E+06 -1.953717E+02  7.515020E+03 -3.145841E+04  6.884237E+03  1.777842E+04
       161   6  1.201649E+06  1.480449E+01  4.536712E+03 -6.542933E+04  3.130785E+03  1.237860E+04
       161   7  1.770911E+06  1.415025E+05  1.457174E+05 -6.580898E+04  7.202087E+03  2.310710E+04
       161   8  1.653469E+06  1.112037E+05  1.129123E+05 -3.161293E+04  3.403791E+03  1.777969E+04
       161   9  1.537028E+06  8.268565E+04  8.302916E+04 -6.535490E+04 -3.979783E+02  1.238118E+04
       161  10  6.326250E+05 -1.387896E+05 -1.189728E+05 -6.504860E+04  7.603066E-10  1.119033E-10
       161  11  7.490075E+05 -1.116093E+05 -9.789679E+04 -3.130411E+04  2.552988E-11 -4.643526E-11
       161  12  8.663726E+05 -8.266419E+04 -7.396372E+04 -6.550376E+04 -1.066870E-09  1.709853E-11
       161  13  1.201619E+06  1.367569E+03  1.338266E+04 -6.542870E+04 -5.661481E-10 -4.278151E-11
       161  14  1.201144E+06 -1.957240E+02  7.514337E+03 -3.145851E+04  4.680199E-10  8.117828E-12
       161  15  1.201648E+06  1.463723E+01  4.536405E+03 -6.542936E+04  9.396316E-11  1.569099E-11
       161  16  1.770911E+06  1.415019E+05  1.457163E+05 -6.580912E+04 -6.037947E-10 -3.990618E-11
       161  17  1.653469E+06  1.112034E+05  1.129116E+05 -3.161298E+04  5.870988E-10  1.137885E-10
       161  18  1.537028E+06  8.268549E+04  8.302887E+04 -6.535489E+04  8.637462E-10 -1.565476E-11
       161  19  6.326253E+05 -1.387890E+05 -1.189714E+05 -6.504833E+04 -1.406182E+04 -2.310701E+04
       161  20  7.490077E+05 -1.116089E+05 -9.789600E+04 -3.130396E+04 -1.036217E+04 -1.777714E+04
       161  21  8.663727E+05 -8.266401E+04 -7.396334E+04 -6.550369E+04 -6.657659E+03 -1.237602E+04
       161  22  1.201619E+06  1.368173E+03  1.338388E+04 -6.542851E+04 -1.063351E+04 -2.310705E+04
       161  23  1.201144E+06 -1.953717E+02  7.515020E+03 -3.145841E+04 -6.884237E+03 -1.777842E+04
       161  24  1.201649E+06  1.480449E+01  4.536712E+03 -6.542933E+04 -3.130785E+03 -1.237860E+04
       161  25  1.770911E+06  1.415025E+05  1.457174E+05 -6.580898E+04 -7.202087E+03 -2.310710E+04
       161  26  1.653469E+06  1.112037E+05  1.129123E+05 -3.161293E+04 -3.403791E+03 -1.777969E+04
       161  27  1.537028E+06  8.268565E+04  8.302916E+04 -6.535490E+04  3.979783E+02 -1.238118E+04
       162   1  9.875779E+05 -5.243741E+04 -4.591111E+04 -6.521027E+04  5.883883E+03  9.225439E+03
       162   2  1.103489E+06 -2.410123E+04 -2.037671E+04 -3.156758E+04  4.665886E+03  3.847784E+03
       162   3  1.219498E+06  4.490252E+03  5.981171E+03 -6.533032E+04  3.446738E+03 -1.529455E+03
       162   4  1.201466E+06  1.912610E+02  3.601948E+03 -6.530987E+04  2.394433E+03  9.228477E+03
       162   5  1.201428E+06  2.715586E+01  2.451475E+03 -3.160753E+04  1.176041E+03  3.851064E+03
       162   6  1.201472E+06  1.187729E+02  2.124704E+03 -6.530997E+04 -4.327910E+01 -1.525883E+03
       162   7  1.415397E+06  5.281673E+04  5.311199E+04 -6.540949E+04 -1.096208E+03  9.231515E+03
       162   8  1.299376E+06  2.415487E+04  2.527906E+04 -3.164749E+04 -2.314350E+03  3.854344E+03
       162   9  1.183448E+06 -4.252721E+03 -1.731735E+03 -6.528962E+04 -3.533196E+03 -1.522311E+03
       162  10  9.875779E+05 -5.243751E+04 -4.591133E+04 -6.521032E+04 -7.036482E-10  2.088812E-10
       162  11  1.103489E+06 -2.410125E+04 -2.037678E+04 -3.156759E+04 -1.420299E-09  2.020960E-11
       162  12  1.219498E+06  4.490246E+03  5.981144E+03 -6.533032E+04 -1.430162E-09 -1.812423E-10
       162  13  1.201466E+06  1.911680E+02  3.601777E+03 -6.530989E+04 -7.368196E-10 -5.856587E-11
       162  14  1.201428E+06  2.713956E+01  2.451444E+03 -3.160753E+04  1.177237E-09  1.320663E-10
       162  15  1.201472E+06  1.187704E+02  2.124700E+03 -6.530997E+04 -2.700721E-10  8.450922E-11
       162  16  1.415397E+06  5.281664E+04  5.311183E+04 -6.540948E+04  8.128377E-10 -2.731164E-10
       162  17  1.299376E+06  2.415485E+04  2.527902E+04 -3.164748E+04  8.913307E-10 -3.012353E-10
       162  18  1.183447E+06 -4.252727E+03 -1.731763E+03 -6.528962E+04  3.784536E-10 -1.055899E-11
       162  19  9.875779E+05 -5.243741E+04 -4.591111E+04 -6.521027E+04 -5.883883E+03 -9.225439E+03
       162  20  1.103489E+06 -2.410123E+04 -2.037671E+04 -3.156758E+04 -4.665886E+03 -3.847784E+03
       162  21  1.219498E+06  4.490252E+03  5.981171E+03 -6.533032E+04 -3.446738E+03  1.529455E+03
       162  22  1.201466E+06  1.912610E+02  3.601948E+03 -6.530987E+04 -2.394433E+03 -9.228477E+03
       162  23  1.201428E+06  2.715586E+01  2.451475E+03 -3.160753E+04 -1.176041E+03 -3.851064E+03
       162  24  1.201472E+06  1.187729E+02  2.124704E+03 -6.530997E+04  4.327910E+01  1.525883E+03
       162  25  1.415397E+06  5.281673E+04  5.311199E+04 -6.540949E+04  1.096208E+03 -9.231515E+03
       162  26  1.299376E+06  2.415487E+04  2.527906E+04 -3.164749E+04  2.314350E+03 -3.854344E+03
       162  27  1.183448E+06 -4.252721E+03 -1.731735E+03 -6.528962E+04  3.533196E+03  1.522311E+03
       163   1  1.340588E+06  3.445043E+04  3.496978E+04 -6.542109E+04  3.053005E+03 -4.659569E+03
       163   2  1.456752E+06  6.290008E+04  6.239465E+04 -3.167367E+04  1.622765E+03 -1.004380E+04
       163   3  1.573100E+06  9.163715E+04  9.079870E+04 -6.548487E+04  1.946336E+02 -1.543685E+04
       163   4  1.201488E+06  1.175819E+02  2.208562E+03 -6.534453E+04 -4.398179E+02 -4.656136E+03
       163   5  1.201394E+06  2.915400E+00  2.886925E+03 -3.156432E+04 -1.875583E+03 -1.004108E+04
       163   6  1.201472E+06  1.776232E+02  4.549314E+03 -6.534443E+04 -3.308976E+03 -1.543480E+04
       163   7  1.062405E+06 -3.421664E+04 -3.055394E+04 -6.526800E+04 -3.931865E+03 -4.652703E+03
       163   8  9.460954E+05 -6.289885E+04 -5.662516E+04 -3.145500E+04 -5.372504E+03 -1.003836E+04
       163   9  8.299716E+05 -9.129161E+04 -8.170930E+04 -6.520405E+04 -6.810507E+03 -1.543275E+04
       163  10  1.340588E+06  3.445041E+04  3.496972E+04 -6.542107E+04 -2.758096E-10 -2.708986E-10
       163  11  1.456752E+06  6.289997E+04  6.239446E+04 -3.167365E+04  4.213905E-10 -1.455909E-10
       163  12  1.573100E+06  9.163689E+04  9.079825E+04 -6.548486E+04  2.136383E-10  6.628948E-11
       163  13  1.201488E+06  1.175586E+02  2.208520E+03 -6.534454E+04 -3.796076E-10  1.994443E-10
       163  14  1.201394E+06  2.806129E+00  2.886729E+03 -3.156433E+04 -1.568645E-10  2.553677E-10
       163  15  1.201472E+06  1.773643E+02  4.548845E+03 -6.534447E+04  4.899424E-10  1.046669E-11
       163  16  1.062405E+06 -3.421667E+04 -3.055401E+04 -6.526801E+04  3.808166E-10  9.920508E-11
       163  17  9.460953E+05 -6.289896E+04 -5.662541E+04 -3.145505E+04 -5.796760E-10  9.157764E-11
       163  18  8.299715E+05 -9.129188E+04 -8.170984E+04 -6.520413E+04  2.686298E-10 -3.002464E-10
       163  19  1.340588E+06  3.445043E+04  3.496978E+04 -6.542109E+04 -3.053005E+03  4.659569E+03
       163  20  1.456752E+06  6.290008E+04  6.239465E+04 -3.167367E+04 -1.622765E+03  1.004380E+04
       163  21  1.573100E+06  9.163715E+04  9.079870E+04 -6.548487E+04 -1.946336E+02  1.543685E+04
       163  22  1.201488E+06  1.175819E+02  2.208562E+03 -6.534453E+04  4.398179E+02  4.656136E+03
       163  23  1.201394E+06  2.915400E+00  2.886925E+03 -3.156432E+04  1.875583E+03  1.004108E+04
       163  24  1.201472E+06  1.776232E+02  4.549314E+03 -6.534443E+04  3.308976E+03  1.543480E+04
       163  25  1.062405E+06 -3.421664E+04 -3.055394E+04 -6.526800E+04  3.931865E+03  4.652703E+03
       163  26  9.460954E+05 -6.289885E+04 -5.662516E+04 -3.145500E+04  5.372504E+03  1.003836E+04
       163  27  8.299716E+05 -9.129161E+04 -8.170930E+04 -6.520405E+04  6.810507E+03  1.543275E+04
       164   1  1.695378E+06  1.215898E+05  1.211945E+05 -6.538791E+04 -6.964338E+02 -1.860244E+04
       164   2  1.812417E+06  1.502590E+05  1.522644E+05 -3.140046E+04 -5.646091E+03 -2.403318E+04
       164   3  1.930895E+06  1.812235E+05  1.871647E+05 -6.583139E+04 -1.059088E+04 -2.939052E+04
       164   4  1.201722E+06 -5.259283E+01  5.830605E+03 -6.553623E+04 -4.246342E+03 -1.860114E+04
       164   5  1.200992E+06 -3.089714E+02  9.809098E+03 -3.132473E+04 -9.144261E+03 -2.403362E+04
       164   6  1.201683E+06  1.723946E+03  1.758625E+04 -6.553574E+04 -1.403639E+04 -2.939262E+04
       164   7  7.082906E+05 -1.217122E+05 -1.095498E+05 -6.568437E+04 -7.793450E+03 -1.859985E+04
       164   8  5.899111E+05 -1.509033E+05 -1.326714E+05 -3.124905E+04 -1.263901E+04 -2.403406E+04
       164   9  4.729593E+05 -1.778130E+05 -1.520280E+05 -6.524040E+04 -1.747789E+04 -2.939471E+04
       164  10  1.695378E+06  1.215894E+05  1.211938E+05 -6.538793E+04 -2.346494E-10 -1.014186E-10
       164  11  1.812417E+06  1.502583E+05  1.522633E+05 -3.140057E+04 -1.454108E-09 -2.030679E-10
       164  12  1.930895E+06  1.812225E+05  1.871629E+05 -6.583164E+04 -1.059976E-09 -2.243574E-10
       164  13  1.201722E+06 -5.296943E+01  5.829921E+03 -6.553629E+04  1.078007E-09 -2.542528E-10
       164  14  1.200992E+06 -3.096144E+02  9.807855E+03 -3.132491E+04 -4.795169E-10 -1.365995E-10
       164  15  1.201682E+06  1.722965E+03  1.758425E+04 -6.553607E+04  4.563270E-10 -3.768816E-10
       164  16  7.082904E+05 -1.217126E+05 -1.095505E+05 -6.568449E+04 -7.259808E-11 -2.135027E-10
       164  17  5.899108E+05 -1.509039E+05 -1.326728E+05 -3.124929E+04  1.331200E-12  8.200687E-11
       164  18  4.729587E+05 -1.778140E+05 -1.520302E+05 -6.524082E+04  2.223688E-10 -2.474117E-10
       164  19  1.695378E+06  1.215898E+05  1.211945E+05 -6.538791E+04  6.964338E+02  1.860244E+04
       164  20  1.812417E+06  1.502590E+05  1.522644E+05 -3.140046E+04  5.646091E+03  2.403318E+04
       164  21  1.930895E+06  1.812235E+05  1.871647E+05 -6.583139E+04  1.059088E+04  2.939052E+04
       164  22  1.201722E+06 -5.259283E+01  5.830605E+03 -6.553623E+04  4.246342E+03  1.860114E+04
       164  23  1.200992E+06 -3.089714E+02  9.809098E+03 -3.132473E+04  9.144261E+03  2.403362E+04
       164  24  1.201683E+06  1.723946E+03  1.758625E+04 -6.553574E+04  1.403639E+04  2.939262E+04
       164  25  7.082906E+05 -1.217122E+05 -1.095498E+05 -6.568437E+04  7.793450E+03  1.859985E+04
       164  26  5.899111E+05 -1.509033E+05 -1.326714E+05 -3.124905E+04  1.263901E+04  2.403406E+04
       164  27  4.729593E+05 -1.778130E+05 -1.520280E+05 -6.524040E+04  1.747789E+04  2.939471E+04
       165   1  2.056994E+06  2.088181E+05  2.218019E+05 -6.207906E+04 -1.351021E+04 -3.285210E+04
       165   2  2.172450E+06  2.371699E+05  2.654529E+05 -3.229229E+04 -3.437519E+04 -3.820267E+04
       165   3  2.298012E+06  2.920167E+05  3.294381E+05 -7.243383E+04 -5.523804E+04 -4.163642E+04
       165   4  1.203516E+06 -1.386212E+03  2.268817E+04 -6.586660E+04 -1.758881E+04 -3.285565E+04
       165   5  1.198532E+06 -2.618647E+03  3.855353E+04 -3.090935E+04 -3.718096E+04 -3.820858E+04
       165   6  1.203436E+06  2.244799E+04  7.389452E+04 -6.588615E+04 -5.676696E+04 -4.164365E+04
       165   7  3.507080E+05 -2.116419E+05 -1.764749E+05 -6.964890E+04 -2.166184E+04 -3.285915E+04
       165   8  2.254862E+05 -2.424741E+05 -1.884099E+05 -2.952870E+04 -3.998233E+04 -3.821451E+04
       165   9  1.099605E+05 -2.472052E+05 -1.817302E+05 -5.935029E+04 -5.829315E+04 -4.165091E+04
       165  10  2.056994E+06  2.088169E+05  2.217996E+05 -6.207942E+04 -6.577278E-10 -8.201075E-11
       165  11  2.172449E+06  2.371680E+05  2.654479E+05 -3.229335E+04 -1.238562E-10  5.054418E-10
       165  12  2.298009E+06  2.920140E+05  3.294291E+05 -7.243568E+04  8.010050E-10 -1.733507E-10
       165  13  1.203516E+06 -1.387455E+03  2.268556E+04 -6.586706E+04 -5.924743E-10 -4.129176E-10
       165  14  1.198530E+06 -2.620586E+03  3.854819E+04 -3.091050E+04 -3.716340E-10  2.945499E-10
       165  15  1.203432E+06  2.244526E+04  7.388521E+04 -6.588806E+04  7.078595E-10 -3.190115E-10
       165  16  3.507072E+05 -2.116432E+05 -1.764778E+05 -6.964947E+04  3.726170E-10 -3.955492E-10
       165  17  2.254841E+05 -2.424761E+05 -1.884156E+05 -2.952993E+04 -6.745272E-10 -4.617970E-10
       165  18  1.099563E+05 -2.472080E+05 -1.817399E+05 -5.935225E+04 -3.529237E-11 -1.822066E-10
       165  19  2.056994E+06  2.088181E+05  2.218019E+05 -6.207906E+04  1.351021E+04  3.285210E+04
       165  20  2.172450E+06  2.371699E+05  2.654529E+05 -3.229229E+04  3.437519E+04  3.820267E+04
       165  21  2.298012E+06  2.920167E+05  3.294381E+05 -7.243383E+04  5.523804E+04  4.163642E+04
       165  22  1.203516E+06 -1.386212E+03  2.268817E+04 -6.586660E+04  1.758881E+04  3.285565E+04
       165  23  1.198532E+06 -2.618647E+03  3.855353E+04 -3.090935E+04  3.718096E+04  3.820858E+04
       165  24  1.203436E+06  2.244799E+04  7.389452E+04 -6.588615E+04  5.676696E+04  4.164365E+04
       165  25  3.507080E+05 -2.116419E+05 -1.764749E+05 -6.964890E+04  2.166184E+04  3.285915E+04
       165  26  2.254862E+05 -2.424741E+05 -1.884099E+05 -2.952870E+04  3.998233E+04  3.821451E+04
       165  27  1.099605E+05 -2.472052E+05 -1.817302E+05 -5.935029E+04  5.829315E+04  4.165091E+04
       166   1  2.443524E+06  2.856820E+05  3.755516E+05 -2.537202E+04 -5.785669E+04 -4.950443E+04
       166   2  2.522166E+06  3.051961E+05  4.635851E+05 -6.059694E+04 -1.614197E+05 -5.135896E+04
       166   3  2.693612E+06  6.361393E+05  6.970401E+05 -1.675272E+05 -2.650980E+05 -1.738644E+04
       166   4  1.220959E+06 -1.529221E+04  9.138636E+04 -6.608067E+04 -7.050865E+04 -4.952460E+04
       166   5  1.176379E+06 -2.607953E+04  1.494341E+05 -3.056466E+04 -1.506390E+05 -5.135304E+04
       166   6  1.220722E+06  2.708485E+05  3.368638E+05 -6.674348E+04 -2.308597E+05 -1.734354E+04
       166   7 -2.282344E+02 -3.163655E+05 -1.928780E+05 -1.067093E+05 -8.313584E+04 -4.954313E+04
       166   8 -1.677414E+05 -3.574795E+05 -1.648387E+05 -5.984705E+02 -1.398811E+05 -5.134608E+04
       166   9 -2.501734E+05 -9.456276E+04 -2.346063E+04  3.380042E+04 -1.967016E+05 -1.728955E+04
       166  10  2.443520E+06  2.856785E+05  3.755407E+05 -2.537432E+04 -5.300753E-10  4.530042E-10
       166  11  2.522138E+06  3.051863E+05  4.635313E+05 -6.060360E+04  1.713238E-09  4.666831E-10
       166  12  2.693536E+06  6.361202E+05  6.969080E+05 -1.675309E+05  1.221690E-09 -1.681566E-10
       166  13  1.220953E+06 -1.529618E+04  9.137242E+04 -6.608348E+04  9.395669E-10  3.115259E-11
       166  14  1.176354E+06 -2.608844E+04  1.493866E+05 -3.057088E+04  7.799997E-10  1.810082E-11
       166  15  1.220665E+06  2.708339E+05  3.367633E+05 -6.674671E+04  3.657111E-10  1.951624E-10
       166  16 -2.363174E+02 -3.163700E+05 -1.928956E+05 -1.067126E+05 -2.189208E-10 -8.631711E-11
       166  17 -1.677631E+05 -3.574876E+05 -1.648804E+05 -6.042571E+02 -2.463898E-09  9.130527E-10
       166  18 -2.502150E+05 -9.457347E+04 -2.353392E+04  3.379769E+04 -1.654877E-09  1.004762E-10
       166  19  2.443524E+06  2.856820E+05  3.755516E+05 -2.537202E+04  5.785669E+04  4.950443E+04
       166  20  2.522166E+06  3.051961E+05  4.635851E+05 -6.059694E+04  1.614197E+05  5.135896E+04
       166  21  2.693612E+06  6.361393E+05  6.970401E+05 -1.675272E+05  2.650980E+05  1.738644E+04
       166  22  1.220959E+06 -1.529221E+04  9.138636E+04 -6.608067E+04  7.050865E+04  4.952460E+04
       166  23  1.176379E+06 -2.607953E+04  1.494341E+05 -3.056466E+04  1.506390E+05  5.135304E+04
       166  24  1.220722E+06  2.708485E+05  3.368638E+05 -6.674348E+04  2.308597E+05  1.734354E+04
       166  25 -2.282344E+02 -3.163655E+05 -1.928780E+05 -1.067093E+05  8.313584E+04  4.954313E+04
       166  26 -1.677414E+05 -3.574795E+05 -1.648387E+05 -5.984705E+02  1.398811E+05  5.134608E+04
       166  27 -2.501734E+05 -9.456276E+04 -2.346063E+04  3.380042E+04  1.967016E+05  1.728955E+04
       167   1  1.009331E+05  4.941368E+05  1.140930E+05 -7.817965E+04  1.233129E+03  5.081450E+04
       167   2  1.271702E+04  3.846469E+05  4.925962E+04 -3.398961E+04  2.535249E+03  3.019406E+04
       167   3 -9.421505E+03  2.940468E+05  1.429820E+04 -4.771268E+04 -1.406578E+03  9.564905E+03
       167   4  5.764544E+04  3.209453E+05  7.136141E+04 -5.596947E+04  1.240647E+03  4.829491E+04
       167   5 -5.306069E+03  3.118026E+05  3.214706E+04 -2.708135E+04  2.533589E+03  3.107856E+04
       167   6 -2.764673E+03  3.209574E+05  2.044898E+04 -5.610430E+04 -1.416693E+03  1.385020E+04
       167   7  1.435738E+04  1.477822E+05  2.862790E+04 -3.376548E+04  1.247986E+03  4.577603E+04
       167   8 -2.332936E+04  2.389634E+05  1.503416E+04 -2.017391E+04  2.531947E+03  3.196295E+04
       167   9  3.892382E+03  3.478689E+05  2.659982E+04 -6.449627E+04 -1.426923E+03  1.813567E+04
       167  10  1.009324E+05  4.941340E+05  1.140881E+05 -7.817970E+04  5.128398E-10  1.415314E-09
       167  11  1.271677E+04  3.846459E+05  4.925789E+04 -3.398967E+04 -2.583332E-10 -2.838038E-09
       167  12 -9.421532E+03  2.940467E+05  1.429803E+04 -4.771267E+04  1.641530E-10 -6.021137E-09
       167  13  5.764481E+04  3.209428E+05  7.135703E+04 -5.596952E+04  1.660912E-09 -6.398123E-11
       167  14 -5.306335E+03  3.118016E+05  3.214523E+04 -2.708142E+04 -1.796678E-10 -1.938579E-11
       167  15 -2.764727E+03  3.209572E+05  2.044862E+04 -5.610428E+04 -1.748960E-10 -3.386592E-11
       167  16  1.435681E+04  1.477799E+05  2.862396E+04 -3.376552E+04  3.874242E-10 -1.420157E-09
       167  17 -2.332964E+04  2.389623E+05  1.503223E+04 -2.017397E+04  2.203611E-09  2.801208E-09
       167  18  3.892292E+03  3.478685E+05  2.659920E+04 -6.449625E+04  3.641874E-10  6.060415E-09
       167  19  1.009331E+05  4.941368E+05  1.140930E+05 -7.817965E+04 -1.233129E+03 -5.081450E+04
       167  20  1.271702E+04  3.846469E+05  4.925962E+04 -3.398961E+04 -2.535249E+03 -3.019406E+04
       167  21 -9.421505E+03  2.940468E+05  1.429820E+04 -4.771268E+04  1.406578E+03 -9.564905E+03
       167  22  5.764544E+04  3.209453E+05  7.136141E+04 -5.596947E+04 -1.240647E+03 -4.829491E+04
       167  23 -5.306069E+03  3.118026E+05  3.214706E+04 -2.708135E+04 -2.533589E+03 -3.107856E+04
       167  24 -2.764673E+03  3.209574E+05  2.044898E+04 -5.610430E+04  1.416693E+03 -1.385020E+04
       167  25  1.435738E+04  1.477822E+05  2.862790E+04 -3.376548E+04 -1.247986E+03 -4.577603E+04
       167  26 -2.332936E+04  2.389634E+05  1.503416E+04 -2.017391E+04 -2.531947E+03 -3.196295E+04
       167  27  3.892382E+03  3.478689E+05  2.659982E+04 -6.449627E+04  1.426923E+03 -1.813567E+04
       168   1 -2.747784E+04  1.858070E+05 -1.370035E+04 -5.773369E+04 -4.888800E+03  7.775838E+03
       168   2 -5.771443E+04  8.452717E+04 -4.327120E+04 -2.691532E+04 -9.098226E+03  2.664029E+03
       168   3 -8.028740E+04 -1.443287E+04 -6.766046E+04 -5.428300E+04 -1.271074E+04 -2.444024E+03
       168   4  4.993859E+03  3.174136E+05  1.713534E+04 -5.611930E+04 -4.895477E+03  1.070712E+04
       168   5 -5.711895E+02  3.162195E+05  1.080340E+04 -2.703091E+04 -9.103532E+03  5.207150E+03
       168   6  1.594129E+03  3.174030E+05  9.922516E+03 -5.612696E+04 -1.271478E+04 -2.898644E+02
       168   7  3.746434E+04  4.490362E+05  4.796989E+04 -5.450456E+04 -4.902138E+03  1.363901E+04
       168   8  5.656825E+04  5.479614E+05  6.487439E+04 -2.714653E+04 -9.108838E+03  7.751213E+03
       168   9  8.346786E+04  6.493403E+05  8.749803E+04 -5.797186E+04 -1.271883E+04  1.865439E+03
       168  10 -2.747788E+04  1.858069E+05 -1.370051E+04 -5.773366E+04 -1.022364E-09  5.440062E-09
       168  11 -5.771452E+04  8.452714E+04 -4.327137E+04 -2.691530E+04 -5.140690E-10  2.775650E-09
       168  12 -8.028758E+04 -1.443292E+04 -6.766078E+04 -5.428303E+04 -7.659920E-10 -1.500144E-09
       168  13  4.993803E+03  3.174135E+05  1.713508E+04 -5.611926E+04 -5.736058E-10 -1.411512E-11
       168  14 -5.712857E+02  3.162195E+05  1.080319E+04 -2.703088E+04 -5.893800E-10  6.954896E-11
       168  15  1.593955E+03  3.174029E+05  9.922212E+03 -5.612697E+04 -1.159952E-09  6.424180E-11
       168  16  3.746426E+04  4.490360E+05  4.796949E+04 -5.450451E+04 -3.099160E-10 -5.373040E-09
       168  17  5.656815E+04  5.479613E+05  6.487412E+04 -2.714647E+04 -1.096179E-09 -2.573005E-09
       168  18  8.346769E+04  6.493403E+05  8.749772E+04 -5.797184E+04 -1.016718E-09  1.500624E-09
       168  19 -2.747784E+04  1.858070E+05 -1.370035E+04 -5.773369E+04  4.888800E+03 -7.775838E+03
       168  20 -5.771443E+04  8.452717E+04 -4.327120E+04 -2.691532E+04  9.098226E+03 -2.664029E+03
       168  21 -8.028740E+04 -1.443287E+04 -6.766046E+04 -5.428300E+04  1.271074E+04  2.444024E+03
       168  22  4.993859E+03  3.174136E+05  1.713534E+04 -5.611930E+04  4.895477E+03 -1.070712E+04
       168  23 -5.711895E+02  3.162195E+05  1.080340E+04 -2.703091E+04  9.103532E+03 -5.207150E+03
       168  24  1.594129E+03  3.174030E+05  9.922516E+03 -5.612696E+04  1.271478E+04  2.898644E+02
       168  25  3.746434E+04  4.490362E+05  4.796989E+04 -5.450456E+04  4.902138E+03 -1.363901E+04
       168  26  5.656825E+04  5.479614E+05  6.487439E+04 -2.714653E+04  9.108838E+03 -7.751213E+03
       168  27  8.346786E+04  6.493403E+05  8.749803E+04 -5.797186E+04  1.271883E+04 -1.865439E+03
       169   1 -1.082009E+05 -1.184986E+05 -9.173964E+04 -5.833976E+04 -1.749371E+04 -9.055726E+03
       169   2 -1.343048E+05 -2.214926E+05 -1.131347E+05 -2.407083E+04 -2.030304E+04 -5.179238E+03
       169   3 -1.390588E+05 -3.196826E+05 -1.317263E+05 -4.767651E+04 -6.930736E+03 -1.278179E+03
       169   4 -4.957699E+02  3.183231E+05  1.006501E+04 -5.606591E+04 -1.750694E+04 -2.000097E+03
       169   5 -1.886395E+03  3.150044E+05  1.241838E+04 -2.711448E+04 -2.029594E+04 -8.610282E+03
       169   6  1.988355E+04  3.182938E+05  2.485265E+04 -5.603379E+04 -6.909579E+03 -1.519519E+04
       169   7  1.071960E+05  7.553210E+05  1.118569E+05 -5.379035E+04 -1.752011E+04  5.060464E+03
       169   8  1.305116E+05  8.517666E+05  1.379520E+05 -3.016066E+04 -2.028882E+04 -1.204427E+04
       169   9  1.787960E+05  9.566413E+05  1.814024E+05 -6.439953E+04 -6.888059E+03 -2.912647E+04
       169  10 -1.082013E+05 -1.184988E+05 -9.174037E+04 -5.833989E+04 -4.194622E-10  6.883980E-10
       169  11 -1.343053E+05 -2.214927E+05 -1.131356E+05 -2.407092E+04  6.776811E-10  3.952464E-10
       169  12 -1.390588E+05 -3.196826E+05 -1.317264E+05 -4.767652E+04  4.158934E-10 -5.094358E-10
       169  13 -4.961001E+02  3.183230E+05  1.006443E+04 -5.606593E+04  2.702341E-10 -3.297672E-11
       169  14 -1.886857E+03  3.150042E+05  1.241747E+04 -2.711462E+04  7.381271E-10 -1.583732E-11
       169  15  1.988343E+04  3.182935E+05  2.485212E+04 -5.603388E+04  8.783488E-11 -3.452575E-11
       169  16  1.071956E+05  7.553209E+05  1.118563E+05 -5.379028E+04 -1.662665E-09 -6.331995E-10
       169  17  1.305112E+05  8.517663E+05  1.379509E+05 -3.016086E+04  1.162994E-09 -4.255437E-10
       169  18  1.787958E+05  9.566404E+05  1.814008E+05 -6.439969E+04  8.008556E-10  3.988895E-10
       169  19 -1.082009E+05 -1.184986E+05 -9.173964E+04 -5.833976E+04  1.749371E+04  9.055726E+03
       169  20 -1.343048E+05 -2.214926E+05 -1.131347E+05 -2.407083E+04  2.030304E+04  5.179238E+03
       169  21 -1.390588E+05 -3.196826E+05 -1.317263E+05 -4.767651E+04  6.930736E+03  1.278179E+03
       169  22 -4.957699E+02  3.183231E+05  1.006501E+04 -5.606591E+04  1.750694E+04  2.000097E+03
       169  23 -1.886395E+03  3.150044E+05  1.241838E+04 -2.711448E+04  2.029594E+04  8.610282E+03
       169  24  1.988355E+04  3.182938E+05  2.485265E+04 -5.603379E+04  6.909579E+03  1.519519E+04
       169  25  1.071960E+05  7.553210E+05  1.118569E+05 -5.379035E+04  1.752011E+04 -5.060464E+03
       169  26  1.305116E+05  8.517666E+05  1.379520E+05 -3.016066E+04  2.028882E+04  1.204427E+04
       169  27  1.787960E+05  9.566413E+05  1.814024E+05 -6.439953E+04  6.888059E+03  2.912647E+04
       170   1 -1.814991E+06 -6.834552E+05 -4.533970E+05 -6.378811E+05 -1.936056E+05 -6.388252E+04
       170   2 -1.754861E+06 -3.980740E+05 -2.744041E+05 -6.432589E+05 -1.261478E+05 -1.957919E+04
       170   3 -1.775425E+06 -3.699347E+05 -2.156701E+05 -6.084542E+05 -5.223737E+04  7.642986E+03
       170   4 -1.214469E+06 -3.828747E+05 -2.763445E+05 -3.986518E+05 -1.785594E+05 -5.823472E+04
       170   5 -1.160470E+06 -1.523470E+05 -1.167134E+05 -4.575378E+05 -1.213868E+05 -1.779207E+04
       170   6 -1.185034E+06 -1.768899E+05 -6.908888E+04 -4.762693E+05 -5.776674E+04  5.561719E+03
       170   7 -6.135855E+05 -8.218537E+04 -9.932702E+04 -1.591871E+05 -1.634971E+05 -5.257639E+04
       170   8 -5.657330E+05  9.342324E+04  4.094637E+04 -2.716483E+05 -1.166208E+05 -1.600261E+04
       170   9 -5.943021E+05  1.615844E+04  7.746658E+04 -3.439793E+05 -6.330189E+04  3.478921E+03
       170  10 -1.815032E+06 -6.834697E+05 -4.534753E+05 -6.378910E+05 -3.923818E-10 -9.445576E-11
       170  11 -1.754878E+06 -3.980787E+05 -2.744348E+05 -6.432609E+05 -5.784820E-10 -2.695601E-10
       170  12 -1.775428E+06 -3.699355E+05 -2.156753E+05 -6.084538E+05 -1.862470E-10  1.081887E-10
       170  13 -1.214504E+06 -3.828869E+05 -2.764109E+05 -3.986602E+05  6.530036E-10 -2.054441E-10
       170  14 -1.160486E+06 -1.523513E+05 -1.167418E+05 -4.575396E+05 -1.102193E-10 -3.469745E-10
       170  15 -1.185038E+06 -1.768909E+05 -6.909522E+04 -4.762691E+05  2.043543E-09  4.314441E-10
       170  16 -6.136150E+05 -8.219552E+04 -9.938250E+04 -1.591940E+05 -6.744014E-10 -3.877291E-10
       170  17 -5.657477E+05  9.341931E+04  4.092031E+04 -2.716498E+05  4.573108E-10 -3.321478E-10
       170  18 -5.943064E+05  1.615735E+04  7.745902E+04 -3.439792E+05  8.502947E-10  6.045799E-10
       170  19 -1.814991E+06 -6.834552E+05 -4.533970E+05 -6.378811E+05  1.936056E+05  6.388252E+04
       170  20 -1.754861E+06 -3.980740E+05 -2.744041E+05 -6.432589E+05  1.261478E+05  1.957919E+04
       170  21 -1.775425E+06 -3.699347E+05 -2.156701E+05 -6.084542E+05  5.223737E+04 -7.642986E+03
       170  22 -1.214469E+06 -3.828747E+05 -2.763445E+05 -3.986518E+05  1.785594E+05  5.823472E+04
       170  23 -1.160470E+06 -1.523470E+05 -1.167134E+05 -4.575378E+05  1.213868E+05  1.779207E+04
       170  24 -1.185034E+06 -1.768899E+05 -6.908888E+04 -4.762693E+05  5.776674E+04 -5.561719E+03
       170  25 -6.135855E+05 -8.218537E+04 -9.932702E+04 -1.591871E+05  1.634971E+05  5.257639E+04
       170  26 -5.657330E+05  9.342324E+04  4.094637E+04 -2.716483E+05  1.166208E+05  1.600261E+04
       170  27 -5.943021E+05  1.615844E+04  7.746658E+04 -3.439793E+05  6.330189E+04 -3.478921E+03
       171   1 -1.692916E+06 -4.036490E+05 -1.905638E+05 -6.086704E+05 -4.667690E+04  5.780096E+03
       171   2 -1.655528E+06 -3.535965E+05 -1.504773E+05 -5.875968E+05 -3.150865E+04  1.030038E+04
       171   3 -1.608021E+06 -3.453530E+05 -1.272869E+05 -5.841378E+05 -1.594136E+04  1.375834E+04
       171   4 -1.175837E+06 -2.035673E+05 -5.576242E+04 -4.611871E+05 -4.700865E+04  5.653316E+03
       171   5 -1.179633E+06 -1.734337E+05 -2.746715E+04 -4.558704E+05 -3.247183E+04  9.936844E+03
       171   6 -1.173177E+06 -1.849722E+05 -1.555563E+04 -4.681697E+05 -1.753714E+04  1.315780E+04
       171   7 -6.584977E+05 -3.465023E+03  7.901590E+04 -3.135913E+05 -4.734069E+04  5.526420E+03
       171   8 -7.035160E+05  6.744401E+03  9.552413E+04 -3.240520E+05 -3.343581E+04  9.572997E+03
       171   9 -7.381488E+05 -2.458056E+04  9.616049E+04 -3.521284E+05 -1.913416E+04  1.255682E+04
       171  10 -1.692919E+06 -4.036496E+05 -1.905680E+05 -6.086702E+05  1.276148E-09  6.142159E-10
       171  11 -1.655529E+06 -3.535969E+05 -1.504793E+05 -5.875966E+05 -1.245707E-09 -4.057261E-10
       171  12 -1.608021E+06 -3.453532E+05 -1.272877E+05 -5.841377E+05 -7.195934E-10  2.885162E-11
       171  13 -1.175839E+06 -2.035680E+05 -5.576664E+04 -4.611869E+05 -8.126916E-10  4.929144E-10
       171  14 -1.179634E+06 -1.734341E+05 -2.746932E+04 -4.558701E+05 -2.426276E-09 -3.025162E-10
       171  15 -1.173178E+06 -1.849725E+05 -1.555653E+04 -4.681695E+05 -8.741291E-10 -1.811276E-10
       171  16 -6.585001E+05 -3.465658E+03  7.901163E+04 -3.135911E+05 -2.006127E-10  4.502041E-10
       171  17 -7.035172E+05  6.744003E+03  9.552185E+04 -3.240518E+05 -1.433200E-09  3.266815E-11
       171  18 -7.381493E+05 -2.458083E+04  9.615950E+04 -3.521282E+05  1.032191E-10 -3.780457E-10
       171  19 -1.692916E+06 -4.036490E+05 -1.905638E+05 -6.086704E+05  4.667690E+04 -5.780096E+03
       171  20 -1.655528E+06 -3.535965E+05 -1.504773E+05 -5.875968E+05  3.150865E+04 -1.030038E+04
       171  21 -1.608021E+06 -3.453530E+05 -1.272869E+05 -5.841378E+05  1.594136E+04 -1.375834E+04
       171  22 -1.175837E+06 -2.035673E+05 -5.576242E+04 -4.611871E+05  4.700865E+04 -5.653316E+03
       171  23 -1.179633E+06 -1.734337E+05 -2.746715E+04 -4.558704E+05  3.247183E+04 -9.936844E+03
       171  24 -1.173177E+06 -1.849722E+05 -1.555563E+04 -4.681697E+05  1.753714E+04 -1.315780E+04
       171  25 -6.584977E+05 -3.465023E+03  7.901590E+04 -3.135913E+05  4.734069E+04 -5.526420E+03
       171  26 -7.035160E+05  6.744401E+03  9.552413E+04 -3.240520E+05  3.343581E+04 -9.572997E+03
       171  27 -7.381488E+05 -2.458056E+04  9.616049E+04 -3.521284E+05  1.913416E+04 -1.255682E+04
       172   1 -1.554224E+06 -3.311486E+05 -1.104835E+05 -5.717226E+05 -1.349549E+04  1.304894E+04
       172   2 -1.518165E+06 -3.014071E+05 -9.308711E+04 -5.474496E+05 -9.414184E+03  1.209450E+04
       172   3 -1.462367E+06 -2.944512E+05 -7.863016E+04 -5.465603E+05 -5.301110E+03  1.105147E+04
       172   4 -1.172005E+06 -1.874674E+05 -1.202235E+04 -4.669299E+05 -1.479217E+04  1.256110E+04
       172   5 -1.181754E+06 -1.752447E+05 -6.368924E+03 -4.555497E+05 -1.076243E+04  1.158778E+04
       172   6 -1.171758E+06 -1.857955E+05 -3.612373E+03 -4.675529E+05 -6.701199E+03  1.052580E+04
       172   7 -7.896424E+05 -4.377677E+04  8.642673E+04 -3.620788E+05 -1.608973E+04  1.207294E+04
       172   8 -8.452343E+05 -4.907542E+04  8.033974E+04 -3.636049E+05 -1.211148E+04  1.108076E+04
       172   9 -8.810677E+05 -7.713509E+04  7.139813E+04 -3.885124E+05 -8.102001E+03  9.999851E+03
       172  10 -1.554225E+06 -3.311488E+05 -1.104842E+05 -5.717225E+05 -4.794877E-11  6.017271E-10
       172  11 -1.518165E+06 -3.014073E+05 -9.308756E+04 -5.474495E+05  1.629898E-09  6.066863E-10
       172  12 -1.462367E+06 -2.944513E+05 -7.863044E+04 -5.465602E+05  9.203866E-10  1.037876E-10
       172  13 -1.172005E+06 -1.874676E+05 -1.202306E+04 -4.669298E+05  7.722819E-10  2.002492E-10
       172  14 -1.181754E+06 -1.752449E+05 -6.369393E+03 -4.555496E+05  1.470485E-09  6.209582E-10
       172  15 -1.171758E+06 -1.857956E+05 -3.612666E+03 -4.675528E+05  3.985072E-10  2.994411E-10
       172  16 -7.896427E+05 -4.377700E+04  8.642597E+04 -3.620786E+05  1.274725E-09 -1.667220E-10
       172  17 -8.452345E+05 -4.907559E+04  8.033923E+04 -3.636048E+05  1.586474E-09  3.466594E-10
       172  18 -8.810678E+05 -7.713522E+04  7.139782E+04 -3.885123E+05  2.085798E-11  2.693496E-10
       172  19 -1.554224E+06 -3.311486E+05 -1.104835E+05 -5.717226E+05  1.349549E+04 -1.304894E+04
       172  20 -1.518165E+06 -3.014071E+05 -9.308711E+04 -5.474496E+05  9.414184E+03 -1.209450E+04
       172  21 -1.462367E+06 -2.944512E+05 -7.863016E+04 -5.465603E+05  5.301110E+03 -1.105147E+04
       172  22 -1.172005E+06 -1.874674E+05 -1.202235E+04 -4.669299E+05  1.479217E+04 -1.256110E+04
       172  23 -1.181754E+06 -1.752447E+05 -6.368924E+03 -4.555497E+05  1.076243E+04 -1.158778E+04
       172  24 -1.171758E+06 -1.857955E+05 -3.612373E+03 -4.675529E+05  6.701199E+03 -1.052580E+04
       172  25 -7.896424E+05 -4.377677E+04  8.642673E+04 -3.620788E+05  1.608973E+04 -1.207294E+04
       172  26 -8.452343E+05 -4.907542E+04  8.033974E+04 -3.636049E+05  1.211148E+04 -1.108076E+04
       172  27 -8.810677E+05 -7.713509E+04  7.139813E+04 -3.885124E+05  8.102001E+03 -9.999851E+03
       173   1 -1.409922E+06 -2.754026E+05 -6.406883E+04 -5.326104E+05 -4.281023E+03  9.901584E+03
       173   2 -1.373277E+06 -2.468966E+05 -5.097351E+04 -5.075315E+05 -2.551373E+03  7.921331E+03
       173   3 -1.315485E+06 -2.398856E+05 -3.856604E+04 -5.068332E+05 -8.156921E+02  5.922489E+03
       173   4 -1.171524E+06 -1.861045E+05 -2.805106E+03 -4.675488E+05 -5.671539E+03  9.379757E+03
       173   5 -1.182083E+06 -1.752816E+05 -1.709189E+03 -4.553857E+05 -3.952796E+03  7.395686E+03
       173   6 -1.171497E+06 -1.859516E+05 -1.292431E+03 -4.676038E+05 -2.228099E+03  5.393014E+03
       173   7 -9.330696E+05 -9.680259E+04  5.845418E+04 -4.024643E+05 -7.062645E+03  8.857707E+03
       173   8 -9.908534E+05 -1.036643E+05  4.755222E+04 -4.032253E+05 -5.354694E+03  6.869863E+03
       173   9 -1.027489E+06 -1.320163E+05  3.597946E+04 -4.283662E+05 -3.640866E+03  4.863404E+03
       173  10 -1.409922E+06 -2.754027E+05 -6.406905E+04 -5.326104E+05  3.931248E-10  6.329283E-11
       173  11 -1.373277E+06 -2.468966E+05 -5.097364E+04 -5.075315E+05  8.811866E-12 -2.330129E-10
       173  12 -1.315485E+06 -2.398857E+05 -3.856610E+04 -5.068332E+05  6.388950E-10 -4.264679E-11
       173  13 -1.171524E+06 -1.861046E+05 -2.805332E+03 -4.675488E+05 -6.014363E-10 -2.200470E-10
       173  14 -1.182083E+06 -1.752817E+05 -1.709321E+03 -4.553857E+05  2.767321E-10 -1.805235E-10
       173  15 -1.171497E+06 -1.859516E+05 -1.292495E+03 -4.676038E+05 -3.245219E-10 -1.177421E-10
       173  16 -9.330697E+05 -9.680268E+04  5.845394E+04 -4.024643E+05 -2.331082E-10 -2.107017E-10
       173  17 -9.908535E+05 -1.036643E+05  4.755207E+04 -4.032253E+05 -3.112890E-10 -5.603207E-10
       173  18 -1.027489E+06 -1.320163E+05  3.597939E+04 -4.283662E+05 -2.654095E-10  7.974171E-11
       173  19 -1.409922E+06 -2.754026E+05 -6.406883E+04 -5.326104E+05  4.281023E+03 -9.901584E+03
       173  20 -1.373277E+06 -2.468966E+05 -5.097351E+04 -5.075315E+05  2.551373E+03 -7.921331E+03
       173  21 -1.315485E+06 -2.398856E+05 -3.856604E+04 -5.068332E+05  8.156921E+02 -5.922489E+03
       173  22 -1.171524E+06 -1.861045E+05 -2.805106E+03 -4.675488E+05  5.671539E+03 -9.379757E+03
       173  23 -1.182083E+06 -1.752816E+05 -1.709189E+03 -4.553857E+05  3.952796E+03 -7.395686E+03
       173  24 -1.171497E+06 -1.859516E+05 -1.292431E+03 -4.676038E+05  2.228099E+03 -5.393014E+03
       173  25 -9.330696E+05 -9.680259E+04  5.845418E+04 -4.024643E+05  7.062645E+03 -8.857707E+03
       173  26 -9.908534E+05 -1.036643E+05  4.755222E+04 -4.032253E+05  5.354694E+03 -6.869863E+03
       173  27 -1.027489E+06 -1.320163E+05  3.597946E+04 -4.283662E+05  3.640866E+03 -4.863404E+03
       174   1 -1.262469E+06 -2.200867E+05 -2.454297E+04 -4.925172E+05 -9.084620E+01  4.643261E+03
       174   2 -1.225413E+06 -1.914299E+05 -1.269055E+04 -4.671276E+05  1.555169E+03  2.592626E+03
       174   3 -1.166999E+06 -1.844691E+05 -1.456154E+03 -4.664011E+05  3.201431E+03  5.408152E+02
       174   4 -1.171449E+06 -1.860071E+05 -1.265063E+03 -4.676612E+05 -1.507188E+03  4.112430E+03
       174   5 -1.182132E+06 -1.752078E+05 -1.537587E+03 -4.553109E+05  1.381373E+02  2.061598E+03
       174   6 -1.171462E+06 -1.861044E+05 -2.427464E+03 -4.676245E+05  1.783646E+03  9.572516E+00
       174   7 -1.080420E+06 -1.519272E+05  2.201209E+04 -4.428021E+05 -2.923753E+03  3.581515E+03
       174   8 -1.138850E+06 -1.589856E+05  9.615232E+03 -4.434935E+05 -1.279003E+03  1.530529E+03
       174   9 -1.175924E+06 -1.877398E+05 -3.398771E+03 -4.688479E+05  3.658663E+02 -5.216679E+02
       174  10 -1.262469E+06 -2.200867E+05 -2.454301E+04 -4.925172E+05  8.785470E-10 -1.893725E-10
       174  11 -1.225413E+06 -1.914299E+05 -1.269057E+04 -4.671276E+05  1.150259E-11 -2.397428E-10
       174  12 -1.166999E+06 -1.844691E+05 -1.456173E+03 -4.664011E+05 -3.754443E-10 -1.813347E-10
       174  13 -1.171449E+06 -1.860071E+05 -1.265099E+03 -4.676612E+05  5.835033E-10  9.906227E-12
       174  14 -1.182132E+06 -1.752078E+05 -1.537595E+03 -4.553109E+05  4.184486E-10 -2.340682E-10
       174  15 -1.171462E+06 -1.861044E+05 -2.427470E+03 -4.676245E+05 -4.601471E-10 -4.459256E-11
       174  16 -1.080420E+06 -1.519272E+05  2.201205E+04 -4.428021E+05 -6.056695E-10 -8.827134E-11
       174  17 -1.138850E+06 -1.589856E+05  9.615225E+03 -4.434935E+05 -3.671952E-10 -1.600563E-11
       174  18 -1.175924E+06 -1.877398E+05 -3.398772E+03 -4.688479E+05  1.144361E-10  2.760139E-10
       174  19 -1.262469E+06 -2.200867E+05 -2.454297E+04 -4.925172E+05  9.084620E+01 -4.643261E+03
       174  20 -1.225413E+06 -1.914299E+05 -1.269055E+04 -4.671276E+05 -1.555169E+03 -2.592626E+03
       174  21 -1.166999E+06 -1.844691E+05 -1.456154E+03 -4.664011E+05 -3.201431E+03 -5.408152E+02
       174  22 -1.171449E+06 -1.860071E+05 -1.265063E+03 -4.676612E+05  1.507188E+03 -4.112430E+03
       174  23 -1.182132E+06 -1.752078E+05 -1.537587E+03 -4.553109E+05 -1.381373E+02 -2.061598E+03
       174  24 -1.171462E+06 -1.861044E+05 -2.427464E+03 -4.676245E+05 -1.783646E+03 -9.572516E+00
       174  25 -1.080420E+06 -1.519272E+05  2.201209E+04 -4.428021E+05  2.923753E+03 -3.581515E+03
       174  26 -1.138850E+06 -1.589856E+05  9.615232E+03 -4.434935E+05  1.279003E+03 -1.530529E+03
       174  27 -1.175924E+06 -1.877398E+05 -3.398771E+03 -4.688479E+05 -3.658663E+02  5.216679E+02
       175   1 -1.113797E+06 -1.645072E+05  1.191520E+04 -4.522344E+05  4.180195E+03 -6.546341E+02
       175   2 -1.076722E+06 -1.356299E+05  2.169408E+04 -4.266125E+05  7.755162E+03 -1.977049E+03
       175   3 -1.019158E+06 -1.299034E+05  2.901220E+04 -4.252695E+05  1.131198E+04 -3.249075E+03
       175   4 -1.171587E+06 -1.859314E+05 -3.104026E+03 -4.677261E+05  2.750630E+03 -1.190322E+03
       175   5 -1.181928E+06 -1.750494E+05 -5.412500E+03 -4.553262E+05  6.355522E+03 -2.501685E+03
       175   6 -1.171788E+06 -1.873246E+05 -1.020569E+04 -4.672063E+05  9.942031E+03 -3.762732E+03
       175   7 -1.229373E+06 -2.073554E+05 -1.812352E+04 -4.832165E+05  1.321211E+03 -1.725956E+03
       175   8 -1.287122E+06 -2.144681E+05 -3.251994E+04 -4.840354E+05  4.956145E+03 -3.026223E+03
       175   9 -1.324394E+06 -2.447442E+05 -4.942533E+04 -5.091336E+05  8.572456E+03 -4.276247E+03
       175  10 -1.113797E+06 -1.645072E+05  1.191516E+04 -4.522344E+05  7.240947E-11 -6.402331E-11
       175  11 -1.076722E+06 -1.356300E+05  2.169396E+04 -4.266125E+05 -9.930192E-12 -6.139897E-11
       175  12 -1.019158E+06 -1.299034E+05  2.901194E+04 -4.252694E+05  1.967618E-10  1.855746E-11
       175  13 -1.171587E+06 -1.859314E+05 -3.104043E+03 -4.677261E+05  4.321130E-10 -4.476339E-11
       175  14 -1.181928E+06 -1.750494E+05 -5.412588E+03 -4.553261E+05 -4.394768E-10 -1.271608E-10
       175  15 -1.171788E+06 -1.873247E+05 -1.020590E+04 -4.672063E+05 -5.028410E-10 -1.788801E-10
       175  16 -1.229373E+06 -2.073554E+05 -1.812353E+04 -4.832165E+05  2.196492E-10  1.733919E-10
       175  17 -1.287122E+06 -2.144681E+05 -3.252000E+04 -4.840354E+05  5.387705E-10  1.574634E-10
       175  18 -1.324394E+06 -2.447442E+05 -4.942550E+04 -5.091336E+05 -4.269759E-10 -1.219460E-10
       175  19 -1.113797E+06 -1.645072E+05  1.191520E+04 -4.522344E+05 -4.180195E+03  6.546341E+02
       175  20 -1.076722E+06 -1.356299E+05  2.169408E+04 -4.266125E+05 -7.755162E+03  1.977049E+03
       175  21 -1.019158E+06 -1.299034E+05  2.901220E+04 -4.252695E+05 -1.131198E+04  3.249075E+03
       175  22 -1.171587E+06 -1.859314E+05 -3.104026E+03 -4.677261E+05 -2.750630E+03  1.190322E+03
       175  23 -1.181928E+06 -1.750494E+05 -5.412500E+03 -4.553262E+05 -6.355522E+03  2.501685E+03
       175  24 -1.171788E+06 -1.873246E+05 -1.020569E+04 -4.672063E+05 -9.942031E+03  3.762732E+03
       175  25 -1.229373E+06 -2.073554E+05 -1.812352E+04 -4.832165E+05 -1.321211E+03  1.725956E+03
       175  26 -1.287122E+06 -2.144681E+05 -3.251994E+04 -4.840354E+05 -4.956145E+03  3.026223E+03
       175  27 -1.324394E+06 -2.447442E+05 -4.942533E+04 -5.091336E+05 -8.572456E+03  4.276247E+03
       176   1 -9.655009E+05 -1.100012E+05  3.989616E+04 -4.142538E+05  1.393932E+04 -3.910372E+03
       176   2 -9.288303E+05 -7.795264E+04  4.172267E+04 -3.855700E+05  2.634109E+04 -1.815976E+03
       176   3 -8.793558E+05 -8.532242E+04  2.997526E+04 -3.766717E+05  3.847310E+04  1.003796E+03
       176   4 -1.172719E+06 -1.852827E+05 -1.320183E+04 -4.683382E+05  1.235957E+04 -4.502804E+03
       176   5 -1.180194E+06 -1.734072E+05 -2.328150E+04 -4.554930E+05  2.519560E+04 -2.246048E+03
       176   6 -1.174959E+06 -2.010429E+05 -4.728451E+04 -4.624351E+05  3.776090E+04  7.357310E+02
       176   7 -1.379895E+06 -2.605625E+05 -6.630353E+04 -5.224068E+05  1.078040E+04 -5.095036E+03
       176   8 -1.431497E+06 -2.688575E+05 -8.829106E+04 -5.253904E+05  2.405061E+04 -2.675924E+03
       176   9 -1.470476E+06 -3.167557E+05 -1.245517E+05 -5.481609E+05  3.704907E+04  4.678178E+02
       176  10 -9.655012E+05 -1.100012E+05  3.989577E+04 -4.142537E+05 -2.757008E-10 -2.887839E-10
       176  11 -9.288311E+05 -7.795283E+04  4.172136E+04 -3.855700E+05 -4.079422E-10 -2.114133E-10
       176  12 -8.793574E+05 -8.532282E+04  2.997247E+04 -3.766717E+05  1.424061E-10  8.500680E-11
       176  13 -1.172719E+06 -1.852828E+05 -1.320216E+04 -4.683382E+05 -2.311052E-10 -1.351020E-10
       176  14 -1.180195E+06 -1.734074E+05 -2.328270E+04 -4.554930E+05  9.639694E-10 -2.772968E-10
       176  15 -1.174960E+06 -2.010433E+05 -4.728719E+04 -4.624352E+05  6.689415E-10  8.971227E-11
       176  16 -1.379896E+06 -2.605625E+05 -6.630379E+04 -5.224068E+05 -3.624166E-10 -3.647176E-10
       176  17 -1.431498E+06 -2.688577E+05 -8.829216E+04 -5.253904E+05 -2.260214E-10 -1.099896E-10
       176  18 -1.470478E+06 -3.167561E+05 -1.245543E+05 -5.481609E+05 -6.680282E-11  2.451379E-10
       176  19 -9.655009E+05 -1.100012E+05  3.989616E+04 -4.142538E+05 -1.393932E+04  3.910372E+03
       176  20 -9.288303E+05 -7.795264E+04  4.172267E+04 -3.855700E+05 -2.634109E+04  1.815976E+03
       176  21 -8.793558E+05 -8.532242E+04  2.997526E+04 -3.766717E+05 -3.847310E+04 -1.003796E+03
       176  22 -1.172719E+06 -1.852827E+05 -1.320183E+04 -4.683382E+05 -1.235957E+04  4.502804E+03
       176  23 -1.180194E+06 -1.734072E+05 -2.328150E+04 -4.554930E+05 -2.519560E+04  2.246048E+03
       176  24 -1.174959E+06 -2.010429E+05 -4.728451E+04 -4.624351E+05 -3.776090E+04 -7.357310E+02
       176  25 -1.379895E+06 -2.605625E+05 -6.630353E+04 -5.224068E+05 -1.078040E+04  5.095036E+03
       176  26 -1.431497E+06 -2.688575E+05 -8.829106E+04 -5.253904E+05 -2.405061E+04  2.675924E+03
       176  27 -1.470476E+06 -3.167557E+05 -1.245517E+05 -5.481609E+05 -3.704907E+04 -4.678178E+02
       177   1 -8.143037E+05 -6.471674E+04  3.161852E+04 -3.997112E+05  5.115559E+04  2.498236E+03
       177   2 -7.820936E+05  6.608682E+03  3.106312E+03 -3.330655E+05  9.827902E+04  1.885002E+04
       177   3 -8.105977E+05 -1.415058E+05 -1.147388E+05 -2.377623E+05  1.409815E+05  4.698191E+04
       177   4 -1.182714E+06 -1.784726E+05 -5.858545E+04 -4.752809E+05  4.685515E+04  8.856202E+02
       177   5 -1.164025E+06 -1.554162E+05 -9.894635E+04 -4.567967E+05  1.010827E+05  1.989873E+04
       177   6 -1.207516E+06 -3.532973E+05 -2.343211E+05 -4.096440E+05  1.508863E+05  5.068680E+04
       177   7 -1.550991E+06 -2.922289E+05 -1.487988E+05 -5.508145E+05  4.255751E+04 -7.263651E+02
       177   8 -1.545812E+06 -3.174199E+05 -2.010117E+05 -5.804547E+05  1.038846E+05  2.094651E+04
       177   9 -1.604271E+06 -5.650260E+05 -3.539183E+05 -5.814110E+05  1.607842E+05  5.438657E+04
       177  10 -8.143065E+05 -6.471745E+04  3.161358E+04 -3.997113E+05 -4.967927E-11  2.878243E-10
       177  11 -7.821041E+05  6.605703E+03  3.087466E+03 -3.330670E+05  2.901703E-10  8.702876E-11
       177  12 -8.106197E+05 -1.415135E+05 -1.147803E+05 -2.377676E+05  4.252973E-10 -2.934841E-10
       177  13 -1.182717E+06 -1.784732E+05 -5.858959E+04 -4.752809E+05  4.475193E-11  1.487227E-10
       177  14 -1.164036E+06 -1.554193E+05 -9.896634E+04 -4.567983E+05 -4.421779E-10 -2.021210E-10
       177  15 -1.207541E+06 -3.533062E+05 -2.343688E+05 -4.096501E+05  3.650195E-10  2.156366E-10
       177  16 -1.550993E+06 -2.922293E+05 -1.488022E+05 -5.508145E+05 -6.188084E-10 -3.067032E-11
       177  17 -1.545824E+06 -3.174233E+05 -2.010329E+05 -5.804564E+05 -6.869301E-10 -1.214767E-10
       177  18 -1.604300E+06 -5.650362E+05 -3.539726E+05 -5.814181E+05 -1.129090E-10 -1.209208E-10
       177  19 -8.143037E+05 -6.471674E+04  3.161852E+04 -3.997112E+05 -5.115559E+04 -2.498236E+03
       177  20 -7.820936E+05  6.608682E+03  3.106312E+03 -3.330655E+05 -9.827902E+04 -1.885002E+04
       177  21 -8.105977E+05 -1.415058E+05 -1.147388E+05 -2.377623E+05 -1.409815E+05 -4.698191E+04
       177  22 -1.182714E+06 -1.784726E+05 -5.858545E+04 -4.752809E+05 -4.685515E+04 -8.856202E+02
       177  23 -1.164025E+06 -1.554162E+05 -9.894635E+04 -4.567967E+05 -1.010827E+05 -1.989873E+04
       177  24 -1.207516E+06 -3.532973E+05 -2.343211E+05 -4.096440E+05 -1.508863E+05 -5.068680E+04
       177  25 -1.550991E+06 -2.922289E+05 -1.487988E+05 -5.508145E+05 -4.255751E+04  7.263651E+02
       177  26 -1.545812E+06 -3.174199E+05 -2.010117E+05 -5.804547E+05 -1.038846E+05 -2.094651E+04
       177  27 -1.604271E+06 -5.650260E+05 -3.539183E+05 -5.814110E+05 -1.607842E+05 -5.438657E+04
       178   1 -1.270107E+06 -2.814844E+05 -2.420438E+05 -2.559372E+04  7.638445E+04  1.932264E+04
       178   2 -1.155227E+06 -3.924757E+05 -2.848443E+05 -2.135989E+04  6.285122E+04  5.853463E+04
       178   3 -9.991373E+05 -3.538482E+05 -2.810429E+05 -9.459375E+04  4.941609E+04  5.687317E+04
       178   4  4.029065E+05  1.350395E+05  1.682960E+05 -7.402953E+04  1.152124E+05  1.941306E+04
       178   5  3.801210E+05 -1.344268E+04  7.451779E+04 -3.514413E+04  7.514766E+04  5.854641E+04
       178   6  4.030316E+05 -7.900707E+03  4.567204E+04 -7.371012E+04  3.518633E+04  5.684971E+04
       178   7  2.078481E+06  5.513661E+05  5.784376E+05 -1.225978E+05  1.541445E+05  1.949730E+04
       178   8  1.917644E+06  3.654238E+05  4.337200E+05 -4.896368E+04  8.747417E+04  5.855764E+04
       178   9  1.807017E+06  3.379094E+05  3.722550E+05 -5.277936E+04  2.092455E+04  5.682533E+04
       178  10 -1.270114E+06 -2.814864E+05 -2.420555E+05 -2.559491E+04  4.574126E-10  2.433822E-10
       178  11 -1.155232E+06 -3.924804E+05 -2.848581E+05 -2.136286E+04 -1.998485E-10 -9.027662E-10
       178  12 -9.991408E+05 -3.538523E+05 -2.810536E+05 -9.459602E+04  3.479361E-10 -8.126478E-10
       178  13  4.028922E+05  1.350356E+05  1.682704E+05 -7.403133E+04  6.997234E-10 -9.108544E-10
       178  14  3.801140E+05 -1.344788E+04  7.450074E+04 -3.514767E+04 -1.345845E-09 -3.766307E-10
       178  15  4.030295E+05 -7.904510E+03  4.566364E+04 -7.371173E+04  9.808053E-10 -8.792963E-10
       178  16  2.078455E+06  5.513594E+05  5.783923E+05 -1.226002E+05  6.468007E-10  9.572073E-10
       178  17  1.917635E+06  3.654181E+05  4.336992E+05 -4.896780E+04 -7.780393E-10 -8.175975E-10
       178  18  1.807016E+06  3.379058E+05  3.722481E+05 -5.278032E+04 -1.050956E-09 -1.086134E-09
       178  19 -1.270107E+06 -2.814844E+05 -2.420438E+05 -2.559372E+04 -7.638445E+04 -1.932264E+04
       178  20 -1.155227E+06 -3.924757E+05 -2.848443E+05 -2.135989E+04 -6.285122E+04 -5.853463E+04
       178  21 -9.991373E+05 -3.538482E+05 -2.810429E+05 -9.459375E+04 -4.941609E+04 -5.687317E+04
       178  22  4.029065E+05  1.350395E+05  1.682960E+05 -7.402953E+04 -1.152124E+05 -1.941306E+04
       178  23  3.801210E+05 -1.344268E+04  7.451779E+04 -3.514413E+04 -7.514766E+04 -5.854641E+04
       178  24  4.030316E+05 -7.900707E+03  4.567204E+04 -7.371012E+04 -3.518633E+04 -5.684971E+04
       178  25  2.078481E+06  5.513661E+05  5.784376E+05 -1.225978E+05 -1.541445E+05 -1.949730E+04
       178  26  1.917644E+06  3.654238E+05  4.337200E+05 -4.896368E+04 -8.747417E+04 -5.855764E+04
       178  27  1.807017E+06  3.379094E+05  3.722550E+05 -5.277936E+04 -2.092455E+04 -5.682533E+04
       179   1 -8.674362E+05 -3.004764E+05 -2.583347E+05 -7.092156E+04  2.996134E+04  4.804213E+04
       179   2 -7.365963E+05 -2.798272E+05 -2.441753E+05 -3.437737E+04  2.166579E+04  4.432725E+04
       179   3 -6.004665E+05 -2.462083E+05 -2.211608E+05 -7.546517E+04  1.335877E+04  3.838209E+04
       179   4  3.941924E+05  1.097332E+04  3.690998E+04 -7.383973E+04  2.832119E+04  4.803403E+04
       179   5  3.914735E+05 -1.480414E+03  1.921056E+04 -3.502527E+04  1.856392E+04  4.432085E+04
       179   6  3.942704E+05 -7.236223E+02  1.136807E+04 -7.383358E+04  8.796934E+03  3.837920E+04
       179   7  1.657289E+06  3.223101E+05  3.320462E+05 -7.676408E+04  2.667768E+04  4.802596E+04
       179   8  1.520717E+06  2.767762E+05  2.825101E+05 -3.567442E+04  1.545642E+04  4.431446E+04
       179   9  1.389920E+06  2.446909E+05  2.438297E+05 -7.219924E+04  4.227823E+03  3.837629E+04
       179  10 -8.674378E+05 -3.004791E+05 -2.583407E+05 -7.092272E+04 -7.956736E-10 -5.518527E-10
       179  11 -7.365973E+05 -2.798294E+05 -2.441799E+05 -3.437814E+04 -6.948388E-10  5.634370E-10
       179  12 -6.004671E+05 -2.462099E+05 -2.211639E+05 -7.546558E+04  3.635218E-11  3.789642E-10
       179  13  3.941909E+05  1.097063E+04  3.690413E+04 -7.384082E+04 -3.651330E-10 -5.715853E-10
       179  14  3.914726E+05 -1.482616E+03  1.920622E+04 -3.502594E+04  7.352942E-10  7.107409E-10
       179  15  3.942699E+05 -7.252251E+02  1.136515E+04 -7.383385E+04  7.073659E-10  1.288190E-10
       179  16  1.657287E+06  3.223074E+05  3.320406E+05 -7.676511E+04  9.587550E-10 -3.853030E-10
       179  17  1.520716E+06  2.767740E+05  2.825060E+05 -3.567497E+04 -2.235853E-10  5.066381E-10
       179  18  1.389919E+06  2.446893E+05  2.438269E+05 -7.219937E+04  7.962798E-10  3.018675E-10
       179  19 -8.674362E+05 -3.004764E+05 -2.583347E+05 -7.092156E+04 -2.996134E+04 -4.804213E+04
       179  20 -7.365963E+05 -2.798272E+05 -2.441753E+05 -3.437737E+04 -2.166579E+04 -4.432725E+04
       179  21 -6.004665E+05 -2.462083E+05 -2.211608E+05 -7.546517E+04 -1.335877E+04 -3.838209E+04
       179  22  3.941924E+05  1.097332E+04  3.690998E+04 -7.383973E+04 -2.832119E+04 -4.803403E+04
       179  23  3.914735E+05 -1.480414E+03  1.921056E+04 -3.502527E+04 -1.856392E+04 -4.432085E+04
       179  24  3.942704E+05 -7.236223E+02  1.136807E+04 -7.383358E+04 -8.796934E+03 -3.837920E+04
       179  25  1.657289E+06  3.223101E+05  3.320462E+05 -7.676408E+04 -2.667768E+04 -4.802596E+04
       179  26  1.520717E+06  2.767762E+05  2.825101E+05 -3.567442E+04 -1.545642E+04 -4.431446E+04
       179  27  1.389920E+06  2.446909E+05  2.438297E+05 -7.219924E+04 -4.227823E+03 -3.837629E+04
       180   1 -4.625379E+05 -2.102481E+05 -1.906142E+05 -7.327168E+04  1.087567E+04  3.450059E+04
       180   2 -3.304960E+05 -1.786228E+05 -1.639113E+05 -3.477960E+04  8.494877E+03  2.847612E+04
       180   3 -1.976020E+05 -1.457569E+05 -1.353015E+05 -7.336514E+04  6.105863E+03  2.234145E+04
       180   4  3.932984E+05  8.167038E+02  8.803464E+03 -7.371230E+04  7.015113E+03  3.449938E+04
       180   5  3.928984E+05 -1.771837E+02  4.920402E+03 -3.517654E+04  4.559497E+03  2.847715E+04
       180   6  3.933463E+05  8.279818E+01  2.994971E+03 -7.371286E+04  2.096160E+03  2.234484E+04
       180   7  1.249810E+06  2.118297E+05  2.081717E+05 -7.415341E+04  3.149262E+03  3.449817E+04
       180   8  1.116775E+06  1.782314E+05  1.737167E+05 -3.557383E+04  6.195574E+02  2.847818E+04
       180   9  9.846165E+05  1.458977E+05  1.412677E+05 -7.406080E+04 -1.917336E+03  2.234823E+04
       180  10 -4.625384E+05 -2.102494E+05 -1.906167E+05 -7.327199E+04 -7.873856E-10 -2.518075E-10
       180  11 -3.304963E+05 -1.786237E+05 -1.639130E+05 -3.477980E+04 -7.378353E-10 -1.254394E-10
       180  12 -1.976022E+05 -1.457574E+05 -1.353025E+05 -7.336525E+04  1.728135E-10 -7.083099E-10
       180  13  3.932980E+05  8.154122E+02  8.801134E+03 -7.371250E+04 -1.178037E-09 -1.392965E-10
       180  14  3.928982E+05 -1.780602E+02  4.918838E+03 -3.517665E+04  1.680704E-09  3.306538E-10
       180  15  3.933462E+05  8.226074E+01  2.994024E+03 -7.371290E+04  3.655824E-10  6.705389E-10
       180  16  1.249810E+06  2.118284E+05  2.081694E+05 -7.415349E+04  7.424228E-10 -1.633972E-10
       180  17  1.116775E+06  1.782305E+05  1.737151E+05 -3.557385E+04  9.832977E-10 -6.163756E-10
       180  18  9.846163E+05  1.458971E+05  1.412668E+05 -7.406076E+04  7.098013E-10 -3.132716E-10
       180  19 -4.625379E+05 -2.102481E+05 -1.906142E+05 -7.327168E+04 -1.087567E+04 -3.450059E+04
       180  20 -3.304960E+05 -1.786228E+05 -1.639113E+05 -3.477960E+04 -8.494877E+03 -2.847612E+04
       180  21 -1.976020E+05 -1.457569E+05 -1.353015E+05 -7.336514E+04 -6.105863E+03 -2.234145E+04
       180  22  3.932984E+05  8.167038E+02  8.803464E+03 -7.371230E+04 -7.015113E+03 -3.449938E+04
       180  23  3.928984E+05 -1.771837E+02  4.920402E+03 -3.517654E+04 -4.559497E+03 -2.847715E+04
       180  24  3.933463E+05  8.279818E+01  2.994971E+03 -7.371286E+04 -2.096160E+03 -2.234484E+04
       180  25  1.249810E+06  2.118297E+05  2.081717E+05 -7.415341E+04 -3.149262E+03 -3.449817E+04
       180  26  1.116775E+06  1.782314E+05  1.737167E+05 -3.557383E+04 -6.195574E+02 -2.847818E+04
       180  27  9.846165E+05  1.458977E+05  1.412677E+05 -7.406080E+04  1.917336E+03 -2.234823E+04
       181   1 -5.967971E+04 -1.114288E+05 -1.029205E+05 -7.322653E+04  5.574973E+03  1.875344E+04
       181   2  7.224043E+04 -7.909510E+04 -7.329025E+04 -3.494904E+04  4.776624E+03  1.263069E+04
       181   3  2.041593E+05 -4.646759E+04 -4.311173E+04 -7.340584E+04  3.974719E+03  6.507356E+03
       181   4  3.931913E+05  1.879796E+02  2.363795E+03 -7.363703E+04  1.607742E+03  1.875785E+04
       181   5  3.932095E+05  6.180027E+01  1.600910E+03 -3.527111E+04  8.081785E+02  1.263606E+04
       181   6  3.932123E+05  2.312237E+02  1.388210E+03 -7.363701E+04  5.224557E+00  6.513765E+03
       181   7  8.462516E+05  1.117903E+05  1.076343E+05 -7.404775E+04 -2.362363E+03  1.876227E+04
       181   8  7.142736E+05  7.921142E+04  7.648515E+04 -3.559330E+04 -3.162305E+03  1.264144E+04
       181   9  5.822982E+05  4.692749E+04  4.588575E+04 -7.386824E+04 -3.965471E+03  6.520175E+03
       181  10 -5.967984E+04 -1.114292E+05 -1.029212E+05 -7.322661E+04 -9.354930E-10 -6.962420E-11
       181  11  7.224036E+04 -7.909528E+04 -7.329059E+04 -3.494909E+04 -1.402423E-09  2.491599E-10
       181  12  2.041593E+05 -4.646764E+04 -4.311184E+04 -7.340586E+04  6.901445E-10 -2.831688E-10
       181  13  3.931912E+05  1.876010E+02  2.363128E+03 -7.363705E+04 -7.941627E-10 -1.085691E-09
       181  14  3.932095E+05  6.162860E+01  1.600609E+03 -3.527112E+04 -1.057491E-09  3.659791E-10
       181  15  3.932123E+05  2.311782E+02  1.388130E+03 -7.363701E+04 -9.137196E-10 -9.927108E-10
       181  16  8.462515E+05  1.117899E+05  1.076337E+05 -7.404772E+04  1.225847E-09  1.279706E-10
       181  17  7.142735E+05  7.921125E+04  7.648483E+04 -3.559327E+04  8.206415E-10 -2.835747E-10
       181  18  5.822982E+05  4.692744E+04  4.588564E+04 -7.386822E+04 -7.557682E-10 -1.636432E-09
       181  19 -5.967971E+04 -1.114288E+05 -1.029205E+05 -7.322653E+04 -5.574973E+03 -1.875344E+04
       181  20  7.224043E+04 -7.909510E+04 -7.329025E+04 -3.494904E+04 -4.776624E+03 -1.263069E+04
       181  21  2.041593E+05 -4.646759E+04 -4.311173E+04 -7.340584E+04 -3.974719E+03 -6.507356E+03
       181  22  3.931913E+05  1.879796E+02  2.363795E+03 -7.363703E+04 -1.607742E+03 -1.875785E+04
       181  23  3.932095E+05  6.180027E+01  1.600910E+03 -3.527111E+04 -8.081785E+02 -1.263606E+04
       181  24  3.932123E+05  2.312237E+02  1.388210E+03 -7.363701E+04 -5.224557E+00 -6.513765E+03
       181  25  8.462516E+05  1.117903E+05  1.076343E+05 -7.404775E+04  2.362363E+03 -1.876227E+04
       181  26  7.142736E+05  7.921142E+04  7.648515E+04 -3.559330E+04  3.162305E+03 -1.264144E+04
       181  27  5.822982E+05  4.692749E+04  4.588575E+04 -7.386824E+04  3.965471E+03 -6.520175E+03
       182   1  3.419071E+05 -1.234533E+04 -1.014417E+04 -7.354448E+04  3.711274E+03  2.944012E+03
       182   2  4.737586E+05  1.993986E+04  2.064597E+04 -3.535769E+04  2.776194E+03 -3.173701E+03
       182   3  6.055465E+05  5.255953E+04  5.206217E+04 -7.382640E+04  1.841764E+03 -9.287363E+03
       182   4  3.932059E+05  2.254033E+02  1.430675E+03 -7.362022E+04 -2.571868E+02  2.950665E+03
       182   5  3.932443E+05  8.839645E+01  1.864186E+03 -3.529211E+04 -1.189957E+03 -3.167335E+03
       182   6  3.932005E+05  2.861675E+02  2.922611E+03 -7.362009E+04 -2.121883E+03 -9.281218E+03
       182   7  4.445073E+05  1.279596E+04  1.300541E+04 -7.369597E+04 -4.225973E+03  2.957319E+03
       182   8  3.127359E+05 -1.976351E+04 -1.691798E+04 -3.522654E+04 -5.155598E+03 -3.160969E+03
       182   9  1.808962E+05 -5.199035E+04 -4.621990E+04 -7.341383E+04 -6.084186E+03 -9.275074E+03
       182  10  3.419071E+05 -1.234534E+04 -1.014422E+04 -7.354449E+04 -1.640303E-09  7.286301E-10
       182  11  4.737586E+05  1.993984E+04  2.064594E+04 -3.535768E+04 -1.323990E-09  2.401517E-09
       182  12  6.055465E+05  5.255944E+04  5.206200E+04 -7.382639E+04  1.159276E-09 -1.236455E-09
       182  13  3.932059E+05  2.253939E+02  1.430658E+03 -7.362022E+04  1.186066E-10 -2.787200E-10
       182  14  3.932443E+05  8.838530E+01  1.864165E+03 -3.529211E+04 -1.985431E-09 -6.727806E-10
       182  15  3.932005E+05  2.860738E+02  2.922441E+03 -7.362011E+04 -5.821638E-11  5.999837E-11
       182  16  4.445073E+05  1.279595E+04  1.300536E+04 -7.369596E+04  8.441465E-10 -2.884305E-10
       182  17  3.127359E+05 -1.976353E+04 -1.691805E+04 -3.522655E+04  1.320662E-09 -3.801984E-10
       182  18  1.808962E+05 -5.199045E+04 -4.622013E+04 -7.341388E+04 -1.984559E-09 -2.080356E-10
       182  19  3.419071E+05 -1.234533E+04 -1.014417E+04 -7.354448E+04 -3.711274E+03 -2.944012E+03
       182  20  4.737586E+05  1.993986E+04  2.064597E+04 -3.535769E+04 -2.776194E+03  3.173701E+03
       182  21  6.055465E+05  5.255953E+04  5.206217E+04 -7.382640E+04 -1.841764E+03  9.287363E+03
       182  22  3.932059E+05  2.254033E+02  1.430675E+03 -7.362022E+04  2.571868E+02 -2.950665E+03
       182  23  3.932443E+05  8.839645E+01  1.864186E+03 -3.529211E+04  1.189957E+03  3.167335E+03
       182  24  3.932005E+05  2.861675E+02  2.922611E+03 -7.362009E+04  2.121883E+03  9.281218E+03
       182  25  4.445073E+05  1.279596E+04  1.300541E+04 -7.369597E+04  4.225973E+03 -2.957319E+03
       182  26  3.127359E+05 -1.976351E+04 -1.691798E+04 -3.522654E+04  5.155598E+03  3.160969E+03
       182  27  1.808962E+05 -5.199035E+04 -4.621990E+04 -7.341383E+04  6.084186E+03  9.275074E+03
       183   1  7.436090E+05  8.655812E+04  8.582153E+04 -7.381713E+04  1.271018E+03 -1.286394E+04
       183   2  8.753937E+05  1.187949E+05  1.187994E+05 -3.564797E+04 -1.940835E+03 -1.897810E+04
       183   3  1.007950E+06  1.526559E+05  1.542520E+05 -7.431214E+04 -5.148173E+03 -2.499508E+04
       183   4  3.933645E+05  1.392500E+02  3.743596E+03 -7.366080E+04 -2.728260E+03 -1.285832E+04
       183   5  3.929759E+05 -1.207221E+02  6.290531E+03 -3.524161E+04 -5.875225E+03 -1.897410E+04
       183   6  3.933322E+05  1.234205E+03  1.126965E+04 -7.365940E+04 -9.017006E+03 -2.499260E+04
       183   7  4.323300E+04 -8.628832E+04 -7.834265E+04 -7.350450E+04 -6.725297E+03 -1.285270E+04
       183   8 -8.922753E+04 -1.190528E+05 -1.062341E+05 -3.483550E+04 -9.806581E+03 -1.897010E+04
       183   9 -2.209373E+05 -1.502141E+05 -1.317381E+05 -7.300719E+04 -1.288204E+04 -2.499013E+04
       183  10  7.436089E+05  8.655794E+04  8.582121E+04 -7.381712E+04  1.966211E-10 -1.572066E-09
       183  11  8.753936E+05  1.187946E+05  1.187987E+05 -3.564800E+04 -1.767754E-09  8.652584E-11
       183  12  1.007950E+06  1.526552E+05  1.542508E+05 -7.431224E+04 -1.504125E-09  3.021874E-10
       183  13  3.933645E+05  1.390705E+02  3.743271E+03 -7.366083E+04 -4.419310E-10 -4.157699E-11
       183  14  3.929758E+05 -1.211181E+02  6.289790E+03 -3.524170E+04 -3.558308E-10 -7.163728E-10
       183  15  3.933320E+05  1.233512E+03  1.126832E+04 -7.365958E+04  8.784804E-10 -9.342495E-11
       183  16  4.323291E+04 -8.628851E+04 -7.834304E+04 -7.350457E+04 -5.190286E-10 -2.370652E-10
       183  17 -8.922773E+04 -1.190532E+05 -1.062349E+05 -3.483565E+04 -6.120996E-10  1.294556E-09
       183  18 -2.209376E+05 -1.502149E+05 -1.317396E+05 -7.300745E+04  1.036071E-09  5.829930E-10
       183  19  7.436090E+05  8.655812E+04  8.582153E+04 -7.381713E+04 -1.271018E+03  1.286394E+04
       183  20  8.753937E+05  1.187949E+05  1.187994E+05 -3.564797E+04  1.940835E+03  1.897810E+04
       183  21  1.007950E+06  1.526559E+05  1.542520E+05 -7.431214E+04  5.148173E+03  2.499508E+04
       183  22  3.933645E+05  1.392500E+02  3.743596E+03 -7.366080E+04  2.728260E+03  1.285832E+04
       183  23  3.929759E+05 -1.207221E+02  6.290531E+03 -3.524161E+04  5.875225E+03  1.897410E+04
       183  24  3.933322E+05  1.234205E+03  1.126965E+04 -7.365940E+04  9.017006E+03  2.499260E+04
       183  25  4.323300E+04 -8.628832E+04 -7.834265E+04 -7.350450E+04  6.725297E+03  1.285270E+04
       183  26 -8.922753E+04 -1.190528E+05 -1.062341E+05 -3.483550E+04  9.806581E+03  1.897010E+04
       183  27 -2.209373E+05 -1.502141E+05 -1.317381E+05 -7.300719E+04  1.288204E+04  2.499013E+04
       184   1  1.147688E+06  1.849295E+05  1.905067E+05 -7.188513E+04 -6.826178E+03 -2.881742E+04
       184   2  1.277382E+06  2.167057E+05  2.313278E+05 -3.659416E+04 -2.063793E+04 -3.475443E+04
       184   3  1.413648E+06  2.656851E+05  2.855222E+05 -7.852865E+04 -3.444353E+04 -3.877899E+04
       184   4  3.945301E+05 -7.553078E+02  1.454746E+04 -7.374951E+04 -1.129712E+04 -2.881578E+04
       184   5  3.913235E+05 -1.662427E+03  2.469649E+04 -3.513170E+04 -2.385161E+04 -3.475642E+04
       184   6  3.944675E+05  1.443148E+04  4.736193E+04 -7.374552E+04 -3.639705E+04 -3.878346E+04
       184   7 -3.581059E+05 -1.864803E+05 -1.614502E+05 -7.561146E+04 -1.576268E+04 -2.881412E+04
       184   8 -4.940121E+05 -2.200861E+05 -1.819880E+05 -3.367124E+04 -2.706073E+04 -3.475842E+04
       184   9 -6.237572E+05 -2.368957E+05 -1.908689E+05 -6.897021E+04 -3.834736E+04 -3.878796E+04
       184  10  1.147688E+06  1.849286E+05  1.905050E+05 -7.188529E+04 -2.079130E-09  8.216527E-10
       184  11  1.277381E+06  2.167043E+05  2.313247E+05 -3.659474E+04  3.860756E-10  3.242249E-11
       184  12  1.413646E+06  2.656832E+05  2.855171E+05 -7.852972E+04 -1.418817E-09  1.745199E-10
       184  13  3.945297E+05 -7.562339E+02  1.454566E+04 -7.374977E+04 -2.192560E-10  6.758738E-10
       184  14  3.913225E+05 -1.663877E+03  2.469315E+04 -3.513237E+04  8.822175E-11  4.504731E-10
       184  15  3.944657E+05  1.442951E+04  4.735661E+04 -7.374665E+04  4.160989E-10  2.193654E-10
       184  16 -3.581064E+05 -1.864812E+05 -1.614522E+05 -7.561183E+04  4.677785E-10  4.925932E-10
       184  17 -4.940132E+05 -2.200876E+05 -1.819916E+05 -3.367200E+04  1.511628E-09 -3.847065E-10
       184  18 -6.237592E+05 -2.368977E+05 -1.908745E+05 -6.897141E+04  1.716179E-10  4.474342E-11
       184  19  1.147688E+06  1.849295E+05  1.905067E+05 -7.188513E+04  6.826178E+03  2.881742E+04
       184  20  1.277382E+06  2.167057E+05  2.313278E+05 -3.659416E+04  2.063793E+04  3.475443E+04
       184  21  1.413648E+06  2.656851E+05  2.855222E+05 -7.852865E+04  3.444353E+04  3.877899E+04
       184  22  3.945301E+05 -7.553078E+02  1.454746E+04 -7.374951E+04  1.129712E+04  2.881578E+04
       184  23  3.913235E+05 -1.662427E+03  2.469649E+04 -3.513170E+04  2.385161E+04  3.475642E+04
       184  24  3.944675E+05  1.443148E+04  4.736193E+04 -7.374552E+04  3.639705E+04  3.878346E+04
       184  25 -3.581059E+05 -1.864803E+05 -1.614502E+05 -7.561146E+04  1.576268E+04  2.881412E+04
       184  26 -4.940121E+05 -2.200861E+05 -1.819880E+05 -3.367124E+04  2.706073E+04  3.475842E+04
       184  27 -6.237572E+05 -2.368957E+05 -1.908689E+05 -6.897021E+04  3.834736E+04  3.878796E+04
       185   1  1.564889E+06  2.757467E+05  3.282849E+05 -4.815208E+04 -3.243025E+04 -4.683077E+04
       185   2  1.668914E+06  3.015835E+05  3.976338E+05 -5.493656E+04 -1.065973E+05 -4.912230E+04
       185   3  1.834176E+06  5.287000E+05  5.657690E+05 -1.387497E+05 -1.808315E+05 -1.640150E+04
       185   4  4.057381E+05 -9.775403E+03  5.858874E+04 -7.364658E+04 -4.520817E+04 -4.683840E+04
       185   5  3.769894E+05 -1.683211E+04  9.574600E+04 -3.524028E+04 -9.654650E+04 -4.912403E+04
       185   6  4.056236E+05  1.736510E+05  2.159810E+05 -7.385932E+04 -1.479330E+05 -1.637579E+04
       185   7 -7.521733E+05 -2.953897E+05 -2.111971E+05 -9.909325E+04 -5.796238E+04 -4.684499E+04
       185   8 -9.133990E+05 -3.353644E+05 -2.062546E+05 -1.558546E+04 -8.651628E+04 -4.912514E+04
       185   9 -1.021063E+06 -1.815323E+05 -1.339499E+05 -9.118717E+03 -1.151096E+05 -1.634321E+04
       185  10  1.564887E+06  2.757440E+05  3.282788E+05 -4.815330E+04  4.704080E-11  3.342111E-10
       185  11  1.668901E+06  3.015779E+05  3.976079E+05 -5.494077E+04  5.411741E-10  3.760939E-10
       185  12  1.834141E+06  5.286909E+05  5.657072E+05 -1.387521E+05 -7.005963E-11 -1.082852E-10
       185  13  4.057353E+05 -9.778308E+03  5.858077E+04 -7.364828E+04 -8.344459E-10  7.974853E-10
       185  14  3.769787E+05 -1.683720E+04  9.572396E+04 -3.524410E+04  4.421157E-11  1.929627E-09
       185  15  4.056000E+05  1.736448E+05  2.159394E+05 -7.386127E+04  7.533175E-10 -3.189364E-10
       185  16 -7.521775E+05 -2.953930E+05 -2.112075E+05 -9.909544E+04 -2.580263E-10  4.941014E-10
       185  17 -9.134077E+05 -3.353690E+05 -2.062732E+05 -1.558888E+04 -2.327944E-09  3.447478E-10
       185  18 -1.021077E+06 -1.815362E+05 -1.339754E+05 -9.120233E+03 -4.157141E-10 -5.244082E-10
       185  19  1.564889E+06  2.757467E+05  3.282849E+05 -4.815208E+04  3.243025E+04  4.683077E+04
       185  20  1.668914E+06  3.015835E+05  3.976338E+05 -5.493656E+04  1.065973E+05  4.912230E+04
       185  21  1.834176E+06  5.287000E+05  5.657690E+05 -1.387497E+05  1.808315E+05  1.640150E+04
       185  22  4.057381E+05 -9.775403E+03  5.858874E+04 -7.364658E+04  4.520817E+04  4.683840E+04
       185  23  3.769894E+05 -1.683211E+04  9.574600E+04 -3.524028E+04  9.654650E+04  4.912403E+04
       185  24  4.056236E+05  1.736510E+05  2.159810E+05 -7.385932E+04  1.479330E+05  1.637579E+04
       185  25 -7.521733E+05 -2.953897E+05 -2.111971E+05 -9.909325E+04  5.796238E+04  4.684499E+04
       185  26 -9.133990E+05 -3.353644E+05 -2.062546E+05 -1.558546E+04  8.651628E+04  4.912514E+04
       185  27 -1.021063E+06 -1.815323E+05 -1.339499E+05 -9.118717E+03  1.151096E+05  1.634321E+04
       186   1  2.164956E+05  6.625629E+05  2.402196E+05 -1.801270E+05  3.139846E+03  9.452314E+04
       186   2  3.701855E+04  3.954077E+05  1.046620E+05 -7.947719E+04  6.581395E+03  5.362517E+04
       186   3 -1.937198E+04  1.632980E+05  2.625361E+04 -1.233257E+05 -3.221369E+03  1.270131E+04
       186   4  1.067854E+05  2.236258E+05  1.319396E+05 -1.385506E+05  3.166957E+03  8.805496E+04
       186   5 -9.630837E+03  2.068783E+05  6.037796E+04 -6.648054E+04  6.575670E+03  5.576526E+04
       186   6 -4.424206E+03  2.236575E+05  4.002418E+04 -1.388997E+05 -3.258062E+03  2.343332E+04
       186   7 -2.932827E+03 -2.151326E+05  2.364638E+04 -9.700345E+04  3.193214E+03  8.159133E+04
       186   8 -5.628214E+04  1.838190E+04  1.609154E+04 -5.348783E+04  6.570035E+03  5.790471E+04
       186   9  1.052429E+04  2.840211E+05  5.379506E+04 -1.544753E+05 -3.295291E+03  3.416637E+04
       186  10  2.164932E+05  6.625533E+05  2.402028E+05 -1.801272E+05  1.381038E-09  1.263492E-09
       186  11  3.701774E+04  3.954046E+05  1.046566E+05 -7.947747E+04  1.241924E-09 -1.474702E-09
       186  12 -1.937204E+04  1.632978E+05  2.625329E+04 -1.233257E+05  8.920145E-10 -1.520032E-09
       186  13  1.067833E+05  2.236175E+05  1.319250E+05 -1.385508E+05  1.468441E-09 -1.571964E-09
       186  14 -9.631718E+03  2.068749E+05  6.037204E+04 -6.648083E+04  4.249538E-10 -8.402468E-10
       186  15 -4.424365E+03  2.236569E+05  4.002312E+04 -1.388997E+05  1.404478E-09 -4.864003E-10
       186  16 -2.934626E+03 -2.151398E+05  2.363385E+04 -9.700366E+04 -1.982673E-10 -1.223511E-09
       186  17 -5.628309E+04  1.837829E+04  1.608516E+04 -5.348814E+04  3.420534E-09  2.588784E-09
       186  18  1.052396E+04  2.840199E+05  5.379285E+04 -1.544752E+05  1.362139E-10  1.737200E-09
       186  19  2.164956E+05  6.625629E+05  2.402196E+05 -1.801270E+05 -3.139846E+03 -9.452314E+04
       186  20  3.701855E+04  3.954077E+05  1.046620E+05 -7.947719E+04 -6.581395E+03 -5.362517E+04
       186  21 -1.937198E+04  1.632980E+05  2.625361E+04 -1.233257E+05  3.221369E+03 -1.270131E+04
       186  22  1.067854E+05  2.236258E+05  1.319396E+05 -1.385506E+05 -3.166957E+03 -8.805496E+04
       186  23 -9.630837E+03  2.068783E+05  6.037796E+04 -6.648054E+04 -6.575670E+03 -5.576526E+04
       186  24 -4.424206E+03  2.236575E+05  4.002418E+04 -1.388997E+05  3.258062E+03 -2.343332E+04
       186  25 -2.932827E+03 -2.151326E+05  2.364638E+04 -9.700345E+04 -3.193214E+03 -8.159133E+04
       186  26 -5.628214E+04  1.838190E+04  1.609154E+04 -5.348783E+04 -6.570035E+03 -5.790471E+04
       186  27  1.052429E+04  2.840211E+05  5.379506E+04 -1.544753E+05  3.295291E+03 -3.416637E+04
       187   1 -6.988836E+04 -1.041991E+05 -4.068978E+04 -1.420351E+05 -1.193012E+04  9.843836E+03
       187   2 -1.421742E+05 -3.565515E+05 -1.080871E+05 -6.532886E+04 -2.241494E+04 -2.069139E+03
       187   3 -1.963083E+05 -6.035635E+05 -1.633802E+05 -1.337735E+05 -3.142978E+04 -1.396291E+04
       187   4  9.471958E+03  2.173897E+05  3.467809E+04 -1.389296E+05 -1.195402E+04  1.714574E+04
       187   5 -1.252064E+03  2.146318E+05  2.526385E+04 -6.636452E+04 -2.243265E+04  4.271961E+03
       187   6  6.338624E+03  2.173196E+05  2.861955E+04 -1.389405E+05 -3.144194E+04 -8.587293E+03
       187   7  8.882500E+04  5.390739E+05  1.100391E+05 -1.358223E+05 -1.197785E+04  2.445141E+04
       187   8  1.396470E+05  7.861160E+05  1.585928E+05 -6.740090E+04 -2.245036E+04  1.061886E+04
       187   9  2.089378E+05  1.038824E+06  2.205735E+05 -1.441138E+05 -3.145419E+04 -3.204600E+03
       187  10 -6.988854E+04 -1.041993E+05 -4.069023E+04 -1.420350E+05 -1.944606E-09  1.169455E-09
       187  11 -1.421748E+05 -3.565517E+05 -1.080881E+05 -6.532890E+04  3.089305E-10 -9.137312E-10
       187  12 -1.963094E+05 -6.035640E+05 -1.633824E+05 -1.337739E+05  6.124854E-10 -2.436553E-10
       187  13  9.471726E+03  2.173893E+05  3.467727E+04 -1.389294E+05 -9.911597E-10 -1.694262E-09
       187  14 -1.252609E+03  2.146316E+05  2.526287E+04 -6.636444E+04  2.489392E-10 -8.495769E-10
       187  15  6.337543E+03  2.173193E+05  2.861756E+04 -1.389407E+05 -1.055155E-10 -4.196199E-10
       187  16  8.882469E+04  5.390732E+05  1.100377E+05 -1.358221E+05 -1.258880E-09 -1.261152E-09
       187  17  1.396464E+05  7.861158E+05  1.585917E+05 -6.740071E+04 -1.820812E-09  2.019300E-09
       187  18  2.089367E+05  1.038824E+06  2.205716E+05 -1.441139E+05 -4.539468E-11  4.388639E-10
       187  19 -6.988836E+04 -1.041991E+05 -4.068978E+04 -1.420351E+05  1.193012E+04 -9.843836E+03
       187  20 -1.421742E+05 -3.565515E+05 -1.080871E+05 -6.532886E+04  2.241494E+04  2.069139E+03
       187  21 -1.963083E+05 -6.035635E+05 -1.633802E+05 -1.337735E+05  3.142978E+04  1.396291E+04
       187  22  9.471958E+03  2.173897E+05  3.467809E+04 -1.389296E+05  1.195402E+04 -1.714574E+04
       187  23 -1.252064E+03  2.146318E+05  2.526385E+04 -6.636452E+04  2.243265E+04 -4.271961E+03
       187  24  6.338624E+03  2.173196E+05  2.861955E+04 -1.389405E+05  3.144194E+04  8.587293E+03
       187  25  8.882500E+04  5.390739E+05  1.100391E+05 -1.358223E+05  1.197785E+04 -2.445141E+04
       187  26  1.396470E+05  7.861160E+05  1.585928E+05 -6.740090E+04  2.245036E+04 -1.061886E+04
       187  27  2.089378E+05  1.038824E+06  2.205735E+05 -1.441138E+05  3.145419E+04  3.204600E+03
       188   1 -2.698376E+05 -8.609562E+05 -2.210336E+05 -1.476439E+05 -4.332877E+04 -3.121418E+04
       188   2 -3.359435E+05 -1.121851E+06 -2.678526E+05 -5.596238E+04 -5.035158E+04 -2.855164E+04
       188   3 -3.200916E+05 -1.361914E+06 -2.957913E+05 -1.085140E+05 -1.717812E+04 -2.583007E+04
       188   4 -2.814388E+03  2.215932E+05  3.138410E+04 -1.387740E+05 -4.336876E+04 -1.368559E+04
       188   5 -7.275971E+03  2.088871E+05  4.376039E+04 -6.661132E+04 -5.032793E+04 -3.707182E+04
       188   6  7.465126E+04  2.214224E+05  9.306976E+04 -1.386558E+05 -1.712919E+04 -6.039841E+04
       188   7  2.641264E+05  1.305225E+06  2.837237E+05 -1.298878E+05 -4.340821E+04  3.873412E+03
       188   8  3.212661E+05  1.541259E+06  3.552529E+05 -7.728243E+04 -5.030401E+04 -4.561011E+04
       188   9  4.692118E+05  1.807048E+06  4.817514E+05 -1.688738E+05 -1.707697E+04 -9.505474E+04
       188  10 -2.698398E+05 -8.609577E+05 -2.210390E+05 -1.476450E+05  1.530254E-10  7.373253E-10
       188  11 -3.359464E+05 -1.121852E+06 -2.678589E+05 -5.596354E+04  1.539041E-09 -6.201415E-10
       188  12 -3.200921E+05 -1.361915E+06 -2.957931E+05 -1.085144E+05 -4.292463E-11 -6.032136E-10
       188  13 -2.816458E+03  2.215925E+05  3.138021E+04 -1.387745E+05  1.298858E-09 -1.276910E-09
       188  14 -7.279060E+03  2.088849E+05  4.375305E+04 -6.661282E+04  1.882566E-10 -4.138836E-10
       188  15  7.464997E+04  2.214184E+05  9.306235E+04 -1.386567E+05  5.478801E-10 -1.201266E-10
       188  16  2.641244E+05  1.305225E+06  2.837201E+05 -1.298876E+05 -1.006880E-09 -6.607269E-10
       188  17  3.212628E+05  1.541256E+06  3.552442E+05 -7.728428E+04  4.617181E-10  1.135917E-09
       188  18  4.692091E+05  1.807039E+06  4.817339E+05 -1.688751E+05  6.238171E-11  5.264448E-10
       188  19 -2.698376E+05 -8.609562E+05 -2.210336E+05 -1.476439E+05  4.332877E+04  3.121418E+04
       188  20 -3.359435E+05 -1.121851E+06 -2.678526E+05 -5.596238E+04  5.035158E+04  2.855164E+04
       188  21 -3.200916E+05 -1.361914E+06 -2.957913E+05 -1.085140E+05  1.717812E+04  2.583007E+04
       188  22 -2.814388E+03  2.215932E+05  3.138410E+04 -1.387740E+05  4.336876E+04  1.368559E+04
       188  23 -7.275971E+03  2.088871E+05  4.376039E+04 -6.661132E+04  5.032793E+04  3.707182E+04
       188  24  7.465126E+04  2.214224E+05  9.306976E+04 -1.386558E+05  1.712919E+04  6.039841E+04
       188  25  2.641264E+05  1.305225E+06  2.837237E+05 -1.298878E+05  4.340821E+04 -3.873412E+03
       188  26  3.212661E+05  1.541259E+06  3.552529E+05 -7.728243E+04  5.030401E+04  4.561011E+04
       188  27  4.692118E+05  1.807048E+06  4.817514E+05 -1.688738E+05  1.707697E+04  9.505474E+04
       189   1 -3.476659E+06 -1.244790E+06 -7.936662E+05 -1.227059E+06 -3.219919E+05 -1.041068E+05
       189   2 -3.364145E+06 -7.655599E+05 -4.931206E+05 -1.226753E+06 -2.102579E+05 -2.578973E+04
       189   3 -3.376211E+06 -7.165016E+05 -3.921119E+05 -1.169171E+06 -8.601421E+04  1.949401E+04
       189   4 -2.308976E+06 -6.816125E+05 -4.530637E+05 -7.846917E+05 -2.933152E+05 -9.334612E+04
       189   5 -2.224478E+06 -2.998557E+05 -1.913648E+05 -8.769574E+05 -2.013531E+05 -2.245180E+04
       189   6 -2.260346E+06 -3.439187E+05 -1.131966E+05 -9.120287E+05 -9.690319E+04  1.539363E+04
       189   7 -1.139928E+06 -1.180815E+05 -1.125900E+05 -3.414829E+05 -2.645785E+05 -8.254866E+04
       189   8 -1.083536E+06  1.659967E+05  1.102783E+05 -5.265544E+05 -1.924300E+05 -1.910563E+04
       189   9 -1.143267E+06  2.868118E+04  1.656226E+05 -6.544954E+05 -1.078136E+05  1.128728E+04
       189  10 -3.476774E+06 -1.244830E+06 -7.938828E+05 -1.227086E+06 -7.392318E-10 -4.886360E-10
       189  11 -3.364193E+06 -7.655726E+05 -4.932054E+05 -1.226757E+06  2.042807E-09  1.630944E-09
       189  12 -3.376219E+06 -7.165040E+05 -3.921266E+05 -1.169170E+06  1.462871E-09  1.100227E-09
       189  13 -2.309071E+06 -6.816451E+05 -4.532425E+05 -7.847139E+05  3.103477E-09 -8.925524E-10
       189  14 -2.224522E+06 -2.998672E+05 -1.914422E+05 -8.769610E+05  3.869846E-09 -9.100457E-11
       189  15 -2.260356E+06 -3.439215E+05 -1.132147E+05 -9.120275E+05  5.116326E-09 -2.886405E-11
       189  16 -1.140005E+06 -1.181077E+05 -1.127346E+05 -3.415005E+05  9.326314E-10  5.653946E-10
       189  17 -1.083576E+06  1.659863E+05  1.102079E+05 -5.265574E+05  2.317941E-09 -7.803103E-10
       189  18 -1.143280E+06  2.867791E+04  1.656005E+05 -6.544944E+05  1.000139E-09  6.595120E-10
       189  19 -3.476659E+06 -1.244790E+06 -7.936662E+05 -1.227059E+06  3.219919E+05  1.041068E+05
       189  20 -3.364145E+06 -7.655599E+05 -4.931206E+05 -1.226753E+06  2.102579E+05  2.578973E+04
       189  21 -3.376211E+06 -7.165016E+05 -3.921119E+05 -1.169171E+06  8.601421E+04 -1.949401E+04
       189  22 -2.308976E+06 -6.816125E+05 -4.530637E+05 -7.846917E+05  2.933152E+05  9.334612E+04
       189  23 -2.224478E+06 -2.998557E+05 -1.913648E+05 -8.769574E+05  2.013531E+05  2.245180E+04
       189  24 -2.260346E+06 -3.439187E+05 -1.131966E+05 -9.120287E+05  9.690319E+04 -1.539363E+04
       189  25 -1.139928E+06 -1.180815E+05 -1.125900E+05 -3.414829E+05  2.645785E+05  8.254866E+04
       189  26 -1.083536E+06  1.659967E+05  1.102783E+05 -5.265544E+05  1.924300E+05  1.910563E+04
       189  27 -1.143267E+06  2.868118E+04  1.656226E+05 -6.544954E+05  1.078136E+05 -1.128728E+04
       190   1 -3.217920E+06 -7.635812E+05 -3.451817E+05 -1.163741E+06 -7.792804E+04  1.465937E+04
       190   2 -3.139553E+06 -6.678393E+05 -2.735990E+05 -1.117232E+06 -5.258763E+04  2.139555E+04
       190   3 -3.034174E+06 -6.507669E+05 -2.298249E+05 -1.111104E+06 -2.645489E+04  2.601654E+04
       190   4 -2.244860E+06 -3.881851E+05 -9.137745E+04 -8.879050E+05 -7.884072E+04  1.430958E+04
       190   5 -2.256281E+06 -3.336687E+05 -4.502386E+04 -8.734500E+05 -5.474184E+04  2.058173E+04
       190   6 -2.240431E+06 -3.575375E+05 -2.545689E+04 -8.993812E+05 -2.985513E+04  2.473800E+04
       190   7 -1.270871E+06 -1.271410E+04  1.623477E+05 -6.116694E+05 -7.975491E+04  1.395918E+04
       190   8 -1.372245E+06  5.550493E+02  1.834867E+05 -6.293517E+05 -5.689940E+04  1.976663E+04
       190   9 -1.446072E+06 -6.427352E+04  1.788592E+05 -6.874145E+05 -3.326015E+04  2.345774E+04
       190  10 -3.217927E+06 -7.635830E+05 -3.451936E+05 -1.163741E+06  2.852035E-09  4.219545E-10
       190  11 -3.139556E+06 -6.678406E+05 -2.736051E+05 -1.117231E+06  3.280226E-09  6.742165E-10
       190  12 -3.034175E+06 -6.507678E+05 -2.298275E+05 -1.111104E+06  1.927859E-09  5.468700E-11
       190  13 -2.244867E+06 -3.881870E+05 -9.138955E+04 -8.879041E+05  3.216594E-09  8.306932E-10
       190  14 -2.256285E+06 -3.336700E+05 -4.503030E+04 -8.734491E+05  2.753314E-09  9.262707E-10
       190  15 -2.240432E+06 -3.575384E+05 -2.545971E+04 -8.993806E+05  5.310034E-10 -1.014265E-10
       190  16 -1.270878E+06 -1.271601E+04  1.623353E+05 -6.116685E+05  1.701293E-09  8.578956E-10
       190  17 -1.372249E+06  5.537606E+02  1.834799E+05 -6.293508E+05  9.433080E-10  9.914407E-10
       190  18 -1.446074E+06 -6.427440E+04  1.788561E+05 -6.874139E+05 -8.531698E-10  1.736081E-10
       190  19 -3.217920E+06 -7.635812E+05 -3.451817E+05 -1.163741E+06  7.792804E+04 -1.465937E+04
       190  20 -3.139553E+06 -6.678393E+05 -2.735990E+05 -1.117232E+06  5.258763E+04 -2.139555E+04
       190  21 -3.034174E+06 -6.507669E+05 -2.298249E+05 -1.111104E+06  2.645489E+04 -2.601654E+04
       190  22 -2.244860E+06 -3.881851E+05 -9.137745E+04 -8.879050E+05  7.884072E+04 -1.430958E+04
       190  23 -2.256281E+06 -3.336687E+05 -4.502386E+04 -8.734500E+05  5.474184E+04 -2.058173E+04
       190  24 -2.240431E+06 -3.575375E+05 -2.545689E+04 -8.993812E+05  2.985513E+04 -2.473800E+04
       190  25 -1.270871E+06 -1.271410E+04  1.623477E+05 -6.116694E+05  7.975491E+04 -1.395918E+04
       190  26 -1.372245E+06  5.550493E+02  1.834867E+05 -6.293517E+05  5.689940E+04 -1.976663E+04
       190  27 -1.446072E+06 -6.427352E+04  1.788592E+05 -6.874145E+05  3.326015E+04 -2.345774E+04
       191   1 -2.918637E+06 -6.175947E+05 -1.951043E+05 -1.083776E+06 -2.224652E+04  2.408710E+04
       191   2 -2.839745E+06 -5.534027E+05 -1.600352E+05 -1.030363E+06 -1.506967E+04  2.130860E+04
       191   3 -2.716854E+06 -5.380806E+05 -1.297878E+05 -1.028586E+06 -7.820468E+03  1.832218E+04
       191   4 -2.238225E+06 -3.619753E+05 -1.968838E+04 -8.977325E+05 -2.509199E+04  2.301802E+04
       191   5 -2.260013E+06 -3.361311E+05 -1.043496E+04 -8.724390E+05 -1.803473E+04  2.019650E+04
       191   6 -2.237788E+06 -3.591287E+05 -5.903476E+03 -8.987823E+05 -1.090609E+04  1.716684E+04
       191   7 -1.557363E+06 -1.063271E+05  1.556886E+05 -7.115046E+05 -2.794088E+04  2.194764E+04
       191   8 -1.679953E+06 -1.188385E+05  1.391374E+05 -7.143807E+05 -2.100283E+04  1.908326E+04
       191   9 -1.758496E+06 -1.801622E+05  1.179622E+05 -7.688870E+05 -1.399435E+04  1.601052E+04
       191  10 -2.918638E+06 -6.175955E+05 -1.951063E+05 -1.083775E+06  8.330463E-10 -2.332633E-10
       191  11 -2.839746E+06 -5.534033E+05 -1.600364E+05 -1.030363E+06 -2.779724E-10  4.514120E-10
       191  12 -2.716854E+06 -5.380809E+05 -1.297885E+05 -1.028586E+06  1.358945E-10 -3.680380E-10
       191  13 -2.238226E+06 -3.619760E+05 -1.969056E+04 -8.977321E+05  2.688638E-10 -5.203754E-10
       191  14 -2.260014E+06 -3.361316E+05 -1.043634E+04 -8.724387E+05  6.148143E-10 -1.327317E-10
       191  15 -2.237788E+06 -3.591290E+05 -5.904252E+03 -8.987821E+05  2.900287E-10 -2.747996E-10
       191  16 -1.557364E+06 -1.063278E+05  1.556862E+05 -7.115041E+05 -9.872052E-10 -3.460981E-10
       191  17 -1.679953E+06 -1.188390E+05  1.391359E+05 -7.143804E+05 -4.915526E-10 -4.754398E-10
       191  18 -1.758496E+06 -1.801626E+05  1.179614E+05 -7.688868E+05  5.174946E-10  1.955008E-11
       191  19 -2.918637E+06 -6.175947E+05 -1.951043E+05 -1.083776E+06  2.224652E+04 -2.408710E+04
       191  20 -2.839745E+06 -5.534027E+05 -1.600352E+05 -1.030363E+06  1.506967E+04 -2.130860E+04
       191  21 -2.716854E+06 -5.380806E+05 -1.297878E+05 -1.028586E+06  7.820468E+03 -1.832218E+04
       191  22 -2.238225E+06 -3.619753E+05 -1.968838E+04 -8.977325E+05  2.509199E+04 -2.301802E+04
       191  23 -2.260013E+06 -3.361311E+05 -1.043496E+04 -8.724390E+05  1.803473E+04 -2.019650E+04
       191  24 -2.237788E+06 -3.591287E+05 -5.903476E+03 -8.987823E+05  1.090609E+04 -1.716684E+04
       191  25 -1.557363E+06 -1.063271E+05  1.556886E+05 -7.115046E+05  2.794088E+04 -2.194764E+04
       191  26 -1.679953E+06 -1.188385E+05  1.391374E+05 -7.143807E+05  2.100283E+04 -1.908326E+04
       191  27 -1.758496E+06 -1.801622E+05  1.179622E+05 -7.688870E+05  1.399435E+04 -1.601052E+04
       192   1 -2.600927E+06 -4.958558E+05 -9.801356E+04 -9.978873E+05 -5.859250E+03  1.566764E+04
       192   2 -2.519683E+06 -4.328365E+05 -6.959401E+04 -9.423306E+05 -2.520224E+03  1.108976E+04
       192   3 -2.391567E+06 -4.172705E+05 -4.231449E+04 -9.409316E+05  8.333549E+02  6.465263E+03
       192   4 -2.237265E+06 -3.598045E+05 -4.592905E+03 -8.989621E+05 -8.936759E+03  1.451625E+04
       192   5 -2.260670E+06 -3.359361E+05 -2.799998E+03 -8.719327E+05 -5.625063E+03  9.928977E+03
       192   6 -2.237208E+06 -3.595143E+05 -2.124128E+03 -8.990635E+05 -2.299102E+03  5.295048E+03
       192   7 -1.873473E+06 -2.237450E+05  8.881689E+04 -7.999843E+05 -1.201625E+04  1.336412E+04
       192   8 -2.001592E+06 -2.390317E+05  6.398837E+04 -8.015083E+05 -8.731320E+03  8.767664E+03
       192   9 -2.082827E+06 -3.017568E+05  3.806412E+04 -8.571860E+05 -5.432404E+03  4.124519E+03
       192  10 -2.600927E+06 -4.958561E+05 -9.801409E+04 -9.978872E+05  2.613467E-10 -7.830789E-10
       192  11 -2.519684E+06 -4.328367E+05 -6.959426E+04 -9.423305E+05  3.595311E-10 -7.799003E-10
       192  12 -2.391567E+06 -4.172705E+05 -4.231457E+04 -9.409316E+05  1.985374E-10 -2.173474E-10
       192  13 -2.237265E+06 -3.598048E+05 -4.593451E+03 -8.989620E+05 -4.619153E-10 -5.659396E-10
       192  14 -2.260670E+06 -3.359362E+05 -2.800243E+03 -8.719326E+05 -7.567415E-10 -7.780081E-10
       192  15 -2.237208E+06 -3.595143E+05 -2.124191E+03 -8.990635E+05 -3.691276E-10 -2.593286E-10
       192  16 -1.873474E+06 -2.237452E+05  8.881629E+04 -7.999842E+05 -3.089386E-10 -5.643218E-10
       192  17 -2.001592E+06 -2.390318E+05  6.398808E+04 -8.015082E+05 -3.588470E-10 -1.000575E-09
       192  18 -2.082827E+06 -3.017569E+05  3.806403E+04 -8.571860E+05 -1.050069E-09 -2.226425E-09
       192  19 -2.600927E+06 -4.958558E+05 -9.801356E+04 -9.978873E+05  5.859250E+03 -1.566764E+04
       192  20 -2.519683E+06 -4.328365E+05 -6.959401E+04 -9.423306E+05  2.520224E+03 -1.108976E+04
       192  21 -2.391567E+06 -4.172705E+05 -4.231449E+04 -9.409316E+05 -8.333549E+02 -6.465263E+03
       192  22 -2.237265E+06 -3.598045E+05 -4.592905E+03 -8.989621E+05  8.936759E+03 -1.451625E+04
       192  23 -2.260670E+06 -3.359361E+05 -2.799998E+03 -8.719327E+05  5.625063E+03 -9.928977E+03
       192  24 -2.237208E+06 -3.595143E+05 -2.124128E+03 -8.990635E+05  2.299102E+03 -5.295048E+03
       192  25 -1.873473E+06 -2.237450E+05  8.881689E+04 -7.999843E+05  1.201625E+04 -1.336412E+04
       192  26 -2.001592E+06 -2.390317E+05  6.398837E+04 -8.015083E+05  8.731320E+03 -8.767664E+03
       192  27 -2.082827E+06 -3.017568E+05  3.806412E+04 -8.571860E+05  5.432404E+03 -4.124519E+03
       193   1 -2.273876E+06 -3.733148E+05 -1.117137E+04 -9.092059E+05  2.314761E+03  3.576937E+03
       193   2 -2.191982E+06 -3.101176E+05  1.517250E+04 -8.531479E+05  5.516962E+03 -1.131270E+03
       193   3 -2.062898E+06 -2.946832E+05  4.049175E+04 -8.516902E+05  8.714035E+03 -5.822912E+03
       193   4 -2.237136E+06 -3.596011E+05 -2.085911E+03 -8.991539E+05 -8.241186E+02  2.404537E+03
       193   5 -2.260739E+06 -3.358162E+05 -2.550916E+03 -8.718153E+05  2.387588E+03 -2.300383E+03
       193   6 -2.237168E+06 -3.597979E+05 -4.048099E+03 -8.990824E+05  5.593911E+03 -6.988771E+03
       193   7 -2.200394E+06 -3.458873E+05  6.999525E+03 -8.891012E+05 -3.963213E+03  1.232056E+03
       193   8 -2.329492E+06 -3.615145E+05 -2.027472E+04 -8.904807E+05 -7.414118E+02 -3.469355E+03
       193   9 -2.411408E+06 -4.249108E+05 -4.859039E+04 -9.464626E+05  2.474747E+03 -8.154272E+03
       193  10 -2.273876E+06 -3.733148E+05 -1.117141E+04 -9.092059E+05  4.236244E-10  1.376402E-09
       193  11 -2.191982E+06 -3.101176E+05  1.517244E+04 -8.531479E+05 -8.637836E-10 -4.716822E-10
       193  12 -2.062899E+06 -2.946833E+05  4.049154E+04 -8.516901E+05  1.231261E-09  1.386017E-10
       193  13 -2.237136E+06 -3.596011E+05 -2.085924E+03 -8.991539E+05 -3.211552E-10  9.802588E-11
       193  14 -2.260739E+06 -3.358162E+05 -2.550936E+03 -8.718153E+05  7.350610E-10  1.285372E-09
       193  15 -2.237168E+06 -3.597980E+05 -4.048250E+03 -8.990824E+05  1.526142E-09  5.594639E-10
       193  16 -2.200394E+06 -3.458873E+05  6.999492E+03 -8.891012E+05 -8.822769E-10 -1.143460E-09
       193  17 -2.329492E+06 -3.615145E+05 -2.027474E+04 -8.904807E+05  7.046533E-10  9.886291E-10
       193  18 -2.411408E+06 -4.249108E+05 -4.859053E+04 -9.464626E+05 -1.569363E-10 -1.283317E-09
       193  19 -2.273876E+06 -3.733148E+05 -1.117137E+04 -9.092059E+05 -2.314761E+03 -3.576937E+03
       193  20 -2.191982E+06 -3.101176E+05  1.517250E+04 -8.531479E+05 -5.516962E+03  1.131270E+03
       193  21 -2.062898E+06 -2.946832E+05  4.049175E+04 -8.516902E+05 -8.714035E+03  5.822912E+03
       193  22 -2.237136E+06 -3.596011E+05 -2.085911E+03 -8.991539E+05  8.241186E+02 -2.404537E+03
       193  23 -2.260739E+06 -3.358162E+05 -2.550916E+03 -8.718153E+05 -2.387588E+03  2.300383E+03
       193  24 -2.237168E+06 -3.597979E+05 -4.048099E+03 -8.990824E+05 -5.593911E+03  6.988771E+03
       193  25 -2.200394E+06 -3.458873E+05  6.999525E+03 -8.891012E+05  3.963213E+03 -1.232056E+03
       193  26 -2.329492E+06 -3.615145E+05 -2.027472E+04 -8.904807E+05  7.414118E+02  3.469355E+03
       193  27 -2.411408E+06 -4.249108E+05 -4.859039E+04 -9.464626E+05 -2.474747E+03  8.154272E+03
       194   1 -1.946036E+06 -2.506399E+05  7.029051E+04 -8.202650E+05  1.061223E+04 -8.549357E+03
       194   2 -1.865538E+06 -1.880536E+05  9.272038E+04 -7.646565E+05  1.698763E+04 -1.197931E+04
       194   3 -1.739910E+06 -1.749049E+05  1.110936E+05 -7.620678E+05  2.330662E+04 -1.524399E+04
       194   4 -2.237526E+06 -3.593290E+05 -5.171459E+03 -8.990543E+05  7.475084E+03 -9.722084E+03
       194   5 -2.260261E+06 -3.358169E+05 -9.052894E+03 -8.720919E+05  1.394671E+04 -1.311738E+04
       194   6 -2.237896E+06 -3.617655E+05 -1.706892E+04 -8.981557E+05  2.036111E+04 -1.634762E+04
       194   7 -2.528933E+06 -4.680127E+05 -8.064019E+04 -9.778098E+05  4.339565E+03 -1.089421E+04
       194   8 -2.654832E+06 -4.835704E+05 -1.108390E+05 -9.794653E+05  1.090792E+04 -1.425465E+04
       194   9 -2.735641E+06 -5.486110E+05 -1.452524E+05 -1.034145E+06  1.741817E+04 -1.745028E+04
       194  10 -1.946036E+06 -2.506400E+05  7.029016E+04 -8.202650E+05 -1.708814E-10  2.323253E-10
       194  11 -1.865539E+06 -1.880538E+05  9.271957E+04 -7.646564E+05 -3.857186E-10  3.884371E-12
       194  12 -1.739911E+06 -1.749053E+05  1.110922E+05 -7.620675E+05  2.409903E-10  6.658425E-10
       194  13 -2.237526E+06 -3.593291E+05 -5.171741E+03 -8.990542E+05  2.139385E-10  3.393596E-11
       194  14 -2.260262E+06 -3.358171E+05 -9.053583E+03 -8.720917E+05 -1.124142E-09  1.803274E-11
       194  15 -2.237897E+06 -3.617659E+05 -1.707020E+04 -8.981554E+05 -2.893379E-10 -6.068119E-11
       194  16 -2.528933E+06 -4.680128E+05 -8.064045E+04 -9.778097E+05  5.262234E-10  1.673155E-10
       194  17 -2.654833E+06 -4.835707E+05 -1.108396E+05 -9.794652E+05  2.777406E-10  1.264243E-09
       194  18 -2.735642E+06 -5.486114E+05 -1.452535E+05 -1.034145E+06 -7.359061E-10 -6.146182E-10
       194  19 -1.946036E+06 -2.506399E+05  7.029051E+04 -8.202650E+05 -1.061223E+04  8.549357E+03
       194  20 -1.865538E+06 -1.880536E+05  9.272038E+04 -7.646565E+05 -1.698763E+04  1.197931E+04
       194  21 -1.739910E+06 -1.749049E+05  1.110936E+05 -7.620678E+05 -2.330662E+04  1.524399E+04
       194  22 -2.237526E+06 -3.593290E+05 -5.171459E+03 -8.990543E+05 -7.475084E+03  9.722084E+03
       194  23 -2.260261E+06 -3.358169E+05 -9.052894E+03 -8.720919E+05 -1.394671E+04  1.311738E+04
       194  24 -2.237896E+06 -3.617655E+05 -1.706892E+04 -8.981557E+05 -2.036111E+04  1.634762E+04
       194  25 -2.528933E+06 -4.680127E+05 -8.064019E+04 -9.778098E+05 -4.339565E+03  1.089421E+04
       194  26 -2.654832E+06 -4.835704E+05 -1.108390E+05 -9.794653E+05 -1.090792E+04  1.425465E+04
       194  27 -2.735641E+06 -5.486110E+05 -1.452524E+05 -1.034145E+06 -1.741817E+04  1.745028E+04
       195   1 -1.625270E+06 -1.317800E+05  1.359659E+05 -7.364092E+05  2.810801E+04 -1.701877E+04
       195   2 -1.548274E+06 -6.578336E+04  1.442220E+05 -6.773582E+05  4.886465E+04 -1.465171E+04
       195   3 -1.440171E+06 -7.490841E+04  1.301242E+05 -6.619654E+05  6.893636E+04 -1.043110E+04
       195   4 -2.239749E+06 -3.579932E+05 -2.206454E+04 -8.996602E+05  2.466576E+04 -1.830940E+04
       195   5 -2.257093E+06 -3.335843E+05 -3.898261E+04 -8.728673E+05  4.652043E+04 -1.553350E+04
       195   6 -2.243571E+06 -3.845441E+05 -7.914733E+04 -8.897393E+05  6.768656E+04 -1.090465E+04
       195   7 -2.853860E+06 -5.841862E+05 -1.801260E+05 -1.062766E+06  2.122724E+04 -1.959869E+04
       195   8 -2.965421E+06 -6.013510E+05 -2.222286E+05 -1.068173E+06  4.417912E+04 -1.641419E+04
       195   9 -3.046338E+06 -6.941286E+05 -2.884725E+05 -1.117241E+06  6.643851E+04 -1.137752E+04
       195  10 -1.625271E+06 -1.317806E+05  1.359638E+05 -7.364088E+05 -8.469448E-10 -1.332371E-10
       195  11 -1.548277E+06 -6.578423E+04  1.442171E+05 -6.773576E+05 -8.150124E-12  1.253587E-10
       195  12 -1.440176E+06 -7.490980E+04  1.301150E+05 -6.619649E+05 -5.293008E-10  1.874635E-10
       195  13 -2.239750E+06 -3.579938E+05 -2.206632E+04 -8.996598E+05  1.237906E-09  4.538458E-10
       195  14 -2.257096E+06 -3.335851E+05 -3.898714E+04 -8.728667E+05  1.901603E-09  5.605781E-10
       195  15 -2.243576E+06 -3.845455E+05 -7.915619E+04 -8.897387E+05 -2.200038E-10 -2.060997E-11
       195  16 -2.853861E+06 -5.841868E+05 -1.801275E+05 -1.062766E+06  1.062526E-09 -7.129761E-10
       195  17 -2.965423E+06 -6.013519E+05 -2.222328E+05 -1.068172E+06  3.677310E-10 -3.504458E-10
       195  18 -3.046343E+06 -6.941300E+05 -2.884811E+05 -1.117241E+06 -1.721891E-10 -1.380716E-10
       195  19 -1.625270E+06 -1.317800E+05  1.359659E+05 -7.364092E+05 -2.810801E+04  1.701877E+04
       195  20 -1.548274E+06 -6.578336E+04  1.442220E+05 -6.773582E+05 -4.886465E+04  1.465171E+04
       195  21 -1.440171E+06 -7.490841E+04  1.301242E+05 -6.619654E+05 -6.893636E+04  1.043110E+04
       195  22 -2.239749E+06 -3.579932E+05 -2.206454E+04 -8.996602E+05 -2.466576E+04  1.830940E+04
       195  23 -2.257093E+06 -3.335843E+05 -3.898261E+04 -8.728673E+05 -4.652043E+04  1.553350E+04
       195  24 -2.243571E+06 -3.845441E+05 -7.914733E+04 -8.897393E+05 -6.768656E+04  1.090465E+04
       195  25 -2.853860E+06 -5.841862E+05 -1.801260E+05 -1.062766E+06 -2.122724E+04  1.959869E+04
       195  26 -2.965421E+06 -6.013510E+05 -2.222286E+05 -1.068173E+06 -4.417912E+04  1.641419E+04
       195  27 -3.046338E+06 -6.941286E+05 -2.884725E+05 -1.117241E+06 -6.643851E+04  1.137752E+04
       196   1 -1.311008E+06 -3.202069E+04  1.378702E+05 -6.940768E+05  9.361209E+04 -8.625424E+03
       196   2 -1.245902E+06  9.679413E+04  9.426215E+04 -5.743083E+05  1.668723E+05  1.671549E+04
       196   3 -1.273821E+06 -1.471179E+05 -9.425149E+04 -4.140276E+05  2.291709E+05  7.120574E+04
       196   4 -2.256994E+06 -3.461970E+05 -9.804417E+04 -9.106197E+05  8.354037E+04 -1.240674E+04
       196   5 -2.229586E+06 -3.042639E+05 -1.657243E+05 -8.758689E+05  1.743140E+05  1.950020E+04
       196   6 -2.298912E+06 -6.389045E+05 -3.924098E+05 -8.005663E+05  2.541087E+05  8.055502E+04
       196   7 -3.202111E+06 -6.603631E+05 -3.340278E+05 -1.126885E+06  7.348539E+04 -1.618344E+04
       196   8 -3.212320E+06 -7.052114E+05 -4.257939E+05 -1.176978E+06  1.817425E+05  2.227901E+04
       196   9 -3.322947E+06 -1.130421E+06 -6.906648E+05 -1.186460E+06  2.790008E+05  8.987644E+04
       196  10 -1.311018E+06 -3.202313E+04  1.378536E+05 -6.940762E+05 -1.122850E-09 -1.475230E-12
       196  11 -1.245932E+06  9.678633E+04  9.420918E+04 -5.743105E+05 -1.785901E-09  1.252133E-10
       196  12 -1.273879E+06 -1.471375E+05 -9.435996E+04 -4.140408E+05 -7.888852E-10  1.102332E-10
       196  13 -2.257001E+06 -3.461991E+05 -9.805761E+04 -9.106189E+05 -7.100433E-11  4.561476E-11
       196  14 -2.229619E+06 -3.042725E+05 -1.657824E+05 -8.758717E+05  3.695381E-10 -3.041369E-10
       196  15 -2.298984E+06 -6.389290E+05 -3.925439E+05 -8.005829E+05 -1.589429E-10 -2.606651E-10
       196  16 -3.202117E+06 -6.603648E+05 -3.340385E+05 -1.126884E+06  6.700892E-10 -5.691324E-10
       196  17 -3.212356E+06 -7.052208E+05 -4.258573E+05 -1.176981E+06 -7.487878E-10  5.310585E-10
       196  18 -3.323033E+06 -1.130451E+06 -6.908272E+05 -1.186480E+06 -3.008304E-10  2.664904E-10
       196  19 -1.311008E+06 -3.202069E+04  1.378702E+05 -6.940768E+05 -9.361209E+04  8.625424E+03
       196  20 -1.245902E+06  9.679413E+04  9.426215E+04 -5.743083E+05 -1.668723E+05 -1.671549E+04
       196  21 -1.273821E+06 -1.471179E+05 -9.425149E+04 -4.140276E+05 -2.291709E+05 -7.120574E+04
       196  22 -2.256994E+06 -3.461970E+05 -9.804417E+04 -9.106197E+05 -8.354037E+04  1.240674E+04
       196  23 -2.229586E+06 -3.042639E+05 -1.657243E+05 -8.758689E+05 -1.743140E+05 -1.950020E+04
       196  24 -2.298912E+06 -6.389045E+05 -3.924098E+05 -8.005663E+05 -2.541087E+05 -8.055502E+04
       196  25 -3.202111E+06 -6.603631E+05 -3.340278E+05 -1.126885E+06 -7.348539E+04  1.618344E+04
       196  26 -3.212320E+06 -7.052114E+05 -4.257939E+05 -1.176978E+06 -1.817425E+05 -2.227901E+04
       196  27 -3.322947E+06 -1.130421E+06 -6.906648E+05 -1.186460E+06 -2.790008E+05 -8.987644E+04
       197   1  1.868652E+05  6.980816E+04  1.390208E+05  6.737675E+04  2.142202E+05  9.755085E+03
       197   2  2.111662E+05 -2.118737E+05 -2.513848E+04  1.506049E+04  1.462283E+05  2.883443E+04
       197   3  3.220759E+05 -1.846996E+05 -6.770201E+04 -7.602722E+04  7.825651E+04  2.790233E+04
       197   4  1.009516E+06  2.740966E+05  3.404986E+05 -3.618732E+04  2.333706E+05  9.748543E+03
       197   5  9.652166E+05 -2.599449E+04  1.511422E+05 -1.659938E+04  1.523043E+05  2.883202E+04
       197   6  1.009668E+06 -1.518478E+04  9.233927E+04 -3.577842E+04  7.126757E+04  2.789910E+04
       197   7  1.832806E+06  4.783759E+05  5.419341E+05 -1.398890E+05  2.525463E+05  9.735639E+03
       197   8  1.719793E+06  1.598483E+05  3.273849E+05 -4.829809E+04  1.583875E+05  2.882899E+04
       197   9  1.697699E+06  1.543027E+05  2.523497E+05  4.515166E+03  6.427091E+04  2.789496E+04
       197  10  1.868159E+05  6.979575E+04  1.389345E+05  6.737507E+04 -4.017749E-11  3.267945E-10
       197  11  2.111430E+05 -2.118803E+05 -2.518021E+04  1.505709E+04  1.032996E-09 -9.691253E-10
       197  12  3.220691E+05 -1.847021E+05 -6.771498E+04 -7.602898E+04 -3.528418E-11 -2.347198E-10
       197  13  1.009457E+06  2.740819E+05  3.403963E+05 -3.618915E+04 -7.623467E-11 -9.052942E-11
       197  14  9.651915E+05 -2.600160E+04  1.510971E+05 -1.660292E+04 -8.882800E-10 -2.352633E-09
       197  15  1.009662E+06 -1.518698E+04  9.232828E+04 -3.578002E+04  2.600210E-10  1.323858E-10
       197  16  1.832738E+06  4.783587E+05  5.418145E+05 -1.398910E+05 -8.145194E-10 -6.795780E-10
       197  17  1.719766E+06  1.598406E+05  3.273364E+05 -4.830176E+04 -9.662781E-10 -1.214342E-09
       197  18  1.697694E+06  1.543008E+05  2.523405E+05  4.513724E+03  8.670257E-10 -3.641770E-11
       197  19  1.868652E+05  6.980816E+04  1.390208E+05  6.737675E+04 -2.142202E+05 -9.755085E+03
       197  20  2.111662E+05 -2.118737E+05 -2.513848E+04  1.506049E+04 -1.462283E+05 -2.883443E+04
       197  21  3.220759E+05 -1.846996E+05 -6.770201E+04 -7.602722E+04 -7.825651E+04 -2.790233E+04
       197  22  1.009516E+06  2.740966E+05  3.404986E+05 -3.618732E+04 -2.333706E+05 -9.748543E+03
       197  23  9.652166E+05 -2.599449E+04  1.511422E+05 -1.659938E+04 -1.523043E+05 -2.883202E+04
       197  24  1.009668E+06 -1.518478E+04  9.233927E+04 -3.577842E+04 -7.126757E+04 -2.789910E+04
       197  25  1.832806E+06  4.783759E+05  5.419341E+05 -1.398890E+05 -2.525463E+05 -9.735639E+03
       197  26  1.719793E+06  1.598483E+05  3.273849E+05 -4.829809E+04 -1.583875E+05 -2.882899E+04
       197  27  1.697699E+06  1.543027E+05  2.523497E+05  4.515166E+03 -6.427091E+04 -2.789496E+04
       198   1  3.736727E+05 -1.295288E+05 -6.986954E+04 -2.853940E+04  5.817672E+04  2.355394E+04
       198   2  4.343546E+05 -1.387894E+05 -8.998075E+04 -1.504232E+04  3.908086E+04  2.172134E+04
       198   3  5.044037E+05 -1.215693E+05 -9.098692E+04 -3.951690E+04  1.998172E+04  1.881304E+04
       198   4  9.920452E+05  2.295298E+04  7.468340E+04 -3.572418E+04  5.738437E+04  2.355109E+04
       198   5  9.873245E+05 -2.485813E+03  3.899677E+04 -1.673274E+04  3.757301E+04  2.171921E+04
       198   6  9.920818E+05 -1.333641E+03  2.289771E+04 -3.571033E+04  1.776037E+04  1.881174E+04
       198   7  1.610770E+06  1.754079E+05  2.192104E+05 -4.291621E+04  5.659120E+04  2.354826E+04
       198   8  1.540576E+06  1.337962E+05  1.679536E+05 -1.842470E+04  3.606382E+04  2.171709E+04
       198   9  1.479979E+06  1.188853E+05  1.367662E+05 -3.190076E+04  1.553729E+04  1.881042E+04
       198  10  3.736689E+05 -1.295303E+05 -6.987694E+04 -2.854050E+04  4.588891E-10 -4.411799E-10
       198  11  4.343528E+05 -1.387903E+05 -8.998451E+04 -1.504300E+04  1.143165E-09  5.788841E-10
       198  12  5.044031E+05 -1.215698E+05 -9.098834E+04 -3.951720E+04 -5.647412E-10 -9.685392E-11
       198  13  9.920415E+05  2.295150E+04  7.467617E+04 -3.572526E+04 -8.532878E-10  2.161640E-10
       198  14  9.873228E+05 -2.486698E+03  3.899323E+04 -1.673340E+04 -4.698324E-10  4.613800E-11
       198  15  9.920814E+05 -1.334105E+03  2.289645E+04 -3.571060E+04 -2.165322E-09 -2.681553E-10
       198  16  1.610766E+06  1.754064E+05  2.192033E+05 -4.291728E+04 -3.611464E-10  1.008054E-09
       198  17  1.540574E+06  1.337953E+05  1.679503E+05 -1.842533E+04 -1.177704E-09 -6.190461E-10
       198  18  1.479979E+06  1.188848E+05  1.367651E+05 -3.190099E+04 -9.162922E-10 -2.372809E-10
       198  19  3.736727E+05 -1.295288E+05 -6.986954E+04 -2.853940E+04 -5.817672E+04 -2.355394E+04
       198  20  4.343546E+05 -1.387894E+05 -8.998075E+04 -1.504232E+04 -3.908086E+04 -2.172134E+04
       198  21  5.044037E+05 -1.215693E+05 -9.098692E+04 -3.951690E+04 -1.998172E+04 -1.881304E+04
       198  22  9.920452E+05  2.295298E+04  7.468340E+04 -3.572418E+04 -5.738437E+04 -2.355109E+04
       198  23  9.873245E+05 -2.485813E+03  3.899677E+04 -1.673274E+04 -3.757301E+04 -2.171921E+04
       198  24  9.920818E+05 -1.333641E+03  2.289771E+04 -3.571033E+04 -1.776037E+04 -1.881174E+04
       198  25  1.610770E+06  1.754079E+05  2.192104E+05 -4.291621E+04 -5.659120E+04 -2.354826E+04
       198  26  1.540576E+06  1.337962E+05  1.679536E+05 -1.842470E+04 -3.606382E+04 -2.171709E+04
       198  27  1.479979E+06  1.188853E+05  1.367662E+05 -3.190076E+04 -1.553729E+04 -1.881042E+04
       199   1  5.701057E+05 -1.017023E+05 -8.005468E+04 -3.529651E+04  1.604774E+04  1.692492E+04
       199   2  6.335307E+05 -8.804380E+04 -7.313725E+04 -1.696574E+04  1.114204E+04  1.400850E+04
       199   3  6.982501E+05 -7.211176E+04 -6.244147E+04 -3.589342E+04  6.233992E+03  1.104841E+04
       199   4  9.902769E+05  1.823292E+03  1.775827E+04 -3.555592E+04  1.417714E+04  1.692402E+04
       199   5  9.896374E+05 -2.780664E+02  9.899802E+03 -1.692742E+04  9.239987E+03  1.400812E+04
       199   6  9.902918E+05 -1.014794E+02  5.839373E+03 -3.555602E+04  4.300970E+03  1.104858E+04
       199   7  1.410611E+06  1.053364E+05  1.155593E+05 -3.581551E+04  1.230529E+04  1.692311E+04
       199   8  1.345861E+06  8.747870E+04  9.292828E+04 -1.688908E+04  7.336848E+03  1.400775E+04
       199   9  1.282412E+06  7.190276E+04  7.411443E+04 -3.521846E+04  2.367046E+03  1.104875E+04
       199  10  5.701053E+05 -1.017027E+05 -8.005570E+04 -3.529673E+04 -4.431925E-10 -1.724647E-10
       199  11  6.335305E+05 -8.804404E+04 -7.313785E+04 -1.696587E+04 -3.226822E-09 -3.443498E-10
       199  12  6.982500E+05 -7.211190E+04 -6.244177E+04 -3.589348E+04 -1.822980E-09  5.431472E-10
       199  13  9.902766E+05  1.822930E+03  1.775736E+04 -3.555611E+04 -1.042595E-09 -1.151838E-10
       199  14  9.896373E+05 -2.783001E+02  9.899272E+03 -1.692753E+04 -3.652930E-10 -6.177295E-12
       199  15  9.902918E+05 -1.016155E+02  5.839109E+03 -3.555606E+04 -5.121339E-10  1.947871E-10
       199  16  1.410611E+06  1.053361E+05  1.155585E+05 -3.581567E+04 -1.010048E-09  3.713273E-11
       199  17  1.345861E+06  8.747848E+04  9.292781E+04 -1.688916E+04 -1.220942E-09  2.449060E-10
       199  18  1.282412E+06  7.190263E+04  7.411419E+04 -3.521848E+04  2.550719E-10  2.512644E-10
       199  19  5.701057E+05 -1.017023E+05 -8.005468E+04 -3.529651E+04 -1.604774E+04 -1.692492E+04
       199  20  6.335307E+05 -8.804380E+04 -7.313725E+04 -1.696574E+04 -1.114204E+04 -1.400850E+04
       199  21  6.982501E+05 -7.211176E+04 -6.244147E+04 -3.589342E+04 -6.233992E+03 -1.104841E+04
       199  22  9.902769E+05  1.823292E+03  1.775827E+04 -3.555592E+04 -1.417714E+04 -1.692402E+04
       199  23  9.896374E+05 -2.780664E+02  9.899802E+03 -1.692742E+04 -9.239987E+03 -1.400812E+04
       199  24  9.902918E+05 -1.014794E+02  5.839373E+03 -3.555602E+04 -4.300970E+03 -1.104858E+04
       199  25  1.410611E+06  1.053364E+05  1.155593E+05 -3.581551E+04 -1.230529E+04 -1.692311E+04
       199  26  1.345861E+06  8.747870E+04  9.292828E+04 -1.688908E+04 -7.336848E+03 -1.400775E+04
       199  27  1.282412E+06  7.190276E+04  7.411443E+04 -3.521846E+04 -2.367046E+03 -1.104875E+04
       200   1  7.644855E+05 -5.541356E+04 -4.786294E+04 -3.546712E+04  5.274729E+03  9.322057E+03
       200   2  8.277236E+05 -4.000715E+04 -3.499899E+04 -1.704826E+04  3.871958E+03  6.381396E+03
       200   3  8.911890E+05 -2.437697E+04 -2.117035E+04 -3.546142E+04  2.468225E+03  3.445130E+03
       200   4  9.900627E+05  1.395243E+02  4.543223E+03 -3.546137E+04  3.366403E+03  9.322476E+03
       200   5  9.899540E+05 -2.882910E+01  2.825037E+03 -1.704569E+04  1.965942E+03  6.382048E+03
       200   6  9.900685E+05  2.635452E+01  2.069814E+03 -3.546144E+04  5.646591E+02  3.446031E+03
       200   7  1.215687E+06  5.568903E+04  5.694598E+04 -3.545562E+04  1.457389E+03  9.322895E+03
       200   8  1.152209E+06  3.994764E+04  4.064730E+04 -1.704313E+04  5.943126E+01  6.382701E+03
       200   9  1.088957E+06  2.442898E+04  2.530932E+04 -3.546147E+04 -1.339208E+03  3.446931E+03
       200  10  7.644855E+05 -5.541366E+04 -4.786316E+04 -3.546716E+04 -1.706971E-09  4.384816E-10
       200  11  8.277235E+05 -4.000720E+04 -3.499909E+04 -1.704828E+04 -5.126936E-10  3.454988E-10
       200  12  8.911890E+05 -2.437698E+04 -2.117038E+04 -3.546142E+04 -1.978113E-09  4.580768E-10
       200  13  9.900626E+05  1.394279E+02  4.543039E+03 -3.546140E+04 -1.475057E-09  3.811909E-10
       200  14  9.899540E+05 -2.887390E+01  2.824954E+03 -1.704570E+04  6.700832E-10 -6.267032E-10
       200  15  9.900685E+05  2.634168E+01  2.069791E+03 -3.546144E+04 -1.312078E-09 -1.367344E-10
       200  16  1.215687E+06  5.568894E+04  5.694581E+04 -3.545563E+04 -5.208548E-10 -5.787517E-10
       200  17  1.152209E+06  3.994759E+04  4.064722E+04 -1.704313E+04  9.464378E-10 -7.138217E-10
       200  18  1.088957E+06  2.442897E+04  2.530930E+04 -3.546146E+04  1.543388E-09 -5.353336E-10
       200  19  7.644855E+05 -5.541356E+04 -4.786294E+04 -3.546712E+04 -5.274729E+03 -9.322057E+03
       200  20  8.277236E+05 -4.000715E+04 -3.499899E+04 -1.704826E+04 -3.871958E+03 -6.381396E+03
       200  21  8.911890E+05 -2.437697E+04 -2.117035E+04 -3.546142E+04 -2.468225E+03 -3.445130E+03
       200  22  9.900627E+05  1.395243E+02  4.543223E+03 -3.546137E+04 -3.366403E+03 -9.322476E+03
       200  23  9.899540E+05 -2.882910E+01  2.825037E+03 -1.704569E+04 -1.965942E+03 -6.382048E+03
       200  24  9.900685E+05  2.635452E+01  2.069814E+03 -3.546144E+04 -5.646591E+02 -3.446031E+03
       200  25  1.215687E+06  5.568903E+04  5.694598E+04 -3.545562E+04 -1.457389E+03 -9.322895E+03
       200  26  1.152209E+06  3.994764E+04  4.064730E+04 -1.704313E+04 -5.943126E+01 -6.382701E+03
       200  27  1.088957E+06  2.442898E+04  2.530932E+04 -3.546147E+04  1.339208E+03 -3.446931E+03
       201   1  9.571698E+05 -8.033894E+03 -5.539739E+03 -3.542104E+04  2.102685E+03  1.738384E+03
       201   2  1.020274E+06  7.453651E+03  9.180609E+03 -1.706802E+04  1.051054E+03 -1.192064E+03
       201   3  1.083517E+06  2.310040E+04  2.461499E+04 -3.543849E+04 -5.121662E-01 -4.121283E+03
       201   4  9.900516E+05  3.088298E+01  1.937946E+03 -3.543748E+04  2.007505E+02  1.739348E+03
       201   5  9.899824E+05 -1.008847E+01  2.119014E+03 -1.707565E+04 -8.501353E+02 -1.191152E+03
       201   6  9.900503E+05  1.085305E+02  3.014073E+03 -3.543743E+04 -1.900852E+03 -4.120410E+03
       201   7  1.022934E+06  8.095587E+03  9.415575E+03 -3.545391E+04 -1.701283E+03  1.740312E+03
       201   8  9.596922E+05 -7.473891E+03 -4.942628E+03 -1.708329E+04 -2.751233E+03 -1.190241E+03
       201   9  8.965916E+05 -2.288395E+04 -1.858741E+04 -3.543637E+04 -3.800909E+03 -4.119536E+03
       201  10  9.571698E+05 -8.033899E+03 -5.539753E+03 -3.542105E+04 -2.255711E-10  4.123902E-10
       201  11  1.020274E+06  7.453649E+03  9.180604E+03 -1.706802E+04  2.503746E-11 -1.292851E-11
       201  12  1.083517E+06  2.310038E+04  2.461496E+04 -3.543849E+04 -5.017473E-10 -3.200022E-10
       201  13  9.900516E+05  3.087971E+01  1.937940E+03 -3.543748E+04 -9.819544E-10  9.087913E-10
       201  14  9.899824E+05 -1.009019E+01  2.119010E+03 -1.707565E+04  1.739467E-09  5.372722E-10
       201  15  9.900503E+05  1.085113E+02  3.014034E+03 -3.543744E+04 -1.021061E-09 -1.055839E-09
       201  16  1.022934E+06  8.095583E+03  9.415564E+03 -3.545391E+04  1.442672E-10  3.282285E-10
       201  17  9.596922E+05 -7.473894E+03 -4.942645E+03 -1.708329E+04 -1.005866E-09  3.963131E-10
       201  18  8.965916E+05 -2.288397E+04 -1.858747E+04 -3.543639E+04  3.684533E-10 -5.334714E-10
       201  19  9.571698E+05 -8.033894E+03 -5.539739E+03 -3.542104E+04 -2.102685E+03 -1.738384E+03
       201  20  1.020274E+06  7.453651E+03  9.180609E+03 -1.706802E+04 -1.051054E+03  1.192064E+03
       201  21  1.083517E+06  2.310040E+04  2.461499E+04 -3.543849E+04  5.121662E-01  4.121283E+03
       201  22  9.900516E+05  3.088298E+01  1.937946E+03 -3.543748E+04 -2.007505E+02 -1.739348E+03
       201  23  9.899824E+05 -1.008847E+01  2.119014E+03 -1.707565E+04  8.501353E+02  1.191152E+03
       201  24  9.900503E+05  1.085305E+02  3.014073E+03 -3.543743E+04  1.900852E+03  4.120410E+03
       201  25  1.022934E+06  8.095587E+03  9.415575E+03 -3.545391E+04  1.701283E+03 -1.740312E+03
       201  26  9.596922E+05 -7.473891E+03 -4.942628E+03 -1.708329E+04  2.751233E+03  1.190241E+03
       201  27  8.965916E+05 -2.288395E+04 -1.858741E+04 -3.543637E+04  3.800909E+03  4.119536E+03
       202   1  1.149752E+06  3.931071E+04  4.113991E+04 -3.529729E+04 -5.921760E+02 -5.835825E+03
       202   2  1.212904E+06  5.481053E+04  5.819415E+04 -1.703925E+04 -3.706862E+03 -8.772468E+03
       202   3  1.276828E+06  7.173140E+04  7.762917E+04 -3.570662E+04 -6.820778E+03 -1.166864E+04
       202   4  9.901852E+05 -4.053833E+01  3.758229E+03 -3.548259E+04 -2.511294E+03 -5.835067E+03
       202   5  9.897990E+05 -1.565299E+02  6.188403E+03 -1.701929E+04 -5.598814E+03 -8.772061E+03
       202   6  9.901759E+05  1.144265E+03  1.098121E+04 -3.548221E+04 -8.685253E+03 -1.166856E+04
       202   7  8.306420E+05 -3.939359E+04 -3.362517E+04 -3.566784E+04 -4.429922E+03 -5.834308E+03
       202   8  7.667398E+05 -5.512710E+04 -4.582070E+04 -1.699934E+04 -7.490093E+03 -8.771654E+03
       202   9  7.035994E+05 -6.944866E+04 -5.567227E+04 -3.525788E+04 -1.054887E+04 -1.166849E+04
       202  10  1.149752E+06  3.931067E+04  4.113984E+04 -3.529729E+04 -1.299530E-09  4.115498E-11
       202  11  1.212904E+06  5.481044E+04  5.819398E+04 -1.703927E+04  4.163809E-10 -6.854437E-11
       202  12  1.276828E+06  7.173125E+04  7.762882E+04 -3.570669E+04  1.633173E-09  7.223770E-10
       202  13  9.901852E+05 -4.057659E+01  3.758153E+03 -3.548260E+04  8.099142E-10 -6.787556E-10
       202  14  9.897989E+05 -1.566210E+02  6.188199E+03 -1.701933E+04 -1.117641E-09 -2.294462E-10
       202  15  9.901758E+05  1.144099E+03  1.098081E+04 -3.548229E+04  1.666791E-09  2.633397E-10
       202  16  8.306420E+05 -3.939363E+04 -3.362528E+04 -3.566786E+04  8.966794E-10 -5.300308E-11
       202  17  7.667397E+05 -5.512720E+04 -4.582095E+04 -1.699939E+04 -2.912824E-10 -1.960115E-10
       202  18  7.035992E+05 -6.944884E+04 -5.567273E+04 -3.525798E+04  5.679526E-10 -3.625476E-10
       202  19  1.149752E+06  3.931071E+04  4.113991E+04 -3.529729E+04  5.921760E+02  5.835825E+03
       202  20  1.212904E+06  5.481053E+04  5.819415E+04 -1.703925E+04  3.706862E+03  8.772468E+03
       202  21  1.276828E+06  7.173140E+04  7.762917E+04 -3.570662E+04  6.820778E+03  1.166864E+04
       202  22  9.901852E+05 -4.053833E+01  3.758229E+03 -3.548259E+04  2.511294E+03  5.835067E+03
       202  23  9.897990E+05 -1.565299E+02  6.188403E+03 -1.701929E+04  5.598814E+03  8.772061E+03
       202  24  9.901759E+05  1.144265E+03  1.098121E+04 -3.548221E+04  8.685253E+03  1.166856E+04
       202  25  8.306420E+05 -3.939359E+04 -3.362517E+04 -3.566784E+04  4.429922E+03  5.834308E+03
       202  26  7.667398E+05 -5.512710E+04 -4.582070E+04 -1.699934E+04  7.490093E+03  8.771654E+03
       202  27  7.035994E+05 -6.944866E+04 -5.567227E+04 -3.525788E+04  1.054887E+04  1.166849E+04
       203   1  1.344715E+06  8.630181E+04  9.667049E+04 -3.333268E+04 -8.742008E+03 -1.351118E+04
       203   2  1.406211E+06  1.014169E+05  1.214239E+05 -1.802055E+04 -2.154049E+04 -1.638810E+04
       203   3  1.473616E+06  1.330038E+05  1.586403E+05 -4.013411E+04 -3.433861E+04 -1.836094E+04
       203   4  9.912872E+05 -7.980891E+02  1.413103E+04 -3.559318E+04 -1.089919E+04 -1.351135E+04
       203   5  9.883707E+05 -1.519307E+03  2.401954E+04 -1.688079E+04 -2.310353E+04 -1.638898E+04
       203   6  9.912620E+05  1.413518E+04  4.596555E+04 -3.559531E+04 -3.530620E+04 -1.836240E+04
       203   7  6.379741E+05 -8.790680E+04 -6.841688E+04 -3.785238E+04 -1.305516E+04 -1.351149E+04
       203   8  5.706910E+05 -1.044678E+05 -7.339667E+04 -1.574180E+04 -2.466553E+04 -1.638986E+04
       203   9  5.091216E+05 -1.047499E+05 -6.672501E+04 -3.106005E+04 -3.627304E+04 -1.836387E+04
       203  10  1.344715E+06  8.630159E+04  9.667000E+04 -3.333277E+04  9.558387E-10  5.854732E-10
       203  11  1.406210E+06  1.014165E+05  1.214226E+05 -1.802083E+04  1.200735E-09  4.222333E-11
       203  12  1.473615E+06  1.330032E+05  1.586375E+05 -4.013462E+04  1.656714E-09 -9.177182E-10
       203  13  9.912870E+05 -7.983171E+02  1.413047E+04 -3.559330E+04  5.325424E-10  3.631707E-10
       203  14  9.883700E+05 -1.519739E+03  2.401803E+04 -1.688109E+04  7.396579E-10  2.989889E-10
       203  15  9.912606E+05  1.413448E+04  4.596258E+04 -3.559583E+04  2.764222E-10 -5.618449E-10
       203  16  6.379738E+05 -8.790705E+04 -6.841754E+04 -3.785253E+04  5.498429E-10 -2.467049E-10
       203  17  5.706903E+05 -1.044683E+05 -7.339831E+04 -1.574213E+04  6.503937E-10  3.904054E-10
       203  18  5.091201E+05 -1.047506E+05 -6.672811E+04 -3.106059E+04 -3.186000E-11  7.543762E-12
       203  19  1.344715E+06  8.630181E+04  9.667049E+04 -3.333268E+04  8.742008E+03  1.351118E+04
       203  20  1.406211E+06  1.014169E+05  1.214239E+05 -1.802055E+04  2.154049E+04  1.638810E+04
       203  21  1.473616E+06  1.330038E+05  1.586403E+05 -4.013411E+04  3.433861E+04  1.836094E+04
       203  22  9.912872E+05 -7.980891E+02  1.413103E+04 -3.559318E+04  1.089919E+04  1.351135E+04
       203  23  9.883707E+05 -1.519307E+03  2.401954E+04 -1.688079E+04  2.310353E+04  1.638898E+04
       203  24  9.912620E+05  1.413518E+04  4.596555E+04 -3.559531E+04  3.530620E+04  1.836240E+04
       203  25  6.379741E+05 -8.790680E+04 -6.841688E+04 -3.785238E+04  1.305516E+04  1.351149E+04
       203  26  5.706910E+05 -1.044678E+05 -7.339667E+04 -1.574180E+04  2.466553E+04  1.638986E+04
       203  27  5.091216E+05 -1.047499E+05 -6.672501E+04 -3.106005E+04  3.627304E+04  1.836387E+04
       204   1  1.552636E+06  1.262493E+05  1.848802E+05 -1.098618E+04 -3.769476E+04 -2.224863E+04
       204   2  1.590499E+06  1.357116E+05  2.368386E+05 -3.640988E+04 -9.847865E+04 -2.342252E+04
       204   3  1.684828E+06  3.382920E+05  3.766457E+05 -9.971969E+04 -1.592840E+05 -7.842891E+03
       204   4  1.002110E+06 -9.332403E+03  5.682662E+04 -3.565524E+04 -4.385097E+04 -2.225082E+04
       204   5  9.747469E+05 -1.599927E+04  9.299119E+04 -1.678711E+04 -9.371791E+04 -2.342401E+04
       204   6  1.002008E+06  1.686564E+05  2.094911E+05 -3.580110E+04 -1.435989E+05 -7.844976E+03
       204   7  4.518656E+05 -1.449332E+05 -7.124691E+04 -6.030234E+04 -5.000176E+04 -2.225252E+04
       204   8  3.593443E+05 -1.677355E+05 -5.088166E+04  2.816060E+03 -8.896181E+04 -2.342520E+04
       204   9  3.196217E+05 -9.982310E+02  4.230558E+04  2.804713E+04 -1.279308E+05 -7.843846E+03
       204  10  1.552634E+06  1.262484E+05  1.848766E+05 -1.098685E+04 -3.644903E-10 -4.989223E-10
       204  11  1.590488E+06  1.357085E+05  2.368194E+05 -3.641173E+04 -9.563360E-10  5.501336E-10
       204  12  1.684801E+06  3.382852E+05  3.765980E+05 -9.972070E+04  1.824886E-09  7.607114E-10
       204  13  1.002108E+06 -9.333450E+03  5.682208E+04 -3.565603E+04 -5.725253E-10 -1.095568E-09
       204  14  9.747373E+05 -1.600221E+04  9.297368E+04 -1.678888E+04 -4.401962E-10  2.756182E-10
       204  15  1.001986E+06  1.686508E+05  2.094523E+05 -3.580201E+04  1.446258E-09 -1.905639E-10
       204  16  4.518628E+05 -1.449344E+05 -7.125253E+04 -6.030324E+04  4.284419E-10 -2.752395E-10
       204  17  3.593357E+05 -1.677382E+05 -5.089755E+04  2.814382E+03 -1.659846E-09 -3.960102E-10
       204  18  3.196041E+05 -1.002688E+03  4.227472E+04  2.804632E+04 -7.962995E-11  8.386018E-10
       204  19  1.552636E+06  1.262493E+05  1.848802E+05 -1.098618E+04  3.769476E+04  2.224863E+04
       204  20  1.590499E+06  1.357116E+05  2.368386E+05 -3.640988E+04  9.847865E+04  2.342252E+04
       204  21  1.684828E+06  3.382920E+05  3.766457E+05 -9.971969E+04  1.592840E+05  7.842891E+03
       204  22  1.002110E+06 -9.332403E+03  5.682662E+04 -3.565524E+04  4.385097E+04  2.225082E+04
       204  23  9.747469E+05 -1.599927E+04  9.299119E+04 -1.678711E+04  9.371791E+04  2.342401E+04
       204  24  1.002008E+06  1.686564E+05  2.094911E+05 -3.580110E+04  1.435989E+05  7.844976E+03
       204  25  4.518656E+05 -1.449332E+05 -7.124691E+04 -6.030234E+04  5.000176E+04  2.225252E+04
       204  26  3.593443E+05 -1.677355E+05 -5.088166E+04  2.816060E+03  8.896181E+04  2.342520E+04
       204  27  3.196217E+05 -9.982310E+02  4.230558E+04  2.804713E+04  1.279308E+05  7.843846E+03
       205   1  5.432220E+05  1.635361E+06  5.305977E+05 -5.552322E+05  1.981575E+04  1.672509E+05
       205   2  3.532145E+05  1.138603E+06  3.212299E+05 -4.774030E+05  5.995340E+04  6.414671E+04
       205   3  2.213145E+05  6.696652E+05  1.933578E+05 -5.017610E+05  5.395613E+04 -3.895448E+04
       205   4  7.847533E+04 -2.425307E+05  8.458510E+04 -5.030455E+05  2.012740E+04  5.672489E+04
       205   5  2.003447E+04 -2.491268E+05  4.306414E+04 -4.520524E+05  6.005087E+04  3.468512E+04
       205   6  5.735922E+03 -2.421041E+05  2.688671E+04 -5.032396E+05  5.380086E+04  1.256517E+04
       205   7 -3.865091E+05 -2.117158E+06 -3.616267E+05 -4.510138E+05  2.042109E+04 -5.346934E+04
       205   8 -3.132615E+05 -1.635018E+06 -2.351958E+05 -4.267577E+05  6.014607E+04  5.287925E+03
       205   9 -2.098882E+05 -1.153060E+06 -1.396080E+05 -5.047151E+05  5.364520E+04  6.401124E+04
       205  10  5.432141E+05  1.635331E+06  5.305445E+05 -5.552349E+05  5.031581E-10 -9.868833E-11
       205  11  3.532096E+05  1.138598E+06  3.212154E+05 -4.774061E+05  8.309317E-11 -2.960551E-09
       205  12  2.213109E+05  6.696628E+05  1.933495E+05 -5.017593E+05  1.498330E-09 -5.402692E-10
       205  13  7.847403E+04 -2.425342E+05  8.457828E+04 -5.030464E+05  1.180948E-09  9.104844E-11
       205  14  2.003027E+04 -2.491290E+05  4.305510E+04 -4.520541E+05  8.903101E-12 -1.260605E-09
       205  15  5.732771E+03 -2.421050E+05  2.688097E+04 -5.032402E+05  8.188203E-10 -2.993216E-10
       205  16 -3.865103E+05 -2.117161E+06 -3.616328E+05 -4.510130E+05 -3.152686E-10 -4.898373E-10
       205  17 -3.132654E+05 -1.635019E+06 -2.352027E+05 -4.267580E+05  3.038258E-09  1.631378E-09
       205  18 -2.098924E+05 -1.153065E+06 -1.396211E+05 -5.047179E+05 -4.007627E-10 -1.558645E-09
       205  19  5.432220E+05  1.635361E+06  5.305977E+05 -5.552322E+05 -1.981575E+04 -1.672509E+05
       205  20  3.532145E+05  1.138603E+06  3.212299E+05 -4.774030E+05 -5.995340E+04 -6.414671E+04
       205  21  2.213145E+05  6.696652E+05  1.933578E+05 -5.017610E+05 -5.395613E+04  3.895448E+04
       205  22  7.847533E+04 -2.425307E+05  8.458510E+04 -5.030455E+05 -2.012740E+04 -5.672489E+04
       205  23  2.003447E+04 -2.491268E+05  4.306414E+04 -4.520524E+05 -6.005087E+04 -3.468512E+04
       205  24  5.735922E+03 -2.421041E+05  2.688671E+04 -5.032396E+05 -5.380086E+04 -1.256517E+04
       205  25 -3.865091E+05 -2.117158E+06 -3.616267E+05 -4.510138E+05 -2.042109E+04  5.346934E+04
       205  26 -3.132615E+05 -1.635018E+06 -2.351958E+05 -4.267577E+05 -6.014607E+04 -5.287925E+03
       205  27 -2.098882E+05 -1.153060E+06 -1.396080E+05 -5.047151E+05 -5.364520E+04 -6.401124E+04
       206   1  1.476460E+05  3.525035E+05  1.318328E+05 -5.073964E+05  3.558803E+04 -3.880710E+04
       206   2  3.068051E+04 -1.311490E+05  3.944467E+04 -4.515022E+05  8.278942E+03 -4.975759E+04
       206   3 -8.035502E+04 -6.122516E+05 -4.450821E+04 -5.006608E+05 -1.952332E+04 -6.070359E+04
       206   4  6.462282E+03 -2.445569E+05  2.302584E+04 -5.038572E+05  3.543755E+04  8.673801E+03
       206   5  3.907432E+03 -2.456253E+05  2.007706E+04 -4.513305E+05  8.124108E+03 -1.425168E+03
       206   6  7.145887E+03 -2.445201E+05  2.497207E+04 -5.038554E+05 -1.968288E+04 -1.152764E+04
       206   7 -1.347404E+05 -8.412660E+05 -8.578693E+04 -5.003211E+05  3.528751E+04  5.611029E+04
       206   8 -2.286508E+04 -3.600837E+05  7.178232E+02 -4.511589E+05  7.969283E+03  4.689863E+04
       206   9  9.464023E+04  1.233474E+05  9.445549E+04 -5.070517E+05 -1.984288E+04  3.767676E+04
       206  10  1.476443E+05  3.525015E+05  1.318275E+05 -5.073953E+05  1.281044E-09 -1.432947E-09
       206  11  3.067977E+04 -1.311517E+05  3.943988E+04 -4.515019E+05  5.193580E-10 -4.967653E-09
       206  12 -8.035642E+04 -6.122557E+05 -4.451586E+04 -5.006617E+05  1.051650E-09 -1.403788E-09
       206  13  6.460913E+03 -2.445573E+05  2.302333E+04 -5.038575E+05  6.231820E-10 -8.287770E-11
       206  14  3.907361E+03 -2.456254E+05  2.007694E+04 -4.513305E+05 -4.204660E-09 -1.443466E-09
       206  15  7.145435E+03 -2.445203E+05  2.497109E+04 -5.038555E+05  3.680278E-10 -2.373650E-10
       206  16 -1.347425E+05 -8.412697E+05 -8.579521E+04 -5.003227E+05  4.996183E-10  5.318494E-10
       206  17 -2.286574E+04 -3.600861E+05  7.135669E+02 -4.511592E+05 -1.910270E-09  2.430857E-09
       206  18  9.463943E+04  1.233457E+05  9.445208E+04 -5.070511E+05  4.031696E-10 -5.890082E-10
       206  19  1.476460E+05  3.525035E+05  1.318328E+05 -5.073964E+05 -3.558803E+04  3.880710E+04
       206  20  3.068051E+04 -1.311490E+05  3.944467E+04 -4.515022E+05 -8.278942E+03  4.975759E+04
       206  21 -8.035502E+04 -6.122516E+05 -4.450821E+04 -5.006608E+05  1.952332E+04  6.070359E+04
       206  22  6.462282E+03 -2.445569E+05  2.302584E+04 -5.038572E+05 -3.543755E+04 -8.673801E+03
       206  23  3.907432E+03 -2.456253E+05  2.007706E+04 -4.513305E+05 -8.124108E+03  1.425168E+03
       206  24  7.145887E+03 -2.445201E+05  2.497207E+04 -5.038554E+05  1.968288E+04  1.152764E+04
       206  25 -1.347404E+05 -8.412660E+05 -8.578693E+04 -5.003211E+05 -3.528751E+04 -5.611029E+04
       206  26 -2.286508E+04 -3.600837E+05  7.178232E+02 -4.511589E+05 -7.969283E+03 -4.689863E+04
       206  27  9.464023E+04  1.233474E+05  9.445549E+04 -5.070517E+05  1.984288E+04 -3.767676E+04
       207   1 -1.554458E+05 -9.233897E+05 -9.681517E+04 -5.059021E+05 -3.818151E+04 -6.841352E+04
       207   2 -2.557584E+05 -1.407218E+06 -1.854382E+05 -4.234348E+05 -4.797452E+04 -2.226807E+04
       207   3 -3.173716E+05 -1.887521E+06 -2.945742E+05 -4.435531E+05 -1.684530E+04  2.391897E+04
       207   4  6.338173E+03 -2.415755E+05  2.993903E+04 -5.033249E+05 -3.834763E+04 -1.576971E+04
       207   5  2.315872E+04 -2.496065E+05  4.947920E+04 -4.519338E+05 -4.791019E+04 -4.122299E+04
       207   6  9.108196E+04 -2.419291E+05  9.825223E+04 -5.030927E+05 -1.659016E+04 -6.659896E+04
       207   7  1.680969E+05  4.406954E+05  1.566840E+05 -5.007444E+05 -3.851318E+04  3.693052E+04
       207   8  3.019953E+05  9.092846E+05  2.843285E+05 -4.804856E+05 -4.784420E+04 -6.021259E+04
       207   9  4.993565E+05  1.406176E+06  4.909207E+05 -5.627886E+05 -1.631804E+04 -1.573561E+05
       207  10 -1.554486E+05 -9.233951E+05 -9.682673E+04 -5.059042E+05  1.164045E-09 -2.182595E-10
       207  11 -2.557610E+05 -1.407219E+06 -1.854435E+05 -4.234357E+05  6.087510E-10 -3.745374E-09
       207  12 -3.173721E+05 -1.887521E+06 -2.945759E+05 -4.435528E+05  3.485887E-10 -1.074426E-09
       207  13  6.336526E+03 -2.415762E+05  2.993579E+04 -5.033254E+05  2.034595E-09 -5.557932E-11
       207  14  2.315579E+04 -2.496089E+05  4.947169E+04 -4.519354E+05 -1.022232E-09 -1.040197E-09
       207  15  9.108047E+04 -2.419339E+05  9.824337E+04 -5.030936E+05 -2.748865E-10 -5.283506E-11
       207  16  1.680950E+05  4.406936E+05  1.566786E+05 -5.007432E+05  1.225343E-10 -2.625850E-10
       207  17  3.019919E+05  9.092801E+05  2.843174E+05 -4.804879E+05  1.163108E-09  1.523647E-09
       207  18  4.993496E+05  1.406149E+06  4.908738E+05 -5.627907E+05  4.920215E-10 -5.147059E-10
       207  19 -1.554458E+05 -9.233897E+05 -9.681517E+04 -5.059021E+05  3.818151E+04  6.841352E+04
       207  20 -2.557584E+05 -1.407218E+06 -1.854382E+05 -4.234348E+05  4.797452E+04  2.226807E+04
       207  21 -3.173716E+05 -1.887521E+06 -2.945742E+05 -4.435531E+05  1.684530E+04 -2.391897E+04
       207  22  6.338173E+03 -2.415755E+05  2.993903E+04 -5.033249E+05  3.834763E+04  1.576971E+04
       207  23  2.315872E+04 -2.496065E+05  4.947920E+04 -4.519338E+05  4.791019E+04  4.122299E+04
       207  24  9.108196E+04 -2.419291E+05  9.825223E+04 -5.030927E+05  1.659016E+04  6.659896E+04
       207  25  1.680969E+05  4.406954E+05  1.566840E+05 -5.007444E+05  3.851318E+04 -3.693052E+04
       207  26  3.019953E+05  9.092846E+05  2.843285E+05 -4.804856E+05  4.784420E+04  6.021259E+04
       207  27  4.993565E+05  1.406176E+06  4.909207E+05 -5.627886E+05  1.631804E+04  1.573561E+05
       208   1 -2.366533E+06 -9.198495E+05 -4.907988E+05 -8.988256E+05 -1.834578E+05 -4.196603E+04
       208   2 -2.230191E+06 -7.745262E+05 -3.407966E+05 -8.480298E+05 -1.167806E+05  4.561335E+04
       208   3 -2.102268E+06 -7.041097E+05 -2.698918E+05 -8.126529E+05 -3.433574E+04  9.146798E+04
       208   4 -7.997190E+05 -2.912294E+05 -7.875466E+04 -4.290134E+05 -5.995348E+04  4.528240E+03
       208   5 -7.979223E+05 -2.301474E+05 -3.657353E+04 -4.327101E+05 -6.143924E+04  6.641487E+04
       208   6 -7.909553E+05 -2.303638E+05 -1.926873E+04 -4.518467E+05 -4.720105E+04  8.660976E+04
       208   7  7.694879E+05  3.376377E+05  3.331322E+05  4.190578E+04  6.389000E+04  5.117020E+04
       208   8  6.364480E+05  3.144395E+05  2.675450E+05 -1.649109E+04 -5.960260E+03  8.727225E+04
       208   9  5.221700E+05  2.435378E+05  2.312875E+05 -9.032896E+04 -6.009573E+04  8.174075E+04
       208  10 -2.366570E+06 -9.198605E+05 -4.908657E+05 -8.988318E+05  1.510711E-10  2.123633E-10
       208  11 -2.230206E+06 -7.745321E+05 -3.408262E+05 -8.480255E+05 -1.374804E-09  3.148125E-10
       208  12 -2.102271E+06 -7.041190E+05 -2.699097E+05 -8.126503E+05 -4.313755E-10 -6.255049E-10
       208  13 -7.997229E+05 -2.912303E+05 -7.876146E+04 -4.290131E+05  1.054172E-09  8.276032E-11
       208  14 -7.979276E+05 -2.301531E+05 -3.658891E+04 -4.327068E+05 -5.782689E-10  1.073451E-09
       208  15 -7.909597E+05 -2.303725E+05 -1.928701E+04 -4.518434E+05  3.186905E-10 -7.922504E-10
       208  16  7.694829E+05  3.376338E+05  3.331196E+05  4.190315E+04  1.208154E-09 -1.242065E-09
       208  17  6.364460E+05  3.144313E+05  2.675306E+05 -1.649067E+04  1.146164E-09 -1.432056E-09
       208  18  5.221643E+05  2.435297E+05  2.312682E+05 -9.032501E+04  9.294967E-10  6.991090E-10
       208  19 -2.366533E+06 -9.198495E+05 -4.907988E+05 -8.988256E+05  1.834578E+05  4.196603E+04
       208  20 -2.230191E+06 -7.745262E+05 -3.407966E+05 -8.480298E+05  1.167806E+05 -4.561335E+04
       208  21 -2.102268E+06 -7.041097E+05 -2.698918E+05 -8.126529E+05  3.433574E+04 -9.146798E+04
       208  22 -7.997190E+05 -2.912294E+05 -7.875466E+04 -4.290134E+05  5.995348E+04 -4.528240E+03
       208  23 -7.979223E+05 -2.301474E+05 -3.657353E+04 -4.327101E+05  6.143924E+04 -6.641487E+04
       208  24 -7.909553E+05 -2.303638E+05 -1.926873E+04 -4.518467E+05  4.720105E+04 -8.660976E+04
       208  25  7.694879E+05  3.376377E+05  3.331322E+05  4.190578E+04 -6.389000E+04 -5.117020E+04
       208  26  6.364480E+05  3.144395E+05  2.675450E+05 -1.649109E+04  5.960260E+03 -8.727225E+04
       208  27  5.221700E+05  2.435378E+05  2.312875E+05 -9.032896E+04  6.009573E+04 -8.174075E+04
       209   1 -2.000238E+06 -6.738837E+05 -2.449952E+05 -7.895915E+05 -3.611590E+04  8.492578E+04
       209   2 -1.868737E+06 -6.055165E+05 -2.057212E+05 -7.361797E+05 -2.435191E+04  8.252047E+04
       209   3 -1.715243E+06 -5.644221E+05 -1.742990E+05 -7.099927E+05 -1.129716E+04  7.666344E+04
       209   4 -7.882046E+05 -2.316055E+05 -1.456307E+04 -4.510356E+05 -4.308537E+04  8.228779E+04
       209   5 -7.994830E+05 -2.170248E+05 -7.693686E+03 -4.379622E+05 -3.695794E+04  7.777073E+04
       209   6 -7.876692E+05 -2.285928E+05 -4.194565E+03 -4.521181E+05 -2.954334E+04  6.980442E+04
       209   7  4.253649E+05  2.108091E+05  2.158084E+05 -1.118634E+05 -5.006945E+04  7.964431E+04
       209   8  2.709665E+05  1.715723E+05  1.902895E+05 -1.392667E+05 -4.958717E+04  7.301229E+04
       209   9  1.408004E+05  1.073135E+05  1.658772E+05 -1.938863E+05 -4.781852E+04  6.293456E+04
       209  10 -2.000242E+06 -6.738918E+05 -2.450112E+05 -7.895890E+05 -3.445224E-10 -2.399920E-10
       209  11 -1.868739E+06 -6.055240E+05 -2.057351E+05 -7.361781E+05  1.404201E-09  1.336621E-11
       209  12 -1.715244E+06 -5.644285E+05 -1.743103E+05 -7.099920E+05 -4.591990E-10 -7.694870E-10
       209  13 -7.882084E+05 -2.316133E+05 -1.457928E+04 -4.510328E+05  7.884365E-10 -2.047233E-10
       209  14 -7.994861E+05 -2.170316E+05 -7.707612E+03 -4.379599E+05 -6.225888E-10  2.535875E-10
       209  15 -7.876715E+05 -2.285982E+05 -4.205356E+03 -4.521164E+05 -4.460703E-09 -1.599452E-09
       209  16  4.253605E+05  2.108016E+05  2.157918E+05 -1.118602E+05  3.170651E-10  1.646025E-09
       209  17  2.709624E+05  1.715659E+05  1.902749E+05 -1.392638E+05 -2.527982E-09  6.599398E-10
       209  18  1.407969E+05  1.073086E+05  1.658654E+05 -1.938839E+05 -9.435308E-09 -2.231095E-09
       209  19 -2.000238E+06 -6.738837E+05 -2.449952E+05 -7.895915E+05  3.611590E+04 -8.492578E+04
       209  20 -1.868737E+06 -6.055165E+05 -2.057212E+05 -7.361797E+05  2.435191E+04 -8.252047E+04
       209  21 -1.715243E+06 -5.644221E+05 -1.742990E+05 -7.099927E+05  1.129716E+04 -7.666344E+04
       209  22 -7.882046E+05 -2.316055E+05 -1.456307E+04 -4.510356E+05  4.308537E+04 -8.228779E+04
       209  23 -7.994830E+05 -2.170248E+05 -7.693686E+03 -4.379622E+05  3.695794E+04 -7.777073E+04
       209  24 -7.876692E+05 -2.285928E+05 -4.194565E+03 -4.521181E+05  2.954334E+04 -6.980442E+04
       209  25  4.253649E+05  2.108091E+05  2.158084E+05 -1.118634E+05  5.006945E+04 -7.964431E+04
       209  26  2.709665E+05  1.715723E+05  1.902895E+05 -1.392667E+05  4.958717E+04 -7.301229E+04
       209  27  1.408004E+05  1.073135E+05  1.658772E+05 -1.938863E+05  4.781852E+04 -6.293456E+04
       210   1 -1.620760E+06 -5.304152E+05 -1.552030E+05 -6.840412E+05 -8.725647E+03  7.016675E+04
       210   2 -1.489505E+06 -4.660582E+05 -1.275313E+05 -6.301666E+05 -3.234746E+03  5.966629E+04
       210   3 -1.334006E+06 -4.262781E+05 -1.008951E+05 -6.042069E+05  2.359813E+03  4.887108E+04
       210   4 -7.874293E+05 -2.286535E+05 -3.161823E+03 -4.520973E+05 -2.650438E+04  6.348756E+04
       210   5 -7.995330E+05 -2.162904E+05 -1.755102E+03 -4.381661E+05 -2.149515E+04  5.281221E+04
       210   6 -7.873232E+05 -2.284104E+05 -1.004344E+03 -4.521570E+05 -1.638269E+04  4.184222E+04
       210   7  4.664082E+04  7.317684E+04  1.488580E+05 -2.198604E+05 -4.430881E+04  5.679874E+04
       210   8 -1.090552E+05  3.352375E+04  1.240064E+05 -2.459652E+05 -3.977735E+04  4.594997E+04
       210   9 -2.403250E+05 -3.051439E+04  9.887717E+04 -2.999819E+05 -3.514284E+04  3.480674E+04
       210  10 -1.620761E+06 -5.304205E+05 -1.552124E+05 -6.840407E+05 -9.421628E-09 -3.119513E-09
       210  11 -1.489506E+06 -4.660620E+05 -1.275380E+05 -6.301664E+05 -3.995183E-09  7.729037E-10
       210  12 -1.334007E+06 -4.262806E+05 -1.008996E+05 -6.042070E+05  1.650985E-09  7.407063E-10
       210  13 -7.874312E+05 -2.286580E+05 -3.170713E+03 -4.520960E+05 -5.862791E-09 -1.384485E-09
       210  14 -7.995342E+05 -2.162935E+05 -1.761209E+03 -4.381652E+05 -1.953013E-10  7.113060E-10
       210  15 -7.873240E+05 -2.284123E+05 -1.008137E+03 -4.521564E+05 -6.560079E-11 -6.663727E-10
       210  16  4.663785E+04  7.317285E+04  1.488482E+05 -2.198584E+05 -1.326844E-09  4.624942E-10
       210  17 -1.090575E+05  3.352106E+04  1.239994E+05 -2.459638E+05  2.005524E-09  4.598482E-10
       210  18 -2.403266E+05 -3.051602E+04  9.887258E+04 -2.999809E+05 -4.385350E-10 -1.792486E-09
       210  19 -1.620760E+06 -5.304152E+05 -1.552030E+05 -6.840412E+05  8.725647E+03 -7.016675E+04
       210  20 -1.489505E+06 -4.660582E+05 -1.275313E+05 -6.301666E+05  3.234746E+03 -5.966629E+04
       210  21 -1.334006E+06 -4.262781E+05 -1.008951E+05 -6.042069E+05 -2.359813E+03 -4.887108E+04
       210  22 -7.874293E+05 -2.286535E+05 -3.161823E+03 -4.520973E+05  2.650438E+04 -6.348756E+04
       210  23 -7.995330E+05 -2.162904E+05 -1.755102E+03 -4.381661E+05  2.149515E+04 -5.281221E+04
       210  24 -7.873232E+05 -2.284104E+05 -1.004344E+03 -4.521570E+05  1.638269E+04 -4.184222E+04
       210  25  4.664082E+04  7.317684E+04  1.488580E+05 -2.198604E+05  4.430881E+04 -5.679874E+04
       210  26 -1.090552E+05  3.352375E+04  1.240064E+05 -2.459652E+05  3.977735E+04 -4.594997E+04
       210  27 -2.403250E+05 -3.051439E+04  9.887717E+04 -2.999819E+05  3.514284E+04 -3.480674E+04
       211   1 -1.239773E+06 -3.920523E+05 -8.276355E+04 -5.780740E+05  4.981035E+03  4.224738E+04
       211   2 -1.108269E+06 -3.278620E+05 -5.672446E+04 -5.240823E+05  9.592338E+03  3.092561E+04
       211   3 -9.523352E+05 -2.881171E+05 -3.092143E+04 -4.980922E+05  1.421045E+04  1.957660E+04
       211   4 -7.872803E+05 -2.284005E+05 -7.943619E+02 -4.521676E+05 -1.373411E+04  3.523138E+04
       211   5 -7.994686E+05 -2.161437E+05 -5.537839E+02 -4.381706E+05 -9.168628E+03  2.389515E+04
       211   6 -7.872402E+05 -2.283250E+05 -5.144136E+02 -4.521830E+05 -4.596389E+03  1.253163E+04
       211   7 -3.345753E+05 -6.473081E+04  8.116794E+04 -3.261765E+05 -3.246367E+04  2.820998E+04
       211   8 -4.905669E+05 -1.044162E+05  5.561500E+04 -3.522188E+05 -2.793957E+04  1.686096E+04
       211   9 -6.221142E+05 -1.685295E+05  2.989354E+04 -4.062618E+05 -2.340875E+04  5.484592E+03
       211  10 -1.239774E+06 -3.920542E+05 -8.276696E+04 -5.780741E+05 -2.846099E-08 -1.205440E-08
       211  11 -1.108269E+06 -3.278630E+05 -5.672644E+04 -5.240825E+05  1.343087E-09 -1.671805E-09
       211  12 -9.523355E+05 -2.881176E+05 -3.092253E+04 -4.980925E+05  2.992248E-08  8.846335E-09
       211  13 -7.872808E+05 -2.284019E+05 -7.970477E+02 -4.521672E+05  1.102518E-09 -1.401862E-09
       211  14 -7.994688E+05 -2.161443E+05 -5.550143E+02 -4.381704E+05  9.638879E-10 -1.278350E-09
       211  15 -7.872403E+05 -2.283252E+05 -5.147482E+02 -4.521830E+05 -5.105093E-10 -1.335560E-09
       211  16 -3.345766E+05 -6.473195E+04  8.116447E+04 -3.261758E+05  3.041087E-08  9.200373E-09
       211  17 -4.905678E+05 -1.044167E+05  5.561300E+04 -3.522184E+05  2.444246E-09 -1.099899E-09
       211  18 -6.221148E+05 -1.685297E+05  2.989245E+04 -4.062617E+05 -2.872066E-08 -1.160919E-08
       211  19 -1.239773E+06 -3.920523E+05 -8.276355E+04 -5.780740E+05 -4.981035E+03 -4.224738E+04
       211  20 -1.108269E+06 -3.278620E+05 -5.672446E+04 -5.240823E+05 -9.592338E+03 -3.092561E+04
       211  21 -9.523352E+05 -2.881171E+05 -3.092143E+04 -4.980922E+05 -1.421045E+04 -1.957660E+04
       211  22 -7.872803E+05 -2.284005E+05 -7.943619E+02 -4.521676E+05  1.373411E+04 -3.523138E+04
       211  23 -7.994686E+05 -2.161437E+05 -5.537839E+02 -4.381706E+05  9.168628E+03 -2.389515E+04
       211  24 -7.872402E+05 -2.283250E+05 -5.144136E+02 -4.521830E+05  4.596389E+03 -1.253163E+04
       211  25 -3.345753E+05 -6.473081E+04  8.116794E+04 -3.261765E+05  3.246367E+04 -2.820998E+04
       211  26 -4.905669E+05 -1.044162E+05  5.561500E+04 -3.522188E+05  2.793957E+04 -1.686096E+04
       211  27 -6.221142E+05 -1.685295E+05  2.989354E+04 -4.062618E+05  2.340875E+04 -5.484592E+03
       212   1 -8.579995E+05 -2.538727E+05 -1.304519E+04 -4.719265E+05  1.680772E+04  1.292748E+04
       212   2 -7.263703E+05 -1.897164E+05  1.246314E+04 -4.179075E+05  2.149050E+04  1.600686E+03
       212   3 -5.703245E+05 -1.500076E+05  3.768607E+04 -3.919141E+05  2.616676E+04 -9.706988E+03
       212   4 -7.872397E+05 -2.283205E+05 -5.651179E+02 -4.521893E+05 -2.002813E+03  5.881725E+03
       212   5 -7.994382E+05 -2.160903E+05 -8.303832E+02 -4.381750E+05  2.708893E+03 -5.434863E+03
       212   6 -7.872475E+05 -2.283156E+05 -1.404886E+03 -4.521949E+05  7.413972E+03 -1.673232E+04
       212   7 -7.164738E+05 -2.027675E+05  1.191631E+04 -4.324498E+05 -2.081562E+04 -1.164886E+03
       212   8 -8.724992E+05 -2.424632E+05 -1.412248E+04 -4.584399E+05 -1.607026E+04 -1.246950E+04
       212   9 -1.004118E+06 -3.066180E+05 -4.049536E+04 -5.124553E+05 -1.133164E+04 -2.375497E+04
       212  10 -8.579999E+05 -2.538730E+05 -1.304604E+04 -4.719267E+05  9.283612E-10 -1.347215E-09
       212  11 -7.263708E+05 -1.897166E+05  1.246227E+04 -4.179075E+05  3.255909E-09  5.886717E-10
       212  12 -5.703253E+05 -1.500079E+05  3.768460E+04 -3.919139E+05  2.458098E-09  4.527141E-10
       212  13 -7.872397E+05 -2.283205E+05 -5.651904E+02 -4.521893E+05  5.395305E-10 -2.190530E-10
       212  14 -7.994382E+05 -2.160903E+05 -8.304525E+02 -4.381750E+05 -7.410845E-10  4.801032E-10
       212  15 -7.872476E+05 -2.283159E+05 -1.405515E+03 -4.521948E+05 -5.732296E-10 -6.262791E-10
       212  16 -7.164742E+05 -2.027676E+05  1.191549E+04 -4.324498E+05 -1.652053E-09 -2.380940E-10
       212  17 -8.724995E+05 -2.424634E+05 -1.412326E+04 -4.584401E+05 -1.203870E-09  2.683302E-10
       212  18 -1.004118E+06 -3.066187E+05 -4.049666E+04 -5.124555E+05 -3.307476E-09 -1.632963E-09
       212  19 -8.579995E+05 -2.538727E+05 -1.304519E+04 -4.719265E+05 -1.680772E+04 -1.292748E+04
       212  20 -7.263703E+05 -1.897164E+05  1.246314E+04 -4.179075E+05 -2.149050E+04 -1.600686E+03
       212  21 -5.703245E+05 -1.500076E+05  3.768607E+04 -3.919141E+05 -2.616676E+04  9.706988E+03
       212  22 -7.872397E+05 -2.283205E+05 -5.651179E+02 -4.521893E+05  2.002813E+03 -5.881725E+03
       212  23 -7.994382E+05 -2.160903E+05 -8.303832E+02 -4.381750E+05 -2.708893E+03  5.434863E+03
       212  24 -7.872475E+05 -2.283156E+05 -1.404886E+03 -4.521949E+05 -7.413972E+03  1.673232E+04
       212  25 -7.164738E+05 -2.027675E+05  1.191631E+04 -4.324498E+05  2.081562E+04  1.164886E+03
       212  26 -8.724992E+05 -2.424632E+05 -1.412248E+04 -4.584399E+05  1.607026E+04  1.246950E+04
       212  27 -1.004118E+06 -3.066180E+05 -4.049536E+04 -5.124553E+05  1.133164E+04  2.375497E+04
       213   1 -4.759963E+05 -1.157851E+05  5.517681E+04 -3.657638E+05  2.896684E+04 -1.626807E+04
       213   2 -3.444112E+05 -5.168667E+04  7.959046E+04 -3.117486E+05  3.446766E+04 -2.713071E+04
       213   3 -1.885654E+05 -1.211930E+04  1.030528E+05 -2.857127E+05  3.987972E+04 -3.774320E+04
       213   4 -7.873027E+05 -2.283128E+05 -1.847482E+03 -4.522035E+05  1.018421E+04 -2.330595E+04
       213   5 -7.994207E+05 -2.161229E+05 -3.322559E+03 -4.381741E+05  1.609016E+04 -3.402077E+04
       213   6 -7.873828E+05 -2.285497E+05 -6.072189E+03 -4.521353E+05  2.190700E+04 -4.448541E+04
       213   7 -1.098510E+06 -3.408323E+05 -5.887467E+04 -5.386036E+05 -8.588548E+03 -3.034013E+04
       213   8 -1.254214E+06 -3.805406E+05 -8.624222E+04 -5.645138E+05 -2.273050E+03 -4.090550E+04
       213   9 -1.385823E+06 -4.449466E+05 -1.152088E+05 -6.184084E+05  3.952769E+03 -5.122071E+04
       213  10 -4.759973E+05 -1.157856E+05  5.517474E+04 -3.657634E+05  9.116184E-10 -7.963728E-11
       213  11 -3.444126E+05 -5.168777E+04  7.958685E+04 -3.117478E+05  5.111593E-10  2.529691E-10
       213  12 -1.885675E+05 -1.212126E+04  1.030472E+05 -2.857115E+05  3.203963E-10  1.626245E-09
       213  13 -7.873030E+05 -2.283134E+05 -1.848697E+03 -4.522034E+05  7.424360E-10 -5.400862E-10
       213  14 -7.994213E+05 -2.161243E+05 -3.325219E+03 -4.381737E+05  8.934526E-10 -4.492431E-10
       213  15 -7.873838E+05 -2.285520E+05 -6.076807E+03 -4.521345E+05 -1.152639E-09  1.014808E-09
       213  16 -1.098510E+06 -3.408333E+05 -5.887653E+04 -5.386038E+05 -6.627967E-10 -9.506734E-10
       213  17 -1.254215E+06 -3.805424E+05 -8.624538E+04 -5.645139E+05 -1.782705E-09 -7.122551E-10
       213  18 -1.385824E+06 -4.449494E+05 -1.152137E+05 -6.184082E+05 -6.912879E-10  3.215240E-10
       213  19 -4.759963E+05 -1.157851E+05  5.517681E+04 -3.657638E+05 -2.896684E+04  1.626807E+04
       213  20 -3.444112E+05 -5.168667E+04  7.959046E+04 -3.117486E+05 -3.446766E+04  2.713071E+04
       213  21 -1.885654E+05 -1.211930E+04  1.030528E+05 -2.857127E+05 -3.987972E+04  3.774320E+04
       213  22 -7.873027E+05 -2.283128E+05 -1.847482E+03 -4.522035E+05 -1.018421E+04  2.330595E+04
       213  23 -7.994207E+05 -2.161229E+05 -3.322559E+03 -4.381741E+05 -1.609016E+04  3.402077E+04
       213  24 -7.873828E+05 -2.285497E+05 -6.072189E+03 -4.521353E+05 -2.190700E+04  4.448541E+04
       213  25 -1.098510E+06 -3.408323E+05 -5.887467E+04 -5.386036E+05  8.588548E+03  3.034013E+04
       213  26 -1.254214E+06 -3.805406E+05 -8.624222E+04 -5.645138E+05  2.273050E+03  4.090550E+04
       213  27 -1.385823E+06 -4.449466E+05 -1.152088E+05 -6.184084E+05 -3.952769E+03  5.122071E+04
       214   1 -9.420308E+04  2.186832E+04  1.190976E+05 -2.600971E+05  4.387328E+04 -4.373229E+04
       214   2  3.626721E+04  8.639934E+04  1.400105E+05 -2.044651E+05  5.014712E+04 -5.247352E+04
       214   3  1.896333E+05  1.237497E+05  1.581951E+05 -1.758545E+05  5.531899E+04 -5.825916E+04
       214   4 -7.877823E+05 -2.284419E+05 -8.084521E+03 -4.522690E+05  2.549325E+04 -5.063042E+04
       214   5 -7.991703E+05 -2.171297E+05 -1.481240E+04 -4.377361E+05  3.660277E+04 -5.756443E+04
       214   6 -7.886437E+05 -2.339637E+05 -2.810637E+04 -4.502351E+05  4.660887E+04 -6.154088E+04
       214   7 -1.480849E+06 -4.787054E+05 -1.352811E+05 -6.442394E+05  7.135322E+03 -5.752033E+04
       214   8 -1.633876E+06 -5.205930E+05 -1.696611E+05 -6.707145E+05  2.307788E+04 -6.264800E+04
       214   9 -1.765932E+06 -5.915905E+05 -2.144500E+05 -7.242154E+05  3.791333E+04 -6.481706E+04
       214  10 -9.420565E+04  2.186575E+04  1.190904E+05 -2.600955E+05  2.683933E-08  1.228127E-08
       214  11  3.626377E+04  8.639571E+04  1.400006E+05 -2.044630E+05  6.411934E-09  3.722445E-09
       214  12  1.896291E+05  1.237452E+05  1.581830E+05 -1.758519E+05 -2.006251E-08 -8.684257E-09
       214  13 -7.877837E+05 -2.284448E+05 -8.090556E+03 -4.522680E+05  1.731099E-09  2.232872E-09
       214  14 -7.991726E+05 -2.171336E+05 -1.482114E+04 -4.377344E+05  4.973699E-09  3.307754E-09
       214  15 -7.886470E+05 -2.339683E+05 -2.811756E+04 -4.502328E+05  2.422785E-09  1.594430E-09
       214  16 -1.480850E+06 -4.787090E+05 -1.352874E+05 -6.442391E+05 -2.286066E-08 -7.734506E-09
       214  17 -1.633878E+06 -5.205974E+05 -1.696695E+05 -6.707133E+05  5.510833E-09  3.041852E-09
       214  18 -1.765934E+06 -5.915954E+05 -2.144606E+05 -7.242134E+05  2.380582E-08  1.208633E-08
       214  19 -9.420308E+04  2.186832E+04  1.190976E+05 -2.600971E+05 -4.387328E+04  4.373229E+04
       214  20  3.626721E+04  8.639934E+04  1.400105E+05 -2.044651E+05 -5.014712E+04  5.247352E+04
       214  21  1.896333E+05  1.237497E+05  1.581951E+05 -1.758545E+05 -5.531899E+04  5.825916E+04
       214  22 -7.877823E+05 -2.284419E+05 -8.084521E+03 -4.522690E+05 -2.549325E+04  5.063042E+04
       214  23 -7.991703E+05 -2.171297E+05 -1.481240E+04 -4.377361E+05 -3.660277E+04  5.756443E+04
       214  24 -7.886437E+05 -2.339637E+05 -2.810637E+04 -4.502351E+05 -4.660887E+04  6.154088E+04
       214  25 -1.480849E+06 -4.787054E+05 -1.352811E+05 -6.442394E+05 -7.135322E+03  5.752033E+04
       214  26 -1.633876E+06 -5.205930E+05 -1.696611E+05 -6.707145E+05 -2.307788E+04  6.264800E+04
       214  27 -1.765932E+06 -5.915905E+05 -2.144500E+05 -7.242154E+05 -3.791333E+04  6.481706E+04
       215   1  2.879140E+05  1.535483E+05  1.689896E+05 -1.597981E+05  6.663071E+04 -6.014022E+04
       215   2  3.924932E+05  2.291942E+05  1.852894E+05 -6.209943E+04  4.128403E+04 -5.881941E+04
       215   3  4.980654E+05  2.180042E+05  1.999478E+05  2.875621E+04  2.479275E+03 -2.176153E+04
       215   4 -7.934349E+05 -2.319801E+05 -3.720241E+04 -4.523932E+05  5.284292E+04 -6.533118E+04
       215   5 -7.964777E+05 -2.415152E+05 -7.054905E+04 -4.269123E+05  8.612651E+04 -4.198309E+04
       215   6 -8.102176E+05 -3.496040E+05 -1.520474E+05 -4.082758E+05  1.059397E+05  1.714153E+04
       215   7 -1.873567E+06 -6.174148E+05 -2.434427E+05 -7.445201E+05  3.908083E+04 -7.051295E+04
       215   8 -1.983986E+06 -7.120384E+05 -3.264578E+05 -7.910543E+05  1.308763E+05 -2.518793E+04
       215   9 -2.116775E+06 -9.169183E+05 -5.041435E+05 -8.444049E+05  2.091606E+05  5.592222E+04
       215  10  2.879083E+05  1.535432E+05  1.689745E+05 -1.597948E+05  2.283222E-09 -6.768111E-10
       215  11  3.924904E+05  2.291900E+05  1.852797E+05 -6.209748E+04 -6.391882E-09 -2.535587E-09
       215  12  4.980652E+05  2.180037E+05  1.999469E+05  2.875625E+04 -7.004808E-09 -1.892060E-09
       215  13 -7.934390E+05 -2.319854E+05 -3.721568E+04 -4.523904E+05 -3.354671E-09 -1.005598E-09
       215  14 -7.964861E+05 -2.415191E+05 -7.056631E+04 -4.269094E+05 -7.292294E-09 -2.605331E-09
       215  15 -8.102297E+05 -3.496074E+05 -1.520691E+05 -4.082773E+05 -2.320410E-09 -6.271737E-10
       215  16 -1.873570E+06 -6.174206E+05 -2.434549E+05 -7.445178E+05 -7.969276E-09 -4.753368E-10
       215  17 -1.984004E+06 -7.120437E+05 -3.264913E+05 -7.910517E+05 -7.817764E-09 -1.884940E-09
       215  18 -2.116823E+06 -9.169335E+05 -5.042319E+05 -8.444143E+05  4.733019E-10  1.493517E-09
       215  19  2.879140E+05  1.535483E+05  1.689896E+05 -1.597981E+05 -6.663071E+04  6.014022E+04
       215  20  3.924932E+05  2.291942E+05  1.852894E+05 -6.209943E+04 -4.128403E+04  5.881941E+04
       215  21  4.980654E+05  2.180042E+05  1.999478E+05  2.875621E+04 -2.479275E+03  2.176153E+04
       215  22 -7.934349E+05 -2.319801E+05 -3.720241E+04 -4.523932E+05 -5.284292E+04  6.533118E+04
       215  23 -7.964777E+05 -2.415152E+05 -7.054905E+04 -4.269123E+05 -8.612651E+04  4.198309E+04
       215  24 -8.102176E+05 -3.496040E+05 -1.520474E+05 -4.082758E+05 -1.059397E+05 -1.714153E+04
       215  25 -1.873567E+06 -6.174148E+05 -2.434427E+05 -7.445201E+05 -3.908083E+04  7.051295E+04
       215  26 -1.983986E+06 -7.120384E+05 -3.264578E+05 -7.910543E+05 -1.308763E+05  2.518793E+04
       215  27 -2.116775E+06 -9.169183E+05 -5.041435E+05 -8.444049E+05 -2.091606E+05 -5.592222E+04
       216   1 -5.020793E+05 -1.673362E+05 -1.350305E+05 -5.463994E+04  2.343967E+04  1.748007E+04
       216   2 -3.641017E+05 -2.399727E+05 -1.400525E+05 -9.269207E+04  3.440918E+04  5.741354E+04
       216   3 -2.074700E+05 -2.332133E+05 -1.323481E+05 -1.607669E+05  4.541504E+04  6.627391E+04
       216   4  8.095135E+05  1.563014E+05  1.728688E+05 -1.528599E+05  1.207140E+05  1.755079E+04
       216   5  7.955828E+05  3.671964E+04  8.432797E+04 -1.378109E+05  7.722421E+04  5.742791E+04
       216   6  8.096823E+05  5.890998E+03  4.628175E+04 -1.527740E+05  3.377076E+04  6.626039E+04
       216   7  2.122731E+06  4.798582E+05  4.806912E+05 -2.512888E+05  2.181926E+05  1.759068E+04
       216   8  1.956568E+06  3.133406E+05  3.086535E+05 -1.830161E+05  1.201173E+05  5.743605E+04
       216   9  1.827847E+06  2.449392E+05  2.248748E+05 -1.447675E+05  2.210794E+04  6.624657E+04
       216  10 -5.020800E+05 -1.673367E+05 -1.350321E+05 -5.464027E+04  5.659271E-08 -3.384788E-10
       216  11 -3.641039E+05 -2.399766E+05 -1.400609E+05 -9.269366E+04 -2.910469E-09  1.618855E-09
       216  12 -2.074734E+05 -2.332186E+05 -1.323603E+05 -1.607693E+05 -6.159994E-08  2.329441E-10
       216  13  8.094978E+05  1.562972E+05  1.728409E+05 -1.528616E+05  2.970523E-10  1.125158E-09
       216  14  7.955755E+05  3.671450E+04  8.431058E+04 -1.378145E+05 -1.197970E-11  1.226639E-09
       216  15  8.096799E+05  5.885975E+03  4.627136E+04 -1.527758E+05  1.427388E-09 -1.562611E-10
       216  16  2.122680E+06  4.798451E+05  4.806014E+05 -2.512919E+05 -5.459465E-08  9.894918E-10
       216  17  1.956551E+06  3.133332E+05  3.086203E+05 -1.830217E+05  2.294943E-09  1.154160E-09
       216  18  1.827845E+06  2.449344E+05  2.248656E+05 -1.447687E+05  6.295399E-08  1.174675E-09
       216  19 -5.020793E+05 -1.673362E+05 -1.350305E+05 -5.463994E+04 -2.343967E+04 -1.748007E+04
       216  20 -3.641017E+05 -2.399727E+05 -1.400525E+05 -9.269207E+04 -3.440918E+04 -5.741354E+04
       216  21 -2.074700E+05 -2.332133E+05 -1.323481E+05 -1.607669E+05 -4.541504E+04 -6.627391E+04
       216  22  8.095135E+05  1.563014E+05  1.728688E+05 -1.528599E+05 -1.207140E+05 -1.755079E+04
       216  23  7.955828E+05  3.671964E+04  8.432797E+04 -1.378109E+05 -7.722421E+04 -5.742791E+04
       216  24  8.096823E+05  5.890998E+03  4.628175E+04 -1.527740E+05 -3.377076E+04 -6.626039E+04
       216  25  2.122731E+06  4.798582E+05  4.806912E+05 -2.512888E+05 -2.181926E+05 -1.759068E+04
       216  26  1.956568E+06  3.133406E+05  3.086535E+05 -1.830161E+05 -1.201173E+05 -5.743605E+04
       216  27  1.827847E+06  2.449392E+05  2.248748E+05 -1.447675E+05 -2.210794E+04 -6.624657E+04
       217   1 -1.166349E+05 -2.087064E+05 -1.245965E+05 -1.502872E+05  3.646657E+04  6.168626E+04
       217   2  2.918642E+04 -1.796240E+05 -1.110204E+05 -1.363983E+05  3.197009E+04  5.523275E+04
       217   3  1.767357E+05 -1.464500E+05 -9.346683E+04 -1.544229E+05  2.746920E+04  4.585716E+04
       217   4  8.040600E+05  7.312764E+03  3.513954E+04 -1.532121E+05  2.775196E+04  6.167543E+04
       217   5  8.028045E+05  1.095243E+03  1.930001E+04 -1.372565E+05  1.812290E+04  5.522419E+04
       217   6  8.041416E+05 -1.434554E+02  1.099270E+04 -1.532114E+05  8.490477E+03  4.585270E+04
       217   7  1.725586E+06  2.232863E+05  1.948464E+05 -1.561414E+05  1.902480E+04  6.166469E+04
       217   8  1.577012E+06  1.817831E+05  1.496021E+05 -1.381157E+05  4.259000E+03  5.521568E+04
       217   9  1.431937E+06  1.461429E+05  1.154416E+05 -1.519986E+05 -1.050678E+04  4.584817E+04
       217  10 -1.166374E+05 -2.087109E+05 -1.246062E+05 -1.502890E+05 -1.017110E-08 -9.375767E-10
       217  11  2.918451E+04 -1.796275E+05 -1.110280E+05 -1.363997E+05  1.849774E-08 -1.766909E-09
       217  12  1.767343E+05 -1.464525E+05 -9.347220E+04 -1.544240E+05  4.305794E-08 -4.593757E-10
       217  13  8.040582E+05  7.308471E+03  3.513094E+04 -1.532134E+05  3.041828E-10  2.006889E-10
       217  14  8.028033E+05  1.091879E+03  1.929366E+04 -1.372573E+05  1.619791E-09 -6.288306E-10
       217  15  8.041410E+05 -1.457334E+02  1.098861E+04 -1.532118E+05 -1.673081E-09 -5.313050E-11
       217  16  1.725585E+06  2.232821E+05  1.948385E+05 -1.561423E+05  1.176593E-08  2.146843E-10
       217  17  1.577011E+06  1.817799E+05  1.495964E+05 -1.381159E+05 -1.926693E-08  7.479348E-11
       217  18  1.431936E+06  1.461406E+05  1.154374E+05 -1.519983E+05 -4.383519E-08  6.720215E-10
       217  19 -1.166349E+05 -2.087064E+05 -1.245965E+05 -1.502872E+05 -3.646657E+04 -6.168626E+04
       217  20  2.918642E+04 -1.796240E+05 -1.110204E+05 -1.363983E+05 -3.197009E+04 -5.523275E+04
       217  21  1.767357E+05 -1.464500E+05 -9.346683E+04 -1.544229E+05 -2.746920E+04 -4.585716E+04
       217  22  8.040600E+05  7.312764E+03  3.513954E+04 -1.532121E+05 -2.775196E+04 -6.167543E+04
       217  23  8.028045E+05  1.095243E+03  1.930001E+04 -1.372565E+05 -1.812290E+04 -5.522419E+04
       217  24  8.041416E+05 -1.434554E+02  1.099270E+04 -1.532114E+05 -8.490477E+03 -4.585270E+04
       217  25  1.725586E+06  2.232863E+05  1.948464E+05 -1.561414E+05 -1.902480E+04 -6.166469E+04
       217  26  1.577012E+06  1.817831E+05  1.496021E+05 -1.381157E+05 -4.259000E+03 -5.521568E+04
       217  27  1.431937E+06  1.461429E+05  1.154416E+05 -1.519986E+05  1.050678E+04 -4.584817E+04
       218   1  2.711349E+05 -1.240255E+05 -7.967396E+04 -1.536945E+05  2.550404E+04  3.948661E+04
       218   2  4.174521E+05 -9.006980E+04 -5.898614E+04 -1.375558E+05  2.363960E+04  2.867989E+04
       218   3  5.641085E+05 -5.593237E+04 -3.703108E+04 -1.534721E+05  2.177188E+04  1.760085E+04
       218   4  8.036761E+05  2.272862E+01  8.339681E+03 -1.532437E+05  6.806395E+03  3.948436E+04
       218   5  8.034943E+05 -1.682682E+02  4.741554E+03 -1.372169E+05  4.460822E+03  2.868018E+04
       218   6  8.037149E+05 -9.310434E+01  2.742972E+03 -1.532440E+05  2.112393E+03  1.760379E+04
       218   7  1.336498E+06  1.240565E+05  9.634621E+04 -1.527926E+05 -1.190674E+04  3.948208E+04
       218   8  1.189684E+06  8.972578E+04  6.846622E+04 -1.368777E+05 -1.472947E+04  2.868046E+04
       218   9  1.043379E+06  5.574340E+04  4.251674E+04 -1.530157E+05 -1.755442E+04  1.760673E+04
       218  10  2.711337E+05 -1.240273E+05 -7.967812E+04 -1.536953E+05 -4.810871E-08  1.810750E-10
       218  11  4.174513E+05 -9.007084E+04 -5.898874E+04 -1.375563E+05 -2.210906E-08 -7.982860E-10
       218  12  5.641079E+05 -5.593283E+04 -3.703255E+04 -1.534725E+05  9.040929E-09 -1.519777E-09
       218  13  8.036756E+05  2.104137E+01  8.336663E+03 -1.532440E+05 -2.274531E-10  5.135131E-10
       218  14  8.034940E+05 -1.691572E+02  4.739971E+03 -1.372170E+05 -1.594527E-09 -1.980850E-10
       218  15  8.037149E+05 -9.343845E+01  2.742381E+03 -1.532440E+05  5.033031E-10 -9.652647E-10
       218  16  1.336498E+06  1.240548E+05  9.634302E+04 -1.527922E+05  4.764304E-08  9.269089E-10
       218  17  1.189684E+06  8.972484E+04  6.846427E+04 -1.368774E+05  2.009908E-08  2.358866E-10
       218  18  1.043378E+06  5.574298E+04  4.251558E+04 -1.530154E+05 -1.032996E-08 -6.089915E-10
       218  19  2.711349E+05 -1.240255E+05 -7.967396E+04 -1.536945E+05 -2.550404E+04 -3.948661E+04
       218  20  4.174521E+05 -9.006980E+04 -5.898614E+04 -1.375558E+05 -2.363960E+04 -2.867989E+04
       218  21  5.641085E+05 -5.593237E+04 -3.703108E+04 -1.534721E+05 -2.177188E+04 -1.760085E+04
       218  22  8.036761E+05  2.272862E+01  8.339681E+03 -1.532437E+05 -6.806395E+03 -3.948436E+04
       218  23  8.034943E+05 -1.682682E+02  4.741554E+03 -1.372169E+05 -4.460822E+03 -2.868018E+04
       218  24  8.037149E+05 -9.310434E+01  2.742972E+03 -1.532440E+05 -2.112393E+03 -1.760379E+04
       218  25  1.336498E+06  1.240565E+05  9.634621E+04 -1.527926E+05  1.190674E+04 -3.948208E+04
       218  26  1.189684E+06  8.972578E+04  6.846622E+04 -1.368777E+05  1.472947E+04 -2.868046E+04
       218  27  1.043379E+06  5.574340E+04  4.251674E+04 -1.530157E+05  1.755442E+04 -1.760673E+04
       219   1  6.587218E+05 -3.373771E+04 -2.147821E+04 -1.534102E+05  2.130687E+04  1.106863E+04
       219   2  8.051195E+05  3.022477E+02  1.457965E+03 -1.373278E+05  2.073902E+04 -1.391169E+02
       219   3  9.516246E+05  3.434397E+04  2.476614E+04 -1.533039E+05  2.017105E+04 -1.136981E+04
       219   4  8.036527E+05 -6.109010E+01  2.093638E+03 -1.532450E+05  1.674161E+03  1.107234E+04
       219   5  8.036074E+05 -4.462516E+01  1.233833E+03 -1.372157E+05  1.063581E+03 -1.354202E+02
       219   6  8.036529E+05 -1.891527E+01  7.738731E+02 -1.532450E+05  4.530097E+02 -1.136611E+04
       219   7  9.486053E+05  3.361467E+04  2.566634E+04 -1.530797E+05 -1.796297E+04  1.107604E+04
       219   8  8.020961E+05 -3.912906E+02  1.011154E+03 -1.371037E+05 -1.861181E+04 -1.317307E+02
       219   9  6.557036E+05 -3.438271E+04 -2.321754E+04 -1.531861E+05 -1.926050E+04 -1.136241E+04
       219  10  6.587213E+05 -3.373796E+04 -2.147929E+04 -1.534104E+05 -1.576477E-09 -1.161034E-09
       219  11  8.051191E+05  3.021324E+02  1.457157E+03 -1.373278E+05 -1.264338E-09 -1.625752E-10
       219  12  9.516241E+05  3.434373E+04  2.476513E+04 -1.533037E+05 -1.590621E-09 -3.311872E-10
       219  13  8.036527E+05 -6.122255E+01  2.093402E+03 -1.532450E+05 -1.035059E-09 -1.051834E-09
       219  14  8.036074E+05 -4.462549E+01  1.233831E+03 -1.372157E+05 -1.219547E-10 -4.243502E-10
       219  15  8.036528E+05 -1.905410E+01  7.736298E+02 -1.532450E+05 -7.693413E-10 -6.662169E-10
       219  16  9.486049E+05  3.361445E+04  2.566551E+04 -1.530796E+05  1.970335E-09 -9.340612E-10
       219  17  8.020958E+05 -3.913834E+02  1.010504E+03 -1.371037E+05 -2.485587E-10 -7.068777E-10
       219  18  6.557032E+05 -3.438294E+04 -2.321848E+04 -1.531863E+05  1.341579E-10 -6.825898E-10
       219  19  6.587218E+05 -3.373771E+04 -2.147821E+04 -1.534102E+05 -2.130687E+04 -1.106863E+04
       219  20  8.051195E+05  3.022477E+02  1.457965E+03 -1.373278E+05 -2.073902E+04  1.391169E+02
       219  21  9.516246E+05  3.434397E+04  2.476614E+04 -1.533039E+05 -2.017105E+04  1.136981E+04
       219  22  8.036527E+05 -6.109010E+01  2.093638E+03 -1.532450E+05 -1.674161E+03 -1.107234E+04
       219  23  8.036074E+05 -4.462516E+01  1.233833E+03 -1.372157E+05 -1.063581E+03  1.354202E+02
       219  24  8.036529E+05 -1.891527E+01  7.738731E+02 -1.532450E+05 -4.530097E+02  1.136611E+04
       219  25  9.486053E+05  3.361467E+04  2.566634E+04 -1.530797E+05  1.796297E+04 -1.107604E+04
       219  26  8.020961E+05 -3.912906E+02  1.011154E+03 -1.371037E+05  1.861181E+04  1.317307E+02
       219  27  6.557036E+05 -3.438271E+04 -2.321754E+04 -1.531861E+05  1.926050E+04  1.136241E+04
       220   1  1.046309E+06  5.649220E+04  4.081362E+04 -1.533030E+05  2.004606E+04 -1.791459E+04
       220   2  1.192824E+06  9.048499E+04  6.446221E+04 -1.372168E+05  1.975112E+04 -2.914262E+04
       220   3  1.339431E+06  1.244814E+05  8.831034E+04 -1.532034E+05  1.945914E+04 -4.034350E+04
       220   4  8.036395E+05 -2.471479E+01  6.398008E+02 -1.532485E+05  3.231186E+02 -1.791167E+04
       220   5  8.035893E+05 -6.377347E+01  5.035812E+02 -1.372115E+05  7.371856E+01 -2.914236E+04
       220   6  8.036016E+05 -1.063650E+02  5.343912E+02 -1.532485E+05 -1.726438E+02 -4.034587E+04
       220   7  5.610290E+05 -5.654447E+04 -3.953432E+04 -1.531940E+05 -1.939239E+04 -1.790876E+04
       220   8  4.145053E+05 -9.062010E+04 -6.345801E+04 -1.372061E+05 -1.959178E+04 -2.914210E+04
       220   9  2.680570E+05 -1.247086E+05 -8.724839E+04 -1.532935E+05 -1.978810E+04 -4.034824E+04
       220  10  1.046308E+06  5.649175E+04  4.081226E+04 -1.533027E+05 -2.381311E-08 -9.681243E-12
       220  11  1.192823E+06  9.048397E+04  6.445989E+04 -1.372163E+05  3.811955E-08  1.640983E-09
       220  12  1.339430E+06  1.244796E+05  8.830657E+04 -1.532028E+05  8.959218E-08  2.515302E-09
       220  13  8.036394E+05 -2.505946E+01  6.391975E+02 -1.532485E+05  6.224332E-10 -1.137343E-10
       220  14  8.035890E+05 -6.468579E+01  5.019847E+02 -1.372115E+05  1.157539E-09  1.906047E-09
       220  15  8.036011E+05 -1.081136E+02  5.313311E+02 -1.532485E+05 -1.221349E-09  2.995252E-09
       220  16  5.610285E+05 -5.654491E+04 -3.953563E+04 -1.531942E+05  2.152559E-08 -6.289146E-11
       220  17  4.145046E+05 -9.062111E+04 -6.346033E+04 -1.372066E+05 -3.759613E-08  2.004312E-09
       220  18  2.680562E+05 -1.247105E+05 -8.725218E+04 -1.532941E+05 -9.035893E-08  3.399726E-09
       220  19  1.046309E+06  5.649220E+04  4.081362E+04 -1.533030E+05 -2.004606E+04  1.791459E+04
       220  20  1.192824E+06  9.048499E+04  6.446221E+04 -1.372168E+05 -1.975112E+04  2.914262E+04
       220  21  1.339431E+06  1.244814E+05  8.831034E+04 -1.532034E+05 -1.945914E+04  4.034350E+04
       220  22  8.036395E+05 -2.471479E+01  6.398008E+02 -1.532485E+05 -3.231186E+02  1.791167E+04
       220  23  8.035893E+05 -6.377347E+01  5.035812E+02 -1.372115E+05 -7.371856E+01  2.914236E+04
       220  24  8.036016E+05 -1.063650E+02  5.343912E+02 -1.532485E+05  1.726438E+02  4.034587E+04
       220  25  5.610290E+05 -5.654447E+04 -3.953432E+04 -1.531940E+05  1.939239E+04  1.790876E+04
       220  26  4.145053E+05 -9.062010E+04 -6.345801E+04 -1.372061E+05  1.959178E+04  2.914210E+04
       220  27  2.680570E+05 -1.247086E+05 -8.724839E+04 -1.532935E+05  1.978810E+04  4.034824E+04
       221   1  1.434274E+06  1.466312E+05  1.046088E+05 -1.531683E+05  1.939961E+04 -4.687405E+04
       221   2  1.580943E+06  1.806583E+05  1.289380E+05 -1.369846E+05  1.834952E+04 -5.790850E+04
       221   3  1.727899E+06  2.148248E+05  1.540084E+05 -1.528993E+05  1.730501E+04 -6.859517E+04
       221   4  8.036026E+05 -1.386686E+02  6.108754E+02 -1.532544E+05 -2.752572E+02 -4.687875E+04
       221   5  8.034831E+05 -2.259611E+02  8.971174E+02 -1.372040E+05 -7.162247E+02 -5.791835E+04
       221   6  8.035266E+05 -2.780731E+02  1.502313E+03 -1.532544E+05 -1.151397E+03 -6.860991E+04
       221   7  1.733249E+05 -1.469288E+05 -1.033973E+05 -1.533404E+05 -1.993085E+04 -4.688345E+04
       221   8  2.662091E+04 -1.811411E+05 -1.271602E+05 -1.374231E+05 -1.975896E+04 -5.792818E+04
       221   9 -1.200025E+05 -2.154248E+05 -1.510278E+05 -1.536088E+05 -1.958131E+04 -6.862464E+04
       221  10  1.434273E+06  1.466287E+05  1.046039E+05 -1.531676E+05 -1.501362E-07  1.619064E-09
       221  11  1.580941E+06  1.806546E+05  1.289311E+05 -1.369838E+05 -4.052466E-08 -2.312009E-09
       221  12  1.727898E+06  2.148197E+05  1.539990E+05 -1.528984E+05  7.662312E-08 -3.338123E-09
       221  13  8.036020E+05 -1.410294E+02  6.067440E+02 -1.532544E+05 -1.045772E-11  1.714248E-09
       221  14  8.034822E+05 -2.295648E+02  8.908102E+02 -1.372041E+05  3.487947E-10 -2.058768E-09
       221  15  8.035253E+05 -2.831302E+02  1.493461E+03 -1.532544E+05 -1.895401E-09 -3.453925E-09
       221  16  1.733239E+05 -1.469312E+05 -1.034022E+05 -1.533411E+05  1.505116E-07  1.833138E-09
       221  17  2.661959E+04 -1.811448E+05 -1.271672E+05 -1.374240E+05  3.802085E-08 -2.109411E-09
       221  18 -1.200042E+05 -2.154299E+05 -1.510373E+05 -1.536099E+05 -7.777281E-08 -2.872352E-09
       221  19  1.434274E+06  1.466312E+05  1.046088E+05 -1.531683E+05 -1.939961E+04  4.687405E+04
       221  20  1.580943E+06  1.806583E+05  1.289380E+05 -1.369846E+05 -1.834952E+04  5.790850E+04
       221  21  1.727899E+06  2.148248E+05  1.540084E+05 -1.528993E+05 -1.730501E+04  6.859517E+04
       221  22  8.036026E+05 -1.386686E+02  6.108754E+02 -1.532544E+05  2.752572E+02  4.687875E+04
       221  23  8.034831E+05 -2.259611E+02  8.971174E+02 -1.372040E+05  7.162247E+02  5.791835E+04
       221  24  8.035266E+05 -2.780731E+02  1.502313E+03 -1.532544E+05  1.151397E+03  6.860991E+04
       221  25  1.733249E+05 -1.469288E+05 -1.033973E+05 -1.533404E+05  1.993085E+04  4.688345E+04
       221  26  2.662091E+04 -1.811411E+05 -1.271602E+05 -1.374231E+05  1.975896E+04  5.792818E+04
       221  27 -1.200025E+05 -2.154248E+05 -1.510278E+05 -1.536088E+05  1.958131E+04  6.862464E+04
       222   1  1.823213E+06  2.370699E+05  1.710136E+05 -1.526318E+05  1.737949E+04 -7.491867E+04
       222   2  1.969541E+06  2.717609E+05  1.989442E+05 -1.367960E+05  9.089834E+03 -8.376180E+04
       222   3  2.117674E+06  3.084575E+05  2.328132E+05 -1.528765E+05  8.016826E+02 -8.884203E+04
       222   4  8.035970E+05 -3.512438E+02  1.961227E+03 -1.532140E+05 -1.448515E+03 -7.493729E+04
       222   5  8.032201E+05 -2.375341E+02  3.383124E+03 -1.372543E+05 -3.126270E+03 -8.378352E+04
       222   6  8.034826E+05  7.383294E+02  6.162686E+03 -1.532146E+05 -4.800524E+03 -8.886329E+04
       222   7 -2.149933E+05 -2.378260E+05 -1.671211E+05 -1.537953E+05 -2.024671E+04 -7.495588E+04
       222   8 -3.617621E+05 -2.723069E+05 -1.922200E+05 -1.377118E+05 -1.532023E+04 -8.380526E+04
       222   9 -5.090188E+05 -3.070734E+05 -2.205469E+05 -1.535521E+05 -1.039126E+04 -8.888458E+04
       222  10  1.823211E+06  2.370638E+05  1.710025E+05 -1.526307E+05 -1.332032E-09 -2.668292E-09
       222  11  1.969539E+06  2.717533E+05  1.989309E+05 -1.367954E+05 -1.597408E-10 -1.134378E-09
       222  12  2.117672E+06  3.084490E+05  2.327984E+05 -1.528765E+05  1.912417E-10 -1.553971E-09
       222  13  8.035955E+05 -3.572768E+02  1.950666E+03 -1.532141E+05 -1.050443E-09 -2.501321E-09
       222  14  8.032182E+05 -2.450776E+02  3.369909E+03 -1.372545E+05 -1.933156E-09 -1.163021E-09
       222  15  8.034805E+05  7.298403E+02  6.147797E+03 -1.532149E+05 -2.035434E-09 -1.217524E-09
       222  16 -2.149953E+05 -2.378321E+05 -1.671325E+05 -1.537965E+05  8.245899E-10 -2.026405E-09
       222  17 -3.617642E+05 -2.723145E+05 -1.922336E+05 -1.377129E+05 -2.692607E-09  8.360407E-10
       222  18 -5.090210E+05 -3.070819E+05 -2.205620E+05 -1.535528E+05 -2.229640E-09 -1.618755E-10
       222  19  1.823213E+06  2.370699E+05  1.710136E+05 -1.526318E+05 -1.737949E+04  7.491867E+04
       222  20  1.969541E+06  2.717609E+05  1.989442E+05 -1.367960E+05 -9.089834E+03  8.376180E+04
       222  21  2.117674E+06  3.084575E+05  2.328132E+05 -1.528765E+05 -8.016826E+02  8.884203E+04
       222  22  8.035970E+05 -3.512438E+02  1.961227E+03 -1.532140E+05  1.448515E+03  7.493729E+04
       222  23  8.032201E+05 -2.375341E+02  3.383124E+03 -1.372543E+05  3.126270E+03  8.378352E+04
       222  24  8.034826E+05  7.383294E+02  6.162686E+03 -1.532146E+05  4.800524E+03  8.886329E+04
       222  25 -2.149933E+05 -2.378260E+05 -1.671211E+05 -1.537953E+05  2.024671E+04  7.495588E+04
       222  26 -3.617621E+05 -2.723069E+05 -1.922200E+05 -1.377118E+05  1.532023E+04  8.380526E+04
       222  27 -5.090188E+05 -3.070734E+05 -2.205469E+05 -1.535521E+05  1.039126E+04  8.888458E+04
       223   1  2.216090E+06  3.315304E+05  2.544759E+05 -1.501850E+05  3.553624E+03 -9.286459E+04
       223   2  2.355410E+06  3.756068E+05  3.132482E+05 -1.445457E+05 -7.439268E+04 -7.828566E+04
       223   3  2.512169E+06  4.475683E+05  4.296873E+05 -1.683132E+05 -1.524405E+05 -2.367788E+04
       223   4  8.044597E+05  4.272573E+02  8.118674E+03 -1.526504E+05 -5.853998E+03 -9.289212E+04
       223   5  8.017538E+05  5.770640E+03  1.474018E+04 -1.379635E+05 -1.342592E+04 -7.822822E+04
       223   6  8.043039E+05  2.684105E+04  3.027910E+04 -1.526808E+05 -2.107639E+04 -2.349191E+04
       223   7 -6.052245E+05 -3.307837E+05 -2.383091E+05 -1.551102E+05 -1.524092E+04 -9.291963E+04
       223   8 -7.495789E+05 -3.642060E+05 -2.838651E+05 -1.313986E+05  4.739227E+04 -7.816943E+04
       223   9 -9.008448E+05 -3.940825E+05 -3.692627E+05 -1.370922E+05  1.099299E+05 -2.329913E+04
       223  10  2.216088E+06  3.315211E+05  2.544596E+05 -1.501848E+05 -6.079366E-11 -2.931484E-09
       223  11  2.355402E+06  3.755988E+05  3.132264E+05 -1.445504E+05 -2.405753E-09 -5.065533E-09
       223  12  2.512144E+06  4.475615E+05  4.296427E+05 -1.683161E+05 -4.530130E-09 -1.506708E-09
       223  13  8.044574E+05  4.179785E+02  8.102388E+03 -1.526508E+05 -1.952222E-09 -5.937472E-09
       223  14  8.017520E+05  5.764018E+03  1.472833E+04 -1.379644E+05 -1.972790E-09  1.735796E-09
       223  15  8.043033E+05  2.684033E+04  3.027723E+04 -1.526812E+05 -2.078806E-09 -4.510017E-10
       223  16 -6.052271E+05 -3.307931E+05 -2.383257E+05 -1.551114E+05 -2.958914E-09 -1.710360E-09
       223  17 -7.495829E+05 -3.642132E+05 -2.838808E+05 -1.313956E+05 -1.913540E-09  7.227980E-10
       223  18 -9.008579E+05 -3.940863E+05 -3.692865E+05 -1.370901E+05  3.297530E-09 -1.830415E-09
       223  19  2.216090E+06  3.315304E+05  2.544759E+05 -1.501850E+05 -3.553624E+03  9.286459E+04
       223  20  2.355410E+06  3.756068E+05  3.132482E+05 -1.445457E+05  7.439268E+04  7.828566E+04
       223  21  2.512169E+06  4.475683E+05  4.296873E+05 -1.683132E+05  1.524405E+05  2.367788E+04
       223  22  8.044597E+05  4.272573E+02  8.118674E+03 -1.526504E+05  5.853998E+03  9.289212E+04
       223  23  8.017538E+05  5.770640E+03  1.474018E+04 -1.379635E+05  1.342592E+04  7.822822E+04
       223  24  8.043039E+05  2.684105E+04  3.027910E+04 -1.526808E+05  2.107639E+04  2.349191E+04
       223  25 -6.052245E+05 -3.307837E+05 -2.383091E+05 -1.551102E+05  1.524092E+04  9.291963E+04
       223  26 -7.495789E+05 -3.642060E+05 -2.838651E+05 -1.313986E+05 -4.739227E+04  7.816943E+04
       223  27 -9.008448E+05 -3.940825E+05 -3.692627E+05 -1.370922E+05 -1.099299E+05  2.329913E+04
       224   1  5.375279E+05  2.186741E+06  5.189966E+05 -5.766581E+05  2.173719E+04  1.404678E+05
       224   2  3.707570E+05  1.644404E+06  3.201902E+05 -5.098566E+05  6.513376E+04  4.311419E+04
       224   3  2.365352E+05  1.122960E+06  1.927261E+05 -5.556168E+05  5.817745E+04 -5.420881E+04
       224   4  3.062904E+04  1.365549E+05  3.226089E+04 -5.549968E+05  2.199901E+04  2.036521E+04
       224   5  8.423617E+03  1.341452E+05  1.742748E+04 -4.987409E+05  6.522039E+04  1.152105E+04
       224   6  3.492288E+03  1.370782E+05  1.263395E+04 -5.550543E+05  5.803588E+04  2.622537E+03
       224   7 -4.765627E+05 -1.909749E+06 -4.547138E+05 -5.334036E+05  2.225306E+04 -9.934393E+04
       224   8 -3.540492E+05 -1.373939E+06 -2.854473E+05 -4.876507E+05  6.530602E+04 -1.999694E+04
       224   9 -2.296038E+05 -8.478539E+05 -1.674854E+05 -5.544917E+05  5.789427E+04  5.936618E+04
       224  10  5.375221E+05  2.186719E+06  5.189588E+05 -5.766606E+05 -5.992242E-10  5.431265E-08
       224  11  3.707520E+05  1.644401E+06  3.201788E+05 -5.098588E+05 -2.924635E-09 -1.918051E-09
       224  12  2.365308E+05  1.122956E+06  1.927142E+05 -5.556143E+05 -1.203212E-09 -5.863644E-08
       224  13  3.062840E+04  1.365543E+05  3.225920E+04 -5.549972E+05  1.109840E-09  1.292315E-09
       224  14  8.419012E+03  1.341439E+05  1.741923E+04 -4.987415E+05 -5.291548E-10 -7.237783E-10
       224  15  3.488669E+03  1.370773E+05  1.262760E+04 -5.550544E+05 -5.274234E-10  1.182824E-09
       224  16 -4.765659E+05 -1.909760E+06 -4.547333E+05 -5.334018E+05  1.667307E-10 -5.490722E-08
       224  17 -3.540539E+05 -1.373941E+06 -2.854560E+05 -4.876496E+05 -4.876025E-10  4.544851E-09
       224  18 -2.296084E+05 -8.478586E+05 -1.674983E+05 -5.544945E+05 -1.536429E-09  5.785108E-08
       224  19  5.375279E+05  2.186741E+06  5.189966E+05 -5.766581E+05 -2.173719E+04 -1.404678E+05
       224  20  3.707570E+05  1.644404E+06  3.201902E+05 -5.098566E+05 -6.513376E+04 -4.311419E+04
       224  21  2.365352E+05  1.122960E+06  1.927261E+05 -5.556168E+05 -5.817745E+04  5.420881E+04
       224  22  3.062904E+04  1.365549E+05  3.226089E+04 -5.549968E+05 -2.199901E+04 -2.036521E+04
       224  23  8.423617E+03  1.341452E+05  1.742748E+04 -4.987409E+05 -6.522039E+04 -1.152105E+04
       224  24  3.492288E+03  1.370782E+05  1.263395E+04 -5.550543E+05 -5.803588E+04 -2.622537E+03
       224  25 -4.765627E+05 -1.909749E+06 -4.547138E+05 -5.334036E+05 -2.225306E+04  9.934393E+04
       224  26 -3.540492E+05 -1.373939E+06 -2.854473E+05 -4.876507E+05 -6.530602E+04  1.999694E+04
       224  27 -2.296038E+05 -8.478539E+05 -1.674854E+05 -5.544917E+05 -5.789427E+04 -5.936618E+04
       225   1  1.549871E+05  7.757356E+05  1.287028E+05 -5.580835E+05  3.793439E+04 -5.181501E+04
       225   2  2.843368E+04  2.437203E+05  3.184478E+04 -4.977647E+05  7.824276E+03 -5.944867E+04
       225   3 -9.399235E+04 -2.864569E+05 -5.916065E+04 -5.530786E+05 -2.275003E+04 -6.707947E+04
       225   4  3.829288E+03  1.363133E+05  1.203712E+04 -5.557298E+05  3.779525E+04  6.033142E+02
       225   5  3.165056E+03  1.356216E+05  1.356313E+04 -4.979104E+05  7.681328E+03 -6.235803E+03
       225   6  6.502356E+03  1.363510E+05  2.038606E+04 -5.557231E+05 -2.289731E+04 -1.307818E+04
       225   7 -1.473501E+05 -5.027062E+05 -1.046347E+05 -5.533782E+05  3.765641E+04  5.296916E+04
       225   8 -2.210266E+04  2.754048E+04 -4.708248E+03 -4.980561E+05  7.538338E+03  4.696810E+04
       225   9  1.069883E+05  5.593379E+05  9.993593E+04 -5.583693E+05 -2.304497E+04  4.095899E+04
       225  10  1.549848E+05  7.757323E+05  1.286950E+05 -5.580820E+05  3.693979E-10 -1.132706E-09
       225  11  2.843266E+04  2.437165E+05  3.183803E+04 -4.977643E+05  1.734287E-09 -9.175834E-10
       225  12 -9.399411E+04 -2.864618E+05 -5.917009E+04 -5.530798E+05  1.197458E-09 -7.799519E-10
       225  13  3.827754E+03  1.363129E+05  1.203443E+04 -5.557299E+05 -2.170107E-10  2.029925E-09
       225  14  3.164982E+03  1.356215E+05  1.356295E+04 -4.979104E+05  1.039801E-10 -1.016863E-09
       225  15  6.501747E+03  1.363507E+05  2.038475E+04 -5.557234E+05  2.517541E-10  1.315034E-09
       225  16 -1.473524E+05 -5.027096E+05 -1.046427E+05 -5.533798E+05 -1.770186E-09  2.712621E-10
       225  17 -2.210331E+04  2.753809E+04 -4.712501E+03 -4.980564E+05 -1.618033E-09  3.514279E-09
       225  18  1.069872E+05  5.593360E+05  9.993178E+04 -5.583686E+05  3.908763E-10 -1.333887E-10
       225  19  1.549871E+05  7.757356E+05  1.287028E+05 -5.580835E+05 -3.793439E+04  5.181501E+04
       225  20  2.843368E+04  2.437203E+05  3.184478E+04 -4.977647E+05 -7.824276E+03  5.944867E+04
       225  21 -9.399235E+04 -2.864569E+05 -5.916065E+04 -5.530786E+05  2.275003E+04  6.707947E+04
       225  22  3.829288E+03  1.363133E+05  1.203712E+04 -5.557298E+05 -3.779525E+04 -6.033142E+02
       225  23  3.165056E+03  1.356216E+05  1.356313E+04 -4.979104E+05 -7.681328E+03  6.235803E+03
       225  24  6.502356E+03  1.363510E+05  2.038606E+04 -5.557231E+05  2.289731E+04  1.307818E+04
       225  25 -1.473501E+05 -5.027062E+05 -1.046347E+05 -5.533782E+05 -3.765641E+04 -5.296916E+04
       225  26 -2.210266E+04  2.754048E+04 -4.708248E+03 -4.980561E+05 -7.538338E+03 -4.696810E+04
       225  27  1.069883E+05  5.593379E+05  9.993593E+04 -5.583693E+05  2.304497E+04 -4.095899E+04
       226   1 -1.765749E+05 -6.293582E+05 -1.168600E+05 -5.576719E+05 -4.326656E+04 -7.446056E+04
       226   2 -2.899111E+05 -1.160785E+06 -2.170142E+05 -4.723816E+05 -5.377035E+04 -1.804217E+04
       226   3 -3.696981E+05 -1.691101E+06 -3.456216E+05 -5.000292E+05 -1.882253E+04  3.838355E+04
       226   4  5.688255E+03  1.392068E+05  2.574562E+04 -5.551340E+05 -4.341831E+04 -1.660131E+04
       226   5  2.126982E+04  1.316697E+05  4.493876E+04 -4.985990E+05 -5.370828E+04 -3.972523E+04
       226   6  8.418280E+04  1.387545E+05  9.092672E+04 -5.549634E+05 -1.859524E+04 -6.279345E+04
       226   7  1.879194E+05  9.083517E+05  1.683390E+05 -5.525923E+05 -4.356946E+04  4.132778E+04
       226   8  3.323494E+05  1.425719E+06  3.068070E+05 -5.248707E+05 -5.364446E+04 -6.145257E+04
       226   9  5.378378E+05  1.971714E+06  5.272797E+05 -6.100577E+05 -1.835046E+04 -1.642677E+05
       226  10 -1.765784E+05 -6.293647E+05 -1.168740E+05 -5.576745E+05  2.435427E-09  1.358990E-12
       226  11 -2.899143E+05 -1.160786E+06 -2.170202E+05 -4.723824E+05  3.225960E-09 -8.868019E-10
       226  12 -3.696989E+05 -1.691103E+06 -3.456251E+05 -5.000286E+05  1.051011E-10 -1.569587E-09
       226  13  5.686156E+03  1.392060E+05  2.574156E+04 -5.551346E+05  1.352283E-09  1.942986E-09
       226  14  2.126630E+04  1.316673E+05  4.493036E+04 -4.986008E+05  1.210471E-09 -7.474020E-10
       226  15  8.418137E+04  1.387501E+05  9.091865E+04 -5.549644E+05  5.173213E-10  9.047632E-10
       226  16  1.879169E+05  9.083493E+05  1.683322E+05 -5.525909E+05  1.077993E-09 -7.759943E-10
       226  17  3.323453E+05  1.425714E+06  3.067945E+05 -5.248734E+05 -7.164792E-10  3.620489E-09
       226  18  5.378302E+05  1.971685E+06  5.272285E+05 -6.100601E+05 -1.276621E-10  1.079842E-09
       226  19 -1.765749E+05 -6.293582E+05 -1.168600E+05 -5.576719E+05  4.326656E+04  7.446056E+04
       226  20 -2.899111E+05 -1.160785E+06 -2.170142E+05 -4.723816E+05  5.377035E+04  1.804217E+04
       226  21 -3.696981E+05 -1.691101E+06 -3.456216E+05 -5.000292E+05  1.882253E+04 -3.838355E+04
       226  22  5.688255E+03  1.392068E+05  2.574562E+04 -5.551340E+05  4.341831E+04  1.660131E+04
       226  23  2.126982E+04  1.316697E+05  4.493876E+04 -4.985990E+05  5.370828E+04  3.972523E+04
       226  24  8.418280E+04  1.387545E+05  9.092672E+04 -5.549634E+05  1.859524E+04  6.279345E+04
       226  25  1.879194E+05  9.083517E+05  1.683390E+05 -5.525923E+05  4.356946E+04 -4.132778E+04
       226  26  3.323494E+05  1.425719E+06  3.068070E+05 -5.248707E+05  5.364446E+04  6.145257E+04
       226  27  5.378378E+05  1.971714E+06  5.272797E+05 -6.100577E+05  1.835046E+04  1.642677E+05
       227   1 -1.272749E+06 -5.951552E+05 -3.383030E+05 -5.202512E+05 -1.517752E+05 -4.413828E+04
       227   2 -1.196195E+06 -4.346967E+05 -2.093464E+05 -4.875173E+05 -9.476395E+04  6.612508E+03
       227   3 -1.143023E+06 -3.629283E+05 -1.504198E+05 -4.530138E+05 -3.003688E+04  3.690206E+04
       227   4 -5.440045E+05 -2.524327E+05 -1.370383E+05 -2.497502E+05 -9.300825E+04 -2.206133E+04
       227   5 -5.281305E+05 -1.584348E+05 -6.357802E+04 -2.705321E+05 -6.948008E+04  1.610693E+04
       227   6 -5.289621E+05 -1.464424E+05 -3.354322E+04 -2.895590E+05 -3.825035E+04  3.381168E+04
       227   7  1.852687E+05  9.041604E+04  6.419029E+04  2.106705E+04 -3.416680E+04  6.018742E+01
       227   8  1.403937E+05  1.178980E+05  8.216621E+04 -5.331970E+04 -4.416699E+04  2.561553E+04
       227   9  8.549506E+04  7.007296E+04  8.331887E+04 -1.259555E+05 -4.647259E+04  3.071826E+04
       227  10 -1.272774E+06 -5.951635E+05 -3.383501E+05 -5.202566E+05  2.329196E-08  9.416928E-09
       227  11 -1.196205E+06 -4.346991E+05 -2.093634E+05 -4.875168E+05  2.323943E-09  2.299582E-09
       227  12 -1.143024E+06 -3.629300E+05 -1.504240E+05 -4.530129E+05 -2.300630E-08 -9.684957E-09
       227  13 -5.440140E+05 -2.524355E+05 -1.370554E+05 -2.497518E+05  3.042312E-09  1.230653E-09
       227  14 -5.281358E+05 -1.584364E+05 -6.358759E+04 -2.705312E+05  4.039395E-09  3.701508E-09
       227  15 -5.289640E+05 -1.464440E+05 -3.354812E+04 -2.895580E+05  1.344132E-09 -2.431976E-10
       227  16  1.852675E+05  9.041572E+04  6.418809E+04  2.106705E+04 -1.961195E-08 -6.489110E-09
       227  17  1.403914E+05  1.178967E+05  8.216131E+04 -5.331879E+04  7.568325E-09  2.633205E-09
       227  18  8.549249E+04  7.007137E+04  8.331304E+04 -1.259543E+05  2.703260E-08  1.201330E-08
       227  19 -1.272749E+06 -5.951552E+05 -3.383030E+05 -5.202512E+05  1.517752E+05  4.413828E+04
       227  20 -1.196195E+06 -4.346967E+05 -2.093464E+05 -4.875173E+05  9.476395E+04 -6.612508E+03
       227  21 -1.143023E+06 -3.629283E+05 -1.504198E+05 -4.530138E+05  3.003688E+04 -3.690206E+04
       227  22 -5.440045E+05 -2.524327E+05 -1.370383E+05 -2.497502E+05  9.300825E+04  2.206133E+04
       227  23 -5.281305E+05 -1.584348E+05 -6.357802E+04 -2.705321E+05  6.948008E+04 -1.610693E+04
       227  24 -5.289621E+05 -1.464424E+05 -3.354322E+04 -2.895590E+05  3.825035E+04 -3.381168E+04
       227  25  1.852687E+05  9.041604E+04  6.419029E+04  2.106705E+04  3.416680E+04 -6.018742E+01
       227  26  1.403937E+05  1.178980E+05  8.216621E+04 -5.331970E+04  4.416699E+04 -2.561553E+04
       227  27  8.549506E+04  7.007296E+04  8.331887E+04 -1.259555E+05  4.647259E+04 -3.071826E+04
       228   1 -1.075845E+06 -3.505217E+05 -1.305146E+05 -4.428157E+05 -2.793502E+04  3.404758E+04
       228   2 -9.977645E+05 -3.069014E+05 -1.000621E+05 -4.112599E+05 -1.691695E+04  3.352928E+04
       228   3 -9.080602E+05 -2.816821E+05 -7.773747E+04 -3.954387E+05 -5.265054E+03  3.132171E+04
       228   4 -5.247872E+05 -1.481250E+05 -2.534044E+04 -2.874474E+05 -3.324653E+04  3.204842E+04
       228   5 -5.305137E+05 -1.367689E+05 -1.335638E+04 -2.804851E+05 -2.498965E+04  3.049470E+04
       228   6 -5.240734E+05 -1.432641E+05 -7.305219E+03 -2.892601E+05 -1.610050E+04  2.725187E+04
       228   7  2.658265E+04  5.429897E+04  7.981965E+04 -1.319517E+05 -3.856304E+04  3.004733E+04
       228   8 -6.303372E+04  3.338428E+04  7.334127E+04 -1.496185E+05 -3.306886E+04  2.745767E+04
       228   9 -1.399279E+05 -4.831262E+03  6.312311E+04 -1.830193E+05 -2.694322E+04  2.317934E+04
       228  10 -1.075846E+06 -3.505231E+05 -1.305182E+05 -4.428149E+05 -2.867330E-08 -1.253271E-08
       228  11 -9.977651E+05 -3.069027E+05 -1.000647E+05 -4.112594E+05  1.973192E-10 -1.077154E-09
       228  12 -9.080605E+05 -2.816832E+05 -7.773936E+04 -3.954386E+05  2.935594E-08  9.369720E-09
       228  13 -5.247887E+05 -1.481264E+05 -2.534445E+04 -2.874465E+05  8.483788E-10 -1.186101E-10
       228  14 -5.305146E+05 -1.367701E+05 -1.335930E+04 -2.804845E+05  3.412605E-09 -2.984763E-09
       228  15 -5.240739E+05 -1.432650E+05 -7.307101E+03 -2.892597E+05  1.448063E-09 -1.277561E-09
       228  16  2.658082E+04  5.429761E+04  7.981516E+04 -1.319508E+05  2.902394E-08  1.137609E-08
       228  17 -6.303510E+04  3.338318E+04  7.333780E+04 -1.496178E+05  2.265547E-09 -3.827438E-10
       228  18 -1.399288E+05 -4.832033E+03  6.312074E+04 -1.830188E+05 -2.622262E-08 -1.280483E-08
       228  19 -1.075845E+06 -3.505217E+05 -1.305146E+05 -4.428157E+05  2.793502E+04 -3.404758E+04
       228  20 -9.977645E+05 -3.069014E+05 -1.000621E+05 -4.112599E+05  1.691695E+04 -3.352928E+04
       228  21 -9.080602E+05 -2.816821E+05 -7.773747E+04 -3.954387E+05  5.265054E+03 -3.132171E+04
       228  22 -5.247872E+05 -1.481250E+05 -2.534044E+04 -2.874474E+05  3.324653E+04 -3.204842E+04
       228  23 -5.305137E+05 -1.367689E+05 -1.335638E+04 -2.804851E+05  2.498965E+04 -3.049470E+04
       228  24 -5.240734E+05 -1.432641E+05 -7.305219E+03 -2.892601E+05  1.610050E+04 -2.725187E+04
       228  25  2.658265E+04  5.429897E+04  7.981965E+04 -1.319517E+05  3.856304E+04 -3.004733E+04
       228  26 -6.303372E+04  3.338428E+04  7.334127E+04 -1.496185E+05  3.306886E+04 -2.745767E+04
       228  27 -1.399279E+05 -4.831262E+03  6.312311E+04 -1.830193E+05  2.694322E+04 -2.317934E+04
       229   1 -8.517909E+05 -2.619478E+05 -6.528521E+04 -3.802804E+05 -3.029831E+03  2.774234E+04
       229   2 -7.741553E+05 -2.239536E+05 -4.738176E+04 -3.485106E+05  1.166219E+03  2.185560E+04
       229   3 -6.824056E+05 -2.005939E+05 -3.082566E+04 -3.332350E+05  5.413956E+03  1.582758E+04
       229   4 -5.237393E+05 -1.433644E+05 -5.493060E+03 -2.891147E+05 -1.363106E+04  2.376148E+04
       229   5 -5.307977E+05 -1.359971E+05 -3.026360E+03 -2.808904E+05 -9.666072E+03  1.778924E+04
       229   6 -5.237038E+05 -1.432187E+05 -1.723655E+03 -2.891628E+05 -5.649671E+03  1.167567E+04
       229   7 -1.955745E+05 -2.477100E+04  5.429566E+04 -1.979041E+05 -2.423827E+04  1.977839E+04
       229   8 -2.873788E+05 -4.803561E+04  4.132707E+04 -2.132459E+05 -2.050285E+04  1.372121E+04
       229   9 -3.649768E+05 -8.584162E+04  2.737752E+04 -2.450804E+05 -1.671621E+04  7.522680E+03
       229  10 -8.517911E+05 -2.619487E+05 -6.528667E+04 -3.802804E+05 -1.469276E-09 -9.639438E-10
       229  11 -7.741554E+05 -2.239541E+05 -4.738266E+04 -3.485106E+05  6.513741E-09  2.553663E-09
       229  12 -6.824057E+05 -2.005941E+05 -3.082619E+04 -3.332351E+05  9.221078E-09  3.580224E-09
       229  13 -5.237397E+05 -1.433651E+05 -5.494470E+03 -2.891144E+05  3.470967E-09 -6.225232E-10
       229  14 -5.307978E+05 -1.359975E+05 -3.027130E+03 -2.808903E+05  6.010284E-09  3.204823E-09
       229  15 -5.237038E+05 -1.432188E+05 -1.723971E+03 -2.891627E+05  7.340911E-09  3.774004E-09
       229  16 -1.955752E+05 -2.477157E+04  5.429383E+04 -1.979037E+05  7.540014E-09  9.560450E-11
       229  17 -2.873793E+05 -4.803593E+04  4.132593E+04 -2.132457E+05  8.082099E-09  2.496765E-09
       229  18 -3.649771E+05 -8.584176E+04  2.737689E+04 -2.450803E+05  6.180211E-09  4.046668E-09
       229  19 -8.517909E+05 -2.619478E+05 -6.528521E+04 -3.802804E+05  3.029831E+03 -2.774234E+04
       229  20 -7.741553E+05 -2.239536E+05 -4.738176E+04 -3.485106E+05 -1.166219E+03 -2.185560E+04
       229  21 -6.824056E+05 -2.005939E+05 -3.082566E+04 -3.332350E+05 -5.413956E+03 -1.582758E+04
       229  22 -5.237393E+05 -1.433644E+05 -5.493060E+03 -2.891147E+05  1.363106E+04 -2.376148E+04
       229  23 -5.307977E+05 -1.359971E+05 -3.026360E+03 -2.808904E+05  9.666072E+03 -1.778924E+04
       229  24 -5.237038E+05 -1.432187E+05 -1.723655E+03 -2.891628E+05  5.649671E+03 -1.167567E+04
       229  25 -1.955745E+05 -2.477100E+04  5.429566E+04 -1.979041E+05  2.423827E+04 -1.977839E+04
       229  26 -2.873788E+05 -4.803561E+04  4.132707E+04 -2.132459E+05  2.050285E+04 -1.372121E+04
       229  27 -3.649768E+05 -8.584162E+04  2.737752E+04 -2.450804E+05  1.671621E+04 -7.522680E+03
       230   1 -6.267773E+05 -1.804406E+05 -1.988019E+04 -3.178095E+05  7.125955E+03  1.198494E+04
       230   2 -5.492271E+05 -1.426357E+05 -4.226665E+03 -2.859712E+05  1.011311E+04  5.411110E+03
       230   3 -4.573165E+05 -1.192585E+05  1.108660E+04 -2.706387E+05  1.310406E+04 -1.173100E+03
       230   4 -5.236627E+05 -1.432257E+05 -1.341295E+03 -2.891483E+05 -3.920350E+03  7.839936E+03
       230   5 -5.308397E+05 -1.360186E+05 -8.799352E+02 -2.808911E+05 -9.510132E+02  1.259484E+03
       230   6 -5.236626E+05 -1.432375E+05 -7.456936E+02 -2.891432E+05  2.022052E+03 -5.331351E+03
       230   7 -4.205355E+05 -1.060092E+05  1.719805E+04 -2.604824E+05 -1.496872E+04  3.694159E+03
       230   8 -5.124517E+05 -1.294014E+05  2.467334E+03 -2.758107E+05 -1.201554E+04 -2.892293E+03
       230   9 -5.900039E+05 -1.672159E+05 -1.257761E+04 -3.076457E+05 -9.058697E+03 -9.489129E+03
       230  10 -6.267774E+05 -1.804408E+05 -1.988056E+04 -3.178096E+05  1.396060E-08  4.756727E-09
       230  11 -5.492272E+05 -1.426357E+05 -4.226912E+03 -2.859713E+05 -5.649569E-09 -3.318924E-09
       230  12 -4.573166E+05 -1.192586E+05  1.108627E+04 -2.706387E+05 -2.262124E-08 -9.469816E-09
       230  13 -5.236627E+05 -1.432257E+05 -1.341439E+03 -2.891483E+05  5.139500E-09  2.717741E-09
       230  14 -5.308397E+05 -1.360186E+05 -8.799399E+02 -2.808911E+05  5.242692E-10  1.752302E-10
       230  15 -5.236626E+05 -1.432375E+05 -7.457547E+02 -2.891432E+05 -5.353735E-09 -1.703011E-09
       230  16 -4.205357E+05 -1.060093E+05  1.719760E+04 -2.604823E+05 -4.052517E-09  9.964296E-10
       230  17 -5.124519E+05 -1.294015E+05  2.467047E+03 -2.758108E+05  6.381945E-09  4.266545E-09
       230  18 -5.900040E+05 -1.672160E+05 -1.257794E+04 -3.076458E+05  1.510466E-08  6.272570E-09
       230  19 -6.267773E+05 -1.804406E+05 -1.988019E+04 -3.178095E+05 -7.125955E+03 -1.198494E+04
       230  20 -5.492271E+05 -1.426357E+05 -4.226665E+03 -2.859712E+05 -1.011311E+04 -5.411110E+03
       230  21 -4.573165E+05 -1.192585E+05  1.108660E+04 -2.706387E+05 -1.310406E+04  1.173100E+03
       230  22 -5.236627E+05 -1.432257E+05 -1.341295E+03 -2.891483E+05  3.920350E+03 -7.839936E+03
       230  23 -5.308397E+05 -1.360186E+05 -8.799352E+02 -2.808911E+05  9.510132E+02 -1.259484E+03
       230  24 -5.236626E+05 -1.432375E+05 -7.456936E+02 -2.891432E+05 -2.022052E+03  5.331351E+03
       230  25 -4.205355E+05 -1.060092E+05  1.719805E+04 -2.604824E+05  1.496872E+04 -3.694159E+03
       230  26 -5.124517E+05 -1.294014E+05  2.467334E+03 -2.758107E+05  1.201554E+04  2.892293E+03
       230  27 -5.900039E+05 -1.672159E+05 -1.257761E+04 -3.076457E+05  9.058697E+03  9.489129E+03
       231   1 -4.017496E+05 -9.908097E+04  2.160992E+04 -2.551990E+05  1.470781E+04 -5.060617E+03
       231   2 -3.242147E+05 -6.128491E+04  3.649946E+04 -2.233669E+05  1.774613E+04 -1.162269E+04
       231   3 -2.323267E+05 -3.790803E+04  5.101454E+04 -2.080357E+05  2.077989E+04 -1.816922E+04
       231   4 -5.236686E+05 -1.432390E+05 -7.779928E+02 -2.891425E+05  3.626156E+03 -9.219009E+03
       231   5 -5.308451E+05 -1.360292E+05 -1.061246E+03 -2.808920E+05  6.688641E+03 -1.577307E+04
       231   6 -5.236806E+05 -1.432442E+05 -1.738251E+03 -2.891455E+05  9.746511E+03 -2.231162E+04
       231   7 -6.455705E+05 -1.873952E+05 -2.316560E+04 -3.230794E+05 -7.453066E+03 -1.337649E+04
       231   8 -7.374304E+05 -2.107695E+05 -3.862295E+04 -3.383992E+05 -4.364917E+03 -1.992196E+04
       231   9 -8.149476E+05 -2.485734E+05 -5.449428E+04 -3.702206E+05 -1.281446E+03 -2.645198E+04
       231  10 -4.017498E+05 -9.908106E+04  2.160946E+04 -2.551990E+05  1.595367E-08  6.245065E-09
       231  11 -3.242150E+05 -6.128514E+04  3.649862E+04 -2.233667E+05  7.465966E-09  4.428283E-09
       231  12 -2.323273E+05 -3.790850E+04  5.101311E+04 -2.080354E+05 -3.013517E-09 -7.429278E-10
       231  13 -5.236686E+05 -1.432391E+05 -7.781772E+02 -2.891425E+05 -4.544422E-09 -1.053284E-09
       231  14 -5.308452E+05 -1.360295E+05 -1.061797E+03 -2.808919E+05 -8.385066E-10  2.988140E-10
       231  15 -5.236808E+05 -1.432448E+05 -1.739365E+03 -2.891453E+05 -4.823536E-10  1.082465E-09
       231  16 -6.455706E+05 -1.873954E+05 -2.316604E+04 -3.230794E+05 -2.323807E-08 -9.222483E-09
       231  17 -7.374305E+05 -2.107699E+05 -3.862374E+04 -3.383993E+05 -8.215940E-09 -3.790903E-09
       231  18 -8.149478E+05 -2.485741E+05 -5.449559E+04 -3.702206E+05  2.868507E-09  2.467644E-09
       231  19 -4.017496E+05 -9.908097E+04  2.160992E+04 -2.551990E+05 -1.470781E+04  5.060617E+03
       231  20 -3.242147E+05 -6.128491E+04  3.649946E+04 -2.233669E+05 -1.774613E+04  1.162269E+04
       231  21 -2.323267E+05 -3.790803E+04  5.101454E+04 -2.080357E+05 -2.077989E+04  1.816922E+04
       231  22 -5.236686E+05 -1.432390E+05 -7.779928E+02 -2.891425E+05 -3.626156E+03  9.219009E+03
       231  23 -5.308451E+05 -1.360292E+05 -1.061246E+03 -2.808920E+05 -6.688641E+03  1.577307E+04
       231  24 -5.236806E+05 -1.432442E+05 -1.738251E+03 -2.891455E+05 -9.746511E+03  2.231162E+04
       231  25 -6.455705E+05 -1.873952E+05 -2.316560E+04 -3.230794E+05  7.453066E+03  1.337649E+04
       231  26 -7.374304E+05 -2.107695E+05 -3.862295E+04 -3.383992E+05  4.364917E+03  1.992196E+04
       231  27 -8.149476E+05 -2.485734E+05 -5.449428E+04 -3.702206E+05  1.281446E+03  2.645198E+04
       232   1 -1.768187E+05 -1.775769E+04  6.103735E+04 -1.926470E+05  2.260687E+04 -2.196249E+04
       232   2 -9.927617E+04  2.001790E+04  7.451536E+04 -1.608271E+05  2.683903E+04 -2.796332E+04
       232   3 -7.609507E+03  4.320976E+04  8.666437E+04 -1.454825E+05  3.100803E+04 -3.378854E+04
       232   4 -5.237430E+05 -1.432385E+05 -2.270332E+03 -2.891637E+05  1.155319E+04 -2.611349E+04
       232   5 -5.308020E+05 -1.360228E+05 -4.047368E+03 -2.808907E+05  1.607051E+04 -3.200945E+04
       232   6 -5.238003E+05 -1.434490E+05 -7.380135E+03 -2.890969E+05  2.052437E+04 -3.772979E+04
       232   7 -8.705405E+05 -2.687079E+05 -6.558181E+04 -3.856300E+05  5.061067E+02 -3.026202E+04
       232   8 -9.621297E+05 -2.920452E+05 -8.261567E+04 -4.008759E+05  5.310029E+03 -3.605256E+04
       232   9 -1.039706E+06 -3.300809E+05 -1.014323E+05 -4.325987E+05  1.005012E+04 -4.166753E+04
       232  10 -1.768193E+05 -1.775834E+04  6.103549E+04 -1.926466E+05  3.651115E-09  7.941882E-10
       232  11 -9.927716E+04  2.001687E+04  7.451254E+04 -1.608264E+05  1.115308E-09 -6.065014E-10
       232  12 -7.610845E+03  4.320828E+04  8.666042E+04 -1.454816E+05 -2.472809E-09  3.489087E-10
       232  13 -5.237433E+05 -1.432392E+05 -2.271864E+03 -2.891634E+05 -2.637787E-09 -1.317619E-10
       232  14 -5.308026E+05 -1.360240E+05 -4.049778E+03 -2.808902E+05  9.622838E-10 -9.917913E-10
       232  15 -5.238012E+05 -1.434507E+05 -7.383601E+03 -2.890962E+05 -2.031179E-10 -5.715437E-10
       232  16 -8.705408E+05 -2.687089E+05 -6.558353E+04 -3.856300E+05 -4.889984E-09 -1.200119E-09
       232  17 -9.621301E+05 -2.920466E+05 -8.261816E+04 -4.008758E+05 -1.318910E-10 -2.267978E-09
       232  18 -1.039706E+06 -3.300828E+05 -1.014358E+05 -4.325984E+05  2.793663E-09  3.691752E-10
       232  19 -1.768187E+05 -1.775769E+04  6.103735E+04 -1.926470E+05 -2.260687E+04  2.196249E+04
       232  20 -9.927617E+04  2.001790E+04  7.451536E+04 -1.608271E+05 -2.683903E+04  2.796332E+04
       232  21 -7.609507E+03  4.320976E+04  8.666437E+04 -1.454825E+05 -3.100803E+04  3.378854E+04
       232  22 -5.237430E+05 -1.432385E+05 -2.270332E+03 -2.891637E+05 -1.155319E+04  2.611349E+04
       232  23 -5.308020E+05 -1.360228E+05 -4.047368E+03 -2.808907E+05 -1.607051E+04  3.200945E+04
       232  24 -5.238003E+05 -1.434490E+05 -7.380135E+03 -2.890969E+05 -2.052437E+04  3.772979E+04
       232  25 -8.705405E+05 -2.687079E+05 -6.558181E+04 -3.856300E+05 -5.061067E+02  3.026202E+04
       232  26 -9.621297E+05 -2.920452E+05 -8.261567E+04 -4.008759E+05 -5.310029E+03  3.605256E+04
       232  27 -1.039706E+06 -3.300809E+05 -1.014323E+05 -4.325987E+05 -1.005012E+04  4.166753E+04
       233   1  4.798360E+04  6.304612E+04  9.486731E+04 -1.307938E+05  3.411006E+04 -3.701673E+04
       233   2  1.245657E+05  1.013601E+05  1.032189E+05 -9.685871E+04  4.182865E+04 -4.041977E+04
       233   3  2.132264E+05  1.213274E+05  1.062957E+05 -7.837388E+04  4.876853E+04 -4.174075E+04
       233   4 -5.242461E+05 -1.433153E+05 -9.821574E+03 -2.892902E+05  2.333749E+04 -4.106809E+04
       233   5 -5.304262E+05 -1.370728E+05 -1.797205E+04 -2.803429E+05  3.446116E+04 -4.319465E+04
       233   6 -5.252138E+05 -1.498584E+05 -3.410232E+04 -2.868510E+05  4.480487E+04 -4.323823E+04
       233   7 -1.096138E+06 -3.496488E+05 -1.145235E+05 -4.476525E+05  1.257542E+04 -4.511556E+04
       233   8 -1.184972E+06 -3.754661E+05 -1.391799E+05 -4.636475E+05  2.710194E+04 -4.596640E+04
       233   9 -1.263085E+06 -4.209915E+05 -1.745229E+05 -4.950969E+05  4.084624E+04 -4.473379E+04
       233  10  4.798199E+04  6.304433E+04  9.486255E+04 -1.307928E+05  2.410707E-08  1.171038E-08
       233  11  1.245634E+05  1.013578E+05  1.032125E+05 -9.685735E+04  2.955456E-09  4.731683E-09
       233  12  2.132234E+05  1.213249E+05  1.062880E+05 -7.837224E+04 -1.992717E-08 -6.545633E-09
       233  13 -5.242472E+05 -1.433172E+05 -9.825766E+03 -2.892895E+05  2.367238E-09  1.647728E-09
       233  14 -5.304279E+05 -1.370751E+05 -1.797779E+04 -2.803417E+05  3.939257E-09  4.284523E-09
       233  15 -5.252165E+05 -1.498609E+05 -3.410960E+04 -2.868495E+05  1.824892E-09  2.680872E-09
       233  16 -1.096138E+06 -3.496510E+05 -1.145276E+05 -4.476520E+05 -2.143967E-08 -6.915915E-09
       233  17 -1.184973E+06 -3.754686E+05 -1.391853E+05 -4.636465E+05  3.505281E-09  5.246862E-09
       233  18 -1.263088E+06 -4.209941E+05 -1.745298E+05 -4.950954E+05  2.284760E-08  1.213436E-08
       233  19  4.798360E+04  6.304612E+04  9.486731E+04 -1.307938E+05 -3.411006E+04  3.701673E+04
       233  20  1.245657E+05  1.013601E+05  1.032189E+05 -9.685871E+04 -4.182865E+04  4.041977E+04
       233  21  2.132264E+05  1.213274E+05  1.062957E+05 -7.837388E+04 -4.876853E+04  4.174075E+04
       233  22 -5.242461E+05 -1.433153E+05 -9.821574E+03 -2.892902E+05 -2.333749E+04  4.106809E+04
       233  23 -5.304262E+05 -1.370728E+05 -1.797205E+04 -2.803429E+05 -3.446116E+04  4.319465E+04
       233  24 -5.252138E+05 -1.498584E+05 -3.410232E+04 -2.868510E+05 -4.480487E+04  4.323823E+04
       233  25 -1.096138E+06 -3.496488E+05 -1.145235E+05 -4.476525E+05 -1.257542E+04  4.511556E+04
       233  26 -1.184972E+06 -3.754661E+05 -1.391799E+05 -4.636475E+05 -2.710194E+04  4.596640E+04
       233  27 -1.263085E+06 -4.209915E+05 -1.745229E+05 -4.950969E+05 -4.084624E+04  4.473379E+04
       234   1  2.731239E+05  1.354681E+05  1.072063E+05 -7.570104E+04  5.860549E+04 -4.148083E+04
       234   2  3.202842E+05  1.866659E+05  9.882793E+04  1.125866E+04  5.893230E+04 -3.219204E+04
       234   3  3.483174E+05  1.406902E+05  6.480502E+04  1.061903E+05  4.976610E+04  2.302754E+03
       234   4 -5.308040E+05 -1.476180E+05 -4.514169E+04 -2.897218E+05  5.105779E+04 -4.432665E+04
       234   5 -5.272581E+05 -1.661843E+05 -8.556368E+04 -2.669102E+05  9.271055E+04 -1.949228E+04
       234   6 -5.510883E+05 -2.902057E+05 -1.844247E+05 -2.361213E+05  1.248601E+05  3.056371E+04
       234   7 -1.334059E+06 -4.306557E+05 -1.975158E+05 -5.034894E+05  4.352056E+04 -4.716883E+04
       234   8 -1.374042E+06 -5.189082E+05 -2.699881E+05 -5.447031E+05  1.264387E+05 -6.817124E+03
       234   9 -1.449641E+06 -7.208712E+05 -4.336951E+05 -5.779198E+05  1.998333E+05  5.875075E+04
       234  10  2.731197E+05  1.354654E+05  1.071966E+05 -7.569908E+04  2.447807E-10 -7.418311E-10
       234  11  3.202802E+05  1.866639E+05  9.881945E+04  1.126019E+04  5.347872E-10 -1.080731E-09
       234  12  3.483147E+05  1.406895E+05  6.480036E+04  1.061902E+05 -1.259721E-10  4.545438E-10
       234  13 -5.308073E+05 -1.476208E+05 -4.515028E+04 -2.897200E+05  3.588683E-10 -1.277100E-09
       234  14 -5.272675E+05 -1.661870E+05 -8.558056E+04 -2.669087E+05 -8.873386E-10  1.864202E-09
       234  15 -5.511053E+05 -2.902109E+05 -1.844558E+05 -2.361243E+05  7.572098E-10  8.432094E-10
       234  16 -1.334061E+06 -4.306586E+05 -1.975235E+05 -5.034878E+05 -3.349045E-11  2.160581E-09
       234  17 -1.374060E+06 -5.189125E+05 -2.700183E+05 -5.447024E+05 -8.299842E-10  1.846398E-09
       234  18 -1.449685E+06 -7.208856E+05 -4.337768E+05 -5.779292E+05 -7.746476E-10 -3.198717E-10
       234  19  2.731239E+05  1.354681E+05  1.072063E+05 -7.570104E+04 -5.860549E+04  4.148083E+04
       234  20  3.202842E+05  1.866659E+05  9.882793E+04  1.125866E+04 -5.893230E+04  3.219204E+04
       234  21  3.483174E+05  1.406902E+05  6.480502E+04  1.061903E+05 -4.976610E+04 -2.302754E+03
       234  22 -5.308040E+05 -1.476180E+05 -4.514169E+04 -2.897218E+05 -5.105779E+04  4.432665E+04
       234  23 -5.272581E+05 -1.661843E+05 -8.556368E+04 -2.669102E+05 -9.271055E+04  1.949228E+04
       234  24 -5.510883E+05 -2.902057E+05 -1.844247E+05 -2.361213E+05 -1.248601E+05 -3.056371E+04
       234  25 -1.334059E+06 -4.306557E+05 -1.975158E+05 -5.034894E+05 -4.352056E+04  4.716883E+04
       234  26 -1.374042E+06 -5.189082E+05 -2.699881E+05 -5.447031E+05 -1.264387E+05  6.817124E+03
       234  27 -1.449641E+06 -7.208712E+05 -4.336951E+05 -5.779198E+05 -1.998333E+05 -5.875075E+04
       235   1  1.209008E+06  1.606724E+05  1.388311E+05  2.323789E+03  1.466666E+04 -1.428716E+04
       235   2  1.160624E+06  2.039571E+05  1.339939E+05  2.637745E+04 -2.252502E+03 -4.854567E+04
       235   3  1.104246E+06  2.062381E+05  1.299613E+05  6.018405E+04 -1.921053E+04 -5.962259E+04
       235   4  2.112259E+05 -8.505436E+04 -9.403097E+04  5.467821E+04 -6.565678E+04 -1.444440E+04
       235   5  2.187703E+05 -2.011643E+04 -4.588821E+04  4.971184E+04 -4.191751E+04 -4.863575E+04
       235   6  2.112478E+05 -3.273398E+03 -2.516638E+04  5.449891E+04 -1.821797E+04 -5.962783E+04
       235   7 -7.856193E+05 -3.308376E+05 -3.269347E+05  1.069476E+05 -1.458521E+05 -1.461530E+04
       235   8 -7.222249E+05 -2.442391E+05 -2.258043E+05  7.300959E+04 -8.152381E+04 -4.872888E+04
       235   9 -6.809692E+05 -2.128279E+05 -1.803219E+05  4.882173E+04 -1.722677E+04 -5.963309E+04
       235  10  1.209007E+06  1.606722E+05  1.388303E+05  2.323958E+03  2.914721E-09 -7.421017E-10
       235  11  1.160623E+06  2.039545E+05  1.339894E+05  2.637737E+04  2.323753E-09 -4.445041E-09
       235  12  1.104244E+06  2.062342E+05  1.299539E+05  6.018312E+04 -1.184158E-10 -3.131026E-09
       235  13  2.112212E+05 -8.505574E+04 -9.403946E+04  5.467744E+04  8.268657E-11  1.276022E-09
       235  14  2.187678E+05 -2.011944E+04 -4.589596E+04  4.971020E+04  2.712822E-09 -3.125792E-09
       235  15  2.112465E+05 -3.277305E+03 -2.517368E+04  5.449804E+04  9.991757E-10 -6.470914E-11
       235  16 -7.856422E+05 -3.308436E+05 -3.269752E+05  1.069459E+05 -4.368051E-09  3.561714E-10
       235  17 -7.222327E+05 -2.442434E+05 -2.258212E+05  7.300639E+04 -1.944287E-09 -6.582354E-09
       235  18 -6.809705E+05 -2.128318E+05 -1.803292E+05  4.882091E+04 -4.079536E-10 -6.165137E-09
       235  19  1.209008E+06  1.606724E+05  1.388311E+05  2.323789E+03 -1.466666E+04  1.428716E+04
       235  20  1.160624E+06  2.039571E+05  1.339939E+05  2.637745E+04  2.252502E+03  4.854567E+04
       235  21  1.104246E+06  2.062381E+05  1.299613E+05  6.018405E+04  1.921053E+04  5.962259E+04
       235  22  2.112259E+05 -8.505436E+04 -9.403097E+04  5.467821E+04  6.565678E+04  1.444440E+04
       235  23  2.187703E+05 -2.011643E+04 -4.588821E+04  4.971184E+04  4.191751E+04  4.863575E+04
       235  24  2.112478E+05 -3.273398E+03 -2.516638E+04  5.449891E+04  1.821797E+04  5.962783E+04
       235  25 -7.856193E+05 -3.308376E+05 -3.269347E+05  1.069476E+05  1.458521E+05  1.461530E+04
       235  26 -7.222249E+05 -2.442391E+05 -2.258043E+05  7.300959E+04  8.152381E+04  4.872888E+04
       235  27 -6.809692E+05 -2.128279E+05 -1.803219E+05  4.882173E+04  1.722677E+04  5.963309E+04
       236   1  1.072483E+06  1.969717E+05  1.282826E+05  5.464757E+04 -1.373809E+04 -5.876197E+04
       236   2  1.020832E+06  1.874203E+05  1.242716E+05  5.020509E+04 -1.231311E+04 -5.836620E+04
       236   3  9.685001E+05  1.758959E+05  1.188443E+05  5.698421E+04 -1.089489E+04 -5.578846E+04
       236   4  2.143084E+05 -4.004731E+03 -1.911077E+04  5.484734E+04 -1.494866E+04 -5.877217E+04
       236   5  2.149948E+05 -5.844739E+02 -1.050348E+04  4.923060E+04 -9.701603E+03 -5.836657E+04
       236   6  2.143349E+05  1.980462E+02 -5.967331E+03  5.483641E+04 -4.461115E+03 -5.577758E+04
       236   7 -6.431438E+05 -2.050206E+05 -1.665290E+05  5.504638E+04 -1.615760E+04 -5.878238E+04
       236   8 -5.902020E+05 -1.886232E+05 -1.452986E+05  4.825700E+04 -7.093368E+03 -5.836695E+04
       236   9 -5.392687E+05 -1.755292E+05 -1.307958E+05  5.269093E+04  1.965119E+03 -5.576674E+04
       236  10  1.072482E+06  1.969680E+05  1.282758E+05  5.464692E+04 -2.688828E-09 -4.398781E-09
       236  11  1.020830E+06  1.874166E+05  1.242649E+05  5.020452E+04 -1.323937E-08  1.791570E-09
       236  12  9.684991E+05  1.758925E+05  1.188382E+05  5.698372E+04 -2.567692E-08  2.335917E-09
       236  13  2.143072E+05 -4.008500E+03 -1.911768E+04  5.484663E+04 -1.078304E-09 -3.469504E-09
       236  14  2.149938E+05 -5.881577E+02 -1.051006E+04  4.923014E+04  6.523540E-10  4.996592E-10
       236  15  2.143340E+05  1.946997E+02 -5.973215E+03  5.483621E+04 -2.121997E-09 -3.414479E-09
       236  16 -6.431450E+05 -2.050243E+05 -1.665360E+05  5.504561E+04  2.112061E-09  5.386675E-10
       236  17 -5.902030E+05 -1.886268E+05 -1.453051E+05  4.825666E+04  9.499102E-09  2.386023E-09
       236  18 -5.392696E+05 -1.755325E+05 -1.308016E+05  5.269102E+04  2.209121E-08 -1.576858E-09
       236  19  1.072483E+06  1.969717E+05  1.282826E+05  5.464757E+04  1.373809E+04  5.876197E+04
       236  20  1.020832E+06  1.874203E+05  1.242716E+05  5.020509E+04  1.231311E+04  5.836620E+04
       236  21  9.685001E+05  1.758959E+05  1.188443E+05  5.698421E+04  1.089489E+04  5.578846E+04
       236  22  2.143084E+05 -4.004731E+03 -1.911077E+04  5.484734E+04  1.494866E+04  5.877217E+04
       236  23  2.149948E+05 -5.844739E+02 -1.050348E+04  4.923060E+04  9.701603E+03  5.836657E+04
       236  24  2.143349E+05  1.980462E+02 -5.967331E+03  5.483641E+04  4.461115E+03  5.577758E+04
       236  25 -6.431438E+05 -2.050206E+05 -1.665290E+05  5.504638E+04  1.615760E+04  5.878238E+04
       236  26 -5.902020E+05 -1.886232E+05 -1.452986E+05  4.825700E+04  7.093368E+03  5.836695E+04
       236  27 -5.392687E+05 -1.755292E+05 -1.307958E+05  5.269093E+04 -1.965119E+03  5.576674E+04
       237   1  9.350689E+05  1.679169E+05  1.143622E+05  5.658452E+04 -9.774377E+03 -5.360332E+04
       237   2  8.832541E+05  1.558994E+05  1.075121E+05  5.081466E+04 -8.866654E+03 -4.995287E+04
       237   3  8.312858E+05  1.438687E+05  1.000593E+05  5.638843E+04 -7.961352E+03 -4.609849E+04
       237   4  2.145951E+05  1.369915E+02 -4.525183E+03  5.486503E+04 -3.551269E+03 -5.359204E+04
       237   5  2.147157E+05  2.570027E+02 -2.567242E+03  4.919264E+04 -2.287378E+03 -4.993910E+04
       237   6  2.146180E+05  3.020121E+02 -1.460028E+03  5.486458E+04 -1.025836E+03 -4.608212E+04
       237   7 -5.053659E+05 -1.676697E+05 -1.234278E+05  5.314726E+04  2.664873E+03 -5.358079E+04
       237   8 -4.533809E+05 -1.554084E+05 -1.126596E+05  4.757211E+04  4.285063E+03 -4.992536E+04
       237   9 -4.016739E+05 -1.432842E+05 -1.029903E+05  5.334201E+04  5.903033E+03 -4.606578E+04
       237  10  9.350680E+05  1.679138E+05  1.143566E+05  5.658409E+04  1.779291E-08  3.892867E-09
       237  11  8.832533E+05  1.558967E+05  1.075073E+05  5.081430E+04  9.604350E-09  3.553672E-09
       237  12  8.312851E+05  1.438664E+05  1.000552E+05  5.638813E+04 -8.668696E-10  7.829159E-10
       237  13  2.145943E+05  1.339037E+02 -4.530605E+03  5.486488E+04 -2.324600E-09 -4.921515E-09
       237  14  2.147150E+05  2.543230E+02 -2.571939E+03  4.919255E+04 -8.834637E-10  3.731826E-09
       237  15  2.146174E+05  2.997312E+02 -1.464021E+03  5.486454E+04  6.442311E-10  6.948742E-09
       237  16 -5.053667E+05 -1.676728E+05 -1.234332E+05  5.314737E+04 -1.850841E-08  1.376814E-10
       237  17 -4.533816E+05 -1.554110E+05 -1.126643E+05  4.757228E+04 -1.081689E-08  3.492075E-09
       237  18 -4.016745E+05 -1.432865E+05 -1.029944E+05  5.334223E+04  4.446754E-10  1.185056E-09
       237  19  9.350689E+05  1.679169E+05  1.143622E+05  5.658452E+04  9.774377E+03  5.360332E+04
       237  20  8.832541E+05  1.558994E+05  1.075121E+05  5.081466E+04  8.866654E+03  4.995287E+04
       237  21  8.312858E+05  1.438687E+05  1.000593E+05  5.638843E+04  7.961352E+03  4.609849E+04
       237  22  2.145951E+05  1.369915E+02 -4.525183E+03  5.486503E+04  3.551269E+03  5.359204E+04
       237  23  2.147157E+05  2.570027E+02 -2.567242E+03  4.919264E+04  2.287378E+03  4.993910E+04
       237  24  2.146180E+05  3.020121E+02 -1.460028E+03  5.486458E+04  1.025836E+03  4.608212E+04
       237  25 -5.053659E+05 -1.676697E+05 -1.234278E+05  5.314726E+04 -2.664873E+03  5.358079E+04
       237  26 -4.533809E+05 -1.554084E+05 -1.126596E+05  4.757211E+04 -4.285063E+03  4.992536E+04
       237  27 -4.016739E+05 -1.432842E+05 -1.029903E+05  5.334201E+04 -5.903033E+03  4.606578E+04
       238   1  7.977822E+05  1.360154E+05  9.467216E+04  5.629901E+04 -7.713690E+03 -4.379240E+04
       238   2  7.459916E+05  1.239429E+05  8.672126E+04  5.051492E+04 -7.453359E+03 -3.984110E+04
       238   3  6.941298E+05  1.119439E+05  7.860301E+04  5.607266E+04 -7.194575E+03 -3.587198E+04
       238   4  2.146565E+05  3.004261E+02 -1.099739E+03  5.486426E+04 -8.002635E+02 -4.377525E+04
       238   5  2.147057E+05  2.749008E+02 -6.092452E+02  4.919306E+04 -5.092659E+02 -3.982259E+04
       238   6  2.146748E+05  3.174993E+02 -3.078852E+02  5.486426E+04 -2.197953E+02 -3.585210E+04
       238   7 -3.681330E+05 -1.354320E+05 -9.688134E+04  5.343064E+04  6.106899E+03 -4.375813E+04
       238   8 -3.163011E+05 -1.234076E+05 -8.794779E+04  4.787216E+04  6.429094E+03 -3.980410E+04
       238   9 -2.645529E+05 -1.113207E+05 -7.922532E+04  5.365663E+04  6.749787E+03 -3.583224E+04
       238  10  7.977817E+05  1.360134E+05  9.466845E+04  5.629874E+04  1.219621E-09  1.161612E-09
       238  11  7.459911E+05  1.239412E+05  8.671817E+04  5.051468E+04  1.168028E-10  1.002403E-08
       238  12  6.941294E+05  1.119425E+05  7.860049E+04  5.607245E+04 -2.799330E-09  6.936154E-09
       238  13  2.146560E+05  2.983680E+02 -1.103342E+03  5.486423E+04 -2.144963E-09  2.284680E-09
       238  14  2.147052E+05  2.731976E+02 -6.122260E+02  4.919305E+04  3.113752E-09  9.286717E-09
       238  15  2.146745E+05  3.161189E+02 -3.103010E+02  5.486425E+04 -1.211943E-09  1.652630E-09
       238  16 -3.681336E+05 -1.354341E+05 -9.688501E+04  5.343086E+04 -2.692548E-09  5.418491E-10
       238  17 -3.163016E+05 -1.234093E+05 -8.795085E+04  4.787236E+04 -1.540570E-09  2.322111E-09
       238  18 -2.645533E+05 -1.113221E+05 -7.922782E+04  5.365683E+04  5.250110E-10  1.937412E-10
       238  19  7.977822E+05  1.360154E+05  9.467216E+04  5.629901E+04  7.713690E+03  4.379240E+04
       238  20  7.459916E+05  1.239429E+05  8.672126E+04  5.051492E+04  7.453359E+03  3.984110E+04
       238  21  6.941298E+05  1.119439E+05  7.860301E+04  5.607266E+04  7.194575E+03  3.587198E+04
       238  22  2.146565E+05  3.004261E+02 -1.099739E+03  5.486426E+04  8.002635E+02  4.377525E+04
       238  23  2.147057E+05  2.749008E+02 -6.092452E+02  4.919306E+04  5.092659E+02  3.982259E+04
       238  24  2.146748E+05  3.174993E+02 -3.078852E+02  5.486426E+04  2.197953E+02  3.585210E+04
       238  25 -3.681330E+05 -1.354320E+05 -9.688134E+04  5.343064E+04 -6.106899E+03  4.375813E+04
       238  26 -3.163011E+05 -1.234076E+05 -8.794779E+04  4.787216E+04 -6.429094E+03  3.980410E+04
       238  27 -2.645529E+05 -1.113207E+05 -7.922532E+04  5.365663E+04 -6.749787E+03  3.583224E+04
       239   1  6.606451E+05  1.041098E+05  7.298394E+04  5.599959E+04 -7.151279E+03 -3.355686E+04
       239   2  6.088979E+05  9.205013E+04  6.475832E+04  5.021924E+04 -7.149029E+03 -2.958173E+04
       239   3  5.570941E+05  8.006830E+04  5.652846E+04  5.577655E+04 -7.147869E+03 -2.560750E+04
       239   4  2.146856E+05  3.225276E+02 -2.006358E+02  5.486331E+04 -1.801803E+02 -3.353633E+04
       239   5  2.147215E+05  2.923393E+02 -2.476878E+01  4.919427E+04 -1.797418E+02 -2.956026E+04
       239   6  2.146992E+05  3.405497E+02  1.482093E+02  5.486329E+04 -1.803925E+02 -2.558509E+04
       239   7 -2.310770E+05 -1.034749E+05 -7.339079E+04  5.372771E+04  6.786087E+03 -3.351581E+04
       239   8 -1.793011E+05 -9.147341E+04 -6.481220E+04  4.816984E+04  6.785275E+03 -2.953881E+04
       239   9 -1.275797E+05 -7.939321E+04 -5.623529E+04  5.395046E+04  6.783375E+03 -2.556270E+04
       239  10  6.606447E+05  1.041085E+05  7.298173E+04  5.599939E+04  9.981664E-09  7.851373E-10
       239  11  6.088976E+05  9.204918E+04  6.475658E+04  5.021907E+04  1.787138E-09 -1.019393E-09
       239  12  5.570939E+05  8.006758E+04  5.652713E+04  5.577640E+04 -9.760964E-09 -3.263199E-09
       239  13  2.146853E+05  3.213198E+02 -2.027495E+02  5.486330E+04  2.308919E-09  9.337683E-09
       239  14  2.147213E+05  2.914009E+02 -2.641106E+01  4.919426E+04 -1.198069E-10  5.031501E-10
       239  15  2.146991E+05  3.398467E+02  1.469790E+02  5.486329E+04 -1.478758E-09 -3.661341E-09
       239  16 -2.310774E+05 -1.034761E+05 -7.339299E+04  5.372789E+04 -1.066060E-08  3.337000E-09
       239  17 -1.793014E+05 -9.147436E+04 -6.481393E+04  4.817000E+04 -4.014153E-09 -3.042547E-09
       239  18 -1.275799E+05 -7.939392E+04 -5.623661E+04  5.395060E+04  8.272419E-09 -3.841652E-09
       239  19  6.606451E+05  1.041098E+05  7.298394E+04  5.599959E+04  7.151279E+03  3.355686E+04
       239  20  6.088979E+05  9.205013E+04  6.475832E+04  5.021924E+04  7.149029E+03  2.958173E+04
       239  21  5.570941E+05  8.006830E+04  5.652846E+04  5.577655E+04  7.147869E+03  2.560750E+04
       239  22  2.146856E+05  3.225276E+02 -2.006358E+02  5.486331E+04  1.801803E+02  3.353633E+04
       239  23  2.147215E+05  2.923393E+02 -2.476878E+01  4.919427E+04  1.797418E+02  2.956026E+04
       239  24  2.146992E+05  3.405497E+02  1.482093E+02  5.486329E+04  1.803925E+02  2.558509E+04
       239  25 -2.310770E+05 -1.034749E+05 -7.339079E+04  5.372771E+04 -6.786087E+03  3.351581E+04
       239  26 -1.793011E+05 -9.147341E+04 -6.481220E+04  4.816984E+04 -6.785275E+03  2.953881E+04
       239  27 -1.275797E+05 -7.939321E+04 -5.623529E+04  5.395046E+04 -6.783375E+03  2.556270E+04
       240   1  5.236398E+05  7.223752E+04  5.090475E+04  5.570176E+04 -7.190896E+03 -2.329410E+04
       240   2  4.719161E+05  6.018000E+04  4.276372E+04  4.991835E+04 -7.424972E+03 -1.932953E+04
       240   3  4.201610E+05  4.822696E+04  3.477529E+04  5.546295E+04 -7.659682E+03 -1.538278E+04
       240   4  2.147100E+05  3.431046E+02  2.463338E+02  5.486114E+04 -2.233818E+02 -2.327123E+04
       240   5  2.147287E+05  3.093408E+02  5.100831E+02  4.919695E+04 -4.889064E+02 -1.930615E+04
       240   6  2.147189E+05  3.855990E+02  9.481652E+02  5.486102E+04 -7.550824E+02 -1.535890E+04
       240   7 -9.412528E+04 -7.155618E+04 -5.041465E+04  5.402088E+04  6.740787E+03 -2.324836E+04
       240   8 -4.239307E+04 -5.956469E+04 -4.174529E+04  4.847580E+04  6.444386E+03 -1.928278E+04
       240   9  9.318561E+03 -4.745790E+04 -3.288001E+04  5.425927E+04  6.147312E+03 -1.533502E+04
       240  10  5.236396E+05  7.223693E+04  5.090363E+04  5.570163E+04 -5.994395E-09  3.453023E-09
       240  11  4.719159E+05  6.017959E+04  4.276291E+04  4.991824E+04 -3.496336E-09  2.319718E-09
       240  12  4.201608E+05  4.822669E+04  3.477473E+04  5.546285E+04 -2.084121E-09  7.152791E-10
       240  13  2.147099E+05  3.425230E+02  2.453159E+02  5.486114E+04  1.064709E-09 -5.349604E-10
       240  14  2.147286E+05  3.089405E+02  5.093821E+02  4.919694E+04  1.443214E-09  2.012755E-09
       240  15  2.147188E+05  3.853455E+02  9.477208E+02  5.486101E+04  7.124206E-12  2.111898E-09
       240  16 -9.412547E+04 -7.155677E+04 -5.041575E+04  5.402100E+04  6.316559E-09  2.911544E-09
       240  17 -4.239322E+04 -5.956510E+04 -4.174607E+04  4.847590E+04  2.210758E-09 -7.684237E-09
       240  18  9.318457E+03 -4.745817E+04 -3.288053E+04  5.425934E+04  1.193732E-09  1.128450E-09
       240  19  5.236398E+05  7.223752E+04  5.090475E+04  5.570176E+04  7.190896E+03  2.329410E+04
       240  20  4.719161E+05  6.018000E+04  4.276372E+04  4.991835E+04  7.424972E+03  1.932953E+04
       240  21  4.201610E+05  4.822696E+04  3.477529E+04  5.546295E+04  7.659682E+03  1.538278E+04
       240  22  2.147100E+05  3.431046E+02  2.463338E+02  5.486114E+04  2.233818E+02  2.327123E+04
       240  23  2.147287E+05  3.093408E+02  5.100831E+02  4.919695E+04  4.889064E+02  1.930615E+04
       240  24  2.147189E+05  3.855990E+02  9.481652E+02  5.486102E+04  7.550824E+02  1.535890E+04
       240  25 -9.412528E+04 -7.155618E+04 -5.041465E+04  5.402088E+04 -6.740787E+03  2.324836E+04
       240  26 -4.239307E+04 -5.956469E+04 -4.174529E+04  4.847580E+04 -6.444386E+03  1.928278E+04
       240  27  9.318561E+03 -4.745790E+04 -3.288001E+04  5.425927E+04 -6.147312E+03  1.533502E+04
       241   1  3.867643E+05  4.038047E+04  2.935641E+04  5.545696E+04 -7.876538E+03 -1.308143E+04
       241   2  3.349678E+05  2.845884E+04  2.181466E+04  4.940832E+04 -8.685708E+03 -9.227728E+03
       241   3  2.833331E+05  1.714132E+04  1.492294E+04  5.466992E+04 -9.494502E+03 -5.557829E+03
       241   4  2.147752E+05  3.728320E+02  1.262513E+03  5.485752E+04 -9.554754E+02 -1.305721E+04
       241   5  2.146701E+05  4.916147E+02  2.239672E+03  4.920078E+04 -2.086953E+03 -9.204382E+03
       241   6  2.147792E+05  1.270377E+03  4.090297E+03  5.485436E+04 -3.218112E+03 -5.535366E+03
       241   7  4.281557E+04 -3.963629E+04 -2.683205E+04  5.425822E+04  5.963738E+03 -1.303301E+04
       241   8  9.438688E+04 -2.747632E+04 -1.733556E+04  4.899326E+04  4.510568E+03 -9.181039E+03
       241   9  1.462301E+05 -1.460078E+04 -6.742317E+03  5.503877E+04  3.057611E+03 -5.512899E+03
       241  10  3.867642E+05  4.038027E+04  2.935597E+04  5.545688E+04 -3.773668E-09  4.274018E-09
       241  11  3.349677E+05  2.845872E+04  2.181436E+04  4.940826E+04  2.163987E-09  8.267967E-11
       241  12  2.833330E+05  1.714127E+04  1.492271E+04  5.466988E+04  9.549160E-09  4.247062E-09
       241  13  2.147752E+05  3.726486E+02  1.262191E+03  5.485751E+04 -1.510507E-11  3.190234E-09
       241  14  2.146701E+05  4.915226E+02  2.239505E+03  4.920076E+04 -6.888408E-10  2.254144E-09
       241  15  2.147792E+05  1.270341E+03  4.090220E+03  5.485434E+04 -2.919000E-10 -1.811820E-09
       241  16  4.281549E+04 -3.963648E+04 -2.683243E+04  5.425828E+04  4.612135E-09  4.013703E-09
       241  17  9.438684E+04 -2.747642E+04 -1.733576E+04  4.899329E+04 -2.991562E-09  1.664894E-09
       241  18  1.462301E+05 -1.460082E+04 -6.742392E+03  5.503878E+04 -1.054148E-08 -9.118330E-09
       241  19  3.867643E+05  4.038047E+04  2.935641E+04  5.545696E+04  7.876538E+03  1.308143E+04
       241  20  3.349678E+05  2.845884E+04  2.181466E+04  4.940832E+04  8.685708E+03  9.227728E+03
       241  21  2.833331E+05  1.714132E+04  1.492294E+04  5.466992E+04  9.494502E+03  5.557829E+03
       241  22  2.147752E+05  3.728320E+02  1.262513E+03  5.485752E+04  9.554754E+02  1.305721E+04
       241  23  2.146701E+05  4.916147E+02  2.239672E+03  4.920078E+04  2.086953E+03  9.204382E+03
       241  24  2.147792E+05  1.270377E+03  4.090297E+03  5.485436E+04  3.218112E+03  5.535366E+03
       241  25  4.281557E+04 -3.963629E+04 -2.683205E+04  5.425822E+04 -5.963738E+03  1.303301E+04
       241  26  9.438688E+04 -2.747632E+04 -1.733556E+04  4.899326E+04 -4.510568E+03  9.181039E+03
       241  27  1.462301E+05 -1.460078E+04 -6.742317E+03  5.503877E+04 -3.057611E+03  5.512899E+03
       242   1  2.504475E+05  9.108841E+03  1.033886E+04  5.581337E+04 -1.038619E+04 -3.371691E+03
       242   2  1.974809E+05  3.908577E+02  5.019009E+03  4.385032E+04 -1.204994E+04 -6.650254E+02
       242   3  1.470902E+05  1.494981E+03  3.211883E+03  4.304493E+04 -1.370684E+04  9.423143E+01
       242   4  2.154359E+05  1.110553E+03  5.389761E+03  5.482854E+04 -3.926199E+03 -3.348477E+03
       242   5  2.138519E+05  4.672248E+03  9.829464E+03  4.921882E+04 -9.003038E+03 -6.541989E+02
       242   6  2.154337E+05  1.864831E+04  2.015133E+04  5.476630E+04 -1.407322E+04  9.266100E+01
       242   7  1.804255E+05 -6.887764E+03  4.407977E+02  5.384378E+04  2.533449E+03 -3.325281E+03
       242   8  2.302233E+05  8.953727E+03  1.463994E+04  5.458746E+04 -5.956053E+03 -6.433197E+02
       242   9  2.837818E+05  3.580181E+04  3.709049E+04  6.648895E+04 -1.443963E+04  9.107684E+01
       242  10  2.504474E+05  9.108799E+03  1.033864E+04  5.581334E+04 -1.806214E-09  4.171976E-09
       242  11  1.974808E+05  3.908183E+02  5.018735E+03  4.385031E+04 -4.029300E-09 -2.642826E-09
       242  12  1.470900E+05  1.494931E+03  3.211530E+03  4.304493E+04 -2.531385E-09 -1.722527E-09
       242  13  2.154359E+05  1.110537E+03  5.389711E+03  5.482853E+04  1.537684E-10  6.931432E-09
       242  14  2.138519E+05  4.672226E+03  9.829311E+03  4.921881E+04  8.094707E-10 -1.105335E-08
       242  15  2.154335E+05  1.864826E+04  2.015095E+04  5.476630E+04 -1.512139E-09  2.846606E-09
       242  16  1.804255E+05 -6.887777E+03  4.407649E+02  5.384378E+04  1.966581E-09 -2.264228E-09
       242  17  2.302232E+05  8.953717E+03  1.463988E+04  5.458745E+04 -9.358033E-10 -2.311267E-09
       242  18  2.837816E+05  3.580175E+04  3.709010E+04  6.648895E+04  2.306715E-09 -2.210067E-09
       242  19  2.504475E+05  9.108841E+03  1.033886E+04  5.581337E+04  1.038619E+04  3.371691E+03
       242  20  1.974809E+05  3.908577E+02  5.019009E+03  4.385032E+04  1.204994E+04  6.650254E+02
       242  21  1.470902E+05  1.494981E+03  3.211883E+03  4.304493E+04  1.370684E+04 -9.423143E+01
       242  22  2.154359E+05  1.110553E+03  5.389761E+03  5.482854E+04  3.926199E+03  3.348477E+03
       242  23  2.138519E+05  4.672248E+03  9.829464E+03  4.921882E+04  9.003038E+03  6.541989E+02
       242  24  2.154337E+05  1.864831E+04  2.015133E+04  5.476630E+04  1.407322E+04 -9.266100E+01
       242  25  1.804255E+05 -6.887764E+03  4.407977E+02  5.384378E+04 -2.533449E+03  3.325281E+03
       242  26  2.302233E+05  8.953727E+03  1.463994E+04  5.458746E+04  5.956053E+03  6.433197E+02
       242  27  2.837818E+05  3.580181E+04  3.709049E+04  6.648895E+04  1.443963E+04 -9.107684E+01
       243   1  1.097166E+05  1.145655E+06  1.118290E+05 -1.731068E+05  1.826904E+03  3.630193E+04
       243   2  4.448286E+04  1.000997E+06  5.504211E+04 -1.447944E+05  3.656815E+03  1.126162E+04
       243   3  3.628375E+03  8.655690E+05  2.060301E+04 -1.465495E+05 -1.893284E+03 -1.378658E+04
       243   4  3.910534E+04  8.616556E+05  4.305774E+04 -1.479630E+05  1.848237E+03  2.670551E+04
       243   5  9.596466E+03  8.581829E+05  2.356346E+04 -1.329670E+05  3.650112E+03  1.461523E+04
       243   6  2.226738E+03  8.616829E+05  1.744054E+04 -1.480361E+05 -1.927745E+03  2.511645E+03
       243   7 -3.150947E+04  5.777315E+05 -2.571867E+04 -1.228307E+05  1.868800E+03  1.711345E+04
       243   8 -2.529078E+04  7.153880E+05 -7.916340E+03 -1.211424E+05  3.643536E+03  1.796808E+04
       243   9  8.252478E+02  8.577974E+05  1.427907E+04 -1.495228E+05 -1.962283E+03  1.880974E+04
       243  10  1.097163E+05  1.145653E+06  1.118265E+05 -1.731069E+05  1.527110E-09 -2.110841E-09
       243  11  4.448282E+04  1.000997E+06  5.504185E+04 -1.447945E+05 -6.780910E-10 -2.592244E-09
       243  12  3.628320E+03  8.655688E+05  2.060265E+04 -1.465495E+05 -3.090840E-10 -2.392646E-09
       243  13  3.910514E+04  8.616548E+05  4.305640E+04 -1.479631E+05  1.472809E-09  4.095523E-11
       243  14  9.596394E+03  8.581827E+05  2.356303E+04 -1.329671E+05 -8.581760E-10  1.718811E-10
       243  15  2.226732E+03  8.616829E+05  1.744052E+04 -1.480361E+05  1.188490E-09  4.683274E-09
       243  16 -3.150955E+04  5.777312E+05 -2.571923E+04 -1.228307E+05 -1.222938E-09  1.169819E-09
       243  17 -2.529088E+04  7.153877E+05 -7.916971E+03 -1.211424E+05 -3.420273E-10  2.150025E-09
       243  18  8.251488E+02  8.577970E+05  1.427840E+04 -1.495227E+05 -1.385052E-09  1.255400E-09
       243  19  1.097166E+05  1.145655E+06  1.118290E+05 -1.731068E+05 -1.826904E+03 -3.630193E+04
       243  20  4.448286E+04  1.000997E+06  5.504211E+04 -1.447944E+05 -3.656815E+03 -1.126162E+04
       243  21  3.628375E+03  8.655690E+05  2.060301E+04 -1.465495E+05  1.893284E+03  1.378658E+04
       243  22  3.910534E+04  8.616556E+05  4.305774E+04 -1.479630E+05 -1.848237E+03 -2.670551E+04
       243  23  9.596466E+03  8.581829E+05  2.356346E+04 -1.329670E+05 -3.650112E+03 -1.461523E+04
       243  24  2.226738E+03  8.616829E+05  1.744054E+04 -1.480361E+05  1.927745E+03 -2.511645E+03
       243  25 -3.150947E+04  5.777315E+05 -2.571867E+04 -1.228307E+05 -1.868800E+03 -1.711345E+04
       243  26 -2.529078E+04  7.153880E+05 -7.916340E+03 -1.211424E+05 -3.643536E+03 -1.796808E+04
       243  27  8.252478E+02  8.577974E+05  1.427907E+04 -1.495228E+05  1.962283E+03 -1.880974E+04
       244   1 -1.756567E+04  7.735722E+05  3.832068E+03 -1.497246E+05 -7.559538E+03 -1.597265E+04
       244   2 -5.117508E+04  6.324342E+05 -1.857832E+04 -1.319959E+05 -1.603344E+04 -2.414727E+04
       244   3 -7.978298E+04  4.934979E+05 -3.445719E+04 -1.447456E+05 -2.352950E+04 -3.231710E+04
       244   4  2.450483E+03  8.606817E+05  1.692574E+04 -1.481201E+05 -7.592740E+03 -2.270296E+02
       244   5  1.860681E+03  8.594299E+05  1.977716E+04 -1.328772E+05 -1.606178E+04 -1.012073E+04
       244   6  6.569987E+03  8.606568E+05  3.035022E+04 -1.481114E+05 -2.355314E+04 -2.001139E+04
       244   7  2.246642E+04  9.477993E+05  3.002020E+04 -1.465153E+05 -7.625858E+03  1.552071E+04
       244   8  5.489384E+04  1.086477E+06  5.813173E+04 -1.337587E+05 -1.609016E+04  3.910766E+03
       244   9  9.291569E+04  1.227948E+06  9.515326E+04 -1.514792E+05 -2.357690E+04 -7.698610E+03
       244  10 -1.756580E+04  7.735720E+05  3.831481E+03 -1.497247E+05 -2.053242E-10  3.565763E-10
       244  11 -5.117552E+04  6.324335E+05 -1.857990E+04 -1.319962E+05  2.136116E-09 -3.044302E-10
       244  12 -7.978385E+04  4.934966E+05 -3.446020E+04 -1.447463E+05 -4.871861E-10 -1.587506E-09
       244  13  2.450421E+03  8.606817E+05  1.692563E+04 -1.481201E+05  1.398094E-09 -8.578246E-11
       244  14  1.860376E+03  8.594297E+05  1.977648E+04 -1.328773E+05  9.032993E-10 -4.423111E-10
       244  15  6.569283E+03  8.606562E+05  3.034843E+04 -1.481118E+05  6.095293E-11  4.477046E-09
       244  16  2.246629E+04  9.477990E+05  3.001964E+04 -1.465152E+05 -1.591155E-09 -1.695227E-09
       244  17  5.489356E+04  1.086477E+06  5.813121E+04 -1.337587E+05 -2.432113E-09  8.469185E-10
       244  18  9.291507E+04  1.227947E+06  9.515211E+04 -1.514793E+05 -9.235706E-10  5.694811E-10
       244  19 -1.756567E+04  7.735722E+05  3.832068E+03 -1.497246E+05  7.559538E+03  1.597265E+04
       244  20 -5.117508E+04  6.324342E+05 -1.857832E+04 -1.319959E+05  1.603344E+04  2.414727E+04
       244  21 -7.978298E+04  4.934979E+05 -3.445719E+04 -1.447456E+05  2.352950E+04  3.231710E+04
       244  22  2.450483E+03  8.606817E+05  1.692574E+04 -1.481201E+05  7.592740E+03  2.270296E+02
       244  23  1.860681E+03  8.594299E+05  1.977716E+04 -1.328772E+05  1.606178E+04  1.012073E+04
       244  24  6.569987E+03  8.606568E+05  3.035022E+04 -1.481114E+05  2.355314E+04  2.001139E+04
       244  25  2.246642E+04  9.477993E+05  3.002020E+04 -1.465153E+05  7.625858E+03 -1.552071E+04
       244  26  5.489384E+04  1.086477E+06  5.813173E+04 -1.337587E+05  1.609016E+04 -3.910766E+03
       244  27  9.291569E+04  1.227948E+06  9.515326E+04 -1.514792E+05  2.357690E+04  7.698610E+03
       245   1 -1.025296E+05  4.063210E+05 -4.334667E+04 -1.531515E+05 -2.858934E+04 -3.909948E+04
       245   2 -1.129121E+05  2.578048E+05 -4.958928E+04 -9.590647E+04 -2.761008E+04 -4.269050E+04
       245   3 -5.810348E+04  1.260026E+05 -3.720864E+04 -6.798234E+04 -8.764659E+03 -4.625255E+04
       245   4  5.493862E+03  8.650067E+05  3.853608E+04 -1.478786E+05 -2.861559E+04 -2.516941E+04
       245   5  2.987175E+04  8.539043E+05  6.779333E+04 -1.331132E+05 -2.757281E+04 -6.009550E+04
       245   6  1.248340E+05  8.649026E+05  1.373990E+05 -1.476591E+05 -8.671240E+03 -9.499452E+04
       245   7  1.135059E+05  1.323898E+06  1.204116E+05 -1.426016E+05 -2.864159E+04 -1.122934E+04
       245   8  1.726394E+05  1.450347E+06  1.851605E+05 -1.703562E+05 -2.753348E+04 -7.751684E+04
       245   9  3.077573E+05  1.604323E+06  3.119811E+05 -2.274309E+05 -8.565383E+03 -1.437941E+05
       245  10 -1.025309E+05  4.063192E+05 -4.335108E+04 -1.531524E+05 -3.549760E-10 -9.324460E-10
       245  11 -1.129134E+05  2.578026E+05 -4.959413E+04 -9.590742E+04  2.595678E-09 -7.392526E-10
       245  12 -5.810413E+04  1.260003E+05 -3.721281E+04 -6.798266E+04  2.655359E-10 -1.200938E-09
       245  13  5.492813E+03  8.650058E+05  3.853335E+04 -1.478792E+05  2.329811E-09  4.297275E-11
       245  14  2.986997E+04  8.539002E+05  6.778513E+04 -1.331145E+05 -2.849349E-10  2.024627E-10
       245  15  1.248315E+05  8.648929E+05  1.373819E+05 -1.476597E+05  4.048916E-10  4.176715E-09
       245  16  1.135050E+05  1.323898E+06  1.204098E+05 -1.426018E+05  3.872882E-11  2.200383E-10
       245  17  1.726369E+05  1.450341E+06  1.851478E+05 -1.703580E+05 -3.373614E-09  1.253589E-09
       245  18  3.077517E+05  1.604300E+06  3.119422E+05 -2.274319E+05 -1.742711E-09  5.382319E-10
       245  19 -1.025296E+05  4.063210E+05 -4.334667E+04 -1.531515E+05  2.858934E+04  3.909948E+04
       245  20 -1.129121E+05  2.578048E+05 -4.958928E+04 -9.590647E+04  2.761008E+04  4.269050E+04
       245  21 -5.810348E+04  1.260026E+05 -3.720864E+04 -6.798234E+04  8.764659E+03  4.625255E+04
       245  22  5.493862E+03  8.650067E+05  3.853608E+04 -1.478786E+05  2.861559E+04  2.516941E+04
       245  23  2.987175E+04  8.539043E+05  6.779333E+04 -1.331132E+05  2.757281E+04  6.009550E+04
       245  24  1.248340E+05  8.649026E+05  1.373990E+05 -1.476591E+05  8.671240E+03  9.499452E+04
       245  25  1.135059E+05  1.323898E+06  1.204116E+05 -1.426016E+05  2.864159E+04  1.122934E+04
       245  26  1.726394E+05  1.450347E+06  1.851605E+05 -1.703562E+05  2.753348E+04  7.751684E+04
       245  27  3.077573E+05  1.604323E+06  3.119811E+05 -2.274309E+05  8.565383E+03  1.437941E+05
       246   1  1.352053E+06  4.350763E+05  2.134423E+05  4.813665E+05  5.815319E+04  5.106668E+03
       246   2  1.277720E+06  4.246678E+05  1.705988E+05  4.576008E+05  3.869384E+04 -4.141084E+04
       246   3  1.192262E+06  4.148212E+05  1.487179E+05  4.512242E+05  9.701732E+03 -6.262595E+04
       246   4  3.611669E+05  8.208044E+04 -3.784274E+04  2.288026E+05 -1.897484E+04 -2.399341E+04
       246   5  3.729544E+05  1.005175E+05 -1.757435E+04  2.146050E+05  3.152091E+03 -5.483465E+04
       246   6  3.653747E+05  1.112762E+05 -9.263898E+03  2.177993E+05  1.573362E+04 -6.035636E+04
       246   7 -6.287193E+05 -2.708591E+05 -2.891712E+05 -2.339605E+04 -9.596537E+04 -5.304758E+04
       246   8 -5.309574E+05 -2.235673E+05 -2.057812E+05 -2.806445E+04 -3.233320E+04 -6.823839E+04
       246   9 -4.607991E+05 -1.922027E+05 -1.672738E+05 -1.533626E+04  2.175692E+04 -5.809007E+04
       246  10  1.352050E+06  4.350753E+05  2.134359E+05  4.813663E+05  4.170569E-09  2.544020E-09
       246  11  1.277718E+06  4.246656E+05  1.705928E+05  4.576021E+05  6.208625E-10 -5.343773E-09
       246  12  1.192261E+06  4.148169E+05  1.487103E+05  4.512247E+05 -1.728581E-09 -4.046504E-09
       246  13  3.611664E+05  8.207972E+04 -3.784450E+04  2.288023E+05 -2.578863E-10  1.089335E-09
       246  14  3.729536E+05  1.005143E+05 -1.758002E+04  2.146051E+05  4.614272E-09 -2.680887E-09
       246  15  3.653735E+05  1.112722E+05 -9.271210E+03  2.178000E+05 -9.404629E-10 -4.731013E-09
       246  16 -6.287299E+05 -2.708646E+05 -2.891938E+05 -2.340015E+04 -3.549422E-09 -2.357839E-09
       246  17 -5.309597E+05 -2.235726E+05 -2.057920E+05 -2.806623E+04  2.041653E-09 -5.987394E-10
       246  18 -4.608005E+05 -1.922064E+05 -1.672810E+05 -1.533524E+04  2.941574E-09 -4.996833E-09
       246  19  1.352053E+06  4.350763E+05  2.134423E+05  4.813665E+05 -5.815319E+04 -5.106668E+03
       246  20  1.277720E+06  4.246678E+05  1.705988E+05  4.576008E+05 -3.869384E+04  4.141084E+04
       246  21  1.192262E+06  4.148212E+05  1.487179E+05  4.512242E+05 -9.701732E+03  6.262595E+04
       246  22  3.611669E+05  8.208044E+04 -3.784274E+04  2.288026E+05  1.897484E+04  2.399341E+04
       246  23  3.729544E+05  1.005175E+05 -1.757435E+04  2.146050E+05 -3.152091E+03  5.483465E+04
       246  24  3.653747E+05  1.112762E+05 -9.263898E+03  2.177993E+05 -1.573362E+04  6.035636E+04
       246  25 -6.287193E+05 -2.708591E+05 -2.891712E+05 -2.339605E+04  9.596537E+04  5.304758E+04
       246  26 -5.309574E+05 -2.235673E+05 -2.057812E+05 -2.806445E+04  3.233320E+04  6.823839E+04
       246  27 -4.607991E+05 -1.922027E+05 -1.672738E+05 -1.533626E+04 -2.175692E+04  5.809007E+04
       247   1  1.145653E+06  3.947656E+05  1.404256E+05  4.364455E+05  1.342115E+04 -5.838909E+04
       247   2  1.078504E+06  3.627980E+05  1.265633E+05  4.091419E+05  1.091794E+04 -5.646401E+04
       247   3  9.991339E+05  3.429172E+05  1.137852E+05  3.960523E+05  7.626564E+03 -5.246003E+04
       247   4  3.662084E+05  1.111581E+05 -6.998732E+03  2.187466E+05  1.584852E+04 -5.747991E+04
       247   5  3.727770E+05  1.061561E+05 -3.691081E+03  2.113811E+05  1.676021E+04 -5.426271E+04
       247   6  3.664421E+05  1.125650E+05 -2.004415E+03  2.182290E+05  1.688312E+04 -4.896532E+04
       247   7 -4.126107E+05 -1.723966E+05 -1.544499E+05  1.298552E+03  1.827265E+04 -5.657195E+04
       247   8 -3.324327E+05 -1.504401E+05 -1.339651E+05  1.382812E+04  2.259542E+04 -5.206407E+04
       247   9 -2.658299E+05 -1.177487E+05 -1.178083E+05  4.057419E+04  2.612962E+04 -4.547442E+04
       247  10  1.145652E+06  3.947619E+05  1.404188E+05  4.364462E+05  1.998648E-10 -6.194560E-09
       247  11  1.078503E+06  3.627945E+05  1.265571E+05  4.091424E+05  1.468147E-08  5.142327E-09
       247  12  9.991331E+05  3.429142E+05  1.137799E+05  3.960526E+05  1.081079E-08  6.421840E-09
       247  13  3.662073E+05  1.111545E+05 -7.005414E+03  2.187473E+05  6.319732E-09 -1.869465E-09
       247  14  3.727759E+05  1.061528E+05 -3.697143E+03  2.113819E+05  1.558317E-08  7.882312E-10
       247  15  3.664411E+05  1.125624E+05 -2.009458E+03  2.182296E+05  3.636555E-09  6.629001E-10
       247  16 -4.126119E+05 -1.724002E+05 -1.544566E+05  1.299385E+03  1.538833E-08  1.356588E-09
       247  17 -3.324340E+05 -1.504432E+05 -1.339711E+05  1.382907E+04  1.716926E-08  2.484132E-09
       247  18 -2.658312E+05 -1.177511E+05 -1.178135E+05  4.057515E+04  1.404053E-09 -1.804635E-10
       247  19  1.145653E+06  3.947656E+05  1.404256E+05  4.364455E+05 -1.342115E+04  5.838909E+04
       247  20  1.078504E+06  3.627980E+05  1.265633E+05  4.091419E+05 -1.091794E+04  5.646401E+04
       247  21  9.991339E+05  3.429172E+05  1.137852E+05  3.960523E+05 -7.626564E+03  5.246003E+04
       247  22  3.662084E+05  1.111581E+05 -6.998732E+03  2.187466E+05 -1.584852E+04  5.747991E+04
       247  23  3.727770E+05  1.061561E+05 -3.691081E+03  2.113811E+05 -1.676021E+04  5.426271E+04
       247  24  3.664421E+05  1.125650E+05 -2.004415E+03  2.182290E+05 -1.688312E+04  4.896532E+04
       247  25 -4.126107E+05 -1.723966E+05 -1.544499E+05  1.298552E+03 -1.827265E+04  5.657195E+04
       247  26 -3.324327E+05 -1.504401E+05 -1.339651E+05  1.382812E+04 -2.259542E+04  5.206407E+04
       247  27 -2.658299E+05 -1.177487E+05 -1.178083E+05  4.057419E+04 -2.612962E+04  4.547442E+04
       248   1  9.514100E+05  3.253553E+05  1.051004E+05  3.826060E+05  6.958547E+03 -4.893459E+04
       248   2  8.848336E+05  2.927220E+05  9.243131E+04  3.551163E+05  4.994238E+03 -4.335320E+04
       248   3  8.058332E+05  2.725472E+05  7.967990E+04  3.417312E+05  2.964029E+03 -3.760462E+04
       248   4  3.665152E+05  1.125726E+05 -1.500606E+03  2.182898E+05  1.591210E+04 -4.555293E+04
       248   5  3.727789E+05  1.064182E+05 -8.047740E+02  2.112263E+05  1.422230E+04 -3.986555E+04
       248   6  3.665571E+05  1.126680E+05 -4.099355E+02  2.182662E+05  1.246657E+04 -3.401084E+04
       248   7 -2.180149E+05 -1.001749E+05 -1.081120E+05  5.411913E+04  2.485657E+04 -4.217472E+04
       248   8 -1.390003E+05 -7.986025E+04 -9.404990E+04  6.744669E+04  2.344223E+04 -3.638097E+04
       248   9 -7.252039E+04 -4.719413E+04 -8.050748E+04  9.488131E+04  2.196202E+04 -3.041975E+04
       248  10  9.514093E+05  3.253527E+05  1.050958E+05  3.826062E+05 -1.286947E-09  3.715280E-10
       248  11  8.848330E+05  2.927200E+05  9.242773E+04  3.551165E+05 -5.415394E-10  3.861625E-09
       248  12  8.058329E+05  2.725457E+05  7.967722E+04  3.417313E+05  4.099892E-09  3.244925E-09
       248  13  3.665143E+05  1.125703E+05 -1.504982E+03  2.182903E+05 -1.015983E-09 -4.782241E-09
       248  14  3.727783E+05  1.064164E+05 -8.081414E+02  2.112267E+05  3.387393E-09 -6.826435E-09
       248  15  3.665567E+05  1.126667E+05 -4.124018E+02  2.182665E+05 -1.069139E-09  3.322257E-09
       248  16 -2.180161E+05 -1.001770E+05 -1.081165E+05  5.411998E+04 -1.396240E-10  1.498697E-09
       248  17 -1.390012E+05 -7.986182E+04 -9.405342E+04  6.744738E+04 -2.031411E-09  1.742163E-09
       248  18 -7.252115E+04 -4.719525E+04 -8.051013E+04  9.488185E+04 -4.667509E-09 -3.693261E-09
       248  19  9.514100E+05  3.253553E+05  1.051004E+05  3.826060E+05 -6.958547E+03  4.893459E+04
       248  20  8.848336E+05  2.927220E+05  9.243131E+04  3.551163E+05 -4.994238E+03  4.335320E+04
       248  21  8.058332E+05  2.725472E+05  7.967990E+04  3.417312E+05 -2.964029E+03  3.760462E+04
       248  22  3.665152E+05  1.125726E+05 -1.500606E+03  2.182898E+05 -1.591210E+04  4.555293E+04
       248  23  3.727789E+05  1.064182E+05 -8.047740E+02  2.112263E+05 -1.422230E+04  3.986555E+04
       248  24  3.665571E+05  1.126680E+05 -4.099355E+02  2.182662E+05 -1.246657E+04  3.401084E+04
       248  25 -2.180149E+05 -1.001749E+05 -1.081120E+05  5.411913E+04 -2.485657E+04  4.217472E+04
       248  26 -1.390003E+05 -7.986025E+04 -9.404990E+04  6.744669E+04 -2.344223E+04  3.638097E+04
       248  27 -7.252039E+04 -4.719413E+04 -8.050748E+04  9.488131E+04 -2.196202E+04  3.041975E+04
       249   1  7.581665E+05  2.551457E+05  7.074397E+04  3.283617E+05  1.776023E+03 -3.420344E+04
       249   2  6.917287E+05  2.225436E+05  5.790718E+04  3.008914E+05 -3.840063E+02 -2.842026E+04
       249   3  6.128625E+05  2.023879E+05  4.505615E+04  2.875084E+05 -2.549731E+03 -2.262631E+04
       249   4  3.665741E+05  1.126742E+05 -2.833768E+02  2.182660E+05  1.124951E+04 -3.061956E+04
       249   5  3.728030E+05  1.064677E+05 -8.453319E+01  2.112212E+05  9.106941E+03 -2.482838E+04
       249   6  3.665940E+05  1.127036E+05  8.547372E+01  2.182618E+05  6.958680E+03 -1.902643E+04
       249   7 -2.485688E+04 -2.978224E+04 -7.131572E+04  1.082349E+05  2.071662E+04 -2.703810E+04
       249   8  5.398612E+04 -9.597575E+03 -5.807903E+04  1.215944E+05  1.859264E+04 -2.123849E+04
       249   9  1.203918E+05  2.302619E+04 -4.488634E+04  1.490414E+05  1.646297E+04 -1.542811E+04
       249  10  7.581662E+05  2.551445E+05  7.074177E+04  3.283618E+05 -4.467561E-09  3.381945E-09
       249  11  6.917284E+05  2.225427E+05  5.790566E+04  3.008914E+05  5.285549E-10  8.499160E-09
       249  12  6.128623E+05  2.023874E+05  4.505518E+04  2.875084E+05  6.587233E-09 -6.419821E-10
       249  13  3.665737E+05  1.126732E+05 -2.853769E+02  2.182662E+05  4.903802E-10  6.657166E-10
       249  14  3.728028E+05  1.064671E+05 -8.584776E+01  2.112214E+05  3.519121E-10 -3.835773E-09
       249  15  3.665938E+05  1.127032E+05  8.470227E+01  2.182619E+05  1.177141E-09 -1.011929E-09
       249  16 -2.485754E+04 -2.978314E+04 -7.131790E+04  1.082354E+05  2.327147E-09 -1.485761E-10
       249  17  5.398563E+04 -9.598152E+03 -5.808053E+04  1.215947E+05 -2.527941E-09  2.632125E-09
       249  18  1.203915E+05  2.302586E+04 -4.488729E+04  1.490416E+05 -5.084124E-09 -4.245023E-09
       249  19  7.581665E+05  2.551457E+05  7.074397E+04  3.283617E+05 -1.776023E+03  3.420344E+04
       249  20  6.917287E+05  2.225436E+05  5.790718E+04  3.008914E+05  3.840063E+02  2.842026E+04
       249  21  6.128625E+05  2.023879E+05  4.505615E+04  2.875084E+05  2.549731E+03  2.262631E+04
       249  22  3.665741E+05  1.126742E+05 -2.833768E+02  2.182660E+05 -1.124951E+04  3.061956E+04
       249  23  3.728030E+05  1.064677E+05 -8.453319E+01  2.112212E+05 -9.106941E+03  2.482838E+04
       249  24  3.665940E+05  1.127036E+05  8.547372E+01  2.182618E+05 -6.958680E+03  1.902643E+04
       249  25 -2.485688E+04 -2.978224E+04 -7.131572E+04  1.082349E+05 -2.071662E+04  2.703810E+04
       249  26  5.398612E+04 -9.597575E+03 -5.807903E+04  1.215944E+05 -1.859264E+04  2.123849E+04
       249  27  1.203918E+05  2.302619E+04 -4.488634E+04  1.490414E+05 -1.646297E+04  1.542811E+04
       250   1  5.652568E+05  1.850016E+05  3.609819E+04  2.741540E+05 -3.844061E+03 -1.926285E+04
       250   2  4.988684E+05  1.524094E+05  2.332921E+04  2.467132E+05 -6.225724E+03 -1.354983E+04
       250   3  4.200747E+05  1.322610E+05  1.070314E+04  2.333551E+05 -8.605044E+03 -7.844617E+03
       250   4  3.666068E+05  1.127072E+05  1.737852E+02  2.182623E+05  5.660612E+03 -1.566380E+04
       250   5  3.728128E+05  1.064823E+05  4.107319E+02  2.112235E+05  3.265822E+03 -9.955175E+03
       250   6  3.666119E+05  1.127040E+05  8.010987E+02  2.182659E+05  8.733546E+02 -4.254371E+03
       250   7  1.679965E+05  4.041599E+04 -3.575215E+04  1.623867E+05  1.516213E+04 -1.206594E+04
       250   8  2.467734E+05  6.055663E+04 -2.250810E+04  1.757405E+05  1.275536E+04 -6.361280E+03
       250   9  3.131523E+05  9.314740E+04 -9.100671E+03  2.031780E+05  1.035088E+04 -6.644570E+02
       250  10  5.652567E+05  1.850012E+05  3.609746E+04  2.741539E+05  6.962337E-10 -6.589148E-09
       250  11  4.988683E+05  1.524091E+05  2.332879E+04  2.467131E+05 -2.135862E-09 -4.769270E-09
       250  12  4.200746E+05  1.322609E+05  1.070289E+04  2.333550E+05 -2.136790E-09 -1.310353E-09
       250  13  3.666067E+05  1.127069E+05  1.732638E+02  2.182623E+05  5.842278E-10 -5.334712E-10
       250  14  3.728128E+05  1.064822E+05  4.105255E+02  2.112236E+05  6.110507E-09  4.674635E-11
       250  15  3.666119E+05  1.127040E+05  8.010633E+02  2.182659E+05  5.548792E-09  6.068752E-09
       250  16  1.679962E+05  4.041577E+04 -3.575286E+04  1.623868E+05  1.413161E-10  7.798436E-10
       250  17  2.467733E+05  6.055654E+04 -2.250848E+04  1.757405E+05  2.884832E-09  2.451657E-09
       250  18  3.131522E+05  9.314737E+04 -9.100873E+03  2.031780E+05  1.142179E-08  5.148942E-09
       250  19  5.652568E+05  1.850016E+05  3.609819E+04  2.741540E+05  3.844061E+03  1.926285E+04
       250  20  4.988684E+05  1.524094E+05  2.332921E+04  2.467132E+05  6.225724E+03  1.354983E+04
       250  21  4.200747E+05  1.322610E+05  1.070314E+04  2.333551E+05  8.605044E+03  7.844617E+03
       250  22  3.666068E+05  1.127072E+05  1.737852E+02  2.182623E+05 -5.660612E+03  1.566380E+04
       250  23  3.728128E+05  1.064823E+05  4.107319E+02  2.112235E+05 -3.265822E+03  9.955175E+03
       250  24  3.666119E+05  1.127040E+05  8.010987E+02  2.182659E+05 -8.733546E+02  4.254371E+03
       250  25  1.679965E+05  4.041599E+04 -3.575215E+04  1.623867E+05 -1.516213E+04  1.206594E+04
       250  26  2.467734E+05  6.055663E+04 -2.250810E+04  1.757405E+05 -1.275536E+04  6.361280E+03
       250  27  3.131523E+05  9.314740E+04 -9.100671E+03  2.031780E+05 -1.035088E+04  6.644570E+02
       251   1  3.725029E+05  1.148879E+05  1.938737E+03  2.200389E+05 -1.004887E+04 -4.542028E+03
       251   2  3.060576E+05  8.228024E+04 -1.022300E+04  1.926124E+05 -1.305440E+04  8.778708E+02
       251   3  2.273285E+05  6.220480E+04 -2.174165E+04  1.792715E+05 -1.602377E+04  6.203706E+03
       251   4  3.666411E+05  1.126984E+05  1.082302E+03  2.182785E+05 -5.578810E+02 -9.469436E+02
       251   5  3.727730E+05  1.064479E+05  1.983780E+03  2.112246E+05 -3.718654E+03  4.413846E+03
       251   6  3.666459E+05  1.127594E+05  3.650923E+03  2.182536E+05 -6.843384E+03  9.680567E+03
       251   7  3.607795E+05  1.105090E+05  2.262687E+02  2.165182E+05  8.932928E+03  2.648068E+03
       251   8  4.394932E+05  1.306160E+05  1.419077E+04  2.298386E+05  5.618167E+03  7.950222E+03
       251   9  5.059852E+05  1.633164E+05  2.904353E+04  2.572444E+05  2.339285E+03  1.315829E+04
       251  10  3.725028E+05  1.148878E+05  1.938509E+03  2.200389E+05  3.346392E-08  1.262745E-08
       251  11  3.060574E+05  8.228019E+04 -1.022332E+04  1.926124E+05  6.310789E-10  4.786344E-10
       251  12  2.273282E+05  6.220469E+04 -2.174220E+04  1.792715E+05 -2.689695E-08 -7.890640E-09
       251  13  3.666411E+05  1.126984E+05  1.082299E+03  2.182785E+05  3.074460E-09  4.085029E-09
       251  14  3.727730E+05  1.064479E+05  1.983718E+03  2.112246E+05 -1.959529E-09 -3.942987E-10
       251  15  3.666458E+05  1.127593E+05  3.650659E+03  2.182537E+05 -1.694472E-09 -3.481593E-10
       251  16  3.607794E+05  1.105090E+05  2.261057E+02  2.165182E+05 -2.501915E-08 -2.211982E-09
       251  17  4.394932E+05  1.306159E+05  1.419059E+04  2.298386E+05 -6.261452E-09 -7.303312E-09
       251  18  5.059851E+05  1.633162E+05  2.904319E+04  2.572443E+05  2.167087E-08  9.918875E-09
       251  19  3.725029E+05  1.148879E+05  1.938737E+03  2.200389E+05  1.004887E+04  4.542028E+03
       251  20  3.060576E+05  8.228024E+04 -1.022300E+04  1.926124E+05  1.305440E+04 -8.778708E+02
       251  21  2.273285E+05  6.220480E+04 -2.174165E+04  1.792715E+05  1.602377E+04 -6.203706E+03
       251  22  3.666411E+05  1.126984E+05  1.082302E+03  2.182785E+05  5.578810E+02  9.469436E+02
       251  23  3.727730E+05  1.064479E+05  1.983780E+03  2.112246E+05  3.718654E+03 -4.413846E+03
       251  24  3.666459E+05  1.127594E+05  3.650923E+03  2.182536E+05  6.843384E+03 -9.680567E+03
       251  25  3.607795E+05  1.105090E+05  2.262687E+02  2.165182E+05 -8.932928E+03 -2.648068E+03
       251  26  4.394932E+05  1.306160E+05  1.419077E+04  2.298386E+05 -5.618167E+03 -7.950222E+03
       251  27  5.059852E+05  1.633164E+05  2.904353E+04  2.572444E+05 -2.339285E+03 -1.315829E+04
       252   1  1.796444E+05  4.497307E+04 -2.963324E+04  1.663108E+05 -1.812485E+04  9.215300E+03
       252   2  1.135347E+05  1.203845E+04 -3.937565E+04  1.378393E+05 -2.266090E+04  1.335375E+04
       252   3  3.614094E+04 -6.506592E+03 -4.664451E+04  1.229793E+05 -2.676131E+04  1.634547E+04
       252   4  3.668604E+05  1.126856E+05  4.868550E+03  2.183598E+05 -8.780496E+03  1.275387E+04
       252   5  3.725388E+05  1.068854E+05  8.910439E+03  2.109540E+05 -1.520093E+04  1.617765E+04
       252   6  3.673001E+05  1.158464E+05  1.691829E+04  2.171568E+05 -2.118611E+04  1.845484E+04
       252   7  5.541133E+05  1.804013E+05  3.936938E+04  2.704234E+05  5.668646E+02  1.629355E+04
       252   8  6.316118E+05  2.017384E+05  5.719380E+04  2.840967E+05 -7.737671E+03  1.900280E+04
       252   9  6.985703E+05  2.382090E+05  8.047566E+04  3.113803E+05 -1.560779E+04  2.056543E+04
       252  10  1.796440E+05  4.497289E+04 -2.963401E+04  1.663110E+05  4.444864E-10 -5.789280E-09
       252  11  1.135341E+05  1.203812E+04 -3.937695E+04  1.378395E+05 -1.483530E-08  2.265269E-09
       252  12  3.614010E+04 -6.507072E+03 -4.664636E+04  1.229796E+05 -2.667436E-08 -2.071772E-08
       252  13  3.668603E+05  1.126854E+05  4.868099E+03  2.183599E+05 -8.357484E-10 -1.421267E-09
       252  14  3.725385E+05  1.068851E+05  8.909513E+03  2.109541E+05  1.068659E-09  1.045575E-08
       252  15  3.672995E+05  1.158459E+05  1.691681E+04  2.171571E+05 -3.005879E-09 -1.351256E-08
       252  16  5.541132E+05  1.804010E+05  3.936888E+04  2.704234E+05 -8.005640E-11 -4.512637E-10
       252  17  6.316117E+05  2.017380E+05  5.719301E+04  2.840968E+05  1.217785E-08  1.061739E-08
       252  18  6.985699E+05  2.382085E+05  8.047441E+04  3.113806E+05  1.982623E-08  1.618265E-08
       252  19  1.796444E+05  4.497307E+04 -2.963324E+04  1.663108E+05  1.812485E+04 -9.215300E+03
       252  20  1.135347E+05  1.203845E+04 -3.937565E+04  1.378393E+05  2.266090E+04 -1.335375E+04
       252  21  3.614094E+04 -6.506592E+03 -4.664451E+04  1.229793E+05  2.676131E+04 -1.634547E+04
       252  22  3.668604E+05  1.126856E+05  4.868550E+03  2.183598E+05  8.780496E+03 -1.275387E+04
       252  23  3.725388E+05  1.068854E+05  8.910439E+03  2.109540E+05  1.520093E+04 -1.617765E+04
       252  24  3.673001E+05  1.158464E+05  1.691829E+04  2.171568E+05  2.118611E+04 -1.845484E+04
       252  25  5.541133E+05  1.804013E+05  3.936938E+04  2.704234E+05 -5.668646E+02 -1.629355E+04
       252  26  6.316118E+05  2.017384E+05  5.719380E+04  2.840967E+05  7.737671E+03 -1.900280E+04
       252  27  6.985703E+05  2.382090E+05  8.047566E+04  3.113803E+05  1.560779E+04 -2.056543E+04
       253   1 -1.387926E+04 -2.095313E+04 -5.102144E+04  1.159449E+05 -3.236919E+04  1.750599E+04
       253   2 -6.542294E+04 -6.050593E+04 -5.343458E+04  6.130269E+04 -3.072353E+04  1.543079E+04
       253   3 -1.130606E+05 -4.697433E+04 -4.498719E+04  8.589539E+03 -2.380489E+04 -5.866611E+02
       253   4  3.700659E+05  1.147174E+05  2.239874E+04  2.185865E+05 -2.481668E+04  2.036349E+04
       253   5  3.708909E+05  1.212071E+05  4.243608E+04  2.042598E+05 -4.605044E+04  9.627650E+03
       253   6  3.801391E+05  1.852923E+05  9.146298E+04  1.918631E+05 -6.201440E+04 -1.504555E+04
       253   7  7.541697E+05  2.504009E+05  9.581439E+04  3.212873E+05 -1.725906E+04  2.322279E+04
       253   8  8.074006E+05  3.029512E+05  1.382962E+05  3.473147E+05 -6.138891E+04  3.818844E+03
       253   9  8.735765E+05  4.176148E+05  2.278949E+05  3.752799E+05 -1.002564E+05 -2.952389E+04
       253  10 -1.388047E+04 -2.095374E+04 -5.102398E+04  1.159454E+05  7.632550E-09  5.594982E-09
       253  11 -6.542402E+04 -6.050644E+04 -5.343680E+04  6.130307E+04  6.853262E-09  1.066773E-08
       253  12 -1.130612E+05 -4.697449E+04 -4.498825E+04  8.589528E+03  1.593345E-09 -2.134652E-09
       253  13  3.700652E+05  1.147167E+05  2.239681E+04  2.185869E+05 -4.785258E-09 -6.077443E-09
       253  14  3.708886E+05  1.212064E+05  4.243193E+04  2.042602E+05 -2.226502E-09  6.373723E-09
       253  15  3.801349E+05  1.852911E+05  9.145533E+04  1.918624E+05  1.059985E-09  4.153499E-09
       253  16  7.541692E+05  2.504002E+05  9.581282E+04  3.212876E+05 -1.488552E-08  1.699254E-09
       253  17  8.073966E+05  3.029502E+05  1.382891E+05  3.473148E+05 -1.045547E-08 -4.590355E-10
       253  18  8.735654E+05  4.176111E+05  2.278744E+05  3.752775E+05 -2.246213E-09 -2.425812E-09
       253  19 -1.387926E+04 -2.095313E+04 -5.102144E+04  1.159449E+05  3.236919E+04 -1.750599E+04
       253  20 -6.542294E+04 -6.050593E+04 -5.343458E+04  6.130269E+04  3.072353E+04 -1.543079E+04
       253  21 -1.130606E+05 -4.697433E+04 -4.498719E+04  8.589539E+03  2.380489E+04  5.866611E+02
       253  22  3.700659E+05  1.147174E+05  2.239874E+04  2.185865E+05  2.481668E+04 -2.036349E+04
       253  23  3.708909E+05  1.212071E+05  4.243608E+04  2.042598E+05  4.605044E+04 -9.627650E+03
       253  24  3.801391E+05  1.852923E+05  9.146298E+04  1.918631E+05  6.201440E+04  1.504555E+04
       253  25  7.541697E+05  2.504009E+05  9.581439E+04  3.212873E+05  1.725906E+04 -2.322279E+04
       253  26  8.074006E+05  3.029512E+05  1.382962E+05  3.473147E+05  6.138891E+04 -3.818844E+03
       253  27  8.735765E+05  4.176148E+05  2.278949E+05  3.752799E+05  1.002564E+05  2.952389E+04
       254   1  1.517750E+05  1.703309E+04  1.210181E+04  1.206423E+03 -1.223724E+04 -1.641015E+03
       254   2  1.405778E+05  3.314006E+04  1.976182E+04  1.922262E+03 -9.111460E+03 -4.870685E+03
       254   3  1.238742E+05  2.908137E+04  2.034154E+04  1.064469E+04 -5.998124E+03 -4.612111E+03
       254   4  1.030257E+04 -1.813765E+04 -2.257706E+04  7.762459E+03 -1.546553E+04 -1.652570E+03
       254   5  1.325309E+04  1.737732E+03 -1.002198E+04  3.724950E+03 -1.008002E+04 -4.874257E+03
       254   6  1.030356E+04  1.052806E+03 -6.117549E+03  7.694206E+03 -4.706857E+03 -4.607432E+03
       254   7 -1.311515E+05 -5.330969E+04 -5.725733E+04  1.431698E+04 -1.869309E+04 -1.664194E+03
       254   8 -1.140566E+05 -2.966574E+04 -3.980688E+04  5.527254E+03 -1.104838E+04 -4.877836E+03
       254   9 -1.032552E+05 -2.697663E+04 -3.257750E+04  4.744257E+03 -3.415824E+03 -4.602764E+03
       254  10  1.517749E+05  1.703304E+04  1.210153E+04  1.206407E+03 -5.069636E-09  3.332274E-09
       254  11  1.405777E+05  3.314002E+04  1.976162E+04  1.922226E+03  9.427364E-10  1.725145E-08
       254  12  1.238741E+05  2.908133E+04  2.034143E+04  1.064467E+04  4.321323E-09  3.122097E-09
       254  13  1.030232E+04 -1.813771E+04 -2.257751E+04  7.762438E+03 -1.375938E-10 -4.263624E-09
       254  14  1.325297E+04  1.737679E+03 -1.002222E+04  3.724911E+03 -1.160832E-09 -8.678352E-09
       254  15  1.030353E+04  1.052778E+03 -6.117630E+03  7.694189E+03  7.488189E-11  3.375793E-09
       254  16 -1.311519E+05 -5.330978E+04 -5.725800E+04  1.431696E+04  6.288556E-09 -8.413217E-10
       254  17 -1.140568E+05 -2.966579E+04 -3.980715E+04  5.527210E+03 -3.685767E-09  9.717364E-09
       254  18 -1.032552E+05 -2.697666E+04 -3.257756E+04  4.744244E+03 -5.407455E-09  3.371363E-09
       254  19  1.517750E+05  1.703309E+04  1.210181E+04  1.206423E+03  1.223724E+04  1.641015E+03
       254  20  1.405778E+05  3.314006E+04  1.976182E+04  1.922262E+03  9.111460E+03  4.870685E+03
       254  21  1.238742E+05  2.908137E+04  2.034154E+04  1.064469E+04  5.998124E+03  4.612111E+03
       254  22  1.030257E+04 -1.813765E+04 -2.257706E+04  7.762459E+03  1.546553E+04  1.652570E+03
       254  23  1.325309E+04  1.737732E+03 -1.002198E+04  3.724950E+03  1.008002E+04  4.874257E+03
       254  24  1.030356E+04  1.052806E+03 -6.117549E+03  7.694206E+03  4.706857E+03  4.607432E+03
       254  25 -1.311515E+05 -5.330969E+04 -5.725733E+04  1.431698E+04  1.869309E+04  1.664194E+03
       254  26 -1.140566E+05 -2.966574E+04 -3.980688E+04  5.527254E+03  1.104838E+04  4.877836E+03
       254  27 -1.032552E+05 -2.697663E+04 -3.257750E+04  4.744257E+03  3.415824E+03  4.602764E+03
       255   1  1.105067E+05  2.295950E+04  1.821815E+04  7.506634E+03 -4.008039E+03 -3.788578E+03
       255   2  9.694828E+04  2.118905E+04  1.729568E+04  3.807472E+03 -2.823978E+03 -3.354064E+03
       255   3  8.274540E+04  1.773519E+04  1.516677E+04  8.176086E+03 -1.640756E+03 -2.727096E+03
       255   4  1.146726E+04 -1.476819E+03 -4.947218E+03  7.731902E+03 -3.791224E+03 -3.787824E+03
       255   5  1.180087E+04  1.857444E+02 -2.579249E+03  3.694976E+03 -2.482632E+03 -3.352828E+03
       255   6  1.146787E+04  1.431024E+02 -1.504399E+03  7.725909E+03 -1.174854E+03 -2.725366E+03
       255   7 -8.756310E+04 -2.591383E+04 -2.811325E+04  7.957125E+03 -3.574444E+03 -3.787071E+03
       255   8 -7.333985E+04 -2.081807E+04 -2.245467E+04  3.582490E+03 -2.141332E+03 -3.351592E+03
       255   9 -5.980499E+04 -1.744935E+04 -1.817592E+04  7.275779E+03 -7.090051E+02 -2.723637E+03
       255  10  1.105066E+05  2.295948E+04  1.821809E+04  7.506622E+03 -7.715438E-10 -5.165936E-09
       255  11  9.694826E+04  2.118903E+04  1.729565E+04  3.807464E+03  1.302037E-09  1.697296E-09
       255  12  8.274540E+04  1.773518E+04  1.516675E+04  8.176082E+03  4.525509E-09  9.450344E-09
       255  13  1.146724E+04 -1.476838E+03 -4.947272E+03  7.731891E+03  2.045104E-09  1.243119E-08
       255  14  1.180086E+04  1.857307E+02 -2.579281E+03  3.694969E+03  1.588947E-09 -2.174873E-08
       255  15  1.146786E+04  1.430940E+02 -1.504416E+03  7.725906E+03 -1.686889E-10  6.408301E-09
       255  16 -8.756311E+04 -2.591385E+04 -2.811330E+04  7.957114E+03 -3.468061E-10 -6.640137E-09
       255  17 -7.333986E+04 -2.081808E+04 -2.245470E+04  3.582484E+03 -4.410544E-09 -1.308142E-08
       255  18 -5.980499E+04 -1.744936E+04 -1.817593E+04  7.275778E+03 -5.239296E-09  1.569337E-09
       255  19  1.105067E+05  2.295950E+04  1.821815E+04  7.506634E+03  4.008039E+03  3.788578E+03
       255  20  9.694828E+04  2.118905E+04  1.729568E+04  3.807472E+03  2.823978E+03  3.354064E+03
       255  21  8.274540E+04  1.773519E+04  1.516677E+04  8.176086E+03  1.640756E+03  2.727096E+03
       255  22  1.146726E+04 -1.476819E+03 -4.947218E+03  7.731902E+03  3.791224E+03  3.787824E+03
       255  23  1.180087E+04  1.857444E+02 -2.579249E+03  3.694976E+03  2.482632E+03  3.352828E+03
       255  24  1.146787E+04  1.431024E+02 -1.504399E+03  7.725909E+03  1.174854E+03  2.725366E+03
       255  25 -8.756310E+04 -2.591383E+04 -2.811325E+04  7.957125E+03  3.574444E+03  3.787071E+03
       255  26 -7.333985E+04 -2.081807E+04 -2.245467E+04  3.582490E+03  2.141332E+03  3.351592E+03
       255  27 -5.980499E+04 -1.744935E+04 -1.817592E+04  7.275779E+03  7.090051E+02  2.723637E+03
       256   1  6.835635E+04  1.392982E+04  1.205193E+04  7.870821E+03 -1.348388E+03 -2.326596E+03
       256   2  5.455183E+04  1.062637E+04  9.382871E+03  3.819972E+03 -1.044059E+03 -1.692829E+03
       256   3  4.061020E+04  7.234415E+03  6.476965E+03  7.839291E+03 -7.398190E+02 -1.048470E+03
       256   4  1.158575E+04 -6.686696E+01 -1.160794E+03  7.728543E+03 -9.418063E+02 -2.325076E+03
       256   5  1.165504E+04  4.446818E+01 -6.285499E+02  3.693186E+03 -6.306398E+02 -1.691270E+03
       256   6  1.158605E+04  6.616254E+01 -3.378558E+02  7.728032E+03 -3.195561E+02 -1.046869E+03
       256   7 -4.518188E+04 -1.406378E+04 -1.437374E+04  7.586275E+03 -5.352614E+02 -2.323556E+03
       256   8 -3.124006E+04 -1.053757E+04 -1.064010E+04  3.566408E+03 -2.172493E+02 -1.689710E+03
       256   9 -1.743732E+04 -7.102150E+03 -7.152733E+03  7.616777E+03  1.006872E+02 -1.045270E+03
       256  10  6.835635E+04  1.392981E+04  1.205192E+04  7.870818E+03  6.767880E-09 -7.079234E-09
       256  11  5.455183E+04  1.062637E+04  9.382864E+03  3.819970E+03 -1.219411E-09 -1.087249E-08
       256  12  4.061020E+04  7.234414E+03  6.476962E+03  7.839290E+03 -9.661119E-09 -4.928146E-09
       256  13  1.158575E+04 -6.687300E+01 -1.160806E+03  7.728541E+03 -1.131931E-09 -2.475210E-09
       256  14  1.165504E+04  4.446500E+01 -6.285560E+02  3.693185E+03 -1.293604E-11 -5.405045E-09
       256  15  1.158605E+04  6.616134E+01 -3.378581E+02  7.728031E+03 -1.115569E-09 -3.484875E-09
       256  16 -4.518188E+04 -1.406379E+04 -1.437375E+04  7.586274E+03 -8.658773E-09 -3.342969E-09
       256  17 -3.124006E+04 -1.053757E+04 -1.064010E+04  3.566407E+03 -8.377933E-10  6.912318E-09
       256  18 -1.743732E+04 -7.102151E+03 -7.152736E+03  7.616777E+03  7.364507E-09  1.042071E-08
       256  19  6.835635E+04  1.392982E+04  1.205193E+04  7.870821E+03  1.348388E+03  2.326596E+03
       256  20  5.455183E+04  1.062637E+04  9.382871E+03  3.819972E+03  1.044059E+03  1.692829E+03
       256  21  4.061020E+04  7.234415E+03  6.476965E+03  7.839291E+03  7.398190E+02  1.048470E+03
       256  22  1.158575E+04 -6.686696E+01 -1.160794E+03  7.728543E+03  9.418063E+02  2.325076E+03
       256  23  1.165504E+04  4.446818E+01 -6.285499E+02  3.693186E+03  6.306398E+02  1.691270E+03
       256  24  1.158605E+04  6.616254E+01 -3.378558E+02  7.728032E+03  3.195561E+02  1.046869E+03
       256  25 -4.518188E+04 -1.406378E+04 -1.437374E+04  7.586275E+03  5.352614E+02  2.323556E+03
       256  26 -3.124006E+04 -1.053757E+04 -1.064010E+04  3.566408E+03  2.172493E+02  1.689710E+03
       256  27 -1.743732E+04 -7.102150E+03 -7.152733E+03  7.616777E+03 -1.006872E+02  1.045270E+03
       257   1  2.612147E+04  3.623583E+03  3.110612E+03  7.775324E+03 -6.864401E+02 -6.718781E+02
       257   2  1.228407E+04  1.896856E+02  7.535922E+01  3.701726E+03 -6.515161E+02 -2.798038E+01
       257   3 -1.622163E+03 -3.193526E+03 -2.986948E+03  7.697548E+03 -6.165957E+02  6.164570E+02
       257   4  1.160159E+04  4.990840E+01 -2.369901E+02  7.728036E+03 -2.694505E+02 -6.702858E+02
       257   5  1.163613E+04  2.978255E+01 -7.588342E+01  3.693302E+03 -2.341830E+02 -2.638696E+01
       257   6  1.160160E+04  6.029418E+01  5.793684E+01  7.727987E+03 -1.989183E+02  6.180523E+02
       257   7 -2.918089E+03 -3.523781E+03 -3.584605E+03  7.680748E+03  1.475294E+02 -6.686936E+02
       257   8  1.098819E+04 -1.301204E+02 -2.271254E+02  3.684878E+03  1.831496E+02 -2.479356E+01
       257   9  2.482552E+04  3.314102E+03  3.102811E+03  7.758426E+03  2.187679E+02  6.196476E+02
       257  10  2.612147E+04  3.623582E+03  3.110610E+03  7.775323E+03  7.640773E-09 -7.587025E-09
       257  11  1.228407E+04  1.896855E+02  7.535842E+01  3.701726E+03 -6.851557E-09  7.515630E-10
       257  12 -1.622163E+03 -3.193527E+03 -2.986949E+03  7.697548E+03 -1.808419E-08  9.792275E-10
       257  13  1.160159E+04  4.990790E+01 -2.369911E+02  7.728035E+03 -1.154427E-09  2.622883E-10
       257  14  1.163613E+04  2.978253E+01 -7.588352E+01  3.693302E+03 -2.176652E-09 -1.039451E-08
       257  15  1.160160E+04  6.029375E+01  5.793605E+01  7.727987E+03 -1.396535E-09 -9.159118E-09
       257  16 -2.918089E+03 -3.523781E+03 -3.584606E+03  7.680748E+03 -9.056435E-09  6.350679E-09
       257  17  1.098819E+04 -1.301204E+02 -2.271255E+02  3.684878E+03  4.205380E-09  1.529249E-08
       257  18  2.482552E+04  3.314102E+03  3.102810E+03  7.758426E+03  1.572952E-08  1.390201E-09
       257  19  2.612147E+04  3.623583E+03  3.110612E+03  7.775324E+03  6.864401E+02  6.718781E+02
       257  20  1.228407E+04  1.896856E+02  7.535922E+01  3.701726E+03  6.515161E+02  2.798038E+01
       257  21 -1.622163E+03 -3.193526E+03 -2.986948E+03  7.697548E+03  6.165957E+02 -6.164570E+02
       257  22  1.160159E+04  4.990841E+01 -2.369901E+02  7.728036E+03  2.694505E+02  6.702858E+02
       257  23  1.163613E+04  2.978255E+01 -7.588342E+01  3.693302E+03  2.341830E+02  2.638696E+01
       257  24  1.160160E+04  6.029418E+01  5.793684E+01  7.727987E+03  1.989183E+02 -6.180523E+02
       257  25 -2.918089E+03 -3.523781E+03 -3.584605E+03  7.680748E+03 -1.475294E+02  6.686936E+02
       257  26  1.098819E+04 -1.301204E+02 -2.271254E+02  3.684878E+03 -1.831496E+02  2.479356E+01
       257  27  2.482552E+04  3.314102E+03  3.102811E+03  7.758426E+03 -2.187679E+02 -6.196476E+02
       258   1 -1.611813E+04 -6.790947E+03 -6.384140E+03  7.658045E+03 -6.349426E+02  9.916047E+02
       258   2 -2.997333E+04 -1.023875E+04 -9.403089E+03  3.584025E+03 -7.884770E+02  1.635350E+03
       258   3 -4.386186E+04 -1.359952E+04 -1.231692E+04  7.580207E+03 -9.419569E+02  2.278402E+03
       258   4  1.160932E+04  5.735963E+01  1.284531E+02  7.728192E+03 -2.172152E+02  9.931958E+02
       258   5  1.162599E+04  2.344705E+01  3.057888E+02  3.693067E+03 -3.712159E+02  1.636925E+03
       258   6  1.160902E+04  7.659250E+01  5.885134E+02  7.728109E+03 -5.251654E+02  2.279963E+03
       258   7  3.933747E+04  6.905612E+03  6.640994E+03  7.798341E+03  2.005307E+02  9.947869E+02
       258   8  5.322691E+04  1.028552E+04  1.001455E+04  3.802115E+03  4.607299E+01  1.638501E+03
       258   9  6.708274E+04  1.375249E+04  1.349374E+04  7.876022E+03 -1.083369E+02  2.281523E+03
       258  10 -1.611813E+04 -6.790948E+03 -6.384142E+03  7.658046E+03  9.623783E-09  1.192404E-09
       258  11 -2.997333E+04 -1.023875E+04 -9.403095E+03  3.584026E+03  1.333774E-09 -5.364982E-09
       258  12 -4.386187E+04 -1.359953E+04 -1.231693E+04  7.580208E+03 -1.402317E-08 -2.538414E-09
       258  13  1.160932E+04  5.735856E+01  1.284512E+02  7.728192E+03  2.064651E-09  2.844455E-09
       258  14  1.162599E+04  2.344413E+01  3.057836E+02  3.693068E+03 -5.502969E-10 -6.789016E-09
       258  15  1.160902E+04  7.658685E+01  5.885031E+02  7.728110E+03 -9.677879E-10 -4.550836E-09
       258  16  3.933747E+04  6.905611E+03  6.640992E+03  7.798341E+03 -1.023691E-08 -5.061796E-09
       258  17  5.322690E+04  1.028551E+04  1.001454E+04  3.802115E+03 -5.522838E-09 -1.992597E-08
       258  18  6.708274E+04  1.375249E+04  1.349373E+04  7.876022E+03  1.154960E-08 -1.003734E-08
       258  19 -1.611813E+04 -6.790947E+03 -6.384140E+03  7.658045E+03  6.349426E+02 -9.916047E+02
       258  20 -2.997333E+04 -1.023875E+04 -9.403089E+03  3.584025E+03  7.884770E+02 -1.635350E+03
       258  21 -4.386186E+04 -1.359952E+04 -1.231692E+04  7.580207E+03  9.419569E+02 -2.278402E+03
       258  22  1.160932E+04  5.735963E+01  1.284531E+02  7.728192E+03  2.172152E+02 -9.931958E+02
       258  23  1.162599E+04  2.344705E+01  3.057888E+02  3.693067E+03  3.712159E+02 -1.636925E+03
       258  24  1.160902E+04  7.659250E+01  5.885134E+02  7.728109E+03  5.251654E+02 -2.279963E+03
       258  25  3.933747E+04  6.905612E+03  6.640994E+03  7.798341E+03 -2.005307E+02 -9.947869E+02
       258  26  5.322691E+04  1.028552E+04  1.001455E+04  3.802115E+03 -4.607299E+01 -1.638501E+03
       258  27  6.708274E+04  1.375249E+04  1.349374E+04  7.876022E+03  1.083369E+02 -2.281523E+03
       259   1 -5.833441E+04 -1.722842E+04 -1.558861E+04  7.587511E+03 -1.070831E+03  2.654738E+03
       259   2 -7.226477E+04 -2.069514E+04 -1.819324E+04  3.467156E+03 -1.751099E+03  3.295238E+03
       259   3 -8.608181E+04 -2.378172E+04 -2.027549E+04  7.415873E+03 -2.431220E+03  3.922267E+03
       259   4  1.164154E+04  4.214195E+01  7.843053E+02  7.728218E+03 -6.498672E+02  2.656300E+03
       259   5  1.158382E+04 -9.772144E+00  1.376969E+03  3.693196E+03 -1.338948E+03  3.296739E+03
       259   6  1.164094E+04  3.200144E+02  2.498147E+03  7.727178E+03 -2.027896E+03  3.923710E+03
       259   7  8.162201E+04  1.731235E+04  1.715689E+04  7.868936E+03 -2.288561E+02  2.657863E+03
       259   8  9.543890E+04  2.067510E+04  2.094670E+04  3.919260E+03 -9.267410E+02  3.298241E+03
       259   9  1.093725E+05  2.442107E+04  2.527114E+04  8.038524E+03 -1.624510E+03  3.925152E+03
       259  10 -5.833441E+04 -1.722843E+04 -1.558862E+04  7.587514E+03 -1.643055E-10 -1.905620E-09
       259  11 -7.226478E+04 -2.069515E+04 -1.819327E+04  3.467161E+03 -1.063847E-09 -1.399967E-08
       259  12 -8.608182E+04 -2.378174E+04 -2.027553E+04  7.415880E+03 -3.826301E-09 -2.176077E-09
       259  13  1.164154E+04  4.213426E+01  7.842913E+02  7.728219E+03 -2.235238E-09 -5.152303E-09
       259  14  1.158382E+04 -9.784297E+00  1.376945E+03  3.693199E+03 -2.196656E-09  6.237386E-09
       259  15  1.164094E+04  3.199967E+02  2.498111E+03  7.727184E+03 -1.004201E-09  1.158755E-09
       259  16  8.162201E+04  1.731235E+04  1.715687E+04  7.868937E+03  1.531621E-10  3.905476E-09
       259  17  9.543890E+04  2.067508E+04  2.094668E+04  3.919263E+03 -2.315142E-09 -8.763633E-09
       259  18  1.093725E+05  2.442106E+04  2.527110E+04  8.038529E+03  1.852281E-09  1.062613E-08
       259  19 -5.833441E+04 -1.722842E+04 -1.558861E+04  7.587511E+03  1.070831E+03 -2.654738E+03
       259  20 -7.226477E+04 -2.069514E+04 -1.819324E+04  3.467156E+03  1.751099E+03 -3.295238E+03
       259  21 -8.608181E+04 -2.378172E+04 -2.027549E+04  7.415873E+03  2.431220E+03 -3.922267E+03
       259  22  1.164154E+04  4.214195E+01  7.843053E+02  7.728218E+03  6.498672E+02 -2.656300E+03
       259  23  1.158382E+04 -9.772144E+00  1.376969E+03  3.693196E+03  1.338948E+03 -3.296739E+03
       259  24  1.164094E+04  3.200144E+02  2.498147E+03  7.727178E+03  2.027896E+03 -3.923710E+03
       259  25  8.162201E+04  1.731235E+04  1.715689E+04  7.868936E+03  2.288561E+02 -2.657863E+03
       259  26  9.543890E+04  2.067510E+04  2.094670E+04  3.919260E+03  9.267410E+02 -3.298241E+03
       259  27  1.093725E+05  2.442107E+04  2.527114E+04  8.038524E+03  1.624510E+03 -3.925152E+03
       260   1 -1.003416E+05 -2.781885E+04 -2.300250E+04  7.949388E+03 -3.012299E+03  4.326412E+03
       260   2 -1.148316E+05 -3.142953E+04 -2.392458E+04  3.086133E+03 -5.654981E+03  4.933813E+03
       260   3 -1.280886E+05 -3.124002E+04 -2.218938E+04  6.279087E+03 -8.296613E+03  5.296029E+03
       260   4  1.189465E+04 -1.276435E+02  3.227528E+03  7.728664E+03 -2.533425E+03  4.328111E+03
       260   5  1.126416E+04 -3.176597E+02  5.512049E+03  3.694470E+03 -5.335480E+03  4.934889E+03
       260   6  1.189380E+04  3.319753E+03  1.056413E+04  7.716364E+03 -8.136543E+03  5.296499E+03
       260   7  1.241425E+05  2.756267E+04  2.945670E+04  7.507890E+03 -2.054465E+03  4.329809E+03
       260   8  1.373746E+05  3.079309E+04  3.494760E+04  4.302917E+03 -5.015914E+03  4.935966E+03
       260   9  1.518942E+05  3.787814E+04  4.331632E+04  9.153950E+03 -7.976437E+03  5.296970E+03
       260  10 -1.003416E+05 -2.781887E+04 -2.300255E+04  7.949398E+03  1.212827E-08 -3.737131E-09
       260  11 -1.148316E+05 -3.142957E+04 -2.392469E+04  3.086156E+03  8.970849E-09  8.786453E-09
       260  12 -1.280887E+05 -3.124007E+04 -2.218957E+04  6.279123E+03  4.426990E-09 -3.837003E-09
       260  13  1.189464E+04 -1.276654E+02  3.227480E+03  7.728673E+03 -2.268788E-09 -9.342008E-09
       260  14  1.126413E+04 -3.176935E+02  5.511950E+03  3.694491E+03 -5.571741E-11  3.164186E-09
       260  15  1.189372E+04  3.319706E+03  1.056396E+04  7.716398E+03  2.395771E-10  2.335783E-09
       260  16  1.241425E+05  2.756265E+04  2.945666E+04  7.507897E+03 -1.577013E-08  9.457684E-10
       260  17  1.373745E+05  3.079305E+04  3.494751E+04  4.302937E+03 -1.116963E-08 -1.272466E-08
       260  18  1.518942E+05  3.787809E+04  4.331614E+04  9.153984E+03 -7.348830E-09  4.499496E-09
       260  19 -1.003416E+05 -2.781885E+04 -2.300250E+04  7.949388E+03  3.012299E+03 -4.326412E+03
       260  20 -1.148316E+05 -3.142953E+04 -2.392458E+04  3.086133E+03  5.654981E+03 -4.933813E+03
       260  21 -1.280886E+05 -3.124002E+04 -2.218938E+04  6.279087E+03  8.296613E+03 -5.296029E+03
       260  22  1.189465E+04 -1.276435E+02  3.227528E+03  7.728664E+03  2.533425E+03 -4.328111E+03
       260  23  1.126416E+04 -3.176597E+02  5.512049E+03  3.694470E+03  5.335480E+03 -4.934889E+03
       260  24  1.189380E+04  3.319753E+03  1.056413E+04  7.716364E+03  8.136543E+03 -5.296499E+03
       260  25  1.241425E+05  2.756267E+04  2.945670E+04  7.507890E+03  2.054465E+03 -4.329809E+03
       260  26  1.373746E+05  3.079309E+04  3.494760E+04  4.302917E+03  5.015914E+03 -4.935966E+03
       260  27  1.518942E+05  3.787814E+04  4.331632E+04  9.153950E+03  7.976437E+03 -5.296970E+03
       261   1 -1.402118E+05 -4.015606E+04 -2.293732E+04  1.293705E+04 -1.163170E+04  6.222544E+03
       261   2 -1.600526E+05 -4.519566E+04 -1.797332E+04 -1.279134E+03 -2.021576E+04  6.332853E+03
       261   3 -1.679255E+05 -6.653983E+03  3.466960E+03 -7.672401E+03 -2.878454E+04  1.995095E+03
       261   4  1.438249E+04 -2.080352E+03  1.306219E+04  7.713522E+03 -1.010182E+04  6.227889E+03
       261   5  8.149848E+03 -3.640368E+03  2.138831E+04  3.733119E+03 -2.157047E+04  6.327963E+03
       261   6  1.438182E+04  3.887493E+04  4.819069E+04  7.575266E+03 -3.302407E+04  1.980222E+03
       261   7  1.689989E+05  3.599378E+04  4.906012E+04  2.488665E+03 -8.571558E+03  6.233208E+03
       261   8  1.763784E+05  3.791300E+04  6.074803E+04  8.746716E+03 -2.292555E+04  6.323051E+03
       261   9  1.967200E+05  8.440224E+04  9.291217E+04  2.282740E+04 -3.726483E+04  1.965143E+03
       261  10 -1.402120E+05 -4.015614E+04 -2.293765E+04  1.293711E+04 -9.162102E-11 -1.513165E-09
       261  11 -1.600530E+05 -4.519581E+04 -1.797417E+04 -1.279031E+03  4.595793E-09  6.482809E-10
       261  12 -1.679264E+05 -6.654210E+03  3.465395E+03 -7.672354E+03  4.651496E-09  8.511309E-09
       261  13  1.438237E+04 -2.080421E+03  1.306193E+04  7.713573E+03  9.469534E-10 -1.490912E-09
       261  14  8.149338E+03 -3.640536E+03  2.138736E+04  3.733229E+03  2.059376E-09 -9.559487E-10
       261  15  1.438065E+04  3.887463E+04  4.818864E+04  7.575319E+03  1.401102E-09  4.351836E-09
       261  16  1.689988E+05  3.599371E+04  4.905990E+04  2.488708E+03 -1.850334E-11  7.780852E-09
       261  17  1.763778E+05  3.791282E+04  6.074697E+04  8.746833E+03 -5.745208E-09  7.892086E-09
       261  18  1.967185E+05  8.440186E+04  9.290956E+04  2.282746E+04 -6.995292E-09 -4.303006E-09
       261  19 -1.402118E+05 -4.015606E+04 -2.293732E+04  1.293705E+04  1.163170E+04 -6.222544E+03
       261  20 -1.600526E+05 -4.519566E+04 -1.797332E+04 -1.279134E+03  2.021576E+04 -6.332853E+03
       261  21 -1.679255E+05 -6.653983E+03  3.466960E+03 -7.672401E+03  2.878454E+04 -1.995095E+03
       261  22  1.438249E+04 -2.080352E+03  1.306219E+04  7.713522E+03  1.010182E+04 -6.227889E+03
       261  23  8.149848E+03 -3.640368E+03  2.138831E+04  3.733119E+03  2.157047E+04 -6.327963E+03
       261  24  1.438182E+04  3.887493E+04  4.819069E+04  7.575266E+03  3.302407E+04 -1.980222E+03
       261  25  1.689989E+05  3.599378E+04  4.906012E+04  2.488665E+03  8.571558E+03 -6.233208E+03
       261  26  1.763784E+05  3.791300E+04  6.074803E+04  8.746716E+03  2.292555E+04 -6.323051E+03
       261  27  1.967200E+05  8.440224E+04  9.291217E+04  2.282740E+04  3.726483E+04 -1.965143E+03
       262   1 -3.122382E+05 -1.345736E+06 -3.350958E+05  1.283327E+05 -8.350739E+03 -1.067549E+05
       262   2 -1.535580E+05 -1.176023E+06 -2.172389E+05  5.590574E+04 -2.485326E+04 -5.998939E+04
       262   3 -1.213139E+05 -1.043061E+06 -1.613309E+05  7.053622E+04 -2.037553E+04 -1.314525E+04
       262   4 -1.089137E+05 -5.318001E+05 -1.349804E+05  8.494585E+04 -8.399076E+03 -8.945866E+04
       262   5  9.953719E+03 -5.145745E+05 -6.225059E+04  4.159460E+04 -2.486139E+04 -5.622660E+04
       262   6  4.811805E+03 -5.317229E+05 -4.200958E+04  8.530365E+04 -2.034899E+04 -2.292833E+04
       262   7  9.436838E+04  2.827441E+05  6.508832E+04  4.150239E+04 -8.449808E+03 -7.213966E+04
       262   8  1.734351E+05  1.472784E+05  9.270800E+04  2.726837E+04 -2.486970E+04 -5.245979E+04
       262   9  1.309199E+05 -2.014216E+04  7.729450E+04  1.000835E+05 -2.032293E+04 -3.271942E+04
       262  10 -3.122413E+05 -1.345748E+06 -3.351174E+05  1.283319E+05 -1.603522E-10  2.780253E-09
       262  11 -1.535597E+05 -1.176027E+06 -2.172469E+05  5.590454E+04 -4.611875E-10  1.085787E-09
       262  12 -1.213144E+05 -1.043062E+06 -1.613320E+05  7.053601E+04  1.302142E-09 -6.258179E-09
       262  13 -1.089159E+05 -5.318087E+05 -1.349955E+05  8.494524E+04  1.708040E-09  7.381390E-09
       262  14  9.952206E+03 -5.145781E+05 -6.225770E+04  4.159347E+04  8.023208E-10 -6.047172E-09
       262  15  4.811220E+03 -5.317235E+05 -4.201135E+04  8.530327E+04  1.806365E-09  3.158669E-09
       262  16  9.436691E+04  2.827385E+05  6.507841E+04  4.150190E+04  1.461079E-09 -1.480478E-09
       262  17  1.734337E+05  1.472753E+05  9.270167E+04  2.726732E+04  6.051229E-09 -3.159166E-09
       262  18  1.309192E+05 -2.014342E+04  7.729171E+04  1.000829E+05 -2.777687E-09  3.884358E-09
       262  19 -3.122382E+05 -1.345736E+06 -3.350958E+05  1.283327E+05  8.350739E+03  1.067549E+05
       262  20 -1.535580E+05 -1.176023E+06 -2.172389E+05  5.590574E+04  2.485326E+04  5.998939E+04
       262  21 -1.213139E+05 -1.043061E+06 -1.613309E+05  7.053622E+04  2.037553E+04  1.314525E+04
       262  22 -1.089137E+05 -5.318001E+05 -1.349804E+05  8.494585E+04  8.399076E+03  8.945866E+04
       262  23  9.953719E+03 -5.145745E+05 -6.225059E+04  4.159460E+04  2.486139E+04  5.622660E+04
       262  24  4.811805E+03 -5.317229E+05 -4.200958E+04  8.530365E+04  2.034899E+04  2.292833E+04
       262  25  9.436838E+04  2.827441E+05  6.508832E+04  4.150239E+04  8.449808E+03  7.213966E+04
       262  26  1.734351E+05  1.472784E+05  9.270800E+04  2.726837E+04  2.486970E+04  5.245979E+04
       262  27  1.309199E+05 -2.014216E+04  7.729450E+04  1.000835E+05  2.032293E+04  3.271942E+04
       263   1 -9.617269E+04 -8.777116E+05 -1.193430E+05  9.044281E+04 -1.353595E+04 -1.277503E+04
       263   2 -4.786126E+04 -7.225527E+05 -7.528313E+04  4.177212E+04 -7.872531E+03  2.053550E+03
       263   3 -1.986470E+04 -5.737894E+05 -4.583946E+04  8.145349E+04 -1.685038E+03  1.688483E+04
       263   4 -9.156538E+03 -5.254679E+05 -3.692794E+04  8.547792E+04 -1.352648E+04 -1.630113E+04
       263   5  1.579537E+03 -5.222820E+05 -2.849830E+04  4.130405E+04 -7.862890E+03 -1.806314E+03
       263   6 -7.935794E+03 -5.254524E+05 -3.444709E+04  8.548158E+04 -1.675166E+03  1.268765E+04
       263   7  7.785089E+04 -1.731096E+05  4.547873E+04  8.051025E+04 -1.351696E+04 -1.982922E+04
       263   8  5.101749E+04 -3.219742E+05  1.828386E+04  4.083585E+04 -7.853246E+03 -5.667416E+03
       263   9  3.993020E+03 -4.771132E+05 -2.305480E+04  8.950998E+04 -1.665350E+03  8.490145E+03
       263  10 -9.617293E+04 -8.777119E+05 -1.193437E+05  9.044267E+04  1.711113E-09  5.980574E-10
       263  11 -4.786132E+04 -7.225528E+05 -7.528326E+04  4.177213E+04 -3.350756E-10  4.280236E-09
       263  12 -1.986478E+04 -5.737897E+05 -4.584000E+04  8.145351E+04 -1.685734E-09  1.765902E-10
       263  13 -9.156806E+03 -5.254683E+05 -3.692878E+04  8.547774E+04 -5.784287E-10  4.677668E-09
       263  14  1.579469E+03 -5.222820E+05 -2.849842E+04  4.130404E+04  1.657570E-09 -2.400309E-09
       263  15 -7.935840E+03 -5.254526E+05 -3.444740E+04  8.548160E+04 -3.748753E-09  1.328617E-09
       263  16  7.785059E+04 -1.731101E+05  4.547765E+04  8.051003E+04 -3.380644E-09  1.323044E-09
       263  17  5.101742E+04 -3.219743E+05  1.828368E+04  4.083581E+04 -1.661727E-09 -4.299646E-09
       263  18  3.992997E+03 -4.771133E+05 -2.305494E+04  8.950999E+04 -2.468463E-09  1.628379E-09
       263  19 -9.617269E+04 -8.777116E+05 -1.193430E+05  9.044281E+04  1.353595E+04  1.277503E+04
       263  20 -4.786126E+04 -7.225527E+05 -7.528313E+04  4.177212E+04  7.872531E+03 -2.053550E+03
       263  21 -1.986470E+04 -5.737894E+05 -4.583946E+04  8.145349E+04  1.685038E+03 -1.688483E+04
       263  22 -9.156538E+03 -5.254679E+05 -3.692794E+04  8.547792E+04  1.352648E+04  1.630113E+04
       263  23  1.579537E+03 -5.222820E+05 -2.849830E+04  4.130405E+04  7.862890E+03  1.806314E+03
       263  24 -7.935794E+03 -5.254524E+05 -3.444709E+04  8.548158E+04  1.675166E+03 -1.268765E+04
       263  25  7.785089E+04 -1.731096E+05  4.547873E+04  8.051025E+04  1.351696E+04  1.982922E+04
       263  26  5.101749E+04 -3.219742E+05  1.828386E+04  4.083585E+04  7.853246E+03  5.667416E+03
       263  27  3.993020E+03 -4.771132E+05 -2.305480E+04  8.950998E+04  1.665350E+03 -8.490145E+03
       264   1  3.142144E+04 -4.198478E+05 -1.242895E+04  9.918967E+04  4.023308E+03  2.623783E+04
       264   2  7.372144E+04 -2.532564E+05  6.042712E+03  2.960449E+04  9.636715E+03  4.841023E+04
       264   3  7.841585E+03 -1.159491E+05 -1.683407E+04  4.782447E+04  3.693834E+03  7.055878E+04
       264   4  4.084173E+03 -5.308425E+05 -3.845324E+04  8.544350E+04  4.040066E+03  1.882006E+04
       264   5  8.871168E+03 -5.155525E+05 -5.545836E+04  4.140808E+04  9.637739E+03  4.846604E+04
       264   6 -9.584730E+04 -5.308865E+05 -1.190200E+05  8.518523E+04  3.678762E+03  7.808245E+04
       264   7 -2.325322E+04 -6.418253E+05 -6.447807E+04  7.169980E+04  4.057154E+03  1.140361E+04
       264   8 -5.598350E+04 -7.777850E+05 -1.169641E+05  5.320667E+04  9.638765E+03  4.852182E+04
       264   9 -1.995438E+05 -9.456642E+05 -2.212177E+05  1.225211E+05  3.664592E+03  8.560108E+04
       264  10  3.142124E+04 -4.198485E+05 -1.243028E+04  9.918959E+04 -1.217432E-09 -2.677217E-09
       264  11  7.372071E+04 -2.532589E+05  6.038132E+03  2.960412E+04  2.716594E-09 -2.220205E-09
       264  12  7.840233E+03 -1.159544E+05 -1.684345E+04  4.782426E+04  1.091143E-09 -4.065839E-09
       264  13  4.084060E+03 -5.308429E+05 -3.845394E+04  8.544344E+04 -4.308697E-10  6.497012E-09
       264  14  8.870437E+03 -5.155551E+05 -5.546295E+04  4.140770E+04  1.026092E-09 -3.527578E-09
       264  15 -9.584895E+04 -5.308931E+05 -1.190315E+05  8.518500E+04  2.745238E-09  3.775831E-09
       264  16 -2.325328E+04 -6.418255E+05 -6.447834E+04  7.169976E+04 -2.988231E-09  5.056672E-09
       264  17 -5.598423E+04 -7.777876E+05 -1.169687E+05  5.320630E+04  4.295546E-09 -1.166627E-09
       264  18 -1.995458E+05 -9.456721E+05 -2.212316E+05  1.225208E+05  2.836588E-09  2.649429E-09
       264  19  3.142144E+04 -4.198478E+05 -1.242895E+04  9.918967E+04 -4.023308E+03 -2.623783E+04
       264  20  7.372144E+04 -2.532564E+05  6.042712E+03  2.960449E+04 -9.636715E+03 -4.841023E+04
       264  21  7.841585E+03 -1.159491E+05 -1.683407E+04  4.782447E+04 -3.693834E+03 -7.055878E+04
       264  22  4.084173E+03 -5.308425E+05 -3.845324E+04  8.544350E+04 -4.040066E+03 -1.882006E+04
       264  23  8.871168E+03 -5.155525E+05 -5.545836E+04  4.140808E+04 -9.637739E+03 -4.846604E+04
       264  24 -9.584730E+04 -5.308865E+05 -1.190200E+05  8.518523E+04 -3.678762E+03 -7.808245E+04
       264  25 -2.325322E+04 -6.418253E+05 -6.447807E+04  7.169980E+04 -4.057154E+03 -1.140361E+04
       264  26 -5.598350E+04 -7.777850E+05 -1.169641E+05  5.320667E+04 -9.638765E+03 -4.852182E+04
       264  27 -1.995438E+05 -9.456642E+05 -2.212177E+05  1.225211E+05 -3.664592E+03 -8.560108E+04
       265   1  5.687123E+05  1.914817E+05  1.153908E+05  2.109651E+05  5.817872E+04  2.064557E+04
       265   2  5.505651E+05  1.022645E+05  6.048107E+04  2.131052E+05  3.741350E+04  9.993067E+03
       265   3  5.579298E+05  9.348884E+04  4.223343E+04  2.022046E+05  1.559154E+04  2.130108E+03
       265   4  4.811663E+05  1.350290E+05  8.714085E+04  1.631958E+05  5.585051E+04  1.976038E+04
       265   5  4.639271E+05  6.255544E+04  3.681219E+04  1.820090E+05  3.678106E+04  9.752763E+03
       265   6  4.718679E+05  7.019269E+04  2.180555E+04  1.877802E+05  1.665456E+04  2.533374E+03
       265   7  3.936301E+05  7.858294E+04  5.889058E+04  1.154346E+05  5.352268E+04  1.887555E+04
       265   8  3.772968E+05  2.284810E+04  1.314272E+04  1.509171E+05  3.614872E+04  9.512515E+03
       265   9  3.858128E+05  4.689625E+04  1.377099E+03  1.733571E+05  1.771743E+04  2.936619E+03
       265  10  5.687086E+05  1.914804E+05  1.153837E+05  2.109641E+05 -8.171783E-11  4.985424E-10
       265  11  5.505636E+05  1.022640E+05  6.047825E+04  2.131049E+05  7.565785E-10  4.791126E-09
       265  12  5.579295E+05  9.348877E+04  4.223296E+04  2.022046E+05 -1.139635E-10  5.672404E-09
       265  13  4.811629E+05  1.350277E+05  8.713426E+04  1.631949E+05  6.367745E-10 -7.811518E-09
       265  14  4.639256E+05  6.255498E+04  3.680947E+04  1.820087E+05 -2.032082E-09  8.306649E-09
       265  15  4.718676E+05  7.019261E+04  2.180502E+04  1.877802E+05 -8.162659E-11 -5.466495E-10
       265  16  3.936269E+05  7.858179E+04  5.888453E+04  1.154338E+05 -1.740569E-09  4.472199E-09
       265  17  3.772954E+05  2.284765E+04  1.314010E+04  1.509168E+05  3.050879E-10 -3.398775E-10
       265  18  3.858125E+05  4.689616E+04  1.376493E+03  1.733571E+05 -3.766060E-09 -2.472047E-09
       265  19  5.687123E+05  1.914817E+05  1.153908E+05  2.109651E+05 -5.817872E+04 -2.064557E+04
       265  20  5.505651E+05  1.022645E+05  6.048107E+04  2.131052E+05 -3.741350E+04 -9.993067E+03
       265  21  5.579298E+05  9.348884E+04  4.223343E+04  2.022046E+05 -1.559154E+04 -2.130108E+03
       265  22  4.811663E+05  1.350290E+05  8.714085E+04  1.631958E+05 -5.585051E+04 -1.976038E+04
       265  23  4.639271E+05  6.255544E+04  3.681219E+04  1.820090E+05 -3.678106E+04 -9.752763E+03
       265  24  4.718679E+05  7.019269E+04  2.180555E+04  1.877802E+05 -1.665456E+04 -2.533374E+03
       265  25  3.936301E+05  7.858294E+04  5.889058E+04  1.154346E+05 -5.352268E+04 -1.887555E+04
       265  26  3.772968E+05  2.284810E+04  1.314272E+04  1.509171E+05 -3.614872E+04 -9.512515E+03
       265  27  3.858128E+05  4.689625E+04  1.377099E+03  1.733571E+05 -1.771743E+04 -2.936619E+03
       266   1  5.333986E+05  1.045661E+05  3.455227E+04  2.025038E+05  1.318799E+04  2.042729E+03
       266   2  5.228662E+05  8.979268E+04  2.241229E+04  1.967445E+05  8.462933E+03  7.340959E+02
       266   3  5.098987E+05  8.747123E+04  1.553218E+04  1.956762E+05  3.675231E+03 -4.090235E+02
       266   4  4.690747E+05  7.847282E+04  1.759845E+04  1.828791E+05  1.339327E+04  2.120499E+03
       266   5  4.698848E+05  6.934430E+04  8.671175E+03  1.816387E+05  8.769137E+03  8.501852E+02
       266   6  4.682399E+05  7.264814E+04  4.924220E+03  1.850890E+05  4.082264E+03 -2.546654E+02
       266   7  4.047549E+05  5.237997E+04  6.442886E+02  1.632564E+05  1.359854E+04  2.198260E+03
       266   8  4.169062E+05  4.889618E+04 -5.070145E+03  1.665340E+05  9.075311E+03  9.662629E+02
       266   9  4.265829E+05  5.782516E+04 -5.683834E+03  1.745024E+05  4.489266E+03 -1.003178E+02
       266  10  5.333984E+05  1.045661E+05  3.455193E+04  2.025037E+05  3.375886E-09  5.871342E-09
       266  11  5.228661E+05  8.979266E+04  2.241215E+04  1.967445E+05  3.310858E-09 -2.161466E-09
       266  12  5.098987E+05  8.747123E+04  1.553215E+04  1.956762E+05  7.643262E-11 -1.078018E-08
       266  13  4.690745E+05  7.847277E+04  1.759811E+04  1.828791E+05 -1.676121E-09  1.718485E-09
       266  14  4.698847E+05  6.934428E+04  8.671029E+03  1.816387E+05 -4.976452E-09 -8.051377E-09
       266  15  4.682399E+05  7.264813E+04  4.924189E+03  1.850890E+05 -4.044975E-10  2.358387E-09
       266  16  4.047547E+05  5.237991E+04  6.439323E+02  1.632564E+05 -4.050701E-09 -5.882930E-09
       266  17  4.169061E+05  4.889616E+04 -5.070301E+03  1.665340E+05 -2.821093E-09  1.224473E-08
       266  18  4.265829E+05  5.782516E+04 -5.683872E+03  1.745024E+05  4.289644E-10  1.121962E-08
       266  19  5.333986E+05  1.045661E+05  3.455227E+04  2.025038E+05 -1.318799E+04 -2.042729E+03
       266  20  5.228662E+05  8.979268E+04  2.241229E+04  1.967445E+05 -8.462933E+03 -7.340959E+02
       266  21  5.098987E+05  8.747123E+04  1.553218E+04  1.956762E+05 -3.675231E+03  4.090235E+02
       266  22  4.690747E+05  7.847282E+04  1.759845E+04  1.828791E+05 -1.339327E+04 -2.120499E+03
       266  23  4.698848E+05  6.934430E+04  8.671175E+03  1.816387E+05 -8.769137E+03 -8.501852E+02
       266  24  4.682399E+05  7.264814E+04  4.924220E+03  1.850890E+05 -4.082264E+03  2.546654E+02
       266  25  4.047549E+05  5.237997E+04  6.442886E+02  1.632564E+05 -1.359854E+04 -2.198260E+03
       266  26  4.169062E+05  4.889618E+04 -5.070145E+03  1.665340E+05 -9.075311E+03 -9.662629E+02
       266  27  4.265829E+05  5.782516E+04 -5.683834E+03  1.745024E+05 -4.489266E+03  1.003178E+02
       267   1  4.952232E+05  8.375369E+04  1.081932E+04  1.922652E+05  2.885306E+03 -2.829738E+02
       267   2  4.856036E+05  7.570800E+04  5.922025E+03  1.858050E+05  1.633336E+03 -8.286502E+01
       267   3  4.707715E+05  7.387196E+04  1.957626E+03  1.855245E+05  3.777600E+02  1.267201E+02
       267   4  4.679291E+05  7.336633E+04  3.808311E+03  1.846231E+05  3.240606E+03 -1.482320E+02
       267   5  4.704994E+05  7.000724E+04  2.029040E+03  1.816299E+05  1.994436E+03  5.408348E+01
       267   6  4.678562E+05  7.285677E+04  1.178184E+03  1.848165E+05  7.446412E+02  2.658676E+02
       267   7  4.406355E+05  6.297898E+04 -3.202780E+03  1.769812E+05  3.595890E+03 -1.349630E+01
       267   8  4.553955E+05  6.430649E+04 -1.863971E+03  1.774550E+05  2.355528E+03  1.910286E+02
       267   9  4.649410E+05  7.184158E+04  3.987417E+02  1.841086E+05  1.111521E+03  4.050144E+02
       267  10  4.952232E+05  8.375369E+04  1.081930E+04  1.922652E+05 -4.810331E-09 -2.619842E-09
       267  11  4.856036E+05  7.570800E+04  5.922020E+03  1.858050E+05  1.850326E-09  5.740171E-09
       267  12  4.707715E+05  7.387196E+04  1.957626E+03  1.855245E+05  5.084329E-09 -3.455477E-09
       267  13  4.679290E+05  7.336632E+04  3.808292E+03  1.846231E+05 -1.003516E-09 -4.414946E-09
       267  14  4.704994E+05  7.000724E+04  2.029033E+03  1.816299E+05  1.008517E-09  7.152793E-09
       267  15  4.678562E+05  7.285677E+04  1.178183E+03  1.848165E+05  2.799724E-09 -3.813697E-10
       267  16  4.406355E+05  6.297898E+04 -3.202804E+03  1.769812E+05  1.621566E-09  7.511454E-10
       267  17  4.553955E+05  6.430648E+04 -1.863982E+03  1.774550E+05 -2.166828E-09  5.016007E-09
       267  18  4.649410E+05  7.184158E+04  3.987390E+02  1.841086E+05  1.868120E-09 -7.380182E-09
       267  19  4.952232E+05  8.375369E+04  1.081932E+04  1.922652E+05 -2.885306E+03  2.829738E+02
       267  20  4.856036E+05  7.570800E+04  5.922025E+03  1.858050E+05 -1.633336E+03  8.286502E+01
       267  21  4.707715E+05  7.387196E+04  1.957626E+03  1.855245E+05 -3.777600E+02 -1.267201E+02
       267  22  4.679291E+05  7.336633E+04  3.808311E+03  1.846231E+05 -3.240606E+03  1.482320E+02
       267  23  4.704994E+05  7.000724E+04  2.029040E+03  1.816299E+05 -1.994436E+03 -5.408348E+01
       267  24  4.678562E+05  7.285677E+04  1.178184E+03  1.848165E+05 -7.446412E+02 -2.658676E+02
       267  25  4.406355E+05  6.297898E+04 -3.202780E+03  1.769812E+05 -3.595890E+03  1.349630E+01
       267  26  4.553955E+05  6.430649E+04 -1.863971E+03  1.774550E+05 -2.355528E+03 -1.910286E+02
       267  27  4.649410E+05  7.184158E+04  3.987417E+02  1.841086E+05 -1.111521E+03 -4.050144E+02
       268   1  4.570582E+05  6.885107E+04 -1.884958E+03  1.818060E+05  7.440457E+01  4.127214E+02
       268   2  4.475462E+05  6.138827E+04 -5.311330E+03  1.752729E+05 -4.644376E+02  8.947195E+02
       268   3  4.325167E+05  5.957596E+04 -8.489102E+03  1.750403E+05 -1.003711E+03  1.377982E+03
       268   4  4.678150E+05  7.291632E+04  9.324426E+02  1.847737E+05  4.383385E+02  5.507495E+02
       268   5  4.705711E+05  7.007212E+04  6.219196E+02  1.816307E+05 -9.975052E+01  1.033023E+03
       268   6  4.678094E+05  7.287820E+04  5.594167E+02  1.847880E+05 -6.382793E+02  1.516561E+03
       268   7  4.785719E+05  7.698157E+04  3.749824E+03  1.877414E+05  8.022780E+02  6.887797E+02
       268   8  4.935965E+05  7.875599E+04  6.555126E+03  1.879887E+05  2.649514E+02  1.171333E+03
       268   9  5.031035E+05  8.618058E+04  9.607868E+03  1.945363E+05 -2.728234E+02  1.655149E+03
       268  10  4.570582E+05  6.885107E+04 -1.884959E+03  1.818060E+05 -4.729152E-09 -4.471364E-09
       268  11  4.475462E+05  6.138827E+04 -5.311332E+03  1.752729E+05  7.479801E-10  9.594062E-09
       268  12  4.325167E+05  5.957596E+04 -8.489108E+03  1.750403E+05  8.047568E-09 -3.402244E-09
       268  13  4.678150E+05  7.291632E+04  9.324416E+02  1.847737E+05  4.759405E-09 -5.738492E-09
       268  14  4.705711E+05  7.007211E+04  6.219176E+02  1.816307E+05  3.595889E-09 -1.081718E-08
       268  15  4.678094E+05  7.287820E+04  5.594116E+02  1.847880E+05 -2.150153E-09 -2.438762E-09
       268  16  4.785719E+05  7.698157E+04  3.749822E+03  1.877414E+05  1.395129E-08  6.528007E-09
       268  17  4.935965E+05  7.875599E+04  6.555124E+03  1.879887E+05  4.413667E-10 -1.744098E-08
       268  18  5.031035E+05  8.618057E+04  9.607863E+03  1.945363E+05 -9.252963E-09  1.204031E-09
       268  19  4.570582E+05  6.885107E+04 -1.884958E+03  1.818060E+05 -7.440457E+01 -4.127214E+02
       268  20  4.475462E+05  6.138827E+04 -5.311330E+03  1.752729E+05  4.644376E+02 -8.947195E+02
       268  21  4.325167E+05  5.957596E+04 -8.489102E+03  1.750403E+05  1.003711E+03 -1.377982E+03
       268  22  4.678150E+05  7.291632E+04  9.324426E+02  1.847737E+05 -4.383385E+02 -5.507495E+02
       268  23  4.705711E+05  7.007212E+04  6.219196E+02  1.816307E+05  9.975052E+01 -1.033023E+03
       268  24  4.678094E+05  7.287820E+04  5.594167E+02  1.847880E+05  6.382793E+02 -1.516561E+03
       268  25  4.785719E+05  7.698157E+04  3.749824E+03  1.877414E+05 -8.022780E+02 -6.887797E+02
       268  26  4.935965E+05  7.875599E+04  6.555126E+03  1.879887E+05 -2.649514E+02 -1.171333E+03
       268  27  5.031035E+05  8.618058E+04  9.607868E+03  1.945363E+05  2.728234E+02 -1.655149E+03
       269   1  4.188495E+05  5.443411E+04 -1.205791E+04  1.713077E+05 -1.233344E+03  1.691983E+03
       269   2  4.092756E+05  4.696181E+04 -1.494564E+04  1.647181E+05 -1.885189E+03  2.135088E+03
       269   3  3.941835E+05  4.520646E+04 -1.749186E+04  1.644642E+05 -2.537284E+03  2.579146E+03
       269   4  4.678075E+05  7.288345E+04  5.995762E+02  1.847993E+05 -8.672428E+02  1.830805E+03
       269   5  4.705712E+05  7.005656E+04  8.455887E+02  1.816195E+05 -1.518570E+03  2.274082E+03
       269   6  4.678162E+05  7.294644E+04  1.432663E+03  1.847752E+05 -2.170155E+03  2.718309E+03
       269   7  5.167680E+05  9.133295E+04  1.325686E+04  1.982920E+05 -5.011099E+02  1.969639E+03
       269   8  5.318703E+05  9.315152E+04  1.663647E+04  1.985224E+05 -1.151911E+03  2.413091E+03
       269   9  5.414540E+05  1.006867E+05  2.035667E+04  2.050884E+05 -1.802979E+03  2.857490E+03
       269  10  4.188494E+05  5.443411E+04 -1.205792E+04  1.713077E+05  2.103836E-09 -1.701656E-09
       269  11  4.092756E+05  4.696180E+04 -1.494565E+04  1.647181E+05 -2.036975E-09  4.948396E-09
       269  12  3.941835E+05  4.520645E+04 -1.749188E+04  1.644642E+05  3.561925E-09 -9.343132E-09
       269  13  4.678075E+05  7.288345E+04  5.995684E+02  1.847993E+05 -2.008472E-09  1.781431E-08
       269  14  4.705712E+05  7.005656E+04  8.455747E+02  1.816195E+05 -5.792178E-09 -5.834929E-09
       269  15  4.678162E+05  7.294643E+04  1.432641E+03  1.847752E+05 -1.033185E-09 -7.545377E-09
       269  16  5.167680E+05  9.133294E+04  1.325685E+04  1.982920E+05 -2.698391E-09  3.040909E-09
       269  17  5.318703E+05  9.315151E+04  1.663646E+04  1.985224E+05  3.002529E-10 -5.351809E-09
       269  18  5.414540E+05  1.006867E+05  2.035665E+04  2.050884E+05 -7.595117E-10 -1.324824E-09
       269  19  4.188495E+05  5.443411E+04 -1.205791E+04  1.713077E+05  1.233344E+03 -1.691983E+03
       269  20  4.092756E+05  4.696181E+04 -1.494564E+04  1.647181E+05  1.885189E+03 -2.135088E+03
       269  21  3.941835E+05  4.520646E+04 -1.749186E+04  1.644642E+05  2.537284E+03 -2.579146E+03
       269  22  4.678075E+05  7.288345E+04  5.995762E+02  1.847993E+05  8.672428E+02 -1.830805E+03
       269  23  4.705712E+05  7.005656E+04  8.455887E+02  1.816195E+05  1.518570E+03 -2.274082E+03
       269  24  4.678162E+05  7.294644E+04  1.432663E+03  1.847752E+05  2.170155E+03 -2.718309E+03
       269  25  5.167680E+05  9.133295E+04  1.325686E+04  1.982920E+05  5.011099E+02 -1.969639E+03
       269  26  5.318703E+05  9.315152E+04  1.663647E+04  1.985224E+05  1.151911E+03 -2.413091E+03
       269  27  5.414540E+05  1.006867E+05  2.035667E+04  2.050884E+05  1.802979E+03 -2.857490E+03
       270   1  3.803609E+05  4.002428E+04 -2.070461E+04  1.608798E+05 -2.949109E+03  2.830058E+03
       270   2  3.705910E+05  3.227743E+04 -2.244855E+04  1.540385E+05 -4.826646E+03  2.814152E+03
       270   3  3.557507E+05  3.123681E+04 -2.269016E+04  1.534165E+05 -6.698446E+03  2.783489E+03
       270   4  4.678721E+05  7.286458E+04  1.860029E+03  1.848636E+05 -2.575394E+03  2.971697E+03
       270   5  4.704655E+05  6.992677E+04  3.285784E+03  1.815959E+05 -4.462169E+03  2.952251E+03
       270   6  4.679905E+05  7.369696E+04  6.221069E+03  1.845476E+05 -6.343239E+03  2.918035E+03
       270   7  5.553911E+05  1.057055E+05  2.442412E+04  2.088506E+05 -2.201620E+03  3.113359E+03
       270   8  5.703500E+05  1.075768E+05  2.901934E+04  2.091574E+05 -4.097627E+03  3.090375E+03
       270   9  5.802425E+05  1.161580E+05  3.513126E+04  2.156837E+05 -5.987962E+03  3.052608E+03
       270  10  3.803609E+05  4.002427E+04 -2.070464E+04  1.608798E+05  4.903542E-09 -7.704252E-09
       270  11  3.705909E+05  3.227742E+04 -2.244860E+04  1.540385E+05  7.201911E-10  8.096965E-09
       270  12  3.557507E+05  3.123679E+04 -2.269026E+04  1.534166E+05  8.863099E-10  5.270827E-09
       270  13  4.678721E+05  7.286457E+04  1.860000E+03  1.848636E+05 -8.140306E-10 -3.217922E-09
       270  14  4.704655E+05  6.992676E+04  3.285730E+03  1.815959E+05  4.533482E-10 -1.080924E-08
       270  15  4.679904E+05  7.369694E+04  6.220978E+03  1.845476E+05  2.641594E-10 -9.106947E-09
       270  16  5.553911E+05  1.057055E+05  2.442409E+04  2.088506E+05 -4.295335E-10  5.196120E-09
       270  17  5.703500E+05  1.075768E+05  2.901929E+04  2.091574E+05  1.528541E-09  1.149771E-08
       270  18  5.802425E+05  1.161579E+05  3.513118E+04  2.156837E+05  2.225915E-09 -6.735908E-09
       270  19  3.803609E+05  4.002428E+04 -2.070461E+04  1.608798E+05  2.949109E+03 -2.830058E+03
       270  20  3.705910E+05  3.227743E+04 -2.244855E+04  1.540385E+05  4.826646E+03 -2.814152E+03
       270  21  3.557507E+05  3.123681E+04 -2.269016E+04  1.534165E+05  6.698446E+03 -2.783489E+03
       270  22  4.678721E+05  7.286458E+04  1.860029E+03  1.848636E+05  2.575394E+03 -2.971697E+03
       270  23  4.704655E+05  6.992677E+04  3.285784E+03  1.815959E+05  4.462169E+03 -2.952251E+03
       270  24  4.679905E+05  7.369696E+04  6.221069E+03  1.845476E+05  6.343239E+03 -2.918035E+03
       270  25  5.553911E+05  1.057055E+05  2.442412E+04  2.088506E+05  2.201620E+03 -3.113359E+03
       270  26  5.703500E+05  1.075768E+05  2.901934E+04  2.091574E+05  4.097627E+03 -3.090375E+03
       270  27  5.802425E+05  1.161580E+05  3.513126E+04  2.156837E+05  5.987962E+03 -3.052608E+03
       271   1  3.411082E+05  2.598076E+04 -2.452800E+04  1.516859E+05 -8.088054E+03  2.711898E+03
       271   2  3.310293E+05  1.588569E+04 -2.161141E+04  1.426307E+05 -1.544574E+04  6.024737E+02
       271   3  3.203282E+05  2.272167E+04 -1.034319E+04  1.374184E+05 -2.269171E+04 -1.801068E+03
       271   4  4.684914E+05  7.253150E+04  8.056383E+03  1.853243E+05 -7.639429E+03  2.881832E+03
       271   5  4.694679E+05  6.882308E+04  1.420354E+04  1.815934E+05 -1.517731E+04  7.040395E+02
       271   6  4.698566E+05  8.207951E+04  2.884367E+04  1.817053E+05 -2.260365E+04 -1.767963E+03
       271   7  5.958900E+05  1.190829E+05  4.063932E+04  2.189689E+05 -7.190705E+03  3.051802E+03
       271   8  6.079251E+05  1.217619E+05  5.001689E+04  2.205641E+05 -1.490881E+04  8.056312E+02
       271   9  6.194074E+05  1.414397E+05  6.802877E+04  2.260021E+05 -2.251557E+04 -1.734848E+03
       271  10  3.411081E+05  2.598073E+04 -2.452813E+04  1.516859E+05 -4.968600E-09 -2.067272E-09
       271  11  3.310291E+05  1.588562E+04 -2.161185E+04  1.426307E+05 -5.713455E-09  5.073219E-09
       271  12  3.203276E+05  2.272153E+04 -1.034416E+04  1.374184E+05  5.130584E-09 -3.335239E-09
       271  13  4.684914E+05  7.253148E+04  8.056258E+03  1.853244E+05 -2.604207E-09 -9.170148E-09
       271  14  4.694677E+05  6.882302E+04  1.420311E+04  1.815935E+05  1.556803E-09  1.525467E-08
       271  15  4.698561E+05  8.207937E+04  2.884271E+04  1.817052E+05  4.238372E-10  3.467556E-09
       271  16  5.958899E+05  1.190829E+05  4.063921E+04  2.189689E+05  6.340269E-09  3.415296E-09
       271  17  6.079249E+05  1.217618E+05  5.001647E+04  2.205641E+05  6.251320E-10 -2.030538E-09
       271  18  6.194069E+05  1.414396E+05  6.802781E+04  2.260021E+05 -1.533161E-09  3.059048E-09
       271  19  3.411082E+05  2.598076E+04 -2.452800E+04  1.516859E+05  8.088054E+03 -2.711898E+03
       271  20  3.310293E+05  1.588569E+04 -2.161141E+04  1.426307E+05  1.544574E+04 -6.024737E+02
       271  21  3.203282E+05  2.272167E+04 -1.034319E+04  1.374184E+05  2.269171E+04  1.801068E+03
       271  22  4.684914E+05  7.253150E+04  8.056383E+03  1.853243E+05  7.639429E+03 -2.881832E+03
       271  23  4.694679E+05  6.882308E+04  1.420354E+04  1.815934E+05  1.517731E+04 -7.040395E+02
       271  24  4.698566E+05  8.207951E+04  2.884367E+04  1.817053E+05  2.260365E+04  1.767963E+03
       271  25  5.958900E+05  1.190829E+05  4.063932E+04  2.189689E+05  7.190705E+03 -3.051802E+03
       271  26  6.079251E+05  1.217619E+05  5.001689E+04  2.205641E+05  1.490881E+04 -8.056312E+02
       271  27  6.194074E+05  1.414397E+05  6.802877E+04  2.260021E+05  2.251557E+04  1.734848E+03
       272   1  2.975853E+05  1.686546E+04 -6.921584E+03  1.562710E+05 -2.951330E+04 -3.215426E+03
       272   2  2.893410E+05 -1.802434E+04  1.424220E+04  1.234610E+05 -5.931983E+04 -1.428480E+04
       272   3  3.251827E+05  7.446741E+04  9.091985E+04  6.547941E+04 -8.723862E+04 -3.033841E+04
       272   4  4.744379E+05  6.850630E+04  3.574215E+04  1.897379E+05 -2.789031E+04 -2.600126E+03
       272   5  4.597060E+05  5.768629E+04  6.034226E+04  1.821933E+05 -6.073246E+04 -1.482111E+04
       272   6  4.896453E+05  1.748245E+05  1.428502E+05  1.494816E+05 -9.168675E+04 -3.202862E+04
       272   7  6.513215E+05  1.201468E+05  7.840387E+04  2.232122E+05 -2.626682E+04 -1.984730E+03
       272   8  6.300986E+05  1.334018E+05  1.064395E+05  2.409410E+05 -6.214550E+04 -1.535765E+04
       272   9  6.541357E+05  2.751981E+05  1.947775E+05  2.335072E+05 -9.613610E+04 -3.371998E+04
       272  10  2.975844E+05  1.686521E+04 -6.923239E+03  1.562709E+05  5.462106E-09 -3.745610E-09
       272  11  2.893372E+05 -1.802551E+04  1.423521E+04  1.234603E+05 -1.203238E-09 -5.739872E-09
       272  12  3.251743E+05  7.446438E+04  9.090383E+04  6.547728E+04 -2.473182E-09  2.209287E-09
       272  13  4.744371E+05  6.850609E+04  3.574068E+04  1.897379E+05  1.183711E-09 -4.642069E-09
       272  14  4.597019E+05  5.768507E+04  6.033492E+04  1.821926E+05  2.669528E-09 -5.167943E-09
       272  15  4.896360E+05  1.748212E+05  1.428325E+05  1.494793E+05 -1.141759E-09  5.985430E-09
       272  16  6.513208E+05  1.201466E+05  7.840257E+04  2.232121E+05 -3.315231E-09  1.279310E-08
       272  17  6.300944E+05  1.334005E+05  1.064318E+05  2.409402E+05 -6.555699E-09  6.675690E-10
       272  18  6.541255E+05  2.751944E+05  1.947581E+05  2.335045E+05 -9.732898E-10  5.608395E-09
       272  19  2.975853E+05  1.686546E+04 -6.921584E+03  1.562710E+05  2.951330E+04  3.215426E+03
       272  20  2.893410E+05 -1.802434E+04  1.424220E+04  1.234610E+05  5.931983E+04  1.428480E+04
       272  21  3.251827E+05  7.446741E+04  9.091985E+04  6.547941E+04  8.723862E+04  3.033841E+04
       272  22  4.744379E+05  6.850630E+04  3.574215E+04  1.897379E+05  2.789031E+04  2.600126E+03
       272  23  4.597060E+05  5.768629E+04  6.034226E+04  1.821933E+05  6.073246E+04  1.482111E+04
       272  24  4.896453E+05  1.748245E+05  1.428502E+05  1.494816E+05  9.168675E+04  3.202862E+04
       272  25  6.513215E+05  1.201468E+05  7.840387E+04  2.232122E+05  2.626682E+04  1.984730E+03
       272  26  6.300986E+05  1.334018E+05  1.064395E+05  2.409410E+05  6.214550E+04  1.535765E+04
       272  27  6.541357E+05  2.751981E+05  1.947775E+05  2.335072E+05  9.613610E+04  3.371998E+04
       273   1 -8.431749E+04 -6.369395E+05 -9.340707E+04  3.033834E+04 -1.838028E+03 -3.646844E+04
       273   2 -3.402889E+04 -6.062576E+05 -5.921828E+04  1.291302E+04 -5.735401E+03 -2.109577E+04
       273   3 -3.008398E+04 -5.890437E+05 -4.661421E+04  9.176806E+03 -5.177785E+03 -5.707838E+03
       273   4 -4.005892E+04 -4.598621E+05 -4.990957E+04  1.458427E+04 -1.849873E+03 -3.254036E+04
       273   5  3.764397E+03 -4.533742E+05 -2.341427E+04  7.806868E+03 -5.738478E+03 -2.004927E+04
       273   6  1.750498E+03 -4.598509E+05 -1.649745E+04  1.471908E+04 -5.172054E+03 -7.543612E+03
       273   7  4.198238E+03 -2.827556E+05 -6.414196E+03 -1.174284E+03 -1.861916E+03 -2.861116E+04
       273   8  4.155611E+04 -3.004692E+05  1.238816E+04  2.699466E+03 -5.741573E+03 -1.900251E+04
       273   9  3.358391E+04 -3.306427E+05  1.361821E+04  2.026252E+04 -5.166357E+03 -9.379766E+03
       273  10 -8.431785E+04 -6.369409E+05 -9.340958E+04  3.033828E+04 -2.134899E-09 -1.631871E-09
       273  11 -3.402904E+04 -6.062581E+05 -5.921918E+04  1.291292E+04 -5.764060E-09 -1.582937E-08
       273  12 -3.008401E+04 -5.890437E+05 -4.661432E+04  9.176782E+03  2.203232E-10  5.625032E-10
       273  13 -4.005921E+04 -4.598632E+05 -4.991157E+04  1.458422E+04 -7.435362E-10 -2.133590E-09
       273  14  3.764254E+03 -4.533747E+05 -2.341509E+04  7.806775E+03 -3.884050E-09 -1.101866E-08
       273  15  1.750454E+03 -4.598510E+05 -1.649761E+04  1.471904E+04  1.674110E-09 -1.255699E-08
       273  16  4.198015E+03 -2.827565E+05 -6.415741E+03 -1.174327E+03 -2.691633E-09  1.659775E-09
       273  17  4.155598E+04 -3.004696E+05  1.238742E+04  2.699378E+03 -2.716535E-09  8.041720E-09
       273  18  3.358386E+04 -3.306428E+05  1.361800E+04  2.026248E+04 -2.313028E-10  8.642418E-09
       273  19 -8.431749E+04 -6.369395E+05 -9.340707E+04  3.033834E+04  1.838028E+03  3.646844E+04
       273  20 -3.402889E+04 -6.062576E+05 -5.921828E+04  1.291302E+04  5.735401E+03  2.109577E+04
       273  21 -3.008398E+04 -5.890437E+05 -4.661421E+04  9.176806E+03  5.177785E+03  5.707838E+03
       273  22 -4.005892E+04 -4.598621E+05 -4.990957E+04  1.458427E+04  1.849873E+03  3.254036E+04
       273  23  3.764397E+03 -4.533742E+05 -2.341427E+04  7.806868E+03  5.738478E+03  2.004927E+04
       273  24  1.750498E+03 -4.598509E+05 -1.649745E+04  1.471908E+04  5.172054E+03  7.543612E+03
       273  25  4.198238E+03 -2.827556E+05 -6.414196E+03 -1.174284E+03  1.861916E+03  2.861116E+04
       273  26  4.155611E+04 -3.004692E+05  1.238816E+04  2.699466E+03  5.741573E+03  1.900251E+04
       273  27  3.358391E+04 -3.306427E+05  1.361821E+04  2.026252E+04  5.166357E+03  9.379766E+03
       274   1 -2.888999E+04 -5.615597E+05 -3.926859E+04  1.679697E+04 -3.962851E+03 -4.417680E+03
       274   2 -1.893755E+04 -5.359463E+05 -3.147878E+04  7.845578E+03 -3.141332E+03  2.241749E+03
       274   3 -1.800352E+04 -5.133432E+05 -3.025779E+04  1.290147E+04 -2.111617E+03  8.901924E+03
       274   4 -3.214334E+03 -4.576342E+05 -1.494670E+04  1.474754E+04 -3.961320E+03 -4.896051E+03
       274   5  7.606716E+02 -4.561403E+05 -1.283840E+04  7.742381E+03 -3.139438E+03  1.629373E+03
       274   6 -4.258787E+03 -4.576336E+05 -1.720517E+04  1.474447E+04 -2.109333E+03  8.155290E+03
       274   7  2.246057E+04 -3.536986E+05  9.374457E+03  1.269777E+04 -3.959786E+03 -5.374500E+03
       274   8  2.045844E+04 -3.763284E+05  5.801549E+03  7.639175E+03 -3.137545E+03  1.016919E+03
       274   9  9.485743E+03 -4.019212E+05 -4.152750E+03  1.658764E+04 -2.107054E+03  7.408588E+03
       274  10 -2.889001E+04 -5.615597E+05 -3.926866E+04  1.679696E+04  5.363544E-11 -8.487517E-09
       274  11 -1.893756E+04 -5.359463E+05 -3.147881E+04  7.845584E+03 -7.895996E-10 -1.785664E-08
       274  12 -1.800355E+04 -5.133433E+05 -3.025795E+04  1.290148E+04  2.796706E-10 -4.116437E-09
       274  13 -3.214357E+03 -4.576342E+05 -1.494677E+04  1.474752E+04  1.509215E-09 -2.161449E-09
       274  14  7.606603E+02 -4.561403E+05 -1.283842E+04  7.742385E+03 -3.302646E-10  2.102299E-09
       274  15 -4.258809E+03 -4.576337E+05 -1.720530E+04  1.474449E+04 -3.313683E-10 -1.464434E-08
       274  16  2.246054E+04 -3.536987E+05  9.374373E+03  1.269775E+04  1.854848E-09  4.144096E-09
       274  17  2.045843E+04 -3.763284E+05  5.801529E+03  7.639178E+03  2.465814E-09  1.034663E-08
       274  18  9.485724E+03 -4.019212E+05 -4.152861E+03  1.658765E+04  1.547351E-09  6.674653E-09
       274  19 -2.888999E+04 -5.615597E+05 -3.926859E+04  1.679697E+04  3.962851E+03  4.417680E+03
       274  20 -1.893755E+04 -5.359463E+05 -3.147878E+04  7.845578E+03  3.141332E+03 -2.241749E+03
       274  21 -1.800352E+04 -5.133432E+05 -3.025779E+04  1.290147E+04  2.111617E+03 -8.901924E+03
       274  22 -3.214334E+03 -4.576342E+05 -1.494670E+04  1.474754E+04  3.961320E+03  4.896051E+03
       274  23  7.606716E+02 -4.561403E+05 -1.283840E+04  7.742381E+03  3.139438E+03 -1.629373E+03
       274  24 -4.258787E+03 -4.576336E+05 -1.720517E+04  1.474447E+04  2.109333E+03 -8.155290E+03
       274  25  2.246057E+04 -3.536986E+05  9.374457E+03  1.269777E+04  3.959786E+03  5.374500E+03
       274  26  2.045844E+04 -3.763284E+05  5.801549E+03  7.639175E+03  3.137545E+03 -1.016919E+03
       274  27  9.485743E+03 -4.019212E+05 -4.152750E+03  1.658764E+04  2.107054E+03 -7.408588E+03
       275   1 -5.059578E+03 -4.910555E+05 -2.681015E+04  2.239282E+04 -1.345419E+03  1.214405E+04
       275   2  3.367111E+03 -4.586314E+05 -3.103719E+04  1.628160E+03 -3.653109E+02  2.751658E+04
       275   3 -4.724987E+04 -4.428671E+05 -6.001485E+04 -5.221096E+03 -9.056373E+01  4.288739E+04
       275   4  2.482876E+03 -4.606867E+05 -1.975479E+04  1.477785E+04 -1.342891E+03  1.125118E+04
       275   5  4.875365E+03 -4.523226E+05 -2.958763E+04  7.738595E+03 -3.637320E+02  2.708018E+04
       275   6 -5.185564E+04 -4.606988E+05 -6.448853E+04  1.461485E+04 -8.925337E+01  4.290687E+04
       275   7  1.002548E+04 -4.303170E+05 -1.269946E+04  7.162514E+03 -1.340341E+03  1.035826E+04
       275   8  6.383757E+03 -4.460137E+05 -2.813806E+04  1.384909E+04 -3.621618E+02  2.664377E+04
       275   9 -5.645994E+04 -4.785294E+05 -6.896202E+04  3.445022E+04 -8.794173E+01  4.292635E+04
       275  10 -5.059620E+03 -4.910556E+05 -2.681043E+04  2.239283E+04  1.733994E-09 -3.719659E-09
       275  11  3.366907E+03 -4.586322E+05 -3.103861E+04  1.628168E+03  1.880719E-09 -1.994056E-08
       275  12 -4.725037E+04 -4.428691E+05 -6.001831E+04 -5.221093E+03  1.281012E-10 -3.002504E-09
       275  13  2.482840E+03 -4.606869E+05 -1.975503E+04  1.477787E+04  2.360815E-09  4.214179E-11
       275  14  4.875168E+03 -4.523234E+05 -2.958901E+04  7.738603E+03 -1.825307E-09 -1.097288E-09
       275  15 -5.185613E+04 -4.607008E+05 -6.449199E+04  1.461485E+04 -2.424407E-10 -1.106583E-08
       275  16  1.002545E+04 -4.303171E+05 -1.269966E+04  7.162525E+03  1.369325E-09  2.732007E-09
       275  17  6.383567E+03 -4.460145E+05 -2.813939E+04  1.384910E+04 -8.693574E-10  1.301870E-08
       275  18 -5.646044E+04 -4.785313E+05 -6.896548E+04  3.445022E+04 -1.797438E-09  5.685455E-09
       275  19 -5.059578E+03 -4.910555E+05 -2.681015E+04  2.239282E+04  1.345419E+03 -1.214405E+04
       275  20  3.367111E+03 -4.586314E+05 -3.103719E+04  1.628160E+03  3.653109E+02 -2.751658E+04
       275  21 -4.724987E+04 -4.428671E+05 -6.001485E+04 -5.221096E+03  9.056373E+01 -4.288739E+04
       275  22  2.482876E+03 -4.606867E+05 -1.975479E+04  1.477785E+04  1.342891E+03 -1.125118E+04
       275  23  4.875365E+03 -4.523226E+05 -2.958763E+04  7.738595E+03  3.637320E+02 -2.708018E+04
       275  24 -5.185564E+04 -4.606988E+05 -6.448853E+04  1.461485E+04  8.925337E+01 -4.290687E+04
       275  25  1.002548E+04 -4.303170E+05 -1.269946E+04  7.162514E+03  1.340341E+03 -1.035826E+04
       275  26  6.383757E+03 -4.460137E+05 -2.813806E+04  1.384909E+04  3.621618E+02 -2.664377E+04
       275  27 -5.645994E+04 -4.785294E+05 -6.896202E+04  3.445022E+04  8.794173E+01 -4.292635E+04
       276   1 -7.820957E+04 -9.405997E+04 -7.973475E+04 -6.652638E+03  2.911627E+04  6.644156E+03
       276   2 -3.898287E+04 -1.358325E+05 -9.669539E+04 -6.352623E+03  2.349905E+04  2.021991E+04
       276   3  1.502255E+04 -1.224650E+05 -9.616720E+04 -3.264879E+04  1.789753E+04  1.966912E+04
       276   4  5.003116E+05  4.992336E+04  6.206419E+04 -2.519679E+04  4.252043E+04  6.658782E+03
       276   5  4.921476E+05 -4.797637E+03  2.753216E+04 -1.187166E+04  2.773908E+04  2.022254E+04
       276   6  5.003362E+05 -2.814216E+03  1.683786E+04 -2.514049E+04  1.297396E+04  1.966488E+04
       276   7  1.079139E+06  1.938833E+05  2.038395E+05 -4.375833E+04  5.593704E+04  6.672600E+03
       276   8  1.023538E+06  1.262174E+05  1.517406E+05 -1.739552E+04  3.198270E+04  2.022509E+04
       276   9  9.858671E+05  1.168201E+05  1.298271E+05 -1.762632E+04  8.046569E+03  1.966052E+04
       276  10 -7.821049E+04 -9.406024E+04 -7.973643E+04 -6.652793E+03  1.503597E-10  6.136361E-11
       276  11 -3.898357E+04 -1.358331E+05 -9.669719E+04 -6.353006E+03  3.068161E-10  2.050537E-11
       276  12  1.502210E+04 -1.224655E+05 -9.616853E+04 -3.264907E+04 -9.139651E-11 -6.464941E-11
       276  13  5.003096E+05  4.992283E+04  6.206071E+04 -2.519701E+04  9.433441E-10  7.040442E-12
       276  14  4.921467E+05 -4.798283E+03  2.752995E+04 -1.187212E+04 -1.284744E-10 -1.177353E-11
       276  15  5.003359E+05 -2.814677E+03  1.683681E+04 -2.514070E+04 -9.964128E-11  4.969129E-12
       276  16  1.079135E+06  1.938824E+05  2.038335E+05 -4.375863E+04 -4.646746E-10 -1.590124E-11
       276  17  1.023537E+06  1.262167E+05  1.517379E+05 -1.739604E+04  3.309127E-10 -7.700779E-12
       276  18  9.858670E+05  1.168197E+05  1.298263E+05 -1.762645E+04 -3.635315E-10  1.492241E-11
       276  19 -7.820957E+04 -9.405997E+04 -7.973475E+04 -6.652638E+03 -2.911627E+04 -6.644156E+03
       276  20 -3.898287E+04 -1.358325E+05 -9.669539E+04 -6.352623E+03 -2.349905E+04 -2.021991E+04
       276  21  1.502255E+04 -1.224650E+05 -9.616720E+04 -3.264879E+04 -1.789753E+04 -1.966912E+04
       276  22  5.003116E+05  4.992336E+04  6.206419E+04 -2.519679E+04 -4.252043E+04 -6.658782E+03
       276  23  4.921476E+05 -4.797637E+03  2.753216E+04 -1.187166E+04 -2.773908E+04 -2.022254E+04
       276  24  5.003362E+05 -2.814216E+03  1.683786E+04 -2.514049E+04 -1.297396E+04 -1.966488E+04
       276  25  1.079139E+06  1.938833E+05  2.038395E+05 -4.375833E+04 -5.593704E+04 -6.672600E+03
       276  26  1.023538E+06  1.262174E+05  1.517406E+05 -1.739552E+04 -3.198270E+04 -2.022509E+04
       276  27  9.858671E+05  1.168201E+05  1.298271E+05 -1.762632E+04 -8.046569E+03 -1.966052E+04
       277   1  6.011998E+04 -1.036705E+05 -8.858414E+04 -2.398271E+04  1.100878E+04  1.662957E+04
       277   2  1.050580E+05 -9.694219E+04 -8.416404E+04 -1.163034E+04  7.897422E+03  1.536388E+04
       277   3  1.517258E+05 -8.545654E+04 -7.650023E+04 -2.589179E+04  4.784931E+03  1.332811E+04
       277   4  4.971139E+05  4.141797E+03  1.361870E+04 -2.516179E+04  1.044413E+04  1.662843E+04
       277   5  4.962125E+05 -4.808296E+02  7.112914E+03 -1.185439E+04  6.831430E+03  1.536280E+04
       277   6  4.971246E+05 -2.607224E+02  4.197186E+03 -2.515970E+04  3.217818E+03  1.332730E+04
       277   7  9.342838E+05  1.119405E+05  1.158085E+05 -2.634172E+04  9.879093E+03  1.662730E+04
       277   8  8.875080E+05  9.596971E+04  9.837950E+04 -1.207859E+04  5.764769E+03  1.536172E+04
       277   9  8.426333E+05  8.492664E+04  8.488651E+04 -2.442721E+04  1.649838E+03  1.332648E+04
       277  10  6.011978E+04 -1.036708E+05 -8.858489E+04 -2.398286E+04 -2.447381E-10  5.585307E-12
       277  11  1.050579E+05 -9.694246E+04 -8.416460E+04 -1.163043E+04  1.316070E-10  1.799004E-10
       277  12  1.517257E+05 -8.545673E+04 -7.650061E+04 -2.589184E+04  9.932731E-11 -1.679239E-10
       277  13  4.971137E+05  4.141471E+03  1.361797E+04 -2.516193E+04  3.624338E-10  1.181507E-10
       277  14  4.962124E+05 -4.810956E+02  7.112382E+03 -1.185447E+04 -1.353789E-10 -5.620946E-11
       277  15  4.971245E+05 -2.609160E+02  4.196833E+03 -2.515974E+04  3.423202E-10 -1.347732E-10
       277  16  9.342836E+05  1.119402E+05  1.158078E+05 -2.634185E+04  1.701846E-11  1.018947E-10
       277  17  8.875079E+05  9.596945E+04  9.837899E+04 -1.207866E+04  1.195209E-11  9.871682E-13
       277  18  8.426332E+05  8.492645E+04  8.488617E+04 -2.442723E+04 -5.765720E-10 -3.378950E-11
       277  19  6.011998E+04 -1.036705E+05 -8.858414E+04 -2.398271E+04 -1.100878E+04 -1.662957E+04
       277  20  1.050580E+05 -9.694219E+04 -8.416404E+04 -1.163034E+04 -7.897422E+03 -1.536388E+04
       277  21  1.517258E+05 -8.545654E+04 -7.650023E+04 -2.589179E+04 -4.784931E+03 -1.332811E+04
       277  22  4.971139E+05  4.141797E+03  1.361870E+04 -2.516179E+04 -1.044413E+04 -1.662843E+04
       277  23  4.962125E+05 -4.808296E+02  7.112914E+03 -1.185439E+04 -6.831430E+03 -1.536280E+04
       277  24  4.971246E+05 -2.607224E+02  4.197186E+03 -2.515970E+04 -3.217818E+03 -1.332730E+04
       277  25  9.342838E+05  1.119405E+05  1.158085E+05 -2.634172E+04 -9.879093E+03 -1.662730E+04
       277  26  8.875080E+05  9.596971E+04  9.837950E+04 -1.207859E+04 -5.764769E+03 -1.536172E+04
       277  27  8.426333E+05  8.492664E+04  8.488651E+04 -2.442721E+04 -1.649838E+03 -1.332648E+04
       278   1  1.989864E+05 -7.309714E+04 -6.609634E+04 -2.508283E+04  3.883492E+03  1.199822E+04
       278   2  2.441975E+05 -6.231152E+04 -5.704539E+04 -1.193490E+04  2.984876E+03  9.936827E+03
       278   3  2.896755E+05 -5.111560E+04 -4.729716E+04 -2.515596E+04  2.085298E+03  7.838409E+03
       278   4  4.967892E+05  3.134140E+02  3.264855E+03 -2.510599E+04  2.560236E+03  1.199768E+04
       278   5  4.966573E+05 -6.027293E+01  1.852116E+03 -1.192182E+04  1.637188E+03  9.936545E+03
       278   6  4.967952E+05 -1.924388E+01  1.153621E+03 -2.510598E+04  7.132432E+02  7.838402E+03
       278   7  7.946737E+05  7.371770E+04  7.262006E+04 -2.512916E+04  1.236350E+03  1.199714E+04
       278   8  7.491758E+05  6.218647E+04  6.074531E+04 -1.190873E+04  2.889558E+02  9.936264E+03
       278   9  7.039543E+05  5.107407E+04  4.960149E+04 -2.505598E+04 -6.592665E+02  7.838395E+03
       278  10  1.989864E+05 -7.309730E+04 -6.609663E+04 -2.508287E+04 -1.597236E-10 -1.618446E-10
       278  11  2.441975E+05 -6.231163E+04 -5.704559E+04 -1.193492E+04  3.288946E-10  1.406759E-10
       278  12  2.896755E+05 -5.111567E+04 -4.729729E+04 -2.515598E+04  5.216004E-10  3.965723E-11
       278  13  4.967891E+05  3.132576E+02  3.264572E+03 -2.510602E+04 -2.030503E-10 -5.596330E-11
       278  14  4.966572E+05 -6.037970E+01  1.851925E+03 -1.192183E+04 -1.112546E-11  1.018609E-10
       278  15  4.967951E+05 -1.931001E+01  1.153505E+03 -2.510598E+04 -4.918040E-11 -7.436745E-11
       278  16  7.946737E+05  7.371755E+04  7.261979E+04 -2.512918E+04 -1.924301E-10  7.803000E-11
       278  17  7.491758E+05  6.218636E+04  6.074512E+04 -1.190873E+04 -1.628062E-10  1.539331E-10
       278  18  7.039543E+05  5.107400E+04  4.960138E+04 -2.505597E+04 -7.359279E-10 -1.413738E-10
       278  19  1.989864E+05 -7.309714E+04 -6.609634E+04 -2.508283E+04 -3.883492E+03 -1.199822E+04
       278  20  2.441975E+05 -6.231152E+04 -5.704539E+04 -1.193490E+04 -2.984876E+03 -9.936827E+03
       278  21  2.896755E+05 -5.111560E+04 -4.729716E+04 -2.515596E+04 -2.085298E+03 -7.838409E+03
       278  22  4.967892E+05  3.134140E+02  3.264855E+03 -2.510599E+04 -2.560236E+03 -1.199768E+04
       278  23  4.966573E+05 -6.027293E+01  1.852116E+03 -1.192182E+04 -1.637188E+03 -9.936545E+03
       278  24  4.967952E+05 -1.924388E+01  1.153621E+03 -2.510598E+04 -7.132432E+02 -7.838402E+03
       278  25  7.946737E+05  7.371770E+04  7.262006E+04 -2.512916E+04 -1.236350E+03 -1.199714E+04
       278  26  7.491758E+05  6.218647E+04  6.074531E+04 -1.190873E+04 -2.889558E+02 -9.936264E+03
       278  27  7.039543E+05  5.107407E+04  4.960149E+04 -2.505598E+04  6.592665E+02 -7.838395E+03
       279   1  3.368546E+05 -3.937455E+04 -3.622267E+04 -2.506286E+04  1.880765E+03  6.611786E+03
       279   2  3.819131E+05 -2.831405E+04 -2.606572E+04 -1.194785E+04  1.525505E+03  4.519204E+03
       279   3  4.270298E+05 -1.720397E+04 -1.566596E+04 -2.505598E+04  1.169798E+03  2.427058E+03
       279   4  4.967520E+05  2.363435E+01  9.439102E+02 -2.507365E+04  5.241162E+02  6.611905E+03
       279   5  4.967255E+05 -6.176989E+00  7.167984E+02 -1.196223E+04  1.690096E+02  4.519442E+03
       279   6  4.967545E+05  1.351343E+01  7.322627E+02 -2.507365E+04 -1.865179E+02  2.427421E+03
       279   7  6.566729E+05  3.942002E+04  3.810877E+04 -2.508444E+04 -8.328792E+02  6.612025E+03
       279   8  6.115500E+05  2.830077E+04  2.749843E+04 -1.197661E+04 -1.187734E+03  4.519680E+03
       279   9  5.664838E+05  1.723065E+04  1.713016E+04 -2.509132E+04 -1.542985E+03  2.427785E+03
       279  10  3.368546E+05 -3.937460E+04 -3.622276E+04 -2.506287E+04  9.173474E-11 -9.441000E-11
       279  11  3.819131E+05 -2.831407E+04 -2.606576E+04 -1.194786E+04  3.937796E-10 -4.785437E-11
       279  12  4.270298E+05 -1.720398E+04 -1.566598E+04 -2.505598E+04  4.500408E-10 -9.974645E-11
       279  13  4.967519E+05  2.358732E+01  9.438275E+02 -2.507365E+04 -5.844900E-10 -1.537664E-10
       279  14  4.967255E+05 -6.198935E+00  7.167600E+02 -1.196223E+04 -5.208058E-10  4.251038E-11
       279  15  4.967545E+05  1.350709E+01  7.322516E+02 -2.507365E+04 -4.681191E-10 -1.136720E-10
       279  16  6.566729E+05  3.941997E+04  3.810869E+04 -2.508444E+04 -2.289821E-10 -1.079331E-10
       279  17  6.115500E+05  2.830074E+04  2.749839E+04 -1.197661E+04 -1.018977E-09  3.852684E-11
       279  18  5.664838E+05  1.723065E+04  1.713015E+04 -2.509132E+04 -2.281592E-10 -1.467569E-10
       279  19  3.368546E+05 -3.937455E+04 -3.622267E+04 -2.506286E+04 -1.880765E+03 -6.611786E+03
       279  20  3.819131E+05 -2.831405E+04 -2.606572E+04 -1.194785E+04 -1.525505E+03 -4.519204E+03
       279  21  4.270298E+05 -1.720397E+04 -1.566596E+04 -2.505598E+04 -1.169798E+03 -2.427058E+03
       279  22  4.967520E+05  2.363435E+01  9.439102E+02 -2.507365E+04 -5.241162E+02 -6.611905E+03
       279  23  4.967255E+05 -6.176989E+00  7.167984E+02 -1.196223E+04 -1.690096E+02 -4.519442E+03
       279  24  4.967545E+05  1.351343E+01  7.322627E+02 -2.507365E+04  1.865179E+02 -2.427421E+03
       279  25  6.566729E+05  3.942002E+04  3.810877E+04 -2.508444E+04  8.328792E+02 -6.612025E+03
       279  26  6.115500E+05  2.830077E+04  2.749843E+04 -1.197661E+04  1.187734E+03 -4.519680E+03
       279  27  5.664838E+05  1.723065E+04  1.713016E+04 -2.509132E+04  1.542985E+03 -2.427785E+03
       280   1  4.740957E+05 -5.552298E+03 -4.332833E+03 -2.504187E+04  1.028183E+03  1.209864E+03
       280   2  5.190785E+05  5.502979E+03  6.413574E+03 -1.195435E+04  4.331793E+02 -8.801455E+02
       280   3  5.641495E+05  1.665578E+04  1.756772E+04 -2.505060E+04 -1.617864E+02 -2.968794E+03
       280   4  4.967625E+05  9.244987E+00  8.202632E+02 -2.506499E+04 -3.274926E+02  1.210259E+03
       280   5  4.967190E+05 -9.448021E+00  1.198149E+03 -1.197306E+04 -9.216397E+02 -8.797778E+02
       280   6  4.967618E+05  6.938066E+01  1.983310E+03 -2.506496E+04 -1.515706E+03 -2.968446E+03
       280   7  5.194297E+05  5.570753E+03  5.973333E+03 -2.508811E+04 -1.683218E+03  1.210655E+03
       280   8  4.743600E+05 -5.521909E+03 -4.017302E+03 -1.199177E+04 -2.276410E+03 -8.794099E+02
       280   9  4.293783E+05 -1.651734E+04 -1.360140E+04 -2.507932E+04 -2.869480E+03 -2.968099E+03
       280  10  4.740957E+05 -5.552300E+03 -4.332837E+03 -2.504187E+04 -2.155576E-10 -6.980430E-13
       280  11  5.190785E+05  5.502978E+03  6.413573E+03 -1.195435E+04  4.294194E-11  3.352463E-10
       280  12  5.641495E+05  1.665577E+04  1.756770E+04 -2.505060E+04  2.878686E-10  1.032846E-10
       280  13  4.967625E+05  9.243385E+00  8.202602E+02 -2.506499E+04 -7.080001E-10 -2.570698E-11
       280  14  4.967190E+05 -9.449080E+00  1.198146E+03 -1.197306E+04 -6.319345E-10  3.448946E-10
       280  15  4.967618E+05  6.937058E+01  1.983289E+03 -2.506497E+04 -2.223236E-10  1.170705E-10
       280  16  5.194297E+05  5.570751E+03  5.973325E+03 -2.508810E+04  2.700651E-10 -1.415137E-10
       280  17  4.743600E+05 -5.521911E+03 -4.017314E+03 -1.199178E+04 -3.456495E-10  2.903167E-10
       280  18  4.293783E+05 -1.651735E+04 -1.360143E+04 -2.507933E+04 -2.158222E-10 -1.088231E-10
       280  19  4.740957E+05 -5.552298E+03 -4.332833E+03 -2.504187E+04 -1.028183E+03 -1.209864E+03
       280  20  5.190785E+05  5.502979E+03  6.413574E+03 -1.195435E+04 -4.331793E+02  8.801455E+02
       280  21  5.641495E+05  1.665578E+04  1.756772E+04 -2.505060E+04  1.617864E+02  2.968794E+03
       280  22  4.967625E+05  9.244987E+00  8.202632E+02 -2.506499E+04  3.274926E+02 -1.210259E+03
       280  23  4.967190E+05 -9.448021E+00  1.198149E+03 -1.197306E+04  9.216397E+02  8.797778E+02
       280  24  4.967618E+05  6.938066E+01  1.983310E+03 -2.506496E+04  1.515706E+03  2.968446E+03
       280  25  5.194297E+05  5.570753E+03  5.973333E+03 -2.508811E+04  1.683218E+03 -1.210655E+03
       280  26  4.743600E+05 -5.521909E+03 -4.017302E+03 -1.199177E+04  2.276410E+03  8.794099E+02
       280  27  4.293783E+05 -1.651734E+04 -1.360140E+04 -2.507932E+04  2.869480E+03  2.968099E+03
       281   1  6.113470E+05  2.821140E+04  2.940024E+04 -2.492628E+04 -5.588070E+02 -4.190764E+03
       281   2  6.562303E+05  3.924070E+04  4.161384E+04 -1.194485E+04 -2.764610E+03 -6.281128E+03
       281   3  7.016646E+05  5.128720E+04  5.551787E+04 -2.522196E+04 -4.969965E+03 -8.339170E+03
       281   4  4.968619E+05 -3.837909E+01  2.564847E+03 -2.508170E+04 -1.924938E+03 -4.190477E+03
       281   5  4.965865E+05 -1.143185E+02  4.378942E+03 -1.195217E+04 -4.109302E+03 -6.281019E+03
       281   6  4.968575E+05  8.237269E+02  7.869251E+03 -2.508157E+04 -6.293060E+03 -8.339227E+03
       281   7  3.823888E+05 -2.828908E+04 -2.427143E+04 -2.523710E+04 -3.290819E+03 -4.190189E+03
       281   8  3.369662E+05 -3.947114E+04 -3.285767E+04 -1.195947E+04 -5.453650E+03 -6.280909E+03
       281   9  2.920891E+05 -4.964270E+04 -3.978219E+04 -2.494123E+04 -7.615722E+03 -8.339286E+03
       281  10  6.113470E+05  2.821138E+04  2.940020E+04 -2.492629E+04 -3.005802E-10 -3.525750E-11
       281  11  6.562302E+05  3.924066E+04  4.161375E+04 -1.194487E+04 -3.028963E-10  5.758655E-11
       281  12  7.016645E+05  5.128711E+04  5.551769E+04 -2.522199E+04  2.610516E-10 -2.358932E-10
       281  13  4.968619E+05 -3.839894E+01  2.564807E+03 -2.508171E+04 -3.244623E-10 -9.907156E-11
       281  14  4.965865E+05 -1.143654E+02  4.378836E+03 -1.195219E+04  2.219185E-10 -1.191153E-11
       281  15  4.968575E+05  8.236416E+02  7.869046E+03 -2.508161E+04  1.493507E-10 -1.197173E-10
       281  16  3.823888E+05 -2.828911E+04 -2.427148E+04 -2.523711E+04  7.581183E-13 -1.582157E-10
       281  17  3.369662E+05 -3.947119E+04 -3.285780E+04 -1.195950E+04  8.597212E-11  5.884305E-11
       281  18  2.920891E+05 -4.964279E+04 -3.978243E+04 -2.494128E+04  1.273922E-10 -3.406977E-11
       281  19  6.113470E+05  2.821140E+04  2.940024E+04 -2.492628E+04  5.588070E+02  4.190764E+03
       281  20  6.562303E+05  3.924070E+04  4.161384E+04 -1.194485E+04  2.764610E+03  6.281128E+03
       281  21  7.016646E+05  5.128720E+04  5.551787E+04 -2.522196E+04  4.969965E+03  8.339170E+03
       281  22  4.968619E+05 -3.837909E+01  2.564847E+03 -2.508170E+04  1.924938E+03  4.190477E+03
       281  23  4.965865E+05 -1.143185E+02  4.378942E+03 -1.195217E+04  4.109302E+03  6.281019E+03
       281  24  4.968575E+05  8.237269E+02  7.869251E+03 -2.508157E+04  6.293060E+03  8.339227E+03
       281  25  3.823888E+05 -2.828908E+04 -2.427143E+04 -2.523710E+04  3.290819E+03  4.190189E+03
       281  26  3.369662E+05 -3.947114E+04 -3.285767E+04 -1.195947E+04  5.453650E+03  6.280909E+03
       281  27  2.920891E+05 -4.964270E+04 -3.978219E+04 -2.494123E+04  7.615722E+03  8.339286E+03
       282   1  7.498099E+05  6.160158E+04  6.907429E+04 -2.346443E+04 -6.352886E+03 -9.645869E+03
       282   2  7.931826E+05  7.227380E+04  8.672037E+04 -1.271790E+04 -1.556476E+04 -1.168098E+04
       282   3  8.407940E+05  9.482550E+04  1.133426E+05 -2.839393E+04 -2.477664E+04 -1.306861E+04
       282   4  4.976566E+05 -5.782567E+02  1.015024E+04 -2.511764E+04 -7.880580E+03 -9.646062E+03
       282   5  4.955685E+05 -1.089671E+03  1.729915E+04 -1.190700E+04 -1.666873E+04 -1.168151E+04
       282   6  4.976457E+05  1.020823E+04  3.313337E+04 -2.511950E+04 -2.545623E+04 -1.306940E+04
       282   7  2.455618E+05 -6.276258E+04 -4.877812E+04 -2.677017E+04 -9.407657E+03 -9.646247E+03
       282   8  1.980361E+05 -7.445940E+04 -5.212807E+04 -1.109650E+04 -1.777218E+04 -1.168204E+04
       282   9  1.546058E+05 -7.441735E+04 -4.708384E+04 -2.184690E+04 -2.613544E+04 -1.307019E+04
       282  10  7.498098E+05  6.160147E+04  6.907404E+04 -2.346448E+04 -2.779689E-10 -1.957528E-10
       282  11  7.931823E+05  7.227359E+04  8.671966E+04 -1.271805E+04  9.667594E-13  6.273842E-11
       282  12  8.407933E+05  9.482516E+04  1.133411E+05 -2.839419E+04  3.598908E-11 -1.031745E-10
       282  13  4.976565E+05 -5.783733E+02  1.014995E+04 -2.511770E+04  2.262453E-10 -9.540542E-11
       282  14  4.955682E+05 -1.089892E+03  1.729837E+04 -1.190716E+04 -4.178293E-10  1.056488E-10
       282  15  4.976450E+05  1.020787E+04  3.313184E+04 -2.511977E+04 -5.080120E-10 -1.654123E-10
       282  16  2.455617E+05 -6.276271E+04 -4.877846E+04 -2.677024E+04  2.401825E-11  3.896612E-11
       282  17  1.980357E+05 -7.445963E+04 -5.212892E+04 -1.109667E+04 -4.192643E-10  1.315229E-10
       282  18  1.546050E+05 -7.441772E+04 -4.708544E+04 -2.184718E+04 -4.198931E-10 -1.473587E-10
       282  19  7.498099E+05  6.160158E+04  6.907429E+04 -2.346443E+04  6.352886E+03  9.645869E+03
       282  20  7.931826E+05  7.227380E+04  8.672037E+04 -1.271790E+04  1.556476E+04  1.168098E+04
       282  21  8.407940E+05  9.482550E+04  1.133426E+05 -2.839393E+04  2.477664E+04  1.306861E+04
       282  22  4.976566E+05 -5.782567E+02  1.015024E+04 -2.511764E+04  7.880580E+03  9.646062E+03
       282  23  4.955685E+05 -1.089671E+03  1.729915E+04 -1.190700E+04  1.666873E+04  1.168151E+04
       282  24  4.976457E+05  1.020823E+04  3.313337E+04 -2.511950E+04  2.545623E+04  1.306940E+04
       282  25  2.455618E+05 -6.276258E+04 -4.877812E+04 -2.677017E+04  9.407657E+03  9.646247E+03
       282  26  1.980361E+05 -7.445940E+04 -5.212807E+04 -1.109650E+04  1.777218E+04  1.168204E+04
       282  27  1.546058E+05 -7.441735E+04 -4.708384E+04 -2.184690E+04  2.613544E+04  1.307019E+04
       283   1  8.965119E+05  8.964910E+04  1.319867E+05 -7.327177E+03 -2.726588E+04 -1.581089E+04
       283   2  9.223373E+05  9.611314E+04  1.691143E+05 -2.611281E+04 -7.094596E+04 -1.661340E+04
       283   3  9.888156E+05  2.418568E+05  2.695052E+05 -7.132742E+04 -1.146382E+05 -5.543449E+03
       283   4  5.054597E+05 -6.718892E+03  4.096667E+04 -2.509591E+04 -3.161261E+04 -1.581228E+04
       283   5  4.857709E+05 -1.152303E+04  6.706007E+04 -1.192461E+04 -6.757051E+04 -1.661395E+04
       283   6  5.054211E+05  1.216623E+05  1.510872E+05 -2.517990E+04 -1.035367E+05 -5.543963E+03
       283   7  1.145493E+05 -1.030965E+05 -5.006348E+04 -4.285339E+04 -3.595663E+04 -1.581342E+04
       283   8  4.938031E+04 -1.191719E+05 -3.500699E+04  2.253530E+03 -6.419740E+04 -1.661436E+04
       283   9  2.224407E+04  1.458536E+03  3.265367E+04  2.093164E+04 -9.244382E+04 -5.542832E+03
       283  10  8.965110E+05  8.964863E+04  1.319849E+05 -7.327524E+03 -3.668850E-10 -4.585722E-12
       283  11  9.223318E+05  9.611149E+04  1.691044E+05 -2.611376E+04 -3.322706E-10  1.710670E-10
       283  12  9.888015E+05  2.418533E+05  2.694805E+05 -7.132793E+04  2.613475E-10 -5.191026E-11
       283  13  5.054586E+05 -6.719429E+03  4.096433E+04 -2.509631E+04 -3.249217E-10 -1.516596E-10
       283  14  4.857659E+05 -1.152455E+04  6.705098E+04 -1.192552E+04 -5.852029E-10  2.012107E-11
       283  15  5.054096E+05  1.216594E+05  1.510670E+05 -2.518036E+04 -1.408834E-10  9.992493E-11
       283  16  1.145478E+05 -1.030971E+05 -5.006638E+04 -4.285385E+04 -1.854560E-10 -2.135560E-10
       283  17  4.937581E+04 -1.191733E+05 -3.501525E+04  2.252671E+03  3.962547E-10  4.129032E-10
       283  18  2.223488E+04  1.456209E+03  3.263756E+04  2.093123E+04 -4.097894E-10  1.334260E-10
       283  19  8.965119E+05  8.964910E+04  1.319867E+05 -7.327177E+03  2.726588E+04  1.581089E+04
       283  20  9.223373E+05  9.611314E+04  1.691143E+05 -2.611281E+04  7.094596E+04  1.661340E+04
       283  21  9.888156E+05  2.418568E+05  2.695052E+05 -7.132742E+04  1.146382E+05  5.543449E+03
       283  22  5.054597E+05 -6.718892E+03  4.096667E+04 -2.509591E+04  3.161261E+04  1.581228E+04
       283  23  4.857709E+05 -1.152303E+04  6.706007E+04 -1.192461E+04  6.757051E+04  1.661395E+04
       283  24  5.054211E+05  1.216623E+05  1.510872E+05 -2.517990E+04  1.035367E+05  5.543963E+03
       283  25  1.145493E+05 -1.030965E+05 -5.006348E+04 -4.285339E+04  3.595663E+04  1.581342E+04
       283  26  4.938031E+04 -1.191719E+05 -3.500699E+04  2.253530E+03  6.419740E+04  1.661436E+04
       283  27  2.224407E+04  1.458536E+03  3.265367E+04  2.093164E+04  9.244382E+04  5.542832E+03
       284   1  1.281019E+05  8.263550E+05  1.405189E+05 -6.982540E+04  2.729512E+03  5.444282E+04
       284   2  4.408950E+04  7.314892E+05  7.746340E+04 -3.022620E+04  7.431582E+03  3.297969E+04
       284   3  2.521524E+04  6.555479E+05  4.462407E+04 -3.994495E+04  4.420628E+03  1.150796E+04
       284   4  5.685893E+04  5.405176E+05  7.028614E+04 -4.793289E+04  2.739382E+03  4.889930E+04
       284   5 -5.266471E+03  5.315000E+05  3.065359E+04 -2.331753E+04  7.432899E+03  3.244592E+04
       284   6 -3.110180E+03  5.405415E+05  1.777115E+04 -4.801903E+04  4.413323E+03  1.598096E+04
       284   7 -1.438828E+04  2.547557E+05  4.776987E+01 -2.605043E+04  2.748865E+03  4.335831E+04
       284   8 -5.462511E+04  3.315477E+05 -1.615893E+04 -1.641107E+04  7.434206E+03  3.191232E+04
       284   9 -3.143628E+04  4.255474E+05 -9.082557E+03 -5.609159E+04  4.405902E+03  2.045314E+04
       284  10  1.281011E+05  8.263518E+05  1.405133E+05 -6.982552E+04 -9.399888E-11 -1.903968E-10
       284  11  4.408915E+04  7.314881E+05  7.746126E+04 -3.022640E+04 -4.004438E-10  6.598758E-11
       284  12  2.521519E+04  6.555478E+05  4.462379E+04 -3.994499E+04  9.166240E-10  3.767237E-10
       284  13  5.685828E+04  5.405151E+05  7.028164E+04 -4.793300E+04  9.868377E-10 -6.312632E-11
       284  14 -5.266813E+03  5.314989E+05  3.065151E+04 -2.331772E+04 -1.778653E-09  2.290176E-10
       284  15 -3.110269E+03  5.405412E+05  1.777063E+04 -4.801908E+04  4.697014E-10  1.618993E-11
       284  16 -1.438879E+04  2.547536E+05  4.422433E+01 -2.605053E+04  5.709360E-11  1.946499E-10
       284  17 -5.462544E+04  3.315466E+05 -1.616095E+04 -1.641127E+04  7.143783E-11 -4.019866E-11
       284  18 -3.143641E+04  4.255469E+05 -9.083379E+03 -5.609166E+04  2.798542E-10 -3.981550E-10
       284  19  1.281019E+05  8.263550E+05  1.405189E+05 -6.982540E+04 -2.729512E+03 -5.444282E+04
       284  20  4.408950E+04  7.314892E+05  7.746340E+04 -3.022620E+04 -7.431582E+03 -3.297969E+04
       284  21  2.521524E+04  6.555479E+05  4.462407E+04 -3.994495E+04 -4.420628E+03 -1.150796E+04
       284  22  5.685893E+04  5.405176E+05  7.028614E+04 -4.793289E+04 -2.739382E+03 -4.889930E+04
       284  23 -5.266471E+03  5.315000E+05  3.065359E+04 -2.331753E+04 -7.432899E+03 -3.244592E+04
       284  24 -3.110180E+03  5.405415E+05  1.777115E+04 -4.801903E+04 -4.413323E+03 -1.598096E+04
       284  25 -1.438828E+04  2.547557E+05  4.776987E+01 -2.605043E+04 -2.748865E+03 -4.335831E+04
       284  26 -5.462511E+04  3.315477E+05 -1.615893E+04 -1.641107E+04 -7.434206E+03 -3.191232E+04
       284  27 -3.143628E+04  4.255474E+05 -9.082557E+03 -5.609159E+04 -4.405902E+03 -2.045314E+04
       285   1  1.137925E+04  5.625352E+05  1.966095E+04 -4.932670E+04  1.063870E+03  1.111355E+04
       285   2 -1.490049E+04  4.767619E+05 -8.925117E+03 -2.373643E+04 -2.347141E+03  8.690435E+03
       285   3 -3.762397E+04  3.920124E+05 -3.508819E+04 -4.768678E+04 -5.605662E+03  6.268258E+03
       285   4  5.025117E+03  5.367582E+05  1.367627E+04 -4.803694E+04  1.060204E+03  1.337752E+04
       285   5 -2.378923E+02  5.362411E+05  4.951582E+03 -2.327232E+04 -2.350547E+03  1.085582E+04
       285   6 -1.926876E+03  5.367588E+05 -1.280504E+03 -4.804793E+04 -5.608830E+03  8.334746E+03
       285   7 -1.329056E+03  5.109818E+05  7.691562E+03 -4.674723E+04  1.056546E+03  1.564139E+04
       285   8  1.442446E+04  5.957235E+05  1.882806E+04 -2.280817E+04 -2.353949E+03  1.302142E+04
       285   9  3.376874E+04  6.815245E+05  3.252578E+04 -4.840915E+04 -5.612001E+03  1.040171E+04
       285  10  1.137922E+04  5.625351E+05  1.966072E+04 -4.932671E+04  1.188222E-10 -7.207439E-10
       285  11 -1.490052E+04  4.767618E+05 -8.925269E+03 -2.373641E+04  1.767481E-10 -2.905496E-10
       285  12 -3.762402E+04  3.920123E+05 -3.508833E+04 -4.768675E+04 -6.726512E-10  2.839069E-10
       285  13  5.025068E+03  5.367580E+05  1.367593E+04 -4.803695E+04  4.335395E-10  4.482561E-13
       285  14 -2.379298E+02  5.362409E+05  4.951350E+03 -2.327230E+04  1.058566E-09 -1.447592E-10
       285  15 -1.926928E+03  5.367587E+05 -1.280694E+03 -4.804789E+04  1.048543E-09 -1.139725E-10
       285  16 -1.329123E+03  5.109816E+05  7.691100E+03 -4.674724E+04  2.262816E-10  7.049007E-10
       285  17  1.442441E+04  5.957233E+05  1.882773E+04 -2.280814E+04 -8.504922E-10  3.229363E-10
       285  18  3.376868E+04  6.815244E+05  3.252552E+04 -4.840910E+04 -3.598319E-10 -1.938869E-10
       285  19  1.137925E+04  5.625352E+05  1.966095E+04 -4.932670E+04 -1.063870E+03 -1.111355E+04
       285  20 -1.490049E+04  4.767619E+05 -8.925117E+03 -2.373643E+04  2.347141E+03 -8.690435E+03
       285  21 -3.762397E+04  3.920124E+05 -3.508819E+04 -4.768678E+04  5.605662E+03 -6.268258E+03
       285  22  5.025117E+03  5.367582E+05  1.367627E+04 -4.803694E+04 -1.060204E+03 -1.337752E+04
       285  23 -2.378923E+02  5.362411E+05  4.951582E+03 -2.327232E+04  2.350547E+03 -1.085582E+04
       285  24 -1.926876E+03  5.367588E+05 -1.280504E+03 -4.804793E+04  5.608830E+03 -8.334746E+03
       285  25 -1.329056E+03  5.109818E+05  7.691562E+03 -4.674723E+04 -1.056546E+03 -1.564139E+04
       285  26  1.442446E+04  5.957235E+05  1.882806E+04 -2.280817E+04  2.353949E+03 -1.302142E+04
       285  27  3.376874E+04  6.815245E+05  3.252578E+04 -4.840915E+04  5.612001E+03 -1.040171E+04
       286   1 -5.601599E+04  3.009768E+05 -5.835897E+04 -4.469033E+04 -9.296616E+03  3.520334E+03
       286   2 -7.671761E+04  2.192726E+05 -8.490646E+04 -2.548987E+04 -1.205292E+04  1.588630E+04
       286   3 -1.222163E+05  1.296758E+05 -1.257234E+05 -5.569979E+04 -4.278582E+03  2.826377E+04
       286   4  1.698023E+03  5.350273E+05 -3.790185E+03 -4.800568E+04 -9.304303E+03  8.710745E+03
       286   5  2.003671E+03  5.383799E+05 -1.023905E+04 -2.331543E+04 -1.205023E+04  1.425389E+04
       286   6 -2.129653E+04  5.350205E+05 -2.621690E+04 -4.803489E+04 -4.267680E+03  1.981043E+04
       286   7  5.940822E+04  7.691283E+05  5.077500E+04 -5.132226E+04 -9.312043E+03  1.390310E+04
       286   8  8.071775E+04  8.575809E+05  6.442144E+04 -2.113985E+04 -1.204754E+04  1.262064E+04
       286   9  7.961137E+04  9.405150E+05  7.327784E+04 -4.036494E+04 -4.256991E+03  1.135158E+04
       286  10 -5.601609E+04  3.009768E+05 -5.835915E+04 -4.469031E+04  7.341064E-12 -1.742314E-10
       286  11 -7.671783E+04  2.192723E+05 -8.490721E+04 -2.548971E+04  3.139890E-10 -9.744619E-11
       286  12 -1.222166E+05  1.296749E+05 -1.257249E+05 -5.569969E+04 -1.667167E-10  1.577645E-10
       286  13  1.697910E+03  5.350272E+05 -3.790491E+03 -4.800561E+04 -1.072706E-09  1.220748E-10
       286  14  2.003460E+03  5.383796E+05 -1.023971E+04 -2.331530E+04  3.989085E-10 -1.016975E-10
       286  15 -2.129665E+04  5.350201E+05 -2.621767E+04 -4.803483E+04 -3.224936E-10  4.367994E-11
       286  16  5.940807E+04  7.691281E+05  5.077447E+04 -5.132216E+04  2.752440E-10  1.305491E-10
       286  17  8.071755E+04  8.575807E+05  6.442087E+04 -2.113972E+04 -1.013651E-10 -7.757712E-12
       286  18  7.961131E+04  9.405148E+05  7.327756E+04 -4.036490E+04 -5.157820E-10 -4.533640E-11
       286  19 -5.601599E+04  3.009768E+05 -5.835897E+04 -4.469033E+04  9.296616E+03 -3.520334E+03
       286  20 -7.671761E+04  2.192726E+05 -8.490646E+04 -2.548987E+04  1.205292E+04 -1.588630E+04
       286  21 -1.222163E+05  1.296758E+05 -1.257234E+05 -5.569979E+04  4.278582E+03 -2.826377E+04
       286  22  1.698023E+03  5.350273E+05 -3.790185E+03 -4.800568E+04  9.304303E+03 -8.710745E+03
       286  23  2.003671E+03  5.383799E+05 -1.023905E+04 -2.331543E+04  1.205023E+04 -1.425389E+04
       286  24 -2.129653E+04  5.350205E+05 -2.621690E+04 -4.803489E+04  4.267680E+03 -1.981043E+04
       286  25  5.940822E+04  7.691283E+05  5.077500E+04 -5.132226E+04  9.312043E+03 -1.390310E+04
       286  26  8.071775E+04  8.575809E+05  6.442144E+04 -2.113985E+04  1.204754E+04 -1.262064E+04
       286  27  7.961137E+04  9.405150E+05  7.327784E+04 -4.036494E+04  4.256991E+03 -1.135158E+04
       287   1 -8.252919E+05 -3.537684E+05 -2.524903E+05 -2.846863E+05 -1.076615E+05 -3.540402E+04
       287   2 -7.919150E+05 -1.953823E+05 -1.531180E+05 -2.875781E+05 -7.016284E+04 -1.073798E+04
       287   3 -8.033427E+05 -1.797995E+05 -1.205185E+05 -2.682648E+05 -2.906984E+04  4.386222E+03
       287   4 -4.883493E+05 -1.858942E+05 -1.533922E+05 -1.510107E+05 -9.920340E+04 -3.222931E+04
       287   5 -4.584188E+05 -5.789586E+04 -6.479138E+04 -1.836222E+05 -6.747122E+04 -9.727695E+03
       287   6 -4.721221E+05 -7.151756E+04 -3.836406E+04 -1.940376E+05 -3.214626E+04  3.229765E+03
       287   7 -1.512944E+05 -1.798677E+04 -5.430534E+04 -1.726195E+04 -9.074030E+04 -2.905131E+04
       287   8 -1.248143E+05  7.960388E+04  2.352544E+04 -7.961357E+04 -6.477802E+04 -8.716675E+03
       287   9 -1.407938E+05  3.676565E+04  4.378233E+04 -1.197773E+05 -3.522449E+04  2.072828E+03
       287  10 -8.253047E+05 -3.537729E+05 -2.525145E+05 -2.846893E+05 -5.284372E-10 -7.101640E-11
       287  11 -7.919203E+05 -1.953837E+05 -1.531274E+05 -2.875787E+05 -4.590313E-10 -2.870692E-10
       287  12 -8.033436E+05 -1.797998E+05 -1.205201E+05 -2.682647E+05  8.501878E-10 -6.712404E-10
       287  13 -4.883602E+05 -1.858980E+05 -1.534127E+05 -1.510133E+05  7.216149E-10  1.383503E-11
       287  14 -4.584238E+05 -5.789718E+04 -6.480012E+04 -1.836227E+05 -2.060874E-10 -2.461115E-10
       287  15 -4.721232E+05 -7.151785E+04 -3.836603E+04 -1.940375E+05 -6.511359E-10 -6.672510E-10
       287  16 -1.513035E+05 -1.798989E+04 -5.432240E+04 -1.726407E+04 -3.801148E-10 -1.663637E-11
       287  17 -1.248188E+05  7.960268E+04  2.351741E+04 -7.961403E+04 -9.276981E-11 -2.692198E-10
       287  18 -1.407951E+05  3.676531E+04  4.377999E+04 -1.197773E+05 -4.004797E-10 -6.453878E-10
       287  19 -8.252919E+05 -3.537684E+05 -2.524903E+05 -2.846863E+05  1.076615E+05  3.540402E+04
       287  20 -7.919150E+05 -1.953823E+05 -1.531180E+05 -2.875781E+05  7.016284E+04  1.073798E+04
       287  21 -8.033427E+05 -1.797995E+05 -1.205185E+05 -2.682648E+05  2.906984E+04 -4.386222E+03
       287  22 -4.883493E+05 -1.858942E+05 -1.533922E+05 -1.510107E+05  9.920340E+04  3.222931E+04
       287  23 -4.584188E+05 -5.789586E+04 -6.479138E+04 -1.836222E+05  6.747122E+04  9.727695E+03
       287  24 -4.721221E+05 -7.151756E+04 -3.836406E+04 -1.940376E+05  3.214626E+04 -3.229765E+03
       287  25 -1.512944E+05 -1.798677E+04 -5.430534E+04 -1.726195E+04  9.074030E+04  2.905131E+04
       287  26 -1.248143E+05  7.960388E+04  2.352544E+04 -7.961357E+04  6.477802E+04  8.716675E+03
       287  27 -1.407938E+05  3.676565E+04  4.378233E+04 -1.197773E+05  3.522449E+04 -2.072828E+03
       288   1 -7.580780E+05 -1.986438E+05 -1.067224E+05 -2.684775E+05 -2.600884E+04  3.342035E+03
       288   2 -7.378837E+05 -1.713685E+05 -8.467228E+04 -2.571999E+05 -1.759932E+04  5.886028E+03
       288   3 -7.124772E+05 -1.669391E+05 -7.200526E+04 -2.553164E+05 -8.971762E+03  7.849290E+03
       288   4 -4.670751E+05 -8.624917E+04 -3.096304E+04 -1.855820E+05 -2.616775E+04  3.281699E+03
       288   5 -4.689859E+05 -6.971015E+04 -1.525229E+04 -1.828194E+05 -1.810659E+04  5.695018E+03
       288   6 -4.656133E+05 -7.594439E+04 -8.645043E+03 -1.894513E+05 -9.827733E+03  7.527542E+03
       288   7 -1.759907E+05  2.615175E+04  4.478894E+04 -1.026512E+05 -2.632673E+04  3.221333E+03
       288   8 -2.000176E+05  3.195312E+04  5.416169E+04 -1.084096E+05 -1.861410E+04  5.503917E+03
       288   9 -2.186893E+05  1.505397E+04  5.471042E+04 -1.235626E+05 -1.068408E+04  7.205657E+03
       288  10 -7.580787E+05 -1.986440E+05 -1.067237E+05 -2.684774E+05 -5.433838E-10 -9.726124E-10
       288  11 -7.378841E+05 -1.713686E+05 -8.467293E+04 -2.571999E+05  2.605368E-09  1.166017E-09
       288  12 -7.124773E+05 -1.669392E+05 -7.200553E+04 -2.553164E+05  3.996542E-09  2.543377E-09
       288  13 -4.670758E+05 -8.624937E+04 -3.096435E+04 -1.855819E+05 -3.287527E-10 -6.049593E-10
       288  14 -4.689862E+05 -6.971027E+04 -1.525297E+04 -1.828193E+05  1.620091E-10 -3.812373E-11
       288  15 -4.656134E+05 -7.594448E+04 -8.645331E+03 -1.894513E+05 -9.926077E-10  7.977427E-10
       288  16 -1.759914E+05  2.615155E+04  4.478762E+04 -1.026511E+05  6.060893E-10 -3.717067E-10
       288  17 -2.000180E+05  3.195299E+04  5.416098E+04 -1.084095E+05 -2.439537E-09 -1.083148E-09
       288  18 -2.186894E+05  1.505388E+04  5.471011E+04 -1.235625E+05 -5.420237E-09 -9.758194E-10
       288  19 -7.580780E+05 -1.986438E+05 -1.067224E+05 -2.684775E+05  2.600884E+04 -3.342035E+03
       288  20 -7.378837E+05 -1.713685E+05 -8.467228E+04 -2.571999E+05  1.759932E+04 -5.886028E+03
       288  21 -7.124772E+05 -1.669391E+05 -7.200526E+04 -2.553164E+05  8.971762E+03 -7.849290E+03
       288  22 -4.670751E+05 -8.624917E+04 -3.096304E+04 -1.855820E+05  2.616775E+04 -3.281699E+03
       288  23 -4.689859E+05 -6.971015E+04 -1.525229E+04 -1.828194E+05  1.810659E+04 -5.695018E+03
       288  24 -4.656133E+05 -7.594439E+04 -8.645043E+03 -1.894513E+05  9.827733E+03 -7.527542E+03
       288  25 -1.759907E+05  2.615175E+04  4.478894E+04 -1.026512E+05  2.632673E+04 -3.221333E+03
       288  26 -2.000176E+05  3.195312E+04  5.416169E+04 -1.084096E+05  1.861410E+04 -5.503917E+03
       288  27 -2.186893E+05  1.505397E+04  5.471042E+04 -1.235626E+05  1.068408E+04 -7.205657E+03
       289   1 -6.839020E+05 -1.594750E+05 -6.301185E+04 -2.487026E+05 -7.629165E+03  7.485502E+03
       289   2 -6.649127E+05 -1.438028E+05 -5.370677E+04 -2.359543E+05 -5.388477E+03  7.018434E+03
       289   3 -6.356079E+05 -1.401607E+05 -4.603592E+04 -2.354871E+05 -3.132999E+03  6.510705E+03
       289   4 -4.650150E+05 -7.726894E+04 -6.681036E+03 -1.886964E+05 -8.313128E+03  7.228443E+03
       289   5 -4.701088E+05 -7.079879E+04 -3.541640E+03 -1.827272E+05 -6.096421E+03  6.752517E+03
       289   6 -4.648829E+05 -7.635328E+04 -2.016920E+03 -1.890387E+05 -3.865006E+03  6.235909E+03
       289   7 -2.460813E+05  4.940158E+03  4.964581E+04 -1.286711E+05 -8.997355E+03  6.971285E+03
       289   8 -2.752683E+05  2.207483E+03  4.662026E+04 -1.294850E+05 -6.804607E+03  6.486509E+03
       289   9 -2.941301E+05 -1.254432E+04  4.199950E+04 -1.425790E+05 -4.597232E+03  5.961032E+03
       289  10 -6.839021E+05 -1.594750E+05 -6.301206E+04 -2.487025E+05 -5.815561E-09 -1.092764E-09
       289  11 -6.649127E+05 -1.438029E+05 -5.370692E+04 -2.359543E+05 -2.860385E-09 -1.066981E-09
       289  12 -6.356079E+05 -1.401607E+05 -4.603602E+04 -2.354870E+05  5.140062E-10 -9.902895E-11
       289  13 -4.650151E+05 -7.726901E+04 -6.681264E+03 -1.886963E+05 -1.042378E-09  8.165247E-10
       289  14 -4.701088E+05 -7.079885E+04 -3.541796E+03 -1.827271E+05 -6.999839E-11  1.044459E-11
       289  15 -4.648829E+05 -7.635333E+04 -2.017021E+03 -1.890387E+05 -1.955024E-11 -4.353023E-10
       289  16 -2.460814E+05  4.940084E+03  4.964557E+04 -1.286710E+05  3.627882E-09  2.518770E-09
       289  17 -2.752684E+05  2.207425E+03  4.662009E+04 -1.294850E+05  3.071970E-09  8.294327E-10
       289  18 -2.941301E+05 -1.254437E+04  4.199939E+04 -1.425790E+05 -2.803459E-10 -6.988689E-10
       289  19 -6.839020E+05 -1.594750E+05 -6.301185E+04 -2.487026E+05  7.629165E+03 -7.485502E+03
       289  20 -6.649127E+05 -1.438028E+05 -5.370677E+04 -2.359543E+05  5.388477E+03 -7.018434E+03
       289  21 -6.356079E+05 -1.401607E+05 -4.603592E+04 -2.354871E+05  3.132999E+03 -6.510705E+03
       289  22 -4.650150E+05 -7.726894E+04 -6.681036E+03 -1.886964E+05  8.313128E+03 -7.228443E+03
       289  23 -4.701088E+05 -7.079879E+04 -3.541640E+03 -1.827272E+05  6.096421E+03 -6.752517E+03
       289  24 -4.648829E+05 -7.635328E+04 -2.016920E+03 -1.890387E+05  3.865006E+03 -6.235909E+03
       289  25 -2.460813E+05  4.940158E+03  4.964581E+04 -1.286711E+05  8.997355E+03 -6.971285E+03
       289  26 -2.752683E+05  2.207483E+03  4.662026E+04 -1.294850E+05  6.804607E+03 -6.486509E+03
       289  27 -2.941301E+05 -1.254432E+04  4.199950E+04 -1.425790E+05  4.597232E+03 -5.961032E+03
       290   1 -6.082982E+05 -1.302213E+05 -3.842932E+04 -2.281812E+05 -2.584460E+03  5.917893E+03
       290   2 -5.892837E+05 -1.154407E+05 -3.161213E+04 -2.151752E+05 -1.647838E+03  4.904535E+03
       290   3 -5.593167E+05 -1.118126E+05 -2.518298E+04 -2.148068E+05 -7.093725E+02  3.885450E+03
       290   4 -4.647865E+05 -7.648688E+04 -1.569620E+03 -1.889943E+05 -3.308148E+03  5.646299E+03
       290   5 -4.702561E+05 -7.087204E+04 -9.691336E+02 -1.826896E+05 -2.374877E+03  4.631771E+03
       290   6 -4.647739E+05 -7.640898E+04 -7.540804E+02 -1.890227E+05 -1.439787E+03  3.611513E+03
       290   7 -3.212543E+05 -2.275097E+04  3.528853E+04 -1.497990E+05 -4.032022E+03  5.374635E+03
       290   8 -3.512145E+05 -2.630237E+04  2.967275E+04 -1.501982E+05 -3.102071E+03  4.358949E+03
       290   9 -3.702223E+05 -4.100482E+04  2.367408E+04 -1.632350E+05 -2.170323E+03  3.337530E+03
       290  10 -6.082983E+05 -1.302213E+05 -3.842940E+04 -2.281812E+05 -3.914480E-10 -4.837085E-10
       290  11 -5.892837E+05 -1.154408E+05 -3.161218E+04 -2.151752E+05 -2.576582E-10 -1.750476E-10
       290  12 -5.593168E+05 -1.118126E+05 -2.518301E+04 -2.148068E+05 -6.923510E-11 -2.988953E-11
       290  13 -4.647866E+05 -7.648692E+04 -1.569701E+03 -1.889942E+05 -1.689426E-10 -4.417766E-10
       290  14 -4.702561E+05 -7.087206E+04 -9.691845E+02 -1.826896E+05 -1.879938E-11 -3.511207E-11
       290  15 -4.647739E+05 -7.640899E+04 -7.541088E+02 -1.890227E+05 -4.474873E-10  5.429622E-11
       290  16 -3.212543E+05 -2.275101E+04  3.528844E+04 -1.497989E+05  4.783085E-10 -3.326276E-10
       290  17 -3.512145E+05 -2.630240E+04  2.967270E+04 -1.501982E+05 -1.872267E-10  1.061940E-11
       290  18 -3.702223E+05 -4.100483E+04  2.367405E+04 -1.632350E+05 -1.063470E-10 -1.036266E-10
       290  19 -6.082982E+05 -1.302213E+05 -3.842932E+04 -2.281812E+05  2.584460E+03 -5.917893E+03
       290  20 -5.892837E+05 -1.154407E+05 -3.161213E+04 -2.151752E+05  1.647838E+03 -4.904535E+03
       290  21 -5.593167E+05 -1.118126E+05 -2.518298E+04 -2.148068E+05  7.093725E+02 -3.885450E+03
       290  22 -4.647865E+05 -7.648688E+04 -1.569620E+03 -1.889943E+05  3.308148E+03 -5.646299E+03
       290  23 -4.702561E+05 -7.087204E+04 -9.691336E+02 -1.826896E+05  2.374877E+03 -4.631771E+03
       290  24 -4.647739E+05 -7.640898E+04 -7.540804E+02 -1.890227E+05  1.439787E+03 -3.611513E+03
       290  25 -3.212543E+05 -2.275097E+04  3.528853E+04 -1.497990E+05  4.032022E+03 -5.374635E+03
       290  26 -3.512145E+05 -2.630237E+04  2.967275E+04 -1.501982E+05  3.102071E+03 -4.358949E+03
       290  27 -3.702223E+05 -4.100482E+04  2.367408E+04 -1.632350E+05  2.170323E+03 -3.337530E+03
       291   1 -5.319566E+05 -1.015818E+05 -1.795927E+04 -2.073981E+05 -3.208518E+02  3.230608E+03
       291   2 -5.128292E+05 -8.679521E+04 -1.189720E+04 -1.942941E+05  6.010849E+02  2.200275E+03
       291   3 -4.826975E+05 -8.321825E+04 -6.211395E+03 -1.939060E+05  1.523015E+03  1.169658E+03
       291   4 -4.647614E+05 -7.642423E+04 -7.498244E+02 -1.890387E+05 -1.052203E+03  2.956361E+03
       291   5 -4.702674E+05 -7.085037E+04 -9.388703E+02 -1.826689E+05 -1.304096E+02  1.926007E+03
       291   6 -4.647698E+05 -7.648619E+04 -1.504041E+03 -1.890153E+05  7.913591E+02  8.953625E+02
       291   7 -3.975621E+05 -5.126642E+04  1.645919E+04 -1.706776E+05 -1.783639E+03  2.682083E+03
       291   8 -4.277039E+05 -5.490541E+04  1.001931E+04 -1.710430E+05 -8.619590E+02  1.651719E+03
       291   9 -4.468417E+05 -6.975408E+04  3.203306E+03 -1.841245E+05  5.967710E+01  6.210576E+02
       291  10 -5.319566E+05 -1.015819E+05 -1.795929E+04 -2.073981E+05  2.218466E-12 -2.224609E-11
       291  11 -5.128292E+05 -8.679522E+04 -1.189721E+04 -1.942941E+05 -2.485831E-10 -2.513467E-11
       291  12 -4.826976E+05 -8.321825E+04 -6.211402E+03 -1.939060E+05 -1.827369E-10 -1.970436E-10
       291  13 -4.647614E+05 -7.642424E+04 -7.498429E+02 -1.890387E+05 -4.046243E-10 -3.068587E-11
       291  14 -4.702674E+05 -7.085037E+04 -9.388773E+02 -1.826689E+05 -1.839179E-10  1.899762E-10
       291  15 -4.647698E+05 -7.648619E+04 -1.504043E+03 -1.890153E+05 -1.253549E-10  2.930952E-12
       291  16 -3.975621E+05 -5.126643E+04  1.645917E+04 -1.706775E+05  1.189991E-10 -4.435581E-11
       291  17 -4.277039E+05 -5.490542E+04  1.001930E+04 -1.710430E+05  2.093134E-10  1.069757E-10
       291  18 -4.468417E+05 -6.975408E+04  3.203305E+03 -1.841245E+05  5.228948E-11  6.170496E-11
       291  19 -5.319566E+05 -1.015818E+05 -1.795927E+04 -2.073981E+05  3.208518E+02 -3.230608E+03
       291  20 -5.128292E+05 -8.679521E+04 -1.189720E+04 -1.942941E+05 -6.010849E+02 -2.200275E+03
       291  21 -4.826975E+05 -8.321825E+04 -6.211395E+03 -1.939060E+05 -1.523015E+03 -1.169658E+03
       291  22 -4.647614E+05 -7.642423E+04 -7.498244E+02 -1.890387E+05  1.052203E+03 -2.956361E+03
       291  23 -4.702674E+05 -7.085037E+04 -9.388703E+02 -1.826689E+05  1.304096E+02 -1.926007E+03
       291  24 -4.647698E+05 -7.648619E+04 -1.504041E+03 -1.890153E+05 -7.913591E+02 -8.953625E+02
       291  25 -3.975621E+05 -5.126642E+04  1.645919E+04 -1.706776E+05  1.783639E+03 -2.682083E+03
       291  26 -4.277039E+05 -5.490541E+04  1.001931E+04 -1.710430E+05  8.619590E+02 -1.651719E+03
       291  27 -4.468417E+05 -6.975408E+04  3.203306E+03 -1.841245E+05 -5.967710E+01 -6.210576E+02
       292   1 -4.552460E+05 -7.293417E+04  6.024646E+02 -1.866363E+05  2.075887E+03  5.715132E+02
       292   2 -4.360295E+05 -5.795304E+04  5.410425E+03 -1.733422E+05  4.217696E+03 -1.267432E+00
       292   3 -4.063177E+05 -5.513181E+04  8.680076E+03 -1.725755E+05  6.351678E+03 -5.528146E+02
       292   4 -4.648397E+05 -7.638803E+04 -1.929911E+03 -1.890895E+05  1.338011E+03  2.948881E+02
       292   5 -4.701469E+05 -7.073737E+04 -3.374176E+03 -1.826646E+05  3.492572E+03 -2.731391E+02
       292   6 -4.649620E+05 -7.724922E+04 -6.366885E+03 -1.887672E+05  5.639231E+03 -8.199580E+02
       292   7 -4.744334E+05 -7.984189E+04 -4.462292E+03 -1.915428E+05  6.001477E+02  1.826735E+01
       292   8 -5.042632E+05 -8.352161E+04 -1.215885E+04 -1.919864E+05  2.767494E+03 -5.449938E+02
       292   9 -5.236026E+05 -9.936633E+04 -2.141407E+04 -2.049573E+05  4.926860E+03 -1.087072E+03
       292  10 -4.552460E+05 -7.293417E+04  6.024559E+02 -1.866363E+05 -3.431338E-11 -1.832106E-10
       292  11 -4.360295E+05 -5.795304E+04  5.410392E+03 -1.733422E+05 -1.739739E-10 -2.252060E-10
       292  12 -4.063178E+05 -5.513182E+04  8.680000E+03 -1.725755E+05 -5.544964E-11  2.180192E-10
       292  13 -4.648397E+05 -7.638803E+04 -1.929914E+03 -1.890895E+05 -1.099751E-10 -1.659215E-11
       292  14 -4.701470E+05 -7.073737E+04 -3.374199E+03 -1.826646E+05 -2.531175E-10 -2.183507E-10
       292  15 -4.649620E+05 -7.724923E+04 -6.366946E+03 -1.887672E+05 -2.071536E-10 -2.604324E-11
       292  16 -4.744334E+05 -7.984189E+04 -4.462292E+03 -1.915428E+05 -4.263012E-11  1.164210E-10
       292  17 -5.042632E+05 -8.352161E+04 -1.215887E+04 -1.919864E+05 -1.422639E-10  1.310262E-11
       292  18 -5.236026E+05 -9.936634E+04 -2.141412E+04 -2.049573E+05  2.461835E-10  5.787702E-11
       292  19 -4.552460E+05 -7.293417E+04  6.024646E+02 -1.866363E+05 -2.075887E+03 -5.715132E+02
       292  20 -4.360295E+05 -5.795304E+04  5.410425E+03 -1.733422E+05 -4.217696E+03  1.267432E+00
       292  21 -4.063177E+05 -5.513181E+04  8.680076E+03 -1.725755E+05 -6.351678E+03  5.528146E+02
       292  22 -4.648397E+05 -7.638803E+04 -1.929911E+03 -1.890895E+05 -1.338011E+03 -2.948881E+02
       292  23 -4.701469E+05 -7.073737E+04 -3.374176E+03 -1.826646E+05 -3.492572E+03  2.731391E+02
       292  24 -4.649620E+05 -7.724922E+04 -6.366885E+03 -1.887672E+05 -5.639231E+03  8.199580E+02
       292  25 -4.744334E+05 -7.984189E+04 -4.462292E+03 -1.915428E+05 -6.001477E+02 -1.826735E+01
       292  26 -5.042632E+05 -8.352161E+04 -1.215885E+04 -1.919864E+05 -2.767494E+03  5.449938E+02
       292  27 -5.236026E+05 -9.936633E+04 -2.141407E+04 -2.049573E+05 -4.926860E+03  1.087072E+03
       293   1 -3.783097E+05 -4.482519E+04  1.401400E+04 -1.672420E+05  7.906071E+03 -8.210401E+02
       293   2 -3.590441E+05 -2.765528E+04  1.395682E+04 -1.518515E+05  1.562571E+04  7.365961E+02
       293   3 -3.339455E+05 -3.296458E+04  5.378456E+03 -1.463866E+05  2.321786E+04  2.636043E+03
       293   4 -4.655098E+05 -7.601461E+04 -8.238865E+03 -1.895157E+05  7.090929E+03 -1.126705E+03
       293   5 -4.690977E+05 -6.965921E+04 -1.452487E+04 -1.827138E+05  1.501637E+04  5.079775E+02
       293   6 -4.668954E+05 -8.582580E+04 -2.949663E+04 -1.858381E+05  2.281401E+04  2.484326E+03
       293   7 -5.527029E+05 -1.072038E+05 -3.049243E+04 -2.117867E+05  6.275909E+03 -1.432330E+03
       293   8 -5.791398E+05 -1.116623E+05 -4.300763E+04 -2.135711E+05  1.440714E+04  2.794047E+02
       293   9 -5.998280E+05 -1.386853E+05 -6.437323E+04 -2.252816E+05  2.241026E+04  2.332649E+03
       293  10 -3.783097E+05 -4.482521E+04  1.401389E+04 -1.672420E+05  6.744357E-11  2.324292E-10
       293  11 -3.590444E+05 -2.765535E+04  1.395636E+04 -1.518515E+05  6.078127E-11 -1.476573E-10
       293  12 -3.339461E+05 -3.296473E+04  5.377430E+03 -1.463867E+05  4.208374E-10 -2.991397E-11
       293  13 -4.655099E+05 -7.601463E+04 -8.238962E+03 -1.895157E+05  6.069527E-11  1.045786E-10
       293  14 -4.690980E+05 -6.965927E+04 -1.452530E+04 -1.827138E+05 -2.121728E-10 -1.303973E-10
       293  15 -4.668959E+05 -8.582595E+04 -2.949762E+04 -1.858381E+05  4.056698E-11 -5.858343E-11
       293  16 -5.527030E+05 -1.072039E+05 -3.049251E+04 -2.117867E+05  1.223929E-10 -1.022251E-10
       293  17 -5.791400E+05 -1.116624E+05 -4.300802E+04 -2.135711E+05 -1.476951E-10  1.031618E-11
       293  18 -5.998285E+05 -1.386854E+05 -6.437419E+04 -2.252817E+05 -1.542845E-10 -1.598131E-10
       293  19 -3.783097E+05 -4.482519E+04  1.401400E+04 -1.672420E+05 -7.906071E+03  8.210401E+02
       293  20 -3.590441E+05 -2.765528E+04  1.395682E+04 -1.518515E+05 -1.562571E+04 -7.365961E+02
       293  21 -3.339455E+05 -3.296458E+04  5.378456E+03 -1.463866E+05 -2.321786E+04 -2.636043E+03
       293  22 -4.655098E+05 -7.601461E+04 -8.238865E+03 -1.895157E+05 -7.090929E+03  1.126705E+03
       293  23 -4.690977E+05 -6.965921E+04 -1.452487E+04 -1.827138E+05 -1.501637E+04 -5.079775E+02
       293  24 -4.668954E+05 -8.582580E+04 -2.949663E+04 -1.858381E+05 -2.281401E+04 -2.484326E+03
       293  25 -5.527029E+05 -1.072038E+05 -3.049243E+04 -2.117867E+05 -6.275909E+03  1.432330E+03
       293  26 -5.791398E+05 -1.116623E+05 -4.300763E+04 -2.135711E+05 -1.440714E+04 -2.794047E+02
       293  27 -5.998280E+05 -1.386853E+05 -6.437323E+04 -2.252816E+05 -2.241026E+04 -2.332649E+03
       294   1 -2.982764E+05 -2.205213E+04  5.180068E+03 -1.622148E+05  3.049316E+04  3.725385E+03
       294   2 -2.812138E+05  2.000499E+04 -1.367361E+04 -1.227577E+05  6.088859E+04  1.435251E+04
       294   3 -3.040500E+05 -7.323079E+04 -8.905569E+04 -6.342030E+04  8.916651E+04  3.062708E+04
       294   4 -4.716757E+05 -7.182430E+04 -3.654814E+04 -1.939295E+05  2.836174E+04  2.926477E+03
       294   5 -4.590739E+05 -5.834085E+04 -6.171257E+04 -1.834162E+05  6.217155E+04  1.483241E+04
       294   6 -4.870648E+05 -1.808534E+05 -1.461250E+05 -1.530200E+05  9.386299E+04  3.238307E+04
       294   7 -6.450453E+05 -1.215970E+05 -7.827832E+04 -2.256375E+05  2.623098E+04  2.127683E+03
       294   8 -6.369018E+05 -1.366807E+05 -1.097541E+05 -2.440574E+05  6.345411E+04  1.531209E+04
       294   9 -6.700415E+05 -2.884554E+05 -2.031967E+05 -2.425901E+05  9.855791E+04  3.413773E+04
       294  10 -2.982774E+05 -2.205239E+04  5.178293E+03 -1.622149E+05 -6.029310E-11 -2.771882E-11
       294  11 -2.812178E+05  2.000377E+04 -1.368097E+04 -1.227584E+05 -1.645119E-10  2.687284E-10
       294  12 -3.040588E+05 -7.323393E+04 -8.907240E+04 -6.342250E+04 -1.162972E-10  1.742005E-10
       294  13 -4.716765E+05 -7.182452E+04 -3.654967E+04 -1.939296E+05  1.940570E-10 -6.533265E-11
       294  14 -4.590781E+05 -5.834212E+04 -6.172026E+04 -1.834169E+05 -2.276370E-11  2.522655E-10
       294  15 -4.870746E+05 -1.808569E+05 -1.461435E+05 -1.530224E+05  6.419881E-11  1.707798E-10
       294  16 -6.450460E+05 -1.215972E+05 -7.827962E+04 -2.256376E+05  2.514266E-10  5.294411E-11
       294  17 -6.369062E+05 -1.366820E+05 -1.097621E+05 -2.440582E+05 -1.553047E-10  2.107112E-10
       294  18 -6.700522E+05 -2.884593E+05 -2.032171E+05 -2.425928E+05 -2.044117E-10  6.853365E-12
       294  19 -2.982764E+05 -2.205213E+04  5.180068E+03 -1.622148E+05 -3.049316E+04 -3.725385E+03
       294  20 -2.812138E+05  2.000499E+04 -1.367361E+04 -1.227577E+05 -6.088859E+04 -1.435251E+04
       294  21 -3.040500E+05 -7.323079E+04 -8.905569E+04 -6.342030E+04 -8.916651E+04 -3.062708E+04
       294  22 -4.716757E+05 -7.182430E+04 -3.654814E+04 -1.939295E+05 -2.836174E+04 -2.926477E+03
       294  23 -4.590739E+05 -5.834085E+04 -6.171257E+04 -1.834162E+05 -6.217155E+04 -1.483241E+04
       294  24 -4.870648E+05 -1.808534E+05 -1.461250E+05 -1.530200E+05 -9.386299E+04 -3.238307E+04
       294  25 -6.450453E+05 -1.215970E+05 -7.827832E+04 -2.256375E+05 -2.623098E+04 -2.127683E+03
       294  26 -6.369018E+05 -1.366807E+05 -1.097541E+05 -2.440574E+05 -6.345411E+04 -1.531209E+04
       294  27 -6.700415E+05 -2.884554E+05 -2.031967E+05 -2.425901E+05 -9.855791E+04 -3.413773E+04
       295   1 -5.057495E+05 -1.218098E+05 -9.295407E+04 -9.081351E+03  6.839648E+04  1.034197E+04
       295   2 -4.332187E+05 -2.125939E+05 -1.342292E+05 -1.110013E+04  5.194865E+04  3.119969E+04
       295   3 -3.288456E+05 -1.866871E+05 -1.355103E+05 -6.374295E+04  3.551120E+04  2.964477E+04
       295   4  4.045706E+05  1.048464E+05  1.302855E+05 -4.863014E+04  8.925819E+04  1.035021E+04
       295   5  3.874405E+05 -1.005553E+04  5.778675E+04 -2.329502E+04  5.825714E+04  3.119767E+04
       295   6  4.046258E+05 -5.826077E+03  3.534349E+04 -4.857754E+04  2.726989E+04  2.964419E+04
       295   7  1.315650E+06  3.314472E+05  3.534669E+05 -8.823716E+04  1.101504E+05  1.035579E+04
       295   8  1.208721E+06  1.924356E+05  2.497571E+05 -3.550618E+04  6.457388E+04  3.119541E+04
       295   9  1.138594E+06  1.749979E+05  2.061613E+05 -3.339406E+04  1.901889E+04  2.964322E+04
       295  10 -5.057545E+05 -1.218111E+05 -9.296307E+04 -9.081920E+03  1.407069E-10  8.844844E-11
       295  11 -4.332218E+05 -2.125957E+05 -1.342361E+05 -1.110144E+04  1.106285E-10 -4.042255E-11
       295  12 -3.288472E+05 -1.866884E+05 -1.355143E+05 -6.374380E+04 -1.853180E-10  1.459623E-10
       295  13  4.045620E+05  1.048441E+05  1.302704E+05 -4.863089E+04  8.937571E-11 -1.866910E-10
       295  14  3.874366E+05 -1.005748E+04  5.777854E+04 -2.329649E+04 -9.925246E-11  2.975879E-11
       295  15  4.046248E+05 -5.827221E+03  3.534044E+04 -4.857819E+04 -5.624753E-10  2.287116E-10
       295  16  1.315637E+06  3.314439E+05  3.534439E+05 -8.823808E+04  3.203772E-11  1.869915E-10
       295  17  1.208716E+06  1.924335E+05  2.497474E+05 -3.550780E+04  1.118800E-10 -1.463021E-10
       295  18  1.138594E+06  1.749968E+05  2.061590E+05 -3.339451E+04  3.433969E-10  3.024622E-10
       295  19 -5.057495E+05 -1.218098E+05 -9.295407E+04 -9.081351E+03 -6.839648E+04 -1.034197E+04
       295  20 -4.332187E+05 -2.125939E+05 -1.342292E+05 -1.110013E+04 -5.194865E+04 -3.119969E+04
       295  21 -3.288456E+05 -1.866871E+05 -1.355103E+05 -6.374295E+04 -3.551120E+04 -2.964477E+04
       295  22  4.045706E+05  1.048464E+05  1.302855E+05 -4.863014E+04 -8.925819E+04 -1.035021E+04
       295  23  3.874405E+05 -1.005553E+04  5.778675E+04 -2.329502E+04 -5.825714E+04 -3.119767E+04
       295  24  4.046258E+05 -5.826077E+03  3.534349E+04 -4.857754E+04 -2.726989E+04 -2.964419E+04
       295  25  1.315650E+06  3.314472E+05  3.534669E+05 -8.823716E+04 -1.101504E+05 -1.035579E+04
       295  26  1.208721E+06  1.924356E+05  2.497571E+05 -3.550618E+04 -6.457388E+04 -3.119541E+04
       295  27  1.138594E+06  1.749979E+05  2.061613E+05 -3.339406E+04 -1.901889E+04 -2.964322E+04
       296   1 -2.436406E+05 -1.495282E+05 -1.214711E+05 -4.562775E+04  2.328613E+04  2.443335E+04
       296   2 -1.579849E+05 -1.376123E+05 -1.143846E+05 -2.228681E+04  1.650627E+04  2.174389E+04
       296   3 -6.875612E+04 -1.155721E+05 -1.003182E+05 -4.977924E+04  9.721400E+03  1.782919E+04
       296   4  3.978500E+05  8.774946E+03  2.858010E+04 -4.863504E+04  2.195434E+04  2.443192E+04
       296   5  3.960135E+05 -9.616121E+02  1.492248E+04 -2.322189E+04  1.437352E+04  2.174370E+04
       296   6  3.978768E+05 -4.402466E+02  8.795150E+03 -4.863898E+04  6.788602E+03  1.783071E+04
       296   7  1.039720E+06  1.670489E+05  1.786033E+05 -5.164542E+04  2.062118E+04  2.443051E+04
       296   8  9.502949E+05  1.356673E+05  1.442087E+05 -2.415776E+04  1.223887E+04  2.174352E+04
       296   9  8.647103E+05  1.146762E+05  1.178937E+05 -4.749781E+04  3.853613E+03  1.783221E+04
       296  10 -2.436413E+05 -1.495290E+05 -1.214733E+05 -4.562821E+04 -6.031952E-10  7.639223E-11
       296  11 -1.579854E+05 -1.376128E+05 -1.143860E+05 -2.228710E+04 -8.630012E-10  1.113862E-10
       296  12 -6.875631E+04 -1.155725E+05 -1.003189E+05 -4.977938E+04 -4.839782E-10  3.971109E-10
       296  13  3.978493E+05  8.774175E+03  2.857807E+04 -4.863547E+04 -4.368270E-10  3.068386E-10
       296  14  3.960132E+05 -9.621753E+02  1.492120E+04 -2.322214E+04 -5.393947E-10 -7.314916E-10
       296  15  3.978766E+05 -4.406004E+02  8.794466E+03 -4.863908E+04 -7.030760E-10  1.757907E-10
       296  16  1.039719E+06  1.670482E+05  1.786014E+05 -5.164582E+04  2.257275E-10  2.515133E-10
       296  17  9.502947E+05  1.356668E+05  1.442076E+05 -2.415798E+04  4.351823E-10 -2.386145E-10
       296  18  8.647102E+05  1.146758E+05  1.178931E+05 -4.749786E+04  4.314478E-10 -1.820439E-10
       296  19 -2.436406E+05 -1.495282E+05 -1.214711E+05 -4.562775E+04 -2.328613E+04 -2.443335E+04
       296  20 -1.579849E+05 -1.376123E+05 -1.143846E+05 -2.228681E+04 -1.650627E+04 -2.174389E+04
       296  21 -6.875612E+04 -1.155721E+05 -1.003182E+05 -4.977924E+04 -9.721400E+03 -1.782919E+04
       296  22  3.978500E+05  8.774946E+03  2.858010E+04 -4.863504E+04 -2.195434E+04 -2.443192E+04
       296  23  3.960135E+05 -9.616121E+02  1.492248E+04 -2.322189E+04 -1.437352E+04 -2.174370E+04
       296  24  3.978768E+05 -4.402466E+02  8.795150E+03 -4.863898E+04 -6.788602E+03 -1.783071E+04
       296  25  1.039720E+06  1.670489E+05  1.786033E+05 -5.164542E+04 -2.062118E+04 -2.443051E+04
       296  26  9.502949E+05  1.356673E+05  1.442087E+05 -2.415776E+04 -1.223887E+04 -2.174352E+04
       296  27  8.647103E+05  1.146762E+05  1.178937E+05 -4.749781E+04 -3.853613E+03 -1.783221E+04
       297   1  2.163990E+04 -9.180567E+04 -8.056538E+04 -4.821929E+04  7.957456E+03  1.531717E+04
       297   2  1.084020E+05 -7.122945E+04 -6.347518E+04 -2.308884E+04  6.074808E+03  1.135176E+04
       297   3  1.955879E+05 -4.969538E+04 -4.493549E+04 -4.854788E+04  4.189840E+03  7.323660E+03
       297   4  3.971680E+05  7.636187E+02  6.831096E+03 -4.858339E+04  5.408975E+03  1.531892E+04
       297   5  3.969627E+05 -6.670526E+01  3.853834E+03 -2.328975E+04  3.484466E+03  1.135412E+04
       297   6  3.971810E+05  6.820394E+01  2.354708E+03 -4.858413E+04  1.557897E+03  7.326671E+03
       297   7  7.728263E+05  9.332295E+04  9.421808E+04 -4.894769E+04  2.858962E+03  1.532067E+04
       297   8  6.856002E+05  7.109015E+04  7.117723E+04 -2.349074E+04  8.929289E+02  1.135648E+04
       297   9  5.988114E+05  4.982890E+04  4.964216E+04 -4.862038E+04 -1.074894E+03  7.329683E+03
       297  10  2.163977E+04 -9.180594E+04 -8.056594E+04 -4.821938E+04 -9.845898E-11 -1.236064E-10
       297  11  1.084020E+05 -7.122959E+04 -6.347549E+04 -2.308889E+04 -9.220366E-11 -1.203718E-11
       297  12  1.955879E+05 -4.969545E+04 -4.493563E+04 -4.854791E+04 -4.831879E-10 -5.167852E-10
       297  13  3.971679E+05  7.633588E+02  6.830600E+03 -4.858346E+04  7.563898E-11  1.344229E-12
       297  14  3.969627E+05 -6.684697E+01  3.853569E+03 -2.328978E+04  2.163506E-11  4.487482E-10
       297  15  3.971809E+05  6.814563E+01  2.354603E+03 -4.858414E+04 -5.645809E-10  9.709609E-10
       297  16  7.728262E+05  9.332270E+04  9.421762E+04 -4.894772E+04 -3.121768E-10 -7.913403E-11
       297  17  6.856002E+05  7.109001E+04  7.117698E+04 -2.349075E+04  2.346862E-10 -6.907364E-10
       297  18  5.988114E+05  4.982885E+04  4.964205E+04 -4.862037E+04  5.297441E-10 -1.001983E-10
       297  19  2.163990E+04 -9.180567E+04 -8.056538E+04 -4.821929E+04 -7.957456E+03 -1.531717E+04
       297  20  1.084020E+05 -7.122945E+04 -6.347518E+04 -2.308884E+04 -6.074808E+03 -1.135176E+04
       297  21  1.955879E+05 -4.969538E+04 -4.493549E+04 -4.854788E+04 -4.189840E+03 -7.323660E+03
       297  22  3.971680E+05  7.636187E+02  6.831096E+03 -4.858339E+04 -5.408975E+03 -1.531892E+04
       297  23  3.969627E+05 -6.670526E+01  3.853834E+03 -2.328975E+04 -3.484466E+03 -1.135412E+04
       297  24  3.971810E+05  6.820394E+01  2.354708E+03 -4.858413E+04 -1.557897E+03 -7.326671E+03
       297  25  7.728263E+05  9.332295E+04  9.421808E+04 -4.894769E+04 -2.858962E+03 -1.532067E+04
       297  26  6.856002E+05  7.109015E+04  7.117723E+04 -2.349074E+04 -8.929289E+02 -1.135648E+04
       297  27  5.988114E+05  4.982890E+04  4.964216E+04 -4.862038E+04  1.074894E+03 -7.329683E+03
       298   1  2.862669E+05 -2.711714E+04 -2.370352E+04 -4.848094E+04  3.782048E+03  4.968151E+03
       298   2  3.730830E+05 -5.880741E+03 -4.249493E+03 -2.330637E+04  3.109826E+03  9.414089E+02
       298   3  4.598916E+05  1.554532E+04  1.565534E+04 -4.861902E+04  2.437352E+03 -3.088457E+03
       298   4  3.970912E+05  1.590281E+02  1.894195E+03 -4.856144E+04  1.172261E+03  4.971346E+03
       298   5  3.970982E+05  4.073670E+01  1.352939E+03 -2.331792E+04  4.977796E+02  9.446415E+02
       298   6  3.970923E+05  1.132917E+02  1.264694E+03 -4.856151E+04 -1.768620E+02 -3.085158E+03
       298   7  5.079269E+05  2.743434E+04  2.749111E+04 -4.864195E+04 -1.437990E+03  4.974541E+03
       298   8  4.211140E+05  5.962177E+03  6.955358E+03 -2.332948E+04 -2.114368E+03  9.478740E+02
       298   9  3.342967E+05 -1.531900E+04 -1.312619E+04 -4.850400E+04 -2.790814E+03 -3.081860E+03
       298  10  2.862669E+05 -2.711717E+04 -2.370359E+04 -4.848096E+04 -4.184294E-10  4.664098E-11
       298  11  3.730830E+05 -5.880744E+03 -4.249513E+03 -2.330637E+04 -2.734197E-11  2.554558E-10
       298  12  4.598916E+05  1.554531E+04  1.565531E+04 -4.861901E+04 -3.195054E-10  6.991169E-12
       298  13  3.970912E+05  1.590012E+02  1.894146E+03 -4.856145E+04 -8.252206E-10 -7.885717E-10
       298  14  3.970982E+05  4.073567E+01  1.352937E+03 -2.331792E+04  5.120045E-10  2.402438E-10
       298  15  3.970923E+05  1.132815E+02  1.264676E+03 -4.856151E+04 -1.795076E-11 -3.625093E-10
       298  16  5.079269E+05  2.743431E+04  2.749106E+04 -4.864194E+04  1.195956E-10  3.138716E-10
       298  17  4.211140E+05  5.962175E+03  6.955348E+03 -2.332947E+04 -5.837048E-10 -3.177438E-10
       298  18  3.342967E+05 -1.531902E+04 -1.312622E+04 -4.850400E+04  4.133126E-10 -7.037982E-10
       298  19  2.862669E+05 -2.711714E+04 -2.370352E+04 -4.848094E+04 -3.782048E+03 -4.968151E+03
       298  20  3.730830E+05 -5.880741E+03 -4.249493E+03 -2.330637E+04 -3.109826E+03 -9.414089E+02
       298  21  4.598916E+05  1.554532E+04  1.565534E+04 -4.861902E+04 -2.437352E+03  3.088457E+03
       298  22  3.970912E+05  1.590281E+02  1.894195E+03 -4.856144E+04 -1.172261E+03 -4.971346E+03
       298  23  3.970982E+05  4.073670E+01  1.352939E+03 -2.331792E+04 -4.977796E+02 -9.446415E+02
       298  24  3.970923E+05  1.132917E+02  1.264694E+03 -4.856151E+04  1.768620E+02  3.085158E+03
       298  25  5.079269E+05  2.743434E+04  2.749111E+04 -4.864195E+04  1.437990E+03 -4.974541E+03
       298  26  4.211140E+05  5.962177E+03  6.955358E+03 -2.332948E+04  2.114368E+03 -9.478740E+02
       298  27  3.342967E+05 -1.531900E+04 -1.312619E+04 -4.850400E+04  2.790814E+03  3.081860E+03
       299   1  5.506718E+05  3.802308E+04  3.744531E+04 -4.869613E+04  2.197162E+03 -5.435447E+03
       299   2  6.375745E+05  5.930908E+04  5.798844E+04 -2.345905E+04  1.256169E+03 -9.468211E+03
       299   3  7.245733E+05  8.082892E+04  7.918005E+04 -4.877662E+04  3.167117E+02 -1.350113E+04
       299   4  3.971097E+05  1.113158E+02  1.367224E+03 -4.857679E+04 -4.185558E+02 -5.432292E+03
       299   5  3.970605E+05  1.449053E+01  1.889085E+03 -2.329882E+04 -1.359516E+03 -9.465564E+03
       299   6  3.970992E+05  1.517285E+02  3.059640E+03 -4.857672E+04 -2.298812E+03 -1.349896E+04
       299   7  2.435693E+05 -3.780212E+04 -3.471245E+04 -4.845747E+04 -3.033630E+03 -5.429139E+03
       299   8  1.565998E+05 -5.928419E+04 -5.421417E+04 -2.313864E+04 -3.974195E+03 -9.462917E+03
       299   9  6.972397E+04 -8.053302E+04 -7.306796E+04 -4.837689E+04 -4.912966E+03 -1.349679E+04
       299  10  5.506718E+05  3.802304E+04  3.744525E+04 -4.869613E+04 -7.218228E-10  7.616928E-10
       299  11  6.375745E+05  5.930899E+04  5.798827E+04 -2.345904E+04 -1.752897E-10  1.412613E-09
       299  12  7.245733E+05  8.082873E+04  7.917970E+04 -4.877662E+04  4.535029E-10 -6.201250E-10
       299  13  3.971097E+05  1.112840E+02  1.367168E+03 -4.857679E+04 -3.369888E-10  7.533781E-11
       299  14  3.970605E+05  1.439381E+01  1.888913E+03 -2.329883E+04 -4.212301E-10 -3.552614E-10
       299  15  3.970991E+05  1.515313E+02  3.059287E+03 -4.857674E+04 -2.903777E-10  7.921848E-11
       299  16  2.435693E+05 -3.780216E+04 -3.471253E+04 -4.845748E+04  8.454710E-10  2.283437E-10
       299  17  1.565998E+05 -5.928429E+04 -5.421437E+04 -2.313867E+04 -2.301788E-10 -6.303808E-10
       299  18  6.972390E+04 -8.053323E+04 -7.306835E+04 -4.837694E+04 -9.089650E-10 -1.548622E-11
       299  19  5.506718E+05  3.802308E+04  3.744531E+04 -4.869613E+04 -2.197162E+03  5.435447E+03
       299  20  6.375745E+05  5.930908E+04  5.798844E+04 -2.345905E+04 -1.256169E+03  9.468211E+03
       299  21  7.245733E+05  8.082892E+04  7.918005E+04 -4.877662E+04 -3.167117E+02  1.350113E+04
       299  22  3.971097E+05  1.113158E+02  1.367224E+03 -4.857679E+04  4.185558E+02  5.432292E+03
       299  23  3.970605E+05  1.449053E+01  1.889085E+03 -2.329882E+04  1.359516E+03  9.465564E+03
       299  24  3.970992E+05  1.517285E+02  3.059640E+03 -4.857672E+04  2.298812E+03  1.349896E+04
       299  25  2.435693E+05 -3.780212E+04 -3.471245E+04 -4.845747E+04  3.033630E+03  5.429139E+03
       299  26  1.565998E+05 -5.928419E+04 -5.421417E+04 -2.313864E+04  3.974195E+03  9.462917E+03
       299  27  6.972397E+04 -8.053302E+04 -7.306796E+04 -4.837689E+04  4.912966E+03  1.349679E+04
       300   1  8.158121E+05  1.032176E+05  1.018147E+05 -4.865259E+04 -2.866592E+02 -1.586462E+04
       300   2  9.027247E+05  1.245139E+05  1.246682E+05 -2.342878E+04 -3.671732E+03 -1.990438E+04
       300   3  9.905864E+05  1.474239E+05  1.501453E+05 -4.900378E+04 -7.053722E+03 -2.387049E+04
       300   4  3.972700E+05 -6.401587E+00  3.945133E+03 -4.863155E+04 -2.931545E+03 -1.586293E+04
       300   5  3.967914E+05 -1.954353E+02  6.677967E+03 -2.323051E+04 -6.266557E+03 -1.990378E+04
       300   6  3.972472E+05  1.221907E+03  1.200170E+04 -4.863081E+04 -9.598019E+03 -2.387093E+04
       300   7 -2.111095E+04 -1.032428E+05 -9.393636E+04 -4.861049E+04 -5.574660E+03 -1.586124E+04
       300   8 -1.089061E+05 -1.249229E+05 -1.113296E+05 -2.303236E+04 -8.859282E+03 -1.990319E+04
       300   9 -1.957676E+05 -1.450049E+05 -1.261657E+05 -4.825815E+04 -1.213990E+04 -2.387137E+04
       300  10  8.158121E+05  1.032173E+05  1.018143E+05 -4.865259E+04 -4.592652E-11 -7.360044E-10
       300  11  9.027246E+05  1.245135E+05  1.246675E+05 -2.342884E+04 -7.112518E-10 -4.171430E-10
       300  12  9.905862E+05  1.474233E+05  1.501441E+05 -4.900392E+04 -3.746872E-10  5.233741E-11
       300  13  3.972699E+05 -6.674157E+00  3.944644E+03 -4.863159E+04 -1.045005E-09  2.741628E-10
       300  14  3.967913E+05 -1.958713E+02  6.677148E+03 -2.323061E+04 -3.052129E-10 -8.034102E-10
       300  15  3.972470E+05  1.221270E+03  1.200045E+04 -4.863099E+04  9.175555E-11  9.736247E-11
       300  16 -2.111105E+04 -1.032431E+05 -9.393689E+04 -4.861056E+04 -5.310546E-11  3.445640E-10
       300  17 -1.089063E+05 -1.249233E+05 -1.113305E+05 -2.303251E+04 -2.026354E-10  6.216900E-10
       300  18 -1.957679E+05 -1.450056E+05 -1.261670E+05 -4.825838E+04  6.682582E-10  2.216069E-10
       300  19  8.158121E+05  1.032176E+05  1.018147E+05 -4.865259E+04  2.866592E+02  1.586462E+04
       300  20  9.027247E+05  1.245139E+05  1.246682E+05 -2.342878E+04  3.671732E+03  1.990438E+04
       300  21  9.905864E+05  1.474239E+05  1.501453E+05 -4.900378E+04  7.053722E+03  2.387049E+04
       300  22  3.972700E+05 -6.401587E+00  3.945133E+03 -4.863155E+04  2.931545E+03  1.586293E+04
       300  23  3.967914E+05 -1.954353E+02  6.677967E+03 -2.323051E+04  6.266557E+03  1.990378E+04
       300  24  3.972472E+05  1.221907E+03  1.200170E+04 -4.863081E+04  9.598019E+03  2.387093E+04
       300  25 -2.111095E+04 -1.032428E+05 -9.393636E+04 -4.861049E+04  5.574660E+03  1.586124E+04
       300  26 -1.089061E+05 -1.249229E+05 -1.113296E+05 -2.303236E+04  8.859282E+03  1.990319E+04
       300  27 -1.957676E+05 -1.450049E+05 -1.261657E+05 -4.825815E+04  1.213990E+04  2.387137E+04
       301   1  1.083541E+06  1.679758E+05  1.754487E+05 -4.632647E+04 -9.002438E+03 -2.643249E+04
       301   2  1.168250E+06  1.887829E+05  2.066383E+05 -2.431731E+04 -2.337569E+04 -3.034505E+04
       301   3  1.259808E+06  2.277830E+05  2.518108E+05 -5.349274E+04 -3.774647E+04 -3.275468E+04
       301   4  3.984947E+05 -9.071182E+02  1.548759E+04 -4.871621E+04 -1.202149E+04 -2.643363E+04
       301   5  3.951354E+05 -1.760364E+03  2.633800E+04 -2.312439E+04 -2.540449E+04 -3.034790E+04
       301   6  3.984563E+05  1.542154E+04  5.049747E+04 -4.872066E+04 -3.878302E+04 -3.275855E+04
       301   7 -2.861197E+05 -1.698233E+05 -1.445053E+05 -5.110325E+04 -1.503722E+04 -2.643475E+04
       301   8 -3.774293E+05 -1.923459E+05 -1.540028E+05 -2.193297E+04 -2.743077E+04 -3.035077E+04
       301   9 -4.622130E+05 -1.969924E+05 -1.508662E+05 -4.395528E+04 -3.981811E+04 -3.276243E+04
       301  10  1.083541E+06  1.679751E+05  1.754472E+05 -4.632666E+04 -1.446593E-11  7.453849E-11
       301  11  1.168250E+06  1.887818E+05  2.066356E+05 -2.431788E+04  5.583625E-10 -3.545934E-10
       301  12  1.259807E+06  2.277814E+05  2.518061E+05 -5.349373E+04 -3.003008E-10 -1.933028E-10
       301  13  3.984943E+05 -9.079075E+02  1.548601E+04 -4.871646E+04  1.790645E-10  7.156773E-11
       301  14  3.951344E+05 -1.761527E+03  2.633506E+04 -2.312501E+04 -5.645947E-11 -1.826323E-10
       301  15  3.984544E+05  1.541999E+04  5.049263E+04 -4.872168E+04  4.099127E-10 -1.692256E-10
       301  16 -2.861201E+05 -1.698241E+05 -1.445071E+05 -5.110357E+04  3.836559E-11  1.800813E-11
       301  17 -3.774304E+05 -1.923471E+05 -1.540059E+05 -2.193364E+04 -1.342401E-10 -4.501375E-10
       301  18 -4.622150E+05 -1.969939E+05 -1.508712E+05 -4.395634E+04  6.840325E-10 -4.552754E-10
       301  19  1.083541E+06  1.679758E+05  1.754487E+05 -4.632647E+04  9.002438E+03  2.643249E+04
       301  20  1.168250E+06  1.887829E+05  2.066383E+05 -2.431731E+04  2.337569E+04  3.034505E+04
       301  21  1.259808E+06  2.277830E+05  2.518108E+05 -5.349274E+04  3.774647E+04  3.275468E+04
       301  22  3.984947E+05 -9.071182E+02  1.548759E+04 -4.871621E+04  1.202149E+04  2.643363E+04
       301  23  3.951354E+05 -1.760364E+03  2.633800E+04 -2.312439E+04  2.540449E+04  3.034790E+04
       301  24  3.984563E+05  1.542154E+04  5.049747E+04 -4.872066E+04  3.878302E+04  3.275855E+04
       301  25 -2.861197E+05 -1.698233E+05 -1.445053E+05 -5.110325E+04  1.503722E+04  2.643475E+04
       301  26 -3.774293E+05 -1.923459E+05 -1.540028E+05 -2.193297E+04  2.743077E+04  3.035077E+04
       301  27 -4.622130E+05 -1.969924E+05 -1.508662E+05 -4.395528E+04  3.981811E+04  3.276243E+04
       302   1  1.364639E+06  2.247190E+05  2.844687E+05 -2.118054E+04 -3.861126E+04 -3.865117E+04
       302   2  1.422358E+06  2.391187E+05  3.457174E+05 -4.415596E+04 -1.113507E+05 -3.972822E+04
       302   3  1.543735E+06  4.668935E+05  5.077782E+05 -1.182863E+05 -1.841486E+05 -1.323544E+04
       302   4  4.104113E+05 -1.038401E+04  6.244952E+04 -4.863231E+04 -4.816926E+04 -3.866026E+04
       302   5  3.800557E+05 -1.777919E+04  1.021439E+05 -2.319839E+04 -1.029341E+05 -3.972648E+04
       302   6  4.103345E+05  1.852675E+05  2.302858E+05 -4.891409E+04 -1.577443E+05 -1.321363E+04
       302   7 -5.429763E+05 -2.455484E+05 -1.596304E+05 -7.604178E+04 -5.771265E+04 -3.866852E+04
       302   8 -6.612455E+05 -2.747523E+05 -1.415029E+05 -2.276458E+03 -9.453132E+04 -3.972417E+04
       302   9 -7.218857E+05 -9.643484E+04 -4.729522E+04  2.033101E+04 -1.313879E+05 -1.318593E+04
       302  10  1.364637E+06  2.247170E+05  2.844631E+05 -2.118174E+04  3.244486E-10  4.842865E-10
       302  11  1.422344E+06  2.391137E+05  3.456911E+05 -4.415952E+04  8.036213E-10  6.947541E-10
       302  12  1.543699E+06  4.668843E+05  5.077143E+05 -1.182882E+05  6.328387E-10 -1.522962E-10
       302  13  4.104084E+05 -1.038623E+04  6.244235E+04 -4.863380E+04  5.541978E-10  1.214883E-09
       302  14  3.800439E+05 -1.778372E+04  1.021210E+05 -2.320169E+04 -9.583147E-10  2.408702E-09
       302  15  4.103078E+05  1.852606E+05  2.302387E+05 -4.891577E+04 -6.525474E-11  9.556847E-11
       302  16 -5.429802E+05 -2.455509E+05 -1.596395E+05 -7.604357E+04 -1.481708E-10  4.114715E-10
       302  17 -6.612556E+05 -2.747564E+05 -1.415227E+05 -2.279483E+03  1.846196E-10  6.073013E-10
       302  18 -7.219043E+05 -9.643966E+04 -4.732803E+04  2.032962E+04 -3.221618E-10 -4.740097E-10
       302  19  1.364639E+06  2.247190E+05  2.844687E+05 -2.118054E+04  3.861126E+04  3.865117E+04
       302  20  1.422358E+06  2.391187E+05  3.457174E+05 -4.415596E+04  1.113507E+05  3.972822E+04
       302  21  1.543735E+06  4.668935E+05  5.077782E+05 -1.182863E+05  1.841486E+05  1.323544E+04
       302  22  4.104113E+05 -1.038401E+04  6.244952E+04 -4.863231E+04  4.816926E+04  3.866026E+04
       302  23  3.800557E+05 -1.777919E+04  1.021439E+05 -2.319839E+04  1.029341E+05  3.972648E+04
       302  24  4.103345E+05  1.852675E+05  2.302858E+05 -4.891409E+04  1.577443E+05  1.321363E+04
       302  25 -5.429763E+05 -2.455484E+05 -1.596304E+05 -7.604178E+04  5.771265E+04  3.866852E+04
       302  26 -6.612455E+05 -2.747523E+05 -1.415029E+05 -2.276458E+03  9.453132E+04  3.972417E+04
       302  27 -7.218857E+05 -9.643484E+04 -4.729522E+04  2.033101E+04  1.313879E+05  1.318593E+04
       303   1  2.260663E+05  8.229682E+05  2.410930E+05 -1.298038E+05  6.005159E+03  7.287644E+04
       303   2  1.003688E+05  6.263636E+05  1.411732E+05 -5.765816E+04  1.618049E+04  4.079928E+04
       303   3  5.815025E+04  4.546431E+05  8.294940E+04 -9.190966E+04  9.663750E+03  8.711496E+03
       303   4  7.187362E+04  2.040554E+05  8.901636E+04 -1.019492E+05  6.022075E+03  6.085282E+04
       303   5 -6.683732E+03  1.925785E+05  3.962350E+04 -4.879391E+04  1.618330E+04  3.962242E+04
       303   6 -3.607323E+03  2.041011E+05  2.442806E+04 -1.020347E+05  9.649245E+03  1.837175E+04
       303   7 -8.234452E+04 -4.145073E+05 -6.308753E+04 -7.412221E+04  6.037923E+03  4.884113E+04
       303   8 -1.137493E+05 -2.410332E+05 -6.193900E+04 -3.993582E+04  1.618609E+04  3.844637E+04
       303   9 -6.536889E+04 -4.638272E+04 -3.409713E+04 -1.121555E+05  9.634421E+03  2.802813E+04
       303  10  2.260648E+05  8.229625E+05  2.410830E+05 -1.298041E+05 -1.035368E-10  2.089783E-10
       303  11  1.003680E+05  6.263617E+05  1.411696E+05 -5.765869E+04  5.302878E-10 -3.661383E-10
       303  12  5.815012E+04  4.546430E+05  8.294908E+04 -9.190972E+04  7.587808E-10 -1.281637E-11
       303  13  7.187259E+04  2.040514E+05  8.900934E+04 -1.019495E+05  8.069752E-10 -5.936240E-10
       303  14 -6.684435E+03  1.925767E+05  3.962006E+04 -4.879442E+04 -2.125923E-10 -2.174075E-10
       303  15 -3.607513E+03  2.041007E+05  2.442725E+04 -1.020348E+05  1.729729E-10 -1.984463E-10
       303  16 -8.234520E+04 -4.145098E+05 -6.309209E+04 -7.412245E+04  1.463794E-10 -2.252627E-10
       303  17 -1.137500E+05 -2.410349E+05 -6.194227E+04 -3.993632E+04  2.797374E-10  8.614172E-10
       303  18 -6.536920E+04 -4.638359E+04 -3.409878E+04 -1.121558E+05 -3.934670E-11  1.814283E-11
       303  19  2.260663E+05  8.229682E+05  2.410930E+05 -1.298038E+05 -6.005159E+03 -7.287644E+04
       303  20  1.003688E+05  6.263636E+05  1.411732E+05 -5.765816E+04 -1.618049E+04 -4.079928E+04
       303  21  5.815025E+04  4.546431E+05  8.294940E+04 -9.190966E+04 -9.663750E+03 -8.711496E+03
       303  22  7.187362E+04  2.040554E+05  8.901636E+04 -1.019492E+05 -6.022075E+03 -6.085282E+04
       303  23 -6.683732E+03  1.925785E+05  3.962350E+04 -4.879391E+04 -1.618330E+04 -3.962242E+04
       303  24 -3.607323E+03  2.041011E+05  2.442806E+04 -1.020347E+05 -9.649245E+03 -1.837175E+04
       303  25 -8.234452E+04 -4.145073E+05 -6.308753E+04 -7.412221E+04 -6.037923E+03 -4.884113E+04
       303  26 -1.137493E+05 -2.410332E+05 -6.193900E+04 -3.993582E+04 -1.618609E+04 -3.844637E+04
       303  27 -6.536889E+04 -4.638272E+04 -3.409713E+04 -1.121555E+05 -9.634421E+03 -2.802813E+04
       304   1  2.060536E+04  2.575384E+05  3.338190E+04 -1.042110E+05  2.411994E+03  9.792367E+03
       304   2 -3.158759E+04  7.247668E+04 -1.851731E+04 -4.899309E+04 -4.946680E+03  4.471947E+03
       304   3 -7.604260E+04 -1.102702E+05 -6.510121E+04 -1.006622E+05 -1.198159E+04 -8.448047E+02
       304   4  6.301327E+03  1.995194E+05  1.990379E+04 -1.021119E+05  2.404447E+03  1.467244E+04
       304   5 -5.411218E+02  1.983536E+05  1.086292E+04 -4.867368E+04 -4.953400E+03  9.142229E+03
       304   6  3.929345E+02  1.995089E+05  7.286182E+03 -1.021206E+05 -1.198760E+04  3.614144E+03
       304   7 -8.002919E+03  1.415037E+05  6.425536E+03 -1.000131E+05  2.396933E+03  1.955207E+04
       304   8  3.050423E+04  3.242453E+05  4.024214E+04 -4.835420E+04 -4.960115E+03  1.381345E+04
       304   9  7.682169E+04  5.093765E+05  7.966713E+04 -1.035797E+05 -1.199362E+04  8.075304E+03
       304  10  2.060533E+04  2.575383E+05  3.338171E+04 -1.042110E+05 -2.471663E-10  1.061448E-10
       304  11 -3.158762E+04  7.247665E+04 -1.851739E+04 -4.899307E+04  6.125378E-11 -7.325753E-10
       304  12 -7.604276E+04 -1.102703E+05 -6.510149E+04 -1.006622E+05 -5.704571E-10 -3.237039E-12
       304  13  6.301263E+03  1.995192E+05  1.990337E+04 -1.021120E+05  8.520729E-11 -6.921157E-10
       304  14 -5.411706E+02  1.983535E+05  1.086271E+04 -4.867365E+04  1.098927E-09 -4.041958E-10
       304  15  3.927767E+02  1.995088E+05  7.285888E+03 -1.021206E+05  1.138492E-09 -1.789124E-10
       304  16 -8.003028E+03  1.415033E+05  6.424807E+03 -1.000131E+05  1.477252E-10 -1.265156E-10
       304  17  3.050415E+04  3.242450E+05  4.024174E+04 -4.835415E+04 -9.293160E-10  1.187802E-09
       304  18  7.682151E+04  5.093764E+05  7.966674E+04 -1.035796E+05 -6.236021E-10  7.351882E-11
       304  19  2.060536E+04  2.575384E+05  3.338190E+04 -1.042110E+05 -2.411994E+03 -9.792367E+03
       304  20 -3.158759E+04  7.247668E+04 -1.851731E+04 -4.899309E+04  4.946680E+03 -4.471947E+03
       304  21 -7.604260E+04 -1.102702E+05 -6.510121E+04 -1.006622E+05  1.198159E+04  8.448047E+02
       304  22  6.301327E+03  1.995194E+05  1.990379E+04 -1.021119E+05 -2.404447E+03 -1.467244E+04
       304  23 -5.411218E+02  1.983536E+05  1.086292E+04 -4.867368E+04  4.953400E+03 -9.142229E+03
       304  24  3.929345E+02  1.995089E+05  7.286182E+03 -1.021206E+05  1.198760E+04 -3.614144E+03
       304  25 -8.002919E+03  1.415037E+05  6.425536E+03 -1.000131E+05 -2.396933E+03 -1.955207E+04
       304  26  3.050423E+04  3.242453E+05  4.024214E+04 -4.835420E+04  4.960115E+03 -1.381345E+04
       304  27  7.682169E+04  5.093765E+05  7.966713E+04 -1.035797E+05  1.199362E+04 -8.075304E+03
       305   1 -1.235032E+05 -3.028557E+05 -1.109258E+05 -1.024187E+05 -1.993207E+04 -8.737363E+03
       305   2 -1.698116E+05 -4.870462E+05 -1.553386E+05 -4.763145E+04 -2.585656E+04  3.248133E+03
       305   3 -2.111348E+05 -6.714182E+05 -2.062983E+05 -9.918495E+04 -9.132261E+03  1.524806E+04
       305   4  4.038151E+02  1.994713E+05  6.251507E+03 -1.019969E+05 -1.994580E+04  2.426066E+03
       305   5 -6.273613E+02  1.982745E+05  5.117726E+03 -4.882829E+04 -2.585124E+04 -2.570907E+02
       305   6  5.872396E+03  1.994088E+05  7.626247E+03 -1.019928E+05 -9.119031E+03 -2.922022E+03
       305   7  1.242930E+05  7.020314E+05  1.234122E+05 -1.015746E+05 -1.995951E+04  1.359847E+04
       305   8  1.685235E+05  8.840281E+05  1.655421E+05 -5.002635E+04 -2.584591E+04 -3.766161E+03
       305   9  2.228235E+05  1.070927E+06  2.214962E+05 -1.048045E+05 -9.105647E+03 -2.111756E+04
       305  10 -1.235036E+05 -3.028558E+05 -1.109267E+05 -1.024188E+05 -2.795861E-10  2.416359E-10
       305  11 -1.698123E+05 -4.870464E+05 -1.553399E+05 -4.763139E+04  7.598450E-11 -1.135949E-10
       305  12 -2.111350E+05 -6.714185E+05 -2.062989E+05 -9.918483E+04 -9.602034E-11  6.524302E-11
       305  13  4.033863E+02  1.994712E+05  6.250749E+03 -1.019968E+05 -8.132369E-10 -5.404156E-10
       305  14 -6.280790E+02  1.982743E+05  5.116470E+03 -4.882830E+04  5.556927E-10 -1.877502E-10
       305  15  5.872305E+03  1.994088E+05  7.626074E+03 -1.019929E+05 -2.355755E-10  2.884258E-11
       305  16  1.242926E+05  7.020310E+05  1.234111E+05 -1.015744E+05  6.923820E-11 -2.810667E-10
       305  17  1.685228E+05  8.840279E+05  1.655408E+05 -5.002642E+04 -2.180475E-10  4.314949E-10
       305  18  2.228233E+05  1.070927E+06  2.214952E+05 -1.048046E+05 -4.367084E-10 -2.938128E-11
       305  19 -1.235032E+05 -3.028557E+05 -1.109258E+05 -1.024187E+05  1.993207E+04  8.737363E+03
       305  20 -1.698116E+05 -4.870462E+05 -1.553386E+05 -4.763145E+04  2.585656E+04 -3.248133E+03
       305  21 -2.111348E+05 -6.714182E+05 -2.062983E+05 -9.918495E+04  9.132261E+03 -1.524806E+04
       305  22  4.038151E+02  1.994713E+05  6.251507E+03 -1.019969E+05  1.994580E+04 -2.426066E+03
       305  23 -6.273613E+02  1.982745E+05  5.117726E+03 -4.882829E+04  2.585124E+04  2.570907E+02
       305  24  5.872396E+03  1.994088E+05  7.626247E+03 -1.019928E+05  9.119031E+03  2.922022E+03
       305  25  1.242930E+05  7.020314E+05  1.234122E+05 -1.015746E+05  1.995951E+04 -1.359847E+04
       305  26  1.685235E+05  8.840281E+05  1.655421E+05 -5.002635E+04  2.584591E+04  3.766161E+03
       305  27  2.228235E+05  1.070927E+06  2.214962E+05 -1.048045E+05  9.105647E+03  2.111756E+04
       306   1 -1.496041E+06 -5.154614E+05 -3.247911E+05 -5.348115E+05 -1.493570E+05 -5.062423E+04
       306   2 -1.453507E+06 -2.944083E+05 -1.867809E+05 -5.419829E+05 -9.684245E+04 -1.958145E+04
       306   3 -1.476907E+06 -2.732461E+05 -1.421035E+05 -5.146504E+05 -4.044117E+04  1.128612E+03
       306   4 -1.142831E+06 -3.245143E+05 -2.178909E+05 -3.793508E+05 -1.402811E+05 -4.723036E+04
       306   5 -1.098975E+06 -1.439441E+05 -9.201125E+04 -4.271141E+05 -9.400001E+04 -1.851768E+04
       306   6 -1.119776E+06 -1.619682E+05 -5.447839E+04 -4.403860E+05 -4.383379E+04 -1.440746E+02
       306   7 -7.894902E+05 -1.335142E+05 -1.110021E+05 -2.237969E+05 -1.311996E+05 -4.383220E+04
       306   8 -7.443196E+05  6.537954E+03  2.747293E+03 -3.121826E+05 -9.115579E+04 -1.745303E+04
       306   9 -7.625216E+05 -5.069123E+04  3.313722E+04 -3.660874E+05 -4.722853E+04 -1.417248E+03
       306  10 -1.496066E+06 -5.154702E+05 -3.248379E+05 -5.348176E+05 -2.593987E-10 -1.773591E-10
       306  11 -1.453517E+06 -2.944112E+05 -1.867993E+05 -5.419844E+05 -8.142588E-10  1.219107E-10
       306  12 -1.476909E+06 -2.732465E+05 -1.421066E+05 -5.146504E+05  5.034406E-10  1.296636E-11
       306  13 -1.142853E+06 -3.245220E+05 -2.179321E+05 -3.793561E+05  8.895091E-10 -2.477143E-10
       306  14 -1.098984E+06 -1.439469E+05 -9.202854E+04 -4.271155E+05 -1.775460E-10 -8.035535E-11
       306  15 -1.119778E+06 -1.619687E+05 -5.448201E+04 -4.403860E+05  9.311165E-11 -3.211136E-11
       306  16 -7.895092E+05 -1.335209E+05 -1.110381E+05 -2.238015E+05 -1.941851E-10  9.737316E-11
       306  17 -7.443286E+05  6.535391E+03  2.731083E+03 -3.121838E+05 -1.887285E-10  3.386708E-10
       306  18 -7.625240E+05 -5.069184E+04  3.313302E+04 -3.660874E+05 -1.970909E-10  1.050861E-10
       306  19 -1.496041E+06 -5.154614E+05 -3.247911E+05 -5.348115E+05  1.493570E+05  5.062423E+04
       306  20 -1.453507E+06 -2.944083E+05 -1.867809E+05 -5.419829E+05  9.684245E+04  1.958145E+04
       306  21 -1.476907E+06 -2.732461E+05 -1.421035E+05 -5.146504E+05  4.044117E+04 -1.128612E+03
       306  22 -1.142831E+06 -3.245143E+05 -2.178909E+05 -3.793508E+05  1.402811E+05  4.723036E+04
       306  23 -1.098975E+06 -1.439441E+05 -9.201125E+04 -4.271141E+05  9.400001E+04  1.851768E+04
       306  24 -1.119776E+06 -1.619682E+05 -5.447839E+04 -4.403860E+05  4.383379E+04  1.440746E+02
       306  25 -7.894902E+05 -1.335142E+05 -1.110021E+05 -2.237969E+05  1.311996E+05  4.383220E+04
       306  26 -7.443196E+05  6.537954E+03  2.747293E+03 -3.121826E+05  9.115579E+04  1.745303E+04
       306  27 -7.625216E+05 -5.069123E+04  3.313722E+04 -3.660874E+05  4.722853E+04  1.417248E+03
       307   1 -1.418952E+06 -3.024090E+05 -1.239942E+05 -5.167919E+05 -3.532405E+04  6.036749E+02
       307   2 -1.394484E+06 -2.669721E+05 -9.415027E+04 -5.036739E+05 -2.352320E+04  4.225646E+03
       307   3 -1.365086E+06 -2.615115E+05 -7.755392E+04 -5.011155E+05 -1.148204E+04  7.207777E+03
       307   4 -1.112563E+06 -1.829537E+05 -4.396751E+04 -4.284402E+05 -3.556948E+04  5.107588E+02
       307   5 -1.114026E+06 -1.606836E+05 -2.164864E+04 -4.259036E+05 -2.415078E+04  3.989735E+03
       307   6 -1.110483E+06 -1.683087E+05 -1.226905E+04 -4.339272E+05 -1.249236E+04  6.828650E+03
       307   7 -8.060805E+05 -6.349009E+04  3.605155E+04 -3.400479E+05 -3.581505E+04  4.177895E+02
       307   8 -8.334919E+05 -5.438950E+04  5.084659E+04 -3.481011E+05 -2.477866E+04  3.753704E+03
       307   9 -8.558160E+05 -7.510249E+04  5.301053E+04 -3.667142E+05 -1.350313E+04  6.449361E+03
       307  10 -1.418953E+06 -3.024094E+05 -1.239966E+05 -5.167919E+05  1.466443E-10 -8.759728E-11
       307  11 -1.394484E+06 -2.669723E+05 -9.415135E+04 -5.036738E+05  8.322469E-10 -3.483083E-10
       307  12 -1.365087E+06 -2.615116E+05 -7.755427E+04 -5.011155E+05  2.788107E-10 -5.854971E-11
       307  13 -1.112564E+06 -1.829541E+05 -4.396989E+04 -4.284401E+05  3.290729E-10 -1.906530E-10
       307  14 -1.114027E+06 -1.606838E+05 -2.164977E+04 -4.259035E+05 -4.589550E-10 -2.206684E-10
       307  15 -1.110483E+06 -1.683088E+05 -1.226943E+04 -4.339271E+05  3.330367E-10  1.610734E-11
       307  16 -8.060819E+05 -6.349043E+04  3.604914E+04 -3.400479E+05 -1.557416E-10 -5.874325E-11
       307  17 -8.334925E+05 -5.438968E+04  5.084541E+04 -3.481010E+05 -3.008768E-10  2.160855E-11
       307  18 -8.558162E+05 -7.510258E+04  5.301011E+04 -3.667141E+05 -1.060756E-10 -5.194683E-11
       307  19 -1.418952E+06 -3.024090E+05 -1.239942E+05 -5.167919E+05  3.532405E+04 -6.036749E+02
       307  20 -1.394484E+06 -2.669721E+05 -9.415027E+04 -5.036739E+05  2.352320E+04 -4.225646E+03
       307  21 -1.365086E+06 -2.615115E+05 -7.755392E+04 -5.011155E+05  1.148204E+04 -7.207777E+03
       307  22 -1.112563E+06 -1.829537E+05 -4.396751E+04 -4.284402E+05  3.556948E+04 -5.107588E+02
       307  23 -1.114026E+06 -1.606836E+05 -2.164864E+04 -4.259036E+05  2.415078E+04 -3.989735E+03
       307  24 -1.110483E+06 -1.683087E+05 -1.226905E+04 -4.339272E+05  1.249236E+04 -6.828650E+03
       307  25 -8.060805E+05 -6.349009E+04  3.605155E+04 -3.400479E+05  3.581505E+04 -4.177895E+02
       307  26 -8.334919E+05 -5.438950E+04  5.084659E+04 -3.481011E+05  2.477866E+04 -3.753704E+03
       307  27 -8.558160E+05 -7.510249E+04  5.301053E+04 -3.667142E+05  1.350313E+04 -6.449361E+03
       308   1 -1.330254E+06 -2.531328E+05 -6.629573E+04 -4.933677E+05 -9.580645E+03  6.886849E+03
       308   2 -1.307181E+06 -2.339216E+05 -5.436003E+04 -4.779566E+05 -6.498621E+03  6.455458E+03
       308   3 -1.271766E+06 -2.295105E+05 -4.474416E+04 -4.774020E+05 -3.397811E+03  5.972646E+03
       308   4 -1.109592E+06 -1.702307E+05 -9.479545E+03 -4.329010E+05 -1.040934E+04  6.575926E+03
       308   5 -1.115672E+06 -1.621844E+05 -5.016759E+03 -4.257150E+05 -7.357549E+03  6.133379E+03
       308   6 -1.109404E+06 -1.689317E+05 -2.849116E+03 -4.333858E+05 -4.287094E+03  5.639372E+03
       308   7 -8.888826E+05 -8.732585E+04  4.733240E+04 -3.724150E+05 -1.123836E+04  6.264882E+03
       308   8 -9.241267E+05 -9.044496E+04  4.432348E+04 -3.734588E+05 -8.216768E+03  5.811191E+03
       308   9 -9.470168E+05 -1.083512E+05  3.904390E+04 -3.893589E+05 -5.176636E+03  5.306001E+03
       308  10 -1.330254E+06 -2.531329E+05 -6.629599E+04 -4.933677E+05  5.023704E-10  1.953897E-10
       308  11 -1.307181E+06 -2.339217E+05 -5.436019E+04 -4.779565E+05  2.297918E-10  3.280974E-12
       308  12 -1.271766E+06 -2.295106E+05 -4.474424E+04 -4.774020E+05  2.687161E-10  1.773920E-14
       308  13 -1.109592E+06 -1.702308E+05 -9.479830E+03 -4.329009E+05 -1.227096E-10 -1.427043E-10
       308  14 -1.115672E+06 -1.621845E+05 -5.016931E+03 -4.257149E+05  2.284224E-11 -2.301269E-10
       308  15 -1.109404E+06 -1.689318E+05 -2.849211E+03 -4.333857E+05  6.270002E-10 -1.101283E-10
       308  16 -8.888827E+05 -8.732593E+04  4.733209E+04 -3.724149E+05 -4.120563E-10 -3.232707E-10
       308  17 -9.241268E+05 -9.044501E+04  4.432329E+04 -3.734587E+05 -6.651864E-11  1.823198E-10
       308  18 -9.470168E+05 -1.083512E+05  3.904379E+04 -3.893589E+05 -3.216325E-10 -1.347061E-11
       308  19 -1.330254E+06 -2.531328E+05 -6.629573E+04 -4.933677E+05  9.580645E+03 -6.886849E+03
       308  20 -1.307181E+06 -2.339216E+05 -5.436003E+04 -4.779566E+05  6.498621E+03 -6.455458E+03
       308  21 -1.271766E+06 -2.295105E+05 -4.474416E+04 -4.774020E+05  3.397811E+03 -5.972646E+03
       308  22 -1.109592E+06 -1.702307E+05 -9.479545E+03 -4.329010E+05  1.040934E+04 -6.575926E+03
       308  23 -1.115672E+06 -1.621844E+05 -5.016759E+03 -4.257150E+05  7.357549E+03 -6.133379E+03
       308  24 -1.109404E+06 -1.689317E+05 -2.849116E+03 -4.333858E+05  4.287094E+03 -5.639372E+03
       308  25 -8.888826E+05 -8.732585E+04  4.733240E+04 -3.724150E+05  1.123836E+04 -6.264882E+03
       308  26 -9.241267E+05 -9.044496E+04  4.432348E+04 -3.734588E+05  8.216768E+03 -5.811191E+03
       308  27 -9.470168E+05 -1.083512E+05  3.904390E+04 -3.893589E+05  5.176636E+03 -5.306001E+03
       309   1 -1.238420E+06 -2.174743E+05 -3.537485E+04 -4.685546E+05 -2.670303E+03  5.272704E+03
       309   2 -1.215160E+06 -1.994066E+05 -2.690497E+04 -4.526698E+05 -1.446385E+03  4.064454E+03
       309   3 -1.178553E+06 -1.949769E+05 -1.897647E+04 -4.522445E+05 -2.191848E+02  2.846563E+03
       309   4 -1.109245E+06 -1.691405E+05 -2.209083E+03 -4.333439E+05 -3.552910E+03  4.942019E+03
       309   5 -1.115910E+06 -1.622680E+05 -1.341634E+03 -4.256340E+05 -2.334677E+03  3.731731E+03
       309   6 -1.109228E+06 -1.690322E+05 -1.010856E+03 -4.333837E+05 -1.113201E+03  2.511795E+03
       309   7 -9.800538E+05 -1.208056E+05  3.095531E+04 -3.981267E+05 -4.435720E+03  4.611259E+03
       309   8 -1.016651E+06 -1.251288E+05  2.422084E+04 -3.985944E+05 -3.223124E+03  3.398951E+03
       309   9 -1.039899E+06 -1.430873E+05  1.695429E+04 -4.145210E+05 -2.007324E+03  2.176987E+03
       309  10 -1.238420E+06 -2.174744E+05 -3.537492E+04 -4.685546E+05  2.183859E-10 -2.085994E-11
       309  11 -1.215160E+06 -1.994066E+05 -2.690501E+04 -4.526698E+05  4.646009E-10  3.633691E-10
       309  12 -1.178553E+06 -1.949769E+05 -1.897648E+04 -4.522445E+05 -4.817534E-10 -5.632044E-10
       309  13 -1.109245E+06 -1.691405E+05 -2.209153E+03 -4.333439E+05  9.162664E-10  6.391162E-11
       309  14 -1.115910E+06 -1.622680E+05 -1.341671E+03 -4.256340E+05 -4.191962E-10 -3.633704E-10
       309  15 -1.109228E+06 -1.690322E+05 -1.010870E+03 -4.333837E+05  1.005813E-09  5.639461E-10
       309  16 -9.800538E+05 -1.208056E+05  3.095524E+04 -3.981266E+05  9.962575E-11  1.364693E-10
       309  17 -1.016651E+06 -1.251289E+05  2.422080E+04 -3.985944E+05  4.915144E-11  1.937674E-10
       309  18 -1.039899E+06 -1.430873E+05  1.695427E+04 -4.145210E+05  3.296947E-11 -4.150593E-10
       309  19 -1.238420E+06 -2.174743E+05 -3.537485E+04 -4.685546E+05  2.670303E+03 -5.272704E+03
       309  20 -1.215160E+06 -1.994066E+05 -2.690497E+04 -4.526698E+05  1.446385E+03 -4.064454E+03
       309  21 -1.178553E+06 -1.949769E+05 -1.897647E+04 -4.522445E+05  2.191848E+02 -2.846563E+03
       309  22 -1.109245E+06 -1.691405E+05 -2.209083E+03 -4.333439E+05  3.552910E+03 -4.942019E+03
       309  23 -1.115910E+06 -1.622680E+05 -1.341634E+03 -4.256340E+05  2.334677E+03 -3.731731E+03
       309  24 -1.109228E+06 -1.690322E+05 -1.010856E+03 -4.333837E+05  1.113201E+03 -2.511795E+03
       309  25 -9.800538E+05 -1.208056E+05  3.095531E+04 -3.981267E+05  4.435720E+03 -4.611259E+03
       309  26 -1.016651E+06 -1.251288E+05  2.422084E+04 -3.985944E+05  3.223124E+03 -3.398951E+03
       309  27 -1.039899E+06 -1.430873E+05  1.695429E+04 -4.145210E+05  2.007324E+03 -2.176987E+03
       310   1 -1.145010E+06 -1.824522E+05 -1.009758E+04 -4.431861E+05  2.694975E+02  2.048792E+03
       310   2 -1.121593E+06 -1.643678E+05 -2.648659E+03 -4.271548E+05  1.416746E+03  7.934069E+02
       310   3 -1.084727E+06 -1.599941E+05  4.323786E+03 -4.267014E+05  2.563529E+03 -4.606935E+02
       310   4 -1.109206E+06 -1.690563E+05 -9.848964E+02 -4.334069E+05 -6.260965E+02  1.713467E+03
       310   5 -1.115935E+06 -1.622404E+05 -1.189509E+03 -4.256028E+05  5.219085E+02  4.583650E+02
       310   6 -1.109217E+06 -1.691355E+05 -1.871323E+03 -4.333772E+05  1.669414E+03 -7.954583E+02
       310   7 -1.073400E+06 -1.556603E+05  8.127727E+03 -4.236270E+05 -1.521750E+03  1.378118E+03
       310   8 -1.110277E+06 -1.601129E+05  2.696448E+02 -4.240508E+05 -3.729398E+02  1.233192E+02
       310   9 -1.133706E+06 -1.782769E+05 -8.066477E+03 -4.400528E+05  7.753364E+02 -1.130209E+03
       310  10 -1.145010E+06 -1.824522E+05 -1.009759E+04 -4.431861E+05 -1.972057E-10 -1.578583E-10
       310  11 -1.121593E+06 -1.643678E+05 -2.648664E+03 -4.271548E+05  2.798442E-11 -4.750721E-10
       310  12 -1.084727E+06 -1.599941E+05  4.323774E+03 -4.267014E+05  1.699416E-10  3.237406E-10
       310  13 -1.109206E+06 -1.690563E+05 -9.849027E+02 -4.334069E+05  4.684701E-10 -3.021182E-10
       310  14 -1.115935E+06 -1.622404E+05 -1.189510E+03 -4.256028E+05  1.768181E-10  2.013261E-10
       310  15 -1.109217E+06 -1.691355E+05 -1.871329E+03 -4.333772E+05  3.743348E-10  1.382212E-10
       310  16 -1.073400E+06 -1.556603E+05  8.127719E+03 -4.236270E+05  2.918059E-10 -3.737591E-10
       310  17 -1.110277E+06 -1.601129E+05  2.696445E+02 -4.240508E+05  3.464363E-10 -1.808276E-10
       310  18 -1.133706E+06 -1.782769E+05 -8.066480E+03 -4.400528E+05  1.307333E-11 -4.764107E-10
       310  19 -1.145010E+06 -1.824522E+05 -1.009758E+04 -4.431861E+05 -2.694975E+02 -2.048792E+03
       310  20 -1.121593E+06 -1.643678E+05 -2.648659E+03 -4.271548E+05 -1.416746E+03 -7.934069E+02
       310  21 -1.084727E+06 -1.599941E+05  4.323786E+03 -4.267014E+05 -2.563529E+03  4.606935E+02
       310  22 -1.109206E+06 -1.690563E+05 -9.848964E+02 -4.334069E+05  6.260965E+02 -1.713467E+03
       310  23 -1.115935E+06 -1.622404E+05 -1.189509E+03 -4.256028E+05 -5.219085E+02 -4.583650E+02
       310  24 -1.109217E+06 -1.691355E+05 -1.871323E+03 -4.333772E+05 -1.669414E+03  7.954583E+02
       310  25 -1.073400E+06 -1.556603E+05  8.127727E+03 -4.236270E+05  1.521750E+03 -1.378118E+03
       310  26 -1.110277E+06 -1.601129E+05  2.696448E+02 -4.240508E+05  3.729398E+02 -1.233192E+02
       310  27 -1.133706E+06 -1.782769E+05 -8.066477E+03 -4.400528E+05 -7.753364E+02  1.130209E+03
       311   1 -1.051183E+06 -1.474090E+05  1.265918E+04 -4.178101E+05  3.244205E+03 -1.190811E+03
       311   2 -1.027798E+06 -1.291847E+05  1.849607E+04 -4.016320E+05  5.874985E+03 -1.882396E+03
       311   3 -9.916555E+05 -1.257648E+05  2.243866E+04 -4.007066E+05  8.493031E+03 -2.538927E+03
       311   4 -1.109318E+06 -1.689964E+05 -2.390692E+03 -4.334488E+05  2.342578E+03 -1.528412E+03
       311   5 -1.115771E+06 -1.621261E+05 -4.164971E+03 -4.256228E+05  4.994221E+03 -2.212269E+03
       311   6 -1.109471E+06 -1.700646E+05 -7.850299E+03 -4.330501E+05  7.633028E+03 -2.861108E+03
       311   7 -1.167450E+06 -1.905836E+05 -1.744078E+04 -4.490860E+05  1.441047E+03 -1.865978E+03
       311   8 -1.203736E+06 -1.950670E+05 -2.682664E+04 -4.496106E+05  4.113594E+03 -2.542091E+03
       311   9 -1.227274E+06 -2.143636E+05 -3.814051E+04 -4.653881E+05  6.773201E+03 -3.183223E+03
       311  10 -1.051183E+06 -1.474090E+05  1.265915E+04 -4.178101E+05  8.634859E-11  4.901703E-10
       311  11 -1.027798E+06 -1.291847E+05  1.849599E+04 -4.016320E+05  2.831626E-11  2.843762E-10
       311  12 -9.916556E+05 -1.257648E+05  2.243851E+04 -4.007066E+05  3.433206E-10  4.872804E-10
       311  13 -1.109318E+06 -1.689964E+05 -2.390707E+03 -4.334488E+05 -1.285085E-10  5.397813E-11
       311  14 -1.115771E+06 -1.621261E+05 -4.165027E+03 -4.256228E+05 -2.210622E-10  5.659016E-11
       311  15 -1.109471E+06 -1.700646E+05 -7.850424E+03 -4.330501E+05  4.426671E-11  1.686442E-11
       311  16 -1.167450E+06 -1.905836E+05 -1.744079E+04 -4.490860E+05 -6.725321E-11  2.156288E-11
       311  17 -1.203736E+06 -1.950670E+05 -2.682669E+04 -4.496106E+05 -2.034628E-10  4.970343E-10
       311  18 -1.227274E+06 -2.143637E+05 -3.814062E+04 -4.653881E+05 -9.761086E-11  4.629916E-10
       311  19 -1.051183E+06 -1.474090E+05  1.265918E+04 -4.178101E+05 -3.244205E+03  1.190811E+03
       311  20 -1.027798E+06 -1.291847E+05  1.849607E+04 -4.016320E+05 -5.874985E+03  1.882396E+03
       311  21 -9.916555E+05 -1.257648E+05  2.243866E+04 -4.007066E+05 -8.493031E+03  2.538927E+03
       311  22 -1.109318E+06 -1.689964E+05 -2.390692E+03 -4.334488E+05 -2.342578E+03  1.528412E+03
       311  23 -1.115771E+06 -1.621261E+05 -4.164971E+03 -4.256228E+05 -4.994221E+03  2.212269E+03
       311  24 -1.109471E+06 -1.700646E+05 -7.850299E+03 -4.330501E+05 -7.633028E+03  2.861108E+03
       311  25 -1.167450E+06 -1.905836E+05 -1.744078E+04 -4.490860E+05 -1.441047E+03  1.865978E+03
       311  26 -1.203736E+06 -1.950670E+05 -2.682664E+04 -4.496106E+05 -4.113594E+03  2.542091E+03
       311  27 -1.227274E+06 -2.143636E+05 -3.814051E+04 -4.653881E+05 -6.773201E+03  3.183223E+03
       312   1 -9.577754E+05 -1.132453E+05  2.885786E+04 -3.942611E+05  1.041966E+04 -2.857291E+03
       312   2 -9.346503E+05 -9.255719E+04  2.859036E+04 -3.757069E+05  1.987981E+04 -9.164245E+02
       312   3 -9.046800E+05 -9.922177E+04  1.784636E+04 -3.689894E+05  2.915760E+04  1.513431E+03
       312   4 -1.110186E+06 -1.685005E+05 -1.015574E+04 -4.339271E+05  9.418393E+03 -3.232438E+03
       312   5 -1.114436E+06 -1.608495E+05 -1.790497E+04 -4.257422E+05  1.917205E+04 -1.181843E+03
       312   6 -1.111901E+06 -1.806126E+05 -3.636598E+04 -4.293944E+05  2.874287E+04  1.357547E+03
       312   7 -1.262574E+06 -2.237547E+05 -4.917121E+04 -4.735846E+05  8.417397E+03 -3.607491E+03
       312   8 -1.294189E+06 -2.291394E+05 -6.440289E+04 -4.757642E+05  1.846451E+04 -1.447173E+03
       312   9 -1.319080E+06 -2.619992E+05 -9.058177E+04 -4.897805E+05  2.832828E+04  1.201726E+03
       312  10 -9.577756E+05 -1.132453E+05  2.885764E+04 -3.942610E+05 -5.024349E-10  1.666792E-10
       312  11 -9.346507E+05 -9.255730E+04  2.858962E+04 -3.757069E+05 -4.230823E-10 -2.999496E-10
       312  12 -9.046810E+05 -9.922200E+04  1.784476E+04 -3.689894E+05 -4.945132E-10 -2.337738E-11
       312  13 -1.110186E+06 -1.685005E+05 -1.015592E+04 -4.339271E+05 -8.727413E-12  5.568405E-10
       312  14 -1.114436E+06 -1.608496E+05 -1.790566E+04 -4.257422E+05  1.814749E-10  4.597635E-10
       312  15 -1.111902E+06 -1.806128E+05 -3.636754E+04 -4.293944E+05 -2.525231E-10  2.052854E-10
       312  16 -1.262574E+06 -2.237547E+05 -4.917137E+04 -4.735845E+05 -7.499269E-11  2.817085E-10
       312  17 -1.294190E+06 -2.291395E+05 -6.440354E+04 -4.757641E+05  8.081074E-11  5.174794E-10
       312  18 -1.319081E+06 -2.619994E+05 -9.058328E+04 -4.897805E+05  1.042602E-10  2.040298E-10
       312  19 -9.577754E+05 -1.132453E+05  2.885786E+04 -3.942611E+05 -1.041966E+04  2.857291E+03
       312  20 -9.346503E+05 -9.255719E+04  2.859036E+04 -3.757069E+05 -1.987981E+04  9.164245E+02
       312  21 -9.046800E+05 -9.922177E+04  1.784636E+04 -3.689894E+05 -2.915760E+04 -1.513431E+03
       312  22 -1.110186E+06 -1.685005E+05 -1.015574E+04 -4.339271E+05 -9.418393E+03  3.232438E+03
       312  23 -1.114436E+06 -1.608495E+05 -1.790497E+04 -4.257422E+05 -1.917205E+04  1.181843E+03
       312  24 -1.111901E+06 -1.806126E+05 -3.636598E+04 -4.293944E+05 -2.874287E+04 -1.357547E+03
       312  25 -1.262574E+06 -2.237547E+05 -4.917121E+04 -4.735846E+05 -8.417397E+03  3.607491E+03
       312  26 -1.294189E+06 -2.291394E+05 -6.440289E+04 -4.757642E+05 -1.846451E+04  1.447173E+03
       312  27 -1.319080E+06 -2.619992E+05 -9.058177E+04 -4.897805E+05 -2.832828E+04 -1.201726E+03
       313   1 -8.619203E+05 -8.610690E+04  1.725047E+04 -3.887347E+05  3.845131E+04  2.864127E+03
       313   2 -8.420089E+05 -3.513125E+04 -6.334085E+03 -3.408675E+05  7.528052E+04  1.588703E+04
       313   3 -8.718231E+05 -1.502355E+05 -9.916864E+04 -2.677398E+05  1.091311E+05  3.685921E+04
       313   4 -1.117857E+06 -1.632693E+05 -4.505920E+04 -4.392883E+05  3.561485E+04  1.801749E+03
       313   5 -1.102011E+06 -1.469750E+05 -7.609550E+04 -4.267123E+05  7.724262E+04  1.662046E+04
       313   6 -1.136872E+06 -2.977599E+05 -1.802118E+05 -3.888711E+05  1.158904E+05  3.938489E+04
       313   7 -1.373731E+06 -2.404327E+05 -1.073738E+05 -4.898258E+05  3.277966E+04  7.396304E+02
       313   8 -1.361946E+06 -2.588080E+05 -1.458628E+05 -5.125223E+05  7.920382E+04  1.735343E+04
       313   9 -1.401844E+06 -4.452498E+05 -2.612607E+05 -5.099464E+05  1.226464E+05  4.190805E+04
       313  10 -8.619219E+05 -8.610731E+04  1.724767E+04 -3.887347E+05 -1.582361E-10 -5.453116E-11
       313  11 -8.420150E+05 -3.513305E+04 -6.345227E+03 -3.408685E+05 -6.408268E-10 -2.552548E-10
       313  12 -8.718363E+05 -1.502402E+05 -9.919361E+04 -2.677431E+05 -3.295791E-10 -8.131181E-11
       313  13 -1.117859E+06 -1.632696E+05 -4.506160E+04 -4.392883E+05 -3.482194E-10 -3.416799E-11
       313  14 -1.102017E+06 -1.469769E+05 -7.610726E+04 -4.267134E+05 -1.168575E-11 -2.066276E-10
       313  15 -1.136886E+06 -2.977652E+05 -1.802400E+05 -3.888748E+05  3.173851E-10 -1.015684E-10
       313  16 -1.373733E+06 -2.404330E+05 -1.073758E+05 -4.898258E+05  2.687184E-10 -1.445669E-11
       313  17 -1.361952E+06 -2.588100E+05 -1.458751E+05 -5.125234E+05 -6.291806E-10 -1.986511E-10
       313  18 -1.401860E+06 -4.452557E+05 -2.612923E+05 -5.099506E+05  2.000878E-10  2.811526E-11
       313  19 -8.619203E+05 -8.610690E+04  1.725047E+04 -3.887347E+05 -3.845131E+04 -2.864127E+03
       313  20 -8.420089E+05 -3.513125E+04 -6.334085E+03 -3.408675E+05 -7.528052E+04 -1.588703E+04
       313  21 -8.718231E+05 -1.502355E+05 -9.916864E+04 -2.677398E+05 -1.091311E+05 -3.685921E+04
       313  22 -1.117857E+06 -1.632693E+05 -4.505920E+04 -4.392883E+05 -3.561485E+04 -1.801749E+03
       313  23 -1.102011E+06 -1.469750E+05 -7.609550E+04 -4.267123E+05 -7.724262E+04 -1.662046E+04
       313  24 -1.136872E+06 -2.977599E+05 -1.802118E+05 -3.888711E+05 -1.158904E+05 -3.938489E+04
       313  25 -1.373731E+06 -2.404327E+05 -1.073738E+05 -4.898258E+05 -3.277966E+04 -7.396304E+02
       313  26 -1.361946E+06 -2.588080E+05 -1.458628E+05 -5.125223E+05 -7.920382E+04 -1.735343E+04
       313  27 -1.401844E+06 -4.452498E+05 -2.612607E+05 -5.099464E+05 -1.226464E+05 -4.190805E+04
       314   1  7.769155E+05  1.731860E+05  2.714699E+05  1.095633E+05  3.147106E+05  1.073928E+04
       314   2  7.897614E+05 -2.376627E+05  2.714948E+04  2.810937E+04  2.123830E+05  3.117826E+04
       314   3  9.276709E+05 -2.040265E+05 -3.931608E+04 -9.666188E+04  1.100730E+05  3.002108E+04
       314   4  1.666909E+06  3.938188E+05  4.892514E+05 -3.956742E+04  3.354548E+05  1.069799E+04
       314   5  1.603419E+06 -3.727412E+04  2.172280E+05 -1.759019E+04  2.189505E+05  3.116854E+04
       314   6  1.667246E+06 -2.178126E+04  1.327081E+05 -3.892690E+04  1.024795E+05  3.002146E+04
       314   7  2.557672E+06  6.144774E+05  7.069887E+05 -1.889123E+05  3.562285E+05  1.064682E+04
       314   8  2.417689E+06  1.630756E+05  4.072629E+05 -6.335016E+04  2.255264E+05  3.115788E+04
       314   9  2.407333E+06  1.604379E+05  3.046975E+05  1.887713E+04  9.487699E+04  3.002043E+04
       314  10  7.768092E+05  1.731594E+05  2.712838E+05  1.095605E+05 -5.064683E-12  5.909223E-10
       314  11  7.897128E+05 -2.376759E+05  2.706301E+04  2.810404E+04  5.948748E-11 -4.655528E-10
       314  12  9.276577E+05 -2.040307E+05 -3.934051E+04 -9.666454E+04  5.329717E-10 -3.305466E-10
       314  13  1.666789E+06  3.937886E+05  4.890403E+05 -3.957031E+04  1.222965E-09  3.170277E-10
       314  14  1.603367E+06 -3.728799E+04  2.171363E+05 -1.759569E+04 -1.905060E-09 -1.603338E-09
       314  15  1.667235E+06 -2.178503E+04  1.326868E+05 -3.892937E+04  4.477620E-10  8.096288E-12
       314  16  2.557536E+06  6.144434E+05  7.067510E+05 -1.889153E+05 -5.202981E-10 -2.373232E-10
       314  17  2.417635E+06  1.630610E+05  4.071658E+05 -6.335581E+04 -2.289168E-10 -3.226698E-10
       314  18  2.407323E+06  1.604345E+05  3.046789E+05  1.887484E+04 -1.083871E-09 -4.027395E-10
       314  19  7.769155E+05  1.731860E+05  2.714699E+05  1.095633E+05 -3.147106E+05 -1.073928E+04
       314  20  7.897614E+05 -2.376627E+05  2.714948E+04  2.810937E+04 -2.123830E+05 -3.117826E+04
       314  21  9.276709E+05 -2.040265E+05 -3.931608E+04 -9.666188E+04 -1.100730E+05 -3.002108E+04
       314  22  1.666909E+06  3.938188E+05  4.892514E+05 -3.956742E+04 -3.354548E+05 -1.069799E+04
       314  23  1.603419E+06 -3.727412E+04  2.172280E+05 -1.759019E+04 -2.189505E+05 -3.116854E+04
       314  24  1.667246E+06 -2.178126E+04  1.327081E+05 -3.892690E+04 -1.024795E+05 -3.002146E+04
       314  25  2.557672E+06  6.144774E+05  7.069887E+05 -1.889123E+05 -3.562285E+05 -1.064682E+04
       314  26  2.417689E+06  1.630756E+05  4.072629E+05 -6.335016E+04 -2.255264E+05 -3.115788E+04
       314  27  2.407333E+06  1.604379E+05  3.046975E+05  1.887713E+04 -9.487699E+04 -3.002043E+04
       315   1  9.785500E+05 -1.304556E+05 -4.761908E+04 -2.831232E+04  8.339089E+04  2.527607E+04
       315   2  1.043366E+06 -1.493224E+05 -8.186782E+04 -1.546988E+04  5.566875E+04  2.323933E+04
       315   3  1.121609E+06 -1.301136E+05 -8.850073E+04 -4.416227E+04  2.794239E+04  2.005985E+04
       315   4  1.641920E+06  3.300026E+04  1.073391E+05 -3.872403E+04  8.251339E+04  2.527212E+04
       315   5  1.635183E+06 -3.546090E+03  5.607332E+04 -1.794722E+04  5.402178E+04  2.323674E+04
       315   6  1.641986E+06 -1.904835E+03  3.293516E+04 -3.870190E+04  2.552911E+04  2.005841E+04
       315   7  2.305694E+06  1.964254E+05  2.622674E+05 -4.914698E+04  8.163493E+04  2.526820E+04
       315   8  2.227321E+06  1.422056E+05  1.939908E+05 -2.042697E+04  5.237323E+04  2.323416E+04
       315   9  2.162612E+06  1.262849E+05  1.543527E+05 -3.323695E+04  2.311381E+04  2.005694E+04
       315  10  9.785424E+05 -1.304582E+05 -4.763333E+04 -2.831402E+04  1.941604E-10 -8.172784E-10
       315  11  1.043363E+06 -1.493239E+05 -8.187465E+04 -1.547092E+04  9.443794E-10  3.142907E-10
       315  12  1.121608E+06 -1.301142E+05 -8.850295E+04 -4.416272E+04 -7.154716E-10  5.255567E-11
       315  13  1.641912E+06  3.299775E+04  1.073251E+05 -3.872571E+04  8.753871E-11 -4.052522E-10
       315  14  1.635179E+06 -3.547451E+03  5.606684E+04 -1.794823E+04 -1.708978E-10 -3.863317E-10
       315  15  1.641985E+06 -1.905441E+03  3.293318E+04 -3.870232E+04 -5.932633E-10 -6.045041E-11
       315  16  2.305687E+06  1.964230E+05  2.622538E+05 -4.914864E+04 -9.207896E-11  1.737052E-10
       315  17  2.227318E+06  1.422043E+05  1.939847E+05 -2.042795E+04 -8.610912E-10 -1.106600E-09
       315  18  2.162611E+06  1.262843E+05  1.543510E+05 -3.323732E+04  2.993664E-10 -3.891450E-11
       315  19  9.785500E+05 -1.304556E+05 -4.761908E+04 -2.831232E+04 -8.339089E+04 -2.527607E+04
       315  20  1.043366E+06 -1.493224E+05 -8.186782E+04 -1.546988E+04 -5.566875E+04 -2.323933E+04
       315  21  1.121609E+06 -1.301136E+05 -8.850073E+04 -4.416227E+04 -2.794239E+04 -2.005985E+04
       315  22  1.641920E+06  3.300026E+04  1.073391E+05 -3.872403E+04 -8.251339E+04 -2.527212E+04
       315  23  1.635183E+06 -3.546090E+03  5.607332E+04 -1.794722E+04 -5.402178E+04 -2.323674E+04
       315  24  1.641986E+06 -1.904835E+03  3.293516E+04 -3.870190E+04 -2.552911E+04 -2.005841E+04
       315  25  2.305694E+06  1.964254E+05  2.622674E+05 -4.914698E+04 -8.163493E+04 -2.526820E+04
       315  26  2.227321E+06  1.422056E+05  1.939908E+05 -2.042697E+04 -5.237323E+04 -2.323416E+04
       315  27  2.162612E+06  1.262849E+05  1.543527E+05 -3.323695E+04 -2.311381E+04 -2.005694E+04
       316   1  1.192325E+06 -1.074446E+05 -7.844028E+04 -3.804973E+04  2.239794E+04  1.800949E+04
       316   2  1.260654E+06 -9.344849E+04 -7.375891E+04 -1.836549E+04  1.530175E+04  1.485307E+04
       316   3  1.330823E+06 -7.618938E+04 -6.362710E+04 -3.893079E+04  8.202671E+03  1.166095E+04
       316   4  1.639399E+06  2.630513E+03  2.555607E+04 -3.842281E+04  2.037109E+04  1.800841E+04
       316   5  1.638491E+06 -3.931624E+02  1.428241E+04 -1.829887E+04  1.324694E+04  1.485260E+04
       316   6  1.639420E+06 -1.505768E+02  8.475332E+03 -3.842290E+04  6.120674E+03  1.166111E+04
       316   7  2.086656E+06  1.126916E+05  1.295390E+05 -3.879616E+04  1.834278E+04  1.800733E+04
       316   8  2.016459E+06  9.265209E+04  1.023141E+05 -1.823221E+04  1.119088E+04  1.485213E+04
       316   9  1.948106E+06  7.588150E+04  8.057132E+04 -3.791476E+04  4.037650E+03  1.166126E+04
       316  10  1.192325E+06 -1.074451E+05 -7.844183E+04 -3.805006E+04  5.479979E-10  4.787709E-10
       316  11  1.260654E+06 -9.344878E+04 -7.375977E+04 -1.836568E+04  7.552551E-10  5.368718E-11
       316  12  1.330822E+06 -7.618955E+04 -6.362749E+04 -3.893087E+04 -7.118010E-10 -4.305499E-11
       316  13  1.639398E+06  2.630054E+03  2.555468E+04 -3.842311E+04  2.092245E-11  2.772613E-10
       316  14  1.638491E+06 -3.934464E+02  1.428167E+04 -1.829903E+04  2.988630E-10  5.515301E-11
       316  15  1.639420E+06 -1.507329E+02  8.475006E+03 -3.842296E+04 -4.799201E-10 -7.376081E-11
       316  16  2.086656E+06  1.126911E+05  1.295377E+05 -3.879643E+04 -2.495064E-11  7.500444E-11
       316  17  2.016459E+06  9.265182E+04  1.023135E+05 -1.823234E+04  2.426594E-11  1.210206E-10
       316  18  1.948105E+06  7.588135E+04  8.057104E+04 -3.791479E+04 -1.053013E-09  2.848368E-10
       316  19  1.192325E+06 -1.074446E+05 -7.844028E+04 -3.804973E+04 -2.239794E+04 -1.800949E+04
       316  20  1.260654E+06 -9.344849E+04 -7.375891E+04 -1.836549E+04 -1.530175E+04 -1.485307E+04
       316  21  1.330823E+06 -7.618938E+04 -6.362710E+04 -3.893079E+04 -8.202671E+03 -1.166095E+04
       316  22  1.639399E+06  2.630513E+03  2.555607E+04 -3.842281E+04 -2.037109E+04 -1.800841E+04
       316  23  1.638491E+06 -3.931624E+02  1.428241E+04 -1.829887E+04 -1.324694E+04 -1.485260E+04
       316  24  1.639420E+06 -1.505768E+02  8.475332E+03 -3.842290E+04 -6.120674E+03 -1.166111E+04
       316  25  2.086656E+06  1.126916E+05  1.295390E+05 -3.879616E+04 -1.834278E+04 -1.800733E+04
       316  26  2.016459E+06  9.265209E+04  1.023141E+05 -1.823221E+04 -1.119088E+04 -1.485213E+04
       316  27  1.948106E+06  7.588150E+04  8.057132E+04 -3.791476E+04 -4.037650E+03 -1.166126E+04
       317   1  1.401975E+06 -5.815675E+04 -4.840480E+04 -3.828541E+04  6.810913E+03  9.804773E+03
       317   2  1.469788E+06 -4.169819E+04 -3.516140E+04 -1.852173E+04  4.700614E+03  6.648525E+03
       317   3  1.537945E+06 -2.492224E+04 -2.047085E+04 -3.826550E+04  2.589174E+03  3.501919E+03
       317   4  1.639097E+06  1.966556E+02  6.638547E+03 -3.825814E+04  4.759683E+03  9.805206E+03
       317   5  1.638932E+06 -4.620691E+01  4.245993E+03 -1.850478E+04  2.654836E+03  6.649217E+03
       317   6  1.639104E+06  2.752951E+01  3.296563E+03 -3.825823E+04  5.490740E+02  3.502885E+03
       317   7  1.876271E+06  5.854611E+04  6.167813E+04 -3.823084E+04  2.707677E+03  9.805637E+03
       317   8  1.808102E+06  4.160376E+04  4.365147E+04 -1.848783E+04  6.085049E+02  6.649908E+03
       317   9  1.740273E+06  2.497657E+04  2.706330E+04 -3.825096E+04 -1.491355E+03  3.503852E+03
       317  10  1.401975E+06 -5.815687E+04 -4.840507E+04 -3.828547E+04 -7.855862E-10 -1.338939E-10
       317  11  1.469788E+06 -4.169824E+04 -3.516153E+04 -1.852175E+04 -1.700932E-09  3.723912E-10
       317  12  1.537945E+06 -2.492225E+04 -2.047089E+04 -3.826551E+04 -2.400888E-09  2.411731E-10
       317  13  1.639097E+06  1.965462E+02  6.638324E+03 -3.825817E+04 -1.626299E-09  2.730355E-10
       317  14  1.638932E+06 -4.625631E+01  4.245897E+03 -1.850480E+04 -9.589945E-10 -3.583737E-10
       317  15  1.639104E+06  2.751624E+01  3.296539E+03 -3.825823E+04 -6.311488E-10  2.399404E-11
       317  16  1.876271E+06  5.854601E+04  6.167794E+04 -3.823086E+04  4.581453E-10 -5.390644E-10
       317  17  1.808102E+06  4.160371E+04  4.365139E+04 -1.848784E+04  1.540938E-10 -2.727020E-10
       317  18  1.740273E+06  2.497656E+04  2.706327E+04 -3.825096E+04  1.544696E-09 -1.572068E-10
       317  19  1.401975E+06 -5.815675E+04 -4.840480E+04 -3.828541E+04 -6.810913E+03 -9.804773E+03
       317  20  1.469788E+06 -4.169819E+04 -3.516140E+04 -1.852173E+04 -4.700614E+03 -6.648525E+03
       317  21  1.537945E+06 -2.492224E+04 -2.047085E+04 -3.826550E+04 -2.589174E+03 -3.501919E+03
       317  22  1.639097E+06  1.966556E+02  6.638547E+03 -3.825814E+04 -4.759683E+03 -9.805206E+03
       317  23  1.638932E+06 -4.620691E+01  4.245993E+03 -1.850478E+04 -2.654836E+03 -6.649217E+03
       317  24  1.639104E+06  2.752951E+01  3.296563E+03 -3.825823E+04 -5.490740E+02 -3.502885E+03
       317  25  1.876271E+06  5.854611E+04  6.167813E+04 -3.823084E+04 -2.707677E+03 -9.805637E+03
       317  26  1.808102E+06  4.160376E+04  4.365147E+04 -1.848783E+04 -6.085049E+02 -6.649908E+03
       317  27  1.740273E+06  2.497657E+04  2.706330E+04 -3.825096E+04  1.491355E+03 -3.503852E+03
       318   1  1.608598E+06 -7.438297E+03 -3.693764E+03 -3.818426E+04  1.996116E+03  1.674966E+03
       318   2  1.676147E+06  9.126815E+03  1.244423E+04 -1.852311E+04  1.215756E+02 -1.462056E+03
       318   3  1.743970E+06  2.596737E+04  2.985892E+04 -3.819042E+04 -1.752939E+03 -4.599026E+03
       318   4  1.639092E+06  3.008553E+01  3.208926E+03 -3.821864E+04 -4.131657E+01  1.676000E+03
       318   5  1.638955E+06 -3.046428E+01  3.780365E+03 -1.855429E+04 -1.915844E+03 -1.461089E+03
       318   6  1.639090E+06  1.850197E+02  5.629060E+03 -3.821854E+04 -3.790145E+03 -4.598110E+03
       318   7  1.669587E+06  7.498406E+03  1.011157E+04 -3.825301E+04 -2.078848E+03  1.677034E+03
       318   8  1.601765E+06 -9.187838E+03 -4.883581E+03 -1.858546E+04 -3.953143E+03 -1.460123E+03
       318   9  1.534220E+06 -2.559810E+04 -1.860152E+04 -3.824666E+04 -5.827010E+03 -4.597194E+03
       318  10  1.608598E+06 -7.438301E+03 -3.693777E+03 -3.818427E+04 -1.245607E-09  3.389507E-10
       318  11  1.676147E+06  9.126812E+03  1.244423E+04 -1.852311E+04  1.858865E-10  1.517237E-10
       318  12  1.743970E+06  2.596735E+04  2.985887E+04 -3.819043E+04 -8.176053E-10  5.962558E-11
       318  13  1.639092E+06  3.008251E+01  3.208921E+03 -3.821864E+04 -1.788269E-09  7.825901E-10
       318  14  1.638955E+06 -3.046755E+01  3.780354E+03 -1.855429E+04 -7.473318E-10  6.431406E-10
       318  15  1.639090E+06  1.849931E+02  5.628993E+03 -3.821855E+04  6.038303E-10 -4.567951E-10
       318  16  1.669587E+06  7.498402E+03  1.011156E+04 -3.825301E+04  1.063170E-09  1.040417E-10
       318  17  1.601765E+06 -9.187845E+03 -4.883615E+03 -1.858546E+04 -5.175841E-10  3.055785E-10
       318  18  1.534220E+06 -2.559813E+04 -1.860162E+04 -3.824668E+04  9.148537E-10  1.345887E-10
       318  19  1.608598E+06 -7.438297E+03 -3.693764E+03 -3.818426E+04 -1.996116E+03 -1.674966E+03
       318  20  1.676147E+06  9.126815E+03  1.244423E+04 -1.852311E+04 -1.215756E+02  1.462056E+03
       318  21  1.743970E+06  2.596737E+04  2.985892E+04 -3.819042E+04  1.752939E+03  4.599026E+03
       318  22  1.639092E+06  3.008553E+01  3.208926E+03 -3.821864E+04  4.131657E+01 -1.676000E+03
       318  23  1.638955E+06 -3.046428E+01  3.780365E+03 -1.855429E+04  1.915844E+03  1.461089E+03
       318  24  1.639090E+06  1.850197E+02  5.629060E+03 -3.821854E+04  3.790145E+03  4.598110E+03
       318  25  1.669587E+06  7.498406E+03  1.011157E+04 -3.825301E+04  2.078848E+03 -1.677034E+03
       318  26  1.601765E+06 -9.187838E+03 -4.883581E+03 -1.858546E+04  3.953143E+03  1.460123E+03
       318  27  1.534220E+06 -2.559810E+04 -1.860152E+04 -3.824666E+04  5.827010E+03  4.597194E+03
       319   1  1.815089E+06  4.320444E+04  4.823461E+04 -3.789546E+04 -2.877174E+03 -6.436588E+03
       319   2  1.882703E+06  5.979062E+04  6.868959E+04 -1.843968E+04 -8.807283E+03 -9.589434E+03
       319   3  1.951783E+06  7.908385E+04  9.367539E+04 -3.868655E+04 -1.473683E+04 -1.270588E+04
       319   4  1.639348E+06 -1.024901E+02  7.100241E+03 -3.830211E+04 -4.937027E+03 -6.435808E+03
       319   5  1.638612E+06 -3.027445E+02  1.183395E+04 -1.844998E+04 -1.084152E+04 -9.589063E+03
       319   6  1.639333E+06  2.200513E+03  2.108226E+04 -3.830142E+04 -1.674481E+04 -1.270590E+04
       319   7  1.463636E+06 -4.341160E+04 -3.403621E+04 -3.870863E+04 -6.996303E+03 -6.435024E+03
       319   8  1.394575E+06 -6.040031E+04 -4.502570E+04 -1.846027E+04 -1.287496E+04 -9.588691E+03
       319   9  1.326972E+06 -7.468969E+04 -5.151741E+04 -3.791647E+04 -1.875178E+04 -1.270593E+04
       319  10  1.815089E+06  4.320439E+04  4.823451E+04 -3.789548E+04 -6.806723E-10  4.703388E-10
       319  11  1.882703E+06  5.979050E+04  6.868927E+04 -1.843975E+04  4.089154E-10 -2.069505E-10
       319  12  1.951783E+06  7.908362E+04  9.367468E+04 -3.868670E+04 -1.147082E-09  5.281901E-10
       319  13  1.639348E+06 -1.025411E+02  7.100118E+03 -3.830213E+04  9.492814E-10 -2.402227E-10
       319  14  1.638612E+06 -3.028748E+02  1.183356E+04 -1.845006E+04  9.546705E-10 -7.358593E-10
       319  15  1.639332E+06  2.200265E+03  2.108143E+04 -3.830159E+04  5.418446E-10  4.400721E-10
       319  16  1.463635E+06 -4.341166E+04 -3.403638E+04 -3.870867E+04 -3.653760E-10  3.638998E-10
       319  17  1.394575E+06 -6.040045E+04 -4.502618E+04 -1.846037E+04  1.002433E-09 -4.921967E-10
       319  18  1.326972E+06 -7.468996E+04 -5.151837E+04 -3.791666E+04  1.075485E-09  6.139264E-11
       319  19  1.815089E+06  4.320444E+04  4.823461E+04 -3.789546E+04  2.877174E+03  6.436588E+03
       319  20  1.882703E+06  5.979062E+04  6.868959E+04 -1.843968E+04  8.807283E+03  9.589434E+03
       319  21  1.951783E+06  7.908385E+04  9.367539E+04 -3.868655E+04  1.473683E+04  1.270588E+04
       319  22  1.639348E+06 -1.024901E+02  7.100241E+03 -3.830211E+04  4.937027E+03  6.435808E+03
       319  23  1.638612E+06 -3.027445E+02  1.183395E+04 -1.844998E+04  1.084152E+04  9.589063E+03
       319  24  1.639333E+06  2.200513E+03  2.108226E+04 -3.830142E+04  1.674481E+04  1.270590E+04
       319  25  1.463636E+06 -4.341160E+04 -3.403621E+04 -3.870863E+04  6.996303E+03  6.435024E+03
       319  26  1.394575E+06 -6.040031E+04 -4.502570E+04 -1.846027E+04  1.287496E+04  9.588691E+03
       319  27  1.326972E+06 -7.468969E+04 -5.151741E+04 -3.791647E+04  1.875178E+04  1.270593E+04
       320   1  2.025978E+06  9.315628E+04  1.168767E+05 -3.411173E+04 -1.866631E+04 -1.469583E+04
       320   2  2.090365E+06  1.089846E+05  1.520536E+05 -2.038880E+04 -4.278310E+04 -1.781382E+04
       320   3  2.165925E+06  1.563702E+05  2.108155E+05 -4.729132E+04 -6.690102E+04 -1.996289E+04
       320   4  1.641459E+06 -1.534676E+03  2.714671E+04 -3.850543E+04 -2.099820E+04 -1.469604E+04
       320   5  1.635899E+06 -2.891157E+03  4.619071E+04 -1.819507E+04 -4.447037E+04 -1.781505E+04
       320   6  1.641405E+06  2.721194E+04  8.838667E+04 -3.851130E+04 -6.794100E+04 -1.996530E+04
       320   7  1.257076E+06 -9.623599E+04 -6.259329E+04 -4.289640E+04 -2.332865E+04 -1.469622E+04
       320   8  1.181623E+06 -1.147815E+05 -5.968607E+04 -1.600295E+04 -4.615641E+04 -1.781629E+04
       320   9  1.117139E+06 -1.019655E+05 -3.406079E+04 -2.973875E+04 -6.898009E+04 -1.996775E+04
       320  10  2.025977E+06  9.315595E+04  1.168757E+05 -3.411195E+04  1.389234E-09  3.440882E-10
       320  11  2.090363E+06  1.089838E+05  1.520495E+05 -2.038941E+04  3.300166E-10 -2.518875E-10
       320  12  2.165920E+06  1.563686E+05  2.108064E+05 -4.729239E+04 -6.747347E-10 -4.104421E-10
       320  13  1.641458E+06 -1.535026E+03  2.714547E+04 -3.850568E+04  5.322418E-10  3.379909E-10
       320  14  1.635897E+06 -2.892027E+03  4.618641E+04 -1.819571E+04 -2.903275E-10 -4.142394E-10
       320  15  1.641400E+06  2.721027E+04  8.837727E+04 -3.851240E+04  5.639292E-10 -3.743693E-10
       320  16  1.257075E+06 -9.623637E+04 -6.259472E+04 -4.289668E+04 -4.160309E-10 -1.353306E-10
       320  17  1.181620E+06 -1.147824E+05 -5.969066E+04 -1.600362E+04 -2.750381E-10 -6.609213E-10
       320  18  1.117134E+06 -1.019672E+05 -3.407047E+04 -2.973986E+04  4.132793E-10  4.682815E-11
       320  19  2.025978E+06  9.315628E+04  1.168767E+05 -3.411173E+04  1.866631E+04  1.469583E+04
       320  20  2.090365E+06  1.089846E+05  1.520536E+05 -2.038880E+04  4.278310E+04  1.781382E+04
       320  21  2.165925E+06  1.563702E+05  2.108155E+05 -4.729132E+04  6.690102E+04  1.996289E+04
       320  22  1.641459E+06 -1.534676E+03  2.714671E+04 -3.850543E+04  2.099820E+04  1.469604E+04
       320  23  1.635899E+06 -2.891157E+03  4.619071E+04 -1.819507E+04  4.447037E+04  1.781505E+04
       320  24  1.641405E+06  2.721194E+04  8.838667E+04 -3.851130E+04  6.794100E+04  1.996530E+04
       320  25  1.257076E+06 -9.623599E+04 -6.259329E+04 -4.289640E+04  2.332865E+04  1.469622E+04
       320  26  1.181623E+06 -1.147815E+05 -5.968607E+04 -1.600295E+04  4.615641E+04  1.781629E+04
       320  27  1.117139E+06 -1.019655E+05 -3.406079E+04 -2.973875E+04  6.898009E+04  1.996775E+04
       321   1  2.261182E+06  1.295292E+05  2.484752E+05  8.656770E+03 -7.767814E+04 -2.421583E+04
       321   2  2.280632E+06  1.344796E+05  3.354553E+05 -5.588129E+04 -1.855118E+05 -2.555431E+04
       321   3  2.406772E+06  5.090157E+05  5.849465E+05 -1.623098E+05 -2.933756E+05 -8.651407E+03
       321   4  1.662255E+06 -1.789248E+04  1.092698E+05 -3.869693E+04 -8.438160E+04 -2.421462E+04
       321   5  1.609750E+06 -3.065691E+04  1.788531E+05 -1.791967E+04 -1.802879E+05 -2.556347E+04
       321   6  1.661973E+06  3.242879E+05  4.027980E+05 -3.901878E+04 -2.762097E+05 -8.691767E+03
       321   7  1.063664E+06 -1.653310E+05 -2.995832E+04 -8.600481E+04 -9.107862E+04 -2.421239E+04
       321   8  9.392859E+05 -1.958198E+05  2.222120E+04  2.000072E+04 -1.750696E+05 -2.557201E+04
       321   9  9.177112E+05  1.395765E+05  2.206182E+05  8.412439E+04 -2.590641E+05 -8.725381E+03
       321  10  2.261175E+06  1.295270E+05  2.484628E+05  8.655256E+03  7.603168E-10 -4.402696E-10
       321  11  2.280594E+06  1.344697E+05  3.353897E+05 -5.588510E+04  2.477952E-09 -3.326856E-10
       321  12  2.406680E+06  5.089926E+05  5.847852E+05 -1.623118E+05  9.350496E-10  4.091532E-10
       321  13  1.662248E+06 -1.789502E+04  1.092554E+05 -3.869858E+04 -8.700588E-10 -1.063659E-09
       321  14  1.609715E+06 -3.066631E+04  1.787909E+05 -1.792338E+04 -2.113772E-10 -1.639461E-10
       321  15  1.661892E+06  3.242674E+05  4.026548E+05 -3.902071E+04  8.806416E-11 -4.902072E-10
       321  16  1.063655E+06 -1.653339E+05 -2.997498E+04 -8.600658E+04 -1.247360E-09 -9.358353E-11
       321  17  9.392528E+05 -1.958287E+05  2.216247E+04  1.999712E+04 -1.690241E-09 -5.820694E-10
       321  18  9.176392E+05  1.395584E+05  2.204921E+05  8.412258E+04 -2.480513E-10  8.967520E-10
       321  19  2.261182E+06  1.295292E+05  2.484752E+05  8.656770E+03  7.767814E+04  2.421583E+04
       321  20  2.280632E+06  1.344796E+05  3.354553E+05 -5.588129E+04  1.855118E+05  2.555431E+04
       321  21  2.406772E+06  5.090157E+05  5.849465E+05 -1.623098E+05  2.933756E+05  8.651407E+03
       321  22  1.662255E+06 -1.789248E+04  1.092698E+05 -3.869693E+04  8.438160E+04  2.421462E+04
       321  23  1.609750E+06 -3.065691E+04  1.788531E+05 -1.791967E+04  1.802879E+05  2.556347E+04
       321  24  1.661973E+06  3.242879E+05  4.027980E+05 -3.901878E+04  2.762097E+05  8.691767E+03
       321  25  1.063664E+06 -1.653310E+05 -2.995832E+04 -8.600481E+04  9.107862E+04  2.421239E+04
       321  26  9.392859E+05 -1.958198E+05  2.222120E+04  2.000072E+04  1.750696E+05  2.557201E+04
       321  27  9.177112E+05  1.395765E+05  2.206182E+05  8.412439E+04  2.590641E+05  8.725381E+03
       322   1  1.686889E+05  3.656947E+05  2.175392E+05 -1.213046E+05 -2.366903E+03  1.598809E+05
       322   2 -6.820240E+04  2.522999E+05  6.607820E+04 -4.548745E+04 -8.009779E+03  1.006154E+05
       322   3 -7.950018E+04  2.028295E+05  9.547483E+03 -1.692118E+04 -1.182498E+04  4.136006E+04
       322   4  1.980723E+05  4.854952E+05  2.465455E+05 -4.575924E+04 -2.355990E+03  1.642489E+05
       322   5 -1.870123E+04  4.534535E+05  1.130258E+05 -2.233362E+04 -8.011690E+03  1.037829E+05
       322   6 -9.716492E+03  4.855266E+05  7.525981E+04 -4.614860E+04 -1.183002E+04  4.331977E+04
       322   7  2.274762E+05  6.053211E+05  2.755540E+05  2.980075E+04 -2.344018E+03  1.686177E+05
       322   8  3.079911E+04  6.546455E+05  1.599709E+05  8.277840E+02 -8.013364E+03  1.069513E+05
       322   9  6.006473E+04  7.682993E+05  1.409672E+05 -7.538938E+04 -1.183525E+04  4.528036E+04
       322  10  1.686820E+05  3.656673E+05  2.174912E+05 -1.213043E+05 -3.322125E-10  2.592540E-10
       322  11 -6.820518E+04  2.522890E+05  6.605906E+04 -4.548680E+04 -6.722771E-10 -1.719179E-09
       322  12 -7.950079E+04  2.028276E+05  9.544007E+03 -1.692079E+04  1.052437E-09  6.510592E-10
       322  13  1.980651E+05  4.854662E+05  2.464949E+05 -4.575892E+04  5.290042E-10 -6.960558E-11
       322  14 -1.870419E+04  4.534419E+05  1.130054E+05 -2.233295E+04 -9.522003E-10  1.165731E-09
       322  15 -9.717146E+03  4.855246E+05  7.525602E+04 -4.614819E+04  1.776623E-10  1.894236E-10
       322  16  2.274686E+05  6.052906E+05  2.755006E+05  2.980107E+04  7.040063E-11  7.802776E-10
       322  17  3.079597E+04  6.546332E+05  1.599493E+05  8.284739E+02  1.017670E-09 -1.253311E-09
       322  18  6.006404E+04  7.682971E+05  1.409631E+05 -7.538895E+04  4.270942E-11 -1.141733E-09
       322  19  1.686889E+05  3.656947E+05  2.175392E+05 -1.213046E+05  2.366903E+03 -1.598809E+05
       322  20 -6.820240E+04  2.522999E+05  6.607820E+04 -4.548745E+04  8.009779E+03 -1.006154E+05
       322  21 -7.950018E+04  2.028295E+05  9.547483E+03 -1.692118E+04  1.182498E+04 -4.136006E+04
       322  22  1.980723E+05  4.854952E+05  2.465455E+05 -4.575924E+04  2.355990E+03 -1.642489E+05
       322  23 -1.870123E+04  4.534535E+05  1.130258E+05 -2.233362E+04  8.011690E+03 -1.037829E+05
       322  24 -9.716492E+03  4.855266E+05  7.525981E+04 -4.614860E+04  1.183002E+04 -4.331977E+04
       322  25  2.274762E+05  6.053211E+05  2.755540E+05  2.980075E+04  2.344018E+03 -1.686177E+05
       322  26  3.079911E+04  6.546455E+05  1.599709E+05  8.277840E+02  8.013364E+03 -1.069513E+05
       322  27  6.006473E+04  7.682993E+05  1.409672E+05 -7.538938E+04  1.183525E+04 -4.528036E+04
       323   1 -7.474157E+04  1.055048E+05 -2.077141E+04 -5.311294E+04 -1.392230E+04  2.868484E+04
       323   2 -1.140729E+05  1.769115E+04 -5.668852E+04 -2.214279E+04 -1.767683E+04  4.835098E+03
       323   3 -1.198174E+05 -5.864258E+04 -6.869034E+04 -3.886018E+04 -2.028076E+04 -1.900718E+04
       323   4  1.611072E+04  4.738324E+05  6.542135E+04 -4.612335E+04 -1.392622E+04  3.153130E+04
       323   5 -3.008672E+03  4.680249E+05  4.840988E+04 -2.228572E+04 -1.767901E+04  6.921583E+03
       323   6  1.157800E+04  4.738156E+05  5.583159E+04 -4.613256E+04 -2.028105E+04 -1.768375E+04
       323   7  1.069536E+05  8.422850E+05  1.516049E+05 -3.912952E+04 -1.393007E+04  3.437944E+04
       323   8  1.080412E+05  9.185455E+05  1.534945E+05 -2.242868E+04 -1.768118E+04  9.009571E+03
       323   9  1.429534E+05  1.006535E+06  1.803343E+05 -5.341113E+04 -2.028138E+04 -1.635919E+04
       323  10 -7.474200E+04  1.055039E+05 -2.077332E+04 -5.311262E+04  5.425397E-10  9.752430E-11
       323  11 -1.140733E+05  1.769105E+04 -5.668915E+04 -2.214272E+04  7.817901E-11 -1.551628E-09
       323  12 -1.198179E+05 -5.864308E+04 -6.869179E+04 -3.886049E+04 -4.329444E-10  1.634269E-10
       323  13  1.611024E+04  4.738313E+05  6.541912E+04 -4.612299E+04  4.007743E-10  7.217013E-11
       323  14 -3.009020E+03  4.680247E+05  4.840920E+04 -2.228562E+04  7.284117E-10  8.299807E-10
       323  15  1.157747E+04  4.738152E+05  5.583023E+04 -4.613285E+04  1.160180E-09  1.058111E-10
       323  16  1.069531E+05  8.422837E+05  1.516024E+05 -3.912913E+04  1.201248E-10  9.434927E-10
       323  17  1.080409E+05  9.185454E+05  1.534938E+05 -2.242855E+04 -5.433684E-10 -5.543758E-10
       323  18  1.429529E+05  1.006535E+06  1.803330E+05 -5.341140E+04 -5.883497E-10 -2.267779E-10
       323  19 -7.474157E+04  1.055048E+05 -2.077141E+04 -5.311294E+04  1.392230E+04 -2.868484E+04
       323  20 -1.140729E+05  1.769115E+04 -5.668852E+04 -2.214279E+04  1.767683E+04 -4.835098E+03
       323  21 -1.198174E+05 -5.864258E+04 -6.869034E+04 -3.886018E+04  2.028076E+04  1.900718E+04
       323  22  1.611072E+04  4.738324E+05  6.542135E+04 -4.612335E+04  1.392622E+04 -3.153130E+04
       323  23 -3.008672E+03  4.680249E+05  4.840988E+04 -2.228572E+04  1.767901E+04 -6.921583E+03
       323  24  1.157800E+04  4.738156E+05  5.583159E+04 -4.613256E+04  2.028105E+04  1.768375E+04
       323  25  1.069536E+05  8.422850E+05  1.516049E+05 -3.912952E+04  1.393007E+04 -3.437944E+04
       323  26  1.080412E+05  9.185455E+05  1.534945E+05 -2.242868E+04  1.768118E+04 -9.009571E+03
       323  27  1.429534E+05  1.006535E+06  1.803343E+05 -5.341113E+04  2.028138E+04  1.635919E+04
       324   1 -1.592380E+05 -1.368266E+05 -8.267926E+04 -6.725608E+04 -2.493521E+04 -3.490196E+04
       324   2 -1.871464E+05 -2.430841E+05 -7.716261E+04 -4.384070E+03 -2.655758E+04 -6.863957E+04
       324   3 -4.763223E+04 -3.028111E+05 -7.753899E+03  1.097306E+04 -8.786622E+03 -1.023607E+05
       324   4 -6.715198E+03  4.820314E+05  6.145722E+04 -4.612773E+04 -2.494290E+04 -2.756666E+04
       324   5 -1.418237E+04  4.576758E+05  8.678740E+04 -2.232698E+04 -2.654954E+04 -7.391384E+04
       324   6  1.478537E+05  4.819719E+05  1.847101E+05 -4.603420E+04 -8.768325E+03 -1.202499E+05
       324   7  1.457823E+05  1.101244E+06  2.055683E+05 -2.497807E+04 -2.495009E+04 -2.022408E+04
       324   8  1.587480E+05  1.158889E+06  2.507042E+05 -4.029019E+04 -2.654121E+04 -7.919399E+04
       324   9  3.433064E+05  1.267323E+06  3.771319E+05 -1.031136E+05 -8.746759E+03 -1.381616E+05
       324  10 -1.592390E+05 -1.368281E+05 -8.268272E+04 -6.725678E+04  4.818611E-10  1.233090E-10
       324  11 -1.871484E+05 -2.430893E+05 -7.717279E+04 -4.385538E+03  9.300229E-11 -8.046206E-10
       324  12 -4.763513E+04 -3.028224E+05 -7.773743E+03  1.097234E+04 -1.976509E-10  1.311540E-10
       324  13 -6.716070E+03  4.820305E+05  6.145462E+04 -4.612829E+04 -5.816003E-10  2.166676E-10
       324  14 -1.418459E+04  4.576697E+05  8.677582E+04 -2.232856E+04  5.266657E-10  2.912100E-10
       324  15  1.478498E+05  4.819564E+05  1.846828E+05 -4.603505E+04 -2.062373E-10 -1.436295E-11
       324  16  1.457815E+05  1.101243E+06  2.055663E+05 -2.497848E+04 -1.166213E-10  5.478172E-10
       324  17  1.587456E+05  1.158882E+06  2.506912E+05 -4.029188E+04 -3.875944E-11 -4.466470E-10
       324  18  3.433012E+05  1.267303E+06  3.770959E+05 -1.031146E+05 -5.846494E-11 -2.120781E-10
       324  19 -1.592380E+05 -1.368266E+05 -8.267926E+04 -6.725608E+04  2.493521E+04  3.490196E+04
       324  20 -1.871464E+05 -2.430841E+05 -7.716261E+04 -4.384070E+03  2.655758E+04  6.863957E+04
       324  21 -4.763223E+04 -3.028111E+05 -7.753899E+03  1.097306E+04  8.786622E+03  1.023607E+05
       324  22 -6.715198E+03  4.820314E+05  6.145722E+04 -4.612773E+04  2.494290E+04  2.756666E+04
       324  23 -1.418237E+04  4.576758E+05  8.678740E+04 -2.232698E+04  2.654954E+04  7.391384E+04
       324  24  1.478537E+05  4.819719E+05  1.847101E+05 -4.603420E+04  8.768325E+03  1.202499E+05
       324  25  1.457823E+05  1.101244E+06  2.055683E+05 -2.497807E+04  2.495009E+04  2.022408E+04
       324  26  1.587480E+05  1.158889E+06  2.507042E+05 -4.029019E+04  2.654121E+04  7.919399E+04
       324  27  3.433064E+05  1.267323E+06  3.771319E+05 -1.031136E+05  8.746759E+03  1.381616E+05
       325   1 -2.794078E+06 -1.056888E+06 -5.710981E+05 -1.075116E+06 -2.733121E+05 -8.236078E+04
       325   2 -2.724682E+06 -7.857043E+05 -3.532799E+05 -1.042478E+06 -1.745983E+05  3.016867E+03
       325   3 -2.711921E+06 -6.703325E+05 -2.599674E+05 -9.903111E+05 -6.428746E+04  5.773619E+04
       325   4 -1.712895E+06 -5.153390E+05 -2.668995E+05 -6.405330E+05 -1.794509E+05 -4.705605E+04
       325   5 -1.674849E+06 -3.393117E+05 -1.237853E+05 -6.890786E+05 -1.307746E+05  1.949489E+04
       325   6 -1.683390E+06 -3.090232E+05 -6.529211E+04 -7.181289E+05 -7.052505E+04  5.537588E+04
       325   7 -6.305223E+05  2.657739E+04  3.722431E+04 -2.051757E+05 -8.541304E+04 -1.163312E+04
       325   8 -6.238700E+05  1.072833E+05  1.056524E+05 -3.350879E+05 -8.687118E+04  3.601379E+04
       325   9 -6.537398E+05  5.236824E+04  1.293437E+05 -4.455306E+05 -7.677381E+04  5.301174E+04
       325  10 -2.794160E+06 -1.056915E+06 -5.712520E+05 -1.075134E+06 -1.111365E-09  1.053805E-11
       325  11 -2.724714E+06 -7.857125E+05 -3.533374E+05 -1.042478E+06 -8.156412E-10  9.490776E-10
       325  12 -2.711926E+06 -6.703371E+05 -2.599814E+05 -9.903081E+05 -4.229116E-10  8.056756E-10
       325  13 -1.712931E+06 -5.153501E+05 -2.669644E+05 -6.405398E+05  4.059293E-10  3.670973E-10
       325  14 -1.674868E+06 -3.393167E+05 -1.238182E+05 -6.890765E+05 -9.528544E-10  2.073884E-09
       325  15 -1.683396E+06 -3.090278E+05 -6.530722E+04 -7.181258E+05 -6.999425E-10 -3.292834E-10
       325  16 -6.305301E+05  2.657528E+04  3.721033E+04 -2.051765E+05  8.261677E-10 -6.050267E-10
       325  17 -6.238784E+05  1.072799E+05  1.056357E+05 -3.350854E+05  9.077220E-10 -9.613440E-10
       325  18 -6.537469E+05  5.236364E+04  1.293273E+05 -4.455273E+05 -3.303913E-10  8.171855E-10
       325  19 -2.794078E+06 -1.056888E+06 -5.710981E+05 -1.075116E+06  2.733121E+05  8.236078E+04
       325  20 -2.724682E+06 -7.857043E+05 -3.532799E+05 -1.042478E+06  1.745983E+05 -3.016867E+03
       325  21 -2.711921E+06 -6.703325E+05 -2.599674E+05 -9.903111E+05  6.428746E+04 -5.773619E+04
       325  22 -1.712895E+06 -5.153390E+05 -2.668995E+05 -6.405330E+05  1.794509E+05  4.705605E+04
       325  23 -1.674849E+06 -3.393117E+05 -1.237853E+05 -6.890786E+05  1.307746E+05 -1.949489E+04
       325  24 -1.683390E+06 -3.090232E+05 -6.529211E+04 -7.181289E+05  7.052505E+04 -5.537588E+04
       325  25 -6.305223E+05  2.657739E+04  3.722431E+04 -2.051757E+05  8.541304E+04  1.163312E+04
       325  26 -6.238700E+05  1.072833E+05  1.056524E+05 -3.350879E+05  8.687118E+04 -3.601379E+04
       325  27 -6.537398E+05  5.236824E+04  1.293437E+05 -4.455306E+05  7.677381E+04 -5.301174E+04
       326   1 -2.637165E+06 -6.665065E+05 -2.322748E+05 -9.858437E+05 -6.023965E+04  5.626355E+04
       326   2 -2.562523E+06 -6.194538E+05 -1.895569E+05 -9.559975E+05 -4.210884E+04  6.032650E+04
       326   3 -2.479267E+06 -5.936783E+05 -1.616886E+05 -9.404100E+05 -2.302044E+04  6.184171E+04
       326   4 -1.675343E+06 -3.122464E+05 -4.932285E+04 -7.139201E+05 -6.214555E+04  5.553384E+04
       326   5 -1.679359E+06 -2.973001E+05 -2.599192E+04 -7.085508E+05 -4.815761E+04  5.804058E+04
       326   6 -1.673936E+06 -3.027980E+05 -1.420192E+04 -7.174411E+05 -3.321527E+04  5.800053E+04
       326   7 -7.125514E+05  4.210426E+04  1.335908E+05 -4.416011E+05 -6.405459E+04  5.480293E+04
       326   8 -7.953783E+05  2.492661E+04  1.375424E+05 -4.607757E+05 -5.421556E+04  5.575119E+04
       326   9 -8.679295E+05 -1.186117E+04  1.332593E+05 -4.942044E+05 -4.342417E+04  5.415413E+04
       326  10 -2.637170E+06 -6.665108E+05 -2.322875E+05 -9.858410E+05 -3.185582E-10  1.817159E-09
       326  11 -2.562526E+06 -6.194582E+05 -1.895670E+05 -9.559955E+05 -9.632553E-10  8.226392E-10
       326  12 -2.479269E+06 -5.936826E+05 -1.616968E+05 -9.404089E+05 -6.560109E-10  3.588404E-10
       326  13 -1.675348E+06 -3.122507E+05 -4.933590E+04 -7.139173E+05  2.547037E-10 -1.962159E-10
       326  14 -1.679362E+06 -2.973044E+05 -2.600261E+04 -7.085486E+05 -1.481850E-10  4.304555E-10
       326  15 -1.673938E+06 -3.028019E+05 -1.421031E+04 -7.174395E+05  5.984710E-10  3.095455E-10
       326  16 -7.125566E+05  4.209994E+04  1.335775E+05 -4.415983E+05 -9.229164E-10  5.541415E-10
       326  17 -7.953823E+05  2.492249E+04  1.375310E+05 -4.607732E+05 -5.967072E-10  3.331574E-10
       326  18 -8.679323E+05 -1.186482E+04  1.332503E+05 -4.942025E+05 -1.086689E-10  7.071434E-10
       326  19 -2.637165E+06 -6.665065E+05 -2.322748E+05 -9.858437E+05  6.023965E+04 -5.626355E+04
       326  20 -2.562523E+06 -6.194538E+05 -1.895569E+05 -9.559975E+05  4.210884E+04 -6.032650E+04
       326  21 -2.479267E+06 -5.936783E+05 -1.616886E+05 -9.404100E+05  2.302044E+04 -6.184171E+04
       326  22 -1.675343E+06 -3.122464E+05 -4.932285E+04 -7.139201E+05  6.214555E+04 -5.553384E+04
       326  23 -1.679359E+06 -2.973001E+05 -2.599192E+04 -7.085508E+05  4.815761E+04 -5.804058E+04
       326  24 -1.673936E+06 -3.027980E+05 -1.420192E+04 -7.174411E+05  3.321527E+04 -5.800053E+04
       326  25 -7.125514E+05  4.210426E+04  1.335908E+05 -4.416011E+05  6.405459E+04 -5.480293E+04
       326  26 -7.953783E+05  2.492661E+04  1.375424E+05 -4.607757E+05  5.421556E+04 -5.575119E+04
       326  27 -8.679295E+05 -1.186117E+04  1.332593E+05 -4.942044E+05  4.342417E+04 -5.415413E+04
       327   1 -2.424855E+06 -5.752568E+05 -1.479341E+05 -9.262115E+05 -1.999787E+04  5.879229E+04
       327   2 -2.350429E+06 -5.386251E+05 -1.281627E+05 -8.958227E+05 -1.439413E+04  5.388435E+04
       327   3 -2.262699E+06 -5.162321E+05 -1.109306E+05 -8.812486E+05 -8.708287E+03  4.874878E+04
       327   4 -1.673278E+06 -3.030083E+05 -1.067415E+04 -7.171775E+05 -2.986392E+04  5.507687E+04
       327   5 -1.679918E+06 -2.957714E+05 -5.865244E+03 -7.093176E+05 -2.462867E+04  5.003363E+04
       327   6 -1.673191E+06 -3.026998E+05 -3.301950E+03 -7.172742E+05 -1.931184E+04  4.476275E+04
       327   7 -9.210973E+05 -3.070397E+04  1.265678E+05 -5.079049E+05 -3.974287E+04  5.135662E+04
       327   8 -1.008930E+06 -5.287420E+04  1.164175E+05 -5.226232E+05 -3.487510E+04  4.617847E+04
       327   9 -1.083316E+06 -8.913474E+04  1.043147E+05 -5.531541E+05 -2.992619E+04  4.077269E+04
       327  10 -2.424856E+06 -5.752606E+05 -1.479413E+05 -9.262106E+05 -4.552539E-10  3.372985E-10
       327  11 -2.350430E+06 -5.386283E+05 -1.281686E+05 -8.958220E+05 -8.544333E-11  3.868650E-10
       327  12 -2.262699E+06 -5.162347E+05 -1.109352E+05 -8.812483E+05  7.981273E-10 -1.769842E-10
       327  13 -1.673279E+06 -3.030118E+05 -1.068152E+04 -7.171762E+05  1.379562E-10 -2.437649E-10
       327  14 -1.679919E+06 -2.957743E+05 -5.871082E+03 -7.093166E+05  1.482582E-09 -5.821121E-10
       327  15 -1.673192E+06 -3.027020E+05 -3.306412E+03 -7.172735E+05 -1.024869E-10 -6.272405E-11
       327  16 -9.210997E+05 -3.070723E+04  1.265599E+05 -5.079032E+05 -1.116376E-10  1.135386E-11
       327  17 -1.008932E+06 -5.287681E+04  1.164112E+05 -5.226219E+05 -2.314876E-10  1.455347E-11
       327  18 -1.083318E+06 -8.913676E+04  1.043099E+05 -5.531531E+05 -6.253645E-10 -2.092855E-10
       327  19 -2.424855E+06 -5.752568E+05 -1.479341E+05 -9.262115E+05  1.999787E+04 -5.879229E+04
       327  20 -2.350429E+06 -5.386251E+05 -1.281627E+05 -8.958227E+05  1.439413E+04 -5.388435E+04
       327  21 -2.262699E+06 -5.162321E+05 -1.109306E+05 -8.812486E+05  8.708287E+03 -4.874878E+04
       327  22 -1.673278E+06 -3.030083E+05 -1.067415E+04 -7.171775E+05  2.986392E+04 -5.507687E+04
       327  23 -1.679918E+06 -2.957714E+05 -5.865244E+03 -7.093176E+05  2.462867E+04 -5.003363E+04
       327  24 -1.673191E+06 -3.026998E+05 -3.301950E+03 -7.172742E+05  1.931184E+04 -4.476275E+04
       327  25 -9.210973E+05 -3.070397E+04  1.265678E+05 -5.079049E+05  3.974287E+04 -5.135662E+04
       327  26 -1.008930E+06 -5.287420E+04  1.164175E+05 -5.226232E+05  3.487510E+04 -4.617847E+04
       327  27 -1.083316E+06 -8.913474E+04  1.043147E+05 -5.531541E+05  2.992619E+04 -4.077269E+04
       328   1 -2.209174E+06 -4.968650E+05 -9.999438E+04 -8.664523E+05 -6.810521E+03  4.514692E+04
       328   2 -2.134433E+06 -4.603656E+05 -8.435206E+04 -8.357816E+05 -3.531910E+03  3.896700E+04
       328   3 -2.045866E+06 -4.377975E+05 -6.932994E+04 -8.210443E+05 -2.446119E+02  3.275665E+04
       328   4 -1.673085E+06 -3.027210E+05 -2.540713E+03 -7.172664E+05 -1.740778E+04  4.116493E+04
       328   5 -1.679986E+06 -2.957440E+05 -1.588048E+03 -7.092993E+05 -1.417833E+04  3.496883E+04
       328   6 -1.673056E+06 -3.026889E+05 -1.216914E+03 -7.172679E+05 -1.094029E+04  2.874225E+04
       328   7 -1.136698E+06 -1.085519E+05  9.490181E+04 -5.679614E+05 -2.801474E+04  3.717930E+04
       328   8 -1.225320E+06 -1.311028E+05  8.116907E+04 -5.827304E+05 -2.483309E+04  3.096754E+04
       328   9 -1.300097E+06 -1.675657E+05  6.689256E+04 -6.134322E+05 -2.164295E+04  2.472523E+04
       328  10 -2.209175E+06 -4.968672E+05 -9.999829E+04 -8.664521E+05  1.019987E-10 -3.710618E-10
       328  11 -2.134434E+06 -4.603672E+05 -8.435494E+04 -8.357815E+05 -4.640463E-10 -1.191880E-10
       328  12 -2.045866E+06 -4.377987E+05 -6.933196E+04 -8.210443E+05 -7.499006E-10  2.618640E-11
       328  13 -1.673086E+06 -3.027229E+05 -2.544463E+03 -7.172658E+05 -1.765774E-10 -3.582426E-10
       328  14 -1.679986E+06 -2.957453E+05 -1.590721E+03 -7.092989E+05  2.067640E-10 -1.369789E-10
       328  15 -1.673057E+06 -3.026898E+05 -1.218690E+03 -7.172676E+05 -2.985236E-10  3.316855E-10
       328  16 -1.136699E+06 -1.085536E+05  9.489774E+04 -5.679606E+05 -4.141452E-10 -3.838664E-10
       328  17 -1.225321E+06 -1.311040E+05  8.116611E+04 -5.827297E+05  1.000123E-09 -1.423004E-10
       328  18 -1.300098E+06 -1.675665E+05  6.689053E+04 -6.134318E+05  5.096309E-10  5.843673E-10
       328  19 -2.209174E+06 -4.968650E+05 -9.999438E+04 -8.664523E+05  6.810521E+03 -4.514692E+04
       328  20 -2.134433E+06 -4.603656E+05 -8.435206E+04 -8.357816E+05  3.531910E+03 -3.896700E+04
       328  21 -2.045866E+06 -4.377975E+05 -6.932994E+04 -8.210443E+05  2.446119E+02 -3.275665E+04
       328  22 -1.673085E+06 -3.027210E+05 -2.540713E+03 -7.172664E+05  1.740778E+04 -4.116493E+04
       328  23 -1.679986E+06 -2.957440E+05 -1.588048E+03 -7.092993E+05  1.417833E+04 -3.496883E+04
       328  24 -1.673056E+06 -3.026889E+05 -1.216914E+03 -7.172679E+05  1.094029E+04 -2.874225E+04
       328  25 -1.136698E+06 -1.085519E+05  9.490181E+04 -5.679614E+05  2.801474E+04 -3.717930E+04
       328  26 -1.225320E+06 -1.311028E+05  8.116907E+04 -5.827304E+05  2.483309E+04 -3.096754E+04
       328  27 -1.300097E+06 -1.675657E+05  6.689256E+04 -6.134322E+05  2.164295E+04 -2.472523E+04
       329   1 -1.992144E+06 -4.182785E+05 -5.909260E+04 -8.061554E+05  1.399499E+03  2.902798E+04
       329   2 -1.917040E+06 -3.816354E+05 -4.466583E+04 -7.753759E+05  4.602893E+03  2.276124E+04
       329   3 -1.828059E+06 -3.589723E+05 -3.079437E+04 -7.606072E+05  7.805383E+03  1.649298E+04
       329   4 -1.673037E+06 -3.026916E+05 -1.202070E+03 -7.172850E+05 -9.309198E+03  2.500971E+04
       329   5 -1.679961E+06 -2.956690E+05 -1.496419E+03 -7.092879E+05 -6.108306E+03  1.874323E+04
       329   6 -1.673015E+06 -3.026261E+05 -2.344563E+03 -7.173038E+05 -2.908430E+03  1.247521E+04
       329   7 -1.353823E+06 -1.870950E+05  5.668533E+04 -6.283718E+05 -2.002378E+04  2.098923E+04
       329   8 -1.442823E+06 -2.096976E+05  4.167114E+04 -6.431765E+05 -1.682383E+04  1.472359E+04
       329   9 -1.517946E+06 -2.462781E+05  2.610443E+04 -6.739906E+05 -1.362500E+04  8.456390E+03
       329  10 -1.992145E+06 -4.182794E+05 -5.909419E+04 -8.061554E+05 -3.471218E-11  4.359245E-10
       329  11 -1.917040E+06 -3.816360E+05 -4.466684E+04 -7.753760E+05  7.594498E-11  2.871072E-10
       329  12 -1.828060E+06 -3.589726E+05 -3.079499E+04 -7.606073E+05 -3.635598E-10 -4.327298E-10
       329  13 -1.673038E+06 -3.026923E+05 -1.203407E+03 -7.172848E+05  2.523084E-10  6.021441E-10
       329  14 -1.679961E+06 -2.956694E+05 -1.497149E+03 -7.092878E+05 -9.722186E-13  2.812136E-10
       329  15 -1.673015E+06 -3.026263E+05 -2.344872E+03 -7.173038E+05 -2.805825E-10 -5.399996E-10
       329  16 -1.353823E+06 -1.870956E+05  5.668375E+04 -6.283714E+05 -5.896076E-10  5.167952E-10
       329  17 -1.442824E+06 -2.096979E+05  4.167020E+04 -6.431764E+05  7.894964E-10  2.006725E-10
       329  18 -1.517947E+06 -2.462782E+05  2.610394E+04 -6.739905E+05  5.922232E-11 -1.787362E-10
       329  19 -1.992144E+06 -4.182785E+05 -5.909260E+04 -8.061554E+05 -1.399499E+03 -2.902798E+04
       329  20 -1.917040E+06 -3.816354E+05 -4.466583E+04 -7.753759E+05 -4.602893E+03 -2.276124E+04
       329  21 -1.828059E+06 -3.589723E+05 -3.079437E+04 -7.606072E+05 -7.805383E+03 -1.649298E+04
       329  22 -1.673037E+06 -3.026916E+05 -1.202070E+03 -7.172850E+05  9.309198E+03 -2.500971E+04
       329  23 -1.679961E+06 -2.956690E+05 -1.496419E+03 -7.092879E+05  6.108306E+03 -1.874323E+04
       329  24 -1.673015E+06 -3.026261E+05 -2.344563E+03 -7.173038E+05  2.908430E+03 -1.247521E+04
       329  25 -1.353823E+06 -1.870950E+05  5.668533E+04 -6.283718E+05  2.002378E+04 -2.098923E+04
       329  26 -1.442823E+06 -2.096976E+05  4.167114E+04 -6.431765E+05  1.682383E+04 -1.472359E+04
       329  27 -1.517946E+06 -2.462781E+05  2.610443E+04 -6.739906E+05  1.362500E+04 -8.456390E+03
       330   1 -1.774183E+06 -3.394228E+05 -2.122559E+04 -7.457479E+05  9.700781E+03  1.284881E+04
       330   2 -1.698751E+06 -3.027220E+05 -8.755388E+03 -7.149091E+05  1.466921E+04  7.282125E+03
       330   3 -1.609764E+06 -2.803100E+05  1.762250E+03 -7.001232E+05  1.960429E+04  1.805039E+03
       330   4 -1.673079E+06 -3.026133E+05 -3.035240E+03 -7.173457E+05 -1.031285E+03  8.824571E+03
       330   5 -1.679851E+06 -2.955480E+05 -5.357991E+03 -7.092825E+05  4.082811E+03  3.312581E+03
       330   6 -1.673107E+06 -3.028022E+05 -9.750214E+03 -7.172756E+05  9.163195E+03 -2.109927E+03
       330   7 -1.571962E+06 -2.658022E+05  1.515553E+04 -6.889388E+05 -1.176532E+04  4.799585E+03
       330   8 -1.660950E+06 -2.883738E+05 -1.960097E+03 -7.036556E+05 -6.503984E+03 -6.571267E+02
       330   9 -1.736445E+06 -3.252939E+05 -2.126236E+04 -7.344264E+05 -1.276765E+03 -6.024486E+03
       330  10 -1.774183E+06 -3.394230E+05 -2.122607E+04 -7.457480E+05  3.530309E-10 -5.440148E-10
       330  11 -1.698752E+06 -3.027221E+05 -8.755894E+03 -7.149091E+05 -3.634303E-10 -2.540438E-10
       330  12 -1.609765E+06 -2.803101E+05  1.761520E+03 -7.001232E+05 -1.060081E-09  1.298087E-10
       330  13 -1.673079E+06 -3.026134E+05 -3.035388E+03 -7.173457E+05 -3.979412E-11 -4.064906E-10
       330  14 -1.679851E+06 -2.955480E+05 -5.358043E+03 -7.092825E+05 -1.339883E-09 -5.888508E-10
       330  15 -1.673107E+06 -3.028022E+05 -9.750380E+03 -7.172756E+05  1.628797E-10  4.681904E-10
       330  16 -1.571962E+06 -2.658023E+05  1.515523E+04 -6.889387E+05  6.174265E-11 -2.448214E-10
       330  17 -1.660950E+06 -2.883738E+05 -1.960177E+03 -7.036556E+05  3.752168E-10 -3.062481E-10
       330  18 -1.736445E+06 -3.252940E+05 -2.126243E+04 -7.344264E+05  8.793485E-10  5.761783E-10
       330  19 -1.774183E+06 -3.394228E+05 -2.122559E+04 -7.457479E+05 -9.700781E+03 -1.284881E+04
       330  20 -1.698751E+06 -3.027220E+05 -8.755388E+03 -7.149091E+05 -1.466921E+04 -7.282125E+03
       330  21 -1.609764E+06 -2.803100E+05  1.762250E+03 -7.001232E+05 -1.960429E+04 -1.805039E+03
       330  22 -1.673079E+06 -3.026133E+05 -3.035240E+03 -7.173457E+05  1.031285E+03 -8.824571E+03
       330  23 -1.679851E+06 -2.955480E+05 -5.357991E+03 -7.092825E+05 -4.082811E+03 -3.312581E+03
       330  24 -1.673107E+06 -3.028022E+05 -9.750214E+03 -7.172756E+05 -9.163195E+03  2.109927E+03
       330  25 -1.571962E+06 -2.658022E+05  1.515553E+04 -6.889388E+05  1.176532E+04 -4.799585E+03
       330  26 -1.660950E+06 -2.883738E+05 -1.960097E+03 -7.036556E+05  6.503984E+03  6.571267E+02
       330  27 -1.736445E+06 -3.252939E+05 -2.126236E+04 -7.344264E+05  1.276765E+03  6.024486E+03
       331   1 -1.555690E+06 -2.612022E+05  8.854675E+03 -6.862179E+05  2.297824E+04 -1.244347E+03
       331   2 -1.481168E+06 -2.238318E+05  1.355515E+04 -6.524006E+05  3.533276E+04 -3.362876E+03
       331   3 -1.396232E+06 -2.063390E+05  9.123272E+03 -6.334303E+05  4.727462E+04 -4.375541E+03
       331   4 -1.673671E+06 -3.026302E+05 -1.297457E+04 -7.175667E+05  1.238298E+04 -5.217329E+03
       331   5 -1.679311E+06 -2.967882E+05 -2.372631E+04 -7.085437E+05  2.654214E+04 -6.660133E+03
       331   6 -1.674903E+06 -3.111848E+05 -4.504655E+04 -7.143713E+05  4.028730E+04 -6.997471E+03
       331   7 -1.791636E+06 -3.440568E+05 -3.480355E+04 -7.489096E+05  1.789978E+03 -9.189524E+03
       331   8 -1.877412E+06 -3.697405E+05 -6.100901E+04 -7.646700E+05  1.775454E+04 -9.956226E+03
       331   9 -1.953495E+06 -4.160232E+05 -9.922030E+04 -7.952786E+05  3.330329E+04 -9.618067E+03
       331  10 -1.555690E+06 -2.612023E+05  8.853678E+03 -6.862178E+05  6.396675E-10  7.248578E-10
       331  11 -1.481169E+06 -2.238322E+05  1.355278E+04 -6.524005E+05  2.236579E-10  7.860206E-11
       331  12 -1.396234E+06 -2.063396E+05  9.119029E+03 -6.334302E+05  1.579733E-10 -1.254925E-10
       331  13 -1.673671E+06 -3.026303E+05 -1.297491E+04 -7.175666E+05 -4.718778E-10  3.860852E-10
       331  14 -1.679311E+06 -2.967884E+05 -2.372772E+04 -7.085436E+05  2.448417E-10  8.124319E-12
       331  15 -1.674904E+06 -3.111853E+05 -4.504970E+04 -7.143710E+05  2.438952E-10 -1.136849E-11
       331  16 -1.791636E+06 -3.440569E+05 -3.480372E+04 -7.489096E+05 -4.480017E-10  1.731485E-10
       331  17 -1.877412E+06 -3.697407E+05 -6.100978E+04 -7.646698E+05 -8.022110E-10 -2.292606E-10
       331  18 -1.953496E+06 -4.160236E+05 -9.922256E+04 -7.952783E+05  5.521687E-11  7.813295E-11
       331  19 -1.555690E+06 -2.612022E+05  8.854675E+03 -6.862179E+05 -2.297824E+04  1.244347E+03
       331  20 -1.481168E+06 -2.238318E+05  1.355515E+04 -6.524006E+05 -3.533276E+04  3.362876E+03
       331  21 -1.396232E+06 -2.063390E+05  9.123272E+03 -6.334303E+05 -4.727462E+04  4.375541E+03
       331  22 -1.673671E+06 -3.026302E+05 -1.297457E+04 -7.175667E+05 -1.238298E+04  5.217329E+03
       331  23 -1.679311E+06 -2.967882E+05 -2.372631E+04 -7.085437E+05 -2.654214E+04  6.660133E+03
       331  24 -1.674903E+06 -3.111848E+05 -4.504655E+04 -7.143713E+05 -4.028730E+04  6.997471E+03
       331  25 -1.791636E+06 -3.440568E+05 -3.480355E+04 -7.489096E+05 -1.789978E+03  9.189524E+03
       331  26 -1.877412E+06 -3.697405E+05 -6.100901E+04 -7.646700E+05 -1.775454E+04  9.956226E+03
       331  27 -1.953495E+06 -4.160232E+05 -9.922030E+04 -7.952786E+05 -3.330329E+04  9.618067E+03
       332   1 -1.337163E+06 -1.954075E+05  5.530789E+03 -6.358664E+05  5.718084E+04 -4.467633E+03
       332   2 -1.299560E+06 -1.420639E+05 -2.421899E+04 -5.298855E+05  9.379999E+04  1.074238E+04
       332   3 -1.297866E+06 -2.199542E+05 -1.138881E+05 -4.089230E+05  1.253955E+05  3.935557E+04
       332   4 -1.682077E+06 -3.083895E+05 -5.963418E+04 -7.184133E+05  4.829306E+04 -7.801595E+03
       332   5 -1.675310E+06 -3.349047E+05 -1.130405E+05 -6.905504E+05  1.068136E+05  1.561412E+04
       332   6 -1.708851E+06 -4.970774E+05 -2.437823E+05 -6.477075E+05  1.603034E+05  5.242499E+04
       332   7 -2.026870E+06 -4.213670E+05 -1.248042E+05 -8.009204E+05  3.941054E+04 -1.113405E+04
       332   8 -2.050898E+06 -5.276848E+05 -2.018673E+05 -8.511091E+05  1.198186E+05  2.047968E+04
       332   9 -2.119613E+06 -7.740278E+05 -3.736773E+05 -8.863012E+05  1.951849E+05  6.546698E+04
       332  10 -1.337166E+06 -1.954084E+05  5.524596E+03 -6.358662E+05  2.356673E-10 -9.769820E-11
       332  11 -1.299570E+06 -1.420664E+05 -2.423578E+04 -5.298863E+05 -1.839806E-10 -6.679464E-11
       332  12 -1.297883E+06 -2.199601E+05 -1.139206E+05 -4.089270E+05 -3.812619E-11  2.243491E-10
       332  13 -1.682080E+06 -3.083902E+05 -5.963869E+04 -7.184130E+05  3.331556E-10  1.697719E-10
       332  14 -1.675322E+06 -3.349081E+05 -1.130625E+05 -6.905518E+05  5.518754E-10  1.192582E-10
       332  15 -1.708880E+06 -4.970872E+05 -2.438360E+05 -6.477143E+05 -1.839494E-10  1.124596E-10
       332  16 -2.026872E+06 -4.213675E+05 -1.248074E+05 -8.009200E+05  5.854460E-11  3.116319E-10
       332  17 -2.050913E+06 -5.276891E+05 -2.018952E+05 -8.511111E+05 -1.424767E-10  3.684410E-10
       332  18 -2.119655E+06 -7.740427E+05 -3.737572E+05 -8.863115E+05 -1.233910E-09 -6.882788E-12
       332  19 -1.337163E+06 -1.954075E+05  5.530789E+03 -6.358664E+05 -5.718084E+04  4.467633E+03
       332  20 -1.299560E+06 -1.420639E+05 -2.421899E+04 -5.298855E+05 -9.379999E+04 -1.074238E+04
       332  21 -1.297866E+06 -2.199542E+05 -1.138881E+05 -4.089230E+05 -1.253955E+05 -3.935557E+04
       332  22 -1.682077E+06 -3.083895E+05 -5.963418E+04 -7.184133E+05 -4.829306E+04  7.801595E+03
       332  23 -1.675310E+06 -3.349047E+05 -1.130405E+05 -6.905504E+05 -1.068136E+05 -1.561412E+04
       332  24 -1.708851E+06 -4.970774E+05 -2.437823E+05 -6.477075E+05 -1.603034E+05 -5.242499E+04
       332  25 -2.026870E+06 -4.213670E+05 -1.248042E+05 -8.009204E+05 -3.941054E+04  1.113405E+04
       332  26 -2.050898E+06 -5.276848E+05 -2.018673E+05 -8.511091E+05 -1.198186E+05 -2.047968E+04
       332  27 -2.119613E+06 -7.740278E+05 -3.736773E+05 -8.863012E+05 -1.951849E+05 -6.546698E+04
       333   1  5.286838E+05  9.567300E+04  1.501415E+05  5.826272E+04  1.744032E+05  5.809738E+03
       333   2  5.402216E+05 -1.307601E+05  1.586793E+04  1.425730E+04  1.177565E+05  1.707993E+04
       333   3  6.208840E+05 -1.110129E+05 -1.994752E+04 -5.620681E+04  6.111621E+04  1.627261E+04
       333   4  1.022267E+06  2.182337E+05  2.710213E+05 -2.454666E+04  1.857816E+05  5.799098E+03
       333   5  9.871109E+05 -2.062256E+04  1.203238E+05 -1.119811E+04  1.212516E+05  1.707752E+04
       333   6  1.022383E+06 -1.204041E+04  7.349757E+04 -2.430585E+04  5.673312E+04  1.627183E+04
       333   7  1.516087E+06  3.408023E+05  3.918876E+05 -1.074220E+05  1.971690E+05  5.785437E+03
       333   8  1.434185E+06  8.950331E+04  2.247665E+05 -3.667199E+04  1.247492E+05  1.707482E+04
       333   9  1.424033E+06  8.692454E+04  1.669324E+05  7.615837E+03  5.234722E+04  1.627059E+04
       333  10  5.286512E+05  9.566481E+04  1.500843E+05  5.826191E+04  1.637551E-09 -1.294442E-09
       333  11  5.402066E+05 -1.307641E+05  1.584134E+04  1.425568E+04  6.251531E-11  2.479917E-11
       333  12  6.208799E+05 -1.110142E+05 -1.995503E+04 -5.620761E+04 -2.228809E-09 -7.354219E-10
       333  13  1.022230E+06  2.182244E+05  2.709565E+05 -2.454752E+04  1.016875E-09  5.694813E-10
       333  14  9.870950E+05 -2.062681E+04  1.202957E+05 -1.119978E+04 -1.808196E-09 -5.683732E-10
       333  15  1.022379E+06 -1.204155E+04  7.349103E+04 -2.430659E+04 -1.690974E-10 -7.955153E-10
       333  16  1.516045E+06  3.407918E+05  3.918146E+05 -1.074229E+05 -1.691557E-09  4.148540E-10
       333  17  1.434169E+06  8.949883E+04  2.247368E+05 -3.667371E+04  1.676000E-09 -5.186349E-10
       333  18  1.424030E+06  8.692353E+04  1.669268E+05  7.615151E+03  1.927887E-09  1.604217E-09
       333  19  5.286838E+05  9.567300E+04  1.501415E+05  5.826272E+04 -1.744032E+05 -5.809738E+03
       333  20  5.402216E+05 -1.307601E+05  1.586793E+04  1.425730E+04 -1.177565E+05 -1.707993E+04
       333  21  6.208840E+05 -1.110129E+05 -1.994752E+04 -5.620681E+04 -6.111621E+04 -1.627261E+04
       333  22  1.022267E+06  2.182337E+05  2.710213E+05 -2.454666E+04 -1.857816E+05 -5.799098E+03
       333  23  9.871109E+05 -2.062256E+04  1.203238E+05 -1.119811E+04 -1.212516E+05 -1.707752E+04
       333  24  1.022383E+06 -1.204041E+04  7.349757E+04 -2.430585E+04 -5.673312E+04 -1.627183E+04
       333  25  1.516087E+06  3.408023E+05  3.918876E+05 -1.074220E+05 -1.971690E+05 -5.785437E+03
       333  26  1.434185E+06  8.950331E+04  2.247665E+05 -3.667199E+04 -1.247492E+05 -1.707482E+04
       333  27  1.424033E+06  8.692454E+04  1.669324E+05  7.615837E+03 -5.234722E+04 -1.627059E+04
       334   1  6.541798E+05 -6.900460E+04 -2.332850E+04 -1.845993E+04  4.632564E+04  1.350715E+04
       334   2  6.952586E+05 -7.819935E+04 -4.110513E+04 -9.884325E+03  3.098139E+04  1.215484E+04
       334   3  7.437070E+05 -6.630591E+04 -4.360440E+04 -2.731392E+04  1.563567E+04  1.015145E+04
       334   4  1.008370E+06  1.831546E+04  5.944844E+04 -2.428036E+04  4.568337E+04  1.350578E+04
       334   5  1.004663E+06 -1.946343E+03  3.105090E+04 -1.127299E+04  2.990852E+04  1.215383E+04
       334   6  1.008393E+06 -1.051656E+03  1.822282E+04 -2.426967E+04  1.413329E+04  1.015073E+04
       334   7  1.362676E+06  1.056268E+05  1.422169E+05 -3.010415E+04  4.504073E+04  1.350443E+04
       334   8  1.314155E+06  7.429991E+04  1.032004E+05 -1.266236E+04  2.883512E+04  1.215282E+04
       334   9  1.273143E+06  6.419767E+04  8.004529E+04 -2.122411E+04  1.263027E+04  1.014999E+04
       334  10  6.541774E+05 -6.900537E+04 -2.333287E+04 -1.846043E+04  5.467626E-10 -1.704389E-10
       334  11  6.952575E+05 -7.819977E+04 -4.110721E+04 -9.884628E+03  2.025132E-10  6.271788E-10
       334  12  7.437067E+05 -6.630608E+04 -4.360506E+04 -2.731405E+04 -1.209009E-10 -3.470269E-10
       334  13  1.008368E+06  1.831471E+04  5.944418E+04 -2.428086E+04  1.849452E-09  1.308675E-09
       334  14  1.004662E+06 -1.946741E+03  3.104894E+04 -1.127328E+04  6.690472E-10  4.897648E-10
       334  15  1.008392E+06 -1.051820E+03  1.822225E+04 -2.426978E+04 -6.007132E-12 -5.028398E-10
       334  16  1.362674E+06  1.056260E+05  1.422127E+05 -3.010464E+04 -1.012279E-09  1.030705E-09
       334  17  1.314154E+06  7.429953E+04  1.031986E+05 -1.266264E+04  5.048609E-10 -7.954434E-11
       334  18  1.273143E+06  6.419752E+04  8.004480E+04 -2.122421E+04  6.051350E-10  6.000483E-11
       334  19  6.541798E+05 -6.900460E+04 -2.332850E+04 -1.845993E+04 -4.632564E+04 -1.350715E+04
       334  20  6.952586E+05 -7.819935E+04 -4.110513E+04 -9.884325E+03 -3.098139E+04 -1.215484E+04
       334  21  7.437070E+05 -6.630591E+04 -4.360440E+04 -2.731392E+04 -1.563567E+04 -1.015145E+04
       334  22  1.008370E+06  1.831546E+04  5.944844E+04 -2.428036E+04 -4.568337E+04 -1.350578E+04
       334  23  1.004663E+06 -1.946343E+03  3.105090E+04 -1.127299E+04 -2.990852E+04 -1.215383E+04
       334  24  1.008393E+06 -1.051656E+03  1.822282E+04 -2.426967E+04 -1.413329E+04 -1.015073E+04
       334  25  1.362676E+06  1.056268E+05  1.422169E+05 -3.010415E+04 -4.504073E+04 -1.350443E+04
       334  26  1.314155E+06  7.429991E+04  1.032004E+05 -1.266236E+04 -2.883512E+04 -1.215282E+04
       334  27  1.273143E+06  6.419767E+04  8.004529E+04 -2.122411E+04 -1.263027E+04 -1.014999E+04
       335   1  7.886016E+05 -5.232507E+04 -3.666134E+04 -2.400311E+04  1.257331E+04  8.867636E+03
       335   2  8.321656E+05 -4.316718E+04 -3.275577E+04 -1.145161E+04  8.661617E+03  6.857884E+03
       335   3  8.767232E+05 -3.221728E+04 -2.585031E+04 -2.451241E+04  4.749121E+03  4.819754E+03
       335   4  1.006965E+06  1.463770E+03  1.413556E+04 -2.418582E+04  1.128212E+04  8.867071E+03
       335   5  1.006471E+06 -2.135133E+02  7.883721E+03 -1.137973E+04  7.350708E+03  6.857494E+03
       335   6  1.006972E+06 -9.552231E+01  4.644799E+03 -2.418549E+04  3.418772E+03  4.819547E+03
       335   7  1.225373E+06  5.524925E+04  6.492925E+04 -2.436859E+04  9.990472E+03  8.866507E+03
       335   8  1.180804E+06  4.273801E+04  4.852116E+04 -1.130783E+04  6.039434E+03  6.857104E+03
       335   9  1.137236E+06  3.202504E+04  3.513876E+04 -2.385850E+04  2.088147E+03  4.819338E+03
       335  10  7.886014E+05 -5.232520E+04 -3.666178E+04 -2.400320E+04 -4.753681E-10 -4.029018E-10
       335  11  8.321655E+05 -4.316725E+04 -3.275600E+04 -1.145165E+04 -8.666069E-10 -1.110617E-10
       335  12  8.767231E+05 -3.221731E+04 -2.585039E+04 -2.451243E+04  4.346847E-10 -5.387656E-10
       335  13  1.006965E+06  1.463651E+03  1.413517E+04 -2.418590E+04  9.344857E-10  1.355021E-10
       335  14  1.006471E+06 -2.135782E+02  7.883532E+03 -1.137977E+04 -6.299912E-11  4.656016E-10
       335  15  1.006972E+06 -9.555039E+01  4.644734E+03 -2.418551E+04  1.295235E-10 -5.436835E-10
       335  16  1.225373E+06  5.524914E+04  6.492891E+04 -2.436867E+04  4.153787E-10  5.012138E-10
       335  17  1.180804E+06  4.273795E+04  4.852101E+04 -1.130787E+04  7.378615E-10  3.923307E-10
       335  18  1.137236E+06  3.202501E+04  3.513870E+04 -2.385851E+04 -3.763954E-10 -5.074992E-10
       335  19  7.886016E+05 -5.232507E+04 -3.666134E+04 -2.400311E+04 -1.257331E+04 -8.867636E+03
       335  20  8.321656E+05 -4.316718E+04 -3.275577E+04 -1.145161E+04 -8.661617E+03 -6.857884E+03
       335  21  8.767232E+05 -3.221728E+04 -2.585031E+04 -2.451241E+04 -4.749121E+03 -4.819754E+03
       335  22  1.006965E+06  1.463770E+03  1.413556E+04 -2.418582E+04 -1.128212E+04 -8.867071E+03
       335  23  1.006471E+06 -2.135133E+02  7.883721E+03 -1.137973E+04 -7.350708E+03 -6.857494E+03
       335  24  1.006972E+06 -9.552231E+01  4.644799E+03 -2.418549E+04 -3.418772E+03 -4.819547E+03
       335  25  1.225373E+06  5.524925E+04  6.492925E+04 -2.436859E+04 -9.990472E+03 -8.866507E+03
       335  26  1.180804E+06  4.273801E+04  4.852116E+04 -1.130783E+04 -6.039434E+03 -6.857104E+03
       335  27  1.137236E+06  3.202504E+04  3.513876E+04 -2.385850E+04 -2.088147E+03 -4.819338E+03
       336   1  9.223505E+05 -2.068405E+04 -1.594161E+04 -2.419947E+04  3.992429E+03  3.630781E+03
       336   2  9.660093E+05 -1.005813E+04 -7.238945E+03 -1.146941E+04  2.879273E+03  1.601013E+03
       336   3  1.009861E+06  7.203481E+02  2.227326E+03 -2.417582E+04  1.765882E+03 -4.287710E+02
       336   4  1.006796E+06  9.832627E+01  3.615420E+03 -2.414661E+04  2.675914E+03  3.630646E+03
       336   5  1.006701E+06 -3.138234E+01  2.247502E+03 -1.142842E+04  1.562559E+03  1.600917E+03
       336   6  1.006797E+06 -8.569640E+00  1.643136E+03 -2.414661E+04  4.490462E+02 -4.288223E+02
       336   7  1.091247E+06  2.088020E+04  2.317198E+04 -2.409374E+04  1.359222E+03  3.630511E+03
       336   8  1.047394E+06  9.995250E+03  1.173384E+04 -1.138744E+04  2.457598E+02  1.600820E+03
       336   9  1.003733E+06 -7.374870E+02  1.058951E+03 -2.411741E+04 -8.677832E+02 -4.288738E+02
       336  10  9.223505E+05 -2.068406E+04 -1.594166E+04 -2.419948E+04 -7.098348E-10 -5.227560E-10
       336  11  9.660093E+05 -1.005814E+04 -7.238965E+03 -1.146941E+04 -3.793491E-11  1.930308E-10
       336  12  1.009861E+06  7.203471E+02  2.227320E+03 -2.417582E+04 -3.272920E-10 -2.364376E-10
       336  13  1.006796E+06  9.831019E+01  3.615382E+03 -2.414662E+04  4.935459E-11 -4.701373E-10
       336  14  1.006701E+06 -3.138575E+01  2.247493E+03 -1.142842E+04 -2.097383E-10  1.135130E-11
       336  15  1.006797E+06 -8.569892E+00  1.643135E+03 -2.414661E+04  8.806479E-10  1.826012E-10
       336  16  1.091247E+06  2.088018E+04  2.317195E+04 -2.409375E+04  1.172364E-09 -5.083449E-10
       336  17  1.047394E+06  9.995247E+03  1.173384E+04 -1.138744E+04  2.658248E-10  6.018925E-11
       336  18  1.003733E+06 -7.374874E+02  1.058949E+03 -2.411741E+04  6.430329E-11  2.701633E-10
       336  19  9.223505E+05 -2.068405E+04 -1.594161E+04 -2.419947E+04 -3.992429E+03 -3.630781E+03
       336  20  9.660093E+05 -1.005813E+04 -7.238945E+03 -1.146941E+04 -2.879273E+03 -1.601013E+03
       336  21  1.009861E+06  7.203481E+02  2.227326E+03 -2.417582E+04 -1.765882E+03  4.287710E+02
       336  22  1.006796E+06  9.832627E+01  3.615420E+03 -2.414661E+04 -2.675914E+03 -3.630646E+03
       336  23  1.006701E+06 -3.138234E+01  2.247502E+03 -1.142842E+04 -1.562559E+03 -1.600917E+03
       336  24  1.006797E+06 -8.569640E+00  1.643136E+03 -2.414661E+04 -4.490462E+02  4.288223E+02
       336  25  1.091247E+06  2.088020E+04  2.317198E+04 -2.409374E+04 -1.359222E+03 -3.630511E+03
       336  26  1.047394E+06  9.995250E+03  1.173384E+04 -1.138744E+04 -2.457598E+02 -1.600820E+03
       336  27  1.003733E+06 -7.374870E+02  1.058951E+03 -2.411741E+04  8.677832E+02  4.288738E+02
       337   1  1.055538E+06  1.203399E+04  1.303305E+04 -2.415033E+04  1.478548E+03 -1.610230E+03
       337   2  1.099297E+06  2.278663E+04  2.326141E+04 -1.139399E+04  6.483758E+02 -3.642073E+03
       337   3  1.143204E+06  3.363591E+04  3.405638E+04 -2.411668E+04 -1.815282E+02 -5.676200E+03
       337   4  1.006787E+06 -3.851976E+00  1.538692E+03 -2.415615E+04  1.609617E+02 -1.610299E+03
       337   5  1.006712E+06 -2.496976E+01  1.679053E+03 -1.141651E+04 -6.706384E+02 -3.642241E+03
       337   6  1.006784E+06  5.094589E+01  2.387179E+03 -2.415615E+04 -1.501913E+03 -5.676460E+03
       337   7  9.580381E+05 -1.204186E+04 -9.955827E+03 -2.416196E+04 -1.156521E+03 -1.610368E+03
       337   8  9.141357E+05 -2.283717E+04 -1.990388E+04 -1.143903E+04 -1.989457E+03 -3.642409E+03
       337   9  8.703821E+05 -3.353532E+04 -2.928327E+04 -2.419561E+04 -2.822010E+03 -5.676720E+03
       337  10  1.055538E+06  1.203399E+04  1.303304E+04 -2.415033E+04 -1.439404E-09 -1.697239E-10
       337  11  1.099297E+06  2.278661E+04  2.326138E+04 -1.139399E+04  1.349835E-10  4.605510E-10
       337  12  1.143204E+06  3.363587E+04  3.405632E+04 -2.411668E+04  5.854920E-10 -6.338896E-10
       337  13  1.006787E+06 -3.854769E+00  1.538687E+03 -2.415614E+04  1.247985E-09  3.685360E-10
       337  14  1.006712E+06 -2.498413E+01  1.679027E+03 -1.141651E+04 -3.865942E-10  4.419934E-10
       337  15  1.006784E+06  5.091067E+01  2.387115E+03 -2.415616E+04 -1.123812E-09 -3.781102E-10
       337  16  9.580381E+05 -1.204187E+04 -9.955835E+03 -2.416196E+04  1.491081E-09  3.647102E-10
       337  17  9.141357E+05 -2.283719E+04 -1.990391E+04 -1.143904E+04 -4.373157E-10  1.685097E-11
       337  18  8.703820E+05 -3.353536E+04 -2.928334E+04 -2.419562E+04 -6.514342E-10 -1.629059E-11
       337  19  1.055538E+06  1.203399E+04  1.303305E+04 -2.415033E+04 -1.478548E+03  1.610230E+03
       337  20  1.099297E+06  2.278663E+04  2.326141E+04 -1.139399E+04 -6.483758E+02  3.642073E+03
       337  21  1.143204E+06  3.363591E+04  3.405638E+04 -2.411668E+04  1.815282E+02  5.676200E+03
       337  22  1.006787E+06 -3.851976E+00  1.538692E+03 -2.415615E+04 -1.609617E+02  1.610299E+03
       337  23  1.006712E+06 -2.496976E+01  1.679053E+03 -1.141651E+04  6.706384E+02  3.642241E+03
       337  24  1.006784E+06  5.094589E+01  2.387179E+03 -2.415615E+04  1.501913E+03  5.676460E+03
       337  25  9.580381E+05 -1.204186E+04 -9.955827E+03 -2.416196E+04  1.156521E+03  1.610368E+03
       337  26  9.141357E+05 -2.283717E+04 -1.990388E+04 -1.143903E+04  1.989457E+03  3.642409E+03
       337  27  8.703821E+05 -3.353532E+04 -2.928327E+04 -2.419561E+04  2.822010E+03  5.676720E+03
       338   1  1.189282E+06  4.489495E+04  4.561961E+04 -2.400151E+04 -6.476003E+02 -6.869489E+03
       338   2  1.233249E+06  5.570548E+04  5.773768E+04 -1.126514E+04 -3.110765E+03 -8.915726E+03
       338   3  1.277867E+06  6.761031E+04  7.174204E+04 -2.427406E+04 -5.573283E+03 -1.093212E+04
       338   4  1.006892E+06 -6.694270E+01  2.976271E+03 -2.421529E+04 -1.984455E+03 -6.869860E+03
       338   5  1.006565E+06 -1.420611E+02  4.899070E+03 -1.134251E+04 -4.427484E+03 -8.916332E+03
       338   6  1.006885E+06  8.742437E+02  8.695020E+03 -2.421559E+04 -6.869695E+03 -1.093295E+04
       338   7  8.245325E+05 -4.503119E+04 -3.966932E+04 -2.442901E+04 -3.320920E+03 -6.870231E+03
       338   8  7.799291E+05 -5.599323E+04 -4.794301E+04 -1.141985E+04 -5.743726E+03 -8.916938E+03
       338   9  7.359713E+05 -6.586700E+04 -5.435694E+04 -2.415715E+04 -8.165545E+03 -1.093378E+04
       338  10  1.189282E+06  4.489490E+04  4.561952E+04 -2.400152E+04  3.240214E-10 -3.606512E-10
       338  11  1.233249E+06  5.570539E+04  5.773751E+04 -1.126516E+04 -9.587423E-10 -1.147768E-10
       338  12  1.277866E+06  6.761018E+04  7.174176E+04 -2.427411E+04  1.239489E-09  1.214550E-10
       338  13  1.006892E+06 -6.699446E+01  2.976175E+03 -2.421531E+04  1.195428E-10 -2.850916E-10
       338  14  1.006565E+06 -1.421518E+02  4.898883E+03 -1.134254E+04 -7.210369E-10 -8.599987E-11
       338  15  1.006885E+06  8.741026E+02  8.694707E+03 -2.421565E+04  3.943195E-10 -5.742614E-10
       338  16  8.245325E+05 -4.503124E+04 -3.966943E+04 -2.442903E+04  1.100302E-10 -2.686200E-10
       338  17  7.799290E+05 -5.599332E+04 -4.794322E+04 -1.141990E+04 -6.856055E-10 -1.619456E-10
       338  18  7.359712E+05 -6.586715E+04 -5.435729E+04 -2.415723E+04 -1.201065E-09 -3.745574E-10
       338  19  1.189282E+06  4.489495E+04  4.561961E+04 -2.400151E+04  6.476003E+02  6.869489E+03
       338  20  1.233249E+06  5.570548E+04  5.773768E+04 -1.126514E+04  3.110765E+03  8.915726E+03
       338  21  1.277867E+06  6.761031E+04  7.174204E+04 -2.427406E+04  5.573283E+03  1.093212E+04
       338  22  1.006892E+06 -6.694270E+01  2.976271E+03 -2.421529E+04  1.984455E+03  6.869860E+03
       338  23  1.006565E+06 -1.420611E+02  4.899070E+03 -1.134251E+04  4.427484E+03  8.916332E+03
       338  24  1.006885E+06  8.742437E+02  8.695020E+03 -2.421559E+04  6.869695E+03  1.093295E+04
       338  25  8.245325E+05 -4.503119E+04 -3.966932E+04 -2.442901E+04  3.320920E+03  6.870231E+03
       338  26  7.799291E+05 -5.599323E+04 -4.794301E+04 -1.141985E+04  5.743726E+03  8.916938E+03
       338  27  7.359713E+05 -6.586700E+04 -5.435694E+04 -2.415715E+04  8.165545E+03  1.093378E+04
       339   1  1.325404E+06  7.761211E+04  8.533504E+04 -2.238303E+04 -7.090232E+03 -1.223236E+04
       339   2  1.368199E+06  8.815099E+04  1.035819E+05 -1.195611E+04 -1.722540E+04 -1.424136E+04
       339   3  1.415698E+06  1.117044E+05  1.316986E+05 -2.774127E+04 -2.736088E+04 -1.552914E+04
       339   4  1.007763E+06 -6.643743E+02  1.118807E+04 -2.431670E+04 -8.621826E+03 -1.223348E+04
       339   5  1.005442E+06 -1.214873E+03  1.901854E+04 -1.121456E+04 -1.828384E+04 -1.424263E+04
       339   6  1.007745E+06  1.117157E+04  3.639496E+04 -2.432522E+04 -2.794544E+04 -1.553046E+04
       339   7  6.902146E+05 -7.894798E+04 -6.296573E+04 -2.624938E+04 -1.015264E+04 -1.223459E+04
       339   8  6.428070E+05 -9.059003E+04 -6.555369E+04 -1.047346E+04 -1.934167E+04 -1.424391E+04
       339   9  5.999452E+05 -8.937302E+04 -5.891995E+04 -2.091146E+04 -2.852962E+04 -1.553179E+04
       339  10  1.325404E+06  7.761194E+04  8.533466E+04 -2.238310E+04 -9.326504E-10 -1.098288E-10
       339  11  1.368198E+06  8.815069E+04  1.035809E+05 -1.195631E+04  2.088766E-10 -5.619374E-10
       339  12  1.415697E+06  1.117040E+05  1.316967E+05 -2.774162E+04  9.363842E-10 -1.577863E-09
       339  13  1.007763E+06 -6.645550E+02  1.118765E+04 -2.431678E+04 -2.953062E-10 -2.943369E-10
       339  14  1.005442E+06 -1.215181E+03  1.901753E+04 -1.121477E+04 -1.261324E-09 -3.864825E-10
       339  15  1.007744E+06  1.117110E+04  3.639304E+04 -2.432557E+04 -2.052780E-09 -1.380657E-09
       339  16  6.902145E+05 -7.894817E+04 -6.296620E+04 -2.624948E+04  2.408357E-10 -2.880126E-10
       339  17  6.428065E+05 -9.059035E+04 -6.555478E+04 -1.047368E+04  3.066784E-10  1.905807E-09
       339  18  5.999442E+05 -8.937350E+04 -5.892193E+04 -2.091181E+04 -1.211215E-09 -4.731670E-10
       339  19  1.325404E+06  7.761211E+04  8.533504E+04 -2.238303E+04  7.090232E+03  1.223236E+04
       339  20  1.368199E+06  8.815099E+04  1.035819E+05 -1.195611E+04  1.722540E+04  1.424136E+04
       339  21  1.415698E+06  1.117044E+05  1.316986E+05 -2.774127E+04  2.736088E+04  1.552914E+04
       339  22  1.007763E+06 -6.643743E+02  1.118807E+04 -2.431670E+04  8.621826E+03  1.223348E+04
       339  23  1.005442E+06 -1.214873E+03  1.901854E+04 -1.121456E+04  1.828384E+04  1.424263E+04
       339  24  1.007745E+06  1.117157E+04  3.639496E+04 -2.432522E+04  2.794544E+04  1.553046E+04
       339  25  6.902146E+05 -7.894798E+04 -6.296573E+04 -2.624938E+04  1.015264E+04  1.223459E+04
       339  26  6.428070E+05 -9.059003E+04 -6.555369E+04 -1.047346E+04  1.934167E+04  1.424391E+04
       339  27  5.999452E+05 -8.937302E+04 -5.891995E+04 -2.091146E+04  2.852962E+04  1.553179E+04
       340   1  1.472133E+06  1.048718E+05  1.510113E+05 -4.644516E+03 -2.997585E+04 -1.846654E+04
       340   2  1.496343E+06  1.109238E+05  1.908237E+05 -2.647474E+04 -7.818239E+04 -1.913502E+04
       340   3  1.565264E+06  2.698757E+05  3.002443E+05 -7.496553E+04 -1.264113E+05 -6.410389E+03
       340   4  1.016329E+06 -7.409842E+03  4.499241E+04 -2.436746E+04 -3.470897E+04 -1.847090E+04
       340   5  9.946730E+05 -1.266544E+04  7.363044E+04 -1.112870E+04 -7.419538E+04 -1.913339E+04
       340   6  1.016251E+06  1.335294E+05  1.658657E+05 -2.454780E+04 -1.136998E+05 -6.403417E+03
       340   7  5.607171E+05 -1.197047E+05 -6.104020E+04 -4.407590E+04 -3.943865E+04 -1.847495E+04
       340   8  4.932355E+05 -1.362716E+05 -4.357972E+04  4.204824E+03 -7.021155E+04 -1.913157E+04
       340   9  4.675166E+05 -2.829450E+03  3.146709E+04  2.582528E+04 -1.009994E+05 -6.394384E+03
       340  10  1.472132E+06  1.048712E+05  1.510090E+05 -4.644961E+03 -3.881476E-10 -2.271926E-09
       340  11  1.496336E+06  1.109218E+05  1.908116E+05 -2.647595E+04  2.021479E-11 -3.202334E-09
       340  12  1.565247E+06  2.698714E+05  3.002142E+05 -7.496619E+04 -5.715294E-10 -7.870747E-10
       340  13  1.016328E+06 -7.410531E+03  4.498950E+04 -2.436798E+04 -1.606689E-09 -5.316381E-09
       340  14  9.946670E+05 -1.266731E+04  7.361943E+04 -1.112984E+04  1.270121E-09  2.005466E-09
       340  15  1.016237E+06  1.335259E+05  1.658414E+05 -2.454838E+04 -1.817990E-10 -6.517643E-11
       340  16  5.607154E+05 -1.197055E+05 -6.104376E+04 -4.407648E+04 -9.563870E-10 -1.520224E-09
       340  17  4.932301E+05 -1.362733E+05 -4.358967E+04  4.203742E+03 -1.376704E-11  1.469321E-09
       340  18  4.675057E+05 -2.832230E+03  3.144786E+04  2.582476E+04  3.813247E-10 -1.571260E-09
       340  19  1.472133E+06  1.048718E+05  1.510113E+05 -4.644516E+03  2.997585E+04  1.846654E+04
       340  20  1.496343E+06  1.109238E+05  1.908237E+05 -2.647474E+04  7.818239E+04  1.913502E+04
       340  21  1.565264E+06  2.698757E+05  3.002443E+05 -7.496553E+04  1.264113E+05  6.410389E+03
       340  22  1.016329E+06 -7.409842E+03  4.499241E+04 -2.436746E+04  3.470897E+04  1.847090E+04
       340  23  9.946730E+05 -1.266544E+04  7.363044E+04 -1.112870E+04  7.419538E+04  1.913339E+04
       340  24  1.016251E+06  1.335294E+05  1.658657E+05 -2.454780E+04  1.136998E+05  6.403417E+03
       340  25  5.607171E+05 -1.197047E+05 -6.104020E+04 -4.407590E+04  3.943865E+04  1.847495E+04
       340  26  4.932355E+05 -1.362716E+05 -4.357972E+04  4.204824E+03  7.021155E+04  1.913157E+04
       340  27  4.675166E+05 -2.829450E+03  3.146709E+04  2.582528E+04  1.009994E+05  6.394384E+03
       341   1  9.902729E+05  3.892729E+06  1.002689E+06 -5.644900E+05  3.546315E+04  1.543765E+05
       341   2  6.354144E+05  2.932204E+06  6.738047E+05 -2.667210E+05  9.793722E+04  5.995263E+04
       341   3  4.155795E+05  2.019120E+06  4.399701E+05 -5.089666E+05  6.613407E+04 -3.461801E+04
       341   4  1.049272E+05  3.312113E+05  1.296589E+05 -5.176484E+05  3.567078E+04  8.291949E+04
       341   5 -9.804940E+03  3.137095E+05  6.184304E+04 -2.477379E+05  9.800189E+04  5.007557E+04
       341   6  2.046738E+02  3.324287E+05  4.674284E+04 -5.179413E+05  6.588770E+04  1.694053E+04
       341   7 -7.813473E+05 -3.218790E+06 -7.442805E+05 -4.710628E+05  3.586842E+04  1.186858E+04
       341   8 -6.555088E+05 -2.298486E+06 -5.505842E+05 -2.288283E+05  9.806614E+04  4.023941E+04
       341   9 -4.153692E+05 -1.351639E+06 -3.466670E+05 -5.268873E+05  6.563947E+04  6.836023E+04
       341  10  9.902652E+05  3.892703E+06  1.002642E+06 -5.644944E+05  3.579933E-10  8.863698E-10
       341  11  6.354031E+05  2.932198E+06  6.737799E+05 -2.667257E+05  8.614679E-11  4.947456E-09
       341  12  4.155744E+05  2.019117E+06  4.399597E+05 -5.089647E+05  8.848267E-10 -7.464697E-10
       341  13  1.049240E+05  3.312036E+05  1.296436E+05 -5.176508E+05  8.127369E-10 -1.948591E-09
       341  14 -9.815930E+03  3.137042E+05  6.182027E+04 -2.477418E+05 -3.685176E-09  1.894985E-09
       341  15  1.999331E+02  3.324272E+05  4.673414E+04 -5.179422E+05 -3.937327E-10 -1.706324E-09
       341  16 -7.813487E+05 -3.218790E+06 -7.442832E+05 -4.710632E+05  3.257972E-10 -8.683180E-10
       341  17 -6.555196E+05 -2.298490E+06 -5.506054E+05 -2.288315E+05  1.044692E-09  2.440087E-09
       341  18 -4.153751E+05 -1.351645E+06 -3.466839E+05 -5.268910E+05 -2.201525E-09  6.326693E-09
       341  19  9.902729E+05  3.892729E+06  1.002689E+06 -5.644900E+05 -3.546315E+04 -1.543765E+05
       341  20  6.354144E+05  2.932204E+06  6.738047E+05 -2.667210E+05 -9.793722E+04 -5.995263E+04
       341  21  4.155795E+05  2.019120E+06  4.399701E+05 -5.089666E+05 -6.613407E+04  3.461801E+04
       341  22  1.049272E+05  3.312113E+05  1.296589E+05 -5.176484E+05 -3.567078E+04 -8.291949E+04
       341  23 -9.804940E+03  3.137095E+05  6.184304E+04 -2.477379E+05 -9.800189E+04 -5.007557E+04
       341  24  2.046738E+02  3.324287E+05  4.674284E+04 -5.179413E+05 -6.588770E+04 -1.694053E+04
       341  25 -7.813473E+05 -3.218790E+06 -7.442805E+05 -4.710628E+05 -3.586842E+04 -1.186858E+04
       341  26 -6.555088E+05 -2.298486E+06 -5.505842E+05 -2.288283E+05 -9.806614E+04 -4.023941E+04
       341  27 -4.153692E+05 -1.351639E+06 -3.466670E+05 -5.268873E+05 -6.563947E+04 -6.836023E+04
       342   1  1.872547E+05  1.034640E+06  2.087889E+05 -5.262358E+05  2.809598E+04 -1.506902E+04
       342   2 -5.560401E+04  9.854207E+04 -1.082799E+04 -2.457691E+05 -8.646817E+03 -3.600804E+04
       342   3 -2.659740E+05 -8.317579E+05 -2.101240E+05 -5.076529E+05 -4.480281E+04 -5.689886E+04
       342   4  1.253906E+04  3.260943E+05  4.360016E+04 -5.183354E+05  2.796899E+04  9.013368E+03
       342   5 -1.058791E+02  3.235170E+05  4.167806E+04 -2.471547E+05 -8.765845E+03 -1.231957E+04
       342   6  1.985765E+04  3.259891E+05  6.039234E+04 -5.182995E+05 -4.491629E+04 -3.363489E+04
       342   7 -1.622116E+05 -3.819875E+05 -1.216203E+05 -5.104433E+05  2.784253E+04  3.306849E+04
       342   8  5.538897E+04  5.485398E+05  9.418279E+04 -2.485407E+05 -8.884956E+03  1.137743E+04
       342   9  3.055948E+05  1.484974E+06  3.308197E+05 -5.289642E+05 -4.503045E+04 -1.032774E+04
       342  10  1.872538E+05  1.034639E+06  2.087870E+05 -5.262355E+05 -4.981345E-10  6.544993E-10
       342  11 -5.560444E+04  9.854066E+04 -1.083057E+04 -2.457694E+05  2.588780E-09  6.901505E-09
       342  12 -2.659770E+05 -8.317619E+05 -2.101339E+05 -5.076549E+05 -1.146576E-09 -1.566903E-09
       342  13  1.253820E+04  3.260940E+05  4.359854E+04 -5.183356E+05  3.248765E-10 -4.834939E-09
       342  14 -1.060024E+02  3.235168E+05  4.167763E+04 -2.471548E+05  4.434044E-09  2.554579E-09
       342  15  1.985518E+04  3.259874E+05  6.038641E+04 -5.183008E+05  4.370253E-09 -1.811738E-09
       342  16 -1.622127E+05 -3.819889E+05 -1.216239E+05 -5.104440E+05 -5.144864E-10 -6.085501E-10
       342  17  5.538885E+04  5.485397E+05  9.418240E+04 -2.485406E+05 -1.914927E-09  3.255954E-09
       342  18  3.055926E+05  1.484973E+06  3.308157E+05 -5.289645E+05 -1.052866E-09  7.808169E-09
       342  19  1.872547E+05  1.034640E+06  2.087889E+05 -5.262358E+05 -2.809598E+04  1.506902E+04
       342  20 -5.560401E+04  9.854207E+04 -1.082799E+04 -2.457691E+05  8.646817E+03  3.600804E+04
       342  21 -2.659740E+05 -8.317579E+05 -2.101240E+05 -5.076529E+05  4.480281E+04  5.689886E+04
       342  22  1.253906E+04  3.260943E+05  4.360016E+04 -5.183354E+05 -2.796899E+04 -9.013368E+03
       342  23 -1.058791E+02  3.235170E+05  4.167806E+04 -2.471547E+05  8.765845E+03  1.231957E+04
       342  24  1.985765E+04  3.259891E+05  6.039234E+04 -5.182995E+05  4.491629E+04  3.363489E+04
       342  25 -1.622116E+05 -3.819875E+05 -1.216203E+05 -5.104433E+05 -2.784253E+04 -3.306849E+04
       342  26  5.538897E+04  5.485398E+05  9.418279E+04 -2.485407E+05  8.884956E+03 -1.137743E+04
       342  27  3.055948E+05  1.484974E+06  3.308197E+05 -5.289642E+05  4.503045E+04  1.032774E+04
       343   1 -5.322289E+05 -1.794813E+06 -4.271617E+05 -5.385005E+05 -8.385736E+04 -9.895056E+04
       343   2 -7.758245E+05 -2.756524E+06 -6.101211E+05 -2.186365E+05 -1.151267E+05 -8.856386E+04
       343   3 -8.067649E+05 -3.662201E+06 -7.461195E+05 -4.390286E+05 -4.118611E+04 -7.793681E+04
       343   4 -5.709370E+03  3.388803E+05  7.109514E+04 -5.179675E+05 -8.409592E+04 -4.492680E+04
       343   5 -1.887557E+04  3.048023E+05  1.076865E+05 -2.477417E+05 -1.150416E+05 -1.027206E+05
       343   6  1.919393E+05  3.374455E+05  2.383823E+05 -5.175386E+05 -4.100910E+04 -1.602626E+05
       343   7  5.204912E+05  2.476786E+06  5.690544E+05 -4.973569E+05 -8.433044E+04  9.282009E+03
       343   8  7.374089E+05  3.374786E+06  8.248549E+05 -2.769837E+05 -1.149555E+05 -1.169459E+05
       343   9  1.189477E+06  4.351726E+06  1.221733E+06 -5.965453E+05 -4.081200E+04 -2.431176E+05
       343  10 -5.322391E+05 -1.794825E+06 -4.271934E+05 -5.385072E+05  5.943195E-10 -9.164915E-10
       343  11 -7.758409E+05 -2.756536E+06 -6.101609E+05 -2.186447E+05  1.610742E-09  4.300746E-09
       343  12 -8.067684E+05 -3.662208E+06 -7.461342E+05 -4.390312E+05  3.686450E-10  5.466966E-11
       343  13 -5.717511E+03  3.388762E+05  7.107804E+04 -5.179706E+05 -2.482992E-09 -4.046354E-09
       343  14 -1.889262E+04  3.047874E+05  1.076418E+05 -2.477512E+05  2.302624E-09  1.456162E-09
       343  15  1.919306E+05  3.374174E+05  2.383309E+05 -5.175439E+05  5.018216E-11 -3.588313E-10
       343  16  5.204835E+05  2.476784E+06  5.690409E+05 -4.973563E+05  1.357498E-09  8.398439E-10
       343  17  7.373911E+05  3.374767E+06  8.248045E+05 -2.769945E+05  1.402352E-09  1.179131E-09
       343  18  1.189460E+06  4.351663E+06  1.221619E+06 -5.965532E+05 -1.092948E-11  1.362483E-09
       343  19 -5.322289E+05 -1.794813E+06 -4.271617E+05 -5.385005E+05  8.385736E+04  9.895056E+04
       343  20 -7.758245E+05 -2.756524E+06 -6.101211E+05 -2.186365E+05  1.151267E+05  8.856386E+04
       343  21 -8.067649E+05 -3.662201E+06 -7.461195E+05 -4.390286E+05  4.118611E+04  7.793681E+04
       343  22 -5.709370E+03  3.388803E+05  7.109514E+04 -5.179675E+05  8.409592E+04  4.492680E+04
       343  23 -1.887557E+04  3.048023E+05  1.076865E+05 -2.477417E+05  1.150416E+05  1.027206E+05
       343  24  1.919393E+05  3.374455E+05  2.383823E+05 -5.175386E+05  4.100910E+04  1.602626E+05
       343  25  5.204912E+05  2.476786E+06  5.690544E+05 -4.973569E+05  8.433044E+04 -9.282009E+03
       343  26  7.374089E+05  3.374786E+06  8.248549E+05 -2.769837E+05  1.149555E+05  1.169459E+05
       343  27  1.189477E+06  4.351726E+06  1.221733E+06 -5.965453E+05  4.081200E+04  2.431176E+05
       344   1 -1.631031E+06 -6.814482E+05 -3.666716E+05 -6.668279E+05 -1.747292E+05 -5.381030E+04
       344   2 -1.559538E+06 -4.866354E+05 -2.180347E+05 -6.341953E+05 -1.089254E+05 -2.156230E+03
       344   3 -1.520992E+06 -4.013091E+05 -1.512420E+05 -5.938471E+05 -3.596512E+04  3.053897E+04
       344   4 -9.767660E+05 -3.446352E+05 -1.803721E+05 -3.941911E+05 -1.206863E+05 -3.351120E+04
       344   5 -9.534683E+05 -2.232410E+05 -8.366490E+04 -4.242458E+05 -8.589350E+04  6.493881E+03
       344   6 -9.569236E+05 -2.051327E+05 -4.413971E+04 -4.466015E+05 -4.395848E+04  2.753062E+04
       344   7 -3.220449E+05 -7.661989E+03  5.904073E+03 -1.212505E+05 -6.658043E+04 -1.316840E+04
       344   8 -3.470108E+05  4.023037E+04  5.068674E+04 -2.140903E+05 -6.283722E+04  1.515699E+04
       344   9 -3.925234E+05 -8.934583E+03  6.294970E+04 -2.992345E+05 -5.195964E+04  2.451965E+04
       344  10 -1.631064E+06 -6.814595E+05 -3.667346E+05 -6.668355E+05 -1.512004E-09 -2.203125E-10
       344  11 -1.559551E+06 -4.866386E+05 -2.180571E+05 -6.341955E+05 -2.687189E-09  9.024293E-10
       344  12 -1.520994E+06 -4.013104E+05 -1.512462E+05 -5.938462E+05 -1.185199E-11 -2.215112E-11
       344  13 -9.767820E+05 -3.446403E+05 -1.804017E+05 -3.941943E+05  3.011665E-10  1.473341E-09
       344  14 -9.534763E+05 -2.232430E+05 -8.367886E+04 -4.242453E+05 -5.348661E-10  5.263940E-10
       344  15 -9.569258E+05 -2.051340E+05 -4.414477E+04 -4.466006E+05 -4.764221E-10 -5.194128E-10
       344  16 -3.220497E+05 -7.663367E+03  5.895411E+03 -1.212513E+05  1.373173E-09  9.644728E-10
       344  17 -3.470151E+05  4.022906E+04  5.067889E+04 -2.140895E+05  2.183108E-09 -6.438877E-10
       344  18 -3.925265E+05 -8.935953E+03  6.294349E+04 -2.992335E+05 -9.331778E-11  1.446553E-09
       344  19 -1.631031E+06 -6.814482E+05 -3.666716E+05 -6.668279E+05  1.747292E+05  5.381030E+04
       344  20 -1.559538E+06 -4.866354E+05 -2.180347E+05 -6.341953E+05  1.089254E+05  2.156230E+03
       344  21 -1.520992E+06 -4.013091E+05 -1.512420E+05 -5.938471E+05  3.596512E+04 -3.053897E+04
       344  22 -9.767660E+05 -3.446352E+05 -1.803721E+05 -3.941911E+05  1.206863E+05  3.351120E+04
       344  23 -9.534683E+05 -2.232410E+05 -8.366490E+04 -4.242458E+05  8.589350E+04 -6.493881E+03
       344  24 -9.569236E+05 -2.051327E+05 -4.413971E+04 -4.466015E+05  4.395848E+04 -2.753062E+04
       344  25 -3.220449E+05 -7.661989E+03  5.904073E+03 -1.212505E+05  6.658043E+04  1.316840E+04
       344  26 -3.470108E+05  4.023037E+04  5.068674E+04 -2.140903E+05  6.283722E+04 -1.515699E+04
       344  27 -3.925234E+05 -8.934583E+03  6.294970E+04 -2.992345E+05  5.195964E+04 -2.451965E+04
       345   1 -1.452740E+06 -3.922905E+05 -1.292411E+05 -5.858981E+05 -3.248700E+04  2.831424E+04
       345   2 -1.377562E+06 -3.485378E+05 -9.582337E+04 -5.555850E+05 -1.957616E+04  2.858256E+04
       345   3 -1.291958E+06 -3.237304E+05 -7.225543E+04 -5.401833E+05 -6.076412E+03  2.728363E+04
       345   4 -9.515162E+05 -2.072782E+05 -3.334431E+04 -4.437237E+05 -3.779250E+04  2.631684E+04
       345   5 -9.565167E+05 -1.948778E+05 -1.756975E+04 -4.374563E+05 -2.744078E+04  2.562494E+04
       345   6 -9.505880E+05 -2.009123E+05 -9.608123E+03 -4.461025E+05 -1.650184E+04  2.336574E+04
       345   7 -4.500343E+05 -2.224287E+04  6.254070E+04 -3.014431E+05 -4.310254E+04  2.431768E+04
       345   8 -5.352856E+05 -4.120076E+04  6.067733E+04 -3.192526E+05 -3.531111E+04  2.266516E+04
       345   9 -6.090917E+05 -7.808243E+04  5.303624E+04 -3.519726E+05 -2.693350E+04  1.944555E+04
       345  10 -1.452741E+06 -3.922916E+05 -1.292446E+05 -5.858974E+05 -2.472734E-08 -9.917218E-09
       345  11 -1.377562E+06 -3.485387E+05 -9.582563E+04 -5.555846E+05 -6.588982E-09 -2.136333E-09
       345  12 -1.291959E+06 -3.237312E+05 -7.225689E+04 -5.401832E+05  2.027966E-08  7.895581E-09
       345  13 -9.515179E+05 -2.072793E+05 -3.334829E+04 -4.437229E+05 -2.566054E-09 -3.931077E-10
       345  14 -9.565177E+05 -1.948787E+05 -1.757240E+04 -4.374557E+05 -2.580853E-09 -5.137587E-09
       345  15 -9.505885E+05 -2.009129E+05 -9.609660E+03 -4.461022E+05 -1.854369E-09 -1.460899E-09
       345  16 -4.500365E+05 -2.224400E+04  6.253610E+04 -3.014423E+05  2.046454E-08  7.916729E-09
       345  17 -5.352871E+05 -4.120164E+04  6.067402E+04 -3.192519E+05 -3.963870E-09 -2.787462E-09
       345  18 -6.090926E+05 -7.808303E+04  5.303417E+04 -3.519722E+05 -2.442377E-08 -1.187844E-08
       345  19 -1.452740E+06 -3.922905E+05 -1.292411E+05 -5.858981E+05  3.248700E+04 -2.831424E+04
       345  20 -1.377562E+06 -3.485378E+05 -9.582337E+04 -5.555850E+05  1.957616E+04 -2.858256E+04
       345  21 -1.291958E+06 -3.237304E+05 -7.225543E+04 -5.401833E+05  6.076412E+03 -2.728363E+04
       345  22 -9.515162E+05 -2.072782E+05 -3.334431E+04 -4.437237E+05  3.779250E+04 -2.631684E+04
       345  23 -9.565167E+05 -1.948778E+05 -1.756975E+04 -4.374563E+05  2.744078E+04 -2.562494E+04
       345  24 -9.505880E+05 -2.009123E+05 -9.608123E+03 -4.461025E+05  1.650184E+04 -2.336574E+04
       345  25 -4.500343E+05 -2.224287E+04  6.254070E+04 -3.014431E+05  4.310254E+04 -2.431768E+04
       345  26 -5.352856E+05 -4.120076E+04  6.067733E+04 -3.192526E+05  3.531111E+04 -2.266516E+04
       345  27 -6.090917E+05 -7.808243E+04  5.303624E+04 -3.519726E+05  2.693350E+04 -1.944555E+04
       346   1 -1.237603E+06 -3.049143E+05 -5.963438E+04 -5.256991E+05 -3.555892E+03  2.397693E+04
       346   2 -1.162875E+06 -2.683123E+05 -4.153704E+04 -4.951540E+05  1.007233E+03  1.850147E+04
       346   3 -1.074652E+06 -2.458666E+05 -2.514155E+04 -4.804846E+05  5.618920E+03  1.289405E+04
       346   4 -9.501562E+05 -2.010438E+05 -7.222127E+03 -4.459029E+05 -1.376683E+04  2.014051E+04
       346   5 -9.569029E+05 -1.939008E+05 -3.972094E+03 -4.379934E+05 -9.419291E+03  1.458507E+04
       346   6 -9.501189E+05 -2.008712E+05 -2.252535E+03 -4.459619E+05 -5.023516E+03  8.897610E+03
       346   7 -6.626222E+05 -9.716570E+04  4.518757E+04 -3.660722E+05 -2.398282E+04  1.630220E+04
       346   8 -7.508871E+05 -1.194856E+05  3.359149E+04 -3.808154E+05 -1.984946E+04  1.066731E+04
       346   9 -8.255707E+05 -1.558748E+05  2.063605E+04 -4.114329E+05 -1.566813E+04  4.900359E+03
       346  10 -1.237603E+06 -3.049149E+05 -5.963549E+04 -5.256991E+05 -2.838288E-10  6.355643E-10
       346  11 -1.162875E+06 -2.683127E+05 -4.153768E+04 -4.951540E+05  1.476835E-09  6.743335E-10
       346  12 -1.074652E+06 -2.458668E+05 -2.514192E+04 -4.804847E+05  9.651071E-10  5.350473E-10
       346  13 -9.501565E+05 -2.010443E+05 -7.223245E+03 -4.459027E+05  9.204417E-10 -6.780205E-10
       346  14 -9.569030E+05 -1.939010E+05 -3.972660E+03 -4.379933E+05 -5.250714E-10  1.394107E-09
       346  15 -9.501189E+05 -2.008713E+05 -2.252731E+03 -4.459618E+05 -6.688962E-10  2.548754E-10
       346  16 -6.626229E+05 -9.716614E+04  4.518599E+04 -3.660719E+05  1.173825E-09 -1.455495E-09
       346  17 -7.508875E+05 -1.194859E+05  3.359054E+04 -3.808152E+05 -3.708873E-10  1.067931E-10
       346  18 -8.255710E+05 -1.558749E+05  2.063555E+04 -4.114329E+05 -1.908449E-09  4.969077E-10
       346  19 -1.237603E+06 -3.049143E+05 -5.963438E+04 -5.256991E+05  3.555892E+03 -2.397693E+04
       346  20 -1.162875E+06 -2.683123E+05 -4.153704E+04 -4.951540E+05 -1.007233E+03 -1.850147E+04
       346  21 -1.074652E+06 -2.458666E+05 -2.514155E+04 -4.804846E+05 -5.618920E+03 -1.289405E+04
       346  22 -9.501562E+05 -2.010438E+05 -7.222127E+03 -4.459029E+05  1.376683E+04 -2.014051E+04
       346  23 -9.569029E+05 -1.939008E+05 -3.972094E+03 -4.379934E+05  9.419291E+03 -1.458507E+04
       346  24 -9.501189E+05 -2.008712E+05 -2.252535E+03 -4.459619E+05  5.023516E+03 -8.897610E+03
       346  25 -6.626222E+05 -9.716570E+04  4.518757E+04 -3.660722E+05  2.398282E+04 -1.630220E+04
       346  26 -7.508871E+05 -1.194856E+05  3.359149E+04 -3.808154E+05  1.984946E+04 -1.066731E+04
       346  27 -8.255707E+05 -1.558748E+05  2.063605E+04 -4.114329E+05  1.566813E+04 -4.900359E+03
       347   1 -1.021105E+06 -2.264773E+05 -1.446292E+04 -4.656426E+05  7.355431E+03  9.228681E+03
       347   2 -9.464952E+05 -1.900946E+05  7.840186E+02 -4.350111E+05  1.036643E+04  2.951894E+03
       347   3 -8.580768E+05 -1.676083E+05  1.560278E+04 -4.202638E+05  1.338094E+04 -3.333983E+03
       347   4 -9.500652E+05 -2.008821E+05 -1.743840E+03 -4.459410E+05 -3.271557E+03  5.238331E+03
       347   5 -9.569679E+05 -1.939461E+05 -1.119763E+03 -4.379928E+05 -2.762621E+02 -1.044433E+03
       347   6 -9.500684E+05 -2.009050E+05 -9.122888E+02 -4.459323E+05  2.722468E+03 -7.336297E+03
       347   7 -8.790187E+05 -1.752861E+05  1.097575E+04 -4.262370E+05 -1.389995E+04  1.247459E+03
       347   8 -9.674404E+05 -1.977976E+05 -3.023076E+03 -4.409744E+05 -1.091881E+04 -5.040706E+03
       347   9 -1.042051E+06 -2.342008E+05 -1.742716E+04 -4.715972E+05 -7.934326E+03 -1.133798E+04
       347  10 -1.021105E+06 -2.264774E+05 -1.446318E+04 -4.656426E+05  1.733645E-10  8.996427E-11
       347  11 -9.464953E+05 -1.900946E+05  7.837999E+02 -4.350111E+05 -1.097703E-09  9.359740E-10
       347  12 -8.580770E+05 -1.676084E+05  1.560242E+04 -4.202638E+05 -1.499149E-10  3.468143E-10
       347  13 -9.500652E+05 -2.008821E+05 -1.743912E+03 -4.459409E+05  4.836934E-10  3.481324E-10
       347  14 -9.569679E+05 -1.939461E+05 -1.119765E+03 -4.379928E+05 -1.165759E-10  4.380425E-10
       347  15 -9.500684E+05 -2.009051E+05 -9.124038E+02 -4.459323E+05  1.065814E-10  9.387818E-10
       347  16 -8.790189E+05 -1.752861E+05  1.097538E+04 -4.262370E+05 -9.600251E-10  6.064212E-10
       347  17 -9.674406E+05 -1.977976E+05 -3.023348E+03 -4.409745E+05  1.078515E-09  4.892404E-10
       347  18 -1.042051E+06 -2.342010E+05 -1.742752E+04 -4.715972E+05  4.111579E-10  1.471198E-09
       347  19 -1.021105E+06 -2.264773E+05 -1.446292E+04 -4.656426E+05 -7.355431E+03 -9.228681E+03
       347  20 -9.464952E+05 -1.900946E+05  7.840186E+02 -4.350111E+05 -1.036643E+04 -2.951894E+03
       347  21 -8.580768E+05 -1.676083E+05  1.560278E+04 -4.202638E+05 -1.338094E+04  3.333983E+03
       347  22 -9.500652E+05 -2.008821E+05 -1.743840E+03 -4.459410E+05  3.271557E+03 -5.238331E+03
       347  23 -9.569679E+05 -1.939461E+05 -1.119763E+03 -4.379928E+05  2.762621E+02  1.044433E+03
       347  24 -9.500684E+05 -2.009050E+05 -9.122888E+02 -4.459323E+05 -2.722468E+03  7.336297E+03
       347  25 -8.790187E+05 -1.752861E+05  1.097575E+04 -4.262370E+05  1.389995E+04 -1.247459E+03
       347  26 -9.674404E+05 -1.977976E+05 -3.023076E+03 -4.409744E+05  1.091881E+04  5.040706E+03
       347  27 -1.042051E+06 -2.342008E+05 -1.742716E+04 -4.715972E+05  7.934326E+03  1.133798E+04
       348   1 -8.046241E+05 -1.481845E+05  2.574473E+04 -4.054043E+05  1.495535E+04 -7.063447E+03
       348   2 -7.300717E+05 -1.118187E+05  4.004505E+04 -3.747921E+05  1.797949E+04 -1.333882E+04
       348   3 -6.417178E+05 -8.933270E+04  5.391113E+04 -3.600500E+05  2.099851E+04 -1.959692E+04
       348   4 -9.500749E+05 -2.009060E+05 -9.314550E+02 -4.459293E+05  4.298634E+03 -1.106544E+04
       348   5 -9.569760E+05 -1.939656E+05 -1.228423E+03 -4.379945E+05  7.349749E+03 -1.733179E+04
       348   6 -9.500876E+05 -2.009111E+05 -1.981140E+03 -4.459327E+05  1.039567E+04 -2.358092E+04
       348   7 -1.095502E+06 -2.536249E+05 -2.760755E+04 -4.864450E+05 -6.355312E+03 -1.506639E+04
       348   8 -1.183826E+06 -2.761076E+05 -4.250325E+04 -5.011753E+05 -3.275841E+03 -2.132321E+04
       348   9 -1.258360E+06 -3.124816E+05 -5.787709E+04 -5.317763E+05 -2.016321E+02 -2.756284E+04
       348  10 -8.046244E+05 -1.481846E+05  2.574422E+04 -4.054043E+05 -6.802758E-10  3.528951E-10
       348  11 -7.300721E+05 -1.118190E+05  4.004411E+04 -3.747919E+05 -9.382422E-11  5.217362E-10
       348  12 -6.417184E+05 -8.933323E+04  5.390958E+04 -3.600497E+05  8.537198E-10 -8.606818E-11
       348  13 -9.500750E+05 -2.009061E+05 -9.317197E+02 -4.459293E+05 -1.479521E-09  1.559726E-09
       348  14 -9.569761E+05 -1.939660E+05 -1.229088E+03 -4.379944E+05 -6.443668E-11  7.945941E-10
       348  15 -9.500879E+05 -2.009117E+05 -1.982388E+03 -4.459325E+05 -7.350585E-11  7.021629E-10
       348  16 -1.095502E+06 -2.536252E+05 -2.760805E+04 -4.864451E+05  7.269904E-10  1.475479E-09
       348  17 -1.183826E+06 -2.761081E+05 -4.250413E+04 -5.011754E+05  4.441882E-10  6.789828E-10
       348  18 -1.258360E+06 -3.124824E+05 -5.787852E+04 -5.317763E+05 -2.084364E-09  5.540691E-10
       348  19 -8.046241E+05 -1.481845E+05  2.574473E+04 -4.054043E+05 -1.495535E+04  7.063447E+03
       348  20 -7.300717E+05 -1.118187E+05  4.004505E+04 -3.747921E+05 -1.797949E+04  1.333882E+04
       348  21 -6.417178E+05 -8.933270E+04  5.391113E+04 -3.600500E+05 -2.099851E+04  1.959692E+04
       348  22 -9.500749E+05 -2.009060E+05 -9.314550E+02 -4.459293E+05 -4.298634E+03  1.106544E+04
       348  23 -9.569760E+05 -1.939656E+05 -1.228423E+03 -4.379945E+05 -7.349749E+03  1.733179E+04
       348  24 -9.500876E+05 -2.009111E+05 -1.981140E+03 -4.459327E+05 -1.039567E+04  2.358092E+04
       348  25 -1.095502E+06 -2.536249E+05 -2.760755E+04 -4.864450E+05  6.355312E+03  1.506639E+04
       348  26 -1.183826E+06 -2.761076E+05 -4.250325E+04 -5.011753E+05  3.275841E+03  2.132321E+04
       348  27 -1.258360E+06 -3.124816E+05 -5.787709E+04 -5.317763E+05  2.016321E+02  2.756284E+04
       349   1 -5.883734E+05 -6.995061E+04  6.346572E+04 -3.452590E+05  2.281155E+04 -2.322299E+04
       349   2 -5.138796E+05 -3.364169E+04  7.612317E+04 -3.146914E+05  2.721207E+04 -2.886206E+04
       349   3 -4.258632E+05 -1.139349E+04  8.724636E+04 -2.999522E+05  3.154894E+04 -3.432436E+04
       349   4 -9.501601E+05 -2.009008E+05 -2.578897E+03 -4.459504E+05  1.219220E+04 -2.721418E+04
       349   5 -9.569200E+05 -1.939557E+05 -4.582617E+03 -4.379976E+05  1.687944E+04 -3.274768E+04
       349   6 -9.502206E+05 -2.011298E+05 -8.348841E+03 -4.458768E+05  2.150271E+04 -3.810442E+04
       349   7 -1.311809E+06 -3.318386E+05 -6.862773E+04 -5.465870E+05  1.579474E+03 -3.120290E+04
       349   8 -1.399751E+06 -3.542504E+05 -8.529436E+04 -5.612212E+05  6.554743E+03 -3.663033E+04
       349   9 -1.474283E+06 -3.908383E+05 -1.039521E+05 -5.916852E+05  1.146564E+04 -4.188106E+04
       349  10 -5.883741E+05 -6.995133E+04  6.346373E+04 -3.452586E+05  2.038245E-10  1.011712E-10
       349  11 -5.138806E+05 -3.364278E+04  7.612021E+04 -3.146908E+05 -4.166566E-10  5.678749E-10
       349  12 -4.258646E+05 -1.139502E+04  8.724228E+04 -2.999513E+05 -1.217162E-09  1.183948E-09
       349  13 -9.501605E+05 -2.009016E+05 -2.580567E+03 -4.459502E+05 -5.211426E-10  7.372130E-11
       349  14 -9.569206E+05 -1.939569E+05 -4.585166E+03 -4.379972E+05 -3.086108E-10  3.891703E-10
       349  15 -9.502215E+05 -2.011314E+05 -8.352436E+03 -4.458762E+05  1.246086E-09 -3.039339E-10
       349  16 -1.311809E+06 -3.318396E+05 -6.862956E+04 -5.465870E+05 -9.922741E-10  1.693558E-10
       349  17 -1.399752E+06 -3.542518E+05 -8.529696E+04 -5.612210E+05  5.289164E-10 -9.765398E-10
       349  18 -1.474284E+06 -3.908402E+05 -1.039556E+05 -5.916848E+05  7.544672E-10 -1.207105E-10
       349  19 -5.883734E+05 -6.995061E+04  6.346572E+04 -3.452590E+05 -2.281155E+04  2.322299E+04
       349  20 -5.138796E+05 -3.364169E+04  7.612317E+04 -3.146914E+05 -2.721207E+04  2.886206E+04
       349  21 -4.258632E+05 -1.139349E+04  8.724636E+04 -2.999522E+05 -3.154894E+04  3.432436E+04
       349  22 -9.501601E+05 -2.009008E+05 -2.578897E+03 -4.459504E+05 -1.219220E+04  2.721418E+04
       349  23 -9.569200E+05 -1.939557E+05 -4.582617E+03 -4.379976E+05 -1.687944E+04  3.274768E+04
       349  24 -9.502206E+05 -2.011298E+05 -8.348841E+03 -4.458768E+05 -2.150271E+04  3.810442E+04
       349  25 -1.311809E+06 -3.318386E+05 -6.862773E+04 -5.465870E+05 -1.579474E+03  3.120290E+04
       349  26 -1.399751E+06 -3.542504E+05 -8.529436E+04 -5.612212E+05 -6.554743E+03  3.663033E+04
       349  27 -1.474283E+06 -3.908383E+05 -1.039521E+05 -5.916852E+05 -1.146564E+04  4.188106E+04
       350   1 -3.724962E+05  7.600693E+03  9.471223E+04 -2.859796E+05  3.476320E+04 -3.733257E+04
       350   2 -2.991637E+05  4.445184E+04  1.013624E+05 -2.530419E+05  4.360358E+04 -4.001742E+04
       350   3 -2.147241E+05  6.290178E+04  1.016616E+05 -2.347692E+05  5.167209E+04 -4.063990E+04
       350   4 -9.507254E+05 -2.009746E+05 -1.110936E+04 -4.460954E+05  2.443666E+04 -4.121954E+04
       350   5 -9.564849E+05 -1.951285E+05 -2.032564E+04 -4.373824E+05  3.664651E+04 -4.264019E+04
       350   6 -9.518167E+05 -2.083590E+05 -3.857237E+04 -4.433394E+05  4.808309E+04 -4.199764E+04
       350   7 -1.528609E+06 -4.095215E+05 -1.169443E+05 -6.060742E+05  1.412031E+04 -4.510274E+04
       350   8 -1.613356E+06 -4.346688E+05 -1.420308E+05 -6.215416E+05  2.969728E+04 -4.525999E+04
       350   9 -1.688342E+06 -4.795667E+05 -1.788288E+05 -6.516781E+05  4.449864E+04 -4.335362E+04
       350  10 -3.724979E+05  7.598873E+03  9.470734E+04 -2.859785E+05 -1.400052E-09  1.169618E-09
       350  11 -2.991662E+05  4.444961E+04  1.013558E+05 -2.530405E+05 -5.570447E-10  1.798389E-09
       350  12 -2.147274E+05  6.289929E+04  1.016535E+05 -2.347675E+05  5.849798E-10  2.669722E-09
       350  13 -9.507265E+05 -2.009766E+05 -1.111367E+04 -4.460946E+05 -6.808051E-10 -7.928786E-11
       350  14 -9.564868E+05 -1.951308E+05 -2.033158E+04 -4.373811E+05 -1.517082E-09  1.198047E-09
       350  15 -9.518197E+05 -2.083615E+05 -3.858003E+04 -4.433378E+05 -2.981484E-10  4.381292E-10
       350  16 -1.528610E+06 -4.095238E+05 -1.169485E+05 -6.060737E+05  7.676598E-10  1.097052E-09
       350  17 -1.613358E+06 -4.346713E+05 -1.420363E+05 -6.215405E+05 -1.733680E-09  2.513713E-09
       350  18 -1.688345E+06 -4.795692E+05 -1.788361E+05 -6.516766E+05 -9.654182E-10 -4.376012E-11
       350  19 -3.724962E+05  7.600693E+03  9.471223E+04 -2.859796E+05 -3.476320E+04  3.733257E+04
       350  20 -2.991637E+05  4.445184E+04  1.013624E+05 -2.530419E+05 -4.360358E+04  4.001742E+04
       350  21 -2.147241E+05  6.290178E+04  1.016616E+05 -2.347692E+05 -5.167209E+04  4.063990E+04
       350  22 -9.507254E+05 -2.009746E+05 -1.110936E+04 -4.460954E+05 -2.443666E+04  4.121954E+04
       350  23 -9.564849E+05 -1.951285E+05 -2.032564E+04 -4.373824E+05 -3.664651E+04  4.264019E+04
       350  24 -9.518167E+05 -2.083590E+05 -3.857237E+04 -4.433394E+05 -4.808309E+04  4.199764E+04
       350  25 -1.528609E+06 -4.095215E+05 -1.169443E+05 -6.060742E+05 -1.412031E+04  4.510274E+04
       350  26 -1.613356E+06 -4.346688E+05 -1.420308E+05 -6.215416E+05 -2.969728E+04  4.525999E+04
       350  27 -1.688342E+06 -4.795667E+05 -1.788288E+05 -6.516781E+05 -4.449864E+04  4.335362E+04
       351   1 -1.567043E+05  7.528913E+04  1.006680E+05 -2.344982E+05  6.207479E+04 -3.999149E+04
       351   2 -1.165024E+05  1.265080E+05  8.613174E+04 -1.412894E+05  6.869187E+04 -2.819946E+04
       351   3 -1.014654E+05  6.890802E+04  3.789332E+04 -3.639495E+04  6.591535E+04  8.520280E+03
       351   4 -9.581052E+05 -2.058487E+05 -5.105970E+04 -4.466291E+05  5.494682E+04 -4.268137E+04
       351   5 -9.529444E+05 -2.279864E+05 -9.678575E+04 -4.221411E+05  1.023990E+05 -1.551779E+04
       351   6 -9.811148E+05 -3.671462E+05 -2.086475E+05 -3.859603E+05  1.404465E+05  3.658681E+04
       351   7 -1.758836E+06 -4.869397E+05 -2.028133E+05 -6.585102E+05  4.782870E+04 -4.536785E+04
       351   8 -1.788645E+06 -5.823472E+05 -2.797351E+05 -7.026151E+05  1.360568E+05 -2.861205E+03
       351   9 -1.859939E+06 -8.029464E+05 -4.552262E+05 -7.350059E+05  2.148603E+05  6.457717E+04
       351  10 -1.567089E+05  7.528638E+04  1.006577E+05 -2.344962E+05 -3.196814E-09  7.671610E-10
       351  11 -1.165077E+05  1.265059E+05  8.612138E+04 -1.412878E+05  4.219849E-11 -5.668190E-10
       351  12 -1.014701E+05  6.890677E+04  3.788502E+04 -3.639540E+04  4.859648E-10 -1.034859E-09
       351  13 -9.581089E+05 -2.058515E+05 -5.106880E+04 -4.466272E+05  4.035657E-10 -1.111076E-10
       351  14 -9.529557E+05 -2.279895E+05 -9.680593E+04 -4.221398E+05  1.165415E-09  2.129453E-09
       351  15 -9.811364E+05 -3.671529E+05 -2.086872E+05 -3.859645E+05 -3.142665E-10  1.135852E-09
       351  16 -1.758839E+06 -4.869425E+05 -2.028214E+05 -6.585085E+05  2.598810E-09  2.063778E-11
       351  17 -1.788665E+06 -5.823522E+05 -2.797700E+05 -7.026148E+05  1.449441E-09  1.995200E-09
       351  18 -1.859990E+06 -8.029633E+05 -4.553211E+05 -7.350171E+05 -1.365461E-09 -2.864344E-10
       351  19 -1.567043E+05  7.528913E+04  1.006680E+05 -2.344982E+05 -6.207479E+04  3.999149E+04
       351  20 -1.165024E+05  1.265080E+05  8.613174E+04 -1.412894E+05 -6.869187E+04  2.819946E+04
       351  21 -1.014654E+05  6.890802E+04  3.789332E+04 -3.639495E+04 -6.591535E+04 -8.520280E+03
       351  22 -9.581052E+05 -2.058487E+05 -5.105970E+04 -4.466291E+05 -5.494682E+04  4.268137E+04
       351  23 -9.529444E+05 -2.279864E+05 -9.678575E+04 -4.221411E+05 -1.023990E+05  1.551779E+04
       351  24 -9.811148E+05 -3.671462E+05 -2.086475E+05 -3.859603E+05 -1.404465E+05 -3.658681E+04
       351  25 -1.758836E+06 -4.869397E+05 -2.028133E+05 -6.585102E+05 -4.782870E+04  4.536785E+04
       351  26 -1.788645E+06 -5.823472E+05 -2.797351E+05 -7.026151E+05 -1.360568E+05  2.861205E+03
       351  27 -1.859939E+06 -8.029464E+05 -4.552262E+05 -7.350059E+05 -2.148603E+05 -6.457717E+04
       352   1 -1.180674E+05 -9.629581E+03 -4.670979E+04 -3.687640E+04 -1.109696E+05 -6.485429E+03
       352   2 -1.299876E+05  1.397941E+05  3.938645E+04 -8.520613E+03 -7.650869E+04 -1.961147E+04
       352   3 -1.871280E+05  1.258744E+05  6.225432E+04  3.949588E+04 -4.207294E+04 -1.946496E+04
       352   4 -6.644305E+05 -1.455344E+05 -1.806529E+05  1.790430E+04 -1.237301E+05 -6.516283E+03
       352   5 -6.410274E+05  1.370298E+04 -8.019872E+04  7.939850E+03 -8.070523E+04 -1.962242E+04
       352   6 -6.643756E+05  8.030956E+03 -4.896299E+04  1.763801E+04 -3.770291E+04 -1.945540E+04
       352   7 -1.210515E+06 -2.814499E+05 -3.146156E+05  7.263659E+04 -1.364794E+05 -6.549408E+03
       352   8 -1.151826E+06 -1.124056E+05 -1.998015E+05  2.438656E+04 -8.489832E+04 -1.963360E+04
       352   9 -1.141412E+06 -1.098268E+05 -1.601954E+05 -4.203050E+03 -3.333621E+04 -1.944615E+04
       352  10 -1.180806E+05 -9.632933E+03 -4.673301E+04 -3.687698E+04 -1.868038E-10  8.949787E-11
       352  11 -1.299940E+05  1.397921E+05  3.937473E+04 -8.521822E+03  2.177502E-09 -1.937728E-09
       352  12 -1.871300E+05  1.258735E+05  6.225028E+04  3.949522E+04  3.352566E-09 -3.671185E-09
       352  13 -6.644470E+05 -1.455386E+05 -1.806818E+05  1.790365E+04  8.815179E-11  1.870466E-09
       352  14 -6.410345E+05  1.370082E+04 -8.021170E+04  7.938574E+03  3.275889E-10 -3.489031E-10
       352  15 -6.643773E+05  8.030168E+03 -4.896637E+04  1.763742E+04 -1.547944E-10 -5.733989E-10
       352  16 -1.210535E+06 -2.814550E+05 -3.146508E+05  7.263587E+04  4.897318E-11  1.150997E-09
       352  17 -1.151834E+06 -1.124080E+05 -1.998158E+05  2.438522E+04 -6.994965E-10 -4.072321E-09
       352  18 -1.141413E+06 -1.098275E+05 -1.601982E+05 -4.203572E+03 -3.037680E-09 -6.429989E-09
       352  19 -1.180674E+05 -9.629581E+03 -4.670979E+04 -3.687640E+04  1.109696E+05  6.485429E+03
       352  20 -1.299876E+05  1.397941E+05  3.938645E+04 -8.520613E+03  7.650869E+04  1.961147E+04
       352  21 -1.871280E+05  1.258744E+05  6.225432E+04  3.949588E+04  4.207294E+04  1.946496E+04
       352  22 -6.644305E+05 -1.455344E+05 -1.806529E+05  1.790430E+04  1.237301E+05  6.516283E+03
       352  23 -6.410274E+05  1.370298E+04 -8.019872E+04  7.939850E+03  8.070523E+04  1.962242E+04
       352  24 -6.643756E+05  8.030956E+03 -4.896299E+04  1.763801E+04  3.770291E+04  1.945540E+04
       352  25 -1.210515E+06 -2.814499E+05 -3.146156E+05  7.263659E+04  1.364794E+05  6.549408E+03
       352  26 -1.151826E+06 -1.124056E+05 -1.998015E+05  2.438656E+04  8.489832E+04  1.963360E+04
       352  27 -1.141412E+06 -1.098268E+05 -1.601954E+05 -4.203050E+03  3.333621E+04  1.944615E+04
       353   1 -2.142391E+05  9.661103E+04  6.357768E+04  1.464451E+04 -3.065671E+04 -1.682820E+04
       353   2 -2.469770E+05  1.013966E+05  7.403876E+04  7.401867E+03 -2.062624E+04 -1.599698E+04
       353   3 -2.845125E+05  9.224826E+04  7.448403E+04  2.059055E+04 -1.059882E+04 -1.441968E+04
       353   4 -6.550740E+05 -1.221506E+04 -3.960929E+04  1.790980E+04 -3.035965E+04 -1.682855E+04
       353   5 -6.526246E+05  1.285268E+03 -2.069447E+04  7.678624E+03 -1.985263E+04 -1.599587E+04
       353   6 -6.550601E+05  7.636085E+02 -1.213168E+04  1.787974E+04 -9.348086E+03 -1.441698E+04
       353   7 -1.095730E+06 -1.210549E+05 -1.428095E+05  2.117266E+04 -3.006279E+04 -1.682890E+04
       353   8 -1.058120E+06 -9.883773E+04 -1.154389E+05  7.955107E+03 -1.907952E+04 -1.599475E+04
       353   9 -1.025481E+06 -9.073076E+04 -9.875673E+04  1.517047E+04 -8.098095E+03 -1.441429E+04
       353  10 -2.142402E+05  9.661047E+04  6.357538E+04  1.464409E+04 -1.246483E-09 -5.853486E-09
       353  11 -2.469775E+05  1.013962E+05  7.403748E+04  7.401602E+03 -5.326401E-10  1.264105E-09
       353  12 -2.845127E+05  9.224800E+04  7.448343E+04  2.059043E+04 -6.236302E-10  3.696029E-09
       353  13 -6.550750E+05 -1.221561E+04 -3.961156E+04  1.790939E+04  1.734185E-09 -4.445540E-09
       353  14 -6.526251E+05  1.284887E+03 -2.069569E+04  7.678368E+03 -3.676963E-10 -5.760796E-10
       353  15 -6.550603E+05  7.633619E+02 -1.213224E+04  1.787963E+04  5.258753E-10 -1.348345E-09
       353  16 -1.095731E+06 -1.210555E+05 -1.428117E+05  2.117225E+04  9.382170E-10 -1.827909E-09
       353  17 -1.058121E+06 -9.883810E+04 -1.154400E+05  7.954861E+03  1.232342E-09  9.014743E-10
       353  18 -1.025481E+06 -9.073100E+04 -9.875724E+04  1.517038E+04  1.404452E-09  1.966871E-09
       353  19 -2.142391E+05  9.661103E+04  6.357768E+04  1.464451E+04  3.065671E+04  1.682820E+04
       353  20 -2.469770E+05  1.013966E+05  7.403876E+04  7.401867E+03  2.062624E+04  1.599698E+04
       353  21 -2.845125E+05  9.224826E+04  7.448403E+04  2.059055E+04  1.059882E+04  1.441968E+04
       353  22 -6.550740E+05 -1.221506E+04 -3.960929E+04  1.790980E+04  3.035965E+04  1.682855E+04
       353  23 -6.526246E+05  1.285268E+03 -2.069447E+04  7.678624E+03  1.985263E+04  1.599587E+04
       353  24 -6.550601E+05  7.636085E+02 -1.213168E+04  1.787974E+04  9.348086E+03  1.441698E+04
       353  25 -1.095730E+06 -1.210549E+05 -1.428095E+05  2.117266E+04  3.006279E+04  1.682890E+04
       353  26 -1.058120E+06 -9.883773E+04 -1.154389E+05  7.955107E+03  1.907952E+04  1.599475E+04
       353  27 -1.025481E+06 -9.073076E+04 -9.875673E+04  1.517047E+04  8.098095E+03  1.441429E+04
       354   1 -3.206944E+05  8.135831E+04  6.835612E+04  1.849247E+04 -8.486007E+03 -1.336281E+04
       354   2 -3.561205E+05  7.363142E+04  6.424079E+04  8.224469E+03 -5.896409E+03 -1.174364E+04
       354   3 -3.922383E+05  6.482500E+04  5.815018E+04  1.877022E+04 -3.307937E+03 -1.007452E+04
       354   4 -6.541239E+05 -9.187232E+02 -9.418095E+03  1.797568E+04 -7.455233E+03 -1.336052E+04
       354   5 -6.537713E+05  1.649541E+02 -5.266115E+03  7.566984E+03 -4.834580E+03 -1.174102E+04
       354   6 -6.541173E+05  1.633396E+02 -3.111772E+03  1.797266E+04 -2.214907E+03 -1.007156E+04
       354   7 -9.874507E+05 -8.320363E+04 -8.719984E+04  1.745910E+04 -6.425007E+03 -1.335824E+04
       354   8 -9.513402E+05 -7.330779E+04 -7.477904E+04  6.909759E+03 -3.773256E+03 -1.173841E+04
       354   9 -9.159331E+05 -6.450319E+04 -6.437839E+04  1.717540E+04 -1.122334E+03 -1.006860E+04
       354  10 -3.206945E+05  8.135810E+04  6.835565E+04  1.849238E+04 -1.358002E-09  5.611036E-09
       354  11 -3.561206E+05  7.363126E+04  6.424047E+04  8.224413E+03  1.656726E-09  4.816083E-09
       354  12 -3.922383E+05  6.482489E+04  5.814997E+04  1.877019E+04  2.115064E-09 -6.018506E-10
       354  13 -6.541240E+05 -9.189298E+02 -9.418535E+03  1.797560E+04  8.227926E-10 -1.303101E-09
       354  14 -6.537713E+05  1.647998E+02 -5.266418E+03  7.566938E+03 -2.113030E-09  3.540488E-09
       354  15 -6.541173E+05  1.632294E+02 -3.111971E+03  1.797265E+04 -1.961907E-10  7.055896E-09
       354  16 -9.874508E+05 -8.320383E+04 -8.720025E+04  1.745903E+04  6.617971E-10  4.588883E-09
       354  17 -9.513403E+05 -7.330795E+04 -7.477932E+04  6.909723E+03 -5.329337E-11  6.665941E-09
       354  18 -9.159331E+05 -6.450330E+04 -6.437858E+04  1.717539E+04 -3.805506E-09  4.108625E-09
       354  19 -3.206944E+05  8.135831E+04  6.835612E+04  1.849247E+04  8.486007E+03  1.336281E+04
       354  20 -3.561205E+05  7.363142E+04  6.424079E+04  8.224469E+03  5.896409E+03  1.174364E+04
       354  21 -3.922383E+05  6.482500E+04  5.815018E+04  1.877022E+04  3.307937E+03  1.007452E+04
       354  22 -6.541239E+05 -9.187232E+02 -9.418095E+03  1.797568E+04  7.455233E+03  1.336052E+04
       354  23 -6.537713E+05  1.649541E+02 -5.266115E+03  7.566984E+03  4.834580E+03  1.174102E+04
       354  24 -6.541173E+05  1.633396E+02 -3.111772E+03  1.797266E+04  2.214907E+03  1.007156E+04
       354  25 -9.874507E+05 -8.320363E+04 -8.719984E+04  1.745910E+04  6.425007E+03  1.335824E+04
       354  26 -9.513402E+05 -7.330779E+04 -7.477904E+04  6.909759E+03  3.773256E+03  1.173841E+04
       354  27 -9.159331E+05 -6.450319E+04 -6.437839E+04  1.717540E+04  1.122334E+03  1.006860E+04
       355   1 -4.298224E+05  5.534708E+04  4.980861E+04  1.857128E+04 -2.804066E+03 -9.093469E+03
       355   2 -4.659277E+05  4.646281E+04  4.233852E+04  7.956643E+03 -2.043103E+03 -7.413395E+03
       355   3 -5.022639E+05  3.760173E+04  3.434790E+04  1.841660E+04 -1.282766E+03 -5.725288E+03
       355   4 -6.540093E+05  3.146397E+01 -2.439208E+03  1.803165E+04 -1.719636E+03 -9.090397E+03
       355   5 -6.538907E+05  6.621895E+01 -1.556740E+03  7.493999E+03 -9.537505E+02 -7.410150E+03
       355   6 -6.540057E+05  1.232155E+02 -1.198452E+03  1.803133E+04 -1.884480E+02 -5.721864E+03
       355   7 -8.781498E+05 -5.528771E+04 -5.469042E+04  1.749218E+04 -6.355950E+02 -9.087327E+03
       355   8 -8.418210E+05 -4.633287E+04 -4.545440E+04  7.031470E+03  1.352738E+02 -7.406906E+03
       355   9 -8.057262E+05 -3.735693E+04 -3.674638E+04  1.764614E+04  9.056040E+02 -5.718440E+03
       355  10 -4.298224E+05  5.534699E+04  4.980844E+04  1.857126E+04  5.023990E-09 -8.509621E-10
       355  11 -4.659277E+05  4.646275E+04  4.233841E+04  7.956631E+03  1.201757E-09  9.231213E-09
       355  12 -5.022640E+05  3.760169E+04  3.434784E+04  1.841659E+04 -2.443807E-09  6.577820E-09
       355  13 -6.540094E+05  3.137447E+01 -2.439369E+03  1.803164E+04  1.595197E-09  1.369713E-09
       355  14 -6.538907E+05  6.615976E+01 -1.556845E+03  7.493993E+03  3.188494E-11  5.427489E-09
       355  15 -6.540057E+05  1.231804E+02 -1.198513E+03  1.803133E+04 -6.264224E-11  3.919687E-10
       355  16 -8.781499E+05 -5.528780E+04 -5.469058E+04  1.749217E+04 -5.079790E-09  2.172933E-09
       355  17 -8.418211E+05 -4.633293E+04 -4.545450E+04  7.031471E+03 -6.191516E-10 -1.888442E-09
       355  18 -8.057262E+05 -3.735697E+04 -3.674644E+04  1.764615E+04  1.124078E-09 -2.207083E-09
       355  19 -4.298224E+05  5.534708E+04  4.980861E+04  1.857128E+04  2.804066E+03  9.093469E+03
       355  20 -4.659277E+05  4.646281E+04  4.233852E+04  7.956643E+03  2.043103E+03  7.413395E+03
       355  21 -5.022639E+05  3.760173E+04  3.434790E+04  1.841660E+04  1.282766E+03  5.725288E+03
       355  22 -6.540093E+05  3.146397E+01 -2.439208E+03  1.803165E+04  1.719636E+03  9.090397E+03
       355  23 -6.538907E+05  6.621895E+01 -1.556740E+03  7.493999E+03  9.537505E+02  7.410150E+03
       355  24 -6.540057E+05  1.232155E+02 -1.198452E+03  1.803133E+04  1.884480E+02  5.721864E+03
       355  25 -8.781498E+05 -5.528771E+04 -5.469042E+04  1.749218E+04  6.355950E+02  9.087327E+03
       355  26 -8.418210E+05 -4.633287E+04 -4.545440E+04  7.031470E+03 -1.352738E+02  7.406906E+03
       355  27 -8.057262E+05 -3.735693E+04 -3.674638E+04  1.764614E+04 -9.056040E+02  5.718440E+03
       356   1 -5.403196E+05  2.816252E+04  2.527723E+04  1.833183E+04 -1.074237E+03 -4.740101E+03
       356   2 -5.766615E+05  1.913469E+04  1.666909E+04  7.627548E+03 -4.042599E+02 -3.044635E+03
       356   3 -6.132477E+05  1.015251E+04  7.598390E+03  1.814461E+04  2.654571E+02 -1.347835E+03
       356   4 -6.540057E+05  1.208266E+02 -1.165047E+03  1.806391E+04  2.184232E+01 -4.736596E+03
       356   5 -6.538824E+05  7.240062E+01 -1.365576E+03  7.453228E+03  6.925822E+02 -3.041063E+03
       356   6 -6.540044E+05  6.972106E+01 -2.029023E+03  1.806405E+04  1.363101E+03 -1.344192E+03
       356   7 -7.676798E+05 -2.792178E+04 -2.760819E+04  1.779602E+04  1.117722E+03 -4.733091E+03
       356   8 -7.310979E+05 -1.899031E+04 -1.940064E+04  7.278925E+03  1.789289E+03 -3.037492E+03
       356   9 -6.947596E+05 -1.001319E+04 -1.165655E+04  1.798350E+04  2.460673E+03 -1.340548E+03
       356  10 -5.403196E+05  2.816249E+04  2.527718E+04  1.833183E+04  5.158115E-09  2.521011E-09
       356  11 -5.766615E+05  1.913468E+04  1.666907E+04  7.627547E+03  1.021146E-09  1.431386E-09
       356  12 -6.132477E+05  1.015251E+04  7.598386E+03  1.814461E+04 -5.045854E-09 -4.227556E-09
       356  13 -6.540057E+05  1.208025E+02 -1.165089E+03  1.806391E+04  1.786299E-09  9.757186E-09
       356  14 -6.538824E+05  7.239056E+01 -1.365595E+03  7.453230E+03 -2.462094E-09  3.320020E-09
       356  15 -6.540044E+05  6.971862E+01 -2.029029E+03  1.806405E+04 -8.834698E-10 -4.147949E-09
       356  16 -7.676798E+05 -2.792180E+04 -2.760823E+04  1.779602E+04 -6.872787E-09  4.368065E-09
       356  17 -7.310979E+05 -1.899032E+04 -1.940067E+04  7.278930E+03  1.635567E-10  1.294007E-09
       356  18 -6.947596E+05 -1.001319E+04 -1.165656E+04  1.798351E+04  4.249976E-09 -4.363961E-09
       356  19 -5.403196E+05  2.816252E+04  2.527723E+04  1.833183E+04  1.074237E+03  4.740101E+03
       356  20 -5.766615E+05  1.913469E+04  1.666909E+04  7.627548E+03  4.042599E+02  3.044635E+03
       356  21 -6.132477E+05  1.015251E+04  7.598390E+03  1.814461E+04 -2.654571E+02  1.347835E+03
       356  22 -6.540057E+05  1.208266E+02 -1.165047E+03  1.806391E+04 -2.184232E+01  4.736596E+03
       356  23 -6.538824E+05  7.240062E+01 -1.365576E+03  7.453228E+03 -6.925822E+02  3.041063E+03
       356  24 -6.540044E+05  6.972106E+01 -2.029023E+03  1.806405E+04 -1.363101E+03  1.344192E+03
       356  25 -7.676798E+05 -2.792178E+04 -2.760819E+04  1.779602E+04 -1.117722E+03  4.733091E+03
       356  26 -7.310979E+05 -1.899031E+04 -1.940064E+04  7.278925E+03 -1.789289E+03  3.037492E+03
       356  27 -6.947596E+05 -1.001319E+04 -1.165655E+04  1.798350E+04 -2.460673E+03  1.340548E+03
       357   1 -6.515406E+05  7.823252E+02 -2.069435E+03  1.790609E+04  6.668725E+02 -3.556488E+02
       357   2 -6.877138E+05 -8.214934E+03 -1.219482E+04  7.341598E+03  2.802410E+03  1.346089E+03
       357   3 -7.245479E+05 -1.805032E+04 -2.395980E+04  1.802224E+04  4.937992E+03  3.024678E+03
       357   4 -6.540960E+05  1.745551E+02 -2.557523E+03  1.806829E+04  1.771636E+03 -3.519690E+02
       357   5 -6.537671E+05  1.658083E+02 -4.265640E+03  7.447173E+03  3.892271E+03  1.349687E+03
       357   6 -6.540977E+05 -6.783220E+02 -7.602797E+03  1.807112E+04  6.013074E+03  3.028200E+03
       357   7 -6.566515E+05 -4.332146E+02 -3.045607E+03  1.823050E+04  2.876396E+03 -3.482886E+02
       357   8 -6.198195E+05  8.546469E+03  3.663463E+03  7.552754E+03  4.982191E+03  1.353286E+03
       357   9 -5.836429E+05  1.669333E+04  8.753879E+03  1.812000E+04  7.088277E+03  3.031723E+03
       357  10 -6.515406E+05  7.823250E+02 -2.069436E+03  1.790609E+04  1.874032E-09  2.176197E-09
       357  11 -6.877138E+05 -8.214938E+03 -1.219484E+04  7.341595E+03 -1.856108E-10  2.918099E-09
       357  12 -7.245479E+05 -1.805034E+04 -2.395987E+04  1.802222E+04 -6.030520E-09  3.913083E-09
       357  13 -6.540960E+05  1.745542E+02 -2.557529E+03  1.806830E+04  1.247427E-09 -6.863389E-10
       357  14 -6.537672E+05  1.658022E+02 -4.265672E+03  7.447169E+03 -1.431207E-09  6.557110E-09
       357  15 -6.540977E+05 -6.783416E+02 -7.602882E+03  1.807110E+04  1.632878E-09  5.677694E-09
       357  16 -6.566515E+05 -4.332169E+02 -3.045623E+03  1.823050E+04 -3.253422E-09  1.801354E-09
       357  17 -6.198195E+05  8.546461E+03  3.663413E+03  7.552748E+03  3.003161E-09 -5.312203E-09
       357  18 -5.836430E+05  1.669331E+04  8.753767E+03  1.811998E+04  6.175991E-09  1.722836E-09
       357  19 -6.515406E+05  7.823252E+02 -2.069435E+03  1.790609E+04 -6.668725E+02  3.556488E+02
       357  20 -6.877138E+05 -8.214934E+03 -1.219482E+04  7.341598E+03 -2.802410E+03 -1.346089E+03
       357  21 -7.245479E+05 -1.805032E+04 -2.395980E+04  1.802224E+04 -4.937992E+03 -3.024678E+03
       357  22 -6.540960E+05  1.745551E+02 -2.557523E+03  1.806829E+04 -1.771636E+03  3.519690E+02
       357  23 -6.537671E+05  1.658083E+02 -4.265640E+03  7.447173E+03 -3.892271E+03 -1.349687E+03
       357  24 -6.540977E+05 -6.783220E+02 -7.602797E+03  1.807112E+04 -6.013074E+03 -3.028200E+03
       357  25 -6.566515E+05 -4.332146E+02 -3.045607E+03  1.823050E+04 -2.876396E+03  3.482886E+02
       357  26 -6.198195E+05  8.546469E+03  3.663463E+03  7.552754E+03 -4.982191E+03 -1.353286E+03
       357  27 -5.836429E+05  1.669333E+04  8.753879E+03  1.812000E+04 -7.088277E+03 -3.031723E+03
       358   1 -7.634334E+05 -2.616263E+04 -3.524886E+04  1.617467E+04  6.342130E+03  4.066344E+03
       358   2 -7.977307E+05 -3.468942E+04 -5.052419E+04  7.940035E+03  1.506380E+04  5.739488E+03
       358   3 -8.361433E+05 -5.451457E+04 -7.434176E+04  2.086380E+04  2.378644E+04  7.005851E+03
       358   4 -6.548568E+05  6.758951E+02 -9.786897E+03  1.804012E+04  7.539629E+03  4.070234E+03
       358   5 -6.528258E+05  1.081037E+03 -1.667012E+04  7.477524E+03  1.599971E+04  5.742370E+03
       358   6 -6.548650E+05 -9.765143E+03 -3.191217E+04  1.807319E+04  2.446126E+04  7.007707E+03
       358   7 -5.462694E+05  2.751360E+04  1.567427E+04  1.990588E+04  8.737337E+03  4.074130E+03
       358   8 -5.079016E+05  3.685000E+04  1.718253E+04  7.014889E+03  1.693582E+04  5.745251E+03
       358   9 -4.735564E+05  3.498198E+04  1.051519E+04  1.528174E+04  2.513627E+04  7.009557E+03
       358  10 -7.634334E+05 -2.616266E+04 -3.524897E+04  1.617465E+04  3.445361E-09  7.088891E-09
       358  11 -7.977309E+05 -3.468951E+04 -5.052468E+04  7.939965E+03  4.953367E-09  5.688267E-09
       358  12 -8.361439E+05 -5.451477E+04 -7.434292E+04  2.086366E+04  4.446883E-09  6.080463E-09
       358  13 -6.548569E+05  6.758621E+02 -9.787035E+03  1.804009E+04  1.695895E-09  4.823577E-09
       358  14 -6.528261E+05  1.080932E+03 -1.667066E+04  7.477450E+03 -1.136406E-09  6.153121E-09
       358  15 -6.548657E+05 -9.765356E+03 -3.191338E+04  1.807305E+04  1.748031E-09 -2.184820E-09
       358  16 -5.462695E+05  2.751356E+04  1.567410E+04  1.990586E+04 -3.285408E-09  2.438170E-09
       358  17 -5.079019E+05  3.684989E+04  1.718193E+04  7.014811E+03 -3.223005E-09 -1.667453E-09
       358  18 -4.735571E+05  3.498176E+04  1.051391E+04  1.528159E+04 -4.949936E-09 -7.808604E-09
       358  19 -7.634334E+05 -2.616263E+04 -3.524886E+04  1.617467E+04 -6.342130E+03 -4.066344E+03
       358  20 -7.977307E+05 -3.468942E+04 -5.052419E+04  7.940035E+03 -1.506380E+04 -5.739488E+03
       358  21 -8.361433E+05 -5.451457E+04 -7.434176E+04  2.086380E+04 -2.378644E+04 -7.005851E+03
       358  22 -6.548568E+05  6.758951E+02 -9.786897E+03  1.804012E+04 -7.539629E+03 -4.070234E+03
       358  23 -6.528258E+05  1.081037E+03 -1.667012E+04  7.477524E+03 -1.599971E+04 -5.742370E+03
       358  24 -6.548650E+05 -9.765143E+03 -3.191217E+04  1.807319E+04 -2.446126E+04 -7.007707E+03
       358  25 -5.462694E+05  2.751360E+04  1.567427E+04  1.990588E+04 -8.737337E+03 -4.074130E+03
       358  26 -5.079016E+05  3.685000E+04  1.718253E+04  7.014889E+03 -1.693582E+04 -5.745251E+03
       358  27 -4.735564E+05  3.498198E+04  1.051519E+04  1.528174E+04 -2.513627E+04 -7.009557E+03
       359   1 -8.814629E+05 -4.766337E+04 -9.057204E+04  3.960488E+02  2.746324E+04  8.915560E+03
       359   2 -8.983671E+05 -5.176626E+04 -1.242749E+05  2.086098E+04  6.680596E+04  9.879490E+03
       359   3 -9.539387E+05 -1.895329E+05 -2.170558E+05  6.227083E+04  1.061679E+05  3.551554E+03
       359   4 -6.623633E+05  6.546189E+03 -3.944761E+04  1.789804E+04  3.037696E+04  8.925085E+03
       359   5 -6.434678E+05  1.109673E+04 -6.459685E+04  7.603742E+03  6.501008E+04  9.872420E+03
       359   6 -6.624065E+05 -1.171713E+05 -1.455343E+05  1.825620E+04  9.966494E+04  3.525311E+03
       359   7 -4.432188E+05  6.075347E+04  1.167375E+04  3.540622E+04  3.329170E+04  8.934773E+03
       359   8 -3.885082E+05  7.395579E+04 -4.923149E+03 -5.659026E+03  6.321347E+04  9.865429E+03
       359   9 -3.707924E+05 -4.480868E+04 -7.401776E+04 -2.577920E+04  9.315896E+04  3.499999E+03
       359  10 -8.814638E+05 -4.766366E+04 -9.057361E+04  3.958516E+02 -1.266570E-09  4.662241E-09
       359  11 -8.983719E+05 -5.176757E+04 -1.242835E+05  2.086045E+04  2.265453E-09  7.986065E-10
       359  12 -9.539508E+05 -1.895359E+05 -2.170770E+05  6.227053E+04  1.673286E-09 -3.819733E-10
       359  13 -6.623644E+05  6.545855E+03 -3.944950E+04  1.789782E+04  6.369874E-10  6.716052E-09
       359  14 -6.434724E+05  1.109549E+04 -6.460499E+04  7.603225E+03  1.029244E-09 -6.641739E-09
       359  15 -6.624172E+05 -1.171740E+05 -1.455530E+05  1.825592E+04 -1.137614E-10  3.569761E-09
       359  16 -4.432200E+05  6.075309E+04  1.167151E+04  3.540598E+04 -4.171908E-10  1.399376E-09
       359  17 -3.885125E+05  7.395462E+04 -4.930846E+03 -5.659529E+03 -1.546972E-09  3.431595E-09
       359  18 -3.708017E+05 -4.481102E+04 -7.403410E+04 -2.577947E+04 -2.261192E-09 -4.431499E-10
       359  19 -8.814629E+05 -4.766337E+04 -9.057204E+04  3.960488E+02 -2.746324E+04 -8.915560E+03
       359  20 -8.983671E+05 -5.176626E+04 -1.242749E+05  2.086098E+04 -6.680596E+04 -9.879490E+03
       359  21 -9.539387E+05 -1.895329E+05 -2.170558E+05  6.227083E+04 -1.061679E+05 -3.551554E+03
       359  22 -6.623633E+05  6.546189E+03 -3.944761E+04  1.789804E+04 -3.037696E+04 -8.925085E+03
       359  23 -6.434678E+05  1.109673E+04 -6.459685E+04  7.603742E+03 -6.501008E+04 -9.872420E+03
       359  24 -6.624065E+05 -1.171713E+05 -1.455343E+05  1.825620E+04 -9.966494E+04 -3.525311E+03
       359  25 -4.432188E+05  6.075347E+04  1.167375E+04  3.540622E+04 -3.329170E+04 -8.934773E+03
       359  26 -3.885082E+05  7.395579E+04 -4.923149E+03 -5.659026E+03 -6.321347E+04 -9.865429E+03
       359  27 -3.707924E+05 -4.480868E+04 -7.401776E+04 -2.577920E+04 -9.315896E+04 -3.499999E+03
       360   1  5.962568E+05  3.036019E+06  6.432898E+05 -2.884979E+05  1.529315E+04  2.060389E+05
       360   2  2.677823E+05  2.635432E+06  3.983487E+05 -1.270042E+05  4.358953E+04  1.129053E+05
       360   3  1.898334E+05  2.309309E+06  2.764113E+05 -1.748355E+05  3.175612E+04  1.973507E+04
       360   4  2.145290E+05  1.501397E+06  2.672169E+05 -2.038380E+05  1.538741E+04  1.744691E+05
       360   5 -2.021318E+04  1.466584E+06  1.253131E+05 -9.942425E+04  4.361305E+04  1.075819E+05
       360   6 -8.703717E+03  1.501756E+06  8.843412E+04 -2.043234E+05  3.169249E+04  4.060191E+04
       360   7 -1.673463E+05 -3.107326E+04 -1.090211E+05 -1.193854E+05  1.547325E+04  1.429764E+05
       360   8 -3.083026E+05  2.989923E+05 -1.478147E+05 -7.189545E+04  4.363614E+04  1.022684E+05
       360   9 -2.072831E+05  6.948059E+05 -9.958494E+04 -2.337723E+05  3.162684E+04  6.144185E+04
       360  10  5.962452E+05  3.035974E+06  6.432100E+05 -2.885005E+05  6.168423E-10  2.679914E-10
       360  11  2.677769E+05  2.635418E+06  3.983213E+05 -1.270082E+05 -4.836829E-11 -7.994405E-09
       360  12  1.898322E+05  2.309308E+06  2.764087E+05 -1.748360E+05  4.844908E-10  1.638130E-09
       360  13  2.145206E+05  1.501364E+06  2.671593E+05 -2.038401E+05  9.071427E-10 -2.326747E-09
       360  14 -2.021832E+04  1.466571E+06  1.252878E+05 -9.942802E+04 -1.728508E-09 -1.798922E-09
       360  15 -8.705239E+03  1.501754E+06  8.842914E+04 -2.043245E+05  6.393774E-10 -2.316433E-09
       360  16 -1.673521E+05 -3.109528E+04 -1.090600E+05 -1.193872E+05  1.207282E-09 -9.348521E-10
       360  17 -3.083075E+05  2.989806E+05 -1.478380E+05 -7.189904E+04  2.401240E-09  5.859072E-10
       360  18 -2.072852E+05  6.948016E+05 -9.959391E+04 -2.337739E+05 -1.275027E-09  1.460832E-09
       360  19  5.962568E+05  3.036019E+06  6.432898E+05 -2.884979E+05 -1.529315E+04 -2.060389E+05
       360  20  2.677823E+05  2.635432E+06  3.983487E+05 -1.270042E+05 -4.358953E+04 -1.129053E+05
       360  21  1.898334E+05  2.309309E+06  2.764113E+05 -1.748355E+05 -3.175612E+04 -1.973507E+04
       360  22  2.145290E+05  1.501397E+06  2.672169E+05 -2.038380E+05 -1.538741E+04 -1.744691E+05
       360  23 -2.021318E+04  1.466584E+06  1.253131E+05 -9.942425E+04 -4.361305E+04 -1.075819E+05
       360  24 -8.703717E+03  1.501756E+06  8.843412E+04 -2.043234E+05 -3.169249E+04 -4.060191E+04
       360  25 -1.673463E+05 -3.107326E+04 -1.090211E+05 -1.193854E+05 -1.547325E+04 -1.429764E+05
       360  26 -3.083026E+05  2.989923E+05 -1.478147E+05 -7.189545E+04 -4.363614E+04 -1.022684E+05
       360  27 -2.072831E+05  6.948059E+05 -9.958494E+04 -2.337723E+05 -3.162684E+04 -6.144185E+04
       361   1  1.237726E+05  1.919327E+06  1.802225E+05 -2.148067E+05  1.665784E+04  1.731592E+04
       361   2  1.337794E+04  1.551268E+06  8.485121E+04 -9.926243E+04  2.768211E+03 -1.778328E+04
       361   3 -4.834129E+04  1.198492E+06  2.409751E+04 -1.929260E+05 -1.129432E+04 -5.286508E+04
       361   4  1.788949E+04  1.489656E+06  8.005169E+04 -2.041359E+05  1.662905E+04  2.634475E+04
       361   5 -3.656297E+03  1.482089E+06  6.872965E+04 -9.952518E+04  2.738485E+03 -8.633546E+03
       361   6  2.346426E+04  1.489662E+06  9.195493E+04 -2.041174E+05 -1.132423E+04 -4.361431E+04
       361   7 -8.800622E+04  1.060156E+06 -2.013129E+04 -1.934724E+05  1.660057E+04  3.536738E+04
       361   8 -2.069083E+04  1.412914E+06  5.260808E+04 -9.978789E+04  2.708749E+03  5.151738E+02
       361   9  9.526431E+04  1.780911E+06  1.598070E+05 -2.153140E+05 -1.135447E+04 -3.435924E+04
       361  10  1.237722E+05  1.919326E+06  1.802215E+05 -2.148069E+05 -5.068142E-10  2.265088E-09
       361  11  1.337785E+04  1.551268E+06  8.485060E+04 -9.926239E+04  2.093785E-09 -1.030668E-08
       361  12 -4.834217E+04  1.198489E+06  2.409203E+04 -1.929265E+05  6.476092E-11  2.697669E-09
       361  13  1.788901E+04  1.489656E+06  8.004987E+04 -2.041363E+05 -4.184757E-10 -3.576756E-09
       361  14 -3.656325E+03  1.482089E+06  6.872949E+04 -9.952516E+04  2.682692E-09 -3.985949E-09
       361  15  2.346361E+04  1.489660E+06  9.195112E+04 -2.041178E+05  3.710652E-09 -2.440868E-09
       361  16 -8.800685E+04  1.060155E+06 -2.013416E+04 -1.934729E+05 -8.923455E-10 -4.032476E-09
       361  17 -2.069084E+04  1.412914E+06  5.260806E+04 -9.978789E+04 -6.223287E-10 -4.029643E-10
       361  18  9.526385E+04  1.780910E+06  1.598045E+05 -2.153143E+05 -7.309508E-10  1.131605E-09
       361  19  1.237726E+05  1.919327E+06  1.802225E+05 -2.148067E+05 -1.665784E+04 -1.731592E+04
       361  20  1.337794E+04  1.551268E+06  8.485121E+04 -9.926243E+04 -2.768211E+03  1.778328E+04
       361  21 -4.834129E+04  1.198492E+06  2.409751E+04 -1.929260E+05  1.129432E+04  5.286508E+04
       361  22  1.788949E+04  1.489656E+06  8.005169E+04 -2.041359E+05 -1.662905E+04 -2.634475E+04
       361  23 -3.656297E+03  1.482089E+06  6.872965E+04 -9.952518E+04 -2.738485E+03  8.633546E+03
       361  24  2.346426E+04  1.489662E+06  9.195493E+04 -2.041174E+05  1.132423E+04  4.361431E+04
       361  25 -8.800622E+04  1.060156E+06 -2.013129E+04 -1.934724E+05 -1.660057E+04 -3.536738E+04
       361  26 -2.069083E+04  1.412914E+06  5.260808E+04 -9.978789E+04 -2.708749E+03 -5.151738E+02
       361  27  9.526431E+04  1.780911E+06  1.598070E+05 -2.153140E+05  1.135447E+04  3.435924E+04
       362   1 -1.768368E+05  8.377396E+05 -5.018776E+04 -2.429736E+05 -2.590967E+04 -8.023274E+04
       362   2 -2.797457E+05  4.326843E+05 -8.274808E+04 -6.477717E+04 -3.821144E+04 -1.406970E+05
       362   3 -7.041998E+04  1.132174E+05  2.008698E+03 -9.558296E+04 -1.364813E+04 -2.010298E+05
       362   4 -1.247824E+04  1.506118E+06  1.055816E+05 -2.042994E+05 -2.597769E+04 -6.024368E+04
       362   5 -2.590182E+04  1.461220E+06  1.578766E+05 -9.948448E+04 -3.818891E+04 -1.447415E+05
       362   6  2.767707E+05  1.505741E+06  3.439904E+05 -2.036133E+05 -1.354787E+04 -2.291452E+05
       362   7  1.518548E+05  2.174912E+06  2.613231E+05 -1.655831E+05 -2.604319E+04 -4.023325E+04
       362   8  2.278714E+05  2.490730E+06  3.984300E+05 -1.342489E+05 -3.816595E+04 -1.487925E+05
       362   9  6.238609E+05  2.900052E+06  6.858387E+05 -3.118850E+05 -1.343799E+04 -2.573231E+05
       362  10 -1.768392E+05  8.377325E+05 -5.020110E+04 -2.429753E+05  8.278150E-10  5.815846E-10
       362  11 -2.797525E+05  4.326627E+05 -8.278800E+04 -6.478150E+04 -1.553706E-11 -8.754913E-09
       362  12 -7.043102E+04  1.131740E+05  1.932418E+03 -9.558517E+04 -6.932825E-10  4.414422E-10
       362  13 -1.247994E+04  1.506114E+06  1.055735E+05 -2.043007E+05 -1.755914E-09 -3.095596E-09
       362  14 -2.590899E+04  1.461197E+06  1.578346E+05 -9.948893E+04  9.792352E-10 -3.093510E-09
       362  15  2.767564E+05  1.505684E+06  3.438917E+05 -2.036158E+05 -5.758125E-10 -8.463673E-10
       362  16  1.518536E+05  2.174910E+06  2.613188E+05 -1.655839E+05  2.817812E-10 -2.698682E-09
       362  17  2.278639E+05  2.490706E+06  3.983858E+05 -1.342535E+05  8.271877E-10  1.133331E-10
       362  18  6.238430E+05  2.899981E+06  6.857145E+05 -3.118877E+05 -5.480722E-10  2.125466E-09
       362  19 -1.768368E+05  8.377396E+05 -5.018776E+04 -2.429736E+05  2.590967E+04  8.023274E+04
       362  20 -2.797457E+05  4.326843E+05 -8.274808E+04 -6.477717E+04  3.821144E+04  1.406970E+05
       362  21 -7.041998E+04  1.132174E+05  2.008698E+03 -9.558296E+04  1.364813E+04  2.010298E+05
       362  22 -1.247824E+04  1.506118E+06  1.055816E+05 -2.042994E+05  2.597769E+04  6.024368E+04
       362  23 -2.590182E+04  1.461220E+06  1.578766E+05 -9.948448E+04  3.818891E+04  1.447415E+05
       362  24  2.767707E+05  1.505741E+06  3.439904E+05 -2.036133E+05  1.354787E+04  2.291452E+05
       362  25  1.518548E+05  2.174912E+06  2.613231E+05 -1.655831E+05  2.604319E+04  4.023325E+04
       362  26  2.278714E+05  2.490730E+06  3.984300E+05 -1.342489E+05  3.816595E+04  1.487925E+05
       362  27  6.238609E+05  2.900052E+06  6.858387E+05 -3.118850E+05  1.343799E+04  2.573231E+05
       363   1  3.302501E+05  1.046350E+05  5.320224E+04  9.380435E+04 -3.726039E+04 -2.090355E+04
       363   2  3.113413E+05  1.586489E+05  8.462747E+04  6.902775E+04 -2.198383E+04 -2.928913E+04
       363   3  2.515475E+05  1.601992E+05  8.982295E+04  7.840515E+04 -1.154413E+04 -2.484432E+04
       363   4 -1.783069E+05 -6.616261E+04 -8.005542E+04 -2.343219E+04 -4.864016E+04 -2.519419E+04
       363   5 -1.528364E+05 -9.315465E+03 -3.383325E+04 -5.175522E+04 -2.558853E+04 -3.065011E+04
       363   6 -1.698143E+05 -6.502230E+03 -2.002023E+04 -4.591774E+04 -7.374314E+03 -2.327128E+04
       363   7 -6.866089E+05 -2.369551E+05 -2.133321E+05 -1.405867E+05 -6.000951E+04 -2.948188E+04
       363   8 -6.168016E+05 -1.772688E+05 -1.523105E+05 -1.724575E+05 -2.919023E+04 -3.201006E+04
       363   9 -5.910023E+05 -1.731867E+05 -1.298782E+05 -1.701623E+05 -3.207595E+03 -2.169956E+04
       363  10  3.302485E+05  1.046341E+05  5.319881E+04  9.380372E+04  1.512605E-10 -2.428522E-09
       363  11  3.113405E+05  1.586479E+05  8.462495E+04  6.902723E+04  7.767399E-10 -5.767318E-09
       363  12  2.515472E+05  1.601985E+05  8.982154E+04  7.840492E+04  3.979994E-09 -3.771406E-09
       363  13 -1.783096E+05 -6.616392E+04 -8.006106E+04 -2.343318E+04  1.320835E-09  1.745824E-09
       363  14 -1.528373E+05 -9.316650E+03 -3.383625E+04 -5.175585E+04  2.008459E-10 -4.562163E-09
       363  15 -1.698145E+05 -6.502826E+03 -2.002135E+04 -4.591788E+04  5.425763E-10 -2.783517E-09
       363  16 -6.866130E+05 -2.369570E+05 -2.133405E+05 -1.405881E+05 -1.083136E-09  2.274951E-09
       363  17 -6.168028E+05 -1.772701E+05 -1.523140E+05 -1.724582E+05  1.759270E-10 -5.666496E-10
       363  18 -5.910025E+05 -1.731872E+05 -1.298791E+05 -1.701623E+05  9.519367E-10  4.031380E-10
       363  19  3.302501E+05  1.046350E+05  5.320224E+04  9.380435E+04  3.726039E+04  2.090355E+04
       363  20  3.113413E+05  1.586489E+05  8.462747E+04  6.902775E+04  2.198383E+04  2.928913E+04
       363  21  2.515475E+05  1.601992E+05  8.982295E+04  7.840515E+04  1.154413E+04  2.484432E+04
       363  22 -1.783069E+05 -6.616261E+04 -8.005542E+04 -2.343219E+04  4.864016E+04  2.519419E+04
       363  23 -1.528364E+05 -9.315465E+03 -3.383325E+04 -5.175522E+04  2.558853E+04  3.065011E+04
       363  24 -1.698143E+05 -6.502230E+03 -2.002023E+04 -4.591774E+04  7.374314E+03  2.327128E+04
       363  25 -6.866089E+05 -2.369551E+05 -2.133321E+05 -1.405867E+05  6.000951E+04  2.948188E+04
       363  26 -6.168016E+05 -1.772688E+05 -1.523105E+05 -1.724575E+05  2.919023E+04  3.201006E+04
       363  27 -5.910023E+05 -1.731867E+05 -1.298782E+05 -1.701623E+05  3.207595E+03  2.169956E+04
       364   1  2.248522E+05  1.317843E+05  8.480916E+04  6.468089E+04 -5.856520E+03 -1.970796E+04
       364   2  2.002744E+05  1.187475E+05  8.429492E+04  4.654939E+04 -2.511044E+03 -1.756982E+04
       364   3  1.581701E+05  1.143927E+05  7.942105E+04  4.678934E+04  5.415301E+02 -1.465962E+04
       364   4 -1.673408E+05 -1.403428E+04 -1.615891E+04 -4.133366E+04 -5.620535E+03 -1.961972E+04
       364   5 -1.581424E+05 -1.563197E+04 -7.964051E+03 -5.153665E+04 -1.808834E+03 -1.730526E+04
       364   6 -1.665656E+05 -8.641995E+03 -4.500573E+03 -4.336758E+04  1.710100E+03 -1.421844E+04
       364   7 -5.593859E+05 -1.598443E+05 -1.171400E+05 -1.472885E+05 -5.384711E+03 -1.953155E+04
       364   8 -5.164350E+05 -1.500036E+05 -1.002338E+05 -1.495718E+05 -1.107065E+03 -1.704087E+04
       364   9 -4.911989E+05 -1.316695E+05 -8.843097E+04 -1.334818E+05  2.878000E+03 -1.377752E+04
       364  10  2.248521E+05  1.317838E+05  8.480836E+04  6.468079E+04  4.217742E-09 -1.531417E-09
       364  11  2.002743E+05  1.187472E+05  8.429433E+04  4.654935E+04 -1.807516E-09 -5.368007E-09
       364  12  1.581701E+05  1.143924E+05  7.942064E+04  4.678935E+04 -4.974653E-09 -6.254437E-09
       364  13 -1.673410E+05 -1.403470E+04 -1.615969E+04 -4.133375E+04  2.000811E-09 -3.268304E-09
       364  14 -1.581425E+05 -1.563229E+04 -7.964620E+03 -5.153667E+04 -4.340966E-09 -5.972868E-09
       364  15 -1.665657E+05 -8.642213E+03 -4.500959E+03 -4.336756E+04 -2.044837E-09 -2.946534E-09
       364  16 -5.593860E+05 -1.598448E+05 -1.171408E+05 -1.472886E+05 -3.197264E-09 -2.292221E-09
       364  17 -5.164350E+05 -1.500039E+05 -1.002344E+05 -1.495718E+05 -9.602771E-10 -5.340179E-09
       364  18 -4.911989E+05 -1.316697E+05 -8.843134E+04 -1.334817E+05  4.092314E-09 -2.389951E-09
       364  19  2.248522E+05  1.317843E+05  8.480916E+04  6.468089E+04  5.856520E+03  1.970796E+04
       364  20  2.002744E+05  1.187475E+05  8.429492E+04  4.654939E+04  2.511044E+03  1.756982E+04
       364  21  1.581701E+05  1.143927E+05  7.942105E+04  4.678934E+04 -5.415301E+02  1.465962E+04
       364  22 -1.673408E+05 -1.403428E+04 -1.615891E+04 -4.133366E+04  5.620535E+03  1.961972E+04
       364  23 -1.581424E+05 -1.563197E+04 -7.964051E+03 -5.153665E+04  1.808834E+03  1.730526E+04
       364  24 -1.665656E+05 -8.641995E+03 -4.500573E+03 -4.336758E+04 -1.710100E+03  1.421844E+04
       364  25 -5.593859E+05 -1.598443E+05 -1.171400E+05 -1.472885E+05  5.384711E+03  1.953155E+04
       364  26 -5.164350E+05 -1.500036E+05 -1.002338E+05 -1.495718E+05  1.107065E+03  1.704087E+04
       364  27 -4.911989E+05 -1.316695E+05 -8.843097E+04 -1.334818E+05 -2.878000E+03  1.377752E+04
       365   1  1.225583E+05  9.931773E+04  7.083800E+04  3.646260E+04  1.022625E+03 -1.329187E+04
       365   2  9.719337E+04  8.008190E+04  6.410034E+04  1.886779E+04  1.324480E+03 -1.139262E+04
       365   3  5.660464E+04  7.523266E+04  5.655918E+04  1.833174E+04  1.607075E+03 -9.445032E+03
       365   4 -1.663051E+05 -9.291501E+03 -3.475101E+03 -4.292499E+04  1.956656E+03 -1.293915E+04
       365   5 -1.586517E+05 -1.623491E+04 -1.828128E+03 -5.154696E+04  2.287508E+03 -1.102868E+04
       365   6 -1.662297E+05 -8.797145E+03 -1.007975E+03 -4.310988E+04  2.599148E+03 -9.069838E+03
       365   7 -4.550863E+05 -1.178949E+05 -7.779480E+04 -1.222789E+05  2.890208E+03 -1.258662E+04
       365   8 -4.144331E+05 -1.125475E+05 -6.776201E+04 -1.219355E+05  3.250101E+03 -1.066491E+04
       365   9 -3.890164E+05 -9.282398E+04 -5.857947E+04 -1.045318E+05  3.590833E+03 -8.694791E+03
       365  10  1.225583E+05  9.931754E+04  7.083766E+04  3.646261E+04 -5.180402E-09  6.276635E-10
       365  11  9.719334E+04  8.008176E+04  6.410010E+04  1.886780E+04 -2.981181E-10  1.100765E-08
       365  12  5.660461E+04  7.523256E+04  5.655901E+04  1.833175E+04  3.272643E-09  7.267064E-09
       365  13 -1.663052E+05 -9.291682E+03 -3.475423E+03 -4.292497E+04  3.092515E-09  1.685510E-09
       365  14 -1.586517E+05 -1.623504E+04 -1.828367E+03 -5.154694E+04  4.495741E-09  3.462033E-09
       365  15 -1.662297E+05 -8.797236E+03 -1.008142E+03 -4.310986E+04 -9.349456E-10  1.463440E-09
       365  16 -4.550864E+05 -1.178951E+05 -7.779511E+04 -1.222789E+05  9.073382E-09  3.573971E-09
       365  17 -4.144331E+05 -1.125476E+05 -6.776224E+04 -1.219355E+05  3.987374E-09 -7.895964E-10
       365  18 -3.890165E+05 -9.282407E+04 -5.857963E+04 -1.045318E+05 -1.001622E-09 -1.168094E-10
       365  19  1.225583E+05  9.931773E+04  7.083800E+04  3.646260E+04 -1.022625E+03  1.329187E+04
       365  20  9.719337E+04  8.008190E+04  6.410034E+04  1.886779E+04 -1.324480E+03  1.139262E+04
       365  21  5.660464E+04  7.523266E+04  5.655918E+04  1.833174E+04 -1.607075E+03  9.445032E+03
       365  22 -1.663051E+05 -9.291501E+03 -3.475101E+03 -4.292499E+04 -1.956656E+03  1.293915E+04
       365  23 -1.586517E+05 -1.623491E+04 -1.828128E+03 -5.154696E+04 -2.287508E+03  1.102868E+04
       365  24 -1.662297E+05 -8.797145E+03 -1.007975E+03 -4.310988E+04 -2.599148E+03  9.069838E+03
       365  25 -4.550863E+05 -1.178949E+05 -7.779480E+04 -1.222789E+05 -2.890208E+03  1.258662E+04
       365  26 -4.144331E+05 -1.125475E+05 -6.776201E+04 -1.219355E+05 -3.250101E+03  1.066491E+04
       365  27 -3.890164E+05 -9.282398E+04 -5.857947E+04 -1.045318E+05 -3.590833E+03  8.694791E+03
       366   1  2.002084E+04  6.128681E+04  4.711488E+04  8.245324E+03  1.406792E+03 -8.438406E+03
       366   2 -5.496981E+03  4.142123E+04  3.908361E+04 -9.357950E+03  9.938061E+02 -6.748363E+03
       366   3 -4.605328E+04  3.651499E+04  3.089494E+04 -9.968752E+03  5.787536E+02 -5.054326E+03
       366   4 -1.662082E+05 -8.842550E+03 -7.618118E+02 -4.305731E+04  2.385619E+03 -8.068083E+03
       366   5 -1.586829E+05 -1.629498E+04 -4.014317E+02 -5.156307E+04  1.975027E+03 -6.376979E+03
       366   6 -1.661980E+05 -8.788566E+03 -2.004402E+02 -4.307667E+04  1.562378E+03 -4.681873E+03
       366   7 -3.524035E+05 -7.896962E+04 -4.864135E+04 -9.434602E+04  3.364124E+03 -7.697882E+03
       366   8 -3.118457E+05 -7.400954E+04 -3.988834E+04 -9.375870E+04  2.955980E+03 -6.005696E+03
       366   9 -2.863283E+05 -5.409102E+04 -3.129690E+04 -7.617867E+04  2.545790E+03 -4.309500E+03
       366  10  2.002082E+04  6.128673E+04  4.711474E+04  8.245334E+03  3.166196E-11  6.901815E-10
       366  11 -5.496994E+03  4.142118E+04  3.908353E+04 -9.357945E+03 -7.042059E-10 -3.606558E-09
       366  12 -4.605328E+04  3.651496E+04  3.089489E+04 -9.968750E+03  2.045459E-09 -9.000960E-09
       366  13 -1.662083E+05 -8.842621E+03 -7.619448E+02 -4.305729E+04  2.235126E-10 -5.922669E-10
       366  14 -1.586829E+05 -1.629502E+04 -4.015154E+02 -5.156306E+04  2.982405E-09 -1.120547E-09
       366  15 -1.661980E+05 -8.788590E+03 -2.004860E+02 -4.307666E+04  6.581285E-10 -2.725460E-09
       366  16 -3.524035E+05 -7.896968E+04 -4.864148E+04 -9.434600E+04  2.297421E-09  1.202078E-09
       366  17 -3.118457E+05 -7.400958E+04 -3.988842E+04 -9.375868E+04 -3.004396E-10 -1.354471E-09
       366  18 -2.863283E+05 -5.409104E+04 -3.129695E+04 -7.617867E+04 -1.473858E-09 -5.825617E-10
       366  19  2.002084E+04  6.128681E+04  4.711488E+04  8.245324E+03 -1.406792E+03  8.438406E+03
       366  20 -5.496981E+03  4.142123E+04  3.908361E+04 -9.357950E+03 -9.938061E+02  6.748363E+03
       366  21 -4.605328E+04  3.651499E+04  3.089494E+04 -9.968752E+03 -5.787536E+02  5.054326E+03
       366  22 -1.662082E+05 -8.842550E+03 -7.618118E+02 -4.305731E+04 -2.385619E+03  8.068083E+03
       366  23 -1.586829E+05 -1.629498E+04 -4.014317E+02 -5.156307E+04 -1.975027E+03  6.376979E+03
       366  24 -1.661980E+05 -8.788566E+03 -2.004402E+02 -4.307667E+04 -1.562378E+03  4.681873E+03
       366  25 -3.524035E+05 -7.896962E+04 -4.864135E+04 -9.434602E+04 -3.364124E+03  7.697882E+03
       366  26 -3.118457E+05 -7.400954E+04 -3.988834E+04 -9.375870E+04 -2.955980E+03  6.005696E+03
       366  27 -2.863283E+05 -5.409102E+04 -3.129690E+04 -7.617867E+04 -2.545790E+03  4.309500E+03
       367   1 -8.279516E+04  2.262514E+04  2.124198E+04 -2.006892E+04  2.488986E+02 -4.100124E+03
       367   2 -1.083553E+05  2.663970E+03  1.294618E+04 -3.770108E+04 -3.511361E+02 -2.473983E+03
       367   3 -1.489572E+05 -2.253554E+03  4.640442E+03 -3.832502E+04 -9.509460E+02 -8.488940E+02
       367   4 -1.661988E+05 -8.787838E+03 -1.353139E+02 -4.306525E+04  1.232562E+03 -3.727586E+03
       367   5 -1.586763E+05 -1.630300E+04 -2.660396E+01 -5.157173E+04  6.318847E+02 -2.101636E+03
       367   6 -1.661961E+05 -8.774126E+03  7.291324E+01 -4.307015E+04  3.143213E+01 -4.767345E+02
       367   7 -2.495959E+05 -4.020047E+04 -2.151325E+04 -6.605888E+04  2.216083E+03 -3.355101E+03
       367   8 -2.089950E+05 -3.526983E+04 -1.299962E+04 -6.544139E+04  1.614820E+03 -1.729321E+03
       367   9 -1.834347E+05 -1.529468E+04 -4.494638E+03 -4.781515E+04  1.013780E+03 -1.045864E+02
       367  10 -8.279516E+04  2.262512E+04  2.124195E+04 -2.006892E+04  5.006513E-09 -6.018248E-09
       367  11 -1.083553E+05  2.663964E+03  1.294617E+04 -3.770108E+04  1.628209E-12  3.064437E-09
       367  12 -1.489572E+05 -2.253555E+03  4.640439E+03 -3.832503E+04  2.089999E-09 -9.384866E-09
       367  13 -1.661988E+05 -8.787854E+03 -1.353429E+02 -4.306525E+04  1.505018E-09 -1.995316E-09
       367  14 -1.586763E+05 -1.630300E+04 -2.661301E+01 -5.157173E+04 -5.180156E-10  1.714315E-09
       367  15 -1.661961E+05 -8.774127E+03  7.291281E+01 -4.307015E+04  4.373196E-10  1.302206E-09
       367  16 -2.495959E+05 -4.020048E+04 -2.151329E+04 -6.605887E+04 -1.626137E-10  2.682010E-09
       367  17 -2.089950E+05 -3.526984E+04 -1.299963E+04 -6.544139E+04  3.126015E-09 -4.535960E-09
       367  18 -1.834347E+05 -1.529468E+04 -4.494640E+03 -4.781515E+04  7.551245E-10 -1.967049E-09
       367  19 -8.279516E+04  2.262514E+04  2.124198E+04 -2.006892E+04 -2.488986E+02  4.100124E+03
       367  20 -1.083553E+05  2.663970E+03  1.294618E+04 -3.770108E+04  3.511361E+02  2.473983E+03
       367  21 -1.489572E+05 -2.253554E+03  4.640442E+03 -3.832502E+04  9.509460E+02  8.488940E+02
       367  22 -1.661988E+05 -8.787838E+03 -1.353139E+02 -4.306525E+04 -1.232562E+03  3.727586E+03
       367  23 -1.586763E+05 -1.630300E+04 -2.660396E+01 -5.157173E+04 -6.318847E+02  2.101636E+03
       367  24 -1.661961E+05 -8.774126E+03  7.291324E+01 -4.307015E+04 -3.143213E+01  4.767345E+02
       367  25 -2.495959E+05 -4.020047E+04 -2.151325E+04 -6.605888E+04 -2.216083E+03  3.355101E+03
       367  26 -2.089950E+05 -3.526983E+04 -1.299962E+04 -6.544139E+04 -1.614820E+03  1.729321E+03
       367  27 -1.834347E+05 -1.529468E+04 -4.494638E+03 -4.781515E+04 -1.013780E+03  1.045864E+02
       368   1 -1.857286E+05 -1.615426E+04 -5.032105E+03 -4.842538E+04 -1.334734E+03  8.943298E+01
       368   2 -2.112986E+05 -3.614020E+04 -1.328964E+04 -6.606907E+04 -2.068797E+03  1.662994E+03
       368   3 -2.518571E+05 -4.099743E+04 -2.143340E+04 -6.672166E+04 -2.791904E+03  3.208231E+03
       368   4 -1.661876E+05 -8.783003E+03  1.258595E+02 -4.306326E+04 -3.439180E+02  4.647871E+02
       368   5 -1.586901E+05 -1.631386E+04  2.733656E+02 -5.157204E+04 -1.095223E+03  2.031758E+03
       368   6 -1.661785E+05 -8.712774E+03  5.484129E+02 -4.309028E+04 -1.835584E+03  3.570410E+03
       368   7 -1.466463E+05 -1.411751E+03  5.283777E+03 -3.770102E+04  6.469288E+02  8.401528E+02
       368   8 -1.060789E+05  3.512670E+03  1.383615E+04 -3.707390E+04 -1.215592E+02  2.400556E+03
       368   9 -8.049240E+04  2.357248E+04  2.252971E+04 -1.945588E+04 -8.791154E+02  3.932646E+03
       368  10 -1.857286E+05 -1.615426E+04 -5.032108E+03 -4.842538E+04 -4.624093E-09 -2.959538E-09
       368  11 -2.112986E+05 -3.614020E+04 -1.328966E+04 -6.606907E+04 -5.353150E-09  4.761909E-09
       368  12 -2.518571E+05 -4.099744E+04 -2.143343E+04 -6.672165E+04  8.372072E-10  1.078099E-08
       368  13 -1.661876E+05 -8.783004E+03  1.258589E+02 -4.306326E+04  6.403836E-10 -1.672185E-09
       368  14 -1.586901E+05 -1.631386E+04  2.733556E+02 -5.157204E+04 -2.937643E-09 -1.560432E-09
       368  15 -1.661785E+05 -8.712789E+03  5.483826E+02 -4.309028E+04 -2.986128E-09  5.900299E-09
       368  16 -1.466463E+05 -1.411752E+03  5.283774E+03 -3.770102E+04  4.558782E-09  2.183298E-09
       368  17 -1.060789E+05  3.512664E+03  1.383614E+04 -3.707390E+04  1.525805E-09 -7.170301E-10
       368  18 -8.049241E+04  2.357247E+04  2.252968E+04 -1.945587E+04 -2.743578E-09  6.777593E-10
       368  19 -1.857286E+05 -1.615426E+04 -5.032105E+03 -4.842538E+04  1.334734E+03 -8.943298E+01
       368  20 -2.112986E+05 -3.614020E+04 -1.328964E+04 -6.606907E+04  2.068797E+03 -1.662994E+03
       368  21 -2.518571E+05 -4.099743E+04 -2.143340E+04 -6.672166E+04  2.791904E+03 -3.208231E+03
       368  22 -1.661876E+05 -8.783003E+03  1.258595E+02 -4.306326E+04  3.439180E+02 -4.647871E+02
       368  23 -1.586901E+05 -1.631386E+04  2.733656E+02 -5.157204E+04  1.095223E+03 -2.031758E+03
       368  24 -1.661785E+05 -8.712774E+03  5.484129E+02 -4.309028E+04  1.835584E+03 -3.570410E+03
       368  25 -1.466463E+05 -1.411751E+03  5.283777E+03 -3.770102E+04 -6.469288E+02 -8.401528E+02
       368  26 -1.060789E+05  3.512670E+03  1.383615E+04 -3.707390E+04  1.215592E+02 -2.400556E+03
       368  27 -8.049240E+04  2.357248E+04  2.252971E+04 -1.945588E+04  8.791154E+02 -3.932646E+03
       369   1 -2.886462E+05 -5.488693E+04 -3.095564E+04 -7.664803E+04 -3.416336E+03  4.120322E+03
       369   2 -3.141936E+05 -7.502644E+04 -3.880333E+04 -9.443178E+04 -4.386914E+03  5.557090E+03
       369   3 -3.543063E+05 -7.920495E+04 -4.610564E+04 -9.547705E+04 -5.180226E+03  6.527150E+03
       369   4 -1.661192E+05 -8.825836E+03  7.188269E+02 -4.303013E+04 -2.317765E+03  4.536305E+03
       369   5 -1.588045E+05 -1.641021E+04  1.274056E+03 -5.155997E+04 -3.571635E+03  5.865635E+03
       369   6 -1.659999E+05 -7.977949E+03  2.599299E+03 -4.335209E+04 -4.648280E+03  6.728312E+03
       369   7 -4.357767E+04  3.723621E+04  3.239205E+04 -9.406254E+03 -1.218956E+03  4.952377E+03
       369   8 -3.392134E+03  4.220750E+04  4.134937E+04 -8.678544E+03 -2.756133E+03  6.174266E+03
       369   9  2.234029E+04  6.325118E+04  5.130110E+04  8.787010E+03 -4.116159E+03  6.929542E+03
       369  10 -2.886462E+05 -5.488695E+04 -3.095569E+04 -7.664802E+04  7.764909E-09  6.721467E-09
       369  11 -3.141937E+05 -7.502648E+04 -3.880342E+04 -9.443176E+04  2.006908E-09  1.067136E-08
       369  12 -3.543063E+05 -7.920501E+04 -4.610577E+04 -9.547702E+04 -3.649542E-09 -4.767087E-09
       369  13 -1.661192E+05 -8.825859E+03  7.187781E+02 -4.303013E+04 -1.151730E-09  3.421387E-09
       369  14 -1.588045E+05 -1.641025E+04  1.273967E+03 -5.155996E+04 -1.591405E-10 -1.603829E-08
       369  15 -1.659999E+05 -7.978003E+03  2.599173E+03 -4.335206E+04  1.044117E-09  1.498820E-09
       369  16 -4.357768E+04  3.723618E+04  3.239200E+04 -9.406249E+03 -4.140980E-09 -1.649867E-09
       369  17 -3.392152E+03  4.220746E+04  4.134928E+04 -8.678531E+03  1.399779E-09  7.925508E-09
       369  18  2.234026E+04  6.325112E+04  5.130098E+04  8.787033E+03  6.966546E-09  5.870602E-10
       369  19 -2.886462E+05 -5.488693E+04 -3.095564E+04 -7.664803E+04  3.416336E+03 -4.120322E+03
       369  20 -3.141936E+05 -7.502644E+04 -3.880333E+04 -9.443178E+04  4.386914E+03 -5.557090E+03
       369  21 -3.543063E+05 -7.920495E+04 -4.610564E+04 -9.547705E+04  5.180226E+03 -6.527150E+03
       369  22 -1.661192E+05 -8.825836E+03  7.188269E+02 -4.303013E+04  2.317765E+03 -4.536305E+03
       369  23 -1.588045E+05 -1.641021E+04  1.274056E+03 -5.155997E+04  3.571635E+03 -5.865635E+03
       369  24 -1.659999E+05 -7.977949E+03  2.599299E+03 -4.335209E+04  4.648280E+03 -6.728312E+03
       369  25 -4.357767E+04  3.723621E+04  3.239205E+04 -9.406254E+03  1.218956E+03 -4.952377E+03
       369  26 -3.392134E+03  4.220750E+04  4.134937E+04 -8.678544E+03  2.756133E+03 -6.174266E+03
       369  27  2.234029E+04  6.325118E+04  5.130110E+04  8.787010E+03  4.116159E+03 -6.929542E+03
       370   1 -3.917316E+05 -9.309368E+04 -5.473580E+04 -1.035944E+05 -8.746720E+03  7.421413E+03
       370   2 -4.168387E+05 -1.152249E+05 -6.110639E+04 -1.232399E+05 -7.333735E+03  9.007393E+03
       370   3 -4.530224E+05 -1.124694E+05 -6.597193E+04 -1.290118E+05 -2.981426E+03  2.820703E+03
       370   4 -1.655286E+05 -9.253610E+03  3.224859E+03 -4.268405E+04 -5.833253E+03  8.523751E+03
       370   5 -1.597725E+05 -1.736919E+04  5.435863E+03 -5.143455E+04 -9.134088E+03  8.325971E+03
       370   6 -1.641597E+05  3.342115E+02  1.289036E+04 -4.631119E+04 -9.496223E+03  3.571318E+02
       370   7  6.072527E+04  7.458984E+04  6.118169E+04  1.824649E+04 -2.918605E+03  9.626520E+03
       370   8  9.735780E+04  8.049107E+04  7.197255E+04  2.039779E+04 -1.093526E+04  7.644234E+03
       370   9  1.247812E+05  1.131435E+05  9.174469E+04  3.642402E+04 -1.601431E+04 -2.107775E+03
       370  10 -3.917317E+05 -9.309376E+04 -5.473605E+04 -1.035943E+05  4.285256E-09  2.963159E-09
       370  11 -4.168388E+05 -1.152250E+05 -6.110665E+04 -1.232399E+05  1.891537E-09 -9.140073E-09
       370  12 -4.530224E+05 -1.124694E+05 -6.597196E+04 -1.290118E+05  3.069902E-10 -5.749168E-09
       370  13 -1.655287E+05 -9.253697E+03  3.224658E+03 -4.268401E+04  4.094591E-10 -6.785590E-09
       370  14 -1.597726E+05 -1.736929E+04  5.435576E+03 -5.143449E+04  1.214119E-09 -3.311902E-09
       370  15 -1.641598E+05  3.341871E+02  1.289019E+04 -4.631119E+04  1.441567E-09  3.628520E-09
       370  16  6.072524E+04  7.458973E+04  6.118150E+04  1.824651E+04 -2.348676E-09  7.840879E-09
       370  17  9.735766E+04  8.049097E+04  7.197222E+04  2.039786E+04 -3.638066E-09  5.082914E-09
       370  18  1.247809E+05  1.131434E+05  9.174420E+04  3.642399E+04  1.948323E-09  1.276438E-09
       370  19 -3.917316E+05 -9.309368E+04 -5.473580E+04 -1.035944E+05  8.746720E+03 -7.421413E+03
       370  20 -4.168387E+05 -1.152249E+05 -6.110639E+04 -1.232399E+05  7.333735E+03 -9.007393E+03
       370  21 -4.530224E+05 -1.124694E+05 -6.597193E+04 -1.290118E+05  2.981426E+03 -2.820703E+03
       370  22 -1.655286E+05 -9.253610E+03  3.224859E+03 -4.268405E+04  5.833253E+03 -8.523751E+03
       370  23 -1.597725E+05 -1.736919E+04  5.435863E+03 -5.143455E+04  9.134088E+03 -8.325971E+03
       370  24 -1.641597E+05  3.342115E+02  1.289036E+04 -4.631119E+04  9.496223E+03 -3.571318E+02
       370  25  6.072527E+04  7.458984E+04  6.118169E+04  1.824649E+04  2.918605E+03 -9.626520E+03
       370  26  9.735780E+04  8.049107E+04  7.197255E+04  2.039779E+04  1.093526E+04 -7.644234E+03
       370  27  1.247812E+05  1.131435E+05  9.174469E+04  3.642402E+04  1.601431E+04  2.107775E+03
       371   1  2.941563E+04  3.792265E+04  1.608747E+04 -1.030582E+04 -5.939519E+04 -5.726858E+03
       371   2  2.963968E+03  1.179825E+05  5.867120E+04  1.893155E+02 -4.250594E+04 -1.711972E+04
       371   3 -4.886960E+04  1.054010E+05  6.712035E+04  3.309272E+04 -2.565267E+04 -1.661351E+04
       371   4 -4.568696E+05 -8.298803E+04 -1.031229E+05  2.029435E+04 -7.062589E+04 -5.762441E+03
       371   5 -4.434856E+05  7.850050E+03 -4.578642E+04  8.958986E+03 -4.604289E+04 -1.713210E+04
       371   6 -4.568419E+05  4.672590E+03 -2.794867E+04  2.003363E+04 -2.149442E+04 -1.660007E+04
       371   7 -9.429370E+05 -2.039126E+05 -2.223497E+05  5.087036E+04 -8.184780E+04 -5.799147E+03
       371   8 -8.897512E+05 -1.022962E+05 -1.502575E+05  1.772217E+04 -4.957730E+04 -1.714458E+04
       371   9 -8.646602E+05 -9.606699E+04 -1.230288E+05  6.983055E+03 -1.733888E+04 -1.658679E+04
       371  10  2.941183E+04  3.792166E+04  1.608078E+04 -1.030610E+04 -5.345502E-09  1.447009E-09
       371  11  2.961949E+03  1.179817E+05  5.866725E+04  1.887295E+02  2.187660E-09  1.121694E-08
       371  12 -4.887038E+04  1.054005E+05  6.711859E+04  3.309237E+04  7.766664E-09  6.275795E-09
       371  13 -4.568749E+05 -8.298941E+04 -1.031324E+05  2.029403E+04  1.852633E-09 -3.994981E-09
       371  14 -4.434880E+05  7.849165E+03 -4.579096E+04  8.958350E+03  2.394394E-10 -6.305588E-09
       371  15 -4.568425E+05  4.672170E+03 -2.795006E+04  2.003334E+04  4.099874E-10  3.548321E-09
       371  16 -9.429442E+05 -2.039144E+05 -2.223623E+05  5.086998E+04  5.481096E-09  2.623522E-09
       371  17 -8.897540E+05 -1.022972E+05 -1.502627E+05  1.772148E+04 -2.552190E-09  1.437760E-08
       371  18 -8.646606E+05 -9.606736E+04 -1.230299E+05  6.982824E+03 -6.597664E-09  3.338545E-09
       371  19  2.941563E+04  3.792265E+04  1.608747E+04 -1.030582E+04  5.939519E+04  5.726858E+03
       371  20  2.963968E+03  1.179825E+05  5.867120E+04  1.893155E+02  4.250594E+04  1.711972E+04
       371  21 -4.886960E+04  1.054010E+05  6.712035E+04  3.309272E+04  2.565267E+04  1.661351E+04
       371  22 -4.568696E+05 -8.298803E+04 -1.031229E+05  2.029435E+04  7.062589E+04  5.762441E+03
       371  23 -4.434856E+05  7.850050E+03 -4.578642E+04  8.958986E+03  4.604289E+04  1.713210E+04
       371  24 -4.568419E+05  4.672590E+03 -2.794867E+04  2.003363E+04  2.149442E+04  1.660007E+04
       371  25 -9.429370E+05 -2.039126E+05 -2.223497E+05  5.087036E+04  8.184780E+04  5.799147E+03
       371  26 -8.897512E+05 -1.022962E+05 -1.502575E+05  1.772217E+04  4.957730E+04  1.714458E+04
       371  27 -8.646602E+05 -9.606699E+04 -1.230288E+05  6.983055E+03  1.733888E+04  1.658679E+04
       372   1 -8.459497E+04  8.368540E+04  6.325697E+04  1.889186E+04 -1.780887E+04 -1.402625E+04
       372   2 -1.225958E+05  8.158670E+04  6.465672E+04  9.069134E+03 -1.224045E+04 -1.291258E+04
       372   3 -1.634025E+05  7.166837E+04  6.044970E+04  2.215016E+04 -6.675660E+03 -1.113501E+04
       372   4 -4.515367E+05 -6.882327E+03 -2.261035E+04  2.023850E+04 -1.730776E+04 -1.402518E+04
       372   5 -4.500902E+05  7.753611E+02 -1.181279E+04  8.773294E+03 -1.131242E+04 -1.290977E+04
       372   6 -4.515275E+05  5.366612E+02 -6.921218E+03  2.021272E+04 -5.320375E+03 -1.113033E+04
       372   7 -8.183543E+05 -9.745961E+04 -1.084868E+05  2.158423E+04 -1.680695E+04 -1.402410E+04
       372   8 -7.774856E+05 -8.004358E+04 -8.828958E+04  8.477524E+03 -1.038489E+04 -1.290696E+04
       372   9 -7.395759E+05 -7.060093E+04 -7.429777E+04  1.827612E+04 -3.965715E+03 -1.112566E+04
       372  10 -8.459537E+04  8.368510E+04  6.325601E+04  1.889166E+04 -5.578131E-09 -1.601780E-09
       372  11 -1.225960E+05  8.158648E+04  6.465613E+04  9.069007E+03 -3.375751E-09  6.408791E-09
       372  12 -1.634026E+05  7.166823E+04  6.044938E+04  2.215010E+04  1.981929E-09  1.058166E-08
       372  13 -4.515371E+05 -6.882619E+03 -2.261128E+04  2.023830E+04  2.537841E-09  1.090708E-08
       372  14 -4.500903E+05  7.751477E+02 -1.181334E+04  8.773177E+03 -2.112392E-10 -1.828645E-08
       372  15 -4.515276E+05  5.365205E+02 -6.921504E+03  2.021267E+04  8.318251E-10  9.380557E-09
       372  16 -8.183546E+05 -9.745989E+04 -1.084877E+05  2.158404E+04  6.175398E-09 -7.274721E-09
       372  17 -7.774857E+05 -8.004379E+04 -8.829009E+04  8.477416E+03  5.319777E-09 -1.188600E-09
       372  18 -7.395760E+05 -7.060107E+04 -7.429804E+04  1.827608E+04 -3.294538E-09 -2.500481E-10
       372  19 -8.459497E+04  8.368540E+04  6.325697E+04  1.889186E+04  1.780887E+04  1.402625E+04
       372  20 -1.225958E+05  8.158670E+04  6.465672E+04  9.069134E+03  1.224045E+04  1.291258E+04
       372  21 -1.634025E+05  7.166837E+04  6.044970E+04  2.215016E+04  6.675660E+03  1.113501E+04
       372  22 -4.515367E+05 -6.882327E+03 -2.261035E+04  2.023850E+04  1.730776E+04  1.402518E+04
       372  23 -4.500902E+05  7.753611E+02 -1.181279E+04  8.773294E+03  1.131242E+04  1.290977E+04
       372  24 -4.515275E+05  5.366612E+02 -6.921218E+03  2.021272E+04  5.320375E+03  1.113033E+04
       372  25 -8.183543E+05 -9.745961E+04 -1.084868E+05  2.158423E+04  1.680695E+04  1.402410E+04
       372  26 -7.774856E+05 -8.004358E+04 -8.828958E+04  8.477524E+03  1.038489E+04  1.290696E+04
       372  27 -7.395759E+05 -7.060093E+04 -7.429777E+04  1.827612E+04  3.965715E+03  1.112566E+04
       373   1 -2.042722E+05  6.044102E+04  5.213099E+04  2.087884E+04 -5.399090E+03 -9.977258E+03
       373   2 -2.437420E+05  5.122581E+04  4.533222E+04  9.326128E+03 -3.937672E+03 -8.168732E+03
       373   3 -2.837209E+05  4.150467E+04  3.741265E+04  2.088751E+04 -2.477134E+03 -6.319485E+03
       373   4 -4.509956E+05 -4.239946E+02 -5.371801E+03  2.026862E+04 -4.243150E+03 -9.973162E+03
       373   5 -4.507360E+05  1.427110E+02 -2.996745E+03  8.710135E+03 -2.755917E+03 -8.164349E+03
       373   6 -4.509910E+05  1.990599E+02 -1.760566E+03  2.026621E+04 -1.269471E+03 -6.314803E+03
       373   7 -6.976629E+05 -6.129331E+04 -6.287871E+04  1.965860E+04 -3.087666E+03 -9.969069E+03
       373   8 -6.576904E+05 -5.094343E+04 -5.132862E+04  8.094310E+03 -1.574553E+03 -8.159968E+03
       373   9 -6.182353E+05 -4.110854E+04 -4.093569E+04  1.964506E+04 -6.213192E+01 -6.310124E+03
       373  10 -2.042723E+05  6.044090E+04  5.213075E+04  2.087880E+04 -2.990844E-09  4.486250E-10
       373  11 -2.437420E+05  5.122574E+04  4.533207E+04  9.326102E+03 -5.095204E-10  1.361936E-09
       373  12 -2.837209E+05  4.150463E+04  3.741257E+04  2.088749E+04  2.493355E-09 -4.791752E-09
       373  13 -4.509957E+05 -4.241062E+02 -5.372022E+03  2.026859E+04  3.611153E-09 -2.243254E-10
       373  14 -4.507360E+05  1.426374E+02 -2.996884E+03  8.710117E+03 -6.194795E-10 -6.727307E-09
       373  15 -4.509910E+05  1.990167E+02 -1.760644E+03  2.026621E+04  1.644034E-09 -5.269566E-09
       373  16 -6.976629E+05 -6.129342E+04 -6.287892E+04  1.965858E+04  3.095100E-09 -5.954476E-09
       373  17 -6.576904E+05 -5.094350E+04 -5.132875E+04  8.094300E+03  2.908264E-09  6.217673E-09
       373  18 -6.182353E+05 -4.110858E+04 -4.093576E+04  1.964506E+04 -1.715922E-09  1.213538E-08
       373  19 -2.042722E+05  6.044102E+04  5.213099E+04  2.087884E+04  5.399090E+03  9.977258E+03
       373  20 -2.437420E+05  5.122581E+04  4.533222E+04  9.326128E+03  3.937672E+03  8.168732E+03
       373  21 -2.837209E+05  4.150467E+04  3.741265E+04  2.088751E+04  2.477134E+03  6.319485E+03
       373  22 -4.509956E+05 -4.239946E+02 -5.371801E+03  2.026862E+04  4.243150E+03  9.973162E+03
       373  23 -4.507360E+05  1.427110E+02 -2.996745E+03  8.710135E+03  2.755917E+03  8.164349E+03
       373  24 -4.509910E+05  1.990599E+02 -1.760566E+03  2.026621E+04  1.269471E+03  6.314803E+03
       373  25 -6.976629E+05 -6.129331E+04 -6.287871E+04  1.965860E+04  3.087666E+03  9.969069E+03
       373  26 -6.576904E+05 -5.094343E+04 -5.132862E+04  8.094310E+03  1.574553E+03  8.159968E+03
       373  27 -6.182353E+05 -4.110854E+04 -4.093569E+04  1.964506E+04  6.213192E+01  6.310124E+03
       374   1 -3.253339E+05  3.109695E+04  2.783560E+04  2.068582E+04 -2.190760E+03 -5.236229E+03
       374   2 -3.651172E+05  2.123537E+04  1.915537E+04  8.954131E+03 -1.778501E+03 -3.383224E+03
       374   3 -4.051507E+05  1.149733E+04  1.018699E+04  2.044375E+04 -1.366558E+03 -1.526511E+03
       374   4 -4.509295E+05  1.236444E+02 -1.371834E+03  2.029081E+04 -9.926711E+02 -5.231495E+03
       374   5 -4.508025E+05  8.777802E+01 -8.516743E+02  8.679949E+03 -5.781204E+02 -3.378403E+03
       374   6 -4.509277E+05  1.751466E+02 -6.212207E+02  2.029058E+04 -1.638594E+02 -1.521596E+03
       374   7 -5.765106E+05 -3.085077E+04 -3.058033E+04  1.989587E+04  2.051774E+02 -5.226762E+03
       374   8 -5.364811E+05 -2.106033E+04 -2.085921E+04  8.405797E+03  6.220955E+02 -3.373582E+03
       374   9 -4.967027E+05 -1.114719E+04 -1.142957E+04  2.013743E+04  1.038751E+03 -1.516682E+03
       374  10 -3.253339E+05  3.109692E+04  2.783554E+04  2.068581E+04  6.368717E-09 -7.927601E-09
       374  11 -3.651172E+05  2.123536E+04  1.915534E+04  8.954127E+03 -7.556939E-10  6.575491E-09
       374  12 -4.051507E+05  1.149733E+04  1.018698E+04  2.044375E+04 -5.939306E-09  5.049587E-09
       374  13 -4.509295E+05  1.236147E+02 -1.371888E+03  2.029081E+04  3.191910E-09 -8.803720E-10
       374  14 -4.508025E+05  8.776567E+01 -8.516964E+02  8.679947E+03  5.920322E-10 -7.558358E-09
       374  15 -4.509277E+05  1.751441E+02 -6.212251E+02  2.029058E+04  2.039213E-09 -3.736311E-11
       374  16 -5.765106E+05 -3.085080E+04 -3.058038E+04  1.989587E+04 -5.806688E-09  6.668559E-09
       374  17 -5.364811E+05 -2.106035E+04 -2.085923E+04  8.405799E+03  2.228884E-09  1.331914E-08
       374  18 -4.967027E+05 -1.114719E+04 -1.142958E+04  2.013743E+04  7.083739E-09  1.822701E-09
       374  19 -3.253339E+05  3.109695E+04  2.783560E+04  2.068582E+04  2.190760E+03  5.236229E+03
       374  20 -3.651172E+05  2.123537E+04  1.915537E+04  8.954131E+03  1.778501E+03  3.383224E+03
       374  21 -4.051507E+05  1.149733E+04  1.018699E+04  2.044375E+04  1.366558E+03  1.526511E+03
       374  22 -4.509295E+05  1.236444E+02 -1.371834E+03  2.029081E+04  9.926711E+02  5.231495E+03
       374  23 -4.508025E+05  8.777802E+01 -8.516743E+02  8.679949E+03  5.781204E+02  3.378403E+03
       374  24 -4.509277E+05  1.751466E+02 -6.212207E+02  2.029058E+04  1.638594E+02  1.521596E+03
       374  25 -5.765106E+05 -3.085077E+04 -3.058033E+04  1.989587E+04 -2.051774E+02  5.226762E+03
       374  26 -5.364811E+05 -2.106033E+04 -2.085921E+04  8.405797E+03 -6.220955E+02  3.373582E+03
       374  27 -4.967027E+05 -1.114719E+04 -1.142957E+04  2.013743E+04 -1.038751E+03  1.516682E+03
       375   1 -4.469315E+05  1.134852E+03  2.315149E+02  2.030445E+04 -1.262566E+03 -4.449984E+02
       375   2 -4.867498E+05 -8.785597E+03 -9.028429E+03  8.559640E+03 -9.540894E+02  1.412390E+03
       375   3 -5.268051E+05 -1.856119E+04 -1.850498E+04  2.005514E+04 -6.455127E+02  3.267316E+03
       375   4 -4.509242E+05  1.732498E+02 -5.816229E+02  2.029477E+04 -5.968338E+01 -4.400679E+02
       375   5 -4.508052E+05  8.638272E+01 -6.349262E+02  8.674718E+03  2.471655E+02  1.417277E+03
       375   6 -4.509249E+05  1.446156E+02 -9.037714E+02  2.029488E+04  5.541350E+02  3.272166E+03
       375   7 -4.549168E+05 -7.883527E+02 -1.394756E+03  2.028509E+04  1.143191E+03 -4.351374E+02
       375   8 -4.148594E+05  8.958271E+03  7.758495E+03  8.789801E+03  1.448490E+03  1.422165E+03
       375   9 -3.750395E+05  1.885001E+04  1.669706E+04  2.053465E+04  1.753928E+03  3.277016E+03
       375  10 -4.469315E+05  1.134851E+03  2.315115E+02  2.030445E+04 -7.375665E-10  5.710354E-09
       375  11 -4.867498E+05 -8.785599E+03 -9.028435E+03  8.559641E+03 -2.134946E-09 -3.902985E-09
       375  12 -5.268051E+05 -1.856120E+04 -1.850500E+04  2.005514E+04 -7.807564E-09 -7.589026E-09
       375  13 -4.509242E+05  1.732496E+02 -5.816232E+02  2.029477E+04  1.846042E-09  1.286884E-08
       375  14 -4.508052E+05  8.638054E+01 -6.349301E+02  8.674717E+03 -1.067800E-09 -2.744804E-09
       375  15 -4.509249E+05  1.446040E+02 -9.037921E+02  2.029488E+04  1.819849E-09 -8.740643E-09
       375  16 -4.549168E+05 -7.883532E+02 -1.394759E+03  2.028509E+04 -1.896094E-10  3.916098E-10
       375  17 -4.148594E+05  8.958269E+03  7.758487E+03  8.789799E+03  4.590289E-09 -1.950265E-08
       375  18 -3.750395E+05  1.885000E+04  1.669703E+04  2.053465E+04  8.496936E-09 -1.257499E-08
       375  19 -4.469315E+05  1.134852E+03  2.315149E+02  2.030445E+04  1.262566E+03  4.449984E+02
       375  20 -4.867498E+05 -8.785597E+03 -9.028429E+03  8.559640E+03  9.540894E+02 -1.412390E+03
       375  21 -5.268051E+05 -1.856119E+04 -1.850498E+04  2.005514E+04  6.455127E+02 -3.267316E+03
       375  22 -4.509242E+05  1.732498E+02 -5.816229E+02  2.029477E+04  5.968338E+01  4.400679E+02
       375  23 -4.508052E+05  8.638272E+01 -6.349262E+02  8.674718E+03 -2.471655E+02 -1.417277E+03
       375  24 -4.509249E+05  1.446156E+02 -9.037714E+02  2.029488E+04 -5.541350E+02 -3.272166E+03
       375  25 -4.549168E+05 -7.883527E+02 -1.394756E+03  2.028509E+04 -1.143191E+03  4.351374E+02
       375  26 -4.148594E+05  8.958271E+03  7.758495E+03  8.789801E+03 -1.448490E+03 -1.422165E+03
       375  27 -3.750395E+05  1.885001E+04  1.669706E+04  2.053465E+04 -1.753928E+03 -3.277016E+03
       376   1 -5.685728E+05 -2.886427E+04 -2.870884E+04  1.984759E+04 -4.767125E+02  4.351581E+03
       376   2 -6.081869E+05 -3.873909E+04 -3.862127E+04  8.219949E+03  4.653923E+02  6.203648E+03
       376   3 -6.481953E+05 -4.885771E+04 -4.925555E+04  1.975840E+04  1.408093E+03  8.019570E+03
       376   4 -4.509608E+05  1.907965E+02 -1.125080E+03  2.027781E+04  7.318998E+02  4.356406E+03
       376   5 -4.507671E+05  1.185027E+02 -1.858639E+03  8.695705E+03  1.650787E+03  6.208230E+03
       376   6 -4.509643E+05 -1.932067E+02 -3.297517E+03  2.027933E+04  2.570328E+03  8.023918E+03
       376   7 -3.333361E+05  2.924488E+04  2.645774E+04  2.070810E+04  1.940740E+03  4.361233E+03
       376   8 -2.933243E+05  3.897434E+04  3.490232E+04  9.171560E+03  2.836480E+03  6.212812E+03
       376   9 -2.536974E+05  4.846854E+04  4.265789E+04  2.080039E+04  3.732931E+03  8.028267E+03
       376  10 -5.685728E+05 -2.886429E+04 -2.870887E+04  1.984759E+04 -4.183000E-09 -5.859631E-09
       376  11 -6.081869E+05 -3.873914E+04 -3.862134E+04  8.219946E+03  8.086475E-10 -8.899386E-09
       376  12 -6.481954E+05 -4.885778E+04 -4.925568E+04  1.975839E+04  1.881207E-09 -1.638180E-09
       376  13 -4.509609E+05  1.907759E+02 -1.125117E+03  2.027781E+04  1.619437E-09 -1.015851E-08
       376  14 -4.507671E+05  1.184606E+02 -1.858716E+03  8.695697E+03 -1.338632E-09 -5.247336E-09
       376  15 -4.509643E+05 -1.932776E+02 -3.297650E+03  2.027931E+04  1.494509E-09  5.683325E-09
       376  16 -3.333361E+05  2.924486E+04  2.645769E+04  2.070809E+04  2.328480E-09 -5.668366E-10
       376  17 -2.933243E+05  3.897430E+04  3.490223E+04  9.171546E+03  1.416943E-09 -3.529841E-09
       376  18 -2.536974E+05  4.846847E+04  4.265774E+04  2.080037E+04 -2.290887E-09  8.224958E-09
       376  19 -5.685728E+05 -2.886427E+04 -2.870884E+04  1.984759E+04  4.767125E+02 -4.351581E+03
       376  20 -6.081869E+05 -3.873909E+04 -3.862127E+04  8.219949E+03 -4.653923E+02 -6.203648E+03
       376  21 -6.481953E+05 -4.885771E+04 -4.925555E+04  1.975840E+04 -1.408093E+03 -8.019570E+03
       376  22 -4.509608E+05  1.907965E+02 -1.125080E+03  2.027781E+04 -7.318998E+02 -4.356406E+03
       376  23 -4.507671E+05  1.185027E+02 -1.858639E+03  8.695705E+03 -1.650787E+03 -6.208230E+03
       376  24 -4.509643E+05 -1.932067E+02 -3.297517E+03  2.027933E+04 -2.570328E+03 -8.023918E+03
       376  25 -3.333361E+05  2.924488E+04  2.645774E+04  2.070810E+04 -1.940740E+03 -4.361233E+03
       376  26 -2.933243E+05  3.897434E+04  3.490232E+04  9.171560E+03 -2.836480E+03 -6.212812E+03
       376  27 -2.536974E+05  4.846854E+04  4.265789E+04  2.080039E+04 -3.732931E+03 -8.028267E+03
       377   1 -6.900354E+05 -5.856847E+04 -6.010139E+04  1.885529E+04  1.886467E+03  9.170353E+03
       377   2 -7.286324E+05 -6.818700E+04 -7.221981E+04  8.326158E+03  5.934316E+03  1.095804E+04
       377   3 -7.691200E+05 -8.262653E+04 -8.821661E+04  2.079425E+04  9.984874E+03  1.214592E+04
       377   4 -4.512872E+05  3.939843E+02 -4.239280E+03  2.023587E+04  3.228955E+03  9.175258E+03
       377   5 -4.503789E+05  5.005641E+02 -7.223146E+03  8.745795E+03  6.889948E+03  1.096123E+04
       377   6 -4.512944E+05 -4.145210E+03 -1.381518E+04  2.025237E+04  1.055391E+04  1.214751E+04
       377   7 -2.124864E+05  5.935239E+04  5.161895E+04  2.161694E+04  4.571957E+03  9.180169E+03
       377   8 -1.720539E+05  6.918264E+04  5.776826E+04  9.165557E+03  7.846006E+03  1.096442E+04
       377   9 -1.333757E+05  7.432894E+04  6.057936E+04  1.971012E+04  1.112323E+04  1.214910E+04
       377  10 -6.900354E+05 -5.856856E+04 -6.010156E+04  1.885527E+04  7.942271E-09 -1.115311E-09
       377  11 -7.286324E+05 -6.818714E+04 -7.222011E+04  8.326105E+03  2.128924E-09  5.185885E-09
       377  12 -7.691201E+05 -8.262672E+04 -8.821708E+04  2.079415E+04 -1.583973E-09 -6.354407E-09
       377  13 -4.512872E+05  3.938911E+02 -4.239458E+03  2.023585E+04  1.303133E-09 -1.232381E-08
       377  14 -4.503790E+05  5.004224E+02 -7.223461E+03  8.745735E+03 -9.423221E-10  6.086289E-09
       377  15 -4.512946E+05 -4.145398E+03 -1.381567E+04  2.025226E+04  7.587517E-10 -3.167714E-09
       377  16 -2.124865E+05  5.935229E+04  5.161876E+04  2.161690E+04 -8.134344E-09 -2.942854E-09
       377  17 -1.720540E+05  6.918249E+04  5.776792E+04  9.165488E+03  4.111576E-10 -2.165025E-08
       377  18 -1.333758E+05  7.432875E+04  6.057886E+04  1.971001E+04  1.542231E-09 -5.247383E-10
       377  19 -6.900354E+05 -5.856847E+04 -6.010139E+04  1.885529E+04 -1.886467E+03 -9.170353E+03
       377  20 -7.286324E+05 -6.818700E+04 -7.221981E+04  8.326158E+03 -5.934316E+03 -1.095804E+04
       377  21 -7.691200E+05 -8.262653E+04 -8.821661E+04  2.079425E+04 -9.984874E+03 -1.214592E+04
       377  22 -4.512872E+05  3.939843E+02 -4.239280E+03  2.023587E+04 -3.228955E+03 -9.175258E+03
       377  23 -4.503789E+05  5.005641E+02 -7.223146E+03  8.745795E+03 -6.889948E+03 -1.096123E+04
       377  24 -4.512944E+05 -4.145210E+03 -1.381518E+04  2.025237E+04 -1.055391E+04 -1.214751E+04
       377  25 -2.124864E+05  5.935239E+04  5.161895E+04  2.161694E+04 -4.571957E+03 -9.180169E+03
       377  26 -1.720539E+05  6.918264E+04  5.776826E+04  9.165557E+03 -7.846006E+03 -1.096442E+04
       377  27 -1.333757E+05  7.432894E+04  6.057936E+04  1.971012E+04 -1.112323E+04 -1.214910E+04
       378   1 -8.135756E+05 -8.575517E+04 -1.007826E+05  1.179010E+04  9.233844E+03  1.456672E+04
       378   2 -8.440782E+05 -9.336774E+04 -1.210841E+05  1.391209E+04  3.118911E+04  1.523704E+04
       378   3 -8.921690E+05 -1.595622E+05 -1.703543E+05  3.855158E+04  5.317612E+04  5.143050E+03
       378   4 -4.545313E+05  2.912244E+03 -1.707401E+04  2.008414E+04  1.310832E+04  1.457973E+04
       378   5 -4.463564E+05  4.813854E+03 -2.797295E+04  8.910691E+03  2.810400E+04  1.522595E+04
       378   6 -4.545511E+05 -5.063755E+04 -6.299277E+04  2.025511E+04  4.313314E+04  5.109977E+03
       378   7 -9.536782E+04  9.157077E+04  6.662594E+04  2.838292E+04  1.698503E+04  1.459284E+04
       378   8 -4.848853E+04  1.029843E+05  6.512741E+04  3.905943E+03  2.501692E+04  1.521491E+04
       378   9 -1.675758E+04  5.827425E+04  4.435532E+04  1.945569E+03  3.308309E+04  5.077509E+03
       378  10 -8.135757E+05 -8.575542E+04 -1.007832E+05  1.178999E+04 -2.909087E-10 -8.428983E-09
       378  11 -8.440793E+05 -9.336825E+04 -1.210863E+05  1.391171E+04  3.804616E-09 -1.601320E-09
       378  12 -8.921720E+05 -1.595630E+05 -1.703597E+05  3.855136E+04  2.961807E-09  8.391419E-09
       378  13 -4.545315E+05  2.911970E+03 -1.707473E+04  2.008399E+04  1.854768E-09  3.428908E-09
       378  14 -4.463573E+05  4.813393E+03 -2.797487E+04  8.910347E+03 -8.875780E-10  5.958782E-09
       378  15 -4.545531E+05 -5.063808E+04 -6.299632E+04  2.025493E+04 -4.170878E-10 -2.380989E-10
       378  16 -9.536819E+04  9.157046E+04  6.662500E+04  2.838272E+04 -4.115062E-10  6.391269E-09
       378  17 -4.848926E+04  1.029839E+05  6.512580E+04  3.905637E+03 -1.593113E-09  9.318212E-09
       378  18 -1.675876E+04  5.827392E+04  4.435322E+04  1.945434E+03 -5.014604E-09 -4.695584E-09
       378  19 -8.135756E+05 -8.575517E+04 -1.007826E+05  1.179010E+04 -9.233844E+03 -1.456672E+04
       378  20 -8.440782E+05 -9.336774E+04 -1.210841E+05  1.391209E+04 -3.118911E+04 -1.523704E+04
       378  21 -8.921690E+05 -1.595622E+05 -1.703543E+05  3.855158E+04 -5.317612E+04 -5.143050E+03
       378  22 -4.545313E+05  2.912244E+03 -1.707401E+04  2.008414E+04 -1.310832E+04 -1.457973E+04
       378  23 -4.463564E+05  4.813854E+03 -2.797295E+04  8.910691E+03 -2.810400E+04 -1.522595E+04
       378  24 -4.545511E+05 -5.063755E+04 -6.299277E+04  2.025511E+04 -4.313314E+04 -5.109977E+03
       378  25 -9.536782E+04  9.157077E+04  6.662594E+04  2.838292E+04 -1.698503E+04 -1.459284E+04
       378  26 -4.848853E+04  1.029843E+05  6.512741E+04  3.905943E+03 -2.501692E+04 -1.521491E+04
       378  27 -1.675758E+04  5.827425E+04  4.435532E+04  1.945569E+03 -3.308309E+04 -5.077509E+03
       379   1 -1.791638E+05 -6.952653E+05 -1.730995E+05  1.756503E+05 -7.141149E+03 -5.297013E+04
       379   2 -1.234790E+05 -5.341974E+05 -1.066642E+05  1.532719E+05 -2.184504E+04 -2.086430E+04
       379   3 -8.184891E+04 -3.805604E+05 -6.463983E+04  1.641445E+05 -2.048788E+04  1.129532E+04
       379   4 -1.694255E+04 -4.030705E+04 -1.757006E+04  1.643809E+05 -7.237868E+03 -1.331660E+04
       379   5 -4.600292E+03 -3.899777E+04 -7.789147E+03  1.477744E+05 -2.187120E+04 -9.318546E+03
       379   6 -1.422522E+03 -4.025598E+04 -2.882335E+03  1.644190E+05 -2.044877E+04 -5.275756E+03
       379   7  1.452491E+05  6.150490E+05  1.379354E+05  1.530997E+05 -7.335981E+03  2.637860E+04
       379   8  1.142636E+05  4.564365E+05  9.107414E+04  1.422725E+05 -2.189756E+04  2.236244E+03
       379   9  7.899750E+04  3.001618E+05  5.887160E+04  1.646936E+05 -2.040969E+04 -2.185567E+04
       379  10 -1.791646E+05 -6.952683E+05 -1.731049E+05  1.756500E+05 -5.753452E-11 -4.459657E-09
       379  11 -1.234797E+05 -5.341980E+05 -1.066660E+05  1.532715E+05 -9.792363E-10 -2.421753E-09
       379  12 -8.184939E+04 -3.805607E+05 -6.464086E+04  1.641447E+05 -1.048225E-09 -2.699409E-09
       379  13 -1.694265E+04 -4.030725E+04 -1.757049E+04  1.643808E+05  4.741815E-10  5.928366E-09
       379  14 -4.600829E+03 -3.899799E+04 -7.790208E+03  1.477742E+05 -4.933931E-09  5.191560E-10
       379  15 -1.422979E+03 -4.025612E+04 -2.883173E+03  1.644189E+05 -3.185273E-10 -1.747131E-09
       379  16  1.452488E+05  6.150482E+05  1.379340E+05  1.530999E+05 -1.420184E-09  5.255888E-09
       379  17  1.142631E+05  4.564364E+05  9.107323E+04  1.422725E+05 -2.558670E-09  5.806738E-09
       379  18  7.899692E+04  3.001611E+05  5.886992E+04  1.646932E+05 -2.241608E-09  5.163072E-09
       379  19 -1.791638E+05 -6.952653E+05 -1.730995E+05  1.756503E+05  7.141149E+03  5.297013E+04
       379  20 -1.234790E+05 -5.341974E+05 -1.066642E+05  1.532719E+05  2.184504E+04  2.086430E+04
       379  21 -8.184891E+04 -3.805604E+05 -6.463983E+04  1.641445E+05  2.048788E+04 -1.129532E+04
       379  22 -1.694255E+04 -4.030705E+04 -1.757006E+04  1.643809E+05  7.237868E+03  1.331660E+04
       379  23 -4.600292E+03 -3.899777E+04 -7.789147E+03  1.477744E+05  2.187120E+04  9.318546E+03
       379  24 -1.422522E+03 -4.025598E+04 -2.882335E+03  1.644190E+05  2.044877E+04  5.275756E+03
       379  25  1.452491E+05  6.150490E+05  1.379354E+05  1.530997E+05  7.335981E+03 -2.637860E+04
       379  26  1.142636E+05  4.564365E+05  9.107414E+04  1.422725E+05  2.189756E+04 -2.236244E+03
       379  27  7.899750E+04  3.001618E+05  5.887160E+04  1.646936E+05  2.040969E+04  2.185567E+04
       380   1 -5.771392E+04 -2.772842E+05 -4.393404E+04  1.651058E+05 -1.454892E+04  1.012388E+04
       380   2 -1.932749E+04 -1.201947E+05 -1.096188E+04  1.479956E+05 -5.722576E+03  9.439676E+03
       380   3  1.947134E+04  3.733649E+04  2.261549E+04  1.651454E+05  3.450301E+03  8.755648E+03
       380   4 -1.583233E+03 -3.955782E+04 -1.059566E+03  1.646371E+05 -1.451402E+04 -5.030032E+03
       380   5 -5.289344E+02 -3.981544E+04  2.632384E+03  1.475103E+05 -5.686727E+03 -6.322821E+03
       380   6  1.044766E+03 -3.954930E+04  7.352703E+03  1.646431E+05  3.487038E+03 -7.615266E+03
       380   7  5.454442E+04  1.982241E+05  4.181356E+04  1.641682E+05 -1.447912E+04 -2.018959E+04
       380   8  1.826941E+04  4.057072E+04  1.622737E+04  1.470248E+05 -5.650855E+03 -2.208729E+04
       380   9 -1.738202E+04 -1.164289E+05 -7.909374E+03  1.641409E+05  3.523803E+03 -2.398419E+04
       380  10 -5.771418E+04 -2.772844E+05 -4.393463E+04  1.651059E+05 -8.858850E-10 -5.026110E-09
       380  11 -1.932755E+04 -1.201948E+05 -1.096211E+04  1.479957E+05 -1.808036E-09 -4.541069E-09
       380  12  1.947131E+04  3.733640E+04  2.261533E+04  1.651454E+05 -1.654734E-10 -6.861541E-09
       380  13 -1.583466E+03 -3.955791E+04 -1.060009E+03  1.646370E+05 -4.323846E-10  5.476908E-09
       380  14 -5.289798E+02 -3.981549E+04  2.632248E+03  1.475102E+05  1.872831E-09 -1.064403E-09
       380  15  1.044737E+03 -3.954936E+04  7.352571E+03  1.646431E+05  1.517793E-09 -1.331624E-09
       380  16  5.454409E+04  1.982236E+05  4.181240E+04  1.641679E+05 -7.021223E-10  9.376316E-09
       380  17  1.826925E+04  4.057019E+04  1.622640E+04  1.470247E+05 -1.805328E-09  8.608225E-09
       380  18 -1.738219E+04 -1.164295E+05 -7.910479E+03  1.641409E+05 -9.572778E-10  8.939338E-09
       380  19 -5.771392E+04 -2.772842E+05 -4.393404E+04  1.651058E+05  1.454892E+04 -1.012388E+04
       380  20 -1.932749E+04 -1.201947E+05 -1.096188E+04  1.479956E+05  5.722576E+03 -9.439676E+03
       380  21  1.947134E+04  3.733649E+04  2.261549E+04  1.651454E+05 -3.450301E+03 -8.755648E+03
       380  22 -1.583233E+03 -3.955782E+04 -1.059566E+03  1.646371E+05  1.451402E+04  5.030032E+03
       380  23 -5.289344E+02 -3.981544E+04  2.632384E+03  1.475103E+05  5.686727E+03  6.322821E+03
       380  24  1.044766E+03 -3.954930E+04  7.352703E+03  1.646431E+05 -3.487038E+03  7.615266E+03
       380  25  5.454442E+04  1.982241E+05  4.181356E+04  1.641682E+05  1.447912E+04  2.018959E+04
       380  26  1.826941E+04  4.057072E+04  1.622737E+04  1.470248E+05  5.650855E+03  2.208729E+04
       380  27 -1.738202E+04 -1.164289E+05 -7.909374E+03  1.641409E+05 -3.523803E+03  2.398419E+04
       381   1  4.333480E+04  1.411690E+05  4.419144E+04  1.622681E+05  9.597917E+03  8.523822E+03
       381   2  8.880761E+04  2.933416E+05  8.836989E+04  1.580769E+05  1.343742E+04 -2.336663E+04
       381   3  1.592006E+05  4.561469E+05  1.595847E+05  1.874624E+05  4.940997E+03 -5.529807E+04
       381   4  6.912640E+02 -3.814504E+04  1.033308E+04  1.644785E+05  9.637444E+03 -8.883791E+03
       381   5  8.202902E+03 -4.159446E+04  1.992839E+04  1.477347E+05  1.342859E+04 -1.915121E+04
       381   6  3.689096E+04 -3.817839E+04  4.155276E+04  1.645658E+05  4.882041E+03 -2.945150E+04
       381   7 -4.195397E+04 -2.174274E+05 -2.352557E+04  1.666882E+05  9.676853E+03 -2.628650E+04
       381   8 -7.240841E+04 -3.764237E+05 -4.851890E+04  1.373983E+05  1.341961E+04 -1.493802E+04
       381   9 -8.543395E+04 -5.322771E+05 -7.649357E+04  1.416877E+05  4.821158E+03 -3.625406E+03
       381  10  4.333468E+04  1.411689E+05  4.419113E+04  1.622680E+05  2.637103E-09 -5.884549E-08
       381  11  8.880727E+04  2.933410E+05  8.836852E+04  1.580771E+05  2.025250E-09 -3.081794E-09
       381  12  1.591997E+05  4.561436E+05  1.595789E+05  1.874626E+05  7.240084E-12  5.091186E-08
       381  13  6.911430E+02 -3.814515E+04  1.033275E+04  1.644785E+05 -1.273901E-10  5.400850E-09
       381  14  8.202609E+03 -4.159490E+04  1.992737E+04  1.477349E+05  3.818704E-09  2.636368E-09
       381  15  3.689070E+04 -3.817933E+04  4.155108E+04  1.645659E+05  3.754586E-10 -1.102445E-09
       381  16 -4.195425E+04 -2.174281E+05 -2.352704E+04  1.666884E+05 -1.554156E-10  6.260794E-08
       381  17 -7.240866E+04 -3.764240E+05 -4.851966E+04  1.373984E+05  2.817765E-09  3.083131E-09
       381  18 -8.543398E+04 -5.322771E+05 -7.649364E+04  1.416877E+05  3.384967E-10 -4.895105E-08
       381  19  4.333480E+04  1.411690E+05  4.419144E+04  1.622681E+05 -9.597917E+03 -8.523822E+03
       381  20  8.880761E+04  2.933416E+05  8.836989E+04  1.580769E+05 -1.343742E+04  2.336663E+04
       381  21  1.592006E+05  4.561469E+05  1.595847E+05  1.874624E+05 -4.940997E+03  5.529807E+04
       381  22  6.912640E+02 -3.814504E+04  1.033308E+04  1.644785E+05 -9.637444E+03  8.883791E+03
       381  23  8.202902E+03 -4.159446E+04  1.992839E+04  1.477347E+05 -1.342859E+04  1.915121E+04
       381  24  3.689096E+04 -3.817839E+04  4.155276E+04  1.645658E+05 -4.882041E+03  2.945150E+04
       381  25 -4.195397E+04 -2.174274E+05 -2.352557E+04  1.666882E+05 -9.676853E+03  2.628650E+04
       381  26 -7.240841E+04 -3.764237E+05 -4.851890E+04  1.373983E+05 -1.341961E+04  1.493802E+04
       381  27 -8.543395E+04 -5.322771E+05 -7.649357E+04  1.416877E+05 -4.821158E+03  3.625406E+03
       382   1  8.699694E+05  3.262558E+05  2.120544E+05  3.081094E+05  8.566198E+04  2.769948E+04
       382   2  8.371991E+05  1.972498E+05  1.314788E+05  3.061238E+05  5.589676E+04  6.835405E+03
       382   3  8.360381E+05  1.838024E+05  1.038246E+05  2.909662E+05  2.276845E+04 -5.132657E+03
       382   4  5.524399E+05  1.741138E+05  1.199756E+05  1.883229E+05  7.782984E+04  2.473126E+04
       382   5  5.307857E+05  7.220425E+04  5.067453E+04  2.118126E+05  5.348126E+04  5.919721E+03
       382   6  5.396875E+05  8.481024E+04  3.002323E+04  2.221249E+05  2.576759E+04 -3.997041E+03
       382   7  2.350141E+05  2.199885E+04  2.788838E+04  6.859915E+04  7.000217E+04  2.176575E+04
       382   8  2.244650E+05 -5.283016E+04 -3.013757E+04  1.175453E+05  5.106706E+04  5.004626E+03
       382   9  2.434207E+05 -1.418102E+04 -4.378523E+04  1.533110E+05  2.876518E+04 -2.861863E+03
       382  10  8.699613E+05  3.262530E+05  2.120392E+05  3.081075E+05  2.133084E-10  8.598728E-10
       382  11  8.371958E+05  1.972489E+05  1.314729E+05  3.061235E+05  3.097965E-09  6.763504E-09
       382  12  8.360376E+05  1.838022E+05  1.038236E+05  2.909663E+05  2.672157E-09  5.044480E-09
       382  13  5.524333E+05  1.741115E+05  1.199631E+05  1.883214E+05  1.019502E-09 -6.354605E-09
       382  14  5.307827E+05  7.220344E+04  5.066909E+04  2.118123E+05 -1.007714E-09  7.367464E-09
       382  15  5.396868E+05  8.481004E+04  3.002195E+04  2.221250E+05  2.079793E-09 -6.731472E-10
       382  16  2.350087E+05  2.199703E+04  2.787829E+04  6.859792E+04 -1.566104E-09  2.735372E-10
       382  17  2.244622E+05 -5.283088E+04 -3.014251E+04  1.175451E+05  2.251009E-10 -3.333491E-09
       382  18  2.434198E+05 -1.418125E+04 -4.378680E+04  1.533110E+05  3.086282E-09 -5.179456E-09
       382  19  8.699694E+05  3.262558E+05  2.120544E+05  3.081094E+05 -8.566198E+04 -2.769948E+04
       382  20  8.371991E+05  1.972498E+05  1.314788E+05  3.061238E+05 -5.589676E+04 -6.835405E+03
       382  21  8.360381E+05  1.838024E+05  1.038246E+05  2.909662E+05 -2.276845E+04  5.132657E+03
       382  22  5.524399E+05  1.741138E+05  1.199756E+05  1.883229E+05 -7.782984E+04 -2.473126E+04
       382  23  5.307857E+05  7.220425E+04  5.067453E+04  2.118126E+05 -5.348126E+04 -5.919721E+03
       382  24  5.396875E+05  8.481024E+04  3.002323E+04  2.221249E+05 -2.576759E+04  3.997041E+03
       382  25  2.350141E+05  2.199885E+04  2.788838E+04  6.859915E+04 -7.000217E+04 -2.176575E+04
       382  26  2.244650E+05 -5.283016E+04 -3.013757E+04  1.175453E+05 -5.106706E+04 -5.004626E+03
       382  27  2.434207E+05 -1.418102E+04 -4.378523E+04  1.533110E+05 -2.876518E+04  2.861863E+03
       383   1  7.919562E+05  1.952152E+05  9.082594E+04  2.885406E+05  2.066407E+04 -3.731656E+03
       383   2  7.703876E+05  1.694036E+05  7.165537E+04  2.757979E+05  1.393466E+04 -5.482181E+03
       383   3  7.414334E+05  1.648856E+05  5.987679E+04  2.741776E+05  7.006487E+03 -6.708456E+03
       383   4  5.358413E+05  9.620274E+04  2.422817E+04  2.153668E+05  2.092389E+04 -3.633695E+03
       383   5  5.389942E+05  8.158317E+04  1.193216E+04  2.113238E+05  1.451540E+04 -5.262456E+03
       383   6  5.346988E+05  8.819601E+04  6.776222E+03  2.184028E+05  7.907858E+03 -6.367021E+03
       383   7  2.797902E+05 -2.804470E+03 -4.237511E+04  1.422205E+05  2.118359E+04 -3.535782E+03
       383   8  3.076532E+05 -6.233363E+03 -4.779537E+04  1.468715E+05  1.509591E+04 -5.042824E+03
       383   9  3.280065E+05  1.150916E+04 -4.632765E+04  1.626448E+05  8.808896E+03 -6.025708E+03
       383  10  7.919558E+05  1.952151E+05  9.082511E+04  2.885407E+05  8.913898E-10  3.559070E-09
       383  11  7.703873E+05  1.694035E+05  7.165495E+04  2.757979E+05  1.646159E-09  2.038068E-09
       383  12  7.414333E+05  1.648855E+05  5.987662E+04  2.741776E+05  1.073116E-10 -6.305002E-09
       383  13  5.358408E+05  9.620261E+04  2.422732E+04  2.153668E+05  2.669382E-09  4.757238E-09
       383  14  5.389939E+05  8.158308E+04  1.193171E+04  2.113238E+05 -3.679311E-09 -1.140009E-08
       383  15  5.346988E+05  8.819595E+04  6.776028E+03  2.184028E+05 -1.571098E-09  1.401238E-09
       383  16  2.797897E+05 -2.804604E+03 -4.237597E+04  1.422206E+05  1.622687E-09 -6.057074E-09
       383  17  3.076530E+05 -6.233451E+03 -4.779585E+04  1.468716E+05 -3.662530E-09  1.326956E-08
       383  18  3.280064E+05  1.150910E+04 -4.632786E+04  1.626449E+05 -1.515924E-09  1.133445E-08
       383  19  7.919562E+05  1.952152E+05  9.082594E+04  2.885406E+05 -2.066407E+04  3.731656E+03
       383  20  7.703876E+05  1.694036E+05  7.165537E+04  2.757979E+05 -1.393466E+04  5.482181E+03
       383  21  7.414334E+05  1.648856E+05  5.987679E+04  2.741776E+05 -7.006487E+03  6.708456E+03
       383  22  5.358413E+05  9.620274E+04  2.422817E+04  2.153668E+05 -2.092389E+04  3.633695E+03
       383  23  5.389942E+05  8.158317E+04  1.193216E+04  2.113238E+05 -1.451540E+04  5.262456E+03
       383  24  5.346988E+05  8.819601E+04  6.776222E+03  2.184028E+05 -7.907858E+03  6.367021E+03
       383  25  2.797902E+05 -2.804470E+03 -4.237511E+04  1.422205E+05 -2.118359E+04  3.535782E+03
       383  26  3.076532E+05 -6.233363E+03 -4.779537E+04  1.468715E+05 -1.509591E+04  5.042824E+03
       383  27  3.280065E+05  1.150916E+04 -4.632765E+04  1.626448E+05 -8.808896E+03  6.025708E+03
       384   1  7.113599E+05  1.560111E+05  5.079118E+04  2.667318E+05  5.903708E+03 -6.204796E+03
       384   2  6.913301E+05  1.396560E+05  4.181005E+04  2.531707E+05  4.022780E+03 -5.517907E+03
       384   3  6.601578E+05  1.358394E+05  3.411872E+04  2.526242E+05  2.131523E+03 -4.804780E+03
       384   4  5.342952E+05  8.915493E+04  5.236215E+03  2.177291E+05  6.638392E+03 -5.926450E+03
       384   5  5.398197E+05  8.254191E+04  2.778997E+03  2.113532E+05  4.773827E+03 -5.233236E+03
       384   6  5.341983E+05  8.846453E+04  1.599085E+03  2.179919E+05  2.898870E+03 -4.513804E+03
       384   7  3.572603E+05  2.230062E+04 -4.032151E+04  1.687388E+05  7.372849E+03 -5.648191E+03
       384   8  3.883313E+05  2.542919E+04 -3.625402E+04  1.695448E+05  5.524674E+03 -4.948642E+03
       384   9  4.082542E+05  4.109069E+04 -3.092187E+04  1.833660E+05  3.666047E+03 -4.222893E+03
       384  10  7.113598E+05  1.560111E+05  5.079104E+04  2.667318E+05 -1.756747E-09 -3.069634E-09
       384  11  6.913301E+05  1.396560E+05  4.180996E+04  2.531707E+05  1.506426E-09  4.943190E-09
       384  12  6.601577E+05  1.358393E+05  3.411867E+04  2.526242E+05  3.389605E-10 -8.394910E-09
       384  13  5.342951E+05  8.915488E+04  5.236067E+03  2.177291E+05  1.404873E-09 -9.340889E-09
       384  14  5.398196E+05  8.254188E+04  2.778903E+03  2.113532E+05  2.192901E-09  3.777467E-09
       384  15  5.341982E+05  8.846450E+04  1.599031E+03  2.179919E+05  4.030282E-10 -1.386691E-09
       384  16  3.572602E+05  2.230057E+04 -4.032167E+04  1.687388E+05  2.109744E-09 -1.849418E-10
       384  17  3.883312E+05  2.542916E+04 -3.625413E+04  1.695448E+05  2.471519E-09  4.119421E-09
       384  18  4.082541E+05  4.109067E+04 -3.092193E+04  1.833660E+05  8.472937E-10 -7.285805E-09
       384  19  7.113599E+05  1.560111E+05  5.079118E+04  2.667318E+05 -5.903708E+03  6.204796E+03
       384  20  6.913301E+05  1.396560E+05  4.181005E+04  2.531707E+05 -4.022780E+03  5.517907E+03
       384  21  6.601578E+05  1.358394E+05  3.411872E+04  2.526242E+05 -2.131523E+03  4.804780E+03
       384  22  5.342952E+05  8.915493E+04  5.236215E+03  2.177291E+05 -6.638392E+03  5.926450E+03
       384  23  5.398197E+05  8.254191E+04  2.778997E+03  2.113532E+05 -4.773827E+03  5.233236E+03
       384  24  5.341983E+05  8.846453E+04  1.599085E+03  2.179919E+05 -2.898870E+03  4.513804E+03
       384  25  3.572603E+05  2.230062E+04 -4.032151E+04  1.687388E+05 -7.372849E+03  5.648191E+03
       384  26  3.883313E+05  2.542919E+04 -3.625402E+04  1.695448E+05 -5.524674E+03  4.948642E+03
       384  27  4.082542E+05  4.109069E+04 -3.092187E+04  1.833660E+05 -3.666047E+03  4.222893E+03
       385   1  6.317068E+05  1.252775E+05  2.628622E+04  2.448347E+05  1.631542E+03 -4.158121E+03
       385   2  6.120245E+05  1.098558E+05  1.937802E+04  2.312929E+05  7.617987E+02 -3.064555E+03
       385   3  5.808594E+05  1.060926E+05  1.278844E+04  2.308031E+05 -1.078043E+02 -1.971805E+03
       385   4  5.341611E+05  8.852162E+04  1.251183E+03  2.179054E+05  2.387406E+03 -3.871442E+03
       385   5  5.399000E+05  8.266866E+04  7.973760E+02  2.113887E+05  1.517229E+03 -2.777986E+03
       385   6  5.341555E+05  8.847438E+04  6.626151E+02  2.179239E+05  6.471725E+02 -1.685349E+03
       385   7  4.366251E+05  5.176650E+04 -2.378454E+04  1.909801E+05  3.143137E+03 -3.584814E+03
       385   8  4.677806E+05  5.548183E+04 -1.778369E+04  1.914866E+05  2.272564E+03 -2.491454E+03
       385   9  4.874534E+05  7.085621E+04 -1.146343E+04  2.050455E+05  1.402090E+03 -1.398914E+03
       385  10  6.317068E+05  1.252775E+05  2.628618E+04  2.448347E+05  7.999448E-09  9.870510E-10
       385  11  6.120245E+05  1.098558E+05  1.937800E+04  2.312929E+05 -6.564317E-10  9.171217E-09
       385  12  5.808594E+05  1.060926E+05  1.278843E+04  2.308031E+05 -2.688136E-09 -1.119269E-08
       385  13  5.341611E+05  8.852160E+04  1.251144E+03  2.179054E+05  1.722381E-09 -6.505445E-09
       385  14  5.399000E+05  8.266865E+04  7.973572E+02  2.113887E+05  1.946920E-09 -1.630319E-08
       385  15  5.341555E+05  8.847437E+04  6.626090E+02  2.179239E+05 -1.288459E-09 -3.445352E-09
       385  16  4.366250E+05  5.176648E+04 -2.378458E+04  1.909801E+05 -6.596793E-09 -4.975253E-09
       385  17  4.677806E+05  5.548183E+04 -1.778371E+04  1.914866E+05  4.321721E-10 -1.907286E-08
       385  18  4.874534E+05  7.085621E+04 -1.146344E+04  2.050455E+05  8.674356E-09  1.023765E-08
       385  19  6.317068E+05  1.252775E+05  2.628622E+04  2.448347E+05 -1.631542E+03  4.158121E+03
       385  20  6.120245E+05  1.098558E+05  1.937802E+04  2.312929E+05 -7.617987E+02  3.064555E+03
       385  21  5.808594E+05  1.060926E+05  1.278844E+04  2.308031E+05  1.078043E+02  1.971805E+03
       385  22  5.341611E+05  8.852162E+04  1.251183E+03  2.179054E+05 -2.387406E+03  3.871442E+03
       385  23  5.399000E+05  8.266866E+04  7.973760E+02  2.113887E+05 -1.517229E+03  2.777986E+03
       385  24  5.341555E+05  8.847438E+04  6.626151E+02  2.179239E+05 -6.471725E+02  1.685349E+03
       385  25  4.366251E+05  5.176650E+04 -2.378454E+04  1.909801E+05 -3.143137E+03  3.584814E+03
       385  26  4.677806E+05  5.548183E+04 -1.778369E+04  1.914866E+05 -2.272564E+03  2.491454E+03
       385  27  4.874534E+05  7.085621E+04 -1.146343E+04  2.050455E+05 -1.402090E+03  1.398914E+03
       386   1  5.526905E+05  9.545031E+04  5.362751E+03  2.230535E+05 -4.928736E+02 -1.290508E+03
       386   2  5.330680E+05  8.011391E+04 -8.514024E+02  2.095245E+05 -1.415086E+03 -2.200249E+02
       386   3  5.020018E+05  7.642231E+04 -6.703775E+03  2.090098E+05 -2.336805E+03  8.493445E+02
       386   4  5.341639E+05  8.846633E+04  6.813721E+02  2.179175E+05  2.614043E+02 -1.004299E+03
       386   5  5.398906E+05  8.267669E+04  9.046503E+02  2.113981E+05 -6.615182E+02  6.590779E+01
       386   6  5.341732E+05  8.853185E+04  1.490256E+03  2.178926E+05 -1.583967E+03  1.134994E+03
       386   7  5.156376E+05  8.148238E+04 -4.000031E+03  2.127816E+05  1.015657E+03 -7.180983E+02
       386   8  5.467134E+05  8.523948E+04  2.660698E+03  2.132716E+05  9.205731E+01  3.518433E+02
       386   9  5.663454E+05  1.006414E+05  9.684174E+03  2.267758E+05 -8.310889E+02  1.420660E+03
       386  10  5.526905E+05  9.545031E+04  5.362747E+03  2.230535E+05  5.279359E-09  2.096714E-10
       386  11  5.330680E+05  8.011391E+04 -8.514062E+02  2.095245E+05 -1.889926E-09  1.024618E-08
       386  12  5.020018E+05  7.642230E+04 -6.703786E+03  2.090098E+05  2.549396E-09 -1.616345E-08
       386  13  5.341639E+05  8.846633E+04  6.813700E+02  2.179175E+05  2.739650E-09  2.041453E-08
       386  14  5.398906E+05  8.267669E+04  9.046494E+02  2.113981E+05  4.898401E-09 -4.773310E-09
       386  15  5.341732E+05  8.853185E+04  1.490249E+03  2.178926E+05 -1.893877E-09 -9.098835E-09
       386  16  5.156376E+05  8.148238E+04 -4.000034E+03  2.127816E+05  9.043428E-11  9.095919E-09
       386  17  5.467134E+05  8.523948E+04  2.660698E+03  2.132716E+05  1.272338E-09 -8.097808E-09
       386  18  5.663454E+05  1.006414E+05  9.684169E+03  2.267758E+05 -9.793920E-10  1.800680E-09
       386  19  5.526905E+05  9.545031E+04  5.362751E+03  2.230535E+05  4.928736E+02  1.290508E+03
       386  20  5.330680E+05  8.011391E+04 -8.514024E+02  2.095245E+05  1.415086E+03  2.200249E+02
       386  21  5.020018E+05  7.642231E+04 -6.703775E+03  2.090098E+05  2.336805E+03 -8.493445E+02
       386  22  5.341639E+05  8.846633E+04  6.813721E+02  2.179175E+05 -2.614043E+02  1.004299E+03
       386  23  5.398906E+05  8.267669E+04  9.046503E+02  2.113981E+05  6.615182E+02 -6.590779E+01
       386  24  5.341732E+05  8.853185E+04  1.490256E+03  2.178926E+05  1.583967E+03 -1.134994E+03
       386  25  5.156376E+05  8.148238E+04 -4.000031E+03  2.127816E+05 -1.015657E+03  7.180983E+02
       386  26  5.467134E+05  8.523948E+04  2.660698E+03  2.132716E+05 -9.205731E+01 -3.518433E+02
       386  27  5.663454E+05  1.006414E+05  9.684174E+03  2.267758E+05  8.310889E+02 -1.420660E+03
       387   1  4.737763E+05  6.578367E+04 -1.371889E+04  2.014504E+05 -2.901468E+03  1.466451E+03
       387   2  4.539926E+05  5.019506E+04 -1.872441E+04  1.876911E+05 -5.062644E+03  2.068333E+03
       387   3  4.232469E+05  4.724146E+04 -2.219001E+04  1.868017E+05 -7.214917E+03  2.647537E+03
       387   4  5.342356E+05  8.844304E+04  1.923975E+03  2.179776E+05 -2.140048E+03  1.755334E+03
       387   5  5.397757E+05  8.254971E+04  3.380551E+03  2.113809E+05 -4.315272E+03  2.351817E+03
       387   6  5.343562E+05  8.929413E+04  6.388181E+03  2.176539E+05 -6.481667E+03  2.925597E+03
       387   7  5.946986E+05  1.111027E+05  1.756660E+04  2.345063E+05 -1.378543E+03  2.044248E+03
       387   8  6.255660E+05  1.149049E+05  2.548496E+04  2.350737E+05 -3.567785E+03  2.635344E+03
       387   9  6.454776E+05  1.313476E+05  3.496537E+04  2.485111E+05 -5.748273E+03  3.203713E+03
       387  10  4.737763E+05  6.578367E+04 -1.371891E+04  2.014504E+05 -1.524783E-10 -1.475475E-08
       387  11  4.539926E+05  5.019505E+04 -1.872447E+04  1.876911E+05 -2.018545E-09  9.619465E-10
       387  12  4.232468E+05  4.724144E+04 -2.219013E+04  1.868017E+05 -2.376409E-09  3.587953E-09
       387  13  5.342356E+05  8.844304E+04  1.923960E+03  2.179776E+05  2.023567E-09 -3.888370E-09
       387  14  5.397756E+05  8.254970E+04  3.380506E+03  2.113809E+05 -4.046182E-10 -1.015880E-08
       387  15  5.343562E+05  8.929411E+04  6.388086E+03  2.176539E+05  5.491874E-10 -4.835795E-10
       387  16  5.946986E+05  1.111027E+05  1.756659E+04  2.345063E+05  3.243207E-09  9.073000E-09
       387  17  6.255660E+05  1.149049E+05  2.548492E+04  2.350737E+05  6.984314E-09  1.481731E-08
       387  18  6.454775E+05  1.313476E+05  3.496528E+04  2.485111E+05  4.371060E-09 -3.750311E-09
       387  19  4.737763E+05  6.578367E+04 -1.371889E+04  2.014504E+05  2.901468E+03 -1.466451E+03
       387  20  4.539926E+05  5.019506E+04 -1.872441E+04  1.876911E+05  5.062644E+03 -2.068333E+03
       387  21  4.232469E+05  4.724146E+04 -2.219001E+04  1.868017E+05  7.214917E+03 -2.647537E+03
       387  22  5.342356E+05  8.844304E+04  1.923975E+03  2.179776E+05  2.140048E+03 -1.755334E+03
       387  23  5.397757E+05  8.254971E+04  3.380551E+03  2.113809E+05  4.315272E+03 -2.351817E+03
       387  24  5.343562E+05  8.929413E+04  6.388181E+03  2.176539E+05  6.481667E+03 -2.925597E+03
       387  25  5.946986E+05  1.111027E+05  1.756660E+04  2.345063E+05  1.378543E+03 -2.044248E+03
       387  26  6.255660E+05  1.149049E+05  2.548496E+04  2.350737E+05  3.567785E+03 -2.635344E+03
       387  27  6.454776E+05  1.313476E+05  3.496537E+04  2.485111E+05  5.748273E+03 -3.203713E+03
       388   1  3.941796E+05  3.654229E+04 -2.778130E+04  1.811575E+05 -8.822774E+03  2.935573E+03
       388   2  3.740443E+05  1.852479E+04 -2.801451E+04  1.651139E+05 -1.652970E+04  1.406402E+03
       388   3  3.474959E+05  2.363327E+04 -1.973516E+04  1.595218E+05 -2.407523E+04 -5.465244E+02
       388   4  5.348684E+05  8.810275E+04  8.271079E+03  2.184554E+05 -7.955481E+03  3.264426E+03
       388   5  5.387501E+05  8.140912E+04  1.457594E+04  2.113731E+05 -1.592175E+04  1.636735E+03
       388   6  5.362682E+05  9.789030E+04  2.959707E+04  2.147418E+05 -2.372697E+04 -4.148444E+02
       388   7  6.755759E+05  1.396641E+05  4.432171E+04  2.557606E+05 -7.087976E+03  3.593355E+03
       388   8  7.034823E+05  1.442954E+05  5.716413E+04  2.576434E+05 -1.531362E+04  1.867137E+03
       388   9  7.250758E+05  1.721508E+05  7.892646E+04  2.699774E+05 -2.337860E+04 -2.831153E+02
       388  10  3.941795E+05  3.654226E+04 -2.778146E+04  1.811575E+05 -6.422364E-09  2.836418E-09
       388  11  3.740440E+05  1.852471E+04 -2.801503E+04  1.651139E+05  9.739756E-10  1.398479E-08
       388  12  3.474952E+05  2.363311E+04 -1.973625E+04  1.595218E+05  1.233767E-08  2.822488E-09
       388  13  5.348683E+05  8.810272E+04  8.270940E+03  2.184554E+05 -3.195579E-09 -3.109440E-09
       388  14  5.387498E+05  8.140905E+04  1.457546E+04  2.113731E+05 -5.208009E-09  1.298497E-08
       388  15  5.362676E+05  9.789015E+04  2.959601E+04  2.147418E+05 -1.348643E-09  8.160924E-09
       388  16  6.755758E+05  1.396640E+05  4.432159E+04  2.557606E+05  4.496264E-09  4.593845E-09
       388  17  7.034820E+05  1.442954E+05  5.716369E+04  2.576434E+05 -4.080405E-09 -7.935598E-09
       388  18  7.250753E+05  1.721506E+05  7.892543E+04  2.699774E+05 -6.178038E-09  9.814224E-09
       388  19  3.941796E+05  3.654229E+04 -2.778130E+04  1.811575E+05  8.822774E+03 -2.935573E+03
       388  20  3.740443E+05  1.852479E+04 -2.801451E+04  1.651139E+05  1.652970E+04 -1.406402E+03
       388  21  3.474959E+05  2.363327E+04 -1.973516E+04  1.595218E+05  2.407523E+04  5.465244E+02
       388  22  5.348684E+05  8.810275E+04  8.271079E+03  2.184554E+05  7.955481E+03 -3.264426E+03
       388  23  5.387501E+05  8.140912E+04  1.457594E+04  2.113731E+05  1.592175E+04 -1.636735E+03
       388  24  5.362682E+05  9.789030E+04  2.959707E+04  2.147418E+05  2.372697E+04  4.148444E+02
       388  25  6.755759E+05  1.396641E+05  4.432171E+04  2.557606E+05  7.087976E+03 -3.593355E+03
       388  26  7.034823E+05  1.442954E+05  5.716413E+04  2.576434E+05  1.531362E+04 -1.867137E+03
       388  27  7.250758E+05  1.721508E+05  7.892646E+04  2.699774E+05  2.337860E+04  2.831153E+02
       389   1  3.099999E+05  1.231156E+04 -1.984265E+04  1.749639E+05 -3.195001E+04 -1.605637E+03
       389   2  2.916971E+05 -3.118838E+04 -1.444108E+03  1.345426E+05 -6.144434E+04 -1.205262E+04
       389   3  3.126472E+05  6.154852E+04  7.293139E+04  7.481279E+04 -8.821969E+04 -2.967376E+04
       389   4  5.409667E+05  8.397113E+04  3.667652E+04  2.229923E+05 -2.939276E+04 -6.358658E+02
       389   5  5.287243E+05  6.997063E+04  6.191301E+04  2.119831E+05 -6.325564E+04 -1.274049E+04
       389   6  5.565780E+05  1.930380E+05  1.465718E+05  1.816704E+05 -9.440043E+04 -3.202119E+04
       389   7  7.719859E+05  1.556307E+05  9.319201E+04  2.710351E+05 -2.683446E+04  3.341451E+02
       389   8  7.658054E+05  1.711374E+05  1.252649E+05  2.894515E+05 -6.506768E+04 -1.342874E+04
       389   9  8.005673E+05  3.245504E+05  2.202056E+05  2.885706E+05 -1.005837E+05 -3.437056E+04
       389  10  3.099988E+05  1.231129E+04 -1.984457E+04  1.749638E+05 -1.133965E-08 -5.971372E-09
       389  11  2.916930E+05 -3.118955E+04 -1.451472E+03  1.345420E+05 -7.291193E-09 -6.434311E-09
       389  12  3.126386E+05  6.154549E+04  7.291512E+04  7.481069E+04  5.217951E-09  4.381289E-09
       389  13  5.409657E+05  8.397090E+04  3.667490E+04  2.229923E+05  1.227239E-09 -6.371029E-09
       389  14  5.287200E+05  6.996938E+04  6.190520E+04  2.119825E+05 -1.857989E-09  3.621677E-11
       389  15  5.565682E+05  1.930345E+05  1.465531E+05  1.816680E+05 -3.406346E-09  5.855292E-09
       389  16  7.719852E+05  1.556305E+05  9.319066E+04  2.710351E+05  1.814468E-08  2.767823E-08
       389  17  7.658008E+05  1.711361E+05  1.252566E+05  2.894508E+05 -1.060326E-09  7.395235E-09
       389  18  8.005561E+05  3.245464E+05  2.201844E+05  2.885678E+05 -7.522101E-09  5.614882E-09
       389  19  3.099999E+05  1.231156E+04 -1.984265E+04  1.749639E+05  3.195001E+04  1.605637E+03
       389  20  2.916971E+05 -3.118838E+04 -1.444108E+03  1.345426E+05  6.144434E+04  1.205262E+04
       389  21  3.126472E+05  6.154852E+04  7.293139E+04  7.481279E+04  8.821969E+04  2.967376E+04
       389  22  5.409667E+05  8.397113E+04  3.667652E+04  2.229923E+05  2.939276E+04  6.358658E+02
       389  23  5.287243E+05  6.997063E+04  6.191301E+04  2.119831E+05  6.325564E+04  1.274049E+04
       389  24  5.565780E+05  1.930380E+05  1.465718E+05  1.816704E+05  9.440043E+04  3.202119E+04
       389  25  7.719859E+05  1.556307E+05  9.319201E+04  2.710351E+05  2.683446E+04 -3.341451E+02
       389  26  7.658054E+05  1.711374E+05  1.252649E+05  2.894515E+05  6.506768E+04  1.342874E+04
       389  27  8.005673E+05  3.245504E+05  2.202056E+05  2.885706E+05  1.005837E+05  3.437056E+04
       390   1 -1.585300E+05 -8.148422E+05 -1.601111E+05  9.099232E+04 -5.676904E+03 -2.435118E+04
       390   2 -1.019404E+05 -6.615642E+05 -1.075635E+05  4.301503E+04 -1.568310E+04 -9.431079E+03
       390   3 -6.602599E+04 -5.146692E+05 -6.978640E+04  8.175686E+04 -1.053500E+04  5.534113E+03
       390   4 -1.665951E+04 -2.459681E+05 -2.021793E+04  8.358955E+04 -5.708065E+03 -1.300185E+04
       390   5  1.294713E+03 -2.436035E+05 -9.641676E+03  4.025454E+04 -1.568642E+04 -7.886973E+03
       390   6  2.861514E+02 -2.459352E+05 -7.014891E+03  8.363625E+04 -1.051479E+04 -2.730842E+03
       390   7  1.251871E+05  3.232011E+05  1.196519E+05  7.618016E+04 -5.739484E+03 -1.642129E+03
       390   8  1.045174E+05  1.745182E+05  8.826819E+04  3.749227E+04 -1.568975E+04 -6.341832E+03
       390   9  6.659323E+04  2.286559E+04  5.575197E+04  8.551649E+04 -1.049463E+04 -1.099935E+04
       390  10 -1.585302E+05 -8.148429E+05 -1.601123E+05  9.099221E+04 -5.534209E-10 -1.119461E-09
       390  11 -1.019406E+05 -6.615644E+05 -1.075641E+05  4.301491E+04 -1.817390E-09 -1.578424E-08
       390  12 -6.602612E+04 -5.146693E+05 -6.978667E+04  8.175691E+04  9.534813E-10  1.179618E-09
       390  13 -1.665959E+04 -2.459683E+05 -2.021831E+04  8.358949E+04  1.416073E-09 -4.261186E-09
       390  14  1.294432E+03 -2.436037E+05 -9.642255E+03  4.025444E+04 -3.879999E-09 -9.134134E-10
       390  15  2.860307E+02 -2.459352E+05 -7.015113E+03  8.363623E+04 -3.581025E-10 -1.219730E-08
       390  16  1.251871E+05  3.232011E+05  1.196518E+05  7.618016E+04 -8.424387E-10 -3.198944E-09
       390  17  1.045171E+05  1.745181E+05  8.826765E+04  3.749219E+04 -6.267351E-11  1.490749E-08
       390  18  6.659308E+04  2.286543E+04  5.575154E+04  8.551640E+04 -1.836207E-09  5.727016E-09
       390  19 -1.585300E+05 -8.148422E+05 -1.601111E+05  9.099232E+04  5.676904E+03  2.435118E+04
       390  20 -1.019404E+05 -6.615642E+05 -1.075635E+05  4.301503E+04  1.568310E+04  9.431079E+03
       390  21 -6.602599E+04 -5.146692E+05 -6.978640E+04  8.175686E+04  1.053500E+04 -5.534113E+03
       390  22 -1.665951E+04 -2.459681E+05 -2.021793E+04  8.358955E+04  5.708065E+03  1.300185E+04
       390  23  1.294713E+03 -2.436035E+05 -9.641676E+03  4.025454E+04  1.568642E+04  7.886973E+03
       390  24  2.861514E+02 -2.459352E+05 -7.014891E+03  8.363625E+04  1.051479E+04  2.730842E+03
       390  25  1.251871E+05  3.232011E+05  1.196519E+05  7.618016E+04  5.739484E+03  1.642129E+03
       390  26  1.045174E+05  1.745182E+05  8.826819E+04  3.749227E+04  1.568975E+04  6.341832E+03
       390  27  6.659323E+04  2.286559E+04  5.575197E+04  8.551649E+04  1.049463E+04  1.099935E+04
       391   1 -2.918138E+04 -3.566591E+05 -3.254877E+04  8.476977E+04 -4.426356E+03  2.299146E+03
       391   2  9.703966E+03 -2.060284E+05  2.985231E+03  3.996121E+04  1.501640E+03  5.309021E+03
       391   3  4.395717E+04 -5.637407E+04  3.551685E+04  8.243131E+04  7.329580E+03  8.319771E+03
       391   4 -1.649833E+03 -2.451009E+05 -6.513579E+03  8.374729E+04 -4.417181E+03 -1.577984E+03
       391   5  1.862442E+02 -2.445981E+05 -6.020916E+03  4.010647E+04  1.510823E+03  1.496364E+03
       391   6 -2.619663E+03 -2.451040E+05 -8.574293E+03  8.374492E+04  7.338703E+03  4.570879E+03
       391   7  2.588084E+04 -1.335312E+05  1.952083E+04  8.272462E+04 -4.407993E+03 -5.455807E+03
       391   8 -9.331576E+03 -2.831664E+05 -1.502711E+04  4.025172E+04  1.520004E+03 -2.316057E+03
       391   9 -4.919901E+04 -4.338011E+05 -5.266781E+04  8.505814E+04  7.347812E+03  8.231185E+02
       391  10 -2.918140E+04 -3.566591E+05 -3.254882E+04  8.476978E+04  2.754516E-10 -2.053706E-09
       391  11  9.703956E+03 -2.060284E+05  2.985174E+03  3.996121E+04  3.277457E-10 -1.545483E-08
       391  12  4.395710E+04 -5.637415E+04  3.551662E+04  8.243126E+04  1.465918E-09 -5.476227E-10
       391  13 -1.649855E+03 -2.451010E+05 -6.513621E+03  8.374728E+04  3.617402E-11 -1.319552E-11
       391  14  1.862412E+02 -2.445981E+05 -6.020925E+03  4.010647E+04  1.109573E-09 -3.731519E-09
       391  15 -2.619726E+03 -2.451040E+05 -8.574433E+03  8.374489E+04  3.974740E-09 -1.744942E-08
       391  16  2.588081E+04 -1.335313E+05  1.952074E+04  8.272460E+04 -1.459154E-09  3.126232E-09
       391  17 -9.331579E+03 -2.831664E+05 -1.502712E+04  4.025172E+04 -2.052480E-09  1.958457E-09
       391  18 -4.919907E+04 -4.338011E+05 -5.266791E+04  8.505814E+04  1.325138E-09  2.469989E-09
       391  19 -2.918138E+04 -3.566591E+05 -3.254877E+04  8.476977E+04  4.426356E+03 -2.299146E+03
       391  20  9.703966E+03 -2.060284E+05  2.985231E+03  3.996121E+04 -1.501640E+03 -5.309021E+03
       391  21  4.395717E+04 -5.637407E+04  3.551685E+04  8.243131E+04 -7.329580E+03 -8.319771E+03
       391  22 -1.649833E+03 -2.451009E+05 -6.513579E+03  8.374729E+04  4.417181E+03  1.577984E+03
       391  23  1.862442E+02 -2.445981E+05 -6.020916E+03  4.010647E+04 -1.510823E+03 -1.496364E+03
       391  24 -2.619663E+03 -2.451040E+05 -8.574293E+03  8.374492E+04 -7.338703E+03 -4.570879E+03
       391  25  2.588084E+04 -1.335312E+05  1.952083E+04  8.272462E+04  4.407993E+03  5.455807E+03
       391  26 -9.331576E+03 -2.831664E+05 -1.502711E+04  4.025172E+04 -1.520004E+03  2.316057E+03
       391  27 -4.919901E+04 -4.338011E+05 -5.266781E+04  8.505814E+04 -7.347812E+03 -8.231185E+02
       392   1  8.626115E+04  9.928737E+04  7.074892E+04  8.689278E+04  1.362853E+04  1.486170E+04
       392   2  1.245124E+05  2.524684E+05  1.006457E+05  3.606481E+04  1.861605E+04  1.206184E+04
       392   3  1.336201E+05  3.995348E+05  1.252433E+05  7.182727E+04  6.644064E+03  9.213348E+03
       392   4  9.366825E+02 -2.466891E+05 -9.982043E+03  8.361949E+04  1.365045E+04  6.134236E+03
       392   5  2.275934E+03 -2.426847E+05 -1.527739E+04  4.028071E+04  1.861095E+04  1.432241E+04
       392   6 -2.744725E+04 -2.467292E+05 -3.350776E+04  8.353820E+04  6.605891E+03  2.246235E+04
       392   7 -8.439617E+04 -5.925551E+05 -9.072083E+04  8.034810E+04  1.367247E+04 -2.588401E+03
       392   8 -1.199779E+05 -7.376117E+05 -1.312172E+05  4.449337E+04  1.860588E+04  1.658119E+04
       392   9 -1.885451E+05 -8.926124E+05 -1.922889E+05  9.523718E+04  6.568199E+03  3.569758E+04
       392  10  8.626089E+04  9.928708E+04  7.074815E+04  8.689262E+04  2.422416E-09 -4.982710E-09
       392  11  1.245120E+05  2.524681E+05  1.006448E+05  3.606463E+04 -1.037704E-09 -1.150744E-08
       392  12  1.336201E+05  3.995347E+05  1.252431E+05  7.182722E+04 -1.543945E-09  2.747727E-09
       392  13  9.364724E+02 -2.466892E+05 -9.982464E+03  8.361943E+04  2.960577E-10 -4.504435E-11
       392  14  2.275507E+03 -2.426850E+05 -1.527843E+04  4.028049E+04 -2.402057E-10  2.011762E-10
       392  15 -2.744743E+04 -2.467297E+05 -3.350879E+04  8.353808E+04 -1.407872E-09 -1.055133E-08
       392  16 -8.439638E+04 -5.925551E+05 -9.072119E+04  8.034813E+04  2.623656E-09  3.948140E-09
       392  17 -1.199784E+05 -7.376121E+05 -1.312184E+05  4.449312E+04 -1.294343E-09  8.508742E-09
       392  18 -1.885455E+05 -8.926138E+05 -1.922914E+05  9.523699E+04 -1.968730E-09  4.391473E-09
       392  19  8.626115E+04  9.928737E+04  7.074892E+04  8.689278E+04 -1.362853E+04 -1.486170E+04
       392  20  1.245124E+05  2.524684E+05  1.006457E+05  3.606481E+04 -1.861605E+04 -1.206184E+04
       392  21  1.336201E+05  3.995348E+05  1.252433E+05  7.182727E+04 -6.644064E+03 -9.213348E+03
       392  22  9.366825E+02 -2.466891E+05 -9.982043E+03  8.361949E+04 -1.365045E+04 -6.134236E+03
       392  23  2.275934E+03 -2.426847E+05 -1.527739E+04  4.028071E+04 -1.861095E+04 -1.432241E+04
       392  24 -2.744725E+04 -2.467292E+05 -3.350776E+04  8.353820E+04 -6.605891E+03 -2.246235E+04
       392  25 -8.439617E+04 -5.925551E+05 -9.072083E+04  8.034810E+04 -1.367247E+04  2.588401E+03
       392  26 -1.199779E+05 -7.376117E+05 -1.312172E+05  4.449337E+04 -1.860588E+04 -1.658119E+04
       392  27 -1.885451E+05 -8.926124E+05 -1.922889E+05  9.523718E+04 -6.568199E+03 -3.569758E+04
       393   1  3.669048E+05 -8.518143E+04 -7.801637E+04 -8.763275E+03  9.182342E+03  4.974207E+03
       393   2  3.960309E+05 -1.009085E+05 -8.112489E+04 -5.461782E+03  9.321158E+03  1.523026E+04
       393   3  4.314126E+05 -9.213448E+04 -7.817316E+04 -2.051340E+04  9.470374E+03  1.494630E+04
       393   4  8.000619E+05  2.259876E+04  2.810553E+04 -1.707295E+04  1.925667E+04  4.983974E+03
       393   5  7.963521E+05 -2.182327E+03  1.246736E+04 -7.885997E+03  1.255923E+04  1.523222E+04
       393   6  8.000777E+05 -1.284994E+03  7.629235E+03 -1.705116E+04  5.872172E+03  1.494348E+04
       393   7  1.233390E+06  1.303654E+05  1.342141E+05 -2.538847E+04  2.933800E+04  4.993468E+03
       393   8  1.196821E+06  9.653254E+04  1.060488E+05 -1.031181E+04  1.579938E+04  1.523416E+04
       393   9  1.168868E+06  8.955495E+04  9.342251E+04 -1.358686E+04  2.271848E+03  1.494061E+04
       393  10  3.669047E+05 -8.518148E+04 -7.801657E+04 -8.763311E+03 -3.183000E-10  8.061466E-11
       393  11  3.960307E+05 -1.009088E+05 -8.112549E+04 -5.461896E+03 -8.919964E-10  9.261308E-11
       393  12  4.314125E+05 -9.213474E+04 -7.817375E+04 -2.051351E+04 -3.814091E-10  7.842388E-11
       393  13  8.000615E+05  2.259863E+04  2.810479E+04 -1.707303E+04  2.831022E-11  9.924711E-11
       393  14  7.963518E+05 -2.182618E+03  1.246663E+04 -7.886151E+03 -2.037334E-10  1.700893E-10
       393  15  8.000776E+05 -1.285244E+03  7.628750E+03 -1.705123E+04  6.734597E-11  2.983929E-12
       393  16  1.233389E+06  1.303651E+05  1.342125E+05 -2.538859E+04  2.759349E-10  1.336483E-10
       393  17  1.196821E+06  9.653223E+04  1.060478E+05 -1.031201E+04  1.256546E-09  3.639593E-10
       393  18  1.168868E+06  8.955471E+04  9.342208E+04 -1.358689E+04 -9.947876E-11 -4.353337E-11
       393  19  3.669048E+05 -8.518143E+04 -7.801637E+04 -8.763275E+03 -9.182342E+03 -4.974207E+03
       393  20  3.960309E+05 -1.009085E+05 -8.112489E+04 -5.461782E+03 -9.321158E+03 -1.523026E+04
       393  21  4.314126E+05 -9.213448E+04 -7.817316E+04 -2.051340E+04 -9.470374E+03 -1.494630E+04
       393  22  8.000619E+05  2.259876E+04  2.810553E+04 -1.707295E+04 -1.925667E+04 -4.983974E+03
       393  23  7.963521E+05 -2.182327E+03  1.246736E+04 -7.885997E+03 -1.255923E+04 -1.523222E+04
       393  24  8.000777E+05 -1.284994E+03  7.629235E+03 -1.705116E+04 -5.872172E+03 -1.494348E+04
       393  25  1.233390E+06  1.303654E+05  1.342141E+05 -2.538847E+04 -2.933800E+04 -4.993468E+03
       393  26  1.196821E+06  9.653254E+04  1.060488E+05 -1.031181E+04 -1.579938E+04 -1.523416E+04
       393  27  1.168868E+06  8.955495E+04  9.342251E+04 -1.358686E+04 -2.271848E+03 -1.494061E+04
       394   1  4.631950E+05 -8.085597E+04 -7.224676E+04 -1.654200E+04  5.066020E+03  1.275213E+04
       394   2  4.941460E+05 -7.517689E+04 -6.769596E+04 -7.860812E+03  3.797440E+03  1.193871E+04
       394   3  5.258770E+05 -6.737175E+04 -6.177039E+04 -1.738270E+04  2.528384E+03  1.055485E+04
       394   4  7.986167E+05  1.865384E+03  6.172081E+03 -1.702465E+04  4.725720E+03  1.275147E+04
       394   5  7.981983E+05 -2.247193E+02  3.227370E+03 -7.922944E+03  3.086498E+03  1.193802E+04
       394   6  7.986227E+05 -1.250054E+02  1.914065E+03 -1.702373E+04  1.446865E+03  1.055426E+04
       394   7  1.134142E+06  8.457876E+04  8.458327E+04 -1.750758E+04  4.385236E+03  1.275082E+04
       394   8  1.102336E+06  7.472092E+04  7.414444E+04 -7.985114E+03  2.375211E+03  1.193734E+04
       394   9  1.071437E+06  6.711648E+04  6.559348E+04 -1.666462E+04  3.648752E+02  1.055368E+04
       394  10  4.631949E+05 -8.085615E+04 -7.224711E+04 -1.654205E+04 -4.046451E-10 -4.283414E-11
       394  11  4.941460E+05 -7.517705E+04 -6.769625E+04 -7.860848E+03 -5.679538E-10  1.042017E-10
       394  12  5.258770E+05 -6.737187E+04 -6.177062E+04 -1.738272E+04 -9.452859E-11  1.420608E-10
       394  13  7.986166E+05  1.865203E+03  6.171733E+03 -1.702470E+04 -4.323285E-11 -6.313542E-11
       394  14  7.981982E+05 -2.248750E+02  3.227084E+03 -7.922973E+03 -1.680396E-10 -2.586327E-11
       394  15  7.986226E+05 -1.251256E+02  1.913851E+03 -1.702375E+04 -2.091513E-11  2.358445E-10
       394  16  1.134142E+06  8.457858E+04  8.458293E+04 -1.750762E+04  3.670010E-10 -1.435429E-10
       394  17  1.102336E+06  7.472076E+04  7.414416E+04 -7.985137E+03  6.624072E-10  1.912197E-10
       394  18  1.071437E+06  6.711636E+04  6.559327E+04 -1.666462E+04 -8.363011E-11  9.440309E-11
       394  19  4.631950E+05 -8.085597E+04 -7.224676E+04 -1.654200E+04 -5.066020E+03 -1.275213E+04
       394  20  4.941460E+05 -7.517689E+04 -6.769596E+04 -7.860812E+03 -3.797440E+03 -1.193871E+04
       394  21  5.258770E+05 -6.737175E+04 -6.177039E+04 -1.738270E+04 -2.528384E+03 -1.055485E+04
       394  22  7.986167E+05  1.865384E+03  6.172081E+03 -1.702465E+04 -4.725720E+03 -1.275147E+04
       394  23  7.981983E+05 -2.247193E+02  3.227370E+03 -7.922944E+03 -3.086498E+03 -1.193802E+04
       394  24  7.986227E+05 -1.250054E+02  1.914065E+03 -1.702373E+04 -1.446865E+03 -1.055426E+04
       394  25  1.134142E+06  8.457876E+04  8.458327E+04 -1.750758E+04 -4.385236E+03 -1.275082E+04
       394  26  1.102336E+06  7.472092E+04  7.414444E+04 -7.985114E+03 -2.375211E+03 -1.193734E+04
       394  27  1.071437E+06  6.711648E+04  6.559348E+04 -1.666462E+04 -3.648752E+02 -1.055368E+04
       395   1  5.581288E+05 -5.909222E+04 -5.447718E+04 -1.696327E+04  2.043573E+03  9.643224E+03
       395   2  5.888155E+05 -5.169313E+04 -4.801121E+04 -8.031892E+03  1.627745E+03  8.246889E+03
       395   3  6.196376E+05 -4.411091E+04 -4.122140E+04 -1.697991E+04  1.211393E+03  6.826347E+03
       395   4  7.984701E+05  1.347858E+02  1.495327E+03 -1.695212E+04  1.146321E+03  9.642807E+03
       395   5  7.984029E+05 -3.202318E+01  8.665983E+02 -8.012603E+03  7.146346E+02  8.246617E+03
       395   6  7.984734E+05 -1.281115E+01  5.727841E+02 -1.695211E+04  2.824439E+02  6.826227E+03
       395   7  1.038865E+06  5.935772E+04  5.746393E+04 -1.694098E+04  2.487249E+02  9.642390E+03
       395   8  1.008031E+06  5.162598E+04  4.974143E+04 -7.993308E+03 -1.987820E+02  8.246345E+03
       395   9  9.773388E+05  4.408302E+04  4.236480E+04 -1.692429E+04 -6.467710E+02  6.826107E+03
       395  10  5.581288E+05 -5.909232E+04 -5.447736E+04 -1.696329E+04 -1.830527E-11  5.098989E-11
       395  11  5.888155E+05 -5.169321E+04 -4.801134E+04 -8.031903E+03 -3.958716E-11 -7.881566E-11
       395  12  6.196375E+05 -4.411096E+04 -4.122149E+04 -1.697992E+04 -7.152817E-11  6.027979E-11
       395  13  7.984701E+05  1.346856E+02  1.495149E+03 -1.695213E+04  2.406614E-11  1.018802E-11
       395  14  7.984029E+05 -3.209637E+01  8.664695E+02 -8.012608E+03  1.951337E-11  1.531852E-10
       395  15  7.984734E+05 -1.286123E+01  5.726964E+02 -1.695211E+04  5.349085E-12  8.626626E-11
       395  16  1.038865E+06  5.935762E+04  5.746376E+04 -1.694098E+04 -3.453098E-11  2.382352E-11
       395  17  1.008031E+06  5.162591E+04  4.974131E+04 -7.993307E+03  1.243874E-10  6.384060E-11
       395  18  9.773387E+05  4.408297E+04  4.236471E+04 -1.692429E+04  3.859475E-11 -1.201307E-11
       395  19  5.581288E+05 -5.909222E+04 -5.447718E+04 -1.696327E+04 -2.043573E+03 -9.643224E+03
       395  20  5.888155E+05 -5.169313E+04 -4.801121E+04 -8.031892E+03 -1.627745E+03 -8.246889E+03
       395  21  6.196376E+05 -4.411091E+04 -4.122140E+04 -1.697991E+04 -1.211393E+03 -6.826347E+03
       395  22  7.984701E+05  1.347858E+02  1.495327E+03 -1.695212E+04 -1.146321E+03 -9.642807E+03
       395  23  7.984029E+05 -3.202318E+01  8.665983E+02 -8.012603E+03 -7.146346E+02 -8.246617E+03
       395  24  7.984734E+05 -1.281115E+01  5.727841E+02 -1.695211E+04 -2.824439E+02 -6.826227E+03
       395  25  1.038865E+06  5.935772E+04  5.746393E+04 -1.694098E+04 -2.487249E+02 -9.642390E+03
       395  26  1.008031E+06  5.162598E+04  4.974143E+04 -7.993308E+03  1.987820E+02 -8.246345E+03
       395  27  9.773388E+05  4.408302E+04  4.236480E+04 -1.692429E+04  6.467710E+02 -6.826107E+03
       396   1  6.515231E+05 -3.619103E+04 -3.367996E+04 -1.690199E+04  1.102138E+03  5.997332E+03
       396   2  6.818871E+05 -2.873233E+04 -2.673959E+04 -8.060653E+03  8.832960E+02  4.586356E+03
       396   3  7.122926E+05 -2.124871E+04 -1.964942E+04 -1.688799E+04  6.641560E+02  3.178059E+03
       396   4  7.984544E+05  6.373628E+00  4.933096E+02 -1.690532E+04  1.862601E+02  5.997289E+03
       396   5  7.984352E+05 -6.104364E+00  4.386990E+02 -8.071087E+03 -3.091189E+01  4.586395E+03
       396   6  7.984561E+05  5.990490E+00  5.326383E+02 -1.690532E+04 -2.483713E+02  3.178182E+03
       396   7  9.454056E+05  3.620226E+04  3.466513E+04 -1.690865E+04 -7.298328E+02  5.997246E+03
       396   8  9.149959E+05  2.871916E+04  2.761607E+04 -8.081521E+03 -9.452901E+02  4.586433E+03
       396   9  8.846264E+05  2.126016E+04  2.071419E+04 -1.692265E+04 -1.161024E+03  3.178306E+03
       396  10  6.515230E+05 -3.619107E+04 -3.368003E+04 -1.690199E+04 -1.341552E-11  8.106645E-11
       396  11  6.818871E+05 -2.873235E+04 -2.673963E+04 -8.060657E+03  1.866573E-10 -1.693494E-11
       396  12  7.122926E+05 -2.124872E+04 -1.964944E+04 -1.688799E+04  2.533755E-10  5.456710E-11
       396  13  7.984543E+05  6.334981E+00  4.932419E+02 -1.690532E+04 -9.020818E-11  5.144986E-11
       396  14  7.984352E+05 -6.126961E+00  4.386594E+02 -8.071086E+03 -9.815637E-11  1.166838E-12
       396  15  7.984561E+05  5.979623E+00  5.326192E+02 -1.690532E+04 -7.079003E-11  8.777979E-11
       396  16  9.454055E+05  3.620222E+04  3.466506E+04 -1.690865E+04  4.949137E-11 -5.351889E-11
       396  17  9.149959E+05  2.871914E+04  2.761603E+04 -8.081518E+03 -1.530181E-10 -1.733432E-11
       396  18  8.846264E+05  2.126015E+04  2.071417E+04 -1.692265E+04 -1.355004E-10  2.674168E-10
       396  19  6.515231E+05 -3.619103E+04 -3.367996E+04 -1.690199E+04 -1.102138E+03 -5.997332E+03
       396  20  6.818871E+05 -2.873233E+04 -2.673959E+04 -8.060653E+03 -8.832960E+02 -4.586356E+03
       396  21  7.122926E+05 -2.124871E+04 -1.964942E+04 -1.688799E+04 -6.641560E+02 -3.178059E+03
       396  22  7.984544E+05  6.373628E+00  4.933096E+02 -1.690532E+04 -1.862601E+02 -5.997289E+03
       396  23  7.984352E+05 -6.104364E+00  4.386990E+02 -8.071087E+03  3.091189E+01 -4.586395E+03
       396  24  7.984561E+05  5.990490E+00  5.326383E+02 -1.690532E+04  2.483713E+02 -3.178182E+03
       396  25  9.454056E+05  3.620226E+04  3.466513E+04 -1.690865E+04  7.298328E+02 -5.997246E+03
       396  26  9.149959E+05  2.871916E+04  2.761607E+04 -8.081521E+03  9.452901E+02 -4.586433E+03
       396  27  8.846264E+05  2.126016E+04  2.071419E+04 -1.692265E+04  1.161024E+03 -3.178306E+03
       397   1  7.439325E+05 -1.342142E+04 -1.199013E+04 -1.685847E+04  5.566437E+02  2.359963E+03
       397   2  7.741204E+05 -6.001139E+03 -4.665379E+03 -8.072401E+03  5.842207E+01  9.565287E+02
       397   3  8.043870E+05  1.499797E+03  3.001895E+03 -1.686079E+04 -4.398825E+02 -4.448758E+02
       397   4  7.984656E+05  1.060595E+00  6.358139E+02 -1.688442E+04 -3.543371E+02  2.360120E+03
       397   5  7.984268E+05 -1.053523E+01  1.002382E+03 -8.097205E+03 -8.512776E+02  9.567004E+02
       397   6  7.984657E+05  5.836621E+01  1.710635E+03 -1.688441E+04 -1.348277E+03 -4.446854E+02
       397   7  8.530014E+05  1.342333E+04  1.326156E+04 -1.691038E+04 -1.265397E+03  2.360276E+03
       397   8  8.227338E+05  5.980027E+03  6.670105E+03 -8.122011E+03 -1.761013E+03  9.568721E+02
       397   9  7.925445E+05 -1.383067E+03  4.193750E+02 -1.690802E+04 -2.256663E+03 -4.444949E+02
       397  10  7.439325E+05 -1.342142E+04 -1.199014E+04 -1.685847E+04  1.179770E-10  2.149722E-10
       397  11  7.741204E+05 -6.001140E+03 -4.665381E+03 -8.072401E+03  1.896692E-10 -1.098438E-10
       397  12  8.043870E+05  1.499797E+03  3.001895E+03 -1.686079E+04  2.303241E-10  5.475157E-11
       397  13  7.984656E+05  1.054577E+00  6.358032E+02 -1.688442E+04 -4.757498E-12  6.446444E-11
       397  14  7.984268E+05 -1.053641E+01  1.002378E+03 -8.097205E+03  1.015021E-10 -1.278349E-11
       397  15  7.984657E+05  5.836551E+01  1.710631E+03 -1.688441E+04 -2.433124E-11 -6.909154E-11
       397  16  8.530014E+05  1.342332E+04  1.326155E+04 -1.691038E+04 -2.102420E-10  1.271387E-10
       397  17  8.227338E+05  5.980025E+03  6.670098E+03 -8.122009E+03 -4.010406E-10 -9.728376E-12
       397  18  7.925445E+05 -1.383068E+03  4.193651E+02 -1.690802E+04 -7.955763E-11 -1.335862E-10
       397  19  7.439325E+05 -1.342142E+04 -1.199013E+04 -1.685847E+04 -5.566437E+02 -2.359963E+03
       397  20  7.741204E+05 -6.001139E+03 -4.665379E+03 -8.072401E+03 -5.842207E+01 -9.565287E+02
       397  21  8.043870E+05  1.499797E+03  3.001895E+03 -1.686079E+04  4.398825E+02  4.448758E+02
       397  22  7.984656E+05  1.060595E+00  6.358139E+02 -1.688442E+04  3.543371E+02 -2.360120E+03
       397  23  7.984268E+05 -1.053523E+01  1.002382E+03 -8.097205E+03  8.512776E+02 -9.567004E+02
       397  24  7.984657E+05  5.836621E+01  1.710635E+03 -1.688441E+04  1.348277E+03  4.446854E+02
       397  25  8.530014E+05  1.342333E+04  1.326156E+04 -1.691038E+04  1.265397E+03 -2.360276E+03
       397  26  8.227338E+05  5.980027E+03  6.670105E+03 -8.122011E+03  1.761013E+03 -9.568721E+02
       397  27  7.925445E+05 -1.383067E+03  4.193750E+02 -1.690802E+04  2.256663E+03  4.444949E+02
       398   1  8.360485E+05  9.222296E+03  1.105818E+04 -1.674088E+04 -7.869124E+02 -1.263753E+03
       398   2  8.660917E+05  1.660584E+04  1.962875E+04 -8.075154E+03 -2.707691E+03 -2.665285E+03
       398   3  8.966040E+05  2.487792E+04  2.966963E+04 -1.701227E+04 -4.628371E+03 -4.047880E+03
       398   4  7.985518E+05 -3.663175E+01  2.225778E+03 -1.689079E+04 -1.702328E+03 -1.263571E+03
       398   5  7.983174E+05 -9.706582E+01  3.825559E+03 -8.089249E+03 -3.610642E+03 -2.665156E+03
       398   6  7.985496E+05  7.291325E+02  6.887336E+03 -1.689066E+04 -5.518766E+03 -4.047800E+03
       398   7  7.610563E+05 -9.295659E+03 -6.606722E+03 -1.704069E+04 -2.617688E+03 -1.263389E+03
       398   8  7.305473E+05 -1.680030E+04 -1.197794E+04 -8.103342E+03 -4.513495E+03 -2.665026E+03
       398   9  7.005041E+05 -2.342034E+04 -1.589560E+04 -1.676907E+04 -6.409022E+03 -4.047719E+03
       398  10  8.360485E+05  9.222294E+03  1.105818E+04 -1.674088E+04  1.984654E-10 -8.456078E-11
       398  11  8.660917E+05  1.660584E+04  1.962872E+04 -8.075160E+03  2.426972E-10 -5.239561E-11
       398  12  8.966039E+05  2.487790E+04  2.966956E+04 -1.701229E+04  1.845799E-10 -3.018215E-11
       398  13  7.985518E+05 -3.663424E+01  2.225769E+03 -1.689079E+04  8.044300E-11 -7.989876E-11
       398  14  7.983174E+05 -9.707695E+01  3.825521E+03 -8.089257E+03 -5.839462E-11 -5.438804E-11
       398  15  7.985496E+05  7.291067E+02  6.887248E+03 -1.689068E+04 -3.749298E-11  2.018848E-12
       398  16  7.610563E+05 -9.295663E+03 -6.606738E+03 -1.704070E+04 -7.826746E-11  3.321087E-11
       398  17  7.305473E+05 -1.680031E+04 -1.197799E+04 -8.103351E+03 -3.312538E-10 -2.186038E-11
       398  18  7.005040E+05 -2.342037E+04 -1.589571E+04 -1.676910E+04 -1.250460E-10  1.030949E-10
       398  19  8.360485E+05  9.222296E+03  1.105818E+04 -1.674088E+04  7.869124E+02  1.263753E+03
       398  20  8.660917E+05  1.660584E+04  1.962875E+04 -8.075154E+03  2.707691E+03  2.665285E+03
       398  21  8.966040E+05  2.487792E+04  2.966963E+04 -1.701227E+04  4.628371E+03  4.047880E+03
       398  22  7.985518E+05 -3.663175E+01  2.225778E+03 -1.689079E+04  1.702328E+03  1.263571E+03
       398  23  7.983174E+05 -9.706582E+01  3.825559E+03 -8.089249E+03  3.610642E+03  2.665156E+03
       398  24  7.985496E+05  7.291325E+02  6.887336E+03 -1.689066E+04  5.518766E+03  4.047800E+03
       398  25  7.610563E+05 -9.295659E+03 -6.606722E+03 -1.704069E+04  2.617688E+03  1.263389E+03
       398  26  7.305473E+05 -1.680030E+04 -1.197794E+04 -8.103342E+03  4.513495E+03  2.665026E+03
       398  27  7.005041E+05 -2.342034E+04 -1.589560E+04 -1.676907E+04  6.409022E+03  4.047719E+03
       399   1  9.290434E+05  3.150319E+04  3.922854E+04 -1.547711E+04 -5.895985E+03 -4.917508E+03
       399   2  9.577600E+05  3.857004E+04  5.254215E+04 -8.789312E+03 -1.384557E+04 -6.287735E+03
       399   3  9.901235E+05  5.602208E+04  7.362523E+04 -1.984039E+04 -2.179536E+04 -7.274865E+03
       399   4  7.992454E+05 -4.995727E+02  8.885492E+03 -1.692099E+04 -6.908563E+03 -4.917453E+03
       399   5  7.974394E+05 -9.401725E+02  1.515456E+04 -8.051497E+03 -1.460785E+04 -6.287841E+03
       399   6  7.992369E+05  8.962569E+03  2.902098E+04 -1.692103E+04 -2.230697E+04 -7.275140E+03
       399   7  6.694630E+05 -3.250352E+04 -2.145870E+04 -1.836456E+04 -7.920930E+03 -4.917393E+03
       399   8  6.371425E+05 -4.045220E+04 -2.223477E+04 -7.313874E+03 -1.536995E+04 -6.287948E+03
       399   9  6.083838E+05 -3.809949E+04 -1.558574E+04 -1.400258E+04 -2.281842E+04 -7.275420E+03
       399  10  9.290434E+05  3.150316E+04  3.922843E+04 -1.547714E+04  5.697941E-10 -1.782864E-10
       399  11  9.577598E+05  3.856994E+04  5.254172E+04 -8.789382E+03  7.286350E-10 -6.475634E-10
       399  12  9.901230E+05  5.602189E+04  7.362424E+04 -1.984052E+04  1.013708E-09 -2.832997E-10
       399  13  7.992454E+05 -4.996114E+02  8.885357E+03 -1.692101E+04 -7.178808E-11 -1.687360E-10
       399  14  7.974392E+05 -9.402722E+02  1.515408E+04 -8.051571E+03  3.669158E-11 -4.705152E-10
       399  15  7.992363E+05  8.962379E+03  2.901995E+04 -1.692117E+04 -1.409930E-10 -2.006190E-10
       399  16  6.694629E+05 -3.250357E+04 -2.145886E+04 -1.836459E+04 -5.360491E-10 -2.118445E-10
       399  17  6.371422E+05 -4.045230E+04 -2.223529E+04 -7.313951E+03 -7.236333E-10 -3.266037E-10
       399  18  6.083832E+05 -3.809968E+04 -1.558681E+04 -1.400272E+04 -1.202500E-09 -1.302930E-10
       399  19  9.290434E+05  3.150319E+04  3.922854E+04 -1.547711E+04  5.895985E+03  4.917508E+03
       399  20  9.577600E+05  3.857004E+04  5.254215E+04 -8.789312E+03  1.384557E+04  6.287735E+03
       399  21  9.901235E+05  5.602208E+04  7.362523E+04 -1.984039E+04  2.179536E+04  7.274865E+03
       399  22  7.992454E+05 -4.995727E+02  8.885492E+03 -1.692099E+04  6.908563E+03  4.917453E+03
       399  23  7.974394E+05 -9.401725E+02  1.515456E+04 -8.051497E+03  1.460785E+04  6.287841E+03
       399  24  7.992369E+05  8.962569E+03  2.902098E+04 -1.692103E+04  2.230697E+04  7.275140E+03
       399  25  6.694630E+05 -3.250352E+04 -2.145870E+04 -1.836456E+04  7.920930E+03  4.917393E+03
       399  26  6.371425E+05 -4.045220E+04 -2.223477E+04 -7.313874E+03  1.536995E+04  6.287948E+03
       399  27  6.083838E+05 -3.809949E+04 -1.558574E+04 -1.400258E+04  2.281842E+04  7.275420E+03
       400   1  1.029161E+06  4.909856E+04  8.779801E+04 -1.439863E+03 -2.500805E+04 -9.000471E+03
       400   2  1.042669E+06  5.250650E+04  1.180621E+05 -2.058340E+04 -6.109604E+04 -9.638550E+03
       400   3  1.091310E+06  1.775203E+05  2.022064E+05 -5.754904E+04 -9.718812E+04 -3.223134E+03
       400   4  8.060755E+05 -5.860628E+03  3.588013E+04 -1.693057E+04 -2.770041E+04 -9.000328E+03
       400   5  7.888766E+05 -1.005743E+04  5.874337E+04 -8.036184E+03 -5.920243E+04 -9.639635E+03
       400   6  8.060292E+05  1.065804E+05  1.323200E+05 -1.696208E+04 -9.070643E+04 -3.227422E+03
       400   7  5.830362E+05 -6.082242E+04 -1.604096E+04 -3.241568E+04 -3.039181E+04 -9.000051E+03
       400   8  5.351439E+05 -7.262532E+04 -5.796671E+02  4.505871E+03 -5.730958E+04 -9.640643E+03
       400   9  5.208257E+05  3.564081E+04  6.242866E+04  2.360622E+04 -8.422771E+04 -3.230866E+03
       400  10  1.029161E+06  4.909830E+04  8.779668E+04 -1.440045E+03  7.293885E-09  2.776938E-10
       400  11  1.042665E+06  5.250540E+04  1.180550E+05 -2.058387E+04 -3.703681E-11  4.191763E-10
       400  12  1.091300E+06  1.775177E+05  2.021887E+05 -5.754929E+04 -5.978865E-09  2.212885E-10
       400  13  8.060747E+05 -5.860920E+03  3.587853E+04 -1.693077E+04 -6.697220E-11  2.980868E-10
       400  14  7.888728E+05 -1.005847E+04  5.873662E+04 -8.036644E+03 -5.790651E-11  5.726913E-10
       400  15  8.060204E+05  1.065782E+05  1.323045E+05 -1.696231E+04 -1.338593E-10  2.678427E-10
       400  16  5.830352E+05 -6.082276E+04 -1.604285E+04 -3.241590E+04 -7.098382E-09  3.298408E-10
       400  17  5.351404E+05 -7.262630E+04 -5.860083E+02  4.505426E+03  2.047343E-10  8.307530E-10
       400  18  5.208181E+05  3.563889E+04  6.241532E+04  2.360601E+04  5.790409E-09  3.090411E-10
       400  19  1.029161E+06  4.909856E+04  8.779801E+04 -1.439863E+03  2.500805E+04  9.000471E+03
       400  20  1.042669E+06  5.250650E+04  1.180621E+05 -2.058340E+04  6.109604E+04  9.638550E+03
       400  21  1.091310E+06  1.775203E+05  2.022064E+05 -5.754904E+04  9.718812E+04  3.223134E+03
       400  22  8.060755E+05 -5.860628E+03  3.588013E+04 -1.693057E+04  2.770041E+04  9.000328E+03
       400  23  7.888766E+05 -1.005743E+04  5.874337E+04 -8.036184E+03  5.920243E+04  9.639635E+03
       400  24  8.060292E+05  1.065804E+05  1.323200E+05 -1.696208E+04  9.070643E+04  3.227422E+03
       400  25  5.830362E+05 -6.082242E+04 -1.604096E+04 -3.241568E+04  3.039181E+04  9.000051E+03
       400  26  5.351439E+05 -7.262532E+04 -5.796671E+02  4.505871E+03  5.730958E+04  9.640643E+03
       400  27  5.208257E+05  3.564081E+04  6.242866E+04  2.360622E+04  8.422771E+04  3.230866E+03
       401   1 -1.831650E+05 -9.095403E+04 -8.724401E+04 -1.515869E+04 -1.688725E+03  4.571489E+03
       401   2 -1.504780E+05 -9.138088E+04 -8.090163E+04 -7.868848E+03  2.040734E+03  1.394878E+04
       401   3 -1.159193E+05 -8.278104E+04 -7.471165E+04 -1.974551E+04  5.773270E+03  1.351044E+04
       401   4  2.177545E+05  8.887078E+03  1.105617E+04 -1.846124E+04  7.568643E+03  4.574228E+03
       401   5  2.162710E+05 -8.726449E+02  4.899097E+03 -8.877252E+03  4.938105E+03  1.394865E+04
       401   6  2.177616E+05 -5.042642E+02  3.005189E+03 -1.845905E+04  2.310558E+03  1.351005E+04
       401   7  6.188206E+05  1.087164E+05  1.093449E+05 -2.176594E+04  1.683198E+04  4.576867E+03
       401   8  5.831441E+05  8.962605E+04  9.069070E+04 -9.886258E+03  7.837177E+03  1.394852E+04
       401   9  5.515452E+05  8.176466E+04  8.071455E+04 -1.717188E+04 -1.154003E+03  1.350965E+04
       401  10 -1.831650E+05 -9.095406E+04 -8.724405E+04 -1.515868E+04 -9.943892E-11  5.530258E-11
       401  11 -1.504781E+05 -9.138109E+04 -8.090200E+04 -7.868871E+03 -2.233985E-10  6.111094E-11
       401  12 -1.159194E+05 -8.278125E+04 -7.471205E+04 -1.974557E+04 -3.656408E-11  3.947269E-12
       401  13  2.177545E+05  8.887040E+03  1.105602E+04 -1.846127E+04 -2.367006E-11 -4.251834E-11
       401  14  2.162710E+05 -8.728604E+02  4.898686E+03 -8.877307E+03  2.211715E-10  4.834777E-11
       401  15  2.177615E+05 -5.044617E+02  3.004836E+03 -1.845907E+04  6.857250E-11  4.938279E-11
       401  16  6.188203E+05  1.087163E+05  1.093443E+05 -2.176600E+04  1.368037E-10  1.311939E-10
       401  17  5.831440E+05  8.962583E+04  9.069022E+04 -9.886346E+03  5.734152E-11 -4.423545E-11
       401  18  5.515451E+05  8.176446E+04  8.071420E+04 -1.717187E+04 -1.043834E-11 -5.928968E-11
       401  19 -1.831650E+05 -9.095403E+04 -8.724401E+04 -1.515869E+04  1.688725E+03 -4.571489E+03
       401  20 -1.504780E+05 -9.138088E+04 -8.090163E+04 -7.868848E+03 -2.040734E+03 -1.394878E+04
       401  21 -1.159193E+05 -8.278104E+04 -7.471165E+04 -1.974551E+04 -5.773270E+03 -1.351044E+04
       401  22  2.177545E+05  8.887078E+03  1.105617E+04 -1.846124E+04 -7.568643E+03 -4.574228E+03
       401  23  2.162710E+05 -8.726449E+02  4.899097E+03 -8.877252E+03 -4.938105E+03 -1.394865E+04
       401  24  2.177616E+05 -5.042642E+02  3.005189E+03 -1.845905E+04 -2.310558E+03 -1.351005E+04
       401  25  6.188206E+05  1.087164E+05  1.093449E+05 -2.176594E+04 -1.683198E+04 -4.576867E+03
       401  26  5.831441E+05  8.962605E+04  9.069070E+04 -9.886258E+03 -7.837177E+03 -1.394852E+04
       401  27  5.515452E+05  8.176466E+04  8.071455E+04 -1.717188E+04  1.154003E+03 -1.350965E+04
       402   1 -8.145122E+04 -7.295908E+04 -6.742700E+04 -1.823828E+04  2.296030E+03  1.136536E+04
       402   2 -4.826336E+04 -6.552389E+04 -6.064256E+04 -8.714547E+03  1.997581E+03  1.041896E+04
       402   3 -1.479242E+04 -5.727043E+04 -5.345083E+04 -1.856223E+04  1.698381E+03  8.933675E+03
       402   4  2.171821E+05  7.357395E+02  2.431799E+03 -1.850508E+04  1.857995E+03  1.136504E+04
       402   5  2.170133E+05 -8.921087E+01  1.275477E+03 -8.819697E+03  1.210096E+03  1.041884E+04
       402   6  2.171866E+05 -3.548169E+01  7.688353E+02 -1.850521E+04  5.614566E+02  8.933859E+03
       402   7  5.158976E+05  7.442423E+04  7.228453E+04 -1.877200E+04  1.419750E+03  1.136472E+04
       402   8  4.823549E+05  6.534048E+04  6.318874E+04 -8.924887E+03  4.222764E+02  1.041872E+04
       402   9  4.492152E+05  5.719565E+04  5.498484E+04 -1.844817E+04 -5.758900E+02  8.934044E+03
       402  10 -8.145126E+04 -7.295922E+04 -6.742725E+04 -1.823830E+04 -1.232571E-11 -4.011111E-11
       402  11 -4.826339E+04 -6.552401E+04 -6.064277E+04 -8.714564E+03  2.638508E-10 -4.912350E-11
       402  12 -1.479244E+04 -5.727052E+04 -5.345098E+04 -1.856225E+04  2.636689E-10  1.484822E-10
       402  13  2.171821E+05  7.355999E+02  2.431550E+03 -1.850510E+04 -3.084330E-10  1.011912E-10
       402  14  2.170133E+05 -8.932784E+01  1.275270E+03 -8.819707E+03  2.655683E-10 -1.966459E-10
       402  15  2.171866E+05 -3.556749E+01  7.686847E+02 -1.850522E+04 -1.446985E-10  2.221195E-10
       402  16  5.158976E+05  7.442409E+04  7.228428E+04 -1.877202E+04 -8.762608E-11 -3.169051E-11
       402  17  4.823549E+05  6.534037E+04  6.318854E+04 -8.924891E+03 -1.754967E-10 -9.284922E-11
       402  18  4.492152E+05  5.719557E+04  5.498469E+04 -1.844816E+04  8.283780E-11  1.688241E-10
       402  19 -8.145122E+04 -7.295908E+04 -6.742700E+04 -1.823828E+04 -2.296030E+03 -1.136536E+04
       402  20 -4.826336E+04 -6.552389E+04 -6.064256E+04 -8.714547E+03 -1.997581E+03 -1.041896E+04
       402  21 -1.479242E+04 -5.727043E+04 -5.345083E+04 -1.856223E+04 -1.698381E+03 -8.933675E+03
       402  22  2.171821E+05  7.357395E+02  2.431799E+03 -1.850508E+04 -1.857995E+03 -1.136504E+04
       402  23  2.170133E+05 -8.921087E+01  1.275477E+03 -8.819697E+03 -1.210096E+03 -1.041884E+04
       402  24  2.171866E+05 -3.548169E+01  7.688353E+02 -1.850521E+04 -5.614566E+02 -8.933859E+03
       402  25  5.158976E+05  7.442423E+04  7.228453E+04 -1.877200E+04 -1.419750E+03 -1.136472E+04
       402  26  4.823549E+05  6.534048E+04  6.318874E+04 -8.924887E+03 -4.222764E+02 -1.041872E+04
       402  27  4.492152E+05  5.719565E+04  5.498484E+04 -1.844817E+04  5.758900E+02 -8.934044E+03
       403   1  1.990907E+04 -4.855946E+04 -4.532875E+04 -1.842108E+04  1.408542E+03  7.966311E+03
       403   2  5.308320E+04 -4.046020E+04 -3.789973E+04 -8.778443E+03  1.239406E+03  6.456745E+03
       403   3  8.629863E+04 -3.227141E+04 -3.033922E+04 -1.844448E+04  1.069814E+03  4.919004E+03
       403   4  2.171240E+05  6.606822E+01  6.078897E+02 -1.849125E+04  4.394957E+02  7.966545E+03
       403   5  2.171037E+05 -5.733202E+00  3.753400E+02 -8.837085E+03  2.520259E+02  6.457112E+03
       403   6  2.171268E+05  1.523463E+01  2.870259E+02 -1.849128E+04  6.410867E+01  4.919511E+03
       403   7  4.143749E+05  4.868884E+04  4.654191E+04 -1.856144E+04 -5.298561E+02  7.966780E+03
       403   8  3.811490E+05  4.044683E+04  3.864859E+04 -8.895741E+03 -7.356135E+02  6.457480E+03
       403   9  3.479706E+05  3.230066E+04  3.091211E+04 -1.853808E+04 -9.418077E+02  4.920018E+03
       403  10  1.990905E+04 -4.855952E+04 -4.532888E+04 -1.842109E+04  4.984935E-10  4.105209E-11
       403  11  5.308319E+04 -4.046024E+04 -3.789981E+04 -8.778449E+03  7.288970E-10  4.770520E-11
       403  12  8.629862E+04 -3.227143E+04 -3.033926E+04 -1.844449E+04  4.689829E-10 -3.598742E-10
       403  13  2.171240E+05  6.600001E+01  6.077701E+02 -1.849125E+04  2.671912E-10  3.884508E-11
       403  14  2.171037E+05 -5.777996E+00  3.752615E+02 -8.837087E+03  2.024956E-10  1.187068E-10
       403  15  2.171267E+05  1.520864E+01  2.869804E+02 -1.849128E+04  1.079419E-11  3.724165E-10
       403  16  4.143749E+05  4.868878E+04  4.654179E+04 -1.856144E+04 -3.829190E-10  1.146840E-10
       403  17  3.811490E+05  4.044678E+04  3.864851E+04 -8.895737E+03 -8.151020E-10 -4.396871E-10
       403  18  3.479706E+05  3.230064E+04  3.091206E+04 -1.853808E+04 -6.030839E-12 -9.567704E-11
       403  19  1.990907E+04 -4.855946E+04 -4.532875E+04 -1.842108E+04 -1.408542E+03 -7.966311E+03
       403  20  5.308320E+04 -4.046020E+04 -3.789973E+04 -8.778443E+03 -1.239406E+03 -6.456745E+03
       403  21  8.629863E+04 -3.227141E+04 -3.033922E+04 -1.844448E+04 -1.069814E+03 -4.919004E+03
       403  22  2.171240E+05  6.606822E+01  6.078897E+02 -1.849125E+04 -4.394957E+02 -7.966545E+03
       403  23  2.171037E+05 -5.733202E+00  3.753400E+02 -8.837085E+03 -2.520259E+02 -6.457112E+03
       403  24  2.171268E+05  1.523463E+01  2.870259E+02 -1.849128E+04 -6.410867E+01 -4.919511E+03
       403  25  4.143749E+05  4.868884E+04  4.654191E+04 -1.856144E+04  5.298561E+02 -7.966780E+03
       403  26  3.811490E+05  4.044683E+04  3.864859E+04 -8.895741E+03  7.356135E+02 -6.457480E+03
       403  27  3.479706E+05  3.230066E+04  3.091211E+04 -1.853808E+04  9.418077E+02 -4.920018E+03
       404   1  1.209453E+05 -2.367758E+04 -2.206857E+04 -1.843802E+04  1.008763E+03  4.019095E+03
       404   2  1.540706E+05 -1.554253E+04 -1.439806E+04 -8.814146E+03  8.534591E+02  2.481992E+03
       404   3  1.871987E+05 -7.373688E+03 -6.624061E+03 -1.845805E+04  6.979807E+02  9.439729E+02
       404   4  2.171196E+05  2.246627E+01  2.747936E+02 -1.848223E+04  1.279482E+01  4.019655E+03
       404   5  2.171189E+05  6.916515E+00  3.135084E+02 -8.848392E+03 -1.431350E+02  2.482600E+03
       404   6  2.171207E+05  2.547278E+01  4.563282E+02 -1.848222E+04 -2.992309E+02  9.446321E+02
       404   7  3.133026E+05  2.372186E+04  2.261753E+04 -1.852643E+04 -9.833268E+02  4.020215E+03
       404   8  2.801710E+05  1.555608E+04  1.502481E+04 -8.882641E+03 -1.139830E+03  2.483207E+03
       404   9  2.470435E+05  7.424570E+03  7.536659E+03 -1.850640E+04 -1.296490E+03  9.452913E+02
       404  10  1.209453E+05 -2.367759E+04 -2.206860E+04 -1.843803E+04  9.066600E-10 -2.950889E-10
       404  11  1.540706E+05 -1.554254E+04 -1.439807E+04 -8.814148E+03  1.277442E-09 -4.508887E-10
       404  12  1.871987E+05 -7.373689E+03 -6.624064E+03 -1.845805E+04  1.477707E-09 -1.802550E-10
       404  13  2.171196E+05  2.244892E+01  2.747632E+02 -1.848223E+04  2.843731E-11 -6.671240E-10
       404  14  2.171189E+05  6.909890E+00  3.134968E+02 -8.848391E+03  1.914239E-10 -3.586505E-10
       404  15  2.171207E+05  2.547180E+01  4.563264E+02 -1.848222E+04 -5.517780E-11 -3.535330E-10
       404  16  3.133025E+05  2.372184E+04  2.261750E+04 -1.852643E+04 -8.683955E-10  1.285531E-14
       404  17  2.801710E+05  1.555608E+04  1.502480E+04 -8.882638E+03 -1.564909E-09 -6.241087E-10
       404  18  2.470435E+05  7.424569E+03  7.536655E+03 -1.850639E+04 -1.110772E-09 -5.716681E-10
       404  19  1.209453E+05 -2.367758E+04 -2.206857E+04 -1.843802E+04 -1.008763E+03 -4.019095E+03
       404  20  1.540706E+05 -1.554253E+04 -1.439806E+04 -8.814146E+03 -8.534591E+02 -2.481992E+03
       404  21  1.871987E+05 -7.373688E+03 -6.624061E+03 -1.845805E+04 -6.979807E+02 -9.439729E+02
       404  22  2.171196E+05  2.246627E+01  2.747936E+02 -1.848223E+04 -1.279482E+01 -4.019655E+03
       404  23  2.171189E+05  6.916515E+00  3.135084E+02 -8.848392E+03  1.431350E+02 -2.482600E+03
       404  24  2.171207E+05  2.547278E+01  4.563282E+02 -1.848222E+04  2.992309E+02 -9.446321E+02
       404  25  3.133026E+05  2.372186E+04  2.261753E+04 -1.852643E+04  9.833268E+02 -4.020215E+03
       404  26  2.801710E+05  1.555608E+04  1.502481E+04 -8.882641E+03  1.139830E+03 -2.483207E+03
       404  27  2.470435E+05  7.424570E+03  7.536659E+03 -1.850640E+04  1.296490E+03 -9.452913E+02
       405   1  2.218277E+05  1.197779E+03  1.769354E+03 -1.846402E+04  6.039013E+02  4.857631E+01
       405   2  2.549193E+05  9.323610E+03  9.782589E+03 -8.845241E+03  1.268426E+02 -1.488940E+03
       405   3  2.880698E+05  1.754608E+04  1.812399E+04 -1.848980E+04 -3.501473E+02 -3.025375E+03
       405   4  2.171331E+05  2.030212E+01  5.753215E+02 -1.848129E+04 -3.932319E+02  4.924195E+01
       405   5  2.171041E+05 -2.049583E+00  9.594074E+02 -8.849568E+03 -8.695938E+02 -1.488306E+03
       405   6  2.171324E+05  7.207903E+01  1.671126E+03 -1.848125E+04 -1.345862E+03 -3.024770E+03
       405   7  2.124384E+05 -1.157176E+03 -6.187090E+02 -1.849856E+04 -1.390358E+03  4.990765E+01
       405   8  1.792902E+05 -9.327810E+03 -7.863868E+03 -8.853893E+03 -1.865970E+03 -1.487673E+03
       405   9  1.461996E+05 -1.740228E+04 -1.478207E+04 -1.847270E+04 -2.341463E+03 -3.024164E+03
       405  10  2.218277E+05  1.197779E+03  1.769353E+03 -1.846402E+04  7.182524E-09  8.581654E-10
       405  11  2.549193E+05  9.323608E+03  9.782585E+03 -8.845241E+03  6.066638E-10  1.815896E-09
       405  12  2.880698E+05  1.754607E+04  1.812397E+04 -1.848980E+04 -5.773029E-09 -2.849203E-10
       405  13  2.171331E+05  2.030207E+01  5.753212E+02 -1.848129E+04 -1.258617E-10  4.784096E-10
       405  14  2.171041E+05 -2.052165E+00  9.594019E+02 -8.849569E+03  8.733617E-11  4.866968E-10
       405  15  2.171324E+05  7.206872E+01  1.671105E+03 -1.848126E+04 -1.169469E-10  4.462504E-10
       405  16  2.124384E+05 -1.157177E+03 -6.187126E+02 -1.849856E+04 -7.237682E-09  4.438093E-10
       405  17  1.792902E+05 -9.327813E+03 -7.863878E+03 -8.853896E+03 -1.089821E-09  4.789853E-10
       405  18  1.461996E+05 -1.740229E+04 -1.478210E+04 -1.847271E+04  6.377810E-09  4.575500E-10
       405  19  2.218277E+05  1.197779E+03  1.769354E+03 -1.846402E+04 -6.039013E+02 -4.857631E+01
       405  20  2.549193E+05  9.323610E+03  9.782589E+03 -8.845241E+03 -1.268426E+02  1.488940E+03
       405  21  2.880698E+05  1.754608E+04  1.812399E+04 -1.848980E+04  3.501473E+02  3.025375E+03
       405  22  2.171331E+05  2.030212E+01  5.753215E+02 -1.848129E+04  3.932319E+02 -4.924195E+01
       405  23  2.171041E+05 -2.049583E+00  9.594074E+02 -8.849568E+03  8.695938E+02  1.488306E+03
       405  24  2.171324E+05  7.207903E+01  1.671126E+03 -1.848125E+04  1.345862E+03  3.024770E+03
       405  25  2.124384E+05 -1.157176E+03 -6.187090E+02 -1.849856E+04  1.390358E+03 -4.990765E+01
       405  26  1.792902E+05 -9.327810E+03 -7.863868E+03 -8.853893E+03  1.865970E+03  1.487673E+03
       405  27  1.461996E+05 -1.740228E+04 -1.478207E+04 -1.847270E+04  2.341463E+03  3.024164E+03
       406   1  3.228009E+05  2.603467E+04  2.691598E+04 -1.838255E+04 -6.881163E+02 -3.924383E+03
       406   2  3.557487E+05  3.412534E+04  3.614237E+04 -8.873493E+03 -2.585762E+03 -5.460282E+03
       406   3  3.891564E+05  4.311080E+04  4.682447E+04 -1.865882E+04 -4.483132E+03 -6.969692E+03
       406   4  2.172195E+05 -2.127383E+01  2.184526E+03 -1.848834E+04 -1.692878E+03 -3.923817E+03
       406   5  2.169901E+05 -9.219332E+01  3.768230E+03 -8.840817E+03 -3.572994E+03 -5.459837E+03
       406   6  2.172169E+05  7.288711E+02  6.795809E+03 -1.848794E+04 -5.452734E+03 -6.969361E+03
       406   7  1.116483E+05 -2.607801E+04 -2.254769E+04 -1.859410E+04 -2.697469E+03 -3.923251E+03
       406   8  7.824933E+04 -3.431108E+04 -2.860721E+04 -8.808146E+03 -4.560006E+03 -5.459391E+03
       406   9  4.530461E+04 -4.165514E+04 -3.323485E+04 -1.831711E+04 -6.422070E+03 -6.969030E+03
       406  10  3.228009E+05  2.603466E+04  2.691595E+04 -1.838255E+04 -4.221882E-10 -9.437816E-10
       406  11  3.557487E+05  3.412530E+04  3.614230E+04 -8.873505E+03  7.465904E-11 -5.338923E-10
       406  12  3.891564E+05  4.311074E+04  4.682434E+04 -1.865884E+04 -4.706357E-10  1.039477E-10
       406  13  2.172194E+05 -2.129113E+01  2.184492E+03 -1.848834E+04 -1.633846E-10 -1.136725E-10
       406  14  2.169901E+05 -9.222876E+01  3.768150E+03 -8.840833E+03  1.083007E-10 -8.673319E-10
       406  15  2.172168E+05  7.288110E+02  6.795662E+03 -1.848797E+04 -2.672086E-10 -2.475914E-10
       406  16  1.116483E+05 -2.607803E+04 -2.254773E+04 -1.859411E+04  7.088616E-10 -4.101567E-12
       406  17  7.824930E+04 -3.431112E+04 -2.860731E+04 -8.808166E+03 -5.712188E-10 -4.074300E-11
       406  18  4.530456E+04 -4.165521E+04 -3.323502E+04 -1.831714E+04  7.846760E-10 -1.819101E-11
       406  19  3.228009E+05  2.603467E+04  2.691598E+04 -1.838255E+04  6.881163E+02  3.924383E+03
       406  20  3.557487E+05  3.412534E+04  3.614237E+04 -8.873493E+03  2.585762E+03  5.460282E+03
       406  21  3.891564E+05  4.311080E+04  4.682447E+04 -1.865882E+04  4.483132E+03  6.969692E+03
       406  22  2.172195E+05 -2.127383E+01  2.184526E+03 -1.848834E+04  1.692878E+03  3.923817E+03
       406  23  2.169901E+05 -9.219332E+01  3.768230E+03 -8.840817E+03  3.572994E+03  5.459837E+03
       406  24  2.172169E+05  7.288711E+02  6.795809E+03 -1.848794E+04  5.452734E+03  6.969361E+03
       406  25  1.116483E+05 -2.607801E+04 -2.254769E+04 -1.859410E+04  2.697469E+03  3.923251E+03
       406  26  7.824933E+04 -3.431108E+04 -2.860721E+04 -8.808146E+03  4.560006E+03  5.459391E+03
       406  27  4.530461E+04 -4.165514E+04 -3.323485E+04 -1.831711E+04  6.422070E+03  6.969030E+03
       407   1  4.245904E+05  5.049630E+04  5.707509E+04 -1.713081E+04 -5.697026E+03 -7.931594E+03
       407   2  4.560743E+05  5.824057E+04  7.095210E+04 -9.605452E+03 -1.362704E+04 -9.416687E+03
       407   3  4.911879E+05  7.627510E+04  9.256678E+04 -2.142782E+04 -2.155671E+04 -1.039714E+04
       407   4  2.179065E+05 -4.848004E+02  8.770761E+03 -1.850084E+04 -6.823933E+03 -7.931280E+03
       407   5  2.161169E+05 -9.313633E+02  1.496065E+04 -8.825581E+03 -1.442414E+04 -9.416707E+03
       407   6  2.179010E+05  8.857634E+03  2.866170E+04 -1.849843E+04 -2.202358E+04 -1.039746E+04
       407   7  1.126191E+04 -5.146892E+04 -3.953646E+04 -1.987041E+04 -7.950467E+03 -7.930960E+03
       407   8 -2.378741E+04 -6.010737E+04 -4.103471E+04 -8.046008E+03 -1.522093E+04 -9.416729E+03
       407   9 -5.531708E+04 -5.856510E+04 -3.524846E+04 -1.557033E+04 -2.249024E+04 -1.039778E+04
       407  10  4.245903E+05  5.049623E+04  5.707491E+04 -1.713084E+04  3.877491E-10  4.074808E-10
       407  11  4.560741E+05  5.824043E+04  7.095158E+04 -9.605556E+03  4.419492E-10 -3.804411E-10
       407  12  4.911874E+05  7.627486E+04  9.256570E+04 -2.142800E+04 -2.903604E-10 -1.661168E-10
       407  13  2.179064E+05 -4.848805E+02  8.770555E+03 -1.850088E+04  4.333654E-12  3.994199E-10
       407  14  2.161167E+05 -9.315143E+02  1.496009E+04 -8.825690E+03 -1.385319E-10  1.399466E-10
       407  15  2.179005E+05  8.857388E+03  2.866058E+04 -1.849861E+04 -5.274746E-11 -1.658888E-11
       407  16  1.126183E+04 -5.146901E+04 -3.953670E+04 -1.987046E+04 -7.231262E-10  2.549755E-10
       407  17 -2.378768E+04 -6.010753E+04 -4.103531E+04 -8.046123E+03 -4.048256E-10 -1.415925E-10
       407  18 -5.531765E+04 -5.856535E+04 -3.524962E+04 -1.557051E+04  1.443640E-10 -3.734425E-11
       407  19  4.245904E+05  5.049630E+04  5.707509E+04 -1.713081E+04  5.697026E+03  7.931594E+03
       407  20  4.560743E+05  5.824057E+04  7.095210E+04 -9.605452E+03  1.362704E+04  9.416687E+03
       407  21  4.911879E+05  7.627510E+04  9.256678E+04 -2.142782E+04  2.155671E+04  1.039714E+04
       407  22  2.179065E+05 -4.848004E+02  8.770761E+03 -1.850084E+04  6.823933E+03  7.931280E+03
       407  23  2.161169E+05 -9.313633E+02  1.496065E+04 -8.825581E+03  1.442414E+04  9.416707E+03
       407  24  2.179010E+05  8.857634E+03  2.866170E+04 -1.849843E+04  2.202358E+04  1.039746E+04
       407  25  1.126191E+04 -5.146892E+04 -3.953646E+04 -1.987041E+04  7.950467E+03  7.930960E+03
       407  26 -2.378741E+04 -6.010737E+04 -4.103471E+04 -8.046008E+03  1.522093E+04  9.416729E+03
       407  27 -5.531708E+04 -5.856510E+04 -3.524846E+04 -1.557033E+04  2.249024E+04  1.039778E+04
       408   1  5.329488E+05  7.019502E+04  1.072157E+05 -3.205868E+03 -2.404386E+04 -1.246574E+04
       408   2  5.490190E+05  7.425711E+04  1.378491E+05 -2.129669E+04 -6.113285E+04 -1.297272E+04
       408   3  6.000926E+05  1.987327E+05  2.227354E+05 -5.856361E+04 -9.822621E+04 -4.277266E+03
       408   4  2.246559E+05 -5.788669E+03  3.543835E+04 -1.845849E+04 -2.734889E+04 -1.246516E+04
       408   5  2.076570E+05 -9.950745E+03  5.802036E+04 -8.878199E+03 -5.845727E+04 -1.297430E+04
       408   6  2.246405E+05  1.052957E+05  1.307229E+05 -1.847188E+04 -8.956754E+04 -4.282078E+03
       408   7 -8.354886E+04 -8.177819E+04 -3.634524E+04 -3.370348E+04 -3.065228E+04 -1.246442E+04
       408   8 -1.335973E+05 -9.416629E+04 -2.181623E+04  3.533419E+03 -5.578315E+04 -1.297579E+04
       408   9 -1.506797E+05  1.185436E+04  3.870119E+04  2.159557E+04 -8.091407E+04 -4.285775E+03
       408  10  5.329481E+05  7.019470E+04  1.072143E+05 -3.206109E+03  3.291949E-11  4.611145E-11
       408  11  5.490150E+05  7.425593E+04  1.378418E+05 -2.129732E+04  1.515027E-10 -7.871438E-11
       408  12  6.000822E+05  1.987301E+05  2.227173E+05 -5.856394E+04  4.729187E-11 -1.319759E-10
       408  13  2.246550E+05 -5.789037E+03  3.543666E+04 -1.845876E+04  7.472951E-11 -4.526614E-11
       408  14  2.076533E+05 -9.951843E+03  5.801362E+04 -8.878810E+03  5.635458E-10  1.011623E-10
       408  15  2.246319E+05  1.052935E+05  1.307078E+05 -1.847219E+04 -2.121728E-10 -5.924515E-11
       408  16 -8.354991E+04 -8.177861E+04 -3.634730E+04 -3.370379E+04 -3.065678E-10  3.862214E-11
       408  17 -1.336006E+05 -9.416730E+04 -2.182240E+04  3.532836E+03 -1.832892E-10  1.566166E-10
       408  18 -1.506867E+05  1.185258E+04  3.868885E+04  2.159529E+04  1.192868E-11 -1.595894E-12
       408  19  5.329488E+05  7.019502E+04  1.072157E+05 -3.205868E+03  2.404386E+04  1.246574E+04
       408  20  5.490190E+05  7.425711E+04  1.378491E+05 -2.129669E+04  6.113285E+04  1.297272E+04
       408  21  6.000926E+05  1.987327E+05  2.227354E+05 -5.856361E+04  9.822621E+04  4.277266E+03
       408  22  2.246559E+05 -5.788669E+03  3.543835E+04 -1.845849E+04  2.734889E+04  1.246516E+04
       408  23  2.076570E+05 -9.950745E+03  5.802036E+04 -8.878199E+03  5.845727E+04  1.297430E+04
       408  24  2.246405E+05  1.052957E+05  1.307229E+05 -1.847188E+04  8.956754E+04  4.282078E+03
       408  25 -8.354886E+04 -8.177819E+04 -3.634524E+04 -3.370348E+04  3.065228E+04  1.246442E+04
       408  26 -1.335973E+05 -9.416629E+04 -2.181623E+04  3.533419E+03  5.578315E+04  1.297579E+04
       408  27 -1.506797E+05  1.185436E+04  3.870119E+04  2.159557E+04  8.091407E+04  4.285775E+03
       409   1 -1.102113E+06 -1.222497E+05 -1.463159E+05 -4.341857E+04 -8.796657E+04  9.322831E+02
       409   2 -1.077226E+06 -9.092454E+03 -7.344781E+04 -1.441430E+04 -5.672114E+04  2.859327E+03
       409   3 -1.085187E+06 -1.100865E+04 -4.971318E+04  9.777917E+03 -2.547488E+04  2.707655E+03
       409   4 -1.018118E+06 -1.012828E+05 -1.256874E+05 -4.860707E+03 -8.605612E+04  9.272988E+02
       409   5 -1.001785E+06  9.553720E+03 -5.577528E+04 -2.467063E+03 -5.615392E+04  2.858338E+03
       409   6 -1.018066E+06  5.555305E+03 -3.405865E+04 -4.886590E+03 -2.625141E+04  2.708093E+03
       409   7 -9.341133E+05 -8.031080E+04 -1.050585E+05  3.370239E+04 -8.414541E+04  9.225528E+02
       409   8 -9.263398E+05  2.820003E+04 -3.810307E+04  9.481636E+03 -5.558664E+04  2.857372E+03
       409   9 -9.509392E+05  2.211975E+04 -1.840430E+04 -1.955270E+04 -2.702802E+04  2.708566E+03
       409  10 -1.102121E+06 -1.222518E+05 -1.463305E+05 -4.341850E+04 -4.054782E-11 -5.872346E-11
       409  11 -1.077229E+06 -9.093328E+03 -7.345388E+04 -1.441417E+04 -9.582200E-11 -1.126345E-10
       409  12 -1.085188E+06 -1.100883E+04 -4.971441E+04  9.777972E+03 -3.103490E-11  2.285022E-10
       409  13 -1.018126E+06 -1.012848E+05 -1.257013E+05 -4.860643E+03  1.303527E-10  8.586474E-12
       409  14 -1.001789E+06  9.552863E+03 -5.578123E+04 -2.466933E+03  5.346153E-10 -3.570478E-10
       409  15 -1.018066E+06  5.555112E+03 -3.405996E+04 -4.886533E+03 -1.185074E-10 -2.633773E-11
       409  16 -9.341209E+05 -8.031270E+04 -1.050718E+05  3.370245E+04  2.718318E-10 -4.188960E-11
       409  17 -9.263431E+05  2.819919E+04 -3.810890E+04  9.481764E+03  4.210497E-10 -7.171544E-11
       409  18 -9.509400E+05  2.211954E+04 -1.840569E+04 -1.955264E+04  2.772690E-10 -2.125052E-10
       409  19 -1.102113E+06 -1.222497E+05 -1.463159E+05 -4.341857E+04  8.796657E+04 -9.322831E+02
       409  20 -1.077226E+06 -9.092454E+03 -7.344781E+04 -1.441430E+04  5.672114E+04 -2.859327E+03
       409  21 -1.085187E+06 -1.100865E+04 -4.971318E+04  9.777917E+03  2.547488E+04 -2.707655E+03
       409  22 -1.018118E+06 -1.012828E+05 -1.256874E+05 -4.860707E+03  8.605612E+04 -9.272988E+02
       409  23 -1.001785E+06  9.553720E+03 -5.577528E+04 -2.467063E+03  5.615392E+04 -2.858338E+03
       409  24 -1.018066E+06  5.555305E+03 -3.405865E+04 -4.886590E+03  2.625141E+04 -2.708093E+03
       409  25 -9.341133E+05 -8.031080E+04 -1.050585E+05  3.370239E+04  8.414541E+04 -9.225528E+02
       409  26 -9.263398E+05  2.820003E+04 -3.810307E+04  9.481636E+03  5.558664E+04 -2.857372E+03
       409  27 -9.509392E+05  2.211975E+04 -1.840430E+04 -1.955270E+04  2.702802E+04 -2.708566E+03
       410   1 -1.069749E+06 -2.290482E+04 -4.116974E+04 -7.706483E+03 -2.100173E+04  2.215898E+03
       410   2 -1.059426E+06 -1.134781E+04 -2.595899E+04 -3.123662E+03 -1.362496E+04  1.945828E+03
       410   3 -1.052525E+06 -9.641169E+03 -1.801854E+04 -3.546119E+03 -6.248169E+03  1.558641E+03
       410   4 -1.011587E+06 -8.533384E+03 -2.754816E+04 -4.920926E+03 -2.114064E+04  2.215766E+03
       410   5 -1.009878E+06  8.892690E+02 -1.437942E+04 -2.419022E+03 -1.383908E+04  1.945770E+03
       410   6 -1.011579E+06  4.751374E+02 -8.428144E+03 -4.922363E+03 -6.537577E+03  1.558612E+03
       410   7 -9.534213E+05  5.837837E+03 -1.392679E+04 -2.135107E+03 -2.127958E+04  2.215633E+03
       410   8 -9.603288E+05  1.312617E+04 -2.800025E+03 -1.714326E+03 -1.405321E+04  1.945711E+03
       410   9 -9.706313E+05  1.059133E+04  1.162135E+03 -6.298698E+03 -6.827004E+03  1.558584E+03
       410  10 -1.069749E+06 -2.290494E+04 -4.117058E+04 -7.706445E+03 -2.153363E-10  1.027959E-10
       410  11 -1.059426E+06 -1.134786E+04 -2.595935E+04 -3.123641E+03 -1.795516E-10  2.104890E-10
       410  12 -1.052525E+06 -9.641182E+03 -1.801861E+04 -3.546111E+03  2.046225E-10 -1.830567E-10
       410  13 -1.011587E+06 -8.533509E+03 -2.754901E+04 -4.920889E+03 -4.208477E-11 -8.384554E-11
       410  14 -1.009879E+06  8.892134E+02 -1.437979E+04 -2.419001E+03  2.270204E-10  3.471072E-12
       410  15 -1.011579E+06  4.751233E+02 -8.428229E+03 -4.922354E+03  4.384019E-10 -2.481619E-10
       410  16 -9.534218E+05  5.837710E+03 -1.392765E+04 -2.135069E+03  1.743409E-10 -2.733264E-11
       410  17 -9.603290E+05  1.312612E+04 -2.800404E+03 -1.714304E+03  6.754481E-10 -1.077339E-10
       410  18 -9.706314E+05  1.059132E+04  1.162042E+03 -6.298690E+03  9.094353E-11 -9.354267E-11
       410  19 -1.069749E+06 -2.290482E+04 -4.116974E+04 -7.706483E+03  2.100173E+04 -2.215898E+03
       410  20 -1.059426E+06 -1.134781E+04 -2.595899E+04 -3.123662E+03  1.362496E+04 -1.945828E+03
       410  21 -1.052525E+06 -9.641169E+03 -1.801854E+04 -3.546119E+03  6.248169E+03 -1.558641E+03
       410  22 -1.011587E+06 -8.533384E+03 -2.754816E+04 -4.920926E+03  2.114064E+04 -2.215766E+03
       410  23 -1.009878E+06  8.892690E+02 -1.437942E+04 -2.419022E+03  1.383908E+04 -1.945770E+03
       410  24 -1.011579E+06  4.751374E+02 -8.428144E+03 -4.922363E+03  6.537577E+03 -1.558612E+03
       410  25 -9.534213E+05  5.837837E+03 -1.392679E+04 -2.135107E+03  2.127958E+04 -2.215633E+03
       410  26 -9.603288E+05  1.312617E+04 -2.800025E+03 -1.714326E+03  1.405321E+04 -1.945711E+03
       410  27 -9.706313E+05  1.059133E+04  1.162135E+03 -6.298698E+03  6.827004E+03 -1.558584E+03
       411   1 -1.042790E+06 -8.560115E+03 -1.395833E+04 -5.046890E+03 -4.966456E+03  1.309605E+03
       411   2 -1.033854E+06 -5.625256E+03 -9.042494E+03 -2.382567E+03 -3.151438E+03  9.123396E+02
       411   3 -1.025364E+06 -3.532411E+03 -5.519920E+03 -4.790113E+03 -1.336379E+03  5.076383E+02
       411   4 -1.010921E+06 -6.942007E+02 -6.534593E+03 -4.936692E+03 -5.221449E+03  1.309571E+03
       411   5 -1.010698E+06  9.350204E+01 -3.631746E+03 -2.400800E+03 -3.411160E+03  9.123100E+02
       411   6 -1.010919E+06  4.001682E+01 -2.118830E+03 -4.936770E+03 -1.600854E+03  5.076134E+02
       411   7 -9.790508E+05  7.171642E+03  8.890704E+02 -4.826489E+03 -5.476455E+03  1.309536E+03
       411   8 -9.875406E+05  5.812222E+03  1.778966E+03 -2.419035E+03 -3.670891E+03  9.122804E+02
       411   9 -9.964743E+05  3.612430E+03  1.282246E+03 -5.083430E+03 -1.865336E+03  5.075886E+02
       411  10 -1.042790E+06 -8.560123E+03 -1.395838E+04 -5.046885E+03 -5.008261E-10 -1.243456E-10
       411  11 -1.033854E+06 -5.625259E+03 -9.042514E+03 -2.382564E+03 -4.070745E-10  2.128856E-10
       411  12 -1.025364E+06 -3.532412E+03 -5.519924E+03 -4.790112E+03  2.601804E-10 -3.724921E-11
       411  13 -1.010921E+06 -6.942098E+02 -6.534648E+03 -4.936687E+03  3.364351E-10 -8.948346E-11
       411  14 -1.010698E+06  9.349801E+01 -3.631769E+03 -2.400798E+03 -2.969173E-10  2.699967E-10
       411  15 -1.010919E+06  4.001585E+01 -2.118836E+03 -4.936769E+03 -2.358313E-10 -1.232040E-10
       411  16 -9.790508E+05  7.171632E+03  8.890107E+02 -4.826483E+03  3.523935E-10 -9.788245E-11
       411  17 -9.875406E+05  5.812217E+03  1.778939E+03 -2.419032E+03  2.579688E-10 -2.880956E-11
       411  18 -9.964743E+05  3.612428E+03  1.282238E+03 -5.083429E+03  8.025891E-11 -2.505586E-10
       411  19 -1.042790E+06 -8.560115E+03 -1.395833E+04 -5.046890E+03  4.966456E+03 -1.309605E+03
       411  20 -1.033854E+06 -5.625256E+03 -9.042494E+03 -2.382567E+03  3.151438E+03 -9.123396E+02
       411  21 -1.025364E+06 -3.532411E+03 -5.519920E+03 -4.790113E+03  1.336379E+03 -5.076383E+02
       411  22 -1.010921E+06 -6.942007E+02 -6.534593E+03 -4.936692E+03  5.221449E+03 -1.309571E+03
       411  23 -1.010698E+06  9.350204E+01 -3.631746E+03 -2.400800E+03  3.411160E+03 -9.123100E+02
       411  24 -1.010919E+06  4.001682E+01 -2.118830E+03 -4.936770E+03  1.600854E+03 -5.076134E+02
       411  25 -9.790508E+05  7.171642E+03  8.890704E+02 -4.826489E+03  5.476455E+03 -1.309536E+03
       411  26 -9.875406E+05  5.812222E+03  1.778966E+03 -2.419035E+03  3.670891E+03 -9.122804E+02
       411  27 -9.964743E+05  3.612430E+03  1.282246E+03 -5.083430E+03  1.865336E+03 -5.075886E+02
       412   1 -1.016138E+06 -1.354196E+03 -2.846635E+03 -4.918621E+03 -1.001244E+03  2.703141E+02
       412   2 -1.007357E+06  8.624977E+02 -1.694952E+02 -2.376366E+03 -5.189932E+02 -1.357324E+02
       412   3 -9.986560E+05  3.005048E+03  2.175022E+03 -4.922555E+03 -3.673348E+01 -5.419310E+02
       412   4 -1.010838E+06 -5.058061E+01 -1.634275E+03 -4.940427E+03 -1.264020E+03  2.702904E+02
       412   5 -1.010798E+06  1.270057E+01 -9.734952E+02 -2.396206E+03 -7.818651E+02 -1.357570E+02
       412   6 -1.010838E+06  1.862369E+00 -6.452601E+02 -4.940431E+03 -2.997077E+02 -5.419562E+02
       412   7 -1.005539E+06  1.253032E+03 -4.219175E+02 -4.962233E+03 -1.526798E+03  2.702667E+02
       412   8 -1.014239E+06 -8.370974E+02 -1.777496E+03 -2.416047E+03 -1.044736E+03 -1.357815E+02
       412   9 -1.023020E+06 -3.001333E+03 -3.465552E+03 -4.958306E+03 -5.626769E+02 -5.419814E+02
       412  10 -1.016138E+06 -1.354196E+03 -2.846637E+03 -4.918620E+03 -4.684380E-11 -2.614825E-11
       412  11 -1.007357E+06  8.624976E+02 -1.694958E+02 -2.376366E+03  1.909488E-10  2.327109E-11
       412  12 -9.986560E+05  3.005047E+03  2.175022E+03 -4.922555E+03  2.270575E-10  4.563980E-11
       412  13 -1.010838E+06 -5.058111E+01 -1.634279E+03 -4.940427E+03  2.476053E-10 -1.872590E-10
       412  14 -1.010798E+06  1.270038E+01 -9.734964E+02 -2.396206E+03 -4.788653E-10  1.741939E-10
       412  15 -1.010838E+06  1.862030E+00 -6.452608E+02 -4.940431E+03 -3.692333E-10  1.954381E-10
       412  16 -1.005539E+06  1.253032E+03 -4.219220E+02 -4.962233E+03 -1.528384E-10 -4.938778E-11
       412  17 -1.014239E+06 -8.370977E+02 -1.777498E+03 -2.416047E+03  1.308395E-10  9.794837E-11
       412  18 -1.023020E+06 -3.001334E+03 -3.465553E+03 -4.958307E+03 -5.599955E-10  2.490752E-10
       412  19 -1.016138E+06 -1.354196E+03 -2.846635E+03 -4.918621E+03  1.001244E+03 -2.703141E+02
       412  20 -1.007357E+06  8.624977E+02 -1.694952E+02 -2.376366E+03  5.189932E+02  1.357324E+02
       412  21 -9.986560E+05  3.005048E+03  2.175022E+03 -4.922555E+03  3.673348E+01  5.419310E+02
       412  22 -1.010838E+06 -5.058061E+01 -1.634275E+03 -4.940427E+03  1.264020E+03 -2.702904E+02
       412  23 -1.010798E+06  1.270057E+01 -9.734952E+02 -2.396206E+03  7.818651E+02  1.357570E+02
       412  24 -1.010838E+06  1.862369E+00 -6.452601E+02 -4.940431E+03  2.997077E+02  5.419562E+02
       412  25 -1.005539E+06  1.253032E+03 -4.219175E+02 -4.962233E+03  1.526798E+03 -2.702667E+02
       412  26 -1.014239E+06 -8.370974E+02 -1.777496E+03 -2.416047E+03  1.044736E+03  1.357815E+02
       412  27 -1.023020E+06 -3.001333E+03 -3.465552E+03 -4.958306E+03  5.626769E+02  5.419814E+02
       413   1 -9.895121E+05  5.267761E+03  4.445964E+03 -4.929179E+03  7.187449E+01 -7.783085E+02
       413   2 -9.808001E+05  7.416348E+03  6.495553E+03 -2.401489E+03  3.260521E+02 -1.183065E+03
       413   3 -9.721268E+05  9.534946E+03  8.372393E+03 -4.934442E+03  5.802503E+02 -1.585933E+03
       413   4 -1.010829E+06 -1.711712E+00 -5.608286E+02 -4.934255E+03 -1.907208E+02 -7.783359E+02
       413   5 -1.010810E+06  5.484193E+00 -5.160155E+02 -2.403925E+03  6.467006E+01 -1.183099E+03
       413   6 -1.010829E+06 -1.748274E+01 -6.447628E+02 -4.934253E+03  3.200779E+02 -1.585973E+03
       413   7 -1.032145E+06 -5.271217E+03 -5.567652E+03 -4.939330E+03 -4.533071E+02 -7.783634E+02
       413   8 -1.040818E+06 -7.405444E+03 -7.527645E+03 -2.406361E+03 -1.966994E+02 -1.183132E+03
       413   9 -1.049530E+06 -9.570018E+03 -9.662020E+03 -4.934064E+03  5.992162E+01 -1.586012E+03
       413  10 -9.895121E+05  5.267761E+03  4.445962E+03 -4.929179E+03 -1.423553E-10 -4.615944E-11
       413  11 -9.808001E+05  7.416347E+03  6.495550E+03 -2.401489E+03 -3.792633E-10  1.426684E-10
       413  12 -9.721268E+05  9.534944E+03  8.372388E+03 -4.934441E+03 -1.341812E-10 -5.663541E-11
       413  13 -1.010829E+06 -1.712372E+00 -5.608298E+02 -4.934255E+03  2.812735E-10 -1.226424E-10
       413  14 -1.010810E+06  5.482690E+00 -5.160181E+02 -2.403925E+03  3.665007E-10 -1.211842E-10
       413  15 -1.010829E+06 -1.748547E+01 -6.447677E+02 -4.934253E+03 -5.473643E-10  1.964894E-10
       413  16 -1.032145E+06 -5.271218E+03 -5.567653E+03 -4.939330E+03  9.541434E-11  4.974021E-11
       413  17 -1.040818E+06 -7.405445E+03 -7.527648E+03 -2.406361E+03  6.443300E-10 -2.119007E-10
       413  18 -1.049530E+06 -9.570021E+03 -9.662024E+03 -4.934064E+03 -1.393122E-10  2.359645E-10
       413  19 -9.895121E+05  5.267761E+03  4.445964E+03 -4.929179E+03 -7.187449E+01  7.783085E+02
       413  20 -9.808001E+05  7.416348E+03  6.495553E+03 -2.401489E+03 -3.260521E+02  1.183065E+03
       413  21 -9.721268E+05  9.534946E+03  8.372393E+03 -4.934442E+03 -5.802503E+02  1.585933E+03
       413  22 -1.010829E+06 -1.711712E+00 -5.608286E+02 -4.934255E+03  1.907208E+02  7.783359E+02
       413  23 -1.010810E+06  5.484193E+00 -5.160155E+02 -2.403925E+03 -6.467006E+01  1.183099E+03
       413  24 -1.010829E+06 -1.748274E+01 -6.447628E+02 -4.934253E+03 -3.200779E+02  1.585973E+03
       413  25 -1.032145E+06 -5.271217E+03 -5.567652E+03 -4.939330E+03  4.533071E+02  7.783634E+02
       413  26 -1.040818E+06 -7.405444E+03 -7.527645E+03 -2.406361E+03  1.966994E+02  1.183132E+03
       413  27 -1.049530E+06 -9.570018E+03 -9.662020E+03 -4.934064E+03 -5.992162E+01  1.586012E+03
       414   1 -9.631056E+05  1.180829E+04  1.040778E+04 -4.958260E+03  7.093166E+02 -1.820938E+03
       414   2 -9.544658E+05  1.393637E+04  1.193055E+04 -2.422076E+03  1.313568E+03 -2.219556E+03
       414   3 -9.459686E+05  1.579152E+04  1.299219E+04 -4.872828E+03  1.917873E+03 -2.606913E+03
       414   4 -1.010853E+06  1.209712E+01 -7.738287E+02 -4.917891E+03  4.475862E+02 -1.820983E+03
       414   5 -1.010781E+06  2.949502E+01 -1.227160E+03 -2.424388E+03  1.059073E+03 -2.219612E+03
       414   6 -1.010853E+06 -2.273477E+02 -2.146713E+03 -4.917850E+03  1.670606E+03 -2.606979E+03
       414   7 -1.058597E+06 -1.178426E+04 -1.195560E+04 -4.877525E+03  1.858758E+02 -1.821029E+03
       414   8 -1.067093E+06 -1.387761E+04 -1.438509E+04 -2.426700E+03  8.046018E+02 -2.219668E+03
       414   9 -1.075734E+06 -1.624651E+04 -1.728591E+04 -4.962867E+03  1.423365E+03 -2.607044E+03
       414  10 -9.631056E+05  1.180829E+04  1.040778E+04 -4.958259E+03  2.506017E-10 -2.175995E-10
       414  11 -9.544659E+05  1.393637E+04  1.193054E+04 -2.422074E+03 -2.784660E-10  9.850539E-11
       414  12 -9.459686E+05  1.579151E+04  1.299218E+04 -4.872824E+03  1.371018E-11 -9.456572E-11
       414  13 -1.010853E+06  1.209351E+01 -7.738353E+02 -4.917890E+03 -4.157825E-10  1.660867E-10
       414  14 -1.010781E+06  2.948943E+01 -1.227171E+03 -2.424386E+03 -5.272632E-10  3.812446E-10
       414  15 -1.010853E+06 -2.273557E+02 -2.146731E+03 -4.917846E+03  2.176910E-10 -1.357759E-10
       414  16 -1.058597E+06 -1.178426E+04 -1.195560E+04 -4.877525E+03  2.350516E-10  1.306422E-10
       414  17 -1.067093E+06 -1.387761E+04 -1.438510E+04 -2.426699E+03 -3.805135E-10  3.508691E-10
       414  18 -1.075734E+06 -1.624652E+04 -1.728592E+04 -4.962864E+03 -3.377427E-10  6.484279E-11
       414  19 -9.631056E+05  1.180829E+04  1.040778E+04 -4.958260E+03 -7.093166E+02  1.820938E+03
       414  20 -9.544658E+05  1.393637E+04  1.193055E+04 -2.422076E+03 -1.313568E+03  2.219556E+03
       414  21 -9.459686E+05  1.579152E+04  1.299219E+04 -4.872828E+03 -1.917873E+03  2.606913E+03
       414  22 -1.010853E+06  1.209712E+01 -7.738287E+02 -4.917891E+03 -4.475862E+02  1.820983E+03
       414  23 -1.010781E+06  2.949502E+01 -1.227160E+03 -2.424388E+03 -1.059073E+03  2.219612E+03
       414  24 -1.010853E+06 -2.273477E+02 -2.146713E+03 -4.917850E+03 -1.670606E+03  2.606979E+03
       414  25 -1.058597E+06 -1.178426E+04 -1.195560E+04 -4.877525E+03 -1.858758E+02  1.821029E+03
       414  26 -1.067093E+06 -1.387761E+04 -1.438509E+04 -2.426700E+03 -8.046018E+02  2.219668E+03
       414  27 -1.075734E+06 -1.624651E+04 -1.728591E+04 -4.962867E+03 -1.423365E+03  2.607044E+03
       415   1 -9.373041E+05  1.837108E+04  1.450188E+04 -5.326334E+03  2.395017E+03 -2.855944E+03
       415   2 -9.283941E+05  2.056672E+04  1.451654E+04 -2.215196E+03  4.665455E+03 -3.228722E+03
       415   3 -9.205657E+05  1.959040E+04  1.226010E+04 -3.969883E+03  6.935925E+03 -3.442452E+03
       415   4 -1.011066E+06  1.519401E+02 -2.753419E+03 -4.891195E+03  2.101759E+03 -2.856027E+03
       415   5 -1.010517E+06  2.861791E+02 -4.673845E+03 -2.457869E+03  4.474860E+03 -3.228801E+03
       415   6 -1.011069E+06 -2.769640E+03 -8.936976E+03 -4.890418E+03  6.847961E+03 -3.442522E+03
       415   7 -1.084822E+06 -1.806759E+04 -2.000909E+04 -4.456108E+03  1.808536E+03 -2.856110E+03
       415   8 -1.092634E+06 -1.999484E+04 -2.386469E+04 -2.700510E+03  4.284289E+03 -3.228879E+03
       415   9 -1.101564E+06 -2.513026E+04 -3.013461E+04 -5.810818E+03  6.760010E+03 -3.442591E+03
       415  10 -9.373041E+05  1.837107E+04  1.450186E+04 -5.326328E+03 -4.413576E-10 -1.056661E-10
       415  11 -9.283942E+05  2.056671E+04  1.451648E+04 -2.215184E+03 -4.231003E-10 -9.469929E-11
       415  12 -9.205658E+05  1.959037E+04  1.225999E+04 -3.969864E+03 -5.541805E-10  2.083342E-10
       415  13 -1.011066E+06  1.519302E+02 -2.753442E+03 -4.891190E+03  6.732105E-11 -2.328945E-10
       415  14 -1.010517E+06  2.861626E+02 -4.673902E+03 -2.457857E+03 -2.852143E-10  6.162557E-12
       415  15 -1.011069E+06 -2.769666E+03 -8.937087E+03 -4.890399E+03  9.359529E-11  1.582413E-10
       415  16 -1.084822E+06 -1.806760E+04 -2.000911E+04 -4.456104E+03  9.202700E-12 -2.405605E-10
       415  17 -1.092634E+06 -1.999486E+04 -2.386475E+04 -2.700499E+03  3.906160E-10 -2.026873E-10
       415  18 -1.101564E+06 -2.513028E+04 -3.013472E+04 -5.810799E+03  2.793025E-10  3.348422E-10
       415  19 -9.373041E+05  1.837108E+04  1.450188E+04 -5.326334E+03 -2.395017E+03  2.855944E+03
       415  20 -9.283941E+05  2.056672E+04  1.451654E+04 -2.215196E+03 -4.665455E+03  3.228722E+03
       415  21 -9.205657E+05  1.959040E+04  1.226010E+04 -3.969883E+03 -6.935925E+03  3.442452E+03
       415  22 -1.011066E+06  1.519401E+02 -2.753419E+03 -4.891195E+03 -2.101759E+03  2.856027E+03
       415  23 -1.010517E+06  2.861791E+02 -4.673845E+03 -2.457869E+03 -4.474860E+03  3.228801E+03
       415  24 -1.011069E+06 -2.769640E+03 -8.936976E+03 -4.890418E+03 -6.847961E+03  3.442522E+03
       415  25 -1.084822E+06 -1.806759E+04 -2.000909E+04 -4.456108E+03 -1.808536E+03  2.856110E+03
       415  26 -1.092634E+06 -1.999484E+04 -2.386469E+04 -2.700510E+03 -4.284289E+03  3.228879E+03
       415  27 -1.101564E+06 -2.513026E+04 -3.013461E+04 -5.810818E+03 -6.760010E+03  3.442591E+03
       416   1 -9.139978E+05  2.627323E+04  1.207575E+04 -9.571047E+03  9.455900E+03 -4.020053E+03
       416   2 -9.007650E+05  2.956354E+04  7.004853E+03  1.371728E+03  1.733035E+04 -4.076453E+03
       416   3 -8.977761E+05 -4.050932E+03 -1.242148E+04  7.707047E+03  2.520368E+04 -1.318646E+03
       416   4 -1.013168E+06  1.797216E+03 -1.104563E+04 -4.837334E+03  8.505931E+03 -4.020321E+03
       416   5 -1.007896E+06  3.093390E+03 -1.808468E+04 -2.526922E+03  1.820045E+04 -4.076292E+03
       416   6 -1.013186E+06 -3.283526E+04 -4.074635E+04 -4.823906E+03  2.789369E+04 -1.318059E+03
       416   7 -1.112330E+06 -2.267941E+04 -3.416765E+04 -1.043847E+02  7.556113E+03 -4.020604E+03
       416   8 -1.115016E+06 -2.337752E+04 -4.317499E+04 -6.424895E+03  1.907040E+04 -4.076142E+03
       416   9 -1.128583E+06 -6.161998E+04 -6.907210E+04 -1.735252E+04  3.058319E+04 -1.317580E+03
       416  10 -9.139979E+05  2.627319E+04  1.207555E+04 -9.571016E+03 -1.200456E-11  2.236902E-10
       416  11 -9.007653E+05  2.956344E+04  7.004257E+03  1.371785E+03 -3.438789E-10  2.533432E-10
       416  12 -8.977768E+05 -4.051105E+03 -1.242268E+04  7.707074E+03 -3.378959E-10  3.025495E-10
       416  13 -1.013168E+06  1.797179E+03 -1.104579E+04 -4.837307E+03  7.265147E-10 -2.403242E-10
       416  14 -1.007896E+06  3.093284E+03 -1.808534E+04 -2.526862E+03 -1.168160E-10  2.485100E-10
       416  15 -1.013187E+06 -3.283547E+04 -4.074782E+04 -4.823876E+03  1.120275E-10 -1.099403E-10
       416  16 -1.112330E+06 -2.267944E+04 -3.416779E+04 -1.043603E+02  2.221622E-10  3.553084E-10
       416  17 -1.115017E+06 -2.337764E+04 -4.317571E+04 -6.424833E+03  7.789682E-10 -4.209686E-11
       416  18 -1.128584E+06 -6.162024E+04 -6.907386E+04 -1.735249E+04 -3.623442E-10  3.697095E-10
       416  19 -9.139978E+05  2.627323E+04  1.207575E+04 -9.571047E+03 -9.455900E+03  4.020053E+03
       416  20 -9.007650E+05  2.956354E+04  7.004853E+03  1.371728E+03 -1.733035E+04  4.076453E+03
       416  21 -8.977761E+05 -4.050932E+03 -1.242148E+04  7.707047E+03 -2.520368E+04  1.318646E+03
       416  22 -1.013168E+06  1.797216E+03 -1.104563E+04 -4.837334E+03 -8.505931E+03  4.020321E+03
       416  23 -1.007896E+06  3.093390E+03 -1.808468E+04 -2.526922E+03 -1.820045E+04  4.076292E+03
       416  24 -1.013186E+06 -3.283526E+04 -4.074635E+04 -4.823906E+03 -2.789369E+04  1.318059E+03
       416  25 -1.112330E+06 -2.267941E+04 -3.416765E+04 -1.043847E+02 -7.556113E+03  4.020604E+03
       416  26 -1.115016E+06 -2.337752E+04 -4.317499E+04 -6.424895E+03 -1.907040E+04  4.076142E+03
       416  27 -1.128583E+06 -6.161998E+04 -6.907210E+04 -1.735252E+04 -3.058319E+04  1.317580E+03
       417   1  2.005600E+06  4.584872E+05  5.769425E+05  1.750069E+05  4.136062E+05  1.595997E+03
       417   2  1.949465E+06 -7.061315E+04  2.461544E+05  5.272322E+04  2.711290E+05  3.899945E+03
       417   3  2.050176E+06 -4.616945E+04  1.463804E+05 -8.235677E+04  1.286401E+05  3.149069E+03
       417   4  2.128091E+06  4.886801E+05  6.069012E+05 -1.153663E+04  4.162672E+05  1.473117E+03
       417   5  2.049771E+06 -4.596792E+04  2.695682E+05 -5.033539E+03  2.717411E+05  3.874963E+03
       417   6  2.128582E+06 -2.682983E+04  1.646279E+05 -1.133879E+04  1.272090E+05  3.163269E+03
       417   7  2.250670E+06  5.190023E+05  6.368775E+05 -1.981169E+05  4.189287E+05  1.348664E+03
       417   8  2.150093E+06 -2.131091E+04  2.929831E+05 -6.279966E+04  2.723534E+05  3.849871E+03
       417   9  2.207005E+06 -7.471745E+03  1.828776E+05  5.968819E+04  1.257776E+05  3.177142E+03
       417  10  2.005416E+06  4.584415E+05  5.766220E+05  1.750063E+05  2.239968E-10 -6.491398E-10
       417  11  1.949387E+06 -7.063282E+04  2.460166E+05  5.272237E+04  3.005894E-10 -3.612541E-10
       417  12  2.050158E+06 -4.617388E+04  1.463494E+05 -8.235709E+04 -1.736384E-09 -4.079898E-10
       417  13  2.127905E+06  4.886338E+05  6.065767E+05 -1.153712E+04  7.246186E-10  9.827156E-11
       417  14  2.049692E+06 -4.598768E+04  2.694299E+05 -5.034387E+03  6.065658E-10 -3.848649E-10
       417  15  2.128565E+06 -2.683416E+04  1.645976E+05 -1.133912E+04 -7.844041E-10 -1.971554E-10
       417  16  2.250482E+06  5.189554E+05  6.365489E+05 -1.981173E+05  8.580115E-11 -3.923987E-11
       417  17  2.150013E+06 -2.133075E+04  2.928442E+05 -6.280051E+04  1.645390E-09  3.229899E-11
       417  18  2.206988E+06 -7.475983E+03  1.828480E+05  5.968787E+04  2.319818E-09  1.133796E-09
       417  19  2.005600E+06  4.584872E+05  5.769425E+05  1.750069E+05 -4.136062E+05 -1.595997E+03
       417  20  1.949465E+06 -7.061315E+04  2.461544E+05  5.272322E+04 -2.711290E+05 -3.899945E+03
       417  21  2.050176E+06 -4.616945E+04  1.463804E+05 -8.235677E+04 -1.286401E+05 -3.149069E+03
       417  22  2.128091E+06  4.886801E+05  6.069012E+05 -1.153663E+04 -4.162672E+05 -1.473117E+03
       417  23  2.049771E+06 -4.596792E+04  2.695682E+05 -5.033539E+03 -2.717411E+05 -3.874963E+03
       417  24  2.128582E+06 -2.682983E+04  1.646279E+05 -1.133879E+04 -1.272090E+05 -3.163269E+03
       417  25  2.250670E+06  5.190023E+05  6.368775E+05 -1.981169E+05 -4.189287E+05 -1.348664E+03
       417  26  2.150093E+06 -2.131091E+04  2.929831E+05 -6.279966E+04 -2.723534E+05 -3.849871E+03
       417  27  2.207005E+06 -7.471745E+03  1.828776E+05  5.968819E+04 -1.257776E+05 -3.177142E+03
       418   1  2.041391E+06  2.737206E+04  1.201554E+05  2.072109E+03  1.028926E+05  2.176364E+03
       418   2  2.054766E+06 -1.271362E+04  6.162001E+04 -1.706364E+03  6.763575E+04  1.356245E+03
       418   3  2.084558E+06 -5.450931E+03  3.782873E+04 -1.800152E+04  3.237893E+04  3.677693E+02
       418   4  2.097206E+06  4.110249E+04  1.331694E+05 -1.133916E+04  1.024280E+05  2.174000E+03
       418   5  2.089025E+06 -4.283667E+03  6.960015E+04 -5.074884E+03  6.705794E+04  1.355713E+03
       418   6  2.097278E+06 -2.304289E+03  4.085045E+04 -1.132676E+04  3.168913E+04  3.679391E+02
       418   7  2.153024E+06  5.483338E+04  1.461832E+05 -2.475164E+04  1.019633E+05  2.171655E+03
       418   8  2.123285E+06  4.146244E+03  7.758021E+04 -8.443592E+03  6.648010E+04  1.355188E+03
       418   9  2.109999E+06  8.425089E+02  4.387219E+04 -4.651867E+03  3.099931E+04  3.680941E+02
       418  10  2.041380E+06  2.736922E+04  1.201356E+05  2.071929E+03 -3.671292E-10  7.059497E-11
       418  11  2.054761E+06 -1.271484E+04  6.161144E+04 -1.706438E+03  3.825137E-10  3.511488E-10
       418  12  2.084557E+06 -5.451211E+03  3.782677E+04 -1.800153E+04 -2.032787E-10 -5.351316E-10
       418  13  2.097194E+06  4.109968E+04  1.331497E+05 -1.133934E+04  6.823312E-10  7.284192E-10
       418  14  2.089020E+06 -4.284871E+03  6.959172E+04 -5.074958E+03  1.062374E-09  2.140793E-10
       418  15  2.097277E+06 -2.304557E+03  4.084857E+04 -1.132677E+04 -6.131391E-10 -4.924421E-10
       418  16  2.153013E+06  5.483060E+04  1.461637E+05 -2.475182E+04 -6.156431E-11  8.034693E-10
       418  17  2.123281E+06  4.145060E+03  7.757193E+04 -8.443664E+03  8.978937E-10 -1.295274E-11
       418  18  2.109998E+06  8.422518E+02  4.387039E+04 -4.651876E+03 -9.669631E-11 -1.975914E-10
       418  19  2.041391E+06  2.737206E+04  1.201554E+05  2.072109E+03 -1.028926E+05 -2.176364E+03
       418  20  2.054766E+06 -1.271362E+04  6.162001E+04 -1.706364E+03 -6.763575E+04 -1.356245E+03
       418  21  2.084558E+06 -5.450931E+03  3.782873E+04 -1.800152E+04 -3.237893E+04 -3.677693E+02
       418  22  2.097206E+06  4.110249E+04  1.331694E+05 -1.133916E+04 -1.024280E+05 -2.174000E+03
       418  23  2.089025E+06 -4.283667E+03  6.960015E+04 -5.074884E+03 -6.705794E+04 -1.355713E+03
       418  24  2.097278E+06 -2.304289E+03  4.085045E+04 -1.132676E+04 -3.168913E+04 -3.679391E+02
       418  25  2.153024E+06  5.483338E+04  1.461832E+05 -2.475164E+04 -1.019633E+05 -2.171655E+03
       418  26  2.123285E+06  4.146244E+03  7.758021E+04 -8.443592E+03 -6.648010E+04 -1.355188E+03
       418  27  2.109999E+06  8.425089E+02  4.387219E+04 -4.651867E+03 -3.099931E+04 -3.680941E+02
       419   1  2.103791E+06  5.724553E+03  3.402041E+04 -1.081207E+04  2.592656E+04 -2.344770E+02
       419   2  2.124248E+06  7.227439E+03  2.498996E+04 -5.164553E+03  1.709427E+04 -1.222705E+03
       419   3  2.146870E+06  1.276343E+04  2.270594E+04 -1.202476E+04  8.261973E+03 -2.224035E+03
       419   4  2.094100E+06  3.327672E+03  3.170515E+04 -1.132926E+04  2.528975E+04 -2.346615E+02
       419   5  2.093025E+06 -4.566239E+02  1.772013E+04 -5.074928E+03  1.644899E+04 -1.222884E+03
       419   6  2.094114E+06 -2.062466E+02  1.048732E+04 -1.132834E+04  7.608524E+03 -2.224224E+03
       419   7  2.084410E+06  9.307865E+02  2.938989E+04 -1.184643E+04  2.465295E+04 -2.348449E+02
       419   8  2.061802E+06 -8.140755E+03  1.045023E+04 -4.985308E+03  1.580374E+04 -1.223063E+03
       419   9  2.041360E+06 -1.317611E+04 -1.731490E+03 -1.063199E+04  6.955130E+03 -2.224415E+03
       419  10  2.103790E+06  5.724373E+03  3.401915E+04 -1.081207E+04 -6.259324E-10 -7.329155E-10
       419  11  2.124248E+06  7.227359E+03  2.498941E+04 -5.164536E+03 -2.023515E-09 -6.536508E-10
       419  12  2.146870E+06  1.276341E+04  2.270580E+04 -1.202474E+04 -2.416123E-10 -4.327003E-10
       419  13  2.094100E+06  3.327501E+03  3.170395E+04 -1.132925E+04 -8.221925E-10 -3.875319E-10
       419  14  2.093024E+06 -4.566979E+02  1.771962E+04 -5.074912E+03 -7.887337E-11  4.168372E-11
       419  15  2.094114E+06 -2.062674E+02  1.048720E+04 -1.132833E+04 -1.522524E-09 -5.690970E-10
       419  16  2.084410E+06  9.306240E+02  2.938875E+04 -1.184643E+04 -2.989208E-10  2.093529E-10
       419  17  2.061801E+06 -8.140824E+03  1.044976E+04 -4.985292E+03 -3.391587E-10  1.136792E-10
       419  18  2.041360E+06 -1.317613E+04 -1.731590E+03 -1.063198E+04 -1.829789E-10  3.142043E-10
       419  19  2.103791E+06  5.724553E+03  3.402041E+04 -1.081207E+04 -2.592656E+04  2.344770E+02
       419  20  2.124248E+06  7.227439E+03  2.498996E+04 -5.164553E+03 -1.709427E+04  1.222705E+03
       419  21  2.146870E+06  1.276343E+04  2.270594E+04 -1.202476E+04 -8.261973E+03  2.224035E+03
       419  22  2.094100E+06  3.327672E+03  3.170515E+04 -1.132926E+04 -2.528975E+04  2.346615E+02
       419  23  2.093025E+06 -4.566239E+02  1.772013E+04 -5.074928E+03 -1.644899E+04  1.222884E+03
       419  24  2.094114E+06 -2.062466E+02  1.048732E+04 -1.132834E+04 -7.608524E+03  2.224224E+03
       419  25  2.084410E+06  9.307865E+02  2.938989E+04 -1.184643E+04 -2.465295E+04  2.348449E+02
       419  26  2.061802E+06 -8.140755E+03  1.045023E+04 -4.985308E+03 -1.580374E+04  1.223063E+03
       419  27  2.041360E+06 -1.317611E+04 -1.731490E+03 -1.063199E+04 -6.955130E+03  2.224415E+03
       420   1  2.169094E+06  1.878918E+04  2.581803E+04 -1.146164E+04  6.579673E+03 -2.809755E+03
       420   2  2.190790E+06  2.386592E+04  2.786418E+04 -5.067688E+03  4.001552E+03 -3.821191E+03
       420   3  2.212928E+06  2.929567E+04  3.167670E+04 -1.140128E+04  1.423485E+03 -4.842858E+03
       420   4  2.093730E+06  2.300259E+02  8.207830E+03 -1.137758E+04  5.925808E+03 -2.809974E+03
       420   5  2.093510E+06 -7.366871E+01  5.214718E+03 -5.013709E+03  3.341298E+03 -3.821463E+03
       420   6  2.093731E+06 -2.327148E+01  3.992430E+03 -1.137751E+04  7.569305E+02 -4.843183E+03
       420   7  2.018371E+06 -1.832953E+04 -9.402750E+03 -1.129352E+04  5.272023E+03 -2.810194E+03
       420   8  1.996238E+06 -2.401392E+04 -1.743538E+04 -4.959740E+03  2.681146E+03 -3.821736E+03
       420   9  1.974548E+06 -2.934321E+04 -2.369279E+04 -1.135375E+04  9.050285E+01 -4.843508E+03
       420  10  2.169094E+06  1.878916E+04  2.581793E+04 -1.146162E+04  1.854590E-10 -1.512553E-10
       420  11  2.190790E+06  2.386590E+04  2.786412E+04 -5.067675E+03 -6.377516E-10 -5.258657E-10
       420  12  2.212928E+06  2.929565E+04  3.167665E+04 -1.140128E+04 -1.241725E-09 -4.667393E-10
       420  13  2.093730E+06  2.300081E+02  8.207750E+03 -1.137756E+04  3.367770E-11 -3.363792E-11
       420  14  2.093510E+06 -7.368739E+01  5.214670E+03 -5.013699E+03 -4.775604E-10 -3.815883E-10
       420  15  2.093731E+06 -2.329685E+01  3.992384E+03 -1.137751E+04  7.520003E-10  3.663767E-10
       420  16  2.018371E+06 -1.832955E+04 -9.402817E+03 -1.129351E+04  3.535813E-10  2.762794E-10
       420  17  1.996238E+06 -2.401394E+04 -1.743542E+04 -4.959731E+03 -1.525356E-10 -5.330338E-10
       420  18  1.974548E+06 -2.934324E+04 -2.369284E+04 -1.135375E+04  3.498836E-10  1.626878E-10
       420  19  2.169094E+06  1.878918E+04  2.581803E+04 -1.146164E+04 -6.579673E+03  2.809755E+03
       420  20  2.190790E+06  2.386592E+04  2.786418E+04 -5.067688E+03 -4.001552E+03  3.821191E+03
       420  21  2.212928E+06  2.929567E+04  3.167670E+04 -1.140128E+04 -1.423485E+03  4.842858E+03
       420  22  2.093730E+06  2.300259E+02  8.207830E+03 -1.137758E+04 -5.925808E+03  2.809974E+03
       420  23  2.093510E+06 -7.366871E+01  5.214718E+03 -5.013709E+03 -3.341298E+03  3.821463E+03
       420  24  2.093731E+06 -2.327148E+01  3.992430E+03 -1.137751E+04 -7.569305E+02  4.843183E+03
       420  25  2.018371E+06 -1.832953E+04 -9.402750E+03 -1.129352E+04 -5.272023E+03  2.810194E+03
       420  26  1.996238E+06 -2.401392E+04 -1.743538E+04 -4.959740E+03 -2.681146E+03  3.821736E+03
       420  27  1.974548E+06 -2.934321E+04 -2.369279E+04 -1.135375E+04 -9.050285E+01  4.843508E+03
       421   1  2.236128E+06  3.504031E+04  3.707603E+04 -1.140591E+04  7.196933E+02 -5.443100E+03
       421   2  2.258626E+06  4.056104E+04  4.290932E+04 -4.774028E+03 -1.486170E+03 -6.488131E+03
       421   3  2.281516E+06  4.635995E+04  5.025207E+04 -1.132300E+04 -3.691808E+03 -7.547934E+03
       421   4  2.093719E+06 -1.684120E+01  3.856131E+03 -1.147827E+04  4.608758E+01 -5.443473E+03
       421   5  2.093521E+06 -6.789032E+01  4.470045E+03 -4.887779E+03 -2.168884E+03 -6.488596E+03
       421   6  2.093716E+06  1.609372E+02  6.600035E+03 -1.147836E+04 -4.383551E+03 -7.548491E+03
       421   7  1.951329E+06 -3.507543E+04 -2.936514E+04 -1.155061E+04 -6.273651E+02 -5.443846E+03
       421   8  1.928441E+06 -4.069874E+04 -3.397106E+04 -5.001503E+03 -2.851418E+03 -6.489061E+03
       421   9  1.905948E+06 -4.604056E+04 -3.705437E+04 -1.163368E+04 -5.075087E+03 -7.549048E+03
       421  10  2.236128E+06  3.504028E+04  3.707598E+04 -1.140590E+04 -1.058410E-09 -2.394286E-10
       421  11  2.258626E+06  4.056100E+04  4.290923E+04 -4.774036E+03  1.034882E-10  8.598913E-10
       421  12  2.281516E+06  4.635989E+04  5.025194E+04 -1.132302E+04 -1.029919E-10 -3.544530E-10
       421  13  2.093719E+06 -1.687305E+01  3.856076E+03 -1.147827E+04  1.410276E-09  1.356244E-09
       421  14  2.093521E+06 -6.793683E+01  4.469957E+03 -4.887790E+03  9.983613E-10  1.780361E-09
       421  15  2.093716E+06  1.608708E+02  6.599892E+03 -1.147839E+04  4.287469E-12 -6.323458E-11
       421  16  1.951329E+06 -3.507546E+04 -2.936520E+04 -1.155061E+04  1.141236E-09  9.784119E-10
       421  17  1.928441E+06 -4.069879E+04 -3.397116E+04 -5.001518E+03 -1.776256E-11  4.335299E-10
       421  18  1.905948E+06 -4.604063E+04 -3.705452E+04 -1.163371E+04 -1.083087E-09 -6.191666E-10
       421  19  2.236128E+06  3.504031E+04  3.707603E+04 -1.140591E+04 -7.196933E+02  5.443100E+03
       421  20  2.258626E+06  4.056104E+04  4.290932E+04 -4.774028E+03  1.486170E+03  6.488131E+03
       421  21  2.281516E+06  4.635995E+04  5.025207E+04 -1.132300E+04  3.691808E+03  7.547934E+03
       421  22  2.093719E+06 -1.684120E+01  3.856131E+03 -1.147827E+04 -4.608758E+01  5.443473E+03
       421  23  2.093521E+06 -6.789032E+01  4.470045E+03 -4.887779E+03  2.168884E+03  6.488596E+03
       421  24  2.093716E+06  1.609372E+02  6.600035E+03 -1.147836E+04  4.383551E+03  7.548491E+03
       421  25  1.951329E+06 -3.507543E+04 -2.936514E+04 -1.155061E+04  6.273651E+02  5.443846E+03
       421  26  1.928441E+06 -4.069874E+04 -3.397106E+04 -5.001503E+03  2.851418E+03  6.489061E+03
       421  27  1.905948E+06 -4.604056E+04 -3.705437E+04 -1.163368E+04  5.075087E+03  7.549048E+03
       422   1  2.306051E+06  5.201527E+04  5.773482E+04 -1.098864E+04 -5.013835E+03 -8.179009E+03
       422   2  2.329063E+06  5.768293E+04  6.873840E+04 -4.488900E+03 -1.191107E+04 -9.276936E+03
       422   3  2.353811E+06  6.646098E+04  8.501146E+04 -1.186397E+04 -1.880808E+04 -1.036817E+04
       422   4  2.094012E+06 -1.756130E+02  8.304245E+03 -1.163188E+04 -5.725159E+03 -8.179646E+03
       422   5  2.093137E+06 -3.713245E+02  1.381272E+04 -4.695383E+03 -1.261573E+04 -9.277703E+03
       422   6  2.093999E+06  2.543174E+03  2.458765E+04 -1.163401E+04 -1.950582E+04 -1.036907E+04
       422   7  1.882014E+06 -5.236967E+04 -4.112937E+04 -1.227491E+04 -6.436242E+03 -8.180281E+03
       422   8  1.857263E+06 -5.842950E+04 -4.111672E+04 -4.901797E+03 -1.332012E+04 -9.278470E+03
       422   9  1.834248E+06 -6.137938E+04 -3.584071E+04 -1.140416E+04 -2.020327E+04 -1.036997E+04
       422  10  2.306051E+06  5.201519E+04  5.773465E+04 -1.098867E+04 -1.027077E-09  7.384766E-10
       422  11  2.329063E+06  5.768280E+04  6.873797E+04 -4.488989E+03 -2.449249E-09 -9.818914E-10
       422  12  2.353811E+06  6.646077E+04  8.501060E+04 -1.186413E+04  6.436370E-10  3.120506E-10
       422  13  2.094012E+06 -1.756937E+02  8.304057E+03 -1.163192E+04 -1.875285E-13 -2.092962E-11
       422  14  2.093137E+06 -3.714596E+02  1.381226E+04 -4.695477E+03 -1.030414E-09 -4.187571E-11
       422  15  2.093998E+06  2.542956E+03  2.458673E+04 -1.163418E+04 -1.496406E-10 -4.623237E-10
       422  16  1.882014E+06 -5.236975E+04 -4.112957E+04 -1.227495E+04  1.245399E-10 -8.843699E-10
       422  17  1.857262E+06 -5.842964E+04 -4.111722E+04 -4.901897E+03  3.067365E-10  1.700646E-10
       422  18  1.834247E+06 -6.137961E+04 -3.584168E+04 -1.140433E+04 -1.209730E-09  4.433832E-11
       422  19  2.306051E+06  5.201527E+04  5.773482E+04 -1.098864E+04  5.013835E+03  8.179009E+03
       422  20  2.329063E+06  5.768293E+04  6.873840E+04 -4.488900E+03  1.191107E+04  9.276936E+03
       422  21  2.353811E+06  6.646098E+04  8.501146E+04 -1.186397E+04  1.880808E+04  1.036817E+04
       422  22  2.094012E+06 -1.756130E+02  8.304245E+03 -1.163188E+04  5.725159E+03  8.179646E+03
       422  23  2.093137E+06 -3.713245E+02  1.381272E+04 -4.695383E+03  1.261573E+04  9.277703E+03
       422  24  2.093999E+06  2.543174E+03  2.458765E+04 -1.163401E+04  1.950582E+04  1.036907E+04
       422  25  1.882014E+06 -5.236967E+04 -4.112937E+04 -1.227491E+04  6.436242E+03  8.180281E+03
       422  26  1.857263E+06 -5.842950E+04 -4.111672E+04 -4.901797E+03  1.332012E+04  9.278470E+03
       422  27  1.834248E+06 -6.137938E+04 -3.584071E+04 -1.140416E+04  2.020327E+04  1.036997E+04
       423   1  2.381972E+06  6.846345E+04  9.817227E+04 -6.471834E+03 -2.358269E+04 -1.110869E+04
       423   2  2.401043E+06  7.318069E+04  1.262714E+05 -6.797382E+03 -5.130411E+04 -1.224426E+04
       423   3  2.432977E+06  1.145712E+05  1.815611E+05 -2.194587E+04 -7.902786E+04 -1.285565E+04
       423   4  2.096461E+06 -1.812830E+03  3.164868E+04 -1.183209E+04 -2.446608E+04 -1.110966E+04
       423   5  2.090027E+06 -3.343358E+03  5.385793E+04 -4.439720E+03 -5.183501E+04 -1.224546E+04
       423   6  2.096401E+06  3.174869E+04  1.030233E+05 -1.187040E+04 -7.920513E+04 -1.285765E+04
       423   7  1.811025E+06 -7.209475E+04 -3.488039E+04 -1.718989E+04 -2.534906E+04 -1.111062E+04
       423   8  1.779099E+06 -7.987419E+04 -1.856204E+04 -2.083267E+03 -5.236563E+04 -1.224667E+04
       423   9  1.759928E+06 -5.108141E+04  2.447801E+04 -1.800438E+03 -7.938230E+04 -1.285966E+04
       423  10  2.381971E+06  6.846317E+04  9.817099E+04 -6.472044E+03  6.588876E-11 -1.049486E-10
       423  11  2.401041E+06  7.317982E+04  1.262662E+05 -6.797888E+03 -6.129173E-10 -1.293845E-09
       423  12  2.432970E+06  1.145693E+05  1.815491E+05 -2.194669E+04  2.124999E-10 -2.126134E-09
       423  13  2.096460E+06 -1.813123E+03  3.164733E+04 -1.183231E+04  3.036945E-10 -5.242097E-10
       423  14  2.090024E+06 -3.344238E+03  5.385262E+04 -4.440231E+03 -5.650907E-10 -1.070810E-09
       423  15  2.096394E+06  3.174683E+04  1.030113E+05 -1.187122E+04 -3.131085E-10 -1.548295E-09
       423  16  1.811024E+06 -7.209505E+04 -3.488182E+04 -1.719011E+04  7.653050E-10 -1.493988E-10
       423  17  1.779096E+06 -7.987509E+04 -1.856746E+04 -2.083783E+03  2.598081E-09  2.809234E-09
       423  18  1.759922E+06 -5.108327E+04  2.446589E+04 -1.801259E+03 -3.763754E-10 -9.169506E-11
       423  19  2.381972E+06  6.846345E+04  9.817227E+04 -6.471834E+03  2.358269E+04  1.110869E+04
       423  20  2.401043E+06  7.318069E+04  1.262714E+05 -6.797382E+03  5.130411E+04  1.224426E+04
       423  21  2.432977E+06  1.145712E+05  1.815611E+05 -2.194587E+04  7.902786E+04  1.285565E+04
       423  22  2.096461E+06 -1.812830E+03  3.164868E+04 -1.183209E+04  2.446608E+04  1.110966E+04
       423  23  2.090027E+06 -3.343358E+03  5.385793E+04 -4.439720E+03  5.183501E+04  1.224546E+04
       423  24  2.096401E+06  3.174869E+04  1.030233E+05 -1.187040E+04  7.920513E+04  1.285765E+04
       423  25  1.811025E+06 -7.209475E+04 -3.488039E+04 -1.718989E+04  2.534906E+04  1.111062E+04
       423  26  1.779099E+06 -7.987419E+04 -1.856204E+04 -2.083267E+03  5.236563E+04  1.224667E+04
       423  27  1.759928E+06 -5.108141E+04  2.447801E+04 -1.800438E+03  7.938230E+04  1.285966E+04
       424   1  2.484809E+06  6.893660E+04  2.119556E+05  4.333035E+04 -9.504910E+04 -1.488971E+04
       424   2  2.451225E+06  6.062926E+04  2.998315E+05 -4.845796E+04 -2.134689E+05 -1.515812E+04
       424   3  2.540422E+06  4.817359E+05  5.720010E+05 -1.564756E+05 -3.319096E+05 -5.303140E+03
       424   4  2.120678E+06 -2.080383E+04  1.273523E+05 -1.197286E+04 -9.837282E+04 -1.488628E+04
       424   5  2.059635E+06 -3.560544E+04  2.084880E+05 -4.181966E+03 -2.101754E+05 -1.516913E+04
       424   6  2.120285E+06  3.779694E+05  4.694061E+05 -1.260564E+04 -3.219917E+05 -5.363619E+03
       424   7  1.756675E+06 -1.105422E+05  4.274177E+04 -6.724355E+04 -1.016946E+05 -1.488226E+04
       424   8  1.668190E+06 -1.318435E+05  1.171352E+05  4.006597E+04 -2.068838E+05 -1.517968E+04
       424   9  1.700353E+06  2.742677E+05  3.668099E+05  1.311671E+05 -3.120805E+05 -5.419558E+03
       424  10  2.484799E+06  6.893395E+04  2.119383E+05  4.332921E+04 -5.149487E-10 -2.782695E-09
       424  11  2.451176E+06  6.061684E+04  2.997457E+05 -4.846057E+04 -3.204681E-09 -4.599730E-09
       424  12  2.540304E+06  4.817064E+05  5.717948E+05 -1.564770E+05 -2.444528E-09 -1.528017E-09
       424  13  2.120667E+06 -2.080665E+04  1.273338E+05 -1.197404E+04 -2.457147E-09 -7.046156E-09
       424  14  2.059588E+06 -3.561749E+04  2.084048E+05 -4.184531E+03  1.649130E-09  2.738514E-09
       424  15  2.120174E+06  3.779416E+05  4.692119E+05 -1.260703E+04  8.672847E-11 -3.099399E-10
       424  16  1.756664E+06 -1.105452E+05  4.272197E+04 -6.724477E+04  6.965478E-10 -1.615932E-09
       424  17  1.668145E+06 -1.318552E+05  1.170546E+05  4.006345E+04  4.108928E-09  2.440842E-09
       424  18  1.700249E+06  2.742416E+05  3.666273E+05  1.311658E+05  5.333466E-10 -1.490543E-09
       424  19  2.484809E+06  6.893660E+04  2.119556E+05  4.333035E+04  9.504910E+04  1.488971E+04
       424  20  2.451225E+06  6.062926E+04  2.998315E+05 -4.845796E+04  2.134689E+05  1.515812E+04
       424  21  2.540422E+06  4.817359E+05  5.720010E+05 -1.564756E+05  3.319096E+05  5.303140E+03
       424  22  2.120678E+06 -2.080383E+04  1.273523E+05 -1.197286E+04  9.837282E+04  1.488628E+04
       424  23  2.059635E+06 -3.560544E+04  2.084880E+05 -4.181966E+03  2.101754E+05  1.516913E+04
       424  24  2.120285E+06  3.779694E+05  4.694061E+05 -1.260564E+04  3.219917E+05  5.363619E+03
       424  25  1.756675E+06 -1.105422E+05  4.274177E+04 -6.724355E+04  1.016946E+05  1.488226E+04
       424  26  1.668190E+06 -1.318435E+05  1.171352E+05  4.006597E+04  2.068838E+05  1.517968E+04
       424  27  1.700353E+06  2.742677E+05  3.668099E+05  1.311671E+05  3.120805E+05  5.419558E+03
       425   1  5.722787E+05  1.902150E+05  1.750078E+05  4.588415E+04  4.544811E+04 -1.263895E+04
       425   2  5.080810E+05  1.920988E+05  1.428759E+05  5.099960E+04  1.765319E+04 -4.273072E+04
       425   3  4.444310E+05  1.816199E+05  1.257801E+05  6.853503E+04 -1.017371E+04 -5.163053E+04
       425   4 -3.337830E+05 -3.326483E+04 -3.694127E+04  6.568572E+04 -2.577200E+04 -1.277486E+04
       425   5 -3.308081E+05 -7.793586E+03 -1.803081E+04  5.944164E+04 -1.641070E+04 -4.280521E+04
       425   6 -3.337439E+05 -1.145092E+03 -9.884310E+03  6.561804E+04 -7.084936E+03 -5.162944E+04
       425   7 -1.239076E+06 -2.567986E+05 -2.489269E+05  8.545785E+04 -9.688889E+04 -1.291542E+04
       425   8 -1.169017E+06 -2.077266E+05 -1.789653E+05  6.787166E+04 -5.042964E+04 -4.288068E+04
       425   9 -1.111326E+06 -1.839429E+05 -1.455702E+05  6.270446E+04 -3.999914E+03 -5.162839E+04
       425  10  5.722765E+05  1.902143E+05  1.750036E+05  4.588461E+04  4.331247E-09 -1.032334E-09
       425  11  5.080801E+05  1.920967E+05  1.428719E+05  5.100020E+04  2.568843E-09 -4.861059E-09
       425  12  4.444302E+05  1.816171E+05  1.257749E+05  6.853461E+04 -4.640231E-10 -3.252447E-09
       425  13 -3.337837E+05 -3.326518E+04 -3.694282E+04  6.568546E+04 -1.372333E-10  1.119489E-09
       425  14 -3.308089E+05 -7.795626E+03 -1.803476E+04  5.944107E+04 -6.679941E-10 -3.318482E-09
       425  15 -3.337447E+05 -1.147967E+03 -9.889412E+03  6.561774E+04 -3.182203E-10  2.155098E-10
       425  16 -1.239087E+06 -2.568013E+05 -2.489449E+05  8.545684E+04 -4.032414E-09  5.750860E-10
       425  17 -1.169020E+06 -2.077293E+05 -1.789736E+05  6.786991E+04 -1.203942E-09 -6.047188E-09
       425  18 -1.111326E+06 -1.839458E+05 -1.455752E+05  6.270430E+04  9.373056E-10 -6.143370E-09
       425  19  5.722787E+05  1.902150E+05  1.750078E+05  4.588415E+04 -4.544811E+04  1.263895E+04
       425  20  5.080810E+05  1.920988E+05  1.428759E+05  5.099960E+04 -1.765319E+04  4.273072E+04
       425  21  4.444310E+05  1.816199E+05  1.257801E+05  6.853503E+04  1.017371E+04  5.163053E+04
       425  22 -3.337830E+05 -3.326483E+04 -3.694127E+04  6.568572E+04  2.577200E+04  1.277486E+04
       425  23 -3.308081E+05 -7.793586E+03 -1.803081E+04  5.944164E+04  1.641070E+04  4.280521E+04
       425  24 -3.337439E+05 -1.145092E+03 -9.884310E+03  6.561804E+04  7.084936E+03  5.162944E+04
       425  25 -1.239076E+06 -2.567986E+05 -2.489269E+05  8.545785E+04  9.688889E+04  1.291542E+04
       425  26 -1.169017E+06 -2.077266E+05 -1.789653E+05  6.787166E+04  5.042964E+04  4.288068E+04
       425  27 -1.111326E+06 -1.839429E+05 -1.455702E+05  6.270446E+04  3.999914E+03  5.162839E+04
       426   1  4.032979E+05  1.710953E+05  1.192914E+05  6.652190E+04 -6.887498E+03 -5.011957E+04
       426   2  3.394386E+05  1.567749E+05  1.084818E+05  6.001418E+04 -8.327150E+03 -4.850890E+04
       426   3  2.756403E+05  1.420747E+05  9.850808E+04  6.733885E+04 -9.772860E+03 -4.490025E+04
       426   4 -3.325411E+05 -1.421665E+03 -7.507372E+03  6.594031E+04 -5.804199E+03 -5.012243E+04
       426   5 -3.322516E+05 -8.341940E+01 -4.129703E+03  5.902158E+04 -3.743358E+03 -4.850270E+04
       426   6 -3.325122E+05  2.672051E+02 -2.347162E+03  6.593619E+04 -1.688661E+03 -4.488391E+04
       426   7 -1.067849E+06 -1.739677E+05 -1.343247E+05  6.535910E+04 -4.722140E+03 -5.012530E+04
       426   8 -1.003497E+06 -1.569654E+05 -1.167552E+05  5.802981E+04  8.356409E+02 -4.849652E+04
       426   9 -9.402991E+05 -1.415594E+05 -1.032133E+05  6.453472E+04  6.387888E+03 -4.486760E+04
       426  10  4.032972E+05  1.710926E+05  1.192866E+05  6.652163E+04 -6.602955E-09 -3.738281E-09
       426  11  3.394378E+05  1.567724E+05  1.084772E+05  6.001385E+04 -2.164062E-09  2.059100E-09
       426  12  2.756397E+05  1.420725E+05  9.850412E+04  6.733849E+04  6.018605E-10  2.616974E-09
       426  13 -3.325418E+05 -1.424371E+03 -7.512156E+03  6.594007E+04  2.113754E-11 -2.860188E-09
       426  14 -3.322523E+05 -8.594894E+01 -4.134149E+03  5.902143E+04 -1.078315E-09  2.483766E-10
       426  15 -3.325127E+05  2.650414E+02 -2.350952E+03  6.593613E+04 -1.493070E-10 -2.613898E-09
       426  16 -1.067849E+06 -1.739704E+05 -1.343294E+05  6.535891E+04  6.933725E-09  6.152586E-10
       426  17 -1.003497E+06 -1.569679E+05 -1.167596E+05  5.802984E+04  2.684941E-09  2.653888E-09
       426  18 -9.402997E+05 -1.415616E+05 -1.032171E+05  6.453495E+04 -7.036300E-10  4.999084E-10
       426  19  4.032979E+05  1.710953E+05  1.192914E+05  6.652190E+04  6.887498E+03  5.011957E+04
       426  20  3.394386E+05  1.567749E+05  1.084818E+05  6.001418E+04  8.327150E+03  4.850890E+04
       426  21  2.756403E+05  1.420747E+05  9.850808E+04  6.733885E+04  9.772860E+03  4.490025E+04
       426  22 -3.325411E+05 -1.421665E+03 -7.507372E+03  6.594031E+04  5.804199E+03  5.012243E+04
       426  23 -3.322516E+05 -8.341940E+01 -4.129703E+03  5.902158E+04  3.743358E+03  4.850270E+04
       426  24 -3.325122E+05  2.672051E+02 -2.347162E+03  6.593619E+04  1.688661E+03  4.488391E+04
       426  25 -1.067849E+06 -1.739677E+05 -1.343247E+05  6.535910E+04  4.722140E+03  5.012530E+04
       426  26 -1.003497E+06 -1.569654E+05 -1.167552E+05  5.802981E+04 -8.356409E+02  4.849652E+04
       426  27 -9.402991E+05 -1.415594E+05 -1.032133E+05  6.453472E+04 -6.387888E+03  4.486760E+04
       427   1  2.343434E+05  1.323337E+05  9.183908E+04  6.716055E+04 -9.232872E+03 -4.216924E+04
       427   2  1.704808E+05  1.174412E+05  8.187124E+04  6.005783E+04 -9.069893E+03 -3.756791E+04
       427   3  1.065553E+05  1.026257E+05  7.179862E+04  6.693492E+04 -8.909085E+03 -3.277671E+04
       427   4 -3.324083E+05  2.511664E+02 -1.783233E+03  6.596946E+04 -1.334870E+03 -4.215240E+04
       427   5 -3.323352E+05  2.888573E+02 -1.020025E+03  5.897911E+04 -8.399138E+02 -3.754879E+04
       427   6 -3.323868E+05  3.459326E+02 -5.925085E+02  6.596924E+04 -3.471123E+02 -3.275523E+04
       427   7 -8.988423E+05 -1.318479E+05 -9.541483E+04  6.477928E+04  6.556170E+03 -4.213558E+04
       427   8 -8.349009E+05 -1.168765E+05 -8.391847E+04  5.790113E+04  7.383628E+03 -3.752969E+04
       427   9 -7.711381E+05 -1.019437E+05 -7.298904E+04  6.500413E+04  8.209014E+03 -3.273377E+04
       427  10  2.343428E+05  1.323318E+05  9.183558E+04  6.716024E+04 -4.537070E-09  3.904802E-09
       427  11  1.704804E+05  1.174397E+05  8.186843E+04  6.005755E+04  8.117343E-10  2.607258E-09
       427  12  1.065549E+05  1.026245E+05  7.179645E+04  6.693469E+04  3.768649E-09 -6.268384E-10
       427  13 -3.324088E+05  2.492582E+02 -1.786575E+03  6.596942E+04 -3.447052E-11 -3.522415E-09
       427  14 -3.323355E+05  2.873434E+02 -1.022676E+03  5.897908E+04  1.239299E-10  3.389937E-09
       427  15 -3.323871E+05  3.447806E+02 -5.945246E+02  6.596923E+04 -4.813414E-10  5.019641E-09
       427  16 -8.988428E+05 -1.318498E+05 -9.541825E+04  6.477950E+04  4.394486E-09  1.038451E-09
       427  17 -8.349014E+05 -1.168780E+05 -8.392122E+04  5.790135E+04  6.313006E-10  3.780356E-09
       427  18 -7.711385E+05 -1.019449E+05 -7.299118E+04  6.500434E+04 -3.307194E-09 -1.359884E-10
       427  19  2.343434E+05  1.323337E+05  9.183908E+04  6.716055E+04  9.232872E+03  4.216924E+04
       427  20  1.704808E+05  1.174412E+05  8.187124E+04  6.005783E+04  9.069893E+03  3.756791E+04
       427  21  1.065553E+05  1.026257E+05  7.179862E+04  6.693492E+04  8.909085E+03  3.277671E+04
       427  22 -3.324083E+05  2.511664E+02 -1.783233E+03  6.596946E+04  1.334870E+03  4.215240E+04
       427  23 -3.323352E+05  2.888573E+02 -1.020025E+03  5.897911E+04  8.399138E+02  3.754879E+04
       427  24 -3.323868E+05  3.459326E+02 -5.925085E+02  6.596924E+04  3.471123E+02  3.275523E+04
       427  25 -8.988423E+05 -1.318479E+05 -9.541483E+04  6.477928E+04 -6.556170E+03  4.213558E+04
       427  26 -8.349009E+05 -1.168765E+05 -8.391847E+04  5.790113E+04 -7.383628E+03  3.752969E+04
       427  27 -7.711381E+05 -1.019437E+05 -7.298904E+04  6.500413E+04 -8.209014E+03  3.273377E+04
       428   1  6.522222E+04  9.294398E+04  6.484628E+04  6.684999E+04 -8.805913E+03 -2.992815E+04
       428   2  1.310066E+03  7.804384E+04  5.460377E+04  5.971117E+04 -8.708994E+03 -2.504126E+04
       428   3 -6.267513E+04  6.322609E+04  4.429451E+04  6.657689E+04 -8.613276E+03 -2.013605E+04
       428   4 -3.323710E+05  3.505780E+02 -4.580928E+02  6.597472E+04 -2.595170E+02 -2.990598E+04
       428   5 -3.323220E+05  3.252874E+02 -2.855279E+02  5.897221E+04 -1.310529E+02 -2.501801E+04
       428   6 -3.323567E+05  3.767779E+02 -2.021255E+02  6.597468E+04 -3.780817E+00 -2.011172E+04
       428   7 -7.298075E+05 -9.225090E+04 -6.576678E+04  6.509991E+04  8.281594E+03 -2.988382E+04
       428   8 -6.658438E+05 -7.739895E+04 -5.517780E+04  5.823359E+04  8.442436E+03 -2.499478E+04
       428   9 -6.019662E+05 -6.247625E+04 -4.470063E+04  6.537268E+04  8.602102E+03 -2.008740E+04
       428  10  6.522190E+04  9.294299E+04  6.484446E+04  6.684978E+04 -2.754234E-08 -7.016327E-10
       428  11  1.309816E+03  7.804315E+04  5.460245E+04  5.971100E+04  7.109783E-11  7.495446E-09
       428  12 -6.267532E+04  6.322564E+04  4.429361E+04  6.657675E+04  2.690652E-08  6.835492E-09
       428  13 -3.323712E+05  3.496177E+02 -4.597733E+02  6.597471E+04 -2.881494E-10  8.780397E-11
       428  14 -3.323222E+05  3.246154E+02 -2.867040E+02  5.897221E+04 -1.093778E-09  7.744053E-09
       428  15 -3.323568E+05  3.763436E+02 -2.028855E+02  6.597468E+04 -1.753963E-10  9.369056E-11
       428  16 -7.298079E+05 -9.225188E+04 -6.576859E+04  6.510011E+04  2.785224E-08 -9.190509E-10
       428  17 -6.658440E+05 -7.739964E+04 -5.517910E+04  5.823376E+04  6.097813E-10 -6.691465E-10
       428  18 -6.019664E+05 -6.247670E+04 -4.470153E+04  6.537282E+04 -2.642938E-08 -1.030822E-09
       428  19  6.522222E+04  9.294398E+04  6.484628E+04  6.684999E+04  8.805913E+03  2.992815E+04
       428  20  1.310066E+03  7.804384E+04  5.460377E+04  5.971117E+04  8.708994E+03  2.504126E+04
       428  21 -6.267513E+04  6.322609E+04  4.429451E+04  6.657689E+04  8.613276E+03  2.013605E+04
       428  22 -3.323710E+05  3.505780E+02 -4.580928E+02  6.597472E+04  2.595170E+02  2.990598E+04
       428  23 -3.323220E+05  3.252874E+02 -2.855279E+02  5.897221E+04  1.310529E+02  2.501801E+04
       428  24 -3.323567E+05  3.767779E+02 -2.021255E+02  6.597468E+04  3.780817E+00  2.011172E+04
       428  25 -7.298075E+05 -9.225090E+04 -6.576678E+04  6.509991E+04 -8.281594E+03  2.988382E+04
       428  26 -6.658438E+05 -7.739895E+04 -5.517780E+04  5.823359E+04 -8.442436E+03  2.499478E+04
       428  27 -6.019662E+05 -6.247625E+04 -4.470063E+04  6.537268E+04 -8.602102E+03  2.008740E+04
       429   1 -1.040401E+05  5.354088E+04  3.723103E+04  6.648757E+04 -8.586314E+03 -1.727476E+04
       429   2 -1.679748E+05  3.863241E+04  2.682445E+04  5.932983E+04 -8.491749E+03 -1.236249E+04
       429   3 -2.319979E+05  2.380110E+04  1.634714E+04  6.618809E+04 -8.397740E+03 -7.456099E+03
       429   4 -3.323541E+05  3.818344E+02 -1.866354E+02  6.597717E+04  2.344449E+01 -1.724999E+04
       429   5 -3.323057E+05  3.513565E+02 -1.979972E+02  5.896905E+04  1.073358E+02 -1.233727E+04
       429   6 -3.323471E+05  4.002760E+02 -2.725947E+02  6.597713E+04  1.906819E+02 -7.430419E+03
       429   7 -5.606162E+05 -5.277985E+04 -3.760552E+04  6.546693E+04  8.630145E+03 -1.722523E+04
       429   8 -4.966098E+05 -3.793105E+04 -2.722096E+04  5.860835E+04  8.704222E+03 -1.231205E+04
       429   9 -4.326861E+05 -2.300103E+04 -1.689235E+04  6.576621E+04  8.777762E+03 -7.404743E+03
       429  10 -1.040403E+05  5.354054E+04  3.723033E+04  6.648745E+04  1.378111E-08  1.809437E-09
       429  11 -1.679749E+05  3.863223E+04  2.682403E+04  5.932974E+04  4.887875E-09 -7.631109E-10
       429  12 -2.319980E+05  2.380103E+04  1.634690E+04  6.618804E+04 -4.785457E-09 -2.206991E-09
       429  13 -3.323541E+05  3.815149E+02 -1.871945E+02  6.597717E+04  2.482931E-11  8.828276E-09
       429  14 -3.323058E+05  3.511931E+02 -1.982832E+02  5.896905E+04 -9.268029E-10  2.114732E-09
       429  15 -3.323471E+05  4.002167E+02 -2.726985E+02  6.597714E+04  1.082231E-10 -1.669762E-09
       429  16 -5.606164E+05 -5.278018E+04 -3.760622E+04  6.546705E+04 -1.265755E-08  3.494930E-09
       429  17 -4.966099E+05 -3.793123E+04 -2.722139E+04  5.860844E+04 -3.490201E-09 -2.048870E-09
       429  18 -4.326862E+05 -2.300111E+04 -1.689260E+04  6.576626E+04  5.058192E-09 -2.764021E-09
       429  19 -1.040401E+05  5.354088E+04  3.723103E+04  6.648757E+04  8.586314E+03  1.727476E+04
       429  20 -1.679748E+05  3.863241E+04  2.682445E+04  5.932983E+04  8.491749E+03  1.236249E+04
       429  21 -2.319979E+05  2.380110E+04  1.634714E+04  6.618809E+04  8.397740E+03  7.456099E+03
       429  22 -3.323541E+05  3.818344E+02 -1.866354E+02  6.597717E+04 -2.344449E+01  1.724999E+04
       429  23 -3.323057E+05  3.513565E+02 -1.979972E+02  5.896905E+04 -1.073358E+02  1.233727E+04
       429  24 -3.323471E+05  4.002760E+02 -2.725947E+02  6.597713E+04 -1.906819E+02  7.430419E+03
       429  25 -5.606162E+05 -5.277985E+04 -3.760552E+04  6.546693E+04 -8.630145E+03  1.722523E+04
       429  26 -4.966098E+05 -3.793105E+04 -2.722096E+04  5.860835E+04 -8.704222E+03  1.231205E+04
       429  27 -4.326861E+05 -2.300103E+04 -1.689235E+04  6.576621E+04 -8.777762E+03  7.404743E+03
       430   1 -2.733832E+05  1.410931E+04  9.192659E+03  6.608389E+04 -8.359223E+03 -4.597382E+03
       430   2 -3.372946E+05 -8.178239E+02 -1.479114E+03  5.892154E+04 -7.942854E+03  2.690317E+02
       430   3 -4.013529E+05 -1.572173E+04 -1.244574E+04  6.577177E+04 -7.526265E+03  5.048558E+03
       430   4 -3.323535E+05  4.043890E+02 -3.400232E+02  6.597629E+04  2.374596E+02 -4.571537E+03
       430   5 -3.322914E+05  3.669470E+02 -5.619679E+02  5.897006E+04  5.012485E+02  2.944025E+02
       430   6 -3.323538E+05  3.793765E+02 -9.729205E+02  6.597637E+04  7.652999E+02  5.073459E+03
       430   7 -3.913202E+05 -1.330067E+04 -9.872522E+03  6.586871E+04  8.833354E+03 -4.545693E+03
       430   8 -3.272881E+05  1.551755E+03  3.554453E+02  5.901858E+04  8.945418E+03  3.197745E+02
       430   9 -2.633498E+05  1.648027E+04  1.050001E+04  6.618100E+04  9.057756E+03  5.098363E+03
       430  10 -2.733832E+05  1.410927E+04  9.192488E+03  6.608386E+04 -5.670037E-10  4.913450E-09
       430  11 -3.372947E+05 -8.178409E+02 -1.479233E+03  5.892155E+04  1.200623E-09  8.784551E-10
       430  12 -4.013529E+05 -1.572177E+04 -1.244589E+04  6.577180E+04 -1.572512E-10  2.151117E-09
       430  13 -3.323535E+05  4.043665E+02 -3.400625E+02  6.597629E+04 -2.702394E-10  3.621661E-10
       430  14 -3.322914E+05  3.669468E+02 -5.619685E+02  5.897006E+04 -2.711780E-10  1.784083E-09
       430  15 -3.323538E+05  3.793488E+02 -9.729700E+02  6.597637E+04 -3.567517E-10  3.269090E-09
       430  16 -3.913203E+05 -1.330071E+04 -9.872708E+03  6.586874E+04  1.037688E-09  3.013957E-09
       430  17 -3.272882E+05  1.551733E+03  3.552947E+02  5.901858E+04  9.961530E-10 -9.686638E-09
       430  18 -2.633499E+05  1.648022E+04  1.049981E+04  6.618096E+04  1.019954E-09 -3.881030E-09
       430  19 -2.733832E+05  1.410931E+04  9.192659E+03  6.608389E+04  8.359223E+03  4.597382E+03
       430  20 -3.372946E+05 -8.178239E+02 -1.479114E+03  5.892154E+04  7.942854E+03 -2.690317E+02
       430  21 -4.013529E+05 -1.572173E+04 -1.244574E+04  6.577177E+04  7.526265E+03 -5.048558E+03
       430  22 -3.323535E+05  4.043890E+02 -3.400232E+02  6.597629E+04 -2.374596E+02  4.571537E+03
       430  23 -3.322914E+05  3.669470E+02 -5.619679E+02  5.897006E+04 -5.012485E+02 -2.944025E+02
       430  24 -3.323538E+05  3.793765E+02 -9.729205E+02  6.597637E+04 -7.652999E+02 -5.073459E+03
       430  25 -3.913202E+05 -1.330067E+04 -9.872522E+03  6.586871E+04 -8.833354E+03  4.545693E+03
       430  26 -3.272881E+05  1.551755E+03  3.554453E+02  5.901858E+04 -8.945418E+03 -3.197745E+02
       430  27 -2.633498E+05  1.648027E+04  1.050001E+04  6.618100E+04 -9.057756E+03 -5.098363E+03
       431   1 -4.428225E+05 -2.542761E+04 -1.990975E+04  6.557793E+04 -7.425447E+03  7.854544E+03
       431   2 -5.064741E+05 -4.060844E+04 -3.190961E+04  5.871760E+04 -4.699084E+03  1.218498E+04
       431   3 -5.707682E+05 -5.656784E+04 -4.590737E+04  6.580754E+04 -1.969924E+03  1.559016E+04
       431   4 -3.324089E+05  3.931408E+02 -1.278182E+03  6.596209E+04  9.528905E+02  7.879551E+03
       431   5 -3.322298E+05  1.914103E+02 -2.241626E+03  5.898840E+04  2.059154E+03  1.220470E+04
       431   6 -3.324166E+05 -5.073940E+02 -4.077425E+03  6.596475E+04  3.168508E+03  1.560473E+04
       431   7 -2.219830E+05  2.621329E+04  1.735326E+04  6.634631E+04  9.332671E+03  7.904566E+03
       431   8 -1.579555E+05  4.098968E+04  2.742553E+04  5.925926E+04  8.819230E+03  1.222442E+04
       431   9 -9.400933E+04  5.554996E+04  3.775057E+04  6.612197E+04  8.308856E+03  1.561930E+04
       431  10 -4.428226E+05 -2.542769E+04 -1.990997E+04  6.557798E+04 -6.444660E-09  5.647602E-09
       431  11 -5.064742E+05 -4.060861E+04 -3.190993E+04  5.871764E+04  1.584961E-09  7.803247E-10
       431  12 -5.707683E+05 -5.656810E+04 -4.590783E+04  6.580756E+04  9.290850E-09  7.126111E-09
       431  13 -3.324089E+05  3.930739E+02 -1.278300E+03  6.596208E+04  2.070112E-11  4.889136E-09
       431  14 -3.322298E+05  1.912492E+02 -2.241914E+03  5.898838E+04 -5.455867E-10  4.187325E-09
       431  15 -3.324167E+05 -5.076581E+02 -4.077901E+03  6.596471E+04 -3.369631E-10  1.170751E-09
       431  16 -2.219832E+05  2.621320E+04  1.735298E+04  6.634625E+04  7.274341E-09  4.726887E-11
       431  17 -1.579556E+05  4.098950E+04  2.742510E+04  5.925917E+04  5.278182E-11 -2.753812E-09
       431  18 -9.400947E+04  5.554968E+04  3.774998E+04  6.612187E+04 -8.780065E-09 -7.641504E-09
       431  19 -4.428225E+05 -2.542761E+04 -1.990975E+04  6.557793E+04  7.425447E+03 -7.854544E+03
       431  20 -5.064741E+05 -4.060844E+04 -3.190961E+04  5.871760E+04  4.699084E+03 -1.218498E+04
       431  21 -5.707682E+05 -5.656784E+04 -4.590737E+04  6.580754E+04  1.969924E+03 -1.559016E+04
       431  22 -3.324089E+05  3.931408E+02 -1.278182E+03  6.596209E+04 -9.528905E+02 -7.879551E+03
       431  23 -3.322298E+05  1.914103E+02 -2.241626E+03  5.898840E+04 -2.059154E+03 -1.220470E+04
       431  24 -3.324166E+05 -5.073940E+02 -4.077425E+03  6.596475E+04 -3.168508E+03 -1.560473E+04
       431  25 -2.219830E+05  2.621329E+04  1.735326E+04  6.634631E+04 -9.332671E+03 -7.904566E+03
       431  26 -1.579555E+05  4.098968E+04  2.742553E+04  5.925926E+04 -8.819230E+03 -1.222442E+04
       431  27 -9.400933E+04  5.554996E+04  3.775057E+04  6.612197E+04 -8.308856E+03 -1.561930E+04
       432   1 -6.132704E+05 -6.638235E+04 -5.511651E+04  6.431647E+04 -2.207273E+03  1.782824E+04
       432   2 -6.741725E+05 -8.594925E+04 -7.682345E+04  6.374688E+04  2.003691E+04  1.644612E+04
       432   3 -7.413498E+05 -1.187116E+05 -1.163347E+05  7.648480E+04  4.230483E+04  5.241748E+03
       432   4 -3.330699E+05 -3.537064E+02 -5.368660E+03  6.581564E+04  3.859067E+03  1.784519E+04
       432   5 -3.314344E+05 -3.988338E+03 -9.789530E+03  5.918652E+04  8.911767E+03  1.641354E+04
       432   6 -3.330871E+05 -1.782761E+04 -2.006583E+04  6.586520E+04  1.399055E+04  5.161684E+03
       432   7 -5.279256E+04  6.567063E+04  4.437640E+04  6.731544E+04  9.928068E+03  1.786217E+04
       432   8  1.141682E+04  7.796565E+04  5.723924E+04  5.462350E+04 -2.219394E+03  1.638113E+04
       432   9  7.533107E+04  8.304538E+04  7.619462E+04  5.523845E+04 -1.434226E+04  5.082618E+03
       432  10 -6.132705E+05 -6.638269E+04 -5.511711E+04  6.431650E+04  2.195628E-08  4.951464E-09
       432  11 -6.741730E+05 -8.594964E+04 -7.682472E+04  6.374661E+04  1.194330E-10  3.758365E-10
       432  12 -7.413517E+05 -1.187121E+05 -1.163381E+05  7.648462E+04 -2.338951E-08 -1.283098E-09
       432  13 -3.330700E+05 -3.540523E+02 -5.369287E+03  6.581558E+04 -2.406282E-10  6.288909E-09
       432  14 -3.314346E+05 -3.988649E+03 -9.790185E+03  5.918640E+04  4.125931E-10 -6.018122E-09
       432  15 -3.330873E+05 -1.782769E+04 -2.006625E+04  6.586514E+04 -2.669845E-10  2.584165E-09
       432  16 -5.279275E+04  6.567026E+04  4.437561E+04  6.731530E+04 -2.170846E-08 -1.573722E-11
       432  17  1.141674E+04  7.796536E+04  5.723873E+04  5.462353E+04  1.467896E-09  2.320361E-09
       432  18  7.533084E+04  8.304530E+04  7.619418E+04  5.523851E+04  2.388167E-08 -4.313319E-10
       432  19 -6.132704E+05 -6.638235E+04 -5.511651E+04  6.431647E+04  2.207273E+03 -1.782824E+04
       432  20 -6.741725E+05 -8.594925E+04 -7.682345E+04  6.374688E+04 -2.003691E+04 -1.644612E+04
       432  21 -7.413498E+05 -1.187116E+05 -1.163347E+05  7.648480E+04 -4.230483E+04 -5.241748E+03
       432  22 -3.330699E+05 -3.537064E+02 -5.368660E+03  6.581564E+04 -3.859067E+03 -1.784519E+04
       432  23 -3.314344E+05 -3.988338E+03 -9.789530E+03  5.918652E+04 -8.911767E+03 -1.641354E+04
       432  24 -3.330871E+05 -1.782761E+04 -2.006583E+04  6.586520E+04 -1.399055E+04 -5.161684E+03
       432  25 -5.279256E+04  6.567063E+04  4.437640E+04  6.731544E+04 -9.928068E+03 -1.786217E+04
       432  26  1.141682E+04  7.796565E+04  5.723924E+04  5.462350E+04  2.219394E+03 -1.638113E+04
       432  27  7.533107E+04  8.304538E+04  7.619462E+04  5.523845E+04  1.434226E+04 -5.082618E+03
       433   1 -1.604595E+05  5.305372E+04  3.478261E+04 -6.597648E+03 -4.662981E+04 -5.713111E+03
       433   2 -1.867910E+05  1.173731E+05  6.764461E+04  7.490403E+02 -3.414568E+04 -1.721763E+04
       433   3 -2.336899E+05  1.059543E+05  7.346574E+04  2.901509E+04 -2.169568E+04 -1.683680E+04
       433   4 -6.473226E+05 -6.807136E+04 -8.459558E+04  1.834860E+04 -5.792395E+04 -5.746542E+03
       433   5 -6.363469E+05  6.435200E+03 -3.756284E+04  7.785161E+03 -3.775328E+04 -1.722962E+04
       433   6 -6.472918E+05  3.837358E+03 -2.292755E+04  1.814263E+04 -1.761571E+04 -1.682423E+04
       433   7 -1.133968E+06 -1.892115E+05 -2.039903E+05  4.327509E+04 -6.920922E+04 -5.780895E+03
       433   8 -1.085716E+06 -1.045168E+05 -1.427840E+05  1.481601E+04 -4.135828E+04 -1.724169E+04
       433   9 -1.060736E+06 -9.829127E+04 -1.193323E+05  7.277330E+03 -1.353844E+04 -1.681180E+04
       433  10 -1.604618E+05  5.305310E+04  3.477846E+04 -6.597862E+03 -4.512127E-09  7.518728E-10
       433  11 -1.867923E+05  1.173725E+05  6.764186E+04  7.485669E+02 -6.098659E-09  1.174184E-08
       433  12 -2.336905E+05  1.059539E+05  7.346432E+04  2.901480E+04 -4.354732E-09  4.235646E-10
       433  13 -6.473262E+05 -6.807230E+04 -8.460196E+04  1.834833E+04 -9.097605E-11 -3.514500E-09
       433  14 -6.363485E+05  6.434499E+03 -3.756608E+04  7.784637E+03  3.536033E-10 -1.073974E-08
       433  15 -6.472922E+05  3.836971E+03 -2.292867E+04  1.814239E+04  4.559320E-10 -1.252991E-09
       433  16 -1.133973E+06 -1.892129E+05 -2.039994E+05  4.327477E+04  4.529971E-09  7.189160E-10
       433  17 -1.085718E+06 -1.045176E+05 -1.427878E+05  1.481544E+04  6.771087E-09  4.558866E-09
       433  18 -1.060736E+06 -9.829162E+04 -1.193332E+05  7.277147E+03  2.490515E-09 -4.288115E-09
       433  19 -1.604595E+05  5.305372E+04  3.478261E+04 -6.597648E+03  4.662981E+04  5.713111E+03
       433  20 -1.867910E+05  1.173731E+05  6.764461E+04  7.490403E+02  3.414568E+04  1.721763E+04
       433  21 -2.336899E+05  1.059543E+05  7.346574E+04  2.901509E+04  2.169568E+04  1.683680E+04
       433  22 -6.473226E+05 -6.807136E+04 -8.459558E+04  1.834860E+04  5.792395E+04  5.746542E+03
       433  23 -6.363469E+05  6.435200E+03 -3.756284E+04  7.785161E+03  3.775328E+04  1.722962E+04
       433  24 -6.472918E+05  3.837358E+03 -2.292755E+04  1.814263E+04  1.761571E+04  1.682423E+04
       433  25 -1.133968E+06 -1.892115E+05 -2.039903E+05  4.327509E+04  6.920922E+04  5.780895E+03
       433  26 -1.085716E+06 -1.045168E+05 -1.427840E+05  1.481601E+04  4.135828E+04  1.724169E+04
       433  27 -1.060736E+06 -9.829127E+04 -1.193323E+05  7.277330E+03  1.353844E+04  1.681180E+04
       434   1 -2.679092E+05  8.694794E+04  6.923236E+04  1.741852E+04 -1.461335E+04 -1.431876E+04
       434   2 -3.038948E+05  8.402243E+04  6.920879E+04  7.964372E+03 -1.012109E+04 -1.331510E+04
       434   3 -3.421659E+05  7.471334E+04  6.464210E+04  2.009097E+04 -5.632279E+03 -1.164527E+04
       434   4 -6.429429E+05 -5.640935E+03 -1.855004E+04  1.836463E+04 -1.418277E+04 -1.431798E+04
       434   5 -6.417564E+05  6.347103E+02 -9.697554E+03  7.563571E+03 -9.261673E+03 -1.331264E+04
       434   6 -6.429334E+05  4.500650E+02 -5.688357E+03  1.834410E+04 -4.343771E+03 -1.164099E+04
       434   7 -1.017847E+06 -9.823980E+04 -1.063420E+05  1.931006E+04 -1.375244E+04 -1.431719E+04
       434   8 -9.795127E+05 -8.276111E+04 -8.861165E+04  7.162900E+03 -8.402721E+03 -1.331019E+04
       434   9 -9.436174E+05 -7.381962E+04 -7.602496E+04  1.659800E+04 -3.055883E+03 -1.163673E+04
       434  10 -2.679095E+05  8.694766E+04  6.923157E+04  1.741835E+04  6.438827E-09 -3.948603E-09
       434  11 -3.038950E+05  8.402221E+04  6.920826E+04  7.964264E+03  1.200523E-10  3.318943E-09
       434  12 -3.421660E+05  7.471318E+04  6.464178E+04  2.009092E+04 -5.066540E-09  8.217871E-09
       434  13 -6.429432E+05 -5.641209E+03 -1.855080E+04  1.836447E+04 -2.288722E-10  7.534748E-09
       434  14 -6.417566E+05  6.344970E+02 -9.698048E+03  7.563472E+03  3.855468E-10 -1.996998E-08
       434  15 -6.429334E+05  4.499144E+02 -5.688647E+03  1.834406E+04 -1.297424E-10  7.588943E-09
       434  16 -1.017847E+06 -9.824007E+04 -1.063428E+05  1.930990E+04 -5.661456E-09 -8.543598E-09
       434  17 -9.795128E+05 -8.276132E+04 -8.861211E+04  7.162810E+03  1.631179E-09 -2.087087E-10
       434  18 -9.436174E+05 -7.381977E+04 -7.602524E+04  1.659797E+04  1.817812E-09  1.839084E-09
       434  19 -2.679092E+05  8.694794E+04  6.923236E+04  1.741852E+04  1.461335E+04  1.431876E+04
       434  20 -3.038948E+05  8.402243E+04  6.920879E+04  7.964372E+03  1.012109E+04  1.331510E+04
       434  21 -3.421659E+05  7.471334E+04  6.464210E+04  2.009097E+04  5.632279E+03  1.164527E+04
       434  22 -6.429429E+05 -5.640935E+03 -1.855004E+04  1.836463E+04  1.418277E+04  1.431798E+04
       434  23 -6.417564E+05  6.347103E+02 -9.697554E+03  7.563571E+03  9.261673E+03  1.331264E+04
       434  24 -6.429334E+05  4.500650E+02 -5.688357E+03  1.834410E+04  4.343771E+03  1.164099E+04
       434  25 -1.017847E+06 -9.823980E+04 -1.063420E+05  1.931006E+04  1.375244E+04  1.431719E+04
       434  26 -9.795127E+05 -8.276111E+04 -8.861165E+04  7.162900E+03  8.402721E+03  1.331019E+04
       434  27 -9.436174E+05 -7.381962E+04 -7.602496E+04  1.659800E+04  3.055883E+03  1.163673E+04
       435   1 -3.808627E+05  6.422148E+04  5.658171E+04  1.907073E+04 -4.549363E+03 -1.054710E+04
       435   2 -4.182721E+05  5.541212E+04  4.982486E+04  8.120082E+03 -3.343282E+03 -8.838173E+03
       435   3 -4.561084E+05  4.620847E+04  4.214592E+04  1.906367E+04 -2.138088E+03 -7.086190E+03
       435   4 -6.424990E+05 -3.382608E+02 -4.422086E+03  1.842106E+04 -3.458374E+03 -1.054338E+04
       435   5 -6.422803E+05  1.191049E+02 -2.487158E+03  7.472719E+03 -2.224899E+03 -8.834161E+03
       435   6 -6.424942E+05  1.774843E+02 -1.493457E+03  1.841910E+04 -9.922374E+02 -7.081871E+03
       435   7 -9.040721E+05 -6.490284E+04 -6.543052E+04  1.777161E+04 -2.367842E+03 -1.053967E+04
       435   8 -8.662422E+05 -5.517747E+04 -5.480258E+04  6.825548E+03 -1.106917E+03 -8.830152E+03
       435   9 -8.288479E+05 -4.585597E+04 -4.513520E+04  1.777469E+04  1.532714E+02 -7.077554E+03
       435  10 -3.808627E+05  6.422135E+04  5.658146E+04  1.907069E+04  1.388383E-09 -6.680641E-09
       435  11 -4.182721E+05  5.541203E+04  4.982469E+04  8.120058E+03 -3.977501E-09 -5.860103E-09
       435  12 -4.561084E+05  4.620841E+04  4.214581E+04  1.906365E+04 -4.992537E-09 -2.026471E-09
       435  13 -6.424990E+05 -3.383833E+02 -4.422318E+03  1.842103E+04 -1.148368E-10 -3.119522E-09
       435  14 -6.422803E+05  1.190198E+02 -2.487314E+03  7.472703E+03 -6.127565E-10 -3.217860E-10
       435  15 -6.424942E+05  1.774302E+02 -1.493553E+03  1.841909E+04  3.923390E-10 -9.116012E-10
       435  16 -9.040721E+05 -6.490297E+04 -6.543074E+04  1.777159E+04 -1.289784E-09 -8.747407E-09
       435  17 -8.662422E+05 -5.517755E+04 -5.480273E+04  6.825540E+03  5.145820E-09  7.026882E-09
       435  18 -8.288479E+05 -4.585602E+04 -4.513529E+04  1.777469E+04  2.424037E-09  7.342611E-09
       435  19 -3.808627E+05  6.422148E+04  5.658171E+04  1.907073E+04  4.549363E+03  1.054710E+04
       435  20 -4.182721E+05  5.541212E+04  4.982486E+04  8.120082E+03  3.343282E+03  8.838173E+03
       435  21 -4.561084E+05  4.620847E+04  4.214592E+04  1.906367E+04  2.138088E+03  7.086190E+03
       435  22 -6.424990E+05 -3.382608E+02 -4.422086E+03  1.842106E+04  3.458374E+03  1.054338E+04
       435  23 -6.422803E+05  1.191049E+02 -2.487158E+03  7.472719E+03  2.224899E+03  8.834161E+03
       435  24 -6.424942E+05  1.774843E+02 -1.493457E+03  1.841910E+04  9.922374E+02  7.081871E+03
       435  25 -9.040721E+05 -6.490284E+04 -6.543052E+04  1.777161E+04  2.367842E+03  1.053967E+04
       435  26 -8.662422E+05 -5.517747E+04 -5.480258E+04  6.825548E+03  1.106917E+03  8.830152E+03
       435  27 -8.288479E+05 -4.585597E+04 -4.513520E+04  1.777469E+04 -1.532714E+02  7.077554E+03
       436   1 -4.956144E+05  3.633813E+04  3.298782E+04  1.890478E+04 -1.892617E+03 -6.057919E+03
       436   2 -5.334232E+05  2.696137E+04  2.461995E+04  7.757311E+03 -1.499653E+03 -4.297728E+03
       436   3 -5.714628E+05  1.770513E+04  1.597968E+04  1.867920E+04 -1.107065E+03 -2.532333E+03
       436   4 -6.424464E+05  1.153481E+02 -1.191172E+03  1.845863E+04 -7.553003E+02 -6.053535E+03
       436   5 -6.423290E+05  7.765171E+01 -8.139695E+02  7.423721E+03 -3.590778E+02 -4.293236E+03
       436   6 -6.424442E+05  1.599742E+02 -7.114270E+02  1.845841E+04  3.679211E+01 -2.527728E+03
       436   7 -7.892584E+05 -3.610895E+04 -3.537161E+04  1.801256E+04  3.817494E+02 -6.049153E+03
       436   8 -7.512237E+05 -2.680691E+04 -2.624869E+04  7.090180E+03  7.812984E+02 -4.288746E+03
       436   9 -7.134210E+05 -1.738554E+04 -1.740287E+04  1.823764E+04  1.180519E+03 -2.523123E+03
       436  10 -4.956144E+05  3.633809E+04  3.298774E+04  1.890477E+04 -1.031793E-09 -6.757678E-09
       436  11 -5.334232E+05  2.696135E+04  2.461992E+04  7.757305E+03 -8.728104E-09  4.334872E-09
       436  12 -5.714628E+05  1.770512E+04  1.597966E+04  1.867920E+04 -9.678356E-09  2.273054E-09
       436  13 -6.424464E+05  1.153086E+02 -1.191242E+03  1.845862E+04 -4.338398E-10  3.409599E-09
       436  14 -6.423290E+05  7.763189E+01 -8.140043E+02  7.423720E+03 -9.984642E-10 -7.659911E-09
       436  15 -6.424442E+05  1.599673E+02 -7.114390E+02  1.845841E+04  1.064243E-09 -5.002904E-10
       436  16 -7.892584E+05 -3.610899E+04 -3.537168E+04  1.801256E+04  7.792902E-10  1.858686E-09
       436  17 -7.512238E+05 -2.680693E+04 -2.624873E+04  7.090183E+03  9.863507E-09  1.186225E-08
       436  18 -7.134210E+05 -1.738554E+04 -1.740289E+04  1.823765E+04  6.912641E-09  6.538569E-09
       436  19 -4.956144E+05  3.633813E+04  3.298782E+04  1.890478E+04  1.892617E+03  6.057919E+03
       436  20 -5.334232E+05  2.696137E+04  2.461995E+04  7.757311E+03  1.499653E+03  4.297728E+03
       436  21 -5.714628E+05  1.770513E+04  1.597968E+04  1.867920E+04  1.107065E+03  2.532333E+03
       436  22 -6.424464E+05  1.153481E+02 -1.191172E+03  1.845863E+04  7.553003E+02  6.053535E+03
       436  23 -6.423290E+05  7.765171E+01 -8.139695E+02  7.423721E+03  3.590778E+02  4.293236E+03
       436  24 -6.424442E+05  1.599742E+02 -7.114270E+02  1.845841E+04 -3.679211E+01  2.527728E+03
       436  25 -7.892584E+05 -3.610895E+04 -3.537161E+04  1.801256E+04 -3.817494E+02  6.049153E+03
       436  26 -7.512237E+05 -2.680691E+04 -2.624869E+04  7.090180E+03 -7.812984E+02  4.288746E+03
       436  27 -7.134210E+05 -1.738554E+04 -1.740287E+04  1.823764E+04 -1.180519E+03  2.523123E+03
       437   1 -6.112247E+05  7.846385E+03  6.435579E+03  1.855299E+04 -9.805126E+02 -1.503154E+03
       437   2 -6.491104E+05 -1.592718E+03 -2.570353E+03  7.372448E+03 -4.990115E+02  2.655397E+02
       437   3 -6.872536E+05 -1.092623E+04 -1.191281E+04  1.831569E+04 -1.752003E+01  2.032545E+03
       437   4 -6.424491E+05  1.609778E+02 -7.435821E+02  1.847043E+04  1.640095E+02 -1.498516E+03
       437   5 -6.423196E+05  8.388819E+01 -9.842551E+02  7.408644E+03  6.443801E+02  2.701645E+02
       437   6 -6.424493E+05  1.125387E+02 -1.560734E+03  1.847062E+04  1.124771E+03  2.037162E+03
       437   7 -6.736725E+05 -7.524497E+03 -7.922803E+03  1.838787E+04  1.308474E+03 -1.493878E+03
       437   8 -6.355287E+05  1.760492E+03  6.018444E+02  7.444839E+03  1.787784E+03  2.747895E+02
       437   9 -5.976432E+05  1.115117E+04  8.791216E+03  1.862556E+04  2.267143E+03  2.041779E+03
       437  10 -6.112247E+05  7.846382E+03  6.435573E+03  1.855299E+04  4.269470E-09 -4.378237E-10
       437  11 -6.491104E+05 -1.592718E+03 -2.570353E+03  7.372448E+03 -5.788980E-09 -7.226765E-09
       437  12 -6.872536E+05 -1.092624E+04 -1.191282E+04  1.831569E+04 -1.629681E-08 -6.907896E-09
       437  13 -6.424491E+05  1.609754E+02 -7.435864E+02  1.847043E+04 -2.014535E-10  1.035389E-08
       437  14 -6.423196E+05  8.388800E+01 -9.842560E+02  7.408643E+03 -1.025752E-09 -6.059236E-09
       437  15 -6.424493E+05  1.125339E+02 -1.560744E+03  1.847062E+04  7.256210E-10 -4.353559E-09
       437  16 -6.736725E+05 -7.524499E+03 -7.922810E+03  1.838787E+04 -4.570303E-09  2.783205E-09
       437  17 -6.355287E+05  1.760491E+03  6.018382E+02  7.444839E+03  8.107271E-09 -1.852385E-08
       437  18 -5.976432E+05  1.115116E+04  8.791198E+03  1.862556E+04  1.425893E-08 -1.026985E-08
       437  19 -6.112247E+05  7.846385E+03  6.435579E+03  1.855299E+04  9.805126E+02  1.503154E+03
       437  20 -6.491104E+05 -1.592718E+03 -2.570353E+03  7.372448E+03  4.990115E+02 -2.655397E+02
       437  21 -6.872536E+05 -1.092623E+04 -1.191281E+04  1.831569E+04  1.752003E+01 -2.032545E+03
       437  22 -6.424491E+05  1.609778E+02 -7.435821E+02  1.847043E+04 -1.640095E+02  1.498516E+03
       437  23 -6.423196E+05  8.388819E+01 -9.842551E+02  7.408644E+03 -6.443801E+02 -2.701645E+02
       437  24 -6.424493E+05  1.125387E+02 -1.560734E+03  1.847062E+04 -1.124771E+03 -2.037162E+03
       437  25 -6.736725E+05 -7.524497E+03 -7.922803E+03  1.838787E+04 -1.308474E+03  1.493878E+03
       437  26 -6.355287E+05  1.760492E+03  6.018444E+02  7.444839E+03 -1.787784E+03 -2.747895E+02
       437  27 -5.976432E+05  1.115117E+04  8.791216E+03  1.862556E+04 -2.267143E+03 -2.041779E+03
       438   1 -7.270656E+05 -2.069957E+04 -2.185715E+04  1.806147E+04  2.897469E+02  3.065418E+03
       438   2 -7.646706E+05 -3.007469E+04 -3.198226E+04  7.046333E+03  1.990380E+03  4.832200E+03
       438   3 -8.028566E+05 -4.005832E+04 -4.341393E+04  1.808560E+04  3.691433E+03  6.566051E+03
       438   4 -6.425215E+05  1.968001E+02 -1.997065E+03  1.845419E+04  1.439964E+03  3.070029E+03
       438   5 -6.422341E+05  1.535522E+02 -3.383733E+03  7.428500E+03  3.119558E+03  4.836615E+03
       438   6 -6.425246E+05 -4.941845E+02 -6.061882E+03  1.845694E+04  4.799674E+03  6.570277E+03
       438   7 -5.579707E+05  2.109266E+04  1.786253E+04  1.884696E+04  2.590338E+03  3.074640E+03
       438   8 -5.197837E+05  3.038073E+04  2.521378E+04  7.810729E+03  4.248958E+03  4.841030E+03
       438   9 -4.821689E+05  3.906813E+04  3.128844E+04  1.882836E+04  5.908199E+03  6.574503E+03
       438  10 -7.270656E+05 -2.069958E+04 -2.185716E+04  1.806147E+04 -5.684021E-09  1.940380E-09
       438  11 -7.646706E+05 -3.007471E+04 -3.198231E+04  7.046325E+03 -7.924392E-09 -5.216881E-09
       438  12 -8.028566E+05 -4.005837E+04 -4.341404E+04  1.808558E+04 -7.879476E-09 -1.143290E-09
       438  13 -6.425215E+05  1.967895E+02 -1.997086E+03  1.845418E+04 -1.082021E-10 -1.886987E-10
       438  14 -6.422341E+05  1.535244E+02 -3.383796E+03  7.428488E+03 -1.313651E-09  5.914930E-09
       438  15 -6.425247E+05 -4.942370E+02 -6.062006E+03  1.845692E+04 -1.654594E-10  5.575843E-09
       438  16 -5.579708E+05  2.109265E+04  1.786250E+04  1.884695E+04  4.996046E-09  6.217814E-09
       438  17 -5.197838E+05  3.038070E+04  2.521370E+04  7.810713E+03  1.020431E-08 -4.815481E-09
       438  18 -4.821690E+05  3.906808E+04  3.128829E+04  1.882833E+04  5.258498E-09  1.004329E-08
       438  19 -7.270656E+05 -2.069957E+04 -2.185715E+04  1.806147E+04 -2.897469E+02 -3.065418E+03
       438  20 -7.646706E+05 -3.007469E+04 -3.198226E+04  7.046333E+03 -1.990380E+03 -4.832200E+03
       438  21 -8.028566E+05 -4.005832E+04 -4.341393E+04  1.808560E+04 -3.691433E+03 -6.566051E+03
       438  22 -6.425215E+05  1.968001E+02 -1.997065E+03  1.845419E+04 -1.439964E+03 -3.070029E+03
       438  23 -6.422341E+05  1.535522E+02 -3.383733E+03  7.428500E+03 -3.119558E+03 -4.836615E+03
       438  24 -6.425246E+05 -4.941845E+02 -6.061882E+03  1.845694E+04 -4.799674E+03 -6.570277E+03
       438  25 -5.579707E+05  2.109266E+04  1.786253E+04  1.884696E+04 -2.590338E+03 -3.074640E+03
       438  26 -5.197837E+05  3.038073E+04  2.521378E+04  7.810729E+03 -4.248958E+03 -4.841030E+03
       438  27 -4.821689E+05  3.906813E+04  3.128844E+04  1.882836E+04 -5.908199E+03 -6.574503E+03
       439   1 -8.429581E+05 -4.878107E+04 -5.458935E+04  1.654483E+04  4.747579E+03  7.658719E+03
       439   2 -8.788721E+05 -5.772833E+04 -6.878007E+04  7.465947E+03  1.185029E+04  9.374766E+03
       439   3 -9.181269E+05 -7.567141E+04 -8.988569E+04  2.025472E+04  1.895517E+04  1.055434E+04
       439   4 -6.431284E+05  5.887063E+02 -7.810099E+03  1.840441E+04  6.015770E+03  7.663467E+03
       439   5 -6.414926E+05  8.773081E+02 -1.332061E+04  7.486251E+03  1.277353E+04  9.377971E+03
       439   6 -6.431373E+05 -7.767768E+03 -2.550415E+04  1.843534E+04  1.953387E+04  1.055605E+04
       439   7 -4.432618E+05  4.995565E+04  3.896643E+04  2.026456E+04  7.284367E+03  7.668223E+03
       439   8 -4.040611E+05  5.947895E+04  4.213503E+04  7.506514E+03  1.369711E+04  9.381175E+03
       439   9 -3.680780E+05  6.013051E+04  3.887225E+04  1.661507E+04  2.011282E+04  1.055776E+04
       439  10 -8.429581E+05 -4.878114E+04 -5.458950E+04  1.654480E+04  4.653140E-09  1.189054E-09
       439  11 -8.788723E+05 -5.772847E+04 -6.878050E+04  7.465857E+03 -4.368878E-09  8.340066E-09
       439  12 -9.181273E+05 -7.567162E+04 -8.988658E+04  2.025456E+04 -6.417792E-09 -3.065974E-09
       439  13 -6.431284E+05  5.886336E+02 -7.810278E+03  1.840437E+04 -5.758376E-11 -6.885847E-09
       439  14 -6.414928E+05  8.771698E+02 -1.332108E+04  7.486154E+03 -1.905594E-09  1.197292E-08
       439  15 -6.431378E+05 -7.767990E+03 -2.550507E+04  1.843517E+04  1.671109E-10 -1.375600E-09
       439  16 -4.432619E+05  4.995557E+04  3.896622E+04  2.026451E+04 -4.990777E-09 -5.036413E-09
       439  17 -4.040613E+05  5.947881E+04  4.213451E+04  7.506410E+03  5.508657E-09 -1.569014E-08
       439  18 -3.680784E+05  6.013028E+04  3.887128E+04  1.661490E+04  4.215270E-09  2.541194E-09
       439  19 -8.429581E+05 -4.878107E+04 -5.458935E+04  1.654483E+04 -4.747579E+03 -7.658719E+03
       439  20 -8.788721E+05 -5.772833E+04 -6.878007E+04  7.465947E+03 -1.185029E+04 -9.374766E+03
       439  21 -9.181269E+05 -7.567141E+04 -8.988569E+04  2.025472E+04 -1.895517E+04 -1.055434E+04
       439  22 -6.431284E+05  5.887063E+02 -7.810099E+03  1.840441E+04 -6.015770E+03 -7.663467E+03
       439  23 -6.414926E+05  8.773081E+02 -1.332061E+04  7.486251E+03 -1.277353E+04 -9.377971E+03
       439  24 -6.431373E+05 -7.767768E+03 -2.550415E+04  1.843534E+04 -1.953387E+04 -1.055605E+04
       439  25 -4.432618E+05  4.995565E+04  3.896643E+04  2.026456E+04 -7.284367E+03 -7.668223E+03
       439  26 -4.040611E+05  5.947895E+04  4.213503E+04  7.506514E+03 -1.369711E+04 -9.381175E+03
       439  27 -3.680780E+05  6.013051E+04  3.887225E+04  1.661507E+04 -2.011282E+04 -1.055776E+04
       440   1 -9.631744E+05 -7.236732E+04 -1.047763E+05  3.805163E+03  2.073621E+04  1.278038E+04
       440   2 -9.848157E+05 -7.768860E+04 -1.337689E+05  1.781069E+04  5.461535E+04  1.353234E+04
       440   3 -1.037784E+06 -1.902127E+05 -2.116638E+05  5.328572E+04  8.852300E+04  4.693705E+03
       440   4 -6.491261E+05  5.268532E+03 -3.152695E+04  1.822949E+04  2.425778E+04  1.279295E+04
       440   5 -6.340276E+05  8.872588E+03 -5.163785E+04  7.657620E+03  5.194223E+04  1.352178E+04
       440   6 -6.491636E+05 -9.361901E+04 -1.163274E+05  1.855702E+04  7.965769E+04  4.659736E+03
       440   7 -3.349863E+05  8.289814E+04  4.171583E+04  3.266108E+04  2.778111E+04  1.280568E+04
       440   8 -2.831257E+05  9.542545E+04  3.048486E+04 -2.501323E+03  4.926760E+04  1.351132E+04
       440   9 -2.604030E+05  2.968124E+03 -2.100114E+04 -1.619359E+04  7.078683E+04  4.626773E+03
       440  10 -9.631749E+05 -7.236761E+04 -1.047774E+05  3.804950E+03 -7.447417E-09 -5.670292E-09
       440  11 -9.848189E+05 -7.768960E+04 -1.337748E+05  1.781009E+04  2.459918E-10  3.761323E-09
       440  12 -1.037792E+06 -1.902148E+05 -2.116786E+05  5.328538E+04  8.818567E-09  8.204730E-09
       440  13 -6.491268E+05  5.268198E+03 -3.152836E+04  1.822924E+04  2.520214E-10  2.940801E-09
       440  14 -6.340306E+05  8.871667E+03 -5.164327E+04  7.657055E+03 -9.606931E-10  4.296202E-09
       440  15 -6.491704E+05 -9.362073E+04 -1.163394E+05  1.855672E+04 -5.021907E-11  2.449481E-10
       440  16 -3.349872E+05  8.289776E+04  4.171408E+04  3.266080E+04  7.400200E-09  1.011622E-08
       440  17 -2.831284E+05  9.542460E+04  3.047996E+04 -2.501859E+03  9.606452E-10  1.039109E-08
       440  18 -2.604084E+05  2.966755E+03 -2.101060E+04 -1.619386E+04 -1.137134E-08  3.854055E-10
       440  19 -9.631744E+05 -7.236732E+04 -1.047763E+05  3.805163E+03 -2.073621E+04 -1.278038E+04
       440  20 -9.848157E+05 -7.768860E+04 -1.337689E+05  1.781069E+04 -5.461535E+04 -1.353234E+04
       440  21 -1.037784E+06 -1.902127E+05 -2.116638E+05  5.328572E+04 -8.852300E+04 -4.693705E+03
       440  22 -6.491261E+05  5.268532E+03 -3.152695E+04  1.822949E+04 -2.425778E+04 -1.279295E+04
       440  23 -6.340276E+05  8.872588E+03 -5.163785E+04  7.657620E+03 -5.194223E+04 -1.352178E+04
       440  24 -6.491636E+05 -9.361901E+04 -1.163274E+05  1.855702E+04 -7.965769E+04 -4.659736E+03
       440  25 -3.349863E+05  8.289814E+04  4.171583E+04  3.266108E+04 -2.778111E+04 -1.280568E+04
       440  26 -2.831257E+05  9.542545E+04  3.048486E+04 -2.501323E+03 -4.926760E+04 -1.351132E+04
       440  27 -2.604030E+05  2.968124E+03 -2.100114E+04 -1.619359E+04 -7.078683E+04 -4.626773E+03
