
 stresses (elem, integ.pnt.,sxx,syy,szz,sxy,sxz,syz) for set ELALL and time  0.1000000E+01

         1   1 -5.423269E+06 -6.571057E+05 -8.598434E+05 -1.097683E+04 -5.847150E+05  1.042445E+01
         1   2 -5.289671E+06  1.590565E+05 -3.656741E+05 -2.751359E+03 -3.846364E+05  1.718612E+00
         1   3 -5.421534E+06  2.030351E+04 -2.411748E+05  5.475680E+03 -1.845674E+05 -1.641580E+00
         1   4 -5.423269E+06 -6.571059E+05 -8.598434E+05  1.744652E-07 -5.847150E+05  1.380514E-09
         1   5 -5.289671E+06  1.590565E+05 -3.656741E+05 -5.891850E-07 -3.846364E+05  3.843899E-09
         1   6 -5.421534E+06  2.030345E+04 -2.411748E+05  1.329967E-06 -1.845674E+05 -4.933376E-09
         1   7 -5.423269E+06 -6.571057E+05 -8.598434E+05  1.097683E+04 -5.847150E+05 -1.042445E+01
         1   8 -5.289671E+06  1.590565E+05 -3.656741E+05  2.751359E+03 -3.846364E+05 -1.718612E+00
         1   9 -5.421534E+06  2.030351E+04 -2.411748E+05 -5.475680E+03 -1.845674E+05  1.641580E+00
         1  10 -5.423639E+06 -6.571985E+05 -8.604915E+05 -1.097683E+04 -2.329754E-09 -2.187244E-09
         1  11 -5.289831E+06  1.590164E+05 -3.659546E+05 -2.751359E+03 -5.332584E-09  4.251529E-09
         1  12 -5.421570E+06  2.029427E+04 -2.412394E+05  5.475680E+03  1.961825E-09 -2.959259E-09
         1  13 -5.423639E+06 -6.571987E+05 -8.604915E+05  1.744654E-07 -4.363628E-09  5.390652E-10
         1  14 -5.289831E+06  1.590163E+05 -3.659546E+05  6.491813E-07  8.564640E-09 -2.634353E-13
         1  15 -5.421570E+06  2.029421E+04 -2.412394E+05  7.109186E-07  6.226186E-10 -1.317306E-13
         1  16 -5.423639E+06 -6.571985E+05 -8.604915E+05  1.097683E+04  2.091617E-09  2.187523E-09
         1  17 -5.289831E+06  1.590164E+05 -3.659546E+05  2.751359E+03  1.069647E-08  4.382428E-09
         1  18 -5.421570E+06  2.029427E+04 -2.412394E+05 -5.475680E+03  5.344956E-09 -2.706730E-09
         1  19 -5.423269E+06 -6.571057E+05 -8.598434E+05 -1.097683E+04  5.847150E+05 -1.042445E+01
         1  20 -5.289671E+06  1.590565E+05 -3.656741E+05 -2.751359E+03  3.846364E+05 -1.718612E+00
         1  21 -5.421534E+06  2.030351E+04 -2.411748E+05  5.475680E+03  1.845674E+05  1.641580E+00
         1  22 -5.423269E+06 -6.571059E+05 -8.598434E+05  1.274667E-06  5.847150E+05 -1.667783E-09
         1  23 -5.289671E+06  1.590565E+05 -3.656741E+05  1.337160E-06  3.846364E+05 -3.783193E-09
         1  24 -5.421534E+06  2.030345E+04 -2.411748E+05  1.089227E-06  1.845674E+05  2.763378E-09
         1  25 -5.423269E+06 -6.571057E+05 -8.598434E+05  1.097683E+04  5.847150E+05  1.042445E+01
         1  26 -5.289671E+06  1.590565E+05 -3.656741E+05  2.751359E+03  3.846364E+05  1.718612E+00
         1  27 -5.421534E+06  2.030351E+04 -2.411748E+05 -5.475680E+03  1.845674E+05 -1.641580E+00
         2   1 -5.372822E+06 -1.032038E+05 -1.998157E+05 -1.653007E+03 -1.446167E+05  3.882637E-01
         2   2 -5.350587E+06  2.500193E+04 -9.444891E+04 -3.883725E+02 -9.496724E+04  5.990288E-02
         2   3 -5.372476E+06  3.100090E+03 -5.913153E+04  8.762710E+02 -4.531671E+04 -6.449668E-02
         2   4 -5.372822E+06 -1.032039E+05 -1.998157E+05  2.064965E-06 -1.446167E+05 -7.113450E-09
         2   5 -5.350587E+06  2.500193E+04 -9.444891E+04  1.521823E-06 -9.496724E+04 -9.664870E-11
         2   6 -5.372476E+06  3.100089E+03 -5.913153E+04  8.438109E-08 -4.531671E+04 -8.949296E-09
         2   7 -5.372822E+06 -1.032038E+05 -1.998157E+05  1.653007E+03 -1.446167E+05 -3.882637E-01
         2   8 -5.350587E+06  2.500193E+04 -9.444891E+04  3.883725E+02 -9.496724E+04 -5.990293E-02
         2   9 -5.372476E+06  3.100090E+03 -5.913153E+04 -8.762710E+02 -4.531671E+04  6.449668E-02
         2  10 -5.372845E+06 -1.032095E+05 -1.998554E+05 -1.653007E+03  6.380037E-09  5.586046E-11
         2  11 -5.350597E+06  2.499948E+04 -9.446600E+04 -3.883725E+02  7.748161E-09  3.658876E-11
         2  12 -5.372478E+06  3.099533E+03 -5.913542E+04  8.762710E+02  1.301890E-09 -2.201188E-09
         2  13 -5.372845E+06 -1.032095E+05 -1.998554E+05  1.392209E-07  4.217664E-09  4.338001E-10
         2  14 -5.350597E+06  2.499948E+04 -9.446600E+04  5.588835E-07  4.599925E-09  6.454088E-10
         2  15 -5.372478E+06  3.099532E+03 -5.913542E+04  1.531592E-07 -2.531536E-09  1.893173E-10
         2  16 -5.372845E+06 -1.032095E+05 -1.998554E+05  1.653007E+03 -6.564344E-09 -8.688990E-09
         2  17 -5.350597E+06  2.499948E+04 -9.446600E+04  3.883725E+02 -1.056452E-08 -3.623961E-11
         2  18 -5.372478E+06  3.099533E+03 -5.913542E+04 -8.762710E+02  1.834397E-09  1.122079E-09
         2  19 -5.372822E+06 -1.032038E+05 -1.998157E+05 -1.653007E+03  1.446167E+05 -3.882637E-01
         2  20 -5.350587E+06  2.500193E+04 -9.444891E+04 -3.883725E+02  9.496724E+04 -5.990288E-02
         2  21 -5.372476E+06  3.100090E+03 -5.913153E+04  8.762710E+02  4.531671E+04  6.449671E-02
         2  22 -5.372822E+06 -1.032039E+05 -1.998157E+05 -1.358861E-07  1.446167E+05  4.144430E-09
         2  23 -5.350587E+06  2.500193E+04 -9.444891E+04 -1.366996E-06  9.496724E+04 -1.257942E-10
         2  24 -5.372476E+06  3.100089E+03 -5.913153E+04  1.184839E-06  4.531671E+04  9.426447E-09
         2  25 -5.372822E+06 -1.032038E+05 -1.998157E+05  1.653007E+03  1.446167E+05  3.882637E-01
         2  26 -5.350587E+06  2.500193E+04 -9.444891E+04  3.883725E+02  9.496724E+04  5.990287E-02
         2  27 -5.372476E+06  3.100090E+03 -5.913153E+04 -8.762710E+02  4.531671E+04 -6.449670E-02
         3   1 -5.364413E+06 -1.612970E+04 -4.751963E+04 -2.410818E+02 -3.566773E+04  1.396611E-02
         3   2 -5.360612E+06  3.922581E+03 -2.423280E+04 -4.991759E+01 -2.323872E+04  1.884078E-03
         3   3 -5.364343E+06  4.242824E+02 -1.497719E+04  1.412430E+02 -1.080976E+04 -2.479822E-03
         3   4 -5.364413E+06 -1.612970E+04 -4.751963E+04 -3.211467E-07 -3.566773E+04 -2.675790E-10
         3   5 -5.360612E+06  3.922581E+03 -2.423280E+04 -1.365651E-06 -2.323872E+04  1.149206E-08
         3   6 -5.364343E+06  4.242823E+02 -1.497719E+04  1.346390E-07 -1.080976E+04  1.276556E-09
         3   7 -5.364413E+06 -1.612970E+04 -4.751963E+04  2.410818E+02 -3.566773E+04 -1.396610E-02
         3   8 -5.360612E+06  3.922581E+03 -2.423280E+04  4.991759E+01 -2.323872E+04 -1.884119E-03
         3   9 -5.364343E+06  4.242824E+02 -1.497719E+04 -1.412430E+02 -1.080976E+04  2.479836E-03
         3  10 -5.364415E+06 -1.613005E+04 -4.752205E+04 -2.410818E+02 -5.023778E-09  8.586820E-09
         3  11 -5.360613E+06  3.922434E+03 -2.423382E+04 -4.991759E+01 -2.240095E-09 -1.725559E-08
         3  12 -5.364344E+06  4.242507E+02 -1.497741E+04  1.412430E+02  2.410158E-10  2.170569E-09
         3  13 -5.364415E+06 -1.613005E+04 -4.752205E+04  1.054405E-06  1.881594E-10  3.561840E-09
         3  14 -5.360613E+06  3.922434E+03 -2.423382E+04 -1.365651E-06 -8.596960E-09  5.073419E-09
         3  15 -5.364344E+06  4.242506E+02 -1.497741E+04  7.536348E-07 -2.350313E-09  1.780924E-09
         3  16 -5.364415E+06 -1.613005E+04 -4.752205E+04  2.410818E+02  6.843305E-09  4.788953E-11
         3  17 -5.360613E+06  3.922434E+03 -2.423382E+04  4.991759E+01 -2.209810E-09  4.304952E-09
         3  18 -5.364344E+06  4.242507E+02 -1.497741E+04 -1.412430E+02 -4.810520E-10 -3.249242E-09
         3  19 -5.364413E+06 -1.612970E+04 -4.751963E+04 -2.410818E+02  3.566773E+04 -1.396607E-02
         3  20 -5.360612E+06  3.922581E+03 -2.423280E+04 -4.991759E+01  2.323872E+04 -1.884089E-03
         3  21 -5.364343E+06  4.242824E+02 -1.497719E+04  1.412430E+02  1.080976E+04  2.479817E-03
         3  22 -5.364413E+06 -1.612970E+04 -4.751963E+04  1.054407E-06  3.566773E+04  1.225311E-09
         3  23 -5.360612E+06  3.922581E+03 -2.423280E+04 -6.778716E-07  2.323872E+04 -3.167422E-09
         3  24 -5.364343E+06  4.242823E+02 -1.497719E+04  9.943527E-07  1.080976E+04  2.697440E-09
         3  25 -5.364413E+06 -1.612970E+04 -4.751963E+04  2.410818E+02  3.566773E+04  1.396606E-02
         3  26 -5.360612E+06  3.922581E+03 -2.423280E+04  4.991759E+01  2.323872E+04  1.884055E-03
         3  27 -5.364343E+06  4.242824E+02 -1.497719E+04 -1.412430E+02  1.080976E+04 -2.479819E-03
         4   1 -5.363009E+06 -2.495035E+03 -1.201705E+04 -3.554447E+01 -8.370242E+03  4.832553E-04
         4   2 -5.362261E+06  6.743619E+02 -7.096274E+03 -4.938996E+00 -4.789234E+03  3.843137E-05
         4   3 -5.362997E+06 -2.048328E+02 -5.534216E+03  2.566690E+01 -1.208162E+03 -5.037238E-05
         4   4 -5.363009E+06 -2.495035E+03 -1.201705E+04  1.302054E-07 -8.370242E+03  1.420079E-09
         4   5 -5.362261E+06  6.743619E+02 -7.096274E+03 -3.739844E-08 -4.789234E+03  8.511396E-09
         4   6 -5.362997E+06 -2.048328E+02 -5.534216E+03  1.239331E-06 -1.208162E+03 -5.991791E-09
         4   7 -5.363009E+06 -2.495035E+03 -1.201705E+04  3.554448E+01 -8.370242E+03 -4.832596E-04
         4   8 -5.362261E+06  6.743619E+02 -7.096274E+03  4.938993E+00 -4.789234E+03 -3.846590E-05
         4   9 -5.362997E+06 -2.048328E+02 -5.534216E+03 -2.566690E+01 -1.208162E+03  5.038830E-05
         4  10 -5.363009E+06 -2.495054E+03 -1.201719E+04 -3.554448E+01  1.927493E-09 -8.648157E-09
         4  11 -5.362261E+06  6.743557E+02 -7.096317E+03 -4.938992E+00  7.109048E-10  4.290392E-09
         4  12 -5.362997E+06 -2.048332E+02 -5.534219E+03  2.566691E+01  2.367488E-09  1.089420E-09
         4  13 -5.363009E+06 -2.495054E+03 -1.201719E+04 -1.449033E-07 -2.424846E-10 -2.546333E-15
         4  14 -5.362261E+06  6.743557E+02 -7.096317E+03 -3.739814E-08 -1.906784E-09  1.873337E-13
         4  15 -5.362997E+06 -2.048332E+02 -5.534219E+03  4.827785E-07  1.347437E-09  3.263508E-10
         4  16 -5.363009E+06 -2.495054E+03 -1.201719E+04  3.554448E+01 -2.069449E-09 -8.620665E-09
         4  17 -5.362261E+06  6.743557E+02 -7.096317E+03  4.938997E+00 -5.615665E-09 -4.289967E-09
         4  18 -5.362997E+06 -2.048332E+02 -5.534219E+03 -2.566690E+01 -2.078765E-09  2.149152E-09
         4  19 -5.363009E+06 -2.495035E+03 -1.201705E+04 -3.554447E+01  8.370242E+03 -4.832035E-04
         4  20 -5.362261E+06  6.743619E+02 -7.096274E+03 -4.938994E+00  4.789234E+03 -3.839256E-05
         4  21 -5.362997E+06 -2.048328E+02 -5.534216E+03  2.566690E+01  1.208162E+03  5.038292E-05
         4  22 -5.363009E+06 -2.495035E+03 -1.201705E+04  4.053170E-07  8.370242E+03  5.697239E-09
         4  23 -5.362261E+06  6.743619E+02 -7.096274E+03 -1.749524E-07  4.789234E+03 -9.676402E-09
         4  24 -5.362997E+06 -2.048328E+02 -5.534216E+03  9.642162E-07  1.208162E+03  4.885055E-09
         4  25 -5.363009E+06 -2.495035E+03 -1.201705E+04  3.554447E+01  8.370242E+03  4.832035E-04
         4  26 -5.362261E+06  6.743619E+02 -7.096274E+03  4.938992E+00  4.789234E+03  3.838392E-05
         4  27 -5.362997E+06 -2.048328E+02 -5.534216E+03 -2.566690E+01  1.208162E+03 -5.037429E-05
         5   1 -5.362928E+06 -3.354161E+02 -5.300977E+03 -2.015786E+01 -2.297433E+02  7.530454E-06
         5   2 -5.362345E+06  5.249996E+02 -5.784335E+03  3.468969E+00  2.686201E+03  1.516059E-05
         5   3 -5.362935E+06 -1.766470E+03 -8.966417E+03  2.709582E+01  5.602141E+03  2.466179E-04
         5   4 -5.362928E+06 -3.354161E+02 -5.300977E+03  7.095844E-07 -2.297433E+02 -5.828560E-09
         5   5 -5.362345E+06  5.249996E+02 -5.784335E+03 -9.095217E-07  2.686201E+03  6.594283E-09
         5   6 -5.362935E+06 -1.766470E+03 -8.966417E+03  1.880739E-07  5.602141E+03 -4.268830E-09
         5   7 -5.362928E+06 -3.354161E+02 -5.300977E+03  2.015786E+01 -2.297433E+02 -7.530453E-06
         5   8 -5.362345E+06  5.249996E+02 -5.784335E+03 -3.468972E+00  2.686201E+03 -1.516060E-05
         5   9 -5.362935E+06 -1.766470E+03 -8.966417E+03 -2.709582E+01  5.602141E+03 -2.465661E-04
         5  10 -5.362928E+06 -3.354161E+02 -5.300977E+03 -2.015786E+01  3.350975E-11 -2.573409E-12
         5  11 -5.362345E+06  5.249976E+02 -5.784349E+03  3.468967E+00 -1.611955E-09 -4.348834E-09
         5  12 -5.362935E+06 -1.766479E+03 -8.966477E+03  2.709582E+01 -9.428347E-10 -7.486992E-09
         5  13 -5.362928E+06 -3.354161E+02 -5.300977E+03  1.593667E-07  3.509648E-10  1.499299E-13
         5  14 -5.362345E+06  5.249976E+02 -5.784349E+03 -6.344123E-07  2.391775E-09  1.616012E-13
         5  15 -5.362935E+06 -1.766479E+03 -8.966477E+03 -3.277552E-07 -2.836233E-09 -1.527549E-09
         5  16 -5.362928E+06 -3.354161E+02 -5.300977E+03  2.015786E+01 -3.713770E-09 -8.631657E-09
         5  17 -5.362345E+06  5.249976E+02 -5.784349E+03 -3.468967E+00  6.062544E-11  3.200125E-11
         5  18 -5.362935E+06 -1.766479E+03 -8.966477E+03 -2.709582E+01 -1.172925E-09 -5.464433E-09
         5  19 -5.362928E+06 -3.354161E+02 -5.300977E+03 -2.015786E+01  2.297433E+02 -7.487284E-06
         5  20 -5.362345E+06  5.249996E+02 -5.784335E+03  3.468971E+00 -2.686201E+03 -1.511748E-05
         5  21 -5.362935E+06 -1.766470E+03 -8.966417E+03  2.709582E+01 -5.602141E+03 -2.465640E-04
         5  22 -5.362928E+06 -3.354161E+02 -5.300977E+03  1.593658E-07  2.297433E+02  3.707427E-09
         5  23 -5.362345E+06  5.249996E+02 -5.784335E+03 -8.419482E-08 -2.686201E+03 -1.193417E-08
         5  24 -5.362935E+06 -1.766470E+03 -8.966417E+03  1.013401E-06 -5.602141E+03  8.013461E-09
         5  25 -5.362928E+06 -3.354161E+02 -5.300977E+03  2.015786E+01  2.297433E+02  7.470015E-06
         5  26 -5.362345E+06  5.249996E+02 -5.784335E+03 -3.468971E+00 -2.686201E+03  1.512612E-05
         5  27 -5.362935E+06 -1.766470E+03 -8.966417E+03 -2.709582E+01 -5.602141E+03  2.465317E-04
         6   1 -5.363861E+06  2.726566E+02 -1.096596E+04 -1.003999E+02  7.403257E+03 -1.207202E-03
         6   2 -5.361201E+06  2.791149E+03 -1.738589E+04  3.551224E+01  1.631762E+04  9.411666E-04
         6   3 -5.363910E+06 -1.144789E+04 -3.383628E+04  1.714228E+02  2.523178E+04  7.025117E-03
         6   4 -5.363861E+06  2.726566E+02 -1.096596E+04 -9.500073E-09  7.403257E+03 -7.373396E-10
         6   5 -5.361201E+06  2.791149E+03 -1.738589E+04 -1.976802E-07  1.631762E+04  5.153105E-09
         6   6 -5.363910E+06 -1.144789E+04 -3.383628E+04  8.177442E-07  2.523178E+04  2.675824E-09
         6   7 -5.363861E+06  2.726566E+02 -1.096596E+04  1.003999E+02  7.403257E+03  1.207202E-03
         6   8 -5.361201E+06  2.791149E+03 -1.738589E+04 -3.551224E+01  1.631762E+04 -9.411914E-04
         6   9 -5.363910E+06 -1.144789E+04 -3.383628E+04 -1.714228E+02  2.523178E+04 -7.025078E-03
         6  10 -5.363861E+06  2.726418E+02 -1.096606E+04 -1.003999E+02 -2.471503E-09 -8.574273E-09
         6  11 -5.361201E+06  2.791077E+03 -1.738640E+04  3.551224E+01 -3.345060E-09 -3.951093E-11
         6  12 -5.363911E+06 -1.144806E+04 -3.383749E+04  1.714228E+02  2.058557E-09  8.664741E-09
         6  13 -5.363861E+06  2.726417E+02 -1.096606E+04 -5.597163E-07 -5.051335E-09  1.735712E-13
         6  14 -5.361201E+06  2.791077E+03 -1.738640E+04 -8.854571E-07 -2.633977E-09  2.158844E-09
         6  15 -5.363911E+06 -1.144806E+04 -3.383749E+04  1.643582E-07  2.860313E-09  1.918270E-13
         6  16 -5.363861E+06  2.726418E+02 -1.096606E+04  1.003999E+02 -1.229324E-09 -5.963942E-11
         6  17 -5.361201E+06  2.791077E+03 -1.738640E+04 -3.551223E+01  3.934960E-09  1.299202E-08
         6  18 -5.363911E+06 -1.144806E+04 -3.383749E+04 -1.714228E+02 -1.701737E-09  4.286718E-09
         6  19 -5.363861E+06  2.726566E+02 -1.096596E+04 -1.003999E+02 -7.403257E+03  1.207237E-03
         6  20 -5.361201E+06  2.791149E+03 -1.738589E+04  3.551224E+01 -1.631762E+04 -9.411720E-04
         6  21 -5.363910E+06 -1.144789E+04 -3.383628E+04  1.714228E+02 -2.523178E+04 -7.025124E-03
         6  22 -5.363861E+06  2.726566E+02 -1.096596E+04  2.656116E-07 -7.403257E+03  1.399393E-09
         6  23 -5.361201E+06  2.791149E+03 -1.738589E+04 -3.352356E-07 -1.631762E+04 -1.069338E-08
         6  24 -5.363910E+06 -1.144789E+04 -3.383628E+04  1.058460E-06 -2.523178E+04 -5.904743E-09
         6  25 -5.363861E+06  2.726566E+02 -1.096596E+04  1.003999E+02 -7.403257E+03 -1.207237E-03
         6  26 -5.361201E+06  2.791149E+03 -1.738589E+04 -3.551224E+01 -1.631762E+04  9.411375E-04
         6  27 -5.363910E+06 -1.144789E+04 -3.383628E+04 -1.714228E+02 -2.523178E+04  7.025051E-03
         7   1 -5.369628E+06  2.196314E+03 -4.205303E+04 -6.219356E+02  3.209821E+04 -3.242389E-02
         7   2 -5.354091E+06  1.774642E+04 -6.708702E+04  2.756920E+02  6.736040E+04  3.016177E-02
         7   3 -5.369876E+06 -7.325183E+04 -1.418582E+05  1.173328E+03  1.026226E+05  1.955675E-01
         7   4 -5.369628E+06  2.196313E+03 -4.205303E+04 -1.598890E-07  3.209821E+04  1.311873E-11
         7   5 -5.354091E+06  1.774642E+04 -6.708702E+04 -1.054942E-06  6.736040E+04 -1.947574E-09
         7   6 -5.369876E+06 -7.325183E+04 -1.418582E+05  5.261038E-07  1.026226E+05 -1.259163E-08
         7   7 -5.369628E+06  2.196314E+03 -4.205303E+04  6.219356E+02  3.209821E+04  3.242391E-02
         7   8 -5.354091E+06  1.774642E+04 -6.708702E+04 -2.756920E+02  6.736040E+04 -3.016181E-02
         7   9 -5.369876E+06 -7.325183E+04 -1.418582E+05 -1.173328E+03  1.026226E+05 -1.955675E-01
         7  10 -5.369630E+06  2.196034E+03 -4.205499E+04 -6.219356E+02 -2.283239E-09  6.425483E-11
         7  11 -5.354096E+06  1.774519E+04 -6.709562E+04  2.756920E+02 -8.459960E-10  4.305754E-09
         7  12 -5.369887E+06 -7.325469E+04 -1.418782E+05  1.173328E+03  1.608249E-09  7.448107E-09
         7  13 -5.369630E+06  2.196033E+03 -4.205499E+04 -7.101127E-07 -3.881990E-09 -1.079039E-09
         7  14 -5.354096E+06  1.774519E+04 -6.709562E+04 -2.295815E-07  1.907446E-09  7.497972E-10
         7  15 -5.369887E+06 -7.325469E+04 -1.418782E+05 -3.679975E-07  6.078111E-09  1.431657E-09
         7  16 -5.369630E+06  2.196034E+03 -4.205499E+04  6.219356E+02  1.242146E-09 -6.421351E-11
         7  17 -5.354096E+06  1.774519E+04 -6.709562E+04 -2.756920E+02  5.748597E-09  8.647540E-09
         7  18 -5.369887E+06 -7.325469E+04 -1.418782E+05 -1.173328E+03  5.654543E-09  1.186382E-09
         7  19 -5.369628E+06  2.196314E+03 -4.205303E+04 -6.219356E+02 -3.209821E+04  3.242391E-02
         7  20 -5.354091E+06  1.774642E+04 -6.708702E+04  2.756920E+02 -6.736040E+04 -3.016177E-02
         7  21 -5.369876E+06 -7.325183E+04 -1.418582E+05  1.173328E+03 -1.026226E+05 -1.955675E-01
         7  22 -5.369628E+06  2.196313E+03 -4.205303E+04 -1.598851E-07 -3.209821E+04  1.215539E-09
         7  23 -5.354091E+06  1.774642E+04 -6.708702E+04  4.554004E-08 -6.736040E+04  2.219483E-09
         7  24 -5.369876E+06 -7.325183E+04 -1.418582E+05  1.076310E-06 -1.026226E+05  1.151094E-08
         7  25 -5.369628E+06  2.196314E+03 -4.205303E+04  6.219356E+02 -3.209821E+04 -3.242394E-02
         7  26 -5.354091E+06  1.774642E+04 -6.708702E+04 -2.756920E+02 -6.736040E+04  3.016176E-02
         7  27 -5.369876E+06 -7.325183E+04 -1.418582E+05 -1.173328E+03 -1.026226E+05  1.955675E-01
         8   1 -5.404451E+06  1.440788E+04 -1.712157E+05 -3.886384E+03  1.309896E+05 -8.268786E-01
         8   2 -5.310869E+06  1.128892E+05 -2.596254E+05  1.952595E+03  2.729886E+05  8.656709E-01
         8   3 -5.405709E+06 -4.663932E+05 -6.104446E+05  7.790846E+03  4.149938E+05  5.251207E+00
         8   4 -5.404451E+06  1.440785E+04 -1.712157E+05  4.288244E-07  1.309896E+05 -4.643723E-09
         8   5 -5.310869E+06  1.128892E+05 -2.596254E+05  5.692201E-07  2.729886E+05  1.762699E-08
         8   6 -5.405710E+06 -4.663933E+05 -6.104446E+05  2.621160E-07  4.149938E+05  2.885656E-09
         8   7 -5.404451E+06  1.440788E+04 -1.712157E+05  3.886384E+03  1.309896E+05  8.268785E-01
         8   8 -5.310869E+06  1.128892E+05 -2.596254E+05 -1.952595E+03  2.729886E+05 -8.656709E-01
         8   9 -5.405709E+06 -4.663932E+05 -6.104446E+05 -7.790846E+03  4.149938E+05 -5.251207E+00
         8  10 -5.404470E+06  1.440322E+04 -1.712482E+05 -3.886384E+03  1.910095E-09 -6.655905E-11
         8  11 -5.310949E+06  1.128689E+05 -2.597666E+05  1.952595E+03 -3.402108E-09  1.302228E-08
         8  12 -5.405896E+06 -4.664399E+05 -6.107710E+05  7.790845E+03  9.252461E-10  6.511172E-09
         8  13 -5.404470E+06  1.440319E+04 -1.712482E+05 -6.716763E-07  4.297876E-09  2.178966E-09
         8  14 -5.310949E+06  1.128689E+05 -2.597666E+05  8.443849E-07  4.536387E-09  4.306977E-09
         8  15 -5.405896E+06 -4.664400E+05 -6.107710E+05  5.715652E-07  1.014595E-09  1.605332E-09
         8  16 -5.404470E+06  1.440322E+04 -1.712482E+05  3.886384E+03  4.260124E-09  1.733513E-08
         8  17 -5.310949E+06  1.128689E+05 -2.597666E+05 -1.952595E+03 -4.835095E-09  8.562670E-09
         8  18 -5.405896E+06 -4.664399E+05 -6.107710E+05 -7.790845E+03  4.110980E-09  7.509908E-09
         8  19 -5.404451E+06  1.440788E+04 -1.712157E+05 -3.886384E+03 -1.309896E+05  8.268786E-01
         8  20 -5.310869E+06  1.128892E+05 -2.596254E+05  1.952595E+03 -2.729886E+05 -8.656709E-01
         8  21 -5.405709E+06 -4.663932E+05 -6.104446E+05  7.790846E+03 -4.149938E+05 -5.251207E+00
         8  22 -5.404451E+06  1.440785E+04 -1.712157E+05  7.039533E-07 -1.309896E+05  7.427181E-09
         8  23 -5.310869E+06  1.128892E+05 -2.596254E+05  1.945057E-06 -2.729886E+05 -6.048323E-09
         8  24 -5.405710E+06 -4.663933E+05 -6.104446E+05  3.308779E-07 -4.149938E+05  2.609308E-09
         8  25 -5.404451E+06  1.440788E+04 -1.712157E+05  3.886384E+03 -1.309896E+05 -8.268786E-01
         8  26 -5.310869E+06  1.128892E+05 -2.596254E+05 -1.952595E+03 -2.729886E+05  8.656709E-01
         8  27 -5.405709E+06 -4.663932E+05 -6.104446E+05 -7.790846E+03 -4.149938E+05  5.251207E+00
         9   1  2.741328E+06  1.003491E+07  2.595454E+06 -1.955255E+06  1.247951E+05  1.001723E+06
         9   2  2.218013E+06  8.551279E+06  1.743998E+06 -1.808110E+06  4.214692E+05  4.589931E+05
         9   3  1.837143E+06  7.179130E+06  1.279041E+06 -1.885515E+06  4.938078E+05 -8.205744E+04
         9   4  1.072931E+05 -7.106592E+05  1.112161E+05 -1.853550E+06  1.282298E+05  7.222856E+04
         9   5  3.585897E+04 -7.173489E+05  5.968642E+04 -1.741509E+06  4.239355E+05  4.383827E+04
         9   6  1.939290E+04 -7.021215E+05  4.106045E+04 -1.853992E+06  4.938192E+05  1.571070E+04
         9   7 -2.534336E+06 -1.134873E+07 -2.377537E+06 -1.753366E+06  1.314119E+05 -8.414984E+05
         9   8 -2.151015E+06 -9.902774E+06 -1.627428E+06 -1.675727E+06  4.263412E+05 -3.653532E+05
         9   9 -1.801410E+06 -8.521881E+06 -1.198413E+06 -1.822713E+06  4.938400E+05  1.122935E+05
         9  10  2.741047E+06  1.003385E+07  2.593566E+06 -1.955355E+06 -1.932916E-09 -5.913350E-09
         9  11  2.217765E+06  8.551006E+06  1.743270E+06 -1.808265E+06  2.867207E-09 -4.489671E-08
         9  12  1.836880E+06  7.179057E+06  1.278571E+06 -1.885483E+06 -7.727141E-09 -7.793399E-08
         9  13  1.072740E+05 -7.106693E+05  1.111753E+05 -1.853557E+06  1.894620E-10  6.709259E-11
         9  14  3.566547E+04 -7.173992E+05  5.934496E+04 -1.741524E+06  3.563355E-09  1.593475E-10
         9  15  1.913104E+04 -7.021872E+05  4.060178E+04 -1.853999E+06  3.989705E-09  2.872546E-10
         9  16 -2.534549E+06 -1.134951E+07 -2.378923E+06 -1.753277E+06 -3.113396E-09  5.749956E-09
         9  17 -2.151246E+06 -9.902967E+06 -1.628022E+06 -1.675601E+06 -7.401390E-09  4.444424E-08
         9  18 -1.801675E+06 -8.521960E+06 -1.198896E+06 -1.822758E+06 -3.778471E-09  7.728104E-08
         9  19  2.741328E+06  1.003491E+07  2.595454E+06 -1.955255E+06 -1.247951E+05 -1.001723E+06
         9  20  2.218013E+06  8.551279E+06  1.743998E+06 -1.808110E+06 -4.214692E+05 -4.589931E+05
         9  21  1.837143E+06  7.179130E+06  1.279041E+06 -1.885515E+06 -4.938078E+05  8.205744E+04
         9  22  1.072931E+05 -7.106592E+05  1.112161E+05 -1.853550E+06 -1.282298E+05 -7.222856E+04
         9  23  3.585897E+04 -7.173489E+05  5.968642E+04 -1.741509E+06 -4.239355E+05 -4.383827E+04
         9  24  1.939290E+04 -7.021215E+05  4.106045E+04 -1.853992E+06 -4.938192E+05 -1.571070E+04
         9  25 -2.534336E+06 -1.134873E+07 -2.377537E+06 -1.753366E+06 -1.314119E+05  8.414984E+05
         9  26 -2.151015E+06 -9.902774E+06 -1.627428E+06 -1.675727E+06 -4.263412E+05  3.653532E+05
         9  27 -1.801410E+06 -8.521881E+06 -1.198413E+06 -1.822713E+06 -4.938400E+05 -1.122935E+05
        10   1  1.624231E+06  6.273993E+06  1.101609E+06 -1.892319E+06  4.593784E+05 -9.790564E+04
        10   2  1.287489E+06  4.838354E+06  8.366560E+05 -1.760004E+06  3.986129E+05 -1.816501E+05
        10   3  9.778904E+05  3.422104E+06  6.326022E+05 -1.868771E+06  3.094839E+05 -2.655645E+05
        10   4  2.042543E+04 -7.031783E+05  3.699623E+04 -1.857698E+06  4.591735E+05  9.267038E+03
        10   5  2.212945E+04 -7.036525E+05  3.816596E+04 -1.737064E+06  3.977311E+05 -9.920091E+03
        10   6  3.998835E+04 -6.978497E+05  5.568763E+04 -1.857634E+06  3.077936E+05 -2.945701E+04
        10   7 -1.585709E+06 -7.631886E+06 -1.028625E+06 -1.823340E+06  4.589785E+05  1.152907E+05
        10   8 -1.244616E+06 -6.214731E+06 -7.606991E+05 -1.714245E+06  3.968562E+05  1.603508E+05
        10   9 -8.986396E+05 -4.800532E+06 -5.212379E+05 -1.846518E+06  3.061036E+05  2.051592E+05
        10  10  1.624002E+06  6.273926E+06  1.101195E+06 -1.892283E+06 -8.290672E-09  8.181616E-08
        10  11  1.287310E+06  4.838276E+06  8.362969E+05 -1.759946E+06 -1.006713E-08  8.936740E-09
        10  12  9.777692E+05  3.422003E+06  6.322916E+05 -1.868705E+06 -7.857004E-09 -6.488369E-08
        10  13  2.019907E+04 -7.032350E+05  3.659994E+04 -1.857702E+06  1.098923E-08  1.295513E-10
        10  14  2.195964E+04 -7.036950E+05  3.786867E+04 -1.737060E+06  1.610882E-08  2.490634E-10
        10  15  3.988647E+04 -6.978760E+05  5.550818E+04 -1.857626E+06  1.950444E-08 -2.287604E-10
        10  16 -1.585939E+06 -7.631957E+06 -1.029047E+06 -1.823383E+06 -1.254959E-08 -8.100353E-08
        10  17 -1.244792E+06 -6.214801E+06 -7.610445E+05 -1.714297E+06  6.836554E-10 -8.470552E-09
        10  18 -8.987518E+05 -4.800603E+06 -5.214944E+05 -1.846569E+06 -7.825436E-09  6.411662E-08
        10  19  1.624231E+06  6.273993E+06  1.101609E+06 -1.892319E+06 -4.593784E+05  9.790564E+04
        10  20  1.287489E+06  4.838354E+06  8.366560E+05 -1.760004E+06 -3.986129E+05  1.816501E+05
        10  21  9.778904E+05  3.422104E+06  6.326022E+05 -1.868771E+06 -3.094839E+05  2.655645E+05
        10  22  2.042543E+04 -7.031783E+05  3.699623E+04 -1.857698E+06 -4.591735E+05 -9.267038E+03
        10  23  2.212945E+04 -7.036525E+05  3.816596E+04 -1.737064E+06 -3.977311E+05  9.920091E+03
        10  24  3.998835E+04 -6.978497E+05  5.568763E+04 -1.857634E+06 -3.077936E+05  2.945701E+04
        10  25 -1.585709E+06 -7.631886E+06 -1.028625E+06 -1.823340E+06 -4.589785E+05 -1.152907E+05
        10  26 -1.244616E+06 -6.214731E+06 -7.606991E+05 -1.714245E+06 -3.968562E+05 -1.603508E+05
        10  27 -8.986396E+05 -4.800532E+06 -5.212379E+05 -1.846518E+06 -3.061036E+05 -2.051592E+05
        11   1  7.826952E+05  2.540434E+06  5.169016E+05 -1.870972E+06  2.477162E+05 -2.764903E+05
        11   2  5.088141E+05  1.101459E+06  3.692860E+05 -1.667397E+06  1.425031E+05 -3.440723E+05
        11   3  3.366952E+05 -3.037501E+05  2.903450E+05 -1.706904E+06  3.531739E+04 -4.116390E+05
        11   4  4.779314E+04 -6.911863E+05  7.027694E+04 -1.858107E+06  2.458691E+05 -3.938396E+04
        11   5  9.965804E+04 -7.056665E+05  1.227585E+05 -1.735952E+06  1.405364E+05 -1.026878E+05
        11   6  2.526603E+05 -6.893560E+05  2.407761E+05 -1.856736E+06  3.324692E+04 -1.661074E+05
        11   7 -6.875386E+05 -3.912104E+06 -3.762586E+05 -1.845277E+06  2.440249E+05  1.965474E+05
        11   8 -3.095882E+05 -2.509334E+06 -1.235808E+05 -1.804288E+06  1.385124E+05  1.380270E+05
        11   9  1.687376E+05 -1.074630E+06  1.914457E+05 -2.006470E+06  3.105692E+04  7.927897E+04
        11  10  7.826092E+05  2.540336E+06  5.166442E+05 -1.870917E+06 -1.266819E-08  7.540994E-08
        11  11  5.087608E+05  1.101327E+06  3.690264E+05 -1.667357E+06 -1.575244E-08  4.016167E-08
        11  12  3.366484E+05 -3.039324E+05  2.900243E+05 -1.706893E+06 -2.209863E-09 -6.266357E-10
        11  13  4.772788E+04 -6.912041E+05  7.016061E+04 -1.858099E+06  1.135642E-08 -2.155039E-10
        11  14  9.963407E+04 -7.056831E+05  1.227017E+05 -1.735940E+06  1.016994E-09  1.200801E-12
        11  15  2.526518E+05 -6.893859E+05  2.407222E+05 -1.856731E+06  6.395457E-12 -8.393553E-12
        11  16 -6.876131E+05 -3.912162E+06 -3.764441E+05 -1.845316E+06  9.566530E-10 -7.542150E-08
        11  17 -3.096141E+05 -2.509360E+06 -1.236530E+05 -1.804304E+06  9.684493E-09 -3.995941E-08
        11  18  1.687349E+05 -1.074637E+06  1.914320E+05 -2.006472E+06  3.449863E-09  7.476562E-10
        11  19  7.826952E+05  2.540434E+06  5.169016E+05 -1.870972E+06 -2.477162E+05  2.764903E+05
        11  20  5.088141E+05  1.101459E+06  3.692860E+05 -1.667397E+06 -1.425031E+05  3.440723E+05
        11  21  3.366952E+05 -3.037501E+05  2.903450E+05 -1.706904E+06 -3.531739E+04  4.116390E+05
        11  22  4.779314E+04 -6.911863E+05  7.027694E+04 -1.858107E+06 -2.458691E+05  3.938396E+04
        11  23  9.965804E+04 -7.056665E+05  1.227585E+05 -1.735952E+06 -1.405364E+05  1.026878E+05
        11  24  2.526603E+05 -6.893560E+05  2.407761E+05 -1.856736E+06 -3.324692E+04  1.661074E+05
        11  25 -6.875386E+05 -3.912104E+06 -3.762586E+05 -1.845277E+06 -2.440249E+05 -1.965474E+05
        11  26 -3.095882E+05 -2.509334E+06 -1.235808E+05 -1.804288E+06 -1.385124E+05 -1.380270E+05
        11  27  1.687376E+05 -1.074630E+06  1.914457E+05 -2.006470E+06 -3.105692E+04 -7.927897E+04
        12   1 -1.010199E+07 -2.954731E+06 -2.083097E+06 -3.393762E+06 -1.332152E+06 -4.997898E+05
        12   2 -9.642615E+06 -1.023447E+06 -8.178938E+05 -3.813073E+06 -8.556705E+05 -3.233185E+05
        12   3 -1.000038E+07 -1.274645E+06 -4.948445E+05 -3.735781E+06 -3.797448E+05 -1.453976E+05
        12   4 -1.034142E+07 -2.886750E+06 -2.117691E+06 -3.295272E+06 -1.332132E+06 -5.002189E+05
        12   5 -9.824197E+06 -1.051945E+06 -8.601373E+05 -3.820686E+06 -8.556656E+05 -3.233882E+05
        12   6 -1.012428E+07 -1.400048E+06 -5.449709E+05 -3.849475E+06 -3.797019E+05 -1.453202E+05
        12   7 -1.058075E+07 -2.818682E+06 -2.152269E+06 -3.196822E+06 -1.332112E+06 -5.006481E+05
        12   8 -1.000574E+07 -1.080444E+06 -9.023819E+05 -3.828301E+06 -8.556606E+05 -3.234579E+05
        12   9 -1.024815E+07 -1.525404E+06 -5.950964E+05 -3.963139E+06 -3.796589E+05 -1.452428E+05
        12  10 -1.010399E+07 -2.955491E+06 -2.086972E+06 -3.394305E+06  1.831969E-09 -3.436296E-10
        12  11 -9.643441E+06 -1.023762E+06 -8.194954E+05 -3.813298E+06 -3.818851E-10  1.696018E-09
        12  12 -1.000055E+07 -1.274707E+06 -4.951610E+05 -3.735826E+06 -2.192596E-09  3.298054E-10
        12  13 -1.034343E+07 -2.887510E+06 -2.121567E+06 -3.295815E+06  4.071805E-09  2.969386E-10
        12  14 -9.825023E+06 -1.052261E+06 -8.617394E+05 -3.820912E+06  8.496163E-09  2.423792E-10
        12  15 -1.012444E+07 -1.400110E+06 -5.452875E+05 -3.849520E+06  6.343209E-09  2.696738E-11
        12  16 -1.058275E+07 -2.819443E+06 -2.156147E+06 -3.197366E+06  2.945730E-09  6.244119E-10
        12  17 -1.000657E+07 -1.080759E+06 -9.039844E+05 -3.828526E+06  2.984768E-10  1.248744E-09
        12  18 -1.024831E+07 -1.525467E+06 -5.954129E+05 -3.963184E+06 -5.073421E-09 -9.105554E-10
        12  19 -1.010199E+07 -2.954731E+06 -2.083097E+06 -3.393762E+06  1.332152E+06  4.997898E+05
        12  20 -9.642615E+06 -1.023447E+06 -8.178938E+05 -3.813073E+06  8.556705E+05  3.233185E+05
        12  21 -1.000038E+07 -1.274645E+06 -4.948445E+05 -3.735781E+06  3.797448E+05  1.453976E+05
        12  22 -1.034142E+07 -2.886750E+06 -2.117691E+06 -3.295272E+06  1.332132E+06  5.002189E+05
        12  23 -9.824197E+06 -1.051945E+06 -8.601373E+05 -3.820686E+06  8.556656E+05  3.233882E+05
        12  24 -1.012428E+07 -1.400048E+06 -5.449709E+05 -3.849475E+06  3.797019E+05  1.453202E+05
        12  25 -1.058075E+07 -2.818682E+06 -2.152269E+06 -3.196822E+06  1.332112E+06  5.006481E+05
        12  26 -1.000574E+07 -1.080444E+06 -9.023819E+05 -3.828301E+06  8.556606E+05  3.234579E+05
        12  27 -1.024815E+07 -1.525404E+06 -5.950964E+05 -3.963139E+06  3.796589E+05  1.452428E+05
        13   1 -9.771057E+06 -1.545125E+06 -3.708598E+05 -3.636744E+06 -2.974403E+05 -1.150405E+05
        13   2 -9.701128E+06 -1.269816E+06 -1.250133E+05 -3.714827E+06 -1.904868E+05 -7.564749E+04
        13   3 -9.779326E+06 -1.302148E+06 -4.727687E+04 -3.695256E+06 -8.424123E+04 -3.436377E+04
        13   4 -1.006974E+07 -1.635777E+06 -4.492172E+05 -3.694139E+06 -2.975909E+05 -1.151114E+05
        13   5 -9.979066E+06 -1.370193E+06 -2.010676E+05 -3.784670E+06 -1.903970E+05 -7.561597E+04
        13   6 -1.003663E+07 -1.412389E+06 -1.212845E+05 -3.777532E+06 -8.390723E+04 -3.423566E+04
        13   7 -1.036833E+07 -1.726430E+06 -5.275816E+05 -3.751511E+06 -2.977413E+05 -1.151823E+05
        13   8 -1.025693E+07 -1.470567E+06 -2.771288E+05 -3.854485E+06 -1.903073E+05 -7.558447E+04
        13   9 -1.029387E+07 -1.522621E+06 -1.952985E+05 -3.859776E+06 -8.357338E+04 -3.410762E+04
        13  10 -9.771157E+06 -1.545164E+06 -3.710544E+05 -3.636772E+06  2.735628E-09 -1.980235E-09
        13  11 -9.701169E+06 -1.269832E+06 -1.250937E+05 -3.714839E+06 -3.548165E-10  3.635708E-09
        13  12 -9.779334E+06 -1.302151E+06 -4.729270E+04 -3.695258E+06  1.536005E-09 -2.311995E-09
        13  13 -1.006984E+07 -1.635816E+06 -4.494121E+05 -3.694167E+06  4.560973E-09 -8.307057E-10
        13  14 -9.979107E+06 -1.370209E+06 -2.011480E+05 -3.784682E+06 -6.010743E-09 -5.905381E-10
        13  15 -1.003664E+07 -1.412392E+06 -1.213002E+05 -3.777535E+06 -3.219523E-09  5.649955E-10
        13  16 -1.036843E+07 -1.726469E+06 -5.277768E+05 -3.751539E+06 -7.921591E-10 -2.050839E-09
        13  17 -1.025697E+07 -1.470583E+06 -2.772091E+05 -3.854497E+06  8.799426E-09 -1.777764E-10
        13  18 -1.029387E+07 -1.522624E+06 -1.953141E+05 -3.859778E+06  9.237696E-10  4.232303E-09
        13  19 -9.771057E+06 -1.545125E+06 -3.708598E+05 -3.636744E+06  2.974403E+05  1.150405E+05
        13  20 -9.701128E+06 -1.269816E+06 -1.250133E+05 -3.714827E+06  1.904868E+05  7.564749E+04
        13  21 -9.779326E+06 -1.302148E+06 -4.727687E+04 -3.695256E+06  8.424123E+04  3.436377E+04
        13  22 -1.006974E+07 -1.635777E+06 -4.492172E+05 -3.694139E+06  2.975909E+05  1.151114E+05
        13  23 -9.979066E+06 -1.370193E+06 -2.010676E+05 -3.784670E+06  1.903970E+05  7.561597E+04
        13  24 -1.003663E+07 -1.412389E+06 -1.212845E+05 -3.777532E+06  8.390723E+04  3.423566E+04
        13  25 -1.036833E+07 -1.726430E+06 -5.275816E+05 -3.751511E+06  2.977413E+05  1.151823E+05
        13  26 -1.025693E+07 -1.470567E+06 -2.771288E+05 -3.854485E+06  1.903073E+05  7.558447E+04
        13  27 -1.029387E+07 -1.522621E+06 -1.952985E+05 -3.859776E+06  8.357338E+04  3.410762E+04
        14   1 -9.975674E+06 -1.420103E+06 -8.118483E+04 -3.732196E+06 -6.642134E+04 -2.659155E+04
        14   2 -9.968334E+06 -1.419040E+06 -4.000602E+04 -3.784350E+06 -4.256672E+04 -1.642676E+04
        14   3 -1.004071E+07 -1.408410E+06 -3.037296E+04 -3.758521E+06 -1.877372E+04 -6.103386E+03
        14   4 -1.003558E+07 -1.439689E+06 -9.710004E+04 -3.745179E+06 -6.627341E+04 -2.653612E+04
        14   5 -9.993204E+06 -1.427824E+06 -4.677213E+04 -3.790397E+06 -4.239675E+04 -1.636260E+04
        14   6 -1.003055E+07 -1.406398E+06 -2.801107E+04 -3.757634E+06 -1.858020E+04 -6.030181E+03
        14   7 -1.009549E+07 -1.459275E+06 -1.130156E+05 -3.758161E+06 -6.612549E+04 -2.648070E+04
        14   8 -1.001807E+07 -1.436607E+06 -5.353830E+04 -3.796444E+06 -4.222679E+04 -1.629845E+04
        14   9 -1.002040E+07 -1.404386E+06 -2.564917E+04 -3.756746E+06 -1.838667E+04 -5.956975E+03
        14  10 -9.975679E+06 -1.420105E+06 -8.119463E+04 -3.732198E+06  1.911791E-09 -4.337906E-10
        14  11 -9.968336E+06 -1.419041E+06 -4.001001E+04 -3.784350E+06  2.734546E-09 -3.525713E-09
        14  12 -1.004071E+07 -1.408410E+06 -3.037371E+04 -3.758522E+06  1.514537E-09 -4.534123E-09
        14  13 -1.003559E+07 -1.439691E+06 -9.710979E+04 -3.745181E+06 -6.124965E-09 -8.310904E-11
        14  14 -9.993206E+06 -1.427825E+06 -4.677608E+04 -3.790398E+06 -2.110856E-09  1.345818E-09
        14  15 -1.003055E+07 -1.406398E+06 -2.801180E+04 -3.757634E+06 -3.616729E-09 -6.612294E-10
        14  16 -1.009549E+07 -1.459277E+06 -1.130253E+05 -3.758163E+06  2.029495E-09  5.201895E-10
        14  17 -1.001808E+07 -1.436608E+06 -5.354223E+04 -3.796445E+06 -5.687607E-10 -3.682066E-09
        14  18 -1.002040E+07 -1.404386E+06 -2.564989E+04 -3.756746E+06 -2.919034E-09  2.027370E-09
        14  19 -9.975674E+06 -1.420103E+06 -8.118483E+04 -3.732196E+06  6.642134E+04  2.659155E+04
        14  20 -9.968334E+06 -1.419040E+06 -4.000602E+04 -3.784350E+06  4.256672E+04  1.642676E+04
        14  21 -1.004071E+07 -1.408410E+06 -3.037296E+04 -3.758521E+06  1.877372E+04  6.103386E+03
        14  22 -1.003558E+07 -1.439689E+06 -9.710004E+04 -3.745179E+06  6.627341E+04  2.653612E+04
        14  23 -9.993204E+06 -1.427824E+06 -4.677213E+04 -3.790397E+06  4.239675E+04  1.636260E+04
        14  24 -1.003055E+07 -1.406398E+06 -2.801107E+04 -3.757634E+06  1.858020E+04  6.030181E+03
        14  25 -1.009549E+07 -1.459275E+06 -1.130156E+05 -3.758161E+06  6.612549E+04  2.648070E+04
        14  26 -1.001807E+07 -1.436607E+06 -5.353830E+04 -3.796444E+06  4.222679E+04  1.629845E+04
        14  27 -1.002040E+07 -1.404386E+06 -2.564917E+04 -3.756746E+06  1.838667E+04  5.956975E+03
        15   1 -1.026635E+07 -1.513681E+06 -9.083600E+04 -3.830567E+06 -1.516706E+04 -3.526938E+03
        15   2 -1.026649E+07 -1.523888E+06 -8.498005E+04 -3.848913E+06 -8.808634E+03  3.426079E+02
        15   3 -1.029312E+07 -1.518875E+06 -8.632281E+04 -3.838520E+06 -1.811227E+03  2.519312E+03
        15   4 -1.002081E+07 -1.419400E+06 -2.237857E+04 -3.763211E+06 -1.484098E+04 -3.403851E+03
        15   5 -1.000726E+07 -1.424935E+06 -1.295653E+04 -3.778363E+06 -8.742440E+03  3.674549E+02
        15   6 -1.002015E+07 -1.415195E+06 -1.052204E+04 -3.764776E+06 -2.004878E+03  2.446319E+03
        15   7 -9.775201E+06 -1.325115E+06  4.607305E+04 -3.695830E+06 -1.451475E+04 -3.280709E+03
        15   8 -9.747971E+06 -1.325978E+06  5.906064E+04 -3.707785E+06 -8.676214E+03  3.923139E+02
        15   9 -9.747114E+06 -1.311511E+06  6.527178E+04 -3.691003E+06 -2.198625E+03  2.373290E+03
        15  10 -1.026635E+07 -1.513681E+06 -9.083646E+04 -3.830567E+06  2.589124E-09  8.479099E-10
        15  11 -1.026649E+07 -1.523888E+06 -8.498020E+04 -3.848913E+06  7.126842E-09  2.239564E-09
        15  12 -1.029312E+07 -1.518875E+06 -8.632283E+04 -3.838520E+06  4.894030E-10  2.531528E-09
        15  13 -1.002081E+07 -1.419400E+06 -2.237901E+04 -3.763211E+06  4.572581E-09 -1.157320E-09
        15  14 -1.000727E+07 -1.424935E+06 -1.295668E+04 -3.778363E+06 -3.387595E-09 -2.589009E-09
        15  15 -1.002015E+07 -1.415195E+06 -1.052206E+04 -3.764776E+06 -3.290453E-09  9.749051E-10
        15  16 -9.775202E+06 -1.325115E+06  4.607263E+04 -3.695830E+06  2.953929E-09 -7.460078E-09
        15  17 -9.747971E+06 -1.325978E+06  5.906049E+04 -3.707785E+06 -3.242796E-09  5.364044E-09
        15  18 -9.747114E+06 -1.311511E+06  6.527176E+04 -3.691003E+06 -4.530866E-10  3.971565E-09
        15  19 -1.026635E+07 -1.513681E+06 -9.083600E+04 -3.830567E+06  1.516706E+04  3.526938E+03
        15  20 -1.026649E+07 -1.523888E+06 -8.498005E+04 -3.848913E+06  8.808634E+03 -3.426079E+02
        15  21 -1.029312E+07 -1.518875E+06 -8.632281E+04 -3.838520E+06  1.811227E+03 -2.519312E+03
        15  22 -1.002081E+07 -1.419400E+06 -2.237857E+04 -3.763211E+06  1.484098E+04  3.403851E+03
        15  23 -1.000726E+07 -1.424935E+06 -1.295653E+04 -3.778363E+06  8.742440E+03 -3.674549E+02
        15  24 -1.002015E+07 -1.415195E+06 -1.052204E+04 -3.764776E+06  2.004878E+03 -2.446319E+03
        15  25 -9.775201E+06 -1.325115E+06  4.607305E+04 -3.695830E+06  1.451475E+04  3.280709E+03
        15  26 -9.747971E+06 -1.325978E+06  5.906064E+04 -3.707785E+06  8.676214E+03 -3.923139E+02
        15  27 -9.747114E+06 -1.311511E+06  6.527178E+04 -3.691003E+06  2.198625E+03 -2.373290E+03
        16   1 -1.022024E+07 -1.512152E+06 -7.022802E+04 -3.840236E+06 -2.516589E+02  2.811810E+03
        16   2 -1.021600E+07 -1.478803E+06 -6.555790E+04 -3.808739E+06  6.494271E+03  5.125453E+03
        16   3 -1.017208E+07 -1.496736E+06 -6.802894E+04 -3.824563E+06  1.370703E+04  6.194333E+03
        16   4 -1.000546E+07 -1.430035E+06 -1.051689E+04 -3.781650E+06 -1.852914E+02  2.836694E+03
        16   5 -1.002563E+07 -1.406442E+06 -1.273020E+04 -3.757241E+06  6.369632E+03  5.078583E+03
        16   6 -1.000608E+07 -1.434091E+06 -2.192960E+04 -3.780152E+06  1.339103E+04  6.075777E+03
        16   7 -9.790633E+06 -1.347916E+06  4.918985E+04 -3.723045E+06 -1.188983E+02  2.861587E+03
        16   8 -9.835225E+06 -1.334080E+06  4.009412E+04 -3.705728E+06  6.244951E+03  5.031696E+03
        16   9 -9.840056E+06 -1.371445E+06  2.416720E+04 -3.735730E+06  1.307493E+04  5.957186E+03
        16  10 -1.022024E+07 -1.512152E+06 -7.022803E+04 -3.840236E+06 -2.677451E-09  1.377392E-09
        16  11 -1.021600E+07 -1.478803E+06 -6.555804E+04 -3.808739E+06  1.920731E-09 -3.600448E-10
        16  12 -1.017208E+07 -1.496736E+06 -6.802938E+04 -3.824563E+06 -3.912229E-09  1.245284E-09
        16  13 -1.000546E+07 -1.430035E+06 -1.051690E+04 -3.781650E+06  4.137902E-09  7.771954E-10
        16  14 -1.002563E+07 -1.406442E+06 -1.273032E+04 -3.757241E+06 -1.934144E-09 -6.024326E-10
        16  15 -1.000608E+07 -1.434091E+06 -2.193002E+04 -3.780152E+06 -3.752239E-09  8.007940E-10
        16  16 -9.790633E+06 -1.347916E+06  4.918983E+04 -3.723045E+06  1.742162E-09  1.540083E-09
        16  17 -9.835225E+06 -1.334080E+06  4.009400E+04 -3.705728E+06  1.010223E-09 -1.483609E-09
        16  18 -9.840057E+06 -1.371445E+06  2.416681E+04 -3.735731E+06  8.852540E-10  9.347981E-10
        16  19 -1.022024E+07 -1.512152E+06 -7.022802E+04 -3.840236E+06  2.516589E+02 -2.811810E+03
        16  20 -1.021600E+07 -1.478803E+06 -6.555790E+04 -3.808739E+06 -6.494271E+03 -5.125453E+03
        16  21 -1.017208E+07 -1.496736E+06 -6.802894E+04 -3.824563E+06 -1.370703E+04 -6.194333E+03
        16  22 -1.000546E+07 -1.430035E+06 -1.051689E+04 -3.781650E+06  1.852914E+02 -2.836694E+03
        16  23 -1.002563E+07 -1.406442E+06 -1.273020E+04 -3.757241E+06 -6.369632E+03 -5.078583E+03
        16  24 -1.000608E+07 -1.434091E+06 -2.192960E+04 -3.780152E+06 -1.339103E+04 -6.075777E+03
        16  25 -9.790633E+06 -1.347916E+06  4.918985E+04 -3.723045E+06  1.188983E+02 -2.861587E+03
        16  26 -9.835225E+06 -1.334080E+06  4.009412E+04 -3.705728E+06 -6.244951E+03 -5.031696E+03
        16  27 -9.840056E+06 -1.371445E+06  2.416720E+04 -3.735730E+06 -1.307493E+04 -5.957186E+03
        17   1 -9.896590E+06 -1.390722E+06  2.800640E+03 -3.757384E+06  1.818998E+04  6.483724E+03
        17   2 -9.886758E+06 -1.344973E+06 -7.556051E+03 -3.718080E+06  4.229353E+04  1.394205E+04
        17   3 -9.846783E+06 -1.397482E+06 -4.856219E+04 -3.725280E+06  6.606832E+04  2.228005E+04
        17   4 -1.000621E+07 -1.430605E+06 -2.737165E+04 -3.785185E+06  1.790372E+04  6.376435E+03
        17   5 -1.002369E+07 -1.397743E+06 -4.569416E+04 -3.755873E+06  4.213853E+04  1.388378E+04
        17   6 -1.001106E+07 -1.463174E+06 -9.477748E+04 -3.773064E+06  6.604337E+04  2.227020E+04
        17   7 -1.011581E+07 -1.470487E+06 -5.754504E+04 -3.812983E+06  1.761752E+04  6.269165E+03
        17   8 -1.016060E+07 -1.450512E+06 -8.383403E+04 -3.793658E+06  4.198357E+04  1.382551E+04
        17   9 -1.017532E+07 -1.528863E+06 -1.409953E+05 -3.820836E+06  6.601842E+04  2.226035E+04
        17  10 -9.896590E+06 -1.390722E+06  2.799926E+03 -3.757384E+06  1.007112E-09 -1.034777E-09
        17  11 -9.886760E+06 -1.344974E+06 -7.559846E+03 -3.718081E+06 -2.937521E-09  4.719458E-09
        17  12 -9.846788E+06 -1.397484E+06 -4.857149E+04 -3.725281E+06 -3.985070E-09  2.464968E-09
        17  13 -1.000621E+07 -1.430605E+06 -2.737234E+04 -3.785185E+06 -2.557382E-09  1.253386E-09
        17  14 -1.002369E+07 -1.397744E+06 -4.569793E+04 -3.755873E+06 -1.377188E-09  1.724255E-09
        17  15 -1.001107E+07 -1.463175E+06 -9.478678E+04 -3.773065E+06  2.083495E-09  7.823891E-10
        17  16 -1.011581E+07 -1.470487E+06 -5.754570E+04 -3.812983E+06 -1.439235E-09  1.483475E-09
        17  17 -1.016061E+07 -1.450512E+06 -8.383777E+04 -3.793658E+06 -1.656044E-09  1.597078E-09
        17  18 -1.017532E+07 -1.528865E+06 -1.410046E+05 -3.820838E+06 -7.778492E-10  1.691990E-09
        17  19 -9.896590E+06 -1.390722E+06  2.800640E+03 -3.757384E+06 -1.818998E+04 -6.483724E+03
        17  20 -9.886758E+06 -1.344973E+06 -7.556051E+03 -3.718080E+06 -4.229353E+04 -1.394205E+04
        17  21 -9.846783E+06 -1.397482E+06 -4.856219E+04 -3.725280E+06 -6.606832E+04 -2.228005E+04
        17  22 -1.000621E+07 -1.430605E+06 -2.737165E+04 -3.785185E+06 -1.790372E+04 -6.376435E+03
        17  23 -1.002369E+07 -1.397743E+06 -4.569416E+04 -3.755873E+06 -4.213853E+04 -1.388378E+04
        17  24 -1.001106E+07 -1.463174E+06 -9.477748E+04 -3.773064E+06 -6.604337E+04 -2.227020E+04
        17  25 -1.011581E+07 -1.470487E+06 -5.754504E+04 -3.812983E+06 -1.761752E+04 -6.269165E+03
        17  26 -1.016060E+07 -1.450512E+06 -8.383403E+04 -3.793658E+06 -4.198357E+04 -1.382551E+04
        17  27 -1.017532E+07 -1.528863E+06 -1.409953E+05 -3.820836E+06 -6.601842E+04 -2.226035E+04
        18   1 -9.742205E+06 -1.313219E+06 -3.924728E+04 -3.710468E+06  8.404207E+04  2.848311E+04
        18   2 -9.706073E+06 -1.260478E+06 -1.189115E+05 -3.703266E+06  1.883966E+05  6.707053E+04
        18   3 -9.811819E+06 -1.510632E+06 -3.626504E+05 -3.603733E+06  2.920679E+05  1.074580E+05
        18   4 -1.003546E+07 -1.413204E+06 -1.183911E+05 -3.778056E+06  8.378351E+04  2.838777E+04
        18   5 -9.980717E+06 -1.370602E+06 -1.962647E+05 -3.783449E+06  1.883722E+05  6.705910E+04
        18   6 -1.006795E+07 -1.631031E+06 -4.384564E+05 -3.696496E+06  2.922809E+05  1.075248E+05
        18   7 -1.032864E+07 -1.513188E+06 -1.975426E+05 -3.845617E+06  8.352507E+04  2.829246E+04
        18   8 -1.025529E+07 -1.480720E+06 -2.736253E+05 -3.863599E+06  1.883477E+05  6.704767E+04
        18   9 -1.032401E+07 -1.751415E+06 -5.142691E+05 -3.789219E+06  2.924938E+05  1.075915E+05
        18  10 -9.742213E+06 -1.313222E+06 -3.926235E+04 -3.710470E+06  1.395966E-09 -2.631809E-10
        18  11 -9.706113E+06 -1.260492E+06 -1.189880E+05 -3.703277E+06  7.248922E-09 -4.264161E-09
        18  12 -9.811915E+06 -1.510668E+06 -3.628358E+05 -3.603759E+06 -2.091858E-09  5.801657E-11
        18  13 -1.003547E+07 -1.413206E+06 -1.184061E+05 -3.778058E+06  3.354487E-09  2.944932E-10
        18  14 -9.980757E+06 -1.370617E+06 -1.963413E+05 -3.783460E+06 -3.449629E-09 -6.475994E-10
        18  15 -1.006804E+07 -1.631067E+06 -4.386421E+05 -3.696521E+06 -1.998326E-09  6.149414E-10
        18  16 -1.032865E+07 -1.513190E+06 -1.975575E+05 -3.845619E+06  3.492281E-09 -2.678971E-09
        18  17 -1.025533E+07 -1.480735E+06 -2.737018E+05 -3.863609E+06 -4.320842E-09 -3.564351E-09
        18  18 -1.032411E+07 -1.751451E+06 -5.144551E+05 -3.789245E+06  1.322888E-09  1.127241E-09
        18  19 -9.742205E+06 -1.313219E+06 -3.924728E+04 -3.710468E+06 -8.404207E+04 -2.848311E+04
        18  20 -9.706073E+06 -1.260478E+06 -1.189115E+05 -3.703266E+06 -1.883966E+05 -6.707053E+04
        18  21 -9.811819E+06 -1.510632E+06 -3.626504E+05 -3.603733E+06 -2.920679E+05 -1.074580E+05
        18  22 -1.003546E+07 -1.413204E+06 -1.183911E+05 -3.778056E+06 -8.378351E+04 -2.838777E+04
        18  23 -9.980717E+06 -1.370602E+06 -1.962647E+05 -3.783449E+06 -1.883722E+05 -6.705910E+04
        18  24 -1.006795E+07 -1.631031E+06 -4.384564E+05 -3.696496E+06 -2.922809E+05 -1.075248E+05
        18  25 -1.032864E+07 -1.513188E+06 -1.975426E+05 -3.845617E+06 -8.352507E+04 -2.829246E+04
        18  26 -1.025529E+07 -1.480720E+06 -2.736253E+05 -3.863599E+06 -1.883477E+05 -6.704767E+04
        18  27 -1.032401E+07 -1.751415E+06 -5.142691E+05 -3.789219E+06 -2.924938E+05 -1.075915E+05
        19   1 -1.001530E+07 -1.404404E+06 -5.113798E+05 -3.863860E+06  3.715856E+05  1.386821E+05
        19   2 -9.786607E+06 -1.045927E+06 -8.281114E+05 -3.809426E+06  8.352353E+05  3.152069E+05
        19   3 -1.046458E+07 -2.709393E+06 -2.064808E+06 -3.146596E+06  1.299031E+06  4.913940E+05
        19   4 -1.014503E+07 -1.377216E+06 -5.319442E+05 -3.821060E+06  3.717573E+05  1.388054E+05
        19   5 -9.798956E+06 -1.090455E+06 -8.395642E+05 -3.853320E+06  8.353377E+05  3.151774E+05
        19   6 -1.035962E+07 -2.825699E+06 -2.067091E+06 -3.277107E+06  1.299164E+06  4.910280E+05
        19   7 -1.027472E+07 -1.350010E+06 -5.525053E+05 -3.778269E+06  3.719289E+05  1.389286E+05
        19   8 -9.811301E+06 -1.134974E+06 -8.510161E+05 -3.897212E+06  8.354402E+05  3.151480E+05
        19   9 -1.025460E+07 -2.941896E+06 -2.069357E+06 -3.407631E+06  1.299298E+06  4.906621E+05
        19  10 -1.001546E+07 -1.404463E+06 -5.116811E+05 -3.863902E+06  1.593678E-09 -3.118409E-09
        19  11 -9.787394E+06 -1.046227E+06 -8.296371E+05 -3.809640E+06  1.841209E-09 -3.284446E-10
        19  12 -1.046649E+07 -2.710120E+06 -2.068501E+06 -3.147116E+06  6.050863E-09  1.111278E-10
        19  13 -1.014518E+07 -1.377275E+06 -5.322458E+05 -3.821102E+06 -2.020243E-10  6.784675E-10
        19  14 -9.799743E+06 -1.090755E+06 -8.410904E+05 -3.853534E+06 -1.762012E-09 -1.251243E-09
        19  15 -1.036153E+07 -2.826425E+06 -2.070784E+06 -3.277627E+06  2.145901E-09 -7.692531E-10
        19  16 -1.027488E+07 -1.350069E+06 -5.528072E+05 -3.778311E+06 -1.361089E-09 -1.011042E-09
        19  17 -9.812088E+06 -1.135274E+06 -8.525427E+05 -3.897426E+06 -3.324948E-09 -7.817662E-10
        19  18 -1.025650E+07 -2.942622E+06 -2.073050E+06 -3.408151E+06  1.016240E-11  5.267686E-10
        19  19 -1.001530E+07 -1.404404E+06 -5.113798E+05 -3.863860E+06 -3.715856E+05 -1.386821E+05
        19  20 -9.786607E+06 -1.045927E+06 -8.281114E+05 -3.809426E+06 -8.352353E+05 -3.152069E+05
        19  21 -1.046458E+07 -2.709393E+06 -2.064808E+06 -3.146596E+06 -1.299031E+06 -4.913940E+05
        19  22 -1.014503E+07 -1.377216E+06 -5.319442E+05 -3.821060E+06 -3.717573E+05 -1.388054E+05
        19  23 -9.798956E+06 -1.090455E+06 -8.395642E+05 -3.853320E+06 -8.353377E+05 -3.151774E+05
        19  24 -1.035962E+07 -2.825699E+06 -2.067091E+06 -3.277107E+06 -1.299164E+06 -4.910280E+05
        19  25 -1.027472E+07 -1.350010E+06 -5.525053E+05 -3.778269E+06 -3.719289E+05 -1.389286E+05
        19  26 -9.811301E+06 -1.134974E+06 -8.510161E+05 -3.897212E+06 -8.354402E+05 -3.151480E+05
        19  27 -1.025460E+07 -2.941896E+06 -2.069357E+06 -3.407631E+06 -1.299298E+06 -4.906621E+05
        20   1  5.499807E+05  5.656656E+05  6.545021E+05 -4.681057E+04  1.440665E+03  2.932461E+05
        20   2  1.270192E+05  4.605632E+05  3.982767E+05  9.003870E+03  3.851405E+03  1.886871E+05
        20   3  2.007248E+05  5.305063E+05  3.417306E+05 -2.624414E+04  2.126988E+03  8.411405E+04
        20   4  3.362143E+05 -2.895609E+05  4.408490E+05 -2.925929E+04  1.449411E+03  2.926574E+05
        20   5 -8.244745E+04 -3.772684E+05  1.890613E+05  1.607441E+04  3.853832E+03  1.885224E+05
        20   6 -4.182978E+03 -2.898518E+05  1.368439E+05 -2.965967E+04  2.123997E+03  8.437040E+04
        20   7  1.223939E+05 -1.144124E+06  2.271408E+05 -1.173199E+04  1.458134E+03  2.920694E+05
        20   8 -2.919670E+05 -1.214464E+06 -2.020693E+04  2.313614E+04  3.856258E+03  1.883578E+05
        20   9 -2.091414E+05 -1.109600E+06 -6.809354E+04 -3.306944E+04  2.121000E+03  8.462636E+04
        20  10  5.499576E+05  5.655733E+05  6.543407E+05 -4.681091E+04 -3.345928E-09 -3.328584E-10
        20  11  1.270097E+05  4.605250E+05  3.982098E+05  9.003285E+03 -4.635352E-09 -2.331553E-09
        20  12  2.007229E+05  5.304987E+05  3.417173E+05 -2.624428E+04 -1.922490E-09  2.687470E-09
        20  13  3.361913E+05 -2.896529E+05  4.406879E+05 -2.925963E+04 -3.203424E-12 -3.195437E-10
        20  14 -8.245701E+04 -3.773065E+05  1.889945E+05  1.607383E+04 -2.400737E-09 -1.165183E-11
        20  15 -4.184895E+03 -2.898594E+05  1.368305E+05 -2.965981E+04  3.466991E-11  1.604101E-09
        20  16  1.223710E+05 -1.144216E+06  2.269802E+05 -1.173233E+04  6.328913E-09  2.900862E-10
        20  17 -2.919765E+05 -1.214502E+06 -2.027375E+04  2.313555E+04  8.125448E-09  1.691314E-09
        20  18 -2.091433E+05 -1.109608E+06 -6.810703E+04 -3.306958E+04  1.275027E-09 -2.761978E-09
        20  19  5.499807E+05  5.656656E+05  6.545021E+05 -4.681057E+04 -1.440665E+03 -2.932461E+05
        20  20  1.270192E+05  4.605632E+05  3.982767E+05  9.003870E+03 -3.851405E+03 -1.886871E+05
        20  21  2.007248E+05  5.305063E+05  3.417306E+05 -2.624414E+04 -2.126988E+03 -8.411405E+04
        20  22  3.362143E+05 -2.895609E+05  4.408490E+05 -2.925929E+04 -1.449411E+03 -2.926574E+05
        20  23 -8.244745E+04 -3.772684E+05  1.890613E+05  1.607441E+04 -3.853832E+03 -1.885224E+05
        20  24 -4.182978E+03 -2.898518E+05  1.368439E+05 -2.965967E+04 -2.123997E+03 -8.437040E+04
        20  25  1.223939E+05 -1.144124E+06  2.271408E+05 -1.173199E+04 -1.458134E+03 -2.920694E+05
        20  26 -2.919670E+05 -1.214464E+06 -2.020693E+04  2.313614E+04 -3.856258E+03 -1.883578E+05
        20  27 -2.091414E+05 -1.109600E+06 -6.809354E+04 -3.306944E+04 -2.121000E+03 -8.462636E+04
        21   1  7.653813E+04 -2.172388E+05  1.427305E+05 -3.561093E+04  5.897252E+02  6.102322E+04
        21   2  2.051676E+03 -2.529175E+05  9.462911E+04  1.864858E+04  2.043383E+02  2.236294E+04
        21   3  4.258175E+04 -2.568820E+05  1.000438E+05 -2.983847E+04 -2.961466E+02 -1.629763E+04
        21   4  5.040240E+04 -3.214734E+05  1.167035E+05 -3.175709E+04  5.896481E+02  6.106607E+04
        21   5 -1.907235E+04 -3.373474E+05  7.353237E+04  1.951533E+04  2.038098E+02  2.241949E+04
        21   6  2.647559E+04 -3.215050E+05  8.387373E+04 -3.195956E+04 -2.967695E+02 -1.622861E+04
        21   7  2.426590E+04 -4.256982E+05  9.067570E+04 -2.790388E+04  5.895715E+02  6.110891E+04
        21   8 -4.019690E+04 -4.217708E+05  5.243509E+04  2.038197E+04  2.032814E+02  2.247603E+04
        21   9  1.036914E+04 -3.861241E+05  6.770333E+04 -3.408042E+04 -2.973928E+02 -1.615960E+04
        21  10  7.653713E+04 -2.172428E+05  1.427235E+05 -3.561096E+04  5.338709E-09  3.148188E-10
        21  11  2.051541E+03 -2.529181E+05  9.462817E+04  1.864858E+04 -1.835672E-09 -5.536572E-09
        21  12  4.258168E+04 -2.568823E+05  1.000433E+05 -2.983847E+04 -3.670951E-09  2.558210E-09
        21  13  5.040140E+04 -3.214774E+05  1.166965E+05 -3.175712E+04  4.398818E-09 -2.515849E-09
        21  14 -1.907248E+04 -3.373480E+05  7.353142E+04  1.951533E+04 -3.215034E-09  2.658999E-11
        21  15  2.647552E+04 -3.215053E+05  8.387324E+04 -3.195956E+04 -4.125148E-10  1.986109E-09
        21  16  2.426490E+04 -4.257022E+05  9.066868E+04 -2.790391E+04 -5.845552E-10 -2.534412E-10
        21  17 -4.019704E+04 -4.217714E+05  5.243414E+04  2.038197E+04  3.840644E-09  4.295195E-09
        21  18  1.036907E+04 -3.861244E+05  6.770283E+04 -3.408042E+04 -1.606635E-09 -2.760160E-09
        21  19  7.653813E+04 -2.172388E+05  1.427305E+05 -3.561093E+04 -5.897252E+02 -6.102322E+04
        21  20  2.051676E+03 -2.529175E+05  9.462911E+04  1.864858E+04 -2.043383E+02 -2.236294E+04
        21  21  4.258175E+04 -2.568820E+05  1.000438E+05 -2.983847E+04  2.961466E+02  1.629763E+04
        21  22  5.040240E+04 -3.214734E+05  1.167035E+05 -3.175709E+04 -5.896481E+02 -6.106607E+04
        21  23 -1.907235E+04 -3.373474E+05  7.353237E+04  1.951533E+04 -2.038098E+02 -2.241949E+04
        21  24  2.647559E+04 -3.215050E+05  8.387373E+04 -3.195956E+04  2.967695E+02  1.622861E+04
        21  25  2.426590E+04 -4.256982E+05  9.067570E+04 -2.790388E+04 -5.895715E+02 -6.110891E+04
        21  26 -4.019690E+04 -4.217708E+05  5.243509E+04  2.038197E+04 -2.032814E+02 -2.247603E+04
        21  27  1.036914E+04 -3.861241E+05  6.770333E+04 -3.408042E+04  2.973928E+02  1.615960E+04
        22   1 -1.637170E+05 -9.758007E+05 -7.677067E+04 -3.056918E+04 -1.776853E+03 -3.254031E+04
        22   2 -2.186206E+05 -1.044981E+06 -6.251700E+04  2.266473E+04 -3.339674E+03 -9.239783E+04
        22   3  6.453394E+03 -1.011935E+06  6.565287E+04 -1.868473E+04 -9.814686E+02 -1.522293E+05
        22   4  3.780839E+03 -3.060003E+05  9.068910E+04 -3.040692E+04 -1.779442E+03 -3.227182E+04
        22   5 -4.645889E+04 -3.570017E+05  1.094382E+05  1.717961E+04 -3.338615E+03 -9.246969E+04
        22   6  1.831862E+05 -3.057864E+05  2.422549E+05 -2.981139E+04 -9.776510E+02 -1.526433E+05
        22   7  1.712448E+05  3.642073E+05  2.581150E+05 -3.024353E+04 -1.782030E+03 -3.200302E+04
        22   8  1.256671E+05  3.314068E+05  2.813576E+05  1.168908E+04 -3.337556E+03 -9.254158E+04
        22   9  3.598818E+05  4.008144E+05  4.188193E+05 -4.095032E+04 -9.738219E+02 -1.530577E+05
        22  10 -1.637172E+05 -9.758019E+05 -7.677267E+04 -3.056923E+04 -1.817217E-09  7.755807E-10
        22  11 -2.186229E+05 -1.044990E+06 -6.253309E+04  2.266448E+04 -2.946894E-09 -3.922369E-09
        22  12  6.447160E+03 -1.011959E+06  6.560925E+04 -1.868485E+04 -1.077446E-09  1.053334E-10
        22  13  3.780555E+03 -3.060014E+05  9.068713E+04 -3.040696E+04  2.271167E-10 -2.534174E-09
        22  14 -4.646120E+04 -3.570109E+05  1.094221E+05  1.717936E+04  2.540579E-09  2.090300E-11
        22  15  1.831800E+05 -3.058114E+05  2.422111E+05 -2.981151E+04  5.289004E-10  6.537827E-10
        22  16  1.712445E+05  3.642062E+05  2.581131E+05 -3.024357E+04 -2.238837E-09 -7.582222E-10
        22  17  1.256648E+05  3.313976E+05  2.813415E+05  1.168883E+04  3.919831E-09  3.059516E-09
        22  18  3.598755E+05  4.007893E+05  4.187753E+05 -4.095044E+04  2.705548E-09 -1.431936E-10
        22  19 -1.637170E+05 -9.758007E+05 -7.677067E+04 -3.056918E+04  1.776853E+03  3.254031E+04
        22  20 -2.186206E+05 -1.044981E+06 -6.251700E+04  2.266473E+04  3.339674E+03  9.239783E+04
        22  21  6.453394E+03 -1.011935E+06  6.565287E+04 -1.868473E+04  9.814686E+02  1.522293E+05
        22  22  3.780839E+03 -3.060003E+05  9.068910E+04 -3.040692E+04  1.779442E+03  3.227182E+04
        22  23 -4.645889E+04 -3.570017E+05  1.094382E+05  1.717961E+04  3.338615E+03  9.246969E+04
        22  24  1.831862E+05 -3.057864E+05  2.422549E+05 -2.981139E+04  9.776510E+02  1.526433E+05
        22  25  1.712448E+05  3.642073E+05  2.581150E+05 -3.024353E+04  1.782030E+03  3.200302E+04
        22  26  1.256671E+05  3.314068E+05  2.813576E+05  1.168908E+04  3.337556E+03  9.254158E+04
        22  27  3.598818E+05  4.008144E+05  4.188193E+05 -4.095032E+04  9.738219E+02  1.530577E+05
        23   1 -5.077108E+06 -1.166609E+06 -6.711833E+05 -1.723586E+06 -4.265938E+05 -1.600187E+05
        23   2 -4.910277E+06 -5.798905E+05 -2.692735E+05 -1.892899E+06 -2.746192E+05 -1.031274E+05
        23   3 -5.016686E+06 -6.880189E+05 -1.698418E+05 -1.889991E+06 -1.226963E+05 -4.611724E+04
        23   4 -5.099727E+06 -1.167832E+06 -6.759770E+05 -1.722170E+06 -4.265859E+05 -1.600222E+05
        23   5 -4.929374E+06 -5.852889E+05 -2.741973E+05 -1.896192E+06 -2.746145E+05 -1.031267E+05
        23   6 -5.032267E+06 -6.976044E+05 -1.749010E+05 -1.897991E+06 -1.226938E+05 -4.611538E+04
        23   7 -5.122345E+06 -1.169055E+06 -6.807706E+05 -1.720753E+06 -4.265780E+05 -1.600256E+05
        23   8 -4.948470E+06 -5.906873E+05 -2.791210E+05 -1.899485E+06 -2.746099E+05 -1.031259E+05
        23   9 -5.047848E+06 -7.071897E+05 -1.799602E+05 -1.905992E+06 -1.226913E+05 -4.611353E+04
        23  10 -5.077312E+06 -1.166686E+06 -6.715770E+05 -1.723641E+06 -3.108247E-05 -2.490087E-05
        23  11 -4.910361E+06 -5.799225E+05 -2.694367E+05 -1.892922E+06 -1.489491E-04 -1.109808E-04
        23  12 -5.016703E+06 -6.880253E+05 -1.698744E+05 -1.889995E+06 -2.737922E-04 -1.939274E-04
        23  13 -5.099931E+06 -1.167909E+06 -6.763707E+05 -1.722225E+06 -1.021753E-04 -2.414251E-05
        23  14 -4.929458E+06 -5.853209E+05 -2.743605E+05 -1.896215E+06 -4.533301E-04 -1.070898E-04
        23  15 -5.032284E+06 -6.976108E+05 -1.749336E+05 -1.897996E+06 -8.045187E-04 -1.900025E-04
        23  16 -5.122549E+06 -1.169132E+06 -6.811644E+05 -1.720808E+06 -3.944166E-05 -2.433161E-05
        23  17 -4.948555E+06 -5.907193E+05 -2.792842E+05 -1.899508E+06 -1.638591E-04 -1.075033E-04
        23  18 -5.047865E+06 -7.071962E+05 -1.799928E+05 -1.905996E+06 -2.812896E-04 -1.937295E-04
        23  19 -5.077108E+06 -1.166609E+06 -6.711833E+05 -1.723586E+06  4.265938E+05  1.600187E+05
        23  20 -4.910277E+06 -5.798905E+05 -2.692735E+05 -1.892900E+06  2.746192E+05  1.031274E+05
        23  21 -5.016686E+06 -6.880188E+05 -1.698417E+05 -1.889991E+06  1.226963E+05  4.611724E+04
        23  22 -5.099727E+06 -1.167832E+06 -6.759770E+05 -1.722170E+06  4.265859E+05  1.600222E+05
        23  23 -4.929374E+06 -5.852889E+05 -2.741973E+05 -1.896192E+06  2.746145E+05  1.031267E+05
        23  24 -5.032267E+06 -6.976044E+05 -1.749010E+05 -1.897991E+06  1.226938E+05  4.611538E+04
        23  25 -5.122345E+06 -1.169055E+06 -6.807707E+05 -1.720753E+06  4.265780E+05  1.600256E+05
        23  26 -4.948471E+06 -5.906873E+05 -2.791210E+05 -1.899485E+06  2.746099E+05  1.031259E+05
        23  27 -5.047849E+06 -7.071898E+05 -1.799603E+05 -1.905992E+06  1.226913E+05  4.611352E+04
        24   1 -5.016906E+06 -7.795396E+05 -1.460418E+05 -1.853487E+06 -9.598225E+04 -3.606517E+04
        24   2 -4.988680E+06 -6.890225E+05 -6.574406E+04 -1.881657E+06 -6.170025E+04 -2.316347E+04
        24   3 -5.007841E+06 -7.047323E+05 -4.076739E+04 -1.879760E+06 -2.740812E+04 -1.028543E+04
        24   4 -5.011975E+06 -7.765525E+05 -1.444502E+05 -1.851003E+06 -9.598221E+04 -3.606537E+04
        24   5 -4.982956E+06 -6.865859E+05 -6.410388E+04 -1.879830E+06 -6.170049E+04 -2.316359E+04
        24   6 -5.001324E+06 -7.028455E+05 -3.907813E+04 -1.878591E+06 -2.740861E+04 -1.028559E+04
        24   7 -5.007044E+06 -7.735654E+05 -1.428585E+05 -1.848518E+06 -9.598216E+04 -3.606557E+04
        24   8 -4.977233E+06 -6.841493E+05 -6.246370E+04 -1.878003E+06 -6.170073E+04 -2.316372E+04
        24   9 -4.994807E+06 -7.009588E+05 -3.738887E+04 -1.877421E+06 -2.740910E+04 -1.028574E+04
        24  10 -5.016916E+06 -7.795435E+05 -1.460617E+05 -1.853490E+06 -2.750031E-04 -1.880448E-04
        24  11 -4.988684E+06 -6.890241E+05 -6.575228E+04 -1.881658E+06 -1.309061E-04 -8.332398E-05
        24  12 -5.007842E+06 -7.047327E+05 -4.076902E+04 -1.879760E+06  1.976322E-05  1.858881E-05
        24  13 -5.011985E+06 -7.765564E+05 -1.444701E+05 -1.851005E+06 -7.821503E-04 -1.847559E-04
        24  14 -4.982961E+06 -6.865875E+05 -6.411212E+04 -1.879831E+06 -3.539479E-04 -8.375202E-05
        24  15 -5.001325E+06 -7.028459E+05 -3.907975E+04 -1.878591E+06  7.429764E-05  1.727086E-05
        24  16 -5.007055E+06 -7.735693E+05 -1.428785E+05 -1.848521E+06 -2.646626E-04 -1.887891E-04
        24  17 -4.977237E+06 -6.841509E+05 -6.247196E+04 -1.878004E+06 -1.133472E-04 -8.724916E-05
        24  18 -4.994807E+06 -7.009591E+05 -3.739049E+04 -1.877421E+06  3.141325E-05  1.725675E-05
        24  19 -5.016905E+06 -7.795395E+05 -1.460418E+05 -1.853487E+06  9.598225E+04  3.606517E+04
        24  20 -4.988680E+06 -6.890225E+05 -6.574403E+04 -1.881657E+06  6.170025E+04  2.316347E+04
        24  21 -5.007841E+06 -7.047323E+05 -4.076740E+04 -1.879760E+06  2.740812E+04  1.028543E+04
        24  22 -5.011975E+06 -7.765525E+05 -1.444502E+05 -1.851003E+06  9.598221E+04  3.606537E+04
        24  23 -4.982956E+06 -6.865859E+05 -6.410388E+04 -1.879830E+06  6.170049E+04  2.316359E+04
        24  24 -5.001324E+06 -7.028455E+05 -3.907813E+04 -1.878591E+06  2.740861E+04  1.028559E+04
        24  25 -5.007045E+06 -7.735655E+05 -1.428586E+05 -1.848518E+06  9.598216E+04  3.606557E+04
        24  26 -4.977233E+06 -6.841493E+05 -6.246374E+04 -1.878003E+06  6.170073E+04  2.316372E+04
        24  27 -4.994807E+06 -7.009588E+05 -3.738886E+04 -1.877421E+06  2.740910E+04  1.028574E+04
        25   1 -4.995377E+06 -7.156117E+05 -3.100934E+04 -1.871990E+06 -2.152747E+04 -8.084114E+03
        25   2 -4.991276E+06 -7.008030E+05 -1.459506E+04 -1.875632E+06 -1.368487E+04 -5.142966E+03
        25   3 -4.993766E+06 -7.039131E+05 -8.709380E+03 -1.876019E+06 -5.844017E+03 -2.197136E+03
        25   4 -4.996942E+06 -7.160385E+05 -3.140953E+04 -1.872244E+06 -2.152756E+04 -8.084154E+03
        25   5 -4.992815E+06 -7.013502E+05 -1.501438E+04 -1.876012E+06 -1.368487E+04 -5.142968E+03
        25   6 -4.995280E+06 -7.045808E+05 -9.147916E+03 -1.876526E+06 -5.843936E+03 -2.197104E+03
        25   7 -4.998506E+06 -7.164652E+05 -3.180972E+04 -1.872498E+06 -2.152764E+04 -8.084194E+03
        25   8 -4.994354E+06 -7.018974E+05 -1.543369E+04 -1.876393E+06 -1.368488E+04 -5.142971E+03
        25   9 -4.996794E+06 -7.052485E+05 -9.586451E+03 -1.877033E+06 -5.843855E+03 -2.197073E+03
        25  10 -4.995378E+06 -7.156119E+05 -3.101036E+04 -1.871990E+06  5.751958E-05  4.021533E-05
        25  11 -4.991276E+06 -7.008031E+05 -1.459547E+04 -1.875632E+06  2.013238E-05  1.157526E-05
        25  12 -4.993766E+06 -7.039132E+05 -8.709451E+03 -1.876019E+06 -2.047380E-05 -1.566730E-05
        25  13 -4.996942E+06 -7.160387E+05 -3.141053E+04 -1.872244E+06  1.655182E-04  3.886988E-05
        25  14 -4.992815E+06 -7.013503E+05 -1.501478E+04 -1.876012E+06  5.077352E-05  1.202390E-05
        25  15 -4.995280E+06 -7.045808E+05 -9.147990E+03 -1.876526E+06 -6.397868E-05 -1.487045E-05
        25  16 -4.998506E+06 -7.164654E+05 -3.181071E+04 -1.872498E+06  5.660626E-05  3.959219E-05
        25  17 -4.994354E+06 -7.018975E+05 -1.543410E+04 -1.876393E+06  1.491740E-05  1.283568E-05
        25  18 -4.996794E+06 -7.052485E+05 -9.586528E+03 -1.877033E+06 -2.352238E-05 -1.535293E-05
        25  19 -4.995378E+06 -7.156117E+05 -3.100936E+04 -1.871990E+06  2.152747E+04  8.084114E+03
        25  20 -4.991276E+06 -7.008030E+05 -1.459506E+04 -1.875632E+06  1.368487E+04  5.142966E+03
        25  21 -4.993766E+06 -7.039131E+05 -8.709374E+03 -1.876019E+06  5.844017E+03  2.197136E+03
        25  22 -4.996942E+06 -7.160385E+05 -3.140953E+04 -1.872244E+06  2.152756E+04  8.084154E+03
        25  23 -4.992815E+06 -7.013502E+05 -1.501438E+04 -1.876012E+06  1.368487E+04  5.142968E+03
        25  24 -4.995280E+06 -7.045808E+05 -9.147916E+03 -1.876526E+06  5.843936E+03  2.197104E+03
        25  25 -4.998506E+06 -7.164652E+05 -3.180970E+04 -1.872498E+06  2.152764E+04  8.084194E+03
        25  26 -4.994354E+06 -7.018974E+05 -1.543369E+04 -1.876393E+06  1.368488E+04  5.142971E+03
        25  27 -4.996794E+06 -7.052485E+05 -9.586458E+03 -1.877033E+06  5.843855E+03  2.197073E+03
        26   1 -4.994563E+06 -7.060508E+05 -7.311955E+03 -1.875036E+06 -4.466687E+03 -1.678653E+03
        26   2 -4.993550E+06 -7.039575E+05 -4.292132E+03 -1.875915E+06 -2.218402E+03 -8.339718E+02
        26   3 -4.994459E+06 -7.046134E+05 -3.820004E+03 -1.875552E+06  2.959818E+01  1.142138E+01
        26   4 -4.994949E+06 -7.061704E+05 -7.413666E+03 -1.875114E+06 -4.466689E+03 -1.678654E+03
        26   5 -4.993884E+06 -7.040801E+05 -4.383897E+03 -1.876002E+06 -2.218388E+03 -8.339668E+02
        26   6 -4.994740E+06 -7.047391E+05 -3.901838E+03 -1.875648E+06  2.962699E+01  1.143218E+01
        26   7 -4.995335E+06 -7.062901E+05 -7.515377E+03 -1.875191E+06 -4.466690E+03 -1.678655E+03
        26   8 -4.994218E+06 -7.042028E+05 -4.475663E+03 -1.876089E+06 -2.218375E+03 -8.339617E+02
        26   9 -4.995022E+06 -7.048648E+05 -3.983672E+03 -1.875744E+06  2.965571E+01  1.144299E+01
        26  10 -4.994563E+06 -7.060508E+05 -7.311994E+03 -1.875036E+06 -2.744591E-05 -1.863879E-05
        26  11 -4.993550E+06 -7.039575E+05 -4.292142E+03 -1.875915E+06 -4.356112E-06 -1.645702E-06
        26  12 -4.994459E+06 -7.046134E+05 -3.820007E+03 -1.875552E+06  2.008646E-05  1.479745E-05
        26  13 -4.994949E+06 -7.061705E+05 -7.413709E+03 -1.875114E+06 -7.728098E-05 -1.803482E-05
        26  14 -4.993884E+06 -7.040801E+05 -4.383908E+03 -1.876002E+06 -8.278320E-06 -1.984889E-06
        26  15 -4.994740E+06 -7.047391E+05 -3.901838E+03 -1.875648E+06  6.073748E-05  1.404343E-05
        26  16 -4.995335E+06 -7.062901E+05 -7.515424E+03 -1.875191E+06 -2.573912E-05 -1.876848E-05
        26  17 -4.994218E+06 -7.042028E+05 -4.475674E+03 -1.876089E+06 -1.380547E-06 -2.294171E-06
        26  18 -4.995022E+06 -7.048648E+05 -3.983669E+03 -1.875744E+06  2.161516E-05  1.475519E-05
        26  19 -4.994563E+06 -7.060508E+05 -7.311947E+03 -1.875036E+06  4.466687E+03  1.678653E+03
        26  20 -4.993550E+06 -7.039575E+05 -4.292131E+03 -1.875915E+06  2.218402E+03  8.339718E+02
        26  21 -4.994459E+06 -7.046134E+05 -3.820011E+03 -1.875552E+06 -2.959814E+01 -1.142135E+01
        26  22 -4.994949E+06 -7.061704E+05 -7.413666E+03 -1.875114E+06  4.466688E+03  1.678654E+03
        26  23 -4.993884E+06 -7.040801E+05 -4.383897E+03 -1.876002E+06  2.218388E+03  8.339668E+02
        26  24 -4.994740E+06 -7.047391E+05 -3.901838E+03 -1.875648E+06 -2.962687E+01 -1.143215E+01
        26  25 -4.995335E+06 -7.062901E+05 -7.515385E+03 -1.875191E+06  4.466690E+03  1.678655E+03
        26  26 -4.994218E+06 -7.042028E+05 -4.475664E+03 -1.876089E+06  2.218375E+03  8.339617E+02
        26  27 -4.995022E+06 -7.048648E+05 -3.983666E+03 -1.875744E+06 -2.965567E+01 -1.144296E+01
        27   1 -4.996657E+06 -7.057502E+05 -4.628542E+03 -1.876603E+06  6.873788E+02  2.608823E+02
        27   2 -4.996245E+06 -7.044353E+05 -5.723627E+03 -1.876213E+06  3.325810E+03  1.254036E+03
        27   3 -4.996872E+06 -7.076948E+05 -9.835377E+03 -1.875766E+06  5.966579E+03  2.241094E+03
        27   4 -4.994511E+06 -7.049143E+05 -4.029320E+03 -1.875998E+06  6.874916E+02  2.609247E+02
        27   5 -4.994140E+06 -7.036426E+05 -5.141258E+03 -1.875647E+06  3.325795E+03  1.254030E+03
        27   6 -4.994808E+06 -7.069452E+05 -9.269753E+03 -1.875240E+06  5.966436E+03  2.241040E+03
        27   7 -4.992366E+06 -7.040785E+05 -3.430098E+03 -1.875393E+06  6.876042E+02  2.609670E+02
        27   8 -4.992036E+06 -7.028499E+05 -4.558890E+03 -1.875081E+06  3.325780E+03  1.254025E+03
        27   9 -4.992743E+06 -7.061956E+05 -8.704129E+03 -1.874713E+06  5.966293E+03  2.240986E+03
        27  10 -4.996657E+06 -7.057502E+05 -4.628545E+03 -1.876603E+06  1.809354E-05  1.157678E-05
        27  11 -4.996245E+06 -7.044353E+05 -5.723647E+03 -1.876213E+06 -1.922171E-05 -1.615349E-05
        27  12 -4.996872E+06 -7.076948E+05 -9.835445E+03 -1.875766E+06 -5.910302E-05 -4.276153E-05
        27  13 -4.994511E+06 -7.049143E+05 -4.029321E+03 -1.875998E+06  4.829013E-05  1.121074E-05
        27  14 -4.994140E+06 -7.036426E+05 -5.141282E+03 -1.875647E+06 -6.346627E-05 -1.452530E-05
        27  15 -4.994808E+06 -7.069452E+05 -9.269830E+03 -1.875240E+06 -1.752413E-04 -4.024123E-05
        27  16 -4.992366E+06 -7.040785E+05 -3.430096E+03 -1.875393E+06  1.511952E-05  1.182850E-05
        27  17 -4.992036E+06 -7.028499E+05 -4.558917E+03 -1.875081E+06 -2.419947E-05 -1.506177E-05
        27  18 -4.992744E+06 -7.061956E+05 -8.704215E+03 -1.874713E+06 -6.099247E-05 -4.297049E-05
        27  19 -4.996657E+06 -7.057502E+05 -4.628547E+03 -1.876603E+06 -6.873788E+02 -2.608823E+02
        27  20 -4.996245E+06 -7.044353E+05 -5.723620E+03 -1.876213E+06 -3.325810E+03 -1.254036E+03
        27  21 -4.996872E+06 -7.076947E+05 -9.835359E+03 -1.875766E+06 -5.966579E+03 -2.241094E+03
        27  22 -4.994511E+06 -7.049143E+05 -4.029320E+03 -1.875998E+06 -6.874915E+02 -2.609247E+02
        27  23 -4.994140E+06 -7.036426E+05 -5.141258E+03 -1.875647E+06 -3.325795E+03 -1.254030E+03
        27  24 -4.994808E+06 -7.069452E+05 -9.269753E+03 -1.875240E+06 -5.966436E+03 -2.241040E+03
        27  25 -4.992366E+06 -7.040785E+05 -3.430093E+03 -1.875393E+06 -6.876042E+02 -2.609670E+02
        27  26 -4.992036E+06 -7.028499E+05 -4.558896E+03 -1.875081E+06 -3.325780E+03 -1.254025E+03
        27  27 -4.992744E+06 -7.061956E+05 -8.704147E+03 -1.874713E+06 -5.966293E+03 -2.240986E+03
        28   1 -4.989673E+06 -7.015295E+05 -9.782807E+03 -1.874316E+06  7.703197E+03  2.885131E+03
        28   2 -4.985263E+06 -6.988763E+05 -1.750034E+04 -1.875310E+06  1.775748E+04  6.655659E+03
        28   3 -4.992395E+06 -7.162213E+05 -3.873890E+04 -1.868587E+06  2.780464E+04  1.044503E+04
        28   4 -4.996217E+06 -7.038904E+05 -1.157275E+04 -1.875968E+06  7.702824E+03  2.884993E+03
        28   5 -4.991522E+06 -7.012967E+05 -1.924478E+04 -1.877057E+06  1.775743E+04  6.655638E+03
        28   6 -4.998368E+06 -7.187016E+05 -4.043819E+04 -1.870429E+06  2.780492E+04  1.044512E+04
        28   7 -5.002761E+06 -7.062512E+05 -1.336271E+04 -1.877621E+06  7.702451E+03  2.884855E+03
        28   8 -4.997781E+06 -7.037172E+05 -2.098923E+04 -1.878805E+06  1.775738E+04  6.655617E+03
        28   9 -5.004341E+06 -7.211818E+05 -4.213749E+04 -1.872271E+06  2.780520E+04  1.044521E+04
        28  10 -4.989673E+06 -7.015295E+05 -9.782928E+03 -1.874316E+06 -5.020797E-05 -3.309374E-05
        28  11 -4.985264E+06 -6.988764E+05 -1.750103E+04 -1.875310E+06  3.146221E-05  2.757407E-05
        28  12 -4.992396E+06 -7.162217E+05 -3.874059E+04 -1.868587E+06  1.171173E-04  8.663051E-05
        28  13 -4.996217E+06 -7.038904E+05 -1.157288E+04 -1.875968E+06 -1.367184E-04 -3.145814E-05
        28  14 -4.991522E+06 -7.012969E+05 -1.924546E+04 -1.877058E+06  1.074415E-04  2.443188E-05
        28  15 -4.998369E+06 -7.187019E+05 -4.043986E+04 -1.870429E+06  3.515683E-04  8.033885E-05
        28  16 -5.002761E+06 -7.062512E+05 -1.336284E+04 -1.877621E+06 -4.356610E-05 -3.363775E-05
        28  17 -4.997781E+06 -7.037173E+05 -2.098990E+04 -1.878805E+06  4.190667E-05  2.547110E-05
        28  18 -5.004342E+06 -7.211821E+05 -4.213914E+04 -1.872272E+06  1.233222E-04  8.627115E-05
        28  19 -4.989673E+06 -7.015295E+05 -9.782793E+03 -1.874316E+06 -7.703197E+03 -2.885132E+03
        28  20 -4.985264E+06 -6.988763E+05 -1.750035E+04 -1.875310E+06 -1.775748E+04 -6.655659E+03
        28  21 -4.992395E+06 -7.162214E+05 -3.873893E+04 -1.868587E+06 -2.780464E+04 -1.044503E+04
        28  22 -4.996217E+06 -7.038904E+05 -1.157275E+04 -1.875968E+06 -7.702824E+03 -2.884993E+03
        28  23 -4.991522E+06 -7.012967E+05 -1.924478E+04 -1.877057E+06 -1.775743E+04 -6.655638E+03
        28  24 -4.998368E+06 -7.187016E+05 -4.043819E+04 -1.870429E+06 -2.780492E+04 -1.044512E+04
        28  25 -5.002761E+06 -7.062512E+05 -1.336272E+04 -1.877621E+06 -7.702451E+03 -2.884855E+03
        28  26 -4.997781E+06 -7.037171E+05 -2.098922E+04 -1.878805E+06 -1.775738E+04 -6.655617E+03
        28  27 -5.004341E+06 -7.211817E+05 -4.213745E+04 -1.872271E+06 -2.780520E+04 -1.044521E+04
        29   1 -5.019385E+06 -7.118226E+05 -5.546774E+04 -1.887222E+06  3.536388E+04  1.330840E+04
        29   2 -5.000387E+06 -6.856222E+05 -8.764598E+04 -1.882918E+06  7.957073E+04  2.991366E+04
        29   3 -5.033726E+06 -8.049843E+05 -1.911134E+05 -1.849597E+06  1.238067E+05  4.643802E+04
        29   4 -5.001399E+06 -7.042468E+05 -5.032944E+04 -1.881565E+06  3.536549E+04  1.330906E+04
        29   5 -4.982080E+06 -6.790258E+05 -8.264042E+04 -1.878303E+06  7.957183E+04  2.991402E+04
        29   6 -5.015097E+06 -7.993646E+05 -1.862386E+05 -1.846025E+06  1.238073E+05  4.643788E+04
        29   7 -4.983412E+06 -6.966709E+05 -4.519118E+04 -1.875907E+06  3.536710E+04  1.330972E+04
        29   8 -4.963772E+06 -6.724293E+05 -7.763490E+04 -1.873688E+06  7.957293E+04  2.991437E+04
        29   9 -4.996467E+06 -7.937450E+05 -1.813638E+05 -1.842452E+06  1.238079E+05  4.643775E+04
        29  10 -5.019386E+06 -7.118231E+05 -5.547047E+04 -1.887222E+06  1.299272E-04  9.221357E-05
        29  11 -5.000394E+06 -6.856249E+05 -8.765970E+04 -1.882920E+06  7.582866E-05  5.123415E-05
        29  12 -5.033743E+06 -8.049908E+05 -1.911466E+05 -1.849602E+06  1.874683E-05  1.147336E-05
        29  13 -5.001400E+06 -7.042473E+05 -5.033215E+04 -1.881565E+06  3.749820E-04  8.571525E-05
        29  14 -4.982087E+06 -6.790284E+05 -8.265413E+04 -1.878305E+06  2.113164E-04  4.830198E-05
        29  15 -5.015114E+06 -7.993711E+05 -1.862717E+05 -1.846029E+06  4.761700E-05  1.092096E-05
        29  16 -4.983413E+06 -6.966714E+05 -4.519386E+04 -1.875908E+06  1.265516E-04  9.212737E-05
        29  17 -4.963779E+06 -6.724320E+05 -7.764859E+04 -1.873690E+06  6.872465E-05  5.267099E-05
        29  18 -4.996485E+06 -7.937514E+05 -1.813969E+05 -1.842457E+06  1.382395E-05  1.202501E-05
        29  19 -5.019385E+06 -7.118226E+05 -5.546778E+04 -1.887222E+06 -3.536388E+04 -1.330840E+04
        29  20 -5.000387E+06 -6.856222E+05 -8.764600E+04 -1.882918E+06 -7.957073E+04 -2.991366E+04
        29  21 -5.033726E+06 -8.049843E+05 -1.911134E+05 -1.849597E+06 -1.238067E+05 -4.643802E+04
        29  22 -5.001399E+06 -7.042468E+05 -5.032944E+04 -1.881565E+06 -3.536549E+04 -1.330906E+04
        29  23 -4.982080E+06 -6.790258E+05 -8.264042E+04 -1.878303E+06 -7.957183E+04 -2.991402E+04
        29  24 -5.015097E+06 -7.993646E+05 -1.862386E+05 -1.846025E+06 -1.238073E+05 -4.643788E+04
        29  25 -4.983412E+06 -6.966709E+05 -4.519114E+04 -1.875908E+06 -3.536710E+04 -1.330972E+04
        29  26 -4.963772E+06 -6.724293E+05 -7.763487E+04 -1.873688E+06 -7.957293E+04 -2.991437E+04
        29  27 -4.996467E+06 -7.937449E+05 -1.813638E+05 -1.842452E+06 -1.238079E+05 -4.643775E+04
        30   1 -4.991662E+06 -6.732785E+05 -2.106438E+05 -1.887530E+06  1.582582E+05  5.932441E+04
        30   2 -4.853924E+06 -5.363953E+05 -3.392089E+05 -1.894073E+06  3.540957E+05  1.330748E+05
        30   3 -5.092553E+06 -1.269468E+06 -8.573793E+05 -1.648936E+06  5.497842E+05  2.072570E+05
        30   4 -5.048388E+06 -6.900406E+05 -2.254170E+05 -1.898053E+06  1.582478E+05  5.932206E+04
        30   5 -4.904040E+06 -5.577919E+05 -3.535834E+05 -1.910132E+06  3.540800E+05  1.330672E+05
        30   6 -5.136086E+06 -1.295542E+06 -8.713752E+05 -1.670522E+06  5.497654E+05  2.072393E+05
        30   7 -5.105110E+06 -7.068028E+05 -2.401903E+05 -1.908575E+06  1.582375E+05  5.931971E+04
        30   8 -4.954154E+06 -5.791883E+05 -3.679582E+05 -1.926189E+06  3.540643E+05  1.330596E+05
        30   9 -5.179617E+06 -1.321615E+06 -8.853713E+05 -1.692106E+06  5.497467E+05  2.072216E+05
        30  10 -4.991690E+06 -6.732891E+05 -2.106980E+05 -1.887537E+06  3.942206E-07 -1.261550E-07
        30  11 -4.854064E+06 -5.364485E+05 -3.394803E+05 -1.894111E+06 -8.683269E-08  4.123487E-08
        30  12 -5.092892E+06 -1.269597E+06 -8.580340E+05 -1.649028E+06 -9.423838E-08  3.609454E-08
        30  13 -5.048416E+06 -6.900512E+05 -2.254711E+05 -1.898060E+06 -1.842751E-08  3.731087E-08
        30  14 -4.904180E+06 -5.578451E+05 -3.538548E+05 -1.910170E+06 -4.236747E-10  6.408221E-09
        30  15 -5.136425E+06 -1.295671E+06 -8.720299E+05 -1.670614E+06 -4.391195E-09 -4.335583E-10
        30  16 -5.105138E+06 -7.068134E+05 -2.402445E+05 -1.908582E+06 -4.282641E-07  2.058473E-07
        30  17 -4.954294E+06 -5.792415E+05 -3.682296E+05 -1.926227E+06  7.945277E-08 -2.636039E-08
        30  18 -5.179955E+06 -1.321744E+06 -8.860260E+05 -1.692198E+06  9.325296E-08 -3.573695E-08
        30  19 -4.991662E+06 -6.732785E+05 -2.106438E+05 -1.887530E+06 -1.582582E+05 -5.932441E+04
        30  20 -4.853924E+06 -5.363953E+05 -3.392089E+05 -1.894073E+06 -3.540957E+05 -1.330748E+05
        30  21 -5.092553E+06 -1.269468E+06 -8.573793E+05 -1.648936E+06 -5.497842E+05 -2.072570E+05
        30  22 -5.048388E+06 -6.900406E+05 -2.254170E+05 -1.898053E+06 -1.582478E+05 -5.932206E+04
        30  23 -4.904040E+06 -5.577919E+05 -3.535834E+05 -1.910132E+06 -3.540800E+05 -1.330672E+05
        30  24 -5.136086E+06 -1.295542E+06 -8.713752E+05 -1.670522E+06 -5.497654E+05 -2.072393E+05
        30  25 -5.105110E+06 -7.068028E+05 -2.401903E+05 -1.908575E+06 -1.582375E+05 -5.931971E+04
        30  26 -4.954154E+06 -5.791883E+05 -3.679582E+05 -1.926189E+06 -3.540643E+05 -1.330596E+05
        30  27 -5.179617E+06 -1.321615E+06 -8.853713E+05 -1.692106E+06 -5.497467E+05 -2.072216E+05
        31   1 -2.306526E+06 -1.333962E+05 -1.746959E+05 -2.236621E+03 -1.190131E+05  4.302813E-01
        31   2 -2.279537E+06  3.228573E+04 -7.436404E+04 -5.604482E+02 -7.832239E+04  7.095392E-02
        31   3 -2.306369E+06  4.122325E+03 -4.905162E+04  1.115784E+03 -3.763218E+04 -6.787533E-02
        31   4 -2.306526E+06 -1.333963E+05 -1.746959E+05  2.477689E-07 -1.190131E+05  3.224789E-09
        31   5 -2.279537E+06  3.228573E+04 -7.436404E+04 -2.225066E-07 -7.832239E+04 -3.144569E-09
        31   6 -2.306369E+06  4.122322E+03 -4.905162E+04  4.778982E-07 -3.763218E+04 -1.357461E-09
        31   7 -2.306526E+06 -1.333962E+05 -1.746959E+05  2.236621E+03 -1.190131E+05 -4.302812E-01
        31   8 -2.279537E+06  3.228573E+04 -7.436404E+04  5.604482E+02 -7.832239E+04 -7.095393E-02
        31   9 -2.306369E+06  4.122325E+03 -4.905162E+04 -1.115784E+03 -3.763218E+04  6.787533E-02
        31  10 -2.306541E+06 -1.334001E+05 -1.747226E+05 -2.236621E+03  3.359616E-11 -2.130631E-09
        31  11 -2.279544E+06  3.228408E+04 -7.437561E+04 -5.604482E+02 -5.874080E-10 -4.282261E-09
        31  12 -2.306371E+06  4.121943E+03 -4.905429E+04  1.115784E+03  1.070680E-09 -1.710675E-09
        31  13 -2.306541E+06 -1.334001E+05 -1.747226E+05  3.854880E-07  4.303516E-09 -1.077047E-09
        31  14 -2.279544E+06  3.228408E+04 -7.437561E+04 -1.536401E-07  1.231739E-09 -2.695985E-09
        31  15 -2.306371E+06  4.121940E+03 -4.905429E+04 -8.649458E-07  4.538168E-09 -1.279884E-09
        31  16 -2.306541E+06 -1.334001E+05 -1.747226E+05  2.236621E+03 -7.559053E-11 -4.336209E-09
        31  17 -2.279544E+06  3.228408E+04 -7.437561E+04  5.604482E+02  5.814835E-09 -6.497043E-09
        31  18 -2.306371E+06  4.121943E+03 -4.905429E+04 -1.115784E+03  2.229185E-09  2.249575E-09
        31  19 -2.306526E+06 -1.333962E+05 -1.746959E+05 -2.236621E+03  1.190131E+05 -4.302812E-01
        31  20 -2.279537E+06  3.228573E+04 -7.436404E+04 -5.604482E+02  7.832239E+04 -7.095386E-02
        31  21 -2.306369E+06  4.122325E+03 -4.905162E+04  1.115784E+03  3.763218E+04  6.787535E-02
        31  22 -2.306526E+06 -1.333963E+05 -1.746959E+05  1.100468E-07  1.190131E+05 -3.843657E-09
        31  23 -2.279537E+06  3.228573E+04 -7.436404E+04  5.296053E-08  7.832239E+04 -1.420410E-09
        31  24 -2.306369E+06  4.122322E+03 -4.905162E+04  4.951158E-07  3.763218E+04  6.862030E-10
        31  25 -2.306526E+06 -1.333962E+05 -1.746959E+05  2.236621E+03  1.190131E+05  4.302812E-01
        31  26 -2.279537E+06  3.228573E+04 -7.436404E+04  5.604482E+02  7.832239E+04  7.095388E-02
        31  27 -2.306369E+06  4.122325E+03 -4.905162E+04 -1.115784E+03  3.763218E+04 -6.787534E-02
        32   1 -2.296439E+06 -2.095374E+04 -4.064463E+04 -3.368410E+02 -2.948248E+04  1.605295E-02
        32   2 -2.291949E+06  5.076102E+03 -1.924062E+04 -7.911820E+01 -1.936084E+04  2.476085E-03
        32   3 -2.296408E+06  6.287586E+02 -1.206315E+04  1.786011E+02 -9.239314E+03 -2.667410E-03
        32   4 -2.296439E+06 -2.095374E+04 -4.064463E+04  9.478790E-08 -2.948248E+04 -2.502245E-09
        32   5 -2.291949E+06  5.076102E+03 -1.924062E+04  2.714875E-07 -1.936084E+04 -6.470918E-12
        32   6 -2.296408E+06  6.287585E+02 -1.206315E+04  7.924997E-07 -9.239314E+03 -1.631241E-09
        32   7 -2.296439E+06 -2.095374E+04 -4.064463E+04  3.368410E+02 -2.948248E+04 -1.605295E-02
        32   8 -2.291949E+06  5.076102E+03 -1.924062E+04  7.911821E+01 -1.936084E+04 -2.476108E-03
        32   9 -2.296408E+06  6.287586E+02 -1.206315E+04 -1.786011E+02 -9.239314E+03  2.667412E-03
        32  10 -2.296440E+06 -2.095398E+04 -4.064627E+04 -3.368410E+02  2.442814E-09 -2.240094E-09
        32  11 -2.291949E+06  5.076001E+03 -1.924133E+04 -7.911820E+01 -1.696748E-09 -6.429156E-09
        32  12 -2.296408E+06  6.287356E+02 -1.206331E+04  1.786011E+02 -4.280519E-10  3.758683E-09
        32  13 -2.296440E+06 -2.095398E+04 -4.064627E+04 -5.938370E-07  6.455705E-09 -8.713594E-14
        32  14 -2.291949E+06  5.076001E+03 -1.924133E+04  6.846688E-07 -1.325511E-24 -1.332198E-09
        32  15 -2.296408E+06  6.287355E+02 -1.206331E+04  9.302270E-07 -6.258297E-10  7.880497E-11
        32  16 -2.296440E+06 -2.095398E+04 -4.064627E+04  3.368410E+02 -3.616516E-09  8.437540E-11
        32  17 -2.291949E+06  5.076001E+03 -1.924133E+04  7.911821E+01  4.055598E-09 -3.901633E-11
        32  18 -2.296408E+06  6.287356E+02 -1.206331E+04 -1.786011E+02 -5.508339E-10  3.247747E-09
        32  19 -2.296439E+06 -2.095374E+04 -4.064463E+04 -3.368410E+02  2.948248E+04 -1.605292E-02
        32  20 -2.291949E+06  5.076102E+03 -1.924062E+04 -7.911820E+01  1.936084E+04 -2.476071E-03
        32  21 -2.296408E+06  6.287586E+02 -1.206315E+04  1.786011E+02  9.239314E+03  2.667414E-03
        32  22 -2.296439E+06 -2.095374E+04 -4.064463E+04 -4.293806E-08  2.948248E+04  2.903192E-09
        32  23 -2.291949E+06  5.076102E+03 -1.924062E+04  6.846684E-07  1.936084E+04  1.260146E-11
        32  24 -2.296408E+06  6.287585E+02 -1.206315E+04  4.137560E-07  9.239314E+03  2.793929E-10
        32  25 -2.296439E+06 -2.095374E+04 -4.064463E+04  3.368410E+02  2.948248E+04  1.605293E-02
        32  26 -2.291949E+06  5.076102E+03 -1.924062E+04  7.911821E+01  1.936084E+04  2.476077E-03
        32  27 -2.296408E+06  6.287586E+02 -1.206315E+04 -1.786011E+02  9.239314E+03 -2.667417E-03
        33   1 -2.294766E+06 -3.275040E+03 -9.705127E+03 -4.918533E+01 -7.264639E+03  5.775941E-04
        33   2 -2.293997E+06  7.981395E+02 -4.986423E+03 -1.017667E+01 -4.705498E+03  7.741556E-05
        33   3 -2.294760E+06  7.939747E+01 -3.136442E+03  2.883255E+01 -2.146313E+03 -1.000310E-04
        33   4 -2.294766E+06 -3.275040E+03 -9.705127E+03  1.053083E-07 -7.264639E+03  1.152548E-09
        33   5 -2.293997E+06  7.981395E+02 -4.986423E+03 -2.349518E-07 -4.705498E+03  1.887382E-09
        33   6 -2.294760E+06  7.939747E+01 -3.136442E+03  1.284086E-06 -2.146313E+03 -5.470855E-09
        33   7 -2.294766E+06 -3.275040E+03 -9.705127E+03  4.918534E+01 -7.264639E+03 -5.775893E-04
        33   8 -2.293997E+06  7.981395E+02 -4.986423E+03  1.017667E+01 -4.705498E+03 -7.742419E-05
        33   9 -2.294760E+06  7.939747E+01 -3.136442E+03 -2.883255E+01 -2.146313E+03  1.000190E-04
        33  10 -2.294766E+06 -3.275054E+03 -9.705226E+03 -4.918534E+01  7.201666E-10 -4.267579E-11
        33  11 -2.293997E+06  7.981335E+02 -4.986465E+03 -1.017667E+01  2.689933E-09  7.553935E-12
        33  12 -2.294760E+06  7.939623E+01 -3.136450E+03  2.883255E+01  2.520935E-09 -3.204132E-09
        33  13 -2.294766E+06 -3.275054E+03 -9.705226E+03 -4.455944E-07 -4.203104E-09  5.389203E-10
        33  14 -2.293997E+06  7.981335E+02 -4.986465E+03  2.470871E-07 -4.145962E-10  4.622203E-10
        33  15 -2.294760E+06  7.939623E+01 -3.136450E+03 -1.275973E-07 -2.863644E-09 -1.922808E-10
        33  16 -2.294766E+06 -3.275054E+03 -9.705226E+03  4.918534E+01 -2.067959E-09  4.354376E-09
        33  17 -2.293997E+06  7.981335E+02 -4.986465E+03  1.017667E+01 -1.821258E-09 -7.943957E-12
        33  18 -2.294760E+06  7.939623E+01 -3.136450E+03 -2.883255E+01  9.245220E-10 -2.991792E-11
        33  19 -2.294766E+06 -3.275040E+03 -9.705127E+03 -4.918534E+01  7.264639E+03 -5.775845E-04
        33  20 -2.293997E+06  7.981395E+02 -4.986423E+03 -1.017667E+01  4.705498E+03 -7.739777E-05
        33  21 -2.294760E+06  7.939747E+01 -3.136442E+03  2.883255E+01  2.146313E+03  1.000365E-04
        33  22 -2.294766E+06 -3.275040E+03 -9.705127E+03 -7.210451E-07  7.264639E+03 -1.947986E-09
        33  23 -2.293997E+06  7.981395E+02 -4.986423E+03 -3.726775E-07  4.705498E+03 -2.157792E-09
        33  24 -2.294760E+06  7.939747E+01 -3.136442E+03  6.126769E-07  2.146313E+03  4.987687E-09
        33  25 -2.294766E+06 -3.275040E+03 -9.705127E+03  4.918534E+01  7.264639E+03  5.775802E-04
        33  26 -2.293997E+06  7.981395E+02 -4.986423E+03  1.017667E+01  4.705498E+03  7.739776E-05
        33  27 -2.294760E+06  7.939747E+01 -3.136442E+03 -2.883255E+01  2.146313E+03 -1.000295E-04
        34   1 -2.294494E+06 -5.056056E+02 -2.557243E+03 -7.683804E+00 -1.630490E+03  2.025341E-05
        34   2 -2.294328E+06  1.479978E+02 -1.629397E+03 -9.941708E-01 -8.081723E+02  1.301440E-06
        34   3 -2.294493E+06 -8.692091E+01 -1.460532E+03  5.695459E+00  1.414591E+01  1.359483E-07
        34   4 -2.294494E+06 -5.056056E+02 -2.557243E+03  4.644608E-08 -1.630490E+03 -2.233077E-09
        34   5 -2.294328E+06  1.479978E+02 -1.629397E+03  8.844038E-07 -8.081723E+02  4.755500E-09
        34   6 -2.294493E+06 -8.692091E+01 -1.460532E+03  1.240323E-06  1.414591E+01 -6.596476E-10
        34   7 -2.294494E+06 -5.056056E+02 -2.557243E+03  7.683805E+00 -1.630490E+03 -2.025479E-05
        34   8 -2.294328E+06  1.479978E+02 -1.629397E+03  9.941755E-01 -8.081723E+02 -1.300392E-06
        34   9 -2.294493E+06 -8.692091E+01 -1.460532E+03 -5.695458E+00  1.414591E+01 -1.298362E-07
        34  10 -2.294494E+06 -5.056063E+02 -2.557248E+03 -7.683806E+00  1.443721E-09  4.625821E-09
        34  11 -2.294328E+06  1.479977E+02 -1.629399E+03 -9.941727E-01  2.004325E-09 -8.487831E-10
        34  12 -2.294493E+06 -8.692091E+01 -1.460532E+03  5.695459E+00  5.810905E-09  1.254207E-09
        34  13 -2.294494E+06 -5.056063E+02 -2.557248E+03  1.841711E-07  3.115835E-09 -2.424286E-10
        34  14 -2.294328E+06  1.479977E+02 -1.629399E+03  8.155415E-07 -4.147555E-10  2.378437E-10
        34  15 -2.294493E+06 -8.692091E+01 -1.460532E+03  1.385216E-07  4.662540E-09  1.921733E-09
        34  16 -2.294494E+06 -5.056063E+02 -2.557248E+03  7.683805E+00 -3.991052E-09  4.591189E-09
        34  17 -2.294328E+06  1.479977E+02 -1.629399E+03  9.941747E-01 -2.250791E-09  5.636462E-09
        34  18 -2.294493E+06 -8.692091E+01 -1.460532E+03 -5.695457E+00 -2.867392E-09  2.877230E-09
        34  19 -2.294494E+06 -5.056056E+02 -2.557243E+03 -7.683805E+00  1.630490E+03 -2.024289E-05
        34  20 -2.294328E+06  1.479978E+02 -1.629397E+03 -9.941737E-01  8.081723E+02 -1.285316E-06
        34  21 -2.294493E+06 -8.692091E+01 -1.460532E+03  5.695462E+00 -1.414591E+01 -1.293036E-07
        34  22 -2.294494E+06 -5.056056E+02 -2.557243E+03  4.644496E-08  1.630490E+03  1.177895E-09
        34  23 -2.294328E+06  1.479978E+02 -1.629397E+03  2.646401E-07  8.081723E+02 -4.260517E-09
        34  24 -2.294493E+06 -8.692091E+01 -1.460532E+03  5.516980E-07 -1.414591E+01  4.469246E-09
        34  25 -2.294494E+06 -5.056056E+02 -2.557243E+03  7.683806E+00  1.630490E+03  2.025607E-05
        34  26 -2.294328E+06  1.479978E+02 -1.629397E+03  9.941734E-01  8.081723E+02  1.290681E-06
        34  27 -2.294493E+06 -8.692091E+01 -1.460532E+03 -5.695461E+00 -1.414591E+01  1.279375E-07
        35   1 -2.294507E+06 -6.018410E+01 -1.508569E+03 -6.829664E+00  2.829535E+02 -3.121111E-06
        35   2 -2.294311E+06  1.785777E+02 -1.899413E+03  1.293665E+00  1.242294E+03  2.588105E-06
        35   3 -2.294508E+06 -6.547715E+02 -3.184588E+03  9.416879E+00  2.201620E+03  3.353064E-05
        35   4 -2.294507E+06 -6.018410E+01 -1.508569E+03  5.793485E-07  2.829535E+02 -7.278114E-11
        35   5 -2.294311E+06  1.785777E+02 -1.899413E+03  2.110089E-07  1.242294E+03  5.095246E-09
        35   6 -2.294508E+06 -6.547715E+02 -3.184588E+03 -2.606222E-07  2.201620E+03  5.730024E-09
        35   7 -2.294507E+06 -6.018410E+01 -1.508569E+03  6.829664E+00  2.829535E+02  3.122678E-06
        35   8 -2.294311E+06  1.785777E+02 -1.899413E+03 -1.293663E+00  1.242294E+03 -2.590311E-06
        35   9 -2.294508E+06 -6.547715E+02 -3.184588E+03 -9.416880E+00  2.201620E+03 -3.352254E-05
        35  10 -2.294507E+06 -6.018412E+01 -1.508569E+03 -6.829667E+00  5.713231E-09 -5.991734E-09
        35  11 -2.294311E+06  1.785773E+02 -1.899416E+03  1.293666E+00  7.453599E-10  4.782804E-09
        35  12 -2.294508E+06 -6.547728E+02 -3.184597E+03  9.416879E+00 -2.396476E-09  5.331740E-09
        35  13 -2.294507E+06 -6.018412E+01 -1.508569E+03  1.661720E-07  7.959004E-10  2.631708E-09
        35  14 -2.294311E+06  1.785773E+02 -1.899416E+03  6.930477E-07  9.437297E-09  2.631756E-09
        35  15 -2.294508E+06 -6.547728E+02 -3.184597E+03  1.482909E-08  9.413234E-10  2.631899E-09
        35  16 -2.294507E+06 -6.018412E+01 -1.508569E+03  6.829665E+00 -2.241700E-10  2.631578E-09
        35  17 -2.294311E+06  1.785773E+02 -1.899416E+03 -1.293665E+00  4.511277E-09  2.636538E-09
        35  18 -2.294508E+06 -6.547728E+02 -3.184597E+03 -9.416881E+00  6.590560E-10  3.704864E-09
        35  19 -2.294507E+06 -6.018410E+01 -1.508569E+03 -6.829664E+00 -2.829535E+02  3.142082E-06
        35  20 -2.294311E+06  1.785777E+02 -1.899413E+03  1.293669E+00 -1.242294E+03 -2.575234E-06
        35  21 -2.294508E+06 -6.547715E+02 -3.184588E+03  9.416882E+00 -2.201620E+03 -3.351802E-05
        35  22 -2.294507E+06 -6.018410E+01 -1.508569E+03  2.844664E-08 -2.829535E+02  5.441714E-09
        35  23 -2.294311E+06  1.785777E+02 -1.899413E+03  1.519400E-06 -1.242294E+03 -3.260771E-09
        35  24 -2.294508E+06 -6.547715E+02 -3.184588E+03  2.730654E-07 -2.201620E+03 -5.001348E-10
        35  25 -2.294507E+06 -6.018410E+01 -1.508569E+03  6.829664E+00 -2.829535E+02 -3.135664E-06
        35  26 -2.294311E+06  1.785777E+02 -1.899413E+03 -1.293666E+00 -1.242294E+03  2.590273E-06
        35  27 -2.294508E+06 -6.547715E+02 -3.184588E+03 -9.416881E+00 -2.201620E+03  3.349803E-05
        36   1 -2.294859E+06  1.104508E+02 -3.961348E+03 -3.722882E+01  2.849079E+03 -1.714555E-04
        36   2 -2.293875E+06  1.029758E+03 -6.394012E+03  1.313147E+01  6.131410E+03  1.301544E-04
        36   3 -2.294867E+06 -4.233524E+03 -1.251512E+04  6.349256E+01  9.413780E+03  9.661889E-04
        36   4 -2.294859E+06  1.104508E+02 -3.961348E+03  2.275207E-07  2.849079E+03  1.474859E-09
        36   5 -2.293875E+06  1.029758E+03 -6.394012E+03 -2.687958E-07  6.131410E+03  3.229700E-10
        36   6 -2.294867E+06 -4.233524E+03 -1.251512E+04  2.850391E-07  9.413780E+03  5.301465E-10
        36   7 -2.294859E+06  1.104508E+02 -3.961348E+03  3.722882E+01  2.849079E+03  1.714597E-04
        36   8 -2.293875E+06  1.029758E+03 -6.394012E+03 -1.313147E+01  6.131410E+03 -1.301571E-04
        36   9 -2.294867E+06 -4.233524E+03 -1.251512E+04 -6.349256E+01  9.413780E+03 -9.661783E-04
        36  10 -2.294859E+06  1.104486E+02 -3.961363E+03 -3.722883E+01  1.874131E-09 -1.664359E-09
        36  11 -2.293875E+06  1.029748E+03 -6.394083E+03  1.313147E+01 -2.036887E-09  2.645408E-09
        36  12 -2.294867E+06 -4.233548E+03 -1.251528E+04  6.349256E+01  2.590361E-09 -4.932651E-09
        36  13 -2.294859E+06  1.104486E+02 -3.961363E+03 -1.856551E-07 -3.014599E-09  1.554010E-09
        36  14 -2.293875E+06  1.029748E+03 -6.394083E+03  6.655283E-09 -1.676209E-10 -2.487240E-09
        36  15 -2.294867E+06 -4.233548E+03 -1.251528E+04 -4.208045E-07  4.278596E-09  9.473218E-10
        36  16 -2.294859E+06  1.104486E+02 -3.961363E+03  3.722882E+01  1.465308E-09  2.616303E-09
        36  17 -2.293875E+06  1.029748E+03 -6.394083E+03 -1.313147E+01 -1.574314E-09  2.618555E-09
        36  18 -2.294867E+06 -4.233548E+03 -1.251528E+04 -6.349256E+01  2.187701E-10  6.423598E-09
        36  19 -2.294859E+06  1.104508E+02 -3.961348E+03 -3.722883E+01 -2.849079E+03  1.714560E-04
        36  20 -2.293875E+06  1.029758E+03 -6.394012E+03  1.313147E+01 -6.131410E+03 -1.301345E-04
        36  21 -2.294867E+06 -4.233524E+03 -1.251512E+04  6.349256E+01 -9.413780E+03 -9.661466E-04
        36  22 -2.294859E+06  1.104508E+02 -3.961348E+03  7.784226E-07 -2.849079E+03  1.304477E-09
        36  23 -2.293875E+06  1.029758E+03 -6.394012E+03  2.821065E-07 -6.131410E+03 -2.802500E-09
        36  24 -2.294867E+06 -4.233524E+03 -1.251512E+04 -2.314317E-07 -9.413780E+03  1.307194E-09
        36  25 -2.294859E+06  1.104508E+02 -3.961348E+03  3.722883E+01 -2.849079E+03 -1.714582E-04
        36  26 -2.293875E+06  1.029758E+03 -6.394012E+03 -1.313147E+01 -6.131410E+03  1.301366E-04
        36  27 -2.294867E+06 -4.233524E+03 -1.251512E+04 -6.349256E+01 -9.413780E+03  9.661524E-04
        37   1 -2.296990E+06  8.138230E+02 -1.557016E+04 -2.308675E+02  1.196133E+04 -4.463844E-03
        37   2 -2.291227E+06  6.561200E+03 -2.485770E+04  1.022579E+02  2.503851E+04  4.138723E-03
        37   3 -2.297029E+06 -2.708493E+04 -5.253021E+04  4.353827E+02  3.811562E+04  2.682499E-02
        37   4 -2.296990E+06  8.138229E+02 -1.557016E+04  3.623187E-07  1.196133E+04 -1.203203E-09
        37   5 -2.291227E+06  6.561200E+03 -2.485770E+04 -1.140113E-06  2.503851E+04  5.079712E-10
        37   6 -2.297029E+06 -2.708493E+04 -5.253021E+04  2.152956E-07  3.811562E+04 -5.482562E-09
        37   7 -2.296990E+06  8.138230E+02 -1.557016E+04  2.308675E+02  1.196133E+04  4.463842E-03
        37   8 -2.291227E+06  6.561200E+03 -2.485770E+04 -1.022579E+02  2.503851E+04 -4.138756E-03
        37   9 -2.297029E+06 -2.708493E+04 -5.253021E+04 -4.353827E+02  3.811562E+04 -2.682498E-02
        37  10 -2.296990E+06  8.137845E+02 -1.557043E+04 -2.308675E+02 -1.431555E-09  2.310291E-09
        37  11 -2.291227E+06  6.561031E+03 -2.485888E+04  1.022579E+02 -3.874247E-09 -8.431203E-10
        37  12 -2.297031E+06 -2.708532E+04 -5.253295E+04  4.353827E+02 -2.739965E-10 -2.376641E-10
        37  13 -2.296990E+06  8.137844E+02 -1.557043E+04 -1.885858E-07 -2.185519E-09  1.257239E-09
        37  14 -2.291227E+06  6.561031E+03 -2.485888E+04  9.943395E-08 -3.641441E-09  2.378634E-10
        37  15 -2.297031E+06 -2.708532E+04 -5.253295E+04  8.350589E-07  8.481502E-10 -1.129612E-10
        37  16 -2.296990E+06  8.137845E+02 -1.557043E+04  2.308675E+02 -4.741825E-09  2.360182E-09
        37  17 -2.291227E+06  6.561031E+03 -2.485888E+04 -1.022579E+02  2.789894E-09  1.318759E-09
        37  18 -2.297031E+06 -2.708532E+04 -5.253295E+04 -4.353827E+02  1.210110E-11  1.369259E-09
        37  19 -2.296990E+06  8.138230E+02 -1.557016E+04 -2.308675E+02 -1.196133E+04  4.463853E-03
        37  20 -2.291227E+06  6.561200E+03 -2.485770E+04  1.022579E+02 -2.503851E+04 -4.138753E-03
        37  21 -2.297029E+06 -2.708493E+04 -5.253021E+04  4.353827E+02 -3.811562E+04 -2.682497E-02
        37  22 -2.296990E+06  8.138229E+02 -1.557016E+04  2.245913E-07 -1.196133E+04  3.583512E-09
        37  23 -2.291227E+06  6.561200E+03 -2.485770E+04  3.748886E-07 -2.503851E+04  5.138351E-10
        37  24 -2.297029E+06 -2.708493E+04 -5.253021E+04  3.530223E-07 -3.811562E+04  5.167951E-09
        37  25 -2.296990E+06  8.138230E+02 -1.557016E+04  2.308675E+02 -1.196133E+04 -4.463868E-03
        37  26 -2.291227E+06  6.561200E+03 -2.485770E+04 -1.022579E+02 -2.503851E+04  4.138745E-03
        37  27 -2.297029E+06 -2.708493E+04 -5.253021E+04 -4.353827E+02 -3.811562E+04  2.682497E-02
        38   1 -2.309866E+06  5.329060E+03 -6.339842E+04 -1.442301E+03  4.864832E+04 -1.134223E-01
        38   2 -2.275181E+06  4.173351E+04 -9.611605E+04  7.244619E+02  1.012447E+05  1.185602E-01
        38   3 -2.310067E+06 -1.724299E+05 -2.258023E+05  2.891094E+03  1.538412E+05  7.189513E-01
        38   4 -2.309866E+06  5.329056E+03 -6.339842E+04  5.872005E-08  4.864832E+04 -2.117095E-09
        38   5 -2.275181E+06  4.173351E+04 -9.611605E+04 -4.646745E-07  1.012447E+05  3.427185E-09
        38   6 -2.310067E+06 -1.724299E+05 -2.258024E+05  2.514857E-07  1.538412E+05 -4.235916E-09
        38   7 -2.309866E+06  5.329060E+03 -6.339842E+04  1.442301E+03  4.864832E+04  1.134223E-01
        38   8 -2.275181E+06  4.173351E+04 -9.611605E+04 -7.244619E+02  1.012447E+05 -1.185602E-01
        38   9 -2.310067E+06 -1.724299E+05 -2.258023E+05 -2.891094E+03  1.538412E+05 -7.189513E-01
        38  10 -2.309869E+06  5.328421E+03 -6.340288E+04 -1.442301E+03  1.527260E-09 -4.310866E-09
        38  11 -2.275192E+06  4.173074E+04 -9.613539E+04  7.244619E+02 -2.485040E-09  6.460391E-09
        38  12 -2.310092E+06 -1.724363E+05 -2.258470E+05  2.891094E+03 -5.482186E-11  1.075316E-09
        38  13 -2.309869E+06  5.328417E+03 -6.340288E+04 -2.167366E-07 -5.480136E-10 -7.830741E-15
        38  14 -2.275192E+06  4.173074E+04 -9.613539E+04 -1.892024E-07  2.151770E-09  4.854102E-10
        38  15 -2.310092E+06 -1.724363E+05 -2.258470E+05 -8.158254E-07  1.618211E-09 -9.441399E-11
        38  16 -2.309869E+06  5.328421E+03 -6.340288E+04  1.442301E+03 -4.278462E-09 -3.339017E-13
        38  17 -2.275192E+06  4.173074E+04 -9.613539E+04 -7.244619E+02  4.174934E-09  7.503690E-12
        38  18 -2.310092E+06 -1.724363E+05 -2.258470E+05 -2.891094E+03 -1.899893E-09 -8.067820E-10
        38  19 -2.309866E+06  5.329060E+03 -6.339842E+04 -1.442301E+03 -4.864832E+04  1.134223E-01
        38  20 -2.275181E+06  4.173351E+04 -9.611605E+04  7.244619E+02 -1.012447E+05 -1.185603E-01
        38  21 -2.310067E+06 -1.724299E+05 -2.258023E+05  2.891094E+03 -1.538412E+05 -7.189513E-01
        38  22 -2.309866E+06  5.329056E+03 -6.339842E+04 -7.900796E-08 -4.864832E+04  3.469818E-09
        38  23 -2.275181E+06  4.173351E+04 -9.611605E+04  8.627034E-08 -1.012447E+05 -4.280892E-09
        38  24 -2.310067E+06 -1.724299E+05 -2.258024E+05  5.269214E-07 -1.538412E+05  4.013205E-09
        38  25 -2.309866E+06  5.329060E+03 -6.339842E+04  1.442301E+03 -4.864832E+04 -1.134223E-01
        38  26 -2.275181E+06  4.173351E+04 -9.611605E+04 -7.244619E+02 -1.012447E+05  1.185603E-01
        38  27 -2.310067E+06 -1.724299E+05 -2.258023E+05 -2.891094E+03 -1.538412E+05  7.189513E-01
        39   1 -2.164198E+05 -2.306016E+06 -2.126094E+05  1.571635E+05 -7.682806E+03 -6.237478E+03
        39   2 -1.469501E+05 -2.002847E+06 -1.369636E+05  4.558505E+04 -1.925754E+04  3.183847E+03
        39   3 -7.084140E+04 -1.699058E+06 -6.579942E+04  1.601500E+05 -7.878045E+03  1.259405E+04
        39   4  6.598881E+03 -1.413815E+06  8.391206E+03  1.595200E+05 -7.677234E+03  5.356210E+03
        39   5 -9.802260E+02 -1.415053E+06  3.949334E+03  4.645667E+04 -1.925628E+04  3.238828E+03
        39   6  8.967537E+01 -1.413752E+06  3.061268E+03  1.595226E+05 -7.890816E+03  1.105563E+03
        39   7  2.295579E+05 -5.208882E+05  2.293329E+05  1.618798E+05 -7.671580E+03  1.696659E+04
        39   8  1.449645E+05 -8.269419E+05  1.448377E+05  4.732906E+04 -1.925503E+04  3.293860E+03
        39   9  7.101486E+04 -1.128372E+06  7.191662E+04  1.588949E+05 -7.903561E+03 -1.038820E+04
        39  10 -2.164199E+05 -2.306016E+06 -2.126096E+05  1.571635E+05 -1.334289E-10 -3.567579E-10
        39  11 -1.469505E+05 -2.002847E+06 -1.369643E+05  4.558510E+04  3.072126E-09  8.784166E-10
        39  12 -7.084151E+04 -1.699058E+06 -6.579983E+04  1.601501E+05  1.181806E-09 -6.083631E-10
        39  13  6.598810E+03 -1.413815E+06  8.391041E+03  1.595201E+05 -2.979380E-10 -2.075336E-11
        39  14 -9.806267E+02 -1.415054E+06  3.948618E+03  4.645672E+04 -8.252323E-09  6.603995E-10
        39  15  8.960822E+01 -1.413752E+06  3.061149E+03  1.595226E+05 -2.928518E-09 -2.869009E-10
        39  16  2.295578E+05 -5.208885E+05  2.293323E+05  1.618799E+05  1.890737E-09  4.679333E-10
        39  17  1.449641E+05 -8.269420E+05  1.448370E+05  4.732911E+04 -5.038255E-09 -1.258161E-10
        39  18  7.101477E+04 -1.128372E+06  7.191630E+04  1.588949E+05 -3.492206E-09  8.254149E-10
        39  19 -2.164198E+05 -2.306016E+06 -2.126094E+05  1.571635E+05  7.682806E+03  6.237478E+03
        39  20 -1.469501E+05 -2.002847E+06 -1.369636E+05  4.558505E+04  1.925754E+04 -3.183847E+03
        39  21 -7.084140E+04 -1.699058E+06 -6.579942E+04  1.601500E+05  7.878045E+03 -1.259405E+04
        39  22  6.598881E+03 -1.413815E+06  8.391206E+03  1.595200E+05  7.677234E+03 -5.356210E+03
        39  23 -9.802260E+02 -1.415053E+06  3.949334E+03  4.645667E+04  1.925628E+04 -3.238828E+03
        39  24  8.967537E+01 -1.413752E+06  3.061268E+03  1.595226E+05  7.890816E+03 -1.105563E+03
        39  25  2.295579E+05 -5.208882E+05  2.293329E+05  1.618798E+05  7.671580E+03 -1.696659E+04
        39  26  1.449645E+05 -8.269419E+05  1.448377E+05  4.732906E+04  1.925503E+04 -3.293860E+03
        39  27  7.101486E+04 -1.128372E+06  7.191662E+04  1.588949E+05  7.903561E+03  1.038820E+04
        40   1  3.220524E+04 -1.288521E+06  3.332441E+04  1.594992E+05  3.053132E+03  6.211748E+03
        40   2  1.064113E+05 -9.849582E+05  1.057104E+05  4.647765E+04  1.357750E+04  4.164139E+03
        40   3  1.832618E+05 -6.805352E+05  1.800379E+05  1.604288E+05  2.273676E+04  2.126286E+03
        40   4  9.512324E+02 -1.414152E+06  2.869308E+03  1.597110E+05  3.046635E+03  5.699618E+02
        40   5 -2.258319E+02 -1.414504E+06  2.636767E+03  4.621989E+04  1.357411E+04 -7.909795E+02
        40   6  1.129430E+03 -1.414200E+06  3.874548E+03  1.597111E+05  2.273580E+04 -2.141177E+03
        40   7 -3.030392E+04 -1.539768E+06 -2.758682E+04  1.599227E+05  3.040134E+03 -5.070684E+03
        40   8 -1.068764E+05 -1.843880E+06 -1.004499E+05  4.596226E+04  1.357073E+04 -5.742679E+03
        40   9 -1.810421E+05 -2.147372E+06 -1.723270E+05  1.589941E+05  2.273485E+04 -6.403611E+03
        40  10  3.220522E+04 -1.288521E+06  3.332432E+04  1.594992E+05 -3.259908E-10 -9.042153E-10
        40  11  1.064111E+05 -9.849583E+05  1.057100E+05  4.647761E+04  1.818470E-09  4.301054E-12
        40  12  1.832612E+05 -6.805353E+05  1.800369E+05  1.604287E+05  3.773638E-09 -1.868568E-09
        40  13  9.512224E+02 -1.414152E+06  2.869290E+03  1.597110E+05  1.783933E-09 -4.878921E-10
        40  14 -2.260298E+02 -1.414504E+06  2.636420E+03  4.621990E+04  1.516917E-10  8.538315E-10
        40  15  1.128874E+03 -1.414200E+06  3.873568E+03  1.597111E+05  7.565130E-09 -9.579391E-11
        40  16 -3.030394E+04 -1.539768E+06 -2.758688E+04  1.599227E+05  8.847576E-10  1.026887E-09
        40  17 -1.068766E+05 -1.843881E+06 -1.004503E+05  4.596233E+04 -1.217598E-09  8.939348E-10
        40  18 -1.810427E+05 -2.147372E+06 -1.723281E+05  1.589942E+05  1.167758E-09  1.965726E-09
        40  19  3.220524E+04 -1.288521E+06  3.332441E+04  1.594992E+05 -3.053132E+03 -6.211748E+03
        40  20  1.064113E+05 -9.849582E+05  1.057104E+05  4.647765E+04 -1.357750E+04 -4.164139E+03
        40  21  1.832618E+05 -6.805352E+05  1.800379E+05  1.604288E+05 -2.273676E+04 -2.126286E+03
        40  22  9.512324E+02 -1.414152E+06  2.869308E+03  1.597110E+05 -3.046635E+03 -5.699618E+02
        40  23 -2.258319E+02 -1.414504E+06  2.636767E+03  4.621989E+04 -1.357411E+04  7.909795E+02
        40  24  1.129430E+03 -1.414200E+06  3.874548E+03  1.597111E+05 -2.273580E+04  2.141177E+03
        40  25 -3.030392E+04 -1.539768E+06 -2.758682E+04  1.599227E+05 -3.040134E+03  5.070684E+03
        40  26 -1.068764E+05 -1.843880E+06 -1.004499E+05  4.596226E+04 -1.357073E+04  5.742679E+03
        40  27 -1.810421E+05 -2.147372E+06 -1.723270E+05  1.589941E+05 -2.273485E+04  6.403611E+03
        41   1  2.827552E+05 -2.714132E+05  2.785038E+05  1.572275E+05  3.592562E+04  1.275979E+04
        41   2  3.545971E+05  2.217151E+04  3.511720E+05  4.796838E+04  4.660722E+04 -1.135999E+04
        41   3  4.452181E+05  3.264477E+05  4.447946E+05  1.604904E+05  1.649525E+04 -3.552969E+04
        41   4 -5.334961E+02 -1.412994E+06  4.644053E+03  1.585585E+05  3.592518E+04 -2.900219E+03
        41   5 -2.290078E+03 -1.416596E+06  6.517649E+03  4.766017E+04  4.661123E+04 -6.446651E+03
        41   6  1.118654E+04 -1.413146E+06  1.507037E+04  1.585739E+05  1.646208E+04 -1.003153E+04
        41   7 -2.839169E+05 -2.553378E+06 -2.693073E+05  1.598868E+05  3.592467E+04 -1.853153E+04
        41   8 -3.593277E+05 -2.853465E+06 -3.382832E+05  4.735292E+04  4.661525E+04 -1.544644E+03
        41   9 -4.230710E+05 -3.149986E+06 -4.148761E+05  1.566634E+05  1.642872E+04  1.539532E+04
        41  10  2.827538E+05 -2.714137E+05  2.785011E+05  1.572271E+05  9.814951E-10 -1.327985E-09
        41  11  3.545947E+05  2.217079E+04  3.511677E+05  4.796881E+04  3.102143E-09 -1.783072E-09
        41  12  4.452175E+05  3.264462E+05  4.447917E+05  1.604909E+05  8.132617E-10 -9.423654E-11
        41  13 -5.348834E+02 -1.412994E+06  4.641614E+03  1.585586E+05  5.078860E-09 -8.212641E-11
        41  14 -2.292421E+03 -1.416597E+06  6.513490E+03  4.766042E+04  1.162486E-09 -8.362552E-10
        41  15  1.118623E+04 -1.413147E+06  1.506967E+04  1.585740E+05  1.134674E-09  5.589284E-10
        41  16 -2.839184E+05 -2.553379E+06 -2.693104E+05  1.598874E+05 -4.109582E-10  1.386245E-09
        41  17 -3.593300E+05 -2.853465E+06 -3.382873E+05  4.735298E+04 -5.768744E-09  6.771584E-10
        41  18 -4.230713E+05 -3.149986E+06 -4.148771E+05  1.566632E+05 -2.423836E-09 -2.387903E-10
        41  19  2.827552E+05 -2.714132E+05  2.785038E+05  1.572275E+05 -3.592562E+04 -1.275979E+04
        41  20  3.545971E+05  2.217151E+04  3.511720E+05  4.796838E+04 -4.660722E+04  1.135999E+04
        41  21  4.452181E+05  3.264477E+05  4.447946E+05  1.604904E+05 -1.649525E+04  3.552969E+04
        41  22 -5.334961E+02 -1.412994E+06  4.644053E+03  1.585585E+05 -3.592518E+04  2.900219E+03
        41  23 -2.290078E+03 -1.416596E+06  6.517649E+03  4.766017E+04 -4.661123E+04  6.446651E+03
        41  24  1.118654E+04 -1.413146E+06  1.507037E+04  1.585739E+05 -1.646208E+04  1.003153E+04
        41  25 -2.839169E+05 -2.553378E+06 -2.693073E+05  1.598868E+05 -3.592467E+04  1.853153E+04
        41  26 -3.593277E+05 -2.853465E+06 -3.382832E+05  4.735292E+04 -4.661525E+04  1.544644E+03
        41  27 -4.230710E+05 -3.149986E+06 -4.148761E+05  1.566634E+05 -1.642872E+04 -1.539532E+04
        42   1 -1.167577E+06  6.376890E+03  8.351634E+03  1.070519E+02  5.703001E+03  9.851630E-04
        42   2 -1.168864E+06 -1.543236E+03  3.549211E+03  2.681356E+01  3.760333E+03  1.626980E-04
        42   3 -1.167581E+06 -1.975666E+02  2.329827E+03 -5.342578E+01  1.817635E+03 -1.566972E-04
        42   4 -1.167577E+06  6.376890E+03  8.351634E+03 -2.168789E-07  5.703001E+03 -9.915690E-10
        42   5 -1.168864E+06 -1.543236E+03  3.549211E+03 -4.249582E-07  3.760333E+03  8.033430E-10
        42   6 -1.167581E+06 -1.975666E+02  2.329827E+03  3.659207E-07  1.817635E+03 -9.292770E-10
        42   7 -1.167577E+06  6.376890E+03  8.351634E+03 -1.070519E+02  5.703001E+03 -9.851614E-04
        42   8 -1.168864E+06 -1.543236E+03  3.549211E+03 -2.681356E+01  3.760333E+03 -1.627096E-04
        42   9 -1.167581E+06 -1.975666E+02  2.329827E+03  5.342578E+01  1.817635E+03  1.566915E-04
        42  10 -1.167577E+06  6.376881E+03  8.351573E+03  1.070519E+02  1.346658E-09  2.146436E-09
        42  11 -1.168864E+06 -1.543239E+03  3.549184E+03  2.681356E+01 -6.554626E-09 -1.090025E-09
        42  12 -1.167581E+06 -1.975675E+02  2.329821E+03 -5.342578E+01  1.710771E-09  2.916810E-10
        42  13 -1.167577E+06  6.376881E+03  8.351573E+03 -3.546677E-07 -4.563124E-10 -7.398544E-14
        42  14 -1.168864E+06 -1.543239E+03  3.549184E+03  1.261916E-07 -4.226912E-10 -1.315288E-13
        42  15 -1.167581E+06 -1.975675E+02  2.329821E+03 -5.296985E-07  3.166705E-09 -6.240296E-11
        42  16 -1.167577E+06  6.376881E+03  8.351573E+03 -1.070518E+02  1.696632E-09  8.317094E-12
        42  17 -1.168864E+06 -1.543239E+03  3.549184E+03 -2.681356E+01  3.344956E-09  2.167205E-09
        42  18 -1.167581E+06 -1.975675E+02  2.329821E+03  5.342578E+01 -2.569628E-09  1.055211E-09
        42  19 -1.167577E+06  6.376890E+03  8.351634E+03  1.070518E+02 -5.703001E+03 -9.851550E-04
        42  20 -1.168864E+06 -1.543236E+03  3.549211E+03  2.681356E+01 -3.760333E+03 -1.626967E-04
        42  21 -1.167581E+06 -1.975666E+02  2.329827E+03 -5.342578E+01 -1.817635E+03  1.567011E-04
        42  22 -1.167577E+06  6.376890E+03  8.351634E+03  1.964838E-07 -5.703001E+03  9.498191E-10
        42  23 -1.168864E+06 -1.543236E+03  3.549211E+03  6.084475E-07 -3.760333E+03 -1.076176E-09
        42  24 -1.167581E+06 -1.975666E+02  2.329827E+03  1.075702E-07 -1.817635E+03  8.326258E-10
        42  25 -1.167577E+06  6.376890E+03  8.351634E+03 -1.070519E+02 -5.703001E+03  9.851593E-04
        42  26 -1.168864E+06 -1.543236E+03  3.549211E+03 -2.681356E+01 -3.760333E+03  1.627010E-04
        42  27 -1.167581E+06 -1.975666E+02  2.329827E+03  5.342578E+01 -1.817635E+03 -1.567038E-04
        43   1 -1.168057E+06  1.001735E+03  1.921759E+03  1.607558E+01  1.430933E+03  3.712316E-05
        43   2 -1.168269E+06 -2.417786E+02  8.804942E+02  3.754961E+00  9.664066E+02  5.856464E-06
        43   3 -1.168058E+06 -3.363379E+01  5.050000E+02 -8.565658E+00  5.018801E+02 -6.935231E-06
        43   4 -1.168057E+06  1.001735E+03  1.921759E+03  3.091869E-07  1.430933E+03  5.214972E-10
        43   5 -1.168269E+06 -2.417786E+02  8.804942E+02 -7.073215E-07  9.664066E+02  2.969512E-09
        43   6 -1.168058E+06 -3.363379E+01  5.050000E+02  6.013387E-07  5.018801E+02 -1.440452E-09
        43   7 -1.168057E+06  1.001735E+03  1.921759E+03 -1.607558E+01  1.430933E+03 -3.711897E-05
        43   8 -1.168269E+06 -2.417786E+02  8.804942E+02 -3.754961E+00  9.664066E+02 -5.860222E-06
        43   9 -1.168058E+06 -3.363379E+01  5.050000E+02  8.565657E+00  5.018801E+02  6.940224E-06
        43  10 -1.168057E+06  1.001734E+03  1.921755E+03  1.607558E+01  2.372131E-09  2.042213E-09
        43  11 -1.168269E+06 -2.417789E+02  8.804924E+02  3.754961E+00 -4.177806E-09  4.329241E-10
        43  12 -1.168058E+06 -3.363385E+01  5.049995E+02 -8.565659E+00 -6.515169E-10 -3.806206E-10
        43  13 -1.168057E+06  1.001734E+03  1.921755E+03 -2.419647E-07 -4.728250E-09  9.293086E-10
        43  14 -1.168269E+06 -2.417789E+02  8.804924E+02 -2.250649E-07 -4.939436E-09  2.036057E-09
        43  15 -1.168058E+06 -3.363385E+01  5.049995E+02 -1.392713E-07 -1.949241E-09 -6.283467E-10
        43  16 -1.168057E+06  1.001734E+03  1.921755E+03 -1.607558E+01  1.300935E-11 -1.836469E-10
        43  17 -1.168269E+06 -2.417789E+02  8.804924E+02 -3.754959E+00  3.148376E-10  1.484322E-09
        43  18 -1.168058E+06 -3.363385E+01  5.049995E+02  8.565658E+00 -2.295704E-09 -1.953538E-09
        43  19 -1.168057E+06  1.001735E+03  1.921759E+03  1.607558E+01 -1.430933E+03 -3.711459E-05
        43  20 -1.168269E+06 -2.417786E+02  8.804942E+02  3.754961E+00 -9.664066E+02 -5.853732E-06
        43  21 -1.168058E+06 -3.363379E+01  5.050000E+02 -8.565660E+00 -5.018801E+02  6.933244E-06
        43  22 -1.168057E+06  1.001735E+03  1.921759E+03  4.469746E-07 -1.430933E+03  8.954538E-10
        43  23 -1.168269E+06 -2.417786E+02  8.804942E+02  1.194045E-07 -9.664066E+02  8.137218E-10
        43  24 -1.168058E+06 -3.363379E+01  5.050000E+02  1.879749E-07 -5.018801E+02  5.137682E-10
        43  25 -1.168057E+06  1.001735E+03  1.921759E+03 -1.607558E+01 -1.430933E+03  3.711232E-05
        43  26 -1.168269E+06 -2.417786E+02  8.804942E+02 -3.754957E+00 -9.664066E+02  5.851047E-06
        43  27 -1.168058E+06 -3.363379E+01  5.050000E+02  8.565659E+00 -5.018801E+02 -6.943876E-06
        44   1 -1.168140E+06  1.570072E+02  3.695581E+02  2.079539E+00  4.224346E+02  1.420360E-06
        44   2 -1.168167E+06 -3.207278E+01  7.480226E+01  4.127002E-01  3.815469E+02  2.511655E-07
        44   3 -1.168140E+06 -2.858115E+01 -1.451557E+02 -1.254110E+00  3.406598E+02 -6.845505E-07
        44   4 -1.168140E+06  1.570072E+02  3.695581E+02  3.258625E-08  4.224346E+02 -1.514792E-09
        44   5 -1.168167E+06 -3.207278E+01  7.480226E+01 -1.696996E-07  3.815469E+02  1.287314E-09
        44   6 -1.168140E+06 -2.858115E+01 -1.451557E+02  7.583963E-08  3.406598E+02 -3.392775E-10
        44   7 -1.168140E+06  1.570072E+02  3.695581E+02 -2.079539E+00  4.224346E+02 -1.422790E-06
        44   8 -1.168167E+06 -3.207278E+01  7.480226E+01 -4.127012E-01  3.815469E+02 -2.603246E-07
        44   9 -1.168140E+06 -2.858115E+01 -1.451557E+02  1.254109E+00  3.406598E+02  6.885301E-07
        44  10 -1.168140E+06  1.570071E+02  3.695578E+02  2.079537E+00  2.287617E-10 -1.024031E-09
        44  11 -1.168167E+06 -3.207282E+01  7.480199E+01  4.126996E-01  2.329301E-09  3.636039E-11
        44  12 -1.168140E+06 -2.858119E+01 -1.451559E+02 -1.254113E+00  1.390330E-09 -6.998522E-11
        44  13 -1.168140E+06  1.570071E+02  3.695578E+02 -5.185650E-07  3.886748E-10 -1.288272E-09
        44  14 -1.168167E+06 -3.207282E+01  7.480199E+01  3.814518E-07 -1.076467E-09  3.745591E-11
        44  15 -1.168140E+06 -2.858119E+01 -1.451559E+02 -1.997351E-07  4.107610E-09  1.037570E-09
        44  16 -1.168140E+06  1.570071E+02  3.695578E+02 -2.079535E+00 -6.003308E-10 -3.168613E-09
        44  17 -1.168167E+06 -3.207282E+01  7.480199E+01 -4.126983E-01  3.887262E-09 -2.191446E-09
        44  18 -1.168140E+06 -2.858119E+01 -1.451559E+02  1.254112E+00  1.482128E-09  1.299578E-09
        44  19 -1.168140E+06  1.570072E+02  3.695581E+02  2.079536E+00 -4.224346E+02 -1.415797E-06
        44  20 -1.168167E+06 -3.207278E+01  7.480226E+01  4.126996E-01 -3.815469E+02 -2.475909E-07
        44  21 -1.168140E+06 -2.858115E+01 -1.451557E+02 -1.254112E+00 -3.406598E+02  6.935592E-07
        44  22 -1.168140E+06  1.570072E+02  3.695581E+02 -5.185652E-07 -4.224346E+02 -9.087698E-10
        44  23 -1.168167E+06 -3.207278E+01  7.480226E+01  1.747702E-07 -3.815469E+02 -1.459885E-09
        44  24 -1.168140E+06 -2.858115E+01 -1.451557E+02 -7.164384E-07 -3.406598E+02  1.809255E-09
        44  25 -1.168140E+06  1.570072E+02  3.695581E+02 -2.079538E+00 -4.224346E+02  1.412826E-06
        44  26 -1.168167E+06 -3.207278E+01  7.480226E+01 -4.126996E-01 -3.815469E+02  2.454358E-07
        44  27 -1.168140E+06 -2.858115E+01 -1.451557E+02  1.254111E+00 -3.406598E+02 -6.938210E-07
        45   1 -1.168172E+06  2.803951E+01 -2.621424E+02 -1.269453E+00  3.775254E+02 -7.742627E-07
        45   2 -1.168128E+06  3.328416E+01 -5.793867E+02  7.300791E-02  6.676536E+02  7.969634E-08
        45   3 -1.168172E+06 -1.612847E+02 -1.135734E+03  1.415490E+00  9.577860E+02  2.192915E-06
        45   4 -1.168172E+06  2.803951E+01 -2.621424E+02  2.801336E-07  3.775254E+02 -1.655441E-09
        45   5 -1.168128E+06  3.328416E+01 -5.793867E+02  1.402490E-07  6.676536E+02 -6.726605E-12
        45   6 -1.168172E+06 -1.612847E+02 -1.135734E+03  7.409772E-07  9.577860E+02 -3.082155E-09
        45   7 -1.168172E+06  2.803951E+01 -2.621424E+02  1.269448E+00  3.775254E+02  7.714234E-07
        45   8 -1.168128E+06  3.328416E+01 -5.793867E+02 -7.300873E-02  6.676536E+02 -8.132681E-08
        45   9 -1.168172E+06 -1.612847E+02 -1.135734E+03 -1.415490E+00  9.577860E+02 -2.192999E-06
        45  10 -1.168172E+06  2.803947E+01 -2.621426E+02 -1.269452E+00  1.685751E-09  1.126311E-09
        45  11 -1.168128E+06  3.328404E+01 -5.793875E+02  7.300860E-02  1.405354E-09 -2.604849E-09
        45  12 -1.168172E+06 -1.612849E+02 -1.135736E+03  1.415488E+00 -3.499631E-10 -6.694113E-10
        45  13 -1.168172E+06  2.803947E+01 -2.621426E+02 -4.088061E-07 -3.860864E-26  3.589525E-10
        45  14 -1.168128E+06  3.328404E+01 -5.793875E+02  2.091428E-07 -8.653475E-10 -1.517818E-09
        45  15 -1.168172E+06 -1.612849E+02 -1.135736E+03  6.204131E-07 -6.378774E-09 -6.445927E-10
        45  16 -1.168172E+06  2.803947E+01 -2.621426E+02  1.269451E+00 -2.985944E-09  1.207856E-09
        45  17 -1.168128E+06  3.328404E+01 -5.793875E+02 -7.300694E-02  1.169818E-09 -1.467337E-09
        45  18 -1.168172E+06 -1.612849E+02 -1.135736E+03 -1.415488E+00 -2.974572E-09 -1.189119E-09
        45  19 -1.168172E+06  2.803951E+01 -2.621424E+02 -1.269450E+00 -3.775254E+02  7.759219E-07
        45  20 -1.168128E+06  3.328416E+01 -5.793867E+02  7.300722E-02 -6.676536E+02 -6.980191E-08
        45  21 -1.168172E+06 -1.612847E+02 -1.135734E+03  1.415489E+00 -9.577860E+02 -2.184666E-06
        45  22 -1.168172E+06  2.803951E+01 -2.621424E+02 -1.332311E-07 -3.775254E+02  1.552370E-09
        45  23 -1.168128E+06  3.328416E+01 -5.793867E+02  3.469305E-07 -6.676536E+02 -1.891801E-09
        45  24 -1.168172E+06 -1.612847E+02 -1.135734E+03  6.031897E-07 -9.577860E+02  9.469439E-10
        45  25 -1.168172E+06  2.803951E+01 -2.621424E+02  1.269449E+00 -3.775254E+02 -7.771424E-07
        45  26 -1.168128E+06  3.328416E+01 -5.793867E+02 -7.300852E-02 -6.676536E+02  7.033013E-08
        45  27 -1.168172E+06 -1.612847E+02 -1.135734E+03 -1.415487E+00 -9.577860E+02  2.181282E-06
        46   1 -1.168274E+06  3.181829E+01 -1.483423E+03 -9.623037E+00  1.195138E+03 -1.855862E-05
        46   2 -1.168000E+06  2.541313E+02 -2.533259E+03  2.085951E+00  2.477107E+03  8.339506E-06
        46   3 -1.168276E+06 -1.049277E+03 -4.800313E+03  1.379495E+01  3.759074E+03  8.368001E-05
        46   4 -1.168274E+06  3.181829E+01 -1.483423E+03  9.956747E-07  1.195138E+03 -6.739099E-10
        46   5 -1.168000E+06  2.541313E+02 -2.533259E+03  3.223100E-07  2.477107E+03  1.402205E-09
        46   6 -1.168276E+06 -1.049277E+03 -4.800313E+03  8.545892E-07  3.759074E+03 -1.633889E-09
        46   7 -1.168274E+06  3.181829E+01 -1.483423E+03  9.623038E+00  1.195138E+03  1.855512E-05
        46   8 -1.168000E+06  2.541313E+02 -2.533259E+03 -2.085947E+00  2.477107E+03 -8.345692E-06
        46   9 -1.168276E+06 -1.049277E+03 -4.800313E+03 -1.379495E+01  3.759074E+03 -8.368256E-05
        46  10 -1.168274E+06  3.181791E+01 -1.483426E+03 -9.623038E+00  4.304725E-10 -1.611827E-11
        46  11 -1.168000E+06  2.541297E+02 -2.533271E+03  2.085947E+00 -1.720214E-09  1.056235E-09
        46  12 -1.168276E+06 -1.049280E+03 -4.800339E+03  1.379495E+01 -1.667414E-09 -2.651035E-09
        46  13 -1.168274E+06  3.181791E+01 -1.483426E+03 -2.444163E-07 -8.945688E-10 -5.478088E-14
        46  14 -1.168000E+06  2.541297E+02 -2.533271E+03  1.845221E-07  1.308798E-09  5.291871E-10
        46  15 -1.168276E+06 -1.049280E+03 -4.800339E+03 -5.921839E-07 -1.487042E-09  7.195321E-12
        46  16 -1.168274E+06  3.181791E+01 -1.483426E+03  9.623037E+00 -2.167942E-09  1.616082E-11
        46  17 -1.168000E+06  2.541297E+02 -2.533271E+03 -2.085946E+00 -1.720214E-09  2.119717E-11
        46  18 -1.168276E+06 -1.049280E+03 -4.800339E+03 -1.379495E+01 -1.722874E-09 -4.258602E-11
        46  19 -1.168274E+06  3.181829E+01 -1.483423E+03 -9.623038E+00 -1.195138E+03  1.856479E-05
        46  20 -1.168000E+06  2.541313E+02 -2.533259E+03  2.085949E+00 -2.477107E+03 -8.331464E-06
        46  21 -1.168276E+06 -1.049277E+03 -4.800313E+03  1.379494E+01 -3.759074E+03 -8.367816E-05
        46  22 -1.168274E+06  3.181829E+01 -1.483423E+03  3.115982E-08 -1.195138E+03  1.175349E-09
        46  23 -1.168000E+06  2.541313E+02 -2.533259E+03  3.223101E-07 -2.477107E+03 -1.815834E-09
        46  24 -1.168276E+06 -1.049277E+03 -4.800313E+03  2.689908E-07 -3.759074E+03  8.660991E-10
        46  25 -1.168274E+06  3.181829E+01 -1.483423E+03  9.623038E+00 -1.195138E+03 -1.856263E-05
        46  26 -1.168000E+06  2.541313E+02 -2.533259E+03 -2.085949E+00 -2.477107E+03  8.337928E-06
        46  27 -1.168276E+06 -1.049277E+03 -4.800313E+03 -1.379494E+01 -3.759074E+03  8.367358E-05
        47   1 -1.168851E+06  1.956897E+02 -6.112405E+03 -5.947984E+01  4.748736E+03 -4.557789E-04
        47   2 -1.167283E+06  1.640748E+03 -1.010594E+04  2.094072E+01  9.940449E+03  3.358974E-04
        47   3 -1.168857E+06 -6.765001E+03 -1.994684E+04  1.013602E+02  1.513206E+04  2.474996E-03
        47   4 -1.168851E+06  1.956897E+02 -6.112405E+03 -4.951436E-09  4.748736E+03 -2.640297E-09
        47   5 -1.167283E+06  1.640748E+03 -1.010594E+04 -4.921817E-07  9.940449E+03  3.581994E-09
        47   6 -1.168857E+06 -6.765002E+03 -1.994684E+04  1.229084E-07  1.513206E+04  4.535468E-10
        47   7 -1.168851E+06  1.956897E+02 -6.112405E+03  5.947984E+01  4.748736E+03  4.557721E-04
        47   8 -1.167283E+06  1.640748E+03 -1.010594E+04 -2.094072E+01  9.940449E+03 -3.359010E-04
        47   9 -1.168857E+06 -6.765001E+03 -1.994684E+04 -1.013602E+02  1.513206E+04 -2.474986E-03
        47  10 -1.168851E+06  1.956837E+02 -6.112448E+03 -5.947984E+01 -7.186899E-10 -1.818887E-09
        47  11 -1.167284E+06  1.640721E+03 -1.010613E+04  2.094072E+01 -3.276859E-09  3.444881E-09
        47  12 -1.168857E+06 -6.765063E+03 -1.994727E+04  1.013602E+02 -4.942165E-10  4.751298E-09
        47  13 -1.168851E+06  1.956836E+02 -6.112448E+03  2.706242E-07 -2.152923E-09  2.964243E-10
        47  14 -1.167284E+06  1.640721E+03 -1.010613E+04 -3.543930E-07  1.497815E-09  1.170064E-10
        47  15 -1.168857E+06 -6.765063E+03 -1.994727E+04 -4.282429E-07  7.489018E-10  1.883666E-09
        47  16 -1.168851E+06  1.956837E+02 -6.112448E+03  5.947983E+01  1.534849E-09  2.411700E-09
        47  17 -1.167284E+06  1.640721E+03 -1.010613E+04 -2.094073E+01  7.770302E-09  1.340393E-09
        47  18 -1.168857E+06 -6.765063E+03 -1.994727E+04 -1.013602E+02 -4.606918E-10  2.879869E-09
        47  19 -1.168851E+06  1.956897E+02 -6.112405E+03 -5.947983E+01 -4.748736E+03  4.557905E-04
        47  20 -1.167283E+06  1.640748E+03 -1.010594E+04  2.094073E+01 -9.940449E+03 -3.358854E-04
        47  21 -1.168857E+06 -6.765001E+03 -1.994684E+04  1.013602E+02 -1.513206E+04 -2.474980E-03
        47  22 -1.168851E+06  1.956897E+02 -6.112405E+03  4.084115E-07 -4.748736E+03  9.510546E-10
        47  23 -1.167283E+06  1.640748E+03 -1.010594E+04  3.345501E-07 -9.940449E+03 -2.954748E-09
        47  24 -1.168857E+06 -6.765002E+03 -1.994684E+04  5.401634E-08 -1.513206E+04  3.707164E-09
        47  25 -1.168851E+06  1.956897E+02 -6.112405E+03  5.947983E+01 -4.748736E+03 -4.557903E-04
        47  26 -1.167283E+06  1.640748E+03 -1.010594E+04 -2.094073E+01 -9.940449E+03  3.358821E-04
        47  27 -1.168857E+06 -6.765001E+03 -1.994684E+04 -1.013602E+02 -1.513206E+04  2.474992E-03
        48   1 -1.172257E+06  1.303490E+03 -2.485039E+04 -3.694271E+02  1.919952E+04 -1.144538E-02
        48   2 -1.163038E+06  1.048300E+04 -3.972428E+04  1.635685E+02  4.010643E+04  1.058568E-02
        48   3 -1.172288E+06 -4.327753E+04 -8.396123E+04  6.965703E+02  6.101346E+04  6.858020E-02
        48   4 -1.172257E+06  1.303490E+03 -2.485039E+04  5.773942E-07  1.919952E+04  1.315035E-09
        48   5 -1.163038E+06  1.048300E+04 -3.972428E+04 -7.783255E-08  4.010643E+04  4.409373E-09
        48   6 -1.172288E+06 -4.327753E+04 -8.396123E+04  1.625657E-07  6.101346E+04 -1.043006E-08
        48   7 -1.172257E+06  1.303490E+03 -2.485039E+04  3.694271E+02  1.919952E+04  1.144539E-02
        48   8 -1.163038E+06  1.048300E+04 -3.972428E+04 -1.635685E+02  4.010643E+04 -1.058568E-02
        48   9 -1.172288E+06 -4.327753E+04 -8.396123E+04 -6.965703E+02  6.101346E+04 -6.858020E-02
        48  10 -1.172257E+06  1.303391E+03 -2.485109E+04 -3.694271E+02 -3.723517E-11  3.297481E-10
        48  11 -1.163040E+06  1.048257E+04 -3.972731E+04  1.635684E+02 -3.530813E-09 -4.497563E-09
        48  12 -1.172292E+06 -4.327853E+04 -8.396823E+04  6.965703E+02  8.678454E-10 -6.578194E-10
        48  13 -1.172257E+06  1.303390E+03 -2.485109E+04 -5.249193E-07  1.008699E-10  3.830403E-10
        48  14 -1.163040E+06  1.048257E+04 -3.972731E+04 -2.845201E-07 -1.076430E-09 -3.953312E-09
        48  15 -1.172292E+06 -4.327854E+04 -8.396823E+04 -3.541359E-07 -1.016459E-09 -3.665787E-10
        48  16 -1.172257E+06  1.303391E+03 -2.485109E+04  3.694271E+02 -1.786584E-09  3.248975E-10
        48  17 -1.163040E+06  1.048257E+04 -3.972731E+04 -1.635685E+02 -2.060284E-10 -4.486543E-09
        48  18 -1.172292E+06 -4.327853E+04 -8.396823E+04 -6.965703E+02 -1.434604E-09 -1.802728E-09
        48  19 -1.172257E+06  1.303490E+03 -2.485039E+04 -3.694271E+02 -1.919952E+04  1.144537E-02
        48  20 -1.163038E+06  1.048300E+04 -3.972428E+04  1.635684E+02 -4.010643E+04 -1.058564E-02
        48  21 -1.172288E+06 -4.327753E+04 -8.396123E+04  6.965703E+02 -6.101346E+04 -6.858014E-02
        48  22 -1.172257E+06  1.303490E+03 -2.485039E+04 -1.115528E-07 -1.919952E+04 -1.630184E-09
        48  23 -1.163038E+06  1.048300E+04 -3.972428E+04 -1.467281E-07 -4.010643E+04 -1.212214E-08
        48  24 -1.172288E+06 -4.327753E+04 -8.396123E+04  2.477989E-08 -6.101346E+04  8.312809E-09
        48  25 -1.172257E+06  1.303490E+03 -2.485039E+04  3.694271E+02 -1.919952E+04 -1.144538E-02
        48  26 -1.163038E+06  1.048300E+04 -3.972428E+04 -1.635685E+02 -4.010643E+04  1.058566E-02
        48  27 -1.172288E+06 -4.327753E+04 -8.396123E+04 -6.965703E+02 -6.101346E+04  6.858018E-02
        49   1 -1.192828E+06  8.517083E+03 -1.013322E+05 -2.307672E+03  7.786239E+04 -2.899509E-01
        49   2 -1.137354E+06  6.668119E+04 -1.535973E+05  1.159177E+03  1.619596E+05  3.029297E-01
        49   3 -1.192976E+06 -2.755056E+05 -3.607499E+05  4.625773E+03  2.460592E+05  1.836668E+00
        49   4 -1.192828E+06  8.517073E+03 -1.013322E+05  5.212638E-07  7.786239E+04  1.927271E-09
        49   5 -1.137354E+06  6.668119E+04 -1.535973E+05  3.155598E-08  1.619596E+05  3.519658E-08
        49   6 -1.192976E+06 -2.755056E+05 -3.607499E+05  7.302294E-07  2.460592E+05 -2.298528E-08
        49   7 -1.192828E+06  8.517083E+03 -1.013322E+05  2.307672E+03  7.786239E+04  2.899509E-01
        49   8 -1.137354E+06  6.668119E+04 -1.535973E+05 -1.159177E+03  1.619596E+05 -3.029297E-01
        49   9 -1.192976E+06 -2.755056E+05 -3.607499E+05 -4.625773E+03  2.460592E+05 -1.836668E+00
        49  10 -1.192834E+06  8.515451E+03 -1.013436E+05 -2.307672E+03  1.635067E-10 -9.548180E-10
        49  11 -1.137382E+06  6.667413E+04 -1.536467E+05  1.159177E+03  2.666642E-09 -4.201555E-09
        49  12 -1.193041E+06 -2.755219E+05 -3.608639E+05  4.625773E+03  6.936229E-10 -1.880800E-09
        49  13 -1.192834E+06  8.515441E+03 -1.013436E+05 -2.990881E-08  3.367191E-09 -9.205394E-10
        49  14 -1.137382E+06  6.667413E+04 -1.536467E+05 -1.751569E-07 -3.358640E-09 -4.578114E-09
        49  15 -1.193041E+06 -2.755219E+05 -3.608639E+05  9.302092E-08 -6.899247E-10 -1.856728E-09
        49  16 -1.192834E+06  8.515451E+03 -1.013436E+05  2.307672E+03 -9.040975E-10  5.746734E-11
        49  17 -1.137382E+06  6.667413E+04 -1.536467E+05 -1.159177E+03 -1.461169E-09 -4.184202E-09
        49  18 -1.193041E+06 -2.755219E+05 -3.608639E+05 -4.625773E+03 -7.514388E-10 -2.937661E-09
        49  19 -1.192828E+06  8.517083E+03 -1.013322E+05 -2.307672E+03 -7.786239E+04  2.899510E-01
        49  20 -1.137354E+06  6.668119E+04 -1.535973E+05  1.159177E+03 -1.619596E+05 -3.029298E-01
        49  21 -1.192976E+06 -2.755056E+05 -3.607499E+05  4.625773E+03 -2.460592E+05 -1.836668E+00
        49  22 -1.192828E+06  8.517073E+03 -1.013322E+05  2.456765E-07 -7.786239E+04 -3.434387E-09
        49  23 -1.137354E+06  6.668119E+04 -1.535973E+05 -5.196647E-07 -1.619596E+05 -4.439686E-08
        49  24 -1.192976E+06 -2.755056E+05 -3.607499E+05  3.169070E-07 -2.460592E+05  2.159216E-09
        49  25 -1.192828E+06  8.517083E+03 -1.013322E+05  2.307672E+03 -7.786239E+04 -2.899510E-01
        49  26 -1.137354E+06  6.668119E+04 -1.535973E+05 -1.159177E+03 -1.619596E+05  3.029298E-01
        49  27 -1.192976E+06 -2.755056E+05 -3.607499E+05 -4.625773E+03 -2.460592E+05  1.836669E+00
        50   1  1.736562E+05 -1.187823E+05  2.246599E+05 -2.606343E+03  3.308406E+00  1.475747E+05
        50   2 -3.100743E+04 -1.522609E+05  1.004362E+05 -6.332095E+02  8.781060E+00  9.741642E+04
        50   3  3.543860E+03 -1.187826E+05  6.881032E+04  1.488809E+03  7.254577E-01  4.725662E+04
        50   4  1.648255E+05 -1.540987E+05  2.158304E+05  1.644226E+02  3.967197E+00  1.475688E+05
        50   5 -3.984231E+04 -1.875901E+05  9.160337E+04  7.656828E+01  8.892072E+00  9.741334E+04
        50   6 -5.288565E+03 -1.541214E+05  5.997596E+04  1.376619E+02  6.209810E-01  4.725635E+04
        50   7  1.559948E+05 -1.894139E+05  2.070009E+05  2.935030E+03  4.625969E+00  1.475629E+05
        50   8 -4.867728E+04 -2.229181E+05  8.277048E+04  7.863058E+02  9.003082E+00  9.741026E+04
        50   9 -1.412108E+04 -1.894591E+05  5.114151E+04 -1.213408E+03  5.165004E-01  4.725608E+04
        50  10  1.736503E+05 -1.188057E+05  2.246189E+05 -2.606343E+03 -1.261346E-09 -6.126080E-11
        50  11 -3.100998E+04 -1.522711E+05  1.004183E+05 -6.332102E+02 -4.292686E-10 -5.386411E-11
        50  12  3.543261E+03 -1.187850E+05  6.880613E+04  1.488809E+03 -8.605249E-09  7.064067E-10
        50  13  1.648197E+05 -1.541220E+05  2.157895E+05  1.644221E+02  8.418419E-10 -5.012169E-11
        50  14 -3.984486E+04 -1.876003E+05  9.158554E+04  7.656758E+01 -1.049180E-09  6.194883E-10
        50  15 -5.289164E+03 -1.541238E+05  5.997176E+04  1.376619E+02  1.672891E-09  1.526994E-10
        50  16  1.559889E+05 -1.894372E+05  2.069599E+05  2.935030E+03 -1.344462E-09  1.631995E-11
        50  17 -4.867983E+04 -2.229283E+05  8.275265E+04  7.863051E+02 -5.951986E-09 -1.180705E-09
        50  18 -1.412168E+04 -1.894615E+05  5.113731E+04 -1.213408E+03  1.369955E-09  6.550333E-10
        50  19  1.736562E+05 -1.187823E+05  2.246599E+05 -2.606343E+03 -3.308406E+00 -1.475747E+05
        50  20 -3.100743E+04 -1.522609E+05  1.004362E+05 -6.332095E+02 -8.781060E+00 -9.741642E+04
        50  21  3.543860E+03 -1.187826E+05  6.881032E+04  1.488809E+03 -7.254577E-01 -4.725662E+04
        50  22  1.648255E+05 -1.540987E+05  2.158304E+05  1.644226E+02 -3.967197E+00 -1.475688E+05
        50  23 -3.984231E+04 -1.875901E+05  9.160337E+04  7.656828E+01 -8.892072E+00 -9.741334E+04
        50  24 -5.288565E+03 -1.541214E+05  5.997596E+04  1.376619E+02 -6.209810E-01 -4.725635E+04
        50  25  1.559948E+05 -1.894139E+05  2.070009E+05  2.935030E+03 -4.625969E+00 -1.475629E+05
        50  26 -4.867728E+04 -2.229181E+05  8.277048E+04  7.863058E+02 -9.003082E+00 -9.741026E+04
        50  27 -1.412108E+04 -1.894591E+05  5.114151E+04 -1.213408E+03 -5.165004E-01 -4.725608E+04
        51   1  3.192795E+04 -1.425789E+05  5.536116E+04 -5.481932E+02 -8.077362E+00  3.729871E+04
        51   2  4.509272E+01 -1.480231E+05  2.824470E+04  3.304626E+02  1.649424E+00  2.556924E+04
        51   3  3.856252E+03 -1.427380E+05  1.774569E+04  9.518696E+00 -2.884139E+00  1.383981E+04
        51   4  2.591721E+04 -1.666133E+05  4.935199E+04 -1.211793E+02 -8.051654E+00  3.729767E+04
        51   5 -5.945518E+03 -1.719800E+05  2.225503E+04  4.606540E+02  1.654221E+00  2.556893E+04
        51   6 -2.113629E+03 -1.666171E+05  1.177545E+04 -1.571144E+02 -2.889328E+00  1.384024E+04
        51   7  1.990643E+04 -1.906472E+05  4.334277E+04  3.058181E+02 -8.025947E+00  3.729662E+04
        51   8 -1.193617E+04 -1.959364E+05  1.626531E+04  5.908404E+02  1.659018E+00  2.556863E+04
        51   9 -8.083554E+03 -1.904957E+05  5.805171E+03 -3.237408E+02 -2.894517E+00  1.384067E+04
        51  10  3.192757E+04 -1.425804E+05  5.535855E+04 -5.481930E+02 -3.020402E-09  5.857293E-10
        51  11  4.491716E+01 -1.480238E+05  2.824347E+04  3.304626E+02  1.890476E-10  3.077574E-11
        51  12  3.856201E+03 -1.427382E+05  1.774533E+04  9.518729E+00 -5.930755E-09  1.415253E-09
        51  13  2.591684E+04 -1.666148E+05  4.934937E+04 -1.211791E+02  1.571006E-09  5.266946E-13
        51  14 -5.945694E+03 -1.719807E+05  2.225380E+04  4.606539E+02  4.052004E-09  1.674704E-09
        51  15 -2.113681E+03 -1.666173E+05  1.177509E+04 -1.571143E+02  4.791412E-09  2.362535E-10
        51  16  1.990606E+04 -1.906487E+05  4.334016E+04  3.058184E+02  2.344329E-09 -5.810793E-10
        51  17 -1.193635E+04 -1.959371E+05  1.626408E+04  5.908404E+02 -9.597014E-10 -3.342647E-09
        51  18 -8.083605E+03 -1.904959E+05  5.804811E+03 -3.237408E+02  5.421819E-09  1.190734E-09
        51  19  3.192795E+04 -1.425789E+05  5.536116E+04 -5.481932E+02  8.077362E+00 -3.729871E+04
        51  20  4.509271E+01 -1.480231E+05  2.824470E+04  3.304626E+02 -1.649424E+00 -2.556924E+04
        51  21  3.856252E+03 -1.427380E+05  1.774569E+04  9.518697E+00  2.884139E+00 -1.383981E+04
        51  22  2.591721E+04 -1.666133E+05  4.935199E+04 -1.211793E+02  8.051654E+00 -3.729767E+04
        51  23 -5.945518E+03 -1.719800E+05  2.225503E+04  4.606540E+02 -1.654221E+00 -2.556893E+04
        51  24 -2.113629E+03 -1.666171E+05  1.177545E+04 -1.571144E+02  2.889328E+00 -1.384024E+04
        51  25  1.990643E+04 -1.906472E+05  4.334277E+04  3.058181E+02  8.025947E+00 -3.729662E+04
        51  26 -1.193617E+04 -1.959364E+05  1.626531E+04  5.908404E+02 -1.659018E+00 -2.556863E+04
        51  27 -8.083554E+03 -1.904957E+05  5.805171E+03 -3.237408E+02  2.894517E+00 -1.384067E+04
        52   1  2.009786E+03 -1.785159E+05  5.826378E+03 -1.925355E+02 -2.158572E+01  1.203027E+04
        52   2 -1.215744E+03 -1.778042E+05 -2.225669E+03  5.276071E+02 -4.125936E+01  1.212279E+04
        52   3 -1.103809E+04 -1.787189E+05 -1.198020E+04 -3.351969E+02 -2.933337E+01  1.221537E+04
        52   4  4.298806E+03 -1.693619E+05  8.115339E+03 -2.176832E+02 -2.158779E+01  1.203124E+04
        52   5  1.098133E+03 -1.685495E+05  8.810843E+01  5.624982E+02 -4.125880E+01  1.212300E+04
        52   6 -8.699171E+03 -1.693632E+05 -9.641060E+03 -2.402665E+02 -2.933036E+01  1.221483E+04
        52   7  6.587820E+03 -1.602079E+05  1.040429E+04 -2.428312E+02 -2.158986E+01  1.203221E+04
        52   8  3.412003E+03 -1.592947E+05  2.401879E+03  5.973898E+02 -4.125823E+01  1.212322E+04
        52   9 -6.360262E+03 -1.600076E+05 -7.301928E+03 -1.453348E+02 -2.932735E+01  1.221429E+04
        52  10  2.009747E+03 -1.785161E+05  5.826106E+03 -1.925353E+02 -1.150097E-09  1.025935E-09
        52  11 -1.215784E+03 -1.778044E+05 -2.225945E+03  5.276075E+02  1.564350E-09  5.508746E-11
        52  12 -1.103813E+04 -1.787190E+05 -1.198048E+04 -3.351966E+02  2.299584E-09  1.286313E-09
        52  13  4.298768E+03 -1.693621E+05  8.115067E+03 -2.176830E+02  2.740811E-09  7.034926E-12
        52  14  1.098093E+03 -1.685497E+05  8.783217E+01  5.624986E+02 -3.369828E-09  1.910723E-09
        52  15 -8.699211E+03 -1.693634E+05 -9.641341E+03 -2.402662E+02 -1.927145E-09  2.413170E-10
        52  16  6.587781E+03 -1.602081E+05  1.040402E+04 -2.428310E+02  4.105053E-09 -1.036644E-09
        52  17  3.411963E+03 -1.592949E+05  2.401603E+03  5.973902E+02 -4.078335E-09 -3.893086E-09
        52  18 -6.360302E+03 -1.600077E+05 -7.302208E+03 -1.453345E+02 -9.169629E-10  1.067115E-09
        52  19  2.009786E+03 -1.785159E+05  5.826378E+03 -1.925355E+02  2.158572E+01 -1.203027E+04
        52  20 -1.215744E+03 -1.778042E+05 -2.225669E+03  5.276071E+02  4.125936E+01 -1.212279E+04
        52  21 -1.103809E+04 -1.787189E+05 -1.198020E+04 -3.351968E+02  2.933337E+01 -1.221537E+04
        52  22  4.298806E+03 -1.693619E+05  8.115339E+03 -2.176832E+02  2.158779E+01 -1.203124E+04
        52  23  1.098133E+03 -1.685495E+05  8.810843E+01  5.624982E+02  4.125880E+01 -1.212300E+04
        52  24 -8.699171E+03 -1.693632E+05 -9.641060E+03 -2.402665E+02  2.933036E+01 -1.221483E+04
        52  25  6.587820E+03 -1.602079E+05  1.040429E+04 -2.428312E+02  2.158986E+01 -1.203221E+04
        52  26  3.412003E+03 -1.592947E+05  2.401879E+03  5.973898E+02  4.125823E+01 -1.212322E+04
        52  27 -6.360262E+03 -1.600076E+05 -7.301928E+03 -1.453348E+02  2.932735E+01 -1.221429E+04
        53   1 -1.035146E+06 -1.400957E+05  6.488952E+03 -3.904120E+05  6.494326E+02  2.245723E+02
        53   2 -1.035059E+06 -1.415911E+05  5.828262E+03 -3.908382E+05  4.338085E+02  1.167082E+02
        53   3 -1.035427E+06 -1.409084E+05  5.672580E+03 -3.901902E+05  1.987108E+02  6.069792E+01
        53   4 -1.054937E+06 -1.475820E+05  1.027992E+03 -3.957991E+05  6.483045E+02  2.241490E+02
        53   5 -1.054762E+06 -1.490406E+05  3.926817E+02 -3.961977E+05  4.338512E+02  1.167241E+02
        53   6 -1.055042E+06 -1.483212E+05  2.614611E+02 -3.955221E+05  1.999239E+02  6.115362E+01
        53   7 -1.074728E+06 -1.550683E+05 -4.433002E+03 -4.011860E+05  6.471763E+02  2.237258E+02
        53   8 -1.074465E+06 -1.564900E+05 -5.042934E+03 -4.015570E+05  4.338935E+02  1.167399E+02
        53   9 -1.074657E+06 -1.557340E+05 -5.149693E+03 -4.008539E+05  2.011364E+02  6.160931E+01
        53  10 -1.035146E+06 -1.400957E+05  6.488949E+03 -3.904120E+05  1.748882E-05  1.367865E-05
        53  11 -1.035059E+06 -1.415911E+05  5.828250E+03 -3.908382E+05  8.343257E-05  6.093332E-05
        53  12 -1.035427E+06 -1.409085E+05  5.672558E+03 -3.901901E+05  1.529478E-04  1.065234E-04
        53  13 -1.054937E+06 -1.475820E+05  1.027992E+03 -3.957991E+05  5.681831E-05  1.369292E-05
        53  14 -1.054762E+06 -1.490406E+05  3.926816E+02 -3.961977E+05  2.520524E-04  6.075146E-05
        53  15 -1.055042E+06 -1.483212E+05  2.614614E+02 -3.955221E+05  4.472517E-04  1.078155E-04
        53  16 -1.074728E+06 -1.550683E+05 -4.433000E+03 -4.011860E+05  2.194216E-05  1.334399E-05
        53  17 -1.074465E+06 -1.564900E+05 -5.042922E+03 -4.015571E+05  9.144570E-05  5.894712E-05
        53  18 -1.074657E+06 -1.557339E+05 -5.149672E+03 -4.008539E+05  1.573159E-04  1.062319E-04
        53  19 -1.035146E+06 -1.400957E+05  6.488947E+03 -3.904120E+05 -6.494326E+02 -2.245722E+02
        53  20 -1.035059E+06 -1.415911E+05  5.828238E+03 -3.908381E+05 -4.338083E+02 -1.167081E+02
        53  21 -1.035427E+06 -1.409085E+05  5.672536E+03 -3.901900E+05 -1.987105E+02 -6.069771E+01
        53  22 -1.054937E+06 -1.475820E+05  1.027993E+03 -3.957991E+05 -6.483044E+02 -2.241490E+02
        53  23 -1.054762E+06 -1.490406E+05  3.926822E+02 -3.961977E+05 -4.338507E+02 -1.167240E+02
        53  24 -1.055042E+06 -1.483212E+05  2.614619E+02 -3.955221E+05 -1.999230E+02 -6.115341E+01
        53  25 -1.074728E+06 -1.550683E+05 -4.432997E+03 -4.011860E+05 -6.471763E+02 -2.237258E+02
        53  26 -1.074465E+06 -1.564900E+05 -5.042910E+03 -4.015571E+05 -4.338933E+02 -1.167398E+02
        53  27 -1.074657E+06 -1.557339E+05 -5.149650E+03 -4.008540E+05 -2.011361E+02 -6.160909E+01
        54   1 -1.084239E+06 -1.596279E+05 -7.913224E+03 -4.039531E+05  1.361547E+02  8.222573E+01
        54   2 -1.084665E+06 -1.596870E+05 -8.103072E+03 -4.038498E+05  9.117149E+01  1.010712E+02
        54   3 -1.084230E+06 -1.597229E+05 -8.091971E+03 -4.038800E+05  7.088424E+01  5.409392E+01
        54   4 -1.054701E+06 -1.484594E+05  2.363980E+02 -3.959183E+05  1.376016E+02  8.276914E+01
        54   5 -1.055141E+06 -1.485331E+05  4.041005E+01 -3.958283E+05  9.114005E+01  1.010591E+02
        54   6 -1.054719E+06 -1.485834E+05  4.654180E+01 -3.958718E+05  6.937389E+01  5.352784E+01
        54   7 -1.025163E+06 -1.372908E+05  8.385940E+03 -3.878831E+05  1.390479E+02  8.331257E+01
        54   8 -1.025616E+06 -1.373792E+05  8.183811E+03 -3.878064E+05  9.110817E+01  1.010470E+02
        54   9 -1.025207E+06 -1.374437E+05  8.184973E+03 -3.878632E+05  6.786321E+01  5.296173E+01
        54  10 -1.084239E+06 -1.596279E+05 -7.913247E+03 -4.039530E+05  1.624178E-04  1.104111E-04
        54  11 -1.084665E+06 -1.596870E+05 -8.103088E+03 -4.038497E+05  1.163726E-04  7.733703E-05
        54  12 -1.084230E+06 -1.597229E+05 -8.091980E+03 -4.038799E+05  6.916931E-05  4.476953E-05
        54  13 -1.054701E+06 -1.484594E+05  2.363976E+02 -3.959183E+05  4.643549E-04  1.119337E-04
        54  14 -1.055141E+06 -1.485331E+05  4.040983E+01 -3.958283E+05  3.279483E-04  7.902358E-05
        54  15 -1.054719E+06 -1.485834E+05  4.654161E+01 -3.958718E+05  1.915084E-04  4.611355E-05
        54  16 -1.025162E+06 -1.372908E+05  8.385962E+03 -3.878831E+05  1.597276E-04  1.104503E-04
        54  17 -1.025616E+06 -1.373791E+05  8.183826E+03 -3.878065E+05  1.112367E-04  7.850559E-05
        54  18 -1.025207E+06 -1.374437E+05  8.184982E+03 -3.878632E+05  6.382961E-05  4.603885E-05
        54  19 -1.084239E+06 -1.596279E+05 -7.913269E+03 -4.039529E+05 -1.361543E+02 -8.222551E+01
        54  20 -1.084665E+06 -1.596870E+05 -8.103103E+03 -4.038497E+05 -9.117126E+01 -1.010711E+02
        54  21 -1.084230E+06 -1.597229E+05 -8.091989E+03 -4.038799E+05 -7.088410E+01 -5.409383E+01
        54  22 -1.054701E+06 -1.484594E+05  2.363974E+02 -3.959183E+05 -1.376006E+02 -8.276892E+01
        54  23 -1.055141E+06 -1.485331E+05  4.040969E+01 -3.958283E+05 -9.113939E+01 -1.010590E+02
        54  24 -1.054719E+06 -1.485834E+05  4.654146E+01 -3.958718E+05 -6.937351E+01 -5.352775E+01
        54  25 -1.025162E+06 -1.372908E+05  8.385984E+03 -3.878832E+05 -1.390476E+02 -8.331235E+01
        54  26 -1.025616E+06 -1.373791E+05  8.183842E+03 -3.878066E+05 -9.110795E+01 -1.010469E+02
        54  27 -1.025207E+06 -1.374437E+05  8.184991E+03 -3.878633E+05 -6.786308E+01 -5.296164E+01
        55   1 -1.028544E+06 -1.388185E+05  7.213912E+03 -3.889206E+05  7.486087E+01  6.256389E+00
        55   2 -1.029051E+06 -1.384901E+05  7.115492E+03 -3.885718E+05  1.275563E+02 -1.165951E+01
        55   3 -1.028446E+06 -1.387859E+05  7.085904E+03 -3.888671E+05  1.578222E+02  3.021934E+01
        55   4 -1.054656E+06 -1.486737E+05  1.328948E+01 -3.960054E+05  7.344675E+01  5.726451E+00
        55   5 -1.055213E+06 -1.483727E+05 -1.001798E+02 -3.956791E+05  1.274823E+02 -1.168737E+01
        55   6 -1.054659E+06 -1.486962E+05 -1.458818E+02 -3.959968E+05  1.590880E+02  3.069477E+01
        55   7 -1.080767E+06 -1.585288E+05 -7.187398E+03 -4.030899E+05  7.203260E+01  5.196537E+00
        55   8 -1.081374E+06 -1.582552E+05 -7.315916E+03 -4.027861E+05  1.274086E+02 -1.171523E+01
        55   9 -1.080871E+06 -1.586065E+05 -7.377731E+03 -4.031263E+05  1.603543E+02  3.117018E+01
        55  10 -1.028544E+06 -1.388185E+05  7.213909E+03 -3.889205E+05  2.911522E-05  1.625001E-05
        55  11 -1.029051E+06 -1.384901E+05  7.115502E+03 -3.885719E+05 -6.514668E-05 -4.951746E-05
        55  12 -1.028446E+06 -1.387859E+05  7.085927E+03 -3.888672E+05 -1.626016E-04 -1.138452E-04
        55  13 -1.054656E+06 -1.486737E+05  1.328903E+01 -3.960054E+05  7.178710E-05  1.728453E-05
        55  14 -1.055213E+06 -1.483727E+05 -1.001801E+02 -3.956791E+05 -2.031028E-04 -4.891972E-05
        55  15 -1.054659E+06 -1.486962E+05 -1.458824E+02 -3.959968E+05 -4.779079E-04 -1.152033E-04
        55  16 -1.080767E+06 -1.585288E+05 -7.187394E+03 -4.030899E+05  2.077451E-05  1.770186E-05
        55  17 -1.081374E+06 -1.582552E+05 -7.315926E+03 -4.027860E+05 -7.581251E-05 -4.698706E-05
        55  18 -1.080871E+06 -1.586065E+05 -7.377755E+03 -4.031262E+05 -1.690403E-04 -1.132814E-04
        55  19 -1.028544E+06 -1.388185E+05  7.213905E+03 -3.889205E+05 -7.486081E+01 -6.256357E+00
        55  20 -1.029051E+06 -1.384901E+05  7.115512E+03 -3.885719E+05 -1.275564E+02  1.165941E+01
        55  21 -1.028446E+06 -1.387858E+05  7.085950E+03 -3.888673E+05 -1.578226E+02 -3.021957E+01
        55  22 -1.054656E+06 -1.486737E+05  1.328859E+01 -3.960054E+05 -7.344661E+01 -5.726417E+00
        55  23 -1.055213E+06 -1.483727E+05 -1.001805E+02 -3.956791E+05 -1.274827E+02  1.168727E+01
        55  24 -1.054659E+06 -1.486962E+05 -1.458829E+02 -3.959968E+05 -1.590889E+02 -3.069500E+01
        55  25 -1.080767E+06 -1.585288E+05 -7.187391E+03 -4.030899E+05 -7.203256E+01 -5.196502E+00
        55  26 -1.081374E+06 -1.582552E+05 -7.315935E+03 -4.027860E+05 -1.274088E+02  1.171513E+01
        55  27 -1.080871E+06 -1.586065E+05 -7.377778E+03 -4.031261E+05 -1.603546E+02 -3.117041E+01
        56   1 -1.066422E+06 -1.525058E+05 -3.326477E+03 -3.985715E+05  1.750083E+02  7.010033E+01
        56   2 -1.065862E+06 -1.531606E+05 -3.547906E+03 -3.993740E+05  3.821477E+02  1.692392E+02
        56   3 -1.066666E+06 -1.527197E+05 -3.975826E+03 -3.985747E+05  5.989790E+02  2.425831E+02
        56   4 -1.055201E+06 -1.482614E+05 -2.301596E+02 -3.955175E+05  1.757191E+02  7.036749E+01
        56   5 -1.054529E+06 -1.488773E+05 -4.216286E+02 -3.962929E+05  3.822837E+02  1.692903E+02
        56   6 -1.055221E+06 -1.483972E+05 -8.191294E+02 -3.954665E+05  5.985400E+02  2.424184E+02
        56   7 -1.043980E+06 -1.440170E+05  2.866145E+03 -3.924634E+05  1.764307E+02  7.063466E+01
        56   8 -1.043196E+06 -1.445939E+05  2.704636E+03 -3.932117E+05  3.824200E+02  1.693414E+02
        56   9 -1.043775E+06 -1.440747E+05  2.337555E+03 -3.923583E+05  5.981011E+02  2.422537E+02
        56  10 -1.066422E+06 -1.525057E+05 -3.326453E+03 -3.985716E+05 -1.738545E-04 -1.176105E-04
        56  11 -1.065862E+06 -1.531606E+05 -3.547892E+03 -3.993741E+05 -1.012813E-04 -6.517213E-05
        56  12 -1.066666E+06 -1.527197E+05 -3.975824E+03 -3.985747E+05 -2.429665E-05 -1.481035E-05
        56  13 -1.055201E+06 -1.482614E+05 -2.301592E+02 -3.955175E+05 -4.949941E-04 -1.193452E-04
        56  14 -1.054529E+06 -1.488773E+05 -4.216286E+02 -3.962929E+05 -2.789405E-04 -6.726889E-05
        56  15 -1.055221E+06 -1.483972E+05 -8.191298E+02 -3.954665E+05 -6.284929E-05 -1.523537E-05
        56  16 -1.043980E+06 -1.440171E+05  2.866121E+03 -3.924633E+05 -1.696255E-04 -1.176593E-04
        56  17 -1.043196E+06 -1.445939E+05  2.704622E+03 -3.932117E+05 -9.229026E-05 -6.743426E-05
        56  18 -1.043775E+06 -1.440747E+05  2.337552E+03 -3.923582E+05 -1.928544E-05 -1.522048E-05
        56  19 -1.066422E+06 -1.525057E+05 -3.326429E+03 -3.985717E+05 -1.750086E+02 -7.010057E+01
        56  20 -1.065862E+06 -1.531606E+05 -3.547879E+03 -3.993741E+05 -3.821479E+02 -1.692394E+02
        56  21 -1.066666E+06 -1.527197E+05 -3.975820E+03 -3.985747E+05 -5.989790E+02 -2.425832E+02
        56  22 -1.055201E+06 -1.482614E+05 -2.301587E+02 -3.955175E+05 -1.757201E+02 -7.036773E+01
        56  23 -1.054529E+06 -1.488773E+05 -4.216281E+02 -3.962929E+05 -3.822842E+02 -1.692905E+02
        56  24 -1.055221E+06 -1.483972E+05 -8.191286E+02 -3.954665E+05 -5.985401E+02 -2.424184E+02
        56  25 -1.043981E+06 -1.440171E+05  2.866098E+03 -3.924632E+05 -1.764310E+02 -7.063490E+01
        56  26 -1.043196E+06 -1.445939E+05  2.704609E+03 -3.932116E+05 -3.824202E+02 -1.693415E+02
        56  27 -1.043775E+06 -1.440747E+05  2.337549E+03 -3.923582E+05 -5.981012E+02 -2.422537E+02
        57   1 -1.063261E+06 -1.520923E+05 -3.429800E+03 -3.985911E+05  7.552353E+02  2.985815E+02
        57   2 -1.063605E+06 -1.511096E+05 -4.184799E+03 -3.977573E+05  1.706738E+03  6.592973E+02
        57   3 -1.063187E+06 -1.529640E+05 -6.035120E+03 -3.981449E+05  2.665516E+03  1.000620E+03
        57   4 -1.054688E+06 -1.488455E+05 -1.063613E+03 -3.962535E+05  7.555342E+02  2.986937E+02
        57   5 -1.055138E+06 -1.479143E+05 -1.850186E+03 -3.954603E+05  1.706614E+03  6.592509E+02
        57   6 -1.054827E+06 -1.498202E+05 -3.731736E+03 -3.958886E+05  2.664969E+03  1.000416E+03
        57   7 -1.046116E+06 -1.455987E+05  1.302566E+03 -3.939159E+05  7.558332E+02  2.988059E+02
        57   8 -1.046671E+06 -1.447191E+05  4.844201E+02 -3.931633E+05  1.706491E+03  6.592045E+02
        57   9 -1.046466E+06 -1.466765E+05 -1.428357E+03 -3.936323E+05  2.664423E+03  1.000211E+03
        57  10 -1.063261E+06 -1.520923E+05 -3.429798E+03 -3.985911E+05 -2.034252E-05 -1.601185E-05
        57  11 -1.063605E+06 -1.511095E+05 -4.184791E+03 -3.977573E+05 -9.751340E-05 -7.074734E-05
        57  12 -1.063187E+06 -1.529640E+05 -6.035111E+03 -3.981450E+05 -1.792401E-04 -1.233265E-04
        57  13 -1.054688E+06 -1.488455E+05 -1.063615E+03 -3.962535E+05 -6.623399E-05 -1.613929E-05
        57  14 -1.055138E+06 -1.479143E+05 -1.850193E+03 -3.954603E+05 -2.940039E-04 -7.123007E-05
        57  15 -1.054827E+06 -1.498202E+05 -3.731751E+03 -3.958886E+05 -5.217881E-04 -1.262915E-04
        57  16 -1.046116E+06 -1.455987E+05  1.302562E+03 -3.939159E+05 -2.566494E-05 -1.550445E-05
        57  17 -1.046671E+06 -1.447191E+05  4.843999E+02 -3.931633E+05 -1.068919E-04 -6.833405E-05
        57  18 -1.046466E+06 -1.466765E+05 -1.428397E+03 -3.936322E+05 -1.836203E-04 -1.232737E-04
        57  19 -1.063261E+06 -1.520923E+05 -3.429794E+03 -3.985911E+05 -7.552353E+02 -2.985816E+02
        57  20 -1.063605E+06 -1.511095E+05 -4.184770E+03 -3.977574E+05 -1.706738E+03 -6.592975E+02
        57  21 -1.063187E+06 -1.529640E+05 -6.035071E+03 -3.981451E+05 -2.665517E+03 -1.000621E+03
        57  22 -1.054688E+06 -1.488455E+05 -1.063614E+03 -3.962535E+05 -7.555343E+02 -2.986937E+02
        57  23 -1.055138E+06 -1.479143E+05 -1.850187E+03 -3.954603E+05 -1.706615E+03 -6.592511E+02
        57  24 -1.054827E+06 -1.498202E+05 -3.731736E+03 -3.958886E+05 -2.664970E+03 -1.000416E+03
        57  25 -1.046116E+06 -1.455987E+05  1.302560E+03 -3.939159E+05 -7.558333E+02 -2.988059E+02
        57  26 -1.046672E+06 -1.447191E+05  4.843922E+02 -3.931632E+05 -1.706491E+03 -6.592046E+02
        57  27 -1.046466E+06 -1.466765E+05 -1.428407E+03 -3.936321E+05 -2.664424E+03 -1.000211E+03
        58   1 -1.031070E+06 -1.390472E+05  2.025614E+03 -3.893181E+05  3.379855E+03  1.239431E+03
        58   2 -1.029409E+06 -1.379719E+05 -1.337396E+03 -3.897601E+05  7.603270E+03  2.798607E+03
        58   3 -1.032203E+06 -1.452229E+05 -1.026550E+04 -3.868840E+05  1.180460E+04  4.416467E+03
        58   4 -1.055593E+06 -1.482566E+05 -4.727433E+03 -3.959245E+05  3.378613E+03  1.238965E+03
        58   5 -1.053808E+06 -1.472122E+05 -8.071589E+03 -3.964127E+05  7.603187E+03  2.798575E+03
        58   6 -1.056479E+06 -1.544945E+05 -1.698192E+04 -3.935829E+05  1.180567E+04  4.416868E+03
        58   7 -1.080114E+06 -1.574660E+05 -1.148054E+04 -4.025306E+05  3.377372E+03  1.238500E+03
        58   8 -1.078206E+06 -1.564525E+05 -1.480584E+04 -4.030651E+05  7.603103E+03  2.798543E+03
        58   9 -1.080755E+06 -1.637661E+05 -2.369840E+04 -4.002816E+05  1.180675E+04  4.417270E+03
        58  10 -1.031070E+06 -1.390472E+05  2.025613E+03 -3.893182E+05 -1.771459E-04 -1.176996E-04
        58  11 -1.029409E+06 -1.379719E+05 -1.337510E+03 -3.897601E+05 -7.337902E-05 -4.469083E-05
        58  12 -1.032203E+06 -1.452229E+05 -1.026580E+04 -3.868840E+05  3.411698E-05  2.665710E-05
        58  13 -1.055593E+06 -1.482566E+05 -4.727457E+03 -3.959245E+05 -4.993139E-04 -1.208368E-04
        58  14 -1.053808E+06 -1.472122E+05 -8.071712E+03 -3.964127E+05 -1.943643E-04 -4.695221E-05
        58  15 -1.056479E+06 -1.544946E+05 -1.698222E+04 -3.935830E+05  1.104673E-04  2.708684E-05
        58  16 -1.080114E+06 -1.574660E+05 -1.148058E+04 -4.025305E+05 -1.700284E-04 -1.183840E-04
        58  17 -1.078207E+06 -1.564525E+05 -1.480597E+04 -4.030651E+05 -6.157513E-05 -4.757876E-05
        58  18 -1.080755E+06 -1.637662E+05 -2.369869E+04 -4.002817E+05  4.291656E-05  2.519463E-05
        58  19 -1.031070E+06 -1.390472E+05  2.025662E+03 -3.893183E+05 -3.379855E+03 -1.239431E+03
        58  20 -1.029409E+06 -1.379719E+05 -1.337377E+03 -3.897601E+05 -7.603270E+03 -2.798607E+03
        58  21 -1.032203E+06 -1.452229E+05 -1.026551E+04 -3.868840E+05 -1.180460E+04 -4.416466E+03
        58  22 -1.055593E+06 -1.482566E+05 -4.727432E+03 -3.959245E+05 -3.378614E+03 -1.238966E+03
        58  23 -1.053808E+06 -1.472122E+05 -8.071588E+03 -3.964127E+05 -7.603187E+03 -2.798575E+03
        58  24 -1.056479E+06 -1.544945E+05 -1.698192E+04 -3.935829E+05 -1.180567E+04 -4.416868E+03
        58  25 -1.080114E+06 -1.574661E+05 -1.148058E+04 -4.025304E+05 -3.377373E+03 -1.238501E+03
        58  26 -1.078207E+06 -1.564525E+05 -1.480586E+04 -4.030650E+05 -7.603104E+03 -2.798543E+03
        58  27 -1.080755E+06 -1.637661E+05 -2.369839E+04 -4.002816E+05 -1.180675E+04 -4.417270E+03
        59   1 -1.087286E+06 -1.591209E+05 -2.920862E+04 -4.058067E+05  1.497601E+04  5.655368E+03
        59   2 -1.078448E+06 -1.495281E+05 -4.287193E+04 -4.055731E+05  3.360238E+04  1.267638E+04
        59   3 -1.093621E+06 -1.983063E+05 -8.631447E+04 -3.901002E+05  5.225945E+04  1.961624E+04
        59   4 -1.058317E+06 -1.478470E+05 -2.115157E+04 -3.975977E+05  1.497788E+04  5.656081E+03
        59   5 -1.049126E+06 -1.385931E+05 -3.481256E+04 -3.977529E+05  3.360328E+04  1.267671E+04
        59   6 -1.063944E+06 -1.877082E+05 -7.825090E+04 -3.826691E+05  5.225939E+04  1.961615E+04
        59   7 -1.029347E+06 -1.365731E+05 -1.309461E+04 -3.893883E+05  1.497975E+04  5.656793E+03
        59   8 -1.019803E+06 -1.276580E+05 -2.675326E+04 -3.899324E+05  3.360418E+04  1.267704E+04
        59   9 -1.034266E+06 -1.771101E+05 -7.018742E+04 -3.752377E+05  5.225933E+04  1.961606E+04
        59  10 -1.087287E+06 -1.591210E+05 -2.920911E+04 -4.058067E+05  7.585218E-05  5.321518E-05
        59  11 -1.078450E+06 -1.495286E+05 -4.287438E+04 -4.055734E+05  1.055855E-04  7.254441E-05
        59  12 -1.093624E+06 -1.983074E+05 -8.632035E+04 -3.901009E+05  1.356459E-04  9.161196E-05
        59  13 -1.058317E+06 -1.478471E+05 -2.115206E+04 -3.975978E+05  2.234804E-04  5.466092E-05
        59  14 -1.049127E+06 -1.385936E+05 -3.481499E+04 -3.977533E+05  3.071098E-04  7.522135E-05
        59  15 -1.063947E+06 -1.877094E+05 -7.825677E+04 -3.826699E+05  3.907962E-04  9.567905E-05
        59  16 -1.029347E+06 -1.365731E+05 -1.309508E+04 -3.893884E+05  7.980691E-05  5.205463E-05
        59  17 -1.019804E+06 -1.276585E+05 -2.675568E+04 -3.899328E+05  1.085029E-04  7.184047E-05
        59  18 -1.034269E+06 -1.771112E+05 -7.019327E+04 -3.752386E+05  1.369818E-04  9.168264E-05
        59  19 -1.087286E+06 -1.591209E+05 -2.920864E+04 -4.058066E+05 -1.497601E+04 -5.655368E+03
        59  20 -1.078448E+06 -1.495281E+05 -4.287196E+04 -4.055730E+05 -3.360238E+04 -1.267638E+04
        59  21 -1.093621E+06 -1.983063E+05 -8.631450E+04 -3.901000E+05 -5.225945E+04 -1.961624E+04
        59  22 -1.058317E+06 -1.478470E+05 -2.115157E+04 -3.975977E+05 -1.497788E+04 -5.656081E+03
        59  23 -1.049126E+06 -1.385931E+05 -3.481256E+04 -3.977529E+05 -3.360328E+04 -1.267671E+04
        59  24 -1.063944E+06 -1.877082E+05 -7.825090E+04 -3.826691E+05 -5.225939E+04 -1.961615E+04
        59  25 -1.029347E+06 -1.365730E+05 -1.309459E+04 -3.893884E+05 -1.497975E+04 -5.656793E+03
        59  26 -1.019803E+06 -1.276580E+05 -2.675323E+04 -3.899325E+05 -3.360418E+04 -1.267704E+04
        59  27 -1.034266E+06 -1.771101E+05 -7.018738E+04 -3.752378E+05 -5.225933E+04 -1.961606E+04
        60   1 -1.053653E+06 -1.379162E+05 -8.904220E+04 -4.032897E+05  6.681484E+04  2.502251E+04
        60   2 -9.988918E+05 -7.610256E+04 -1.427655E+05 -4.010521E+05  1.491902E+05  5.591177E+04
        60   3 -1.093794E+06 -3.875644E+05 -3.598429E+05 -3.029460E+05  2.315283E+05  8.690651E+04
        60   4 -1.075872E+06 -1.443109E+05 -9.477098E+04 -4.072680E+05  6.681225E+04  2.502182E+04
        60   5 -1.019009E+06 -8.469907E+04 -1.485137E+05 -4.075435E+05  1.491875E+05  5.591045E+04
        60   6 -1.111814E+06 -3.983699E+05 -3.656146E+05 -3.119491E+05  2.315258E+05  8.690367E+04
        60   7 -1.098090E+06 -1.507057E+05 -1.004998E+05 -4.112462E+05  6.680967E+04  2.502112E+04
        60   8 -1.039125E+06 -9.329552E+04 -1.542620E+05 -4.140347E+05  1.491848E+05  5.590912E+04
        60   9 -1.129834E+06 -4.091753E+05 -3.713865E+05 -3.209518E+05  2.315232E+05  8.690083E+04
        60  10 -1.053658E+06 -1.379181E+05 -8.905180E+04 -4.032910E+05  1.302913E-04  8.618460E-05
        60  11 -9.989166E+05 -7.611192E+04 -1.428133E+05 -4.010588E+05  7.556733E-05  4.786361E-05
        60  12 -1.093854E+06 -3.875869E+05 -3.599580E+05 -3.029623E+05  1.807418E-05  1.083860E-05
        60  13 -1.075877E+06 -1.443128E+05 -9.478057E+04 -4.072693E+05  3.683376E-04  9.018454E-05
        60  14 -1.019033E+06 -8.470842E+04 -1.485615E+05 -4.075502E+05  2.075102E-04  5.087082E-05
        60  15 -1.111874E+06 -3.983925E+05 -3.657298E+05 -3.119653E+05  4.676404E-05  1.147849E-05
        60  16 -1.098094E+06 -1.507075E+05 -1.005094E+05 -4.112476E+05  1.266959E-04  8.652012E-05
        60  17 -1.039150E+06 -9.330486E+04 -1.543098E+05 -4.140414E+05  6.916561E-05  4.956183E-05
        60  18 -1.129893E+06 -4.091979E+05 -3.715016E+05 -3.209681E+05  1.452936E-05  1.114071E-05
        60  19 -1.053654E+06 -1.379162E+05 -8.904224E+04 -4.032895E+05 -6.681484E+04 -2.502251E+04
        60  20 -9.988919E+05 -7.610258E+04 -1.427655E+05 -4.010520E+05 -1.491902E+05 -5.591177E+04
        60  21 -1.093794E+06 -3.875644E+05 -3.598429E+05 -3.029460E+05 -2.315283E+05 -8.690651E+04
        60  22 -1.075872E+06 -1.443109E+05 -9.477099E+04 -4.072680E+05 -6.681225E+04 -2.502182E+04
        60  23 -1.019009E+06 -8.469907E+04 -1.485137E+05 -4.075435E+05 -1.491875E+05 -5.591045E+04
        60  24 -1.111814E+06 -3.983699E+05 -3.656146E+05 -3.119491E+05 -2.315258E+05 -8.690367E+04
        60  25 -1.098089E+06 -1.507056E+05 -1.004998E+05 -4.112463E+05 -6.680967E+04 -2.502112E+04
        60  26 -1.039125E+06 -9.329550E+04 -1.542620E+05 -4.140347E+05 -1.491848E+05 -5.590912E+04
        60  27 -1.129834E+06 -4.091753E+05 -3.713864E+05 -3.209519E+05 -2.315232E+05 -8.690083E+04
        61   1  1.290414E+05  1.098177E+06  1.202836E+05 -1.349978E+04  7.132657E+03  5.707697E+04
        61   2  1.191827E+05  1.087187E+06  8.839550E+04 -1.246468E+04  2.502154E+04  3.172385E+04
        61   3  1.146067E+05  1.080826E+06  7.431950E+04 -1.195738E+04  3.264404E+04  6.372191E+03
        61   4  2.412406E+03  5.822474E+05  2.568207E+03 -1.180093E+04  7.135327E+03  1.751687E+03
        61   5  8.464604E+02  5.820726E+05  1.338773E+03 -1.153757E+04  2.502655E+04  1.075039E+03
        61   6  2.854448E+02  5.822502E+05  8.043377E+02 -1.180131E+04  3.264762E+04  3.992504E+02
        61   7 -1.242334E+05  6.657037E+04 -1.151530E+05 -1.010350E+04  7.137696E+03 -5.352809E+04
        61   8 -1.175029E+05  7.721062E+04 -8.572315E+04 -1.061123E+04  2.503147E+04 -2.954964E+04
        61   9 -1.140474E+05  8.392450E+04 -7.271517E+04 -1.164535E+04  3.265119E+04 -5.569097E+03
        61  10  1.290405E+05  1.098174E+06  1.202774E+05 -1.350011E+04  7.563831E-10 -2.674367E-09
        61  11  1.191817E+05  1.087185E+06  8.839244E+04 -1.246532E+04  5.148472E-11 -6.553258E-10
        61  12  1.146055E+05  1.080825E+06  7.431742E+04 -1.195755E+04 -1.845651E-09  1.742370E-09
        61  13  2.412350E+03  5.822474E+05  2.568105E+03 -1.180094E+04 -4.094541E-10 -2.253017E-11
        61  14  8.457873E+02  5.820724E+05  1.337594E+03 -1.153759E+04  2.203754E-09 -1.886176E-10
        61  15  2.842999E+02  5.822499E+05  8.023339E+02 -1.180132E+04 -1.056453E-09  1.781991E-10
        61  16 -1.242342E+05  6.656728E+04 -1.151585E+05 -1.010319E+04 -3.584703E-10  2.668924E-09
        61  17 -1.175038E+05  7.720951E+04 -8.572597E+04 -1.061063E+04 -8.419905E-11  5.725230E-10
        61  18 -1.140485E+05  8.392418E+04 -7.271723E+04 -1.164521E+04  1.240840E-09 -1.764561E-09
        61  19  1.290414E+05  1.098177E+06  1.202836E+05 -1.349978E+04 -7.132657E+03 -5.707697E+04
        61  20  1.191827E+05  1.087187E+06  8.839550E+04 -1.246468E+04 -2.502154E+04 -3.172385E+04
        61  21  1.146067E+05  1.080826E+06  7.431950E+04 -1.195738E+04 -3.264404E+04 -6.372191E+03
        61  22  2.412406E+03  5.822474E+05  2.568207E+03 -1.180093E+04 -7.135327E+03 -1.751687E+03
        61  23  8.464604E+02  5.820726E+05  1.338773E+03 -1.153757E+04 -2.502655E+04 -1.075039E+03
        61  24  2.854448E+02  5.822502E+05  8.043377E+02 -1.180131E+04 -3.264762E+04 -3.992504E+02
        61  25 -1.242334E+05  6.657037E+04 -1.151530E+05 -1.010350E+04 -7.137696E+03  5.352809E+04
        61  26 -1.175029E+05  7.721062E+04 -8.572315E+04 -1.061123E+04 -2.503147E+04  2.954964E+04
        61  27 -1.140474E+05  8.392450E+04 -7.271517E+04 -1.164535E+04 -3.265119E+04  5.569097E+03
        62   1  1.127329E+05  1.074840E+06  7.111996E+04 -1.219916E+04  3.365520E+04  5.361958E+03
        62   2  1.101054E+05  1.065717E+06  6.743025E+04 -1.140418E+04  3.449087E+04 -1.048608E+03
        62   3  1.087439E+05  1.057756E+06  6.822912E+04 -1.197163E+04  3.277263E+04 -7.459833E+03
        62   4  2.084938E+02  5.821944E+05  6.656060E+02 -1.198697E+04  3.365890E+04  2.879254E+02
        62   5  1.077734E+02  5.821471E+05  5.456012E+02 -1.130573E+04  3.449331E+04  1.606390E+01
        62   6  2.088910E+02  5.821972E+05  6.564305E+02 -1.198700E+04  3.277277E+04 -2.565395E+02
        62   7 -1.123269E+05  8.979422E+04 -6.979228E+04 -1.177493E+04  3.366261E+04 -4.782259E+03
        62   8 -1.099001E+05  9.881414E+04 -6.634178E+04 -1.120735E+04  3.449575E+04  1.079945E+03
        62   9 -1.083362E+05  1.068669E+05 -6.691930E+04 -1.200234E+04  3.277290E+04  6.941482E+03
        62  10  1.127317E+05  1.074839E+06  7.111777E+04 -1.219931E+04 -3.000460E-09 -1.296945E-10
        62  11  1.101041E+05  1.065717E+06  6.742802E+04 -1.140415E+04  3.890221E-10  7.275113E-10
        62  12  1.087427E+05  1.057756E+06  6.822699E+04 -1.197143E+04  5.395482E-10  2.679879E-09
        62  13  2.072769E+02  5.821941E+05  6.634763E+02 -1.198698E+04  1.239038E-09  2.707627E-10
        62  14  1.064954E+02  5.821468E+05  5.433648E+02 -1.130573E+04  2.553589E-09 -5.214853E-10
        62  15  2.077373E+02  5.821970E+05  6.544114E+02 -1.198699E+04 -8.235305E-10  4.204578E-10
        62  16 -1.123282E+05  8.979389E+04 -6.979445E+04 -1.177481E+04 -2.475353E-09 -1.411063E-10
        62  17 -1.099014E+05  9.881382E+04 -6.634402E+04 -1.120738E+04 -1.373112E-09 -9.317731E-10
        62  18 -1.083374E+05  1.068666E+05 -6.692141E+04 -1.200253E+04 -6.078040E-10 -2.568462E-09
        62  19  1.127329E+05  1.074840E+06  7.111996E+04 -1.219916E+04 -3.365520E+04 -5.361958E+03
        62  20  1.101054E+05  1.065717E+06  6.743025E+04 -1.140418E+04 -3.449087E+04  1.048608E+03
        62  21  1.087439E+05  1.057756E+06  6.822912E+04 -1.197163E+04 -3.277263E+04  7.459833E+03
        62  22  2.084938E+02  5.821944E+05  6.656060E+02 -1.198697E+04 -3.365890E+04 -2.879254E+02
        62  23  1.077734E+02  5.821471E+05  5.456012E+02 -1.130573E+04 -3.449331E+04 -1.606390E+01
        62  24  2.088910E+02  5.821972E+05  6.564305E+02 -1.198700E+04 -3.277277E+04  2.565395E+02
        62  25 -1.123269E+05  8.979422E+04 -6.979228E+04 -1.177493E+04 -3.366261E+04  4.782259E+03
        62  26 -1.099001E+05  9.881414E+04 -6.634178E+04 -1.120735E+04 -3.449575E+04 -1.079945E+03
        62  27 -1.083362E+05  1.068669E+05 -6.691930E+04 -1.200234E+04 -3.277290E+04 -6.941482E+03
        63   1  1.081358E+05  1.053098E+06  6.963962E+04 -1.219189E+04  3.120264E+04 -8.378157E+03
        63   2  1.085615E+05  1.042642E+06  7.981477E+04 -1.037845E+04  2.338957E+04 -3.061489E+04
        63   3  1.137057E+05  1.036266E+06  1.056326E+05 -1.067711E+04  6.601005E+03 -5.285662E+04
        63   4  2.865278E+02  5.822521E+05  7.894385E+02 -1.215380E+04  3.120204E+04 -3.667374E+02
        63   5  8.363037E+02  5.820836E+05  1.308030E+03 -1.109704E+04  2.337863E+04 -1.031875E+03
        63   6  2.364518E+03  5.822547E+05  2.504781E+03 -1.215310E+04  6.576715E+03 -1.702098E+03
        63   7 -1.075729E+05  1.116290E+05 -6.806431E+04 -1.211572E+04  3.120144E+04  7.638866E+03
        63   8 -1.068997E+05  1.217349E+05 -7.720243E+04 -1.181506E+04  2.336761E+04  2.852993E+04
        63   9 -1.089895E+05  1.284400E+05 -1.006265E+05 -1.362798E+04  6.552172E+03  4.941541E+04
        63  10  1.081347E+05  1.053098E+06  6.963766E+04 -1.219168E+04  1.090791E-09  3.474343E-09
        63  11  1.085607E+05  1.042641E+06  7.981199E+04 -1.037787E+04  4.011913E-09 -9.567456E-10
        63  12  1.137049E+05  1.036263E+06  1.056272E+05 -1.067683E+04  4.103125E-11 -3.128392E-09
        63  13  2.854820E+02  5.822518E+05  7.876082E+02 -1.215380E+04  2.674663E-09  3.852283E-10
        63  14  8.357164E+02  5.820834E+05  1.307000E+03 -1.109702E+04  2.426657E-09 -7.970500E-10
        63  15  2.364471E+03  5.822547E+05  2.504694E+03 -1.215309E+04  4.537957E-10  5.715289E-10
        63  16 -1.075740E+05  1.116287E+05 -6.806625E+04 -1.211592E+04  5.621319E-10 -3.922327E-09
        63  17 -1.069005E+05  1.217339E+05 -7.720498E+04 -1.181559E+04  1.191825E-09  6.192525E-10
        63  18 -1.089902E+05  1.284374E+05 -1.006312E+05 -1.362824E+04  1.714098E-09  3.376129E-09
        63  19  1.081358E+05  1.053098E+06  6.963962E+04 -1.219189E+04 -3.120264E+04  8.378157E+03
        63  20  1.085615E+05  1.042642E+06  7.981477E+04 -1.037845E+04 -2.338957E+04  3.061489E+04
        63  21  1.137057E+05  1.036266E+06  1.056326E+05 -1.067711E+04 -6.601005E+03  5.285662E+04
        63  22  2.865278E+02  5.822521E+05  7.894385E+02 -1.215380E+04 -3.120204E+04  3.667374E+02
        63  23  8.363037E+02  5.820836E+05  1.308030E+03 -1.109704E+04 -2.337863E+04  1.031875E+03
        63  24  2.364518E+03  5.822547E+05  2.504781E+03 -1.215310E+04 -6.576715E+03  1.702098E+03
        63  25 -1.075729E+05  1.116290E+05 -6.806431E+04 -1.211572E+04 -3.120144E+04 -7.638866E+03
        63  26 -1.068997E+05  1.217349E+05 -7.720243E+04 -1.181506E+04 -2.336761E+04 -2.852993E+04
        63  27 -1.089895E+05  1.284400E+05 -1.006265E+05 -1.362798E+04 -6.552172E+03 -4.941541E+04
        64   1  3.155577E+05  1.430238E+05  4.041634E+05 -5.451399E+03 -1.527519E+03  2.556338E+05
        64   2 -4.046302E+04  8.168854E+04  1.881342E+05 -1.204820E+03 -1.085842E+03  1.683554E+05
        64   3  2.032335E+04  1.424213E+05  1.344512E+05 -3.817810E+02 -6.137629E+02  8.107415E+04
        64   4  2.864809E+05  2.700987E+04  3.751526E+05 -9.974719E+01 -1.525353E+03  2.556040E+05
        64   5 -6.942753E+04 -3.405335E+04  1.591989E+05  6.725006E+02 -1.085386E+03  1.683391E+05
        64   6 -8.490673E+03  2.696901E+04  1.056035E+05 -1.978457E+03 -6.140480E+02  8.107134E+04
        64   7  2.574032E+05 -8.899178E+04  3.461407E+05  5.250923E+03 -1.523186E+03  2.555741E+05
        64   8 -9.839303E+04 -1.497831E+05  1.302627E+05  2.549495E+03 -1.084931E+03  1.683228E+05
        64   9 -3.730569E+04 -8.847123E+04  7.675474E+04 -3.574808E+03 -6.143332E+02  8.106853E+04
        64  10  3.155402E+05  1.429536E+05  4.040407E+05 -5.451085E+03 -7.439519E-10 -1.544989E-11
        64  11 -4.047063E+04  8.165812E+04  1.880809E+05 -1.204673E+03 -3.088089E-09 -1.325434E-11
        64  12  2.032158E+04  1.424143E+05  1.344389E+05 -3.817409E+02  2.042179E-09 -1.507524E-10
        64  13  2.864634E+05  2.693974E+04  3.750298E+05 -9.943335E+01 -3.015920E-09  2.841231E-11
        64  14 -6.943513E+04 -3.408378E+04  1.591457E+05  6.726478E+02  1.133373E-09 -4.339786E-11
        64  15 -8.492437E+03  2.696195E+04  1.055911E+05 -1.978417E+03  7.604195E-10  3.135279E-11
        64  16  2.573857E+05 -8.906191E+04  3.460179E+05  5.251237E+03 -1.821004E-09  4.009848E-11
        64  17 -9.840064E+04 -1.498135E+05  1.302094E+05  2.549642E+03  1.257631E-10  2.469601E-11
        64  18 -3.730745E+04 -8.847828E+04  7.674238E+04 -3.574768E+03 -1.299655E-10 -9.294222E-12
        64  19  3.155577E+05  1.430238E+05  4.041634E+05 -5.451399E+03  1.527519E+03 -2.556338E+05
        64  20 -4.046302E+04  8.168854E+04  1.881342E+05 -1.204820E+03  1.085842E+03 -1.683554E+05
        64  21  2.032335E+04  1.424213E+05  1.344512E+05 -3.817810E+02  6.137629E+02 -8.107415E+04
        64  22  2.864809E+05  2.700987E+04  3.751526E+05 -9.974719E+01  1.525353E+03 -2.556040E+05
        64  23 -6.942753E+04 -3.405335E+04  1.591989E+05  6.725006E+02  1.085386E+03 -1.683391E+05
        64  24 -8.490673E+03  2.696901E+04  1.056035E+05 -1.978457E+03  6.140480E+02 -8.107134E+04
        64  25  2.574032E+05 -8.899178E+04  3.461407E+05  5.250923E+03  1.523186E+03 -2.555741E+05
        64  26 -9.839303E+04 -1.497831E+05  1.302627E+05  2.549495E+03  1.084931E+03 -1.683228E+05
        64  27 -3.730569E+04 -8.847123E+04  7.675474E+04 -3.574808E+03  6.143332E+02 -8.106853E+04
        65   1  4.902840E+04  2.122453E+04  9.139651E+04 -2.007771E+03 -5.569891E+02  6.348052E+04
        65   2 -6.711410E+03  1.131341E+04  4.535772E+04  4.275095E+02 -3.859876E+02  4.180822E+04
        65   3  3.110959E+03  2.064476E+04  2.982737E+04 -1.342155E+03 -2.146405E+02  2.013612E+04
        65   4  4.473533E+04  4.126958E+03  8.711944E+04 -1.161166E+03 -5.569127E+02  6.348027E+04
        65   5 -1.091980E+04 -5.497764E+03  4.115431E+04  7.195974E+02 -3.859789E+02  4.180848E+04
        65   6 -1.011894E+03  4.120397E+03  2.569785E+04 -1.604586E+03 -2.146609E+02  2.013688E+04
        65   7  4.044225E+04 -1.297034E+04  8.284235E+04 -3.145831E+02 -5.568362E+02  6.348002E+04
        65   8 -1.512821E+04 -2.230868E+04  3.695087E+04  1.011678E+03 -3.859702E+02  4.180875E+04
        65   9 -5.134767E+03 -1.240372E+04  2.156831E+04 -1.867010E+03 -2.146812E+02  2.013765E+04
        65  10  4.902732E+04  2.122020E+04  9.138894E+04 -2.007743E+03  2.669660E-09 -7.251696E-11
        65  11 -6.711880E+03  1.131154E+04  4.535443E+04  4.275225E+02  4.084070E-09  5.796976E-11
        65  12  3.110850E+03  2.064432E+04  2.982661E+04 -1.342151E+03  1.474006E-09  1.001005E-10
        65  13  4.473425E+04  4.122631E+03  8.711187E+04 -1.161137E+03 -1.734178E-09 -4.957423E-11
        65  14 -1.092027E+04 -5.499640E+03  4.115102E+04  7.196104E+02 -6.417025E-10 -2.504122E-11
        65  15 -1.012003E+03  4.119962E+03  2.569709E+04 -1.604583E+03  2.816552E-09 -7.451265E-11
        65  16  4.044117E+04 -1.297467E+04  8.283477E+04 -3.145546E+02 -6.074523E-09  6.488421E-11
        65  17 -1.512868E+04 -2.231056E+04  3.694759E+04  1.011691E+03 -6.980981E-10 -1.794202E-11
        65  18 -5.134876E+03 -1.240415E+04  2.156755E+04 -1.867006E+03 -4.611232E-09 -1.597339E-10
        65  19  4.902840E+04  2.122453E+04  9.139651E+04 -2.007771E+03  5.569891E+02 -6.348052E+04
        65  20 -6.711410E+03  1.131341E+04  4.535772E+04  4.275095E+02  3.859876E+02 -4.180822E+04
        65  21  3.110959E+03  2.064476E+04  2.982737E+04 -1.342155E+03  2.146405E+02 -2.013612E+04
        65  22  4.473533E+04  4.126958E+03  8.711944E+04 -1.161166E+03  5.569127E+02 -6.348027E+04
        65  23 -1.091980E+04 -5.497764E+03  4.115431E+04  7.195974E+02  3.859789E+02 -4.180848E+04
        65  24 -1.011894E+03  4.120397E+03  2.569785E+04 -1.604586E+03  2.146609E+02 -2.013688E+04
        65  25  4.044225E+04 -1.297034E+04  8.284235E+04 -3.145831E+02  5.568362E+02 -6.348002E+04
        65  26 -1.512821E+04 -2.230868E+04  3.695087E+04  1.011678E+03  3.859702E+02 -4.180875E+04
        65  27 -5.134767E+03 -1.240372E+04  2.156831E+04 -1.867010E+03  2.146812E+02 -2.013765E+04
        66   1 -1.376470E+04 -8.178587E+04 -1.504707E+02 -9.976468E+02 -2.373832E+02  1.589306E+04
        66   2 -2.334092E+04 -8.590270E+04 -1.121997E+04  1.310463E+03 -2.550333E+02  1.075925E+04
        66   3 -1.834391E+04 -8.237084E+04 -1.463617E+04 -9.467179E+02 -1.056596E+02  5.627016E+03
        66   4  7.072939E+03  1.543493E+03  2.068237E+04 -1.492213E+03 -2.374298E+02  1.589817E+04
        66   5 -2.428655E+03 -2.279804E+03  9.685466E+03  7.658053E+02 -2.550363E+02  1.075975E+04
        66   6  2.642938E+03  1.546101E+03  6.344426E+03 -1.541434E+03 -1.056281E+02  5.622904E+03
        66   7  2.791005E+04  8.487915E+04  4.151468E+04 -1.986831E+03 -2.374764E+02  1.590329E+04
        66   8  1.848308E+04  8.134943E+04  3.059037E+04  2.210881E+02 -2.550392E+02  1.076025E+04
        66   9  2.362925E+04  8.546943E+04  2.732449E+04 -2.136217E+03 -1.055967E+02  5.618792E+03
        66  10 -1.376477E+04 -8.178614E+04 -1.509455E+02 -9.976438E+02 -3.621730E-09 -2.099595E-12
        66  11 -2.334095E+04 -8.590283E+04 -1.122018E+04  1.310465E+03 -4.677041E-09 -3.175815E-11
        66  12 -1.834392E+04 -8.237088E+04 -1.463623E+04 -9.467174E+02 -7.697926E-10 -4.599892E-11
        66  13  7.072871E+03  1.543221E+03  2.068189E+04 -1.492210E+03 -2.043998E-09 -5.446584E-12
        66  14 -2.428686E+03 -2.279928E+03  9.685248E+03  7.658075E+02 -2.148110E-09 -4.249911E-13
        66  15  2.642929E+03  1.546067E+03  6.344367E+03 -1.541433E+03 -8.684371E-10 -8.403823E-11
        66  16  2.790998E+04  8.487888E+04  4.151421E+04 -1.986828E+03 -1.468653E-09  2.649942E-11
        66  17  1.848305E+04  8.134931E+04  3.059015E+04  2.210903E+02 -3.709180E-09 -3.552516E-11
        66  18  2.362924E+04  8.546939E+04  2.732444E+04 -2.136217E+03  2.629943E-09 -2.028191E-11
        66  19 -1.376470E+04 -8.178587E+04 -1.504707E+02 -9.976468E+02  2.373832E+02 -1.589306E+04
        66  20 -2.334092E+04 -8.590270E+04 -1.121997E+04  1.310463E+03  2.550333E+02 -1.075925E+04
        66  21 -1.834391E+04 -8.237084E+04 -1.463617E+04 -9.467179E+02  1.056596E+02 -5.627016E+03
        66  22  7.072939E+03  1.543493E+03  2.068237E+04 -1.492213E+03  2.374298E+02 -1.589817E+04
        66  23 -2.428655E+03 -2.279804E+03  9.685466E+03  7.658053E+02  2.550363E+02 -1.075975E+04
        66  24  2.642938E+03  1.546101E+03  6.344426E+03 -1.541434E+03  1.056281E+02 -5.622904E+03
        66  25  2.791005E+04  8.487915E+04  4.151468E+04 -1.986831E+03  2.374764E+02 -1.590329E+04
        66  26  1.848308E+04  8.134943E+04  3.059037E+04  2.210881E+02  2.550392E+02 -1.076025E+04
        66  27  2.362925E+04  8.546943E+04  2.732449E+04 -2.136217E+03  1.055967E+02 -5.618792E+03
        67   1 -8.617263E+06 -2.717717E+06 -1.714606E+06 -3.062833E+06 -9.160124E+05 -3.353407E+05
        67   2 -8.436241E+06 -1.399088E+06 -8.783369E+05 -3.257008E+06 -5.922267E+05 -1.833246E+05
        67   3 -8.796475E+06 -1.370062E+06 -6.484484E+05 -3.105340E+06 -2.590006E+05 -5.607873E+04
        67   4 -7.768094E+06 -2.086222E+06 -1.419844E+06 -2.520466E+06 -8.993945E+05 -3.295701E+05
        67   5 -7.421639E+06 -9.252239E+05 -5.904602E+05 -2.889691E+06 -5.868756E+05 -1.813961E+05
        67   6 -7.613470E+06 -1.050476E+06 -3.577934E+05 -2.913346E+06 -2.648296E+05 -5.823190E+04
        67   7 -6.917979E+06 -1.453833E+06 -1.125129E+06 -1.977216E+06 -8.827509E+05 -3.237683E+05
        67   8 -6.406000E+06 -4.511299E+05 -3.026815E+05 -2.521768E+06 -5.815141E+05 -1.794615E+05
        67   9 -6.429065E+06 -7.309276E+05 -6.723112E+04 -2.721092E+06 -2.706706E+05 -6.038662E+04
        67  10 -8.618207E+06 -2.718069E+06 -1.716423E+06 -3.063083E+06 -4.493986E-09  5.209397E-10
        67  11 -8.436632E+06 -1.399221E+06 -8.790706E+05 -3.257096E+06 -5.630746E-09  2.820012E-09
        67  12 -8.796549E+06 -1.370083E+06 -6.485825E+05 -3.105351E+06  3.903095E-09 -9.678246E-11
        67  13 -7.769002E+06 -2.086561E+06 -1.421593E+06 -2.520706E+06 -3.625731E-09  1.334136E-09
        67  14 -7.422022E+06 -9.253537E+05 -5.911792E+05 -2.889778E+06  3.574687E-09  2.098348E-09
        67  15 -7.613547E+06 -1.050499E+06 -3.579335E+05 -2.913359E+06 -3.169874E-09 -2.102198E-09
        67  16 -6.918853E+06 -1.454159E+06 -1.126810E+06 -1.977448E+06  3.037049E-09  1.939379E-09
        67  17 -6.406375E+06 -4.512570E+05 -3.033859E+05 -2.521853E+06  6.927443E-09  2.146564E-09
        67  18 -6.429146E+06 -7.309515E+05 -6.737737E+04 -2.721105E+06 -3.515110E-09 -3.665401E-09
        67  19 -8.617263E+06 -2.717717E+06 -1.714606E+06 -3.062833E+06  9.160124E+05  3.353407E+05
        67  20 -8.436241E+06 -1.399088E+06 -8.783369E+05 -3.257008E+06  5.922267E+05  1.833246E+05
        67  21 -8.796475E+06 -1.370062E+06 -6.484484E+05 -3.105340E+06  2.590006E+05  5.607873E+04
        67  22 -7.768094E+06 -2.086222E+06 -1.419844E+06 -2.520466E+06  8.993945E+05  3.295701E+05
        67  23 -7.421639E+06 -9.252239E+05 -5.904602E+05 -2.889691E+06  5.868756E+05  1.813961E+05
        67  24 -7.613470E+06 -1.050476E+06 -3.577934E+05 -2.913346E+06  2.648296E+05  5.823190E+04
        67  25 -6.917979E+06 -1.453833E+06 -1.125129E+06 -1.977216E+06  8.827509E+05  3.237683E+05
        67  26 -6.406000E+06 -4.511299E+05 -3.026815E+05 -2.521768E+06  5.815141E+05  1.794615E+05
        67  27 -6.429065E+06 -7.309276E+05 -6.723112E+04 -2.721092E+06  2.706706E+05  6.038662E+04
        68   1 -8.608246E+06 -1.633431E+06 -5.773817E+05 -3.152353E+06 -2.138637E+05 -4.306748E+04
        68   2 -8.560506E+06 -1.463520E+06 -4.150550E+05 -3.151338E+06 -1.408887E+05 -1.438273E+04
        68   3 -8.554785E+06 -1.458214E+06 -3.469296E+05 -3.137589E+06 -6.684027E+04  1.148478E+04
        68   4 -7.562502E+06 -1.204540E+06 -2.911492E+05 -2.834272E+06 -2.130434E+05 -4.277399E+04
        68   5 -7.533127E+06 -1.065281E+06 -1.390046E+05 -2.862130E+06 -1.412653E+05 -1.453211E+04
        68   6 -7.545428E+06 -1.090235E+06 -7.997899E+04 -2.877276E+06 -6.841701E+04  1.088694E+04
        68   7 -6.515684E+06 -7.755308E+05 -5.018093E+03 -2.515681E+06 -2.122212E+05 -4.247969E+04
        68   8 -6.504711E+06 -6.669650E+05  1.369517E+05 -2.572479E+06 -1.416425E+05 -1.468169E+04
        68   9 -6.535070E+06 -7.222112E+05  1.868845E+05 -2.616583E+06 -6.999655E+04  1.028816E+04
        68  10 -8.608296E+06 -1.633446E+06 -5.774725E+05 -3.152361E+06  3.134389E-10 -1.350546E-09
        68  11 -8.560528E+06 -1.463526E+06 -4.150932E+05 -3.151339E+06  4.314937E-10  1.488555E-09
        68  12 -8.554790E+06 -1.458216E+06 -3.469383E+05 -3.137588E+06 -3.390787E-09  9.815379E-10
        68  13 -7.562552E+06 -1.204555E+06 -2.912392E+05 -2.834280E+06 -3.617800E-09 -2.951932E-09
        68  14 -7.533149E+06 -1.065287E+06 -1.390430E+05 -2.862132E+06 -3.499340E-09  1.152686E-09
        68  15 -7.545433E+06 -1.090236E+06 -7.998810E+04 -2.877276E+06 -4.583876E-10 -3.110591E-10
        68  16 -6.515733E+06 -7.755450E+05 -5.107154E+03 -2.515688E+06  2.262556E-09 -9.531156E-10
        68  17 -6.504733E+06 -6.669707E+05  1.369131E+05 -2.572480E+06 -4.482042E-09  4.298089E-10
        68  18 -6.535075E+06 -7.222127E+05  1.868750E+05 -2.616583E+06 -4.784476E-09 -1.089554E-09
        68  19 -8.608246E+06 -1.633431E+06 -5.773817E+05 -3.152353E+06  2.138637E+05  4.306748E+04
        68  20 -8.560506E+06 -1.463520E+06 -4.150550E+05 -3.151338E+06  1.408887E+05  1.438273E+04
        68  21 -8.554785E+06 -1.458214E+06 -3.469296E+05 -3.137589E+06  6.684027E+04 -1.148478E+04
        68  22 -7.562502E+06 -1.204540E+06 -2.911492E+05 -2.834272E+06  2.130434E+05  4.277399E+04
        68  23 -7.533127E+06 -1.065281E+06 -1.390046E+05 -2.862130E+06  1.412653E+05  1.453211E+04
        68  24 -7.545428E+06 -1.090235E+06 -7.997899E+04 -2.877276E+06  6.841701E+04 -1.088694E+04
        68  25 -6.515684E+06 -7.755308E+05 -5.018093E+03 -2.515681E+06  2.122212E+05  4.247969E+04
        68  26 -6.504711E+06 -6.669650E+05  1.369517E+05 -2.572479E+06  1.416425E+05  1.468169E+04
        68  27 -6.535070E+06 -7.222112E+05  1.868845E+05 -2.616583E+06  6.999655E+04 -1.028816E+04
        69   1 -8.449200E+06 -1.460854E+06 -3.071698E+05 -3.125789E+06 -5.524173E+04  1.392418E+04
        69   2 -8.394018E+06 -1.394926E+06 -2.572336E+05 -3.082921E+06 -3.749424E+04  1.748747E+04
        69   3 -8.302666E+06 -1.388205E+06 -2.239493E+05 -3.085634E+06 -1.943758E+04  2.021616E+04
        69   4 -7.534528E+06 -1.111368E+06 -6.248209E+04 -2.873427E+06 -5.637215E+04  1.349398E+04
        69   5 -7.551686E+06 -1.075489E+06 -3.227963E+04 -2.852988E+06 -3.898962E+04  1.692155E+04
        69   6 -7.532596E+06 -1.098723E+06 -1.841637E+04 -2.878129E+06 -2.130031E+04  1.951411E+04
        69   7 -6.619035E+06 -7.618266E+05  1.821317E+05 -2.620721E+06 -5.750438E+04  1.306309E+04
        69   8 -6.708660E+06 -7.560085E+05  1.926115E+05 -2.622769E+06 -4.048723E+04  1.635479E+04
        69   9 -6.761948E+06 -8.092076E+05  1.870638E+05 -2.670390E+06 -2.316560E+04  1.881111E+04
        69  10 -8.449203E+06 -1.460855E+06 -3.071760E+05 -3.125788E+06  9.283084E-12 -1.327167E-10
        69  11 -8.394019E+06 -1.394927E+06 -2.572369E+05 -3.082920E+06  2.727931E-09 -6.694671E-10
        69  12 -8.302666E+06 -1.388205E+06 -2.239508E+05 -3.085634E+06  2.071221E-09  4.937972E-10
        69  13 -7.534531E+06 -1.111369E+06 -6.248846E+04 -2.873426E+06 -2.337422E-09 -1.457797E-09
        69  14 -7.551687E+06 -1.075490E+06 -3.228304E+04 -2.852987E+06  4.514529E-09 -4.367663E-11
        69  15 -7.532597E+06 -1.098723E+06 -1.841794E+04 -2.878129E+06  8.175044E-10  9.180944E-10
        69  16 -6.619039E+06 -7.618277E+05  1.821251E+05 -2.620721E+06  8.725005E-10 -1.374524E-09
        69  17 -6.708662E+06 -7.560092E+05  1.926079E+05 -2.622768E+06 -4.487200E-09 -1.147535E-10
        69  18 -6.761949E+06 -8.092081E+05  1.870622E+05 -2.670390E+06  1.282507E-09  1.885715E-09
        69  19 -8.449200E+06 -1.460854E+06 -3.071698E+05 -3.125789E+06  5.524173E+04 -1.392418E+04
        69  20 -8.394018E+06 -1.394926E+06 -2.572336E+05 -3.082921E+06  3.749424E+04 -1.748747E+04
        69  21 -8.302666E+06 -1.388205E+06 -2.239493E+05 -3.085634E+06  1.943758E+04 -2.021616E+04
        69  22 -7.534528E+06 -1.111368E+06 -6.248209E+04 -2.873427E+06  5.637215E+04 -1.349398E+04
        69  23 -7.551686E+06 -1.075489E+06 -3.227963E+04 -2.852988E+06  3.898962E+04 -1.692155E+04
        69  24 -7.532596E+06 -1.098723E+06 -1.841637E+04 -2.878129E+06  2.130031E+04 -1.951411E+04
        69  25 -6.619035E+06 -7.618266E+05  1.821317E+05 -2.620721E+06  5.750438E+04 -1.306309E+04
        69  26 -6.708660E+06 -7.560085E+05  1.926115E+05 -2.622769E+06  4.048723E+04 -1.635479E+04
        69  27 -6.761948E+06 -8.092076E+05  1.870638E+05 -2.670390E+06  2.316560E+04 -1.881111E+04
        70   1 -8.164052E+06 -1.344599E+06 -1.837744E+05 -3.054277E+06 -1.585660E+04  1.887922E+04
        70   2 -8.090752E+06 -1.273922E+06 -1.508249E+05 -2.992180E+06 -9.742960E+03  1.630593E+04
        70   3 -7.958477E+06 -1.265031E+06 -1.216887E+05 -2.998273E+06 -3.472040E+03  1.329783E+04
        70   4 -7.528180E+06 -1.104153E+06 -1.440942E+04 -2.881311E+06 -1.775271E+04  1.816588E+04
        70   5 -7.557561E+06 -1.072573E+06 -8.618883E+03 -2.847473E+06 -1.183734E+04  1.551966E+04
        70   6 -7.527941E+06 -1.102736E+06 -6.479915E+03 -2.881825E+06 -5.765638E+03  1.243855E+04
        70   7 -6.891910E+06 -8.636808E+05  1.549209E+05 -2.708181E+06 -1.965099E+04  1.745174E+04
        70   8 -7.024091E+06 -8.712075E+05  1.335619E+05 -2.702652E+06 -1.393372E+04  1.473265E+04
        70   9 -7.097227E+06 -9.404304E+05  1.087116E+05 -2.765303E+06 -8.060987E+03  1.157861E+04
        70  10 -8.164052E+06 -1.344599E+06 -1.837755E+05 -3.054277E+06 -3.106758E-09  9.691705E-10
        70  11 -8.090753E+06 -1.273922E+06 -1.508255E+05 -2.992180E+06 -2.260707E-09 -4.459060E-10
        70  12 -7.958477E+06 -1.265032E+06 -1.216891E+05 -2.998273E+06 -5.629561E-09  1.062675E-09
        70  13 -7.528181E+06 -1.104153E+06 -1.441063E+04 -2.881311E+06 -7.677499E-10  4.142327E-10
        70  14 -7.557561E+06 -1.072573E+06 -8.619597E+03 -2.847472E+06 -2.086674E-09  2.893519E-10
        70  15 -7.527941E+06 -1.102736E+06 -6.480267E+03 -2.881825E+06 -3.562832E-10  8.323804E-10
        70  16 -6.891910E+06 -8.636812E+05  1.549196E+05 -2.708181E+06  9.865333E-10  1.200303E-09
        70  17 -7.024092E+06 -8.712078E+05  1.335611E+05 -2.702651E+06  1.595861E-10  4.749333E-10
        70  18 -7.097228E+06 -9.404306E+05  1.087112E+05 -2.765303E+06  1.321097E-09 -5.928212E-10
        70  19 -8.164052E+06 -1.344599E+06 -1.837744E+05 -3.054277E+06  1.585660E+04 -1.887922E+04
        70  20 -8.090752E+06 -1.273922E+06 -1.508249E+05 -2.992180E+06  9.742960E+03 -1.630593E+04
        70  21 -7.958477E+06 -1.265031E+06 -1.216887E+05 -2.998273E+06  3.472040E+03 -1.329783E+04
        70  22 -7.528180E+06 -1.104153E+06 -1.440942E+04 -2.881311E+06  1.775271E+04 -1.816588E+04
        70  23 -7.557561E+06 -1.072573E+06 -8.618883E+03 -2.847473E+06  1.183734E+04 -1.551966E+04
        70  24 -7.527941E+06 -1.102736E+06 -6.479915E+03 -2.881825E+06  5.765638E+03 -1.243855E+04
        70  25 -6.891910E+06 -8.636808E+05  1.549209E+05 -2.708181E+06  1.965099E+04 -1.745174E+04
        70  26 -7.024091E+06 -8.712075E+05  1.335619E+05 -2.702652E+06  1.393372E+04 -1.473265E+04
        70  27 -7.097227E+06 -9.404304E+05  1.087116E+05 -2.765303E+06  8.060987E+03 -1.157861E+04
        71   1 -7.791233E+06 -1.204720E+06 -7.661047E+04 -2.955964E+06 -1.298823E+03  1.080566E+04
        71   2 -7.707670E+06 -1.126026E+06 -4.701538E+04 -2.884908E+06  4.432352E+03  7.191560E+03
        71   3 -7.557172E+06 -1.117072E+06 -2.075297E+04 -2.891760E+06  1.020039E+04  3.475735E+03
        71   4 -7.526165E+06 -1.104639E+06 -6.333236E+03 -2.883923E+06 -3.633316E+03  9.931867E+03
        71   5 -7.559695E+06 -1.070213E+06 -7.570316E+03 -2.844804E+06  2.051203E+03  6.300734E+03
        71   6 -7.526294E+06 -1.105518E+06 -1.210121E+04 -2.883597E+06  7.771774E+03  2.567640E+03
        71   7 -7.261026E+06 -1.004553E+06  6.393816E+04 -2.811853E+06 -5.968925E+03  9.057652E+03
        71   8 -7.411697E+06 -1.014398E+06  3.187310E+04 -2.804690E+06 -3.305927E+02  5.409666E+03
        71   9 -7.495415E+06 -1.093963E+06 -3.449443E+03 -2.875434E+06  5.343002E+03  1.659488E+03
        71  10 -7.791233E+06 -1.204721E+06 -7.661069E+04 -2.955964E+06 -3.130189E-09  2.238061E-09
        71  11 -7.707670E+06 -1.126026E+06 -4.701552E+04 -2.884908E+06 -3.412711E-09  8.359181E-10
        71  12 -7.557172E+06 -1.117072E+06 -2.075319E+04 -2.891760E+06  1.823263E-09 -5.334036E-10
        71  13 -7.526165E+06 -1.104639E+06 -6.333445E+03 -2.883923E+06 -2.848970E-09  1.251428E-09
        71  14 -7.559695E+06 -1.070213E+06 -7.570399E+03 -2.844804E+06  5.081442E-09  2.323619E-09
        71  15 -7.526294E+06 -1.105518E+06 -1.210134E+04 -2.883597E+06 -2.444551E-10  1.556666E-10
        71  16 -7.261027E+06 -1.004553E+06  6.393794E+04 -2.811853E+06  2.188621E-09 -6.094815E-10
        71  17 -7.411697E+06 -1.014398E+06  3.187305E+04 -2.804690E+06  3.868780E-09  2.081054E-09
        71  18 -7.495415E+06 -1.093963E+06 -3.449502E+03 -2.875434E+06 -3.739865E-10  9.729616E-10
        71  19 -7.791233E+06 -1.204720E+06 -7.661047E+04 -2.955964E+06  1.298823E+03 -1.080566E+04
        71  20 -7.707670E+06 -1.126026E+06 -4.701538E+04 -2.884908E+06 -4.432352E+03 -7.191560E+03
        71  21 -7.557172E+06 -1.117072E+06 -2.075297E+04 -2.891760E+06 -1.020039E+04 -3.475735E+03
        71  22 -7.526165E+06 -1.104639E+06 -6.333236E+03 -2.883923E+06  3.633316E+03 -9.931867E+03
        71  23 -7.559695E+06 -1.070213E+06 -7.570316E+03 -2.844804E+06 -2.051203E+03 -6.300734E+03
        71  24 -7.526294E+06 -1.105518E+06 -1.210121E+04 -2.883597E+06 -7.771774E+03 -2.567640E+03
        71  25 -7.261026E+06 -1.004553E+06  6.393816E+04 -2.811853E+06  5.968925E+03 -9.057652E+03
        71  26 -7.411697E+06 -1.014398E+06  3.187310E+04 -2.804690E+06  3.305927E+02 -5.409666E+03
        71  27 -7.495415E+06 -1.093963E+06 -3.449443E+03 -2.875434E+06 -5.343002E+03 -1.659488E+03
        72   1 -7.383197E+06 -1.050926E+06  2.322232E+04 -2.846644E+06  1.361876E+04  1.257532E+03
        72   2 -7.300461E+06 -9.715074E+05  4.222326E+04 -2.775127E+06  2.881771E+04  1.130630E+03
        72   3 -7.157578E+06 -9.719463E+05  4.771334E+04 -2.777338E+06  4.389155E+04  1.354461E+03
        72   4 -7.527262E+06 -1.103858E+06 -1.534868E+04 -2.884135E+06  1.115316E+04  3.355145E+02
        72   5 -7.558086E+06 -1.069057E+06 -2.650672E+04 -2.845364E+06  2.650942E+04  2.665621E+02
        72   6 -7.528809E+06 -1.114151E+06 -5.130606E+04 -2.880328E+06  4.173790E+04  5.473693E+02
        72   7 -7.671306E+06 -1.156790E+06 -5.392116E+04 -2.921617E+06  8.688223E+03 -5.862723E+02
        72   8 -7.815644E+06 -1.166602E+06 -9.524219E+04 -2.915574E+06  2.420221E+04 -5.971011E+02
        72   9 -7.899904E+06 -1.256346E+06 -1.503375E+05 -2.983261E+06  3.958567E+04 -2.591691E+02
        72  10 -7.383197E+06 -1.050926E+06  2.322196E+04 -2.846644E+06 -1.517167E-09 -1.709814E-09
        72  11 -7.300462E+06 -9.715077E+05  4.222168E+04 -2.775127E+06 -6.953430E-10 -1.573909E-09
        72  12 -7.157580E+06 -9.719469E+05  4.770968E+04 -2.777338E+06  2.576399E-09 -3.561919E-10
        72  13 -7.527262E+06 -1.103858E+06 -1.534892E+04 -2.884135E+06  6.415880E-10 -5.531200E-10
        72  14 -7.558086E+06 -1.069057E+06 -2.650805E+04 -2.845364E+06 -1.194536E-09 -1.200540E-09
        72  15 -7.528811E+06 -1.114151E+06 -5.130937E+04 -2.880328E+06  1.457996E-09 -2.811758E-10
        72  16 -7.671306E+06 -1.156790E+06 -5.392130E+04 -2.921617E+06 -1.072987E-09  1.851763E-10
        72  17 -7.815645E+06 -1.166602E+06 -9.524330E+04 -2.915574E+06  1.774246E-09 -1.490242E-09
        72  18 -7.899906E+06 -1.256346E+06 -1.503404E+05 -2.983261E+06 -4.838538E-09  3.443135E-10
        72  19 -7.383197E+06 -1.050926E+06  2.322232E+04 -2.846644E+06 -1.361876E+04 -1.257532E+03
        72  20 -7.300461E+06 -9.715074E+05  4.222326E+04 -2.775127E+06 -2.881771E+04 -1.130630E+03
        72  21 -7.157578E+06 -9.719463E+05  4.771334E+04 -2.777338E+06 -4.389155E+04 -1.354461E+03
        72  22 -7.527262E+06 -1.103858E+06 -1.534868E+04 -2.884135E+06 -1.115316E+04 -3.355145E+02
        72  23 -7.558086E+06 -1.069057E+06 -2.650672E+04 -2.845364E+06 -2.650942E+04 -2.665621E+02
        72  24 -7.528809E+06 -1.114151E+06 -5.130606E+04 -2.880328E+06 -4.173790E+04 -5.473693E+02
        72  25 -7.671306E+06 -1.156790E+06 -5.392116E+04 -2.921617E+06 -8.688223E+03  5.862723E+02
        72  26 -7.815644E+06 -1.166602E+06 -9.524219E+04 -2.915574E+06 -2.420221E+04  5.971011E+02
        72  27 -7.899904E+06 -1.256346E+06 -1.503375E+05 -2.983261E+06 -3.958567E+04  2.591691E+02
        73   1 -6.995690E+06 -9.068609E+05  7.639954E+04 -2.751468E+06  5.488204E+04  2.009463E+03
        73   2 -6.922107E+06 -8.167902E+05  5.335952E+04 -2.674500E+06  1.146702E+05  1.942448E+04
        73   3 -6.843806E+06 -9.006086E+05 -4.531238E+04 -2.632603E+06  1.735819E+05  3.921763E+04
        73   4 -7.535994E+06 -1.098560E+06 -6.563013E+04 -2.885429E+06  5.225109E+04  1.024004E+03
        73   5 -7.545126E+06 -1.058479E+06 -1.139160E+05 -2.850363E+06  1.130881E+05  1.882779E+04
        73   6 -7.549816E+06 -1.192586E+06 -2.387383E+05 -2.850373E+06  1.730396E+05  3.900322E+04
        73   7 -8.076015E+06 -1.290251E+06 -2.076850E+05 -3.019287E+06  4.962267E+04  3.935655E+01
        73   8 -8.167766E+06 -1.300138E+06 -2.812264E+05 -3.026063E+06  1.115078E+05  1.823178E+04
        73   9 -8.255335E+06 -1.484506E+06 -4.322100E+05 -3.067905E+06  1.724980E+05  3.878906E+04
        73  10 -6.995693E+06 -9.068617E+05  7.639381E+04 -2.751468E+06  2.356570E-09  1.601404E-09
        73  11 -6.922121E+06 -8.167941E+05  5.333379E+04 -2.674501E+06  1.596618E-09 -1.580852E-10
        73  12 -6.843839E+06 -9.006184E+05 -4.537263E+04 -2.632609E+06  1.383399E-09 -1.114373E-09
        73  13 -7.535997E+06 -1.098561E+06 -6.563533E+04 -2.885429E+06 -1.736114E-09  8.989786E-10
        73  14 -7.545140E+06 -1.058482E+06 -1.139411E+05 -2.850365E+06  9.448197E-10  2.451926E-10
        73  15 -7.549849E+06 -1.192596E+06 -2.387982E+05 -2.850378E+06  8.123213E-10 -8.886993E-10
        73  16 -8.076017E+06 -1.290251E+06 -2.076897E+05 -3.019287E+06 -3.522486E-09 -6.364209E-10
        73  17 -8.167780E+06 -1.300142E+06 -2.812507E+05 -3.026065E+06 -1.435647E-10 -1.109432E-09
        73  18 -8.255368E+06 -1.484516E+06 -4.322696E+05 -3.067911E+06  1.869298E-09 -7.242273E-10
        73  19 -6.995690E+06 -9.068609E+05  7.639954E+04 -2.751468E+06 -5.488204E+04 -2.009463E+03
        73  20 -6.922107E+06 -8.167902E+05  5.335952E+04 -2.674500E+06 -1.146702E+05 -1.942448E+04
        73  21 -6.843806E+06 -9.006086E+05 -4.531238E+04 -2.632603E+06 -1.735819E+05 -3.921763E+04
        73  22 -7.535994E+06 -1.098560E+06 -6.563013E+04 -2.885429E+06 -5.225109E+04 -1.024004E+03
        73  23 -7.545126E+06 -1.058479E+06 -1.139160E+05 -2.850363E+06 -1.130881E+05 -1.882779E+04
        73  24 -7.549816E+06 -1.192586E+06 -2.387383E+05 -2.850373E+06 -1.730396E+05 -3.900322E+04
        73  25 -8.076015E+06 -1.290251E+06 -2.076850E+05 -3.019287E+06 -4.962267E+04 -3.935655E+01
        73  26 -8.167766E+06 -1.300138E+06 -2.812264E+05 -3.026063E+06 -1.115078E+05 -1.823178E+04
        73  27 -8.255335E+06 -1.484506E+06 -4.322100E+05 -3.067905E+06 -1.724980E+05 -3.878906E+04
        74   1 -6.668844E+06 -8.240167E+05 -6.809786E+04 -2.773376E+06  2.233751E+05  5.179928E+04
        74   2 -6.597901E+06 -5.478603E+05 -2.423226E+05 -2.565939E+06  4.781107E+05  1.448572E+05
        74   3 -6.921880E+06 -1.366707E+06 -8.966987E+05 -2.125182E+06  7.238911E+05  2.617979E+05
        74   4 -7.591367E+06 -1.066375E+06 -2.933440E+05 -2.915263E+06  2.164249E+05  4.922912E+04
        74   5 -7.454821E+06 -9.430046E+05 -4.841656E+05 -2.872169E+06  4.819073E+05  1.462164E+05
        74   6 -7.716059E+06 -1.917868E+06 -1.164282E+06 -2.595563E+06  7.384537E+05  2.669284E+05
        74   7 -8.513038E+06 -1.308757E+06 -5.186445E+05 -3.057003E+06  2.094860E+05  4.666024E+04
        74   8 -8.311003E+06 -1.337992E+06 -7.260777E+05 -3.177974E+06  4.856977E+05  1.475720E+05
        74   9 -8.509459E+06 -2.468391E+06 -1.431912E+06 -3.065246E+06  7.529952E+05  2.720357E+05
        74  10 -6.668899E+06 -8.240333E+05 -6.819789E+04 -2.773386E+06 -3.277390E-09 -9.184831E-10
        74  11 -6.598154E+06 -5.479454E+05 -2.427974E+05 -2.565995E+06  1.374752E-09  1.167047E-09
        74  12 -6.922467E+06 -1.366924E+06 -8.978260E+05 -2.125336E+06  1.706836E-09  7.644547E-11
        74  13 -7.591419E+06 -1.066390E+06 -2.934378E+05 -2.915271E+06  6.677798E-10 -9.076209E-10
        74  14 -7.455079E+06 -9.430912E+05 -4.846489E+05 -2.872226E+06  4.839272E-09  1.330166E-11
        74  15 -7.716671E+06 -1.918095E+06 -1.165457E+06 -2.595723E+06  2.825657E-10  5.772898E-10
        74  16 -8.513087E+06 -1.308771E+06 -5.187324E+05 -3.057011E+06  2.184230E-10 -5.624229E-10
        74  17 -8.311265E+06 -1.338080E+06 -7.265694E+05 -3.178032E+06  1.828811E-09  1.643081E-10
        74  18 -8.510096E+06 -2.468627E+06 -1.433135E+06 -3.065412E+06  3.841375E-10  8.886640E-11
        74  19 -6.668844E+06 -8.240167E+05 -6.809786E+04 -2.773376E+06 -2.233751E+05 -5.179928E+04
        74  20 -6.597901E+06 -5.478603E+05 -2.423226E+05 -2.565939E+06 -4.781107E+05 -1.448572E+05
        74  21 -6.921880E+06 -1.366707E+06 -8.966987E+05 -2.125182E+06 -7.238911E+05 -2.617979E+05
        74  22 -7.591367E+06 -1.066375E+06 -2.933440E+05 -2.915263E+06 -2.164249E+05 -4.922912E+04
        74  23 -7.454821E+06 -9.430046E+05 -4.841656E+05 -2.872169E+06 -4.819073E+05 -1.462164E+05
        74  24 -7.716059E+06 -1.917868E+06 -1.164282E+06 -2.595563E+06 -7.384537E+05 -2.669284E+05
        74  25 -8.513038E+06 -1.308757E+06 -5.186445E+05 -3.057003E+06 -2.094860E+05 -4.666024E+04
        74  26 -8.311003E+06 -1.337992E+06 -7.260777E+05 -3.177974E+06 -4.856977E+05 -1.475720E+05
        74  27 -8.509459E+06 -2.468391E+06 -1.431912E+06 -3.065246E+06 -7.529952E+05 -2.720357E+05
        75   1  1.314383E+06  4.273116E+05  5.674758E+05  1.948666E+03  4.037111E+05  9.475181E+02
        75   2  1.222414E+06 -1.332186E+05  2.278261E+05  6.271638E+03  2.658582E+05  4.399128E+02
        75   3  1.316947E+06 -3.737420E+04  1.428711E+05 -8.279015E+03  1.280012E+05  7.313909E+01
        75   4  1.411330E+06  4.514666E+05  5.916612E+05 -5.488427E+03  4.037476E+05  9.426675E+02
        75   5  1.318217E+06 -1.093054E+05  2.517372E+05  4.437820E+03  2.658791E+05  4.391176E+02
        75   6  1.411582E+06 -1.375347E+04  1.664906E+05 -4.510121E+03  1.280068E+05  7.391574E+01
        75   7  1.508286E+06  4.756211E+05  6.158460E+05 -1.292668E+04  4.037840E+05  9.378167E+02
        75   8  1.414028E+06 -8.539286E+04  2.756477E+05  2.603717E+03  2.659000E+05  4.383225E+02
        75   9  1.506225E+06  9.866634E+03  1.901095E+05 -7.406526E+02  1.280124E+05  7.469235E+01
        75  10  1.314208E+06  4.272680E+05  5.671702E+05  1.948358E+03  9.871019E-10 -1.006486E-07
        75  11  1.222338E+06 -1.332375E+05  2.276935E+05  6.271544E+03 -8.877493E-10 -9.191270E-08
        75  12  1.316929E+06 -3.737859E+04  1.428404E+05 -8.279023E+03 -1.921366E-09  4.682012E-07
        75  13  1.411155E+06  4.514230E+05  5.913556E+05 -5.488734E+03  2.073984E-09 -9.862601E-10
        75  14  1.318141E+06 -1.093243E+05  2.516047E+05  4.437726E+03 -3.184148E-09 -1.826974E-10
        75  15  1.411564E+06 -1.375786E+04  1.664599E+05 -4.510129E+03  2.144084E-09  2.991172E-10
        75  16  1.508111E+06  4.755774E+05  6.155403E+05 -1.292699E+04  2.183198E-09  1.019748E-07
        75  17  1.413953E+06 -8.541178E+04  2.755151E+05  2.603624E+03  1.632554E-09  8.987941E-08
        75  18  1.506207E+06  9.862248E+03  1.900787E+05 -7.406603E+02  8.688655E-10 -4.685916E-07
        75  19  1.314383E+06  4.273116E+05  5.674758E+05  1.948666E+03 -4.037111E+05 -9.475181E+02
        75  20  1.222414E+06 -1.332186E+05  2.278261E+05  6.271638E+03 -2.658582E+05 -4.399128E+02
        75  21  1.316947E+06 -3.737420E+04  1.428711E+05 -8.279015E+03 -1.280012E+05 -7.313909E+01
        75  22  1.411330E+06  4.514666E+05  5.916612E+05 -5.488427E+03 -4.037476E+05 -9.426675E+02
        75  23  1.318217E+06 -1.093054E+05  2.517372E+05  4.437820E+03 -2.658791E+05 -4.391176E+02
        75  24  1.411582E+06 -1.375347E+04  1.664906E+05 -4.510121E+03 -1.280068E+05 -7.391574E+01
        75  25  1.508286E+06  4.756211E+05  6.158460E+05 -1.292668E+04 -4.037840E+05 -9.378167E+02
        75  26  1.414028E+06 -8.539286E+04  2.756477E+05  2.603717E+03 -2.659000E+05 -4.383225E+02
        75  27  1.506225E+06  9.866633E+03  1.901095E+05 -7.406526E+02 -1.280124E+05 -7.469236E+01
        76   1  1.381816E+06  7.198370E+04  1.389764E+05  7.944847E+02  1.002440E+05 -3.064880E+01
        76   2  1.366695E+06 -1.588811E+04  6.653087E+04 -5.634583E+02  6.587109E+04 -4.872725E+01
        76   3  1.381759E+06 -8.934673E+02  4.215209E+04 -9.925146E+02  3.149818E+04 -2.035570E+01
        76   4  1.376773E+06  7.072646E+04  1.377176E+05 -3.449052E+02  1.002420E+05 -3.083160E+01
        76   5  1.361710E+06 -1.713214E+04  6.528681E+04 -8.295187E+02  6.587044E+04 -4.875531E+01
        76   6  1.376831E+06 -2.124082E+03  4.092210E+04 -3.852360E+02  3.149889E+04 -2.032535E+01
        76   7  1.371730E+06  6.946922E+04  1.364588E+05 -1.484286E+03  1.002400E+05 -3.101439E+01
        76   8  1.356725E+06 -1.837617E+04  6.404276E+04 -1.095577E+03  6.586980E+04 -4.878337E+01
        76   9  1.371904E+06 -3.354697E+03  3.969212E+04  2.220377E+02  3.149961E+04 -2.029499E+01
        76  10  1.381805E+06  7.198101E+04  1.389575E+05  7.944992E+02  2.492662E-05  1.489611E-06
        76  11  1.366691E+06 -1.588927E+04  6.652273E+04 -5.634026E+02  1.105643E-04  2.439008E-06
        76  12  1.381758E+06 -8.937330E+02  4.215023E+04 -9.924199E+02  1.961814E-04  8.503020E-07
        76  13  1.376762E+06  7.072377E+04  1.376987E+05 -3.449027E+02  6.229272E-05 -1.309099E-08
        76  14  1.361706E+06 -1.713330E+04  6.527868E+04 -8.295161E+02  2.763786E-04 -4.887426E-08
        76  15  1.376830E+06 -2.124347E+03  4.092024E+04 -3.852355E+02  4.904442E-04 -6.293072E-08
        76  16  1.371719E+06  6.946653E+04  1.364399E+05 -1.484295E+03  2.491514E-05 -1.553321E-06
        76  17  1.356721E+06 -1.837733E+04  6.403463E+04 -1.095627E+03  1.105413E-04 -2.691415E-06
        76  18  1.371903E+06 -3.354963E+03  3.969026E+04  2.219441E+02  1.961747E-04 -1.257179E-06
        76  19  1.381816E+06  7.198370E+04  1.389764E+05  7.945087E+02 -1.002440E+05  3.064880E+01
        76  20  1.366695E+06 -1.588811E+04  6.653087E+04 -5.633521E+02 -6.587109E+04  4.872725E+01
        76  21  1.381759E+06 -8.934675E+02  4.215209E+04 -9.923263E+02 -3.149818E+04  2.035570E+01
        76  22  1.376773E+06  7.072646E+04  1.377176E+05 -3.449052E+02 -1.002420E+05  3.083160E+01
        76  23  1.361710E+06 -1.713214E+04  6.528682E+04 -8.295187E+02 -6.587044E+04  4.875531E+01
        76  24  1.376831E+06 -2.124081E+03  4.092210E+04 -3.852360E+02 -3.149889E+04  2.032535E+01
        76  25  1.371730E+06  6.946922E+04  1.364588E+05 -1.484310E+03 -1.002400E+05  3.101439E+01
        76  26  1.356725E+06 -1.837617E+04  6.404276E+04 -1.095683E+03 -6.586980E+04  4.878337E+01
        76  27  1.371904E+06 -3.354697E+03  3.969212E+04  2.218494E+02 -3.149961E+04  2.029500E+01
        77   1  1.370985E+06  1.098685E+04  3.283669E+04 -4.184053E+02  2.478167E+04 -6.686797E+00
        77   2  1.368412E+06 -2.758826E+03  1.681333E+04 -5.311532E+02  1.610798E+04 -7.027108E+00
        77   3  1.371003E+06 -3.461131E+02  1.046759E+04 -6.873590E+02  7.434357E+03 -3.011087E+00
        77   4  1.371259E+06  1.105550E+04  3.290516E+04 -5.849884E+02  2.478153E+04 -6.693370E+00
        77   5  1.368683E+06 -2.691033E+03  1.688110E+04 -5.656143E+02  1.610794E+04 -7.027980E+00
        77   6  1.371271E+06 -2.792015E+02  1.053458E+04 -5.896976E+02  7.434420E+03 -3.009945E+00
        77   7  1.371534E+06  1.112415E+04  3.297363E+04 -7.515717E+02  2.478139E+04 -6.699943E+00
        77   8  1.368955E+06 -2.623240E+03  1.694887E+04 -6.000754E+02  1.610790E+04 -7.028851E+00
        77   9  1.371540E+06 -2.122898E+02  1.060157E+04 -4.920362E+02  7.434484E+03 -3.008802E+00
        77  10  1.370984E+06  1.098669E+04  3.283554E+04 -4.183087E+02  2.009466E-04 -8.492566E-07
        77  11  1.368412E+06 -2.758894E+03  1.681285E+04 -5.310899E+02  1.317615E-04 -2.093540E-06
        77  12  1.371003E+06 -3.461278E+02  1.046748E+04 -6.873289E+02  6.259844E-05 -1.219912E-06
        77  13  1.371259E+06  1.105534E+04  3.290401E+04 -5.849883E+02  5.024121E-04 -9.399790E-08
        77  14  1.368683E+06 -2.691102E+03  1.688061E+04 -5.656142E+02  3.294675E-04 -1.963367E-07
        77  15  1.371271E+06 -2.792162E+02  1.053447E+04 -5.896976E+02  1.565364E-04 -2.936122E-07
        77  16  1.371533E+06  1.112399E+04  3.297248E+04 -7.516680E+02  2.009800E-04  4.998033E-07
        77  17  1.368954E+06 -2.623308E+03  1.694838E+04 -6.001385E+02  1.318176E-04  2.070284E-06
        77  18  1.371540E+06 -2.123038E+02  1.060147E+04 -4.920662E+02  6.263389E-05  1.527428E-06
        77  19  1.370985E+06  1.098685E+04  3.283669E+04 -4.182124E+02 -2.478167E+04  6.686791E+00
        77  20  1.368412E+06 -2.758824E+03  1.681333E+04 -5.310267E+02 -1.610798E+04  7.027102E+00
        77  21  1.371003E+06 -3.461130E+02  1.046759E+04 -6.872988E+02 -7.434357E+03  3.011084E+00
        77  22  1.371259E+06  1.105550E+04  3.290516E+04 -5.849884E+02 -2.478153E+04  6.693369E+00
        77  23  1.368683E+06 -2.691032E+03  1.688110E+04 -5.656143E+02 -1.610794E+04  7.027979E+00
        77  24  1.371271E+06 -2.792012E+02  1.053458E+04 -5.896976E+02 -7.434420E+03  3.009944E+00
        77  25  1.371534E+06  1.112415E+04  3.297363E+04 -7.517646E+02 -2.478139E+04  6.699947E+00
        77  26  1.368955E+06 -2.623238E+03  1.694887E+04 -6.002019E+02 -1.610790E+04  7.028857E+00
        77  27  1.371540E+06 -2.122882E+02  1.060157E+04 -4.920963E+02 -7.434483E+03  3.008805E+00
        78   1  1.370375E+06  1.712713E+03  8.527687E+03 -5.519996E+02  5.702510E+03 -1.755199E+00
        78   2  1.369843E+06 -4.769495E+02  5.252404E+03 -5.758506E+02  3.049666E+03 -1.453733E+00
        78   3  1.370377E+06  2.215937E+02  4.423433E+03 -5.964189E+02  3.968664E+02 -3.032290E-01
        78   4  1.370359E+06  1.708810E+03  8.523754E+03 -5.772483E+02  5.702480E+03 -1.755418E+00
        78   5  1.369827E+06 -4.808279E+02  5.248525E+03 -5.792050E+02  3.049657E+03 -1.453746E+00
        78   6  1.370361E+06  2.177370E+02  4.419594E+03 -5.778794E+02  3.968774E+02 -3.032215E-01
        78   7  1.370343E+06  1.704906E+03  8.519821E+03 -6.024971E+02  5.702450E+03 -1.755636E+00
        78   8  1.369811E+06 -4.847062E+02  5.244646E+03 -5.825594E+02  3.049647E+03 -1.453757E+00
        78   9  1.370346E+06  2.138803E+02  4.415754E+03 -5.593398E+02  3.968883E+02 -3.032137E-01
        78  10  1.370375E+06  1.712704E+03  8.527626E+03 -5.519814E+02  3.785355E-05 -4.430954E-07
        78  11  1.369843E+06 -4.769521E+02  5.252387E+03 -5.758400E+02  2.191470E-05 -2.330088E-07
        78  12  1.370377E+06  2.215938E+02  4.423433E+03 -5.964161E+02  5.984412E-06 -3.723374E-07
        78  13  1.370359E+06  1.708801E+03  8.523693E+03 -5.772483E+02  9.462023E-05 -2.876147E-07
        78  14  1.369827E+06 -4.808303E+02  5.248507E+03 -5.792050E+02  5.475672E-05 -1.685170E-07
        78  15  1.370361E+06  2.177370E+02  4.419593E+03 -5.778794E+02  1.490537E-05 -5.380078E-08
        78  16  1.370343E+06  1.704898E+03  8.519760E+03 -6.025152E+02  3.784092E-05  8.030877E-07
        78  17  1.369811E+06 -4.847084E+02  5.244628E+03 -5.825699E+02  2.189297E-05  4.502701E-07
        78  18  1.370346E+06  2.138804E+02  4.415754E+03 -5.593427E+02  5.938639E-06  4.393104E-07
        78  19  1.370375E+06  1.712713E+03  8.527687E+03 -5.519633E+02 -5.702510E+03  1.755198E+00
        78  20  1.369843E+06 -4.769498E+02  5.252404E+03 -5.758295E+02 -3.049666E+03  1.453733E+00
        78  21  1.370377E+06  2.215939E+02  4.423433E+03 -5.964132E+02 -3.968664E+02  3.032282E-01
        78  22  1.370359E+06  1.708810E+03  8.523754E+03 -5.772483E+02 -5.702480E+03  1.755417E+00
        78  23  1.369827E+06 -4.808278E+02  5.248525E+03 -5.792050E+02 -3.049656E+03  1.453745E+00
        78  24  1.370361E+06  2.177371E+02  4.419594E+03 -5.778794E+02 -3.968773E+02  3.032214E-01
        78  25  1.370343E+06  1.704908E+03  8.519821E+03 -6.025334E+02 -5.702450E+03  1.755637E+00
        78  26  1.369811E+06 -4.847055E+02  5.244646E+03 -5.825805E+02 -3.049647E+03  1.453758E+00
        78  27  1.370346E+06  2.138807E+02  4.415754E+03 -5.593456E+02 -3.968883E+02  3.032146E-01
        79   1  1.370349E+06  2.134606E+02  4.417836E+03 -5.594129E+02 -4.060399E+02  3.186816E-01
        79   2  1.369813E+06 -4.852511E+02  5.253499E+03 -5.824342E+02 -3.063006E+03  1.420566E+00
        79   3  1.370347E+06  1.711392E+03  8.539969E+03 -6.026827E+02 -5.720017E+03  1.881997E+00
        79   4  1.370362E+06  2.166787E+02  4.421037E+03 -5.779936E+02 -4.060327E+02  3.186912E-01
        79   5  1.369826E+06 -4.820196E+02  5.256732E+03 -5.790632E+02 -3.063014E+03  1.420553E+00
        79   6  1.370360E+06  1.714639E+03  8.543245E+03 -5.773598E+02 -5.720041E+03  1.881776E+00
        79   7  1.370375E+06  2.198968E+02  4.424238E+03 -5.965743E+02 -4.060255E+02  3.187005E-01
        79   8  1.369839E+06 -4.787880E+02  5.259965E+03 -5.756923E+02 -3.063023E+03  1.420540E+00
        79   9  1.370373E+06  1.717887E+03  8.546521E+03 -5.520369E+02 -5.720065E+03  1.881552E+00
        79  10  1.370349E+06  2.134608E+02  4.417836E+03 -5.594142E+02 -2.733132E-06 -4.447980E-07
        79  11  1.369813E+06 -4.852530E+02  5.253482E+03 -5.824423E+02 -1.675176E-05 -5.689215E-07
        79  12  1.370347E+06  1.711384E+03  8.539908E+03 -6.026975E+02 -3.075176E-05 -1.036431E-06
        79  13  1.370362E+06  2.166787E+02  4.421037E+03 -5.779936E+02 -6.898687E-06  6.774724E-08
        79  14  1.369826E+06 -4.820220E+02  5.256715E+03 -5.790632E+02 -4.196171E-05  3.701652E-07
        79  15  1.370360E+06  1.714631E+03  8.543184E+03 -5.773598E+02 -7.702465E-05  6.710742E-07
        79  16  1.370375E+06  2.198967E+02  4.424237E+03 -5.965730E+02 -2.789809E-06  3.407558E-07
        79  17  1.369839E+06 -4.787909E+02  5.259948E+03 -5.756842E+02 -1.681597E-05  1.703504E-08
        79  18  1.370373E+06  1.717877E+03  8.546460E+03 -5.520221E+02 -3.086542E-05  3.844405E-08
        79  19  1.370349E+06  2.134611E+02  4.417837E+03 -5.594156E+02  4.060399E+02 -3.186825E-01
        79  20  1.369813E+06 -4.852499E+02  5.253500E+03 -5.824503E+02  3.063006E+03 -1.420567E+00
        79  21  1.370347E+06  1.711394E+03  8.539970E+03 -6.027123E+02  5.720017E+03 -1.881999E+00
        79  22  1.370362E+06  2.166788E+02  4.421037E+03 -5.779936E+02  4.060327E+02 -3.186911E-01
        79  23  1.369826E+06 -4.820195E+02  5.256732E+03 -5.790632E+02  3.063014E+03 -1.420553E+00
        79  24  1.370360E+06  1.714640E+03  8.543245E+03 -5.773598E+02  5.720041E+03 -1.881775E+00
        79  25  1.370375E+06  2.198968E+02  4.424238E+03 -5.965716E+02  4.060255E+02 -3.186999E-01
        79  26  1.369839E+06 -4.787889E+02  5.259965E+03 -5.756762E+02  3.063023E+03 -1.420540E+00
        79  27  1.370373E+06  1.717885E+03  8.546521E+03 -5.520073E+02  5.720064E+03 -1.881552E+00
        80   1  1.371494E+06 -2.258658E+02  1.061458E+04 -4.897341E+02 -7.456109E+03  3.047855E+00
        80   2  1.368900E+06 -2.644710E+03  1.697896E+04 -6.026474E+02 -1.615169E+04  7.003429E+00
        80   3  1.371487E+06  1.114880E+04  3.304871E+04 -7.501407E+02 -2.484734E+04  7.422539E+00
        80   4  1.371275E+06 -2.804425E+02  1.055992E+04 -5.877346E+02 -7.456058E+03  3.049012E+00
        80   5  1.368679E+06 -2.700028E+03  1.692367E+04 -5.680743E+02 -1.615172E+04  7.002553E+00
        80   6  1.371263E+06  1.109276E+04  3.299285E+04 -5.829945E+02 -2.484745E+04  7.415923E+00
        80   7  1.371056E+06 -3.350190E+02  1.050527E+04 -6.857351E+02 -7.456007E+03  3.050164E+00
        80   8  1.368457E+06 -2.755345E+03  1.686838E+04 -5.335013E+02 -1.615175E+04  7.001667E+00
        80   9  1.371039E+06  1.103672E+04  3.293699E+04 -4.158484E+02 -2.484757E+04  7.409290E+00
        80  10  1.371494E+06 -2.258784E+02  1.061448E+04 -4.897591E+02 -5.186806E-05 -2.138759E-06
        80  11  1.368900E+06 -2.644775E+03  1.697847E+04 -6.027006E+02 -1.107960E-04 -4.083027E-06
        80  12  1.371486E+06  1.114865E+04  3.304756E+04 -7.502221E+02 -1.698909E-04 -4.235080E-06
        80  13  1.371275E+06 -2.804572E+02  1.055982E+04 -5.877346E+02 -1.301403E-04  1.276350E-06
        80  14  1.368678E+06 -2.700097E+03  1.692318E+04 -5.680743E+02 -2.776028E-04  3.059323E-06
        80  15  1.371262E+06  1.109260E+04  3.299169E+04 -5.829943E+02 -4.250585E-04  4.849737E-06
        80  16  1.371056E+06 -3.350355E+02  1.050516E+04 -6.857101E+02 -5.224195E-05  2.190799E-07
        80  17  1.368457E+06 -2.755419E+03  1.686789E+04 -5.334480E+02 -1.112853E-04 -5.373139E-07
        80  18  1.371038E+06  1.103655E+04  3.293583E+04 -4.157666E+02 -1.701624E-04 -3.079694E-06
        80  19  1.371494E+06 -2.258613E+02  1.061458E+04 -4.897841E+02  7.456109E+03 -3.047859E+00
        80  20  1.368900E+06 -2.644700E+03  1.697896E+04 -6.027540E+02  1.615169E+04 -7.003438E+00
        80  21  1.371487E+06  1.114882E+04  3.304872E+04 -7.503039E+02  2.484734E+04 -7.422550E+00
        80  22  1.371275E+06 -2.804422E+02  1.055992E+04 -5.877346E+02  7.456058E+03 -3.049009E+00
        80  23  1.368679E+06 -2.700027E+03  1.692367E+04 -5.680744E+02  1.615172E+04 -7.002547E+00
        80  24  1.371263E+06  1.109276E+04  3.299285E+04 -5.829945E+02  2.484745E+04 -7.415913E+00
        80  25  1.371056E+06 -3.350221E+02  1.050527E+04 -6.856852E+02  7.456007E+03 -3.050164E+00
        80  26  1.368457E+06 -2.755353E+03  1.686838E+04 -5.333948E+02  1.615175E+04 -7.001667E+00
        80  27  1.371039E+06  1.103671E+04  3.293698E+04 -4.156852E+02  2.484757E+04 -7.409292E+00
        81   1  1.372832E+06 -3.135565E+03  4.002618E+04  1.874801E+02 -3.158316E+04  1.903726E+01
        81   2  1.357617E+06 -1.820428E+04  6.444054E+04 -1.051370E+03 -6.604392E+04  4.500765E+01
        81   3  1.372679E+06  6.993749E+04  1.370642E+05 -1.526573E+03 -1.005047E+05  3.327993E+01
        81   4  1.376852E+06 -2.131485E+03  4.102965E+04 -4.215094E+02 -3.158258E+04  1.906786E+01
        81   5  1.361684E+06 -1.718939E+04  6.545549E+04 -7.839771E+02 -6.604444E+04  4.497936E+01
        81   6  1.376794E+06  7.096302E+04  1.380912E+05 -3.828083E+02 -1.005063E+05  3.309577E+01
        81   7  1.380872E+06 -1.127404E+03  4.203312E+04 -1.030503E+03 -3.158200E+04  1.909845E+01
        81   8  1.365751E+06 -1.617450E+04  6.647044E+04 -5.165828E+02 -6.604497E+04  4.495106E+01
        81   9  1.380908E+06  7.198855E+04  1.391181E+05  7.609644E+02 -1.005079E+05  3.291160E+01
        81  10  1.372831E+06 -3.135825E+03  4.002431E+04  1.874009E+02 -1.662713E-04 -2.701893E-06
        81  11  1.357612E+06 -1.820545E+04  6.443236E+04 -1.051412E+03 -9.388557E-05  1.496654E-07
        81  12  1.372668E+06  6.993479E+04  1.370453E+05 -1.526581E+03 -2.130916E-05  8.309997E-07
        81  13  1.376851E+06 -2.131752E+03  4.102778E+04 -4.215089E+02 -4.152384E-04  4.767940E-06
        81  14  1.361680E+06 -1.719056E+04  6.544731E+04 -7.839747E+02 -2.339960E-04  2.689484E-06
        81  15  1.376783E+06  7.096032E+04  1.380722E+05 -3.828056E+02 -5.274422E-05  6.044647E-07
        81  16  1.380871E+06 -1.127679E+03  4.203125E+04 -1.030423E+03 -1.659242E-04 -4.475392E-06
        81  17  1.365747E+06 -1.617567E+04  6.646226E+04 -5.165355E+02 -9.331326E-05 -4.197512E-06
        81  18  1.380897E+06  7.198584E+04  1.390992E+05  7.609772E+02 -2.088874E-05 -1.746113E-06
        81  19  1.372832E+06 -3.135551E+03  4.002618E+04  1.873207E+02  3.158316E+04 -1.903727E+01
        81  20  1.357617E+06 -1.820427E+04  6.444054E+04 -1.051459E+03  6.604392E+04 -4.500765E+01
        81  21  1.372679E+06  6.993750E+04  1.370642E+05 -1.526594E+03  1.005047E+05 -3.327993E+01
        81  22  1.376852E+06 -2.131485E+03  4.102965E+04 -4.215094E+02  3.158258E+04 -1.906786E+01
        81  23  1.361684E+06 -1.718939E+04  6.545549E+04 -7.839771E+02  6.604444E+04 -4.497935E+01
        81  24  1.376794E+06  7.096302E+04  1.380912E+05 -3.828083E+02  1.005063E+05 -3.309577E+01
        81  25  1.380872E+06 -1.127419E+03  4.203312E+04 -1.030343E+03  3.158200E+04 -1.909846E+01
        81  26  1.365751E+06 -1.617451E+04  6.647044E+04 -5.164929E+02  6.604497E+04 -4.495106E+01
        81  27  1.380908E+06  7.198855E+04  1.391181E+05  7.609847E+02  1.005079E+05 -3.291160E+01
        82   1  1.488527E+06  5.409393E+03  1.861060E+05 -7.796686E+00 -1.283325E+05 -5.100668E+01
        82   2  1.396667E+06 -9.004716E+04  2.719901E+05  1.642179E+03 -2.665937E+05 -3.371189E+02
        82   3  1.490154E+06  4.722495E+05  6.128454E+05 -1.206963E+04 -4.048510E+05 -7.342832E+02
        82   4  1.411338E+06 -1.385426E+04  1.668427E+05 -3.789836E+03 -1.283279E+05 -5.022533E+01
        82   5  1.318525E+06 -1.095502E+05  2.524890E+05  3.509013E+03 -2.665766E+05 -3.379257E+02
        82   6  1.411080E+06  4.525484E+05  5.931206E+05 -4.553271E+03 -4.048213E+05 -7.391891E+02
        82   7  1.334154E+06 -3.311830E+04  1.475791E+05 -7.571405E+03 -1.283233E+05 -4.944395E+01
        82   8  1.240389E+06 -1.290537E+05  2.329875E+05  5.375612E+03 -2.665595E+05 -3.387326E+02
        82   9  1.332012E+06  4.328470E+05  5.733954E+05  2.962130E+03 -4.047915E+05 -7.440947E+02
        82  10  1.488509E+06  5.404985E+03  1.860751E+05 -7.801952E+00 -3.529185E-08  3.916849E-07
        82  11  1.396590E+06 -9.006618E+04  2.718568E+05  1.642106E+03  5.097207E-09 -8.441368E-08
        82  12  1.489979E+06  4.722057E+05  6.125381E+05 -1.206987E+04  8.346360E-09 -8.814406E-08
        82  13  1.411320E+06 -1.385867E+04  1.668119E+05 -3.789841E+03  4.140689E-10 -4.877953E-09
        82  14  1.318449E+06 -1.095692E+05  2.523558E+05  3.508941E+03  1.779754E-09 -5.817157E-09
        82  15  1.410905E+06  4.525045E+05  5.928133E+05 -4.553512E+03 -3.113469E-10 -2.833773E-09
        82  16  1.334136E+06 -3.312271E+04  1.475482E+05 -7.571410E+03  3.460237E-08 -4.008311E-07
        82  17  1.240313E+06 -1.290727E+05  2.328543E+05  5.375539E+03 -8.330773E-09  7.164222E-08
        82  18  1.331836E+06  4.328032E+05  5.730881E+05  2.961888E+03 -7.351873E-09  8.115493E-08
        82  19  1.488527E+06  5.409392E+03  1.861060E+05 -7.796682E+00  1.283325E+05  5.100668E+01
        82  20  1.396667E+06 -9.004716E+04  2.719901E+05  1.642179E+03  2.665937E+05  3.371189E+02
        82  21  1.490154E+06  4.722495E+05  6.128454E+05 -1.206963E+04  4.048510E+05  7.342832E+02
        82  22  1.411338E+06 -1.385426E+04  1.668427E+05 -3.789836E+03  1.283279E+05  5.022533E+01
        82  23  1.318525E+06 -1.095502E+05  2.524890E+05  3.509013E+03  2.665766E+05  3.379257E+02
        82  24  1.411080E+06  4.525484E+05  5.931206E+05 -4.553271E+03  4.048213E+05  7.391891E+02
        82  25  1.334154E+06 -3.311830E+04  1.475791E+05 -7.571405E+03  1.283233E+05  4.944395E+01
        82  26  1.240389E+06 -1.290537E+05  2.329875E+05  5.375612E+03  2.665595E+05  3.387326E+02
        82  27  1.332012E+06  4.328470E+05  5.733954E+05  2.962130E+03  4.047915E+05  7.440947E+02
        83   1  3.108066E+05  1.327877E+05  3.447863E+05 -2.168751E+05  6.200978E+02  2.073752E+05
        83   2  7.302428E+04  5.516950E+04  1.800132E+05 -1.168575E+05  2.807937E+03  1.179461E+05
        83   3  1.221681E+04  3.337683E+04  1.177093E+05 -2.860221E+04  1.442829E+03  2.851330E+04
        83   4  2.768998E+05  7.527034E+02  3.128033E+05 -4.679101E+04  6.918986E+02  2.016182E+05
        83   5  5.269641E+04 -2.667872E+04  1.626375E+05 -4.127134E+04  2.822927E+03  1.177060E+05
        83   6  4.493040E+03  7.517825E+02  1.111198E+05 -4.749948E+04  1.428003E+03  3.378271E+04
        83   7  2.431003E+05 -1.312044E+05  2.808346E+05  1.232567E+05  7.605574E+02  1.958623E+05
        83   8  3.238954E+04 -1.085084E+05  1.452645E+05  3.430471E+04  2.837860E+03  1.174659E+05
        83   9 -3.229437E+03 -3.187142E+04  1.045305E+05 -6.639574E+04  1.412857E+03  3.905185E+04
        83  10  3.107950E+05  1.327416E+05  3.447055E+05 -2.168752E+05  3.641903E-10  1.162050E-08
        83  11  7.302054E+04  5.515456E+04  1.799870E+05 -1.168578E+05  2.170223E-09 -5.299679E-09
        83  12  1.221659E+04  3.337596E+04  1.177077E+05 -2.860225E+04  3.776599E-09 -2.227449E-08
        83  13  2.768889E+05  7.090624E+02  3.127269E+05 -4.679112E+04  2.441335E-09  7.203704E-10
        83  14  5.269268E+04 -2.669360E+04  1.626114E+05 -4.127161E+04 -5.032104E-09 -1.254825E-10
        83  15  4.492731E+03  7.505566E+02  1.111176E+05 -4.749952E+04 -9.542061E-09 -1.339555E-09
        83  16  2.430900E+05 -1.312456E+05  2.807625E+05  1.232565E+05 -2.726842E-09 -1.138402E-08
        83  17  3.238582E+04 -1.085232E+05  1.452385E+05  3.430444E+04 -9.148179E-10  3.284544E-09
        83  18 -3.229848E+03 -3.187306E+04  1.045276E+05 -6.639579E+04 -4.397408E-10  2.198567E-08
        83  19  3.108066E+05  1.327877E+05  3.447863E+05 -2.168751E+05 -6.200978E+02 -2.073752E+05
        83  20  7.302428E+04  5.516950E+04  1.800132E+05 -1.168575E+05 -2.807937E+03 -1.179461E+05
        83  21  1.221681E+04  3.337683E+04  1.177093E+05 -2.860221E+04 -1.442829E+03 -2.851330E+04
        83  22  2.768998E+05  7.527034E+02  3.128033E+05 -4.679101E+04 -6.918986E+02 -2.016182E+05
        83  23  5.269641E+04 -2.667872E+04  1.626375E+05 -4.127134E+04 -2.822927E+03 -1.177060E+05
        83  24  4.493040E+03  7.517825E+02  1.111198E+05 -4.749948E+04 -1.428003E+03 -3.378271E+04
        83  25  2.431003E+05 -1.312044E+05  2.808346E+05  1.232567E+05 -7.605574E+02 -1.958623E+05
        83  26  3.238954E+04 -1.085084E+05  1.452645E+05  3.430471E+04 -2.837860E+03 -1.174659E+05
        83  27 -3.229437E+03 -3.187142E+04  1.045305E+05 -6.639574E+04 -1.412857E+03 -3.905185E+04
        84   1  1.089395E+04 -9.471374E+03  1.024476E+05 -5.617295E+04 -5.550570E+02  1.223677E+04
        84   2 -7.738723E+03 -6.614077E+04  9.605296E+04 -4.029328E+04 -3.409290E+03 -3.996304E+04
        84   3 -7.351257E+02 -1.096730E+05  1.300471E+05 -3.662777E+04 -6.069903E+03 -9.215956E+04
        84   4  1.097061E+04 -8.511174E+03  1.021461E+05 -4.750021E+04 -5.676666E+02  1.705731E+04
        84   5  4.314202E+03 -1.510306E+04  1.052435E+05 -4.137721E+04 -3.421100E+03 -3.545007E+04
        84   6  2.334568E+04 -8.509101E+03  1.489408E+05 -4.746737E+04 -6.079292E+03 -8.795815E+04
        84   7  1.104756E+04 -7.550761E+03  1.018447E+05 -3.882745E+04 -5.801415E+02  2.187786E+04
        84   8  1.636700E+04  3.593723E+04  1.144339E+05 -4.246123E+04 -3.432924E+03 -3.093674E+04
        84   9  4.742635E+04  9.266495E+04  1.678342E+05 -5.830878E+04 -6.088827E+03 -8.375609E+04
        84  10  1.089391E+04 -9.471535E+03  1.024473E+05 -5.617294E+04  3.055752E-10 -2.668501E-09
        84  11 -7.739165E+03 -6.614249E+04  9.604993E+04 -4.029339E+04  6.780791E-09  1.568158E-09
        84  12 -7.374455E+02 -1.096821E+05  1.300310E+05 -3.662822E+04  9.662630E-10  6.368124E-09
        84  13  1.097053E+04 -8.511486E+03  1.021455E+05 -4.750020E+04 -4.401948E-09  5.182390E-10
        84  14  4.313852E+03 -1.510442E+04  1.052411E+05 -4.137731E+04 -9.182338E-10 -2.336469E-11
        84  15  2.334357E+04 -8.517417E+03  1.489262E+05 -4.746780E+04 -1.253911E-09 -1.142713E-09
        84  16  1.104743E+04 -7.551275E+03  1.018438E+05 -3.882744E+04  1.184165E-09  2.775389E-09
        84  17  1.636673E+04  3.593620E+04  1.144321E+05 -4.246132E+04  4.193463E-09 -3.503953E-09
        84  18  4.742443E+04  9.265741E+04  1.678210E+05 -5.830919E+04  1.162325E-09 -6.478554E-09
        84  19  1.089395E+04 -9.471374E+03  1.024476E+05 -5.617295E+04  5.550570E+02 -1.223677E+04
        84  20 -7.738723E+03 -6.614077E+04  9.605296E+04 -4.029328E+04  3.409290E+03  3.996304E+04
        84  21 -7.351257E+02 -1.096730E+05  1.300471E+05 -3.662777E+04  6.069903E+03  9.215956E+04
        84  22  1.097061E+04 -8.511174E+03  1.021461E+05 -4.750021E+04  5.676666E+02 -1.705731E+04
        84  23  4.314202E+03 -1.510306E+04  1.052435E+05 -4.137721E+04  3.421100E+03  3.545007E+04
        84  24  2.334568E+04 -8.509101E+03  1.489408E+05 -4.746737E+04  6.079292E+03  8.795815E+04
        84  25  1.104756E+04 -7.550761E+03  1.018447E+05 -3.882745E+04  5.801415E+02 -2.187786E+04
        84  26  1.636700E+04  3.593723E+04  1.144339E+05 -4.246123E+04  3.432924E+03  3.093674E+04
        84  27  4.742635E+04  9.266495E+04  1.678342E+05 -5.830878E+04  6.088827E+03  8.375609E+04
        85   1 -2.315263E+04 -1.216011E+05  1.587539E+05 -8.918342E+04 -7.963342E+03 -1.181193E+05
        85   2  6.390568E+04 -2.257599E+05  2.772030E+05  1.122380E+05 -7.891858E+03 -2.714632E+05
        85   3  5.113135E+05 -2.198224E+05  5.856734E+05  3.023933E+05 -1.949296E+03 -4.247751E+05
        85   4  8.634288E+03  1.336528E+04  1.840292E+05 -4.748569E+04 -7.984331E+03 -1.130932E+05
        85   5  1.089574E+05 -4.242596E+04  3.145753E+05 -4.112551E+04 -7.813605E+03 -2.757835E+05
        85   6  5.710473E+05  1.337372E+04  6.415781E+05 -4.604555E+04 -1.676212E+03 -4.384562E+05
        85   7  4.042674E+04  1.483531E+05  2.093047E+05 -5.778664E+03 -8.004642E+03 -1.080661E+05
        85   8  1.540952E+05  1.409903E+05  3.519586E+05 -1.945353E+05 -7.733235E+03 -2.801050E+05
        85   9  6.312332E+05  2.468803E+05  6.975446E+05 -3.946165E+05 -1.387851E+03 -4.521424E+05
        85  10 -2.315645E+04 -1.216161E+05  1.587276E+05 -8.918418E+04 -1.781096E-09  7.404419E-09
        85  11  6.388582E+04 -2.258390E+05  2.770643E+05  1.122363E+05 -3.257859E-09  8.451552E-10
        85  12  5.112651E+05 -2.200161E+05  5.853342E+05  3.023926E+05  6.037007E-10 -4.953168E-09
        85  13  8.630786E+03  1.335153E+04  1.840050E+05 -4.748642E+04 -3.874227E-09  6.433476E-10
        85  14  1.089369E+05 -4.250763E+04  3.144323E+05 -4.112725E+04 -2.165019E-09 -3.311900E-11
        85  15  5.709957E+05  1.316738E+04  6.412168E+05 -4.604615E+04  1.132351E-09 -1.137791E-09
        85  16  4.042354E+04  1.483406E+05  2.092827E+05 -5.779361E+03 -3.956847E-09 -6.684443E-09
        85  17  1.540741E+05  1.409061E+05  3.518110E+05 -1.945370E+05 -1.547171E-09 -2.509318E-09
        85  18  6.311783E+05  2.466610E+05  6.971606E+05 -3.946170E+05  4.154418E-09  4.727628E-09
        85  19 -2.315263E+04 -1.216011E+05  1.587539E+05 -8.918342E+04  7.963342E+03  1.181193E+05
        85  20  6.390568E+04 -2.257599E+05  2.772030E+05  1.122380E+05  7.891858E+03  2.714632E+05
        85  21  5.113135E+05 -2.198224E+05  5.856734E+05  3.023933E+05  1.949296E+03  4.247751E+05
        85  22  8.634288E+03  1.336528E+04  1.840292E+05 -4.748569E+04  7.984331E+03  1.130932E+05
        85  23  1.089574E+05 -4.242596E+04  3.145753E+05 -4.112551E+04  7.813605E+03  2.757835E+05
        85  24  5.710473E+05  1.337372E+04  6.415781E+05 -4.604555E+04  1.676212E+03  4.384562E+05
        85  25  4.042674E+04  1.483531E+05  2.093047E+05 -5.778664E+03  8.004642E+03  1.080661E+05
        85  26  1.540952E+05  1.409903E+05  3.519586E+05 -1.945353E+05  7.733235E+03  2.801050E+05
        85  27  6.312332E+05  2.468803E+05  6.975446E+05 -3.946165E+05  1.387851E+03  4.521424E+05
        86   1 -4.517707E+06 -1.387946E+06 -8.180285E+05 -1.593901E+06 -3.226358E+05 -1.064895E+05
        86   2 -4.390081E+06 -8.838130E+05 -5.074209E+05 -1.598750E+06 -2.112714E+05 -3.415768E+04
        86   3 -4.385705E+06 -8.651489E+05 -4.055931E+05 -1.552814E+06 -8.844529E+04  7.849009E+03
        86   4 -3.323438E+06 -8.336964E+05 -4.713573E+05 -1.164627E+06 -3.034891E+05 -9.932898E+04
        86   5 -3.238537E+06 -4.203581E+05 -1.964960E+05 -1.254802E+06 -2.061535E+05 -3.224826E+04
        86   6 -3.273775E+06 -4.892126E+05 -1.189337E+05 -1.294280E+06 -9.737822E+04  4.495336E+03
        86   7 -2.127768E+06 -2.791480E+05 -1.248276E+05 -7.345347E+05 -2.843013E+05 -9.214496E+04
        86   8 -2.085703E+06  4.322621E+04  1.143084E+05 -9.102562E+05 -2.010249E+05 -3.033415E+04
        86   9 -2.160644E+06 -1.132584E+05  1.676256E+05 -1.035352E+06 -1.063287E+05  1.136633E+03
        86  10 -4.517823E+06 -1.387986E+06 -8.182472E+05 -1.593929E+06 -1.509923E-09 -1.899237E-10
        86  11 -4.390130E+06 -8.838264E+05 -5.075076E+05 -1.598756E+06 -1.656194E-09  7.680140E-10
        86  12 -4.385714E+06 -8.651511E+05 -4.056080E+05 -1.552814E+06  1.608896E-09 -1.837586E-10
        86  13 -3.323540E+06 -8.337320E+05 -4.715500E+05 -1.164652E+06  1.815231E-09 -1.833059E-10
        86  14 -3.238583E+06 -4.203707E+05 -1.965783E+05 -1.254807E+06 -2.444762E-09  6.091170E-10
        86  15 -3.273785E+06 -4.892152E+05 -1.189517E+05 -1.294280E+06 -2.038212E-09  1.284198E-10
        86  16 -2.127857E+06 -2.791790E+05 -1.249961E+05 -7.345559E+05  2.461161E-09  8.660655E-10
        86  17 -2.085747E+06  4.321431E+04  1.142305E+05 -9.102612E+05  3.630073E-09  1.281167E-09
        86  18 -2.160657E+06 -1.132614E+05  1.676043E+05 -1.035352E+06  5.904688E-09  2.923911E-11
        86  19 -4.517707E+06 -1.387946E+06 -8.180285E+05 -1.593901E+06  3.226358E+05  1.064895E+05
        86  20 -4.390081E+06 -8.838130E+05 -5.074209E+05 -1.598750E+06  2.112714E+05  3.415768E+04
        86  21 -4.385705E+06 -8.651489E+05 -4.055931E+05 -1.552814E+06  8.844529E+04 -7.849009E+03
        86  22 -3.323438E+06 -8.336964E+05 -4.713573E+05 -1.164627E+06  3.034891E+05  9.932898E+04
        86  23 -3.238537E+06 -4.203581E+05 -1.964960E+05 -1.254802E+06  2.061535E+05  3.224826E+04
        86  24 -3.273775E+06 -4.892126E+05 -1.189337E+05 -1.294280E+06  9.737822E+04 -4.495336E+03
        86  25 -2.127768E+06 -2.791480E+05 -1.248276E+05 -7.345347E+05  2.843013E+05  9.214496E+04
        86  26 -2.085703E+06  4.322621E+04  1.143084E+05 -9.102562E+05  2.010249E+05  3.033415E+04
        86  27 -2.160644E+06 -1.132584E+05  1.676256E+05 -1.035352E+06  1.063287E+05 -1.136633E+03
        87   1 -4.178285E+06 -8.985345E+05 -3.439708E+05 -1.530213E+06 -7.744107E+04  4.119751E+03
        87   2 -4.091922E+06 -7.755263E+05 -2.633738E+05 -1.469456E+06 -5.125140E+04  1.138105E+04
        87   3 -3.961389E+06 -7.648809E+05 -2.145765E+05 -1.470727E+06 -2.405022E+04  1.593454E+04
        87   4 -3.256268E+06 -5.410249E+05 -9.684927E+04 -1.268876E+06 -7.793064E+04  3.931077E+03
        87   5 -3.275731E+06 -4.658701E+05 -4.636388E+04 -1.244999E+06 -5.297568E+04  1.073216E+04
        87   6 -3.250765E+06 -5.027861E+05 -2.665684E+04 -1.283155E+06 -2.701468E+04  1.482460E+04
        87   7 -2.333422E+06 -1.834496E+05  1.501978E+05 -1.007181E+06 -7.842095E+04  3.742112E+03
        87   8 -2.458892E+06 -1.561708E+05  1.705883E+05 -1.020273E+06 -5.470244E+04  1.008233E+04
        87   9 -2.539651E+06 -2.406664E+05  1.612193E+05 -1.095390E+06 -2.998287E+04  1.371334E+04
        87  10 -4.178291E+06 -8.985362E+05 -3.439822E+05 -1.530213E+06 -2.105866E-09 -9.277933E-10
        87  11 -4.091925E+06 -7.755271E+05 -2.633790E+05 -1.469456E+06  2.398131E-10 -1.389247E-10
        87  12 -3.961390E+06 -7.648813E+05 -2.145780E+05 -1.470727E+06  3.703867E-10  1.631398E-09
        87  13 -3.256275E+06 -5.410265E+05 -9.686076E+04 -1.268876E+06  2.872851E-09 -1.813721E-10
        87  14 -3.275734E+06 -4.658710E+05 -4.636939E+04 -1.244999E+06  1.340451E-11 -2.077751E-10
        87  15 -3.250766E+06 -5.027866E+05 -2.665863E+04 -1.283155E+06  3.452492E-09  1.271110E-09
        87  16 -2.333429E+06 -1.834513E+05  1.501862E+05 -1.007180E+06  4.113041E-09  4.894519E-10
        87  17 -2.458895E+06 -1.561717E+05  1.705824E+05 -1.020273E+06 -6.678974E-10 -4.743201E-10
        87  18 -2.539652E+06 -2.406668E+05  1.612173E+05 -1.095390E+06  1.843756E-09  7.623080E-10
        87  19 -4.178285E+06 -8.985345E+05 -3.439708E+05 -1.530213E+06  7.744107E+04 -4.119751E+03
        87  20 -4.091922E+06 -7.755263E+05 -2.633738E+05 -1.469456E+06  5.125140E+04 -1.138105E+04
        87  21 -3.961389E+06 -7.648809E+05 -2.145765E+05 -1.470727E+06  2.405022E+04 -1.593454E+04
        87  22 -3.256268E+06 -5.410249E+05 -9.684927E+04 -1.268876E+06  7.793064E+04 -3.931077E+03
        87  23 -3.275731E+06 -4.658701E+05 -4.636388E+04 -1.244999E+06  5.297568E+04 -1.073216E+04
        87  24 -3.250765E+06 -5.027861E+05 -2.665684E+04 -1.283155E+06  2.701468E+04 -1.482460E+04
        87  25 -2.333422E+06 -1.834496E+05  1.501978E+05 -1.007181E+06  7.842095E+04 -3.742112E+03
        87  26 -2.458892E+06 -1.561708E+05  1.705883E+05 -1.020273E+06  5.470244E+04 -1.008233E+04
        87  27 -2.539651E+06 -2.406664E+05  1.612193E+05 -1.095390E+06  2.998287E+04 -1.371334E+04
        88   1 -3.781468E+06 -7.109750E+05 -1.622566E+05 -1.427354E+06 -1.963064E+04  1.376587E+04
        88   2 -3.693345E+06 -6.242252E+05 -1.200708E+05 -1.354064E+06 -1.208756E+04  1.081370E+04
        88   3 -3.536957E+06 -6.135735E+05 -8.350256E+04 -1.361084E+06 -4.423415E+03  7.524469E+03
        88   4 -3.247494E+06 -5.096073E+05 -2.087608E+04 -1.281645E+06 -2.193714E+04  1.290311E+04
        88   5 -3.281317E+06 -4.694211E+05 -1.082060E+04 -1.242286E+06 -1.454741E+04  9.894989E+03
        88   6 -3.246859E+06 -5.052977E+05 -6.255457E+03 -1.283239E+06 -7.037884E+03  6.549500E+03
        88   7 -2.713244E+06 -3.082226E+05  1.204793E+05 -1.135822E+06 -2.424582E+04  1.203952E+04
        88   8 -2.869124E+06 -3.146070E+05  9.841491E+04 -1.130440E+06 -1.700907E+04  8.975601E+03
        88   9 -2.956679E+06 -3.970170E+05  7.098455E+04 -1.205361E+06 -9.653707E+03  5.574031E+03
        88  10 -3.781468E+06 -7.109753E+05 -1.622576E+05 -1.427353E+06 -1.474895E-09  6.856388E-10
        88  11 -3.693345E+06 -6.242254E+05 -1.200713E+05 -1.354064E+06 -4.262404E-09 -7.130730E-10
        88  12 -3.536957E+06 -6.135736E+05 -8.350270E+04 -1.361084E+06  2.654522E-10 -2.881761E-10
        88  13 -3.247494E+06 -5.096076E+05 -2.087730E+04 -1.281645E+06  1.324360E-09  2.310313E-10
        88  14 -3.281317E+06 -4.694213E+05 -1.082119E+04 -1.242286E+06 -6.692227E-09  1.121548E-09
        88  15 -3.246859E+06 -5.052978E+05 -6.255631E+03 -1.283239E+06  1.080778E-09  5.747176E-10
        88  16 -2.713244E+06 -3.082229E+05  1.204780E+05 -1.135822E+06  2.398482E-09  9.851925E-10
        88  17 -2.869124E+06 -3.146072E+05  9.841421E+04 -1.130440E+06 -1.703734E-09  2.002609E-09
        88  18 -2.956679E+06 -3.970170E+05  7.098431E+04 -1.205361E+06  8.299227E-10  1.289697E-09
        88  19 -3.781468E+06 -7.109750E+05 -1.622566E+05 -1.427354E+06  1.963064E+04 -1.376587E+04
        88  20 -3.693345E+06 -6.242252E+05 -1.200708E+05 -1.354064E+06  1.208756E+04 -1.081370E+04
        88  21 -3.536957E+06 -6.135735E+05 -8.350256E+04 -1.361084E+06  4.423415E+03 -7.524469E+03
        88  22 -3.247494E+06 -5.096073E+05 -2.087608E+04 -1.281645E+06  2.193714E+04 -1.290311E+04
        88  23 -3.281317E+06 -4.694211E+05 -1.082060E+04 -1.242286E+06  1.454741E+04 -9.894989E+03
        88  24 -3.246859E+06 -5.052977E+05 -6.255457E+03 -1.283239E+06  7.037884E+03 -6.549500E+03
        88  25 -2.713244E+06 -3.082226E+05  1.204793E+05 -1.135822E+06  2.424582E+04 -1.203952E+04
        88  26 -2.869124E+06 -3.146070E+05  9.841491E+04 -1.130440E+06  1.700907E+04 -8.975601E+03
        88  27 -2.956679E+06 -3.970170E+05  7.098455E+04 -1.205361E+06  9.653707E+03 -5.574031E+03
        89   1 -3.352539E+06 -5.461961E+05 -3.267681E+04 -1.312297E+06 -2.352684E+03  4.624186E+03
        89   2 -3.262565E+06 -4.620246E+05  2.104555E+03 -1.236233E+06  1.258218E+03 -2.619244E+02
        89   3 -3.100356E+06 -4.512958E+05  3.551282E+04 -1.243981E+06  4.872906E+03 -5.156605E+03
        89   4 -3.246187E+06 -5.063229E+05 -4.955165E+03 -1.283409E+06 -4.921147E+03  3.666846E+03
        89   5 -3.282271E+06 -4.694170E+05 -3.117477E+03 -1.241569E+06 -1.314332E+03 -1.220886E+03
        89   6 -3.246135E+06 -5.059536E+05 -2.648094E+03 -1.283547E+06  2.295881E+03 -6.117243E+03
        89   7 -3.139822E+06 -4.664490E+05  2.276560E+04 -1.254517E+06 -7.490097E+03  2.709324E+03
        89   8 -3.301976E+06 -4.768093E+05 -8.339490E+03 -1.246905E+06 -3.886779E+03 -2.179810E+03
        89   9 -3.391891E+06 -5.606096E+05 -4.081036E+04 -1.323103E+06 -2.804512E+02 -7.077621E+03
        89  10 -3.352539E+06 -5.461961E+05 -3.267686E+04 -1.312297E+06  6.657164E-10  6.051488E-10
        89  11 -3.262565E+06 -4.620246E+05  2.104552E+03 -1.236233E+06  2.186616E-09 -2.990543E-10
        89  12 -3.100356E+06 -4.512959E+05  3.551273E+04 -1.243981E+06  7.685944E-10 -4.593725E-10
        89  13 -3.246187E+06 -5.063230E+05 -4.955235E+03 -1.283409E+06  1.032271E-09 -4.428301E-10
        89  14 -3.282271E+06 -4.694170E+05 -3.117483E+03 -1.241569E+06 -1.920356E-09 -3.559220E-09
        89  15 -3.246135E+06 -5.059537E+05 -2.648174E+03 -1.283547E+06  8.124537E-10 -2.258271E-10
        89  16 -3.139822E+06 -4.664490E+05  2.276548E+04 -1.254517E+06 -2.251569E-09 -9.222421E-10
        89  17 -3.301976E+06 -4.768093E+05 -8.339527E+03 -1.246905E+06 -5.837904E-11  8.234380E-10
        89  18 -3.391891E+06 -5.606096E+05 -4.081045E+04 -1.323103E+06 -2.489817E-09 -4.929063E-10
        89  19 -3.352539E+06 -5.461961E+05 -3.267681E+04 -1.312297E+06  2.352684E+03 -4.624186E+03
        89  20 -3.262565E+06 -4.620246E+05  2.104555E+03 -1.236233E+06 -1.258218E+03  2.619244E+02
        89  21 -3.100356E+06 -4.512958E+05  3.551282E+04 -1.243981E+06 -4.872906E+03  5.156605E+03
        89  22 -3.246187E+06 -5.063229E+05 -4.955165E+03 -1.283409E+06  4.921147E+03 -3.666846E+03
        89  23 -3.282271E+06 -4.694170E+05 -3.117477E+03 -1.241569E+06  1.314332E+03  1.220886E+03
        89  24 -3.246135E+06 -5.059536E+05 -2.648094E+03 -1.283547E+06 -2.295881E+03  6.117243E+03
        89  25 -3.139822E+06 -4.664490E+05  2.276560E+04 -1.254517E+06  7.490097E+03 -2.709324E+03
        89  26 -3.301976E+06 -4.768093E+05 -8.339490E+03 -1.246905E+06  3.886779E+03  2.179810E+03
        89  27 -3.391891E+06 -5.606096E+05 -4.081036E+04 -1.323103E+06  2.804512E+02  7.077621E+03
        90   1 -2.917762E+06 -3.820779E+05  8.486934E+04 -1.194056E+06  6.492513E+03 -8.189625E+03
        90   2 -2.831093E+06 -3.010578E+05  1.157209E+05 -1.120259E+06  1.025788E+04 -1.290805E+04
        90   3 -2.674314E+06 -2.911693E+05  1.451051E+05 -1.127282E+06  1.396509E+04 -1.745120E+04
        90   4 -3.246623E+06 -5.053631E+05 -2.715760E+03 -1.282924E+06  3.925275E+03 -9.147191E+03
        90   5 -3.281727E+06 -4.701535E+05 -3.671974E+03 -1.242376E+06  7.770921E+03 -1.383723E+04
        90   6 -3.246747E+06 -5.060978E+05 -6.159218E+03 -1.282659E+06  1.155798E+04 -1.835201E+04
        90   7 -3.575382E+06 -6.286432E+05 -9.031110E+04 -1.371751E+06  1.359513E+03 -1.010421E+04
        90   8 -3.732166E+06 -6.392386E+05 -1.230833E+05 -1.364414E+06  5.285930E+03 -1.476568E+04
        90   9 -3.818866E+06 -7.210081E+05 -1.574528E+05 -1.437908E+06  9.153298E+03 -1.925191E+04
        90  10 -2.917762E+06 -3.820780E+05  8.486914E+04 -1.194056E+06  3.511110E-09  2.412362E-11
        90  11 -2.831094E+06 -3.010580E+05  1.157204E+05 -1.120259E+06 -5.624723E-10  4.476012E-09
        90  12 -2.674314E+06 -2.911697E+05  1.451041E+05 -1.127282E+06 -4.482325E-10 -4.452265E-10
        90  13 -3.246623E+06 -5.053632E+05 -2.715946E+03 -1.282924E+06  1.907357E-09  7.236073E-10
        90  14 -3.281727E+06 -4.701537E+05 -3.672446E+03 -1.242376E+06 -2.247023E-09  3.496934E-10
        90  15 -3.246748E+06 -5.060982E+05 -6.160101E+03 -1.282659E+06  2.669029E-09 -1.529674E-10
        90  16 -3.575382E+06 -6.286433E+05 -9.031129E+04 -1.371751E+06 -4.051816E-09 -1.543654E-09
        90  17 -3.732166E+06 -6.392389E+05 -1.230838E+05 -1.364414E+06 -2.228791E-09 -1.262203E-09
        90  18 -3.818866E+06 -7.210085E+05 -1.574536E+05 -1.437908E+06  8.966240E-10 -1.037255E-09
        90  19 -2.917762E+06 -3.820779E+05  8.486934E+04 -1.194056E+06 -6.492513E+03  8.189625E+03
        90  20 -2.831093E+06 -3.010578E+05  1.157209E+05 -1.120259E+06 -1.025788E+04  1.290805E+04
        90  21 -2.674314E+06 -2.911693E+05  1.451051E+05 -1.127282E+06 -1.396509E+04  1.745120E+04
        90  22 -3.246623E+06 -5.053631E+05 -2.715760E+03 -1.282924E+06 -3.925275E+03  9.147191E+03
        90  23 -3.281727E+06 -4.701535E+05 -3.671974E+03 -1.242376E+06 -7.770921E+03  1.383723E+04
        90  24 -3.246747E+06 -5.060978E+05 -6.159218E+03 -1.282659E+06 -1.155798E+04  1.835201E+04
        90  25 -3.575382E+06 -6.286432E+05 -9.031110E+04 -1.371751E+06 -1.359513E+03  1.010421E+04
        90  26 -3.732166E+06 -6.392386E+05 -1.230833E+05 -1.364414E+06 -5.285930E+03  1.476568E+04
        90  27 -3.818866E+06 -7.210081E+05 -1.574528E+05 -1.437908E+06 -9.153298E+03  1.925191E+04
        91   1 -2.504452E+06 -2.250732E+05  1.896113E+05 -1.080281E+06  1.626617E+04 -2.002407E+04
        91   2 -2.426313E+06 -1.503292E+05  2.123398E+05 -1.012404E+06  2.489330E+04 -2.240889E+04
        91   3 -2.286770E+06 -1.459318E+05  2.284338E+05 -1.015865E+06  3.333460E+04 -2.426383E+04
        91   4 -3.248460E+06 -5.038102E+05 -7.840709E+03 -1.281377E+06  1.382291E+04 -2.093989E+04
        91   5 -3.279554E+06 -4.714244E+05 -1.384858E+04 -1.244657E+06  2.268850E+04 -2.323809E+04
        91   6 -3.249304E+06 -5.094449E+05 -2.668707E+04 -1.279286E+06  3.136687E+04 -2.500655E+04
        91   7 -3.991924E+06 -7.825124E+05 -2.053386E+05 -1.482252E+06  1.138290E+04 -2.185450E+04
        91   8 -4.132086E+06 -7.924749E+05 -2.400994E+05 -1.476621E+06  2.048704E+04 -2.406605E+04
        91   9 -4.210945E+06 -8.729021E+05 -2.818894E+05 -1.542338E+06  2.940248E+04 -2.574800E+04
        91  10 -2.504453E+06 -2.250737E+05  1.896101E+05 -1.080281E+06 -1.586252E-09 -8.156718E-10
        91  11 -2.426314E+06 -1.503299E+05  2.123377E+05 -1.012403E+06 -8.666834E-10 -6.711381E-10
        91  12 -2.286771E+06 -1.459327E+05  2.284306E+05 -1.015864E+06 -7.735053E-10 -1.904813E-12
        91  13 -3.248461E+06 -5.038107E+05 -7.841890E+03 -1.281376E+06  1.649729E-10  1.414307E-10
        91  14 -3.279554E+06 -4.714252E+05 -1.385056E+04 -1.244657E+06  2.121255E-09  4.165900E-10
        91  15 -3.249306E+06 -5.094459E+05 -2.669010E+04 -1.279285E+06 -1.887154E-10 -1.375402E-09
        91  16 -3.991924E+06 -7.825130E+05 -2.053398E+05 -1.482251E+06  1.932848E-09  4.715620E-10
        91  17 -4.132086E+06 -7.924757E+05 -2.401013E+05 -1.476621E+06 -6.755845E-10  1.007406E-09
        91  18 -4.210946E+06 -8.729031E+05 -2.818923E+05 -1.542337E+06 -1.944440E-09 -1.539220E-09
        91  19 -2.504452E+06 -2.250732E+05  1.896113E+05 -1.080281E+06 -1.626617E+04  2.002407E+04
        91  20 -2.426313E+06 -1.503292E+05  2.123398E+05 -1.012404E+06 -2.489330E+04  2.240889E+04
        91  21 -2.286770E+06 -1.459318E+05  2.284338E+05 -1.015865E+06 -3.333460E+04  2.426383E+04
        91  22 -3.248460E+06 -5.038102E+05 -7.840709E+03 -1.281377E+06 -1.382291E+04  2.093989E+04
        91  23 -3.279554E+06 -4.714244E+05 -1.384858E+04 -1.244657E+06 -2.268850E+04  2.323809E+04
        91  24 -3.249304E+06 -5.094449E+05 -2.668707E+04 -1.279286E+06 -3.136687E+04  2.500655E+04
        91  25 -3.991924E+06 -7.825124E+05 -2.053386E+05 -1.482252E+06 -1.138290E+04  2.185450E+04
        91  26 -4.132086E+06 -7.924749E+05 -2.400994E+05 -1.476621E+06 -2.048704E+04  2.406605E+04
        91  27 -4.210945E+06 -8.729021E+05 -2.818894E+05 -1.542338E+06 -2.940248E+04  2.574800E+04
        92   1 -2.137267E+06 -8.575228E+04  2.611288E+05 -9.826806E+05  4.012037E+04 -2.513649E+04
        92   2 -2.071007E+06 -1.106975E+04  2.596595E+05 -9.171820E+05  7.105085E+04 -1.818684E+04
        92   3 -1.976076E+06 -4.993911E+04  2.202256E+05 -8.966632E+05  1.007410E+05 -7.906438E+03
        92   4 -3.254025E+06 -5.001472E+05 -3.409516E+04 -1.280607E+06  3.737718E+04 -2.617229E+04
        92   5 -3.271745E+06 -4.676126E+05 -5.945019E+04 -1.248930E+06  6.981497E+04 -1.865933E+04
        92   6 -3.261148E+06 -5.490173E+05 -1.240282E+05 -1.262235E+06  1.010068E+05 -7.815362E+03
        92   7 -4.369574E+06 -9.144764E+05 -3.294266E+05 -1.578052E+06  3.463939E+04 -2.720613E+04
        92   8 -4.471082E+06 -9.240608E+05 -3.786851E+05 -1.580093E+06  6.858163E+04 -1.913085E+04
        92   9 -4.544613E+06 -1.047968E+06 -4.684271E+05 -1.627110E+06  1.012719E+05 -7.724612E+03
        92  10 -2.137269E+06 -8.575339E+04  2.611246E+05 -9.826798E+05 -4.164581E-09 -8.691440E-10
        92  11 -2.071012E+06 -1.107146E+04  2.596494E+05 -9.171809E+05 -3.387988E-09  3.271071E-09
        92  12 -1.976086E+06 -4.994191E+04  2.202063E+05 -8.966626E+05  4.155311E-10  1.383790E-09
        92  13 -3.254027E+06 -5.001483E+05 -3.409907E+04 -1.280606E+06 -2.502215E-09 -2.758479E-10
        92  14 -3.271750E+06 -4.676143E+05 -5.946004E+04 -1.248928E+06  3.622759E-10  1.159185E-09
        92  15 -3.261159E+06 -5.490201E+05 -1.240476E+05 -1.262234E+06  2.349786E-09 -8.028213E-10
        92  16 -4.369576E+06 -9.144775E+05 -3.294302E+05 -1.578052E+06  7.193065E-10  2.771396E-10
        92  17 -4.471087E+06 -9.240624E+05 -3.786947E+05 -1.580092E+06  1.079731E-09  8.762275E-10
        92  18 -4.544624E+06 -1.047970E+06 -4.684466E+05 -1.627110E+06 -3.284627E-10 -1.947341E-09
        92  19 -2.137267E+06 -8.575228E+04  2.611288E+05 -9.826806E+05 -4.012037E+04  2.513649E+04
        92  20 -2.071007E+06 -1.106975E+04  2.596595E+05 -9.171820E+05 -7.105085E+04  1.818684E+04
        92  21 -1.976076E+06 -4.993911E+04  2.202256E+05 -8.966632E+05 -1.007410E+05  7.906438E+03
        92  22 -3.254025E+06 -5.001472E+05 -3.409516E+04 -1.280607E+06 -3.737718E+04  2.617229E+04
        92  23 -3.271745E+06 -4.676126E+05 -5.945019E+04 -1.248930E+06 -6.981497E+04  1.865933E+04
        92  24 -3.261148E+06 -5.490173E+05 -1.240282E+05 -1.262235E+06 -1.010068E+05  7.815362E+03
        92  25 -4.369574E+06 -9.144764E+05 -3.294266E+05 -1.578052E+06 -3.463939E+04  2.720613E+04
        92  26 -4.471082E+06 -9.240608E+05 -3.786851E+05 -1.580093E+06 -6.858163E+04  1.913085E+04
        92  27 -4.544613E+06 -1.047968E+06 -4.684271E+05 -1.627110E+06 -1.012719E+05  7.724612E+03
        93   1 -1.830875E+06  1.120284E+04  2.220805E+05 -9.529823E+05  1.351095E+05 -3.058524E+03
        93   2 -1.773009E+06  1.776605E+05  1.400742E+05 -8.244875E+05  2.567083E+05  4.031206E+04
        93   3 -1.895568E+06 -2.382444E+05 -1.807028E+05 -5.953022E+05  3.645076E+05  1.200216E+05
        93   4 -3.283615E+06 -4.826975E+05 -1.523412E+05 -1.294827E+06  1.252660E+05 -6.779138E+03
        93   5 -3.223723E+06 -4.094944E+05 -2.517360E+05 -1.261702E+06  2.636558E+05  4.292170E+04
        93   6 -3.348118E+06 -9.228407E+05 -6.037131E+05 -1.127760E+06  3.882249E+05  1.289559E+05
        93   7 -4.734313E+06 -9.765639E+05 -5.269351E+05 -1.635991E+06  1.154476E+05 -1.049246E+04
        93   8 -4.672383E+06 -9.964327E+05 -6.437345E+05 -1.697959E+06  2.705847E+05  4.552321E+04
        93   9 -4.798569E+06 -1.606953E+06 -1.026926E+06 -1.658971E+06  4.118797E+05  1.378537E+05
        93  10 -1.830895E+06  1.119792E+04  2.220461E+05 -9.529820E+05 -5.396822E-10 -3.241545E-09
        93  11 -1.773080E+06  1.776410E+05  1.399468E+05 -8.244958E+05  2.687246E-09 -4.077561E-10
        93  12 -1.895715E+06 -2.382957E+05 -1.809805E+05 -5.953375E+05  1.174665E-09 -1.938426E-09
        93  13 -3.283632E+06 -4.827018E+05 -1.523709E+05 -1.294826E+06  6.236111E-10 -9.097392E-11
        93  14 -3.223798E+06 -4.095151E+05 -2.518709E+05 -1.261711E+06 -5.582582E-09  3.992223E-09
        93  15 -3.348285E+06 -9.228994E+05 -6.040295E+05 -1.127801E+06  4.008560E-09 -9.879462E-10
        93  16 -4.734327E+06 -9.765676E+05 -5.269606E+05 -1.635990E+06  3.661898E-09 -3.302436E-09
        93  17 -4.672463E+06 -9.964548E+05 -6.438771E+05 -1.697969E+06  1.056748E-09  3.351900E-09
        93  18 -4.798758E+06 -1.607019E+06 -1.027283E+06 -1.659017E+06  1.026613E-09 -2.941736E-09
        93  19 -1.830875E+06  1.120284E+04  2.220805E+05 -9.529823E+05 -1.351095E+05  3.058524E+03
        93  20 -1.773009E+06  1.776605E+05  1.400742E+05 -8.244875E+05 -2.567083E+05 -4.031206E+04
        93  21 -1.895568E+06 -2.382444E+05 -1.807028E+05 -5.953022E+05 -3.645076E+05 -1.200216E+05
        93  22 -3.283615E+06 -4.826975E+05 -1.523412E+05 -1.294827E+06 -1.252660E+05  6.779138E+03
        93  23 -3.223723E+06 -4.094944E+05 -2.517360E+05 -1.261702E+06 -2.636558E+05 -4.292170E+04
        93  24 -3.348118E+06 -9.228407E+05 -6.037131E+05 -1.127760E+06 -3.882249E+05 -1.289559E+05
        93  25 -4.734313E+06 -9.765639E+05 -5.269351E+05 -1.635991E+06 -1.154476E+05  1.049246E+04
        93  26 -4.672383E+06 -9.964327E+05 -6.437345E+05 -1.697959E+06 -2.705847E+05 -4.552321E+04
        93  27 -4.798569E+06 -1.606953E+06 -1.026926E+06 -1.658971E+06 -4.118797E+05 -1.378537E+05
        94   1  4.417476E+05  2.727374E+05  4.351311E+05 -1.202158E+05  1.716356E+04  2.679942E+04
        94   2  3.842452E+05  3.697000E+04  3.653663E+05 -3.508621E+04  5.000056E+04  9.022806E+03
        94   3  3.262896E+05 -1.952442E+05  3.073849E+05 -1.232494E+05  4.195027E+04 -8.866481E+03
        94   4 -3.234919E+03 -1.510638E+06 -5.328261E+03 -1.182225E+05  1.723379E+04 -3.722689E+01
        94   5  3.516533E+02 -1.510531E+06 -5.384761E+03 -3.155866E+04  5.002976E+04  2.802972E+03
        94   6 -9.694274E+01 -1.510503E+06 -7.975946E+03 -1.182146E+05  4.189330E+04  5.523790E+03
        94   7 -4.484549E+05 -3.291118E+06 -4.460211E+05 -1.162328E+05  1.730396E+04 -2.679688E+04
        94   8 -3.837160E+05 -3.055836E+06 -3.763054E+05 -2.803806E+04  5.005894E+04 -3.401427E+03
        94   9 -3.266092E+05 -2.824174E+06 -3.234588E+05 -1.131887E+05  4.183651E+04  1.988368E+04
        94  10  4.417471E+05  2.727366E+05  4.351292E+05 -1.202162E+05 -1.400517E-09 -6.370262E-10
        94  11  3.842425E+05  3.696925E+04  3.653615E+05 -3.508658E+04 -7.001473E-10 -6.007612E-09
        94  12  3.262877E+05 -1.952447E+05  3.073815E+05 -1.232491E+05 -3.957302E-09 -4.548149E-10
        94  13 -3.235237E+03 -1.510638E+06 -5.328819E+03 -1.182225E+05 -4.674803E-10  1.365165E-09
        94  14  3.489653E+02 -1.510532E+06 -5.389476E+03 -3.155878E+04 -3.275043E-09 -3.432708E-09
        94  15 -9.883432E+01 -1.510503E+06 -7.979299E+03 -1.182148E+05  2.187627E-09  1.603038E-09
        94  16 -4.484554E+05 -3.291119E+06 -4.460230E+05 -1.162325E+05  8.888217E-10  7.095727E-10
        94  17 -3.837187E+05 -3.055837E+06 -3.763101E+05 -2.803792E+04  1.953876E-09  1.945256E-09
        94  18 -3.266112E+05 -2.824175E+06 -3.234628E+05 -1.131894E+05  3.378946E-09  1.576691E-11
        94  19  4.417476E+05  2.727374E+05  4.351311E+05 -1.202158E+05 -1.716356E+04 -2.679942E+04
        94  20  3.842452E+05  3.697000E+04  3.653663E+05 -3.508621E+04 -5.000056E+04 -9.022806E+03
        94  21  3.262896E+05 -1.952442E+05  3.073849E+05 -1.232494E+05 -4.195027E+04  8.866481E+03
        94  22 -3.234919E+03 -1.510638E+06 -5.328261E+03 -1.182225E+05 -1.723379E+04  3.722689E+01
        94  23  3.516533E+02 -1.510531E+06 -5.384761E+03 -3.155866E+04 -5.002976E+04 -2.802972E+03
        94  24 -9.694274E+01 -1.510503E+06 -7.975946E+03 -1.182146E+05 -4.189330E+04 -5.523790E+03
        94  25 -4.484549E+05 -3.291118E+06 -4.460211E+05 -1.162328E+05 -1.730396E+04  2.679688E+04
        94  26 -3.837160E+05 -3.055836E+06 -3.763054E+05 -2.803806E+04 -5.005894E+04  3.401427E+03
        94  27 -3.266092E+05 -2.824174E+06 -3.234588E+05 -1.131887E+05 -4.183651E+04 -1.988368E+04
        95   1  2.477832E+05 -5.177287E+05  2.287110E+05 -1.213861E+05  3.037122E+04  4.316311E+03
        95   2  1.889091E+05 -7.557997E+05  1.644706E+05 -3.339079E+04  2.373089E+04  1.136614E+04
        95   3  1.170591E+05 -9.996057E+05  9.204444E+04 -1.252812E+05  1.468557E+04  1.838744E+04
        95   4  1.039191E+03 -1.511611E+06 -1.005687E+04 -1.196598E+05  3.036146E+04  7.032160E+03
        95   5  2.015858E+03 -1.508584E+06 -1.615666E+04 -2.974040E+04  2.371262E+04  1.528424E+04
        95   6 -1.019716E+04 -1.511556E+06 -3.127947E+04 -1.197212E+05  1.465736E+04  2.351048E+04
        95   7 -2.457768E+05 -2.504587E+06 -2.488950E+05 -1.179351E+05  3.035170E+04  9.743667E+03
        95   8 -1.849186E+05 -2.260847E+06 -1.968241E+05 -2.609378E+04  2.369437E+04  1.919760E+04
        95   9 -1.374725E+05 -2.023266E+06 -1.546220E+05 -1.141654E+05  1.462923E+04  2.862930E+04
        95  10  2.477822E+05 -5.177290E+05  2.287092E+05 -1.213862E+05 -9.553842E-10  1.969407E-09
        95  11  1.889084E+05 -7.558000E+05  1.644693E+05 -3.339101E+04  2.856805E-09 -6.712507E-09
        95  12  1.170588E+05 -9.996061E+05  9.204340E+04 -1.252814E+05  3.608290E-09 -2.147346E-09
        95  13  1.038189E+03 -1.511611E+06 -1.005870E+04 -1.196600E+05 -5.710150E-10  2.456883E-09
        95  14  2.015192E+03 -1.508584E+06 -1.615816E+04 -2.974069E+04  2.372351E-10 -5.461997E-09
        95  15 -1.019754E+04 -1.511557E+06 -3.128091E+04 -1.197214E+05 -5.558799E-10  1.786974E-09
        95  16 -2.457779E+05 -2.504588E+06 -2.488969E+05 -1.179354E+05  3.160191E-09 -2.073917E-09
        95  17 -1.849193E+05 -2.260848E+06 -1.968259E+05 -2.609414E+04  4.652610E-10  4.933568E-10
        95  18 -1.374730E+05 -2.023267E+06 -1.546239E+05 -1.141657E+05 -2.337417E-09  1.037854E-09
        95  19  2.477832E+05 -5.177287E+05  2.287110E+05 -1.213861E+05 -3.037122E+04 -4.316311E+03
        95  20  1.889091E+05 -7.557997E+05  1.644706E+05 -3.339079E+04 -2.373089E+04 -1.136614E+04
        95  21  1.170591E+05 -9.996057E+05  9.204444E+04 -1.252812E+05 -1.468557E+04 -1.838744E+04
        95  22  1.039191E+03 -1.511611E+06 -1.005687E+04 -1.196598E+05 -3.036146E+04 -7.032160E+03
        95  23  2.015858E+03 -1.508584E+06 -1.615666E+04 -2.974040E+04 -2.371262E+04 -1.528424E+04
        95  24 -1.019716E+04 -1.511556E+06 -3.127947E+04 -1.197212E+05 -1.465736E+04 -2.351048E+04
        95  25 -2.457768E+05 -2.504587E+06 -2.488950E+05 -1.179351E+05 -3.035170E+04 -9.743667E+03
        95  26 -1.849186E+05 -2.260847E+06 -1.968241E+05 -2.609378E+04 -2.369437E+04 -1.919760E+04
        95  27 -1.374725E+05 -2.023266E+06 -1.546220E+05 -1.141654E+05 -1.462923E+04 -2.862930E+04
        96   1  5.253289E+04 -1.334511E+06  5.499908E+03 -1.060573E+05  7.070560E+03  2.229164E+04
        96   2  1.911479E+03 -1.557265E+06 -7.500791E+04 -3.909166E+04 -2.485399E+03  6.005441E+04
        96   3 -1.841536E+05 -1.821316E+06 -2.145634E+05 -1.540110E+05 -2.446816E+03  9.785547E+04
        96   4  6.981132E+03 -1.519137E+06 -3.832764E+04 -1.199187E+05  7.028883E+03  2.940343E+04
        96   5  1.623644E+04 -1.498937E+06 -6.113112E+04 -2.929788E+04 -2.497441E+03  6.234104E+04
        96   6 -1.090987E+05 -1.519231E+06 -1.396088E+05 -1.205715E+05 -2.426789E+03  9.533181E+04
        96   7 -3.857229E+04 -1.703732E+06 -8.215727E+04 -1.337759E+05  6.986881E+03  3.651310E+04
        96   8  3.056153E+04 -1.440606E+06 -4.725449E+04 -1.950317E+04 -2.509410E+03  6.462789E+04
        96   9 -3.404621E+04 -1.217061E+06 -6.466034E+04 -8.711549E+04 -2.407039E+03  9.280691E+04
        96  10  5.253270E+04 -1.334511E+06  5.498878E+03 -1.060574E+05  2.509206E-09 -1.518550E-09
        96  11  1.910501E+03 -1.557269E+06 -7.501471E+04 -3.909154E+04  1.330970E-09 -8.344807E-09
        96  12 -1.841562E+05 -1.821327E+06 -2.145814E+05 -1.540108E+05 -3.114930E-10  2.514949E-10
        96  13  6.980846E+03 -1.519138E+06 -3.832937E+04 -1.199188E+05 -6.534943E-09  2.995967E-09
        96  14  1.623539E+04 -1.498941E+06 -6.113845E+04 -2.929776E+04 -2.939969E-09 -6.419013E-09
        96  15 -1.091011E+05 -1.519241E+06 -1.396259E+05 -1.205713E+05 -2.438539E-09  1.635575E-09
        96  16 -3.857270E+04 -1.703733E+06 -8.215987E+04 -1.337761E+05 -1.605793E-09  1.767821E-09
        96  17  3.056040E+04 -1.440611E+06 -4.726237E+04 -1.950304E+04 -6.207314E-09  1.388789E-09
        96  18 -3.404853E+04 -1.217070E+06 -6.467657E+04 -8.711531E+04 -7.339809E-10 -1.364143E-09
        96  19  5.253289E+04 -1.334511E+06  5.499908E+03 -1.060573E+05 -7.070560E+03 -2.229164E+04
        96  20  1.911479E+03 -1.557265E+06 -7.500791E+04 -3.909166E+04  2.485399E+03 -6.005441E+04
        96  21 -1.841536E+05 -1.821316E+06 -2.145634E+05 -1.540110E+05  2.446816E+03 -9.785547E+04
        96  22  6.981132E+03 -1.519137E+06 -3.832764E+04 -1.199187E+05 -7.028883E+03 -2.940343E+04
        96  23  1.623644E+04 -1.498937E+06 -6.113112E+04 -2.929788E+04  2.497441E+03 -6.234104E+04
        96  24 -1.090987E+05 -1.519231E+06 -1.396088E+05 -1.205715E+05  2.426789E+03 -9.533181E+04
        96  25 -3.857229E+04 -1.703732E+06 -8.215727E+04 -1.337759E+05 -6.986881E+03 -3.651310E+04
        96  26  3.056153E+04 -1.440606E+06 -4.725449E+04 -1.950317E+04  2.509410E+03 -6.462789E+04
        96  27 -3.404621E+04 -1.217061E+06 -6.466034E+04 -8.711549E+04  2.407039E+03 -9.280691E+04
        97   1 -2.232818E+04  1.281772E+04  1.863957E+04  1.731309E+02  1.680726E+04  4.103989E+01
        97   2 -2.624745E+04 -1.056114E+04  4.467935E+03  1.051468E+02  1.106929E+04  5.731519E+01
        97   3 -2.229408E+04 -6.576558E+03  9.300535E+02 -2.597093E+02  5.331278E+03  4.029172E+01
        97   4  1.704495E+03  1.882471E+04  2.464729E+04 -1.150598E+02  1.680871E+04  4.103353E+01
        97   5 -2.231874E+03 -4.557479E+03  1.047118E+04  4.811605E+01  1.106975E+04  5.731424E+01
        97   6  1.704293E+03 -5.766120E+02  6.929231E+03 -8.557706E+01  5.330740E+03  4.029248E+01
        97   7  2.573769E+04  2.483166E+04  3.065496E+04 -4.032619E+02  1.681016E+04  4.102717E+01
        97   8  2.178422E+04  1.446137E+03  1.647438E+04 -8.917122E+00  1.107020E+04  5.731328E+01
        97   9  2.570319E+04  5.423291E+03  1.292836E+04  8.856175E+01  5.330202E+03  4.029324E+01
        97  10 -2.232848E+04  1.281764E+04  1.863904E+04  1.731303E+02  1.593992E-09 -4.836088E-09
        97  11 -2.624758E+04 -1.056117E+04  4.467705E+03  1.051463E+02  2.417991E-09 -3.724967E-09
        97  12 -2.229411E+04 -6.576566E+03  9.300001E+02 -2.597094E+02  4.704821E-09  1.218621E-08
        97  13  1.704191E+03  1.882464E+04  2.464676E+04 -1.150604E+02  2.153612E-09  6.093344E-10
        97  14 -2.232005E+03 -4.557512E+03  1.047095E+04  4.811553E+01 -4.223792E-09 -1.084721E-09
        97  15  1.704262E+03 -5.766197E+02  6.929177E+03 -8.557724E+01  5.522746E-10 -1.205347E-09
        97  16  2.573739E+04  2.483158E+04  3.065443E+04 -4.032624E+02 -7.143719E-10  3.609168E-09
        97  17  2.178409E+04  1.446104E+03  1.647415E+04 -8.917633E+00 -1.426907E-09  1.866167E-09
        97  18  2.570316E+04  5.423283E+03  1.292831E+04  8.856158E+01 -9.101142E-10 -1.163463E-08
        97  19 -2.232818E+04  1.281772E+04  1.863957E+04  1.731309E+02 -1.680726E+04 -4.103989E+01
        97  20 -2.624745E+04 -1.056114E+04  4.467935E+03  1.051468E+02 -1.106929E+04 -5.731519E+01
        97  21 -2.229408E+04 -6.576558E+03  9.300535E+02 -2.597093E+02 -5.331278E+03 -4.029172E+01
        97  22  1.704495E+03  1.882471E+04  2.464729E+04 -1.150598E+02 -1.680871E+04 -4.103353E+01
        97  23 -2.231874E+03 -4.557479E+03  1.047118E+04  4.811605E+01 -1.106975E+04 -5.731424E+01
        97  24  1.704293E+03 -5.766120E+02  6.929231E+03 -8.557706E+01 -5.330740E+03 -4.029248E+01
        97  25  2.573769E+04  2.483166E+04  3.065496E+04 -4.032619E+02 -1.681016E+04 -4.102717E+01
        97  26  2.178422E+04  1.446137E+03  1.647438E+04 -8.917123E+00 -1.107020E+04 -5.731328E+01
        97  27  2.570319E+04  5.423291E+03  1.292836E+04  8.856175E+01 -5.330202E+03 -4.029324E+01
        98   1 -1.817883E+04 -1.660736E+03  1.121558E+03 -5.230864E+01  4.174955E+03  3.102621E+01
        98   2 -1.887563E+04 -5.324355E+03 -1.916027E+03  4.688075E+01  2.754394E+03  3.135430E+01
        98   3 -1.814561E+04 -4.690322E+03 -2.920831E+03 -1.156769E+02  1.333836E+03  2.603107E+01
        98   4  2.720054E+02  2.951850E+03  5.733856E+03 -8.874308E+01  4.175142E+03  3.102598E+01
        98   5 -4.414210E+02 -7.158523E+02  2.692105E+03  4.329160E+01  2.754409E+03  3.135420E+01
        98   6  2.719568E+02 -8.593778E+01  1.683212E+03 -8.642020E+01  1.333679E+03  2.603103E+01
        98   7  1.872315E+04  7.564409E+03  1.034613E+04 -1.251787E+02  4.175330E+03  3.102576E+01
        98   8  1.799309E+04  3.892625E+03  7.300211E+03  3.970231E+01  2.754423E+03  3.135411E+01
        98   9  1.868984E+04  4.518421E+03  6.287230E+03 -5.716272E+01  1.333521E+03  2.603099E+01
        98  10 -1.817885E+04 -1.660740E+03  1.121525E+03 -5.230874E+01  2.157271E-09 -4.244206E-09
        98  11 -1.887563E+04 -5.324357E+03 -1.916041E+03  4.688067E+01 -2.803045E-09 -1.824499E-08
        98  12 -1.814562E+04 -4.690322E+03 -2.920835E+03 -1.156769E+02  6.630986E-09  7.669198E-08
        98  13  2.719867E+02  2.951845E+03  5.733823E+03 -8.874319E+01 -2.154703E-09  1.357933E-09
        98  14 -4.414292E+02 -7.158544E+02  2.692091E+03  4.329153E+01 -4.271545E-09  2.733793E-10
        98  15  2.719549E+02 -8.593829E+01  1.683209E+03 -8.642023E+01 -8.028424E-10 -3.286285E-10
        98  16  1.872313E+04  7.564404E+03  1.034610E+04 -1.251788E+02  9.705255E-10  4.968460E-09
        98  17  1.799308E+04  3.892623E+03  7.300196E+03  3.970224E+01  3.840222E-09  1.788452E-08
        98  18  1.868983E+04  4.518420E+03  6.287227E+03 -5.716275E+01 -5.977484E-09 -7.664806E-08
        98  19 -1.817883E+04 -1.660736E+03  1.121558E+03 -5.230864E+01 -4.174955E+03 -3.102621E+01
        98  20 -1.887563E+04 -5.324355E+03 -1.916027E+03  4.688075E+01 -2.754394E+03 -3.135430E+01
        98  21 -1.814561E+04 -4.690322E+03 -2.920831E+03 -1.156769E+02 -1.333836E+03 -2.603107E+01
        98  22  2.720054E+02  2.951850E+03  5.733856E+03 -8.874308E+01 -4.175142E+03 -3.102598E+01
        98  23 -4.414210E+02 -7.158523E+02  2.692105E+03  4.329160E+01 -2.754409E+03 -3.135420E+01
        98  24  2.719568E+02 -8.593784E+01  1.683212E+03 -8.642021E+01 -1.333679E+03 -2.603103E+01
        98  25  1.872315E+04  7.564409E+03  1.034613E+04 -1.251787E+02 -4.175330E+03 -3.102576E+01
        98  26  1.799309E+04  3.892625E+03  7.300211E+03  3.970231E+01 -2.754423E+03 -3.135411E+01
        98  27  1.868984E+04  4.518421E+03  6.287230E+03 -5.716272E+01 -1.333521E+03 -2.603099E+01
        99   1 -1.282924E+04 -2.754342E+03 -1.876421E+03 -8.186579E+01  1.057843E+03  2.289360E+01
        99   2 -1.295660E+04 -3.317561E+03 -2.573139E+03  4.391370E+01  7.296617E+02  2.025501E+01
        99   3 -1.279560E+04 -3.222106E+03 -2.875337E+03 -8.911024E+01  4.014849E+02  1.664046E+01
        99   4  1.903287E+01  4.576760E+02  1.335315E+03 -8.653955E+01  1.057808E+03  2.289356E+01
        99   5 -1.251615E+02 -1.097396E+02  6.344288E+02  4.290650E+01  7.295973E+02  2.025497E+01
        99   6  1.900475E+01 -1.848273E+01  3.280788E+02 -8.645057E+01  4.013912E+02  1.664046E+01
        99   7  1.286745E+04  3.669681E+03  4.547037E+03 -9.121341E+01  1.057773E+03  2.289351E+01
        99   8  1.270643E+04  3.098069E+03  3.841984E+03  4.189928E+01  7.295330E+02  2.025494E+01
        99   9  1.283376E+04  3.185129E+03  3.531482E+03 -8.379083E+01  4.012975E+02  1.664045E+01
        99  10 -1.282924E+04 -2.754342E+03 -1.876423E+03 -8.186581E+01 -2.174734E-09 -1.974542E-08
        99  11 -1.295660E+04 -3.317561E+03 -2.573140E+03  4.391369E+01 -6.943085E-09 -1.065137E-07
        99  12 -1.279560E+04 -3.222107E+03 -2.875337E+03 -8.911025E+01  3.855342E-08  4.431232E-07
        99  13  1.903167E+01  4.576757E+02  1.335312E+03 -8.653957E+01 -2.154075E-09  5.315314E-10
        99  14 -1.251620E+02 -1.097397E+02  6.344278E+02  4.290649E+01 -4.305331E-09  6.192976E-12
        99  15  1.900453E+01 -1.848296E+01  3.280784E+02 -8.645058E+01 -1.348652E-09 -3.338190E-09
        99  16  1.286745E+04  3.669681E+03  4.547035E+03 -9.121343E+01 -8.423992E-12  2.116758E-08
        99  17  1.270642E+04  3.098069E+03  3.841983E+03  4.189927E+01  9.095914E-09  1.067291E-07
        99  18  1.283376E+04  3.185128E+03  3.531481E+03 -8.379085E+01 -4.104114E-08 -4.506430E-07
        99  19 -1.282924E+04 -2.754342E+03 -1.876421E+03 -8.186579E+01 -1.057843E+03 -2.289361E+01
        99  20 -1.295660E+04 -3.317561E+03 -2.573139E+03  4.391370E+01 -7.296617E+02 -2.025501E+01
        99  21 -1.279560E+04 -3.222107E+03 -2.875337E+03 -8.911025E+01 -4.014849E+02 -1.664046E+01
        99  22  1.903288E+01  4.576760E+02  1.335315E+03 -8.653955E+01 -1.057808E+03 -2.289356E+01
        99  23 -1.251614E+02 -1.097395E+02  6.344288E+02  4.290650E+01 -7.295973E+02 -2.025497E+01
        99  24  1.900465E+01 -1.848311E+01  3.280787E+02 -8.645058E+01 -4.013912E+02 -1.664046E+01
        99  25  1.286745E+04  3.669681E+03  4.547037E+03 -9.121341E+01 -1.057773E+03 -2.289351E+01
        99  26  1.270643E+04  3.098070E+03  3.841984E+03  4.189928E+01 -7.295330E+02 -2.025494E+01
        99  27  1.283376E+04  3.185128E+03  3.531482E+03 -8.379085E+01 -4.012975E+02 -1.664045E+01
       100   1 -7.277630E+03 -1.739992E+03 -1.603251E+03 -8.507095E+01  3.522697E+02  1.447811E+01
       100   2 -7.275910E+03 -1.809737E+03 -1.842436E+03  4.463475E+01  3.695866E+02  1.120589E+01
       100   3 -7.244870E+03 -1.855020E+03 -2.081686E+03 -8.447117E+01  3.869030E+02  7.763346E+00
       100   4 -3.852025E+01  6.974831E+01  2.063069E+02 -8.645810E+01  3.521962E+02  1.447812E+01
       100   5 -5.318836E+01 -4.084684E+00 -3.692477E+01  4.293063E+01  3.695092E+02  1.120590E+01
       100   6 -3.853592E+01 -5.345465E+01 -2.802183E+02 -8.649209E+01  3.868219E+02  7.763380E+00
       100   7  7.200636E+03  1.879484E+03  2.015861E+03 -8.784527E+01  3.521226E+02  1.447812E+01
       100   8  7.169580E+03  1.801563E+03  1.768583E+03  4.122648E+01  3.694316E+02  1.120591E+01
       100   9  7.167844E+03  1.748106E+03  1.521245E+03 -8.851304E+01  3.867402E+02  7.763394E+00
       100  10 -7.277629E+03 -1.739991E+03 -1.603251E+03 -8.505857E+01  2.607249E-05  9.997432E-07
       100  11 -7.275908E+03 -1.809733E+03 -1.842435E+03  4.468968E+01  1.148768E-04  4.974420E-08
       100  12 -7.244867E+03 -1.855011E+03 -2.081684E+03 -8.437365E+01  2.034097E-04 -3.846397E-06
       100  13 -3.851828E+01  6.974816E+01  2.063070E+02 -8.645810E+01  6.452339E-05  7.193777E-07
       100  14 -5.318652E+01 -4.085307E+00 -3.692475E+01  4.293062E+01  2.862643E-04  3.195686E-06
       100  15 -3.853391E+01 -5.345450E+01 -2.802181E+02 -8.649208E+01  5.080047E-04  5.648085E-06
       100  16  7.200637E+03  1.879483E+03  2.015860E+03 -8.785769E+01  2.554149E-05 -2.198138E-06
       100  17  7.169579E+03  1.801558E+03  1.768581E+03  4.117149E+01  1.141401E-04 -5.358511E-06
       100  18  7.167842E+03  1.748097E+03  1.521243E+03 -8.861057E+01  2.029885E-04 -5.619013E-06
       100  19 -7.277628E+03 -1.739990E+03 -1.603250E+03 -8.504618E+01 -3.522697E+02 -1.447811E+01
       100  20 -7.275906E+03 -1.809729E+03 -1.842434E+03  4.474462E+01 -3.695863E+02 -1.120589E+01
       100  21 -7.244863E+03 -1.855002E+03 -2.081681E+03 -8.427612E+01 -3.869026E+02 -7.763353E+00
       100  22 -3.851605E+01  6.974808E+01  2.063076E+02 -8.645809E+01 -3.521961E+02 -1.447811E+01
       100  23 -5.318440E+01 -4.085856E+00 -3.692421E+01  4.293061E+01 -3.695087E+02 -1.120590E+01
       100  24 -3.853157E+01 -5.345427E+01 -2.802173E+02 -8.649206E+01 -3.868209E+02 -7.763369E+00
       100  25  7.200637E+03  1.879481E+03  2.015860E+03 -8.787009E+01 -3.521225E+02 -1.447812E+01
       100  26  7.169578E+03  1.801552E+03  1.768580E+03  4.111650E+01 -3.694313E+02 -1.120592E+01
       100  27  7.167841E+03  1.748088E+03  1.521241E+03 -8.870810E+01 -3.867398E+02 -7.763405E+00
       101   1 -1.711807E+03 -3.883247E+02 -8.237492E+02 -8.902125E+01  4.499635E+02  5.701934E+00
       101   2 -1.608458E+03 -3.214590E+02 -1.196566E+03  4.416606E+01  8.519880E+02  2.135625E+00
       101   3 -1.678702E+03 -7.435658E+02 -1.953162E+03 -8.162207E+01  1.254012E+03 -1.357552E+00
       101   4 -8.360736E+01  1.870202E+01 -4.167918E+02 -8.645304E+01  4.498821E+02  5.701980E+00
       101   5  3.187518E+00  8.144494E+01 -7.936930E+02  4.295297E+01  8.519091E+02  2.135666E+00
       101   6 -8.361033E+01 -3.447844E+02 -1.554375E+03 -8.661643E+01  1.253936E+03 -1.357525E+00
       101   7  1.544596E+03  4.257288E+02 -9.834314E+00 -8.388481E+01  4.498001E+02  5.702006E+00
       101   8  1.614837E+03  4.843489E+02 -3.908200E+02  4.173988E+01  8.518299E+02  2.135697E+00
       101   9  1.511485E+03  5.399705E+01 -1.155588E+03 -9.161080E+01  1.253859E+03 -1.357497E+00
       101  10 -1.711806E+03 -3.883158E+02 -8.237476E+02 -8.892684E+01  1.964501E-04 -6.043947E-06
       101  11 -1.608459E+03 -3.214539E+02 -1.196566E+03  4.420723E+01  8.527735E-05 -5.566729E-06
       101  12 -1.678705E+03 -7.435661E+02 -1.953165E+03 -8.163418E+01 -2.559772E-05 -1.630143E-06
       101  13 -8.361026E+01  1.870185E+01 -4.167927E+02 -8.645306E+01  4.917846E-04  5.515726E-06
       101  14  3.184255E+00  8.144546E+01 -7.936947E+02  4.295298E+01  2.142852E-04  2.631533E-06
       101  15 -8.361467E+01 -3.447848E+02 -1.554378E+03 -8.661644E+01 -6.321728E-05 -2.402670E-07
       101  16  1.544592E+03  4.257204E+02 -9.837020E+00 -8.397921E+01  1.969683E-04 -3.234896E-06
       101  17  1.614834E+03  4.843457E+02 -3.908224E+02  4.169877E+01  8.614630E-05  1.131376E-06
       101  18  1.511483E+03  5.399752E+01 -1.155591E+03 -9.159865E+01 -2.497570E-05  2.062194E-06
       101  19 -1.711805E+03 -3.883067E+02 -8.237451E+02 -8.883242E+01 -4.499631E+02 -5.701946E+00
       101  20 -1.608458E+03 -3.214484E+02 -1.196564E+03  4.424841E+01 -8.519878E+02 -2.135636E+00
       101  21 -1.678704E+03 -7.435656E+02 -1.953162E+03 -8.164630E+01 -1.254012E+03  1.357549E+00
       101  22 -8.361274E+01  1.870179E+01 -4.167929E+02 -8.645307E+01 -4.498811E+02 -5.701969E+00
       101  23  3.182550E+00  8.144637E+01 -7.936937E+02  4.295299E+01 -8.519087E+02 -2.135661E+00
       101  24 -8.361562E+01 -3.447843E+02 -1.554376E+03 -8.661645E+01 -1.253936E+03  1.357524E+00
       101  25  1.544589E+03  4.257120E+02 -9.838966E+00 -8.407362E+01 -4.497997E+02 -5.702013E+00
       101  26  1.614833E+03  4.843429E+02 -3.908220E+02  4.165766E+01 -8.518298E+02 -2.135695E+00
       101  27  1.511483E+03  5.399884E+01 -1.155588E+03 -9.158652E+01 -1.253860E+03  1.357501E+00
       102   1  3.711964E+03  1.061834E+03 -9.942234E+02 -1.072095E+02  1.575747E+03 -3.579152E+00
       102   2  4.239212E+03  1.538177E+03 -2.309893E+03  4.868233E+01  3.276780E+03 -7.654307E+00
       102   3  3.744930E+03 -1.216090E+03 -5.539123E+03 -5.482275E+01  4.977787E+03 -1.084800E+01
       102   4 -2.720493E+02  6.581984E+01 -1.990185E+03 -8.631745E+01  1.575650E+03 -3.579062E+00
       102   5  2.387298E+02  5.380860E+02 -3.309912E+03  4.298641E+01  3.276695E+03 -7.654314E+00
       102   6 -2.720307E+02 -2.220272E+03 -6.543215E+03 -8.710633E+01  4.977712E+03 -1.084825E+01
       102   7 -4.256048E+03 -9.301955E+02 -2.986147E+03 -6.542558E+01  1.575552E+03 -3.578968E+00
       102   8 -3.761739E+03 -4.620067E+02 -4.309931E+03  3.729052E+01  3.276609E+03 -7.654319E+00
       102   9 -4.288977E+03 -3.224456E+03 -7.547309E+03 -1.193897E+02  4.977638E+03 -1.084850E+01
       102  10  3.711961E+03  1.061832E+03 -9.942284E+02 -1.072340E+02 -5.110472E-05  6.059276E-07
       102  11  4.239201E+03  1.538173E+03 -2.309914E+03  4.866852E+01 -2.871537E-05  1.247716E-06
       102  12  3.744904E+03 -1.216097E+03 -5.539169E+03 -5.482583E+01 -6.441620E-06  5.273475E-07
       102  13 -2.720514E+02  6.581941E+01 -1.990189E+03 -8.631744E+01 -1.277409E-04 -9.531308E-07
       102  14  2.387188E+02  5.380829E+02 -3.309932E+03  4.298642E+01 -7.198434E-05 -5.372724E-07
       102  15 -2.720568E+02 -2.220279E+03 -6.543262E+03 -8.710628E+01 -1.622769E-05 -1.198406E-07
       102  16 -4.256050E+03 -9.301945E+02 -2.986151E+03 -6.540105E+01 -5.108680E-05  1.036914E-06
       102  17 -3.761750E+03 -4.620090E+02 -4.309951E+03  3.730435E+01 -2.886667E-05 -3.216705E-07
       102  18 -4.289004E+03 -3.224462E+03 -7.547355E+03 -1.193865E+02 -6.540177E-06 -3.166514E-07
       102  19  3.711963E+03  1.061831E+03 -9.942240E+02 -1.072585E+02 -1.575747E+03  3.579153E+00
       102  20  4.239212E+03  1.538175E+03 -2.309894E+03  4.865468E+01 -3.276780E+03  7.654309E+00
       102  21  3.744930E+03 -1.216090E+03 -5.539123E+03 -5.482899E+01 -4.977787E+03  1.084801E+01
       102  22 -2.720481E+02  6.582031E+01 -1.990184E+03 -8.631743E+01 -1.575650E+03  3.579060E+00
       102  23  2.387308E+02  5.380856E+02 -3.309912E+03  4.298640E+01 -3.276695E+03  7.654313E+00
       102  24 -2.720297E+02 -2.220272E+03 -6.543215E+03 -8.710633E+01 -4.977712E+03  1.084825E+01
       102  25 -4.256047E+03 -9.301921E+02 -2.986146E+03 -6.537653E+01 -1.575553E+03  3.578970E+00
       102  26 -3.761738E+03 -4.620056E+02 -4.309931E+03  3.731815E+01 -3.276609E+03  7.654318E+00
       102  27 -4.288977E+03 -3.224455E+03 -7.547308E+03 -1.193835E+02 -4.977638E+03  1.084850E+01
       103   1  8.220598E+03  2.829680E+03 -5.751685E+03 -2.090223E+02  6.313147E+03 -1.360976E+01
       103   2  1.124115E+04  5.841512E+03 -1.063559E+04  9.495229E+01  1.317708E+04 -1.798104E+01
       103   3  8.254116E+03 -1.178427E+04 -2.513817E+04  1.421347E+02  2.004109E+04 -1.648166E+01
       103   4 -1.380090E+03  4.294658E+02 -8.151688E+03 -8.550659E+01  6.312953E+03 -1.360848E+01
       103   5  1.623846E+03  3.437278E+03 -1.303966E+04  4.247101E+01  1.317693E+04 -1.798217E+01
       103   6 -1.379909E+03 -1.419270E+04 -2.754644E+04 -8.634625E+01  2.004099E+04 -1.648906E+01
       103   7 -1.098069E+04 -1.970755E+03 -1.055170E+04  3.800719E+01  6.312758E+03 -1.360720E+01
       103   8 -7.993377E+03  1.033038E+03 -1.544374E+04 -1.000945E+01  1.317678E+04 -1.798330E+01
       103   9 -1.101385E+04 -1.660114E+04 -2.995473E+04 -3.148237E+02  2.004089E+04 -1.649645E+01
       103  10  8.220555E+03  2.829669E+03 -5.751759E+03 -2.090222E+02 -9.699971E-10  3.795354E-08
       103  11  1.124097E+04  5.841465E+03 -1.063591E+04  9.495248E+01 -1.030270E-09 -9.879185E-09
       103  12  8.253685E+03 -1.178438E+04 -2.513892E+04  1.421350E+02  1.993733E-10 -1.932806E-09
       103  13 -1.380132E+03  4.294551E+02 -8.151763E+03 -8.550652E+01 -5.035002E-12  7.487158E-10
       103  14  1.623659E+03  3.437232E+03 -1.303998E+04  4.247120E+01 -4.317993E-09 -1.200117E-09
       103  15 -1.380340E+03 -1.419281E+04 -2.754720E+04 -8.634598E+01 -4.306981E-09 -6.692386E-11
       103  16 -1.098074E+04 -1.970766E+03 -1.055177E+04  3.800726E+01  2.626725E-09 -3.663521E-08
       103  17 -7.993563E+03  1.032992E+03 -1.544406E+04 -1.000926E+01  2.118911E-09  7.172913E-09
       103  18 -1.101428E+04 -1.660125E+04 -2.995548E+04 -3.148234E+02 -3.328675E-10  1.826741E-09
       103  19  8.220598E+03  2.829680E+03 -5.751685E+03 -2.090223E+02 -6.313147E+03  1.360976E+01
       103  20  1.124115E+04  5.841512E+03 -1.063559E+04  9.495230E+01 -1.317708E+04  1.798104E+01
       103  21  8.254116E+03 -1.178427E+04 -2.513817E+04  1.421347E+02 -2.004109E+04  1.648166E+01
       103  22 -1.380090E+03  4.294658E+02 -8.151688E+03 -8.550659E+01 -6.312953E+03  1.360848E+01
       103  23  1.623846E+03  3.437278E+03 -1.303966E+04  4.247101E+01 -1.317693E+04  1.798217E+01
       103  24 -1.379909E+03 -1.419270E+04 -2.754644E+04 -8.634625E+01 -2.004099E+04  1.648906E+01
       103  25 -1.098069E+04 -1.970755E+03 -1.055170E+04  3.800719E+01 -6.312758E+03  1.360720E+01
       103  26 -7.993377E+03  1.033038E+03 -1.544374E+04 -1.000945E+01 -1.317678E+04  1.798330E+01
       103  27 -1.101385E+04 -1.660114E+04 -2.995473E+04 -3.148237E+02 -2.004089E+04  1.649645E+01
       104   1  7.159369E+03  6.612964E+03 -2.942450E+04 -8.399230E+02  2.557432E+04 -2.023882E+01
       104   2  2.531950E+04  2.568098E+04 -4.658147E+04  4.159443E+02  5.316899E+04 -1.557609E+01
       104   3  7.190516E+03 -8.650099E+04 -1.144898E+05  1.479917E+03  8.076390E+04  2.463774E+01
       104   4 -8.109289E+03  2.795948E+03 -3.324136E+04 -8.249076E+01  2.557354E+04 -2.020767E+01
       104   5  1.003694E+04  2.186031E+04 -5.040171E+04  3.271584E+01  5.316847E+04 -1.560884E+01
       104   6 -8.106862E+03 -9.032707E+04 -1.183144E+05 -4.394499E+01  8.076364E+04  2.444002E+01
       104   7 -2.337773E+04 -1.021084E+03 -3.705825E+04  6.749228E+02  2.557277E+04 -2.017651E+01
       104   8 -5.245418E+03  1.803963E+04 -5.422198E+04 -3.505032E+02  5.316795E+04 -1.564160E+01
       104   9 -2.340402E+04 -9.415315E+04 -1.221392E+05 -1.567770E+03  8.076338E+04  2.424229E+01
       104  10  7.158666E+03  6.612788E+03 -2.942573E+04 -8.399226E+02 -4.694940E-10  6.191680E-09
       104  11  2.531646E+04  2.568022E+04 -4.658678E+04  4.159450E+02  4.883444E-10 -4.293560E-09
       104  12  7.183511E+03 -8.650275E+04 -1.145020E+05  1.479916E+03 -9.319481E-10 -2.923518E-09
       104  13 -8.109991E+03  2.795772E+03 -3.324259E+04 -8.249035E+01 -1.066507E-11 -2.659035E-10
       104  14  1.003390E+04  2.185956E+04 -5.040703E+04  3.271651E+01 -1.052187E-09 -1.246987E-09
       104  15 -8.113867E+03 -9.032882E+04 -1.183267E+05 -4.394658E+01 -2.532506E-10 -7.347027E-10
       104  16 -2.337844E+04 -1.021260E+03 -3.705948E+04  6.749233E+02 -3.326514E-09 -6.597861E-09
       104  17 -5.248454E+03  1.803887E+04 -5.422729E+04 -3.505025E+02  2.716550E-09  2.133336E-11
       104  18 -2.341103E+04 -9.415490E+04 -1.221514E+05 -1.567771E+03 -5.199840E-10 -1.914158E-09
       104  19  7.159369E+03  6.612964E+03 -2.942450E+04 -8.399230E+02 -2.557432E+04  2.023882E+01
       104  20  2.531950E+04  2.568098E+04 -4.658147E+04  4.159443E+02 -5.316899E+04  1.557609E+01
       104  21  7.190516E+03 -8.650099E+04 -1.144898E+05  1.479917E+03 -8.076390E+04 -2.463774E+01
       104  22 -8.109289E+03  2.795948E+03 -3.324136E+04 -8.249076E+01 -2.557354E+04  2.020767E+01
       104  23  1.003694E+04  2.186031E+04 -5.040171E+04  3.271584E+01 -5.316847E+04  1.560884E+01
       104  24 -8.106862E+03 -9.032707E+04 -1.183144E+05 -4.394499E+01 -8.076364E+04 -2.444002E+01
       104  25 -2.337773E+04 -1.021084E+03 -3.705825E+04  6.749228E+02 -2.557277E+04  2.017651E+01
       104  26 -5.245418E+03  1.803963E+04 -5.422198E+04 -3.505032E+02 -5.316795E+04  1.564160E+01
       104  27 -2.340402E+04 -9.415315E+04 -1.221392E+05 -1.567770E+03 -8.076338E+04 -2.424229E+01
       105   1 -9.609702E+03 -1.773683E+05 -1.256816E+04  1.400312E+02  5.083899E+00 -5.479411E+03
       105   2  2.845486E+02 -1.755776E+05 -7.800139E+03  4.196418E+02 -9.363712E+00 -2.298632E+03
       105   3 -2.983240E+03 -1.774662E+05 -8.388756E+03 -7.722840E+01 -1.780216E+01  8.822006E+02
       105   4 -7.714287E+03 -1.697905E+05 -1.067326E+04 -1.164761E+01  5.084760E+00 -5.479160E+03
       105   5  2.191761E+03 -1.679505E+05 -5.893181E+03  3.820074E+02 -9.363806E+00 -2.298491E+03
       105   6 -1.064125E+03 -1.697899E+05 -6.469618E+03 -8.159023E-01 -1.780207E+01  8.822312E+02
       105   7 -5.818877E+03 -1.622125E+05 -8.778360E+03 -1.633283E+02  5.085621E+00 -5.478909E+03
       105   8  4.098968E+03 -1.603234E+05 -3.986227E+03  3.443724E+02 -9.363900E+00 -2.298351E+03
       105   9  8.549854E+02 -1.621135E+05 -4.550484E+03  7.559756E+01 -1.780198E+01  8.822617E+02
       105  10 -9.609710E+03 -1.773684E+05 -1.256821E+04  1.400312E+02  1.183277E-09  9.506475E-10
       105  11  2.845471E+02 -1.755776E+05 -7.800149E+03  4.196418E+02  2.485319E-09  1.580203E-11
       105  12 -2.983240E+03 -1.774662E+05 -8.388758E+03 -7.722839E+01  3.032766E-09  8.954179E-10
       105  13 -7.714295E+03 -1.697905E+05 -1.067331E+04 -1.164758E+01 -1.277494E-09  1.084455E-11
       105  14  2.191759E+03 -1.679505E+05 -5.893191E+03  3.820073E+02  1.114869E-09  1.612961E-09
       105  15 -1.064125E+03 -1.697899E+05 -6.469619E+03 -8.158897E-01  4.811799E-09  2.108125E-10
       105  16 -5.818885E+03 -1.622126E+05 -8.778417E+03 -1.633282E+02  2.118424E-09 -9.516627E-10
       105  17  4.098967E+03 -1.603234E+05 -3.986237E+03  3.443724E+02  6.742591E-09 -3.256488E-09
       105  18  8.549852E+02 -1.621135E+05 -4.550485E+03  7.559757E+01  7.266205E-10  1.089904E-09
       105  19 -9.609702E+03 -1.773683E+05 -1.256816E+04  1.400312E+02 -5.083899E+00  5.479411E+03
       105  20  2.845486E+02 -1.755776E+05 -7.800139E+03  4.196418E+02  9.363712E+00  2.298632E+03
       105  21 -2.983240E+03 -1.774662E+05 -8.388756E+03 -7.722840E+01  1.780216E+01 -8.822006E+02
       105  22 -7.714287E+03 -1.697905E+05 -1.067326E+04 -1.164761E+01 -5.084760E+00  5.479160E+03
       105  23  2.191761E+03 -1.679505E+05 -5.893181E+03  3.820074E+02  9.363806E+00  2.298491E+03
       105  24 -1.064125E+03 -1.697899E+05 -6.469618E+03 -8.159024E-01  1.780207E+01 -8.822312E+02
       105  25 -5.818877E+03 -1.622125E+05 -8.778360E+03 -1.633283E+02 -5.085621E+00  5.478909E+03
       105  26  4.098968E+03 -1.603234E+05 -3.986227E+03  3.443724E+02  9.363900E+00  2.298351E+03
       105  27  8.549854E+02 -1.621135E+05 -4.550484E+03  7.559756E+01  1.780198E+01 -8.822617E+02
       106   1 -5.509367E+03 -1.880203E+05 -1.151165E+04  2.496979E+02 -2.499641E+01  2.102342E+03
       106   2 -2.242249E+03 -1.860819E+05 -1.321007E+04  1.926295E+02 -3.831668E+01  6.662627E+03
       106   3 -1.282356E+04 -1.880375E+05 -2.130766E+04  1.914404E+00 -3.345678E+01  1.122293E+04
       106   4 -9.625350E+02 -1.698377E+05 -6.965344E+03  1.406942E+02 -2.499725E+01  2.102779E+03
       106   5  2.306198E+03 -1.678911E+05 -8.661953E+03  2.046170E+02 -3.831646E+01  6.662745E+03
       106   6 -8.273220E+03 -1.698384E+05 -1.675737E+04  1.348934E+02 -3.345395E+01  1.122272E+04
       106   7  3.584272E+03 -1.516547E+05 -2.419067E+03  3.168731E+01 -2.499809E+01  2.103215E+03
       106   8  6.854620E+03 -1.497000E+05 -4.113857E+03  2.166049E+02 -3.831624E+01  6.662862E+03
       106   9 -3.722907E+03 -1.516389E+05 -1.220710E+04  2.678764E+02 -3.345112E+01  1.122252E+04
       106  10 -5.509368E+03 -1.880203E+05 -1.151165E+04  2.496980E+02  2.621413E-09  5.280837E-10
       106  11 -2.242261E+03 -1.860820E+05 -1.321016E+04  1.926297E+02 -9.992569E-10  5.636061E-12
       106  12 -1.282359E+04 -1.880377E+05 -2.130790E+04  1.914707E+00  3.332712E-09  5.851095E-10
       106  13 -9.625361E+02 -1.698377E+05 -6.965353E+03  1.406942E+02  3.143330E-09  3.508146E-12
       106  14  2.306186E+03 -1.678912E+05 -8.662036E+03  2.046172E+02 -2.459739E-09  1.171653E-09
       106  15 -8.273254E+03 -1.698385E+05 -1.675761E+04  1.348937E+02  3.160978E-09  1.218614E-10
       106  16  3.584271E+03 -1.516547E+05 -2.419075E+03  3.168735E+01 -2.308442E-09 -5.374942E-10
       106  17  6.854608E+03 -1.497000E+05 -4.113941E+03  2.166051E+02  1.845622E-09 -2.323824E-09
       106  18 -3.722941E+03 -1.516391E+05 -1.220734E+04  2.678767E+02 -4.203843E-09  6.073757E-10
       106  19 -5.509367E+03 -1.880203E+05 -1.151165E+04  2.496979E+02  2.499641E+01 -2.102342E+03
       106  20 -2.242249E+03 -1.860819E+05 -1.321007E+04  1.926295E+02  3.831668E+01 -6.662627E+03
       106  21 -1.282356E+04 -1.880375E+05 -2.130766E+04  1.914404E+00  3.345678E+01 -1.122293E+04
       106  22 -9.625350E+02 -1.698377E+05 -6.965344E+03  1.406942E+02  2.499725E+01 -2.102779E+03
       106  23  2.306198E+03 -1.678911E+05 -8.661953E+03  2.046170E+02  3.831646E+01 -6.662745E+03
       106  24 -8.273220E+03 -1.698384E+05 -1.675737E+04  1.348934E+02  3.345395E+01 -1.122272E+04
       106  25  3.584272E+03 -1.516547E+05 -2.419067E+03  3.168731E+01  2.499809E+01 -2.103215E+03
       106  26  6.854620E+03 -1.497000E+05 -4.113857E+03  2.166049E+02  3.831624E+01 -6.662862E+03
       106  27 -3.722907E+03 -1.516389E+05 -1.220710E+04  2.678764E+02  3.345112E+01 -1.122252E+04
       107   1 -1.651430E+03 -1.860836E+05 -2.306299E+04  7.673621E+02 -3.236489E+01  1.456375E+04
       107   2  9.772982E+03 -1.753744E+05 -3.282629E+04 -2.203949E+02 -3.982826E+01  3.084110E+04
       107   3 -5.598882E+04 -1.860074E+05 -7.246965E+04 -5.979523E+02 -2.742489E+01  4.711831E+04
       107   4  1.442232E+03 -1.737144E+05 -1.997024E+04  3.135434E+02 -3.237559E+01  1.456408E+04
       107   5  1.285537E+04 -1.630455E+05 -2.974387E+04 -3.490239E+00 -3.981727E+01  3.084123E+04
       107   6 -5.291687E+04 -1.737184E+05 -6.939700E+04  2.896558E+02 -2.735717E+01  4.711824E+04
       107   7  4.535884E+03 -1.613452E+05 -1.687750E+04 -1.402844E+02 -3.238629E+01  1.456441E+04
       107   8  1.593774E+04 -1.507165E+05 -2.666146E+04  2.134187E+02 -3.980627E+01  3.084137E+04
       107   9 -4.984492E+04 -1.614293E+05 -6.632436E+04  1.177282E+03 -2.728945E+01  4.711818E+04
       107  10 -1.651487E+03 -1.860838E+05 -2.306339E+04  7.673625E+02  2.610109E-10  3.161488E-10
       107  11  9.772727E+03 -1.753754E+05 -3.282808E+04 -2.203939E+02 -2.817709E-09  3.986371E-11
       107  12 -5.598941E+04 -1.860098E+05 -7.247382E+04 -5.979513E+02 -1.034126E-10  3.562461E-10
       107  13  1.442175E+03 -1.737147E+05 -1.997064E+04  3.135437E+02 -3.076817E-09 -1.083424E-11
       107  14  1.285511E+04 -1.630465E+05 -2.974566E+04 -3.489250E+00 -4.321997E-09  5.913971E-10
       107  15 -5.291746E+04 -1.737208E+05 -6.940117E+04  2.896568E+02 -3.400583E-09  3.655951E-11
       107  16  4.535827E+03 -1.613454E+05 -1.687790E+04 -1.402840E+02 -2.572346E-09 -3.025599E-10
       107  17  1.593749E+04 -1.507176E+05 -2.666325E+04  2.134197E+02  3.569144E-09 -1.350273E-09
       107  18 -4.984552E+04 -1.614316E+05 -6.632853E+04  1.177283E+03  1.630417E-09  2.330910E-10
       107  19 -1.651430E+03 -1.860836E+05 -2.306299E+04  7.673621E+02  3.236489E+01 -1.456375E+04
       107  20  9.772982E+03 -1.753744E+05 -3.282629E+04 -2.203949E+02  3.982826E+01 -3.084110E+04
       107  21 -5.598882E+04 -1.860074E+05 -7.246965E+04 -5.979523E+02  2.742489E+01 -4.711831E+04
       107  22  1.442232E+03 -1.737144E+05 -1.997024E+04  3.135434E+02  3.237559E+01 -1.456408E+04
       107  23  1.285537E+04 -1.630455E+05 -2.974387E+04 -3.490239E+00  3.981727E+01 -3.084123E+04
       107  24 -5.291687E+04 -1.737184E+05 -6.939700E+04  2.896558E+02  2.735717E+01 -4.711824E+04
       107  25  4.535884E+03 -1.613452E+05 -1.687750E+04 -1.402844E+02  3.238629E+01 -1.456441E+04
       107  26  1.593774E+04 -1.507165E+05 -2.666146E+04  2.134187E+02  3.980627E+01 -3.084137E+04
       107  27 -4.984492E+04 -1.614293E+05 -6.632436E+04  1.177282E+03  2.728945E+01 -4.711818E+04
       108   1  1.111139E+05  1.024243E+06  1.038387E+05 -2.471691E+04  5.974311E+03  4.665348E+04
       108   2  1.008867E+05  1.005424E+06  7.585342E+04 -2.319171E+04  2.084555E+04  2.440679E+04
       108   3  9.514792E+04  9.906263E+05  6.346511E+04 -2.361638E+04  2.680212E+04  2.157099E+03
       108   4  1.531832E+03  5.780142E+05  1.753692E+03 -2.338699E+04  5.999547E+03  2.360381E+02
       108   5  6.121251E+02  5.778624E+05  1.653538E+03 -2.241263E+04  2.086158E+04 -5.854749E+02
       108   6  4.661736E+02  5.780186E+05  2.287820E+03 -2.338771E+04  2.680616E+04 -1.410691E+03
       108   7 -1.080629E+05  1.319744E+05 -1.003363E+05 -2.205799E+04  6.024595E+03 -4.614837E+04
       108   8 -9.967200E+04  1.504815E+05 -7.255039E+04 -2.163406E+04  2.087755E+04 -2.556107E+04
       108   9 -9.422354E+04  1.655818E+05 -5.889258E+04 -2.315917E+04  2.681021E+04 -4.976208E+03
       108  10  1.111132E+05  1.024241E+06  1.038345E+05 -2.471714E+04  8.754596E-10 -6.408580E-08
       108  11  1.008861E+05  1.005423E+06  7.585149E+04 -2.319212E+04 -7.965990E-10 -3.026739E-10
       108  12  9.514715E+04  9.906261E+05  6.346375E+04 -2.361643E+04  1.582127E-09  6.595821E-08
       108  13  1.531794E+03  5.780142E+05  1.753624E+03 -2.338699E+04 -2.510055E-09  5.830017E-10
       108  14  6.116575E+02  5.778623E+05  1.652719E+03 -2.241262E+04  1.559626E-09 -1.195086E-09
       108  15  4.654013E+02  5.780184E+05  2.286465E+03 -2.338768E+04  1.087437E-09  7.009313E-10
       108  16 -1.080635E+05  1.319721E+05 -1.003403E+05 -2.205777E+04  2.397911E-10  6.324930E-08
       108  17 -9.967265E+04  1.504807E+05 -7.255243E+04 -2.163363E+04 -2.504796E-09 -2.305181E-11
       108  18 -9.422432E+04  1.655816E+05 -5.889398E+04 -2.315906E+04 -3.205069E-09 -6.566234E-08
       108  19  1.111139E+05  1.024243E+06  1.038387E+05 -2.471691E+04 -5.974311E+03 -4.665348E+04
       108  20  1.008867E+05  1.005424E+06  7.585342E+04 -2.319171E+04 -2.084555E+04 -2.440679E+04
       108  21  9.514792E+04  9.906263E+05  6.346511E+04 -2.361638E+04 -2.680212E+04 -2.157099E+03
       108  22  1.531832E+03  5.780142E+05  1.753692E+03 -2.338699E+04 -5.999547E+03 -2.360381E+02
       108  23  6.121251E+02  5.778624E+05  1.653538E+03 -2.241263E+04 -2.086158E+04  5.854749E+02
       108  24  4.661736E+02  5.780186E+05  2.287820E+03 -2.338771E+04 -2.680616E+04  1.410691E+03
       108  25 -1.080629E+05  1.319744E+05 -1.003363E+05 -2.205799E+04 -6.024595E+03  4.614837E+04
       108  26 -9.967200E+04  1.504815E+05 -7.255039E+04 -2.163406E+04 -2.087755E+04  2.556107E+04
       108  27 -9.422354E+04  1.655818E+05 -5.889258E+04 -2.315917E+04 -2.681021E+04  4.976208E+03
       109   1  9.234029E+04  9.798417E+05  6.058231E+04 -2.390481E+04  2.728277E+04  9.657627E+02
       109   2  8.877975E+04  9.623447E+05  5.806891E+04 -2.139431E+04  2.743776E+04 -6.357231E+03
       109   3  8.780878E+04  9.464507E+05  6.096680E+04 -2.154634E+04  2.556144E+04 -1.368163E+04
       109   4  5.267112E+02  5.781197E+05  2.873301E+03 -2.354634E+04  2.728642E+04 -1.834344E+03
       109   5  1.290317E+03  5.777429E+05  4.869589E+03 -2.221400E+04  2.743798E+04 -4.274436E+03
       109   6  3.797397E+03  5.781227E+05  8.890690E+03 -2.354426E+04  2.555761E+04 -6.716098E+03
       109   7 -9.129421E+04  1.765605E+05 -5.483816E+04 -2.318809E+04  2.729007E+04 -4.632719E+03
       109   8 -8.620562E+04  1.932911E+05 -4.833145E+04 -2.303313E+04  2.743820E+04 -2.192872E+03
       109   9 -8.022003E+04  2.099319E+05 -4.318711E+04 -2.554091E+04  2.555373E+04  2.454820E+02
       109  10  9.233949E+04  9.798415E+05  6.058091E+04 -2.390483E+04  4.360626E-12  7.096283E-09
       109  11  8.877893E+04  9.623445E+05  5.806742E+04 -2.139417E+04  2.501071E-09  2.341450E-09
       109  12  8.780803E+04  9.464503E+05  6.096522E+04 -2.154605E+04  1.370400E-09  9.740879E-10
       109  13  5.259106E+02  5.781195E+05  2.871896E+03 -2.354630E+04  2.167351E-09  7.190643E-10
       109  14  1.289504E+03  5.777427E+05  4.868140E+03 -2.221390E+04  4.403570E-10 -1.540131E-09
       109  15  3.796683E+03  5.781225E+05  8.889378E+03 -2.354412E+04 -7.278821E-11  8.503106E-10
       109  16 -9.129501E+04  1.765603E+05 -5.483960E+04 -2.318799E+04 -2.314629E-09 -8.118088E-09
       109  17 -8.620643E+04  1.932909E+05 -4.833287E+04 -2.303308E+04  1.312385E-09 -2.974065E-09
       109  18 -8.022073E+04  2.099317E+05 -4.318834E+04 -2.554092E+04  1.555778E-09 -7.957612E-10
       109  19  9.234029E+04  9.798417E+05  6.058231E+04 -2.390481E+04 -2.728277E+04 -9.657627E+02
       109  20  8.877975E+04  9.623447E+05  5.806891E+04 -2.139431E+04 -2.743776E+04  6.357231E+03
       109  21  8.780878E+04  9.464507E+05  6.096680E+04 -2.154634E+04 -2.556144E+04  1.368163E+04
       109  22  5.267112E+02  5.781197E+05  2.873301E+03 -2.354634E+04 -2.728642E+04  1.834344E+03
       109  23  1.290317E+03  5.777429E+05  4.869589E+03 -2.221400E+04 -2.743798E+04  4.274436E+03
       109  24  3.797397E+03  5.781227E+05  8.890690E+03 -2.354426E+04 -2.555761E+04  6.716098E+03
       109  25 -9.129421E+04  1.765605E+05 -5.483816E+04 -2.318809E+04 -2.729007E+04  4.632719E+03
       109  26 -8.620562E+04  1.932911E+05 -4.833145E+04 -2.303313E+04 -2.743820E+04  2.192872E+03
       109  27 -8.022003E+04  2.099319E+05 -4.318711E+04 -2.554091E+04 -2.555373E+04 -2.454820E+02
       110   1  8.723815E+04  9.376096E+05  6.394609E+04 -2.229942E+04  2.398979E+04 -1.582301E+04
       110   2  9.433549E+04  9.168929E+05  7.940009E+04 -7.494188E+03  1.767218E+04 -4.234878E+04
       110   3  1.206770E+05  9.044357E+05  1.169171E+05  4.109697E+03  4.963923E+03 -6.888025E+04
       110   4  5.210769E+03  5.792000E+05  1.188773E+04 -2.366576E+04  2.398513E+04 -8.266559E+03
       110   5  1.482766E+04  5.763982E+05  2.191259E+04 -2.205131E+04  1.765470E+04 -1.943454E+04
       110   6  4.102948E+04  5.791937E+05  4.334733E+04 -2.363812E+04  4.933131E+03 -3.060836E+04
       110   7 -7.682248E+04  2.209199E+05 -4.017254E+04 -2.503126E+04  2.398044E+04 -7.142835E+02
       110   8 -6.468518E+04  2.360191E+05 -3.557653E+04 -3.660018E+04  1.763613E+04  3.467561E+03
       110   9 -3.862165E+04  2.540546E+05 -3.022336E+04 -5.137127E+04  4.898914E+03  7.643697E+03
       110  10  8.723747E+04  9.376092E+05  6.394454E+04 -2.229912E+04  1.507775E-09 -8.696319E-10
       110  11  9.433468E+04  9.168909E+05  7.939614E+04 -7.493586E+03  4.322032E-09 -3.092890E-09
       110  12  1.206757E+05  9.044306E+05  1.169082E+05  4.109972E+03  1.713062E-09 -1.587632E-09
       110  13  5.210132E+03  5.791998E+05  1.188652E+04 -2.366560E+04 -3.054118E-09  8.004529E-10
       110  14  1.482723E+04  5.763977E+05  2.191130E+04 -2.205104E+04  2.011184E-09 -1.756703E-09
       110  15  4.102920E+04  5.791927E+05  4.334553E+04 -2.363800E+04  1.442123E-09  1.071350E-09
       110  16 -7.682310E+04  2.209197E+05 -4.017362E+04 -2.503124E+04  9.388000E-10 -3.234036E-10
       110  17 -6.468551E+04  2.360190E+05 -3.557714E+04 -3.660023E+04 -7.348484E-10  2.570138E-09
       110  18 -3.862169E+04  2.540545E+05 -3.022352E+04 -5.137130E+04  2.840551E-09  1.886319E-09
       110  19  8.723815E+04  9.376096E+05  6.394609E+04 -2.229942E+04 -2.398979E+04  1.582301E+04
       110  20  9.433549E+04  9.168929E+05  7.940009E+04 -7.494188E+03 -1.767218E+04  4.234878E+04
       110  21  1.206770E+05  9.044357E+05  1.169171E+05  4.109697E+03 -4.963923E+03  6.888025E+04
       110  22  5.210769E+03  5.792000E+05  1.188773E+04 -2.366576E+04 -2.398513E+04  8.266559E+03
       110  23  1.482766E+04  5.763982E+05  2.191259E+04 -2.205131E+04 -1.765470E+04  1.943454E+04
       110  24  4.102948E+04  5.791937E+05  4.334733E+04 -2.363812E+04 -4.933131E+03  3.060836E+04
       110  25 -7.682248E+04  2.209199E+05 -4.017254E+04 -2.503126E+04 -2.398044E+04  7.142835E+02
       110  26 -6.468518E+04  2.360191E+05 -3.557653E+04 -3.660018E+04 -1.763613E+04 -3.467561E+03
       110  27 -3.862165E+04  2.540546E+05 -3.022336E+04 -5.137127E+04 -4.898914E+03 -7.643697E+03
       111   1 -1.183809E+05 -2.580247E+04 -2.481302E+04 -1.033927E+03  3.118088E+03  9.764788E+01
       111   2 -1.226830E+05 -3.098225E+04 -2.833769E+04 -2.683631E+02  2.089624E+03  2.291397E+02
       111   3 -1.182213E+05 -2.990289E+04 -2.821505E+04 -8.094424E+02  1.062296E+03  1.799844E+02
       111   4  1.427910E+03  4.156119E+03  5.140974E+03 -4.593916E+02  3.123998E+03  9.768811E+01
       111   5 -2.955352E+03 -1.045578E+03  1.593698E+03  2.084711E+02  2.091025E+03  2.291447E+02
       111   6  1.426394E+03  1.260829E+01  1.696633E+03 -4.302957E+02  1.059188E+03  1.799699E+02
       111   7  1.212498E+05  3.411363E+04  3.509388E+04  1.152322E+02  3.129909E+03  9.772835E+01
       111   8  1.167853E+05  2.889001E+04  3.152401E+04  6.853795E+02  2.092426E+03  2.291497E+02
       111   9  1.210871E+05  2.992702E+04  3.160723E+04 -5.108888E+01  1.056080E+03  1.799554E+02
       111  10 -1.183809E+05 -2.580248E+04 -2.481304E+04 -1.033928E+03  1.354464E-10 -1.015083E-10
       111  11 -1.226830E+05 -3.098225E+04 -2.833770E+04 -2.683635E+02  2.397609E-09 -3.776875E-10
       111  12 -1.182213E+05 -2.990289E+04 -2.821505E+04 -8.094426E+02 -1.337654E-09 -2.514839E-10
       111  13  1.427899E+03  4.156116E+03  5.140956E+03 -4.593918E+02 -6.584296E-13 -5.225430E-11
       111  14 -2.955357E+03 -1.045579E+03  1.593690E+03  2.084708E+02 -1.076515E-09  6.049035E-11
       111  15  1.426393E+03  1.260796E+01  1.696631E+03 -4.302959E+02  3.905738E-09 -7.238212E-10
       111  16  1.212497E+05  3.411363E+04  3.509387E+04  1.152319E+02 -1.484247E-09  7.047751E-11
       111  17  1.167853E+05  2.889001E+04  3.152400E+04  6.853791E+02  2.150566E-09  9.216654E-12
       111  18  1.210871E+05  2.992702E+04  3.160723E+04 -5.108904E+01  1.743311E-09 -5.025294E-10
       111  19 -1.183809E+05 -2.580247E+04 -2.481302E+04 -1.033927E+03 -3.118088E+03 -9.764788E+01
       111  20 -1.226830E+05 -3.098225E+04 -2.833769E+04 -2.683631E+02 -2.089624E+03 -2.291397E+02
       111  21 -1.182213E+05 -2.990289E+04 -2.821505E+04 -8.094424E+02 -1.062296E+03 -1.799844E+02
       111  22  1.427910E+03  4.156119E+03  5.140974E+03 -4.593916E+02 -3.123998E+03 -9.768811E+01
       111  23 -2.955352E+03 -1.045578E+03  1.593698E+03  2.084711E+02 -2.091025E+03 -2.291447E+02
       111  24  1.426394E+03  1.260829E+01  1.696633E+03 -4.302957E+02 -1.059188E+03 -1.799699E+02
       111  25  1.212498E+05  3.411363E+04  3.509388E+04  1.152322E+02 -3.129909E+03 -9.772835E+01
       111  26  1.167853E+05  2.889001E+04  3.152401E+04  6.853795E+02 -2.092426E+03 -2.291497E+02
       111  27  1.210871E+05  2.992702E+04  3.160723E+04 -5.108888E+01 -1.056080E+03 -1.799554E+02
       112   1 -9.097606E+04 -2.234120E+04 -2.155663E+04 -6.635225E+02  7.170489E+02  1.402375E+02
       112   2 -9.307924E+04 -2.299283E+04 -2.247341E+04  7.529332E+01  4.525690E+02  1.489388E+02
       112   3 -9.080871E+04 -2.272149E+04 -2.216536E+04 -5.003676E+02  1.881410E+02  1.265041E+02
       112   4  4.528718E+02  5.177421E+02  1.299870E+03 -4.421575E+02  7.177244E+02  1.402384E+02
       112   5 -1.734709E+03 -1.554921E+02  3.617852E+02  2.158689E+02  4.524631E+02  1.489372E+02
       112   6  4.518593E+02  9.456902E+01  6.490658E+02 -4.405692E+02  1.872539E+02  1.265021E+02
       112   7  9.188938E+04  2.337605E+04  2.415573E+04 -2.207659E+02  7.184001E+02  1.402393E+02
       112   8  8.961738E+04  2.268121E+04  2.319635E+04  3.564612E+02  4.523573E+02  1.489356E+02
       112   9  9.171998E+04  2.291000E+04  2.346286E+04 -3.807637E+02  1.863666E+02  1.265002E+02
       112  10 -9.097606E+04 -2.234120E+04 -2.155663E+04 -6.635226E+02 -1.013088E-09 -1.439155E-10
       112  11 -9.307924E+04 -2.299283E+04 -2.247341E+04  7.529326E+01  1.773361E-09  3.330271E-10
       112  12 -9.080871E+04 -2.272149E+04 -2.216536E+04 -5.003676E+02  1.860989E-09  8.409986E-11
       112  13  4.528712E+02  5.177419E+02  1.299869E+03 -4.421575E+02 -2.153811E-09 -3.540420E-10
       112  14 -1.734709E+03 -1.554922E+02  3.617848E+02  2.158688E+02 -3.232479E-09  3.561368E-10
       112  15  4.518592E+02  9.456900E+01  6.490657E+02 -4.405692E+02  3.530600E-09 -4.055885E-11
       112  16  9.188938E+04  2.337605E+04  2.415573E+04 -2.207660E+02  1.760439E-09  1.844853E-10
       112  17  8.961738E+04  2.268121E+04  2.319635E+04  3.564611E+02  1.075867E-09  9.521844E-10
       112  18  9.171998E+04  2.291000E+04  2.346286E+04 -3.807637E+02 -6.658535E-12  4.125010E-10
       112  19 -9.097606E+04 -2.234120E+04 -2.155663E+04 -6.635225E+02 -7.170489E+02 -1.402375E+02
       112  20 -9.307924E+04 -2.299283E+04 -2.247341E+04  7.529332E+01 -4.525690E+02 -1.489388E+02
       112  21 -9.080871E+04 -2.272149E+04 -2.216536E+04 -5.003676E+02 -1.881410E+02 -1.265041E+02
       112  22  4.528718E+02  5.177421E+02  1.299870E+03 -4.421575E+02 -7.177244E+02 -1.402384E+02
       112  23 -1.734709E+03 -1.554921E+02  3.617852E+02  2.158689E+02 -4.524631E+02 -1.489372E+02
       112  24  4.518593E+02  9.456902E+01  6.490658E+02 -4.405692E+02 -1.872539E+02 -1.265021E+02
       112  25  9.188938E+04  2.337605E+04  2.415573E+04 -2.207659E+02 -7.184001E+02 -1.402393E+02
       112  26  8.961738E+04  2.268121E+04  2.319635E+04  3.564612E+02 -4.523573E+02 -1.489356E+02
       112  27  9.171998E+04  2.291000E+04  2.346286E+04 -3.807637E+02 -1.863666E+02 -1.265002E+02
       113   1 -6.278155E+04 -1.569419E+04 -1.519483E+04 -4.660296E+02  4.778086E+01  1.114472E+02
       113   2 -6.368751E+04 -1.567816E+04 -1.534425E+04  2.408946E+02 -1.392246E+02  9.882595E+01
       113   3 -6.260906E+04 -1.552587E+04 -1.495258E+04 -3.845440E+02 -3.262544E+02  8.089165E+01
       113   4 -7.756998E+01 -1.793277E+01  4.800160E+02 -4.450182E+02  4.754664E+01  1.114464E+02
       113   5 -1.070189E+03 -2.351550E+01  3.091440E+02  2.212211E+02 -1.396029E+02  9.882549E+01
       113   6 -7.826571E+01  1.072619E+02  6.794724E+02 -4.448927E+02 -3.267767E+02  8.089178E+01
       113   7  6.262997E+04  1.565802E+04  1.615457E+04 -4.240049E+02  4.731240E+01  1.114456E+02
       113   8  6.155069E+04  1.563083E+04  1.596225E+04  2.015459E+02 -1.399812E+02  9.882503E+01
       113   9  6.245608E+04  1.574010E+04  1.631123E+04 -5.052464E+02 -3.272990E+02  8.089191E+01
       113  10 -6.278155E+04 -1.569419E+04 -1.519483E+04 -4.660296E+02  1.030124E-09 -3.663821E-10
       113  11 -6.368751E+04 -1.567816E+04 -1.534425E+04  2.408946E+02 -1.760560E-09 -1.371553E-10
       113  12 -6.260906E+04 -1.552587E+04 -1.495258E+04 -3.845440E+02 -5.102896E-10 -4.065514E-10
       113  13 -7.756999E+01 -1.793279E+01  4.800160E+02 -4.450182E+02  2.154293E-09 -6.466300E-10
       113  14 -1.070189E+03 -2.351552E+01  3.091439E+02  2.212211E+02 -1.852462E-14 -7.927562E-10
       113  15 -7.826583E+01  1.072618E+02  6.794722E+02 -4.448927E+02 -8.488729E-10 -4.157983E-10
       113  16  6.262997E+04  1.565802E+04  1.615457E+04 -4.240049E+02  4.900224E-10 -2.521614E-10
       113  17  6.155069E+04  1.563083E+04  1.596225E+04  2.015459E+02  1.616367E-09  6.544715E-11
       113  18  6.245608E+04  1.574010E+04  1.631123E+04 -5.052464E+02  3.489303E-10 -2.123486E-10
       113  19 -6.278155E+04 -1.569419E+04 -1.519483E+04 -4.660296E+02 -4.778086E+01 -1.114472E+02
       113  20 -6.368751E+04 -1.567816E+04 -1.534425E+04  2.408946E+02  1.392246E+02 -9.882595E+01
       113  21 -6.260906E+04 -1.552587E+04 -1.495258E+04 -3.845440E+02  3.262544E+02 -8.089165E+01
       113  22 -7.756998E+01 -1.793277E+01  4.800160E+02 -4.450182E+02 -4.754664E+01 -1.114464E+02
       113  23 -1.070189E+03 -2.351550E+01  3.091440E+02  2.212211E+02  1.396029E+02 -9.882549E+01
       113  24 -7.826571E+01  1.072619E+02  6.794724E+02 -4.448927E+02  3.267767E+02 -8.089178E+01
       113  25  6.262997E+04  1.565802E+04  1.615457E+04 -4.240049E+02 -4.731240E+01 -1.114456E+02
       113  26  6.155069E+04  1.563083E+04  1.596225E+04  2.015459E+02  1.399812E+02 -9.882503E+01
       113  27  6.245608E+04  1.574010E+04  1.631123E+04 -5.052464E+02  3.272990E+02 -8.089191E+01
       114   1 -3.410889E+04 -8.506557E+03 -7.713883E+03 -4.067548E+02 -4.688462E+02  7.017849E+01
       114   2 -3.438105E+04 -8.475671E+03 -7.290264E+03  2.731307E+02 -1.040888E+03  5.482555E+01
       114   3 -3.393943E+04 -8.089254E+03 -6.295239E+03 -3.866113E+02 -1.612955E+03  3.902375E+01
       114   4 -3.596490E+02 -6.920764E+01  7.225315E+02 -4.469057E+02 -4.692483E+02  7.017889E+01
       114   5 -7.167375E+02 -5.945534E+01  1.125190E+03  2.233295E+02 -1.041328E+03  5.482625E+01
       114   6 -3.600220E+02  3.058355E+02  2.099264E+03 -4.460588E+02 -1.613433E+03  3.902478E+01
       114   7  3.339063E+04  8.368056E+03  9.158860E+03 -4.870585E+02 -4.696504E+02  7.017928E+01
       114   8  3.294861E+04  8.356674E+03  9.540558E+03  1.735261E+02 -1.041768E+03  5.482695E+01
       114   9  3.322040E+04  8.700839E+03  1.049368E+04 -5.055088E+02 -1.613911E+03  3.902582E+01
       114  10 -3.410889E+04 -8.506557E+03 -7.713884E+03 -4.067548E+02  1.784462E-09 -5.635719E-11
       114  11 -3.438106E+04 -8.475671E+03 -7.290266E+03  2.731308E+02 -1.246987E-10 -3.149857E-10
       114  12 -3.393943E+04 -8.089254E+03 -6.295244E+03 -3.866113E+02  7.170255E-10 -6.564942E-10
       114  13 -3.596492E+02 -6.920771E+01  7.225310E+02 -4.469057E+02 -2.153726E-09 -5.900097E-10
       114  14 -7.167386E+02 -5.945563E+01  1.125188E+03  2.233295E+02  2.564282E-12  1.347679E-09
       114  15 -3.600248E+02  3.058348E+02  2.099259E+03 -4.460587E+02 -1.696708E-09 -1.470086E-10
       114  16  3.339063E+04  8.368056E+03  9.158860E+03 -4.870584E+02 -1.360625E-09  7.813055E-11
       114  17  3.294861E+04  8.356674E+03  9.540556E+03  1.735261E+02  1.073255E-09  1.227740E-09
       114  18  3.322040E+04  8.700839E+03  1.049368E+04 -5.055087E+02  1.584568E-09 -3.131656E-10
       114  19 -3.410889E+04 -8.506557E+03 -7.713883E+03 -4.067548E+02  4.688462E+02 -7.017849E+01
       114  20 -3.438105E+04 -8.475671E+03 -7.290264E+03  2.731307E+02  1.040888E+03 -5.482555E+01
       114  21 -3.393943E+04 -8.089254E+03 -6.295239E+03 -3.866113E+02  1.612955E+03 -3.902375E+01
       114  22 -3.596490E+02 -6.920764E+01  7.225315E+02 -4.469057E+02  4.692483E+02 -7.017889E+01
       114  23 -7.167375E+02 -5.945534E+01  1.125190E+03  2.233295E+02  1.041328E+03 -5.482625E+01
       114  24 -3.600220E+02  3.058355E+02  2.099264E+03 -4.460588E+02  1.613433E+03 -3.902478E+01
       114  25  3.339063E+04  8.368056E+03  9.158860E+03 -4.870585E+02  4.696504E+02 -7.017928E+01
       114  26  3.294861E+04  8.356674E+03  9.540558E+03  1.735261E+02  1.041768E+03 -5.482695E+01
       114  27  3.322040E+04  8.700839E+03  1.049368E+04 -5.055088E+02  1.613911E+03 -3.902582E+01
       115   1 -4.985520E+03 -1.249958E+03  1.484555E+03 -4.228105E+02 -2.047642E+03  2.985163E+01
       115   2 -5.373542E+03 -1.581757E+03  3.327992E+03  2.286864E+02 -4.311796E+03  1.835346E+01
       115   3 -4.814117E+03  6.904997E+02  7.296844E+03 -4.573098E+02 -6.575955E+03  7.667734E+00
       115   4 -3.077082E+02 -8.044729E+01  2.653652E+03 -4.478744E+02 -2.048077E+03  2.985278E+01
       115   5 -7.814381E+02 -4.337431E+02  4.475911E+03  2.234018E+02 -4.312226E+03  1.835456E+01
       115   6 -3.077269E+02  1.817004E+03  8.423571E+03 -4.428143E+02 -6.576380E+03  7.668625E+00
       115   7  4.370123E+03  1.089062E+03  3.822747E+03 -4.729385E+02 -2.048512E+03  2.985393E+01
       115   8  3.810685E+03  7.142688E+02  5.623828E+03  2.181173E+02 -4.312656E+03  1.835566E+01
       115   9  4.198682E+03  2.943506E+03  9.550296E+03 -4.283187E+02 -6.576805E+03  7.669516E+00
       115  10 -4.985524E+03 -1.249960E+03  1.484547E+03 -4.228105E+02  3.151182E-10 -4.294795E-10
       115  11 -5.373562E+03 -1.581762E+03  3.327957E+03  2.286864E+02  7.312287E-10  2.318171E-10
       115  12 -4.814163E+03  6.904880E+02  7.296763E+03 -4.573098E+02  3.068624E-09  3.558158E-10
       115  13 -3.077128E+02 -8.044842E+01  2.653644E+03 -4.478744E+02  2.152258E-09  4.597681E-10
       115  14 -7.814580E+02 -4.337481E+02  4.475876E+03  2.234019E+02  3.231345E-09  5.573557E-10
       115  15 -3.077734E+02  1.816992E+03  8.423490E+03 -4.428143E+02  3.949922E-09  6.143729E-10
       115  16  4.370118E+03  1.089061E+03  3.822739E+03 -4.729385E+02 -1.243674E-09 -8.916392E-10
       115  17  3.810666E+03  7.142638E+02  5.623793E+03  2.181174E+02 -3.225065E-09  4.785286E-10
       115  18  4.198635E+03  2.943495E+03  9.550215E+03 -4.283187E+02 -2.441549E-09 -5.100489E-10
       115  19 -4.985520E+03 -1.249958E+03  1.484555E+03 -4.228105E+02  2.047642E+03 -2.985163E+01
       115  20 -5.373542E+03 -1.581757E+03  3.327992E+03  2.286864E+02  4.311796E+03 -1.835346E+01
       115  21 -4.814117E+03  6.904997E+02  7.296844E+03 -4.573098E+02  6.575955E+03 -7.667734E+00
       115  22 -3.077082E+02 -8.044729E+01  2.653652E+03 -4.478744E+02  2.048077E+03 -2.985278E+01
       115  23 -7.814381E+02 -4.337431E+02  4.475911E+03  2.234018E+02  4.312226E+03 -1.835456E+01
       115  24 -3.077269E+02  1.817004E+03  8.423571E+03 -4.428143E+02  6.576380E+03 -7.668625E+00
       115  25  4.370123E+03  1.089062E+03  3.822747E+03 -4.729385E+02  2.048512E+03 -2.985393E+01
       115  26  3.810685E+03  7.142688E+02  5.623828E+03  2.181173E+02  4.312656E+03 -1.835566E+01
       115  27  4.198682E+03  2.943506E+03  9.550296E+03 -4.283187E+02  6.576805E+03 -7.669516E+00
       116   1  2.515819E+04  5.768229E+03  1.683460E+04 -3.962671E+02 -8.317228E+03  8.049270E-01
       116   2  2.236206E+04  3.261447E+03  2.381549E+04  1.437520E+02 -1.741460E+04  9.451547E-01
       116   3  2.532854E+04  1.791862E+04  4.106785E+04 -6.400430E+02 -2.651190E+04 -2.880947E-01
       116   4  7.621081E+02 -3.301169E+02  1.073613E+04 -4.518612E+02 -8.317550E+03  8.070956E-01
       116   5 -2.118965E+03 -2.858948E+03  1.769589E+04  2.221539E+02 -1.741464E+04  9.441339E-01
       116   6  7.627263E+02  1.177649E+04  3.492721E+04 -4.276503E+02 -2.651166E+04 -2.962124E-01
       116   7 -2.363344E+04 -6.428508E+03  4.637615E+03 -5.074526E+02 -8.317872E+03  8.092643E-01
       116   8 -2.659945E+04 -8.979388E+03  1.157625E+04  3.005531E+02 -1.741468E+04  9.431131E-01
       116   9 -2.380254E+04  5.634320E+03  2.878653E+04 -2.152658E+02 -2.651142E+04 -3.043302E-01
       116  10  2.515812E+04  5.768211E+03  1.683447E+04 -3.962671E+02  3.576245E-09 -6.066850E-10
       116  11  2.236174E+04  3.261366E+03  2.381492E+04  1.437520E+02 -2.246686E-10 -6.709746E-10
       116  12  2.532779E+04  1.791843E+04  4.106653E+04 -6.400430E+02 -1.539975E-09 -9.640469E-10
       116  13  7.620338E+02 -3.301355E+02  1.073600E+04 -4.518611E+02  2.522185E-12 -9.511312E-10
       116  14 -2.119290E+03 -2.859029E+03  1.769532E+04  2.221539E+02  1.077948E-09 -1.066507E-09
       116  15  7.619716E+02  1.177630E+04  3.492589E+04 -4.276503E+02  1.993227E-10 -1.397956E-09
       116  16 -2.363351E+04 -6.428527E+03  4.637485E+03 -5.074526E+02 -1.803469E-09 -6.066961E-10
       116  17 -2.659978E+04 -8.979470E+03  1.157568E+04  3.005531E+02 -5.499827E-10 -6.935146E-10
       116  18 -2.380330E+04  5.634131E+03  2.878521E+04 -2.152658E+02  1.895135E-10 -2.154155E-10
       116  19  2.515819E+04  5.768229E+03  1.683460E+04 -3.962671E+02  8.317228E+03 -8.049270E-01
       116  20  2.236206E+04  3.261447E+03  2.381549E+04  1.437520E+02  1.741460E+04 -9.451547E-01
       116  21  2.532854E+04  1.791862E+04  4.106785E+04 -6.400430E+02  2.651190E+04  2.880947E-01
       116  22  7.621081E+02 -3.301169E+02  1.073613E+04 -4.518612E+02  8.317550E+03 -8.070956E-01
       116  23 -2.118965E+03 -2.858948E+03  1.769589E+04  2.221539E+02  1.741464E+04 -9.441339E-01
       116  24  7.627263E+02  1.177649E+04  3.492721E+04 -4.276503E+02  2.651166E+04  2.962124E-01
       116  25 -2.363344E+04 -6.428508E+03  4.637615E+03 -5.074526E+02  8.317872E+03 -8.092643E-01
       116  26 -2.659945E+04 -8.979388E+03  1.157625E+04  3.005531E+02  1.741468E+04 -9.431131E-01
       116  27 -2.380254E+04  5.634320E+03  2.878653E+04 -2.152658E+02  2.651142E+04  3.043302E-01
       117   1  6.017541E+04  1.107217E+04  5.688393E+04  1.022102E+02 -3.365888E+04 -9.418385E+00
       117   2  4.342905E+04 -5.008162E+03  8.279765E+04 -9.282216E+01 -7.025330E+04 -1.497937E+01
       117   3  6.035917E+04  8.898297E+04  1.603373E+05 -1.673859E+03 -1.068489E+05 -4.593945E+01
       117   4  6.965447E+03 -2.227002E+03  4.358376E+04 -4.742249E+02 -3.365822E+04 -9.384947E+00
       117   5 -9.871305E+03 -1.833358E+04  6.947442E+04  2.341613E+02 -7.025050E+04 -1.501508E+01
       117   6  6.970647E+03  7.563595E+04  1.469926E+05 -4.434437E+02 -1.068439E+05 -4.615095E+01
       117   7 -4.624195E+04 -1.552639E+04  3.028338E+04 -1.050610E+03 -3.365755E+04 -9.351509E+00
       117   8 -6.316909E+04 -3.165921E+04  5.615098E+04  5.611173E+02 -7.024770E+04 -1.505078E+01
       117   9 -4.641529E+04  6.228872E+04  1.336477E+05  7.868661E+02 -1.068390E+05 -4.636245E+01
       117  10  6.017419E+04  1.107187E+04  5.688180E+04  1.022100E+02  2.819267E-09 -4.797642E-10
       117  11  4.342375E+04 -5.009486E+03  8.278837E+04 -9.282300E+01 -8.874175E-10 -2.739393E-10
       117  12  6.034691E+04  8.897991E+04  1.603159E+05 -1.673863E+03  3.667695E-11 -4.756236E-10
       117  13  6.964230E+03 -2.227306E+03  4.358163E+04 -4.742252E+02 -2.160861E-09  2.587940E-10
       117  14 -9.876604E+03 -1.833491E+04  6.946515E+04  2.341604E+02  2.156476E-09  1.186815E-09
       117  15  6.958390E+03  7.563289E+04  1.469712E+05 -4.434477E+02 -8.184938E-10  1.934326E-10
       117  16 -4.624317E+04 -1.552669E+04  3.028125E+04 -1.050610E+03 -7.571211E-10 -1.182877E-10
       117  17 -6.317439E+04 -3.166054E+04  5.614170E+04  5.611165E+02 -1.585731E-09  2.761210E-09
       117  18 -4.642755E+04  6.228566E+04  1.336262E+05  7.868621E+02  3.863805E-10 -4.182727E-10
       117  19  6.017541E+04  1.107217E+04  5.688393E+04  1.022102E+02  3.365888E+04  9.418385E+00
       117  20  4.342905E+04 -5.008162E+03  8.279765E+04 -9.282215E+01  7.025330E+04  1.497937E+01
       117  21  6.035917E+04  8.898297E+04  1.603373E+05 -1.673859E+03  1.068489E+05  4.593945E+01
       117  22  6.965447E+03 -2.227002E+03  4.358376E+04 -4.742249E+02  3.365822E+04  9.384947E+00
       117  23 -9.871305E+03 -1.833358E+04  6.947442E+04  2.341613E+02  7.025050E+04  1.501508E+01
       117  24  6.970647E+03  7.563595E+04  1.469926E+05 -4.434437E+02  1.068439E+05  4.615095E+01
       117  25 -4.624195E+04 -1.552639E+04  3.028338E+04 -1.050610E+03  3.365755E+04  9.351509E+00
       117  26 -6.316909E+04 -3.165921E+04  5.615098E+04  5.611173E+02  7.024770E+04  1.505078E+01
       117  27 -4.641529E+04  6.228872E+04  1.336477E+05  7.868661E+02  1.068390E+05  4.636245E+01
       118   1  1.237288E+05  5.277799E+03  1.976052E+05  3.487576E+03 -1.364333E+05 -1.321419E+02
       118   2  2.517193E+04 -9.653830E+04  2.888921E+05 -1.462622E+03 -2.835373E+05 -4.712788E+02
       118   3  1.240926E+05  5.020846E+05  6.517734E+05 -9.566275E+03 -4.306344E+05 -9.760265E+02
       118   4  4.337521E+04 -1.480979E+04  1.775216E+05 -5.574140E+02 -1.364268E+05 -1.312550E+02
       118   5 -5.533836E+04 -1.166609E+05  2.687699E+05  4.978376E+02 -2.835182E+05 -4.721850E+02
       118   6  4.344715E+04  4.819726E+05  6.316286E+05 -1.599628E+03 -4.306026E+05 -9.815742E+02
       118   7 -3.697249E+04 -3.489781E+04  1.574376E+05 -4.601881E+03 -1.364204E+05 -1.303680E+02
       118   8 -1.358428E+05 -1.367840E+05  2.486472E+05  2.458041E+03 -2.834991E+05 -4.730913E+02
       118   9 -3.719224E+04  4.618602E+05  6.114833E+05  6.365982E+03 -4.305709E+05 -9.871217E+02
       118  10  1.237088E+05  5.272804E+03  1.975702E+05  3.487562E+03 -9.036850E-10 -4.865398E-09
       118  11  2.508564E+04 -9.655988E+04  2.887410E+05 -1.462729E+03  4.164109E-09  2.420907E-11
       118  12  1.238936E+05  5.020349E+05  6.514250E+05 -9.566614E+03  1.611630E-09  9.161978E-10
       118  13  4.335523E+04 -1.481479E+04  1.774867E+05 -5.574284E+02 -2.078395E-09 -1.397756E-09
       118  14 -5.542465E+04 -1.166825E+05  2.686188E+05  4.977298E+02 -1.071623E-09 -1.792291E-09
       118  15  4.324815E+04  4.819228E+05  6.312802E+05 -1.599968E+03 -1.263923E-09 -1.216098E-09
       118  16 -3.699248E+04 -3.490281E+04  1.574027E+05 -4.601895E+03 -5.408598E-10 -7.589085E-10
       118  17 -1.359291E+05 -1.368056E+05  2.484961E+05  2.457933E+03 -1.039124E-11 -2.948489E-09
       118  18 -3.739123E+04  4.618105E+05  6.111349E+05  6.365641E+03 -1.577763E-09 -3.256378E-09
       118  19  1.237288E+05  5.277799E+03  1.976052E+05  3.487576E+03  1.364333E+05  1.321419E+02
       118  20  2.517193E+04 -9.653830E+04  2.888921E+05 -1.462622E+03  2.835373E+05  4.712788E+02
       118  21  1.240926E+05  5.020846E+05  6.517734E+05 -9.566275E+03  4.306344E+05  9.760265E+02
       118  22  4.337521E+04 -1.480979E+04  1.775216E+05 -5.574140E+02  1.364268E+05  1.312550E+02
       118  23 -5.533836E+04 -1.166609E+05  2.687699E+05  4.978376E+02  2.835182E+05  4.721850E+02
       118  24  4.344715E+04  4.819726E+05  6.316286E+05 -1.599628E+03  4.306026E+05  9.815742E+02
       118  25 -3.697249E+04 -3.489781E+04  1.574376E+05 -4.601881E+03  1.364204E+05  1.303680E+02
       118  26 -1.358428E+05 -1.367840E+05  2.486472E+05  2.458041E+03  2.834991E+05  4.730913E+02
       118  27 -3.719224E+04  4.618602E+05  6.114833E+05  6.365982E+03  4.305709E+05  9.871217E+02
       119   1 -1.242028E+06  2.576952E+05  3.567564E+05  3.194380E+02  2.870158E+05  6.387474E+02
       119   2 -1.323819E+06 -1.454090E+05  1.106706E+05  6.931005E+03  1.891886E+05  1.692023E+02
       119   3 -1.239813E+06 -7.683315E+04  5.335504E+04 -5.913485E+03  9.136297E+04 -3.048164E+02
       119   4 -9.737428E+05  3.248213E+05  4.238924E+05 -4.757251E+03  2.870933E+05  6.363671E+02
       119   5 -1.056715E+06 -7.853605E+04  1.775241E+05  5.181473E+03  1.892289E+05  1.686932E+02
       119   6 -9.739296E+05 -1.030772E+04  1.198969E+05 -4.335895E+03  9.136623E+04 -3.044506E+02
       119   7 -7.053920E+05  3.919419E+05  4.910229E+05 -9.836162E+03  2.871709E+05  6.339865E+02
       119   8 -7.895464E+05 -1.166849E+04  2.443722E+05  3.431219E+03  1.892692E+05  1.681841E+02
       119   9 -7.079816E+05  5.621238E+04  1.864335E+05 -2.757543E+03  9.136949E+04 -3.040849E+02
       119  10 -1.242117E+06  2.576731E+05  3.566012E+05  3.192904E+02 -2.457756E-09  4.481181E-10
       119  11 -1.323858E+06 -1.454186E+05  1.106032E+05  6.930979E+03 -6.952438E-09  3.549755E-09
       119  12 -1.239822E+06 -7.683539E+04  5.333932E+04 -5.913463E+03  5.647309E-10  1.809264E-09
       119  13 -9.738314E+05  3.247991E+05  4.237372E+05 -4.757398E+03  2.249554E-09  8.957415E-10
       119  14 -1.056754E+06 -7.854568E+04  1.774567E+05  5.181448E+03  2.156381E-09  1.493998E-09
       119  15 -9.739385E+05 -1.030996E+04  1.198812E+05 -4.335873E+03  2.872226E-10  2.798484E-09
       119  16 -7.054806E+05  3.919197E+05  4.908678E+05 -9.836309E+03 -1.882590E-09  7.442719E-10
       119  17 -7.895849E+05 -1.167812E+04  2.443048E+05  3.431193E+03  3.311461E-09  5.458084E-09
       119  18 -7.079906E+05  5.621013E+04  1.864178E+05 -2.757521E+03  4.191703E-09  3.565167E-09
       119  19 -1.242028E+06  2.576952E+05  3.567564E+05  3.194380E+02 -2.870158E+05 -6.387474E+02
       119  20 -1.323819E+06 -1.454090E+05  1.106706E+05  6.931005E+03 -1.891886E+05 -1.692023E+02
       119  21 -1.239813E+06 -7.683315E+04  5.335504E+04 -5.913485E+03 -9.136297E+04  3.048164E+02
       119  22 -9.737428E+05  3.248213E+05  4.238924E+05 -4.757251E+03 -2.870933E+05 -6.363671E+02
       119  23 -1.056715E+06 -7.853605E+04  1.775241E+05  5.181473E+03 -1.892289E+05 -1.686932E+02
       119  24 -9.739296E+05 -1.030772E+04  1.198969E+05 -4.335895E+03 -9.136623E+04  3.044506E+02
       119  25 -7.053920E+05  3.919419E+05  4.910229E+05 -9.836162E+03 -2.871709E+05 -6.339865E+02
       119  26 -7.895464E+05 -1.166849E+04  2.443722E+05  3.431219E+03 -1.892692E+05 -1.681841E+02
       119  27 -7.079816E+05  5.621238E+04  1.864335E+05 -2.757543E+03 -9.136949E+04  3.040849E+02
       120   1 -6.722322E+05  1.323340E+05  1.812360E+05 -2.196587E+03  7.079788E+04 -6.261116E+02
       120   2 -7.086042E+05  6.771870E+04  1.242323E+05  2.369634E+03  4.685543E+04 -6.564239E+02
       120   3 -6.710808E+05  8.127163E+04  1.126272E+05 -1.574696E+03  2.291481E+04 -2.476419E+02
       120   4 -9.943373E+05  5.173863E+04  1.006443E+05 -1.702821E+03  7.076368E+04 -6.260304E+02
       120   5 -1.031273E+06 -1.302343E+04  4.349949E+04  2.421610E+03  4.684263E+04 -6.564453E+02
       120   6 -9.943214E+05  3.890696E+02  3.174976E+04 -1.964832E+03  2.292344E+04 -2.476126E+02
       120   7 -1.316348E+06 -2.886460E+04  2.004486E+04 -1.209193E+03  7.072949E+04 -6.259493E+02
       120   8 -1.353848E+06 -9.377344E+04 -3.724119E+04  2.473583E+03  4.682984E+04 -6.564667E+02
       120   9 -1.317467E+06 -8.050140E+04 -4.913560E+04 -2.354837E+03  2.293206E+04 -2.475833E+02
       120  10 -6.722375E+05  1.323327E+05  1.812266E+05 -2.196551E+03 -1.418812E-09  4.885661E-10
       120  11 -7.086066E+05  6.771811E+04  1.242282E+05  2.369659E+03  7.256071E-10 -1.500892E-09
       120  12 -6.710814E+05  8.127149E+04  1.126262E+05 -1.574691E+03 -4.248133E-09 -1.202992E-09
       120  13 -9.943427E+05  5.173728E+04  1.006349E+05 -1.702786E+03 -1.929388E-09  3.034409E-09
       120  14 -1.031276E+06 -1.302402E+04  4.349536E+04  2.421635E+03 -3.771535E-10 -2.347708E-09
       120  15 -9.943220E+05  3.889282E+02  3.174877E+04 -1.964827E+03 -1.701181E-09 -1.951235E-09
       120  16 -1.316354E+06 -2.886595E+04  2.003543E+04 -1.209157E+03  4.659991E-11  9.944554E-10
       120  17 -1.353850E+06 -9.377403E+04 -3.724532E+04  2.473607E+03  3.141497E-09 -3.332235E-09
       120  18 -1.317468E+06 -8.050154E+04 -4.913659E+04 -2.354832E+03  7.093590E-10  3.043908E-09
       120  19 -6.722322E+05  1.323340E+05  1.812360E+05 -2.196587E+03 -7.079788E+04  6.261116E+02
       120  20 -7.086042E+05  6.771870E+04  1.242323E+05  2.369634E+03 -4.685543E+04  6.564239E+02
       120  21 -6.710808E+05  8.127163E+04  1.126272E+05 -1.574696E+03 -2.291481E+04  2.476419E+02
       120  22 -9.943373E+05  5.173863E+04  1.006443E+05 -1.702821E+03 -7.076368E+04  6.260304E+02
       120  23 -1.031273E+06 -1.302343E+04  4.349949E+04  2.421610E+03 -4.684263E+04  6.564453E+02
       120  24 -9.943214E+05  3.890696E+02  3.174976E+04 -1.964832E+03 -2.292344E+04  2.476126E+02
       120  25 -1.316348E+06 -2.886460E+04  2.004486E+04 -1.209193E+03 -7.072949E+04  6.259493E+02
       120  26 -1.353848E+06 -9.377344E+04 -3.724119E+04  2.473583E+03 -4.682984E+04  6.564667E+02
       120  27 -1.317467E+06 -8.050140E+04 -4.913560E+04 -2.354837E+03 -2.293206E+04  2.475833E+02
       121   1 -1.087911E+06 -1.342935E+04  3.337073E+03  5.742514E+03  1.761479E+04  4.068612E+01
       121   2 -1.092418E+06 -2.120717E+04 -8.264886E+03 -7.591167E+03  1.160983E+04  1.875638E+02
       121   3 -1.091375E+06 -2.178710E+04 -1.355888E+04  5.791032E+03  5.605600E+03  1.802249E+02
       121   4 -1.009444E+06  6.210889E+03  2.297714E+04  5.910059E+03  1.762229E+04  4.071433E+01
       121   5 -1.012242E+06 -1.139687E+03  1.180017E+04 -7.434213E+03  1.161296E+04  1.875715E+02
       121   6 -1.009490E+06 -1.291956E+03  6.933745E+03  5.937180E+03  5.604359E+03  1.802213E+02
       121   7 -9.309712E+05  2.585066E+04  4.261675E+04  6.077620E+03  1.762978E+04  4.074253E+01
       121   8 -9.320603E+05  1.892730E+04  3.186474E+04 -7.277243E+03  1.161610E+04  1.875792E+02
       121   9 -9.275984E+05  1.920269E+04  2.742586E+04  6.083344E+03  5.603118E+03  1.802177E+02
       121  10 -1.087911E+06 -1.342943E+04  3.336489E+03  5.742513E+03 -3.316158E-09  3.550643E-09
       121  11 -1.092418E+06 -2.120720E+04 -8.265140E+03 -7.591169E+03  4.745551E-09 -1.738181E-10
       121  12 -1.091375E+06 -2.178711E+04 -1.355894E+04  5.791031E+03 -2.651676E-10  2.042348E-09
       121  13 -1.009444E+06  6.210805E+03  2.297656E+04  5.910058E+03  3.559853E-12 -7.629485E-10
       121  14 -1.012242E+06 -1.139724E+03  1.179992E+04 -7.434215E+03 -2.952048E-09 -2.059238E-09
       121  15 -1.009490E+06 -1.291964E+03  6.933686E+03  5.937179E+03  1.231276E-09 -1.585979E-09
       121  16 -9.309715E+05  2.585057E+04  4.261616E+04  6.077619E+03  1.657163E-09  1.265540E-09
       121  17 -9.320604E+05  1.892727E+04  3.186449E+04 -7.277244E+03 -2.677313E-09  9.249093E-10
       121  18 -9.275984E+05  1.920268E+04  2.742581E+04  6.083343E+03  8.238036E-10  3.083218E-09
       121  19 -1.087911E+06 -1.342935E+04  3.337073E+03  5.742514E+03 -1.761479E+04 -4.068612E+01
       121  20 -1.092418E+06 -2.120717E+04 -8.264886E+03 -7.591167E+03 -1.160983E+04 -1.875638E+02
       121  21 -1.091375E+06 -2.178710E+04 -1.355888E+04  5.791032E+03 -5.605600E+03 -1.802249E+02
       121  22 -1.009444E+06  6.210889E+03  2.297714E+04  5.910059E+03 -1.762229E+04 -4.071433E+01
       121  23 -1.012242E+06 -1.139687E+03  1.180017E+04 -7.434213E+03 -1.161296E+04 -1.875715E+02
       121  24 -1.009490E+06 -1.291956E+03  6.933745E+03  5.937180E+03 -5.604359E+03 -1.802213E+02
       121  25 -9.309712E+05  2.585066E+04  4.261675E+04  6.077620E+03 -1.762978E+04 -4.074253E+01
       121  26 -9.320603E+05  1.892730E+04  3.186474E+04 -7.277243E+03 -1.161610E+04 -1.875792E+02
       121  27 -9.275984E+05  1.920269E+04  2.742586E+04  6.083344E+03 -5.603118E+03 -1.802177E+02
       122   1 -1.241892E+06 -5.739484E+04 -5.247255E+04 -4.633958E+03  4.150982E+03  2.848819E+02
       122   2 -1.254562E+06 -5.937691E+04 -5.763357E+04  5.944091E+03  2.966497E+03  4.427178E+02
       122   3 -1.239324E+06 -5.962325E+04 -5.611574E+04 -3.481999E+03  1.780591E+03  1.267674E+02
       122   4 -1.004560E+06  2.011996E+03  6.930480E+03 -4.454558E+03  4.161556E+03  2.848836E+02
       122   5 -1.018516E+06 -2.906872E+02  1.446093E+03  5.545483E+03  2.965316E+03  4.427096E+02
       122   6 -1.004557E+06 -8.513718E+02  2.648959E+03 -4.458125E+03  1.767657E+03  1.268310E+02
       122   7 -7.671776E+05  6.141457E+04  6.632924E+04 -4.275099E+03  4.172133E+03  2.848853E+02
       122   8 -7.824199E+05  5.879132E+04  6.052154E+04  5.146751E+03  2.964134E+03  4.427015E+02
       122   9 -7.697398E+05  5.791633E+04  6.140949E+04 -5.434557E+03  1.754719E+03  1.268947E+02
       122  10 -1.241892E+06 -5.739485E+04 -5.247258E+04 -4.633959E+03 -5.446322E-09 -1.876194E-09
       122  11 -1.254562E+06 -5.937691E+04 -5.763359E+04  5.944090E+03  4.204458E-10  4.681884E-10
       122  12 -1.239324E+06 -5.962325E+04 -5.611575E+04 -3.481999E+03  1.451856E-09  1.951018E-10
       122  13 -1.004560E+06  2.011991E+03  6.930448E+03 -4.454559E+03 -2.338718E-09  8.093311E-10
       122  14 -1.018516E+06 -2.906898E+02  1.446076E+03  5.545482E+03  1.849180E-10  9.880265E-10
       122  15 -1.004557E+06 -8.513726E+02  2.648953E+03 -4.458126E+03 -1.630280E-09 -2.685099E-09
       122  16 -7.671776E+05  6.141456E+04  6.632921E+04 -4.275100E+03 -1.151716E-09  1.112060E-09
       122  17 -7.824199E+05  5.879131E+04  6.052153E+04  5.146750E+03 -4.577506E-10 -2.043362E-09
       122  18 -7.697398E+05  5.791633E+04  6.140948E+04 -5.434557E+03 -2.557755E-09 -4.798615E-09
       122  19 -1.241892E+06 -5.739484E+04 -5.247255E+04 -4.633958E+03 -4.150982E+03 -2.848819E+02
       122  20 -1.254562E+06 -5.937691E+04 -5.763357E+04  5.944091E+03 -2.966497E+03 -4.427178E+02
       122  21 -1.239324E+06 -5.962325E+04 -5.611574E+04 -3.481999E+03 -1.780591E+03 -1.267674E+02
       122  22 -1.004560E+06  2.011996E+03  6.930480E+03 -4.454558E+03 -4.161556E+03 -2.848836E+02
       122  23 -1.018516E+06 -2.906872E+02  1.446093E+03  5.545483E+03 -2.965316E+03 -4.427096E+02
       122  24 -1.004557E+06 -8.513718E+02  2.648959E+03 -4.458125E+03 -1.767657E+03 -1.268310E+02
       122  25 -7.671776E+05  6.141457E+04  6.632924E+04 -4.275099E+03 -4.172133E+03 -2.848853E+02
       122  26 -7.824199E+05  5.879132E+04  6.052154E+04  5.146751E+03 -2.964134E+03 -4.427015E+02
       122  27 -7.697398E+05  5.791633E+04  6.140949E+04 -5.434556E+03 -1.754719E+03 -1.268947E+02
       123   1 -6.620846E+05  8.564593E+04  8.809990E+04 -2.451295E+03  6.667988E+02 -2.822286E+02
       123   2 -6.902096E+05  8.331057E+04  8.149852E+04  1.282383E+03  9.458112E+02 -6.404069E+02
       123   3 -6.614006E+05  8.611487E+04  8.714684E+04 -1.505362E+02  1.225403E+03 -3.118403E+02
       123   4 -9.981278E+05  1.551805E+03  4.016028E+03 -1.150585E+03  6.497649E+02 -2.821561E+02
       123   5 -1.026581E+06 -8.589229E+02 -2.662954E+03  1.426031E+03  9.451072E+02 -6.404282E+02
       123   6 -9.981186E+05  1.855350E+03  2.895349E+03 -1.164165E+03  1.241029E+03 -3.117937E+02
       123   7 -1.334069E+06 -8.255087E+04 -8.007639E+04  1.495438E+02  6.327401E+02 -2.820837E+02
       123   8 -1.362849E+06 -8.503698E+04 -8.683299E+04  1.569615E+03  9.444034E+02 -6.404496E+02
       123   9 -1.334734E+06 -8.241275E+04 -8.136472E+04 -2.177337E+03  1.256646E+03 -3.117471E+02
       123  10 -6.620846E+05  8.564593E+04  8.809990E+04 -2.451294E+03  3.354299E-09  2.039119E-09
       123  11 -6.902096E+05  8.331057E+04  8.149852E+04  1.282384E+03 -5.248707E-10  1.074938E-09
       123  12 -6.614006E+05  8.611487E+04  8.714684E+04 -1.505359E+02  3.213112E-09  4.832945E-09
       123  13 -9.981278E+05  1.551805E+03  4.016027E+03 -1.150584E+03 -1.112247E-10 -2.023438E-09
       123  14 -1.026581E+06 -8.589235E+02 -2.662956E+03  1.426031E+03 -2.785675E-10 -7.347571E-10
       123  15 -9.981186E+05  1.855349E+03  2.895346E+03 -1.164164E+03 -4.127038E-09  1.489185E-09
       123  16 -1.334069E+06 -8.255087E+04 -8.007639E+04  1.495439E+02 -1.391218E-09 -3.213565E-09
       123  17 -1.362849E+06 -8.503698E+04 -8.683300E+04  1.569615E+03  8.975462E-10  5.581988E-10
       123  18 -1.334734E+06 -8.241275E+04 -8.136473E+04 -2.177337E+03 -2.268721E-10  1.864820E-09
       123  19 -6.620846E+05  8.564593E+04  8.809990E+04 -2.451295E+03 -6.667988E+02  2.822286E+02
       123  20 -6.902096E+05  8.331057E+04  8.149852E+04  1.282383E+03 -9.458112E+02  6.404069E+02
       123  21 -6.614006E+05  8.611487E+04  8.714684E+04 -1.505362E+02 -1.225403E+03  3.118403E+02
       123  22 -9.981278E+05  1.551805E+03  4.016028E+03 -1.150585E+03 -6.497649E+02  2.821561E+02
       123  23 -1.026581E+06 -8.589229E+02 -2.662954E+03  1.426031E+03 -9.451072E+02  6.404282E+02
       123  24 -9.981186E+05  1.855350E+03  2.895349E+03 -1.164165E+03 -1.241029E+03  3.117937E+02
       123  25 -1.334069E+06 -8.255087E+04 -8.007639E+04  1.495438E+02 -6.327401E+02  2.820837E+02
       123  26 -1.362849E+06 -8.503698E+04 -8.683299E+04  1.569615E+03 -9.444034E+02  6.404496E+02
       123  27 -1.334734E+06 -8.241275E+04 -8.136472E+04 -2.177337E+03 -1.256646E+03  3.117471E+02
       124   1 -1.136340E+06 -3.345015E+04 -3.217504E+04  5.179567E+03  6.096471E+02  2.316674E+01
       124   2 -1.141392E+06 -3.146166E+04 -3.333383E+04 -7.374839E+03  1.129954E+03  2.478994E+02
       124   3 -1.139610E+06 -3.379957E+04 -3.431502E+04  5.599057E+03  1.651317E+03  2.108977E+02
       124   4 -1.009191E+06 -1.621775E+03 -3.494095E+02  5.668544E+03  6.182020E+02  2.320472E+01
       124   5 -1.012612E+06  7.720507E+02 -1.103951E+03 -7.098049E+03  1.132330E+03  2.479030E+02
       124   6 -1.009199E+06 -1.158220E+03 -1.676285E+03  5.663330E+03  1.647516E+03  2.108901E+02
       124   7 -8.820268E+05  3.020537E+04  3.147500E+04  6.157604E+03  6.267587E+02  2.324272E+01
       124   8 -8.838181E+05  3.300450E+04  3.112468E+04 -6.821212E+03  1.134706E+03  2.479065E+02
       124   9 -8.787718E+05  3.148184E+04  3.096116E+04  5.727611E+03  1.643713E+03  2.108826E+02
       124  10 -1.136340E+06 -3.345015E+04 -3.217504E+04  5.179567E+03  2.009967E-09  5.815071E-09
       124  11 -1.141392E+06 -3.146166E+04 -3.333383E+04 -7.374839E+03  3.912969E-09  1.658358E-09
       124  12 -1.139610E+06 -3.379957E+04 -3.431502E+04  5.599057E+03 -2.740953E-09 -9.748161E-10
       124  13 -1.009191E+06 -1.621775E+03 -3.494102E+02  5.668544E+03  2.309590E-09  1.978652E-10
       124  14 -1.012612E+06  7.720503E+02 -1.103953E+03 -7.098050E+03 -2.336745E-09  1.129031E-09
       124  15 -1.009199E+06 -1.158221E+03 -1.676290E+03  5.663330E+03  5.665785E-10 -1.439282E-09
       124  16 -8.820268E+05  3.020537E+04  3.147500E+04  6.157604E+03 -3.256607E-09  4.043094E-09
       124  17 -8.838181E+05  3.300450E+04  3.112467E+04 -6.821213E+03 -4.947335E-10 -4.356519E-09
       124  18 -8.787718E+05  3.148184E+04  3.096115E+04  5.727611E+03  1.283083E-09 -3.307687E-09
       124  19 -1.136340E+06 -3.345015E+04 -3.217504E+04  5.179567E+03 -6.096471E+02 -2.316674E+01
       124  20 -1.141392E+06 -3.146166E+04 -3.333383E+04 -7.374839E+03 -1.129954E+03 -2.478994E+02
       124  21 -1.139610E+06 -3.379957E+04 -3.431502E+04  5.599057E+03 -1.651317E+03 -2.108977E+02
       124  22 -1.009191E+06 -1.621775E+03 -3.494095E+02  5.668544E+03 -6.182020E+02 -2.320472E+01
       124  23 -1.012612E+06  7.720507E+02 -1.103951E+03 -7.098049E+03 -1.132330E+03 -2.479030E+02
       124  24 -1.009199E+06 -1.158220E+03 -1.676285E+03  5.663330E+03 -1.647516E+03 -2.108901E+02
       124  25 -8.820268E+05  3.020537E+04  3.147500E+04  6.157604E+03 -6.267587E+02 -2.324272E+01
       124  26 -8.838181E+05  3.300450E+04  3.112468E+04 -6.821212E+03 -1.134706E+03 -2.479065E+02
       124  27 -8.787718E+05  3.148184E+04  3.096116E+04  5.727611E+03 -1.643713E+03 -2.108826E+02
       125   1 -1.205143E+06 -4.923722E+04 -5.110333E+04 -5.112980E+03  1.766217E+03  2.563933E+02
       125   2 -1.212083E+06 -4.804207E+04 -5.405958E+04  6.658030E+03  4.003366E+03  3.624003E+02
       125   3 -1.202166E+06 -5.384219E+04 -5.643745E+04 -4.201611E+03  6.239136E+03  6.830678E+01
       125   4 -1.007027E+06  3.521539E+02 -1.517120E+03 -5.030491E+03  1.773939E+03  2.563883E+02
       125   5 -1.015419E+06  1.185283E+03 -4.837766E+03  6.271098E+03  4.002118E+03  3.623959E+02
       125   6 -1.006948E+06 -4.971435E+03 -7.572780E+03 -5.057504E+03  6.228914E+03  6.835440E+01
       125   7 -8.088758E+05  4.993856E+04  4.806612E+04 -4.947975E+03  1.781664E+03  2.563833E+02
       125   8 -8.187196E+05  5.040971E+04  4.438112E+04  5.884064E+03  4.000870E+03  3.623915E+02
       125   9 -8.116951E+05  4.389643E+04  4.128900E+04 -5.913624E+03  6.218688E+03  6.840204E+01
       125  10 -1.205143E+06 -4.923722E+04 -5.110334E+04 -5.112980E+03 -1.072943E-09 -2.460435E-09
       125  11 -1.212083E+06 -4.804208E+04 -5.405961E+04  6.658029E+03  7.111414E-10 -3.866479E-09
       125  12 -1.202166E+06 -5.384220E+04 -5.643752E+04 -4.201611E+03  8.076403E-10 -4.283163E-11
       125  13 -1.007027E+06  3.521530E+02 -1.517126E+03 -5.030491E+03  3.362863E-11 -1.488935E-09
       125  14 -1.015419E+06  1.185278E+03 -4.837796E+03  6.271097E+03  3.706020E-10  3.012203E-09
       125  15 -1.006948E+06 -4.971445E+03 -7.572853E+03 -5.057504E+03  8.657347E-10 -8.969501E-10
       125  16 -8.088758E+05  4.993856E+04  4.806611E+04 -4.947975E+03  3.240903E-09  1.974462E-09
       125  17 -8.187196E+05  5.040971E+04  4.438109E+04  5.884063E+03 -1.913915E-09  1.029746E-09
       125  18 -8.116952E+05  4.389642E+04  4.128893E+04 -5.913624E+03 -5.937277E-10  4.346883E-10
       125  19 -1.205143E+06 -4.923722E+04 -5.110333E+04 -5.112980E+03 -1.766217E+03 -2.563933E+02
       125  20 -1.212083E+06 -4.804207E+04 -5.405958E+04  6.658030E+03 -4.003366E+03 -3.624003E+02
       125  21 -1.202166E+06 -5.384219E+04 -5.643745E+04 -4.201611E+03 -6.239136E+03 -6.830678E+01
       125  22 -1.007027E+06  3.521539E+02 -1.517120E+03 -5.030491E+03 -1.773939E+03 -2.563883E+02
       125  23 -1.015419E+06  1.185283E+03 -4.837766E+03  6.271098E+03 -4.002118E+03 -3.623959E+02
       125  24 -1.006948E+06 -4.971435E+03 -7.572780E+03 -5.057504E+03 -6.228914E+03 -6.835440E+01
       125  25 -8.088758E+05  4.993856E+04  4.806612E+04 -4.947975E+03 -1.781664E+03 -2.563833E+02
       125  26 -8.187196E+05  5.040971E+04  4.438112E+04  5.884064E+03 -4.000870E+03 -3.623915E+02
       125  27 -8.116951E+05  4.389643E+04  4.128900E+04 -5.913624E+03 -6.218688E+03 -6.840204E+01
       126   1 -6.571339E+05  8.829429E+04  7.885357E+04 -1.621469E+03  7.095194E+03 -3.330985E+02
       126   2 -6.817545E+05  9.073440E+04  6.722467E+04  3.031829E+02  1.588853E+04 -6.645367E+02
       126   3 -6.571703E+05  6.342171E+04  5.399719E+04  1.470085E+03  2.468242E+04 -1.563327E+02
       126   4 -9.997330E+05  2.558822E+03 -6.870828E+03 -1.915027E+02  7.075423E+03 -3.330180E+02
       126   5 -1.024404E+06  4.994723E+03 -1.850755E+04  2.300433E+02  1.588464E+04 -6.645618E+02
       126   6 -9.998956E+05 -2.234771E+04 -3.176058E+04 -1.062436E+02  2.469440E+04 -1.563107E+02
       126   7 -1.342226E+06 -8.318552E+04 -9.260411E+04  1.237791E+03  7.055661E+03 -3.329377E+02
       126   8 -1.366947E+06 -8.075383E+04 -1.042487E+05  1.569467E+02  1.588074E+04 -6.645869E+02
       126   9 -1.342514E+06 -1.081260E+05 -1.175272E+05 -1.681814E+03  2.470637E+04 -1.562888E+02
       126  10 -6.571339E+05  8.829428E+04  7.885347E+04 -1.621467E+03  1.556414E-09 -1.457106E-09
       126  11 -6.817548E+05  9.073433E+04  6.722419E+04  3.031914E+02 -2.408412E-09  3.125574E-09
       126  12 -6.571710E+05  6.342155E+04  5.399604E+04  1.470088E+03 -9.751437E-10  3.992855E-11
       126  13 -9.997330E+05  2.558809E+03 -6.870923E+03 -1.915008E+02 -3.361024E-10 -5.048235E-09
       126  14 -1.024404E+06  4.994655E+03 -1.850803E+04  2.300518E+02 -4.859943E-09  7.342349E-10
       126  15 -9.998963E+05 -2.234788E+04 -3.176173E+04 -1.062405E+02  2.069077E-09  2.176419E-10
       126  16 -1.342226E+06 -8.318554E+04 -9.260420E+04  1.237793E+03  3.085007E-09 -4.582883E-09
       126  17 -1.366947E+06 -8.075390E+04 -1.042491E+05  1.569552E+02 -1.680355E-10  3.447978E-10
       126  18 -1.342515E+06 -1.081262E+05 -1.175284E+05 -1.681811E+03 -3.416525E-10  2.572022E-10
       126  19 -6.571339E+05  8.829429E+04  7.885357E+04 -1.621469E+03 -7.095194E+03  3.330985E+02
       126  20 -6.817545E+05  9.073440E+04  6.722467E+04  3.031829E+02 -1.588853E+04  6.645367E+02
       126  21 -6.571703E+05  6.342171E+04  5.399719E+04  1.470085E+03 -2.468242E+04  1.563327E+02
       126  22 -9.997330E+05  2.558822E+03 -6.870828E+03 -1.915027E+02 -7.075423E+03  3.330180E+02
       126  23 -1.024404E+06  4.994723E+03 -1.850755E+04  2.300433E+02 -1.588464E+04  6.645618E+02
       126  24 -9.998956E+05 -2.234771E+04 -3.176058E+04 -1.062436E+02 -2.469440E+04  1.563107E+02
       126  25 -1.342226E+06 -8.318552E+04 -9.260411E+04  1.237791E+03 -7.055661E+03  3.329377E+02
       126  26 -1.366947E+06 -8.075383E+04 -1.042487E+05  1.569467E+02 -1.588074E+04  6.645869E+02
       126  27 -1.342514E+06 -1.081260E+05 -1.175272E+05 -1.681814E+03 -2.470637E+04  1.562888E+02
       127   1 -8.752498E+06 -2.559805E+06 -1.496006E+06 -3.140725E+06 -7.687912E+05 -2.759819E+05
       127   2 -8.547497E+06 -1.406503E+06 -7.755382E+05 -3.252759E+06 -4.965259E+05 -1.455873E+05
       127   3 -8.747389E+06 -1.376289E+06 -5.633346E+05 -3.129717E+06 -2.139016E+05 -4.256443E+04
       127   4 -7.802795E+06 -1.945494E+06 -1.184504E+06 -2.624144E+06 -7.518541E+05 -2.699860E+05
       127   5 -7.538500E+06 -9.524966E+05 -4.926161E+05 -2.904166E+06 -4.920462E+05 -1.439766E+05
       127   6 -7.675937E+06 -1.079136E+06 -2.984104E+05 -2.949329E+06 -2.218629E+05 -4.551530E+04
       127   7 -6.852036E+06 -1.330456E+06 -8.730766E+05 -2.106663E+06 -7.348875E+05 -2.639608E+05
       127   8 -6.528485E+06 -4.982986E+05 -2.097900E+05 -2.555008E+06 -4.875578E+05 -1.423612E+05
       127   9 -6.603347E+06 -7.820126E+05 -3.356569E+04 -2.768714E+06 -2.298392E+05 -4.846835E+04
       127  10 -8.753162E+06 -2.560049E+06 -1.497280E+06 -3.140898E+06  1.213308E-09 -5.690889E-10
       127  11 -8.547771E+06 -1.406594E+06 -7.760493E+05 -3.252818E+06  2.283280E-10 -1.406673E-09
       127  12 -8.747440E+06 -1.376304E+06 -5.634254E+05 -3.129725E+06  1.085922E-09 -1.479248E-11
       127  13 -7.803429E+06 -1.945727E+06 -1.185720E+06 -2.624308E+06  1.403885E-09 -3.810584E-10
       127  14 -7.538768E+06 -9.525853E+05 -4.931171E+05 -2.904223E+06 -1.697700E-09 -6.292959E-10
       127  15 -7.675991E+06 -1.079152E+06 -2.985081E+05 -2.949338E+06 -2.837183E-09 -5.556780E-10
       127  16 -6.852640E+06 -1.330679E+06 -8.742364E+05 -2.106820E+06 -1.341200E-09  4.910847E-10
       127  17 -6.528748E+06 -4.983854E+05 -2.102808E+05 -2.555064E+06  1.852370E-09 -8.780006E-11
       127  18 -6.603405E+06 -7.820295E+05 -3.367063E+04 -2.768723E+06 -2.525047E-09 -2.615157E-10
       127  19 -8.752498E+06 -2.559805E+06 -1.496006E+06 -3.140725E+06  7.687912E+05  2.759819E+05
       127  20 -8.547497E+06 -1.406503E+06 -7.755382E+05 -3.252759E+06  4.965259E+05  1.455873E+05
       127  21 -8.747389E+06 -1.376289E+06 -5.633346E+05 -3.129717E+06  2.139016E+05  4.256443E+04
       127  22 -7.802795E+06 -1.945494E+06 -1.184504E+06 -2.624144E+06  7.518541E+05  2.699860E+05
       127  23 -7.538500E+06 -9.524966E+05 -4.926161E+05 -2.904166E+06  4.920462E+05  1.439766E+05
       127  24 -7.675937E+06 -1.079136E+06 -2.984104E+05 -2.949329E+06  2.218629E+05  4.551530E+04
       127  25 -6.852036E+06 -1.330456E+06 -8.730766E+05 -2.106663E+06  7.348875E+05  2.639608E+05
       127  26 -6.528485E+06 -4.982986E+05 -2.097900E+05 -2.555008E+06  4.875578E+05  1.423612E+05
       127  27 -6.603347E+06 -7.820126E+05 -3.356569E+04 -2.768714E+06  2.298392E+05  4.846835E+04
       128   1 -8.473501E+06 -1.551613E+06 -4.725411E+05 -3.138722E+06 -1.769389E+05 -3.555879E+04
       128   2 -8.377415E+06 -1.357243E+06 -3.161816E+05 -3.090011E+06 -1.146866E+05 -1.472817E+04
       128   3 -8.271023E+06 -1.346209E+06 -2.386852E+05 -3.083684E+06 -5.138707E+04  3.333766E+03
       128   4 -7.632927E+06 -1.208352E+06 -2.428692E+05 -2.884242E+06 -1.774880E+05 -3.577675E+04
       128   5 -7.631200E+06 -1.068976E+06 -1.158952E+05 -2.880873E+06 -1.164486E+05 -1.539230E+04
       128   6 -7.618866E+06 -1.112593E+06 -6.672457E+04 -2.919900E+06 -5.437295E+04  2.216391E+03
       128   7 -6.791654E+06 -8.650140E+05 -1.326143E+04 -2.629433E+06 -1.780377E+05 -3.599501E+04
       128   8 -6.884437E+06 -7.806675E+05  8.434208E+04 -2.671501E+06 -1.182128E+05 -1.605734E+04
       128   9 -6.966292E+06 -8.789621E+05  1.051997E+05 -2.755963E+06 -5.736230E+04  1.097873E+03
       128  10 -8.473536E+06 -1.551623E+06 -4.726032E+05 -3.138727E+06 -5.062372E-09 -3.624922E-10
       128  11 -8.377430E+06 -1.357247E+06 -3.162071E+05 -3.090012E+06 -1.375512E-09 -1.390315E-09
       128  12 -8.271026E+06 -1.346209E+06 -2.386903E+05 -3.083684E+06 -2.837168E-09 -1.117430E-10
       128  13 -7.632961E+06 -1.208362E+06 -2.429317E+05 -2.884247E+06 -2.950653E-09 -7.791317E-12
       128  14 -7.631214E+06 -1.068980E+06 -1.159214E+05 -2.880874E+06 -2.368313E-09  3.581824E-11
       128  15 -7.618869E+06 -1.112594E+06 -6.673020E+04 -2.919900E+06  9.809376E-10 -1.293313E-10
       128  16 -6.791689E+06 -8.650241E+05 -1.332420E+04 -2.629439E+06 -5.856624E-10 -8.517480E-10
       128  17 -6.884452E+06 -7.806715E+05  8.431501E+04 -2.671503E+06 -5.616676E-10 -1.993900E-11
       128  18 -6.966296E+06 -8.789630E+05  1.051935E+05 -2.755963E+06 -2.105190E-09 -1.383661E-09
       128  19 -8.473501E+06 -1.551613E+06 -4.725411E+05 -3.138722E+06  1.769389E+05  3.555879E+04
       128  20 -8.377415E+06 -1.357243E+06 -3.161816E+05 -3.090011E+06  1.146866E+05  1.472817E+04
       128  21 -8.271023E+06 -1.346209E+06 -2.386852E+05 -3.083684E+06  5.138707E+04 -3.333766E+03
       128  22 -7.632927E+06 -1.208352E+06 -2.428692E+05 -2.884242E+06  1.774880E+05  3.577675E+04
       128  23 -7.631200E+06 -1.068976E+06 -1.158952E+05 -2.880873E+06  1.164486E+05  1.539230E+04
       128  24 -7.618866E+06 -1.112593E+06 -6.672457E+04 -2.919900E+06  5.437295E+04 -2.216391E+03
       128  25 -6.791654E+06 -8.650140E+05 -1.326143E+04 -2.629433E+06  1.780377E+05  3.599501E+04
       128  26 -6.884437E+06 -7.806675E+05  8.434208E+04 -2.671501E+06  1.182128E+05  1.605734E+04
       128  27 -6.966292E+06 -8.789621E+05  1.051997E+05 -2.755963E+06  5.736230E+04 -1.097873E+03
       129   1 -8.073230E+06 -1.305431E+06 -1.754235E+05 -3.042808E+06 -4.111728E+04  3.249869E+03
       129   2 -7.977414E+06 -1.204708E+06 -1.155945E+05 -2.965372E+06 -2.525057E+04  3.020975E+03
       129   3 -7.812264E+06 -1.193444E+06 -6.977034E+04 -2.972471E+06 -9.221401E+03  2.353408E+03
       129   4 -7.611058E+06 -1.129006E+06 -5.215766E+04 -2.915335E+06 -4.355521E+04  2.337515E+03
       129   5 -7.644947E+06 -1.079035E+06 -2.690317E+04 -2.875009E+06 -2.788317E+04  2.037144E+03
       129   6 -7.609475E+06 -1.118475E+06 -1.548647E+04 -2.919221E+06 -1.205187E+04  1.296991E+03
       129   7 -7.148678E+06 -9.525678E+05  7.108900E+04 -2.787773E+06 -4.599514E+04  1.424391E+03
       129   8 -7.312372E+06 -9.533542E+05  6.177849E+04 -2.784600E+06 -3.051733E+04  1.052725E+03
       129   9 -7.406646E+06 -1.043503E+06  3.879395E+04 -2.865956E+06 -1.488338E+04  2.402043E+02
       129  10 -8.073232E+06 -1.305432E+06 -1.754267E+05 -3.042808E+06 -1.334260E-09 -1.409463E-09
       129  11 -7.977415E+06 -1.204708E+06 -1.155958E+05 -2.965372E+06  1.693952E-09 -2.173915E-09
       129  12 -7.812264E+06 -1.193444E+06 -6.977051E+04 -2.972471E+06 -1.980973E-09 -1.288908E-10
       129  13 -7.611060E+06 -1.129007E+06 -5.216128E+04 -2.915334E+06  2.093445E-09 -1.723504E-09
       129  14 -7.644948E+06 -1.079035E+06 -2.690466E+04 -2.875008E+06  2.807059E-09  3.974038E-10
       129  15 -7.609476E+06 -1.118475E+06 -1.548675E+04 -2.919221E+06  1.551062E-09  2.020381E-10
       129  16 -7.148680E+06 -9.525683E+05  7.108498E+04 -2.787773E+06  7.515685E-10 -9.947929E-10
       129  17 -7.312373E+06 -9.533544E+05  6.177672E+04 -2.784600E+06  1.843118E-09  1.850168E-09
       129  18 -7.406647E+06 -1.043503E+06  3.879353E+04 -2.865956E+06 -6.381965E-10  7.285981E-10
       129  19 -8.073230E+06 -1.305431E+06 -1.754235E+05 -3.042808E+06  4.111728E+04 -3.249869E+03
       129  20 -7.977414E+06 -1.204708E+06 -1.155945E+05 -2.965372E+06  2.525057E+04 -3.020975E+03
       129  21 -7.812264E+06 -1.193444E+06 -6.977034E+04 -2.972471E+06  9.221401E+03 -2.353408E+03
       129  22 -7.611058E+06 -1.129006E+06 -5.215766E+04 -2.915335E+06  4.355521E+04 -2.337515E+03
       129  23 -7.644947E+06 -1.079035E+06 -2.690317E+04 -2.875009E+06  2.788317E+04 -2.037144E+03
       129  24 -7.609475E+06 -1.118475E+06 -1.548647E+04 -2.919221E+06  1.205187E+04 -1.296991E+03
       129  25 -7.148678E+06 -9.525678E+05  7.108900E+04 -2.787773E+06  4.599514E+04 -1.424391E+03
       129  26 -7.312372E+06 -9.533542E+05  6.177849E+04 -2.784600E+06  3.051733E+04 -1.052725E+03
       129  27 -7.406646E+06 -1.043503E+06  3.879395E+04 -2.865956E+06  1.488338E+04 -2.402043E+02
       130   1 -7.610133E+06 -1.121185E+06 -1.215819E+04 -2.919654E+06 -5.695474E+03 -3.471761E+02
       130   2 -7.513517E+06 -1.029683E+06  2.811512E+04 -2.838025E+06  1.914844E+02 -4.910917E+03
       130   3 -7.339606E+06 -1.018259E+06  6.517949E+04 -2.846423E+06  6.046400E+03 -9.380564E+03
       130   4 -7.608272E+06 -1.120407E+06 -1.215031E+04 -2.918944E+06 -8.487753E+03 -1.389089E+03
       130   5 -7.646839E+06 -1.079905E+06 -7.409325E+03 -2.874096E+06 -2.557448E+03 -5.937184E+03
       130   6 -7.608136E+06 -1.119491E+06 -5.909765E+03 -2.919283E+06  3.339897E+03 -1.039143E+04
       130   7 -7.606410E+06 -1.119630E+06 -1.214240E+04 -2.918235E+06 -1.128004E+04 -2.431006E+03
       130   8 -7.780143E+06 -1.130126E+06 -4.293524E+04 -2.910160E+06 -5.305720E+03 -6.963204E+03
       130   9 -7.876595E+06 -1.220720E+06 -7.700505E+04 -2.992113E+06  6.347010E+02 -1.140181E+04
       130  10 -7.610133E+06 -1.121185E+06 -1.215825E+04 -2.919654E+06 -3.746428E-09 -6.095569E-10
       130  11 -7.513517E+06 -1.029683E+06  2.811507E+04 -2.838025E+06 -4.559074E-09 -1.304517E-09
       130  12 -7.339606E+06 -1.018259E+06  6.517926E+04 -2.846423E+06  3.643161E-10 -1.326308E-09
       130  13 -7.608272E+06 -1.120407E+06 -1.215045E+04 -2.918944E+06 -2.812691E-09 -9.165018E-10
       130  14 -7.646839E+06 -1.079905E+06 -7.409404E+03 -2.874096E+06 -7.518932E-09 -3.280960E-09
       130  15 -7.608136E+06 -1.119492E+06 -5.909988E+03 -2.919283E+06  7.175037E-10  8.129138E-10
       130  16 -7.606410E+06 -1.119630E+06 -1.214265E+04 -2.918235E+06  1.045414E-09 -1.316988E-10
       130  17 -7.780143E+06 -1.130127E+06 -4.293539E+04 -2.910160E+06  1.102955E-09  2.206498E-09
       130  18 -7.876595E+06 -1.220720E+06 -7.700529E+04 -2.992113E+06 -1.058771E-10  1.425683E-09
       130  19 -7.610133E+06 -1.121185E+06 -1.215819E+04 -2.919654E+06  5.695474E+03  3.471761E+02
       130  20 -7.513517E+06 -1.029683E+06  2.811512E+04 -2.838025E+06 -1.914844E+02  4.910917E+03
       130  21 -7.339606E+06 -1.018259E+06  6.517949E+04 -2.846423E+06 -6.046400E+03  9.380564E+03
       130  22 -7.608272E+06 -1.120407E+06 -1.215031E+04 -2.918944E+06  8.487753E+03  1.389089E+03
       130  23 -7.646839E+06 -1.079905E+06 -7.409325E+03 -2.874096E+06  2.557448E+03  5.937184E+03
       130  24 -7.608136E+06 -1.119491E+06 -5.909765E+03 -2.919283E+06 -3.339897E+03  1.039143E+04
       130  25 -7.606410E+06 -1.119630E+06 -1.214240E+04 -2.918235E+06  1.128004E+04  2.431006E+03
       130  26 -7.780143E+06 -1.130126E+06 -4.293524E+04 -2.910160E+06  5.305720E+03  6.963204E+03
       130  27 -7.876595E+06 -1.220720E+06 -7.700505E+04 -2.992113E+06 -6.347010E+02  1.140181E+04
       131   1 -7.149434E+06 -9.441287E+05  1.173018E+05 -2.792645E+06  8.224512E+03 -1.239836E+04
       131   2 -7.064083E+06 -8.635715E+05  1.471917E+05 -2.719602E+06  1.380084E+04 -1.654383E+04
       131   3 -6.909555E+06 -8.543229E+05  1.741112E+05 -2.726306E+06  1.920733E+04 -2.021006E+04
       131   4 -7.609981E+06 -1.117503E+06 -5.881691E+03 -2.917035E+06  5.559072E+03 -1.339485E+04
       131   5 -7.644649E+06 -1.082457E+06 -7.501095E+03 -2.876928E+06  1.135502E+04 -1.746024E+04
       131   6 -7.610199E+06 -1.118771E+06 -1.226806E+04 -2.916579E+06  1.698026E+04 -2.104641E+04
       131   7 -8.070322E+06 -1.290866E+06 -1.290842E+05 -3.041342E+06  2.895820E+03 -1.439052E+04
       131   8 -8.224887E+06 -1.301322E+06 -1.622236E+05 -3.034119E+06  8.911727E+03 -1.837572E+04
       131   9 -8.310363E+06 -1.383189E+06 -1.986903E+05 -3.106655E+06  1.475598E+04 -2.188172E+04
       131  10 -7.149434E+06 -9.441289E+05  1.173014E+05 -2.792645E+06  3.017633E-09 -1.024235E-09
       131  11 -7.064083E+06 -8.635719E+05  1.471908E+05 -2.719602E+06  4.824721E-09  1.964251E-09
       131  12 -6.909556E+06 -8.543234E+05  1.741097E+05 -2.726305E+06  5.871365E-09  1.878432E-09
       131  13 -7.609981E+06 -1.117504E+06 -5.882085E+03 -2.917035E+06 -6.819424E-10 -1.865972E-10
       131  14 -7.644650E+06 -1.082457E+06 -7.501908E+03 -2.876927E+06 -8.180910E-10 -2.308309E-09
       131  15 -7.610200E+06 -1.118771E+06 -1.226943E+04 -2.916578E+06  4.584750E-09 -2.314851E-10
       131  16 -8.070323E+06 -1.290866E+06 -1.290847E+05 -3.041342E+06 -6.212398E-10 -1.548308E-09
       131  17 -8.224888E+06 -1.301322E+06 -1.622244E+05 -3.034118E+06 -2.432452E-10 -4.065418E-09
       131  18 -8.310363E+06 -1.383190E+06 -1.986916E+05 -3.106654E+06 -3.850245E-09 -6.196404E-10
       131  19 -7.149434E+06 -9.441287E+05  1.173018E+05 -2.792645E+06 -8.224512E+03  1.239836E+04
       131  20 -7.064083E+06 -8.635715E+05  1.471917E+05 -2.719602E+06 -1.380084E+04  1.654383E+04
       131  21 -6.909555E+06 -8.543229E+05  1.741112E+05 -2.726306E+06 -1.920733E+04  2.021006E+04
       131  22 -7.609981E+06 -1.117503E+06 -5.881691E+03 -2.917035E+06 -5.559072E+03  1.339485E+04
       131  23 -7.644649E+06 -1.082457E+06 -7.501095E+03 -2.876928E+06 -1.135502E+04  1.746024E+04
       131  24 -7.610199E+06 -1.118771E+06 -1.226806E+04 -2.916579E+06 -1.698026E+04  2.104641E+04
       131  25 -8.070322E+06 -1.290866E+06 -1.290842E+05 -3.041342E+06 -2.895820E+03  1.439052E+04
       131  26 -8.224887E+06 -1.301322E+06 -1.622236E+05 -3.034119E+06 -8.911727E+03  1.837572E+04
       131  27 -8.310363E+06 -1.383189E+06 -1.986903E+05 -3.106655E+06 -1.475598E+04  2.188172E+04
       132   1 -6.756863E+06 -7.906921E+05  2.132387E+05 -2.681323E+06  2.246621E+04 -2.213544E+04
       132   2 -6.694158E+06 -7.288418E+05  2.245765E+05 -2.625662E+06  3.743696E+04 -2.130520E+04
       132   3 -6.585631E+06 -7.314239E+05  2.225678E+05 -2.625291E+06  5.206493E+04 -1.953012E+04
       132   4 -7.614885E+06 -1.113150E+06 -1.559057E+04 -2.912713E+06  2.027523E+04 -2.295991E+04
       132   5 -7.638570E+06 -1.086267E+06 -2.727653E+04 -2.883066E+06  3.566586E+04 -2.197464E+04
       132   6 -7.616535E+06 -1.123923E+06 -5.266104E+04 -2.908717E+06  5.071141E+04 -2.004470E+04
       132   7 -8.472185E+06 -1.435564E+06 -2.444839E+05 -3.143811E+06  1.808761E+04 -2.378313E+04
       132   8 -8.582111E+06 -1.443638E+06 -2.792080E+05 -3.140111E+06  3.389773E+04 -2.264297E+04
       132   9 -8.646402E+06 -1.516354E+06 -3.279844E+05 -3.191710E+06  4.936034E+04 -2.055835E+04
       132  10 -6.756864E+06 -7.906928E+05  2.132368E+05 -2.681322E+06 -6.179007E-10  5.480998E-10
       132  11 -6.694159E+06 -7.288426E+05  2.245730E+05 -2.625661E+06 -2.723514E-09  4.610098E-10
       132  12 -6.585634E+06 -7.314251E+05  2.225620E+05 -2.625290E+06  3.101782E-09  5.829122E-10
       132  13 -7.614885E+06 -1.113150E+06 -1.559233E+04 -2.912713E+06  4.459516E-09  1.066710E-09
       132  14 -7.638572E+06 -1.086268E+06 -2.727984E+04 -2.883066E+06  4.139687E-09  7.426211E-10
       132  15 -7.616538E+06 -1.123924E+06 -5.266667E+04 -2.908716E+06  3.842208E-09  9.411791E-10
       132  16 -8.472185E+06 -1.435565E+06 -2.444855E+05 -3.143811E+06  2.957366E-09  2.097464E-09
       132  17 -8.582112E+06 -1.443639E+06 -2.792112E+05 -3.140111E+06  6.411512E-09  2.774323E-09
       132  18 -8.646405E+06 -1.516355E+06 -3.279898E+05 -3.191709E+06  2.675922E-09 -1.727267E-10
       132  19 -6.756863E+06 -7.906921E+05  2.132387E+05 -2.681323E+06 -2.246621E+04  2.213544E+04
       132  20 -6.694158E+06 -7.288418E+05  2.245765E+05 -2.625662E+06 -3.743696E+04  2.130520E+04
       132  21 -6.585631E+06 -7.314239E+05  2.225678E+05 -2.625291E+06 -5.206493E+04  1.953012E+04
       132  22 -7.614885E+06 -1.113150E+06 -1.559057E+04 -2.912713E+06 -2.027523E+04  2.295991E+04
       132  23 -7.638570E+06 -1.086267E+06 -2.727653E+04 -2.883066E+06 -3.566586E+04  2.197464E+04
       132  24 -7.616535E+06 -1.123923E+06 -5.266104E+04 -2.908717E+06 -5.071141E+04  2.004470E+04
       132  25 -8.472185E+06 -1.435564E+06 -2.444839E+05 -3.143811E+06 -1.808761E+04  2.378313E+04
       132  26 -8.582111E+06 -1.443638E+06 -2.792080E+05 -3.140111E+06 -3.389773E+04  2.264297E+04
       132  27 -8.646402E+06 -1.516354E+06 -3.279844E+05 -3.191710E+06 -4.936034E+04  2.055835E+04
       133   1 -6.486942E+06 -6.852398E+05  2.345874E+05 -2.611945E+06  6.294735E+04 -1.774527E+04
       133   2 -6.452152E+06 -6.294274E+05  1.960162E+05 -2.566321E+06  1.232192E+05  2.427775E+03
       133   3 -6.443424E+06 -7.193996E+05  8.036977E+04 -2.518950E+06  1.822769E+05  2.582784E+04
       133   4 -7.627194E+06 -1.104565E+06 -6.737419E+04 -2.910202E+06  6.108251E+04 -1.845265E+04
       133   5 -7.621172E+06 -1.079647E+06 -1.171758E+05 -2.892968E+06  1.227490E+05  2.242350E+03
       133   6 -7.641590E+06 -1.200947E+06 -2.452835E+05 -2.873973E+06  1.831970E+05  2.616129E+04
       133   7 -8.766174E+06 -1.523830E+06 -3.694483E+05 -3.207964E+06  5.922141E+04 -1.915872E+04
       133   8 -8.788851E+06 -1.529769E+06 -4.304886E+05 -3.219047E+06  1.222796E+05  2.057228E+03
       133   9 -8.838343E+06 -1.682356E+06 -5.710665E+05 -3.228349E+06  1.841149E+05  2.649374E+04
       133  10 -6.486947E+06 -6.852412E+05  2.345793E+05 -2.611944E+06  3.662185E-10  6.261694E-10
       133  11 -6.452169E+06 -6.294316E+05  1.959873E+05 -2.566321E+06 -1.163844E-09  2.053808E-09
       133  12 -6.443460E+06 -7.194094E+05  8.030536E+04 -2.518954E+06  1.624860E-09  7.096064E-10
       133  13 -7.627198E+06 -1.104567E+06 -6.738190E+04 -2.910201E+06  2.369808E-09  8.759512E-10
       133  14 -7.621188E+06 -1.079651E+06 -1.172045E+05 -2.892968E+06  2.530550E-09  6.221996E-10
       133  15 -7.641626E+06 -1.200957E+06 -2.453488E+05 -2.873977E+06  1.636069E-10  6.765385E-10
       133  16 -8.766178E+06 -1.523831E+06 -3.694556E+05 -3.207964E+06  8.201343E-10  1.938457E-09
       133  17 -8.788867E+06 -1.529773E+06 -4.305171E+05 -3.219047E+06  1.842499E-09  1.934871E-09
       133  18 -8.838380E+06 -1.682366E+06 -5.711325E+05 -3.228353E+06 -1.974210E-09  1.202946E-09
       133  19 -6.486942E+06 -6.852398E+05  2.345874E+05 -2.611945E+06 -6.294735E+04  1.774527E+04
       133  20 -6.452152E+06 -6.294274E+05  1.960162E+05 -2.566321E+06 -1.232192E+05 -2.427775E+03
       133  21 -6.443424E+06 -7.193996E+05  8.036977E+04 -2.518950E+06 -1.822769E+05 -2.582784E+04
       133  22 -7.627194E+06 -1.104565E+06 -6.737419E+04 -2.910202E+06 -6.108251E+04  1.845265E+04
       133  23 -7.621172E+06 -1.079647E+06 -1.171758E+05 -2.892968E+06 -1.227490E+05 -2.242350E+03
       133  24 -7.641590E+06 -1.200947E+06 -2.452835E+05 -2.873973E+06 -1.831970E+05 -2.616129E+04
       133  25 -8.766174E+06 -1.523830E+06 -3.694483E+05 -3.207964E+06 -5.922141E+04  1.915872E+04
       133  26 -8.788851E+06 -1.529769E+06 -4.304886E+05 -3.219047E+06 -1.222796E+05 -2.057228E+03
       133  27 -8.838343E+06 -1.682356E+06 -5.710665E+05 -3.228349E+06 -1.841149E+05 -2.649374E+04
       134   1 -6.361781E+06 -6.758754E+05  3.048058E+04 -2.686870E+06  2.340037E+05  4.046879E+04
       134   2 -6.343059E+06 -4.402094E+05 -1.681332E+05 -2.518945E+06  4.924151E+05  1.394482E+05
       134   3 -6.773734E+06 -1.283697E+06 -8.582616E+05 -2.059782E+06  7.398719E+05  2.672112E+05
       134   4 -7.686330E+06 -1.069325E+06 -3.014352E+05 -2.938495E+06  2.272899E+05  3.796242E+04
       134   5 -7.525069E+06 -9.639745E+05 -4.976430E+05 -2.918778E+06  4.986054E+05  1.417259E+05
       134   6 -7.816703E+06 -1.941786E+06 -1.196427E+06 -2.607528E+06  7.590128E+05  2.741285E+05
       134   7 -9.009153E+06 -1.462805E+06 -6.334807E+05 -3.189703E+06  2.205916E+05  3.545898E+04
       134   8 -8.705687E+06 -1.487499E+06 -8.272834E+05 -3.317860E+06  5.047818E+05  1.439963E+05
       134   9 -8.858424E+06 -2.599081E+06 -1.534685E+06 -3.154236E+06  7.781172E+05  2.810111E+05
       134  10 -6.361841E+06 -6.758921E+05  3.037338E+04 -2.686878E+06  1.094000E-09 -4.184291E-10
       134  11 -6.343327E+06 -4.402965E+05 -1.686313E+05 -2.519001E+06 -3.184627E-11  2.026000E-10
       134  12 -6.774347E+06 -1.283924E+06 -8.594385E+05 -2.059943E+06  2.626660E-10 -1.954697E-09
       134  13 -7.686386E+06 -1.069341E+06 -3.015364E+05 -2.938502E+06  1.006940E-09  2.234189E-09
       134  14 -7.525344E+06 -9.640643E+05 -4.981551E+05 -2.918835E+06 -6.851167E-09  5.116174E-09
       134  15 -7.817349E+06 -1.942025E+06 -1.197668E+06 -2.607697E+06  9.759050E-11 -1.283472E-09
       134  16 -9.009206E+06 -1.462820E+06 -6.335760E+05 -3.189709E+06  1.421476E-09 -2.602105E-09
       134  17 -8.705970E+06 -1.487592E+06 -8.278096E+05 -3.317919E+06 -4.190762E-09  2.948075E-09
       134  18 -8.859104E+06 -2.599332E+06 -1.535992E+06 -3.154414E+06  1.000909E-09 -8.838040E-10
       134  19 -6.361781E+06 -6.758754E+05  3.048058E+04 -2.686870E+06 -2.340037E+05 -4.046879E+04
       134  20 -6.343059E+06 -4.402094E+05 -1.681332E+05 -2.518945E+06 -4.924151E+05 -1.394482E+05
       134  21 -6.773734E+06 -1.283697E+06 -8.582616E+05 -2.059782E+06 -7.398719E+05 -2.672112E+05
       134  22 -7.686330E+06 -1.069325E+06 -3.014352E+05 -2.938495E+06 -2.272899E+05 -3.796242E+04
       134  23 -7.525069E+06 -9.639745E+05 -4.976430E+05 -2.918778E+06 -4.986054E+05 -1.417259E+05
       134  24 -7.816703E+06 -1.941786E+06 -1.196427E+06 -2.607528E+06 -7.590128E+05 -2.741285E+05
       134  25 -9.009153E+06 -1.462805E+06 -6.334807E+05 -3.189703E+06 -2.205916E+05 -3.545898E+04
       134  26 -8.705687E+06 -1.487499E+06 -8.272834E+05 -3.317860E+06 -5.047818E+05 -1.439963E+05
       134  27 -8.858424E+06 -2.599081E+06 -1.534685E+06 -3.154236E+06 -7.781172E+05 -2.810111E+05
       135   1 -1.356158E+06 -2.106227E+05 -1.665509E+05 -5.244437E+03  1.111422E+05  1.414742E+04
       135   2 -1.301352E+06 -3.629534E+05 -2.458669E+05 -1.267915E+03  7.979492E+04  4.111525E+04
       135   3 -1.191991E+06 -3.266436E+05 -2.569717E+05 -6.459080E+04  4.858908E+04  3.805582E+04
       135   4  9.031398E+04  1.499207E+05  1.911921E+05 -4.329696E+04  1.305358E+05  1.423687E+04
       135   5  6.191720E+04 -2.440440E+04  8.307019E+04 -9.271250E+03  8.542888E+04  4.113167E+04
       135   6  9.034532E+04 -7.922703E+03  5.260441E+04 -4.253327E+04  4.046864E+04  3.802530E+04
       135   7  1.538694E+06  5.103142E+05  5.487821E+05 -8.144075E+04  1.499744E+05  1.432384E+04
       135   8  1.426889E+06  3.140092E+05  4.118745E+05 -1.729404E+04  9.107501E+04  4.114792E+04
       135   9  1.374188E+06  3.106796E+05  3.620632E+05 -2.043114E+04  3.233139E+04  3.799424E+04
       135  10 -1.356171E+06 -2.106263E+05 -1.665746E+05 -5.245705E+03  6.823665E-10  1.692713E-09
       135  11 -1.301360E+06 -3.629569E+05 -2.458820E+05 -1.270560E+03 -1.315924E-09 -1.506243E-09
       135  12 -1.191994E+06 -3.266458E+05 -2.569789E+05 -6.459229E+04 -3.857205E-09  3.899529E-11
       135  13  9.029563E+04  1.499159E+05  1.911597E+05 -4.329845E+04  2.163841E-09  4.392922E-10
       135  14  6.190891E+04 -2.440817E+04  8.305330E+04 -9.274079E+03  2.137332E-09 -5.918934E-09
       135  15  9.034318E+04 -7.924695E+03  5.259862E+04 -4.253451E+04  2.797743E-09 -1.153360E-10
       135  16  1.538670E+06  5.103079E+05  5.487395E+05 -8.144248E+04  4.013724E-10 -7.325312E-10
       135  17  1.426880E+06  3.140051E+05  4.118557E+05 -1.729705E+04  6.533852E-09 -1.561856E-09
       135  18  1.374187E+06  3.106778E+05  3.620586E+05 -2.043213E+04  5.746963E-09 -1.715202E-09
       135  19 -1.356158E+06 -2.106227E+05 -1.665509E+05 -5.244437E+03 -1.111422E+05 -1.414742E+04
       135  20 -1.301352E+06 -3.629534E+05 -2.458669E+05 -1.267915E+03 -7.979492E+04 -4.111525E+04
       135  21 -1.191991E+06 -3.266436E+05 -2.569717E+05 -6.459080E+04 -4.858908E+04 -3.805582E+04
       135  22  9.031398E+04  1.499207E+05  1.911921E+05 -4.329696E+04 -1.305358E+05 -1.423687E+04
       135  23  6.191720E+04 -2.440440E+04  8.307019E+04 -9.271250E+03 -8.542888E+04 -4.113167E+04
       135  24  9.034532E+04 -7.922703E+03  5.260441E+04 -4.253327E+04 -4.046864E+04 -3.802530E+04
       135  25  1.538694E+06  5.103142E+05  5.487821E+05 -8.144075E+04 -1.499744E+05 -1.432384E+04
       135  26  1.426889E+06  3.140092E+05  4.118745E+05 -1.729404E+04 -9.107501E+04 -4.114792E+04
       135  27  1.374188E+06  3.106796E+05  3.620632E+05 -2.043114E+04 -3.233139E+04 -3.799424E+04
       136   1 -1.079580E+06 -2.717213E+05 -2.376062E+05 -4.076101E+04  3.189462E+04  3.178893E+04
       136   2 -1.002793E+06 -2.708909E+05 -2.389637E+05 -9.901141E+03  2.197151E+04  3.111892E+04
       136   3 -9.174341E+05 -2.488252E+05 -2.281349E+05 -4.590817E+04  1.204689E+04  2.795059E+04
       136   4  7.974989E+04  1.638209E+04  4.298366E+04 -4.269793E+04  3.221186E+04  3.178573E+04
       136   5  7.538496E+04 -3.038899E+03  2.150678E+04 -9.245349E+03  2.113262E+04  3.111354E+04
       136   6  7.977733E+04 -1.042920E+03  1.300385E+04 -4.265213E+04  1.005317E+04  2.794490E+04
       136   7  1.240309E+06  3.043870E+05  3.234769E+05 -4.463931E+04  3.252964E+04  3.178253E+04
       136   8  1.154627E+06  2.647281E+05  2.818940E+05 -8.588975E+03  2.029224E+04  3.110817E+04
       136   9  1.077898E+06  2.466666E+05  2.540713E+05 -3.939113E+04  8.056253E+03  2.793919E+04
       136  10 -1.079581E+06 -2.717227E+05 -2.376100E+05 -4.076183E+04  5.173087E-09 -1.668549E-09
       136  11 -1.002794E+06 -2.708921E+05 -2.389664E+05 -9.901692E+03  2.324079E-09  1.070447E-09
       136  12 -9.174344E+05 -2.488261E+05 -2.281367E+05 -4.590844E+04  5.041196E-10 -2.054259E-09
       136  13  7.974850E+04  1.638072E+04  4.297981E+04 -4.269875E+04  4.294153E-09 -7.590829E-10
       136  14  7.538422E+04 -3.040058E+03  2.150412E+04 -9.245878E+03  1.438754E-12 -7.635346E-10
       136  15  7.977701E+04 -1.043785E+03  1.300220E+04 -4.265236E+04 -1.577149E-09 -2.343732E-09
       136  16  1.240308E+06  3.043857E+05  3.234730E+05 -4.464014E+04 -1.171144E-09  7.845684E-10
       136  17  1.154626E+06  2.647269E+05  2.818914E+05 -8.589483E+03 -3.188713E-09 -3.214218E-09
       136  18  1.077898E+06  2.466657E+05  2.540697E+05 -3.939131E+04 -3.202958E-10 -5.727706E-10
       136  19 -1.079580E+06 -2.717213E+05 -2.376062E+05 -4.076101E+04 -3.189462E+04 -3.178893E+04
       136  20 -1.002793E+06 -2.708909E+05 -2.389637E+05 -9.901141E+03 -2.197151E+04 -3.111892E+04
       136  21 -9.174341E+05 -2.488252E+05 -2.281349E+05 -4.590817E+04 -1.204689E+04 -2.795059E+04
       136  22  7.974989E+04  1.638209E+04  4.298366E+04 -4.269793E+04 -3.221186E+04 -3.178573E+04
       136  23  7.538496E+04 -3.038899E+03  2.150678E+04 -9.245349E+03 -2.113262E+04 -3.111354E+04
       136  24  7.977733E+04 -1.042920E+03  1.300385E+04 -4.265213E+04 -1.005317E+04 -2.794490E+04
       136  25  1.240309E+06  3.043870E+05  3.234769E+05 -4.463931E+04 -3.252964E+04 -3.178253E+04
       136  26  1.154627E+06  2.647281E+05  2.818940E+05 -8.588975E+03 -2.029224E+04 -3.110817E+04
       136  27  1.077898E+06  2.466666E+05  2.540713E+05 -3.939113E+04 -8.056253E+03 -2.793919E+04
       137   1 -7.963557E+05 -2.156556E+05 -2.009617E+05 -4.295334E+04  9.279028E+03  2.574067E+04
       137   2 -7.166274E+05 -1.976891E+05 -1.864018E+05 -9.601958E+03  6.648107E+03  2.279211E+04
       137   3 -6.349947E+05 -1.773550E+05 -1.693336E+05 -4.285610E+04  4.011289E+03  1.964045E+04
       137   4  7.832254E+04  1.582634E+03  1.016456E+04 -4.260910E+04  7.990808E+03  2.573695E+04
       137   5  7.737597E+04 -4.629008E+02  5.411429E+03 -9.308159E+03  5.263824E+03  2.278944E+04
       137   6  7.834246E+04 -1.254490E+02  3.231051E+03 -4.260748E+04  2.531282E+03  1.963899E+04
       137   7  9.537009E+05  2.187650E+05  2.212361E+05 -4.226454E+04  6.700770E+03  2.573322E+04
       137   8  8.719561E+05  1.967172E+05  1.971795E+05 -9.014057E+03  3.877771E+03  2.278678E+04
       137   9  7.921449E+05  1.770668E+05  1.757591E+05 -4.235855E+04  1.049577E+03  1.963754E+04
       137  10 -7.963560E+05 -2.156563E+05 -2.009631E+05 -4.295354E+04 -1.177815E-09 -5.844049E-10
       137  11 -7.166276E+05 -1.976897E+05 -1.864029E+05 -9.602080E+03  4.256642E-10  1.966001E-11
       137  12 -6.349948E+05 -1.773554E+05 -1.693343E+05 -4.285617E+04 -3.213549E-09  9.117089E-11
       137  13  7.832230E+04  1.581906E+03  1.016320E+04 -4.260927E+04 -2.150503E-09 -1.014682E-09
       137  14  7.737580E+04 -4.634660E+02  5.410401E+03 -9.308256E+03 -2.141033E-09  5.084680E-11
       137  15  7.834235E+04 -1.258649E+02  3.230314E+03 -4.260752E+04 -2.685274E-09  6.548472E-10
       137  16  9.537006E+05  2.187642E+05  2.212347E+05 -4.226467E+04 -5.526974E-10 -8.794757E-10
       137  17  8.719560E+05  1.967166E+05  1.971785E+05 -9.014128E+03 -1.889240E-09 -4.604686E-10
       137  18  7.921448E+05  1.770664E+05  1.757584E+05 -4.235856E+04 -1.537914E-09  2.267483E-10
       137  19 -7.963557E+05 -2.156556E+05 -2.009617E+05 -4.295334E+04 -9.279028E+03 -2.574067E+04
       137  20 -7.166274E+05 -1.976891E+05 -1.864018E+05 -9.601958E+03 -6.648107E+03 -2.279211E+04
       137  21 -6.349947E+05 -1.773550E+05 -1.693336E+05 -4.285610E+04 -4.011289E+03 -1.964045E+04
       137  22  7.832254E+04  1.582634E+03  1.016456E+04 -4.260910E+04 -7.990808E+03 -2.573695E+04
       137  23  7.737597E+04 -4.629008E+02  5.411429E+03 -9.308159E+03 -5.263824E+03 -2.278944E+04
       137  24  7.834246E+04 -1.254490E+02  3.231051E+03 -4.260748E+04 -2.531282E+03 -1.963899E+04
       137  25  9.537009E+05  2.187650E+05  2.212361E+05 -4.226454E+04 -6.700770E+03 -2.573322E+04
       137  26  8.719561E+05  1.967172E+05  1.971795E+05 -9.014057E+03 -3.877771E+03 -2.278678E+04
       137  27  7.921449E+05  1.770668E+05  1.757591E+05 -4.235855E+04 -1.049577E+03 -1.963754E+04
       138   1 -5.131678E+05 -1.466826E+05 -1.401192E+05 -4.245588E+04  3.436702E+03  1.777737E+04
       138   2 -4.329406E+05 -1.269350E+05 -1.220556E+05 -9.174717E+03  2.782634E+03  1.464969E+04
       138   3 -3.522710E+05 -1.068583E+05 -1.034278E+05 -4.228161E+04  2.124785E+03  1.150894E+04
       138   4  7.806059E+04  1.088944E+02  2.449747E+03 -4.255998E+04  2.015503E+03  1.777663E+04
       138   5  7.784812E+04 -7.922031E+01  1.320303E+03 -9.367639E+03  1.354827E+03  1.464972E+04
       138   6  7.807330E+04  6.326416E+01  7.595942E+02 -4.255997E+04  6.904537E+02  1.150977E+04
       138   7  6.696088E+05  1.468749E+05  1.449937E+05 -4.266415E+04  5.929546E+02  1.777590E+04
       138   8  5.888755E+05  1.267575E+05  1.246775E+05 -9.560684E+03 -7.415159E+01  1.464975E+04
       138   9  5.085869E+05  1.069712E+05  1.049337E+05 -4.283849E+04 -7.448692E+02  1.151060E+04
       138  10 -5.131679E+05 -1.466830E+05 -1.401199E+05 -4.245593E+04  2.109897E-11  4.528400E-10
       138  11 -4.329407E+05 -1.269352E+05 -1.220560E+05 -9.174750E+03 -2.455771E-09  7.377549E-10
       138  12 -3.522710E+05 -1.068584E+05 -1.034281E+05 -4.228163E+04  8.161739E-10  1.622949E-10
       138  13  7.806050E+04  1.085540E+02  2.449145E+03 -4.256001E+04 -2.683696E-11  1.670570E-10
       138  14  7.784806E+04 -7.945127E+01  1.319896E+03 -9.367655E+03  1.090547E-09 -4.872821E-10
       138  15  7.807327E+04  6.312177E+01  7.593443E+02 -4.255998E+04 -4.594601E-09 -1.025342E-09
       138  16  6.696087E+05  1.468745E+05  1.449932E+05 -4.266416E+04 -3.289815E-10 -4.545122E-10
       138  17  5.888754E+05  1.267572E+05  1.246771E+05 -9.560683E+03 -1.142320E-09 -1.348473E-09
       138  18  5.085868E+05  1.069711E+05  1.049334E+05 -4.283848E+04 -8.008733E-11 -1.473909E-09
       138  19 -5.131678E+05 -1.466826E+05 -1.401192E+05 -4.245588E+04 -3.436702E+03 -1.777737E+04
       138  20 -4.329406E+05 -1.269350E+05 -1.220556E+05 -9.174717E+03 -2.782634E+03 -1.464969E+04
       138  21 -3.522710E+05 -1.068583E+05 -1.034278E+05 -4.228161E+04 -2.124785E+03 -1.150894E+04
       138  22  7.806059E+04  1.088944E+02  2.449747E+03 -4.255998E+04 -2.015503E+03 -1.777663E+04
       138  23  7.784812E+04 -7.922031E+01  1.320303E+03 -9.367639E+03 -1.354827E+03 -1.464972E+04
       138  24  7.807330E+04  6.326416E+01  7.595942E+02 -4.255997E+04 -6.904537E+02 -1.150977E+04
       138  25  6.696088E+05  1.468749E+05  1.449937E+05 -4.266415E+04 -5.929546E+02 -1.777590E+04
       138  26  5.888755E+05  1.267575E+05  1.246775E+05 -9.560684E+03  7.415159E+01 -1.464975E+04
       138  27  5.085869E+05  1.069712E+05  1.049337E+05 -4.283849E+04  7.448692E+02 -1.151060E+04
       139   1 -2.305252E+05 -7.649807E+04 -7.373060E+04 -4.230398E+04  2.001540E+03  9.677951E+03
       139   2 -1.501665E+05 -5.664812E+04 -5.489528E+04 -9.208081E+03  1.889311E+03  6.541280E+03
       139   3 -6.987821E+04 -3.666811E+04 -3.598151E+04 -4.237659E+04  1.775432E+03  3.413542E+03
       139   4  7.798518E+04  6.273808E+01  5.309324E+02 -4.253291E+04  5.696496E+02  9.679187E+03
       139   5  7.802593E+04  1.465854E+01  2.131693E+02 -9.401453E+03  4.613621E+02  6.542848E+03
       139   6  7.799085E+04  9.669645E+01 -2.822491E+01 -4.253289E+04  3.514390E+02  3.415464E+03
       139   7  3.865827E+05  7.661661E+04  7.478568E+04 -4.276193E+04 -8.629500E+02  9.680424E+03
       139   8  3.062660E+05  5.667363E+04  5.531790E+04 -9.594882E+03 -9.671101E+02  6.544418E+03
       139   9  2.258799E+05  3.685990E+04  3.592348E+04 -4.268922E+04 -1.072893E+03  3.417387E+03
       139  10 -2.305252E+05 -7.649817E+04 -7.373078E+04 -4.230400E+04  2.138992E-09 -2.422696E-10
       139  11 -1.501665E+05 -5.664816E+04 -5.489537E+04 -9.208091E+03  3.455614E-09  1.100900E-10
       139  12 -6.987821E+04 -3.666813E+04 -3.598154E+04 -4.237659E+04 -2.912527E-09 -1.683358E-10
       139  13  7.798516E+04  6.263739E+01  5.307558E+02 -4.253292E+04 -2.346925E-11  1.071935E-09
       139  14  7.802592E+04  1.461251E+01  2.130885E+02 -9.401456E+03 -2.738060E-11  1.465824E-09
       139  15  7.799085E+04  9.668389E+01 -2.824707E+01 -4.253289E+04  8.060789E-10 -1.541381E-09
       139  16  3.865827E+05  7.661651E+04  7.478551E+04 -4.276192E+04 -1.561661E-09 -4.136301E-10
       139  17  3.062660E+05  5.667358E+04  5.531782E+04 -9.594877E+03 -4.701828E-09  4.990980E-10
       139  18  2.258799E+05  3.685989E+04  3.592346E+04 -4.268921E+04 -9.031374E-10  5.985724E-10
       139  19 -2.305252E+05 -7.649807E+04 -7.373060E+04 -4.230398E+04 -2.001540E+03 -9.677951E+03
       139  20 -1.501665E+05 -5.664812E+04 -5.489528E+04 -9.208081E+03 -1.889311E+03 -6.541280E+03
       139  21 -6.987821E+04 -3.666811E+04 -3.598151E+04 -4.237659E+04 -1.775432E+03 -3.413542E+03
       139  22  7.798518E+04  6.273808E+01  5.309324E+02 -4.253291E+04 -5.696496E+02 -9.679187E+03
       139  23  7.802593E+04  1.465854E+01  2.131693E+02 -9.401453E+03 -4.613621E+02 -6.542848E+03
       139  24  7.799085E+04  9.669645E+01 -2.822491E+01 -4.253289E+04 -3.514390E+02 -3.415464E+03
       139  25  3.865827E+05  7.661661E+04  7.478568E+04 -4.276193E+04  8.629500E+02 -9.680424E+03
       139  26  3.062660E+05  5.667363E+04  5.531790E+04 -9.594882E+03  9.671101E+02 -6.544418E+03
       139  27  2.258799E+05  3.685990E+04  3.592348E+04 -4.268922E+04  1.072893E+03 -3.417387E+03
       140   1  5.181952E+04 -6.321116E+03 -6.216944E+03 -4.253441E+04  1.817205E+03  1.572991E+03
       140   2  1.322506E+05  1.350582E+04  1.264620E+04 -9.459596E+03  1.982684E+03 -1.561633E+03
       140   3  2.124336E+05  3.325637E+04  3.133593E+04 -4.261955E+04  2.148711E+03 -4.590538E+03
       140   4  7.795524E+04  1.187238E+02 -1.512450E+02 -4.252663E+04  3.636648E+02  1.575051E+03
       140   5  7.808636E+04  5.886045E+01 -4.304513E+02 -9.409208E+03  5.772391E+02 -1.559733E+03
       140   6  7.795392E+04 -8.560056E+01 -9.164303E+02 -4.252690E+04  7.913400E+02 -4.588774E+03
       140   7  1.040916E+05  6.558516E+03  5.914416E+03 -4.251885E+04 -1.089936E+03  1.577111E+03
       140   8  2.392482E+04 -1.338831E+04 -1.350731E+04 -9.358823E+03 -8.280840E+02 -1.557834E+03
       140   9 -5.650922E+04 -3.342889E+04 -3.317007E+04 -4.243427E+04 -5.657381E+02 -4.587009E+03
       140  10  5.181952E+04 -6.321119E+03 -6.216955E+03 -4.253441E+04  4.641345E-09  1.586915E-09
       140  11  1.322506E+05  1.350581E+04  1.264619E+04 -9.459594E+03  1.523191E-09 -1.618543E-10
       140  12  2.124336E+05  3.325635E+04  3.133588E+04 -4.261954E+04 -1.866063E-09 -5.585012E-10
       140  13  7.795524E+04  1.187211E+02 -1.512499E+02 -4.252663E+04 -2.122594E-09 -9.553202E-10
       140  14  7.808636E+04  5.885775E+01 -4.304565E+02 -9.409207E+03 -1.041307E-09 -1.968458E-09
       140  15  7.795392E+04 -8.562334E+01 -9.164710E+02 -4.252690E+04 -2.745647E-09  1.664277E-10
       140  16  1.040916E+05  6.558513E+03  5.914409E+03 -4.251885E+04 -4.146559E-09  1.924744E-09
       140  17  2.392482E+04 -1.338831E+04 -1.350731E+04 -9.358824E+03 -2.749769E-09 -2.027580E-09
       140  18 -5.650922E+04 -3.342891E+04 -3.317011E+04 -4.243427E+04  2.334184E-09 -6.315582E-10
       140  19  5.181952E+04 -6.321116E+03 -6.216944E+03 -4.253441E+04 -1.817205E+03 -1.572991E+03
       140  20  1.322506E+05  1.350582E+04  1.264620E+04 -9.459596E+03 -1.982684E+03  1.561633E+03
       140  21  2.124336E+05  3.325637E+04  3.133593E+04 -4.261955E+04 -2.148711E+03  4.590538E+03
       140  22  7.795524E+04  1.187238E+02 -1.512450E+02 -4.252663E+04 -3.636648E+02 -1.575051E+03
       140  23  7.808636E+04  5.886045E+01 -4.304513E+02 -9.409208E+03 -5.772391E+02  1.559733E+03
       140  24  7.795392E+04 -8.560056E+01 -9.164303E+02 -4.252690E+04 -7.913400E+02  4.588774E+03
       140  25  1.040916E+05  6.558516E+03  5.914416E+03 -4.251885E+04  1.089936E+03 -1.577111E+03
       140  26  2.392482E+04 -1.338831E+04 -1.350731E+04 -9.358823E+03  8.280840E+02  1.557834E+03
       140  27 -5.650922E+04 -3.342889E+04 -3.317007E+04 -4.243427E+04  5.657381E+02  4.587009E+03
       141   1  3.341399E+05  6.385000E+04  6.091424E+04 -4.300007E+04  2.688102E+03 -6.600045E+03
       141   2  4.148128E+05  8.381749E+04  7.920431E+04 -9.543724E+03  3.157389E+03 -9.724756E+03
       141   3  4.949664E+05  1.019588E+05  9.672836E+04 -4.235653E+04  3.630088E+03 -1.158114E+04
       141   4  7.785963E+04  1.859723E+02 -1.182261E+03 -4.253427E+04  9.731923E+02 -6.598039E+03
       141   5  7.816853E+04  2.580211E+02 -2.046356E+03 -9.399341E+03  2.020562E+03 -9.723938E+03
       141   6  7.785139E+04 -1.596613E+03 -4.077918E+03 -4.253584E+04  3.071284E+03 -1.158119E+04
       141   7 -1.783607E+05 -6.348287E+04 -6.328348E+04 -4.206864E+04 -7.410116E+02 -6.596034E+03
       141   8 -2.583722E+05 -8.330972E+04 -8.330513E+04 -9.255010E+03  8.843497E+02 -9.723121E+03
       141   9 -3.391047E+05 -1.051648E+05 -1.048967E+05 -4.271499E+04  2.512854E+03 -1.158124E+04
       141  10  3.341399E+05  6.384995E+04  6.091414E+04 -4.300005E+04 -2.216892E-09 -2.041297E-09
       141  11  4.148128E+05  8.381738E+04  7.920412E+04 -9.543700E+03 -8.286170E-10  7.123295E-10
       141  12  4.949663E+05  1.019587E+05  9.672808E+04 -4.235649E+04  1.559961E-09  3.797399E-10
       141  13  7.785962E+04  1.859253E+02 -1.182345E+03 -4.253426E+04 -4.311159E-09  2.021938E-11
       141  14  7.816850E+04  2.579185E+02 -2.046541E+03 -9.399326E+03 -2.139244E-09  3.009373E-10
       141  15  7.785135E+04 -1.596760E+03 -4.078187E+03 -4.253581E+04  3.198040E-09  6.928292E-10
       141  16 -1.783607E+05 -6.348291E+04 -6.328356E+04 -4.206864E+04  3.856839E-09  6.828165E-10
       141  17 -2.583722E+05 -8.330983E+04 -8.330531E+04 -9.255003E+03 -1.832766E-09  9.882203E-10
       141  18 -3.391047E+05 -1.051649E+05 -1.048969E+05 -4.271497E+04 -1.886624E-09  3.248478E-10
       141  19  3.341399E+05  6.385000E+04  6.091424E+04 -4.300007E+04 -2.688102E+03  6.600045E+03
       141  20  4.148128E+05  8.381749E+04  7.920431E+04 -9.543724E+03 -3.157389E+03  9.724756E+03
       141  21  4.949664E+05  1.019588E+05  9.672836E+04 -4.235653E+04 -3.630088E+03  1.158114E+04
       141  22  7.785963E+04  1.859723E+02 -1.182261E+03 -4.253427E+04 -9.731923E+02  6.598039E+03
       141  23  7.816853E+04  2.580211E+02 -2.046356E+03 -9.399341E+03 -2.020562E+03  9.723938E+03
       141  24  7.785139E+04 -1.596613E+03 -4.077918E+03 -4.253584E+04 -3.071284E+03  1.158119E+04
       141  25 -1.783607E+05 -6.348287E+04 -6.328348E+04 -4.206864E+04  7.410116E+02  6.596034E+03
       141  26 -2.583722E+05 -8.330972E+04 -8.330513E+04 -9.255010E+03 -8.843497E+02  9.723121E+03
       141  27 -3.391047E+05 -1.051648E+05 -1.048967E+05 -4.271499E+04 -2.512854E+03  1.158124E+04
       142   1  6.161592E+05  1.345663E+05  1.251506E+05 -4.455591E+04  8.676921E+03 -1.560945E+04
       142   2  6.985910E+05  1.558450E+05  1.412764E+05 -8.360316E+03  6.053809E+03 -1.859776E+04
       142   3  7.776802E+05  1.603648E+05  1.550209E+05 -3.824720E+04  3.430584E+03 -6.400727E+03
       142   4  7.694466E+04  7.415650E+02 -4.966181E+03 -4.249359E+04  3.844768E+03 -1.560721E+04
       142   5  7.921453E+04  2.177248E+03 -7.975745E+03 -9.449649E+03  8.149253E+03 -1.859942E+04
       142   6  7.692993E+04 -1.435676E+04 -1.817879E+04 -4.249257E+04  1.245382E+04 -6.399580E+03
       142   7 -4.620041E+05 -1.331044E+05 -1.351037E+05 -4.043302E+04 -9.832072E+02 -1.560500E+04
       142   8 -5.398113E+05 -1.515185E+05 -1.572553E+05 -1.053787E+04  1.024261E+04 -1.860108E+04
       142   9 -6.233743E+05 -1.891148E+05 -1.914146E+05 -4.673315E+04  2.146689E+04 -6.398556E+03
       142  10  6.161591E+05  1.345660E+05  1.251500E+05 -4.455580E+04  1.185556E-09 -4.674432E-11
       142  11  6.985909E+05  1.558446E+05  1.412757E+05 -8.360226E+03  5.010555E-10  1.019949E-10
       142  12  7.776802E+05  1.603647E+05  1.550208E+05 -3.824719E+04  3.042747E-10  1.540657E-10
       142  13  7.694458E+04  7.412994E+02 -4.966667E+03 -4.249354E+04 -2.215352E-09  1.137819E-09
       142  14  7.921436E+04  2.176859E+03 -7.976520E+03 -9.449527E+03  1.076922E-09 -4.139634E-10
       142  15  7.692975E+04 -1.435684E+04 -1.817916E+04 -4.249251E+04  1.076191E-09 -2.787797E-10
       142  16 -4.620042E+05 -1.331047E+05 -1.351041E+05 -4.043303E+04 -2.401353E-09  5.454997E-11
       142  17 -5.398115E+05 -1.515189E+05 -1.572561E+05 -1.053772E+04 -2.914161E-09 -7.538150E-10
       142  18 -6.233748E+05 -1.891150E+05 -1.914156E+05 -4.673304E+04 -1.452758E-09 -2.248128E-10
       142  19  6.161592E+05  1.345663E+05  1.251506E+05 -4.455591E+04 -8.676921E+03  1.560945E+04
       142  20  6.985910E+05  1.558450E+05  1.412764E+05 -8.360316E+03 -6.053809E+03  1.859776E+04
       142  21  7.776802E+05  1.603648E+05  1.550209E+05 -3.824720E+04 -3.430584E+03  6.400727E+03
       142  22  7.694466E+04  7.415650E+02 -4.966181E+03 -4.249359E+04 -3.844768E+03  1.560721E+04
       142  23  7.921453E+04  2.177248E+03 -7.975745E+03 -9.449649E+03 -8.149253E+03  1.859942E+04
       142  24  7.692993E+04 -1.435676E+04 -1.817879E+04 -4.249257E+04 -1.245382E+04  6.399580E+03
       142  25 -4.620041E+05 -1.331044E+05 -1.351037E+05 -4.043302E+04  9.832072E+02  1.560500E+04
       142  26 -5.398113E+05 -1.515185E+05 -1.572553E+05 -1.053787E+04 -1.024261E+04  1.860108E+04
       142  27 -6.233743E+05 -1.891148E+05 -1.914146E+05 -4.673315E+04 -2.146689E+04  6.398556E+03
       143   1  1.135773E+06  3.758409E+06  1.091415E+06 -1.076502E+06  4.667146E+04  2.669964E+05
       143   2  7.973726E+05  2.654355E+06  6.979358E+05 -9.246294E+05  1.436482E+05  7.388490E+04
       143   3  5.284909E+05  1.591228E+06  4.467809E+05 -1.030143E+06  1.299044E+05 -1.195042E+05
       143   4  6.587505E+04 -5.661856E+05  6.160475E+04 -1.019217E+06  4.845093E+04  3.051046E+04
       143   5  2.116920E+04 -5.700391E+05  3.930384E+04 -8.906968E+05  1.442039E+05  1.116277E+04
       143   6  1.616324E+04 -5.639555E+05  3.920520E+04 -1.019602E+06  1.289868E+05 -8.808322E+03
       143   7 -1.005334E+06 -4.873557E+06 -9.693070E+05 -9.622881E+05  5.019428E+04 -2.043439E+05
       143   8 -7.556805E+05 -3.784565E+06 -6.198631E+05 -8.569176E+05  1.447546E+05 -5.124066E+04
       143   9 -4.964288E+05 -2.714635E+06 -3.685303E+05 -1.009085E+06  1.280709E+05  1.015134E+05
       143  10  1.135752E+06  3.758332E+06  1.091277E+06 -1.076512E+06 -2.639940E-10  1.532835E-09
       143  11  7.973489E+05  2.654344E+06  6.978867E+05 -9.246380E+05 -3.440784E-09 -1.605252E-09
       143  12  5.284690E+05  1.591209E+06  4.467226E+05 -1.030131E+06 -6.663636E-10 -2.643802E-09
       143  13  6.587227E+04 -5.661872E+05  6.159858E+04 -1.019219E+06  2.172266E-09 -7.674455E-11
       143  14  2.114684E+04 -5.700448E+05  3.926453E+04 -8.906981E+05  4.880613E-09 -9.695736E-11
       143  15  1.614536E+04 -5.639600E+05  3.917381E+04 -1.019601E+06  2.037203E-09 -9.595629E-10
       143  16 -1.005348E+06 -4.873603E+06 -9.693907E+05 -9.622798E+05 -8.201633E-10 -1.326419E-09
       143  17 -7.557037E+05 -3.784574E+06 -6.199074E+05 -8.569116E+05  8.416065E-09 -2.068157E-09
       143  18 -4.964492E+05 -2.714650E+06 -3.685807E+05 -1.009096E+06 -1.750964E-09 -3.038498E-09
       143  19  1.135773E+06  3.758409E+06  1.091415E+06 -1.076502E+06 -4.667146E+04 -2.669964E+05
       143  20  7.973726E+05  2.654355E+06  6.979358E+05 -9.246294E+05 -1.436482E+05 -7.388490E+04
       143  21  5.284909E+05  1.591228E+06  4.467809E+05 -1.030143E+06 -1.299044E+05  1.195042E+05
       143  22  6.587505E+04 -5.661856E+05  6.160475E+04 -1.019217E+06 -4.845093E+04 -3.051046E+04
       143  23  2.116920E+04 -5.700391E+05  3.930384E+04 -8.906968E+05 -1.442039E+05 -1.116277E+04
       143  24  1.616324E+04 -5.639555E+05  3.920520E+04 -1.019602E+06 -1.289868E+05  8.808322E+03
       143  25 -1.005334E+06 -4.873557E+06 -9.693070E+05 -9.622881E+05 -5.019428E+04  2.043439E+05
       143  26 -7.556805E+05 -3.784565E+06 -6.198631E+05 -8.569176E+05 -1.447546E+05  5.124066E+04
       143  27 -4.964288E+05 -2.714635E+06 -3.685303E+05 -1.009085E+06 -1.280709E+05 -1.015134E+05
       144   1  3.580853E+05  8.665515E+05  3.144032E+05 -1.034336E+06  8.681817E+04 -1.116028E+05
       144   2  9.904460E+04 -2.180901E+05  1.265161E+05 -8.897300E+05  2.531738E+04 -1.458275E+05
       144   3 -1.403319E+05 -1.296723E+06 -3.541977E+04 -1.009210E+06 -3.749111E+04 -1.800246E+05
       144   4  1.762014E+04 -5.646615E+05  4.381046E+04 -1.021045E+06  8.599003E+04 -1.615116E+04
       144   5  1.672594E+04 -5.667749E+05  6.369011E+04 -8.889314E+05  2.446099E+04 -4.840036E+04
       144   6  3.520051E+04 -5.643984E+05  1.081239E+05 -1.020894E+06 -3.837774E+04 -8.067793E+04
       144   7 -3.229594E+05 -1.993878E+06 -2.268387E+05 -1.007780E+06  8.516481E+04  7.908603E+04
       144   8 -6.559441E+04 -9.153208E+05  8.951100E+02 -8.881331E+05  2.360455E+04  4.897359E+04
       144   9  2.107062E+05  1.684630E+05  2.516790E+05 -1.032591E+06 -3.926747E+04  1.878366E+04
       144  10  3.580739E+05  8.665361E+05  3.143657E+05 -1.034328E+06 -8.567961E-10  4.605583E-09
       144  11  9.903821E+04 -2.181131E+05  1.264749E+05 -8.897270E+05  6.421247E-10 -1.269862E-08
       144  12 -1.403421E+05 -1.296759E+06 -3.548349E+04 -1.009216E+06 -1.481584E-09 -2.389728E-08
       144  13  1.761213E+04 -5.646638E+05  4.379609E+04 -1.021044E+06 -1.336563E-09  4.444073E-10
       144  14  1.672467E+04 -5.667776E+05  6.368459E+04 -8.889305E+05 -7.612912E-09 -2.045745E-10
       144  15  3.519718E+04 -5.644058E+05  1.081089E+05 -1.020896E+06 -1.974272E-10 -1.670327E-09
       144  16 -3.229689E+05 -1.993887E+06 -2.268641E+05 -1.007785E+06  3.131153E-10 -4.468168E-09
       144  17 -6.559565E+04 -9.153235E+05  8.895417E+02 -8.881340E+05 -6.336421E-10  6.652788E-09
       144  18  2.107044E+05  1.684622E+05  2.516755E+05 -1.032590E+06  8.070430E-10  1.716430E-08
       144  19  3.580853E+05  8.665515E+05  3.144032E+05 -1.034336E+06 -8.681817E+04  1.116028E+05
       144  20  9.904460E+04 -2.180901E+05  1.265161E+05 -8.897300E+05 -2.531738E+04  1.458275E+05
       144  21 -1.403319E+05 -1.296723E+06 -3.541977E+04 -1.009210E+06  3.749111E+04  1.800246E+05
       144  22  1.762014E+04 -5.646615E+05  4.381046E+04 -1.021045E+06 -8.599003E+04  1.615116E+04
       144  23  1.672594E+04 -5.667749E+05  6.369011E+04 -8.889314E+05 -2.446099E+04  4.840036E+04
       144  24  3.520051E+04 -5.643984E+05  1.081239E+05 -1.020894E+06  3.837774E+04  8.067793E+04
       144  25 -3.229594E+05 -1.993878E+06 -2.268387E+05 -1.007780E+06 -8.516481E+04 -7.908603E+04
       144  26 -6.559441E+04 -9.153208E+05  8.951100E+02 -8.881331E+05 -2.360455E+04 -4.897359E+04
       144  27  2.107062E+05  1.684630E+05  2.516790E+05 -1.032591E+06  3.926747E+04 -1.878366E+04
       145   1 -3.239563E+05 -2.000443E+06 -1.406022E+05 -1.044989E+06 -8.074013E+04 -2.112694E+05
       145   2 -5.121161E+05 -3.109595E+06 -2.743259E+05 -7.526102E+05 -1.058275E+05 -1.927498E+05
       145   3 -4.305029E+05 -4.155527E+06 -3.534523E+05 -7.181154E+05 -3.664042E+04 -1.736651E+05
       145   4  2.268656E+04 -5.463547E+05  1.393586E+05 -1.019968E+06 -8.172509E+04 -9.956866E+04
       145   5  9.970124E+04 -5.907105E+05  2.481078E+05 -8.894417E+05 -1.054654E+05 -2.279729E+05
       145   6  4.713428E+05 -5.479608E+05  5.133106E+05 -1.016476E+06 -3.511599E+04 -3.557991E+05
       145   7  3.692139E+05  9.098023E+05  4.192694E+05 -9.948814E+05 -8.269961E+04  1.238858E+04
       145   8  7.111787E+05  1.934245E+06  7.702085E+05 -1.026824E+06 -1.050886E+05 -2.633356E+05
       145   9  1.372572E+06  3.071826E+06  1.379314E+06 -1.316555E+06 -3.342113E+04 -5.389880E+05
       145  10 -3.239754E+05 -2.000493E+06 -1.406987E+05 -1.045003E+06  6.602001E-10  2.502909E-08
       145  11 -5.121382E+05 -3.109638E+06 -2.744172E+05 -7.526267E+05  1.787558E-09  8.752450E-09
       145  12 -4.305125E+05 -4.155560E+06 -3.535119E+05 -7.181206E+05  1.365751E-09 -6.277089E-09
       145  13  2.267671E+04 -5.463671E+05  1.393273E+05 -1.019975E+06  1.223879E-09 -3.393798E-10
       145  14  9.967528E+04 -5.907694E+05  2.479890E+05 -8.894611E+05 -6.052205E-09 -5.220815E-10
       145  15  4.713074E+05 -5.480972E+05  5.130701E+05 -1.016486E+06  1.954648E-09 -1.132099E-09
       145  16  3.692065E+05  9.098003E+05  4.192563E+05 -9.948806E+05 -6.920243E-10 -2.437907E-08
       145  17  7.111483E+05  1.934168E+06  7.700576E+05 -1.026847E+06  3.593113E-09 -1.455712E-08
       145  18  1.372493E+06  3.071515E+06  1.378769E+06 -1.316570E+06  2.710521E-09  1.301013E-09
       145  19 -3.239563E+05 -2.000443E+06 -1.406022E+05 -1.044989E+06  8.074013E+04  2.112694E+05
       145  20 -5.121161E+05 -3.109595E+06 -2.743259E+05 -7.526102E+05  1.058275E+05  1.927498E+05
       145  21 -4.305029E+05 -4.155527E+06 -3.534523E+05 -7.181154E+05  3.664042E+04  1.736651E+05
       145  22  2.268656E+04 -5.463547E+05  1.393586E+05 -1.019968E+06  8.172509E+04  9.956866E+04
       145  23  9.970124E+04 -5.907105E+05  2.481078E+05 -8.894417E+05  1.054654E+05  2.279729E+05
       145  24  4.713428E+05 -5.479608E+05  5.133106E+05 -1.016476E+06  3.511599E+04  3.557991E+05
       145  25  3.692139E+05  9.098023E+05  4.192694E+05 -9.948814E+05  8.269961E+04 -1.238858E+04
       145  26  7.111787E+05  1.934245E+06  7.702085E+05 -1.026824E+06  1.050886E+05  2.633356E+05
       145  27  1.372572E+06  3.071826E+06  1.379314E+06 -1.316555E+06  3.342113E+04  5.389880E+05
       146   1 -4.039621E+06 -1.581621E+06 -9.105599E+05 -1.380281E+06 -2.345050E+05 -2.060249E+04
       146   2 -3.771993E+06 -1.511102E+06 -7.368953E+05 -1.284284E+06 -1.584181E+05  1.666246E+05
       146   3 -3.460100E+06 -1.459805E+06 -6.505227E+05 -1.255714E+06 -4.207623E+04  2.485549E+05
       146   4 -1.107907E+05 -1.435793E+05  1.027234E+05 -3.459717E+05  4.311573E+04  8.501002E+04
       146   5 -1.535852E+05 -1.893007E+05  4.665867E+04 -2.968921E+05 -3.366703E+04  2.138555E+05
       146   6 -1.217662E+05 -2.239283E+05  2.507744E+04 -3.152308E+05 -7.038622E+04  2.377029E+05
       146   7  3.833154E+06  1.295254E+06  1.115040E+06  6.941992E+05  3.226699E+05  1.913019E+05
       146   8  3.478171E+06  1.133490E+06  8.295031E+05  6.957791E+05  9.187343E+04  2.613760E+05
       146   9  3.228150E+06  1.012996E+06  7.001406E+05  6.299812E+05 -9.886182E+04  2.267878E+05
       146  10 -4.039680E+06 -1.581637E+06 -9.106647E+05 -1.380285E+06  2.412769E-09  1.759268E-09
       146  11 -3.772027E+06 -1.511139E+06 -7.369946E+05 -1.284262E+06 -1.169798E-09 -3.097524E-09
       146  12 -3.460118E+06 -1.459871E+06 -6.506421E+05 -1.255705E+06 -1.511926E-08 -8.132513E-09
       146  13 -1.107947E+05 -1.435876E+05  1.027063E+05 -3.459746E+05  1.462838E-09  1.250805E-09
       146  14 -1.535987E+05 -1.893501E+05  4.657059E+04 -2.968863E+05  1.855595E-09 -6.526286E-09
       146  15 -1.217867E+05 -2.239903E+05  2.496196E+04 -3.152173E+05 -8.300213E-09 -2.402849E-09
       146  16  3.833033E+06  1.295187E+06  1.114777E+06  6.941497E+05  2.195644E-09  1.908173E-09
       146  17  3.478143E+06  1.133415E+06  8.293592E+05  6.957598E+05  1.024798E-08  3.837598E-10
       146  18  3.228126E+06  1.012939E+06  7.000255E+05  6.299992E+05  8.444805E-09  4.854185E-09
       146  19 -4.039621E+06 -1.581621E+06 -9.105599E+05 -1.380281E+06  2.345050E+05  2.060249E+04
       146  20 -3.771993E+06 -1.511102E+06 -7.368953E+05 -1.284284E+06  1.584181E+05 -1.666246E+05
       146  21 -3.460100E+06 -1.459805E+06 -6.505227E+05 -1.255714E+06  4.207623E+04 -2.485549E+05
       146  22 -1.107907E+05 -1.435793E+05  1.027234E+05 -3.459717E+05 -4.311573E+04 -8.501002E+04
       146  23 -1.535852E+05 -1.893007E+05  4.665867E+04 -2.968921E+05  3.366703E+04 -2.138555E+05
       146  24 -1.217662E+05 -2.239283E+05  2.507744E+04 -3.152308E+05  7.038622E+04 -2.377029E+05
       146  25  3.833154E+06  1.295254E+06  1.115040E+06  6.941992E+05 -3.226699E+05 -1.913019E+05
       146  26  3.478171E+06  1.133490E+06  8.295031E+05  6.957791E+05 -9.187343E+04 -2.613760E+05
       146  27  3.228150E+06  1.012996E+06  7.001406E+05  6.299812E+05  9.886182E+04 -2.267878E+05
       147   1 -3.280538E+06 -1.381351E+06 -6.168412E+05 -1.199069E+06 -5.995325E+04  2.284848E+05
       147   2 -3.034115E+06 -1.254874E+06 -5.607192E+05 -1.092866E+06 -5.029684E+04  2.207988E+05
       147   3 -2.734665E+06 -1.179504E+06 -5.083597E+05 -1.045779E+06 -3.787743E+04  2.056752E+05
       147   4 -1.236633E+05 -2.221601E+05  1.906171E+04 -3.190085E+05 -6.887490E+04  2.249897E+05
       147   5 -1.510648E+05 -1.986022E+05  9.889943E+03 -2.889811E+05 -7.003736E+04  2.132427E+05
       147   6 -1.233827E+05 -2.239934E+05  5.543605E+03 -3.180790E+05 -6.844663E+04  1.940763E+05
       147   7  3.043527E+06  9.379128E+05  6.544766E+05  5.652099E+05 -7.784611E+04  2.214763E+05
       147   8  2.740604E+06  8.584112E+05  5.801094E+05  5.183728E+05 -8.987705E+04  2.056496E+05
       147   9  2.494963E+06  7.321223E+05  5.191316E+05  4.124624E+05 -9.915434E+04  1.824253E+05
       147  10 -3.280556E+06 -1.381408E+06 -6.169461E+05 -1.199058E+06  1.154252E-08  4.916029E-09
       147  11 -3.034131E+06 -1.254927E+06 -5.608155E+05 -1.092857E+06  3.206615E-09  3.703207E-09
       147  12 -2.734677E+06 -1.179549E+06 -5.084419E+05 -1.045773E+06 -1.092168E-08  1.885218E-10
       147  13 -1.236820E+05 -2.222157E+05  1.895768E+04 -3.189960E+05 -1.350305E-08 -2.753282E-09
       147  14 -1.510822E+05 -1.986523E+05  9.795285E+03 -2.889691E+05 -7.595596E-09 -3.162169E-09
       147  15 -1.233978E+05 -2.240351E+05  5.464031E+03 -3.180683E+05 -5.081941E-09  6.067948E-10
       147  16  3.043507E+06  9.378585E+05  6.543731E+05  5.652238E+05 -2.305289E-08 -1.101733E-08
       147  17  2.740584E+06  8.583636E+05  5.800148E+05  5.183877E+05 -6.964516E-09 -4.529165E-09
       147  18  2.494943E+06  7.320839E+05  5.190506E+05  4.124770E+05  8.022321E-09  2.968792E-09
       147  19 -3.280538E+06 -1.381351E+06 -6.168412E+05 -1.199069E+06  5.995325E+04 -2.284848E+05
       147  20 -3.034115E+06 -1.254874E+06 -5.607192E+05 -1.092866E+06  5.029684E+04 -2.207988E+05
       147  21 -2.734665E+06 -1.179504E+06 -5.083597E+05 -1.045779E+06  3.787743E+04 -2.056752E+05
       147  22 -1.236633E+05 -2.221601E+05  1.906171E+04 -3.190085E+05  6.887490E+04 -2.249897E+05
       147  23 -1.510648E+05 -1.986022E+05  9.889943E+03 -2.889811E+05  7.003736E+04 -2.132427E+05
       147  24 -1.233827E+05 -2.239934E+05  5.543605E+03 -3.180790E+05  6.844663E+04 -1.940763E+05
       147  25  3.043527E+06  9.379128E+05  6.544766E+05  5.652099E+05  7.784611E+04 -2.214763E+05
       147  26  2.740604E+06  8.584112E+05  5.801094E+05  5.183728E+05  8.987705E+04 -2.056496E+05
       147  27  2.494963E+06  7.321223E+05  5.191316E+05  4.124624E+05  9.915434E+04 -1.824253E+05
       148   1 -2.550527E+06 -1.110606E+06 -4.718255E+05 -9.939607E+05 -3.534949E+04  1.926160E+05
       148   2 -2.303533E+06 -9.833438E+05 -4.199788E+05 -8.874557E+05 -2.792831E+04  1.721390E+05
       148   3 -2.003298E+06 -9.082028E+05 -3.676830E+05 -8.404320E+05 -2.034797E+04  1.511131E+05
       148   4 -1.234660E+05 -2.237527E+05  4.122444E+03 -3.184252E+05 -6.458484E+04  1.815422E+05
       148   5 -1.498372E+05 -1.972502E+05  2.154475E+03 -2.887808E+05 -5.796162E+04  1.607978E+05
       148   6 -1.229081E+05 -2.227104E+05  1.253887E+03 -3.186369E+05 -5.117956E+04  1.395058E+05
       148   7  2.309741E+06  6.636376E+05  4.798123E+05  3.595725E+05 -9.394368E+04  1.704221E+05
       148   8  2.008689E+06  5.892616E+05  4.240837E+05  3.118273E+05 -8.810730E+04  1.494146E+05
       148   9  1.761155E+06  4.630960E+05  3.700340E+05  2.046265E+05 -8.211165E+04  1.278610E+05
       148  10 -2.550539E+06 -1.110646E+06 -4.718976E+05 -9.939553E+05  2.923239E-09  3.402567E-09
       148  11 -2.303542E+06 -9.833758E+05 -4.200359E+05 -8.874518E+05  1.562994E-09  7.946881E-10
       148  12 -2.003304E+06 -9.082275E+05 -3.677267E+05 -8.404295E+05  1.978658E-09 -6.382825E-10
       148  13 -1.234793E+05 -2.237893E+05  4.052682E+03 -3.184158E+05 -4.142333E-09  1.483714E-09
       148  14 -1.498478E+05 -1.972789E+05  2.099581E+03 -2.887733E+05 -3.855908E-10  8.382257E-11
       148  15 -1.229161E+05 -2.227320E+05  1.212398E+03 -3.186312E+05  3.492527E-10 -9.090806E-10
       148  16  2.309723E+06  6.636040E+05  4.797412E+05  3.595854E+05 -5.737117E-09  4.569339E-10
       148  17  2.008675E+06  5.892356E+05  4.240272E+05  3.118379E+05  1.311613E-10 -3.594568E-10
       148  18  1.761143E+06  4.630766E+05  3.699906E+05  2.046349E+05  1.175706E-09 -6.489609E-10
       148  19 -2.550527E+06 -1.110606E+06 -4.718255E+05 -9.939607E+05  3.534949E+04 -1.926160E+05
       148  20 -2.303533E+06 -9.833438E+05 -4.199788E+05 -8.874557E+05  2.792831E+04 -1.721390E+05
       148  21 -2.003298E+06 -9.082028E+05 -3.676830E+05 -8.404320E+05  2.034797E+04 -1.511131E+05
       148  22 -1.234660E+05 -2.237527E+05  4.122444E+03 -3.184252E+05  6.458484E+04 -1.815422E+05
       148  23 -1.498372E+05 -1.972502E+05  2.154475E+03 -2.887808E+05  5.796162E+04 -1.607978E+05
       148  24 -1.229081E+05 -2.227104E+05  1.253887E+03 -3.186369E+05  5.117956E+04 -1.395058E+05
       148  25  2.309741E+06  6.636376E+05  4.798123E+05  3.595725E+05  9.394368E+04 -1.704221E+05
       148  26  2.008689E+06  5.892616E+05  4.240837E+05  3.118273E+05  8.810730E+04 -1.494146E+05
       148  27  1.761155E+06  4.630960E+05  3.700340E+05  2.046265E+05  8.211165E+04 -1.278610E+05
       149   1 -1.818278E+06 -8.400435E+05 -3.301555E+05 -7.890330E+05 -1.596733E+04  1.386857E+05
       149   2 -1.570001E+06 -7.133477E+05 -2.775611E+05 -6.827063E+05 -8.160926E+03  1.174917E+05
       149   3 -1.268965E+06 -6.388526E+05 -2.247568E+05 -6.362104E+05 -3.659450E+02  9.624324E+04
       149   4 -1.228745E+05 -2.225602E+05  9.056012E+02 -3.187287E+05 -4.672753E+04  1.271220E+05
       149   5 -1.490347E+05 -1.960918E+05  4.282342E+02 -2.888849E+05 -3.900030E+04  1.059206E+05
       149   6 -1.225082E+05 -2.218109E+05  2.150638E+02 -3.188954E+05 -3.128445E+04  8.466486E+04
       149   7  1.575502E+06  3.951734E+05  3.318377E+05  1.527648E+05 -7.757780E+04  1.155246E+05
       149   8  1.274029E+06  3.213429E+05  2.783304E+05  1.057735E+05 -6.991553E+04  9.432109E+04
       149   9  1.025323E+06  1.953502E+05  2.251338E+05 -1.034038E+03 -6.226454E+04  7.306345E+04
       149  10 -1.818284E+06 -8.400642E+05 -3.301922E+05 -7.890312E+05  7.925774E-10 -4.548570E-10
       149  11 -1.570004E+06 -7.133626E+05 -2.775872E+05 -6.827055E+05 -5.818331E-10 -4.433903E-10
       149  12 -1.268968E+06 -6.388626E+05 -2.247742E+05 -6.362103E+05  3.177190E-09 -1.528838E-09
       149  13 -1.228812E+05 -2.225781E+05  8.711356E+02 -3.187240E+05  2.380935E-09 -1.156708E-09
       149  14 -1.490394E+05 -1.961043E+05  4.042966E+02 -2.888816E+05  7.578750E-09 -1.815751E-10
       149  15 -1.225111E+05 -2.218189E+05  1.997566E+02 -3.188933E+05  4.893231E-10 -7.681948E-10
       149  16  1.575492E+06  3.951574E+05  3.318013E+05  1.527720E+05  8.190784E-10 -6.277561E-10
       149  17  1.274021E+06  3.213320E+05  2.783045E+05  1.057788E+05  2.695000E-09  1.561681E-10
       149  18  1.025318E+06  1.953434E+05  2.251164E+05 -1.030377E+03 -6.647399E-11  4.691438E-10
       149  19 -1.818278E+06 -8.400435E+05 -3.301555E+05 -7.890330E+05  1.596733E+04 -1.386857E+05
       149  20 -1.570001E+06 -7.133477E+05 -2.775611E+05 -6.827063E+05  8.160926E+03 -1.174917E+05
       149  21 -1.268965E+06 -6.388526E+05 -2.247568E+05 -6.362104E+05  3.659450E+02 -9.624324E+04
       149  22 -1.228745E+05 -2.225602E+05  9.056012E+02 -3.187287E+05  4.672753E+04 -1.271220E+05
       149  23 -1.490347E+05 -1.960918E+05  4.282342E+02 -2.888849E+05  3.900030E+04 -1.059206E+05
       149  24 -1.225082E+05 -2.218109E+05  2.150638E+02 -3.188954E+05  3.128445E+04 -8.466486E+04
       149  25  1.575502E+06  3.951734E+05  3.318377E+05  1.527648E+05  7.757780E+04 -1.155246E+05
       149  26  1.274029E+06  3.213429E+05  2.783304E+05  1.057735E+05  6.991553E+04 -9.432109E+04
       149  27  1.025323E+06  1.953502E+05  2.251338E+05 -1.034038E+03  6.226454E+04 -7.306345E+04
       150   1 -1.083367E+06 -5.709251E+05 -1.869749E+05 -5.849431E+05  4.238478E+03  8.388730E+04
       150   2 -8.342692E+05 -4.446243E+05 -1.341359E+05 -4.786941E+05  1.222996E+04  6.270176E+04
       150   3 -5.327261E+05 -3.705653E+05 -8.130981E+04 -4.324733E+05  2.020393E+04  4.152141E+04
       150   4 -1.224811E+05 -2.217223E+05  9.301929E+01 -3.189409E+05 -2.669289E+04  7.231397E+04
       150   5 -1.485712E+05 -1.954160E+05 -1.225521E+02 -2.889539E+05 -1.869691E+04  5.114082E+04
       150   6 -1.223006E+05 -2.213565E+05 -3.596317E+02 -3.190214E+05 -1.071854E+04  2.997302E+04
       150   7  8.393648E+05  1.275625E+05  1.871238E+05 -5.255633E+04 -5.767561E+04  6.072142E+04
       150   8  5.376134E+05  5.383313E+04  1.338728E+05 -9.901981E+04 -4.966029E+04  3.956622E+04
       150   9  2.882976E+05 -7.213371E+04  8.058585E+04 -2.055005E+05 -4.166268E+04  1.841653E+04
       150  10 -1.083369E+06 -5.709326E+05 -1.869882E+05 -5.849434E+05 -1.435129E-09 -1.052915E-09
       150  11 -8.342704E+05 -4.446286E+05 -1.341436E+05 -4.786948E+05 -7.119813E-09 -2.181262E-09
       150  12 -5.327270E+05 -3.705673E+05 -8.131383E+04 -4.324740E+05 -5.335295E-09 -1.958831E-09
       150  13 -1.224833E+05 -2.217281E+05  8.185520E+01 -3.189393E+05 -1.752246E-09 -2.776082E-10
       150  14 -1.485722E+05 -1.954189E+05 -1.281230E+02 -2.889532E+05 -1.145605E-08 -2.643355E-09
       150  15 -1.223010E+05 -2.213575E+05 -3.615356E+02 -3.190212E+05 -3.685564E-09 -4.459437E-09
       150  16  8.393602E+05  1.275576E+05  1.871107E+05 -5.255351E+04 -5.806412E-09 -6.733751E-10
       150  17  5.376104E+05  5.383079E+04  1.338653E+05 -9.901823E+04 -8.366547E-09 -3.107274E-09
       150  18  2.882957E+05 -7.213454E+04  8.058195E+04 -2.054999E+05  5.646576E-10 -3.573975E-09
       150  19 -1.083367E+06 -5.709251E+05 -1.869749E+05 -5.849431E+05 -4.238478E+03 -8.388730E+04
       150  20 -8.342692E+05 -4.446243E+05 -1.341359E+05 -4.786941E+05 -1.222996E+04 -6.270176E+04
       150  21 -5.327261E+05 -3.705653E+05 -8.130981E+04 -4.324733E+05 -2.020393E+04 -4.152141E+04
       150  22 -1.224811E+05 -2.217223E+05  9.301929E+01 -3.189409E+05  2.669289E+04 -7.231397E+04
       150  23 -1.485712E+05 -1.954160E+05 -1.225521E+02 -2.889539E+05  1.869691E+04 -5.114082E+04
       150  24 -1.223006E+05 -2.213565E+05 -3.596317E+02 -3.190214E+05  1.071854E+04 -2.997302E+04
       150  25  8.393648E+05  1.275625E+05  1.871238E+05 -5.255633E+04  5.767561E+04 -6.072142E+04
       150  26  5.376134E+05  5.383313E+04  1.338728E+05 -9.901981E+04  4.966029E+04 -3.956622E+04
       150  27  2.882976E+05 -7.213371E+04  8.058585E+04 -2.055005E+05  4.166268E+04 -1.841653E+04
       151   1 -3.467788E+05 -3.027592E+05 -4.356084E+04 -3.812281E+05  2.494181E+04  2.921559E+04
       151   2 -9.732830E+04 -1.766870E+05  9.081753E+03 -2.749386E+05  3.300216E+04  8.188758E+03
       151   3  2.044543E+05 -1.028508E+05  6.159583E+04 -2.287273E+05  4.097120E+04 -1.259136E+04
       151   4 -1.223121E+05 -2.213268E+05 -5.364132E+02 -3.190411E+05 -6.033973E+03  1.765028E+04
       151   5 -1.484080E+05 -1.951945E+05 -1.065422E+03 -2.889772E+05  2.379040E+03 -3.245832E+03
       151   6 -1.223278E+05 -2.213792E+05 -2.006724E+03 -3.190253E+05  1.070060E+04 -2.389505E+04
       151   7  1.022111E+05 -1.398883E+05  4.249052E+04 -2.568321E+05 -3.702201E+04  6.080370E+03
       151   8 -1.994832E+05 -2.137011E+05 -1.120877E+04 -3.030143E+05 -2.824151E+04 -1.467947E+04
       151   9 -4.489973E+05 -3.398976E+05 -6.561015E+04 -4.092788E+05 -1.955295E+04 -3.519238E+04
       151  10 -3.467797E+05 -3.027603E+05 -4.356361E+04 -3.812287E+05 -6.079419E-09 -2.024487E-09
       151  11 -9.732948E+04 -1.766873E+05  9.079580E+03 -2.749388E+05 -2.185485E-10  8.709857E-10
       151  12  2.044525E+05 -1.028514E+05  6.159238E+04 -2.287269E+05  1.474747E-08  7.192446E-09
       151  13 -1.223122E+05 -2.213271E+05 -5.370670E+02 -3.190410E+05 -4.029846E-09 -3.689859E-09
       151  14 -1.484080E+05 -1.951945E+05 -1.065453E+03 -2.889772E+05 -4.241195E-09  1.656194E-10
       151  15 -1.223281E+05 -2.213798E+05 -2.008012E+03 -3.190251E+05 -3.125303E-09  2.028472E-09
       151  16  1.022096E+05 -1.398887E+05  4.248788E+04 -2.568319E+05  2.966403E-09 -2.865215E-09
       151  17 -1.994841E+05 -2.137015E+05 -1.121067E+04 -3.030146E+05 -1.299175E-08 -5.410696E-09
       151  18 -4.489981E+05 -3.398990E+05 -6.561320E+04 -4.092793E+05 -1.428872E-08 -4.508456E-09
       151  19 -3.467788E+05 -3.027592E+05 -4.356084E+04 -3.812281E+05 -2.494181E+04 -2.921559E+04
       151  20 -9.732830E+04 -1.766870E+05  9.081753E+03 -2.749386E+05 -3.300216E+04 -8.188758E+03
       151  21  2.044543E+05 -1.028508E+05  6.159583E+04 -2.287273E+05 -4.097120E+04  1.259136E+04
       151  22 -1.223121E+05 -2.213268E+05 -5.364132E+02 -3.190411E+05  6.033973E+03 -1.765028E+04
       151  23 -1.484080E+05 -1.951945E+05 -1.065422E+03 -2.889772E+05 -2.379040E+03  3.245832E+03
       151  24 -1.223278E+05 -2.213792E+05 -2.006724E+03 -3.190253E+05 -1.070060E+04  2.389505E+04
       151  25  1.022111E+05 -1.398883E+05  4.249052E+04 -2.568321E+05  3.702201E+04 -6.080370E+03
       151  26 -1.994832E+05 -2.137011E+05 -1.120877E+04 -3.030143E+05  2.824151E+04  1.467947E+04
       151  27 -4.489973E+05 -3.398976E+05 -6.561015E+04 -4.092788E+05  1.955295E+04  3.519238E+04
       152   1  3.906540E+05 -3.508774E+04  9.889534E+04 -1.775359E+05  4.660138E+04 -2.453410E+04
       152   2  6.396017E+05  9.113464E+04  1.514621E+05 -7.081889E+04  5.123232E+04 -4.491334E+04
       152   3  9.410679E+05  1.650402E+05  2.059176E+05 -2.370562E+04  5.456116E+04 -6.177760E+04
       152   4 -1.224893E+05 -2.213277E+05 -2.684396E+03 -3.190399E+05  1.567850E+04 -3.608520E+04
       152   5 -1.484133E+05 -1.956372E+05 -4.969151E+03 -2.888850E+05  2.543663E+04 -5.456055E+04
       152   6 -1.229083E+05 -2.232901E+05 -9.423902E+03 -3.183697E+05  3.389294E+04 -6.951791E+04
       152   7 -6.353543E+05 -4.075427E+05 -1.042712E+05 -4.604341E+05 -1.521673E+04 -4.762601E+04
       152   8 -9.357860E+05 -4.823549E+05 -1.614268E+05 -5.066951E+05 -3.239714E+02 -6.419461E+04
       152   9 -1.185729E+06 -6.115268E+05 -2.248224E+05 -6.125700E+05  1.326255E+04 -7.724403E+04
       152  10  3.906515E+05 -3.508897E+04  9.889013E+04 -1.775350E+05 -1.245170E-08 -3.639766E-09
       152  11  6.395984E+05  9.113177E+04  1.514533E+05 -7.081703E+04 -8.817430E-09 -2.701218E-09
       152  12  9.410637E+05  1.650353E+05  2.059048E+05 -2.370291E+04  2.946673E-09 -1.980728E-10
       152  13 -1.224899E+05 -2.213291E+05 -2.687304E+03 -3.190394E+05  5.232497E-09  2.311177E-09
       152  14 -1.484148E+05 -1.956406E+05 -4.975959E+03 -2.888839E+05 -1.403533E-09 -1.028620E-10
       152  15 -1.229108E+05 -2.232956E+05 -9.435139E+03 -3.183678E+05 -1.388760E-09 -1.983976E-10
       152  16 -6.353551E+05 -4.075452E+05 -1.042759E+05 -4.604347E+05  2.073945E-08  8.424078E-09
       152  17 -9.357871E+05 -4.823593E+05 -1.614346E+05 -5.066951E+05  5.421385E-09  2.512251E-09
       152  18 -1.185731E+06 -6.115332E+05 -2.248340E+05 -6.125692E+05 -4.203655E-09 -6.125031E-10
       152  19  3.906540E+05 -3.508774E+04  9.889534E+04 -1.775359E+05 -4.660138E+04  2.453410E+04
       152  20  6.396017E+05  9.113464E+04  1.514621E+05 -7.081889E+04 -5.123232E+04  4.491334E+04
       152  21  9.410679E+05  1.650402E+05  2.059176E+05 -2.370562E+04 -5.456116E+04  6.177760E+04
       152  22 -1.224893E+05 -2.213277E+05 -2.684396E+03 -3.190399E+05 -1.567850E+04  3.608520E+04
       152  23 -1.484133E+05 -1.956372E+05 -4.969151E+03 -2.888850E+05 -2.543663E+04  5.456055E+04
       152  24 -1.229083E+05 -2.232901E+05 -9.423902E+03 -3.183697E+05 -3.389294E+04  6.951791E+04
       152  25 -6.353543E+05 -4.075427E+05 -1.042712E+05 -4.604341E+05  1.521673E+04  4.762601E+04
       152  26 -9.357860E+05 -4.823549E+05 -1.614268E+05 -5.066951E+05  3.239714E+02  6.419461E+04
       152  27 -1.185729E+06 -6.115268E+05 -2.248224E+05 -6.125700E+05 -1.326255E+04  7.724403E+04
       153   1  1.130221E+06  2.324603E+05  2.418093E+05  2.440774E+04  6.974703E+04 -6.981290E+04
       153   2  1.367890E+06  3.640590E+05  3.099884E+05  1.417169E+05  7.353203E+03 -8.803874E+04
       153   3  1.658451E+06  4.328053E+05  4.193810E+05  2.087872E+05 -7.379184E+04 -5.641308E+04
       153   4 -1.249232E+05 -2.216861E+05 -1.235388E+04 -3.189268E+05  3.980796E+04 -8.102926E+04
       153   5 -1.470539E+05 -2.029192E+05 -2.329152E+04 -2.864012E+05  5.040149E+04 -7.193764E+04
       153   6 -1.308105E+05 -2.614909E+05 -5.078148E+04 -3.041525E+05  4.225096E+04 -1.291892E+04
       153   7 -1.378454E+06 -6.757073E+05 -2.665937E+05 -6.616253E+05  9.933685E+03 -9.222180E+04
       153   8 -1.659651E+06 -7.696855E+05 -3.566975E+05 -7.135467E+05  9.333588E+04 -5.588105E+04
       153   9 -1.916881E+06 -9.554935E+05 -5.211437E+05 -8.157122E+05  1.579241E+05  3.042527E+04
       153  10  1.130214E+06  2.324537E+05  2.417910E+05  2.441165E+04  3.639698E-09 -4.147871E-10
       153  11  1.367888E+06  3.640506E+05  3.099738E+05  1.417174E+05 -4.178775E-09 -2.753067E-09
       153  12  1.658445E+06  4.328004E+05  4.193648E+05  2.087839E+05 -5.317388E-09 -2.459777E-09
       153  13 -1.249267E+05 -2.216935E+05 -1.236919E+04 -3.189242E+05 -4.266819E-09 -1.788725E-09
       153  14 -1.470581E+05 -2.029254E+05 -2.330601E+04 -2.863982E+05 -9.808345E-09 -2.582309E-09
       153  15 -1.308125E+05 -2.614916E+05 -5.078515E+04 -3.041520E+05 -6.305040E-09 -1.153520E-09
       153  16 -1.378457E+06 -6.757165E+05 -2.666098E+05 -6.616246E+05 -9.167092E-09 -2.259754E-09
       153  17 -1.659661E+06 -7.696911E+05 -3.567198E+05 -7.135425E+05 -9.629460E-09 -2.868127E-09
       153  18 -1.916908E+06 -9.555013E+05 -5.211925E+05 -8.157161E+05  3.686160E-10  2.576878E-10
       153  19  1.130221E+06  2.324603E+05  2.418093E+05  2.440774E+04 -6.974703E+04  6.981290E+04
       153  20  1.367890E+06  3.640590E+05  3.099884E+05  1.417169E+05 -7.353203E+03  8.803874E+04
       153  21  1.658451E+06  4.328053E+05  4.193810E+05  2.087872E+05  7.379184E+04  5.641308E+04
       153  22 -1.249232E+05 -2.216861E+05 -1.235388E+04 -3.189268E+05 -3.980796E+04  8.102926E+04
       153  23 -1.470539E+05 -2.029192E+05 -2.329152E+04 -2.864012E+05 -5.040149E+04  7.193764E+04
       153  24 -1.308105E+05 -2.614909E+05 -5.078148E+04 -3.041525E+05 -4.225096E+04  1.291892E+04
       153  25 -1.378454E+06 -6.757073E+05 -2.665937E+05 -6.616253E+05 -9.933685E+03  9.222180E+04
       153  26 -1.659651E+06 -7.696855E+05 -3.566975E+05 -7.135467E+05 -9.333588E+04  5.588105E+04
       153  27 -1.916881E+06 -9.554935E+05 -5.211437E+05 -8.157122E+05 -1.579241E+05 -3.042527E+04
       154   1 -1.923004E+05 -9.919216E+04 -8.767534E+04 -7.192204E+04 -1.801460E+04  7.024540E+03
       154   2 -1.171875E+05 -1.048196E+05 -6.752669E+04 -8.140382E+04 -1.991390E+03  2.334964E+04
       154   3 -4.056504E+04 -9.618701E+04 -5.424507E+04 -1.022013E+05  1.403938E+04  2.753617E+04
       154   4  4.012826E+05  4.699321E+04  4.982711E+04 -1.038421E+05  3.519287E+04  7.035457E+03
       154   5  3.980475E+05  1.673928E+04  2.514149E+04 -9.818238E+04  2.237924E+04  2.335128E+04
       154   6  4.013166E+05  5.743050E+03  1.360929E+04 -1.038366E+05  9.571017E+03  2.753397E+04
       154   7  9.951994E+05  1.931592E+05  1.873172E+05 -1.357928E+05  8.845083E+04  7.040900E+03
       154   8  9.135430E+05  1.382847E+05  1.178018E+05 -1.149752E+05  4.676952E+04  2.335161E+04
       154   9  8.433935E+05  1.076637E+05  8.145941E+04 -1.054731E+05  5.099596E+03  2.753179E+04
       154  10 -1.923007E+05 -9.919230E+04 -8.767604E+04 -7.192194E+04 -6.175206E-10  2.324089E-10
       154  11 -1.171876E+05 -1.048202E+05 -6.752772E+04 -8.140378E+04 -3.610464E-09  3.222751E-10
       154  12 -4.056546E+04 -9.618788E+04 -5.424687E+04 -1.022016E+05 -6.325761E-11 -6.890047E-10
       154  13  4.012813E+05  4.699283E+04  4.982469E+04 -1.038423E+05 -2.000942E-09  2.142092E-10
       154  14  3.980468E+05  1.673856E+04  2.513952E+04 -9.818280E+04  1.177618E-09 -1.744214E-10
       154  15  4.013163E+05  5.742211E+03  1.360769E+04 -1.038368E+05 -6.994214E-10 -8.629135E-10
       154  16  9.951909E+05  1.931570E+05  1.873024E+05 -1.357933E+05 -1.872949E-09  5.612022E-11
       154  17  9.135405E+05  1.382836E+05  1.177966E+05 -1.149761E+05  1.521868E-09 -5.038378E-10
       154  18  8.433932E+05  1.076629E+05  8.145794E+04 -1.054732E+05  2.229201E-09 -5.284960E-10
       154  19 -1.923004E+05 -9.919216E+04 -8.767534E+04 -7.192204E+04  1.801460E+04 -7.024540E+03
       154  20 -1.171875E+05 -1.048196E+05 -6.752669E+04 -8.140382E+04  1.991390E+03 -2.334964E+04
       154  21 -4.056504E+04 -9.618701E+04 -5.424507E+04 -1.022013E+05 -1.403938E+04 -2.753617E+04
       154  22  4.012826E+05  4.699321E+04  4.982711E+04 -1.038421E+05 -3.519287E+04 -7.035457E+03
       154  23  3.980475E+05  1.673928E+04  2.514149E+04 -9.818238E+04 -2.237924E+04 -2.335128E+04
       154  24  4.013166E+05  5.743050E+03  1.360929E+04 -1.038366E+05 -9.571017E+03 -2.753397E+04
       154  25  9.951994E+05  1.931592E+05  1.873172E+05 -1.357928E+05 -8.845083E+04 -7.040900E+03
       154  26  9.135430E+05  1.382847E+05  1.178018E+05 -1.149752E+05 -4.676952E+04 -2.335161E+04
       154  27  8.433935E+05  1.076637E+05  8.145941E+04 -1.054731E+05 -5.099596E+03 -2.753179E+04
       155   1  5.808676E+03 -8.634797E+04 -4.834648E+04 -1.015935E+05  1.315938E+04  2.588635E+04
       155   2  8.147016E+04 -7.113262E+04 -3.874859E+04 -9.675263E+04  1.427695E+04  2.281697E+04
       155   3  1.573137E+05 -5.467903E+04 -2.956527E+04 -1.041202E+05  1.539426E+04  1.812276E+04
       155   4  4.000662E+05  4.185888E+03  1.015291E+04 -1.040363E+05  7.800475E+03  2.588452E+04
       155   5  3.996519E+05  1.332547E+03  5.479782E+03 -9.793235E+04  5.055592E+03  2.281581E+04
       155   6  4.000837E+05  3.874810E+02  3.072720E+03 -1.040363E+05  2.310336E+03  1.812272E+04
       155   7  7.944800E+05  9.471249E+04  6.864953E+04 -1.064806E+05  2.438301E+03  2.588274E+04
       155   8  7.179366E+05  7.379328E+04  4.970725E+04 -9.911269E+04 -4.170281E+03  2.281469E+04
       155   9  6.429141E+05  5.545155E+04  3.571083E+04 -1.039523E+05 -1.077847E+04  1.812267E+04
       155  10  5.808310E+03 -8.634873E+04 -4.834807E+04 -1.015937E+05 -2.792024E-08 -4.962500E-10
       155  11  8.146980E+04 -7.113323E+04 -3.874996E+04 -9.675289E+04  7.795771E-09  1.691232E-09
       155  12  1.573133E+05 -5.467944E+04 -2.956634E+04 -1.041204E+05  4.584419E-08  4.326103E-09
       155  13  4.000659E+05  4.185152E+03  1.015154E+04 -1.040364E+05  4.456320E-09 -2.221324E-09
       155  14  3.996518E+05  1.331981E+03  5.478756E+03 -9.793244E+04  4.506728E-09 -7.485707E-09
       155  15  4.000836E+05  3.871268E+02  3.072093E+03 -1.040363E+05 -4.442744E-09 -1.267601E-08
       155  16  7.944798E+05  9.471177E+04  6.864826E+04 -1.064807E+05  2.785789E-08  2.009401E-10
       155  17  7.179364E+05  7.379272E+04  4.970624E+04 -9.911261E+04 -8.557490E-09  2.931864E-09
       155  18  6.429139E+05  5.545116E+04  3.571000E+04 -1.039521E+05 -4.648065E-08  5.354116E-09
       155  19  5.808676E+03 -8.634797E+04 -4.834648E+04 -1.015935E+05 -1.315938E+04 -2.588635E+04
       155  20  8.147016E+04 -7.113262E+04 -3.874859E+04 -9.675263E+04 -1.427695E+04 -2.281697E+04
       155  21  1.573137E+05 -5.467903E+04 -2.956527E+04 -1.041202E+05 -1.539426E+04 -1.812276E+04
       155  22  4.000662E+05  4.185888E+03  1.015291E+04 -1.040363E+05 -7.800475E+03 -2.588452E+04
       155  23  3.996519E+05  1.332547E+03  5.479782E+03 -9.793235E+04 -5.055592E+03 -2.281581E+04
       155  24  4.000837E+05  3.874810E+02  3.072720E+03 -1.040363E+05 -2.310336E+03 -1.812272E+04
       155  25  7.944800E+05  9.471249E+04  6.864953E+04 -1.064806E+05 -2.438301E+03 -2.588274E+04
       155  26  7.179366E+05  7.379328E+04  4.970725E+04 -9.911269E+04  4.170281E+03 -2.281469E+04
       155  27  6.429141E+05  5.545155E+04  3.571083E+04 -1.039523E+05  1.077847E+04 -1.812267E+04
       156   1  2.040259E+05 -4.409387E+04 -2.367942E+04 -1.040150E+05  1.506037E+04  1.484420E+04
       156   2  2.797313E+05 -2.713657E+04 -1.452187E+04 -9.791118E+04  1.493209E+04  9.180472E+03
       156   3  3.554852E+05 -1.009147E+04 -5.257469E+03 -1.041325E+05  1.480347E+04  3.300119E+03
       156   4  3.999291E+05  2.724353E+02  2.315389E+03 -1.040624E+05  1.857561E+03  1.484463E+04
       156   5  3.998658E+05  4.481350E+01  1.296800E+03 -9.789988E+04  1.213545E+03  9.181382E+03
       156   6  3.999355E+05 -5.145113E+00  7.427715E+02 -1.040624E+05  5.692109E+02  3.301526E+03
       156   7  5.958718E+05  4.463721E+04  2.831056E+04 -1.041097E+05 -1.134922E+04  1.484505E+04
       156   8  5.200154E+05  2.722569E+04  1.711607E+04 -9.788856E+04 -1.250753E+04  9.182291E+03
       156   9  4.443884E+05  1.008121E+04  6.743755E+03 -1.039923E+05 -1.366602E+04  3.302929E+03
       156  10  2.040256E+05 -4.409417E+04 -2.368026E+04 -1.040152E+05 -1.568357E-08  3.680152E-09
       156  11  2.797310E+05 -2.713672E+04 -1.452244E+04 -9.791129E+04 -1.344608E-08 -1.246476E-09
       156  12  3.554849E+05 -1.009154E+04 -5.257901E+03 -1.041326E+05 -1.116034E-08 -5.559659E-09
       156  13  3.999290E+05  2.721977E+02  2.314969E+03 -1.040624E+05 -4.472317E-09 -1.108902E-08
       156  14  3.998657E+05  4.472256E+01  1.296638E+03 -9.789988E+04 -3.242955E-09 -7.223002E-10
       156  15  3.999355E+05 -5.156907E+00  7.427504E+02 -1.040624E+05  5.454095E-10  9.704652E-09
       156  16  5.958716E+05  4.463694E+04  2.830990E+04 -1.041096E+05  1.059028E-08  4.700612E-09
       156  17  5.200152E+05  2.722556E+04  1.711562E+04 -9.788847E+04  1.023884E-08 -1.963659E-10
       156  18  4.443882E+05  1.008114E+04  6.743384E+03 -1.039922E+05  1.125233E-08 -5.642601E-09
       156  19  2.040259E+05 -4.409387E+04 -2.367942E+04 -1.040150E+05 -1.506037E+04 -1.484420E+04
       156  20  2.797313E+05 -2.713657E+04 -1.452187E+04 -9.791118E+04 -1.493209E+04 -9.180472E+03
       156  21  3.554852E+05 -1.009147E+04 -5.257469E+03 -1.041325E+05 -1.480347E+04 -3.300119E+03
       156  22  3.999291E+05  2.724353E+02  2.315389E+03 -1.040624E+05 -1.857561E+03 -1.484463E+04
       156  23  3.998658E+05  4.481350E+01  1.296800E+03 -9.789988E+04 -1.213545E+03 -9.181382E+03
       156  24  3.999355E+05 -5.145113E+00  7.427715E+02 -1.040624E+05 -5.692109E+02 -3.301526E+03
       156  25  5.958718E+05  4.463721E+04  2.831056E+04 -1.041097E+05  1.134922E+04 -1.484505E+04
       156  26  5.200154E+05  2.722569E+04  1.711607E+04 -9.788856E+04  1.250753E+04 -9.182291E+03
       156  27  4.443884E+05  1.008121E+04  6.743755E+03 -1.039923E+05  1.366602E+04 -3.302929E+03
       157   1  4.022330E+05  5.128612E+02  8.453430E+02 -1.041127E+05  1.470342E+04 -1.950671E+02
       157   2  4.779564E+05  1.756665E+04  1.024203E+04 -9.792996E+04  1.459760E+04 -6.201057E+03
       157   3  5.537057E+05  3.462362E+04  1.970997E+04 -1.040878E+05  1.449201E+04 -1.223024E+04
       157   4  3.999127E+05 -7.075431E+00  5.646063E+02 -1.040659E+05  4.531854E+02 -1.936122E+02
       157   5  3.998964E+05 -2.033275E+01  3.269397E+02 -9.789556E+04  2.912467E+02 -6.199896E+03
       157   6  3.999086E+05 -2.089598E+01  1.985446E+02 -1.040659E+05  1.295559E+02 -1.222939E+04
       157   7  3.975928E+05 -5.269033E+02  2.846324E+02 -1.040191E+05 -1.379700E+04 -1.921595E+02
       157   8  3.218432E+05 -1.760745E+04 -9.587399E+03 -9.786116E+04 -1.401340E+04 -6.198737E+03
       157   9  2.461363E+05 -3.466626E+04 -1.931219E+04 -1.040440E+05 -1.422952E+04 -1.222854E+04
       157  10  4.022328E+05  5.128031E+02  8.449369E+02 -1.041127E+05  4.629846E-08 -6.416124E-09
       157  11  4.779561E+05  1.756655E+04  1.024155E+04 -9.792988E+04  7.088586E-09 -4.652679E-09
       157  12  5.537054E+05  3.462340E+04  1.970929E+04 -1.040876E+05 -2.204325E-08 -1.709005E-09
       157  13  3.999127E+05 -7.075526E+00  5.646059E+02 -1.040659E+05  2.161562E-09  1.114836E-08
       157  14  3.998964E+05 -2.037406E+01  3.268673E+02 -9.789556E+04  4.225786E-09  5.812277E-09
       157  15  3.999086E+05 -2.105661E+01  1.982634E+02 -1.040659E+05 -8.902266E-10  5.505158E-10
       157  16  3.975926E+05 -5.269544E+02  2.842748E+02 -1.040191E+05 -4.677250E-08 -6.291188E-09
       157  17  3.218429E+05 -1.760755E+04 -9.587841E+03 -9.786123E+04 -9.722341E-09 -3.418280E-09
       157  18  2.461360E+05 -3.466648E+04 -1.931285E+04 -1.040441E+05  2.320554E-08 -1.639033E-09
       157  19  4.022330E+05  5.128612E+02  8.453430E+02 -1.041127E+05 -1.470342E+04  1.950671E+02
       157  20  4.779564E+05  1.756665E+04  1.024203E+04 -9.792996E+04 -1.459760E+04  6.201057E+03
       157  21  5.537057E+05  3.462362E+04  1.970997E+04 -1.040878E+05 -1.449201E+04  1.223024E+04
       157  22  3.999127E+05 -7.075431E+00  5.646063E+02 -1.040659E+05 -4.531854E+02  1.936122E+02
       157  23  3.998964E+05 -2.033275E+01  3.269397E+02 -9.789556E+04 -2.912467E+02  6.199896E+03
       157  24  3.999086E+05 -2.089598E+01  1.985446E+02 -1.040659E+05 -1.295559E+02  1.222939E+04
       157  25  3.975928E+05 -5.269033E+02  2.846324E+02 -1.040191E+05  1.379700E+04  1.921595E+02
       157  26  3.218432E+05 -1.760745E+04 -9.587399E+03 -9.786116E+04  1.401340E+04  6.198737E+03
       157  27  2.461363E+05 -3.466626E+04 -1.931219E+04 -1.040440E+05  1.422952E+04  1.222854E+04
       158   1  6.004730E+05  4.521729E+04  2.591372E+04 -1.040814E+05  1.445976E+04 -1.574840E+04
       158   2  6.762179E+05  6.226804E+04  3.548182E+04 -9.789235E+04  1.430643E+04 -2.176775E+04
       158   3  7.520029E+05  7.933548E+04  4.515676E+04 -1.040457E+05  1.415394E+04 -2.774585E+04
       158   4  3.999030E+05 -2.402963E+01  1.594338E+02 -1.040663E+05  9.711307E+01 -1.574796E+04
       158   5  3.998872E+05 -3.675671E+01  1.136752E+02 -9.789499E+04  4.102636E+01 -2.176838E+04
       158   6  3.998886E+05 -4.956981E+01  1.067329E+02 -1.040663E+05 -1.420153E+01 -2.774757E+04
       158   7  1.993747E+05 -4.526690E+04 -2.559427E+04 -1.040513E+05 -1.426113E+04 -1.574752E+04
       158   8  1.236353E+05 -6.234458E+04 -3.525404E+04 -9.789762E+04 -1.421834E+04 -2.176902E+04
       158   9  4.790188E+04 -7.943961E+04 -4.494308E+04 -1.040870E+05 -1.417471E+04 -2.774928E+04
       158  10  6.004727E+05  4.521697E+04  2.591287E+04 -1.040812E+05  4.048258E-09 -1.251305E-09
       158  11  6.762175E+05  6.226747E+04  3.548055E+04 -9.789210E+04  3.738131E-08 -3.176981E-09
       158  12  7.520024E+05  7.933460E+04  4.515494E+04 -1.040454E+05  7.024299E-08 -5.132727E-09
       158  13  3.999030E+05 -2.429598E+01  1.589676E+02 -1.040663E+05  2.439015E-09  7.248172E-10
       158  14  3.998871E+05 -3.726566E+01  1.127845E+02 -9.789499E+04 -1.883621E-09  6.562659E-09
       158  15  3.998884E+05 -5.039673E+01  1.052858E+02 -1.040663E+05  2.761052E-09  1.227013E-08
       158  16  1.993744E+05 -4.526722E+04 -2.559512E+04 -1.040515E+05 -6.365623E-09 -1.804653E-09
       158  17  1.236349E+05 -6.234515E+04 -3.525531E+04 -9.789787E+04 -3.900070E-08 -3.599879E-09
       158  18  4.790146E+04 -7.944049E+04 -4.494490E+04 -1.040873E+05 -6.918530E-08 -5.430143E-09
       158  19  6.004730E+05  4.521729E+04  2.591372E+04 -1.040814E+05 -1.445976E+04  1.574840E+04
       158  20  6.762179E+05  6.226804E+04  3.548182E+04 -9.789235E+04 -1.430643E+04  2.176775E+04
       158  21  7.520029E+05  7.933548E+04  4.515676E+04 -1.040457E+05 -1.415394E+04  2.774585E+04
       158  22  3.999030E+05 -2.402963E+01  1.594338E+02 -1.040663E+05 -9.711307E+01  1.574796E+04
       158  23  3.998872E+05 -3.675671E+01  1.136752E+02 -9.789499E+04 -4.102636E+01  2.176838E+04
       158  24  3.998886E+05 -4.956981E+01  1.067329E+02 -1.040663E+05  1.420153E+01  2.774757E+04
       158  25  1.993747E+05 -4.526690E+04 -2.559427E+04 -1.040513E+05  1.426113E+04  1.574752E+04
       158  26  1.236353E+05 -6.234458E+04 -3.525404E+04 -9.789762E+04  1.421834E+04  2.176902E+04
       158  27  4.790188E+04 -7.943961E+04 -4.494308E+04 -1.040870E+05  1.417471E+04  2.774928E+04
       159   1  7.988197E+05  8.994398E+04  5.148087E+04 -1.040274E+05  1.411218E+04 -3.122269E+04
       159   2  8.745434E+05  1.070580E+05  6.150700E+04 -9.783692E+04  1.322358E+04 -3.699919E+04
       159   3  9.504488E+05  1.243289E+05  7.215642E+04 -1.039709E+05  1.233621E+04 -4.243458E+04
       159   4  3.998863E+05 -5.932661E+01  1.156105E+02 -1.040624E+05 -3.354306E+01 -3.122526E+04
       159   5  3.998558E+05 -7.762080E+01  1.588051E+02 -9.789988E+04 -1.113074E+02 -3.700349E+04
       159   6  3.998616E+05 -7.929897E+01  2.626560E+02 -1.040624E+05 -1.877561E+02 -4.244047E+04
       159   7  1.116304E+03 -9.006911E+04 -5.124967E+04 -1.040974E+05 -1.417063E+04 -3.122783E+04
       159   8 -7.460083E+04 -1.072225E+05 -6.118990E+04 -9.796279E+04 -1.343650E+04 -3.700778E+04
       159   9 -1.504155E+05 -1.245001E+05 -7.163240E+04 -1.041538E+05 -1.270116E+04 -4.244636E+04
       159  10  7.988192E+05  8.994288E+04  5.147866E+04 -1.040271E+05 -6.718838E-08 -4.913494E-09
       159  11  8.745428E+05  1.070565E+05  6.150410E+04 -9.783652E+04 -4.000117E-08 -3.390038E-09
       159  12  9.504481E+05  1.243269E+05  7.215275E+04 -1.039705E+05 -9.229954E-10 -1.062959E-09
       159  13  3.998861E+05 -6.037380E+01  1.137779E+02 -1.040624E+05  2.163239E-09  1.212534E-08
       159  14  3.998555E+05 -7.909142E+01  1.562315E+02 -9.789989E+04  3.052516E-09  6.239838E-09
       159  15  3.998612E+05 -8.123351E+01  2.592705E+02 -1.040624E+05  1.040960E-09  1.365110E-09
       159  16  1.115827E+03 -9.007021E+04 -5.125188E+04 -1.040977E+05  6.776366E-08 -5.887659E-09
       159  17 -7.460139E+04 -1.072241E+05 -6.119282E+04 -9.796319E+04  3.339121E-08 -4.043615E-09
       159  18 -1.504161E+05 -1.245021E+05 -7.163609E+04 -1.041543E+05  9.924518E-11 -2.800371E-10
       159  19  7.988197E+05  8.994398E+04  5.148087E+04 -1.040274E+05 -1.411218E+04  3.122269E+04
       159  20  8.745434E+05  1.070580E+05  6.150700E+04 -9.783692E+04 -1.322358E+04  3.699919E+04
       159  21  9.504488E+05  1.243289E+05  7.215642E+04 -1.039709E+05 -1.233621E+04  4.243458E+04
       159  22  3.998863E+05 -5.932661E+01  1.156105E+02 -1.040624E+05  3.354306E+01  3.122526E+04
       159  23  3.998558E+05 -7.762080E+01  1.588051E+02 -9.789988E+04  1.113074E+02  3.700349E+04
       159  24  3.998616E+05 -7.929897E+01  2.626560E+02 -1.040624E+05  1.877561E+02  4.244047E+04
       159  25  1.116304E+03 -9.006911E+04 -5.124967E+04 -1.040974E+05  1.417063E+04  3.122783E+04
       159  26 -7.460083E+04 -1.072225E+05 -6.118990E+04 -9.796279E+04  1.343650E+04  3.700778E+04
       159  27 -1.504155E+05 -1.245001E+05 -7.163240E+04 -1.041538E+05  1.270116E+04  4.244636E+04
       160   1  9.974769E+05  1.350968E+05  7.912723E+04 -1.038881E+05  1.210175E+04 -4.556970E+04
       160   2  1.072778E+06  1.527828E+05  9.216018E+04 -9.789511E+04  5.716311E+03 -4.947772E+04
       160   3  1.149271E+06  1.717328E+05  1.096723E+05 -1.040400E+05 -6.699241E+02 -5.082672E+04
       160   4  3.998726E+05 -8.200609E+01  3.431241E+02 -1.040210E+05 -2.374315E+02 -4.557673E+04
       160   5  3.997899E+05 -9.853345E+00  5.975151E+02 -9.795167E+04 -5.335721E+02 -4.948504E+04
       160   6  3.998380E+05  2.706636E+02  1.107075E+03 -1.040211E+05 -8.296718E+02 -5.083286E+04
       160   7 -1.973671E+05 -1.352758E+05 -7.844295E+04 -1.041537E+05 -1.256531E+04 -4.558377E+04
       160   8 -2.727375E+05 -1.528222E+05 -9.096958E+04 -9.800816E+04 -6.776998E+03 -4.949236E+04
       160   9 -3.490293E+05 -1.712173E+05 -1.074672E+05 -1.040022E+05 -9.892346E+02 -5.083900E+04
       160  10  9.974762E+05  1.350946E+05  7.912306E+04 -1.038877E+05  1.606094E-07 -1.862142E-10
       160  11  1.072777E+06  1.527802E+05  9.215551E+04 -9.789489E+04 -8.627904E-09 -1.692203E-09
       160  12  1.149270E+06  1.717300E+05  1.096674E+05 -1.040400E+05 -1.771402E-07 -6.757045E-09
       160  13  3.998720E+05 -8.423712E+01  3.392197E+02 -1.040210E+05  2.179171E-09  2.090773E-09
       160  14  3.997893E+05 -1.248347E+01  5.929120E+02 -9.795169E+04  2.112003E-09  7.332102E-09
       160  15  3.998373E+05  2.678881E+02  1.102217E+03 -1.040211E+05 -1.877351E-10  1.101056E-08
       160  16 -1.973678E+05 -1.352781E+05 -7.844716E+04 -1.041542E+05 -1.587719E-07  5.272773E-11
       160  17 -2.727382E+05 -1.528248E+05 -9.097427E+04 -9.800843E+04  8.494312E-09 -2.344276E-09
       160  18 -3.490300E+05 -1.712200E+05 -1.074721E+05 -1.040022E+05  1.784905E-07 -5.930912E-09
       160  19  9.974769E+05  1.350968E+05  7.912723E+04 -1.038881E+05 -1.210175E+04  4.556970E+04
       160  20  1.072778E+06  1.527828E+05  9.216018E+04 -9.789511E+04 -5.716311E+03  4.947772E+04
       160  21  1.149271E+06  1.717328E+05  1.096723E+05 -1.040400E+05  6.699241E+02  5.082672E+04
       160  22  3.998726E+05 -8.200609E+01  3.431241E+02 -1.040210E+05  2.374315E+02  4.557673E+04
       160  23  3.997899E+05 -9.853345E+00  5.975151E+02 -9.795167E+04  5.335721E+02  4.948504E+04
       160  24  3.998380E+05  2.706636E+02  1.107075E+03 -1.040211E+05  8.296718E+02  5.083286E+04
       160  25 -1.973671E+05 -1.352758E+05 -7.844295E+04 -1.041537E+05  1.256531E+04  4.558377E+04
       160  26 -2.727375E+05 -1.528222E+05 -9.096958E+04 -9.800816E+04  6.776998E+03  4.949236E+04
       160  27 -3.490293E+05 -1.712173E+05 -1.074672E+05 -1.040022E+05  9.892346E+02  5.083900E+04
       161   1  1.197645E+06  1.837553E+05  1.212140E+05 -1.035876E+05 -2.265016E+03 -5.139644E+04
       161   2  1.269404E+06  2.060759E+05  1.560818E+05 -9.981874E+04 -4.915573E+04 -4.133649E+04
       161   3  1.349828E+06  2.384223E+05  2.239575E+05 -1.067743E+05 -9.607299E+04 -1.215775E+04
       161   4  3.999678E+05  4.245832E+02  1.484471E+03 -1.037063E+05 -1.023039E+03 -5.140232E+04
       161   5  3.995591E+05  1.610627E+03  2.730785E+03 -9.834578E+04 -2.404592E+03 -4.131586E+04
       161   6  3.999246E+05  4.936365E+03  5.419592E+03 -1.037085E+05 -3.805171E+03 -1.209852E+04
       161   7 -3.970722E+05 -1.829363E+05 -1.182577E+05 -1.038249E+05  2.174081E+02 -5.140821E+04
       161   8 -4.695424E+05 -2.028949E+05 -1.506397E+05 -9.687499E+04  4.428308E+04 -4.129499E+04
       161   9 -5.491267E+05 -2.286079E+05 -2.131461E+05 -1.006476E+05  8.832284E+04 -1.203834E+04
       161  10  1.197645E+06  1.837525E+05  1.212090E+05 -1.035876E+05  4.103378E-08 -8.820215E-09
       161  11  1.269401E+06  2.060735E+05  1.560740E+05 -9.982038E+04  4.595964E-09 -7.338086E-09
       161  12  1.349818E+06  2.384197E+05  2.239399E+05 -1.067752E+05 -3.033648E-08 -1.984932E-09
       161  13  3.999671E+05  4.217451E+02  1.479503E+03 -1.037063E+05 -4.332394E-10  7.624770E-09
       161  14  3.995587E+05  1.608792E+03  2.727565E+03 -9.834586E+04 -7.322413E-10  5.572743E-09
       161  15  3.999245E+05  4.936204E+03  5.419290E+03 -1.037086E+05  2.256690E-09  6.265259E-10
       161  16 -3.970729E+05 -1.829391E+05 -1.182626E+05 -1.038249E+05 -4.122137E-08 -7.302378E-09
       161  17 -4.695450E+05 -2.028973E+05 -1.506466E+05 -9.687351E+04 -6.194012E-09 -4.580919E-09
       161  18 -5.491352E+05 -2.286102E+05 -2.131610E+05 -1.006467E+05  3.079548E-08 -2.188088E-09
       161  19  1.197645E+06  1.837553E+05  1.212140E+05 -1.035876E+05  2.265016E+03  5.139644E+04
       161  20  1.269404E+06  2.060759E+05  1.560818E+05 -9.981874E+04  4.915573E+04  4.133649E+04
       161  21  1.349828E+06  2.384223E+05  2.239575E+05 -1.067743E+05  9.607299E+04  1.215775E+04
       161  22  3.999678E+05  4.245832E+02  1.484471E+03 -1.037063E+05  1.023039E+03  5.140232E+04
       161  23  3.995591E+05  1.610627E+03  2.730785E+03 -9.834578E+04  2.404592E+03  4.131586E+04
       161  24  3.999246E+05  4.936365E+03  5.419592E+03 -1.037085E+05  3.805171E+03  1.209852E+04
       161  25 -3.970722E+05 -1.829363E+05 -1.182577E+05 -1.038249E+05 -2.174081E+02  5.140821E+04
       161  26 -4.695424E+05 -2.028949E+05 -1.506397E+05 -9.687499E+04 -4.428308E+04  4.129499E+04
       161  27 -5.491267E+05 -2.286079E+05 -2.131461E+05 -1.006476E+05 -8.832284E+04  1.203834E+04
       162   1  2.031183E+05  9.880620E+05  1.941117E+05 -2.784729E+05  7.804172E+03  5.420362E+04
       162   2  1.426357E+05  7.688898E+05  1.170180E+05 -2.595547E+05  2.332801E+04  1.373057E+04
       162   3  9.012847E+04  5.570016E+05  6.823560E+04 -2.767956E+05  2.105642E+04 -2.673388E+04
       162   4  2.374561E+03  1.755141E+05  2.395097E+03 -2.764551E+05  7.851613E+03  2.987043E+02
       162   5  1.040613E+03  1.753446E+05  2.266293E+03 -2.583752E+05  2.334344E+04 -8.276374E+02
       162   6  8.642414E+02  1.755986E+05  3.153877E+03 -2.764563E+05  2.103208E+04 -1.959251E+03
       162   7 -1.984148E+05 -6.364212E+05 -1.893561E+05 -2.744397E+05  7.898748E+03 -5.353614E+04
       162   8 -1.405754E+05 -4.178619E+05 -1.125011E+05 -2.571967E+05  2.335883E+04 -1.537225E+04
       162   9 -8.840739E+04 -2.056602E+05 -6.193035E+04 -2.761172E+05  2.100775E+04  2.280065E+04
       162  10  2.031174E+05  9.880588E+05  1.941060E+05 -2.784733E+05 -2.460522E-09  3.746927E-08
       162  11  1.426351E+05  7.688895E+05  1.170166E+05 -2.595550E+05 -4.632459E-09  5.305170E-09
       162  12  9.012781E+04  5.570007E+05  6.823342E+04 -2.767951E+05 -6.478561E-09 -2.704589E-08
       162  13  2.374495E+03  1.755140E+05  2.394981E+03 -2.764551E+05  3.695451E-09 -4.623172E-10
       162  14  1.040028E+03  1.753445E+05  2.265268E+03 -2.583752E+05  7.211739E-09 -5.516939E-10
       162  15  8.637654E+02  1.755984E+05  3.153039E+03 -2.764563E+05  1.541612E-08 -2.741987E-10
       162  16 -1.984156E+05 -6.364243E+05 -1.893616E+05 -2.744394E+05 -7.898897E-10 -3.765549E-08
       162  17 -1.405760E+05 -4.178623E+05 -1.125025E+05 -2.571964E+05 -6.654139E-09 -4.878377E-09
       162  18 -8.840801E+04 -2.056609E+05 -6.193216E+04 -2.761176E+05 -8.498034E-09  2.759963E-08
       162  19  2.031183E+05  9.880620E+05  1.941117E+05 -2.784729E+05 -7.804172E+03 -5.420362E+04
       162  20  1.426357E+05  7.688898E+05  1.170180E+05 -2.595547E+05 -2.332801E+04 -1.373057E+04
       162  21  9.012847E+04  5.570016E+05  6.823560E+04 -2.767956E+05 -2.105642E+04  2.673388E+04
       162  22  2.374561E+03  1.755141E+05  2.395097E+03 -2.764551E+05 -7.851613E+03 -2.987043E+02
       162  23  1.040613E+03  1.753446E+05  2.266293E+03 -2.583752E+05 -2.334344E+04  8.276374E+02
       162  24  8.642414E+02  1.755986E+05  3.153877E+03 -2.764563E+05 -2.103208E+04  1.959251E+03
       162  25 -1.984148E+05 -6.364212E+05 -1.893561E+05 -2.744397E+05 -7.898748E+03  5.353614E+04
       162  26 -1.405754E+05 -4.178619E+05 -1.125011E+05 -2.571967E+05 -2.335883E+04  1.537225E+04
       162  27 -8.840739E+04 -2.056602E+05 -6.193035E+04 -2.761172E+05 -2.100775E+04 -2.280065E+04
       163   1  5.843259E+04  4.216442E+05  4.572575E+04 -2.772109E+05  1.372492E+04 -2.778829E+04
       163   2  8.693457E+03  2.057754E+05  1.113905E+04 -2.570668E+05  2.230053E+03 -3.147526E+04
       163   3 -3.873856E+04 -9.035490E+03 -2.048646E+04 -2.742437E+05 -9.420025E+03 -3.516134E+04
       163   4  9.124502E+02  1.757315E+05  3.955210E+03 -2.767142E+05  1.369877E+04 -2.559807E+03
       163   5  1.699773E+03  1.752576E+05  6.668571E+03 -2.580522E+05  2.203401E+03 -5.908197E+03
       163   6  4.736913E+03  1.757355E+05  1.210591E+04 -2.767107E+05 -9.447214E+03 -9.256890E+03
       163   7 -5.661055E+04 -7.012026E+04 -3.781491E+04 -2.762177E+05  1.367265E+04  2.265901E+04
       163   8 -5.293600E+03  1.447421E+05  2.200533E+03 -2.590375E+05  2.176667E+03  1.965766E+04
       163   9  4.821089E+04  3.605412E+05  4.469955E+04 -2.791785E+05 -9.474602E+03  1.665504E+04
       163  10  5.843218E+04  4.216433E+05  4.572395E+04 -2.772106E+05 -6.717701E-09 -3.591053E-08
       163  11  8.693186E+03  2.057744E+05  1.113718E+04 -2.570668E+05 -2.443696E-09 -7.537166E-09
       163  12 -3.873899E+04 -9.036842E+03 -2.048896E+04 -2.742440E+05 -1.669142E-09  1.826896E-08
       163  13  9.122470E+02  1.757315E+05  3.954845E+03 -2.767142E+05  1.413895E-08 -6.538189E-10
       163  14  1.699759E+03  1.752576E+05  6.668497E+03 -2.580522E+05  6.933781E-09 -6.893736E-10
       163  15  4.736794E+03  1.757353E+05  1.210558E+04 -2.767108E+05  3.481550E-09 -2.324606E-10
       163  16 -5.661089E+04 -7.012086E+04 -3.781623E+04 -2.762179E+05 -5.183239E-09  3.557561E-08
       163  17 -5.293708E+03  1.447417E+05  2.199798E+03 -2.590375E+05 -1.513421E-09  7.833355E-09
       163  18  4.821072E+04  3.605409E+05  4.469887E+04 -2.791784E+05  4.918859E-10 -1.766425E-08
       163  19  5.843259E+04  4.216442E+05  4.572575E+04 -2.772109E+05 -1.372492E+04  2.778829E+04
       163  20  8.693457E+03  2.057754E+05  1.113905E+04 -2.570668E+05 -2.230053E+03  3.147526E+04
       163  21 -3.873856E+04 -9.035490E+03 -2.048646E+04 -2.742437E+05  9.420025E+03  3.516134E+04
       163  22  9.124502E+02  1.757315E+05  3.955210E+03 -2.767142E+05 -1.369877E+04  2.559807E+03
       163  23  1.699773E+03  1.752576E+05  6.668571E+03 -2.580522E+05 -2.203401E+03  5.908197E+03
       163  24  4.736913E+03  1.757355E+05  1.210591E+04 -2.767107E+05  9.447214E+03  9.256890E+03
       163  25 -5.661055E+04 -7.012026E+04 -3.781491E+04 -2.762177E+05 -1.367265E+04 -2.265901E+04
       163  26 -5.293600E+03  1.447421E+05  2.200533E+03 -2.590375E+05 -2.176667E+03 -1.965766E+04
       163  27  4.821089E+04  3.605412E+05  4.469955E+04 -2.791785E+05  9.474602E+03 -1.665504E+04
       164   1 -6.911753E+04 -1.427994E+05 -3.955957E+04 -2.755077E+05 -1.689870E+04 -3.684348E+04
       164   2 -1.087824E+05 -3.590595E+05 -7.440643E+04 -2.390852E+05 -2.020135E+04 -1.546881E+04
       164   3 -1.301399E+05 -5.734927E+05 -1.186022E+05 -2.389292E+05 -6.967260E+03  5.903953E+03
       164   4  6.042569E+03  1.773135E+05  1.611851E+04 -2.764766E+05 -1.692446E+04 -1.136108E+04
       164   5  1.853228E+04  1.732191E+05  2.962423E+04 -2.583271E+05 -2.018894E+04 -2.648961E+04
       164   6  5.565698E+04  1.772332E+05  5.912585E+04 -2.764358E+05 -6.924493E+03 -4.161252E+04
       164   7  8.119748E+04  4.975283E+05  7.179544E+04 -2.774459E+05 -1.695030E+04  1.413407E+04
       164   8  1.458314E+05  7.057706E+05  1.336420E+05 -2.775857E+05 -2.017586E+04 -3.751964E+04
       164   9  2.414198E+05  9.284851E+05  2.368240E+05 -3.139877E+05 -6.876018E+03 -8.918615E+04
       164  10 -6.911820E+04 -1.428009E+05 -3.956266E+04 -2.755082E+05 -1.079467E-09  3.722819E-09
       164  11 -1.087829E+05 -3.590599E+05 -7.440765E+04 -2.390855E+05  4.734003E-11  2.349768E-09
       164  12 -1.301399E+05 -5.734927E+05 -1.186024E+05 -2.389292E+05 -1.218102E-09 -6.163406E-10
       164  13  6.042227E+03  1.773133E+05  1.611773E+04 -2.764767E+05  3.683478E-09 -6.551582E-10
       164  14  1.853166E+04  1.732183E+05  2.962214E+04 -2.583275E+05  4.386931E-09 -5.625172E-10
       164  15  5.565646E+04  1.772314E+05  5.912250E+04 -2.764360E+05  1.854162E-09 -2.015184E-10
       164  16  8.119711E+04  4.975280E+05  7.179452E+04 -2.774457E+05 -6.571159E-11 -3.947798E-09
       164  17  1.458306E+05  7.057690E+05  1.336386E+05 -2.775863E+05 -1.885616E-09 -1.828488E-09
       164  18  2.414176E+05  9.284765E+05  2.368090E+05 -3.139882E+05  8.724888E-10  1.086522E-09
       164  19 -6.911753E+04 -1.427994E+05 -3.955957E+04 -2.755077E+05  1.689870E+04  3.684348E+04
       164  20 -1.087824E+05 -3.590595E+05 -7.440643E+04 -2.390852E+05  2.020135E+04  1.546881E+04
       164  21 -1.301399E+05 -5.734927E+05 -1.186022E+05 -2.389292E+05  6.967260E+03 -5.903953E+03
       164  22  6.042569E+03  1.773135E+05  1.611851E+04 -2.764766E+05  1.692446E+04  1.136108E+04
       164  23  1.853228E+04  1.732191E+05  2.962423E+04 -2.583271E+05  2.018894E+04  2.648961E+04
       164  24  5.565698E+04  1.772332E+05  5.912585E+04 -2.764358E+05  6.924493E+03  4.161252E+04
       164  25  8.119748E+04  4.975283E+05  7.179544E+04 -2.774459E+05  1.695030E+04 -1.413407E+04
       164  26  1.458314E+05  7.057706E+05  1.336420E+05 -2.775857E+05  2.017586E+04  3.751964E+04
       164  27  2.414198E+05  9.284851E+05  2.368240E+05 -3.139877E+05  6.876018E+03  8.918615E+04
       165   1 -3.977013E+05 -2.268874E+05 -1.428292E+05 -1.692087E+05 -7.016979E+04 -2.251679E+04
       165   2 -3.733196E+05 -1.405882E+05 -8.192432E+04 -1.579185E+05 -4.383738E+04 -4.166837E+03
       165   3 -3.653873E+05 -1.066018E+05 -5.554142E+04 -1.410528E+05 -1.513034E+04  7.864923E+03
       165   4 -1.956452E+05 -1.116062E+05 -8.282598E+04 -7.333050E+04 -5.473076E+04 -1.672698E+04
       165   5 -1.837874E+05 -5.410394E+04 -3.791714E+04 -8.822383E+04 -3.761977E+04 -1.834943E+03
       165   6 -1.865459E+05 -4.708081E+04 -2.021619E+04 -9.754459E+04 -1.813547E+04  6.736967E+03
       165   7  6.452514E+03  3.695343E+03 -2.282619E+04  2.257999E+04 -3.928649E+04 -1.093271E+04
       165   8  5.781532E+03  3.238886E+04  6.087667E+03 -1.850793E+04 -3.140015E+04  4.981336E+02
       165   9 -7.670727E+03  1.244189E+04  1.510785E+04 -5.402516E+04 -2.114154E+04  5.608728E+03
       165  10 -3.977067E+05 -2.268892E+05 -1.428394E+05 -1.692099E+05 -5.857083E-10  1.287308E-10
       165  11 -3.733217E+05 -1.405888E+05 -8.192797E+04 -1.579187E+05  1.674828E-09  1.325072E-09
       165  12 -3.653875E+05 -1.066019E+05 -5.554197E+04 -1.410527E+05  3.107438E-09 -9.055511E-10
       165  13 -1.956485E+05 -1.116073E+05 -8.283214E+04 -7.333123E+04 -1.156053E-10  9.277379E-10
       165  14 -1.837889E+05 -5.410432E+04 -3.791981E+04 -8.822389E+04  8.622498E-10  1.242952E-09
       165  15 -1.865463E+05 -4.708095E+04 -2.021690E+04 -9.754450E+04 -4.537001E-10 -1.651145E-10
       165  16  6.450824E+03  3.694800E+03 -2.282931E+04  2.257964E+04  1.837123E-09  7.627212E-10
       165  17  5.780473E+03  3.238859E+04  6.085814E+03 -1.850791E+04 -1.309956E-09  6.600963E-10
       165  18 -7.671216E+03  1.244174E+04  1.510696E+04 -5.402506E+04 -2.565943E-09  1.479312E-09
       165  19 -3.977013E+05 -2.268874E+05 -1.428292E+05 -1.692087E+05  7.016979E+04  2.251679E+04
       165  20 -3.733196E+05 -1.405882E+05 -8.192432E+04 -1.579185E+05  4.383738E+04  4.166837E+03
       165  21 -3.653873E+05 -1.066018E+05 -5.554142E+04 -1.410528E+05  1.513034E+04 -7.864923E+03
       165  22 -1.956452E+05 -1.116062E+05 -8.282598E+04 -7.333050E+04  5.473076E+04  1.672698E+04
       165  23 -1.837874E+05 -5.410394E+04 -3.791714E+04 -8.822383E+04  3.761977E+04  1.834943E+03
       165  24 -1.865459E+05 -4.708081E+04 -2.021619E+04 -9.754459E+04  1.813547E+04 -6.736967E+03
       165  25  6.452514E+03  3.695343E+03 -2.282619E+04  2.257999E+04  3.928649E+04  1.093271E+04
       165  26  5.781532E+03  3.238886E+04  6.087667E+03 -1.850793E+04  3.140015E+04 -4.981336E+02
       165  27 -7.670727E+03  1.244189E+04  1.510785E+04 -5.402516E+04  2.114154E+04 -5.608728E+03
       166   1 -3.388643E+05 -1.065860E+05 -4.677588E+04 -1.395387E+05 -1.352195E+04  7.085780E+03
       166   2 -3.132085E+05 -9.079535E+04 -3.338452E+04 -1.288664E+05 -8.223617E+03  7.389437E+03
       166   3 -2.836813E+05 -8.250867E+04 -2.410359E+04 -1.239005E+05 -2.758445E+03  7.248504E+03
       166   4 -1.840473E+05 -4.913778E+04 -1.540985E+04 -9.568313E+04 -1.535501E+04  6.397634E+03
       166   5 -1.858637E+05 -4.415594E+04 -8.139895E+03 -9.331480E+04 -1.070484E+04  6.458250E+03
       166   6 -1.836804E+05 -4.654937E+04 -4.465906E+03 -9.665318E+04 -5.888041E+03  6.074236E+03
       166   7 -2.920693E+04  8.312255E+03  1.595465E+04 -5.181770E+04 -1.718855E+04  5.709303E+03
       166   8 -5.850212E+04  2.484935E+03  1.710400E+04 -5.775643E+04 -1.318662E+04  5.526855E+03
       166   9 -8.366836E+04 -1.058894E+04  1.517160E+04 -6.940163E+04 -9.018204E+03  4.899762E+03
       166  10 -3.388645E+05 -1.065861E+05 -4.677632E+04 -1.395387E+05 -2.693360E-08 -1.234870E-08
       166  11 -3.132086E+05 -9.079543E+04 -3.338475E+04 -1.288664E+05 -1.300895E-09 -4.421576E-10
       166  12 -2.836813E+05 -8.250873E+04 -2.410370E+04 -1.239004E+05  3.337321E-08  1.465406E-08
       166  13 -1.840476E+05 -4.913788E+04 -1.541037E+04 -9.568306E+04 -8.092841E-09 -2.636727E-09
       166  14 -1.858639E+05 -4.415601E+04 -8.140189E+03 -9.331475E+04 -7.973327E-09 -4.949973E-09
       166  15 -1.836805E+05 -4.654942E+04 -4.466040E+03 -9.665315E+04 -1.338530E-11 -1.194655E-09
       166  16 -2.920725E+04  8.312140E+03  1.595403E+04 -5.181763E+04  1.541303E-08  7.051778E-09
       166  17 -5.850232E+04  2.484856E+03  1.710362E+04 -5.775637E+04 -2.075546E-08 -9.967856E-09
       166  18 -8.366846E+04 -1.058899E+04  1.517140E+04 -6.940159E+04 -3.894448E-08 -1.692426E-08
       166  19 -3.388643E+05 -1.065860E+05 -4.677588E+04 -1.395387E+05  1.352195E+04 -7.085780E+03
       166  20 -3.132085E+05 -9.079535E+04 -3.338452E+04 -1.288664E+05  8.223617E+03 -7.389437E+03
       166  21 -2.836813E+05 -8.250867E+04 -2.410359E+04 -1.239005E+05  2.758445E+03 -7.248504E+03
       166  22 -1.840473E+05 -4.913778E+04 -1.540985E+04 -9.568313E+04  1.535501E+04 -6.397634E+03
       166  23 -1.858637E+05 -4.415594E+04 -8.139895E+03 -9.331480E+04  1.070484E+04 -6.458250E+03
       166  24 -1.836804E+05 -4.654937E+04 -4.465906E+03 -9.665318E+04  5.888041E+03 -6.074236E+03
       166  25 -2.920693E+04  8.312255E+03  1.595465E+04 -5.181770E+04  1.718855E+04 -5.709303E+03
       166  26 -5.850212E+04  2.484935E+03  1.710400E+04 -5.775643E+04  1.318662E+04 -5.526855E+03
       166  27 -8.366836E+04 -1.058894E+04  1.517160E+04 -6.940163E+04  9.018204E+03 -4.899762E+03
       167   1 -2.644011E+05 -7.594917E+04 -1.914708E+04 -1.188457E+05 -1.745795E+03  6.204177E+03
       167   2 -2.390249E+05 -6.308289E+04 -1.220524E+04 -1.080850E+05  1.031431E+01  4.464203E+03
       167   3 -2.084991E+05 -5.564160E+04 -6.008393E+03 -1.034251E+05  1.778105E+03  2.692798E+03
       167   4 -1.834962E+05 -4.664071E+04 -3.360242E+03 -9.654267E+04 -4.793461E+03  5.060729E+03
       167   5 -1.860711E+05 -4.390750E+04 -1.847656E+03 -9.350146E+04 -3.083149E+03  3.303658E+03
       167   6 -1.834880E+05 -4.659014E+04 -1.043657E+03 -9.656114E+04 -1.361209E+03  1.515145E+03
       167   7 -1.025845E+05 -1.733169E+04  1.242633E+04 -7.423698E+04 -7.841551E+03  3.917123E+03
       167   8 -1.331146E+05 -2.473195E+04  8.509780E+03 -7.891679E+04 -6.176882E+03  2.143013E+03
       167   9 -1.584764E+05 -3.753870E+04  3.921030E+03 -8.969699E+04 -4.500631E+03  3.374520E+02
       167  10 -2.644011E+05 -7.594921E+04 -1.914716E+04 -1.188457E+05 -1.763913E-08 -5.748746E-09
       167  11 -2.390249E+05 -6.308292E+04 -1.220528E+04 -1.080850E+05 -1.152134E-09 -2.121766E-09
       167  12 -2.084991E+05 -5.564161E+04 -6.008412E+03 -1.034251E+05  5.771006E-09  2.345275E-10
       167  13 -1.834962E+05 -4.664074E+04 -3.360333E+03 -9.654265E+04  5.290959E-09  2.005768E-09
       167  14 -1.860711E+05 -4.390752E+04 -1.847694E+03 -9.350145E+04  7.997217E-09  2.137813E-09
       167  15 -1.834880E+05 -4.659014E+04 -1.043665E+03 -9.656114E+04 -9.147581E-09 -3.267014E-09
       167  16 -1.025846E+05 -1.733172E+04  1.242619E+04 -7.423695E+04  2.613693E-08  1.016975E-08
       167  17 -1.331146E+05 -2.473197E+04  8.509700E+03 -7.891678E+04  5.668789E-09  5.560134E-09
       167  18 -1.584765E+05 -3.753870E+04  3.920992E+03 -8.969699E+04 -2.127523E-08 -6.747449E-09
       167  19 -2.644011E+05 -7.594917E+04 -1.914708E+04 -1.188457E+05  1.745795E+03 -6.204177E+03
       167  20 -2.390249E+05 -6.308289E+04 -1.220524E+04 -1.080850E+05 -1.031431E+01 -4.464203E+03
       167  21 -2.084991E+05 -5.564160E+04 -6.008393E+03 -1.034251E+05 -1.778105E+03 -2.692798E+03
       167  22 -1.834962E+05 -4.664071E+04 -3.360242E+03 -9.654267E+04  4.793461E+03 -5.060729E+03
       167  23 -1.860711E+05 -4.390750E+04 -1.847656E+03 -9.350146E+04  3.083149E+03 -3.303658E+03
       167  24 -1.834880E+05 -4.659014E+04 -1.043657E+03 -9.656114E+04  1.361209E+03 -1.515145E+03
       167  25 -1.025845E+05 -1.733169E+04  1.242633E+04 -7.423698E+04  7.841551E+03 -3.917123E+03
       167  26 -1.331146E+05 -2.473195E+04  8.509780E+03 -7.891679E+04  6.176882E+03 -2.143013E+03
       167  27 -1.584764E+05 -3.753870E+04  3.921030E+03 -8.969699E+04  4.500631E+03 -3.374520E+02
       168   1 -1.896155E+05 -4.877337E+04 -1.923580E+03 -9.821346E+04  2.395300E+03  1.496909E+03
       168   2 -1.643191E+05 -3.598091E+04  3.757017E+03 -8.742632E+04  3.454124E+03 -5.548798E+02
       168   3 -1.337438E+05 -2.850914E+04  9.248341E+03 -8.273244E+04  4.513684E+03 -2.608501E+03
       168   4 -1.834648E+05 -4.659398E+04 -8.034528E+02 -9.655015E+04 -7.383638E+02  3.213906E+02
       168   5 -1.861047E+05 -4.393905E+04 -5.035198E+02 -9.350132E+04  3.176753E+02 -1.731487E+03
       168   6 -1.834666E+05 -4.660463E+04 -3.908590E+02 -9.654628E+04  1.374436E+03 -3.786195E+03
       168   7 -1.773139E+05 -4.441455E+04  3.167305E+02 -9.488681E+04 -3.872088E+03 -8.541503E+02
       168   8 -2.078899E+05 -5.189718E+04 -4.764063E+03 -9.957614E+04 -2.818669E+03 -2.908054E+03
       168   9 -2.331868E+05 -6.469990E+04 -1.003013E+04 -1.103591E+05 -1.764544E+03 -4.963788E+03
       168  10 -1.896155E+05 -4.877337E+04 -1.923595E+03 -9.821346E+04 -2.004656E-08 -6.442238E-09
       168  11 -1.643191E+05 -3.598091E+04  3.756994E+03 -8.742632E+04 -9.164113E-09  1.401225E-09
       168  12 -1.337438E+05 -2.850915E+04  9.248290E+03 -8.273243E+04  3.037828E-09  1.725674E-09
       168  13 -1.834648E+05 -4.659398E+04 -8.034540E+02 -9.655015E+04 -1.178487E-08 -3.583223E-09
       168  14 -1.861047E+05 -4.393905E+04 -5.035256E+02 -9.350132E+04  1.043246E-09  2.481832E-10
       168  15 -1.834666E+05 -4.660464E+04 -3.908895E+02 -9.654628E+04  5.070055E-10 -9.476317E-10
       168  16 -1.773139E+05 -4.441455E+04  3.167009E+02 -9.488681E+04 -1.311335E-09 -6.675807E-10
       168  17 -2.078899E+05 -5.189719E+04 -4.764094E+03 -9.957615E+04  4.830427E-09 -9.270129E-10
       168  18 -2.331868E+05 -6.469992E+04 -1.003018E+04 -1.103591E+05 -3.859819E-09 -3.922265E-09
       168  19 -1.896155E+05 -4.877337E+04 -1.923580E+03 -9.821346E+04 -2.395300E+03 -1.496909E+03
       168  20 -1.643191E+05 -3.598091E+04  3.757017E+03 -8.742632E+04 -3.454124E+03  5.548798E+02
       168  21 -1.337438E+05 -2.850914E+04  9.248341E+03 -8.273244E+04 -4.513684E+03  2.608501E+03
       168  22 -1.834648E+05 -4.659398E+04 -8.034528E+02 -9.655015E+04  7.383638E+02 -3.213906E+02
       168  23 -1.861047E+05 -4.393905E+04 -5.035198E+02 -9.350132E+04 -3.176753E+02  1.731487E+03
       168  24 -1.834666E+05 -4.660463E+04 -3.908590E+02 -9.654628E+04 -1.374436E+03  3.786195E+03
       168  25 -1.773139E+05 -4.441455E+04  3.167305E+02 -9.488681E+04  3.872088E+03  8.541503E+02
       168  26 -2.078899E+05 -5.189718E+04 -4.764063E+03 -9.957614E+04  2.818669E+03  2.908054E+03
       168  27 -2.331868E+05 -6.469990E+04 -1.003013E+04 -1.103591E+05  1.764544E+03  4.963788E+03
       169   1 -1.149002E+05 -2.162604E+04  1.309451E+04 -7.751707E+04  5.048189E+03 -3.835332E+03
       169   2 -8.961281E+04 -8.828394E+03  1.837201E+04 -6.673318E+04  6.091630E+03 -5.893903E+03
       169   3 -5.904509E+04 -1.348620E+03  2.347237E+04 -6.204001E+04  7.133924E+03 -7.948895E+03
       169   4 -1.834672E+05 -4.660493E+04 -3.879558E+02 -9.654572E+04  1.908983E+03 -5.013063E+03
       169   5 -1.861070E+05 -4.394367E+04 -4.874596E+02 -9.350122E+04  2.957488E+03 -7.069883E+03
       169   6 -1.834682E+05 -4.660131E+04 -7.680888E+02 -9.654771E+04  4.004840E+03 -9.123135E+03
       169   7 -2.520288E+05 -7.158318E+04 -1.387043E+04 -1.155723E+05 -1.229825E+03 -6.190644E+03
       169   8 -2.825915E+05 -7.905812E+04 -1.934730E+04 -1.202654E+05 -1.761315E+02 -8.245667E+03
       169   9 -3.078762E+05 -9.185302E+04 -2.500949E+04 -1.310493E+05  8.764017E+02 -1.029713E+04
       169  10 -1.149003E+05 -2.162606E+04  1.309443E+04 -7.751705E+04 -6.078275E-09 -2.880639E-09
       169  11 -8.961285E+04 -8.828441E+03  1.837187E+04 -6.673315E+04  5.517580E-09  1.487865E-09
       169  12 -5.904516E+04 -1.348702E+03  2.347216E+04 -6.203997E+04  1.123207E-08  1.054905E-09
       169  13 -1.834673E+05 -4.660495E+04 -3.880099E+02 -9.654571E+04  2.329738E-09 -6.153281E-10
       169  14 -1.861070E+05 -4.394373E+04 -4.875699E+02 -9.350120E+04  4.399130E-10  1.828941E-09
       169  15 -1.834682E+05 -4.660140E+04 -7.682754E+02 -9.654768E+04  5.014843E-09  3.457140E-10
       169  16 -2.520288E+05 -7.158322E+04 -1.387051E+04 -1.155723E+05  9.286217E-09  1.416011E-09
       169  17 -2.825915E+05 -7.905820E+04 -1.934743E+04 -1.202654E+05  2.634789E-09  3.056130E-09
       169  18 -3.078763E+05 -9.185314E+04 -2.500969E+04 -1.310493E+05 -1.841231E-09 -1.610213E-10
       169  19 -1.149002E+05 -2.162604E+04  1.309451E+04 -7.751707E+04 -5.048189E+03  3.835332E+03
       169  20 -8.961281E+04 -8.828394E+03  1.837201E+04 -6.673318E+04 -6.091630E+03  5.893903E+03
       169  21 -5.904509E+04 -1.348620E+03  2.347237E+04 -6.204001E+04 -7.133924E+03  7.948895E+03
       169  22 -1.834672E+05 -4.660493E+04 -3.879558E+02 -9.654572E+04 -1.908983E+03  5.013063E+03
       169  23 -1.861070E+05 -4.394367E+04 -4.874596E+02 -9.350122E+04 -2.957488E+03  7.069883E+03
       169  24 -1.834682E+05 -4.660131E+04 -7.680888E+02 -9.654771E+04 -4.004840E+03  9.123135E+03
       169  25 -2.520288E+05 -7.158318E+04 -1.387043E+04 -1.155723E+05  1.229825E+03  6.190644E+03
       169  26 -2.825915E+05 -7.905812E+04 -1.934730E+04 -1.202654E+05  1.761315E+02  8.245667E+03
       169  27 -3.078762E+05 -9.185302E+04 -2.500949E+04 -1.310493E+05 -8.764017E+02  1.029713E+04
       170   1 -4.022052E+04  5.525194E+03  2.708773E+04 -5.684770E+04  7.757602E+03 -9.141167E+03
       170   2 -1.489350E+04  1.832343E+04  3.172134E+04 -4.607120E+04  9.362076E+03 -1.096231E+04
       170   3  1.561073E+04  2.572907E+04  3.573623E+04 -4.138645E+04  1.094916E+04 -1.273611E+04
       170   4 -1.834919E+05 -4.659816E+04 -9.948226E+02 -9.655702E+04  4.620543E+03 -1.031853E+04
       170   5 -1.860792E+05 -4.392211E+04 -1.756654E+03 -9.350157E+04  6.293779E+03 -1.211413E+04
       170   6 -1.835035E+05 -4.665250E+04 -3.191763E+03 -9.653834E+04  7.949573E+03 -1.386240E+04
       170   7 -3.267420E+05 -9.871969E+04 -2.907825E+04 -1.362578E+05  1.484263E+03 -1.149560E+04
       170   8 -3.572337E+05 -1.061648E+05 -3.523571E+04 -1.409196E+05  3.226402E+03 -1.326562E+04
       170   9 -3.825748E+05 -1.190299E+05 -4.212103E+04 -1.516734E+05  4.951047E+03 -1.498830E+04
       170  10 -4.022060E+04  5.525088E+03  2.708746E+04 -5.684764E+04  2.211284E-09 -1.482228E-09
       170  11 -1.489362E+04  1.832328E+04  3.172095E+04 -4.607112E+04 -1.679875E-09  2.488093E-09
       170  12  1.561056E+04  2.572886E+04  3.573570E+04 -4.138634E+04 -1.790317E-09  4.017935E-09
       170  13 -1.834920E+05 -4.659828E+04 -9.950627E+02 -9.655698E+04 -2.072460E-09 -2.678055E-10
       170  14 -1.860793E+05 -4.392228E+04 -1.757004E+03 -9.350151E+04 -4.603488E-09  1.542483E-09
       170  15 -1.835036E+05 -4.665272E+04 -3.192243E+03 -9.653825E+04 -2.503858E-09  1.245033E-09
       170  16 -3.267421E+05 -9.871983E+04 -2.907850E+04 -1.362578E+05  1.028229E-09  1.154993E-09
       170  17 -3.572338E+05 -1.061650E+05 -3.523606E+04 -1.409196E+05 -2.296502E-09 -2.100661E-10
       170  18 -3.825749E+05 -1.190302E+05 -4.212150E+04 -1.516733E+05 -4.978107E-10 -1.117916E-09
       170  19 -4.022052E+04  5.525194E+03  2.708773E+04 -5.684770E+04 -7.757602E+03  9.141167E+03
       170  20 -1.489350E+04  1.832343E+04  3.172134E+04 -4.607120E+04 -9.362076E+03  1.096231E+04
       170  21  1.561073E+04  2.572907E+04  3.573623E+04 -4.138645E+04 -1.094916E+04  1.273611E+04
       170  22 -1.834919E+05 -4.659816E+04 -9.948226E+02 -9.655702E+04 -4.620543E+03  1.031853E+04
       170  23 -1.860792E+05 -4.392211E+04 -1.756654E+03 -9.350157E+04 -6.293779E+03  1.211413E+04
       170  24 -1.835035E+05 -4.665250E+04 -3.191763E+03 -9.653834E+04 -7.949573E+03  1.386240E+04
       170  25 -3.267420E+05 -9.871969E+04 -2.907825E+04 -1.362578E+05 -1.484263E+03  1.149560E+04
       170  26 -3.572337E+05 -1.061648E+05 -3.523571E+04 -1.409196E+05 -3.226402E+03  1.326562E+04
       170  27 -3.825748E+05 -1.190299E+05 -4.212103E+04 -1.516734E+05 -4.951047E+03  1.498830E+04
       171   1  3.450476E+04  3.248120E+04  3.853717E+04 -3.652490E+04  1.213365E+04 -1.371228E+04
       171   2  5.960520E+04  4.553298E+04  4.076098E+04 -2.495429E+04  1.573252E+04 -1.442039E+04
       171   3  8.895081E+04  5.152894E+04  4.034031E+04 -1.908071E+04  1.908279E+04 -1.446462E+04
       171   4 -1.836808E+05 -4.656324E+04 -4.240621E+03 -9.663821E+04  9.012002E+03 -1.488458E+04
       171   5 -1.858830E+05 -4.417027E+04 -7.728953E+03 -9.332829E+04  1.357890E+04 -1.522967E+04
       171   6 -1.840335E+05 -4.902607E+04 -1.462985E+04 -9.571621E+04  1.789698E+04 -1.491079E+04
       171   7 -4.018190E+05 -1.256044E+05 -4.702107E+04 -1.567326E+05  5.891509E+03 -1.605645E+04
       171   8 -4.313100E+05 -1.338686E+05 -5.622197E+04 -1.616775E+05  1.142617E+04 -1.603861E+04
       171   9 -4.569411E+05 -1.495743E+05 -6.960367E+04 -1.723205E+05  1.671173E+04 -1.535675E+04
       171  10  3.450455E+04  3.248096E+04  3.853654E+04 -3.652476E+04  2.532182E-08  1.188423E-08
       171  11  5.960488E+04  4.553269E+04  4.076012E+04 -2.495411E+04  1.143057E-08  2.807575E-09
       171  12  8.895036E+04  5.152862E+04  4.033923E+04 -1.908049E+04 -1.625227E-08 -8.162160E-09
       171  13 -1.836809E+05 -4.656350E+04 -4.241190E+03 -9.663811E+04  3.415088E-09  2.307304E-09
       171  14 -1.858833E+05 -4.417057E+04 -7.729735E+03 -9.332812E+04  5.265019E-09  4.299207E-09
       171  15 -1.840340E+05 -4.902639E+04 -1.463087E+04 -9.571600E+04  4.887654E-09  3.490344E-09
       171  16 -4.018191E+05 -1.256046E+05 -4.702162E+04 -1.567325E+05 -1.604149E-08 -7.614254E-09
       171  17 -4.313102E+05 -1.338689E+05 -5.622270E+04 -1.616774E+05  1.214080E-08  5.806061E-09
       171  18 -4.569415E+05 -1.495747E+05 -6.960464E+04 -1.723203E+05  3.015471E-08  1.529286E-08
       171  19  3.450476E+04  3.248120E+04  3.853717E+04 -3.652490E+04 -1.213365E+04  1.371228E+04
       171  20  5.960520E+04  4.553298E+04  4.076098E+04 -2.495429E+04 -1.573252E+04  1.442039E+04
       171  21  8.895081E+04  5.152894E+04  4.034031E+04 -1.908071E+04 -1.908279E+04  1.446462E+04
       171  22 -1.836808E+05 -4.656324E+04 -4.240621E+03 -9.663821E+04 -9.012002E+03  1.488458E+04
       171  23 -1.858830E+05 -4.417027E+04 -7.728953E+03 -9.332829E+04 -1.357890E+04  1.522967E+04
       171  24 -1.840335E+05 -4.902607E+04 -1.462985E+04 -9.571621E+04 -1.789698E+04  1.491079E+04
       171  25 -4.018190E+05 -1.256044E+05 -4.702107E+04 -1.567326E+05 -5.891509E+03  1.605645E+04
       171  26 -4.313100E+05 -1.338686E+05 -5.622197E+04 -1.616775E+05 -1.142617E+04  1.603861E+04
       171  27 -4.569411E+05 -1.495743E+05 -6.960367E+04 -1.723205E+05 -1.671173E+04  1.535675E+04
       172   1  1.104305E+05  5.588321E+04  3.978820E+04 -2.083215E+04  2.348769E+04 -1.416930E+04
       172   2  1.241128E+05  7.555525E+04  3.328301E+04  1.307859E+04  2.759158E+04 -9.536009E+03
       172   3  1.267533E+05  4.996877E+04  1.186702E+04  5.218336E+04  2.815282E+04  4.527497E+03
       172   4 -1.864397E+05 -4.704063E+04 -1.919237E+04 -9.744369E+04  2.055197E+04 -1.527257E+04
       172   5 -1.838768E+05 -5.366079E+04 -3.599803E+04 -8.854373E+04  3.842522E+04 -5.468447E+03
       172   6 -1.950931E+05 -1.082827E+05 -7.863098E+04 -7.444891E+04  5.275431E+04  1.376751E+04
       172   7 -4.832188E+05 -1.499589E+05 -7.817697E+04 -1.740222E+05  1.761778E+04 -1.637533E+04
       172   8 -4.917649E+05 -1.828591E+05 -1.052833E+05 -1.901155E+05  4.925292E+04 -1.403814E+03
       172   9 -5.168255E+05 -2.664992E+05 -1.691334E+05 -2.010110E+05  7.734129E+04  2.299832E+04
       172  10  1.104299E+05  5.588285E+04  3.978678E+04 -2.083188E+04  4.600139E-09  5.729431E-10
       172  11  1.241120E+05  7.555495E+04  3.328141E+04  1.307880E+04 -1.223656E-08 -4.853009E-09
       172  12  1.267524E+05  4.996853E+04  1.186550E+04  5.218326E+04 -1.097846E-08 -4.734749E-09
       172  13 -1.864402E+05 -4.704099E+04 -1.919360E+04 -9.744344E+04 -4.299589E-09 -4.842690E-10
       172  14 -1.838784E+05 -5.366122E+04 -3.600086E+04 -8.854356E+04 -8.630099E-09 -3.033962E-09
       172  15 -1.950961E+05 -1.082836E+05 -7.863657E+04 -7.444950E+04 -1.986117E-09 -1.039885E-09
       172  16 -4.832192E+05 -1.499593E+05 -7.817805E+04 -1.740220E+05 -7.919290E-09  7.629977E-10
       172  17 -4.917675E+05 -1.828597E+05 -1.052879E+05 -1.901154E+05 -5.606236E-09 -1.742672E-09
       172  18 -5.168320E+05 -2.665014E+05 -1.691457E+05 -2.010124E+05  3.639866E-09  6.137453E-10
       172  19  1.104305E+05  5.588321E+04  3.978820E+04 -2.083215E+04 -2.348769E+04  1.416930E+04
       172  20  1.241128E+05  7.555525E+04  3.328301E+04  1.307859E+04 -2.759158E+04  9.536009E+03
       172  21  1.267533E+05  4.996877E+04  1.186702E+04  5.218336E+04 -2.815282E+04 -4.527497E+03
       172  22 -1.864397E+05 -4.704063E+04 -1.919237E+04 -9.744369E+04 -2.055197E+04  1.527257E+04
       172  23 -1.838768E+05 -5.366079E+04 -3.599803E+04 -8.854373E+04 -3.842522E+04  5.468447E+03
       172  24 -1.950931E+05 -1.082827E+05 -7.863098E+04 -7.444891E+04 -5.275431E+04 -1.376751E+04
       172  25 -4.832188E+05 -1.499589E+05 -7.817697E+04 -1.740222E+05 -1.761778E+04  1.637533E+04
       172  26 -4.917649E+05 -1.828591E+05 -1.052833E+05 -1.901155E+05 -4.925292E+04  1.403814E+03
       172  27 -5.168255E+05 -2.664992E+05 -1.691334E+05 -2.010110E+05 -7.734129E+04 -2.299832E+04
       173   1  8.473511E+05  1.284652E+05  1.137487E+05  1.354422E+04  3.308616E+04 -9.820652E+03
       173   2  8.121490E+05  1.447055E+05  9.548389E+04  2.710016E+04  1.333104E+04 -3.399615E+04
       173   3  7.755594E+05  1.450248E+05  8.610821E+04  4.566793E+04 -6.434216E+03 -4.315814E+04
       173   4  1.257965E+05 -4.891492E+04 -5.236401E+04  4.581992E+04 -3.687588E+04 -9.887379E+03
       173   5  1.293780E+05 -1.607180E+04 -2.621731E+04  4.328924E+04 -2.344874E+04 -3.403807E+04
       173   6  1.258089E+05 -4.918506E+03 -1.421419E+04  4.577017E+04 -1.003317E+04 -4.316664E+04
       173   7 -5.952641E+05 -2.263249E+05 -2.184923E+05  7.805773E+04 -1.067573E+05 -9.961417E+03
       173   8 -5.529350E+05 -1.768731E+05 -1.479309E+05  5.945989E+04 -6.018926E+04 -3.408193E+04
       173   9 -5.235201E+05 -1.548823E+05 -1.145461E+05  4.587218E+04 -1.362851E+04 -4.317515E+04
       173  10  8.473499E+05  1.284648E+05  1.137465E+05  1.354448E+04  4.408981E-09 -8.262342E-10
       173  11  8.121485E+05  1.447042E+05  9.548138E+04  2.710053E+04  3.306615E-09 -2.963993E-09
       173  12  7.755589E+05  1.450227E+05  8.610463E+04  4.566771E+04 -2.617786E-09 -1.526667E-09
       173  13  1.257950E+05 -4.891539E+04 -5.236675E+04  4.581962E+04 -4.253965E-09  1.432768E-10
       173  14  1.293771E+05 -1.607320E+04 -2.622052E+04  4.328859E+04  3.232791E-09 -2.489725E-09
       173  15  1.258083E+05 -4.920534E+03 -1.421788E+04  4.576983E+04  1.191137E-09 -2.177567E-10
       173  16 -5.952764E+05 -2.263280E+05 -2.185139E+05  7.805688E+04 -4.126773E-09 -3.476821E-10
       173  17 -5.529392E+05 -1.768753E+05 -1.479399E+05  5.945824E+04 -3.075658E-11 -4.422407E-09
       173  18 -5.235208E+05 -1.548843E+05 -1.145500E+05  4.587171E+04  9.114574E-10 -3.948355E-09
       173  19  8.473511E+05  1.284652E+05  1.137487E+05  1.354422E+04 -3.308616E+04  9.820652E+03
       173  20  8.121490E+05  1.447055E+05  9.548389E+04  2.710016E+04 -1.333104E+04  3.399615E+04
       173  21  7.755594E+05  1.450248E+05  8.610821E+04  4.566793E+04  6.434216E+03  4.315814E+04
       173  22  1.257965E+05 -4.891492E+04 -5.236401E+04  4.581992E+04  3.687588E+04  9.887379E+03
       173  23  1.293780E+05 -1.607180E+04 -2.621731E+04  4.328924E+04  2.344874E+04  3.403807E+04
       173  24  1.258089E+05 -4.918506E+03 -1.421419E+04  4.577017E+04  1.003317E+04  4.316664E+04
       173  25 -5.952641E+05 -2.263249E+05 -2.184923E+05  7.805773E+04  1.067573E+05  9.961417E+03
       173  26 -5.529350E+05 -1.768731E+05 -1.479309E+05  5.945989E+04  6.018926E+04  3.408193E+04
       173  27 -5.235201E+05 -1.548823E+05 -1.145461E+05  4.587218E+04  1.362851E+04  4.317515E+04
       174   1  7.537115E+05  1.402972E+05  8.338528E+04  4.451277E+04 -5.017353E+03 -4.349297E+04
       174   2  7.180315E+05  1.338331E+05  7.851147E+04  4.260055E+04 -6.247274E+03 -4.399939E+04
       174   3  6.822326E+05  1.262345E+05  7.415721E+04  4.678559E+04 -7.479860E+03 -4.263937E+04
       174   4  1.272174E+05 -3.736066E+03 -1.064360E+04  4.601427E+04 -8.189561E+03 -4.350110E+04
       174   5  1.276420E+05 -1.039964E+03 -5.774322E+03  4.296303E+04 -5.296482E+03 -4.400235E+04
       174   6  1.272311E+05 -1.943797E+02 -3.247830E+03  4.600945E+04 -2.406061E+03 -4.263624E+04
       174   7 -4.988831E+05 -1.477879E+05 -1.046802E+05  4.751408E+04 -1.135870E+04 -4.350925E+04
       174   8 -4.623954E+05 -1.359288E+05 -9.006526E+04  4.332504E+04 -4.346552E+03 -4.400531E+04
       174   9 -4.274582E+05 -1.266369E+05 -8.065661E+04  4.523392E+04  2.663407E+03 -4.263312E+04
       174  10  7.537110E+05  1.402951E+05  8.338168E+04  4.451259E+04 -1.811224E-09 -2.027334E-09
       174  11  7.180310E+05  1.338310E+05  7.850776E+04  4.260033E+04 -2.552099E-09  7.461571E-10
       174  12  6.822320E+05  1.262325E+05  7.415369E+04  4.678533E+04 -1.397916E-09  1.998234E-09
       174  13  1.272168E+05 -3.738116E+03 -1.064728E+04  4.601399E+04 -2.157040E-09 -1.657887E-09
       174  14  1.276415E+05 -1.042050E+03 -5.778013E+03  4.296284E+04 -1.072690E-09  9.994703E-11
       174  15  1.272306E+05 -1.963335E+02 -3.251257E+03  4.600937E+04  1.605742E-09 -2.085358E-10
       174  16 -4.988837E+05 -1.477899E+05 -1.046840E+05  4.751368E+04 -1.397989E-10 -6.022847E-10
       174  17 -4.623960E+05 -1.359309E+05 -9.006893E+04  4.332488E+04  2.786355E-09  1.002699E-09
       174  18 -4.274587E+05 -1.266389E+05 -8.066004E+04  4.523401E+04  1.606009E-09  1.464480E-09
       174  19  7.537115E+05  1.402972E+05  8.338528E+04  4.451277E+04  5.017353E+03  4.349297E+04
       174  20  7.180315E+05  1.338331E+05  7.851147E+04  4.260055E+04  6.247274E+03  4.399939E+04
       174  21  6.822326E+05  1.262345E+05  7.415721E+04  4.678559E+04  7.479860E+03  4.263937E+04
       174  22  1.272174E+05 -3.736066E+03 -1.064360E+04  4.601427E+04  8.189561E+03  4.350110E+04
       174  23  1.276420E+05 -1.039964E+03 -5.774322E+03  4.296303E+04  5.296482E+03  4.400235E+04
       174  24  1.272311E+05 -1.943797E+02 -3.247830E+03  4.600945E+04  2.406061E+03  4.263624E+04
       174  25 -4.988831E+05 -1.477879E+05 -1.046802E+05  4.751408E+04  1.135870E+04  4.350925E+04
       174  26 -4.623954E+05 -1.359288E+05 -9.006526E+04  4.332504E+04  4.346552E+03  4.400531E+04
       174  27 -4.274582E+05 -1.266369E+05 -8.065661E+04  4.523392E+04 -2.663407E+03  4.263312E+04
       175   1  6.600223E+05  1.211271E+05  7.139423E+04  4.663687E+04 -7.049084E+03 -4.122695E+04
       175   2  6.243390E+05  1.130814E+05  6.703659E+04  4.353836E+04 -6.878538E+03 -3.879206E+04
       175   3  5.886178E+05  1.049937E+05  6.255595E+04  4.666664E+04 -6.709067E+03 -3.612557E+04
       175   4  1.273929E+05 -1.186713E+02 -2.452009E+03  4.603856E+04 -1.923372E+03 -4.122326E+04
       175   5  1.274629E+05  6.680958E+01 -1.378562E+03  4.292484E+04 -1.241630E+03 -3.878683E+04
       175   6  1.274049E+05  1.215342E+02 -7.832560E+02  4.603819E+04 -5.609527E+02 -3.611871E+04
       175   7 -4.049488E+05 -1.213770E+05 -7.630152E+04  4.544068E+04  3.198142E+03 -4.121957E+04
       175   8 -3.691626E+05 -1.129586E+05 -6.979636E+04  4.231173E+04  4.390974E+03 -3.878161E+04
       175   9 -3.335920E+05 -1.047599E+05 -6.412466E+04  4.541014E+04  5.582804E+03 -3.611185E+04
       175  10  6.600218E+05  1.211253E+05  7.139094E+04  4.663663E+04  6.078969E-08  5.181924E-09
       175  11  6.243386E+05  1.130798E+05  6.703367E+04  4.353815E+04 -3.394922E-10  7.030776E-09
       175  12  5.886174E+05  1.049922E+05  6.255342E+04  4.666645E+04 -6.547022E-08  2.552312E-09
       175  13  1.273924E+05 -1.204972E+02 -2.455209E+03  4.603850E+04 -2.224161E-09  4.463504E-10
       175  14  1.274625E+05  6.519359E+01 -1.381392E+03  4.292480E+04 -5.352087E-09  5.592547E-09
       175  15  1.274045E+05  1.201332E+02 -7.857082E+02  4.603817E+04  1.194985E-09  6.028757E-09
       175  16 -4.049493E+05 -1.213788E+05 -7.630473E+04  4.544079E+04 -6.113203E-08  3.219611E-09
       175  17 -3.691630E+05 -1.129602E+05 -6.979923E+04  4.231187E+04  1.590394E-09  5.324702E-09
       175  18 -3.335923E+05 -1.047613E+05 -6.412717E+04  4.541030E+04  6.753397E-08  3.965318E-09
       175  19  6.600223E+05  1.211271E+05  7.139423E+04  4.663687E+04  7.049084E+03  4.122695E+04
       175  20  6.243390E+05  1.130814E+05  6.703659E+04  4.353836E+04  6.878538E+03  3.879206E+04
       175  21  5.886178E+05  1.049937E+05  6.255595E+04  4.666664E+04  6.709067E+03  3.612557E+04
       175  22  1.273929E+05 -1.186713E+02 -2.452009E+03  4.603856E+04  1.923372E+03  4.122326E+04
       175  23  1.274629E+05  6.680958E+01 -1.378562E+03  4.292484E+04  1.241630E+03  3.878683E+04
       175  24  1.274049E+05  1.215342E+02 -7.832560E+02  4.603819E+04  5.609527E+02  3.611871E+04
       175  25 -4.049488E+05 -1.213770E+05 -7.630152E+04  4.544068E+04 -3.198142E+03  4.121957E+04
       175  26 -3.691626E+05 -1.129586E+05 -6.979636E+04  4.231173E+04 -4.390974E+03  3.878161E+04
       175  27 -3.335920E+05 -1.047599E+05 -6.412466E+04  4.541014E+04 -5.582804E+03  3.611185E+04
       176   1  5.663927E+05  9.990617E+04  5.953114E+04  4.662787E+04 -6.594114E+03 -3.449687E+04
       176   2  5.307210E+05  9.179527E+04  5.489890E+04  4.346662E+04 -6.497112E+03 -3.169772E+04
       176   3  4.950298E+05  8.370749E+04  5.020513E+04  4.654453E+04 -6.400799E+03 -2.887021E+04
       176   4  1.274299E+05  1.245550E+02 -5.906744E+02  4.604097E+04 -4.403569E+02 -3.448952E+04
       176   5  1.274510E+05  1.262022E+02 -3.295961E+02  4.292127E+04 -2.810049E+02 -3.168955E+04
       176   6  1.274397E+05  1.400174E+02 -1.736562E+02  4.604096E+04 -1.223373E+02 -2.886121E+04
       176   7 -3.113370E+05 -9.966546E+04 -6.071441E+04  4.545443E+04  5.709249E+03 -3.448219E+04
       176   8 -2.756538E+05 -9.154995E+04 -5.555969E+04  4.237622E+04  5.931250E+03 -3.168139E+04
       176   9 -2.400130E+05 -8.343334E+04 -5.055375E+04  4.553765E+04  6.152577E+03 -2.885222E+04
       176  10  5.663923E+05  9.990489E+04  5.952883E+04  4.662769E+04 -4.169276E-09  8.987308E-10
       176  11  5.307207E+05  9.179418E+04  5.489693E+04  4.346645E+04 -3.725891E-08  5.239287E-09
       176  12  4.950295E+05  8.370658E+04  5.020348E+04  4.654438E+04 -6.966894E-08  3.373299E-09
       176  13  1.274296E+05  1.232775E+02 -5.929102E+02  4.604096E+04  2.155023E-09 -6.193955E-11
       176  14  1.274507E+05  1.251238E+02 -3.314835E+02  4.292126E+04 -9.997798E-10 -4.506699E-09
       176  15  1.274395E+05  1.391228E+02 -1.752217E+02  4.604096E+04 -1.623996E-09 -1.532311E-08
       176  16 -3.113374E+05 -9.966675E+04 -6.071671E+04  4.545459E+04  3.635644E-09  3.296644E-09
       176  17 -2.756541E+05 -9.155104E+04 -5.556164E+04  4.237638E+04  3.951036E-08  2.542963E-09
       176  18 -2.400132E+05 -8.343424E+04 -5.055538E+04  4.553779E+04  6.667926E-08  2.690471E-09
       176  19  5.663927E+05  9.990617E+04  5.953114E+04  4.662787E+04  6.594114E+03  3.449687E+04
       176  20  5.307210E+05  9.179527E+04  5.489890E+04  4.346662E+04  6.497112E+03  3.169772E+04
       176  21  4.950298E+05  8.370749E+04  5.020513E+04  4.654453E+04  6.400799E+03  2.887021E+04
       176  22  1.274299E+05  1.245550E+02 -5.906744E+02  4.604097E+04  4.403569E+02  3.448952E+04
       176  23  1.274510E+05  1.262022E+02 -3.295961E+02  4.292127E+04  2.810049E+02  3.168955E+04
       176  24  1.274397E+05  1.400174E+02 -1.736562E+02  4.604096E+04  1.223373E+02  2.886121E+04
       176  25 -3.113370E+05 -9.966546E+04 -6.071441E+04  4.545443E+04 -5.709249E+03  3.448219E+04
       176  26 -2.756538E+05 -9.154995E+04 -5.555969E+04  4.237622E+04 -5.931250E+03  3.168139E+04
       176  27 -2.400130E+05 -8.343334E+04 -5.055375E+04  4.553765E+04 -6.152577E+03  2.885222E+04
       177   1  4.728101E+05  7.863186E+04  4.708518E+04  4.651888E+04 -6.376646E+03 -2.721528E+04
       177   2  4.371519E+05  7.052917E+04  4.234448E+04  4.335683E+04 -6.369436E+03 -2.437223E+04
       177   3  4.014791E+05  6.245159E+04  3.759886E+04  4.643646E+04 -6.362724E+03 -2.152665E+04
       177   4  1.274462E+05  1.419159E+02 -1.194167E+02  4.604152E+04 -9.816375E+01 -2.720589E+04
       177   5  1.274582E+05  1.345103E+02 -3.463536E+01  4.292058E+04 -8.547645E+01 -2.436228E+04
       177   6  1.274538E+05  1.514249E+02  4.147680E+01  4.604151E+04 -7.328632E+01 -2.151612E+04
       177   7 -2.177963E+05 -7.835321E+04 -4.732512E+04  4.556437E+04  6.176987E+03 -2.719652E+04
       177   8 -1.821379E+05 -7.026431E+04 -4.241462E+04  4.248451E+04  6.195492E+03 -2.435233E+04
       177   9 -1.464952E+05 -6.215200E+04 -3.751656E+04  4.564670E+04  6.213502E+03 -2.150560E+04
       177  10  4.728098E+05  7.863105E+04  4.708372E+04  4.651874E+04  7.234102E-08 -2.587792E-10
       177  11  4.371517E+05  7.052852E+04  4.234329E+04  4.335670E+04  4.065950E-08 -1.677034E-09
       177  12  4.014789E+05  6.245108E+04  3.759791E+04  4.643635E+04 -1.316176E-10 -1.786267E-09
       177  13  1.274460E+05  1.411211E+02 -1.208077E+02  4.604151E+04  4.358246E-09 -1.223817E-08
       177  14  1.274581E+05  1.338730E+02 -3.575078E+01  4.292058E+04  1.117817E-09 -1.001669E-08
       177  15  1.274536E+05  1.509277E+02  4.060678E+01  4.604151E+04 -2.364432E-09 -5.259493E-09
       177  16 -2.177966E+05 -7.835401E+04 -4.732659E+04  4.556451E+04 -7.290628E-08  3.801805E-09
       177  17 -1.821381E+05 -7.026496E+04 -4.241581E+04  4.248464E+04 -4.287275E-08 -1.533070E-09
       177  18 -1.464954E+05 -6.215250E+04 -3.751750E+04  4.564681E+04 -3.192965E-09 -3.182583E-09
       177  19  4.728101E+05  7.863186E+04  4.708518E+04  4.651888E+04  6.376646E+03  2.721528E+04
       177  20  4.371519E+05  7.052917E+04  4.234448E+04  4.335683E+04  6.369436E+03  2.437223E+04
       177  21  4.014791E+05  6.245159E+04  3.759886E+04  4.643646E+04  6.362724E+03  2.152665E+04
       177  22  1.274462E+05  1.419159E+02 -1.194167E+02  4.604152E+04  9.816375E+01  2.720589E+04
       177  23  1.274582E+05  1.345103E+02 -3.463536E+01  4.292058E+04  8.547645E+01  2.436228E+04
       177  24  1.274538E+05  1.514249E+02  4.147680E+01  4.604151E+04  7.328632E+01  2.151612E+04
       177  25 -2.177963E+05 -7.835321E+04 -4.732512E+04  4.556437E+04 -6.176987E+03  2.719652E+04
       177  26 -1.821379E+05 -7.026431E+04 -4.241462E+04  4.248451E+04 -6.195492E+03  2.435233E+04
       177  27 -1.464952E+05 -6.215200E+04 -3.751656E+04  4.564670E+04 -6.213502E+03  2.150560E+04
       178   1  3.792698E+05  5.737919E+04  3.447074E+04  4.641167E+04 -6.375724E+03 -1.986952E+04
       178   2  3.436170E+05  4.928448E+04  2.975450E+04  4.324071E+04 -6.461660E+03 -1.702557E+04
       178   3  3.079624E+05  4.123427E+04  2.509746E+04  4.630850E+04 -6.547926E+03 -1.418699E+04
       178   4  1.274594E+05  1.537275E+02  8.217422E+01  4.604085E+04 -8.693493E+01 -1.985871E+04
       178   5  1.274626E+05  1.515320E+02  1.874482E+02  4.292138E+04 -1.849020E+02 -1.701439E+04
       178   6  1.274646E+05  1.959531E+02  3.601756E+02  4.604078E+04 -2.832035E+02 -1.417545E+04
       178   7 -1.242865E+05 -5.707447E+04 -3.430690E+04  4.567016E+04  6.199421E+03 -1.984791E+04
       178   8 -8.864433E+04 -4.898343E+04 -2.937995E+04  4.260215E+04  6.089771E+03 -1.700322E+04
       178   9 -5.299995E+04 -4.084377E+04 -2.437731E+04  4.577313E+04  5.979781E+03 -1.416390E+04
       178  10  3.792696E+05  5.737875E+04  3.446992E+04  4.641157E+04 -1.160013E-09  2.563687E-09
       178  11  3.436169E+05  4.928415E+04  2.975388E+04  4.324062E+04 -6.500893E-10  3.752390E-09
       178  12  3.079623E+05  4.123404E+04  2.509700E+04  4.630842E+04  3.334595E-09  4.118973E-09
       178  13  1.274593E+05  1.533040E+02  8.143306E+01  4.604085E+04 -4.303123E-09  9.683456E-11
       178  14  1.274625E+05  1.512211E+02  1.869041E+02  4.292138E+04 -2.157300E-09  1.278243E-09
       178  15  1.274646E+05  1.957373E+02  3.597978E+02  4.604078E+04  8.634467E-10  3.167949E-09
       178  16 -1.242866E+05 -5.707491E+04 -3.430772E+04  4.567026E+04  2.914958E-10 -4.624083E-10
       178  17 -8.864445E+04 -4.898375E+04 -2.938056E+04  4.260223E+04 -1.604002E-09 -4.325905E-09
       178  18 -5.300004E+04 -4.084399E+04 -2.437776E+04  4.577320E+04 -3.395466E-09  7.352048E-10
       178  19  3.792698E+05  5.737919E+04  3.447074E+04  4.641167E+04  6.375724E+03  1.986952E+04
       178  20  3.436170E+05  4.928448E+04  2.975450E+04  4.324071E+04  6.461660E+03  1.702557E+04
       178  21  3.079624E+05  4.123427E+04  2.509746E+04  4.630850E+04  6.547926E+03  1.418699E+04
       178  22  1.274594E+05  1.537275E+02  8.217422E+01  4.604085E+04  8.693493E+01  1.985871E+04
       178  23  1.274626E+05  1.515320E+02  1.874482E+02  4.292138E+04  1.849020E+02  1.701439E+04
       178  24  1.274646E+05  1.959531E+02  3.601756E+02  4.604078E+04  2.832035E+02  1.417545E+04
       178  25 -1.242865E+05 -5.707447E+04 -3.430690E+04  4.567016E+04 -6.199421E+03  1.984791E+04
       178  26 -8.864433E+04 -4.898343E+04 -2.937995E+04  4.260215E+04 -6.089771E+03  1.700322E+04
       178  27 -5.299995E+04 -4.084377E+04 -2.437731E+04  4.577313E+04 -5.979781E+03  1.416390E+04
       179   1  2.857775E+05  3.617122E+04  2.204557E+04  4.630245E+04 -6.620821E+03 -1.253507E+04
       179   2  2.500875E+05  2.818821E+04  1.756936E+04  4.296138E+04 -6.962442E+03 -9.722750E+03
       179   3  2.144881E+05  2.049612E+04  1.337959E+04  4.585395E+04 -7.304154E+03 -6.955433E+03
       179   4  1.274898E+05  2.084221E+02  4.838974E+02  4.603972E+04 -3.577661E+02 -1.252335E+04
       179   5  1.274383E+05  3.243793E+02  8.708603E+02  4.292237E+04 -7.989432E+02 -9.710999E+03
       179   6  1.274928E+05  7.484252E+02  1.613126E+03  4.603870E+04 -1.240226E+03 -6.943661E+03
       179   7 -3.077224E+04 -3.575544E+04 -2.107789E+04  4.577704E+04  5.903765E+03 -1.251163E+04
       179   8  4.804503E+03 -2.754009E+04 -1.582765E+04  4.288335E+04  5.363394E+03 -9.699247E+03
       179   9  4.050520E+04 -1.899957E+04 -1.015327E+04  4.622343E+04  4.822892E+03 -6.931884E+03
       179  10  2.857774E+05  3.617104E+04  2.204520E+04  4.630239E+04  2.794532E-08  6.580764E-09
       179  11  2.500874E+05  2.818810E+04  1.756910E+04  4.296133E+04 -1.635258E-09 -2.123755E-09
       179  12  2.144880E+05  2.049605E+04  1.337940E+04  4.585390E+04 -3.035729E-08 -2.578206E-09
       179  13  1.274898E+05  2.082536E+02  4.836024E+02  4.603972E+04  2.151686E-09  5.643855E-09
       179  14  1.274383E+05  3.242778E+02  8.706819E+02  4.292236E+04 -1.071373E-09  9.760988E-09
       179  15  1.274927E+05  7.483730E+02  1.613033E+03  4.603869E+04  3.001480E-10  1.001858E-08
       179  16 -3.077232E+04 -3.575562E+04 -2.107825E+04  4.577710E+04 -2.499094E-08  3.855726E-09
       179  17  4.804447E+03 -2.754020E+04 -1.582788E+04  4.288339E+04  6.316748E-09 -1.039323E-09
       179  18  4.050516E+04 -1.899963E+04 -1.015341E+04  4.622345E+04  2.867701E-08 -1.172090E-08
       179  19  2.857775E+05  3.617122E+04  2.204557E+04  4.630245E+04  6.620821E+03  1.253507E+04
       179  20  2.500875E+05  2.818821E+04  1.756936E+04  4.296138E+04  6.962442E+03  9.722750E+03
       179  21  2.144881E+05  2.049612E+04  1.337959E+04  4.585395E+04  7.304154E+03  6.955433E+03
       179  22  1.274898E+05  2.084221E+02  4.838974E+02  4.603972E+04  3.577661E+02  1.252335E+04
       179  23  1.274383E+05  3.243793E+02  8.708603E+02  4.292237E+04  7.989432E+02  9.710999E+03
       179  24  1.274928E+05  7.484252E+02  1.613126E+03  4.603870E+04  1.240226E+03  6.943661E+03
       179  25 -3.077224E+04 -3.575544E+04 -2.107789E+04  4.577704E+04 -5.903765E+03  1.251163E+04
       179  26  4.804503E+03 -2.754009E+04 -1.582765E+04  4.288335E+04 -5.363394E+03  9.699247E+03
       179  27  4.050520E+04 -1.899957E+04 -1.015327E+04  4.622343E+04 -4.822892E+03  6.931884E+03
       180   1  1.924747E+05  1.558382E+04  1.068151E+04  4.602836E+04 -7.576061E+03 -5.346063E+03
       180   2  1.563769E+05  9.099617E+03  7.292917E+03  4.042620E+04 -8.815822E+03 -2.788230E+03
       180   3  1.212080E+05  5.800833E+03  5.498683E+03  4.102767E+04 -1.005492E+04 -5.917632E+02
       180   4  1.277069E+05  9.278729E+02  2.156121E+03  4.603295E+04 -1.522733E+03 -5.334229E+03
       180   5  1.271737E+05  2.608985E+03  3.978850E+03  4.292474E+04 -3.560643E+03 -2.777947E+03
       180   6  1.277072E+05  7.614245E+03  7.950148E+03  4.602007E+04 -5.597960E+03 -5.830506E+02
       180   7  6.294346E+04 -1.372823E+04 -6.369159E+03  4.603753E+04  4.529994E+03 -5.322395E+03
       180   8  9.797157E+04 -3.881639E+03  6.648959E+02  4.542316E+04  1.694303E+03 -2.767622E+03
       180   9  1.342065E+05  9.427756E+03  1.040170E+04  5.101252E+04 -1.140951E+03 -5.742664E+02
       180  10  1.924746E+05  1.558377E+04  1.068135E+04  4.602833E+04  3.895730E-08 -3.637004E-09
       180  11  1.563768E+05  9.099588E+03  7.292756E+03  4.042618E+04  6.601245E-09 -5.632733E-09
       180  12  1.212079E+05  5.800806E+03  5.498493E+03  4.102766E+04 -2.474777E-08 -5.944612E-10
       180  13  1.277069E+05  9.278417E+02  2.156063E+03  4.603294E+04  4.396102E-09  1.317344E-08
       180  14  1.271737E+05  2.608974E+03  3.978812E+03  4.292473E+04 -2.224939E-09  1.868236E-09
       180  15  1.277072E+05  7.614236E+03  7.950088E+03  4.602007E+04 -6.815920E-10  3.153765E-09
       180  16  6.294343E+04 -1.372826E+04 -6.369250E+03  4.603755E+04 -3.972632E-08 -7.823878E-09
       180  17  9.797156E+04 -3.881648E+03  6.648761E+02  4.542316E+04 -6.139587E-09 -4.387123E-09
       180  18  1.342065E+05  9.427755E+03  1.040169E+04  5.101252E+04  2.577905E-08 -2.132128E-09
       180  19  1.924747E+05  1.558382E+04  1.068151E+04  4.602836E+04  7.576061E+03  5.346063E+03
       180  20  1.563769E+05  9.099617E+03  7.292917E+03  4.042620E+04  8.815822E+03  2.788230E+03
       180  21  1.212080E+05  5.800833E+03  5.498683E+03  4.102767E+04  1.005492E+04  5.917632E+02
       180  22  1.277069E+05  9.278729E+02  2.156121E+03  4.603295E+04  1.522733E+03  5.334229E+03
       180  23  1.271737E+05  2.608985E+03  3.978850E+03  4.292474E+04  3.560643E+03  2.777947E+03
       180  24  1.277072E+05  7.614245E+03  7.950148E+03  4.602007E+04  5.597960E+03  5.830506E+02
       180  25  6.294346E+04 -1.372823E+04 -6.369159E+03  4.603753E+04 -4.529994E+03  5.322395E+03
       180  26  9.797157E+04 -3.881639E+03  6.648959E+02  4.542316E+04 -1.694303E+03  2.767622E+03
       180  27  1.342065E+05  9.427756E+03  1.040170E+04  5.101252E+04  1.140951E+03  5.742664E+02
       181   1  7.627596E+03  4.139990E+05  9.162420E+03 -3.816521E+04 -5.786285E+02  1.437436E+03
       181   2 -6.780465E+03  3.782743E+05 -8.079127E+02 -3.132892E+04 -2.710200E+03 -1.610071E+03
       181   3 -1.629307E+04  3.441524E+05 -7.576290E+03 -3.303020E+04 -5.074993E+03 -4.657597E+03
       181   4  7.556143E+03  4.142252E+05  8.630597E+03 -3.347340E+04 -5.815098E+02  4.586727E+03
       181   5  1.455363E+03  4.134559E+05  5.228546E+03 -2.920792E+04 -2.713382E+03  1.903086E+03
       181   6  1.869671E+02  4.142256E+05  4.776036E+03 -3.347986E+04 -5.078446E+03 -7.807225E+02
       181   7  7.484779E+03  4.144514E+05  8.098824E+03 -2.878158E+04 -5.843435E+02  7.736018E+03
       181   8  9.691149E+03  4.486387E+05  1.126501E+04 -2.708679E+04 -2.716540E+03  5.416436E+03
       181   9  1.666674E+04  4.843036E+05  1.712824E+04 -3.392957E+04 -5.081904E+03  3.096576E+03
       181  10  7.627595E+03  4.139990E+05  9.162416E+03 -3.816521E+04  1.577549E-10 -2.426459E-08
       181  11 -6.780474E+03  3.782743E+05 -8.079313E+02 -3.132892E+04 -1.015314E-09  3.804976E-10
       181  12 -1.629310E+04  3.441524E+05 -7.576379E+03 -3.303022E+04 -3.057244E-09  2.562537E-08
       181  13  7.556137E+03  4.142251E+05  8.630557E+03 -3.347340E+04 -6.986478E-10 -5.848402E-11
       181  14  1.455354E+03  4.134559E+05  5.228525E+03 -2.920791E+04  6.319376E-10 -9.147559E-10
       181  15  1.869392E+02  4.142256E+05  4.775987E+03 -3.347986E+04 -4.933187E-09  2.223567E-09
       181  16  7.484763E+03  4.144513E+05  8.098711E+03 -2.878158E+04 -4.203318E-10  2.371719E-08
       181  17  9.691133E+03  4.486387E+05  1.126494E+04 -2.708678E+04  4.432454E-11 -2.795488E-11
       181  18  1.666671E+04  4.843036E+05  1.712817E+04 -3.392956E+04 -2.675044E-10 -2.520661E-08
       181  19  7.627596E+03  4.139990E+05  9.162420E+03 -3.816521E+04  5.786285E+02 -1.437436E+03
       181  20 -6.780465E+03  3.782743E+05 -8.079127E+02 -3.132892E+04  2.710200E+03  1.610071E+03
       181  21 -1.629307E+04  3.441524E+05 -7.576290E+03 -3.303020E+04  5.074993E+03  4.657597E+03
       181  22  7.556143E+03  4.142252E+05  8.630597E+03 -3.347340E+04  5.815098E+02 -4.586727E+03
       181  23  1.455363E+03  4.134559E+05  5.228546E+03 -2.920792E+04  2.713382E+03 -1.903086E+03
       181  24  1.869671E+02  4.142256E+05  4.776036E+03 -3.347986E+04  5.078446E+03  7.807225E+02
       181  25  7.484779E+03  4.144514E+05  8.098824E+03 -2.878158E+04  5.843435E+02 -7.736018E+03
       181  26  9.691149E+03  4.486387E+05  1.126501E+04 -2.708679E+04  2.716540E+03 -5.416436E+03
       181  27  1.666674E+04  4.843036E+05  1.712824E+04 -3.392957E+04  5.081904E+03 -3.096576E+03
       182   1 -2.166547E+04  3.208100E+05 -1.146462E+04 -3.393316E+04 -6.557246E+03 -5.513074E+03
       182   2 -2.990635E+04  2.854810E+05 -1.584958E+04 -2.898518E+04 -8.816807E+03 -8.348793E+03
       182   3 -3.650912E+04  2.509165E+05 -1.798362E+04 -3.256704E+04 -1.058639E+04 -1.118376E+04
       182   4  3.088105E+02  4.140818E+05  5.178636E+03 -3.347743E+04 -6.560667E+03 -1.600891E+03
       182   5  3.268485E+02  4.136319E+05  7.213549E+03 -2.921178E+04 -8.819373E+03 -5.201986E+03
       182   6  2.115610E+03  4.140779E+05  1.203022E+04 -3.347582E+04 -1.058815E+04 -8.802484E+03
       182   7  2.228262E+04  5.073621E+05  2.182162E+04 -3.302162E+04 -6.564081E+03  2.311862E+03
       182   8  3.055914E+04  5.417989E+05  3.027608E+04 -2.943842E+04 -8.821942E+03 -2.054547E+03
       182   9  4.073884E+04  5.772652E+05  4.204298E+04 -3.438484E+04 -1.058991E+04 -6.420596E+03
       182  10 -2.166553E+04  3.208099E+05 -1.146476E+04 -3.393319E+04 -3.391547E-09  2.695373E-09
       182  11 -2.990645E+04  2.854809E+05 -1.584986E+04 -2.898524E+04 -2.374939E-09  5.339286E-10
       182  12 -3.650928E+04  2.509164E+05 -1.798406E+04 -3.256714E+04  1.892467E-09 -7.289523E-10
       182  13  3.087636E+02  4.140818E+05  5.178550E+03 -3.347744E+04 -2.745689E-09  8.793951E-11
       182  14  3.267577E+02  4.136319E+05  7.213352E+03 -2.921182E+04 -5.642059E-09 -1.131467E-09
       182  15  2.115469E+03  4.140778E+05  1.202986E+04 -3.347590E+04 -4.589038E-09  2.047867E-09
       182  16  2.228257E+04  5.073621E+05  2.182153E+04 -3.302161E+04 -4.642396E-10 -3.003618E-09
       182  17  3.055905E+04  5.417989E+05  3.027592E+04 -2.943844E+04 -2.305073E-09  9.466156E-11
       182  18  4.073870E+04  5.772651E+05  4.204270E+04 -3.438489E+04 -1.946207E-09  1.050266E-09
       182  19 -2.166547E+04  3.208100E+05 -1.146462E+04 -3.393316E+04  6.557246E+03  5.513074E+03
       182  20 -2.990635E+04  2.854810E+05 -1.584958E+04 -2.898518E+04  8.816807E+03  8.348793E+03
       182  21 -3.650912E+04  2.509165E+05 -1.798362E+04 -3.256704E+04  1.058639E+04  1.118376E+04
       182  22  3.088105E+02  4.140818E+05  5.178636E+03 -3.347743E+04  6.560667E+03  1.600891E+03
       182  23  3.268485E+02  4.136319E+05  7.213549E+03 -2.921178E+04  8.819373E+03  5.201986E+03
       182  24  2.115610E+03  4.140779E+05  1.203022E+04 -3.347582E+04  1.058815E+04  8.802484E+03
       182  25  2.228262E+04  5.073621E+05  2.182162E+04 -3.302162E+04  6.564081E+03 -2.311862E+03
       182  26  3.055914E+04  5.417989E+05  3.027608E+04 -2.943842E+04  8.821942E+03  2.054547E+03
       182  27  4.073884E+04  5.772652E+05  4.204298E+04 -3.438484E+04  1.058991E+04  6.420596E+03
       183   1 -4.343255E+04  2.294250E+05 -1.909698E+04 -3.705128E+04 -1.189605E+04 -1.416553E+04
       183   2 -4.331752E+04  1.903499E+05 -1.671392E+04 -1.566208E+04 -1.082185E+04 -1.841147E+04
       183   3 -1.289318E+04  1.593990E+05 -3.990306E+03 -2.403902E+03 -3.356873E+03 -2.265261E+04
       183   4  7.848619E+02  4.160670E+05  1.545090E+04 -3.339299E+04 -1.189856E+04 -1.085363E+04
       183   5  9.685130E+03  4.111348E+05  2.746371E+04 -2.930862E+04 -1.081596E+04 -2.507544E+04
       183   6  5.061867E+04  4.160520E+05  5.673885E+04 -3.335426E+04 -3.343377E+03 -3.929279E+04
       183   7  4.500034E+04  6.027427E+05  4.999737E+04 -2.973356E+04 -1.190103E+04 -7.540769E+03
       183   8  6.268550E+04  6.319667E+05  7.163914E+04 -4.296010E+04 -1.080978E+04 -3.174174E+04
       183   9  1.141295E+05  6.727682E+05  1.174650E+05 -6.431747E+04 -3.328225E+03 -5.593980E+04
       183  10 -4.343275E+04  2.294248E+05 -1.909763E+04 -3.705142E+04  8.122323E-10  1.969677E-09
       183  11 -4.331773E+04  1.903495E+05 -1.671478E+04 -1.566224E+04  4.369612E-10  1.001335E-09
       183  12 -1.289333E+04  1.593985E+05 -3.991292E+03 -2.403963E+03 -1.420008E-10 -1.178186E-10
       183  13  7.846783E+02  4.160668E+05  1.545041E+04 -3.339309E+04 -2.508430E-09 -3.255498E-11
       183  14  9.684836E+03  4.111341E+05  2.746231E+04 -2.930884E+04  1.879118E-10 -7.437545E-10
       183  15  5.061824E+04  4.160504E+05  5.673593E+04 -3.335437E+04  1.023837E-09  1.551037E-09
       183  16  4.500017E+04  6.027426E+05  4.999699E+04 -2.973363E+04 -8.403720E-10 -2.301275E-09
       183  17  6.268511E+04  6.319656E+05  7.163703E+04 -4.296038E+04  5.823097E-11 -3.158581E-10
       183  18  1.141287E+05  6.727648E+05  1.174591E+05 -6.431762E+04  7.943575E-10  6.104162E-10
       183  19 -4.343255E+04  2.294250E+05 -1.909698E+04 -3.705128E+04  1.189605E+04  1.416553E+04
       183  20 -4.331752E+04  1.903499E+05 -1.671392E+04 -1.566208E+04  1.082185E+04  1.841147E+04
       183  21 -1.289318E+04  1.593990E+05 -3.990306E+03 -2.403902E+03  3.356873E+03  2.265261E+04
       183  22  7.848619E+02  4.160670E+05  1.545090E+04 -3.339299E+04  1.189856E+04  1.085363E+04
       183  23  9.685130E+03  4.111348E+05  2.746371E+04 -2.930862E+04  1.081596E+04  2.507544E+04
       183  24  5.061867E+04  4.160520E+05  5.673885E+04 -3.335426E+04  3.343377E+03  3.929279E+04
       183  25  4.500034E+04  6.027427E+05  4.999737E+04 -2.973356E+04  1.190103E+04  7.540769E+03
       183  26  6.268550E+04  6.319667E+05  7.163914E+04 -4.296010E+04  1.080978E+04  3.174174E+04
       183  27  1.141295E+05  6.727682E+05  1.174650E+05 -6.431747E+04  3.328225E+03  5.593980E+04
       184   1  9.221168E+05  3.261410E+05  1.615709E+05  3.432728E+05  6.256586E+04  1.270081E+04
       184   2  8.714133E+05  3.027934E+05  1.156294E+05  3.284193E+05  4.052126E+04 -2.144741E+04
       184   3  8.201624E+05  2.887502E+05  9.321140E+04  3.207410E+05  1.268292E+04 -4.016992E+04
       184   4  2.543809E+05  8.008088E+04 -6.929983E+03  1.641584E+05 -9.689412E+02 -1.119848E+04
       184   5  2.582301E+05  8.121373E+04 -3.308814E+03  1.596016E+05  9.269698E+03 -3.320936E+04
       184   6  2.551421E+05  8.526351E+04 -1.716676E+03  1.622199E+05  1.370747E+04 -3.978869E+04
       184   7 -4.128814E+05 -1.659391E+05 -1.754408E+05 -1.477322E+04 -6.442621E+04 -3.506960E+04
       184   8 -3.545465E+05 -1.403276E+05 -1.222554E+05 -9.058062E+03 -2.194807E+04 -4.495883E+04
       184   9 -3.095370E+05 -1.181905E+05 -9.665252E+04  3.833976E+03  1.473102E+04 -3.940783E+04
       184  10  9.221126E+05  3.261397E+05  1.615632E+05  3.432722E+05 -1.194480E-09  1.029149E-09
       184  11  8.714114E+05  3.027924E+05  1.156254E+05  3.284200E+05 -1.047874E-08 -3.827674E-10
       184  12  8.201618E+05  2.887484E+05  9.320807E+04  3.207414E+05 -9.602776E-09  1.907408E-09
       184  13  2.543809E+05  8.008075E+04 -6.930221E+03  1.641583E+05 -2.290011E-09  2.110986E-09
       184  14  2.582297E+05  8.121252E+04 -3.311049E+03  1.596018E+05 -4.217092E-09 -5.475926E-10
       184  15  2.551415E+05  8.526176E+04 -1.720005E+03  1.622203E+05 -2.012965E-10 -7.105519E-10
       184  16 -4.128862E+05 -1.659415E+05 -1.754509E+05 -1.477504E+04 -2.496050E-09  1.002726E-09
       184  17 -3.545476E+05 -1.403299E+05 -1.222601E+05 -9.058857E+03 -6.872815E-09 -2.921275E-09
       184  18 -3.095376E+05 -1.181922E+05 -9.665584E+04  3.834444E+03 -4.534290E-09 -3.710798E-09
       184  19  9.221168E+05  3.261410E+05  1.615709E+05  3.432728E+05 -6.256586E+04 -1.270081E+04
       184  20  8.714133E+05  3.027934E+05  1.156294E+05  3.284193E+05 -4.052126E+04  2.144741E+04
       184  21  8.201624E+05  2.887502E+05  9.321140E+04  3.207410E+05 -1.268292E+04  4.016992E+04
       184  22  2.543809E+05  8.008088E+04 -6.929983E+03  1.641584E+05  9.689412E+02  1.119848E+04
       184  23  2.582301E+05  8.121373E+04 -3.308814E+03  1.596016E+05 -9.269698E+03  3.320936E+04
       184  24  2.551421E+05  8.526351E+04 -1.716676E+03  1.622199E+05 -1.370747E+04  3.978869E+04
       184  25 -4.128814E+05 -1.659391E+05 -1.754408E+05 -1.477322E+04  6.442621E+04  3.506960E+04
       184  26 -3.545465E+05 -1.403276E+05 -1.222554E+05 -9.058062E+03  2.194807E+04  4.495883E+04
       184  27 -3.095370E+05 -1.181905E+05 -9.665252E+04  3.833976E+03 -1.473102E+04  3.940783E+04
       185   1  7.884619E+05  2.770701E+05  8.610910E+04  3.120285E+05  1.306007E+04 -3.911710E+04
       185   2  7.422462E+05  2.558189E+05  7.481323E+04  2.947307E+05  9.414164E+03 -3.922354E+04
       185   3  6.901238E+05  2.415717E+05  6.603836E+04  2.849000E+05  5.126270E+03 -3.762622E+04
       185   4  2.551596E+05  8.557020E+04 -1.275134E+03  1.624557E+05  1.359990E+04 -3.891799E+04
       185   5  2.585023E+05  8.262177E+04 -6.636829E+02  1.586499E+05  1.351909E+04 -3.768166E+04
       185   6  2.552313E+05  8.597212E+04 -3.536598E+02  1.623108E+05  1.279581E+04 -3.474087E+04
       185   7 -2.778456E+05 -1.059034E+05 -8.866767E+04  1.300134E+04  1.413924E+04 -3.871906E+04
       185   8 -2.249928E+05 -9.055192E+04 -7.614530E+04  2.266783E+04  1.762066E+04 -3.614105E+04
       185   9 -1.794569E+05 -6.960725E+04 -6.674814E+04  3.980234E+04  2.045969E+04 -3.185766E+04
       185  10  7.884613E+05  2.770684E+05  8.610591E+04  3.120289E+05 -1.111428E-08 -1.760637E-09
       185  11  7.422457E+05  2.558172E+05  7.481018E+04  2.947310E+05  1.021754E-09 -6.012341E-10
       185  12  6.901234E+05  2.415702E+05  6.603565E+04  2.849002E+05  2.012692E-09 -1.624336E-10
       185  13  2.551590E+05  8.556852E+04 -1.278328E+03  1.624561E+05 -2.718591E-10 -2.726690E-09
       185  14  2.585017E+05  8.262020E+04 -6.666951E+02  1.586503E+05  2.433700E-09 -7.070823E-10
       185  15  2.552308E+05  8.597078E+04 -3.562360E+02  1.623112E+05 -1.570102E-09 -1.981226E-09
       185  16 -2.778462E+05 -1.059050E+05 -8.867086E+04  1.300178E+04  4.639106E-09 -1.112526E-09
       185  17 -2.249935E+05 -9.055341E+04 -7.614834E+04  2.266834E+04  2.077551E-09  3.735073E-09
       185  18 -1.794576E+05 -6.960845E+04 -6.675083E+04  3.980286E+04 -1.739017E-09  2.885922E-10
       185  19  7.884619E+05  2.770701E+05  8.610910E+04  3.120285E+05 -1.306007E+04  3.911710E+04
       185  20  7.422462E+05  2.558189E+05  7.481323E+04  2.947307E+05 -9.414164E+03  3.922354E+04
       185  21  6.901238E+05  2.415717E+05  6.603836E+04  2.849000E+05 -5.126270E+03  3.762622E+04
       185  22  2.551596E+05  8.557020E+04 -1.275134E+03  1.624557E+05 -1.359990E+04  3.891799E+04
       185  23  2.585023E+05  8.262177E+04 -6.636829E+02  1.586499E+05 -1.351909E+04  3.768166E+04
       185  24  2.552313E+05  8.597212E+04 -3.536598E+02  1.623108E+05 -1.279581E+04  3.474087E+04
       185  25 -2.778456E+05 -1.059034E+05 -8.866767E+04  1.300134E+04 -1.413924E+04  3.871906E+04
       185  26 -2.249928E+05 -9.055192E+04 -7.614530E+04  2.266783E+04 -1.762066E+04  3.614105E+04
       185  27 -1.794569E+05 -6.960725E+04 -6.674814E+04  3.980234E+04 -2.045969E+04  3.185766E+04
       186   1  6.592721E+05  2.304893E+05  6.100697E+04  2.762471E+05  4.405162E+03 -3.539754E+04
       186   2  6.135677E+05  2.096636E+05  5.339490E+04  2.587046E+05  2.675596E+03 -3.178688E+04
       186   3  5.613450E+05  1.954956E+05  4.604230E+04  2.486784E+05  8.746763E+02 -2.798925E+04
       186   4  2.552342E+05  8.600482E+04 -2.620907E+02  1.623347E+05  1.201875E+04 -3.253253E+04
       186   5  2.585447E+05  8.273872E+04 -1.336799E+02  1.585709E+05  1.068029E+04 -2.877348E+04
       186   6  2.552558E+05  8.605297E+04 -5.614612E+01  1.623230E+05  9.270407E+03 -2.482738E+04
       186   7 -1.486220E+05 -5.846023E+04 -6.153170E+04  4.849349E+04  1.962702E+04 -2.966953E+04
       186   8 -9.634179E+04 -4.417249E+04 -5.366357E+04  5.849125E+04  1.868015E+04 -2.576190E+04
       186   9 -5.073564E+04 -2.338090E+04 -4.615648E+04  7.600678E+04  1.766187E+04 -2.166712E+04
       186  10  6.592718E+05  2.304880E+05  6.100458E+04  2.762473E+05 -7.338114E-09 -2.233496E-09
       186  11  6.135675E+05  2.096625E+05  5.339299E+04  2.587046E+05  5.259251E-09  2.473629E-09
       186  12  5.613448E+05  1.954948E+05  4.604082E+04  2.486784E+05  1.161399E-08  4.419114E-09
       186  13  2.552338E+05  8.600364E+04 -2.643514E+02  1.623351E+05  4.371664E-09  6.103509E-10
       186  14  2.585443E+05  8.273780E+04 -1.354503E+02  1.585712E+05  7.250440E-09 -3.125594E-10
       186  15  2.552555E+05  8.605228E+04 -5.746617E+01  1.623232E+05  1.797471E-09  8.249008E-10
       186  16 -1.486226E+05 -5.846128E+04 -6.153408E+04  4.849396E+04  1.075224E-08  3.373095E-09
       186  17 -9.634234E+04 -4.417329E+04 -5.366547E+04  5.849164E+04  4.357529E-09  4.058475E-09
       186  18 -5.073610E+04 -2.338149E+04 -4.615795E+04  7.600709E+04 -7.968517E-09 -3.899266E-09
       186  19  6.592721E+05  2.304893E+05  6.100697E+04  2.762471E+05 -4.405162E+03  3.539754E+04
       186  20  6.135677E+05  2.096636E+05  5.339490E+04  2.587046E+05 -2.675596E+03  3.178688E+04
       186  21  5.613450E+05  1.954956E+05  4.604230E+04  2.486784E+05 -8.746763E+02  2.798925E+04
       186  22  2.552342E+05  8.600482E+04 -2.620907E+02  1.623347E+05 -1.201875E+04  3.253253E+04
       186  23  2.585447E+05  8.273872E+04 -1.336799E+02  1.585709E+05 -1.068029E+04  2.877348E+04
       186  24  2.552558E+05  8.605297E+04 -5.614612E+01  1.623230E+05 -9.270407E+03  2.482738E+04
       186  25 -1.486220E+05 -5.846023E+04 -6.153170E+04  4.849349E+04 -1.962702E+04  2.966953E+04
       186  26 -9.634179E+04 -4.417249E+04 -5.366357E+04  5.849125E+04 -1.868015E+04  2.576190E+04
       186  27 -5.073564E+04 -2.338090E+04 -4.615648E+04  7.600678E+04 -1.766187E+04  2.166712E+04
       187   1  5.306204E+05  1.844826E+05  4.121679E+04  2.400306E+05  7.148920E+00 -2.564173E+04
       187   2  4.850058E+05  1.637239E+05  3.399230E+04  2.224715E+05 -1.557425E+03 -2.164095E+04
       187   3  4.328053E+05  1.495734E+05  2.680806E+04  2.124315E+05 -3.129657E+03 -1.762142E+04
       187   4  2.552590E+05  8.605909E+04 -2.910806E+01  1.623239E+05  8.395077E+03 -2.248223E+04
       187   5  2.585620E+05  8.276618E+04  2.259069E+01  1.585638E+05  6.869500E+03 -1.846603E+04
       187   6  2.552685E+05  8.607328E+04  8.316172E+01  1.623218E+05  5.336265E+03 -1.443109E+04
       187   7 -2.001996E+04 -1.235609E+04 -4.127556E+04  8.464968E+04  1.677908E+04 -1.932422E+04
       187   8  3.217541E+04  1.814617E+03 -3.394702E+04  9.467852E+04  1.529313E+04 -1.529235E+04
       187   9  7.776835E+04  2.257751E+04 -2.664120E+04  1.122263E+05  1.379953E+04 -1.124176E+04
       187  10  5.306202E+05  1.844819E+05  4.121555E+04  2.400306E+05 -1.841947E-09 -2.075776E-09
       187  11  4.850056E+05  1.637234E+05  3.399142E+04  2.224715E+05 -2.101755E-10  4.590127E-09
       187  12  4.328052E+05  1.495730E+05  2.680746E+04  2.124315E+05  4.755453E-09  1.831234E-09
       187  13  2.552588E+05  8.605853E+04 -3.019051E+01  1.623240E+05  2.643317E-09 -3.586243E-09
       187  14  2.585618E+05  8.276580E+04  2.186110E+01  1.585639E+05 -4.113904E-09 -1.056044E-09
       187  15  2.552684E+05  8.607305E+04  8.271678E+01  1.623219E+05 -1.316998E-09  5.344051E-09
       187  16 -2.002037E+04 -1.235657E+04 -4.127679E+04  8.464994E+04  3.069474E-09  2.478058E-09
       187  17  3.217510E+04  1.814303E+03 -3.394790E+04  9.467871E+04 -3.393339E-10  3.538664E-09
       187  18  7.776811E+04  2.257732E+04 -2.664179E+04  1.122264E+05 -6.168559E-09 -6.562499E-10
       187  19  5.306204E+05  1.844826E+05  4.121679E+04  2.400306E+05 -7.148920E+00  2.564173E+04
       187  20  4.850058E+05  1.637239E+05  3.399230E+04  2.224715E+05  1.557425E+03  2.164095E+04
       187  21  4.328053E+05  1.495734E+05  2.680806E+04  2.124315E+05  3.129657E+03  1.762142E+04
       187  22  2.552590E+05  8.605909E+04 -2.910806E+01  1.623239E+05 -8.395077E+03  2.248223E+04
       187  23  2.585620E+05  8.276618E+04  2.259069E+01  1.585638E+05 -6.869500E+03  1.846603E+04
       187  24  2.552685E+05  8.607328E+04  8.316172E+01  1.623218E+05 -5.336265E+03  1.443109E+04
       187  25 -2.001996E+04 -1.235609E+04 -4.127556E+04  8.464968E+04 -1.677908E+04  1.932422E+04
       187  26  3.217541E+04  1.814617E+03 -3.394702E+04  9.467852E+04 -1.529313E+04  1.529235E+04
       187  27  7.776835E+04  2.257751E+04 -2.664120E+04  1.122263E+05 -1.379953E+04  1.124176E+04
       188   1  4.021101E+05  1.385673E+05  2.202260E+04  2.037887E+05 -4.033493E+03 -1.527033E+04
       188   2  3.565153E+05  1.178149E+05  1.490442E+04  1.862389E+05 -5.656141E+03 -1.126435E+04
       188   3  3.043370E+05  1.036674E+05  7.860670E+03  1.762080E+05 -7.275661E+03 -7.267335E+03
       188   4  2.552749E+05  8.607524E+04  1.215991E+02  1.623233E+05  4.430792E+03 -1.208030E+04
       188   5  2.585671E+05  8.277145E+04  2.367182E+02  1.585644E+05  2.789175E+03 -8.081123E+03
       188   6  2.552779E+05  8.607654E+04  4.413607E+02  1.623240E+05  1.150685E+03 -4.090937E+03
       188   7  1.084615E+05  3.358493E+04 -2.177985E+04  1.208666E+05  1.289307E+04 -8.891031E+03
       188   8  1.606287E+05  4.772890E+04 -1.443097E+04  1.308939E+05  1.123314E+04 -4.898410E+03
       188   9  2.062215E+05  6.848600E+04 -6.977682E+03  1.484410E+05  9.576332E+03 -9.148032E+02
       188  10  4.021100E+05  1.385670E+05  2.202213E+04  2.037887E+05 -3.901689E-09 -2.247675E-09
       188  11  3.565153E+05  1.178147E+05  1.490412E+04  1.862388E+05 -4.447127E-09 -4.329886E-09
       188  12  3.043370E+05  1.036673E+05  7.860472E+03  1.762080E+05  4.008209E-09 -3.955338E-09
       188  13  2.552749E+05  8.607508E+04  1.212879E+02  1.623233E+05  1.603178E-10 -1.373492E-10
       188  14  2.585671E+05  8.277138E+04  2.365808E+02  1.585644E+05  4.400174E-09  1.251661E-09
       188  15  2.552779E+05  8.607653E+04  4.413267E+02  1.623240E+05  6.148397E-09  1.388587E-09
       188  16  1.084613E+05  3.358480E+04 -2.178031E+04  1.208667E+05  4.799089E-09  4.664678E-09
       188  17  1.606286E+05  4.772884E+04 -1.443125E+04  1.308940E+05  4.455233E-09  4.383706E-09
       188  18  2.062214E+05  6.848597E+04 -6.977855E+03  1.484410E+05  7.849318E-09  2.359205E-09
       188  19  4.021101E+05  1.385673E+05  2.202260E+04  2.037887E+05  4.033493E+03  1.527033E+04
       188  20  3.565153E+05  1.178149E+05  1.490442E+04  1.862389E+05  5.656141E+03  1.126435E+04
       188  21  3.043370E+05  1.036674E+05  7.860670E+03  1.762080E+05  7.275661E+03  7.267335E+03
       188  22  2.552749E+05  8.607524E+04  1.215991E+02  1.623233E+05 -4.430792E+03  1.208030E+04
       188  23  2.585671E+05  8.277145E+04  2.367182E+02  1.585644E+05 -2.789175E+03  8.081123E+03
       188  24  2.552779E+05  8.607654E+04  4.413607E+02  1.623240E+05 -1.150685E+03  4.090937E+03
       188  25  1.084615E+05  3.358493E+04 -2.177985E+04  1.208666E+05 -1.289307E+04  8.891031E+03
       188  26  1.606287E+05  4.772890E+04 -1.443097E+04  1.308939E+05 -1.123314E+04  4.898410E+03
       188  27  2.062215E+05  6.848600E+04 -6.977682E+03  1.484410E+05 -9.576332E+03  9.148032E+02
       189   1  2.736537E+05  9.266951E+04  3.177035E+03  1.675877E+05 -8.248374E+03 -4.950555E+03
       189   2  2.280580E+05  7.190190E+04 -3.656688E+03  1.500107E+05 -1.008498E+04 -1.094211E+03
       189   3  1.759445E+05  5.781284E+04 -1.021938E+04  1.399379E+05 -1.188461E+04  2.664449E+03
       189   4  2.552972E+05  8.607457E+04  5.916159E+02  1.623307E+05  1.805738E+02 -1.773119E+03
       189   5  2.585463E+05  8.278403E+04  1.080695E+03  1.585530E+05 -1.860699E+03  2.005966E+03
       189   6  2.553153E+05  8.621203E+04  2.002566E+03  1.622783E+05 -3.865026E+03  5.687379E+03
       189   7  2.369414E+05  7.947982E+04 -1.993438E+03  1.570740E+05  8.609159E+03  1.404178E+03
       189   8  2.890359E+05  9.366630E+04  5.818353E+03  1.670958E+05  6.364013E+03  5.106303E+03
       189   9  3.346941E+05  1.146123E+05  1.422496E+04  1.846217E+05  4.155734E+03  8.710752E+03
       189  10  2.736536E+05  9.266946E+04  3.176862E+03  1.675876E+05  8.691483E-09 -9.443566E-10
       189  11  2.280579E+05  7.190187E+04 -3.656881E+03  1.500107E+05  2.063560E-09 -3.414926E-09
       189  12  1.759444E+05  5.781279E+04 -1.021966E+04  1.399379E+05 -1.284349E-09  7.889378E-11
       189  13  2.552972E+05  8.607457E+04  5.916099E+02  1.623307E+05  6.440824E-09  3.066720E-09
       189  14  2.585463E+05  8.278402E+04  1.080681E+03  1.585530E+05  1.539885E-10 -1.536935E-09
       189  15  2.553153E+05  8.621199E+04  2.002477E+03  1.622783E+05  2.868154E-10 -6.046474E-09
       189  16  2.369413E+05  7.947980E+04 -1.993581E+03  1.570740E+05  5.109690E-09 -9.483925E-10
       189  17  2.890358E+05  9.366626E+04  5.818228E+03  1.670957E+05  4.588330E-09 -5.221628E-09
       189  18  3.346940E+05  1.146122E+05  1.422479E+04  1.846216E+05  3.904492E-09 -2.076921E-10
       189  19  2.736537E+05  9.266951E+04  3.177035E+03  1.675877E+05  8.248374E+03  4.950555E+03
       189  20  2.280580E+05  7.190190E+04 -3.656688E+03  1.500107E+05  1.008498E+04  1.094211E+03
       189  21  1.759445E+05  5.781284E+04 -1.021938E+04  1.399379E+05  1.188461E+04 -2.664449E+03
       189  22  2.552972E+05  8.607457E+04  5.916159E+02  1.623307E+05 -1.805738E+02  1.773119E+03
       189  23  2.585463E+05  8.278403E+04  1.080695E+03  1.585530E+05  1.860699E+03 -2.005966E+03
       189  24  2.553153E+05  8.621203E+04  2.002566E+03  1.622783E+05  3.865026E+03 -5.687379E+03
       189  25  2.369414E+05  7.947982E+04 -1.993438E+03  1.570740E+05 -8.609159E+03 -1.404178E+03
       189  26  2.890359E+05  9.366630E+04  5.818353E+03  1.670958E+05 -6.364013E+03 -5.106303E+03
       189  27  3.346941E+05  1.146123E+05  1.422496E+04  1.846217E+05 -4.155734E+03 -8.710752E+03
       190   1  1.452309E+05  4.691771E+04 -1.451383E+04  1.314583E+05 -1.312840E+04  4.788131E+03
       190   2  1.001404E+05  2.596202E+04 -2.041641E+04  1.129408E+05 -1.506264E+04  7.950144E+03
       190   3  4.907021E+04  1.283047E+04 -2.548660E+04  1.015697E+05 -1.666264E+04  1.022629E+04
       190   4  2.554649E+05  8.624710E+04  2.680935E+03  1.623083E+05 -5.080915E+03  7.821420E+03
       190   5  2.584636E+05  8.351475E+04  4.959737E+03  1.582209E+05 -8.867908E+03  1.028461E+04
       190   6  2.558467E+05  8.897273E+04  9.538411E+03  1.612786E+05 -1.232074E+04  1.186205E+04
       190   7  3.657121E+05  1.255778E+05  1.987576E+04  1.931635E+05  2.968081E+03  1.085527E+04
       190   8  4.168128E+05  1.410699E+05  3.033527E+04  2.035116E+05 -2.671539E+03  1.261972E+04
       190   9  4.626662E+05  1.651188E+05  4.456166E+04  2.210056E+05 -7.977354E+03  1.349840E+04
       190  10  1.452307E+05  4.691764E+04 -1.451419E+04  1.314583E+05 -7.331737E-10 -1.782169E-09
       190  11  1.001402E+05  2.596189E+04 -2.041695E+04  1.129409E+05  1.085533E-08  3.560555E-10
       190  12  4.906989E+04  1.283028E+04 -2.548732E+04  1.015699E+05  8.565027E-09 -2.114244E-09
       190  13  2.554649E+05  8.624703E+04  2.680772E+03  1.623083E+05  6.002431E-09  6.843230E-10
       190  14  2.584635E+05  8.351461E+04  4.959390E+03  1.582210E+05  6.943916E-09 -1.915941E-09
       190  15  2.558465E+05  8.897254E+04  9.537861E+03  1.612787E+05 -6.861961E-09 -2.028099E-09
       190  16  3.657121E+05  1.255777E+05  1.987552E+04  1.931635E+05  7.550249E-09  1.911395E-09
       190  17  4.168127E+05  1.410697E+05  3.033495E+04  2.035116E+05 -1.487913E-10  2.751288E-10
       190  18  4.626661E+05  1.651186E+05  4.456119E+04  2.210057E+05 -1.647165E-08 -4.206440E-09
       190  19  1.452309E+05  4.691771E+04 -1.451383E+04  1.314583E+05  1.312840E+04 -4.788131E+03
       190  20  1.001404E+05  2.596202E+04 -2.041641E+04  1.129408E+05  1.506264E+04 -7.950144E+03
       190  21  4.907021E+04  1.283047E+04 -2.548660E+04  1.015697E+05  1.666264E+04 -1.022629E+04
       190  22  2.554649E+05  8.624710E+04  2.680935E+03  1.623083E+05  5.080915E+03 -7.821420E+03
       190  23  2.584636E+05  8.351475E+04  4.959737E+03  1.582209E+05  8.867908E+03 -1.028461E+04
       190  24  2.558467E+05  8.897273E+04  9.538411E+03  1.612786E+05  1.232074E+04 -1.186205E+04
       190  25  3.657121E+05  1.255778E+05  1.987576E+04  1.931635E+05 -2.968081E+03 -1.085527E+04
       190  26  4.168128E+05  1.410699E+05  3.033527E+04  2.035116E+05  2.671539E+03 -1.261972E+04
       190  27  4.626662E+05  1.651188E+05  4.456166E+04  2.210056E+05  7.977354E+03 -1.349840E+04
       191   1  1.811800E+04  3.406905E+03 -2.841207E+04  9.439907E+04 -1.894065E+04  1.113355E+04
       191   2 -1.796417E+04 -1.986066E+04 -3.249684E+04  6.129332E+04 -1.425761E+04  1.083246E+04
       191   3 -5.394169E+04 -1.925640E+04 -3.464106E+04  3.011284E+04 -6.555683E+03  2.514824E+03
       191   4  2.573616E+05  8.975077E+04  1.284117E+04  1.614136E+05 -1.434899E+04  1.286322E+04
       191   5  2.583997E+05  9.555626E+04  2.469295E+04  1.531390E+05 -2.642169E+04  6.247998E+03
       191   6  2.628567E+05  1.285466E+05  5.176026E+04  1.467901E+05 -3.547667E+04 -8.381696E+03
       191   7  4.966702E+05  1.761019E+05  5.409404E+04  2.284535E+05 -9.755354E+03  1.459364E+04
       191   8  5.348430E+05  2.109865E+05  8.187930E+04  2.450246E+05 -3.859153E+04  1.660660E+03
       191   9  5.797499E+05  2.763703E+05  1.381541E+05  2.635246E+05 -6.441306E+04 -1.928741E+04
       191  10  1.811758E+04  3.406675E+03 -2.841297E+04  9.439924E+04 -1.220225E-08 -7.272605E-09
       191  11 -1.796442E+04 -1.986084E+04 -3.249745E+04  6.129345E+04 -3.285177E-09  2.909304E-09
       191  12 -5.394173E+04 -1.925642E+04 -3.464115E+04  3.011285E+04  4.906383E-09  1.922049E-09
       191  13  2.573613E+05  8.975053E+04  1.284047E+04  1.614138E+05 -9.894033E-09  5.209094E-10
       191  14  2.583989E+05  9.555603E+04  2.469156E+04  1.531391E+05 -3.808612E-09  3.831686E-09
       191  15  2.628553E+05  1.285462E+05  5.175777E+04  1.467899E+05  7.134763E-10  2.282057E-10
       191  16  4.966701E+05  1.761017E+05  5.409346E+04  2.284536E+05 -9.421439E-10 -1.647699E-09
       191  17  5.348414E+05  2.109861E+05  8.187650E+04  2.450247E+05 -1.766388E-10  1.973792E-09
       191  18  5.797453E+05  2.763688E+05  1.381456E+05  2.635236E+05 -4.416555E-09 -3.152496E-09
       191  19  1.811800E+04  3.406905E+03 -2.841207E+04  9.439907E+04  1.894065E+04 -1.113355E+04
       191  20 -1.796417E+04 -1.986066E+04 -3.249684E+04  6.129332E+04  1.425761E+04 -1.083246E+04
       191  21 -5.394169E+04 -1.925640E+04 -3.464106E+04  3.011284E+04  6.555683E+03 -2.514824E+03
       191  22  2.573616E+05  8.975077E+04  1.284117E+04  1.614136E+05  1.434899E+04 -1.286322E+04
       191  23  2.583997E+05  9.555626E+04  2.469295E+04  1.531390E+05  2.642169E+04 -6.247998E+03
       191  24  2.628567E+05  1.285466E+05  5.176026E+04  1.467901E+05  3.547667E+04  8.381696E+03
       191  25  4.966702E+05  1.761019E+05  5.409404E+04  2.284535E+05  9.755354E+03 -1.459364E+04
       191  26  5.348430E+05  2.109865E+05  8.187930E+04  2.450246E+05  3.859153E+04 -1.660660E+03
       191  27  5.797499E+05  2.763703E+05  1.381541E+05  2.635246E+05  6.441306E+04  1.928741E+04
       192   1 -6.270289E+04 -2.300796E+04 -3.085754E+04 -5.041607E+02 -2.264885E+04 -4.972376E+01
       192   2 -5.762164E+04  8.452735E+03 -1.181126E+04 -2.448069E+02 -1.491171E+04 -4.753010E+01
       192   3 -6.270717E+04  3.107974E+03 -6.995187E+03  8.528412E+01 -7.174615E+03 -2.880751E+01
       192   4 -7.199910E+04 -2.533016E+04 -3.318130E+04 -9.169776E+01 -2.264912E+04 -4.973983E+01
       192   5 -6.691519E+04  6.129757E+03 -1.413445E+04 -1.523938E+02 -1.491168E+04 -4.753263E+01
       192   6 -7.199826E+04  7.838794E+02 -9.318172E+03 -1.423542E+02 -7.174296E+03 -2.880437E+01
       192   7 -8.129523E+04 -2.765237E+04 -3.550506E+04  3.207589E+02 -2.264939E+04 -4.975590E+01
       192   8 -7.620866E+04  3.806773E+03 -1.645765E+04 -5.998200E+01 -1.491166E+04 -4.753516E+01
       192   9 -8.128927E+04 -1.540221E+03 -1.164116E+04 -3.699892E+02 -7.173977E+03 -2.880124E+01
       192  10 -6.270344E+04 -2.300809E+04 -3.085851E+04 -5.041616E+02  9.463504E-08  7.303671E-08
       192  11 -5.762188E+04  8.452675E+03 -1.181167E+04 -2.448075E+02  9.114405E-08  7.924803E-08
       192  12 -6.270722E+04  3.107960E+03 -6.995284E+03  8.528403E+01 -4.545497E-07 -3.120314E-07
       192  13 -7.199965E+04 -2.533030E+04 -3.318226E+04 -9.169869E+01  5.627872E-11 -8.381606E-09
       192  14 -6.691543E+04  6.129698E+03 -1.413487E+04 -1.523943E+02 -2.039131E-09 -3.372601E-09
       192  15 -7.199831E+04  7.838657E+02 -9.318268E+03 -1.423543E+02 -3.762371E-09  4.071507E-08
       192  16 -8.129578E+04 -2.765251E+04 -3.550603E+04  3.207580E+02 -9.889258E-08 -8.010864E-08
       192  17 -7.620890E+04  3.806714E+03 -1.645806E+04 -5.998258E+01 -9.213354E-08 -6.194575E-08
       192  18 -8.128932E+04 -1.540235E+03 -1.164126E+04 -3.699893E+02  4.511638E-07  3.956147E-07
       192  19 -6.270289E+04 -2.300796E+04 -3.085754E+04 -5.041607E+02  2.264885E+04  4.972376E+01
       192  20 -5.762164E+04  8.452735E+03 -1.181126E+04 -2.448070E+02  1.491171E+04  4.753010E+01
       192  21 -6.270717E+04  3.107974E+03 -6.995187E+03  8.528426E+01  7.174615E+03  2.880751E+01
       192  22 -7.199910E+04 -2.533016E+04 -3.318130E+04 -9.169779E+01  2.264912E+04  4.973983E+01
       192  23 -6.691519E+04  6.129757E+03 -1.413445E+04 -1.523938E+02  1.491168E+04  4.753263E+01
       192  24 -7.199826E+04  7.838797E+02 -9.318171E+03 -1.423541E+02  7.174296E+03  2.880437E+01
       192  25 -8.129523E+04 -2.765237E+04 -3.550506E+04  3.207589E+02  2.264939E+04  4.975590E+01
       192  26 -7.620866E+04  3.806773E+03 -1.645765E+04 -5.998202E+01  1.491166E+04  4.753516E+01
       192  27 -8.128927E+04 -1.540221E+03 -1.164116E+04 -3.699891E+02  7.173977E+03  2.880124E+01
       193   1 -6.319461E+04 -2.251156E+03 -5.990631E+03 -1.433343E+02 -5.623699E+03 -2.312324E+01
       193   2 -6.236991E+04  2.689157E+03 -1.922832E+03 -1.965205E+02 -3.703120E+03 -2.015110E+01
       193   3 -6.321915E+04  1.844791E+03 -5.471580E+02 -5.340461E+01 -1.782580E+03 -1.204472E+01
       193   4 -7.011120E+04 -3.980072E+03 -7.719680E+03 -9.069988E+01 -5.623749E+03 -2.312396E+01
       193   5 -6.927412E+04  9.630831E+02 -3.648819E+03 -1.934270E+02 -3.703065E+03 -2.015113E+01
       193   6 -7.011103E+04  1.215064E+02 -2.270176E+03 -9.985117E+01 -1.782421E+03 -1.204437E+01
       193   7 -7.702775E+04 -5.708992E+03 -9.448733E+03 -3.806599E+01 -5.623799E+03 -2.312464E+01
       193   8 -7.617829E+04 -7.629943E+02 -5.374809E+03 -1.903335E+02 -3.703010E+03 -2.015103E+01
       193   9 -7.700285E+04 -1.601781E+03 -3.993197E+03 -1.462971E+02 -1.782261E+03 -1.204377E+01
       193  10 -6.319465E+04 -2.251177E+03 -5.990694E+03 -1.433441E+02 -2.357317E-05  5.351499E-06
       193  11 -6.236994E+04  2.689098E+03 -1.922872E+03 -1.965639E+02 -9.545861E-05  2.697706E-05
       193  12 -6.321918E+04  1.844690E+03 -5.471891E+02 -5.348217E+01 -1.642701E-04  5.092677E-05
       193  13 -7.011124E+04 -3.980081E+03 -7.719740E+03 -9.070005E+01 -5.139837E-05 -8.330511E-06
       193  14 -6.927414E+04  9.630799E+02 -3.648845E+03 -1.934270E+02 -2.280287E-04 -3.724808E-05
       193  15 -7.011103E+04  1.215054E+02 -2.270182E+03 -9.985138E+01 -4.046710E-04 -6.618718E-05
       193  16 -7.702778E+04 -5.708987E+03 -9.448789E+03 -3.805611E+01 -1.759183E-05  7.891111E-06
       193  17 -7.617829E+04 -7.629407E+02 -5.374821E+03 -1.902896E+02 -8.716741E-05  3.132072E-05
       193  18 -7.700283E+04 -1.601682E+03 -3.993178E+03 -1.462196E+02 -1.598396E-04  5.229515E-05
       193  19 -6.319462E+04 -2.251181E+03 -5.990638E+03 -1.433537E+02  5.623699E+03  2.312326E+01
       193  20 -6.236994E+04  2.689045E+03 -1.922861E+03 -1.966073E+02  3.703120E+03  2.015115E+01
       193  21 -6.321920E+04  1.844590E+03 -5.472082E+02 -5.355968E+01  1.782579E+03  1.204482E+01
       193  22 -7.011121E+04 -3.980072E+03 -7.719681E+03 -9.070002E+01  5.623749E+03  2.312394E+01
       193  23 -6.927412E+04  9.630840E+02 -3.648820E+03 -1.934268E+02  3.703065E+03  2.015106E+01
       193  24 -7.011103E+04  1.215061E+02 -2.270176E+03 -9.985156E+01  1.782420E+03  1.204423E+01
       193  25 -7.702775E+04 -5.708966E+03 -9.448727E+03 -3.804602E+01  5.623799E+03  2.312466E+01
       193  26 -7.617826E+04 -7.628797E+02 -5.374781E+03 -1.902455E+02  3.703010E+03  2.015110E+01
       193  27 -7.700281E+04 -1.601580E+03 -3.993147E+03 -1.461420E+02  1.782261E+03  1.204388E+01
       194   1 -6.808593E+04 -1.941337E+02 -1.386085E+03 -8.405387E+01 -1.411339E+03 -8.677499E+00
       194   2 -6.796108E+04  5.739610E+02 -4.690475E+02 -2.155836E+02 -9.514958E+02 -5.161749E+00
       194   3 -6.812103E+04  4.435423E+02 -7.610453E+01 -7.084447E+01 -4.916485E+02 -5.825093E-01
       194   4 -6.980235E+04 -6.231821E+02 -1.815126E+03 -7.786657E+01 -1.411292E+03 -8.677519E+00
       194   5 -6.965993E+04  1.492368E+02 -8.937462E+02 -2.167871E+02 -9.514240E+02 -5.161622E+00
       194   6 -6.980231E+04  2.313664E+01 -4.964783E+02 -7.943888E+01 -4.915522E+02 -5.822405E-01
       194   7 -7.151877E+04 -1.052231E+03 -2.244168E+03 -7.167944E+01 -1.411244E+03 -8.677315E+00
       194   8 -7.135878E+04 -2.754879E+02 -1.318445E+03 -2.179908E+02 -9.513521E+02 -5.161409E+00
       194   9 -7.148360E+04 -3.972694E+02 -9.168524E+02 -8.803342E+01 -4.914560E+02 -5.820271E-01
       194  10 -6.808595E+04 -1.942303E+02 -1.386112E+03 -8.412835E+01 -1.520199E-04  5.042825E-05
       194  11 -6.796109E+04  5.739237E+02 -4.690583E+02 -2.156138E+02 -5.662009E-05  2.139430E-05
       194  12 -6.812102E+04  4.435654E+02 -7.609904E+01 -7.082976E+01  3.495700E-05 -1.055037E-05
       194  13 -6.980235E+04 -6.231826E+02 -1.815130E+03 -7.786638E+01 -3.882854E-04 -6.317225E-05
       194  14 -6.965993E+04  1.492359E+02 -8.937476E+02 -2.167873E+02 -1.553281E-04 -2.379749E-05
       194  15 -6.980231E+04  2.313653E+01 -4.964783E+02 -7.943875E+01  7.762254E-05  1.556753E-05
       194  16 -7.151875E+04 -1.052136E+03 -2.244148E+03 -7.160513E+01 -1.589710E-04  4.799612E-05
       194  17 -7.135877E+04 -2.754530E+02 -1.318438E+03 -2.179615E+02 -6.778083E-05  1.575072E-05
       194  18 -7.148360E+04 -3.972935E+02 -9.168587E+02 -8.804842E+01  2.723344E-05 -1.361253E-05
       194  19 -6.808597E+04 -1.943258E+02 -1.386132E+03 -8.420281E+01  1.411338E+03  8.677599E+00
       194  20 -6.796110E+04  5.738869E+02 -4.690656E+02 -2.156440E+02  9.514957E+02  5.161792E+00
       194  21 -6.812101E+04  4.435886E+02 -7.609265E+01 -7.081504E+01  4.916486E+02  5.824882E-01
       194  22 -6.980234E+04 -6.231820E+02 -1.815126E+03 -7.786618E+01  1.411291E+03  8.677393E+00
       194  23 -6.965993E+04  1.492356E+02 -8.937456E+02 -2.167874E+02  9.514237E+02  5.161574E+00
       194  24 -6.980231E+04  2.313654E+01 -4.964774E+02 -7.943862E+01  4.915523E+02  5.822717E-01
       194  25 -7.151872E+04 -1.052040E+03 -2.244121E+03 -7.153081E+01  1.411244E+03  8.677411E+00
       194  26 -7.135876E+04 -2.754177E+02 -1.318428E+03 -2.179321E+02  9.513519E+02  5.161441E+00
       194  27 -7.148361E+04 -3.973174E+02 -9.168640E+02 -8.806342E+01  4.914560E+02  5.819998E-01
       195   1 -7.392766E+04 -1.143298E+03 -1.401098E+03 -9.327558E+01 -4.144181E+02  2.201908E+00
       195   2 -7.393357E+04 -1.036189E+03 -1.135564E+03 -2.173930E+02 -3.704811E+02  5.960704E+00
       195   3 -7.395956E+04 -1.015127E+03 -9.187222E+02 -9.186342E+01 -3.265395E+02  7.960843E+00
       195   4 -6.974349E+04 -9.716416E+01 -3.550193E+02 -8.461935E+01 -4.143112E+02  2.202211E+00
       195   5 -6.973345E+04  1.392224E+01 -8.555367E+01 -2.096085E+02 -3.704162E+02  5.960882E+00
       195   6 -6.974347E+04  3.896819E+01  1.352498E+02 -8.495086E+01 -3.265166E+02  7.960899E+00
       195   7 -6.555931E+04  9.489689E+02  6.910579E+02 -7.596303E+01 -4.142045E+02  2.202430E+00
       195   8 -6.553332E+04  1.064032E+03  9.644556E+02 -2.018240E+02 -3.703514E+02  5.961012E+00
       195   9 -6.552737E+04  1.093062E+03  1.189221E+03 -7.803822E+01 -3.264937E+02  7.960945E+00
       195  10 -7.392765E+04 -1.143262E+03 -1.401089E+03 -9.325094E+01  5.129371E-05 -1.854691E-05
       195  11 -7.393357E+04 -1.036168E+03 -1.135559E+03 -2.173789E+02  2.751833E-05 -1.132754E-05
       195  12 -7.395955E+04 -1.015122E+03 -9.187213E+02 -9.186023E+01  5.479996E-06 -2.814273E-06
       195  13 -6.974349E+04 -9.716440E+01 -3.550198E+02 -8.461949E+01  1.290240E-04  2.396074E-05
       195  14 -6.973345E+04  1.392238E+01 -8.555399E+01 -2.096085E+02  7.270290E-05  1.345565E-05
       195  15 -6.974347E+04  3.896820E+01  1.352495E+02 -8.495088E+01  1.638761E-05  3.007782E-06
       195  16 -6.555932E+04  9.489324E+02  6.910484E+02 -7.598781E+01  5.206313E-05 -1.877010E-05
       195  17 -6.553332E+04  1.064012E+03  9.644503E+02 -2.018378E+02  3.072297E-05 -9.770367E-06
       195  18 -6.552737E+04  1.093058E+03  1.189219E+03 -7.804132E+01  7.647206E-06 -1.987596E-06
       195  19 -7.392764E+04 -1.143226E+03 -1.401080E+03 -9.322629E+01  4.144182E+02 -2.201945E+00
       195  20 -7.393356E+04 -1.036147E+03 -1.135554E+03 -2.173649E+02  3.704811E+02 -5.960727E+00
       195  21 -7.395955E+04 -1.015118E+03 -9.187199E+02 -9.185704E+01  3.265395E+02 -7.960848E+00
       195  22 -6.974349E+04 -9.716455E+01 -3.550196E+02 -8.461962E+01  4.143115E+02 -2.202164E+00
       195  23 -6.973345E+04  1.392261E+01 -8.555379E+01 -2.096084E+02  3.704163E+02 -5.960855E+00
       195  24 -6.974347E+04  3.896826E+01  1.352496E+02 -8.495091E+01  3.265166E+02 -7.960893E+00
       195  25 -6.555933E+04  9.488960E+02  6.910396E+02 -7.601258E+01  4.142046E+02 -2.202468E+00
       195  26 -6.553333E+04  1.063992E+03  9.644454E+02 -2.018516E+02  3.703515E+02 -5.961032E+00
       195  27 -6.552737E+04  1.093053E+03  1.189218E+03 -7.804442E+01  3.264937E+02 -7.960949E+00
       196   1 -7.807806E+04 -2.113812E+03 -1.845433E+03 -1.254929E+02 -3.616559E+02  9.702788E+00
       196   2 -7.816263E+04 -2.152121E+03 -1.558872E+03 -1.885525E+02 -6.339578E+02  1.229230E+01
       196   3 -7.809326E+04 -1.851930E+03 -1.003618E+03 -1.298209E+02 -9.062477E+02  1.135086E+01
       196   4 -6.970482E+04 -2.033335E+01  2.478899E+02 -1.130166E+02 -3.615397E+02  9.703049E+00
       196   5 -6.978179E+04 -5.673803E+01  5.363067E+02 -1.741936E+02 -6.339295E+02  1.229235E+01
       196   6 -6.970479E+04  2.453697E+02  1.093475E+03 -1.135794E+02 -9.063073E+02  1.135072E+01
       196   7 -6.133152E+04  2.073141E+03  2.341208E+03 -1.005402E+02 -3.614234E+02  9.703311E+00
       196   8 -6.140087E+04  2.038640E+03  2.631480E+03 -1.598345E+02 -6.339012E+02  1.229240E+01
       196   9 -6.131625E+04  2.342664E+03  3.190562E+03 -9.733768E+01 -9.063670E+02  1.135058E+01
       196  10 -7.807806E+04 -2.113813E+03 -1.845433E+03 -1.254929E+02 -9.865184E-08 -7.273989E-08
       196  11 -7.816264E+04 -2.152121E+03 -1.558873E+03 -1.885525E+02 -2.635949E-09 -7.061915E-09
       196  12 -7.809326E+04 -1.851930E+03 -1.003620E+03 -1.298209E+02  1.317670E-07  6.450058E-08
       196  13 -6.970482E+04 -2.033336E+01  2.478897E+02 -1.130166E+02  2.139292E-09 -1.105425E-08
       196  14 -6.978179E+04 -5.673814E+01  5.363059E+02 -1.741936E+02  3.241371E-09 -4.773281E-09
       196  15 -6.970479E+04  2.453695E+02  1.093473E+03 -1.135794E+02  4.388949E-09 -3.446410E-10
       196  16 -6.133152E+04  2.073140E+03  2.341207E+03 -1.005402E+02  9.808280E-08  4.191720E-08
       196  17 -6.140087E+04  2.038639E+03  2.631479E+03 -1.598345E+02  9.946009E-09 -7.800701E-09
       196  18 -6.131626E+04  2.342664E+03  3.190560E+03 -9.733770E+01 -1.318105E-07 -6.775849E-08
       196  19 -7.807806E+04 -2.113812E+03 -1.845433E+03 -1.254929E+02  3.616559E+02 -9.702788E+00
       196  20 -7.816263E+04 -2.152121E+03 -1.558872E+03 -1.885525E+02  6.339578E+02 -1.229230E+01
       196  21 -7.809326E+04 -1.851930E+03 -1.003618E+03 -1.298209E+02  9.062477E+02 -1.135086E+01
       196  22 -6.970482E+04 -2.033330E+01  2.478899E+02 -1.130166E+02  3.615397E+02 -9.703049E+00
       196  23 -6.978179E+04 -5.673803E+01  5.363067E+02 -1.741936E+02  6.339295E+02 -1.229235E+01
       196  24 -6.970479E+04  2.453697E+02  1.093475E+03 -1.135794E+02  9.063073E+02 -1.135072E+01
       196  25 -6.133152E+04  2.073141E+03  2.341208E+03 -1.005402E+02  3.614234E+02 -9.703310E+00
       196  26 -6.140087E+04  2.038640E+03  2.631480E+03 -1.598345E+02  6.339012E+02 -1.229240E+01
       196  27 -6.131625E+04  2.342664E+03  3.190562E+03 -9.733772E+01  9.063670E+02 -1.135058E+01
       197   1 -7.870339E+04 -2.331981E+03 -8.753568E+02 -1.521941E+02 -1.133998E+03  1.125819E+01
       197   2 -7.908713E+04 -2.667241E+03  6.743436E+01 -1.427724E+02 -2.342827E+03  1.040580E+01
       197   3 -7.869652E+04 -6.999587E+02  2.381192E+03 -1.910396E+02 -3.551668E+03  5.978778E+00
       197   4 -6.956694E+04 -4.775924E+01  1.408722E+03 -1.520682E+02 -1.133928E+03  1.125835E+01
       197   5 -6.995407E+04 -3.837786E+02  2.350663E+03 -1.247033E+02 -2.342858E+03  1.040571E+01
       197   6 -6.956685E+04  1.582743E+03  4.663628E+03 -1.550270E+02 -3.551801E+03  5.978391E+00
       197   7 -6.043043E+04  2.236456E+03  3.692794E+03 -1.519423E+02 -1.133857E+03  1.125850E+01
       197   8 -6.082094E+04  1.899677E+03  4.633886E+03 -1.066339E+02 -2.342889E+03  1.040562E+01
       197   9 -6.043709E+04  3.865439E+03  6.946058E+03 -1.190138E+02 -3.551933E+03  5.978004E+00
       197  10 -7.870339E+04 -2.331981E+03 -8.753592E+02 -1.521940E+02 -4.691736E-08 -1.987417E-08
       197  11 -7.908713E+04 -2.667242E+03  6.742405E+01 -1.427723E+02 -1.687140E-07 -9.148838E-08
       197  12 -7.869654E+04 -6.999623E+02  2.381168E+03 -1.910397E+02  7.338773E-07  3.003408E-07
       197  13 -6.956695E+04 -4.775957E+01  1.408719E+03 -1.520681E+02  6.448410E-09  4.914093E-09
       197  14 -6.995408E+04 -3.837800E+02  2.350653E+03 -1.247032E+02  7.542924E-09 -1.698790E-09
       197  15 -6.956686E+04  1.582740E+03  4.663604E+03 -1.550271E+02  3.927196E-09 -5.460630E-08
       197  16 -6.043043E+04  2.236456E+03  3.692791E+03 -1.519423E+02  4.791286E-08  3.542693E-08
       197  17 -6.082095E+04  1.899676E+03  4.633876E+03 -1.066339E+02  1.678799E-07  7.816416E-08
       197  18 -6.043711E+04  3.865436E+03  6.946035E+03 -1.190139E+02 -7.323955E-07 -4.084546E-07
       197  19 -7.870339E+04 -2.331981E+03 -8.753568E+02 -1.521941E+02  1.133998E+03 -1.125819E+01
       197  20 -7.908713E+04 -2.667241E+03  6.743438E+01 -1.427723E+02  2.342827E+03 -1.040580E+01
       197  21 -7.869652E+04 -6.999590E+02  2.381192E+03 -1.910398E+02  3.551668E+03 -5.978777E+00
       197  22 -6.956694E+04 -4.775922E+01  1.408722E+03 -1.520681E+02  1.133928E+03 -1.125835E+01
       197  23 -6.995407E+04 -3.837785E+02  2.350664E+03 -1.247032E+02  2.342858E+03 -1.040571E+01
       197  24 -6.956685E+04  1.582743E+03  4.663628E+03 -1.550272E+02  3.551801E+03 -5.978391E+00
       197  25 -6.043043E+04  2.236456E+03  3.692794E+03 -1.519423E+02  1.133857E+03 -1.125850E+01
       197  26 -6.082094E+04  1.899677E+03  4.633886E+03 -1.066339E+02  2.342889E+03 -1.040562E+01
       197  27 -6.043709E+04  3.865439E+03  6.946058E+03 -1.190141E+02  3.551933E+03 -5.978005E+00
       198   1 -7.493721E+04 -1.846650E+03  4.271552E+03 -1.061551E+02 -4.504130E+03  3.149110E+00
       198   2 -7.709106E+04 -3.988407E+03  7.757022E+03 -1.262366E+02 -9.396989E+03 -5.769571E+00
       198   3 -7.490911E+04  8.585724E+03  1.811126E+04 -3.715831E+02 -1.428986E+04 -1.609729E+01
       198   4 -6.877551E+04 -3.065012E+02  5.811852E+03 -1.845122E+02 -4.504153E+03  3.149712E+00
       198   5 -7.094312E+04 -2.451170E+03  9.294004E+03 -8.023055E+01 -9.397087E+03 -5.770225E+00
       198   6 -6.877496E+04  1.011998E+04  1.964493E+04 -2.012135E+02 -1.429003E+04 -1.610115E+01
       198   7 -6.261377E+04  1.233645E+03  7.352149E+03 -2.628703E+02 -4.504175E+03  3.150271E+00
       198   8 -6.479514E+04 -9.139357E+02  1.083098E+04 -3.422420E+01 -9.397186E+03 -5.771076E+00
       198   9 -6.264076E+04  1.165424E+04  2.117859E+04 -3.084246E+01 -1.429020E+04 -1.610536E+01
       198  10 -7.493723E+04 -1.846637E+03  4.271519E+03 -1.061461E+02  2.360330E-05 -8.662694E-06
       198  11 -7.709114E+04 -3.988348E+03  7.756877E+03 -1.261964E+02  9.108637E-05 -4.139364E-05
       198  12 -7.490930E+04  8.585817E+03  1.811091E+04 -3.715112E+02  1.545424E-04 -7.603622E-05
       198  13 -6.877553E+04 -3.065068E+02  5.811814E+03 -1.845121E+02  4.785755E-05  1.226559E-05
       198  14 -7.094321E+04 -2.451194E+03  9.293839E+03 -8.023075E+01  2.123040E-04  5.475565E-05
       198  15 -6.877517E+04  1.011993E+04  1.964454E+04 -2.012135E+02  3.767413E-04  9.729523E-05
       198  16 -6.261379E+04  1.233620E+03  7.352107E+03 -2.628797E+02  1.473349E-05 -1.103547E-05
       198  17 -6.479525E+04 -9.140438E+02  1.083080E+04 -3.426537E+01  7.897822E-05 -4.536542E-05
       198  18 -6.264102E+04  1.165404E+04  2.117817E+04 -3.091488E+01  1.472188E-04 -7.765428E-05
       198  19 -7.493720E+04 -1.846613E+03  4.271561E+03 -1.061371E+02  4.504131E+03 -3.149127E+00
       198  20 -7.709102E+04 -3.988241E+03  7.757064E+03 -1.261562E+02  9.396989E+03  5.769489E+00
       198  21 -7.490904E+04  8.586020E+03  1.811133E+04 -3.714389E+02  1.428986E+04  1.609714E+01
       198  22 -6.877550E+04 -3.065014E+02  5.811853E+03 -1.845120E+02  4.504153E+03 -3.149688E+00
       198  23 -7.094311E+04 -2.451171E+03  9.294005E+03 -8.023086E+01  9.397087E+03  5.770335E+00
       198  24 -6.877495E+04  1.011998E+04  1.964493E+04 -2.012131E+02  1.429003E+04  1.610135E+01
       198  25 -6.261378E+04  1.233607E+03  7.352140E+03 -2.628890E+02  4.504175E+03 -3.150293E+00
       198  26 -6.479518E+04 -9.141044E+02  1.083094E+04 -3.430645E+01  9.397186E+03  5.770985E+00
       198  27 -6.264084E+04  1.165394E+04  2.117852E+04 -3.098694E+01  1.429020E+04  1.610521E+01
       199   1 -6.463960E+04 -2.158459E+03  2.354180E+04  3.496329E+02 -1.823679E+04 -2.475664E+01
       199   2 -7.760062E+04 -1.575390E+04  3.578050E+04 -3.220800E+02 -3.791201E+04 -5.868273E+01
       199   3 -6.459518E+04  6.425612E+04  8.423303E+04 -1.376965E+03 -5.758682E+04 -8.972469E+01
       199   4 -6.396876E+04 -1.992914E+03  2.370902E+04 -1.898883E+02 -1.823691E+04 -2.474078E+01
       199   5 -7.695010E+04 -1.559021E+04  3.594334E+04 -4.998313E+01 -3.791208E+04 -5.869931E+01
       199   6 -6.396500E+04  6.441788E+04  8.439143E+04 -2.932483E+02 -5.758684E+04 -8.982516E+01
       199   7 -6.329793E+04 -1.827368E+03  2.387625E+04 -7.294099E+02 -1.823703E+04 -2.472527E+01
       199   8 -7.629957E+04 -1.542653E+04  3.610618E+04  2.221142E+02 -3.791215E+04 -5.871609E+01
       199   9 -6.333481E+04  6.457965E+04  8.454983E+04  7.904698E+02 -5.758685E+04 -8.992568E+01
       199  10 -6.463992E+04 -2.158400E+03  2.354121E+04  3.497047E+02  1.473019E-04 -7.763363E-05
       199  11 -7.760215E+04 -1.575420E+04  3.577782E+04 -3.220407E+02  7.877651E-05 -4.548951E-05
       199  12 -6.459874E+04  6.425525E+04  8.422681E+04 -1.376960E+03  1.543141E-05 -1.064699E-05
       199  13 -6.396912E+04 -1.993003E+03  2.370840E+04 -1.898889E+02  3.767424E-04  9.727749E-05
       199  14 -7.695164E+04 -1.559060E+04  3.594064E+04 -4.998473E+01  2.122995E-04  5.472073E-05
       199  15 -6.396856E+04  6.441699E+04  8.438520E+04 -2.932527E+02  4.785422E-05  1.231274E-05
       199  16 -6.329832E+04 -1.827605E+03  2.387558E+04 -7.294824E+02  1.544511E-04 -7.609407E-05
       199  17 -7.630114E+04 -1.542700E+04  3.610346E+04  2.220722E+02  9.126828E-05 -4.132980E-05
       199  18 -6.333838E+04  6.457874E+04  8.454359E+04  7.904565E+02  2.289772E-05 -8.967134E-06
       199  19 -6.463952E+04 -2.158162E+03  2.354187E+04  3.497773E+02  1.823679E+04  2.475649E+01
       199  20 -7.760058E+04 -1.575373E+04  3.578054E+04 -3.219977E+02  3.791201E+04  5.868264E+01
       199  21 -6.459517E+04  6.425616E+04  8.423304E+04 -1.376947E+03  5.758682E+04  8.972467E+01
       199  22 -6.396877E+04 -1.992914E+03  2.370902E+04 -1.898888E+02  1.823691E+04  2.474098E+01
       199  23 -7.695010E+04 -1.559021E+04  3.594334E+04 -4.998275E+01  3.791208E+04  5.869942E+01
       199  24 -6.396500E+04  6.441788E+04  8.439143E+04 -2.932487E+02  5.758684E+04  8.982518E+01
       199  25 -6.329800E+04 -1.827664E+03  2.387617E+04 -7.295541E+02  1.823703E+04  2.472512E+01
       199  26 -7.629962E+04 -1.542670E+04  3.610614E+04  2.220338E+02  3.791215E+04  5.871601E+01
       199  27 -6.333483E+04  6.457961E+04  8.454982E+04  7.904516E+02  5.758685E+04  8.992566E+01
       200   1 -2.380797E+05 -1.108365E+06 -2.675831E+05  8.474378E+04 -4.459274E+03 -1.031412E+05
       200   2 -8.340106E+04 -9.987916E+05 -1.632477E+05  2.578662E+04 -1.296478E+04 -6.142367E+04
       200   3 -7.343344E+04 -9.304118E+05 -1.222085E+05  3.276967E+04 -9.843456E+03 -1.968100E+04
       200   4 -1.150312E+05 -6.160940E+05 -1.458764E+05  4.773440E+04 -4.465351E+03 -9.601536E+04
       200   5  1.657318E+04 -5.959920E+05 -6.672983E+04  1.486362E+04 -1.296515E+04 -6.012502E+04
       200   6  4.529856E+03 -6.160475E+05 -4.679488E+04  4.793547E+04 -9.837947E+03 -2.421597E+04
       200   7  8.004288E+03 -1.235998E+05 -2.418681E+04  1.069567E+04 -4.472277E+03 -8.888380E+04
       200   8  1.165361E+05 -1.930433E+05  2.977664E+04  3.933546E+03 -1.296557E+04 -5.882552E+04
       200   9  8.248685E+04 -3.015920E+05  2.861188E+04  6.310900E+04 -9.832661E+03 -2.875322E+04
       200  10 -2.380826E+05 -1.108376E+06 -2.676032E+05  8.474341E+04  3.262510E-09  6.230389E-11
       200  11 -8.340226E+04 -9.987957E+05 -1.632552E+05  2.578598E+04 -2.743758E-09  3.331302E-09
       200  12 -7.343365E+04 -9.304123E+05 -1.222094E+05  3.276952E+04 -1.221809E-09 -1.485248E-09
       200  13 -1.150337E+05 -6.161039E+05 -1.458938E+05  4.773405E+04  2.712900E-09  5.072117E-09
       200  14  1.657203E+04 -5.959959E+05 -6.673695E+04  1.486299E+04  2.053420E-09 -3.702786E-09
       200  15  4.529594E+03 -6.160482E+05 -4.679617E+04  4.793527E+04  2.490531E-09  9.199406E-10
       200  16  8.002145E+03 -1.236083E+05 -2.420170E+04  1.069535E+04  1.518247E-10 -4.212180E-09
       200  17  1.165350E+05 -1.930470E+05  2.976982E+04  3.932932E+03  3.022081E-09 -1.580780E-09
       200  18  8.248653E+04 -3.015929E+05  2.861014E+04  6.310878E+04 -3.990622E-09 -1.975185E-09
       200  19 -2.380797E+05 -1.108365E+06 -2.675831E+05  8.474378E+04  4.459274E+03  1.031412E+05
       200  20 -8.340106E+04 -9.987916E+05 -1.632477E+05  2.578662E+04  1.296478E+04  6.142367E+04
       200  21 -7.343344E+04 -9.304118E+05 -1.222085E+05  3.276967E+04  9.843456E+03  1.968100E+04
       200  22 -1.150312E+05 -6.160940E+05 -1.458764E+05  4.773440E+04  4.465351E+03  9.601536E+04
       200  23  1.657318E+04 -5.959920E+05 -6.672983E+04  1.486362E+04  1.296515E+04  6.012502E+04
       200  24  4.529856E+03 -6.160475E+05 -4.679488E+04  4.793547E+04  9.837947E+03  2.421597E+04
       200  25  8.004288E+03 -1.235998E+05 -2.418681E+04  1.069567E+04  4.472277E+03  8.888380E+04
       200  26  1.165361E+05 -1.930433E+05  2.977664E+04  3.933546E+03  1.296557E+04  5.882552E+04
       200  27  8.248685E+04 -3.015920E+05  2.861188E+04  6.310900E+04  9.832661E+03  2.875322E+04
       201   1 -5.969063E+04 -8.029935E+05 -8.824434E+04  5.340008E+04 -6.007356E+03 -1.530450E+04
       201   2 -2.228276E+04 -7.086002E+05 -5.757965E+04  1.472529E+04 -3.291176E+03  1.582303E+03
       201   3 -1.527390E+04 -6.237932E+05 -4.547520E+04  4.292456E+04 -2.440913E+02  1.847119E+04
       201   4 -1.159340E+04 -6.092394E+05 -4.174008E+04  4.807723E+04 -6.005598E+03 -1.660174E+04
       201   5  3.556688E+03 -6.044559E+05 -3.260335E+04  1.464059E+04 -3.289497E+03  1.218828E+02
       201   6 -1.166042E+04 -6.092359E+05 -4.191006E+04  4.807808E+04 -2.422537E+02  1.684518E+04
       201   7  3.650119E+04 -4.154508E+05  4.761529E+03  4.275273E+04 -6.003819E+03 -1.789938E+04
       201   8  2.939535E+04 -5.003016E+05 -7.627816E+03  1.455589E+04 -3.287817E+03 -1.338782E+03
       201   9 -8.046859E+03 -5.946784E+05 -3.834491E+04  5.323172E+04 -2.404432E+02  1.521914E+04
       201  10 -5.969073E+04 -8.029938E+05 -8.824485E+04  5.340000E+04 -9.192504E-10  3.560807E-09
       201  11 -2.228277E+04 -7.086002E+05 -5.757968E+04  1.472529E+04  3.519812E-10  5.584078E-09
       201  12 -1.527399E+04 -6.237935E+05 -4.547584E+04  4.292456E+04  1.061769E-09  4.412152E-10
       201  13 -1.159352E+04 -6.092397E+05 -4.174067E+04  4.807715E+04  2.600909E-09  1.633593E-09
       201  14  3.556676E+03 -6.044559E+05 -3.260337E+04  1.464059E+04  2.185206E-09 -3.291526E-09
       201  15 -1.166050E+04 -6.092362E+05 -4.191059E+04  4.807808E+04 -1.999464E-09  6.894837E-10
       201  16  3.650107E+04 -4.154511E+05  4.760859E+03  4.275264E+04 -5.186643E-09 -6.044895E-09
       201  17  2.939533E+04 -5.003016E+05 -7.627840E+03  1.455589E+04 -6.201900E-10 -3.681532E-09
       201  18 -8.046922E+03 -5.946786E+05 -3.834534E+04  5.323172E+04  1.001290E-10 -3.655622E-09
       201  19 -5.969063E+04 -8.029935E+05 -8.824434E+04  5.340008E+04  6.007356E+03  1.530450E+04
       201  20 -2.228276E+04 -7.086002E+05 -5.757965E+04  1.472529E+04  3.291176E+03 -1.582303E+03
       201  21 -1.527390E+04 -6.237932E+05 -4.547520E+04  4.292456E+04  2.440913E+02 -1.847119E+04
       201  22 -1.159340E+04 -6.092394E+05 -4.174008E+04  4.807723E+04  6.005598E+03  1.660174E+04
       201  23  3.556688E+03 -6.044559E+05 -3.260335E+04  1.464059E+04  3.289497E+03 -1.218828E+02
       201  24 -1.166042E+04 -6.092359E+05 -4.191006E+04  4.807808E+04  2.422537E+02 -1.684518E+04
       201  25  3.650119E+04 -4.154508E+05  4.761529E+03  4.275273E+04  6.003819E+03  1.789938E+04
       201  26  2.939535E+04 -5.003016E+05 -7.627816E+03  1.455589E+04  3.287817E+03  1.338782E+03
       201  27 -8.046859E+03 -5.946784E+05 -3.834491E+04  5.323172E+04  2.404432E+02 -1.521914E+04
       202   1  3.098143E+04 -5.097313E+05 -2.143984E+04  6.354676E+04  3.027894E+03  2.799634E+04
       202   2  6.527489E+04 -4.002399E+05 -2.033468E+04  3.996847E+03  6.315930E+03  6.051224E+04
       202   3 -4.449306E+04 -3.307392E+05 -7.636506E+04  1.095157E+04  2.366559E+03  9.302419E+04
       202   4  4.604662E+03 -6.161391E+05 -4.704743E+04  4.804838E+04  3.030908E+03  2.449475E+04
       202   5  1.673708E+04 -5.958348E+05 -6.717147E+04  1.471681E+04  6.316933E+03  6.064494E+04
       202   6 -1.158512E+05 -6.161788E+05 -1.469720E+05  4.789364E+04  2.367288E+03  9.678631E+04
       202   7 -2.177202E+04 -7.225360E+05 -7.265566E+04  3.255268E+04  3.034096E+03  2.099376E+04
       202   8 -3.180308E+04 -7.913943E+05 -1.140109E+05  2.543339E+04  6.317941E+03  6.077760E+04
       202   9 -1.872103E+05 -9.015414E+05 -2.175842E+05  8.481872E+04  2.368466E+03  1.005467E+05
       202  10  3.098121E+04 -5.097321E+05 -2.144133E+04  6.354669E+04 -1.228179E-10  3.995491E-09
       202  11  6.527387E+04 -4.002438E+05 -2.034164E+04  3.996539E+03 -3.994819E-09  5.068804E-09
       202  12 -4.449539E+04 -3.307485E+05 -7.638134E+04  1.095139E+04 -1.392456E-09 -1.292404E-09
       202  13  4.604491E+03 -6.161397E+05 -4.704858E+04  4.804832E+04 -7.400830E-10  3.057296E-09
       202  14  1.673605E+04 -5.958387E+05 -6.717846E+04  1.471650E+04 -1.450523E-09 -1.855047E-09
       202  15 -1.158537E+05 -6.161888E+05 -1.469896E+05  4.789346E+04 -7.365724E-11  2.522434E-09
       202  16 -2.177215E+04 -7.225365E+05 -7.265650E+04  3.255263E+04  1.059674E-09 -6.522838E-09
       202  17 -3.180412E+04 -7.913983E+05 -1.140179E+05  2.543308E+04  2.888843E-09 -3.858952E-09
       202  18 -1.872130E+05 -9.015522E+05 -2.176032E+05  8.481853E+04  1.827770E-09 -2.100446E-09
       202  19  3.098143E+04 -5.097313E+05 -2.143984E+04  6.354676E+04 -3.027894E+03 -2.799634E+04
       202  20  6.527489E+04 -4.002399E+05 -2.033468E+04  3.996847E+03 -6.315930E+03 -6.051224E+04
       202  21 -4.449306E+04 -3.307392E+05 -7.636506E+04  1.095157E+04 -2.366559E+03 -9.302419E+04
       202  22  4.604662E+03 -6.161391E+05 -4.704743E+04  4.804838E+04 -3.030908E+03 -2.449475E+04
       202  23  1.673708E+04 -5.958348E+05 -6.717147E+04  1.471681E+04 -6.316933E+03 -6.064494E+04
       202  24 -1.158512E+05 -6.161788E+05 -1.469720E+05  4.789364E+04 -2.367288E+03 -9.678631E+04
       202  25 -2.177202E+04 -7.225360E+05 -7.265566E+04  3.255268E+04 -3.034096E+03 -2.099376E+04
       202  26 -3.180308E+04 -7.913943E+05 -1.140109E+05  2.543339E+04 -6.317941E+03 -6.077760E+04
       202  27 -1.872103E+05 -9.015414E+05 -2.175842E+05  8.481872E+04 -2.368466E+03 -1.005467E+05
       203   1  4.890764E+05  1.679722E+05  1.026571E+05  1.800085E+05  4.926465E+04  1.709773E+04
       203   2  4.717911E+05  9.173355E+04  5.577341E+04  1.803003E+05  3.172628E+04  7.544605E+03
       203   3  4.746764E+05  8.403201E+04  3.982808E+04  1.711237E+05  1.307713E+04  9.376356E+02
       203   4  3.927951E+05  1.122336E+05  7.283106E+04  1.338387E+05  4.680467E+04  1.616789E+04
       203   5  3.790310E+05  5.101198E+04  3.076591E+04  1.488096E+05  3.105703E+04  7.291712E+03
       203   6  3.850866E+05  5.797778E+04  1.822414E+04  1.543112E+05  1.419822E+04  1.360789E+03
       203   7  2.965248E+05  5.650062E+04  4.300451E+04  8.767708E+04  4.434514E+04  1.523840E+04
       203   8  2.862797E+05  1.029201E+04  5.757727E+03  1.173236E+05  3.038788E+04  7.038877E+03
       203   9  2.955042E+05  3.192330E+04 -3.380449E+03  1.375003E+05  1.531913E+04  1.783912E+03
       203  10  4.890738E+05  1.679712E+05  1.026520E+05  1.800079E+05 -3.404343E-09  4.240805E-10
       203  11  4.717900E+05  9.173322E+04  5.577142E+04  1.803001E+05 -1.877986E-10  4.349445E-09
       203  12  4.746762E+05  8.403197E+04  3.982776E+04  1.711237E+05  2.789667E-10  3.705052E-09
       203  13  3.927927E+05  1.122327E+05  7.282645E+04  1.338381E+05  6.493777E-11 -3.821563E-09
       203  14  3.790300E+05  5.101166E+04  3.076400E+04  1.488094E+05  6.051898E-09  5.063474E-09
       203  15  3.850864E+05  5.797773E+04  1.822376E+04  1.543111E+05  2.031547E-09  1.382516E-09
       203  16  2.965226E+05  5.649985E+04  4.300038E+04  8.767653E+04 -3.891432E-10  4.441392E-09
       203  17  2.862787E+05  1.029171E+04  5.755900E+03  1.173234E+05 -2.602635E-10  2.363143E-09
       203  18  2.955040E+05  3.192323E+04 -3.380896E+03  1.375003E+05 -7.054655E-11  3.780699E-10
       203  19  4.890764E+05  1.679722E+05  1.026571E+05  1.800085E+05 -4.926465E+04 -1.709773E+04
       203  20  4.717911E+05  9.173355E+04  5.577341E+04  1.803003E+05 -3.172628E+04 -7.544605E+03
       203  21  4.746764E+05  8.403201E+04  3.982808E+04  1.711237E+05 -1.307713E+04 -9.376356E+02
       203  22  3.927951E+05  1.122336E+05  7.283106E+04  1.338387E+05 -4.680467E+04 -1.616789E+04
       203  23  3.790310E+05  5.101198E+04  3.076591E+04  1.488096E+05 -3.105703E+04 -7.291712E+03
       203  24  3.850866E+05  5.797778E+04  1.822414E+04  1.543112E+05 -1.419822E+04 -1.360789E+03
       203  25  2.965248E+05  5.650062E+04  4.300451E+04  8.767708E+04 -4.434514E+04 -1.523840E+04
       203  26  2.862797E+05  1.029201E+04  5.757727E+03  1.173236E+05 -3.038788E+04 -7.038877E+03
       203  27  2.955042E+05  3.192330E+04 -3.380449E+03  1.375003E+05 -1.531913E+04 -1.783912E+03
       204   1  4.512032E+05  9.217923E+04  3.265995E+04  1.706074E+05  1.119767E+04  1.095695E+03
       204   2  4.403197E+05  7.823995E+04  2.181852E+04  1.643709E+05  7.190682E+03  9.052223E+01
       204   3  4.262119E+05  7.590668E+04  1.539110E+04  1.634456E+05  3.117695E+03 -7.395511E+02
       204   4  3.827365E+05  6.491421E+04  1.470796E+04  1.502326E+05  1.141313E+04  1.176941E+03
       204   5  3.840131E+05  5.668468E+04  7.246763E+03  1.484971E+05  7.512823E+03  2.120704E+02
       204   6  3.820444E+05  6.004033E+04  4.115454E+03  1.520727E+05  3.546441E+03 -5.777394E+02
       204   7  3.142744E+05  3.764965E+04 -3.244423E+03  1.298600E+05  1.162856E+04  1.258176E+03
       204   8  3.277097E+05  3.512968E+04 -7.325228E+03  1.326247E+05  7.834932E+03  3.336057E+02
       204   9  3.378789E+05  4.417413E+04 -7.160308E+03  1.407006E+05  3.975152E+03 -4.159396E+02
       204  10  4.512031E+05  9.217919E+04  3.265971E+04  1.706074E+05 -1.072481E-09  2.776943E-09
       204  11  4.403196E+05  7.823994E+04  2.181842E+04  1.643709E+05  2.352489E-09  8.838106E-10
       204  12  4.262119E+05  7.590668E+04  1.539108E+04  1.634456E+05  4.345975E-10 -4.782738E-09
       204  13  3.827364E+05  6.491417E+04  1.470772E+04  1.502326E+05 -7.779222E-10  1.052071E-09
       204  14  3.840130E+05  5.668466E+04  7.246657E+03  1.484971E+05  2.323774E-09 -5.952806E-09
       204  15  3.820444E+05  6.004033E+04  4.115430E+03  1.520727E+05 -4.403459E-09  1.868622E-09
       204  16  3.142742E+05  3.764961E+04 -3.244680E+03  1.298599E+05  1.433815E-09 -1.192377E-09
       204  17  3.277096E+05  3.512966E+04 -7.325343E+03  1.326247E+05  1.175835E-09  9.237228E-09
       204  18  3.378789E+05  4.417412E+04 -7.160338E+03  1.407006E+05 -3.434702E-09  4.976377E-09
       204  19  4.512032E+05  9.217923E+04  3.265995E+04  1.706074E+05 -1.119767E+04 -1.095695E+03
       204  20  4.403197E+05  7.823995E+04  2.181852E+04  1.643709E+05 -7.190682E+03 -9.052223E+01
       204  21  4.262119E+05  7.590668E+04  1.539110E+04  1.634456E+05 -3.117695E+03  7.395511E+02
       204  22  3.827365E+05  6.491421E+04  1.470796E+04  1.502326E+05 -1.141313E+04 -1.176941E+03
       204  23  3.840131E+05  5.668468E+04  7.246763E+03  1.484971E+05 -7.512823E+03 -2.120704E+02
       204  24  3.820444E+05  6.004033E+04  4.115454E+03  1.520727E+05 -3.546441E+03  5.777394E+02
       204  25  3.142744E+05  3.764965E+04 -3.244423E+03  1.298600E+05 -1.162856E+04 -1.258176E+03
       204  26  3.277097E+05  3.512968E+04 -7.325228E+03  1.326247E+05 -7.834932E+03 -3.336057E+02
       204  27  3.378789E+05  4.417413E+04 -7.160308E+03  1.407006E+05 -3.975152E+03  4.159396E+02
       205   1  4.109775E+05  7.169313E+04  1.067228E+04  1.597976E+05  2.438519E+03 -5.480837E+02
       205   2  4.008607E+05  6.338305E+04  5.902566E+03  1.529828E+05  1.342576E+03 -2.516570E+02
       205   3  3.851974E+05  6.145333E+04  1.913771E+03  1.527189E+05  2.428068E+02  5.487305E+01
       205   4  3.817833E+05  6.064184E+04  3.182924E+03  1.516847E+05  2.812707E+03 -4.068577E+02
       205   5  3.845269E+05  5.723908E+04  1.696202E+03  1.484898E+05  1.722940E+03 -1.080926E+02
       205   6  3.817229E+05  6.021556E+04  9.856256E+02  1.518457E+05  6.293280E+02  2.007690E+02
       205   7  3.525899E+05  4.959056E+04 -4.306529E+03  1.435721E+05  3.186877E+03 -2.656385E+02
       205   8  3.681934E+05  5.109510E+04 -2.510193E+03  1.439969E+05  2.103293E+03  3.546786E+01
       205   9  3.782485E+05  5.897780E+04  5.747996E+01  1.509726E+05  1.015847E+03  3.466643E+02
       205  10  4.109775E+05  7.169313E+04  1.067227E+04  1.597976E+05  1.043161E-09  1.659780E-09
       205  11  4.008607E+05  6.338305E+04  5.902563E+03  1.529828E+05  2.253752E-09  4.391087E-09
       205  12  3.851974E+05  6.145333E+04  1.913771E+03  1.527189E+05 -3.991686E-09 -5.401366E-09
       205  13  3.817833E+05  6.064183E+04  3.182908E+03  1.516847E+05 -3.069431E-09 -3.926687E-09
       205  14  3.845269E+05  5.723907E+04  1.696196E+03  1.484898E+05 -4.766110E-10  4.636094E-09
       205  15  3.817229E+05  6.021556E+04  9.856247E+02  1.518457E+05 -1.222599E-09  7.659586E-10
       205  16  3.525899E+05  4.959056E+04 -4.306548E+03  1.435721E+05 -1.029994E-09 -6.338331E-10
       205  17  3.681934E+05  5.109510E+04 -2.510201E+03  1.439969E+05  3.154592E-09  6.336312E-09
       205  18  3.782485E+05  5.897780E+04  5.747780E+01  1.509726E+05  4.997350E-09 -7.063999E-10
       205  19  4.109775E+05  7.169313E+04  1.067228E+04  1.597976E+05 -2.438519E+03  5.480837E+02
       205  20  4.008607E+05  6.338305E+04  5.902566E+03  1.529828E+05 -1.342576E+03  2.516570E+02
       205  21  3.851974E+05  6.145333E+04  1.913771E+03  1.527189E+05 -2.428068E+02 -5.487305E+01
       205  22  3.817833E+05  6.064184E+04  3.182924E+03  1.516847E+05 -2.812707E+03  4.068577E+02
       205  23  3.845269E+05  5.723908E+04  1.696202E+03  1.484898E+05 -1.722940E+03  1.080926E+02
       205  24  3.817229E+05  6.021556E+04  9.856256E+02  1.518457E+05 -6.293280E+02 -2.007690E+02
       205  25  3.525899E+05  4.959056E+04 -4.306529E+03  1.435721E+05 -3.186877E+03  2.656385E+02
       205  26  3.681934E+05  5.109510E+04 -2.510193E+03  1.439969E+05 -2.103293E+03 -3.546786E+01
       205  27  3.782485E+05  5.897780E+04  5.747996E+01  1.509726E+05 -1.015847E+03 -3.466643E+02
       206   1  3.707684E+05  5.615146E+04 -2.079027E+03  1.488114E+05 -3.862528E+01  3.707056E+02
       206   2  3.607416E+05  4.832904E+04 -5.617443E+03  1.419366E+05 -5.388542E+02  9.040707E+02
       206   3  3.449141E+05  4.641903E+04 -8.947017E+03  1.417132E+05 -1.039481E+03  1.438624E+03
       206   4  3.816885E+05  6.026544E+04  7.806403E+02  1.518100E+05  3.447546E+02  5.154144E+02
       206   5  3.845866E+05  5.729330E+04  5.222812E+02  1.484905E+05 -1.547674E+02  1.049036E+03
       206   6  3.816838E+05  6.023340E+04  4.722228E+02  1.518221E+05 -6.546947E+02  1.583844E+03
       206   7  3.926087E+05  6.437941E+04  3.640287E+03  1.548087E+05  7.281406E+02  6.601256E+02
       206   8  4.084322E+05  6.625760E+04  6.661959E+03  1.550445E+05  2.293356E+02  1.194007E+03
       206   9  4.184549E+05  7.404790E+04  9.891387E+03  1.619315E+05 -2.698822E+02  1.729075E+03
       206  10  3.707684E+05  5.615146E+04 -2.079027E+03  1.488114E+05 -6.127296E-09 -5.802534E-09
       206  11  3.607416E+05  4.832904E+04 -5.617445E+03  1.419366E+05 -2.996817E-10  1.643658E-09
       206  12  3.449141E+05  4.641903E+04 -8.947023E+03  1.417132E+05  5.946306E-09 -7.237239E-10
       206  13  3.816885E+05  6.026544E+04  7.806395E+02  1.518100E+05 -4.037219E-09 -1.423540E-09
       206  14  3.845866E+05  5.729330E+04  5.222791E+02  1.484905E+05  1.584835E-09 -9.271941E-09
       206  15  3.816838E+05  6.023339E+04  4.722173E+02  1.518221E+05  2.931324E-09 -3.578921E-09
       206  16  3.926087E+05  6.437941E+04  3.640286E+03  1.548087E+05  5.862913E-09  2.307393E-09
       206  17  4.084322E+05  6.625759E+04  6.661956E+03  1.550445E+05 -2.398552E-09 -1.004499E-08
       206  18  4.184549E+05  7.404790E+04  9.891382E+03  1.619315E+05 -7.555614E-09 -1.487871E-09
       206  19  3.707684E+05  5.615146E+04 -2.079027E+03  1.488114E+05  3.862528E+01 -3.707056E+02
       206  20  3.607416E+05  4.832904E+04 -5.617443E+03  1.419366E+05  5.388542E+02 -9.040707E+02
       206  21  3.449141E+05  4.641903E+04 -8.947017E+03  1.417132E+05  1.039481E+03 -1.438624E+03
       206  22  3.816885E+05  6.026544E+04  7.806403E+02  1.518100E+05 -3.447546E+02 -5.154144E+02
       206  23  3.845866E+05  5.729330E+04  5.222812E+02  1.484905E+05  1.547674E+02 -1.049036E+03
       206  24  3.816838E+05  6.023340E+04  4.722228E+02  1.518221E+05  6.546947E+02 -1.583844E+03
       206  25  3.926087E+05  6.437941E+04  3.640287E+03  1.548087E+05 -7.281406E+02 -6.601256E+02
       206  26  4.084322E+05  6.625760E+04  6.661959E+03  1.550445E+05 -2.293356E+02 -1.194007E+03
       206  27  4.184549E+05  7.404790E+04  9.891387E+03  1.619315E+05  2.698822E+02 -1.729075E+03
       207   1  3.305230E+05  4.101629E+04 -1.271001E+04  1.377942E+05 -1.260624E+03  1.776985E+03
       207   2  3.204421E+05  3.318517E+04 -1.579475E+04  1.308716E+05 -1.859630E+03  2.276574E+03
       207   3  3.045615E+05  3.132398E+04 -1.858926E+04  1.306310E+05 -2.458751E+03  2.776788E+03
       207   4  3.816825E+05  6.023792E+04  5.074462E+02  1.518318E+05 -8.752380E+02  1.922420E+03
       207   5  3.845861E+05  5.727961E+04  7.180123E+02  1.484808E+05 -1.473921E+03  2.422105E+03
       207   6  3.816897E+05  6.029109E+04  1.218540E+03  1.518116E+05 -2.072729E+03  2.922410E+03
       207   7  4.328445E+05  7.945971E+04  1.372468E+04  1.658706E+05 -4.898172E+02  2.067869E+03
       207   8  4.487339E+05  8.137427E+04  1.723041E+04  1.660916E+05 -1.088170E+03  2.567651E+03
       207   9  4.588233E+05  8.925848E+04  2.102577E+04  1.729945E+05 -1.686655E+03  3.068051E+03
       207  10  3.305230E+05  4.101629E+04 -1.271001E+04  1.377942E+05 -5.964066E-10  1.404339E-09
       207  11  3.204421E+05  3.318516E+04 -1.579477E+04  1.308716E+05 -1.231596E-09  5.297461E-09
       207  12  3.045615E+05  3.132397E+04 -1.858928E+04  1.306311E+05 -2.087288E-11 -6.182149E-09
       207  13  3.816825E+05  6.023791E+04  5.074378E+02  1.518318E+05  1.808609E-09  1.023737E-08
       207  14  3.845861E+05  5.727960E+04  7.179972E+02  1.484808E+05 -1.269183E-09 -1.457297E-10
       207  15  3.816897E+05  6.029108E+04  1.218516E+03  1.518116E+05 -7.043619E-10 -2.098907E-09
       207  16  4.328445E+05  7.945970E+04  1.372467E+04  1.658706E+05 -2.240831E-10  6.931674E-10
       207  17  4.487339E+05  8.137426E+04  1.723039E+04  1.660916E+05  2.684946E-09 -9.655483E-10
       207  18  4.588233E+05  8.925847E+04  2.102575E+04  1.729945E+05  3.314801E-10  1.589502E-09
       207  19  3.305230E+05  4.101629E+04 -1.271001E+04  1.377942E+05  1.260624E+03 -1.776985E+03
       207  20  3.204421E+05  3.318517E+04 -1.579475E+04  1.308716E+05  1.859630E+03 -2.276574E+03
       207  21  3.045615E+05  3.132398E+04 -1.858926E+04  1.306310E+05  2.458751E+03 -2.776788E+03
       207  22  3.816825E+05  6.023792E+04  5.074462E+02  1.518318E+05  8.752380E+02 -1.922420E+03
       207  23  3.845861E+05  5.727961E+04  7.180123E+02  1.484808E+05  1.473921E+03 -2.422105E+03
       207  24  3.816897E+05  6.029109E+04  1.218540E+03  1.518116E+05  2.072729E+03 -2.922410E+03
       207  25  4.328445E+05  7.945971E+04  1.372468E+04  1.658706E+05  4.898172E+02 -2.067869E+03
       207  26  4.487339E+05  8.137427E+04  1.723041E+04  1.660916E+05  1.088170E+03 -2.567651E+03
       207  27  4.588233E+05  8.925848E+04  2.102577E+04  1.729945E+05  1.686655E+03 -3.068051E+03
       208   1  2.900379E+05  2.588687E+04 -2.204981E+04  1.268387E+05 -2.836696E+03  3.061574E+03
       208   2  2.797873E+05  1.782293E+04 -2.416245E+04  1.197020E+05 -4.478057E+03  3.172429E+03
       208   3  2.641194E+05  1.657104E+04 -2.499750E+04  1.191498E+05 -6.113207E+03  3.267247E+03
       208   4  3.817377E+05  6.022130E+04  1.582629E+03  1.518867E+05 -2.443985E+03  3.209697E+03
       208   5  3.844953E+05  5.716861E+04  2.796213E+03  1.484606E+05 -4.095331E+03  3.316742E+03
       208   6  3.818375E+05  6.092991E+04  5.295233E+03  1.516189E+05 -5.740498E+03  3.407740E+03
       208   7  4.734460E+05  9.455637E+04  2.521446E+04  1.769382E+05 -2.051209E+03  3.357845E+03
       208   8  4.892141E+05  9.651507E+04  2.975403E+04  1.772236E+05 -3.712535E+03  3.461082E+03
       208   9  4.995691E+05  1.052897E+05  3.558682E+04  1.840936E+05 -5.367711E+03  3.548262E+03
       208  10  2.900379E+05  2.588686E+04 -2.204984E+04  1.268387E+05  4.461979E-10 -4.706286E-09
       208  11  2.797873E+05  1.782291E+04 -2.416251E+04  1.197020E+05 -1.198033E-09  2.062703E-09
       208  12  2.641193E+05  1.657102E+04 -2.499759E+04  1.191499E+05  2.474515E-09  2.013330E-09
       208  13  3.817377E+05  6.022129E+04  1.582598E+03  1.518867E+05 -1.388409E-09 -1.558017E-09
       208  14  3.844953E+05  5.716859E+04  2.796161E+03  1.484606E+05  7.460931E-10 -8.167009E-09
       208  15  3.818374E+05  6.092989E+04  5.295149E+03  1.516189E+05 -2.025319E-09 -2.952816E-09
       208  16  4.734460E+05  9.455636E+04  2.521443E+04  1.769382E+05 -2.182234E-10  5.894587E-09
       208  17  4.892141E+05  9.651505E+04  2.975398E+04  1.772236E+05  1.660103E-09  6.780145E-09
       208  18  4.995690E+05  1.052897E+05  3.558675E+04  1.840936E+05 -4.266873E-10 -7.067476E-09
       208  19  2.900379E+05  2.588687E+04 -2.204981E+04  1.268387E+05  2.836696E+03 -3.061574E+03
       208  20  2.797873E+05  1.782293E+04 -2.416245E+04  1.197020E+05  4.478057E+03 -3.172429E+03
       208  21  2.641194E+05  1.657104E+04 -2.499750E+04  1.191498E+05  6.113207E+03 -3.267247E+03
       208  22  3.817377E+05  6.022130E+04  1.582629E+03  1.518867E+05  2.443985E+03 -3.209697E+03
       208  23  3.844953E+05  5.716861E+04  2.796213E+03  1.484606E+05  4.095331E+03 -3.316742E+03
       208  24  3.818375E+05  6.092991E+04  5.295233E+03  1.516189E+05  5.740498E+03 -3.407740E+03
       208  25  4.734460E+05  9.455637E+04  2.521446E+04  1.769382E+05  2.051209E+03 -3.357845E+03
       208  26  4.892141E+05  9.651507E+04  2.975403E+04  1.772236E+05  3.712535E+03 -3.461082E+03
       208  27  4.995691E+05  1.052897E+05  3.558682E+04  1.840936E+05  5.367711E+03 -3.548262E+03
       209   1  2.489010E+05  1.106623E+04 -2.728502E+04  1.169364E+05 -7.343528E+03  3.279743E+03
       209   2  2.383800E+05  1.010632E+03 -2.543273E+04  1.079141E+05 -1.361735E+04  1.623758E+03
       209   3  2.262191E+05  6.471414E+03 -1.649756E+04  1.034614E+05 -1.977440E+04 -3.411520E+02
       209   4  3.822666E+05  5.993562E+04  6.857721E+03  1.522779E+05 -6.873313E+03  3.456988E+03
       209   5  3.836447E+05  5.622826E+04  1.208987E+04  1.484586E+05 -1.333611E+04  1.729655E+03
       209   6  3.834192E+05  6.807297E+04  2.455332E+04  1.492086E+05 -1.968231E+04 -3.066659E+02
       209   7  5.156491E+05  1.088058E+05  4.099888E+04  1.876261E+05 -6.402989E+03  3.634271E+03
       209   8  5.289299E+05  1.114474E+05  4.961073E+04  1.890116E+05 -1.305481E+04  1.835581E+03
       209   9  5.406440E+05  1.296769E+05  6.560227E+04  1.949667E+05 -1.959019E+04 -2.721688E+02
       209  10  2.489009E+05  1.106621E+04 -2.728514E+04  1.169364E+05 -5.625176E-09  8.012791E-10
       209  11  2.383798E+05  1.010579E+03 -2.543309E+04  1.079141E+05  1.496453E-09  2.914332E-09
       209  12  2.262187E+05  6.471309E+03 -1.649830E+04  1.034614E+05  5.722187E-09  2.132505E-10
       209  13  3.822666E+05  5.993560E+04  6.857610E+03  1.522779E+05 -1.437880E-09 -3.532623E-09
       209  14  3.836445E+05  5.622821E+04  1.208954E+04  1.484586E+05 -3.287529E-10  9.018051E-09
       209  15  3.834188E+05  6.807286E+04  2.455259E+04  1.492086E+05 -2.769224E-09  1.626295E-09
       209  16  5.156490E+05  1.088057E+05  4.099878E+04  1.876261E+05  6.178913E-09  4.011620E-10
       209  17  5.289297E+05  1.114473E+05  4.961041E+04  1.890117E+05 -6.391850E-09 -1.023090E-10
       209  18  5.406436E+05  1.296768E+05  6.560155E+04  1.949666E+05 -6.505934E-09  3.164717E-09
       209  19  2.489010E+05  1.106623E+04 -2.728502E+04  1.169364E+05  7.343528E+03 -3.279743E+03
       209  20  2.383800E+05  1.010632E+03 -2.543273E+04  1.079141E+05  1.361735E+04 -1.623758E+03
       209  21  2.262191E+05  6.471414E+03 -1.649756E+04  1.034614E+05  1.977440E+04  3.411520E+02
       209  22  3.822666E+05  5.993562E+04  6.857721E+03  1.522779E+05  6.873313E+03 -3.456988E+03
       209  23  3.836447E+05  5.622826E+04  1.208987E+04  1.484586E+05  1.333611E+04 -1.729655E+03
       209  24  3.834192E+05  6.807297E+04  2.455332E+04  1.492086E+05  1.968231E+04  3.066659E+02
       209  25  5.156491E+05  1.088058E+05  4.099888E+04  1.876261E+05  6.402989E+03 -3.634271E+03
       209  26  5.289299E+05  1.114474E+05  4.961073E+04  1.890116E+05  1.305481E+04 -1.835581E+03
       209  27  5.406440E+05  1.296769E+05  6.560227E+04  1.949667E+05  1.959019E+04  2.721688E+02
       210   1  2.041554E+05  3.993599E+02 -1.425664E+04  1.187686E+05 -2.595733E+04 -1.449366E+03
       210   2  1.951542E+05 -3.067844E+04  3.101861E+03  8.951555E+04 -5.076540E+04 -1.057417E+04
       210   3  2.224105E+05  4.773904E+04  6.725383E+04  4.019966E+04 -7.360557E+04 -2.492097E+04
       210   4  3.873459E+05  5.649120E+04  3.042594E+04  1.560167E+05 -2.425838E+04 -8.086507E+02
       210   5  3.753293E+05  4.674971E+04  5.136596E+04  1.489745E+05 -5.224458E+04 -1.113260E+04
       210   6  4.001857E+05  1.471112E+05  1.216065E+05  1.218733E+05 -7.826303E+04 -2.667993E+04
       210   7  5.705695E+05  1.125829E+05  7.510625E+04  1.932736E+05 -2.255888E+04 -1.678133E+02
       210   8  5.555353E+05  1.241824E+05  9.962692E+04  2.084497E+05 -5.372422E+04 -1.169127E+04
       210   9  5.779919E+05  2.464974E+05  1.759556E+05  2.035708E+05 -8.292188E+04 -2.844001E+04
       210  10  2.041547E+05  3.991769E+02 -1.425791E+04  1.187686E+05 -7.594309E-09 -2.892032E-09
       210  11  1.951514E+05 -3.067925E+04  3.096810E+03  8.951512E+04 -2.880827E-09 -3.909553E-09
       210  12  2.224045E+05  4.773692E+04  6.724249E+04  4.019818E+04  6.787689E-10 -5.204131E-10
       210  13  3.873453E+05  5.649104E+04  3.042484E+04  1.560167E+05  7.065588E-10 -5.814623E-09
       210  14  3.753263E+05  4.674884E+04  5.136060E+04  1.489740E+05  4.356682E-09 -5.264983E-09
       210  15  4.001789E+05  1.471088E+05  1.215936E+05  1.218717E+05  1.529740E-09  4.297001E-09
       210  16  5.705689E+05  1.125828E+05  7.510530E+04  1.932736E+05  1.024979E-08  1.108938E-08
       210  17  5.555322E+05  1.241815E+05  9.962125E+04  2.084492E+05 -2.196541E-10 -1.836430E-09
       210  18  5.779843E+05  2.464947E+05  1.759411E+05  2.035689E+05 -2.144478E-09  1.511515E-09
       210  19  2.041554E+05  3.993599E+02 -1.425664E+04  1.187686E+05  2.595733E+04  1.449366E+03
       210  20  1.951542E+05 -3.067844E+04  3.101861E+03  8.951555E+04  5.076540E+04  1.057417E+04
       210  21  2.224105E+05  4.773904E+04  6.725383E+04  4.019966E+04  7.360557E+04  2.492097E+04
       210  22  3.873459E+05  5.649120E+04  3.042594E+04  1.560167E+05  2.425838E+04  8.086507E+02
       210  23  3.753293E+05  4.674971E+04  5.136596E+04  1.489745E+05  5.224458E+04  1.113260E+04
       210  24  4.001857E+05  1.471112E+05  1.216065E+05  1.218733E+05  7.826303E+04  2.667993E+04
       210  25  5.705695E+05  1.125829E+05  7.510625E+04  1.932736E+05  2.255888E+04  1.678133E+02
       210  26  5.555353E+05  1.241824E+05  9.962692E+04  2.084497E+05  5.372422E+04  1.169127E+04
       210  27  5.779919E+05  2.464974E+05  1.759556E+05  2.035708E+05  8.292188E+04  2.844001E+04
       211   1 -5.108043E+03 -5.052836E+05 -6.418474E+03 -2.499157E+03 -1.126145E+02 -1.889008E+03
       211   2 -2.912193E+03 -5.133467E+05 -7.028947E+03 -7.868172E+02 -5.084733E+02  8.405485E+01
       211   3 -5.843839E+03 -5.229706E+05 -1.021132E+04 -4.632492E+03 -8.975980E+02  2.057138E+03
       211   4 -3.870694E+03 -5.003246E+05 -5.221999E+03 -4.028766E+03 -1.129806E+02 -1.651477E+03
       211   5  5.023672E+02 -4.995444E+05 -3.774640E+03 -1.246954E+03 -5.088350E+02  3.175706E+02
       211   6 -2.512799E+02 -5.003242E+05 -4.896329E+03 -4.023147E+03 -8.979487E+02  2.286665E+03
       211   7 -2.633337E+03 -4.953657E+05 -4.025525E+03 -5.558387E+03 -1.133478E+02 -1.413944E+03
       211   8  3.916914E+03 -4.857420E+05 -5.203458E+02 -1.707102E+03 -5.091970E+02  5.510916E+02
       211   9  5.341245E+03 -4.776773E+05  4.186326E+02 -3.413780E+03 -8.982990E+02  2.516201E+03
       211  10 -5.108044E+03 -5.052836E+05 -6.418481E+03 -2.499158E+03 -1.569882E-09 -3.456937E-09
       211  11 -2.912193E+03 -5.133467E+05 -7.028948E+03 -7.868172E+02 -3.948066E-09 -1.028077E-08
       211  12 -5.843841E+03 -5.229706E+05 -1.021133E+04 -4.632490E+03 -7.027482E-09 -8.623919E-09
       211  13 -3.870694E+03 -5.003246E+05 -5.222005E+03 -4.028766E+03  4.218785E-09  4.460107E-11
       211  14  5.023669E+02 -4.995444E+05 -3.774641E+03 -1.246954E+03 -1.260421E-09  2.614439E-09
       211  15 -2.512821E+02 -5.003242E+05 -4.896340E+03 -4.023145E+03  3.470908E-09  1.888992E-09
       211  16 -2.633338E+03 -4.953657E+05 -4.025529E+03 -5.558387E+03 -5.304189E-10  3.442760E-09
       211  17  3.916914E+03 -4.857420E+05 -5.203468E+02 -1.707102E+03  1.760642E-09  5.353258E-09
       211  18  5.341242E+03 -4.776773E+05  4.186191E+02 -3.413778E+03 -1.198206E-09  7.591415E-09
       211  19 -5.108043E+03 -5.052836E+05 -6.418474E+03 -2.499157E+03  1.126145E+02  1.889008E+03
       211  20 -2.912193E+03 -5.133467E+05 -7.028947E+03 -7.868172E+02  5.084733E+02 -8.405485E+01
       211  21 -5.843839E+03 -5.229706E+05 -1.021132E+04 -4.632492E+03  8.975980E+02 -2.057138E+03
       211  22 -3.870694E+03 -5.003246E+05 -5.221999E+03 -4.028766E+03  1.129806E+02  1.651477E+03
       211  23  5.023672E+02 -4.995444E+05 -3.774640E+03 -1.246954E+03  5.088350E+02 -3.175706E+02
       211  24 -2.512799E+02 -5.003242E+05 -4.896329E+03 -4.023147E+03  8.979487E+02 -2.286665E+03
       211  25 -2.633337E+03 -4.953657E+05 -4.025525E+03 -5.558387E+03  1.133478E+02  1.413944E+03
       211  26  3.916914E+03 -4.857420E+05 -5.203458E+02 -1.707102E+03  5.091970E+02 -5.510916E+02
       211  27  5.341245E+03 -4.776773E+05  4.186326E+02 -3.413780E+03  8.982990E+02 -2.516201E+03
       212   1 -8.106757E+03 -5.330418E+05 -1.352277E+04 -3.020685E+03 -1.142818E+03  2.955233E+03
       212   2 -9.535712E+03 -5.406856E+05 -1.862273E+04 -1.603214E+03 -1.532115E+03  7.544982E+03
       212   3 -1.775751E+04 -5.506456E+05 -2.841519E+04 -5.713658E+03 -1.806796E+03  1.213485E+04
       212   4 -4.920806E+01 -5.004897E+05 -5.823909E+03 -4.015642E+03 -1.143224E+03  3.218929E+03
       212   5  6.867991E+02 -4.993387E+05 -8.874256E+03 -1.255677E+03 -1.532399E+03  7.740212E+03
       212   6 -5.357874E+03 -5.004920E+05 -1.656927E+04 -4.023622E+03 -1.806942E+03  1.226168E+04
       212   7  8.008269E+03 -4.679366E+05  1.874879E+03 -5.010650E+03 -1.143631E+03  3.482638E+03
       212   8  1.090919E+04 -4.579903E+05  8.741018E+02 -9.081163E+02 -1.532683E+03  7.935455E+03
       212   9  7.041593E+03 -4.503360E+05 -4.723523E+03 -2.333447E+03 -1.807087E+03  1.238852E+04
       212  10 -8.106761E+03 -5.330418E+05 -1.352279E+04 -3.020682E+03 -7.769089E-09 -1.113840E-09
       212  11 -9.535730E+03 -5.406856E+05 -1.862284E+04 -1.603205E+03  6.576590E-10  2.970372E-09
       212  12 -1.775755E+04 -5.506457E+05 -2.841547E+04 -5.713641E+03 -8.334502E-10  8.227365E-09
       212  13 -4.921225E+01 -5.004897E+05 -5.823931E+03 -4.015639E+03  1.189435E-09 -1.072784E-09
       212  14  6.867805E+02 -4.993388E+05 -8.874373E+03 -1.255668E+03  1.387292E-11 -2.885488E-09
       212  15 -5.357918E+03 -5.004921E+05 -1.656956E+04 -4.023604E+03 -4.880760E-09 -1.916043E-09
       212  16  8.008264E+03 -4.679366E+05  1.874853E+03 -5.010647E+03  1.551465E-09  1.625778E-09
       212  17  1.090917E+04 -4.579903E+05  8.739789E+02 -9.081065E+02 -6.242551E-10 -7.391597E-09
       212  18  7.041549E+03 -4.503362E+05 -4.723818E+03 -2.333429E+03 -1.433934E-09 -7.227783E-09
       212  19 -8.106757E+03 -5.330418E+05 -1.352277E+04 -3.020685E+03  1.142818E+03 -2.955233E+03
       212  20 -9.535712E+03 -5.406856E+05 -1.862273E+04 -1.603214E+03  1.532115E+03 -7.544982E+03
       212  21 -1.775751E+04 -5.506456E+05 -2.841519E+04 -5.713658E+03  1.806796E+03 -1.213485E+04
       212  22 -4.920806E+01 -5.004897E+05 -5.823909E+03 -4.015642E+03  1.143224E+03 -3.218929E+03
       212  23  6.867991E+02 -4.993387E+05 -8.874256E+03 -1.255677E+03  1.532399E+03 -7.740212E+03
       212  24 -5.357874E+03 -5.004920E+05 -1.656927E+04 -4.023622E+03  1.806942E+03 -1.226168E+04
       212  25  8.008269E+03 -4.679366E+05  1.874879E+03 -5.010650E+03  1.143631E+03 -3.482638E+03
       212  26  1.090919E+04 -4.579903E+05  8.741018E+02 -9.081163E+02  1.532683E+03 -7.935455E+03
       212  27  7.041593E+03 -4.503360E+05 -4.723523E+03 -2.333447E+03  1.807087E+03 -1.238852E+04
       213   1 -1.166318E+04 -5.643162E+05 -3.443402E+04  4.510065E+03 -2.285130E+03  1.465395E+04
       213   2 -1.037137E+04 -5.631825E+05 -4.897250E+04 -7.670677E+03 -2.537324E+03  3.339048E+04
       213   3 -7.851248E+04 -5.818687E+05 -9.307840E+04 -2.533029E+04 -9.097417E+02  5.212918E+04
       213   4  3.194788E+03 -5.043374E+05 -2.030817E+04 -3.980471E+03 -2.286349E+03  1.535318E+04
       213   5  6.583261E+03 -4.945338E+05 -3.277673E+04 -1.285201E+03 -2.536341E+03  3.296382E+04
       213   6 -5.926227E+04 -5.043527E+05 -7.402821E+04 -4.069455E+03 -9.057507E+02  5.057694E+04
       213   7  1.805277E+04 -4.443552E+05 -6.182535E+03 -1.247183E+04 -2.287588E+03  1.605247E+04
       213   8  2.353771E+04 -4.258806E+05 -1.658127E+04  5.100986E+03 -2.535368E+03  3.253710E+04
       213   9 -4.001079E+04 -4.268302E+05 -5.497821E+04  1.719404E+04 -9.018664E+02  4.902451E+04
       213  10 -1.166324E+04 -5.643165E+05 -3.443444E+04  4.510092E+03 -2.504339E-09 -4.737042E-10
       213  11 -1.037168E+04 -5.631837E+05 -4.897461E+04 -7.670608E+03  2.944419E-09 -7.674948E-10
       213  12 -7.851321E+04 -5.818716E+05 -9.308351E+04 -2.533025E+04  3.523368E-09  3.658030E-10
       213  13  3.194719E+03 -5.043377E+05 -2.030863E+04 -3.980443E+03  1.604246E-09 -1.054658E-09
       213  14  6.582962E+03 -4.945350E+05 -3.277879E+04 -1.285134E+03 -1.252242E-09 -2.798772E-09
       213  15 -5.926295E+04 -5.043554E+05 -7.403302E+04 -4.069419E+03 -2.183682E-09  2.283642E-09
       213  16  1.805269E+04 -4.443555E+05 -6.183030E+03 -1.247180E+04  8.403325E-11 -5.911075E-10
       213  17  2.353742E+04 -4.258818E+05 -1.658327E+04  5.101053E+03  3.721650E-10 -5.764983E-10
       213  18 -4.001144E+04 -4.268328E+05 -5.498273E+04  1.719408E+04  1.221921E-09  7.109296E-10
       213  19 -1.166318E+04 -5.643162E+05 -3.443402E+04  4.510065E+03  2.285130E+03 -1.465395E+04
       213  20 -1.037137E+04 -5.631825E+05 -4.897250E+04 -7.670677E+03  2.537324E+03 -3.339048E+04
       213  21 -7.851248E+04 -5.818687E+05 -9.307840E+04 -2.533029E+04  9.097417E+02 -5.212918E+04
       213  22  3.194788E+03 -5.043374E+05 -2.030817E+04 -3.980471E+03  2.286349E+03 -1.535318E+04
       213  23  6.583261E+03 -4.945338E+05 -3.277673E+04 -1.285201E+03  2.536341E+03 -3.296382E+04
       213  24 -5.926227E+04 -5.043527E+05 -7.402821E+04 -4.069455E+03  9.057507E+02 -5.057694E+04
       213  25  1.805277E+04 -4.443552E+05 -6.182535E+03 -1.247183E+04  2.287588E+03 -1.605247E+04
       213  26  2.353771E+04 -4.258806E+05 -1.658127E+04  5.100986E+03  2.535368E+03 -3.253710E+04
       213  27 -4.001079E+04 -4.268302E+05 -5.497821E+04  1.719404E+04  9.018664E+02 -4.902451E+04
       214   1  3.805474E-01  1.021397E-01  1.721503E+01  9.165068E-03 -1.559726E+00 -9.361146E-03
       214   2 -4.739454E-01 -2.259543E-01  2.124014E+01  1.025967E-02 -1.207729E+01 -7.247511E-02
       214   3  3.804802E-01  8.035875E-01  3.245217E+01  1.338542E-02 -2.259471E+01 -1.355897E-01
       214   4  3.797803E-01  1.018366E-01  1.721481E+01  1.646465E-03 -1.559726E+00 -9.361148E-03
       214   5 -4.746669E-01 -2.263099E-01  2.123993E+01 -1.472788E-03 -1.207729E+01 -7.247509E-02
       214   6  3.798055E-01  8.031844E-01  3.245195E+01 -2.562968E-03 -2.259471E+01 -1.355897E-01
       214   7  3.790124E-01  1.015291E-01  1.721460E+01 -5.874177E-03 -1.559726E+00 -9.361144E-03
       214   8 -4.753874E-01 -2.266619E-01  2.123971E+01 -1.320583E-02 -1.207729E+01 -7.247511E-02
       214   9  3.791304E-01  8.027803E-01  3.245174E+01 -1.851214E-02 -2.259471E+01 -1.355897E-01
       214  10  3.805479E-01  1.021426E-01  1.721503E+01  9.162930E-03  9.763969E-10  7.928400E-10
       214  11 -4.739435E-01 -2.259462E-01  2.124015E+01  1.026068E-02 -3.702826E-09 -3.333397E-09
       214  12  3.804839E-01  8.036042E-01  3.245217E+01  1.338559E-02 -2.100577E-09 -2.752489E-10
       214  13  3.797802E-01  1.018358E-01  1.721481E+01  1.645828E-03 -3.712753E-09  6.982067E-09
       214  14 -4.746672E-01 -2.263107E-01  2.123993E+01 -1.472977E-03 -7.203738E-09  7.299489E-09
       214  15  3.798050E-01  8.031847E-01  3.245195E+01 -2.563224E-03 -5.266077E-09  3.931761E-09
       214  16  3.790106E-01  1.015217E-01  1.721459E+01 -5.872235E-03 -8.821745E-10 -4.052207E-09
       214  17 -4.753907E-01 -2.266745E-01  2.123971E+01 -1.320573E-02 -1.930487E-10 -7.776064E-09
       214  18  3.791257E-01  8.027639E-01  3.245173E+01 -1.851001E-02 -3.653220E-09 -2.968940E-09
       214  19  3.805508E-01  1.021543E-01  1.721503E+01  9.163446E-03  1.559726E+00  9.361158E-03
       214  20 -4.739411E-01 -2.259373E-01  2.124015E+01  1.025864E-02  1.207729E+01  7.247512E-02
       214  21  3.804853E-01  8.036070E-01  3.245217E+01  1.338460E-02  2.259471E+01  1.355898E-01
       214  22  3.797801E-01  1.018355E-01  1.721481E+01  1.645904E-03  1.559726E+00  9.361153E-03
       214  23 -4.746673E-01 -2.263116E-01  2.123993E+01 -1.472518E-03  1.207729E+01  7.247514E-02
       214  24  3.798050E-01  8.031825E-01  3.245195E+01 -2.562990E-03  2.259471E+01  1.355898E-01
       214  25  3.790090E-01  1.015151E-01  1.721459E+01 -5.872280E-03  1.559726E+00  9.361161E-03
       214  26 -4.753923E-01 -2.266812E-01  2.123971E+01 -1.320454E-02  1.207729E+01  7.247512E-02
       214  27  3.791251E-01  8.027596E-01  3.245173E+01 -1.851037E-02  2.259471E+01  1.355897E-01
       215   1  1.491998E+00 -3.390689E-02  4.130784E+01  8.611151E-02 -2.927896E+01 -1.757018E-01
       215   2 -1.860992E+00 -1.477840E+00  6.941870E+01  4.865146E-02 -6.374406E+01 -3.825225E-01
       215   3  1.492853E+00  5.954939E+00  1.221872E+02 -1.905163E-03 -9.820968E+01 -5.893465E-01
       215   4  1.490363E+00 -3.546654E-02  4.130720E+01  9.135507E-03 -2.927896E+01 -1.757018E-01
       215   5 -1.862947E+00 -1.479100E+00  6.941806E+01 -2.286052E-03 -6.374406E+01 -3.825225E-01
       215   6  1.490581E+00  5.953993E+00  1.221865E+02 -2.680666E-02 -9.820968E+01 -5.893464E-01
       215   7  1.488728E+00 -3.702797E-02  4.130656E+01 -6.784220E-02 -2.927896E+01 -1.757018E-01
       215   8 -1.864900E+00 -1.480353E+00  6.941742E+01 -5.322475E-02 -6.374406E+01 -3.825225E-01
       215   9  1.488310E+00  5.953050E+00  1.221859E+02 -5.170877E-02 -9.820968E+01 -5.893464E-01
       215  10  1.492001E+00 -3.389061E-02  4.130785E+01  8.610919E-02  1.688917E-10  7.524513E-10
       215  11 -1.860995E+00 -1.477838E+00  6.941870E+01  4.865204E-02 -1.692688E-09 -4.119824E-09
       215  12  1.492845E+00  5.954948E+00  1.221872E+02 -1.906394E-03 -1.891722E-09 -1.188819E-08
       215  13  1.490363E+00 -3.546455E-02  4.130720E+01  9.135121E-03 -5.327994E-09  6.134122E-09
       215  14 -1.862951E+00 -1.479101E+00  6.941805E+01 -2.286408E-03 -7.750435E-09  9.743994E-09
       215  15  1.490571E+00  5.953991E+00  1.221865E+02 -2.680692E-02 -9.315885E-09  7.159784E-09
       215  16  1.488724E+00 -3.704070E-02  4.130656E+01 -6.784045E-02 -1.420400E-09 -4.631455E-09
       215  17 -1.864908E+00 -1.480369E+00  6.941741E+01 -5.322371E-02 -3.678632E-09 -4.523453E-09
       215  18  1.488296E+00  5.953034E+00  1.221859E+02 -5.170598E-02 -5.602020E-09 -4.689451E-09
       215  19  1.492000E+00 -3.389739E-02  4.130785E+01  8.610989E-02  2.927896E+01  1.757018E-01
       215  20 -1.860987E+00 -1.477821E+00  6.941871E+01  4.864954E-02  6.374406E+01  3.825225E-01
       215  21  1.492857E+00  5.954953E+00  1.221872E+02 -1.907477E-03  9.820968E+01  5.893464E-01
       215  22  1.490363E+00 -3.546800E-02  4.130720E+01  9.135239E-03  2.927896E+01  1.757018E-01
       215  23 -1.862947E+00 -1.479101E+00  6.941806E+01 -2.286236E-03  6.374406E+01  3.825225E-01
       215  24  1.490581E+00  5.953993E+00  1.221865E+02 -2.680702E-02  9.820968E+01  5.893464E-01
       215  25  1.488723E+00 -3.704780E-02  4.130656E+01 -6.783944E-02  2.927896E+01  1.757018E-01
       215  26 -1.864903E+00 -1.480365E+00  6.941742E+01 -5.322335E-02  6.374406E+01  3.825225E-01
       215  27  1.488306E+00  5.953034E+00  1.221859E+02 -5.170682E-02  9.820968E+01  5.893464E-01
       216   1  7.338752E+00 -7.175984E-01  1.596819E+02  5.061258E-01 -1.237571E+02 -7.426531E-01
       216   2 -9.172683E+00 -1.013201E+01  2.746214E+02  1.299111E-01 -2.606335E+02 -1.564029E+00
       216   3  7.348346E+00  4.128697E+01  4.938838E+02 -4.132073E-01 -3.975099E+02 -2.385404E+00
       216   4  7.340064E+00 -7.241368E-01  1.596808E+02  4.837408E-02 -1.237571E+02 -7.426530E-01
       216   5 -9.175382E+00 -1.013455E+01  2.746204E+02  5.772111E-03 -2.606335E+02 -1.564029E+00
       216   6  7.341641E+00  4.128844E+01  4.938827E+02 -2.037368E-01 -3.975099E+02 -2.385404E+00
       216   7  7.341376E+00 -7.306733E-01  1.596798E+02 -4.093791E-01 -1.237571E+02 -7.426530E-01
       216   8 -9.178080E+00 -1.013710E+01  2.746193E+02 -1.183678E-01 -2.606335E+02 -1.564029E+00
       216   9  7.334935E+00  4.128990E+01  4.938817E+02  5.732676E-03 -3.975099E+02 -2.385404E+00
       216  10  7.338739E+00 -7.175864E-01  1.596819E+02  5.061218E-01 -1.509522E-09 -6.376300E-09
       216  11 -9.172751E+00 -1.013201E+01  2.746213E+02  1.299105E-01 -4.584080E-09 -6.254629E-09
       216  12  7.348182E+00  4.128695E+01  4.938835E+02 -4.132102E-01 -4.294609E-09 -7.538004E-09
       216  13  7.340047E+00 -7.241405E-01  1.596808E+02  4.837351E-02 -9.040135E-09  4.660723E-09
       216  14 -9.175455E+00 -1.013457E+01  2.746202E+02  5.771464E-03 -1.279426E-08  3.977041E-09
       216  15  7.341472E+00  4.128840E+01  4.938824E+02 -2.037379E-01 -1.379584E-08  7.906395E-09
       216  16  7.341355E+00 -7.306962E-01  1.596798E+02 -4.093761E-01 -2.571920E-09 -8.258608E-09
       216  17 -9.178156E+00 -1.013713E+01  2.746192E+02 -1.183666E-01 -5.013382E-09 -4.636690E-09
       216  18  7.334760E+00  4.128984E+01  4.938814E+02  5.735811E-03 -7.182136E-09 -5.518859E-09
       216  19  7.338760E+00 -7.175672E-01  1.596819E+02  5.061222E-01  1.237571E+02  7.426531E-01
       216  20 -9.172678E+00 -1.013199E+01  2.746214E+02  1.299077E-01  2.606335E+02  1.564029E+00
       216  21  7.348356E+00  4.128701E+01  4.938838E+02 -4.132118E-01  3.975099E+02  2.385404E+00
       216  22  7.340064E+00 -7.241368E-01  1.596808E+02  4.837372E-02  1.237571E+02  7.426530E-01
       216  23 -9.175381E+00 -1.013455E+01  2.746204E+02  5.772258E-03  2.606335E+02  1.564029E+00
       216  24  7.341641E+00  4.128844E+01  4.938827E+02 -2.037373E-01  3.975099E+02  2.385404E+00
       216  25  7.341368E+00 -7.307056E-01  1.596798E+02 -4.093750E-01  1.237571E+02  7.426529E-01
       216  26 -9.178087E+00 -1.013712E+01  2.746193E+02 -1.183644E-01  2.606335E+02  1.564029E+00
       216  27  7.334927E+00  4.128987E+01  4.938817E+02  5.737309E-03  3.975099E+02  2.385404E+00
       217   1  3.833553E+01 -6.405734E+00  6.429279E+02  3.001278E+00 -5.005774E+02 -3.003899E+00
       217   2 -4.794916E+01 -6.723701E+01  1.098504E+03  7.614144E-02 -1.051394E+03 -6.309265E+00
       217   3  3.841332E+01  2.755759E+02  2.013609E+03 -4.235242E+00 -1.602203E+03 -9.614578E+00
       217   4  3.836266E+01 -6.439944E+00  6.429265E+02  2.688458E-01 -5.005774E+02 -3.003897E+00
       217   5 -4.795531E+01 -6.723796E+01  1.098503E+03  1.157308E-01 -1.051394E+03 -6.309265E+00
       217   6  3.837390E+01  2.756082E+02  2.013608E+03 -1.423676E+00 -1.602203E+03 -9.614585E+00
       217   7  3.838979E+01 -6.474155E+00  6.429251E+02 -2.463589E+00 -5.005774E+02 -3.003895E+00
       217   8 -4.796146E+01 -6.723891E+01  1.098501E+03  1.553194E-01 -1.051394E+03 -6.309265E+00
       217   9  3.833448E+01  2.756405E+02  2.013606E+03  1.387889E+00 -1.602203E+03 -9.614593E+00
       217  10  3.833527E+01 -6.405778E+00  6.429274E+02  3.001274E+00 -3.814952E-09 -9.874587E-09
       217  11 -4.795034E+01 -6.723729E+01  1.098502E+03  7.613538E-02 -7.247550E-09 -1.276656E-08
       217  12  3.841058E+01  2.755752E+02  2.013604E+03 -4.235257E+00 -5.891123E-09 -6.925316E-09
       217  13  3.836239E+01 -6.440010E+00  6.429260E+02  2.688441E-01 -1.388034E-08  1.489877E-08
       217  14 -4.795650E+01 -6.723825E+01  1.098501E+03  1.157254E-01 -1.761784E-08  9.571569E-09
       217  15  3.837115E+01  2.756075E+02  2.013603E+03 -1.423689E+00 -1.743585E-08  1.326494E-08
       217  16  3.838951E+01 -6.474246E+00  6.429246E+02 -2.463586E+00 -5.607162E-09 -8.253553E-09
       217  17 -4.796265E+01 -6.723922E+01  1.098499E+03  1.553157E-01 -6.592584E-09 -9.798905E-09
       217  18  3.833172E+01  2.756398E+02  2.013601E+03  1.387881E+00 -9.393802E-09 -3.296691E-09
       217  19  3.833554E+01 -6.405694E+00  6.429279E+02  3.001273E+00  5.005774E+02  3.003899E+00
       217  20 -4.794915E+01 -6.723698E+01  1.098504E+03  7.613647E-02  1.051394E+03  6.309265E+00
       217  21  3.841333E+01  2.755759E+02  2.013609E+03 -4.235248E+00  1.602203E+03  9.614578E+00
       217  22  3.836266E+01 -6.439943E+00  6.429265E+02  2.688454E-01  5.005774E+02  3.003897E+00
       217  23 -4.795531E+01 -6.723796E+01  1.098503E+03  1.157307E-01  1.051394E+03  6.309265E+00
       217  24  3.837390E+01  2.756082E+02  2.013608E+03 -1.423677E+00  1.602203E+03  9.614585E+00
       217  25  3.838978E+01 -6.474194E+00  6.429251E+02 -2.463583E+00  5.005774E+02  3.003895E+00
       217  26 -4.796147E+01 -6.723894E+01  1.098501E+03  1.553243E-01  1.051394E+03  6.309265E+00
       217  27  3.833447E+01  2.756405E+02  2.013606E+03  1.387895E+00  1.602203E+03  9.614593E+00
       218   1  2.099275E+02 -4.801019E+01  2.597974E+03  1.815363E+01 -2.020541E+03 -1.212502E+01
       218   2 -2.626067E+02 -4.376207E+02  4.381535E+03 -2.524301E+00 -4.238419E+03 -2.543410E+01
       218   3  2.104960E+02  1.799864E+03  8.265859E+03 -3.329309E+01 -6.456337E+03 -3.874327E+01
       218   4  2.101199E+02 -4.821121E+01  2.597972E+03  1.550247E+00 -2.020541E+03 -1.212497E+01
       218   5 -2.626566E+02 -4.375796E+02  4.381534E+03  1.049736E+00 -4.238419E+03 -2.543413E+01
       218   6  2.102039E+02  1.800147E+03  8.265857E+03 -9.541369E+00 -6.456337E+03 -3.874351E+01
       218   7  2.103122E+02 -4.841222E+01  2.597971E+03 -1.505313E+01 -2.020541E+03 -1.212492E+01
       218   8 -2.627064E+02 -4.375384E+02  4.381532E+03  4.623771E+00 -4.238419E+03 -2.543415E+01
       218   9  2.099119E+02  1.800431E+03  8.265855E+03  1.421035E+01 -6.456337E+03 -3.874376E+01
       218  10  2.099231E+02 -4.801127E+01  2.597966E+03  1.815360E+01 -4.709241E-09 -1.452741E-08
       218  11 -2.626260E+02 -4.376255E+02  4.381502E+03 -2.524390E+00 -8.872746E-09 -2.271769E-08
       218  12  2.104512E+02  1.799853E+03  8.265781E+03 -3.329330E+01 -9.449580E-09 -4.442629E-09
       218  13  2.101155E+02 -4.821230E+01  2.597965E+03  1.550227E+00 -1.761518E-08  1.132472E-08
       218  14 -2.626759E+02 -4.375844E+02  4.381500E+03  1.049649E+00 -2.110790E-08  1.146115E-08
       218  15  2.101592E+02  1.800136E+03  8.265779E+03 -9.541570E+00 -2.302068E-08  1.234068E-08
       218  16  2.103078E+02 -4.841333E+01  2.597963E+03 -1.505315E+01 -7.091723E-09 -9.681585E-09
       218  17 -2.627257E+02 -4.375432E+02  4.381498E+03  4.623688E+00 -9.342046E-09 -8.984436E-09
       218  18  2.098671E+02  1.800419E+03  8.265777E+03  1.421016E+01 -9.752617E-09 -7.371824E-09
       218  19  2.099275E+02 -4.801016E+01  2.597974E+03  1.815362E+01  2.020541E+03  1.212502E+01
       218  20 -2.626067E+02 -4.376207E+02  4.381535E+03 -2.524308E+00  4.238419E+03  2.543410E+01
       218  21  2.104960E+02  1.799864E+03  8.265859E+03 -3.329310E+01  6.456337E+03  3.874327E+01
       218  22  2.101199E+02 -4.821120E+01  2.597972E+03  1.550247E+00  2.020541E+03  1.212497E+01
       218  23 -2.626566E+02 -4.375795E+02  4.381534E+03  1.049736E+00  4.238419E+03  2.543413E+01
       218  24  2.102039E+02  1.800147E+03  8.265857E+03 -9.541369E+00  6.456337E+03  3.874351E+01
       218  25  2.103122E+02 -4.841225E+01  2.597971E+03 -1.505313E+01  2.020541E+03  1.212492E+01
       218  26 -2.627064E+02 -4.375384E+02  4.381532E+03  4.623779E+00  4.238419E+03  2.543415E+01
       218  27  2.099119E+02  1.800431E+03  8.265855E+03  1.421036E+01  6.456337E+03  3.874376E+01
       219   1  1.196148E+03 -3.335406E+02  1.051741E+04  1.114020E+02 -8.161435E+03 -4.897690E+01
       219   2 -1.496204E+03 -2.815614E+03  1.737398E+04 -2.804301E+01 -1.708923E+04 -1.025489E+02
       219   3  1.200174E+03  1.160453E+04  3.426917E+04 -2.365809E+02 -2.601709E+04 -1.561173E+02
       219   4  1.197367E+03 -3.347694E+02  1.051740E+04  9.194439E+00 -8.161435E+03 -4.897556E+01
       219   5 -1.496644E+03 -2.815184E+03  1.737398E+04  7.912656E+00 -1.708923E+04 -1.025499E+02
       219   6  1.198077E+03  1.160662E+04  3.426917E+04 -6.246235E+01 -2.601709E+04 -1.561246E+02
       219   7  1.198586E+03 -3.359980E+02  1.051740E+04 -9.301314E+01 -8.161435E+03 -4.897421E+01
       219   8 -1.497083E+03 -2.814754E+03  1.737398E+04  4.386832E+01 -1.708923E+04 -1.025509E+02
       219   9  1.195979E+03  1.160871E+04  3.426917E+04  1.116562E+02 -2.601709E+04 -1.561319E+02
       219  10  1.196077E+03 -3.335585E+02  1.051728E+04  1.114017E+02 -7.992844E-09 -3.153540E-09
       219  11 -1.496518E+03 -2.815692E+03  1.737343E+04 -2.804442E+01 -1.260717E-08 -9.342442E-09
       219  12  1.199448E+03  1.160435E+04  3.426790E+04 -2.365841E+02 -1.055486E-08 -7.389131E-09
       219  13  1.197295E+03 -3.347872E+02  1.051728E+04  9.194117E+00 -2.248484E-08  1.244131E-08
       219  14 -1.496957E+03 -2.815262E+03  1.737343E+04  7.911245E+00 -2.705211E-08  1.307870E-08
       219  15  1.197350E+03  1.160644E+04  3.426790E+04 -6.246562E+01 -2.694374E-08  1.545442E-08
       219  16  1.198514E+03 -3.360159E+02  1.051728E+04 -9.301346E+01 -7.126410E-09 -9.616893E-09
       219  17 -1.497397E+03 -2.814833E+03  1.737343E+04  4.386691E+01 -1.035647E-08 -1.836363E-08
       219  18  1.195252E+03  1.160852E+04  3.426790E+04  1.116529E+02 -1.251058E-08 -6.766565E-09
       219  19  1.196148E+03 -3.335406E+02  1.051741E+04  1.114020E+02  8.161435E+03  4.897690E+01
       219  20 -1.496204E+03 -2.815614E+03  1.737398E+04 -2.804302E+01  1.708923E+04  1.025489E+02
       219  21  1.200174E+03  1.160453E+04  3.426917E+04 -2.365809E+02  2.601709E+04  1.561173E+02
       219  22  1.197367E+03 -3.347694E+02  1.051740E+04  9.194439E+00  8.161435E+03  4.897556E+01
       219  23 -1.496644E+03 -2.815184E+03  1.737398E+04  7.912656E+00  1.708923E+04  1.025499E+02
       219  24  1.198077E+03  1.160662E+04  3.426917E+04 -6.246235E+01  2.601709E+04  1.561246E+02
       219  25  1.198586E+03 -3.359981E+02  1.051740E+04 -9.301313E+01  8.161435E+03  4.897421E+01
       219  26 -1.497083E+03 -2.814754E+03  1.737398E+04  4.386833E+01  1.708923E+04  1.025509E+02
       219  27  1.195979E+03  1.160871E+04  3.426917E+04  1.116562E+02  2.601709E+04  1.561319E+02
       220   1  7.031247E+03 -2.228326E+03  4.269142E+04  6.903678E+02 -3.301162E+04 -1.981316E+02
       220   2 -8.792979E+03 -1.798739E+04  6.823890E+04 -2.257998E+02 -6.892806E+04 -4.135957E+02
       220   3  7.060370E+03  7.423240E+04  1.441723E+05 -1.599847E+03 -1.048445E+05 -6.289539E+02
       220   4  7.038856E+03 -2.235946E+03  4.269142E+04  5.565869E+01 -3.301163E+04 -1.980978E+02
       220   5 -8.796359E+03 -1.798402E+04  6.823890E+04  5.513578E+01 -6.892806E+04 -4.136269E+02
       220   6  7.045998E+03  7.424675E+04  1.441723E+05 -4.032762E+02 -1.048445E+05 -6.291560E+02
       220   7  7.046465E+03 -2.243566E+03  4.269142E+04 -5.790504E+02 -3.301163E+04 -1.980641E+02
       220   8 -8.799739E+03 -1.798065E+04  6.823890E+04  3.360714E+02 -6.892806E+04 -4.136581E+02
       220   9  7.031630E+03  7.426111E+04  1.441723E+05  7.932951E+02 -1.048445E+05 -6.293581E+02
       220  10  7.030077E+03 -2.228618E+03  4.268937E+04  6.903625E+02 -8.943767E-09 -8.938312E-09
       220  11 -8.798080E+03 -1.798867E+04  6.822997E+04 -2.258228E+02 -1.249553E-08 -3.143769E-09
       220  12  7.048568E+03  7.422945E+04  1.441516E+05 -1.599901E+03 -1.153701E-08 -5.426178E-09
       220  13  7.037686E+03 -2.236239E+03  4.268937E+04  5.565342E+01 -2.784999E-08  1.058068E-08
       220  14 -8.801460E+03 -1.798530E+04  6.822997E+04  5.511282E+01 -2.974569E-08  8.628503E-11
       220  15  7.034196E+03  7.424380E+04  1.441516E+05 -4.033293E+02 -2.880711E-08  9.407836E-09
       220  16  7.045295E+03 -2.243858E+03  4.268937E+04 -5.790557E+02 -1.049190E-08 -6.244919E-09
       220  17 -8.804841E+03 -1.798193E+04  6.822997E+04  3.360484E+02 -1.083810E-08 -1.135542E-08
       220  18  7.019828E+03  7.425816E+04  1.441516E+05  7.932419E+02 -1.295953E-08 -5.624263E-09
       220  19  7.031247E+03 -2.228326E+03  4.269142E+04  6.903678E+02  3.301162E+04  1.981316E+02
       220  20 -8.792979E+03 -1.798739E+04  6.823890E+04 -2.257998E+02  6.892806E+04  4.135957E+02
       220  21  7.060370E+03  7.423240E+04  1.441723E+05 -1.599847E+03  1.048445E+05  6.289539E+02
       220  22  7.038856E+03 -2.235946E+03  4.269142E+04  5.565869E+01  3.301163E+04  1.980978E+02
       220  23 -8.796359E+03 -1.798402E+04  6.823890E+04  5.513578E+01  6.892806E+04  4.136269E+02
       220  24  7.045998E+03  7.424675E+04  1.441723E+05 -4.032762E+02  1.048445E+05  6.291560E+02
       220  25  7.046465E+03 -2.243566E+03  4.269142E+04 -5.790504E+02  3.301163E+04  1.980641E+02
       220  26 -8.799739E+03 -1.798065E+04  6.823890E+04  3.360714E+02  6.892806E+04  4.136581E+02
       220  27  7.031630E+03  7.426111E+04  1.441723E+05  7.932951E+02  1.048445E+05  6.293581E+02
       221   1  4.229537E+04 -1.455837E+04  1.740165E+05  4.305971E+03 -1.338239E+05 -8.039115E+02
       221   2 -5.286141E+04 -1.144005E+05  2.638905E+05 -1.621361E+03 -2.781712E+05 -1.668372E+03
       221   3  4.252190E+04  4.725330E+05  6.195237E+05 -1.052747E+04 -4.225138E+05 -2.530034E+03
       221   4  4.234293E+04 -1.460598E+04  1.740165E+05  3.417541E+02 -1.338239E+05 -8.030570E+02
       221   5 -5.288532E+04 -1.143766E+05  2.638905E+05  3.690135E+02 -2.781712E+05 -1.669264E+03
       221   6  4.242646E+04  4.726283E+05  6.195237E+05 -2.581670E+03 -4.225137E+05 -2.535442E+03
       221   7  4.239051E+04 -1.465353E+04  1.740165E+05 -3.622463E+03 -1.338239E+05 -8.022025E+02
       221   8 -5.290921E+04 -1.143527E+05  2.638905E+05  2.359388E+03 -2.781712E+05 -1.670156E+03
       221   9  4.233115E+04  4.727238E+05  6.195237E+05  5.364130E+03 -4.225137E+05 -2.540850E+03
       221  10  4.227615E+04 -1.456318E+04  1.739829E+05  4.305884E+03 -8.382868E-09 -4.936773E-09
       221  11 -5.294448E+04 -1.144213E+05  2.637451E+05 -1.621735E+03 -6.854437E-09 -1.243982E-08
       221  12  4.233030E+04  4.724851E+05  6.191882E+05 -1.052833E+04 -2.743067E-09  1.456911E-09
       221  13  4.232370E+04 -1.461079E+04  1.739829E+05  3.416676E+02 -2.749666E-08  1.162703E-08
       221  14 -5.296838E+04 -1.143974E+05  2.637451E+05  3.686397E+02 -1.612357E-08  5.415421E-09
       221  15  4.223486E+04  4.725803E+05  6.191882E+05 -2.582532E+03 -3.932834E-09 -2.528749E-09
       221  16  4.237129E+04 -1.465834E+04  1.739829E+05 -3.622549E+03 -1.054772E-08 -4.132986E-09
       221  17 -5.299228E+04 -1.143735E+05  2.637451E+05  2.359014E+03 -6.437022E-09 -1.082276E-08
       221  18  4.213955E+04  4.726758E+05  6.191882E+05  5.363266E+03 -1.785965E-09 -1.105912E-08
       221  19  4.229537E+04 -1.455837E+04  1.740165E+05  4.305971E+03  1.338239E+05  8.039115E+02
       221  20 -5.286141E+04 -1.144005E+05  2.638905E+05 -1.621361E+03  2.781712E+05  1.668372E+03
       221  21  4.252190E+04  4.725330E+05  6.195237E+05 -1.052747E+04  4.225138E+05  2.530034E+03
       221  22  4.234293E+04 -1.460598E+04  1.740165E+05  3.417541E+02  1.338239E+05  8.030570E+02
       221  23 -5.288532E+04 -1.143766E+05  2.638905E+05  3.690135E+02  2.781712E+05  1.669264E+03
       221  24  4.242646E+04  4.726283E+05  6.195237E+05 -2.581670E+03  4.225137E+05  2.535442E+03
       221  25  4.239051E+04 -1.465353E+04  1.740165E+05 -3.622463E+03  1.338239E+05  8.022025E+02
       221  26 -5.290921E+04 -1.143527E+05  2.638905E+05  2.359388E+03  2.781712E+05  1.670156E+03
       221  27  4.233115E+04  4.727238E+05  6.195237E+05  5.364130E+03  4.225137E+05  2.540850E+03
       222   1  4.727166E+05  4.233787E+04  6.195603E+05 -5.364592E+03 -2.539495E+03  4.222884E+05
       222   2 -1.143632E+05 -5.291779E+04  2.640937E+05 -2.359572E+03 -1.668201E+03  2.778456E+05
       222   3 -1.461196E+04  4.239727E+04  1.744701E+05  3.622881E+03 -7.996239E+02  1.333937E+05
       222   4  4.726211E+05  4.243317E+04  6.195603E+05  2.581586E+03 -2.534090E+03  4.222884E+05
       222   5 -1.143871E+05 -5.289390E+04  2.640937E+05 -3.690246E+02 -1.667310E+03  2.778456E+05
       222   6 -1.456441E+04  4.234967E+04  1.744701E+05 -3.415452E+02 -8.004758E+02  1.333937E+05
       222   7  4.725259E+05  4.252861E+04  6.195603E+05  1.052777E+04 -2.528684E+03  4.222885E+05
       222   8 -1.144110E+05 -5.287001E+04  2.640937E+05  1.621523E+03 -1.666419E+03  2.778456E+05
       222   9 -1.451680E+04  4.230211E+04  1.744701E+05 -4.305972E+03 -8.013276E+02  1.333937E+05
       222  10  4.726687E+05  4.214647E+04  6.192252E+05 -5.363730E+03  3.983972E-09  7.173884E-10
       222  11 -1.143839E+05 -5.300067E+04  2.639486E+05 -2.359199E+03 -1.785770E-09 -1.156467E-08
       222  12 -1.461674E+04  4.237817E+04  1.744366E+05  3.622967E+03  3.391358E-10 -4.045529E-09
       222  13  4.725733E+05  4.224178E+04  6.192252E+05  2.582448E+03  3.577264E-09  6.050724E-09
       222  14 -1.144078E+05 -5.297678E+04  2.639486E+05 -3.686516E+02 -4.978907E-09 -8.341953E-09
       222  15 -1.456919E+04  4.233057E+04  1.744366E+05 -3.414592E+02  3.316616E-09  1.970824E-09
       222  16  4.724780E+05  4.233722E+04  6.192252E+05  1.052863E+04 -5.527818E-10  4.052430E-09
       222  17 -1.144317E+05 -5.295288E+04  2.639486E+05  1.621896E+03 -1.226537E-09  1.899866E-09
       222  18 -1.452158E+04  4.228300E+04  1.744366E+05 -4.305886E+03 -1.439336E-09 -1.160573E-09
       222  19  4.727166E+05  4.233787E+04  6.195603E+05 -5.364592E+03  2.539495E+03 -4.222884E+05
       222  20 -1.143632E+05 -5.291779E+04  2.640937E+05 -2.359572E+03  1.668201E+03 -2.778456E+05
       222  21 -1.461196E+04  4.239727E+04  1.744701E+05  3.622881E+03  7.996239E+02 -1.333937E+05
       222  22  4.726211E+05  4.243317E+04  6.195603E+05  2.581586E+03  2.534090E+03 -4.222884E+05
       222  23 -1.143871E+05 -5.289390E+04  2.640937E+05 -3.690246E+02  1.667310E+03 -2.778456E+05
       222  24 -1.456441E+04  4.234967E+04  1.744701E+05 -3.415452E+02  8.004758E+02 -1.333937E+05
       222  25  4.725259E+05  4.252861E+04  6.195603E+05  1.052777E+04  2.528684E+03 -4.222885E+05
       222  26 -1.144110E+05 -5.287001E+04  2.640937E+05  1.621523E+03  1.666419E+03 -2.778456E+05
       222  27 -1.451680E+04  4.230211E+04  1.744701E+05 -4.305972E+03  8.013276E+02 -1.333937E+05
       223   1  7.425445E+04  7.069573E+03  1.447850E+05 -7.963261E+02 -6.262083E+02  1.043197E+05
       223   2 -1.804771E+04 -8.847330E+03  6.931993E+04 -3.361654E+02 -4.072522E+02  6.786064E+04
       223   3 -1.967949E+03  7.084487E+03  4.469449E+04  5.832713E+02 -1.884071E+02  3.140211E+04
       223   4  7.424006E+04  7.083967E+03  1.447850E+05  4.030081E+02 -6.260068E+02  1.043197E+05
       223   5 -1.805109E+04 -8.843958E+03  6.931993E+04 -5.525258E+01 -4.072215E+02  6.786064E+04
       223   6 -1.960298E+03  7.076836E+03  4.469449E+04 -5.423243E+01 -1.884394E+02  3.140211E+04
       223   7  7.422566E+04  7.098363E+03  1.447850E+05  1.602342E+03 -6.258053E+02  1.043197E+05
       223   8 -1.805446E+04 -8.840586E+03  6.931993E+04  2.256602E+02 -4.071908E+02  6.786064E+04
       223   9 -1.952646E+03  7.069185E+03  4.469449E+04 -6.917362E+02 -1.884716E+02  3.140211E+04
       223  10  7.425153E+04  7.057889E+03  1.447645E+05 -7.962735E+02 -1.410221E-09 -2.228140E-10
       223  11 -1.804895E+04 -8.852275E+03  6.931127E+04 -3.361432E+02  8.963856E-10 -1.171516E-08
       223  12 -1.968213E+03  7.083428E+03  4.469264E+04  5.832761E+02 -2.823152E-09 -3.059501E-09
       223  13  7.423713E+04  7.072282E+03  1.447645E+05  4.030607E+02  2.298113E-09  3.496466E-09
       223  14 -1.805232E+04 -8.848903E+03  6.931127E+04 -5.523033E+01  5.634837E-09 -8.685134E-09
       223  15 -1.960563E+03  7.075777E+03  4.469264E+04 -5.422767E+01  5.511428E-09  2.646522E-09
       223  16  7.422274E+04  7.086679E+03  1.447645E+05  1.602395E+03 -1.677640E-09  2.634513E-09
       223  17 -1.805569E+04 -8.845531E+03  6.931127E+04  2.256825E+02 -3.617388E-09  1.474029E-09
       223  18 -1.952910E+03  7.068126E+03  4.469264E+04 -6.917314E+02 -9.910166E-10 -1.369512E-09
       223  19  7.425445E+04  7.069573E+03  1.447850E+05 -7.963261E+02  6.262083E+02 -1.043197E+05
       223  20 -1.804771E+04 -8.847330E+03  6.931993E+04 -3.361654E+02  4.072522E+02 -6.786064E+04
       223  21 -1.967949E+03  7.084487E+03  4.469449E+04  5.832713E+02  1.884071E+02 -3.140211E+04
       223  22  7.424006E+04  7.083967E+03  1.447850E+05  4.030081E+02  6.260068E+02 -1.043197E+05
       223  23 -1.805109E+04 -8.843958E+03  6.931993E+04 -5.525258E+01  4.072215E+02 -6.786064E+04
       223  24 -1.960298E+03  7.076836E+03  4.469449E+04 -5.423243E+01  1.884394E+02 -3.140211E+04
       223  25  7.422566E+04  7.098363E+03  1.447850E+05  1.602342E+03  6.258053E+02 -1.043197E+05
       223  26 -1.805446E+04 -8.840586E+03  6.931993E+04  2.256602E+02  4.071908E+02 -6.786064E+04
       223  27 -1.952646E+03  7.069185E+03  4.469449E+04 -6.917362E+02  1.884716E+02 -3.140211E+04
       224   1  1.156073E+04  1.405775E+03  3.685884E+04 -1.298198E+02 -1.439731E+02  2.399089E+04
       224   2 -3.252377E+03 -1.759657E+03  2.175002E+04 -4.134874E+01 -7.709803E+01  1.284774E+04
       224   3  1.463812E+03  1.408949E+03  1.877888E+04  1.263058E+02 -1.022999E+01  1.704814E+03
       224   4  1.155844E+04  1.408064E+03  3.685884E+04  6.091311E+01 -1.439658E+02  2.399089E+04
       224   5 -3.252766E+03 -1.759268E+03  2.175002E+04 -8.962581E+00 -7.709736E+01  1.284774E+04
       224   6  1.465324E+03  1.407438E+03  1.877888E+04  3.473825E-01 -1.023033E+01  1.704814E+03
       224   7  1.155616E+04  1.410353E+03  3.685884E+04  2.516460E+02 -1.439584E+02  2.399089E+04
       224   8 -3.253154E+03 -1.758879E+03  2.175002E+04  2.342358E+01 -7.709669E+01  1.284774E+04
       224   9  1.466836E+03  1.405926E+03  1.877888E+04 -1.256111E+02 -1.023068E+01  1.704814E+03
       224  10  1.156058E+04  1.405156E+03  3.685775E+04 -1.298170E+02 -4.354429E-10  3.986524E-10
       224  11 -3.252421E+03 -1.759834E+03  2.174971E+04 -4.134795E+01  1.584327E-09 -1.160771E-08
       224  12  1.463811E+03  1.408946E+03  1.877887E+04  1.263059E+02 -2.823101E-09 -2.481691E-09
       224  13  1.155829E+04  1.407446E+03  3.685775E+04  6.091589E+01 -3.780187E-09  4.700606E-09
       224  14 -3.252810E+03 -1.759445E+03  2.174971E+04 -8.961783E+00  1.763111E-09 -7.872659E-09
       224  15  1.465323E+03  1.407435E+03  1.877887E+04  3.473965E-01 -5.380412E-09  3.003506E-09
       224  16  1.155600E+04  1.409735E+03  3.685775E+04  2.516488E+02  2.017450E-09  3.159751E-09
       224  17 -3.253199E+03 -1.759056E+03  2.174971E+04  2.342438E+01 -1.958670E-09  2.611117E-09
       224  18  1.466835E+03  1.405923E+03  1.877887E+04 -1.256111E+02 -6.656025E-09 -1.586880E-09
       224  19  1.156073E+04  1.405775E+03  3.685884E+04 -1.298198E+02  1.439731E+02 -2.399089E+04
       224  20 -3.252377E+03 -1.759657E+03  2.175002E+04 -4.134874E+01  7.709803E+01 -1.284774E+04
       224  21  1.463812E+03  1.408949E+03  1.877888E+04  1.263058E+02  1.022999E+01 -1.704814E+03
       224  22  1.155844E+04  1.408064E+03  3.685884E+04  6.091311E+01  1.439658E+02 -2.399089E+04
       224  23 -3.252766E+03 -1.759268E+03  2.175002E+04 -8.962582E+00  7.709736E+01 -1.284774E+04
       224  24  1.465324E+03  1.407438E+03  1.877888E+04  3.473826E-01  1.023033E+01 -1.704814E+03
       224  25  1.155616E+04  1.410353E+03  3.685884E+04  2.516460E+02  1.439584E+02 -2.399089E+04
       224  26 -3.253154E+03 -1.758879E+03  2.175002E+04  2.342358E+01  7.709669E+01 -1.284774E+04
       224  27  1.466836E+03  1.405926E+03  1.877888E+04 -1.256111E+02  1.023068E+01 -1.704814E+03
       225   1 -6.662225E+06 -2.139643E+06 -1.086179E+06 -2.406140E+06 -3.942536E+05 -8.904859E+04
       225   2 -6.476920E+06 -1.850552E+06 -7.869804E+05 -2.337983E+06 -2.607637E+05  1.042424E+05
       225   3 -6.331296E+06 -1.727999E+06 -6.592347E+05 -2.278755E+06 -9.192702E+04  2.053226E+05
       225   4 -3.329824E+06 -7.780845E+05 -1.982474E+05 -1.389104E+06 -1.479636E+05  4.753606E+03
       225   5 -3.312041E+06 -6.316351E+05 -9.094458E+04 -1.413608E+06 -1.475948E+05  1.471819E+05
       225   6 -3.307001E+06 -6.247122E+05 -4.830869E+04 -1.447125E+06 -1.120490E+05  1.975733E+05
       225   7  1.358065E+04  5.847298E+05  6.889501E+05 -3.668719E+05  9.978775E+04  9.920802E+04
       225   8 -1.368545E+05  5.883269E+05  6.045341E+05 -4.847665E+05 -3.379571E+04  1.903802E+05
       225   9 -2.731488E+05  4.793545E+05  5.621781E+05 -6.117132E+05 -1.322778E+05  1.897849E+05
       225  10 -6.662396E+06 -2.139694E+06 -1.086490E+06 -2.406169E+06 -5.838689E-09  1.117204E-09
       225  11 -6.476996E+06 -1.850582E+06 -7.871294E+05 -2.337961E+06 -6.040179E-09  1.400673E-09
       225  12 -6.331317E+06 -1.728047E+06 -6.593296E+05 -2.278740E+06  5.733436E-10  2.655073E-09
       225  13 -3.329848E+06 -7.780904E+05 -1.982887E+05 -1.389104E+06  2.896145E-09  7.097836E-10
       225  14 -3.312070E+06 -6.316642E+05 -9.102617E+04 -1.413591E+06 -4.077475E-09  1.920501E-09
       225  15 -3.307025E+06 -6.247574E+05 -4.840546E+04 -1.447107E+06 -1.160529E-09  1.111551E-09
       225  16  1.356732E+04  5.847165E+05  6.889128E+05 -3.668798E+05  1.463472E-09  1.833885E-09
       225  17 -1.368654E+05  5.882877E+05  6.044639E+05 -4.847614E+05  4.116672E-09  5.421292E-09
       225  18 -2.731772E+05  4.793112E+05  5.620777E+05 -6.116930E+05 -1.769446E-09  1.797482E-09
       225  19 -6.662225E+06 -2.139643E+06 -1.086179E+06 -2.406140E+06  3.942536E+05  8.904859E+04
       225  20 -6.476920E+06 -1.850552E+06 -7.869804E+05 -2.337983E+06  2.607637E+05 -1.042424E+05
       225  21 -6.331296E+06 -1.727999E+06 -6.592347E+05 -2.278755E+06  9.192702E+04 -2.053226E+05
       225  22 -3.329824E+06 -7.780845E+05 -1.982474E+05 -1.389104E+06  1.479636E+05 -4.753606E+03
       225  23 -3.312041E+06 -6.316351E+05 -9.094458E+04 -1.413608E+06  1.475948E+05 -1.471819E+05
       225  24 -3.307001E+06 -6.247122E+05 -4.830869E+04 -1.447125E+06  1.120490E+05 -1.975733E+05
       225  25  1.358065E+04  5.847298E+05  6.889501E+05 -3.668719E+05 -9.978775E+04 -9.920802E+04
       225  26 -1.368545E+05  5.883269E+05  6.045341E+05 -4.847665E+05  3.379571E+04 -1.903802E+05
       225  27 -2.731488E+05  4.793545E+05  5.621781E+05 -6.117132E+05  1.322778E+05 -1.897849E+05
       226   1 -6.177341E+06 -1.694470E+06 -6.189454E+05 -2.250278E+06 -1.000502E+05  1.927379E+05
       226   2 -5.997073E+06 -1.592265E+06 -5.521449E+05 -2.173146E+06 -7.847205E+04  1.945355E+05
       226   3 -5.782576E+06 -1.534532E+06 -5.013190E+05 -2.137814E+06 -5.439951E+04  1.896817E+05
       226   4 -3.299954E+06 -6.304756E+05 -3.685590E+04 -1.443952E+06 -1.033755E+05  1.913738E+05
       226   5 -3.317305E+06 -6.056665E+05 -1.960623E+04 -1.424302E+06 -9.136882E+04  1.895609E+05
       226   6 -3.298540E+06 -6.233866E+05 -1.064892E+04 -1.446454E+06 -7.688055E+04  1.811097E+05
       226   7 -4.139431E+05  4.342748E+05  5.448243E+05 -6.341213E+05 -1.067175E+05  1.900036E+05
       226   8 -6.300458E+05  3.815836E+05  5.125919E+05 -6.724300E+05 -1.043260E+05  1.845637E+05
       226   9 -8.080753E+05  2.883072E+05  4.797318E+05 -7.525086E+05 -9.945897E+04  1.725013E+05
       226  10 -6.177361E+06 -1.694513E+06 -6.190339E+05 -2.250263E+06 -1.605596E-10  3.129150E-09
       226  11 -5.997090E+06 -1.592308E+06 -5.522274E+05 -2.173133E+06 -4.695522E-09 -2.359820E-10
       226  12 -5.782589E+06 -1.534572E+06 -5.013920E+05 -2.137806E+06 -4.775064E-09 -7.585489E-10
       226  13 -3.299975E+06 -6.305177E+05 -3.694465E+04 -1.443936E+06 -1.249382E-09  1.701785E-09
       226  14 -3.317324E+06 -6.057072E+05 -1.968929E+04 -1.424288E+06  2.399375E-09 -3.031166E-09
       226  15 -3.298556E+06 -6.234233E+05 -1.072153E+04 -1.446443E+06  1.384728E-11 -1.739499E-09
       226  16 -4.139649E+05  4.342331E+05  5.447352E+05 -6.341050E+05 -3.648473E-09 -4.272145E-10
       226  17 -6.300666E+05  3.815441E+05  5.125076E+05 -6.724145E+05 -9.117452E-10  1.120234E-09
       226  18 -8.080939E+05  2.882727E+05  4.796574E+05 -7.524948E+05  4.376539E-09 -2.421938E-10
       226  19 -6.177341E+06 -1.694470E+06 -6.189454E+05 -2.250278E+06  1.000502E+05 -1.927379E+05
       226  20 -5.997073E+06 -1.592265E+06 -5.521449E+05 -2.173146E+06  7.847205E+04 -1.945355E+05
       226  21 -5.782576E+06 -1.534532E+06 -5.013190E+05 -2.137814E+06  5.439951E+04 -1.896817E+05
       226  22 -3.299954E+06 -6.304756E+05 -3.685590E+04 -1.443952E+06  1.033755E+05 -1.913738E+05
       226  23 -3.317305E+06 -6.056665E+05 -1.960623E+04 -1.424302E+06  9.136882E+04 -1.895609E+05
       226  24 -3.298540E+06 -6.233866E+05 -1.064892E+04 -1.446454E+06  7.688055E+04 -1.811097E+05
       226  25 -4.139431E+05  4.342748E+05  5.448243E+05 -6.341213E+05  1.067175E+05 -1.900036E+05
       226  26 -6.300458E+05  3.815836E+05  5.125919E+05 -6.724300E+05  1.043260E+05 -1.845637E+05
       226  27 -8.080753E+05  2.883072E+05  4.797318E+05 -7.525086E+05  9.945897E+04 -1.725013E+05
       227   1 -5.644788E+06 -1.484608E+06 -4.704883E+05 -2.100147E+06 -5.044212E+04  1.807860E+05
       227   2 -5.459915E+06 -1.388639E+06 -4.263179E+05 -2.020314E+06 -4.158260E+04  1.668276E+05
       227   3 -5.235405E+06 -1.332213E+06 -3.843354E+05 -1.985074E+06 -3.252635E+04  1.522577E+05
       227   4 -3.297758E+06 -6.237588E+05 -8.042750E+03 -1.446612E+06 -7.194079E+04  1.726015E+05
       227   5 -3.317411E+06 -6.036071E+05 -4.510480E+03 -1.424419E+06 -6.395439E+04  1.583383E+05
       227   6 -3.297310E+06 -6.228186E+05 -2.472429E+03 -1.446827E+06 -5.577284E+04  1.434644E+05
       227   7 -9.449461E+05  2.375971E+05  4.541575E+05 -7.907563E+05 -9.352776E+04  1.643839E+05
       227   8 -1.170099E+06  1.818428E+05  4.170914E+05 -8.265955E+05 -8.640992E+04  1.498176E+05
       227   9 -1.355290E+06  8.691213E+04  3.792204E+05 -9.070077E+05 -7.909791E+04  1.346417E+05
       227  10 -5.644800E+06 -1.484644E+06 -4.705544E+05 -2.100140E+06 -2.713896E-08 -9.062138E-09
       227  11 -5.459924E+06 -1.388670E+06 -4.263733E+05 -2.020308E+06  1.317890E-09 -8.909012E-10
       227  12 -5.235412E+06 -1.332238E+06 -3.843809E+05 -1.985070E+06  3.057167E-08  7.405135E-09
       227  13 -3.297772E+06 -6.237921E+05 -8.108337E+03 -1.446602E+06  5.497899E-10 -5.948528E-10
       227  14 -3.317422E+06 -6.036351E+05 -4.565178E+03 -1.424411E+06  2.981364E-09 -1.122383E-09
       227  15 -3.297319E+06 -6.228415E+05 -2.516870E+03 -1.446821E+06  2.450595E-10 -2.270728E-09
       227  16 -9.449627E+05  2.375658E+05  4.540904E+05 -7.907440E+05  2.830903E-08  8.702499E-09
       227  17 -1.170113E+06  1.818168E+05  4.170352E+05 -8.265851E+05  1.341903E-09 -2.460990E-09
       227  18 -1.355302E+06  8.689103E+04  3.791747E+05 -9.069991E+05 -2.759698E-08 -1.353920E-08
       227  19 -5.644788E+06 -1.484608E+06 -4.704883E+05 -2.100147E+06  5.044212E+04 -1.807860E+05
       227  20 -5.459915E+06 -1.388639E+06 -4.263179E+05 -2.020314E+06  4.158260E+04 -1.668276E+05
       227  21 -5.235405E+06 -1.332213E+06 -3.843354E+05 -1.985074E+06  3.252635E+04 -1.522577E+05
       227  22 -3.297758E+06 -6.237588E+05 -8.042750E+03 -1.446612E+06  7.194079E+04 -1.726015E+05
       227  23 -3.317411E+06 -6.036071E+05 -4.510480E+03 -1.424419E+06  6.395439E+04 -1.583383E+05
       227  24 -3.297310E+06 -6.228186E+05 -2.472429E+03 -1.446827E+06  5.577284E+04 -1.434644E+05
       227  25 -9.449461E+05  2.375971E+05  4.541575E+05 -7.907563E+05  9.352776E+04 -1.643839E+05
       227  26 -1.170099E+06  1.818428E+05  4.170914E+05 -8.265955E+05  8.640992E+04 -1.498176E+05
       227  27 -1.355290E+06  8.691213E+04  3.792204E+05 -9.070077E+05  7.909791E+04 -1.346417E+05
       228   1 -5.094920E+06 -1.280486E+06 -3.549253E+05 -1.946218E+06 -2.854285E+04  1.430557E+05
       228   2 -4.905314E+06 -1.183099E+06 -3.134118E+05 -1.864753E+06 -2.162032E+04  1.272043E+05
       228   3 -4.675166E+06 -1.125820E+06 -2.723917E+05 -1.829096E+06 -1.466852E+04  1.112034E+05
       228   4 -3.297012E+06 -6.228990E+05 -1.919291E+03 -1.447076E+06 -5.187418E+04  1.342440E+05
       228   5 -3.317124E+06 -6.025638E+05 -1.240758E+03 -1.424231E+06 -4.516437E+04  1.183319E+05
       228   6 -3.296702E+06 -6.222933E+05 -8.911450E+02 -1.447205E+06 -3.842565E+04  1.022704E+05
       228   7 -1.495740E+06  3.497217E+04  3.509377E+05 -9.465855E+05 -7.527840E+04  1.254050E+05
       228   8 -1.726297E+06 -2.180326E+04  3.108175E+05 -9.826544E+05 -6.877354E+04  1.094351E+05
       228   9 -1.916242E+06 -1.185939E+05  2.705278E+05 -1.064518E+06 -6.223998E+04  9.331596E+04
       228  10 -5.094926E+06 -1.280508E+06 -3.549652E+05 -1.946214E+06  3.589557E-10 -2.370358E-09
       228  11 -4.905319E+06 -1.183117E+06 -3.134430E+05 -1.864751E+06  7.461745E-10 -4.337215E-10
       228  12 -4.675170E+06 -1.125833E+06 -2.724153E+05 -1.829095E+06 -1.839121E-09  1.288454E-09
       228  13 -3.297020E+06 -6.229191E+05 -1.958142E+03 -1.447071E+06  1.840321E-10 -2.175028E-09
       228  14 -3.317130E+06 -6.025794E+05 -1.270849E+03 -1.424227E+06 -2.724068E-10 -8.287484E-10
       228  15 -3.296707E+06 -6.223050E+05 -9.135332E+02 -1.447202E+06  1.891230E-10  7.907800E-10
       228  16 -1.495751E+06  3.495380E+04  3.508976E+05 -9.465779E+05  4.191971E-10 -2.295010E-09
       228  17 -1.726306E+06 -2.181736E+04  3.107861E+05 -9.826483E+05  1.343914E-09 -8.511052E-10
       228  18 -1.916249E+06 -1.186043E+05  2.705042E+05 -1.064513E+06  8.865805E-10  4.456558E-10
       228  19 -5.094920E+06 -1.280486E+06 -3.549253E+05 -1.946218E+06  2.854285E+04 -1.430557E+05
       228  20 -4.905314E+06 -1.183099E+06 -3.134118E+05 -1.864753E+06  2.162032E+04 -1.272043E+05
       228  21 -4.675166E+06 -1.125820E+06 -2.723917E+05 -1.829096E+06  1.466852E+04 -1.112034E+05
       228  22 -3.297012E+06 -6.228990E+05 -1.919291E+03 -1.447076E+06  5.187418E+04 -1.342440E+05
       228  23 -3.317124E+06 -6.025638E+05 -1.240758E+03 -1.424231E+06  4.516437E+04 -1.183319E+05
       228  24 -3.296702E+06 -6.222933E+05 -8.911450E+02 -1.447205E+06  3.842565E+04 -1.022704E+05
       228  25 -1.495740E+06  3.497217E+04  3.509377E+05 -9.465855E+05  7.527840E+04 -1.254050E+05
       228  26 -1.726297E+06 -2.180326E+04  3.108175E+05 -9.826544E+05  6.877354E+04 -1.094351E+05
       228  27 -1.916242E+06 -1.185939E+05  2.705278E+05 -1.064518E+06  6.223998E+04 -9.331596E+04
       229   1 -4.531840E+06 -1.073226E+06 -2.429848E+05 -1.789592E+06 -1.081850E+04  1.017442E+05
       229   2 -4.338732E+06 -9.746934E+05 -2.018106E+05 -1.707043E+06 -3.974280E+03  8.550776E+04
       229   3 -4.104732E+06 -9.168805E+05 -1.610730E+05 -1.671154E+06  2.878447E+03  6.920139E+04
       229   4 -3.296534E+06 -6.223386E+05 -8.915342E+02 -1.447395E+06 -3.469032E+04  9.277772E+04
       229   5 -3.316857E+06 -6.017740E+05 -1.120419E+03 -1.424106E+06 -2.794661E+04  7.651619E+04
       229   6 -3.296322E+06 -6.219093E+05 -1.710065E+03 -1.447490E+06 -2.119468E+04  6.018479E+04
       229   7 -2.059633E+06 -1.713154E+05  2.411350E+05 -1.104561E+06 -5.861343E+04  8.379204E+04
       229   8 -2.293896E+06 -2.287634E+05  1.995233E+05 -1.140734E+06 -5.196142E+04  6.750870E+04
       229   9 -2.487237E+06 -3.268827E+05  1.576233E+05 -1.223555E+06 -4.530143E+04  5.115560E+04
       229  10 -4.531843E+06 -1.073237E+06 -2.430045E+05 -1.789591E+06  2.379142E-09  2.622110E-09
       229  11 -4.338734E+06 -9.747013E+05 -2.018243E+05 -1.707043E+06  4.452692E-11  4.887763E-10
       229  12 -4.104733E+06 -9.168856E+05 -1.610820E+05 -1.671154E+06 -2.103255E-09  1.249168E-09
       229  13 -3.296537E+06 -6.223482E+05 -9.099373E+02 -1.447392E+06  2.314314E-11  1.331235E-09
       229  14 -3.316859E+06 -6.017805E+05 -1.132866E+03 -1.424104E+06 -4.507439E-12 -2.935110E-11
       229  15 -3.296324E+06 -6.219133E+05 -1.717702E+03 -1.447489E+06 -1.838235E-10  8.230804E-10
       229  16 -2.059638E+06 -1.713238E+05  2.411154E+05 -1.104557E+06 -2.372166E-09 -3.671232E-10
       229  17 -2.293900E+06 -2.287690E+05  1.995097E+05 -1.140731E+06 -3.877931E-11  3.940953E-10
       229  18 -2.487240E+06 -3.268861E+05  1.576145E+05 -1.223553E+06  4.195715E-10 -2.107918E-10
       229  19 -4.531840E+06 -1.073226E+06 -2.429848E+05 -1.789592E+06  1.081850E+04 -1.017442E+05
       229  20 -4.338732E+06 -9.746934E+05 -2.018106E+05 -1.707043E+06  3.974280E+03 -8.550776E+04
       229  21 -4.104732E+06 -9.168805E+05 -1.610730E+05 -1.671154E+06 -2.878447E+03 -6.920139E+04
       229  22 -3.296534E+06 -6.223386E+05 -8.915342E+02 -1.447395E+06  3.469032E+04 -9.277772E+04
       229  23 -3.316857E+06 -6.017740E+05 -1.120419E+03 -1.424106E+06  2.794661E+04 -7.651619E+04
       229  24 -3.296322E+06 -6.219093E+05 -1.710065E+03 -1.447490E+06  2.119468E+04 -6.018479E+04
       229  25 -2.059633E+06 -1.713154E+05  2.411350E+05 -1.104561E+06  5.861343E+04 -8.379204E+04
       229  26 -2.293896E+06 -2.287634E+05  1.995233E+05 -1.140734E+06  5.196142E+04 -6.750870E+04
       229  27 -2.487237E+06 -3.268827E+05  1.576233E+05 -1.223555E+06  4.530143E+04 -5.115560E+04
       230   1 -3.959499E+06 -8.637505E+05 -1.318171E+05 -1.631244E+06  6.915909E+03  5.968269E+04
       230   2 -3.764238E+06 -7.646098E+05 -9.173633E+04 -1.548059E+06  1.495394E+04  4.377812E+04
       230   3 -3.528122E+06 -7.067116E+05 -5.305108E+04 -1.512035E+06  2.294909E+04  2.796897E+04
       230   4 -3.296285E+06 -6.219283E+05 -2.228961E+03 -1.447625E+06 -1.724894E+04  5.063723E+04
       230   5 -3.316633E+06 -6.012517E+05 -3.944190E+03 -1.424036E+06 -9.073953E+03  3.478933E+04
       230   6 -3.296209E+06 -6.218502E+05 -7.168209E+03 -1.447627E+06 -9.425363E+02  1.903668E+04
       230   7 -2.632604E+06 -3.800643E+05  1.273435E+05 -1.263821E+06 -4.144184E+04  4.158125E+04
       230   8 -2.868815E+06 -4.378745E+05  8.384190E+04 -1.299929E+06 -3.312062E+04  2.579348E+04
       230   9 -3.064240E+06 -5.369835E+05  3.871464E+04 -1.383195E+06 -2.484379E+04  1.010075E+04
       230  10 -3.959500E+06 -8.637543E+05 -1.318239E+05 -1.631244E+06 -3.927076E-10  3.075841E-09
       230  11 -3.764239E+06 -7.646119E+05 -9.174036E+04 -1.548059E+06 -9.187353E-11  8.281094E-10
       230  12 -3.528122E+06 -7.067126E+05 -5.305355E+04 -1.512035E+06  1.841833E-09 -8.001468E-10
       230  13 -3.296286E+06 -6.219311E+05 -2.234329E+03 -1.447624E+06 -1.659384E-09 -3.271325E-10
       230  14 -3.316633E+06 -6.012530E+05 -3.946615E+03 -1.424036E+06  1.505699E-09  3.266599E-09
       230  15 -3.296209E+06 -6.218506E+05 -7.168891E+03 -1.447627E+06  7.794875E-10 -1.159034E-10
       230  16 -2.632607E+06 -3.800666E+05  1.273370E+05 -1.263820E+06 -3.738737E-10 -6.288975E-10
       230  17 -2.868817E+06 -4.378755E+05  8.383859E+04 -1.299928E+06 -1.131170E-09  7.065253E-10
       230  18 -3.064240E+06 -5.369838E+05  3.871328E+04 -1.383195E+06 -2.186696E-09 -1.445417E-09
       230  19 -3.959499E+06 -8.637505E+05 -1.318171E+05 -1.631244E+06 -6.915909E+03 -5.968269E+04
       230  20 -3.764238E+06 -7.646098E+05 -9.173633E+04 -1.548059E+06 -1.495394E+04 -4.377812E+04
       230  21 -3.528122E+06 -7.067116E+05 -5.305108E+04 -1.512035E+06 -2.294909E+04 -2.796897E+04
       230  22 -3.296285E+06 -6.219283E+05 -2.228961E+03 -1.447625E+06  1.724894E+04 -5.063723E+04
       230  23 -3.316633E+06 -6.012517E+05 -3.944190E+03 -1.424036E+06  9.073953E+03 -3.478933E+04
       230  24 -3.296209E+06 -6.218502E+05 -7.168209E+03 -1.447627E+06  9.425363E+02 -1.903668E+04
       230  25 -2.632604E+06 -3.800643E+05  1.273435E+05 -1.263821E+06  4.144184E+04 -4.158125E+04
       230  26 -2.868815E+06 -4.378745E+05  8.384190E+04 -1.299929E+06  3.312062E+04 -2.579348E+04
       230  27 -3.064240E+06 -5.369835E+05  3.871464E+04 -1.383195E+06  2.484379E+04 -1.010075E+04
       231   1 -3.381859E+06 -6.535931E+05 -2.546618E+04 -1.472604E+06  2.827245E+04  1.888727E+04
       231   2 -3.186552E+06 -5.538104E+05  9.404398E+03 -1.387448E+06  4.023088E+04  5.400899E+03
       231   3 -2.952381E+06 -4.990112E+05  3.869773E+04 -1.348677E+06  5.149878E+04 -6.230151E+03
       231   4 -3.296594E+06 -6.216494E+05 -9.536589E+03 -1.447879E+06  4.019603E+03  9.821200E+03
       231   5 -3.316146E+06 -6.016833E+05 -1.741272E+04 -1.423640E+06  1.866813E+04 -2.661091E+03
       231   6 -3.297421E+06 -6.272430E+05 -3.301021E+04 -1.445807E+06  3.262387E+04 -1.328865E+04
       231   7 -3.211320E+06 -5.897047E+05  6.395060E+03 -1.423150E+06 -2.023661E+04  7.537638E+02
       231   8 -3.445721E+06 -6.495542E+05 -4.422871E+04 -1.459825E+06 -2.889756E+03 -1.072122E+04
       231   9 -3.642340E+06 -7.554648E+05 -1.047238E+05 -1.542888E+06  1.376015E+04 -2.034283E+04
       231  10 -3.381860E+06 -6.535937E+05 -2.546837E+04 -1.472605E+06 -1.954545E-09 -1.574597E-09
       231  11 -3.186553E+06 -5.538109E+05  9.401284E+03 -1.387449E+06  1.567449E-10  2.255848E-09
       231  12 -2.952384E+06 -4.990120E+05  3.869266E+04 -1.348677E+06 -3.750959E-09  2.015677E-10
       231  13 -3.296594E+06 -6.216495E+05 -9.536801E+03 -1.447879E+06  4.727139E-10 -8.797921E-10
       231  14 -3.316146E+06 -6.016834E+05 -1.741339E+04 -1.423640E+06 -1.351479E-09 -9.196538E-10
       231  15 -3.297422E+06 -6.272435E+05 -3.301255E+04 -1.445807E+06  2.278127E-11  2.712138E-09
       231  16 -3.211321E+06 -5.897048E+05  6.394286E+03 -1.423150E+06  2.941372E-09  3.880563E-10
       231  17 -3.445721E+06 -6.495543E+05 -4.422895E+04 -1.459825E+06  5.725690E-10  5.820858E-10
       231  18 -3.642340E+06 -7.554653E+05 -1.047249E+05 -1.542887E+06  4.086163E-10  1.407658E-09
       231  19 -3.381859E+06 -6.535931E+05 -2.546618E+04 -1.472604E+06 -2.827245E+04 -1.888727E+04
       231  20 -3.186552E+06 -5.538104E+05  9.404398E+03 -1.387448E+06 -4.023088E+04 -5.400899E+03
       231  21 -2.952381E+06 -4.990112E+05  3.869773E+04 -1.348677E+06 -5.149878E+04  6.230151E+03
       231  22 -3.296594E+06 -6.216494E+05 -9.536589E+03 -1.447879E+06 -4.019603E+03 -9.821200E+03
       231  23 -3.316146E+06 -6.016833E+05 -1.741272E+04 -1.423640E+06 -1.866813E+04  2.661091E+03
       231  24 -3.297421E+06 -6.272430E+05 -3.301021E+04 -1.445807E+06 -3.262387E+04  1.328865E+04
       231  25 -3.211320E+06 -5.897047E+05  6.395060E+03 -1.423150E+06  2.023661E+04 -7.537638E+02
       231  26 -3.445721E+06 -6.495542E+05 -4.422871E+04 -1.459825E+06  2.889756E+03  1.072122E+04
       231  27 -3.642340E+06 -7.554648E+05 -1.047238E+05 -1.542888E+06 -1.376015E+04  2.034283E+04
       232   1 -2.800298E+06 -4.511341E+05  5.874915E+04 -1.324020E+06  6.490833E+04 -1.211567E+04
       232   2 -2.631957E+06 -3.369350E+05  7.604877E+04 -1.189164E+06  7.034631E+04 -1.361229E+04
       232   3 -2.458306E+06 -3.524156E+05  6.541120E+04 -1.075585E+06  6.589494E+04  1.129501E+04
       232   4 -3.302957E+06 -6.226483E+05 -4.331188E+04 -1.449594E+06  4.115702E+04 -2.099886E+04
       232   5 -3.311656E+06 -6.233693E+05 -8.133204E+04 -1.413039E+06  8.498448E+04 -8.143439E+03
       232   6 -3.322781E+06 -7.615039E+05 -1.778595E+05 -1.397792E+06  1.189129E+05  3.112831E+04
       232   7 -3.805358E+06 -7.941502E+05 -1.453839E+05 -1.575078E+06  1.742638E+04 -2.987552E+04
       232   8 -3.990870E+06 -9.097217E+05 -2.387396E+05 -1.636669E+06  9.960503E+04 -2.683344E+03
       232   9 -4.186470E+06 -1.170391E+06 -4.211782E+05 -1.719534E+06  1.718479E+05  5.091224E+04
       232  10 -2.800302E+06 -4.511353E+05  5.874093E+04 -1.324020E+06  1.275788E-09  1.784206E-09
       232  11 -2.631962E+06 -3.369366E+05  7.603910E+04 -1.189164E+06  8.921814E-10 -2.499311E-10
       232  12 -2.458311E+06 -3.524169E+05  6.540276E+04 -1.075586E+06 -1.439981E-09 -1.105805E-09
       232  13 -3.302959E+06 -6.226492E+05 -4.331590E+04 -1.449594E+06  9.807623E-10  2.623662E-09
       232  14 -3.311664E+06 -6.233713E+05 -8.134580E+04 -1.413038E+06  1.554934E-09  5.856872E-10
       232  15 -3.322797E+06 -7.615088E+05 -1.778880E+05 -1.397795E+06  4.384862E-10 -3.013248E-10
       232  16 -3.805358E+06 -7.941513E+05 -1.453861E+05 -1.575077E+06 -3.097650E-09  2.060810E-11
       232  17 -3.990881E+06 -9.097244E+05 -2.387584E+05 -1.636669E+06 -1.710050E-10 -9.045252E-10
       232  18 -4.186502E+06 -1.170402E+06 -4.212390E+05 -1.719541E+06  9.450033E-10 -3.929272E-10
       232  19 -2.800298E+06 -4.511341E+05  5.874915E+04 -1.324020E+06 -6.490833E+04  1.211567E+04
       232  20 -2.631957E+06 -3.369350E+05  7.604877E+04 -1.189164E+06 -7.034631E+04  1.361229E+04
       232  21 -2.458306E+06 -3.524156E+05  6.541120E+04 -1.075585E+06 -6.589494E+04 -1.129501E+04
       232  22 -3.302957E+06 -6.226483E+05 -4.331188E+04 -1.449594E+06 -4.115702E+04  2.099886E+04
       232  23 -3.311656E+06 -6.233693E+05 -8.133204E+04 -1.413039E+06 -8.498448E+04  8.143439E+03
       232  24 -3.322781E+06 -7.615039E+05 -1.778595E+05 -1.397792E+06 -1.189129E+05 -3.112831E+04
       232  25 -3.805358E+06 -7.941502E+05 -1.453839E+05 -1.575078E+06 -1.742638E+04  2.987552E+04
       232  26 -3.990870E+06 -9.097217E+05 -2.387396E+05 -1.636669E+06 -9.960503E+04  2.683344E+03
       232  27 -4.186470E+06 -1.170391E+06 -4.211782E+05 -1.719534E+06 -1.718479E+05 -5.091224E+04
       233   1  2.258631E+05  4.297711E+04  6.268263E+04  1.551559E+04  6.096209E+04  1.098327E+03
       233   2  2.234361E+05 -3.762829E+04  1.435825E+04  4.793143E+03  4.054225E+04  3.179303E+03
       233   3  2.464310E+05 -2.726720E+04  2.073028E+03 -1.434564E+04  2.012248E+04  2.796932E+03
       233   4  3.419198E+05  7.189680E+04  9.136450E+04 -5.314601E+03  6.248540E+04  1.096857E+03
       233   5  3.291196E+05 -1.140804E+04  3.982991E+04 -1.092681E+03  4.093793E+04  3.179009E+03
       233   6  3.419317E+05 -3.559967E+03  2.511241E+04 -5.286849E+03  1.939089E+04  2.797016E+03
       233   7  4.579897E+05  1.008171E+05  1.200456E+05 -2.614869E+04  6.400900E+04  1.095285E+03
       233   8  4.348134E+05  1.481153E+04  6.530079E+04 -6.979511E+03  4.133367E+04  3.178707E+03
       233   9  4.374408E+05  2.014691E+04  4.815119E+04  3.773339E+03  1.865918E+04  2.797078E+03
       233  10  2.258591E+05  4.297611E+04  6.267564E+04  1.551554E+04 -3.235046E-10 -5.011646E-10
       233  11  2.234343E+05 -3.762874E+04  1.435514E+04  4.793040E+03  1.467804E-09  6.104009E-12
       233  12  2.464306E+05 -2.726732E+04  2.072253E+03 -1.434569E+04 -9.367664E-12  3.474205E-10
       233  13  3.419156E+05  7.189575E+04  9.135717E+04 -5.314656E+03  1.116647E-10  1.894284E-10
       233  14  3.291178E+05 -1.140850E+04  3.982674E+04 -1.092785E+03  2.363999E-09 -4.265385E-11
       233  15  3.419313E+05 -3.560076E+03  2.511169E+04 -5.286893E+03  3.372326E-09  1.863473E-10
       233  16  4.579853E+05  1.008160E+05  1.200379E+05 -2.614875E+04  3.148146E-10  2.099347E-10
       233  17  4.348116E+05  1.481106E+04  6.529757E+04 -6.979616E+03  3.770079E-09  4.632862E-11
       233  18  4.374405E+05  2.014681E+04  4.815052E+04  3.773297E+03  1.735066E-09  8.423736E-10
       233  19  2.258631E+05  4.297711E+04  6.268263E+04  1.551559E+04 -6.096209E+04 -1.098327E+03
       233  20  2.234361E+05 -3.762829E+04  1.435825E+04  4.793143E+03 -4.054225E+04 -3.179303E+03
       233  21  2.464310E+05 -2.726720E+04  2.073028E+03 -1.434564E+04 -2.012248E+04 -2.796932E+03
       233  22  3.419198E+05  7.189680E+04  9.136450E+04 -5.314601E+03 -6.248540E+04 -1.096857E+03
       233  23  3.291196E+05 -1.140804E+04  3.982991E+04 -1.092681E+03 -4.093793E+04 -3.179009E+03
       233  24  3.419317E+05 -3.559967E+03  2.511241E+04 -5.286849E+03 -1.939089E+04 -2.797016E+03
       233  25  4.579897E+05  1.008171E+05  1.200456E+05 -2.614869E+04 -6.400900E+04 -1.095285E+03
       233  26  4.348134E+05  1.481153E+04  6.530079E+04 -6.979511E+03 -4.133367E+04 -3.178707E+03
       233  27  4.374408E+05  2.014691E+04  4.815119E+04  3.773339E+03 -1.865918E+04 -2.797078E+03
       234   1  2.568674E+05 -1.181021E+04  1.178688E+03 -3.151024E+03  1.548544E+04  2.207663E+03
       234   2  2.653353E+05 -1.868520E+04 -6.545804E+03 -5.897238E+02  1.025621E+04  2.019509E+03
       234   3  2.770666E+05 -1.527034E+04 -8.292052E+03 -6.351857E+03  5.026897E+03  1.627219E+03
       234   4  3.369666E+05  8.075971E+03  2.054216E+04 -5.275703E+03  1.544802E+04  2.207583E+03
       234   5  3.353281E+05 -1.312788E+03  1.034748E+04 -1.113179E+03  1.012503E+04  2.019463E+03
       234   6  3.369688E+05 -3.961057E+02  6.195556E+03 -5.274003E+03  4.802049E+03  1.627190E+03
       234   7  4.170717E+05  2.796170E+04  3.990517E+04 -7.400658E+03  1.541058E+04  2.207504E+03
       234   8  4.053254E+05  1.605927E+04  2.724042E+04 -1.636694E+03  9.993834E+03  2.019417E+03
       234   9  3.968743E+05  1.447787E+04  2.068291E+04 -4.196044E+03  4.577179E+03  1.627161E+03
       234  10  2.568672E+05 -1.181028E+04  1.178229E+03 -3.151051E+03  3.124258E-09  1.976595E-10
       234  11  2.653352E+05 -1.868523E+04 -6.546009E+03 -5.897405E+02  1.834668E-10 -3.989244E-10
       234  12  2.770666E+05 -1.527035E+04 -8.292104E+03 -6.351864E+03 -1.578768E-09  4.574330E-10
       234  13  3.369664E+05  8.075902E+03  2.054170E+04 -5.275731E+03  4.443650E-09  7.954179E-10
       234  14  3.353280E+05 -1.312819E+03  1.034728E+04 -1.113196E+03 -4.079737E-09  1.202672E-10
       234  15  3.369688E+05 -3.961147E+02  6.195507E+03 -5.274009E+03 -6.548545E-10 -2.197834E-10
       234  16  4.170714E+05  2.796163E+04  3.990471E+04 -7.400686E+03 -5.464497E-10  8.285332E-10
       234  17  4.053253E+05  1.605924E+04  2.724022E+04 -1.636710E+03  1.733614E-10  3.166717E-10
       234  18  3.968742E+05  1.447786E+04  2.068286E+04 -4.196050E+03 -6.824746E-10 -6.450162E-10
       234  19  2.568674E+05 -1.181021E+04  1.178688E+03 -3.151024E+03 -1.548544E+04 -2.207663E+03
       234  20  2.653353E+05 -1.868520E+04 -6.545804E+03 -5.897238E+02 -1.025621E+04 -2.019509E+03
       234  21  2.770666E+05 -1.527034E+04 -8.292052E+03 -6.351857E+03 -5.026897E+03 -1.627219E+03
       234  22  3.369666E+05  8.075971E+03  2.054216E+04 -5.275703E+03 -1.544802E+04 -2.207583E+03
       234  23  3.353281E+05 -1.312788E+03  1.034748E+04 -1.113179E+03 -1.012503E+04 -2.019463E+03
       234  24  3.369688E+05 -3.961057E+02  6.195556E+03 -5.274003E+03 -4.802049E+03 -1.627190E+03
       234  25  4.170717E+05  2.796170E+04  3.990517E+04 -7.400658E+03 -1.541058E+04 -2.207504E+03
       234  26  4.053254E+05  1.605927E+04  2.724042E+04 -1.636694E+03 -9.993834E+03 -2.019417E+03
       234  27  3.968743E+05  1.447787E+04  2.068291E+04 -4.196044E+03 -4.577179E+03 -1.627161E+03
       235   1  2.916641E+05 -1.019110E+04 -5.893182E+03 -5.077481E+03  3.987783E+03  1.369034E+03
       235   2  3.014415E+05 -8.758656E+03 -5.731372E+03 -1.108103E+03  2.668622E+03  9.949680E+02
       235   3  3.116829E+05 -6.169979E+03 -4.421294E+03 -5.392562E+03  1.349433E+03  6.046819E+02
       235   4  3.363437E+05  8.936060E+02  4.866491E+03 -5.259118E+03  3.821078E+03  1.369010E+03
       235   5  3.361112E+05 -1.533380E+02  2.637685E+03 -1.132170E+03  2.494430E+03  9.949501E+02
       235   6  3.363442E+05 -4.275394E+01  1.562317E+03 -5.259030E+03  1.167774E+03  6.046707E+02
       235   7  3.810251E+05  1.197817E+04  1.562602E+04 -5.440768E+03  3.654361E+03  1.368986E+03
       235   8  3.707821E+05  8.451892E+03  1.100666E+04 -1.156238E+03  2.320228E+03  9.949323E+02
       235   9  3.610060E+05  6.084426E+03  7.545884E+03 -5.125494E+03  9.861082E+02  6.046594E+02
       235  10  2.916641E+05 -1.019111E+04 -5.893216E+03 -5.077486E+03  1.900329E-10  7.418538E-10
       235  11  3.014415E+05 -8.758659E+03 -5.731387E+03 -1.108105E+03  7.047057E-10 -6.766935E-11
       235  12  3.116829E+05 -6.169980E+03 -4.421298E+03 -5.392563E+03  1.815565E-09 -1.465228E-10
       235  13  3.363437E+05  8.936000E+02  4.866460E+03 -5.259122E+03 -2.283979E-09  2.422479E-10
       235  14  3.361112E+05 -1.533407E+02  2.637672E+03 -1.132172E+03  1.100921E-09  5.403482E-10
       235  15  3.363442E+05 -4.275470E+01  1.562314E+03 -5.259031E+03  2.441847E-09 -3.107459E-10
       235  16  3.810251E+05  1.197816E+04  1.562599E+04 -5.440772E+03  1.182386E-10 -2.697120E-10
       235  17  3.707821E+05  8.451890E+03  1.100664E+04 -1.156240E+03 -3.830718E-09  7.161771E-10
       235  18  3.610060E+05  6.084426E+03  7.545882E+03 -5.125494E+03 -1.481082E-09 -3.187999E-10
       235  19  2.916641E+05 -1.019110E+04 -5.893182E+03 -5.077481E+03 -3.987783E+03 -1.369034E+03
       235  20  3.014415E+05 -8.758656E+03 -5.731372E+03 -1.108103E+03 -2.668622E+03 -9.949680E+02
       235  21  3.116829E+05 -6.169979E+03 -4.421294E+03 -5.392562E+03 -1.349433E+03 -6.046819E+02
       235  22  3.363437E+05  8.936060E+02  4.866491E+03 -5.259118E+03 -3.821078E+03 -1.369010E+03
       235  23  3.361112E+05 -1.533380E+02  2.637685E+03 -1.132170E+03 -2.494430E+03 -9.949501E+02
       235  24  3.363442E+05 -4.275394E+01  1.562317E+03 -5.259030E+03 -1.167774E+03 -6.046707E+02
       235  25  3.810251E+05  1.197817E+04  1.562602E+04 -5.440768E+03 -3.654361E+03 -1.368986E+03
       235  26  3.707821E+05  8.451892E+03  1.100666E+04 -1.156238E+03 -2.320228E+03 -9.949323E+02
       235  27  3.610060E+05  6.084426E+03  7.545884E+03 -5.125494E+03 -9.861082E+02 -6.046594E+02
       236   1  3.267331E+05 -2.263083E+03 -1.049989E+03 -5.246630E+03  1.094796E+03  3.753425E+02
       236   2  3.366728E+05  9.346758E+01  8.374915E+02 -1.142897E+03  7.332175E+02 -1.292176E+01
       236   3  3.466943E+05  2.583021E+03  2.993799E+03 -5.270188E+03  3.716286E+02 -4.024948E+02
       236   4  3.362590E+05  9.523081E+01  1.219192E+03 -5.253998E+03  9.179896E+02  3.753336E+02
       236   5  3.362183E+05 -1.936409E+01  7.277370E+02 -1.138483E+03  5.558060E+02 -1.293095E+01
       236   6  3.362591E+05 -8.833558E-01  5.054899E+02 -5.253993E+03  1.936176E+02 -4.025039E+02
       236   7  3.457850E+05  2.453538E+03  3.488367E+03 -5.261365E+03  7.411804E+02  3.753246E+02
       236   8  3.357637E+05 -1.321958E+02  6.179826E+02 -1.134069E+03  3.783945E+02 -1.294015E+01
       236   9  3.258240E+05 -2.584796E+03 -1.982827E+03 -5.237799E+03  1.560971E+01 -4.025131E+02
       236  10  3.267331E+05 -2.263083E+03 -1.049992E+03 -5.246631E+03  8.235390E-10  1.527160E-11
       236  11  3.366728E+05  9.346744E+01  8.374905E+02 -1.142897E+03 -2.342719E-09  2.726708E-10
       236  12  3.466943E+05  2.583021E+03  2.993798E+03 -5.270188E+03  1.045273E-09  1.046355E-10
       236  13  3.362590E+05  9.523043E+01  1.219190E+03 -5.253998E+03 -2.150009E-09 -3.854706E-10
       236  14  3.362183E+05 -1.936417E+01  7.277364E+02 -1.138483E+03  3.186587E-09 -7.013920E-11
       236  15  3.362591E+05 -8.835398E-01  5.054895E+02 -5.253993E+03 -3.977199E-10 -3.065028E-11
       236  16  3.457850E+05  2.453538E+03  3.488366E+03 -5.261365E+03  1.918315E-09 -8.648670E-10
       236  17  3.357637E+05 -1.321958E+02  6.179823E+02 -1.134069E+03  5.797159E-10 -3.505446E-10
       236  18  3.258240E+05 -2.584796E+03 -1.982827E+03 -5.237799E+03 -4.209488E-10 -1.730854E-10
       236  19  3.267331E+05 -2.263083E+03 -1.049989E+03 -5.246630E+03 -1.094796E+03 -3.753425E+02
       236  20  3.366728E+05  9.346758E+01  8.374915E+02 -1.142897E+03 -7.332175E+02  1.292176E+01
       236  21  3.466943E+05  2.583021E+03  2.993799E+03 -5.270188E+03 -3.716286E+02  4.024948E+02
       236  22  3.362590E+05  9.523081E+01  1.219192E+03 -5.253998E+03 -9.179896E+02 -3.753336E+02
       236  23  3.362183E+05 -1.936409E+01  7.277370E+02 -1.138483E+03 -5.558060E+02  1.293095E+01
       236  24  3.362591E+05 -8.833558E-01  5.054899E+02 -5.253993E+03 -1.936176E+02  4.025039E+02
       236  25  3.457850E+05  2.453538E+03  3.488367E+03 -5.261365E+03 -7.411804E+02 -3.753246E+02
       236  26  3.357637E+05 -1.321958E+02  6.179826E+02 -1.134069E+03 -3.783945E+02  1.294015E+01
       236  27  3.258240E+05 -2.584796E+03 -1.982827E+03 -5.237799E+03 -1.560971E+01  4.025131E+02
       237   1  3.618239E+05  6.360228E+03  6.658238E+03 -5.253581E+03  2.851071E+02 -6.297884E+02
       237   2  3.718099E+05  8.820992E+03  9.038560E+03 -1.129551E+03  6.149844E+01 -1.020028E+03
       237   3  3.818457E+05  1.134968E+04  1.158210E+04 -5.261375E+03 -1.620819E+02 -1.409561E+03
       237   4  3.362518E+05  7.090439E+00  4.546801E+02 -5.259518E+03  1.069209E+02 -6.298000E+02
       237   5  3.362270E+05 -1.067090E+01  4.491574E+02 -1.131578E+03 -1.163568E+02 -1.020046E+03
       237   6  3.362517E+05  3.944544E+01  6.066293E+02 -5.259522E+03 -3.396027E+02 -1.409586E+03
       237   7  3.106804E+05 -6.346096E+03 -5.748925E+03 -5.265455E+03 -7.125811E+01 -6.298116E+02
       237   8  3.006452E+05 -8.842426E+03 -8.140336E+03 -1.133605E+03 -2.942020E+02 -1.020065E+03
       237   9  2.906596E+05 -1.127094E+04 -1.036898E+04 -5.257668E+03 -5.171104E+02 -1.409611E+03
       237  10  3.618239E+05  6.360228E+03  6.658237E+03 -5.253581E+03  1.065786E-09 -2.041069E-10
       237  11  3.718099E+05  8.820991E+03  9.038558E+03 -1.129551E+03  1.755597E-09 -1.084424E-10
       237  12  3.818457E+05  1.134968E+04  1.158209E+04 -5.261375E+03 -2.029757E-09  5.130676E-10
       237  13  3.362518E+05  7.090010E+00  4.546794E+02 -5.259518E+03  4.551431E-09 -1.118075E-10
       237  14  3.362270E+05 -1.067203E+01  4.491554E+02 -1.131578E+03  2.714201E-10  3.188495E-12
       237  15  3.362517E+05  3.944327E+01  6.066253E+02 -5.259522E+03 -7.539168E-10  3.834687E-10
       237  16  3.106804E+05 -6.346096E+03 -5.748925E+03 -5.265455E+03 -1.037161E-09 -2.229546E-10
       237  17  3.006452E+05 -8.842427E+03 -8.140338E+03 -1.133605E+03 -3.350774E-09 -2.384591E-10
       237  18  2.906596E+05 -1.127094E+04 -1.036899E+04 -5.257669E+03 -3.522460E-10  8.730093E-11
       237  19  3.618239E+05  6.360228E+03  6.658238E+03 -5.253581E+03 -2.851071E+02  6.297884E+02
       237  20  3.718099E+05  8.820992E+03  9.038560E+03 -1.129551E+03 -6.149844E+01  1.020028E+03
       237  21  3.818457E+05  1.134968E+04  1.158210E+04 -5.261375E+03  1.620819E+02  1.409561E+03
       237  22  3.362518E+05  7.090439E+00  4.546801E+02 -5.259518E+03 -1.069209E+02  6.298000E+02
       237  23  3.362270E+05 -1.067090E+01  4.491574E+02 -1.131578E+03  1.163568E+02  1.020046E+03
       237  24  3.362517E+05  3.944544E+01  6.066293E+02 -5.259522E+03  3.396027E+02  1.409586E+03
       237  25  3.106804E+05 -6.346096E+03 -5.748925E+03 -5.265455E+03  7.125811E+01  6.298116E+02
       237  26  3.006452E+05 -8.842426E+03 -8.140336E+03 -1.133605E+03  2.942020E+02  1.020065E+03
       237  27  2.906596E+05 -1.127094E+04 -1.036898E+04 -5.257668E+03  5.171104E+02  1.409611E+03
       238   1  3.971096E+05  1.508262E+04  1.544989E+04 -5.213748E+03 -2.764693E+02 -1.641015E+03
       238   2  4.071019E+05  1.753391E+04  1.829883E+04 -1.113693E+03 -8.790119E+02 -2.034210E+03
       238   3  4.173091E+05  2.048917E+04  2.166800E+04 -5.343236E+03 -1.481496E+03 -2.406992E+03
       238   4  3.362876E+05 -1.921260E+01  7.378170E+02 -5.275888E+03 -4.604427E+02 -1.641048E+03
       238   5  3.361808E+05 -6.821234E+01  1.179799E+03 -1.111101E+03 -1.053612E+03 -2.034255E+03
       238   6  3.362873E+05  3.852007E+02  2.135602E+03 -5.275970E+03 -1.646713E+03 -2.407048E+03
       238   7  2.754691E+05 -1.512131E+04 -1.397452E+04 -5.338022E+03 -6.443982E+02 -1.641081E+03
       238   8  2.652642E+05 -1.767070E+04 -1.593959E+04 -1.108509E+03 -1.228192E+03 -2.034301E+03
       238   9  2.552714E+05 -1.971924E+04 -1.739727E+04 -5.208713E+03 -1.811909E+03 -2.407105E+03
       238  10  3.971096E+05  1.508261E+04  1.544989E+04 -5.213748E+03 -5.959270E-10  2.278596E-10
       238  11  4.071019E+05  1.753391E+04  1.829882E+04 -1.113695E+03 -2.132781E-09 -1.248513E-09
       238  12  4.173091E+05  2.048916E+04  2.166798E+04 -5.343239E+03 -1.670579E-09  7.758130E-10
       238  13  3.362876E+05 -1.921555E+01  7.378115E+02 -5.275889E+03  8.372848E-12  3.175978E-10
       238  14  3.361808E+05 -6.821708E+01  1.179789E+03 -1.111103E+03  3.158806E-09 -2.126503E-10
       238  15  3.362873E+05  3.851937E+02  2.135586E+03 -5.275973E+03 -8.350417E-10  6.317541E-10
       238  16  2.754691E+05 -1.512131E+04 -1.397453E+04 -5.338023E+03  1.057466E-09  3.155274E-10
       238  17  2.652642E+05 -1.767071E+04 -1.593960E+04 -1.108511E+03 -3.210067E-09  6.426385E-10
       238  18  2.552714E+05 -1.971925E+04 -1.739728E+04 -5.208716E+03  5.927321E-11  8.950392E-10
       238  19  3.971096E+05  1.508262E+04  1.544989E+04 -5.213748E+03  2.764693E+02  1.641015E+03
       238  20  4.071019E+05  1.753391E+04  1.829883E+04 -1.113693E+03  8.790119E+02  2.034210E+03
       238  21  4.173091E+05  2.048917E+04  2.166800E+04 -5.343236E+03  1.481496E+03  2.406992E+03
       238  22  3.362876E+05 -1.921260E+01  7.378170E+02 -5.275888E+03  4.604427E+02  1.641048E+03
       238  23  3.361808E+05 -6.821234E+01  1.179799E+03 -1.111101E+03  1.053612E+03  2.034255E+03
       238  24  3.362873E+05  3.852007E+02  2.135602E+03 -5.275970E+03  1.646713E+03  2.407048E+03
       238  25  2.754691E+05 -1.512131E+04 -1.397452E+04 -5.338022E+03  6.443982E+02  1.641081E+03
       238  26  2.652642E+05 -1.767070E+04 -1.593959E+04 -1.108509E+03  1.228192E+03  2.034301E+03
       238  27  2.552714E+05 -1.971924E+04 -1.739727E+04 -5.208713E+03  1.811909E+03  2.407105E+03
       239   1  4.329902E+05  2.376340E+04  2.601211E+04 -4.816912E+03 -1.835272E+03 -2.676961E+03
       239   2  4.425097E+05  2.590018E+04  3.025178E+04 -1.284817E+03 -4.275776E+03 -3.073776E+03
       239   3  4.534942E+05  3.253687E+04  3.720914E+04 -6.197344E+03 -6.716370E+03 -3.204475E+03
       239   4  3.365601E+05 -1.751043E+02  2.709541E+03 -5.301065E+03 -2.076501E+03 -2.677047E+03
       239   5  3.358375E+05 -5.736199E+02  4.507590E+03 -1.079404E+03 -4.395237E+03 -3.073851E+03
       239   6  3.365588E+05  3.507057E+03  8.939118E+03 -5.302433E+03 -6.714022E+03 -3.204523E+03
       239   7  2.401384E+05 -2.411429E+04 -2.059369E+04 -5.785143E+03 -2.317693E+03 -2.677133E+03
       239   8  2.291757E+05 -2.704825E+04 -2.123741E+04 -8.740268E+02 -4.514678E+03 -3.073926E+03
       239   9  2.196360E+05 -2.552375E+04 -1.933188E+04 -4.407692E+03 -6.711673E+03 -3.204572E+03
       239  10  4.329902E+05  2.376339E+04  2.601209E+04 -4.816916E+03 -3.765937E-10  7.555869E-10
       239  11  4.425096E+05  2.590016E+04  3.025173E+04 -1.284828E+03  1.464505E-09 -1.125166E-09
       239  12  4.534942E+05  3.253685E+04  3.720904E+04 -6.197361E+03 -1.152469E-09  4.770867E-10
       239  13  3.365601E+05 -1.751131E+02  2.709519E+03 -5.301069E+03 -4.308576E-09  3.891592E-10
       239  14  3.358374E+05 -5.736352E+02  4.507536E+03 -1.079415E+03 -2.064094E-09 -1.072839E-09
       239  15  3.365588E+05  3.507034E+03  8.939014E+03 -5.302450E+03  2.458867E-09  2.115492E-12
       239  16  2.401384E+05 -2.411430E+04 -2.059372E+04 -5.785148E+03 -3.375626E-09  1.416391E-10
       239  17  2.291756E+05 -2.704826E+04 -2.123747E+04 -8.740380E+02  1.070408E-09 -1.794425E-10
       239  18  2.196359E+05 -2.552378E+04 -1.933199E+04 -4.407709E+03  2.670740E-09 -2.009187E-10
       239  19  4.329902E+05  2.376340E+04  2.601211E+04 -4.816912E+03  1.835272E+03  2.676961E+03
       239  20  4.425097E+05  2.590018E+04  3.025178E+04 -1.284817E+03  4.275776E+03  3.073776E+03
       239  21  4.534942E+05  3.253687E+04  3.720914E+04 -6.197344E+03  6.716370E+03  3.204475E+03
       239  22  3.365601E+05 -1.751043E+02  2.709541E+03 -5.301065E+03  2.076501E+03  2.677047E+03
       239  23  3.358375E+05 -5.736199E+02  4.507590E+03 -1.079404E+03  4.395237E+03  3.073851E+03
       239  24  3.365588E+05  3.507057E+03  8.939118E+03 -5.302433E+03  6.714022E+03  3.204523E+03
       239  25  2.401384E+05 -2.411429E+04 -2.059369E+04 -5.785143E+03  2.317693E+03  2.677133E+03
       239  26  2.291757E+05 -2.704825E+04 -2.123741E+04 -8.740268E+02  4.514678E+03  3.073926E+03
       239  27  2.196360E+05 -2.552375E+04 -1.933188E+04 -4.407692E+03  6.711673E+03  3.204572E+03
       240   1  4.713410E+05  3.135917E+04  4.290827E+04 -1.345207E+03 -7.525684E+03 -3.906181E+03
       240   2  4.761266E+05  3.050824E+04  5.178376E+04 -3.563665E+03 -1.836682E+04 -4.286616E+03
       240   3  4.923340E+05  6.955266E+04  7.769532E+04 -1.434590E+04 -2.921010E+04 -1.450335E+03
       240   4  3.387202E+05 -1.553606E+03  1.092613E+04 -5.321987E+03 -8.429590E+03 -3.906587E+03
       240   5  3.331326E+05 -4.966652E+03  1.732218E+04 -1.050002E+03 -1.780121E+04 -4.286451E+03
       240   6  3.387144E+05  3.126543E+04  3.973694E+04 -5.341749E+03 -2.717474E+04 -1.449500E+03
       240   7  2.061155E+05 -3.446761E+04 -2.105726E+04 -9.297916E+03 -9.333303E+03 -3.906981E+03
       240   8  1.901574E+05 -4.044301E+04 -1.714086E+04  1.463078E+03 -1.723572E+04 -4.286282E+03
       240   9  1.851164E+05 -7.023257E+03  1.776869E+03  3.660170E+03 -2.513990E+04 -1.448605E+03
       240  10  4.713409E+05  3.135914E+04  4.290814E+04 -1.345230E+03 -2.954647E-09  2.873590E-10
       240  11  4.761262E+05  3.050813E+04  5.178309E+04 -3.563728E+03  1.317360E-09 -2.422374E-09
       240  12  4.923331E+05  6.955243E+04  7.769372E+04 -1.434594E+04  3.250695E-10 -9.159645E-10
       240  13  3.387201E+05 -1.553641E+03  1.092597E+04 -5.322013E+03  1.799802E-09 -1.575895E-09
       240  14  3.331323E+05 -4.966757E+03  1.732155E+04 -1.050063E+03  3.735297E-09  4.967995E-10
       240  15  3.387136E+05  3.126523E+04  3.973555E+04 -5.341781E+03 -1.840930E-09 -4.027519E-10
       240  16  2.061154E+05 -3.446765E+04 -2.105745E+04 -9.297946E+03  2.868397E-09 -3.783732E-10
       240  17  1.901570E+05 -4.044311E+04 -1.714145E+04  1.463018E+03 -2.698942E-09  5.629095E-10
       240  18  1.851158E+05 -7.023429E+03  1.775678E+03  3.660141E+03  7.723270E-10 -7.115614E-10
       240  19  4.713410E+05  3.135917E+04  4.290827E+04 -1.345207E+03  7.525684E+03  3.906181E+03
       240  20  4.761266E+05  3.050824E+04  5.178376E+04 -3.563665E+03  1.836682E+04  4.286616E+03
       240  21  4.923340E+05  6.955266E+04  7.769532E+04 -1.434590E+04  2.921010E+04  1.450335E+03
       240  22  3.387202E+05 -1.553606E+03  1.092613E+04 -5.321987E+03  8.429590E+03  3.906587E+03
       240  23  3.331326E+05 -4.966652E+03  1.732218E+04 -1.050002E+03  1.780121E+04  4.286451E+03
       240  24  3.387144E+05  3.126543E+04  3.973694E+04 -5.341749E+03  2.717474E+04  1.449500E+03
       240  25  2.061155E+05 -3.446761E+04 -2.105726E+04 -9.297916E+03  9.333303E+03  3.906981E+03
       240  26  1.901574E+05 -4.044301E+04 -1.714086E+04  1.463078E+03  1.723572E+04  4.286282E+03
       240  27  1.851164E+05 -7.023257E+03  1.776869E+03  3.660170E+03  2.513990E+04  1.448605E+03
       241   1  2.772350E+06  1.129029E+07  2.778904E+06 -1.344005E+06  9.242657E+04  1.919043E+05
       241   2  2.043271E+06  8.789638E+06  2.066631E+06 -3.483002E+05  2.526023E+05  4.585934E+04
       241   3  1.515995E+06  6.419108E+06  1.509508E+06 -1.338648E+06  1.648806E+05 -1.017882E+05
       241   4  8.722590E+04  4.535538E+05  1.163467E+05 -1.279565E+06  9.314377E+04  6.037034E+04
       241   5 -2.739660E+04  4.041483E+05  5.675232E+04 -2.856798E+05  2.529770E+05  2.961425E+04
       241   6  4.106635E+04  4.597940E+05  7.412845E+04 -1.279529E+06  1.634383E+05 -3.330217E+03
       241   7 -2.606568E+06 -1.027757E+07 -2.554783E+06 -1.216013E+06  9.384251E+04 -6.890957E+04
       241   8 -2.103145E+06 -7.917550E+06 -1.958104E+06 -2.237377E+05  2.533517E+05  1.358348E+04
       241   9 -1.436435E+06 -5.467240E+06 -1.363749E+06 -1.220817E+06  1.620072E+05  9.419355E+04
       241  10  2.772331E+06  1.129025E+07  2.778820E+06 -1.344019E+06 -2.417117E-09 -5.295330E-09
       241  11  2.043202E+06  8.789619E+06  2.066507E+06 -3.483095E+05 -3.526315E-09  2.879862E-09
       241  12  1.515963E+06  6.419090E+06  1.509438E+06 -1.338635E+06  3.826080E-09 -4.103406E-09
       241  13  8.721559E+04  4.535475E+05  1.163235E+05 -1.279569E+06 -1.271183E-09 -2.852889E-09
       241  14 -2.746557E+04  4.041301E+05  5.663037E+04 -2.856859E+05 -5.459431E-09  9.411913E-09
       241  15  4.103766E+04  4.597868E+05  7.407823E+04 -1.279528E+06  8.325387E-10 -3.865889E-08
       241  16 -2.606578E+06 -1.027757E+07 -2.554809E+06 -1.216008E+06 -3.541585E-09  5.121827E-09
       241  17 -2.103214E+06 -7.917568E+06 -1.958225E+06 -2.237405E+05 -3.431700E-09  1.249232E-08
       241  18 -1.436466E+06 -5.467257E+06 -1.363815E+06 -1.220830E+06  1.526767E-09 -8.213373E-09
       241  19  2.772350E+06  1.129029E+07  2.778904E+06 -1.344005E+06 -9.242657E+04 -1.919043E+05
       241  20  2.043271E+06  8.789638E+06  2.066631E+06 -3.483002E+05 -2.526023E+05 -4.585934E+04
       241  21  1.515995E+06  6.419108E+06  1.509508E+06 -1.338648E+06 -1.648806E+05  1.017882E+05
       241  22  8.722590E+04  4.535538E+05  1.163467E+05 -1.279565E+06 -9.314377E+04 -6.037034E+04
       241  23 -2.739660E+04  4.041483E+05  5.675232E+04 -2.856798E+05 -2.529770E+05 -2.961425E+04
       241  24  4.106635E+04  4.597940E+05  7.412845E+04 -1.279529E+06 -1.634383E+05  3.330217E+03
       241  25 -2.606568E+06 -1.027757E+07 -2.554783E+06 -1.216013E+06 -9.384251E+04  6.890957E+04
       241  26 -2.103145E+06 -7.917550E+06 -1.958104E+06 -2.237377E+05 -2.533517E+05 -1.358348E+04
       241  27 -1.436435E+06 -5.467240E+06 -1.363749E+06 -1.220817E+06 -1.620072E+05 -9.419355E+04
       242   1  6.091715E+05  2.730059E+06  6.253404E+05 -1.315137E+06  7.002211E+04 -5.226331E+04
       242   2 -2.949029E+04  3.372560E+05  6.915322E+04 -2.818034E+05 -1.705270E+03 -1.027820E+05
       242   3 -5.311674E+05 -2.084638E+06 -4.367977E+05 -1.231606E+06 -7.288440E+04 -1.530826E+05
       242   4  4.029482E+04  4.374467E+05  7.363443E+04 -1.278692E+06  6.946281E+04 -1.898326E+04
       242   5 -1.832345E+02  4.546525E+05  9.750586E+04 -2.867441E+05 -2.245915E+03 -6.981021E+04
       242   6  9.673021E+04  4.373611E+05  1.721002E+05 -1.277774E+06 -7.341761E+04 -1.206090E+05
       242   7 -5.289615E+05 -1.850369E+06 -4.784419E+05 -1.242358E+06  6.890628E+04  1.417485E+04
       242   8  2.912347E+04  5.720639E+05  1.258616E+05 -2.916857E+05 -2.787032E+03 -3.683224E+04
       242   9  7.241674E+05  2.965191E+06  7.805469E+05 -1.324100E+06 -7.395450E+04 -8.800285E+04
       242  10  6.091655E+05  2.730055E+06  6.253261E+05 -1.315134E+06  9.897331E-10 -1.926201E-08
       242  11 -2.949313E+04  3.372447E+05  6.913337E+04 -2.818036E+05  6.257686E-09 -4.891881E-09
       242  12 -5.311794E+05 -2.084665E+06 -4.368520E+05 -1.231615E+06 -1.108087E-08 -1.205608E-08
       242  13  4.028954E+04  4.374450E+05  7.362470E+04 -1.278691E+06  1.627637E-09 -1.643614E-08
       242  14 -1.845470E+02  4.546472E+05  9.749670E+04 -2.867442E+05  8.987887E-09  1.699789E-08
       242  15  9.672049E+04  4.373440E+05  1.720627E+05 -1.277781E+06  1.240298E-08 -4.276739E-08
       242  16 -5.289666E+05 -1.850370E+06 -4.784512E+05 -1.242358E+06  1.360563E-09  1.925847E-08
       242  17  2.912310E+04  5.720625E+05  1.258591E+05 -2.916858E+05 -1.594346E-08  3.026865E-08
       242  18  7.241594E+05  2.965181E+06  7.805221E+05 -1.324105E+06 -1.788498E-10 -4.447957E-10
       242  19  6.091715E+05  2.730059E+06  6.253404E+05 -1.315137E+06 -7.002211E+04  5.226331E+04
       242  20 -2.949029E+04  3.372560E+05  6.915322E+04 -2.818034E+05  1.705270E+03  1.027820E+05
       242  21 -5.311674E+05 -2.084638E+06 -4.367977E+05 -1.231606E+06  7.288440E+04  1.530826E+05
       242  22  4.029482E+04  4.374467E+05  7.363443E+04 -1.278692E+06 -6.946281E+04  1.898326E+04
       242  23 -1.832345E+02  4.546525E+05  9.750586E+04 -2.867441E+05  2.245915E+03  6.981021E+04
       242  24  9.673021E+04  4.373611E+05  1.721002E+05 -1.277774E+06  7.341761E+04  1.206090E+05
       242  25 -5.289615E+05 -1.850369E+06 -4.784419E+05 -1.242358E+06 -6.890628E+04 -1.417485E+04
       242  26  2.912347E+04  5.720639E+05  1.258616E+05 -2.916857E+05  2.787032E+03  3.683224E+04
       242  27  7.241674E+05  2.965191E+06  7.805469E+05 -1.324100E+06  7.395450E+04  8.800285E+04
       243   1 -1.523293E+06 -5.661774E+06 -1.280244E+06 -1.280173E+06 -1.664016E+05 -2.543981E+05
       243   2 -2.240271E+06 -8.201030E+06 -1.759064E+06 -1.846508E+05 -2.575221E+05 -3.094079E+05
       243   3 -2.179024E+06 -1.046930E+07 -1.994975E+06 -1.079055E+06 -9.439411E+04 -3.620793E+05
       243   4  1.029607E+04  4.988296E+05  2.137672E+05 -1.280630E+06 -1.678309E+05 -1.567070E+05
       243   5 -1.050003E+05  3.539661E+05  3.127281E+05 -2.854235E+05 -2.570920E+05 -3.285522E+05
       243   6  5.735140E+05  4.923783E+05  7.333803E+05 -1.278130E+06 -9.363640E+04 -4.983095E+05
       243   7  1.541107E+06  6.694323E+06  1.705082E+06 -1.280922E+06 -1.692526E+05 -5.803652E+04
       243   8  2.024913E+06  8.976411E+06  2.379259E+06 -3.874388E+05 -2.566598E+05 -3.479371E+05
       243   9  3.317125E+06  1.156439E+07  3.452810E+06 -1.480550E+06 -9.280045E+04 -6.369109E+05
       243  10 -1.523340E+06 -5.661852E+06 -1.280419E+06 -1.280208E+06 -4.587976E-09 -1.453820E-08
       243  11 -2.240368E+06 -8.201152E+06 -1.759371E+06 -1.847153E+05  3.293606E-09 -6.692042E-11
       243  12 -2.179069E+06 -1.046944E+07 -1.995243E+06 -1.079083E+06  1.372796E-09  1.313928E-10
       243  13  1.025916E+04  4.987956E+05  2.136679E+05 -1.280651E+06 -8.665939E-09 -1.457254E-08
       243  14 -1.051002E+05  3.538325E+05  3.124010E+05 -2.854916E+05  2.928238E-09  8.998428E-09
       243  15  5.734378E+05  4.921095E+05  7.328971E+05 -1.278167E+06 -1.571741E-09 -5.616030E-09
       243  16  1.541075E+06  6.694312E+06  1.705022E+06 -1.280930E+06  9.795600E-09  1.438239E-08
       243  17  2.024811E+06  8.976264E+06  2.378911E+06 -3.875103E+05 -3.017786E-09  1.311154E-08
       243  18  3.317009E+06  1.156396E+07  3.452044E+06 -1.480597E+06 -4.203400E-09 -1.743091E-09
       243  19 -1.523293E+06 -5.661774E+06 -1.280244E+06 -1.280173E+06  1.664016E+05  2.543981E+05
       243  20 -2.240271E+06 -8.201030E+06 -1.759064E+06 -1.846508E+05  2.575221E+05  3.094079E+05
       243  21 -2.179024E+06 -1.046930E+07 -1.994975E+06 -1.079055E+06  9.439411E+04  3.620793E+05
       243  22  1.029607E+04  4.988296E+05  2.137672E+05 -1.280630E+06  1.678309E+05  1.567070E+05
       243  23 -1.050003E+05  3.539661E+05  3.127281E+05 -2.854235E+05  2.570920E+05  3.285522E+05
       243  24  5.735140E+05  4.923783E+05  7.333803E+05 -1.278130E+06  9.363640E+04  4.983095E+05
       243  25  1.541107E+06  6.694323E+06  1.705082E+06 -1.280922E+06  1.692526E+05  5.803652E+04
       243  26  2.024913E+06  8.976411E+06  2.379259E+06 -3.874388E+05  2.566598E+05  3.479371E+05
       243  27  3.317125E+06  1.156439E+07  3.452810E+06 -1.480550E+06  9.280045E+04  6.369109E+05
       244   1 -5.278819E+05 -2.380162E+05 -1.198342E+05 -2.328362E+05 -5.935482E+04 -1.844247E+04
       244   2 -4.975887E+05 -1.780961E+05 -6.967304E+04 -2.192525E+05 -3.608021E+04 -9.702402E+02
       244   3 -4.755761E+05 -1.467875E+05 -4.554613E+04 -2.052021E+05 -1.053819E+04  1.047054E+04
       244   4 -2.936334E+05 -1.198983E+05 -5.439188E+04 -1.374040E+05 -3.683017E+04 -9.990786E+03
       244   5 -2.878805E+05 -8.648080E+04 -2.597602E+04 -1.452818E+05 -2.628561E+04  2.704667E+03
       244   6 -2.878818E+05 -7.914814E+04 -1.349953E+04 -1.526951E+05 -1.347547E+04  9.367723E+03
       244   7 -5.933249E+04 -1.764240E+03  1.104630E+04 -4.193637E+04 -1.429675E+04 -1.533027E+03
       244   8 -7.812694E+04  5.143597E+03  1.771884E+04 -7.128648E+04 -1.648754E+04  6.381483E+03
       244   9 -1.001484E+05 -1.150471E+04  1.854656E+04 -1.001727E+05 -1.641371E+04  8.264539E+03
       244  10 -5.278857E+05 -2.380175E+05 -1.198415E+05 -2.328371E+05 -1.839527E-09  1.180051E-10
       244  11 -4.975901E+05 -1.780964E+05 -6.967549E+04 -2.192525E+05 -5.272638E-10  1.385403E-09
       244  12 -4.755763E+05 -1.467876E+05 -4.554654E+04 -2.052020E+05  2.491636E-09 -2.991997E-10
       244  13 -2.936349E+05 -1.198988E+05 -5.439462E+04 -1.374043E+05  2.249751E-09  5.799851E-10
       244  14 -2.878812E+05 -8.648099E+04 -2.597733E+04 -1.452818E+05  3.988517E-09  7.668576E-10
       244  15 -2.878820E+05 -7.914828E+04 -1.350003E+04 -1.526950E+05  7.081013E-09  1.109940E-09
       244  16 -5.933271E+04 -1.764298E+03  1.104591E+04 -4.193639E+04 -9.338815E-10  3.801022E-10
       244  17 -7.812724E+04  5.143481E+03  1.771825E+04 -7.128640E+04 -8.668127E-10 -1.201240E-10
       244  18 -1.001487E+05 -1.150486E+04  1.854593E+04 -1.001726E+05  4.211635E-10  3.351494E-09
       244  19 -5.278819E+05 -2.380162E+05 -1.198342E+05 -2.328362E+05  5.935482E+04  1.844247E+04
       244  20 -4.975887E+05 -1.780961E+05 -6.967304E+04 -2.192525E+05  3.608021E+04  9.702402E+02
       244  21 -4.755761E+05 -1.467875E+05 -4.554613E+04 -2.052021E+05  1.053819E+04 -1.047054E+04
       244  22 -2.936334E+05 -1.198983E+05 -5.439188E+04 -1.374040E+05  3.683017E+04  9.990786E+03
       244  23 -2.878805E+05 -8.648080E+04 -2.597602E+04 -1.452818E+05  2.628561E+04 -2.704667E+03
       244  24 -2.878818E+05 -7.914814E+04 -1.349953E+04 -1.526951E+05  1.347547E+04 -9.367723E+03
       244  25 -5.933249E+04 -1.764240E+03  1.104630E+04 -4.193637E+04  1.429675E+04  1.533027E+03
       244  26 -7.812694E+04  5.143597E+03  1.771884E+04 -7.128648E+04  1.648754E+04 -6.381483E+03
       244  27 -1.001484E+05 -1.150471E+04  1.854656E+04 -1.001727E+05  1.641371E+04 -8.264539E+03
       245   1 -4.510404E+05 -1.391472E+05 -3.765362E+04 -2.004329E+05 -8.795133E+03  9.967100E+03
       245   2 -4.190905E+05 -1.213702E+05 -2.598959E+04 -1.882917E+05 -4.120966E+03  9.834035E+03
       245   3 -3.839079E+05 -1.101086E+05 -1.787384E+04 -1.809601E+05  8.064667E+02  9.026259E+03
       245   4 -2.863131E+05 -7.823436E+04 -1.002072E+04 -1.525530E+05 -1.157608E+04  8.923068E+03
       245   5 -2.878613E+05 -7.364536E+04 -5.207418E+03 -1.506999E+05 -8.325704E+03  8.255912E+03
       245   6 -2.858952E+05 -7.528934E+04 -2.813291E+03 -1.536568E+05 -4.822272E+03  6.914029E+03
       245   7 -1.215588E+05 -1.731913E+04  1.761098E+04 -1.046616E+05 -1.435779E+04  7.878736E+03
       245   8 -1.566135E+05 -2.591853E+04  1.557451E+04 -1.131005E+05 -1.253138E+04  6.677422E+03
       245   9 -1.878708E+05 -4.046860E+04  1.224759E+04 -1.263490E+05 -1.045202E+04  4.801425E+03
       245  10 -4.510405E+05 -1.391473E+05 -3.765395E+04 -2.004328E+05 -5.426767E-08 -2.297514E-08
       245  11 -4.190905E+05 -1.213703E+05 -2.598980E+04 -1.882917E+05 -9.137783E-09 -5.410976E-09
       245  12 -3.839080E+05 -1.101087E+05 -1.787400E+04 -1.809601E+05  5.228880E-08  1.942796E-08
       245  13 -2.863133E+05 -7.823449E+04 -1.002112E+04 -1.525529E+05  2.448255E-09  3.718863E-10
       245  14 -2.878614E+05 -7.364545E+04 -5.207676E+03 -1.506998E+05 -6.873203E-09 -3.207533E-09
       245  15 -2.858952E+05 -7.528939E+04 -2.813425E+03 -1.536567E+05 -8.696858E-09 -2.747733E-09
       245  16 -1.215591E+05 -1.731925E+04  1.761047E+04 -1.046615E+05  5.223856E-08  2.292107E-08
       245  17 -1.566137E+05 -2.591862E+04  1.557414E+04 -1.131004E+05 -1.520856E-08 -1.142348E-09
       245  18 -1.878709E+05 -4.046866E+04  1.224734E+04 -1.263490E+05 -6.692960E-08 -2.478098E-08
       245  19 -4.510404E+05 -1.391472E+05 -3.765362E+04 -2.004329E+05  8.795133E+03 -9.967100E+03
       245  20 -4.190905E+05 -1.213702E+05 -2.598959E+04 -1.882917E+05  4.120966E+03 -9.834035E+03
       245  21 -3.839079E+05 -1.101086E+05 -1.787384E+04 -1.809601E+05 -8.064667E+02 -9.026259E+03
       245  22 -2.863131E+05 -7.823436E+04 -1.002072E+04 -1.525530E+05  1.157608E+04 -8.923068E+03
       245  23 -2.878613E+05 -7.364536E+04 -5.207418E+03 -1.506999E+05  8.325704E+03 -8.255912E+03
       245  24 -2.858952E+05 -7.528934E+04 -2.813291E+03 -1.536568E+05  4.822272E+03 -6.914029E+03
       245  25 -1.215588E+05 -1.731913E+04  1.761098E+04 -1.046616E+05  1.435779E+04 -7.878736E+03
       245  26 -1.566135E+05 -2.591853E+04  1.557451E+04 -1.131005E+05  1.253138E+04 -6.677422E+03
       245  27 -1.878708E+05 -4.046860E+04  1.224759E+04 -1.263490E+05  1.045202E+04 -4.801425E+03
       246   1 -3.622442E+05 -1.025220E+05 -1.372286E+04 -1.750820E+05  1.757731E+03  7.586805E+03
       246   2 -3.303965E+05 -8.794120E+04 -7.572609E+03 -1.629453E+05  3.497645E+03  5.164458E+03
       246   3 -2.941693E+05 -7.805473E+04 -2.004986E+03 -1.559871E+05  5.265754E+03  2.666739E+03
       246   4 -2.857373E+05 -7.524117E+04 -2.102305E+03 -1.536253E+05 -3.854059E+03  5.481040E+03
       246   5 -2.879306E+05 -7.283035E+04 -1.138358E+03 -1.510654E+05 -2.273313E+03  2.999069E+03
       246   6 -2.857139E+05 -7.508233E+04 -6.309295E+02 -1.536844E+05 -6.644199E+02  4.417187E+02
       246   7 -2.092241E+05 -4.795973E+04  9.518298E+03 -1.321661E+05 -9.466577E+03  3.375003E+03
       246   8 -2.454629E+05 -5.771938E+04  5.295933E+03 -1.391849E+05 -8.044650E+03  8.335383E+02
       246   9 -2.772585E+05 -7.210994E+04  7.432467E+02 -1.513817E+05 -6.594605E+03 -1.783305E+03
       246  10 -3.622442E+05 -1.025220E+05 -1.372297E+04 -1.750820E+05 -9.701667E-09 -4.926456E-10
       246  11 -3.303966E+05 -8.794123E+04 -7.572682E+03 -1.629453E+05 -7.574391E-09  2.628492E-09
       246  12 -2.941693E+05 -7.805475E+04 -2.005052E+03 -1.559871E+05 -3.598144E-10  1.236099E-09
       246  13 -2.857374E+05 -7.524121E+04 -2.102389E+03 -1.536253E+05 -6.173711E-09 -8.295147E-10
       246  14 -2.879306E+05 -7.283036E+04 -1.138385E+03 -1.510654E+05 -2.629268E-09  2.305448E-09
       246  15 -2.857139E+05 -7.508233E+04 -6.309307E+02 -1.536844E+05  6.295387E-09  2.389807E-09
       246  16 -2.092242E+05 -4.795977E+04  9.518108E+03 -1.321661E+05  1.946958E-09 -8.646637E-10
       246  17 -2.454629E+05 -5.771940E+04  5.295810E+03 -1.391848E+05  3.961128E-09  1.285848E-09
       246  18 -2.772585E+05 -7.210995E+04  7.431590E+02 -1.513817E+05  7.394576E-09  3.467240E-09
       246  19 -3.622442E+05 -1.025220E+05 -1.372286E+04 -1.750820E+05 -1.757731E+03 -7.586805E+03
       246  20 -3.303965E+05 -8.794120E+04 -7.572609E+03 -1.629453E+05 -3.497645E+03 -5.164458E+03
       246  21 -2.941693E+05 -7.805473E+04 -2.004986E+03 -1.559871E+05 -5.265754E+03 -2.666739E+03
       246  22 -2.857373E+05 -7.524117E+04 -2.102305E+03 -1.536253E+05  3.854059E+03 -5.481040E+03
       246  23 -2.879306E+05 -7.283035E+04 -1.138358E+03 -1.510654E+05  2.273313E+03 -2.999069E+03
       246  24 -2.857139E+05 -7.508233E+04 -6.309295E+02 -1.536844E+05  6.644199E+02 -4.417187E+02
       246  25 -2.092241E+05 -4.795973E+04  9.518298E+03 -1.321661E+05  9.466577E+03 -3.375003E+03
       246  26 -2.454629E+05 -5.771938E+04  5.295933E+03 -1.391849E+05  8.044650E+03 -8.335383E+02
       246  27 -2.772585E+05 -7.210994E+04  7.432467E+02 -1.513817E+05  6.594605E+03  1.783305E+03
       247   1 -2.727881E+05 -7.043931E+04  1.480318E+03 -1.500104E+05  5.968801E+03  1.062822E+03
       247   2 -2.409979E+05 -5.606076E+04  6.681673E+03 -1.378519E+05  7.176199E+03 -1.690790E+03
       247   3 -2.046953E+05 -4.622699E+04  1.176757E+04 -1.308864E+05  8.386165E+03 -4.451018E+03
       247   4 -2.856950E+05 -7.508425E+04 -4.778834E+02 -1.536770E+05  4.053726E+01 -1.161485E+03
       247   5 -2.879526E+05 -7.281651E+04 -2.777875E+02 -1.510790E+05  1.233712E+03 -3.920554E+03
       247   6 -2.856970E+05 -7.509129E+04 -1.822598E+02 -1.536748E+05  2.429444E+03 -6.686237E+03
       247   7 -2.986018E+05 -7.972921E+04 -2.435982E+03 -1.573435E+05 -5.887670E+03 -3.385769E+03
       247   8 -3.349051E+05 -8.957212E+04 -7.237206E+03 -1.643052E+05 -4.708339E+03 -6.150154E+03
       247   9 -3.666916E+05 -1.039549E+05 -1.213201E+04 -1.764604E+05 -3.526460E+03 -8.921150E+03
       247  10 -2.727881E+05 -7.043932E+04  1.480248E+03 -1.500104E+05  1.059046E-08  2.921439E-09
       247  11 -2.409980E+05 -5.606077E+04  6.681571E+03 -1.378519E+05 -5.040618E-08 -2.122484E-08
       247  12 -2.046954E+05 -4.622703E+04  1.176740E+04 -1.308864E+05 -1.183775E-07 -4.390684E-08
       247  13 -2.856950E+05 -7.508426E+04 -4.778859E+02 -1.536770E+05  7.972799E-09  5.562425E-10
       247  14 -2.879526E+05 -7.281653E+04 -2.778192E+02 -1.510790E+05  6.191395E-09 -7.410210E-09
       247  15 -2.856970E+05 -7.509134E+04 -1.823548E+02 -1.536748E+05 -8.954782E-09 -1.822768E-08
       247  16 -2.986018E+05 -7.972923E+04 -2.436068E+03 -1.573435E+05 -4.304731E-09  2.461661E-09
       247  17 -3.349052E+05 -8.957216E+04 -7.237319E+03 -1.643052E+05  4.644932E-08  2.632538E-08
       247  18 -3.666916E+05 -1.039549E+05 -1.213218E+04 -1.764604E+05  9.159953E-08  4.205897E-08
       247  19 -2.727881E+05 -7.043931E+04  1.480318E+03 -1.500104E+05 -5.968801E+03 -1.062822E+03
       247  20 -2.409979E+05 -5.606076E+04  6.681673E+03 -1.378519E+05 -7.176199E+03  1.690790E+03
       247  21 -2.046953E+05 -4.622699E+04  1.176757E+04 -1.308864E+05 -8.386165E+03  4.451018E+03
       247  22 -2.856950E+05 -7.508425E+04 -4.778834E+02 -1.536770E+05 -4.053726E+01  1.161485E+03
       247  23 -2.879526E+05 -7.281651E+04 -2.777875E+02 -1.510790E+05 -1.233712E+03  3.920554E+03
       247  24 -2.856970E+05 -7.509129E+04 -1.822598E+02 -1.536748E+05 -2.429444E+03  6.686237E+03
       247  25 -2.986018E+05 -7.972921E+04 -2.435982E+03 -1.573435E+05  5.887670E+03  3.385769E+03
       247  26 -3.349051E+05 -8.957212E+04 -7.237206E+03 -1.643052E+05  4.708339E+03  6.150154E+03
       247  27 -3.666916E+05 -1.039549E+05 -1.213201E+04 -1.764604E+05  3.526460E+03  8.921150E+03
       248   1 -1.833522E+05 -3.860263E+04  1.511034E+04 -1.249011E+05  9.030937E+03 -6.082831E+03
       248   2 -1.515844E+05 -2.422886E+04  2.010495E+04 -1.127396E+05  1.013726E+04 -8.877558E+03
       248   3 -1.152878E+05 -1.438532E+04  2.506317E+04 -1.057675E+05  1.123863E+04 -1.165843E+04
       248   4 -2.856969E+05 -7.509327E+04 -1.610646E+02 -1.536732E+05  3.074473E+03 -8.318070E+03
       248   5 -2.879597E+05 -7.283051E+04 -1.591332E+02 -1.510769E+05  4.209774E+03 -1.110222E+04
       248   6 -2.857008E+05 -7.510371E+04 -2.165192E+02 -1.536703E+05  5.340123E+03 -1.387255E+04
       248   7 -3.880287E+05 -1.115823E+05 -1.543209E+04 -1.824404E+05 -2.880884E+03 -1.055289E+04
       248   8 -4.243148E+05 -1.214301E+05 -2.042326E+04 -1.894062E+05 -1.716342E+03 -1.332638E+04
       248   9 -4.560842E+05 -1.358197E+05 -2.549695E+04 -2.015613E+05 -5.567499E+02 -1.608604E+04
       248  10 -1.833523E+05 -3.860269E+04  1.511012E+04 -1.249010E+05  7.079348E-08  2.943252E-08
       248  11 -1.515845E+05 -2.422898E+04  2.010461E+04 -1.127395E+05  5.396346E-08  2.731713E-08
       248  12 -1.152880E+05 -1.438550E+04  2.506267E+04 -1.057674E+05  3.117307E-08  1.796890E-08
       248  13 -2.856969E+05 -7.509334E+04 -1.612123E+02 -1.536731E+05 -7.261824E-09 -2.037127E-08
       248  14 -2.879598E+05 -7.283065E+04 -1.593981E+02 -1.510768E+05 -2.015788E-11 -1.495412E-08
       248  15 -2.857009E+05 -7.510392E+04 -2.169344E+02 -1.536703E+05  1.354037E-09 -1.329905E-08
       248  16 -3.880288E+05 -1.115824E+05 -1.543231E+04 -1.824404E+05 -9.746664E-08 -3.072092E-08
       248  17 -4.243149E+05 -1.214303E+05 -2.042360E+04 -1.894062E+05 -6.039246E-08 -1.941858E-08
       248  18 -4.560843E+05 -1.358200E+05 -2.549743E+04 -2.015613E+05 -3.274806E-08 -4.647586E-09
       248  19 -1.833522E+05 -3.860263E+04  1.511034E+04 -1.249011E+05 -9.030937E+03  6.082831E+03
       248  20 -1.515844E+05 -2.422886E+04  2.010495E+04 -1.127396E+05 -1.013726E+04  8.877558E+03
       248  21 -1.152878E+05 -1.438532E+04  2.506317E+04 -1.057675E+05 -1.123863E+04  1.165843E+04
       248  22 -2.856969E+05 -7.509327E+04 -1.610646E+02 -1.536732E+05 -3.074473E+03  8.318070E+03
       248  23 -2.879597E+05 -7.283051E+04 -1.591332E+02 -1.510769E+05 -4.209774E+03  1.110222E+04
       248  24 -2.857008E+05 -7.510371E+04 -2.165192E+02 -1.536703E+05 -5.340123E+03  1.387255E+04
       248  25 -3.880287E+05 -1.115823E+05 -1.543209E+04 -1.824404E+05  2.880884E+03  1.055289E+04
       248  26 -4.243148E+05 -1.214301E+05 -2.042326E+04 -1.894062E+05  1.716342E+03  1.332638E+04
       248  27 -4.560842E+05 -1.358197E+05 -2.549695E+04 -2.015613E+05  5.567499E+02  1.608604E+04
       249   1 -9.395416E+04 -6.758331E+03  2.834864E+04 -9.978649E+04  1.189303E+04 -1.327307E+04
       249   2 -6.222020E+04  7.625412E+03  3.326862E+04 -8.762297E+04  1.287941E+04 -1.601733E+04
       249   3 -2.595395E+04  1.748666E+04  3.821797E+04 -8.063189E+04  1.381813E+04 -1.863363E+04
       249   4 -2.857114E+05 -7.510439E+04 -2.704212E+02 -1.536706E+05  5.992218E+03 -1.548829E+04
       249   5 -2.879589E+05 -7.285460E+04 -4.628635E+02 -1.510711E+05  7.248552E+03 -1.813173E+04
       249   6 -2.857287E+05 -7.518106E+04 -8.398584E+02 -1.536447E+05  8.457225E+03 -2.064716E+04
       249   7 -4.774285E+05 -1.434464E+05 -2.888972E+04 -2.075389E+05  9.332621E+01 -1.770280E+04
       249   8 -5.136408E+05 -1.533285E+05 -3.419438E+04 -2.144970E+05  1.619894E+03 -2.024530E+04
       249   9 -5.454269E+05 -1.678403E+05 -3.989747E+04 -2.266277E+05  3.098755E+03 -2.265978E+04
       249  10 -9.395436E+04 -6.758558E+03  2.834804E+04 -9.978636E+04 -3.158365E-08 -8.647816E-09
       249  11 -6.222045E+04  7.625092E+03  3.326783E+04 -8.762281E+04 -6.453573E-09 -1.169921E-09
       249  12 -2.595424E+04  1.748623E+04  3.821696E+04 -8.063168E+04  2.256526E-08  9.496054E-09
       249  13 -2.857115E+05 -7.510466E+04 -2.709394E+02 -1.536705E+05  2.369419E-09 -1.192459E-08
       249  14 -2.879591E+05 -7.285497E+04 -4.635799E+02 -1.510710E+05 -3.248179E-09 -8.229691E-09
       249  15 -2.857289E+05 -7.518154E+04 -8.407937E+02 -1.536445E+05 -1.234538E-08 -4.260836E-09
       249  16 -4.774286E+05 -1.434468E+05 -2.889031E+04 -2.075389E+05  2.629562E-08  1.949953E-08
       249  17 -5.136409E+05 -1.533290E+05 -3.419516E+04 -2.144970E+05 -3.326706E-09  3.980918E-09
       249  18 -5.454270E+05 -1.678408E+05 -3.989845E+04 -2.266276E+05 -2.986785E-08 -1.284057E-08
       249  19 -9.395416E+04 -6.758331E+03  2.834864E+04 -9.978649E+04 -1.189303E+04  1.327307E+04
       249  20 -6.222020E+04  7.625412E+03  3.326862E+04 -8.762297E+04 -1.287941E+04  1.601733E+04
       249  21 -2.595395E+04  1.748666E+04  3.821797E+04 -8.063189E+04 -1.381813E+04  1.863363E+04
       249  22 -2.857114E+05 -7.510439E+04 -2.704212E+02 -1.536706E+05 -5.992218E+03  1.548829E+04
       249  23 -2.879589E+05 -7.285460E+04 -4.628635E+02 -1.510711E+05 -7.248552E+03  1.813173E+04
       249  24 -2.857287E+05 -7.518106E+04 -8.398584E+02 -1.536447E+05 -8.457225E+03  2.064716E+04
       249  25 -4.774285E+05 -1.434464E+05 -2.888972E+04 -2.075389E+05 -9.332621E+01  1.770280E+04
       249  26 -5.136408E+05 -1.533285E+05 -3.419438E+04 -2.144970E+05 -1.619894E+03  2.024530E+04
       249  27 -5.454269E+05 -1.678403E+05 -3.989747E+04 -2.266277E+05 -3.098755E+03  2.265978E+04
       250   1 -4.589306E+03  2.511164E+04  4.145842E+04 -7.469102E+04  1.456908E+04 -2.009021E+04
       250   2  2.680330E+04  3.963155E+04  4.673727E+04 -6.223908E+04  1.395212E+04 -2.258287E+04
       250   3  6.275201E+04  4.948410E+04  5.296474E+04 -5.475272E+04  1.290775E+04 -2.393670E+04
       250   4 -2.858017E+05 -7.519164E+04 -1.119213E+03 -1.536425E+05  9.180167E+03 -2.211459E+04
       250   5 -2.879281E+05 -7.320953E+04 -2.066766E+03 -1.509394E+05  1.096848E+04 -2.370474E+04
       250   6 -2.859768E+05 -7.637217E+04 -3.971897E+03 -1.532030E+05  1.232937E+04 -2.415567E+04
       250   7 -5.669320E+05 -1.754879E+05 -4.369875E+04 -2.325612E+05  3.793769E+03 -2.413803E+04
       250   8 -6.025548E+05 -1.860408E+05 -5.087291E+04 -2.395980E+05  7.986412E+03 -2.482602E+04
       250   9 -6.345755E+05 -2.022157E+05 -6.091126E+04 -2.516014E+05  1.175132E+04 -2.437451E+04
       250  10 -4.589643E+03  2.511115E+04  4.145726E+04 -7.469078E+04 -5.629686E-09  7.012004E-10
       250  11  2.680295E+04  3.963095E+04  4.673594E+04 -6.223882E+04  2.044369E-09  3.336245E-09
       250  12  6.275168E+04  4.948344E+04  5.296335E+04 -5.475247E+04  1.938151E-09  3.386208E-09
       250  13 -2.858019E+05 -7.519219E+04 -1.120290E+03 -1.536423E+05 -8.640882E-09 -1.593164E-09
       250  14 -2.879284E+05 -7.321017E+04 -2.068048E+03 -1.509392E+05 -3.649604E-09  4.792055E-10
       250  15 -2.859771E+05 -7.637284E+04 -3.973279E+03 -1.532028E+05  2.043552E-09  7.179457E-10
       250  16 -5.669322E+05 -1.754885E+05 -4.369987E+04 -2.325611E+05 -7.588111E-10 -3.963467E-09
       250  17 -6.025550E+05 -1.860415E+05 -5.087418E+04 -2.395978E+05 -6.325385E-09 -1.591651E-09
       250  18 -6.345759E+05 -2.022164E+05 -6.091263E+04 -2.516012E+05 -3.563332E-09 -3.084243E-09
       250  19 -4.589306E+03  2.511164E+04  4.145842E+04 -7.469102E+04 -1.456908E+04  2.009021E+04
       250  20  2.680330E+04  3.963155E+04  4.673727E+04 -6.223908E+04 -1.395212E+04  2.258287E+04
       250  21  6.275201E+04  4.948410E+04  5.296474E+04 -5.475272E+04 -1.290775E+04  2.393670E+04
       250  22 -2.858017E+05 -7.519164E+04 -1.119213E+03 -1.536425E+05 -9.180167E+03  2.211459E+04
       250  23 -2.879281E+05 -7.320953E+04 -2.066766E+03 -1.509394E+05 -1.096848E+04  2.370474E+04
       250  24 -2.859768E+05 -7.637217E+04 -3.971897E+03 -1.532030E+05 -1.232937E+04  2.415567E+04
       250  25 -5.669320E+05 -1.754879E+05 -4.369875E+04 -2.325612E+05 -3.793769E+03  2.413803E+04
       250  26 -6.025548E+05 -1.860408E+05 -5.087291E+04 -2.395980E+05 -7.986412E+03  2.482602E+04
       250  27 -6.345755E+05 -2.022157E+05 -6.091126E+04 -2.516014E+05 -1.175132E+04  2.437451E+04
       251   1  8.452285E+04  5.689503E+04  5.675029E+04 -4.919589E+04  1.398958E+04 -2.419002E+04
       251   2  1.113670E+05  7.296456E+04  6.803868E+04 -3.166865E+04 -3.953474E+03 -2.557598E+04
       251   3  1.424686E+05  8.071231E+04  9.005207E+04 -1.654171E+04 -2.572320E+04 -1.678562E+04
       251   4 -2.866922E+05 -7.664500E+04 -5.349253E+03 -1.531530E+05  1.314824E+04 -2.450790E+04
       251   5 -2.878361E+05 -7.842154E+04 -1.029405E+04 -1.489253E+05  1.670658E+04 -1.781646E+04
       251   6 -2.889847E+05 -9.278237E+04 -2.155212E+04 -1.470988E+05  1.643837E+04 -9.446799E+02
       251   7 -6.577595E+05 -2.101709E+05 -6.745202E+04 -2.570516E+05  1.230743E+04 -2.482557E+04
       251   8 -6.868651E+05 -2.297865E+05 -8.863012E+04 -2.661084E+05  3.735204E+04 -1.006292E+04
       251   9 -7.202371E+05 -2.662496E+05 -1.331602E+05 -2.775654E+05  5.856653E+04  1.488164E+04
       251  10  8.452248E+04  5.689435E+04  5.674883E+04 -4.919562E+04 -6.349190E-10  1.888569E-09
       251  11  1.113668E+05  7.296385E+04  6.803742E+04 -3.166874E+04  3.152617E-09  3.388064E-10
       251  12  1.424678E+05  8.071183E+04  9.005030E+04 -1.654205E+04  2.139875E-10 -1.008582E-11
       251  13 -2.866926E+05 -7.664569E+04 -5.350707E+03 -1.531527E+05  2.216947E-09 -3.941931E-10
       251  14 -2.878365E+05 -7.842195E+04 -1.029517E+04 -1.489251E+05  3.083888E-09  1.032788E-09
       251  15 -2.889850E+05 -9.278244E+04 -2.155263E+04 -1.470988E+05  3.052242E-10  1.139308E-09
       251  16 -6.577598E+05 -2.101716E+05 -6.745346E+04 -2.570514E+05 -1.915693E-10 -1.696558E-09
       251  17 -6.868667E+05 -2.297870E+05 -8.863293E+04 -2.661081E+05 -1.062442E-09 -1.099700E-09
       251  18 -7.202408E+05 -2.662508E+05 -1.331670E+05 -2.775661E+05 -5.084867E-10  2.903807E-10
       251  19  8.452285E+04  5.689503E+04  5.675029E+04 -4.919589E+04 -1.398958E+04  2.419002E+04
       251  20  1.113670E+05  7.296456E+04  6.803868E+04 -3.166865E+04  3.953474E+03  2.557598E+04
       251  21  1.424686E+05  8.071231E+04  9.005207E+04 -1.654171E+04  2.572320E+04  1.678562E+04
       251  22 -2.866922E+05 -7.664500E+04 -5.349253E+03 -1.531530E+05 -1.314824E+04  2.450790E+04
       251  23 -2.878361E+05 -7.842154E+04 -1.029405E+04 -1.489253E+05 -1.670658E+04  1.781646E+04
       251  24 -2.889847E+05 -9.278237E+04 -2.155212E+04 -1.470988E+05 -1.643837E+04  9.446799E+02
       251  25 -6.577595E+05 -2.101709E+05 -6.745202E+04 -2.570516E+05 -1.230743E+04  2.482557E+04
       251  26 -6.868651E+05 -2.297865E+05 -8.863012E+04 -2.661084E+05 -3.735204E+04  1.006292E+04
       251  27 -7.202371E+05 -2.662496E+05 -1.331602E+05 -2.775654E+05 -5.856653E+04 -1.488164E+04
       252   1 -1.724854E+05 -3.137678E+04 -5.576650E+04 -1.922043E+04 -7.375420E+04 -2.198225E+03
       252   2 -1.695377E+05  6.762309E+04  3.119187E+03 -5.987452E+03 -4.942546E+04 -6.501542E+03
       252   3 -1.976299E+05  5.495967E+04  1.826255E+04  1.749159E+04 -2.510152E+04 -6.040146E+03
       252   4 -4.012131E+05 -8.840557E+04 -1.123210E+05  6.296341E+03 -7.678977E+04 -2.203522E+03
       252   5 -3.854906E+05  1.401806E+04 -4.896542E+04  1.137376E+03 -5.029803E+04 -6.503022E+03
       252   6 -4.011957E+05  4.380526E+03 -3.086624E+04  6.224869E+03 -2.381049E+04 -6.038520E+03
       252   7 -6.298919E+05 -1.454358E+05 -1.688791E+05  3.180369E+04 -7.982423E+04 -2.209071E+03
       252   8 -6.014007E+05 -3.959017E+04 -1.010533E+05  8.259707E+03 -5.117028E+04 -6.504522E+03
       252   9 -6.047234E+05 -4.620118E+04 -7.999793E+04 -5.038154E+03 -2.251988E+04 -6.036940E+03
       252  10 -1.724913E+05 -3.137824E+04 -5.577673E+04 -1.922056E+04 -5.798999E-10 -1.382840E-11
       252  11 -1.695404E+05  6.762239E+04  3.114516E+03 -5.987711E+03  8.554793E-10 -1.090528E-09
       252  12 -1.976305E+05  5.495947E+04  1.826130E+04  1.749147E+04 -7.123829E-10 -1.543995E-09
       252  13 -4.012195E+05 -8.840716E+04 -1.123321E+05  6.296205E+03 -1.329774E-10  8.511278E-10
       252  14 -3.854933E+05  1.401734E+04 -4.897025E+04  1.137112E+03 -1.925135E-09 -4.872057E-10
       252  15 -4.011963E+05  4.380335E+03 -3.086737E+04  6.224753E+03 -4.908762E-10  6.146719E-10
       252  16 -6.298987E+05 -1.454375E+05 -1.688911E+05  3.180355E+04 -1.325198E-09  3.024102E-10
       252  17 -6.014035E+05 -3.959092E+04 -1.010583E+05  8.259438E+03  1.041726E-09 -1.978518E-09
       252  18 -6.047239E+05 -4.620136E+04 -7.999895E+04 -5.038264E+03  3.176657E-10 -1.889772E-09
       252  19 -1.724854E+05 -3.137678E+04 -5.576650E+04 -1.922043E+04  7.375420E+04  2.198225E+03
       252  20 -1.695377E+05  6.762309E+04  3.119187E+03 -5.987452E+03  4.942546E+04  6.501542E+03
       252  21 -1.976299E+05  5.495967E+04  1.826255E+04  1.749159E+04  2.510152E+04  6.040146E+03
       252  22 -4.012131E+05 -8.840557E+04 -1.123210E+05  6.296341E+03  7.678977E+04  2.203522E+03
       252  23 -3.854906E+05  1.401806E+04 -4.896542E+04  1.137376E+03  5.029803E+04  6.503022E+03
       252  24 -4.011957E+05  4.380526E+03 -3.086624E+04  6.224869E+03  2.381049E+04  6.038520E+03
       252  25 -6.298919E+05 -1.454358E+05 -1.688791E+05  3.180369E+04  7.982423E+04  2.209071E+03
       252  26 -6.014007E+05 -3.959017E+04 -1.010533E+05  8.259707E+03  5.117028E+04  6.504522E+03
       252  27 -6.047234E+05 -4.620118E+04 -7.999793E+04 -5.038154E+03  2.251988E+04  6.036940E+03
       253   1 -2.108065E+05  3.585384E+04  1.934141E+04  3.862087E+03 -1.892476E+04 -5.058640E+03
       253   2 -2.217039E+05  4.417787E+04  2.867187E+04  5.205594E+02 -1.256341E+04 -4.954255E+03
       253   3 -2.365750E+05  3.988632E+04  3.070812E+04  7.804865E+03 -6.202688E+03 -4.445441E+03
       253   4 -3.951043E+05 -9.929824E+03 -2.525154E+04  6.340943E+03 -1.896869E+04 -5.058866E+03
       253   5 -3.930991E+05  1.609790E+03 -1.272480E+04  1.022069E+03 -1.242472E+04 -4.954192E+03
       253   6 -3.951008E+05  5.001636E+02 -7.620655E+03  6.329225E+03 -5.881254E+03 -4.445080E+03
       253   7 -5.793710E+05 -5.571595E+04 -6.984692E+04  8.819052E+03 -1.901260E+04 -5.059092E+03
       253   8 -5.644676E+05 -4.096044E+04 -5.412357E+04  1.523432E+03 -1.228607E+04 -4.954128E+03
       253   9 -5.536035E+05 -3.888782E+04 -4.595123E+04  4.853956E+03 -5.559902E+03 -4.444720E+03
       253  10 -2.108069E+05  3.585371E+04  1.934068E+04  3.862010E+03  4.195763E-10 -2.482518E-09
       253  11 -2.217040E+05  4.417780E+04  2.867152E+04  5.205093E+02 -3.818021E-09  5.506233E-10
       253  12 -2.365751E+05  3.988629E+04  3.070801E+04  7.804842E+03 -1.675899E-09  1.702105E-09
       253  13 -3.951047E+05 -9.929948E+03 -2.525226E+04  6.340866E+03 -2.134958E-09 -1.807657E-09
       253  14 -3.930993E+05  1.609722E+03 -1.272514E+04  1.022020E+03 -3.986495E-09 -1.009033E-09
       253  15 -3.951008E+05  5.001330E+02 -7.620757E+03  6.329204E+03  7.456441E-10 -8.814698E-10
       253  16 -5.793714E+05 -5.571608E+04 -6.984765E+04  8.818974E+03 -3.486410E-10 -3.661175E-10
       253  17 -5.644677E+05 -4.096050E+04 -5.412390E+04  1.523383E+03  2.558417E-09 -9.520122E-10
       253  18 -5.536036E+05 -3.888785E+04 -4.595132E+04  4.853936E+03  2.025738E-09  6.716276E-10
       253  19 -2.108065E+05  3.585384E+04  1.934141E+04  3.862087E+03  1.892476E+04  5.058640E+03
       253  20 -2.217039E+05  4.417787E+04  2.867187E+04  5.205594E+02  1.256341E+04  4.954255E+03
       253  21 -2.365750E+05  3.988632E+04  3.070812E+04  7.804865E+03  6.202688E+03  4.445441E+03
       253  22 -3.951043E+05 -9.929824E+03 -2.525154E+04  6.340943E+03  1.896869E+04  5.058866E+03
       253  23 -3.930991E+05  1.609790E+03 -1.272480E+04  1.022069E+03  1.242472E+04  4.954192E+03
       253  24 -3.951008E+05  5.001636E+02 -7.620655E+03  6.329225E+03  5.881254E+03  4.445080E+03
       253  25 -5.793710E+05 -5.571595E+04 -6.984692E+04  8.819052E+03  1.901260E+04  5.059092E+03
       253  26 -5.644676E+05 -4.096044E+04 -5.412357E+04  1.523432E+03  1.228607E+04  4.954128E+03
       253  27 -5.536035E+05 -3.888782E+04 -4.595123E+04  4.853956E+03  5.559902E+03  4.444720E+03
       254   1 -2.555849E+05  3.336919E+04  2.749571E+04  6.301149E+03 -4.885692E+03 -4.089986E+03
       254   2 -2.684655E+05  3.138158E+04  2.707155E+04  1.057412E+03 -3.261672E+03 -3.609436E+03
       254   3 -2.819229E+05  2.800253E+04  2.523816E+04  6.678528E+03 -1.637882E+03 -3.091149E+03
       254   4 -3.943380E+05 -1.088410E+03 -5.992621E+03  6.387242E+03 -4.675554E+03 -4.089759E+03
       254   5 -3.940474E+05  1.886328E+02 -3.265226E+03  9.539337E+02 -3.034662E+03 -3.609155E+03
       254   6 -3.943370E+05  7.112753E+01 -1.959020E+03  6.385619E+03 -1.393967E+03 -3.090809E+03
       254   7 -5.330735E+05 -3.554741E+04 -3.948233E+04  6.473310E+03 -4.465463E+03 -4.089532E+03
       254   8 -5.196149E+05 -3.100547E+04 -3.360313E+04  8.504709E+02 -2.807698E+03 -3.608873E+03
       254   9 -5.067394E+05 -2.786120E+04 -2.915710E+04  6.092758E+03 -1.150096E+03 -3.090470E+03
       254  10 -2.555850E+05  3.336916E+04  2.749563E+04  6.301133E+03  1.309788E-09  2.867100E-09
       254  11 -2.684655E+05  3.138156E+04  2.707151E+04  1.057403E+03  1.101835E-09  2.721236E-09
       254  12 -2.819229E+05  2.800252E+04  2.523813E+04  6.678524E+03  1.585651E-09  6.739178E-10
       254  13 -3.943380E+05 -1.088434E+03 -5.992694E+03  6.387227E+03  3.026626E-10 -7.743731E-10
       254  14 -3.940474E+05  1.886163E+02 -3.265267E+03  9.539249E+02 -6.904447E-10  2.198241E-09
       254  15 -3.943370E+05  7.111675E+01 -1.959041E+03  6.385615E+03 -1.755256E-09  4.136774E-09
       254  16 -5.330735E+05 -3.554744E+04 -3.948240E+04  6.473295E+03 -3.936004E-09  2.046794E-09
       254  17 -5.196149E+05 -3.100548E+04 -3.360317E+04  8.504628E+02 -1.803570E-09  2.308894E-09
       254  18 -5.067394E+05 -2.786121E+04 -2.915712E+04  6.092755E+03  1.217510E-09  2.060429E-09
       254  19 -2.555849E+05  3.336919E+04  2.749571E+04  6.301149E+03  4.885692E+03  4.089986E+03
       254  20 -2.684655E+05  3.138158E+04  2.707155E+04  1.057412E+03  3.261672E+03  3.609436E+03
       254  21 -2.819229E+05  2.800253E+04  2.523816E+04  6.678528E+03  1.637882E+03  3.091149E+03
       254  22 -3.943380E+05 -1.088410E+03 -5.992621E+03  6.387242E+03  4.675554E+03  4.089759E+03
       254  23 -3.940474E+05  1.886328E+02 -3.265226E+03  9.539337E+02  3.034662E+03  3.609155E+03
       254  24 -3.943370E+05  7.112753E+01 -1.959020E+03  6.385619E+03  1.393967E+03  3.090809E+03
       254  25 -5.330735E+05 -3.554741E+04 -3.948233E+04  6.473310E+03  4.465463E+03  4.089532E+03
       254  26 -5.196149E+05 -3.100547E+04 -3.360313E+04  8.504709E+02  2.807698E+03  3.608873E+03
       254  27 -5.067394E+05 -2.786120E+04 -2.915710E+04  6.092758E+03  1.150096E+03  3.090470E+03
       255   1 -3.019673E+05  2.281169E+04  2.069859E+04  6.520297E+03 -1.314402E+03 -2.783784E+03
       255   2 -3.152690E+05  1.962642E+04  1.807185E+04  1.008044E+03 -8.257852E+02 -2.265133E+03
       255   3 -3.287047E+05  1.630357E+04  1.508484E+04  6.524609E+03 -3.372893E+02 -1.741071E+03
       255   4 -3.942368E+05 -9.951953E+01 -1.551848E+03  6.422698E+03 -1.079462E+03 -2.783441E+03
       255   5 -3.941692E+05  2.787300E+01 -9.888846E+02  9.081525E+02 -5.884473E+02 -2.264766E+03
       255   6 -3.942364E+05  1.720894E+01 -7.879474E+02  6.422513E+03 -9.754309E+01 -1.740680E+03
       255   7 -4.864986E+05 -2.301135E+04 -2.380289E+04  6.325111E+03 -8.445567E+02 -2.783097E+03
       255   8 -4.730637E+05 -1.957113E+04 -2.005007E+04  8.082715E+02 -3.511394E+02 -2.264398E+03
       255   9 -4.597641E+05 -1.626946E+04 -1.666105E+04  6.320425E+03  1.421779E+02 -1.740288E+03
       255  10 -3.019673E+05  2.281168E+04  2.069857E+04  6.520294E+03  2.421047E-09 -5.108305E-11
       255  11 -3.152690E+05  1.962641E+04  1.807184E+04  1.008042E+03 -2.196832E-09  3.824795E-09
       255  12 -3.287047E+05  1.630356E+04  1.508484E+04  6.524609E+03 -7.785447E-10  4.550344E-09
       255  13 -3.942368E+05 -9.952816E+01 -1.551865E+03  6.422696E+03 -1.845186E-11  5.029529E-10
       255  14 -3.941692E+05  2.786740E+01 -9.888949E+02  9.081514E+02  1.225178E-09  2.110196E-09
       255  15 -3.942364E+05  1.720568E+01 -7.879531E+02  6.422513E+03 -5.095785E-10  5.399249E-10
       255  16 -4.864986E+05 -2.301136E+04 -2.380291E+04  6.325109E+03 -3.356025E-09  1.122489E-09
       255  17 -4.730637E+05 -1.957114E+04 -2.005008E+04  8.082709E+02 -1.032093E-09 -1.161740E-09
       255  18 -4.597641E+05 -1.626947E+04 -1.666105E+04  6.320426E+03 -7.154660E-10 -5.770827E-10
       255  19 -3.019673E+05  2.281169E+04  2.069859E+04  6.520297E+03  1.314402E+03  2.783784E+03
       255  20 -3.152690E+05  1.962642E+04  1.807185E+04  1.008044E+03  8.257852E+02  2.265133E+03
       255  21 -3.287047E+05  1.630357E+04  1.508484E+04  6.524609E+03  3.372893E+02  1.741071E+03
       255  22 -3.942368E+05 -9.951953E+01 -1.551848E+03  6.422698E+03  1.079462E+03  2.783441E+03
       255  23 -3.941692E+05  2.787300E+01 -9.888846E+02  9.081525E+02  5.884473E+02  2.264766E+03
       255  24 -3.942364E+05  1.720894E+01 -7.879474E+02  6.422513E+03  9.754309E+01  1.740680E+03
       255  25 -4.864986E+05 -2.301135E+04 -2.380289E+04  6.325111E+03  8.445567E+02  2.783097E+03
       255  26 -4.730637E+05 -1.957113E+04 -2.005007E+04  8.082715E+02  3.511394E+02  2.264398E+03
       255  27 -4.597641E+05 -1.626946E+04 -1.666105E+04  6.320425E+03 -1.421779E+02  1.740288E+03
       256   1 -3.490835E+05  1.122266E+04  1.008878E+04  6.483747E+03 -1.963676E+02 -1.434597E+03
       256   2 -3.624908E+05  7.896046E+03  6.720249E+03  9.208528E+02  2.666371E+02 -9.082953E+02
       256   3 -3.760356E+05  4.446146E+03  3.009433E+03  6.477767E+03  7.296005E+02 -3.821972E+02
       256   4 -3.942364E+05  1.492117E+01 -7.782855E+02  6.442727E+03  4.320846E+01 -1.434195E+03
       256   5 -3.941676E+05  2.740814E+01 -9.325026E+02  8.828914E+02  5.060975E+02 -9.078860E+02
       256   6 -3.942363E+05 -8.331330E+01 -1.428874E+03  6.442899E+03  9.689552E+02 -3.817798E+02
       256   7 -4.393873E+05 -1.119296E+04 -1.164549E+04  6.401710E+03  2.827672E+02 -1.433794E+03
       256   8 -4.258435E+05 -7.841303E+03 -8.585326E+03  8.449316E+02  7.455457E+02 -9.074768E+02
       256   9 -4.124368E+05 -4.612797E+03 -5.867204E+03  6.408032E+03  1.208303E+03 -3.813623E+02
       256  10 -3.490835E+05  1.122266E+04  1.008877E+04  6.483746E+03  2.259420E-09  2.419342E-09
       256  11 -3.624908E+05  7.896045E+03  6.720248E+03  9.208530E+02 -8.337701E-10  5.761423E-11
       256  12 -3.760356E+05  4.446146E+03  3.009432E+03  6.477767E+03 -2.900763E-09 -2.118116E-09
       256  13 -3.942364E+05  1.491896E+01 -7.782894E+02  6.442727E+03 -2.922080E-10  5.140848E-09
       256  14 -3.941676E+05  2.740719E+01 -9.325046E+02  8.828918E+02  2.467622E-09 -9.667483E-10
       256  15 -3.942363E+05 -8.331371E+01 -1.428876E+03  6.442899E+03  1.108500E-09 -6.115513E-09
       256  16 -4.393873E+05 -1.119297E+04 -1.164550E+04  6.401710E+03 -2.242703E-09  2.806096E-09
       256  17 -4.258435E+05 -7.841304E+03 -8.585329E+03  8.449321E+02 -3.247414E-10 -3.674666E-10
       256  18 -4.124368E+05 -4.612798E+03 -5.867207E+03  6.408032E+03  7.545836E-10 -1.967726E-09
       256  19 -3.490835E+05  1.122266E+04  1.008878E+04  6.483747E+03  1.963676E+02  1.434597E+03
       256  20 -3.624908E+05  7.896046E+03  6.720249E+03  9.208528E+02 -2.666371E+02  9.082953E+02
       256  21 -3.760356E+05  4.446146E+03  3.009433E+03  6.477767E+03 -7.296005E+02  3.821972E+02
       256  22 -3.942364E+05  1.492117E+01 -7.782855E+02  6.442727E+03 -4.320846E+01  1.434195E+03
       256  23 -3.941676E+05  2.740814E+01 -9.325026E+02  8.828914E+02 -5.060975E+02  9.078860E+02
       256  24 -3.942363E+05 -8.331330E+01 -1.428874E+03  6.442899E+03 -9.689552E+02  3.817798E+02
       256  25 -4.393873E+05 -1.119296E+04 -1.164549E+04  6.401710E+03 -2.827672E+02  1.433794E+03
       256  26 -4.258435E+05 -7.841303E+03 -8.585326E+03  8.449316E+02 -7.455457E+02  9.074768E+02
       256  27 -4.124368E+05 -4.612797E+03 -5.867204E+03  6.408032E+03 -1.208303E+03  3.813623E+02
       257   1 -3.966004E+05 -5.029887E+02 -2.384594E+03  6.294977E+03  1.013187E+03 -7.194540E+01
       257   2 -4.098136E+05 -3.740001E+03 -6.779013E+03  8.890376E+02  2.514821E+03  4.576406E+02
       257   3 -4.235851E+05 -8.236443E+03 -1.247660E+04  6.616294E+03  4.016471E+03  9.681081E+02
       257   4 -3.943294E+05  7.004800E+01 -1.794568E+03  6.445161E+03  1.257737E+03 -7.151710E+01
       257   5 -3.940512E+05  1.753602E+02 -2.971229E+03  8.794763E+02  2.750691E+03  4.580491E+02
       257   6 -3.943300E+05 -9.772086E+02 -5.444967E+03  6.446973E+03  4.243694E+03  9.684967E+02
       257   7 -3.920583E+05  6.430844E+02 -1.204543E+03  6.595345E+03  1.502288E+03 -7.108868E+01
       257   8 -3.782886E+05  4.090703E+03  8.365375E+02  8.699146E+02  2.986567E+03  4.584575E+02
       257   9 -3.650741E+05  6.281964E+03  1.586600E+03  6.277644E+03  4.470927E+03  9.688852E+02
       257  10 -3.966004E+05 -5.029890E+02 -2.384596E+03  6.294977E+03 -9.907472E-10  1.868743E-09
       257  11 -4.098136E+05 -3.740003E+03 -6.779025E+03  8.890367E+02  3.436368E-09  2.894746E-09
       257  12 -4.235851E+05 -8.236448E+03 -1.247663E+04  6.616291E+03  6.692165E-10  2.012305E-09
       257  13 -3.943294E+05  7.004757E+01 -1.794571E+03  6.445161E+03  1.491986E-11 -4.848458E-09
       257  14 -3.940512E+05  1.753580E+02 -2.971244E+03  8.794753E+02 -3.853928E-09 -3.230068E-12
       257  15 -3.943300E+05 -9.772144E+02 -5.445003E+03  6.446970E+03  2.123455E-09  1.989363E-09
       257  16 -3.920583E+05  6.430838E+02 -1.204547E+03  6.595345E+03 -7.976500E-10  5.495933E-10
       257  17 -3.782886E+05  4.090700E+03  8.365204E+02  8.699135E+02 -2.224379E-09 -4.372235E-09
       257  18 -3.650741E+05  6.281957E+03  1.586560E+03  6.277641E+03 -4.711745E-10  2.192110E-11
       257  19 -3.966004E+05 -5.029887E+02 -2.384594E+03  6.294977E+03 -1.013187E+03  7.194540E+01
       257  20 -4.098136E+05 -3.740001E+03 -6.779013E+03  8.890376E+02 -2.514821E+03 -4.576406E+02
       257  21 -4.235851E+05 -8.236443E+03 -1.247660E+04  6.616294E+03 -4.016471E+03 -9.681081E+02
       257  22 -3.943294E+05  7.004800E+01 -1.794568E+03  6.445161E+03 -1.257737E+03  7.151710E+01
       257  23 -3.940512E+05  1.753602E+02 -2.971229E+03  8.794763E+02 -2.750691E+03 -4.580491E+02
       257  24 -3.943300E+05 -9.772086E+02 -5.444967E+03  6.446973E+03 -4.243694E+03 -9.684967E+02
       257  25 -3.920583E+05  6.430844E+02 -1.204543E+03  6.595345E+03 -1.502288E+03  7.108868E+01
       257  26 -3.782886E+05  4.090703E+03  8.365375E+02  8.699146E+02 -2.986567E+03 -4.584575E+02
       257  27 -3.650741E+05  6.281964E+03  1.586600E+03  6.277644E+03 -4.470927E+03 -9.688852E+02
       258   1 -4.447010E+05 -1.188933E+04 -1.896259E+04  5.167889E+03  5.049450E+03  1.308329E+03
       258   2 -4.562735E+05 -1.420147E+04 -2.678855E+04  1.413351E+03  1.109101E+04  1.841011E+03
       258   3 -4.715466E+05 -2.800362E+04 -4.143107E+04  8.735332E+03  1.713276E+04  2.148743E+03
       258   4 -3.950247E+05  4.636638E+02 -6.922431E+03  6.428200E+03  5.339120E+03  1.308828E+03
       258   5 -3.931847E+05  1.467683E+03 -1.155029E+04  8.977044E+02  1.127869E+04  1.841301E+03
       258   6 -3.950276E+05 -8.999953E+03 -2.292332E+04  6.443720E+03  1.721858E+04  2.148800E+03
       258   7 -3.453461E+05  1.281648E+04  5.117549E+03  7.688611E+03  5.628813E+03  1.309329E+03
       258   8 -3.300923E+05  1.713655E+04  3.687679E+03  3.820035E+02  1.146639E+04  1.841591E+03
       258   9 -3.185031E+05  1.000330E+04 -4.415998E+03  4.151822E+03  1.730441E+04  2.148856E+03
       258  10 -4.447011E+05 -1.188934E+04 -1.896264E+04  5.167883E+03 -7.553159E-10  3.460292E-09
       258  11 -4.562736E+05 -1.420151E+04 -2.678879E+04  1.413335E+03  2.363090E-09  2.676967E-09
       258  12 -4.715469E+05 -2.800370E+04 -4.143163E+04  8.735302E+03 -1.816025E-09  3.074863E-09
       258  13 -3.950247E+05  4.636543E+02 -6.922488E+03  6.428194E+03  1.252363E-12  2.280554E-09
       258  14 -3.931848E+05  1.467645E+03 -1.155054E+04  8.976877E+02 -3.862497E-09  2.305877E-09
       258  15 -3.950279E+05 -9.000038E+03 -2.292389E+04  6.443690E+03 -2.357874E-09  7.487039E-10
       258  16 -3.453461E+05  1.281647E+04  5.117486E+03  7.688605E+03 -8.625302E-10 -5.362947E-10
       258  17 -3.300924E+05  1.713651E+04  3.687426E+03  3.819865E+02 -1.696685E-10 -2.561277E-09
       258  18 -3.185035E+05  1.000322E+04 -4.416570E+03  4.151792E+03  1.301408E-09 -1.797526E-09
       258  19 -4.447010E+05 -1.188933E+04 -1.896259E+04  5.167889E+03 -5.049450E+03 -1.308329E+03
       258  20 -4.562735E+05 -1.420147E+04 -2.678855E+04  1.413351E+03 -1.109101E+04 -1.841011E+03
       258  21 -4.715466E+05 -2.800362E+04 -4.143107E+04  8.735332E+03 -1.713276E+04 -2.148743E+03
       258  22 -3.950247E+05  4.636638E+02 -6.922431E+03  6.428200E+03 -5.339120E+03 -1.308828E+03
       258  23 -3.931847E+05  1.467683E+03 -1.155029E+04  8.977044E+02 -1.127869E+04 -1.841301E+03
       258  24 -3.950276E+05 -8.999953E+03 -2.292332E+04  6.443720E+03 -1.721858E+04 -2.148800E+03
       258  25 -3.453461E+05  1.281648E+04  5.117549E+03  7.688611E+03 -5.628813E+03 -1.309329E+03
       258  26 -3.300923E+05  1.713655E+04  3.687679E+03  3.820035E+02 -1.146639E+04 -1.841591E+03
       258  27 -3.185031E+05  1.000330E+04 -4.415998E+03  4.151822E+03 -1.730441E+04 -2.148856E+03
       259   1 -4.972912E+05 -2.007881E+04 -5.138986E+04 -3.830816E+03  2.078087E+04  2.841988E+03
       259   2 -4.962190E+05 -1.454525E+04 -7.095940E+04  7.415522E+03  4.603401E+04  3.372608E+03
       259   3 -5.239510E+05 -1.109457E+05 -1.324671E+05  2.962747E+04  7.129105E+04  1.237820E+03
       259   4 -4.005593E+05  3.989781E+03 -2.802027E+04  6.368952E+03  2.161417E+04  2.843628E+03
       259   5 -3.862728E+05  1.273385E+04 -4.444403E+04  9.478718E+02  4.565582E+04  3.371505E+03
       259   6 -4.005751E+05 -8.023687E+04 -1.019590E+05  6.492763E+03  6.970195E+04  1.232827E+03
       259   7 -3.038187E+05  2.805807E+04 -4.651297E+03  1.657031E+04  2.244760E+04  2.845295E+03
       259   8 -2.763155E+05  4.001222E+04 -1.792951E+04 -5.520932E+03  4.527757E+04  3.370411E+03
       259   9 -2.771843E+05 -4.952712E+04 -7.145162E+04 -1.664655E+04  6.811254E+04  1.227952E+03
       259  10 -4.972917E+05 -2.007893E+04 -5.139069E+04 -3.830864E+03 -4.345248E-10  1.388411E-09
       259  11 -4.962212E+05 -1.454583E+04 -7.096340E+04  7.415397E+03  1.513515E-09 -1.760264E-09
       259  12 -5.239564E+05 -1.109471E+05 -1.324767E+05  2.962740E+04  1.101077E-10 -7.287590E-10
       259  13 -4.005598E+05  3.989647E+03 -2.802117E+04  6.368903E+03 -2.432351E-09  4.354082E-09
       259  14 -3.862750E+05  1.273328E+04 -4.444797E+04  9.477478E+02 -2.550445E-09 -4.488144E-09
       259  15 -4.005804E+05 -8.023818E+04 -1.019681E+05  6.492694E+03 -4.503165E-10  1.587621E-09
       259  16 -3.038192E+05  2.805793E+04 -4.652259E+03  1.657026E+04 -8.083176E-10  3.780433E-09
       259  17 -2.763177E+05  4.001166E+04 -1.793338E+04 -5.521055E+03 -3.805075E-09  5.452775E-10
       259  18 -2.771893E+05 -4.952837E+04 -7.146034E+04 -1.664662E+04  3.899589E-10 -6.298690E-10
       259  19 -4.972912E+05 -2.007881E+04 -5.138986E+04 -3.830816E+03 -2.078087E+04 -2.841988E+03
       259  20 -4.962190E+05 -1.454525E+04 -7.095940E+04  7.415522E+03 -4.603401E+04 -3.372608E+03
       259  21 -5.239510E+05 -1.109457E+05 -1.324671E+05  2.962747E+04 -7.129105E+04 -1.237820E+03
       259  22 -4.005593E+05  3.989781E+03 -2.802027E+04  6.368952E+03 -2.161417E+04 -2.843628E+03
       259  23 -3.862728E+05  1.273385E+04 -4.444403E+04  9.478718E+02 -4.565582E+04 -3.371505E+03
       259  24 -4.005751E+05 -8.023687E+04 -1.019590E+05  6.492763E+03 -6.970195E+04 -1.232827E+03
       259  25 -3.038187E+05  2.805807E+04 -4.651297E+03  1.657031E+04 -2.244760E+04 -2.845295E+03
       259  26 -2.763155E+05  4.001222E+04 -1.792951E+04 -5.520932E+03 -4.527757E+04 -3.370411E+03
       259  27 -2.771843E+05 -4.952712E+04 -7.145162E+04 -1.664655E+04 -6.811254E+04 -1.227952E+03
       260   1  1.831190E+05  1.028503E+06  1.990198E+05 -9.689272E+04  4.553782E+03  7.280232E+04
       260   2  7.429873E+04  9.127052E+05  1.192805E+05 -4.952442E+04  1.300405E+04  3.879385E+04
       260   3  4.895375E+04  8.221405E+05  8.251569E+04 -5.079895E+04  9.928395E+03  4.781152E+03
       260   4  7.848539E+04  6.079446E+05  9.634774E+04 -6.210674E+04  4.567239E+03  6.153204E+04
       260   5 -3.457189E+03  5.961380E+05  4.692687E+04 -3.782153E+04  1.300717E+04  3.667730E+04
       260   6 -3.488013E+03  6.079850E+05  3.414852E+04 -6.217656E+04  9.921096E+03  1.181253E+04
       260   7 -2.615670E+04  1.875503E+05 -6.336049E+03 -2.734431E+04  4.579440E+03  5.026936E+04
       260   8 -8.121955E+04  2.796639E+05 -2.543318E+04 -2.612462E+04  1.301022E+04  3.456181E+04
       260   9 -5.593240E+04  3.938724E+05 -1.422133E+04 -7.355020E+04  9.913538E+03  1.884151E+04
       260  10  1.831176E+05  1.028497E+06  1.990098E+05 -9.689299E+04  1.265960E-09  2.640698E-09
       260  11  7.429814E+04  9.127036E+05  1.192773E+05 -4.952483E+04  5.404832E-10  3.690176E-10
       260  12  4.895364E+04  8.221405E+05  8.251546E+04 -5.079898E+04  6.348441E-10 -1.029975E-09
       260  13  7.848436E+04  6.079405E+05  9.634059E+04 -6.210697E+04 -3.084347E-09 -9.680097E-10
       260  14 -3.457731E+03  5.961366E+05  4.692403E+04 -3.782191E+04  2.000871E-09  1.060311E-09
       260  15 -3.488156E+03  6.079848E+05  3.414807E+04 -6.217665E+04 -8.804815E-10 -5.909930E-10
       260  16 -2.615740E+04  1.875476E+05 -6.340835E+03 -2.734450E+04 -8.858837E-10 -2.183741E-09
       260  17 -8.122005E+04  2.796626E+05 -2.543574E+04 -2.612498E+04 -8.236146E-10 -1.113870E-09
       260  18 -5.593260E+04  3.938720E+05 -1.422218E+04 -7.355035E+04  7.690064E-10  1.352736E-09
       260  19  1.831190E+05  1.028503E+06  1.990198E+05 -9.689272E+04 -4.553782E+03 -7.280232E+04
       260  20  7.429873E+04  9.127052E+05  1.192805E+05 -4.952442E+04 -1.300405E+04 -3.879385E+04
       260  21  4.895375E+04  8.221405E+05  8.251569E+04 -5.079895E+04 -9.928395E+03 -4.781152E+03
       260  22  7.848539E+04  6.079446E+05  9.634774E+04 -6.210674E+04 -4.567239E+03 -6.153204E+04
       260  23 -3.457189E+03  5.961380E+05  4.692687E+04 -3.782153E+04 -1.300717E+04 -3.667730E+04
       260  24 -3.488013E+03  6.079850E+05  3.414852E+04 -6.217656E+04 -9.921096E+03 -1.181253E+04
       260  25 -2.615670E+04  1.875503E+05 -6.336049E+03 -2.734431E+04 -4.579440E+03 -5.026936E+04
       260  26 -8.121955E+04  2.796639E+05 -2.543318E+04 -2.612462E+04 -1.301022E+04 -3.456181E+04
       260  27 -5.593240E+04  3.938724E+05 -1.422133E+04 -7.355020E+04 -9.913538E+03 -1.884151E+04
       261   1  3.469045E+04  7.260710E+05  5.959657E+04 -6.589935E+04  5.518927E+03  2.668666E+03
       261   2  3.828161E+03  6.201843E+05  3.552904E+04 -3.736744E+04  8.976564E+02 -1.311762E+04
       261   3 -1.091419E+04  5.202694E+05  2.573361E+04 -5.783335E+04 -3.766419E+03 -2.890163E+04
       261   4  4.769030E+03  6.040551E+05  3.196133E+04 -6.223622E+04  5.515003E+03  6.327645E+03
       261   5 -8.533721E+02  6.010767E+05  3.121105E+04 -3.773496E+04  8.936582E+02 -9.423949E+03
       261   6  9.638936E+03  6.040536E+05  4.470955E+04 -6.223094E+04 -3.770325E+03 -2.517581E+04
       261   7 -2.515336E+04  4.820531E+05  4.325185E+03 -5.857381E+04  5.511122E+03  9.985913E+03
       261   8 -5.534922E+03  5.819695E+05  2.689309E+04 -3.810247E+04  8.896556E+02 -5.730393E+03
       261   9  3.019165E+04  6.878445E+05  6.368510E+04 -6.662912E+04 -3.774284E+03 -2.144950E+04
       261  10  3.469042E+04  7.260710E+05  5.959650E+04 -6.589936E+04  1.487387E-09  7.425631E-10
       261  11  3.828114E+03  6.201842E+05  3.552872E+04 -3.736743E+04  3.477210E-09 -4.282686E-10
       261  12 -1.091443E+04  5.202685E+05  2.573201E+04 -5.783344E+04  7.325217E-10 -4.151266E-10
       261  13  4.768986E+03  6.040551E+05  3.196120E+04 -6.223625E+04 -1.014848E-09 -1.102219E-09
       261  14 -8.533967E+02  6.010766E+05  3.121088E+04 -3.773496E+04  1.018331E-09  1.044295E-09
       261  15  9.638751E+03  6.040530E+05  4.470833E+04 -6.223101E+04  3.290781E-09 -1.053623E-09
       261  16 -2.515342E+04  4.820530E+05  4.324941E+03 -5.857386E+04  1.668824E-09 -1.569192E-10
       261  17 -5.534932E+03  5.819695E+05  2.689302E+04 -3.810247E+04 -1.144363E-09 -1.522366E-10
       261  18  3.019151E+04  6.878440E+05  6.368421E+04 -6.662918E+04  1.584404E-09  9.682272E-10
       261  19  3.469045E+04  7.260710E+05  5.959657E+04 -6.589935E+04 -5.518927E+03 -2.668666E+03
       261  20  3.828161E+03  6.201843E+05  3.552904E+04 -3.736744E+04 -8.976564E+02  1.311762E+04
       261  21 -1.091419E+04  5.202694E+05  2.573361E+04 -5.783335E+04  3.766419E+03  2.890163E+04
       261  22  4.769030E+03  6.040551E+05  3.196133E+04 -6.223622E+04 -5.515003E+03 -6.327645E+03
       261  23 -8.533721E+02  6.010767E+05  3.121105E+04 -3.773496E+04 -8.936582E+02  9.423949E+03
       261  24  9.638936E+03  6.040536E+05  4.470955E+04 -6.223094E+04  3.770325E+03  2.517581E+04
       261  25 -2.515336E+04  4.820531E+05  4.325185E+03 -5.857381E+04 -5.511122E+03 -9.985913E+03
       261  26 -5.534922E+03  5.819695E+05  2.689309E+04 -3.810247E+04 -8.896556E+02  5.730393E+03
       261  27  3.019165E+04  6.878445E+05  6.368510E+04 -6.662912E+04  3.774284E+03  2.144950E+04
       262   1 -5.053418E+04  4.366284E+05  1.306811E+04 -8.384633E+04 -8.067396E+03 -3.992163E+04
       262   2 -7.484619E+04  3.122681E+05  1.947644E+04 -1.618805E+04 -1.132926E+04 -7.573621E+04
       262   3  5.268526E+04  2.304820E+05  8.714770E+04  2.848657E+03 -4.023647E+03 -1.115342E+05
       262   4 -7.484542E+03  6.125082E+05  5.281727E+04 -6.218917E+04 -8.075990E+03 -3.313072E+04
       262   5 -6.451195E+03  5.904854E+05  8.312625E+04 -3.781249E+04 -1.132476E+04 -7.733946E+04
       262   6  1.478361E+05  6.124503E+05  1.805000E+05 -6.205027E+04 -4.003172E+03 -1.215379E+05
       262   7  3.556476E+04  7.884179E+05  9.256488E+04 -4.052582E+04 -8.084109E+03 -2.633790E+04
       262   8  6.194016E+04  8.687753E+05  1.467712E+05 -5.944669E+04 -1.132015E+04 -7.894343E+04
       262   9  2.429920E+05  9.945606E+05  2.738443E+05 -1.269892E+05 -3.980616E+03 -1.315477E+05
       262  10 -5.053467E+04  4.366267E+05  1.306499E+04 -8.384659E+04 -1.477469E-09  1.872612E-09
       262  11 -7.484787E+04  3.122619E+05  1.946543E+04 -1.618874E+04  8.295880E-10 -4.753106E-10
       262  12  5.268190E+04  2.304687E+05  8.712430E+04  2.848295E+03  3.591895E-10 -1.559846E-09
       262  13 -7.484907E+03  6.125070E+05  5.281509E+04 -6.218939E+04 -1.606738E-11 -1.003888E-09
       262  14 -6.452937E+03  5.904789E+05  8.311478E+04 -3.781320E+04  3.067667E-09  6.907579E-10
       262  15  1.478321E+05  6.124344E+05  1.804722E+05 -6.205066E+04 -8.439031E-10 -4.241955E-10
       262  16  3.556451E+04  7.884171E+05  9.256345E+04 -4.052599E+04  3.399062E-09 -1.492912E-09
       262  17  6.193836E+04  8.687686E+05  1.467593E+05 -5.944741E+04  3.756516E-09 -3.828708E-10
       262  18  2.429874E+05  9.945421E+05  2.738118E+05 -1.269896E+05  9.871488E-10  2.027847E-09
       262  19 -5.053418E+04  4.366284E+05  1.306811E+04 -8.384633E+04  8.067396E+03  3.992163E+04
       262  20 -7.484619E+04  3.122681E+05  1.947644E+04 -1.618805E+04  1.132926E+04  7.573621E+04
       262  21  5.268526E+04  2.304820E+05  8.714770E+04  2.848657E+03  4.023647E+03  1.115342E+05
       262  22 -7.484542E+03  6.125082E+05  5.281727E+04 -6.218917E+04  8.075990E+03  3.313072E+04
       262  23 -6.451195E+03  5.904854E+05  8.312625E+04 -3.781249E+04  1.132476E+04  7.733946E+04
       262  24  1.478361E+05  6.124503E+05  1.805000E+05 -6.205027E+04  4.003172E+03  1.215379E+05
       262  25  3.556476E+04  7.884179E+05  9.256488E+04 -4.052582E+04  8.084109E+03  2.633790E+04
       262  26  6.194016E+04  8.687753E+05  1.467712E+05 -5.944669E+04  1.132015E+04  7.894343E+04
       262  27  2.429920E+05  9.945606E+05  2.738443E+05 -1.269892E+05  3.980616E+03  1.315477E+05
       263   1  1.171871E+05  1.656468E+04 -1.504228E+03  4.429378E+04 -3.687604E+03 -1.398341E+03
       263   2  1.187579E+05  2.131636E+04  1.924428E+03  4.250848E+04 -2.367611E+03 -9.245251E+02
       263   3  1.176069E+05  2.064661E+04  2.788563E+03  4.283886E+04 -1.058431E+03 -4.219890E+02
       263   4  1.014981E+05  1.069990E+04 -5.814334E+03  4.008740E+04 -3.688296E+03 -1.398601E+03
       263   5  1.031441E+05  1.542953E+04 -2.374733E+03  3.827066E+04 -2.367689E+03 -9.245544E+02
       263   6  1.020682E+05  1.473754E+04 -1.500190E+03  3.856964E+04 -1.057895E+03 -4.217871E+02
       263   7  8.580934E+04  4.835131E+03 -1.012446E+04  3.588113E+04 -3.688987E+03 -1.398861E+03
       263   8  8.753060E+04  9.542711E+03 -6.673915E+03  3.403294E+04 -2.367767E+03 -9.245838E+02
       263   9  8.652967E+04  8.828488E+03 -5.788966E+03  3.430051E+04 -1.057359E+03 -4.215853E+02
       263  10  1.171870E+05  1.656467E+04 -1.504257E+03  4.429377E+04 -9.146274E-08  6.688471E-08
       263  11  1.187579E+05  2.131635E+04  1.924416E+03  4.250847E+04 -8.303131E-08  5.824651E-08
       263  12  1.176069E+05  2.064661E+04  2.788560E+03  4.283886E+04  4.307865E-07 -3.250167E-07
       263  13  1.014981E+05  1.069989E+04 -5.814363E+03  4.008740E+04  1.926799E-09  2.978870E-09
       263  14  1.031441E+05  1.542952E+04 -2.374745E+03  3.827066E+04  4.069029E-09 -2.226312E-09
       263  15  1.020682E+05  1.473754E+04 -1.500193E+03  3.856964E+04  8.583609E-09 -1.844843E-08
       263  16  8.580933E+04  4.835125E+03 -1.012449E+04  3.588113E+04  9.221407E-08 -6.301223E-08
       263  17  8.753060E+04  9.542708E+03 -6.673927E+03  3.403294E+04  8.322046E-08 -6.319794E-08
       263  18  8.652967E+04  8.828488E+03 -5.788968E+03  3.430051E+04 -4.166709E-07  2.871140E-07
       263  19  1.171871E+05  1.656468E+04 -1.504228E+03  4.429378E+04  3.687604E+03  1.398341E+03
       263  20  1.187579E+05  2.131636E+04  1.924428E+03  4.250848E+04  2.367611E+03  9.245251E+02
       263  21  1.176069E+05  2.064661E+04  2.788563E+03  4.283886E+04  1.058431E+03  4.219890E+02
       263  22  1.014981E+05  1.069990E+04 -5.814334E+03  4.008740E+04  3.688296E+03  1.398601E+03
       263  23  1.031441E+05  1.542953E+04 -2.374733E+03  3.827066E+04  2.367689E+03  9.245544E+02
       263  24  1.020682E+05  1.473754E+04 -1.500190E+03  3.856964E+04  1.057895E+03  4.217871E+02
       263  25  8.580934E+04  4.835131E+03 -1.012446E+04  3.588113E+04  3.688987E+03  1.398861E+03
       263  26  8.753060E+04  9.542711E+03 -6.673915E+03  3.403294E+04  2.367767E+03  9.245838E+02
       263  27  8.652967E+04  8.828488E+03 -5.788965E+03  3.430051E+04  1.057359E+03  4.215853E+02
       264   1  1.083147E+05  1.623629E+04  4.123413E+02  4.051049E+04 -8.314027E+02 -3.266976E+02
       264   2  1.086146E+05  1.693178E+04  1.102478E+03  4.016729E+04 -5.376216E+02 -2.134303E+02
       264   3  1.083646E+05  1.687528E+04  1.322096E+03  4.027500E+04 -2.437258E+02 -1.004526E+02
       264   4  1.022955E+05  1.396905E+04 -1.244577E+03  3.887902E+04 -8.313409E+02 -3.266744E+02
       264   5  1.026157E+05  1.466437E+04 -5.504487E+02  3.853332E+04 -5.375692E+02 -2.134105E+02
       264   6  1.023860E+05  1.460771E+04 -3.268344E+02  3.863855E+04 -2.436828E+02 -1.004364E+02
       264   7  9.627638E+04  1.170181E+04 -2.901500E+03  3.724756E+04 -8.312790E+02 -3.266511E+02
       264   8  9.661689E+04  1.239697E+04 -2.203378E+03  3.689937E+04 -5.375165E+02 -2.133907E+02
       264   9  9.640748E+04  1.234013E+04 -1.975768E+03  3.700211E+04 -2.436392E+02 -1.004201E+02
       264  10  1.083147E+05  1.623629E+04  4.123417E+02  4.051048E+04 -1.880473E-05 -1.278308E-05
       264  11  1.086147E+05  1.693178E+04  1.102486E+03  4.016724E+04 -8.955835E-05 -5.493567E-05
       264  12  1.083646E+05  1.687528E+04  1.322110E+03  4.027492E+04 -1.624310E-04 -9.560655E-05
       264  13  1.022955E+05  1.396904E+04 -1.244579E+03  3.887902E+04 -5.735167E-05 -1.632767E-05
       264  14  1.026157E+05  1.466437E+04 -5.504495E+02  3.853332E+04 -2.544802E-04 -7.234532E-05
       264  15  1.023860E+05  1.460771E+04 -3.268349E+02  3.863855E+04 -4.515846E-04 -1.283733E-04
       264  16  9.627637E+04  1.170181E+04 -2.901503E+03  3.724757E+04 -2.288215E-05 -1.142714E-05
       264  17  9.661684E+04  1.239697E+04 -2.203387E+03  3.689942E+04 -9.542901E-05 -5.229811E-05
       264  18  9.640740E+04  1.234014E+04 -1.975783E+03  3.700219E+04 -1.658458E-04 -9.466883E-05
       264  19  1.083148E+05  1.623629E+04  4.123451E+02  4.051047E+04  8.314027E+02  3.266976E+02
       264  20  1.086147E+05  1.693177E+04  1.102495E+03  4.016719E+04  5.376214E+02  2.134302E+02
       264  21  1.083647E+05  1.687528E+04  1.322125E+03  4.027484E+04  2.437254E+02  1.004525E+02
       264  22  1.022955E+05  1.396905E+04 -1.244578E+03  3.887902E+04  8.313408E+02  3.266743E+02
       264  23  1.026157E+05  1.466437E+04 -5.504492E+02  3.853332E+04  5.375687E+02  2.134104E+02
       264  24  1.023860E+05  1.460771E+04 -3.268352E+02  3.863855E+04  2.436819E+02  1.004361E+02
       264  25  9.627636E+04  1.170181E+04 -2.901504E+03  3.724758E+04  8.312789E+02  3.266511E+02
       264  26  9.661680E+04  1.239697E+04 -2.203395E+03  3.689947E+04  5.375163E+02  2.133906E+02
       264  27  9.640732E+04  1.234014E+04 -1.975798E+03  3.700227E+04  2.436389E+02  1.004199E+02
       265   1  1.047174E+05  1.533338E+04  3.693791E+02  3.929298E+04 -1.954636E+02 -8.039314E+01
       265   2  1.047830E+05  1.541881E+04  5.207335E+02  3.921367E+04 -1.407991E+02 -5.685259E+01
       265   3  1.047190E+05  1.543630E+04  5.929016E+02  3.925186E+04 -8.538861E+01 -3.529140E+01
       265   4  1.024387E+05  1.447242E+04 -2.583986E+02  3.867265E+04 -1.953831E+02 -8.036273E+01
       265   5  1.025110E+05  1.455923E+04 -1.054661E+02  3.859399E+04 -1.407632E+02 -5.683901E+01
       265   6  1.024537E+05  1.457811E+04 -3.168453E+01  3.863283E+04 -8.539733E+01 -3.529465E+01
       265   7  1.001600E+05  1.361146E+04 -8.861769E+02  3.805233E+04 -1.953020E+02 -8.033226E+01
       265   8  1.002390E+05  1.369965E+04 -7.316662E+02  3.797431E+04 -1.407269E+02 -5.682538E+01
       265   9  1.001884E+05  1.371992E+04 -6.562713E+02  3.801381E+04 -8.540573E+01 -3.529785E+01
       265  10  1.047175E+05  1.533338E+04  3.693948E+02  3.929289E+04 -1.737583E-04 -9.987234E-05
       265  11  1.047831E+05  1.541880E+04  5.207447E+02  3.921360E+04 -1.333922E-04 -7.387933E-05
       265  12  1.047190E+05  1.543629E+04  5.929085E+02  3.925182E+04 -9.152044E-05 -4.881495E-05
       265  13  1.024387E+05  1.447242E+04 -2.583985E+02  3.867265E+04 -4.752973E-04 -1.355541E-04
       265  14  1.025110E+05  1.455923E+04 -1.054660E+02  3.859399E+04 -3.596929E-04 -1.041737E-04
       265  15  1.024537E+05  1.457811E+04 -3.168436E+01  3.863283E+04 -2.441008E-04 -7.277059E-05
       265  16  1.001599E+05  1.361147E+04 -8.861926E+02  3.805242E+04 -1.720833E-04 -9.987333E-05
       265  17  1.002389E+05  1.369966E+04 -7.316776E+02  3.797438E+04 -1.295536E-04 -7.532465E-05
       265  18  1.001884E+05  1.371993E+04 -6.562782E+02  3.801385E+04 -8.853973E-05 -4.979535E-05
       265  19  1.047176E+05  1.533337E+04  3.694105E+02  3.929280E+04  1.954633E+02  8.039294E+01
       265  20  1.047831E+05  1.541880E+04  5.207559E+02  3.921354E+04  1.407988E+02  5.685244E+01
       265  21  1.047191E+05  1.543629E+04  5.929155E+02  3.925177E+04  8.538843E+01  3.529130E+01
       265  22  1.024387E+05  1.447242E+04 -2.583981E+02  3.867265E+04  1.953822E+02  8.036246E+01
       265  23  1.025110E+05  1.455923E+04 -1.054658E+02  3.859399E+04  1.407625E+02  5.683880E+01
       265  24  1.024537E+05  1.457811E+04 -3.168416E+01  3.863283E+04  8.539684E+01  3.529450E+01
       265  25  1.001598E+05  1.361147E+04 -8.862080E+02  3.805250E+04  1.953017E+02  8.033206E+01
       265  26  1.002388E+05  1.369966E+04 -7.316888E+02  3.797445E+04  1.407266E+02  5.682523E+01
       265  27  1.001883E+05  1.371993E+04 -6.562851E+02  3.801389E+04  8.540556E+01  3.529775E+01
       266   1  1.032371E+05  1.483656E+04  2.091283E+02  3.884505E+04 -8.272587E+01 -3.388587E+01
       266   2  1.032458E+05  1.483077E+04  2.822984E+02  3.882036E+04 -1.195153E+02 -4.626801E+01
       266   3  1.032395E+05  1.488533E+04  3.904371E+02  3.882417E+04 -1.559576E+02 -5.957031E+01
       266   4  1.024706E+05  1.454635E+04 -2.145639E+00  3.863576E+04 -8.268643E+01 -3.387098E+01
       266   5  1.024817E+05  1.454164E+04  7.169738E+01  3.861191E+04 -1.194964E+02 -4.626090E+01
       266   6  1.024778E+05  1.459730E+04  1.805254E+02  3.861656E+04 -1.559593E+02 -5.957097E+01
       266   7  1.017041E+05  1.425614E+04 -2.134197E+02  3.842648E+04 -8.264675E+01 -3.385606E+01
       266   8  1.017176E+05  1.425252E+04 -1.389038E+02  3.840347E+04 -1.194774E+02 -4.625376E+01
       266   9  1.017161E+05  1.430926E+04 -2.938644E+01  3.840895E+04 -1.559610E+02 -5.957161E+01
       266  10  1.032371E+05  1.483655E+04  2.091334E+02  3.884501E+04 -7.229958E-05 -3.800505E-05
       266  11  1.032458E+05  1.483076E+04  2.823018E+02  3.882034E+04 -5.004012E-05 -2.570547E-05
       266  12  1.032395E+05  1.488533E+04  3.904387E+02  3.882415E+04 -2.773814E-05 -1.345740E-05
       266  13  1.024706E+05  1.454635E+04 -2.145568E+00  3.863576E+04 -1.929021E-04 -5.843613E-05
       266  14  1.024817E+05  1.454164E+04  7.169744E+01  3.861191E+04 -1.325465E-04 -4.057327E-05
       266  15  1.024778E+05  1.459730E+04  1.805254E+02  3.861656E+04 -7.218592E-05 -2.273201E-05
       266  16  1.017041E+05  1.425614E+04 -2.134249E+02  3.842651E+04 -7.072506E-05 -3.871869E-05
       266  17  1.017176E+05  1.425252E+04 -1.389072E+02  3.840349E+04 -4.858324E-05 -2.643539E-05
       266  18  1.017161E+05  1.430926E+04 -2.938810E+01  3.840896E+04 -2.647090E-05 -1.412815E-05
       266  19  1.032371E+05  1.483654E+04  2.091386E+02  3.884498E+04  8.272572E+01  3.388579E+01
       266  20  1.032458E+05  1.483076E+04  2.823052E+02  3.882032E+04  1.195152E+02  4.626796E+01
       266  21  1.032395E+05  1.488533E+04  3.904403E+02  3.882414E+04  1.559575E+02  5.957029E+01
       266  22  1.024706E+05  1.454635E+04 -2.145468E+00  3.863576E+04  8.268604E+01  3.387086E+01
       266  23  1.024817E+05  1.454164E+04  7.169756E+01  3.861192E+04  1.194962E+02  4.626082E+01
       266  24  1.024778E+05  1.459730E+04  1.805256E+02  3.861656E+04  1.559592E+02  5.957093E+01
       266  25  1.017041E+05  1.425615E+04 -2.134300E+02  3.842654E+04  8.264661E+01  3.385598E+01
       266  26  1.017176E+05  1.425253E+04 -1.389105E+02  3.840351E+04  1.194773E+02  4.625371E+01
       266  27  1.017161E+05  1.430927E+04 -2.938965E+01  3.840898E+04  1.559610E+02  5.957158E+01
       267   1  1.024778E+05  1.454994E+04  2.375259E+02  3.863572E+04 -1.913001E+02 -7.274458E+01
       267   2  1.024268E+05  1.448406E+04  4.307705E+02  3.861777E+04 -4.159105E+02 -1.566868E+02
       267   3  1.025110E+05  1.477746E+04  8.829273E+02  3.854309E+04 -6.405029E+02 -2.406889E+02
       267   4  1.024957E+05  1.455482E+04  2.420973E+02  3.863866E+04 -1.912857E+02 -7.273915E+01
       267   5  1.024446E+05  1.449139E+04  4.358008E+02  3.862323E+04 -4.158974E+02 -1.566818E+02
       267   6  1.025287E+05  1.478724E+04  8.884175E+02  3.855106E+04 -6.404911E+02 -2.406845E+02
       267   7  1.025137E+05  1.455970E+04  2.466687E+02  3.864160E+04 -1.912712E+02 -7.273371E+01
       267   8  1.024625E+05  1.449872E+04  4.408310E+02  3.862869E+04 -4.158842E+02 -1.566769E+02
       267   9  1.025464E+05  1.479701E+04  8.939077E+02  3.855904E+04 -6.404793E+02 -2.406801E+02
       267  10  1.024778E+05  1.454994E+04  2.375267E+02  3.863571E+04 -1.644870E-05 -7.692921E-06
       267  11  1.024268E+05  1.448406E+04  4.307703E+02  3.861777E+04 -4.370313E-07 -1.901223E-07
       267  12  1.025110E+05  1.477747E+04  8.829259E+02  3.854309E+04  1.548818E-05  7.404373E-06
       267  13  1.024957E+05  1.455482E+04  2.420973E+02  3.863866E+04 -4.249347E-05 -1.352997E-05
       267  14  1.024446E+05  1.449139E+04  4.358005E+02  3.862323E+04 -7.948634E-07  2.475269E-07
       267  15  1.025287E+05  1.478724E+04  8.884167E+02  3.855106E+04  4.089497E-05  1.402396E-05
       267  16  1.025136E+05  1.455971E+04  2.466677E+02  3.864161E+04 -1.557117E-05 -8.360338E-06
       267  17  1.024625E+05  1.449872E+04  4.408305E+02  3.862869E+04  2.343806E-07 -7.707848E-07
       267  18  1.025464E+05  1.479701E+04  8.939073E+02  3.855903E+04  1.613029E-05  6.723945E-06
       267  19  1.024778E+05  1.454993E+04  2.375276E+02  3.863570E+04  1.913001E+02  7.274457E+01
       267  20  1.024268E+05  1.448406E+04  4.307708E+02  3.861777E+04  4.159105E+02  1.566868E+02
       267  21  1.025110E+05  1.477747E+04  8.829263E+02  3.854310E+04  6.405029E+02  2.406890E+02
       267  22  1.024957E+05  1.455482E+04  2.420974E+02  3.863866E+04  1.912856E+02  7.273912E+01
       267  23  1.024447E+05  1.449139E+04  4.358009E+02  3.862323E+04  4.158974E+02  1.566818E+02
       267  24  1.025287E+05  1.478724E+04  8.884176E+02  3.855106E+04  6.404911E+02  2.406845E+02
       267  25  1.025136E+05  1.455971E+04  2.466669E+02  3.864162E+04  1.912712E+02  7.273369E+01
       267  26  1.024625E+05  1.449872E+04  4.408306E+02  3.862869E+04  4.158842E+02  1.566769E+02
       267  27  1.025464E+05  1.479701E+04  8.939087E+02  3.855903E+04  6.404793E+02  2.406801E+02
       268   1  1.018056E+05  1.424873E+04  9.133534E+02  3.849304E+04 -8.095703E+02 -3.042096E+02
       268   2  1.014596E+05  1.386543E+04  1.703593E+03  3.845198E+04 -1.816072E+03 -6.829748E+02
       268   3  1.020351E+05  1.570571E+04  3.840592E+03  3.790476E+04 -2.822812E+03 -1.061124E+03
       268   4  1.026097E+05  1.454098E+04  1.132588E+03  3.870011E+04 -8.095678E+02 -3.042086E+02
       268   5  1.022542E+05  1.417090E+04  1.923561E+03  3.867368E+04 -1.816057E+03 -6.829691E+02
       268   6  1.028202E+05  1.602440E+04  4.061282E+03  3.814109E+04 -2.822784E+03 -1.061114E+03
       268   7  1.034138E+05  1.483324E+04  1.351823E+03  3.890717E+04 -8.095654E+02 -3.042077E+02
       268   8  1.030488E+05  1.447638E+04  2.143529E+03  3.889538E+04 -1.816042E+03 -6.829634E+02
       268   9  1.036052E+05  1.634310E+04  4.281972E+03  3.837742E+04 -2.822757E+03 -1.061103E+03
       268  10  1.018056E+05  1.424874E+04  9.133512E+02  3.849305E+04  2.612469E-05  1.205996E-05
       268  11  1.014596E+05  1.386544E+04  1.703585E+03  3.845200E+04  4.663285E-05  2.024274E-05
       268  12  1.020351E+05  1.570572E+04  3.840574E+03  3.790478E+04  6.716702E-05  2.833275E-05
       268  13  1.026097E+05  1.454098E+04  1.132587E+03  3.870011E+04  6.807599E-05  2.354920E-05
       268  14  1.022542E+05  1.417090E+04  1.923554E+03  3.867368E+04  1.197880E-04  4.251094E-05
       268  15  1.028202E+05  1.602440E+04  4.061265E+03  3.814108E+04  1.714986E-04  6.147053E-05
       268  16  1.034138E+05  1.483323E+04  1.351822E+03  3.890716E+04  2.666846E-05  1.120106E-05
       268  17  1.030488E+05  1.447637E+04  2.143523E+03  3.889536E+04  4.711500E-05  1.928276E-05
       268  18  1.036052E+05  1.634308E+04  4.281956E+03  3.837739E+04  6.754243E-05  2.746161E-05
       268  19  1.018056E+05  1.424874E+04  9.133519E+02  3.849306E+04  8.095704E+02  3.042096E+02
       268  20  1.014596E+05  1.386545E+04  1.703591E+03  3.845202E+04  1.816072E+03  6.829748E+02
       268  21  1.020351E+05  1.570574E+04  3.840590E+03  3.790481E+04  2.822812E+03  1.061124E+03
       268  22  1.026097E+05  1.454098E+04  1.132588E+03  3.870011E+04  8.095680E+02  3.042087E+02
       268  23  1.022542E+05  1.417090E+04  1.923561E+03  3.867368E+04  1.816057E+03  6.829692E+02
       268  24  1.028202E+05  1.602440E+04  4.061282E+03  3.814109E+04  2.822785E+03  1.061114E+03
       268  25  1.034138E+05  1.483323E+04  1.351824E+03  3.890715E+04  8.095655E+02  3.042077E+02
       268  26  1.030488E+05  1.447636E+04  2.143531E+03  3.889534E+04  1.816042E+03  6.829634E+02
       268  27  1.036053E+05  1.634306E+04  4.281974E+03  3.837736E+04  2.822757E+03  1.061103E+03
       269   1  1.008924E+05  1.358483E+04  4.413974E+03  3.849547E+04 -3.587903E+03 -1.348601E+03
       269   2  9.875638E+04  1.122876E+04  7.660965E+03  3.835618E+04 -8.038794E+03 -3.024305E+03
       269   3  1.023884E+05  2.291990E+04  1.804527E+04  3.473038E+04 -1.248980E+04 -4.699628E+03
       269   4  1.032965E+05  1.441870E+04  5.061453E+03  3.907369E+04 -3.587891E+03 -1.348595E+03
       269   5  1.010863E+05  1.214514E+04  8.310092E+03  3.902740E+04 -8.038789E+03 -3.024304E+03
       269   6  1.046440E+05  2.391877E+04  1.869603E+04  3.549462E+04 -1.248980E+04 -4.699633E+03
       269   7  1.057006E+05  1.525257E+04  5.708931E+03  3.965191E+04 -3.587879E+03 -1.348590E+03
       269   8  1.034162E+05  1.306153E+04  8.959217E+03  3.969863E+04 -8.038785E+03 -3.024303E+03
       269   9  1.068997E+05  2.491764E+04  1.934679E+04  3.625885E+04 -1.248980E+04 -4.699637E+03
       269  10  1.008923E+05  1.358485E+04  4.413945E+03  3.849550E+04  8.090500E-05  3.347062E-05
       269  11  9.875628E+04  1.122876E+04  7.660826E+03  3.835620E+04  1.074193E-04  4.250822E-05
       269  12  1.023882E+05  2.291988E+04  1.804493E+04  3.473039E+04  1.340980E-04  5.076971E-05
       269  13  1.032964E+05  1.441869E+04  5.061425E+03  3.907368E+04  2.054287E-04  7.450424E-05
       269  14  1.010862E+05  1.214512E+04  8.309953E+03  3.902738E+04  2.703074E-04  1.003356E-04
       269  15  1.046439E+05  2.391871E+04  1.869569E+04  3.549457E+04  3.351909E-04  1.261714E-04
       269  16  1.057006E+05  1.525254E+04  5.708904E+03  3.965187E+04  8.114694E-05  3.221836E-05
       269  17  1.034161E+05  1.306147E+04  8.959079E+03  3.969857E+04  1.076394E-04  4.091767E-05
       269  18  1.068996E+05  2.491753E+04  1.934645E+04  3.625875E+04  1.339743E-04  5.038304E-05
       269  19  1.008923E+05  1.358487E+04  4.413972E+03  3.849553E+04  3.587903E+03  1.348601E+03
       269  20  9.875631E+04  1.122882E+04  7.660964E+03  3.835626E+04  8.038794E+03  3.024305E+03
       269  21  1.023883E+05  2.291999E+04  1.804527E+04  3.473049E+04  1.248980E+04  4.699628E+03
       269  22  1.032965E+05  1.441870E+04  5.061453E+03  3.907369E+04  3.587891E+03  1.348596E+03
       269  23  1.010863E+05  1.214514E+04  8.310092E+03  3.902740E+04  8.038790E+03  3.024304E+03
       269  24  1.046440E+05  2.391877E+04  1.869603E+04  3.549462E+04  1.248980E+04  4.699633E+03
       269  25  1.057006E+05  1.525252E+04  5.708933E+03  3.965184E+04  3.587879E+03  1.348590E+03
       269  26  1.034162E+05  1.306146E+04  8.959218E+03  3.969854E+04  8.038785E+03  3.024303E+03
       269  27  1.068998E+05  2.491755E+04  1.934679E+04  3.625875E+04  1.248980E+04  4.699637E+03
       270   1  1.009583E+05  1.155022E+04  2.093150E+04  4.005879E+04 -1.596922E+04 -6.005777E+03
       270   2  8.782536E+04 -3.194606E+03  3.375608E+04  3.952223E+04 -3.563155E+04 -1.340408E+04
       270   3  1.105512E+05  7.108559E+04  8.558037E+04  1.605400E+04 -5.529136E+04 -2.080984E+04
       270   4  1.074987E+05  1.354698E+04  2.263859E+04  4.135338E+04 -1.596911E+04 -6.005719E+03
       270   5  9.386159E+04 -6.713477E+02  3.546759E+04  4.141402E+04 -3.563178E+04 -1.340419E+04
       270   6  1.160830E+05  7.413490E+04  8.729630E+04  1.854312E+04 -5.529192E+04 -2.081016E+04
       270   7  1.140390E+05  1.554374E+04  2.434568E+04  4.264799E+04 -1.596899E+04 -6.005660E+03
       270   8  9.989784E+04  1.851915E+03  3.717911E+04  4.330583E+04 -3.563201E+04 -1.340429E+04
       270   9  1.216149E+05  7.718422E+04  8.901222E+04  2.103226E+04 -5.529248E+04 -2.081048E+04
       270  10  1.009580E+05  1.155015E+04  2.093095E+04  4.005876E+04  1.260674E-04  4.641791E-05
       270  11  8.782393E+04 -3.195115E+03  3.375335E+04  3.952187E+04  7.145980E-05  2.496529E-05
       270  12  1.105478E+05  7.108431E+04  8.557382E+04  1.605308E+04  1.619917E-05  5.355136E-06
       270  13  1.074984E+05  1.354687E+04  2.263804E+04  4.135330E+04  3.141712E-04  1.186061E-04
       270  14  9.386017E+04 -6.718812E+02  3.546487E+04  4.141364E+04  1.770454E-04  6.682458E-05
       270  15  1.160796E+05  7.413361E+04  8.728974E+04  1.854219E+04  3.991056E-05  1.505858E-05
       270  16  1.140388E+05  1.554359E+04  2.434513E+04  4.264786E+04  1.254885E-04  4.789498E-05
       270  17  9.989646E+04  1.851358E+03  3.717639E+04  4.330542E+04  7.030289E-05  2.815073E-05
       270  18  1.216115E+05  7.718293E+04  8.900566E+04  2.103133E+04  1.575892E-05  6.608258E-06
       270  19  1.009582E+05  1.155030E+04  2.093150E+04  4.005889E+04  1.596922E+04  6.005777E+03
       270  20  8.782532E+04 -3.194557E+03  3.375608E+04  3.952228E+04  3.563155E+04  1.340408E+04
       270  21  1.105512E+05  7.108560E+04  8.558037E+04  1.605401E+04  5.529136E+04  2.080984E+04
       270  22  1.074987E+05  1.354698E+04  2.263859E+04  4.135338E+04  1.596911E+04  6.005719E+03
       270  23  9.386158E+04 -6.713474E+02  3.546759E+04  4.141402E+04  3.563178E+04  1.340419E+04
       270  24  1.160830E+05  7.413490E+04  8.729630E+04  1.854312E+04  5.529192E+04  2.081016E+04
       270  25  1.140391E+05  1.554366E+04  2.434568E+04  4.264789E+04  1.596899E+04  6.005660E+03
       270  26  9.989789E+04  1.851868E+03  3.717911E+04  4.330578E+04  3.563201E+04  1.340429E+04
       270  27  1.216149E+05  7.718421E+04  8.901222E+04  2.103225E+04  5.529248E+04  2.081048E+04
       271   1  9.751300E+04  3.413372E+04  1.629065E+04 -6.836235E+03 -4.788366E+04 -4.840580E+03
       271   2  7.209130E+04  9.836697E+04  4.982916E+04  1.626328E+03 -3.457983E+04 -1.463905E+04
       271   3  2.622052E+04  8.766472E+04  5.598919E+04  2.971809E+04 -2.129257E+04 -1.423128E+04
       271   4 -3.139433E+05 -6.822821E+04 -8.447882E+04  1.938860E+04 -5.788515E+04 -4.857860E+03
       271   5 -3.031080E+05  5.866474E+03 -3.759608E+04  9.516188E+03 -3.773375E+04 -1.464537E+04
       271   6 -3.139263E+05  3.810684E+03 -2.286131E+04  1.927432E+04 -1.759789E+04 -1.422468E+04
       271   7 -7.252437E+05 -1.706000E+05 -1.852599E+05  4.559595E+04 -6.788001E+04 -4.875991E+03
       271   8 -6.781773E+05 -8.664373E+04 -1.250308E+05  1.740119E+04 -4.088578E+04 -1.465177E+04
       271   9 -6.539659E+05 -8.005110E+04 -1.017195E+05  8.836252E+03 -1.390521E+04 -1.421819E+04
       271  10  9.751053E+04  3.413308E+04  1.628630E+04 -6.836421E+03 -3.648148E-09  1.686780E-09
       271  11  7.208996E+04  9.836642E+04  4.982651E+04  1.625920E+03  4.682938E-09  6.241645E-09
       271  12  2.621998E+04  8.766438E+04  5.598795E+04  2.971785E+04  1.562963E-09  2.384022E-09
       271  13 -3.139469E+05 -6.822914E+04 -8.448517E+04  1.938837E+04  2.102108E-10 -1.711833E-09
       271  14 -3.031096E+05  5.865861E+03 -3.759916E+04  9.515743E+03 -5.412751E-10 -5.872681E-09
       271  15 -3.139267E+05  3.810384E+03 -2.286227E+04  1.927411E+04 -1.777880E-09 -2.311922E-10
       271  16 -7.252486E+05 -1.706013E+05 -1.852686E+05  4.559569E+04  3.329539E-10 -3.029937E-10
       271  17 -6.781792E+05 -8.664441E+04 -1.250343E+05  1.740071E+04  3.502022E-09  3.520679E-09
       271  18 -6.539662E+05 -8.005137E+04 -1.017202E+05  8.836093E+03 -1.778413E-10 -2.059357E-09
       271  19  9.751300E+04  3.413372E+04  1.629065E+04 -6.836235E+03  4.788366E+04  4.840580E+03
       271  20  7.209130E+04  9.836697E+04  4.982916E+04  1.626328E+03  3.457983E+04  1.463905E+04
       271  21  2.622052E+04  8.766472E+04  5.598919E+04  2.971809E+04  2.129257E+04  1.423128E+04
       271  22 -3.139433E+05 -6.822821E+04 -8.447882E+04  1.938860E+04  5.788515E+04  4.857860E+03
       271  23 -3.031080E+05  5.866474E+03 -3.759608E+04  9.516188E+03  3.773375E+04  1.464537E+04
       271  24 -3.139263E+05  3.810684E+03 -2.286131E+04  1.927432E+04  1.759789E+04  1.422468E+04
       271  25 -7.252437E+05 -1.706000E+05 -1.852599E+05  4.559595E+04  6.788001E+04  4.875991E+03
       271  26 -6.781773E+05 -8.664373E+04 -1.250308E+05  1.740119E+04  4.088578E+04  1.465177E+04
       271  27 -6.539659E+05 -8.005110E+04 -1.017195E+05  8.836252E+03  1.390521E+04  1.421819E+04
       272   1 -5.673823E+03  6.947072E+04  5.230237E+04  1.801542E+04 -1.473859E+04 -1.197672E+04
       272   2 -4.034114E+04  6.665722E+04  5.261147E+04  9.329526E+03 -1.019319E+04 -1.088447E+04
       272   3 -7.718846E+04  5.770388E+04  4.841518E+04  2.068711E+04 -5.649853E+03 -9.247291E+03
       272   4 -3.096100E+05 -5.472527E+03 -1.846564E+04  1.940789E+04 -1.418895E+04 -1.197610E+04
       272   5 -3.084837E+05  5.612779E+02 -9.683587E+03  9.380003E+03 -9.279563E+03 -1.088294E+04
       272   6 -3.096037E+05  3.903090E+02 -5.661539E+03  1.939623E+04 -4.371989E+03 -9.244749E+03
       272   7 -6.134609E+05 -8.042229E+04 -8.923989E+04  2.079963E+04 -1.363958E+04 -1.197549E+04
       272   8 -5.765599E+05 -6.553974E+04 -7.198348E+04  9.430424E+03 -8.366330E+03 -1.088141E+04
       272   9 -5.419690E+05 -5.692707E+04 -5.974190E+04  1.810581E+04 -3.094601E+03 -9.242213E+03
       272  10 -5.674095E+03  6.947051E+04  5.230169E+04  1.801528E+04 -3.002819E-09 -1.764996E-09
       272  11 -4.034129E+04  6.665707E+04  5.261105E+04  9.329437E+03 -5.958397E-09  2.761576E-09
       272  12 -7.718851E+04  5.770378E+04  4.841496E+04  2.068707E+04 -3.670195E-09  5.554853E-09
       272  13 -3.096103E+05 -5.472735E+03 -1.846629E+04  1.940775E+04  1.926310E-09  7.258351E-09
       272  14 -3.084839E+05  5.611276E+02 -9.683972E+03  9.379922E+03  6.782187E-10 -1.154850E-08
       272  15 -3.096037E+05  3.902121E+02 -5.661736E+03  1.939620E+04 -2.610712E-10  6.627267E-09
       272  16 -6.134612E+05 -8.042250E+04 -8.924051E+04  2.079950E+04  1.708604E-09 -5.811816E-09
       272  17 -5.765601E+05 -6.553989E+04 -7.198383E+04  9.430351E+03  5.486556E-09 -1.833796E-09
       272  18 -5.419690E+05 -5.692716E+04 -5.974208E+04  1.810579E+04  1.895090E-09  2.130947E-09
       272  19 -5.673823E+03  6.947072E+04  5.230237E+04  1.801542E+04  1.473859E+04  1.197672E+04
       272  20 -4.034114E+04  6.665722E+04  5.261147E+04  9.329526E+03  1.019319E+04  1.088447E+04
       272  21 -7.718846E+04  5.770388E+04  4.841518E+04  2.068711E+04  5.649853E+03  9.247291E+03
       272  22 -3.096100E+05 -5.472527E+03 -1.846564E+04  1.940789E+04  1.418895E+04  1.197610E+04
       272  23 -3.084837E+05  5.612779E+02 -9.683587E+03  9.380003E+03  9.279563E+03  1.088294E+04
       272  24 -3.096037E+05  3.903090E+02 -5.661539E+03  1.939623E+04  4.371989E+03  9.244749E+03
       272  25 -6.134609E+05 -8.042229E+04 -8.923989E+04  2.079963E+04  1.363958E+04  1.197549E+04
       272  26 -5.765599E+05 -6.553974E+04 -7.198348E+04  9.430424E+03  8.366330E+03  1.088141E+04
       272  27 -5.419690E+05 -5.692707E+04 -5.974190E+04  1.810581E+04  3.094601E+03  9.242213E+03
       273   1 -1.131011E+05  4.796438E+04  4.106730E+04  1.969364E+04 -4.602987E+03 -8.188885E+03
       273   2 -1.488419E+05  3.957698E+04  3.475483E+04  9.639007E+03 -3.407940E+03 -6.516047E+03
       273   3 -1.849413E+05  3.076638E+04  2.753658E+04  1.974294E+04 -2.213466E+03 -4.812276E+03
       273   4 -3.091814E+05 -3.517345E+02 -4.385937E+03  1.942589E+04 -3.490480E+03 -8.186589E+03
       273   5 -3.089983E+05  9.654292E+01 -2.447076E+03  9.345909E+03 -2.275024E+03 -6.513570E+03
       273   6 -3.091782E+05  1.181832E+02 -1.428210E+03  1.942482E+04 -1.060071E+03 -4.809610E+03
       273   7 -5.052262E+05 -4.867055E+04 -4.984175E+04  1.915820E+04 -2.378322E+03 -8.184294E+03
       273   8 -4.691310E+05 -3.938570E+04 -3.965070E+04  9.052874E+03 -1.142397E+03 -6.511093E+03
       273   9 -4.334009E+05 -3.053111E+04 -3.039404E+04  1.910675E+04  9.309440E+01 -4.806944E+03
       273  10 -1.131012E+05  4.796430E+04  4.106714E+04  1.969361E+04  9.758476E-10 -2.199729E-09
       273  11 -1.488419E+05  3.957693E+04  3.475472E+04  9.638989E+03 -2.874157E-09 -4.586852E-09
       273  12 -1.849414E+05  3.076636E+04  2.753653E+04  1.974293E+04 -1.028046E-08 -2.051636E-09
       273  13 -3.091815E+05 -3.518098E+02 -4.386086E+03  1.942586E+04  1.079314E-09 -1.375284E-09
       273  14 -3.089983E+05  9.649597E+01 -2.447165E+03  9.345897E+03  1.187423E-09 -4.609996E-09
       273  15 -3.091782E+05  1.181580E+02 -1.428256E+03  1.942482E+04  6.614132E-10 -5.726049E-09
       273  16 -5.052262E+05 -4.867063E+04 -4.984189E+04  1.915818E+04 -5.627050E-10 -5.954159E-10
       273  17 -4.691310E+05 -3.938575E+04 -3.965078E+04  9.052868E+03  7.781991E-09  1.996958E-09
       273  18 -4.334009E+05 -3.053113E+04 -3.039408E+04  1.910675E+04  9.254475E-09  7.086202E-09
       273  19 -1.131011E+05  4.796438E+04  4.106730E+04  1.969364E+04  4.602987E+03  8.188885E+03
       273  20 -1.488419E+05  3.957698E+04  3.475483E+04  9.639007E+03  3.407940E+03  6.516047E+03
       273  21 -1.849413E+05  3.076638E+04  2.753658E+04  1.974294E+04  2.213466E+03  4.812276E+03
       273  22 -3.091814E+05 -3.517345E+02 -4.385937E+03  1.942589E+04  3.490480E+03  8.186589E+03
       273  23 -3.089983E+05  9.654292E+01 -2.447076E+03  9.345909E+03  2.275024E+03  6.513570E+03
       273  24 -3.091782E+05  1.181832E+02 -1.428210E+03  1.942482E+04  1.060071E+03  4.809610E+03
       273  25 -5.052262E+05 -4.867055E+04 -4.984175E+04  1.915820E+04  2.378322E+03  8.184294E+03
       273  26 -4.691310E+05 -3.938570E+04 -3.965070E+04  9.052874E+03  1.142397E+03  6.511093E+03
       273  27 -4.334009E+05 -3.053111E+04 -3.039404E+04  1.910675E+04 -9.309440E+01  4.806944E+03
       274   1 -2.213537E+05  2.168004E+04  1.917883E+04  1.961039E+04 -1.980392E+03 -3.814960E+03
       274   2 -2.572851E+05  1.281729E+04  1.135921E+04  9.439685E+03 -1.655742E+03 -2.108342E+03
       274   3 -2.933640E+05  4.005692E+03  3.314428E+03  1.947580E+04 -1.331264E+03 -3.995836E+02
       274   4 -3.091287E+05  6.272332E+01 -1.104482E+03  1.943587E+04 -8.350496E+02 -3.812253E+03
       274   5 -3.090537E+05  5.485822E+01 -6.664285E+02  9.332365E+03 -5.090343E+02 -2.105588E+03
       274   6 -3.091277E+05  9.797509E+01 -4.544525E+02  1.943578E+04 -1.831723E+02 -3.967788E+02
       274   7 -3.968965E+05 -2.155514E+04 -2.138830E+04  1.926137E+04  3.101325E+02 -3.809545E+03
       274   8 -3.608198E+05 -1.270777E+04 -1.269224E+04  9.225053E+03  6.375783E+02 -2.102834E+03
       274   9 -3.248912E+05 -3.809759E+03 -4.223345E+03  1.939576E+04  9.648899E+02 -3.939742E+02
       274  10 -2.213537E+05  2.168003E+04  1.917879E+04  1.961038E+04  7.464903E-09 -3.678491E-09
       274  11 -2.572851E+05  1.281729E+04  1.135919E+04  9.439683E+03  3.473691E-09  1.283105E-09
       274  12 -2.933640E+05  4.005691E+03  3.314424E+03  1.947580E+04 -6.704909E-09  1.848054E-09
       274  13 -3.091287E+05  6.270753E+01 -1.104510E+03  1.943587E+04 -1.636534E-11 -3.543374E-09
       274  14 -3.090537E+05  5.485339E+01 -6.664373E+02  9.332364E+03  2.198853E-10 -8.334040E-09
       274  15 -3.091277E+05  9.797491E+01 -4.544528E+02  1.943578E+04 -9.285134E-10 -3.414079E-09
       274  16 -3.968965E+05 -2.155515E+04 -2.138833E+04  1.926137E+04 -6.606426E-09  2.743401E-09
       274  17 -3.608198E+05 -1.270777E+04 -1.269225E+04  9.225054E+03 -6.573463E-10  4.194297E-09
       274  18 -3.248912E+05 -3.809759E+03 -4.223347E+03  1.939576E+04  6.768010E-09  4.533132E-09
       274  19 -2.213537E+05  2.168004E+04  1.917883E+04  1.961039E+04  1.980392E+03  3.814960E+03
       274  20 -2.572851E+05  1.281729E+04  1.135921E+04  9.439685E+03  1.655742E+03  2.108342E+03
       274  21 -2.933640E+05  4.005692E+03  3.314428E+03  1.947580E+04  1.331264E+03  3.995836E+02
       274  22 -3.091287E+05  6.272332E+01 -1.104482E+03  1.943587E+04  8.350496E+02  3.812253E+03
       274  23 -3.090537E+05  5.485822E+01 -6.664285E+02  9.332365E+03  5.090343E+02  2.105588E+03
       274  24 -3.091277E+05  9.797509E+01 -4.544525E+02  1.943578E+04  1.831723E+02  3.967788E+02
       274  25 -3.968965E+05 -2.155514E+04 -2.138830E+04  1.926137E+04 -3.101325E+02  3.809545E+03
       274  26 -3.608198E+05 -1.270777E+04 -1.269224E+04  9.225053E+03 -6.375783E+02  2.102834E+03
       274  27 -3.248912E+05 -3.809759E+03 -4.223345E+03  1.939576E+04 -9.648899E+02  3.939742E+02
       275   1 -3.298601E+05 -5.037738E+03 -5.328825E+03  1.939880E+04 -1.256085E+03  5.954543E+02
       275   2 -3.657984E+05 -1.393756E+04 -1.357633E+04  9.228726E+03 -1.062964E+03  2.303928E+03
       275   3 -4.018604E+05 -2.276350E+04 -2.195758E+04  1.926498E+04 -8.696891E+02  4.010155E+03
       275   4 -3.091225E+05  9.624697E+01 -4.044112E+02  1.943564E+04 -1.080369E+02  5.982575E+02
       275   5 -3.090604E+05  5.080887E+01 -3.954856E+02  9.332556E+03  8.354880E+01  2.306675E+03
       275   6 -3.091235E+05  7.947424E+01 -5.193000E+02  1.943568E+04  2.752995E+02  4.012851E+03
       275   7 -2.883845E+05  5.230202E+03  4.519978E+03  1.947248E+04  1.040050E+03  6.010608E+02
       275   8 -2.523194E+05  1.403895E+04  1.278515E+04  9.436394E+03  1.230166E+03  2.309423E+03
       275   9 -2.163786E+05  2.292184E+04  2.091841E+04  1.960640E+04  1.420458E+03  4.015549E+03
       275  10 -3.298601E+05 -5.037739E+03 -5.328829E+03  1.939880E+04 -4.938623E-10  2.102684E-09
       275  11 -3.657984E+05 -1.393757E+04 -1.357635E+04  9.228728E+03  5.716739E-10 -2.642986E-09
       275  12 -4.018604E+05 -2.276351E+04 -2.195761E+04  1.926498E+04 -2.123317E-09 -2.449763E-09
       275  13 -3.091225E+05  9.624658E+01 -4.044119E+02  1.943564E+04  2.986044E-09  6.180099E-09
       275  14 -3.090604E+05  5.080315E+01 -3.954956E+02  9.332556E+03 -3.224429E-09 -2.553735E-09
       275  15 -3.091235E+05  7.945693E+01 -5.193304E+02  1.943568E+04 -2.635823E-09 -2.929911E-09
       275  16 -2.883845E+05  5.230201E+03  4.519975E+03  1.947248E+04  1.036844E-09  1.455277E-09
       275  17 -2.523194E+05  1.403895E+04  1.278514E+04  9.436392E+03  2.629246E-10 -9.661771E-09
       275  18 -2.163786E+05  2.292182E+04  2.091838E+04  1.960640E+04  3.642713E-09 -6.659706E-09
       275  19 -3.298601E+05 -5.037738E+03 -5.328825E+03  1.939880E+04  1.256085E+03 -5.954543E+02
       275  20 -3.657984E+05 -1.393756E+04 -1.357633E+04  9.228726E+03  1.062964E+03 -2.303928E+03
       275  21 -4.018604E+05 -2.276350E+04 -2.195758E+04  1.926498E+04  8.696891E+02 -4.010155E+03
       275  22 -3.091225E+05  9.624697E+01 -4.044112E+02  1.943564E+04  1.080369E+02 -5.982575E+02
       275  23 -3.090604E+05  5.080887E+01 -3.954856E+02  9.332556E+03 -8.354880E+01 -2.306675E+03
       275  24 -3.091235E+05  7.947424E+01 -5.193000E+02  1.943568E+04 -2.752995E+02 -4.012851E+03
       275  25 -2.883845E+05  5.230202E+03  4.519978E+03  1.947248E+04 -1.040050E+03 -6.010608E+02
       275  26 -2.523194E+05  1.403895E+04  1.278515E+04  9.436394E+03 -1.230166E+03 -2.309423E+03
       275  27 -2.163786E+05  2.292184E+04  2.091841E+04  1.960640E+04 -1.420458E+03 -4.015549E+03
       276   1 -4.383280E+05 -3.177071E+04 -3.075146E+04  1.915603E+04 -7.766702E+02  5.007205E+03
       276   2 -4.741375E+05 -4.064288E+04 -3.937860E+04  9.059730E+03 -2.504729E+02  6.709495E+03
       276   3 -5.101422E+05 -4.963773E+04 -4.840107E+04  1.911540E+04  2.762409E+02  8.380484E+03
       276   4 -3.091404E+05  1.024532E+02 -6.321640E+02  1.942340E+04  3.763562E+02  5.009858E+03
       276   5 -3.090459E+05  6.206983E+01 -1.022815E+03  9.347804E+03  8.816326E+02  6.711953E+03
       276   6 -3.091435E+05 -9.709436E+01 -1.793970E+03  1.942384E+04  1.387455E+03  8.382756E+03
       276   7 -1.799374E+05  3.197444E+04  2.948600E+04  1.969081E+04  1.529621E+03  5.012511E+03
       276   8 -1.439291E+05  4.076510E+04  3.733114E+04  9.635941E+03  2.014037E+03  6.714412E+03
       276   9 -1.081076E+05  4.944069E+04  4.481042E+04  1.973237E+04  2.499027E+03  8.385029E+03
       276  10 -4.383280E+05 -3.177074E+04 -3.075150E+04  1.915603E+04 -3.892899E-09 -1.742935E-09
       276  11 -4.741375E+05 -4.064293E+04 -3.937868E+04  9.059731E+03  6.060134E-10 -7.021764E-09
       276  12 -5.101422E+05 -4.963780E+04 -4.840120E+04  1.911539E+04 -2.694731E-09 -5.482304E-09
       276  13 -3.091404E+05  1.024262E+02 -6.322114E+02  1.942339E+04 -1.066103E-09 -6.536850E-10
       276  14 -3.090459E+05  6.202126E+01 -1.022901E+03  9.347799E+03 -2.146158E-09  1.231962E-09
       276  15 -3.091436E+05 -9.717033E+01 -1.794105E+03  1.942383E+04 -1.086434E-09  5.337600E-09
       276  16 -1.799374E+05  3.197441E+04  2.948595E+04  1.969081E+04  2.853273E-09  2.070987E-09
       276  17 -1.439291E+05  4.076505E+04  3.733105E+04  9.635930E+03  2.011993E-09 -3.639195E-09
       276  18 -1.081076E+05  4.944062E+04  4.481028E+04  1.973235E+04  1.775321E-09  3.233327E-09
       276  19 -4.383280E+05 -3.177071E+04 -3.075146E+04  1.915603E+04  7.766702E+02 -5.007205E+03
       276  20 -4.741375E+05 -4.064288E+04 -3.937860E+04  9.059730E+03  2.504729E+02 -6.709495E+03
       276  21 -5.101422E+05 -4.963773E+04 -4.840107E+04  1.911540E+04 -2.762409E+02 -8.380484E+03
       276  22 -3.091404E+05  1.024532E+02 -6.321640E+02  1.942340E+04 -3.763562E+02 -5.009858E+03
       276  23 -3.090459E+05  6.206983E+01 -1.022815E+03  9.347804E+03 -8.816326E+02 -6.711953E+03
       276  24 -3.091435E+05 -9.709436E+01 -1.793970E+03  1.942384E+04 -1.387455E+03 -8.382756E+03
       276  25 -1.799374E+05  3.197444E+04  2.948600E+04  1.969081E+04 -1.529621E+03 -5.012511E+03
       276  26 -1.439291E+05  4.076510E+04  3.733114E+04  9.635941E+03 -2.014037E+03 -6.714412E+03
       276  27 -1.081076E+05  4.944069E+04  4.481042E+04  1.973237E+04 -2.499027E+03 -8.385029E+03
       277   1 -5.466229E+05 -5.833015E+04 -5.753387E+04  1.864269E+04  4.675566E+02  9.437875E+03
       277   2 -5.818582E+05 -6.707787E+04 -6.737815E+04  9.153649E+03  2.826838E+03  1.107007E+04
       277   3 -6.180846E+05 -7.835182E+04 -7.940335E+04  1.970176E+04  5.187764E+03  1.215150E+04
       277   4 -3.093110E+05  2.040957E+02 -2.304869E+03  1.939661E+04  1.745648E+03  9.440382E+03
       277   5 -3.088499E+05  2.409380E+02 -3.931795E+03  9.380646E+03  3.735861E+03  1.107157E+04
       277   6 -3.093165E+05 -2.183571E+03 -7.482461E+03  1.940132E+04  5.727853E+03  1.215211E+04
       277   7 -7.194699E+04  5.873437E+04  5.292034E+04  2.015080E+04  3.024224E+03  9.442893E+03
       277   8 -3.577269E+04  6.755449E+04  5.950954E+04  9.607708E+03  4.645281E+03  1.107308E+04
       277   9 -4.603774E+02  7.397793E+04  6.443198E+04  1.910068E+04  6.268208E+03  1.215272E+04
       277  10 -5.466229E+05 -5.833025E+04 -5.753404E+04  1.864269E+04  1.579975E-08 -3.119382E-09
       277  11 -5.818582E+05 -6.707800E+04 -6.737840E+04  9.153624E+03  1.027892E-09  2.628514E-09
       277  12 -6.180847E+05 -7.835199E+04 -7.940368E+04  1.970171E+04 -1.093160E-08 -3.807127E-09
       277  13 -3.093110E+05  2.039992E+02 -2.305042E+03  1.939660E+04  2.410260E-10 -1.584614E-09
       277  14 -3.088499E+05  2.408026E+02 -3.932051E+03  9.380613E+03  1.839321E-09  1.125710E-08
       277  15 -3.093166E+05 -2.183739E+03 -7.482800E+03  1.940126E+04  1.218076E-09  3.628031E-09
       277  16 -7.194702E+04  5.873427E+04  5.292015E+04  2.015077E+04 -1.663173E-08 -1.582102E-09
       277  17 -3.577274E+04  6.755435E+04  5.950927E+04  9.607667E+03 -1.557986E-09 -7.414946E-09
       277  18 -4.604592E+02  7.397777E+04  6.443163E+04  1.910062E+04  1.194781E-08  7.354746E-10
       277  19 -5.466229E+05 -5.833015E+04 -5.753387E+04  1.864269E+04 -4.675566E+02 -9.437875E+03
       277  20 -5.818582E+05 -6.707787E+04 -6.737815E+04  9.153649E+03 -2.826838E+03 -1.107007E+04
       277  21 -6.180846E+05 -7.835182E+04 -7.940335E+04  1.970176E+04 -5.187764E+03 -1.215150E+04
       277  22 -3.093110E+05  2.040957E+02 -2.304869E+03  1.939661E+04 -1.745648E+03 -9.440382E+03
       277  23 -3.088499E+05  2.409380E+02 -3.931795E+03  9.380646E+03 -3.735861E+03 -1.107157E+04
       277  24 -3.093165E+05 -2.183571E+03 -7.482461E+03  1.940132E+04 -5.727853E+03 -1.215211E+04
       277  25 -7.194699E+04  5.873437E+04  5.292034E+04  2.015080E+04 -3.024224E+03 -9.442893E+03
       277  26 -3.577269E+04  6.755449E+04  5.950954E+04  9.607708E+03 -4.645281E+03 -1.107308E+04
       277  27 -4.603774E+02  7.397793E+04  6.443198E+04  1.910068E+04 -6.268208E+03 -1.215272E+04
       278   1 -6.560287E+05 -8.347533E+04 -8.925513E+04  1.477394E+04  3.388200E+03  1.440492E+04
       278   2 -6.866361E+05 -9.135976E+04 -1.038091E+05  1.243105E+04  1.847183E+04  1.480394E+04
       278   3 -7.271964E+05 -1.312346E+05 -1.361856E+05  2.966351E+04  3.356961E+04  4.881202E+03
       278   4 -3.110588E+05  1.574492E+03 -9.259912E+03  1.928211E+04  7.106032E+03  1.441116E+04
       278   5 -3.066917E+05  2.374953E+03 -1.523416E+04  9.517316E+03  1.526402E+04  1.479795E+04
       278   6 -3.110700E+05 -2.760155E+04 -3.421258E+04  1.932778E+04  2.343726E+04  4.865422E+03
       278   7  3.402125E+04  8.661601E+04  7.072738E+04  2.379276E+04  1.082592E+04  1.441746E+04
       278   8  7.338608E+04  9.609949E+04  7.333106E+04  6.601732E+03  1.205426E+04  1.479199E+04
       278   9  1.052148E+05  7.601912E+04  6.774818E+04  8.985047E+03  1.329813E+04  4.849985E+03
       278  10 -6.560288E+05 -8.347556E+04 -8.925554E+04  1.477390E+04  9.951864E-09 -4.817960E-09
       278  11 -6.866366E+05 -9.136009E+04 -1.038102E+05  1.243083E+04  2.015643E-10 -2.397925E-09
       278  12 -7.271976E+05 -1.312349E+05 -1.361877E+05  2.966337E+04 -7.744247E-09  3.318910E-09
       278  13 -3.110589E+05  1.574256E+03 -9.260397E+03  1.928203E+04 -2.146570E-09  2.720218E-09
       278  14 -3.066920E+05  2.374655E+03 -1.523501E+04  9.517134E+03 -1.061934E-09  4.327094E-09
       278  15 -3.110706E+05 -2.760172E+04 -3.421366E+04  1.932769E+04  2.158975E-09  1.919314E-09
       278  16  3.402107E+04  8.661575E+04  7.072677E+04  2.379264E+04 -1.069383E-08  2.559812E-09
       278  17  7.338586E+04  9.609921E+04  7.333038E+04  6.601589E+03 -4.147926E-09  3.317064E-09
       278  18  1.052146E+05  7.601905E+04  6.774780E+04  8.984995E+03  7.881294E-09  1.749741E-10
       278  19 -6.560287E+05 -8.347533E+04 -8.925513E+04  1.477394E+04 -3.388200E+03 -1.440492E+04
       278  20 -6.866361E+05 -9.135976E+04 -1.038091E+05  1.243105E+04 -1.847183E+04 -1.480394E+04
       278  21 -7.271964E+05 -1.312346E+05 -1.361856E+05  2.966351E+04 -3.356961E+04 -4.881202E+03
       278  22 -3.110588E+05  1.574492E+03 -9.259912E+03  1.928211E+04 -7.106032E+03 -1.441116E+04
       278  23 -3.066917E+05  2.374953E+03 -1.523416E+04  9.517316E+03 -1.526402E+04 -1.479795E+04
       278  24 -3.110700E+05 -2.760155E+04 -3.421258E+04  1.932778E+04 -2.343726E+04 -4.865422E+03
       278  25  3.402125E+04  8.661601E+04  7.072738E+04  2.379276E+04 -1.082592E+04 -1.441746E+04
       278  26  7.338608E+04  9.609949E+04  7.333106E+04  6.601732E+03 -1.205426E+04 -1.479199E+04
       278  27  1.052148E+05  7.601912E+04  6.774818E+04  8.985047E+03 -1.329813E+04 -4.849985E+03
       279   1 -2.332144E+05 -8.787836E+05 -2.277810E+05  2.078157E+05 -9.379193E+03 -7.000726E+04
       279   2 -1.573485E+05 -6.773798E+05 -1.412883E+05  1.756025E+05 -2.836967E+04 -2.917950E+04
       279   3 -1.043420E+05 -4.867890E+05 -8.709922E+04  1.885543E+05 -2.638349E+04  1.169197E+04
       279   4 -2.816680E+04 -5.133917E+04 -3.069197E+04  1.902630E+05 -9.426632E+03 -2.273680E+04
       279   5 -6.062415E+03 -4.880508E+04 -1.379990E+04  1.676941E+05 -2.838009E+04 -1.558998E+04
       279   6 -9.505995E+02 -5.125894E+04 -5.792606E+03  1.902909E+05 -2.636534E+04 -8.413700E+03
       279   7  1.768337E+05  7.767395E+05  1.663576E+05  1.726868E+05 -9.476722E+03  2.459644E+04
       279   8  1.451995E+05  5.801465E+05  1.136686E+05  1.597776E+05 -2.839086E+04 -1.986957E+03
       279   9  1.024301E+05  3.844556E+05  7.550741E+04  1.920289E+05 -2.634732E+04 -2.853312E+04
       279  10 -2.332158E+05 -8.787889E+05 -2.277904E+05  2.078152E+05 -1.588376E-09  1.484917E-08
       279  11 -1.573496E+05 -6.773809E+05 -1.412914E+05  1.756018E+05  3.159382E-09  1.250823E-08
       279  12 -1.043428E+05 -4.867893E+05 -8.710079E+04  1.885545E+05  2.717272E-09  3.265662E-09
       279  13 -2.816703E+04 -5.133975E+04 -3.069311E+04  1.902628E+05 -3.158488E-09  2.443257E-09
       279  14 -6.063345E+03 -4.880556E+04 -1.380187E+04  1.676938E+05 -7.383568E-09 -1.886187E-09
       279  15 -9.513648E+02 -5.125920E+04 -5.794045E+03  1.902908E+05 -1.714627E-08 -1.806163E-10
       279  16  1.768335E+05  7.767388E+05  1.663563E+05  1.726870E+05  3.821964E-09 -1.580617E-08
       279  17  1.451986E+05  5.801463E+05  1.136671E+05  1.597776E+05  8.144649E-09 -1.354930E-08
       279  18  1.024292E+05  3.844546E+05  7.550458E+04  1.920282E+05  6.775996E-09 -5.015670E-09
       279  19 -2.332144E+05 -8.787836E+05 -2.277810E+05  2.078157E+05  9.379193E+03  7.000726E+04
       279  20 -1.573485E+05 -6.773798E+05 -1.412883E+05  1.756025E+05  2.836967E+04  2.917950E+04
       279  21 -1.043420E+05 -4.867890E+05 -8.709922E+04  1.885543E+05  2.638349E+04 -1.169197E+04
       279  22 -2.816680E+04 -5.133917E+04 -3.069197E+04  1.902630E+05  9.426632E+03  2.273680E+04
       279  23 -6.062415E+03 -4.880508E+04 -1.379990E+04  1.676941E+05  2.838009E+04  1.558998E+04
       279  24 -9.505995E+02 -5.125894E+04 -5.792606E+03  1.902909E+05  2.636534E+04  8.413700E+03
       279  25  1.768337E+05  7.767395E+05  1.663576E+05  1.726868E+05  9.476722E+03 -2.459644E+04
       279  26  1.451995E+05  5.801465E+05  1.136686E+05  1.597776E+05  2.839086E+04  1.986957E+03
       279  27  1.024301E+05  3.844556E+05  7.550741E+04  1.920289E+05  2.634732E+04  2.853312E+04
       280   1 -7.407578E+04 -3.555421E+05 -5.977286E+04  1.908328E+05 -1.870889E+04  9.634961E+03
       280   2 -2.599205E+04 -1.597886E+05 -1.684542E+04  1.677282E+05 -7.621875E+03  9.060460E+03
       280   3  2.250588E+04  3.631600E+04  2.659005E+04  1.910573E+05  3.898022E+03  8.485266E+03
       280   4 -1.595741E+03 -5.003508E+04 -2.955493E+03  1.905673E+05 -1.869446E+04 -7.839550E+03
       280   5 -1.966494E+02 -5.024598E+04  2.571981E+03  1.673520E+05 -7.607611E+03 -9.111965E+03
       280   6  1.740096E+03 -5.002076E+04  9.093485E+03  1.905700E+05  3.912002E+03 -1.038490E+04
       280   7  7.087910E+04  2.555630E+05  5.385906E+04  1.903017E+05 -1.868002E+04 -2.532244E+04
       280   8  2.559827E+04  5.930905E+04  2.199018E+04  1.669758E+05 -7.593327E+03 -2.728750E+04
       280   9 -1.902596E+04 -1.363497E+05 -8.402128E+03  1.900827E+05  3.926013E+03 -2.925250E+04
       280  10 -7.407618E+04 -3.555423E+05 -5.977369E+04  1.908330E+05  3.173690E-09 -3.545114E-09
       280  11 -2.599213E+04 -1.597887E+05 -1.684568E+04  1.677282E+05  3.593662E-09 -7.597091E-09
       280  12  2.250585E+04  3.631592E+04  2.658989E+04  1.910573E+05  2.762369E-09 -1.165485E-08
       280  13 -1.596133E+03 -5.003524E+04 -2.956265E+03  1.905672E+05 -1.554473E-08  1.844804E-09
       280  14 -1.967338E+02 -5.024609E+04  2.571716E+03  1.673520E+05 -1.129386E-08 -2.750265E-09
       280  15  1.740051E+03 -5.002088E+04  9.093254E+03  1.905700E+05 -6.811664E-09  3.921022E-10
       280  16  7.087855E+04  2.555622E+05  5.385720E+04  1.903013E+05  4.372367E-09  2.109784E-09
       280  17  2.559801E+04  5.930824E+04  2.198867E+04  1.669756E+05  2.776495E-09  8.161939E-09
       280  18 -1.902621E+04 -1.363506E+05 -8.403766E+03  1.900828E+05  1.888547E-09  9.613024E-09
       280  19 -7.407578E+04 -3.555421E+05 -5.977286E+04  1.908328E+05  1.870889E+04 -9.634961E+03
       280  20 -2.599205E+04 -1.597886E+05 -1.684542E+04  1.677282E+05  7.621875E+03 -9.060460E+03
       280  21  2.250588E+04  3.631600E+04  2.659005E+04  1.910573E+05 -3.898022E+03 -8.485266E+03
       280  22 -1.595741E+03 -5.003508E+04 -2.955493E+03  1.905673E+05  1.869446E+04  7.839550E+03
       280  23 -1.966494E+02 -5.024598E+04  2.571981E+03  1.673520E+05  7.607611E+03  9.111965E+03
       280  24  1.740096E+03 -5.002076E+04  9.093485E+03  1.905700E+05 -3.912002E+03  1.038490E+04
       280  25  7.087910E+04  2.555630E+05  5.385906E+04  1.903017E+05  1.868002E+04  2.532244E+04
       280  26  2.559827E+04  5.930905E+04  2.199018E+04  1.669758E+05  7.593327E+03  2.728750E+04
       280  27 -1.902596E+04 -1.363497E+05 -8.402128E+03  1.900827E+05 -3.926013E+03  2.925250E+04
       281   1  5.222058E+04  1.681280E+05  5.475298E+04  1.868164E+05  1.175307E+04  8.779435E+03
       281   2  1.084481E+05  3.573951E+05  1.103993E+05  1.804761E+05  1.681643E+04 -2.973508E+04
       281   3  1.987515E+05  5.603797E+05  1.996608E+05  2.197045E+05  6.135314E+03 -6.828131E+04
       281   4  6.330572E+02 -4.805883E+04  1.302002E+04  1.903691E+05  1.176915E+04 -1.197437E+04
       281   5  9.480468E+03 -5.273369E+04  2.547326E+04  1.676088E+05  1.681402E+04 -2.515617E+04
       281   6  4.802232E+04 -4.810950E+04  5.396342E+04  1.904141E+05  6.111682E+03 -3.835737E+04
       281   7 -5.095697E+04 -2.641998E+05 -2.871348E+04  1.939205E+05  1.178499E+04 -3.272111E+04
       281   8 -8.949716E+04 -4.627027E+05 -5.946171E+04  1.547501E+05  1.681141E+04 -2.058022E+04
       281   9 -1.027300E+05 -6.562558E+05 -9.175634E+04  1.611525E+05  6.085219E+03 -8.462601E+03
       281  10  5.222041E+04  1.681279E+05  5.475257E+04  1.868163E+05  4.519925E-09 -4.475792E-09
       281  11  1.084475E+05  3.573941E+05  1.103971E+05  1.804765E+05  6.160872E-09 -8.171501E-09
       281  12  1.987502E+05  5.603747E+05  1.996520E+05  2.197048E+05  1.971511E-09 -1.202669E-08
       281  13  6.328699E+02 -4.805902E+04  1.301949E+04  1.903692E+05 -5.412557E-09  3.391937E-09
       281  14  9.479995E+03 -5.273444E+04  2.547154E+04  1.676091E+05  1.977472E-09 -1.491688E-09
       281  15  4.802188E+04 -4.811109E+04  5.396059E+04  1.904143E+05  1.201326E-09  1.174942E-10
       281  16 -5.095741E+04 -2.642010E+05 -2.871575E+04  1.939208E+05  3.990269E-09  3.612037E-09
       281  17 -8.949758E+04 -4.627032E+05 -5.946304E+04  1.547504E+05  4.281054E-09  8.631442E-09
       281  18 -1.027300E+05 -6.562559E+05 -9.175655E+04  1.611525E+05  2.445140E-09  1.148338E-08
       281  19  5.222058E+04  1.681280E+05  5.475298E+04  1.868164E+05 -1.175307E+04 -8.779435E+03
       281  20  1.084481E+05  3.573951E+05  1.103993E+05  1.804761E+05 -1.681643E+04  2.973508E+04
       281  21  1.987515E+05  5.603797E+05  1.996608E+05  2.197045E+05 -6.135314E+03  6.828131E+04
       281  22  6.330572E+02 -4.805883E+04  1.302002E+04  1.903691E+05 -1.176915E+04  1.197437E+04
       281  23  9.480468E+03 -5.273369E+04  2.547326E+04  1.676088E+05 -1.681402E+04  2.515617E+04
       281  24  4.802232E+04 -4.810950E+04  5.396342E+04  1.904141E+05 -6.111682E+03  3.835737E+04
       281  25 -5.095697E+04 -2.641998E+05 -2.871348E+04  1.939205E+05 -1.178499E+04  3.272111E+04
       281  26 -8.949716E+04 -4.627027E+05 -5.946171E+04  1.547501E+05 -1.681141E+04  2.058022E+04
       281  27 -1.027300E+05 -6.562558E+05 -9.175634E+04  1.611525E+05 -6.085219E+03  8.462601E+03
       282   1  7.695056E+05  2.847871E+05  1.762581E+05  2.783229E+05  7.171988E+04  2.234560E+04
       282   2  7.423008E+05  1.817867E+05  1.103266E+05  2.731692E+05  4.654795E+04  3.051927E+03
       282   3  7.387736E+05  1.636813E+05  8.635538E+04  2.586594E+05  1.818480E+04 -7.764713E+03
       282   4  4.868206E+05  1.480954E+05  9.467014E+04  1.701240E+05  6.188908E+04  1.863795E+04
       282   5  4.705223E+05  7.030067E+04  4.063856E+04  1.883657E+05  4.320939E+04  1.792547E+03
       282   6  4.766289E+05  7.613450E+04  2.343923E+04  1.972479E+05  2.133669E+04 -6.576739E+03
       282   7  2.042195E+05  1.142695E+04  1.307618E+04  6.197617E+04  5.206331E+04  1.493339E+04
       282   8  1.988177E+05 -4.117574E+04 -2.905518E+04  1.035977E+05  3.987243E+04  5.339025E+02
       282   9  2.145500E+05 -1.141143E+04 -3.948223E+04  1.358580E+05  2.448715E+04 -5.389173E+03
       282  10  7.694999E+05  2.847851E+05  1.762475E+05  2.783216E+05  1.320928E-09 -1.345669E-09
       282  11  7.422985E+05  1.817861E+05  1.103225E+05  2.731691E+05  5.648356E-09  2.983669E-09
       282  12  7.387732E+05  1.636812E+05  8.635465E+04  2.586596E+05  9.891790E-09  7.249685E-09
       282  13  4.868164E+05  1.480940E+05  9.466230E+04  1.701231E+05  2.749880E-10 -4.015139E-09
       282  14  4.705203E+05  7.030017E+04  4.063504E+04  1.883657E+05  5.939708E-09  3.164389E-09
       282  15  4.766284E+05  7.613433E+04  2.343830E+04  1.972480E+05 -7.194520E-10  7.995132E-10
       282  16  2.042165E+05  1.142598E+04  1.307067E+04  6.197554E+04 -2.798145E-10  3.816535E-09
       282  17  1.988160E+05 -4.117616E+04 -2.905817E+04  1.035976E+05 -6.661304E-09 -3.789508E-09
       282  18  2.145494E+05 -1.141162E+04 -3.948342E+04  1.358581E+05 -1.339494E-08  2.512129E-10
       282  19  7.695056E+05  2.847871E+05  1.762581E+05  2.783229E+05 -7.171988E+04 -2.234560E+04
       282  20  7.423008E+05  1.817867E+05  1.103266E+05  2.731692E+05 -4.654795E+04 -3.051927E+03
       282  21  7.387736E+05  1.636813E+05  8.635538E+04  2.586594E+05 -1.818480E+04  7.764713E+03
       282  22  4.868206E+05  1.480954E+05  9.467014E+04  1.701240E+05 -6.188908E+04 -1.863795E+04
       282  23  4.705223E+05  7.030067E+04  4.063856E+04  1.883657E+05 -4.320939E+04 -1.792547E+03
       282  24  4.766289E+05  7.613450E+04  2.343923E+04  1.972479E+05 -2.133669E+04  6.576739E+03
       282  25  2.042195E+05  1.142695E+04  1.307618E+04  6.197617E+04 -5.206331E+04 -1.493339E+04
       282  26  1.988177E+05 -4.117574E+04 -2.905518E+04  1.035977E+05 -3.987243E+04 -5.339025E+02
       282  27  2.145500E+05 -1.141143E+04 -3.948223E+04  1.358580E+05 -2.448715E+04  5.389173E+03
       283   1  7.041663E+05  1.719703E+05  7.635185E+04  2.577093E+05  1.707473E+04 -6.188870E+03
       283   2  6.832532E+05  1.522228E+05  6.085712E+04  2.464489E+05  1.159730E+04 -7.232333E+03
       283   3  6.562395E+05  1.467685E+05  5.066474E+04  2.440132E+05  5.970117E+03 -7.879072E+03
       283   4  4.735880E+05  8.401074E+04  1.870985E+04  1.925088E+05  1.760369E+04 -5.989845E+03
       283   5  4.763154E+05  7.439410E+04  9.476917E+03  1.890403E+05  1.243143E+04 -6.918061E+03
       283   6  4.728821E+05  7.901143E+04  5.306149E+03  1.943963E+05  7.109198E+03 -7.449589E+03
       283   7  2.430618E+05 -3.944628E+03 -3.893631E+04  1.273304E+05  1.813243E+04 -5.790905E+03
       283   8  2.694201E+05 -3.431389E+03 -4.190647E+04  1.316493E+05  1.326526E+04 -6.603906E+03
       283   9  2.895585E+05  1.125676E+04 -4.005479E+04  1.447928E+05  8.247907E+03 -7.020242E+03
       283  10  7.041660E+05  1.719702E+05  7.635123E+04  2.577093E+05 -7.609607E-09  6.547204E-09
       283  11  6.832531E+05  1.522227E+05  6.085677E+04  2.464489E+05 -2.752180E-09  3.194997E-10
       283  12  6.562394E+05  1.467684E+05  5.066456E+04  2.440132E+05  1.293008E-09  1.660278E-09
       283  13  4.735876E+05  8.401062E+04  1.870920E+04  1.925088E+05  1.665147E-09  1.318341E-09
       283  14  4.763153E+05  7.439401E+04  9.476537E+03  1.890404E+05  3.901537E-09 -6.666939E-09
       283  15  4.728820E+05  7.901136E+04  5.305950E+03  1.943963E+05  8.002427E-09  8.039828E-09
       283  16  2.430614E+05 -3.944752E+03 -3.893699E+04  1.273305E+05  8.889900E-09  5.050793E-09
       283  17  2.694199E+05 -3.431483E+03 -4.190688E+04  1.316494E+05  5.841127E-09 -1.932661E-09
       283  18  2.895584E+05  1.125669E+04 -4.005502E+04  1.447928E+05  3.713539E-09  5.048456E-09
       283  19  7.041663E+05  1.719703E+05  7.635185E+04  2.577093E+05 -1.707473E+04  6.188870E+03
       283  20  6.832532E+05  1.522228E+05  6.085712E+04  2.464489E+05 -1.159730E+04  7.232333E+03
       283  21  6.562395E+05  1.467685E+05  5.066474E+04  2.440132E+05 -5.970117E+03  7.879072E+03
       283  22  4.735880E+05  8.401074E+04  1.870985E+04  1.925088E+05 -1.760369E+04  5.989845E+03
       283  23  4.763154E+05  7.439410E+04  9.476917E+03  1.890403E+05 -1.243143E+04  6.918061E+03
       283  24  4.728821E+05  7.901143E+04  5.306149E+03  1.943963E+05 -7.109198E+03  7.449589E+03
       283  25  2.430618E+05 -3.944628E+03 -3.893631E+04  1.273304E+05 -1.813243E+04  5.790905E+03
       283  26  2.694201E+05 -3.431389E+03 -4.190647E+04  1.316493E+05 -1.326526E+04  6.603906E+03
       283  27  2.895585E+05  1.125676E+04 -4.005479E+04  1.447928E+05 -8.247907E+03  7.020242E+03
       284   1  6.329627E+05  1.395212E+05  4.372608E+04  2.382078E+05  5.031953E+03 -7.278839E+03
       284   2  6.128938E+05  1.256606E+05  3.591526E+04  2.265717E+05  3.415158E+03 -6.366806E+03
       284   3  5.843570E+05  1.209696E+05  2.903906E+04  2.248509E+05  1.792113E+03 -5.439013E+03
       284   4  4.726041E+05  7.952436E+04  4.059815E+03  1.940215E+05  6.044285E+03 -6.897078E+03
       284   5  4.768174E+05  7.477999E+04  2.198036E+03  1.891250E+05  4.439853E+03 -5.980259E+03
       284   6  4.725604E+05  7.920315E+04  1.261432E+03  1.941437E+05  2.829125E+03 -5.047694E+03
       284   7  3.122700E+05  1.952896E+04 -3.560863E+04  1.498454E+05  7.056336E+03 -6.515423E+03
       284   8  3.407589E+05  2.390050E+04 -3.152071E+04  1.516856E+05  5.464305E+03 -5.593804E+03
       284   9  3.607761E+05  3.743749E+04 -2.651717E+04  1.634415E+05  3.865934E+03 -4.656452E+03
       284  10  6.329627E+05  1.395212E+05  4.372594E+04  2.382078E+05  3.052495E-09 -5.437475E-10
       284  11  6.128937E+05  1.256606E+05  3.591517E+04  2.265717E+05 -1.061989E-09 -2.319024E-09
       284  12  5.843570E+05  1.209696E+05  2.903900E+04  2.248509E+05 -5.208811E-09 -2.536236E-09
       284  13  4.726041E+05  7.952429E+04  4.059657E+03  1.940216E+05  2.115778E-09 -9.734426E-10
       284  14  4.768174E+05  7.477995E+04  2.197932E+03  1.891250E+05  5.599054E-09 -3.670770E-09
       284  15  4.725604E+05  7.920312E+04  1.261369E+03  1.941437E+05 -5.288511E-09 -3.106309E-10
       284  16  3.122699E+05  1.952890E+04 -3.560881E+04  1.498455E+05 -3.558405E-10 -7.806111E-10
       284  17  3.407589E+05  2.390046E+04 -3.152082E+04  1.516856E+05  1.844380E-10  4.787800E-09
       284  18  3.607760E+05  3.743746E+04 -2.651723E+04  1.634415E+05  1.815606E-09  6.524913E-09
       284  19  6.329627E+05  1.395212E+05  4.372608E+04  2.382078E+05 -5.031953E+03  7.278839E+03
       284  20  6.128938E+05  1.256606E+05  3.591526E+04  2.265717E+05 -3.415158E+03  6.366806E+03
       284  21  5.843570E+05  1.209696E+05  2.903906E+04  2.248509E+05 -1.792113E+03  5.439013E+03
       284  22  4.726041E+05  7.952436E+04  4.059815E+03  1.940215E+05 -6.044285E+03  6.897078E+03
       284  23  4.768174E+05  7.477999E+04  2.198036E+03  1.891250E+05 -4.439853E+03  5.980259E+03
       284  24  4.725604E+05  7.920315E+04  1.261432E+03  1.941437E+05 -2.829125E+03  5.047694E+03
       284  25  3.122700E+05  1.952896E+04 -3.560863E+04  1.498454E+05 -7.056336E+03  6.515423E+03
       284  26  3.407589E+05  2.390050E+04 -3.152071E+04  1.516856E+05 -5.464305E+03  5.593804E+03
       284  27  3.607761E+05  3.743749E+04 -2.651717E+04  1.634415E+05 -3.865934E+03  4.656452E+03
       285   1  5.620784E+05  1.126979E+05  2.308811E+04  2.187573E+05  1.317157E+03 -4.718946E+03
       285   2  5.422123E+05  9.927911E+04  1.683916E+04  2.071370E+05  4.874636E+02 -3.494075E+03
       285   3  5.136755E+05  9.462092E+04  1.083727E+04  2.054363E+05 -3.421110E+02 -2.269864E+03
       285   4  4.725326E+05  7.922384E+04  9.863376E+02  1.941032E+05  2.346736E+03 -4.330377E+03
       285   5  4.768679E+05  7.483669E+04  6.462559E+02  1.891462E+05  1.516580E+03 -3.105626E+03
       285   6  4.725318E+05  7.921032E+04  5.536534E+02  1.941088E+05  6.865245E+02 -1.881536E+03
       285   7  3.829951E+05  4.575048E+04 -2.111593E+04  1.694524E+05  3.376150E+03 -3.941871E+03
       285   8  4.115276E+05  5.039457E+04 -1.554697E+04  1.711571E+05  2.545578E+03 -2.717221E+03
       285   9  4.313896E+05  6.379977E+04 -9.730143E+03  1.827819E+05  1.715090E+03 -1.493234E+03
       285  10  5.620784E+05  1.126979E+05  2.308806E+04  2.187574E+05 -2.639513E-10 -4.659447E-09
       285  11  5.422123E+05  9.927909E+04  1.683913E+04  2.071370E+05  1.535029E-09 -3.176490E-09
       285  12  5.136755E+05  9.462092E+04  1.083726E+04  2.054363E+05 -3.477340E-10  3.222046E-09
       285  13  4.725326E+05  7.922382E+04  9.862920E+02  1.941032E+05 -6.795973E-09 -2.536078E-10
       285  14  4.768679E+05  7.483668E+04  6.462334E+02  1.891462E+05  1.632746E-09  3.564203E-09
       285  15  4.725318E+05  7.921032E+04  5.536459E+02  1.941088E+05  4.275087E-10 -8.210481E-09
       285  16  3.829951E+05  4.575046E+04 -2.111598E+04  1.694524E+05 -5.836342E-09  1.579030E-10
       285  17  4.115276E+05  5.039456E+04 -1.554700E+04  1.711571E+05 -7.000136E-09 -3.895854E-09
       285  18  4.313896E+05  6.379977E+04 -9.730153E+03  1.827819E+05  2.798796E-10 -5.530296E-09
       285  19  5.620784E+05  1.126979E+05  2.308811E+04  2.187573E+05 -1.317157E+03  4.718946E+03
       285  20  5.422123E+05  9.927911E+04  1.683916E+04  2.071370E+05 -4.874636E+02  3.494075E+03
       285  21  5.136755E+05  9.462092E+04  1.083727E+04  2.054363E+05  3.421110E+02  2.269864E+03
       285  22  4.725326E+05  7.922384E+04  9.863376E+02  1.941032E+05 -2.346736E+03  4.330377E+03
       285  23  4.768679E+05  7.483669E+04  6.462559E+02  1.891462E+05 -1.516580E+03  3.105626E+03
       285  24  4.725318E+05  7.921032E+04  5.536534E+02  1.941088E+05 -6.865245E+02  1.881536E+03
       285  25  3.829951E+05  4.575048E+04 -2.111593E+04  1.694524E+05 -3.376150E+03  3.941871E+03
       285  26  4.115276E+05  5.039457E+04 -1.554697E+04  1.711571E+05 -2.545578E+03  2.717221E+03
       285  27  4.313896E+05  6.379977E+04 -9.730143E+03  1.827819E+05 -1.715090E+03  1.493234E+03
       286   1  4.915420E+05  8.631308E+04  5.204832E+03  1.993569E+05 -7.312308E+02 -1.522468E+03
       286   2  4.717051E+05  7.292707E+04 -4.802401E+02  1.877470E+05 -1.634469E+03 -3.275308E+02
       286   3  4.432227E+05  6.829971E+04 -5.860781E+03  1.860416E+05 -2.537453E+03  8.668986E+02
       286   4  4.725372E+05  7.920725E+04  5.800586E+02  1.941064E+05  2.968004E+02 -1.134349E+03
       286   5  4.768620E+05  7.483965E+04  7.948098E+02  1.891499E+05 -6.068655E+02  6.041906E+01
       286   6  4.725405E+05  7.923067E+04  1.314410E+03  1.940975E+05 -1.510294E+03  1.254675E+03
       286   7  4.535329E+05  7.210144E+04 -4.044736E+03  1.888561E+05  1.324797E+03 -7.462440E+02
       286   8  4.820189E+05  7.675224E+04  2.069859E+03  1.905528E+05  4.207445E+02  4.483715E+02
       286   9  5.018591E+05  9.016165E+04  8.489503E+03  2.021538E+05 -4.830868E+02  1.642470E+03
       286  10  4.915420E+05  8.631308E+04  5.204826E+03  1.993569E+05  9.798971E-10  6.727626E-10
       286  11  4.717051E+05  7.292706E+04 -4.802453E+02  1.877470E+05  6.148472E-10  4.422026E-09
       286  12  4.432227E+05  6.829971E+04 -5.860794E+03  1.860416E+05  2.132540E-09 -5.172231E-09
       286  13  4.725372E+05  7.920724E+04  5.800560E+02  1.941064E+05  3.700627E-09  4.888829E-10
       286  14  4.768620E+05  7.483965E+04  7.948091E+02  1.891499E+05 -1.681740E-09 -4.252369E-09
       286  15  4.725405E+05  7.923067E+04  1.314402E+03  1.940975E+05 -2.973421E-11 -3.575090E-09
       286  16  4.535329E+05  7.210144E+04 -4.044740E+03  1.888561E+05  1.752472E-09 -1.039924E-08
       286  17  4.820189E+05  7.675224E+04  2.069858E+03  1.905528E+05  5.069269E-09 -8.203560E-09
       286  18  5.018591E+05  9.016165E+04  8.489497E+03  2.021538E+05 -2.647359E-09 -1.904781E-09
       286  19  4.915420E+05  8.631308E+04  5.204832E+03  1.993569E+05  7.312308E+02  1.522468E+03
       286  20  4.717051E+05  7.292707E+04 -4.802401E+02  1.877470E+05  1.634469E+03  3.275308E+02
       286  21  4.432227E+05  6.829971E+04 -5.860781E+03  1.860416E+05  2.537453E+03 -8.668986E+02
       286  22  4.725372E+05  7.920725E+04  5.800586E+02  1.941064E+05 -2.968004E+02  1.134349E+03
       286  23  4.768620E+05  7.483965E+04  7.948098E+02  1.891499E+05  6.068655E+02 -6.041906E+01
       286  24  4.725405E+05  7.923067E+04  1.314410E+03  1.940975E+05  1.510294E+03 -1.254675E+03
       286  25  4.535329E+05  7.210144E+04 -4.044736E+03  1.888561E+05 -1.324797E+03  7.462440E+02
       286  26  4.820189E+05  7.675224E+04  2.069859E+03  1.905528E+05 -4.207445E+02 -4.483715E+02
       286  27  5.018591E+05  9.016165E+04  8.489503E+03  2.021538E+05  4.830868E+02 -1.642470E+03
       287   1  4.210693E+05  6.000767E+04 -1.112512E+04  1.800694E+05 -3.088216E+03  1.555353E+03
       287   2  4.011150E+05  4.649872E+04 -1.571532E+04  1.683293E+05 -5.105684E+03  2.329124E+03
       287   3  3.728321E+05  4.227097E+04 -1.903828E+04  1.664357E+05 -7.117789E+03  3.089321E+03
       287   4  4.725889E+05  7.919256E+04  1.710779E+03  1.941429E+05 -2.055731E+03  1.945118E+03
       287   5  4.767838E+05  7.477746E+04  3.033795E+03  1.891338E+05 -4.083810E+03  2.714817E+03
       287   6  4.726519E+05  7.964571E+04  5.632483E+03  1.939711E+05 -6.106588E+03  3.470921E+03
       287   7  5.241114E+05  9.837771E+04  1.454654E+04  2.082175E+05 -1.023148E+03  2.334920E+03
       287   8  5.524583E+05  1.030567E+05  2.178252E+04  2.099406E+05 -3.061797E+03  3.100563E+03
       287   9  5.724815E+05  1.170211E+05  3.030249E+04  2.215105E+05 -5.095208E+03  3.852588E+03
       287  10  4.210693E+05  6.000767E+04 -1.112514E+04  1.800694E+05 -1.084879E-08 -2.884752E-09
       287  11  4.011150E+05  4.649871E+04 -1.571538E+04  1.683293E+05 -3.805270E-09  3.308937E-09
       287  12  3.728321E+05  4.227094E+04 -1.903839E+04  1.664358E+05  1.251540E-08  5.211918E-09
       287  13  4.725889E+05  7.919256E+04  1.710764E+03  1.941429E+05 -3.200319E-09 -5.074333E-09
       287  14  4.767837E+05  7.477745E+04  3.033750E+03  1.891338E+05 -3.356410E-09  1.405764E-09
       287  15  4.726519E+05  7.964568E+04  5.632391E+03  1.939711E+05  2.828616E-09 -2.113662E-09
       287  16  5.241114E+05  9.837770E+04  1.454653E+04  2.082175E+05  3.736500E-09  5.194532E-09
       287  17  5.524583E+05  1.030566E+05  2.178248E+04  2.099407E+05 -2.925639E-09  8.826474E-10
       287  18  5.724815E+05  1.170211E+05  3.030241E+04  2.215105E+05 -3.195206E-09  2.670658E-09
       287  19  4.210693E+05  6.000767E+04 -1.112512E+04  1.800694E+05  3.088216E+03 -1.555353E+03
       287  20  4.011150E+05  4.649872E+04 -1.571532E+04  1.683293E+05  5.105684E+03 -2.329124E+03
       287  21  3.728321E+05  4.227097E+04 -1.903828E+04  1.664357E+05  7.117789E+03 -3.089321E+03
       287  22  4.725889E+05  7.919256E+04  1.710779E+03  1.941429E+05  2.055731E+03 -1.945118E+03
       287  23  4.767838E+05  7.477746E+04  3.033795E+03  1.891338E+05  4.083810E+03 -2.714817E+03
       287  24  4.726519E+05  7.964571E+04  5.632483E+03  1.939711E+05  6.106588E+03 -3.470921E+03
       287  25  5.241114E+05  9.837771E+04  1.454654E+04  2.082175E+05  1.023148E+03 -2.334920E+03
       287  26  5.524583E+05  1.030567E+05  2.178252E+04  2.099406E+05  3.061797E+03 -3.100563E+03
       287  27  5.724815E+05  1.170211E+05  3.030249E+04  2.215105E+05  5.095208E+03 -3.852588E+03
       288   1  3.501326E+05  3.408089E+04 -2.296474E+04  1.618300E+05 -8.570032E+03  3.480191E+03
       288   2  3.301337E+05  1.904130E+04 -2.313097E+04  1.482165E+05 -1.553456E+04  2.333461E+03
       288   3  3.050115E+05  2.024044E+04 -1.645611E+04  1.428789E+05 -2.237804E+04  8.675130E+02
       288   4  4.730491E+05  7.892313E+04  7.368553E+03  1.944815E+05 -7.457408E+03  3.900021E+03
       288   5  4.760796E+05  7.425942E+04  1.317439E+04  1.890298E+05 -1.466765E+04  2.660406E+03
       288   6  4.740341E+05  8.588148E+04  2.601464E+04  1.918536E+05 -2.175715E+04  1.101461E+03
       288   7  5.959798E+05  1.237660E+05  3.770055E+04  2.271386E+05 -6.344547E+03  4.319935E+03
       288   8  6.220464E+05  1.294791E+05  4.947810E+04  2.298519E+05 -1.380051E+04  2.987438E+03
       288   9  6.430854E+05  1.515254E+05  6.848333E+04  2.408407E+05 -2.113607E+04  1.335487E+03
       288  10  3.501325E+05  3.408086E+04 -2.296491E+04  1.618301E+05  1.107101E-09 -4.084012E-09
       288  11  3.301335E+05  1.904123E+04 -2.313143E+04  1.482166E+05 -3.091650E-09 -2.321719E-09
       288  12  3.050110E+05  2.024031E+04 -1.645705E+04  1.428789E+05 -2.328944E-09  1.177383E-09
       288  13  4.730490E+05  7.892309E+04  7.368420E+03  1.944815E+05  7.675443E-09 -1.190607E-09
       288  14  4.760794E+05  7.425936E+04  1.317398E+04  1.890298E+05  3.768142E-09  5.967854E-09
       288  15  4.740336E+05  8.588136E+04  2.601374E+04  1.918536E+05  5.211110E-09  1.573061E-10
       288  16  5.959798E+05  1.237660E+05  3.770044E+04  2.271386E+05  1.116804E-08 -3.792931E-10
       288  17  6.220462E+05  1.294791E+05  4.947773E+04  2.298519E+05  8.933730E-09  6.111198E-09
       288  18  6.430850E+05  1.515252E+05  6.848249E+04  2.408407E+05  5.288087E-09  1.054417E-10
       288  19  3.501326E+05  3.408089E+04 -2.296474E+04  1.618300E+05  8.570032E+03 -3.480191E+03
       288  20  3.301337E+05  1.904130E+04 -2.313097E+04  1.482165E+05  1.553456E+04 -2.333461E+03
       288  21  3.050115E+05  2.024044E+04 -1.645611E+04  1.428789E+05  2.237804E+04 -8.675130E+02
       288  22  4.730491E+05  7.892313E+04  7.368553E+03  1.944815E+05  7.457408E+03 -3.900021E+03
       288  23  4.760796E+05  7.425942E+04  1.317439E+04  1.890298E+05  1.466765E+04 -2.660406E+03
       288  24  4.740341E+05  8.588148E+04  2.601464E+04  1.918536E+05  2.175715E+04 -1.101461E+03
       288  25  5.959798E+05  1.237660E+05  3.770055E+04  2.271386E+05  6.344547E+03 -4.319935E+03
       288  26  6.220464E+05  1.294791E+05  4.947810E+04  2.298519E+05  1.380051E+04 -2.987438E+03
       288  27  6.430854E+05  1.515254E+05  6.848333E+04  2.408407E+05  2.113607E+04 -1.335487E+03
       289   1  2.744421E+05  1.323430E+04 -1.520106E+04  1.572576E+05 -2.934591E+04  1.257791E+01
       289   2  2.605532E+05 -2.277416E+04  2.149771E+03  1.169714E+05 -5.466468E+04 -9.340782E+03
       289   3  2.802199E+05  5.303965E+04  6.659032E+04  5.973326E+04 -7.741460E+04 -2.550378E+04
       289   4  4.782423E+05  7.494963E+04  3.259139E+04  1.984624E+05 -2.661812E+04  1.042023E+03
       289   5  4.680545E+05  6.855678E+04  5.651401E+04  1.880700E+05 -5.715321E+04 -1.028092E+04
       289   6  4.924378E+05  1.749926E+05  1.316462E+05  1.607298E+05 -8.512012E+04 -2.841521E+04
       289   7  6.820841E+05  1.366649E+05  8.038128E+04  2.396780E+05 -2.388934E+04  2.071680E+03
       289   8  6.755971E+05  1.598949E+05  1.108742E+05  2.591914E+05 -5.964262E+04 -1.122152E+04
       289   9  7.047005E+05  2.969677E+05  1.966971E+05  2.617617E+05 -9.282838E+04 -3.132898E+04
       289  10  2.744412E+05  1.323407E+04 -1.520268E+04  1.572576E+05  1.082379E-08 -5.953049E-10
       289  11  2.605500E+05 -2.277506E+04  2.143994E+03  1.169709E+05  9.552144E-09 -9.114958E-10
       289  12  2.802133E+05  5.303735E+04  6.657784E+04  5.973167E+04  1.539463E-09 -3.451789E-10
       289  13  4.782416E+05  7.494943E+04  3.259006E+04  1.984624E+05  7.753854E-09 -3.798491E-09
       289  14  4.680509E+05  6.855579E+04  5.650768E+04  1.880695E+05  3.972467E-09 -1.498022E-09
       289  15  4.924298E+05  1.749898E+05  1.316311E+05  1.607278E+05  6.613890E-10 -7.895092E-11
       289  16  6.820835E+05  1.366648E+05  8.038020E+04  2.396781E+05 -4.427562E-09  5.442534E-09
       289  17  6.755933E+05  1.598938E+05  1.108673E+05  2.591909E+05 -3.409179E-09  1.209654E-08
       289  18  7.046910E+05  2.969643E+05  1.966791E+05  2.617594E+05 -2.862092E-09  5.098548E-09
       289  19  2.744421E+05  1.323430E+04 -1.520106E+04  1.572576E+05  2.934591E+04 -1.257791E+01
       289  20  2.605532E+05 -2.277416E+04  2.149771E+03  1.169714E+05  5.466468E+04  9.340782E+03
       289  21  2.802199E+05  5.303965E+04  6.659032E+04  5.973326E+04  7.741460E+04  2.550378E+04
       289  22  4.782423E+05  7.494963E+04  3.259139E+04  1.984624E+05  2.661812E+04 -1.042023E+03
       289  23  4.680545E+05  6.855678E+04  5.651401E+04  1.880700E+05  5.715321E+04  1.028092E+04
       289  24  4.924378E+05  1.749926E+05  1.316462E+05  1.607298E+05  8.512012E+04  2.841521E+04
       289  25  6.820841E+05  1.366649E+05  8.038128E+04  2.396780E+05  2.388934E+04 -2.071680E+03
       289  26  6.755971E+05  1.598949E+05  1.108742E+05  2.591914E+05  5.964262E+04  1.122152E+04
       289  27  7.047005E+05  2.969677E+05  1.966971E+05  2.617617E+05  9.282838E+04  3.132898E+04
       290   1 -1.130029E+05 -6.219085E+05 -1.138376E+05  8.740898E+04 -4.123346E+03 -2.076618E+04
       290   2 -6.568815E+04 -4.879093E+05 -6.885582E+04  5.407724E+04 -1.102434E+04 -7.079841E+03
       290   3 -3.333399E+04 -3.592035E+05 -3.649649E+04  7.932154E+04 -6.502265E+03  6.623863E+03
       290   4 -1.325854E+04 -2.213898E+05 -1.592353E+04  8.109340E+04 -4.135847E+03 -1.019675E+04
       290   5  2.266384E+02 -2.195577E+05 -7.772387E+03  5.181400E+04 -1.102511E+04 -6.095846E+03
       290   6  4.208979E+02 -2.213684E+05 -5.579544E+03  8.110997E+04 -6.493334E+03 -1.980662E+03
       290   7  8.647414E+04  1.792756E+05  8.197931E+04  7.477376E+04 -4.148559E+03  3.794821E+02
       290   8  6.613646E+04  4.886078E+04  5.330637E+04  4.954978E+04 -1.102589E+04 -5.111429E+03
       290   9  3.417455E+04 -8.351543E+04  2.533648E+04  8.289882E+04 -6.484453E+03 -1.058708E+04
       290  10 -1.130030E+05 -6.219090E+05 -1.138385E+05  8.740891E+04  1.229620E-09  4.184857E-09
       290  11 -6.568829E+04 -4.879094E+05 -6.885614E+04  5.407718E+04  1.723167E-09 -2.465695E-09
       290  12 -3.333405E+04 -3.592036E+05 -3.649665E+04  7.932157E+04 -1.456065E-09 -6.043215E-09
       290  13 -1.325858E+04 -2.213899E+05 -1.592375E+04  8.109336E+04  2.421051E-10 -1.036779E-09
       290  14  2.264980E+02 -2.195578E+05 -7.772685E+03  5.181394E+04  7.117559E-09  2.923463E-10
       290  15  4.208516E+02 -2.213684E+05 -5.579631E+03  8.110996E+04 -6.247398E-10 -3.148766E-09
       290  16  8.647412E+04  1.792756E+05  8.197928E+04  7.477376E+04  6.915096E-10 -3.794981E-09
       290  17  6.613632E+04  4.886072E+04  5.330609E+04  4.954973E+04  2.758882E-09  6.480477E-09
       290  18  3.417447E+04 -8.351556E+04  2.533619E+04  8.289876E+04 -6.154492E-10  2.357256E-09
       290  19 -1.130029E+05 -6.219085E+05 -1.138376E+05  8.740898E+04  4.123346E+03  2.076618E+04
       290  20 -6.568815E+04 -4.879093E+05 -6.885582E+04  5.407724E+04  1.102434E+04  7.079841E+03
       290  21 -3.333399E+04 -3.592035E+05 -3.649649E+04  7.932154E+04  6.502265E+03 -6.623863E+03
       290  22 -1.325854E+04 -2.213898E+05 -1.592353E+04  8.109340E+04  4.135847E+03  1.019675E+04
       290  23  2.266384E+02 -2.195577E+05 -7.772387E+03  5.181400E+04  1.102511E+04  6.095846E+03
       290  24  4.208979E+02 -2.213684E+05 -5.579544E+03  8.110997E+04  6.493334E+03  1.980662E+03
       290  25  8.647414E+04  1.792756E+05  8.197931E+04  7.477376E+04  4.148559E+03 -3.794821E+02
       290  26  6.613646E+04  4.886078E+04  5.330637E+04  4.954978E+04  1.102589E+04  5.111429E+03
       290  27  3.417455E+04 -8.351543E+04  2.533648E+04  8.289882E+04  6.484453E+03  1.058708E+04
       291   1 -6.977338E+03 -2.455586E+05 -1.077960E+04  8.178081E+04 -1.153799E+03  4.307692E+03
       291   2  2.605303E+04 -1.138753E+05  1.874327E+04  5.154530E+04  5.150420E+03  6.659510E+03
       291   3  5.661190E+04  1.708233E+04  4.615520E+04  8.034115E+04  1.121383E+04  9.012476E+03
       291   4 -8.922153E+02 -2.207276E+05 -5.198519E+03  8.120694E+04 -1.148368E+03 -1.089804E+03
       291   5 -4.928929E+00 -2.203431E+05 -5.058185E+03  5.169047E+04  5.156037E+03  1.463525E+03
       291   6 -1.623308E+03 -2.207357E+05 -7.168293E+03  8.120615E+04  1.121956E+04  4.017521E+03
       291   7  5.192882E+03 -1.958959E+05  3.826321E+02  8.063305E+04 -1.142927E+03 -6.487515E+03
       291   8 -2.606364E+04 -3.268002E+05 -2.886025E+04  5.183563E+04  5.161652E+03 -3.731578E+03
       291   9 -5.986236E+04 -4.585009E+05 -6.049528E+04  8.207082E+04  1.122528E+04 -9.755401E+02
       291  10 -6.977344E+03 -2.455586E+05 -1.077964E+04  8.178082E+04 -1.853320E-09  6.762424E-09
       291  11  2.605299E+04 -1.138754E+05  1.874314E+04  5.154527E+04 -8.345451E-11 -3.144413E-09
       291  12  5.661174E+04  1.708221E+04  4.615481E+04  8.034107E+04 -3.174426E-09 -3.622008E-09
       291  13 -8.922171E+02 -2.207276E+05 -5.198524E+03  8.120694E+04 -6.384555E-10  1.185111E-11
       291  14 -4.958048E+00 -2.203431E+05 -5.058239E+03  5.169047E+04 -4.908963E-10  8.043197E-10
       291  15 -1.623448E+03 -2.207357E+05 -7.168560E+03  8.120611E+04 -1.189224E-09 -5.579749E-09
       291  16  5.192869E+03 -1.958959E+05  3.825505E+02  8.063304E+04  1.529307E-09 -6.081642E-09
       291  17 -2.606368E+04 -3.268003E+05 -2.886033E+04  5.183564E+04  1.061742E-09  1.263902E-09
       291  18 -5.986250E+04 -4.585010E+05 -6.049552E+04  8.207083E+04 -1.248073E-09 -2.191455E-11
       291  19 -6.977338E+03 -2.455586E+05 -1.077960E+04  8.178081E+04  1.153799E+03 -4.307692E+03
       291  20  2.605303E+04 -1.138753E+05  1.874327E+04  5.154530E+04 -5.150420E+03 -6.659510E+03
       291  21  5.661190E+04  1.708233E+04  4.615520E+04  8.034115E+04 -1.121383E+04 -9.012476E+03
       291  22 -8.922153E+02 -2.207276E+05 -5.198519E+03  8.120694E+04  1.148368E+03  1.089804E+03
       291  23 -4.928929E+00 -2.203431E+05 -5.058185E+03  5.169047E+04 -5.156037E+03 -1.463525E+03
       291  24 -1.623308E+03 -2.207357E+05 -7.168293E+03  8.120615E+04 -1.121956E+04 -4.017521E+03
       291  25  5.192882E+03 -1.958959E+05  3.826321E+02  8.063305E+04  1.142927E+03  6.487515E+03
       291  26 -2.606364E+04 -3.268002E+05 -2.886025E+04  5.183563E+04 -5.161652E+03  3.731578E+03
       291  27 -5.986236E+04 -4.585009E+05 -6.049528E+04  8.207082E+04 -1.122528E+04  9.755401E+02
       292   1  8.685086E+04  1.288813E+05  6.992488E+04  8.423311E+04  1.705668E+04  1.516262E+04
       292   2  1.185076E+05  2.623422E+05  9.565553E+04  4.771422E+04  2.043343E+04  8.214278E+03
       292   3  1.285237E+05  3.916238E+05  1.205628E+05  6.948896E+04  7.045772E+03  1.239465E+03
       292   4  9.910073E+02 -2.220544E+05 -8.473493E+03  8.105331E+04  1.706861E+04  5.286505E+03
       292   5  4.625079E+02 -2.187515E+05 -1.343521E+04  5.188656E+04  2.042894E+04  1.242114E+04
       292   6 -2.415971E+04 -2.220927E+05 -2.900335E+04  8.101749E+04  7.018917E+03  1.953045E+04
       292   7 -8.487713E+04 -5.728750E+05 -8.687924E+04  7.787534E+04  1.708064E+04 -4.584089E+03
       292   8 -1.175985E+05 -6.996303E+05 -1.225408E+05  5.605569E+04  2.042452E+04  1.662477E+04
       292   9 -1.768702E+05 -8.354648E+05 -1.785956E+05  9.253469E+04  6.992728E+03  3.780340E+04
       292  10  8.685049E+04  1.288810E+05  6.992390E+04  8.423290E+04 -2.809292E-09  6.831588E-09
       292  11  1.185071E+05  2.623420E+05  9.565462E+04  4.771409E+04 -2.555086E-09 -1.258716E-09
       292  12  1.285236E+05  3.916238E+05  1.205627E+05  6.948896E+04  4.408062E-10 -3.795154E-10
       292  13  9.906870E+02 -2.220545E+05 -8.474093E+03  8.105323E+04 -7.141556E-10  1.036609E-09
       292  14  4.620184E+02 -2.187518E+05 -1.343628E+04  5.188635E+04  6.646621E-09  2.157388E-09
       292  15 -2.415986E+04 -2.220932E+05 -2.900416E+04  8.101738E+04  1.410717E-09 -6.160714E-09
       292  16 -8.487745E+04 -5.728751E+05 -8.687983E+04  7.787541E+04  4.052420E-10 -4.337649E-09
       292  17 -1.175990E+05 -6.996307E+05 -1.225421E+05  5.605542E+04  2.431352E-09  4.030404E-09
       292  18 -1.768707E+05 -8.354664E+05 -1.785984E+05  9.253448E+04 -1.679470E-09 -2.159291E-09
       292  19  8.685086E+04  1.288813E+05  6.992488E+04  8.423311E+04 -1.705668E+04 -1.516262E+04
       292  20  1.185076E+05  2.623422E+05  9.565553E+04  4.771422E+04 -2.043343E+04 -8.214278E+03
       292  21  1.285237E+05  3.916238E+05  1.205628E+05  6.948896E+04 -7.045772E+03 -1.239465E+03
       292  22  9.910073E+02 -2.220544E+05 -8.473493E+03  8.105331E+04 -1.706861E+04 -5.286505E+03
       292  23  4.625079E+02 -2.187515E+05 -1.343521E+04  5.188656E+04 -2.042894E+04 -1.242114E+04
       292  24 -2.415971E+04 -2.220927E+05 -2.900335E+04  8.101749E+04 -7.018917E+03 -1.953045E+04
       292  25 -8.487713E+04 -5.728750E+05 -8.687924E+04  7.787534E+04 -1.708064E+04  4.584089E+03
       292  26 -1.175985E+05 -6.996303E+05 -1.225408E+05  5.605569E+04 -2.042452E+04 -1.662477E+04
       292  27 -1.768702E+05 -8.354648E+05 -1.785956E+05  9.253469E+04 -6.992728E+03 -3.780340E+04
       293   1  2.794113E+05  1.430552E+05  1.303274E+05  3.629151E+04  2.946595E+04 -9.984490E+03
       293   2  2.241047E+05  1.493398E+05  1.083641E+05  4.249920E+04  9.496459E+03 -3.351062E+04
       293   3  1.678574E+05  1.413586E+05  9.585027E+04  5.966262E+04 -1.048215E+04 -4.017986E+04
       293   4 -4.393782E+05 -3.432696E+04 -3.795848E+04  5.753334E+04 -2.649000E+04 -1.003217E+04
       293   5 -4.363239E+05 -8.113390E+03 -1.852210E+04  5.203849E+04 -1.691678E+04 -3.353898E+04
       293   6 -4.393478E+05 -1.304386E+03 -1.015613E+04  5.750010E+04 -7.354827E+03 -4.017992E+04
       293   7 -1.157684E+06 -2.117424E+05 -2.062675E+05  7.875031E+04 -8.238159E+04 -1.008371E+04
       293   8 -1.096331E+06 -1.655917E+05 -1.454257E+05  6.156730E+04 -4.330256E+04 -3.356817E+04
       293   9 -1.046192E+06 -1.439874E+05 -1.161756E+05  5.533965E+04 -4.230464E+03 -4.018001E+04
       293  10  2.794103E+05  1.430549E+05  1.303255E+05  3.629175E+04 -3.365998E-11  2.771658E-10
       293  11  2.241043E+05  1.493386E+05  1.083618E+05  4.249945E+04 -1.701308E-08 -5.180888E-10
       293  12  1.678569E+05  1.413568E+05  9.584703E+04  5.966228E+04 -2.658670E-08 -2.911484E-10
       293  13 -4.393790E+05 -3.432726E+04 -3.795999E+04  5.753313E+04 -1.389260E-10 -2.820151E-10
       293  14 -4.363245E+05 -8.114674E+03 -1.852475E+04  5.203804E+04 -1.075041E-09 -5.256385E-09
       293  15 -4.393483E+05 -1.306133E+03 -1.015926E+04  5.749987E+04 -4.086539E-09 -7.394671E-09
       293  16 -1.157691E+06 -2.117444E+05 -2.062805E+05  7.874964E+04  5.972709E-10  2.632343E-10
       293  17 -1.096333E+06 -1.655934E+05 -1.454313E+05  6.156613E+04  1.591959E-08 -2.361243E-09
       293  18 -1.046192E+06 -1.439891E+05 -1.161787E+05  5.533951E+04  2.644863E-08 -2.003795E-09
       293  19  2.794113E+05  1.430552E+05  1.303274E+05  3.629151E+04 -2.946595E+04  9.984490E+03
       293  20  2.241047E+05  1.493398E+05  1.083641E+05  4.249920E+04 -9.496459E+03  3.351062E+04
       293  21  1.678574E+05  1.413586E+05  9.585027E+04  5.966262E+04  1.048215E+04  4.017986E+04
       293  22 -4.393782E+05 -3.432696E+04 -3.795848E+04  5.753334E+04  2.649000E+04  1.003217E+04
       293  23 -4.363239E+05 -8.113390E+03 -1.852210E+04  5.203849E+04  1.691678E+04  3.353898E+04
       293  24 -4.393478E+05 -1.304386E+03 -1.015613E+04  5.750010E+04  7.354827E+03  4.017992E+04
       293  25 -1.157684E+06 -2.117424E+05 -2.062675E+05  7.875031E+04  8.238159E+04  1.008371E+04
       293  26 -1.096331E+06 -1.655917E+05 -1.454257E+05  6.156730E+04  4.330256E+04  3.356817E+04
       293  27 -1.046192E+06 -1.439874E+05 -1.161756E+05  5.533965E+04  4.230464E+03  4.018001E+04
       294   1  1.322098E+05  1.321654E+05  9.069151E+04  5.754159E+04 -7.570452E+03 -3.875765E+04
       294   2  7.649982E+04  1.199369E+05  8.207036E+04  5.195564E+04 -8.237728E+03 -3.709103E+04
       294   3  2.072737E+04  1.071337E+05  7.373903E+04  5.846289E+04 -8.907872E+03 -3.383480E+04
       294   4 -4.381114E+05 -1.595776E+03 -7.713200E+03  5.775671E+04 -6.037287E+03 -3.875909E+04
       294   5 -4.378272E+05 -2.098492E+02 -4.240773E+03  5.170869E+04 -3.920607E+03 -3.708851E+04
       294   6 -4.380916E+05  1.178978E+02 -2.412623E+03  5.775452E+04 -1.806806E+03 -3.382765E+04
       294   7 -1.008113E+06 -1.353744E+05 -1.061290E+05  5.797154E+04 -4.505486E+03 -3.876052E+04
       294   8 -9.518933E+05 -1.203704E+05 -9.056012E+04  5.146187E+04  3.930555E+02 -3.708599E+04
       294   9 -8.967025E+05 -1.069088E+05 -7.857043E+04  5.704661E+04  5.289190E+03 -3.382052E+04
       294  10  1.322093E+05  1.321638E+05  9.068858E+04  5.754135E+04  2.663122E-08 -5.623466E-10
       294  11  7.649938E+04  1.199354E+05  8.206765E+04  5.195539E+04  1.684570E-08  2.113838E-09
       294  12  2.072698E+04  1.071325E+05  7.373673E+04  5.846265E+04  2.563396E-09  2.653131E-09
       294  13 -4.381118E+05 -1.597399E+03 -7.716091E+03  5.775653E+04 -1.079545E-09 -9.106078E-09
       294  14 -4.378276E+05 -2.113301E+02 -4.243386E+03  5.170858E+04  2.149398E-09 -4.136878E-09
       294  15 -4.380920E+05  1.166684E+02 -2.414780E+03  5.775447E+04 -2.023793E-09 -2.865731E-09
       294  16 -1.008114E+06 -1.353760E+05 -1.061319E+05  5.797140E+04 -2.832435E-08  1.289628E-09
       294  17 -9.518937E+05 -1.203719E+05 -9.056270E+04  5.146188E+04 -1.665138E-08  8.415849E-10
       294  18 -8.967028E+05 -1.069101E+05 -7.857263E+04  5.704676E+04 -5.086125E-09 -1.560517E-09
       294  19  1.322098E+05  1.321654E+05  9.069151E+04  5.754159E+04  7.570452E+03  3.875765E+04
       294  20  7.649982E+04  1.199369E+05  8.207036E+04  5.195564E+04  8.237728E+03  3.709103E+04
       294  21  2.072737E+04  1.071337E+05  7.373903E+04  5.846289E+04  8.907872E+03  3.383480E+04
       294  22 -4.381114E+05 -1.595776E+03 -7.713200E+03  5.775671E+04  6.037287E+03  3.875909E+04
       294  23 -4.378272E+05 -2.098492E+02 -4.240773E+03  5.170869E+04  3.920607E+03  3.708851E+04
       294  24 -4.380916E+05  1.178978E+02 -2.412623E+03  5.775452E+04  1.806806E+03  3.382765E+04
       294  25 -1.008113E+06 -1.353744E+05 -1.061290E+05  5.797154E+04  4.505486E+03  3.876052E+04
       294  26 -9.518933E+05 -1.203704E+05 -9.056012E+04  5.146187E+04 -3.930555E+02  3.708599E+04
       294  27 -8.967025E+05 -1.069088E+05 -7.857043E+04  5.704661E+04 -5.289190E+03  3.382052E+04
       295   1 -1.531891E+04  9.862049E+04  6.801265E+04  5.830627E+04 -8.393433E+03 -3.143929E+04
       295   2 -7.110437E+04  8.563281E+04  5.944913E+04  5.213775E+04 -8.143114E+03 -2.739476E+04
       295   3 -1.269414E+05  7.266739E+04  5.072059E+04  5.818394E+04 -7.894085E+03 -2.319891E+04
       295   4 -4.379860E+05  9.645889E+01 -1.833172E+03  5.778177E+04 -1.439776E+03 -3.143170E+04
       295   5 -4.379287E+05  1.471408E+02 -1.049063E+03  5.167415E+04 -9.249557E+02 -2.738589E+04
       295   6 -4.379722E+05  1.742168E+02 -6.139928E+02  5.778166E+04 -4.114036E+02 -2.318872E+04
       295   7 -8.604763E+05 -9.843678E+04 -7.168411E+04  5.725757E+04  5.509307E+03 -3.142412E+04
       295   8 -8.046198E+05 -8.534544E+04 -6.155102E+04  5.121078E+04  6.289082E+03 -2.737704E+04
       295   9 -7.489071E+05 -7.232392E+04 -5.195122E+04  5.737955E+04  7.067656E+03 -2.317854E+04
       295  10 -1.531925E+04  9.861941E+04  6.801066E+04  5.830606E+04 -2.691735E-09  3.285260E-09
       295  11 -7.110464E+04  8.563198E+04  5.944759E+04  5.213757E+04  2.828201E-09  3.430528E-09
       295  12 -1.269416E+05  7.266679E+04  5.071946E+04  5.818379E+04  5.723809E-09  1.805916E-09
       295  13 -4.379863E+05  9.539767E+01 -1.835032E+03  5.778173E+04 -7.766448E-10 -1.664206E-09
       295  14 -4.379289E+05  1.463354E+02 -1.050474E+03  5.167413E+04 -3.242367E-09  3.866781E-09
       295  15 -4.379723E+05  1.736394E+02 -6.150033E+02  5.778165E+04  1.362223E-09  4.208524E-09
       295  16 -8.604766E+05 -9.843785E+04 -7.168602E+04  5.725771E+04 -7.369606E-10 -4.133435E-10
       295  17 -8.046201E+05 -8.534626E+04 -6.155250E+04  5.121092E+04 -1.850084E-09  3.519037E-09
       295  18 -7.489073E+05 -7.232451E+04 -5.195233E+04  5.737968E+04 -5.308631E-09  1.730100E-09
       295  19 -1.531891E+04  9.862049E+04  6.801265E+04  5.830627E+04  8.393433E+03  3.143929E+04
       295  20 -7.110437E+04  8.563281E+04  5.944913E+04  5.213775E+04  8.143114E+03  2.739476E+04
       295  21 -1.269414E+05  7.266739E+04  5.072059E+04  5.818394E+04  7.894085E+03  2.319891E+04
       295  22 -4.379860E+05  9.645889E+01 -1.833172E+03  5.778177E+04  1.439776E+03  3.143170E+04
       295  23 -4.379287E+05  1.471408E+02 -1.049063E+03  5.167415E+04  9.249557E+02  2.738589E+04
       295  24 -4.379722E+05  1.742168E+02 -6.139928E+02  5.778166E+04  4.114036E+02  2.318872E+04
       295  25 -8.604763E+05 -9.843678E+04 -7.168411E+04  5.725757E+04 -5.509307E+03  3.142412E+04
       295  26 -8.046198E+05 -8.534544E+04 -6.155102E+04  5.121078E+04 -6.289082E+03  2.737704E+04
       295  27 -7.489071E+05 -7.232392E+04 -5.195122E+04  5.737955E+04 -7.067656E+03  2.317854E+04
       296   1 -1.630453E+05  6.420519E+04  4.466628E+04  5.813713E+04 -7.786976E+03 -2.070906E+04
       296   2 -2.188871E+05  5.119788E+04  3.574131E+04  5.194489E+04 -7.667405E+03 -1.643688E+04
       296   3 -2.747714E+05  3.822948E+04  2.673685E+04  5.798901E+04 -7.548522E+03 -1.215021E+04
       296   4 -4.379570E+05  1.751679E+02 -4.772612E+02  5.778645E+04 -3.163363E+02 -2.069844E+04
       296   5 -4.379275E+05  1.640456E+02 -3.045718E+02  5.166814E+04 -1.718353E+02 -1.642565E+04
       296   6 -4.379488E+05  1.873647E+02 -2.291102E+02  5.778644E+04 -2.801164E+01 -1.213838E+04
       296   7 -7.127938E+05 -6.385871E+04 -4.562279E+04  5.743591E+04  7.151108E+03 -2.068783E+04
       296   8 -6.569203E+05 -5.087223E+04 -3.635164E+04  5.139148E+04  7.321180E+03 -1.641444E+04
       296   9 -6.010997E+05 -3.785609E+04 -2.719565E+04  5.758391E+04  7.490588E+03 -1.212656E+04
       296  10 -1.630454E+05  6.420471E+04  4.466537E+04  5.813700E+04  3.768310E-09  2.077290E-09
       296  11 -2.188873E+05  5.119758E+04  3.574069E+04  5.194479E+04  3.370679E-09  6.100822E-09
       296  12 -2.747715E+05  3.822930E+04  2.673646E+04  5.798894E+04  2.319101E-09  5.356011E-09
       296  13 -4.379571E+05  1.747079E+02 -4.780663E+02  5.778645E+04  1.069857E-09  1.952622E-09
       296  14 -4.379276E+05  1.637560E+02 -3.050788E+02  5.166814E+04 -1.402639E-09  4.720712E-09
       296  15 -4.379489E+05  1.872065E+02 -2.293870E+02  5.778644E+04 -8.768253E-10  8.595921E-10
       296  16 -7.127940E+05 -6.385918E+04 -4.562369E+04  5.743603E+04 -3.334290E-09  8.635091E-10
       296  17 -6.569204E+05 -5.087254E+04 -3.635225E+04  5.139158E+04 -5.343911E-09  2.926711E-09
       296  18 -6.010998E+05 -3.785627E+04 -2.719603E+04  5.758399E+04  2.427241E-10 -3.538513E-10
       296  19 -1.630453E+05  6.420519E+04  4.466628E+04  5.813713E+04  7.786976E+03  2.070906E+04
       296  20 -2.188871E+05  5.119788E+04  3.574131E+04  5.194489E+04  7.667405E+03  1.643688E+04
       296  21 -2.747714E+05  3.822948E+04  2.673685E+04  5.798901E+04  7.548522E+03  1.215021E+04
       296  22 -4.379570E+05  1.751679E+02 -4.772612E+02  5.778645E+04  3.163363E+02  2.069844E+04
       296  23 -4.379275E+05  1.640456E+02 -3.045718E+02  5.166814E+04  1.718353E+02  1.642565E+04
       296  24 -4.379488E+05  1.873647E+02 -2.291102E+02  5.778644E+04  2.801164E+01  1.213838E+04
       296  25 -7.127938E+05 -6.385871E+04 -4.562279E+04  5.743591E+04 -7.151108E+03  2.068783E+04
       296  26 -6.569203E+05 -5.087223E+04 -3.635164E+04  5.139148E+04 -7.321180E+03  1.641444E+04
       296  27 -6.010997E+05 -3.785609E+04 -2.719565E+04  5.758391E+04 -7.490588E+03  1.212656E+04
       297   1 -3.109067E+05  2.976516E+04  2.056080E+04  5.794338E+04 -7.512024E+03 -9.650148E+03
       297   2 -3.667666E+05  1.675364E+04  1.144572E+04  5.174068E+04 -7.381974E+03 -5.358917E+03
       297   3 -4.226796E+05  3.775544E+03  2.240592E+03  5.778260E+04 -7.252136E+03 -1.074532E+03
       297   4 -4.379473E+05  1.898917E+02 -2.197380E+02  5.778824E+04  8.861789E+00 -9.638094E+03
       297   5 -4.379194E+05  1.769308E+02 -2.519914E+02  5.166589E+04  1.266419E+02 -5.346700E+03
       297   6 -4.379447E+05  1.998494E+02 -3.656629E+02  5.778823E+04  2.442210E+02 -1.062149E+03
       297   7 -5.649719E+05 -2.938617E+04 -2.100052E+04  5.763313E+04  7.528261E+03 -9.626043E+03
       297   8 -5.090671E+05 -1.640001E+04 -1.194964E+04  5.159110E+04  7.634426E+03 -5.334483E+03
       297   9 -4.532095E+05 -3.375827E+03 -2.971714E+03  5.779386E+04  7.740399E+03 -1.049766E+03
       297  10 -3.109068E+05  2.976504E+04  2.056052E+04  5.794332E+04  3.783665E-09  2.283674E-09
       297  11 -3.667666E+05  1.675359E+04  1.144556E+04  5.174065E+04  1.368404E-09  1.158899E-10
       297  12 -4.226796E+05  3.775529E+03  2.240491E+03  5.778259E+04 -3.995857E-09 -1.453865E-10
       297  13 -4.379474E+05  1.897920E+02 -2.199125E+02  5.778824E+04  1.832501E-09  4.558340E-09
       297  14 -4.379194E+05  1.769001E+02 -2.520451E+02  5.166589E+04 -1.598290E-10  4.121282E-10
       297  15 -4.379447E+05  1.998482E+02 -3.656651E+02  5.778823E+04  3.345595E-10 -1.565874E-09
       297  16 -5.649720E+05 -2.938628E+04 -2.100080E+04  5.763319E+04 -2.384430E-09  1.607054E-09
       297  17 -5.090671E+05 -1.640005E+04 -1.194980E+04  5.159113E+04  3.946010E-09 -1.980489E-10
       297  18 -4.532095E+05 -3.375844E+03 -2.971829E+03  5.779387E+04  4.405857E-09 -1.465117E-09
       297  19 -3.109067E+05  2.976516E+04  2.056080E+04  5.794338E+04  7.512024E+03  9.650148E+03
       297  20 -3.667666E+05  1.675364E+04  1.144572E+04  5.174068E+04  7.381974E+03  5.358917E+03
       297  21 -4.226796E+05  3.775544E+03  2.240592E+03  5.778260E+04  7.252136E+03  1.074532E+03
       297  22 -4.379473E+05  1.898917E+02 -2.197380E+02  5.778824E+04 -8.861789E+00  9.638094E+03
       297  23 -4.379194E+05  1.769308E+02 -2.519914E+02  5.166589E+04 -1.266419E+02  5.346700E+03
       297  24 -4.379447E+05  1.998494E+02 -3.656629E+02  5.778823E+04 -2.442210E+02  1.062149E+03
       297  25 -5.649719E+05 -2.938617E+04 -2.100052E+04  5.763313E+04 -7.528261E+03  9.626043E+03
       297  26 -5.090671E+05 -1.640001E+04 -1.194964E+04  5.159110E+04 -7.634426E+03  5.334483E+03
       297  27 -4.532095E+05 -3.375827E+03 -2.971714E+03  5.779386E+04 -7.740399E+03  1.049766E+03
       298   1 -4.588325E+05 -4.692127E+03 -4.048555E+03  5.772363E+04 -7.189735E+03  1.422007E+03
       298   2 -5.146531E+05 -1.771714E+04 -1.349829E+04  5.152199E+04 -6.654110E+03  5.663386E+03
       298   3 -5.705955E+05 -3.077563E+04 -2.331890E+04  5.755890E+04 -6.118171E+03  9.813786E+03
       298   4 -4.379545E+05  2.031364E+02 -4.619552E+02  5.778682E+04  3.148463E+02  1.434399E+03
       298   5 -4.379074E+05  1.857299E+02 -7.735506E+02  5.166763E+04  6.909028E+02  5.675319E+03
       298   6 -4.379575E+05  1.626881E+02 -1.345240E+03  5.778689E+04  1.067321E+03  9.825268E+03
       298   7 -4.170760E+05  5.098407E+03  3.124842E+03  5.785002E+04  7.819672E+03  1.446792E+03
       298   8 -3.611558E+05  1.808832E+04  1.195121E+04  5.181330E+04  8.036794E+03  5.687254E+03
       298   9 -3.053019E+05  3.110012E+04  2.062809E+04  5.801493E+04  8.254297E+03  9.836753E+03
       298  10 -4.588325E+05 -4.692143E+03 -4.048656E+03  5.772363E+04 -7.478191E-09  3.188660E-09
       298  11 -5.146532E+05 -1.771719E+04 -1.349843E+04  5.152202E+04 -1.984796E-08  1.529999E-09
       298  12 -5.705956E+05 -3.077574E+04 -2.331915E+04  5.755894E+04 -2.781579E-08  2.471477E-09
       298  13 -4.379545E+05  2.031341E+02 -4.619592E+02  5.778682E+04 -1.313884E-11 -7.644713E-10
       298  14 -4.379074E+05  1.856952E+02 -7.736120E+02  5.166763E+04  1.073811E-09 -4.368411E-09
       298  15 -4.379575E+05  1.625842E+02 -1.345424E+03  5.778689E+04  2.834376E-09 -7.506007E-09
       298  16 -4.170761E+05  5.098388E+03  3.124723E+03  5.785001E+04  7.684238E-09  1.342162E-09
       298  17 -3.611558E+05  1.808827E+04  1.195103E+04  5.181326E+04  2.083662E-08 -3.360095E-09
       298  18 -3.053020E+05  3.110000E+04  2.062778E+04  5.801487E+04  2.891598E-08 -1.599278E-09
       298  19 -4.588325E+05 -4.692127E+03 -4.048555E+03  5.772363E+04  7.189735E+03 -1.422007E+03
       298  20 -5.146531E+05 -1.771714E+04 -1.349829E+04  5.152199E+04  6.654110E+03 -5.663386E+03
       298  21 -5.705955E+05 -3.077563E+04 -2.331890E+04  5.755890E+04  6.118171E+03 -9.813786E+03
       298  22 -4.379545E+05  2.031364E+02 -4.619552E+02  5.778682E+04 -3.148463E+02 -1.434399E+03
       298  23 -4.379074E+05  1.857299E+02 -7.735506E+02  5.166763E+04 -6.909028E+02 -5.675319E+03
       298  24 -4.379575E+05  1.626881E+02 -1.345240E+03  5.778689E+04 -1.067321E+03 -9.825268E+03
       298  25 -4.170760E+05  5.098407E+03  3.124842E+03  5.785002E+04 -7.819672E+03 -1.446792E+03
       298  26 -3.611558E+05  1.808832E+04  1.195121E+04  5.181330E+04 -8.036794E+03 -5.687254E+03
       298  27 -3.053019E+05  3.110012E+04  2.062809E+04  5.801493E+04 -8.254297E+03 -9.836753E+03
       299   1 -6.068451E+05 -3.924990E+04 -3.000836E+04  5.738249E+04 -5.940882E+03  1.225462E+04
       299   2 -6.623390E+05 -5.258720E+04 -4.109026E+04  5.158925E+04 -2.708562E+03  1.593317E+04
       299   3 -7.185546E+05 -6.698115E+04 -5.455359E+04  5.796599E+04  5.253697E+02  1.864696E+04
       299   4 -4.380340E+05  1.816893E+02 -1.768759E+03  5.777134E+04  1.334549E+03  1.226602E+04
       299   5 -4.378225E+05 -5.822506E+01 -3.103972E+03  5.168745E+04  2.878267E+03  1.594139E+04
       299   6 -4.380429E+05 -1.061269E+03 -5.647029E+03  5.777330E+04  4.423902E+03  1.865217E+04
       299   7 -2.691946E+05  3.961182E+04  2.647016E+04  5.816029E+04  8.611893E+03  1.227743E+04
       299   8 -2.132561E+05  5.246810E+04  3.488082E+04  5.178567E+04  8.467053E+03  1.594961E+04
       299   9 -1.574539E+05  6.485436E+04  4.325681E+04  5.758049E+04  8.324144E+03  1.865738E+04
       299  10 -6.068452E+05 -3.925007E+04 -3.000870E+04  5.738255E+04  2.064947E-08  3.799508E-09
       299  11 -6.623391E+05 -5.258747E+04 -4.109076E+04  5.158928E+04  3.064155E-08  8.999962E-11
       299  12 -7.185547E+05 -6.698153E+04 -5.455425E+04  5.796598E+04  3.040567E-08  3.211189E-09
       299  13 -4.380340E+05  1.815273E+02 -1.769045E+03  5.777133E+04  2.136438E-09 -5.941897E-09
       299  14 -4.378225E+05 -5.850012E+01 -3.104465E+03  5.168741E+04  3.223317E-09 -2.872435E-09
       299  15 -4.380430E+05 -1.061647E+03 -5.647720E+03  5.777323E+04 -4.121546E-10 -5.741857E-10
       299  16 -2.691947E+05  3.961163E+04  2.646973E+04  5.816021E+04 -1.988917E-08  1.006524E-09
       299  17 -2.132563E+05  5.246781E+04  3.488020E+04  5.178556E+04 -2.605574E-08  2.028255E-09
       299  18 -1.574541E+05  6.485396E+04  4.325603E+04  5.758037E+04 -2.882443E-08 -2.564773E-09
       299  19 -6.068451E+05 -3.924990E+04 -3.000836E+04  5.738249E+04  5.940882E+03 -1.225462E+04
       299  20 -6.623390E+05 -5.258720E+04 -4.109026E+04  5.158925E+04  2.708562E+03 -1.593317E+04
       299  21 -7.185546E+05 -6.698115E+04 -5.455359E+04  5.796599E+04 -5.253697E+02 -1.864696E+04
       299  22 -4.380340E+05  1.816893E+02 -1.768759E+03  5.777134E+04 -1.334549E+03 -1.226602E+04
       299  23 -4.378225E+05 -5.822506E+01 -3.103972E+03  5.168745E+04 -2.878267E+03 -1.594139E+04
       299  24 -4.380429E+05 -1.061269E+03 -5.647029E+03  5.777330E+04 -4.423902E+03 -1.865217E+04
       299  25 -2.691946E+05  3.961182E+04  2.647016E+04  5.816029E+04 -8.611893E+03 -1.227743E+04
       299  26 -2.132561E+05  5.246810E+04  3.488082E+04  5.178567E+04 -8.467053E+03 -1.594961E+04
       299  27 -1.574539E+05  6.485436E+04  4.325681E+04  5.758049E+04 -8.324144E+03 -1.865738E+04
       300   1 -7.560785E+05 -7.551251E+04 -6.339721E+04  5.603775E+04  5.213017E+02  2.049596E+04
       300   2 -8.081747E+05 -9.460308E+04 -8.577575E+04  5.882646E+04  2.543057E+04  1.819268E+04
       300   3 -8.678739E+05 -1.310212E+05 -1.287195E+05  7.310355E+04  5.035012E+04  5.651736E+03
       300   4 -4.389481E+05 -8.453094E+02 -7.435714E+03  5.761765E+04  5.386682E+03  2.050233E+04
       300   5 -4.367132E+05 -5.837933E+03 -1.355789E+04  5.189054E+04  1.238116E+04  1.817283E+04
       300   6 -4.389667E+05 -2.503970E+04 -2.779115E+04  5.765228E+04  1.938834E+04  5.607792E+03
       300   7 -1.217191E+05  7.381640E+04  4.852219E+04  5.919836E+04  1.025448E+04  2.050872E+04
       300   8 -6.511869E+04  8.291923E+04  5.865411E+04  4.495032E+04 -6.759015E+02  1.815328E+04
       300   9 -9.887327E+03  8.093008E+04  7.312827E+04  4.219020E+04 -1.159474E+04  5.565408E+03
       300  10 -7.560786E+05 -7.551297E+04 -6.339800E+04  5.603774E+04 -2.610375E-08  3.986429E-09
       300  11 -8.081755E+05 -9.460361E+04 -8.577759E+04  5.882608E+04 -9.792698E-09  1.850928E-09
       300  12 -8.678767E+05 -1.310219E+05 -1.287243E+05  7.310332E+04  6.789528E-09  3.778017E-10
       300  13 -4.389482E+05 -8.457685E+02 -7.436558E+03  5.761757E+04  2.939842E-09  2.816437E-09
       300  14 -4.367135E+05 -5.838329E+03 -1.355880E+04  5.189036E+04  1.389194E-09  4.356463E-10
       300  15 -4.389671E+05 -2.503984E+04 -2.779192E+04  5.765219E+04  1.460852E-09  1.647802E-09
       300  16 -1.217193E+05  7.381592E+04  4.852120E+04  5.919819E+04  2.675608E-08  1.891053E-09
       300  17 -6.511877E+04  8.291888E+04  5.865349E+04  4.495033E+04  1.332875E-08  2.692561E-09
       300  18 -9.887479E+03  8.093001E+04  7.312796E+04  4.219025E+04 -7.723607E-09 -7.158412E-10
       300  19 -7.560785E+05 -7.551251E+04 -6.339721E+04  5.603775E+04 -5.213017E+02 -2.049596E+04
       300  20 -8.081747E+05 -9.460308E+04 -8.577575E+04  5.882646E+04 -2.543057E+04 -1.819268E+04
       300  21 -8.678739E+05 -1.310212E+05 -1.287195E+05  7.310355E+04 -5.035012E+04 -5.651736E+03
       300  22 -4.389481E+05 -8.453094E+02 -7.435714E+03  5.761765E+04 -5.386682E+03 -2.050233E+04
       300  23 -4.367132E+05 -5.837933E+03 -1.355789E+04  5.189054E+04 -1.238116E+04 -1.817283E+04
       300  24 -4.389667E+05 -2.503970E+04 -2.779115E+04  5.765228E+04 -1.938834E+04 -5.607792E+03
       300  25 -1.217191E+05  7.381640E+04  4.852219E+04  5.919836E+04 -1.025448E+04 -2.050872E+04
       300  26 -6.511869E+04  8.291923E+04  5.865411E+04  4.495032E+04  6.759015E+02 -1.815328E+04
       300  27 -9.887327E+03  8.093008E+04  7.312827E+04  4.219020E+04  1.159474E+04 -5.565408E+03
       301   1 -6.422573E+04  8.057652E+04  6.830469E+04  3.941781E+03 -2.012848E+04 -6.487727E+03
       301   2 -9.876390E+04  1.147217E+05  8.016927E+04  8.600841E+03 -1.804993E+04 -2.026341E+04
       301   3 -1.442351E+05  1.060989E+05  8.000845E+04  3.067199E+04 -1.598895E+04 -2.097825E+04
       301   4 -5.680094E+05 -4.463986E+04 -5.413691E+04  2.365659E+04 -3.716585E+04 -6.511656E+03
       301   5 -5.615736E+05  1.217087E+03 -2.450272E+04  1.491562E+04 -2.412505E+04 -2.027383E+04
       301   6 -5.679861E+05  2.384069E+03 -1.451842E+04  2.358801E+04 -1.110143E+04 -2.097089E+04
       301   7 -1.071560E+06 -1.698733E+05 -1.765956E+05  4.335527E+04 -5.418942E+04 -6.536678E+03
       301   8 -1.024184E+06 -1.123021E+05 -1.291883E+05  2.122557E+04 -3.019568E+04 -2.028438E+04
       301   9 -9.915695E+05 -1.013428E+05 -1.090564E+05  1.650885E+04 -6.217199E+03 -2.096365E+04
       301  10 -6.422618E+04  8.057636E+04  6.830385E+04  3.941676E+03 -5.618795E-09  1.322761E-09
       301  11 -9.876436E+04  1.147212E+05  8.016789E+04  8.600546E+03  1.723961E-09  5.999511E-09
       301  12 -1.442355E+05  1.060984E+05  8.000714E+04  3.067172E+04  3.477755E-09  7.222072E-10
       301  13 -5.680109E+05 -4.464028E+04 -5.413959E+04  2.365639E+04  1.095442E-09 -5.631905E-10
       301  14 -5.615743E+05  1.216490E+03 -2.450459E+04  1.491522E+04  2.882380E-09 -4.381786E-09
       301  15 -5.679864E+05  2.383564E+03 -1.451948E+04  2.358782E+04  4.975117E-10  8.845626E-11
       301  16 -1.071563E+06 -1.698741E+05 -1.766012E+05  4.335499E+04  4.950252E-09  7.769138E-10
       301  17 -1.024185E+06 -1.123028E+05 -1.291908E+05  2.122507E+04 -1.477269E-09  3.920548E-09
       301  18 -9.915697E+05 -1.013433E+05 -1.090573E+05  1.650875E+04 -1.913371E-09  7.546035E-10
       301  19 -6.422573E+04  8.057652E+04  6.830469E+04  3.941781E+03  2.012848E+04  6.487727E+03
       301  20 -9.876390E+04  1.147217E+05  8.016927E+04  8.600841E+03  1.804993E+04  2.026341E+04
       301  21 -1.442351E+05  1.060989E+05  8.000845E+04  3.067199E+04  1.598895E+04  2.097825E+04
       301  22 -5.680094E+05 -4.463986E+04 -5.413691E+04  2.365659E+04  3.716585E+04  6.511656E+03
       301  23 -5.615736E+05  1.217087E+03 -2.450272E+04  1.491562E+04  2.412505E+04  2.027383E+04
       301  24 -5.679861E+05  2.384069E+03 -1.451842E+04  2.358801E+04  1.110143E+04  2.097089E+04
       301  25 -1.071560E+06 -1.698733E+05 -1.765956E+05  4.335527E+04  5.418942E+04  6.536678E+03
       301  26 -1.024184E+06 -1.123021E+05 -1.291883E+05  2.122557E+04  3.019568E+04  2.028438E+04
       301  27 -9.915695E+05 -1.013428E+05 -1.090564E+05  1.650885E+04  6.217199E+03  2.096365E+04
       302   1 -1.762864E+05  9.260915E+04  7.565350E+04  2.331665E+04 -9.995243E+03 -1.841091E+04
       302   2 -2.160193E+05  8.554946E+04  7.173710E+04  1.497657E+04 -7.357212E+03 -1.694969E+04
       302   3 -2.568013E+05  7.579497E+04  6.542232E+04  2.472354E+04 -4.721404E+03 -1.489425E+04
       302   4 -5.653798E+05 -2.688058E+03 -1.159962E+04  2.375983E+04 -9.017683E+03 -1.841002E+04
       302   5 -5.648058E+05  1.684309E+02 -6.234785E+03  1.471324E+04 -5.882408E+03 -1.694760E+04
       302   6 -5.653701E+05  2.426884E+02 -3.615120E+03  2.375439E+04 -2.749196E+03 -1.489079E+04
       302   7 -9.543321E+05 -9.799560E+04 -9.886232E+04  2.420267E+04 -8.040728E+03 -1.840913E+04
       302   8 -9.134788E+05 -8.522088E+04 -8.421432E+04  1.445001E+04 -4.408424E+03 -1.694550E+04
       302   9 -8.738502E+05 -7.531607E+04 -7.265856E+04  2.278568E+04 -7.779568E+02 -1.488734E+04
       302  10 -1.762866E+05  9.260876E+04  7.565268E+04  2.331650E+04 -2.121650E-09 -2.235199E-09
       302  11 -2.160195E+05  8.554913E+04  7.173645E+04  1.497647E+04 -6.465414E-10  2.557446E-09
       302  12 -2.568014E+05  7.579472E+04  6.542186E+04  2.472348E+04  2.897854E-09  2.925004E-09
       302  13 -5.653799E+05 -2.688444E+03 -1.160041E+04  2.375970E+04 -1.638748E-09  4.992387E-09
       302  14 -5.648059E+05  1.681132E+02 -6.235390E+03  1.471316E+04 -1.001474E-09 -1.101324E-08
       302  15 -5.653702E+05  2.424484E+02 -3.615551E+03  2.375435E+04  4.200326E-09  3.895324E-09
       302  16 -9.543323E+05 -9.799598E+04 -9.886308E+04  2.420255E+04  8.970161E-10 -4.349548E-09
       302  17 -9.134789E+05 -8.522119E+04 -8.421490E+04  1.444995E+04  4.341071E-09 -1.996274E-09
       302  18 -8.738503E+05 -7.531631E+04 -7.265897E+04  2.278567E+04 -2.629191E-09 -5.194988E-10
       302  19 -1.762864E+05  9.260915E+04  7.565350E+04  2.331665E+04  9.995243E+03  1.841091E+04
       302  20 -2.160193E+05  8.554946E+04  7.173710E+04  1.497657E+04  7.357212E+03  1.694969E+04
       302  21 -2.568013E+05  7.579497E+04  6.542232E+04  2.472354E+04  4.721404E+03  1.489425E+04
       302  22 -5.653798E+05 -2.688058E+03 -1.159962E+04  2.375983E+04  9.017683E+03  1.841002E+04
       302  23 -5.648058E+05  1.684309E+02 -6.234785E+03  1.471324E+04  5.882408E+03  1.694760E+04
       302  24 -5.653701E+05  2.426884E+02 -3.615120E+03  2.375439E+04  2.749196E+03  1.489079E+04
       302  25 -9.543321E+05 -9.799560E+04 -9.886232E+04  2.420267E+04  8.040728E+03  1.840913E+04
       302  26 -9.134788E+05 -8.522088E+04 -8.421432E+04  1.445001E+04  4.408424E+03  1.694550E+04
       302  27 -8.738502E+05 -7.531607E+04 -7.265856E+04  2.278568E+04  7.779568E+02  1.488734E+04
       303   1 -2.913165E+05  6.694521E+04  5.829285E+04  2.423825E+04 -3.988818E+03 -1.356225E+04
       303   2 -3.317602E+05  5.718495E+04  5.052079E+04  1.507925E+04 -3.224905E+03 -1.140217E+04
       303   3 -3.724023E+05  4.732442E+04  4.220876E+04  2.416775E+04 -2.461796E+03 -9.211231E+03
       303   4 -5.651579E+05 -6.583285E+01 -2.787497E+03  2.379170E+04 -2.188644E+03 -1.355893E+04
       303   5 -5.650531E+05  7.824631E+01 -1.599634E+03  1.466755E+04 -1.399182E+03 -1.139853E+04
       303   6 -5.651522E+05  1.177857E+02 -9.694780E+02  2.379131E+04 -6.104755E+02 -9.207269E+03
       303   7 -8.389293E+05 -6.708197E+04 -6.387254E+04  2.334532E+04 -3.892560E+02 -1.355562E+04
       303   8 -7.982952E+05 -5.703216E+04 -5.372347E+04  1.425598E+04  4.258608E+02 -1.139490E+04
       303   9 -7.578675E+05 -4.709138E+04 -4.415005E+04  2.341497E+04  1.240276E+03 -9.203308E+03
       303  10 -2.913166E+05  6.694500E+04  5.829248E+04  2.423821E+04 -1.827895E-09 -5.171620E-09
       303  11 -3.317602E+05  5.718481E+04  5.052053E+04  1.507922E+04  4.312572E-09 -4.806148E-09
       303  12 -3.724024E+05  4.732433E+04  4.220859E+04  2.416773E+04  8.340624E-09 -2.610304E-10
       303  13 -5.651580E+05 -6.603150E+01 -2.787851E+03  2.379168E+04  1.107891E-09 -3.118305E-09
       303  14 -5.650531E+05  7.810630E+01 -1.599882E+03  1.466754E+04  3.513908E-09 -4.510594E-09
       303  15 -5.651522E+05  1.176945E+02 -9.696380E+02  2.379131E+04  4.192537E-09 -6.944159E-10
       303  16 -8.389294E+05 -6.708216E+04 -6.387289E+04  2.334531E+04  2.781586E-09 -4.615444E-09
       303  17 -7.982952E+05 -5.703230E+04 -5.372372E+04  1.425598E+04 -1.180756E-09  4.407616E-09
       303  18 -7.578675E+05 -4.709147E+04 -4.415021E+04  2.341498E+04 -9.986051E-09  9.217033E-09
       303  19 -2.913165E+05  6.694521E+04  5.829285E+04  2.423825E+04  3.988818E+03  1.356225E+04
       303  20 -3.317602E+05  5.718495E+04  5.052079E+04  1.507925E+04  3.224905E+03  1.140217E+04
       303  21 -3.724023E+05  4.732442E+04  4.220876E+04  2.416775E+04  2.461796E+03  9.211231E+03
       303  22 -5.651579E+05 -6.583285E+01 -2.787497E+03  2.379170E+04  2.188644E+03  1.355893E+04
       303  23 -5.650531E+05  7.824631E+01 -1.599634E+03  1.466755E+04  1.399182E+03  1.139853E+04
       303  24 -5.651522E+05  1.177857E+02 -9.694780E+02  2.379131E+04  6.104755E+02  9.207269E+03
       303  25 -8.389293E+05 -6.708197E+04 -6.387254E+04  2.334532E+04  3.892560E+02  1.355562E+04
       303  26 -7.982952E+05 -5.703216E+04 -5.372347E+04  1.425598E+04 -4.258608E+02  1.139490E+04
       303  27 -7.578675E+05 -4.709138E+04 -4.415005E+04  2.341497E+04 -1.240276E+03  9.203308E+03
       304   1 -4.072991E+05  3.871483E+04  3.436519E+04  2.409769E+04 -2.301649E+03 -7.928394E+03
       304   2 -4.479605E+05  2.874378E+04  2.559885E+04  1.485638E+04 -2.029712E+03 -5.727510E+03
       304   3 -4.887380E+05  1.884256E+04  1.664979E+04  2.394241E+04 -1.758157E+03 -3.523282E+03
       304   4 -5.651303E+05  1.015684E+02 -7.810492E+02  2.380913E+04 -4.556933E+02 -7.924316E+03
       304   5 -5.650699E+05  7.531027E+01 -5.654201E+02  1.464534E+04 -1.810629E+02 -5.723293E+03
       304   6 -5.651275E+05  1.185017E+02 -5.343642E+02  2.380910E+04  9.320422E+01 -3.518919E+03
       304   7 -7.229382E+05 -3.851338E+04 -3.592883E+04  2.352064E+04  1.389798E+03 -7.920239E+03
       304   8 -6.821664E+05 -2.859409E+04 -2.673054E+04  1.443433E+04  1.667241E+03 -5.719077E+03
       304   9 -6.415116E+05 -1.860595E+04 -1.771888E+04  2.367580E+04  1.944339E+03 -3.514558E+03
       304  10 -4.072991E+05  3.871476E+04  3.436506E+04  2.409767E+04 -1.936304E-08 -2.926052E-09
       304  11 -4.479605E+05  2.874375E+04  2.559878E+04  1.485637E+04 -9.834203E-09  2.634627E-09
       304  12 -4.887380E+05  1.884254E+04  1.664976E+04  2.394241E+04  2.001402E-09 -7.615447E-10
       304  13 -5.651303E+05  1.015009E+02 -7.811676E+02  2.380913E+04  1.209613E-09  3.907353E-09
       304  14 -5.650699E+05  7.527509E+01 -5.654817E+02  1.464534E+04  3.780610E-09 -5.613288E-09
       304  15 -5.651275E+05  1.184884E+02 -5.343875E+02  2.380910E+04  4.077571E-09 -4.733606E-09
       304  16 -7.229382E+05 -3.851345E+04 -3.592895E+04  2.352065E+04  1.987150E-08  4.194270E-09
       304  17 -6.821664E+05 -2.859413E+04 -2.673061E+04  1.443434E+04  1.156307E-08  6.609490E-09
       304  18 -6.415116E+05 -1.860597E+04 -1.771891E+04  2.367580E+04 -3.658825E-09  1.259024E-09
       304  19 -4.072991E+05  3.871483E+04  3.436519E+04  2.409769E+04  2.301649E+03  7.928394E+03
       304  20 -4.479605E+05  2.874378E+04  2.559885E+04  1.485638E+04  2.029712E+03  5.727510E+03
       304  21 -4.887380E+05  1.884256E+04  1.664979E+04  2.394241E+04  1.758157E+03  3.523282E+03
       304  22 -5.651303E+05  1.015684E+02 -7.810492E+02  2.380913E+04  4.556933E+02  7.924316E+03
       304  23 -5.650699E+05  7.531027E+01 -5.654201E+02  1.464534E+04  1.810629E+02  5.723293E+03
       304  24 -5.651275E+05  1.185017E+02 -5.343642E+02  2.380910E+04 -9.320422E+01  3.518919E+03
       304  25 -7.229382E+05 -3.851338E+04 -3.592883E+04  2.352064E+04 -1.389798E+03  7.920239E+03
       304  26 -6.821664E+05 -2.859409E+04 -2.673054E+04  1.443433E+04 -1.667241E+03  5.719077E+03
       304  27 -6.415116E+05 -1.860595E+04 -1.771888E+04  2.367580E+04 -1.944339E+03  3.514558E+03
       305   1 -5.237598E+05  1.022399E+04  8.545818E+03  2.387916E+04 -1.660999E+03 -2.239123E+03
       305   2 -5.644649E+05  2.287993E+02 -6.834552E+02  1.461488E+04 -1.261821E+03 -3.225235E+01
       305   3 -6.053127E+05 -9.705615E+03 -1.018255E+04  2.370507E+04 -8.626755E+02  2.173778E+03
       305   4 -5.651325E+05  1.188508E+02 -5.813251E+02  2.381508E+04  1.911247E+02 -2.234716E+03
       305   5 -5.650602E+05  8.323583E+01 -8.163351E+02  1.463786E+04  5.895266E+02 -2.784952E+01
       305   6 -5.651326E+05  1.084873E+02 -1.320714E+03  2.381511E+04  9.879225E+02  2.178183E+03
       305   7 -6.065035E+05 -9.986406E+03 -9.708561E+03  2.375100E+04  2.043126E+03 -2.230309E+03
       305   8 -5.656554E+05 -6.232584E+01 -9.492021E+02  1.466084E+04  2.440872E+03 -2.344656E+01
       305   9 -5.249509E+05  9.922483E+03  7.541031E+03  2.392514E+04  2.838639E+03  2.182588E+03
       305  10 -5.237598E+05  1.022399E+04  8.545803E+03  2.387915E+04 -1.616055E-09 -5.016224E-10
       305  11 -5.644649E+05  2.287989E+02 -6.834582E+02  1.461488E+04 -1.264653E-09 -3.292043E-09
       305  12 -6.053127E+05 -9.705620E+03 -1.018256E+04  2.370508E+04 -2.755753E-09 -2.404663E-09
       305  13 -5.651325E+05  1.188454E+02 -5.813346E+02  2.381508E+04 -1.305481E-09  5.112141E-09
       305  14 -5.650602E+05  8.323573E+01 -8.163357E+02  1.463786E+04  5.564730E-09 -3.809717E-09
       305  15 -5.651326E+05  1.084819E+02 -1.320725E+03  2.381510E+04  4.754682E-09 -2.999695E-09
       305  16 -6.065035E+05 -9.986413E+03 -9.708578E+03  2.375100E+04  1.536653E-09  9.491574E-10
       305  17 -5.656554E+05 -6.232744E+01 -9.492133E+02  1.466084E+04  5.134507E-09 -9.805960E-09
       305  18 -5.249509E+05  9.922475E+03  7.541007E+03  2.392514E+04  2.008314E-09 -5.866842E-09
       305  19 -5.237598E+05  1.022399E+04  8.545818E+03  2.387916E+04  1.660999E+03  2.239123E+03
       305  20 -5.644649E+05  2.287993E+02 -6.834552E+02  1.461488E+04  1.261821E+03  3.225235E+01
       305  21 -6.053127E+05 -9.705615E+03 -1.018255E+04  2.370507E+04  8.626755E+02 -2.173778E+03
       305  22 -5.651325E+05  1.188508E+02 -5.813251E+02  2.381508E+04 -1.911247E+02  2.234716E+03
       305  23 -5.650602E+05  8.323583E+01 -8.163351E+02  1.463786E+04 -5.895266E+02  2.784952E+01
       305  24 -5.651326E+05  1.084873E+02 -1.320714E+03  2.381511E+04 -9.879225E+02 -2.178183E+03
       305  25 -6.065035E+05 -9.986406E+03 -9.708561E+03  2.375100E+04 -2.043126E+03  2.230309E+03
       305  26 -5.656554E+05 -6.232584E+01 -9.492021E+02  1.466084E+04 -2.440872E+03  2.344656E+01
       305  27 -5.249509E+05  9.922483E+03  7.541031E+03  2.392514E+04 -2.838639E+03 -2.182588E+03
       306   1 -6.403745E+05 -1.829472E+04 -1.862588E+04  2.357734E+04 -5.983513E+02  3.460278E+03
       306   2 -6.809120E+05 -2.826711E+04 -2.882383E+04  1.437651E+04  8.654633E+02  5.663358E+03
       306   3 -7.218052E+05 -3.850333E+04 -4.006498E+04  2.350218E+04  2.329605E+03  7.843648E+03
       306   4 -5.651799E+05  1.390287E+02 -1.707383E+03  2.380860E+04  1.257525E+03  3.464653E+03
       306   5 -5.650049E+05  1.117932E+02 -2.922486E+03  1.464583E+04  2.702420E+03  5.667552E+03
       306   6 -5.651831E+05 -1.756585E+02 -5.167235E+03  2.380934E+04  4.147735E+03  7.847668E+03
       306   7 -4.899800E+05  1.857239E+04  1.521076E+04  2.403990E+04  3.113624E+03  3.469029E+03
       306   8 -4.490852E+05  2.848978E+04  2.297802E+04  1.491519E+04  4.539716E+03  5.671746E+03
       306   9 -4.085381E+05  3.815035E+04  2.972899E+04  2.411657E+04  5.966320E+03  7.851690E+03
       306  10 -6.403745E+05 -1.829473E+04 -1.862590E+04  2.357734E+04 -4.210289E-09 -1.390871E-09
       306  11 -6.809120E+05 -2.826714E+04 -2.882389E+04  1.437651E+04 -3.003340E-09 -6.492320E-09
       306  12 -7.218053E+05 -3.850340E+04 -4.006511E+04  2.350217E+04 -7.545810E-11  2.001006E-09
       306  13 -5.651799E+05  1.390154E+02 -1.707409E+03  2.380860E+04 -8.870388E-10 -8.983359E-10
       306  14 -5.650049E+05  1.117568E+02 -2.922560E+03  1.464582E+04 -3.829764E-10 -5.723828E-10
       306  15 -5.651832E+05 -1.757293E+02 -5.167383E+03  2.380932E+04  3.303192E-09  8.962483E-10
       306  16 -4.899800E+05  1.857237E+04  1.521072E+04  2.403989E+04  6.634971E-09  2.994228E-09
       306  17 -4.490852E+05  2.848974E+04  2.297792E+04  1.491517E+04  6.610001E-09 -1.485534E-09
       306  18 -4.085382E+05  3.815028E+04  2.972881E+04  2.411654E+04 -8.526201E-10  1.768017E-09
       306  19 -6.403745E+05 -1.829472E+04 -1.862588E+04  2.357734E+04  5.983513E+02 -3.460278E+03
       306  20 -6.809120E+05 -2.826711E+04 -2.882383E+04  1.437651E+04 -8.654633E+02 -5.663358E+03
       306  21 -7.218052E+05 -3.850333E+04 -4.006498E+04  2.350218E+04 -2.329605E+03 -7.843648E+03
       306  22 -5.651799E+05  1.390287E+02 -1.707383E+03  2.380860E+04 -1.257525E+03 -3.464653E+03
       306  23 -5.650049E+05  1.117932E+02 -2.922486E+03  1.464583E+04 -2.702420E+03 -5.667552E+03
       306  24 -5.651831E+05 -1.756585E+02 -5.167235E+03  2.380934E+04 -4.147735E+03 -7.847668E+03
       306  25 -4.899800E+05  1.857239E+04  1.521076E+04  2.403990E+04 -3.113624E+03 -3.469029E+03
       306  26 -4.490852E+05  2.848978E+04  2.297802E+04  1.491519E+04 -4.539716E+03 -5.671746E+03
       306  27 -4.085381E+05  3.815035E+04  2.972899E+04  2.411657E+04 -5.966320E+03 -7.851690E+03
       307   1 -7.571204E+05 -4.652231E+04 -4.963181E+04  2.252753E+04  3.237593E+03  9.171206E+03
       307   2 -7.965585E+05 -5.651410E+04 -6.351033E+04  1.472417E+04  9.462352E+03  1.127953E+04
       307   3 -8.382127E+05 -7.182613E+04 -8.279306E+04  2.515642E+04  1.568829E+04  1.292545E+04
       307   4 -5.655849E+05  4.012445E+02 -6.722202E+03  2.378547E+04  5.190432E+03  9.175407E+03
       307   5 -5.645144E+05  3.089487E+02 -1.161168E+04  1.467366E+04  1.102908E+04  1.128261E+04
       307   6 -5.655933E+05 -5.035103E+03 -2.163540E+04  2.379712E+04  1.686931E+04  1.292746E+04
       307   7 -3.740153E+05  4.732230E+04  3.618510E+04  2.504380E+04  7.143868E+03  9.179615E+03
       307   8 -3.324201E+05  5.712833E+04  4.028357E+04  1.462311E+04  1.259639E+04  1.128569E+04
       307   9 -2.929046E+05  6.175085E+04  3.951756E+04  2.243717E+04  1.805084E+04  1.292946E+04
       307  10 -7.571204E+05 -4.652240E+04 -4.963198E+04  2.252750E+04  5.601530E-09  5.820325E-10
       307  11 -7.965586E+05 -5.651426E+04 -6.351073E+04  1.472408E+04  5.072347E-10  5.651893E-09
       307  12 -8.382130E+05 -7.182637E+04 -8.279383E+04  2.515626E+04 -3.204766E-09 -1.899694E-09
       307  13 -5.655850E+05  4.011468E+02 -6.722411E+03  2.378544E+04  3.736338E-09 -4.627619E-09
       307  14 -5.645146E+05  3.087794E+02 -1.161215E+04  1.467356E+04 -5.431706E-10  7.819937E-09
       307  15 -5.655936E+05 -5.035359E+03 -2.163625E+04  2.379694E+04  3.011617E-09 -7.517180E-10
       307  16 -3.740153E+05  4.732219E+04  3.618484E+04  2.504374E+04 -5.409365E-09 -1.780892E-09
       307  17 -3.324203E+05  5.712815E+04  4.028304E+04  1.462299E+04  4.074393E-09 -6.001952E-09
       307  18 -2.929050E+05  6.175059E+04  3.951663E+04  2.243699E+04  2.387188E-09  1.361690E-09
       307  19 -7.571204E+05 -4.652231E+04 -4.963181E+04  2.252753E+04 -3.237593E+03 -9.171206E+03
       307  20 -7.965585E+05 -5.651410E+04 -6.351033E+04  1.472417E+04 -9.462352E+03 -1.127953E+04
       307  21 -8.382127E+05 -7.182613E+04 -8.279306E+04  2.515642E+04 -1.568829E+04 -1.292545E+04
       307  22 -5.655849E+05  4.012445E+02 -6.722202E+03  2.378547E+04 -5.190432E+03 -9.175407E+03
       307  23 -5.645144E+05  3.089487E+02 -1.161168E+04  1.467366E+04 -1.102908E+04 -1.128261E+04
       307  24 -5.655933E+05 -5.035103E+03 -2.163540E+04  2.379712E+04 -1.686931E+04 -1.292746E+04
       307  25 -3.740153E+05  4.732230E+04  3.618510E+04  2.504380E+04 -7.143868E+03 -9.179615E+03
       307  26 -3.324201E+05  5.712833E+04  4.028357E+04  1.462311E+04 -1.259639E+04 -1.128569E+04
       307  27 -2.929046E+05  6.175085E+04  3.951756E+04  2.243717E+04 -1.805084E+04 -1.292946E+04
       308   1 -8.779416E+05 -7.089849E+04 -9.573289E+04  1.096258E+04  1.653430E+04  1.520901E+04
       308   2 -9.056046E+05 -8.284778E+04 -1.242846E+05  2.709632E+04  4.935354E+04  1.521288E+04
       308   3 -9.588348E+05 -1.797852E+05 -1.954775E+05  6.101621E+04  8.218764E+04  5.038161E+03
       308   4 -5.704654E+05  4.436420E+03 -2.708610E+04  2.364682E+04  2.076034E+04  1.521735E+04
       308   5 -5.584446E+05  2.301714E+03 -4.570056E+04  1.483389E+04  4.504933E+04  1.520313E+04
       308   6 -5.704970E+05 -8.331527E+04 -1.010133E+05  2.380914E+04  6.935593E+04  5.010229E+03
       308   7 -2.629007E+05  7.976549E+04  4.155490E+04  3.633736E+04  2.498844E+04  1.522585E+04
       308   8 -2.111721E+05  8.744350E+04  3.287587E+04  2.564469E+03  4.074273E+04  1.519355E+04
       308   9 -1.820180E+05  1.314887E+04 -6.558689E+03 -1.342135E+04  5.651618E+04  4.983848E+03
       308  10 -8.779419E+05 -7.089881E+04 -9.573384E+04  1.096238E+04  1.723079E-09 -3.457337E-09
       308  11 -9.056073E+05 -8.284868E+04 -1.242896E+05  2.709572E+04  3.215597E-09 -2.128049E-09
       308  12 -9.588421E+05 -1.797870E+05 -1.954903E+05  6.101587E+04 -1.304452E-09  4.106984E-09
       308  13 -5.704659E+05  4.436056E+03 -2.708734E+04  2.364656E+04 -1.956045E-11  4.084857E-09
       308  14 -5.584469E+05  2.300920E+03 -4.570481E+04  1.483334E+04 -1.698069E-09  1.894203E-09
       308  15 -5.705022E+05 -8.331659E+04 -1.010224E+05  2.380886E+04  2.437999E-09 -2.621017E-10
       308  16 -2.629014E+05  7.976508E+04  4.155329E+04  3.633705E+04 -3.267940E-11  4.474007E-10
       308  17 -2.111740E+05  8.744280E+04  3.287232E+04  2.563970E+03  3.617263E-09  4.767101E-09
       308  18 -1.820214E+05  1.314799E+04 -6.564739E+03 -1.342158E+04  2.171927E-10 -5.312942E-10
       308  19 -8.779416E+05 -7.089849E+04 -9.573289E+04  1.096258E+04 -1.653430E+04 -1.520901E+04
       308  20 -9.056046E+05 -8.284778E+04 -1.242846E+05  2.709632E+04 -4.935354E+04 -1.521288E+04
       308  21 -9.588348E+05 -1.797852E+05 -1.954775E+05  6.101621E+04 -8.218764E+04 -5.038161E+03
       308  22 -5.704654E+05  4.436420E+03 -2.708610E+04  2.364682E+04 -2.076034E+04 -1.521735E+04
       308  23 -5.584446E+05  2.301714E+03 -4.570056E+04  1.483389E+04 -4.504933E+04 -1.520313E+04
       308  24 -5.704970E+05 -8.331527E+04 -1.010133E+05  2.380914E+04 -6.935593E+04 -5.010229E+03
       308  25 -2.629007E+05  7.976549E+04  4.155490E+04  3.633736E+04 -2.498844E+04 -1.522585E+04
       308  26 -2.111721E+05  8.744350E+04  3.287587E+04  2.564469E+03 -4.074273E+04 -1.519355E+04
       308  27 -1.820180E+05  1.314887E+04 -6.558689E+03 -1.342135E+04 -5.651618E+04 -4.983848E+03
