    1C
    1UUSER                                                              
    1UDATE              11.october.2022                                 
    1UTIME              17:35:11                                        
    1UHOST                                                              
    1UPGM               CalculiX                                        
    1UVERSION           Version 2.20                             
    1UCOMPILETIME       Sun Jul 31 18:08:37 CEST 2022                    
    1UDIR                                                               
    1UDBN                                                               
    1UMAT    1MESH_MATERIAL                                             
    2C                           841                                     1
 -1         1 0.00000E+00 0.00000E+00 0.00000E+00
 -1         2 1.66667E-02 0.00000E+00 0.00000E+00
 -1         3 3.33333E-02 0.00000E+00 0.00000E+00
 -1         4 5.00000E-02 0.00000E+00 0.00000E+00
 -1         5 6.66667E-02 0.00000E+00 0.00000E+00
 -1         8 0.00000E+00 6.25000E-03 0.00000E+00
 -1         9 1.66667E-02 6.25000E-03 0.00000E+00
 -1        10 3.33333E-02 6.25000E-03 0.00000E+00
 -1        11 5.00000E-02 6.25000E-03 0.00000E+00
 -1        12 6.66667E-02 6.25000E-03 0.00000E+00
 -1        15 0.00000E+00 1.25000E-02 0.00000E+00
 -1        16 1.66667E-02 1.25000E-02 0.00000E+00
 -1        17 3.33333E-02 1.25000E-02 0.00000E+00
 -1        18 5.00000E-02 1.25000E-02 0.00000E+00
 -1        19 6.66667E-02 1.25000E-02 0.00000E+00
 -1        20 8.33333E-02 1.25000E-02 0.00000E+00
 -1        21 1.00000E-01 1.25000E-02 0.00000E+00
 -1        22 0.00000E+00 1.87500E-02 0.00000E+00
 -1        23 1.66667E-02 1.87500E-02 0.00000E+00
 -1        24 3.33333E-02 1.87500E-02 0.00000E+00
 -1        25 5.00000E-02 1.87500E-02 0.00000E+00
 -1        26 6.66667E-02 1.87500E-02 0.00000E+00
 -1        27 8.33333E-02 1.87500E-02 0.00000E+00
 -1        28 1.00000E-01 1.87500E-02 0.00000E+00
 -1        29 0.00000E+00 2.50000E-02 0.00000E+00
 -1        30 1.66667E-02 2.50000E-02 0.00000E+00
 -1        31 3.33333E-02 2.50000E-02 0.00000E+00
 -1        32 5.00000E-02 2.50000E-02 0.00000E+00
 -1        33 6.66667E-02 2.50000E-02 0.00000E+00
 -1        34 8.33333E-02 2.50000E-02 0.00000E+00
 -1        35 1.00000E-01 2.50000E-02 0.00000E+00
 -1        36 1.04167E-03 0.00000E+00 0.00000E+00
 -1        37 2.08333E-03 0.00000E+00 0.00000E+00
 -1        38 3.12500E-03 0.00000E+00 0.00000E+00
 -1        39 4.16667E-03 0.00000E+00 0.00000E+00
 -1        40 5.20833E-03 0.00000E+00 0.00000E+00
 -1        41 6.25000E-03 0.00000E+00 0.00000E+00
 -1        42 7.29167E-03 0.00000E+00 0.00000E+00
 -1        43 8.33333E-03 0.00000E+00 0.00000E+00
 -1        44 9.37500E-03 0.00000E+00 0.00000E+00
 -1        45 1.04167E-02 0.00000E+00 0.00000E+00
 -1        46 1.14583E-02 0.00000E+00 0.00000E+00
 -1        47 1.25000E-02 0.00000E+00 0.00000E+00
 -1        48 1.35417E-02 0.00000E+00 0.00000E+00
 -1        49 1.45833E-02 0.00000E+00 0.00000E+00
 -1        50 1.56250E-02 0.00000E+00 0.00000E+00
 -1        51 0.00000E+00 1.04167E-03 0.00000E+00
 -1        52 0.00000E+00 2.08333E-03 0.00000E+00
 -1        53 0.00000E+00 3.12500E-03 0.00000E+00
 -1        54 0.00000E+00 4.16667E-03 0.00000E+00
 -1        55 0.00000E+00 5.20833E-03 0.00000E+00
 -1        56 1.04167E-03 3.90630E-04 0.00000E+00
 -1        57 2.08333E-03 7.81250E-04 0.00000E+00
 -1        58 3.12500E-03 1.17188E-03 0.00000E+00
 -1        59 4.16667E-03 1.56250E-03 0.00000E+00
 -1        60 5.20833E-03 1.95312E-03 0.00000E+00
 -1        61 6.25000E-03 2.34375E-03 0.00000E+00
 -1        62 7.29167E-03 2.73438E-03 0.00000E+00
 -1        63 8.33333E-03 3.12500E-03 0.00000E+00
 -1        64 9.37500E-03 3.51563E-03 0.00000E+00
 -1        65 1.04167E-02 3.90625E-03 0.00000E+00
 -1        66 1.14583E-02 4.29688E-03 0.00000E+00
 -1        67 1.25000E-02 4.68750E-03 0.00000E+00
 -1        68 1.35417E-02 5.07813E-03 0.00000E+00
 -1        69 1.45833E-02 5.46875E-03 0.00000E+00
 -1        70 1.56250E-02 5.85938E-03 0.00000E+00
 -1        71 1.77083E-02 0.00000E+00 0.00000E+00
 -1        72 1.87500E-02 0.00000E+00 0.00000E+00
 -1        73 1.97917E-02 0.00000E+00 0.00000E+00
 -1        74 2.08333E-02 0.00000E+00 0.00000E+00
 -1        75 2.18750E-02 0.00000E+00 0.00000E+00
 -1        76 2.29167E-02 0.00000E+00 0.00000E+00
 -1        77 2.39583E-02 0.00000E+00 0.00000E+00
 -1        78 2.50000E-02 0.00000E+00 0.00000E+00
 -1        79 2.60417E-02 0.00000E+00 0.00000E+00
 -1        80 2.70833E-02 0.00000E+00 0.00000E+00
 -1        81 2.81250E-02 0.00000E+00 0.00000E+00
 -1        82 2.91667E-02 0.00000E+00 0.00000E+00
 -1        83 3.02083E-02 0.00000E+00 0.00000E+00
 -1        84 3.12500E-02 0.00000E+00 0.00000E+00
 -1        85 3.22917E-02 0.00000E+00 0.00000E+00
 -1        86 1.66667E-02 1.04167E-03 0.00000E+00
 -1        87 1.66667E-02 2.08333E-03 0.00000E+00
 -1        88 1.66667E-02 3.12500E-03 0.00000E+00
 -1        89 1.66667E-02 4.16667E-03 0.00000E+00
 -1        90 1.66667E-02 5.20833E-03 0.00000E+00
 -1        91 1.77083E-02 3.90630E-04 0.00000E+00
 -1        92 1.87500E-02 7.81250E-04 0.00000E+00
 -1        93 1.97917E-02 1.17188E-03 0.00000E+00
 -1        94 2.08333E-02 1.56250E-03 0.00000E+00
 -1        95 2.18750E-02 1.95312E-03 0.00000E+00
 -1        96 2.29167E-02 2.34375E-03 0.00000E+00
 -1        97 2.39583E-02 2.73438E-03 0.00000E+00
 -1        98 2.50000E-02 3.12500E-03 0.00000E+00
 -1        99 2.60417E-02 3.51563E-03 0.00000E+00
 -1       100 2.70833E-02 3.90625E-03 0.00000E+00
 -1       101 2.81250E-02 4.29688E-03 0.00000E+00
 -1       102 2.91667E-02 4.68750E-03 0.00000E+00
 -1       103 3.02083E-02 5.07813E-03 0.00000E+00
 -1       104 3.12500E-02 5.46875E-03 0.00000E+00
 -1       105 3.22917E-02 5.85938E-03 0.00000E+00
 -1       106 3.43750E-02 0.00000E+00 0.00000E+00
 -1       107 3.54167E-02 0.00000E+00 0.00000E+00
 -1       108 3.64583E-02 0.00000E+00 0.00000E+00
 -1       109 3.75000E-02 0.00000E+00 0.00000E+00
 -1       110 3.85417E-02 0.00000E+00 0.00000E+00
 -1       111 3.95833E-02 0.00000E+00 0.00000E+00
 -1       112 4.06250E-02 0.00000E+00 0.00000E+00
 -1       113 4.16667E-02 0.00000E+00 0.00000E+00
 -1       114 4.27083E-02 0.00000E+00 0.00000E+00
 -1       115 4.37500E-02 0.00000E+00 0.00000E+00
 -1       116 4.47917E-02 0.00000E+00 0.00000E+00
 -1       117 4.58333E-02 0.00000E+00 0.00000E+00
 -1       118 4.68750E-02 0.00000E+00 0.00000E+00
 -1       119 4.79167E-02 0.00000E+00 0.00000E+00
 -1       120 4.89583E-02 0.00000E+00 0.00000E+00
 -1       121 3.33333E-02 1.04167E-03 0.00000E+00
 -1       122 3.33333E-02 2.08333E-03 0.00000E+00
 -1       123 3.33333E-02 3.12500E-03 0.00000E+00
 -1       124 3.33333E-02 4.16667E-03 0.00000E+00
 -1       125 3.33333E-02 5.20833E-03 0.00000E+00
 -1       126 3.43750E-02 3.90630E-04 0.00000E+00
 -1       127 3.54167E-02 7.81250E-04 0.00000E+00
 -1       128 3.64583E-02 1.17188E-03 0.00000E+00
 -1       129 3.75000E-02 1.56250E-03 0.00000E+00
 -1       130 3.85417E-02 1.95312E-03 0.00000E+00
 -1       131 3.95833E-02 2.34375E-03 0.00000E+00
 -1       132 4.06250E-02 2.73438E-03 0.00000E+00
 -1       133 4.16667E-02 3.12500E-03 0.00000E+00
 -1       134 4.27083E-02 3.51563E-03 0.00000E+00
 -1       135 4.37500E-02 3.90625E-03 0.00000E+00
 -1       136 4.47917E-02 4.29688E-03 0.00000E+00
 -1       137 4.58333E-02 4.68750E-03 0.00000E+00
 -1       138 4.68750E-02 5.07813E-03 0.00000E+00
 -1       139 4.79167E-02 5.46875E-03 0.00000E+00
 -1       140 4.89583E-02 5.85938E-03 0.00000E+00
 -1       141 5.10417E-02 0.00000E+00 0.00000E+00
 -1       142 5.20833E-02 0.00000E+00 0.00000E+00
 -1       143 5.31250E-02 0.00000E+00 0.00000E+00
 -1       144 5.41667E-02 0.00000E+00 0.00000E+00
 -1       145 5.52083E-02 0.00000E+00 0.00000E+00
 -1       146 5.62500E-02 0.00000E+00 0.00000E+00
 -1       147 5.72917E-02 0.00000E+00 0.00000E+00
 -1       148 5.83333E-02 0.00000E+00 0.00000E+00
 -1       149 5.93750E-02 0.00000E+00 0.00000E+00
 -1       150 6.04167E-02 0.00000E+00 0.00000E+00
 -1       151 6.14583E-02 0.00000E+00 0.00000E+00
 -1       152 6.25000E-02 0.00000E+00 0.00000E+00
 -1       153 6.35417E-02 0.00000E+00 0.00000E+00
 -1       154 6.45833E-02 0.00000E+00 0.00000E+00
 -1       155 6.56250E-02 0.00000E+00 0.00000E+00
 -1       156 5.00000E-02 1.04167E-03 0.00000E+00
 -1       157 5.00000E-02 2.08333E-03 0.00000E+00
 -1       158 5.00000E-02 3.12500E-03 0.00000E+00
 -1       159 5.00000E-02 4.16667E-03 0.00000E+00
 -1       160 5.00000E-02 5.20833E-03 0.00000E+00
 -1       161 5.10417E-02 3.90630E-04 0.00000E+00
 -1       162 5.20833E-02 7.81250E-04 0.00000E+00
 -1       163 5.31250E-02 1.17188E-03 0.00000E+00
 -1       164 5.41667E-02 1.56250E-03 0.00000E+00
 -1       165 5.52083E-02 1.95312E-03 0.00000E+00
 -1       166 5.62500E-02 2.34375E-03 0.00000E+00
 -1       167 5.72917E-02 2.73438E-03 0.00000E+00
 -1       168 5.83333E-02 3.12500E-03 0.00000E+00
 -1       169 5.93750E-02 3.51563E-03 0.00000E+00
 -1       170 6.04167E-02 3.90625E-03 0.00000E+00
 -1       171 6.14583E-02 4.29688E-03 0.00000E+00
 -1       172 6.25000E-02 4.68750E-03 0.00000E+00
 -1       173 6.35417E-02 5.07813E-03 0.00000E+00
 -1       174 6.45833E-02 5.46875E-03 0.00000E+00
 -1       175 6.56250E-02 5.85938E-03 0.00000E+00
 -1       191 6.66667E-02 1.04167E-03 0.00000E+00
 -1       192 6.66667E-02 2.08333E-03 0.00000E+00
 -1       193 6.66667E-02 3.12500E-03 0.00000E+00
 -1       194 6.66667E-02 4.16667E-03 0.00000E+00
 -1       195 6.66667E-02 5.20833E-03 0.00000E+00
 -1       251 1.04167E-03 6.25000E-03 0.00000E+00
 -1       252 2.08333E-03 6.25000E-03 0.00000E+00
 -1       253 3.12500E-03 6.25000E-03 0.00000E+00
 -1       254 4.16667E-03 6.25000E-03 0.00000E+00
 -1       255 5.20833E-03 6.25000E-03 0.00000E+00
 -1       256 6.25000E-03 6.25000E-03 0.00000E+00
 -1       257 7.29167E-03 6.25000E-03 0.00000E+00
 -1       258 8.33333E-03 6.25000E-03 0.00000E+00
 -1       259 9.37500E-03 6.25000E-03 0.00000E+00
 -1       260 1.04167E-02 6.25000E-03 0.00000E+00
 -1       261 1.14583E-02 6.25000E-03 0.00000E+00
 -1       262 1.25000E-02 6.25000E-03 0.00000E+00
 -1       263 1.35417E-02 6.25000E-03 0.00000E+00
 -1       264 1.45833E-02 6.25000E-03 0.00000E+00
 -1       265 1.56250E-02 6.25000E-03 0.00000E+00
 -1       266 0.00000E+00 7.29167E-03 0.00000E+00
 -1       267 0.00000E+00 8.33333E-03 0.00000E+00
 -1       268 0.00000E+00 9.37500E-03 0.00000E+00
 -1       269 0.00000E+00 1.04167E-02 0.00000E+00
 -1       270 0.00000E+00 1.14583E-02 0.00000E+00
 -1       271 1.04167E-03 6.64063E-03 0.00000E+00
 -1       272 2.08333E-03 7.03125E-03 0.00000E+00
 -1       273 3.12500E-03 7.42188E-03 0.00000E+00
 -1       274 4.16667E-03 7.81250E-03 0.00000E+00
 -1       275 5.20833E-03 8.20313E-03 0.00000E+00
 -1       276 6.25000E-03 8.59375E-03 0.00000E+00
 -1       277 7.29167E-03 8.98438E-03 0.00000E+00
 -1       278 8.33333E-03 9.37500E-03 0.00000E+00
 -1       279 9.37500E-03 9.76562E-03 0.00000E+00
 -1       280 1.04167E-02 1.01562E-02 0.00000E+00
 -1       281 1.14583E-02 1.05469E-02 0.00000E+00
 -1       282 1.25000E-02 1.09375E-02 0.00000E+00
 -1       283 1.35417E-02 1.13281E-02 0.00000E+00
 -1       284 1.45833E-02 1.17188E-02 0.00000E+00
 -1       285 1.56250E-02 1.21094E-02 0.00000E+00
 -1       286 1.77083E-02 6.25000E-03 0.00000E+00
 -1       287 1.87500E-02 6.25000E-03 0.00000E+00
 -1       288 1.97917E-02 6.25000E-03 0.00000E+00
 -1       289 2.08333E-02 6.25000E-03 0.00000E+00
 -1       290 2.18750E-02 6.25000E-03 0.00000E+00
 -1       291 2.29167E-02 6.25000E-03 0.00000E+00
 -1       292 2.39583E-02 6.25000E-03 0.00000E+00
 -1       293 2.50000E-02 6.25000E-03 0.00000E+00
 -1       294 2.60417E-02 6.25000E-03 0.00000E+00
 -1       295 2.70833E-02 6.25000E-03 0.00000E+00
 -1       296 2.81250E-02 6.25000E-03 0.00000E+00
 -1       297 2.91667E-02 6.25000E-03 0.00000E+00
 -1       298 3.02083E-02 6.25000E-03 0.00000E+00
 -1       299 3.12500E-02 6.25000E-03 0.00000E+00
 -1       300 3.22917E-02 6.25000E-03 0.00000E+00
 -1       301 1.66667E-02 7.29167E-03 0.00000E+00
 -1       302 1.66667E-02 8.33333E-03 0.00000E+00
 -1       303 1.66667E-02 9.37500E-03 0.00000E+00
 -1       304 1.66667E-02 1.04167E-02 0.00000E+00
 -1       305 1.66667E-02 1.14583E-02 0.00000E+00
 -1       306 1.77083E-02 6.64063E-03 0.00000E+00
 -1       307 1.87500E-02 7.03125E-03 0.00000E+00
 -1       308 1.97917E-02 7.42188E-03 0.00000E+00
 -1       309 2.08333E-02 7.81250E-03 0.00000E+00
 -1       310 2.18750E-02 8.20313E-03 0.00000E+00
 -1       311 2.29167E-02 8.59375E-03 0.00000E+00
 -1       312 2.39583E-02 8.98438E-03 0.00000E+00
 -1       313 2.50000E-02 9.37500E-03 0.00000E+00
 -1       314 2.60417E-02 9.76562E-03 0.00000E+00
 -1       315 2.70833E-02 1.01562E-02 0.00000E+00
 -1       316 2.81250E-02 1.05469E-02 0.00000E+00
 -1       317 2.91667E-02 1.09375E-02 0.00000E+00
 -1       318 3.02083E-02 1.13281E-02 0.00000E+00
 -1       319 3.12500E-02 1.17188E-02 0.00000E+00
 -1       320 3.22917E-02 1.21094E-02 0.00000E+00
 -1       321 3.43750E-02 6.25000E-03 0.00000E+00
 -1       322 3.54167E-02 6.25000E-03 0.00000E+00
 -1       323 3.64583E-02 6.25000E-03 0.00000E+00
 -1       324 3.75000E-02 6.25000E-03 0.00000E+00
 -1       325 3.85417E-02 6.25000E-03 0.00000E+00
 -1       326 3.95833E-02 6.25000E-03 0.00000E+00
 -1       327 4.06250E-02 6.25000E-03 0.00000E+00
 -1       328 4.16667E-02 6.25000E-03 0.00000E+00
 -1       329 4.27083E-02 6.25000E-03 0.00000E+00
 -1       330 4.37500E-02 6.25000E-03 0.00000E+00
 -1       331 4.47917E-02 6.25000E-03 0.00000E+00
 -1       332 4.58333E-02 6.25000E-03 0.00000E+00
 -1       333 4.68750E-02 6.25000E-03 0.00000E+00
 -1       334 4.79167E-02 6.25000E-03 0.00000E+00
 -1       335 4.89583E-02 6.25000E-03 0.00000E+00
 -1       336 3.33333E-02 7.29167E-03 0.00000E+00
 -1       337 3.33333E-02 8.33333E-03 0.00000E+00
 -1       338 3.33333E-02 9.37500E-03 0.00000E+00
 -1       339 3.33333E-02 1.04167E-02 0.00000E+00
 -1       340 3.33333E-02 1.14583E-02 0.00000E+00
 -1       341 3.43750E-02 6.64063E-03 0.00000E+00
 -1       342 3.54167E-02 7.03125E-03 0.00000E+00
 -1       343 3.64583E-02 7.42188E-03 0.00000E+00
 -1       344 3.75000E-02 7.81250E-03 0.00000E+00
 -1       345 3.85417E-02 8.20313E-03 0.00000E+00
 -1       346 3.95833E-02 8.59375E-03 0.00000E+00
 -1       347 4.06250E-02 8.98438E-03 0.00000E+00
 -1       348 4.16667E-02 9.37500E-03 0.00000E+00
 -1       349 4.27083E-02 9.76562E-03 0.00000E+00
 -1       350 4.37500E-02 1.01562E-02 0.00000E+00
 -1       351 4.47917E-02 1.05469E-02 0.00000E+00
 -1       352 4.58333E-02 1.09375E-02 0.00000E+00
 -1       353 4.68750E-02 1.13281E-02 0.00000E+00
 -1       354 4.79167E-02 1.17188E-02 0.00000E+00
 -1       355 4.89583E-02 1.21094E-02 0.00000E+00
 -1       356 5.10417E-02 6.25000E-03 0.00000E+00
 -1       357 5.20833E-02 6.25000E-03 0.00000E+00
 -1       358 5.31250E-02 6.25000E-03 0.00000E+00
 -1       359 5.41667E-02 6.25000E-03 0.00000E+00
 -1       360 5.52083E-02 6.25000E-03 0.00000E+00
 -1       361 5.62500E-02 6.25000E-03 0.00000E+00
 -1       362 5.72917E-02 6.25000E-03 0.00000E+00
 -1       363 5.83333E-02 6.25000E-03 0.00000E+00
 -1       364 5.93750E-02 6.25000E-03 0.00000E+00
 -1       365 6.04167E-02 6.25000E-03 0.00000E+00
 -1       366 6.14583E-02 6.25000E-03 0.00000E+00
 -1       367 6.25000E-02 6.25000E-03 0.00000E+00
 -1       368 6.35417E-02 6.25000E-03 0.00000E+00
 -1       369 6.45833E-02 6.25000E-03 0.00000E+00
 -1       370 6.56250E-02 6.25000E-03 0.00000E+00
 -1       371 5.00000E-02 7.29167E-03 0.00000E+00
 -1       372 5.00000E-02 8.33333E-03 0.00000E+00
 -1       373 5.00000E-02 9.37500E-03 0.00000E+00
 -1       374 5.00000E-02 1.04167E-02 0.00000E+00
 -1       375 5.00000E-02 1.14583E-02 0.00000E+00
 -1       376 5.10417E-02 6.64063E-03 0.00000E+00
 -1       377 5.20833E-02 7.03125E-03 0.00000E+00
 -1       378 5.31250E-02 7.42188E-03 0.00000E+00
 -1       379 5.41667E-02 7.81250E-03 0.00000E+00
 -1       380 5.52083E-02 8.20313E-03 0.00000E+00
 -1       381 5.62500E-02 8.59375E-03 0.00000E+00
 -1       382 5.72917E-02 8.98438E-03 0.00000E+00
 -1       383 5.83333E-02 9.37500E-03 0.00000E+00
 -1       384 5.93750E-02 9.76562E-03 0.00000E+00
 -1       385 6.04167E-02 1.01562E-02 0.00000E+00
 -1       386 6.14583E-02 1.05469E-02 0.00000E+00
 -1       387 6.25000E-02 1.09375E-02 0.00000E+00
 -1       388 6.35417E-02 1.13281E-02 0.00000E+00
 -1       389 6.45833E-02 1.17188E-02 0.00000E+00
 -1       390 6.56250E-02 1.21094E-02 0.00000E+00
 -1       406 6.66667E-02 7.29167E-03 0.00000E+00
 -1       407 6.66667E-02 8.33333E-03 0.00000E+00
 -1       408 6.66667E-02 9.37500E-03 0.00000E+00
 -1       409 6.66667E-02 1.04167E-02 0.00000E+00
 -1       410 6.66667E-02 1.14583E-02 0.00000E+00
 -1       466 1.04167E-03 1.25000E-02 0.00000E+00
 -1       467 2.08333E-03 1.25000E-02 0.00000E+00
 -1       468 3.12500E-03 1.25000E-02 0.00000E+00
 -1       469 4.16667E-03 1.25000E-02 0.00000E+00
 -1       470 5.20833E-03 1.25000E-02 0.00000E+00
 -1       471 6.25000E-03 1.25000E-02 0.00000E+00
 -1       472 7.29167E-03 1.25000E-02 0.00000E+00
 -1       473 8.33333E-03 1.25000E-02 0.00000E+00
 -1       474 9.37500E-03 1.25000E-02 0.00000E+00
 -1       475 1.04167E-02 1.25000E-02 0.00000E+00
 -1       476 1.14583E-02 1.25000E-02 0.00000E+00
 -1       477 1.25000E-02 1.25000E-02 0.00000E+00
 -1       478 1.35417E-02 1.25000E-02 0.00000E+00
 -1       479 1.45833E-02 1.25000E-02 0.00000E+00
 -1       480 1.56250E-02 1.25000E-02 0.00000E+00
 -1       481 0.00000E+00 1.35417E-02 0.00000E+00
 -1       482 0.00000E+00 1.45833E-02 0.00000E+00
 -1       483 0.00000E+00 1.56250E-02 0.00000E+00
 -1       484 0.00000E+00 1.66667E-02 0.00000E+00
 -1       485 0.00000E+00 1.77083E-02 0.00000E+00
 -1       486 1.04167E-03 1.28906E-02 0.00000E+00
 -1       487 2.08333E-03 1.32813E-02 0.00000E+00
 -1       488 3.12500E-03 1.36719E-02 0.00000E+00
 -1       489 4.16667E-03 1.40625E-02 0.00000E+00
 -1       490 5.20833E-03 1.44531E-02 0.00000E+00
 -1       491 6.25000E-03 1.48437E-02 0.00000E+00
 -1       492 7.29167E-03 1.52344E-02 0.00000E+00
 -1       493 8.33333E-03 1.56250E-02 0.00000E+00
 -1       494 9.37500E-03 1.60156E-02 0.00000E+00
 -1       495 1.04167E-02 1.64062E-02 0.00000E+00
 -1       496 1.14583E-02 1.67969E-02 0.00000E+00
 -1       497 1.25000E-02 1.71875E-02 0.00000E+00
 -1       498 1.35417E-02 1.75781E-02 0.00000E+00
 -1       499 1.45833E-02 1.79687E-02 0.00000E+00
 -1       500 1.56250E-02 1.83594E-02 0.00000E+00
 -1       501 1.77083E-02 1.25000E-02 0.00000E+00
 -1       502 1.87500E-02 1.25000E-02 0.00000E+00
 -1       503 1.97917E-02 1.25000E-02 0.00000E+00
 -1       504 2.08333E-02 1.25000E-02 0.00000E+00
 -1       505 2.18750E-02 1.25000E-02 0.00000E+00
 -1       506 2.29167E-02 1.25000E-02 0.00000E+00
 -1       507 2.39583E-02 1.25000E-02 0.00000E+00
 -1       508 2.50000E-02 1.25000E-02 0.00000E+00
 -1       509 2.60417E-02 1.25000E-02 0.00000E+00
 -1       510 2.70833E-02 1.25000E-02 0.00000E+00
 -1       511 2.81250E-02 1.25000E-02 0.00000E+00
 -1       512 2.91667E-02 1.25000E-02 0.00000E+00
 -1       513 3.02083E-02 1.25000E-02 0.00000E+00
 -1       514 3.12500E-02 1.25000E-02 0.00000E+00
 -1       515 3.22917E-02 1.25000E-02 0.00000E+00
 -1       516 1.66667E-02 1.35417E-02 0.00000E+00
 -1       517 1.66667E-02 1.45833E-02 0.00000E+00
 -1       518 1.66667E-02 1.56250E-02 0.00000E+00
 -1       519 1.66667E-02 1.66667E-02 0.00000E+00
 -1       520 1.66667E-02 1.77083E-02 0.00000E+00
 -1       521 1.77083E-02 1.28906E-02 0.00000E+00
 -1       522 1.87500E-02 1.32813E-02 0.00000E+00
 -1       523 1.97917E-02 1.36719E-02 0.00000E+00
 -1       524 2.08333E-02 1.40625E-02 0.00000E+00
 -1       525 2.18750E-02 1.44531E-02 0.00000E+00
 -1       526 2.29167E-02 1.48437E-02 0.00000E+00
 -1       527 2.39583E-02 1.52344E-02 0.00000E+00
 -1       528 2.50000E-02 1.56250E-02 0.00000E+00
 -1       529 2.60417E-02 1.60156E-02 0.00000E+00
 -1       530 2.70833E-02 1.64062E-02 0.00000E+00
 -1       531 2.81250E-02 1.67969E-02 0.00000E+00
 -1       532 2.91667E-02 1.71875E-02 0.00000E+00
 -1       533 3.02083E-02 1.75781E-02 0.00000E+00
 -1       534 3.12500E-02 1.79687E-02 0.00000E+00
 -1       535 3.22917E-02 1.83594E-02 0.00000E+00
 -1       536 3.43750E-02 1.25000E-02 0.00000E+00
 -1       537 3.54167E-02 1.25000E-02 0.00000E+00
 -1       538 3.64583E-02 1.25000E-02 0.00000E+00
 -1       539 3.75000E-02 1.25000E-02 0.00000E+00
 -1       540 3.85417E-02 1.25000E-02 0.00000E+00
 -1       541 3.95833E-02 1.25000E-02 0.00000E+00
 -1       542 4.06250E-02 1.25000E-02 0.00000E+00
 -1       543 4.16667E-02 1.25000E-02 0.00000E+00
 -1       544 4.27083E-02 1.25000E-02 0.00000E+00
 -1       545 4.37500E-02 1.25000E-02 0.00000E+00
 -1       546 4.47917E-02 1.25000E-02 0.00000E+00
 -1       547 4.58333E-02 1.25000E-02 0.00000E+00
 -1       548 4.68750E-02 1.25000E-02 0.00000E+00
 -1       549 4.79167E-02 1.25000E-02 0.00000E+00
 -1       550 4.89583E-02 1.25000E-02 0.00000E+00
 -1       551 3.33333E-02 1.35417E-02 0.00000E+00
 -1       552 3.33333E-02 1.45833E-02 0.00000E+00
 -1       553 3.33333E-02 1.56250E-02 0.00000E+00
 -1       554 3.33333E-02 1.66667E-02 0.00000E+00
 -1       555 3.33333E-02 1.77083E-02 0.00000E+00
 -1       556 3.43750E-02 1.28906E-02 0.00000E+00
 -1       557 3.54167E-02 1.32813E-02 0.00000E+00
 -1       558 3.64583E-02 1.36719E-02 0.00000E+00
 -1       559 3.75000E-02 1.40625E-02 0.00000E+00
 -1       560 3.85417E-02 1.44531E-02 0.00000E+00
 -1       561 3.95833E-02 1.48437E-02 0.00000E+00
 -1       562 4.06250E-02 1.52344E-02 0.00000E+00
 -1       563 4.16667E-02 1.56250E-02 0.00000E+00
 -1       564 4.27083E-02 1.60156E-02 0.00000E+00
 -1       565 4.37500E-02 1.64062E-02 0.00000E+00
 -1       566 4.47917E-02 1.67969E-02 0.00000E+00
 -1       567 4.58333E-02 1.71875E-02 0.00000E+00
 -1       568 4.68750E-02 1.75781E-02 0.00000E+00
 -1       569 4.79167E-02 1.79687E-02 0.00000E+00
 -1       570 4.89583E-02 1.83594E-02 0.00000E+00
 -1       571 5.10417E-02 1.25000E-02 0.00000E+00
 -1       572 5.20833E-02 1.25000E-02 0.00000E+00
 -1       573 5.31250E-02 1.25000E-02 0.00000E+00
 -1       574 5.41667E-02 1.25000E-02 0.00000E+00
 -1       575 5.52083E-02 1.25000E-02 0.00000E+00
 -1       576 5.62500E-02 1.25000E-02 0.00000E+00
 -1       577 5.72917E-02 1.25000E-02 0.00000E+00
 -1       578 5.83333E-02 1.25000E-02 0.00000E+00
 -1       579 5.93750E-02 1.25000E-02 0.00000E+00
 -1       580 6.04167E-02 1.25000E-02 0.00000E+00
 -1       581 6.14583E-02 1.25000E-02 0.00000E+00
 -1       582 6.25000E-02 1.25000E-02 0.00000E+00
 -1       583 6.35417E-02 1.25000E-02 0.00000E+00
 -1       584 6.45833E-02 1.25000E-02 0.00000E+00
 -1       585 6.56250E-02 1.25000E-02 0.00000E+00
 -1       586 5.00000E-02 1.35417E-02 0.00000E+00
 -1       587 5.00000E-02 1.45833E-02 0.00000E+00
 -1       588 5.00000E-02 1.56250E-02 0.00000E+00
 -1       589 5.00000E-02 1.66667E-02 0.00000E+00
 -1       590 5.00000E-02 1.77083E-02 0.00000E+00
 -1       591 5.10417E-02 1.28906E-02 0.00000E+00
 -1       592 5.20833E-02 1.32813E-02 0.00000E+00
 -1       593 5.31250E-02 1.36719E-02 0.00000E+00
 -1       594 5.41667E-02 1.40625E-02 0.00000E+00
 -1       595 5.52083E-02 1.44531E-02 0.00000E+00
 -1       596 5.62500E-02 1.48437E-02 0.00000E+00
 -1       597 5.72917E-02 1.52344E-02 0.00000E+00
 -1       598 5.83333E-02 1.56250E-02 0.00000E+00
 -1       599 5.93750E-02 1.60156E-02 0.00000E+00
 -1       600 6.04167E-02 1.64062E-02 0.00000E+00
 -1       601 6.14583E-02 1.67969E-02 0.00000E+00
 -1       602 6.25000E-02 1.71875E-02 0.00000E+00
 -1       603 6.35417E-02 1.75781E-02 0.00000E+00
 -1       604 6.45833E-02 1.79687E-02 0.00000E+00
 -1       605 6.56250E-02 1.83594E-02 0.00000E+00
 -1       606 6.77083E-02 1.25000E-02 0.00000E+00
 -1       607 6.87500E-02 1.25000E-02 0.00000E+00
 -1       608 6.97917E-02 1.25000E-02 0.00000E+00
 -1       609 7.08333E-02 1.25000E-02 0.00000E+00
 -1       610 7.18750E-02 1.25000E-02 0.00000E+00
 -1       611 7.29167E-02 1.25000E-02 0.00000E+00
 -1       612 7.39583E-02 1.25000E-02 0.00000E+00
 -1       613 7.50000E-02 1.25000E-02 0.00000E+00
 -1       614 7.60417E-02 1.25000E-02 0.00000E+00
 -1       615 7.70833E-02 1.25000E-02 0.00000E+00
 -1       616 7.81250E-02 1.25000E-02 0.00000E+00
 -1       617 7.91667E-02 1.25000E-02 0.00000E+00
 -1       618 8.02083E-02 1.25000E-02 0.00000E+00
 -1       619 8.12500E-02 1.25000E-02 0.00000E+00
 -1       620 8.22917E-02 1.25000E-02 0.00000E+00
 -1       621 6.66667E-02 1.35417E-02 0.00000E+00
 -1       622 6.66667E-02 1.45833E-02 0.00000E+00
 -1       623 6.66667E-02 1.56250E-02 0.00000E+00
 -1       624 6.66667E-02 1.66667E-02 0.00000E+00
 -1       625 6.66667E-02 1.77083E-02 0.00000E+00
 -1       626 6.77083E-02 1.28906E-02 0.00000E+00
 -1       627 6.87500E-02 1.32813E-02 0.00000E+00
 -1       628 6.97917E-02 1.36719E-02 0.00000E+00
 -1       629 7.08333E-02 1.40625E-02 0.00000E+00
 -1       630 7.18750E-02 1.44531E-02 0.00000E+00
 -1       631 7.29167E-02 1.48437E-02 0.00000E+00
 -1       632 7.39583E-02 1.52344E-02 0.00000E+00
 -1       633 7.50000E-02 1.56250E-02 0.00000E+00
 -1       634 7.60417E-02 1.60156E-02 0.00000E+00
 -1       635 7.70833E-02 1.64062E-02 0.00000E+00
 -1       636 7.81250E-02 1.67969E-02 0.00000E+00
 -1       637 7.91667E-02 1.71875E-02 0.00000E+00
 -1       638 8.02083E-02 1.75781E-02 0.00000E+00
 -1       639 8.12500E-02 1.79687E-02 0.00000E+00
 -1       640 8.22917E-02 1.83594E-02 0.00000E+00
 -1       641 8.43750E-02 1.25000E-02 0.00000E+00
 -1       642 8.54167E-02 1.25000E-02 0.00000E+00
 -1       643 8.64583E-02 1.25000E-02 0.00000E+00
 -1       644 8.75000E-02 1.25000E-02 0.00000E+00
 -1       645 8.85417E-02 1.25000E-02 0.00000E+00
 -1       646 8.95833E-02 1.25000E-02 0.00000E+00
 -1       647 9.06250E-02 1.25000E-02 0.00000E+00
 -1       648 9.16667E-02 1.25000E-02 0.00000E+00
 -1       649 9.27083E-02 1.25000E-02 0.00000E+00
 -1       650 9.37500E-02 1.25000E-02 0.00000E+00
 -1       651 9.47917E-02 1.25000E-02 0.00000E+00
 -1       652 9.58333E-02 1.25000E-02 0.00000E+00
 -1       653 9.68750E-02 1.25000E-02 0.00000E+00
 -1       654 9.79167E-02 1.25000E-02 0.00000E+00
 -1       655 9.89583E-02 1.25000E-02 0.00000E+00
 -1       656 8.33333E-02 1.35417E-02 0.00000E+00
 -1       657 8.33333E-02 1.45833E-02 0.00000E+00
 -1       658 8.33333E-02 1.56250E-02 0.00000E+00
 -1       659 8.33333E-02 1.66667E-02 0.00000E+00
 -1       660 8.33333E-02 1.77083E-02 0.00000E+00
 -1       661 8.43750E-02 1.28906E-02 0.00000E+00
 -1       662 8.54167E-02 1.32813E-02 0.00000E+00
 -1       663 8.64583E-02 1.36719E-02 0.00000E+00
 -1       664 8.75000E-02 1.40625E-02 0.00000E+00
 -1       665 8.85417E-02 1.44531E-02 0.00000E+00
 -1       666 8.95833E-02 1.48437E-02 0.00000E+00
 -1       667 9.06250E-02 1.52344E-02 0.00000E+00
 -1       668 9.16667E-02 1.56250E-02 0.00000E+00
 -1       669 9.27083E-02 1.60156E-02 0.00000E+00
 -1       670 9.37500E-02 1.64062E-02 0.00000E+00
 -1       671 9.47917E-02 1.67969E-02 0.00000E+00
 -1       672 9.58333E-02 1.71875E-02 0.00000E+00
 -1       673 9.68750E-02 1.75781E-02 0.00000E+00
 -1       674 9.79167E-02 1.79687E-02 0.00000E+00
 -1       675 9.89583E-02 1.83594E-02 0.00000E+00
 -1       676 1.00000E-01 1.35417E-02 0.00000E+00
 -1       677 1.00000E-01 1.45833E-02 0.00000E+00
 -1       678 1.00000E-01 1.56250E-02 0.00000E+00
 -1       679 1.00000E-01 1.66667E-02 0.00000E+00
 -1       680 1.00000E-01 1.77083E-02 0.00000E+00
 -1       681 1.04167E-03 1.87500E-02 0.00000E+00
 -1       682 2.08333E-03 1.87500E-02 0.00000E+00
 -1       683 3.12500E-03 1.87500E-02 0.00000E+00
 -1       684 4.16667E-03 1.87500E-02 0.00000E+00
 -1       685 5.20833E-03 1.87500E-02 0.00000E+00
 -1       686 6.25000E-03 1.87500E-02 0.00000E+00
 -1       687 7.29167E-03 1.87500E-02 0.00000E+00
 -1       688 8.33333E-03 1.87500E-02 0.00000E+00
 -1       689 9.37500E-03 1.87500E-02 0.00000E+00
 -1       690 1.04167E-02 1.87500E-02 0.00000E+00
 -1       691 1.14583E-02 1.87500E-02 0.00000E+00
 -1       692 1.25000E-02 1.87500E-02 0.00000E+00
 -1       693 1.35417E-02 1.87500E-02 0.00000E+00
 -1       694 1.45833E-02 1.87500E-02 0.00000E+00
 -1       695 1.56250E-02 1.87500E-02 0.00000E+00
 -1       696 0.00000E+00 1.97917E-02 0.00000E+00
 -1       697 0.00000E+00 2.08333E-02 0.00000E+00
 -1       698 0.00000E+00 2.18750E-02 0.00000E+00
 -1       699 0.00000E+00 2.29167E-02 0.00000E+00
 -1       700 0.00000E+00 2.39583E-02 0.00000E+00
 -1       701 1.04167E-03 1.91406E-02 0.00000E+00
 -1       702 2.08333E-03 1.95312E-02 0.00000E+00
 -1       703 3.12500E-03 1.99219E-02 0.00000E+00
 -1       704 4.16667E-03 2.03125E-02 0.00000E+00
 -1       705 5.20833E-03 2.07031E-02 0.00000E+00
 -1       706 6.25000E-03 2.10938E-02 0.00000E+00
 -1       707 7.29167E-03 2.14844E-02 0.00000E+00
 -1       708 8.33333E-03 2.18750E-02 0.00000E+00
 -1       709 9.37500E-03 2.22656E-02 0.00000E+00
 -1       710 1.04167E-02 2.26563E-02 0.00000E+00
 -1       711 1.14583E-02 2.30469E-02 0.00000E+00
 -1       712 1.25000E-02 2.34375E-02 0.00000E+00
 -1       713 1.35417E-02 2.38281E-02 0.00000E+00
 -1       714 1.45833E-02 2.42187E-02 0.00000E+00
 -1       715 1.56250E-02 2.46094E-02 0.00000E+00
 -1       716 1.77083E-02 1.87500E-02 0.00000E+00
 -1       717 1.87500E-02 1.87500E-02 0.00000E+00
 -1       718 1.97917E-02 1.87500E-02 0.00000E+00
 -1       719 2.08333E-02 1.87500E-02 0.00000E+00
 -1       720 2.18750E-02 1.87500E-02 0.00000E+00
 -1       721 2.29167E-02 1.87500E-02 0.00000E+00
 -1       722 2.39583E-02 1.87500E-02 0.00000E+00
 -1       723 2.50000E-02 1.87500E-02 0.00000E+00
 -1       724 2.60417E-02 1.87500E-02 0.00000E+00
 -1       725 2.70833E-02 1.87500E-02 0.00000E+00
 -1       726 2.81250E-02 1.87500E-02 0.00000E+00
 -1       727 2.91667E-02 1.87500E-02 0.00000E+00
 -1       728 3.02083E-02 1.87500E-02 0.00000E+00
 -1       729 3.12500E-02 1.87500E-02 0.00000E+00
 -1       730 3.22917E-02 1.87500E-02 0.00000E+00
 -1       731 1.66667E-02 1.97917E-02 0.00000E+00
 -1       732 1.66667E-02 2.08333E-02 0.00000E+00
 -1       733 1.66667E-02 2.18750E-02 0.00000E+00
 -1       734 1.66667E-02 2.29167E-02 0.00000E+00
 -1       735 1.66667E-02 2.39583E-02 0.00000E+00
 -1       736 1.77083E-02 1.91406E-02 0.00000E+00
 -1       737 1.87500E-02 1.95312E-02 0.00000E+00
 -1       738 1.97917E-02 1.99219E-02 0.00000E+00
 -1       739 2.08333E-02 2.03125E-02 0.00000E+00
 -1       740 2.18750E-02 2.07031E-02 0.00000E+00
 -1       741 2.29167E-02 2.10938E-02 0.00000E+00
 -1       742 2.39583E-02 2.14844E-02 0.00000E+00
 -1       743 2.50000E-02 2.18750E-02 0.00000E+00
 -1       744 2.60417E-02 2.22656E-02 0.00000E+00
 -1       745 2.70833E-02 2.26563E-02 0.00000E+00
 -1       746 2.81250E-02 2.30469E-02 0.00000E+00
 -1       747 2.91667E-02 2.34375E-02 0.00000E+00
 -1       748 3.02083E-02 2.38281E-02 0.00000E+00
 -1       749 3.12500E-02 2.42187E-02 0.00000E+00
 -1       750 3.22917E-02 2.46094E-02 0.00000E+00
 -1       751 3.43750E-02 1.87500E-02 0.00000E+00
 -1       752 3.54167E-02 1.87500E-02 0.00000E+00
 -1       753 3.64583E-02 1.87500E-02 0.00000E+00
 -1       754 3.75000E-02 1.87500E-02 0.00000E+00
 -1       755 3.85417E-02 1.87500E-02 0.00000E+00
 -1       756 3.95833E-02 1.87500E-02 0.00000E+00
 -1       757 4.06250E-02 1.87500E-02 0.00000E+00
 -1       758 4.16667E-02 1.87500E-02 0.00000E+00
 -1       759 4.27083E-02 1.87500E-02 0.00000E+00
 -1       760 4.37500E-02 1.87500E-02 0.00000E+00
 -1       761 4.47917E-02 1.87500E-02 0.00000E+00
 -1       762 4.58333E-02 1.87500E-02 0.00000E+00
 -1       763 4.68750E-02 1.87500E-02 0.00000E+00
 -1       764 4.79167E-02 1.87500E-02 0.00000E+00
 -1       765 4.89583E-02 1.87500E-02 0.00000E+00
 -1       766 3.33333E-02 1.97917E-02 0.00000E+00
 -1       767 3.33333E-02 2.08333E-02 0.00000E+00
 -1       768 3.33333E-02 2.18750E-02 0.00000E+00
 -1       769 3.33333E-02 2.29167E-02 0.00000E+00
 -1       770 3.33333E-02 2.39583E-02 0.00000E+00
 -1       771 3.43750E-02 1.91406E-02 0.00000E+00
 -1       772 3.54167E-02 1.95312E-02 0.00000E+00
 -1       773 3.64583E-02 1.99219E-02 0.00000E+00
 -1       774 3.75000E-02 2.03125E-02 0.00000E+00
 -1       775 3.85417E-02 2.07031E-02 0.00000E+00
 -1       776 3.95833E-02 2.10938E-02 0.00000E+00
 -1       777 4.06250E-02 2.14844E-02 0.00000E+00
 -1       778 4.16667E-02 2.18750E-02 0.00000E+00
 -1       779 4.27083E-02 2.22656E-02 0.00000E+00
 -1       780 4.37500E-02 2.26563E-02 0.00000E+00
 -1       781 4.47917E-02 2.30469E-02 0.00000E+00
 -1       782 4.58333E-02 2.34375E-02 0.00000E+00
 -1       783 4.68750E-02 2.38281E-02 0.00000E+00
 -1       784 4.79167E-02 2.42187E-02 0.00000E+00
 -1       785 4.89583E-02 2.46094E-02 0.00000E+00
 -1       786 5.10417E-02 1.87500E-02 0.00000E+00
 -1       787 5.20833E-02 1.87500E-02 0.00000E+00
 -1       788 5.31250E-02 1.87500E-02 0.00000E+00
 -1       789 5.41667E-02 1.87500E-02 0.00000E+00
 -1       790 5.52083E-02 1.87500E-02 0.00000E+00
 -1       791 5.62500E-02 1.87500E-02 0.00000E+00
 -1       792 5.72917E-02 1.87500E-02 0.00000E+00
 -1       793 5.83333E-02 1.87500E-02 0.00000E+00
 -1       794 5.93750E-02 1.87500E-02 0.00000E+00
 -1       795 6.04167E-02 1.87500E-02 0.00000E+00
 -1       796 6.14583E-02 1.87500E-02 0.00000E+00
 -1       797 6.25000E-02 1.87500E-02 0.00000E+00
 -1       798 6.35417E-02 1.87500E-02 0.00000E+00
 -1       799 6.45833E-02 1.87500E-02 0.00000E+00
 -1       800 6.56250E-02 1.87500E-02 0.00000E+00
 -1       801 5.00000E-02 1.97917E-02 0.00000E+00
 -1       802 5.00000E-02 2.08333E-02 0.00000E+00
 -1       803 5.00000E-02 2.18750E-02 0.00000E+00
 -1       804 5.00000E-02 2.29167E-02 0.00000E+00
 -1       805 5.00000E-02 2.39583E-02 0.00000E+00
 -1       806 5.10417E-02 1.91406E-02 0.00000E+00
 -1       807 5.20833E-02 1.95312E-02 0.00000E+00
 -1       808 5.31250E-02 1.99219E-02 0.00000E+00
 -1       809 5.41667E-02 2.03125E-02 0.00000E+00
 -1       810 5.52083E-02 2.07031E-02 0.00000E+00
 -1       811 5.62500E-02 2.10938E-02 0.00000E+00
 -1       812 5.72917E-02 2.14844E-02 0.00000E+00
 -1       813 5.83333E-02 2.18750E-02 0.00000E+00
 -1       814 5.93750E-02 2.22656E-02 0.00000E+00
 -1       815 6.04167E-02 2.26563E-02 0.00000E+00
 -1       816 6.14583E-02 2.30469E-02 0.00000E+00
 -1       817 6.25000E-02 2.34375E-02 0.00000E+00
 -1       818 6.35417E-02 2.38281E-02 0.00000E+00
 -1       819 6.45833E-02 2.42187E-02 0.00000E+00
 -1       820 6.56250E-02 2.46094E-02 0.00000E+00
 -1       821 6.77083E-02 1.87500E-02 0.00000E+00
 -1       822 6.87500E-02 1.87500E-02 0.00000E+00
 -1       823 6.97917E-02 1.87500E-02 0.00000E+00
 -1       824 7.08333E-02 1.87500E-02 0.00000E+00
 -1       825 7.18750E-02 1.87500E-02 0.00000E+00
 -1       826 7.29167E-02 1.87500E-02 0.00000E+00
 -1       827 7.39583E-02 1.87500E-02 0.00000E+00
 -1       828 7.50000E-02 1.87500E-02 0.00000E+00
 -1       829 7.60417E-02 1.87500E-02 0.00000E+00
 -1       830 7.70833E-02 1.87500E-02 0.00000E+00
 -1       831 7.81250E-02 1.87500E-02 0.00000E+00
 -1       832 7.91667E-02 1.87500E-02 0.00000E+00
 -1       833 8.02083E-02 1.87500E-02 0.00000E+00
 -1       834 8.12500E-02 1.87500E-02 0.00000E+00
 -1       835 8.22917E-02 1.87500E-02 0.00000E+00
 -1       836 6.66667E-02 1.97917E-02 0.00000E+00
 -1       837 6.66667E-02 2.08333E-02 0.00000E+00
 -1       838 6.66667E-02 2.18750E-02 0.00000E+00
 -1       839 6.66667E-02 2.29167E-02 0.00000E+00
 -1       840 6.66667E-02 2.39583E-02 0.00000E+00
 -1       841 6.77083E-02 1.91406E-02 0.00000E+00
 -1       842 6.87500E-02 1.95312E-02 0.00000E+00
 -1       843 6.97917E-02 1.99219E-02 0.00000E+00
 -1       844 7.08333E-02 2.03125E-02 0.00000E+00
 -1       845 7.18750E-02 2.07031E-02 0.00000E+00
 -1       846 7.29167E-02 2.10938E-02 0.00000E+00
 -1       847 7.39583E-02 2.14844E-02 0.00000E+00
 -1       848 7.50000E-02 2.18750E-02 0.00000E+00
 -1       849 7.60417E-02 2.22656E-02 0.00000E+00
 -1       850 7.70833E-02 2.26563E-02 0.00000E+00
 -1       851 7.81250E-02 2.30469E-02 0.00000E+00
 -1       852 7.91667E-02 2.34375E-02 0.00000E+00
 -1       853 8.02083E-02 2.38281E-02 0.00000E+00
 -1       854 8.12500E-02 2.42187E-02 0.00000E+00
 -1       855 8.22917E-02 2.46094E-02 0.00000E+00
 -1       856 8.43750E-02 1.87500E-02 0.00000E+00
 -1       857 8.54167E-02 1.87500E-02 0.00000E+00
 -1       858 8.64583E-02 1.87500E-02 0.00000E+00
 -1       859 8.75000E-02 1.87500E-02 0.00000E+00
 -1       860 8.85417E-02 1.87500E-02 0.00000E+00
 -1       861 8.95833E-02 1.87500E-02 0.00000E+00
 -1       862 9.06250E-02 1.87500E-02 0.00000E+00
 -1       863 9.16667E-02 1.87500E-02 0.00000E+00
 -1       864 9.27083E-02 1.87500E-02 0.00000E+00
 -1       865 9.37500E-02 1.87500E-02 0.00000E+00
 -1       866 9.47917E-02 1.87500E-02 0.00000E+00
 -1       867 9.58333E-02 1.87500E-02 0.00000E+00
 -1       868 9.68750E-02 1.87500E-02 0.00000E+00
 -1       869 9.79167E-02 1.87500E-02 0.00000E+00
 -1       870 9.89583E-02 1.87500E-02 0.00000E+00
 -1       871 8.33333E-02 1.97917E-02 0.00000E+00
 -1       872 8.33333E-02 2.08333E-02 0.00000E+00
 -1       873 8.33333E-02 2.18750E-02 0.00000E+00
 -1       874 8.33333E-02 2.29167E-02 0.00000E+00
 -1       875 8.33333E-02 2.39583E-02 0.00000E+00
 -1       876 8.43750E-02 1.91406E-02 0.00000E+00
 -1       877 8.54167E-02 1.95312E-02 0.00000E+00
 -1       878 8.64583E-02 1.99219E-02 0.00000E+00
 -1       879 8.75000E-02 2.03125E-02 0.00000E+00
 -1       880 8.85417E-02 2.07031E-02 0.00000E+00
 -1       881 8.95833E-02 2.10938E-02 0.00000E+00
 -1       882 9.06250E-02 2.14844E-02 0.00000E+00
 -1       883 9.16667E-02 2.18750E-02 0.00000E+00
 -1       884 9.27083E-02 2.22656E-02 0.00000E+00
 -1       885 9.37500E-02 2.26563E-02 0.00000E+00
 -1       886 9.47917E-02 2.30469E-02 0.00000E+00
 -1       887 9.58333E-02 2.34375E-02 0.00000E+00
 -1       888 9.68750E-02 2.38281E-02 0.00000E+00
 -1       889 9.79167E-02 2.42187E-02 0.00000E+00
 -1       890 9.89583E-02 2.46094E-02 0.00000E+00
 -1       891 1.00000E-01 1.97917E-02 0.00000E+00
 -1       892 1.00000E-01 2.08333E-02 0.00000E+00
 -1       893 1.00000E-01 2.18750E-02 0.00000E+00
 -1       894 1.00000E-01 2.29167E-02 0.00000E+00
 -1       895 1.00000E-01 2.39583E-02 0.00000E+00
 -1       896 1.04167E-03 2.50000E-02 0.00000E+00
 -1       897 2.08333E-03 2.50000E-02 0.00000E+00
 -1       898 3.12500E-03 2.50000E-02 0.00000E+00
 -1       899 4.16667E-03 2.50000E-02 0.00000E+00
 -1       900 5.20833E-03 2.50000E-02 0.00000E+00
 -1       901 6.25000E-03 2.50000E-02 0.00000E+00
 -1       902 7.29167E-03 2.50000E-02 0.00000E+00
 -1       903 8.33333E-03 2.50000E-02 0.00000E+00
 -1       904 9.37500E-03 2.50000E-02 0.00000E+00
 -1       905 1.04167E-02 2.50000E-02 0.00000E+00
 -1       906 1.14583E-02 2.50000E-02 0.00000E+00
 -1       907 1.25000E-02 2.50000E-02 0.00000E+00
 -1       908 1.35417E-02 2.50000E-02 0.00000E+00
 -1       909 1.45833E-02 2.50000E-02 0.00000E+00
 -1       910 1.56250E-02 2.50000E-02 0.00000E+00
 -1       911 1.77083E-02 2.50000E-02 0.00000E+00
 -1       912 1.87500E-02 2.50000E-02 0.00000E+00
 -1       913 1.97917E-02 2.50000E-02 0.00000E+00
 -1       914 2.08333E-02 2.50000E-02 0.00000E+00
 -1       915 2.18750E-02 2.50000E-02 0.00000E+00
 -1       916 2.29167E-02 2.50000E-02 0.00000E+00
 -1       917 2.39583E-02 2.50000E-02 0.00000E+00
 -1       918 2.50000E-02 2.50000E-02 0.00000E+00
 -1       919 2.60417E-02 2.50000E-02 0.00000E+00
 -1       920 2.70833E-02 2.50000E-02 0.00000E+00
 -1       921 2.81250E-02 2.50000E-02 0.00000E+00
 -1       922 2.91667E-02 2.50000E-02 0.00000E+00
 -1       923 3.02083E-02 2.50000E-02 0.00000E+00
 -1       924 3.12500E-02 2.50000E-02 0.00000E+00
 -1       925 3.22917E-02 2.50000E-02 0.00000E+00
 -1       926 3.43750E-02 2.50000E-02 0.00000E+00
 -1       927 3.54167E-02 2.50000E-02 0.00000E+00
 -1       928 3.64583E-02 2.50000E-02 0.00000E+00
 -1       929 3.75000E-02 2.50000E-02 0.00000E+00
 -1       930 3.85417E-02 2.50000E-02 0.00000E+00
 -1       931 3.95833E-02 2.50000E-02 0.00000E+00
 -1       932 4.06250E-02 2.50000E-02 0.00000E+00
 -1       933 4.16667E-02 2.50000E-02 0.00000E+00
 -1       934 4.27083E-02 2.50000E-02 0.00000E+00
 -1       935 4.37500E-02 2.50000E-02 0.00000E+00
 -1       936 4.47917E-02 2.50000E-02 0.00000E+00
 -1       937 4.58333E-02 2.50000E-02 0.00000E+00
 -1       938 4.68750E-02 2.50000E-02 0.00000E+00
 -1       939 4.79167E-02 2.50000E-02 0.00000E+00
 -1       940 4.89583E-02 2.50000E-02 0.00000E+00
 -1       941 5.10417E-02 2.50000E-02 0.00000E+00
 -1       942 5.20833E-02 2.50000E-02 0.00000E+00
 -1       943 5.31250E-02 2.50000E-02 0.00000E+00
 -1       944 5.41667E-02 2.50000E-02 0.00000E+00
 -1       945 5.52083E-02 2.50000E-02 0.00000E+00
 -1       946 5.62500E-02 2.50000E-02 0.00000E+00
 -1       947 5.72917E-02 2.50000E-02 0.00000E+00
 -1       948 5.83333E-02 2.50000E-02 0.00000E+00
 -1       949 5.93750E-02 2.50000E-02 0.00000E+00
 -1       950 6.04167E-02 2.50000E-02 0.00000E+00
 -1       951 6.14583E-02 2.50000E-02 0.00000E+00
 -1       952 6.25000E-02 2.50000E-02 0.00000E+00
 -1       953 6.35417E-02 2.50000E-02 0.00000E+00
 -1       954 6.45833E-02 2.50000E-02 0.00000E+00
 -1       955 6.56250E-02 2.50000E-02 0.00000E+00
 -1       956 6.77083E-02 2.50000E-02 0.00000E+00
 -1       957 6.87500E-02 2.50000E-02 0.00000E+00
 -1       958 6.97917E-02 2.50000E-02 0.00000E+00
 -1       959 7.08333E-02 2.50000E-02 0.00000E+00
 -1       960 7.18750E-02 2.50000E-02 0.00000E+00
 -1       961 7.29167E-02 2.50000E-02 0.00000E+00
 -1       962 7.39583E-02 2.50000E-02 0.00000E+00
 -1       963 7.50000E-02 2.50000E-02 0.00000E+00
 -1       964 7.60417E-02 2.50000E-02 0.00000E+00
 -1       965 7.70833E-02 2.50000E-02 0.00000E+00
 -1       966 7.81250E-02 2.50000E-02 0.00000E+00
 -1       967 7.91667E-02 2.50000E-02 0.00000E+00
 -1       968 8.02083E-02 2.50000E-02 0.00000E+00
 -1       969 8.12500E-02 2.50000E-02 0.00000E+00
 -1       970 8.22917E-02 2.50000E-02 0.00000E+00
 -1       971 8.43750E-02 2.50000E-02 0.00000E+00
 -1       972 8.54167E-02 2.50000E-02 0.00000E+00
 -1       973 8.64583E-02 2.50000E-02 0.00000E+00
 -1       974 8.75000E-02 2.50000E-02 0.00000E+00
 -1       975 8.85417E-02 2.50000E-02 0.00000E+00
 -1       976 8.95833E-02 2.50000E-02 0.00000E+00
 -1       977 9.06250E-02 2.50000E-02 0.00000E+00
 -1       978 9.16667E-02 2.50000E-02 0.00000E+00
 -1       979 9.27083E-02 2.50000E-02 0.00000E+00
 -1       980 9.37500E-02 2.50000E-02 0.00000E+00
 -1       981 9.47917E-02 2.50000E-02 0.00000E+00
 -1       982 9.58333E-02 2.50000E-02 0.00000E+00
 -1       983 9.68750E-02 2.50000E-02 0.00000E+00
 -1       984 9.79167E-02 2.50000E-02 0.00000E+00
 -1       985 9.89583E-02 2.50000E-02 0.00000E+00
 -3
    3C                           440                                     1
 -1         1   12    0    1
 -2         1        37        36
 -1         2   12    0    1
 -2        37        39        38
 -1         3   12    0    1
 -2        39        41        40
 -1         4   12    0    1
 -2        41        43        42
 -1         5   12    0    1
 -2        43        45        44
 -1         6   12    0    1
 -2        45        47        46
 -1         7   12    0    1
 -2        47        49        48
 -1         8   12    0    1
 -2        49         2        50
 -1         9   12    0    1
 -2         1        52        51
 -1        10   12    0    1
 -2        52        54        53
 -1        11   12    0    1
 -2        54         8        55
 -1        12   12    0    1
 -2         1        57        56
 -1        13   12    0    1
 -2        57        59        58
 -1        14   12    0    1
 -2        59        61        60
 -1        15   12    0    1
 -2        61        63        62
 -1        16   12    0    1
 -2        63        65        64
 -1        17   12    0    1
 -2        65        67        66
 -1        18   12    0    1
 -2        67        69        68
 -1        19   12    0    1
 -2        69         9        70
 -1        20   12    0    1
 -2         2        72        71
 -1        21   12    0    1
 -2        72        74        73
 -1        22   12    0    1
 -2        74        76        75
 -1        23   12    0    1
 -2        76        78        77
 -1        24   12    0    1
 -2        78        80        79
 -1        25   12    0    1
 -2        80        82        81
 -1        26   12    0    1
 -2        82        84        83
 -1        27   12    0    1
 -2        84         3        85
 -1        28   12    0    1
 -2         2        87        86
 -1        29   12    0    1
 -2        87        89        88
 -1        30   12    0    1
 -2        89         9        90
 -1        31   12    0    1
 -2         2        92        91
 -1        32   12    0    1
 -2        92        94        93
 -1        33   12    0    1
 -2        94        96        95
 -1        34   12    0    1
 -2        96        98        97
 -1        35   12    0    1
 -2        98       100        99
 -1        36   12    0    1
 -2       100       102       101
 -1        37   12    0    1
 -2       102       104       103
 -1        38   12    0    1
 -2       104        10       105
 -1        39   12    0    1
 -2         3       107       106
 -1        40   12    0    1
 -2       107       109       108
 -1        41   12    0    1
 -2       109       111       110
 -1        42   12    0    1
 -2       111       113       112
 -1        43   12    0    1
 -2       113       115       114
 -1        44   12    0    1
 -2       115       117       116
 -1        45   12    0    1
 -2       117       119       118
 -1        46   12    0    1
 -2       119         4       120
 -1        47   12    0    1
 -2         3       122       121
 -1        48   12    0    1
 -2       122       124       123
 -1        49   12    0    1
 -2       124        10       125
 -1        50   12    0    1
 -2         3       127       126
 -1        51   12    0    1
 -2       127       129       128
 -1        52   12    0    1
 -2       129       131       130
 -1        53   12    0    1
 -2       131       133       132
 -1        54   12    0    1
 -2       133       135       134
 -1        55   12    0    1
 -2       135       137       136
 -1        56   12    0    1
 -2       137       139       138
 -1        57   12    0    1
 -2       139        11       140
 -1        58   12    0    1
 -2         4       142       141
 -1        59   12    0    1
 -2       142       144       143
 -1        60   12    0    1
 -2       144       146       145
 -1        61   12    0    1
 -2       146       148       147
 -1        62   12    0    1
 -2       148       150       149
 -1        63   12    0    1
 -2       150       152       151
 -1        64   12    0    1
 -2       152       154       153
 -1        65   12    0    1
 -2       154         5       155
 -1        66   12    0    1
 -2         4       157       156
 -1        67   12    0    1
 -2       157       159       158
 -1        68   12    0    1
 -2       159        11       160
 -1        69   12    0    1
 -2         4       162       161
 -1        70   12    0    1
 -2       162       164       163
 -1        71   12    0    1
 -2       164       166       165
 -1        72   12    0    1
 -2       166       168       167
 -1        73   12    0    1
 -2       168       170       169
 -1        74   12    0    1
 -2       170       172       171
 -1        75   12    0    1
 -2       172       174       173
 -1        76   12    0    1
 -2       174        12       175
 -1        77   12    0    1
 -2         5       192       191
 -1        78   12    0    1
 -2       192       194       193
 -1        79   12    0    1
 -2       194        12       195
 -1        80   12    0    1
 -2         8       252       251
 -1        81   12    0    1
 -2       252       254       253
 -1        82   12    0    1
 -2       254       256       255
 -1        83   12    0    1
 -2       256       258       257
 -1        84   12    0    1
 -2       258       260       259
 -1        85   12    0    1
 -2       260       262       261
 -1        86   12    0    1
 -2       262       264       263
 -1        87   12    0    1
 -2       264         9       265
 -1        88   12    0    1
 -2         8       267       266
 -1        89   12    0    1
 -2       267       269       268
 -1        90   12    0    1
 -2       269        15       270
 -1        91   12    0    1
 -2         8       272       271
 -1        92   12    0    1
 -2       272       274       273
 -1        93   12    0    1
 -2       274       276       275
 -1        94   12    0    1
 -2       276       278       277
 -1        95   12    0    1
 -2       278       280       279
 -1        96   12    0    1
 -2       280       282       281
 -1        97   12    0    1
 -2       282       284       283
 -1        98   12    0    1
 -2       284        16       285
 -1        99   12    0    1
 -2         9       287       286
 -1       100   12    0    1
 -2       287       289       288
 -1       101   12    0    1
 -2       289       291       290
 -1       102   12    0    1
 -2       291       293       292
 -1       103   12    0    1
 -2       293       295       294
 -1       104   12    0    1
 -2       295       297       296
 -1       105   12    0    1
 -2       297       299       298
 -1       106   12    0    1
 -2       299        10       300
 -1       107   12    0    1
 -2         9       302       301
 -1       108   12    0    1
 -2       302       304       303
 -1       109   12    0    1
 -2       304        16       305
 -1       110   12    0    1
 -2         9       307       306
 -1       111   12    0    1
 -2       307       309       308
 -1       112   12    0    1
 -2       309       311       310
 -1       113   12    0    1
 -2       311       313       312
 -1       114   12    0    1
 -2       313       315       314
 -1       115   12    0    1
 -2       315       317       316
 -1       116   12    0    1
 -2       317       319       318
 -1       117   12    0    1
 -2       319        17       320
 -1       118   12    0    1
 -2        10       322       321
 -1       119   12    0    1
 -2       322       324       323
 -1       120   12    0    1
 -2       324       326       325
 -1       121   12    0    1
 -2       326       328       327
 -1       122   12    0    1
 -2       328       330       329
 -1       123   12    0    1
 -2       330       332       331
 -1       124   12    0    1
 -2       332       334       333
 -1       125   12    0    1
 -2       334        11       335
 -1       126   12    0    1
 -2        10       337       336
 -1       127   12    0    1
 -2       337       339       338
 -1       128   12    0    1
 -2       339        17       340
 -1       129   12    0    1
 -2        10       342       341
 -1       130   12    0    1
 -2       342       344       343
 -1       131   12    0    1
 -2       344       346       345
 -1       132   12    0    1
 -2       346       348       347
 -1       133   12    0    1
 -2       348       350       349
 -1       134   12    0    1
 -2       350       352       351
 -1       135   12    0    1
 -2       352       354       353
 -1       136   12    0    1
 -2       354        18       355
 -1       137   12    0    1
 -2        11       357       356
 -1       138   12    0    1
 -2       357       359       358
 -1       139   12    0    1
 -2       359       361       360
 -1       140   12    0    1
 -2       361       363       362
 -1       141   12    0    1
 -2       363       365       364
 -1       142   12    0    1
 -2       365       367       366
 -1       143   12    0    1
 -2       367       369       368
 -1       144   12    0    1
 -2       369        12       370
 -1       145   12    0    1
 -2        11       372       371
 -1       146   12    0    1
 -2       372       374       373
 -1       147   12    0    1
 -2       374        18       375
 -1       148   12    0    1
 -2        11       377       376
 -1       149   12    0    1
 -2       377       379       378
 -1       150   12    0    1
 -2       379       381       380
 -1       151   12    0    1
 -2       381       383       382
 -1       152   12    0    1
 -2       383       385       384
 -1       153   12    0    1
 -2       385       387       386
 -1       154   12    0    1
 -2       387       389       388
 -1       155   12    0    1
 -2       389        19       390
 -1       156   12    0    1
 -2        12       407       406
 -1       157   12    0    1
 -2       407       409       408
 -1       158   12    0    1
 -2       409        19       410
 -1       159   12    0    1
 -2        15       467       466
 -1       160   12    0    1
 -2       467       469       468
 -1       161   12    0    1
 -2       469       471       470
 -1       162   12    0    1
 -2       471       473       472
 -1       163   12    0    1
 -2       473       475       474
 -1       164   12    0    1
 -2       475       477       476
 -1       165   12    0    1
 -2       477       479       478
 -1       166   12    0    1
 -2       479        16       480
 -1       167   12    0    1
 -2        15       482       481
 -1       168   12    0    1
 -2       482       484       483
 -1       169   12    0    1
 -2       484        22       485
 -1       170   12    0    1
 -2        15       487       486
 -1       171   12    0    1
 -2       487       489       488
 -1       172   12    0    1
 -2       489       491       490
 -1       173   12    0    1
 -2       491       493       492
 -1       174   12    0    1
 -2       493       495       494
 -1       175   12    0    1
 -2       495       497       496
 -1       176   12    0    1
 -2       497       499       498
 -1       177   12    0    1
 -2       499        23       500
 -1       178   12    0    1
 -2        16       502       501
 -1       179   12    0    1
 -2       502       504       503
 -1       180   12    0    1
 -2       504       506       505
 -1       181   12    0    1
 -2       506       508       507
 -1       182   12    0    1
 -2       508       510       509
 -1       183   12    0    1
 -2       510       512       511
 -1       184   12    0    1
 -2       512       514       513
 -1       185   12    0    1
 -2       514        17       515
 -1       186   12    0    1
 -2        16       517       516
 -1       187   12    0    1
 -2       517       519       518
 -1       188   12    0    1
 -2       519        23       520
 -1       189   12    0    1
 -2        16       522       521
 -1       190   12    0    1
 -2       522       524       523
 -1       191   12    0    1
 -2       524       526       525
 -1       192   12    0    1
 -2       526       528       527
 -1       193   12    0    1
 -2       528       530       529
 -1       194   12    0    1
 -2       530       532       531
 -1       195   12    0    1
 -2       532       534       533
 -1       196   12    0    1
 -2       534        24       535
 -1       197   12    0    1
 -2        17       537       536
 -1       198   12    0    1
 -2       537       539       538
 -1       199   12    0    1
 -2       539       541       540
 -1       200   12    0    1
 -2       541       543       542
 -1       201   12    0    1
 -2       543       545       544
 -1       202   12    0    1
 -2       545       547       546
 -1       203   12    0    1
 -2       547       549       548
 -1       204   12    0    1
 -2       549        18       550
 -1       205   12    0    1
 -2        17       552       551
 -1       206   12    0    1
 -2       552       554       553
 -1       207   12    0    1
 -2       554        24       555
 -1       208   12    0    1
 -2        17       557       556
 -1       209   12    0    1
 -2       557       559       558
 -1       210   12    0    1
 -2       559       561       560
 -1       211   12    0    1
 -2       561       563       562
 -1       212   12    0    1
 -2       563       565       564
 -1       213   12    0    1
 -2       565       567       566
 -1       214   12    0    1
 -2       567       569       568
 -1       215   12    0    1
 -2       569        25       570
 -1       216   12    0    1
 -2        18       572       571
 -1       217   12    0    1
 -2       572       574       573
 -1       218   12    0    1
 -2       574       576       575
 -1       219   12    0    1
 -2       576       578       577
 -1       220   12    0    1
 -2       578       580       579
 -1       221   12    0    1
 -2       580       582       581
 -1       222   12    0    1
 -2       582       584       583
 -1       223   12    0    1
 -2       584        19       585
 -1       224   12    0    1
 -2        18       587       586
 -1       225   12    0    1
 -2       587       589       588
 -1       226   12    0    1
 -2       589        25       590
 -1       227   12    0    1
 -2        18       592       591
 -1       228   12    0    1
 -2       592       594       593
 -1       229   12    0    1
 -2       594       596       595
 -1       230   12    0    1
 -2       596       598       597
 -1       231   12    0    1
 -2       598       600       599
 -1       232   12    0    1
 -2       600       602       601
 -1       233   12    0    1
 -2       602       604       603
 -1       234   12    0    1
 -2       604        26       605
 -1       235   12    0    1
 -2        19       607       606
 -1       236   12    0    1
 -2       607       609       608
 -1       237   12    0    1
 -2       609       611       610
 -1       238   12    0    1
 -2       611       613       612
 -1       239   12    0    1
 -2       613       615       614
 -1       240   12    0    1
 -2       615       617       616
 -1       241   12    0    1
 -2       617       619       618
 -1       242   12    0    1
 -2       619        20       620
 -1       243   12    0    1
 -2        19       622       621
 -1       244   12    0    1
 -2       622       624       623
 -1       245   12    0    1
 -2       624        26       625
 -1       246   12    0    1
 -2        19       627       626
 -1       247   12    0    1
 -2       627       629       628
 -1       248   12    0    1
 -2       629       631       630
 -1       249   12    0    1
 -2       631       633       632
 -1       250   12    0    1
 -2       633       635       634
 -1       251   12    0    1
 -2       635       637       636
 -1       252   12    0    1
 -2       637       639       638
 -1       253   12    0    1
 -2       639        27       640
 -1       254   12    0    1
 -2        20       642       641
 -1       255   12    0    1
 -2       642       644       643
 -1       256   12    0    1
 -2       644       646       645
 -1       257   12    0    1
 -2       646       648       647
 -1       258   12    0    1
 -2       648       650       649
 -1       259   12    0    1
 -2       650       652       651
 -1       260   12    0    1
 -2       652       654       653
 -1       261   12    0    1
 -2       654        21       655
 -1       262   12    0    1
 -2        20       657       656
 -1       263   12    0    1
 -2       657       659       658
 -1       264   12    0    1
 -2       659        27       660
 -1       265   12    0    1
 -2        20       662       661
 -1       266   12    0    1
 -2       662       664       663
 -1       267   12    0    1
 -2       664       666       665
 -1       268   12    0    1
 -2       666       668       667
 -1       269   12    0    1
 -2       668       670       669
 -1       270   12    0    1
 -2       670       672       671
 -1       271   12    0    1
 -2       672       674       673
 -1       272   12    0    1
 -2       674        28       675
 -1       273   12    0    1
 -2        21       677       676
 -1       274   12    0    1
 -2       677       679       678
 -1       275   12    0    1
 -2       679        28       680
 -1       276   12    0    1
 -2        22       682       681
 -1       277   12    0    1
 -2       682       684       683
 -1       278   12    0    1
 -2       684       686       685
 -1       279   12    0    1
 -2       686       688       687
 -1       280   12    0    1
 -2       688       690       689
 -1       281   12    0    1
 -2       690       692       691
 -1       282   12    0    1
 -2       692       694       693
 -1       283   12    0    1
 -2       694        23       695
 -1       284   12    0    1
 -2        22       697       696
 -1       285   12    0    1
 -2       697       699       698
 -1       286   12    0    1
 -2       699        29       700
 -1       287   12    0    1
 -2        22       702       701
 -1       288   12    0    1
 -2       702       704       703
 -1       289   12    0    1
 -2       704       706       705
 -1       290   12    0    1
 -2       706       708       707
 -1       291   12    0    1
 -2       708       710       709
 -1       292   12    0    1
 -2       710       712       711
 -1       293   12    0    1
 -2       712       714       713
 -1       294   12    0    1
 -2       714        30       715
 -1       295   12    0    1
 -2        23       717       716
 -1       296   12    0    1
 -2       717       719       718
 -1       297   12    0    1
 -2       719       721       720
 -1       298   12    0    1
 -2       721       723       722
 -1       299   12    0    1
 -2       723       725       724
 -1       300   12    0    1
 -2       725       727       726
 -1       301   12    0    1
 -2       727       729       728
 -1       302   12    0    1
 -2       729        24       730
 -1       303   12    0    1
 -2        23       732       731
 -1       304   12    0    1
 -2       732       734       733
 -1       305   12    0    1
 -2       734        30       735
 -1       306   12    0    1
 -2        23       737       736
 -1       307   12    0    1
 -2       737       739       738
 -1       308   12    0    1
 -2       739       741       740
 -1       309   12    0    1
 -2       741       743       742
 -1       310   12    0    1
 -2       743       745       744
 -1       311   12    0    1
 -2       745       747       746
 -1       312   12    0    1
 -2       747       749       748
 -1       313   12    0    1
 -2       749        31       750
 -1       314   12    0    1
 -2        24       752       751
 -1       315   12    0    1
 -2       752       754       753
 -1       316   12    0    1
 -2       754       756       755
 -1       317   12    0    1
 -2       756       758       757
 -1       318   12    0    1
 -2       758       760       759
 -1       319   12    0    1
 -2       760       762       761
 -1       320   12    0    1
 -2       762       764       763
 -1       321   12    0    1
 -2       764        25       765
 -1       322   12    0    1
 -2        24       767       766
 -1       323   12    0    1
 -2       767       769       768
 -1       324   12    0    1
 -2       769        31       770
 -1       325   12    0    1
 -2        24       772       771
 -1       326   12    0    1
 -2       772       774       773
 -1       327   12    0    1
 -2       774       776       775
 -1       328   12    0    1
 -2       776       778       777
 -1       329   12    0    1
 -2       778       780       779
 -1       330   12    0    1
 -2       780       782       781
 -1       331   12    0    1
 -2       782       784       783
 -1       332   12    0    1
 -2       784        32       785
 -1       333   12    0    1
 -2        25       787       786
 -1       334   12    0    1
 -2       787       789       788
 -1       335   12    0    1
 -2       789       791       790
 -1       336   12    0    1
 -2       791       793       792
 -1       337   12    0    1
 -2       793       795       794
 -1       338   12    0    1
 -2       795       797       796
 -1       339   12    0    1
 -2       797       799       798
 -1       340   12    0    1
 -2       799        26       800
 -1       341   12    0    1
 -2        25       802       801
 -1       342   12    0    1
 -2       802       804       803
 -1       343   12    0    1
 -2       804        32       805
 -1       344   12    0    1
 -2        25       807       806
 -1       345   12    0    1
 -2       807       809       808
 -1       346   12    0    1
 -2       809       811       810
 -1       347   12    0    1
 -2       811       813       812
 -1       348   12    0    1
 -2       813       815       814
 -1       349   12    0    1
 -2       815       817       816
 -1       350   12    0    1
 -2       817       819       818
 -1       351   12    0    1
 -2       819        33       820
 -1       352   12    0    1
 -2        26       822       821
 -1       353   12    0    1
 -2       822       824       823
 -1       354   12    0    1
 -2       824       826       825
 -1       355   12    0    1
 -2       826       828       827
 -1       356   12    0    1
 -2       828       830       829
 -1       357   12    0    1
 -2       830       832       831
 -1       358   12    0    1
 -2       832       834       833
 -1       359   12    0    1
 -2       834        27       835
 -1       360   12    0    1
 -2        26       837       836
 -1       361   12    0    1
 -2       837       839       838
 -1       362   12    0    1
 -2       839        33       840
 -1       363   12    0    1
 -2        26       842       841
 -1       364   12    0    1
 -2       842       844       843
 -1       365   12    0    1
 -2       844       846       845
 -1       366   12    0    1
 -2       846       848       847
 -1       367   12    0    1
 -2       848       850       849
 -1       368   12    0    1
 -2       850       852       851
 -1       369   12    0    1
 -2       852       854       853
 -1       370   12    0    1
 -2       854        34       855
 -1       371   12    0    1
 -2        27       857       856
 -1       372   12    0    1
 -2       857       859       858
 -1       373   12    0    1
 -2       859       861       860
 -1       374   12    0    1
 -2       861       863       862
 -1       375   12    0    1
 -2       863       865       864
 -1       376   12    0    1
 -2       865       867       866
 -1       377   12    0    1
 -2       867       869       868
 -1       378   12    0    1
 -2       869        28       870
 -1       379   12    0    1
 -2        27       872       871
 -1       380   12    0    1
 -2       872       874       873
 -1       381   12    0    1
 -2       874        34       875
 -1       382   12    0    1
 -2        27       877       876
 -1       383   12    0    1
 -2       877       879       878
 -1       384   12    0    1
 -2       879       881       880
 -1       385   12    0    1
 -2       881       883       882
 -1       386   12    0    1
 -2       883       885       884
 -1       387   12    0    1
 -2       885       887       886
 -1       388   12    0    1
 -2       887       889       888
 -1       389   12    0    1
 -2       889        35       890
 -1       390   12    0    1
 -2        28       892       891
 -1       391   12    0    1
 -2       892       894       893
 -1       392   12    0    1
 -2       894        35       895
 -1       393   12    0    1
 -2        29       897       896
 -1       394   12    0    1
 -2       897       899       898
 -1       395   12    0    1
 -2       899       901       900
 -1       396   12    0    1
 -2       901       903       902
 -1       397   12    0    1
 -2       903       905       904
 -1       398   12    0    1
 -2       905       907       906
 -1       399   12    0    1
 -2       907       909       908
 -1       400   12    0    1
 -2       909        30       910
 -1       401   12    0    1
 -2        30       912       911
 -1       402   12    0    1
 -2       912       914       913
 -1       403   12    0    1
 -2       914       916       915
 -1       404   12    0    1
 -2       916       918       917
 -1       405   12    0    1
 -2       918       920       919
 -1       406   12    0    1
 -2       920       922       921
 -1       407   12    0    1
 -2       922       924       923
 -1       408   12    0    1
 -2       924        31       925
 -1       409   12    0    1
 -2        31       927       926
 -1       410   12    0    1
 -2       927       929       928
 -1       411   12    0    1
 -2       929       931       930
 -1       412   12    0    1
 -2       931       933       932
 -1       413   12    0    1
 -2       933       935       934
 -1       414   12    0    1
 -2       935       937       936
 -1       415   12    0    1
 -2       937       939       938
 -1       416   12    0    1
 -2       939        32       940
 -1       417   12    0    1
 -2        32       942       941
 -1       418   12    0    1
 -2       942       944       943
 -1       419   12    0    1
 -2       944       946       945
 -1       420   12    0    1
 -2       946       948       947
 -1       421   12    0    1
 -2       948       950       949
 -1       422   12    0    1
 -2       950       952       951
 -1       423   12    0    1
 -2       952       954       953
 -1       424   12    0    1
 -2       954        33       955
 -1       425   12    0    1
 -2        33       957       956
 -1       426   12    0    1
 -2       957       959       958
 -1       427   12    0    1
 -2       959       961       960
 -1       428   12    0    1
 -2       961       963       962
 -1       429   12    0    1
 -2       963       965       964
 -1       430   12    0    1
 -2       965       967       966
 -1       431   12    0    1
 -2       967       969       968
 -1       432   12    0    1
 -2       969        34       970
 -1       433   12    0    1
 -2        34       972       971
 -1       434   12    0    1
 -2       972       974       973
 -1       435   12    0    1
 -2       974       976       975
 -1       436   12    0    1
 -2       976       978       977
 -1       437   12    0    1
 -2       978       980       979
 -1       438   12    0    1
 -2       980       982       981
 -1       439   12    0    1
 -2       982       984       983
 -1       440   12    0    1
 -2       984        35       985
 -3
    1PSTEP                         1           1           1          
  100CL  101 1.000000000         841                     0    1           1
 -4  DISP        4    1
 -5  D1          1    2    1    0
 -5  D2          1    2    2    0
 -5  D3          1    2    3    0
 -5  ALL         1    2    0    0    1ALL
 -1         1 1.06618E-04 0.00000E+00 0.00000E+00
 -1         2 8.19987E-05 0.00000E+00 0.00000E+00
 -1         3 7.13483E-05 0.00000E+00 0.00000E+00
 -1         4 6.74004E-05 0.00000E+00 0.00000E+00
 -1         5 6.67121E-05 0.00000E+00 0.00000E+00
 -1         8 7.92115E-05-1.07021E-06 0.00000E+00
 -1         9 7.14468E-05 1.56332E-06 0.00000E+00
 -1        10 6.66699E-05-5.46816E-06 0.00000E+00
 -1        11 6.36080E-05-1.24141E-06 0.00000E+00
 -1        12 6.24991E-05 2.71953E-06 0.00000E+00
 -1        15 2.98000E-05-2.09694E-06 0.00000E+00
 -1        16 3.98301E-05 1.75024E-06 0.00000E+00
 -1        17 4.00791E-05-1.08416E-05 0.00000E+00
 -1        18 4.67437E-05-2.28010E-06 0.00000E+00
 -1        19 5.11806E-05 5.33292E-06 0.00000E+00
 -1        20 5.21456E-05 5.54961E-05 0.00000E+00
 -1        21 5.20191E-05 1.34792E-04 0.00000E+00
 -1        22 1.12908E-05-1.31511E-06 0.00000E+00
 -1        23 1.47691E-05 2.30605E-06 0.00000E+00
 -1        24 1.68897E-05-1.17274E-05 0.00000E+00
 -1        25 3.27283E-05-1.94246E-06 0.00000E+00
 -1        26 4.04381E-05 6.79173E-06 0.00000E+00
 -1        27 3.52863E-05 5.36268E-05 0.00000E+00
 -1        28 2.96837E-05 1.33041E-04 0.00000E+00
 -1        29 0.00000E+00 0.00000E+00 0.00000E+00
 -1        30 5.64454E-06 2.76666E-06 0.00000E+00
 -1        31 7.68091E-06-1.04036E-05 0.00000E+00
 -1        32 0.00000E+00 0.00000E+00 0.00000E+00
 -1        33 2.10586E-05 1.23768E-05 0.00000E+00
 -1        34 1.96391E-05 5.35427E-05 0.00000E+00
 -1        35 1.30991E-05 1.32124E-04 0.00000E+00
 -1        36 1.05123E-04-5.22778E-22 0.00000E+00
 -1        37 1.03584E-04 6.72663E-21-2.64698E-23
 -1        38 1.02047E-04 3.23196E-20 5.29396E-23
 -1        39 1.00503E-04 8.10240E-20 0.00000E+00
 -1        40 9.89577E-05 9.23663E-20 0.00000E+00
 -1        41 9.74111E-05 8.93355E-20 0.00000E+00
 -1        42 9.58643E-05 9.49471E-20-5.29396E-23
 -1        43 9.43172E-05 1.07831E-19 0.00000E+00
 -1        44 9.27701E-05 8.33997E-20 0.00000E+00
 -1        45 9.12232E-05 6.21676E-20-2.64698E-23
 -1        46 8.96765E-05 5.49810E-20-5.29396E-23
 -1        47 8.81308E-05 3.56647E-20 2.64698E-23
 -1        48 8.65856E-05 8.96664E-21 5.29396E-23
 -1        49 8.50463E-05 4.74140E-21 2.64698E-23
 -1        50 8.35055E-05-4.80426E-21 0.00000E+00
 -1        51 1.04739E-04-1.84864E-07 0.00000E+00
 -1        52 1.01402E-04-3.57216E-07 0.00000E+00
 -1        53 9.68875E-05-5.29097E-07 0.00000E+00
 -1        54 9.14882E-05-7.03297E-07 0.00000E+00
 -1        55 8.54979E-05-8.81529E-07 4.96308E-24
 -1        56 1.04883E-04-9.59284E-07 2.64698E-23
 -1        57 1.03265E-04-2.41162E-06 0.00000E+00
 -1        58 1.01775E-04-4.19878E-06-5.29396E-23
 -1        59 1.00346E-04-6.17853E-06 0.00000E+00
 -1        60 9.89292E-05-8.19056E-06 5.29396E-23
 -1        61 9.74632E-05-1.00774E-05 0.00000E+00
 -1        62 9.58934E-05-1.16874E-05 5.29396E-23
 -1        63 9.41667E-05-1.28790E-05-2.64698E-23
 -1        64 9.22382E-05-1.35322E-05 0.00000E+00
 -1        65 9.00699E-05-1.35458E-05 0.00000E+00
 -1        66 8.76359E-05-1.28521E-05 0.00000E+00
 -1        67 8.49209E-05-1.14071E-05-2.64698E-23
 -1        68 8.19212E-05-9.20700E-06 0.00000E+00
 -1        69 7.86550E-05-6.26984E-06 2.64698E-23
 -1        70 7.51300E-05-2.66068E-06 0.00000E+00
 -1        71 8.13299E-05-2.66021E-21 0.00000E+00
 -1        72 8.06636E-05-3.87303E-20 1.32349E-23
 -1        73 7.99972E-05-7.82596E-20 0.00000E+00
 -1        74 7.93312E-05-1.25708E-19 0.00000E+00
 -1        75 7.86653E-05-1.30053E-19 0.00000E+00
 -1        76 7.79994E-05-1.31745E-19 0.00000E+00
 -1        77 7.73336E-05-1.26717E-19 0.00000E+00
 -1        78 7.66677E-05-1.22826E-19-1.32349E-23
 -1        79 7.60019E-05-1.32566E-19 2.64698E-23
 -1        80 7.53361E-05-1.40616E-19 0.00000E+00
 -1        81 7.46704E-05-1.25025E-19 2.64698E-23
 -1        82 7.40048E-05-8.33236E-20 0.00000E+00
 -1        83 7.33392E-05-8.01124E-20-2.64698E-23
 -1        84 7.26743E-05-5.19238E-20-1.32349E-23
 -1        85 7.20093E-05-2.50106E-20 1.32349E-23
 -1        86 8.19321E-05 2.32726E-07 0.00000E+00
 -1        87 8.15558E-05 5.05969E-07 0.00000E+00
 -1        88 8.05972E-05 7.76636E-07 3.30872E-24
 -1        89 7.87810E-05 1.04900E-06 1.65436E-24
 -1        90 7.58262E-05 1.32037E-06-8.27181E-25
 -1        91 8.10931E-05-4.53604E-07 0.00000E+00
 -1        92 8.02449E-05-1.08921E-06 0.00000E+00
 -1        93 7.94493E-05-1.86374E-06 0.00000E+00
 -1        94 7.86885E-05-2.73616E-06-1.32349E-23
 -1        95 7.79475E-05-3.66156E-06 0.00000E+00
 -1        96 7.72090E-05-4.59471E-06 0.00000E+00
 -1        97 7.64564E-05-5.49013E-06 0.00000E+00
 -1        98 7.56729E-05-6.30313E-06-1.32349E-23
 -1        99 7.48425E-05-6.99105E-06-2.64698E-23
 -1       100 7.39501E-05-7.51341E-06-1.32349E-23
 -1       101 7.29822E-05-7.83411E-06 0.00000E+00
 -1       102 7.19267E-05-7.92044E-06-1.32349E-23
 -1       103 7.07733E-05-7.74599E-06-2.64698E-23
 -1       104 6.95155E-05-7.28824E-06 0.00000E+00
 -1       105 6.81453E-05-6.53341E-06 2.64698E-23
 -1       106 7.10868E-05-1.34417E-20-1.32349E-23
 -1       107 7.08387E-05-1.76727E-20 6.61744E-24
 -1       108 7.05900E-05-4.83404E-20 0.00000E+00
 -1       109 7.03435E-05-8.38306E-20 0.00000E+00
 -1       110 7.00973E-05-9.52465E-20 6.61744E-24
 -1       111 6.98514E-05-9.62226E-20-3.30872E-24
 -1       112 6.96057E-05-8.18677E-20-6.61744E-24
 -1       113 6.93601E-05-8.31184E-20 3.30872E-24
 -1       114 6.91145E-05-7.43089E-20 0.00000E+00
 -1       115 6.88690E-05-5.02934E-20 0.00000E+00
 -1       116 6.86234E-05-5.01578E-20 6.61744E-24
 -1       117 6.83780E-05-3.95856E-20 0.00000E+00
 -1       118 6.81326E-05-3.67913E-20 6.61744E-24
 -1       119 6.78877E-05-2.76634E-20 0.00000E+00
 -1       120 6.76427E-05-9.24622E-21 6.61744E-24
 -1       121 7.12254E-05-9.00342E-07 0.00000E+00
 -1       122 7.08476E-05-1.81485E-06 0.00000E+00
 -1       123 7.02057E-05-2.72874E-06-2.64698E-23
 -1       124 6.92944E-05-3.64386E-06 0.00000E+00
 -1       125 6.81142E-05-4.55983E-06-2.64698E-23
 -1       126 7.09160E-05-2.32726E-07 1.32349E-23
 -1       127 7.05291E-05-5.71663E-07-6.61744E-24
 -1       128 7.01723E-05-9.91605E-07 0.00000E+00
 -1       129 6.98361E-05-1.46434E-06 6.61744E-24
 -1       130 6.95093E-05-1.96163E-06 0.00000E+00
 -1       131 6.91810E-05-2.45472E-06 0.00000E+00
 -1       132 6.88405E-05-2.91505E-06 0.00000E+00
 -1       133 6.84772E-05-3.31428E-06 6.61744E-24
 -1       134 6.80806E-05-3.62481E-06 1.32349E-23
 -1       135 6.76407E-05-3.81975E-06 0.00000E+00
 -1       136 6.71480E-05-3.87365E-06-1.32349E-23
 -1       137 6.65934E-05-3.76213E-06 6.61744E-24
 -1       138 6.59685E-05-3.46301E-06-1.32349E-23
 -1       139 6.52666E-05-2.95515E-06 6.61744E-24
 -1       140 6.44792E-05-2.22099E-06 0.00000E+00
 -1       141 6.73494E-05 3.90409E-21 0.00000E+00
 -1       142 6.73039E-05 1.53070E-20 0.00000E+00
 -1       143 6.72581E-05 7.85263E-21 0.00000E+00
 -1       144 6.72133E-05 9.13032E-21 0.00000E+00
 -1       145 6.71686E-05 3.50352E-21 1.65436E-24
 -1       146 6.71241E-05 8.75850E-21 0.00000E+00
 -1       147 6.70796E-05 2.65994E-20-1.65436E-24
 -1       148 6.70352E-05 3.90891E-20-8.27181E-25
 -1       149 6.69909E-05 4.88503E-20 0.00000E+00
 -1       150 6.69467E-05 4.55643E-20 0.00000E+00
 -1       151 6.69026E-05 4.40418E-20-8.27181E-25
 -1       152 6.68591E-05 4.91649E-20 0.00000E+00
 -1       153 6.68158E-05 3.06040E-20 0.00000E+00
 -1       154 6.67757E-05 1.37167E-20-8.27181E-25
 -1       155 6.67348E-05 6.99878E-21-6.61744E-24
 -1       156 6.72970E-05-2.04841E-07-6.61744E-24
 -1       157 6.69845E-05-4.10976E-07 3.30872E-24
 -1       158 6.64605E-05-6.17197E-07-6.61744E-24
 -1       159 6.57234E-05-8.24216E-07 3.30872E-24
 -1       160 6.47725E-05-1.03131E-06 0.00000E+00
 -1       161 6.72002E-05-1.15683E-07-6.61744E-24
 -1       162 6.70206E-05-2.90698E-07 0.00000E+00
 -1       163 6.68552E-05-5.03495E-07 0.00000E+00
 -1       164 6.66957E-05-7.33077E-07 3.30872E-24
 -1       165 6.65346E-05-9.58120E-07 0.00000E+00
 -1       166 6.63638E-05-1.15743E-06 0.00000E+00
 -1       167 6.61754E-05-1.30996E-06-6.61744E-24
 -1       168 6.59618E-05-1.39484E-06 3.30872E-24
 -1       169 6.57151E-05-1.39163E-06 0.00000E+00
 -1       170 6.54279E-05-1.28016E-06 3.30872E-24
 -1       171 6.50929E-05-1.04098E-06-6.61744E-24
 -1       172 6.47037E-05-6.54884E-07-3.30872E-24
 -1       173 6.42527E-05-1.03968E-07-3.30872E-24
 -1       174 6.37374E-05 6.30656E-07 1.65436E-24
 -1       175 6.31462E-05 1.56340E-06 0.00000E+00
 -1       191 6.65765E-05 4.51993E-07 0.00000E+00
 -1       192 6.62087E-05 9.06416E-07 0.00000E+00
 -1       193 6.56119E-05 1.36123E-06-2.64698E-23
 -1       194 6.47911E-05 1.81579E-06 0.00000E+00
 -1       195 6.37513E-05 2.26944E-06-1.32349E-23
 -1       251 7.87234E-05 3.32371E-06 0.00000E+00
 -1       252 7.82365E-05 6.08095E-06 0.00000E+00
 -1       253 7.77526E-05 7.40450E-06 1.32349E-23
 -1       254 7.72689E-05 7.50948E-06 6.61744E-24
 -1       255 7.67848E-05 6.62457E-06 0.00000E+00
 -1       256 7.62997E-05 4.98655E-06 6.61744E-24
 -1       257 7.58136E-05 2.84065E-06 0.00000E+00
 -1       258 7.53270E-05 4.36265E-07 6.61744E-24
 -1       259 7.48404E-05-1.97438E-06 0.00000E+00
 -1       260 7.43543E-05-4.13894E-06 6.61744E-24
 -1       261 7.38692E-05-5.80784E-06 0.00000E+00
 -1       262 7.33852E-05-6.73560E-06 0.00000E+00
 -1       263 7.29016E-05-6.68498E-06 0.00000E+00
 -1       264 7.24184E-05-5.42681E-06 0.00000E+00
 -1       265 7.19320E-05-2.74527E-06 1.32349E-23
 -1       266 7.25497E-05-1.23968E-06 6.61744E-24
 -1       267 6.38160E-05-1.41409E-06 0.00000E+00
 -1       268 5.40911E-05-1.59724E-06 0.00000E+00
 -1       269 4.44585E-05-1.77708E-06 0.00000E+00
 -1       270 3.60016E-05-1.94719E-06-3.30872E-24
 -1       271 7.54314E-05 2.80757E-06 5.29396E-23
 -1       272 7.20543E-05 5.40500E-06 0.00000E+00
 -1       273 6.91385E-05 6.79320E-06 0.00000E+00
 -1       274 6.66330E-05 7.05613E-06 0.00000E+00
 -1       275 6.44902E-05 6.35205E-06 5.29396E-23
 -1       276 6.26357E-05 4.87187E-06 0.00000E+00
 -1       277 6.09826E-05 2.85245E-06 5.29396E-23
 -1       278 5.94345E-05 5.50919E-07 0.00000E+00
 -1       279 5.78896E-05-1.75917E-06 0.00000E+00
 -1       280 5.62460E-05-3.80384E-06 2.64698E-23
 -1       281 5.44069E-05-5.32483E-06 0.00000E+00
 -1       282 5.22849E-05-6.08354E-06-2.64698E-23
 -1       283 4.98045E-05-5.88635E-06 5.29396E-23
 -1       284 4.69182E-05-4.57144E-06-2.64698E-23
 -1       285 4.35719E-05-2.05180E-06 0.00000E+00
 -1       286 7.11414E-05 5.97699E-06-1.32349E-23
 -1       287 7.08424E-05 8.94451E-06-6.61744E-24
 -1       288 7.05462E-05 1.06205E-05 0.00000E+00
 -1       289 7.02514E-05 1.11665E-05-3.30872E-24
 -1       290 6.99568E-05 1.07515E-05 6.61744E-24
 -1       291 6.96616E-05 9.54938E-06 0.00000E+00
 -1       292 6.93656E-05 7.73954E-06 0.00000E+00
 -1       293 6.90688E-05 5.50418E-06 0.00000E+00
 -1       294 6.87714E-05 3.02850E-06 0.00000E+00
 -1       295 6.84737E-05 4.98917E-07 0.00000E+00
 -1       296 6.81762E-05-1.89787E-06-6.61744E-24
 -1       297 6.78789E-05-3.97575E-06 6.61744E-24
 -1       298 6.75821E-05-5.55079E-06 1.32349E-23
 -1       299 6.72833E-05-6.44162E-06 6.61744E-24
 -1       300 6.69854E-05-6.47150E-06 0.00000E+00
 -1       301 6.62017E-05 1.58098E-06 3.30872E-24
 -1       302 6.09313E-05 1.61459E-06-4.13590E-25
 -1       303 5.56472E-05 1.65168E-06 4.13590E-25
 -1       304 5.03611E-05 1.68942E-06 0.00000E+00
 -1       305 4.50849E-05 1.72515E-06 0.00000E+00
 -1       306 6.78088E-05 5.43838E-06 0.00000E+00
 -1       307 6.45558E-05 8.08963E-06-2.64698E-23
 -1       308 6.17607E-05 9.54039E-06 0.00000E+00
 -1       309 5.93918E-05 9.82517E-06-2.64698E-23
 -1       310 5.74201E-05 9.05056E-06 0.00000E+00
 -1       311 5.57902E-05 7.35719E-06 0.00000E+00
 -1       312 5.44317E-05 4.93656E-06 0.00000E+00
 -1       313 5.32630E-05 2.00596E-06-2.64698E-23
 -1       314 5.21929E-05-1.18932E-06-5.29396E-23
 -1       315 5.11269E-05-4.39431E-06 0.00000E+00
 -1       316 4.99697E-05-7.35402E-06 5.29396E-23
 -1       317 4.86315E-05-9.82166E-06 2.64698E-23
 -1       318 4.70283E-05-1.15781E-05 0.00000E+00
 -1       319 4.50983E-05-1.24256E-05 2.64698E-23
 -1       320 4.27705E-05-1.22249E-05 2.64698E-23
 -1       321 6.64548E-05-4.10765E-06 0.00000E+00
 -1       322 6.62618E-05-3.14267E-06-6.61744E-24
 -1       323 6.60681E-05-2.52244E-06-6.61744E-24
 -1       324 6.58782E-05-2.19495E-06 0.00000E+00
 -1       325 6.56887E-05-2.10692E-06 0.00000E+00
 -1       326 6.54998E-05-2.20434E-06-3.30872E-24
 -1       327 6.53111E-05-2.43234E-06 0.00000E+00
 -1       328 6.51226E-05-2.73567E-06-3.30872E-24
 -1       329 6.49340E-05-3.05873E-06 6.61744E-24
 -1       330 6.47455E-05-3.34587E-06-3.30872E-24
 -1       331 6.45570E-05-3.54159E-06 0.00000E+00
 -1       332 6.43684E-05-3.59069E-06-3.30872E-24
 -1       333 6.41798E-05-3.43859E-06-6.61744E-24
 -1       334 6.39904E-05-3.03138E-06 0.00000E+00
 -1       335 6.38011E-05-2.31624E-06 6.61744E-24
 -1       336 6.39951E-05-6.35793E-06 2.64698E-23
 -1       337 5.95948E-05-7.25997E-06 1.32349E-23
 -1       338 5.42280E-05-8.16555E-06 2.64698E-23
 -1       339 4.86690E-05-9.06898E-06 1.32349E-23
 -1       340 4.36965E-05-9.97079E-06 0.00000E+00
 -1       341 6.51146E-05-4.41551E-06-2.64698E-23
 -1       342 6.36471E-05-3.63661E-06-1.32349E-23
 -1       343 6.22734E-05-3.10519E-06-2.64698E-23
 -1       344 6.09810E-05-2.79656E-06 0.00000E+00
 -1       345 5.97598E-05-2.67796E-06 2.64698E-23
 -1       346 5.85962E-05-2.71388E-06-1.32349E-23
 -1       347 5.74755E-05-2.86429E-06 0.00000E+00
 -1       348 5.63819E-05-3.08706E-06-1.32349E-23
 -1       349 5.52990E-05-3.33796E-06 0.00000E+00
 -1       350 5.42100E-05-3.57221E-06 1.32349E-23
 -1       351 5.30985E-05-3.74565E-06 0.00000E+00
 -1       352 5.19493E-05-3.81488E-06 1.32349E-23
 -1       353 5.07465E-05-3.74013E-06-2.64698E-23
 -1       354 4.94829E-05-3.48139E-06-1.32349E-23
 -1       355 4.81368E-05-3.00989E-06 1.32349E-23
 -1       356 6.35271E-05-1.56786E-07-6.61744E-24
 -1       357 6.34549E-05 5.85875E-07-1.65436E-24
 -1       358 6.33826E-05 1.03511E-06 3.30872E-24
 -1       359 6.33117E-05 1.23988E-06-1.65436E-24
 -1       360 6.32410E-05 1.24953E-06 3.30872E-24
 -1       361 6.31705E-05 1.11364E-06 8.27181E-25
 -1       362 6.31001E-05 8.82031E-07 0.00000E+00
 -1       363 6.30298E-05 6.04646E-07 0.00000E+00
 -1       364 6.29596E-05 3.31489E-07 1.65436E-24
 -1       365 6.28894E-05 1.12568E-07 0.00000E+00
 -1       366 6.28195E-05-2.20044E-09 0.00000E+00
 -1       367 6.27501E-05 3.69746E-08 0.00000E+00
 -1       368 6.26810E-05 2.79639E-07 0.00000E+00
 -1       369 6.26149E-05 7.75081E-07 0.00000E+00
 -1       370 6.25479E-05 1.57223E-06 0.00000E+00
 -1       371 6.16494E-05-1.41851E-06 0.00000E+00
 -1       372 5.86537E-05-1.59347E-06 0.00000E+00
 -1       373 5.51424E-05-1.76998E-06-6.61744E-24
 -1       374 5.16384E-05-1.94438E-06 0.00000E+00
 -1       375 4.86652E-05-2.11748E-06 0.00000E+00
 -1       376 6.26520E-05-3.26170E-07 0.00000E+00
 -1       377 6.17916E-05 2.99933E-07 6.61744E-24
 -1       378 6.10231E-05 6.83109E-07 0.00000E+00
 -1       379 6.03275E-05 8.66616E-07 0.00000E+00
 -1       380 5.96887E-05 8.98306E-07 0.00000E+00
 -1       381 5.90882E-05 8.26798E-07 6.61744E-24
 -1       382 5.85076E-05 7.02476E-07 1.32349E-23
 -1       383 5.79276E-05 5.76152E-07 6.61744E-24
 -1       384 5.73293E-05 4.98707E-07 1.32349E-23
 -1       385 5.66940E-05 5.20568E-07 6.61744E-24
 -1       386 5.60032E-05 6.90530E-07 0.00000E+00
 -1       387 5.52400E-05 1.05619E-06 0.00000E+00
 -1       388 5.43870E-05 1.66170E-06 1.32349E-23
 -1       389 5.34333E-05 2.55090E-06-6.61744E-24
 -1       390 5.23578E-05 3.75900E-06-6.61744E-24
 -1       406 6.09298E-05 3.15620E-06 0.00000E+00
 -1       407 5.91862E-05 3.59515E-06-6.61744E-24
 -1       408 5.73031E-05 4.03414E-06 0.00000E+00
 -1       409 5.53169E-05 4.47204E-06-6.61744E-24
 -1       410 5.32639E-05 4.90748E-06-1.32349E-23
 -1       466 3.03958E-05 1.76485E-06 0.00000E+00
 -1       467 3.10236E-05 4.07637E-06-6.61744E-24
 -1       468 3.16524E-05 5.09590E-06 0.00000E+00
 -1       469 3.22864E-05 5.06800E-06 0.00000E+00
 -1       470 3.29206E-05 4.22185E-06-1.32349E-23
 -1       471 3.35550E-05 2.77785E-06 0.00000E+00
 -1       472 3.41889E-05 9.47596E-07 2.64698E-23
 -1       473 3.48227E-05-1.06145E-06 0.00000E+00
 -1       474 3.54566E-05-3.04453E-06 2.64698E-23
 -1       475 3.60906E-05-4.79655E-06-1.32349E-23
 -1       476 3.67250E-05-6.10900E-06 0.00000E+00
 -1       477 3.73589E-05-6.76869E-06 0.00000E+00
 -1       478 3.79925E-05-6.55279E-06-1.32349E-23
 -1       479 3.86192E-05-5.22907E-06 0.00000E+00
 -1       480 3.92447E-05-2.54900E-06 6.61744E-24
 -1       481 2.53731E-05-1.97672E-06-1.65436E-24
 -1       482 2.15216E-05-1.84741E-06-1.65436E-24
 -1       483 1.82155E-05-1.71655E-06-3.30872E-24
 -1       484 1.54262E-05-1.58336E-06-1.65436E-24
 -1       485 1.31267E-05-1.44876E-06-3.30872E-24
 -1       486 2.74938E-05 1.88792E-06 0.00000E+00
 -1       487 2.55040E-05 4.94943E-06-6.61744E-24
 -1       488 2.38396E-05 7.15491E-06 2.64698E-23
 -1       489 2.24681E-05 8.56946E-06 0.00000E+00
 -1       490 2.13620E-05 9.27814E-06-2.64698E-23
 -1       491 2.04854E-05 9.37370E-06 1.32349E-23
 -1       492 1.97990E-05 8.96176E-06 2.64698E-23
 -1       493 1.92605E-05 8.15459E-06 0.00000E+00
 -1       494 1.88249E-05 7.07248E-06-2.64698E-23
 -1       495 1.84459E-05 5.83949E-06 0.00000E+00
 -1       496 1.80759E-05 4.58269E-06 0.00000E+00
 -1       497 1.76679E-05 3.42966E-06 0.00000E+00
 -1       498 1.71745E-05 2.50555E-06 2.64698E-23
 -1       499 1.65538E-05 1.93396E-06 6.61744E-24
 -1       500 1.57570E-05 1.82803E-06 1.32349E-23
 -1       501 3.98306E-05 6.01877E-06 3.30872E-24
 -1       502 3.98461E-05 8.57503E-06 0.00000E+00
 -1       503 3.98638E-05 9.64239E-06 0.00000E+00
 -1       504 3.98837E-05 9.44412E-06 1.03398E-25
 -1       505 3.99031E-05 8.20286E-06 0.00000E+00
 -1       506 3.99215E-05 6.14092E-06 0.00000E+00
 -1       507 3.99387E-05 3.48023E-06 4.13590E-25
 -1       508 3.99549E-05 4.42445E-07 2.06795E-25
 -1       509 3.99706E-05-2.75088E-06 0.00000E+00
 -1       510 3.99865E-05-5.87826E-06 0.00000E+00
 -1       511 4.00031E-05-8.71824E-06 0.00000E+00
 -1       512 4.00205E-05-1.10492E-05 0.00000E+00
 -1       513 4.00391E-05-1.26493E-05-2.06795E-25
 -1       514 4.00566E-05-1.32964E-05-8.27181E-25
 -1       515 4.00747E-05-1.27681E-05 0.00000E+00
 -1       516 3.45141E-05 1.82984E-06 0.00000E+00
 -1       517 2.91889E-05 1.92187E-06-2.06795E-25
 -1       518 2.42024E-05 2.01482E-06 1.65436E-24
 -1       519 1.99032E-05 2.11123E-06 4.13590E-25
 -1       520 1.66414E-05 2.21192E-06-1.65436E-24
 -1       521 3.66585E-05 5.68364E-06 2.64698E-23
 -1       522 3.39578E-05 8.20749E-06 0.00000E+00
 -1       523 3.17623E-05 9.40175E-06 0.00000E+00
 -1       524 3.00222E-05 9.35810E-06 2.64698E-23
 -1       525 2.86891E-05 8.22766E-06 0.00000E+00
 -1       526 2.76938E-05 6.18871E-06-2.64698E-23
 -1       527 2.69562E-05 3.45881E-06 5.29396E-23
 -1       528 2.63874E-05 2.74526E-07 0.00000E+00
 -1       529 2.58924E-05-3.10816E-06-5.29396E-23
 -1       530 2.53742E-05-6.42764E-06 2.64698E-23
 -1       531 2.47364E-05-9.42518E-06 0.00000E+00
 -1       532 2.38870E-05-1.18506E-05-2.64698E-23
 -1       533 2.27404E-05-1.34788E-05-5.29396E-23
 -1       534 2.12276E-05-1.41040E-05-2.64698E-23
 -1       535 1.92763E-05-1.35693E-05 2.64698E-23
 -1       536 4.04642E-05-8.45877E-06-1.65436E-24
 -1       537 4.08791E-05-6.65395E-06 3.30872E-24
 -1       538 4.12934E-05-5.34749E-06 1.32349E-23
 -1       539 4.17131E-05-4.46315E-06 0.00000E+00
 -1       540 4.21335E-05-3.92885E-06 0.00000E+00
 -1       541 4.25549E-05-3.67496E-06 0.00000E+00
 -1       542 4.29765E-05-3.63462E-06 0.00000E+00
 -1       543 4.33983E-05-3.74247E-06 0.00000E+00
 -1       544 4.38201E-05-3.93463E-06-1.32349E-23
 -1       545 4.42418E-05-4.14778E-06-6.61744E-24
 -1       546 4.46634E-05-4.31885E-06 0.00000E+00
 -1       547 4.50845E-05-4.38444E-06-6.61744E-24
 -1       548 4.55054E-05-4.28011E-06 1.32349E-23
 -1       549 4.59234E-05-3.94025E-06 0.00000E+00
 -1       550 4.63419E-05-3.29693E-06-6.61744E-24
 -1       551 3.66172E-05-1.09912E-05-6.61744E-24
 -1       552 3.27983E-05-1.11362E-05 2.74004E-24
 -1       553 2.87675E-05-1.12808E-05 6.61744E-24
 -1       554 2.46738E-05-1.14260E-05 0.00000E+00
 -1       555 2.06657E-05-1.15727E-05 1.32349E-23
 -1       556 3.90040E-05-8.66196E-06 1.32349E-23
 -1       557 3.81111E-05-6.95831E-06 6.61744E-24
 -1       558 3.73787E-05-5.67916E-06 0.00000E+00
 -1       559 3.67854E-05-4.76852E-06-1.32349E-23
 -1       560 3.63097E-05-4.17018E-06 1.32349E-23
 -1       561 3.59301E-05-3.82742E-06 1.32349E-23
 -1       562 3.56252E-05-3.68343E-06 0.00000E+00
 -1       563 3.53736E-05-3.68132E-06-3.30872E-24
 -1       564 3.51539E-05-3.76417E-06-6.61744E-24
 -1       565 3.49447E-05-3.87502E-06 0.00000E+00
 -1       566 3.47247E-05-3.95693E-06-6.61744E-24
 -1       567 3.44726E-05-3.95294E-06-3.30872E-24
 -1       568 3.41671E-05-3.80613E-06 4.54949E-24
 -1       569 3.37874E-05-3.45972E-06 2.06795E-24
 -1       570 3.33130E-05-2.85703E-06 0.00000E+00
 -1       571 4.70065E-05-1.36216E-06-3.30872E-24
 -1       572 4.72807E-05-7.10338E-07 2.68834E-24
 -1       573 4.75579E-05-2.82117E-07 3.30872E-24
 -1       574 4.78365E-05-3.28946E-08 3.30872E-24
 -1       575 4.81157E-05 8.20428E-08 0.00000E+00
 -1       576 4.83951E-05 1.07628E-07 3.30872E-24
 -1       577 4.86746E-05 8.87942E-08 0.00000E+00
 -1       578 4.89542E-05 7.04928E-08-6.61744E-24
 -1       579 4.92338E-05 9.76767E-08 0.00000E+00
 -1       580 4.95134E-05 2.15309E-07 0.00000E+00
 -1       581 4.97929E-05 4.68359E-07 0.00000E+00
 -1       582 5.00722E-05 9.01800E-07-1.32349E-23
 -1       583 5.03512E-05 1.56060E-06 0.00000E+00
 -1       584 5.06296E-05 2.48945E-06 0.00000E+00
 -1       585 5.09069E-05 3.73295E-06 0.00000E+00
 -1       586 4.47208E-05-2.22309E-06 0.00000E+00
 -1       587 4.23626E-05-2.16493E-06 0.00000E+00
 -1       588 3.98251E-05-2.10687E-06-1.65436E-24
 -1       589 3.72679E-05-2.04939E-06 0.00000E+00
 -1       590 3.48501E-05-1.99311E-06 0.00000E+00
 -1       591 4.61998E-05-1.28792E-06 0.00000E+00
 -1       592 4.57141E-05-4.74973E-07 6.61744E-24
 -1       593 4.52837E-05 1.85492E-07 0.00000E+00
 -1       594 4.48998E-05 7.19629E-07 0.00000E+00
 -1       595 4.45532E-05 1.15359E-06 0.00000E+00
 -1       596 4.42343E-05 1.51351E-06 0.00000E+00
 -1       597 4.39332E-05 1.82552E-06-6.61744E-24
 -1       598 4.36404E-05 2.11576E-06-3.30872E-24
 -1       599 4.33459E-05 2.41034E-06-3.30872E-24
 -1       600 4.30400E-05 2.73541E-06-1.65436E-24
 -1       601 4.27129E-05 3.11709E-06-1.65436E-24
 -1       602 4.23550E-05 3.58153E-06 8.27181E-25
 -1       603 4.19565E-05 4.15486E-06 1.03398E-24
 -1       604 4.15087E-05 4.86330E-06-1.24077E-24
 -1       605 4.10028E-05 5.73312E-06 0.00000E+00
 -1       606 5.12519E-05 7.43716E-06 0.00000E+00
 -1       607 5.13165E-05 9.73878E-06 0.00000E+00
 -1       608 5.13792E-05 1.22263E-05 0.00000E+00
 -1       609 5.14406E-05 1.48866E-05-3.30872E-24
 -1       610 5.15013E-05 1.77068E-05 0.00000E+00
 -1       611 5.15615E-05 2.06737E-05 0.00000E+00
 -1       612 5.16213E-05 2.37739E-05 0.00000E+00
 -1       613 5.16807E-05 2.69943E-05 0.00000E+00
 -1       614 5.17397E-05 3.03216E-05 0.00000E+00
 -1       615 5.17984E-05 3.37427E-05 0.00000E+00
 -1       616 5.18569E-05 3.72442E-05 0.00000E+00
 -1       617 5.19151E-05 4.08130E-05 0.00000E+00
 -1       618 5.19731E-05 4.44357E-05 0.00000E+00
 -1       619 5.20309E-05 4.80993E-05 1.65436E-24
 -1       620 5.20885E-05 5.17906E-05-1.65436E-24
 -1       621 4.91570E-05 5.57656E-06 0.00000E+00
 -1       622 4.71931E-05 5.82171E-06 0.00000E+00
 -1       623 4.53143E-05 6.06710E-06 3.30872E-24
 -1       624 4.35458E-05 6.31195E-06-1.65436E-24
 -1       625 4.19125E-05 6.55531E-06 1.65436E-24
 -1       626 5.05071E-05 7.52060E-06 0.00000E+00
 -1       627 4.97491E-05 9.92105E-06 0.00000E+00
 -1       628 4.89172E-05 1.25147E-05 0.00000E+00
 -1       629 4.80202E-05 1.52794E-05 6.61744E-24
 -1       630 4.70668E-05 1.81930E-05 0.00000E+00
 -1       631 4.60656E-05 2.12328E-05 0.00000E+00
 -1       632 4.50250E-05 2.43764E-05-6.61744E-24
 -1       633 4.39537E-05 2.76014E-05 0.00000E+00
 -1       634 4.28602E-05 3.08852E-05 0.00000E+00
 -1       635 4.17528E-05 3.42052E-05-1.65436E-24
 -1       636 4.06402E-05 3.75391E-05 0.00000E+00
 -1       637 3.95308E-05 4.08643E-05 0.00000E+00
 -1       638 3.84330E-05 4.41582E-05 1.65436E-24
 -1       639 3.73550E-05 4.73984E-05-1.65436E-24
 -1       640 3.63046E-05 5.05622E-05-1.24077E-24
 -1       641 5.21453E-05 5.93523E-05-8.27181E-25
 -1       642 5.21416E-05 6.35697E-05 0.00000E+00
 -1       643 5.21366E-05 6.81022E-05 4.13590E-25
 -1       644 5.21301E-05 7.29038E-05 0.00000E+00
 -1       645 5.21225E-05 7.79287E-05-2.06795E-25
 -1       646 5.21140E-05 8.31308E-05-1.03398E-25
 -1       647 5.21048E-05 8.84641E-05 0.00000E+00
 -1       648 5.20951E-05 9.38828E-05 0.00000E+00
 -1       649 5.20852E-05 9.93408E-05 1.03398E-25
 -1       650 5.20753E-05 1.04792E-04 2.58494E-26
 -1       651 5.20656E-05 1.10191E-04 0.00000E+00
 -1       652 5.20563E-05 1.15492E-04 0.00000E+00
 -1       653 5.20476E-05 1.20648E-04 0.00000E+00
 -1       654 5.20387E-05 1.25614E-04 0.00000E+00
 -1       655 5.20313E-05 1.30344E-04 1.65436E-24
 -1       656 4.87553E-05 5.51928E-05 0.00000E+00
 -1       657 4.58045E-05 5.48761E-05 0.00000E+00
 -1       658 4.31387E-05 5.45610E-05 0.00000E+00
 -1       659 4.06017E-05 5.42460E-05 0.00000E+00
 -1       660 3.80365E-05 5.39301E-05-3.30872E-24
 -1       661 5.10525E-05 5.94876E-05-6.61744E-24
 -1       662 4.98374E-05 6.38414E-05 0.00000E+00
 -1       663 4.85075E-05 6.84952E-05-1.32349E-23
 -1       664 4.70866E-05 7.33954E-05 6.61744E-24
 -1       665 4.55923E-05 7.84887E-05 0.00000E+00
 -1       666 4.40443E-05 8.37243E-05 0.00000E+00
 -1       667 4.24611E-05 8.90526E-05-1.32349E-23
 -1       668 4.08613E-05 9.44247E-05-6.61744E-24
 -1       669 3.92632E-05 9.97922E-05 1.32349E-23
 -1       670 3.76853E-05 1.05107E-04 0.00000E+00
 -1       671 3.61460E-05 1.10319E-04 0.00000E+00
 -1       672 3.46640E-05 1.15379E-04-6.61744E-24
 -1       673 3.32589E-05 1.20237E-04 1.32349E-23
 -1       674 3.19478E-05 1.24837E-04-3.30872E-24
 -1       675 3.07557E-05 1.29127E-04 0.00000E+00
 -1       676 4.78810E-05 1.34502E-04-6.61744E-24
 -1       677 4.40031E-05 1.34207E-04 0.00000E+00
 -1       678 4.03155E-05 1.33913E-04 0.00000E+00
 -1       679 3.67474E-05 1.33620E-04 0.00000E+00
 -1       680 3.32274E-05 1.33327E-04 0.00000E+00
 -1       681 1.15031E-05 7.63425E-08 3.30872E-24
 -1       682 1.17214E-05 1.06387E-06 3.30872E-24
 -1       683 1.19397E-05 1.70370E-06 6.61744E-24
 -1       684 1.21591E-05 2.05088E-06 0.00000E+00
 -1       685 1.23787E-05 2.15892E-06 0.00000E+00
 -1       686 1.25984E-05 2.08047E-06-3.30872E-24
 -1       687 1.28181E-05 1.86722E-06 6.61744E-24
 -1       688 1.30378E-05 1.57038E-06 3.30872E-24
 -1       689 1.32575E-05 1.24071E-06 0.00000E+00
 -1       690 1.34772E-05 9.28847E-07 3.30872E-24
 -1       691 1.36967E-05 6.85544E-07-6.61744E-24
 -1       692 1.39157E-05 5.61785E-07-3.30872E-24
 -1       693 1.41346E-05 6.09172E-07 0.00000E+00
 -1       694 1.43508E-05 8.79934E-07 0.00000E+00
 -1       695 1.45676E-05 1.42745E-06-3.30872E-24
 -1       696 9.53737E-06-1.10150E-06 6.61744E-24
 -1       697 7.57776E-06-8.82558E-07 0.00000E+00
 -1       698 5.52819E-06-6.63974E-07 0.00000E+00
 -1       699 3.50458E-06-4.43918E-07 3.30872E-24
 -1       700 1.62303E-06-2.23619E-07 6.61744E-24
 -1       701 1.05309E-05 6.10766E-08 0.00000E+00
 -1       702 9.86860E-06 1.13803E-06-3.30872E-24
 -1       703 9.30716E-06 1.94892E-06 6.61744E-24
 -1       704 8.83270E-06 2.52185E-06 0.00000E+00
 -1       705 8.43568E-06 2.88824E-06-6.61744E-24
 -1       706 8.10396E-06 3.07952E-06 0.00000E+00
 -1       707 7.82561E-06 3.12843E-06-6.61744E-24
 -1       708 7.58813E-06 3.06818E-06 0.00000E+00
 -1       709 7.37886E-06 2.93271E-06 0.00000E+00
 -1       710 7.18502E-06 2.75625E-06 3.30872E-24
 -1       711 6.99369E-06 2.57328E-06 6.61744E-24
 -1       712 6.79224E-06 2.41843E-06 3.30872E-24
 -1       713 6.56754E-06 2.32592E-06 6.61744E-24
 -1       714 6.30884E-06 2.33058E-06 3.30872E-24
 -1       715 6.00077E-06 2.46484E-06 0.00000E+00
 -1       716 1.48924E-05 2.90103E-06-4.13590E-25
 -1       717 1.50274E-05 2.65495E-06 0.00000E+00
 -1       718 1.51616E-05 1.70898E-06 0.00000E+00
 -1       719 1.52971E-05 2.02878E-07 0.00000E+00
 -1       720 1.54321E-05-1.72545E-06 3.30872E-24
 -1       721 1.55669E-05-3.93902E-06-1.65436E-24
 -1       722 1.57014E-05-6.30174E-06-3.30872E-24
 -1       723 1.58360E-05-8.67795E-06 0.00000E+00
 -1       724 1.59708E-05-1.09319E-05-3.30872E-24
 -1       725 1.61061E-05-1.29277E-05 0.00000E+00
 -1       726 1.62418E-05-1.45286E-05 3.30872E-24
 -1       727 1.63776E-05-1.55968E-05-1.65436E-24
 -1       728 1.65136E-05-1.59929E-05 3.30872E-24
 -1       729 1.66462E-05-1.55761E-05-4.13590E-25
 -1       730 1.67788E-05-1.42027E-05 0.00000E+00
 -1       731 1.34223E-05 2.37471E-06-8.27181E-25
 -1       732 1.16706E-05 2.45207E-06 0.00000E+00
 -1       733 9.76539E-06 2.52878E-06 1.65436E-24
 -1       734 7.95818E-06 2.60727E-06 0.00000E+00
 -1       735 6.50060E-06 2.68643E-06 0.00000E+00
 -1       736 1.38201E-05 2.92324E-06 0.00000E+00
 -1       737 1.30001E-05 3.13278E-06 0.00000E+00
 -1       738 1.23187E-05 2.97649E-06 1.32349E-23
 -1       739 1.17567E-05 2.49069E-06-1.32349E-23
 -1       740 1.13011E-05 1.72045E-06-2.64698E-23
 -1       741 1.09336E-05 7.12845E-07 0.00000E+00
 -1       742 1.06355E-05-4.80398E-07-2.64698E-23
 -1       743 1.03866E-05-1.80559E-06 0.00000E+00
 -1       744 1.01660E-05-3.20659E-06 0.00000E+00
 -1       745 9.95258E-06-4.62633E-06 1.32349E-23
 -1       746 9.72480E-06-6.00753E-06-2.64698E-23
 -1       747 9.46190E-06-7.29311E-06-1.32349E-23
 -1       748 9.14286E-06-8.42804E-06 1.32349E-23
 -1       749 8.75066E-06-9.35789E-06 0.00000E+00
 -1       750 8.26254E-06-1.00344E-05 0.00000E+00
 -1       751 1.78219E-05-9.02890E-06-1.32349E-23
 -1       752 1.88107E-05-7.00872E-06 1.32349E-23
 -1       753 1.97981E-05-5.55828E-06 0.00000E+00
 -1       754 2.07955E-05-4.57857E-06 1.32349E-23
 -1       755 2.17941E-05-3.98147E-06-2.64698E-23
 -1       756 2.27945E-05-3.68535E-06-1.32349E-23
 -1       757 2.37953E-05-3.61555E-06 0.00000E+00
 -1       758 2.47965E-05-3.70127E-06 0.00000E+00
 -1       759 2.57976E-05-3.87529E-06-2.64698E-23
 -1       760 2.67985E-05-4.07192E-06 1.32349E-23
 -1       761 2.77992E-05-4.22598E-06 0.00000E+00
 -1       762 2.87985E-05-4.27156E-06 0.00000E+00
 -1       763 2.97970E-05-4.14026E-06 2.64698E-23
 -1       764 3.07880E-05-3.76066E-06 1.32349E-23
 -1       765 3.17806E-05-3.05560E-06 1.32349E-23
 -1       766 1.40789E-05-1.15253E-05 1.65436E-24
 -1       767 1.17886E-05-1.12991E-05 0.00000E+00
 -1       768 1.00097E-05-1.10732E-05 3.30872E-24
 -1       769 8.73493E-06-1.08455E-05 0.00000E+00
 -1       770 7.95955E-06-1.06162E-05-2.06795E-25
 -1       771 1.51677E-05-9.17285E-06 2.64698E-23
 -1       772 1.35663E-05-6.98395E-06-1.32349E-23
 -1       773 1.20890E-05-5.13390E-06 0.00000E+00
 -1       774 1.07277E-05-3.59676E-06 2.64698E-23
 -1       775 9.47402E-06-2.34660E-06 0.00000E+00
 -1       776 8.31828E-06-1.35735E-06 0.00000E+00
 -1       777 7.25075E-06-6.02819E-07-2.64698E-23
 -1       778 6.26159E-06-5.67336E-08-1.32349E-23
 -1       779 5.34086E-06 3.07283E-07 0.00000E+00
 -1       780 4.47862E-06 5.15737E-07 0.00000E+00
 -1       781 3.66493E-06 5.95186E-07-2.64698E-23
 -1       782 2.88995E-06 5.72321E-07-2.64698E-23
 -1       783 2.14384E-06 4.73893E-07 0.00000E+00
 -1       784 1.41767E-06 3.26996E-07 1.32349E-23
 -1       785 7.02839E-07 1.58875E-07 1.32349E-23
 -1       786 3.31864E-05-7.42006E-07-6.61744E-24
 -1       787 3.36679E-05 1.96109E-07 6.61744E-24
 -1       788 3.41487E-05 9.13361E-07 1.32349E-23
 -1       789 3.46335E-05 1.44944E-06-6.61744E-24
 -1       790 3.51187E-05 1.84202E-06-1.32349E-23
 -1       791 3.56048E-05 2.12758E-06 6.61744E-24
 -1       792 3.60910E-05 2.34139E-06 0.00000E+00
 -1       793 3.65773E-05 2.51816E-06 0.00000E+00
 -1       794 3.70637E-05 2.69214E-06-1.32349E-23
 -1       795 3.75499E-05 2.89760E-06 6.61744E-24
 -1       796 3.80361E-05 3.16913E-06 0.00000E+00
 -1       797 3.85217E-05 3.54188E-06 6.61744E-24
 -1       798 3.90070E-05 4.05214E-06 0.00000E+00
 -1       799 3.94893E-05 4.73732E-06 6.61744E-24
 -1       800 3.99722E-05 5.63682E-06 6.61744E-24
 -1       801 2.93984E-05-1.61603E-06 0.00000E+00
 -1       802 2.31331E-05-1.28581E-06 0.00000E+00
 -1       803 1.54996E-05-9.65207E-07 6.61744E-24
 -1       804 8.05728E-06-6.45390E-07 0.00000E+00
 -1       805 2.36709E-06-3.13960E-07 0.00000E+00
 -1       806 3.19424E-05-8.56646E-07 6.61744E-24
 -1       807 3.11909E-05 1.01988E-07 0.00000E+00
 -1       808 3.04753E-05 9.56962E-07 0.00000E+00
 -1       809 2.97891E-05 1.72982E-06 0.00000E+00
 -1       810 2.91253E-05 2.44206E-06 0.00000E+00
 -1       811 2.84760E-05 3.11503E-06-6.61744E-24
 -1       812 2.78333E-05 3.77005E-06 1.32349E-23
 -1       813 2.71893E-05 4.42845E-06 0.00000E+00
 -1       814 2.65361E-05 5.11155E-06 6.61744E-24
 -1       815 2.58656E-05 5.84064E-06-6.61744E-24
 -1       816 2.51698E-05 6.63701E-06 0.00000E+00
 -1       817 2.44411E-05 7.52197E-06 3.30872E-24
 -1       818 2.36714E-05 8.51682E-06-1.32349E-23
 -1       819 2.28540E-05 9.64296E-06-1.65436E-24
 -1       820 2.19822E-05 1.09219E-05 3.30872E-24
 -1       821 4.01358E-05 8.27720E-06 3.30872E-24
 -1       822 3.98163E-05 1.01232E-05-3.30872E-24
 -1       823 3.94968E-05 1.22988E-05 0.00000E+00
 -1       824 3.91739E-05 1.47708E-05 3.30872E-24
 -1       825 3.88500E-05 1.75043E-05-6.61744E-24
 -1       826 3.85251E-05 2.04626E-05-6.61744E-24
 -1       827 3.81994E-05 2.36074E-05-1.32349E-23
 -1       828 3.78732E-05 2.68995E-05-6.61744E-24
 -1       829 3.75467E-05 3.02987E-05 1.32349E-23
 -1       830 3.72200E-05 3.37638E-05 0.00000E+00
 -1       831 3.68933E-05 3.72536E-05-1.32349E-23
 -1       832 3.65672E-05 4.07264E-05 0.00000E+00
 -1       833 3.62414E-05 4.41409E-05-6.61744E-24
 -1       834 3.59183E-05 4.74559E-05-3.30872E-24
 -1       835 3.55951E-05 5.06311E-05 0.00000E+00
 -1       836 3.83393E-05 7.70479E-06-1.32349E-23
 -1       837 3.50263E-05 8.64929E-06-1.32349E-23
 -1       838 3.10754E-05 9.58951E-06-2.64698E-23
 -1       839 2.70529E-05 1.05285E-05 0.00000E+00
 -1       840 2.35231E-05 1.14714E-05-1.32349E-23
 -1       841 3.97070E-05 8.24044E-06 0.00000E+00
 -1       842 3.88125E-05 1.00900E-05 1.65436E-24
 -1       843 3.77814E-05 1.23034E-05 3.30872E-24
 -1       844 3.66273E-05 1.48370E-05-3.30872E-24
 -1       845 3.53684E-05 1.76477E-05 6.61744E-24
 -1       846 3.40215E-05 2.06902E-05 0.00000E+00
 -1       847 3.26040E-05 2.39186E-05 0.00000E+00
 -1       848 3.11339E-05 2.72863E-05 3.30872E-24
 -1       849 2.96288E-05 3.07460E-05 6.61744E-24
 -1       850 2.81070E-05 3.42500E-05-3.30872E-24
 -1       851 2.65864E-05 3.77506E-05 0.00000E+00
 -1       852 2.50855E-05 4.12000E-05 3.30872E-24
 -1       853 2.36219E-05 4.45506E-05 6.61744E-24
 -1       854 2.22144E-05 4.77554E-05 0.00000E+00
 -1       855 2.08796E-05 5.07675E-05 3.30872E-24
 -1       856 3.49582E-05 5.68413E-05 0.00000E+00
 -1       857 3.46132E-05 6.06541E-05 3.30872E-24
 -1       858 3.42669E-05 6.49943E-05 6.61744E-24
 -1       859 3.39160E-05 6.97879E-05 0.00000E+00
 -1       860 3.35632E-05 7.49572E-05 0.00000E+00
 -1       861 3.32083E-05 8.04224E-05 0.00000E+00
 -1       862 3.28522E-05 8.61015E-05 0.00000E+00
 -1       863 3.24954E-05 9.19111E-05-6.61744E-24
 -1       864 3.21382E-05 9.77666E-05 0.00000E+00
 -1       865 3.17813E-05 1.03584E-04 0.00000E+00
 -1       866 3.14252E-05 1.09278E-04 0.00000E+00
 -1       867 3.10705E-05 1.14765E-04 0.00000E+00
 -1       868 3.07174E-05 1.19964E-04 1.32349E-23
 -1       869 3.03677E-05 1.24794E-04-3.30872E-24
 -1       870 3.00197E-05 1.29178E-04-6.61744E-24
 -1       871 3.25522E-05 5.36148E-05 0.00000E+00
 -1       872 2.99072E-05 5.36017E-05 0.00000E+00
 -1       873 2.73227E-05 5.35884E-05 0.00000E+00
 -1       874 2.47694E-05 5.35746E-05 4.13590E-25
 -1       875 2.22179E-05 5.35601E-05-8.27181E-25
 -1       876 3.44795E-05 5.69582E-05-6.61744E-24
 -1       877 3.34881E-05 6.08265E-05 6.61744E-24
 -1       878 3.23239E-05 6.51479E-05 0.00000E+00
 -1       879 3.10183E-05 6.98498E-05 0.00000E+00
 -1       880 2.95950E-05 7.48617E-05 1.32349E-23
 -1       881 2.80800E-05 8.01162E-05 0.00000E+00
 -1       882 2.64972E-05 8.55488E-05 1.32349E-23
 -1       883 2.48709E-05 9.10963E-05 0.00000E+00
 -1       884 2.32242E-05 9.66966E-05 1.32349E-23
 -1       885 2.15808E-05 1.02289E-04 6.61744E-24
 -1       886 1.99640E-05 1.07810E-04-1.32349E-23
 -1       887 1.83970E-05 1.13200E-04 6.61744E-24
 -1       888 1.69043E-05 1.18393E-04 1.32349E-23
 -1       889 1.55077E-05 1.23325E-04 0.00000E+00
 -1       890 1.42370E-05 1.27928E-04-6.61744E-24
 -1       891 2.64996E-05 1.32888E-04 0.00000E+00
 -1       892 2.39027E-05 1.32734E-04-1.65436E-24
 -1       893 2.15789E-05 1.32581E-04 3.30872E-24
 -1       894 1.92133E-05 1.32429E-04-1.65436E-24
 -1       895 1.64913E-05 1.32275E-04 0.00000E+00
 -1       896 3.50315E-07 1.27564E-06-1.32349E-23
 -1       897 7.03787E-07 2.22102E-06-6.61744E-24
 -1       898 1.05737E-06 2.87966E-06 0.00000E+00
 -1       899 1.41156E-06 3.29341E-06 0.00000E+00
 -1       900 1.76584E-06 3.50208E-06-1.32349E-23
 -1       901 2.12024E-06 3.54429E-06 0.00000E+00
 -1       902 2.47465E-06 3.45729E-06 0.00000E+00
 -1       903 2.82905E-06 3.27753E-06 0.00000E+00
 -1       904 3.18342E-06 3.04072E-06-1.32349E-23
 -1       905 3.53772E-06 2.78221E-06 6.61744E-24
 -1       906 3.89194E-06 2.53720E-06 1.32349E-23
 -1       907 4.24581E-06 2.34094E-06-6.61744E-24
 -1       908 4.59952E-06 2.22910E-06-1.32349E-23
 -1       909 4.95132E-06 2.23785E-06-3.30872E-24
 -1       910 5.30357E-06 2.40435E-06-6.61744E-24
 -1       911 5.77158E-06 3.03061E-06-3.30872E-24
 -1       912 5.90061E-06 2.91152E-06 1.65436E-24
 -1       913 6.02948E-06 2.46200E-06-3.30872E-24
 -1       914 6.15853E-06 1.73409E-06-1.65436E-24
 -1       915 6.28743E-06 7.78935E-07-3.30872E-24
 -1       916 6.41621E-06-3.52783E-07 0.00000E+00
 -1       917 6.54485E-06-1.61091E-06 3.30872E-24
 -1       918 6.67339E-06-2.94560E-06-1.65436E-24
 -1       919 6.80187E-06-4.30720E-06 0.00000E+00
 -1       920 6.93029E-06-5.64612E-06 1.65436E-24
 -1       921 7.05871E-06-6.91274E-06 0.00000E+00
 -1       922 7.18683E-06-8.05723E-06-1.65436E-24
 -1       923 7.31493E-06-9.02942E-06 0.00000E+00
 -1       924 7.44090E-06-9.77879E-06 0.00000E+00
 -1       925 7.56760E-06-1.02541E-05 0.00000E+00
 -1       926 7.21330E-06-1.02753E-05-1.32349E-23
 -1       927 6.73392E-06-9.96411E-06 6.61744E-24
 -1       928 6.25499E-06-9.49111E-06 0.00000E+00
 -1       929 5.77398E-06-8.87882E-06 6.61744E-24
 -1       930 5.29273E-06-8.15128E-06 0.00000E+00
 -1       931 4.81103E-06-7.33348E-06-6.61744E-24
 -1       932 4.32920E-06-6.45140E-06 0.00000E+00
 -1       933 3.84727E-06-5.53154E-06 6.61744E-24
 -1       934 3.36531E-06-4.60086E-06-1.32349E-23
 -1       935 2.88337E-06-3.68635E-06 6.61744E-24
 -1       936 2.40150E-06-2.81486E-06 0.00000E+00
 -1       937 1.91981E-06-2.01288E-06 0.00000E+00
 -1       938 1.43825E-06-1.30612E-06-1.32349E-23
 -1       939 9.57482E-07-7.19512E-07 6.61744E-24
 -1       940 4.76609E-07-2.76680E-07 0.00000E+00
 -1       941 1.24656E-06 2.20099E-07 1.32349E-23
 -1       942 2.56355E-06 5.03219E-07 1.32349E-23
 -1       943 3.87759E-06 8.46282E-07 0.00000E+00
 -1       944 5.20363E-06 1.24759E-06-1.32349E-23
 -1       945 6.53068E-06 1.70721E-06 5.29396E-23
 -1       946 7.85998E-06 2.22657E-06 0.00000E+00
 -1       947 9.18970E-06 2.80889E-06 5.29396E-23
 -1       948 1.05198E-05 3.45883E-06 0.00000E+00
 -1       949 1.18498E-05 4.18317E-06 0.00000E+00
 -1       950 1.31795E-05 4.99032E-06 0.00000E+00
 -1       951 1.45088E-05 5.89127E-06 5.29396E-23
 -1       952 1.58361E-05 6.89914E-06 0.00000E+00
 -1       953 1.71625E-05 8.03033E-06 0.00000E+00
 -1       954 1.84789E-05 9.30400E-06 1.32349E-23
 -1       955 1.97976E-05 1.07437E-05-2.64698E-23
 -1       956 2.09728E-05 1.42483E-05 0.00000E+00
 -1       957 2.08856E-05 1.62777E-05-8.27181E-25
 -1       958 2.07978E-05 1.84522E-05-3.30872E-24
 -1       959 2.07096E-05 2.07580E-05-8.27181E-25
 -1       960 2.06211E-05 2.31812E-05 2.48154E-24
 -1       961 2.05324E-05 2.57076E-05-1.03398E-24
 -1       962 2.04434E-05 2.83232E-05 2.58494E-24
 -1       963 2.03542E-05 3.10138E-05-8.27181E-25
 -1       964 2.02649E-05 3.37652E-05-8.27181E-25
 -1       965 2.01754E-05 3.65634E-05 0.00000E+00
 -1       966 2.00859E-05 3.93942E-05 1.65436E-24
 -1       967 1.99963E-05 4.22434E-05 0.00000E+00
 -1       968 1.99067E-05 4.50969E-05 3.30872E-24
 -1       969 1.98172E-05 4.79406E-05-1.65436E-24
 -1       970 1.97279E-05 5.07605E-05 0.00000E+00
 -1       971 1.92507E-05 5.65662E-05 0.00000E+00
 -1       972 1.88470E-05 6.01829E-05 0.00000E+00
 -1       973 1.84419E-05 6.43287E-05-1.32349E-23
 -1       974 1.80326E-05 6.89356E-05 0.00000E+00
 -1       975 1.76213E-05 7.39314E-05 0.00000E+00
 -1       976 1.72081E-05 7.92414E-05 0.00000E+00
 -1       977 1.67935E-05 8.47878E-05 0.00000E+00
 -1       978 1.63780E-05 9.04913E-05 6.61744E-24
 -1       979 1.59621E-05 9.62710E-05 0.00000E+00
 -1       980 1.55464E-05 1.02046E-04 0.00000E+00
 -1       981 1.51311E-05 1.07735E-04 0.00000E+00
 -1       982 1.47173E-05 1.13256E-04 0.00000E+00
 -1       983 1.43049E-05 1.18532E-04-1.32349E-23
 -1       984 1.38966E-05 1.23485E-04 6.61744E-24
 -1       985 1.34895E-05 1.28039E-04 0.00000E+00
 -3
    1PSTEP                         2           1           1          
  100CL  101 1.000000000         841                     0    1           1
 -4  STRESS      6    1
 -5  SXX         1    4    1    1
 -5  SYY         1    4    2    2
 -5  SZZ         1    4    3    3
 -5  SXY         1    4    1    2
 -5  SYZ         1    4    2    3
 -5  SZX         1    4    3    1
 -1         1-3.09155E+06-9.39723E+05-5.36227E+05-9.63116E+05 2.23129E-10-7.16924E-09
 -1         2-2.01673E+06-3.84946E+04 2.94365E+03-1.87961E+05-1.28239E-10 3.60069E-09
 -1         3-9.85406E+05-6.43809E+05-1.24580E+03-1.12334E+05-4.66116E-11 1.09139E-11
 -1         4-3.46203E+05-1.61978E+05 3.88631E+02-4.97355E+04-3.04112E-11-4.11887E-09
 -1         5-6.31252E+04 4.91453E+05-1.41412E+05-1.16851E+04 1.47338E-09 2.93835E-09
 -1         8-1.65121E+06-6.99258E+05-2.56916E+05-8.75201E+05 3.31056E-10 2.03727E-10
 -1         9-1.96971E+06-4.25928E+05-2.95563E+05-5.06026E+05 1.70136E-09-9.19802E-10
 -1        10-1.10666E+06-9.33616E+05-2.18573E+03-3.53877E+05 6.36949E-10 1.80656E-09
 -1        11-5.26350E+05-2.52477E+05-1.36637E+01-1.83260E+05-6.98492E-10 1.67650E-10
 -1        12-1.95093E+05 4.44068E+05-1.66438E+05-7.44702E+04 4.74665E-09-9.72349E-10
 -1        15-5.00185E+03-5.90550E+04 2.89895E+03-2.66426E+05-1.85537E-10 1.70621E-09
 -1        16-1.21181E+06-3.61020E+05-1.99159E+05-5.25607E+05 3.12139E-09 1.58131E-09
 -1        17-7.71460E+05-7.21076E+05-1.45738E+05-5.02254E+05 1.64800E-09 1.07442E-09
 -1        18-1.95070E+05-1.92235E+05-9.04268E+04-3.55511E+05-1.01500E-09-1.81899E-11
 -1        19-1.35617E+04 2.12658E+05-8.11591E+04-9.96681E+04 3.64859E-09 1.93722E-09
 -1        20 2.26293E+05-1.50996E+05-1.55777E+04 1.11655E+05 1.05556E-08-2.72485E-09
 -1        21-4.20530E+04-3.67132E+05-1.76735E+03 2.35310E+04 2.62462E-08-3.27523E-09
 -1        22 4.00412E+04 2.12832E+05 1.15941E+03-5.36365E+04-1.24146E-10-2.19370E-09
 -1        23-3.67880E+05-3.06091E+04 2.53254E+03-2.37202E+05 7.89138E-10-4.35951E-10
 -1        24-2.88148E+05-3.70329E+04 1.26479E+05-4.43735E+05 9.09495E-11-1.53038E-09
 -1        25 5.96852E+05 2.98085E+05 2.22824E+05-3.49784E+05-3.98359E-10-7.38510E-10
 -1        26 6.37630E+04 5.07509E+05 6.70589E+04-1.06196E+05 1.12777E-09 7.76102E-10
 -1        27-1.45676E+05-1.45741E+05-6.79606E+04 1.21722E+05 3.02013E-09-3.44274E-09
 -1        28-4.14357E+04-2.49428E+05-2.29492E+03 1.12652E+05 2.76027E-08-1.03081E-09
 -1        29 4.86860E+05 3.39431E+05 1.27587E+03-3.15043E+04-1.24942E-10-2.36378E-09
 -1        30 1.99116E+05 4.38221E+04 1.72260E+03-7.29240E+04 9.77352E-10-2.45564E-11
 -1        31-5.97504E+05 5.07576E+04 3.55678E+03-1.35438E+05 2.47852E-09 5.78439E-10
 -1        32 3.61205E+05 4.43727E+05 3.77141E+05-3.17415E+05-1.03269E-09 3.55067E-09
 -1        33 9.00547E+05 8.71954E+05 3.87901E+05-1.26200E+05-8.19199E-10 1.16597E-09
 -1        34-4.60536E+05-9.74474E+04-6.83067E+04 2.28246E+04 2.10306E-08-3.86353E-09
 -1        35-5.42322E+04-7.91495E+04-1.75933E+03 1.53160E+05 2.95033E-08 3.57977E-09
 -1        36-4.36384E+06 9.24664E+04-2.73311E+05 2.38288E-10-8.89440E-10-7.27596E-11
 -1        37-4.47232E+06-1.10841E+05-1.84361E+05 7.64794E-08 6.65161E-10-2.02272E-09
 -1        38-4.40746E+06 1.18437E+04-7.09403E+04 2.77023E-08 2.19280E-10 3.78714E-09
 -1        39-4.42234E+06-1.40847E+04-4.18031E+04-4.90606E-08 1.03829E-09 1.65310E-08
 -1        40-4.41346E+06 1.52107E+03-1.81759E+04-6.53944E-08-5.02143E-10 2.20734E-09
 -1        41-4.41538E+06-1.79707E+03-1.02648E+04-9.10264E-08-1.47466E-09-3.04317E-09
 -1        42-4.41431E+06 2.14484E+02-5.36532E+03-6.67532E-08 1.63566E-10 1.95541E-10
 -1        43-4.41447E+06-3.91612E+02-4.19461E+03-1.01901E-08 1.43703E-09 4.56211E-10
 -1        44-4.41434E+06 1.75810E+02-4.59640E+03-3.52256E-08-1.44385E-09-2.41914E-09
 -1        45-4.41510E+06-1.39886E+03-8.16176E+03-4.95834E-09 3.67764E-10-1.10311E-08
 -1        46-4.41369E+06 1.17622E+03-1.41518E+04 5.52069E-08 2.52859E-10-1.39789E-09
 -1        47-4.42047E+06-1.08804E+04-3.23469E+04 7.17168E-08 3.54798E-10 4.88762E-09
 -1        48-4.40906E+06 9.14808E+03-5.48267E+04-1.59587E-08-1.12816E-09 2.35013E-09
 -1        49-4.45907E+06-8.56170E+04-1.42420E+05-6.40957E-08 7.03682E-10 1.73168E-09
 -1        50-4.37539E+06 7.14157E+04-2.11172E+05 2.65945E-08-1.43368E-09-1.26602E-09
 -1        51 4.99984E+04-4.34035E+05 9.67069E+04-1.21095E+06-1.74623E-10-1.53814E-08
 -1        52 2.21979E+04-4.25782E+05 5.47519E+04-1.37450E+06-2.11003E-10-7.62520E-09
 -1        53 1.19647E+04-4.46929E+05 3.54091E+04-1.20694E+06-6.69388E-10-1.20344E-08
 -1        54 2.62580E+04-4.46327E+05 4.34052E+04-1.37859E+06 1.01863E-10-2.02199E-08
 -1        55 5.01781E+04-4.61427E+05 7.00732E+04-1.20619E+06 5.23869E-10-1.02154E-08
 -1        56-4.68911E+06-5.47902E+05-3.45406E+05-1.80367E+06-2.42289E-09-5.52973E-10
 -1        57-4.82139E+06-8.42334E+05-2.29308E+05-1.79643E+06-3.25690E-09 7.82893E-09
 -1        58-4.75694E+06-6.50056E+05-8.13421E+04-1.78405E+06 5.27507E-11-2.27374E-09
 -1        59-4.74313E+06-7.20714E+05-4.75201E+04-1.82043E+06 9.89075E-10-1.11913E-09
 -1        60-4.76616E+06-6.63576E+05-1.90084E+04-1.78174E+06-9.87256E-10-2.07729E-09
 -1        61-4.73422E+06-7.02846E+05-1.06516E+04-1.82097E+06-2.69870E-09 3.41015E-09
 -1        62-4.76555E+06-6.67262E+05-5.39489E+03-1.78367E+06 6.40739E-10-5.47925E-09
 -1        63-4.73822E+06-6.95546E+05-4.62497E+03-1.81474E+06-7.32143E-10-4.53576E-09
 -1        64-4.76193E+06-6.70932E+05-5.80682E+03-1.78785E+06-4.63842E-10 2.34741E-09
 -1        65-4.74787E+06-6.89208E+05-1.16859E+04-1.80464E+06 1.95087E-10-4.99404E-09
 -1        66-4.75575E+06-6.73802E+05-2.11848E+04-1.79360E+06 5.54337E-10-2.13367E-09
 -1        67-4.76946E+06-6.97268E+05-5.27725E+04-1.79043E+06 3.76872E-11-3.38332E-09
 -1        68-4.74054E+06-6.63698E+05-9.05600E+04-1.80178E+06-1.96451E-10 9.10222E-09
 -1        69-4.86404E+06-8.25301E+05-2.55053E+05-1.75576E+06-1.20872E-09 1.42027E-08
 -1        70-4.66272E+06-5.52212E+05-3.84202E+05-1.82610E+06-3.47063E-09-3.78350E-10
 -1        71-1.90540E+06-5.12748E+03 1.51999E+04-3.05168E-08-2.18147E-10-2.78851E-09
 -1        72-1.89918E+06 6.15009E+03 1.02404E+04-9.91184E-08-2.11049E-10-4.83021E-09
 -1        73-1.90297E+06-6.56701E+02 3.93833E+03-7.34044E-08-2.50114E-10-6.71662E-10
 -1        74-1.90195E+06 7.80814E+02 2.30679E+03 4.09973E-08 9.91143E-10 2.13538E-09
 -1        75-1.90264E+06-8.38967E+01 9.74854E+02-6.46007E-09-5.75642E-11 5.81502E-09
 -1        76-1.90234E+06 9.60548E+01 4.93678E+02-9.11307E-08 2.55515E-10-1.81322E-09
 -1        77-1.90259E+06-8.50747E+00 1.47397E+02-4.80196E-08 5.45895E-10-6.18259E-09
 -1        78-1.90242E+06-8.01919E+00-8.64721E+01 4.51975E-08-1.27761E-09-5.18329E-09
 -1        79-1.90257E+06 1.65018E+01-3.52740E+02 2.86426E-08 1.47595E-10-2.21382E-09
 -1        80-1.90252E+06-1.61522E+02-8.73049E+02 5.17324E-08-2.50300E-10-4.06493E-09
 -1        81-1.90248E+06 1.39149E+02-1.64021E+03-1.37312E-08 4.52613E-11-3.94868E-09
 -1        82-1.90316E+06-1.29238E+03-3.83101E+03 2.30468E-08-6.47714E-10 4.00792E-09
 -1        83-1.90193E+06 1.08678E+03-6.52349E+03-2.37119E-08-3.73257E-11 7.64976E-09
 -1        84-1.90775E+06-1.01772E+04-1.69488E+04-7.03722E-09-6.83008E-10-8.74024E-10
 -1        85-1.89792E+06 8.48546E+03-2.51498E+04 2.59988E-08-5.98554E-10 2.67391E-10
 -1        86-8.80186E+04 7.60078E+05 2.66896E+05 2.89317E+03 3.63798E-10 4.96038E-09
 -1        87 1.12350E+05 8.68709E+05 1.96675E+05 1.06176E+05 8.02174E-10-2.51384E-09
 -1        88-1.80128E+04 7.97875E+05 1.06024E+05 2.07188E+03 1.66074E-09-3.39060E-09
 -1        89 7.53917E+04 8.51492E+05 1.42210E+05 1.08599E+05 3.08501E-09-1.64528E-09
 -1        90-5.42405E+04 7.78601E+05 1.68091E+05 4.81966E+02 4.34375E-09 2.71029E-10
 -1        91-2.37714E+06-3.16313E+05-5.57327E+04-8.98659E+05-5.75710E-10 1.92813E-09
 -1        92-2.39413E+06-3.67829E+05-3.69616E+04-9.02206E+05 9.43601E-10-3.75803E-09
 -1        93-2.38819E+06-3.32635E+05-1.31337E+04-8.95379E+05-1.01295E-10-4.36012E-09
 -1        94-2.38128E+06-3.48521E+05-7.67030E+03-9.06374E+05 3.39540E-10-9.16884E-10
 -1        95-2.38982E+06-3.34659E+05-3.07140E+03-8.94839E+05-7.45104E-10 1.54671E-09
 -1        96-2.37955E+06-3.45964E+05-1.72044E+03-9.06838E+05 3.02578E-10 1.04037E-08
 -1        97-2.38989E+06-3.35078E+05-8.62312E+02-8.94952E+05 9.17566E-10 8.48374E-10
 -1        98-2.37988E+06-3.45114E+05-7.35293E+02-9.06228E+05 2.95586E-12-2.94682E-09
 -1        99-2.38947E+06-3.35507E+05-8.99050E+02-8.95443E+05 9.40645E-10 3.05249E-10
 -1       100-2.38119E+06-3.44325E+05-1.81226E+03-9.04893E+05 1.91181E-09-8.19853E-10
 -1       101-2.38857E+06-3.35894E+05-3.26601E+03-8.96267E+05 1.63368E-10 5.58543E-09
 -1       102-2.38452E+06-3.45521E+05-8.13678E+03-9.02637E+05-8.44864E-10 3.81419E-09
 -1       103-2.38613E+06-3.34446E+05-1.39585E+04-8.97641E+05-7.18430E-10-5.65069E-09
 -1       104-2.39940E+06-3.64800E+05-3.92476E+04-8.96810E+05-1.34429E-09 6.31189E-10
 -1       105-2.37387E+06-3.17638E+05-5.92006E+04-9.01722E+05 1.80353E-09 1.12777E-09
 -1       106-7.17637E+05-2.79503E+04 8.29448E+04 1.07430E-08-8.34191E-10 2.91038E-10
 -1       107-6.84596E+05 3.35305E+04 5.58834E+04 7.54753E-08-1.27194E-09-3.20870E-09
 -1       108-7.04396E+05-3.57957E+03 2.15296E+04 1.01751E-08 1.31788E-10-2.62571E-09
 -1       109-6.99701E+05 4.25760E+03 1.26555E+04 4.72670E-09 4.09666E-10-2.62821E-09
 -1       110-7.02565E+05-4.58682E+02 5.44779E+03 3.44892E-08 1.26662E-10 1.73713E-09
 -1       111-7.01809E+05 5.35180E+02 2.95192E+03-2.48954E-08-7.89885E-10 7.56813E-09
 -1       112-7.02295E+05-5.73553E+01 1.30051E+03-1.76491E-09 2.91974E-10-4.18669E-09
 -1       113-7.02132E+05 5.28293E+01 5.71478E+02 6.01398E-08-3.67183E-11-2.92864E-09
 -1       114-7.02243E+05 4.68492E+00 5.65104E+01 7.05783E-08-9.48207E-10 3.16646E-10
 -1       115-7.02248E+05-1.03824E+02-4.46250E+02 3.50807E-08 1.18841E-09 1.66261E-09
 -1       116-7.02180E+05 9.46458E+01-1.05383E+03-5.47519E-08-3.17077E-10 3.57500E-09
 -1       117-7.02696E+05-8.86408E+02-2.59586E+03 3.84684E-08-5.86490E-10-2.01811E-09
 -1       118-7.01796E+05 7.45900E+02-4.46629E+03 3.95248E-08 3.27287E-10-5.46493E-09
 -1       119-7.05846E+05-6.98746E+03-1.16358E+04-7.03473E-08 4.25922E-10 6.81894E-10
 -1       120-6.99034E+05 5.82565E+03-1.72742E+04-1.84682E-08-1.96267E-10 1.12050E-09
 -1       121 3.05756E+04-2.60404E+06-9.24126E+04 7.49249E+02-2.61934E-10-5.90717E-10
 -1       122-3.90719E+04-2.64117E+06-6.80318E+04 4.09964E+03 8.22183E-10-1.02012E-08
 -1       123 6.15286E+03-2.61719E+06-3.65435E+04 1.98390E+03-7.11680E-10-6.68479E-11
 -1       124-2.60768E+04-2.63445E+06-4.86581E+04 1.59640E+03 1.01500E-09 1.32695E-09
 -1       125 1.83612E+04-2.61072E+06-5.75766E+04 3.25073E+03-1.35333E-09 3.48700E-09
 -1       126-1.13366E+06-1.68422E+05 2.87551E+04-4.21035E+05-3.71074E-10-1.34241E-09
 -1       127-1.11352E+06-1.52954E+05 1.90692E+04-4.31880E+05-7.13499E-10-1.55114E-09
 -1       128-1.12834E+06-1.59618E+05 6.77019E+03-4.22281E+05-6.02540E-11 8.27413E-10
 -1       129-1.11965E+06-1.63428E+05 3.93809E+03-4.30337E+05-5.26711E-10 3.66578E-09
 -1       130-1.12762E+06-1.58436E+05 1.54016E+03-4.22404E+05 9.03526E-11-6.39238E-09
 -1       131-1.12053E+06-1.64770E+05 7.84637E+02-4.30116E+05 3.30431E-10-4.09938E-09
 -1       132-1.12746E+06-1.58334E+05 2.36150E+02-4.22481E+05-6.07770E-10 1.29091E-10
 -1       133-1.12088E+06-1.64787E+05-9.16883E+01-4.29863E+05-4.00746E-10-2.80875E-09
 -1       134-1.12728E+06-1.58430E+05-4.58432E+02-4.22650E+05-3.02521E-10-9.39906E-10
 -1       135-1.12144E+06-1.64704E+05-1.22547E+03-4.29392E+05-1.27284E-09-9.37462E-10
 -1       136-1.12689E+06-1.58434E+05-2.33720E+03-4.22940E+05 1.29955E-09 1.02796E-09
 -1       137-1.12326E+06-1.66201E+05-5.91362E+03-4.28462E+05-2.38060E-10 8.37099E-09
 -1       138-1.12546E+06-1.57029E+05-1.01673E+04-4.23540E+05 4.15170E-11 1.23782E-09
 -1       139-1.13336E+06-1.80964E+05-2.85977E+04-4.25044E+05-7.05995E-10-1.37152E-09
 -1       140-1.11689E+06-1.44414E+05-4.31342E+04-4.26078E+05-2.18324E-09 7.52152E-09
 -1       141-1.33508E+05-1.16132E+04 3.44586E+04-2.36123E-08-2.53865E-10-1.37334E-09
 -1       142-1.19788E+05 1.39308E+04 2.32123E+04-3.19301E-08 3.46265E-10 3.41970E-09
 -1       143-1.27999E+05-1.48697E+03 8.92308E+03 3.31135E-08 7.94077E-10 6.37237E-09
 -1       144-1.26065E+05 1.76764E+03 5.20566E+03-2.70229E-08-1.12389E-09-1.32786E-10
 -1       145-1.27234E+05-1.89279E+02 2.15613E+03-1.22475E-08 7.89557E-11-2.42949E-09
 -1       146-1.26952E+05 2.12001E+02 1.00095E+03 5.36635E-08 1.79375E-10 3.77406E-09
 -1       147-1.27112E+05-1.40900E+01 1.01520E+02-3.82848E-08-2.28002E-10-3.99172E-09
 -1       148-1.27151E+05-6.35618E+01-6.88602E+02-1.52084E-08 5.13168E-10-6.35444E-09
 -1       149-1.27035E+05 7.74671E+01-1.73660E+03 1.47491E-08-5.04974E-10-5.22959E-12
 -1       150-1.27599E+05-7.31030E+02-4.01924E+03 6.91661E-08-6.41687E-11-2.30017E-09
 -1       151-1.26664E+05 6.27341E+02-7.44827E+03-2.55562E-08 2.11926E-11-1.02273E-09
 -1       152-1.30483E+05-5.82433E+03-1.73186E+04 5.86876E-08 1.17716E-09 6.39852E-09
 -1       153-1.24152E+05 4.89733E+03-2.94634E+04 5.40092E-08-5.05336E-10-1.47156E-09
 -1       154-1.51144E+05-4.58721E+04-7.64709E+04-2.96805E-08 1.49588E-09-8.33825E-09
 -1       155-1.05989E+05 3.82487E+04-1.13412E+05-2.04182E-09 1.07272E-09 1.06229E-09
 -1       156 2.31640E+03-5.88383E+05-6.30893E+03 1.35060E+02-3.00133E-11 2.70347E-09
 -1       157-2.03299E+03-5.90554E+05-2.34042E+03 1.04523E+03-2.58183E-10-6.56655E-10
 -1       158-4.37536E+02-5.89912E+05 2.52509E+03 3.70009E+02-5.79803E-11 4.42856E-09
 -1       159 6.52935E+03-5.86128E+05 1.04384E+04 5.75251E+02-4.97494E-10-3.42573E-09
 -1       160-5.72771E+03-5.92801E+05 1.66832E+04 6.05463E+02-1.14596E-10-3.96471E-09
 -1       161-5.37864E+05-7.27830E+04-8.98782E+03-2.02916E+05-3.28896E-10-5.88352E-09
 -1       162-5.37144E+05-8.45260E+04-5.96784E+03-2.07437E+05-2.89148E-10-3.00406E-09
 -1       163-5.39602E+05-7.54560E+04-2.13896E+03-2.02441E+05-1.96513E-09-1.12891E-10
 -1       164-5.35155E+05-8.13410E+04-1.28082E+03-2.08018E+05-1.21531E-10 6.65921E-10
 -1       165-5.39832E+05-7.58141E+04-5.83489E+02-2.02393E+05-4.13507E-10 8.82174E-10
 -1       166-5.34935E+05-8.08954E+04-4.70149E+02-2.08036E+05 2.69836E-10 7.61554E-09
 -1       167-5.39816E+05-7.58847E+04-5.23729E+02-2.02429E+05-5.99186E-10 4.35813E-09
 -1       168-5.35087E+05-8.08532E+04-9.86437E+02-2.07911E+05-3.63826E-10-2.04113E-09
 -1       169-5.39675E+05-7.58600E+04-1.83121E+03-2.02514E+05 9.39053E-11 2.78851E-09
 -1       170-5.35864E+05-8.15652E+04-4.26010E+03-2.07603E+05-4.30418E-10 6.62715E-09
 -1       171-5.39038E+05-7.52081E+04-7.88356E+03-2.02721E+05 6.87386E-10 1.56888E-09
 -1       172-5.40450E+05-8.80994E+04-1.98401E+04-2.06288E+05-8.54698E-10 5.43650E-10
 -1       173-5.35124E+05-6.96208E+04-3.40284E+04-2.03715E+05-2.48292E-09 5.32964E-10
 -1       174-5.72311E+05-1.39459E+05-9.57133E+04-1.97148E+05-1.10595E-09 1.90084E-10
 -1       175-5.07512E+05-2.63003E+04-1.44239E+05-2.10933E+05 4.85306E-09 2.85945E-09
 -1       191 9.66041E+03 1.30452E+06 1.87365E+04-2.19867E+04 2.43745E-10 9.49512E-09
 -1       192 3.17184E+03 1.30778E+06 1.13384E+04-2.38587E+04 2.72848E-11 1.45228E-08
 -1       193 1.00849E+03 1.30560E+06 9.06168E+03-2.14622E+04-6.03450E-10 1.07466E-08
 -1       194 4.18391E+03 1.30816E+06 1.35690E+04-2.48372E+04-9.09495E-13 5.83350E-09
 -1       195 1.28989E+04 1.30393E+06 2.42193E+04-2.09723E+04-1.15688E-09 9.45511E-09
 -1       251-1.37833E+06 8.70923E+03-2.85379E+04-7.09323E+03-1.96451E-10-5.70617E-09
 -1       252-1.38585E+06-1.18188E+04-1.85938E+04-8.36310E+04 5.57975E-10-4.69981E-10
 -1       253-1.38259E+06 8.73825E+02-7.53136E+03-3.46357E+03-3.36513E-11-3.93356E-10
 -1       254-1.38257E+06-1.51943E+03-4.15881E+03-8.96934E+04 2.27192E-09 1.70625E-09
 -1       255-1.38307E+06 4.93817E+01-1.96797E+03-1.04291E+03-4.65661E-10 8.57113E-10
 -1       256-1.38306E+06 9.08310E+01-1.04904E+03-9.33554E+04 1.60071E-10-8.50491E-09
 -1       257-1.38308E+06 3.37590E+01-6.27447E+02 1.98284E+02 5.80485E-10 3.41117E-09
 -1       258-1.38342E+06 3.53905E+02-5.88591E+02-9.46101E+04-1.69192E-09-2.84717E-09
 -1       259-1.38308E+06 4.35058E+01-7.92965E+02 2.12723E+02 3.40833E-10 1.74794E-09
 -1       260-1.38314E+06 1.15457E+01-1.50573E+03-9.34202E+04-4.31100E-10-3.14685E-10
 -1       261-1.38302E+06 1.27721E+02-2.83571E+03-9.92548E+02 1.33878E-09-4.84624E-09
 -1       262-1.38300E+06-2.19779E+03-6.20500E+03-8.98121E+04 5.72982E-10-5.17355E-09
 -1       263-1.38224E+06 1.46044E+03-1.10093E+04-3.39536E+03-9.27685E-11 3.90628E-09
 -1       264-1.38875E+06-1.72383E+04-2.76465E+04-8.37837E+04-5.14592E-09 8.67840E-09
 -1       265-1.37583E+06 1.32480E+04-4.19569E+04-7.00770E+03-2.62480E-09 2.93585E-09
 -1       266-2.15230E+04-4.00352E+05 5.92548E+04-9.60327E+03-7.27596E-12 3.40151E-10
 -1       267 3.07402E+04-3.80693E+05 3.77646E+04-4.16644E+05 4.62023E-10-1.21372E-09
 -1       268-1.02559E+03-3.89094E+05 8.80821E+03-8.66946E+03 9.54969E-11-4.61216E-09
 -1       269-9.47983E+02-3.96294E+05-9.23139E+03-4.16606E+05 5.34897E-10-5.87261E-09
 -1       270 7.86345E+03-3.84216E+05-2.55778E+04-9.65493E+03-1.67347E-10 4.22733E-09
 -1       271-5.17172E+06-6.11470E+05-4.21977E+05-2.02135E+06 2.91038E-11-7.42148E-09
 -1       272-5.35971E+06-9.42736E+05-2.79884E+05-1.97955E+06-1.55887E-09-3.29965E-09
 -1       273-5.26116E+06-7.29630E+05-9.95133E+04-1.98991E+06 1.07138E-09-6.91216E-10
 -1       274-5.25094E+06-8.07781E+05-5.78921E+04-2.02464E+06 5.29553E-10 5.46061E-09
 -1       275-5.27931E+06-7.38972E+05-2.32899E+04-1.97906E+06 8.79481E-10 2.45291E-09
 -1       276-5.22762E+06-7.99192E+05-1.29570E+04-2.04110E+06 6.20275E-10-1.04919E-08
 -1       277-5.28476E+06-7.36978E+05-6.53571E+03-1.97412E+06 4.98403E-10 2.79169E-09
 -1       278-5.22234E+06-8.01031E+05-5.63809E+03-2.04632E+06-1.93211E-10-1.89357E-09
 -1       279-5.28481E+06-7.36878E+05-6.93402E+03-1.97404E+06-8.79368E-10-5.14410E-09
 -1       280-5.22761E+06-7.99736E+05-1.41248E+04-2.04137E+06-2.23110E-09-2.18120E-09
 -1       281-5.27929E+06-7.38528E+05-2.55185E+04-1.97887E+06 3.61069E-10 8.28550E-09
 -1       282-5.25204E+06-8.10479E+05-6.36084E+04-2.02483E+06 1.26329E-09 2.87400E-09
 -1       283-5.26013E+06-7.27458E+05-1.09305E+05-1.98990E+06-8.82210E-11 1.32422E-09
 -1       284-5.36986E+06-9.60524E+05-3.07561E+05-1.97730E+06-1.53523E-09-8.09450E-09
 -1       285-5.16278E+06-5.96638E+05-4.63559E+05-2.02335E+06-2.74304E-09-1.57161E-09
 -1       286-8.43445E+05-3.03242E+03 6.88974E+03-4.80286E+03 5.00586E-09 1.16643E-10
 -1       287-8.37631E+05 2.53301E+03 5.16277E+03-6.31383E+04 2.24463E-09 1.55842E-09
 -1       288-8.42136E+05-6.07338E+02 1.70539E+03-2.76988E+03 1.06957E-09-4.76348E-10
 -1       289-8.40227E+05 2.34122E+02 1.29728E+03-6.66095E+04-9.74524E-10-2.60275E-09
 -1       290-8.41879E+05-1.68574E+02 4.95597E+02-1.33808E+03 2.29193E-10-8.64020E-11
 -1       291-8.41328E+05 1.89587E+02 5.46852E+02-6.89428E+04 1.32582E-09-2.08524E-09
 -1       292-8.41800E+05-3.99789E+01 5.42387E+02-4.37769E+02 2.25009E-09-3.14390E-09
 -1       293-8.41812E+05 3.86249E+02 1.01125E+03-7.02001E+04 9.28139E-10-3.21540E-09
 -1       294-8.41825E+05-6.13442E+01 1.81024E+03-7.98601E+01 2.31648E-09 2.38433E-09
 -1       295-8.41480E+05 1.01002E+03 3.88389E+03-7.03596E+04 3.70312E-09 3.87993E-09
 -1       296-8.42186E+05-6.00222E+02 7.05424E+03-2.77958E+02 1.60890E-09 1.54932E-09
 -1       297-8.38364E+05 5.69685E+03 1.63932E+04-6.94089E+04 4.60295E-09 2.00589E-09
 -1       298-8.44606E+05-4.71905E+03 2.77249E+04-1.03089E+03 1.59162E-10-2.53021E-09
 -1       299-8.18021E+05 4.32932E+04 7.22594E+04-6.73058E+04 4.78394E-10-2.88310E-09
 -1       300-8.61801E+05-3.63696E+04 1.06885E+05-2.38500E+03 8.09450E-11-3.49246E-10
 -1       301 6.35804E+04 1.46837E+05 1.16799E+05-4.89850E+04 2.53931E-09 2.17381E-08
 -1       302 2.16016E+04 1.66993E+05 6.46748E+04-5.60166E+04 5.43423E-09 3.75144E-08
 -1       303 6.27979E+03 1.54472E+05 4.20419E+04-4.92348E+04 2.04307E-09 1.99456E-08
 -1       304 1.54878E+04 1.64112E+05 5.06368E+04-5.60422E+04 4.27463E-09 7.76578E-09
 -1       305 4.36333E+04 1.49705E+05 8.23090E+04-4.90875E+04 2.59388E-09 1.27552E-08
 -1       306-4.86036E+06-5.72276E+05-4.03867E+05-1.90054E+06 4.32919E-09-3.23053E-09
 -1       307-5.05067E+06-8.78841E+05-2.67858E+05-1.84871E+06 3.36695E-09-1.64073E-09
 -1       308-4.94579E+06-6.85600E+05-9.52798E+04-1.87071E+06 2.03909E-09-4.37649E-09
 -1       309-4.94603E+06-7.50069E+05-5.53828E+04-1.89212E+06-4.29281E-10 2.45109E-09
 -1       310-4.96374E+06-6.94023E+05-2.23275E+04-1.85970E+06-2.62662E-09-4.78758E-09
 -1       311-4.92189E+06-7.43641E+05-1.23374E+04-1.90992E+06-1.64073E-09-7.32871E-09
 -1       312-4.97020E+06-6.90854E+05-6.21699E+03-1.85353E+06 3.75439E-09-2.35650E-09
 -1       313-4.91402E+06-7.48387E+05-5.22042E+03-1.91855E+06 4.58374E-09 6.03102E-09
 -1       314-4.97199E+06-6.88926E+05-6.29664E+03-1.85138E+06 6.17320E-11-9.08585E-10
 -1       315-4.91545E+06-7.50772E+05-1.27635E+04-1.91843E+06 6.48470E-10 3.63252E-09
 -1       316-4.96881E+06-6.88548E+05-2.29246E+04-1.85365E+06 3.31190E-09 9.13860E-09
 -1       317-4.93429E+06-7.63693E+05-5.72552E+04-1.90736E+06 5.23748E-09 6.08634E-09
 -1       318-4.95303E+06-6.77120E+05-9.82615E+04-1.86191E+06-1.78261E-09 4.29281E-09
 -1       319-5.03772E+06-9.00950E+05-2.76590E+05-1.86712E+06-2.20734E-09-1.74623E-09
 -1       320-4.86642E+06-5.58708E+05-4.16902E+05-1.89108E+06-1.42609E-09-6.66478E-09
 -1       321-5.63801E+05-4.53113E+04 1.34360E+05-1.17631E+03-1.48748E-09 8.50559E-09
 -1       322-5.10125E+05 5.42702E+04 9.05494E+04-2.03823E+04-1.84662E-09 4.68572E-09
 -1       323-5.42347E+05-5.81739E+03 3.48781E+04-8.42025E+02 5.88898E-11-2.80852E-09
 -1       324-5.34696E+05 6.87946E+03 2.05364E+04-2.09431E+04 5.36829E-10 2.05728E-09
 -1       325-5.39373E+05-7.50291E+02 8.87235E+03-6.11147E+02 1.45747E-10 1.36015E-09
 -1       326-5.38171E+05 8.74229E+02 4.89128E+03-2.12975E+04-6.07315E-10-4.14730E-09
 -1       327-5.38936E+05-9.74577E+01 2.31210E+03-4.87573E+02 2.76259E-11 3.14958E-09
 -1       328-5.38692E+05 1.36606E+02 1.35891E+03-2.14399E+04-8.33836E-10-1.09983E-09
 -1       329-5.38877E+05-2.66772E+01 9.13409E+02-4.68760E+02-1.45633E-10-1.57681E-09
 -1       330-5.38679E+05 1.60132E+02 1.06764E+03-2.13710E+04 1.72633E-10-7.52372E-10
 -1       331-5.38937E+05-1.25050E+02 1.56095E+03-5.56491E+02-2.42153E-11-1.18513E-09
 -1       332-5.38091E+05 1.10328E+03 3.37972E+03-2.10900E+04 6.19025E-10-3.67436E-10
 -1       333-5.39419E+05-9.48498E+02 5.63972E+03-7.49781E+02 6.11635E-10-5.57066E-10
 -1       334-5.34062E+05 8.71529E+03 1.46062E+04-2.05798E+04 5.19663E-10 1.54728E-09
 -1       335-5.42886E+05-7.32578E+03 2.16094E+04-1.06724E+03-1.37243E-09 1.78989E-09
 -1       336 1.60434E+04-2.54797E+06-5.59331E+04 1.79836E+02-3.62888E-09 3.25599E-10
 -1       337-2.47038E+04-2.57215E+06-5.47822E+04-2.84443E+05 4.14821E-09 1.17325E-09
 -1       338 9.12602E+03-2.55135E+06-5.31612E+04 4.67476E+03-5.08771E-09-4.08545E-09
 -1       339-6.46589E+04-2.59394E+06-1.14821E+05-2.86248E+05 4.62114E-09-2.86423E-09
 -1       340 5.41465E+04-2.52706E+06-1.63490E+05 1.98477E+03-2.87400E-09 6.18093E-09
 -1       341-2.56421E+06-3.38679E+05-7.81358E+04-9.76084E+05-9.91349E-10-6.51198E-09
 -1       342-2.59601E+06-4.02967E+05-5.18246E+04-9.71921E+05-4.18709E-10-9.78889E-09
 -1       343-2.57995E+06-3.61308E+05-1.84415E+04-9.71195E+05 2.06455E-10-2.70120E-09
 -1       344-2.57728E+06-3.76603E+05-1.08020E+04-9.78568E+05 6.33918E-10 2.56705E-09
 -1       345-2.58269E+06-3.63694E+05-4.42027E+03-9.69926E+05-9.32801E-11 1.81763E-09
 -1       346-2.57384E+06-3.74090E+05-2.65547E+03-9.80443E+05-1.17416E-09-1.95769E-09
 -1       347-2.58338E+06-3.63649E+05-1.69939E+03-9.69388E+05-2.25612E-10-2.12921E-09
 -1       348-2.57316E+06-3.74340E+05-2.14436E+03-9.81099E+05-2.44819E-09-3.91094E-09
 -1       349-2.58338E+06-3.63424E+05-3.41241E+03-9.69283E+05-1.08821E-09-1.52909E-10
 -1       350-2.57434E+06-3.75727E+05-7.63586E+03-9.80760E+05-1.31490E-09 2.46882E-09
 -1       351-2.58221E+06-3.62318E+05-1.40005E+04-9.69709E+05-3.76872E-10 4.47926E-09
 -1       352-2.58285E+06-3.86996E+05-3.52120E+04-9.78029E+05-5.10568E-10-1.81944E-09
 -1       353-2.57498E+06-3.52683E+05-6.03567E+04-9.71831E+05 2.00089E-11 1.85537E-09
 -1       354-2.64034E+06-4.77517E+05-1.69985E+05-9.60860E+05-2.12185E-09 1.00463E-08
 -1       355-2.52548E+06-2.76157E+05-2.56077E+05-9.85300E+05-1.12777E-10-6.60657E-09
 -1       356-2.10764E+05-1.75604E+04 5.19930E+04-7.44046E+02 2.81034E-10-9.83709E-09
 -1       357-1.89899E+05 2.09983E+04 3.50544E+04-1.90492E+04-3.80169E-10 6.79574E-09
 -1       358-2.02441E+05-2.25804E+03 1.34718E+04-6.20520E+02-6.94627E-10 2.84490E-09
 -1       359-1.99455E+05 2.65864E+03 7.89161E+03-1.92424E+04 1.01920E-09-2.95404E-09
 -1       360-2.01283E+05-2.90283E+02 3.30880E+03-5.49433E+02-1.00044E-10-2.38833E-09
 -1       361-2.00837E+05 3.29573E+02 1.63187E+03-1.93484E+04-1.37032E-09 2.78317E-09
 -1       362-2.01101E+05-2.58114E+01 3.85137E+02-5.14545E+02-8.31051E-11 2.80113E-09
 -1       363-2.01118E+05-4.20854E+01-5.50532E+02-1.93817E+04-1.17150E-09-3.40629E-09
 -1       364-2.01014E+05 7.75247E+01-1.69320E+03-5.16176E+02 1.13846E-09 9.43942E-10
 -1       365-2.01566E+05-7.37668E+02-4.04393E+03-1.93434E+04-1.19815E-09 2.32791E-09
 -1       366-2.00639E+05 6.32551E+02-7.55082E+03-5.52909E+02-1.42109E-10-7.11952E-09
 -1       367-2.04446E+05-5.92792E+03-1.75758E+04-1.92290E+04-3.84375E-10-4.72937E-09
 -1       368-1.98093E+05 4.96016E+03-2.99327E+04-6.30492E+02 1.07775E-10-2.60661E-09
 -1       369-2.25348E+05-4.66273E+04-7.76600E+04-1.89962E+04-2.56830E-09-5.19140E-09
 -1       370-1.79656E+05 3.88194E+04-1.15221E+05-7.82262E+02 1.65164E-09-6.07542E-09
 -1       371-8.88387E+03-4.91425E+05 2.36542E+04-4.83391E+03-5.49335E-10-2.53476E-09
 -1       372 9.37396E+03-4.82913E+05 1.06772E+04-2.01226E+05-1.05797E-09-7.79301E-09
 -1       373 1.08377E+03-4.85899E+05-5.85890E+03-4.28560E+03-5.18412E-10-3.82262E-09
 -1       374-1.74097E+04-4.96722E+05-2.92857E+04-2.01237E+05-9.01764E-10-1.94905E-09
 -1       375 1.62621E+04-4.77606E+05-4.82518E+04-4.82464E+03 6.18456E-11-1.70439E-09
 -1       376-1.36248E+06-1.71410E+05-6.75300E+04-5.21766E+05 1.32968E-09-2.09184E-09
 -1       377-1.38451E+06-2.32458E+05-4.47882E+04-5.24520E+05 6.28802E-10-2.84263E-09
 -1       378-1.37579E+06-1.91256E+05-1.59445E+04-5.17901E+05 6.67342E-10 1.60435E-09
 -1       379-1.36898E+06-2.09071E+05-9.33262E+03-5.29569E+05 1.11959E-09-3.65742E-09
 -1       380-1.37785E+06-1.93625E+05-3.80141E+03-5.17161E+05-7.95666E-10-1.64255E-09
 -1       381-1.36657E+06-2.06325E+05-2.24847E+03-5.30535E+05 1.37175E-09 1.18075E-09
 -1       382-1.37819E+06-1.93854E+05-1.36829E+03-5.16997E+05 6.06200E-11-1.02931E-09
 -1       383-1.36639E+06-2.06069E+05-1.62375E+03-5.30587E+05 2.76856E-10-2.65459E-11
 -1       384-1.37803E+06-1.93870E+05-2.50425E+03-5.17113E+05-7.01107E-10-2.42403E-09
 -1       385-1.36752E+06-2.06765E+05-5.53906E+03-5.29989E+05 6.91443E-10-5.64796E-09
 -1       386-1.37705E+06-1.93207E+05-1.01422E+04-5.17569E+05-8.01588E-10 4.26553E-09
 -1       387-1.37385E+06-2.14676E+05-2.54584E+04-5.27742E+05 1.00928E-09 1.99907E-09
 -1       388-1.37173E+06-1.86352E+05-4.36530E+04-5.19205E+05-1.35060E-09 4.10728E-09
 -1       389-1.41548E+06-2.79854E+05-1.22807E+05-5.15126E+05 1.75896E-09-9.04038E-10
 -1       390-1.33588E+06-1.31193E+05-1.85070E+05-5.28995E+05 8.05812E-09 2.97587E-09
 -1       406 1.11104E+04 1.26405E+06 2.21636E+04-1.52866E+05-1.85173E-09 2.14823E-09
 -1       407 4.60564E+03 1.26781E+06 1.70058E+04-1.73277E+05-4.13820E-10-2.07365E-09
 -1       408 3.19461E+03 1.26465E+06 1.95547E+04-1.52446E+05-2.33740E-09-1.74623E-10
 -1       409 1.32885E+04 1.27156E+06 3.66292E+04-1.73719E+05-4.36557E-10-9.14952E-10
 -1       410 3.92310E+04 1.25957E+06 7.03753E+04-1.52332E+05-2.48474E-09 4.04179E-09
 -1       466 1.78931E+06-5.81889E+04 1.70644E+05 2.28648E+03 2.71029E-10-4.36557E-10
 -1       467 1.86020E+06 6.86130E+04 1.15551E+05-9.52331E+04-1.68666E-09 2.27010E-09
 -1       468 1.81693E+06-7.60768E+03 4.43484E+04-1.82638E+03 2.03727E-10-2.41198E-09
 -1       469 1.82735E+06 8.72489E+03 2.63717E+04-8.84852E+04-5.18412E-10 1.27147E-09
 -1       470 1.82083E+06-1.00323E+03 1.14796E+04-4.44926E+03-1.38698E-10-2.83353E-09
 -1       471 1.82216E+06 1.33751E+03 6.67468E+03-8.46252E+04 9.09495E-13 1.01977E-09
 -1       472 1.82141E+06-1.19125E+02 3.74529E+03-5.68681E+03-1.40062E-10-2.69893E-09
 -1       473 1.82141E+06 5.96764E+02 3.39447E+03-8.34705E+04 8.79595E-10-1.24834E-09
 -1       474 1.82138E+06-1.52011E+02 4.30244E+03-5.60376E+03-9.38599E-10 1.36697E-09
 -1       475 1.82243E+06 1.60122E+03 8.21053E+03-8.49677E+04 1.22782E-09 2.94642E-09
 -1       476 1.82065E+06-1.26716E+03 1.43953E+04-4.18978E+03-8.18545E-12 5.82531E-10
 -1       477 1.82886E+06 1.09799E+04 3.32422E+04-8.91809E+04 1.01454E-09 3.20870E-09
 -1       478 1.81574E+06-9.57569E+03 5.60165E+04-1.38981E+03-2.04636E-10-9.02219E-10
 -1       479 1.87002E+06 8.66977E+04 1.45895E+05-9.63464E+04-3.71756E-09-6.73208E-09
 -1       480 1.78091E+06-7.33788E+04 2.15651E+05 2.95805E+03-1.87902E-09 3.63798E-10
 -1       481-1.45746E+04 3.86528E+05 4.33905E+04-1.19943E+03-2.65572E-10 8.70386E-10
 -1       482 1.78738E+04 4.04484E+05 3.07344E+04 1.00510E+04-3.40151E-10 6.32008E-09
 -1       483-2.47471E+03 3.93098E+05 1.43029E+04-8.41054E+02 8.32188E-11 3.45926E-09
 -1       484 7.45399E+03 3.98984E+05 1.51276E+04 9.38438E+03 2.66283E-10 5.90035E-10
 -1       485-4.73317E+03 3.91950E+05 1.53427E+04-5.35839E+02 1.10504E-10-1.58525E-09
 -1       486-1.80417E+06-2.05273E+05-1.72488E+05-7.08180E+05-2.34650E-10 9.31323E-10
 -1       487-1.87171E+06-3.49167E+05-1.14270E+05-7.01313E+05-2.63753E-11-1.25146E-09
 -1       488-1.83926E+06-2.54829E+05-4.07403E+04-6.97062E+05-1.19547E-09 2.76486E-10
 -1       489-1.82999E+06-2.91643E+05-2.36602E+04-7.16819E+05-8.79254E-10 1.49339E-09
 -1       490-1.84560E+06-2.59737E+05-9.54544E+03-6.93908E+05-5.17502E-10-1.26647E-09
 -1       491-1.82188E+06-2.86747E+05-5.23440E+03-7.21908E+05-5.04542E-10 5.89694E-10
 -1       492-1.84753E+06-2.59235E+05-2.58159E+03-6.92256E+05 4.77030E-10-4.76803E-10
 -1       493-1.81940E+06-2.87840E+05-2.02100E+03-7.24529E+05 1.77408E-09 8.76298E-10
 -1       494-1.84824E+06-2.58501E+05-2.28926E+03-6.91420E+05 6.54154E-10 9.70374E-10
 -1       495-1.81923E+06-2.89359E+05-4.48397E+03-7.25383E+05-1.81444E-10 1.79199E-09
 -1       496-1.84778E+06-2.57699E+05-7.97120E+03-6.91444E+05-5.44730E-10 2.93767E-10
 -1       497-1.82407E+06-2.95574E+05-1.98699E+04-7.23677E+05-8.60453E-10-5.32054E-10
 -1       498-1.84342E+06-2.52608E+05-3.40389E+04-6.92991E+05-1.22327E-10-9.20409E-10
 -1       499-1.85733E+06-3.45427E+05-9.56992E+04-7.12638E+05 7.66931E-10-8.40373E-10
 -1       500-1.81479E+06-2.10398E+05-1.44316E+05-7.01482E+05-1.11504E-09-5.09317E-11
 -1       501 4.80380E+04-2.02064E+04 5.70677E+04-2.46439E+03 4.45471E-09-3.74712E-10
 -1       502 7.47399E+04 2.28082E+04 3.91697E+04-8.66780E+04 1.54159E-09-6.11544E-09
 -1       503 5.74958E+04-2.84412E+03 1.47233E+04-2.50227E+03 3.00133E-10-7.45786E-10
 -1       504 6.22978E+04 2.91046E+03 8.99946E+03-8.65428E+04-1.81899E-10 3.08773E-10
 -1       505 5.89069E+04-4.46431E+02 3.77984E+03-2.60235E+03 2.20098E-09 6.27779E-10
 -1       506 5.96175E+04 6.91983E+02 2.29688E+03-8.63805E+04 3.88104E-09 7.84860E-09
 -1       507 5.91620E+04-4.94486E+01 1.25390E+03-2.66479E+03 2.45200E-09-8.76980E-10
 -1       508 5.88871E+04 5.89485E+02 1.16702E+03-8.63015E+04 2.44381E-09 1.95502E-09
 -1       509 5.91725E+04-2.78598E+01 1.48602E+03-2.67985E+03 2.86713E-09 1.62370E-09
 -1       510 5.92304E+04 9.41991E+02 2.83301E+03-8.63156E+04 3.39514E-09 1.10549E-09
 -1       511 5.88998E+04-4.42865E+02 4.94356E+03-2.65095E+03 2.60934E-09-1.35685E-09
 -1       512 6.18743E+04 4.05764E+03 1.14953E+04-8.64126E+04 4.61841E-09 1.31809E-09
 -1       513 5.71566E+04-3.40632E+03 1.92206E+04-2.58401E+03 1.28694E-09 9.80435E-10
 -1       514 7.68988E+04 3.00129E+04 5.04234E+04-8.64988E+04 1.35196E-09-2.48110E-09
 -1       515 4.50604E+04-2.56236E+04 7.41358E+04-2.56771E+03-4.65661E-10-1.35697E-09
 -1       516-2.72938E+04 2.95626E+05 8.34616E+04-5.60883E+03 5.65706E-09 1.52048E-09
 -1       517 3.70243E+04 3.28594E+05 6.33588E+04-1.36876E+05 8.96307E-09 1.02129E-08
 -1       518-6.29596E+03 3.06935E+05 3.70890E+04-5.35885E+03 4.62205E-09 6.22276E-09
 -1       519 3.12351E+04 3.27457E+05 5.54297E+04-1.37580E+05 7.24549E-09-1.99407E-09
 -1       520-2.27730E+04 2.98102E+05 6.85417E+04-4.91878E+03 1.98634E-09-2.45564E-09
 -1       521-3.77604E+06-4.40625E+05-3.25512E+05-1.47726E+06 3.13230E-09-3.82715E-09
 -1       522-3.91403E+06-7.01529E+05-2.15653E+05-1.45168E+06 1.09549E-09 2.55022E-09
 -1       523-3.84529E+06-5.31232E+05-7.68621E+04-1.45270E+06 8.88349E-10 3.37968E-09
 -1       524-3.82983E+06-5.98298E+05-4.45837E+04-1.48738E+06 1.25215E-09-8.92214E-10
 -1       525-3.85964E+06-5.38005E+05-1.80011E+04-1.44390E+06-3.29055E-09-2.51021E-10
 -1       526-3.81110E+06-5.92686E+05-9.88064E+03-1.50142E+06-6.45809E-09-1.42427E-09
 -1       527-3.86447E+06-5.35768E+05-4.89296E+03-1.43933E+06 8.39464E-10 3.66072E-10
 -1       528-3.80559E+06-5.95704E+05-3.93954E+03-1.50756E+06 2.10127E-09-2.41735E-09
 -1       529-3.86553E+06-5.34661E+05-4.54861E+03-1.43807E+06 1.63324E-09 2.01908E-10
 -1       530-3.80725E+06-5.96588E+05-9.03237E+03-1.50654E+06 6.36646E-09 1.99179E-09
 -1       531-3.86278E+06-5.34981E+05-1.61848E+04-1.44029E+06 8.86757E-09 2.96677E-09
 -1       532-3.82158E+06-6.04294E+05-4.02474E+04-1.49700E+06 5.91808E-09 4.94128E-09
 -1       533-3.85088E+06-5.27866E+05-6.91959E+04-1.44708E+06 1.52431E-09-3.56158E-09
 -1       534-3.89589E+06-6.98664E+05-1.94344E+05-1.46616E+06-3.77895E-10-1.13869E-09
 -1       535-3.78885E+06-4.46004E+05-2.93310E+05-1.46892E+06 2.36469E-10-4.01633E-09
 -1       536 1.17504E+06-5.99414E+04 1.77840E+05 1.49878E+03-1.08776E-09-2.47383E-10
 -1       537 1.24612E+06 7.17132E+04 1.19888E+05-2.86193E+04-4.51814E-09 1.13141E-09
 -1       538 1.20350E+06-7.70436E+03 4.62174E+04 4.28310E+02 6.36646E-11 1.69712E-09
 -1       539 1.21356E+06 9.06253E+03 2.72559E+04-2.67965E+04 1.51340E-09-5.25688E-09
 -1       540 1.20746E+06-9.99920E+02 1.18372E+04-3.13963E+02-2.41926E-10 4.65207E-10
 -1       541 1.20894E+06 1.14262E+03 6.64965E+03-2.55984E+04-6.85759E-10 1.30615E-09
 -1       542 1.20803E+06-1.38978E+02 3.37504E+03-7.69766E+02 5.97311E-10 3.06670E-09
 -1       543 1.20827E+06 2.29128E+02 2.45452E+03-2.49629E+04-3.00531E-10 2.12233E-09
 -1       544 1.20808E+06-8.78176E+01 2.44720E+03-9.49552E+02 9.71966E-10 1.44107E-09
 -1       545 1.20854E+06 6.89474E+02 4.10146E+03-2.48722E+04 1.55919E-09 1.39039E-09
 -1       546 1.20776E+06-5.72196E+02 6.98434E+03-8.60491E+02 1.60651E-09 1.59253E-09
 -1       547 1.21117E+06 5.27660E+03 1.58443E+04-2.53210E+04 1.79841E-09-3.14117E-09
 -1       548 1.20547E+06-4.45205E+03 2.68070E+04-5.00688E+02 1.02364E-09 9.45874E-10
 -1       549 1.23001E+06 4.15696E+04 6.94493E+04-2.63129E+04 4.12342E-10 1.68620E-09
 -1       550 1.18897E+06-3.47116E+04 1.02995E+05 1.28551E+02-1.44155E-09-1.09867E-09
 -1       551 2.60442E+04-3.91320E+05 4.25028E+04-6.12649E+05 4.80213E-09 3.92902E-10
 -1       552 1.29118E+04-3.85452E+05 2.64691E+04-6.97585E+05 2.92493E-09 6.30462E-09
 -1       553 7.74745E+03-3.90644E+05 2.21744E+04-6.11700E+05 4.99131E-09 1.61072E-09
 -1       554 1.66881E+04-3.84485E+05 3.43897E+04-6.97867E+05 3.31420E-09 1.15915E-09
 -1       555 3.78836E+04-3.94012E+05 6.20030E+04-6.12297E+05 5.62068E-09-3.28146E-09
 -1       556-4.14686E+05-2.06873E+05 1.35741E+04-3.61987E+05 2.18279E-10-5.67525E-10
 -1       557-3.93003E+05-2.30582E+05 6.62325E+03-3.82487E+05-5.36966E-09-2.79670E-09
 -1       558-4.16240E+05-2.11628E+05 2.73531E+03-3.59006E+05 1.10595E-09 6.41194E-09
 -1       559-3.94584E+05-2.33163E+05 1.36134E+03-3.83785E+05 2.99406E-09-1.33781E-09
 -1       560-4.17008E+05-2.11426E+05 5.77465E+02-3.59251E+05 8.62201E-09 1.63245E-08
 -1       561-3.95324E+05-2.33055E+05 2.67177E+02-3.84368E+05-6.47560E-10 3.39242E-09
 -1       562-4.17491E+05-2.11150E+05 4.75600E+01-3.59553E+05-5.55883E-09-1.16124E-08
 -1       563-3.95721E+05-2.32884E+05-1.14941E+02-3.84654E+05-1.36879E-09 1.93177E-09
 -1       564-4.17686E+05-2.11013E+05-3.67432E+02-3.59692E+05 8.05812E-10-4.87489E-10
 -1       565-3.95849E+05-2.32840E+05-8.52345E+02-3.84722E+05 4.06726E-09 8.52924E-09
 -1       566-4.17573E+05-2.11037E+05-1.80076E+03-3.59645E+05 1.83900E-09 1.49521E-09
 -1       567-3.96009E+05-2.33185E+05-3.98429E+03-3.84514E+05 1.16688E-09-2.12094E-09
 -1       568-4.17029E+05-2.12104E+05-8.24486E+03-3.59056E+05 8.78936E-09-2.71029E-09
 -1       569-4.00062E+05-2.39030E+05-1.94812E+04-3.82562E+05 2.66900E-08 1.44064E-08
 -1       570-4.15521E+05-2.30241E+05-4.04443E+04-3.51472E+05 1.06775E-08-3.22234E-09
 -1       571 7.95236E+05 4.24572E+04 7.75375E+04-1.85128E+05 7.34872E-10-2.93835E-09
 -1       572 8.08269E+05 1.34425E+04 3.86435E+04-2.09876E+05 7.09406E-11-1.68802E-09
 -1       573 8.00315E+05 2.02874E+03 1.72923E+04-1.84405E+05-5.09317E-10 4.23461E-09
 -1       574 8.01521E+05 4.99333E+02 8.76693E+03-2.10574E+05-1.50612E-09 4.75666E-09
 -1       575 8.00528E+05-1.35064E+02 4.19897E+03-1.84340E+05-7.09406E-11-7.83984E-10
 -1       576 8.00592E+05-5.75688E+01 2.17126E+03-2.10645E+05-1.45519E-10-4.57294E-09
 -1       577 8.00486E+05-6.92938E+01 1.11387E+03-1.84335E+05 1.88152E-11-1.51886E-09
 -1       578 8.00504E+05-4.40639E+01 6.80115E+02-2.10654E+05 1.19690E-09-2.11003E-10
 -1       579 8.00623E+05-1.14661E+02 5.38413E+02-1.84332E+05 1.43700E-10-5.68980E-09
 -1       580 8.00792E+05-1.86604E+02 7.04496E+02-2.10656E+05 1.69166E-10 1.97178E-09
 -1       581 8.00975E+05-3.28631E+02 1.16279E+03-1.84332E+05-2.24099E-09-4.80213E-10
 -1       582 8.01523E+05-3.03017E+02 2.35514E+03-2.10573E+05 1.89175E-10-4.67844E-09
 -1       583 8.01433E+05-6.69765E+01 4.56114E+03-1.84413E+05-8.29459E-10-4.11001E-09
 -1       584 8.04003E+05 2.78246E+03 1.02252E+04-2.09677E+05-6.72298E-09-4.91400E-09
 -1       585 8.00712E+05 1.03214E+04 2.04373E+04-1.85261E+05 2.76486E-10 7.34872E-09
 -1       586 8.91388E+03 1.75585E+05 1.35266E+04-6.58857E+05 1.95359E-09-1.16379E-08
 -1       587 6.02551E+03 1.76609E+05 1.05157E+04-7.50122E+05-6.25732E-10-2.35159E-08
 -1       588 4.79088E+03 1.74522E+05 1.19443E+04-6.57930E+05 2.29556E-09-1.91558E-08
 -1       589 1.12589E+04 1.78799E+05 2.22756E+04-7.50202E+05-3.34694E-10-1.57961E-08
 -1       590 2.58177E+04 1.72810E+05 4.24221E+04-6.58749E+05 2.44017E-09-8.42920E-09
 -1       591-3.41638E+05-1.42189E+05-5.20695E+04-2.11481E+05 2.54795E-09-4.60568E-09
 -1       592-3.38766E+05-1.36441E+05-2.51215E+04-2.31660E+05 6.15910E-09 4.32556E-09
 -1       593-3.42616E+05-1.19435E+05-1.06332E+04-2.21324E+05 1.18052E-09 2.69574E-09
 -1       594-3.33412E+05-1.28702E+05-5.17643E+03-2.33345E+05-1.35697E-09-1.56462E-10
 -1       595-3.42943E+05-1.18272E+05-2.37926E+03-2.21914E+05-5.23323E-09-1.22186E-08
 -1       596-3.33038E+05-1.28302E+05-1.21600E+03-2.33428E+05 8.02174E-10-1.78261E-09
 -1       597-3.43042E+05-1.18252E+05-6.87467E+02-2.21956E+05 3.32875E-09 5.71981E-09
 -1       598-3.33023E+05-1.28290E+05-5.97877E+02-2.33435E+05 4.50882E-10-3.00861E-09
 -1       599-3.43034E+05-1.18248E+05-8.22199E+02-2.21955E+05-7.10315E-10-5.39239E-09
 -1       600-3.33050E+05-1.28304E+05-1.57303E+03-2.33431E+05-1.79375E-09-6.34827E-10
 -1       601-3.42905E+05-1.18260E+05-3.13952E+03-2.21903E+05-1.19298E-08-1.03500E-09
 -1       602-3.33563E+05-1.28834E+05-6.87120E+03-2.33347E+05-2.19770E-08-3.09592E-09
 -1       603-3.42507E+05-1.19786E+05-1.41232E+04-2.21128E+05-1.04537E-08-4.98767E-09
 -1       604-3.40627E+05-1.39189E+05-3.33794E+04-2.31238E+05 2.38106E-09 1.09867E-09
 -1       605-3.41320E+05-1.49904E+05-6.91727E+04-2.07977E+05 2.29556E-09 9.78616E-10
 -1       606 1.87945E+05-2.44592E+04-4.42289E+04 5.53143E+04-1.57033E-08 1.60526E-09
 -1       607 1.80337E+05-7.78960E+03-2.20228E+04 6.20111E+04-1.83536E-09-3.75803E-09
 -1       608 1.84611E+05-1.21817E+03-9.86890E+03 5.48454E+04 1.00808E-08 3.54112E-09
 -1       609 1.83706E+05-1.79330E+02-4.98325E+03 6.24818E+04-6.89033E-09-2.22826E-10
 -1       610 1.84159E+05 2.16425E+02-2.38632E+03 5.47951E+04-1.75751E-08 4.36103E-09
 -1       611 1.83943E+05 2.97914E+02-1.20537E+03 6.25299E+04-3.13385E-08-3.69391E-09
 -1       612 1.84006E+05 2.85440E+02-5.85815E+02 5.47915E+04-1.60398E-08 1.14869E-09
 -1       613 1.83888E+05 3.47227E+02-2.79037E+02 6.25326E+04-2.02017E-08-3.63798E-12
 -1       614 1.83910E+05 3.12304E+02-1.07718E+02 5.47910E+04-1.34041E-08-2.39606E-09
 -1       615 1.83817E+05 3.82992E+02 1.45594E+01 6.25307E+04-1.50794E-09-1.01863E-10
 -1       616 1.83840E+05 3.44631E+02 1.38113E+02 5.47923E+04-2.20007E-08-1.62345E-09
 -1       617 1.83786E+05 4.43887E+02 3.52123E+02 6.25278E+04-7.79801E-09 1.40471E-09
 -1       618 1.83772E+05 4.70415E+02 7.23285E+02 5.47925E+04-2.33467E-09 2.59297E-09
 -1       619 1.84011E+05 1.02406E+03 1.63338E+03 6.25280E+04-2.55932E-09 2.15869E-09
 -1       620 1.83511E+05 2.20843E+03 3.28555E+03 5.47830E+04 6.71184E-09 2.95040E-09
 -1       621 6.56293E+03 7.08536E+05 1.31597E+04-1.04417E+05-2.04818E-09-2.55568E-10
 -1       622 2.84107E+03 7.10926E+05 1.08293E+04-1.19275E+05 2.55568E-10-3.50155E-10
 -1       623 2.14449E+03 7.09096E+05 1.34188E+04-1.04538E+05-2.81489E-09-2.76486E-09
 -1       624 9.34851E+03 7.14227E+05 2.59863E+04-1.18775E+05 1.09503E-09-6.46014E-09
 -1       625 2.79247E+04 7.05734E+05 5.03691E+04-1.04899E+05-1.28512E-09-3.82533E-09
 -1       626 2.62370E+05 8.76311E+04-2.42520E+04 1.85188E+05-1.12705E-08-1.19362E-08
 -1       627 2.51328E+05 1.02625E+05-1.16957E+04 1.89756E+05 3.11411E-09-6.56655E-10
 -1       628 2.62260E+05 9.77860E+04-4.95483E+03 1.80020E+05 1.53013E-08-1.94905E-09
 -1       629 2.53201E+05 1.06778E+05-2.39570E+03 1.89477E+05 3.38696E-09-2.07672E-09
 -1       630 2.62064E+05 9.83302E+04-1.08027E+03 1.79635E+05 4.97312E-09-6.94331E-09
 -1       631 2.53231E+05 1.07048E+05-4.96808E+02 1.89431E+05 4.58658E-09-9.76007E-09
 -1       632 2.61943E+05 9.83679E+04-1.75687E+02 1.79564E+05-1.02518E-08-1.08153E-08
 -1       633 2.53172E+05 1.07082E+05 3.54977E+01 1.89389E+05 3.38514E-09-4.47562E-09
 -1       634 2.61872E+05 9.83726E+04 2.60613E+02 1.79532E+05 3.92174E-09-3.03362E-09
 -1       635 2.53170E+05 1.07090E+05 6.55850E+02 1.89378E+05 4.52701E-09 2.93221E-09
 -1       636 2.61828E+05 9.83653E+04 1.38509E+03 1.79520E+05 1.41881E-09 1.05820E-08
 -1       637 2.53461E+05 1.07300E+05 3.07347E+03 1.89377E+05 7.74708E-09-3.26690E-09
 -1       638 2.61728E+05 9.90034E+04 6.32383E+03 1.79226E+05 7.09315E-09-2.79124E-09
 -1       639 2.56806E+05 1.11847E+05 1.49618E+04 1.88472E+05 4.77758E-09 5.05497E-09
 -1       640 2.61313E+05 1.12478E+05 3.09955E+04 1.73444E+05 3.42789E-09 5.82804E-09
 -1       641 1.49933E+04 4.22059E+03-1.26354E+04 5.94551E+02-1.40790E-08 2.47428E-09
 -1       642 9.98418E+03-4.95648E+03-8.48204E+03 1.79201E+04-1.23936E-08 9.78730E-10
 -1       643 1.29866E+04 5.33054E+02-3.27921E+03 5.79424E+02-1.10942E-08-4.30623E-09
 -1       644 1.21955E+04-4.85683E+02-1.90070E+03 1.79327E+04 7.35758E-09-3.34012E-09
 -1       645 1.27128E+04 6.83696E+01-7.98386E+02 5.80518E+02 4.41582E-09-8.46455E-10
 -1       646 1.24649E+04 9.93223E+01-3.72946E+02 1.79278E+04-3.56284E-08-3.77671E-09
 -1       647 1.26718E+04 1.03053E+01-5.57892E+01 5.83813E+02 3.59352E-08 2.43261E-10
 -1       648 1.25089E+04 2.05089E+02 2.14736E+02 1.79234E+04 4.44107E-08-3.34404E-09
 -1       649 1.26470E+04-1.88096E+01 5.64004E+02 5.84718E+02 2.38409E-08-1.82791E-09
 -1       650 1.26585E+04 4.24032E+02 1.31459E+03 1.79227E+04 3.94977E-08-4.34341E-09
 -1       651 1.25239E+04-2.01265E+02 2.43742E+03 5.84478E+02-6.85304E-10 8.86530E-10
 -1       652 1.36334E+04 2.08326E+03 5.67512E+03 1.79211E+04-6.13437E-09-8.25821E-09
 -1       653 1.16974E+04-1.60608E+03 9.64546E+03 5.86066E+02 1.78693E-09-1.30467E-09
 -1       654 2.04603E+04 1.51844E+04 2.50549E+04 1.78780E+04 3.25599E-09-7.22503E-09
 -1       655 5.74742E+03-1.25389E+04 3.71512E+04 6.24724E+02 4.52724E-09-1.75351E-09
 -1       656 3.23989E+04-8.85914E+05-9.92209E+04 4.56824E+03 6.07542E-10 1.87629E-09
 -1       657-4.31025E+04-9.25945E+05-7.61953E+04 6.26068E+04-7.42148E-10 4.89729E-09
 -1       658 7.77231E+03-8.99158E+05-4.61794E+04 4.03814E+03 8.57540E-10 5.10738E-09
 -1       659-3.97323E+04-9.24354E+05-7.12229E+04 6.30490E+04 3.84171E-09-3.85481E-09
 -1       660 2.93082E+04-8.87615E+05-9.02281E+04 4.12873E+03 1.37516E-09-1.99361E-09
 -1       661 9.25589E+05 1.08518E+05 7.87309E+04 3.62238E+05-1.39116E-08 1.75714E-09
 -1       662 9.49506E+05 1.81722E+05 5.22413E+04 3.67683E+05-1.69262E-08-3.58341E-09
 -1       663 9.40198E+05 1.32607E+05 1.85888E+04 3.58835E+05 9.68498E-10 2.26555E-09
 -1       664 9.32859E+05 1.52944E+05 1.08761E+04 3.71733E+05-1.26773E-08-1.28769E-08
 -1       665 9.42013E+05 1.35990E+05 4.37682E+03 3.58668E+05-6.18041E-09 8.47422E-10
 -1       666 9.30838E+05 1.48892E+05 2.48959E+03 3.71852E+05 1.47398E-08 8.64750E-09
 -1       667 9.42175E+05 1.36520E+05 1.31765E+03 3.58759E+05-1.61730E-08-4.49481E-09
 -1       668 9.30682E+05 1.48384E+05 1.25552E+03 3.71765E+05-4.53524E-08-8.98314E-09
 -1       669 9.42159E+05 1.36489E+05 1.67369E+03 3.58755E+05-1.03668E-08 1.01741E-08
 -1       670 9.31002E+05 1.49170E+05 3.52385E+03 3.71849E+05 2.26675E-08 1.06178E-08
 -1       671 9.41867E+05 1.35750E+05 6.36549E+03 3.58672E+05-3.76292E-09 1.01181E-08
 -1       672 9.34121E+05 1.54976E+05 1.59334E+04 3.71496E+05-1.25948E-08 3.43493E-09
 -1       673 9.39095E+05 1.30893E+05 2.72731E+04 3.59038E+05 9.35279E-09 3.83807E-09
 -1       674 9.58810E+05 1.96940E+05 7.66678E+04 3.65227E+05 1.08421E-08-1.02318E-09
 -1       675 9.17490E+05 9.57184E+04 1.15579E+05 3.64225E+05 2.72448E-08 1.14596E-08
 -1       676 1.31377E+04-8.19663E+05-4.07779E+04 4.00827E+03 7.00129E-09-3.87149E-09
 -1       677-1.82126E+04-8.36190E+05-3.28673E+04 3.02138E+04 7.80642E-09 3.47882E-11
 -1       678 3.75609E+03-8.24679E+05-2.23899E+04 3.69137E+03 3.78645E-09 6.90807E-09
 -1       679-2.20410E+04-8.38229E+05-3.86016E+04 3.05761E+04 7.50151E-09 9.42237E-10
 -1       680 1.67668E+04-8.17673E+05-5.10693E+04 3.64603E+03 9.85165E-09 1.39485E-09
 -1       681 6.22769E+05-1.16194E+04 3.43387E+04 4.13207E+01-9.73159E-11-2.66300E-09
 -1       682 6.36611E+05 1.38430E+04 2.31908E+04-2.11501E+04-4.46789E-11-1.36606E-09
 -1       683 6.28282E+05-1.50167E+03 8.93950E+03-3.18594E+02-1.14142E-10-6.55746E-10
 -1       684 6.30248E+05 1.74603E+03 5.30995E+03-2.05263E+04 5.73550E-10 7.45786E-11
 -1       685 6.29049E+05-1.97979E+02 2.35974E+03-5.81461E+02 6.82121E-13 7.40329E-10
 -1       686 6.29321E+05 2.32757E+02 1.44358E+03-2.01153E+04-1.04876E-10 2.17142E-11
 -1       687 6.29156E+05-3.33514E+01 9.57150E+02-7.29661E+02-7.84439E-11 7.48656E-10
 -1       688 6.29220E+05 1.13108E+02 1.11782E+03-1.99304E+04-1.46670E-10 2.23887E-09
 -1       689 6.29126E+05-6.84642E+01 1.69555E+03-7.66339E+02-2.44711E-11 3.51008E-10
 -1       690 6.29558E+05 6.17400E+02 3.45503E+03-1.99698E+04-3.51918E-10-1.41256E-10
 -1       691 6.28823E+05-5.20250E+02 6.21471E+03-6.90195E+02 1.82581E-10 1.30512E-09
 -1       692 6.31970E+05 4.80097E+03 1.43358E+04-2.02321E+04-4.10637E-10-4.00178E-11
 -1       693 6.26744E+05-4.04981E+03 2.43362E+04-5.04029E+02-1.67120E-10-1.45155E-09
 -1       694 6.49091E+05 3.78180E+04 6.31319E+04-2.07110E+04-1.06593E-09-2.12185E-09
 -1       695 6.11757E+05-3.15698E+04 9.36509E+04-2.13487E+02-1.10504E-10-5.82077E-10
 -1       696-1.16648E+04 6.28214E+05 3.40011E+04-2.48494E+03 1.38243E-10-1.64232E-09
 -1       697 1.34161E+04 6.41346E+05 2.10288E+04-4.63747E+04 7.32143E-11-8.87553E-10
 -1       698-7.73564E+02 6.34180E+05 4.66006E+03-2.55730E+03-2.43745E-10 2.15115E-09
 -1       699-4.79486E+03 6.31963E+05-6.15506E+03-4.64435E+04-2.86263E-10 2.82415E-09
 -1       700 5.42869E+03 6.37626E+05-1.49206E+04-2.41777E+03-2.73758E-10 1.88447E-09
 -1       701-5.54389E+05-5.44586E+04-7.64959E+04-2.19314E+05-9.36780E-11-1.05865E-09
 -1       702-5.83962E+05-1.19083E+05-5.07338E+04-2.17296E+05 2.17483E-10 9.48603E-10
 -1       703-5.69160E+05-7.72637E+04-1.80556E+04-2.15317E+05-3.21734E-11-7.27596E-11
 -1       704-5.66853E+05-9.21064E+04-1.05341E+04-2.22441E+05-2.00458E-10 6.34827E-10
 -1       705-5.71331E+05-8.01192E+04-4.22797E+03-2.14674E+05 4.54747E-12-3.20824E-10
 -1       706-5.64287E+05-8.88130E+04-2.35637E+03-2.23340E+05 6.32042E-10 2.17392E-09
 -1       707-5.71723E+05-8.03904E+04-1.17264E+03-2.14490E+05-8.87894E-11 3.95517E-10
 -1       708-5.63846E+05-8.85814E+04-9.77148E+02-2.23611E+05-6.94058E-10-1.61820E-09
 -1       709-5.71784E+05-8.03271E+04-1.16048E+03-2.14419E+05-5.80769E-10 3.06213E-09
 -1       710-5.64065E+05-8.90477E+04-2.32907E+03-2.23637E+05-3.02130E-09 5.72243E-10
 -1       711-5.71512E+05-7.99354E+04-4.16389E+03-2.14462E+05-8.23491E-10-1.88720E-10
 -1       712-5.66384E+05-9.25269E+04-1.03907E+04-2.23035E+05-1.02716E-10 1.16415E-10
 -1       713-5.69485E+05-7.70014E+04-1.77904E+04-2.14963E+05-3.86308E-10 2.88310E-10
 -1       714-5.83030E+05-1.19358E+05-5.00183E+04-2.18247E+05-2.37605E-10 1.45519E-10
 -1       715-5.55044E+05-5.43936E+04-7.53935E+04-2.18763E+05 2.43745E-10-2.14641E-10
 -1       716 3.79594E+05-2.45834E+04 7.23032E+04-1.62326E+03 1.10958E-10 2.36469E-10
 -1       717 4.09100E+05 2.92915E+04 4.88996E+04-5.48314E+04-4.31555E-10 6.64841E-10
 -1       718 3.91244E+05-3.18754E+03 1.87975E+04-2.03785E+03-5.17048E-10 1.71531E-09
 -1       719 3.95385E+05 3.86251E+03 1.11596E+04-5.41286E+04-3.95858E-10 2.29784E-09
 -1       720 3.92879E+05-4.06635E+02 4.89579E+03-2.32411E+03 1.60662E-09 2.97268E-09
 -1       721 3.93299E+05 7.00612E+02 2.88083E+03-5.37396E+04 3.31329E-09 3.78373E-09
 -1       722 3.93114E+05-4.77111E+01 1.70961E+03-2.42669E+03 2.41653E-09 3.52884E-09
 -1       723 3.93089E+05 3.79664E+02 1.70030E+03-5.37208E+04 1.75754E-09 3.48899E-09
 -1       724 3.93079E+05-9.39001E+01 2.31238E+03-2.34290E+03 1.60821E-09 4.72141E-09
 -1       725 3.93738E+05 9.46620E+02 4.57392E+03-5.40786E+04 1.37788E-09 9.46159E-10
 -1       726 3.92661E+05-7.26521E+02 8.06790E+03-2.06921E+03 9.69976E-10 2.57251E-09
 -1       727 3.97315E+05 6.25529E+03 1.87108E+04-5.48126E+04 3.04863E-09 1.18962E-09
 -1       728 3.89911E+05-5.39873E+03 3.15479E+04-1.60876E+03 4.77485E-10 8.56744E-10
 -1       729 4.20278E+05 4.90349E+04 8.22090E+04-5.58844E+04-2.45564E-09-2.30284E-09
 -1       730 3.70347E+05-4.13385E+04 1.21578E+05-1.00366E+03 3.81988E-10-3.08501E-09
 -1       731-1.95094E+04 2.19943E+05 5.77384E+04-3.25274E+03 1.78261E-09-9.76343E-10
 -1       732 2.36853E+04 2.42699E+05 3.88291E+04-9.81683E+04 3.53430E-09-6.53927E-10
 -1       733-2.45440E+03 2.29231E+05 1.47155E+04-3.26512E+03 1.82081E-09 1.56911E-09
 -1       734 3.09431E+03 2.32252E+05 8.16097E+03-9.82462E+04 3.18767E-09 2.60297E-09
 -1       735-2.63475E+02 2.30527E+05 2.48068E+03-3.17611E+03 8.87894E-10 1.76078E-09
 -1       736-1.60892E+06-1.88031E+05-1.23874E+05-6.21670E+05 9.42237E-10-1.27329E-09
 -1       737-1.65951E+06-2.89962E+05-8.21575E+04-6.15209E+05-5.47516E-10 2.26646E-09
 -1       738-1.63332E+06-2.24491E+05-2.92214E+04-6.14612E+05 3.61979E-10 9.98625E-10
 -1       739-1.63090E+06-2.47131E+05-1.70437E+04-6.24567E+05 3.93356E-11-8.96762E-10
 -1       740-1.63722E+06-2.28724E+05-6.83117E+03-6.13116E+05-1.77852E-09-6.24823E-10
 -1       741-1.62612E+06-2.42423E+05-3.79419E+03-6.26757E+05-2.07456E-09-1.50806E-09
 -1       742-1.63810E+06-2.28922E+05-1.86273E+03-6.12538E+05 6.90306E-10-4.64638E-10
 -1       743-1.62508E+06-2.42355E+05-1.50700E+03-6.27567E+05 1.19485E-09-4.92378E-10
 -1       744-1.63828E+06-2.28750E+05-1.73434E+03-6.12333E+05 1.26465E-09-7.61247E-10
 -1       745-1.62540E+06-2.43025E+05-3.43553E+03-6.27594E+05 2.44771E-09 1.01659E-09
 -1       746-1.63779E+06-2.28272E+05-6.12252E+03-6.12507E+05 3.79018E-09 1.74305E-09
 -1       747-1.62917E+06-2.47775E+05-1.52697E+04-6.26270E+05 2.44609E-09 1.56524E-09
 -1       748-1.63454E+06-2.24236E+05-2.61470E+04-6.13566E+05-1.40903E-09-2.38106E-09
 -1       749-1.65435E+06-2.86543E+05-7.35417E+04-6.18394E+05-2.26578E-09-6.31189E-10
 -1       750-1.61289E+06-1.91416E+05-1.10863E+05-6.19671E+05-5.34783E-10-9.09495E-10
 -1       751 2.80641E+06-1.15873E+05 3.44620E+05 5.23733E+03-4.75029E-09-1.84809E-09
 -1       752 2.94370E+06 1.38800E+05 2.32165E+05-3.59495E+04-4.77939E-09-4.16549E-09
 -1       753 2.86155E+06-1.48697E+04 8.96258E+04 2.28466E+03-4.25189E-10-2.74304E-09
 -1       754 2.88084E+06 1.75657E+04 5.28582E+04-3.10337E+04 2.26282E-09 3.05863E-09
 -1       755 2.86922E+06-1.92098E+03 2.30533E+04 3.44777E+02-7.05995E-10 1.21781E-09
 -1       756 2.87200E+06 2.22807E+03 1.30645E+04-2.79447E+04-5.75710E-10 2.41403E-09
 -1       757 2.87034E+06-2.72926E+02 6.88197E+03-8.04015E+02-1.18234E-10 1.91471E-09
 -1       758 2.87081E+06 5.01371E+02 5.45263E+03-2.63481E+04-8.78345E-10 1.48373E-09
 -1       759 2.87038E+06-2.26718E+02 6.05773E+03-1.25205E+03 8.81073E-13 9.55765E-10
 -1       760 2.87163E+06 1.83335E+03 1.07989E+04-2.61153E+04-1.81606E-09 2.18836E-09
 -1       761 2.86949E+06-1.53874E+03 1.87446E+04-1.03679E+03 2.01339E-10-1.04046E-09
 -1       762 2.87867E+06 1.42325E+04 4.27230E+04-2.72262E+04 6.99856E-10 4.09000E-09
 -1       763 2.86331E+06-1.19805E+04 7.23992E+04-1.41055E+02 1.59685E-09 2.32831E-09
 -1       764 2.92928E+06 1.12137E+05 1.87413E+05-2.97862E+04-2.00544E-10-1.52795E-10
 -1       765 2.81879E+06-9.35062E+04 2.78177E+05 1.51447E+03-1.94086E-09-1.20781E-09
 -1       766-4.99950E+04 6.42439E+05 1.52061E+05-1.53642E+03-2.67755E-09 5.38876E-10
 -1       767 6.48241E+04 7.04691E+05 1.14607E+05 1.97883E+03 2.12913E-09-6.60293E-10
 -1       768-1.11495E+04 6.63389E+05 6.58851E+04-9.20911E+02-1.20463E-09 1.97679E-09
 -1       769 5.22516E+04 6.98169E+05 9.58175E+04 8.01252E+02 1.82627E-09 1.03478E-09
 -1       770-3.81792E+04 6.48940E+05 1.18228E+05-3.68208E+02-4.87489E-10 1.32923E-09
 -1       771-1.65563E+06-3.51134E+05-9.99554E+04-6.97092E+05 3.37968E-09-8.73115E-11
 -1       772-1.65915E+06-3.30822E+05-4.82063E+04-7.25073E+05-3.07773E-09 1.06775E-09
 -1       773-1.65743E+06-3.07569E+05-2.04227E+04-7.16032E+05-1.87720E-09-6.42103E-10
 -1       774-1.64890E+06-3.16025E+05-9.92394E+03-7.28423E+05-9.07676E-10-1.21254E-08
 -1       775-1.65817E+06-3.05252E+05-4.56427E+03-7.17191E+05 8.44011E-10-1.71713E-09
 -1       776-1.64827E+06-3.15254E+05-2.29012E+03-7.28742E+05-3.60160E-09 3.02680E-09
 -1       777-1.65856E+06-3.05116E+05-1.23627E+03-7.17348E+05-1.33150E-09 2.74486E-09
 -1       778-1.64839E+06-3.15184E+05-9.26485E+02-7.28943E+05-8.73115E-11 8.09223E-10
 -1       779-1.65879E+06-3.04991E+05-1.12917E+03-7.17457E+05-2.76486E-10 5.89694E-10
 -1       780-1.64863E+06-3.15139E+05-2.02380E+03-7.29148E+05-9.91349E-10 2.39413E-09
 -1       781-1.65887E+06-3.04868E+05-3.98112E+03-7.17513E+05 1.94632E-10-2.40107E-10
 -1       782-1.64948E+06-3.15761E+05-8.68140E+03-7.29293E+05 7.30324E-10-1.55069E-10
 -1       783-1.65865E+06-3.06623E+05-1.78250E+04-7.16642E+05-3.74712E-10-3.56522E-10
 -1       784-1.65832E+06-3.29115E+05-4.21648E+04-7.27250E+05-7.89896E-10 4.65661E-10
 -1       785-1.65771E+06-3.44291E+05-8.73729E+04-6.99868E+05 1.56433E-10 1.47338E-09
 -1       786 1.36608E+06-4.89293E+04 1.45353E+05 9.43503E+02 1.23032E-09-1.41154E-09
 -1       787 1.42385E+06 5.86601E+04 9.79538E+04-1.47364E+04-8.53447E-10 5.51154E-10
 -1       788 1.38933E+06-6.27029E+03 3.77957E+04 3.99418E+02-7.36236E-10-6.54836E-10
 -1       789 1.39738E+06 7.43547E+03 2.22755E+04-1.38356E+04 4.99654E-11-4.88853E-10
 -1       790 1.39256E+06-8.06212E+02 9.70392E+03 4.69130E+01 4.02906E-10-2.27146E-09
 -1       791 1.39368E+06 9.41275E+02 5.47320E+03-1.33073E+04 1.09188E-09 7.36691E-11
 -1       792 1.39302E+06-1.12628E+02 2.84367E+03-1.28773E+02 3.06443E-10-8.16613E-10
 -1       793 1.39319E+06 1.95144E+02 2.17949E+03-1.31247E+04-4.12880E-10-2.94932E-09
 -1       794 1.39304E+06-8.70854E+01 2.33086E+03-1.35713E+02-4.49887E-10-2.95688E-09
 -1       795 1.39350E+06 6.79462E+02 4.07307E+03-1.32803E+04 4.12456E-10-6.16410E-10
 -1       796 1.39272E+06-5.78890E+02 7.02562E+03 2.68764E+01-9.68839E-10-5.29576E-09
 -1       797 1.39615E+06 5.32473E+03 1.59984E+04-1.37788E+04-6.47333E-10-4.10660E-09
 -1       798 1.39040E+06-4.49449E+03 2.70967E+04 3.62744E+02-1.27602E-09-1.92813E-10
 -1       799 1.41513E+06 4.20242E+04 7.01939E+04-1.46389E+04-3.33421E-09-3.16504E-09
 -1       800 1.37374E+06-3.50645E+04 1.04130E+05 8.83999E+02-4.97494E-10 1.45519E-10
 -1       801-4.03548E+04 9.92435E+05 1.18812E+05-2.29578E+04-1.47702E-09-7.22866E-09
 -1       802 6.23239E+04 1.04136E+06 1.02809E+05-6.15433E+05-1.31331E-09-4.01587E-09
 -1       803-1.21001E+04 1.00751E+06 7.70572E+04-2.50937E+04-1.40062E-09 9.38871E-09
 -1       804 8.92447E+04 1.05758E+06 1.43912E+05-6.16088E+05-1.63163E-09 9.56061E-09
 -1       805-6.67742E+04 9.77892E+05 1.92038E+05-2.23186E+04-9.31323E-10 9.18953E-09
 -1       806-8.19932E+05-2.07920E+05-7.66498E+04-3.69214E+05-5.83987E-09-1.58616E-08
 -1       807-8.21741E+05-1.93416E+05-3.69914E+04-3.91918E+05-1.41881E-10 1.13596E-09
 -1       808-8.21013E+05-1.74697E+05-1.56450E+04-3.83861E+05 1.54614E-09 6.28461E-10
 -1       809-8.13933E+05-1.81843E+05-7.61796E+03-3.94033E+05-1.69484E-09-4.76120E-10
 -1       810-8.21364E+05-1.73062E+05-3.48962E+03-3.84683E+05 1.01500E-09 7.43375E-09
 -1       811-8.13304E+05-1.81274E+05-1.76990E+03-3.94060E+05 3.18323E-10 1.83718E-10
 -1       812-8.21448E+05-1.73073E+05-9.67350E+02-3.84708E+05 2.08593E-09 1.72804E-11
 -1       813-8.13237E+05-1.81274E+05-7.84192E+02-3.94034E+05 4.71061E-10 5.85715E-10
 -1       814-8.21422E+05-1.73084E+05-1.01036E+03-3.84695E+05-1.24874E-09 1.73168E-09
 -1       815-8.13268E+05-1.81290E+05-1.88268E+03-3.94023E+05-1.69894E-09 3.34694E-10
 -1       816-8.21283E+05-1.73096E+05-3.72951E+03-3.84643E+05-2.22190E-09 1.13505E-09
 -1       817-8.13906E+05-1.81908E+05-8.14937E+03-3.93949E+05 3.59250E-10-2.08456E-09
 -1       818-8.20862E+05-1.74876E+05-1.67412E+04-3.83748E+05 5.60249E-10-1.54250E-09
 -1       819-8.22277E+05-1.94238E+05-3.95752E+04-3.91584E+05 2.87764E-09-1.31786E-09
 -1       820-8.19626E+05-2.10463E+05-8.20059E+04-3.68103E+05 5.51518E-09-9.89530E-10
 -1       821-8.98856E+05 3.49338E+04-1.03683E+05-1.12308E+03-7.11998E-09 1.96451E-09
 -1       822-9.39922E+05-4.19025E+04-6.98817E+04 1.06625E+04-4.80895E-09-5.07498E-09
 -1       823-9.15426E+05 4.45534E+03-2.69596E+04-1.66639E+03 7.70638E-09-5.79166E-09
 -1       824-9.21105E+05-5.27234E+03-1.58725E+04 1.16243E+04-2.43563E-09 2.05659E-09
 -1       825-9.17708E+05 5.59598E+02-6.93071E+03-2.08756E+03-1.66735E-08-2.27328E-09
 -1       826-9.18540E+05-6.05395E+02-3.91687E+03 1.23456E+04-2.77930E-08 4.45289E-09
 -1       827-9.18030E+05 7.13497E+01-2.07690E+03-2.38846E+03-1.69935E-08-1.56507E-09
 -1       828-9.18244E+05-6.41305E+01-1.65699E+03 1.28199E+04-1.67348E-08-2.90754E-11
 -1       829-9.18035E+05 6.39311E+01-1.86560E+03-2.56215E+03 9.99137E-10-4.48676E-09
 -1       830-9.18527E+05-4.76615E+02-3.35194E+03 1.30334E+04 8.27549E-09-5.02655E-09
 -1       831-9.17762E+05 4.75612E+02-5.83300E+03-2.60202E+03-7.48602E-09-1.11436E-09
 -1       832-9.20719E+05-4.36973E+03-1.33253E+04 1.29826E+04-5.54837E-09 4.47926E-11
 -1       833-9.15846E+05 3.74444E+03-2.25911E+04-2.51063E+03 1.57536E-09-6.47105E-09
 -1       834-9.36520E+05-3.50605E+04-5.85795E+04 1.26872E+04-3.02134E-09-4.56657E-09
 -1       835-9.01958E+05 2.92918E+04-8.68866E+04-2.30143E+03 3.23234E-09-6.36646E-09
 -1       836-7.75035E+04 2.70484E+06 2.38380E+05-1.40415E+04-3.46336E-09 3.12866E-10
 -1       837 1.05846E+05 2.80244E+06 1.89648E+05-2.32693E+05-9.53332E-09 1.73100E-09
 -1       838-2.08071E+04 2.73529E+06 1.24949E+05-1.69753E+04-5.46106E-09 1.62515E-09
 -1       839 1.18748E+05 2.80878E+06 2.08815E+05-2.31972E+05-1.15851E-08 3.72142E-09
 -1       840-8.94526E+04 2.69825E+06 2.73047E+05-1.47585E+04-3.89991E-09 5.43514E-09
 -1       841-4.27272E+05-4.08558E+04-6.28390E+04-1.69663E+05 2.15005E-09-7.27596E-11
 -1       842-4.66675E+05-7.86927E+04-4.16527E+04-1.50674E+05-5.91263E-09 1.21872E-09
 -1       843-4.38953E+05-6.00179E+04-1.48322E+04-1.66889E+05 4.31874E-09 3.47609E-09
 -1       844-4.53430E+05-5.57754E+04-8.63511E+03-1.54053E+05 6.85577E-09 1.08594E-09
 -1       845-4.40414E+05-6.26731E+04-3.45195E+03-1.66722E+05-8.24616E-09-4.82612E-09
 -1       846-4.51881E+05-5.25318E+04-1.88042E+03-1.54203E+05-2.06908E-08-1.38448E-08
 -1       847-4.40522E+05-6.31109E+04-8.57189E+02-1.66816E+05 1.83036E-10 1.15254E-09
 -1       848-4.51836E+05-5.19831E+04-5.60803E+02-1.54066E+05 1.76686E-09 2.85677E-09
 -1       849-4.40482E+05-6.31933E+04-4.83985E+02-1.66880E+05-3.76070E-09-3.31364E-09
 -1       850-4.51966E+05-5.20242E+04-8.08339E+02-1.53993E+05-3.56269E-09-1.39739E-09
 -1       851-4.40400E+05-6.30688E+04-1.37336E+03-1.66893E+05-7.84388E-09 1.06320E-09
 -1       852-4.52619E+05-5.32291E+04-3.37536E+03-1.53884E+05 8.81641E-10 8.86303E-10
 -1       853-4.39828E+05-6.20431E+04-5.77066E+03-1.66965E+05 1.35810E-09 6.70752E-11
 -1       854-4.57727E+05-6.21661E+04-1.61951E+04-1.52598E+05-1.19990E-08 8.35030E-10
 -1       855-4.35328E+05-5.45633E+04-2.44315E+04-1.68005E+05-2.96041E-09 3.65526E-09
 -1       856-9.57286E+05 3.09147E+04-9.20067E+04-2.50447E+03-1.81417E-08-4.21642E-09
 -1       857-9.93575E+05-3.70134E+04-6.19498E+04 2.43283E+04-7.65476E-09-3.22325E-09
 -1       858-9.71953E+05 3.91441E+03-2.39275E+04-3.41744E+03-1.45483E-08-8.66021E-09
 -1       859-9.77068E+05-4.47521E+03-1.40574E+04 2.58815E+04-4.16026E-09-6.64841E-09
 -1       860-9.73960E+05 4.76048E+02-6.13724E+03-4.06392E+03-1.12004E-09-9.40577E-09
 -1       861-9.74908E+05-2.95998E+02-3.43932E+03 2.68915E+04-3.09393E-08-5.50835E-09
 -1       862-9.74238E+05 5.02742E+01-1.77966E+03-4.42951E+03 2.58576E-08-1.05991E-08
 -1       863-9.74676E+05 2.08135E+02-1.34215E+03 2.73355E+04 4.76278E-08-7.48938E-09
 -1       864-9.74250E+05 3.48028E+01-1.41120E+03-4.50861E+03 2.85225E-08-1.24681E-08
 -1       865-9.74832E+05-8.90265E+01-2.44373E+03 2.72032E+04 2.33185E-08-1.10092E-08
 -1       866-9.74064E+05 3.21388E+02-4.21740E+03-4.29693E+03-7.57723E-09-5.71845E-09
 -1       867-9.76289E+05-2.92629E+03-9.57825E+03 2.64988E+04-2.17221E-09-2.20484E-09
 -1       868-9.72705E+05 2.65455E+03-1.62695E+04-3.80268E+03 1.75264E-08-6.60657E-09
 -1       869-9.87462E+05-2.50462E+04-4.20963E+04 2.52346E+04-9.48080E-09-8.57654E-09
 -1       870-9.62749E+05 2.09917E+04-6.25295E+04-3.02726E+03 1.20972E-08-8.42556E-09
 -1       871-5.15573E+03-2.75804E+04-7.30762E+03 1.21470E+05 7.11043E-09-1.97724E-09
 -1       872-1.98117E+03-2.87203E+04-1.92619E+03 1.38179E+05 8.61928E-09-5.64705E-09
 -1       873-2.52686E+02-2.84203E+04 2.56364E+03 1.21254E+05 1.47907E-08 9.29049E-10
 -1       874 2.79286E+03-2.65499E+04 8.96020E+03 1.38328E+05 1.16179E-08 9.62700E-10
 -1       875 1.03638E+04-2.99191E+04 1.94287E+04 1.21376E+05 1.04201E-08 2.11207E-09
 -1       876 1.01021E+06 1.14680E+05 9.62089E+04 3.96147E+05-9.47693E-09-5.31873E-09
 -1       877 1.03775E+06 2.06019E+05 6.38624E+04 4.04950E+05-1.71376E-08 3.54430E-09
 -1       878 1.02790E+06 1.44313E+05 2.27058E+04 3.92190E+05-2.48974E-11-2.85218E-09
 -1       879 1.01766E+06 1.70532E+05 1.32911E+04 4.09508E+05-2.23142E-08-2.85013E-09
 -1       880 1.02998E+06 1.48596E+05 5.32547E+03 3.92144E+05-1.27192E-08 1.60549E-09
 -1       881 1.01540E+06 1.65330E+05 3.00281E+03 4.09349E+05 5.06452E-09-1.46105E-09
 -1       882 1.03008E+06 1.49363E+05 1.52293E+03 3.92381E+05-2.51845E-08-2.08831E-09
 -1       883 1.01536E+06 1.64489E+05 1.33952E+03 4.09007E+05-4.97743E-08-8.46091E-09
 -1       884 1.02999E+06 1.49436E+05 1.66731E+03 3.92472E+05 4.23891E-09 5.88744E-09
 -1       885 1.01576E+06 1.65114E+05 3.41319E+03 4.08954E+05 4.22665E-08 1.03223E-08
 -1       886 1.02968E+06 1.48758E+05 6.12761E+03 3.92426E+05 1.19176E-08-8.23093E-10
 -1       887 1.01876E+06 1.70683E+05 1.53076E+04 4.08615E+05 2.96048E-10-2.79124E-09
 -1       888 1.02704E+06 1.44067E+05 2.61926E+04 3.92748E+05 6.17933E-09 2.16460E-09
 -1       889 1.04239E+06 2.11080E+05 7.36247E+04 4.02722E+05 1.47757E-08 1.22754E-08
 -1       890 1.00637E+06 1.10206E+05 1.10976E+05 3.97640E+05 2.38906E-08 6.94126E-09
 -1       891 4.62773E+03-4.29090E+05-1.50812E+04 4.80700E+03-8.47467E-09-2.24918E-09
 -1       892-7.50702E+03-4.34557E+05-1.31196E+04 1.23095E+05 1.73577E-08 3.13207E-10
 -1       893 1.77780E+03-4.30589E+05-1.05292E+04 4.53940E+03 2.77396E-09-7.27027E-10
 -1       894-1.24475E+04-4.37009E+05-2.04546E+04 1.23017E+05 2.62298E-09-1.32241E-09
 -1       895 9.21914E+03-4.26566E+05-2.83111E+04 4.88352E+03-3.73802E-09 2.62753E-09
 -1       896 1.01147E+06-5.92552E+03 1.74907E+04 5.47610E+02-6.00267E-11-2.06637E-09
 -1       897 1.01850E+06 7.04203E+03 1.18220E+04-1.58301E+04-5.46038E-10-7.91715E-10
 -1       898 1.01428E+06-7.68589E+02 4.55862E+03 5.75829E+01-1.35742E-10-1.18075E-09
 -1       899 1.01525E+06 8.83277E+02 2.71968E+03-1.49746E+04-3.29237E-10-1.81842E-10
 -1       900 1.01468E+06-1.03356E+02 1.22441E+03-3.07400E+02 3.08319E-10-2.20155E-10
 -1       901 1.01477E+06 1.17331E+02 7.84915E+02-1.43796E+04-2.39197E-10 4.40536E-11
 -1       902 1.01473E+06-2.01872E+01 5.80278E+02-5.37439E+02-4.28372E-10 1.86702E-10
 -1       903 1.01472E+06 7.47548E+01 7.66367E+02-1.40472E+04-1.73571E-10 4.39590E-10
 -1       904 1.01470E+06-5.08583E+01 1.23692E+03-6.39846E+02 2.09837E-10 3.57829E-10
 -1       905 1.01497E+06 4.61324E+02 2.57186E+03-1.39689E+04 3.76872E-10 2.96041E-10
 -1       906 1.01447E+06-3.87942E+02 4.65137E+03-6.15746E+02 6.65068E-12-2.54204E-10
 -1       907 1.01676E+06 3.60185E+03 1.07380E+04-1.41417E+04-4.75893E-10-1.37561E-11
 -1       908 1.01292E+06-3.02861E+03 1.82405E+04-4.67004E+02-1.68370E-10 3.91992E-10
 -1       909 1.02955E+06 2.83445E+04 4.73006E+04-1.45602E+04-3.39696E-10-1.01772E-09
 -1       910 1.00168E+06-2.36397E+04 7.01745E+04-1.97957E+02 1.68029E-10-2.54659E-11
 -1       911 3.68110E+05-4.16819E+03 1.22320E+04-6.12406E+02-3.04681E-11-1.06866E-10
 -1       912 3.73116E+05 4.95575E+03 8.28725E+03-2.04383E+04 5.09317E-11 2.43290E-11
 -1       913 3.70083E+05-5.45233E+02 3.19303E+03-7.94619E+02-6.80984E-10 4.22688E-10
 -1       914 3.70787E+05 6.53982E+02 1.92474E+03-2.01100E+04-1.77351E-10 2.23389E-09
 -1       915 3.70359E+05-7.34093E+01 8.90978E+02-9.40574E+02 9.58607E-10 1.60298E-09
 -1       916 3.70426E+05 1.28815E+02 6.24657E+02-1.98815E+04 2.09093E-09 1.44564E-09
 -1       917 3.70395E+05-1.49344E+01 5.51119E+02-1.02307E+03 1.18456E-09 1.88621E-09
 -1       918 3.70406E+05 1.26500E+02 8.41485E+02-1.97816E+04 1.23839E-09 2.16164E-09
 -1       919 3.70358E+05-5.81231E+01 1.44572E+03-1.04044E+03 1.30419E-09 2.04057E-09
 -1       920 3.70722E+05 5.92258E+02 3.06373E+03-1.98111E+04 1.95269E-09 2.11708E-09
 -1       921 3.70084E+05-4.66125E+02 5.56277E+03-9.93531E+02 1.21418E-09 1.94291E-09
 -1       922 3.72896E+05 4.35244E+03 1.28692E+04-1.99674E+04 2.82307E-09 6.64159E-10
 -1       923 3.68216E+05-3.63905E+03 2.18568E+04-8.83975E+02 7.92625E-10 1.82899E-09
 -1       924 3.88287E+05 3.40205E+04 5.67204E+04-2.02253E+04-1.11595E-09 6.58474E-10
 -1       925 3.54755E+05-2.83700E+04 8.41388E+04-7.35900E+02 2.04636E-11 8.00355E-10
 -1       926-1.36305E+06 2.46277E+04-7.30276E+04-4.89488E+01 2.05318E-09-1.12777E-09
 -1       927-1.39196E+06-2.95427E+04-4.92241E+04 7.93035E+03 2.04227E-09-9.82254E-11
 -1       928-1.37472E+06 3.15059E+03-1.89694E+04-4.53726E+02 2.16733E-09-7.17591E-10
 -1       929-1.37867E+06-3.74290E+03-1.11633E+04 8.61621E+03 1.17734E-09-2.76418E-09
 -1       930-1.37633E+06 4.02796E+02-4.83902E+03-7.34796E+02-5.06816E-10-1.07843E-09
 -1       931-1.37683E+06-4.60948E+02-2.68576E+03 9.05263E+03 2.40078E-10-8.69477E-10
 -1       932-1.37656E+06 5.37435E+01-1.31538E+03-8.90290E+02 9.66310E-10-1.46304E-09
 -1       933-1.37658E+06-6.28742E+01-8.63180E+02 9.23438E+03-1.58423E-10-1.65221E-09
 -1       934-1.37658E+06 2.49780E+01-7.34668E+02-9.16582E+02 1.84897E-10-1.25712E-09
 -1       935-1.37663E+06-1.60985E+02-1.09991E+03 9.15605E+03 8.66748E-10-1.58637E-09
 -1       936-1.37651E+06 1.44852E+02-1.80375E+03-8.11946E+02 3.80282E-11-1.07298E-09
 -1       937-1.37728E+06-1.33666E+03-4.04272E+03 8.81989E+03 1.08867E-09-1.78142E-09
 -1       938-1.37593E+06 1.13005E+03-6.83182E+03-5.80354E+02 1.61833E-09-2.08047E-09
 -1       939-1.38204E+06-1.06072E+04-1.76891E+04 8.22821E+03 9.16543E-10-8.46285E-10
 -1       940-1.37174E+06 8.84225E+03-2.62447E+04-2.20176E+02 2.59206E-10-2.54659E-10
 -1       941 3.73452E+06-1.47961E+05 4.41052E+05 9.86393E+02 3.19477E-09 3.75439E-09
 -1       942 3.90922E+06 1.77642E+05 2.96906E+05 2.05763E+03 2.57285E-09-4.14002E-09
 -1       943 3.80499E+06-1.89464E+04 1.14746E+05 1.37406E+03 1.08105E-09-1.00408E-09
 -1       944 3.82931E+06 2.25473E+04 6.76191E+04 1.28033E+03-1.34651E-09-3.00315E-09
 -1       945 3.81480E+06-2.43220E+03 2.95347E+04 1.76532E+03 1.09367E-09 1.84991E-09
 -1       946 3.81823E+06 2.87415E+03 1.67241E+04 4.65377E+02 2.17960E-09 4.61523E-09
 -1       947 3.81621E+06-3.44202E+02 8.82850E+03 2.18952E+03 9.95556E-10 4.20778E-09
 -1       948 3.81680E+06 6.36528E+02 7.00491E+03-4.60989E+02-1.79568E-10 7.21712E-10
 -1       949 3.81626E+06-2.93197E+02 7.79855E+03 2.69181E+03-2.48099E-09-6.72480E-09
 -1       950 3.81788E+06 2.34499E+03 1.39164E+04-1.59718E+03 1.52141E-09 2.95336E-09
 -1       951 3.81512E+06-1.97841E+03 2.41607E+04 3.32573E+03-2.61139E-09-6.09725E-09
 -1       952 3.82688E+06 1.83166E+04 5.50446E+04-3.06865E+03-2.64748E-09-3.92538E-09
 -1       953 3.80714E+06-1.54013E+04 9.32993E+04 4.16232E+03-2.77339E-09-2.11003E-09
 -1       954 3.89187E+06 1.44375E+05 2.41354E+05-5.09880E+03-7.66386E-09-7.24685E-09
 -1       955 3.74981E+06-1.20287E+05 3.58387E+05 5.34195E+03-2.61821E-09-3.05590E-09
 -1       956-2.44436E+05-4.32423E+03-8.00604E+03 5.76869E+04-4.54747E-09-3.10683E-09
 -1       957-2.45822E+05-1.26397E+03-3.98153E+03 6.50794E+04-5.25688E-10-1.43791E-09
 -1       958-2.45120E+05-8.56120E+01-1.78960E+03 5.73192E+04 1.00463E-08-4.97857E-09
 -1       959-2.45314E+05 1.60648E+02-9.01838E+02 6.54818E+04-8.13452E-09-7.86713E-10
 -1       960-2.45277E+05 2.20227E+02-4.36825E+02 5.72758E+04-1.72804E-08-4.91536E-09
 -1       961-2.45348E+05 2.89573E+02-2.23483E+02 6.55299E+04-2.69174E-08-2.82080E-09
 -1       962-2.45362E+05 2.68768E+02-1.18577E+02 5.72694E+04-1.92013E-08-2.85172E-09
 -1       963-2.45412E+05 3.29311E+02-7.38937E+01 6.55381E+04-3.54389E-08-2.34922E-09
 -1       964-2.45415E+05 2.98484E+02-6.67334E+01 5.72668E+04-9.38871E-09-5.01723E-09
 -1       965-2.45460E+05 3.53618E+02-9.41604E+01 6.55394E+04 1.08942E-08-6.80711E-09
 -1       966-2.45441E+05 3.14258E+02-1.66718E+02 5.72676E+04-7.17318E-09-5.48062E-09
 -1       967-2.45502E+05 3.35831E+02-3.38965E+02 6.55263E+04 3.39674E-09-1.35196E-09
 -1       968-2.45423E+05 2.24630E+02-6.67363E+02 5.72800E+04 2.02760E-09-6.12727E-09
 -1       969-2.45731E+05-1.79052E+02-1.48921E+03 6.54067E+04 7.88987E-11-5.17957E-09
 -1       970-2.45188E+05-1.35425E+03-2.99236E+03 5.73928E+04 5.08862E-09-4.80895E-09
 -1       971-1.12801E+06 2.80232E+04-8.34315E+04-2.93711E+03-1.57497E-08-2.63753E-09
 -1       972-1.16083E+06-3.35759E+04-5.61693E+04 2.13790E+04-1.95412E-08-4.57021E-09
 -1       973-1.14130E+06 3.54009E+03-2.17063E+04-4.01484E+03-1.51090E-08-4.34920E-09
 -1       974-1.14588E+06-4.06742E+03-1.27596E+04 2.32370E+04-1.88720E-09-6.20639E-09
 -1       975-1.14311E+06 4.22798E+02-5.60265E+03-4.80041E+03 9.07085E-09-9.60404E-09
 -1       976-1.14394E+06-2.73521E+02-3.19025E+03 2.44953E+04-2.09748E-08-5.67991E-09
 -1       977-1.14336E+06 4.05287E+01-1.75889E+03-5.27506E+03 2.21744E-08-9.93941E-09
 -1       978-1.14377E+06 1.66450E+02-1.52017E+03 2.51228E+04 4.34524E-08-1.29472E-08
 -1       979-1.14335E+06 4.97833E+01-1.85689E+03-5.42865E+03 2.85265E-08-1.27573E-08
 -1       980-1.14406E+06-2.95028E+02-3.47548E+03 2.51027E+04 3.93181E-08-1.08584E-08
 -1       981-1.14307E+06 4.80392E+02-6.12456E+03-5.25486E+03 5.48198E-09-6.70275E-09
 -1       982-1.14628E+06-4.43304E+03-1.40237E+04 2.44389E+04-1.29467E-09-6.74936E-09
 -1       983-1.14106E+06 3.91492E+03-2.38220E+04-4.76303E+03 1.23509E-09-1.05774E-08
 -1       984-1.16280E+06-3.68340E+04-6.17314E+04 2.31652E+04-7.73889E-09-6.27551E-09
 -1       985-1.12645E+06 3.08278E+04-9.16300E+04-3.97331E+03 2.23099E-08-7.71979E-09
 -3
 9999
