
 stresses (elem, integ.pnt.,sxx,syy,szz,sxy,sxz,syz) for set ELALL and time  0.1000000E+01

         1   1 -4.456136E+06 -4.934234E+05 -6.330466E+05 -1.162779E+05 -4.312527E+05  8.132398E+01
         1   2 -4.363698E+06  9.243959E+04 -2.734248E+05 -3.162355E+04 -2.828274E+05  1.450399E+01
         1   3 -4.455058E+06  2.197713E+04 -1.749461E+05  5.304374E+04 -1.344062E+05 -1.156302E+01
         1   4 -4.456150E+06 -4.934490E+05 -6.330502E+05  3.281007E-08 -4.312527E+05 -6.611984E-10
         1   5 -4.363700E+06  9.243770E+04 -2.734251E+05 -1.320991E-08 -2.828274E+05 -1.711945E-09
         1   6 -4.455061E+06  2.197181E+04 -1.749468E+05 -5.496635E-09 -1.344062E+05 -9.216776E-10
         1   7 -4.456136E+06 -4.934234E+05 -6.330466E+05  1.162779E+05 -4.312527E+05 -8.132398E+01
         1   8 -4.363698E+06  9.243959E+04 -2.734248E+05  3.162355E+04 -2.828274E+05 -1.450399E+01
         1   9 -4.455058E+06  2.197713E+04 -1.749461E+05 -5.304374E+04 -1.344062E+05  1.156302E+01
         1  10 -4.456336E+06 -4.934738E+05 -6.333986E+05 -1.162778E+05  8.371094E-10 -6.559158E-10
         1  11 -4.363785E+06  9.241792E+04 -2.735762E+05 -3.162355E+04  1.120683E-09 -1.144764E-09
         1  12 -4.455078E+06  2.197224E+04 -1.749803E+05  5.304374E+04  2.947418E-09 -1.923396E-10
         1  13 -4.456351E+06 -4.934994E+05 -6.334022E+05 -3.148227E-09  2.082338E-09 -3.552755E-10
         1  14 -4.363786E+06  9.241603E+04 -2.735765E+05 -3.041314E-08 -4.122106E-11 -9.918425E-10
         1  15 -4.455081E+06  2.196692E+04 -1.749810E+05 -2.327199E-08 -9.985448E-10 -3.886385E-10
         1  16 -4.456336E+06 -4.934738E+05 -6.333986E+05  1.162778E+05  3.294009E-09 -4.573006E-10
         1  17 -4.363785E+06  9.241792E+04 -2.735762E+05  3.162355E+04 -2.174084E-09 -1.103137E-09
         1  18 -4.455078E+06  2.197224E+04 -1.749803E+05 -5.304374E+04 -8.335107E-10 -2.612864E-10
         1  19 -4.456136E+06 -4.934234E+05 -6.330466E+05 -1.162779E+05  4.312527E+05 -8.132398E+01
         1  20 -4.363698E+06  9.243959E+04 -2.734248E+05 -3.162355E+04  2.828274E+05 -1.450399E+01
         1  21 -4.455058E+06  2.197713E+04 -1.749461E+05  5.304374E+04  1.344062E+05  1.156302E+01
         1  22 -4.456150E+06 -4.934490E+05 -6.330502E+05 -3.050832E-08  4.312527E+05 -1.182976E-10
         1  23 -4.363700E+06  9.243770E+04 -2.734251E+05 -2.180937E-08  2.828274E+05 -4.982907E-11
         1  24 -4.455061E+06  2.197181E+04 -1.749468E+05  2.233687E-08  1.344062E+05  4.221496E-10
         1  25 -4.456136E+06 -4.934234E+05 -6.330466E+05  1.162779E+05  4.312527E+05  8.132398E+01
         1  26 -4.363698E+06  9.243959E+04 -2.734248E+05  3.162355E+04  2.828274E+05  1.450399E+01
         1  27 -4.455058E+06  2.197713E+04 -1.749461E+05 -5.304374E+04  1.344062E+05 -1.156302E+01
         2   1 -4.420203E+06 -6.254329E+04 -1.437613E+05 -1.371879E+04 -1.065057E+05  2.369634E+00
         2   2 -4.407246E+06  1.184271E+04 -7.094418E+04 -3.366945E+03 -6.980303E+04  3.811524E-01
         2   3 -4.420011E+06  2.731745E+03 -4.301758E+04  6.984877E+03 -3.309950E+04 -3.749538E-01
         2   4 -4.420203E+06 -6.254365E+04 -1.437613E+05  2.289495E-08 -1.065057E+05  4.052716E-10
         2   5 -4.407246E+06  1.184269E+04 -7.094418E+04  3.980267E-08 -6.980303E+04  1.564392E-09
         2   6 -4.420011E+06  2.731653E+03 -4.301759E+04  6.532407E-08 -3.309950E+04  8.227700E-10
         2   7 -4.420203E+06 -6.254329E+04 -1.437613E+05  1.371879E+04 -1.065057E+05 -2.369634E+00
         2   8 -4.407246E+06  1.184271E+04 -7.094418E+04  3.366945E+03 -6.980303E+04 -3.811524E-01
         2   9 -4.420011E+06  2.731745E+03 -4.301758E+04 -6.984877E+03 -3.309950E+04  3.749538E-01
         2  10 -4.420215E+06 -6.254637E+04 -1.437827E+05 -1.371879E+04  1.015883E-09 -8.700063E-10
         2  11 -4.407251E+06  1.184139E+04 -7.095340E+04 -3.366945E+03  2.076024E-09  8.253479E-10
         2  12 -4.420012E+06  2.731448E+03 -4.301965E+04  6.984877E+03  1.782695E-09  1.967706E-09
         2  13 -4.420215E+06 -6.254672E+04 -1.437828E+05 -4.595291E-08 -2.017002E-09 -5.393458E-11
         2  14 -4.407251E+06  1.184137E+04 -7.095340E+04  9.723035E-09  4.548411E-09  3.921238E-10
         2  15 -4.420012E+06  2.731356E+03 -4.301967E+04  5.463204E-08 -4.661979E-09  1.377950E-09
         2  16 -4.420215E+06 -6.254637E+04 -1.437827E+05  1.371879E+04 -6.407414E-09  1.909508E-10
         2  17 -4.407251E+06  1.184139E+04 -7.095340E+04  3.366945E+03 -4.999135E-09  4.000281E-10
         2  18 -4.420012E+06  2.731448E+03 -4.301965E+04 -6.984877E+03 -2.134537E-09  2.218632E-09
         2  19 -4.420203E+06 -6.254329E+04 -1.437613E+05 -1.371879E+04  1.065057E+05 -2.369634E+00
         2  20 -4.407246E+06  1.184271E+04 -7.094418E+04 -3.366945E+03  6.980303E+04 -3.811524E-01
         2  21 -4.420011E+06  2.731745E+03 -4.301758E+04  6.984877E+03  3.309950E+04  3.749538E-01
         2  22 -4.420203E+06 -6.254365E+04 -1.437613E+05 -3.732310E-08  1.065057E+05 -2.107832E-10
         2  23 -4.407246E+06  1.184269E+04 -7.094418E+04 -3.756460E-08  6.980303E+04 -7.251897E-10
         2  24 -4.420011E+06  2.731653E+03 -4.301759E+04  5.572813E-08  3.309950E+04  2.015067E-09
         2  25 -4.420203E+06 -6.254329E+04 -1.437613E+05  1.371879E+04  1.065057E+05  2.369634E+00
         2  26 -4.407246E+06  1.184271E+04 -7.094418E+04  3.366945E+03  6.980303E+04  3.811524E-01
         2  27 -4.420011E+06  2.731745E+03 -4.301758E+04 -6.984877E+03  3.309950E+04 -3.749538E-01
         3   1 -4.415182E+06 -7.852854E+03 -3.404380E+04 -1.470223E+03 -2.625132E+04  6.259339E-02
         3   2 -4.413237E+06  1.521031E+03 -1.817540E+04 -2.654206E+02 -1.707176E+04  7.348633E-03
         3   3 -4.415145E+06  3.205482E+02 -1.095833E+04  9.393574E+02 -7.892234E+03 -1.202336E-02
         3   4 -4.415182E+06 -7.852858E+03 -3.404380E+04 -7.553794E-09 -2.625132E+04  1.598658E-09
         3   5 -4.413237E+06  1.521031E+03 -1.817540E+04 -1.224194E-08 -1.707176E+04  1.510616E-09
         3   6 -4.415145E+06  3.205465E+02 -1.095833E+04  1.209670E-08 -7.892234E+03 -5.836724E-10
         3   7 -4.415182E+06 -7.852854E+03 -3.404380E+04  1.470223E+03 -2.625132E+04 -6.259339E-02
         3   8 -4.413237E+06  1.521031E+03 -1.817540E+04  2.654206E+02 -1.707176E+04 -7.348631E-03
         3   9 -4.415145E+06  3.205482E+02 -1.095833E+04 -9.393574E+02 -7.892234E+03  1.202336E-02
         3  10 -4.415182E+06 -7.853041E+03 -3.404510E+04 -1.470223E+03 -3.321751E-09  1.019557E-09
         3  11 -4.413238E+06  1.520952E+03 -1.817595E+04 -2.654206E+02 -8.743551E-10  7.456244E-11
         3  12 -4.415145E+06  3.205313E+02 -1.095844E+04  9.393574E+02 -1.587693E-09 -6.315947E-10
         3  13 -4.415182E+06 -7.853045E+03 -3.404510E+04  3.536072E-08  2.182697E-09  1.186992E-09
         3  14 -4.413238E+06  1.520952E+03 -1.817595E+04 -1.225868E-08 -3.292189E-09 -3.031566E-10
         3  15 -4.415145E+06  3.205297E+02 -1.095845E+04  6.746549E-09 -2.418852E-09 -4.197736E-10
         3  16 -4.415182E+06 -7.853041E+03 -3.404510E+04  1.470223E+03 -1.703063E-09  1.499744E-09
         3  17 -4.413238E+06  1.520952E+03 -1.817595E+04  2.654206E+02  1.954293E-10 -5.547743E-10
         3  18 -4.415145E+06  3.205313E+02 -1.095844E+04 -9.393574E+02  2.525427E-09 -1.081617E-09
         3  19 -4.415182E+06 -7.852854E+03 -3.404380E+04 -1.470223E+03  2.625132E+04 -6.259339E-02
         3  20 -4.413237E+06  1.521031E+03 -1.817540E+04 -2.654206E+02  1.707176E+04 -7.348631E-03
         3  21 -4.415145E+06  3.205482E+02 -1.095833E+04  9.393574E+02  7.892234E+03  1.202336E-02
         3  22 -4.415182E+06 -7.852858E+03 -3.404380E+04 -7.664828E-09  2.625132E+04  9.275077E-10
         3  23 -4.413237E+06  1.521031E+03 -1.817540E+04  3.502318E-08  1.707176E+04 -2.050462E-09
         3  24 -4.415145E+06  3.205465E+02 -1.095833E+04  2.073909E-08  7.892234E+03 -6.001002E-10
         3  25 -4.415182E+06 -7.852854E+03 -3.404380E+04  1.470223E+03  2.625132E+04  6.259339E-02
         3  26 -4.413237E+06  1.521031E+03 -1.817540E+04  2.654206E+02  1.707176E+04  7.348629E-03
         3  27 -4.415145E+06  3.205482E+02 -1.095833E+04 -9.393574E+02  7.892234E+03 -1.202337E-02
         4   1 -4.414450E+06 -9.646955E+02 -8.684673E+03 -1.319336E+02 -6.132395E+03  1.312141E-03
         4   2 -4.414091E+06  2.144840E+02 -5.365059E+03 -6.354669E-01 -3.457296E+03  3.562054E-06
         4   3 -4.414444E+06 -5.106418E+01 -4.157564E+03  1.306645E+02 -7.821501E+02 -1.657428E-04
         4   4 -4.414450E+06 -9.646956E+02 -8.684673E+03 -4.278544E-09 -6.132395E+03 -9.771653E-10
         4   5 -4.414091E+06  2.144840E+02 -5.365059E+03 -2.770866E-08 -3.457296E+03 -6.982296E-11
         4   6 -4.414444E+06 -5.106421E+01 -4.157564E+03 -1.457841E-08 -7.821501E+02  4.091415E-10
         4   7 -4.414450E+06 -9.646955E+02 -8.684673E+03  1.319336E+02 -6.132395E+03 -1.312143E-03
         4   8 -4.414091E+06  2.144840E+02 -5.365059E+03  6.354668E-01 -3.457296E+03 -3.564795E-06
         4   9 -4.414444E+06 -5.106418E+01 -4.157564E+03 -1.306645E+02 -7.821501E+02  1.657476E-04
         4  10 -4.414450E+06 -9.647057E+02 -8.684745E+03 -1.319336E+02 -1.590829E-09  2.441344E-10
         4  11 -4.414091E+06  2.144807E+02 -5.365082E+03 -6.354670E-01  1.407631E-10  3.969560E-10
         4  12 -4.414444E+06 -5.106435E+01 -4.157565E+03  1.306645E+02 -1.220148E-10  1.132586E-09
         4  13 -4.414450E+06 -9.647057E+02 -8.684745E+03 -1.290836E-08 -2.416732E-09 -1.338623E-10
         4  14 -4.414091E+06  2.144807E+02 -5.365082E+03  1.099971E-08 -3.025585E-09  2.752920E-10
         4  15 -4.414444E+06 -5.106438E+01 -4.157565E+03 -4.682593E-08  1.164945E-09  4.964470E-10
         4  16 -4.414450E+06 -9.647057E+02 -8.684745E+03  1.319336E+02  2.466312E-09 -2.410014E-10
         4  17 -4.414091E+06  2.144807E+02 -5.365082E+03  6.354670E-01  2.602240E-09  9.660668E-10
         4  18 -4.414444E+06 -5.106435E+01 -4.157565E+03 -1.306645E+02  2.944780E-09  9.542293E-11
         4  19 -4.414450E+06 -9.646955E+02 -8.684673E+03 -1.319336E+02  6.132395E+03 -1.312141E-03
         4  20 -4.414091E+06  2.144840E+02 -5.365059E+03 -6.354669E-01  3.457296E+03 -3.561319E-06
         4  21 -4.414444E+06 -5.106418E+01 -4.157564E+03  1.306645E+02  7.821501E+02  1.657475E-04
         4  22 -4.414450E+06 -9.646956E+02 -8.684673E+03  4.344975E-09  6.132395E+03  7.478022E-10
         4  23 -4.414091E+06  2.144840E+02 -5.365059E+03  6.701575E-09  3.457296E+03  7.256993E-10
         4  24 -4.414444E+06 -5.106421E+01 -4.157564E+03  2.840710E-08  7.821501E+02  4.643401E-10
         4  25 -4.414450E+06 -9.646955E+02 -8.684673E+03  1.319336E+02  6.132395E+03  1.312140E-03
         4  26 -4.414091E+06  2.144840E+02 -5.365059E+03  6.354669E-01  3.457296E+03  3.563514E-06
         4  27 -4.414444E+06 -5.106418E+01 -4.157564E+03 -1.306645E+02  7.821501E+02 -1.657466E-04
         5   1 -4.414418E+06 -8.563151E+01 -4.017942E+03 -9.981308E+01 -4.695406E+01  7.601164E-06
         5   2 -4.414122E+06  1.758108E+02 -4.596170E+03  5.079529E+00  2.243625E+03  1.848070E-05
         5   3 -4.414422E+06 -7.437026E+02 -6.968877E+03  1.099722E+02  4.534201E+03  8.086842E-04
         5   4 -4.414418E+06 -8.563153E+01 -4.017942E+03 -3.002071E-08 -4.695406E+01  1.858602E-10
         5   5 -4.414122E+06  1.758108E+02 -4.596170E+03  2.973334E-09  2.243625E+03 -7.542420E-10
         5   6 -4.414422E+06 -7.437026E+02 -6.968877E+03  5.855617E-08  4.534201E+03 -6.723542E-10
         5   7 -4.414418E+06 -8.563151E+01 -4.017942E+03  9.981308E+01 -4.695406E+01 -7.600406E-06
         5   8 -4.414122E+06  1.758108E+02 -4.596170E+03 -5.079530E+00  2.243625E+03 -1.848452E-05
         5   9 -4.414422E+06 -7.437026E+02 -6.968877E+03 -1.099722E+02  4.534201E+03 -8.086856E-04
         5  10 -4.414418E+06 -8.563151E+01 -4.017942E+03 -9.981308E+01 -8.722409E-10  2.621626E-10
         5  11 -4.414122E+06  1.758094E+02 -4.596180E+03  5.079529E+00  1.563871E-09 -1.486969E-09
         5  12 -4.414422E+06 -7.437081E+02 -6.968916E+03  1.099722E+02  2.830211E-09  2.813999E-10
         5  13 -4.414418E+06 -8.563153E+01 -4.017942E+03 -3.006892E-08  6.379439E-11 -8.019252E-11
         5  14 -4.414122E+06  1.758094E+02 -4.596180E+03  2.447239E-08  1.207555E-09 -5.542143E-10
         5  15 -4.414422E+06 -7.437082E+02 -6.968916E+03  4.460349E-08 -2.783875E-09  1.425680E-10
         5  16 -4.414418E+06 -8.563151E+01 -4.017942E+03  9.981308E+01 -2.788057E-09 -5.578911E-10
         5  17 -4.414122E+06  1.758094E+02 -4.596180E+03 -5.079529E+00 -9.764517E-10 -1.626848E-10
         5  18 -4.414422E+06 -7.437081E+02 -6.968916E+03 -1.099722E+02 -3.871964E-09  9.120981E-10
         5  19 -4.414418E+06 -8.563151E+01 -4.017942E+03 -9.981308E+01  4.695406E+01 -7.600719E-06
         5  20 -4.414122E+06  1.758108E+02 -4.596170E+03  5.079530E+00 -2.243625E+03 -1.848331E-05
         5  21 -4.414422E+06 -7.437026E+02 -6.968877E+03  1.099722E+02 -4.534201E+03 -8.086822E-04
         5  22 -4.414418E+06 -8.563153E+01 -4.017942E+03 -1.287010E-08  4.695406E+01 -3.846779E-10
         5  23 -4.414122E+06  1.758108E+02 -4.596170E+03  7.267279E-09 -2.243625E+03 -7.899804E-10
         5  24 -4.414422E+06 -7.437026E+02 -6.968877E+03  1.772704E-08 -4.534201E+03  7.489976E-10
         5  25 -4.414418E+06 -8.563151E+01 -4.017942E+03  9.981308E+01  4.695406E+01  7.599935E-06
         5  26 -4.414122E+06  1.758108E+02 -4.596170E+03 -5.079530E+00 -2.243625E+03  1.848155E-05
         5  27 -4.414422E+06 -7.437026E+02 -6.968877E+03 -1.099722E+02 -4.534201E+03  8.086833E-04
         6   1 -4.414951E+06  2.426085E+02 -8.662704E+03 -7.236752E+02  5.934795E+03 -6.965373E-03
         6   2 -4.413473E+06  1.176197E+03 -1.415128E+04  2.066320E+02  1.308081E+04  4.383555E-03
         6   3 -4.414979E+06 -6.065584E+03 -2.636073E+04  1.136929E+03  2.022666E+04  3.729512E-02
         6   4 -4.414951E+06  2.426075E+02 -8.662704E+03  7.282242E-08  5.934795E+03  6.353317E-10
         6   5 -4.413473E+06  1.176197E+03 -1.415128E+04  1.434830E-08  1.308081E+04  1.074803E-09
         6   6 -4.414979E+06 -6.065586E+03 -2.636073E+04  1.285214E-08  2.022666E+04 -3.643591E-10
         6   7 -4.414951E+06  2.426085E+02 -8.662704E+03  7.236752E+02  5.934795E+03  6.965374E-03
         6   8 -4.413473E+06  1.176197E+03 -1.415128E+04 -2.066320E+02  1.308081E+04 -4.383552E-03
         6   9 -4.414979E+06 -6.065584E+03 -2.636073E+04 -1.136929E+03  2.022666E+04 -3.729511E-02
         6  10 -4.414951E+06  2.425990E+02 -8.662770E+03 -7.236752E+02  2.268340E-09  8.925794E-10
         6  11 -4.413473E+06  1.176151E+03 -1.415160E+04  2.066320E+02  2.587874E-09  2.269742E-10
         6  12 -4.414979E+06 -6.065695E+03 -2.636150E+04  1.136929E+03 -9.673364E-10  7.232186E-10
         6  13 -4.414951E+06  2.425980E+02 -8.662770E+03  6.421776E-08 -2.347819E-09  3.701553E-10
         6  14 -4.413473E+06  1.176151E+03 -1.415160E+04  5.305055E-08 -2.549018E-09 -9.950531E-11
         6  15 -4.414979E+06 -6.065697E+03 -2.636150E+04  1.611506E-08  2.522533E-09  4.391300E-10
         6  16 -4.414951E+06  2.425990E+02 -8.662770E+03  7.236752E+02 -5.827093E-09  5.218675E-10
         6  17 -4.413473E+06  1.176151E+03 -1.415160E+04 -2.066320E+02 -1.911763E-09 -1.540460E-10
         6  18 -4.414979E+06 -6.065695E+03 -2.636150E+04 -1.136929E+03  3.163935E-09  1.605017E-10
         6  19 -4.414951E+06  2.426085E+02 -8.662704E+03 -7.236752E+02 -5.934795E+03  6.965375E-03
         6  20 -4.413473E+06  1.176197E+03 -1.415128E+04  2.066320E+02 -1.308081E+04 -4.383552E-03
         6  21 -4.414979E+06 -6.065584E+03 -2.636073E+04  1.136929E+03 -2.022666E+04 -3.729511E-02
         6  22 -4.414951E+06  2.426075E+02 -8.662704E+03  2.983893E-08 -5.934795E+03  5.501700E-11
         6  23 -4.413473E+06  1.176197E+03 -1.415128E+04  1.006273E-08 -1.308081E+04 -1.240147E-09
         6  24 -4.414979E+06 -6.065586E+03 -2.636073E+04  3.864731E-08 -2.022666E+04  1.181304E-09
         6  25 -4.414951E+06  2.426085E+02 -8.662704E+03  7.236752E+02 -5.934795E+03 -6.965375E-03
         6  26 -4.413473E+06  1.176197E+03 -1.415128E+04 -2.066320E+02 -1.308081E+04  4.383551E-03
         6  27 -4.414979E+06 -6.065584E+03 -2.636073E+04 -1.136929E+03 -2.022666E+04  3.729511E-02
         7   1 -4.418708E+06  2.109659E+03 -3.327695E+04 -5.394538E+03  2.552701E+04 -2.233321E-01
         7   2 -4.408847E+06  9.147508E+03 -5.482827E+04  2.601178E+03  5.389056E+04  2.273383E-01
         7   3 -4.418856E+06 -4.830997E+04 -1.110636E+05  1.059703E+04  8.225399E+04  1.413625E+00
         7   4 -4.418708E+06  2.109604E+03 -3.327696E+04  1.265966E-08  2.552701E+04 -1.429270E-09
         7   5 -4.408847E+06  9.147495E+03 -5.482827E+04  2.464641E-08  5.389056E+04 -1.140155E-09
         7   6 -4.418857E+06 -4.831019E+04 -1.110637E+05  5.702252E-08  8.225399E+04 -6.481762E-10
         7   7 -4.418708E+06  2.109659E+03 -3.327695E+04  5.394538E+03  2.552701E+04  2.233321E-01
         7   8 -4.408847E+06  9.147508E+03 -5.482827E+04 -2.601178E+03  5.389056E+04 -2.273383E-01
         7   9 -4.418856E+06 -4.830997E+04 -1.110636E+05 -1.059703E+04  8.225399E+04 -1.413625E+00
         7  10 -4.418708E+06  2.109483E+03 -3.327818E+04 -5.394538E+03 -5.568287E-10  7.485403E-11
         7  11 -4.408850E+06  9.146721E+03 -5.483376E+04  2.601178E+03  1.502380E-09 -1.599456E-09
         7  12 -4.418864E+06 -4.831181E+04 -1.110764E+05  1.059703E+04  3.568420E-09 -5.861744E-11
         7  13 -4.418708E+06  2.109428E+03 -3.327819E+04 -2.182638E-08 -4.036326E-09  1.214587E-10
         7  14 -4.408850E+06  9.146708E+03 -5.483376E+04  3.323879E-08 -1.273959E-09 -7.109773E-10
         7  15 -4.418864E+06 -4.831202E+04 -1.110765E+05  1.090610E-08  9.878501E-10 -1.187837E-10
         7  16 -4.418708E+06  2.109483E+03 -3.327818E+04  5.394538E+03  1.615083E-09 -3.656173E-10
         7  17 -4.408850E+06  9.146721E+03 -5.483376E+04 -2.601178E+03  7.000454E-11 -3.426972E-10
         7  18 -4.418864E+06 -4.831181E+04 -1.110764E+05 -1.059703E+04 -4.884513E-10 -1.743740E-10
         7  19 -4.418708E+06  2.109659E+03 -3.327695E+04 -5.394538E+03 -2.552701E+04  2.233321E-01
         7  20 -4.408847E+06  9.147508E+03 -5.482827E+04  2.601178E+03 -5.389056E+04 -2.273383E-01
         7  21 -4.418856E+06 -4.830997E+04 -1.110636E+05  1.059703E+04 -8.225399E+04 -1.413625E+00
         7  22 -4.418708E+06  2.109604E+03 -3.327696E+04  2.108415E-08 -2.552701E+04  1.467053E-09
         7  23 -4.408847E+06  9.147495E+03 -5.482827E+04  4.183324E-08 -5.389056E+04 -6.963451E-10
         7  24 -4.418857E+06 -4.831019E+04 -1.110637E+05  1.421091E-08 -8.225399E+04  2.709937E-10
         7  25 -4.418708E+06  2.109659E+03 -3.327695E+04  5.394538E+03 -2.552701E+04 -2.233321E-01
         7  26 -4.408847E+06  9.147508E+03 -5.482827E+04 -2.601178E+03 -5.389056E+04  2.273383E-01
         7  27 -4.418856E+06 -4.830997E+04 -1.110636E+05 -1.059703E+04 -8.225399E+04  1.413625E+00
         8   1 -4.445781E+06  1.697343E+04 -1.351514E+05 -4.097103E+04  1.038106E+05 -6.898126E+00
         8   2 -4.375216E+06  7.140011E+04 -2.112373E+05  2.442509E+04  2.184525E+05  8.652816E+00
         8   3 -4.446626E+06 -3.811355E+05 -4.890499E+05  8.981419E+04  3.330982E+05  4.851860E+01
         8   4 -4.445783E+06  1.697025E+04 -1.351519E+05  3.563572E-08  1.038106E+05  3.151281E-10
         8   5 -4.375217E+06  7.139898E+04 -2.112375E+05 -2.861199E-08  2.184525E+05  1.975750E-09
         8   6 -4.446635E+06 -3.811507E+05 -4.890521E+05  1.252315E-08  3.330982E+05  5.043789E-10
         8   7 -4.445781E+06  1.697343E+04 -1.351514E+05  4.097103E+04  1.038106E+05  6.898126E+00
         8   8 -4.375216E+06  7.140011E+04 -2.112373E+05 -2.442509E+04  2.184525E+05 -8.652816E+00
         8   9 -4.446626E+06 -3.811355E+05 -4.890499E+05 -8.981419E+04  3.330982E+05 -4.851860E+01
         8  10 -4.445793E+06  1.697051E+04 -1.351718E+05 -4.097103E+04  1.732775E-09  2.183321E-10
         8  11 -4.375268E+06  7.138718E+04 -2.113277E+05  2.442508E+04 -3.418482E-09  4.352521E-11
         8  12 -4.446746E+06 -3.811655E+05 -4.892599E+05  8.981418E+04 -1.809722E-11  6.668397E-11
         8  13 -4.445794E+06  1.696733E+04 -1.351723E+05  3.559168E-08  2.011962E-10  2.414939E-10
         8  14 -4.375268E+06  7.138605E+04 -2.113278E+05 -1.141082E-08 -1.953170E-09  1.245954E-10
         8  15 -4.446755E+06 -3.811808E+05 -4.892621E+05 -1.539773E-08 -9.893528E-10 -2.174531E-11
         8  16 -4.445793E+06  1.697051E+04 -1.351718E+05  4.097103E+04  2.586540E-10 -4.020072E-10
         8  17 -4.375268E+06  7.138718E+04 -2.113277E+05 -2.442508E+04 -3.957199E-10 -5.192321E-10
         8  18 -4.446746E+06 -3.811655E+05 -4.892599E+05 -8.981418E+04  3.043645E-09 -2.099741E-10
         8  19 -4.445781E+06  1.697343E+04 -1.351514E+05 -4.097103E+04 -1.038106E+05  6.898126E+00
         8  20 -4.375216E+06  7.140011E+04 -2.112373E+05  2.442509E+04 -2.184525E+05 -8.652816E+00
         8  21 -4.446626E+06 -3.811355E+05 -4.890499E+05  8.981419E+04 -3.330982E+05 -4.851860E+01
         8  22 -4.445783E+06  1.697025E+04 -1.351519E+05  1.194295E-09 -1.038106E+05 -2.504368E-11
         8  23 -4.375217E+06  7.139898E+04 -2.112375E+05  5.788924E-09 -2.184525E+05 -1.866625E-09
         8  24 -4.446635E+06 -3.811507E+05 -4.890521E+05  4.801657E-08 -3.330982E+05 -5.676250E-10
         8  25 -4.445781E+06  1.697343E+04 -1.351514E+05  4.097103E+04 -1.038106E+05 -6.898126E+00
         8  26 -4.375216E+06  7.140011E+04 -2.112373E+05 -2.442509E+04 -2.184525E+05  8.652816E+00
         8  27 -4.446626E+06 -3.811355E+05 -4.890499E+05 -8.981419E+04 -3.330982E+05  4.851860E+01
         9   1  2.233496E+06  7.895743E+06  2.137006E+06 -1.442737E+06  1.016112E+05  8.104896E+05
         9   2  1.760930E+06  6.745065E+06  1.444328E+06 -1.286790E+06  3.393336E+05  3.801640E+05
         9   3  1.446424E+06  5.693508E+06  1.069909E+06 -1.323368E+06  3.926128E+05 -4.915303E+04
         9   4  1.804076E+05 -4.623374E+05  1.938195E+05 -1.306116E+06  1.035344E+05  1.325765E+05
         9   5  5.248163E+04 -4.762770E+05  9.814111E+04 -1.210179E+06  3.407324E+05  8.353631E+04
         9   6  1.783151E+04 -4.572444E+05  5.828692E+04 -1.306705E+06  3.925814E+05  3.462913E+04
         9   7 -1.877292E+06 -8.755442E+06 -1.752365E+06 -1.171230E+06  1.051825E+05 -5.363687E+05
         9   8 -1.658900E+06 -7.647293E+06 -1.249950E+06 -1.134388E+06  3.420705E+05 -2.097601E+05
         9   9 -1.412699E+06 -6.570763E+06 -9.544192E+05 -1.290136E+06  3.925543E+05  1.176140E+05
         9  10  2.233311E+06  7.895042E+06  2.135766E+06 -1.442803E+06 -2.067472E-09 -5.517614E-09
         9  11  1.760767E+06  6.744880E+06  1.443842E+06 -1.286894E+06 -5.288729E-09 -3.760885E-08
         9  12  1.446258E+06  5.693464E+06  1.069615E+06 -1.323352E+06 -6.663348E-09 -6.617826E-08
         9  13  1.803914E+05 -4.623592E+05  1.937661E+05 -1.306127E+06  7.338014E-11  5.042325E-11
         9  14  5.235504E+04 -4.763157E+05  9.790962E+04 -1.210202E+06  4.650554E-09  3.047507E-11
         9  15  1.766569E+04 -4.572871E+05  5.799498E+04 -1.306716E+06  1.068209E-08 -1.321292E-10
         9  16 -1.877383E+06 -8.755757E+06 -1.752933E+06 -1.171184E+06  1.146903E-09  5.409297E-09
         9  17 -1.659037E+06 -7.647371E+06 -1.250253E+06 -1.134330E+06 -2.966899E-09  3.713718E-08
         9  18 -1.412868E+06 -6.570819E+06 -9.547354E+05 -1.290174E+06 -4.723512E-09  6.540523E-08
         9  19  2.233496E+06  7.895743E+06  2.137006E+06 -1.442737E+06 -1.016112E+05 -8.104896E+05
         9  20  1.760930E+06  6.745065E+06  1.444328E+06 -1.286790E+06 -3.393336E+05 -3.801640E+05
         9  21  1.446424E+06  5.693508E+06  1.069909E+06 -1.323368E+06 -3.926128E+05  4.915303E+04
         9  22  1.804076E+05 -4.623374E+05  1.938195E+05 -1.306116E+06 -1.035344E+05 -1.325765E+05
         9  23  5.248163E+04 -4.762770E+05  9.814111E+04 -1.210179E+06 -3.407324E+05 -8.353631E+04
         9  24  1.783151E+04 -4.572444E+05  5.828692E+04 -1.306705E+06 -3.925814E+05 -3.462913E+04
         9  25 -1.877292E+06 -8.755442E+06 -1.752365E+06 -1.171230E+06 -1.051825E+05  5.363687E+05
         9  26 -1.658900E+06 -7.647293E+06 -1.249950E+06 -1.134388E+06 -3.420705E+05  2.097601E+05
         9  27 -1.412699E+06 -6.570763E+06 -9.544192E+05 -1.290136E+06 -3.925543E+05 -1.176140E+05
        10   1  1.279111E+06  4.983063E+06  9.238452E+05 -1.334458E+06  3.623521E+05 -5.434160E+04
        10   2  1.012387E+06  3.876236E+06  7.036646E+05 -1.223694E+06  3.127561E+05 -1.154283E+05
        10   3  7.661184E+05  2.783376E+06  5.280911E+05 -1.318463E+06  2.421366E+05 -1.766518E+05
        10   4  1.766213E+04 -4.618854E+05  4.723961E+04 -1.309610E+06  3.622312E+05  2.642282E+04
        10   5  1.267617E+04 -4.629656E+05  3.561460E+04 -1.206810E+06  3.122547E+05  8.564791E+03
        10   6  2.078066E+04 -4.586939E+05  3.876936E+04 -1.309624E+06  2.411790E+05 -9.532142E+03
        10   7 -1.245276E+06 -5.877529E+06 -8.301447E+05 -1.284924E+06  3.621159E+05  1.065076E+05
        10   8 -9.879379E+05 -4.783380E+06 -6.328003E+05 -1.190006E+06  3.117576E+05  1.317284E+05
        10   9 -7.250423E+05 -3.690191E+06 -4.506619E+05 -1.300807E+06  2.402226E+05  1.567523E+05
        10  10  1.278969E+06  4.983025E+06  9.235932E+05 -1.334442E+06 -4.118205E-09  3.311737E-09
        10  11  1.012279E+06  3.876196E+06  7.034562E+05 -1.223665E+06 -6.715992E-10 -2.441324E-08
        10  12  7.660473E+05  2.783327E+06  5.279230E+05 -1.318429E+06  5.530017E-10 -5.054079E-08
        10  13  1.752105E+04 -4.619214E+05  4.699169E+04 -1.309618E+06  1.352660E-08 -9.689269E-11
        10  14  1.257147E+04 -4.629919E+05  3.543126E+04 -1.206812E+06  2.245750E-08 -1.023450E-10
        10  15  2.071820E+04 -4.587096E+05  3.865993E+04 -1.309623E+06  1.731799E-08 -1.978654E-10
        10  16 -1.245420E+06 -5.877576E+06 -8.304129E+05 -1.284955E+06 -7.219741E-09 -3.599521E-09
        10  17 -9.880470E+05 -4.783425E+06 -6.330161E+05 -1.190039E+06 -5.771178E-10  2.402240E-08
        10  18 -7.251110E+05 -3.690233E+06 -4.508172E+05 -1.300838E+06 -5.215123E-09  4.998684E-08
        10  19  1.279111E+06  4.983063E+06  9.238452E+05 -1.334458E+06 -3.623521E+05  5.434160E+04
        10  20  1.012387E+06  3.876236E+06  7.036646E+05 -1.223694E+06 -3.127561E+05  1.154283E+05
        10  21  7.661184E+05  2.783376E+06  5.280911E+05 -1.318463E+06 -2.421366E+05  1.766518E+05
        10  22  1.766213E+04 -4.618854E+05  4.723961E+04 -1.309610E+06 -3.622312E+05 -2.642282E+04
        10  23  1.267617E+04 -4.629656E+05  3.561460E+04 -1.206810E+06 -3.122547E+05 -8.564791E+03
        10  24  2.078066E+04 -4.586939E+05  3.876936E+04 -1.309624E+06 -2.411790E+05  9.532142E+03
        10  25 -1.245276E+06 -5.877529E+06 -8.301447E+05 -1.284924E+06 -3.621159E+05 -1.065076E+05
        10  26 -9.879379E+05 -4.783380E+06 -6.328003E+05 -1.190006E+06 -3.117576E+05 -1.317284E+05
        10  27 -7.250423E+05 -3.690191E+06 -4.506619E+05 -1.300807E+06 -2.402226E+05 -1.567523E+05
        11   1  6.086991E+05  2.092694E+06  4.248914E+05 -1.322000E+06  1.939392E+05 -1.829258E+05
        11   2  3.823947E+05  9.848853E+05  2.857917E+05 -1.172174E+06  1.115766E+05 -2.235907E+05
        11   3  2.190216E+05 -1.026698E+05  1.882855E+05 -1.229377E+06  2.699886E+04 -2.642755E+05
        11   4  2.351703E+04 -4.550847E+05  4.448391E+04 -1.309979E+06  1.928948E+05 -1.621199E+04
        11   5  5.024128E+04 -4.636293E+05  6.998301E+04 -1.206170E+06  1.104415E+05 -5.244288E+04
        11   6  1.392022E+05 -4.539814E+05  1.339254E+05 -1.309336E+06  2.577636E+04 -8.875527E+04
        11   7 -5.619561E+05 -2.996296E+06 -3.359444E+05 -1.297994E+06  1.918539E+05  1.498470E+05
        11   8 -2.819899E+05 -1.909971E+06 -1.457547E+05 -1.240078E+06  1.092858E+05  1.183222E+05
        11   9  5.941787E+04 -8.050892E+05  7.968193E+04 -1.389248E+06  2.450815E+04  8.666938E+04
        11  10  6.086499E+05  2.092648E+06  4.247584E+05 -1.321971E+06 -4.212714E-09  5.297469E-08
        11  11  3.823680E+05  9.848284E+05  2.856747E+05 -1.172154E+06 -7.382353E-10  5.836505E-08
        11  12  2.190021E+05 -1.027450E+05  1.881529E+05 -1.229372E+06 -3.591721E-09  5.565354E-08
        11  13  2.347703E+04 -4.550949E+05  4.441355E+04 -1.309977E+06  1.637137E-08 -1.519498E-10
        11  14  5.022747E+04 -4.636355E+05  6.995498E+04 -1.206165E+06  1.119436E-08 -2.403276E-10
        11  15  1.391994E+05 -4.539900E+05  1.339094E+05 -1.309334E+06  1.297970E-09 -8.199310E-12
        11  16 -5.620018E+05 -2.996331E+06 -3.360562E+05 -1.298017E+06 -1.799056E-09 -5.335700E-08
        11  17 -2.820065E+05 -1.909989E+06 -1.458036E+05 -1.240088E+06  5.690560E-10 -5.893150E-08
        11  18  5.941519E+04 -8.050974E+05  7.966665E+04 -1.389250E+06  8.642891E-10 -5.535657E-08
        11  19  6.086991E+05  2.092694E+06  4.248914E+05 -1.322000E+06 -1.939392E+05  1.829258E+05
        11  20  3.823947E+05  9.848853E+05  2.857917E+05 -1.172174E+06 -1.115766E+05  2.235907E+05
        11  21  2.190216E+05 -1.026698E+05  1.882855E+05 -1.229377E+06 -2.699886E+04  2.642755E+05
        11  22  2.351703E+04 -4.550847E+05  4.448391E+04 -1.309979E+06 -1.928948E+05  1.621199E+04
        11  23  5.024128E+04 -4.636293E+05  6.998301E+04 -1.206170E+06 -1.104415E+05  5.244288E+04
        11  24  1.392022E+05 -4.539814E+05  1.339254E+05 -1.309336E+06 -2.577636E+04  8.875527E+04
        11  25 -5.619561E+05 -2.996296E+06 -3.359444E+05 -1.297994E+06 -1.918539E+05 -1.498470E+05
        11  26 -2.819899E+05 -1.909971E+06 -1.457547E+05 -1.240078E+06 -1.092858E+05 -1.183222E+05
        11  27  5.941787E+04 -8.050892E+05  7.968193E+04 -1.389248E+06 -2.450815E+04 -8.666938E+04
        12   1 -5.177852E+06 -1.514727E+06 -9.486702E+05 -1.823457E+06 -5.355025E+05 -1.968444E+05
        12   2 -5.014533E+06 -7.061748E+05 -4.406128E+05 -1.928440E+06 -3.449186E+05 -1.185976E+05
        12   3 -5.145027E+06 -7.397295E+05 -2.979201E+05 -1.864649E+06 -1.512283E+05 -4.860860E+04
        12   4 -4.878696E+06 -1.269740E+06 -8.400377E+05 -1.606803E+06 -5.322735E+05 -1.957783E+05
        12   5 -4.689081E+06 -5.479476E+05 -3.455981E+05 -1.803671E+06 -3.443946E+05 -1.184265E+05
        12   6 -4.792569E+06 -6.674988E+05 -2.142220E+05 -1.831825E+06 -1.534004E+05 -4.940282E+04
        12   7 -4.579409E+06 -1.024602E+06 -7.314085E+05 -1.390022E+06 -5.290428E+05 -1.947098E+05
        12   8 -4.363522E+06 -3.896918E+05 -2.505937E+05 -1.678837E+06 -3.438701E+05 -1.182553E+05
        12   9 -4.439983E+06 -5.952707E+05 -1.305299E+05 -1.798994E+06 -1.555740E+05 -5.019702E+04
        12  10 -5.178172E+06 -1.514846E+06 -9.492877E+05 -1.823543E+06  2.533024E-09 -1.107148E-10
        12  11 -5.014665E+06 -7.062223E+05 -4.408652E+05 -1.928473E+06 -4.841338E-10 -2.352195E-10
        12  12 -5.145052E+06 -7.397383E+05 -2.979680E+05 -1.864655E+06  4.362931E-09  5.120535E-10
        12  13 -4.879013E+06 -1.269858E+06 -8.406475E+05 -1.606888E+06  2.232489E-09 -1.844529E-12
        12  14 -4.689213E+06 -5.479950E+05 -3.458495E+05 -1.803705E+06 -3.639398E-09  1.851082E-11
        12  15 -4.792595E+06 -6.675078E+05 -2.142712E+05 -1.831831E+06 -1.503695E-09  8.162490E-10
        12  16 -4.579721E+06 -1.024719E+06 -7.320106E+05 -1.390105E+06 -4.859915E-09 -6.631259E-10
        12  17 -4.363654E+06 -3.897390E+05 -2.508442E+05 -1.678869E+06 -3.700749E-10 -1.663874E-09
        12  18 -4.440010E+06 -5.952800E+05 -1.305805E+05 -1.799000E+06 -3.543303E-09 -1.681552E-09
        12  19 -5.177852E+06 -1.514727E+06 -9.486702E+05 -1.823457E+06  5.355025E+05  1.968444E+05
        12  20 -5.014533E+06 -7.061748E+05 -4.406128E+05 -1.928440E+06  3.449186E+05  1.185976E+05
        12  21 -5.145027E+06 -7.397295E+05 -2.979201E+05 -1.864649E+06  1.512283E+05  4.860860E+04
        12  22 -4.878696E+06 -1.269740E+06 -8.400377E+05 -1.606803E+06  5.322735E+05  1.957783E+05
        12  23 -4.689081E+06 -5.479476E+05 -3.455981E+05 -1.803671E+06  3.443946E+05  1.184265E+05
        12  24 -4.792569E+06 -6.674988E+05 -2.142220E+05 -1.831825E+06  1.534004E+05  4.940282E+04
        12  25 -4.579409E+06 -1.024602E+06 -7.314085E+05 -1.390022E+06  5.290428E+05  1.947098E+05
        12  26 -4.363522E+06 -3.896918E+05 -2.505937E+05 -1.678837E+06  3.438701E+05  1.182553E+05
        12  27 -4.439983E+06 -5.952707E+05 -1.305299E+05 -1.798994E+06  1.555740E+05  5.019702E+04
        13   1 -4.945945E+06 -8.484542E+05 -2.282519E+05 -1.847193E+06 -1.208828E+05 -3.989380E+04
        13   2 -4.894768E+06 -7.060621E+05 -1.195234E+05 -1.825468E+06 -7.730470E+04 -2.494359E+04
        13   3 -4.845555E+06 -7.123738E+05 -7.185944E+04 -1.827149E+06 -3.334209E+04 -1.100783E+04
        13   4 -4.763272E+06 -7.634618E+05 -1.755642E+05 -1.781104E+06 -1.211293E+05 -3.999000E+04
        13   5 -4.756727E+06 -6.500266E+05 -8.134690E+04 -1.783967E+06 -7.787919E+04 -2.515897E+04
        13   6 -4.752070E+06 -6.852131E+05 -4.791643E+04 -1.810241E+06 -3.424810E+04 -1.134571E+04
        13   7 -4.580565E+06 -6.784621E+05 -1.228798E+05 -1.714994E+06 -1.213758E+05 -4.008625E+04
        13   8 -4.618668E+06 -5.939893E+05 -4.317227E+04 -1.742458E+06 -7.845382E+04 -2.537442E+04
        13   9 -4.658578E+06 -6.580526E+05 -2.397417E+04 -1.793330E+06 -3.515425E+04 -1.168361E+04
        13  10 -4.945962E+06 -8.484599E+05 -2.282827E+05 -1.847197E+06 -5.153677E-10 -1.862321E-10
        13  11 -4.894775E+06 -7.060644E+05 -1.195359E+05 -1.825469E+06 -6.765874E-09  1.982147E-10
        13  12 -4.845556E+06 -7.123742E+05 -7.186178E+04 -1.827149E+06  9.773153E-10 -1.111061E-09
        13  13 -4.763288E+06 -7.634676E+05 -1.755951E+05 -1.781107E+06 -1.987115E-09  1.805987E-09
        13  14 -4.756734E+06 -6.500289E+05 -8.135960E+04 -1.783969E+06 -2.410385E-09  2.168758E-09
        13  15 -4.752072E+06 -6.852135E+05 -4.791890E+04 -1.810241E+06 -1.624609E-09 -2.319653E-10
        13  16 -4.580581E+06 -6.784679E+05 -1.229108E+05 -1.714998E+06  1.729741E-09 -1.089636E-09
        13  17 -4.618675E+06 -5.939917E+05 -4.318516E+04 -1.742460E+06  3.156178E-09  7.831200E-10
        13  18 -4.658579E+06 -6.580531E+05 -2.397677E+04 -1.793331E+06  2.264014E-09  1.161851E-09
        13  19 -4.945945E+06 -8.484542E+05 -2.282519E+05 -1.847193E+06  1.208828E+05  3.989380E+04
        13  20 -4.894768E+06 -7.060621E+05 -1.195234E+05 -1.825468E+06  7.730470E+04  2.494359E+04
        13  21 -4.845555E+06 -7.123738E+05 -7.185944E+04 -1.827149E+06  3.334209E+04  1.100783E+04
        13  22 -4.763272E+06 -7.634618E+05 -1.755642E+05 -1.781104E+06  1.211293E+05  3.999000E+04
        13  23 -4.756727E+06 -6.500266E+05 -8.134690E+04 -1.783967E+06  7.787919E+04  2.515897E+04
        13  24 -4.752070E+06 -6.852131E+05 -4.791643E+04 -1.810241E+06  3.424810E+04  1.134571E+04
        13  25 -4.580565E+06 -6.784621E+05 -1.228798E+05 -1.714994E+06  1.213758E+05  4.008625E+04
        13  26 -4.618668E+06 -5.939893E+05 -4.317227E+04 -1.742458E+06  7.845382E+04  2.537442E+04
        13  27 -4.658578E+06 -6.580526E+05 -2.397417E+04 -1.793330E+06  3.515425E+04  1.168361E+04
        14   1 -4.706981E+06 -6.838375E+05 -2.696508E+04 -1.794350E+06 -2.602812E+04 -9.905534E+03
        14   2 -4.671764E+06 -6.284394E+05  6.433826E+03 -1.756568E+06 -1.549834E+04 -8.337226E+03
        14   3 -4.599009E+06 -6.307673E+05  2.879984E+04 -1.766140E+06 -4.968303E+03 -6.765002E+03
        14   4 -4.747880E+06 -6.974141E+05 -3.787407E+04 -1.803473E+06 -2.672146E+04 -1.016460E+04
        14   5 -4.765926E+06 -6.635429E+05 -1.900706E+04 -1.781655E+06 -1.619105E+04 -8.596093E+03
        14   6 -4.746435E+06 -6.873991E+05 -1.117274E+04 -1.807193E+06 -5.661303E+03 -7.024065E+03
        14   7 -4.788778E+06 -7.109908E+05 -4.878325E+04 -1.812595E+06 -2.741475E+04 -1.042365E+04
        14   8 -4.860080E+06 -6.986460E+05 -4.444882E+04 -1.806739E+06 -1.688364E+04 -8.854918E+03
        14   9 -4.893841E+06 -7.440295E+05 -5.114738E+04 -1.848237E+06 -6.354123E+03 -7.283058E+03
        14  10 -4.706982E+06 -6.838378E+05 -2.696655E+04 -1.794350E+06 -1.473676E-09 -9.374298E-10
        14  11 -4.671764E+06 -6.284396E+05  6.433239E+03 -1.756568E+06 -1.902311E-09 -2.308094E-10
        14  12 -4.599009E+06 -6.307674E+05  2.879971E+04 -1.766140E+06 -3.030498E-10  1.470416E-10
        14  13 -4.747881E+06 -6.974144E+05 -3.787562E+04 -1.803473E+06 -2.080714E-09 -5.379280E-10
        14  14 -4.765927E+06 -6.635430E+05 -1.900770E+04 -1.781655E+06 -3.268479E-09 -2.773033E-11
        14  15 -4.746435E+06 -6.873992E+05 -1.117289E+04 -1.807193E+06  7.562231E-09 -9.052996E-10
        14  16 -4.788779E+06 -7.109912E+05 -4.878488E+04 -1.812595E+06  1.211675E-09 -5.128331E-10
        14  17 -4.860080E+06 -6.986462E+05 -4.444951E+04 -1.806739E+06  2.713070E-09 -1.173528E-09
        14  18 -4.893841E+06 -7.440296E+05 -5.114755E+04 -1.848237E+06 -9.372695E-10 -9.325988E-10
        14  19 -4.706981E+06 -6.838375E+05 -2.696508E+04 -1.794350E+06  2.602812E+04  9.905534E+03
        14  20 -4.671764E+06 -6.284394E+05  6.433826E+03 -1.756568E+06  1.549834E+04  8.337226E+03
        14  21 -4.599009E+06 -6.307673E+05  2.879984E+04 -1.766140E+06  4.968303E+03  6.765002E+03
        14  22 -4.747880E+06 -6.974141E+05 -3.787407E+04 -1.803473E+06  2.672146E+04  1.016460E+04
        14  23 -4.765926E+06 -6.635429E+05 -1.900706E+04 -1.781655E+06  1.619105E+04  8.596093E+03
        14  24 -4.746435E+06 -6.873991E+05 -1.117274E+04 -1.807193E+06  5.661303E+03  7.024065E+03
        14  25 -4.788778E+06 -7.109908E+05 -4.878325E+04 -1.812595E+06  2.741475E+04  1.042365E+04
        14  26 -4.860080E+06 -6.986460E+05 -4.444882E+04 -1.806739E+06  1.688364E+04  8.854918E+03
        14  27 -4.893841E+06 -7.440295E+05 -5.114738E+04 -1.848237E+06  6.354123E+03  7.283058E+03
        15   1 -4.480775E+06 -5.870644E+05  6.352455E+04 -1.732627E+06 -2.865276E+03 -7.372944E+03
        15   2 -4.453096E+06 -5.494467E+05  7.923998E+04 -1.698983E+06  4.764602E+02 -8.330075E+03
        15   3 -4.389026E+06 -5.510265E+05  9.251773E+04 -1.707595E+06  3.707121E+03 -8.984272E+03
        15   4 -4.747283E+06 -6.873475E+05 -8.851616E+03 -1.804552E+06 -3.562369E+03 -7.633762E+03
        15   5 -4.765393E+06 -6.672327E+05 -5.387407E+03 -1.783610E+06 -1.204470E+02 -8.553775E+03
        15   6 -4.747135E+06 -6.863374E+05 -4.441373E+03 -1.804927E+06  3.210167E+03 -9.170853E+03
        15   7 -5.013722E+06 -7.876263E+05 -8.123391E+04 -1.876449E+06 -4.259129E+03 -7.894456E+03
        15   8 -5.077596E+06 -7.850130E+05 -9.002345E+04 -1.868199E+06 -7.170205E+02 -8.777350E+03
        15   9 -5.105120E+06 -8.216410E+05 -1.014121E+05 -1.902208E+06  2.713529E+03 -9.357315E+03
        15  10 -4.480775E+06 -5.870644E+05  6.352443E+04 -1.732627E+06 -1.130007E-09 -9.842571E-10
        15  11 -4.453096E+06 -5.494467E+05  7.923985E+04 -1.698983E+06 -7.497676E-10 -2.751445E-10
        15  12 -4.389026E+06 -5.510266E+05  9.251755E+04 -1.707595E+06  4.208132E-09 -2.874361E-10
        15  13 -4.747283E+06 -6.873475E+05 -8.851749E+03 -1.804552E+06  4.153673E-09 -3.832368E-10
        15  14 -4.765393E+06 -6.672327E+05 -5.387544E+03 -1.783610E+06  2.719485E-09  1.191857E-09
        15  15 -4.747135E+06 -6.863375E+05 -4.441550E+03 -1.804927E+06 -1.140795E-09  2.900135E-10
        15  16 -5.013722E+06 -7.876263E+05 -8.123406E+04 -1.876449E+06 -1.492405E-09  3.226360E-12
        15  17 -5.077596E+06 -7.850131E+05 -9.002360E+04 -1.868199E+06  2.714862E-09  1.878956E-09
        15  18 -5.105120E+06 -8.216411E+05 -1.014123E+05 -1.902208E+06  2.376278E-10 -5.491405E-10
        15  19 -4.480775E+06 -5.870644E+05  6.352455E+04 -1.732627E+06  2.865276E+03  7.372944E+03
        15  20 -4.453096E+06 -5.494467E+05  7.923998E+04 -1.698983E+06 -4.764602E+02  8.330075E+03
        15  21 -4.389026E+06 -5.510265E+05  9.251773E+04 -1.707595E+06 -3.707121E+03  8.984272E+03
        15  22 -4.747283E+06 -6.873475E+05 -8.851616E+03 -1.804552E+06  3.562369E+03  7.633762E+03
        15  23 -4.765393E+06 -6.672327E+05 -5.387407E+03 -1.783610E+06  1.204470E+02  8.553775E+03
        15  24 -4.747135E+06 -6.863374E+05 -4.441373E+03 -1.804927E+06 -3.210167E+03  9.170853E+03
        15  25 -5.013722E+06 -7.876263E+05 -8.123391E+04 -1.876449E+06  4.259129E+03  7.894456E+03
        15  26 -5.077596E+06 -7.850130E+05 -9.002345E+04 -1.868199E+06  7.170205E+02  8.777350E+03
        15  27 -5.105120E+06 -8.216410E+05 -1.014121E+05 -1.902208E+06 -2.713529E+03  9.357315E+03
        16   1 -4.302404E+06 -5.145119E+05  1.169707E+05 -1.680294E+06  4.831016E+03 -9.607231E+03
        16   2 -4.284815E+06 -4.905706E+05  1.235545E+05 -1.658118E+06  8.107832E+03 -9.968325E+03
        16   3 -4.243613E+06 -4.928300E+05  1.276498E+05 -1.662936E+06  1.120459E+04 -9.844078E+03
        16   4 -4.749986E+06 -6.833509E+05 -4.477258E+03 -1.801583E+06  4.282711E+03 -9.813358E+03
        16   5 -4.761875E+06 -6.709090E+05 -5.789619E+03 -1.787834E+06  7.719908E+03 -1.011468E+04
        16   6 -4.750185E+06 -6.847023E+05 -9.719780E+03 -1.801079E+06  1.097684E+04 -9.930531E+03
        16   7 -5.197373E+06 -8.521781E+05 -1.259430E+05 -1.922793E+06  3.734844E+03 -1.001932E+04
        16   8 -5.238715E+06 -8.512342E+05 -1.351542E+05 -1.917459E+06  7.332313E+03 -1.026091E+04
        16   9 -5.256509E+06 -8.765597E+05 -1.471128E+05 -1.939120E+06  1.074929E+04 -1.001691E+04
        16  10 -4.302404E+06 -5.145120E+05  1.169704E+05 -1.680294E+06  1.945780E-09 -6.543620E-10
        16  11 -4.284815E+06 -4.905708E+05  1.235542E+05 -1.658118E+06 -1.117298E-09  3.583022E-10
        16  12 -4.243613E+06 -4.928301E+05  1.276494E+05 -1.662936E+06 -2.662082E-09  3.549906E-10
        16  13 -4.749986E+06 -6.833510E+05 -4.477473E+03 -1.801583E+06 -4.021762E-09 -4.456799E-10
        16  14 -4.761875E+06 -6.709092E+05 -5.789923E+03 -1.787834E+06  1.928389E-09  2.474678E-10
        16  15 -4.750185E+06 -6.847024E+05 -9.720191E+03 -1.801079E+06 -5.822166E-09 -5.517073E-10
        16  16 -5.197373E+06 -8.521782E+05 -1.259432E+05 -1.922793E+06 -2.571643E-09 -9.978818E-10
        16  17 -5.238715E+06 -8.512343E+05 -1.351545E+05 -1.917459E+06 -1.978471E-11 -7.245363E-11
        16  18 -5.256509E+06 -8.765598E+05 -1.471132E+05 -1.939120E+06 -9.676049E-10  4.745486E-11
        16  19 -4.302404E+06 -5.145119E+05  1.169707E+05 -1.680294E+06 -4.831016E+03  9.607231E+03
        16  20 -4.284815E+06 -4.905706E+05  1.235545E+05 -1.658118E+06 -8.107832E+03  9.968325E+03
        16  21 -4.243613E+06 -4.928300E+05  1.276498E+05 -1.662936E+06 -1.120459E+04  9.844078E+03
        16  22 -4.749986E+06 -6.833509E+05 -4.477258E+03 -1.801583E+06 -4.282711E+03  9.813358E+03
        16  23 -4.761875E+06 -6.709090E+05 -5.789619E+03 -1.787834E+06 -7.719908E+03  1.011468E+04
        16  24 -4.750185E+06 -6.847023E+05 -9.719780E+03 -1.801079E+06 -1.097684E+04  9.930531E+03
        16  25 -5.197373E+06 -8.521781E+05 -1.259430E+05 -1.922793E+06 -3.734844E+03  1.001932E+04
        16  26 -5.238715E+06 -8.512342E+05 -1.351542E+05 -1.917459E+06 -7.332313E+03  1.026091E+04
        16  27 -5.256509E+06 -8.765597E+05 -1.471128E+05 -1.939120E+06 -1.074929E+04  1.001691E+04
        17   1 -4.202116E+06 -4.712335E+05  1.374224E+05 -1.648426E+06  1.326568E+04 -9.605024E+03
        17   2 -4.196207E+06 -4.613059E+05  1.307298E+05 -1.640482E+06  2.412040E+04 -6.205025E+03
        17   3 -4.189689E+06 -4.732722E+05  1.121640E+05 -1.636478E+06  3.473177E+04 -2.157916E+03
        17   4 -4.754658E+06 -6.791655E+05 -1.229326E+04 -1.797688E+06  1.295095E+04 -9.724375E+03
        17   5 -4.755762E+06 -6.737847E+05 -2.116118E+04 -1.793619E+06  2.401304E+04 -6.246508E+03
        17   6 -4.756304E+06 -6.903491E+05 -4.207590E+04 -1.793490E+06  3.483152E+04 -2.121386E+03
        17   7 -5.306905E+06 -8.870806E+05 -1.620363E+05 -1.946829E+06  1.263652E+04 -9.843611E+03
        17   8 -5.315013E+06 -8.862444E+05 -1.730802E+05 -1.946630E+06  2.390578E+04 -6.287954E+03
        17   9 -5.322608E+06 -9.074048E+05 -1.963446E+05 -1.950371E+06  3.493116E+04 -2.084900E+03
        17  10 -4.202116E+06 -4.712336E+05  1.374219E+05 -1.648426E+06 -2.800253E-09  4.223402E-10
        17  11 -4.196207E+06 -4.613061E+05  1.307286E+05 -1.640482E+06  1.507563E-09 -5.511028E-10
        17  12 -4.189690E+06 -4.732725E+05  1.121617E+05 -1.636478E+06  3.505359E-10  4.516187E-10
        17  13 -4.754658E+06 -6.791657E+05 -1.229375E+04 -1.797687E+06 -2.205531E-09 -3.896167E-10
        17  14 -4.755762E+06 -6.737849E+05 -2.116234E+04 -1.793619E+06  2.663382E-09  4.775817E-10
        17  15 -4.756306E+06 -6.903495E+05 -4.207821E+04 -1.793490E+06  1.005335E-09  1.417905E-09
        17  16 -5.306905E+06 -8.870807E+05 -1.620368E+05 -1.946828E+06 -1.612009E-09 -8.735400E-10
        17  17 -5.315014E+06 -8.862446E+05 -1.730814E+05 -1.946630E+06 -2.027578E-09  6.959257E-10
        17  18 -5.322609E+06 -9.074052E+05 -1.963469E+05 -1.950371E+06  3.297471E-09  9.901526E-10
        17  19 -4.202116E+06 -4.712335E+05  1.374224E+05 -1.648426E+06 -1.326568E+04  9.605024E+03
        17  20 -4.196207E+06 -4.613059E+05  1.307298E+05 -1.640482E+06 -2.412040E+04  6.205025E+03
        17  21 -4.189689E+06 -4.732722E+05  1.121640E+05 -1.636478E+06 -3.473177E+04  2.157916E+03
        17  22 -4.754658E+06 -6.791655E+05 -1.229326E+04 -1.797688E+06 -1.295095E+04  9.724375E+03
        17  23 -4.755762E+06 -6.737847E+05 -2.116118E+04 -1.793619E+06 -2.401304E+04  6.246508E+03
        17  24 -4.756304E+06 -6.903491E+05 -4.207590E+04 -1.793490E+06 -3.483152E+04  2.121386E+03
        17  25 -5.306905E+06 -8.870806E+05 -1.620363E+05 -1.946829E+06 -1.263652E+04  9.843611E+03
        17  26 -5.315013E+06 -8.862444E+05 -1.730802E+05 -1.946630E+06 -2.390578E+04  6.287954E+03
        17  27 -5.322608E+06 -9.074048E+05 -1.963446E+05 -1.950371E+06 -3.493116E+04  2.084900E+03
        18   1 -4.197057E+06 -4.664698E+05  9.907373E+04 -1.650593E+06  4.273941E+04  8.366112E+02
        18   2 -4.197179E+06 -4.526753E+05  5.785923E+04 -1.648320E+06  8.980384E+04  1.896455E+04
        18   3 -4.258545E+06 -5.438260E+05 -5.042038E+04 -1.602994E+06  1.363682E+05  3.840438E+04
        18   4 -4.764861E+06 -6.729024E+05 -5.326009E+04 -1.796620E+06  4.259336E+04  7.811051E+02
        18   5 -4.740552E+06 -6.636836E+05 -9.054613E+04 -1.801793E+06  9.005665E+04  1.905853E+04
        18   6 -4.777607E+06 -7.595536E+05 -1.952594E+05 -1.763903E+06  1.370216E+05  3.864651E+04
        18   7 -5.332355E+06 -8.793227E+05 -2.056226E+05 -1.942529E+06  4.244744E+04  7.256437E+02
        18   8 -5.283639E+06 -8.746707E+05 -2.389786E+05 -1.955143E+06  9.030919E+04  1.915241E+04
        18   9 -5.296406E+06 -9.752499E+05 -3.401239E+05 -1.924683E+06  1.376744E+05  3.888834E+04
        18  10 -4.197059E+06 -4.664703E+05  9.907028E+04 -1.650593E+06 -2.947117E-10  1.597534E-09
        18  11 -4.197188E+06 -4.526778E+05  5.784328E+04 -1.648321E+06 -7.532557E-10 -2.208588E-09
        18  12 -4.258566E+06 -5.438326E+05 -5.045839E+04 -1.602998E+06 -3.172836E-09 -1.634094E-09
        18  13 -4.764863E+06 -6.729029E+05 -5.326352E+04 -1.796620E+06  3.967901E-10  2.448111E-10
        18  14 -4.740560E+06 -6.636862E+05 -9.056219E+04 -1.801794E+06 -3.833948E-10 -1.611712E-09
        18  15 -4.777627E+06 -7.595603E+05 -1.952978E+05 -1.763907E+06 -7.147009E-10  1.642732E-10
        18  16 -5.332357E+06 -8.793232E+05 -2.056260E+05 -1.942529E+06  6.435861E-10 -6.675945E-10
        18  17 -5.283648E+06 -8.746733E+05 -2.389948E+05 -1.955144E+06  7.649728E-10  2.408209E-09
        18  18 -5.296427E+06 -9.752567E+05 -3.401628E+05 -1.924688E+06 -1.248684E-09  2.161043E-10
        18  19 -4.197057E+06 -4.664698E+05  9.907373E+04 -1.650593E+06 -4.273941E+04 -8.366112E+02
        18  20 -4.197179E+06 -4.526753E+05  5.785923E+04 -1.648320E+06 -8.980384E+04 -1.896455E+04
        18  21 -4.258545E+06 -5.438260E+05 -5.042038E+04 -1.602994E+06 -1.363682E+05 -3.840438E+04
        18  22 -4.764861E+06 -6.729024E+05 -5.326009E+04 -1.796620E+06 -4.259336E+04 -7.811051E+02
        18  23 -4.740552E+06 -6.636836E+05 -9.054613E+04 -1.801793E+06 -9.005665E+04 -1.905853E+04
        18  24 -4.777607E+06 -7.595536E+05 -1.952594E+05 -1.763903E+06 -1.370216E+05 -3.864651E+04
        18  25 -5.332355E+06 -8.793227E+05 -2.056226E+05 -1.942529E+06 -4.244744E+04 -7.256437E+02
        18  26 -5.283639E+06 -8.746707E+05 -2.389786E+05 -1.955143E+06 -9.030919E+04 -1.915241E+04
        18  27 -5.296406E+06 -9.752499E+05 -3.401239E+05 -1.924683E+06 -1.376744E+05 -3.888834E+04
        19   1 -4.287022E+06 -5.206815E+05 -1.094802E+05 -1.744727E+06  1.729677E+05  5.187619E+04
        19   2 -4.252010E+06 -3.558190E+05 -2.651210E+05 -1.672619E+06  3.815670E+05  1.322225E+05
        19   3 -4.611872E+06 -1.056405E+06 -8.226205E+05 -1.333578E+06  5.874403E+05  2.197227E+05
        19   4 -4.811426E+06 -6.517852E+05 -2.383121E+05 -1.819173E+06  1.720080E+05  5.153455E+04
        19   5 -4.662774E+06 -5.522782E+05 -3.844392E+05 -1.826134E+06  3.828517E+05  1.326795E+05
        19   6 -4.909711E+06 -1.319070E+06 -9.344148E+05 -1.566058E+06  5.910107E+05  2.209050E+05
        19   7 -5.335556E+06 -7.828970E+05 -3.671609E+05 -1.893579E+06  1.710493E+05  5.119300E+04
        19   8 -5.073370E+06 -7.486957E+05 -5.037737E+05 -1.979546E+06  3.841354E+05  1.331360E+05
        19   9 -5.207408E+06 -1.581553E+06 -1.046210E+06 -1.798397E+06  5.945793E+05  2.220844E+05
        19  10 -4.287055E+06 -5.206925E+05 -1.095420E+05 -1.744734E+06 -4.682171E-10  3.093893E-11
        19  11 -4.252172E+06 -3.558774E+05 -2.654300E+05 -1.672660E+06 -7.563199E-10 -1.901194E-09
        19  12 -4.612259E+06 -1.056550E+06 -8.233657E+05 -1.333683E+06 -4.422966E-10 -1.487319E-10
        19  13 -4.811459E+06 -6.517961E+05 -2.383732E+05 -1.819180E+06  2.212113E-09 -4.946678E-10
        19  14 -4.662938E+06 -5.523370E+05 -3.847504E+05 -1.826175E+06 -5.853630E-09 -1.714136E-09
        19  15 -4.910102E+06 -1.319217E+06 -9.351695E+05 -1.566163E+06  3.597777E-09  1.473658E-09
        19  16 -5.335588E+06 -7.829077E+05 -3.672214E+05 -1.893586E+06 -8.616239E-11 -7.730052E-10
        19  17 -5.073534E+06 -7.487550E+05 -5.040873E+05 -1.979588E+06 -1.852834E-09 -2.601786E-09
        19  18 -5.207804E+06 -1.581702E+06 -1.046974E+06 -1.798504E+06 -2.450719E-09 -3.844622E-10
        19  19 -4.287022E+06 -5.206815E+05 -1.094802E+05 -1.744727E+06 -1.729677E+05 -5.187619E+04
        19  20 -4.252010E+06 -3.558190E+05 -2.651210E+05 -1.672619E+06 -3.815670E+05 -1.322225E+05
        19  21 -4.611872E+06 -1.056405E+06 -8.226205E+05 -1.333578E+06 -5.874403E+05 -2.197227E+05
        19  22 -4.811426E+06 -6.517852E+05 -2.383121E+05 -1.819173E+06 -1.720080E+05 -5.153455E+04
        19  23 -4.662774E+06 -5.522782E+05 -3.844392E+05 -1.826134E+06 -3.828517E+05 -1.326795E+05
        19  24 -4.909711E+06 -1.319070E+06 -9.344148E+05 -1.566058E+06 -5.910107E+05 -2.209050E+05
        19  25 -5.335556E+06 -7.828970E+05 -3.671609E+05 -1.893579E+06 -1.710493E+05 -5.119300E+04
        19  26 -5.073370E+06 -7.486957E+05 -5.037737E+05 -1.979546E+06 -3.841354E+05 -1.331360E+05
        19  27 -5.207408E+06 -1.581553E+06 -1.046210E+06 -1.798397E+06 -5.945793E+05 -2.220844E+05
        20   1 -1.900194E+06  2.739127E+04  3.516561E+04  6.473193E+03  2.399105E+04  2.508825E-01
        20   2 -1.905303E+06 -5.127674E+03  1.519862E+04  1.760240E+03  1.574134E+04  4.476289E-02
        20   3 -1.900222E+06 -1.220276E+03  9.721624E+03 -2.952606E+03  7.491730E+03 -3.573458E-02
        20   4 -1.900194E+06  2.739119E+04  3.516560E+04  5.081719E-08  2.399105E+04 -1.827938E-11
        20   5 -1.905303E+06 -5.127679E+03  1.519862E+04  2.779469E-09  1.574134E+04 -3.850039E-11
        20   6 -1.900222E+06 -1.220292E+03  9.721621E+03 -2.198261E-09  7.491730E+03 -3.583669E-10
        20   7 -1.900194E+06  2.739127E+04  3.516561E+04 -6.473193E+03  2.399105E+04 -2.508825E-01
        20   8 -1.905303E+06 -5.127674E+03  1.519862E+04 -1.760240E+03  1.574134E+04 -4.476289E-02
        20   9 -1.900222E+06 -1.220276E+03  9.721624E+03  2.952606E+03  7.491730E+03  3.573458E-02
        20  10 -1.900195E+06  2.739111E+04  3.516453E+04  6.473193E+03  1.998123E-09 -6.030518E-11
        20  11 -1.905304E+06 -5.127740E+03  1.519815E+04  1.760240E+03  2.399106E-10 -2.889450E-10
        20  12 -1.900222E+06 -1.220291E+03  9.721518E+03 -2.952606E+03  6.777751E-10 -7.197133E-10
        20  13 -1.900195E+06  2.739103E+04  3.516451E+04  7.747776E-09  1.724087E-10  1.364812E-11
        20  14 -1.905304E+06 -5.127746E+03  1.519815E+04  1.999555E-08 -1.076162E-09 -4.116053E-11
        20  15 -1.900222E+06 -1.220307E+03  9.721516E+03  4.257555E-09 -2.806025E-09 -1.321157E-10
        20  16 -1.900195E+06  2.739111E+04  3.516453E+04 -6.473193E+03  7.763483E-10  2.880562E-10
        20  17 -1.905304E+06 -5.127740E+03  1.519815E+04 -1.760240E+03  2.300328E-09  1.137048E-10
        20  18 -1.900222E+06 -1.220291E+03  9.721518E+03  2.952606E+03 -1.577770E-09  2.741402E-10
        20  19 -1.900194E+06  2.739127E+04  3.516561E+04  6.473193E+03 -2.399105E+04 -2.508825E-01
        20  20 -1.905303E+06 -5.127674E+03  1.519862E+04  1.760240E+03 -1.574134E+04 -4.476289E-02
        20  21 -1.900222E+06 -1.220276E+03  9.721624E+03 -2.952606E+03 -7.491730E+03  3.573458E-02
        20  22 -1.900194E+06  2.739119E+04  3.516560E+04  4.219112E-08 -2.399105E+04  3.420708E-11
        20  23 -1.905303E+06 -5.127679E+03  1.519862E+04  1.999450E-08 -1.574134E+04 -3.609803E-11
        20  24 -1.900222E+06 -1.220292E+03  9.721621E+03 -9.743869E-09 -7.491730E+03  1.034897E-10
        20  25 -1.900194E+06  2.739127E+04  3.516561E+04 -6.473193E+03 -2.399105E+04  2.508825E-01
        20  26 -1.905303E+06 -5.127674E+03  1.519862E+04 -1.760240E+03 -1.574134E+04  4.476289E-02
        20  27 -1.900222E+06 -1.220276E+03  9.721624E+03  2.952606E+03 -7.491730E+03 -3.573458E-02
        21   1 -1.902163E+06  3.470560E+03  7.986806E+03  7.632462E+02  5.937532E+03  7.321044E-03
        21   2 -1.902878E+06 -6.567181E+02  3.938081E+03  1.871322E+02  3.898742E+03  1.178624E-03
        21   3 -1.902168E+06 -1.518291E+02  2.377844E+03 -3.889905E+02  1.859924E+03 -1.168787E-03
        21   4 -1.902163E+06  3.470558E+03  7.986806E+03  1.583272E-08  5.937532E+03 -1.061782E-09
        21   5 -1.902878E+06 -6.567182E+02  3.938081E+03 -1.303061E-08  3.898742E+03 -1.016169E-09
        21   6 -1.902168E+06 -1.518294E+02  2.377844E+03  1.191030E-08  1.859924E+03  1.717471E-09
        21   7 -1.902163E+06  3.470560E+03  7.986806E+03 -7.632462E+02  5.937532E+03 -7.321046E-03
        21   8 -1.902878E+06 -6.567181E+02  3.938081E+03 -1.871322E+02  3.898742E+03 -1.178627E-03
        21   9 -1.902168E+06 -1.518291E+02  2.377844E+03  3.889905E+02  1.859924E+03  1.168791E-03
        21  10 -1.902163E+06  3.470550E+03  7.986740E+03  7.632462E+02  1.652637E-09 -3.182467E-10
        21  11 -1.902878E+06 -6.567222E+02  3.938052E+03  1.871322E+02 -8.051376E-10  2.050958E-10
        21  12 -1.902168E+06 -1.518300E+02  2.377837E+03 -3.889905E+02  1.502773E-09 -2.529211E-10
        21  13 -1.902163E+06  3.470549E+03  7.986740E+03  7.203587E-09  2.769150E-10 -1.605513E-10
        21  14 -1.902878E+06 -6.567222E+02  3.938052E+03 -1.053082E-10 -2.840553E-09  1.071385E-11
        21  15 -1.902168E+06 -1.518303E+02  2.377837E+03 -3.099053E-09  3.002430E-09  6.269265E-10
        21  16 -1.902163E+06  3.470550E+03  7.986740E+03 -7.632462E+02  4.996705E-10 -2.029240E-10
        21  17 -1.902878E+06 -6.567222E+02  3.938052E+03 -1.871322E+02  6.038479E-11 -4.941491E-11
        21  18 -1.902168E+06 -1.518300E+02  2.377837E+03  3.889905E+02  3.453875E-09  1.122945E-09
        21  19 -1.902163E+06  3.470560E+03  7.986806E+03  7.632462E+02 -5.937532E+03 -7.321044E-03
        21  20 -1.902878E+06 -6.567181E+02  3.938081E+03  1.871322E+02 -3.898742E+03 -1.178623E-03
        21  21 -1.902168E+06 -1.518291E+02  2.377844E+03 -3.889905E+02 -1.859924E+03  1.168789E-03
        21  22 -1.902163E+06  3.470558E+03  7.986806E+03  1.579282E-08 -5.937532E+03  6.613068E-10
        21  23 -1.902878E+06 -6.567182E+02  3.938081E+03  4.210823E-09 -3.898742E+03  1.030134E-09
        21  24 -1.902168E+06 -1.518294E+02  2.377844E+03  1.199851E-08 -1.859924E+03 -4.776521E-10
        21  25 -1.902163E+06  3.470560E+03  7.986806E+03 -7.632462E+02 -5.937532E+03  7.321045E-03
        21  26 -1.902878E+06 -6.567181E+02  3.938081E+03 -1.871322E+02 -3.898742E+03  1.178625E-03
        21  27 -1.902168E+06 -1.518291E+02  2.377844E+03  3.889905E+02 -1.859924E+03 -1.168790E-03
        22   1 -1.902437E+06  4.356286E+02  1.873262E+03  8.126214E+01  1.481370E+03  1.944723E-04
        22   2 -1.902543E+06 -8.389861E+01  9.747995E+02  1.416470E+01  9.882660E+02  2.261441E-05
        22   3 -1.902438E+06 -1.945503E+01  5.441032E+02 -5.293276E+01  4.951627E+02 -4.234157E-05
        22   4 -1.902437E+06  4.356286E+02  1.873262E+03  3.705288E-08  1.481370E+03  2.287954E-09
        22   5 -1.902543E+06 -8.389861E+01  9.747995E+02  5.030374E-09  9.882660E+02  1.092137E-11
        22   6 -1.902438E+06 -1.945504E+01  5.441032E+02 -3.452202E-08  4.951627E+02 -9.780051E-10
        22   7 -1.902437E+06  4.356286E+02  1.873262E+03 -8.126214E+01  1.481370E+03 -1.944678E-04
        22   8 -1.902543E+06 -8.389861E+01  9.747995E+02 -1.416470E+01  9.882660E+02 -2.261534E-05
        22   9 -1.902438E+06 -1.945503E+01  5.441032E+02  5.293276E+01  4.951627E+02  4.234147E-05
        22  10 -1.902437E+06  4.356280E+02  1.873258E+03  8.126214E+01  3.040490E-10  3.134894E-10
        22  11 -1.902543E+06 -8.389887E+01  9.747977E+02  1.416470E+01  6.928906E-10 -2.715068E-10
        22  12 -1.902438E+06 -1.945510E+01  5.441027E+02 -5.293276E+01  4.944464E-10 -3.218149E-10
        22  13 -1.902437E+06  4.356280E+02  1.873258E+03  2.840484E-08 -2.253111E-09  5.270289E-10
        22  14 -1.902543E+06 -8.389887E+01  9.747977E+02  5.019873E-09  3.778016E-09 -1.052897E-10
        22  15 -1.902438E+06 -1.945510E+01  5.441027E+02 -1.837350E-08 -1.146886E-09 -2.951257E-10
        22  16 -1.902437E+06  4.356280E+02  1.873258E+03 -8.126214E+01 -4.740529E-10  8.093699E-10
        22  17 -1.902543E+06 -8.389887E+01  9.747977E+02 -1.416470E+01  3.832585E-10 -1.098165E-10
        22  18 -1.902438E+06 -1.945510E+01  5.441027E+02  5.293276E+01  1.128119E-09 -5.032587E-10
        22  19 -1.902437E+06  4.356286E+02  1.873262E+03  8.126214E+01 -1.481370E+03 -1.944725E-04
        22  20 -1.902543E+06 -8.389861E+01  9.747995E+02  1.416470E+01 -9.882660E+02 -2.261331E-05
        22  21 -1.902438E+06 -1.945503E+01  5.441032E+02 -5.293276E+01 -4.951627E+02  4.234267E-05
        22  22 -1.902437E+06  4.356286E+02  1.873262E+03  3.697412E-08 -1.481370E+03 -1.159099E-09
        22  23 -1.902543E+06 -8.389861E+01  9.747995E+02  5.004122E-09 -9.882660E+02 -3.099859E-10
        22  24 -1.902438E+06 -1.945504E+01  5.441032E+02 -1.729735E-08 -4.951627E+02  3.374558E-10
        22  25 -1.902437E+06  4.356286E+02  1.873262E+03 -8.126214E+01 -1.481370E+03  1.944705E-04
        22  26 -1.902543E+06 -8.389861E+01  9.747995E+02 -1.416470E+01 -9.882660E+02  2.261320E-05
        22  27 -1.902438E+06 -1.945503E+01  5.441032E+02  5.293276E+01 -4.951627E+02 -4.234235E-05
        23   1 -1.902479E+06  5.397327E+01  3.964839E+02  4.600405E+00  4.107991E+02  3.053426E-06
        23   2 -1.902492E+06 -8.507647E+00  1.473892E+02 -1.534468E+00  3.368568E+02 -8.347138E-07
        23   3 -1.902480E+06 -1.257466E+01 -3.885365E+01 -7.669249E+00  2.629156E+02 -3.257317E-06
        23   4 -1.902479E+06  5.397327E+01  3.964839E+02  6.323822E-09  4.107991E+02 -5.764525E-11
        23   5 -1.902492E+06 -8.507647E+00  1.473892E+02 -1.620306E-08  3.368568E+02  1.250976E-09
        23   6 -1.902480E+06 -1.257466E+01 -3.885365E+01  1.938627E-08  2.629156E+02 -7.266427E-10
        23   7 -1.902479E+06  5.397327E+01  3.964839E+02 -4.600405E+00  4.107991E+02 -3.052618E-06
        23   8 -1.902492E+06 -8.507647E+00  1.473892E+02  1.534467E+00  3.368568E+02  8.354292E-07
        23   9 -1.902480E+06 -1.257466E+01 -3.885365E+01  7.669249E+00  2.629156E+02  3.256290E-06
        23  10 -1.902479E+06  5.397323E+01  3.964835E+02  4.600405E+00 -9.085651E-10  4.511979E-11
        23  11 -1.902492E+06 -8.507677E+00  1.473890E+02 -1.534468E+00 -1.112785E-09  9.937736E-10
        23  12 -1.902480E+06 -1.257468E+01 -3.885378E+01 -7.669249E+00 -2.678091E-09 -5.282844E-10
        23  13 -1.902479E+06  5.397323E+01  3.964835E+02 -1.086304E-08 -2.328220E-09  2.474219E-10
        23  14 -1.902492E+06 -8.507677E+00  1.473890E+02 -3.303979E-09  2.496237E-09  6.537889E-10
        23  15 -1.902480E+06 -1.257468E+01 -3.885378E+01 -2.372057E-08 -3.308058E-10 -5.788615E-10
        23  16 -1.902479E+06  5.397323E+01  3.964835E+02 -4.600405E+00  2.337057E-09  4.523892E-10
        23  17 -1.902492E+06 -8.507677E+00  1.473890E+02  1.534468E+00  3.805762E-10  8.500953E-10
        23  18 -1.902480E+06 -1.257468E+01 -3.885378E+01  7.669249E+00 -8.045485E-10 -6.525582E-10
        23  19 -1.902479E+06  5.397327E+01  3.964839E+02  4.600405E+00 -4.107991E+02 -3.052384E-06
        23  20 -1.902492E+06 -8.507647E+00  1.473892E+02 -1.534468E+00 -3.368568E+02  8.361881E-07
        23  21 -1.902480E+06 -1.257466E+01 -3.885365E+01 -7.669249E+00 -2.629156E+02  3.257502E-06
        23  22 -1.902479E+06  5.397327E+01  3.964839E+02  2.361990E-08 -4.107991E+02  3.916197E-10
        23  23 -1.902492E+06 -8.507647E+00  1.473892E+02 -1.192367E-08 -3.368568E+02  9.024039E-11
        23  24 -1.902480E+06 -1.257466E+01 -3.885365E+01  3.000494E-08 -2.629156E+02 -4.392368E-10
        23  25 -1.902479E+06  5.397327E+01  3.964839E+02 -4.600405E+00 -4.107991E+02  3.053507E-06
        23  26 -1.902492E+06 -8.507647E+00  1.473892E+02  1.534467E+00 -3.368568E+02 -8.357885E-07
        23  27 -1.902480E+06 -1.257466E+01 -3.885365E+01  7.669249E+00 -2.629156E+02 -3.258083E-06
        24   1 -1.902496E+06  9.778135E+00 -1.297160E+02 -1.240428E+01  2.781085E+02 -5.573711E-06
        24   2 -1.902471E+06  1.650203E+01 -3.527210E+02 -1.426600E+00  4.544926E+02 -1.046452E-06
        24   3 -1.902497E+06 -8.897029E+01 -7.188712E+02  9.551251E+00  6.308793E+02  9.734573E-06
        24   4 -1.902496E+06  9.778135E+00 -1.297160E+02 -3.557506E-09  2.781085E+02 -8.743979E-10
        24   5 -1.902471E+06  1.650203E+01 -3.527210E+02 -1.921120E-08  4.544926E+02  4.631901E-10
        24   6 -1.902497E+06 -8.897029E+01 -7.188712E+02 -1.655672E-08  6.308793E+02 -6.572401E-10
        24   7 -1.902496E+06  9.778135E+00 -1.297160E+02  1.240429E+01  2.781085E+02  5.571951E-06
        24   8 -1.902471E+06  1.650203E+01 -3.527210E+02  1.426600E+00  4.544926E+02  1.046775E-06
        24   9 -1.902497E+06 -8.897029E+01 -7.188712E+02 -9.551251E+00  6.308793E+02 -9.735778E-06
        24  10 -1.902496E+06  9.778114E+00 -1.297161E+02 -1.240429E+01  7.636188E-11 -1.042696E-09
        24  11 -1.902471E+06  1.650197E+01 -3.527214E+02 -1.426600E+00  1.079496E-09  6.330165E-10
        24  12 -1.902497E+06 -8.897040E+01 -7.188719E+02  9.551251E+00  8.219187E-10  2.805420E-10
        24  13 -1.902496E+06  9.778114E+00 -1.297161E+02 -1.214359E-08  2.085089E-09 -7.790860E-10
        24  14 -1.902471E+06  1.650197E+01 -3.527214E+02 -3.641487E-08  5.602698E-10  2.252259E-10
        24  15 -1.902497E+06 -8.897040E+01 -7.188719E+02 -3.916319E-08 -2.172778E-09  8.948997E-11
        24  16 -1.902496E+06  9.778114E+00 -1.297161E+02  1.240428E+01  3.874455E-09 -7.856765E-10
        24  17 -1.902471E+06  1.650197E+01 -3.527214E+02  1.426600E+00  6.180089E-10  1.191076E-10
        24  18 -1.902497E+06 -8.897040E+01 -7.188719E+02 -9.551251E+00  3.621856E-09 -4.633485E-10
        24  19 -1.902496E+06  9.778135E+00 -1.297160E+02 -1.240428E+01 -2.781085E+02  5.572481E-06
        24  20 -1.902471E+06  1.650203E+01 -3.527210E+02 -1.426600E+00 -4.544926E+02  1.047832E-06
        24  21 -1.902497E+06 -8.897029E+01 -7.188712E+02  9.551251E+00 -6.308793E+02 -9.732647E-06
        24  22 -1.902496E+06  9.778135E+00 -1.297160E+02  1.372492E-08 -2.781085E+02 -6.510900E-10
        24  23 -1.902471E+06  1.650203E+01 -3.527210E+02 -2.779309E-08 -4.544926E+02 -9.839040E-11
        24  24 -1.902497E+06 -8.897029E+01 -7.188712E+02 -1.658508E-08 -6.308793E+02  7.910595E-10
        24  25 -1.902496E+06  9.778135E+00 -1.297160E+02  1.240428E+01 -2.781085E+02 -5.573908E-06
        24  26 -1.902471E+06  1.650203E+01 -3.527210E+02  1.426600E+00 -4.544926E+02 -1.047983E-06
        24  27 -1.902497E+06 -8.897029E+01 -7.188712E+02 -9.551251E+00 -6.308793E+02  9.734608E-06
        25   1 -1.902563E+06  3.100666E+01 -9.481344E+02 -8.712982E+01  7.804656E+02 -1.098556E-04
        25   2 -1.902389E+06  1.391507E+02 -1.640129E+03  2.383239E+01  1.609836E+03  6.198093E-05
        25   3 -1.902565E+06 -7.208641E+02 -3.115359E+03  1.347947E+02  2.439205E+03  5.311576E-04
        25   4 -1.902563E+06  3.100665E+01 -9.481344E+02 -7.205480E-09  7.804656E+02 -5.126244E-10
        25   5 -1.902389E+06  1.391507E+02 -1.640129E+03  8.276149E-09  1.609836E+03  9.722504E-10
        25   6 -1.902565E+06 -7.208642E+02 -3.115359E+03  4.419412E-08  2.439205E+03 -3.495103E-10
        25   7 -1.902563E+06  3.100666E+01 -9.481344E+02  8.712982E+01  7.804656E+02  1.098545E-04
        25   8 -1.902389E+06  1.391507E+02 -1.640129E+03 -2.383239E+01  1.609836E+03 -6.197948E-05
        25   9 -1.902565E+06 -7.208641E+02 -3.115359E+03 -1.347947E+02  2.439205E+03 -5.311578E-04
        25  10 -1.902563E+06  3.100650E+01 -9.481356E+02 -8.712982E+01 -1.598030E-09  2.062359E-10
        25  11 -1.902389E+06  1.391500E+02 -1.640134E+03  2.383239E+01  2.922243E-09  7.226649E-11
        25  12 -1.902565E+06 -7.208657E+02 -3.115370E+03  1.347947E+02  1.423680E-09 -6.207275E-10
        25  13 -1.902563E+06  3.100648E+01 -9.481356E+02 -5.884276E-08 -1.808433E-09 -1.200667E-11
        25  14 -1.902389E+06  1.391500E+02 -1.640134E+03 -8.946438E-09  1.774828E-09  3.833091E-11
        25  15 -1.902565E+06 -7.208658E+02 -3.115370E+03  1.298265E-08 -2.897377E-10 -3.006515E-10
        25  16 -1.902563E+06  3.100650E+01 -9.481356E+02  8.712982E+01 -3.299331E-11 -6.357267E-10
        25  17 -1.902389E+06  1.391500E+02 -1.640134E+03 -2.383239E+01  1.002321E-09  1.708250E-10
        25  18 -1.902565E+06 -7.208657E+02 -3.115370E+03 -1.347947E+02 -2.496499E-10  1.132012E-10
        25  19 -1.902563E+06  3.100666E+01 -9.481344E+02 -8.712982E+01 -7.804656E+02  1.098567E-04
        25  20 -1.902389E+06  1.391507E+02 -1.640129E+03  2.383239E+01 -1.609836E+03 -6.198010E-05
        25  21 -1.902565E+06 -7.208641E+02 -3.115359E+03  1.347947E+02 -2.439205E+03 -5.311581E-04
        25  22 -1.902563E+06  3.100665E+01 -9.481344E+02 -1.579472E-08 -7.804656E+02  4.864826E-10
        25  23 -1.902389E+06  1.391507E+02 -1.640129E+03 -4.339266E-08 -1.609836E+03 -6.792266E-10
        25  24 -1.902565E+06 -7.208642E+02 -3.115359E+03  3.553137E-08 -2.439205E+03 -2.402442E-10
        25  25 -1.902563E+06  3.100666E+01 -9.481344E+02  8.712982E+01 -7.804656E+02 -1.098563E-04
        25  26 -1.902389E+06  1.391507E+02 -1.640129E+03 -2.383239E+01 -1.609836E+03  6.197902E-05
        25  27 -1.902565E+06 -7.208641E+02 -3.115359E+03 -1.347947E+02 -2.439205E+03  5.311570E-04
        26   1 -1.903010E+06  2.511550E+02 -3.946552E+03 -6.435373E+02  3.068090E+03 -3.189660E-03
        26   2 -1.901834E+06  1.086789E+03 -6.523189E+03  3.097830E+02  6.445203E+03  3.225492E-03
        26   3 -1.903018E+06 -5.743089E+03 -1.321987E+04  1.263089E+03  9.822259E+03  2.004230E-02
        26   4 -1.903010E+06  2.511542E+02 -3.946552E+03  2.145069E-08  3.068090E+03 -5.662141E-10
        26   5 -1.901834E+06  1.086788E+03 -6.523189E+03 -2.840289E-09  6.445203E+03  7.558046E-10
        26   6 -1.903018E+06 -5.743092E+03 -1.321987E+04 -1.302515E-09  9.822259E+03  5.884835E-10
        26   7 -1.903010E+06  2.511550E+02 -3.946552E+03  6.435373E+02  3.068090E+03  3.189659E-03
        26   8 -1.901834E+06  1.086789E+03 -6.523189E+03 -3.097830E+02  6.445203E+03 -3.225492E-03
        26   9 -1.903018E+06 -5.743089E+03 -1.321987E+04 -1.263089E+03  9.822259E+03 -2.004230E-02
        26  10 -1.903010E+06  2.511524E+02 -3.946569E+03 -6.435373E+02  1.803241E-09 -1.682442E-10
        26  11 -1.901834E+06  1.086777E+03 -6.523268E+03  3.097830E+02  1.367824E-09  7.922234E-10
        26  12 -1.903018E+06 -5.743115E+03 -1.322005E+04  1.263089E+03  1.773570E-09 -2.797060E-10
        26  13 -1.903010E+06  2.511517E+02 -3.946570E+03 -4.345402E-09 -2.101883E-09 -1.223362E-10
        26  14 -1.901834E+06  1.086777E+03 -6.523268E+03  1.465367E-09 -2.541193E-09  5.584616E-10
        26  15 -1.903018E+06 -5.743118E+03 -1.322005E+04  2.664269E-08  1.016386E-09 -8.087170E-11
        26  16 -1.903010E+06  2.511524E+02 -3.946569E+03  6.435373E+02 -2.898351E-10  1.919240E-10
        26  17 -1.901834E+06  1.086777E+03 -6.523268E+03 -3.097830E+02  4.605678E-10  3.243952E-10
        26  18 -1.903018E+06 -5.743115E+03 -1.322005E+04 -1.263089E+03  5.459335E-10 -1.988811E-10
        26  19 -1.903010E+06  2.511550E+02 -3.946552E+03 -6.435373E+02 -3.068090E+03  3.189660E-03
        26  20 -1.901834E+06  1.086789E+03 -6.523189E+03  3.097830E+02 -6.445203E+03 -3.225491E-03
        26  21 -1.903018E+06 -5.743089E+03 -1.321987E+04  1.263089E+03 -9.822259E+03 -2.004230E-02
        26  22 -1.903010E+06  2.511542E+02 -3.946552E+03 -4.283446E-09 -3.068090E+03  3.178529E-10
        26  23 -1.901834E+06  1.086788E+03 -6.523189E+03  5.773125E-09 -6.445203E+03  1.977497E-10
        26  24 -1.903018E+06 -5.743092E+03 -1.321987E+04  2.981654E-08 -9.822259E+03 -9.396548E-10
        26  25 -1.903010E+06  2.511550E+02 -3.946552E+03  6.435373E+02 -3.068090E+03 -3.189660E-03
        26  26 -1.901834E+06  1.086789E+03 -6.523189E+03 -3.097830E+02 -6.445203E+03  3.225491E-03
        26  27 -1.903018E+06 -5.743089E+03 -1.321987E+04 -1.263089E+03 -9.822259E+03  2.004230E-02
        27   1 -1.906230E+06  2.019450E+03 -1.608932E+04 -4.885945E+03  1.239448E+04 -9.783205E-02
        27   2 -1.897821E+06  8.485397E+03 -2.514935E+04  2.913004E+03  2.604682E+04  1.225729E-01
        27   3 -1.906275E+06 -4.532664E+04 -5.818677E+04  1.071197E+04  3.969942E+04  6.869977E-01
        27   4 -1.906230E+06  2.019405E+03 -1.608933E+04  1.545509E-08  1.239448E+04 -1.195563E-10
        27   5 -1.897821E+06  8.485381E+03 -2.514935E+04 -1.215168E-08  2.604682E+04 -5.153467E-10
        27   6 -1.906275E+06 -4.532686E+04 -5.818680E+04  4.741623E-08  3.969942E+04 -3.294033E-10
        27   7 -1.906230E+06  2.019450E+03 -1.608932E+04  4.885945E+03  1.239448E+04  9.783205E-02
        27   8 -1.897821E+06  8.485397E+03 -2.514935E+04 -2.913004E+03  2.604682E+04 -1.225729E-01
        27   9 -1.906275E+06 -4.532664E+04 -5.818677E+04 -1.071197E+04  3.969942E+04 -6.869977E-01
        27  10 -1.906230E+06  2.019409E+03 -1.608961E+04 -4.885945E+03 -1.833438E-09 -5.689865E-10
        27  11 -1.897822E+06  8.485214E+03 -2.515063E+04  2.913004E+03  9.803148E-11 -2.114566E-10
        27  12 -1.906277E+06 -4.532706E+04 -5.818974E+04  1.071197E+04  2.455498E-10  2.568926E-11
        27  13 -1.906230E+06  2.019364E+03 -1.608962E+04  1.543199E-08 -6.849559E-10 -4.040605E-10
        27  14 -1.897822E+06  8.485198E+03 -2.515063E+04 -3.538124E-09  4.869000E-11 -3.404096E-10
        27  15 -1.906277E+06 -4.532728E+04 -5.818978E+04  3.129946E-08  1.841236E-11  7.200566E-12
        27  16 -1.906230E+06  2.019409E+03 -1.608961E+04  4.885945E+03  1.361728E-09 -1.027745E-10
        27  17 -1.897822E+06  8.485214E+03 -2.515063E+04 -2.913004E+03 -1.836511E-10 -1.903102E-10
        27  18 -1.906277E+06 -4.532706E+04 -5.818974E+04 -1.071197E+04  4.845266E-10 -1.459794E-10
        27  19 -1.906230E+06  2.019450E+03 -1.608932E+04 -4.885945E+03 -1.239448E+04  9.783205E-02
        27  20 -1.897821E+06  8.485397E+03 -2.514935E+04  2.913004E+03 -2.604682E+04 -1.225729E-01
        27  21 -1.906275E+06 -4.532664E+04 -5.818677E+04  1.071197E+04 -3.969942E+04 -6.869977E-01
        27  22 -1.906230E+06  2.019405E+03 -1.608933E+04  2.404544E-08 -1.239448E+04 -8.544206E-10
        27  23 -1.897821E+06  8.485381E+03 -2.514935E+04  2.229622E-08 -2.604682E+04 -1.126880E-10
        27  24 -1.906275E+06 -4.532686E+04 -5.818680E+04  4.744774E-08 -3.969942E+04  2.097070E-10
        27  25 -1.906230E+06  2.019450E+03 -1.608932E+04  4.885945E+03 -1.239448E+04 -9.783205E-02
        27  26 -1.897821E+06  8.485397E+03 -2.514935E+04 -2.913004E+03 -2.604682E+04  1.225729E-01
        27  27 -1.906275E+06 -4.532664E+04 -5.818677E+04 -1.071197E+04 -3.969942E+04  6.869977E-01
        28   1  5.049614E+05  1.004206E+06  6.395049E+05 -4.671567E+04  1.509870E+03  4.032372E+05
        28   2 -1.976899E+04  1.034392E+06  3.338322E+05 -2.709925E+04  6.294864E+03  2.583843E+05
        28   3  8.090808E+04  1.240013E+06  2.788525E+05  1.154184E+05  1.031631E+04  1.134991E+05
        28   4  4.659077E+05  8.475341E+05  6.007466E+05  6.435922E+04  1.581806E+03  4.013063E+05
        28   5 -8.804206E+04  7.599085E+05  2.667749E+05  2.897241E+03  6.307836E+03  2.567421E+05
        28   6 -1.652914E+04  8.476711E+05  1.833282E+05  6.433418E+04  1.030791E+04  1.121725E+05
        28   7  4.268984E+05  6.909107E+05  5.619932E+05  1.754061E+05  1.653068E+03  3.993758E+05
        28   8 -1.563173E+05  4.854960E+05  1.997126E+05  3.288046E+04  6.320655E+03  2.551007E+05
        28   9 -1.139679E+05  4.554748E+05  8.779417E+04  1.328225E+04  1.029972E+04  1.108468E+05
        28  10  5.049179E+05  1.004032E+06  6.391999E+05 -4.671616E+04 -1.574143E-09  8.723058E-10
        28  11 -1.978691E+04  1.034320E+06  3.337068E+05 -2.710056E+04  2.070757E-09  8.463748E-10
        28  12  8.090452E+04  1.239999E+06  2.788281E+05  1.154175E+05  6.199091E-11  4.496066E-10
        28  13  4.658645E+05  8.473615E+05  6.004444E+05  6.435872E+04  2.768202E-09  3.491927E-12
        28  14 -8.805976E+04  7.598378E+05  2.666511E+05  2.895938E+03 -1.144067E-09  8.745401E-12
        28  15 -1.653263E+04  8.476575E+05  1.833044E+05  6.433325E+04 -7.699819E-10  5.285843E-11
        28  16  4.268556E+05  6.907396E+05  5.616937E+05  1.754056E+05  1.118236E-09 -7.950137E-10
        28  17 -1.563348E+05  4.854262E+05  1.995903E+05  3.287917E+04 -6.388574E-10 -7.912169E-10
        28  18 -1.139713E+05  4.554616E+05  8.777090E+04  1.328133E+04  2.220958E-09 -4.770706E-10
        28  19  5.049614E+05  1.004206E+06  6.395049E+05 -4.671567E+04 -1.509870E+03 -4.032372E+05
        28  20 -1.976899E+04  1.034392E+06  3.338322E+05 -2.709925E+04 -6.294864E+03 -2.583843E+05
        28  21  8.090808E+04  1.240013E+06  2.788525E+05  1.154184E+05 -1.031631E+04 -1.134991E+05
        28  22  4.659077E+05  8.475341E+05  6.007466E+05  6.435922E+04 -1.581806E+03 -4.013063E+05
        28  23 -8.804206E+04  7.599085E+05  2.667749E+05  2.897241E+03 -6.307836E+03 -2.567421E+05
        28  24 -1.652914E+04  8.476711E+05  1.833282E+05  6.433418E+04 -1.030791E+04 -1.121725E+05
        28  25  4.268984E+05  6.909107E+05  5.619932E+05  1.754061E+05 -1.653068E+03 -3.993758E+05
        28  26 -1.563173E+05  4.854960E+05  1.997126E+05  3.288046E+04 -6.320655E+03 -2.551007E+05
        28  27 -1.139679E+05  4.554748E+05  8.779417E+04  1.328225E+04 -1.029972E+04 -1.108468E+05
        29   1  2.165030E+05  1.457023E+06  3.157554E+05  4.776300E+04  1.312168E+04  8.413415E+04
        29   2  1.710119E+05  1.557655E+06  2.917112E+05  4.939186E+00  1.763165E+04  2.813422E+04
        29   3  2.512805E+05  1.698698E+06  3.358568E+05  7.821420E+04  1.949142E+04 -2.787216E+04
        29   4  5.742586E+04  8.175185E+05  1.591778E+05  6.505193E+04  1.312623E+04  8.198151E+04
        29   5 -1.797843E+04  7.973892E+05  1.060481E+05  2.071357E+03  1.763462E+04  2.698887E+04
        29   6  3.228327E+04  8.175218E+05  1.204600E+05  6.506478E+04  1.949408E+04 -2.799949E+04
        29   7 -1.016804E+05  1.783868E+05  2.570497E+03  8.232309E+04  1.313066E+04  7.983104E+04
        29   8 -2.070114E+05  3.764866E+04 -7.965702E+04  4.135418E+03  1.763759E+04  2.584489E+04
        29   9 -1.867706E+05 -6.294805E+04 -9.499336E+04  5.193433E+04  1.949675E+04 -2.812661E+04
        29  10  2.165009E+05  1.457015E+06  3.157418E+05  4.776211E+04 -1.051591E-09 -7.516412E-10
        29  11  1.710113E+05  1.557654E+06  2.917091E+05  4.540044E+00 -1.288273E-09 -2.722546E-09
        29  12  2.512799E+05  1.698697E+06  3.358546E+05  7.821463E+04 -3.333662E-09 -2.579868E-09
        29  13  5.742388E+04  8.175113E+05  1.591649E+05  6.505106E+04 -3.665936E-09  1.908458E-10
        29  14 -1.797896E+04  7.973883E+05  1.060462E+05  2.070974E+03 -6.090080E-09 -6.494433E-11
        29  15  3.228265E+04  8.175208E+05  1.204578E+05  6.506522E+04 -2.896134E-09  1.494634E-10
        29  16 -1.016823E+05  1.783799E+05  2.558201E+03  8.232225E+04 -1.587968E-09  7.331002E-10
        29  17 -2.070119E+05  3.764786E+04 -7.965886E+04  4.135051E+03  1.354159E-09  2.859810E-09
        29  18 -1.867712E+05 -6.294900E+04 -9.499556E+04  5.193477E+04  2.901779E-09  2.623650E-09
        29  19  2.165030E+05  1.457023E+06  3.157554E+05  4.776300E+04 -1.312168E+04 -8.413415E+04
        29  20  1.710119E+05  1.557655E+06  2.917112E+05  4.939185E+00 -1.763165E+04 -2.813422E+04
        29  21  2.512805E+05  1.698698E+06  3.358568E+05  7.821420E+04 -1.949142E+04  2.787216E+04
        29  22  5.742586E+04  8.175185E+05  1.591778E+05  6.505193E+04 -1.312623E+04 -8.198151E+04
        29  23 -1.797843E+04  7.973892E+05  1.060481E+05  2.071357E+03 -1.763462E+04 -2.698887E+04
        29  24  3.228327E+04  8.175218E+05  1.204600E+05  6.506478E+04 -1.949408E+04  2.799949E+04
        29  25 -1.016804E+05  1.783868E+05  2.570497E+03  8.232309E+04 -1.313066E+04 -7.983104E+04
        29  26 -2.070114E+05  3.764866E+04 -7.965702E+04  4.135418E+03 -1.763759E+04 -2.584489E+04
        29  27 -1.867706E+05 -6.294805E+04 -9.499336E+04  5.193433E+04 -1.949675E+04  2.812661E+04
        30   1  2.773107E+05  1.970093E+06  4.070184E+05  3.253347E+04  2.603402E+04 -4.344236E+04
        30   2  2.595337E+05  2.040546E+06  4.760226E+05  1.494403E+04  3.191564E+04 -1.438541E+05
        30   3  6.243616E+05  2.224254E+06  7.068431E+05  1.300057E+05  1.195069E+04 -2.443869E+05
        30   4 -5.418762E+03  8.332862E+05  1.293258E+05  6.616095E+04  2.605080E+04 -5.007074E+04
        30   5 -5.415201E+04  7.773251E+05  1.681422E+05  4.528465E+02  3.191382E+04 -1.409952E+05
        30   6  2.784848E+05  8.331842E+05  3.624269E+05  6.739977E+04  1.192270E+04 -2.320191E+05
        30   7 -2.882395E+05 -3.023438E+05 -1.484603E+05  9.972751E+04  2.606689E+04 -5.668698E+04
        30   8 -3.679543E+05 -4.844442E+05 -1.398540E+05 -1.400759E+04  3.191187E+04 -1.381418E+05
        30   9 -6.752081E+04 -5.561237E+05  1.786979E+04  4.935646E+03  1.189222E+04 -2.196784E+05
        30  10  2.773095E+05  1.970091E+06  4.070136E+05  3.253438E+04 -3.135796E-09 -1.153549E-09
        30  11  2.595271E+05  2.040524E+06  4.759820E+05  1.494773E+04 -1.718123E-09 -2.897875E-10
        30  12  6.243455E+05  2.224190E+06  7.067310E+05  1.300081E+05  1.904991E-09  9.754404E-10
        30  13 -5.420163E+03  8.332833E+05  1.293199E+05  6.616200E+04 -1.646344E-09  6.328085E-10
        30  14 -5.415843E+04  7.773035E+05  1.681030E+05  4.564688E+02  5.447882E-10  2.883090E-11
        30  15  2.784702E+05  8.331264E+05  3.623256E+05  6.740200E+04  4.311987E-10  2.816973E-10
        30  16 -2.882411E+05 -3.023474E+05 -1.484676E+05  9.972870E+04 -1.594612E-10  9.633218E-10
        30  17 -3.679605E+05 -4.844649E+05 -1.398918E+05 -1.400404E+04 -3.903567E-09  7.177722E-10
        30  18 -6.753393E+04 -5.561755E+05  1.777876E+04  4.937750E+03 -2.040213E-09 -7.898189E-10
        30  19  2.773107E+05  1.970093E+06  4.070184E+05  3.253347E+04 -2.603402E+04  4.344236E+04
        30  20  2.595337E+05  2.040546E+06  4.760226E+05  1.494403E+04 -3.191564E+04  1.438541E+05
        30  21  6.243616E+05  2.224254E+06  7.068431E+05  1.300057E+05 -1.195069E+04  2.443869E+05
        30  22 -5.418762E+03  8.332862E+05  1.293258E+05  6.616095E+04 -2.605080E+04  5.007074E+04
        30  23 -5.415201E+04  7.773251E+05  1.681422E+05  4.528465E+02 -3.191382E+04  1.409952E+05
        30  24  2.784848E+05  8.331842E+05  3.624269E+05  6.739977E+04 -1.192270E+04  2.320191E+05
        30  25 -2.882395E+05 -3.023438E+05 -1.484603E+05  9.972751E+04 -2.606689E+04  5.668698E+04
        30  26 -3.679543E+05 -4.844442E+05 -1.398540E+05 -1.400759E+04 -3.191187E+04  1.381418E+05
        30  27 -6.752081E+04 -5.561237E+05  1.786979E+04  4.935646E+03 -1.189222E+04  2.196784E+05
        31   1 -2.536342E+06 -5.057818E+05 -1.755945E+05 -9.272185E+05 -8.739648E+04 -3.138059E+04
        31   2 -2.506487E+06 -3.708075E+05 -9.178119E+04 -9.396936E+05 -5.659972E+04 -1.724086E+04
        31   3 -2.519126E+06 -3.763294E+05 -6.719380E+04 -9.305551E+05 -2.469426E+04 -6.058045E+03
        31   4 -2.405057E+06 -4.349088E+05 -1.353515E+05 -8.696732E+05 -8.614866E+04 -3.091652E+04
        31   5 -2.377036E+06 -3.162993E+05 -5.573361E+04 -8.986216E+05 -5.633948E+04 -1.714403E+04
        31   6 -2.391302E+06 -3.379734E+05 -3.454694E+04 -9.059595E+05 -2.542173E+04 -6.330151E+03
        31   7 -2.273756E+06 -3.640291E+05 -9.511034E+04 -8.121155E+05 -8.490056E+04 -3.045223E+04
        31   8 -2.247569E+06 -2.617892E+05 -1.968773E+04 -8.575415E+05 -5.607918E+04 -1.704717E+04
        31   9 -2.263461E+06 -2.996178E+05 -1.901340E+03 -8.813599E+05 -2.614937E+04 -6.602289E+03
        31  10 -2.536350E+06 -5.057849E+05 -1.756108E+05 -9.272207E+05  3.789950E-09 -3.356571E-10
        31  11 -2.506490E+06 -3.708087E+05 -9.178780E+04 -9.396944E+05  2.596174E-09 -9.373392E-10
        31  12 -2.519127E+06 -3.763296E+05 -6.719502E+04 -9.305552E+05  1.208050E-09  1.069378E-09
        31  13 -2.405065E+06 -4.349118E+05 -1.353673E+05 -8.696753E+05 -1.733784E-09 -2.064134E-10
        31  14 -2.377039E+06 -3.163005E+05 -5.574015E+04 -8.986224E+05 -1.847076E-09 -1.707435E-10
        31  15 -2.391302E+06 -3.379737E+05 -3.454824E+04 -9.059596E+05  3.098981E-09  1.967408E-09
        31  16 -2.273764E+06 -3.640320E+05 -9.512569E+04 -8.121176E+05 -4.925865E-10 -6.794827E-10
        31  17 -2.247573E+06 -2.617904E+05 -1.969421E+04 -8.575423E+05 -2.473583E-09 -9.342079E-11
        31  18 -2.263462E+06 -2.996180E+05 -1.902713E+03 -8.813601E+05  1.421104E-09  1.738871E-09
        31  19 -2.536342E+06 -5.057818E+05 -1.755945E+05 -9.272185E+05  8.739648E+04  3.138059E+04
        31  20 -2.506487E+06 -3.708075E+05 -9.178119E+04 -9.396936E+05  5.659972E+04  1.724086E+04
        31  21 -2.519126E+06 -3.763294E+05 -6.719380E+04 -9.305551E+05  2.469426E+04  6.058045E+03
        31  22 -2.405057E+06 -4.349088E+05 -1.353515E+05 -8.696732E+05  8.614866E+04  3.091652E+04
        31  23 -2.377036E+06 -3.162993E+05 -5.573361E+04 -8.986216E+05  5.633948E+04  1.714403E+04
        31  24 -2.391302E+06 -3.379734E+05 -3.454694E+04 -9.059595E+05  2.542173E+04  6.330151E+03
        31  25 -2.273756E+06 -3.640291E+05 -9.511034E+04 -8.121155E+05  8.490056E+04  3.045223E+04
        31  26 -2.247569E+06 -2.617892E+05 -1.968773E+04 -8.575415E+05  5.607918E+04  1.704717E+04
        31  27 -2.263461E+06 -2.996178E+05 -1.901340E+03 -8.813599E+05  2.614937E+04  6.602289E+03
        32   1 -2.472589E+06 -3.885523E+05 -5.211609E+04 -9.239414E+05 -2.002518E+04 -5.178370E+03
        32   2 -2.460483E+06 -3.605449E+05 -3.282555E+04 -9.156625E+05 -1.289161E+04 -2.812580E+03
        32   3 -2.443429E+06 -3.617382E+05 -2.341457E+04 -9.171678E+05 -5.624050E+03 -8.038217E+02
        32   4 -2.386479E+06 -3.534989E+05 -2.831232E+04 -8.978759E+05 -2.005726E+04 -5.190513E+03
        32   5 -2.388071E+06 -3.326182E+05 -1.313280E+04 -8.953360E+05 -1.304271E+04 -2.869196E+03
        32   6 -2.384691E+06 -3.409132E+05 -7.737183E+03 -9.025803E+05 -5.894362E+03 -9.050194E+02
        32   7 -2.300361E+06 -3.184446E+05 -4.509170E+03 -8.718069E+05 -2.008935E+04 -5.202659E+03
        32   8 -2.315654E+06 -3.046911E+05  6.559441E+03 -8.750074E+05 -1.319382E+04 -2.925819E+03
        32   9 -2.325951E+06 -3.200881E+05  7.939822E+03 -8.879918E+05 -6.164701E+03 -1.006226E+03
        32  10 -2.472590E+06 -3.885524E+05 -5.211690E+04 -9.239415E+05  3.663357E-09  2.882047E-09
        32  11 -2.460483E+06 -3.605449E+05 -3.282587E+04 -9.156626E+05  2.981329E-09  3.029810E-10
        32  12 -2.443429E+06 -3.617382E+05 -2.341464E+04 -9.171678E+05  2.815414E-11 -3.552876E-10
        32  13 -2.386479E+06 -3.534990E+05 -2.831313E+04 -8.978760E+05  3.478030E-09  2.031700E-09
        32  14 -2.388071E+06 -3.326182E+05 -1.313314E+04 -8.953360E+05  2.231484E-09  5.900591E-10
        32  15 -2.384691E+06 -3.409132E+05 -7.737250E+03 -9.025803E+05  1.113287E-09 -9.795540E-10
        32  16 -2.300361E+06 -3.184447E+05 -4.509982E+03 -8.718070E+05  2.046202E-09  1.722042E-09
        32  17 -2.315654E+06 -3.046912E+05  6.559097E+03 -8.750074E+05  1.035040E-09 -1.419356E-10
        32  18 -2.325951E+06 -3.200881E+05  7.939748E+03 -8.879918E+05  4.166632E-10  2.244427E-10
        32  19 -2.472589E+06 -3.885523E+05 -5.211609E+04 -9.239414E+05  2.002518E+04  5.178370E+03
        32  20 -2.460483E+06 -3.605449E+05 -3.282555E+04 -9.156625E+05  1.289161E+04  2.812580E+03
        32  21 -2.443429E+06 -3.617382E+05 -2.341457E+04 -9.171678E+05  5.624050E+03  8.038217E+02
        32  22 -2.386479E+06 -3.534989E+05 -2.831232E+04 -8.978759E+05  2.005726E+04  5.190513E+03
        32  23 -2.388071E+06 -3.326182E+05 -1.313280E+04 -8.953360E+05  1.304271E+04  2.869196E+03
        32  24 -2.384691E+06 -3.409132E+05 -7.737183E+03 -9.025803E+05  5.894362E+03  9.050194E+02
        32  25 -2.300361E+06 -3.184446E+05 -4.509170E+03 -8.718069E+05  2.008935E+04  5.202659E+03
        32  26 -2.315654E+06 -3.046911E+05  6.559441E+03 -8.750074E+05  1.319382E+04  2.925819E+03
        32  27 -2.325951E+06 -3.200881E+05  7.939822E+03 -8.879918E+05  6.164701E+03  1.006226E+03
        33   1 -2.405330E+06 -3.513600E+05 -1.191497E+04 -9.077564E+05 -4.416012E+03 -8.228057E+02
        33   2 -2.395381E+06 -3.368425E+05 -4.617008E+03 -8.963986E+05 -2.606313E+03 -8.165144E+02
        33   3 -2.373594E+06 -3.374185E+05  8.936415E+02 -8.993080E+05 -7.829418E+02 -8.466411E+02
        33   4 -2.383898E+06 -3.429958E+05 -6.116251E+03 -9.016258E+05 -4.607743E+03 -8.945877E+02
        33   5 -2.389704E+06 -3.346423E+05 -3.071233E+03 -8.947938E+05 -2.810231E+03 -8.928562E+02
        33   6 -2.383668E+06 -3.413799E+05 -1.803720E+03 -9.022291E+05 -9.990875E+02 -9.275590E+02
        33   7 -2.362467E+06 -3.346315E+05 -3.175558E+02 -8.954951E+05 -4.799483E+03 -9.663730E+02
        33   8 -2.384027E+06 -3.324421E+05 -1.525453E+03 -8.931890E+05 -3.014152E+03 -9.691991E+02
        33   9 -2.393742E+06 -3.453413E+05 -4.501108E+03 -9.051501E+05 -1.215231E+03 -1.008476E+03
        33  10 -2.405330E+06 -3.513600E+05 -1.191501E+04 -9.077564E+05  3.309095E-10 -7.525179E-10
        33  11 -2.395381E+06 -3.368425E+05 -4.617022E+03 -8.963986E+05  1.418792E-09 -4.234161E-10
        33  12 -2.373594E+06 -3.374185E+05  8.936390E+02 -8.993080E+05  6.767309E-11 -1.178286E-09
        33  13 -2.383899E+06 -3.429958E+05 -6.116293E+03 -9.016258E+05 -2.586691E-09 -9.234595E-10
        33  14 -2.389704E+06 -3.346423E+05 -3.071249E+03 -8.947938E+05 -4.145497E-09 -1.736701E-09
        33  15 -2.383668E+06 -3.413799E+05 -1.803723E+03 -9.022291E+05  6.366068E-10 -6.305540E-10
        33  16 -2.362467E+06 -3.346315E+05 -3.176010E+02 -8.954951E+05 -7.645017E-10 -4.718376E-10
        33  17 -2.384027E+06 -3.324421E+05 -1.525472E+03 -8.931890E+05 -7.113708E-10 -3.941364E-10
        33  18 -2.393742E+06 -3.453413E+05 -4.501113E+03 -9.051501E+05 -8.725875E-10  1.373769E-10
        33  19 -2.405330E+06 -3.513600E+05 -1.191497E+04 -9.077564E+05  4.416012E+03  8.228057E+02
        33  20 -2.395381E+06 -3.368425E+05 -4.617008E+03 -8.963986E+05  2.606313E+03  8.165144E+02
        33  21 -2.373594E+06 -3.374185E+05  8.936415E+02 -8.993080E+05  7.829418E+02  8.466411E+02
        33  22 -2.383898E+06 -3.429958E+05 -6.116251E+03 -9.016258E+05  4.607743E+03  8.945877E+02
        33  23 -2.389704E+06 -3.346423E+05 -3.071233E+03 -8.947938E+05  2.810231E+03  8.928562E+02
        33  24 -2.383668E+06 -3.413799E+05 -1.803720E+03 -9.022291E+05  9.990875E+02  9.275590E+02
        33  25 -2.362467E+06 -3.346315E+05 -3.175558E+02 -8.954951E+05  4.799483E+03  9.663730E+02
        33  26 -2.384027E+06 -3.324421E+05 -1.525453E+03 -8.931890E+05  3.014152E+03  9.691991E+02
        33  27 -2.393742E+06 -3.453413E+05 -4.501108E+03 -9.051501E+05  1.215231E+03  1.008476E+03
        34   1 -2.337233E+06 -3.240436E+05  1.117698E+04 -8.893971E+05 -3.841570E+02 -1.121072E+03
        34   2 -2.328021E+06 -3.118003E+05  1.582945E+04 -8.781475E+05  2.715943E+02 -1.572506E+03
        34   3 -2.306575E+06 -3.122855E+05  2.007784E+04 -8.810686E+05  9.174772E+02 -1.997239E+03
        34   4 -2.383674E+06 -3.415120E+05 -1.429784E+03 -9.019623E+05 -5.939546E+02 -1.199623E+03
        34   5 -2.389778E+06 -3.350609E+05 -8.620209E+02 -8.949089E+05  7.072729E+01 -1.647733E+03
        34   6 -2.383650E+06 -3.413400E+05 -7.053844E+02 -9.020264E+05  7.255297E+02 -2.069147E+03
        34   7 -2.430113E+06 -3.589802E+05 -1.403667E+04 -9.145265E+05 -8.037338E+02 -1.278166E+03
        34   8 -2.451531E+06 -3.583212E+05 -1.755378E+04 -9.116688E+05 -1.301170E+02 -1.722953E+03
        34   9 -2.460718E+06 -3.703940E+05 -2.148912E+04 -9.229818E+05  5.336087E+02 -2.141045E+03
        34  10 -2.337233E+06 -3.240436E+05  1.117698E+04 -8.893971E+05 -1.655492E-09 -7.786621E-10
        34  11 -2.328021E+06 -3.118003E+05  1.582945E+04 -8.781475E+05 -6.551338E-10  6.539296E-10
        34  12 -2.306575E+06 -3.122855E+05  2.007783E+04 -8.810686E+05  3.180595E-09  2.888411E-10
        34  13 -2.383674E+06 -3.415120E+05 -1.429787E+03 -9.019623E+05  2.930994E-10 -3.306725E-10
        34  14 -2.389778E+06 -3.350609E+05 -8.620260E+02 -8.949089E+05  7.854298E-10  8.921445E-10
        34  15 -2.383650E+06 -3.413400E+05 -7.053934E+02 -9.020264E+05  6.150733E-09 -3.372019E-10
        34  16 -2.430113E+06 -3.589802E+05 -1.403667E+04 -9.145265E+05  9.910407E-10  1.800996E-10
        34  17 -2.451531E+06 -3.583212E+05 -1.755379E+04 -9.116688E+05 -2.828050E-09 -1.482042E-09
        34  18 -2.460718E+06 -3.703940E+05 -2.148913E+04 -9.229818E+05  3.146940E-09 -1.194783E-09
        34  19 -2.337233E+06 -3.240436E+05  1.117698E+04 -8.893971E+05  3.841570E+02  1.121072E+03
        34  20 -2.328021E+06 -3.118003E+05  1.582945E+04 -8.781475E+05 -2.715943E+02  1.572506E+03
        34  21 -2.306575E+06 -3.122855E+05  2.007784E+04 -8.810686E+05 -9.174772E+02  1.997239E+03
        34  22 -2.383674E+06 -3.415120E+05 -1.429784E+03 -9.019623E+05  5.939546E+02  1.199623E+03
        34  23 -2.389778E+06 -3.350609E+05 -8.620209E+02 -8.949089E+05 -7.072729E+01  1.647733E+03
        34  24 -2.383650E+06 -3.413400E+05 -7.053844E+02 -9.020264E+05 -7.255297E+02  2.069147E+03
        34  25 -2.430113E+06 -3.589802E+05 -1.403667E+04 -9.145265E+05  8.037338E+02  1.278166E+03
        34  26 -2.451531E+06 -3.583212E+05 -1.755378E+04 -9.116688E+05  1.301170E+02  1.722953E+03
        34  27 -2.460718E+06 -3.703940E+05 -2.148912E+04 -9.229818E+05 -5.336087E+02  2.141045E+03
        35   1 -2.273398E+06 -2.993444E+05  2.923571E+04 -8.716381E+05  1.167922E+03 -2.291085E+03
        35   2 -2.265368E+06 -2.887565E+05  3.261989E+04 -8.617149E+05  1.807244E+03 -2.686791E+03
        35   3 -2.246607E+06 -2.893695E+05  3.560218E+04 -8.641777E+05  2.421341E+03 -3.014514E+03
        35   4 -2.383985E+06 -3.409918E+05 -7.084780E+02 -9.016343E+05  9.693399E+02 -2.365504E+03
        35   5 -2.389363E+06 -3.354907E+05 -8.978359E+02 -8.954030E+05  1.631403E+03 -2.752732E+03
        35   6 -2.384015E+06 -3.411955E+05 -1.507265E+03 -9.015582E+05  2.268228E+03 -3.071972E+03
        35   7 -2.494561E+06 -3.826385E+05 -3.065382E+04 -9.316257E+05  7.707964E+02 -2.439909E+03
        35   8 -2.513343E+06 -3.822241E+05 -3.441697E+04 -9.290852E+05  1.455600E+03 -2.818658E+03
        35   9 -2.521403E+06 -3.930203E+05 -3.861840E+04 -9.389313E+05  2.115152E+03 -3.129417E+03
        35  10 -2.273398E+06 -2.993444E+05  2.923570E+04 -8.716381E+05  3.714943E-09  4.492593E-10
        35  11 -2.265368E+06 -2.887565E+05  3.261987E+04 -8.617149E+05  6.514283E-10  1.456350E-09
        35  12 -2.246607E+06 -2.893695E+05  3.560215E+04 -8.641777E+05 -1.481703E-09  8.120032E-10
        35  13 -2.383985E+06 -3.409918E+05 -7.084902E+02 -9.016343E+05  8.067588E-09 -2.301185E-10
        35  14 -2.389363E+06 -3.354907E+05 -8.978551E+02 -8.954030E+05  5.453462E-09  1.570936E-09
        35  15 -2.384015E+06 -3.411955E+05 -1.507292E+03 -9.015582E+05  5.734298E-10  2.202925E-09
        35  16 -2.494561E+06 -3.826385E+05 -3.065383E+04 -9.316257E+05  5.477960E-09 -5.433186E-11
        35  17 -2.513343E+06 -3.822241E+05 -3.441699E+04 -9.290852E+05  4.685768E-09  2.161816E-11
        35  18 -2.521403E+06 -3.930203E+05 -3.861842E+04 -9.389313E+05  1.615310E-10  1.975819E-09
        35  19 -2.273398E+06 -2.993444E+05  2.923571E+04 -8.716381E+05 -1.167922E+03  2.291085E+03
        35  20 -2.265368E+06 -2.887565E+05  3.261989E+04 -8.617149E+05 -1.807244E+03  2.686791E+03
        35  21 -2.246607E+06 -2.893695E+05  3.560218E+04 -8.641777E+05 -2.421341E+03  3.014514E+03
        35  22 -2.383985E+06 -3.409918E+05 -7.084780E+02 -9.016343E+05 -9.693399E+02  2.365504E+03
        35  23 -2.389363E+06 -3.354907E+05 -8.978359E+02 -8.954030E+05 -1.631403E+03  2.752732E+03
        35  24 -2.384015E+06 -3.411955E+05 -1.507265E+03 -9.015582E+05 -2.268228E+03  3.071972E+03
        35  25 -2.494561E+06 -3.826385E+05 -3.065382E+04 -9.316257E+05 -7.707964E+02  2.439909E+03
        35  26 -2.513343E+06 -3.822241E+05 -3.441697E+04 -9.290852E+05 -1.455600E+03  2.818658E+03
        35  27 -2.521403E+06 -3.930203E+05 -3.861840E+04 -9.389313E+05 -2.115152E+03  3.129417E+03
        36   1 -2.219426E+06 -2.782742E+05  4.277683E+04 -8.563711E+05  2.831568E+03 -3.188534E+03
        36   2 -2.213065E+06 -2.696545E+05  4.417268E+04 -8.484592E+05  4.628808E+03 -3.030419E+03
        36   3 -2.199298E+06 -2.717712E+05  4.373892E+04 -8.496047E+05  6.373853E+03 -2.732436E+03
        36   4 -2.384658E+06 -3.403876E+05 -1.903127E+03 -9.010843E+05  2.655879E+03 -3.254491E+03
        36   5 -2.388479E+06 -3.358781E+05 -3.263574E+03 -8.962323E+05  4.499644E+03 -3.078974E+03
        36   6 -2.384905E+06 -3.421148E+05 -6.490996E+03 -9.004377E+05  6.291181E+03 -2.763581E+03
        36   7 -2.549862E+06 -4.024993E+05 -4.658543E+04 -9.457866E+05  2.480242E+03 -3.320429E+03
        36   8 -2.563863E+06 -4.021000E+05 -5.070258E+04 -9.439932E+05  4.370520E+03 -3.127514E+03
        36   9 -2.570479E+06 -4.124565E+05 -5.672410E+04 -9.512571E+05  6.208535E+03 -2.794716E+03
        36  10 -2.219426E+06 -2.782742E+05  4.277679E+04 -8.563711E+05 -1.258996E-09  1.184865E-09
        36  11 -2.213065E+06 -2.696545E+05  4.417262E+04 -8.484592E+05 -1.673009E-10 -1.212181E-09
        36  12 -2.199298E+06 -2.717712E+05  4.373883E+04 -8.496046E+05 -1.096708E-09 -1.601837E-09
        36  13 -2.384658E+06 -3.403876E+05 -1.903160E+03 -9.010843E+05  1.796185E-09  8.573446E-10
        36  14 -2.388479E+06 -3.358781E+05 -3.263630E+03 -8.962323E+05  1.992925E-09 -2.234770E-10
        36  15 -2.384905E+06 -3.421148E+05 -6.491085E+03 -9.004377E+05 -4.350885E-10 -8.453651E-10
        36  16 -2.549862E+06 -4.024993E+05 -4.658547E+04 -9.457866E+05  1.356616E-09  8.008161E-10
        36  17 -2.563863E+06 -4.021000E+05 -5.070263E+04 -9.439932E+05  1.789591E-09  7.304928E-10
        36  18 -2.570479E+06 -4.124565E+05 -5.672419E+04 -9.512571E+05  9.134235E-10 -4.442791E-10
        36  19 -2.219426E+06 -2.782742E+05  4.277683E+04 -8.563711E+05 -2.831568E+03  3.188534E+03
        36  20 -2.213065E+06 -2.696545E+05  4.417268E+04 -8.484592E+05 -4.628808E+03  3.030419E+03
        36  21 -2.199298E+06 -2.717712E+05  4.373892E+04 -8.496047E+05 -6.373853E+03  2.732436E+03
        36  22 -2.384658E+06 -3.403876E+05 -1.903127E+03 -9.010843E+05 -2.655879E+03  3.254491E+03
        36  23 -2.388479E+06 -3.358781E+05 -3.263574E+03 -8.962323E+05 -4.499644E+03  3.078974E+03
        36  24 -2.384905E+06 -3.421148E+05 -6.490996E+03 -9.004377E+05 -6.291181E+03  2.763581E+03
        36  25 -2.549862E+06 -4.024993E+05 -4.658543E+04 -9.457866E+05 -2.480242E+03  3.320429E+03
        36  26 -2.563863E+06 -4.021000E+05 -5.070258E+04 -9.439932E+05 -4.370520E+03  3.127514E+03
        36  27 -2.570479E+06 -4.124565E+05 -5.672410E+04 -9.512571E+05 -6.208535E+03  2.794716E+03
        37   1 -2.179950E+06 -2.628657E+05  4.734164E+04 -8.460887E+05  7.797248E+03 -2.501737E+03
        37   2 -2.174840E+06 -2.540080E+05  4.328555E+04 -8.393795E+05  1.507219E+04 -1.394045E+02
        37   3 -2.172099E+06 -2.682845E+05  2.901545E+04 -8.340670E+05  2.213273E+04  2.793786E+03
        37   4 -2.386301E+06 -3.393424E+05 -8.211641E+03 -9.008141E+05  7.591065E+03 -2.579269E+03
        37   5 -2.386052E+06 -3.344320E+05 -1.395474E+04 -8.976108E+05  1.505543E+04 -1.458621E+02
        37   6 -2.388211E+06 -3.526974E+05 -3.006511E+04 -8.958039E+05  2.230529E+04  2.858409E+03
        37   7 -2.592611E+06 -4.158171E+05 -6.376869E+04 -9.555233E+05  7.384958E+03 -2.656774E+03
        37   8 -2.597220E+06 -4.148532E+05 -7.119899E+04 -9.558241E+05  1.503868E+04 -1.523175E+02
        37   9 -2.604278E+06 -4.371066E+05 -8.914981E+04 -9.575210E+05  2.247778E+04  2.923004E+03
        37  10 -2.179950E+06 -2.628657E+05  4.734152E+04 -8.460887E+05 -1.571604E-09 -3.621714E-10
        37  11 -2.174840E+06 -2.540081E+05  4.328512E+04 -8.393795E+05 -3.909886E-09  7.696402E-10
        37  12 -2.172099E+06 -2.682846E+05  2.901451E+04 -8.340670E+05 -3.102540E-09 -1.067459E-10
        37  13 -2.386301E+06 -3.393425E+05 -8.211762E+03 -9.008141E+05  1.158423E-09 -3.157047E-10
        37  14 -2.386052E+06 -3.344321E+05 -1.395517E+04 -8.976108E+05 -2.850979E-09  6.078558E-10
        37  15 -2.388212E+06 -3.526975E+05 -3.006607E+04 -8.958040E+05 -1.265229E-09 -2.875311E-10
        37  16 -2.592611E+06 -4.158172E+05 -6.376881E+04 -9.555233E+05  1.024128E-10 -3.856412E-10
        37  17 -2.597220E+06 -4.148532E+05 -7.119941E+04 -9.558241E+05  1.113424E-10 -2.718020E-11
        37  18 -2.604279E+06 -4.371067E+05 -8.915078E+04 -9.575210E+05  9.633267E-11 -1.256665E-09
        37  19 -2.179950E+06 -2.628657E+05  4.734164E+04 -8.460887E+05 -7.797248E+03  2.501737E+03
        37  20 -2.174840E+06 -2.540080E+05  4.328555E+04 -8.393795E+05 -1.507219E+04  1.394045E+02
        37  21 -2.172099E+06 -2.682845E+05  2.901545E+04 -8.340670E+05 -2.213273E+04 -2.793786E+03
        37  22 -2.386301E+06 -3.393424E+05 -8.211641E+03 -9.008141E+05 -7.591065E+03  2.579269E+03
        37  23 -2.386052E+06 -3.344320E+05 -1.395474E+04 -8.976108E+05 -1.505543E+04  1.458621E+02
        37  24 -2.388211E+06 -3.526974E+05 -3.006511E+04 -8.958039E+05 -2.230529E+04 -2.858409E+03
        37  25 -2.592611E+06 -4.158171E+05 -6.376869E+04 -9.555233E+05 -7.384958E+03  2.656774E+03
        37  26 -2.597220E+06 -4.148532E+05 -7.119899E+04 -9.558241E+05 -1.503868E+04  1.523175E+02
        37  27 -2.604278E+06 -4.371066E+05 -8.914981E+04 -9.575210E+05 -2.247778E+04 -2.923004E+03
        38   1 -2.158303E+06 -2.573584E+05  2.489692E+04 -8.505073E+05  2.880409E+04  4.477747E+03
        38   2 -2.148635E+06 -2.264415E+05  2.798315E+03 -8.340078E+05  6.004625E+04  1.586356E+04
        38   3 -2.193239E+06 -3.344185E+05 -8.017937E+04 -7.833476E+05  8.967056E+04  3.154843E+04
        38   4 -2.393728E+06 -3.358207E+05 -3.668837E+04 -9.039443E+05  2.796667E+04  4.163174E+03
        38   5 -2.373799E+06 -3.176262E+05 -5.919957E+04 -9.016969E+05  6.064190E+04  1.608686E+04
        38   6 -2.408448E+06 -4.386426E+05 -1.437462E+05 -8.652834E+05  9.169946E+04  3.230846E+04
        38   7 -2.629099E+06 -4.142827E+05 -9.827835E+04 -9.573644E+05  2.712960E+04  3.848697E+03
        38   8 -2.598915E+06 -4.088060E+05 -1.212022E+05 -9.693631E+05  6.123731E+04  1.631006E+04
        38   9 -2.623611E+06 -5.428546E+05 -2.073176E+05 -9.471905E+05  9.372759E+04  3.306800E+04
        38  10 -2.158304E+06 -2.573586E+05  2.489532E+04 -8.505074E+05 -8.785232E-10 -1.341751E-09
        38  11 -2.148639E+06 -2.264427E+05  2.791038E+03 -8.340086E+05  2.546485E-09 -8.752930E-10
        38  12 -2.193248E+06 -3.344218E+05 -8.019642E+04 -7.833499E+05  2.088906E-09 -1.238277E-10
        38  13 -2.393729E+06 -3.358209E+05 -3.668988E+04 -9.039444E+05  2.026894E-09 -1.508090E-09
        38  14 -2.373803E+06 -3.176275E+05 -5.920700E+04 -9.016977E+05 -2.535819E-09  1.632196E-09
        38  15 -2.408457E+06 -4.386460E+05 -1.437641E+05 -8.652858E+05  1.025734E-09  4.050461E-10
        38  16 -2.629100E+06 -4.142830E+05 -9.827976E+04 -9.573645E+05  8.774836E-10 -1.205392E-10
        38  17 -2.598919E+06 -4.088073E+05 -1.212098E+05 -9.693639E+05 -8.744032E-10  3.757382E-10
        38  18 -2.623621E+06 -5.428581E+05 -2.073363E+05 -9.471930E+05 -4.176522E-10  1.065748E-10
        38  19 -2.158303E+06 -2.573584E+05  2.489692E+04 -8.505073E+05 -2.880409E+04 -4.477747E+03
        38  20 -2.148635E+06 -2.264415E+05  2.798315E+03 -8.340078E+05 -6.004625E+04 -1.586356E+04
        38  21 -2.193239E+06 -3.344185E+05 -8.017937E+04 -7.833476E+05 -8.967056E+04 -3.154843E+04
        38  22 -2.393728E+06 -3.358207E+05 -3.668837E+04 -9.039443E+05 -2.796667E+04 -4.163174E+03
        38  23 -2.373799E+06 -3.176262E+05 -5.919957E+04 -9.016969E+05 -6.064190E+04 -1.608686E+04
        38  24 -2.408448E+06 -4.386426E+05 -1.437462E+05 -8.652834E+05 -9.169946E+04 -3.230846E+04
        38  25 -2.629099E+06 -4.142827E+05 -9.827835E+04 -9.573644E+05 -2.712960E+04 -3.848697E+03
        38  26 -2.598915E+06 -4.088060E+05 -1.212022E+05 -9.693631E+05 -6.123731E+04 -1.631006E+04
        38  27 -2.623611E+06 -5.428546E+05 -2.073176E+05 -9.471905E+05 -9.372759E+04 -3.306800E+04
        39   1 -6.898068E+05  1.493678E+05  1.917967E+05  3.534754E+04  1.309514E+05  7.463922E+00
        39   2 -7.176086E+05 -2.795353E+04  8.292791E+04  9.612211E+03  8.593101E+04  1.331929E+00
        39   3 -6.898692E+05 -6.655734E+03  5.305726E+04 -1.612205E+04  4.091000E+04 -1.063503E+00
        39   4 -6.898082E+05  1.493655E+05  1.917964E+05  1.540230E-08  1.309514E+05  5.757986E-11
        39   5 -7.176087E+05 -2.795371E+04  8.292789E+04  6.714926E-09  8.593101E+04  8.646516E-10
        39   6 -6.898695E+05 -6.656223E+03  5.305719E+04  1.634051E-08  4.091000E+04 -8.916365E-10
        39   7 -6.898068E+05  1.493678E+05  1.917967E+05 -3.534754E+04  1.309514E+05 -7.463922E+00
        39   8 -7.176086E+05 -2.795353E+04  8.292791E+04 -9.612211E+03  8.593101E+04 -1.331929E+00
        39   9 -6.898692E+05 -6.655734E+03  5.305726E+04  1.612205E+04  4.091000E+04  1.063503E+00
        39  10 -6.898252E+05  1.493632E+05  1.917645E+05  3.534754E+04 -2.953174E-10  4.234157E-10
        39  11 -7.176165E+05 -2.795552E+04  8.291402E+04  9.612211E+03  2.372320E-09  4.948296E-10
        39  12 -6.898710E+05 -6.656184E+03  5.305411E+04 -1.612205E+04  1.974342E-09 -5.466369E-10
        39  13 -6.898266E+05  1.493609E+05  1.917641E+05 -1.791609E-09 -2.086278E-09  3.251214E-10
        39  14 -7.176166E+05 -2.795569E+04  8.291400E+04 -1.913411E-08 -6.984849E-10  5.863935E-10
        39  15 -6.898713E+05 -6.656673E+03  5.305404E+04 -2.785976E-08  1.850986E-09 -5.874591E-10
        39  16 -6.898252E+05  1.493632E+05  1.917645E+05 -3.534754E+04 -7.730453E-10  2.688919E-10
        39  17 -7.176165E+05 -2.795552E+04  8.291402E+04 -9.612211E+03 -1.537637E-09  5.884683E-10
        39  18 -6.898710E+05 -6.656184E+03  5.305411E+04  1.612205E+04  3.323177E-09 -5.570176E-10
        39  19 -6.898068E+05  1.493678E+05  1.917967E+05  3.534754E+04 -1.309514E+05 -7.463922E+00
        39  20 -7.176086E+05 -2.795353E+04  8.292791E+04  9.612211E+03 -8.593101E+04 -1.331929E+00
        39  21 -6.898692E+05 -6.655734E+03  5.305726E+04 -1.612205E+04 -4.091000E+04  1.063503E+00
        39  22 -6.898082E+05  1.493655E+05  1.917964E+05 -1.751726E-09 -1.309514E+05  5.712494E-10
        39  23 -7.176087E+05 -2.795371E+04  8.292789E+04 -6.230660E-09 -8.593101E+04  2.533950E-10
        39  24 -6.898695E+05 -6.656223E+03  5.305719E+04  3.343654E-08 -4.091000E+04 -1.899509E-10
        39  25 -6.898068E+05  1.493678E+05  1.917967E+05 -3.534754E+04 -1.309514E+05  7.463922E+00
        39  26 -7.176086E+05 -2.795353E+04  8.292791E+04 -9.612211E+03 -8.593101E+04  1.331929E+00
        39  27 -6.898692E+05 -6.655734E+03  5.305726E+04  1.612205E+04 -4.091000E+04 -1.063503E+00
        40   1 -7.004724E+05  1.892246E+04  4.359767E+04  4.167203E+03  3.241827E+04  2.178367E-01
        40   2 -7.043618E+05 -3.579759E+03  2.152769E+04  1.022021E+03  2.127002E+04  3.505305E-02
        40   3 -7.004824E+05 -8.276780E+02  1.303589E+04 -2.123116E+03  1.012201E+04 -3.465259E-02
        40   4 -7.004725E+05  1.892243E+04  4.359766E+04  8.068827E-09  3.241827E+04 -1.107486E-09
        40   5 -7.043618E+05 -3.579761E+03  2.152769E+04  4.670268E-08  2.127002E+04 -3.827505E-11
        40   6 -7.004824E+05 -8.276865E+02  1.303589E+04  5.664333E-09  1.012201E+04  9.265014E-10
        40   7 -7.004724E+05  1.892246E+04  4.359767E+04 -4.167203E+03  3.241827E+04 -2.178367E-01
        40   8 -7.043618E+05 -3.579759E+03  2.152769E+04 -1.022021E+03  2.127002E+04 -3.505305E-02
        40   9 -7.004824E+05 -8.276780E+02  1.303589E+04  2.123116E+03  1.012201E+04  3.465259E-02
        40  10 -7.004736E+05  1.892218E+04  4.359569E+04  4.167203E+03  6.429290E-10 -9.356297E-10
        40  11 -7.043622E+05 -3.579880E+03  2.152684E+04  1.022021E+03  3.907204E-09  3.116973E-10
        40  12 -7.004825E+05 -8.277055E+02  1.303570E+04 -2.123116E+03  3.533850E-09  1.129408E-09
        40  13 -7.004736E+05  1.892215E+04  4.359568E+04 -1.773806E-08 -2.522759E-11 -7.419108E-10
        40  14 -7.043622E+05 -3.579882E+03  2.152684E+04 -1.357429E-08  8.409172E-12  2.207365E-10
        40  15 -7.004825E+05 -8.277140E+02  1.303570E+04 -2.232946E-08  7.235052E-10  4.109346E-10
        40  16 -7.004736E+05  1.892218E+04  4.359569E+04 -4.167203E+03 -7.321346E-10 -5.516247E-10
        40  17 -7.043622E+05 -3.579880E+03  2.152684E+04 -1.022021E+03 -8.823338E-10  1.835598E-10
        40  18 -7.004825E+05 -8.277055E+02  1.303570E+04  2.123116E+03 -6.473798E-10 -1.315130E-10
        40  19 -7.004724E+05  1.892246E+04  4.359767E+04  4.167203E+03 -3.241827E+04 -2.178367E-01
        40  20 -7.043618E+05 -3.579759E+03  2.152769E+04  1.022021E+03 -2.127002E+04 -3.505305E-02
        40  21 -7.004824E+05 -8.276780E+02  1.303589E+04 -2.123116E+03 -1.012201E+04  3.465259E-02
        40  22 -7.004725E+05  1.892243E+04  4.359766E+04  8.147176E-09 -3.241827E+04 -4.053206E-10
        40  23 -7.043618E+05 -3.579761E+03  2.152769E+04 -1.355433E-08 -2.127002E+04  3.827976E-10
        40  24 -7.004824E+05 -8.276865E+02  1.303589E+04 -1.877577E-09 -1.012201E+04 -6.580200E-11
        40  25 -7.004724E+05  1.892246E+04  4.359767E+04 -4.167203E+03 -3.241827E+04  2.178367E-01
        40  26 -7.043618E+05 -3.579759E+03  2.152769E+04 -1.022021E+03 -2.127002E+04  3.505305E-02
        40  27 -7.004824E+05 -8.276780E+02  1.303589E+04  2.123116E+03 -1.012201E+04 -3.465259E-02
        41   1 -7.019501E+05  2.374698E+03  1.029843E+04  4.448560E+02  8.041666E+03  5.768485E-03
        41   2 -7.025296E+05 -4.586977E+02  5.447446E+03  7.896611E+01  5.286408E+03  6.731281E-04
        41   3 -7.019519E+05 -1.007094E+02  3.189695E+03 -2.869298E+02  2.531118E+03 -1.171073E-03
        41   4 -7.019501E+05  2.374698E+03  1.029843E+04 -1.701760E-08  8.041666E+03  1.090512E-09
        41   5 -7.025296E+05 -4.586977E+02  5.447446E+03 -3.320346E-08  5.286408E+03  6.184221E-10
        41   6 -7.019519E+05 -1.007095E+02  3.189695E+03 -9.393153E-10  2.531118E+03 -2.198518E-11
        41   7 -7.019501E+05  2.374698E+03  1.029843E+04 -4.448560E+02  8.041666E+03 -5.768483E-03
        41   8 -7.025296E+05 -4.586977E+02  5.447446E+03 -7.896611E+01  5.286408E+03 -6.731274E-04
        41   9 -7.019519E+05 -1.007094E+02  3.189695E+03  2.869298E+02  2.531118E+03  1.171073E-03
        41  10 -7.019502E+05  2.374681E+03  1.029831E+04  4.448560E+02 -7.482794E-10  6.742859E-10
        41  11 -7.025297E+05 -4.587052E+02  5.447393E+03  7.896611E+01 -2.539021E-09 -2.173026E-10
        41  12 -7.019519E+05 -1.007111E+02  3.189683E+03 -2.869298E+02 -6.361528E-10 -4.774190E-10
        41  13 -7.019502E+05  2.374680E+03  1.029831E+04  2.161657E-10  2.111309E-09  4.163580E-10
        41  14 -7.025297E+05 -4.587052E+02  5.447393E+03  1.236468E-09  2.026199E-09  2.994478E-10
        41  15 -7.019519E+05 -1.007113E+02  3.189683E+03 -2.049883E-09 -2.528134E-09 -4.153399E-10
        41  16 -7.019502E+05  2.374681E+03  1.029831E+04 -4.448560E+02  9.120117E-11  5.869420E-11
        41  17 -7.025297E+05 -4.587052E+02  5.447393E+03 -7.896611E+01  1.129604E-09  9.073371E-10
        41  18 -7.019519E+05 -1.007111E+02  3.189683E+03  2.869298E+02  1.782859E-10 -3.439505E-10
        41  19 -7.019501E+05  2.374698E+03  1.029843E+04  4.448560E+02 -8.041666E+03 -5.768483E-03
        41  20 -7.025296E+05 -4.586977E+02  5.447446E+03  7.896611E+01 -5.286408E+03 -6.731284E-04
        41  21 -7.019519E+05 -1.007094E+02  3.189695E+03 -2.869298E+02 -2.531118E+03  1.171072E-03
        41  22 -7.019501E+05  2.374698E+03  1.029843E+04  8.843958E-09 -8.041666E+03 -2.718244E-10
        41  23 -7.025296E+05 -4.586977E+02  5.447446E+03  1.844658E-08 -5.286408E+03 -4.212836E-11
        41  24 -7.019519E+05 -1.007095E+02  3.189695E+03  7.595985E-09 -2.531118E+03 -8.091198E-10
        41  25 -7.019501E+05  2.374698E+03  1.029843E+04 -4.448560E+02 -8.041666E+03  5.768482E-03
        41  26 -7.025296E+05 -4.586977E+02  5.447446E+03 -7.896611E+01 -5.286408E+03  6.731282E-04
        41  27 -7.019519E+05 -1.007094E+02  3.189695E+03  2.869298E+02 -2.531118E+03 -1.171074E-03
        42   1 -7.021685E+05  2.926050E+02  2.451563E+03  3.382399E+01  2.024312E+03  1.104073E-04
        42   2 -7.022597E+05 -5.735678E+01  1.300434E+03 -3.383484E+00  1.374230E+03 -7.497943E-06
        42   3 -7.021689E+05 -1.851502E+01  6.700986E+02 -4.059098E+01  7.241489E+02 -4.739551E-05
        42   4 -7.021685E+05  2.926050E+02  2.451563E+03  4.936256E-09  2.024312E+03 -4.112023E-10
        42   5 -7.022597E+05 -5.735678E+01  1.300434E+03 -3.527205E-08  1.374230E+03 -3.388595E-10
        42   6 -7.021689E+05 -1.851502E+01  6.700986E+02  5.268760E-09  7.241489E+02  9.388911E-10
        42   7 -7.021685E+05  2.926050E+02  2.451563E+03 -3.382399E+01  2.024312E+03 -1.104081E-04
        42   8 -7.022597E+05 -5.735678E+01  1.300434E+03  3.383484E+00  1.374230E+03  7.496813E-06
        42   9 -7.021689E+05 -1.851502E+01  6.700986E+02  4.059098E+01  7.241489E+02  4.739794E-05
        42  10 -7.021685E+05  2.926039E+02  2.451555E+03  3.382399E+01  2.323395E-09 -2.175703E-10
        42  11 -7.022597E+05 -5.735729E+01  1.300430E+03 -3.383484E+00 -2.460142E-10  5.469155E-10
        42  12 -7.021689E+05 -1.851516E+01  6.700976E+02 -4.059098E+01 -6.194622E-10  6.345497E-10
        42  13 -7.021685E+05  2.926039E+02  2.451555E+03 -1.224603E-08 -1.874186E-09 -3.697624E-10
        42  14 -7.022597E+05 -5.735729E+01  1.300430E+03 -4.387646E-08 -3.356977E-09  4.055798E-10
        42  15 -7.021689E+05 -1.851516E+01  6.700976E+02 -5.396828E-08  6.805380E-10  2.230948E-10
        42  16 -7.021685E+05  2.926039E+02  2.451555E+03 -3.382399E+01 -3.731124E-10 -5.726618E-10
        42  17 -7.022597E+05 -5.735729E+01  1.300430E+03  3.383484E+00  1.307446E-09  2.295603E-10
        42  18 -7.021689E+05 -1.851516E+01  6.700976E+02  4.059098E+01  3.648169E-09 -2.002693E-10
        42  19 -7.021685E+05  2.926050E+02  2.451563E+03  3.382399E+01 -2.024312E+03 -1.104075E-04
        42  20 -7.022597E+05 -5.735678E+01  1.300434E+03 -3.383484E+00 -1.374230E+03  7.498729E-06
        42  21 -7.021689E+05 -1.851502E+01  6.700986E+02 -4.059098E+01 -7.241489E+02  4.739718E-05
        42  22 -7.021685E+05  2.926050E+02  2.451563E+03 -3.589586E-09 -2.024312E+03 -3.448750E-10
        42  23 -7.022597E+05 -5.735678E+01  1.300434E+03 -3.525234E-08 -1.374230E+03  1.067266E-09
        42  24 -7.021689E+05 -1.851502E+01  6.700986E+02  2.244370E-08 -7.241489E+02 -5.050786E-10
        42  25 -7.021685E+05  2.926050E+02  2.451563E+03 -3.382399E+01 -2.024312E+03  1.104070E-04
        42  26 -7.022597E+05 -5.735678E+01  1.300434E+03  3.383484E+00 -1.374230E+03 -7.496662E-06
        42  27 -7.021689E+05 -1.851502E+01  6.700986E+02  4.059098E+01 -7.241489E+02 -4.739854E-05
        43   1 -7.022105E+05  3.693059E+01  4.440421E+02 -9.348979E+00  6.236357E+02 -9.400193E-06
        43   2 -7.022080E+05  4.684967E+00  5.650704E+01 -4.064760E+00  5.964453E+02 -3.910068E-06
        43   3 -7.022106E+05 -6.201230E+01 -3.219270E+02  1.219382E+00  5.692553E+02  1.120096E-06
        43   4 -7.022105E+05  3.693059E+01  4.440421E+02 -3.050209E-09  6.236357E+02  6.121917E-10
        43   5 -7.022080E+05  4.684967E+00  5.650704E+01  1.953618E-08  5.964453E+02 -9.544356E-10
        43   6 -7.022106E+05 -6.201230E+01 -3.219270E+02  1.090021E-08  5.692553E+02  6.336532E-10
        43   7 -7.022105E+05  3.693059E+01  4.440421E+02  9.348979E+00  6.236357E+02  9.401191E-06
        43   8 -7.022080E+05  4.684967E+00  5.650704E+01  4.064760E+00  5.964453E+02  3.907907E-06
        43   9 -7.022106E+05 -6.201230E+01 -3.219270E+02 -1.219381E+00  5.692553E+02 -1.118745E-06
        43  10 -7.022105E+05  3.693049E+01  4.440414E+02 -9.348979E+00  1.015639E-09 -1.149243E-11
        43  11 -7.022080E+05  4.684871E+00  5.650637E+01 -4.064760E+00  1.495264E-09 -6.565867E-10
        43  12 -7.022106E+05 -6.201239E+01 -3.219276E+02  1.219382E+00 -4.186402E-09  4.879032E-10
        43  13 -7.022105E+05  3.693049E+01  4.440414E+02  5.523727E-09  1.296860E-09 -4.361102E-10
        43  14 -7.022080E+05  4.684871E+00  5.650637E+01  2.327601E-09  1.330494E-09 -7.960489E-10
        43  15 -7.022106E+05 -6.201239E+01 -3.219276E+02  2.282136E-08  1.225861E-09  5.921577E-10
        43  16 -7.022105E+05  3.693049E+01  4.440414E+02  9.348979E+00 -1.087117E-09 -8.437963E-10
        43  17 -7.022080E+05  4.684871E+00  5.650637E+01  4.064760E+00  1.592490E-09 -8.682114E-10
        43  18 -7.022106E+05 -6.201239E+01 -3.219276E+02 -1.219382E+00  3.270734E-09  7.549886E-10
        43  19 -7.022105E+05  3.693059E+01  4.440421E+02 -9.348979E+00 -6.236357E+02  9.400527E-06
        43  20 -7.022080E+05  4.684967E+00  5.650704E+01 -4.064760E+00 -5.964453E+02  3.908776E-06
        43  21 -7.022106E+05 -6.201230E+01 -3.219270E+02  1.219382E+00 -5.692553E+02 -1.118803E-06
        43  22 -7.022105E+05  3.693059E+01  4.440421E+02  5.489303E-09 -6.236357E+02 -1.462126E-09
        43  23 -7.022080E+05  4.684967E+00  5.650704E+01  1.957350E-08 -5.964453E+02 -6.525406E-10
        43  24 -7.022106E+05 -6.201230E+01 -3.219270E+02  7.887677E-08 -5.692553E+02  5.732499E-10
        43  25 -7.022105E+05  3.693059E+01  4.440421E+02  9.348979E+00 -6.236357E+02 -9.403513E-06
        43  26 -7.022080E+05  4.684967E+00  5.650704E+01  4.064760E+00 -5.964453E+02 -3.910216E-06
        43  27 -7.022106E+05 -6.201230E+01 -3.219270E+02 -1.219382E+00 -5.692553E+02  1.119563E-06
        44   1 -7.022616E+05  2.454742E+01 -5.209435E+02 -6.119562E+01  6.447948E+02 -6.362616E-05
        44   2 -7.021445E+05  9.464736E+01 -1.053776E+03  1.527254E+01  1.178658E+03  2.902544E-05
        44   3 -7.022620E+05 -4.949283E+02 -2.099384E+03  9.174187E+01  1.712529E+03  2.533389E-04
        44   4 -7.022616E+05  2.454741E+01 -5.209435E+02  5.411592E-09  6.447948E+02  6.308996E-10
        44   5 -7.021445E+05  9.464736E+01 -1.053776E+03  6.403270E-09  1.178658E+03 -8.964673E-10
        44   6 -7.022620E+05 -4.949284E+02 -2.099384E+03  4.938350E-08  1.712529E+03  4.190385E-10
        44   7 -7.022616E+05  2.454742E+01 -5.209435E+02  6.119562E+01  6.447948E+02  6.362727E-05
        44   8 -7.021445E+05  9.464736E+01 -1.053776E+03 -1.527254E+01  1.178658E+03 -2.902741E-05
        44   9 -7.022620E+05 -4.949283E+02 -2.099384E+03 -9.174187E+01  1.712529E+03 -2.533378E-04
        44  10 -7.022616E+05  2.454731E+01 -5.209443E+02 -6.119562E+01  1.855335E-10  7.141257E-10
        44  11 -7.021445E+05  9.464699E+01 -1.053779E+03  1.527254E+01  2.299367E-09 -4.207149E-10
        44  12 -7.022620E+05 -4.949291E+02 -2.099390E+03  9.174187E+01  1.271384E-09 -1.057678E-09
        44  13 -7.022616E+05  2.454730E+01 -5.209443E+02  1.397134E-08  1.865976E-09  8.869966E-10
        44  14 -7.021445E+05  9.464699E+01 -1.053779E+03 -2.238208E-09  1.781155E-09 -2.469543E-10
        44  15 -7.022620E+05 -4.949292E+02 -2.099390E+03  4.184892E-08  1.962499E-09 -6.235226E-10
        44  16 -7.022616E+05  2.454731E+01 -5.209443E+02  6.119562E+01  1.784469E-09  1.092150E-09
        44  17 -7.021445E+05  9.464699E+01 -1.053779E+03 -1.527254E+01  2.258574E-10 -1.281760E-10
        44  18 -7.022620E+05 -4.949291E+02 -2.099390E+03 -9.174187E+01  1.256885E-09 -7.433254E-11
        44  19 -7.022616E+05  2.454742E+01 -5.209435E+02 -6.119562E+01 -6.447948E+02  6.362768E-05
        44  20 -7.021445E+05  9.464736E+01 -1.053776E+03  1.527254E+01 -1.178658E+03 -2.902601E-05
        44  21 -7.022620E+05 -4.949283E+02 -2.099384E+03  9.174187E+01 -1.712529E+03 -2.533406E-04
        44  22 -7.022616E+05  2.454741E+01 -5.209435E+02  3.976306E-08 -6.447948E+02  1.068393E-09
        44  23 -7.021445E+05  9.464736E+01 -1.053776E+03 -6.570904E-09 -1.178658E+03  4.694661E-10
        44  24 -7.022620E+05 -4.949284E+02 -2.099384E+03  4.076331E-08 -1.712529E+03 -1.680331E-09
        44  25 -7.022616E+05  2.454742E+01 -5.209435E+02  6.119562E+01 -6.447948E+02 -6.362558E-05
        44  26 -7.021445E+05  9.464736E+01 -1.053776E+03 -1.527254E+01 -1.178658E+03  2.902675E-05
        44  27 -7.022620E+05 -4.949283E+02 -2.099384E+03 -9.174187E+01 -1.712529E+03  2.533372E-04
        45   1 -7.025690E+05  1.727753E+02 -2.681174E+03 -4.429543E+02  2.138588E+03 -1.527502E-03
        45   2 -7.017612E+05  7.459098E+02 -4.466066E+03  2.126426E+02  4.451980E+03  1.526509E-03
        45   3 -7.025710E+05 -3.943336E+03 -9.073922E+03  8.682396E+02  6.765369E+03  9.471679E-03
        45   4 -7.025690E+05  1.727750E+02 -2.681174E+03  4.429272E-08  2.138588E+03  1.218574E-09
        45   5 -7.017612E+05  7.459098E+02 -4.466066E+03  5.445958E-08  4.451980E+03  7.090252E-10
        45   6 -7.025710E+05 -3.943338E+03 -9.073922E+03  7.565902E-09  6.765369E+03  1.007898E-10
        45   7 -7.025690E+05  1.727753E+02 -2.681174E+03  4.429543E+02  2.138588E+03  1.527505E-03
        45   8 -7.017612E+05  7.459098E+02 -4.466066E+03 -2.126426E+02  4.451980E+03 -1.526508E-03
        45   9 -7.025710E+05 -3.943336E+03 -9.073922E+03 -8.682396E+02  6.765369E+03 -9.471679E-03
        45  10 -7.025690E+05  1.727741E+02 -2.681183E+03 -4.429543E+02 -5.232211E-10 -6.771164E-10
        45  11 -7.017613E+05  7.459045E+02 -4.466103E+03  2.126426E+02 -1.371801E-09  7.260934E-10
        45  12 -7.025710E+05 -3.943349E+03 -9.074008E+03  8.682396E+02 -1.083647E-09  8.678965E-10
        45  13 -7.025690E+05  1.727737E+02 -2.681183E+03  3.570852E-08 -2.522727E-11 -2.742003E-10
        45  14 -7.017613E+05  7.459044E+02 -4.466103E+03  4.155397E-08  9.499711E-10  4.764498E-10
        45  15 -7.025710E+05 -3.943350E+03 -9.074008E+03  2.801921E-08  1.726834E-09  5.976591E-10
        45  16 -7.025690E+05  1.727741E+02 -2.681183E+03  4.429543E+02 -7.942210E-10  2.755745E-11
        45  17 -7.017613E+05  7.459045E+02 -4.466103E+03 -2.126426E+02  8.376725E-10  1.940649E-10
        45  18 -7.025710E+05 -3.943349E+03 -9.074008E+03 -8.682396E+02  2.354757E-09  3.388357E-10
        45  19 -7.025690E+05  1.727753E+02 -2.681174E+03 -4.429543E+02 -2.138588E+03  1.527501E-03
        45  20 -7.017612E+05  7.459098E+02 -4.466066E+03  2.126426E+02 -4.451980E+03 -1.526507E-03
        45  21 -7.025710E+05 -3.943336E+03 -9.073922E+03  8.682396E+02 -6.765369E+03 -9.471677E-03
        45  22 -7.025690E+05  1.727750E+02 -2.681174E+03  3.574952E-08 -2.138588E+03 -1.756033E-09
        45  23 -7.017612E+05  7.459098E+02 -4.466066E+03  2.864993E-08 -4.451980E+03  2.478874E-10
        45  24 -7.025710E+05 -3.943338E+03 -9.073922E+03  3.339704E-08 -6.765369E+03  1.071336E-09
        45  25 -7.025690E+05  1.727753E+02 -2.681174E+03  4.429543E+02 -2.138588E+03 -1.527505E-03
        45  26 -7.017612E+05  7.459098E+02 -4.466066E+03 -2.126426E+02 -4.451980E+03  1.526508E-03
        45  27 -7.025710E+05 -3.943336E+03 -9.073922E+03 -8.682396E+02 -6.765369E+03  9.471679E-03
        46   1 -7.047807E+05  1.387290E+03 -1.104772E+04 -3.360012E+03  8.532851E+03 -4.623091E-02
        46   2 -6.989996E+05  5.825655E+03 -1.727373E+04  2.003259E+03  1.791372E+04  5.786509E-02
        46   3 -7.047920E+05 -3.112702E+04 -3.995973E+04  7.366405E+03  2.729449E+04  3.242098E-01
        46   4 -7.047807E+05  1.387268E+03 -1.104772E+04  7.738591E-09  8.532851E+03  2.897412E-11
        46   5 -6.989996E+05  5.825647E+03 -1.727373E+04 -7.417455E-10  1.791372E+04  1.332211E-10
        46   6 -7.047920E+05 -3.112712E+04 -3.995975E+04 -7.068797E-09  2.729449E+04  6.835992E-12
        46   7 -7.047807E+05  1.387290E+03 -1.104772E+04  3.360012E+03  8.532851E+03  4.623091E-02
        46   8 -6.989996E+05  5.825655E+03 -1.727373E+04 -2.003259E+03  1.791372E+04 -5.786509E-02
        46   9 -7.047920E+05 -3.112702E+04 -3.995973E+04 -7.366405E+03  2.729449E+04 -3.242098E-01
        46  10 -7.047808E+05  1.387270E+03 -1.104785E+04 -3.360012E+03 -1.686523E-10  3.356920E-10
        46  11 -6.989999E+05  5.825568E+03 -1.727433E+04  2.003259E+03 -2.023179E-09 -4.090876E-10
        46  12 -7.047928E+05 -3.112722E+04 -3.996113E+04  7.366405E+03  6.204491E-10 -2.193192E-10
        46  13 -7.047808E+05  1.387249E+03 -1.104786E+04  2.494252E-08 -1.649654E-09  2.619841E-10
        46  14 -6.989999E+05  5.825561E+03 -1.727433E+04  3.370687E-08  2.153307E-09 -1.739015E-10
        46  15 -7.047928E+05 -3.112732E+04 -3.996115E+04  2.093589E-08  1.019683E-09 -1.030661E-10
        46  16 -7.047808E+05  1.387270E+03 -1.104785E+04  3.360012E+03  1.388044E-09  1.898871E-10
        46  17 -6.989999E+05  5.825568E+03 -1.727433E+04 -2.003259E+03  1.135396E-09  1.517538E-11
        46  18 -7.047928E+05 -3.112722E+04 -3.996113E+04 -7.366405E+03  2.014963E-09  2.125977E-11
        46  19 -7.047807E+05  1.387290E+03 -1.104772E+04 -3.360012E+03 -8.532851E+03  4.623091E-02
        46  20 -6.989996E+05  5.825655E+03 -1.727373E+04  2.003259E+03 -1.791372E+04 -5.786509E-02
        46  21 -7.047920E+05 -3.112702E+04 -3.995973E+04  7.366405E+03 -2.729449E+04 -3.242098E-01
        46  22 -7.047807E+05  1.387268E+03 -1.104772E+04  5.076404E-08 -8.532851E+03  5.034168E-10
        46  23 -6.989996E+05  5.825647E+03 -1.727373E+04  3.369925E-08 -1.791372E+04 -4.773802E-10
        46  24 -7.047920E+05 -3.112712E+04 -3.995975E+04  1.561033E-09 -2.729449E+04 -2.196432E-10
        46  25 -7.047807E+05  1.387290E+03 -1.104772E+04  3.360012E+03 -8.532851E+03 -4.623091E-02
        46  26 -6.989996E+05  5.825655E+03 -1.727373E+04 -2.003259E+03 -1.791372E+04  5.786509E-02
        46  27 -7.047920E+05 -3.112702E+04 -3.995973E+04 -7.366405E+03 -2.729449E+04  3.242098E-01
        47   1 -1.067686E+05 -2.414828E+06 -1.537388E+05  4.190753E+04  1.793386E+03 -1.370113E+05
        47   2  8.663295E+04 -2.379286E+06 -3.739043E+04  1.105840E+04  5.552444E+03 -8.828007E+04
        47   3  6.308920E+04 -2.404282E+06 -7.061886E+03 -1.427777E+04  5.517679E+03 -3.954878E+04
        47   4 -1.617473E+05 -2.634460E+06 -2.083823E+05  3.495530E+03  1.802032E+03 -1.390046E+05
        47   5  3.057617E+04 -2.603957E+06 -9.241738E+04  7.462326E+02  5.554207E+03 -8.892873E+04
        47   6  5.675649E+03 -2.634247E+06 -6.343032E+04  3.511993E+03  5.516380E+03 -3.885299E+04
        47   7 -2.167240E+05 -2.854045E+06 -2.630286E+05 -3.490283E+04  1.810929E+03 -1.409973E+05
        47   8 -2.548396E+04 -2.828581E+06 -1.474480E+05 -9.562180E+03  5.555993E+03 -8.957715E+04
        47   9 -5.174065E+04 -2.864163E+06 -1.198025E+05  2.129513E+04  5.515121E+03 -3.815747E+04
        47  10 -1.067737E+05 -2.414848E+06 -1.537742E+05  4.190773E+04  5.023587E-10  1.440143E-09
        47  11  8.663082E+04 -2.379295E+06 -3.740519E+04  1.105880E+04  1.054319E-10  3.412204E-10
        47  12  6.308875E+04 -2.404284E+06 -7.064893E+03 -1.427759E+04  1.074819E-09 -5.713456E-10
        47  13 -1.617525E+05 -2.634481E+06 -2.084187E+05  3.495732E+03 -9.008079E-10 -8.135610E-11
        47  14  3.057400E+04 -2.603965E+06 -9.243236E+04  7.466307E+02  5.146663E-09 -3.072887E-11
        47  15  5.675209E+03 -2.634249E+06 -6.343323E+04  3.512166E+03  3.315536E-10  3.807554E-10
        47  16 -2.167294E+05 -2.854066E+06 -2.630661E+05 -3.490262E+04  2.221523E-09 -1.437534E-09
        47  17 -2.548616E+04 -2.828589E+06 -1.474632E+05 -9.561778E+03  5.776316E-09 -6.252249E-10
        47  18 -5.174107E+04 -2.864165E+06 -1.198053E+05  2.129530E+04  1.278963E-09  2.967155E-10
        47  19 -1.067686E+05 -2.414828E+06 -1.537388E+05  4.190753E+04 -1.793386E+03  1.370113E+05
        47  20  8.663295E+04 -2.379286E+06 -3.739043E+04  1.105840E+04 -5.552444E+03  8.828007E+04
        47  21  6.308920E+04 -2.404282E+06 -7.061886E+03 -1.427777E+04 -5.517679E+03  3.954878E+04
        47  22 -1.617473E+05 -2.634460E+06 -2.083823E+05  3.495530E+03 -1.802032E+03  1.390046E+05
        47  23  3.057617E+04 -2.603957E+06 -9.241738E+04  7.462326E+02 -5.554207E+03  8.892873E+04
        47  24  5.675649E+03 -2.634247E+06 -6.343032E+04  3.511993E+03 -5.516380E+03  3.885299E+04
        47  25 -2.167240E+05 -2.854045E+06 -2.630286E+05 -3.490283E+04 -1.810929E+03  1.409973E+05
        47  26 -2.548396E+04 -2.828581E+06 -1.474480E+05 -9.562180E+03 -5.555993E+03  8.957715E+04
        47  27 -5.174065E+04 -2.864163E+06 -1.198025E+05  2.129513E+04 -5.515121E+03  3.815747E+04
        48   1  3.906138E+04 -2.387218E+06  3.103978E+03  8.277109E+03  5.096901E+03 -2.813337E+04
        48   2  6.543316E+04 -2.379610E+06  2.169977E+04  2.301028E+03  5.554244E+03 -9.522426E+03
        48   3  4.834757E+04 -2.385181E+06  1.730754E+04 -2.631135E+03  5.126272E+03  9.087968E+03
        48   4 -1.998526E+04 -2.623730E+06 -5.499694E+04  2.504930E+03  5.097467E+03 -2.845238E+04
        48   5  6.156354E+03 -2.617103E+06 -3.653860E+04  1.983714E+03  5.554395E+03 -9.530121E+03
        48   6 -1.122280E+04 -2.623714E+06 -4.129117E+04  2.506445E+03  5.126185E+03  9.391558E+03
        48   7 -7.903593E+04 -2.860191E+06 -1.131020E+05 -3.265032E+03  5.098039E+03 -2.877127E+04
        48   8 -5.312465E+04 -2.854544E+06 -9.478112E+04  1.666531E+03  5.554545E+03 -9.537813E+03
        48   9 -7.079732E+04 -2.862195E+06 -9.989407E+04  7.642052E+03  5.126103E+03  9.695031E+03
        48  10  3.906113E+04 -2.387219E+06  3.102436E+03  8.277224E+03  3.992041E-09  1.509398E-09
        48  11  6.543311E+04 -2.379610E+06  2.169954E+04  2.301071E+03 -3.445064E-09 -1.962740E-09
        48  12  4.834752E+04 -2.385182E+06  1.730734E+04 -2.631173E+03 -1.631952E-09 -3.672828E-09
        48  13 -1.998550E+04 -2.623731E+06 -5.499852E+04  2.505046E+03  1.981376E-10  5.642099E-10
        48  14  6.156296E+03 -2.617103E+06 -3.653883E+04  1.983757E+03  1.891602E-09  1.673418E-10
        48  15 -1.122285E+04 -2.623714E+06 -4.129139E+04  2.506406E+03  2.747098E-09  6.591570E-10
        48  16 -7.903618E+04 -2.860191E+06 -1.131036E+05 -3.264914E+03  1.748927E-10 -1.661709E-09
        48  17 -5.312471E+04 -2.854544E+06 -9.478135E+04  1.666574E+03  2.504906E-09  9.824481E-10
        48  18 -7.079738E+04 -2.862195E+06 -9.989430E+04  7.642012E+03  1.712159E-09  2.668498E-09
        48  19  3.906138E+04 -2.387218E+06  3.103978E+03  8.277109E+03 -5.096901E+03  2.813337E+04
        48  20  6.543316E+04 -2.379610E+06  2.169977E+04  2.301028E+03 -5.554244E+03  9.522426E+03
        48  21  4.834757E+04 -2.385181E+06  1.730754E+04 -2.631135E+03 -5.126272E+03 -9.087968E+03
        48  22 -1.998526E+04 -2.623730E+06 -5.499694E+04  2.504930E+03 -5.097467E+03  2.845238E+04
        48  23  6.156354E+03 -2.617103E+06 -3.653860E+04  1.983714E+03 -5.554395E+03  9.530121E+03
        48  24 -1.122280E+04 -2.623714E+06 -4.129117E+04  2.506445E+03 -5.126185E+03 -9.391558E+03
        48  25 -7.903593E+04 -2.860191E+06 -1.131020E+05 -3.265032E+03 -5.098039E+03  2.877127E+04
        48  26 -5.312465E+04 -2.854544E+06 -9.478112E+04  1.666531E+03 -5.554545E+03  9.537813E+03
        48  27 -7.079732E+04 -2.862195E+06 -9.989407E+04  7.642052E+03 -5.126103E+03 -9.695031E+03
        49   1  6.060450E+04 -2.392645E+06  1.367396E+04  1.209745E+04  5.611405E+03  1.767656E+04
        49   2  7.648778E+04 -2.377786E+06 -5.404181E+02 -3.039020E+03  5.680671E+03  4.734694E+04
        49   3 -3.783774E+04 -2.399278E+06 -6.665244E+04 -2.178122E+04  1.757471E+03  7.701132E+04
        49   4  1.672944E+03 -2.628883E+06 -4.422573E+04  1.517678E+03  5.612043E+03  1.691941E+04
        49   5  1.836389E+04 -2.610638E+06 -5.757404E+04  3.252471E+03  5.680437E+03  4.801221E+04
        49   6 -9.542868E+04 -2.629005E+06 -1.238243E+05  1.380594E+03  1.757320E+03  7.909905E+04
        49   7 -5.726233E+04 -2.865068E+06 -1.021295E+05 -9.058027E+03  5.612707E+03  1.616255E+04
        49   8 -3.976389E+04 -2.843439E+06 -1.146116E+05  9.541605E+03  5.680216E+03  4.867723E+04
        49   9 -1.530216E+05 -2.858682E+06 -1.809998E+05  2.453382E+04  1.757327E+03  8.118601E+04
        49  10  6.060438E+04 -2.392646E+06  1.367332E+04  1.209737E+04  1.320368E-09 -1.003733E-09
        49  11  7.648714E+04 -2.377789E+06 -5.447075E+02 -3.039237E+03  1.103566E-09 -4.179874E-10
        49  12 -3.783935E+04 -2.399284E+06 -6.666363E+04 -2.178133E+04 -5.960778E-10  9.905252E-10
        49  13  1.672833E+03 -2.628883E+06 -4.422633E+04  1.517602E+03  1.579928E-09  1.066513E-09
        49  14  1.836323E+04 -2.610640E+06 -5.757845E+04  3.252251E+03  4.065391E-10 -2.200155E-12
        49  15 -9.543037E+04 -2.629011E+06 -1.238361E+05  1.380482E+03 -2.157591E-09  1.091790E-09
        49  16 -5.726244E+04 -2.865069E+06 -1.021300E+05 -9.058101E+03  1.188316E-09  1.081150E-09
        49  17 -3.976456E+04 -2.843442E+06 -1.146161E+05  9.541382E+03 -4.017487E-09 -1.401606E-09
        49  18 -1.530234E+05 -2.858689E+06 -1.810123E+05  2.453370E+04 -1.791145E-09 -2.030228E-09
        49  19  6.060450E+04 -2.392645E+06  1.367396E+04  1.209745E+04 -5.611405E+03 -1.767656E+04
        49  20  7.648778E+04 -2.377786E+06 -5.404181E+02 -3.039020E+03 -5.680671E+03 -4.734694E+04
        49  21 -3.783774E+04 -2.399278E+06 -6.665244E+04 -2.178122E+04 -1.757471E+03 -7.701132E+04
        49  22  1.672944E+03 -2.628883E+06 -4.422573E+04  1.517678E+03 -5.612043E+03 -1.691941E+04
        49  23  1.836389E+04 -2.610638E+06 -5.757404E+04  3.252471E+03 -5.680437E+03 -4.801221E+04
        49  24 -9.542868E+04 -2.629005E+06 -1.238243E+05  1.380594E+03 -1.757320E+03 -7.909905E+04
        49  25 -5.726233E+04 -2.865068E+06 -1.021295E+05 -9.058027E+03 -5.612707E+03 -1.616255E+04
        49  26 -3.976389E+04 -2.843439E+06 -1.146116E+05  9.541605E+03 -5.680216E+03 -4.867723E+04
        49  27 -1.530216E+05 -2.858682E+06 -1.809998E+05  2.453382E+04 -1.757327E+03 -8.118601E+04
        50   1 -1.211161E+06 -1.398583E+05  4.504060E+04 -4.587685E+05  4.319066E+04  1.704376E+04
        50   2 -1.216849E+06 -1.968008E+05  6.909271E+03 -4.406052E+05  2.747353E+04  1.271072E+04
        50   3 -1.187914E+06 -1.944108E+05 -1.574778E+03 -4.483600E+05  1.244218E+04  6.547473E+03
        50   4 -1.112710E+06 -1.137030E+05  6.981230E+04 -4.433361E+05  4.396421E+04  1.733284E+04
        50   5 -1.133611E+06 -1.684151E+05  2.875239E+04 -4.210157E+05  2.762859E+04  1.276865E+04
        50   6 -1.119769E+06 -1.636780E+05  1.782688E+04 -4.246125E+05  1.197906E+04  6.374027E+03
        50   7 -1.014251E+06 -8.754821E+04  9.458318E+04 -4.279022E+05  4.473789E+04  1.762193E+04
        50   8 -1.050366E+06 -1.400293E+05  5.059489E+04 -4.014240E+05  2.778366E+04  1.282659E+04
        50   9 -1.051620E+06 -1.329442E+05  3.722814E+04 -4.008623E+05  1.151589E+04  6.200550E+03
        50  10 -1.211163E+06 -1.398591E+05  4.503654E+04 -4.587691E+05 -1.947266E-09  5.525104E-12
        50  11 -1.216850E+06 -1.968011E+05  6.907546E+03 -4.406055E+05 -3.096444E-09  1.104295E-10
        50  12 -1.187915E+06 -1.944109E+05 -1.575150E+03 -4.483601E+05 -1.276043E-09 -5.744662E-10
        50  13 -1.112713E+06 -1.137038E+05  6.980809E+04 -4.433367E+05 -1.315323E-10 -3.067563E-10
        50  14 -1.133611E+06 -1.684155E+05  2.875064E+04 -4.210160E+05 -2.189307E-09 -7.015114E-10
        50  15 -1.119770E+06 -1.636781E+05  1.782653E+04 -4.246126E+05 -2.871449E-09 -2.602608E-10
        50  16 -1.014253E+06 -8.754908E+04  9.457882E+04 -4.279028E+05  5.533509E-10 -3.173377E-10
        50  17 -1.050366E+06 -1.400297E+05  5.059312E+04 -4.014243E+05  8.344453E-10 -6.835023E-10
        50  18 -1.051620E+06 -1.329443E+05  3.722782E+04 -4.008624E+05 -2.826765E-10  4.086217E-11
        50  19 -1.211161E+06 -1.398583E+05  4.504060E+04 -4.587685E+05 -4.319066E+04 -1.704376E+04
        50  20 -1.216849E+06 -1.968008E+05  6.909271E+03 -4.406052E+05 -2.747353E+04 -1.271072E+04
        50  21 -1.187914E+06 -1.944108E+05 -1.574778E+03 -4.483600E+05 -1.244218E+04 -6.547473E+03
        50  22 -1.112710E+06 -1.137030E+05  6.981230E+04 -4.433361E+05 -4.396421E+04 -1.733284E+04
        50  23 -1.133611E+06 -1.684151E+05  2.875239E+04 -4.210157E+05 -2.762859E+04 -1.276865E+04
        50  24 -1.119769E+06 -1.636780E+05  1.782688E+04 -4.246125E+05 -1.197906E+04 -6.374027E+03
        50  25 -1.014251E+06 -8.754821E+04  9.458318E+04 -4.279022E+05 -4.473789E+04 -1.762193E+04
        50  26 -1.050366E+06 -1.400293E+05  5.059489E+04 -4.014240E+05 -2.778366E+04 -1.282659E+04
        50  27 -1.051620E+06 -1.329442E+05  3.722814E+04 -4.008623E+05 -1.151589E+04 -6.200550E+03
        51   1 -1.172673E+06 -1.737372E+05  1.175685E+03 -4.415368E+05  9.568501E+03  4.906052E+03
        51   2 -1.168375E+06 -1.743703E+05 -3.981251E+03 -4.328130E+05  6.145784E+03  3.405029E+03
        51   3 -1.152366E+06 -1.742524E+05 -4.151027E+03 -4.354206E+05  2.802001E+03  1.693084E+03
        51   4 -1.121962E+06 -1.559866E+05  1.460568E+04 -4.291395E+05  9.540120E+03  4.895382E+03
        51   5 -1.128282E+06 -1.596100E+05  6.769870E+03 -4.222606E+05  6.046117E+03  3.367674E+03
        51   6 -1.122878E+06 -1.624686E+05  3.977418E+03 -4.267129E+05  2.631125E+03  1.629070E+03
        51   7 -1.071249E+06 -1.382359E+05  2.803547E+04 -4.167414E+05  9.511738E+03  4.884711E+03
        51   8 -1.088188E+06 -1.448497E+05  1.752081E+04 -4.117076E+05  5.946442E+03  3.330317E+03
        51   9 -1.093389E+06 -1.506848E+05  1.210572E+04 -4.180049E+05  2.460242E+03  1.565052E+03
        51  10 -1.172673E+06 -1.737373E+05  1.175467E+03 -4.415368E+05 -3.604457E-09  1.654412E-12
        51  11 -1.168375E+06 -1.743703E+05 -3.981344E+03 -4.328130E+05 -4.018609E-09  1.342804E-09
        51  12 -1.152366E+06 -1.742524E+05 -4.151047E+03 -4.354206E+05 -9.630992E-10  8.899496E-10
        51  13 -1.121962E+06 -1.559867E+05  1.460546E+04 -4.291396E+05 -1.742103E-09  4.222017E-10
        51  14 -1.128282E+06 -1.596100E+05  6.769780E+03 -4.222606E+05  7.568326E-10  9.116970E-10
        51  15 -1.122878E+06 -1.624686E+05  3.977400E+03 -4.267129E+05  3.500563E-09  1.387391E-09
        51  16 -1.071249E+06 -1.382360E+05  2.803525E+04 -4.167414E+05  2.674496E-10  1.941166E-10
        51  17 -1.088188E+06 -1.448497E+05  1.752073E+04 -4.117076E+05  1.611753E-09  4.308563E-10
        51  18 -1.093389E+06 -1.506848E+05  1.210570E+04 -4.180049E+05  5.889028E-09  1.112779E-09
        51  19 -1.172673E+06 -1.737372E+05  1.175685E+03 -4.415368E+05 -9.568501E+03 -4.906052E+03
        51  20 -1.168375E+06 -1.743703E+05 -3.981251E+03 -4.328130E+05 -6.145784E+03 -3.405029E+03
        51  21 -1.152366E+06 -1.742524E+05 -4.151027E+03 -4.354206E+05 -2.802001E+03 -1.693084E+03
        51  22 -1.121962E+06 -1.559866E+05  1.460568E+04 -4.291395E+05 -9.540120E+03 -4.895382E+03
        51  23 -1.128282E+06 -1.596100E+05  6.769870E+03 -4.222606E+05 -6.046117E+03 -3.367674E+03
        51  24 -1.122878E+06 -1.624686E+05  3.977418E+03 -4.267129E+05 -2.631125E+03 -1.629070E+03
        51  25 -1.071249E+06 -1.382359E+05  2.803547E+04 -4.167414E+05 -9.511738E+03 -4.884711E+03
        51  26 -1.088188E+06 -1.448497E+05  1.752081E+04 -4.117076E+05 -5.946442E+03 -3.330317E+03
        51  27 -1.093389E+06 -1.506848E+05  1.210572E+04 -4.180049E+05 -2.460242E+03 -1.565052E+03
        52   1 -1.130234E+06 -1.639992E+05  1.293966E+03 -4.290906E+05  2.269785E+03  1.195194E+03
        52   2 -1.124475E+06 -1.572330E+05  2.381091E+03 -4.215099E+05  1.625171E+03  5.271761E+02
        52   3 -1.110069E+06 -1.574578E+05  4.359678E+03 -4.235134E+05  9.882459E+02 -1.613918E+02
        52   4 -1.123183E+06 -1.615046E+05  3.132664E+03 -4.273311E+05  2.147367E+03  1.149332E+03
        52   5 -1.127566E+06 -1.584282E+05  1.540080E+03 -4.223823E+05  1.495827E+03  4.787183E+02
        52   6 -1.123301E+06 -1.623415E+05  8.444142E+02 -4.270179E+05  8.519907E+02 -2.124404E+02
        52   7 -1.116131E+06 -1.590100E+05  4.971369E+03 -4.255715E+05  2.024947E+03  1.103470E+03
        52   8 -1.130657E+06 -1.596234E+05  6.990625E+02 -4.232547E+05  1.366484E+03  4.302604E+02
        52   9 -1.136533E+06 -1.672253E+05 -2.670881E+03 -4.305223E+05  7.157381E+02 -2.634881E+02
        52  10 -1.130234E+06 -1.639992E+05  1.293954E+03 -4.290906E+05 -1.754935E-10 -5.290759E-10
        52  11 -1.124475E+06 -1.572330E+05  2.381086E+03 -4.215099E+05  4.889329E-10 -6.551074E-10
        52  12 -1.110069E+06 -1.574578E+05  4.359677E+03 -4.235134E+05  1.349153E-09 -6.106041E-10
        52  13 -1.123183E+06 -1.615046E+05  3.132652E+03 -4.273311E+05  3.656265E-09  5.640029E-10
        52  14 -1.127566E+06 -1.584282E+05  1.540075E+03 -4.223823E+05  2.166812E-09 -9.526872E-10
        52  15 -1.123301E+06 -1.623415E+05  8.444127E+02 -4.270179E+05  2.758037E-09 -5.155695E-10
        52  16 -1.116131E+06 -1.590100E+05  4.971359E+03 -4.255715E+05  2.853137E-09  5.485955E-10
        52  17 -1.130657E+06 -1.596234E+05  6.990587E+02 -4.232547E+05 -1.466473E-10 -1.135694E-09
        52  18 -1.136533E+06 -1.672253E+05 -2.670883E+03 -4.305223E+05 -2.626308E-10  1.003426E-10
        52  19 -1.130234E+06 -1.639992E+05  1.293966E+03 -4.290906E+05 -2.269785E+03 -1.195194E+03
        52  20 -1.124475E+06 -1.572330E+05  2.381091E+03 -4.215099E+05 -1.625171E+03 -5.271761E+02
        52  21 -1.110069E+06 -1.574578E+05  4.359678E+03 -4.235134E+05 -9.882459E+02  1.613918E+02
        52  22 -1.123183E+06 -1.615046E+05  3.132664E+03 -4.273311E+05 -2.147367E+03 -1.149332E+03
        52  23 -1.127566E+06 -1.584282E+05  1.540080E+03 -4.223823E+05 -1.495827E+03 -4.787183E+02
        52  24 -1.123301E+06 -1.623415E+05  8.444142E+02 -4.270179E+05 -8.519907E+02  2.124404E+02
        52  25 -1.116131E+06 -1.590100E+05  4.971369E+03 -4.255715E+05 -2.024947E+03 -1.103470E+03
        52  26 -1.130657E+06 -1.596234E+05  6.990625E+02 -4.232547E+05 -1.366484E+03 -4.302604E+02
        52  27 -1.136533E+06 -1.672253E+05 -2.670881E+03 -4.305223E+05 -7.157381E+02  2.634881E+02
        53   1 -1.087374E+06 -1.485924E+05  1.038670E+04 -4.172505E+05  9.505336E+02 -4.414394E+02
        53   2 -1.081554E+06 -1.410618E+05  1.261227E+04 -4.099974E+05  9.727805E+02 -8.755707E+02
        53   3 -1.067731E+06 -1.413515E+05  1.496228E+04 -4.118743E+05  9.918629E+02 -1.301109E+03
        53   4 -1.123395E+06 -1.621723E+05  6.233583E+02 -4.270497E+05  8.184730E+02 -4.909210E+02
        53   5 -1.127406E+06 -1.583261E+05  2.362754E+02 -4.224607E+05  8.436132E+02 -9.239779E+02
        53   6 -1.123414E+06 -1.623007E+05 -2.865327E+01 -4.270016E+05  8.655907E+02 -1.348441E+03
        53   7 -1.159415E+06 -1.757520E+05 -9.140022E+03 -4.368483E+05  6.864217E+02 -5.403991E+02
        53   8 -1.173255E+06 -1.755903E+05 -1.213988E+04 -4.349231E+05  7.144568E+02 -9.723810E+02
        53   9 -1.179093E+06 -1.832499E+05 -1.501991E+04 -4.421278E+05  7.393306E+02 -1.395769E+03
        53  10 -1.087374E+06 -1.485924E+05  1.038670E+04 -4.172505E+05 -5.961154E-10 -4.382616E-10
        53  11 -1.081554E+06 -1.410618E+05  1.261227E+04 -4.099974E+05 -3.316797E-09 -2.924495E-10
        53  12 -1.067731E+06 -1.413515E+05  1.496227E+04 -4.118743E+05 -9.003917E-11 -4.797617E-10
        53  13 -1.123395E+06 -1.621723E+05  6.233566E+02 -4.270497E+05  1.616288E-09 -5.276974E-10
        53  14 -1.127406E+06 -1.583261E+05  2.362724E+02 -4.224607E+05 -1.091945E-09 -7.474304E-10
        53  15 -1.123414E+06 -1.623007E+05 -2.865809E+01 -4.270016E+05 -1.203340E-09 -3.200044E-10
        53  16 -1.159415E+06 -1.757520E+05 -9.140024E+03 -4.368483E+05  1.917324E-10  5.194010E-11
        53  17 -1.173255E+06 -1.755903E+05 -1.213988E+04 -4.349231E+05 -1.532142E-09 -1.312036E-09
        53  18 -1.179093E+06 -1.832499E+05 -1.501991E+04 -4.421278E+05 -2.396747E-09 -2.978723E-10
        53  19 -1.087374E+06 -1.485924E+05  1.038670E+04 -4.172505E+05 -9.505336E+02  4.414394E+02
        53  20 -1.081554E+06 -1.410618E+05  1.261227E+04 -4.099974E+05 -9.727805E+02  8.755707E+02
        53  21 -1.067731E+06 -1.413515E+05  1.496228E+04 -4.118743E+05 -9.918629E+02  1.301109E+03
        53  22 -1.123395E+06 -1.621723E+05  6.233583E+02 -4.270497E+05 -8.184730E+02  4.909210E+02
        53  23 -1.127406E+06 -1.583261E+05  2.362754E+02 -4.224607E+05 -8.436132E+02  9.239779E+02
        53  24 -1.123414E+06 -1.623007E+05 -2.865327E+01 -4.270016E+05 -8.655907E+02  1.348441E+03
        53  25 -1.159415E+06 -1.757520E+05 -9.140022E+03 -4.368483E+05 -6.864217E+02  5.403991E+02
        53  26 -1.173255E+06 -1.755903E+05 -1.213988E+04 -4.349231E+05 -7.144568E+02  9.723810E+02
        53  27 -1.179093E+06 -1.832499E+05 -1.501991E+04 -4.421278E+05 -7.393306E+02  1.395769E+03
        54   1 -1.045957E+06 -1.329404E+05  2.082902E+04 -4.058227E+05  1.091839E+03 -1.515920E+03
        54   2 -1.040477E+06 -1.257483E+05  2.295864E+04 -3.990397E+05  1.454322E+03 -1.802332E+03
        54   3 -1.027661E+06 -1.261776E+05  2.487144E+04 -4.007163E+05  1.807567E+03 -2.063815E+03
        54   4 -1.123547E+06 -1.621458E+05 -1.480546E+02 -4.268947E+05  9.629933E+02 -1.564229E+03
        54   5 -1.127227E+06 -1.584227E+05 -4.578741E+02 -4.226318E+05  1.333830E+03 -1.847529E+03
        54   6 -1.123573E+06 -1.623228E+05 -9.911376E+02 -4.268285E+05  1.695423E+03 -2.105899E+03
        54   7 -1.201132E+06 -1.913509E+05 -2.112567E+04 -4.479643E+05  8.341652E+02 -1.612532E+03
        54   8 -1.213970E+06 -1.910967E+05 -2.387504E+04 -4.462208E+05  1.213356E+03 -1.892719E+03
        54   9 -1.219475E+06 -1.984673E+05 -2.685448E+04 -4.529370E+05  1.583298E+03 -2.147976E+03
        54  10 -1.045957E+06 -1.329404E+05  2.082902E+04 -4.058227E+05  1.929286E-09  4.466982E-12
        54  11 -1.040477E+06 -1.257483E+05  2.295863E+04 -3.990397E+05  8.492295E-10 -9.882123E-10
        54  12 -1.027661E+06 -1.261776E+05  2.487143E+04 -4.007163E+05  3.628635E-10 -5.201702E-10
        54  13 -1.123547E+06 -1.621458E+05 -1.480609E+02 -4.268947E+05 -3.065445E-09 -4.468256E-10
        54  14 -1.127227E+06 -1.584227E+05 -4.578838E+02 -4.226318E+05 -3.324696E-09 -1.174466E-09
        54  15 -1.123573E+06 -1.623228E+05 -9.911513E+02 -4.268285E+05  2.172845E-09 -8.838677E-10
        54  16 -1.201132E+06 -1.913509E+05 -2.112567E+04 -4.479643E+05 -2.652491E-09 -2.856349E-10
        54  17 -1.213970E+06 -1.910967E+05 -2.387505E+04 -4.462208E+05  1.563520E-09 -3.800243E-10
        54  18 -1.219475E+06 -1.984673E+05 -2.685450E+04 -4.529370E+05  4.360854E-10 -1.144900E-09
        54  19 -1.045957E+06 -1.329404E+05  2.082902E+04 -4.058227E+05 -1.091839E+03  1.515920E+03
        54  20 -1.040477E+06 -1.257483E+05  2.295864E+04 -3.990397E+05 -1.454322E+03  1.802332E+03
        54  21 -1.027661E+06 -1.261776E+05  2.487144E+04 -4.007163E+05 -1.807567E+03  2.063815E+03
        54  22 -1.123547E+06 -1.621458E+05 -1.480546E+02 -4.268947E+05 -9.629933E+02  1.564229E+03
        54  23 -1.127227E+06 -1.584227E+05 -4.578741E+02 -4.226318E+05 -1.333830E+03  1.847529E+03
        54  24 -1.123573E+06 -1.623228E+05 -9.911376E+02 -4.268285E+05 -1.695423E+03  2.105899E+03
        54  25 -1.201132E+06 -1.913509E+05 -2.112567E+04 -4.479643E+05 -8.341652E+02  1.612532E+03
        54  26 -1.213970E+06 -1.910967E+05 -2.387504E+04 -4.462208E+05 -1.213356E+03  1.892719E+03
        54  27 -1.219475E+06 -1.984673E+05 -2.685448E+04 -4.529370E+05 -1.583298E+03  2.147976E+03
        55   1 -1.007787E+06 -1.183648E+05  3.002463E+04 -3.953119E+05  2.087986E+03 -2.195336E+03
        55   2 -1.002781E+06 -1.116288E+05  3.116457E+04 -3.891121E+05  3.389878E+03 -2.091446E+03
        55   3 -9.919181E+05 -1.131906E+05  3.097753E+04 -3.900620E+05  4.664722E+03 -1.914993E+03
        55   4 -1.123829E+06 -1.619484E+05 -1.307496E+03 -4.267351E+05  1.962211E+03 -2.242550E+03
        55   5 -1.126845E+06 -1.584264E+05 -2.335917E+03 -4.229242E+05  3.288282E+03 -2.129614E+03
        55   6 -1.124008E+06 -1.632074E+05 -4.710751E+03 -4.262632E+05  4.587284E+03 -1.944116E+03
        55   7 -1.239858E+06 -2.055314E+05 -3.264089E+04 -4.581531E+05  1.836461E+03 -2.289754E+03
        55   8 -1.250893E+06 -2.052232E+05 -3.583782E+04 -4.567302E+05  3.186708E+03 -2.167775E+03
        55   9 -1.256081E+06 -2.132232E+05 -4.040059E+04 -4.624574E+05  4.509865E+03 -1.973233E+03
        55  10 -1.007788E+06 -1.183648E+05  3.002462E+04 -3.953119E+05  1.572848E-09  1.147355E-09
        55  11 -1.002781E+06 -1.116288E+05  3.116454E+04 -3.891121E+05  7.220743E-10  1.430748E-09
        55  12 -9.919181E+05 -1.131906E+05  3.097748E+04 -3.900620E+05 -1.450912E-09  1.442866E-11
        55  13 -1.123829E+06 -1.619484E+05 -1.307513E+03 -4.267351E+05  2.778723E-09 -7.881915E-11
        55  14 -1.126845E+06 -1.584264E+05 -2.335946E+03 -4.229242E+05 -5.713157E-10  1.124756E-09
        55  15 -1.124008E+06 -1.632074E+05 -4.710797E+03 -4.262632E+05  6.967369E-10 -2.889918E-10
        55  16 -1.239858E+06 -2.055314E+05 -3.264090E+04 -4.581531E+05 -9.687714E-10 -1.271963E-09
        55  17 -1.250893E+06 -2.052232E+05 -3.583784E+04 -4.567302E+05  1.270703E-09  1.304457E-09
        55  18 -1.256081E+06 -2.132232E+05 -4.040064E+04 -4.624574E+05  2.520047E-09  2.512513E-10
        55  19 -1.007787E+06 -1.183648E+05  3.002463E+04 -3.953119E+05 -2.087986E+03  2.195336E+03
        55  20 -1.002781E+06 -1.116288E+05  3.116457E+04 -3.891121E+05 -3.389878E+03  2.091446E+03
        55  21 -9.919181E+05 -1.131906E+05  3.097753E+04 -3.900620E+05 -4.664722E+03  1.914993E+03
        55  22 -1.123829E+06 -1.619484E+05 -1.307496E+03 -4.267351E+05 -1.962211E+03  2.242550E+03
        55  23 -1.126845E+06 -1.584264E+05 -2.335917E+03 -4.229242E+05 -3.288282E+03  2.129614E+03
        55  24 -1.124008E+06 -1.632074E+05 -4.710751E+03 -4.262632E+05 -4.587284E+03  1.944116E+03
        55  25 -1.239858E+06 -2.055314E+05 -3.264089E+04 -4.581531E+05 -1.836461E+03  2.289754E+03
        55  26 -1.250893E+06 -2.052232E+05 -3.583782E+04 -4.567302E+05 -3.186708E+03  2.167775E+03
        55  27 -1.256081E+06 -2.132232E+05 -4.040059E+04 -4.624574E+05 -4.509865E+03  1.973233E+03
        56   1 -9.744800E+05 -1.058358E+05  3.442395E+04 -3.869898E+05  5.721368E+03 -1.781997E+03
        56   2 -9.694577E+05 -9.770975E+04  3.203490E+04 -3.805214E+05  1.104576E+04 -1.289533E+02
        56   3 -9.644402E+05 -1.081704E+05  2.220844E+04 -3.770645E+05  1.621138E+04  1.947217E+03
        56   4 -1.124747E+06 -1.614680E+05 -5.972113E+03 -4.268579E+05  5.547297E+03 -1.847409E+03
        56   5 -1.125421E+06 -1.570227E+05 -1.016505E+04 -4.235267E+05  1.101281E+04 -1.414199E+02
        56   6 -1.126129E+06 -1.711941E+05 -2.190882E+04 -4.232066E+05  1.631947E+04  1.987700E+03
        56   7 -1.274993E+06 -2.170990E+05 -4.637009E+04 -4.667173E+05  5.373272E+03 -1.912805E+03
        56   8 -1.281361E+06 -2.163340E+05 -5.236717E+04 -4.665222E+05  1.097986E+04 -1.538832E+02
        56   9 -1.287792E+06 -2.342158E+05 -6.602853E+04 -4.693378E+05  1.642753E+04  2.028169E+03
        56  10 -9.744800E+05 -1.058358E+05  3.442388E+04 -3.869898E+05 -1.090869E-09 -6.561558E-10
        56  11 -9.694578E+05 -9.770978E+04  3.203467E+04 -3.805214E+05  2.042803E-09 -1.982552E-10
        56  12 -9.644405E+05 -1.081705E+05  2.220794E+04 -3.770645E+05  3.350681E-09  3.648286E-12
        56  13 -1.124748E+06 -1.614680E+05 -5.972177E+03 -4.268579E+05  1.864198E-10 -5.453713E-10
        56  14 -1.125421E+06 -1.570227E+05 -1.016527E+04 -4.235267E+05 -2.513268E-09  2.303830E-10
        56  15 -1.126129E+06 -1.711941E+05 -2.190932E+04 -4.232066E+05  3.036400E-09  1.651962E-11
        56  16 -1.274993E+06 -2.170991E+05 -4.637015E+04 -4.667173E+05  7.453536E-12 -6.691789E-10
        56  17 -1.281361E+06 -2.163341E+05 -5.236739E+04 -4.665222E+05 -8.796698E-10  1.647110E-10
        56  18 -1.287792E+06 -2.342159E+05 -6.602905E+04 -4.693378E+05 -1.711553E-09  2.691664E-11
        56  19 -9.744800E+05 -1.058358E+05  3.442395E+04 -3.869898E+05 -5.721368E+03  1.781997E+03
        56  20 -9.694577E+05 -9.770975E+04  3.203490E+04 -3.805214E+05 -1.104576E+04  1.289533E+02
        56  21 -9.644402E+05 -1.081704E+05  2.220844E+04 -3.770645E+05 -1.621138E+04 -1.947217E+03
        56  22 -1.124747E+06 -1.614680E+05 -5.972113E+03 -4.268579E+05 -5.547297E+03  1.847409E+03
        56  23 -1.125421E+06 -1.570227E+05 -1.016505E+04 -4.235267E+05 -1.101281E+04  1.414199E+02
        56  24 -1.126129E+06 -1.711941E+05 -2.190882E+04 -4.232066E+05 -1.631947E+04 -1.987700E+03
        56  25 -1.274993E+06 -2.170990E+05 -4.637009E+04 -4.667173E+05 -5.373272E+03  1.912805E+03
        56  26 -1.281361E+06 -2.163340E+05 -5.236717E+04 -4.665222E+05 -1.097986E+04  1.538832E+02
        56  27 -1.287792E+06 -2.342158E+05 -6.602853E+04 -4.693378E+05 -1.642753E+04 -2.028169E+03
        57   1 -9.473175E+05 -9.796510E+04  2.103961E+04 -3.875496E+05  2.122694E+04  3.079646E+03
        57   2 -9.379988E+05 -7.247151E+04  5.954047E+03 -3.727079E+05  4.392471E+04  1.117303E+04
        57   3 -9.650842E+05 -1.512039E+05 -5.335499E+04 -3.365254E+05  6.529817E+04  2.278672E+04
        57   4 -1.129859E+06 -1.592000E+05 -2.673588E+04 -4.294777E+05  2.050055E+04  2.806788E+03
        57   5 -1.116860E+06 -1.444097E+05 -4.313259E+04 -4.260688E+05  4.437671E+04  1.134254E+04
        57   6 -1.140511E+06 -2.340974E+05 -1.046978E+05 -4.013161E+05  6.692844E+04  2.339802E+04
        57   7 -1.312369E+06 -2.204347E+05 -7.451412E+04 -4.713954E+05  1.977439E+04  2.533997E+03
        57   8 -1.295691E+06 -2.163448E+05 -9.222212E+04 -4.794154E+05  4.482857E+04  1.151200E+04
        57   9 -1.315906E+06 -3.169836E+05 -1.560436E+05 -4.660883E+05  6.855820E+04  2.400902E+04
        57  10 -9.473180E+05 -9.796523E+04  2.103875E+04 -3.875497E+05  1.206198E-10  2.319135E-10
        57  11 -9.380009E+05 -7.247217E+04  5.950180E+03 -3.727083E+05  1.329481E-09  2.729192E-10
        57  12 -9.650890E+05 -1.512056E+05 -5.336400E+04 -3.365266E+05  1.881911E-09 -5.949962E-10
        57  13 -1.129860E+06 -1.592002E+05 -2.673669E+04 -4.294777E+05 -6.442690E-10 -6.174980E-10
        57  14 -1.116862E+06 -1.444104E+05 -4.313654E+04 -4.260692E+05 -2.573616E-10  1.489214E-10
        57  15 -1.140516E+06 -2.340992E+05 -1.047073E+05 -4.013173E+05  3.436367E-10  1.835568E-10
        57  16 -1.312369E+06 -2.204348E+05 -7.451487E+04 -4.713954E+05 -3.097372E-09  7.297197E-10
        57  17 -1.295693E+06 -2.163455E+05 -9.222615E+04 -4.794158E+05 -3.073495E-09 -3.129269E-10
        57  18 -1.315911E+06 -3.169855E+05 -1.560535E+05 -4.660897E+05 -1.201197E-09  9.138735E-10
        57  19 -9.473175E+05 -9.796510E+04  2.103961E+04 -3.875496E+05 -2.122694E+04 -3.079646E+03
        57  20 -9.379988E+05 -7.247151E+04  5.954047E+03 -3.727079E+05 -4.392471E+04 -1.117303E+04
        57  21 -9.650842E+05 -1.512039E+05 -5.335499E+04 -3.365254E+05 -6.529817E+04 -2.278672E+04
        57  22 -1.129859E+06 -1.592000E+05 -2.673588E+04 -4.294777E+05 -2.050055E+04 -2.806788E+03
        57  23 -1.116860E+06 -1.444097E+05 -4.313259E+04 -4.260688E+05 -4.437671E+04 -1.134254E+04
        57  24 -1.140511E+06 -2.340974E+05 -1.046978E+05 -4.013161E+05 -6.692844E+04 -2.339802E+04
        57  25 -1.312369E+06 -2.204347E+05 -7.451412E+04 -4.713954E+05 -1.977439E+04 -2.533997E+03
        57  26 -1.295691E+06 -2.163448E+05 -9.222212E+04 -4.794154E+05 -4.482857E+04 -1.151200E+04
        57  27 -1.315906E+06 -3.169836E+05 -1.560436E+05 -4.660883E+05 -6.855820E+04 -2.400902E+04
        58   1 -1.219650E+05  6.206394E+04  7.968579E+04  1.469742E+04  5.444540E+04  1.289179E+00
        58   2 -1.335027E+05 -1.161388E+04  3.445451E+04  3.996908E+03  3.573407E+04  2.301027E-01
        58   3 -1.219704E+05 -2.766322E+03  2.204000E+04 -6.703582E+03  1.702235E+04 -1.838373E-01
        58   4 -1.219652E+05  6.206354E+04  7.968573E+04  1.084151E-08  5.444540E+04 -8.438489E-10
        58   5 -1.335028E+05 -1.161391E+04  3.445450E+04 -1.672331E-08  3.573407E+04 -9.690963E-10
        58   6 -1.219704E+05 -2.766406E+03  2.203999E+04 -2.920982E-08  1.702235E+04  1.097554E-09
        58   7 -1.219650E+05  6.206394E+04  7.968579E+04 -1.469742E+04  5.444540E+04 -1.289179E+00
        58   8 -1.335027E+05 -1.161388E+04  3.445451E+04 -3.996908E+03  3.573407E+04 -2.301027E-01
        58   9 -1.219704E+05 -2.766322E+03  2.204000E+04  6.703582E+03  1.702235E+04  1.838374E-01
        58  10 -1.219682E+05  6.206315E+04  7.968021E+04  1.469742E+04  3.056346E-10 -3.030158E-10
        58  11 -1.335041E+05 -1.161422E+04  3.445211E+04  3.996908E+03 -3.410391E-10 -6.737342E-10
        58  12 -1.219707E+05 -2.766400E+03  2.203946E+04 -6.703582E+03 -1.718672E-09 -2.780494E-10
        58  13 -1.219684E+05  6.206274E+04  7.968016E+04  2.199467E-09 -1.135279E-09 -2.402007E-10
        58  14 -1.335041E+05 -1.161425E+04  3.445210E+04 -1.672381E-08 -1.126854E-09 -6.136506E-10
        58  15 -1.219707E+05 -2.766484E+03  2.203945E+04 -3.133788E-08  1.949201E-09 -2.582058E-10
        58  16 -1.219682E+05  6.206315E+04  7.968021E+04 -1.469742E+04  2.331338E-10 -1.962599E-10
        58  17 -1.335041E+05 -1.161422E+04  3.445211E+04 -3.996908E+03 -5.914313E-10 -5.014014E-10
        58  18 -1.219707E+05 -2.766400E+03  2.203946E+04  6.703582E+03  6.664626E-10 -2.034987E-10
        58  19 -1.219650E+05  6.206394E+04  7.968579E+04  1.469742E+04 -5.444540E+04 -1.289179E+00
        58  20 -1.335027E+05 -1.161388E+04  3.445451E+04  3.996908E+03 -3.573407E+04 -2.301027E-01
        58  21 -1.219704E+05 -2.766322E+03  2.204000E+04 -6.703582E+03 -1.702235E+04  1.838373E-01
        58  22 -1.219652E+05  6.206354E+04  7.968573E+04  2.177894E-09 -5.444540E+04  3.269497E-10
        58  23 -1.335028E+05 -1.161391E+04  3.445450E+04 -1.672380E-08 -3.573407E+04 -2.450246E-10
        58  24 -1.219704E+05 -2.766406E+03  2.203999E+04 -1.300885E-08 -1.702235E+04 -1.585498E-09
        58  25 -1.219650E+05  6.206394E+04  7.968579E+04 -1.469742E+04 -5.444540E+04  1.289179E+00
        58  26 -1.335027E+05 -1.161388E+04  3.445451E+04 -3.996908E+03 -3.573407E+04  2.301027E-01
        58  27 -1.219704E+05 -2.766322E+03  2.204000E+04  6.703582E+03 -1.702235E+04 -1.838374E-01
        59   1 -1.263794E+05  7.861928E+03  1.810540E+04  1.732226E+03  1.349403E+04  3.765795E-02
        59   2 -1.279923E+05 -1.487021E+03  8.922455E+03  4.244111E+02  8.871888E+03  6.066157E-03
        59   3 -1.263802E+05 -3.443329E+02  5.372208E+03 -8.834045E+02  4.249762E+03 -6.048312E-03
        59   4 -1.263794E+05  7.861923E+03  1.810540E+04  1.406836E-08  1.349403E+04  1.246882E-09
        59   5 -1.279923E+05 -1.487021E+03  8.922454E+03  1.356362E-08  8.871888E+03 -3.582388E-10
        59   6 -1.263802E+05 -3.443344E+02  5.372208E+03  2.167515E-08  4.249762E+03 -3.669311E-10
        59   7 -1.263794E+05  7.861928E+03  1.810540E+04 -1.732226E+03  1.349403E+04 -3.765794E-02
        59   8 -1.279923E+05 -1.487021E+03  8.922455E+03 -4.244111E+02  8.871888E+03 -6.066158E-03
        59   9 -1.263802E+05 -3.443329E+02  5.372208E+03  8.834045E+02  4.249762E+03  6.048311E-03
        59  10 -1.263796E+05  7.861879E+03  1.810505E+04  1.732226E+03  1.266392E-09  3.770947E-10
        59  11 -1.279924E+05 -1.487042E+03  8.922307E+03  4.244111E+02  3.705889E-10  7.580412E-10
        59  12 -1.263802E+05 -3.443378E+02  5.372174E+03 -8.834045E+02  1.004886E-09 -5.241350E-10
        59  13 -1.263796E+05  7.861874E+03  1.810505E+04 -2.897310E-08 -1.119521E-09  3.515340E-10
        59  14 -1.279924E+05 -1.487042E+03  8.922307E+03  2.216473E-08 -7.229698E-11  6.812068E-10
        59  15 -1.263802E+05 -3.443392E+02  5.372174E+03  1.730380E-08 -1.032232E-09 -4.790087E-10
        59  16 -1.263796E+05  7.861879E+03  1.810505E+04 -1.732226E+03  1.468264E-09  3.209943E-10
        59  17 -1.279924E+05 -1.487042E+03  8.922307E+03 -4.244111E+02  6.350928E-10  6.214660E-10
        59  18 -1.263802E+05 -3.443378E+02  5.372174E+03  8.834045E+02 -5.283429E-10 -3.964757E-10
        59  19 -1.263794E+05  7.861928E+03  1.810540E+04  1.732226E+03 -1.349403E+04 -3.765795E-02
        59  20 -1.279923E+05 -1.487021E+03  8.922455E+03  4.244111E+02 -8.871888E+03 -6.066156E-03
        59  21 -1.263802E+05 -3.443329E+02  5.372208E+03 -8.834045E+02 -4.249762E+03  6.048310E-03
        59  22 -1.263794E+05  7.861923E+03  1.810540E+04  5.525169E-09 -1.349403E+04 -5.552634E-10
        59  23 -1.279923E+05 -1.487021E+03  8.922454E+03  1.353528E-08 -8.871888E+03  1.719956E-09
        59  24 -1.263802E+05 -3.443344E+02  5.372208E+03  2.262325E-08 -4.249762E+03 -5.912085E-10
        59  25 -1.263794E+05  7.861928E+03  1.810540E+04 -1.732226E+03 -1.349403E+04  3.765795E-02
        59  26 -1.279923E+05 -1.487021E+03  8.922455E+03 -4.244111E+02 -8.871888E+03  6.066160E-03
        59  27 -1.263802E+05 -3.443329E+02  5.372208E+03  8.834045E+02 -4.249762E+03 -6.048312E-03
        60   1 -1.269919E+05  9.866433E+02  4.218979E+03  1.836050E+02  3.394466E+03  1.004075E-03
        60   2 -1.272279E+05 -1.892838E+02  2.156003E+03  3.121010E+01  2.302599E+03  1.157768E-04
        60   3 -1.269921E+05 -4.661448E+01  1.133624E+03 -1.211827E+02  1.210751E+03 -2.363772E-04
        60   4 -1.269919E+05  9.866432E+02  4.218979E+03 -1.690831E-09  3.394466E+03 -3.912146E-10
        60   5 -1.272279E+05 -1.892838E+02  2.156003E+03 -2.379314E-10  2.302599E+03 -8.121816E-10
        60   6 -1.269921E+05 -4.661451E+01  1.133624E+03  5.521926E-09  1.210751E+03 -1.245652E-11
        60   7 -1.269919E+05  9.866433E+02  4.218979E+03 -1.836050E+02  3.394466E+03 -1.004076E-03
        60   8 -1.272279E+05 -1.892838E+02  2.156003E+03 -3.121010E+01  2.302599E+03 -1.157784E-04
        60   9 -1.269921E+05 -4.661448E+01  1.133624E+03  1.211827E+02  1.210751E+03  2.363772E-04
        60  10 -1.269919E+05  9.866402E+02  4.218957E+03  1.836050E+02 -9.203004E-10 -7.141244E-10
        60  11 -1.272279E+05 -1.892852E+02  2.155993E+03  3.121010E+01 -1.710310E-09  2.691517E-10
        60  12 -1.269921E+05 -4.661487E+01  1.133621E+03 -1.211827E+02 -1.713718E-09  1.589830E-10
        60  13 -1.269919E+05  9.866401E+02  4.218957E+03 -2.749861E-08  4.822756E-11 -7.430288E-10
        60  14 -1.272279E+05 -1.892852E+02  2.155993E+03 -2.212354E-10 -1.297138E-29  7.279779E-11
        60  15 -1.269921E+05 -4.661490E+01  1.133621E+03  1.843989E-08  2.113575E-09  2.483413E-10
        60  16 -1.269919E+05  9.866402E+02  4.218957E+03 -1.836050E+02 -6.311547E-10 -7.802469E-10
        60  17 -1.272279E+05 -1.892852E+02  2.155993E+03 -3.121010E+01  2.399725E-09 -1.759889E-10
        60  18 -1.269921E+05 -4.661487E+01  1.133621E+03  1.211827E+02  3.193395E-09  3.303755E-10
        60  19 -1.269919E+05  9.866433E+02  4.218979E+03  1.836050E+02 -3.394466E+03 -1.004076E-03
        60  20 -1.272279E+05 -1.892838E+02  2.156003E+03  3.121010E+01 -2.302599E+03 -1.157762E-04
        60  21 -1.269921E+05 -4.661448E+01  1.133624E+03 -1.211827E+02 -1.210751E+03  2.363776E-04
        60  22 -1.269919E+05  9.866432E+02  4.218979E+03 -1.613532E-09 -3.394466E+03 -1.094248E-09
        60  23 -1.272279E+05 -1.892838E+02  2.156003E+03  2.133362E-08 -2.302599E+03  9.474455E-10
        60  24 -1.269921E+05 -4.661451E+01  1.133624E+03  4.966500E-08 -1.210751E+03  4.951210E-10
        60  25 -1.269919E+05  9.866433E+02  4.218979E+03 -1.836050E+02 -3.394466E+03  1.004074E-03
        60  26 -1.272279E+05 -1.892838E+02  2.156003E+03 -3.121010E+01 -2.302599E+03  1.157780E-04
        60  27 -1.269921E+05 -4.661448E+01  1.133624E+03  1.211827E+02 -1.210751E+03 -2.363766E-04
        61   1 -1.270899E+05  1.229380E+02  7.660244E+02  6.224285E+00  1.040245E+03  1.043114E-05
        61   2 -1.271057E+05 -1.409050E+01  1.015136E+02 -5.933495E+00  9.880727E+02 -9.445350E-06
        61   3 -1.270899E+05 -5.198644E+01 -5.042371E+02 -1.809146E+01  9.359000E+02 -2.727661E-05
        61   4 -1.270899E+05  1.229380E+02  7.660244E+02 -2.812777E-09  1.040245E+03  9.295030E-11
        61   5 -1.271057E+05 -1.409050E+01  1.015136E+02 -3.793005E-08  9.880727E+02 -7.953524E-11
        61   6 -1.270899E+05 -5.198644E+01 -5.042371E+02 -9.509556E-09  9.359000E+02  1.456897E-09
        61   7 -1.270899E+05  1.229380E+02  7.660244E+02 -6.224285E+00  1.040245E+03 -1.043094E-05
        61   8 -1.271057E+05 -1.409050E+01  1.015136E+02  5.933495E+00  9.880727E+02  9.445120E-06
        61   9 -1.270899E+05 -5.198644E+01 -5.042371E+02  1.809146E+01  9.359000E+02  2.727956E-05
        61  10 -1.270899E+05  1.229377E+02  7.660224E+02  6.224285E+00 -8.907563E-10 -2.368865E-10
        61  11 -1.271057E+05 -1.409076E+01  1.015117E+02 -5.933495E+00  7.932720E-10 -2.725084E-10
        61  12 -1.270899E+05 -5.198667E+01 -5.042387E+02 -1.809146E+01 -1.468917E-09  2.583587E-10
        61  13 -1.270899E+05  1.229377E+02  7.660224E+02  5.783710E-09 -2.162252E-09 -4.083840E-12
        61  14 -1.271057E+05 -1.409076E+01  1.015117E+02 -7.771910E-09  2.297190E-11 -2.006943E-10
        61  15 -1.270899E+05 -5.198667E+01 -5.042387E+02  2.364422E-09 -5.859399E-10  2.728746E-10
        61  16 -1.270899E+05  1.229377E+02  7.660224E+02 -6.224285E+00  8.683103E-10  2.117533E-10
        61  17 -1.271057E+05 -1.409076E+01  1.015117E+02  5.933495E+00  2.752659E-09 -1.069080E-10
        61  18 -1.270899E+05 -5.198667E+01 -5.042387E+02  1.809146E+01  2.486050E-09  2.753559E-10
        61  19 -1.270899E+05  1.229380E+02  7.660244E+02  6.224285E+00 -1.040245E+03 -1.043152E-05
        61  20 -1.271057E+05 -1.409050E+01  1.015136E+02 -5.933495E+00 -9.880727E+02  9.444820E-06
        61  21 -1.270899E+05 -5.198644E+01 -5.042371E+02 -1.809146E+01 -9.359000E+02  2.727720E-05
        61  22 -1.270899E+05  1.229380E+02  7.660244E+02  4.022842E-08 -1.040245E+03 -1.028632E-10
        61  23 -1.271057E+05 -1.409050E+01  1.015136E+02  5.156376E-09 -9.880727E+02 -3.243412E-10
        61  24 -1.270899E+05 -5.198644E+01 -5.042371E+02  1.639218E-08 -9.359000E+02 -9.179240E-10
        61  25 -1.270899E+05  1.229380E+02  7.660244E+02 -6.224285E+00 -1.040245E+03  1.043129E-05
        61  26 -1.271057E+05 -1.409050E+01  1.015136E+02  5.933495E+00 -9.880727E+02 -9.445535E-06
        61  27 -1.270899E+05 -5.198644E+01 -5.042371E+02  1.809146E+01 -9.359000E+02 -2.727902E-05
        62   1 -1.271513E+05  2.983461E+01 -8.382979E+02 -5.570858E+01  1.057078E+03 -9.487159E-05
        62   2 -1.270291E+05  7.746764E+01 -1.736509E+03 -5.130039E+00  1.925468E+03 -1.591536E-05
        62   3 -1.271514E+05 -4.003997E+02 -3.331536E+03  4.544855E+01  2.793857E+03  2.045662E-04
        62   4 -1.271513E+05  2.983460E+01 -8.382979E+02  4.178772E-08  1.057078E+03  6.838824E-10
        62   5 -1.270291E+05  7.746764E+01 -1.736509E+03  1.248179E-08  1.925468E+03 -1.874594E-09
        62   6 -1.271514E+05 -4.003997E+02 -3.331536E+03  2.409861E-08  2.793857E+03 -3.314662E-10
        62   7 -1.271513E+05  2.983461E+01 -8.382979E+02  5.570858E+01  1.057078E+03  9.487296E-05
        62   8 -1.270291E+05  7.746764E+01 -1.736509E+03  5.130039E+00  1.925468E+03  1.591146E-05
        62   9 -1.271514E+05 -4.003997E+02 -3.331536E+03 -4.544855E+01  2.793857E+03 -2.045669E-04
        62  10 -1.271513E+05  2.983431E+01 -8.383000E+02 -5.570858E+01 -1.165893E-10  2.415625E-10
        62  11 -1.270291E+05  7.746664E+01 -1.736516E+03 -5.130039E+00 -1.011998E-09 -3.165513E-10
        62  12 -1.271514E+05 -4.004018E+02 -3.331551E+03  4.544855E+01 -7.397278E-10 -8.427329E-11
        62  13 -1.271513E+05  2.983430E+01 -8.383000E+02  1.590412E-08 -1.164291E-09  1.838660E-10
        62  14 -1.270291E+05  7.746664E+01 -1.736516E+03 -4.755630E-09 -3.322332E-09 -4.510022E-10
        62  15 -1.271514E+05 -4.004018E+02 -3.331551E+03  2.627506E-08 -1.230805E-09 -2.406916E-10
        62  16 -1.271513E+05  2.983431E+01 -8.383000E+02  5.570858E+01 -9.858530E-10  1.431742E-10
        62  17 -1.270291E+05  7.746664E+01 -1.736516E+03  5.130039E+00  1.258332E-09 -6.012557E-10
        62  18 -1.271514E+05 -4.004018E+02 -3.331551E+03 -4.544855E+01  1.610036E-10 -4.207671E-10
        62  19 -1.271513E+05  2.983461E+01 -8.382979E+02 -5.570858E+01 -1.057078E+03  9.487201E-05
        62  20 -1.270291E+05  7.746764E+01 -1.736509E+03 -5.130039E+00 -1.925468E+03  1.591482E-05
        62  21 -1.271514E+05 -4.003997E+02 -3.331536E+03  4.544855E+01 -2.793857E+03 -2.045663E-04
        62  22 -1.271513E+05  2.983460E+01 -8.382979E+02  5.032953E-08 -1.057078E+03 -3.181162E-10
        62  23 -1.270291E+05  7.746764E+01 -1.736509E+03  1.246746E-08 -1.925468E+03  9.706864E-10
        62  24 -1.271514E+05 -4.003997E+02 -3.331536E+03  3.060404E-08 -2.793857E+03 -1.635294E-10
        62  25 -1.271513E+05  2.983461E+01 -8.382979E+02  5.570858E+01 -1.057078E+03 -9.487276E-05
        62  26 -1.270291E+05  7.746764E+01 -1.736509E+03  5.130039E+00 -1.925468E+03 -1.591283E-05
        62  27 -1.271514E+05 -4.003997E+02 -3.331536E+03 -4.544855E+01 -2.793857E+03  2.045659E-04
        63   1 -1.274486E+05  1.382899E+02 -4.348450E+03 -3.930345E+02  3.484132E+03 -2.206152E-03
        63   2 -1.266578E+05  6.273414E+02 -7.447948E+03  1.078487E+02  7.252196E+03  1.260069E-03
        63   3 -1.274490E+05 -3.248680E+03 -1.409219E+04  6.087256E+02  1.102019E+04  1.080738E-02
        63   4 -1.274486E+05  1.382896E+02 -4.348450E+03  3.047712E-08  3.484132E+03  5.860255E-10
        63   5 -1.266578E+05  6.273413E+02 -7.447948E+03  3.659148E-08  7.252196E+03  3.396226E-10
        63   6 -1.274490E+05 -3.248681E+03 -1.409219E+04  1.685904E-08  1.102019E+04  1.248558E-09
        63   7 -1.274486E+05  1.382899E+02 -4.348450E+03  3.930345E+02  3.484132E+03  2.206153E-03
        63   8 -1.266578E+05  6.273414E+02 -7.447948E+03 -1.078487E+02  7.252196E+03 -1.260068E-03
        63   9 -1.274490E+05 -3.248680E+03 -1.409219E+04 -6.087256E+02  1.102019E+04 -1.080738E-02
        63  10 -1.274486E+05  1.382867E+02 -4.348473E+03 -3.930345E+02  2.655949E-11 -3.828543E-11
        63  11 -1.266578E+05  6.273272E+02 -7.448047E+03  1.078487E+02 -1.671698E-09 -1.542210E-11
        63  12 -1.274491E+05 -3.248713E+03 -1.409242E+04  6.087256E+02 -1.338251E-09  8.798827E-10
        63  13 -1.274486E+05  1.382864E+02 -4.348473E+03  3.047173E-08  1.051623E-12 -9.489591E-11
        63  14 -1.266578E+05  6.273272E+02 -7.448047E+03  1.937648E-08  4.528222E-11  6.316105E-11
        63  15 -1.274491E+05 -3.248714E+03 -1.409242E+04  3.973366E-09  6.915019E-10  8.575938E-10
        63  16 -1.274486E+05  1.382867E+02 -4.348473E+03  3.930345E+02  5.313845E-10 -1.457127E-10
        63  17 -1.266578E+05  6.273272E+02 -7.448047E+03 -1.078487E+02  4.614045E-10  1.667253E-10
        63  18 -1.274491E+05 -3.248713E+03 -1.409242E+04 -6.087256E+02  2.047046E-09  8.442060E-10
        63  19 -1.274486E+05  1.382899E+02 -4.348450E+03 -3.930345E+02 -3.484132E+03  2.206152E-03
        63  20 -1.266578E+05  6.273414E+02 -7.447948E+03  1.078487E+02 -7.252196E+03 -1.260068E-03
        63  21 -1.274490E+05 -3.248680E+03 -1.409219E+04  6.087256E+02 -1.102019E+04 -1.080738E-02
        63  22 -1.274486E+05  1.382896E+02 -4.348450E+03  3.046726E-08 -3.484132E+03 -7.703399E-10
        63  23 -1.266578E+05  6.273413E+02 -7.447948E+03  1.077694E-08 -7.252196E+03 -2.085305E-10
        63  24 -1.274490E+05 -3.248681E+03 -1.409219E+04  2.877866E-08 -1.102019E+04  5.148568E-10
        63  25 -1.274486E+05  1.382899E+02 -4.348450E+03  3.930345E+02 -3.484132E+03 -2.206154E-03
        63  26 -1.266578E+05  6.273414E+02 -7.447948E+03 -1.078487E+02 -7.252196E+03  1.260068E-03
        63  27 -1.274490E+05 -3.248680E+03 -1.409219E+04 -6.087256E+02 -1.102019E+04  1.080738E-02
        64   1 -1.294582E+05  1.132724E+03 -1.784070E+04 -2.906799E+03  1.386840E+04 -6.494605E-02
        64   2 -1.241464E+05  4.897209E+03 -2.946311E+04  1.399071E+03  2.913055E+04  6.565927E-02
        64   3 -1.294597E+05 -2.588849E+04 -5.965948E+04  5.705011E+03  4.439277E+04  4.080167E-01
        64   4 -1.294582E+05  1.132708E+03 -1.784070E+04 -2.257405E-08  1.386840E+04  1.763378E-10
        64   5 -1.241464E+05  4.897206E+03 -2.946311E+04 -1.682136E-08  2.913055E+04 -1.769278E-09
        64   6 -1.294597E+05 -2.588855E+04 -5.965949E+04 -1.968384E-08  4.439277E+04  1.219933E-09
        64   7 -1.294582E+05  1.132724E+03 -1.784070E+04  2.906799E+03  1.386840E+04  6.494605E-02
        64   8 -1.241464E+05  4.897209E+03 -2.946311E+04 -1.399071E+03  2.913055E+04 -6.565927E-02
        64   9 -1.294597E+05 -2.588849E+04 -5.965948E+04 -5.705011E+03  4.439277E+04 -4.080167E-01
        64  10 -1.294584E+05  1.132672E+03 -1.784106E+04 -2.906799E+03 -7.139581E-11  3.807867E-10
        64  11 -1.241473E+05  4.896981E+03 -2.946470E+04  1.399071E+03  1.007917E-09 -1.090755E-09
        64  12 -1.294618E+05 -2.588902E+04 -5.966318E+04  5.705011E+03  2.339481E-11  6.784086E-11
        64  13 -1.294584E+05  1.132657E+03 -1.784106E+04 -2.267093E-08  5.258074E-13  2.404712E-10
        64  14 -1.241473E+05  4.896978E+03 -2.946470E+04 -1.251054E-08  1.051613E-12 -1.146623E-09
        64  15 -1.294619E+05 -2.588908E+04 -5.966319E+04 -1.311956E-08  7.855869E-10  4.463113E-10
        64  16 -1.294584E+05  1.132672E+03 -1.784106E+04  2.906799E+03 -4.851837E-10  9.685242E-11
        64  17 -1.241473E+05  4.896981E+03 -2.946470E+04 -1.399071E+03  1.307364E-09 -1.218106E-09
        64  18 -1.294618E+05 -2.588902E+04 -5.966318E+04 -5.705011E+03  1.328124E-09  8.445266E-10
        64  19 -1.294582E+05  1.132724E+03 -1.784070E+04 -2.906799E+03 -1.386840E+04  6.494605E-02
        64  20 -1.241464E+05  4.897209E+03 -2.946311E+04  1.399071E+03 -2.913055E+04 -6.565927E-02
        64  21 -1.294597E+05 -2.588849E+04 -5.965948E+04  5.705011E+03 -4.439277E+04 -4.080167E-01
        64  22 -1.294582E+05  1.132708E+03 -1.784070E+04  1.169502E-08 -1.386840E+04  3.063028E-10
        64  23 -1.241464E+05  4.897206E+03 -2.946311E+04  1.764720E-08 -2.913055E+04 -5.250398E-10
        64  24 -1.294597E+05 -2.588855E+04 -5.965949E+04 -2.247210E-09 -4.439277E+04 -3.219295E-10
        64  25 -1.294582E+05  1.132724E+03 -1.784070E+04  2.906799E+03 -1.386840E+04 -6.494604E-02
        64  26 -1.241464E+05  4.897209E+03 -2.946311E+04 -1.399071E+03 -2.913055E+04  6.565927E-02
        64  27 -1.294597E+05 -2.588849E+04 -5.965948E+04 -5.705011E+03 -4.439277E+04  4.080167E-01
        65   1 -1.439746E+05  9.111172E+03 -7.259740E+04 -2.207341E+04  5.601449E+04 -1.992001E+00
        65   2 -1.059962E+05  3.824462E+04 -1.134276E+05  1.316365E+04  1.176418E+05  2.494778E+00
        65   3 -1.439754E+05 -2.043608E+05 -2.623060E+05  4.839871E+04  1.792702E+05  1.397816E+01
        65   4 -1.439751E+05  9.110256E+03 -7.259753E+04  7.643479E-10  5.601449E+04  2.454340E-09
        65   5 -1.059964E+05  3.824429E+04 -1.134276E+05 -2.538767E-08  1.176418E+05  9.283646E-10
        65   6 -1.439779E+05 -2.043652E+05 -2.623067E+05 -6.300616E-09  1.792702E+05 -1.736445E-09
        65   7 -1.439746E+05  9.111172E+03 -7.259740E+04  2.207341E+04  5.601449E+04  1.992001E+00
        65   8 -1.059962E+05  3.824462E+04 -1.134276E+05 -1.316365E+04  1.176418E+05 -2.494778E+00
        65   9 -1.439754E+05 -2.043608E+05 -2.623060E+05 -4.839871E+04  1.792702E+05 -1.397816E+01
        65  10 -1.439779E+05  9.110329E+03 -7.260329E+04 -2.207341E+04  1.568334E-10  4.994221E-10
        65  11 -1.060110E+05  3.824090E+04 -1.134536E+05  1.316365E+04 -1.371005E-09 -2.615456E-10
        65  12 -1.440099E+05 -2.043694E+05 -2.623664E+05  4.839871E+04 -1.063149E-09 -2.953626E-10
        65  13 -1.439784E+05  9.109413E+03 -7.260342E+04 -7.915050E-09 -1.009773E-09  8.711548E-10
        65  14 -1.060112E+05  3.824058E+04 -1.134536E+05  4.416341E-10  3.112895E-09 -3.323738E-10
        65  15 -1.440124E+05 -2.043738E+05 -2.623671E+05  2.171920E-08 -2.561249E-09 -2.675950E-10
        65  16 -1.439779E+05  9.110329E+03 -7.260329E+04  2.207341E+04  3.851449E-10  1.202116E-09
        65  17 -1.060110E+05  3.824090E+04 -1.134536E+05 -1.316365E+04  4.032273E-09 -6.160275E-10
        65  18 -1.440099E+05 -2.043694E+05 -2.623664E+05 -4.839871E+04  2.554598E-09 -3.394073E-10
        65  19 -1.439746E+05  9.111172E+03 -7.259740E+04 -2.207341E+04 -5.601449E+04  1.992001E+00
        65  20 -1.059962E+05  3.824462E+04 -1.134276E+05  1.316365E+04 -1.176418E+05 -2.494778E+00
        65  21 -1.439754E+05 -2.043608E+05 -2.623060E+05  4.839871E+04 -1.792702E+05 -1.397816E+01
        65  22 -1.439751E+05  9.110256E+03 -7.259753E+04  9.253216E-09 -5.601449E+04 -6.887571E-10
        65  23 -1.059964E+05  3.824429E+04 -1.134276E+05  9.038883E-09 -1.176418E+05 -1.663963E-09
        65  24 -1.439779E+05 -2.043652E+05 -2.623067E+05 -7.324192E-09 -1.792702E+05  3.676922E-10
        65  25 -1.439746E+05  9.111172E+03 -7.259740E+04  2.207341E+04 -5.601449E+04 -1.992001E+00
        65  26 -1.059962E+05  3.824462E+04 -1.134276E+05 -1.316365E+04 -1.176418E+05  2.494778E+00
        65  27 -1.439754E+05 -2.043608E+05 -2.623060E+05 -4.839871E+04 -1.792702E+05  1.397816E+01
        66   1  3.292921E+04 -4.069199E+05  2.922767E+04  3.812237E+03  1.487419E+03 -1.055408E+04
        66   2  4.834184E+04 -4.035320E+05  3.886446E+04  9.510579E+02  4.549600E+03 -8.242253E+03
        66   3  4.742164E+04 -4.044532E+05  4.292804E+04 -5.350037E+02  4.436345E+03 -5.930574E+03
        66   4 -1.295508E+04 -5.906362E+05 -1.637806E+04  8.217891E+02  1.487571E+03 -1.222473E+04
        66   5  2.318531E+03 -5.883796E+05 -6.306593E+03  1.348475E+02  4.549804E+03 -8.771158E+03
        66   6  1.058376E+03 -5.906319E+05 -2.602941E+03  8.230968E+02  4.436201E+03 -5.317713E+03
        66   7 -5.884187E+04 -7.743219E+05 -6.198630E+04 -2.167772E+03  1.487739E+03 -1.389488E+04
        66   8 -4.370730E+04 -7.731961E+05 -5.148014E+04 -6.811176E+02  4.550010E+03 -9.299905E+03
        66   9 -4.530745E+04 -7.767789E+05 -4.813645E+04  2.180792E+03  4.436060E+03 -4.705035E+03
        66  10  3.292918E+04 -4.069200E+05  2.922745E+04  3.812249E+03  2.956581E-10 -1.040122E-10
        66  11  4.834180E+04 -4.035320E+05  3.886429E+04  9.510881E+02  8.506370E-10 -7.663607E-10
        66  12  4.742161E+04 -4.044533E+05  4.292794E+04 -5.349826E+02  8.778336E-10 -6.359890E-10
        66  13 -1.295512E+04 -5.906364E+05 -1.637835E+04  8.218038E+02 -1.938255E-09 -4.535942E-11
        66  14  2.318488E+03 -5.883797E+05 -6.306777E+03  1.348797E+02  1.450796E-09  9.625174E-13
        66  15  1.058347E+03 -5.906319E+05 -2.603031E+03  8.231158E+02  1.139007E-09 -6.210633E-10
        66  16 -5.884193E+04 -7.743221E+05 -6.198667E+04 -2.167755E+03  1.304531E-09  3.937477E-11
        66  17 -4.370735E+04 -7.731962E+05 -5.148034E+04 -6.810835E+02  9.150016E-10  7.617884E-10
        66  18 -4.530747E+04 -7.767790E+05 -4.813653E+04  2.180808E+03 -1.438488E-09  1.045273E-09
        66  19  3.292921E+04 -4.069199E+05  2.922767E+04  3.812237E+03 -1.487419E+03  1.055408E+04
        66  20  4.834184E+04 -4.035320E+05  3.886446E+04  9.510579E+02 -4.549600E+03  8.242253E+03
        66  21  4.742164E+04 -4.044532E+05  4.292804E+04 -5.350037E+02 -4.436345E+03  5.930574E+03
        66  22 -1.295508E+04 -5.906362E+05 -1.637806E+04  8.217891E+02 -1.487571E+03  1.222473E+04
        66  23  2.318531E+03 -5.883796E+05 -6.306593E+03  1.348475E+02 -4.549804E+03  8.771158E+03
        66  24  1.058376E+03 -5.906319E+05 -2.602941E+03  8.230968E+02 -4.436201E+03  5.317713E+03
        66  25 -5.884187E+04 -7.743219E+05 -6.198630E+04 -2.167772E+03 -1.487739E+03  1.389488E+04
        66  26 -4.370730E+04 -7.731961E+05 -5.148014E+04 -6.811176E+02 -4.550010E+03  9.299905E+03
        66  27 -4.530745E+04 -7.767789E+05 -4.813645E+04  2.180792E+03 -4.436060E+03  4.705035E+03
        67   1  4.502699E+04 -4.013907E+05  4.490220E+04  4.937165E+02  4.038571E+03 -4.741976E+03
        67   2  4.650955E+04 -4.014066E+05  4.864884E+04  5.815944E+02  4.395132E+03 -6.298710E+03
        67   3  5.105287E+04 -4.003756E+05  5.419097E+04  1.199742E+03  4.068681E+03 -7.855856E+03
        67   4 -1.813739E+03 -5.894081E+05 -1.181578E+03  6.331950E+02  4.038761E+03 -4.991864E+03
        67   5 -4.353693E+02 -5.899092E+05  2.527044E+03  3.699410E+02  4.395223E+03 -6.302469E+03
        67   6  3.961500E+03 -5.894058E+05  7.860482E+03  6.369665E+02  4.068584E+03 -7.613483E+03
        67   7 -4.865709E+04 -7.773934E+05 -4.726795E+04  7.726348E+02  4.038950E+03 -5.241677E+03
        67   8 -4.738292E+04 -7.783793E+05 -4.359735E+04  1.583570E+02  4.395314E+03 -6.306227E+03
        67   9 -4.313252E+04 -7.784034E+05 -3.847263E+04  7.436919E+01  4.068487E+03 -7.371184E+03
        67  10  4.502696E+04 -4.013907E+05  4.490213E+04  4.937320E+02  1.138117E-10 -3.442604E-10
        67  11  4.650952E+04 -4.014067E+05  4.864873E+04  5.816166E+02 -2.940357E-09 -1.218929E-09
        67  12  5.105284E+04 -4.003757E+05  5.419082E+04  1.199768E+03 -7.684048E-10 -1.125249E-09
        67  13 -1.813763E+03 -5.894082E+05 -1.181656E+03  6.332113E+02 -2.507282E-09  7.204610E-11
        67  14 -4.354008E+02 -5.899092E+05  2.526933E+03  3.699633E+02  4.305789E-09 -1.716287E-11
        67  15  3.961466E+03 -5.894059E+05  7.860342E+03  6.369915E+02 -7.401943E-10 -1.343488E-09
        67  16 -4.865711E+04 -7.773934E+05 -4.726803E+04  7.726518E+02 -2.511629E-09 -1.839744E-10
        67  17 -4.738295E+04 -7.783794E+05 -4.359746E+04  1.583793E+02  2.161016E-09  1.209648E-09
        67  18 -4.313255E+04 -7.784034E+05 -3.847276E+04  7.439335E+01  6.110367E-10  1.907341E-09
        67  19  4.502699E+04 -4.013907E+05  4.490220E+04  4.937165E+02 -4.038571E+03  4.741976E+03
        67  20  4.650955E+04 -4.014066E+05  4.864884E+04  5.815944E+02 -4.395132E+03  6.298710E+03
        67  21  5.105287E+04 -4.003756E+05  5.419097E+04  1.199742E+03 -4.068681E+03  7.855856E+03
        67  22 -1.813739E+03 -5.894081E+05 -1.181578E+03  6.331950E+02 -4.038761E+03  4.991864E+03
        67  23 -4.353693E+02 -5.899092E+05  2.527044E+03  3.699410E+02 -4.395223E+03  6.302469E+03
        67  24  3.961500E+03 -5.894058E+05  7.860482E+03  6.369665E+02 -4.068584E+03  7.613483E+03
        67  25 -4.865709E+04 -7.773934E+05 -4.726795E+04  7.726348E+02 -4.038950E+03  5.241677E+03
        67  26 -4.738292E+04 -7.783793E+05 -4.359735E+04  1.583570E+02 -4.395314E+03  6.306227E+03
        67  27 -4.313252E+04 -7.784034E+05 -3.847263E+04  7.436919E+01 -4.068487E+03  7.371184E+03
        68   1  4.555925E+04 -3.978145E+05  5.635995E+04 -2.963022E+03  4.506470E+03 -8.543002E+03
        68   2  4.131784E+04 -4.038360E+05  6.285867E+04  2.445806E+03  4.671068E+03 -1.879836E+04
        68   3  7.790631E+04 -3.982347E+05  8.626086E+04  7.561847E+03  1.559559E+03 -2.905737E+04
        68   4 -1.582223E+03 -5.870935E+05  1.006805E+04  4.403124E+02  4.507065E+03 -9.186567E+03
        68   5 -5.725755E+03 -5.927988E+05  1.668387E+04  6.049840E+02  4.670674E+03 -1.826067E+04
        68   6  3.076186E+04 -5.870834E+05  3.938574E+04  4.768975E+02  1.557908E+03 -2.733841E+04
        68   7 -4.872631E+04 -7.763397E+05 -3.622645E+04  3.842613E+03  4.507653E+03 -9.829936E+03
        68   8 -5.277197E+04 -7.817290E+05 -2.949353E+04 -1.235268E+03  4.670276E+03 -1.772314E+04
        68   9 -1.638508E+04 -7.758996E+05 -7.492005E+03 -6.605884E+03  1.556218E+03 -2.561997E+04
        68  10  4.555921E+04 -3.978146E+05  5.635977E+04 -2.962991E+03 -2.903217E-09 -9.272639E-10
        68  11  4.131772E+04 -4.038364E+05  6.285796E+04  2.445877E+03 -1.154865E-10 -9.079048E-10
        68  12  7.790608E+04 -3.982356E+05  8.625927E+04  7.561883E+03 -5.677086E-10  3.866096E-10
        68  13 -1.582268E+03 -5.870936E+05  1.006786E+04  4.403457E+02 -8.194721E-10 -5.030550E-12
        68  14 -5.725868E+03 -5.927991E+05  1.668320E+04  6.050527E+02 -4.435865E-09  7.187423E-12
        68  15  3.076165E+04 -5.870842E+05  3.938433E+04  4.769318E+02 -1.026505E-10 -2.099233E-09
        68  16 -4.872635E+04 -7.763398E+05 -3.622667E+04  3.842648E+03 -2.432504E-09  4.150844E-11
        68  17 -5.277208E+04 -7.817293E+05 -2.949416E+04 -1.235201E+03 -6.028871E-10  9.064264E-10
        68  18 -1.638526E+04 -7.759003E+05 -7.493245E+03 -6.605852E+03 -1.824168E-09  8.962716E-10
        68  19  4.555925E+04 -3.978145E+05  5.635995E+04 -2.963022E+03 -4.506470E+03  8.543002E+03
        68  20  4.131784E+04 -4.038360E+05  6.285867E+04  2.445806E+03 -4.671068E+03  1.879836E+04
        68  21  7.790631E+04 -3.982347E+05  8.626086E+04  7.561847E+03 -1.559559E+03  2.905737E+04
        68  22 -1.582223E+03 -5.870935E+05  1.006805E+04  4.403124E+02 -4.507065E+03  9.186567E+03
        68  23 -5.725755E+03 -5.927988E+05  1.668387E+04  6.049840E+02 -4.670674E+03  1.826067E+04
        68  24  3.076186E+04 -5.870834E+05  3.938574E+04  4.768975E+02 -1.557908E+03  2.733841E+04
        68  25 -4.872631E+04 -7.763397E+05 -3.622645E+04  3.842613E+03 -4.507653E+03  9.829936E+03
        68  26 -5.277197E+04 -7.817290E+05 -2.949353E+04 -1.235268E+03 -4.670276E+03  1.772314E+04
        68  27 -1.638508E+04 -7.758996E+05 -7.492005E+03 -6.605884E+03 -1.556218E+03  2.561997E+04
        69   1 -5.892299E+05 -1.158890E+05 -3.589193E+04 -2.174917E+05 -1.441210E+04 -4.926733E+03
        69   2 -5.813060E+05 -9.006421E+04 -2.086617E+04 -2.156850E+05 -9.379169E+03 -2.194574E+03
        69   3 -5.760700E+05 -9.109760E+04 -1.553829E+04 -2.152011E+05 -3.940522E+03 -5.440469E+02
        69   4 -5.402461E+05 -9.397739E+04 -2.180519E+04 -2.006426E+05 -1.398120E+04 -4.765256E+03
        69   5 -5.378387E+05 -7.277931E+04 -8.987266E+03 -2.029068E+05 -9.312206E+03 -2.169491E+03
        69   6 -5.380465E+05 -7.836643E+04 -5.578161E+03 -2.064942E+05 -4.237559E+03 -6.553909E+02
        69   7 -4.912603E+05 -7.206546E+04 -7.718737E+03 -1.837922E+05 -1.355026E+04 -4.603760E+03
        69   8 -4.943697E+05 -5.549426E+04  2.891452E+03 -1.901279E+05 -9.245238E+03 -2.144406E+03
        69   9 -5.000215E+05 -6.563522E+04  4.381866E+03 -1.977868E+05 -4.534616E+03 -7.667407E+02
        69  10 -5.892301E+05 -1.158891E+05 -3.589236E+04 -2.174917E+05 -4.766266E-10  7.752055E-11
        69  11 -5.813061E+05 -9.006424E+04 -2.086635E+04 -2.156850E+05 -6.608675E-09 -9.791764E-11
        69  12 -5.760700E+05 -9.109761E+04 -1.553832E+04 -2.152011E+05 -1.878244E-09 -6.251810E-10
        69  13 -5.402464E+05 -9.397747E+04 -2.180560E+04 -2.006426E+05 -1.101711E-09  1.521903E-11
        69  14 -5.378388E+05 -7.277934E+04 -8.987438E+03 -2.029069E+05 -8.598550E-10  7.099678E-11
        69  15 -5.380465E+05 -7.836643E+04 -5.578196E+03 -2.064942E+05 -1.479258E-09 -1.542546E-10
        69  16 -4.912605E+05 -7.206553E+04 -7.719122E+03 -1.837923E+05  5.728158E-12 -8.644333E-12
        69  17 -4.943698E+05 -5.549429E+04  2.891282E+03 -1.901279E+05  1.510776E-09  4.581666E-10
        69  18 -5.000215E+05 -6.563523E+04  4.381826E+03 -1.977868E+05  5.786090E-10 -3.587466E-10
        69  19 -5.892299E+05 -1.158890E+05 -3.589193E+04 -2.174917E+05  1.441210E+04  4.926733E+03
        69  20 -5.813060E+05 -9.006421E+04 -2.086617E+04 -2.156850E+05  9.379169E+03  2.194574E+03
        69  21 -5.760700E+05 -9.109760E+04 -1.553829E+04 -2.152011E+05  3.940522E+03  5.440469E+02
        69  22 -5.402461E+05 -9.397739E+04 -2.180519E+04 -2.006426E+05  1.398120E+04  4.765256E+03
        69  23 -5.378387E+05 -7.277931E+04 -8.987266E+03 -2.029068E+05  9.312206E+03  2.169491E+03
        69  24 -5.380465E+05 -7.836643E+04 -5.578161E+03 -2.064942E+05  4.237559E+03  6.553909E+02
        69  25 -4.912603E+05 -7.206546E+04 -7.718737E+03 -1.837922E+05  1.355026E+04  4.603760E+03
        69  26 -4.943697E+05 -5.549426E+04  2.891452E+03 -1.901279E+05  9.245238E+03  2.144406E+03
        69  27 -5.000215E+05 -6.563522E+04  4.381866E+03 -1.977868E+05  4.534616E+03  7.667407E+02
        70   1 -5.569656E+05 -8.865202E+04 -9.958930E+03 -2.109306E+05 -3.251951E+03 -6.636017E+02
        70   2 -5.520376E+05 -8.024763E+04 -5.517915E+03 -2.059285E+05 -2.018720E+03 -4.035813E+02
        70   3 -5.422885E+05 -8.058252E+04 -2.692880E+03 -2.071215E+05 -7.401804E+02 -2.644040E+02
        70   4 -5.373033E+05 -8.083009E+04 -4.576035E+03 -2.051493E+05 -3.291394E+03 -6.783913E+02
        70   5 -5.395753E+05 -7.545212E+04 -2.138822E+03 -2.024311E+05 -2.098830E+03 -4.336107E+02
        70   6 -5.370180E+05 -7.880532E+04 -1.285315E+03 -2.059079E+05 -8.609727E+02 -3.096793E+02
        70   7 -5.176407E+05 -7.300813E+04  8.068200E+02 -1.993678E+05 -3.330839E+03 -6.931815E+02
        70   8 -5.271128E+05 -7.065661E+04  1.240249E+03 -1.989336E+05 -2.178940E+03 -4.636408E+02
        70   9 -5.317476E+05 -7.702813E+04  1.222420E+02 -2.046944E+05 -9.817656E+02 -3.549546E+02
        70  10 -5.569656E+05 -8.865202E+04 -9.958950E+03 -2.109306E+05 -1.468004E-09 -1.026116E-09
        70  11 -5.520376E+05 -8.024763E+04 -5.517923E+03 -2.059285E+05 -4.653748E-10 -1.452671E-09
        70  12 -5.422885E+05 -8.058252E+04 -2.692881E+03 -2.071215E+05  1.352882E-10 -2.280823E-10
        70  13 -5.373033E+05 -8.083009E+04 -4.576057E+03 -2.051493E+05 -7.200888E-10 -1.056107E-09
        70  14 -5.395753E+05 -7.545212E+04 -2.138831E+03 -2.024311E+05 -2.288428E-09 -6.957083E-10
        70  15 -5.370180E+05 -7.880532E+04 -1.285317E+03 -2.059079E+05  1.782933E-09 -1.501424E-11
        70  16 -5.176408E+05 -7.300813E+04  8.067982E+02 -1.993678E+05  1.837019E-10 -8.918843E-10
        70  17 -5.271128E+05 -7.065661E+04  1.240239E+03 -1.989336E+05 -8.217701E-10 -1.380401E-09
        70  18 -5.317476E+05 -7.702813E+04  1.222400E+02 -2.046944E+05 -1.705390E-09 -6.739071E-11
        70  19 -5.569656E+05 -8.865202E+04 -9.958930E+03 -2.109306E+05  3.251951E+03  6.636017E+02
        70  20 -5.520376E+05 -8.024763E+04 -5.517915E+03 -2.059285E+05  2.018720E+03  4.035813E+02
        70  21 -5.422885E+05 -8.058252E+04 -2.692880E+03 -2.071215E+05  7.401804E+02  2.644040E+02
        70  22 -5.373033E+05 -8.083009E+04 -4.576035E+03 -2.051493E+05  3.291394E+03  6.783913E+02
        70  23 -5.395753E+05 -7.545212E+04 -2.138822E+03 -2.024311E+05  2.098830E+03  4.336107E+02
        70  24 -5.370180E+05 -7.880532E+04 -1.285315E+03 -2.059079E+05  8.609727E+02  3.096793E+02
        70  25 -5.176407E+05 -7.300813E+04  8.068200E+02 -1.993678E+05  3.330839E+03  6.931815E+02
        70  26 -5.271128E+05 -7.065661E+04  1.240249E+03 -1.989336E+05  2.178940E+03  4.636408E+02
        70  27 -5.317476E+05 -7.702813E+04  1.222420E+02 -2.046944E+05  9.817656E+02  3.549546E+02
        71   1 -5.249400E+05 -7.464969E+04  2.211837E+03 -2.025201E+05 -5.077340E+02 -3.926448E+02
        71   2 -5.204501E+05 -6.853513E+04  4.635666E+03 -1.971300E+05 -1.008059E+02 -5.590204E+02
        71   3 -5.101502E+05 -6.877448E+04  6.735199E+03 -1.985168E+05  3.101233E+02 -7.360124E+02
        71   4 -5.369175E+05 -7.911272E+04 -1.035425E+03 -2.057240E+05 -6.001185E+02 -4.272730E+02
        71   5 -5.398052E+05 -7.581023E+04 -5.834141E+02 -2.023826E+05 -1.967731E+02 -5.949955E+02
        71   6 -5.368819E+05 -7.886095E+04 -4.528220E+02 -2.058183E+05  2.105691E+02 -7.733358E+02
        71   7 -5.488949E+05 -8.357576E+04 -4.282713E+03 -2.089279E+05 -6.925014E+02 -4.619008E+02
        71   8 -5.591599E+05 -8.308534E+04 -5.802545E+03 -2.076352E+05 -2.927374E+02 -6.309695E+02
        71   9 -5.636131E+05 -8.894741E+04 -7.640924E+03 -2.131196E+05  1.110194E+02 -8.106575E+02
        71  10 -5.249400E+05 -7.464969E+04  2.211836E+03 -2.025201E+05 -4.458769E-10  6.584660E-10
        71  11 -5.204501E+05 -6.853513E+04  4.635665E+03 -1.971300E+05 -2.073631E-10  8.938885E-10
        71  12 -5.101502E+05 -6.877448E+04  6.735198E+03 -1.985168E+05 -1.983790E-09 -6.443637E-10
        71  13 -5.369175E+05 -7.911272E+04 -1.035426E+03 -2.057240E+05 -4.442252E-11  1.711621E-10
        71  14 -5.398052E+05 -7.581023E+04 -5.834149E+02 -2.023826E+05 -5.658818E-09 -7.586399E-10
        71  15 -5.368819E+05 -7.886095E+04 -4.528232E+02 -2.058183E+05 -2.067312E-09 -2.583156E-10
        71  16 -5.488949E+05 -8.357576E+04 -4.282714E+03 -2.089279E+05 -2.643262E-09 -5.658679E-10
        71  17 -5.591599E+05 -8.308534E+04 -5.802546E+03 -2.076352E+05 -4.144478E-09 -7.837534E-10
        71  18 -5.636131E+05 -8.894741E+04 -7.640925E+03 -2.131196E+05  1.773566E-09  2.065114E-10
        71  19 -5.249400E+05 -7.464969E+04  2.211837E+03 -2.025201E+05  5.077340E+02  3.926448E+02
        71  20 -5.204501E+05 -6.853513E+04  4.635666E+03 -1.971300E+05  1.008059E+02  5.590204E+02
        71  21 -5.101502E+05 -6.877448E+04  6.735199E+03 -1.985168E+05 -3.101233E+02  7.360124E+02
        71  22 -5.369175E+05 -7.911272E+04 -1.035425E+03 -2.057240E+05  6.001185E+02  4.272730E+02
        71  23 -5.398052E+05 -7.581023E+04 -5.834141E+02 -2.023826E+05  1.967731E+02  5.949955E+02
        71  24 -5.368819E+05 -7.886095E+04 -4.528220E+02 -2.058183E+05 -2.105691E+02  7.733358E+02
        71  25 -5.488949E+05 -8.357576E+04 -4.282713E+03 -2.089279E+05  6.925014E+02  4.619008E+02
        71  26 -5.591599E+05 -8.308534E+04 -5.802545E+03 -2.076352E+05  2.927374E+02  6.309695E+02
        71  27 -5.636131E+05 -8.894741E+04 -7.640924E+03 -2.131196E+05 -1.110194E+02  8.106575E+02
        72   1 -4.933187E+05 -6.246373E+04  1.133747E+04 -1.939300E+05  4.457550E+02 -8.797042E+02
        72   2 -4.889738E+05 -5.675068E+04  1.318415E+04 -1.885975E+05  8.148936E+02 -1.067495E+03
        72   3 -4.788530E+05 -5.703340E+04  1.480002E+04 -1.899489E+05  1.182306E+03 -1.250528E+03
        72   4 -5.369016E+05 -7.886160E+04 -4.444236E+02 -2.057678E+05  3.486247E+02 -9.161237E+02
        72   5 -5.397917E+05 -7.588103E+04 -5.235218E+02 -2.024193E+05  7.193402E+02 -1.103332E+03
        72   6 -5.369065E+05 -7.889657E+04 -8.347182E+02 -2.057547E+05  1.088327E+03 -1.285783E+03
        72   7 -5.804824E+05 -9.525930E+04 -1.222644E+04 -2.176049E+05  2.515021E+02 -9.525403E+02
        72   8 -5.906071E+05 -9.501120E+04 -1.423140E+04 -2.162401E+05  6.237955E+02 -1.139165E+03
        72   9 -5.949569E+05 -1.007596E+05 -1.646978E+04 -2.215593E+05  9.943576E+02 -1.321034E+03
        72  10 -4.933187E+05 -6.246373E+04  1.133746E+04 -1.939300E+05  2.227894E-10 -5.166664E-10
        72  11 -4.889738E+05 -5.675068E+04  1.318414E+04 -1.885975E+05  2.530583E-09 -1.665409E-10
        72  12 -4.788530E+05 -5.703340E+04  1.480002E+04 -1.899489E+05  3.775744E-10 -4.053447E-10
        72  13 -5.369016E+05 -7.886160E+04 -4.444254E+02 -2.057678E+05  2.404711E-09  1.378506E-10
        72  14 -5.397917E+05 -7.588103E+04 -5.235250E+02 -2.024193E+05  3.798732E-09 -6.659209E-11
        72  15 -5.369065E+05 -7.889657E+04 -8.347235E+02 -2.057547E+05  2.123801E-09 -3.673471E-10
        72  16 -5.804824E+05 -9.525930E+04 -1.222644E+04 -2.176049E+05  8.959019E-10  3.511967E-10
        72  17 -5.906071E+05 -9.501120E+04 -1.423141E+04 -2.162401E+05  1.318877E-10 -5.499666E-10
        72  18 -5.949569E+05 -1.007596E+05 -1.646978E+04 -2.215593E+05  2.219816E-09 -2.531260E-10
        72  19 -4.933187E+05 -6.246373E+04  1.133747E+04 -1.939300E+05 -4.457550E+02  8.797042E+02
        72  20 -4.889738E+05 -5.675068E+04  1.318415E+04 -1.885975E+05 -8.148936E+02  1.067495E+03
        72  21 -4.788530E+05 -5.703340E+04  1.480002E+04 -1.899489E+05 -1.182306E+03  1.250528E+03
        72  22 -5.369016E+05 -7.886160E+04 -4.444236E+02 -2.057678E+05 -3.486247E+02  9.161237E+02
        72  23 -5.397917E+05 -7.588103E+04 -5.235218E+02 -2.024193E+05 -7.193402E+02  1.103332E+03
        72  24 -5.369065E+05 -7.889657E+04 -8.347182E+02 -2.057547E+05 -1.088327E+03  1.285783E+03
        72  25 -5.804824E+05 -9.525930E+04 -1.222644E+04 -2.176049E+05 -2.515021E+02  9.525403E+02
        72  26 -5.906071E+05 -9.501120E+04 -1.423140E+04 -2.162401E+05 -6.237955E+02  1.139165E+03
        72  27 -5.949569E+05 -1.007596E+05 -1.646978E+04 -2.215593E+05 -9.943576E+02  1.321034E+03
        73   1 -4.625949E+05 -5.081263E+04  1.902537E+04 -1.855636E+05  1.402327E+03 -1.355242E+03
        73   2 -4.583615E+05 -4.523318E+04  2.010068E+04 -1.803728E+05  2.429052E+03 -1.286374E+03
        73   3 -4.488929E+05 -4.601069E+04  2.029347E+04 -1.814545E+05  3.450820E+03 -1.204049E+03
        73   4 -5.369984E+05 -7.877047E+04 -1.061003E+03 -2.057411E+05  1.306619E+03 -1.391153E+03
        73   5 -5.396530E+05 -7.585651E+04 -1.830624E+03 -2.025055E+05  2.337753E+03 -1.320645E+03
        73   6 -5.370734E+05 -7.930044E+04 -3.486345E+03 -2.055424E+05  3.363919E+03 -1.236683E+03
        73   7 -6.113965E+05 -1.067279E+05 -2.114783E+04 -2.259164E+05  1.210925E+03 -1.427060E+03
        73   8 -6.209382E+05 -1.064794E+05 -2.376251E+04 -2.246356E+05  2.246467E+03 -1.354912E+03
        73   9 -6.252466E+05 -1.125898E+05 -2.726690E+04 -2.296272E+05  3.277032E+03 -1.269313E+03
        73  10 -4.625949E+05 -5.081263E+04  1.902536E+04 -1.855636E+05 -2.919411E-09 -5.011506E-10
        73  11 -4.583615E+05 -4.523319E+04  2.010066E+04 -1.803728E+05  9.542317E-10  2.452280E-10
        73  12 -4.488929E+05 -4.601069E+04  2.029345E+04 -1.814545E+05 -1.033971E-09  2.491915E-10
        73  13 -5.369984E+05 -7.877047E+04 -1.061010E+03 -2.057411E+05  1.074645E-09 -4.027860E-11
        73  14 -5.396530E+05 -7.585651E+04 -1.830637E+03 -2.025055E+05  1.016585E-09  8.569971E-11
        73  15 -5.370734E+05 -7.930045E+04 -3.486370E+03 -2.055424E+05  3.237332E-09 -3.039078E-10
        73  16 -6.113965E+05 -1.067279E+05 -2.114783E+04 -2.259164E+05  7.907364E-10  2.696847E-10
        73  17 -6.209382E+05 -1.064795E+05 -2.376253E+04 -2.246356E+05  4.166901E-10  1.739124E-10
        73  18 -6.252466E+05 -1.125898E+05 -2.726692E+04 -2.296272E+05  4.203091E-09 -4.352287E-10
        73  19 -4.625949E+05 -5.081263E+04  1.902537E+04 -1.855636E+05 -1.402327E+03  1.355242E+03
        73  20 -4.583615E+05 -4.523318E+04  2.010068E+04 -1.803728E+05 -2.429052E+03  1.286374E+03
        73  21 -4.488929E+05 -4.601069E+04  2.029347E+04 -1.814545E+05 -3.450820E+03  1.204049E+03
        73  22 -5.369984E+05 -7.877047E+04 -1.061003E+03 -2.057411E+05 -1.306619E+03  1.391153E+03
        73  23 -5.396530E+05 -7.585651E+04 -1.830624E+03 -2.025055E+05 -2.337753E+03  1.320645E+03
        73  24 -5.370734E+05 -7.930044E+04 -3.486345E+03 -2.055424E+05 -3.363919E+03  1.236683E+03
        73  25 -6.113965E+05 -1.067279E+05 -2.114783E+04 -2.259164E+05 -1.210925E+03  1.427060E+03
        73  26 -6.209382E+05 -1.064794E+05 -2.376251E+04 -2.246356E+05 -2.246467E+03  1.354912E+03
        73  27 -6.252466E+05 -1.125898E+05 -2.726690E+04 -2.296272E+05 -3.277032E+03  1.269313E+03
        74   1 -4.333952E+05 -3.986661E+04  2.348723E+04 -1.779921E+05  4.180361E+03 -1.113166E+03
        74   2 -4.289653E+05 -3.357655E+04  2.184100E+04 -1.725753E+05  8.311955E+03  1.378150E+02
        74   3 -4.219006E+05 -3.824836E+04  1.565260E+04 -1.718319E+05  1.242438E+04  1.440097E+03
        74   4 -5.374088E+05 -7.859446E+04 -4.510177E+03 -2.058369E+05  4.082831E+03 -1.149798E+03
        74   5 -5.390207E+05 -7.520487E+04 -7.882352E+03 -2.027145E+05  8.231005E+03  1.073840E+02
        74   6 -5.380015E+05 -8.278120E+04 -1.581046E+04 -2.042657E+05  1.235996E+04  1.415844E+03
        74   7 -6.414119E+05 -1.173217E+05 -3.250854E+04 -2.336774E+05  3.985318E+03 -1.186424E+03
        74   8 -6.490643E+05 -1.168324E+05 -3.760675E+04 -2.328489E+05  8.150072E+03  7.695897E+01
        74   9 -6.540891E+05 -1.273130E+05 -4.727466E+04 -2.366939E+05  1.229556E+04  1.391596E+03
        74  10 -4.333952E+05 -3.986662E+04  2.348719E+04 -1.779921E+05 -1.461757E-09  7.195869E-10
        74  11 -4.289654E+05 -3.357657E+04  2.184087E+04 -1.725753E+05  4.118639E-09  2.054663E-09
        74  12 -4.219008E+05 -3.824840E+04  1.565230E+04 -1.718319E+05 -3.239874E-10  5.455043E-10
        74  13 -5.374088E+05 -7.859447E+04 -4.510211E+03 -2.058369E+05  2.941841E-09  7.708939E-10
        74  14 -5.390208E+05 -7.520489E+04 -7.882480E+03 -2.027145E+05  1.155391E-09  2.503960E-09
        74  15 -5.380016E+05 -8.278124E+04 -1.581075E+04 -2.042657E+05 -9.259402E-10 -9.272613E-11
        74  16 -6.414119E+05 -1.173218E+05 -3.250857E+04 -2.336774E+05  4.557645E-09  1.004251E-09
        74  17 -6.490644E+05 -1.168324E+05 -3.760688E+04 -2.328489E+05  1.035030E-09  1.758016E-09
        74  18 -6.540893E+05 -1.273131E+05 -4.727495E+04 -2.366939E+05 -1.480614E-10 -6.066866E-10
        74  19 -4.333952E+05 -3.986661E+04  2.348723E+04 -1.779921E+05 -4.180361E+03  1.113166E+03
        74  20 -4.289653E+05 -3.357655E+04  2.184100E+04 -1.725753E+05 -8.311955E+03 -1.378150E+02
        74  21 -4.219006E+05 -3.824836E+04  1.565260E+04 -1.718319E+05 -1.242438E+04 -1.440097E+03
        74  22 -5.374088E+05 -7.859446E+04 -4.510177E+03 -2.058369E+05 -4.082831E+03  1.149798E+03
        74  23 -5.390207E+05 -7.520487E+04 -7.882352E+03 -2.027145E+05 -8.231005E+03 -1.073840E+02
        74  24 -5.380015E+05 -8.278120E+04 -1.581046E+04 -2.042657E+05 -1.235996E+04 -1.415844E+03
        74  25 -6.414119E+05 -1.173217E+05 -3.250854E+04 -2.336774E+05 -3.985318E+03  1.186424E+03
        74  26 -6.490643E+05 -1.168324E+05 -3.760675E+04 -2.328489E+05 -8.150072E+03 -7.695897E+01
        74  27 -6.540891E+05 -1.273130E+05 -4.727466E+04 -2.366939E+05 -1.229556E+04 -1.391596E+03
        75   1 -4.063471E+05 -3.078772E+04  1.532829E+04 -1.742089E+05  1.551470E+04  2.379367E+03
        75   2 -3.994631E+05 -1.679290E+04  2.898206E+03 -1.650021E+05  3.341126E+04  8.813238E+03
        75   3 -4.064919E+05 -5.140280E+04 -3.473269E+04 -1.502870E+05  5.117151E+04  1.561099E+04
        75   4 -5.397802E+05 -7.767957E+04 -2.002802E+04 -2.070653E+05  1.536582E+04  2.323492E+03
        75   5 -5.351132E+05 -6.961840E+04 -3.402697E+04 -2.037114E+05  3.338104E+04  8.801714E+03
        75   6 -5.443864E+05 -1.101919E+05 -7.332516E+04 -1.948487E+05  5.125985E+04  1.564345E+04
        75   7 -6.731966E+05 -1.245711E+05 -5.538592E+04 -2.399156E+05  1.521698E+04  2.267629E+03
        75   8 -6.707457E+05 -1.224426E+05 -7.095385E+04 -2.424131E+05  3.335083E+04  8.790192E+03
        75   9 -6.822624E+05 -1.689785E+05 -1.119194E+05 -2.394010E+05  5.134817E+04  1.567591E+04
        75  10 -4.063473E+05 -3.078779E+04  1.532782E+04 -1.742089E+05 -3.946694E-09 -7.099313E-10
        75  11 -3.994643E+05 -1.679328E+04  2.895960E+03 -1.650023E+05  3.966197E-09  1.417669E-09
        75  12 -4.064948E+05 -5.140376E+04 -3.473807E+04 -1.502877E+05  2.083572E-09 -7.762045E-10
        75  13 -5.397805E+05 -7.767964E+04 -2.002848E+04 -2.070653E+05 -1.906497E-09 -7.362733E-10
        75  14 -5.351144E+05 -6.961878E+04 -3.402921E+04 -2.037117E+05  2.512670E-09  2.584890E-09
        75  15 -5.443893E+05 -1.101929E+05 -7.333056E+04 -1.948494E+05 -2.834242E-10 -2.109722E-09
        75  16 -6.731968E+05 -1.245711E+05 -5.538637E+04 -2.399156E+05  1.333250E-09 -9.490448E-10
        75  17 -6.707469E+05 -1.224429E+05 -7.095609E+04 -2.424133E+05  1.093741E-09 -3.199149E-10
        75  18 -6.822653E+05 -1.689794E+05 -1.119248E+05 -2.394016E+05 -3.197758E-09 -1.491802E-09
        75  19 -4.063471E+05 -3.078772E+04  1.532829E+04 -1.742089E+05 -1.551470E+04 -2.379367E+03
        75  20 -3.994631E+05 -1.679290E+04  2.898206E+03 -1.650021E+05 -3.341126E+04 -8.813238E+03
        75  21 -4.064919E+05 -5.140280E+04 -3.473269E+04 -1.502870E+05 -5.117151E+04 -1.561099E+04
        75  22 -5.397802E+05 -7.767957E+04 -2.002802E+04 -2.070653E+05 -1.536582E+04 -2.323492E+03
        75  23 -5.351132E+05 -6.961840E+04 -3.402697E+04 -2.037114E+05 -3.338104E+04 -8.801714E+03
        75  24 -5.443864E+05 -1.101919E+05 -7.332516E+04 -1.948487E+05 -5.125985E+04 -1.564345E+04
        75  25 -6.731966E+05 -1.245711E+05 -5.538592E+04 -2.399156E+05 -1.521698E+04 -2.267629E+03
        75  26 -6.707457E+05 -1.224426E+05 -7.095385E+04 -2.424131E+05 -3.335083E+04 -8.790192E+03
        75  27 -6.822624E+05 -1.689785E+05 -1.119194E+05 -2.394010E+05 -5.134817E+04 -1.567591E+04
        76   1 -3.817710E+05 -3.078936E+04 -4.747700E+04 -1.955568E+05  6.531112E+04  2.024938E+04
        76   2 -3.575190E+05  4.517643E+04 -1.009413E+05 -1.546991E+05  1.438166E+05  4.938712E+04
        76   3 -4.655274E+05 -2.184351E+05 -3.046643E+05 -3.140786E+04  2.211385E+05  8.167834E+04
        76   4 -5.560043E+05 -7.096231E+04 -8.947347E+04 -2.168494E+05  6.465291E+04  2.000510E+04
        76   5 -5.075260E+05 -2.631021E+04 -1.442671E+05 -2.109395E+05  1.441996E+05  4.952682E+04
        76   6 -5.915525E+05 -3.214989E+05 -3.501739E+05 -1.225849E+05  2.225657E+05  8.219072E+04
        76   7 -7.302072E+05 -1.111361E+05 -1.314716E+05 -2.381387E+05  6.399490E+04  1.976082E+04
        76   8 -6.575102E+05 -9.779107E+04 -1.875949E+05 -2.671662E+05  1.445824E+05  4.966645E+04
        76   9 -7.175536E+05 -4.245354E+05 -3.956839E+05 -2.137389E+05  2.239924E+05  8.270264E+04
        76  10 -3.817757E+05 -3.079095E+04 -4.748579E+04 -1.955578E+05  1.337857E-09 -2.159721E-09
        76  11 -3.575419E+05  4.516825E+04 -1.009848E+05 -1.547048E+05 -6.238531E-10 -2.155227E-09
        76  12 -4.655818E+05 -2.184554E+05 -3.047688E+05 -3.142242E+04  1.221558E-09 -1.960602E-10
        76  13 -5.560089E+05 -7.096386E+04 -8.948208E+04 -2.168504E+05  1.046502E-09 -3.373064E-09
        76  14 -5.075490E+05 -2.631844E+04 -1.443108E+05 -2.109453E+05 -2.310468E-09  3.689944E-10
        76  15 -5.916076E+05 -3.215195E+05 -3.502798E+05 -1.225996E+05  7.984319E-10  1.041727E-09
        76  16 -7.302117E+05 -1.111377E+05 -1.314801E+05 -2.381398E+05 -2.153650E-09 -1.151909E-09
        76  17 -6.575333E+05 -9.779934E+04 -1.876388E+05 -2.671720E+05 -7.104484E-10  1.886763E-09
        76  18 -7.176094E+05 -4.245562E+05 -3.957911E+05 -2.137538E+05 -5.453194E-10 -1.633510E-10
        76  19 -3.817710E+05 -3.078936E+04 -4.747700E+04 -1.955568E+05 -6.531112E+04 -2.024938E+04
        76  20 -3.575190E+05  4.517643E+04 -1.009413E+05 -1.546991E+05 -1.438166E+05 -4.938712E+04
        76  21 -4.655274E+05 -2.184351E+05 -3.046643E+05 -3.140786E+04 -2.211385E+05 -8.167834E+04
        76  22 -5.560043E+05 -7.096231E+04 -8.947347E+04 -2.168494E+05 -6.465291E+04 -2.000510E+04
        76  23 -5.075260E+05 -2.631021E+04 -1.442671E+05 -2.109395E+05 -1.441996E+05 -4.952682E+04
        76  24 -5.915525E+05 -3.214989E+05 -3.501739E+05 -1.225849E+05 -2.225657E+05 -8.219072E+04
        76  25 -7.302072E+05 -1.111361E+05 -1.314716E+05 -2.381387E+05 -6.399490E+04 -1.976082E+04
        76  26 -6.575102E+05 -9.779107E+04 -1.875949E+05 -2.671662E+05 -1.445824E+05 -4.966645E+04
        76  27 -7.175536E+05 -4.245354E+05 -3.956839E+05 -2.137389E+05 -2.239924E+05 -8.270264E+04
        77   1  3.210100E+05  2.477923E+06  3.058576E+05 -4.505135E+04  1.700240E+04  1.363018E+05
        77   2  2.804017E+05  2.451410E+06  2.266147E+05 -3.318256E+04  5.911551E+04  7.485638E+04
        77   3  2.650462E+05  2.439271E+06  1.936139E+05 -2.296276E+04  7.589431E+04  1.342038E+04
        77   4  3.319765E+04  1.306067E+06  3.610421E+04 -2.278464E+04  1.701924E+04  2.420282E+04
        77   5  9.718203E+03  1.303378E+06  1.876156E+04 -2.196815E+04  5.914185E+04  1.462517E+04
        77   6  2.530537E+03  1.306098E+06  1.174239E+04 -2.279726E+04  7.591085E+04  5.052200E+03
        77   7 -2.547019E+05  1.355058E+05 -2.336929E+05 -5.601025E+02  1.702810E+04 -8.768698E+04
        77   8 -2.610367E+05  1.566330E+05 -1.891300E+05 -1.077488E+04  5.916604E+04 -4.549810E+04
        77   9 -2.600495E+05  1.741962E+05 -1.701632E+05 -2.263192E+04  7.592740E+04 -3.301301E+03
        77  10  3.210048E+05  2.477903E+06  3.058223E+05 -4.505321E+04 -6.831811E-11 -1.542300E-08
        77  11  2.803965E+05  2.451403E+06  2.265976E+05 -3.318612E+04  2.839098E-09  7.537495E-08
        77  12  2.650399E+05  2.439269E+06  1.936027E+05 -2.296358E+04 -6.250629E-10  1.583182E-07
        77  13  3.319718E+04  1.306067E+06  3.610256E+04 -2.278497E+04 -3.256514E-09 -1.119702E-10
        77  14  9.714387E+03  1.303377E+06  1.875459E+04 -2.196885E+04 -9.125955E-09 -2.453035E-10
        77  15  2.524338E+03  1.306097E+06  1.173150E+04 -2.279757E+04 -1.784309E-08 -5.537649E-11
        77  16 -2.547043E+05  1.354975E+05 -2.337078E+05 -5.588996E+02  3.637079E-09  1.536992E-08
        77  17 -2.610410E+05  1.566298E+05 -1.891405E+05 -1.077271E+04  2.288483E-09 -7.584107E-08
        77  18 -2.600557E+05  1.741946E+05 -1.701740E+05 -2.263172E+04  1.495130E-09 -1.578972E-07
        77  19  3.210100E+05  2.477923E+06  3.058576E+05 -4.505135E+04 -1.700240E+04 -1.363018E+05
        77  20  2.804017E+05  2.451410E+06  2.266147E+05 -3.318256E+04 -5.911551E+04 -7.485638E+04
        77  21  2.650462E+05  2.439271E+06  1.936139E+05 -2.296276E+04 -7.589431E+04 -1.342038E+04
        77  22  3.319765E+04  1.306067E+06  3.610421E+04 -2.278464E+04 -1.701924E+04 -2.420282E+04
        77  23  9.718203E+03  1.303378E+06  1.876156E+04 -2.196815E+04 -5.914185E+04 -1.462517E+04
        77  24  2.530537E+03  1.306098E+06  1.174239E+04 -2.279726E+04 -7.591085E+04 -5.052200E+03
        77  25 -2.547019E+05  1.355058E+05 -2.336929E+05 -5.601025E+02 -1.702810E+04  8.768698E+04
        77  26 -2.610367E+05  1.566330E+05 -1.891300E+05 -1.077488E+04 -5.916604E+04  4.549810E+04
        77  27 -2.600495E+05  1.741962E+05 -1.701632E+05 -2.263192E+04 -7.592740E+04  3.301301E+03
        78   1  2.608827E+05  2.425072E+06  1.865240E+05 -2.503219E+04  7.749276E+04  1.221645E+04
        78   2  2.544939E+05  2.404751E+06  1.784280E+05 -2.189417E+04  7.914510E+04 -3.256993E+03
        78   3  2.527954E+05  2.387691E+06  1.815754E+05 -2.225209E+04  7.545572E+04 -1.873424E+04
        78   4  2.106828E+03  1.305205E+06  1.009280E+04 -2.320853E+04  7.751068E+04  3.383540E+03
        78   5  1.053343E+03  1.304526E+06  9.077121E+03 -2.146057E+04  7.915704E+04 -1.149108E+03
        78   6  2.799448E+03  1.305218E+06  1.173170E+04 -2.320889E+04  7.545694E+04 -5.685994E+03
        78   7 -2.567309E+05  1.865823E+05 -1.663692E+05 -2.138809E+04  7.752856E+04 -5.434077E+03
        78   8 -2.524457E+05  2.055063E+05 -1.603009E+05 -2.102754E+04  7.916900E+04  9.551973E+02
        78   9 -2.472540E+05  2.239081E+05 -1.581399E+05 -2.416372E+04  7.545811E+04  7.340424E+03
        78  10  2.608762E+05  2.425070E+06  1.865124E+05 -2.503295E+04 -2.595471E-10 -1.650088E-07
        78  11  2.544871E+05  2.404749E+06  1.784162E+05 -2.189396E+04  2.613313E-09 -8.103581E-08
        78  12  2.527892E+05  2.387690E+06  1.815641E+05 -2.225095E+04 -2.491971E-11  1.648575E-08
        78  13  2.100370E+03  1.305203E+06  1.008148E+04 -2.320874E+04 -1.811067E-08 -4.551856E-10
        78  14  1.046611E+03  1.304524E+06  9.065337E+03 -2.146049E+04 -6.695000E-09 -6.716671E-10
        78  15  2.793322E+03  1.305216E+06  1.172094E+04 -2.320855E+04  1.540899E-09 -2.773821E-11
        78  16 -2.567374E+05  1.865806E+05 -1.663805E+05 -2.138775E+04 -4.807012E-10  1.645818E-07
        78  17 -2.524524E+05  2.055046E+05 -1.603127E+05 -2.102760E+04 -8.156330E-10  7.907639E-08
        78  18 -2.472601E+05  2.239065E+05 -1.581507E+05 -2.416416E+04  3.520884E-09 -1.614616E-08
        78  19  2.608827E+05  2.425072E+06  1.865240E+05 -2.503219E+04 -7.749276E+04 -1.221645E+04
        78  20  2.544939E+05  2.404751E+06  1.784280E+05 -2.189417E+04 -7.914510E+04  3.256993E+03
        78  21  2.527954E+05  2.387691E+06  1.815754E+05 -2.225209E+04 -7.545572E+04  1.873424E+04
        78  22  2.106828E+03  1.305205E+06  1.009280E+04 -2.320853E+04 -7.751068E+04 -3.383540E+03
        78  23  1.053343E+03  1.304526E+06  9.077121E+03 -2.146057E+04 -7.915704E+04  1.149108E+03
        78  24  2.799448E+03  1.305218E+06  1.173170E+04 -2.320889E+04 -7.545694E+04  5.685994E+03
        78  25 -2.567309E+05  1.865823E+05 -1.663692E+05 -2.138809E+04 -7.752856E+04  5.434077E+03
        78  26 -2.524457E+05  2.055063E+05 -1.603009E+05 -2.102754E+04 -7.916900E+04 -9.551973E+02
        78  27 -2.472540E+05  2.239081E+05 -1.581399E+05 -2.416372E+04 -7.545811E+04 -7.340424E+03
        79   1  2.515567E+05  2.378492E+06  1.854746E+05 -2.467233E+04  7.252273E+04 -2.028676E+04
        79   2  2.601922E+05  2.352987E+06  2.128586E+05 -7.455015E+03  5.529856E+04 -7.819166E+04
        79   3  2.980818E+05  2.342371E+06  2.851759E+05  4.628199E+03  1.584931E+04 -1.361307E+05
        79   4  3.384372E+03  1.306480E+06  1.433859E+04 -2.357802E+04  7.252232E+04 -7.656974E+03
        79   5  1.294561E+04  1.302963E+06  2.423708E+04 -2.099044E+04  5.524363E+04 -2.006860E+04
        79   6  4.390362E+04  1.306469E+06  4.756060E+04 -2.353978E+04  1.572536E+04 -3.251317E+04
        79   7 -2.448453E+05  2.356061E+05 -1.568268E+05 -2.248537E+04  7.252196E+04  4.951869E+03
        79   8 -2.343597E+05  2.540175E+05 -1.644143E+05 -3.450210E+04  5.518613E+04  3.795923E+04
        79   9 -2.103403E+05  2.715824E+05 -1.900847E+05 -5.166023E+04  1.559192E+04  7.093344E+04
        79  10  2.515509E+05  2.378490E+06  1.854639E+05 -2.467115E+04  6.020554E-10 -6.078727E-09
        79  11  2.601873E+05  2.352980E+06  2.128414E+05 -7.451537E+03  1.463024E-09 -7.922726E-09
        79  12  2.980765E+05  2.342351E+06  2.851408E+05  4.629934E+03  1.090313E-09 -3.823063E-09
        79  13  3.378705E+03  1.306478E+06  1.432859E+04 -2.357757E+04  7.777315E-09 -1.054858E-09
        79  14  1.294222E+04  1.302962E+06  2.423059E+04 -2.098954E+04  8.037013E-10 -1.027574E-09
        79  15  4.390307E+04  1.306468E+06  4.755815E+04 -2.353937E+04  1.883857E-09 -9.882899E-11
        79  16 -2.448509E+05  2.356047E+05 -1.568368E+05 -2.248566E+04  4.986464E-09  5.610387E-09
        79  17 -2.343634E+05  2.540151E+05 -1.644227E+05 -3.450379E+04  4.968434E-09  5.210465E-09
        79  18 -2.103419E+05  2.715769E+05 -1.900946E+05 -5.166112E+04  3.128727E-09  4.207337E-09
        79  19  2.515567E+05  2.378492E+06  1.854746E+05 -2.467233E+04 -7.252273E+04  2.028676E+04
        79  20  2.601922E+05  2.352987E+06  2.128586E+05 -7.455015E+03 -5.529856E+04  7.819166E+04
        79  21  2.980818E+05  2.342371E+06  2.851759E+05  4.628199E+03 -1.584931E+04  1.361307E+05
        79  22  3.384372E+03  1.306480E+06  1.433859E+04 -2.357802E+04 -7.252232E+04  7.656974E+03
        79  23  1.294561E+04  1.302963E+06  2.423708E+04 -2.099044E+04 -5.524363E+04  2.006860E+04
        79  24  4.390362E+04  1.306469E+06  4.756060E+04 -2.353978E+04 -1.572536E+04  3.251317E+04
        79  25 -2.448453E+05  2.356061E+05 -1.568268E+05 -2.248537E+04 -7.252196E+04 -4.951869E+03
        79  26 -2.343597E+05  2.540175E+05 -1.644143E+05 -3.450210E+04 -5.518613E+04 -3.795923E+04
        79  27 -2.103403E+05  2.715824E+05 -1.900847E+05 -5.166023E+04 -1.559192E+04 -7.093344E+04
        80   1 -2.916239E+06 -4.338457E+05 -4.452071E+05 -6.784399E+04 -5.787297E+04  1.189865E+04
        80   2 -2.824299E+06 -3.515036E+05 -3.819895E+05 -1.407023E+04 -3.262356E+04  3.579793E+04
        80   3 -2.747474E+06 -3.376535E+05 -3.513711E+05 -4.760264E+04 -7.253107E+03  3.165739E+04
        80   4 -1.386538E+06 -5.087053E+04 -6.464692E+04 -5.063836E+04 -4.438487E+04  1.195789E+04
        80   5 -1.379851E+06  8.838383E+03 -2.841022E+04 -7.104448E+03 -2.915626E+04  3.580424E+04
        80   6 -1.386490E+06  1.889326E+03 -1.774478E+04 -5.086601E+04 -1.381065E+04  3.163868E+04
        80   7  1.452960E+05  3.319292E+05  3.157383E+05 -3.339252E+04 -3.086332E+04  1.201781E+04
        80   8  6.650594E+04  3.690256E+05  3.250163E+05 -1.239783E+02 -2.568082E+04  3.581062E+04
        80   9 -2.381048E+04  3.412946E+05  3.157457E+05 -5.413743E+04 -2.038256E+04  3.162005E+04
        80  10 -2.916242E+06 -4.338467E+05 -4.452136E+05 -6.784343E+04  1.965512E-10 -1.717561E-11
        80  11 -2.824300E+06 -3.515053E+05 -3.819939E+05 -1.406929E+04 -5.092390E-10  5.594054E-11
        80  12 -2.747475E+06 -3.376546E+05 -3.513731E+05 -4.760246E+04  1.101969E-09 -1.995583E-10
        80  13 -1.386540E+06 -5.087121E+04 -6.465090E+04 -5.063793E+04  4.165420E-11 -1.756597E-10
        80  14 -1.379852E+06  8.836778E+03 -2.841423E+04 -7.103607E+03  5.672389E-10  7.309349E-11
        80  15 -1.386490E+06  1.888200E+03 -1.774702E+04 -5.086566E+04  3.472073E-09 -2.544795E-11
        80  16  1.452950E+05  3.319288E+05  3.157363E+05 -3.339222E+04 -2.375476E-09 -1.509023E-10
        80  17  6.650488E+04  3.690241E+05  3.250126E+05 -1.232380E+02  1.683397E-09 -2.898459E-11
        80  18 -2.381119E+04  3.412934E+05  3.157431E+05 -5.413691E+04 -4.735328E-09  1.332079E-10
        80  19 -2.916239E+06 -4.338457E+05 -4.452071E+05 -6.784399E+04  5.787297E+04 -1.189865E+04
        80  20 -2.824299E+06 -3.515036E+05 -3.819895E+05 -1.407023E+04  3.262356E+04 -3.579793E+04
        80  21 -2.747474E+06 -3.376535E+05 -3.513711E+05 -4.760264E+04  7.253107E+03 -3.165739E+04
        80  22 -1.386538E+06 -5.087053E+04 -6.464692E+04 -5.063836E+04  4.438487E+04 -1.195789E+04
        80  23 -1.379851E+06  8.838383E+03 -2.841022E+04 -7.104448E+03  2.915626E+04 -3.580424E+04
        80  24 -1.386490E+06  1.889326E+03 -1.774478E+04 -5.086601E+04  1.381065E+04 -3.163868E+04
        80  25  1.452960E+05  3.319292E+05  3.157383E+05 -3.339252E+04  3.086332E+04 -1.201781E+04
        80  26  6.650594E+04  3.690256E+05  3.250163E+05 -1.239783E+02  2.568082E+04 -3.581062E+04
        80  27 -2.381048E+04  3.412946E+05  3.157457E+05 -5.413743E+04  2.038256E+04 -3.162005E+04
        81   1 -2.555457E+06 -2.993953E+05 -3.023700E+05 -5.659016E+04 -1.133504E+04  2.558572E+04
        81   2 -2.459176E+06 -2.674132E+05 -2.711268E+05 -4.398579E+03 -6.389571E+03  2.502200E+04
        81   3 -2.362989E+06 -2.441456E+05 -2.447322E+05 -5.277922E+04 -1.448842E+03  2.132467E+04
        81   4 -1.383368E+06 -6.904771E+03 -1.468583E+04 -5.373988E+04 -1.099149E+04  2.558311E+04
        81   5 -1.383410E+06  9.453827E+02 -7.460657E+03 -3.463613E+03 -7.163883E+03  2.501865E+04
        81   6 -1.383353E+06  2.865691E+02 -4.298358E+03 -5.374899E+04 -3.341786E+03  2.132300E+04
        81   7 -2.100233E+05  2.854835E+05  2.728973E+05 -5.088463E+04 -1.064727E+04  2.558049E+04
        81   8 -3.065865E+05  2.692179E+05  2.561206E+05 -2.527196E+03 -7.939529E+03  2.501532E+04
        81   9 -4.028393E+05  2.446473E+05  2.360650E+05 -5.472021E+04 -5.237718E+03  2.132133E+04
        81  10 -2.555457E+06 -2.993960E+05 -3.023714E+05 -5.658992E+04  1.197110E-09 -1.509139E-10
        81  11 -2.459176E+06 -2.674138E+05 -2.711281E+05 -4.398450E+03 -6.459420E-10  2.209916E-10
        81  12 -2.362989E+06 -2.441461E+05 -2.447331E+05 -5.277919E+04 -9.592694E-10  1.170594E-09
        81  13 -1.383368E+06 -6.905505E+03 -1.468729E+04 -5.373966E+04 -2.155082E-09 -3.193083E-10
        81  14 -1.383410E+06  9.446972E+02 -7.461929E+03 -3.463469E+03  1.052526E-09  1.741311E-10
        81  15 -1.383353E+06  2.860781E+02 -4.299233E+03 -5.374893E+04  7.285338E-10  1.214957E-09
        81  16 -2.100236E+05  2.854828E+05  2.728958E+05 -5.088441E+04  1.428031E-10  2.293694E-10
        81  17 -3.065867E+05  2.692173E+05  2.561193E+05 -2.527036E+03 -1.495576E-09  2.169591E-10
        81  18 -4.028395E+05  2.446468E+05  2.360641E+05 -5.472012E+04  4.724535E-10  1.718726E-09
        81  19 -2.555457E+06 -2.993953E+05 -3.023700E+05 -5.659016E+04  1.133504E+04 -2.558572E+04
        81  20 -2.459176E+06 -2.674132E+05 -2.711268E+05 -4.398579E+03  6.389571E+03 -2.502200E+04
        81  21 -2.362989E+06 -2.441456E+05 -2.447322E+05 -5.277922E+04  1.448842E+03 -2.132467E+04
        81  22 -1.383368E+06 -6.904771E+03 -1.468583E+04 -5.373988E+04  1.099149E+04 -2.558311E+04
        81  23 -1.383410E+06  9.453827E+02 -7.460657E+03 -3.463613E+03  7.163883E+03 -2.501865E+04
        81  24 -1.383353E+06  2.865691E+02 -4.298358E+03 -5.374899E+04  3.341786E+03 -2.132300E+04
        81  25 -2.100233E+05  2.854835E+05  2.728973E+05 -5.088463E+04  1.064727E+04 -2.558049E+04
        81  26 -3.065865E+05  2.692179E+05  2.561206E+05 -2.527196E+03  7.939529E+03 -2.501532E+04
        81  27 -4.028393E+05  2.446473E+05  2.360650E+05 -5.472021E+04  5.237718E+03 -2.132133E+04
        82   1 -2.152724E+06 -1.928619E+05 -1.918717E+05 -5.548871E+04 -1.514777E+03  1.874689E+04
        82   2 -2.048325E+06 -1.657735E+05 -1.649179E+05 -4.917091E+02 -3.890205E+02  1.532251E+04
        82   3 -1.943638E+06 -1.395849E+05 -1.387911E+05 -5.479153E+04  7.296454E+02  1.145808E+04
        82   4 -1.383194E+06 -9.724158E+02 -3.496837E+03 -5.568675E+04 -2.667228E+03  1.874619E+04
        82   5 -1.383344E+06  7.686086E+01 -1.940869E+03 -1.041382E+03 -1.698462E+03  1.532304E+04
        82   6 -1.383187E+06  2.560652E+02 -1.100556E+03 -5.568558E+04 -7.369735E+02  1.146008E+04
        82   7 -6.131230E+05  1.908732E+05  1.848347E+05 -5.588493E+04 -3.821106E+03  1.874549E+04
        82   8 -7.179598E+05  1.658944E+05  1.610037E+05 -1.591524E+03 -3.009307E+03  1.532357E+04
        82   9 -8.224487E+05  1.400737E+05  1.365669E+05 -5.658031E+04 -2.204917E+03  1.146209E+04
        82  10 -2.152724E+06 -1.928623E+05 -1.918724E+05 -5.548868E+04  4.115285E-10  7.125807E-10
        82  11 -2.048325E+06 -1.657738E+05 -1.649184E+05 -4.917042E+02 -8.825861E-10 -3.701410E-10
        82  12 -1.943638E+06 -1.395851E+05 -1.387914E+05 -5.479153E+04 -1.356846E-09 -7.112988E-10
        82  13 -1.383194E+06 -9.727949E+02 -3.497510E+03 -5.568671E+04 -1.868893E-11  1.019893E-09
        82  14 -1.383344E+06  7.660811E+01 -1.941315E+03 -1.041361E+03 -3.077073E-09 -3.931586E-10
        82  15 -1.383187E+06  2.559241E+02 -1.100803E+03 -5.568558E+04 -1.464655E-09 -9.083179E-10
        82  16 -6.131231E+05  1.908728E+05  1.848340E+05 -5.588487E+04 -1.275426E-09  1.145831E-09
        82  17 -7.179598E+05  1.658941E+05  1.610033E+05 -1.591487E+03  4.620325E-10 -6.398531E-10
        82  18 -8.224487E+05  1.400735E+05  1.365666E+05 -5.658029E+04  2.497504E-09 -2.617319E-10
        82  19 -2.152724E+06 -1.928619E+05 -1.918717E+05 -5.548871E+04  1.514777E+03 -1.874689E+04
        82  20 -2.048325E+06 -1.657735E+05 -1.649179E+05 -4.917091E+02  3.890205E+02 -1.532251E+04
        82  21 -1.943638E+06 -1.395849E+05 -1.387911E+05 -5.479153E+04 -7.296454E+02 -1.145808E+04
        82  22 -1.383194E+06 -9.724158E+02 -3.496837E+03 -5.568675E+04  2.667228E+03 -1.874619E+04
        82  23 -1.383344E+06  7.686086E+01 -1.940869E+03 -1.041382E+03  1.698462E+03 -1.532304E+04
        82  24 -1.383187E+06  2.560652E+02 -1.100556E+03 -5.568558E+04  7.369735E+02 -1.146008E+04
        82  25 -6.131230E+05  1.908732E+05  1.848347E+05 -5.588493E+04  3.821106E+03 -1.874549E+04
        82  26 -7.179598E+05  1.658944E+05  1.610037E+05 -1.591524E+03  3.009307E+03 -1.532357E+04
        82  27 -8.224487E+05  1.400737E+05  1.365669E+05 -5.658031E+04  2.204917E+03 -1.146209E+04
        83   1 -1.720427E+06 -8.397496E+04 -8.323021E+04 -5.620480E+04  8.175349E+02  9.134740E+03
        83   2 -1.611360E+06 -5.688887E+04 -5.656465E+04  5.630313E+02  1.149793E+03  5.249242E+03
        83   3 -1.502771E+06 -2.960176E+04 -3.017101E+04 -5.642812E+04  1.479491E+03  1.288944E+03
        83   4 -1.383301E+06  2.620717E+01 -9.429754E+02 -5.667890E+04 -5.648867E+02  9.137239E+03
        83   5 -1.383058E+06  3.723926E+01 -6.240026E+02  1.995069E+02 -2.594777E+02  5.252200E+03
        83   6 -1.383299E+06  2.544875E+02 -5.577943E+02 -5.667844E+04  4.331258E+01  1.292412E+03
        83   7 -1.046072E+06  8.401896E+04  8.133598E+04 -5.715321E+04 -1.948059E+03  9.139739E+03
        83   8 -1.154708E+06  5.695948E+04  5.531283E+04 -1.641258E+02 -1.669267E+03  5.255159E+03
        83   9 -1.263814E+06  3.010967E+04  2.905436E+04 -5.692880E+04 -1.393143E+03  1.295881E+03
        83  10 -1.720427E+06 -8.397505E+04 -8.323037E+04 -5.620481E+04 -3.424902E-10  1.301592E-10
        83  11 -1.611360E+06 -5.688890E+04 -5.656471E+04  5.630264E+02  1.251820E-09  8.528402E-10
        83  12 -1.502771E+06 -2.960176E+04 -3.017102E+04 -5.642812E+04 -1.282323E-09 -1.234755E-09
        83  13 -1.383301E+06  2.611749E+01 -9.431328E+02 -5.667890E+04 -1.454573E-10  3.001760E-10
        83  14 -1.383058E+06  3.720964E+01 -6.240545E+02  1.995080E+02  5.731468E-09  1.769473E-09
        83  15 -1.383299E+06  2.544857E+02 -5.577974E+02 -5.667844E+04  8.947806E-10 -5.142582E-10
        83  16 -1.046072E+06  8.401887E+04  8.133582E+04 -5.715320E+04  1.179380E-09  8.770526E-10
        83  17 -1.154708E+06  5.695945E+04  5.531278E+04 -1.641188E+02 -8.550154E-10  1.147973E-09
        83  18 -1.263814E+06  3.010966E+04  2.905436E+04 -5.692880E+04 -2.549470E-10 -6.151585E-10
        83  19 -1.720427E+06 -8.397496E+04 -8.323021E+04 -5.620480E+04 -8.175349E+02 -9.134740E+03
        83  20 -1.611360E+06 -5.688887E+04 -5.656465E+04  5.630313E+02 -1.149793E+03 -5.249242E+03
        83  21 -1.502771E+06 -2.960176E+04 -3.017101E+04 -5.642812E+04 -1.479491E+03 -1.288944E+03
        83  22 -1.383301E+06  2.620717E+01 -9.429754E+02 -5.667890E+04  5.648867E+02 -9.137239E+03
        83  23 -1.383058E+06  3.723926E+01 -6.240026E+02  1.995069E+02  2.594777E+02 -5.252200E+03
        83  24 -1.383299E+06  2.544875E+02 -5.577943E+02 -5.667844E+04 -4.331258E+01 -1.292412E+03
        83  25 -1.046072E+06  8.401896E+04  8.133598E+04 -5.715321E+04  1.948059E+03 -9.139739E+03
        83  26 -1.154708E+06  5.695948E+04  5.531283E+04 -1.641258E+02  1.669267E+03 -5.255159E+03
        83  27 -1.263814E+06  3.010967E+04  2.905436E+04 -5.692880E+04  1.393143E+03 -1.295881E+03
        84   1 -1.274850E+06  2.736674E+04  2.632165E+04 -5.692707E+04  1.574392E+03 -1.043267E+03
        84   2 -1.165672E+06  5.423328E+04  5.245871E+04 -1.351145E+02  1.934615E+03 -5.003497E+03
        84   3 -1.057001E+06  8.125509E+04  7.828941E+04 -5.714906E+04  2.297404E+03 -8.891503E+03
        84   4 -1.383307E+06  2.606620E+02 -5.888775E+02 -5.668996E+04  1.381136E+02 -1.039790E+03
        84   5 -1.383046E+06  4.668558E+01 -7.898073E+02  2.139392E+02  5.240743E+02 -5.000507E+03
        84   6 -1.383309E+06 -1.573406E+01 -1.314348E+03 -5.669053E+04  9.125366E+02 -8.888951E+03
        84   7 -1.491753E+06 -2.684630E+04 -2.750027E+04 -5.645288E+04 -1.297913E+03 -1.036315E+03
        84   8 -1.600377E+06 -5.414342E+04 -5.404178E+04  5.628937E+02 -8.859726E+02 -4.997519E+03
        84   9 -1.709520E+06 -8.129443E+04 -8.092586E+04 -5.623219E+04 -4.716036E+02 -8.886400E+03
        84  10 -1.274850E+06  2.736674E+04  2.632164E+04 -5.692707E+04 -3.095265E-10 -9.613906E-10
        84  11 -1.165672E+06  5.423325E+04  5.245866E+04 -1.351067E+02 -3.654466E-09  1.468999E-09
        84  12 -1.057001E+06  8.125501E+04  7.828925E+04 -5.714904E+04 -1.820892E-09  3.636798E-10
        84  13 -1.383307E+06  2.606609E+02 -5.888795E+02 -5.668996E+04  1.404021E-10 -2.817579E-10
        84  14 -1.383046E+06  4.665867E+01 -7.898548E+02  2.139413E+02 -7.258141E-10  1.425218E-09
        84  15 -1.383309E+06 -1.581907E+01 -1.314498E+03 -5.669052E+04 -6.585324E-10  3.537104E-10
        84  16 -1.491753E+06 -2.684630E+04 -2.750028E+04 -5.645289E+04  2.344859E-09 -1.081406E-09
        84  17 -1.600378E+06 -5.414344E+04 -5.404183E+04  5.628902E+02  4.499800E-09  7.189619E-10
        84  18 -1.709520E+06 -8.129452E+04 -8.092601E+04 -5.623220E+04  1.081377E-09 -3.951273E-10
        84  19 -1.274850E+06  2.736674E+04  2.632165E+04 -5.692707E+04 -1.574392E+03  1.043267E+03
        84  20 -1.165672E+06  5.423328E+04  5.245871E+04 -1.351145E+02 -1.934615E+03  5.003497E+03
        84  21 -1.057001E+06  8.125509E+04  7.828941E+04 -5.714906E+04 -2.297404E+03  8.891503E+03
        84  22 -1.383307E+06  2.606620E+02 -5.888775E+02 -5.668996E+04 -1.381136E+02  1.039790E+03
        84  23 -1.383046E+06  4.668558E+01 -7.898073E+02  2.139392E+02 -5.240743E+02  5.000507E+03
        84  24 -1.383309E+06 -1.573406E+01 -1.314348E+03 -5.669053E+04 -9.125366E+02  8.888951E+03
        84  25 -1.491753E+06 -2.684630E+04 -2.750027E+04 -5.645288E+04  1.297913E+03  1.036315E+03
        84  26 -1.600377E+06 -5.414342E+04 -5.404178E+04  5.628937E+02  8.859726E+02  4.997519E+03
        84  27 -1.709520E+06 -8.129443E+04 -8.092586E+04 -5.623219E+04  4.716036E+02  8.886400E+03
        85   1 -8.331987E+05  1.374277E+05  1.334487E+05 -5.666290E+04  2.631858E+03 -1.121594E+04
        85   2 -7.284521E+05  1.633420E+05  1.575509E+05 -1.536728E+03  3.877506E+03 -1.508213E+04
        85   3 -6.235868E+05  1.879029E+05  1.806228E+05 -5.587430E+04  5.130522E+03 -1.851197E+04
        85   4 -1.383235E+06  2.761119E+02 -1.598936E+03 -5.572576E+04  1.162813E+03 -1.121387E+04
        85   5 -1.383280E+06  1.543446E+02 -2.809409E+03 -9.910267E+02  2.564014E+03 -1.508151E+04
        85   6 -1.383243E+06 -1.348198E+03 -5.158372E+03 -5.572731E+04  3.972370E+03 -1.851258E+04
        85   7 -1.932995E+06 -1.368980E+05 -1.366688E+05 -5.478930E+04 -3.049324E+02 -1.121180E+04
        85   8 -2.037716E+06 -1.630651E+05 -1.632011E+05 -4.457810E+02  1.251904E+03 -1.508090E+04
        85   9 -2.142372E+06 -1.906420E+05 -1.909818E+05 -5.558038E+04  2.815632E+03 -1.851319E+04
        85  10 -8.331987E+05  1.374276E+05  1.334484E+05 -5.666288E+04 -2.135515E-09 -8.197043E-10
        85  11 -7.284522E+05  1.633418E+05  1.575504E+05 -1.536681E+03  6.635527E-10 -3.303696E-10
        85  12 -6.235870E+05  1.879025E+05  1.806221E+05 -5.587422E+04  1.459484E-09  4.636105E-10
        85  13 -1.383235E+06  2.759766E+02 -1.599175E+03 -5.572574E+04 -1.598777E-10 -1.461009E-09
        85  14 -1.383280E+06  1.540988E+02 -2.809848E+03 -9.909956E+02  2.185157E-09 -4.689816E-10
        85  15 -1.383243E+06 -1.348570E+03 -5.159045E+03 -5.572725E+04 -7.004536E-10 -2.797384E-10
        85  16 -1.932995E+06 -1.368981E+05 -1.366690E+05 -5.478930E+04  2.847768E-09 -6.099785E-10
        85  17 -2.037716E+06 -1.630654E+05 -1.632016E+05 -4.457658E+02 -1.985589E-09  1.367830E-10
        85  18 -2.142372E+06 -1.906424E+05 -1.909824E+05 -5.558034E+04 -4.078484E-10 -1.476400E-10
        85  19 -8.331987E+05  1.374277E+05  1.334487E+05 -5.666290E+04 -2.631858E+03  1.121594E+04
        85  20 -7.284521E+05  1.633420E+05  1.575509E+05 -1.536728E+03 -3.877506E+03  1.508213E+04
        85  21 -6.235868E+05  1.879029E+05  1.806228E+05 -5.587430E+04 -5.130522E+03  1.851197E+04
        85  22 -1.383235E+06  2.761119E+02 -1.598936E+03 -5.572576E+04 -1.162813E+03  1.121387E+04
        85  23 -1.383280E+06  1.543446E+02 -2.809409E+03 -9.910267E+02 -2.564014E+03  1.508151E+04
        85  24 -1.383243E+06 -1.348198E+03 -5.158372E+03 -5.572731E+04 -3.972370E+03  1.851258E+04
        85  25 -1.932995E+06 -1.368980E+05 -1.366688E+05 -5.478930E+04  3.049324E+02  1.121180E+04
        85  26 -2.037716E+06 -1.630651E+05 -1.632011E+05 -4.457810E+02 -1.251904E+03  1.508090E+04
        85  27 -2.142372E+06 -1.906420E+05 -1.909818E+05 -5.558038E+04 -2.815632E+03  1.851319E+04
        86   1 -4.131125E+05  2.423030E+05  2.315156E+05 -5.515191E+04  6.880166E+03 -2.108978E+04
        86   2 -3.159454E+05  2.673815E+05  2.502622E+05 -2.344858E+03  1.139137E+04 -2.478921E+04
        86   3 -2.197823E+05  2.800729E+05  2.635193E+05 -5.032988E+04  1.590900E+04 -2.537280E+04
        86   4 -1.383642E+06  4.277738E+02 -6.405710E+03 -5.380360E+04  4.983013E+03 -2.109130E+04
        86   5 -1.383043E+06  1.530713E+03 -1.093974E+04 -3.395548E+03  1.060709E+04 -2.479246E+04
        86   6 -1.383660E+06 -9.960297E+03 -2.174522E+04 -5.379082E+04  1.623691E+04 -2.537543E+04
        86   7 -2.353312E+06 -2.415174E+05 -2.443961E+05 -5.245731E+04  3.088816E+03 -2.109283E+04
        86   8 -2.449101E+06 -2.644046E+05 -2.722251E+05 -4.444587E+03  9.824142E+03 -2.479572E+04
        86   9 -2.546303E+06 -3.000941E+05 -3.071091E+05 -5.724566E+04  1.656418E+04 -2.537808E+04
        86  10 -4.131126E+05  2.423025E+05  2.315147E+05 -5.515179E+04 -1.965400E-09  1.677147E-10
        86  11 -3.159457E+05  2.673808E+05  2.502608E+05 -2.344631E+03 -5.749472E-09  4.400498E-10
        86  12 -2.197827E+05  2.800722E+05  2.635176E+05 -5.032956E+04  8.200361E-10 -6.245041E-10
        86  13 -1.383642E+06  4.272898E+02 -6.406592E+03 -5.380352E+04  2.089847E-10  4.511311E-10
        86  14 -1.383043E+06  1.530023E+03 -1.094110E+04 -3.395337E+03  3.072377E-09  6.687950E-10
        86  15 -1.383661E+06 -9.961059E+03 -2.174692E+04 -5.379049E+04 -9.506082E-10 -1.129761E-09
        86  16 -2.353312E+06 -2.415179E+05 -2.443970E+05 -5.245726E+04  1.418614E-09  7.527262E-11
        86  17 -2.449101E+06 -2.644052E+05 -2.722264E+05 -4.444391E+03 -1.304474E-09  6.248947E-10
        86  18 -2.546303E+06 -3.000948E+05 -3.071108E+05 -5.724532E+04 -9.231425E-10 -1.459919E-09
        86  19 -4.131125E+05  2.423030E+05  2.315156E+05 -5.515191E+04 -6.880166E+03  2.108978E+04
        86  20 -3.159454E+05  2.673815E+05  2.502622E+05 -2.344858E+03 -1.139137E+04  2.478921E+04
        86  21 -2.197823E+05  2.800729E+05  2.635193E+05 -5.032988E+04 -1.590900E+04  2.537280E+04
        86  22 -1.383642E+06  4.277738E+02 -6.405710E+03 -5.380360E+04 -4.983013E+03  2.109130E+04
        86  23 -1.383043E+06  1.530713E+03 -1.093974E+04 -3.395548E+03 -1.060709E+04  2.479246E+04
        86  24 -1.383660E+06 -9.960297E+03 -2.174522E+04 -5.379082E+04 -1.623691E+04  2.537543E+04
        86  25 -2.353312E+06 -2.415174E+05 -2.443961E+05 -5.245731E+04 -3.088816E+03  2.109283E+04
        86  26 -2.449101E+06 -2.644046E+05 -2.722251E+05 -4.444587E+03 -9.824142E+03  2.479572E+04
        86  27 -2.546303E+06 -3.000941E+05 -3.071091E+05 -5.724566E+04 -1.656418E+04  2.537808E+04
        87   1 -3.465275E+04  3.401720E+05  3.049955E+05 -5.691473E+04  2.698756E+04 -3.139417E+04
        87   2  6.049648E+04  3.714515E+05  3.095158E+05  1.411400E+03  3.963147E+04 -3.555900E+04
        87   3  1.350637E+05  3.057563E+05  2.826588E+05 -2.776501E+04  5.216382E+04 -1.185666E+04
        87   4 -1.388500E+06  2.977218E+03 -2.633658E+04 -5.094549E+04  2.043015E+04 -3.141207E+04
        87   5 -1.377336E+06  1.337532E+04 -4.183153E+04 -7.021760E+03  4.306445E+04 -3.555314E+04
        87   6 -1.388565E+06 -7.506203E+04 -9.570842E+04 -5.061458E+04  6.558496E+04 -1.179920E+04
        87   7 -2.740674E+06 -3.343532E+05 -3.578027E+05 -4.499012E+04  1.388697E+04 -3.143012E+04
        87   8 -2.813281E+06 -3.448537E+05 -3.933299E+05 -1.543690E+04  4.648941E+04 -3.554737E+04
        87   9 -2.910083E+06 -4.560531E+05 -4.742486E+05 -7.341032E+04  7.897301E+04 -1.174268E+04
        87  10 -3.465379E+04  3.401707E+05  3.049923E+05 -5.691405E+04 -1.598046E-09  5.713461E-10
        87  11  6.049445E+04  3.714497E+05  3.095105E+05  1.412535E+03 -1.583795E-09  8.778387E-10
        87  12  1.350607E+05  3.057554E+05  2.826534E+05 -2.776451E+04  2.869928E-09 -5.919618E-11
        87  13 -1.388500E+06  2.976047E+03 -2.633922E+04 -5.094498E+04  1.408666E-12 -5.012966E-10
        87  14 -1.377338E+06  1.337347E+04 -4.183740E+04 -7.020526E+03 -4.183028E-10  7.948643E-10
        87  15 -1.388570E+06 -7.506333E+04 -9.571678E+04 -5.061396E+04 -1.933209E-09  7.508705E-10
        87  16 -2.740674E+06 -3.343543E+05 -3.578049E+05 -4.498976E+04  6.373999E-10 -1.131512E-09
        87  17 -2.813283E+06 -3.448556E+05 -3.933363E+05 -1.543557E+04 -2.122502E-09  2.857883E-09
        87  18 -2.910090E+06 -4.560549E+05 -4.742606E+05 -7.340957E+04 -4.809771E-10  8.895199E-10
        87  19 -3.465275E+04  3.401720E+05  3.049955E+05 -5.691473E+04 -2.698756E+04  3.139417E+04
        87  20  6.049648E+04  3.714515E+05  3.095158E+05  1.411400E+03 -3.963147E+04  3.555900E+04
        87  21  1.350637E+05  3.057563E+05  2.826588E+05 -2.776501E+04 -5.216382E+04  1.185666E+04
        87  22 -1.388500E+06  2.977218E+03 -2.633658E+04 -5.094549E+04 -2.043015E+04  3.141207E+04
        87  23 -1.377336E+06  1.337532E+04 -4.183153E+04 -7.021760E+03 -4.306445E+04  3.555314E+04
        87  24 -1.388565E+06 -7.506203E+04 -9.570842E+04 -5.061458E+04 -6.558496E+04  1.179920E+04
        87  25 -2.740674E+06 -3.343532E+05 -3.578027E+05 -4.499012E+04 -1.388697E+04  3.143012E+04
        87  26 -2.813281E+06 -3.448537E+05 -3.933299E+05 -1.543690E+04 -4.648941E+04  3.554737E+04
        87  27 -2.910083E+06 -4.560531E+05 -4.742486E+05 -7.341032E+04 -7.897301E+04  1.174268E+04
        88   1  6.884473E+05  1.922016E+06  7.134539E+05 -2.893633E+05  1.669037E+04  1.179175E+05
        88   2  4.348910E+05  1.430897E+06  5.067252E+05 -2.675225E+04  4.609800E+04  6.844315E+04
        88   3  3.390044E+05  9.843543E+05  3.713378E+05 -2.511612E+05  2.818942E+04  1.865635E+04
        88   4  1.133225E+05 -3.822019E+05  1.419752E+05 -2.527502E+05  1.681602E+04  9.865494E+04
        88   5 -2.131250E+04 -4.029544E+05  5.945441E+04 -9.556325E+03  4.612297E+04  6.637294E+04
        88   6 -9.990403E+02 -3.821564E+05  3.653134E+04 -2.534572E+05  2.805523E+04  3.374007E+04
        88   7 -4.621961E+05 -2.681604E+06 -4.298981E+05 -2.162645E+05  1.693965E+04  7.946309E+04
        88   8 -4.777635E+05 -2.233742E+06 -3.880611E+05  7.594427E+03  4.614788E+04  6.430859E+04
        88   9 -3.411405E+05 -1.746966E+06 -2.984110E+05 -2.557439E+05  2.792078E+04  4.879064E+04
        88  10  6.884433E+05  1.922001E+06  7.134273E+05 -2.893649E+05  9.565048E-10  2.856810E-10
        88  11  4.348874E+05  1.430891E+06  5.067124E+05 -2.675479E+04 -8.632165E-10 -1.262515E-10
        88  12  3.390034E+05  9.843537E+05  3.713356E+05 -2.511616E+05  7.007763E-10 -6.928677E-10
        88  13  1.133196E+05 -3.822124E+05  1.419563E+05 -2.527515E+05 -2.871475E-09 -2.006410E-11
        88  14 -2.131597E+04 -4.029597E+05  5.944213E+04 -9.558791E+03 -1.571925E-09  6.078641E-11
        88  15 -1.000192E+03 -3.821578E+05  3.652772E+04 -2.534579E+05  4.461985E-09 -1.808511E-13
        88  16 -4.621981E+05 -2.681611E+06 -4.299106E+05 -2.162656E+05  2.884896E-10 -3.313455E-10
        88  17 -4.777669E+05 -2.233747E+06 -3.880729E+05  7.592034E+03  2.869103E-09  1.233051E-10
        88  18 -3.411420E+05 -1.746969E+06 -2.984170E+05 -2.557450E+05  2.758342E-09  6.587102E-10
        88  19  6.884473E+05  1.922016E+06  7.134539E+05 -2.893633E+05 -1.669037E+04 -1.179175E+05
        88  20  4.348910E+05  1.430897E+06  5.067252E+05 -2.675225E+04 -4.609800E+04 -6.844315E+04
        88  21  3.390044E+05  9.843543E+05  3.713378E+05 -2.511612E+05 -2.818942E+04 -1.865635E+04
        88  22  1.133225E+05 -3.822019E+05  1.419752E+05 -2.527502E+05 -1.681602E+04 -9.865494E+04
        88  23 -2.131250E+04 -4.029544E+05  5.945441E+04 -9.556325E+03 -4.612297E+04 -6.637294E+04
        88  24 -9.990403E+02 -3.821564E+05  3.653134E+04 -2.534572E+05 -2.805523E+04 -3.374007E+04
        88  25 -4.621961E+05 -2.681604E+06 -4.298981E+05 -2.162645E+05 -1.693965E+04 -7.946309E+04
        88  26 -4.777635E+05 -2.233742E+06 -3.880611E+05  7.594427E+03 -4.614788E+04 -6.430859E+04
        88  27 -3.411405E+05 -1.746966E+06 -2.984110E+05 -2.557439E+05 -2.792078E+04 -4.879064E+04
        89   1  1.152980E+05 -3.655263E+03  1.227405E+05 -2.587906E+05  1.025730E+04  2.333676E+04
        89   2 -2.134195E+04 -4.708283E+05 -1.116826E+04 -9.201949E+03 -2.076857E+03  1.879037E+04
        89   3 -1.403495E+05 -9.439915E+05 -1.400775E+05 -2.502573E+05 -1.412826E+04  1.425304E+04
        89   4  1.854514E+04 -3.922236E+05  2.802080E+04 -2.538820E+05  1.021473E+04  2.783737E+04
        89   5 -1.020093E+03 -3.891469E+05  8.812531E+03 -8.663269E+03 -2.117779E+03  2.319448E+04
        89   6 -2.916332E+03 -3.922348E+05 -5.303193E+03 -2.540817E+05 -1.416805E+04  1.855732E+04
        89   7 -7.821880E+04 -7.806541E+05 -6.670975E+04 -2.489762E+05  1.017222E+04  3.233515E+04
        89   8  1.930128E+04 -3.074595E+05  2.879291E+04 -8.124504E+03 -2.158690E+03  2.759916E+04
        89   9  1.344944E+05  1.597999E+05  1.294490E+05 -2.579089E+05 -1.420787E+04  2.286542E+04
        89  10  1.152977E+05 -3.655876E+03  1.227392E+05 -2.587908E+05  1.901135E-09 -6.809842E-10
        89  11 -2.134205E+04 -4.708286E+05 -1.116893E+04 -9.201917E+03  6.788555E-10 -1.495657E-09
        89  12 -1.403498E+05 -9.439918E+05 -1.400782E+05 -2.502571E+05  3.760669E-09 -1.161573E-09
        89  13  1.854482E+04 -3.922245E+05  2.801915E+04 -2.538823E+05  3.426677E-09  5.321939E-11
        89  14 -1.020243E+03 -3.891475E+05  8.811511E+03 -8.663229E+03  3.252965E-09  2.055102E-10
        89  15 -2.916640E+03 -3.922352E+05 -5.304218E+03 -2.540815E+05  5.246280E-09  3.537865E-11
        89  16 -7.821919E+04 -7.806553E+05 -6.671192E+04 -2.489764E+05 -2.063327E-10  6.826814E-10
        89  17  1.930107E+04 -3.074603E+05  2.879146E+04 -8.124456E+03  1.752538E-09  1.536993E-09
        89  18  1.344940E+05  1.597993E+05  1.294476E+05 -2.579087E+05 -2.221654E-09  1.283923E-09
        89  19  1.152980E+05 -3.655263E+03  1.227405E+05 -2.587906E+05 -1.025730E+04 -2.333676E+04
        89  20 -2.134195E+04 -4.708283E+05 -1.116826E+04 -9.201949E+03  2.076857E+03 -1.879037E+04
        89  21 -1.403495E+05 -9.439915E+05 -1.400775E+05 -2.502573E+05  1.412826E+04 -1.425304E+04
        89  22  1.854514E+04 -3.922236E+05  2.802080E+04 -2.538820E+05 -1.021473E+04 -2.783737E+04
        89  23 -1.020093E+03 -3.891469E+05  8.812531E+03 -8.663269E+03  2.117779E+03 -2.319448E+04
        89  24 -2.916332E+03 -3.922348E+05 -5.303193E+03 -2.540817E+05  1.416805E+04 -1.855732E+04
        89  25 -7.821880E+04 -7.806541E+05 -6.670975E+04 -2.489762E+05 -1.017222E+04 -3.233515E+04
        89  26  1.930128E+04 -3.074595E+05  2.879291E+04 -8.124504E+03  2.158690E+03 -2.759916E+04
        89  27  1.344944E+05  1.597999E+05  1.294490E+05 -2.579089E+05  1.420787E+04 -2.286542E+04
        90   1 -3.724444E+05 -1.922320E+06 -3.849250E+05 -2.376730E+05 -3.228956E+04  3.975583E+03
        90   2 -4.886297E+05 -2.380373E+06 -5.125610E+05 -2.530542E+03 -5.088794E+04  3.555396E+04
        90   3 -6.635894E+05 -2.856738E+06 -6.755568E+05 -2.548117E+05 -1.910687E+04  6.745852E+04
        90   4  8.650759E+03 -3.948828E+05 -1.005892E+04 -2.531366E+05 -3.242423E+04  1.963896E+04
        90   5  8.114569E+03 -3.872878E+05 -2.533002E+04 -9.637734E+03 -5.086047E+04  3.317894E+04
        90   6 -4.791726E+04 -3.949781E+05 -6.332468E+04 -2.534721E+05 -1.898740E+04  4.706928E+04
        90   7  3.895732E+05  1.134684E+06  3.646367E+05 -2.686333E+05 -3.255951E+04  3.534085E+04
        90   8  5.045648E+05  1.609429E+06  4.616108E+05 -1.676146E+04 -5.083300E+04  3.079615E+04
        90   9  5.672993E+05  2.072300E+06  5.484548E+05 -2.521184E+05 -1.886828E+04  2.659865E+04
        90  10 -3.724456E+05 -1.922320E+06 -3.849270E+05 -2.376729E+05 -1.449028E-09  1.439930E-09
        90  11 -4.886328E+05 -2.380375E+06 -5.125683E+05 -2.529083E+03 -2.255652E-09  1.772687E-09
        90  12 -6.635910E+05 -2.856743E+06 -6.755660E+05 -2.548107E+05  2.180592E-10  1.326069E-09
        90  13  8.649527E+03 -3.948835E+05 -1.006162E+04 -2.531361E+05 -1.281929E-09  3.190205E-11
        90  14  8.111496E+03 -3.872896E+05 -2.533695E+04 -9.636375E+03 -3.637438E-09 -9.476080E-11
        90  15 -4.791824E+04 -3.949806E+05 -6.332952E+04 -2.534714E+05 -2.628675E-09 -2.970341E-11
        90  16  3.895718E+05  1.134683E+06  3.646324E+05 -2.686324E+05 -2.042364E-09 -1.484634E-09
        90  17  5.045618E+05  1.609427E+06  4.616042E+05 -1.676020E+04 -4.453839E-09 -1.693897E-09
        90  18  5.672987E+05  2.072299E+06  5.484528E+05 -2.521180E+05  1.602227E-10 -1.294094E-09
        90  19 -3.724444E+05 -1.922320E+06 -3.849250E+05 -2.376730E+05  3.228956E+04 -3.975583E+03
        90  20 -4.886297E+05 -2.380373E+06 -5.125610E+05 -2.530542E+03  5.088794E+04 -3.555396E+04
        90  21 -6.635894E+05 -2.856738E+06 -6.755568E+05 -2.548117E+05  1.910687E+04 -6.745852E+04
        90  22  8.650759E+03 -3.948828E+05 -1.005892E+04 -2.531366E+05  3.242423E+04 -1.963896E+04
        90  23  8.114569E+03 -3.872878E+05 -2.533002E+04 -9.637734E+03  5.086047E+04 -3.317894E+04
        90  24 -4.791726E+04 -3.949781E+05 -6.332468E+04 -2.534721E+05  1.898740E+04 -4.706928E+04
        90  25  3.895732E+05  1.134684E+06  3.646367E+05 -2.686333E+05  3.255951E+04 -3.534085E+04
        90  26  5.045648E+05  1.609429E+06  4.616108E+05 -1.676146E+04  5.083300E+04 -3.079615E+04
        90  27  5.672993E+05  2.072300E+06  5.484548E+05 -2.521184E+05  1.886828E+04 -2.659865E+04
        91   1 -6.243895E+06 -1.945711E+06 -1.284353E+06 -2.144245E+06 -6.581667E+05 -2.410693E+05
        91   2 -6.073318E+06 -9.985080E+05 -6.755413E+05 -2.313340E+06 -4.268736E+05 -1.343203E+05
        91   3 -6.303881E+06 -1.036976E+06 -5.147951E+05 -2.225672E+06 -1.887714E+05 -4.548505E+04
        91   4 -5.426050E+06 -1.469891E+06 -1.025923E+06 -1.754475E+06 -6.503090E+05 -2.382972E+05
        91   5 -5.172301E+06 -6.116074E+05 -4.222172E+05 -2.021636E+06 -4.247479E+05 -1.335540E+05
        91   6 -5.318030E+06 -7.370373E+05 -2.615353E+05 -2.032209E+06 -1.923485E+05 -4.681371E+04
        91   7 -4.607486E+06 -9.937076E+05 -7.675570E+05 -1.364147E+06 -6.424393E+05 -2.355151E+05
        91   8 -4.270489E+06 -2.245924E+05 -1.689707E+05 -1.729524E+06 -4.226184E+05 -1.327857E+05
        91   9 -4.331229E+06 -4.371127E+05 -8.350011E+03 -1.838503E+06 -1.959317E+05 -4.814362E+04
        91  10 -6.244380E+06 -1.945892E+06 -1.285287E+06 -2.144374E+06 -1.261914E-09  2.406446E-10
        91  11 -6.073520E+06 -9.985772E+05 -6.759220E+05 -2.313387E+06 -3.176100E-09  1.490809E-09
        91  12 -6.303920E+06 -1.036988E+06 -5.148668E+05 -2.225679E+06 -5.118246E-10 -6.312168E-10
        91  13 -5.426523E+06 -1.470067E+06 -1.026833E+06 -1.754601E+06 -2.948422E-09  4.900675E-10
        91  14 -5.172501E+06 -6.116758E+05 -4.225934E+05 -2.021682E+06 -1.457714E-09  7.391754E-10
        91  15 -5.318071E+06 -7.370498E+05 -2.616097E+05 -2.032216E+06  3.043679E-09 -4.292823E-10
        91  16 -4.607947E+06 -9.938795E+05 -7.684440E+05 -1.364270E+06  1.359620E-09  8.078136E-10
        91  17 -4.270686E+06 -2.246599E+05 -1.693425E+05 -1.729569E+06  5.607649E-09  8.574412E-10
        91  18 -4.331271E+06 -4.371256E+05 -8.427128E+03 -1.838510E+06  2.811716E-09 -1.120796E-09
        91  19 -6.243895E+06 -1.945711E+06 -1.284353E+06 -2.144245E+06  6.581667E+05  2.410693E+05
        91  20 -6.073318E+06 -9.985080E+05 -6.755413E+05 -2.313340E+06  4.268736E+05  1.343203E+05
        91  21 -6.303881E+06 -1.036976E+06 -5.147951E+05 -2.225672E+06  1.887714E+05  4.548505E+04
        91  22 -5.426050E+06 -1.469891E+06 -1.025923E+06 -1.754475E+06  6.503090E+05  2.382972E+05
        91  23 -5.172301E+06 -6.116074E+05 -4.222172E+05 -2.021636E+06  4.247479E+05  1.335540E+05
        91  24 -5.318030E+06 -7.370373E+05 -2.615353E+05 -2.032209E+06  1.923485E+05  4.681371E+04
        91  25 -4.607486E+06 -9.937076E+05 -7.675570E+05 -1.364147E+06  6.424393E+05  2.355151E+05
        91  26 -4.270489E+06 -2.245924E+05 -1.689707E+05 -1.729524E+06  4.226184E+05  1.327857E+05
        91  27 -4.331229E+06 -4.371127E+05 -8.350011E+03 -1.838503E+06  1.959317E+05  4.814362E+04
        92   1 -6.140714E+06 -1.206727E+06 -4.532158E+05 -2.231625E+06 -1.535182E+05 -3.550964E+04
        92   2 -6.092672E+06 -1.049753E+06 -3.262341E+05 -2.221697E+06 -1.006289E+05 -1.485099E+04
        92   3 -6.063239E+06 -1.056179E+06 -2.738271E+05 -2.218627E+06 -4.666979E+04  2.976921E+03
        92   4 -5.277634E+06 -8.589526E+05 -2.143327E+05 -1.975538E+06 -1.529956E+05 -3.532049E+04
        92   5 -5.261468E+06 -7.296341E+05 -9.947209E+04 -1.990053E+06 -1.009819E+05 -1.498719E+04
        92   6 -5.263664E+06 -7.634302E+05 -5.840515E+04 -2.011440E+06 -4.790201E+04  2.512790E+03
        92   7 -4.413831E+06 -5.111080E+05  2.448041E+04 -1.719118E+06 -1.524722E+05 -3.513094E+04
        92   8 -4.429593E+06 -4.094690E+05  1.272270E+05 -1.758124E+06 -1.013354E+05 -1.512355E+04
        92   9 -4.463470E+06 -4.706538E+05  1.569606E+05 -1.804014E+06 -4.913595E+04  2.048058E+03
        92  10 -6.140740E+06 -1.206735E+06 -4.532630E+05 -2.231629E+06 -2.287372E-09 -1.513958E-09
        92  11 -6.092683E+06 -1.049756E+06 -3.262538E+05 -2.221699E+06 -9.944091E-10 -6.819357E-10
        92  12 -6.063241E+06 -1.056180E+06 -2.738313E+05 -2.218627E+06  8.696831E-10  1.909625E-10
        92  13 -5.277660E+06 -8.589603E+05 -2.143795E+05 -1.975543E+06  2.560182E-09 -6.795462E-10
        92  14 -5.261479E+06 -7.296372E+05 -9.949186E+04 -1.990055E+06  9.936105E-10 -9.874440E-12
        92  15 -5.263667E+06 -7.634309E+05 -5.840951E+04 -2.011440E+06 -2.274106E-09 -2.742051E-10
        92  16 -4.413856E+06 -5.111156E+05  2.443404E+04 -1.719123E+06  3.748734E-09 -9.179489E-10
        92  17 -4.429604E+06 -4.094720E+05  1.272072E+05 -1.758126E+06 -2.233189E-09  1.255506E-10
        92  18 -4.463472E+06 -4.706545E+05  1.569560E+05 -1.804014E+06  1.351013E-09 -2.248530E-10
        92  19 -6.140714E+06 -1.206727E+06 -4.532158E+05 -2.231625E+06  1.535182E+05  3.550964E+04
        92  20 -6.092672E+06 -1.049753E+06 -3.262341E+05 -2.221697E+06  1.006289E+05  1.485099E+04
        92  21 -6.063239E+06 -1.056179E+06 -2.738271E+05 -2.218627E+06  4.666979E+04 -2.976921E+03
        92  22 -5.277634E+06 -8.589526E+05 -2.143327E+05 -1.975538E+06  1.529956E+05  3.532049E+04
        92  23 -5.261468E+06 -7.296341E+05 -9.947209E+04 -1.990053E+06  1.009819E+05  1.498719E+04
        92  24 -5.263664E+06 -7.634302E+05 -5.840515E+04 -2.011440E+06  4.790201E+04 -2.512790E+03
        92  25 -4.413831E+06 -5.111080E+05  2.448041E+04 -1.719118E+06  1.524722E+05  3.513094E+04
        92  26 -4.429593E+06 -4.094690E+05  1.272270E+05 -1.758124E+06  1.013354E+05  1.512355E+04
        92  27 -4.463470E+06 -4.706538E+05  1.569606E+05 -1.804014E+06  4.913595E+04 -2.048058E+03
        93   1 -5.904301E+06 -1.032591E+06 -2.232810E+05 -2.188836E+06 -3.807808E+04  4.270981E+03
        93   2 -5.856704E+06 -9.575621E+05 -1.800435E+05 -2.136160E+06 -2.498577E+04  6.438100E+03
        93   3 -5.755056E+06 -9.602658E+05 -1.502948E+05 -2.149207E+06 -1.157798E+04  7.752220E+03
        93   4 -5.253182E+06 -7.840497E+05 -4.622193E+04 -2.009594E+06 -3.876499E+04  4.011627E+03
        93   5 -5.279321E+06 -7.389510E+05 -2.326430E+04 -1.979070E+06 -2.594521E+04  6.077541E+03
        93   6 -5.251353E+06 -7.715150E+05 -1.356562E+04 -2.014268E+06 -1.281173E+04  7.290161E+03
        93   7 -4.601652E+06 -5.354818E+05  1.307988E+05 -1.830180E+06 -3.945268E+04  3.751973E+03
        93   8 -4.701615E+06 -5.203206E+05  1.334847E+05 -1.821847E+06 -2.690564E+04  5.716613E+03
        93   9 -4.747406E+06 -5.827511E+05  1.231405E+05 -1.879230E+06 -1.404658E+04  6.827695E+03
        93  10 -5.904302E+06 -1.032591E+06 -2.232838E+05 -2.188836E+06  6.100868E-10 -9.628122E-11
        93  11 -5.856705E+06 -9.575623E+05 -1.800448E+05 -2.136160E+06  2.679083E-09  1.134384E-09
        93  12 -5.755056E+06 -9.602659E+05 -1.502952E+05 -2.149207E+06 -9.115582E-10  1.988639E-09
        93  13 -5.253184E+06 -7.840502E+05 -4.622481E+04 -2.009594E+06  1.146733E-09 -7.870539E-12
        93  14 -5.279321E+06 -7.389512E+05 -2.326564E+04 -1.979070E+06  2.644236E-09  9.403612E-10
        93  15 -5.251353E+06 -7.715151E+05 -1.356603E+04 -2.014268E+06  2.848016E-09  1.170710E-09
        93  16 -4.601654E+06 -5.354822E+05  1.307958E+05 -1.830180E+06  1.772719E-09  3.241894E-10
        93  17 -4.701616E+06 -5.203208E+05  1.334833E+05 -1.821847E+06 -5.600797E-10 -8.189992E-10
        93  18 -4.747406E+06 -5.827512E+05  1.231400E+05 -1.879230E+06  1.677899E-09  1.410048E-09
        93  19 -5.904301E+06 -1.032591E+06 -2.232810E+05 -2.188836E+06  3.807808E+04 -4.270981E+03
        93  20 -5.856704E+06 -9.575621E+05 -1.800435E+05 -2.136160E+06  2.498577E+04 -6.438100E+03
        93  21 -5.755056E+06 -9.602658E+05 -1.502948E+05 -2.149207E+06  1.157798E+04 -7.752220E+03
        93  22 -5.253182E+06 -7.840497E+05 -4.622193E+04 -2.009594E+06  3.876499E+04 -4.011627E+03
        93  23 -5.279321E+06 -7.389510E+05 -2.326430E+04 -1.979070E+06  2.594521E+04 -6.077541E+03
        93  24 -5.251353E+06 -7.715150E+05 -1.356562E+04 -2.014268E+06  1.281173E+04 -7.290161E+03
        93  25 -4.601652E+06 -5.354818E+05  1.307988E+05 -1.830180E+06  3.945268E+04 -3.751973E+03
        93  26 -4.701615E+06 -5.203206E+05  1.334847E+05 -1.821847E+06  2.690564E+04 -5.716613E+03
        93  27 -4.747406E+06 -5.827511E+05  1.231405E+05 -1.879230E+06  1.404658E+04 -6.827695E+03
        94   1 -5.550833E+06 -8.912564E+05 -9.280722E+04 -2.099277E+06 -8.916129E+03  6.384358E+03
        94   2 -5.494734E+06 -8.162126E+05 -6.353463E+04 -2.030920E+06 -4.226548E+03  4.156970E+03
        94   3 -5.364477E+06 -8.191756E+05 -3.746471E+04 -2.048865E+06  5.558606E+02  1.675562E+03
        94   4 -5.247566E+06 -7.766717E+05 -1.082002E+04 -2.016918E+06 -1.004401E+04  5.962536E+03
        94   5 -5.284540E+06 -7.369422E+05 -6.531859E+03 -1.974038E+06 -5.437848E+03  3.704409E+03
        94   6 -5.247351E+06 -7.752012E+05 -5.378440E+03 -2.017463E+06 -7.394640E+02  1.192125E+03
        94   7 -4.944210E+06 -6.620812E+05  7.115921E+04 -1.934522E+06 -1.117251E+04  5.540484E+03
        94   8 -5.074303E+06 -6.576693E+05  5.046688E+04 -1.917139E+06 -6.649602E+03  3.251678E+03
        94   9 -5.130211E+06 -7.312262E+05  2.670641E+04 -1.986055E+06 -2.035052E+03  7.085912E+02
        94  10 -5.550833E+06 -8.912565E+05 -9.280745E+04 -2.099277E+06  3.596550E-10  1.025859E-09
        94  11 -5.494734E+06 -8.162126E+05 -6.353470E+04 -2.030920E+06 -8.829144E-10 -5.379275E-10
        94  12 -5.364477E+06 -8.191756E+05 -3.746472E+04 -2.048865E+06 -2.517732E-10 -9.655779E-10
        94  13 -5.247566E+06 -7.766718E+05 -1.082028E+04 -2.016918E+06  2.156045E-09  1.107295E-09
        94  14 -5.284540E+06 -7.369422E+05 -6.531940E+03 -1.974038E+06  2.258075E-09  1.494986E-09
        94  15 -5.247351E+06 -7.752012E+05 -5.378444E+03 -2.017463E+06 -6.307793E-10  1.897143E-10
        94  16 -4.944210E+06 -6.620813E+05  7.115892E+04 -1.934522E+06  1.928190E-09  1.646127E-09
        94  17 -5.074303E+06 -6.576693E+05  5.046677E+04 -1.917139E+06  2.198336E-09  2.895758E-10
        94  18 -5.130211E+06 -7.312262E+05  2.670640E+04 -1.986055E+06 -3.710659E-10  3.812242E-10
        94  19 -5.550833E+06 -8.912564E+05 -9.280722E+04 -2.099277E+06  8.916129E+03 -6.384358E+03
        94  20 -5.494734E+06 -8.162126E+05 -6.353463E+04 -2.030920E+06  4.226548E+03 -4.156970E+03
        94  21 -5.364477E+06 -8.191756E+05 -3.746471E+04 -2.048865E+06 -5.558606E+02 -1.675562E+03
        94  22 -5.247566E+06 -7.766717E+05 -1.082002E+04 -2.016918E+06  1.004401E+04 -5.962536E+03
        94  23 -5.284540E+06 -7.369422E+05 -6.531859E+03 -1.974038E+06  5.437848E+03 -3.704409E+03
        94  24 -5.247351E+06 -7.752012E+05 -5.378440E+03 -2.017463E+06  7.394640E+02 -1.192125E+03
        94  25 -4.944210E+06 -6.620812E+05  7.115921E+04 -1.934522E+06  1.117251E+04 -5.540484E+03
        94  26 -5.074303E+06 -6.576693E+05  5.046688E+04 -1.917139E+06  6.649602E+03 -3.251678E+03
        94  27 -5.130211E+06 -7.312262E+05  2.670641E+04 -1.986055E+06  2.035052E+03 -7.085912E+02
        95   1 -5.142944E+06 -7.360898E+05  2.316998E+04 -1.989606E+06  2.292962E+03 -2.667770E+02
        95   2 -5.086816E+06 -6.622700E+05  4.668775E+04 -1.920434E+06  7.115450E+03 -2.738166E+03
        95   3 -4.956361E+06 -6.668571E+05  6.693004E+04 -1.937818E+06  1.185025E+04 -4.966033E+03
        95   4 -5.247310E+06 -7.752353E+05 -5.448533E+03 -2.017543E+06  9.974113E+02 -7.502820E+02
        95   5 -5.284581E+06 -7.368419E+05 -6.930326E+03 -1.973959E+06  5.900093E+03 -3.192202E+03
        95   6 -5.247549E+06 -7.768742E+05 -1.175154E+04 -2.016935E+06  1.071450E+04 -5.390745E+03
        95   7 -5.351665E+06 -8.143804E+05 -3.406811E+04 -2.045476E+06 -2.979010E+02 -1.233699E+03
        95   8 -5.482310E+06 -8.114118E+05 -6.055216E+04 -2.027468E+06  4.685159E+03 -3.646079E+03
        95   9 -5.538657E+06 -8.868870E+05 -9.044122E+04 -2.096020E+06  9.579328E+03 -5.815238E+03
        95  10 -5.142944E+06 -7.360898E+05  2.316997E+04 -1.989606E+06 -1.563728E-09 -6.464011E-10
        95  11 -5.086816E+06 -6.622700E+05  4.668764E+04 -1.920434E+06  1.223988E-09 -1.945494E-10
        95  12 -4.956361E+06 -6.668572E+05  6.692973E+04 -1.937818E+06 -8.243064E-10 -1.419792E-09
        95  13 -5.247310E+06 -7.752353E+05 -5.448536E+03 -2.017543E+06  9.014356E-10  7.651104E-11
        95  14 -5.284581E+06 -7.368419E+05 -6.930411E+03 -1.973959E+06 -3.884640E-10 -1.042151E-09
        95  15 -5.247549E+06 -7.768743E+05 -1.175181E+04 -2.016935E+06 -3.036826E-09 -4.651943E-10
        95  16 -5.351665E+06 -8.143804E+05 -3.406811E+04 -2.045476E+06 -1.568805E-11 -9.310720E-10
        95  17 -5.482310E+06 -8.114118E+05 -6.055223E+04 -2.027468E+06 -1.419577E-09  8.458969E-10
        95  18 -5.538657E+06 -8.868871E+05 -9.044145E+04 -2.096019E+06 -3.534137E-09 -4.914153E-10
        95  19 -5.142944E+06 -7.360898E+05  2.316998E+04 -1.989606E+06 -2.292962E+03  2.667770E+02
        95  20 -5.086816E+06 -6.622700E+05  4.668775E+04 -1.920434E+06 -7.115450E+03  2.738166E+03
        95  21 -4.956361E+06 -6.668571E+05  6.693004E+04 -1.937818E+06 -1.185025E+04  4.966033E+03
        95  22 -5.247310E+06 -7.752353E+05 -5.448533E+03 -2.017543E+06 -9.974113E+02  7.502820E+02
        95  23 -5.284581E+06 -7.368419E+05 -6.930326E+03 -1.973959E+06 -5.900093E+03  3.192202E+03
        95  24 -5.247549E+06 -7.768742E+05 -1.175154E+04 -2.016935E+06 -1.071450E+04  5.390745E+03
        95  25 -5.351665E+06 -8.143804E+05 -3.406811E+04 -2.045476E+06  2.979010E+02  1.233699E+03
        95  26 -5.482310E+06 -8.114118E+05 -6.055216E+04 -2.027468E+06 -4.685159E+03  3.646079E+03
        95  27 -5.538657E+06 -8.868870E+05 -9.044122E+04 -2.096020E+06 -9.579328E+03  5.815238E+03
        96   1 -4.758459E+06 -5.871788E+05  1.188670E+05 -1.882614E+06  1.490604E+04 -6.197473E+03
        96   2 -4.711973E+06 -5.237705E+05  1.284452E+05 -1.824449E+06  2.892569E+04 -4.678113E+03
        96   3 -4.611521E+06 -5.402857E+05  1.236589E+05 -1.832407E+06  4.263806E+04 -2.318475E+03
        96   4 -5.251342E+06 -7.716292E+05 -1.481366E+04 -2.014509E+06  1.366542E+04 -6.662019E+03
        96   5 -5.279294E+06 -7.385075E+05 -2.549438E+04 -1.978882E+06  2.795423E+04 -5.043091E+03
        96   6 -5.253347E+06 -7.853784E+05 -5.076462E+04 -2.009383E+06  4.193395E+04 -2.584235E+03
        96   7 -5.743986E+06 -9.560659E+05 -1.485154E+05 -2.146309E+06  1.242590E+04 -7.126163E+03
        96   8 -5.846303E+06 -9.532249E+05 -1.794625E+05 -2.133186E+06  2.698375E+04 -5.407701E+03
        96   9 -5.894773E+06 -1.030445E+06 -2.252252E+05 -2.186191E+06  4.123063E+04 -2.849694E+03
        96  10 -4.758460E+06 -5.871789E+05  1.188665E+05 -1.882613E+06 -2.973382E-10 -1.086768E-09
        96  11 -4.711974E+06 -5.237707E+05  1.284436E+05 -1.824449E+06  4.287680E-09  9.630235E-10
        96  12 -4.611523E+06 -5.402862E+05  1.236554E+05 -1.832407E+06 -3.935238E-10  2.513956E-10
        96  13 -5.251342E+06 -7.716293E+05 -1.481410E+04 -2.014509E+06 -3.356376E-10 -8.058951E-10
        96  14 -5.279295E+06 -7.385077E+05 -2.549590E+04 -1.978882E+06  2.290262E-09 -1.781396E-10
        96  15 -5.253349E+06 -7.853788E+05 -5.076796E+04 -2.009383E+06 -3.622546E-09 -2.519487E-10
        96  16 -5.743986E+06 -9.560659E+05 -1.485158E+05 -2.146309E+06 -1.356704E-10  1.265952E-09
        96  17 -5.846303E+06 -9.532251E+05 -1.794639E+05 -2.133186E+06  2.479841E-09  8.716987E-10
        96  18 -5.894775E+06 -1.030445E+06 -2.252285E+05 -2.186191E+06  6.519599E-10 -2.960718E-10
        96  19 -4.758459E+06 -5.871788E+05  1.188670E+05 -1.882614E+06 -1.490604E+04  6.197473E+03
        96  20 -4.711973E+06 -5.237705E+05  1.284452E+05 -1.824449E+06 -2.892569E+04  4.678113E+03
        96  21 -4.611521E+06 -5.402857E+05  1.236589E+05 -1.832407E+06 -4.263806E+04  2.318475E+03
        96  22 -5.251342E+06 -7.716292E+05 -1.481366E+04 -2.014509E+06 -1.366542E+04  6.662019E+03
        96  23 -5.279294E+06 -7.385075E+05 -2.549438E+04 -1.978882E+06 -2.795423E+04  5.043091E+03
        96  24 -5.253347E+06 -7.853784E+05 -5.076462E+04 -2.009383E+06 -4.193395E+04  2.584235E+03
        96  25 -5.743986E+06 -9.560659E+05 -1.485154E+05 -2.146309E+06 -1.242590E+04  7.126163E+03
        96  26 -5.846303E+06 -9.532249E+05 -1.794625E+05 -2.133186E+06 -2.698375E+04  5.407701E+03
        96  27 -5.894773E+06 -1.030445E+06 -2.252252E+05 -2.186191E+06 -4.123063E+04  2.849694E+03
        97   1 -4.470448E+06 -4.740215E+05  1.492707E+05 -1.807494E+06  5.317198E+04 -3.240006E+02
        97   2 -4.434849E+06 -4.092365E+05  1.158131E+05 -1.759366E+06  1.105433E+05  1.874672E+04
        97   3 -4.421978E+06 -5.209080E+05  1.997891E+03 -1.716013E+06  1.668510E+05  4.066123E+04
        97   4 -5.264251E+06 -7.633659E+05 -6.416640E+04 -2.012136E+06  5.192098E+04 -7.948350E+02
        97   5 -5.260431E+06 -7.274625E+05 -1.092669E+05 -1.990036E+06  1.101689E+05  1.860234E+04
        97   6 -5.279594E+06 -8.683178E+05 -2.355103E+05 -1.972699E+06  1.673493E+05  4.084002E+04
        97   7 -6.057446E+06 -1.052685E+06 -2.776595E+05 -2.216545E+06  5.067172E+04 -1.265074E+03
        97   8 -6.085353E+06 -1.045642E+06 -3.344092E+05 -2.220424E+06  1.097950E+05  1.845814E+04
        97   9 -6.136494E+06 -1.215655E+06 -4.730872E+05 -2.229052E+06  1.678467E+05  4.101842E+04
        97  10 -4.470451E+06 -4.740223E+05  1.492653E+05 -1.807494E+06 -6.279675E-10  5.412835E-10
        97  11 -4.434862E+06 -4.092402E+05  1.157893E+05 -1.759368E+06  1.165697E-09 -9.670974E-10
        97  12 -4.422008E+06 -5.209173E+05  1.942020E+03 -1.716018E+06 -1.895799E-09  5.166506E-12
        97  13 -5.264254E+06 -7.633666E+05 -6.417150E+04 -2.012136E+06 -6.309652E-10 -5.463512E-10
        97  14 -5.260444E+06 -7.274662E+05 -1.092906E+05 -1.990037E+06  2.452204E-09 -1.116543E-09
        97  15 -5.279624E+06 -8.683272E+05 -2.355666E+05 -1.972704E+06 -6.274317E-10 -5.516014E-10
        97  16 -6.057449E+06 -1.052686E+06 -2.776644E+05 -2.216545E+06 -8.083253E-10 -2.500942E-09
        97  17 -6.085366E+06 -1.045646E+06 -3.344328E+05 -2.220425E+06 -2.910665E-09 -1.897536E-10
        97  18 -6.136525E+06 -1.215665E+06 -4.731439E+05 -2.229057E+06 -5.124906E-10 -5.983319E-10
        97  19 -4.470448E+06 -4.740215E+05  1.492707E+05 -1.807494E+06 -5.317198E+04  3.240006E+02
        97  20 -4.434849E+06 -4.092365E+05  1.158131E+05 -1.759366E+06 -1.105433E+05 -1.874672E+04
        97  21 -4.421978E+06 -5.209080E+05  1.997891E+03 -1.716013E+06 -1.668510E+05 -4.066123E+04
        97  22 -5.264251E+06 -7.633659E+05 -6.416640E+04 -2.012136E+06 -5.192098E+04  7.948350E+02
        97  23 -5.260431E+06 -7.274625E+05 -1.092669E+05 -1.990036E+06 -1.101689E+05 -1.860234E+04
        97  24 -5.279594E+06 -8.683178E+05 -2.355103E+05 -1.972699E+06 -1.673493E+05 -4.084002E+04
        97  25 -6.057446E+06 -1.052685E+06 -2.776595E+05 -2.216545E+06 -5.067172E+04  1.265074E+03
        97  26 -6.085353E+06 -1.045642E+06 -3.344092E+05 -2.220424E+06 -1.097950E+05 -1.845814E+04
        97  27 -6.136494E+06 -1.215655E+06 -4.730872E+05 -2.229052E+06 -1.678467E+05 -4.101842E+04
        98   1 -4.332838E+06 -4.412681E+05 -3.467259E+04 -1.848749E+06  2.141204E+05  5.506878E+04
        98   2 -4.265177E+06 -2.068831E+05 -2.107557E+05 -1.728168E+06  4.637434E+05  1.483597E+05
        98   3 -4.634018E+06 -1.052302E+06 -8.685883E+05 -1.327012E+06  7.064694E+05  2.598509E+05
        98   4 -5.323230E+06 -7.351128E+05 -2.873763E+05 -2.035826E+06  2.104935E+05  5.372851E+04
        98   5 -5.163395E+06 -5.967988E+05 -4.638662E+05 -2.023648E+06  4.658303E+05  1.491039E+05
        98   6 -5.441866E+06 -1.540465E+06 -1.127213E+06 -1.730684E+06  7.143041E+05  2.625748E+05
        98   7 -6.312663E+06 -1.028975E+06 -5.401532E+05 -2.222673E+06  2.068728E+05  5.238942E+04
        98   8 -6.060822E+06 -9.865928E+05 -7.170537E+05 -2.318712E+06  4.679134E+05  1.498462E+05
        98   9 -6.248994E+06 -2.028220E+06 -1.385898E+06 -2.133778E+06  7.221271E+05  2.652883E+05
        98  10 -4.332888E+06 -4.412838E+05 -3.476519E+04 -1.848759E+06  1.347645E-09 -1.223614E-09
        98  11 -4.265415E+06 -2.069653E+05 -2.112049E+05 -1.728224E+06 -2.384183E-09 -1.234538E-09
        98  12 -4.634576E+06 -1.052510E+06 -8.696618E+05 -1.327161E+06 -1.760067E-09  2.714586E-10
        98  13 -5.323279E+06 -7.351280E+05 -2.874658E+05 -2.035835E+06 -1.320815E-09 -5.888838E-11
        98  14 -5.163636E+06 -5.968818E+05 -4.643202E+05 -2.023704E+06  1.606130E-09 -7.874158E-10
        98  15 -5.442437E+06 -1.540678E+06 -1.128312E+06 -1.730836E+06  1.032790E-09  1.770287E-09
        98  16 -6.312710E+06 -1.028990E+06 -5.402398E+05 -2.222682E+06  7.278904E-11 -7.213468E-10
        98  17 -6.061065E+06 -9.866767E+05 -7.175125E+05 -2.318769E+06  6.765903E-10 -9.216910E-10
        98  18 -6.249579E+06 -2.028438E+06 -1.387023E+06 -2.133934E+06  1.088146E-09  2.957843E-10
        98  19 -4.332838E+06 -4.412681E+05 -3.467259E+04 -1.848749E+06 -2.141204E+05 -5.506878E+04
        98  20 -4.265177E+06 -2.068831E+05 -2.107557E+05 -1.728168E+06 -4.637434E+05 -1.483597E+05
        98  21 -4.634018E+06 -1.052302E+06 -8.685883E+05 -1.327012E+06 -7.064694E+05 -2.598509E+05
        98  22 -5.323230E+06 -7.351128E+05 -2.873763E+05 -2.035826E+06 -2.104935E+05 -5.372851E+04
        98  23 -5.163395E+06 -5.967988E+05 -4.638662E+05 -2.023648E+06 -4.658303E+05 -1.491039E+05
        98  24 -5.441866E+06 -1.540465E+06 -1.127213E+06 -1.730684E+06 -7.143041E+05 -2.625748E+05
        98  25 -6.312663E+06 -1.028975E+06 -5.401532E+05 -2.222673E+06 -2.068728E+05 -5.238942E+04
        98  26 -6.060822E+06 -9.865928E+05 -7.170537E+05 -2.318712E+06 -4.679134E+05 -1.498462E+05
        98  27 -6.248994E+06 -2.028220E+06 -1.385898E+06 -2.133778E+06 -7.221271E+05 -2.652883E+05
        99   1 -2.183687E+06 -3.231297E+05 -3.169921E+05 -4.015357E+04 -5.529986E+02  1.068547E+04
        99   2 -2.122172E+06 -3.213818E+05 -3.055113E+05 -7.356036E+03  4.240364E+03  3.171137E+04
        99   3 -2.053022E+06 -3.033321E+05 -2.922856E+05 -4.217339E+04  9.137390E+03  2.837379E+04
        99   4 -8.400732E+05  1.284841E+04  1.698904E+04 -3.863868E+04  1.137925E+04  1.073880E+04
        99   5 -8.446474E+05 -2.931519E+03  6.988679E+03 -4.805272E+03  7.420680E+03  3.171840E+04
        99   6 -8.400718E+05 -9.020951E+02  4.815541E+03 -3.857812E+04  3.565361E+03  2.835664E+04
        99   7  5.051840E+05  3.486908E+05  3.508355E+05 -3.712233E+04  2.333736E+04  1.079213E+04
        99   8  4.343688E+05  3.153978E+05  3.193693E+05 -2.250544E+03  1.060753E+04  3.172546E+04
        99   9  3.742231E+05  3.014187E+05  3.018090E+05 -3.497658E+04 -2.017566E+03  2.833945E+04
        99  10 -2.183687E+06 -3.231298E+05 -3.169923E+05 -4.015357E+04 -1.937735E-09  1.555706E-10
        99  11 -2.122172E+06 -3.213829E+05 -3.055132E+05 -7.356144E+03 -2.051542E-09 -2.201504E-09
        99  12 -2.053023E+06 -3.033329E+05 -2.922872E+05 -4.217360E+04 -1.004509E-09 -5.394700E-10
        99  13 -8.400733E+05  1.284825E+04  1.698858E+04 -3.863877E+04  1.374467E-10 -1.421146E-09
        99  14 -8.446477E+05 -2.932613E+03  6.986685E+03 -4.805461E+03 -3.702927E-09 -9.994933E-10
        99  15 -8.400721E+05 -9.029617E+02  4.814006E+03 -3.857821E+04 -1.805648E-09 -1.234846E-09
        99  16  5.051834E+05  3.486905E+05  3.508343E+05 -3.712253E+04  1.820806E-09  1.936517E-09
        99  17  4.343684E+05  3.153967E+05  3.193672E+05 -2.250815E+03 -1.721313E-09 -1.190953E-09
        99  18  3.742229E+05  3.014179E+05  3.018074E+05 -3.497653E+04  2.107504E-10 -1.946867E-09
        99  19 -2.183687E+06 -3.231297E+05 -3.169921E+05 -4.015357E+04  5.529986E+02 -1.068547E+04
        99  20 -2.122172E+06 -3.213818E+05 -3.055113E+05 -7.356036E+03 -4.240364E+03 -3.171137E+04
        99  21 -2.053022E+06 -3.033321E+05 -2.922856E+05 -4.217339E+04 -9.137390E+03 -2.837379E+04
        99  22 -8.400732E+05  1.284841E+04  1.698904E+04 -3.863868E+04 -1.137925E+04 -1.073880E+04
        99  23 -8.446474E+05 -2.931519E+03  6.988679E+03 -4.805272E+03 -7.420680E+03 -3.171840E+04
        99  24 -8.400718E+05 -9.020951E+02  4.815541E+03 -3.857812E+04 -3.565361E+03 -2.835664E+04
        99  25  5.051840E+05  3.486908E+05  3.508355E+05 -3.712233E+04 -2.333736E+04 -1.079213E+04
        99  26  4.343688E+05  3.153978E+05  3.193693E+05 -2.250544E+03 -1.060753E+04 -3.172546E+04
        99  27  3.742231E+05  3.014187E+05  3.018090E+05 -3.497658E+04  2.017566E+03 -2.833945E+04
       100   1 -1.911557E+06 -2.656407E+05 -2.586297E+05 -4.142305E+04  2.329811E+03  2.328290E+04
       100   2 -1.841335E+06 -2.494646E+05 -2.428039E+05 -3.503964E+03  2.343016E+03  2.319255E+04
       100   3 -1.768201E+06 -2.312390E+05 -2.259822E+05 -4.048416E+04  2.354053E+03  2.043722E+04
       100   4 -8.413203E+05  1.252799E+03  3.897149E+03 -4.021715E+04  2.779262E+03  2.328116E+04
       100   5 -8.428544E+05 -5.458714E+02  1.765743E+03 -2.769830E+03  1.834052E+03  2.318959E+04
       100   6 -8.413149E+05 -1.287442E+02  1.295993E+03 -4.021437E+04  8.866587E+02  2.043497E+04
       100   7  2.299622E+05  2.680612E+05  2.663399E+05 -3.900961E+04  3.229485E+03  2.327942E+04
       100   8  1.565365E+05  2.482989E+05  2.462623E+05 -2.034749E+03  1.324268E+03  2.318664E+04
       100   9  8.635540E+04  2.309177E+05  2.285111E+05 -3.994419E+04 -5.829277E+02  2.043272E+04
       100  10 -1.911557E+06 -2.656413E+05 -2.586307E+05 -4.142309E+04 -1.638239E-09  5.288144E-11
       100  11 -1.841335E+06 -2.494652E+05 -2.428049E+05 -3.504008E+03  5.578402E-10  5.309279E-10
       100  12 -1.768201E+06 -2.312395E+05 -2.259830E+05 -4.048420E+04  1.854552E-09  3.622701E-11
       100  13 -8.413204E+05  1.252215E+03  3.896116E+03 -4.021720E+04  1.618567E-10 -1.482479E-09
       100  14 -8.428546E+05 -5.464495E+02  1.764726E+03 -2.769864E+03 -2.618464E-09  1.876124E-09
       100  15 -8.413150E+05 -1.291926E+02  1.295207E+03 -4.021439E+04 -4.512483E-09 -2.889184E-10
       100  16  2.299621E+05  2.680607E+05  2.663388E+05 -3.900967E+04  1.929091E-09 -6.325305E-10
       100  17  1.565363E+05  2.482983E+05  2.462613E+05 -2.034774E+03 -1.630295E-09  1.645079E-09
       100  18  8.635529E+04  2.309173E+05  2.285103E+05 -3.994418E+04 -4.191197E-09  5.648444E-10
       100  19 -1.911557E+06 -2.656407E+05 -2.586297E+05 -4.142305E+04 -2.329811E+03 -2.328290E+04
       100  20 -1.841335E+06 -2.494646E+05 -2.428039E+05 -3.503964E+03 -2.343016E+03 -2.319255E+04
       100  21 -1.768201E+06 -2.312390E+05 -2.259822E+05 -4.048416E+04 -2.354053E+03 -2.043722E+04
       100  22 -8.413203E+05  1.252799E+03  3.897149E+03 -4.021715E+04 -2.779262E+03 -2.328116E+04
       100  23 -8.428544E+05 -5.458714E+02  1.765743E+03 -2.769830E+03 -1.834052E+03 -2.318959E+04
       100  24 -8.413149E+05 -1.287442E+02  1.295993E+03 -4.021437E+04 -8.866587E+02 -2.043497E+04
       100  25  2.299622E+05  2.680612E+05  2.663399E+05 -3.900961E+04 -3.229485E+03 -2.327942E+04
       100  26  1.565365E+05  2.482989E+05  2.462623E+05 -2.034749E+03 -1.324268E+03 -2.318664E+04
       100  27  8.635540E+04  2.309177E+05  2.285111E+05 -3.994419E+04  5.829277E+02 -2.043272E+04
       101   1 -1.613799E+06 -1.924107E+05 -1.879812E+05 -4.123687E+04  1.491828E+03  1.848043E+04
       101   2 -1.537730E+06 -1.735054E+05 -1.698403E+05 -9.444412E+02  1.341073E+03  1.600488E+04
       101   3 -1.460624E+06 -1.542069E+05 -1.513149E+05 -4.070527E+04  1.184887E+03  1.317753E+04
       101   4 -8.416826E+05  2.301174E+01  9.871899E+02 -4.136089E+04  6.661215E+02  1.847913E+04
       101   5 -8.422071E+05 -1.386998E+02  5.249309E+02 -1.336931E+03  3.886195E+02  1.600447E+04
       101   6 -8.416780E+05  1.155921E+02  5.355944E+02 -4.136068E+04  1.057061E+02  1.317819E+04
       101   7 -6.902150E+04  1.924125E+05  1.899120E+05 -4.148502E+04 -1.606127E+02  1.847783E+04
       101   8 -1.462427E+05  1.731921E+05  1.708547E+05 -1.729776E+03 -5.649010E+02  1.600405E+04
       101   9 -2.223824E+05  1.544097E+05  1.523579E+05 -4.201661E+04 -9.745505E+02  1.317885E+04
       101  10 -1.613799E+06 -1.924110E+05 -1.879819E+05 -4.123689E+04 -1.112082E-09  2.189594E-10
       101  11 -1.537730E+06 -1.735057E+05 -1.698408E+05 -9.444585E+02  4.944736E-10 -1.332711E-11
       101  12 -1.460624E+06 -1.542071E+05 -1.513152E+05 -4.070528E+04  1.249893E-09 -1.499148E-09
       101  13 -8.416827E+05  2.264507E+01  9.865476E+02 -4.136090E+04 -1.681249E-11 -3.107995E-10
       101  14 -8.422072E+05 -1.389747E+02  5.244495E+02 -1.336936E+03 -6.134380E-09  5.764345E-10
       101  15 -8.416780E+05  1.154057E+02  5.352682E+02 -4.136068E+04 -8.365439E-10  2.776022E-11
       101  16 -6.902159E+04  1.924121E+05  1.899113E+05 -4.148501E+04 -3.314845E-09 -2.976135E-10
       101  17 -1.462428E+05  1.731919E+05  1.708543E+05 -1.729769E+03 -9.412829E-10 -6.114013E-10
       101  18 -2.223824E+05  1.544095E+05  1.523576E+05 -4.201660E+04 -2.138956E-09 -1.458771E-09
       101  19 -1.613799E+06 -1.924107E+05 -1.879812E+05 -4.123687E+04 -1.491828E+03 -1.848043E+04
       101  20 -1.537730E+06 -1.735054E+05 -1.698403E+05 -9.444412E+02 -1.341073E+03 -1.600488E+04
       101  21 -1.460624E+06 -1.542069E+05 -1.513149E+05 -4.070527E+04 -1.184887E+03 -1.317753E+04
       101  22 -8.416826E+05  2.301174E+01  9.871899E+02 -4.136089E+04 -6.661215E+02 -1.847913E+04
       101  23 -8.422071E+05 -1.386998E+02  5.249309E+02 -1.336931E+03 -3.886195E+02 -1.600447E+04
       101  24 -8.416780E+05  1.155921E+02  5.355944E+02 -4.136068E+04 -1.057061E+02 -1.317819E+04
       101  25 -6.902150E+04  1.924125E+05  1.899120E+05 -4.148502E+04  1.606127E+02 -1.847783E+04
       101  26 -1.462427E+05  1.731921E+05  1.708547E+05 -1.729776E+03  5.649010E+02 -1.600405E+04
       101  27 -2.223824E+05  1.544097E+05  1.523579E+05 -4.201661E+04  9.745505E+02 -1.317885E+04
       102   1 -1.297633E+06 -1.134933E+05 -1.109186E+05 -4.152629E+04  1.011283E+03  1.147668E+04
       102   2 -1.217941E+06 -9.375490E+04 -9.155138E+04  1.036216E+02  7.565674E+02  8.640082E+03
       102   3 -1.138208E+06 -7.365713E+04 -7.194826E+04 -4.155781E+04  4.987142E+02  5.731779E+03
       102   4 -8.418493E+05  5.377122E+01  4.753702E+02 -4.208099E+04  4.421586E+00  1.147781E+04
       102   5 -8.418678E+05 -3.114302E+01  5.510381E+02 -4.366926E+02 -2.762702E+02  8.641752E+03
       102   6 -8.418465E+05  2.486776E+02  8.813704E+02 -4.208060E+04 -5.600671E+02  5.734032E+03
       102   7 -3.858758E+05  1.135854E+05  1.118541E+05 -4.263601E+04 -1.003178E+03  1.147894E+04
       102   8 -4.656659E+05  9.368213E+04  9.264309E+04 -9.772728E+02 -1.309733E+03  8.643423E+03
       102   9 -5.454046E+05  7.414795E+04  7.370454E+04 -4.260359E+04 -1.619354E+03  5.736286E+03
       102  10 -1.297633E+06 -1.134934E+05 -1.109188E+05 -4.152630E+04 -1.108584E-09 -4.805225E-10
       102  11 -1.217941E+06 -9.375498E+04 -9.155152E+04  1.036163E+02 -2.713812E-10  3.869739E-11
       102  12 -1.138208E+06 -7.365716E+04 -7.194832E+04 -4.155781E+04 -9.776138E-10 -6.857352E-10
       102  13 -8.418493E+05  5.362981E+01  4.751227E+02 -4.208099E+04 -1.256852E-09 -1.968616E-09
       102  14 -8.418678E+05 -3.122321E+01  5.508976E+02 -4.366907E+02 -1.747078E-09  6.957549E-10
       102  15 -8.418465E+05  2.486422E+02  8.813081E+02 -4.208060E+04 -8.267405E-10 -1.316305E-09
       102  16 -3.858758E+05  1.135853E+05  1.118539E+05 -4.263600E+04  1.495070E-09 -4.968331E-10
       102  17 -4.656659E+05  9.368205E+04  9.264295E+04 -9.772637E+02  1.077645E-10 -4.410718E-10
       102  18 -5.454046E+05  7.414791E+04  7.370447E+04 -4.260358E+04 -1.932725E-09 -2.089596E-09
       102  19 -1.297633E+06 -1.134933E+05 -1.109186E+05 -4.152629E+04 -1.011283E+03 -1.147668E+04
       102  20 -1.217941E+06 -9.375490E+04 -9.155138E+04  1.036216E+02 -7.565674E+02 -8.640082E+03
       102  21 -1.138208E+06 -7.365713E+04 -7.194826E+04 -4.155781E+04 -4.987142E+02 -5.731779E+03
       102  22 -8.418493E+05  5.377122E+01  4.753702E+02 -4.208099E+04 -4.421586E+00 -1.147781E+04
       102  23 -8.418678E+05 -3.114302E+01  5.510381E+02 -4.366926E+02  2.762702E+02 -8.641752E+03
       102  24 -8.418465E+05  2.486776E+02  8.813704E+02 -4.208060E+04  5.600671E+02 -5.734032E+03
       102  25 -3.858758E+05  1.135854E+05  1.118541E+05 -4.263601E+04  1.003178E+03 -1.147894E+04
       102  26 -4.656659E+05  9.368213E+04  9.264309E+04 -9.772728E+02  1.309733E+03 -8.643423E+03
       102  27 -5.454046E+05  7.414795E+04  7.370454E+04 -4.260359E+04  1.619354E+03 -5.736286E+03
       103   1 -9.704980E+05 -3.184519E+04 -3.016465E+04 -4.209565E+04  3.106344E+02  4.018435E+03
       103   2 -8.894600E+05 -1.193994E+04 -9.863284E+03  8.483063E+00 -6.035397E+02  1.094621E+03
       103   3 -8.085812E+05  8.813800E+03  1.114098E+04 -4.246302E+04 -1.518200E+03 -1.816599E+03
       103   4 -8.418705E+05  1.567966E+02  1.082975E+03 -4.236711E+04 -7.438329E+02  4.020910E+03
       103   5 -8.417865E+05 -6.105719E+01  1.810414E+03 -7.899948E+01 -1.653599E+03  1.097141E+03
       103   6 -8.418696E+05  5.689967E+02  3.237836E+03 -4.236609E+04 -2.563733E+03 -1.814014E+03
       103   7 -7.132280E+05  3.215756E+04  3.232941E+04 -4.263862E+04 -1.798518E+03  4.023386E+03
       103   8 -7.941110E+05  1.181766E+04  1.348395E+04 -1.664875E+02 -2.703738E+03  1.099661E+03
       103   9 -8.751569E+05 -7.675886E+03 -4.665380E+03 -4.226918E+04 -3.609210E+03 -1.811429E+03
       103  10 -9.704980E+05 -3.184520E+04 -3.016468E+04 -4.209565E+04 -1.613067E-09  8.311060E-10
       103  11 -8.894600E+05 -1.193994E+04 -9.863287E+03  8.483595E+00 -4.200441E-09  3.834928E-09
       103  12 -8.085812E+05  8.813796E+03  1.114097E+04 -4.246302E+04  2.309640E-09 -1.722102E-09
       103  13 -8.418705E+05  1.567791E+02  1.082943E+03 -4.236711E+04 -3.221937E-09 -2.249518E-10
       103  14 -8.417865E+05 -6.105922E+01  1.810406E+03 -7.899801E+01 -3.141884E-09 -5.410571E-10
       103  15 -8.418696E+05  5.689914E+02  3.237817E+03 -4.236610E+04 -3.639659E-09  4.128405E-10
       103  16 -7.132280E+05  3.215754E+04  3.232937E+04 -4.263861E+04  2.114192E-09  1.379510E-10
       103  17 -7.941110E+05  1.181766E+04  1.348393E+04 -1.664851E+02  1.469437E-09  9.454823E-11
       103  18 -8.751570E+05 -7.675893E+03 -4.665410E+03 -4.226918E+04 -1.312228E-09  9.719977E-11
       103  19 -9.704980E+05 -3.184519E+04 -3.016465E+04 -4.209565E+04 -3.106344E+02 -4.018435E+03
       103  20 -8.894600E+05 -1.193994E+04 -9.863284E+03  8.483063E+00  6.035397E+02 -1.094621E+03
       103  21 -8.085812E+05  8.813800E+03  1.114098E+04 -4.246302E+04  1.518200E+03  1.816599E+03
       103  22 -8.418705E+05  1.567966E+02  1.082975E+03 -4.236711E+04  7.438329E+02 -4.020910E+03
       103  23 -8.417865E+05 -6.105719E+01  1.810414E+03 -7.899948E+01  1.653599E+03 -1.097141E+03
       103  24 -8.418696E+05  5.689967E+02  3.237836E+03 -4.236609E+04  2.563733E+03  1.814014E+03
       103  25 -7.132280E+05  3.215756E+04  3.232941E+04 -4.263862E+04  1.798518E+03 -4.023386E+03
       103  26 -7.941110E+05  1.181766E+04  1.348395E+04 -1.664875E+02  2.703738E+03 -1.099661E+03
       103  27 -8.751569E+05 -7.675886E+03 -4.665380E+03 -4.226918E+04  3.609210E+03  1.811429E+03
       104   1 -6.399080E+05  5.036722E+04  5.380392E+04 -4.221839E+04 -2.140823E+03 -3.557743E+03
       104   2 -5.602639E+05  6.964159E+04  7.607635E+04 -8.251793E+02 -5.804618E+03 -6.481142E+03
       104   3 -4.792983E+05  9.335091E+04  1.017851E+05 -4.328923E+04 -9.466202E+03 -9.170082E+03
       104   4 -8.415556E+05  8.244031E+01  4.186445E+03 -4.220977E+04 -3.236887E+03 -3.555162E+03
       104   5 -8.422060E+05 -5.952139E+02  7.058726E+03 -2.769371E+02 -6.814916E+03 -6.479161E+03
       104   6 -8.415548E+05  3.148808E+03  1.330946E+04 -4.220368E+04 -1.039026E+04 -9.168639E+03
       104   7 -1.043166E+06 -5.020537E+04 -4.543403E+04 -4.220112E+04 -4.332596E+03 -3.552581E+03
       104   8 -1.124076E+06 -7.083791E+04 -6.196472E+04  2.710942E+02 -7.824755E+03 -6.477181E+03
       104   9 -1.203692E+06 -8.706299E+04 -7.517574E+04 -4.111870E+04 -1.131378E+04 -9.167199E+03
       104  10 -6.399081E+05  5.036721E+04  5.380389E+04 -4.221840E+04  6.124128E-10 -2.431921E-09
       104  11 -5.602639E+05  6.964154E+04  7.607621E+04 -8.252096E+02 -2.663290E-09 -1.744331E-10
       104  12 -4.792984E+05  9.335079E+04  1.017848E+05 -4.328930E+04 -1.546703E-09  6.763284E-10
       104  13 -8.415556E+05  8.242392E+01  4.186401E+03 -4.220977E+04 -8.925317E-10 -1.252423E-10
       104  14 -8.422061E+05 -5.952715E+02  7.058559E+03 -2.769727E+02 -3.094254E-09 -1.401298E-09
       104  15 -8.415549E+05  3.148689E+03  1.330910E+04 -4.220376E+04 -1.518892E-09 -3.929306E-10
       104  16 -1.043166E+06 -5.020539E+04 -4.543409E+04 -4.220113E+04 -2.303749E-10 -3.442185E-10
       104  17 -1.124076E+06 -7.083797E+04 -6.196491E+04  2.710533E+02  3.638644E-09  2.272757E-09
       104  18 -1.203692E+06 -8.706312E+04 -7.517614E+04 -4.111879E+04  3.803643E-10  7.503775E-10
       104  19 -6.399080E+05  5.036722E+04  5.380392E+04 -4.221839E+04  2.140823E+03  3.557743E+03
       104  20 -5.602639E+05  6.964159E+04  7.607635E+04 -8.251793E+02  5.804618E+03  6.481142E+03
       104  21 -4.792983E+05  9.335091E+04  1.017851E+05 -4.328923E+04  9.466202E+03  9.170082E+03
       104  22 -8.415556E+05  8.244031E+01  4.186445E+03 -4.220977E+04  3.236887E+03  3.555162E+03
       104  23 -8.422060E+05 -5.952139E+02  7.058726E+03 -2.769371E+02  6.814916E+03  6.479161E+03
       104  24 -8.415548E+05  3.148808E+03  1.330946E+04 -4.220368E+04  1.039026E+04  9.168639E+03
       104  25 -1.043166E+06 -5.020537E+04 -4.543403E+04 -4.220112E+04  4.332596E+03  3.552581E+03
       104  26 -1.124076E+06 -7.083791E+04 -6.196472E+04  2.710942E+02  7.824755E+03  6.477181E+03
       104  27 -1.203692E+06 -8.706299E+04 -7.517574E+04 -4.111870E+04  1.131378E+04  9.167199E+03
       105   1 -3.122440E+05  1.304521E+05  1.461696E+05 -3.957694E+04 -1.168752E+04 -1.113208E+04
       105   2 -2.398576E+05  1.459820E+05  1.757784E+05 -2.870016E+03 -2.679500E+04 -1.404183E+04
       105   3 -1.566995E+05  1.944417E+05  2.235706E+05 -4.730773E+04 -4.189828E+04 -1.497515E+04
       105   4 -8.395243E+05 -9.159168E+02  1.688548E+04 -4.161338E+04 -1.309120E+04 -1.113022E+04
       105   5 -8.448449E+05 -4.696704E+03  2.774440E+04 -1.028658E+03 -2.747481E+04 -1.404196E+04
       105   6 -8.395131E+05  2.434495E+04  5.629753E+04 -4.159307E+04 -4.185235E+04 -1.497661E+04
       105   7 -1.366551E+06 -1.323046E+05 -1.124191E+05 -4.364797E+04 -1.449369E+04 -1.112834E+04
       105   8 -1.449498E+06 -1.554025E+05 -1.203164E+05  8.110001E+02 -2.815395E+04 -1.404210E+04
       105   9 -1.521902E+06 -1.457862E+05 -1.110097E+05 -3.588462E+04 -4.180645E+04 -1.497807E+04
       105  10 -3.122441E+05  1.304520E+05  1.461691E+05 -3.957704E+04  7.870720E-10  1.156303E-09
       105  11 -2.398584E+05  1.459816E+05  1.757767E+05 -2.870319E+03 -2.609207E-09 -1.362927E-09
       105  12 -1.567014E+05  1.944410E+05  2.235669E+05 -4.730824E+04 -2.418741E-09 -4.352193E-10
       105  13 -8.395245E+05 -9.160959E+02  1.688492E+04 -4.161350E+04 -2.202107E-09  9.118131E-10
       105  14 -8.448458E+05 -4.697118E+03  2.774261E+04 -1.028969E+03  1.535466E-09  4.906812E-10
       105  15 -8.395150E+05  2.434423E+04  5.629381E+04 -4.159358E+04  2.276225E-09 -3.019347E-10
       105  16 -1.366551E+06 -1.323048E+05 -1.124197E+05 -4.364810E+04 -2.864913E-09  7.427654E-10
       105  17 -1.449499E+06 -1.554029E+05 -1.203182E+05  8.106815E+02  9.892523E-10 -7.247359E-10
       105  18 -1.521903E+06 -1.457870E+05 -1.110134E+05 -3.588513E+04  3.052853E-09  1.807215E-10
       105  19 -3.122440E+05  1.304521E+05  1.461696E+05 -3.957694E+04  1.168752E+04  1.113208E+04
       105  20 -2.398576E+05  1.459820E+05  1.757784E+05 -2.870016E+03  2.679500E+04  1.404183E+04
       105  21 -1.566995E+05  1.944417E+05  2.235706E+05 -4.730773E+04  4.189828E+04  1.497515E+04
       105  22 -8.395243E+05 -9.159168E+02  1.688548E+04 -4.161338E+04  1.309120E+04  1.113022E+04
       105  23 -8.448449E+05 -4.696704E+03  2.774440E+04 -1.028658E+03  2.747481E+04  1.404196E+04
       105  24 -8.395131E+05  2.434495E+04  5.629753E+04 -4.159307E+04  4.185235E+04  1.497661E+04
       105  25 -1.366551E+06 -1.323046E+05 -1.124191E+05 -4.364797E+04  1.449369E+04  1.112834E+04
       105  26 -1.449498E+06 -1.554025E+05 -1.203164E+05  8.110001E+02  2.815395E+04  1.404210E+04
       105  27 -1.521902E+06 -1.457862E+05 -1.110097E+05 -3.588462E+04  4.180645E+04  1.497807E+04
       106   1  1.491000E+04  2.006880E+05  2.742500E+05 -1.993107E+04 -4.835850E+04 -1.931609E+04
       106   2  5.122444E+04  1.911013E+05  3.300722E+05 -1.445922E+04 -1.130687E+05 -2.277219E+04
       106   3  1.623121E+05  4.392552E+05  4.928456E+05 -8.551246E+04 -1.778032E+05 -7.990572E+03
       106   4 -8.255918E+05 -8.602017E+03  6.857891E+04 -4.052641E+04 -5.284076E+04 -1.931466E+04
       106   5 -8.624069E+05 -3.632332E+04  1.069098E+05 -2.368537E+03 -1.109101E+05 -2.277561E+04
       106   6 -8.255020E+05  1.927414E+05  2.476875E+05 -4.073658E+04 -1.689952E+05 -7.993825E+03
       106   7 -1.665448E+06 -2.179428E+05 -1.371436E+05 -6.109374E+04 -5.731692E+04 -1.931293E+04
       106   8 -1.775276E+06 -2.638092E+05 -1.163134E+05  9.704226E+03 -1.087546E+05 -2.277895E+04
       106   9 -1.812425E+06 -5.383785E+04  2.457951E+03  3.967770E+03 -1.602010E+05 -7.995817E+03
       106  10  1.490739E+04  2.006870E+05  2.742449E+05 -1.993182E+04  4.169234E-10 -5.840516E-11
       106  11  5.121058E+04  1.910974E+05  3.300472E+05 -1.446130E+04  1.436944E-09  1.163624E-10
       106  12  1.622781E+05  4.392466E+05  4.927861E+05 -8.551360E+04 -7.314168E-10 -4.165976E-10
       106  13 -8.255949E+05 -8.603168E+03  6.857296E+04 -4.052724E+04  8.438681E-10  3.788093E-11
       106  14 -8.624203E+05 -3.632719E+04  1.068857E+05 -2.370571E+03 -1.622150E-09  3.852547E-10
       106  15 -8.255327E+05  1.927337E+05  2.476337E+05 -4.073767E+04  1.701656E-10 -2.068604E-10
       106  16 -1.665452E+06 -2.179441E+05 -1.371504E+05 -6.109463E+04 -1.745948E-09  5.276032E-10
       106  17 -1.775289E+06 -2.638129E+05 -1.163367E+05  9.702230E+03  6.904233E-10 -2.950152E-10
       106  18 -1.812453E+06 -5.384484E+04  2.409464E+03  3.966738E+03  4.963349E-10 -8.644720E-10
       106  19  1.491000E+04  2.006880E+05  2.742500E+05 -1.993107E+04  4.835850E+04  1.931609E+04
       106  20  5.122444E+04  1.911013E+05  3.300722E+05 -1.445922E+04  1.130687E+05  2.277219E+04
       106  21  1.623121E+05  4.392552E+05  4.928456E+05 -8.551246E+04  1.778032E+05  7.990572E+03
       106  22 -8.255918E+05 -8.602017E+03  6.857891E+04 -4.052641E+04  5.284076E+04  1.931466E+04
       106  23 -8.624069E+05 -3.632332E+04  1.069098E+05 -2.368537E+03  1.109101E+05  2.277561E+04
       106  24 -8.255020E+05  1.927414E+05  2.476875E+05 -4.073658E+04  1.689952E+05  7.993825E+03
       106  25 -1.665448E+06 -2.179428E+05 -1.371436E+05 -6.109374E+04  5.731692E+04  1.931293E+04
       106  26 -1.775276E+06 -2.638092E+05 -1.163134E+05  9.704226E+03  1.087546E+05  2.277895E+04
       106  27 -1.812425E+06 -5.383785E+04  2.457951E+03  3.967770E+03  1.602010E+05  7.995817E+03
       107   1  2.558691E+05  3.316121E+05  2.697787E+05 -1.928997E+05  8.265416E+02  1.684476E+05
       107   2  9.409944E+04  2.709031E+05  1.411640E+05 -1.186183E+05  4.597831E+03  1.007674E+05
       107   3  3.667775E+04  2.450002E+05  8.268806E+04 -5.199596E+04  4.479423E+03  3.307268E+04
       107   4  2.125098E+05  1.635030E+05  2.296943E+05 -5.230119E+04  9.199000E+02  1.575279E+05
       107   5  6.355335E+04  1.467950E+05  1.167734E+05 -4.896909E+04  4.624387E+03  9.776880E+04
       107   6  1.756519E+04  1.635178E+05  6.850066E+04 -5.328842E+04  4.454273E+03  3.798988E+04
       107   7  1.692226E+05 -4.537849E+03  1.896190E+05  8.825889E+04  1.008331E+03  1.466112E+05
       107   8  3.302445E+04  2.271202E+04  9.238458E+04  2.066586E+04  4.650273E+03  9.477079E+04
       107   9 -1.547721E+03  8.204194E+04  5.431312E+04 -5.458071E+04  4.429100E+03  4.290646E+04
       107  10  2.558614E+05  3.315816E+05  2.697254E+05 -1.928998E+05  1.847571E-09  3.346280E-08
       107  11  9.409669E+04  2.708922E+05  1.411449E+05 -1.186187E+05  1.024456E-08  2.914442E-08
       107  12  3.667744E+04  2.449990E+05  8.268596E+04 -5.199608E+04  9.226122E-09  1.803761E-08
       107  13  2.125032E+05  1.634763E+05  2.296477E+05 -5.230131E+04 -4.765711E-09  1.368274E-09
       107  14  6.355076E+04  1.467847E+05  1.167554E+05 -4.896945E+04 -9.714691E-09  3.477436E-11
       107  15  1.756478E+04  1.635162E+05  6.849791E+04 -5.328856E+04 -2.241692E-08  1.142313E-09
       107  16  1.692168E+05 -4.560928E+03  1.895786E+05  8.825877E+04  5.497027E-10 -3.397196E-08
       107  17  3.302201E+04  2.270238E+04  9.236766E+04  2.066551E+04  7.893073E-09 -2.687347E-08
       107  18 -1.548236E+03  8.203996E+04  5.430963E+04 -5.458086E+04  1.127558E-08 -1.711058E-08
       107  19  2.558691E+05  3.316121E+05  2.697787E+05 -1.928997E+05 -8.265416E+02 -1.684476E+05
       107  20  9.409944E+04  2.709031E+05  1.411640E+05 -1.186183E+05 -4.597831E+03 -1.007674E+05
       107  21  3.667775E+04  2.450002E+05  8.268806E+04 -5.199596E+04 -4.479423E+03 -3.307268E+04
       107  22  2.125098E+05  1.635030E+05  2.296943E+05 -5.230119E+04 -9.199000E+02 -1.575279E+05
       107  23  6.355335E+04  1.467950E+05  1.167734E+05 -4.896909E+04 -4.624387E+03 -9.776880E+04
       107  24  1.756519E+04  1.635178E+05  6.850066E+04 -5.328842E+04 -4.454273E+03 -3.798988E+04
       107  25  1.692226E+05 -4.537849E+03  1.896190E+05  8.825889E+04 -1.008331E+03 -1.466112E+05
       107  26  3.302445E+04  2.271202E+04  9.238458E+04  2.066586E+04 -4.650273E+03 -9.477079E+04
       107  27 -1.547721E+03  8.204194E+04  5.431312E+04 -5.458071E+04 -4.429100E+03 -4.290646E+04
       108   1  2.743173E+04  2.108094E+05  6.490525E+04 -6.141616E+04  2.969250E+03  2.376523E+04
       108   2  8.482059E+03  1.639574E+05  4.350459E+04 -5.016910E+04  6.713811E+02  2.632178E+03
       108   3  2.407377E+03  1.229728E+05  3.905130E+04 -4.713130E+04 -1.673336E+03 -1.849963E+04
       108   4  1.479840E+04  1.573878E+05  5.563873E+04 -5.332582E+04  2.944713E+03  2.862641E+04
       108   5  6.279211E+03  1.544634E+05  4.203891E+04 -4.923210E+04  6.460441E+02  7.588979E+03
       108   6  1.061866E+04  1.573883E+05  4.532097E+04 -5.334714E+04 -1.698994E+03 -1.344860E+04
       108   7  2.165164E+03  1.039692E+05  4.637223E+04 -4.523619E+04  2.920302E+03  3.348719E+04
       108   8  4.076375E+03  1.449696E+05  4.057332E+04 -4.829511E+04  6.207218E+02  1.254571E+04
       108   9  1.883002E+04  1.918052E+05  5.159070E+04 -5.956333E+04 -1.724752E+03 -8.397301E+03
       108  10  2.743157E+04  2.108088E+05  6.490417E+04 -6.141622E+04  7.720447E-09  3.506664E-08
       108  11  8.482057E+03  1.639574E+05  4.350457E+04 -5.016910E+04  4.713488E-09 -3.186685E-08
       108  12  2.407283E+03  1.229724E+05  3.905066E+04 -4.713132E+04  1.158162E-09 -9.351788E-08
       108  13  1.479817E+04  1.573869E+05  5.563717E+04 -5.332589E+04 -2.357386E-08  1.453594E-09
       108  14  6.279195E+03  1.544634E+05  4.203880E+04 -4.923210E+04 -1.598585E-08  7.332267E-11
       108  15  1.061860E+04  1.573881E+05  4.532063E+04 -5.334716E+04 -4.040059E-09  8.577930E-10
       108  16  2.164854E+03  1.039680E+05  4.637011E+04 -4.523627E+04  8.842825E-09 -3.543201E-08
       108  17  4.076332E+03  1.449694E+05  4.057303E+04 -4.829512E+04  4.916246E-09  3.406795E-08
       108  18  1.883000E+04  1.918051E+05  5.159057E+04 -5.956335E+04  2.138118E-09  9.417644E-08
       108  19  2.743173E+04  2.108094E+05  6.490525E+04 -6.141616E+04 -2.969250E+03 -2.376523E+04
       108  20  8.482059E+03  1.639574E+05  4.350459E+04 -5.016910E+04 -6.713811E+02 -2.632178E+03
       108  21  2.407377E+03  1.229728E+05  3.905130E+04 -4.713130E+04  1.673336E+03  1.849963E+04
       108  22  1.479840E+04  1.573878E+05  5.563873E+04 -5.332582E+04 -2.944713E+03 -2.862641E+04
       108  23  6.279211E+03  1.544634E+05  4.203891E+04 -4.923210E+04 -6.460441E+02 -7.588979E+03
       108  24  1.061866E+04  1.573883E+05  4.532097E+04 -5.334714E+04  1.698994E+03  1.344860E+04
       108  25  2.165164E+03  1.039692E+05  4.637223E+04 -4.523619E+04 -2.920302E+03 -3.348719E+04
       108  26  4.076375E+03  1.449696E+05  4.057332E+04 -4.829511E+04 -6.207218E+02 -1.254571E+04
       108  27  1.883002E+04  1.918052E+05  5.159070E+04 -5.956333E+04  1.724752E+03  8.397301E+03
       109   1 -2.230765E+03  9.878701E+04  4.101288E+04 -5.392633E+04 -3.231468E+03 -2.602912E+04
       109   2  1.778530E+04  4.434796E+04  6.133599E+04 -1.094450E+03 -3.826455E+03 -6.105236E+04
       109   3  1.072933E+05  1.175378E+04  1.218163E+05  4.394413E+04 -9.626383E+02 -9.605511E+04
       109   4  1.247029E+04  1.612129E+05  5.214586E+04 -5.330953E+04 -3.257552E+03 -2.092868E+04
       109   5  4.361993E+04  1.496782E+05  8.229628E+04 -4.907695E+04 -3.811673E+03 -6.302507E+04
       109   6  1.454729E+05  1.612025E+05  1.575094E+05 -5.263540E+04 -9.017842E+02 -1.051037E+05
       109   7  2.717114E+04  2.236427E+05  6.327879E+04 -5.269266E+04 -3.283626E+03 -1.582774E+04
       109   8  6.946246E+04  2.550240E+05  1.032572E+05 -9.706776E+04 -3.796587E+03 -6.499812E+04
       109   9  1.836859E+05  3.106918E+05  1.932062E+05 -1.492384E+05 -8.381239E+02 -1.141544E+05
       109  10 -2.230958E+03  9.878628E+04  4.101159E+04 -5.392640E+04  1.147065E-09  6.148343E-10
       109  11  1.778429E+04  4.434396E+04  6.132896E+04 -1.094638E+03  5.391450E-09 -3.318974E-09
       109  12  1.072908E+05  1.174387E+04  1.217990E+05  4.394406E+04  2.587866E-09 -9.655734E-09
       109  13  1.247016E+04  1.612125E+05  5.214502E+04 -5.330958E+04  1.246214E-09  1.097528E-09
       109  14  4.361885E+04  1.496740E+05  8.228879E+04 -4.907714E+04  1.405893E-09  9.019876E-11
       109  15  1.454700E+05  1.611906E+05  1.574886E+05 -5.263548E+04  5.217375E-10  9.664996E-10
       109  16  2.717106E+04  2.236425E+05  6.327830E+04 -5.269270E+04  7.056824E-10 -1.313963E-09
       109  17  6.946131E+04  2.550195E+05  1.032493E+05 -9.706795E+04  3.085395E-09  5.447793E-09
       109  18  1.836824E+05  3.106778E+05  1.931817E+05 -1.492384E+05  2.907502E-09  1.019193E-08
       109  19 -2.230765E+03  9.878701E+04  4.101288E+04 -5.392633E+04  3.231468E+03  2.602912E+04
       109  20  1.778530E+04  4.434796E+04  6.133599E+04 -1.094450E+03  3.826455E+03  6.105236E+04
       109  21  1.072933E+05  1.175378E+04  1.218163E+05  4.394413E+04  9.626383E+02  9.605511E+04
       109  22  1.247029E+04  1.612129E+05  5.214586E+04 -5.330953E+04  3.257552E+03  2.092868E+04
       109  23  4.361993E+04  1.496782E+05  8.229628E+04 -4.907695E+04  3.811673E+03  6.302507E+04
       109  24  1.454729E+05  1.612025E+05  1.575094E+05 -5.263540E+04  9.017842E+02  1.051037E+05
       109  25  2.717114E+04  2.236427E+05  6.327879E+04 -5.269266E+04  3.283626E+03  1.582774E+04
       109  26  6.946246E+04  2.550240E+05  1.032572E+05 -9.706776E+04  3.796587E+03  6.499812E+04
       109  27  1.836859E+05  3.106918E+05  1.932062E+05 -1.492384E+05  8.381239E+02  1.141544E+05
       110   1 -5.876893E+06 -1.836885E+06 -1.224681E+06 -2.007060E+06 -6.299144E+05 -2.308152E+05
       110   2 -5.722606E+06 -9.423612E+05 -6.462790E+05 -2.179834E+06 -4.087254E+05 -1.287181E+05
       110   3 -5.964384E+06 -9.787334E+05 -4.964431E+05 -2.093110E+06 -1.812707E+05 -4.313662E+04
       110   4 -5.109767E+06 -1.387559E+06 -9.817715E+05 -1.638246E+06 -6.224602E+05 -2.281788E+05
       110   5 -4.860890E+06 -5.724002E+05 -4.040862E+05 -1.900793E+06 -4.065654E+05 -1.279354E+05
       110   6 -5.006563E+06 -6.863384E+05 -2.503256E+05 -1.903999E+06 -1.843726E+05 -4.428770E+04
       110   7 -4.342002E+06 -9.379038E+05 -7.389182E+05 -1.268935E+06 -6.149954E+05 -2.255334E+05
       110   8 -3.998446E+06 -2.023345E+05 -1.619644E+05 -1.621378E+06 -4.044018E+05 -1.271509E+05
       110   9 -4.047848E+06 -3.939568E+05 -4.279380E+03 -1.714657E+06 -1.874795E+05 -4.543985E+04
       110  10 -5.877337E+06 -1.837050E+06 -1.225536E+06 -2.007178E+06 -7.627522E-11 -1.510462E-10
       110  11 -5.722791E+06 -9.424247E+05 -6.466277E+05 -2.179876E+06 -6.773138E-10  9.479626E-11
       110  12 -5.964420E+06 -9.787443E+05 -4.965091E+05 -2.093117E+06 -1.201168E-09  4.573036E-10
       110  13 -5.110200E+06 -1.387720E+06 -9.826051E+05 -1.638361E+06  1.594219E-10 -2.352738E-09
       110  14 -4.861073E+06 -5.724628E+05 -4.044307E+05 -1.900835E+06  6.846463E-09 -1.312313E-09
       110  15 -5.006600E+06 -6.863497E+05 -2.503938E+05 -1.904005E+06 -4.723651E-10 -9.300460E-10
       110  16 -4.342424E+06 -9.380613E+05 -7.397307E+05 -1.269047E+06 -3.231857E-10 -3.942933E-10
       110  17 -3.998627E+06 -2.023963E+05 -1.623046E+05 -1.621420E+06  2.489478E-09 -1.098259E-09
       110  18 -4.047887E+06 -3.939686E+05 -4.349840E+03 -1.714664E+06  2.713180E-09  2.364096E-11
       110  19 -5.876893E+06 -1.836885E+06 -1.224681E+06 -2.007060E+06  6.299144E+05  2.308152E+05
       110  20 -5.722606E+06 -9.423612E+05 -6.462790E+05 -2.179834E+06  4.087254E+05  1.287181E+05
       110  21 -5.964384E+06 -9.787334E+05 -4.964431E+05 -2.093110E+06  1.812707E+05  4.313662E+04
       110  22 -5.109767E+06 -1.387559E+06 -9.817715E+05 -1.638246E+06  6.224602E+05  2.281788E+05
       110  23 -4.860890E+06 -5.724002E+05 -4.040862E+05 -1.900793E+06  4.065654E+05  1.279354E+05
       110  24 -5.006563E+06 -6.863384E+05 -2.503256E+05 -1.903999E+06  1.843726E+05  4.428770E+04
       110  25 -4.342002E+06 -9.379038E+05 -7.389182E+05 -1.268935E+06  6.149954E+05  2.255334E+05
       110  26 -3.998446E+06 -2.023345E+05 -1.619644E+05 -1.621378E+06  4.044018E+05  1.271509E+05
       110  27 -4.047848E+06 -3.939568E+05 -4.279380E+03 -1.714657E+06  1.874795E+05  4.543985E+04
       111   1 -5.844786E+06 -1.154860E+06 -4.475121E+05 -2.108576E+06 -1.475476E+05 -3.307073E+04
       111   2 -5.808446E+06 -1.017220E+06 -3.303162E+05 -2.110794E+06 -9.714336E+04 -1.272421E+04
       111   3 -5.802680E+06 -1.022870E+06 -2.844129E+05 -2.104702E+06 -4.573013E+04  4.954846E+03
       111   4 -4.967995E+06 -8.027777E+05 -2.051230E+05 -1.849554E+06 -1.468667E+05 -3.282128E+04
       111   5 -4.946156E+06 -6.856087E+05 -9.523384E+04 -1.870868E+06 -9.728587E+04 -1.278118E+04
       111   6 -4.954657E+06 -7.114568E+05 -5.590142E+04 -1.883887E+06 -4.669819E+04  4.589670E+03
       111   7 -4.090454E+06 -4.506234E+05  3.719494E+04 -1.590189E+06 -1.461845E+05 -3.257131E+04
       111   8 -4.083144E+06 -3.539477E+05  1.397812E+05 -1.630637E+06 -9.742852E+04 -1.283819E+04
       111   9 -4.105939E+06 -4.000119E+05  1.725463E+05 -1.662802E+06 -4.766769E+04  4.223995E+03
       111  10 -5.844810E+06 -1.154867E+06 -4.475555E+05 -2.108580E+06 -2.591182E-09 -8.042301E-11
       111  11 -5.808456E+06 -1.017222E+06 -3.303344E+05 -2.110795E+06  2.501643E-09  1.021022E-09
       111  12 -5.802682E+06 -1.022871E+06 -2.844169E+05 -2.104702E+06  7.462504E-11 -1.699536E-09
       111  13 -4.968018E+06 -8.027847E+05 -2.051660E+05 -1.849558E+06  1.576082E-09  3.907995E-10
       111  14 -4.946166E+06 -6.856115E+05 -9.525209E+04 -1.870870E+06  6.693554E-10  8.996682E-10
       111  15 -4.954660E+06 -7.114574E+05 -5.590559E+04 -1.883887E+06 -1.195177E-09 -9.644446E-10
       111  16 -4.090477E+06 -4.506304E+05  3.715248E+04 -1.590193E+06  2.132211E-09 -5.952269E-10
       111  17 -4.083154E+06 -3.539505E+05  1.397629E+05 -1.630638E+06 -8.045941E-10  8.222996E-10
       111  18 -4.105941E+06 -4.000125E+05  1.725420E+05 -1.662802E+06 -2.935676E-09 -1.166409E-09
       111  19 -5.844786E+06 -1.154860E+06 -4.475121E+05 -2.108576E+06  1.475476E+05  3.307073E+04
       111  20 -5.808446E+06 -1.017220E+06 -3.303162E+05 -2.110794E+06  9.714336E+04  1.272421E+04
       111  21 -5.802680E+06 -1.022870E+06 -2.844129E+05 -2.104702E+06  4.573013E+04 -4.954846E+03
       111  22 -4.967995E+06 -8.027777E+05 -2.051230E+05 -1.849554E+06  1.468667E+05  3.282128E+04
       111  23 -4.946156E+06 -6.856087E+05 -9.523384E+04 -1.870868E+06  9.728587E+04  1.278118E+04
       111  24 -4.954657E+06 -7.114568E+05 -5.590142E+04 -1.883887E+06  4.669819E+04 -4.589670E+03
       111  25 -4.090454E+06 -4.506234E+05  3.719494E+04 -1.590189E+06  1.461845E+05  3.257131E+04
       111  26 -4.083144E+06 -3.539477E+05  1.397812E+05 -1.630637E+06  9.742852E+04  1.283819E+04
       111  27 -4.105939E+06 -4.000119E+05  1.725463E+05 -1.662802E+06  4.766769E+04 -4.223995E+03
       112   1 -5.685170E+06 -1.013960E+06 -2.456625E+05 -2.086158E+06 -3.764043E+04  6.567614E+03
       112   2 -5.647953E+06 -9.527629E+05 -2.079462E+05 -2.045689E+06 -2.528712E+04  9.226884E+03
       112   3 -5.569605E+06 -9.548270E+05 -1.830528E+05 -2.055401E+06 -1.259631E+04  1.097428E+04
       112   4 -4.944146E+06 -7.315982E+05 -4.422116E+04 -1.882613E+06 -3.809442E+04  6.395342E+03
       112   5 -4.963870E+06 -6.940106E+05 -2.229211E+04 -1.859758E+06 -2.603237E+04  8.946310E+03
       112   6 -4.942402E+06 -7.196107E+05 -1.294115E+04 -1.887083E+06 -1.363417E+04  1.058537E+04
       112   7 -4.202590E+06 -4.492024E+05  1.571702E+05 -1.678846E+06 -3.854899E+04  6.222850E+03
       112   8 -4.279334E+06 -4.352309E+05  1.633198E+05 -1.673641E+06 -2.677852E+04  8.665399E+03
       112   9 -4.314817E+06 -4.843728E+05  1.571355E+05 -1.718612E+06 -1.467320E+04  1.019603E+04
       112  10 -5.685172E+06 -1.013961E+06 -2.456653E+05 -2.086158E+06 -3.451502E-09 -1.187239E-09
       112  11 -5.647954E+06 -9.527632E+05 -2.079475E+05 -2.045689E+06  3.232825E-10  7.123294E-10
       112  12 -5.569605E+06 -9.548272E+05 -1.830533E+05 -2.055401E+06 -1.758380E-10  3.215229E-09
       112  13 -4.944147E+06 -7.315986E+05 -4.422398E+04 -1.882613E+06 -1.271535E-09 -1.421450E-09
       112  14 -4.963871E+06 -6.940108E+05 -2.229354E+04 -1.859758E+06  2.510977E-09  1.441476E-09
       112  15 -4.942402E+06 -7.196109E+05 -1.294171E+04 -1.887083E+06  1.281787E-09  1.152620E-09
       112  16 -4.202592E+06 -4.492029E+05  1.571673E+05 -1.678846E+06 -1.043841E-09 -1.163902E-09
       112  17 -4.279335E+06 -4.352311E+05  1.633183E+05 -1.673641E+06  1.408282E-10 -2.705949E-10
       112  18 -4.314817E+06 -4.843730E+05  1.571349E+05 -1.718611E+06  2.477923E-09 -5.348613E-10
       112  19 -5.685170E+06 -1.013960E+06 -2.456625E+05 -2.086158E+06  3.764043E+04 -6.567614E+03
       112  20 -5.647953E+06 -9.527629E+05 -2.079462E+05 -2.045689E+06  2.528712E+04 -9.226884E+03
       112  21 -5.569605E+06 -9.548270E+05 -1.830528E+05 -2.055401E+06  1.259631E+04 -1.097428E+04
       112  22 -4.944146E+06 -7.315982E+05 -4.422116E+04 -1.882613E+06  3.809442E+04 -6.395342E+03
       112  23 -4.963870E+06 -6.940106E+05 -2.229211E+04 -1.859758E+06  2.603237E+04 -8.946310E+03
       112  24 -4.942402E+06 -7.196107E+05 -1.294115E+04 -1.887083E+06  1.363417E+04 -1.058537E+04
       112  25 -4.202590E+06 -4.492024E+05  1.571702E+05 -1.678846E+06  3.854899E+04 -6.222850E+03
       112  26 -4.279334E+06 -4.352309E+05  1.633198E+05 -1.673641E+06  2.677852E+04 -8.665399E+03
       112  27 -4.314817E+06 -4.843728E+05  1.571355E+05 -1.718612E+06  1.467320E+04 -1.019603E+04
       113   1 -5.399093E+06 -8.995823E+05 -1.351571E+05 -2.015759E+06 -1.017670E+04  9.923677E+03
       113   2 -5.350293E+06 -8.340166E+05 -1.092569E+05 -1.956209E+06 -5.807162E+03  8.196306E+03
       113   3 -5.236770E+06 -8.364582E+05 -8.635910E+04 -1.971787E+06 -1.285592E+03  6.050845E+03
       113   4 -4.937803E+06 -7.255622E+05 -1.031164E+04 -1.890775E+06 -1.109644E+04  9.579623E+03
       113   5 -4.970065E+06 -6.908258E+05 -6.205536E+03 -1.853488E+06 -6.864349E+03  7.801639E+03
       113   6 -4.937584E+06 -7.240647E+05 -4.989898E+03 -1.891329E+06 -2.480774E+03  5.605540E+03
       113   7 -4.476305E+06 -5.515296E+05  1.145149E+05 -1.765706E+06 -1.201693E+04  9.235286E+03
       113   8 -4.589697E+06 -5.476274E+05  9.683252E+04 -1.750711E+06 -7.922250E+03  7.406707E+03
       113   9 -4.638314E+06 -6.116671E+05  7.637059E+04 -1.810837E+06 -3.676585E+03  5.160002E+03
       113  10 -5.399093E+06 -8.995824E+05 -1.351575E+05 -2.015759E+06  8.016959E-10  1.991217E-09
       113  11 -5.350294E+06 -8.340167E+05 -1.092571E+05 -1.956209E+06  2.896046E-09  3.645236E-09
       113  12 -5.236770E+06 -8.364582E+05 -8.635917E+04 -1.971787E+06  1.242537E-10 -9.391078E-10
       113  13 -4.937803E+06 -7.255623E+05 -1.031204E+04 -1.890774E+06 -3.049879E-10  7.339547E-10
       113  14 -4.970065E+06 -6.908259E+05 -6.205739E+03 -1.853488E+06  2.631495E-09  2.434753E-09
       113  15 -4.937584E+06 -7.240647E+05 -4.989969E+03 -1.891329E+06  2.788121E-09  8.880602E-10
       113  16 -4.476306E+06 -5.515297E+05  1.145145E+05 -1.765705E+06  1.333898E-09 -1.552386E-09
       113  17 -4.589698E+06 -5.476274E+05  9.683230E+04 -1.750711E+06 -1.026747E-09 -1.624701E-10
       113  18 -4.638314E+06 -6.116672E+05  7.637052E+04 -1.810837E+06  1.827949E-09  2.053356E-09
       113  19 -5.399093E+06 -8.995823E+05 -1.351571E+05 -2.015759E+06  1.017670E+04 -9.923677E+03
       113  20 -5.350293E+06 -8.340166E+05 -1.092569E+05 -1.956209E+06  5.807162E+03 -8.196306E+03
       113  21 -5.236770E+06 -8.364582E+05 -8.635910E+04 -1.971787E+06  1.285592E+03 -6.050845E+03
       113  22 -4.937803E+06 -7.255622E+05 -1.031164E+04 -1.890775E+06  1.109644E+04 -9.579623E+03
       113  23 -4.970065E+06 -6.908258E+05 -6.205536E+03 -1.853488E+06  6.864349E+03 -7.801639E+03
       113  24 -4.937584E+06 -7.240647E+05 -4.989898E+03 -1.891329E+06  2.480774E+03 -5.605540E+03
       113  25 -4.476305E+06 -5.515296E+05  1.145149E+05 -1.765706E+06  1.201693E+04 -9.235286E+03
       113  26 -4.589697E+06 -5.476274E+05  9.683252E+04 -1.750711E+06  7.922250E+03 -7.406707E+03
       113  27 -4.638314E+06 -6.116671E+05  7.637059E+04 -1.810837E+06  3.676585E+03 -5.160002E+03
       114   1 -5.033054E+06 -7.621776E+05 -3.099071E+04 -1.919432E+06  2.843193E+02  4.273094E+03
       114   2 -4.979119E+06 -6.916364E+05 -8.288681E+03 -1.853251E+06  4.763046E+03  1.970674E+03
       114   3 -4.854266E+06 -6.958688E+05  1.135777E+04 -1.870130E+06  9.236373E+03 -3.157054E+02
       114   4 -4.936193E+06 -7.256006E+05 -5.045081E+03 -1.893073E+06 -8.854716E+02  3.837584E+03
       114   5 -4.971745E+06 -6.888905E+05 -6.296131E+03 -1.851290E+06  3.598575E+03  1.537129E+03
       114   6 -4.936389E+06 -7.269562E+05 -1.060673E+04 -1.892572E+06  8.076704E+03 -7.474439E+02
       114   7 -4.839323E+06 -6.890228E+05  2.089990E+04 -1.866710E+06 -2.055472E+03  3.401994E+03
       114   8 -4.964372E+06 -6.861445E+05 -4.303570E+03 -1.849330E+06  2.434083E+03  1.103577E+03
       114   9 -5.018506E+06 -7.580433E+05 -3.257193E+04 -1.915011E+06  6.917199E+03 -1.179120E+03
       114  10 -5.033054E+06 -7.621776E+05 -3.099075E+04 -1.919432E+06  2.280058E-09  1.123504E-09
       114  11 -4.979119E+06 -6.916365E+05 -8.288731E+03 -1.853251E+06  2.345124E-09  1.787705E-09
       114  12 -4.854267E+06 -6.958688E+05  1.135761E+04 -1.870130E+06  2.524785E-09  2.749708E-09
       114  13 -4.936193E+06 -7.256006E+05 -5.045110E+03 -1.893073E+06  2.181286E-09 -4.467697E-10
       114  14 -4.971745E+06 -6.888905E+05 -6.296160E+03 -1.851290E+06  1.589439E-09  1.968376E-09
       114  15 -4.936389E+06 -7.269562E+05 -1.060686E+04 -1.892572E+06  2.428415E-09  1.201004E-09
       114  16 -4.839323E+06 -6.890228E+05  2.089987E+04 -1.866710E+06  2.481607E-09  1.994085E-09
       114  17 -4.964372E+06 -6.861445E+05 -4.303584E+03 -1.849330E+06  2.934393E-09 -3.873778E-10
       114  18 -5.018506E+06 -7.580433E+05 -3.257202E+04 -1.915011E+06  1.689700E-09 -8.745186E-10
       114  19 -5.033054E+06 -7.621776E+05 -3.099071E+04 -1.919432E+06 -2.843193E+02 -4.273094E+03
       114  20 -4.979119E+06 -6.916364E+05 -8.288681E+03 -1.853251E+06 -4.763046E+03 -1.970674E+03
       114  21 -4.854266E+06 -6.958688E+05  1.135777E+04 -1.870130E+06 -9.236373E+03  3.157054E+02
       114  22 -4.936193E+06 -7.256006E+05 -5.045081E+03 -1.893073E+06  8.854716E+02 -3.837584E+03
       114  23 -4.971745E+06 -6.888905E+05 -6.296131E+03 -1.851290E+06 -3.598575E+03 -1.537129E+03
       114  24 -4.936389E+06 -7.269562E+05 -1.060673E+04 -1.892572E+06 -8.076704E+03  7.474439E+02
       114  25 -4.839323E+06 -6.890228E+05  2.089990E+04 -1.866710E+06  2.055472E+03 -3.401994E+03
       114  26 -4.964372E+06 -6.861445E+05 -4.303570E+03 -1.849330E+06 -2.434083E+03 -1.103577E+03
       114  27 -5.018506E+06 -7.580433E+05 -3.257193E+04 -1.915011E+06 -6.917199E+03  1.179120E+03
       115   1 -4.652797E+06 -6.175978E+05  6.406311E+04 -1.816419E+06  1.205739E+04 -1.656336E+03
       115   2 -4.602454E+06 -5.502198E+05  7.637276E+04 -1.754201E+06  2.488723E+04 -7.266350E+02
       115   3 -4.493320E+06 -5.655462E+05  7.560792E+04 -1.764333E+06  3.750487E+04  7.878185E+02
       115   4 -4.938416E+06 -7.237353E+05 -1.337747E+04 -1.892062E+06  1.082420E+04 -2.115731E+03
       115   5 -4.968675E+06 -6.885198E+05 -2.291417E+04 -1.853598E+06  2.384254E+04 -1.116583E+03
       115   6 -4.940192E+06 -7.360559E+05 -4.568188E+04 -1.887490E+06  3.664704E+04  4.668194E+02
       115   7 -5.223955E+06 -8.298680E+05 -9.082476E+04 -1.967672E+06  9.591641E+03 -2.574896E+03
       115   8 -5.334766E+06 -8.268119E+05 -1.222129E+05 -1.952942E+06  2.279854E+04 -1.506275E+03
       115   9 -5.386871E+06 -9.065534E+05 -1.669901E+05 -2.010567E+06  3.578988E+04  1.460788E+02
       115  10 -4.652797E+06 -6.175978E+05  6.406283E+04 -1.816419E+06  3.097825E-09  2.337479E-09
       115  11 -4.602455E+06 -5.502199E+05  7.637159E+04 -1.754201E+06  2.172978E-09  2.294207E-09
       115  12 -4.493322E+06 -5.655466E+05  7.560526E+04 -1.764333E+06  2.133361E-09  5.713853E-10
       115  13 -4.938417E+06 -7.237353E+05 -1.337770E+04 -1.892062E+06  2.815332E-09  1.687606E-09
       115  14 -4.968676E+06 -6.885200E+05 -2.291524E+04 -1.853598E+06  4.970992E-10  2.629369E-10
       115  15 -4.940193E+06 -7.360562E+05 -4.568442E+04 -1.887490E+06 -1.963717E-10  5.416693E-10
       115  16 -5.223955E+06 -8.298680E+05 -9.082495E+04 -1.967672E+06  1.393197E-09 -3.756977E-10
       115  17 -5.334767E+06 -8.268120E+05 -1.222139E+05 -1.952942E+06  1.156729E-09  4.532503E-09
       115  18 -5.386872E+06 -9.065537E+05 -1.669925E+05 -2.010567E+06  1.946877E-09  1.253895E-09
       115  19 -4.652797E+06 -6.175978E+05  6.406311E+04 -1.816419E+06 -1.205739E+04  1.656336E+03
       115  20 -4.602454E+06 -5.502198E+05  7.637276E+04 -1.754201E+06 -2.488723E+04  7.266350E+02
       115  21 -4.493320E+06 -5.655462E+05  7.560792E+04 -1.764333E+06 -3.750487E+04 -7.878185E+02
       115  22 -4.938416E+06 -7.237353E+05 -1.337747E+04 -1.892062E+06 -1.082420E+04  2.115731E+03
       115  23 -4.968675E+06 -6.885198E+05 -2.291417E+04 -1.853598E+06 -2.384254E+04  1.116583E+03
       115  24 -4.940192E+06 -7.360559E+05 -4.568188E+04 -1.887490E+06 -3.664704E+04 -4.668194E+02
       115  25 -5.223955E+06 -8.298680E+05 -9.082476E+04 -1.967672E+06 -9.591641E+03  2.574896E+03
       115  26 -5.334766E+06 -8.268119E+05 -1.222129E+05 -1.952942E+06 -2.279854E+04  1.506275E+03
       115  27 -5.386871E+06 -9.065534E+05 -1.669901E+05 -2.010567E+06 -3.578988E+04 -1.460788E+02
       116   1 -4.326191E+06 -4.925354E+05  1.093210E+05 -1.732888E+06  4.716482E+04  2.151078E+03
       116   2 -4.281853E+06 -4.189768E+05  8.460820E+04 -1.674954E+06  9.905222E+04  1.846837E+04
       116   3 -4.242348E+06 -5.202986E+05 -1.247735E+04 -1.640232E+06  1.499894E+05  3.734550E+04
       116   4 -4.948874E+06 -7.174078E+05 -5.773741E+04 -1.891235E+06  4.580126E+04  1.641420E+03
       116   5 -4.953161E+06 -6.771135E+05 -9.823829E+04 -1.861979E+06  9.849045E+04  1.825567E+04
       116   6 -4.962501E+06 -8.119540E+05 -2.118146E+05 -1.855929E+06  1.502245E+05  3.742632E+04
       116   7 -5.571182E+06 -9.422662E+05 -2.248299E+05 -2.049442E+06  4.443920E+04  1.132265E+03
       116   8 -5.624032E+06 -9.352193E+05 -2.811255E+05 -2.048818E+06  9.792930E+04  1.804321E+04
       116   9 -5.682148E+06 -1.103557E+06 -4.111999E+05 -2.071391E+06  1.504592E+05  3.750696E+04
       116  10 -4.326193E+06 -4.925360E+05  1.093168E+05 -1.732888E+06  1.755770E-09 -3.936736E-10
       116  11 -4.281864E+06 -4.189799E+05  8.458897E+04 -1.674955E+06  1.303798E-09 -9.213035E-10
       116  12 -4.242373E+06 -5.203062E+05 -1.252260E+04 -1.640237E+06  2.153780E-09 -7.975913E-13
       116  13 -4.948876E+06 -7.174084E+05 -5.774139E+04 -1.891235E+06  1.816793E-09  2.530111E-09
       116  14 -4.953172E+06 -6.771165E+05 -9.825731E+04 -1.861980E+06 -4.702765E-09 -2.457602E-09
       116  15 -4.962525E+06 -8.119617E+05 -2.118601E+05 -1.855934E+06 -8.786326E-10 -2.885061E-10
       116  16 -5.571184E+06 -9.422667E+05 -2.248336E+05 -2.049442E+06  1.619215E-09  7.959500E-10
       116  17 -5.624042E+06 -9.352223E+05 -2.811443E+05 -2.048819E+06  3.743846E-09 -7.939087E-10
       116  18 -5.682173E+06 -1.103565E+06 -4.112455E+05 -2.071395E+06  4.891682E-10  6.017897E-10
       116  19 -4.326191E+06 -4.925354E+05  1.093210E+05 -1.732888E+06 -4.716482E+04 -2.151078E+03
       116  20 -4.281853E+06 -4.189768E+05  8.460820E+04 -1.674954E+06 -9.905222E+04 -1.846837E+04
       116  21 -4.242348E+06 -5.202986E+05 -1.247735E+04 -1.640232E+06 -1.499894E+05 -3.734550E+04
       116  22 -4.948874E+06 -7.174078E+05 -5.773741E+04 -1.891235E+06 -4.580126E+04 -1.641420E+03
       116  23 -4.953161E+06 -6.771135E+05 -9.823829E+04 -1.861979E+06 -9.849045E+04 -1.825567E+04
       116  24 -4.962501E+06 -8.119540E+05 -2.118146E+05 -1.855929E+06 -1.502245E+05 -3.742632E+04
       116  25 -5.571182E+06 -9.422662E+05 -2.248299E+05 -2.049442E+06 -4.443920E+04 -1.132265E+03
       116  26 -5.624032E+06 -9.352193E+05 -2.811255E+05 -2.048818E+06 -9.792930E+04 -1.804321E+04
       116  27 -5.682148E+06 -1.103557E+06 -4.111999E+05 -2.071391E+06 -1.504592E+05 -3.750696E+04
       117   1 -4.111373E+06 -4.295936E+05 -3.157936E+04 -1.746536E+06  1.931194E+05  4.960926E+04
       117   2 -4.036236E+06 -2.012683E+05 -1.837520E+05 -1.620707E+06  4.177134E+05  1.318535E+05
       117   3 -4.333555E+06 -9.637241E+05 -7.687405E+05 -1.265419E+06  6.357053E+05  2.316835E+05
       117   4 -5.001344E+06 -6.924868E+05 -2.584294E+05 -1.912987E+06  1.893437E+05  4.821651E+04
       117   5 -4.866913E+06 -5.588358E+05 -4.171453E+05 -1.891318E+06  4.195116E+05  1.324924E+05
       117   6 -5.106603E+06 -1.417949E+06 -1.013583E+06 -1.640032E+06  6.430939E+05  2.342666E+05
       117   7 -5.890545E+06 -9.553964E+05 -4.853395E+05 -2.079256E+06  1.855737E+05  4.682485E+04
       117   8 -5.696913E+06 -9.163029E+05 -6.506040E+05 -2.161580E+06  4.213068E+05  1.331298E+05
       117   9 -5.878998E+06 -1.871831E+06 -1.258480E+06 -2.014135E+06  6.504719E+05  2.368407E+05
       117  10 -4.111414E+06 -4.296063E+05 -3.165464E+04 -1.746543E+06  2.164829E-09  4.763831E-11
       117  11 -4.036429E+06 -2.013343E+05 -1.841153E+05 -1.620751E+06 -1.320654E-09 -1.662908E-09
       117  12 -4.334007E+06 -9.638916E+05 -7.696074E+05 -1.265538E+06 -1.054723E-09 -5.008133E-10
       117  13 -5.001383E+06 -6.924990E+05 -2.585018E+05 -1.912995E+06 -1.112268E-10 -6.438964E-10
       117  14 -4.867108E+06 -5.589026E+05 -4.175124E+05 -1.891363E+06 -4.319356E-09  2.278114E-10
       117  15 -5.107065E+06 -1.418121E+06 -1.014471E+06 -1.640154E+06 -1.480097E-10  4.299438E-10
       117  16 -5.890582E+06 -9.554081E+05 -4.854091E+05 -2.079263E+06 -3.590638E-10 -4.044918E-10
       117  17 -5.697110E+06 -9.163704E+05 -6.509748E+05 -2.161625E+06 -1.315069E-09  1.157534E-10
       117  18 -5.879471E+06 -1.872007E+06 -1.259390E+06 -2.014260E+06  1.684873E-09 -7.369719E-10
       117  19 -4.111373E+06 -4.295936E+05 -3.157936E+04 -1.746536E+06 -1.931194E+05 -4.960926E+04
       117  20 -4.036236E+06 -2.012683E+05 -1.837520E+05 -1.620707E+06 -4.177134E+05 -1.318535E+05
       117  21 -4.333555E+06 -9.637241E+05 -7.687405E+05 -1.265419E+06 -6.357053E+05 -2.316835E+05
       117  22 -5.001344E+06 -6.924868E+05 -2.584294E+05 -1.912987E+06 -1.893437E+05 -4.821651E+04
       117  23 -4.866913E+06 -5.588358E+05 -4.171453E+05 -1.891318E+06 -4.195116E+05 -1.324924E+05
       117  24 -5.106603E+06 -1.417949E+06 -1.013583E+06 -1.640032E+06 -6.430939E+05 -2.342666E+05
       117  25 -5.890545E+06 -9.553964E+05 -4.853395E+05 -2.079256E+06 -1.855737E+05 -4.682485E+04
       117  26 -5.696913E+06 -9.163029E+05 -6.506040E+05 -2.161580E+06 -4.213068E+05 -1.331298E+05
       117  27 -5.878998E+06 -1.871831E+06 -1.258480E+06 -2.014135E+06 -6.504719E+05 -2.368407E+05
       118   1 -8.905436E+05  1.492239E+05  2.184189E+05  4.406580E+04  2.087801E+05  3.256186E+03
       118   2 -9.136522E+05 -1.323782E+05  4.886026E+04  1.410555E+04  1.383159E+05  8.835779E+03
       118   3 -8.468423E+05 -9.258350E+04  5.668893E+03 -3.876325E+04  6.785593E+04  7.677629E+03
       118   4 -5.186989E+05  2.419068E+05  3.107145E+05 -1.279195E+04  2.121264E+05  3.241484E+03
       118   5 -5.638864E+05 -4.531207E+04  1.343278E+05 -1.168641E+03  1.391969E+05  8.832972E+03
       118   6 -5.187829E+05 -1.080979E+04  8.596766E+04 -1.245443E+04  6.627452E+04  7.678942E+03
       118   7 -1.467213E+05  3.345915E+05  4.030015E+05 -6.968386E+04  2.154746E+05  3.226177E+03
       118   8 -2.140085E+05  4.174588E+04  2.197865E+05 -1.645150E+04  1.400783E+05  8.830124E+03
       118   9 -1.906238E+05  7.095853E+04  1.662589E+05  1.386833E+04  6.469226E+04  7.680119E+03
       118  10 -8.905905E+05  1.492122E+05  2.183368E+05  4.406525E+04 -1.454477E-09  4.669166E-10
       118  11 -9.136728E+05 -1.323834E+05  4.882411E+04  1.410457E+04 -2.257768E-09 -5.404745E-10
       118  12 -8.468473E+05 -9.258480E+04  5.660118E+03 -3.876367E+04  8.140313E-10 -8.241381E-12
       118  13 -5.187472E+05  2.418947E+05  3.106298E+05 -1.279250E+04 -1.110651E-09  6.622766E-11
       118  14 -5.639073E+05 -4.531736E+04  1.342912E+05 -1.169631E+03  2.317585E-09 -1.362512E-09
       118  15 -5.187877E+05 -1.081103E+04  8.595928E+04 -1.245484E+04 -1.680566E-09  4.435313E-11
       118  16 -1.467711E+05  3.345790E+05  4.029142E+05 -6.968442E+04  1.010914E-10 -3.808611E-11
       118  17 -2.140296E+05  4.174052E+04  2.197494E+05 -1.645250E+04  2.221862E-09 -4.408575E-12
       118  18 -1.906284E+05  7.095735E+04  1.662509E+05  1.386793E+04 -2.097321E-09 -5.120554E-10
       118  19 -8.905436E+05  1.492239E+05  2.184189E+05  4.406580E+04 -2.087801E+05 -3.256186E+03
       118  20 -9.136522E+05 -1.323782E+05  4.886026E+04  1.410555E+04 -1.383159E+05 -8.835779E+03
       118  21 -8.468423E+05 -9.258350E+04  5.668893E+03 -3.876325E+04 -6.785593E+04 -7.677629E+03
       118  22 -5.186989E+05  2.419068E+05  3.107145E+05 -1.279195E+04 -2.121264E+05 -3.241484E+03
       118  23 -5.638864E+05 -4.531207E+04  1.343278E+05 -1.168641E+03 -1.391969E+05 -8.832972E+03
       118  24 -5.187829E+05 -1.080979E+04  8.596766E+04 -1.245443E+04 -6.627452E+04 -7.678942E+03
       118  25 -1.467213E+05  3.345915E+05  4.030015E+05 -6.968386E+04 -2.154746E+05 -3.226177E+03
       118  26 -2.140085E+05  4.174588E+04  2.197865E+05 -1.645150E+04 -1.400783E+05 -8.830124E+03
       118  27 -1.906238E+05  7.095853E+04  1.662589E+05  1.386833E+04 -6.469226E+04 -7.680119E+03
       119   1 -8.177260E+05 -3.957576E+04  1.592449E+03 -6.177358E+03  5.241585E+04  6.178716E+03
       119   2 -8.012371E+05 -7.029560E+04 -2.847690E+04  7.237699E+02  3.461971E+04  6.026800E+03
       119   3 -7.720342E+05 -6.016028E+04 -3.669699E+04 -1.623758E+04  1.682330E+04  5.150894E+03
       119   4 -5.359887E+05  3.061245E+04  7.063652E+04 -1.278194E+04  5.251175E+04  6.178030E+03
       119   5 -5.423722E+05 -5.813693E+03  3.487828E+04 -8.412405E+02  3.444776E+04  6.026467E+03
       119   6 -5.360011E+05 -1.347708E+03  2.114835E+04 -1.276228E+04  1.638416E+04  5.150762E+03
       119   7 -2.541790E+05  1.007949E+05  1.396748E+05 -1.938955E+04  5.260769E+04  6.177342E+03
       119   8 -2.834461E+05  5.866326E+04  9.822857E+04 -2.406913E+03  3.427574E+04  6.026136E+03
       119   9 -2.999171E+05  5.746077E+04  7.898961E+04 -9.285650E+03  1.594486E+04  5.150624E+03
       119  10 -8.177289E+05 -3.957654E+04  1.587208E+03 -6.177619E+03  2.510442E-09 -3.571098E-10
       119  11 -8.012384E+05 -7.029596E+04 -2.847922E+04  7.236018E+02  3.689208E-11  5.467211E-10
       119  12 -7.720345E+05 -6.016038E+04 -3.669758E+04 -1.623765E+04 -1.709450E-09 -1.689819E-10
       119  13 -5.359917E+05  3.061167E+04  7.063126E+04 -1.278220E+04  1.051621E-09 -2.445071E-11
       119  14 -5.423735E+05 -5.814050E+03  3.487598E+04 -8.414077E+02 -3.293851E-09  2.676357E-10
       119  15 -5.360014E+05 -1.347809E+03  2.114779E+04 -1.276235E+04  1.432833E-09 -1.192023E-10
       119  16 -2.541820E+05  1.007942E+05  1.396695E+05 -1.938981E+04 -3.057151E-09  5.368499E-10
       119  17 -2.834474E+05  5.866290E+04  9.822629E+04 -2.407079E+03 -4.232815E-09 -1.702519E-10
       119  18 -2.999174E+05  5.746068E+04  7.898909E+04 -9.285717E+03 -8.910759E-11  1.035972E-10
       119  19 -8.177260E+05 -3.957576E+04  1.592449E+03 -6.177358E+03 -5.241585E+04 -6.178716E+03
       119  20 -8.012371E+05 -7.029560E+04 -2.847690E+04  7.237699E+02 -3.461971E+04 -6.026800E+03
       119  21 -7.720342E+05 -6.016028E+04 -3.669699E+04 -1.623758E+04 -1.682330E+04 -5.150894E+03
       119  22 -5.359887E+05  3.061245E+04  7.063652E+04 -1.278194E+04 -5.251175E+04 -6.178030E+03
       119  23 -5.423722E+05 -5.813693E+03  3.487828E+04 -8.412405E+02 -3.444776E+04 -6.026467E+03
       119  24 -5.360011E+05 -1.347708E+03  2.114835E+04 -1.276228E+04 -1.638416E+04 -5.150762E+03
       119  25 -2.541790E+05  1.007949E+05  1.396748E+05 -1.938955E+04 -5.260769E+04 -6.177342E+03
       119  26 -2.834461E+05  5.866326E+04  9.822857E+04 -2.406913E+03 -3.427574E+04 -6.026136E+03
       119  27 -2.999171E+05  5.746077E+04  7.898961E+04 -9.285650E+03 -1.594486E+04 -5.150624E+03
       120   1 -7.260053E+05 -4.289314E+04 -2.915491E+04 -1.224872E+04  1.326878E+04  4.550399E+03
       120   2 -7.033515E+05 -4.159678E+04 -3.126737E+04 -4.832488E+02  8.812914E+03  3.771670E+03
       120   3 -6.787647E+05 -3.513507E+04 -2.917245E+04 -1.339486E+04  4.356463E+03  2.906368E+03
       120   4 -5.383968E+05  3.828824E+03  1.671408E+04 -1.294936E+04  1.300702E+04  4.550263E+03
       120   5 -5.393664E+05 -7.486583E+02  8.873382E+03 -6.108530E+02  8.518774E+03  3.771605E+03
       120   6 -5.383988E+05 -1.560744E+02  5.261525E+03 -1.294899E+04  4.030113E+03  2.906379E+03
       120   7 -3.507562E+05  5.054819E+04  6.258049E+04 -1.365022E+04  1.274517E+04  4.550127E+03
       120   8 -3.753567E+05  4.009747E+04  4.901216E+04 -7.384910E+02  8.224556E+03  3.771541E+03
       120   9 -3.980149E+05  3.482146E+04  3.969406E+04 -1.250302E+04  3.703689E+03  2.906389E+03
       120  10 -7.260055E+05 -4.289321E+04 -2.915528E+04 -1.224877E+04 -1.914377E-09 -5.481326E-11
       120  11 -7.033516E+05 -4.159681E+04 -3.126754E+04 -4.832756E+02 -2.373631E-09 -2.103990E-12
       120  12 -6.787647E+05 -3.513508E+04 -2.917250E+04 -1.339487E+04 -1.889850E-09 -2.000138E-10
       120  13 -5.383970E+05  3.828757E+03  1.671372E+04 -1.294941E+04  1.093569E-09  6.636980E-11
       120  14 -5.393664E+05 -7.486931E+02  8.873218E+03 -6.108789E+02 -2.252955E-09  2.634551E-10
       120  15 -5.383988E+05 -1.560878E+02  5.261479E+03 -1.294900E+04  2.068761E-09 -2.632365E-10
       120  16 -3.507564E+05  5.054812E+04  6.258014E+04 -1.365026E+04  1.248396E-09  1.901473E-10
       120  17 -3.753568E+05  4.009743E+04  4.901201E+04 -7.385160E+02  1.794175E-09  2.792758E-10
       120  18 -3.980150E+05  3.482144E+04  3.969401E+04 -1.250303E+04  1.743795E-09 -4.645500E-12
       120  19 -7.260053E+05 -4.289314E+04 -2.915491E+04 -1.224872E+04 -1.326878E+04 -4.550399E+03
       120  20 -7.033515E+05 -4.159678E+04 -3.126737E+04 -4.832488E+02 -8.812914E+03 -3.771670E+03
       120  21 -6.787647E+05 -3.513507E+04 -2.917245E+04 -1.339486E+04 -4.356463E+03 -2.906368E+03
       120  22 -5.383968E+05  3.828824E+03  1.671408E+04 -1.294936E+04 -1.300702E+04 -4.550263E+03
       120  23 -5.393664E+05 -7.486583E+02  8.873382E+03 -6.108530E+02 -8.518774E+03 -3.771605E+03
       120  24 -5.383988E+05 -1.560744E+02  5.261525E+03 -1.294899E+04 -4.030113E+03 -2.906379E+03
       120  25 -3.507562E+05  5.054819E+04  6.258049E+04 -1.365022E+04 -1.274517E+04 -4.550127E+03
       120  26 -3.753567E+05  4.009747E+04  4.901216E+04 -7.384910E+02 -8.224556E+03 -3.771541E+03
       120  27 -3.980149E+05  3.482146E+04  3.969406E+04 -1.250302E+04 -3.703689E+03 -2.906389E+03
       121   1 -6.294231E+05 -2.209739E+04 -1.803096E+04 -1.297660E+04  3.496445E+03  2.390023E+03
       121   2 -6.055275E+05 -1.668995E+04 -1.399365E+04 -4.785936E+02  2.345602E+03  1.529281E+03
       121   3 -5.813210E+05 -1.061798E+04 -9.041665E+03 -1.310173E+04  1.194556E+03  6.562914E+02
       121   4 -5.387564E+05  4.720542E+02  4.090155E+03 -1.304773E+04  3.189211E+03  2.390064E+03
       121   5 -5.389121E+05 -9.717460E+01  2.312251E+03 -4.872981E+02  2.033802E+03  1.529350E+03
       121   6 -5.387567E+05 -1.104812E+00  1.452112E+03 -1.304784E+04  8.782326E+02  6.563904E+02
       121   7 -4.480822E+05  2.304090E+04  2.621067E+04 -1.311887E+04  2.881933E+03  2.390106E+03
       121   8 -4.722927E+05  1.649527E+04  1.861783E+04 -4.960032E+02  1.721968E+03  1.529419E+03
       121   9 -4.961908E+05  1.061563E+04  1.194576E+04 -1.299394E+04  5.618877E+02  6.564894E+02
       121  10 -6.294231E+05 -2.209740E+04 -1.803100E+04 -1.297661E+04 -2.324646E-09  5.759661E-11
       121  11 -6.055275E+05 -1.668995E+04 -1.399367E+04 -4.785965E+02 -2.271470E-09  5.807603E-10
       121  12 -5.813210E+05 -1.061798E+04 -9.041669E+03 -1.310173E+04  1.075349E-09 -4.164889E-11
       121  13 -5.387564E+05  4.720454E+02  4.090125E+03 -1.304774E+04  1.254873E-09  2.904723E-11
       121  14 -5.389121E+05 -9.717822E+01  2.312238E+03 -4.873006E+02  1.011285E-09  1.173327E-10
       121  15 -5.387567E+05 -1.105482E+00  1.452110E+03 -1.304784E+04 -9.441829E-10 -4.717012E-10
       121  16 -4.480822E+05  2.304089E+04  2.621065E+04 -1.311888E+04  3.857982E-09 -5.986660E-10
       121  17 -4.722927E+05  1.649527E+04  1.861782E+04 -4.960053E+02  1.152692E-09 -9.603547E-11
       121  18 -4.961908E+05  1.061563E+04  1.194575E+04 -1.299394E+04 -2.152272E-09 -7.535363E-10
       121  19 -6.294231E+05 -2.209739E+04 -1.803096E+04 -1.297660E+04 -3.496445E+03 -2.390023E+03
       121  20 -6.055275E+05 -1.668995E+04 -1.399365E+04 -4.785936E+02 -2.345602E+03 -1.529281E+03
       121  21 -5.813210E+05 -1.061798E+04 -9.041665E+03 -1.310173E+04 -1.194556E+03 -6.562914E+02
       121  22 -5.387564E+05  4.720542E+02  4.090155E+03 -1.304773E+04 -3.189211E+03 -2.390064E+03
       121  23 -5.389121E+05 -9.717460E+01  2.312251E+03 -4.872981E+02 -2.033802E+03 -1.529350E+03
       121  24 -5.387567E+05 -1.104812E+00  1.452112E+03 -1.304784E+04 -8.782326E+02 -6.563904E+02
       121  25 -4.480822E+05  2.304090E+04  2.621067E+04 -1.311887E+04 -2.881933E+03 -2.390106E+03
       121  26 -4.722927E+05  1.649527E+04  1.861783E+04 -4.960032E+02 -1.721968E+03 -1.529419E+03
       121  27 -4.961908E+05  1.061563E+04  1.194576E+04 -1.299394E+04 -5.618877E+02 -6.564894E+02
       122   1 -5.311539E+05  1.980989E+03  3.144955E+03 -1.305669E+04  9.549455E+02  1.439203E+02
       122   2 -5.070822E+05  7.885915E+03  8.689097E+03 -4.801582E+02  4.967764E+02 -7.299886E+02
       122   3 -4.829186E+05  1.398206E+04  1.457602E+04 -1.309229E+04  3.867498E+01 -1.595027E+03
       122   4 -5.388050E+05  6.030966E+01  1.197228E+03 -1.306286E+04  6.388713E+02  1.440248E+02
       122   5 -5.388507E+05 -2.660228E+01  9.134330E+02 -4.684846E+02  1.839001E+02 -7.298992E+02
       122   6 -5.388051E+05  7.728795E+01  9.703235E+02 -1.306285E+04 -2.709859E+02 -1.594950E+03
       122   7 -5.464561E+05 -1.860374E+03 -7.505044E+02 -1.306902E+04  3.228010E+02  1.441293E+02
       122   8 -5.706183E+05 -7.939194E+03 -6.862305E+03 -4.568115E+02 -1.289603E+02 -7.298098E+02
       122   9 -5.946888E+05 -1.382772E+04 -1.263560E+04 -1.303343E+04 -5.806189E+02 -1.594874E+03
       122  10 -5.311539E+05  1.980988E+03  3.144954E+03 -1.305669E+04  1.528174E-09 -4.315132E-10
       122  11 -5.070822E+05  7.885914E+03  8.689096E+03 -4.801580E+02 -9.364650E-10 -1.316359E-10
       122  12 -4.829186E+05  1.398206E+04  1.457601E+04 -1.309229E+04  1.282982E-09  3.410628E-10
       122  13 -5.388050E+05  6.030952E+01  1.197227E+03 -1.306286E+04  1.778728E-10 -1.517133E-10
       122  14 -5.388507E+05 -2.660286E+01  9.134320E+02 -4.684845E+02 -1.921552E-09  2.107924E-10
       122  15 -5.388051E+05  7.728520E+01  9.703185E+02 -1.306286E+04 -7.420065E-10 -4.794139E-11
       122  16 -5.464561E+05 -1.860374E+03 -7.505046E+02 -1.306902E+04 -2.571818E-09 -5.317393E-10
       122  17 -5.706183E+05 -7.939195E+03 -6.862306E+03 -4.568116E+02 -5.420736E-10  2.265761E-10
       122  18 -5.946888E+05 -1.382772E+04 -1.263560E+04 -1.303343E+04 -1.414706E-09  2.236514E-10
       122  19 -5.311539E+05  1.980989E+03  3.144955E+03 -1.305669E+04 -9.549455E+02 -1.439203E+02
       122  20 -5.070822E+05  7.885915E+03  8.689097E+03 -4.801582E+02 -4.967764E+02  7.299886E+02
       122  21 -4.829186E+05  1.398206E+04  1.457602E+04 -1.309229E+04 -3.867498E+01  1.595027E+03
       122  22 -5.388050E+05  6.030966E+01  1.197228E+03 -1.306286E+04 -6.388713E+02 -1.440248E+02
       122  23 -5.388507E+05 -2.660228E+01  9.134330E+02 -4.684846E+02 -1.839001E+02  7.298992E+02
       122  24 -5.388051E+05  7.728795E+01  9.703235E+02 -1.306285E+04  2.709859E+02  1.594950E+03
       122  25 -5.464561E+05 -1.860374E+03 -7.505044E+02 -1.306902E+04 -3.228010E+02 -1.441293E+02
       122  26 -5.706183E+05 -7.939194E+03 -6.862305E+03 -4.568115E+02  1.289603E+02  7.298098E+02
       122  27 -5.946888E+05 -1.382772E+04 -1.263560E+04 -1.303343E+04  5.806189E+02  1.594874E+03
       123   1 -4.328897E+05  2.636748E+04  2.707070E+04 -1.294062E+04 -1.293167E+02 -2.113090E+03
       123   2 -4.092417E+05  3.217344E+04  3.329995E+04 -5.890792E+02 -9.469391E+02 -2.983121E+03
       123   3 -3.852441E+05  3.882783E+04  4.027989E+04 -1.311018E+04 -1.764297E+03 -3.774387E+03
       123   4 -5.387515E+05 -1.302375E+01  1.086390E+03 -1.299270E+04 -4.565434E+02 -2.113035E+03
       123   5 -5.389234E+05 -1.240075E+02  1.561887E+03 -5.562104E+02 -1.245686E+03 -2.983126E+03
       123   6 -5.387514E+05  6.085419E+02  2.768342E+03 -1.299268E+04 -2.034534E+03 -3.774443E+03
       123   7 -6.446031E+05 -2.639436E+04 -2.489874E+04 -1.304477E+04 -7.837142E+02 -2.112981E+03
       123   8 -6.685898E+05 -3.242270E+04 -3.017741E+04 -5.233480E+02 -1.544371E+03 -2.983131E+03
       123   9 -6.922372E+05 -3.761249E+04 -3.474492E+04 -1.287521E+04 -2.304703E+03 -3.774498E+03
       123  10 -4.328897E+05  2.636747E+04  2.707069E+04 -1.294062E+04  1.446002E-09  6.590781E-10
       123  11 -4.092417E+05  3.217343E+04  3.329993E+04 -5.890815E+02  5.903328E-10 -2.837030E-10
       123  12 -3.852442E+05  3.882782E+04  4.027986E+04 -1.311018E+04 -3.080232E-10 -5.070244E-10
       123  13 -5.387515E+05 -1.302860E+01  1.086381E+03 -1.299270E+04  8.819132E-10  8.525455E-11
       123  14 -5.389234E+05 -1.240174E+02  1.561867E+03 -5.562134E+02  4.036519E-09 -4.216207E-10
       123  15 -5.387515E+05  6.085255E+02  2.768307E+03 -1.299269E+04  1.429328E-09 -3.691955E-10
       123  16 -6.446031E+05 -2.639436E+04 -2.489875E+04 -1.304477E+04 -6.398159E-10  3.484978E-10
       123  17 -6.685898E+05 -3.242271E+04 -3.017743E+04 -5.233517E+02 -2.564514E-09 -2.053906E-10
       123  18 -6.922373E+05 -3.761251E+04 -3.474496E+04 -1.287522E+04 -1.740982E-09 -3.895133E-12
       123  19 -4.328897E+05  2.636748E+04  2.707070E+04 -1.294062E+04  1.293167E+02  2.113090E+03
       123  20 -4.092417E+05  3.217344E+04  3.329995E+04 -5.890792E+02  9.469391E+02  2.983121E+03
       123  21 -3.852441E+05  3.882783E+04  4.027989E+04 -1.311018E+04  1.764297E+03  3.774387E+03
       123  22 -5.387515E+05 -1.302375E+01  1.086390E+03 -1.299270E+04  4.565434E+02  2.113035E+03
       123  23 -5.389234E+05 -1.240075E+02  1.561887E+03 -5.562104E+02  1.245686E+03  2.983126E+03
       123  24 -5.387514E+05  6.085419E+02  2.768342E+03 -1.299268E+04  2.034534E+03  3.774443E+03
       123  25 -6.446031E+05 -2.639436E+04 -2.489874E+04 -1.304477E+04  7.837142E+02  2.112981E+03
       123  26 -6.685898E+05 -3.242270E+04 -3.017741E+04 -5.233480E+02  1.544371E+03  2.983131E+03
       123  27 -6.922372E+05 -3.761249E+04 -3.474492E+04 -1.287521E+04  2.304703E+03  3.774498E+03
       124   1 -3.358672E+05  5.022376E+04  5.308970E+04 -1.227720E+04 -2.157171E+03 -4.370077E+03
       124   2 -3.137924E+05  5.524458E+04  6.084951E+04 -9.693339E+02 -5.322862E+03 -5.243382E+03
       124   3 -2.895210E+05  6.688611E+04  7.235241E+04 -1.383996E+04 -8.488464E+03 -5.445087E+03
       124   4 -5.383547E+05 -2.174208E+02  3.468037E+03 -1.283790E+04 -2.591567E+03 -4.370196E+03
       124   5 -5.394314E+05 -9.453851E+02  5.642445E+03 -7.494379E+02 -5.514620E+03 -5.243559E+03
       124   6 -5.383532E+05  4.906596E+03  1.139237E+04 -1.283999E+04 -8.437465E+03 -5.445219E+03
       124   7 -7.408048E+05 -5.066164E+04 -4.615663E+04 -1.339841E+04 -3.025821E+03 -4.370315E+03
       124   8 -7.650238E+05 -5.713912E+04 -4.956834E+04 -5.296251E+02 -5.706307E+03 -5.243735E+03
       124   9 -7.871290E+05 -5.707751E+04 -4.957220E+04 -1.184043E+04 -8.386486E+03 -5.445351E+03
       124  10 -3.358673E+05  5.022374E+04  5.308966E+04 -1.227721E+04  2.934019E-10 -2.259948E-10
       124  11 -3.137925E+05  5.524454E+04  6.084940E+04 -9.693564E+02 -1.927448E-09  2.375143E-10
       124  12 -2.895211E+05  6.688606E+04  7.235222E+04 -1.384000E+04 -1.906575E-10 -1.813619E-10
       124  13 -5.383547E+05 -2.174431E+02  3.467988E+03 -1.283790E+04 -2.145051E-09 -2.684059E-10
       124  14 -5.394314E+05 -9.454228E+02  5.642336E+03 -7.494612E+02 -1.360907E-10  2.959740E-10
       124  15 -5.383533E+05  4.906545E+03  1.139218E+04 -1.284003E+04  9.761310E-10  1.607565E-10
       124  16 -7.408048E+05 -5.066167E+04 -4.615669E+04 -1.339842E+04 -4.931053E-10 -1.009147E-10
       124  17 -7.650239E+05 -5.713915E+04 -4.956845E+04 -5.296492E+02 -2.222272E-09 -1.246812E-10
       124  18 -7.871291E+05 -5.707756E+04 -4.957239E+04 -1.184047E+04 -1.588794E-09  8.686122E-10
       124  19 -3.358672E+05  5.022376E+04  5.308970E+04 -1.227720E+04  2.157171E+03  4.370077E+03
       124  20 -3.137924E+05  5.524458E+04  6.084951E+04 -9.693339E+02  5.322862E+03  5.243382E+03
       124  21 -2.895210E+05  6.688611E+04  7.235241E+04 -1.383996E+04  8.488464E+03  5.445087E+03
       124  22 -5.383547E+05 -2.174208E+02  3.468037E+03 -1.283790E+04  2.591567E+03  4.370196E+03
       124  23 -5.394314E+05 -9.453851E+02  5.642445E+03 -7.494379E+02  5.514620E+03  5.243559E+03
       124  24 -5.383532E+05  4.906596E+03  1.139237E+04 -1.283999E+04  8.437465E+03  5.445219E+03
       124  25 -7.408048E+05 -5.066164E+04 -4.615663E+04 -1.339841E+04  3.025821E+03  4.370315E+03
       124  26 -7.650238E+05 -5.713912E+04 -4.956834E+04 -5.296251E+02  5.706307E+03  5.243735E+03
       124  27 -7.871290E+05 -5.707751E+04 -4.957220E+04 -1.184043E+04  8.386486E+03  5.445351E+03
       125   1 -2.394896E+05  7.197772E+04  8.630489E+04 -8.245670E+03 -9.156651E+03 -6.858908E+03
       125   2 -2.248182E+05  7.186710E+04  9.932201E+04 -3.368731E+03 -2.315206E+04 -7.921649E+03
       125   3 -1.950039E+05  1.239465E+05  1.345561E+05 -2.156058E+04 -3.715410E+04 -2.732776E+03
       125   4 -5.355630E+05 -1.756451E+03  1.386129E+04 -1.257902E+04 -1.065747E+04 -6.859930E+03
       125   5 -5.429367E+05 -7.319864E+03  2.161344E+04 -1.065916E+03 -2.239749E+04 -7.921356E+03
       125   6 -5.355520E+05  3.892927E+04  5.002347E+04 -1.262212E+04 -3.414361E+04 -2.730059E+03
       125   7 -8.315563E+05 -7.549704E+04 -5.858871E+04 -1.691032E+04 -1.215758E+04 -6.860931E+03
       125   8 -8.609629E+05 -8.651429E+04 -5.610250E+04  1.235697E+03 -2.164330E+04 -7.921057E+03
       125   9 -8.759946E+05 -4.609637E+04 -3.451776E+04 -3.688593E+03 -3.113477E+04 -2.727253E+03
       125  10 -2.394897E+05  7.197765E+04  8.630465E+04 -8.245721E+03  4.440699E-10 -2.773245E-10
       125  11 -2.248188E+05  7.186689E+04  9.932089E+04 -3.368878E+03 -1.970618E-10  2.474673E-10
       125  12 -1.950054E+05  1.239461E+05  1.345535E+05 -2.156067E+04 -8.645457E-10  7.166872E-10
       125  13 -5.355631E+05 -1.756532E+03  1.386099E+04 -1.257908E+04 -6.900054E-10 -8.330207E-10
       125  14 -5.429373E+05 -7.320067E+03  2.161238E+04 -1.066059E+03  2.027099E-09  2.345847E-10
       125  15 -5.355533E+05  3.892894E+04  5.002126E+04 -1.262220E+04  2.082147E-09 -3.584647E-10
       125  16 -8.315565E+05 -7.549713E+04 -5.858907E+04 -1.691038E+04 -1.038531E-09  7.461486E-10
       125  17 -8.609634E+05 -8.651448E+04 -5.610350E+04  1.235558E+03  7.911774E-10 -3.666920E-10
       125  18 -8.759956E+05 -4.609664E+04 -3.451960E+04 -3.688661E+03 -1.809213E-09  7.941257E-10
       125  19 -2.394896E+05  7.197772E+04  8.630489E+04 -8.245670E+03  9.156651E+03  6.858908E+03
       125  20 -2.248182E+05  7.186710E+04  9.932201E+04 -3.368731E+03  2.315206E+04  7.921649E+03
       125  21 -1.950039E+05  1.239465E+05  1.345561E+05 -2.156058E+04  3.715410E+04  2.732776E+03
       125  22 -5.355630E+05 -1.756451E+03  1.386129E+04 -1.257902E+04  1.065747E+04  6.859930E+03
       125  23 -5.429367E+05 -7.319864E+03  2.161344E+04 -1.065916E+03  2.239749E+04  7.921356E+03
       125  24 -5.355520E+05  3.892927E+04  5.002347E+04 -1.262212E+04  3.414361E+04  2.730059E+03
       125  25 -8.315563E+05 -7.549704E+04 -5.858871E+04 -1.691032E+04  1.215758E+04  6.860931E+03
       125  26 -8.609629E+05 -8.651429E+04 -5.610250E+04  1.235697E+03  2.164330E+04  7.921057E+03
       125  27 -8.759946E+05 -4.609637E+04 -3.451776E+04 -3.688593E+03  3.113477E+04  2.727253E+03
       126   1  3.773569E+05 -7.184487E+05  3.479730E+05 -1.504371E+05  1.425998E+04 -5.083537E+04
       126   2  3.956674E+05 -1.027280E+06  3.164863E+05  1.727369E+03  3.872226E+04 -3.427444E+04
       126   3  3.006826E+05 -1.364132E+06  2.464150E+05 -1.822829E+05  2.571266E+04 -1.784552E+04
       126   4 -8.432499E+04 -2.564988E+06 -1.111440E+05 -1.680404E+05  1.429913E+04 -6.625727E+04
       126   5  1.618942E+04 -2.549643E+06 -5.578830E+04  1.759653E+02  3.873558E+04 -3.629207E+04
       126   6  9.212524E+02 -2.564844E+06 -4.842932E+04 -1.678418E+05  2.566055E+04 -6.449882E+03
       126   7 -5.462623E+05 -4.408422E+06 -5.705159E+05 -1.855892E+05  1.433923E+04 -8.163303E+04
       126   8 -3.634605E+05 -4.069888E+06 -4.282326E+05 -1.369826E+03  3.874894E+04 -3.830467E+04
       126   9 -2.989468E+05 -3.764238E+06 -3.433794E+05 -1.534270E+05  2.560892E+04  4.923726E+03
       126  10  3.773559E+05 -7.184515E+05  3.479678E+05 -1.504365E+05  6.497287E-10  1.505186E-09
       126  11  3.956655E+05 -1.027281E+06  3.164813E+05  1.728438E+03 -1.777520E-09 -3.829962E-09
       126  12  3.006818E+05 -1.364133E+06  2.464132E+05 -1.822825E+05 -2.037115E-09 -4.048600E-09
       126  13 -8.432639E+04 -2.564993E+06 -1.111527E+05 -1.680396E+05  1.721964E-09  1.981132E-09
       126  14  1.618746E+04 -2.549645E+06 -5.579360E+04  1.770986E+02  2.527202E-11 -8.022052E-11
       126  15  9.205349E+02 -2.564844E+06 -4.843064E+04 -1.678416E+05 -1.271950E-09  3.401462E-09
       126  16 -5.462643E+05 -4.408430E+06 -5.705289E+05 -1.855882E+05  6.164010E-10 -2.103361E-09
       126  17 -3.634625E+05 -4.069890E+06 -4.282382E+05 -1.368628E+03  2.996115E-09 -1.082108E-09
       126  18 -2.989475E+05 -3.764238E+06 -3.433807E+05 -1.534271E+05 -4.361569E-10  2.550554E-10
       126  19  3.773569E+05 -7.184487E+05  3.479730E+05 -1.504371E+05 -1.425998E+04  5.083537E+04
       126  20  3.956674E+05 -1.027280E+06  3.164863E+05  1.727369E+03 -3.872226E+04  3.427444E+04
       126  21  3.006826E+05 -1.364132E+06  2.464150E+05 -1.822829E+05 -2.571266E+04  1.784552E+04
       126  22 -8.432499E+04 -2.564988E+06 -1.111440E+05 -1.680404E+05 -1.429913E+04  6.625727E+04
       126  23  1.618942E+04 -2.549643E+06 -5.578830E+04  1.759653E+02 -3.873558E+04  3.629207E+04
       126  24  9.212524E+02 -2.564844E+06 -4.842932E+04 -1.678418E+05 -2.566055E+04  6.449882E+03
       126  25 -5.462623E+05 -4.408422E+06 -5.705159E+05 -1.855892E+05 -1.433923E+04  8.163303E+04
       126  26 -3.634605E+05 -4.069888E+06 -4.282326E+05 -1.369826E+03 -3.874894E+04  3.830467E+04
       126  27 -2.989468E+05 -3.764238E+06 -3.433794E+05 -1.534270E+05 -2.560892E+04 -4.923726E+03
       127   1  1.185534E+05 -2.056304E+06  7.503957E+04 -1.668547E+05  1.246542E+04 -9.039424E+02
       127   2  5.141783E+04 -2.381943E+06 -1.162724E+04  2.636465E+03  3.817361E+03  2.638294E+04
       127   3 -7.628288E+04 -2.730662E+06 -1.321950E+05 -1.803595E+05 -5.475814E+03  5.364687E+04
       127   4 -7.753796E+03 -2.562870E+06 -4.899268E+04 -1.714982E+05  1.245065E+04  2.035919E+03
       127   5  9.130319E+03 -2.551282E+06 -5.315589E+04  4.677300E+03  3.800872E+03  2.954450E+04
       127   6 -3.458807E+04 -2.562912E+06 -9.136879E+04 -1.716442E+05 -5.493734E+03  5.704486E+04
       127   7 -1.340800E+05 -3.069202E+06 -1.730437E+05 -1.761376E+05  1.243582E+04  4.973378E+03
       127   8 -3.315931E+04 -2.720595E+06 -9.468661E+04  6.717609E+03  3.784402E+03  3.270520E+04
       127   9  7.104975E+03 -2.395137E+06 -5.054453E+04 -1.629265E+05 -5.511556E+03  6.044376E+04
       127  10  1.185533E+05 -2.056304E+06  7.503928E+04 -1.668547E+05 -2.632097E-09  1.598816E-09
       127  11  5.141763E+04 -2.381944E+06 -1.162858E+04  2.636384E+03  2.071572E-09 -5.617634E-09
       127  12 -7.628369E+04 -2.730665E+06 -1.322005E+05 -1.803592E+05  1.223214E-09 -4.540130E-09
       127  13 -7.753964E+03 -2.562871E+06 -4.899298E+04 -1.714983E+05 -7.072623E-10  5.733861E-09
       127  14  9.130068E+03 -2.551283E+06 -5.315756E+04  4.677209E+03  2.461879E-09  2.788802E-11
       127  15 -3.458898E+04 -2.562916E+06 -9.137498E+04 -1.716439E+05  2.129489E-09  4.057630E-09
       127  16 -1.340802E+05 -3.069202E+06 -1.730440E+05 -1.761376E+05 -5.819864E-10 -2.866315E-09
       127  17 -3.315962E+04 -2.720596E+06 -9.468865E+04  6.717509E+03  2.221427E-09 -1.428058E-09
       127  18  7.103957E+03 -2.395141E+06 -5.055148E+04 -1.629262E+05 -1.477772E-09  3.782007E-10
       127  19  1.185534E+05 -2.056304E+06  7.503957E+04 -1.668547E+05 -1.246542E+04  9.039424E+02
       127  20  5.141783E+04 -2.381943E+06 -1.162724E+04  2.636465E+03 -3.817361E+03 -2.638294E+04
       127  21 -7.628288E+04 -2.730662E+06 -1.321950E+05 -1.803595E+05  5.475814E+03 -5.364687E+04
       127  22 -7.753796E+03 -2.562870E+06 -4.899268E+04 -1.714982E+05 -1.245065E+04 -2.035919E+03
       127  23  9.130319E+03 -2.551282E+06 -5.315589E+04  4.677300E+03 -3.800872E+03 -2.954450E+04
       127  24 -3.458807E+04 -2.562912E+06 -9.136879E+04 -1.716442E+05  5.493734E+03 -5.704486E+04
       127  25 -1.340800E+05 -3.069202E+06 -1.730437E+05 -1.761376E+05 -1.243582E+04 -4.973378E+03
       127  26 -3.315931E+04 -2.720595E+06 -9.468661E+04  6.717609E+03 -3.784402E+03 -3.270520E+04
       127  27  7.104975E+03 -2.395137E+06 -5.054453E+04 -1.629265E+05  5.511556E+03 -6.044376E+04
       128   1 -2.036796E+05 -3.448996E+06 -3.214197E+05 -1.340788E+05 -1.803474E+04  6.404082E+04
       128   2 -2.437746E+05 -3.722322E+06 -4.558700E+05 -1.299115E+04 -3.126455E+04  1.639211E+05
       128   3 -6.704640E+05 -4.105797E+06 -7.524230E+05 -2.349755E+05 -1.242474E+04  2.638819E+05
       128   4  1.343825E+04 -2.581885E+06 -1.079572E+05 -1.690703E+05 -1.809133E+04  7.443642E+04
       128   5  5.422887E+04 -2.528082E+06 -1.634340E+05  1.955139E+03 -3.125185E+04  1.629734E+05
       128   6 -2.891794E+05 -2.582291E+06 -3.728556E+05 -1.700812E+05 -1.235364E+04  2.516453E+05
       128   7  2.305042E+05 -1.714083E+06  1.054507E+05 -2.041101E+05 -1.814905E+04  8.484652E+04
       128   8  3.521273E+05 -1.332535E+06  1.288976E+05  1.693174E+04 -3.123920E+04  1.620236E+05
       128   9  9.194652E+04 -1.056655E+06  6.540106E+03 -1.050246E+05 -1.228524E+04  2.393779E+05
       128  10 -2.036810E+05 -3.449001E+06 -3.214281E+05 -1.340779E+05 -2.310647E-09  7.501425E-10
       128  11 -2.437829E+05 -3.722351E+06 -4.559227E+05 -1.298702E+04  3.225294E-10 -3.727405E-09
       128  12 -6.704830E+05 -4.105873E+06 -7.525550E+05 -2.349729E+05  1.554939E-09 -9.719450E-10
       128  13  1.343640E+04 -2.581891E+06 -1.079682E+05 -1.690693E+05 -1.794628E-09  5.270764E-09
       128  14  5.422065E+04 -2.528111E+06 -1.634860E+05  1.959245E+03 -8.366049E-10 -8.933648E-10
       128  15 -2.891967E+05 -2.582359E+06 -3.729754E+05 -1.700787E+05 -3.898387E-10  1.795468E-09
       128  16  2.305019E+05 -1.714091E+06  1.054365E+05 -2.041088E+05 -9.810803E-10 -1.712031E-09
       128  17  3.521192E+05 -1.332563E+06  1.288463E+05  1.693582E+04  1.816082E-09 -2.103844E-09
       128  18  9.193094E+04 -1.056716E+06  6.431956E+03 -1.050223E+05  1.715843E-09 -1.093482E-09
       128  19 -2.036796E+05 -3.448996E+06 -3.214197E+05 -1.340788E+05  1.803474E+04 -6.404082E+04
       128  20 -2.437746E+05 -3.722322E+06 -4.558700E+05 -1.299115E+04  3.126455E+04 -1.639211E+05
       128  21 -6.704640E+05 -4.105797E+06 -7.524230E+05 -2.349755E+05  1.242474E+04 -2.638819E+05
       128  22  1.343825E+04 -2.581885E+06 -1.079572E+05 -1.690703E+05  1.809133E+04 -7.443642E+04
       128  23  5.422887E+04 -2.528082E+06 -1.634340E+05  1.955139E+03  3.125185E+04 -1.629734E+05
       128  24 -2.891794E+05 -2.582291E+06 -3.728556E+05 -1.700812E+05  1.235364E+04 -2.516453E+05
       128  25  2.305042E+05 -1.714083E+06  1.054507E+05 -2.041101E+05  1.814905E+04 -8.484652E+04
       128  26  3.521273E+05 -1.332535E+06  1.288976E+05  1.693174E+04  3.123920E+04 -1.620236E+05
       128  27  9.194652E+04 -1.056655E+06  6.540106E+03 -1.050246E+05  1.228524E+04 -2.393779E+05
       129   1 -2.794066E+06 -6.002058E+05 -2.466854E+05 -1.010947E+06 -1.225082E+05 -4.414764E+04
       129   2 -2.759377E+06 -4.205319E+05 -1.324700E+05 -1.037579E+06 -7.953689E+04 -2.401218E+04
       129   3 -2.794166E+06 -4.278876E+05 -1.012362E+05 -1.022461E+06 -3.508112E+04 -7.817313E+03
       129   4 -2.608436E+06 -4.999100E+05 -1.897585E+05 -9.296626E+05 -1.207104E+05 -4.347793E+04
       129   5 -2.564114E+06 -3.386668E+05 -7.813944E+04 -9.760527E+05 -7.905116E+04 -2.383074E+04
       129   6 -2.588987E+06 -3.641595E+05 -4.843913E+04 -9.807004E+05 -3.590702E+04 -8.127195E+03
       129   7 -2.422771E+06 -3.996000E+05 -1.328352E+05 -8.483531E+05 -1.189119E+05 -4.280777E+04
       129   8 -2.368814E+06 -2.567969E+05 -2.381249E+04 -9.145084E+05 -7.856526E+04 -2.364923E+04
       129   9 -2.383767E+06 -3.004317E+05  4.354771E+03 -9.389284E+05 -3.673322E+04 -8.437145E+03
       129  10 -2.794082E+06 -6.002119E+05 -2.467174E+05 -1.010951E+06  2.833719E-10 -1.052134E-10
       129  11 -2.759384E+06 -4.205342E+05 -1.324830E+05 -1.037580E+06 -1.286438E-09 -1.123274E-09
       129  12 -2.794167E+06 -4.278880E+05 -1.012387E+05 -1.022462E+06 -2.060774E-09 -1.705306E-09
       129  13 -2.608452E+06 -4.999160E+05 -1.897896E+05 -9.296669E+05  2.831283E-10  7.641335E-10
       129  14 -2.564121E+06 -3.386691E+05 -7.815231E+04 -9.760542E+05 -3.522626E-09  3.222862E-10
       129  15 -2.588988E+06 -3.641599E+05 -4.844169E+04 -9.807006E+05 -5.119498E-10 -1.471042E-09
       129  16 -2.422787E+06 -3.996058E+05 -1.328653E+05 -8.483573E+05  1.611871E-09  2.878373E-10
       129  17 -2.368821E+06 -2.567992E+05 -2.382519E+04 -9.145099E+05 -6.141226E-11  1.008617E-09
       129  18 -2.383768E+06 -3.004321E+05  4.352090E+03 -9.389286E+05  6.636698E-10 -1.963241E-09
       129  19 -2.794066E+06 -6.002058E+05 -2.466854E+05 -1.010947E+06  1.225082E+05  4.414764E+04
       129  20 -2.759377E+06 -4.205319E+05 -1.324700E+05 -1.037579E+06  7.953689E+04  2.401218E+04
       129  21 -2.794166E+06 -4.278876E+05 -1.012362E+05 -1.022461E+06  3.508112E+04  7.817313E+03
       129  22 -2.608436E+06 -4.999100E+05 -1.897585E+05 -9.296626E+05  1.207104E+05  4.347793E+04
       129  23 -2.564114E+06 -3.386668E+05 -7.813944E+04 -9.760527E+05  7.905116E+04  2.383074E+04
       129  24 -2.588987E+06 -3.641595E+05 -4.843913E+04 -9.807004E+05  3.590702E+04  8.127195E+03
       129  25 -2.422771E+06 -3.996000E+05 -1.328352E+05 -8.483531E+05  1.189119E+05  4.280777E+04
       129  26 -2.368814E+06 -2.567969E+05 -2.381249E+04 -9.145084E+05  7.856526E+04  2.364923E+04
       129  27 -2.383767E+06 -3.004317E+05  4.354771E+03 -9.389284E+05  3.673322E+04  8.437145E+03
       130   1 -2.755705E+06 -4.553803E+05 -8.747234E+04 -1.020632E+06 -2.860467E+04 -6.250047E+03
       130   2 -2.745353E+06 -4.247165E+05 -6.338824E+04 -1.017174E+06 -1.875376E+04 -2.484110E+03
       130   3 -2.736931E+06 -4.260595E+05 -5.315486E+04 -1.017124E+06 -8.708668E+03  7.652973E+02
       130   4 -2.582057E+06 -3.860903E+05 -3.970103E+04 -9.695524E+05 -2.850547E+04 -6.213036E+03
       130   5 -2.579848E+06 -3.612912E+05 -1.843895E+04 -9.711555E+05 -1.882536E+04 -2.511143E+03
       130   6 -2.579532E+06 -3.684608E+05 -1.088871E+04 -9.761672E+05 -8.951240E+03  6.741210E+02
       130   7 -2.408381E+06 -3.167975E+05  8.067501E+03 -9.184598E+05 -2.840624E+04 -6.176010E+03
       130   8 -2.414317E+06 -2.978643E+05  2.650781E+04 -9.251259E+05 -1.889698E+04 -2.538183E+03
       130   9 -2.422109E+06 -3.108611E+05  3.137518E+04 -9.352008E+05 -9.193880E+03  5.829213E+02
       130  10 -2.755706E+06 -4.553805E+05 -8.747396E+04 -1.020632E+06 -5.353833E-09 -1.302063E-09
       130  11 -2.745353E+06 -4.247166E+05 -6.338891E+04 -1.017174E+06 -4.790558E-09 -3.760876E-10
       130  12 -2.736931E+06 -4.260595E+05 -5.315500E+04 -1.017124E+06  2.792051E-10  2.472286E-10
       130  13 -2.582058E+06 -3.860905E+05 -3.970264E+04 -9.695525E+05  3.987954E-10 -1.984173E-09
       130  14 -2.579848E+06 -3.612913E+05 -1.843963E+04 -9.711555E+05 -1.028768E-09 -7.079961E-10
       130  15 -2.579532E+06 -3.684608E+05 -1.088886E+04 -9.761672E+05 -1.823539E-09  1.047483E-10
       130  16 -2.408382E+06 -3.167978E+05  8.065906E+03 -9.184599E+05  3.350268E-10 -1.667865E-09
       130  17 -2.414317E+06 -2.978644E+05  2.650713E+04 -9.251260E+05  1.366054E-09 -8.798936E-10
       130  18 -2.422109E+06 -3.108611E+05  3.137502E+04 -9.352008E+05  4.416444E-10  6.246581E-10
       130  19 -2.755705E+06 -4.553803E+05 -8.747234E+04 -1.020632E+06  2.860467E+04  6.250047E+03
       130  20 -2.745353E+06 -4.247165E+05 -6.338824E+04 -1.017174E+06  1.875376E+04  2.484110E+03
       130  21 -2.736931E+06 -4.260595E+05 -5.315486E+04 -1.017124E+06  8.708668E+03 -7.652973E+02
       130  22 -2.582057E+06 -3.860903E+05 -3.970103E+04 -9.695524E+05  2.850547E+04  6.213036E+03
       130  23 -2.579848E+06 -3.612912E+05 -1.843895E+04 -9.711555E+05  1.882536E+04  2.511143E+03
       130  24 -2.579532E+06 -3.684608E+05 -1.088871E+04 -9.761672E+05  8.951240E+03 -6.741210E+02
       130  25 -2.408381E+06 -3.167975E+05  8.067501E+03 -9.184598E+05  2.840624E+04  6.176010E+03
       130  26 -2.414317E+06 -2.978643E+05  2.650781E+04 -9.251259E+05  1.889698E+04  2.538183E+03
       130  27 -2.422109E+06 -3.108611E+05  3.137518E+04 -9.352008E+05  9.193880E+03 -5.829213E+02
       131   1 -2.706590E+06 -4.206756E+05 -4.345189E+04 -1.010655E+06 -7.099159E+03  9.832644E+02
       131   2 -2.698087E+06 -4.073649E+05 -3.568284E+04 -1.001406E+06 -4.630646E+03  1.405524E+03
       131   3 -2.680265E+06 -4.079187E+05 -3.047033E+04 -1.003709E+06 -2.121038E+03  1.718072E+03
       131   4 -2.578074E+06 -3.717368E+05 -8.633715E+03 -9.752342E+05 -7.230225E+03  9.339777E+02
       131   5 -2.582574E+06 -3.636762E+05 -4.419095E+03 -9.698818E+05 -4.798093E+03  1.342610E+03
       131   6 -2.577748E+06 -3.694723E+05 -2.731725E+03 -9.760821E+05 -2.324926E+03  1.641517E+03
       131   7 -2.449541E+06 -3.227969E+05  2.618305E+04 -9.398064E+05 -7.361322E+03  8.846795E+02
       131   8 -2.467048E+06 -3.199866E+05  2.684349E+04 -9.383525E+05 -4.965575E+03  1.279683E+03
       131   9 -2.475222E+06 -3.310253E+05  2.500595E+04 -9.484510E+05 -2.528851E+03  1.564949E+03
       131  10 -2.706590E+06 -4.206756E+05 -4.345199E+04 -1.010655E+06  1.379891E-09  1.784264E-11
       131  11 -2.698087E+06 -4.073650E+05 -3.568288E+04 -1.001406E+06 -3.545129E-09  4.247555E-10
       131  12 -2.680265E+06 -4.079187E+05 -3.047035E+04 -1.003709E+06  6.909011E-10 -4.465178E-10
       131  13 -2.578074E+06 -3.717368E+05 -8.633815E+03 -9.752342E+05  1.883189E-09  2.098141E-10
       131  14 -2.582574E+06 -3.636762E+05 -4.419141E+03 -9.698818E+05  2.759281E-10  8.117484E-10
       131  15 -2.577748E+06 -3.694723E+05 -2.731740E+03 -9.760821E+05 -1.042422E-09  2.454438E-12
       131  16 -2.449541E+06 -3.227969E+05  2.618295E+04 -9.398064E+05  1.577515E-09  8.436685E-10
       131  17 -2.467048E+06 -3.199866E+05  2.684344E+04 -9.383525E+05 -1.218933E-09  6.865420E-10
       131  18 -2.475222E+06 -3.310253E+05  2.500593E+04 -9.484510E+05 -3.897975E-10 -6.848839E-11
       131  19 -2.706590E+06 -4.206756E+05 -4.345189E+04 -1.010655E+06  7.099159E+03 -9.832644E+02
       131  20 -2.698087E+06 -4.073649E+05 -3.568284E+04 -1.001406E+06  4.630646E+03 -1.405524E+03
       131  21 -2.680265E+06 -4.079187E+05 -3.047033E+04 -1.003709E+06  2.121038E+03 -1.718072E+03
       131  22 -2.578074E+06 -3.717368E+05 -8.633715E+03 -9.752342E+05  7.230225E+03 -9.339777E+02
       131  23 -2.582574E+06 -3.636762E+05 -4.419095E+03 -9.698818E+05  4.798093E+03 -1.342610E+03
       131  24 -2.577748E+06 -3.694723E+05 -2.731725E+03 -9.760821E+05  2.324926E+03 -1.641517E+03
       131  25 -2.449541E+06 -3.227969E+05  2.618305E+04 -9.398064E+05  7.361322E+03 -8.846795E+02
       131  26 -2.467048E+06 -3.199866E+05  2.684349E+04 -9.383525E+05  4.965575E+03 -1.279683E+03
       131  27 -2.475222E+06 -3.310253E+05  2.500595E+04 -9.484510E+05  2.528851E+03 -1.564949E+03
       132   1 -2.646567E+06 -3.963309E+05 -2.097511E+04 -9.951832E+05 -1.598441E+03  1.524939E+03
       132   2 -2.637425E+06 -3.840761E+05 -1.635180E+04 -9.840797E+05 -5.147878E+02  1.278334E+03
       132   3 -2.616326E+06 -3.846669E+05 -1.252758E+04 -9.869146E+05  5.819063E+02  9.967312E+02
       132   4 -2.577288E+06 -3.701411E+05 -2.277917E+03 -9.762761E+05 -1.784965E+03  1.454924E+03
       132   5 -2.583255E+06 -3.636311E+05 -1.699053E+03 -9.693399E+05 -7.129768E+02  1.203961E+03
       132   6 -2.577262E+06 -3.699643E+05 -1.909952E+03 -9.763422E+05  3.720267E+02  9.179927E+02
       132   7 -2.508004E+06 -3.439509E+05  1.641883E+04 -9.573670E+05 -1.971512E+03  1.384901E+03
       132   8 -2.529082E+06 -3.431859E+05  1.295340E+04 -9.545990E+05 -9.111845E+02  1.129580E+03
       132   9 -2.538198E+06 -3.552616E+05  8.707501E+03 -9.657693E+05  1.621332E+02  8.392490E+02
       132  10 -2.646567E+06 -3.963309E+05 -2.097511E+04 -9.951832E+05 -1.954151E-09 -5.019003E-10
       132  11 -2.637425E+06 -3.840761E+05 -1.635180E+04 -9.840797E+05 -2.389799E-09 -1.498243E-10
       132  12 -2.616326E+06 -3.846669E+05 -1.252758E+04 -9.869146E+05 -1.693065E-09 -2.245968E-09
       132  13 -2.577288E+06 -3.701411E+05 -2.277927E+03 -9.762761E+05 -3.102291E-09 -1.484064E-10
       132  14 -2.583255E+06 -3.636311E+05 -1.699056E+03 -9.693399E+05 -2.839141E-09  1.549338E-10
       132  15 -2.577262E+06 -3.699643E+05 -1.909953E+03 -9.763422E+05 -5.386678E-09 -9.976025E-10
       132  16 -2.508004E+06 -3.439509E+05  1.641882E+04 -9.573670E+05 -1.552508E-09  1.676884E-10
       132  17 -2.529082E+06 -3.431859E+05  1.295340E+04 -9.545990E+05  1.179314E-09 -2.582186E-10
       132  18 -2.538198E+06 -3.552616E+05  8.707500E+03 -9.657693E+05 -6.261759E-10 -6.347134E-10
       132  19 -2.646567E+06 -3.963309E+05 -2.097511E+04 -9.951832E+05  1.598441E+03 -1.524939E+03
       132  20 -2.637425E+06 -3.840761E+05 -1.635180E+04 -9.840797E+05  5.147878E+02 -1.278334E+03
       132  21 -2.616326E+06 -3.846669E+05 -1.252758E+04 -9.869146E+05 -5.819063E+02 -9.967312E+02
       132  22 -2.577288E+06 -3.701411E+05 -2.277917E+03 -9.762761E+05  1.784965E+03 -1.454924E+03
       132  23 -2.583255E+06 -3.636311E+05 -1.699053E+03 -9.693399E+05  7.129768E+02 -1.203961E+03
       132  24 -2.577262E+06 -3.699643E+05 -1.909952E+03 -9.763422E+05 -3.720267E+02 -9.179927E+02
       132  25 -2.508004E+06 -3.439509E+05  1.641883E+04 -9.573670E+05  1.971512E+03 -1.384901E+03
       132  26 -2.529082E+06 -3.431859E+05  1.295340E+04 -9.545990E+05  9.111845E+02 -1.129580E+03
       132  27 -2.538198E+06 -3.552616E+05  8.707501E+03 -9.657693E+05 -1.621332E+02 -8.392490E+02
       133   1 -2.580338E+06 -3.712282E+05 -3.009704E+03 -9.774647E+05  1.056877E+03  7.592725E+02
       133   2 -2.570853E+06 -3.587136E+05 -5.576374E+01 -9.658476E+05  3.009745E+03  7.915221E+02
       133   3 -2.549464E+06 -3.602027E+05  1.245980E+03 -9.684196E+05  4.957981E+03  8.362496E+02
       133   4 -2.577237E+06 -3.699533E+05 -2.208514E+03 -9.764987E+05  8.485576E+02  6.811261E+02
       133   5 -2.583254E+06 -3.634057E+05 -3.412211E+03 -9.692342E+05  2.805577E+03  7.149263E+02
       133   6 -2.577368E+06 -3.708626E+05 -6.271359E+03 -9.761590E+05  4.757915E+03  7.611866E+02
       133   7 -2.574135E+06 -3.686783E+05 -1.407321E+03 -9.755326E+05  6.402367E+02  6.029789E+02
       133   8 -2.595655E+06 -3.680978E+05 -6.768683E+03 -9.726207E+05  2.601414E+03  6.383320E+02
       133   9 -2.605271E+06 -3.815226E+05 -1.378879E+04 -9.838980E+05  4.557860E+03  6.861272E+02
       133  10 -2.580338E+06 -3.712282E+05 -3.009707E+03 -9.774647E+05 -2.005742E-09 -1.855934E-09
       133  11 -2.570853E+06 -3.587136E+05 -5.578203E+01 -9.658476E+05 -4.440014E-09 -7.252999E-10
       133  12 -2.549464E+06 -3.602027E+05  1.245933E+03 -9.684196E+05 -3.069241E-09 -6.985585E-10
       133  13 -2.577237E+06 -3.699533E+05 -2.208516E+03 -9.764987E+05 -2.580634E-09 -1.314795E-09
       133  14 -2.583254E+06 -3.634057E+05 -3.412227E+03 -9.692342E+05 -3.789672E-09 -1.124340E-09
       133  15 -2.577368E+06 -3.708627E+05 -6.271403E+03 -9.761590E+05 -3.421645E-09 -3.215346E-10
       133  16 -2.574135E+06 -3.686783E+05 -1.407322E+03 -9.755326E+05 -5.748610E-10 -1.723195E-09
       133  17 -2.595655E+06 -3.680978E+05 -6.768696E+03 -9.726207E+05 -1.362394E-09 -1.250451E-09
       133  18 -2.605271E+06 -3.815226E+05 -1.378883E+04 -9.838980E+05  3.033200E-10 -6.133305E-10
       133  19 -2.580338E+06 -3.712282E+05 -3.009704E+03 -9.774647E+05 -1.056877E+03 -7.592725E+02
       133  20 -2.570853E+06 -3.587136E+05 -5.576374E+01 -9.658476E+05 -3.009745E+03 -7.915221E+02
       133  21 -2.549464E+06 -3.602027E+05  1.245980E+03 -9.684196E+05 -4.957981E+03 -8.362496E+02
       133  22 -2.577237E+06 -3.699533E+05 -2.208514E+03 -9.764987E+05 -8.485576E+02 -6.811261E+02
       133  23 -2.583254E+06 -3.634057E+05 -3.412211E+03 -9.692342E+05 -2.805577E+03 -7.149263E+02
       133  24 -2.577368E+06 -3.708626E+05 -6.271359E+03 -9.761590E+05 -4.757915E+03 -7.611866E+02
       133  25 -2.574135E+06 -3.686783E+05 -1.407321E+03 -9.755326E+05 -6.402367E+02 -6.029789E+02
       133  26 -2.595655E+06 -3.680978E+05 -6.768683E+03 -9.726207E+05 -2.601414E+03 -6.383320E+02
       133  27 -2.605271E+06 -3.815226E+05 -1.378879E+04 -9.838980E+05 -4.557860E+03 -6.861272E+02
       134   1 -2.514340E+06 -3.463625E+05  9.055496E+03 -9.601661E+05  6.286145E+03  9.222764E+02
       134   2 -2.504633E+06 -3.327906E+05  7.003821E+03 -9.483008E+05  1.366815E+04  3.015791E+03
       134   3 -2.487808E+06 -3.412034E+05 -3.141918E+03 -9.475944E+05  2.101814E+04  5.195746E+03
       134   4 -2.578000E+06 -3.695731E+05 -8.061253E+03 -9.766352E+05  6.072026E+03  8.419386E+02
       134   5 -2.582090E+06 -3.622999E+05 -1.399962E+04 -9.696626E+05  1.348213E+04  2.945953E+03
       134   6 -2.579068E+06 -3.770180E+05 -2.805531E+04 -9.738491E+05  2.086006E+04  5.136322E+03
       134   7 -2.641657E+06 -3.927834E+05 -2.517830E+04 -9.931028E+05  5.857932E+03  7.616094E+02
       134   8 -2.659541E+06 -3.918087E+05 -3.500357E+04 -9.910220E+05  1.329614E+04  2.876125E+03
       134   9 -2.670321E+06 -4.128320E+05 -5.296950E+04 -1.000100E+06  2.070200E+04  5.076909E+03
       134  10 -2.514340E+06 -3.463625E+05  9.055420E+03 -9.601661E+05 -1.481344E-09 -7.586757E-10
       134  11 -2.504633E+06 -3.327907E+05  7.003451E+03 -9.483008E+05  1.005490E-09 -4.496860E-10
       134  12 -2.487808E+06 -3.412035E+05 -3.142803E+03 -9.475945E+05  4.224857E-09 -4.734331E-10
       134  13 -2.578000E+06 -3.695731E+05 -8.061324E+03 -9.766352E+05 -3.152769E-09 -2.992451E-10
       134  14 -2.582090E+06 -3.622999E+05 -1.399998E+04 -9.696626E+05 -7.589190E-10  5.908320E-10
       134  15 -2.579069E+06 -3.770182E+05 -2.805618E+04 -9.738492E+05  4.537404E-10 -9.366566E-10
       134  16 -2.641657E+06 -3.927834E+05 -2.517836E+04 -9.931028E+05 -1.241580E-10  5.002188E-10
       134  17 -2.659541E+06 -3.918088E+05 -3.500392E+04 -9.910220E+05  2.912361E-10 -1.940867E-11
       134  18 -2.670321E+06 -4.128322E+05 -5.297035E+04 -1.000100E+06  3.799185E-10 -1.356332E-09
       134  19 -2.514340E+06 -3.463625E+05  9.055496E+03 -9.601661E+05 -6.286145E+03 -9.222764E+02
       134  20 -2.504633E+06 -3.327906E+05  7.003821E+03 -9.483008E+05 -1.366815E+04 -3.015791E+03
       134  21 -2.487808E+06 -3.412034E+05 -3.141918E+03 -9.475944E+05 -2.101814E+04 -5.195746E+03
       134  22 -2.578000E+06 -3.695731E+05 -8.061253E+03 -9.766352E+05 -6.072026E+03 -8.419386E+02
       134  23 -2.582090E+06 -3.622999E+05 -1.399962E+04 -9.696626E+05 -1.348213E+04 -2.945953E+03
       134  24 -2.579068E+06 -3.770180E+05 -2.805531E+04 -9.738491E+05 -2.086006E+04 -5.136322E+03
       134  25 -2.641657E+06 -3.927834E+05 -2.517830E+04 -9.931028E+05 -5.857932E+03 -7.616094E+02
       134  26 -2.659541E+06 -3.918087E+05 -3.500357E+04 -9.910220E+05 -1.329614E+04 -2.876125E+03
       134  27 -2.670321E+06 -4.128320E+05 -5.296950E+04 -1.000100E+06 -2.070200E+04 -5.076909E+03
       135   1 -2.454597E+06 -3.254777E+05 -2.080461E+03 -9.499651E+05  2.645404E+04  6.809204E+03
       135   2 -2.441332E+06 -2.992721E+05 -2.366114E+04 -9.323684E+05  5.826937E+04  1.815324E+04
       135   3 -2.451480E+06 -3.609276E+05 -9.010351E+04 -9.066057E+05  8.990579E+04  2.997449E+04
       135   4 -2.582462E+06 -3.677039E+05 -3.552890E+04 -9.785470E+05  2.619279E+04  6.711389E+03
       135   5 -2.574872E+06 -3.526667E+05 -6.035798E+04 -9.717900E+05  5.816144E+04  1.811230E+04
       135   6 -2.590732E+06 -4.255326E+05 -1.301785E+05 -9.568658E+05  8.995092E+04  2.998921E+04
       135   7 -2.710312E+06 -4.099299E+05 -6.897862E+04 -1.007124E+06  2.593161E+04  6.613589E+03
       135   8 -2.708395E+06 -4.060597E+05 -9.705646E+04 -1.011204E+06  5.805354E+04  1.807136E+04
       135   9 -2.729965E+06 -4.901335E+05 -1.702554E+05 -1.007115E+06  8.999603E+04  3.000393E+04
       135  10 -2.454597E+06 -3.254780E+05 -2.081870E+03 -9.499653E+05  1.329151E-09 -9.212927E-10
       135  11 -2.441336E+06 -2.992734E+05 -2.366817E+04 -9.323693E+05 -2.307476E-09  8.234239E-10
       135  12 -2.451489E+06 -3.609307E+05 -9.012046E+04 -9.066079E+05 -7.457866E-10 -4.247015E-10
       135  13 -2.582463E+06 -3.677041E+05 -3.553028E+04 -9.785472E+05 -8.115948E-10 -8.350960E-10
       135  14 -2.574876E+06 -3.526680E+05 -6.036499E+04 -9.717908E+05 -2.437388E-10  7.375224E-11
       135  15 -2.590741E+06 -4.255358E+05 -1.301955E+05 -9.568679E+05 -1.538766E-09 -8.285631E-10
       135  16 -2.710313E+06 -4.099301E+05 -6.897997E+04 -1.007124E+06 -1.247158E-09 -7.895572E-10
       135  17 -2.708399E+06 -4.060610E+05 -9.706344E+04 -1.011205E+06 -2.236364E-09  6.477570E-10
       135  18 -2.729974E+06 -4.901367E+05 -1.702724E+05 -1.007117E+06  6.098731E-10 -1.368115E-09
       135  19 -2.454597E+06 -3.254777E+05 -2.080461E+03 -9.499651E+05 -2.645404E+04 -6.809204E+03
       135  20 -2.441332E+06 -2.992721E+05 -2.366114E+04 -9.323684E+05 -5.826937E+04 -1.815324E+04
       135  21 -2.451480E+06 -3.609276E+05 -9.010351E+04 -9.066057E+05 -8.990579E+04 -2.997449E+04
       135  22 -2.582462E+06 -3.677039E+05 -3.552890E+04 -9.785470E+05 -2.619279E+04 -6.711389E+03
       135  23 -2.574872E+06 -3.526667E+05 -6.035798E+04 -9.717900E+05 -5.816144E+04 -1.811230E+04
       135  24 -2.590732E+06 -4.255326E+05 -1.301785E+05 -9.568658E+05 -8.995092E+04 -2.998921E+04
       135  25 -2.710312E+06 -4.099299E+05 -6.897862E+04 -1.007124E+06 -2.593161E+04 -6.613589E+03
       135  26 -2.708395E+06 -4.060597E+05 -9.705646E+04 -1.011204E+06 -5.805354E+04 -1.807136E+04
       135  27 -2.729965E+06 -4.901335E+05 -1.702554E+05 -1.007115E+06 -8.999603E+04 -3.000393E+04
       136   1 -2.406416E+06 -3.231076E+05 -1.122102E+05 -9.860436E+05  1.143970E+05  3.828208E+04
       136   2 -2.363624E+06 -1.886408E+05 -2.073070E+05 -9.140586E+05  2.543580E+05  9.032079E+04
       136   3 -2.556707E+06 -6.576329E+05 -5.701430E+05 -6.951172E+05  3.929168E+05  1.461055E+05
       136   4 -2.611715E+06 -3.553554E+05 -1.588532E+05 -9.954564E+05  1.135716E+05  3.798214E+04
       136   5 -2.525443E+06 -2.761780E+05 -2.561808E+05 -9.852845E+05  2.547469E+05  9.045337E+04
       136   6 -2.675373E+06 -8.008205E+05 -6.222711E+05 -8.281295E+05  3.945301E+05  1.466342E+05
       136   7 -2.816968E+06 -3.876026E+05 -2.054976E+05 -1.004870E+06  1.127465E+05  3.768216E+04
       136   8 -2.687235E+06 -3.637039E+05 -3.050570E+05 -1.056491E+06  2.551358E+05  9.058586E+04
       136   9 -2.794001E+06 -9.439391E+05 -6.743959E+05 -9.611052E+05  3.961431E+05  1.471621E+05
       136  10 -2.406431E+06 -3.231127E+05 -1.122376E+05 -9.860472E+05 -4.668557E-10 -1.616350E-09
       136  11 -2.363696E+06 -1.886670E+05 -2.074445E+05 -9.140772E+05 -4.038346E-09 -2.647831E-09
       136  12 -2.556879E+06 -6.576975E+05 -5.704747E+05 -6.951636E+05 -9.884970E-10 -1.989446E-09
       136  13 -2.611729E+06 -3.553604E+05 -1.588803E+05 -9.954599E+05  6.357688E-10 -2.257191E-09
       136  14 -2.525516E+06 -2.762044E+05 -2.563188E+05 -9.853031E+05 -3.920301E-10 -2.018199E-09
       136  15 -2.675547E+06 -8.008857E+05 -6.226056E+05 -8.281763E+05  2.946725E-10 -6.779265E-10
       136  16 -2.816982E+06 -3.876076E+05 -2.055243E+05 -1.004874E+06  1.493379E-09 -1.644483E-09
       136  17 -2.687307E+06 -3.637303E+05 -3.051954E+05 -1.056509E+06  2.223526E-10 -1.351841E-09
       136  18 -2.794176E+06 -9.440048E+05 -6.747332E+05 -9.611524E+05 -9.038919E-10  5.365755E-10
       136  19 -2.406416E+06 -3.231076E+05 -1.122102E+05 -9.860436E+05 -1.143970E+05 -3.828208E+04
       136  20 -2.363624E+06 -1.886408E+05 -2.073070E+05 -9.140586E+05 -2.543580E+05 -9.032079E+04
       136  21 -2.556707E+06 -6.576329E+05 -5.701430E+05 -6.951172E+05 -3.929168E+05 -1.461055E+05
       136  22 -2.611715E+06 -3.553554E+05 -1.588532E+05 -9.954564E+05 -1.135716E+05 -3.798214E+04
       136  23 -2.525443E+06 -2.761780E+05 -2.561808E+05 -9.852845E+05 -2.547469E+05 -9.045337E+04
       136  24 -2.675373E+06 -8.008205E+05 -6.222711E+05 -8.281295E+05 -3.945301E+05 -1.466342E+05
       136  25 -2.816968E+06 -3.876026E+05 -2.054976E+05 -1.004870E+06 -1.127465E+05 -3.768216E+04
       136  26 -2.687235E+06 -3.637039E+05 -3.050570E+05 -1.056491E+06 -2.551358E+05 -9.058586E+04
       136  27 -2.794001E+06 -9.439391E+05 -6.743959E+05 -9.611052E+05 -3.961431E+05 -1.471621E+05
       137   1 -5.170367E+05  1.286586E+04  3.993002E+04  1.015961E+04  7.928934E+04  2.649674E+03
       137   2 -5.133409E+05 -9.285161E+04 -2.190447E+04  5.089832E+03  5.319331E+04  7.559148E+03
       137   3 -4.749260E+05 -7.433928E+04 -3.562740E+04 -2.188213E+04  2.710172E+04  6.541970E+03
       137   4 -1.932842E+05  9.365140E+04  1.202861E+05 -1.174411E+04  8.216208E+04  2.649979E+03
       137   5 -2.108268E+05 -1.755618E+04  5.199081E+04 -7.413236E+02  5.392031E+04  7.559032E+03
       137   6 -1.932960E+05 -4.194930E+03  3.327981E+04 -1.163970E+04  2.568395E+04  6.541351E+03
       137   7  1.305645E+05  1.744309E+05  2.006346E+05 -3.365930E+04  8.503631E+04  2.650082E+03
       137   8  9.177097E+04  5.773261E+04  1.258794E+05 -6.575347E+03  5.464766E+04  7.558902E+03
       137   9  8.840645E+04  6.594394E+04  1.021813E+05 -1.392615E+03  2.426553E+04  6.540686E+03
       137  10 -5.170435E+05  1.286416E+04  3.991818E+04  1.015944E+04  1.116886E-09 -1.346440E-09
       137  11 -5.133440E+05 -9.285243E+04 -2.190990E+04  5.089508E+03 -1.205954E-09 -4.131435E-10
       137  12 -4.749268E+05 -7.433952E+04 -3.562886E+04 -2.188227E+04  3.349267E-10 -3.934646E-10
       137  13 -1.932915E+05  9.364958E+04  1.202734E+05 -1.174429E+04 -7.830722E-11  5.426070E-10
       137  14 -2.108299E+05 -1.755703E+04  5.198523E+04 -7.416519E+02 -2.343341E-09 -5.939268E-10
       137  15 -1.932968E+05 -4.195153E+03  3.327849E+04 -1.163983E+04  3.989324E-09 -6.475036E-10
       137  16  1.305568E+05  1.744289E+05  2.006210E+05 -3.365948E+04 -6.444893E-10  6.596503E-10
       137  17  9.176775E+04  5.773174E+04  1.258737E+05 -6.575679E+03 -1.034744E-09 -2.455229E-10
       137  18  8.840581E+04  6.594373E+04  1.021801E+05 -1.392743E+03  2.415486E-09  1.109733E-09
       137  19 -5.170367E+05  1.286586E+04  3.993002E+04  1.015961E+04 -7.928934E+04 -2.649674E+03
       137  20 -5.133409E+05 -9.285161E+04 -2.190447E+04  5.089832E+03 -5.319331E+04 -7.559148E+03
       137  21 -4.749260E+05 -7.433928E+04 -3.562740E+04 -2.188213E+04 -2.710172E+04 -6.541970E+03
       137  22 -1.932842E+05  9.365140E+04  1.202861E+05 -1.174411E+04 -8.216208E+04 -2.649979E+03
       137  23 -2.108268E+05 -1.755618E+04  5.199081E+04 -7.413236E+02 -5.392031E+04 -7.559032E+03
       137  24 -1.932960E+05 -4.194930E+03  3.327981E+04 -1.163970E+04 -2.568395E+04 -6.541351E+03
       137  25  1.305645E+05  1.744309E+05  2.006346E+05 -3.365930E+04 -8.503631E+04 -2.650082E+03
       137  26  9.177097E+04  5.773261E+04  1.258794E+05 -6.575347E+03 -5.464766E+04 -7.558902E+03
       137  27  8.840645E+04  6.594394E+04  1.021813E+05 -1.392615E+03 -2.426553E+04 -6.540686E+03
       138   1 -4.376166E+05 -4.734605E+04 -3.087806E+04 -9.232489E+03  2.029939E+04  5.201982E+03
       138   2 -4.187585E+05 -5.611154E+04 -3.944099E+04 -3.205502E+01  1.354703E+04  5.026833E+03
       138   3 -3.949507E+05 -4.908608E+04 -3.963254E+04 -1.309877E+04  6.794334E+03  4.224220E+03
       138   4 -1.999725E+05  1.183987E+04  2.733648E+04 -1.175618E+04  2.035564E+04  5.201796E+03
       138   5 -2.024668E+05 -2.255253E+03  1.347358E+04 -6.201055E+02  1.337510E+04  5.026652E+03
       138   6 -1.999740E+05 -5.228840E+02  8.138251E+03 -1.175064E+04  6.394453E+03  4.224100E+03
       138   7  3.772301E+04  7.102163E+04  8.554689E+04 -1.428084E+04  2.041191E+04  5.201609E+03
       138   8  1.386756E+04  5.159757E+04  6.638473E+04 -1.208365E+03  1.320311E+04  5.026472E+03
       138   9 -4.962652E+03  4.803750E+04  5.590626E+04 -1.040208E+04  5.994446E+03  4.223979E+03
       138  10 -4.376170E+05 -4.734619E+04 -3.087889E+04 -9.232575E+03  1.138416E-09 -6.351758E-11
       138  11 -4.187587E+05 -5.611161E+04 -3.944139E+04 -3.210988E+01 -9.305573E-10 -2.182005E-10
       138  12 -3.949507E+05 -4.908611E+04 -3.963266E+04 -1.309880E+04 -4.716038E-10  4.292392E-10
       138  13 -1.999730E+05  1.183973E+04  2.733565E+04 -1.175626E+04 -8.687331E-11  9.619273E-10
       138  14 -2.024670E+05 -2.255328E+03  1.347319E+04 -6.201597E+02 -3.385935E-09 -3.706591E-11
       138  15 -1.999740E+05 -5.229142E+02  8.138141E+03 -1.175066E+04 -1.244047E-09  1.111903E-10
       138  16  3.772256E+04  7.102149E+04  8.554605E+04 -1.428092E+04  4.924411E-10  5.802729E-10
       138  17  1.386737E+04  5.159750E+04  6.638435E+04 -1.208418E+03 -6.734392E-11 -3.481029E-10
       138  18 -4.962695E+03  4.803747E+04  5.590616E+04 -1.040210E+04  2.348529E-10  4.195556E-11
       138  19 -4.376166E+05 -4.734605E+04 -3.087806E+04 -9.232489E+03 -2.029939E+04 -5.201982E+03
       138  20 -4.187585E+05 -5.611154E+04 -3.944099E+04 -3.205502E+01 -1.354703E+04 -5.026833E+03
       138  21 -3.949507E+05 -4.908608E+04 -3.963254E+04 -1.309877E+04 -6.794334E+03 -4.224220E+03
       138  22 -1.999725E+05  1.183987E+04  2.733648E+04 -1.175618E+04 -2.035564E+04 -5.201796E+03
       138  23 -2.024668E+05 -2.255253E+03  1.347358E+04 -6.201055E+02 -1.337510E+04 -5.026652E+03
       138  24 -1.999740E+05 -5.228840E+02  8.138251E+03 -1.175064E+04 -6.394453E+03 -4.224100E+03
       138  25  3.772301E+04  7.102163E+04  8.554689E+04 -1.428084E+04 -2.041191E+04 -5.201609E+03
       138  26  1.386756E+04  5.159757E+04  6.638473E+04 -1.208365E+03 -1.320311E+04 -5.026472E+03
       138  27 -4.962652E+03  4.803750E+04  5.590626E+04 -1.040208E+04 -5.994446E+03 -4.223979E+03
       139   1 -3.512497E+05 -3.594609E+04 -3.033387E+04 -1.153681E+04  5.341939E+03  3.677289E+03
       139   2 -3.300557E+05 -3.235270E+04 -2.819864E+04 -4.965013E+02  3.691411E+03  2.960456E+03
       139   3 -3.081155E+05 -2.676980E+04 -2.448420E+04 -1.197421E+04  2.040581E+03  2.174682E+03
       139   4 -2.009105E+05  1.478106E+03  6.400807E+03 -1.180805E+04  5.097210E+03  3.677220E+03
       139   5 -2.012856E+05 -2.892628E+02  3.309609E+03 -5.491749E+02  3.421499E+03  2.960433E+03
       139   6 -2.009106E+05 -6.289646E+01  1.814919E+03 -1.180802E+04  1.745544E+03  2.174711E+03
       139   7 -5.055066E+04  3.890063E+04  4.313384E+04 -1.207935E+04  4.852421E+03  3.677151E+03
       139   8 -7.250049E+04  3.177294E+04  3.481665E+04 -6.018593E+02  3.151532E+03  2.960410E+03
       139   9 -9.369525E+04  2.664315E+04  2.811320E+04 -1.164181E+04  1.450457E+03  2.174740E+03
       139  10 -3.512498E+05 -3.594611E+04 -3.033395E+04 -1.153683E+04 -8.475023E-10  6.184905E-10
       139  11 -3.300557E+05 -3.235271E+04 -2.819868E+04 -4.965101E+02 -4.018744E-10  9.493635E-11
       139  12 -3.081155E+05 -2.676981E+04 -2.448422E+04 -1.197421E+04 -1.154410E-10 -1.230565E-10
       139  13 -2.009105E+05  1.478085E+03  6.400733E+03 -1.180806E+04  6.240741E-11  6.651779E-10
       139  14 -2.012857E+05 -2.892753E+02  3.309571E+03 -5.491831E+02  2.161956E-09  1.963128E-10
       139  15 -2.009106E+05 -6.290236E+01  1.814904E+03 -1.180803E+04 -1.511400E-09 -1.135615E-10
       139  16 -5.055069E+04  3.890061E+04  4.313377E+04 -1.207936E+04 -1.750208E-09  6.979551E-10
       139  17 -7.250050E+04  3.177293E+04  3.481661E+04 -6.018668E+02  2.540326E-09  5.349927E-10
       139  18 -9.369525E+04  2.664315E+04  2.811318E+04 -1.164182E+04 -4.936167E-10 -7.809091E-10
       139  19 -3.512497E+05 -3.594609E+04 -3.033387E+04 -1.153681E+04 -5.341939E+03 -3.677289E+03
       139  20 -3.300557E+05 -3.235270E+04 -2.819864E+04 -4.965013E+02 -3.691411E+03 -2.960456E+03
       139  21 -3.081155E+05 -2.676980E+04 -2.448420E+04 -1.197421E+04 -2.040581E+03 -2.174682E+03
       139  22 -2.009105E+05  1.478106E+03  6.400807E+03 -1.180805E+04 -5.097210E+03 -3.677220E+03
       139  23 -2.012856E+05 -2.892628E+02  3.309609E+03 -5.491749E+02 -3.421499E+03 -2.960433E+03
       139  24 -2.009106E+05 -6.289646E+01  1.814919E+03 -1.180802E+04 -1.745544E+03 -2.174711E+03
       139  25 -5.055066E+04  3.890063E+04  4.313384E+04 -1.207935E+04 -4.852421E+03 -3.677151E+03
       139  26 -7.250049E+04  3.177294E+04  3.481665E+04 -6.018593E+02 -3.151532E+03 -2.960410E+03
       139  27 -9.369525E+04  2.664315E+04  2.811320E+04 -1.164181E+04 -1.450457E+03 -2.174740E+03
       140   1 -2.632523E+05 -1.528607E+04 -1.386188E+04 -1.181317E+04  1.745118E+03  1.707913E+03
       140   2 -2.415998E+05 -1.011150E+04 -9.526214E+03 -5.137985E+02  1.553739E+03  9.295369E+02
       140   3 -2.198846E+05 -4.749261E+03 -5.021038E+03 -1.185773E+04  1.362262E+03  1.437945E+02
       140   4 -2.010610E+05  1.857252E+02  1.289590E+03 -1.183587E+04  1.466385E+03  1.707963E+03
       140   5 -2.010923E+05 -2.570065E+01  3.852229E+02 -5.142934E+02  1.272320E+03  9.296019E+02
       140   6 -2.010611E+05 -4.905371E+01 -3.478532E+02 -1.183593E+04  1.078164E+03  1.438761E+02
       140   7 -1.388663E+05  1.565723E+04  1.644078E+04 -1.185857E+04  1.187624E+03  1.708013E+03
       140   8 -1.605833E+05  1.005998E+04  1.029654E+04 -5.147882E+02  9.908827E+02  9.296669E+02
       140   9 -1.822372E+05  4.651127E+03  4.325306E+03 -1.181413E+04  7.940568E+02  1.439576E+02
       140  10 -2.632523E+05 -1.528607E+04 -1.386189E+04 -1.181318E+04 -5.194533E-10  1.367972E-10
       140  11 -2.415998E+05 -1.011150E+04 -9.526220E+03 -5.137997E+02 -2.093699E-09  3.861209E-10
       140  12 -2.198846E+05 -4.749261E+03 -5.021042E+03 -1.185773E+04 -3.652485E-10  6.834290E-11
       140  13 -2.010610E+05  1.857215E+02  1.289581E+03 -1.183587E+04 -1.076911E-09 -1.542334E-10
       140  14 -2.010923E+05 -2.570201E+01  3.852182E+02 -5.142944E+02  6.731598E-11  7.918475E-10
       140  15 -2.010611E+05 -4.905405E+01 -3.478554E+02 -1.183593E+04 -5.790870E-09 -4.413086E-10
       140  16 -1.388663E+05  1.565723E+04  1.644077E+04 -1.185857E+04 -1.087924E-09 -4.950861E-10
       140  17 -1.605833E+05  1.005997E+04  1.029654E+04 -5.147890E+02  2.472403E-09  1.181949E-09
       140  18 -1.822372E+05  4.651127E+03  4.325305E+03 -1.181413E+04 -2.715860E-09 -1.692536E-10
       140  19 -2.632523E+05 -1.528607E+04 -1.386188E+04 -1.181317E+04 -1.745118E+03 -1.707913E+03
       140  20 -2.415998E+05 -1.011150E+04 -9.526214E+03 -5.137985E+02 -1.553739E+03 -9.295369E+02
       140  21 -2.198846E+05 -4.749261E+03 -5.021038E+03 -1.185773E+04 -1.362262E+03 -1.437945E+02
       140  22 -2.010610E+05  1.857252E+02  1.289590E+03 -1.183587E+04 -1.466385E+03 -1.707963E+03
       140  23 -2.010923E+05 -2.570065E+01  3.852229E+02 -5.142934E+02 -1.272320E+03 -9.296019E+02
       140  24 -2.010611E+05 -4.905371E+01 -3.478532E+02 -1.183593E+04 -1.078164E+03 -1.438761E+02
       140  25 -1.388663E+05  1.565723E+04  1.644078E+04 -1.185857E+04 -1.187624E+03 -1.708013E+03
       140  26 -1.605833E+05  1.005998E+04  1.029654E+04 -5.147882E+02 -9.908827E+02 -9.296669E+02
       140  27 -1.822372E+05  4.651127E+03  4.325306E+03 -1.181413E+04 -7.940568E+02 -1.439576E+02
       141   1 -1.748197E+05  6.607852E+03  5.779508E+03 -1.189782E+04  1.458965E+03 -3.163169E+02
       141   2 -1.530156E+05  1.202607E+04  1.004889E+04 -5.299295E+02  2.302912E+03 -1.102107E+03
       141   3 -1.314583E+05  1.692622E+04  1.363744E+04 -1.179935E+04  3.146992E+03 -1.880208E+03
       141   4 -2.011301E+05  4.365252E+01 -7.254288E+02 -1.183458E+04  1.174785E+03 -3.162363E+02
       141   5 -2.010063E+05  7.767733E+01 -1.692967E+03 -5.159220E+02  2.021430E+03 -1.102046E+03
       141   6 -2.011304E+05 -4.068413E+02 -3.343250E+03 -1.183468E+04  2.868179E+03 -1.880165E+03
       141   7 -2.274399E+05 -6.520598E+03 -7.230417E+03 -1.177135E+04  8.906177E+02 -3.161558E+02
       141   8 -2.489950E+05 -1.187089E+04 -1.343499E+04 -5.019154E+02  1.739971E+03 -1.101985E+03
       141   9 -2.707981E+05 -1.774026E+04 -2.032429E+04 -1.187001E+04  2.589398E+03 -1.880122E+03
       141  10 -1.748197E+05  6.607851E+03  5.779504E+03 -1.189782E+04 -1.832190E-09  7.906597E-11
       141  11 -1.530156E+05  1.202607E+04  1.004888E+04 -5.299275E+02  1.596587E-09 -1.322754E-10
       141  12 -1.314583E+05  1.692622E+04  1.363741E+04 -1.179935E+04 -5.186607E-11 -3.618667E-10
       141  13 -2.011301E+05  4.365204E+01 -7.254315E+02 -1.183458E+04 -2.298967E-09 -9.015183E-10
       141  14 -2.010064E+05  7.767493E+01 -1.692977E+03 -5.159202E+02 -1.194388E-09 -3.886146E-10
       141  15 -2.011304E+05 -4.068473E+02 -3.343272E+03 -1.183468E+04 -7.376350E-10 -3.629433E-10
       141  16 -2.274399E+05 -6.520599E+03 -7.230418E+03 -1.177135E+04 -1.976268E-09 -8.804921E-10
       141  17 -2.489950E+05 -1.187089E+04 -1.343500E+04 -5.019139E+02  2.435190E-09  2.860652E-10
       141  18 -2.707981E+05 -1.774027E+04 -2.032431E+04 -1.187000E+04  1.586880E-09 -1.519401E-11
       141  19 -1.748197E+05  6.607852E+03  5.779508E+03 -1.189782E+04 -1.458965E+03  3.163169E+02
       141  20 -1.530156E+05  1.202607E+04  1.004889E+04 -5.299295E+02 -2.302912E+03  1.102107E+03
       141  21 -1.314583E+05  1.692622E+04  1.363744E+04 -1.179935E+04 -3.146992E+03  1.880208E+03
       141  22 -2.011301E+05  4.365252E+01 -7.254288E+02 -1.183458E+04 -1.174785E+03  3.162363E+02
       141  23 -2.010063E+05  7.767733E+01 -1.692967E+03 -5.159220E+02 -2.021430E+03  1.102046E+03
       141  24 -2.011304E+05 -4.068413E+02 -3.343250E+03 -1.183468E+04 -2.868179E+03  1.880165E+03
       141  25 -2.274399E+05 -6.520598E+03 -7.230417E+03 -1.177135E+04 -8.906177E+02  3.161558E+02
       141  26 -2.489950E+05 -1.187089E+04 -1.343499E+04 -5.019154E+02 -1.739971E+03  1.101985E+03
       141  27 -2.707981E+05 -1.774026E+04 -2.032429E+04 -1.187001E+04 -2.589398E+03  1.880122E+03
       142   1 -8.675303E+04  2.870861E+04  2.373977E+04 -1.221996E+04  3.857832E+03 -2.346886E+03
       142   2 -6.441755E+04  3.454804E+04  2.577796E+04 -4.458722E+02  7.651741E+03 -3.131760E+03
       142   3 -4.364407E+04  3.595820E+04  2.424656E+04 -1.117634E+04  1.144599E+04 -3.845289E+03
       142   4 -2.014260E+05  1.457646E+02 -4.383082E+03 -1.180518E+04  3.562154E+03 -2.346864E+03
       142   5 -2.006430E+05  6.337000E+02 -7.549364E+03 -5.526682E+02  7.380990E+03 -3.131796E+03
       142   6 -2.014269E+05 -3.312451E+03 -1.430306E+04 -1.180503E+04  1.120004E+04 -3.845381E+03
       142   7 -3.160870E+05 -2.841806E+04 -3.250690E+04 -1.139047E+04  3.266530E+03 -2.346842E+03
       142   8 -3.368516E+05 -3.328202E+04 -4.087804E+04 -6.594405E+02  7.110298E+03 -3.131831E+03
       142   9 -3.591871E+05 -4.258495E+04 -5.285450E+04 -1.243356E+04  1.095415E+04 -3.845472E+03
       142  10 -8.675304E+04  2.870860E+04  2.373973E+04 -1.221995E+04 -7.622142E-10 -5.604356E-10
       142  11 -6.441761E+04  3.454802E+04  2.577783E+04 -4.458529E+02 -1.561600E-09  4.321023E-11
       142  12 -4.364422E+04  3.595815E+04  2.424628E+04 -1.117630E+04  9.451200E-10 -4.574420E-10
       142  13 -2.014260E+05  1.457552E+02 -4.383117E+03 -1.180517E+04  2.153718E-09 -3.638720E-10
       142  14 -2.006431E+05  6.336748E+02 -7.549485E+03 -5.526496E+02  6.533985E-09  2.350217E-11
       142  15 -2.014271E+05 -3.312501E+03 -1.430333E+04 -1.180499E+04  2.618324E-09 -3.226552E-10
       142  16 -3.160870E+05 -2.841806E+04 -3.250693E+04 -1.139047E+04  1.410672E-09 -1.068536E-10
       142  17 -3.368516E+05 -3.328204E+04 -4.087816E+04 -6.594226E+02 -1.000554E-09  1.917663E-11
       142  18 -3.591873E+05 -4.258499E+04 -5.285475E+04 -1.243353E+04 -8.067361E-10 -5.736043E-11
       142  19 -8.675303E+04  2.870861E+04  2.373977E+04 -1.221996E+04 -3.857832E+03  2.346886E+03
       142  20 -6.441755E+04  3.454804E+04  2.577796E+04 -4.458722E+02 -7.651741E+03  3.131760E+03
       142  21 -4.364407E+04  3.595820E+04  2.424656E+04 -1.117634E+04 -1.144599E+04  3.845289E+03
       142  22 -2.014260E+05  1.457646E+02 -4.383082E+03 -1.180518E+04 -3.562154E+03  2.346864E+03
       142  23 -2.006430E+05  6.337000E+02 -7.549364E+03 -5.526682E+02 -7.380990E+03  3.131796E+03
       142  24 -2.014269E+05 -3.312451E+03 -1.430306E+04 -1.180503E+04 -1.120004E+04  3.845381E+03
       142  25 -3.160870E+05 -2.841806E+04 -3.250690E+04 -1.139047E+04 -3.266530E+03  2.346842E+03
       142  26 -3.368516E+05 -3.328202E+04 -4.087804E+04 -6.594405E+02 -7.110298E+03  3.131831E+03
       142  27 -3.591871E+05 -4.258495E+04 -5.285450E+04 -1.243356E+04 -1.095415E+04  3.845472E+03
       143   1 -1.052268E+03  5.154457E+04  3.146803E+04 -1.467627E+04  1.449548E+04 -4.391740E+03
       143   2  2.556967E+04  6.064854E+04  2.478218E+04  8.518010E+02  2.976920E+04 -5.182447E+03
       143   3  4.157056E+04  3.469355E+04 -5.834044E+02 -5.833384E+03  4.504364E+04 -5.325368E+03
       143   4 -2.034533E+05  1.146240E+03 -1.810777E+04 -1.174440E+04  1.408992E+04 -4.391827E+03
       143   5 -1.981221E+05  4.963116E+03 -2.992936E+04 -6.306506E+02  2.959180E+04 -5.182699E+03
       143   6 -2.034567E+05 -2.632578E+04 -6.059424E+04 -1.173088E+04  4.509387E+04 -5.325898E+03
       143   7 -4.058170E+05 -4.925509E+04 -6.768657E+04 -8.813497E+03  1.368450E+04 -4.391918E+03
       143   8 -4.217682E+05 -5.072601E+04 -8.464456E+04 -2.112571E+03  2.941446E+04 -5.182950E+03
       143   9 -4.484291E+05 -8.734943E+04 -1.206095E+05 -1.762604E+04  4.514409E+04 -5.326429E+03
       143  10 -1.052499E+03  5.154449E+04  3.146760E+04 -1.467622E+04 -1.120304E-09 -5.866358E-10
       143  11  2.556871E+04  6.064828E+04  2.478046E+04  8.519252E+02 -2.426389E-09 -3.529279E-10
       143  12  4.156838E+04  3.469298E+04 -5.872703E+02 -5.833191E+03  8.433790E-10 -5.200799E-10
       143  13 -2.034535E+05  1.146166E+03 -1.810818E+04 -1.174436E+04  2.187371E-12 -4.560121E-10
       143  14 -1.981230E+05  4.962852E+03 -2.993106E+04 -6.305271E+02 -2.207533E-09 -4.349770E-10
       143  15 -2.034589E+05 -2.632635E+04 -6.059811E+04 -1.173068E+04 -3.410367E-09 -1.068715E-10
       143  16 -4.058172E+05 -4.925517E+04 -6.768696E+04 -8.813448E+03  1.631982E-09 -2.307004E-10
       143  17 -4.217692E+05 -5.072627E+04 -8.464624E+04 -2.112448E+03  7.840250E-10  4.330730E-10
       143  18 -4.484313E+05 -8.735001E+04 -1.206133E+05 -1.762585E+04  4.969914E-10  5.224642E-10
       143  19 -1.052268E+03  5.154457E+04  3.146803E+04 -1.467627E+04 -1.449548E+04  4.391740E+03
       143  20  2.556967E+04  6.064854E+04  2.478218E+04  8.518010E+02 -2.976920E+04  5.182447E+03
       143  21  4.157056E+04  3.469355E+04 -5.834044E+02 -5.833384E+03 -4.504364E+04  5.325368E+03
       143  22 -2.034533E+05  1.146240E+03 -1.810777E+04 -1.174440E+04 -1.408992E+04  4.391827E+03
       143  23 -1.981221E+05  4.963116E+03 -2.992936E+04 -6.306506E+02 -2.959180E+04  5.182699E+03
       143  24 -2.034567E+05 -2.632578E+04 -6.059424E+04 -1.173088E+04 -4.509387E+04  5.325898E+03
       143  25 -4.058170E+05 -4.925509E+04 -6.768657E+04 -8.813497E+03 -1.368450E+04  4.391918E+03
       143  26 -4.217682E+05 -5.072601E+04 -8.464456E+04 -2.112571E+03 -2.941446E+04  5.182950E+03
       143  27 -4.484291E+05 -8.734943E+04 -1.206095E+05 -1.762604E+04 -4.514409E+04  5.326429E+03
       144   1  7.091196E+04  8.115869E+04 -3.029200E+03 -3.393492E+04  5.835784E+04 -6.666525E+03
       144   2  1.300696E+05  1.159422E+05 -3.957355E+04  1.280312E+04  1.187926E+05 -7.580720E+03
       144   3  1.127471E+05 -1.248438E+05 -1.842764E+05  3.805797E+04  1.792243E+05 -2.390010E+03
       144   4 -2.181768E+05  9.232608E+03 -7.373011E+04 -1.165158E+04  5.689551E+04 -6.665589E+03
       144   5 -1.797331E+05  3.882073E+04 -1.152317E+05 -7.878349E+02  1.194984E+05 -7.582867E+03
       144   6 -2.181885E+05 -2.076158E+05 -2.664373E+05 -1.140704E+04  1.820959E+05 -2.400889E+03
       144   7 -5.071882E+05 -6.269778E+04 -1.444368E+05  1.062136E+04  5.543385E+04 -6.664757E+03
       144   8 -4.894479E+05 -3.830718E+04 -1.908968E+05 -1.437201E+04  1.202039E+05 -7.585047E+03
       144   9 -5.490194E+05 -2.903868E+05 -3.486051E+05 -6.084569E+04  1.849660E+05 -2.412231E+03
       144  10  7.090829E+04  8.115773E+04 -3.035683E+03 -3.393461E+04  2.252232E-09 -1.295369E-09
       144  11  1.300545E+05  1.159384E+05 -3.960017E+04  1.280384E+04 -9.209068E-10 -3.098991E-09
       144  12  1.127126E+05 -1.248524E+05 -1.843367E+05  3.805832E+04  6.892236E-10 -1.018275E-09
       144  13 -2.181803E+05  9.231691E+03 -7.373628E+04 -1.165127E+04  1.573742E-10 -3.305150E-09
       144  14 -1.797484E+05  3.881683E+04 -1.152587E+05 -7.871050E+02  7.598302E-10  8.777175E-10
       144  15 -2.182241E+05 -2.076247E+05 -2.664997E+05 -1.140668E+04 -3.387969E-09 -4.279545E-10
       144  16 -5.071916E+05 -6.269865E+04 -1.444427E+05  1.062166E+04 -3.494291E-09 -5.208621E-10
       144  17 -4.894634E+05 -3.831112E+04 -1.909241E+05 -1.437127E+04 -2.310881E-09 -3.888976E-11
       144  18 -5.490562E+05 -2.903960E+05 -3.486695E+05 -6.084533E+04  1.443925E-10 -1.600677E-09
       144  19  7.091196E+04  8.115869E+04 -3.029200E+03 -3.393492E+04 -5.835784E+04  6.666525E+03
       144  20  1.300696E+05  1.159422E+05 -3.957355E+04  1.280312E+04 -1.187926E+05  7.580720E+03
       144  21  1.127471E+05 -1.248438E+05 -1.842764E+05  3.805797E+04 -1.792243E+05  2.390010E+03
       144  22 -2.181768E+05  9.232608E+03 -7.373011E+04 -1.165158E+04 -5.689551E+04  6.665589E+03
       144  23 -1.797331E+05  3.882073E+04 -1.152317E+05 -7.878349E+02 -1.194984E+05  7.582867E+03
       144  24 -2.181885E+05 -2.076158E+05 -2.664373E+05 -1.140704E+04 -1.820959E+05  2.400889E+03
       144  25 -5.071882E+05 -6.269778E+04 -1.444368E+05  1.062136E+04 -5.543385E+04  6.664757E+03
       144  26 -4.894479E+05 -3.830718E+04 -1.908968E+05 -1.437201E+04 -1.202039E+05  7.585047E+03
       144  27 -5.490194E+05 -2.903868E+05 -3.486051E+05 -6.084569E+04 -1.849660E+05  2.412231E+03
       145   1  3.335279E+05  6.609912E+05  3.443918E+05 -1.348183E+05  8.574889E+03  5.379765E+04
       145   2  2.194636E+05  4.254044E+05  2.476075E+05 -9.526813E+03  2.322681E+04  3.236243E+04
       145   3  1.696727E+05  2.092075E+05  1.809425E+05 -1.192182E+05  1.443794E+04  1.087943E+04
       145   4  4.791119E+04 -4.831033E+05  6.044073E+04 -1.222802E+05  8.593128E+03  4.425950E+04
       145   5 -8.831132E+03 -4.920558E+05  2.370381E+04 -4.825149E+03  2.323174E+04  3.129420E+04
       145   6 -2.713957E+03 -4.830988E+05  1.124500E+04 -1.223718E+05  1.441486E+04  1.827322E+04
       145   7 -2.378032E+05 -1.626009E+06 -2.236077E+05 -1.097645E+05  8.611001E+03  3.473884E+04
       145   8 -2.371880E+05 -1.408748E+06 -2.002612E+05 -1.299875E+02  2.323666E+04  3.022752E+04
       145   9 -1.751361E+05 -1.174968E+06 -1.584874E+05 -1.255215E+05  1.439170E+04  2.565876E+04
       145  10  3.335271E+05  6.609881E+05  3.443862E+05 -1.348187E+05 -7.402376E-10 -3.820867E-09
       145  11  2.194628E+05  4.254031E+05  2.476045E+05 -9.527418E+03 -3.616799E-09 -3.806198E-09
       145  12  1.696725E+05  2.092074E+05  1.809419E+05 -1.192183E+05 -2.331854E-09 -1.587497E-09
       145  13  4.791059E+04 -4.831055E+05  6.043690E+04 -1.222805E+05  1.001490E-10 -3.377995E-11
       145  14 -8.831974E+03 -4.920570E+05  2.370096E+04 -4.825734E+03 -2.174492E-09  7.902206E-11
       145  15 -2.714270E+03 -4.830992E+05  1.124398E+04 -1.223720E+05  3.428103E-10 -5.386013E-09
       145  16 -2.378036E+05 -1.626011E+06 -2.236102E+05 -1.097648E+05  7.346386E-10  2.190277E-09
       145  17 -2.371888E+05 -1.408749E+06 -2.002639E+05 -1.305536E+02  4.400738E-11  3.809195E-09
       145  18 -1.751365E+05 -1.174969E+06 -1.584891E+05 -1.255218E+05 -4.185743E-11  4.877751E-09
       145  19  3.335279E+05  6.609912E+05  3.443918E+05 -1.348183E+05 -8.574889E+03 -5.379765E+04
       145  20  2.194636E+05  4.254044E+05  2.476075E+05 -9.526813E+03 -2.322681E+04 -3.236243E+04
       145  21  1.696727E+05  2.092075E+05  1.809425E+05 -1.192182E+05 -1.443794E+04 -1.087943E+04
       145  22  4.791119E+04 -4.831033E+05  6.044073E+04 -1.222802E+05 -8.593128E+03 -4.425950E+04
       145  23 -8.831132E+03 -4.920558E+05  2.370381E+04 -4.825149E+03 -2.323174E+04 -3.129420E+04
       145  24 -2.713957E+03 -4.830988E+05  1.124500E+04 -1.223718E+05 -1.441486E+04 -1.827322E+04
       145  25 -2.378032E+05 -1.626009E+06 -2.236077E+05 -1.097645E+05 -8.611001E+03 -3.473884E+04
       145  26 -2.371880E+05 -1.408748E+06 -2.002612E+05 -1.299875E+02 -2.323666E+04 -3.022752E+04
       145  27 -1.751361E+05 -1.174968E+06 -1.584874E+05 -1.255215E+05 -1.439170E+04 -2.565876E+04
       146   1  6.208772E+04 -2.672955E+05  6.015730E+04 -1.233233E+05  5.717598E+03  1.456358E+04
       146   2 -5.501559E+02 -4.924875E+05 -7.470562E+03 -5.196931E+03 -2.127662E+02  1.759455E+04
       146   3 -6.901373E+04 -7.214352E+05 -7.894636E+04 -1.240738E+05 -6.124321E+03  2.062458E+04
       146   4  7.210598E+03 -4.877864E+05  6.363768E+03 -1.227543E+05  5.710324E+03  1.669552E+04
       146   5  1.084941E+03 -4.858908E+05 -5.857873E+03 -4.283067E+03 -2.199120E+02  1.972115E+04
       146   6 -1.086007E+04 -4.877927E+05 -2.191637E+04 -1.228151E+05 -6.131460E+03  2.274694E+04
       146   7 -4.767011E+04 -7.082330E+05 -4.743328E+04 -1.221855E+05  5.703053E+03  1.882671E+04
       146   8  2.720040E+03 -4.792941E+05 -4.245169E+03 -3.369192E+03 -2.270515E+02  2.184777E+04
       146   9  4.728958E+04 -2.541004E+05  3.510966E+04 -1.215559E+05 -6.138589E+03  2.487009E+04
       146  10  6.208762E+04 -2.672957E+05  6.015684E+04 -1.233234E+05 -7.785120E-10 -7.085951E-09
       146  11 -5.502391E+02 -4.924878E+05 -7.471144E+03 -5.196928E+03 -1.626376E-09 -4.153881E-09
       146  12 -6.901389E+04 -7.214357E+05 -7.894724E+04 -1.240737E+05 -1.720678E-09 -1.422522E-09
       146  13  7.210488E+03 -4.877868E+05  6.363182E+03 -1.227544E+05  1.743163E-09  6.257080E-11
       146  14  1.084836E+03 -4.858913E+05 -5.858604E+03 -4.283063E+03  3.505950E-09 -7.473921E-11
       146  15 -1.086025E+04 -4.877933E+05 -2.191741E+04 -1.228150E+05 -8.263018E-10 -5.763050E-09
       146  16 -4.767024E+04 -7.082334E+05 -4.743401E+04 -1.221855E+05  1.308399E-10  3.473790E-09
       146  17  2.719912E+03 -4.792946E+05 -4.246067E+03 -3.369188E+03  1.698928E-10  4.182984E-09
       146  18  4.728937E+04 -2.541011E+05  3.510843E+04 -1.215558E+05 -7.326523E-10  4.973925E-09
       146  19  6.208772E+04 -2.672955E+05  6.015730E+04 -1.233233E+05 -5.717598E+03 -1.456358E+04
       146  20 -5.501559E+02 -4.924875E+05 -7.470562E+03 -5.196931E+03  2.127662E+02 -1.759455E+04
       146  21 -6.901373E+04 -7.214352E+05 -7.894636E+04 -1.240738E+05  6.124321E+03 -2.062458E+04
       146  22  7.210598E+03 -4.877864E+05  6.363768E+03 -1.227543E+05 -5.710324E+03 -1.669552E+04
       146  23  1.084941E+03 -4.858908E+05 -5.857873E+03 -4.283067E+03  2.199120E+02 -1.972115E+04
       146  24 -1.086007E+04 -4.877927E+05 -2.191637E+04 -1.228151E+05  6.131460E+03 -2.274694E+04
       146  25 -4.767011E+04 -7.082330E+05 -4.743328E+04 -1.221855E+05 -5.703053E+03 -1.882671E+04
       146  26  2.720040E+03 -4.792941E+05 -4.245169E+03 -3.369192E+03  2.270515E+02 -2.184777E+04
       146  27  4.728958E+04 -2.541004E+05  3.510966E+04 -1.215559E+05  6.138589E+03 -2.487009E+04
       147   1 -1.702702E+05 -1.199161E+06 -2.013551E+05 -1.110764E+05 -1.485534E+04  1.965222E+04
       147   2 -2.152542E+05 -1.408078E+06 -2.753675E+05 -8.971827E+03 -2.376550E+04  5.431470E+04
       147   3 -3.777300E+05 -1.650314E+06 -4.012740E+05 -1.419835E+05 -8.927525E+03  8.901931E+04
       147   4  5.542554E+03 -4.941521E+05 -2.837968E+04 -1.222962E+05 -1.487867E+04  2.710933E+04
       147   5  1.631623E+04 -4.782581E+05 -4.819938E+04 -4.829212E+03 -2.376024E+04  5.327325E+04
       147   6 -8.882304E+04 -4.941924E+05 -1.139440E+05 -1.224627E+05 -8.907591E+03  7.949234E+04
       147   7  1.813189E+05  2.113100E+05  1.445595E+05 -1.335283E+05 -1.490224E+04  3.457490E+04
       147   8  2.478228E+05  4.523513E+05  1.789057E+05 -6.798993E+02 -2.375501E+04  5.223020E+04
       147   9  1.999851E+05  6.631464E+05  1.732865E+05 -1.029049E+05 -8.888280E+03  6.994750E+04
       147  10 -1.702706E+05 -1.199161E+06 -2.013563E+05 -1.110762E+05 -2.638484E-09 -4.614089E-09
       147  11 -2.152556E+05 -1.408081E+06 -2.753741E+05 -8.970787E+03  1.486072E-09 -2.696476E-09
       147  12 -3.777323E+05 -1.650323E+06 -4.012891E+05 -1.419828E+05  1.200694E-09 -7.020307E-10
       147  13  5.542119E+03 -4.941530E+05 -2.838148E+04 -1.222959E+05 -1.430290E-09 -5.406569E-11
       147  14  1.631486E+04 -4.782613E+05 -4.820578E+04 -4.828192E+03 -4.364768E-09 -1.261278E-10
       147  15 -8.882483E+04 -4.941992E+05 -1.139560E+05 -1.224622E+05  2.347034E-11 -2.621204E-09
       147  16  1.813183E+05  2.113087E+05  1.445569E+05 -1.335279E+05 -1.522530E-09  1.299723E-09
       147  17  2.478215E+05  4.523483E+05  1.788995E+05 -6.789005E+02 -1.807189E-09  2.687574E-09
       147  18  1.999837E+05  6.631411E+05  1.732772E+05 -1.029044E+05  3.589166E-10  2.199826E-09
       147  19 -1.702702E+05 -1.199161E+06 -2.013551E+05 -1.110764E+05  1.485534E+04 -1.965222E+04
       147  20 -2.152542E+05 -1.408078E+06 -2.753675E+05 -8.971827E+03  2.376550E+04 -5.431470E+04
       147  21 -3.777300E+05 -1.650314E+06 -4.012740E+05 -1.419835E+05  8.927525E+03 -8.901931E+04
       147  22  5.542554E+03 -4.941521E+05 -2.837968E+04 -1.222962E+05  1.487867E+04 -2.710933E+04
       147  23  1.631623E+04 -4.782581E+05 -4.819938E+04 -4.829212E+03  2.376024E+04 -5.327325E+04
       147  24 -8.882304E+04 -4.941924E+05 -1.139440E+05 -1.224627E+05  8.907591E+03 -7.949234E+04
       147  25  1.813189E+05  2.113100E+05  1.445595E+05 -1.335283E+05  1.490224E+04 -3.457490E+04
       147  26  2.478228E+05  4.523513E+05  1.789057E+05 -6.798993E+02  2.375501E+04 -5.223020E+04
       147  27  1.999851E+05  6.631464E+05  1.732865E+05 -1.029049E+05  8.888280E+03 -6.994750E+04
       148   1 -1.606016E+06 -4.191040E+05 -2.263258E+05 -5.691552E+05 -1.065024E+05 -3.791305E+04
       148   2 -1.570976E+06 -2.570699E+05 -1.251301E+05 -5.857741E+05 -6.924577E+04 -1.972640E+04
       148   3 -1.588951E+06 -2.636441E+05 -9.585908E+04 -5.743235E+05 -3.031726E+04 -5.979260E+03
       148   4 -1.397144E+06 -3.141901E+05 -1.639240E+05 -4.856821E+05 -1.045527E+05 -3.718499E+04
       148   5 -1.362448E+06 -1.714059E+05 -6.753109E+04 -5.217586E+05 -6.877812E+04 -1.955164E+04
       148   6 -1.380451E+06 -1.969052E+05 -4.186735E+04 -5.297716E+05 -3.133210E+04 -6.360089E+03
       148   7 -1.188227E+06 -2.092625E+05 -1.015263E+05 -4.021801E+05 -1.026023E+05 -3.645645E+04
       148   8 -1.153877E+06 -8.573708E+04 -9.936069E+03 -4.577228E+05 -6.831030E+04 -1.937680E+04
       148   9 -1.171909E+06 -1.301664E+05  1.212091E+04 -4.852076E+05 -3.234732E+04 -6.741010E+03
       148  10 -1.606028E+06 -4.191086E+05 -2.263499E+05 -5.691584E+05  1.092656E-09 -1.242010E-09
       148  11 -1.570982E+06 -2.570716E+05 -1.251398E+05 -5.857752E+05 -1.497116E-09 -2.011595E-09
       148  12 -1.588952E+06 -2.636444E+05 -9.586088E+04 -5.743237E+05 -2.819932E-09 -3.762973E-10
       148  13 -1.397156E+06 -3.141945E+05 -1.639472E+05 -4.856852E+05 -3.213579E-09 -5.659002E-10
       148  14 -1.362453E+06 -1.714076E+05 -6.754072E+04 -5.217596E+05 -2.033771E-09 -2.090310E-09
       148  15 -1.380452E+06 -1.969055E+05 -4.186928E+04 -5.297718E+05  1.166392E-09 -1.041303E-09
       148  16 -1.188239E+06 -2.092668E+05 -1.015486E+05 -4.021831E+05 -2.933633E-09 -5.600252E-10
       148  17 -1.153882E+06 -8.573874E+04 -9.945564E+03 -4.577238E+05  8.977097E-10 -3.182482E-09
       148  18 -1.171910E+06 -1.301668E+05  1.211885E+04 -4.852077E+05  1.240791E-09 -4.388336E-11
       148  19 -1.606016E+06 -4.191040E+05 -2.263258E+05 -5.691552E+05  1.065024E+05  3.791305E+04
       148  20 -1.570976E+06 -2.570699E+05 -1.251301E+05 -5.857741E+05  6.924577E+04  1.972640E+04
       148  21 -1.588951E+06 -2.636441E+05 -9.585908E+04 -5.743235E+05  3.031726E+04  5.979260E+03
       148  22 -1.397144E+06 -3.141901E+05 -1.639240E+05 -4.856821E+05  1.045527E+05  3.718499E+04
       148  23 -1.362448E+06 -1.714059E+05 -6.753109E+04 -5.217586E+05  6.877812E+04  1.955164E+04
       148  24 -1.380451E+06 -1.969052E+05 -4.186735E+04 -5.297716E+05  3.133210E+04  6.360089E+03
       148  25 -1.188227E+06 -2.092625E+05 -1.015263E+05 -4.021801E+05  1.026023E+05  3.645645E+04
       148  26 -1.153877E+06 -8.573708E+04 -9.936069E+03 -4.577228E+05  6.831030E+04  1.937680E+04
       148  27 -1.171909E+06 -1.301664E+05  1.212091E+04 -4.852076E+05  3.234732E+04  6.741010E+03
       149   1 -1.537680E+06 -2.802769E+05 -7.901656E+04 -5.675206E+05 -2.483308E+04 -5.060949E+03
       149   2 -1.524408E+06 -2.481029E+05 -5.624463E+04 -5.591773E+05 -1.621123E+04 -1.987083E+03
       149   3 -1.506922E+06 -2.494671E+05 -4.545815E+04 -5.605228E+05 -7.390605E+03  5.577177E+02
       149   4 -1.374695E+06 -2.156143E+05 -3.431782E+04 -5.198691E+05 -2.479725E+04 -5.047718E+03
       149   5 -1.375738E+06 -1.912471E+05 -1.594232E+04 -5.178826E+05 -1.635122E+04 -2.039746E+03
       149   6 -1.372531E+06 -2.003801E+05 -9.410195E+03 -5.255856E+05 -7.706633E+03  4.390637E+02
       149   7 -1.211686E+06 -1.509496E+05  1.037840E+04 -4.722061E+05 -2.476140E+04 -5.034483E+03
       149   8 -1.227048E+06 -1.343899E+05  2.435801E+04 -4.765790E+05 -1.649124E+04 -2.092423E+03
       149   9 -1.238122E+06 -1.512921E+05  2.663624E+04 -4.906415E+05 -8.022736E+03  3.203833E+02
       149  10 -1.537681E+06 -2.802771E+05 -7.901777E+04 -5.675207E+05 -4.309076E-11  1.011502E-09
       149  11 -1.524408E+06 -2.481030E+05 -5.624513E+04 -5.591773E+05 -2.091154E-09  5.847771E-10
       149  12 -1.506922E+06 -2.494671E+05 -4.545825E+04 -5.605228E+05  1.728739E-10  7.522792E-10
       149  13 -1.374696E+06 -2.156145E+05 -3.431903E+04 -5.198692E+05 -1.132563E-09  2.700485E-10
       149  14 -1.375739E+06 -1.912472E+05 -1.594283E+04 -5.178827E+05  3.016439E-09 -1.269681E-09
       149  15 -1.372531E+06 -2.003801E+05 -9.410308E+03 -5.255855E+05 -9.548447E-11  5.039263E-10
       149  16 -1.211686E+06 -1.509498E+05  1.037720E+04 -4.722062E+05 -4.506224E-10 -1.103264E-09
       149  17 -1.227048E+06 -1.343900E+05  2.435749E+04 -4.765791E+05 -2.161533E-09 -1.135346E-09
       149  18 -1.238122E+06 -1.512921E+05  2.663612E+04 -4.906415E+05  5.780404E-10  3.298898E-10
       149  19 -1.537680E+06 -2.802769E+05 -7.901656E+04 -5.675206E+05  2.483308E+04  5.060949E+03
       149  20 -1.524408E+06 -2.481029E+05 -5.624463E+04 -5.591773E+05  1.621123E+04  1.987083E+03
       149  21 -1.506922E+06 -2.494671E+05 -4.545815E+04 -5.605228E+05  7.390605E+03 -5.577177E+02
       149  22 -1.374695E+06 -2.156143E+05 -3.431782E+04 -5.198691E+05  2.479725E+04  5.047718E+03
       149  23 -1.375738E+06 -1.912471E+05 -1.594232E+04 -5.178826E+05  1.635122E+04  2.039746E+03
       149  24 -1.372531E+06 -2.003801E+05 -9.410195E+03 -5.255856E+05  7.706633E+03 -4.390637E+02
       149  25 -1.211686E+06 -1.509496E+05  1.037840E+04 -4.722061E+05  2.476140E+04  5.034483E+03
       149  26 -1.227048E+06 -1.343899E+05  2.435801E+04 -4.765790E+05  1.649124E+04  2.092423E+03
       149  27 -1.238122E+06 -1.512921E+05  2.663624E+04 -4.906415E+05  8.022736E+03 -3.203833E+02
       150   1 -1.465938E+06 -2.389168E+05 -3.297845E+04 -5.505743E+05 -5.959211E+03  5.697697E+02
       150   2 -1.455057E+06 -2.228172E+05 -2.468368E+04 -5.382406E+05 -3.751231E+03  6.929163E+02
       150   3 -1.431367E+06 -2.234627E+05 -1.858782E+04 -5.413609E+05 -1.514707E+03  7.396140E+02
       150   4 -1.371517E+06 -2.029645E+05 -7.457164E+03 -5.244972E+05 -6.154930E+03  4.962852E+02
       150   5 -1.377785E+06 -1.936157E+05 -3.800755E+03 -5.171370E+05 -3.972364E+03  6.099270E+02
       150   6 -1.371239E+06 -2.010064E+05 -2.322735E+03 -5.252308E+05 -1.761318E+03  6.471006E+02
       150   7 -1.277089E+06 -1.670117E+05  1.806332E+04 -4.984164E+05 -6.350682E+03  4.227882E+02
       150   8 -1.300507E+06 -1.644138E+05  1.708162E+04 -4.960310E+05 -4.193527E+03  5.269263E+02
       150   9 -1.311107E+06 -1.785501E+05  1.394199E+04 -5.090993E+05 -2.007955E+03  5.545777E+02
       150  10 -1.465938E+06 -2.389168E+05 -3.297851E+04 -5.505743E+05  1.840242E-09  6.593460E-10
       150  11 -1.455057E+06 -2.228172E+05 -2.468371E+04 -5.382406E+05 -1.770964E-10 -6.071036E-10
       150  12 -1.431367E+06 -2.234627E+05 -1.858783E+04 -5.413609E+05  4.883319E-10  5.919688E-10
       150  13 -1.371517E+06 -2.029645E+05 -7.457236E+03 -5.244971E+05  9.208385E-10  6.073351E-10
       150  14 -1.377785E+06 -1.936157E+05 -3.800786E+03 -5.171370E+05 -1.410260E-09 -5.962631E-10
       150  15 -1.371239E+06 -2.010064E+05 -2.322742E+03 -5.252308E+05 -7.828154E-10  4.554515E-10
       150  16 -1.277089E+06 -1.670117E+05  1.806324E+04 -4.984164E+05 -1.804386E-09  3.669209E-10
       150  17 -1.300507E+06 -1.644138E+05  1.708158E+04 -4.960310E+05 -1.025464E-09 -3.954281E-10
       150  18 -1.311107E+06 -1.785501E+05  1.394199E+04 -5.090993E+05 -2.681622E-09  4.149742E-10
       150  19 -1.465938E+06 -2.389168E+05 -3.297845E+04 -5.505743E+05  5.959211E+03 -5.697697E+02
       150  20 -1.455057E+06 -2.228172E+05 -2.468368E+04 -5.382406E+05  3.751231E+03 -6.929163E+02
       150  21 -1.431367E+06 -2.234627E+05 -1.858782E+04 -5.413609E+05  1.514707E+03 -7.396140E+02
       150  22 -1.371517E+06 -2.029645E+05 -7.457164E+03 -5.244972E+05  6.154930E+03 -4.962852E+02
       150  23 -1.377785E+06 -1.936157E+05 -3.800755E+03 -5.171370E+05  3.972364E+03 -6.099270E+02
       150  24 -1.371239E+06 -2.010064E+05 -2.322735E+03 -5.252308E+05  1.761318E+03 -6.471006E+02
       150  25 -1.277089E+06 -1.670117E+05  1.806332E+04 -4.984164E+05  6.350682E+03 -4.227882E+02
       150  26 -1.300507E+06 -1.644138E+05  1.708162E+04 -4.960310E+05  4.193527E+03 -5.269263E+02
       150  27 -1.311107E+06 -1.785501E+05  1.394199E+04 -5.090993E+05  2.007955E+03 -5.545777E+02
       151   1 -1.390332E+06 -2.086786E+05 -7.065170E+03 -5.304556E+05 -1.023520E+03  4.480431E+02
       151   2 -1.379606E+06 -1.944116E+05 -1.771455E+03 -5.173826E+05 -7.055593E+01  1.461949E+01
       151   3 -1.354720E+06 -1.950414E+05  2.879886E+03 -5.207398E+05  8.846159E+02 -4.246033E+02
       151   4 -1.371048E+06 -2.013748E+05 -1.915472E+03 -5.251555E+05 -1.255813E+03  3.609127E+02
       151   5 -1.378117E+06 -1.938443E+05 -1.368217E+03 -5.169712E+05 -3.047919E+02 -7.323989E+01
       151   6 -1.371025E+06 -2.012103E+05 -1.461864E+03 -5.252172E+05  6.484115E+02 -5.131984E+02
       151   7 -1.351765E+06 -1.940710E+05  3.234210E+03 -5.198553E+05 -1.488115E+03  2.737791E+02
       151   8 -1.376627E+06 -1.932770E+05 -9.649800E+02 -5.165598E+05 -5.390281E+02 -1.610994E+02
       151   9 -1.387330E+06 -2.073791E+05 -5.803612E+03 -5.296944E+05  4.122153E+02 -6.017904E+02
       151  10 -1.390332E+06 -2.086786E+05 -7.065172E+03 -5.304556E+05  2.017749E-09  1.449514E-09
       151  11 -1.379606E+06 -1.944116E+05 -1.771455E+03 -5.173826E+05  8.851815E-10  4.278267E-10
       151  12 -1.354720E+06 -1.950414E+05  2.879884E+03 -5.207398E+05  1.525908E-10  4.383965E-10
       151  13 -1.371048E+06 -2.013748E+05 -1.915476E+03 -5.251555E+05 -9.749284E-10  1.197886E-09
       151  14 -1.378117E+06 -1.938443E+05 -1.368218E+03 -5.169712E+05  2.412577E-09  1.210968E-09
       151  15 -1.371025E+06 -2.012103E+05 -1.461865E+03 -5.252172E+05  5.153288E-10  6.522772E-10
       151  16 -1.351765E+06 -1.940710E+05  3.234205E+03 -5.198553E+05 -1.816055E-09  5.359593E-10
       151  17 -1.376627E+06 -1.932770E+05 -9.649806E+02 -5.165598E+05  3.236150E-09  9.450536E-10
       151  18 -1.387330E+06 -2.073791E+05 -5.803613E+03 -5.296944E+05  2.387819E-09  1.178420E-09
       151  19 -1.390332E+06 -2.086786E+05 -7.065170E+03 -5.304556E+05  1.023520E+03 -4.480431E+02
       151  20 -1.379606E+06 -1.944116E+05 -1.771455E+03 -5.173826E+05  7.055593E+01 -1.461949E+01
       151  21 -1.354720E+06 -1.950414E+05  2.879886E+03 -5.207398E+05 -8.846159E+02  4.246033E+02
       151  22 -1.371048E+06 -2.013748E+05 -1.915472E+03 -5.251555E+05  1.255813E+03 -3.609127E+02
       151  23 -1.378117E+06 -1.938443E+05 -1.368217E+03 -5.169712E+05  3.047919E+02  7.323989E+01
       151  24 -1.371025E+06 -2.012103E+05 -1.461864E+03 -5.252172E+05 -6.484115E+02  5.131984E+02
       151  25 -1.351765E+06 -1.940710E+05  3.234210E+03 -5.198553E+05  1.488115E+03 -2.737791E+02
       151  26 -1.376627E+06 -1.932770E+05 -9.649800E+02 -5.165598E+05  5.390281E+02  1.610994E+02
       151  27 -1.387330E+06 -2.073791E+05 -5.803612E+03 -5.296944E+05 -4.122153E+02  6.017904E+02
       152   1 -1.314010E+06 -1.796181E+05  1.382056E+04 -5.097250E+05  1.298691E+03 -7.389264E+02
       152   2 -1.303511E+06 -1.657891E+05  1.760407E+04 -4.968195E+05  2.816117E+03 -9.604018E+02
       152   3 -1.279441E+06 -1.670379E+05  2.018840E+04 -4.998331E+05  4.322800E+03 -1.152644E+03
       152   4 -1.371132E+06 -2.010706E+05 -1.657503E+03 -5.251717E+05  1.060511E+03 -8.282741E+02
       152   5 -1.377964E+06 -1.938603E+05 -2.503629E+03 -5.170886E+05  2.587606E+03 -1.046155E+03
       152   6 -1.371226E+06 -2.017299E+05 -4.556659E+03 -5.249248E+05  4.103921E+03 -1.234814E+03
       152   7 -1.428250E+06 -2.225229E+05 -1.713590E+04 -5.406172E+05  8.223552E+02 -9.176130E+02
       152   8 -1.452411E+06 -2.219312E+05 -2.261191E+04 -5.373556E+05  2.359125E+03 -1.131897E+03
       152   9 -1.463003E+06 -2.364216E+05 -2.930263E+04 -5.500133E+05  3.885077E+03 -1.316972E+03
       152  10 -1.314010E+06 -1.796181E+05  1.382055E+04 -5.097250E+05  6.865151E-10  4.092429E-10
       152  11 -1.303511E+06 -1.657891E+05  1.760405E+04 -4.968195E+05 -1.846887E-10 -6.405011E-10
       152  12 -1.279441E+06 -1.670379E+05  2.018837E+04 -4.998331E+05 -4.229027E-09 -5.513271E-10
       152  13 -1.371132E+06 -2.010706E+05 -1.657506E+03 -5.251717E+05 -1.424337E-10  2.284974E-10
       152  14 -1.377964E+06 -1.938603E+05 -2.503644E+03 -5.170886E+05 -8.175721E-10 -6.559818E-10
       152  15 -1.371226E+06 -2.017299E+05 -4.556694E+03 -5.249248E+05 -3.812617E-09 -8.465387E-11
       152  16 -1.428250E+06 -2.225229E+05 -1.713590E+04 -5.406172E+05  4.012493E-11  6.268356E-11
       152  17 -1.452411E+06 -2.219312E+05 -2.261192E+04 -5.373556E+05 -2.661123E-09 -7.194881E-10
       152  18 -1.463003E+06 -2.364216E+05 -2.930266E+04 -5.500133E+05  1.485820E-09  3.933097E-10
       152  19 -1.314010E+06 -1.796181E+05  1.382056E+04 -5.097250E+05 -1.298691E+03  7.389264E+02
       152  20 -1.303511E+06 -1.657891E+05  1.760407E+04 -4.968195E+05 -2.816117E+03  9.604018E+02
       152  21 -1.279441E+06 -1.670379E+05  2.018840E+04 -4.998331E+05 -4.322800E+03  1.152644E+03
       152  22 -1.371132E+06 -2.010706E+05 -1.657503E+03 -5.251717E+05 -1.060511E+03  8.282741E+02
       152  23 -1.377964E+06 -1.938603E+05 -2.503629E+03 -5.170886E+05 -2.587606E+03  1.046155E+03
       152  24 -1.371226E+06 -2.017299E+05 -4.556659E+03 -5.249248E+05 -4.103921E+03  1.234814E+03
       152  25 -1.428250E+06 -2.225229E+05 -1.713590E+04 -5.406172E+05 -8.223552E+02  9.176130E+02
       152  26 -1.452411E+06 -2.219312E+05 -2.261191E+04 -5.373556E+05 -2.359125E+03  1.131897E+03
       152  27 -1.463003E+06 -2.364216E+05 -2.930263E+04 -5.500133E+05 -3.885077E+03  1.316972E+03
       153   1 -1.240873E+06 -1.519189E+05  2.945824E+04 -4.901263E+05  5.347989E+03 -1.221967E+03
       153   2 -1.230589E+06 -1.377816E+05  2.944120E+04 -4.774677E+05  1.076597E+04  6.596643E+01
       153   3 -1.210628E+06 -1.440020E+05  2.359469E+04 -4.779848E+05  1.614417E+04  1.460851E+03
       153   4 -1.371782E+06 -2.006902E+05 -5.845543E+03 -5.251476E+05  5.109372E+03 -1.311576E+03
       153   5 -1.377001E+06 -1.931985E+05 -1.014030E+04 -5.175505E+05  1.056211E+04 -1.065616E+01
       153   6 -1.372549E+06 -2.060725E+05 -2.029316E+04 -5.231290E+05  1.597494E+04  1.397161E+03
       153   7 -1.502675E+06 -2.494603E+05 -4.115064E+04 -5.601622E+05  4.870812E+03 -1.401164E+03
       153   8 -1.523391E+06 -2.486139E+05 -4.972358E+04 -5.576247E+05  1.035831E+04 -8.725854E+01
       153   9 -1.534445E+06 -2.681413E+05 -6.418333E+04 -5.682625E+05  1.580576E+04  1.333490E+03
       153  10 -1.240873E+06 -1.519189E+05  2.945818E+04 -4.901263E+05 -1.673988E-10  3.220129E-10
       153  11 -1.230589E+06 -1.377817E+05  2.944098E+04 -4.774677E+05  1.689215E-09  3.618656E-10
       153  12 -1.210628E+06 -1.440021E+05  2.359420E+04 -4.779848E+05 -5.263069E-10  2.542397E-10
       153  13 -1.371782E+06 -2.006902E+05 -5.845595E+03 -5.251476E+05 -1.371006E-09  3.893067E-10
       153  14 -1.377001E+06 -1.931986E+05 -1.014051E+04 -5.175505E+05 -8.440214E-10  3.739496E-10
       153  15 -1.372549E+06 -2.060726E+05 -2.029365E+04 -5.231290E+05  2.387257E-09 -1.557179E-10
       153  16 -1.502675E+06 -2.494603E+05 -4.115069E+04 -5.601622E+05 -3.581352E-10  2.067338E-10
       153  17 -1.523391E+06 -2.486140E+05 -4.972379E+04 -5.576247E+05  1.139861E-09 -6.938185E-10
       153  18 -1.534446E+06 -2.681413E+05 -6.418381E+04 -5.682625E+05  9.503902E-10 -2.776161E-10
       153  19 -1.240873E+06 -1.519189E+05  2.945824E+04 -4.901263E+05 -5.347989E+03  1.221967E+03
       153  20 -1.230589E+06 -1.377816E+05  2.944120E+04 -4.774677E+05 -1.076597E+04 -6.596643E+01
       153  21 -1.210628E+06 -1.440020E+05  2.359469E+04 -4.779848E+05 -1.614417E+04 -1.460851E+03
       153  22 -1.371782E+06 -2.006902E+05 -5.845543E+03 -5.251476E+05 -5.109372E+03  1.311576E+03
       153  23 -1.377001E+06 -1.931985E+05 -1.014030E+04 -5.175505E+05 -1.056211E+04  1.065616E+01
       153  24 -1.372549E+06 -2.060725E+05 -2.029316E+04 -5.231290E+05 -1.597494E+04 -1.397161E+03
       153  25 -1.502675E+06 -2.494603E+05 -4.115064E+04 -5.601622E+05 -4.870812E+03  1.401164E+03
       153  26 -1.523391E+06 -2.486139E+05 -4.972358E+04 -5.576247E+05 -1.035831E+04  8.725854E+01
       153  27 -1.534445E+06 -2.681413E+05 -6.418333E+04 -5.682625E+05 -1.580576E+04 -1.333490E+03
       154   1 -1.174485E+06 -1.279589E+05  2.768198E+04 -4.762730E+05  2.021233E+04  2.493219E+03
       154   2 -1.161914E+06 -1.050084E+05  1.342943E+04 -4.597707E+05  4.320749E+04  1.045205E+04
       154   3 -1.161977E+06 -1.495946E+05 -3.311430E+04 -4.420678E+05  6.596071E+04  1.905705E+04
       154   4 -1.375067E+06 -1.992695E+05 -2.569315E+04 -5.264373E+05  1.989767E+04  2.375020E+03
       154   5 -1.371700E+06 -1.863456E+05 -4.365034E+04 -5.191944E+05  4.310249E+04  1.041224E+04
       154   6 -1.381016E+06 -2.410130E+05 -9.407393E+04 -5.107500E+05  6.606494E+04  1.909498E+04
       154   7 -1.575612E+06 -2.705789E+05 -7.907185E+04 -5.765876E+05  1.958312E+04  2.256857E+03
       154   8 -1.581444E+06 -2.676796E+05 -1.007342E+05 -5.785999E+05  4.299752E+04  1.037245E+04
       154   9 -1.600009E+06 -3.324257E+05 -1.550381E+05 -5.794092E+05  6.616912E+04  1.913290E+04
       154  10 -1.174485E+06 -1.279591E+05  2.768120E+04 -4.762730E+05  2.067431E-09 -3.574253E-10
       154  11 -1.161916E+06 -1.050091E+05  1.342571E+04 -4.597710E+05  1.360603E-09  4.988423E-10
       154  12 -1.161982E+06 -1.495961E+05 -3.312318E+04 -4.420688E+05 -2.395325E-09  3.841229E-10
       154  13 -1.375068E+06 -1.992696E+05 -2.569390E+04 -5.264373E+05  2.378374E-09 -3.540121E-10
       154  14 -1.371702E+06 -1.863462E+05 -4.365405E+04 -5.191948E+05  2.344083E-09  2.548003E-09
       154  15 -1.381021E+06 -2.410146E+05 -9.408284E+04 -5.107510E+05  9.533279E-10  6.316286E-11
       154  16 -1.575612E+06 -2.705790E+05 -7.907258E+04 -5.765877E+05  1.516642E-09 -4.660881E-11
       154  17 -1.581446E+06 -2.676803E+05 -1.007378E+05 -5.786003E+05  6.935358E-09  3.224508E-10
       154  18 -1.600014E+06 -3.324272E+05 -1.550470E+05 -5.794103E+05  3.299648E-10  2.168609E-09
       154  19 -1.174485E+06 -1.279589E+05  2.768198E+04 -4.762730E+05 -2.021233E+04 -2.493219E+03
       154  20 -1.161914E+06 -1.050084E+05  1.342943E+04 -4.597707E+05 -4.320749E+04 -1.045205E+04
       154  21 -1.161977E+06 -1.495946E+05 -3.311430E+04 -4.420678E+05 -6.596071E+04 -1.905705E+04
       154  22 -1.375067E+06 -1.992695E+05 -2.569315E+04 -5.264373E+05 -1.989767E+04 -2.375020E+03
       154  23 -1.371700E+06 -1.863456E+05 -4.365034E+04 -5.191944E+05 -4.310249E+04 -1.041224E+04
       154  24 -1.381016E+06 -2.410130E+05 -9.407393E+04 -5.107500E+05 -6.606494E+04 -1.909498E+04
       154  25 -1.575612E+06 -2.705789E+05 -7.907185E+04 -5.765876E+05 -1.958312E+04 -2.256857E+03
       154  26 -1.581444E+06 -2.676796E+05 -1.007342E+05 -5.785999E+05 -4.299752E+04 -1.037245E+04
       154  27 -1.600009E+06 -3.324257E+05 -1.550381E+05 -5.794092E+05 -6.616912E+04 -1.913290E+04
       155   1 -1.117948E+06 -1.180123E+05 -4.605209E+04 -4.962809E+05  8.449657E+04  2.481123E+04
       155   2 -1.084338E+06 -1.704025E+04 -1.135247E+05 -4.406734E+05  1.848722E+05  6.183173E+04
       155   3 -1.216870E+06 -3.552964E+05 -3.735284E+05 -2.831816E+05  2.832410E+05  1.041925E+05
       155   4 -1.396225E+06 -1.903151E+05 -1.147895E+05 -5.385986E+05  8.334409E+04  2.438265E+04
       155   5 -1.335895E+06 -1.312086E+05 -1.851177E+05 -5.290078E+05  1.854726E+05  6.205063E+04
       155   6 -1.442135E+06 -5.117983E+05 -4.494311E+05 -4.175103E+05  2.855982E+05  1.050405E+05
       155   7 -1.674425E+06 -2.626203E+05 -1.835320E+05 -5.809036E+05  8.219218E+04  2.395414E+04
       155   8 -1.587389E+06 -2.453644E+05 -2.567165E+05 -6.173068E+05  1.860728E+05  6.226938E+04
       155   9 -1.667336E+06 -6.682476E+05 -5.253371E+05 -5.517823E+05  2.879545E+05  1.058874E+05
       155  10 -1.117956E+06 -1.180149E+05 -4.606670E+04 -4.962825E+05  2.247007E-09  1.720601E-10
       155  11 -1.084375E+06 -1.705356E+04 -1.135962E+05 -4.406827E+05  1.372599E-09 -5.811958E-09
       155  12 -1.216959E+06 -3.553297E+05 -3.736999E+05 -2.832054E+05 -2.033830E-09 -4.239155E-09
       155  13 -1.396232E+06 -1.903177E+05 -1.148037E+05 -5.386002E+05 -2.602393E-09 -1.999171E-09
       155  14 -1.335933E+06 -1.312221E+05 -1.851897E+05 -5.290171E+05  2.676947E-09 -1.009600E-09
       155  15 -1.442226E+06 -5.118321E+05 -4.496056E+05 -4.175345E+05  5.301054E-10  4.255895E-10
       155  16 -1.674432E+06 -2.626228E+05 -1.835458E+05 -5.809052E+05 -4.581727E-09  5.243128E-10
       155  17 -1.587428E+06 -2.453779E+05 -2.567891E+05 -6.173161E+05 -6.509124E-10  3.056880E-09
       155  18 -1.667429E+06 -6.682820E+05 -5.255145E+05 -5.518069E+05  2.918685E-09  2.022815E-10
       155  19 -1.117948E+06 -1.180123E+05 -4.605209E+04 -4.962809E+05 -8.449657E+04 -2.481123E+04
       155  20 -1.084338E+06 -1.704025E+04 -1.135247E+05 -4.406734E+05 -1.848722E+05 -6.183173E+04
       155  21 -1.216870E+06 -3.552964E+05 -3.735284E+05 -2.831816E+05 -2.832410E+05 -1.041925E+05
       155  22 -1.396225E+06 -1.903151E+05 -1.147895E+05 -5.385986E+05 -8.334409E+04 -2.438265E+04
       155  23 -1.335895E+06 -1.312086E+05 -1.851177E+05 -5.290078E+05 -1.854726E+05 -6.205063E+04
       155  24 -1.442135E+06 -5.117983E+05 -4.494311E+05 -4.175103E+05 -2.855982E+05 -1.050405E+05
       155  25 -1.674425E+06 -2.626203E+05 -1.835320E+05 -5.809036E+05 -8.219218E+04 -2.395414E+04
       155  26 -1.587389E+06 -2.453644E+05 -2.567165E+05 -6.173068E+05 -1.860728E+05 -6.226938E+04
       155  27 -1.667336E+06 -6.682476E+05 -5.253371E+05 -5.517823E+05 -2.879545E+05 -1.058874E+05
       156   1  2.838331E+05  2.270202E+06  2.735869E+05 -1.902392E+05  1.223416E+04  1.049943E+05
       156   2  2.157839E+05  2.126582E+06  1.836075E+05 -1.660244E+05  4.055054E+04  4.808633E+04
       156   3  1.735477E+05  1.996784E+06  1.370572E+05 -1.657966E+05  4.656997E+04 -8.834671E+03
       156   4  3.656230E+04  1.266290E+06  3.956027E+04 -1.648061E+05  1.236776E+04  2.443818E+04
       156   5  1.114489E+04  1.263378E+06  2.218291E+04 -1.528416E+05  4.061597E+04  1.316576E+04
       156   6  3.656417E+03  1.266386E+06  1.663174E+04 -1.648625E+05  4.655521E+04  1.866414E+03
       156   7 -2.107738E+05  2.633198E+05 -1.945099E+05 -1.394137E+05  1.249491E+04 -5.598895E+04
       156   8 -1.935358E+05  4.008953E+05 -1.392692E+05 -1.396772E+05  4.067996E+04 -2.170762E+04
       156   9 -1.662622E+05  5.365138E+05 -1.038091E+05 -1.639292E+05  4.654046E+04  1.255537E+04
       156  10  2.838300E+05  2.270190E+06  2.735660E+05 -1.902403E+05 -2.063964E-10  1.434075E-09
       156  11  2.157816E+05  2.126580E+06  1.836001E+05 -1.660260E+05  1.924122E-09 -5.587924E-09
       156  12  1.735453E+05  1.996783E+06  1.370530E+05 -1.657963E+05  1.018501E-10 -3.837820E-09
       156  13  3.656197E+04  1.266289E+06  3.955887E+04 -1.648063E+05 -8.044875E-10 -1.384291E-09
       156  14  1.114308E+04  1.263378E+06  2.217948E+04 -1.528421E+05 -6.389630E-10 -1.687324E-09
       156  15  3.654088E+03  1.266385E+06  1.662765E+04 -1.648626E+05 -1.239568E-10 -1.141630E-10
       156  16 -2.107748E+05  2.633164E+05 -1.945161E+05 -1.394131E+05  8.215914E-10 -2.144554E-09
       156  17 -1.935377E+05  4.008944E+05 -1.392731E+05 -1.396765E+05  1.830574E-10  1.766964E-09
       156  18 -1.662646E+05  5.365130E+05 -1.038134E+05 -1.639296E+05 -1.183630E-09  4.140963E-09
       156  19  2.838331E+05  2.270202E+06  2.735869E+05 -1.902392E+05 -1.223416E+04 -1.049943E+05
       156  20  2.157839E+05  2.126582E+06  1.836075E+05 -1.660244E+05 -4.055054E+04 -4.808633E+04
       156  21  1.735477E+05  1.996784E+06  1.370572E+05 -1.657966E+05 -4.656997E+04  8.834671E+03
       156  22  3.656230E+04  1.266290E+06  3.956027E+04 -1.648061E+05 -1.236776E+04 -2.443818E+04
       156  23  1.114489E+04  1.263378E+06  2.218291E+04 -1.528416E+05 -4.061597E+04 -1.316576E+04
       156  24  3.656417E+03  1.266386E+06  1.663174E+04 -1.648625E+05 -4.655521E+04 -1.866414E+03
       156  25 -2.107738E+05  2.633198E+05 -1.945099E+05 -1.394137E+05 -1.249491E+04  5.598895E+04
       156  26 -1.935358E+05  4.008953E+05 -1.392692E+05 -1.396772E+05 -4.067996E+04  2.170762E+04
       156  27 -1.662622E+05  5.365138E+05 -1.038091E+05 -1.639292E+05 -4.654046E+04 -1.255537E+04
       157   1  1.523970E+05  1.908790E+06  1.200155E+05 -1.680843E+05  4.274139E+04 -1.107344E+04
       157   2  1.198829E+05  1.770698E+06  9.752409E+04 -1.519046E+05  3.648816E+04 -2.590183E+04
       157   3  9.427649E+04  1.636189E+06  8.637134E+04 -1.612330E+05  2.777568E+04 -4.073386E+04
       157   4  3.253051E+03  1.265690E+06  1.627185E+04 -1.651983E+05  4.272573E+04 -7.429562E+02
       157   5  3.204049E+03  1.264363E+06  1.955618E+04 -1.524387E+05  3.646068E+04 -1.053668E+04
       157   6  9.193814E+03  1.265729E+06  3.069310E+04 -1.651878E+05  2.773548E+04 -2.033705E+04
       157   7 -1.459116E+05  6.229989E+05 -8.748264E+04 -1.623151E+05  4.271016E+04  9.577234E+03
       157   8 -1.134871E+05  7.582834E+05 -5.841660E+04 -1.529721E+05  3.643316E+04  4.816445E+03
       157   9 -7.589507E+04  8.954080E+05 -2.498631E+04 -1.691401E+05  2.769501E+04  4.810078E+01
       157  10  1.523950E+05  1.908790E+06  1.200118E+05 -1.680839E+05  6.671751E-10  3.003759E-09
       157  11  1.198813E+05  1.770697E+06  9.752033E+04 -1.519038E+05  1.475560E-09 -4.555864E-09
       157  12  9.427522E+04  1.636187E+06  8.636678E+04 -1.612321E+05  7.342804E-10 -2.730710E-11
       157  13  3.251089E+03  1.265689E+06  1.626842E+04 -1.651982E+05  6.860217E-10 -1.951354E-09
       157  14  3.202591E+03  1.264362E+06  1.955347E+04 -1.524383E+05  1.032179E-09 -2.110204E-09
       157  15  9.192877E+03  1.265729E+06  3.069088E+04 -1.651874E+05 -1.538796E-09 -4.108682E-10
       157  16 -1.459136E+05  6.229983E+05 -8.748624E+04 -1.623154E+05 -1.122619E-09 -3.786024E-09
       157  17 -1.134885E+05  7.582830E+05 -5.841914E+04 -1.529723E+05  2.144004E-10 -5.283307E-10
       157  18 -7.589590E+04  8.954078E+05 -2.498775E+04 -1.691401E+05  2.500879E-10  1.758251E-10
       157  19  1.523970E+05  1.908790E+06  1.200155E+05 -1.680843E+05 -4.274139E+04  1.107344E+04
       157  20  1.198829E+05  1.770698E+06  9.752409E+04 -1.519046E+05 -3.648816E+04  2.590183E+04
       157  21  9.427649E+04  1.636189E+06  8.637134E+04 -1.612330E+05 -2.777568E+04  4.073386E+04
       157  22  3.253051E+03  1.265690E+06  1.627185E+04 -1.651983E+05 -4.272573E+04  7.429562E+02
       157  23  3.204049E+03  1.264363E+06  1.955618E+04 -1.524387E+05 -3.646068E+04  1.053668E+04
       157  24  9.193814E+03  1.265729E+06  3.069310E+04 -1.651878E+05 -2.773548E+04  2.033705E+04
       157  25 -1.459116E+05  6.229989E+05 -8.748264E+04 -1.623151E+05 -4.271016E+04 -9.577234E+03
       157  26 -1.134871E+05  7.582834E+05 -5.841660E+04 -1.529721E+05 -3.643316E+04 -4.816445E+03
       157  27 -7.589507E+04  8.954080E+05 -2.498631E+04 -1.691401E+05 -2.769501E+04 -4.810078E+01
       158   1  7.615971E+04  1.554139E+06  8.157977E+04 -1.667315E+05  2.186601E+04 -4.594421E+04
       158   2  7.290339E+04  1.408054E+06  9.146275E+04 -1.102904E+05  1.217602E+04 -8.120020E+04
       158   3  1.324316E+05  1.282157E+06  1.399337E+05 -7.939708E+04  2.882424E+03 -1.164494E+05
       158   4  1.093075E+04  1.269655E+06  3.948565E+04 -1.652159E+05  2.182429E+04 -2.558500E+04
       158   5  3.922036E+04  1.259476E+06  7.036273E+04 -1.523293E+05  1.214069E+04 -6.165779E+04
       158   6  1.304340E+05  1.269594E+06  1.403905E+05 -1.649819E+05  2.858438E+03 -9.773043E+04
       158   7 -5.430176E+04  9.852540E+05 -2.608399E+03 -1.637009E+05  2.178267E+04 -5.234720E+03
       158   8  5.543215E+03  1.110925E+06  4.926479E+04 -1.943579E+05  1.210271E+04 -4.211985E+04
       158   9  1.284640E+05  1.257048E+06  1.408526E+05 -2.505649E+05  2.829301E+03 -7.901179E+04
       158  10  7.615863E+04  1.554137E+06  8.157491E+04 -1.667307E+05  1.176184E-09  2.837845E-10
       158  11  7.290146E+04  1.408047E+06  9.145011E+04 -1.102896E+05  2.073705E-09 -6.129740E-09
       158  12  1.324280E+05  1.282142E+06  1.399083E+05 -7.939681E+04  2.638652E-09 -4.252096E-10
       158  13  1.093007E+04  1.269655E+06  3.948353E+04 -1.652154E+05 -3.486493E-09 -2.004894E-09
       158  14  3.921919E+04  1.259472E+06  7.035533E+04 -1.523287E+05  2.593099E-09 -1.810827E-09
       158  15  1.304314E+05  1.269584E+06  1.403726E+05 -1.649817E+05  1.635483E-09 -1.177009E-10
       158  16 -5.430227E+04  9.852538E+05 -2.609342E+03 -1.637008E+05 -1.576374E-09 -1.340271E-09
       158  17  5.542582E+03  1.110923E+06  4.926119E+04 -1.943574E+05  7.581161E-10  1.075677E-09
       158  18  1.284623E+05  1.257041E+06  1.408408E+05 -2.505647E+05  7.191793E-10  8.525903E-10
       158  19  7.615971E+04  1.554139E+06  8.157977E+04 -1.667315E+05 -2.186601E+04  4.594421E+04
       158  20  7.290339E+04  1.408054E+06  9.146275E+04 -1.102904E+05 -1.217602E+04  8.120020E+04
       158  21  1.324316E+05  1.282157E+06  1.399337E+05 -7.939708E+04 -2.882424E+03  1.164494E+05
       158  22  1.093075E+04  1.269655E+06  3.948565E+04 -1.652159E+05 -2.182429E+04  2.558500E+04
       158  23  3.922036E+04  1.259476E+06  7.036273E+04 -1.523293E+05 -1.214069E+04  6.165779E+04
       158  24  1.304340E+05  1.269594E+06  1.403905E+05 -1.649819E+05 -2.858438E+03  9.773043E+04
       158  25 -5.430176E+04  9.852540E+05 -2.608399E+03 -1.637009E+05 -2.178267E+04  5.234720E+03
       158  26  5.543215E+03  1.110925E+06  4.926479E+04 -1.943579E+05 -1.210271E+04  4.211985E+04
       158  27  1.284640E+05  1.257048E+06  1.408526E+05 -2.505649E+05 -2.829301E+03  7.901179E+04
       159   1  3.538619E+05 -6.436270E+04  2.543049E+04  8.625336E+03  2.568949E+05  1.277625E+04
       159   2  4.127178E+05 -3.997202E+05 -1.646163E+05  1.909173E+04  1.740591E+05  3.464721E+04
       159   3  5.895110E+05 -3.269275E+05 -1.976636E+05 -9.345159E+04  9.129952E+04  2.917422E+04
       159   4  1.847310E+06  3.072483E+05  3.954276E+05 -5.978755E+04  2.702601E+05  1.279858E+04
       159   5  1.787752E+06 -5.808525E+04  1.706974E+05  2.321293E+03  1.773750E+05  3.464661E+04
       159   6  1.847592E+06 -1.402098E+04  1.096656E+05 -5.855656E+04  8.458329E+04  2.916352E+04
       159   7  3.342791E+06  6.787116E+05  7.652624E+05 -1.283670E+05  2.836567E+05  1.281797E+04
       159   8  3.164507E+06  2.834117E+05  5.058741E+05 -1.448762E+04  1.806978E+05  3.464583E+04
       159   9  3.107114E+06  2.987732E+05  4.168803E+05 -2.359130E+04  7.785336E+04  2.915208E+04
       159  10  3.537910E+05 -6.438058E+04  2.530624E+04  8.622693E+03 -1.454677E-09  3.267404E-10
       159  11  4.126850E+05 -3.997296E+05 -1.646754E+05  1.908687E+04 -2.821212E-09  5.119400E-10
       159  12  5.895018E+05 -3.269306E+05 -1.976809E+05 -9.345373E+04  1.163398E-10 -8.034618E-10
       159  13  1.847232E+06  3.072286E+05  3.952905E+05 -5.979034E+04 -1.045653E-09  3.260232E-10
       159  14  1.787718E+06 -5.809495E+04  1.706362E+05  2.316348E+03  5.473738E-10  6.195435E-10
       159  15  1.847584E+06 -1.402381E+04  1.096506E+05 -5.855855E+04  3.956576E-10 -4.343220E-10
       159  16  3.342705E+06  6.786899E+05  7.651117E+05 -1.283699E+05  1.117940E-09  2.563537E-10
       159  17  3.164472E+06  2.834017E+05  5.058108E+05 -1.449265E+04 -1.301002E-10  5.619647E-10
       159  18  3.107108E+06  2.987707E+05  4.168674E+05 -2.359313E+04  1.514916E-10 -4.026593E-10
       159  19  3.538619E+05 -6.436270E+04  2.543049E+04  8.625336E+03 -2.568949E+05 -1.277625E+04
       159  20  4.127178E+05 -3.997202E+05 -1.646163E+05  1.909173E+04 -1.740591E+05 -3.464721E+04
       159  21  5.895110E+05 -3.269275E+05 -1.976636E+05 -9.345159E+04 -9.129952E+04 -2.917422E+04
       159  22  1.847310E+06  3.072483E+05  3.954276E+05 -5.978755E+04 -2.702601E+05 -1.279858E+04
       159  23  1.787752E+06 -5.808525E+04  1.706974E+05  2.321293E+03 -1.773750E+05 -3.464661E+04
       159  24  1.847592E+06 -1.402098E+04  1.096656E+05 -5.855656E+04 -8.458329E+04 -2.916352E+04
       159  25  3.342791E+06  6.787116E+05  7.652624E+05 -1.283670E+05 -2.836567E+05 -1.281797E+04
       159  26  3.164507E+06  2.834117E+05  5.058741E+05 -1.448762E+04 -1.806978E+05 -3.464583E+04
       159  27  3.107114E+06  2.987732E+05  4.168803E+05 -2.359130E+04 -7.785336E+04 -2.915208E+04
       160   1  7.930975E+05 -2.180473E+05 -1.623326E+05 -4.784748E+04  6.680764E+04  2.264748E+04
       160   2  8.869428E+05 -2.385162E+05 -1.825248E+05 -8.016062E+01  4.477016E+04  2.155588E+04
       160   3  9.986531E+05 -2.071533E+05 -1.750031E+05 -5.951115E+04  2.272352E+04  1.780860E+04
       160   4  1.825151E+06  3.851858E+04  9.001624E+04 -5.543815E+04  6.697609E+04  2.264437E+04
       160   5  1.816179E+06 -7.555299E+03  4.439500E+04 -1.823157E+03  4.394716E+04  2.155328E+04
       160   6  1.825207E+06 -1.667863E+03  2.714207E+04 -5.539553E+04  2.091271E+04  1.780787E+04
       160   7  2.858172E+06  2.950061E+05  3.422874E+05 -6.304170E+04  6.714475E+04  2.264126E+04
       160   8  2.746200E+06  2.233420E+05  2.712519E+05 -3.568855E+03  4.312289E+04  2.155068E+04
       160   9  2.652383E+06  2.037673E+05  2.292375E+05 -5.127436E+04  1.909947E+04  1.780712E+04
       160  10  7.930926E+05 -2.180490E+05 -1.623419E+05 -4.784870E+04 -4.994615E-10 -6.978332E-10
       160  11  8.869406E+05 -2.385172E+05 -1.825294E+05 -8.093784E+01  3.505712E-10  6.081900E-10
       160  12  9.986524E+05 -2.071538E+05 -1.750047E+05 -5.951147E+04  2.192465E-10  1.971045E-10
       160  13  1.825146E+06  3.851683E+04  9.000687E+04 -5.543937E+04 -1.151572E-09 -6.208369E-10
       160  14  1.816176E+06 -7.556315E+03  4.439051E+04 -1.823919E+03 -2.153301E-09  2.376745E-10
       160  15  1.825207E+06 -1.668321E+03  2.714066E+04 -5.539583E+04 -6.948560E-10 -2.848268E-11
       160  16  2.858167E+06  2.950043E+05  3.422780E+05 -6.304293E+04  1.098314E-10 -4.238874E-10
       160  17  2.746197E+06  2.233410E+05  2.712476E+05 -3.569603E+03  4.616145E-10 -6.881713E-11
       160  18  2.652382E+06  2.037668E+05  2.292362E+05 -5.127463E+04 -1.078402E-09  1.262534E-11
       160  19  7.930975E+05 -2.180473E+05 -1.623326E+05 -4.784748E+04 -6.680764E+04 -2.264748E+04
       160  20  8.869428E+05 -2.385162E+05 -1.825248E+05 -8.016062E+01 -4.477016E+04 -2.155588E+04
       160  21  9.986531E+05 -2.071533E+05 -1.750031E+05 -5.951115E+04 -2.272352E+04 -1.780860E+04
       160  22  1.825151E+06  3.851858E+04  9.001624E+04 -5.543815E+04 -6.697609E+04 -2.264437E+04
       160  23  1.816179E+06 -7.555299E+03  4.439500E+04 -1.823157E+03 -4.394716E+04 -2.155328E+04
       160  24  1.825207E+06 -1.667863E+03  2.714207E+04 -5.539553E+04 -2.091271E+04 -1.780787E+04
       160  25  2.858172E+06  2.950061E+05  3.422874E+05 -6.304170E+04 -6.714475E+04 -2.264126E+04
       160  26  2.746200E+06  2.233420E+05  2.712519E+05 -3.568855E+03 -4.312289E+04 -2.155068E+04
       160  27  2.652383E+06  2.037673E+05  2.292375E+05 -5.127436E+04 -1.909947E+04 -1.780712E+04
       161   1  1.197749E+06 -1.502964E+05 -1.307598E+05 -5.209090E+04  1.766436E+04  1.532475E+04
       161   2  1.290035E+06 -1.328139E+05 -1.180504E+05 -3.864637E+03  1.190488E+04  1.214768E+04
       161   3  1.385110E+06 -1.086158E+05 -9.984582E+04 -5.334221E+04  6.139687E+03  8.807438E+03
       161   4  1.821911E+06  4.770520E+03  2.142881E+04 -5.329519E+04  1.655759E+04  1.532451E+04
       161   5  1.820522E+06 -9.858906E+02  1.149586E+04 -4.447754E+03  1.073391E+04  1.214830E+04
       161   6  1.821925E+06 -1.799445E+01  7.099343E+03 -5.329888E+04  4.905376E+03  8.809002E+03
       161   7  2.446427E+06  1.598087E+05  1.735891E+05 -5.450062E+04  1.544971E+04  1.532427E+04
       161   8  2.351265E+06  1.308213E+05  1.410217E+05 -5.031298E+03  9.561943E+03  1.214893E+04
       161   9  2.258913E+06  1.085657E+05  1.140306E+05 -5.325545E+04  3.670199E+03  8.810566E+03
       161  10  1.197749E+06 -1.502967E+05 -1.307608E+05 -5.209111E+04 -5.657252E-10 -4.213844E-10
       161  11  1.290034E+06 -1.328140E+05 -1.180510E+05 -3.864754E+03  1.051193E-09 -2.165505E-10
       161  12  1.385110E+06 -1.086159E+05 -9.984604E+04 -5.334225E+04  1.326202E-10 -4.710751E-11
       161  13  1.821911E+06  4.770194E+03  2.142785E+04 -5.329539E+04 -2.112372E-09 -1.670180E-10
       161  14  1.820522E+06 -9.860801E+02  1.149537E+04 -4.447859E+03 -2.444094E-10 -2.499731E-10
       161  15  1.821925E+06 -1.808429E+01  7.099152E+03 -5.329892E+04  3.025397E-10  3.008885E-10
       161  16  2.446427E+06  1.598084E+05  1.735882E+05 -5.450081E+04  3.493411E-10 -9.078991E-11
       161  17  2.351265E+06  1.308212E+05  1.410212E+05 -5.031392E+03 -3.294924E-10 -1.309111E-10
       161  18  2.258913E+06  1.085656E+05  1.140304E+05 -5.325548E+04 -5.718937E-10  3.080853E-10
       161  19  1.197749E+06 -1.502964E+05 -1.307598E+05 -5.209090E+04 -1.766436E+04 -1.532475E+04
       161  20  1.290035E+06 -1.328139E+05 -1.180504E+05 -3.864637E+03 -1.190488E+04 -1.214768E+04
       161  21  1.385110E+06 -1.086158E+05 -9.984582E+04 -5.334221E+04 -6.139687E+03 -8.807438E+03
       161  22  1.821911E+06  4.770520E+03  2.142881E+04 -5.329519E+04 -1.655759E+04 -1.532451E+04
       161  23  1.820522E+06 -9.858906E+02  1.149586E+04 -4.447754E+03 -1.073391E+04 -1.214830E+04
       161  24  1.821925E+06 -1.799445E+01  7.099343E+03 -5.329888E+04 -4.905376E+03 -8.809002E+03
       161  25  2.446427E+06  1.598087E+05  1.735891E+05 -5.450062E+04 -1.544971E+04 -1.532427E+04
       161  26  2.351265E+06  1.308213E+05  1.410217E+05 -5.031298E+03 -9.561943E+03 -1.214893E+04
       161  27  2.258913E+06  1.085657E+05  1.140306E+05 -5.325545E+04 -3.670199E+03 -8.810566E+03
       162   1  1.573280E+06 -6.088802E+04 -5.462661E+04 -5.191217E+04  4.916066E+03  6.859598E+03
       162   2  1.662600E+06 -3.954557E+04 -3.500009E+04 -5.468531E+03  3.036975E+03  3.625555E+03
       162   3  1.752105E+06 -1.701132E+04 -1.393239E+04 -5.226975E+04  1.156209E+03  4.050208E+02
       162   4  1.821382E+06  7.007935E+02  5.673462E+03 -5.230684E+04  3.746824E+03  6.861465E+03
       162   5  1.821297E+06 -1.174103E+02  3.746761E+03 -5.685555E+03  1.871885E+03  3.627644E+03
       162   6  1.821385E+06  2.554961E+02  3.258075E+03 -5.230762E+04 -4.460726E+00  4.073554E+02
       162   7  2.069541E+06  6.228509E+04  6.596909E+04 -5.270164E+04  2.577116E+03  6.863333E+03
       162   8  1.980016E+06  3.930890E+04  4.249179E+04 -5.902624E+03  7.064989E+02  3.629733E+03
       162   9  1.890670E+06  1.752195E+04  2.044819E+04 -5.234550E+04 -1.165259E+03  4.096901E+02
       162  10  1.573280E+06 -6.088808E+04 -5.462674E+04 -5.191220E+04  5.685076E-10  1.254747E-10
       162  11  1.662600E+06 -3.954559E+04 -3.500014E+04 -5.468540E+03  5.175633E-10  4.573579E-11
       162  12  1.752105E+06 -1.701132E+04 -1.393240E+04 -5.226975E+04 -1.155619E-09 -4.591827E-11
       162  13  1.821382E+06  7.007391E+02  5.673347E+03 -5.230686E+04 -4.226713E-10  6.874315E-11
       162  14  1.821297E+06 -1.174254E+02  3.746730E+03 -5.685561E+03  3.801407E-10  3.967704E-10
       162  15  1.821385E+06  2.554959E+02  3.258075E+03 -5.230762E+04  2.082867E-10  5.674430E-10
       162  16  2.069541E+06  6.228504E+04  6.596899E+04 -5.270165E+04 -6.661449E-10  1.259840E-10
       162  17  1.980016E+06  3.930889E+04  4.249176E+04 -5.902626E+03  8.908941E-11 -3.011659E-10
       162  18  1.890670E+06  1.752195E+04  2.044819E+04 -5.234550E+04  1.406168E-09  1.676617E-10
       162  19  1.573280E+06 -6.088802E+04 -5.462661E+04 -5.191217E+04 -4.916066E+03 -6.859598E+03
       162  20  1.662600E+06 -3.954557E+04 -3.500009E+04 -5.468531E+03 -3.036975E+03 -3.625555E+03
       162  21  1.752105E+06 -1.701132E+04 -1.393239E+04 -5.226975E+04 -1.156209E+03 -4.050208E+02
       162  22  1.821382E+06  7.007935E+02  5.673462E+03 -5.230684E+04 -3.746824E+03 -6.861465E+03
       162  23  1.821297E+06 -1.174103E+02  3.746761E+03 -5.685555E+03 -1.871885E+03 -3.627644E+03
       162  24  1.821385E+06  2.554961E+02  3.258075E+03 -5.230762E+04  4.460726E+00 -4.073554E+02
       162  25  2.069541E+06  6.228509E+04  6.596909E+04 -5.270164E+04 -2.577116E+03 -6.863333E+03
       162  26  1.980016E+06  3.930890E+04  4.249179E+04 -5.902624E+03 -7.064989E+02 -3.629733E+03
       162  27  1.890670E+06  1.752195E+04  2.044819E+04 -5.234550E+04  1.165259E+03 -4.096901E+02
       163   1  1.936785E+06  2.895058E+04  3.180323E+04 -5.245873E+04  5.516487E+02 -1.464258E+03
       163   2  2.026359E+06  5.079706E+04  5.437103E+04 -5.870765E+03 -1.596584E+03 -4.688469E+03
       163   3  2.116242E+06  7.401443E+04  7.860725E+04 -5.282321E+04 -3.743347E+03 -7.937256E+03
       163   4  1.821411E+06  2.358624E+02  3.362883E+03 -5.237415E+04 -6.087942E+02 -1.461951E+03
       163   5  1.821258E+06 -1.492672E+02  4.304892E+03 -5.602485E+03 -2.765377E+03 -4.686472E+03
       163   6  1.821407E+06  8.387768E+02  6.922089E+03 -5.237313E+04 -4.920184E+03 -7.935546E+03
       163   7  1.706049E+06 -2.847984E+04 -2.507844E+04 -5.228958E+04 -1.769022E+03 -1.459645E+03
       163   8  1.616195E+06 -5.109869E+04 -4.576430E+04 -5.334277E+03 -3.933786E+03 -4.684475E+03
       163   9  1.526652E+06 -7.234325E+04 -6.476935E+04 -5.192322E+04 -6.096465E+03 -7.933837E+03
       163  10  1.936785E+06  2.895058E+04  3.180323E+04 -5.245873E+04  7.225619E-10 -7.207617E-11
       163  11  2.026359E+06  5.079704E+04  5.437098E+04 -5.870771E+03  1.023958E-09 -5.740740E-10
       163  12  2.116242E+06  7.401436E+04  7.860711E+04 -5.282324E+04 -6.944570E-10  6.543288E-10
       163  13  1.821411E+06  2.358600E+02  3.362878E+03 -5.237415E+04  1.452707E-09  5.792934E-10
       163  14  1.821258E+06 -1.492928E+02  4.304837E+03 -5.602496E+03 -1.563559E-10 -3.158670E-10
       163  15  1.821407E+06  8.387027E+02  6.921925E+03 -5.237316E+04  4.549967E-10  6.976598E-10
       163  16  1.706049E+06 -2.847985E+04 -2.507845E+04 -5.228958E+04  3.568340E-10  9.471910E-11
       163  17  1.616195E+06 -5.109872E+04 -4.576437E+04 -5.334292E+03 -8.369783E-11 -8.942188E-11
       163  18  1.526652E+06 -7.234333E+04 -6.476954E+04 -5.192326E+04  6.953397E-10 -1.030913E-10
       163  19  1.936785E+06  2.895058E+04  3.180323E+04 -5.245873E+04 -5.516487E+02  1.464258E+03
       163  20  2.026359E+06  5.079706E+04  5.437103E+04 -5.870765E+03  1.596584E+03  4.688469E+03
       163  21  2.116242E+06  7.401443E+04  7.860725E+04 -5.282321E+04  3.743347E+03  7.937256E+03
       163  22  1.821411E+06  2.358624E+02  3.362883E+03 -5.237415E+04  6.087942E+02  1.461951E+03
       163  23  1.821258E+06 -1.492672E+02  4.304892E+03 -5.602485E+03  2.765377E+03  4.686472E+03
       163  24  1.821407E+06  8.387768E+02  6.922089E+03 -5.237313E+04  4.920184E+03  7.935546E+03
       163  25  1.706049E+06 -2.847984E+04 -2.507844E+04 -5.228958E+04  1.769022E+03  1.459645E+03
       163  26  1.616195E+06 -5.109869E+04 -4.576430E+04 -5.334277E+03  3.933786E+03  4.684475E+03
       163  27  1.526652E+06 -7.234325E+04 -6.476935E+04 -5.192322E+04  6.096465E+03  7.933837E+03
       164   1  2.306968E+06  1.203906E+05  1.273944E+05 -5.332585E+04 -5.098783E+03 -9.898477E+03
       164   2  2.399811E+06  1.426683E+05  1.558386E+05 -4.785668E+03 -1.247082E+04 -1.326298E+04
       164   3  2.496230E+06  1.733769E+05  1.912757E+05 -5.487302E+04 -1.983847E+04 -1.646616E+04
       164   4  1.822087E+06 -8.407361E+01  8.776290E+03 -5.350662E+04 -6.342582E+03 -9.897134E+03
       164   5  1.820297E+06 -1.246543E+03  1.441458E+04 -4.188250E+03 -1.365036E+04 -1.326265E+04
       164   6  1.822070E+06  6.016240E+03  2.700709E+04 -5.350303E+04 -2.095265E+04 -1.646678E+04
       164   7  1.337419E+06 -1.205761E+05 -1.098590E+05 -5.368717E+04 -7.585412E+03 -9.895790E+03
       164   8  1.241089E+06 -1.451861E+05 -1.270339E+05 -3.591316E+03 -1.482881E+04 -1.326234E+04
       164   9  1.148323E+06 -1.613779E+05 -1.372945E+05 -5.213445E+04 -2.206562E+04 -1.646741E+04
       164  10  2.306968E+06  1.203905E+05  1.273942E+05 -5.332589E+04  2.675085E-10  1.893581E-10
       164  11  2.399810E+06  1.426681E+05  1.558380E+05 -4.785801E+03  4.844873E-10 -1.222868E-09
       164  12  2.496230E+06  1.733765E+05  1.912744E+05 -5.487329E+04 -6.550508E-11 -6.638405E-11
       164  13  1.822087E+06 -8.418966E+01  8.776030E+03 -5.350667E+04 -9.641625E-10 -1.685831E-10
       164  14  1.820297E+06 -1.246782E+03  1.441390E+04 -4.188396E+03  3.828064E-10 -1.312284E-09
       164  15  1.822070E+06  6.015831E+03  2.700576E+04 -5.350331E+04  1.769715E-09 -4.366038E-11
       164  16  1.337419E+06 -1.205762E+05 -1.098593E+05 -5.368723E+04  4.435357E-10 -1.106343E-10
       164  17  1.241088E+06 -1.451863E+05 -1.270346E+05 -3.591474E+03 -9.316644E-11 -1.215678E-09
       164  18  1.148322E+06 -1.613783E+05 -1.372959E+05 -5.213474E+04  1.405615E-12  1.052026E-11
       164  19  2.306968E+06  1.203906E+05  1.273944E+05 -5.332585E+04  5.098783E+03  9.898477E+03
       164  20  2.399811E+06  1.426683E+05  1.558386E+05 -4.785668E+03  1.247082E+04  1.326298E+04
       164  21  2.496230E+06  1.733769E+05  1.912757E+05 -5.487302E+04  1.983847E+04  1.646616E+04
       164  22  1.822087E+06 -8.407361E+01  8.776290E+03 -5.350662E+04  6.342582E+03  9.897134E+03
       164  23  1.820297E+06 -1.246543E+03  1.441458E+04 -4.188250E+03  1.365036E+04  1.326265E+04
       164  24  1.822070E+06  6.016240E+03  2.700709E+04 -5.350303E+04  2.095265E+04  1.646678E+04
       164  25  1.337419E+06 -1.205761E+05 -1.098590E+05 -5.368717E+04  7.585412E+03  9.895790E+03
       164  26  1.241089E+06 -1.451861E+05 -1.270339E+05 -3.591316E+03  1.482881E+04  1.326234E+04
       164  27  1.148323E+06 -1.613779E+05 -1.372945E+05 -5.213445E+04  2.206562E+04  1.646741E+04
       165   1  2.705482E+06  2.162262E+05  2.490283E+05 -5.034145E+04 -2.459358E+04 -1.899440E+04
       165   2  2.798586E+06  2.346925E+05  2.960045E+05 -3.471189E+03 -5.471180E+04 -2.280641E+04
       165   3  2.914337E+06  3.188781E+05  3.794244E+05 -6.537308E+04 -8.483051E+04 -2.387009E+04
       165   4  1.826188E+06 -2.145299E+03  3.422095E+04 -5.574232E+04 -2.644017E+04 -1.899566E+04
       165   5  1.814907E+06 -9.517382E+03  5.606672E+04 -1.386031E+03 -5.552471E+04 -2.280955E+04
       165   6  1.826118E+06  4.870785E+04  1.136827E+05 -5.581127E+04 -8.460469E+04 -2.387387E+04
       165   7  9.475949E+05 -2.205737E+05 -1.806427E+05 -6.113550E+04 -2.828413E+04 -1.899690E+04
       165   8  8.321068E+05 -2.537984E+05 -1.839413E+05  6.956693E+02 -5.633629E+04 -2.281269E+04
       165   9  7.389737E+05 -2.215492E+05 -1.521452E+05 -4.626655E+04 -8.437916E+04 -2.387765E+04
       165  10  2.705481E+06  2.162257E+05  2.490265E+05 -5.034182E+04  2.346056E-09  1.395690E-10
       165  11  2.798582E+06  2.346912E+05  2.959979E+05 -3.472193E+03  4.895683E-10  1.828929E-10
       165  12  2.914329E+06  3.188756E+05  3.794099E+05 -6.537471E+04 -3.478260E-09  1.461987E-10
       165  13  1.826187E+06 -2.145874E+03  3.421897E+04 -5.574272E+04  9.315988E-10  5.867558E-11
       165  14  1.814904E+06 -9.518766E+03  5.605996E+04 -1.387050E+03  4.042057E-10  2.880095E-10
       165  15  1.826110E+06  4.870532E+04  1.136682E+05 -5.581289E+04 -2.891963E-10  4.768771E-11
       165  16  9.475940E+05 -2.205743E+05 -1.806449E+05 -6.113593E+04 -2.457889E-09  5.115640E-10
       165  17  8.321032E+05 -2.537999E+05 -1.839483E+05  6.946343E+02 -1.249724E-09 -2.237835E-11
       165  18  7.389659E+05 -2.215517E+05 -1.521597E+05 -4.626817E+04  2.027319E-09 -3.423806E-10
       165  19  2.705482E+06  2.162262E+05  2.490283E+05 -5.034145E+04  2.459358E+04  1.899440E+04
       165  20  2.798586E+06  2.346925E+05  2.960045E+05 -3.471189E+03  5.471180E+04  2.280641E+04
       165  21  2.914337E+06  3.188781E+05  3.794244E+05 -6.537308E+04  8.483051E+04  2.387009E+04
       165  22  1.826188E+06 -2.145299E+03  3.422095E+04 -5.574232E+04  2.644017E+04  1.899566E+04
       165  23  1.814907E+06 -9.517382E+03  5.606672E+04 -1.386031E+03  5.552471E+04  2.280955E+04
       165  24  1.826118E+06  4.870785E+04  1.136827E+05 -5.581127E+04  8.460469E+04  2.387387E+04
       165  25  9.475949E+05 -2.205737E+05 -1.806427E+05 -6.113550E+04  2.828413E+04  1.899690E+04
       165  26  8.321068E+05 -2.537984E+05 -1.839413E+05  6.956693E+02  5.633629E+04  2.281269E+04
       165  27  7.389737E+05 -2.215492E+05 -1.521452E+05 -4.626655E+04  8.437916E+04  2.387765E+04
       166   1  3.172769E+06  3.097851E+05  4.600430E+05 -1.488986E+04 -9.989045E+04 -3.061482E+04
       166   2  3.217274E+06  2.833745E+05  5.657640E+05 -1.848183E+04 -2.275965E+05 -3.637050E+04
       166   3  3.413247E+06  7.751609E+05  8.849957E+05 -1.478770E+05 -3.554385E+05 -1.374719E+04
       166   4  1.854363E+06 -1.768703E+04  1.384779E+05 -5.903343E+04 -1.068351E+05 -3.062675E+04
       166   5  1.779204E+06 -7.327189E+04  2.156824E+05  3.003886E+03 -2.240508E+05 -3.637309E+04
       166   6  1.854020E+06  3.881493E+05  4.994805E+05 -6.076078E+04 -3.413756E+05 -1.373848E+04
       166   7  5.375388E+05 -3.452800E+05 -1.832124E+05 -1.030842E+05 -1.137649E+05 -3.063770E+04
       166   8  3.430117E+05 -4.300681E+05 -1.345485E+05  2.443836E+04 -2.205128E+05 -3.637544E+04
       166   9  2.970083E+05  9.867764E+02  1.137904E+05  2.613520E+04 -3.273471E+05 -1.372588E+04
       166  10  3.172758E+06  3.097814E+05  4.600225E+05 -1.489232E+04 -8.968210E-10  1.029768E-09
       166  11  3.217219E+06  2.833592E+05  5.656646E+05 -1.848849E+04 -7.426093E-10  6.158839E-10
       166  12  3.413112E+06  7.751270E+05  8.847592E+05 -1.478810E+05  4.518202E-10 -5.695479E-10
       166  13  1.854351E+06 -1.769109E+04  1.384547E+05 -5.903606E+04 -2.156437E-09  2.789272E-10
       166  14  1.779150E+06 -7.328673E+04  2.155859E+05  2.997328E+03 -3.717348E-09  9.111722E-11
       166  15  1.853895E+06  3.881179E+05  4.992618E+05 -6.076456E+04  5.023240E-10  3.177560E-10
       166  16  5.375247E+05 -3.452845E+05 -1.832384E+05 -1.030870E+05  7.027446E-10 -6.538245E-11
       166  17  3.429591E+05 -4.300826E+05 -1.346423E+05  2.443190E+04 -4.718823E-10  1.780819E-09
       166  18  2.968933E+05  9.578280E+02  1.135888E+05  2.613158E+04 -1.648869E-09  2.231620E-10
       166  19  3.172769E+06  3.097851E+05  4.600430E+05 -1.488986E+04  9.989045E+04  3.061482E+04
       166  20  3.217274E+06  2.833745E+05  5.657640E+05 -1.848183E+04  2.275965E+05  3.637050E+04
       166  21  3.413247E+06  7.751609E+05  8.849957E+05 -1.478770E+05  3.554385E+05  1.374719E+04
       166  22  1.854363E+06 -1.768703E+04  1.384779E+05 -5.903343E+04  1.068351E+05  3.062675E+04
       166  23  1.779204E+06 -7.327189E+04  2.156824E+05  3.003886E+03  2.240508E+05  3.637309E+04
       166  24  1.854020E+06  3.881493E+05  4.994805E+05 -6.076078E+04  3.413756E+05  1.373848E+04
       166  25  5.375388E+05 -3.452800E+05 -1.832124E+05 -1.030842E+05  1.137649E+05  3.063770E+04
       166  26  3.430117E+05 -4.300681E+05 -1.345485E+05  2.443836E+04  2.205128E+05  3.637544E+04
       166  27  2.970083E+05  9.867764E+02  1.137904E+05  2.613520E+04  3.273471E+05  1.372588E+04
       167   1 -5.341131E+04 -1.222571E+05 -3.064010E+04 -1.052561E+04 -4.459641E+03  6.223641E+04
       167   2 -1.412710E+05 -1.231190E+05 -8.098388E+04 -4.638781E+03 -1.274054E+04  4.198809E+04
       167   3 -1.266743E+05 -9.501911E+04 -9.240224E+04  1.541728E+04 -1.176240E+04  2.177854E+04
       167   4  7.700946E+04  4.010630E+05  9.914979E+04  6.054244E+03 -4.478319E+03  6.695459E+04
       167   5 -1.455960E+04  3.863098E+05  4.340052E+04 -1.202009E+03 -1.274497E+04  4.335613E+04
       167   6 -3.135982E+03  4.010765E+05  2.887927E+04  5.710029E+03 -1.175508E+04  1.979699E+04
       167   7  2.074109E+05  9.246324E+05  2.289195E+05  2.264836E+04 -4.496737E+03  7.167672E+04
       167   8  1.121327E+05  8.959752E+05  1.677660E+05  2.237826E+03 -1.274939E+04  4.472528E+04
       167   9  1.203844E+05  8.973966E+05  1.501429E+05 -4.004802E+03 -1.174770E+04  1.781386E+04
       167  10 -5.341237E+04 -1.222612E+05 -3.064742E+04 -1.052539E+04  4.052104E-10  3.877447E-10
       167  11 -1.412717E+05 -1.231209E+05 -8.098750E+04 -4.638351E+03 -1.082269E-09 -2.810458E-10
       167  12 -1.266746E+05 -9.501966E+04 -9.240339E+04  1.541749E+04 -8.278876E-12 -1.019263E-09
       167  13  7.700824E+04  4.010582E+05  9.914133E+04  6.054486E+03  9.320460E-10 -1.241072E-10
       167  14 -1.456028E+04  3.863078E+05  4.339668E+04 -1.201564E+03 -1.236811E-11  2.032646E-11
       167  15 -3.136236E+03  4.010761E+05  2.887828E+04  5.710216E+03  7.437162E-11 -9.810438E-11
       167  16  2.074095E+05  9.246269E+05  2.289098E+05  2.264862E+04  6.696793E-10 -4.256531E-10
       167  17  1.121320E+05  8.959730E+05  1.677620E+05  2.238285E+03  2.932465E-09  1.490924E-11
       167  18  1.203842E+05  8.973962E+05  1.501420E+05 -4.004634E+03  3.007260E-10  9.949137E-10
       167  19 -5.341131E+04 -1.222571E+05 -3.064010E+04 -1.052561E+04  4.459641E+03 -6.223641E+04
       167  20 -1.412710E+05 -1.231190E+05 -8.098388E+04 -4.638781E+03  1.274054E+04 -4.198809E+04
       167  21 -1.266743E+05 -9.501911E+04 -9.240224E+04  1.541728E+04  1.176240E+04 -2.177854E+04
       167  22  7.700946E+04  4.010630E+05  9.914979E+04  6.054244E+03  4.478319E+03 -6.695459E+04
       167  23 -1.455960E+04  3.863098E+05  4.340052E+04 -1.202009E+03  1.274497E+04 -4.335613E+04
       167  24 -3.135982E+03  4.010765E+05  2.887927E+04  5.710029E+03  1.175508E+04 -1.979699E+04
       167  25  2.074109E+05  9.246324E+05  2.289195E+05  2.264836E+04  4.496737E+03 -7.167672E+04
       167  26  1.121327E+05  8.959752E+05  1.677660E+05  2.237826E+03  1.274939E+04 -4.472528E+04
       167  27  1.203844E+05  8.973966E+05  1.501429E+05 -4.004802E+03  1.174770E+04 -1.781386E+04
       168   1 -1.073694E+05 -7.392129E+04 -9.060075E+04  4.190359E+03 -1.019005E+04  1.462050E+04
       168   2 -1.163364E+05 -6.464360E+04 -9.756144E+04 -1.964090E+02 -1.067263E+04  7.786622E+03
       168   3 -1.083906E+05 -4.969533E+04 -9.573202E+04  8.080552E+03 -9.515562E+03  9.569889E+02
       168   4  9.552087E+03  3.958035E+05  2.443097E+04  5.502889E+03 -1.019110E+04  1.510531E+04
       168   5 -2.461944E+03  3.929195E+05  1.431456E+04 -8.408283E+02 -1.067180E+04  7.676337E+03
       168   6  2.533472E+03  3.958057E+05  1.339684E+04  5.478557E+03 -9.513338E+03  2.517361E+02
       168   7  1.264572E+05  8.657293E+05  1.394466E+05  6.816579E+03 -1.019215E+04  1.559049E+04
       168   8  1.113971E+05  8.506734E+05  1.261753E+05 -1.485584E+03 -1.067097E+04  7.565968E+03
       168   9  1.134429E+05  8.414875E+05  1.225112E+05  2.874804E+03 -9.511108E+03 -4.540217E+02
       168  10 -1.073695E+05 -7.392155E+04 -9.060135E+04  4.190479E+03 -1.494303E-09 -1.207245E-10
       168  11 -1.163366E+05 -6.464370E+04 -9.756177E+04 -1.963421E+02 -5.294346E-10  1.046128E-09
       168  12 -1.083907E+05 -4.969536E+04 -9.573219E+04  8.080559E+03  1.274178E-10  1.314792E-09
       168  13  9.551915E+03  3.958032E+05  2.443035E+04  5.503013E+03 -1.049256E-09 -4.135375E-11
       168  14 -2.462082E+03  3.929195E+05  1.431423E+04 -8.407623E+02 -1.111755E-09 -5.119296E-11
       168  15  2.533375E+03  3.958057E+05  1.339667E+04  5.478558E+03 -1.350427E-09  1.959964E-11
       168  16  1.264570E+05  8.657290E+05  1.394459E+05  6.816707E+03 -1.056938E-09  1.143903E-10
       168  17  1.113969E+05  8.506733E+05  1.261749E+05 -1.485519E+03 -1.374086E-09 -8.950950E-10
       168  18  1.134428E+05  8.414875E+05  1.225110E+05  2.874800E+03  2.943430E-11 -1.219195E-09
       168  19 -1.073694E+05 -7.392129E+04 -9.060075E+04  4.190359E+03  1.019005E+04 -1.462050E+04
       168  20 -1.163364E+05 -6.464360E+04 -9.756144E+04 -1.964090E+02  1.067263E+04 -7.786622E+03
       168  21 -1.083906E+05 -4.969533E+04 -9.573202E+04  8.080552E+03  9.515562E+03 -9.569889E+02
       168  22  9.552087E+03  3.958035E+05  2.443097E+04  5.502889E+03  1.019110E+04 -1.510531E+04
       168  23 -2.461944E+03  3.929195E+05  1.431456E+04 -8.408283E+02  1.067180E+04 -7.676337E+03
       168  24  2.533472E+03  3.958057E+05  1.339684E+04  5.478557E+03  9.513338E+03 -2.517361E+02
       168  25  1.264572E+05  8.657293E+05  1.394466E+05  6.816579E+03  1.019215E+04 -1.559049E+04
       168  26  1.113971E+05  8.506734E+05  1.261753E+05 -1.485584E+03  1.067097E+04 -7.565968E+03
       168  27  1.134429E+05  8.414875E+05  1.225112E+05  2.874804E+03  9.511108E+03  4.540217E+02
       169   1 -1.048008E+05 -2.492419E+04 -8.961252E+04  3.177057E+03 -1.011670E+04 -3.317710E+03
       169   2 -1.068804E+05 -1.875443E+04 -8.491053E+04  1.582503E+03 -1.004636E+04 -9.155118E+03
       169   3 -7.611961E+04 -3.186497E+03 -6.810952E+04  1.154892E+04 -3.226900E+03 -1.498158E+04
       169   4  1.000228E+02  3.967118E+05  1.340060E+04  5.225225E+03 -1.011905E+04 -2.124264E+03
       169   5 -4.722960E+03  3.918023E+05  1.535177E+04 -5.348684E+02 -1.004345E+04 -1.039584E+04
       169   6  2.370553E+04  3.967080E+05  3.108621E+04  5.265452E+03 -3.220619E+03 -1.865636E+04
       169   7  1.049877E+05  8.185098E+05  1.164008E+05  7.274880E+03 -1.012139E+04 -9.300096E+02
       169   8  9.742202E+04  8.025126E+05  1.156018E+05 -2.653567E+03 -1.004052E+04 -1.163737E+04
       169   9  1.235188E+05  7.967477E+05  1.302701E+05 -1.022006E+03 -3.214266E+03 -2.233351E+04
       169  10 -1.048009E+05 -2.492423E+04 -8.961273E+04  3.177030E+03 -3.855792E-10 -1.533834E-09
       169  11 -1.068805E+05 -1.875454E+04 -8.491088E+04  1.582429E+03  1.384342E-09 -9.635618E-10
       169  12 -7.611968E+04 -3.186741E+03 -6.810997E+04  1.154888E+04 -3.303918E-11 -1.229924E-10
       169  13  9.991158E+01  3.967118E+05  1.340040E+04  5.225207E+03  2.660737E-10 -2.775612E-11
       169  14 -4.723097E+03  3.918021E+05  1.535138E+04 -5.349525E+02 -5.439474E-10  1.528011E-10
       169  15  2.370543E+04  3.967076E+05  3.108554E+04  5.265403E+03  4.915316E-10  2.040734E-11
       169  16  1.049876E+05  8.185098E+05  1.164006E+05  7.274872E+03 -6.902235E-10  1.763265E-09
       169  17  9.742188E+04  8.025124E+05  1.156014E+05 -2.653661E+03  1.064230E-09  9.685887E-10
       169  18  1.235187E+05  7.967472E+05  1.302691E+05 -1.022064E+03  5.689657E-10  2.010394E-11
       169  19 -1.048008E+05 -2.492419E+04 -8.961252E+04  3.177057E+03  1.011670E+04  3.317710E+03
       169  20 -1.068804E+05 -1.875443E+04 -8.491053E+04  1.582503E+03  1.004636E+04  9.155118E+03
       169  21 -7.611961E+04 -3.186497E+03 -6.810952E+04  1.154892E+04  3.226900E+03  1.498158E+04
       169  22  1.000228E+02  3.967118E+05  1.340060E+04  5.225225E+03  1.011905E+04  2.124264E+03
       169  23 -4.722960E+03  3.918023E+05  1.535177E+04 -5.348684E+02  1.004345E+04  1.039584E+04
       169  24  2.370553E+04  3.967080E+05  3.108621E+04  5.265452E+03  3.220619E+03  1.865636E+04
       169  25  1.049877E+05  8.185098E+05  1.164008E+05  7.274880E+03  1.012139E+04  9.300096E+02
       169  26  9.742202E+04  8.025126E+05  1.156018E+05 -2.653567E+03  1.004052E+04  1.163737E+04
       169  27  1.235188E+05  7.967477E+05  1.302701E+05 -1.022006E+03  3.214266E+03  2.233351E+04
       170   1 -2.552677E+06 -8.763744E+05 -6.109229E+05 -8.531817E+05 -2.730668E+05 -9.698719E+04
       170   2 -2.474588E+06 -4.776286E+05 -3.571784E+05 -9.106216E+05 -1.784334E+05 -4.750647E+04
       170   3 -2.547222E+06 -4.934605E+05 -2.874575E+05 -8.775264E+05 -7.876541E+04 -1.127309E+04
       170   4 -1.901014E+06 -5.614504E+05 -4.185568E+05 -6.064032E+05 -2.670732E+05 -9.474700E+04
       170   5 -1.804473E+06 -2.053098E+05 -1.724981E+05 -7.083226E+05 -1.767988E+05 -4.689450E+04
       170   6 -1.857626E+06 -2.626252E+05 -1.068462E+05 -7.197564E+05 -8.148973E+04 -1.230082E+04
       170   7 -1.248930E+06 -2.464188E+05 -2.262332E+05 -3.593646E+05 -2.610726E+05 -9.250247E+04
       170   8 -1.133924E+06  6.705435E+04  1.214058E+04 -5.058194E+05 -1.751621E+05 -4.628163E+04
       170   9 -1.167570E+06 -3.178513E+04  7.372609E+04 -5.618391E+05 -8.421735E+04 -1.332947E+04
       170  10 -2.552760E+06 -8.764047E+05 -6.110814E+05 -8.532031E+05 -1.345750E-09 -7.680569E-11
       170  11 -2.474623E+06 -4.776396E+05 -3.572428E+05 -9.106284E+05 -1.582639E-09 -5.537008E-10
       170  12 -2.547228E+06 -4.934624E+05 -2.874694E+05 -8.775272E+05 -8.118419E-11 -6.160808E-10
       170  13 -1.901093E+06 -5.614793E+05 -4.187082E+05 -6.064236E+05  7.382367E-10 -2.153740E-10
       170  14 -1.804507E+06 -2.053206E+05 -1.725611E+05 -7.083293E+05 -1.661433E-09 -7.963658E-10
       170  15 -1.857633E+06 -2.626271E+05 -1.068590E+05 -7.197572E+05  1.810718E-09 -2.287919E-10
       170  16 -1.249005E+06 -2.464464E+05 -2.263777E+05 -3.593841E+05  3.346959E-10 -3.663950E-10
       170  17 -1.133957E+06  6.704379E+04  1.207876E+04 -5.058259E+05  3.418334E-10 -2.155171E-10
       170  18 -1.167578E+06 -3.178723E+04  7.371240E+04 -5.618400E+05  1.066554E-10 -7.470758E-11
       170  19 -2.552677E+06 -8.763744E+05 -6.109229E+05 -8.531817E+05  2.730668E+05  9.698719E+04
       170  20 -2.474588E+06 -4.776286E+05 -3.571784E+05 -9.106216E+05  1.784334E+05  4.750647E+04
       170  21 -2.547222E+06 -4.934605E+05 -2.874575E+05 -8.775264E+05  7.876541E+04  1.127309E+04
       170  22 -1.901014E+06 -5.614504E+05 -4.185568E+05 -6.064032E+05  2.670732E+05  9.474700E+04
       170  23 -1.804473E+06 -2.053098E+05 -1.724981E+05 -7.083226E+05  1.767988E+05  4.689450E+04
       170  24 -1.857626E+06 -2.626252E+05 -1.068462E+05 -7.197564E+05  8.148973E+04  1.230082E+04
       170  25 -1.248930E+06 -2.464188E+05 -2.262332E+05 -3.593646E+05  2.610726E+05  9.250247E+04
       170  26 -1.133924E+06  6.705435E+04  1.214058E+04 -5.058194E+05  1.751621E+05  4.628163E+04
       170  27 -1.167570E+06 -3.178513E+04  7.372609E+04 -5.618391E+05  8.421735E+04  1.332947E+04
       171   1 -2.453928E+06 -5.511490E+05 -2.549774E+05 -8.711133E+05 -6.528507E+04 -8.931283E+03
       171   2 -2.429177E+06 -4.800628E+05 -2.006487E+05 -8.604479E+05 -4.351272E+04 -1.863348E+02
       171   3 -2.404525E+06 -4.828607E+05 -1.768163E+05 -8.607805E+05 -2.110670E+04  6.879659E+03
       171   4 -1.842240E+06 -3.111654E+05 -8.757411E+04 -6.953056E+05 -6.489485E+04 -8.785913E+03
       171   5 -1.839452E+06 -2.548350E+05 -4.071493E+04 -6.971448E+05 -4.366588E+04 -2.453803E+02
       171   6 -1.836635E+06 -2.722480E+05 -2.389659E+04 -7.099861E+05 -2.180434E+04  6.616098E+03
       171   7 -1.230192E+06 -7.115271E+04  7.979463E+04 -5.193388E+05 -6.450418E+04 -8.640357E+03
       171   8 -1.249391E+06 -2.958482E+04  1.191875E+05 -5.337009E+05 -4.381918E+04 -3.044805E+02
       171   9 -1.268433E+06 -6.161906E+04  1.289948E+05 -5.590683E+05 -2.250268E+04  6.352285E+03
       171  10 -2.453933E+06 -5.511502E+05 -2.549855E+05 -8.711138E+05  1.917909E-09 -8.051825E-10
       171  11 -2.429179E+06 -4.800633E+05 -2.006522E+05 -8.604479E+05 -3.844774E-09 -3.670407E-10
       171  12 -2.404526E+06 -4.828608E+05 -1.768172E+05 -8.607803E+05 -3.166984E-09 -6.766115E-10
       171  13 -1.842245E+06 -3.111667E+05 -8.758219E+04 -6.953060E+05 -1.266656E-10 -4.716432E-10
       171  14 -1.839454E+06 -2.548355E+05 -4.071853E+04 -6.971448E+05 -4.441366E-10 -7.902067E-10
       171  15 -1.836636E+06 -2.722482E+05 -2.389757E+04 -7.099860E+05 -2.914567E-09  1.880811E-10
       171  16 -1.230197E+06 -7.115391E+04  7.978665E+04 -5.193392E+05 -6.766592E-10 -4.545172E-11
       171  17 -1.249393E+06 -2.958533E+04  1.191839E+05 -5.337009E+05 -3.153820E-09 -9.751573E-10
       171  18 -1.268434E+06 -6.161924E+04  1.289938E+05 -5.590682E+05 -1.162255E-09  3.186413E-10
       171  19 -2.453928E+06 -5.511490E+05 -2.549774E+05 -8.711133E+05  6.528507E+04  8.931283E+03
       171  20 -2.429177E+06 -4.800628E+05 -2.006487E+05 -8.604479E+05  4.351272E+04  1.863348E+02
       171  21 -2.404525E+06 -4.828607E+05 -1.768163E+05 -8.607805E+05  2.110670E+04 -6.879659E+03
       171  22 -1.842240E+06 -3.111654E+05 -8.757411E+04 -6.953056E+05  6.489485E+04  8.785913E+03
       171  23 -1.839452E+06 -2.548350E+05 -4.071493E+04 -6.971448E+05  4.366588E+04  2.453803E+02
       171  24 -1.836635E+06 -2.722480E+05 -2.389659E+04 -7.099861E+05  2.180434E+04 -6.616098E+03
       171  25 -1.230192E+06 -7.115271E+04  7.979463E+04 -5.193388E+05  6.450418E+04  8.640357E+03
       171  26 -1.249391E+06 -2.958482E+04  1.191875E+05 -5.337009E+05  4.381918E+04  3.044805E+02
       171  27 -1.268433E+06 -6.161906E+04  1.289948E+05 -5.590683E+05  2.250268E+04 -6.352285E+03
       172   1 -2.326509E+06 -4.670734E+05 -1.524154E+05 -8.437185E+05 -1.764059E+04  7.126115E+03
       172   2 -2.304795E+06 -4.332336E+05 -1.336935E+05 -8.191960E+05 -1.222595E+04  7.882476E+03
       172   3 -2.257461E+06 -4.343887E+05 -1.204142E+05 -8.251314E+05 -6.684978E+03  8.297629E+03
       172   4 -1.833224E+06 -2.797687E+05 -1.890326E+04 -7.082141E+05 -1.796800E+04  7.002117E+03
       172   5 -1.845680E+06 -2.597345E+05 -9.529375E+03 -6.939429E+05 -1.266407E+04  7.717192E+03
       172   6 -1.832493E+06 -2.746678E+05 -5.506487E+03 -7.101285E+05 -7.234162E+03  8.091052E+03
       172   7 -1.339705E+06 -9.244915E+04  1.145870E+05 -5.726122E+05 -1.829570E+04  6.878012E+03
       172   8 -1.386362E+06 -8.622311E+04  1.146158E+05 -5.686062E+05 -1.310255E+04  7.551773E+03
       172   9 -1.407353E+06 -1.149372E+05  1.093848E+05 -5.950549E+05 -7.783759E+03  7.884321E+03
       172  10 -2.326509E+06 -4.670735E+05 -1.524160E+05 -8.437184E+05 -1.715840E-09 -3.003144E-10
       172  11 -2.304795E+06 -4.332337E+05 -1.336939E+05 -8.191959E+05 -5.273583E-10 -8.440444E-10
       172  12 -2.257461E+06 -4.343888E+05 -1.204144E+05 -8.251314E+05 -2.920648E-11 -2.289906E-10
       172  13 -1.833225E+06 -2.797689E+05 -1.890396E+04 -7.082140E+05  7.664913E-10  6.201996E-11
       172  14 -1.845680E+06 -2.597346E+05 -9.529788E+03 -6.939428E+05 -7.017397E-10  5.237825E-10
       172  15 -1.832493E+06 -2.746679E+05 -5.506709E+03 -7.101284E+05 -1.136908E-10 -1.219597E-10
       172  16 -1.339706E+06 -9.244929E+04  1.145863E+05 -5.726121E+05 -1.065820E-09 -2.851769E-10
       172  17 -1.386363E+06 -8.622321E+04  1.146153E+05 -5.686061E+05 -1.931830E-09 -1.194789E-09
       172  18 -1.407353E+06 -1.149373E+05  1.093846E+05 -5.950549E+05  3.059913E-10 -5.882200E-10
       172  19 -2.326509E+06 -4.670734E+05 -1.524154E+05 -8.437185E+05  1.764059E+04 -7.126115E+03
       172  20 -2.304795E+06 -4.332336E+05 -1.336935E+05 -8.191960E+05  1.222595E+04 -7.882476E+03
       172  21 -2.257461E+06 -4.343887E+05 -1.204142E+05 -8.251314E+05  6.684978E+03 -8.297629E+03
       172  22 -1.833224E+06 -2.797687E+05 -1.890326E+04 -7.082141E+05  1.796800E+04 -7.002117E+03
       172  23 -1.845680E+06 -2.597345E+05 -9.529375E+03 -6.939429E+05  1.266407E+04 -7.717192E+03
       172  24 -1.832493E+06 -2.746678E+05 -5.506487E+03 -7.101285E+05  7.234162E+03 -8.091052E+03
       172  25 -1.339705E+06 -9.244915E+04  1.145870E+05 -5.726122E+05  1.829570E+04 -6.878012E+03
       172  26 -1.386362E+06 -8.622311E+04  1.146158E+05 -5.686062E+05  1.310255E+04 -7.551773E+03
       172  27 -1.407353E+06 -1.149372E+05  1.093848E+05 -5.950549E+05  7.783759E+03 -7.884321E+03
       173   1 -2.168106E+06 -4.036122E+05 -9.529588E+04 -8.026289E+05 -5.595332E+03  7.671354E+03
       173   2 -2.143731E+06 -3.708345E+05 -8.261590E+04 -7.727300E+05 -3.680841E+03  6.650159E+03
       173   3 -2.086647E+06 -3.720276E+05 -7.114717E+04 -7.804106E+05 -1.718397E+03  5.496749E+03
       173   4 -1.831196E+06 -2.765326E+05 -4.365064E+03 -7.109176E+05 -6.086602E+03  7.486774E+03
       173   5 -1.847507E+06 -2.592264E+05 -2.575026E+03 -6.922498E+05 -4.215790E+03  6.449475E+03
       173   6 -1.831103E+06 -2.758811E+05 -1.961149E+03 -7.111611E+05 -2.297138E+03  5.279959E+03
       173   7 -1.494176E+06 -1.494461E+05  8.655583E+04 -6.191613E+05 -6.578166E+03  7.302084E+03
       173   8 -1.551198E+06 -1.476131E+05  7.745810E+04 -6.117349E+05 -4.751021E+03  6.248685E+03
       173   9 -1.575496E+06 -1.797309E+05  6.721903E+04 -6.418858E+05 -2.876141E+03  5.063072E+03
       173  10 -2.168106E+06 -4.036123E+05 -9.529605E+04 -8.026288E+05 -2.477540E-10  4.209947E-11
       173  11 -2.143731E+06 -3.708346E+05 -8.261601E+04 -7.727300E+05 -2.299568E-10  5.807316E-10
       173  12 -2.086647E+06 -3.720277E+05 -7.114723E+04 -7.804106E+05  1.408497E-09  3.800206E-10
       173  13 -1.831196E+06 -2.765327E+05 -4.365238E+03 -7.109176E+05  1.209053E-10  2.378786E-10
       173  14 -1.847507E+06 -2.592264E+05 -2.575137E+03 -6.922498E+05  1.213111E-09  4.555512E-10
       173  15 -1.831103E+06 -2.758812E+05 -1.961211E+03 -7.111610E+05  2.771180E-09  4.993234E-10
       173  16 -1.494176E+06 -1.494462E+05  8.655565E+04 -6.191613E+05  1.431254E-09 -4.652544E-10
       173  17 -1.551198E+06 -1.476131E+05  7.745799E+04 -6.117349E+05  1.305783E-09  2.536062E-10
       173  18 -1.575496E+06 -1.797309E+05  6.721897E+04 -6.418858E+05  1.375357E-09  1.091521E-09
       173  19 -2.168106E+06 -4.036122E+05 -9.529588E+04 -8.026289E+05  5.595332E+03 -7.671354E+03
       173  20 -2.143731E+06 -3.708345E+05 -8.261590E+04 -7.727300E+05  3.680841E+03 -6.650159E+03
       173  21 -2.086647E+06 -3.720276E+05 -7.114717E+04 -7.804106E+05  1.718397E+03 -5.496749E+03
       173  22 -1.831196E+06 -2.765326E+05 -4.365064E+03 -7.109176E+05  6.086602E+03 -7.486774E+03
       173  23 -1.847507E+06 -2.592264E+05 -2.575026E+03 -6.922498E+05  4.215790E+03 -6.449475E+03
       173  24 -1.831103E+06 -2.758811E+05 -1.961149E+03 -7.111611E+05  2.297138E+03 -5.279959E+03
       173  25 -1.494176E+06 -1.494461E+05  8.655583E+04 -6.191613E+05  6.578166E+03 -7.302084E+03
       173  26 -1.551198E+06 -1.476131E+05  7.745810E+04 -6.117349E+05  4.751021E+03 -6.248685E+03
       173  27 -1.575496E+06 -1.797309E+05  6.721903E+04 -6.418858E+05  2.876141E+03 -5.063072E+03
       174   1 -1.987719E+06 -3.357041E+05 -4.423302E+04 -7.545518E+05 -1.038135E+03  4.615990E+03
       174   2 -1.961323E+06 -3.010628E+05 -3.285001E+04 -7.220748E+05  7.675274E+02  3.350228E+03
       174   3 -1.899782E+06 -3.028799E+05 -2.256527E+04 -7.303143E+05  2.585305E+03  2.050407E+03
       174   4 -1.830560E+06 -2.765075E+05 -1.931527E+03 -7.118255E+05 -1.604878E+03  4.403859E+03
       174   5 -1.848162E+06 -2.584886E+05 -2.288138E+03 -6.913892E+05  1.895658E+02  3.134011E+03
       174   6 -1.830620E+06 -2.769256E+05 -3.733908E+03 -7.116697E+05  1.996033E+03  1.830080E+03
       174   7 -1.673377E+06 -2.173095E+05  4.036770E+04 -6.690896E+05 -2.171778E+03  4.191669E+03
       174   8 -1.734989E+06 -2.159136E+05  2.827259E+04 -6.606986E+05 -3.885120E+02  2.917751E+03
       174   9 -1.761452E+06 -2.509710E+05  1.509706E+04 -6.930233E+05  1.406687E+03  1.609725E+03
       174  10 -1.987719E+06 -3.357041E+05 -4.423307E+04 -7.545517E+05  1.786452E-09  3.033521E-10
       174  11 -1.961323E+06 -3.010628E+05 -3.285003E+04 -7.220748E+05  2.212648E-09  1.071631E-09
       174  12 -1.899782E+06 -3.028800E+05 -2.256529E+04 -7.303143E+05  1.781765E-09 -4.990119E-10
       174  13 -1.830560E+06 -2.765075E+05 -1.931568E+03 -7.118255E+05  4.376303E-09  9.814912E-10
       174  14 -1.848162E+06 -2.584886E+05 -2.288157E+03 -6.913892E+05  3.164713E-09  7.457683E-10
       174  15 -1.830620E+06 -2.769256E+05 -3.733922E+03 -7.116697E+05  9.111224E-10  8.068050E-11
       174  16 -1.673377E+06 -2.173096E+05  4.036766E+04 -6.690896E+05  2.363819E-09  1.146370E-09
       174  17 -1.734989E+06 -2.159136E+05  2.827258E+04 -6.606986E+05  1.684956E-09  1.677155E-09
       174  18 -1.761452E+06 -2.509710E+05  1.509705E+04 -6.930233E+05 -3.638422E-10  4.404227E-10
       174  19 -1.987719E+06 -3.357041E+05 -4.423302E+04 -7.545518E+05  1.038135E+03 -4.615990E+03
       174  20 -1.961323E+06 -3.010628E+05 -3.285001E+04 -7.220748E+05 -7.675274E+02 -3.350228E+03
       174  21 -1.899782E+06 -3.028799E+05 -2.256527E+04 -7.303143E+05 -2.585305E+03 -2.050407E+03
       174  22 -1.830560E+06 -2.765075E+05 -1.931527E+03 -7.118255E+05  1.604878E+03 -4.403859E+03
       174  23 -1.848162E+06 -2.584886E+05 -2.288138E+03 -6.913892E+05 -1.895658E+02 -3.134011E+03
       174  24 -1.830620E+06 -2.769256E+05 -3.733908E+03 -7.116697E+05 -1.996033E+03 -1.830080E+03
       174  25 -1.673377E+06 -2.173095E+05  4.036770E+04 -6.690896E+05  2.171778E+03 -4.191669E+03
       174  26 -1.734989E+06 -2.159136E+05  2.827259E+04 -6.606986E+05  3.885120E+02 -2.917751E+03
       174  27 -1.761452E+06 -2.509710E+05  1.509706E+04 -6.930233E+05 -1.406687E+03 -1.609725E+03
       175   1 -1.797209E+06 -2.641471E+05  4.463862E+03 -7.034760E+05  3.696577E+03  1.269701E+03
       175   2 -1.770185E+06 -2.283655E+05  1.298838E+04 -6.702234E+05  8.400643E+03  1.026528E+03
       175   3 -1.710021E+06 -2.341269E+05  1.694067E+04 -6.767845E+05  1.305243E+04  9.251386E+02
       175   4 -1.830828E+06 -2.763614E+05 -4.696040E+03 -7.121030E+05  3.081928E+03  1.039904E+03
       175   5 -1.847690E+06 -2.576865E+05 -7.970375E+03 -6.914112E+05  7.833085E+03  8.142490E+02
       175   6 -1.831424E+06 -2.805649E+05 -1.585471E+04 -7.105341E+05  1.253164E+04  7.302656E+02
       175   7 -1.864445E+06 -2.885757E+05 -1.385604E+04 -7.207296E+05  2.467316E+03  8.101201E+02
       175   8 -1.925190E+06 -2.870071E+05 -2.892964E+04 -7.125965E+05  7.265606E+03  6.020000E+02
       175   9 -1.952812E+06 -3.270019E+05 -4.865135E+04 -7.442776E+05  1.201096E+04  5.354366E+02
       175  10 -1.797210E+06 -2.641471E+05  4.463833E+03 -7.034760E+05  1.041299E-09 -3.944414E-10
       175  11 -1.770185E+06 -2.283655E+05  1.298824E+04 -6.702234E+05  4.781293E-10  4.262926E-10
       175  12 -1.710021E+06 -2.341270E+05  1.694035E+04 -6.767845E+05  1.853219E-10  6.911645E-10
       175  13 -1.830828E+06 -2.763614E+05 -4.696060E+03 -7.121030E+05  5.359485E-10 -4.596403E-10
       175  14 -1.847691E+06 -2.576865E+05 -7.970492E+03 -6.914112E+05 -1.533639E-10 -6.911056E-10
       175  15 -1.831424E+06 -2.805650E+05 -1.585501E+04 -7.105341E+05 -1.861329E-11 -3.328010E-10
       175  16 -1.864445E+06 -2.885757E+05 -1.385605E+04 -7.207296E+05  1.253409E-10 -3.821475E-10
       175  17 -1.925190E+06 -2.870072E+05 -2.892974E+04 -7.125965E+05 -2.151946E-10 -9.541537E-10
       175  18 -1.952813E+06 -3.270019E+05 -4.865162E+04 -7.442776E+05 -3.489929E-11  4.300997E-10
       175  19 -1.797209E+06 -2.641471E+05  4.463862E+03 -7.034760E+05 -3.696577E+03 -1.269701E+03
       175  20 -1.770185E+06 -2.283655E+05  1.298838E+04 -6.702234E+05 -8.400643E+03 -1.026528E+03
       175  21 -1.710021E+06 -2.341269E+05  1.694067E+04 -6.767845E+05 -1.305243E+04 -9.251386E+02
       175  22 -1.830828E+06 -2.763614E+05 -4.696040E+03 -7.121030E+05 -3.081928E+03 -1.039904E+03
       175  23 -1.847690E+06 -2.576865E+05 -7.970375E+03 -6.914112E+05 -7.833085E+03 -8.142490E+02
       175  24 -1.831424E+06 -2.805649E+05 -1.585471E+04 -7.105341E+05 -1.253164E+04 -7.302656E+02
       175  25 -1.864445E+06 -2.885757E+05 -1.385604E+04 -7.207296E+05 -2.467316E+03 -8.101201E+02
       175  26 -1.925190E+06 -2.870071E+05 -2.892964E+04 -7.125965E+05 -7.265606E+03 -6.020000E+02
       175  27 -1.952812E+06 -3.270019E+05 -4.865135E+04 -7.442776E+05 -1.201096E+04 -5.354366E+02
       176   1 -1.609493E+06 -1.940980E+05  3.995695E+04 -6.555975E+05  1.666952E+04  9.617912E+02
       176   2 -1.581418E+06 -1.522861E+05  3.702054E+04 -6.201042E+05  3.486705E+04  5.807073E+03
       176   3 -1.538231E+06 -1.879125E+05  9.086416E+03 -6.122002E+05  5.264826E+04  1.177174E+04
       176   4 -1.833555E+06 -2.750486E+05 -2.004172E+04 -7.128786E+05  1.589768E+04  6.729711E+02
       176   5 -1.843381E+06 -2.525993E+05 -3.403370E+04 -6.929799E+05  3.446397E+04  5.655794E+03
       176   6 -1.838179E+06 -3.076757E+05 -7.332527E+04 -7.006717E+05  5.261265E+04  1.175743E+04
       176   7 -2.057569E+06 -3.559974E+05 -8.004490E+04 -7.701416E+05  1.512615E+04  3.842545E+02
       176   8 -2.105278E+06 -3.529080E+05 -1.050942E+05 -7.658277E+05  3.406107E+04  5.504586E+03
       176   9 -2.138040E+06 -4.274307E+05 -1.557452E+05 -7.891034E+05  5.257705E+04  1.174312E+04
       176  10 -1.609493E+06 -1.940981E+05  3.995643E+04 -6.555975E+05  3.173333E-10 -1.694880E-10
       176  11 -1.581419E+06 -1.522865E+05  3.701819E+04 -6.201043E+05  7.383534E-10  5.876926E-10
       176  12 -1.538234E+06 -1.879134E+05  9.080931E+03 -6.122007E+05  1.624669E-10  8.422097E-10
       176  13 -1.833555E+06 -2.750486E+05 -2.004220E+04 -7.128786E+05  2.009849E-10  1.487901E-10
       176  14 -1.843382E+06 -2.525996E+05 -3.403600E+04 -6.929800E+05  1.717402E-09  4.694518E-10
       176  15 -1.838182E+06 -3.076766E+05 -7.333075E+04 -7.006722E+05  1.030658E-09  5.612149E-10
       176  16 -2.057569E+06 -3.559975E+05 -8.004533E+04 -7.701416E+05  3.107654E-11 -5.446925E-11
       176  17 -2.105280E+06 -3.529083E+05 -1.050964E+05 -7.658278E+05 -2.468264E-10 -1.393624E-10
       176  18 -2.138043E+06 -4.274316E+05 -1.557507E+05 -7.891039E+05  2.296065E-10  1.164045E-09
       176  19 -1.609493E+06 -1.940980E+05  3.995695E+04 -6.555975E+05 -1.666952E+04 -9.617912E+02
       176  20 -1.581418E+06 -1.522861E+05  3.702054E+04 -6.201042E+05 -3.486705E+04 -5.807073E+03
       176  21 -1.538231E+06 -1.879125E+05  9.086416E+03 -6.122002E+05 -5.264826E+04 -1.177174E+04
       176  22 -1.833555E+06 -2.750486E+05 -2.004172E+04 -7.128786E+05 -1.589768E+04 -6.729711E+02
       176  23 -1.843381E+06 -2.525993E+05 -3.403370E+04 -6.929799E+05 -3.446397E+04 -5.655794E+03
       176  24 -1.838179E+06 -3.076757E+05 -7.332527E+04 -7.006717E+05 -5.261265E+04 -1.175743E+04
       176  25 -2.057569E+06 -3.559974E+05 -8.004490E+04 -7.701416E+05 -1.512615E+04 -3.842545E+02
       176  26 -2.105278E+06 -3.529080E+05 -1.050942E+05 -7.658277E+05 -3.406107E+04 -5.504586E+03
       176  27 -2.138040E+06 -4.274307E+05 -1.557452E+05 -7.891034E+05 -5.257705E+04 -1.174312E+04
       177   1 -1.437104E+06 -1.370904E+05  1.729084E+04 -6.353891E+05  6.884985E+04  1.525555E+04
       177   2 -1.394837E+06 -3.716735E+04 -2.817006E+04 -5.718586E+05  1.459000E+05  4.201319E+04
       177   3 -1.459075E+06 -3.014138E+05 -2.222502E+05 -4.543403E+05  2.194481E+05  7.811268E+04
       177   4 -1.850625E+06 -2.674621E+05 -8.945045E+04 -7.216033E+05  6.661454E+04  1.442024E+04
       177   5 -1.814860E+06 -2.104104E+05 -1.443318E+05 -7.015221E+05  1.467526E+05  4.232842E+04
       177   6 -1.886311E+06 -5.182926E+05 -3.503662E+05 -6.274307E+05  2.233863E+05  7.956861E+04
       177   7 -2.263979E+06 -3.978347E+05 -1.962050E+05 -8.077712E+05  6.438086E+04  1.358531E+04
       177   8 -2.234713E+06 -3.836334E+05 -2.605100E+05 -8.311029E+05  1.476045E+05  4.264335E+04
       177   9 -2.313363E+06 -7.351127E+05 -4.785004E+05 -8.003991E+05  2.273215E+05  8.102250E+04
       177  10 -1.437110E+06 -1.370919E+05  1.728147E+04 -6.353899E+05  3.991991E-10  6.042079E-10
       177  11 -1.394860E+06 -3.717498E+04 -2.821349E+04 -5.718635E+05 -7.121055E-10 -2.854181E-10
       177  12 -1.459129E+06 -3.014333E+05 -2.223524E+05 -4.543541E+05 -6.862406E-10 -2.709734E-10
       177  13 -1.850629E+06 -2.674635E+05 -8.945921E+04 -7.216041E+05  1.543847E-09  4.774980E-10
       177  14 -1.814884E+06 -2.104181E+05 -1.443758E+05 -7.015271E+05  5.098610E-10 -1.744253E-10
       177  15 -1.886367E+06 -5.183128E+05 -3.504723E+05 -6.274451E+05  4.400262E-10  2.667702E-10
       177  16 -2.263984E+06 -3.978361E+05 -1.962132E+05 -8.077719E+05  5.915900E-10  7.454452E-10
       177  17 -2.234737E+06 -3.836412E+05 -2.605545E+05 -8.311080E+05  9.649414E-10 -9.908547E-11
       177  18 -2.313421E+06 -7.351337E+05 -4.786103E+05 -8.004140E+05 -2.508460E-10 -1.014205E-10
       177  19 -1.437104E+06 -1.370904E+05  1.729084E+04 -6.353891E+05 -6.884985E+04 -1.525555E+04
       177  20 -1.394837E+06 -3.716735E+04 -2.817006E+04 -5.718586E+05 -1.459000E+05 -4.201319E+04
       177  21 -1.459075E+06 -3.014138E+05 -2.222502E+05 -4.543403E+05 -2.194481E+05 -7.811268E+04
       177  22 -1.850625E+06 -2.674621E+05 -8.945045E+04 -7.216033E+05 -6.661454E+04 -1.442024E+04
       177  23 -1.814860E+06 -2.104104E+05 -1.443318E+05 -7.015221E+05 -1.467526E+05 -4.232842E+04
       177  24 -1.886311E+06 -5.182926E+05 -3.503662E+05 -6.274307E+05 -2.233863E+05 -7.956861E+04
       177  25 -2.263979E+06 -3.978347E+05 -1.962050E+05 -8.077712E+05 -6.438086E+04 -1.358531E+04
       177  26 -2.234713E+06 -3.836334E+05 -2.605100E+05 -8.311029E+05 -1.476045E+05 -4.264335E+04
       177  27 -2.313363E+06 -7.351127E+05 -4.785004E+05 -8.003991E+05 -2.273215E+05 -8.102250E+04
       178   1 -1.544500E+06 -2.994304E+05 -2.671520E+05 -3.431926E+04  7.652954E+04  1.310950E+04
       178   2 -1.468269E+06 -3.972334E+05 -3.129398E+05  4.920958E+02  5.589622E+04  3.777842E+04
       178   3 -1.349235E+06 -3.582289E+05 -3.099182E+05 -6.619228E+04  3.537767E+04  3.304090E+04
       178   4  6.855621E+04  1.033336E+05  1.334159E+05 -5.342450E+04  9.087049E+04  1.316900E+04
       178   5  4.628444E+04 -2.006633E+04  5.719810E+04 -2.455554E+03  5.960232E+04  3.778403E+04
       178   6  6.856795E+04 -4.985920E+03  3.708792E+04 -5.296521E+04  2.845285E+04  3.302312E+04
       178   7  1.683979E+06  5.059042E+05  5.337904E+05 -7.258208E+04  1.052485E+05  1.322753E+04
       178   8  1.562932E+06  3.569312E+05  4.271687E+05 -5.412131E+03  6.331732E+04  3.778959E+04
       178   9  1.488206E+06  3.481088E+05  3.839473E+05 -3.970864E+04  2.151217E+04  3.300505E+04
       178  10 -1.544506E+06 -2.994322E+05 -2.671634E+05 -3.432007E+04  2.616257E-11  5.203626E-10
       178  11 -1.468273E+06 -3.972358E+05 -3.129484E+05  4.903934E+02  4.681790E-10 -1.321258E-09
       178  12 -1.349237E+06 -3.582304E+05 -3.099226E+05 -6.619323E+04  4.415888E-10  7.238962E-12
       178  13  6.854730E+04  1.033312E+05  1.334001E+05 -5.342546E+04 -1.007879E-11 -1.260381E-09
       178  14  4.628024E+04 -2.006882E+04  5.718874E+04 -2.457367E+03  1.254050E-09  3.678188E-11
       178  15  6.856679E+04 -4.987308E+03  3.708434E+04 -5.296597E+04 -7.431893E-10 -6.539579E-10
       178  16  1.683967E+06  5.059010E+05  5.337693E+05 -7.258320E+04 -8.692139E-10  1.708575E-09
       178  17  1.562927E+06  3.569286E+05  4.271585E+05 -5.414056E+03  1.980108E-09 -8.375479E-10
       178  18  1.488205E+06  3.481075E+05  3.839444E+05 -3.970921E+04  5.272438E-11 -9.937117E-10
       178  19 -1.544500E+06 -2.994304E+05 -2.671520E+05 -3.431926E+04 -7.652954E+04 -1.310950E+04
       178  20 -1.468269E+06 -3.972334E+05 -3.129398E+05  4.920958E+02 -5.589622E+04 -3.777842E+04
       178  21 -1.349235E+06 -3.582289E+05 -3.099182E+05 -6.619228E+04 -3.537767E+04 -3.304090E+04
       178  22  6.855621E+04  1.033336E+05  1.334159E+05 -5.342450E+04 -9.087049E+04 -1.316900E+04
       178  23  4.628444E+04 -2.006633E+04  5.719810E+04 -2.455554E+03 -5.960232E+04 -3.778403E+04
       178  24  6.856795E+04 -4.985920E+03  3.708792E+04 -5.296521E+04 -2.845285E+04 -3.302312E+04
       178  25  1.683979E+06  5.059042E+05  5.337904E+05 -7.258208E+04 -1.052485E+05 -1.322753E+04
       178  26  1.562932E+06  3.569312E+05  4.271687E+05 -5.412131E+03 -6.331732E+04 -3.778959E+04
       178  27  1.488206E+06  3.481088E+05  3.839473E+05 -3.970864E+04 -2.151217E+04 -3.300505E+04
       179   1 -1.155827E+06 -2.904479E+05 -2.677393E+05 -5.139868E+04  2.210265E+04  2.654934E+04
       179   2 -1.063189E+06 -2.816520E+05 -2.592120E+05 -2.179400E+03  1.551955E+04  2.599678E+04
       179   3 -9.624546E+05 -2.554200E+05 -2.414431E+05 -5.395878E+04  8.928809E+03  2.236787E+04
       179   4  6.066903E+04  1.262719E+04  3.036683E+04 -5.300191E+04  2.248961E+04  2.654640E+04
       179   5  5.653680E+04 -2.767009E+03  1.479808E+04 -2.500694E+03  1.478725E+04  2.599344E+04
       179   6  6.067889E+04 -5.459268E+02  9.236294E+03 -5.298661E+04  7.078251E+03  2.236657E+04
       179   7  1.278514E+06  3.155926E+05  3.283646E+05 -5.460867E+04  2.287730E+04  2.654347E+04
       179   8  1.177407E+06  2.760252E+05  2.887165E+05 -2.822686E+03  1.405361E+04  2.599010E+04
       179   9  1.084767E+06  2.542505E+05  2.598390E+05 -5.201267E+04  5.224637E+03  2.236526E+04
       179  10 -1.155827E+06 -2.904488E+05 -2.677416E+05 -5.139916E+04  4.418266E-10  5.859608E-11
       179  11 -1.063190E+06 -2.816528E+05 -2.592138E+05 -2.179725E+03  3.309889E-10  9.588206E-11
       179  12 -9.624548E+05 -2.554205E+05 -2.414442E+05 -5.395894E+04  1.707673E-10  1.252076E-10
       179  13  6.066830E+04  1.262629E+04  3.036455E+04 -5.300239E+04  1.067718E-09 -9.082082E-10
       179  14  5.653638E+04 -2.767794E+03  1.479640E+04 -2.501004E+03 -6.491198E-10  9.003174E-10
       179  15  6.067871E+04 -5.464775E+02  9.235260E+03 -5.298674E+04 -3.927434E-10  5.997223E-10
       179  16  1.278513E+06  3.155917E+05  3.283623E+05 -5.460916E+04 -2.895102E-10 -1.602741E-10
       179  17  1.177406E+06  2.760244E+05  2.887149E+05 -2.822980E+03 -3.480397E-10  7.534100E-10
       179  18  1.084767E+06  2.542500E+05  2.598380E+05 -5.201276E+04  1.032912E-09  8.521607E-10
       179  19 -1.155827E+06 -2.904479E+05 -2.677393E+05 -5.139868E+04 -2.210265E+04 -2.654934E+04
       179  20 -1.063189E+06 -2.816520E+05 -2.592120E+05 -2.179400E+03 -1.551955E+04 -2.599678E+04
       179  21 -9.624546E+05 -2.554200E+05 -2.414431E+05 -5.395878E+04 -8.928809E+03 -2.236787E+04
       179  22  6.066903E+04  1.262719E+04  3.036683E+04 -5.300191E+04 -2.248961E+04 -2.654640E+04
       179  23  5.653680E+04 -2.767009E+03  1.479808E+04 -2.500694E+03 -1.478725E+04 -2.599344E+04
       179  24  6.067889E+04 -5.459268E+02  9.236294E+03 -5.298661E+04 -7.078251E+03 -2.236657E+04
       179  25  1.278514E+06  3.155926E+05  3.283646E+05 -5.460867E+04 -2.287730E+04 -2.654347E+04
       179  26  1.177407E+06  2.760252E+05  2.887165E+05 -2.822686E+03 -1.405361E+04 -2.599010E+04
       179  27  1.084767E+06  2.542505E+05  2.598390E+05 -5.201267E+04 -5.224637E+03 -2.236526E+04
       180   1 -7.632213E+05 -2.033021E+05 -1.938392E+05 -5.202641E+04  6.670631E+03  1.986702E+04
       180   2 -6.677175E+05 -1.812557E+05 -1.738988E+05 -1.708425E+03  4.843852E+03  1.668339E+04
       180   3 -5.705788E+05 -1.567266E+05 -1.519904E+05 -5.200974E+04  3.009539E+03  1.318278E+04
       180   4  5.932027E+04  1.491693E+03  7.226558E+03 -5.290588E+04  5.586747E+03  1.986642E+04
       180   5  5.850034E+04 -4.138809E+02  3.811613E+03 -2.600541E+03  3.643568E+03  1.668403E+04
       180   6  5.932652E+04  1.830924E+02  2.444476E+03 -5.290719E+04  1.693137E+03  1.318487E+04
       180   7  8.824789E+05  2.062355E+05  2.082429E+05 -5.378634E+04  4.501426E+03  1.986582E+04
       180   8  7.851990E+05  1.803889E+05  1.814835E+05 -3.493512E+03  2.441880E+03  1.668469E+04
       180   9  6.895934E+05  1.570634E+05  1.568502E+05 -5.380533E+04  3.754006E+02  1.318696E+04
       180  10 -7.632214E+05 -2.033025E+05 -1.938400E+05 -5.202652E+04  2.330434E-09  1.561045E-10
       180  11 -6.677176E+05 -1.812560E+05 -1.738994E+05 -1.708490E+03  3.174849E-10  1.437562E-10
       180  12 -5.705789E+05 -1.567268E+05 -1.519907E+05 -5.200977E+04 -4.056454E-11 -1.027102E-09
       180  13  5.932013E+04  1.491261E+03  7.225757E+03 -5.290597E+04  2.575136E-12  2.343709E-10
       180  14  5.850025E+04 -4.141833E+02  3.811065E+03 -2.600590E+03  3.927295E-10  7.863147E-10
       180  15  5.932647E+04  1.829050E+02  2.444144E+03 -5.290720E+04 -3.492993E-10  1.524028E-09
       180  16  8.824788E+05  2.062350E+05  2.082422E+05 -5.378641E+04  3.718547E-11 -1.018278E-10
       180  17  7.851989E+05  1.803886E+05  1.814830E+05 -3.493544E+03 -3.192979E-10 -1.029729E-09
       180  18  6.895934E+05  1.570632E+05  1.568499E+05 -5.380533E+04  1.309668E-09  4.855773E-10
       180  19 -7.632213E+05 -2.033021E+05 -1.938392E+05 -5.202641E+04 -6.670631E+03 -1.986702E+04
       180  20 -6.677175E+05 -1.812557E+05 -1.738988E+05 -1.708425E+03 -4.843852E+03 -1.668339E+04
       180  21 -5.705788E+05 -1.567266E+05 -1.519904E+05 -5.200974E+04 -3.009539E+03 -1.318278E+04
       180  22  5.932027E+04  1.491693E+03  7.226558E+03 -5.290588E+04 -5.586747E+03 -1.986642E+04
       180  23  5.850034E+04 -4.138809E+02  3.811613E+03 -2.600541E+03 -3.643568E+03 -1.668403E+04
       180  24  5.932652E+04  1.830924E+02  2.444476E+03 -5.290719E+04 -1.693137E+03 -1.318487E+04
       180  25  8.824789E+05  2.062355E+05  2.082429E+05 -5.378634E+04 -4.501426E+03 -1.986582E+04
       180  26  7.851990E+05  1.803889E+05  1.814835E+05 -3.493512E+03 -2.441880E+03 -1.668469E+04
       180  27  6.895934E+05  1.570634E+05  1.568502E+05 -5.380533E+04 -3.754006E+02 -1.318696E+04
       181   1 -3.708693E+05 -1.066310E+05 -1.029717E+05 -5.204926E+04  2.525533E+03  1.110454E+04
       181   2 -2.746546E+05 -8.312865E+04 -8.038791E+04 -1.990045E+03  1.898099E+03  7.652057E+03
       181   3 -1.785932E+05 -5.885889E+04 -5.729631E+04 -5.231990E+04  1.267322E+03  4.171498E+03
       181   4  5.899095E+04  3.365788E+02  1.910560E+03 -5.285628E+04  1.288195E+03  1.110713E+04
       181   5  5.907165E+04 -4.241248E+01  1.260744E+03 -2.663406E+03  6.502048E+02  7.655208E+03
       181   6  5.899379E+04  3.487733E+02  1.126828E+03 -5.285622E+04  8.967058E+00  4.175244E+03
       181   7  4.890197E+05  1.072905E+05  1.067793E+05 -5.366375E+04  5.000157E+01  1.110973E+04
       181   8  3.928994E+05  8.303559E+04  8.290126E+04 -3.337060E+03 -5.983595E+02  7.658360E+03
       181   9  2.966322E+05  5.955224E+04  5.954582E+04 -5.339271E+04 -1.249869E+03  4.178991E+03
       181  10 -3.708693E+05 -1.066312E+05 -1.029719E+05 -5.204928E+04  2.364190E-09 -2.730447E-11
       181  11 -2.746546E+05 -8.312872E+04 -8.038802E+04 -1.990057E+03  2.850823E-09  1.949489E-10
       181  12 -1.785932E+05 -5.885891E+04 -5.729635E+04 -5.231990E+04  2.288036E-09 -6.348732E-10
       181  13  5.899092E+04  3.364459E+02  1.910325E+03 -5.285629E+04  1.088624E-09 -1.563352E-09
       181  14  5.907163E+04 -4.247552E+01  1.260633E+03 -2.663410E+03  1.245619E-09  5.344371E-10
       181  15  5.899378E+04  3.487545E+02  1.126796E+03 -5.285622E+04 -1.690072E-10 -1.626502E-09
       181  16  4.890197E+05  1.072904E+05  1.067791E+05 -5.366375E+04 -6.568824E-10  1.117559E-09
       181  17  3.928994E+05  8.303552E+04  8.290115E+04 -3.337056E+03 -1.546016E-09 -8.408012E-10
       181  18  2.966322E+05  5.955222E+04  5.954578E+04 -5.339271E+04 -2.814938E-09 -2.545633E-09
       181  19 -3.708693E+05 -1.066310E+05 -1.029717E+05 -5.204926E+04 -2.525533E+03 -1.110454E+04
       181  20 -2.746546E+05 -8.312865E+04 -8.038791E+04 -1.990045E+03 -1.898099E+03 -7.652057E+03
       181  21 -1.785932E+05 -5.885889E+04 -5.729631E+04 -5.231990E+04 -1.267322E+03 -4.171498E+03
       181  22  5.899095E+04  3.365788E+02  1.910560E+03 -5.285628E+04 -1.288195E+03 -1.110713E+04
       181  23  5.907165E+04 -4.241248E+01  1.260744E+03 -2.663406E+03 -6.502048E+02 -7.655208E+03
       181  24  5.899379E+04  3.487733E+02  1.126828E+03 -5.285622E+04 -8.967058E+00 -4.175244E+03
       181  25  4.890197E+05  1.072905E+05  1.067793E+05 -5.366375E+04 -5.000157E+01 -1.110973E+04
       181  26  3.928994E+05  8.303559E+04  8.290126E+04 -3.337060E+03  5.983595E+02 -7.658360E+03
       181  27  2.966322E+05  5.955224E+04  5.954582E+04 -5.339271E+04  1.249869E+03 -4.178991E+03
       182   1  2.120086E+04 -9.028233E+03 -7.789220E+03 -5.273566E+04  1.052034E+03  2.136210E+03
       182   2  1.175202E+05  1.449775E+04  1.575978E+04 -2.809413E+03  2.925492E+02 -1.341459E+03
       182   3  2.134247E+05  3.891343E+04  3.986793E+04 -5.321291E+04 -4.664339E+02 -4.794594E+03
       182   4  5.895132E+04  3.091855E+02  1.146636E+03 -5.284417E+04 -2.052507E+02  2.140131E+03
       182   5  5.916412E+04 -2.744319E+01  1.486347E+03 -2.678699E+03 -9.559473E+02 -1.337677E+03
       182   6  5.895080E+04  5.244482E+02  2.379403E+03 -5.284351E+04 -1.706026E+03 -4.790919E+03
       182   7  9.670308E+04  9.646502E+03  1.008240E+04 -5.295270E+04 -1.462612E+03  2.144052E+03
       182   8  8.111633E+02 -1.455289E+04 -1.278733E+04 -2.547995E+03 -2.204327E+03 -1.333895E+03
       182   9 -9.550133E+04 -3.786629E+04 -3.511084E+04 -5.247420E+04 -2.945311E+03 -4.787245E+03
       182  10  2.120086E+04 -9.028238E+03 -7.789231E+03 -5.273566E+04  2.746802E-10  1.763192E-09
       182  11  1.175202E+05  1.449775E+04  1.575978E+04 -2.809412E+03  8.149895E-10  4.789120E-09
       182  12  2.134247E+05  3.891341E+04  3.986789E+04 -5.321291E+04  2.307516E-09 -3.146045E-09
       182  13  5.895132E+04  3.091806E+02  1.146628E+03 -5.284417E+04  7.901050E-13  2.720693E-10
       182  14  5.916411E+04 -2.744536E+01  1.486342E+03 -2.678700E+03  1.890904E-09 -1.012831E-09
       182  15  5.895079E+04  5.244228E+02  2.379355E+03 -5.284352E+04 -9.887434E-10 -2.636031E-10
       182  16  9.670308E+04  9.646497E+03  1.008239E+04 -5.295269E+04  1.341801E-09  4.669368E-10
       182  17  8.111576E+02 -1.455289E+04 -1.278734E+04 -2.547997E+03 -5.743818E-10 -4.088000E-10
       182  18 -9.550134E+04 -3.786632E+04 -3.511090E+04 -5.247421E+04 -1.382264E-09 -8.341031E-10
       182  19  2.120086E+04 -9.028233E+03 -7.789220E+03 -5.273566E+04 -1.052034E+03 -2.136210E+03
       182  20  1.175202E+05  1.449775E+04  1.575978E+04 -2.809413E+03 -2.925492E+02  1.341459E+03
       182  21  2.134247E+05  3.891343E+04  3.986793E+04 -5.321291E+04  4.664339E+02  4.794594E+03
       182  22  5.895132E+04  3.091855E+02  1.146636E+03 -5.284417E+04  2.052507E+02 -2.140131E+03
       182  23  5.916412E+04 -2.744319E+01  1.486347E+03 -2.678699E+03  9.559473E+02  1.337677E+03
       182  24  5.895080E+04  5.244482E+02  2.379403E+03 -5.284351E+04  1.706026E+03  4.790919E+03
       182  25  9.670308E+04  9.646502E+03  1.008240E+04 -5.295270E+04  1.462612E+03 -2.144052E+03
       182  26  8.111633E+02 -1.455289E+04 -1.278733E+04 -2.547995E+03  2.204327E+03  1.333895E+03
       182  27 -9.550133E+04 -3.786629E+04 -3.511084E+04 -5.247420E+04  2.945311E+03  4.787245E+03
       183   1  4.136632E+05  8.849240E+04  9.000907E+04 -5.340560E+04 -8.966363E+02 -6.861376E+03
       183   2  5.094104E+05  1.117169E+05  1.151580E+05 -3.543940E+03 -3.515363E+03 -1.034929E+04
       183   3  6.061624E+05  1.382458E+05  1.427964E+05 -5.411163E+04 -6.129640E+03 -1.357049E+04
       183   4  5.923193E+04  2.300210E+02  3.034682E+03 -5.286846E+04 -2.202716E+03 -6.857835E+03
       183   5  5.873986E+04 -4.302231E+02  4.955685E+03 -2.649382E+03 -4.723805E+03 -1.034677E+04
       183   6  5.922802E+04  2.198900E+03  9.300326E+03 -5.286414E+04 -7.240044E+03 -1.356889E+04
       183   7 -2.950851E+05 -8.804167E+04 -8.394893E+04 -5.233155E+04 -3.508051E+03 -6.854295E+03
       183   8 -3.917457E+05 -1.125923E+05 -1.052615E+05 -1.755360E+03 -5.931372E+03 -1.034425E+04
       183   9 -4.874338E+05 -1.338701E+05 -1.242175E+05 -5.161759E+04 -8.349472E+03 -1.356728E+04
       183  10  4.136632E+05  8.849235E+04  9.000898E+04 -5.340560E+04 -1.004497E-09 -3.249079E-09
       183  11  5.094104E+05  1.117167E+05  1.151578E+05 -3.543969E+03 -1.362787E-09  3.551226E-10
       183  12  6.061623E+05  1.382456E+05  1.427960E+05 -5.411170E+04 -1.037506E-09  1.535918E-09
       183  13  5.923192E+04  2.299692E+02  3.034585E+03 -5.286847E+04  2.140723E-09 -3.125569E-10
       183  14  5.873981E+04 -4.303441E+02  4.955442E+03 -2.649422E+03  1.226193E-10 -4.453250E-10
       183  15  5.922791E+04  2.198688E+03  9.299881E+03 -5.286422E+04 -1.801154E-09 -6.474893E-10
       183  16 -2.950851E+05 -8.804173E+04 -8.394904E+04 -5.233157E+04  1.352066E-09  8.697531E-11
       183  17 -3.917458E+05 -1.125924E+05 -1.052617E+05 -1.755410E+03  7.244221E-10  4.000450E-09
       183  18 -4.874339E+05 -1.338703E+05 -1.242180E+05 -5.161768E+04  1.261226E-09  7.620644E-10
       183  19  4.136632E+05  8.849240E+04  9.000907E+04 -5.340560E+04  8.966363E+02  6.861376E+03
       183  20  5.094104E+05  1.117169E+05  1.151580E+05 -3.543940E+03  3.515363E+03  1.034929E+04
       183  21  6.061624E+05  1.382458E+05  1.427964E+05 -5.411163E+04  6.129640E+03  1.357049E+04
       183  22  5.923193E+04  2.300210E+02  3.034682E+03 -5.286846E+04  2.202716E+03  6.857835E+03
       183  23  5.873986E+04 -4.302231E+02  4.955685E+03 -2.649382E+03  4.723805E+03  1.034677E+04
       183  24  5.922802E+04  2.198900E+03  9.300326E+03 -5.286414E+04  7.240044E+03  1.356889E+04
       183  25 -2.950851E+05 -8.804167E+04 -8.394893E+04 -5.233155E+04  3.508051E+03  6.854295E+03
       183  26 -3.917457E+05 -1.125923E+05 -1.052615E+05 -1.755360E+03  5.931372E+03  1.034425E+04
       183  27 -4.874338E+05 -1.338701E+05 -1.242175E+05 -5.161759E+04  8.349472E+03  1.356728E+04
       184   1  8.081342E+05  1.854382E+05  1.948216E+05 -5.208460E+04 -7.388339E+03 -1.598811E+04
       184   2  9.004454E+05  2.065608E+05  2.255077E+05 -4.155579E+03 -1.833447E+04 -1.957018E+04
       184   3  1.001256E+06  2.507841E+05  2.693473E+05 -5.689897E+04 -2.927323E+04 -2.058042E+04
       184   4  6.078341E+04 -5.463957E+02  1.183328E+04 -5.292628E+04 -9.141578E+03 -1.598612E+04
       184   5  5.661018E+04 -3.362615E+03  1.926209E+04 -2.581320E+03 -1.914858E+04 -1.957104E+04
       184   6  6.077589E+04  1.677641E+04  3.920616E+04 -5.291695E+04 -2.914653E+04 -2.058265E+04
       184   7 -6.860589E+05 -1.865724E+05 -1.711959E+05 -5.376670E+04 -1.089271E+04 -1.598412E+04
       184   8 -7.865767E+05 -2.133387E+05 -1.870355E+05 -1.009028E+03 -1.996158E+04 -1.957191E+04
       184   9 -8.788989E+05 -2.172966E+05 -1.909997E+05 -4.894085E+04 -2.902000E+04 -2.058488E+04
       184  10  8.081340E+05  1.854380E+05  1.948210E+05 -5.208469E+04 -2.408020E-09  1.171520E-09
       184  11  9.004449E+05  2.065603E+05  2.255063E+05 -4.155868E+03  7.938610E-11 -9.664505E-10
       184  12  1.001255E+06  2.507834E+05  2.693449E+05 -5.689946E+04  6.292499E-10 -1.558753E-10
       184  13  6.078326E+04 -5.466926E+02  1.183265E+04 -5.292640E+04 -1.079370E-09  7.429532E-10
       184  14  5.660968E+04 -3.363125E+03  1.926068E+04 -2.581622E+03 -1.895478E-09  1.462270E-09
       184  15  6.077486E+04  1.677573E+04  3.920377E+04 -5.291743E+04 -9.292435E-10 -3.572100E-10
       184  16 -6.860591E+05 -1.865727E+05 -1.711966E+05 -5.376684E+04  2.736097E-09  4.734584E-11
       184  17 -7.865772E+05 -2.133392E+05 -1.870370E+05 -1.009342E+03 -1.228807E-09 -4.454659E-10
       184  18 -8.789000E+05 -2.172973E+05 -1.910020E+05 -4.894133E+04 -2.359365E-09  4.412145E-11
       184  19  8.081342E+05  1.854382E+05  1.948216E+05 -5.208460E+04  7.388339E+03  1.598811E+04
       184  20  9.004454E+05  2.065608E+05  2.255077E+05 -4.155579E+03  1.833447E+04  1.957018E+04
       184  21  1.001256E+06  2.507841E+05  2.693473E+05 -5.689897E+04  2.927323E+04  2.058042E+04
       184  22  6.078341E+04 -5.463957E+02  1.183328E+04 -5.292628E+04  9.141578E+03  1.598612E+04
       184  23  5.661018E+04 -3.362615E+03  1.926209E+04 -2.581320E+03  1.914858E+04  1.957104E+04
       184  24  6.077589E+04  1.677641E+04  3.920616E+04 -5.291695E+04  2.914653E+04  2.058265E+04
       184  25 -6.860589E+05 -1.865724E+05 -1.711959E+05 -5.376670E+04  1.089271E+04  1.598412E+04
       184  26 -7.865767E+05 -2.133387E+05 -1.870355E+05 -1.009028E+03  1.996158E+04  1.957191E+04
       184  27 -8.788989E+05 -2.172966E+05 -1.909997E+05 -4.894085E+04  2.902000E+04  2.058488E+04
       185   1  1.212284E+06  2.778804E+05  3.268213E+05 -3.837011E+04 -3.082210E+04 -2.632111E+04
       185   2  1.282093E+06  2.823120E+05  3.763004E+05 -1.009894E+04 -8.011621E+04 -3.083817E+04
       185   3  1.407014E+06  4.670334E+05  5.036354E+05 -8.283322E+04 -1.294616E+05 -1.079393E+04
       185   4  7.071817E+04 -6.063668E+03  4.782201E+04 -5.292244E+04 -3.682678E+04 -2.632408E+04
       185   5  4.388592E+04 -2.553169E+04  7.421488E+04 -2.553145E+03 -7.719219E+04 -3.083980E+04
       185   6  7.070845E+04  1.339301E+05  1.723729E+05 -5.319716E+04 -1.176003E+05 -1.077618E+04
       185   7 -1.069661E+06 -2.901032E+05 -2.312722E+05 -6.744797E+04 -4.282040E+04 -2.632677E+04
       185   8 -1.192924E+06 -3.334882E+05 -2.279822E+05  4.977179E+03 -7.427385E+04 -3.084136E+04
       185   9 -1.263976E+06 -1.993033E+05 -1.590217E+05 -2.362564E+04 -1.057643E+05 -1.075728E+04
       185  10  1.212283E+06  2.778794E+05  3.268182E+05 -3.837076E+04 -6.174149E-11  3.662803E-10
       185  11  1.282085E+06  2.823092E+05  3.762866E+05 -1.010092E+04 -1.411636E-09 -2.907850E-10
       185  12  1.406996E+06  4.670288E+05  5.036037E+05 -8.283435E+04 -1.498385E-09 -6.242347E-10
       185  13  7.071653E+04 -6.064776E+03  4.781816E+04 -5.292322E+04 -1.031852E-09  3.859242E-10
       185  14  4.387926E+04 -2.553431E+04  7.420189E+04 -2.555062E+03 -1.391539E-09  1.762994E-09
       185  15  7.069357E+04  1.339262E+05  1.723466E+05 -5.319818E+04 -1.422664E-09  1.802677E-11
       185  16 -1.069663E+06 -2.901045E+05 -2.312769E+05 -6.744888E+04 -8.727963E-10  8.085924E-10
       185  17 -1.192931E+06 -3.334907E+05 -2.279944E+05  4.975333E+03  3.496748E-10  4.106047E-10
       185  18 -1.263988E+06 -1.993065E+05 -1.590430E+05 -2.362655E+04 -1.243933E-10 -8.914099E-10
       185  19  1.212284E+06  2.778804E+05  3.268213E+05 -3.837011E+04  3.082210E+04  2.632111E+04
       185  20  1.282093E+06  2.823120E+05  3.763004E+05 -1.009894E+04  8.011621E+04  3.083817E+04
       185  21  1.407014E+06  4.670334E+05  5.036354E+05 -8.283322E+04  1.294616E+05  1.079393E+04
       185  22  7.071817E+04 -6.063668E+03  4.782201E+04 -5.292244E+04  3.682678E+04  2.632408E+04
       185  23  4.388592E+04 -2.553169E+04  7.421488E+04 -2.553145E+03  7.719219E+04  3.083980E+04
       185  24  7.070845E+04  1.339301E+05  1.723729E+05 -5.319716E+04  1.176003E+05  1.077618E+04
       185  25 -1.069661E+06 -2.901032E+05 -2.312722E+05 -6.744797E+04  4.282040E+04  2.632677E+04
       185  26 -1.192924E+06 -3.334882E+05 -2.279822E+05  4.977179E+03  7.427385E+04  3.084136E+04
       185  27 -1.263976E+06 -1.993033E+05 -1.590217E+05 -2.362564E+04  1.057643E+05  1.075728E+04
       186   1  1.852171E+05  4.808900E+05  2.257653E+05 -1.186582E+05  2.574086E+02  1.242464E+05
       186   2 -2.522624E+04  3.035344E+05  8.529367E+04 -1.489623E+04  2.871486E+02  7.716340E+04
       186   3 -3.946192E+04  1.793758E+05  2.410638E+04 -6.789224E+04 -4.866376E+03  3.006450E+04
       186   4  1.451152E+05  3.220252E+05  1.861947E+05 -8.360165E+04  2.687868E+02  1.233800E+05
       186   5 -2.729637E+04  2.955977E+05  8.344684E+04 -5.604771E+03  2.831328E+02  7.817443E+04
       186   6 -3.818349E+03  3.220392E+05  5.869857E+04 -8.435920E+04 -4.881981E+03  3.294161E+04
       186   7  1.050160E+05  1.631858E+05  1.466228E+05 -4.855401E+04  2.800693E+02  1.225138E+05
       186   8 -2.936618E+04  2.876614E+05  8.160006E+04  3.686562E+03  2.791471E+02  7.918546E+04
       186   9  3.182473E+04  4.647218E+05  9.328945E+04 -1.008299E+05 -4.897738E+03  3.581937E+04
       186  10  1.852130E+05  4.808734E+05  2.257363E+05 -1.186583E+05  4.926138E-10 -3.857450E-10
       186  11 -2.522783E+04  3.035280E+05  8.528249E+04 -1.489624E+04  5.398578E-10 -1.547101E-09
       186  12 -3.946219E+04  1.793748E+05  2.410464E+04 -6.789212E+04  2.449057E-11 -1.391046E-09
       186  13  1.451112E+05  3.220088E+05  1.861661E+05 -8.360167E+04  1.808255E-09  1.315749E-09
       186  14 -2.729801E+04  2.955912E+05  8.343536E+04 -5.604789E+03  9.743484E-10 -1.117049E-11
       186  15 -3.818666E+03  3.220380E+05  5.869648E+04 -8.435907E+04  8.071161E-10  3.587448E-10
       186  16  1.050120E+05  1.631697E+05  1.465946E+05 -4.855404E+04 -7.148467E-10  3.563481E-10
       186  17 -2.936787E+04  2.876546E+05  8.158828E+04  3.686545E+03  4.138401E-09  2.129475E-09
       186  18  3.182436E+04  4.647204E+05  9.328700E+04 -1.008298E+05 -3.141282E-09  1.493571E-09
       186  19  1.852171E+05  4.808900E+05  2.257653E+05 -1.186582E+05 -2.574086E+02 -1.242464E+05
       186  20 -2.522624E+04  3.035344E+05  8.529367E+04 -1.489623E+04 -2.871486E+02 -7.716340E+04
       186  21 -3.946192E+04  1.793758E+05  2.410638E+04 -6.789224E+04  4.866376E+03 -3.006450E+04
       186  22  1.451152E+05  3.220252E+05  1.861947E+05 -8.360165E+04 -2.687868E+02 -1.233800E+05
       186  23 -2.729637E+04  2.955977E+05  8.344684E+04 -5.604771E+03 -2.831328E+02 -7.817443E+04
       186  24 -3.818349E+03  3.220392E+05  5.869857E+04 -8.435920E+04  4.881981E+03 -3.294161E+04
       186  25  1.050160E+05  1.631858E+05  1.466228E+05 -4.855401E+04 -2.800693E+02 -1.225138E+05
       186  26 -2.936618E+04  2.876614E+05  8.160006E+04  3.686562E+03 -2.791471E+02 -7.918546E+04
       186  27  3.182473E+04  4.647218E+05  9.328945E+04 -1.008299E+05  4.897738E+03 -3.581937E+04
       187   1 -9.522838E+04 -1.438282E+05 -6.022216E+04 -8.829190E+04 -9.234343E+03  2.095680E+04
       187   2 -1.577190E+05 -3.017543E+05 -1.116715E+05 -3.540236E+03 -1.417320E+04  2.480863E+03
       187   3 -1.748910E+05 -4.468509E+05 -1.399614E+05 -7.684179E+04 -1.694269E+04 -1.597358E+04
       187   4  1.850747E+04  3.131031E+05  5.184895E+04 -8.436085E+04 -9.244870E+03  2.317133E+04
       187   5 -6.272961E+03  3.066316E+05  3.710932E+04 -5.355390E+03 -1.417864E+04  3.900486E+03
       187   6  1.438236E+04  3.130955E+05  4.606927E+04 -8.439217E+04 -1.694371E+04 -1.535332E+04
       187   7  1.322279E+05  7.702245E+05  1.639048E+05 -8.042664E+04 -9.255364E+03  2.538748E+04
       187   8  1.451457E+05  9.153548E+05  1.858631E+05 -7.171950E+03 -1.418408E+04  5.321495E+03
       187   9  2.036131E+05  1.073568E+06  2.320577E+05 -9.195126E+04 -1.694474E+04 -1.473229E+04
       187  10 -9.522859E+04 -1.438287E+05 -6.022314E+04 -8.829175E+04 -1.420613E-09  2.146848E-09
       187  11 -1.577192E+05 -3.017544E+05 -1.116719E+05 -3.540208E+03 -4.723994E-10 -9.269706E-10
       187  12 -1.748914E+05 -4.468513E+05 -1.399624E+05 -7.684201E+04  1.204453E-09 -3.366499E-09
       187  13  1.850724E+04  3.131025E+05  5.184778E+04 -8.436067E+04 -2.145599E-09  1.310100E-09
       187  14 -6.273181E+03  3.066315E+05  3.710891E+04 -5.355345E+03  8.605922E-10  1.223222E-10
       187  15  1.438199E+04  3.130951E+05  4.606828E+04 -8.439238E+04 -4.277192E-10  2.039456E-10
       187  16  1.322277E+05  7.702238E+05  1.639034E+05 -8.042645E+04 -2.191433E-09 -2.035603E-09
       187  17  1.451455E+05  9.153547E+05  1.858627E+05 -7.171889E+03 -1.231301E-09  1.883314E-09
       187  18  2.036128E+05  1.073568E+06  2.320567E+05 -9.195147E+04  8.491036E-11  3.667406E-09
       187  19 -9.522838E+04 -1.438282E+05 -6.022216E+04 -8.829190E+04  9.234343E+03 -2.095680E+04
       187  20 -1.577190E+05 -3.017543E+05 -1.116715E+05 -3.540236E+03  1.417320E+04 -2.480863E+03
       187  21 -1.748910E+05 -4.468509E+05 -1.399614E+05 -7.684179E+04  1.694269E+04  1.597358E+04
       187  22  1.850747E+04  3.131031E+05  5.184895E+04 -8.436085E+04  9.244870E+03 -2.317133E+04
       187  23 -6.272961E+03  3.066316E+05  3.710932E+04 -5.355390E+03  1.417864E+04 -3.900486E+03
       187  24  1.438236E+04  3.130955E+05  4.606927E+04 -8.439217E+04  1.694371E+04  1.535332E+04
       187  25  1.322279E+05  7.702245E+05  1.639048E+05 -8.042664E+04  9.255364E+03 -2.538748E+04
       187  26  1.451457E+05  9.153548E+05  1.858631E+05 -7.171950E+03  1.418408E+04 -5.321495E+03
       187  27  2.036131E+05  1.073568E+06  2.320577E+05 -9.195126E+04  1.694474E+04  1.473229E+04
       188   1 -2.702975E+05 -7.560562E+05 -2.126482E+05 -9.495781E+04 -2.416319E+04 -3.102083E+04
       188   2 -3.287764E+05 -9.324876E+05 -2.316524E+05  4.806113E+03 -3.060489E+04 -5.868850E+04
       188   3 -2.288604E+05 -1.063297E+06 -1.925358E+05 -5.514798E+04 -1.065467E+04 -8.629262E+04
       188   4 -2.312486E+03  3.205267E+05  5.086134E+04 -8.484555E+04 -2.418632E+04 -2.395523E+04
       188   5 -2.268136E+04  2.969275E+05  6.862360E+04 -4.900399E+03 -3.059412E+04 -6.117618E+04
       188   6  1.168372E+05  3.204954E+05  1.510543E+05 -8.464949E+04 -1.063121E+04 -9.834089E+04
       188   7  2.655873E+05  1.398167E+06  3.142864E+05 -7.471468E+04 -2.420919E+04 -1.687736E+04
       188   8  2.833023E+05  1.527721E+06  3.687895E+05 -1.462535E+04 -3.058328E+04 -6.366870E+04
       188   9  4.623943E+05  1.706030E+06  4.945023E+05 -1.142161E+05 -1.060663E+04 -1.104158E+05
       188  10 -2.702984E+05 -7.560574E+05 -2.126511E+05 -9.495842E+04  4.406903E-11 -8.555226E-10
       188  11 -3.287783E+05 -9.324915E+05 -2.316606E+05  4.804666E+03  2.594481E-09 -3.968643E-10
       188  12 -2.288625E+05 -1.063305E+06 -1.925500E+05 -5.514872E+04  2.377641E-10 -5.256123E-10
       188  13 -2.313268E+03  3.205259E+05  5.085916E+04 -8.484601E+04  1.440483E-09  9.790903E-10
       188  14 -2.268337E+04  2.969232E+05  6.861481E+04 -4.901906E+03  1.090852E-09  2.936756E-11
       188  15  1.168345E+05  3.204849E+05  1.510360E+05 -8.465034E+04 -1.334222E-10  6.519848E-11
       188  16  2.655866E+05  1.398166E+06  3.142847E+05 -7.471501E+04 -1.697144E-09  1.032759E-09
       188  17  2.833002E+05  1.527717E+06  3.687801E+05 -1.462691E+04  5.517815E-10  6.600259E-10
       188  18  4.623909E+05  1.706016E+06  4.944792E+05 -1.142171E+05  4.810071E-10  4.545267E-10
       188  19 -2.702975E+05 -7.560562E+05 -2.126482E+05 -9.495781E+04  2.416319E+04  3.102083E+04
       188  20 -3.287764E+05 -9.324876E+05 -2.316524E+05  4.806113E+03  3.060489E+04  5.868850E+04
       188  21 -2.288604E+05 -1.063297E+06 -1.925358E+05 -5.514798E+04  1.065467E+04  8.629262E+04
       188  22 -2.312486E+03  3.205267E+05  5.086134E+04 -8.484555E+04  2.418632E+04  2.395523E+04
       188  23 -2.268136E+04  2.969275E+05  6.862360E+04 -4.900399E+03  3.059412E+04  6.117618E+04
       188  24  1.168372E+05  3.204954E+05  1.510543E+05 -8.464949E+04  1.063121E+04  9.834089E+04
       188  25  2.655873E+05  1.398167E+06  3.142864E+05 -7.471468E+04  2.420919E+04  1.687736E+04
       188  26  2.833023E+05  1.527721E+06  3.687895E+05 -1.462535E+04  3.058328E+04  6.366870E+04
       188  27  4.623943E+05  1.706030E+06  4.945023E+05 -1.142161E+05  1.060663E+04  1.104158E+05
       189   1 -4.923958E+06 -1.595944E+06 -1.079107E+06 -1.665637E+06 -5.115908E+05 -1.842937E+05
       189   2 -4.788472E+06 -8.592044E+05 -6.065060E+05 -1.789546E+06 -3.332637E+05 -9.572998E+04
       189   3 -4.954208E+06 -8.886090E+05 -4.803075E+05 -1.723023E+06 -1.473577E+05 -2.711078E+04
       189   4 -3.967886E+06 -1.105048E+06 -7.904707E+05 -1.275451E+06 -5.027451E+05 -1.810599E+05
       189   5 -3.776792E+06 -4.407408E+05 -3.256084E+05 -1.477610E+06 -3.308501E+05 -9.484061E+04
       189   6 -3.885183E+06 -5.405716E+05 -2.016027E+05 -1.489477E+06 -1.513656E+05 -2.861287E+04
       189   7 -3.010884E+06 -6.138486E+05 -5.019254E+05 -8.846429E+05 -4.938839E+05 -1.778155E+05
       189   8 -2.764115E+06 -2.216156E+04 -4.480684E+04 -1.165192E+06 -3.284316E+05 -9.394906E+04
       189   9 -2.815053E+06 -1.925342E+05  7.700883E+04 -1.255598E+06 -1.553810E+05 -3.011685E+04
       189  10 -4.924250E+06 -1.596051E+06 -1.079667E+06 -1.665713E+06  8.160555E-11 -2.499417E-10
       189  11 -4.788594E+06 -8.592444E+05 -6.067340E+05 -1.789572E+06 -2.539588E-09 -6.238267E-10
       189  12 -4.954232E+06 -8.886157E+05 -4.803501E+05 -1.723027E+06 -2.775701E-09 -2.903535E-10
       189  13 -3.968168E+06 -1.105152E+06 -7.910111E+05 -1.275525E+06  2.967570E-09 -2.589394E-09
       189  14 -3.776912E+06 -4.407802E+05 -3.258326E+05 -1.477635E+06 -1.908368E-09 -1.568462E-09
       189  15 -3.885208E+06 -5.405787E+05 -2.016476E+05 -1.489480E+06  1.470364E-09 -1.445727E-09
       189  16 -3.011155E+06 -6.139486E+05 -5.024460E+05 -8.847139E+05  2.188799E-10 -5.144105E-10
       189  17 -2.764234E+06 -2.220023E+04 -4.502730E+04 -1.165217E+06  9.590573E-10 -2.422263E-09
       189  18 -2.815079E+06 -1.925417E+05  7.696151E+04 -1.255602E+06  1.968802E-09 -1.352715E-09
       189  19 -4.923958E+06 -1.595944E+06 -1.079107E+06 -1.665637E+06  5.115908E+05  1.842937E+05
       189  20 -4.788472E+06 -8.592044E+05 -6.065060E+05 -1.789546E+06  3.332637E+05  9.572998E+04
       189  21 -4.954208E+06 -8.886090E+05 -4.803075E+05 -1.723023E+06  1.473577E+05  2.711078E+04
       189  22 -3.967886E+06 -1.105048E+06 -7.904707E+05 -1.275451E+06  5.027451E+05  1.810599E+05
       189  23 -3.776792E+06 -4.407408E+05 -3.256084E+05 -1.477610E+06  3.308501E+05  9.484061E+04
       189  24 -3.885183E+06 -5.405716E+05 -2.016027E+05 -1.489477E+06  1.513656E+05  2.861287E+04
       189  25 -3.010884E+06 -6.138486E+05 -5.019254E+05 -8.846429E+05  4.938839E+05  1.778155E+05
       189  26 -2.764115E+06 -2.216156E+04 -4.480684E+04 -1.165192E+06  3.284316E+05  9.394906E+04
       189  27 -2.815053E+06 -1.925342E+05  7.700883E+04 -1.255598E+06  1.553810E+05  3.011685E+04
       190   1 -4.806966E+06 -1.011612E+06 -4.272546E+05 -1.722165E+06 -1.211664E+05 -2.108489E+04
       190   2 -4.764729E+06 -8.828337E+05 -3.266966E+05 -1.707177E+06 -8.019155E+04 -4.789926E+03
       190   3 -4.727996E+06 -8.877575E+05 -2.835683E+05 -1.706353E+06 -3.812583E+04  8.611341E+03
       190   4 -3.853754E+06 -6.347880E+05 -1.652298E+05 -1.446166E+06 -1.205651E+05 -2.086432E+04
       190   5 -3.845785E+06 -5.312525E+05 -7.680469E+04 -1.452918E+06 -8.049864E+04 -4.908744E+03
       190   6 -3.843081E+06 -5.611402E+05 -4.501600E+04 -1.473846E+06 -3.934468E+04  8.152193E+03
       190   7 -2.899659E+06 -2.578881E+05  9.671180E+04 -1.169773E+06 -1.199627E+05 -2.064325E+04
       190   8 -2.926023E+06 -1.796162E+05  1.730111E+05 -1.198316E+06 -8.080616E+04 -5.027725E+03
       190   9 -2.957409E+06 -2.344867E+05  1.934668E+05 -1.241042E+06 -4.056542E+04  7.692374E+03
       190  10 -4.806982E+06 -1.011616E+06 -4.272832E+05 -1.722168E+06 -2.750990E-09 -5.149549E-10
       190  11 -4.764736E+06 -8.828355E+05 -3.267088E+05 -1.707177E+06 -2.904273E-10 -7.594980E-10
       190  12 -4.727998E+06 -8.877579E+05 -2.835712E+05 -1.706353E+06 -1.671030E-10 -6.138172E-10
       190  13 -3.853769E+06 -6.347924E+05 -1.652581E+05 -1.446168E+06 -2.013411E-09 -5.917267E-10
       190  14 -3.845792E+06 -5.312542E+05 -7.681699E+04 -1.452919E+06  5.430709E-10 -2.693959E-10
       190  15 -3.843082E+06 -5.611407E+05 -4.501905E+04 -1.473846E+06  5.460238E-10 -5.072153E-10
       190  16 -2.899674E+06 -2.578924E+05  9.668381E+04 -1.169775E+06  1.227852E-09 -1.517468E-09
       190  17 -2.926030E+06 -1.796180E+05  1.729987E+05 -1.198316E+06  7.198935E-11  3.180747E-10
       190  18 -2.957411E+06 -2.344872E+05  1.934636E+05 -1.241042E+06  2.358927E-09  1.223315E-10
       190  19 -4.806966E+06 -1.011612E+06 -4.272546E+05 -1.722165E+06  1.211664E+05  2.108489E+04
       190  20 -4.764729E+06 -8.828337E+05 -3.266966E+05 -1.707177E+06  8.019155E+04  4.789926E+03
       190  21 -4.727996E+06 -8.877575E+05 -2.835683E+05 -1.706353E+06  3.812583E+04 -8.611341E+03
       190  22 -3.853754E+06 -6.347880E+05 -1.652298E+05 -1.446166E+06  1.205651E+05  2.086432E+04
       190  23 -3.845785E+06 -5.312525E+05 -7.680469E+04 -1.452918E+06  8.049864E+04  4.908744E+03
       190  24 -3.843081E+06 -5.611402E+05 -4.501600E+04 -1.473846E+06  3.934468E+04 -8.152193E+03
       190  25 -2.899659E+06 -2.578881E+05  9.671180E+04 -1.169773E+06  1.199627E+05  2.064325E+04
       190  26 -2.926023E+06 -1.796162E+05  1.730111E+05 -1.198316E+06  8.080616E+04  5.027725E+03
       190  27 -2.957409E+06 -2.344867E+05  1.934668E+05 -1.241042E+06  4.056542E+04 -7.692374E+03
       191   1 -4.581025E+06 -8.607680E+05 -2.380336E+05 -1.677160E+06 -3.154050E+04  9.204065E+03
       191   2 -4.537754E+06 -7.938751E+05 -2.016378E+05 -1.627996E+06 -2.125688E+04  1.053131E+04
       191   3 -4.442992E+06 -7.960488E+05 -1.755286E+05 -1.640112E+06 -1.068275E+04  1.106799E+04
       191   4 -3.834749E+06 -5.773773E+05 -3.563361E+04 -1.472803E+06 -3.217178E+04  8.965656E+03
       191   5 -3.859818E+06 -5.379994E+05 -1.796637E+04 -1.443982E+06 -2.214174E+04  1.019900E+04
       191   6 -3.833345E+06 -5.676239E+05 -1.037333E+04 -1.476440E+06 -1.182247E+04  1.064173E+04
       191   7 -3.087936E+06 -2.939532E+05  1.667159E+05 -1.268224E+06 -3.280388E+04  8.726935E+03
       191   8 -3.181438E+06 -2.820972E+05  1.656638E+05 -1.259785E+06 -2.302766E+04  9.866300E+03
       191   9 -3.223339E+06 -3.391786E+05  1.547489E+05 -1.312622E+06 -1.296344E+04  1.021502E+04
       191  10 -4.581026E+06 -8.607683E+05 -2.380356E+05 -1.677160E+06  1.261494E-09 -6.101858E-11
       191  11 -4.537754E+06 -7.938753E+05 -2.016389E+05 -1.627995E+06  3.041389E-10  1.102327E-09
       191  12 -4.442992E+06 -7.960489E+05 -1.755290E+05 -1.640112E+06  5.697994E-10  2.801891E-09
       191  13 -3.834750E+06 -5.773777E+05 -3.563571E+04 -1.472803E+06  1.106892E-09 -8.944897E-10
       191  14 -3.859819E+06 -5.379996E+05 -1.796749E+04 -1.443981E+06  1.375522E-09  1.852527E-09
       191  15 -3.833345E+06 -5.676241E+05 -1.037381E+04 -1.476440E+06 -1.035322E-09 -7.596578E-12
       191  16 -3.087937E+06 -2.939535E+05  1.667137E+05 -1.268224E+06  1.654963E-09 -2.619606E-10
       191  17 -3.181439E+06 -2.820974E+05  1.656627E+05 -1.259785E+06 -1.023142E-09  4.588596E-12
       191  18 -3.223339E+06 -3.391788E+05  1.547484E+05 -1.312621E+06 -2.335994E-09 -2.190248E-09
       191  19 -4.581025E+06 -8.607680E+05 -2.380336E+05 -1.677160E+06  3.154050E+04 -9.204065E+03
       191  20 -4.537754E+06 -7.938751E+05 -2.016378E+05 -1.627996E+06  2.125688E+04 -1.053131E+04
       191  21 -4.442992E+06 -7.960488E+05 -1.755286E+05 -1.640112E+06  1.068275E+04 -1.106799E+04
       191  22 -3.834749E+06 -5.773773E+05 -3.563361E+04 -1.472803E+06  3.217178E+04 -8.965656E+03
       191  23 -3.859818E+06 -5.379994E+05 -1.796637E+04 -1.443982E+06  2.214174E+04 -1.019900E+04
       191  24 -3.833345E+06 -5.676239E+05 -1.037333E+04 -1.476440E+06  1.182247E+04 -1.064173E+04
       191  25 -3.087936E+06 -2.939532E+05  1.667159E+05 -1.268224E+06  3.280388E+04 -8.726935E+03
       191  26 -3.181438E+06 -2.820972E+05  1.656638E+05 -1.259785E+06  2.302766E+04 -9.866300E+03
       191  27 -3.223339E+06 -3.391786E+05  1.547489E+05 -1.312622E+06  1.296344E+04 -1.021502E+04
       192   1 -4.255762E+06 -7.324842E+05 -1.232469E+05 -1.594358E+06 -8.564942E+03  9.695627E+03
       192   2 -4.203824E+06 -6.633573E+05 -9.673528E+04 -1.530931E+06 -4.800344E+03  7.437565E+03
       192   3 -4.082892E+06 -6.658668E+05 -7.259148E+04 -1.547606E+06 -9.277480E+02  4.879394E+03
       192   4 -3.829963E+06 -5.721817E+05 -8.255651E+03 -1.479110E+06 -9.594474E+03  9.311247E+03
       192   5 -3.864376E+06 -5.357455E+05 -4.883932E+03 -1.439293E+06 -5.928655E+03  7.017024E+03
       192   6 -3.829782E+06 -5.709224E+05 -3.799441E+03 -1.479577E+06 -2.155274E+03  4.422655E+03
       192   7 -3.403989E+06 -4.118689E+05  1.067194E+05 -1.363791E+06 -1.062479E+04  8.926575E+03
       192   8 -3.524816E+06 -4.081274E+05  8.695700E+04 -1.347609E+06 -7.057648E+03  6.596231E+03
       192   9 -3.576612E+06 -4.759748E+05  6.498670E+04 -1.411523E+06 -3.383351E+03  3.965712E+03
       192  10 -4.255762E+06 -7.324843E+05 -1.232472E+05 -1.594358E+06  1.686978E-09  2.173985E-09
       192  11 -4.203824E+06 -6.633574E+05 -9.673542E+04 -1.530931E+06  2.770690E-09  2.658360E-09
       192  12 -4.082892E+06 -6.658668E+05 -7.259153E+04 -1.547606E+06 -1.329486E-09 -1.274004E-09
       192  13 -3.829964E+06 -5.721818E+05 -8.255987E+03 -1.479110E+06 -1.994188E-10 -6.234364E-10
       192  14 -3.864376E+06 -5.357456E+05 -4.884090E+03 -1.439293E+06  2.232410E-09  1.299935E-09
       192  15 -3.829782E+06 -5.709224E+05 -3.799486E+03 -1.479577E+06 -9.164513E-12 -5.165321E-10
       192  16 -3.403990E+06 -4.118690E+05  1.067191E+05 -1.363791E+06 -1.747815E-09 -2.650734E-09
       192  17 -3.524816E+06 -4.081274E+05  8.695683E+04 -1.347609E+06 -1.834180E-10 -3.042380E-09
       192  18 -3.576612E+06 -4.759748E+05  6.498664E+04 -1.411523E+06  2.613646E-10 -1.273859E-09
       192  19 -4.255762E+06 -7.324842E+05 -1.232469E+05 -1.594358E+06  8.564942E+03 -9.695627E+03
       192  20 -4.203824E+06 -6.633573E+05 -9.673528E+04 -1.530931E+06  4.800344E+03 -7.437565E+03
       192  21 -4.082892E+06 -6.658668E+05 -7.259148E+04 -1.547606E+06  9.277480E+02 -4.879394E+03
       192  22 -3.829963E+06 -5.721817E+05 -8.255651E+03 -1.479110E+06  9.594474E+03 -9.311247E+03
       192  23 -3.864376E+06 -5.357455E+05 -4.883932E+03 -1.439293E+06  5.928655E+03 -7.017024E+03
       192  24 -3.829782E+06 -5.709224E+05 -3.799441E+03 -1.479577E+06  2.155274E+03 -4.422655E+03
       192  25 -3.403989E+06 -4.118689E+05  1.067194E+05 -1.363791E+06  1.062479E+04 -8.926575E+03
       192  26 -3.524816E+06 -4.081274E+05  8.695700E+04 -1.347609E+06  7.057648E+03 -6.596231E+03
       192  27 -3.576612E+06 -4.759748E+05  6.498670E+04 -1.411523E+06  3.383351E+03 -3.965712E+03
       193   1 -3.873145E+06 -5.885299E+05 -1.539981E+04 -1.492671E+06  4.709030E+02  2.971763E+03
       193   2 -3.818193E+06 -5.169077E+05  8.206979E+03 -1.425264E+06  4.086619E+03  2.367657E+02
       193   3 -3.690639E+06 -5.206791E+05  2.961754E+04 -1.442668E+06  7.680645E+03 -2.437137E+03
       193   4 -3.828979E+06 -5.718523E+05 -3.772460E+03 -1.480583E+06 -7.409776E+02  2.521104E+03
       193   5 -3.865342E+06 -5.346333E+05 -4.547987E+03 -1.437997E+06  2.894941E+03 -2.065034E+02
       193   6 -3.829116E+06 -5.728138E+05 -7.535843E+03 -1.480227E+06  6.508785E+03 -2.873119E+03
       193   7 -3.784810E+06 -5.551744E+05  7.854754E+03 -1.468494E+06 -1.952956E+03  2.070407E+03
       193   8 -3.912489E+06 -5.523589E+05 -1.730316E+04 -1.450730E+06  1.703361E+03 -6.497357E+02
       193   9 -3.967576E+06 -6.249475E+05 -4.469092E+04 -1.517779E+06  5.337213E+03 -3.308992E+03
       193  10 -3.873145E+06 -5.885299E+05 -1.539983E+04 -1.492671E+06 -6.627646E-10  8.881369E-10
       193  11 -3.818193E+06 -5.169077E+05  8.206947E+03 -1.425264E+06  1.122195E-09  1.488573E-09
       193  12 -3.690639E+06 -5.206791E+05  2.961741E+04 -1.442668E+06  7.885568E-10 -1.163109E-09
       193  13 -3.828979E+06 -5.718523E+05 -3.772473E+03 -1.480583E+06  2.255890E-10 -1.632826E-09
       193  14 -3.865342E+06 -5.346333E+05 -4.548003E+03 -1.437997E+06  1.346879E-09  1.314135E-09
       193  15 -3.829116E+06 -5.728139E+05 -7.535938E+03 -1.480227E+06 -1.532635E-09  7.303157E-11
       193  16 -3.784810E+06 -5.551745E+05  7.854738E+03 -1.468494E+06 -8.264957E-10 -1.091758E-09
       193  17 -3.912489E+06 -5.523589E+05 -1.730317E+04 -1.450730E+06 -1.042435E-09 -2.332781E-09
       193  18 -3.967576E+06 -6.249475E+05 -4.469099E+04 -1.517779E+06 -1.517256E-09 -8.871306E-10
       193  19 -3.873145E+06 -5.885299E+05 -1.539981E+04 -1.492671E+06 -4.709030E+02 -2.971763E+03
       193  20 -3.818193E+06 -5.169077E+05  8.206979E+03 -1.425264E+06 -4.086619E+03 -2.367657E+02
       193  21 -3.690639E+06 -5.206791E+05  2.961754E+04 -1.442668E+06 -7.680645E+03  2.437137E+03
       193  22 -3.828979E+06 -5.718523E+05 -3.772460E+03 -1.480583E+06  7.409776E+02 -2.521104E+03
       193  23 -3.865342E+06 -5.346333E+05 -4.547987E+03 -1.437997E+06 -2.894941E+03  2.065034E+02
       193  24 -3.829116E+06 -5.728138E+05 -7.535843E+03 -1.480227E+06 -6.508785E+03  2.873119E+03
       193  25 -3.784810E+06 -5.551744E+05  7.854754E+03 -1.468494E+06  1.952956E+03 -2.070407E+03
       193  26 -3.912489E+06 -5.523589E+05 -1.730316E+04 -1.450730E+06 -1.703361E+03  6.497357E+02
       193  27 -3.967576E+06 -6.249475E+05 -4.469092E+04 -1.517779E+06 -5.337213E+03  3.308992E+03
       194   1 -3.486467E+06 -4.415999E+05  8.386571E+04 -1.387443E+06  9.942499E+03 -4.010917E+03
       194   2 -3.435718E+06 -3.741092E+05  9.938658E+04 -1.324594E+06  1.933202E+04 -4.427708E+03
       194   3 -3.322559E+06 -3.855578E+05  1.057990E+05 -1.336628E+06  2.851238E+04 -4.266643E+03
       194   4 -3.830927E+06 -5.700825E+05 -9.451455E+03 -1.479349E+06  8.690459E+03 -4.477129E+03
       194   5 -3.862734E+06 -5.349622E+05 -1.617060E+04 -1.440280E+06  1.826777E+04 -4.824902E+03
       194   6 -3.832176E+06 -5.788279E+05 -3.215250E+04 -1.476101E+06  2.763465E+04 -4.595084E+03
       194   7 -4.175272E+06 -6.985586E+05 -1.027791E+05 -1.571208E+06  7.439188E+03 -4.943059E+03
       194   8 -4.289574E+06 -6.958047E+05 -1.317441E+05 -1.555894E+06  1.720431E+04 -5.221795E+03
       194   9 -4.341544E+06 -7.720825E+05 -1.701276E+05 -1.615470E+06  2.675772E+04 -4.923226E+03
       194  10 -3.486467E+06 -4.416000E+05  8.386549E+04 -1.387443E+06 -4.776606E-10 -2.605445E-09
       194  11 -3.435719E+06 -3.741093E+05  9.938584E+04 -1.324594E+06 -6.191857E-10  1.546198E-09
       194  12 -3.322560E+06 -3.855580E+05  1.057975E+05 -1.336628E+06  2.129746E-09  6.600235E-10
       194  13 -3.830927E+06 -5.700825E+05 -9.451635E+03 -1.479349E+06  3.018914E-11 -4.043682E-11
       194  14 -3.862734E+06 -5.349623E+05 -1.617127E+04 -1.440280E+06 -3.092420E-09 -1.235411E-09
       194  15 -3.832177E+06 -5.788281E+05 -3.215398E+04 -1.476101E+06 -3.954502E-10 -1.977331E-09
       194  16 -4.175272E+06 -6.985587E+05 -1.027792E+05 -1.571208E+06 -4.724050E-10 -4.992319E-10
       194  17 -4.289574E+06 -6.958048E+05 -1.317447E+05 -1.555894E+06  1.867826E-09  2.306831E-09
       194  18 -4.341544E+06 -7.720827E+05 -1.701290E+05 -1.615470E+06 -4.044070E-10 -3.232041E-09
       194  19 -3.486467E+06 -4.415999E+05  8.386571E+04 -1.387443E+06 -9.942499E+03  4.010917E+03
       194  20 -3.435718E+06 -3.741092E+05  9.938658E+04 -1.324594E+06 -1.933202E+04  4.427708E+03
       194  21 -3.322559E+06 -3.855578E+05  1.057990E+05 -1.336628E+06 -2.851238E+04  4.266643E+03
       194  22 -3.830927E+06 -5.700825E+05 -9.451455E+03 -1.479349E+06 -8.690459E+03  4.477129E+03
       194  23 -3.862734E+06 -5.349622E+05 -1.617060E+04 -1.440280E+06 -1.826777E+04  4.824902E+03
       194  24 -3.832176E+06 -5.788279E+05 -3.215250E+04 -1.476101E+06 -2.763465E+04  4.595084E+03
       194  25 -4.175272E+06 -6.985586E+05 -1.027791E+05 -1.571208E+06 -7.439188E+03  4.943059E+03
       194  26 -4.289574E+06 -6.958047E+05 -1.317441E+05 -1.555894E+06 -1.720431E+04  5.221795E+03
       194  27 -4.341544E+06 -7.720825E+05 -1.701276E+05 -1.615470E+06 -2.675772E+04  4.923226E+03
       195   1 -3.150112E+06 -3.125866E+05  1.446725E+05 -1.298649E+06  3.576113E+04 -3.906734E+03
       195   2 -3.106231E+06 -2.436418E+05  1.330645E+05 -1.241576E+06  7.234798E+04  6.514155E+03
       195   3 -3.047149E+06 -3.152066E+05  7.100028E+04 -1.221110E+06  1.079345E+05  1.962966E+04
       195   4 -3.838876E+06 -5.649900E+05 -4.059702E+04 -1.477928E+06  3.432800E+04 -4.442959E+03
       195   5 -3.851137E+06 -5.278702E+05 -6.915869E+04 -1.447193E+06  7.177579E+04  6.297691E+03
       195   6 -3.848415E+06 -6.315065E+05 -1.489108E+05 -1.453062E+06  1.082190E+05  1.973164E+04
       195   7 -4.527182E+06 -8.173728E+05 -2.259085E+05 -1.657030E+06  3.289661E+04 -4.978575E+03
       195   8 -4.595506E+06 -8.120629E+05 -2.714317E+05 -1.652584E+06  7.120432E+04  6.081501E+03
       195   9 -4.649057E+06 -9.477525E+05 -3.688804E+05 -1.684737E+06  1.085031E+05  1.983341E+04
       195  10 -3.150113E+06 -3.125870E+05  1.446701E+05 -1.298649E+06 -4.985257E-10 -1.956985E-09
       195  11 -3.106237E+06 -2.436433E+05  1.330545E+05 -1.241577E+06 -2.404671E-11 -1.229554E-09
       195  12 -3.047162E+06 -3.152102E+05  7.097754E+04 -1.221112E+06 -1.411418E-09  7.384464E-10
       195  13 -3.838877E+06 -5.649903E+05 -4.059928E+04 -1.477928E+06  2.539243E-09  5.018915E-10
       195  14 -3.851142E+06 -5.278716E+05 -6.916851E+04 -1.447193E+06 -2.987191E-09 -1.617044E-09
       195  15 -3.848427E+06 -6.315101E+05 -1.489337E+05 -1.453064E+06  1.116118E-10  8.582764E-10
       195  16 -4.527183E+06 -8.173731E+05 -2.259106E+05 -1.657030E+06 -7.395281E-10 -1.871083E-09
       195  17 -4.595511E+06 -8.120643E+05 -2.714413E+05 -1.652584E+06 -5.651450E-10 -7.231565E-10
       195  18 -4.649070E+06 -9.477561E+05 -3.689034E+05 -1.684738E+06  5.615134E-10 -4.952464E-10
       195  19 -3.150112E+06 -3.125866E+05  1.446725E+05 -1.298649E+06 -3.576113E+04  3.906734E+03
       195  20 -3.106231E+06 -2.436418E+05  1.330645E+05 -1.241576E+06 -7.234798E+04 -6.514155E+03
       195  21 -3.047149E+06 -3.152066E+05  7.100028E+04 -1.221110E+06 -1.079345E+05 -1.962966E+04
       195  22 -3.838876E+06 -5.649900E+05 -4.059702E+04 -1.477928E+06 -3.432800E+04  4.442959E+03
       195  23 -3.851137E+06 -5.278702E+05 -6.915869E+04 -1.447193E+06 -7.177579E+04 -6.297691E+03
       195  24 -3.848415E+06 -6.315065E+05 -1.489108E+05 -1.453062E+06 -1.082190E+05 -1.973164E+04
       195  25 -4.527182E+06 -8.173728E+05 -2.259085E+05 -1.657030E+06 -3.289661E+04  4.978575E+03
       195  26 -4.595506E+06 -8.120629E+05 -2.714317E+05 -1.652584E+06 -7.120432E+04 -6.081501E+03
       195  27 -4.649057E+06 -9.477525E+05 -3.688804E+05 -1.684737E+06 -1.085031E+05 -1.983341E+04
       196   1 -2.910714E+06 -2.334202E+05  6.972226E+04 -1.282311E+06  1.405416E+05  2.739959E+04
       196   2 -2.848858E+06 -5.979261E+04 -3.306904E+04 -1.181375E+06  2.964710E+05  8.329577E+04
       196   3 -3.033378E+06 -5.947208E+05 -4.376337E+05 -9.342301E+05  4.450475E+05  1.587267E+05
       196   4 -3.876610E+06 -5.465878E+05 -1.816489E+05 -1.492050E+06  1.363106E+05  2.582077E+04
       196   5 -3.789466E+06 -4.460959E+05 -2.933830E+05 -1.469208E+06  2.985523E+05  8.405944E+04
       196   6 -3.950375E+06 -1.056093E+06 -7.122803E+05 -1.300046E+06  4.534403E+05  1.617970E+05
       196   7 -4.841606E+06 -8.597568E+05 -4.330962E+05 -1.701521E+06  1.320867E+05  2.424375E+04
       196   8 -4.729214E+06 -8.323022E+05 -5.537793E+05 -1.756629E+06  3.006299E+05  8.482140E+04
       196   9 -4.866520E+06 -1.517204E+06 -9.870089E+05 -1.665305E+06  4.618190E+05  1.648579E+05
       196  10 -2.910735E+06 -2.334264E+05  6.968353E+04 -1.282315E+06 -9.572537E-10  6.785994E-11
       196  11 -2.848955E+06 -5.982386E+04 -3.324822E+04 -1.181395E+06 -2.913587E-09 -4.075811E-10
       196  12 -3.033598E+06 -5.948015E+05 -4.380556E+05 -9.342872E+05 -1.273263E-09 -1.262621E-09
       196  13 -3.876630E+06 -5.465936E+05 -1.816853E+05 -1.492053E+06  5.939808E-10 -5.621603E-10
       196  14 -3.789564E+06 -4.461277E+05 -2.935651E+05 -1.469228E+06 -3.051330E-09 -1.762637E-09
       196  15 -3.950605E+06 -1.056177E+06 -7.127190E+05 -1.300105E+06  1.096838E-10 -1.150107E-10
       196  16 -4.841625E+06 -8.597621E+05 -4.331304E+05 -1.701523E+06 -1.939177E-10 -9.825843E-10
       196  17 -4.729314E+06 -8.323345E+05 -5.539642E+05 -1.756650E+06 -1.414979E-09 -9.484063E-10
       196  18 -4.866758E+06 -1.517291E+06 -9.874648E+05 -1.665367E+06  3.831702E-10 -1.202504E-09
       196  19 -2.910714E+06 -2.334202E+05  6.972226E+04 -1.282311E+06 -1.405416E+05 -2.739959E+04
       196  20 -2.848858E+06 -5.979261E+04 -3.306904E+04 -1.181375E+06 -2.964710E+05 -8.329577E+04
       196  21 -3.033378E+06 -5.947208E+05 -4.376337E+05 -9.342301E+05 -4.450475E+05 -1.587267E+05
       196  22 -3.876610E+06 -5.465878E+05 -1.816489E+05 -1.492050E+06 -1.363106E+05 -2.582077E+04
       196  23 -3.789466E+06 -4.460959E+05 -2.933830E+05 -1.469208E+06 -2.985523E+05 -8.405944E+04
       196  24 -3.950375E+06 -1.056093E+06 -7.122803E+05 -1.300046E+06 -4.534403E+05 -1.617970E+05
       196  25 -4.841606E+06 -8.597568E+05 -4.330962E+05 -1.701521E+06 -1.320867E+05 -2.424375E+04
       196  26 -4.729214E+06 -8.323022E+05 -5.537793E+05 -1.756629E+06 -3.006299E+05 -8.482140E+04
       196  27 -4.866520E+06 -1.517204E+06 -9.870089E+05 -1.665305E+06 -4.618190E+05 -1.648579E+05
       197   1  6.855496E+05  1.835518E+05  2.751225E+05  5.699313E+04  2.760679E+05  5.022155E+03
       197   2  6.622763E+05 -1.872346E+05  5.280606E+04  2.137252E+04  1.831414E+05  1.306971E+04
       197   3  7.581268E+05 -1.329632E+05 -2.598323E+03 -5.226038E+04  9.022844E+04  1.120057E+04
       197   4  1.234479E+06  3.199552E+05  4.110897E+05 -1.788248E+04  2.810139E+05  5.000193E+03
       197   5  1.174744E+06 -5.993930E+04  1.777908E+05  1.513277E+03  1.844326E+05  1.306554E+04
       197   6  1.234657E+06 -1.434233E+04  1.138337E+05 -1.710298E+04  8.787101E+04  1.120136E+04
       197   7  1.783694E+06  4.563574E+05  5.470377E+05 -9.282442E+04  2.859642E+05  4.977061E+03
       197   8  1.687451E+06  6.733816E+04  3.027566E+05 -1.836250E+04  1.857249E+05  1.306130E+04
       197   9  1.711396E+06  1.042664E+05  2.302497E+05  1.808137E+04  8.551176E+04  1.120189E+04
       197  10  6.854678E+05  1.835314E+05  2.749794E+05  5.699202E+04  5.933540E-10  1.154257E-09
       197  11  6.622402E+05 -1.872437E+05  5.274278E+04  2.137060E+04  1.075149E-10 -5.828821E-10
       197  12  7.581180E+05 -1.329655E+05 -2.613839E+03 -5.226120E+04  1.589103E-09 -4.599358E-10
       197  13  1.234394E+06  3.199340E+05  4.109416E+05 -1.788361E+04  1.567720E-11  4.725751E-10
       197  14  1.174707E+06 -5.994859E+04  1.777266E+05  1.511338E+03 -2.231747E-09 -2.567083E-09
       197  15  1.234649E+06 -1.434453E+04  1.138189E+05 -1.710377E+04  6.290748E-10  2.954927E-11
       197  16  1.783607E+06  4.563355E+05  5.468844E+05 -9.282557E+04  1.124204E-10 -2.474366E-10
       197  17  1.687414E+06  6.732875E+04  3.026916E+05 -1.836445E+04 -3.432950E-10 -3.469156E-10
       197  18  1.711389E+06  1.042643E+05  2.302358E+05  1.808060E+04 -4.141328E-10 -9.823314E-10
       197  19  6.855496E+05  1.835518E+05  2.751225E+05  5.699313E+04 -2.760679E+05 -5.022155E+03
       197  20  6.622763E+05 -1.872346E+05  5.280606E+04  2.137252E+04 -1.831414E+05 -1.306971E+04
       197  21  7.581268E+05 -1.329632E+05 -2.598323E+03 -5.226038E+04 -9.022844E+04 -1.120057E+04
       197  22  1.234479E+06  3.199552E+05  4.110897E+05 -1.788248E+04 -2.810139E+05 -5.000193E+03
       197  23  1.174744E+06 -5.993930E+04  1.777908E+05  1.513277E+03 -1.844326E+05 -1.306554E+04
       197  24  1.234657E+06 -1.434233E+04  1.138337E+05 -1.710298E+04 -8.787101E+04 -1.120136E+04
       197  25  1.783694E+06  4.563574E+05  5.470377E+05 -9.282442E+04 -2.859642E+05 -4.977061E+03
       197  26  1.687451E+06  6.733816E+04  3.027566E+05 -1.836250E+04 -1.857249E+05 -1.306130E+04
       197  27  1.711396E+06  1.042664E+05  2.302497E+05  1.808137E+04 -8.551176E+04 -1.120189E+04
       198   1  8.053381E+05 -6.061783E+04 -5.887237E+03 -7.879543E+03  6.948094E+04  8.940589E+03
       198   2  8.290782E+05 -1.007446E+05 -4.520506E+04  2.322998E+03  4.589788E+04  8.716282E+03
       198   3  8.697784E+05 -8.688064E+04 -5.560159E+04 -2.107959E+04  2.231449E+04  7.509707E+03
       198   4  1.211820E+06  4.044510E+04  9.353857E+04 -1.639941E+04  6.961930E+04  8.939406E+03
       198   5  1.203331E+06 -7.696472E+03  4.621994E+04  4.295085E+02  4.566804E+04  8.715543E+03
       198   6  1.211854E+06 -1.801755E+03  2.806442E+04 -1.634518E+04  2.171770E+04  7.509174E+03
       198   7  1.618452E+06  1.414961E+05  1.929524E+05 -2.492491E+04  6.975773E+04  8.938220E+03
       198   8  1.577710E+06  8.534130E+04  1.376347E+05 -1.465157E+03  4.543807E+04  8.714806E+03
       198   9  1.554035E+06  8.326857E+04  1.117219E+05 -1.160817E+04  2.112058E+04  7.508632E+03
       198  10  8.053329E+05 -6.061921E+04 -5.896447E+03 -7.880044E+03 -5.052132E-10 -1.247743E-09
       198  11  8.290760E+05 -1.007452E+05 -4.520916E+04  2.322676E+03  9.606593E-10  9.482394E-10
       198  12  8.697778E+05 -8.688083E+04 -5.560263E+04 -2.107972E+04 -1.607064E-10 -4.783514E-10
       198  13  1.211814E+06  4.044371E+04  9.352933E+04 -1.639991E+04 -1.101789E-09 -8.795554E-10
       198  14  1.203328E+06 -7.697112E+03  4.621588E+04  4.291881E+02 -1.383637E-09 -1.930096E-11
       198  15  1.211853E+06 -1.801942E+03  2.806343E+04 -1.634531E+04  3.616147E-10 -9.102991E-10
       198  16  1.618446E+06  1.414947E+05  1.929431E+05 -2.492541E+04  1.132733E-09  5.423048E-11
       198  17  1.577708E+06  8.534067E+04  1.376307E+05 -1.465476E+03 -1.282033E-09 -1.503128E-09
       198  18  1.554035E+06  8.326839E+04  1.117210E+05 -1.160830E+04 -9.994725E-10 -3.285369E-10
       198  19  8.053381E+05 -6.061783E+04 -5.887237E+03 -7.879543E+03 -6.948094E+04 -8.940589E+03
       198  20  8.290782E+05 -1.007446E+05 -4.520506E+04  2.322998E+03 -4.589788E+04 -8.716282E+03
       198  21  8.697784E+05 -8.688064E+04 -5.560159E+04 -2.107959E+04 -2.231449E+04 -7.509707E+03
       198  22  1.211820E+06  4.044510E+04  9.353857E+04 -1.639941E+04 -6.961930E+04 -8.939406E+03
       198  23  1.203331E+06 -7.696472E+03  4.621994E+04  4.295085E+02 -4.566804E+04 -8.715543E+03
       198  24  1.211854E+06 -1.801755E+03  2.806442E+04 -1.634518E+04 -2.171770E+04 -7.509174E+03
       198  25  1.618452E+06  1.414961E+05  1.929524E+05 -2.492491E+04 -6.975773E+04 -8.938220E+03
       198  26  1.577710E+06  8.534130E+04  1.376347E+05 -1.465157E+03 -4.543807E+04 -8.714806E+03
       198  27  1.554035E+06  8.326857E+04  1.117219E+05 -1.160817E+04 -2.112058E+04 -7.508632E+03
       199   1  9.304374E+05 -6.412360E+04 -4.571148E+04 -1.493179E+04  1.756761E+04  6.700065E+03
       199   2  9.587206E+05 -6.281191E+04 -4.890643E+04 -2.162901E+02  1.160221E+04  5.705806E+03
       199   3  9.896492E+05 -5.468681E+04 -4.648408E+04 -1.639307E+04  5.635799E+03  4.645779E+03
       199   4  1.208668E+06  5.037662E+03  2.219592E+04 -1.576075E+04  1.722744E+04  6.699651E+03
       199   5  1.207348E+06 -9.961701E+02  1.184004E+04 -3.136271E+02  1.123591E+04  5.705518E+03
       199   6  1.208676E+06 -2.137775E+02  7.117664E+03 -1.575797E+04  5.243640E+03  4.645618E+03
       199   7  1.486970E+06  7.419322E+04  9.009768E+04 -1.659009E+04  1.688711E+04  6.699237E+03
       199   8  1.456032E+06  6.081501E+04  7.258201E+04 -4.110084E+02  1.086945E+04  5.705231E+03
       199   9  1.427745E+06  5.425571E+04  6.071590E+04 -1.512265E+04  4.851343E+03  4.645456E+03
       199  10  9.304370E+05 -6.412373E+04 -4.571214E+04 -1.493189E+04  1.163830E-09  5.389603E-11
       199  11  9.587204E+05 -6.281198E+04 -4.890675E+04 -2.163434E+02  1.836569E-09  3.642606E-11
       199  12  9.896492E+05 -5.468684E+04 -4.648418E+04 -1.639309E+04 -1.072989E-09 -2.241641E-10
       199  13  1.208668E+06  5.037534E+03  2.219528E+04 -1.576084E+04  1.710102E-11 -4.188367E-10
       199  14  1.207348E+06 -9.962389E+02  1.183974E+04 -3.136787E+02  6.489018E-10 -1.706261E-10
       199  15  1.208675E+06 -2.138080E+02  7.117572E+03 -1.575799E+04 -1.143438E-09 -2.180953E-10
       199  16  1.486970E+06  7.419310E+04  9.009706E+04 -1.659018E+04 -2.181474E-09 -6.085776E-10
       199  17  1.456032E+06  6.081494E+04  7.258173E+04 -4.110583E+02  4.474915E-10 -3.663327E-10
       199  18  1.427745E+06  5.425568E+04  6.071582E+04 -1.512267E+04 -8.378475E-11 -1.724719E-10
       199  19  9.304374E+05 -6.412360E+04 -4.571148E+04 -1.493179E+04 -1.756761E+04 -6.700065E+03
       199  20  9.587206E+05 -6.281191E+04 -4.890643E+04 -2.162901E+02 -1.160221E+04 -5.705806E+03
       199  21  9.896492E+05 -5.468681E+04 -4.648408E+04 -1.639307E+04 -5.635799E+03 -4.645779E+03
       199  22  1.208668E+06  5.037662E+03  2.219592E+04 -1.576075E+04 -1.722744E+04 -6.699651E+03
       199  23  1.207348E+06 -9.961701E+02  1.184004E+04 -3.136271E+02 -1.123591E+04 -5.705518E+03
       199  24  1.208676E+06 -2.137775E+02  7.117664E+03 -1.575797E+04 -5.243640E+03 -4.645618E+03
       199  25  1.486970E+06  7.419322E+04  9.009768E+04 -1.659009E+04 -1.688711E+04 -6.699237E+03
       199  26  1.456032E+06  6.081501E+04  7.258201E+04 -4.110084E+02 -1.086945E+04 -5.705231E+03
       199  27  1.427745E+06  5.425571E+04  6.071590E+04 -1.512265E+04 -4.851343E+03 -4.645456E+03
       200   1  1.048761E+06 -3.901377E+04 -3.326241E+04 -1.532220E+04  4.466104E+03  4.026530E+03
       200   2  1.076556E+06 -3.280674E+04 -2.872877E+04 -7.693157E+02  2.775047E+03  3.008474E+03
       200   3  1.104834E+06 -2.569085E+04 -2.286096E+04 -1.546528E+04  1.083552E+03  2.002931E+03
       200   4  1.208201E+06  6.078748E+02  5.604238E+03 -1.539369E+04  4.097592E+03  4.026439E+03
       200   5  1.207960E+06 -1.379083E+02  3.375900E+03 -7.694394E+02  2.410653E+03  3.008445E+03
       200   6  1.208202E+06  2.435979E+01  2.478663E+03 -1.539366E+04  7.233523E+02  2.002966E+03
       200   7  1.367664E+06  4.022765E+04  4.446904E+04 -1.546519E+04  3.728986E+03  4.026348E+03
       200   8  1.339381E+06  3.252965E+04  3.547931E+04 -7.695629E+02  2.046183E+03  3.008417E+03
       200   9  1.311580E+06  2.573878E+04  2.781751E+04 -1.532202E+04  3.630929E+02  2.003000E+03
       200  10  1.048761E+06 -3.901379E+04 -3.326248E+04 -1.532221E+04 -2.827936E-10 -1.803900E-10
       200  11  1.076556E+06 -3.280675E+04 -2.872880E+04 -7.693224E+02 -1.837306E-09  3.671568E-10
       200  12  1.104834E+06 -2.569085E+04 -2.286097E+04 -1.546528E+04 -3.882275E-10 -1.122381E-10
       200  13  1.208201E+06  6.078529E+02  5.604176E+03 -1.539370E+04  6.918347E-10 -1.037594E-10
       200  14  1.207960E+06 -1.379196E+02  3.375872E+03 -7.694452E+02  7.601414E-10  1.758665E-10
       200  15  1.208202E+06  2.435534E+01  2.478654E+03 -1.539366E+04 -1.511859E-09  1.439929E-10
       200  16  1.367664E+06  4.022763E+04  4.446898E+04 -1.546520E+04  3.382037E-10  1.578531E-10
       200  17  1.339381E+06  3.252964E+04  3.547929E+04 -7.695679E+02 -7.538138E-10 -5.334085E-11
       200  18  1.311580E+06  2.573877E+04  2.781750E+04 -1.532202E+04  1.642066E-09 -2.756999E-10
       200  19  1.048761E+06 -3.901377E+04 -3.326241E+04 -1.532220E+04 -4.466104E+03 -4.026530E+03
       200  20  1.076556E+06 -3.280674E+04 -2.872877E+04 -7.693157E+02 -2.775047E+03 -3.008474E+03
       200  21  1.104834E+06 -2.569085E+04 -2.286096E+04 -1.546528E+04 -1.083552E+03 -2.002931E+03
       200  22  1.208201E+06  6.078748E+02  5.604238E+03 -1.539369E+04 -4.097592E+03 -4.026439E+03
       200  23  1.207960E+06 -1.379083E+02  3.375900E+03 -7.694394E+02 -2.410653E+03 -3.008445E+03
       200  24  1.208202E+06  2.435979E+01  2.478663E+03 -1.539366E+04 -7.233523E+02 -2.002966E+03
       200  25  1.367664E+06  4.022765E+04  4.446904E+04 -1.546519E+04 -3.728986E+03 -4.026348E+03
       200  26  1.339381E+06  3.252965E+04  3.547931E+04 -7.695629E+02 -2.046183E+03 -3.008417E+03
       200  27  1.311580E+06  2.573878E+04  2.781751E+04 -1.532202E+04 -3.630929E+02 -2.003000E+03
       201   1  1.162123E+06 -1.136782E+04 -8.855603E+03 -1.519658E+04  6.512670E+02  1.421077E+03
       201   2  1.189392E+06 -4.717384E+03 -2.102706E+03 -9.509195E+02 -5.736809E+02  4.256754E+02
       201   3  1.216959E+06  2.534151E+03  5.593985E+03 -1.530648E+04 -1.798714E+03 -5.597130E+02
       201   4  1.208164E+06  6.076213E+01  2.306476E+03 -1.524984E+04  2.905423E+02  1.421139E+03
       201   5  1.208015E+06 -8.778097E+01  2.447101E+03 -9.492187E+02 -9.308458E+02  4.257442E+02
       201   6  1.208163E+06  3.643027E+02  3.529188E+03 -1.524977E+04 -2.152265E+03 -5.596351E+02
       201   7  1.254207E+06  1.148919E+04  1.346840E+04 -1.530309E+04 -7.020909E+01  1.421201E+03
       201   8  1.226639E+06  4.541796E+03  6.996883E+03 -9.475178E+02 -1.288021E+03  4.258130E+02
       201   9  1.199367E+06 -1.805551E+03  1.464387E+03 -1.519306E+04 -2.505812E+03 -5.595573E+02
       201  10  1.162123E+06 -1.136782E+04 -8.855607E+03 -1.519658E+04 -7.808670E-14 -2.192257E-10
       201  11  1.189392E+06 -4.717384E+03 -2.102706E+03 -9.509193E+02  3.705524E-10  2.763304E-10
       201  12  1.216959E+06  2.534150E+03  5.593978E+03 -1.530648E+04 -9.737807E-10  8.953962E-10
       201  13  1.208164E+06  6.075994E+01  2.306472E+03 -1.524984E+04 -4.362151E-10  5.550922E-11
       201  14  1.208015E+06 -8.778139E+01  2.447099E+03 -9.492184E+02 -3.082706E-09 -2.444654E-10
       201  15  1.208163E+06  3.643011E+02  3.529179E+03 -1.524977E+04  9.137794E-10 -1.800760E-09
       201  16  1.254207E+06  1.148919E+04  1.346840E+04 -1.530309E+04 -3.159501E-10  6.632606E-10
       201  17  1.226639E+06  4.541795E+03  6.996879E+03 -9.475174E+02  2.913715E-09  4.443932E-10
       201  18  1.199367E+06 -1.805553E+03  1.464374E+03 -1.519306E+04  1.029045E-09  5.082342E-10
       201  19  1.162123E+06 -1.136782E+04 -8.855603E+03 -1.519658E+04 -6.512670E+02 -1.421077E+03
       201  20  1.189392E+06 -4.717384E+03 -2.102706E+03 -9.509195E+02  5.736809E+02 -4.256754E+02
       201  21  1.216959E+06  2.534151E+03  5.593985E+03 -1.530648E+04  1.798714E+03  5.597130E+02
       201  22  1.208164E+06  6.076213E+01  2.306476E+03 -1.524984E+04 -2.905423E+02 -1.421139E+03
       201  23  1.208015E+06 -8.778097E+01  2.447101E+03 -9.492187E+02  9.308458E+02 -4.257442E+02
       201  24  1.208163E+06  3.643027E+02  3.529188E+03 -1.524977E+04  2.152265E+03  5.596351E+02
       201  25  1.254207E+06  1.148919E+04  1.346840E+04 -1.530309E+04  7.020909E+01 -1.421201E+03
       201  26  1.226639E+06  4.541796E+03  6.996883E+03 -9.475178E+02  1.288021E+03 -4.258130E+02
       201  27  1.199367E+06 -1.805551E+03  1.464387E+03 -1.519306E+04  2.505812E+03  5.595573E+02
       202   1  1.274230E+06  1.626578E+04  2.049578E+04 -1.497938E+04 -2.489654E+03 -1.146738E+03
       202   2  1.301226E+06  2.267971E+04  2.983300E+04 -9.679578E+02 -6.044007E+03 -2.147111E+03
       202   3  1.329690E+06  3.306752E+04  4.247625E+04 -1.587812E+04 -9.598325E+03 -3.089222E+03
       202   4  1.208421E+06 -1.097359E+02  4.335265E+03 -1.532115E+04 -2.860829E+03 -1.146668E+03
       202   5  1.207688E+06 -5.716643E+02  6.984436E+03 -8.601483E+02 -6.393706E+03 -2.147093E+03
       202   6  1.208417E+06  2.936895E+03  1.292513E+04 -1.532097E+04 -9.926392E+03 -3.089253E+03
       202   7  1.142617E+06 -1.648558E+04 -1.182557E+04 -1.566290E+04 -3.231965E+03 -1.146598E+03
       202   8  1.114157E+06 -2.382369E+04 -1.586476E+04 -7.523547E+02 -6.743353E+03 -2.147075E+03
       202   9  1.087158E+06 -2.719481E+04 -1.662705E+04 -1.476392E+04 -1.025439E+04 -3.089286E+03
       202  10  1.274230E+06  1.626578E+04  2.049577E+04 -1.497938E+04 -1.122425E-09  8.787863E-10
       202  11  1.301226E+06  2.267970E+04  2.983292E+04 -9.679683E+02  2.988518E-09  2.299496E-10
       202  12  1.329690E+06  3.306748E+04  4.247606E+04 -1.587815E+04  2.460374E-09  3.931077E-10
       202  13  1.208421E+06 -1.097395E+02  4.335247E+03 -1.532116E+04  4.196949E-10 -1.740729E-09
       202  14  1.207688E+06 -5.716802E+02  6.984351E+03 -8.601593E+02 -3.979355E-10 -1.139658E-09
       202  15  1.208417E+06  2.936859E+03  1.292493E+04 -1.532099E+04  8.963124E-11 -1.617906E-10
       202  16  1.142617E+06 -1.648558E+04 -1.182559E+04 -1.566290E+04  1.636050E-09  5.230179E-10
       202  17  1.114157E+06 -2.382371E+04 -1.586486E+04 -7.523664E+02  7.242303E-10  2.073802E-11
       202  18  1.087158E+06 -2.719485E+04 -1.662727E+04 -1.476395E+04 -3.166100E-09 -2.019259E-10
       202  19  1.274230E+06  1.626578E+04  2.049578E+04 -1.497938E+04  2.489654E+03  1.146738E+03
       202  20  1.301226E+06  2.267971E+04  2.983300E+04 -9.679578E+02  6.044007E+03  2.147111E+03
       202  21  1.329690E+06  3.306752E+04  4.247625E+04 -1.587812E+04  9.598325E+03  3.089222E+03
       202  22  1.208421E+06 -1.097359E+02  4.335265E+03 -1.532115E+04  2.860829E+03  1.146668E+03
       202  23  1.207688E+06 -5.716643E+02  6.984436E+03 -8.601483E+02  6.393706E+03  2.147093E+03
       202  24  1.208417E+06  2.936895E+03  1.292513E+04 -1.532097E+04  9.926392E+03  3.089253E+03
       202  25  1.142617E+06 -1.648558E+04 -1.182557E+04 -1.566290E+04  3.231965E+03  1.146598E+03
       202  26  1.114157E+06 -2.382369E+04 -1.586476E+04 -7.523547E+02  6.743353E+03  2.147075E+03
       202  27  1.087158E+06 -2.719481E+04 -1.662705E+04 -1.476392E+04  1.025439E+04  3.089286E+03
       203   1  1.390154E+06  4.370561E+04  6.032686E+04 -1.296818E+04 -1.203476E+04 -3.788971E+03
       203   2  1.414246E+06  4.746437E+04  7.781181E+04 -1.735981E+03 -2.617252E+04 -4.853744E+03
       203   3  1.448121E+06  8.258096E+04  1.123480E+05 -2.072844E+04 -4.031074E+04 -5.243722E+03
       203   4  1.210255E+06 -1.026639E+03  1.630547E+04 -1.560839E+04 -1.253746E+04 -3.789003E+03
       203   5  1.205373E+06 -4.449637E+03  2.680703E+04 -5.000213E+02 -2.642776E+04 -4.853957E+03
       203   6  1.210235E+06  2.344825E+04  5.419269E+04 -1.561677E+04 -4.031786E+04 -5.244189E+03
       203   7  1.030386E+06 -4.576125E+04 -2.771828E+04 -1.824783E+04 -1.304001E+04 -3.789031E+03
       203   8  9.965405E+05 -5.636685E+04 -2.420093E+04  7.355206E+02 -2.668290E+04 -4.854170E+03
       203   9  9.724011E+05 -3.568854E+04 -3.966764E+03 -1.050707E+04 -4.032497E+04 -5.244655E+03
       203  10  1.390154E+06  4.370555E+04  6.032656E+04 -1.296822E+04  1.379892E-09  3.357765E-10
       203  11  1.414245E+06  4.746416E+04  7.781048E+04 -1.736083E+03 -5.448301E-10  7.025209E-12
       203  12  1.448119E+06  8.258050E+04  1.123449E+05 -2.072861E+04 -1.808100E-09  1.073935E-10
       203  13  1.210255E+06 -1.026697E+03  1.630515E+04 -1.560843E+04 -1.684314E-11  3.656550E-11
       203  14  1.205373E+06 -4.449849E+03  2.680567E+04 -5.001246E+02 -9.236000E-10  1.345985E-11
       203  15  1.210234E+06  2.344779E+04  5.418959E+04 -1.561694E+04 -2.498233E-11 -1.643173E-10
       203  16  1.030386E+06 -4.576131E+04 -2.771863E+04 -1.824787E+04 -9.658478E-10 -1.555188E-10
       203  17  9.965397E+05 -5.636707E+04 -2.420231E+04  7.354163E+02 -6.195299E-11  1.692715E-10
       203  18  9.723993E+05 -3.568900E+04 -3.969867E+03 -1.050724E+04  3.421885E-10  4.662928E-11
       203  19  1.390154E+06  4.370561E+04  6.032686E+04 -1.296818E+04  1.203476E+04  3.788971E+03
       203  20  1.414246E+06  4.746437E+04  7.781181E+04 -1.735981E+03  2.617252E+04  4.853744E+03
       203  21  1.448121E+06  8.258096E+04  1.123480E+05 -2.072844E+04  4.031074E+04  5.243722E+03
       203  22  1.210255E+06 -1.026639E+03  1.630547E+04 -1.560839E+04  1.253746E+04  3.789003E+03
       203  23  1.205373E+06 -4.449637E+03  2.680703E+04 -5.000213E+02  2.642776E+04  4.853957E+03
       203  24  1.210235E+06  2.344825E+04  5.419269E+04 -1.561677E+04  4.031786E+04  5.244189E+03
       203  25  1.030386E+06 -4.576125E+04 -2.771828E+04 -1.824783E+04  1.304001E+04  3.789031E+03
       203  26  9.965405E+05 -5.636685E+04 -2.420093E+04  7.355206E+02  2.668290E+04  4.854170E+03
       203  27  9.724011E+05 -3.568854E+04 -3.966764E+03 -1.050707E+04  4.032497E+04  5.244655E+03
       204   1  1.523518E+06  6.631776E+04  1.392323E+05  4.077234E+03 -4.919601E+04 -6.901398E+03
       204   2  1.520039E+06  4.756158E+04  1.837193E+05 -1.162738E+04 -1.075875E+05 -8.315561E+03
       204   3  1.586119E+06  2.756408E+05  3.279291E+05 -5.997905E+04 -1.659866E+05 -3.002665E+03
       204   4  1.223459E+06 -8.286189E+03  6.594101E+04 -1.609092E+04 -5.089040E+04 -6.900882E+03
       204   5  1.188819E+06 -3.470989E+04  1.029773E+05  1.344233E+02 -1.068312E+05 -8.317309E+03
       204   6  1.223348E+06  1.853442E+05  2.380751E+05 -1.628561E+04 -1.627765E+05 -3.011097E+03
       204   7  9.234823E+05 -8.289525E+04 -7.356619E+03 -3.624933E+04 -5.258398E+04 -6.900255E+03
       204   8  8.576981E+05 -1.169889E+05  2.222732E+04  1.188993E+04 -1.060753E+05 -8.319030E+03
       204   9  8.607017E+05  9.504497E+04  1.482124E+05  2.738231E+04 -1.595682E+05 -3.019083E+03
       204  10  1.523516E+06  6.631706E+04  1.392277E+05  4.076961E+03 -7.722055E-10  3.372067E-10
       204  11  1.520027E+06  4.755841E+04  1.836975E+05 -1.162810E+04 -2.264134E-09 -1.242452E-10
       204  12  1.586089E+06  2.756334E+05  3.278774E+05 -5.997945E+04  6.536895E-10  4.248791E-10
       204  13  1.223456E+06 -8.286934E+03  6.593607E+04 -1.609120E+04 -8.486250E-10 -9.714966E-10
       204  14  1.188806E+06 -3.471302E+04  1.029557E+05  1.337081E+02 -7.510339E-10  2.140372E-11
       204  15  1.223320E+06  1.853371E+05  2.380254E+05 -1.628600E+04  9.236887E-10 -4.583039E-10
       204  16  9.234793E+05 -8.289605E+04 -7.361897E+03 -3.624962E+04  1.437445E-09 -2.323043E-10
       204  17  8.576861E+05 -1.169920E+05  2.220607E+04  1.188922E+04  2.241493E-09 -4.642191E-10
       204  18  8.606743E+05  9.503814E+04  1.481646E+05  2.738192E+04  1.000858E-09  9.103291E-10
       204  19  1.523518E+06  6.631776E+04  1.392323E+05  4.077234E+03  4.919601E+04  6.901398E+03
       204  20  1.520039E+06  4.756158E+04  1.837193E+05 -1.162738E+04  1.075875E+05  8.315561E+03
       204  21  1.586119E+06  2.756408E+05  3.279291E+05 -5.997905E+04  1.659866E+05  3.002665E+03
       204  22  1.223459E+06 -8.286189E+03  6.594101E+04 -1.609092E+04  5.089040E+04  6.900882E+03
       204  23  1.188819E+06 -3.470989E+04  1.029773E+05  1.344233E+02  1.068312E+05  8.317309E+03
       204  24  1.223348E+06  1.853442E+05  2.380751E+05 -1.628561E+04  1.627765E+05  3.011097E+03
       204  25  9.234823E+05 -8.289525E+04 -7.356619E+03 -3.624933E+04  5.258398E+04  6.900255E+03
       204  26  8.576981E+05 -1.169889E+05  2.222732E+04  1.188993E+04  1.060753E+05  8.319030E+03
       204  27  8.607017E+05  9.504497E+04  1.482124E+05  2.738231E+04  1.595682E+05  3.019083E+03
       205   1  6.559941E+05  1.945936E+06  6.319329E+05 -7.189652E+05  2.374422E+04  2.110599E+05
       205   2  4.482377E+05  1.373626E+06  3.851365E+05 -6.422242E+05  7.430720E+04  8.081426E+04
       205   3  2.968139E+05  8.321334E+05  2.370123E+05 -6.662374E+05  7.178311E+04 -4.943771E+04
       205   4  7.906656E+04 -3.883227E+05  8.143172E+04 -6.627874E+05  2.435708E+04  5.434677E+04
       205   5  2.620461E+04 -3.938959E+05  4.261171E+04 -6.125418E+05  7.451948E+04  3.276322E+04
       205   6  1.094910E+04 -3.876899E+05  2.720023E+04 -6.630436E+05  7.153594E+04  1.105083E+04
       205   7 -4.982268E+05 -2.717520E+06 -4.693522E+05 -6.068144E+05  2.494306E+04 -1.017821E+05
       205   8 -3.960109E+05 -2.158413E+06 -3.000509E+05 -5.829413E+05  7.472756E+04 -1.515441E+04
       205   9 -2.749934E+05 -1.606045E+06 -1.826486E+05 -6.598541E+05  7.128908E+04  7.142433E+04
       205  10  6.559815E+05  1.945888E+06  6.318483E+05 -7.189693E+05  1.381767E-09  1.753080E-09
       205  11  4.482300E+05  1.373617E+06  3.851139E+05 -6.422291E+05  5.671457E-10 -4.984471E-09
       205  12  2.968077E+05  8.321294E+05  2.369980E+05 -6.662346E+05 -6.332406E-10 -4.851787E-09
       205  13  7.906513E+04 -3.883261E+05  8.142504E+04 -6.627884E+05  1.544158E-09  1.483561E-09
       205  14  2.619836E+04 -3.938985E+05  4.259925E+04 -6.125437E+05  4.366226E-10  2.542937E-10
       205  15  1.094357E+04 -3.876914E+05  2.719038E+04 -6.630443E+05 -2.429035E-10 -2.138973E-09
       205  16 -4.982303E+05 -2.717531E+06 -4.693729E+05 -6.068124E+05  3.204156E-10 -1.687160E-09
       205  17 -3.960170E+05 -2.158415E+06 -3.000618E+05 -5.829404E+05  3.714366E-09  4.457840E-09
       205  18 -2.750002E+05 -1.606052E+06 -1.826678E+05 -6.598582E+05  3.346041E-10  3.861470E-09
       205  19  6.559941E+05  1.945936E+06  6.319329E+05 -7.189652E+05 -2.374422E+04 -2.110599E+05
       205  20  4.482377E+05  1.373626E+06  3.851365E+05 -6.422242E+05 -7.430720E+04 -8.081426E+04
       205  21  2.968139E+05  8.321334E+05  2.370123E+05 -6.662374E+05 -7.178311E+04  4.943771E+04
       205  22  7.906656E+04 -3.883227E+05  8.143172E+04 -6.627874E+05 -2.435708E+04 -5.434677E+04
       205  23  2.620461E+04 -3.938959E+05  4.261171E+04 -6.125418E+05 -7.451948E+04 -3.276322E+04
       205  24  1.094910E+04 -3.876899E+05  2.720023E+04 -6.630436E+05 -7.153594E+04 -1.105083E+04
       205  25 -4.982268E+05 -2.717520E+06 -4.693522E+05 -6.068144E+05 -2.494306E+04  1.017821E+05
       205  26 -3.960109E+05 -2.158413E+06 -3.000509E+05 -5.829413E+05 -7.472756E+04  1.515441E+04
       205  27 -2.749934E+05 -1.606045E+06 -1.826486E+05 -6.598541E+05 -7.128908E+04 -7.142433E+04
       206   1  2.127360E+05  4.759565E+05  1.706953E+05 -6.695932E+05  5.248518E+04 -5.262643E+04
       206   2  7.903543E+04 -8.210881E+04  6.980022E+04 -6.120953E+05  2.255515E+04 -6.687214E+04
       206   3 -4.666900E+04 -6.368136E+05 -2.006178E+04 -6.588775E+05 -8.877776E+03 -8.111689E+04
       206   4  1.019770E+04 -3.896094E+05  2.371187E+04 -6.638113E+05  5.222964E+04  7.040961E+03
       206   5  7.753608E+03 -3.908131E+05  2.216380E+04 -6.116670E+05  2.228069E+04 -4.155961E+03
       206   6  1.279074E+04 -3.894930E+05  2.952824E+04 -6.638016E+05 -9.171744E+03 -1.536379E+04
       206   7 -1.923783E+05 -1.254430E+06 -1.232826E+05 -6.580366E+05  5.197498E+04  6.662787E+04
       206   8 -6.353073E+04 -6.994137E+05 -2.545998E+04 -6.112387E+05  2.200622E+04  5.853022E+04
       206   9  7.224911E+04 -1.421045E+05  7.913144E+04 -6.687277E+05 -9.466684E+03  5.041502E+04
       206  10  2.127323E+05  4.759528E+05  1.706850E+05 -6.695909E+05 -2.290915E-10  1.418425E-09
       206  11  7.903369E+04 -8.211375E+04  6.979086E+04 -6.120941E+05  2.272618E-09 -6.008460E-09
       206  12 -4.667085E+04 -6.368207E+05 -2.007431E+04 -6.588781E+05 -9.024460E-11 -4.790259E-09
       206  13  1.019476E+04 -3.896101E+05  2.370665E+04 -6.638116E+05  3.505288E-10  1.502858E-09
       206  14  7.753070E+03 -3.908133E+05  2.216283E+04 -6.116669E+05 -2.859915E-09  2.685484E-10
       206  15  1.279058E+04 -3.894932E+05  2.952764E+04 -6.638018E+05 -6.902853E-10 -1.515703E-09
       206  16 -1.923824E+05 -1.254436E+06 -1.232960E+05 -6.580394E+05  9.866498E-11 -1.418332E-09
       206  17 -6.353218E+04 -6.994175E+05 -2.546734E+04 -6.112398E+05 -3.423365E-10  4.552005E-09
       206  18  7.224833E+04 -1.421073E+05  7.912649E+04 -6.687273E+05  9.591540E-10  4.431205E-09
       206  19  2.127360E+05  4.759565E+05  1.706953E+05 -6.695932E+05 -5.248518E+04  5.262643E+04
       206  20  7.903543E+04 -8.210881E+04  6.980022E+04 -6.120953E+05 -2.255515E+04  6.687214E+04
       206  21 -4.666900E+04 -6.368136E+05 -2.006178E+04 -6.588775E+05  8.877776E+03  8.111689E+04
       206  22  1.019770E+04 -3.896094E+05  2.371187E+04 -6.638113E+05 -5.222964E+04 -7.040961E+03
       206  23  7.753608E+03 -3.908131E+05  2.216380E+04 -6.116670E+05 -2.228069E+04  4.155961E+03
       206  24  1.279074E+04 -3.894930E+05  2.952824E+04 -6.638016E+05  9.171744E+03  1.536379E+04
       206  25 -1.923783E+05 -1.254430E+06 -1.232826E+05 -6.580366E+05 -5.197498E+04 -6.662787E+04
       206  26 -6.353073E+04 -6.994137E+05 -2.545998E+04 -6.112387E+05 -2.200622E+04 -5.853022E+04
       206  27  7.224911E+04 -1.421045E+05  7.913144E+04 -6.687277E+05  9.466684E+03 -5.041502E+04
       207   1 -1.281127E+05 -9.866349E+05 -7.416157E+04 -6.622681E+05 -2.945819E+04 -8.673171E+04
       207   2 -2.387486E+05 -1.544259E+06 -1.691710E+05 -5.720119E+05 -4.234005E+04 -3.740709E+04
       207   3 -3.077911E+05 -2.098233E+06 -2.861149E+05 -5.835586E+05 -1.541606E+04  1.198494E+04
       207   4  1.417760E+04 -3.862432E+05  3.640590E+04 -6.632717E+05 -2.975057E+04 -2.043728E+04
       207   5  3.795153E+04 -3.951435E+05  6.205219E+04 -6.121930E+05 -4.226900E+04 -5.219963E+04
       207   6  1.173683E+05 -3.866443E+05  1.221055E+05 -6.628698E+05 -1.502176E+04 -8.385109E+04
       207   7  1.564497E+05  2.145082E+05  1.469750E+05 -6.642758E+05 -3.004298E+04  4.591966E+04
       207   8  3.145757E+05  7.552372E+05  2.932094E+05 -6.524483E+05 -4.219610E+04 -6.701900E+04
       207   9  5.423429E+05  1.327671E+06  5.301575E+05 -7.423973E+05 -1.460358E+04 -1.799506E+05
       207  10 -1.281157E+05 -9.866433E+05 -7.417737E+04 -6.622702E+05  6.088343E-10  1.281329E-09
       207  11 -2.387509E+05 -1.544261E+06 -1.691770E+05 -5.720131E+05  2.785305E-09 -4.206529E-09
       207  12 -3.077914E+05 -2.098233E+06 -2.861156E+05 -5.835584E+05  3.794162E-10 -3.421467E-09
       207  13  1.417654E+04 -3.862439E+05  3.640344E+04 -6.632722E+05 -3.898996E-10  1.839985E-09
       207  14  3.794888E+04 -3.951469E+05  6.204370E+04 -6.121948E+05 -2.862828E-09  3.851748E-10
       207  15  1.173662E+05 -3.866519E+05  1.220918E+05 -6.628708E+05  2.011727E-10 -1.916055E-09
       207  16  1.564482E+05  2.145057E+05  1.469694E+05 -6.642747E+05 -4.837251E-10 -8.662721E-10
       207  17  3.145725E+05  7.552319E+05  2.931976E+05 -6.524506E+05  1.934564E-09  3.692535E-09
       207  18  5.423340E+05  1.327636E+06  5.300963E+05 -7.423995E+05  1.148776E-09  2.500459E-09
       207  19 -1.281127E+05 -9.866349E+05 -7.416157E+04 -6.622681E+05  2.945819E+04  8.673171E+04
       207  20 -2.387486E+05 -1.544259E+06 -1.691710E+05 -5.720119E+05  4.234005E+04  3.740709E+04
       207  21 -3.077911E+05 -2.098233E+06 -2.861149E+05 -5.835586E+05  1.541606E+04 -1.198494E+04
       207  22  1.417760E+04 -3.862432E+05  3.640590E+04 -6.632717E+05  2.975057E+04  2.043728E+04
       207  23  3.795153E+04 -3.951435E+05  6.205219E+04 -6.121930E+05  4.226900E+04  5.219963E+04
       207  24  1.173683E+05 -3.866443E+05  1.221055E+05 -6.628698E+05  1.502176E+04  8.385109E+04
       207  25  1.564497E+05  2.145082E+05  1.469750E+05 -6.642758E+05  3.004298E+04 -4.591966E+04
       207  26  3.145757E+05  7.552372E+05  2.932094E+05 -6.524483E+05  4.219610E+04  6.701900E+04
       207  27  5.423429E+05  1.327671E+06  5.301575E+05 -7.423973E+05  1.460358E+04  1.799506E+05
       208   1 -2.593639E+06 -1.009018E+06 -5.285602E+05 -9.677588E+05 -1.860932E+05 -3.398346E+04
       208   2 -2.414094E+06 -9.313295E+05 -3.861808E+05 -9.112060E+05 -1.199271E+05  7.636368E+04
       208   3 -2.225214E+06 -8.836102E+05 -3.154715E+05 -8.841242E+05 -3.356450E+04  1.334190E+05
       208   4 -4.018854E+05 -2.009232E+05  2.913436E+04 -3.823046E+05  6.899624E+03  3.885333E+04
       208   5 -4.181052E+05 -2.071372E+05  1.369226E+04 -3.633268E+05 -2.831678E+04  1.108675E+05
       208   6 -4.048456E+05 -2.231746E+05  7.190525E+03 -3.738300E+05 -4.340562E+04  1.296681E+05
       208   7  1.794571E+06  6.074435E+05  5.865811E+05  2.050093E+05  2.006353E+05  1.119580E+05
       208   8  1.582003E+06  5.173845E+05  4.134037E+05  1.861788E+05  6.361035E+04  1.454882E+05
       208   9  1.419063E+06  4.375978E+05  3.297542E+05  1.378749E+05 -5.327785E+04  1.259056E+05
       208  10 -2.593677E+06 -1.009029E+06 -5.286278E+05 -9.677639E+05 -1.315889E-09  7.081728E-11
       208  11 -2.414111E+06 -9.313396E+05 -3.862188E+05 -9.111986E+05  2.643151E-09  9.418692E-10
       208  12 -2.225220E+06 -8.836296E+05 -3.155070E+05 -8.841206E+05  2.404487E-09  1.044737E-09
       208  13 -4.018858E+05 -2.009249E+05  2.913143E+04 -3.823048E+05  5.856211E-10  7.692427E-10
       208  14 -4.181094E+05 -2.071506E+05  1.366766E+04 -3.633243E+05 -1.042140E-09 -3.779312E-09
       208  15 -4.048521E+05 -2.231932E+05  7.155397E+03 -3.738255E+05  9.880680E-10 -5.181558E-10
       208  16  1.794524E+06  6.074193E+05  5.864821E+05  2.049912E+05  5.363653E-10  2.098620E-10
       208  17  1.581993E+06  5.173607E+05  4.133564E+05  1.861714E+05 -1.932294E-09  1.370891E-09
       208  18  1.419055E+06  4.375800E+05  3.297191E+05  1.378803E+05 -3.565337E-09 -3.098009E-09
       208  19 -2.593639E+06 -1.009018E+06 -5.285602E+05 -9.677588E+05  1.860932E+05  3.398346E+04
       208  20 -2.414094E+06 -9.313295E+05 -3.861808E+05 -9.112060E+05  1.199271E+05 -7.636368E+04
       208  21 -2.225214E+06 -8.836102E+05 -3.154715E+05 -8.841242E+05  3.356450E+04 -1.334190E+05
       208  22 -4.018854E+05 -2.009232E+05  2.913436E+04 -3.823046E+05 -6.899624E+03 -3.885333E+04
       208  23 -4.181052E+05 -2.071372E+05  1.369226E+04 -3.633268E+05  2.831678E+04 -1.108675E+05
       208  24 -4.048456E+05 -2.231746E+05  7.190525E+03 -3.738300E+05  4.340562E+04 -1.296681E+05
       208  25  1.794571E+06  6.074435E+05  5.865811E+05  2.050093E+05 -2.006353E+05 -1.119580E+05
       208  26  1.582003E+06  5.173845E+05  4.134037E+05  1.861788E+05 -6.361035E+04 -1.454882E+05
       208  27  1.419063E+06  4.375978E+05  3.297542E+05  1.378749E+05  5.327785E+04 -1.259056E+05
       209   1 -2.110183E+06 -8.400855E+05 -2.913860E+05 -8.516569E+05 -3.670070E+04  1.271726E+05
       209   2 -1.944383E+06 -7.616305E+05 -2.525894E+05 -7.873706E+05 -2.575912E+04  1.247261E+05
       209   3 -1.753890E+06 -7.101518E+05 -2.205112E+05 -7.527135E+05 -1.281901E+04  1.169452E+05
       209   4 -4.049996E+05 -2.238661E+05  5.359296E+03 -3.748338E+05 -4.254838E+04  1.249308E+05
       209   5 -4.183005E+05 -2.118209E+05  2.767601E+03 -3.598105E+05 -4.176310E+04  1.186714E+05
       209   6 -4.049286E+05 -2.247334E+05  1.522244E+03 -3.744230E+05 -3.898475E+04  1.070841E+05
       209   7  1.303272E+06  3.926388E+05  3.020175E+05  1.032167E+05 -4.841329E+04  1.226825E+05
       209   8  1.110263E+06  3.382208E+05  2.580649E+05  6.873488E+04 -5.780894E+04  1.126010E+05
       209   9  9.459680E+05  2.608659E+05  2.235125E+05  4.636865E+03 -6.521068E+04  9.720048E+04
       209  10 -2.110189E+06 -8.401033E+05 -2.914189E+05 -8.516531E+05 -2.518756E-09 -5.210028E-10
       209  11 -1.944388E+06 -7.616474E+05 -2.526199E+05 -7.873680E+05  7.499945E-09  3.421239E-09
       209  12 -1.753893E+06 -7.101665E+05 -2.205372E+05 -7.527123E+05  6.529883E-09  5.715283E-09
       209  13 -4.050057E+05 -2.238833E+05  5.326573E+03 -3.748295E+05  2.176553E-09  4.748289E-10
       209  14 -4.183061E+05 -2.118365E+05  2.737867E+03 -3.598066E+05  6.356992E-09  1.649454E-09
       209  15 -4.049333E+05 -2.247461E+05  1.497846E+03 -3.744197E+05  2.338691E-09  2.200433E-09
       209  16  1.303265E+06  3.926220E+05  3.019848E+05  1.032214E+05  7.503592E-09  3.266979E-09
       209  17  1.110256E+06  3.382062E+05  2.580348E+05  6.874011E+04  4.946965E-09  2.483105E-09
       209  18  9.459609E+05  2.608546E+05  2.234867E+05  4.641966E+03 -3.161335E-09 -1.333035E-10
       209  19 -2.110183E+06 -8.400855E+05 -2.913860E+05 -8.516569E+05  3.670070E+04 -1.271726E+05
       209  20 -1.944383E+06 -7.616305E+05 -2.525894E+05 -7.873706E+05  2.575912E+04 -1.247261E+05
       209  21 -1.753890E+06 -7.101518E+05 -2.205112E+05 -7.527135E+05  1.281901E+04 -1.169452E+05
       209  22 -4.049996E+05 -2.238661E+05  5.359296E+03 -3.748338E+05  4.254838E+04 -1.249308E+05
       209  23 -4.183005E+05 -2.118209E+05  2.767601E+03 -3.598105E+05  4.176310E+04 -1.186714E+05
       209  24 -4.049286E+05 -2.247334E+05  1.522244E+03 -3.744230E+05  3.898475E+04 -1.070841E+05
       209  25  1.303272E+06  3.926388E+05  3.020175E+05  1.032167E+05  4.841329E+04 -1.226825E+05
       209  26  1.110263E+06  3.382208E+05  2.580649E+05  6.873488E+04  5.780894E+04 -1.126010E+05
       209  27  9.459680E+05  2.608659E+05  2.235125E+05  4.636865E+03  6.521068E+04 -9.720048E+04
       210   1 -1.640307E+06 -6.688454E+05 -2.009613E+05 -7.208900E+05 -1.034506E+04  1.085830E+05
       210   2 -1.475186E+06 -5.913142E+05 -1.717027E+05 -6.559171E+05 -4.409767E+03  9.505700E+04
       210   3 -1.283841E+06 -5.400961E+05 -1.429878E+05 -6.208405E+05  1.717168E+03  8.098894E+04
       210   4 -4.049028E+05 -2.247194E+05  1.125795E+03 -3.745627E+05 -3.612916E+04  9.887375E+04
       210   5 -4.180068E+05 -2.115196E+05  5.833009E+02 -3.596330E+05 -3.122765E+04  8.497108E+04
       210   6 -4.047240E+05 -2.244310E+05  3.105061E+02 -3.746107E+05 -2.613493E+04  7.052684E+04
       210   7  8.321537E+05  2.195690E+05  2.031858E+05 -2.758271E+04 -6.196812E+04  8.914386E+04
       210   8  6.403795E+05  1.683927E+05  1.728498E+05 -6.287215E+04 -5.809421E+04  7.486687E+04
       210   9  4.752240E+05  9.131386E+04  1.435954E+05 -1.280524E+05 -5.402892E+04  6.004901E+04
       210  10 -1.640310E+06 -6.688581E+05 -2.009837E+05 -7.208891E+05  5.544345E-08  2.309081E-08
       210  11 -1.475189E+06 -5.913239E+05 -1.717198E+05 -6.559168E+05  1.709560E-08  7.085278E-09
       210  12 -1.283843E+06 -5.401031E+05 -1.430001E+05 -6.208406E+05 -4.085022E-08 -1.837706E-08
       210  13 -4.049068E+05 -2.247303E+05  1.104977E+03 -3.745598E+05  5.121973E-09  4.778082E-09
       210  14 -4.180098E+05 -2.115276E+05  5.679049E+02 -3.596309E+05  1.416642E-08  8.905211E-09
       210  15 -4.047261E+05 -2.244365E+05  2.998784E+02 -3.746092E+05  7.791838E-09  3.075941E-09
       210  16  8.321474E+05  2.195594E+05  2.031637E+05 -2.757826E+04 -4.191928E-08 -1.384439E-08
       210  17  6.403744E+05  1.683857E+05  1.728330E+05 -6.286865E+04  1.614874E-08  1.022798E-08
       210  18  4.752199E+05  9.130921E+04  1.435831E+05 -1.280498E+05  5.336947E-08  2.463248E-08
       210  19 -1.640307E+06 -6.688454E+05 -2.009613E+05 -7.208900E+05  1.034506E+04 -1.085830E+05
       210  20 -1.475186E+06 -5.913142E+05 -1.717027E+05 -6.559171E+05  4.409767E+03 -9.505700E+04
       210  21 -1.283841E+06 -5.400961E+05 -1.429878E+05 -6.208405E+05 -1.717168E+03 -8.098894E+04
       210  22 -4.049028E+05 -2.247194E+05  1.125795E+03 -3.745627E+05  3.612916E+04 -9.887375E+04
       210  23 -4.180068E+05 -2.115196E+05  5.833009E+02 -3.596330E+05  3.122765E+04 -8.497108E+04
       210  24 -4.047240E+05 -2.244310E+05  3.105061E+02 -3.746107E+05  2.613493E+04 -7.052684E+04
       210  25  8.321537E+05  2.195690E+05  2.031858E+05 -2.758271E+04  6.196812E+04 -8.914386E+04
       210  26  6.403795E+05  1.683927E+05  1.728498E+05 -6.287215E+04  5.809421E+04 -7.486687E+04
       210  27  4.752240E+05  9.131386E+04  1.435954E+05 -1.280524E+05  5.402892E+04 -6.004901E+04
       211   1 -1.170200E+06 -4.990556E+05 -1.237241E+05 -5.890720E+05  4.846182E+03  7.244231E+04
       211   2 -1.004766E+06 -4.217801E+05 -9.521085E+04 -5.240353E+05  1.041954E+04  5.785258E+04
       211   3 -8.130291E+05 -3.707435E+05 -6.674739E+04 -4.889965E+05  1.600667E+04  4.320705E+04
       211   4 -4.046963E+05 -2.243814E+05  2.083174E+02 -3.746440E+05 -2.297991E+04  6.199561E+04
       211   5 -4.177909E+05 -2.111713E+05  4.760356E+01 -3.596611E+05 -1.751515E+04  4.737200E+04
       211   6 -4.045972E+05 -2.241817E+05 -8.097927E+01 -3.746880E+05 -1.203659E+04  3.269250E+04
       211   7  3.614298E+05  5.035037E+04  1.241294E+05 -1.599693E+05 -5.084213E+04  5.153534E+04
       211   8  1.695554E+05 -5.266141E+02  9.530206E+04 -1.951403E+05 -4.547786E+04  3.688089E+04
       211   9  4.019848E+03 -7.760054E+04  6.658639E+04 -2.603071E+05 -4.009974E+04  2.217049E+04
       211  10 -1.170202E+06 -4.990613E+05 -1.237340E+05 -5.890722E+05 -5.498881E-08 -2.517471E-08
       211  11 -1.004767E+06 -4.217837E+05 -9.521734E+04 -5.240358E+05 -9.656484E-09 -6.391370E-09
       211  12 -8.130299E+05 -3.707456E+05 -6.675139E+04 -4.889970E+05  4.802853E-08  1.699081E-08
       211  13 -4.046979E+05 -2.243857E+05  2.001048E+02 -3.746429E+05 -5.123532E-09 -2.066732E-09
       211  14 -4.177918E+05 -2.111738E+05  4.281134E+01 -3.596605E+05 -9.497325E-09 -5.651231E-09
       211  15 -4.045976E+05 -2.241829E+05 -8.325934E+01 -3.746877E+05 -2.201225E-09 -3.375556E-09
       211  16  3.614263E+05  5.034683E+04  1.241195E+05 -1.599672E+05  4.907818E-08  2.135413E-08
       211  17  1.695528E+05 -5.286288E+02  9.529562E+04 -1.951390E+05 -8.682677E-09 -4.778937E-09
       211  18  4.017990E+03 -7.760150E+04  6.658245E+04 -2.603064E+05 -5.507040E-08 -2.340861E-08
       211  19 -1.170200E+06 -4.990556E+05 -1.237241E+05 -5.890720E+05 -4.846182E+03 -7.244231E+04
       211  20 -1.004766E+06 -4.217801E+05 -9.521085E+04 -5.240353E+05 -1.041954E+04 -5.785258E+04
       211  21 -8.130291E+05 -3.707435E+05 -6.674739E+04 -4.889965E+05 -1.600667E+04 -4.320705E+04
       211  22 -4.046963E+05 -2.243814E+05  2.083174E+02 -3.746440E+05  2.297991E+04 -6.199561E+04
       211  23 -4.177909E+05 -2.111713E+05  4.760356E+01 -3.596611E+05  1.751515E+04 -4.737200E+04
       211  24 -4.045972E+05 -2.241817E+05 -8.097927E+01 -3.746880E+05  1.203659E+04 -3.269250E+04
       211  25  3.614298E+05  5.035037E+04  1.241294E+05 -1.599693E+05  5.084213E+04 -5.153534E+04
       211  26  1.695554E+05 -5.266141E+02  9.530206E+04 -1.951403E+05  4.547786E+04 -3.688089E+04
       211  27  4.019848E+03 -7.760054E+04  6.658639E+04 -2.603071E+05  4.009974E+04 -2.217049E+04
       212   1 -6.992276E+05 -3.297654E+05 -4.750035E+04 -4.572291E+05  1.924131E+04  3.465646E+04
       212   2 -5.335801E+05 -2.525972E+05 -1.911585E+04 -3.921731E+05  2.487998E+04  2.002082E+04
       212   3 -3.416613E+05 -2.016624E+05  9.176780E+03 -3.571544E+05  3.050591E+04  5.414721E+03
       212   4 -4.045887E+05 -2.241567E+05 -1.585464E+02 -3.747007E+05 -8.808220E+03  2.414194E+04
       212   5 -4.176907E+05 -2.110054E+05 -3.703241E+02 -3.596830E+05 -3.116793E+03  9.527466E+03
       212   6 -4.045671E+05 -2.241014E+05 -7.187915E+02 -3.747154E+05  2.561860E+03 -5.057474E+03
       212   7 -1.098550E+05 -1.185385E+05  4.718485E+04 -2.921350E+05 -3.687185E+04  1.362213E+04
       212   8 -3.017858E+05 -1.694117E+05  1.837810E+04 -3.271869E+05 -3.111894E+04 -9.679099E+02
       212   9 -4.674662E+05 -2.465391E+05 -1.061088E+04 -3.922742E+05 -2.537888E+04 -1.552843E+04
       212  10 -6.992283E+05 -3.297668E+05 -4.750331E+04 -4.572297E+05 -5.780064E-10 -1.888431E-10
       212  11 -5.335809E+05 -2.525978E+05 -1.911777E+04 -3.921735E+05 -4.005299E-09  2.061579E-10
       212  12 -3.416623E+05 -2.016627E+05  9.174975E+03 -3.571545E+05  1.074057E-09  1.294293E-09
       212  13 -4.045890E+05 -2.241574E+05 -1.597871E+02 -3.747005E+05  2.898543E-10 -1.240132E-09
       212  14 -4.176907E+05 -2.110055E+05 -3.705129E+02 -3.596830E+05  3.457209E-10  1.738879E-10
       212  15 -4.045671E+05 -2.241015E+05 -7.188518E+02 -3.747154E+05  5.564615E-09  2.714723E-09
       212  16 -1.098565E+05 -1.185390E+05  4.718195E+04 -2.921346E+05 -7.328637E-10 -2.111128E-09
       212  17 -3.017868E+05 -1.694120E+05  1.837627E+04 -3.271869E+05  1.650122E-09  3.788878E-10
       212  18 -4.674669E+05 -2.465395E+05 -1.061255E+04 -3.922745E+05  9.697629E-09  3.635452E-09
       212  19 -6.992276E+05 -3.297654E+05 -4.750035E+04 -4.572291E+05 -1.924131E+04 -3.465646E+04
       212  20 -5.335801E+05 -2.525972E+05 -1.911585E+04 -3.921731E+05 -2.487998E+04 -2.002082E+04
       212  21 -3.416613E+05 -2.016624E+05  9.176780E+03 -3.571544E+05 -3.050591E+04 -5.414721E+03
       212  22 -4.045887E+05 -2.241567E+05 -1.585464E+02 -3.747007E+05  8.808220E+03 -2.414194E+04
       212  23 -4.176907E+05 -2.110054E+05 -3.703241E+02 -3.596830E+05  3.116793E+03 -9.527466E+03
       212  24 -4.045671E+05 -2.241014E+05 -7.187915E+02 -3.747154E+05 -2.561860E+03  5.057474E+03
       212  25 -1.098550E+05 -1.185385E+05  4.718485E+04 -2.921350E+05  3.687185E+04 -1.362213E+04
       212  26 -3.017858E+05 -1.694117E+05  1.837810E+04 -3.271869E+05  3.111894E+04  9.679099E+02
       212  27 -4.674662E+05 -2.465391E+05 -1.061088E+04 -3.922742E+05  2.537888E+04  1.552843E+04
       213   1 -2.277754E+05 -1.607112E+05  2.828549E+04 -3.253819E+05  3.387348E+04 -3.059978E+03
       213   2 -6.210997E+04 -8.358306E+04  5.633195E+04 -2.602816E+05  3.950353E+04 -1.744845E+04
       213   3  1.297995E+05 -3.268550E+04  8.422915E+04 -2.251804E+05  4.499975E+04 -3.146960E+04
       213   4 -4.046026E+05 -2.240996E+05 -9.731133E+02 -3.747211E+05  5.901380E+03 -1.354350E+04
       213   5 -4.176771E+05 -2.110390E+05 -1.801918E+03 -3.596758E+05  1.222679E+04 -2.767545E+04
       213   6 -4.046836E+05 -2.243537E+05 -3.334519E+03 -3.746458E+05  1.841828E+04 -4.143996E+04
       213   7 -5.813967E+05 -2.874850E+05 -3.022967E+04 -4.240473E+05 -2.206258E+04 -2.402398E+04
       213   8 -7.731095E+05 -3.384823E+05 -5.993600E+04 -4.590167E+05 -1.503354E+04 -3.789631E+04
       213   9 -9.388597E+05 -4.159924E+05 -9.090166E+04 -5.239901E+05 -8.138939E+03 -5.140123E+04
       213  10 -2.277766E+05 -1.607116E+05  2.828331E+04 -3.253818E+05  7.219086E-09  3.576351E-09
       213  11 -6.211172E+04 -8.358381E+04  5.632844E+04 -2.602810E+05 -2.419252E-11  7.373805E-10
       213  12  1.297971E+05 -3.268710E+04  8.422348E+04 -2.251793E+05 -5.694098E-09 -6.568207E-10
       213  13 -4.046027E+05 -2.240998E+05 -9.735233E+02 -3.747211E+05  4.357582E-09  2.826128E-09
       213  14 -4.176775E+05 -2.110398E+05 -1.803637E+03 -3.596755E+05  1.592101E-09  1.628615E-09
       213  15 -4.046844E+05 -2.243556E+05 -3.338382E+03 -3.746451E+05 -1.883040E-09  1.194833E-09
       213  16 -5.813974E+05 -2.874858E+05 -3.023167E+04 -4.240477E+05  2.942293E-09  2.238245E-09
       213  17 -7.731101E+05 -3.384839E+05 -5.993913E+04 -4.590171E+05 -9.240648E-10  2.395894E-09
       213  18 -9.388605E+05 -4.159953E+05 -9.090676E+04 -5.239904E+05  2.477768E-09  2.769030E-09
       213  19 -2.277754E+05 -1.607112E+05  2.828549E+04 -3.253819E+05 -3.387348E+04  3.059978E+03
       213  20 -6.210997E+04 -8.358306E+04  5.633195E+04 -2.602816E+05 -3.950353E+04  1.744845E+04
       213  21  1.297995E+05 -3.268550E+04  8.422915E+04 -2.251804E+05 -4.499975E+04  3.146960E+04
       213  22 -4.046026E+05 -2.240996E+05 -9.731133E+02 -3.747211E+05 -5.901380E+03  1.354350E+04
       213  23 -4.176771E+05 -2.110390E+05 -1.801918E+03 -3.596758E+05 -1.222679E+04  2.767545E+04
       213  24 -4.046836E+05 -2.243537E+05 -3.334519E+03 -3.746458E+05 -1.841828E+04  4.143996E+04
       213  25 -5.813967E+05 -2.874850E+05 -3.022967E+04 -4.240473E+05  2.206258E+04  2.402398E+04
       213  26 -7.731095E+05 -3.384823E+05 -5.993600E+04 -4.590167E+05  1.503354E+04  3.789631E+04
       213  27 -9.388597E+05 -4.159924E+05 -9.090166E+04 -5.239901E+05  8.138939E+03  5.140123E+04
       214   1  2.438192E+05  8.204966E+03  1.028702E+05 -1.935869E+05  4.898559E+04 -3.941727E+04
       214   2  4.084297E+05  8.574026E+04  1.309465E+05 -1.274116E+05  5.075605E+04 -5.269915E+04
       214   3  5.991055E+05  1.361785E+05  1.608212E+05 -9.051788E+04  5.116027E+04 -6.232658E+04
       214   4 -4.049634E+05 -2.243636E+05 -4.457183E+03 -3.746714E+05  2.213206E+04 -4.949348E+04
       214   5 -4.176256E+05 -2.121538E+05 -8.235620E+03 -3.592825E+05  3.087788E+04 -6.016715E+04
       214   6 -4.056367E+05 -2.284294E+05 -1.574374E+04 -3.731905E+05  3.825725E+04 -6.718330E+04
       214   7 -1.053288E+06 -4.568868E+05 -1.117895E+05 -5.555764E+05 -4.691406E+03 -5.955846E+04
       214   8 -1.242954E+06 -5.099786E+05 -1.474337E+05 -5.908639E+05  1.102779E+04 -6.762456E+04
       214   9 -1.409322E+06 -5.929408E+05 -1.923426E+05 -6.554379E+05  2.537632E+04 -7.203164E+04
       214  10  2.438162E+05  8.202655E+03  1.028628E+05 -1.935853E+05 -2.648315E-08 -7.064053E-09
       214  11  4.084261E+05  8.573659E+04  1.309364E+05 -1.274095E+05 -8.805189E-10  5.298040E-09
       214  12  5.991016E+05  1.361736E+05  1.608090E+05 -9.051531E+04  3.466362E-08  1.996212E-08
       214  13 -4.049645E+05 -2.243664E+05 -4.462705E+03 -3.746706E+05 -1.813253E-09 -1.148573E-09
       214  14 -4.176276E+05 -2.121580E+05 -8.244212E+03 -3.592810E+05  1.202789E-09 -6.677455E-09
       214  15 -4.056395E+05 -2.284347E+05 -1.575497E+04 -3.731884E+05  1.298107E-08 -7.529945E-09
       214  16 -1.053289E+06 -4.568906E+05 -1.117962E+05 -5.555766E+05  2.065631E-08  8.727217E-09
       214  17 -1.242955E+06 -5.099835E+05 -1.474426E+05 -5.908633E+05 -6.189541E-10  1.106679E-09
       214  18 -1.409324E+06 -5.929465E+05 -1.923535E+05 -6.554364E+05 -1.582337E-08  9.551324E-11
       214  19  2.438192E+05  8.204966E+03  1.028702E+05 -1.935869E+05 -4.898559E+04  3.941727E+04
       214  20  4.084297E+05  8.574026E+04  1.309465E+05 -1.274116E+05 -5.075605E+04  5.269915E+04
       214  21  5.991055E+05  1.361785E+05  1.608212E+05 -9.051788E+04 -5.116027E+04  6.232658E+04
       214  22 -4.049634E+05 -2.243636E+05 -4.457183E+03 -3.746714E+05 -2.213206E+04  4.949348E+04
       214  23 -4.176256E+05 -2.121538E+05 -8.235620E+03 -3.592825E+05 -3.087788E+04  6.016715E+04
       214  24 -4.056367E+05 -2.284294E+05 -1.574374E+04 -3.731905E+05 -3.825725E+04  6.718330E+04
       214  25 -1.053288E+06 -4.568868E+05 -1.117895E+05 -5.555764E+05  4.691406E+03  5.955846E+04
       214  26 -1.242954E+06 -5.099786E+05 -1.474337E+05 -5.908639E+05 -1.102779E+04  6.762456E+04
       214  27 -1.409322E+06 -5.929408E+05 -1.923426E+05 -6.554379E+05 -2.537632E+04  7.203164E+04
       215   1  7.150572E+05  1.756762E+05  1.793662E+05 -6.177061E+04  5.844655E+04 -6.613868E+04
       215   2  8.624406E+05  2.593640E+05  2.220019E+05  2.587900E+04  5.780172E+03 -7.440306E+04
       215   3  1.031226E+06  2.952652E+05  2.941844E+05  9.511522E+04 -6.065810E+04 -4.614470E+04
       215   4 -4.084826E+05 -2.286592E+05 -2.106840E+04 -3.734834E+05  4.277882E+04 -7.203753E+04
       215   5 -4.169286E+05 -2.303892E+05 -4.039276E+04 -3.520760E+05  5.997404E+04 -5.405490E+04
       215   6 -4.178567E+05 -2.937887E+05 -8.552520E+04 -3.490938E+05  6.339637E+04  4.990269E+02
       215   7 -1.530692E+06 -6.328766E+05 -2.215439E+05 -6.846713E+05  2.714128E+04 -7.792517E+04
       215   8 -1.694594E+06 -7.199526E+05 -3.028561E+05 -7.292914E+05  1.140477E+05 -3.375682E+04
       215   9 -1.864834E+06 -8.825842E+05 -4.653428E+05 -7.923132E+05  1.871329E+05  4.699998E+04
       215  10  7.150524E+05  1.756706E+05  1.793515E+05 -6.176750E+04 -2.056119E-08 -1.377294E-09
       215  11  8.624391E+05  2.593580E+05  2.219914E+05  2.587935E+04 -7.480419E-09  1.731380E-10
       215  12  1.031222E+06  2.952619E+05  2.941735E+05  9.511297E+04  1.875366E-08  8.070293E-09
       215  13 -4.084859E+05 -2.286653E+05 -2.108159E+04 -3.734809E+05  1.278739E-08 -7.967935E-09
       215  14 -4.169332E+05 -2.303933E+05 -4.040501E+04 -3.520734E+05 -2.256135E-10 -7.545587E-09
       215  15 -4.178611E+05 -2.937898E+05 -8.553275E+04 -3.490938E+05 -7.057620E-10 -2.044642E-09
       215  16 -1.530694E+06 -6.328833E+05 -2.215567E+05 -6.846696E+05  3.689271E-08  2.209006E-08
       215  17 -1.694609E+06 -7.199573E+05 -3.028827E+05 -7.292883E+05  1.482008E-09  5.507301E-09
       215  18 -1.864872E+06 -8.825960E+05 -4.654130E+05 -7.923203E+05 -2.377793E-08 -6.781436E-09
       215  19  7.150572E+05  1.756762E+05  1.793662E+05 -6.177061E+04 -5.844655E+04  6.613868E+04
       215  20  8.624406E+05  2.593640E+05  2.220019E+05  2.587900E+04 -5.780172E+03  7.440306E+04
       215  21  1.031226E+06  2.952652E+05  2.941844E+05  9.511522E+04  6.065810E+04  4.614470E+04
       215  22 -4.084826E+05 -2.286592E+05 -2.106840E+04 -3.734834E+05 -4.277882E+04  7.203753E+04
       215  23 -4.169286E+05 -2.303892E+05 -4.039276E+04 -3.520760E+05 -5.997404E+04  5.405490E+04
       215  24 -4.178567E+05 -2.937887E+05 -8.552520E+04 -3.490938E+05 -6.339637E+04 -4.990269E+02
       215  25 -1.530692E+06 -6.328766E+05 -2.215439E+05 -6.846713E+05 -2.714128E+04  7.792517E+04
       215  26 -1.694594E+06 -7.199526E+05 -3.028561E+05 -7.292914E+05 -1.140477E+05  3.375682E+04
       215  27 -1.864834E+06 -8.825842E+05 -4.653428E+05 -7.923132E+05 -1.871329E+05 -4.699998E+04
       216   1 -6.835446E+05 -2.226736E+05 -1.904670E+05 -1.052929E+05 -1.423033E+04  1.905541E+04
       216   2 -5.211396E+05 -2.692604E+05 -1.669771E+05 -1.387230E+05  1.318149E+04  6.334907E+04
       216   3 -3.474472E+05 -2.573548E+05 -1.467076E+05 -2.013110E+05  4.064187E+04  7.470379E+04
       216   4  8.051177E+05  1.441905E+05  1.563179E+05 -1.996434E+05  1.097374E+05  1.915240E+04
       216   5  7.937780E+05  4.252585E+04  7.756967E+04 -1.850321E+05  6.997129E+04  6.337099E+04
       216   6  8.053139E+05  1.093473E+04  4.221603E+04 -1.995679E+05  3.024822E+04  7.468695E+04
       216   7  2.295877E+06  5.109401E+05  5.030156E+05 -2.942220E+05  2.340004E+05  1.921161E+04
       216   8  2.110381E+06  3.542227E+05  3.220564E+05 -2.314419E+05  1.268782E+05  6.338443E+04
       216   9  1.959390E+06  2.791562E+05  2.311018E+05 -1.978213E+05  1.983589E+04  7.467007E+04
       216  10 -6.835449E+05 -2.226741E+05 -1.904680E+05 -1.052927E+05  1.331510E-09  8.312316E-11
       216  11 -5.211409E+05 -2.692648E+05 -1.669850E+05 -1.387237E+05 -1.937696E-09  3.546532E-10
       216  12 -3.474505E+05 -2.573612E+05 -1.467212E+05 -2.013134E+05 -4.621468E-09  3.876361E-10
       216  13  8.051046E+05  1.441869E+05  1.562946E+05 -1.996451E+05  5.932830E-10  6.954983E-10
       216  14  7.937717E+05  4.252022E+04  7.755292E+04 -1.850357E+05 -1.755751E-09  3.920425E-10
       216  15  8.053114E+05  1.092849E+04  4.220383E+04 -1.995697E+05 -3.736104E-10  4.439571E-10
       216  16  2.295818E+06  5.109250E+05  5.029124E+05 -2.942256E+05 -1.811160E-09  7.161307E-10
       216  17  2.110363E+06  3.542141E+05  3.220187E+05 -2.314483E+05  7.982637E-10  8.424565E-10
       216  18  1.959389E+06  2.791501E+05  2.310906E+05 -1.978225E+05  5.289674E-09  2.447983E-09
       216  19 -6.835446E+05 -2.226736E+05 -1.904670E+05 -1.052929E+05  1.423033E+04 -1.905541E+04
       216  20 -5.211396E+05 -2.692604E+05 -1.669771E+05 -1.387230E+05 -1.318149E+04 -6.334907E+04
       216  21 -3.474472E+05 -2.573548E+05 -1.467076E+05 -2.013110E+05 -4.064187E+04 -7.470379E+04
       216  22  8.051177E+05  1.441905E+05  1.563179E+05 -1.996434E+05 -1.097374E+05 -1.915240E+04
       216  23  7.937780E+05  4.252585E+04  7.756967E+04 -1.850321E+05 -6.997129E+04 -6.337099E+04
       216  24  8.053139E+05  1.093473E+04  4.221603E+04 -1.995679E+05 -3.024822E+04 -7.468695E+04
       216  25  2.295877E+06  5.109401E+05  5.030156E+05 -2.942220E+05 -2.340004E+05 -1.921161E+04
       216  26  2.110381E+06  3.542227E+05  3.220564E+05 -2.314419E+05 -1.268782E+05 -6.338443E+04
       216  27  1.959390E+06  2.791562E+05  2.311018E+05 -1.978213E+05 -1.983589E+04 -7.467007E+04
       217   1 -2.444487E+05 -2.334357E+05 -1.357863E+05 -1.956155E+05  3.463609E+04  7.056618E+04
       217   2 -7.755572E+04 -2.001963E+05 -1.171238E+05 -1.826265E+05  3.365203E+04  6.384207E+04
       217   3  9.055951E+04 -1.631097E+05 -9.682981E+04 -2.009934E+05  3.266467E+04  5.336901E+04
       217   4  8.008308E+05  9.065128E+03  3.174557E+04 -2.000704E+05  2.477665E+04  7.055185E+04
       217   5  7.996238E+05  2.057220E+03  1.729976E+04 -1.843938E+05  1.613303E+04  6.383020E+04
       217   6  8.009357E+05  2.224280E+02  9.795150E+03 -2.000694E+05  7.486418E+03  5.336234E+04
       217   7  1.847196E+06  2.515112E+05  1.992489E+05 -2.045331E+05  1.490118E+04  7.053768E+04
       217   8  1.677573E+06  2.042738E+05  1.517077E+05 -1.861636E+05 -1.409775E+03  6.381843E+04
       217   9  1.511819E+06  1.635310E+05  1.164125E+05 -1.991443E+05 -1.771949E+04  5.335559E+04
       217  10 -2.444513E+05 -2.334414E+05 -1.357980E+05 -1.956175E+05  1.942044E-09  7.769078E-10
       217  11 -7.755804E+04 -2.002010E+05 -1.171336E+05 -1.826283E+05 -6.747089E-12  2.257562E-10
       217  12  9.055760E+04 -1.631130E+05 -9.683717E+04 -2.009948E+05  9.846756E-10 -1.410736E-09
       217  13  8.008288E+05  9.059616E+03  3.173506E+04 -2.000718E+05  4.640001E-10  1.854041E-09
       217  14  7.996224E+05  2.052773E+03  1.729162E+04 -1.843946E+05 -5.879676E-10  2.939748E-10
       217  15  8.009349E+05  2.193539E+02  9.789691E+03 -2.000697E+05 -5.196637E-10 -1.390209E-09
       217  16  1.847194E+06  2.515058E+05  1.992392E+05 -2.045339E+05 -1.414557E-09  1.673487E-09
       217  17  1.677572E+06  2.042694E+05  1.517000E+05 -1.861635E+05  2.539894E-11 -1.724056E-10
       217  18  1.511818E+06  1.635279E+05  1.164066E+05 -1.991435E+05 -1.950558E-11 -1.053688E-09
       217  19 -2.444487E+05 -2.334357E+05 -1.357863E+05 -1.956155E+05 -3.463609E+04 -7.056618E+04
       217  20 -7.755572E+04 -2.001963E+05 -1.171238E+05 -1.826265E+05 -3.365203E+04 -6.384207E+04
       217  21  9.055951E+04 -1.631097E+05 -9.682981E+04 -2.009934E+05 -3.266467E+04 -5.336901E+04
       217  22  8.008308E+05  9.065128E+03  3.174557E+04 -2.000704E+05 -2.477665E+04 -7.055185E+04
       217  23  7.996238E+05  2.057220E+03  1.729976E+04 -1.843938E+05 -1.613303E+04 -6.383020E+04
       217  24  8.009357E+05  2.224280E+02  9.795150E+03 -2.000694E+05 -7.486418E+03 -5.336234E+04
       217  25  1.847196E+06  2.515112E+05  1.992489E+05 -2.045331E+05 -1.490118E+04 -7.053768E+04
       217  26  1.677573E+06  2.042738E+05  1.517077E+05 -1.861636E+05  1.409775E+03 -6.381843E+04
       217  27  1.511819E+06  1.635310E+05  1.164125E+05 -1.991443E+05  1.771949E+04 -5.335559E+04
       218   1  1.957272E+05 -1.386707E+05 -8.252549E+04 -2.004179E+05  3.112403E+04  4.605334E+04
       218   2  3.629362E+05 -1.004947E+05 -6.053613E+04 -1.845975E+05  2.991674E+04  3.353190E+04
       218   3  5.304190E+05 -6.211813E+04 -3.769897E+04 -2.003583E+05  2.870594E+04  2.058623E+04
       218   4  8.004907E+05  2.038801E+02  7.413736E+03 -2.001205E+05  6.010683E+03  4.604966E+04
       218   5  8.003169E+05 -1.283938E+02  4.198004E+03 -1.843307E+05  3.932739E+03  3.353170E+04
       218   6  8.005413E+05 -1.079630E+02  2.431965E+03 -2.001207E+05  1.851600E+03  2.058967E+04
       218   7  1.405623E+06  1.390617E+05  9.734844E+04 -1.998227E+05 -1.912613E+04  4.604595E+04
       218   8  1.237891E+06  1.002294E+05  6.893116E+04 -1.840636E+05 -2.206881E+04  3.353148E+04
       218   9  1.070738E+06  6.189917E+04  4.256424E+04 -1.998830E+05 -2.501394E+04  2.059308E+04
       218  10  1.957256E+05 -1.386733E+05 -8.253130E+04 -2.004191E+05 -2.476275E-09 -1.277272E-09
       218  11  3.629349E+05 -1.004962E+05 -6.053993E+04 -1.845983E+05 -3.152405E-09 -1.982763E-11
       218  12  5.304180E+05 -6.211880E+04 -3.770131E+04 -2.003588E+05  1.248426E-09 -6.261384E-11
       218  13  8.004901E+05  2.015923E+02  7.409681E+03 -2.001207E+05 -1.275614E-09 -1.098918E-09
       218  14  8.003166E+05 -1.296058E+02  4.195861E+03 -1.843308E+05  2.186627E-09 -1.652434E-10
       218  15  8.005412E+05 -1.084194E+02  2.431161E+03 -2.001207E+05  1.038704E-09 -1.137997E-10
       218  16  1.405622E+06  1.390593E+05  9.734377E+04 -1.998220E+05  8.782235E-10 -8.864007E-10
       218  17  1.237891E+06  1.002280E+05  6.892814E+04 -1.840630E+05  1.173977E-09 -5.557467E-10
       218  18  1.070738E+06  6.189854E+04  4.256227E+04 -1.998826E+05  7.895267E-10 -2.167969E-10
       218  19  1.957272E+05 -1.386707E+05 -8.252549E+04 -2.004179E+05 -3.112403E+04 -4.605334E+04
       218  20  3.629362E+05 -1.004947E+05 -6.053613E+04 -1.845975E+05 -2.991674E+04 -3.353190E+04
       218  21  5.304190E+05 -6.211813E+04 -3.769897E+04 -2.003583E+05 -2.870594E+04 -2.058623E+04
       218  22  8.004907E+05  2.038801E+02  7.413736E+03 -2.001205E+05 -6.010683E+03 -4.604966E+04
       218  23  8.003169E+05 -1.283938E+02  4.198004E+03 -1.843307E+05 -3.932739E+03 -3.353170E+04
       218  24  8.005413E+05 -1.079630E+02  2.431965E+03 -2.001207E+05 -1.851600E+03 -2.058967E+04
       218  25  1.405623E+06  1.390617E+05  9.734844E+04 -1.998227E+05  1.912613E+04 -4.604595E+04
       218  26  1.237891E+06  1.002294E+05  6.893116E+04 -1.840636E+05  2.206881E+04 -3.353148E+04
       218  27  1.070738E+06  6.189917E+04  4.256424E+04 -1.998830E+05  2.501394E+04 -2.059308E+04
       219   1  6.357463E+05 -3.779591E+04 -2.212794E+04 -2.002898E+05  2.831241E+04  1.291477E+04
       219   2  8.030247E+05  5.107058E+02  1.426023E+03 -1.844342E+05  2.785167E+04 -2.555046E+02
       219   3  9.704122E+05  3.881354E+04  2.528450E+04 -2.001789E+05  2.739084E+04 -1.346743E+04
       219   4  8.004822E+05 -7.754166E+01  1.861767E+03 -2.001253E+05  1.465108E+03  1.291925E+04
       219   5  8.004357E+05 -6.933234E+01  1.111327E+03 -1.843252E+05  9.154805E+02 -2.510251E+02
       219   6  8.004822E+05 -4.953178E+01  7.241596E+02 -2.001253E+05  3.658812E+02 -1.346297E+04
       219   7  9.652470E+05  3.763997E+04  2.585372E+04 -1.999607E+05 -2.538901E+04  1.292372E+04
       219   8  7.978483E+05 -6.489817E+02  7.993554E+02 -1.842161E+05 -2.602060E+04 -2.465551E+02
       219   9  6.305829E+05 -3.891354E+04 -2.383390E+04 -2.000718E+05 -2.665200E+04 -1.345851E+04
       219  10  6.357454E+05 -3.779631E+04 -2.212976E+04 -2.002901E+05  1.266650E-09 -2.855287E-10
       219  11  8.030238E+05  5.104978E+02  1.424567E+03 -1.844342E+05 -1.756947E-09  1.177304E-10
       219  12  9.704113E+05  3.881315E+04  2.528275E+04 -2.001786E+05 -2.050843E-09  6.426114E-10
       219  13  8.004822E+05 -7.772155E+01  1.861449E+03 -2.001253E+05  4.085003E-11 -2.865900E-10
       219  14  8.004357E+05 -6.933264E+01  1.111326E+03 -1.843252E+05 -1.201438E-09 -3.686621E-11
       219  15  8.004821E+05 -4.972652E+01  7.238187E+02 -2.001253E+05  8.790600E-10  8.900794E-10
       219  16  9.652463E+05  3.763961E+04  2.585220E+04 -1.999605E+05 -5.922708E-10 -3.073709E-10
       219  17  7.978475E+05 -6.491633E+02  7.980846E+02 -1.842161E+05  3.352712E-09 -2.081046E-10
       219  18  6.305820E+05 -3.891392E+04 -2.383557E+04 -2.000721E+05  2.388705E-09  1.141563E-09
       219  19  6.357463E+05 -3.779591E+04 -2.212794E+04 -2.002898E+05 -2.831241E+04 -1.291477E+04
       219  20  8.030247E+05  5.107058E+02  1.426023E+03 -1.844342E+05 -2.785167E+04  2.555046E+02
       219  21  9.704122E+05  3.881354E+04  2.528450E+04 -2.001789E+05 -2.739084E+04  1.346743E+04
       219  22  8.004822E+05 -7.754166E+01  1.861767E+03 -2.001253E+05 -1.465108E+03 -1.291925E+04
       219  23  8.004357E+05 -6.933234E+01  1.111327E+03 -1.843252E+05 -9.154805E+02  2.510251E+02
       219  24  8.004822E+05 -4.953178E+01  7.241596E+02 -2.001253E+05 -3.658812E+02  1.346297E+04
       219  25  9.652470E+05  3.763997E+04  2.585372E+04 -1.999607E+05  2.538901E+04 -1.292372E+04
       219  26  7.978483E+05 -6.489817E+02  7.993554E+02 -1.842161E+05  2.602060E+04  2.465551E+02
       219  27  6.305829E+05 -3.891354E+04 -2.383390E+04 -2.000718E+05  2.665200E+04  1.345851E+04
       220   1  1.075809E+06  6.307941E+04  4.126706E+04 -2.001689E+05  2.727291E+04 -2.117220E+04
       220   2  1.243192E+06  1.013263E+05  6.545071E+04 -1.843000E+05  2.690054E+04 -3.437595E+04
       220   3  1.410696E+06  1.395854E+05  8.988985E+04 -2.000408E+05  2.653157E+04 -4.752575E+04
       220   4  8.004689E+05 -5.819532E+01  6.190534E+02 -2.001277E+05  2.428226E+02 -2.116883E+04
       220   5  8.004073E+05 -1.079693E+02  5.372775E+02 -1.843222E+05 -2.269205E+01 -3.437624E+04
       220   6  8.004187E+05 -1.633136E+02  6.349906E+02 -2.001277E+05 -2.847026E+02 -4.752970E+04
       220   7  5.252064E+05 -6.319895E+04 -4.002758E+04 -2.000866E+05 -2.677578E+04 -2.116546E+04
       220   8  3.578209E+05 -1.015509E+05 -6.437686E+04 -1.843444E+05 -2.692754E+04 -3.437653E+04
       220   9  1.905174E+05 -1.399289E+05 -8.862358E+04 -2.002145E+05 -2.707576E+04 -4.753365E+04
       220  10  1.075808E+06  6.307873E+04  4.126482E+04 -2.001684E+05 -6.199116E-10  6.839842E-10
       220  11  1.243191E+06  1.013248E+05  6.544713E+04 -1.842992E+05 -1.425793E-09 -2.185275E-11
       220  12  1.410695E+06  1.395828E+05  8.988428E+04 -2.000398E+05 -1.933580E-09 -1.162266E-09
       220  13  8.004688E+05 -5.867671E+01  6.182109E+02 -2.001277E+05  1.684763E-09  1.066191E-09
       220  14  8.004070E+05 -1.092387E+02  5.350560E+02 -1.843222E+05 -1.005578E-09  3.906595E-10
       220  15  8.004181E+05 -1.657404E+02  6.307436E+02 -2.001277E+05 -2.402243E-09 -4.203739E-10
       220  16  5.252055E+05 -6.319962E+04 -4.002977E+04 -2.000871E+05 -1.747398E-09  1.438029E-09
       220  17  3.578198E+05 -1.015524E+05 -6.438044E+04 -1.843451E+05 -2.199889E-09  5.080580E-10
       220  18  1.905160E+05 -1.399315E+05 -8.862920E+04 -2.002155E+05  1.217403E-09  5.443319E-11
       220  19  1.075809E+06  6.307941E+04  4.126706E+04 -2.001689E+05 -2.727291E+04  2.117220E+04
       220  20  1.243192E+06  1.013263E+05  6.545071E+04 -1.843000E+05 -2.690054E+04  3.437595E+04
       220  21  1.410696E+06  1.395854E+05  8.988985E+04 -2.000408E+05 -2.653157E+04  4.752575E+04
       220  22  8.004689E+05 -5.819532E+01  6.190534E+02 -2.001277E+05 -2.428226E+02  2.116883E+04
       220  23  8.004073E+05 -1.079693E+02  5.372775E+02 -1.843222E+05  2.269205E+01  3.437624E+04
       220  24  8.004187E+05 -1.633136E+02  6.349906E+02 -2.001277E+05  2.847026E+02  4.752970E+04
       220  25  5.252064E+05 -6.319895E+04 -4.002758E+04 -2.000866E+05  2.677578E+04  2.116546E+04
       220  26  3.578209E+05 -1.015509E+05 -6.437686E+04 -1.843444E+05  2.692754E+04  3.437653E+04
       220  27  1.905174E+05 -1.399289E+05 -8.862358E+04 -2.002145E+05  2.707576E+04  4.753365E+04
       221   1  1.516257E+06  1.638516E+05  1.061794E+05 -1.999828E+05  2.642734E+04 -5.518519E+04
       221   2  1.683724E+06  2.021661E+05  1.313380E+05 -1.840406E+05  2.474265E+04 -6.804056E+04
       221   3  1.851607E+06  2.407513E+05  1.576863E+05 -1.997056E+05  2.306405E+04 -8.035150E+04
       221   4  8.004201E+05 -2.068365E+02  7.544949E+02 -2.001274E+05 -4.081033E+02 -5.519236E+04
       221   5  8.002709E+05 -3.015952E+02  1.166503E+03 -1.843225E+05 -9.820125E+02 -6.805472E+04
       221   6  8.003197E+05 -3.164872E+02  1.997682E+03 -2.001274E+05 -1.549423E+03 -8.037226E+04
       221   7  8.509876E+04 -1.642887E+05 -1.046768E+05 -2.002719E+05 -2.721394E+04 -5.519952E+04
       221   8 -8.239729E+04 -2.028052E+05 -1.290166E+05 -1.846039E+05 -2.667165E+04 -6.806887E+04
       221   9 -2.498576E+05 -2.414356E+05 -1.537091E+05 -2.005484E+05 -2.612301E+04 -8.039300E+04
       221  10  1.516256E+06  1.638481E+05  1.061723E+05 -1.999816E+05  7.149868E-10 -1.085305E-09
       221  11  1.683722E+06  2.021609E+05  1.313282E+05 -1.840393E+05 -3.897536E-10 -1.134079E-09
       221  12  1.851605E+06  2.407443E+05  1.576732E+05 -1.997041E+05  1.059164E-11  1.197096E-09
       221  13  8.004192E+05 -2.101089E+02  7.487680E+02 -2.001275E+05  1.408029E-10 -8.758043E-10
       221  14  8.002697E+05 -3.065707E+02  1.157794E+03 -1.843226E+05  3.258459E-10 -1.225583E-09
       221  15  8.003180E+05 -3.234271E+02  1.985534E+03 -2.001275E+05  2.595789E-09  7.343360E-11
       221  16  8.509715E+04 -1.642922E+05 -1.046840E+05 -2.002731E+05 -3.692405E-10 -7.661304E-10
       221  17 -8.239930E+04 -2.028104E+05 -1.290266E+05 -1.846054E+05 -2.585060E-10 -1.684720E-09
       221  18 -2.498601E+05 -2.414428E+05 -1.537226E+05 -2.005501E+05  6.364567E-10 -3.749676E-10
       221  19  1.516257E+06  1.638516E+05  1.061794E+05 -1.999828E+05 -2.642734E+04  5.518519E+04
       221  20  1.683724E+06  2.021661E+05  1.313380E+05 -1.840406E+05 -2.474265E+04  6.804056E+04
       221  21  1.851607E+06  2.407513E+05  1.576863E+05 -1.997056E+05 -2.306405E+04  8.035150E+04
       221  22  8.004201E+05 -2.068365E+02  7.544949E+02 -2.001274E+05  4.081033E+02  5.519236E+04
       221  23  8.002709E+05 -3.015952E+02  1.166503E+03 -1.843225E+05  9.820125E+02  6.805472E+04
       221  24  8.003197E+05 -3.164872E+02  1.997682E+03 -2.001274E+05  1.549423E+03  8.037226E+04
       221  25  8.509876E+04 -1.642887E+05 -1.046768E+05 -2.002719E+05  2.721394E+04  5.519952E+04
       221  26 -8.239729E+04 -2.028052E+05 -1.290166E+05 -1.846039E+05  2.667165E+04  6.806887E+04
       221  27 -2.498576E+05 -2.414356E+05 -1.537091E+05 -2.005484E+05  2.612301E+04  8.039300E+04
       222   1  1.957729E+06  2.652331E+05  1.751930E+05 -1.993677E+05  2.276693E+04 -8.755151E+04
       222   2  2.124488E+06  3.047429E+05  2.060226E+05 -1.841683E+05  1.060586E+04 -9.722208E+04
       222   3  2.293830E+06  3.473257E+05  2.455730E+05 -2.002802E+05 -1.555997E+03 -1.020630E+05
       222   4  8.004194E+05 -3.677794E+02  2.623649E+03 -2.000617E+05 -1.940385E+03 -8.757730E+04
       222   5  7.999219E+05 -2.637045E+00  4.580989E+03 -1.844045E+05 -4.217210E+03 -9.725116E+04
       222   6  8.002691E+05  1.726430E+03  8.412537E+03 -2.000628E+05 -6.491500E+03 -1.020900E+05
       222   7 -3.555469E+05 -2.660313E+05 -1.699690E+05 -2.007543E+05 -2.660361E+04 -8.760307E+04
       222   8 -5.228914E+05 -3.048321E+05 -1.968969E+05 -1.846403E+05 -1.900997E+04 -9.728026E+04
       222   9 -6.910795E+05 -3.439838E+05 -2.288049E+05 -1.998460E+05 -1.141558E+04 -1.021171E+05
       222  10  1.957726E+06  2.652248E+05  1.751776E+05 -1.993661E+05  3.564405E-09  1.415364E-09
       222  11  2.124485E+06  3.047328E+05  2.060046E+05 -1.841675E+05  2.533788E-09 -4.933316E-10
       222  12  2.293828E+06  3.473145E+05  2.455534E+05 -2.002804E+05  1.366243E-09 -2.788481E-09
       222  13  8.004174E+05 -3.760196E+02  2.609223E+03 -2.000618E+05  2.376321E-09  5.658345E-10
       222  14  7.999193E+05 -1.280179E+01  4.563176E+03 -1.844049E+05  3.896666E-09 -5.687382E-10
       222  15  8.002663E+05  1.715223E+03  8.392864E+03 -2.000633E+05  2.778929E-10 -1.980169E-09
       222  16 -3.555497E+05 -2.660398E+05 -1.699848E+05 -2.007561E+05 -3.149603E-09  1.384276E-10
       222  17 -5.228944E+05 -3.048423E+05 -1.969154E+05 -1.846418E+05 -1.710544E-09  1.320652E-09
       222  18 -6.910824E+05 -3.439950E+05 -2.288247E+05 -1.998469E+05 -3.283446E-09 -8.412454E-10
       222  19  1.957729E+06  2.652331E+05  1.751930E+05 -1.993677E+05 -2.276693E+04  8.755151E+04
       222  20  2.124488E+06  3.047429E+05  2.060226E+05 -1.841683E+05 -1.060586E+04  9.722208E+04
       222  21  2.293830E+06  3.473257E+05  2.455730E+05 -2.002802E+05  1.555997E+03  1.020630E+05
       222  22  8.004194E+05 -3.677794E+02  2.623649E+03 -2.000617E+05  1.940385E+03  8.757730E+04
       222  23  7.999219E+05 -2.637045E+00  4.580989E+03 -1.844045E+05  4.217210E+03  9.725116E+04
       222  24  8.002691E+05  1.726430E+03  8.412537E+03 -2.000628E+05  6.491500E+03  1.020900E+05
       222  25 -3.555469E+05 -2.660313E+05 -1.699690E+05 -2.007543E+05  2.660361E+04  8.760307E+04
       222  26 -5.228914E+05 -3.048321E+05 -1.968969E+05 -1.846403E+05  1.900997E+04  9.728026E+04
       222  27 -6.910795E+05 -3.439838E+05 -2.288049E+05 -1.998460E+05  1.141558E+04  1.021171E+05
       223   1  2.403582E+06  3.740035E+05  2.713028E+05 -1.977677E+05 -2.296464E+03 -1.051648E+05
       223   2  2.561644E+06  4.274073E+05  3.453936E+05 -1.960640E+05 -9.967768E+04 -8.680455E+04
       223   3  2.741126E+06  5.145628E+05  4.912294E+05 -2.227844E+05 -1.971816E+05 -2.600377E+04
       223   4  8.014385E+05  2.153931E+03  1.119048E+04 -1.994135E+05 -7.940687E+03 -1.051953E+05
       223   5  7.981473E+05  1.046509E+04  2.051205E+04 -1.852238E+05 -1.841298E+04 -8.672878E+04
       223   6  8.012349E+05  3.752032E+04  4.138573E+04 -1.994531E+05 -2.897411E+04 -2.577036E+04
       223   7 -7.981677E+05 -3.698258E+05 -2.489933E+05 -2.010551E+05 -1.357088E+04 -1.052258E+05
       223   8 -9.623282E+05 -4.066499E+05 -3.044735E+05 -1.744157E+05  6.262774E+04 -8.665010E+04
       223   9 -1.135132E+06 -4.397693E+05 -4.086042E+05 -1.761955E+05  1.387135E+05 -2.552404E+04
       223  10  2.403579E+06  3.739916E+05  2.712820E+05 -1.977679E+05  2.164666E-09 -4.163371E-09
       223  11  2.561631E+06  4.273965E+05  3.453608E+05 -1.960709E+05 -2.646632E-09 -5.927795E-09
       223  12  2.741085E+06  5.145517E+05  4.911554E+05 -2.227885E+05 -6.409954E-09 -1.735549E-09
       223  13  8.014355E+05  2.142027E+03  1.116956E+04 -1.994142E+05 -5.253467E-10 -7.173365E-09
       223  14  7.981449E+05  1.045692E+04  2.049727E+04 -1.852251E+05  3.766971E-09  9.440698E-10
       223  15  8.012338E+05  3.751938E+04  4.138291E+04 -1.994537E+05 -1.704627E-09 -4.965094E-10
       223  16 -7.981708E+05 -3.698378E+05 -2.490145E+05 -2.010562E+05 -2.283889E-09 -2.284110E-09
       223  17 -9.623344E+05 -4.066590E+05 -3.044950E+05 -1.744113E+05 -2.333657E-09  3.318863E-10
       223  18 -1.135153E+06 -4.397751E+05 -4.086416E+05 -1.761927E+05  5.625846E-09 -2.184995E-09
       223  19  2.403582E+06  3.740035E+05  2.713028E+05 -1.977677E+05  2.296464E+03  1.051648E+05
       223  20  2.561644E+06  4.274073E+05  3.453936E+05 -1.960640E+05  9.967768E+04  8.680455E+04
       223  21  2.741126E+06  5.145628E+05  4.912294E+05 -2.227844E+05  1.971816E+05  2.600377E+04
       223  22  8.014385E+05  2.153931E+03  1.119048E+04 -1.994135E+05  7.940687E+03  1.051953E+05
       223  23  7.981473E+05  1.046509E+04  2.051205E+04 -1.852238E+05  1.841298E+04  8.672878E+04
       223  24  8.012349E+05  3.752032E+04  4.138573E+04 -1.994531E+05  2.897411E+04  2.577036E+04
       223  25 -7.981677E+05 -3.698258E+05 -2.489933E+05 -2.010551E+05  1.357088E+04  1.052258E+05
       223  26 -9.623282E+05 -4.066499E+05 -3.044735E+05 -1.744157E+05 -6.262774E+04  8.665010E+04
       223  27 -1.135132E+06 -4.397693E+05 -4.086042E+05 -1.761955E+05 -1.387135E+05  2.552404E+04
       224   1  5.852235E+05  2.444240E+06  5.605243E+05 -7.318296E+05  2.244363E+04  1.601707E+05
       224   2  4.061692E+05  1.835534E+06  3.386389E+05 -6.692207E+05  6.769274E+04  4.720486E+04
       224   3  2.571688E+05  1.249187E+06  1.975870E+05 -7.150880E+05  6.110337E+04 -6.570209E+04
       224   4  2.472524E+04  1.747847E+05  2.432994E+04 -7.130191E+05  2.280493E+04  1.513057E+04
       224   5  9.062935E+03  1.732651E+05  1.363176E+04 -6.587991E+05  6.781047E+04  8.294763E+03
       224   6  5.134451E+03  1.754382E+05  1.026884E+04 -7.130658E+05  6.091642E+04  1.406938E+03
       224   7 -5.361293E+05 -2.089903E+06 -5.121419E+05 -6.942722E+05  2.315837E+04 -1.293839E+05
       224   8 -3.882083E+05 -1.486357E+06 -3.115022E+05 -6.484030E+05  6.792712E+04 -3.051368E+04
       224   9 -2.469600E+05 -8.971730E+05 -1.770734E+05 -7.110458E+05  6.072968E+04  6.840358E+04
       224  10  5.852161E+05  2.444212E+06  5.604753E+05 -7.318325E+05 -1.656509E-09 -2.769412E-08
       224  11  4.061636E+05  1.835531E+06  3.386261E+05 -6.692232E+05 -7.552081E-09  1.706615E-09
       224  12  2.571637E+05  1.249181E+06  1.975719E+05 -7.150848E+05 -8.755250E-09  3.502201E-08
       224  13  2.472461E+04  1.747843E+05  2.432853E+04 -7.130193E+05  1.506968E-09  4.693054E-11
       224  14  9.057978E+03  1.732638E+05  1.362299E+04 -6.587995E+05  3.663798E-09 -9.464991E-12
       224  15  5.130465E+03  1.754372E+05  1.026186E+04 -7.130659E+05  9.787198E-09 -1.788245E-10
       224  16 -5.361344E+05 -2.089921E+06 -5.121745E+05 -6.942697E+05 -1.810237E-09  2.533901E-08
       224  17 -3.882135E+05 -1.486359E+06 -3.115127E+05 -6.484013E+05 -2.993572E-09 -1.068439E-10
       224  18 -2.469652E+05 -8.971791E+05 -1.770891E+05 -7.110492E+05 -1.094093E-08 -3.348034E-08
       224  19  5.852235E+05  2.444240E+06  5.605243E+05 -7.318296E+05 -2.244363E+04 -1.601707E+05
       224  20  4.061692E+05  1.835534E+06  3.386389E+05 -6.692207E+05 -6.769274E+04 -4.720486E+04
       224  21  2.571688E+05  1.249187E+06  1.975870E+05 -7.150880E+05 -6.110337E+04  6.570209E+04
       224  22  2.472524E+04  1.747847E+05  2.432994E+04 -7.130191E+05 -2.280493E+04 -1.513057E+04
       224  23  9.062935E+03  1.732651E+05  1.363176E+04 -6.587991E+05 -6.781047E+04 -8.294763E+03
       224  24  5.134451E+03  1.754382E+05  1.026884E+04 -7.130658E+05 -6.091642E+04 -1.406938E+03
       224  25 -5.361293E+05 -2.089903E+06 -5.121419E+05 -6.942722E+05 -2.315837E+04  1.293839E+05
       224  26 -3.882083E+05 -1.486357E+06 -3.115022E+05 -6.484030E+05 -6.792712E+04  3.051368E+04
       224  27 -2.469600E+05 -8.971730E+05 -1.770734E+05 -7.110458E+05 -6.072968E+04 -6.840358E+04
       225   1  1.679460E+05  8.692254E+05  1.306967E+05 -7.163560E+05  3.992470E+04 -6.659014E+04
       225   2  2.723719E+04  2.716447E+05  2.693785E+04 -6.573278E+05  7.229623E+03 -7.357131E+04
       225   3 -1.092332E+05 -3.240496E+05 -7.136395E+04 -7.100995E+05 -2.593734E+04 -8.054912E+04
       225   4  5.048723E+03  1.750457E+05  1.001039E+04 -7.137995E+05  3.972931E+04 -2.792844E+02
       225   5  4.794496E+03  1.743808E+05  1.193163E+04 -6.578956E+05  7.029789E+03 -6.326102E+03
       225   6  8.630179E+03  1.750842E+05  1.865157E+04 -7.137901E+05 -2.614207E+04 -1.237579E+04
       225   7 -1.578723E+05 -5.186527E+05 -1.106763E+05 -7.112454E+05  3.953430E+04  6.595976E+04
       225   8 -1.764623E+04  7.713601E+04 -3.057812E+03 -6.584633E+05  6.829810E+03  6.090897E+04
       225   9  1.264822E+05  6.744707E+05  1.086748E+05 -7.174835E+05 -2.634749E+04  5.585084E+04
       225  10  1.679432E+05  8.692202E+05  1.306854E+05 -7.163539E+05 -1.002954E-08 -4.092277E-08
       225  11  2.723569E+04  2.716389E+05  2.692759E+04 -6.573273E+05 -6.290810E-09 -4.452409E-08
       225  12 -1.092357E+05 -3.240568E+05 -7.137742E+04 -7.101012E+05 -5.188588E-09 -3.878198E-08
       225  13  5.047028E+03  1.750453E+05  1.000743E+04 -7.137995E+05  9.988342E-09  9.557287E-11
       225  14  4.794432E+03  1.743807E+05  1.193146E+04 -6.578955E+05  1.386921E-08 -1.823925E-10
       225  15  8.629404E+03  1.750838E+05  1.864999E+04 -7.137904E+05  1.427017E-08 -2.963243E-10
       225  16 -1.578751E+05 -5.186578E+05 -1.106875E+05 -7.112475E+05 -9.158247E-09  3.801948E-08
       225  17 -1.764728E+04  7.713202E+04 -3.064873E+03 -6.584637E+05 -9.358554E-09  4.541546E-08
       225  18  1.264806E+05  6.744671E+05  1.086677E+05 -7.174823E+05 -5.420181E-09  4.011583E-08
       225  19  1.679460E+05  8.692254E+05  1.306967E+05 -7.163560E+05 -3.992470E+04  6.659014E+04
       225  20  2.723719E+04  2.716447E+05  2.693785E+04 -6.573278E+05 -7.229623E+03  7.357131E+04
       225  21 -1.092332E+05 -3.240496E+05 -7.136395E+04 -7.100995E+05  2.593734E+04  8.054912E+04
       225  22  5.048723E+03  1.750457E+05  1.001039E+04 -7.137995E+05 -3.972931E+04  2.792844E+02
       225  23  4.794496E+03  1.743808E+05  1.193163E+04 -6.578956E+05 -7.029789E+03  6.326102E+03
       225  24  8.630179E+03  1.750842E+05  1.865157E+04 -7.137901E+05  2.614207E+04  1.237579E+04
       225  25 -1.578723E+05 -5.186527E+05 -1.106763E+05 -7.112454E+05 -3.953430E+04 -6.595976E+04
       225  26 -1.764623E+04  7.713601E+04 -3.057812E+03 -6.584633E+05 -6.829810E+03 -6.090897E+04
       225  27  1.264822E+05  6.744707E+05  1.086748E+05 -7.174835E+05  2.634749E+04 -5.585084E+04
       226   1 -1.973323E+05 -7.004776E+05 -1.321158E+05 -7.120767E+05 -4.752671E+04 -8.448371E+04
       226   2 -3.255633E+05 -1.294659E+06 -2.475274E+05 -6.304754E+05 -5.768756E+04 -8.962859E+03
       226   3 -4.319641E+05 -1.893063E+06 -4.067763E+05 -6.577079E+05 -2.011244E+04  6.653804E+04
       226   4  9.522839E+03  1.774174E+05  2.396106E+04 -7.131335E+05 -4.772559E+04 -1.563947E+04
       226   5  2.593281E+04  1.709760E+05  4.250438E+04 -6.586522E+05 -5.759925E+04 -3.736299E+04
       226   6  8.104386E+04  1.768352E+05  8.476709E+04 -7.129626E+05 -1.979542E+04 -5.903311E+04
       226   7  2.163380E+05  1.056075E+06  1.800268E+05 -7.141909E+05 -4.792451E+04  5.329941E+04
       226   8  3.773013E+05  1.638671E+06  3.324338E+05 -6.868947E+05 -5.750850E+04 -6.582879E+04
       226   9  5.937625E+05  2.250714E+06  5.760724E+05 -7.683985E+05 -1.945673E+04 -1.850215E+05
       226  10 -1.973366E+05 -7.004859E+05 -1.321334E+05 -7.120800E+05 -3.691381E-09  6.040768E-08
       226  11 -3.255669E+05 -1.294660E+06 -2.475339E+05 -6.304758E+05 -1.955839E-09  3.435669E-08
       226  12 -4.319657E+05 -1.893067E+06 -4.067854E+05 -6.577068E+05  8.431712E-11  6.535777E-09
       226  13  9.520326E+03  1.774165E+05  2.395632E+04 -7.131341E+05  1.450518E-08 -1.404466E-10
       226  14  2.592887E+04  1.709736E+05  4.249551E+04 -6.586539E+05  6.829083E-09 -4.982921E-11
       226  15  8.104251E+04  1.768313E+05  8.475980E+04 -7.129636E+05  1.893312E-09 -1.955974E-10
       226  16  2.163347E+05  1.056072E+06  1.800172E+05 -7.141888E+05 -5.632491E-09 -6.345106E-08
       226  17  3.772966E+05  1.638666E+06  3.324194E+05 -6.868977E+05 -5.501670E-09 -3.311283E-08
       226  18  5.937529E+05  2.250677E+06  5.760076E+05 -7.684014E+05 -2.894348E-09 -5.079645E-09
       226  19 -1.973323E+05 -7.004776E+05 -1.321158E+05 -7.120767E+05  4.752671E+04  8.448371E+04
       226  20 -3.255633E+05 -1.294659E+06 -2.475274E+05 -6.304754E+05  5.768756E+04  8.962859E+03
       226  21 -4.319641E+05 -1.893063E+06 -4.067763E+05 -6.577079E+05  2.011244E+04 -6.653804E+04
       226  22  9.522839E+03  1.774174E+05  2.396106E+04 -7.131335E+05  4.772559E+04  1.563947E+04
       226  23  2.593281E+04  1.709760E+05  4.250438E+04 -6.586522E+05  5.759925E+04  3.736299E+04
       226  24  8.104386E+04  1.768352E+05  8.476709E+04 -7.129626E+05  1.979542E+04  5.903311E+04
       226  25  2.163380E+05  1.056075E+06  1.800268E+05 -7.141909E+05  4.792451E+04 -5.329941E+04
       226  26  3.773013E+05  1.638671E+06  3.324338E+05 -6.868947E+05  5.750850E+04  6.582879E+04
       226  27  5.937625E+05  2.250714E+06  5.760724E+05 -7.683985E+05  1.945673E+04  1.850215E+05
       227   1 -1.133257E+06 -5.657454E+05 -3.208334E+05 -4.708987E+05 -1.471672E+05 -4.199234E+04
       227   2 -1.057888E+06 -4.324010E+05 -2.005219E+05 -4.398582E+05 -9.188331E+04  9.776490E+03
       227   3 -1.000943E+06 -3.661866E+05 -1.440882E+05 -4.094307E+05 -2.898200E+04  4.135143E+04
       227   4 -3.534020E+05 -2.139081E+05 -1.102375E+05 -1.962459E+05 -7.618879E+04 -1.531501E+04
       227   5 -3.420678E+05 -1.422484E+05 -5.205341E+04 -2.116843E+05 -5.939655E+04  2.198095E+04
       227   6 -3.414969E+05 -1.300500E+05 -2.717971E+04 -2.277478E+05 -3.500192E+04  3.908340E+04
       227   7  4.270554E+05  1.380490E+05  1.003223E+05  7.874523E+04 -5.114190E+03  1.141565E+04
       227   8  3.742841E+05  1.479815E+05  9.639212E+04  1.674471E+04 -2.686974E+04  3.420424E+04
       227   9  3.184136E+05  1.061280E+05  8.971613E+04 -4.588413E+04 -4.102871E+04  3.681285E+04
       227  10 -1.133281E+06 -5.657532E+05 -3.208775E+05 -4.709037E+05 -6.866758E-10  1.934147E-10
       227  11 -1.057897E+06 -4.324034E+05 -2.005380E+05 -4.398575E+05 -2.781593E-09  7.904618E-10
       227  12 -1.000945E+06 -3.661887E+05 -1.440930E+05 -4.094297E+05 -8.698745E-10  3.740120E-09
       227  13 -3.534083E+05 -2.139099E+05 -1.102489E+05 -1.962468E+05  2.683925E-10  2.401762E-10
       227  14 -3.420717E+05 -1.422499E+05 -5.206095E+04 -2.116832E+05  3.301801E-09  1.742139E-09
       227  15 -3.414986E+05 -1.300520E+05 -2.718488E+04 -2.277466E+05  1.512156E-08  3.650381E-09
       227  16  4.270553E+05  1.380488E+05  1.003220E+05  7.874528E+04  1.996829E-09 -4.187537E-10
       227  17  3.742830E+05  1.479801E+05  9.638857E+04  1.674545E+04  8.003866E-09 -7.906874E-11
       227  18  3.184115E+05  1.061261E+05  8.971042E+04 -4.588291E+04  1.394434E-08  7.081766E-09
       227  19 -1.133257E+06 -5.657454E+05 -3.208334E+05 -4.708987E+05  1.471672E+05  4.199234E+04
       227  20 -1.057888E+06 -4.324010E+05 -2.005219E+05 -4.398582E+05  9.188331E+04 -9.776490E+03
       227  21 -1.000943E+06 -3.661866E+05 -1.440882E+05 -4.094307E+05  2.898200E+04 -4.135143E+04
       227  22 -3.534020E+05 -2.139081E+05 -1.102375E+05 -1.962459E+05  7.618879E+04  1.531501E+04
       227  23 -3.420678E+05 -1.422484E+05 -5.205341E+04 -2.116843E+05  5.939655E+04 -2.198095E+04
       227  24 -3.414969E+05 -1.300500E+05 -2.717971E+04 -2.277478E+05  3.500192E+04 -3.908340E+04
       227  25  4.270554E+05  1.380490E+05  1.003223E+05  7.874523E+04  5.114190E+03 -1.141565E+04
       227  26  3.742841E+05  1.479815E+05  9.639212E+04  1.674471E+04  2.686974E+04 -3.420424E+04
       227  27  3.184136E+05  1.061280E+05  8.971613E+04 -4.588413E+04  4.102871E+04 -3.681285E+04
       228   1 -9.406854E+05 -3.496308E+05 -1.258400E+05 -3.980246E+05 -2.655985E+04  3.955615E+04
       228   2 -8.641724E+05 -3.080879E+05 -9.818075E+04 -3.683925E+05 -1.609049E+04  3.965371E+04
       228   3 -7.783333E+05 -2.824299E+05 -7.840514E+04 -3.517902E+05 -4.863040E+03  3.773229E+04
       228   4 -3.381678E+05 -1.295149E+05 -2.030873E+04 -2.269929E+05 -3.105470E+04  3.786217E+04
       228   5 -3.428429E+05 -1.194538E+05 -1.062912E+04 -2.214098E+05 -2.443142E+04  3.651645E+04
       228   6 -3.374332E+05 -1.245128E+05 -5.778621E+03 -2.288590E+05 -1.705162E+04  3.315219E+04
       228   7  2.647280E+05  9.063611E+04  8.520968E+04 -5.580701E+04 -3.555414E+04  3.616642E+04
       228   8  1.787768E+05  6.920851E+04  7.691589E+04 -7.431104E+04 -3.277981E+04  3.337636E+04
       228   9  1.036800E+05  3.342573E+04  6.684537E+04 -1.058444E+05 -2.924953E+04  2.856861E+04
       228  10 -9.406866E+05 -3.496327E+05 -1.258443E+05 -3.980237E+05  1.485132E-08  6.660491E-09
       228  11 -8.641731E+05 -3.080897E+05 -9.818419E+04 -3.683919E+05  5.194444E-09 -4.663261E-10
       228  12 -7.783337E+05 -2.824314E+05 -7.840786E+04 -3.517901E+05 -9.700441E-11 -4.810487E-09
       228  13 -3.381693E+05 -1.295167E+05 -2.031324E+04 -2.269920E+05  1.011949E-08  5.541373E-09
       228  14 -3.428439E+05 -1.194554E+05 -1.063275E+04 -2.214091E+05  3.136956E-09 -5.320283E-10
       228  15 -3.374338E+05 -1.245140E+05 -5.781232E+03 -2.288585E+05  2.709667E-09 -2.211543E-10
       228  16  2.647263E+05  9.063437E+04  8.520485E+04 -5.580598E+04 -4.533902E-11  2.240349E-09
       228  17  1.787754E+05  6.920702E+04  7.691178E+04 -7.431016E+04 -1.604195E-09  1.587020E-09
       228  18  1.036789E+05  3.342462E+04  6.684223E+04 -1.058438E+05  1.532837E-09  3.710624E-09
       228  19 -9.406854E+05 -3.496308E+05 -1.258400E+05 -3.980246E+05  2.655985E+04 -3.955615E+04
       228  20 -8.641724E+05 -3.080879E+05 -9.818075E+04 -3.683925E+05  1.609049E+04 -3.965371E+04
       228  21 -7.783333E+05 -2.824299E+05 -7.840514E+04 -3.517902E+05  4.863040E+03 -3.773229E+04
       228  22 -3.381678E+05 -1.295149E+05 -2.030873E+04 -2.269929E+05  3.105470E+04 -3.786217E+04
       228  23 -3.428429E+05 -1.194538E+05 -1.062912E+04 -2.214098E+05  2.443142E+04 -3.651645E+04
       228  24 -3.374332E+05 -1.245128E+05 -5.778621E+03 -2.288590E+05  1.705162E+04 -3.315219E+04
       228  25  2.647280E+05  9.063611E+04  8.520968E+04 -5.580701E+04  3.555414E+04 -3.616642E+04
       228  26  1.787768E+05  6.920851E+04  7.691589E+04 -7.431104E+04  3.277981E+04 -3.337636E+04
       228  27  1.036800E+05  3.342573E+04  6.684537E+04 -1.058444E+05  2.924953E+04 -2.856861E+04
       229   1 -7.254696E+05 -2.638332E+05 -6.785583E+04 -3.374233E+05 -2.806223E+03  3.420071E+04
       229   2 -6.493608E+05 -2.281270E+05 -5.231848E+04 -3.076304E+05  1.176291E+03  2.838107E+04
       229   3 -5.615003E+05 -2.047333E+05 -3.801734E+04 -2.915965E+05  5.233548E+03  2.235841E+04
       229   4 -3.371268E+05 -1.245075E+05 -4.335005E+03 -2.287775E+05 -1.484616E+04  2.967765E+04
       229   5 -3.430117E+05 -1.182738E+05 -2.378478E+03 -2.219363E+05 -1.125065E+04  2.371430E+04
       229   6 -3.370757E+05 -1.242761E+05 -1.351518E+03 -2.288562E+05 -7.580638E+03  1.754790E+04
       229   7  5.137765E+04  1.483355E+04  5.918303E+04 -1.200679E+05 -2.689409E+04  2.515161E+04
       229   8 -3.656362E+04 -8.411675E+03  4.755963E+04 -1.362030E+05 -2.368402E+04  1.904511E+04
       229   9 -1.125994E+05 -4.381457E+04  3.531317E+04 -1.660952E+05 -2.039959E+04  1.273560E+04
       229  10 -7.254699E+05 -2.638345E+05 -6.785804E+04 -3.374232E+05 -5.555823E-08 -2.408307E-08
       229  11 -6.493611E+05 -2.281278E+05 -5.232000E+04 -3.076304E+05 -9.004670E-09 -4.760321E-09
       229  12 -5.615005E+05 -2.047339E+05 -3.801833E+04 -2.915966E+05  4.854399E-08  2.026905E-08
       229  13 -3.371273E+05 -1.245085E+05 -4.337073E+03 -2.287771E+05 -2.804096E-09 -2.356936E-09
       229  14 -3.430120E+05 -1.182744E+05 -2.379772E+03 -2.219361E+05 -8.880444E-09 -4.020673E-09
       229  15 -3.370759E+05 -1.242764E+05 -1.352205E+03 -2.288561E+05 -4.195702E-09 -2.460611E-09
       229  16  5.137671E+04  1.483268E+04  5.918048E+04 -1.200673E+05  4.576313E-08  1.944707E-08
       229  17 -3.656432E+04 -8.412215E+03  4.755789E+04 -1.362026E+05 -1.004180E-08 -6.653373E-09
       229  18 -1.125999E+05 -4.381486E+04  3.531209E+04 -1.660950E+05 -5.636164E-08 -2.395021E-08
       229  19 -7.254696E+05 -2.638332E+05 -6.785583E+04 -3.374233E+05  2.806223E+03 -3.420071E+04
       229  20 -6.493608E+05 -2.281270E+05 -5.231848E+04 -3.076304E+05 -1.176291E+03 -2.838107E+04
       229  21 -5.615003E+05 -2.047333E+05 -3.801734E+04 -2.915965E+05 -5.233548E+03 -2.235841E+04
       229  22 -3.371268E+05 -1.245075E+05 -4.335005E+03 -2.287775E+05  1.484616E+04 -2.967765E+04
       229  23 -3.430117E+05 -1.182738E+05 -2.378478E+03 -2.219363E+05  1.125065E+04 -2.371430E+04
       229  24 -3.370757E+05 -1.242761E+05 -1.351518E+03 -2.288562E+05  7.580638E+03 -1.754790E+04
       229  25  5.137765E+04  1.483355E+04  5.918303E+04 -1.200679E+05  2.689409E+04 -2.515161E+04
       229  26 -3.656362E+04 -8.411675E+03  4.755963E+04 -1.362030E+05  2.368402E+04 -1.904511E+04
       229  27 -1.125994E+05 -4.381457E+04  3.531317E+04 -1.660952E+05  2.039959E+04 -1.273560E+04
       230   1 -5.092107E+05 -1.859583E+05 -2.883124E+04 -2.770192E+05  6.887693E+03  1.851438E+04
       230   2 -4.331773E+05 -1.505554E+05 -1.532113E+04 -2.471663E+05  9.787688E+03  1.194047E+04
       230   3 -3.451403E+05 -1.272172E+05 -2.094408E+03 -2.311023E+05  1.269416E+04  5.348014E+03
       230   4 -3.370387E+05 -1.242795E+05 -1.051473E+03 -2.288458E+05 -5.913561E+03  1.370935E+04
       230   5 -3.430360E+05 -1.182476E+05 -6.881754E+02 -2.219492E+05 -3.049750E+03  7.122307E+03
       230   6 -3.370320E+05 -1.242749E+05 -5.808571E+02 -2.288449E+05 -1.795173E+02  5.167126E+02
       230   7 -1.648326E+05 -6.259667E+04  2.672893E+04 -1.806592E+05 -1.871872E+04  8.902850E+03
       230   8 -2.528851E+05 -8.593864E+04  1.394546E+04 -1.967285E+05 -1.588924E+04  2.303375E+03
       230   9 -3.289232E+05 -1.213324E+05  9.334037E+02 -2.265873E+05 -1.305338E+04 -4.314658E+03
       230  10 -5.092108E+05 -1.859587E+05 -2.883197E+04 -2.770193E+05 -2.811327E-09  1.799292E-09
       230  11 -4.331775E+05 -1.505556E+05 -1.532158E+04 -2.471664E+05  6.023776E-09  4.047654E-09
       230  12 -3.451405E+05 -1.272172E+05 -2.094765E+03 -2.311024E+05  1.174217E-08  3.108185E-09
       230  13 -3.370388E+05 -1.242797E+05 -1.051892E+03 -2.288457E+05  2.817942E-09  1.363156E-09
       230  14 -3.430360E+05 -1.182477E+05 -6.882881E+02 -2.219492E+05  6.261573E-09  3.050855E-09
       230  15 -3.370320E+05 -1.242749E+05 -5.808577E+02 -2.288449E+05  2.343213E-09  1.662238E-09
       230  16 -1.648330E+05 -6.259685E+04  2.672813E+04 -1.806590E+05  6.231671E-09  1.257950E-09
       230  17 -2.528854E+05 -8.593872E+04  1.394498E+04 -1.967284E+05  4.157095E-09  3.967635E-09
       230  18 -3.289234E+05 -1.213324E+05  9.330483E+02 -2.265873E+05 -4.186948E-09  2.580665E-10
       230  19 -5.092107E+05 -1.859583E+05 -2.883124E+04 -2.770192E+05 -6.887693E+03 -1.851438E+04
       230  20 -4.331773E+05 -1.505554E+05 -1.532113E+04 -2.471663E+05 -9.787688E+03 -1.194047E+04
       230  21 -3.451403E+05 -1.272172E+05 -2.094408E+03 -2.311023E+05 -1.269416E+04 -5.348014E+03
       230  22 -3.370387E+05 -1.242795E+05 -1.051473E+03 -2.288458E+05  5.913561E+03 -1.370935E+04
       230  23 -3.430360E+05 -1.182476E+05 -6.881754E+02 -2.219492E+05  3.049750E+03 -7.122307E+03
       230  24 -3.370320E+05 -1.242749E+05 -5.808571E+02 -2.288449E+05  1.795173E+02 -5.167126E+02
       230  25 -1.648326E+05 -6.259667E+04  2.672893E+04 -1.806592E+05  1.871872E+04 -8.902850E+03
       230  26 -2.528851E+05 -8.593864E+04  1.394546E+04 -1.967285E+05  1.588924E+04 -2.303375E+03
       230  27 -3.289232E+05 -1.213324E+05  9.334037E+02 -2.265873E+05  1.305338E+04  4.314658E+03
       231   1 -2.929008E+05 -1.084253E+05  6.747207E+03 -2.165120E+05  1.426739E+04  1.459233E+03
       231   2 -2.168544E+05 -7.303197E+04  1.964873E+04 -1.866573E+05  1.716794E+04 -5.133725E+03
       231   3 -1.288034E+05 -4.969349E+04  3.227280E+04 -1.705935E+05  2.006170E+04 -1.170687E+04
       231   4 -3.370351E+05 -1.242748E+05 -6.051070E+02 -2.288459E+05  1.393153E+03 -3.372317E+03
       231   5 -3.430336E+05 -1.182434E+05 -8.225826E+02 -2.219505E+05  4.330322E+03 -9.952180E+03
       231   6 -3.370418E+05 -1.242748E+05 -1.346848E+03 -2.288488E+05  7.260663E+03 -1.651229E+04
       231   7 -3.811665E+05 -1.401237E+05 -7.956622E+03 -2.411787E+05 -1.147997E+04 -8.203451E+03
       231   8 -4.691955E+05 -1.634530E+05 -2.129353E+04 -2.572369E+05 -8.504532E+03 -1.476960E+04
       231   9 -5.452356E+05 -1.988524E+05 -3.496734E+04 -2.870864E+05 -5.535963E+03 -2.131606E+04
       231  10 -2.929010E+05 -1.084254E+05  6.746820E+03 -2.165120E+05  1.990638E-09 -8.243303E-10
       231  11 -2.168547E+05 -7.303208E+04  1.964813E+04 -1.866572E+05 -9.041045E-10  1.969991E-10
       231  12 -1.288039E+05 -4.969374E+04  3.227179E+04 -1.705933E+05  3.296610E-09 -9.288916E-10
       231  13 -3.370351E+05 -1.242748E+05 -6.051320E+02 -2.288459E+05 -1.152383E-09  3.126566E-10
       231  14 -3.430337E+05 -1.182435E+05 -8.228039E+02 -2.219505E+05 -3.287888E-09 -5.137820E-10
       231  15 -3.370419E+05 -1.242751E+05 -1.347459E+03 -2.288487E+05 -1.764171E-09 -8.598986E-10
       231  16 -3.811666E+05 -1.401238E+05 -7.956996E+03 -2.411788E+05 -2.283641E-09  1.077347E-09
       231  17 -4.691956E+05 -1.634533E+05 -2.129408E+04 -2.572370E+05 -1.420132E-09  1.544652E-10
       231  18 -5.452357E+05 -1.988529E+05 -3.496825E+04 -2.870864E+05 -1.543787E-09 -2.533616E-09
       231  19 -2.929008E+05 -1.084253E+05  6.747207E+03 -2.165120E+05 -1.426739E+04 -1.459233E+03
       231  20 -2.168544E+05 -7.303197E+04  1.964873E+04 -1.866573E+05 -1.716794E+04  5.133725E+03
       231  21 -1.288034E+05 -4.969349E+04  3.227280E+04 -1.705935E+05 -2.006170E+04  1.170687E+04
       231  22 -3.370351E+05 -1.242748E+05 -6.051070E+02 -2.288459E+05 -1.393153E+03  3.372317E+03
       231  23 -3.430336E+05 -1.182434E+05 -8.225826E+02 -2.219505E+05 -4.330322E+03  9.952180E+03
       231  24 -3.370418E+05 -1.242748E+05 -1.346848E+03 -2.288488E+05 -7.260663E+03  1.651229E+04
       231  25 -3.811665E+05 -1.401237E+05 -7.956622E+03 -2.411787E+05  1.147997E+04  8.203451E+03
       231  26 -4.691955E+05 -1.634530E+05 -2.129353E+04 -2.572369E+05  8.504532E+03  1.476960E+04
       231  27 -5.452356E+05 -1.988524E+05 -3.496734E+04 -2.870864E+05  5.535963E+03  2.131606E+04
       232   1 -7.657765E+04 -3.092008E+04  4.074526E+04 -1.560461E+05  2.180069E+04 -1.551656E+04
       232   2 -5.160274E+02  4.484068E+03  5.264485E+04 -1.261437E+05  2.544663E+04 -2.168282E+04
       232   3  8.737573E+04  2.766203E+04  6.363309E+04 -1.100001E+05  2.901492E+04 -2.763746E+04
       232   4 -3.370937E+05 -1.242710E+05 -1.759209E+03 -2.288660E+05  8.985307E+03 -2.032811E+04
       232   5 -3.429973E+05 -1.182657E+05 -3.139394E+03 -2.219340E+05  1.303321E+04 -2.634524E+04
       232   6 -3.371573E+05 -1.245675E+05 -5.750119E+03 -2.287643E+05  1.700327E+04 -3.215074E+04
       232   7 -5.975366E+05 -2.176148E+05 -4.426444E+04 -3.016571E+05 -3.824369E+03 -2.513752E+04
       232   8 -6.853506E+05 -2.410026E+05 -5.892497E+04 -3.176741E+05  6.271181E+02 -3.100492E+04
       232   9 -7.614922E+05 -2.767769E+05 -7.513537E+04 -3.474509E+05  5.000458E+03 -3.666070E+04
       232  10 -7.657822E+04 -3.092047E+04  4.074391E+04 -1.560458E+05 -3.787708E-08 -1.629276E-08
       232  11 -5.168487E+02  4.483390E+03  5.264275E+04 -1.261432E+05 -4.901100E-09 -5.426065E-09
       232  12  8.737462E+04  2.766098E+04  6.363008E+04 -1.099994E+05  2.416065E-08  1.811912E-09
       232  13 -3.370939E+05 -1.242714E+05 -1.760137E+03 -2.288658E+05 -7.725774E-10 -1.892921E-10
       232  14 -3.429977E+05 -1.182665E+05 -3.141017E+03 -2.219337E+05  4.376920E-10  5.606946E-09
       232  15 -3.371579E+05 -1.245687E+05 -5.752604E+03 -2.287638E+05 -1.598983E-09  8.601949E-09
       232  16 -5.975367E+05 -2.176155E+05 -4.426565E+04 -3.016571E+05  3.876813E-08  1.095751E-08
       232  17 -6.853508E+05 -2.410036E+05 -5.892678E+04 -3.176741E+05  5.897717E-09 -4.922956E-09
       232  18 -7.614926E+05 -2.767784E+05 -7.513794E+04 -3.474507E+05 -3.008355E-08 -1.782416E-08
       232  19 -7.657765E+04 -3.092008E+04  4.074526E+04 -1.560461E+05 -2.180069E+04  1.551656E+04
       232  20 -5.160274E+02  4.484068E+03  5.264485E+04 -1.261437E+05 -2.544663E+04  2.168282E+04
       232  21  8.737573E+04  2.766203E+04  6.363309E+04 -1.100001E+05 -2.901492E+04  2.763746E+04
       232  22 -3.370937E+05 -1.242710E+05 -1.759209E+03 -2.288660E+05 -8.985307E+03  2.032811E+04
       232  23 -3.429973E+05 -1.182657E+05 -3.139394E+03 -2.219340E+05 -1.303321E+04  2.634524E+04
       232  24 -3.371573E+05 -1.245675E+05 -5.750119E+03 -2.287643E+05 -1.700327E+04  3.215074E+04
       232  25 -5.975366E+05 -2.176148E+05 -4.426444E+04 -3.016571E+05  3.824369E+03  2.513752E+04
       232  26 -6.853506E+05 -2.410026E+05 -5.892497E+04 -3.176741E+05 -6.271181E+02  3.100492E+04
       232  27 -7.614922E+05 -2.767769E+05 -7.513537E+04 -3.474509E+05 -5.000458E+03  3.666070E+04
       233   1  1.396757E+05  4.615813E+04  7.082665E+04 -9.591626E+04  3.163245E+04 -3.094780E+04
       233   2  2.145724E+05  8.202732E+04  7.937589E+04 -6.376715E+04  3.673791E+04 -3.509623E+04
       233   3  2.997325E+05  1.025313E+05  8.468997E+04 -4.444165E+04  4.105544E+04 -3.714117E+04
       233   4 -3.375519E+05 -1.245762E+05 -7.670318E+03 -2.288786E+05  1.946459E+04 -3.552107E+04
       233   5 -3.427666E+05 -1.198076E+05 -1.411787E+04 -2.212275E+05  2.858155E+04 -3.816520E+04
       233   6 -3.385229E+05 -1.312043E+05 -2.698366E+04 -2.264047E+05  3.690977E+04 -3.870492E+04
       233   7 -8.145413E+05 -2.952899E+05 -8.617344E+04 -3.617468E+05  7.306518E+03 -4.009070E+04
       233   8 -8.997776E+05 -3.216114E+05 -1.076201E+05 -3.785559E+05  2.043292E+04 -4.123124E+04
       233   9 -9.763469E+05 -3.648969E+05 -1.386697E+05 -4.081919E+05  3.276863E+04 -4.026692E+04
       233  10  1.396744E+05  4.615684E+04  7.082297E+04 -9.591547E+04  3.393585E-08  5.907738E-09
       233  11  2.145706E+05  8.202564E+04  7.937104E+04 -6.376612E+04  7.199983E-10 -1.649794E-09
       233  12  2.997303E+05  1.025293E+05  8.468421E+04 -4.444042E+04 -2.705911E-08 -9.970439E-09
       233  13 -3.375526E+05 -1.245777E+05 -7.673400E+03 -2.288781E+05 -3.130948E-09  9.000525E-09
       233  14 -3.427679E+05 -1.198094E+05 -1.412214E+04 -2.212266E+05 -3.643307E-09  6.785439E-09
       233  15 -3.385248E+05 -1.312063E+05 -2.698903E+04 -2.264036E+05 -1.392607E-09  2.096903E-09
       233  16 -8.145418E+05 -2.952917E+05 -8.617656E+04 -3.617466E+05 -4.282215E-08 -2.144281E-08
       233  17 -8.997785E+05 -3.216134E+05 -1.076241E+05 -3.785552E+05 -1.143083E-08 -5.309322E-09
       233  18 -9.763485E+05 -3.648990E+05 -1.386748E+05 -4.081908E+05  2.453451E-08  1.014917E-08
       233  19  1.396757E+05  4.615813E+04  7.082665E+04 -9.591626E+04 -3.163245E+04  3.094780E+04
       233  20  2.145724E+05  8.202732E+04  7.937589E+04 -6.376715E+04 -3.673791E+04  3.509623E+04
       233  21  2.997325E+05  1.025313E+05  8.468997E+04 -4.444165E+04 -4.105544E+04  3.714117E+04
       233  22 -3.375519E+05 -1.245762E+05 -7.670318E+03 -2.288786E+05 -1.946459E+04  3.552107E+04
       233  23 -3.427666E+05 -1.198076E+05 -1.411787E+04 -2.212275E+05 -2.858155E+04  3.816520E+04
       233  24 -3.385229E+05 -1.312043E+05 -2.698366E+04 -2.264047E+05 -3.690977E+04  3.870492E+04
       233  25 -8.145413E+05 -2.952899E+05 -8.617344E+04 -3.617468E+05 -7.306518E+03  4.009070E+04
       233  26 -8.997776E+05 -3.216114E+05 -1.076201E+05 -3.785559E+05 -2.043292E+04  4.123124E+04
       233  27 -9.763469E+05 -3.648969E+05 -1.386697E+05 -4.081919E+05 -3.276863E+04  4.026692E+04
       234   1  3.536214E+05  1.166305E+05  8.704089E+04 -3.619501E+04  4.757728E+04 -3.731816E+04
       234   2  4.035902E+05  1.601758E+05  8.632481E+04  3.800626E+04  4.043947E+04 -3.140400E+04
       234   3  4.435938E+05  1.363434E+05  7.320912E+04  1.155274E+05  2.538165E+04 -4.449814E+03
       234   4 -3.428753E+05 -1.319741E+05 -3.611367E+04 -2.274838E+05  4.183702E+04 -3.948196E+04
       234   5 -3.418054E+05 -1.499868E+05 -6.916191E+04 -2.082147E+05  7.488633E+04 -1.845834E+04
       234   6 -3.587003E+05 -2.433963E+05 -1.464775E+05 -1.856249E+05  1.000091E+05  2.361830E+04
       234   7 -1.038859E+06 -3.805347E+05 -1.592834E+05 -4.185733E+05  3.610363E+04 -4.164326E+04
       234   8 -1.086605E+06 -4.600464E+05 -2.246684E+05 -4.541406E+05  1.092883E+05 -5.534879E+03
       234   9 -1.160309E+06 -6.229568E+05 -3.661894E+05 -4.863733E+05  1.745289E+05  5.162202E+04
       234  10  3.536186E+05  1.166284E+05  8.703402E+04 -3.619358E+04  1.025254E-09 -5.512506E-10
       234  11  4.035882E+05  1.601743E+05  8.631989E+04  3.800729E+04  5.615383E-10 -3.992793E-09
       234  12  4.435931E+05  1.363432E+05  7.320787E+04  1.155275E+05 -4.022543E-09 -4.047831E-09
       234  13 -3.428776E+05 -1.319762E+05 -3.611989E+04 -2.274824E+05 -1.472163E-09 -9.994378E-10
       234  14 -3.418115E+05 -1.499887E+05 -6.917309E+04 -2.082136E+05  1.503673E-09 -1.182551E-09
       234  15 -3.587112E+05 -2.433996E+05 -1.464974E+05 -1.856268E+05 -4.248594E-10  1.519909E-09
       234  16 -1.038861E+06 -3.805369E+05 -1.592891E+05 -4.185721E+05 -3.830002E-09 -2.643944E-11
       234  17 -1.086618E+06 -4.600497E+05 -2.246909E+05 -4.541401E+05 -7.248409E-10  6.522045E-10
       234  18 -1.160342E+06 -6.229678E+05 -3.662517E+05 -4.863806E+05  4.779790E-09  1.316930E-09
       234  19  3.536214E+05  1.166305E+05  8.704089E+04 -3.619501E+04 -4.757728E+04  3.731816E+04
       234  20  4.035902E+05  1.601758E+05  8.632481E+04  3.800626E+04 -4.043947E+04  3.140400E+04
       234  21  4.435938E+05  1.363434E+05  7.320912E+04  1.155274E+05 -2.538165E+04  4.449814E+03
       234  22 -3.428753E+05 -1.319741E+05 -3.611367E+04 -2.274838E+05 -4.183702E+04  3.948196E+04
       234  23 -3.418054E+05 -1.499868E+05 -6.916191E+04 -2.082147E+05 -7.488633E+04  1.845834E+04
       234  24 -3.587003E+05 -2.433963E+05 -1.464775E+05 -1.856249E+05 -1.000091E+05 -2.361830E+04
       234  25 -1.038859E+06 -3.805347E+05 -1.592834E+05 -4.185733E+05 -3.610363E+04  4.164326E+04
       234  26 -1.086605E+06 -4.600464E+05 -2.246684E+05 -4.541406E+05 -1.092883E+05  5.534879E+03
       234  27 -1.160309E+06 -6.229568E+05 -3.661894E+05 -4.863733E+05 -1.745289E+05 -5.162202E+04
       235   1  1.209192E+06  1.706000E+05  1.486908E+05  6.572011E+03  3.178768E+04 -1.432561E+04
       235   2  1.161968E+06  2.058206E+05  1.336119E+05  3.019891E+04  9.014704E+03 -4.942074E+04
       235   3  1.109798E+06  2.092212E+05  1.254398E+05  6.141794E+04 -1.379558E+04 -6.223208E+04
       235   4  1.807184E+05 -8.223152E+04 -8.906140E+04  5.922710E+04 -6.252211E+04 -1.451454E+04
       235   5  1.871588E+05 -2.441765E+04 -4.420866E+04  5.534559E+04 -3.977975E+04 -4.953237E+04
       235   6  1.807416E+05 -6.350991E+03 -2.404136E+04  5.905592E+04 -1.707628E+04 -6.224835E+04
       235   7 -8.467536E+05 -3.351218E+05 -3.268493E+05  1.117940E+05 -1.566770E+05 -1.471960E+04
       235   8 -7.867216E+05 -2.547057E+05 -2.220583E+05  8.045129E+04 -8.849972E+04 -4.964805E+04
       235   9 -7.474587E+05 -2.219667E+05 -1.735457E+05  5.669705E+04 -2.035224E+04 -6.226460E+04
       235  10  1.209191E+06  1.705995E+05  1.486886E+05  6.572377E+03  6.100334E-09 -1.436649E-09
       235  11  1.161967E+06  2.058179E+05  1.336072E+05  3.019926E+04  1.871458E-09 -5.487341E-09
       235  12  1.109797E+06  2.092170E+05  1.254322E+05  6.141725E+04 -4.944858E-09 -3.148866E-09
       235  13  1.807141E+05 -8.223280E+04 -8.906914E+04  5.922637E+04 -1.565107E-09  8.314028E-10
       235  14  1.871565E+05 -2.442071E+04 -4.421624E+04  5.534401E+04 -1.339575E-09 -4.219203E-09
       235  15  1.807402E+05 -6.355230E+03 -2.404919E+04  5.905506E+04  3.962213E-09  2.120669E-10
       235  16 -8.467801E+05 -3.351286E+05 -3.268959E+05  1.117921E+05 -6.249892E-09 -2.885218E-10
       235  17 -7.867306E+05 -2.547104E+05 -2.220776E+05  8.044775E+04  1.703534E-10 -7.798474E-09
       235  18 -7.474602E+05 -2.219710E+05 -1.735538E+05  5.669602E+04  3.072559E-09 -6.655066E-09
       235  19  1.209192E+06  1.706000E+05  1.486908E+05  6.572011E+03 -3.178768E+04  1.432561E+04
       235  20  1.161968E+06  2.058206E+05  1.336119E+05  3.019891E+04 -9.014704E+03  4.942074E+04
       235  21  1.109798E+06  2.092212E+05  1.254398E+05  6.141794E+04  1.379558E+04  6.223208E+04
       235  22  1.807184E+05 -8.223152E+04 -8.906140E+04  5.922710E+04  6.252211E+04  1.451454E+04
       235  23  1.871588E+05 -2.441765E+04 -4.420866E+04  5.534559E+04  3.977975E+04  4.953237E+04
       235  24  1.807416E+05 -6.350991E+03 -2.404136E+04  5.905592E+04  1.707628E+04  6.224835E+04
       235  25 -8.467536E+05 -3.351218E+05 -3.268493E+05  1.117940E+05  1.566770E+05  1.471960E+04
       235  26 -7.867216E+05 -2.547057E+05 -2.220583E+05  8.045129E+04  8.849972E+04  4.964805E+04
       235  27 -7.474587E+05 -2.219667E+05 -1.735457E+05  5.669705E+04  2.035224E+04  6.226460E+04
       236   1  1.079911E+06  2.021690E+05  1.230847E+05  5.830459E+04 -1.030396E+04 -6.238054E+04
       236   2  1.030777E+06  1.936422E+05  1.181638E+05  5.532987E+04 -1.054565E+04 -6.291031E+04
       236   3  9.811774E+05  1.831276E+05  1.129081E+05  6.147618E+04 -1.079447E+04 -6.090252E+04
       236   4  1.833057E+05 -5.238645E+03 -1.808194E+04  5.940983E+04 -1.396181E+04 -6.239786E+04
       236   5  1.840024E+05 -1.192144E+03 -9.860678E+03  5.484209E+04 -9.025175E+03 -6.291482E+04
       236   6  1.833325E+05 -3.349882E+01 -5.569740E+03  5.939622E+04 -4.095583E+03 -6.089243E+04
       236   7 -7.124992E+05 -2.126860E+05 -1.592683E+05  6.051293E+04 -1.761458E+04 -6.241521E+04
       236   8 -6.620538E+05 -1.960606E+05 -1.378998E+05  5.435454E+04 -7.506685E+03 -6.291934E+04
       236   9 -6.138731E+05 -1.832244E+05 -1.240593E+05  5.731862E+04  2.595057E+03 -6.088239E+04
       236  10  1.079909E+06  2.021648E+05  1.230771E+05  5.830407E+04 -5.660808E-09 -3.179070E-09
       236  11  1.030775E+06  1.936379E+05  1.181561E+05  5.532934E+04 -1.971199E-09  1.668487E-09
       236  12  9.811763E+05  1.831236E+05  1.129009E+05  6.147565E+04  4.710761E-10  1.812182E-09
       236  13  1.833045E+05 -5.242879E+03 -1.808963E+04  5.940913E+04  1.706482E-09 -2.238141E-09
       236  14  1.840013E+05 -1.196416E+03 -9.868270E+03  5.484163E+04  3.019224E-09 -2.853986E-10
       236  15  1.833315E+05 -3.748527E+01 -5.576740E+03  5.939602E+04  9.530580E-10 -4.374731E-09
       236  16 -7.125006E+05 -2.126902E+05 -1.592762E+05  6.051205E+04  4.814587E-09  2.192477E-10
       236  17 -6.620550E+05 -1.960649E+05 -1.379074E+05  5.435416E+04  2.662700E-09  1.332621E-09
       236  18 -6.138741E+05 -1.832284E+05 -1.240663E+05  5.731874E+04 -1.528729E-09 -2.925938E-09
       236  19  1.079911E+06  2.021690E+05  1.230847E+05  5.830459E+04  1.030396E+04  6.238054E+04
       236  20  1.030777E+06  1.936422E+05  1.181638E+05  5.532987E+04  1.054565E+04  6.291031E+04
       236  21  9.811774E+05  1.831276E+05  1.129081E+05  6.147618E+04  1.079447E+04  6.090252E+04
       236  22  1.833057E+05 -5.238645E+03 -1.808194E+04  5.940983E+04  1.396181E+04  6.239786E+04
       236  23  1.840024E+05 -1.192144E+03 -9.860678E+03  5.484209E+04  9.025175E+03  6.291482E+04
       236  24  1.833325E+05 -3.349882E+01 -5.569740E+03  5.939622E+04  4.095583E+03  6.089243E+04
       236  25 -7.124992E+05 -2.126860E+05 -1.592683E+05  6.051293E+04  1.761458E+04  6.241521E+04
       236  26 -6.620538E+05 -1.960606E+05 -1.378998E+05  5.435454E+04  7.506685E+03  6.291934E+04
       236  27 -6.138731E+05 -1.832244E+05 -1.240593E+05  5.731862E+04 -2.595057E+03  6.088239E+04
       237   1  9.502245E+05  1.759077E+05  1.091199E+05  6.115244E+04 -9.913280E+03 -5.890377E+04
       237   2  9.009922E+05  1.647073E+05  1.031436E+05  5.646667E+04 -9.325409E+03 -5.550229E+04
       237   3  8.516487E+05  1.534623E+05  9.676716E+04  6.106572E+04 -8.739955E+03 -5.181286E+04
       237   4  1.835975E+05  1.377443E+01 -4.214170E+03  5.943392E+04 -3.259928E+03 -5.889284E+04
       237   5  1.837172E+05  2.341843E+02 -2.382563E+03  5.479079E+04 -2.085395E+03 -5.548817E+04
       237   6  1.836212E+05  3.080807E+02 -1.359097E+03  5.943309E+04 -9.132364E+02 -5.179538E+04
       237   7 -5.824389E+05 -1.759076E+05 -1.175588E+05  5.771720E+04  3.385555E+03 -5.888193E+04
       237   8 -5.330404E+05 -1.642628E+05 -1.079177E+05  5.311655E+04  5.146608E+03 -5.547408E+04
       237   9 -4.839573E+05 -1.528668E+05 -9.949297E+04  5.780197E+04  6.905417E+03 -5.177793E+04
       237  10  9.502234E+05  1.759040E+05  1.091132E+05  6.115197E+04 -5.213716E-09  3.298732E-09
       237  11  9.009912E+05  1.647040E+05  1.031377E+05  5.646625E+04 -1.695849E-09  1.984110E-09
       237  12  8.516479E+05  1.534593E+05  9.676197E+04  6.106535E+04  7.967653E-09 -3.794273E-10
       237  13  1.835965E+05  1.004685E+01 -4.220708E+03  5.943377E+04 -4.788413E-10 -4.968088E-09
       237  14  1.837163E+05  2.308766E+02 -2.388358E+03  5.479069E+04  3.583208E-10  3.116320E-09
       237  15  1.836205E+05  3.051995E+02 -1.364141E+03  5.943306E+04  8.856959E-10  3.272009E-09
       237  16 -5.824399E+05 -1.759113E+05 -1.175653E+05  5.771736E+04  5.365593E-09 -1.383109E-09
       237  17 -5.330413E+05 -1.642661E+05 -1.079235E+05  5.311678E+04 -1.470643E-09  2.648762E-09
       237  18 -4.839581E+05 -1.528697E+05 -9.949810E+04  5.780225E+04 -7.674138E-09 -1.459433E-09
       237  19  9.502245E+05  1.759077E+05  1.091199E+05  6.115244E+04  9.913280E+03  5.890377E+04
       237  20  9.009922E+05  1.647073E+05  1.031436E+05  5.646667E+04  9.325409E+03  5.550229E+04
       237  21  8.516487E+05  1.534623E+05  9.676716E+04  6.106572E+04  8.739955E+03  5.181286E+04
       237  22  1.835975E+05  1.377443E+01 -4.214170E+03  5.943392E+04  3.259928E+03  5.889284E+04
       237  23  1.837172E+05  2.341843E+02 -2.382563E+03  5.479079E+04  2.085395E+03  5.548817E+04
       237  24  1.836212E+05  3.080807E+02 -1.359097E+03  5.943309E+04  9.132364E+02  5.179538E+04
       237  25 -5.824389E+05 -1.759076E+05 -1.175588E+05  5.771720E+04 -3.385555E+03  5.888193E+04
       237  26 -5.330404E+05 -1.642628E+05 -1.079177E+05  5.311655E+04 -5.146608E+03  5.547408E+04
       237  27 -4.839573E+05 -1.528668E+05 -9.949297E+04  5.780197E+04 -6.905417E+03  5.177793E+04
       238   1  8.206404E+05  1.463044E+05  9.231876E+04  6.098110E+04 -8.523877E+03 -4.957224E+04
       238   2  7.714272E+05  1.350104E+05  8.556815E+04  5.623018E+04 -8.309573E+03 -4.572690E+04
       238   3  7.221599E+05  1.237778E+05  7.868054E+04  6.077430E+04 -8.096757E+03 -4.184961E+04
       238   4  1.836615E+05  3.098147E+02 -1.028570E+03  5.943547E+04 -7.041877E+02 -4.955386E+04
       238   5  1.837056E+05  2.972757E+02 -5.836046E+02  5.478769E+04 -4.252788E+02 -4.570690E+04
       238   6  1.836811E+05  3.347552E+02 -3.210223E+02  5.943544E+04 -1.478427E+02 -4.182799E+04
       238   7 -4.529090E+05 -1.457035E+05 -9.438271E+04  5.789119E+04  7.107819E+03 -4.953550E+04
       238   8 -4.036682E+05 -1.344318E+05 -8.674114E+04  5.334635E+04  7.451867E+03 -4.568692E+04
       238   9 -3.545058E+05 -1.231217E+05 -7.932742E+04  5.809756E+04  7.794468E+03 -4.180638E+04
       238  10  8.206397E+05  1.463017E+05  9.231400E+04  6.098076E+04  3.436680E-09 -3.379186E-10
       238  11  7.714266E+05  1.350081E+05  8.556409E+04  5.622987E+04  1.787920E-09  6.995105E-09
       238  12  7.221593E+05  1.237759E+05  7.867713E+04  6.077403E+04  3.380938E-09  5.554966E-09
       238  13  1.836609E+05  3.071774E+02 -1.033186E+03  5.943544E+04  7.794836E-10 -3.997284E-11
       238  14  1.837051E+05  2.950321E+02 -5.875311E+02  5.478767E+04 -1.483996E-11  6.226038E-09
       238  15  1.836806E+05  3.328763E+02 -3.243104E+02  5.943544E+04 -2.000290E-09  5.415327E-10
       238  16 -4.529097E+05 -1.457062E+05 -9.438742E+04  5.789147E+04 -3.065412E-09 -9.928093E-10
       238  17 -4.036689E+05 -1.344341E+05 -8.674516E+04  5.334662E+04 -2.141979E-09  2.012336E-09
       238  18 -3.545064E+05 -1.231236E+05 -7.933082E+04  5.809782E+04 -5.085092E-09 -7.679987E-10
       238  19  8.206404E+05  1.463044E+05  9.231876E+04  6.098110E+04  8.523877E+03  4.957224E+04
       238  20  7.714272E+05  1.350104E+05  8.556815E+04  5.623018E+04  8.309573E+03  4.572690E+04
       238  21  7.221599E+05  1.237778E+05  7.868054E+04  6.077430E+04  8.096757E+03  4.184961E+04
       238  22  1.836615E+05  3.098147E+02 -1.028570E+03  5.943547E+04  7.041877E+02  4.955386E+04
       238  23  1.837056E+05  2.972757E+02 -5.836046E+02  5.478769E+04  4.252788E+02  4.570690E+04
       238  24  1.836811E+05  3.347552E+02 -3.210223E+02  5.943544E+04  1.478427E+02  4.182799E+04
       238  25 -4.529090E+05 -1.457035E+05 -9.438271E+04  5.789119E+04 -7.107819E+03  4.953550E+04
       238  26 -4.036682E+05 -1.344318E+05 -8.674114E+04  5.334635E+04 -7.451867E+03  4.568692E+04
       238  27 -3.545058E+05 -1.231217E+05 -7.932742E+04  5.809756E+04 -7.794468E+03  4.180638E+04
       239   1  6.911632E+05  1.166398E+05  7.403338E+04  6.070889E+04 -8.050300E+03 -3.958301E+04
       239   2  6.419839E+05  1.053602E+05  6.703884E+04  5.595555E+04 -8.014967E+03 -3.568946E+04
       239   3  5.927582E+05  9.414530E+04  6.001952E+04  6.049785E+04 -7.980722E+03 -3.179283E+04
       239   4  1.836916E+05  3.400423E+02 -2.334974E+02  5.943556E+04 -1.036756E+02 -3.956064E+04
       239   5  1.837238E+05  3.194854E+02 -1.064887E+02  5.478753E+04 -6.232295E+01 -3.566595E+04
       239   6  1.837068E+05  3.629028E+02 -8.398246E+00  5.943553E+04 -2.205638E+01 -3.176818E+04
       239   7 -3.235208E+05 -1.159716E+05 -7.450457E+04  5.816311E+04  7.836728E+03 -3.953829E+04
       239   8 -2.743249E+05 -1.047309E+05 -6.725522E+04  5.362024E+04  7.884698E+03 -3.564246E+04
       239   9 -2.251760E+05 -9.342723E+04 -6.003901E+04  5.837380E+04  7.931586E+03 -3.174355E+04
       239  10  6.911628E+05  1.166381E+05  7.403031E+04  6.070863E+04  2.732898E-08 -4.809345E-10
       239  11  6.419834E+05  1.053588E+05  6.703632E+04  5.595532E+04  1.435025E-08 -5.153349E-09
       239  12  5.927578E+05  9.414420E+04  6.001751E+04  6.049765E+04  2.872992E-09 -4.289372E-09
       239  13  1.836912E+05  3.383615E+02 -2.364387E+02  5.943556E+04 -1.172569E-09  8.709616E-09
       239  14  1.837234E+05  3.181193E+02 -1.088794E+02  5.478753E+04 -1.092109E-09  8.129871E-09
       239  15  1.837066E+05  3.618190E+02 -1.029492E+01  5.943553E+04  7.626464E-10  1.229825E-08
       239  16 -3.235213E+05 -1.159733E+05 -7.450762E+04  5.816336E+04 -2.802828E-08  1.907678E-09
       239  17 -2.743253E+05 -1.047323E+05 -6.725772E+04  5.362047E+04 -1.863341E-08 -6.298377E-09
       239  18 -2.251763E+05 -9.342833E+04 -6.004102E+04  5.837400E+04 -4.588600E-09 -8.043321E-09
       239  19  6.911632E+05  1.166398E+05  7.403338E+04  6.070889E+04  8.050300E+03  3.958301E+04
       239  20  6.419839E+05  1.053602E+05  6.703884E+04  5.595555E+04  8.014967E+03  3.568946E+04
       239  21  5.927582E+05  9.414530E+04  6.001952E+04  6.049785E+04  7.980722E+03  3.179283E+04
       239  22  1.836916E+05  3.400423E+02 -2.334974E+02  5.943556E+04  1.036756E+02  3.956064E+04
       239  23  1.837238E+05  3.194854E+02 -1.064887E+02  5.478753E+04  6.232295E+01  3.566595E+04
       239  24  1.837068E+05  3.629028E+02 -8.398246E+00  5.943553E+04  2.205638E+01  3.176818E+04
       239  25 -3.235208E+05 -1.159716E+05 -7.450457E+04  5.816311E+04 -7.836728E+03  3.953829E+04
       239  26 -2.743249E+05 -1.047309E+05 -6.725522E+04  5.362024E+04 -7.884698E+03  3.564246E+04
       239  27 -2.251760E+05 -9.342723E+04 -6.003901E+04  5.837380E+04 -7.931586E+03  3.174355E+04
       240   1  5.617825E+05  8.701280E+04  5.533726E+04  6.042804E+04 -7.988669E+03 -2.952423E+04
       240   2  5.126272E+05  7.574080E+04  4.833039E+04  5.566462E+04 -8.072485E+03 -2.562596E+04
       240   3  4.634346E+05  6.454886E+04  4.137681E+04  6.019086E+04 -8.157074E+03 -2.172628E+04
       240   4  1.837134E+05  3.681928E+02  3.627086E+01  5.943418E+04 -3.141070E+01 -2.949902E+04
       240   5  1.837390E+05  3.483178E+02  1.386295E+02  5.478917E+04 -1.126050E+02 -2.559994E+04
       240   6  1.837244E+05  4.081166E+02  2.923075E+02  5.943408E+04 -1.945772E+02 -2.169945E+04
       240   7 -1.942116E+05 -8.628300E+04 -5.526694E+04  5.844084E+04  7.921206E+03 -2.947383E+04
       240   8 -1.450401E+05 -7.504914E+04 -4.805476E+04  5.391411E+04  7.843236E+03 -2.557393E+04
       240   9 -9.590705E+04 -6.373622E+04 -4.079333E+04  5.867759E+04  7.764483E+03 -2.167263E+04
       240  10  5.617821E+05  8.701185E+04  5.533550E+04  6.042785E+04 -1.395090E-08  6.917404E-10
       240  11  5.126270E+05  7.574007E+04  4.832903E+04  5.566446E+04 -1.865461E-08  3.494769E-10
       240  12  4.634344E+05  6.454833E+04  4.137580E+04  6.019072E+04 -2.232834E-08  2.135970E-09
       240  13  1.837132E+05  3.672583E+02  3.463546E+01  5.943418E+04  1.991437E-09  1.506431E-08
       240  14  1.837389E+05  3.476140E+02  1.373978E+02  5.478917E+04  2.084079E-09  1.027873E-08
       240  15  1.837242E+05  4.076109E+02  2.914226E+02  5.943408E+04 -7.260500E-11  5.597196E-09
       240  16 -1.942119E+05 -8.628395E+04 -5.526869E+04  5.844103E+04  1.295235E-08 -2.246460E-09
       240  17 -1.450404E+05 -7.504986E+04 -4.805611E+04  5.391427E+04  1.812715E-08 -1.337547E-08
       240  18 -9.590724E+04 -6.373674E+04 -4.079433E+04  5.867773E+04  2.122877E-08 -2.089184E-09
       240  19  5.617825E+05  8.701280E+04  5.533726E+04  6.042804E+04  7.988669E+03  2.952423E+04
       240  20  5.126272E+05  7.574080E+04  4.833039E+04  5.566462E+04  8.072485E+03  2.562596E+04
       240  21  4.634346E+05  6.454886E+04  4.137681E+04  6.019086E+04  8.157074E+03  2.172628E+04
       240  22  1.837134E+05  3.681928E+02  3.627086E+01  5.943418E+04  3.141070E+01  2.949902E+04
       240  23  1.837390E+05  3.483178E+02  1.386295E+02  5.478917E+04  1.126050E+02  2.559994E+04
       240  24  1.837244E+05  4.081166E+02  2.923075E+02  5.943408E+04  1.945772E+02  2.169945E+04
       240  25 -1.942116E+05 -8.628300E+04 -5.526694E+04  5.844084E+04 -7.921206E+03  2.947383E+04
       240  26 -1.450401E+05 -7.504914E+04 -4.805476E+04  5.391411E+04 -7.843236E+03  2.557393E+04
       240  27 -9.590705E+04 -6.373622E+04 -4.079333E+04  5.867759E+04 -7.764483E+03  2.167263E+04
       241   1  4.324918E+05  5.742170E+04  3.676014E+04  6.013639E+04 -8.222606E+03 -1.945694E+04
       241   2  3.833149E+05  4.623084E+04  2.999082E+04  5.524487E+04 -8.625211E+03 -1.555104E+04
       241   3  3.341877E+05  3.532915E+04  2.353236E+04  5.963965E+04 -9.028299E+03 -1.163150E+04
       241   4  1.837457E+05  4.150777E+02  3.980846E+02  5.943346E+04 -2.612605E+02 -1.942973E+04
       241   5  1.837282E+05  4.717523E+02  7.233027E+02  5.478955E+04 -6.362834E+02 -1.552325E+04
       241   6  1.837522E+05  8.126901E+02  1.339878E+03  5.943210E+04 -1.011817E+03 -1.160312E+04
       241   7 -6.493801E+04 -5.659437E+04 -3.596479E+04  5.873076E+04  7.697030E+03 -1.940253E+04
       241   8 -1.581839E+04 -4.528915E+04 -2.854467E+04  5.433434E+04  7.350184E+03 -1.549546E+04
       241   9  3.333966E+04 -3.370479E+04 -2.085277E+04  5.922457E+04  7.002802E+03 -1.157475E+04
       241  10  4.324916E+05  5.742127E+04  3.675930E+04  6.013626E+04 -7.480064E-09  5.796605E-09
       241  11  3.833148E+05  4.623056E+04  2.999022E+04  5.524476E+04 -3.221765E-09 -2.045187E-09
       241  12  3.341876E+05  3.532898E+04  2.353195E+04  5.963957E+04  6.283641E-09  2.696012E-09
       241  13  1.837456E+05  4.146723E+02  3.973750E+02  5.943345E+04  1.988859E-09  5.267174E-09
       241  14  1.837281E+05  4.714935E+02  7.228490E+02  5.478954E+04 -1.697530E-09  4.943013E-09
       241  15  1.837522E+05  8.125453E+02  1.339623E+03  5.943209E+04  5.909184E-10 -2.714822E-09
       241  16 -6.493817E+04 -5.659479E+04 -3.596561E+04  5.873088E+04  8.587164E-09  3.383395E-09
       241  17 -1.581852E+04 -4.528943E+04 -2.854522E+04  5.433443E+04  2.278771E-09  8.946207E-10
       241  18  3.333957E+04 -3.370494E+04 -2.085312E+04  5.922463E+04 -1.043555E-08 -7.803650E-09
       241  19  4.324918E+05  5.742170E+04  3.676014E+04  6.013639E+04  8.222606E+03  1.945694E+04
       241  20  3.833149E+05  4.623084E+04  2.999082E+04  5.524487E+04  8.625211E+03  1.555104E+04
       241  21  3.341877E+05  3.532915E+04  2.353236E+04  5.963965E+04  9.028299E+03  1.163150E+04
       241  22  1.837457E+05  4.150777E+02  3.980846E+02  5.943346E+04  2.612605E+02  1.942973E+04
       241  23  1.837282E+05  4.717523E+02  7.233027E+02  5.478955E+04  6.362834E+02  1.552325E+04
       241  24  1.837522E+05  8.126901E+02  1.339878E+03  5.943210E+04  1.011817E+03  1.160312E+04
       241  25 -6.493801E+04 -5.659437E+04 -3.596479E+04  5.873076E+04 -7.697030E+03  1.940253E+04
       241  26 -1.581839E+04 -4.528915E+04 -2.854467E+04  5.433434E+04 -7.350184E+03  1.549546E+04
       241  27  3.333966E+04 -3.370479E+04 -2.085277E+04  5.922457E+04 -7.002802E+03  1.157475E+04
       242   1  3.034309E+05  2.828681E+04  1.927278E+04  5.981591E+04 -9.264563E+03 -9.351264E+03
       242   2  2.538353E+05  1.835599E+04  1.378361E+04  5.298283E+04 -1.121161E+04 -5.370083E+03
       242   3  2.051811E+05  1.149813E+04  1.030479E+04  5.543783E+04 -1.315915E+04 -1.266576E+03
       242   4  1.839438E+05  8.966748E+02  1.784413E+03  5.943431E+04 -1.250684E+03 -9.322695E+03
       242   5  1.834966E+05  2.208435E+03  3.285163E+03  5.478031E+04 -2.948257E+03 -5.340480E+03
       242   6  1.839456E+05  6.550214E+03  6.623118E+03  5.941431E+04 -4.646444E+03 -1.235949E+03
       242   7  6.447112E+04 -2.649409E+04 -1.570396E+04  5.905277E+04  6.761717E+03 -9.294133E+03
       242   8  1.131630E+05 -1.393930E+04 -7.213116E+03  5.657757E+04  5.314201E+03 -5.310828E+03
       242   9  1.627108E+05  1.602376E+03  2.941716E+03  6.339065E+04  3.865981E+03 -1.205212E+03
       242  10  3.034308E+05  2.828669E+04  1.927245E+04  5.981584E+04 -3.488624E-09  1.484001E-09
       242  11  2.538352E+05  1.835593E+04  1.378331E+04  5.298278E+04 -5.463352E-09 -5.087703E-09
       242  12  2.051809E+05  1.149808E+04  1.030446E+04  5.543781E+04 -8.238819E-10 -2.107671E-09
       242  13  1.839437E+05  8.965811E+02  1.784247E+03  5.943430E+04 -1.091828E-09  3.176661E-09
       242  14  1.834966E+05  2.208402E+03  3.285093E+03  5.478029E+04 -1.260726E-09 -9.463276E-09
       242  15  1.839456E+05  6.550206E+03  6.623074E+03  5.941431E+04 -1.718797E-09  4.606309E-09
       242  16  6.447105E+04 -2.649419E+04 -1.570420E+04  5.905282E+04  4.700855E-09 -9.846433E-11
       242  17  1.131629E+05 -1.393934E+04 -7.213222E+03  5.657759E+04  2.751941E-09  2.535351E-09
       242  18  1.627108E+05  1.602370E+03  2.941685E+03  6.339066E+04  4.763339E-10 -5.295455E-10
       242  19  3.034309E+05  2.828681E+04  1.927278E+04  5.981591E+04  9.264563E+03  9.351264E+03
       242  20  2.538353E+05  1.835599E+04  1.378361E+04  5.298283E+04  1.121161E+04  5.370083E+03
       242  21  2.051811E+05  1.149813E+04  1.030479E+04  5.543783E+04  1.315915E+04  1.266576E+03
       242  22  1.839438E+05  8.966748E+02  1.784413E+03  5.943431E+04  1.250684E+03  9.322695E+03
       242  23  1.834966E+05  2.208435E+03  3.285163E+03  5.478031E+04  2.948257E+03  5.340480E+03
       242  24  1.839456E+05  6.550214E+03  6.623118E+03  5.941431E+04  4.646444E+03  1.235949E+03
       242  25  6.447112E+04 -2.649409E+04 -1.570396E+04  5.905277E+04 -6.761717E+03  9.294133E+03
       242  26  1.131630E+05 -1.393930E+04 -7.213116E+03  5.657757E+04 -5.314201E+03  5.310828E+03
       242  27  1.627108E+05  1.602376E+03  2.941716E+03  6.339065E+04 -3.865981E+03  1.205212E+03
       243   1 -2.770035E+04  5.091108E+05 -2.116303E+04 -1.270217E+05 -4.644731E+03 -1.809964E+04
       243   2 -6.197553E+04  4.145355E+05 -3.600200E+04 -1.109657E+05 -1.823139E+04 -1.690541E+04
       243   3 -8.728695E+04  3.219763E+05 -4.940770E+04 -1.128544E+05 -2.793365E+04 -1.570315E+04
       243   4  2.120521E+04  7.101238E+05  2.282429E+04 -1.133677E+05 -4.709939E+03  1.359416E+04
       243   5  6.565622E+03  7.084257E+05  1.315860E+04 -1.044139E+05 -1.827824E+04  6.857212E+03
       243   6  2.263919E+03  7.101111E+05  1.042884E+04 -1.134028E+05 -2.796299E+04  1.284527E+02
       243   7  7.010933E+04  9.111771E+05  6.681304E+04 -9.970914E+04 -4.773743E+03  4.529809E+04
       243   8  7.510274E+04  1.002402E+06  6.231867E+04 -9.785874E+04 -1.832456E+04  3.063070E+04
       243   9  9.180761E+04  1.098397E+06  7.026293E+04 -1.139515E+05 -2.799235E+04  1.596957E+04
       243  10 -2.770046E+04  5.091104E+05 -2.116369E+04 -1.270217E+05  2.404328E-09  3.587112E-09
       243  11 -6.197596E+04  4.145351E+05 -3.600316E+04 -1.109660E+05 -3.883442E-10 -5.977162E-09
       243  12 -8.728785E+04  3.219758E+05 -4.940963E+04 -1.128548E+05  1.060224E-09 -4.324743E-09
       243  13  2.120514E+04  7.101236E+05  2.282390E+04 -1.133676E+05  2.434404E-09 -2.119298E-09
       243  14  6.565251E+03  7.084255E+05  1.315788E+04 -1.044138E+05  2.335023E-09 -1.991244E-09
       243  15  2.263079E+03  7.101109E+05  1.042737E+04 -1.134028E+05  1.305835E-09 -7.500906E-11
       243  16  7.010876E+04  9.111749E+05  6.680915E+04 -9.970896E+04  2.690562E-10 -4.581700E-09
       243  17  7.510213E+04  1.002401E+06  6.231628E+04 -9.785829E+04  2.981223E-09  8.548483E-10
       243  18  9.180670E+04  1.098396E+06  7.026098E+04 -1.139512E+05  5.110062E-10  4.885735E-09
       243  19 -2.770035E+04  5.091108E+05 -2.116303E+04 -1.270217E+05  4.644731E+03  1.809964E+04
       243  20 -6.197553E+04  4.145355E+05 -3.600200E+04 -1.109657E+05  1.823139E+04  1.690541E+04
       243  21 -8.728695E+04  3.219763E+05 -4.940770E+04 -1.128544E+05  2.793365E+04  1.570315E+04
       243  22  2.120521E+04  7.101238E+05  2.282429E+04 -1.133677E+05  4.709939E+03 -1.359416E+04
       243  23  6.565622E+03  7.084257E+05  1.315860E+04 -1.044139E+05  1.827824E+04 -6.857212E+03
       243  24  2.263919E+03  7.101111E+05  1.042884E+04 -1.134028E+05  2.796299E+04 -1.284527E+02
       243  25  7.010933E+04  9.111771E+05  6.681304E+04 -9.970914E+04  4.773743E+03 -4.529809E+04
       243  26  7.510274E+04  1.002402E+06  6.231867E+04 -9.785874E+04  1.832456E+04 -3.063070E+04
       243  27  9.180761E+04  1.098397E+06  7.026293E+04 -1.139515E+05  2.799235E+04 -1.596957E+04
       244   1 -1.010680E+05  2.627412E+05 -5.806009E+04 -1.139373E+05 -3.240657E+04 -1.747995E+04
       244   2 -1.225082E+05  1.685592E+05 -6.987130E+04 -1.028289E+05 -3.889631E+04 -1.883010E+04
       244   3 -1.407329E+05  7.531532E+04 -8.001551E+04 -1.092805E+05 -4.275482E+04 -2.017400E+04
       244   4  2.005553E+03  7.097629E+05  1.054796E+04 -1.133152E+05 -3.243498E+04 -1.549974E+03
       244   5  2.155269E+03  7.088145E+05  1.342149E+04 -1.045315E+05 -3.891238E+04 -8.274197E+03
       244   6  6.451412E+03  7.097261E+05  2.168920E+04 -1.133065E+05 -4.275973E+04 -1.499238E+04
       244   7  1.050696E+05  1.156985E+06  7.915257E+04 -1.126925E+05 -3.246335E+04  1.439103E+04
       244   8  1.268047E+05  1.249362E+06  9.670814E+04 -1.062355E+05 -3.892851E+04  2.290542E+03
       244   9  1.536156E+05  1.344537E+06  1.233833E+05 -1.173366E+05 -4.276471E+04 -9.805641E+03
       244  10 -1.010692E+05  2.627406E+05 -5.806264E+04 -1.139377E+05  7.131683E-10  1.307842E-09
       244  11 -1.225100E+05  1.685584E+05 -6.987481E+04 -1.028295E+05  1.670398E-11 -6.046047E-09
       244  12 -1.407350E+05  7.531440E+04 -8.001971E+04 -1.092812E+05 -3.282245E-10 -2.929292E-09
       244  13  2.004422E+03  7.097626E+05  1.054598E+04 -1.133152E+05  1.587012E-09 -1.618341E-09
       244  14  2.153624E+03  7.088140E+05  1.341851E+04 -1.045318E+05 -2.613986E-09 -1.619613E-09
       244  15  6.449387E+03  7.097253E+05  2.168534E+04 -1.133070E+05 -1.317865E-09 -4.481951E-10
       244  16  1.050684E+05  1.156984E+06  7.915020E+04 -1.126921E+05 -3.724733E-10 -2.205762E-09
       244  17  1.268031E+05  1.249361E+06  9.670528E+04 -1.062354E+05 -2.355924E-09  1.655142E-09
       244  18  1.536136E+05  1.344536E+06  1.233797E+05 -1.173369E+05 -1.865004E-09  3.293904E-09
       244  19 -1.010680E+05  2.627412E+05 -5.806009E+04 -1.139373E+05  3.240657E+04  1.747995E+04
       244  20 -1.225082E+05  1.685592E+05 -6.987130E+04 -1.028289E+05  3.889631E+04  1.883010E+04
       244  21 -1.407329E+05  7.531532E+04 -8.001551E+04 -1.092805E+05  4.275482E+04  2.017400E+04
       244  22  2.005553E+03  7.097629E+05  1.054796E+04 -1.133152E+05  3.243498E+04  1.549974E+03
       244  23  2.155269E+03  7.088145E+05  1.342149E+04 -1.045315E+05  3.891238E+04  8.274197E+03
       244  24  6.451412E+03  7.097261E+05  2.168920E+04 -1.133065E+05  4.275973E+04  1.499238E+04
       244  25  1.050696E+05  1.156985E+06  7.915257E+04 -1.126925E+05  3.246335E+04 -1.439103E+04
       244  26  1.268047E+05  1.249362E+06  9.670814E+04 -1.062355E+05  3.892851E+04 -2.290542E+03
       244  27  1.536156E+05  1.344537E+06  1.233833E+05 -1.173366E+05  4.276471E+04  9.805641E+03
       245   1 -1.539596E+05  1.793401E+04 -8.568152E+04 -1.129296E+05 -4.499141E+04 -2.421031E+04
       245   2 -1.582787E+05 -7.985483E+04 -9.540069E+04 -7.363659E+04 -3.796235E+04 -1.015485E+04
       245   3 -1.242741E+05 -1.698866E+05 -1.046816E+05 -5.050118E+04 -1.140663E+04  3.922030E+03
       245   4  7.663760E+03  7.125538E+05  2.809269E+04 -1.130049E+05 -4.499614E+04 -1.870250E+04
       245   5  2.794740E+04  7.051929E+05  5.037853E+04 -1.048592E+05 -3.790370E+04 -4.449061E+04
       245   6  9.343763E+04  7.124760E+05  1.007484E+05 -1.128672E+05 -1.129736E+04 -7.025582E+04
       245   7  1.692625E+05  1.407651E+06  1.418532E+05 -1.130800E+05 -4.500087E+04 -1.318874E+04
       245   8  2.141424E+05  1.490842E+06  1.961366E+05 -1.361220E+05 -3.784164E+04 -7.886866E+04
       245   9  3.111117E+05  1.595577E+06  3.061485E+05 -1.753222E+05 -1.117328E+04 -1.445383E+05
       245  10 -1.539620E+05  1.793284E+04 -8.568643E+04 -1.129305E+05  2.009987E-10  3.345918E-09
       245  11 -1.582803E+05 -7.985533E+04 -9.540359E+04 -7.363691E+04  2.437281E-10 -3.891010E-09
       245  12 -1.242742E+05 -1.698866E+05 -1.046818E+05 -5.050114E+04  1.327061E-09 -2.437082E-09
       245  13  7.661491E+03  7.125528E+05  2.808823E+04 -1.130056E+05 -7.590714E-10 -1.677440E-09
       245  14  2.794532E+04  7.051904E+05  5.037211E+04 -1.048605E+05  1.042062E-09 -1.772832E-09
       245  15  9.343617E+04  7.124707E+05  1.007389E+05 -1.128679E+05 -1.357021E-10 -3.120079E-10
       245  16  1.692602E+05  1.407650E+06  1.418490E+05 -1.130805E+05 -1.005337E-09 -4.034811E-09
       245  17  2.141392E+05  1.490835E+06  1.961223E+05 -1.361244E+05 -2.379967E-09  5.850812E-10
       245  18  3.111060E+05  1.595554E+06  3.061091E+05 -1.753236E+05  3.676880E-10  3.039031E-09
       245  19 -1.539596E+05  1.793401E+04 -8.568152E+04 -1.129296E+05  4.499141E+04  2.421031E+04
       245  20 -1.582787E+05 -7.985483E+04 -9.540069E+04 -7.363659E+04  3.796235E+04  1.015485E+04
       245  21 -1.242741E+05 -1.698866E+05 -1.046816E+05 -5.050118E+04  1.140663E+04 -3.922030E+03
       245  22  7.663760E+03  7.125538E+05  2.809269E+04 -1.130049E+05  4.499614E+04  1.870250E+04
       245  23  2.794740E+04  7.051929E+05  5.037853E+04 -1.048592E+05  3.790370E+04  4.449061E+04
       245  24  9.343763E+04  7.124760E+05  1.007484E+05 -1.128672E+05  1.129736E+04  7.025582E+04
       245  25  1.692625E+05  1.407651E+06  1.418532E+05 -1.130800E+05  4.500087E+04  1.318874E+04
       245  26  2.141424E+05  1.490842E+06  1.961366E+05 -1.361220E+05  3.784164E+04  7.886866E+04
       245  27  3.111117E+05  1.595577E+06  3.061485E+05 -1.753222E+05  1.117328E+04  1.445383E+05
       246   1  1.242680E+06  4.064501E+05  1.967262E+05  4.448459E+05  5.919763E+04  6.028521E+03
       246   2  1.167759E+06  4.061639E+05  1.549893E+05  4.240828E+05  3.934582E+04 -4.007838E+04
       246   3  1.082647E+06  4.014450E+05  1.335546E+05  4.191903E+05  1.059516E+04 -6.256701E+04
       246   4  2.492565E+05  6.140800E+04 -5.129751E+04  2.001892E+05 -2.804054E+04 -2.689154E+04
       246   5  2.616310E+05  8.757257E+04 -2.423368E+04  1.849103E+05 -2.702576E+03 -5.596022E+04
       246   6  2.548554E+05  1.003461E+05 -1.264893E+04  1.855051E+05  1.372431E+04 -6.139427E+04
       246   7 -7.431496E+05 -2.835832E+05 -2.993539E+05 -4.411474E+04 -1.151223E+05 -5.976239E+04
       246   8 -6.436287E+05 -2.309541E+05 -2.034822E+05 -5.394069E+04 -4.468414E+04 -7.181910E+04
       246   9 -5.722106E+05 -2.006833E+05 -1.588737E+05 -4.788862E+04  1.684901E+04 -6.022324E+04
       246  10  1.242676E+06  4.064491E+05  1.967196E+05  4.448456E+05 -5.429720E-08 -2.152644E-08
       246  11  1.167757E+06  4.061618E+05  1.549834E+05  4.240841E+05 -7.617540E-09 -7.896794E-09
       246  12  1.082646E+06  4.014407E+05  1.335470E+05  4.191908E+05  4.799997E-08  2.022851E-08
       246  13  2.492555E+05  6.140701E+04 -5.130035E+04  2.001886E+05 -2.778455E-09  2.786733E-09
       246  14  2.616301E+05  8.756921E+04 -2.423958E+04  1.849102E+05 -1.084188E-08 -4.908590E-09
       246  15  2.548542E+05  1.003420E+05 -1.265637E+04  1.855058E+05 -3.449818E-09 -8.417114E-11
       246  16 -7.431648E+05 -2.835906E+05 -2.993855E+05 -4.412028E+04  4.712326E-08  1.879406E-08
       246  17 -6.436322E+05 -2.309602E+05 -2.034956E+05 -5.394328E+04 -1.229905E-08 -5.869367E-09
       246  18 -5.722118E+05 -2.006873E+05 -1.588810E+05 -4.788780E+04 -5.451721E-08 -2.231646E-08
       246  19  1.242680E+06  4.064501E+05  1.967262E+05  4.448459E+05 -5.919763E+04 -6.028521E+03
       246  20  1.167759E+06  4.061639E+05  1.549893E+05  4.240828E+05 -3.934582E+04  4.007838E+04
       246  21  1.082647E+06  4.014450E+05  1.335546E+05  4.191903E+05 -1.059516E+04  6.256701E+04
       246  22  2.492565E+05  6.140800E+04 -5.129751E+04  2.001892E+05  2.804054E+04  2.689154E+04
       246  23  2.616310E+05  8.757257E+04 -2.423368E+04  1.849103E+05  2.702576E+03  5.596022E+04
       246  24  2.548554E+05  1.003461E+05 -1.264893E+04  1.855051E+05 -1.372431E+04  6.139427E+04
       246  25 -7.431496E+05 -2.835832E+05 -2.993539E+05 -4.411474E+04  1.151223E+05  5.976239E+04
       246  26 -6.436287E+05 -2.309541E+05 -2.034822E+05 -5.394069E+04  4.468414E+04  7.181910E+04
       246  27 -5.722106E+05 -2.006833E+05 -1.588737E+05 -4.788862E+04 -1.684901E+04  6.022324E+04
       247   1  1.038791E+06  3.831169E+05  1.261159E+05  4.051504E+05  1.321257E+04 -5.977671E+04
       247   2  9.724871E+05  3.537897E+05  1.135659E+05  3.795845E+05  1.049801E+04 -5.866255E+04
       247   3  8.959219E+05  3.342195E+05  1.023486E+05  3.660300E+05  6.891665E+03 -5.519331E+04
       247   4  2.560353E+05  1.009845E+05 -9.451270E+03  1.862797E+05  1.455157E+04 -5.927940E+04
       247   5  2.617999E+05  9.773755E+04 -4.947050E+03  1.798332E+05  1.634054E+04 -5.646201E+04
       247   6  2.564061E+05  1.033557E+05 -2.678187E+03  1.853973E+05  1.723700E+04 -5.128803E+04
       247   7 -5.260807E+05 -1.810918E+05 -1.450391E+05 -3.233649E+04  1.588880E+04 -5.878275E+04
       247   8 -4.483535E+05 -1.582650E+05 -1.234736E+05 -1.970545E+04  2.217602E+04 -5.426413E+04
       247   9 -3.826727E+05 -1.274655E+05 -1.077139E+05  4.939112E+03  2.757106E+04 -4.738704E+04
       247  10  1.038789E+06  3.831130E+05  1.261089E+05  4.051511E+05 -2.400709E-09  1.712705E-09
       247  11  9.724861E+05  3.537859E+05  1.135593E+05  3.795850E+05 -1.425095E-10  5.751835E-09
       247  12  8.959210E+05  3.342162E+05  1.023428E+05  3.660303E+05  3.517162E-09  1.528344E-09
       247  13  2.560341E+05  1.009806E+05 -9.458272E+03  1.862804E+05  1.674645E-09  4.033982E-09
       247  14  2.617987E+05  9.773405E+04 -4.953544E+03  1.798340E+05 -1.214896E-09 -1.109948E-08
       247  15  2.564050E+05  1.033528E+05 -2.683690E+03  1.853981E+05 -8.201498E-10  1.764360E-09
       247  16 -5.260818E+05 -1.810956E+05 -1.450460E+05 -3.233574E+04  2.919274E-09  3.163929E-09
       247  17 -4.483548E+05 -1.582683E+05 -1.234800E+05 -1.970448E+04 -2.530803E-09  3.416408E-09
       247  18 -3.826741E+05 -1.274682E+05 -1.077196E+05  4.940165E+03 -4.882541E-09 -1.091391E-09
       247  19  1.038791E+06  3.831169E+05  1.261159E+05  4.051504E+05 -1.321257E+04  5.977671E+04
       247  20  9.724871E+05  3.537897E+05  1.135659E+05  3.795845E+05 -1.049801E+04  5.866255E+04
       247  21  8.959219E+05  3.342195E+05  1.023486E+05  3.660300E+05 -6.891665E+03  5.519331E+04
       247  22  2.560353E+05  1.009845E+05 -9.451270E+03  1.862797E+05 -1.455157E+04  5.927940E+04
       247  23  2.617999E+05  9.773755E+04 -4.947050E+03  1.798332E+05 -1.634054E+04  5.646201E+04
       247  24  2.564061E+05  1.033557E+05 -2.678187E+03  1.853973E+05 -1.723700E+04  5.128803E+04
       247  25 -5.260807E+05 -1.810918E+05 -1.450391E+05 -3.233649E+04 -1.588880E+04  5.878275E+04
       247  26 -4.483535E+05 -1.582650E+05 -1.234736E+05 -1.970545E+04 -2.217602E+04  5.426413E+04
       247  27 -3.826727E+05 -1.274655E+05 -1.077139E+05  4.939112E+03 -2.757106E+04  4.738704E+04
       248   1  8.508796E+05  3.177474E+05  9.507647E+04  3.532438E+05  6.227274E+03 -5.177700E+04
       248   2  7.852599E+05  2.870626E+05  8.412248E+04  3.273426E+05  4.269626E+03 -4.631255E+04
       248   3  7.092088E+05  2.668249E+05  7.310598E+04  3.132869E+05  2.221744E+03 -4.061562E+04
       248   4  2.565156E+05  1.034041E+05 -2.002958E+03  1.854717E+05  1.638954E+04 -4.793939E+04
       248   5  2.618042E+05  9.829961E+04 -1.078242E+03  1.795277E+05  1.487617E+04 -4.230465E+04
       248   6  2.565663E+05  1.035541E+05 -5.694332E+02  1.854278E+05  1.327252E+04 -3.643728E+04
       248   7 -3.374636E+05 -1.108998E+05 -9.908793E+04  1.785216E+04  2.654138E+04 -4.410573E+04
       248   8 -2.613579E+05 -9.043467E+04 -8.628443E+04  3.182965E+04  2.547323E+04 -3.830034E+04
       248   9 -1.958616E+05 -5.969702E+04 -7.425016E+04  5.765492E+04  2.431488E+04 -3.226212E+04
       248  10  8.508789E+05  3.177445E+05  9.507136E+04  3.532440E+05 -2.810498E-08 -6.675464E-09
       248  11  7.852593E+05  2.870603E+05  8.411841E+04  3.273428E+05 -1.838139E-09  8.578057E-09
       248  12  7.092083E+05  2.668231E+05  7.310287E+04  3.132869E+05  2.867919E-08  2.689956E-08
       248  13  2.565147E+05  1.034016E+05 -2.007783E+03  1.854724E+05  4.045287E-10 -2.121272E-10
       248  14  2.618035E+05  9.829763E+04 -1.082022E+03  1.795282E+05  4.565705E-09 -9.597457E-09
       248  15  2.565658E+05  1.035527E+05 -5.722597E+02  1.854282E+05  6.137773E-09  4.560012E-09
       248  16 -3.374649E+05 -1.109021E+05 -9.909291E+04  1.785311E+04  2.397281E-08  7.597898E-09
       248  17 -2.613590E+05 -9.043642E+04 -8.628841E+04  3.183043E+04 -4.732634E-09  7.821596E-09
       248  18 -1.958625E+05 -5.969829E+04 -7.425323E+04  5.765555E+04 -3.130662E-08 -2.623521E-09
       248  19  8.508796E+05  3.177474E+05  9.507647E+04  3.532438E+05 -6.227274E+03  5.177700E+04
       248  20  7.852599E+05  2.870626E+05  8.412248E+04  3.273426E+05 -4.269626E+03  4.631255E+04
       248  21  7.092088E+05  2.668249E+05  7.310598E+04  3.132869E+05 -2.221744E+03  4.061562E+04
       248  22  2.565156E+05  1.034041E+05 -2.002958E+03  1.854717E+05 -1.638954E+04  4.793939E+04
       248  23  2.618042E+05  9.829961E+04 -1.078242E+03  1.795277E+05 -1.487617E+04  4.230465E+04
       248  24  2.565663E+05  1.035541E+05 -5.694332E+02  1.854278E+05 -1.327252E+04  3.643728E+04
       248  25 -3.374636E+05 -1.108998E+05 -9.908793E+04  1.785216E+04 -2.654138E+04  4.410573E+04
       248  26 -2.613579E+05 -9.043467E+04 -8.628443E+04  3.182965E+04 -2.547323E+04  3.830034E+04
       248  27 -1.958616E+05 -5.969702E+04 -7.425016E+04  5.765492E+04 -2.431488E+04  3.226212E+04
       249   1  6.641603E+05  2.505236E+05  6.559245E+04  3.005856E+05  1.049243E+03 -3.720819E+04
       249   2  5.986466E+05  2.198329E+05  5.447296E+04  2.746796E+05 -1.088260E+03 -3.141118E+04
       249   3  5.226882E+05  1.996015E+05  4.332181E+04  2.606129E+05 -3.234998E+03 -2.559366E+04
       249   4  2.565859E+05  1.035631E+05 -4.101893E+02  1.854333E+05  1.207881E+04 -3.303670E+04
       249   5  2.618252E+05  9.835152E+04 -1.756267E+02  1.795130E+05  9.980158E+03 -2.722345E+04
       249   6  2.566062E+05  1.035909E+05 -4.466111E+00  1.854300E+05  7.872283E+03 -2.138970E+04
       249   7 -1.508101E+05 -4.337984E+04 -6.641576E+04  7.035208E+04  2.310070E+04 -2.886812E+04
       249   8 -7.487230E+04 -2.311708E+04 -5.482555E+04  8.439547E+04  2.104215E+04 -2.303815E+04
       249   9 -9.396605E+03  7.588994E+03 -4.333090E+04  1.102783E+05  1.897439E+04 -1.718770E+04
       249  10  6.641600E+05  2.505221E+05  6.558985E+04  3.005857E+05 -3.143743E-08 -1.291330E-09
       249  11  5.986463E+05  2.198318E+05  5.447111E+04  2.746795E+05 -4.127407E-09  3.301458E-09
       249  12  5.226880E+05  1.996008E+05  4.332056E+04  2.606128E+05  2.515683E-08  6.525398E-09
       249  13  2.565855E+05  1.035619E+05 -4.125149E+02  1.854337E+05  9.729584E-09 -4.026041E-09
       249  14  2.618249E+05  9.835070E+04 -1.772068E+02  1.795132E+05  5.641273E-09 -4.624581E-09
       249  15  2.566060E+05  1.035904E+05 -5.442499E+00  1.854301E+05 -1.246178E-09  2.766121E-09
       249  16 -1.508109E+05 -4.338087E+04 -6.641833E+04  7.035261E+04  2.886236E-08  2.946042E-08
       249  17 -7.487292E+04 -2.311777E+04 -5.482738E+04  8.439586E+04 -3.363471E-09  4.009359E-09
       249  18 -9.397071E+03  7.588580E+03 -4.333213E+04  1.102786E+05 -2.826988E-08 -7.816831E-09
       249  19  6.641603E+05  2.505236E+05  6.559245E+04  3.005856E+05 -1.049243E+03  3.720819E+04
       249  20  5.986466E+05  2.198329E+05  5.447296E+04  2.746796E+05  1.088260E+03  3.141118E+04
       249  21  5.226882E+05  1.996015E+05  4.332181E+04  2.606129E+05  3.234998E+03  2.559366E+04
       249  22  2.565859E+05  1.035631E+05 -4.101893E+02  1.854333E+05 -1.207881E+04  3.303670E+04
       249  23  2.618252E+05  9.835152E+04 -1.756267E+02  1.795130E+05 -9.980158E+03  2.722345E+04
       249  24  2.566062E+05  1.035909E+05 -4.466111E+00  1.854300E+05 -7.872283E+03  2.138970E+04
       249  25 -1.508101E+05 -4.337984E+04 -6.641576E+04  7.035208E+04 -2.310070E+04  2.886812E+04
       249  26 -7.487230E+04 -2.311708E+04 -5.482555E+04  8.439547E+04 -2.104215E+04  2.303815E+04
       249  27 -9.396605E+03  7.588994E+03 -4.333090E+04  1.102783E+05 -1.897439E+04  1.718770E+04
       250   1  4.776729E+05  1.833157E+05  3.575505E+04  2.479230E+05 -4.518076E+03 -2.221238E+04
       250   2  4.121932E+05  1.526314E+05  2.463461E+04  2.220358E+05 -6.824284E+03 -1.644973E+04
       250   3  3.362814E+05  1.324052E+05  1.359653E+04  2.079875E+05 -9.127178E+03 -1.069754E+04
       250   4  2.566182E+05  1.035953E+05  7.348729E+01  1.854319E+05  6.585999E+03 -1.800898E+04
       250   5  2.618377E+05  9.836550E+04  2.605463E+02  1.795141E+05  4.259410E+03 -1.225332E+04
       250   6  2.566252E+05  1.035979E+05  5.460547E+02  1.854338E+05  1.936130E+03 -6.508146E+03
       250   7  3.561369E+04  2.387927E+04 -3.560926E+04  1.229611E+05  1.768601E+04 -1.380711E+04
       250   8  1.115059E+05  4.410177E+04 -2.411372E+04  1.370020E+05  1.534032E+04 -8.057959E+03
       250   9  1.769760E+05  7.479143E+04 -1.250404E+04  1.628829E+05  1.299794E+04 -2.319326E+03
       250  10  4.776727E+05  1.833151E+05  3.575409E+04  2.479229E+05 -9.888584E-10  6.767062E-09
       250  11  4.121930E+05  1.526311E+05  2.463402E+04  2.220357E+05 -8.783662E-10  6.737276E-09
       250  12  3.362813E+05  1.324050E+05  1.359616E+04  2.079874E+05  4.186334E-09 -1.721622E-09
       250  13  2.566181E+05  1.035950E+05  7.279620E+01  1.854320E+05  9.895379E-11  1.526064E-09
       250  14  2.618377E+05  9.836533E+04  2.602300E+02  1.795142E+05 -3.410963E-09  9.592842E-09
       250  15  2.566252E+05  1.035979E+05  5.459680E+02  1.854338E+05  2.192853E-09  2.665935E-09
       250  16  3.561330E+04  2.387898E+04 -3.561021E+04  1.229613E+05  2.690958E-09  6.241593E-09
       250  17  1.115056E+05  4.410164E+04 -2.411429E+04  1.370021E+05 -9.815302E-10  2.136673E-09
       250  18  1.769758E+05  7.479138E+04 -1.250437E+04  1.628829E+05 -3.925899E-09 -3.436779E-09
       250  19  4.776729E+05  1.833157E+05  3.575505E+04  2.479230E+05  4.518076E+03  2.221238E+04
       250  20  4.121932E+05  1.526314E+05  2.463461E+04  2.220358E+05  6.824284E+03  1.644973E+04
       250  21  3.362814E+05  1.324052E+05  1.359653E+04  2.079875E+05  9.127178E+03  1.069754E+04
       250  22  2.566182E+05  1.035953E+05  7.348729E+01  1.854319E+05 -6.585999E+03  1.800898E+04
       250  23  2.618377E+05  9.836550E+04  2.605463E+02  1.795141E+05 -4.259410E+03  1.225332E+04
       250  24  2.566252E+05  1.035979E+05  5.460547E+02  1.854338E+05 -1.936130E+03  6.508146E+03
       250  25  3.561369E+04  2.387927E+04 -3.560926E+04  1.229611E+05 -1.768601E+04  1.380711E+04
       250  26  1.115059E+05  4.410177E+04 -2.411372E+04  1.370020E+05 -1.534032E+04  8.057959E+03
       250  27  1.769760E+05  7.479143E+04 -1.250404E+04  1.628829E+05 -1.299794E+04  2.319326E+03
       251   1  2.912876E+05  1.161275E+05  6.144908E+03  1.953267E+05 -1.051953E+04 -7.365931E+03
       251   2  2.257929E+05  8.542505E+04 -4.618388E+03  1.694351E+05 -1.315304E+04 -1.806836E+03
       251   3  1.499462E+05  6.525039E+04 -1.501745E+04  1.553721E+05 -1.574118E+04  3.633202E+03
       251   4  2.566489E+05  1.035939E+05  7.465087E+02  1.854426E+05  5.517986E+02 -3.173356E+03
       251   5  2.618115E+05  9.835980E+04  1.384493E+03  1.795093E+05 -2.310021E+03  2.299105E+03
       251   6  2.566616E+05  1.036978E+05  2.567086E+03  1.854023E+05 -5.126543E+03  7.652517E+03
       251   7  2.220121E+05  9.106070E+04 -4.651277E+03  1.755593E+05  1.162236E+04  1.018922E+03
       251   8  2.978319E+05  1.112948E+05  7.387848E+03  1.895842E+05  8.533668E+03  6.405294E+03
       251   9  3.633906E+05  1.421469E+05  2.015217E+04  2.154377E+05  5.490144E+03  1.167260E+04
       251  10  2.912875E+05  1.161274E+05  6.144599E+03  1.953266E+05 -5.079432E-08 -2.773768E-08
       251  11  2.257927E+05  8.542500E+04 -4.618719E+03  1.694350E+05  8.535285E-09 -8.907143E-09
       251  12  1.499459E+05  6.525031E+04 -1.501794E+04  1.553722E+05  6.138267E-08  1.562093E-08
       251  13  2.566489E+05  1.035939E+05  7.464892E+02  1.854426E+05  2.385406E-09 -3.926322E-09
       251  14  2.618115E+05  9.835979E+04  1.384473E+03  1.795093E+05  9.223122E-09 -1.004216E-08
       251  15  2.566616E+05  1.036977E+05  2.566926E+03  1.854023E+05  4.184322E-09 -1.737784E-09
       251  16  2.220119E+05  9.106066E+04 -4.651533E+03  1.755593E+05  5.604019E-08  1.725290E-08
       251  17  2.978318E+05  1.112947E+05  7.387634E+03  1.895841E+05  1.992438E-09 -8.895811E-09
       251  18  3.633906E+05  1.421467E+05  2.015186E+04  2.154377E+05 -5.611322E-08 -1.902615E-08
       251  19  2.912876E+05  1.161275E+05  6.144908E+03  1.953267E+05  1.051953E+04  7.365931E+03
       251  20  2.257929E+05  8.542505E+04 -4.618388E+03  1.694351E+05  1.315304E+04  1.806836E+03
       251  21  1.499462E+05  6.525039E+04 -1.501745E+04  1.553721E+05  1.574118E+04 -3.633202E+03
       251  22  2.566489E+05  1.035939E+05  7.465087E+02  1.854426E+05 -5.517986E+02  3.173356E+03
       251  23  2.618115E+05  9.835980E+04  1.384493E+03  1.795093E+05  2.310021E+03 -2.299105E+03
       251  24  2.566616E+05  1.036978E+05  2.567086E+03  1.854023E+05  5.126543E+03 -7.652517E+03
       251  25  2.220121E+05  9.106070E+04 -4.651277E+03  1.755593E+05 -1.162236E+04 -1.018922E+03
       251  26  2.978319E+05  1.112948E+05  7.387848E+03  1.895842E+05 -8.533668E+03 -6.405294E+03
       251  27  3.633906E+05  1.421469E+05  2.015217E+04  2.154377E+05 -5.490144E+03 -1.167260E+04
       252   1  1.048857E+05  4.908112E+04 -2.193981E+04  1.429263E+05 -1.754619E+04  6.714630E+03
       252   2  3.987703E+04  1.812662E+04 -3.144125E+04  1.160709E+05 -2.034295E+04  1.137979E+04
       252   3 -3.484016E+04 -9.777628E+02 -3.987164E+04  1.006275E+05 -2.268662E+04  1.485032E+04
       252   4  2.568369E+05  1.036913E+05  3.432998E+03  1.854566E+05 -6.841169E+03  1.076785E+04
       252   5  2.616706E+05  9.899412E+04  6.324310E+03  1.791991E+05 -1.192199E+04  1.456728E+04
       252   6  2.572427E+05  1.065982E+05  1.209655E+04  1.843512E+05 -1.654988E+04  1.717228E+04
       252   7  4.088129E+05  1.583039E+05  2.880570E+04  2.279966E+05  3.866634E+03  1.482211E+04
       252   8  4.835154E+05  1.798664E+05  4.408847E+04  2.423482E+05 -3.497870E+03  1.775598E+04
       252   9  5.494124E+05  2.141820E+05  6.406120E+04  2.681109E+05 -1.041014E+04  1.949542E+04
       252  10  1.048853E+05  4.908099E+04 -2.194047E+04  1.429264E+05  3.113399E-09 -7.255140E-09
       252  11  3.987655E+04  1.812637E+04 -3.144227E+04  1.160711E+05  4.584071E-09  6.358356E-09
       252  12 -3.484077E+04 -9.781379E+02 -3.987302E+04  1.006278E+05  8.778811E-09 -6.786317E-11
       252  13  2.568368E+05  1.036912E+05  3.432692E+03  1.854566E+05  5.166396E-10  4.392814E-09
       252  14  2.616704E+05  9.899385E+04  6.323644E+03  1.791993E+05  1.891834E-09 -1.685240E-09
       252  15  2.572423E+05  1.065978E+05  1.209549E+04  1.843514E+05 -6.335420E-10  7.460276E-09
       252  16  4.088129E+05  1.583037E+05  2.880526E+04  2.279966E+05 -2.363685E-09  6.989130E-09
       252  17  4.835153E+05  1.798660E+05  4.408786E+04  2.423483E+05 -3.382577E-09  1.985245E-09
       252  18  5.494122E+05  2.141816E+05  6.406028E+04  2.681110E+05 -6.536426E-09 -5.065454E-09
       252  19  1.048857E+05  4.908112E+04 -2.193981E+04  1.429263E+05  1.754619E+04 -6.714630E+03
       252  20  3.987703E+04  1.812662E+04 -3.144125E+04  1.160709E+05  2.034295E+04 -1.137979E+04
       252  21 -3.484016E+04 -9.777628E+02 -3.987164E+04  1.006275E+05  2.268662E+04 -1.485032E+04
       252  22  2.568369E+05  1.036913E+05  3.432998E+03  1.854566E+05  6.841169E+03 -1.076785E+04
       252  23  2.616706E+05  9.899412E+04  6.324310E+03  1.791991E+05  1.192199E+04 -1.456728E+04
       252  24  2.572427E+05  1.065982E+05  1.209655E+04  1.843512E+05  1.654988E+04 -1.717228E+04
       252  25  4.088129E+05  1.583039E+05  2.880570E+04  2.279966E+05 -3.866634E+03 -1.482211E+04
       252  26  4.835154E+05  1.798664E+05  4.408847E+04  2.423482E+05  3.497870E+03 -1.775598E+04
       252  27  5.494124E+05  2.141820E+05  6.406120E+04  2.681109E+05  1.041014E+04 -1.949542E+04
       253   1 -8.079079E+04 -1.528820E+04 -4.492332E+04  9.075479E+04 -2.634305E+04  1.628361E+04
       253   2 -1.344122E+05 -4.995997E+04 -5.241088E+04  4.538504E+04 -1.866457E+04  1.656431E+04
       253   3 -1.893548E+05 -5.041611E+04 -5.818081E+04  4.037226E+03 -6.459319E+03  4.873005E+03
       253   4  2.592078E+05  1.069041E+05  1.619203E+04  1.848125E+05 -1.930521E+04  1.894622E+04
       253   5  2.611631E+05  1.124505E+05  3.099824E+04  1.733680E+05 -3.449453E+04  1.057178E+04
       253   6  2.663194E+05  1.567326E+05  6.564878E+04  1.659455E+05 -4.515898E+04 -9.770133E+03
       253   7  5.993337E+05  2.291091E+05  7.730518E+04  2.789194E+05 -1.226314E+04  2.161038E+04
       253   8  6.569002E+05  2.748857E+05  1.143998E+05  3.014302E+05 -5.033528E+04  4.574074E+03
       253   9  7.221937E+05  3.639208E+05  1.894635E+05  3.279684E+05 -8.388885E+04 -2.443027E+04
       253  10 -8.079161E+04 -1.528867E+04 -4.492512E+04  9.075513E+04  5.521799E-09  3.178886E-09
       253  11 -1.344126E+05 -4.996035E+04 -5.241205E+04  4.538529E+04  1.476122E-09  7.423274E-09
       253  12 -1.893549E+05 -5.041614E+04 -5.818093E+04  4.037252E+03 -2.036532E-09 -4.229342E-09
       253  13  2.592073E+05  1.069036E+05  1.619065E+04  1.848128E+05 -6.561180E-10 -8.098028E-09
       253  14  2.611618E+05  1.124501E+05  3.099580E+04  1.733683E+05 -7.144356E-10 -8.730331E-09
       253  15  2.663172E+05  1.567320E+05  6.564477E+04  1.659451E+05 -2.222204E-10 -1.417936E-09
       253  16  5.993334E+05  2.291086E+05  7.730402E+04  2.789196E+05 -4.622819E-09 -7.551679E-09
       253  17  6.568975E+05  2.748850E+05  1.143950E+05  3.014304E+05 -2.538712E-09 -9.408515E-09
       253  18  7.221860E+05  3.639183E+05  1.894492E+05  3.279668E+05  3.128475E-09  1.028858E-09
       253  19 -8.079079E+04 -1.528820E+04 -4.492332E+04  9.075479E+04  2.634305E+04 -1.628361E+04
       253  20 -1.344122E+05 -4.995997E+04 -5.241088E+04  4.538504E+04  1.866457E+04 -1.656431E+04
       253  21 -1.893548E+05 -5.041611E+04 -5.818081E+04  4.037226E+03  6.459319E+03 -4.873005E+03
       253  22  2.592078E+05  1.069041E+05  1.619203E+04  1.848125E+05  1.930521E+04 -1.894622E+04
       253  23  2.611631E+05  1.124505E+05  3.099824E+04  1.733680E+05  3.449453E+04 -1.057178E+04
       253  24  2.663194E+05  1.567326E+05  6.564878E+04  1.659455E+05  4.515898E+04  9.770133E+03
       253  25  5.993337E+05  2.291091E+05  7.730518E+04  2.789194E+05  1.226314E+04 -2.161038E+04
       253  26  6.569002E+05  2.748857E+05  1.143998E+05  3.014302E+05  5.033528E+04 -4.574074E+03
       253  27  7.221937E+05  3.639208E+05  1.894635E+05  3.279684E+05  8.388885E+04  2.443027E+04
       254   1  3.506889E+05  6.216776E+04  5.517861E+04  6.590382E+03 -1.692753E+04 -2.749345E+03
       254   2  3.345921E+05  8.374811E+04  6.541429E+04  6.163265E+01 -1.228209E+04 -7.975297E+03
       254   3  3.105199E+05  7.573260E+04  6.524694E+04  1.435408E+04 -7.659875E+03 -7.003423E+03
       254   4  1.073089E+04 -2.263368E+04 -2.915435E+04  1.104923E+04 -1.992436E+04 -2.760420E+03
       254   5  1.491473E+04  4.226923E+03 -1.262873E+04  5.946324E+02 -1.304994E+04 -7.978565E+03
       254   6  1.073149E+04  1.096440E+03 -8.058079E+03  1.096201E+04 -6.198555E+03 -6.997541E+03
       254   7 -3.291222E+05 -1.074437E+05 -1.134959E+05  1.550553E+04 -2.291955E+04 -2.771540E+03
       254   8 -3.046695E+05 -7.530180E+04 -9.067920E+04  1.127267E+03 -1.381738E+04 -7.981836E+03
       254   9 -2.889750E+05 -7.354634E+04 -8.136966E+04  7.571490E+03 -4.737937E+03 -6.991673E+03
       254  10  3.506886E+05  6.216767E+04  5.517806E+04  6.590345E+03 -6.434436E-09  3.788253E-09
       254  11  3.345920E+05  8.374800E+04  6.541389E+04  6.155378E+01 -1.159967E-09  1.597794E-08
       254  12  3.105198E+05  7.573254E+04  6.524674E+04  1.435404E+04  2.571327E-09  8.423346E-09
       254  13  1.073046E+04 -2.263379E+04 -2.915511E+04  1.104918E+04 -1.492174E-11 -5.206028E-09
       254  14  1.491453E+04  4.226809E+03 -1.262917E+04  5.945485E+02  1.070767E-09 -5.834315E-09
       254  15  1.073144E+04  1.096377E+03 -8.058244E+03  1.096197E+04 -1.107578E-09  3.164740E-09
       254  16 -3.291228E+05 -1.074438E+05 -1.134969E+05  1.550548E+04  5.324057E-09  2.597035E-09
       254  17 -3.046697E+05 -7.530192E+04 -9.067968E+04  1.127178E+03  1.813703E-09  1.424271E-08
       254  18 -2.889751E+05 -7.354639E+04 -8.136979E+04  7.571464E+03 -3.216004E-09 -9.000759E-11
       254  19  3.506889E+05  6.216776E+04  5.517861E+04  6.590382E+03  1.692753E+04  2.749345E+03
       254  20  3.345921E+05  8.374811E+04  6.541429E+04  6.163265E+01  1.228209E+04  7.975297E+03
       254  21  3.105199E+05  7.573260E+04  6.524694E+04  1.435408E+04  7.659875E+03  7.003423E+03
       254  22  1.073089E+04 -2.263368E+04 -2.915435E+04  1.104923E+04  1.992436E+04  2.760420E+03
       254  23  1.491473E+04  4.226923E+03 -1.262873E+04  5.946324E+02  1.304994E+04  7.978565E+03
       254  24  1.073149E+04  1.096440E+03 -8.058079E+03  1.096201E+04  6.198555E+03  6.997541E+03
       254  25 -3.291222E+05 -1.074437E+05 -1.134959E+05  1.550553E+04  2.291955E+04  2.771540E+03
       254  26 -3.046695E+05 -7.530180E+04 -9.067920E+04  1.127267E+03  1.381738E+04  7.981836E+03
       254  27 -2.889750E+05 -7.354634E+04 -8.136966E+04  7.571490E+03  4.737937E+03  6.991673E+03
       255   1  2.705866E+05  6.148915E+04  5.661194E+04  1.119617E+04 -4.834570E+03 -5.644223E+03
       255   2  2.512085E+05  5.983724E+04  5.498680E+04  1.223796E+03 -3.373549E+03 -5.541494E+03
       255   3  2.306315E+05  5.458084E+04  5.148853E+04  1.208464E+04 -1.915854E+03 -4.787881E+03
       255   4  1.232218E+04 -2.800091E+03 -6.624909E+03  1.100245E+04 -4.915655E+03 -5.644726E+03
       255   5  1.294270E+04  5.365517E+02 -3.275611E+03  5.790240E+02 -3.220858E+03 -5.540948E+03
       255   6  1.232262E+04  2.272385E+02 -1.962422E+03  1.098933E+04 -1.529344E+03 -4.786176E+03
       255   7 -2.458815E+05 -6.709427E+04 -6.986664E+04  1.080875E+04 -4.996706E+03 -5.645229E+03
       255   8 -2.252714E+05 -5.876833E+04 -6.154217E+04 -6.555797E+01 -3.068225E+03 -5.540401E+03
       255   9 -2.059429E+05 -5.412989E+04 -5.541686E+04  9.894362E+03 -1.142970E+03 -4.784471E+03
       255  10  2.705866E+05  6.148911E+04  5.661184E+04  1.119615E+04 -3.392091E-09 -3.443368E-10
       255  11  2.512084E+05  5.983720E+04  5.498673E+04  1.223781E+03 -2.928434E-09  4.290636E-09
       255  12  2.306315E+05  5.458081E+04  5.148848E+04  1.208463E+04  2.637639E-09  1.643453E-08
       255  13  1.232215E+04 -2.800132E+03 -6.625015E+03  1.100243E+04  1.050806E-09  1.410562E-08
       255  14  1.294268E+04  5.365159E+02 -3.275689E+03  5.790097E+02  9.739056E-10 -2.924235E-08
       255  15  1.232262E+04  2.272133E+02 -1.962469E+03  1.098933E+04 -5.817395E-10  1.045882E-08
       255  16 -2.458815E+05 -6.709431E+04 -6.986675E+04  1.080873E+04  2.280636E-09 -1.084058E-08
       255  17 -2.252714E+05 -5.876837E+04 -6.154225E+04 -6.557167E+01  2.177580E-09 -4.308720E-09
       255  18 -2.059429E+05 -5.412991E+04 -5.541690E+04  9.894358E+03 -5.743430E-09  1.858631E-09
       255  19  2.705866E+05  6.148915E+04  5.661194E+04  1.119617E+04  4.834570E+03  5.644223E+03
       255  20  2.512085E+05  5.983724E+04  5.498680E+04  1.223796E+03  3.373549E+03  5.541494E+03
       255  21  2.306315E+05  5.458084E+04  5.148853E+04  1.208464E+04  1.915854E+03  4.787881E+03
       255  22  1.232218E+04 -2.800091E+03 -6.624909E+03  1.100245E+04  4.915655E+03  5.644726E+03
       255  23  1.294270E+04  5.365517E+02 -3.275611E+03  5.790240E+02  3.220858E+03  5.540948E+03
       255  24  1.232262E+04  2.272385E+02 -1.962422E+03  1.098933E+04  1.529344E+03  4.786176E+03
       255  25 -2.458815E+05 -6.709427E+04 -6.986664E+04  1.080875E+04  4.996706E+03  5.645229E+03
       255  26 -2.252714E+05 -5.876833E+04 -6.154217E+04 -6.555797E+01  3.068225E+03  5.540401E+03
       255  27 -2.059429E+05 -5.412989E+04 -5.541686E+04  9.894362E+03  1.142970E+03  4.784471E+03
       256   1  1.893477E+05  4.373387E+04  4.165454E+04  1.155818E+04 -1.444289E+03 -4.267745E+03
       256   2  1.695616E+05  3.911714E+04  3.757199E+04  1.145805E+03 -1.068934E+03 -3.609106E+03
       256   3  1.494563E+05  3.422478E+04  3.313413E+04  1.155576E+04 -6.942220E+02 -2.882371E+03
       256   4  1.253144E+04 -2.680972E+02 -1.546181E+03  1.099247E+04 -1.219807E+03 -4.266749E+03
       256   5  1.269338E+04  6.988565E+01 -7.968517E+02  5.801823E+02 -8.200367E+02 -3.607942E+03
       256   6  1.253171E+04  1.280228E+02 -4.197677E+02  1.099056E+04 -4.208967E+02 -2.881031E+03
       256   7 -1.642563E+05 -4.427237E+04 -4.474918E+04  1.042688E+04 -9.953881E+02 -4.265753E+03
       256   8 -1.441524E+05 -3.897919E+04 -3.916749E+04  1.467555E+01 -5.712018E+02 -3.606779E+03
       256   9 -1.243758E+05 -3.397012E+04 -3.397504E+04  1.042545E+04 -1.476314E+02 -2.879692E+03
       256  10  1.893476E+05  4.373385E+04  4.165450E+04  1.155817E+04  2.353841E-09 -5.412787E-09
       256  11  1.695616E+05  3.911712E+04  3.757196E+04  1.145802E+03 -6.160476E-10 -5.734014E-09
       256  12  1.494563E+05  3.422477E+04  3.313411E+04  1.155576E+04  2.844353E-09 -1.016008E-08
       256  13  1.253143E+04 -2.681171E+02 -1.546218E+03  1.099246E+04  1.119716E-12 -4.440649E-09
       256  14  1.269337E+04  6.987149E+01 -7.968774E+02  5.801799E+02 -2.375731E-09 -5.323794E-09
       256  15  1.253171E+04  1.280138E+02 -4.197837E+02  1.099056E+04  2.538259E-09 -5.474669E-09
       256  16 -1.642563E+05 -4.427239E+04 -4.474921E+04  1.042688E+04 -5.233800E-09 -7.584559E-09
       256  17 -1.441524E+05 -3.897920E+04 -3.916751E+04  1.467389E+01  1.436745E-09  6.651431E-09
       256  18 -1.243758E+05 -3.397013E+04 -3.397505E+04  1.042545E+04 -1.078412E-09  1.239736E-08
       256  19  1.893477E+05  4.373387E+04  4.165454E+04  1.155818E+04  1.444289E+03  4.267745E+03
       256  20  1.695616E+05  3.911714E+04  3.757199E+04  1.145805E+03  1.068934E+03  3.609106E+03
       256  21  1.494563E+05  3.422478E+04  3.313413E+04  1.155576E+04  6.942220E+02  2.882371E+03
       256  22  1.253144E+04 -2.680972E+02 -1.546181E+03  1.099247E+04  1.219807E+03  4.266749E+03
       256  23  1.269338E+04  6.988565E+01 -7.968517E+02  5.801823E+02  8.200367E+02  3.607942E+03
       256  24  1.253171E+04  1.280228E+02 -4.197677E+02  1.099056E+04  4.208967E+02  2.881031E+03
       256  25 -1.642563E+05 -4.427237E+04 -4.474918E+04  1.042688E+04  9.953881E+02  4.265753E+03
       256  26 -1.441524E+05 -3.897919E+04 -3.916749E+04  1.467555E+01  5.712018E+02  3.606779E+03
       256  27 -1.243758E+05 -3.397012E+04 -3.397504E+04  1.042545E+04  1.476314E+02  2.879692E+03
       257   1  1.080185E+05  2.381183E+04  2.299911E+04  1.135071E+04 -6.161404E+02 -2.451278E+03
       257   2  8.819216E+04  1.881158E+04  1.841909E+04  8.776690E+02 -5.939448E+02 -1.735714E+03
       257   3  6.815024E+04  1.398348E+04  1.381417E+04  1.121393E+04 -5.719322E+02 -1.013737E+03
       257   4  1.255852E+04  6.100618E+01 -2.908653E+02  1.098846E+04 -3.596725E+02 -2.449993E+03
       257   5  1.266675E+04  1.066176E+01 -5.543404E+01  5.835502E+02 -3.351785E+02 -1.734392E+03
       257   6  1.255866E+04  1.321026E+02  1.535222E+02  1.098810E+04 -3.108668E+02 -1.012377E+03
       257   7 -8.289318E+04 -2.369049E+04 -2.358151E+04  1.062625E+04 -1.032438E+02 -2.448708E+03
       257   8 -6.285346E+04 -1.879067E+04 -1.853037E+04  2.894607E+02 -7.644361E+01 -1.733070E+03
       257   9 -4.303011E+04 -1.371951E+04 -1.350735E+04  1.076228E+04 -4.982471E+01 -1.011017E+03
       257  10  1.080185E+05  2.381182E+04  2.299910E+04  1.135071E+04 -5.557826E-10 -1.260363E-08
       257  11  8.819216E+04  1.881157E+04  1.841908E+04  8.776682E+02 -3.593868E-09  7.738588E-09
       257  12  6.815024E+04  1.398348E+04  1.381417E+04  1.121393E+04 -3.769345E-09 -5.331357E-09
       257  13  1.255852E+04  6.099970E+01 -2.908768E+02  1.098846E+04  1.066471E-09  2.120268E-09
       257  14  1.266675E+04  1.065850E+01 -5.543990E+01  5.835498E+02 -8.413473E-10 -7.419696E-09
       257  15  1.255866E+04  1.321015E+02  1.535201E+02  1.098810E+04  3.107897E-09 -1.015299E-08
       257  16 -8.289318E+04 -2.369050E+04 -2.358152E+04  1.062625E+04  2.607055E-10  6.260620E-09
       257  17 -6.285346E+04 -1.879068E+04 -1.853038E+04  2.894606E+02  4.075806E-09  2.441413E-08
       257  18 -4.303011E+04 -1.371951E+04 -1.350735E+04  1.076228E+04  3.229887E-09 -1.218288E-09
       257  19  1.080185E+05  2.381183E+04  2.299911E+04  1.135071E+04  6.161404E+02  2.451278E+03
       257  20  8.819216E+04  1.881158E+04  1.841909E+04  8.776690E+02  5.939448E+02  1.735714E+03
       257  21  6.815024E+04  1.398348E+04  1.381417E+04  1.121393E+04  5.719322E+02  1.013737E+03
       257  22  1.255852E+04  6.100618E+01 -2.908653E+02  1.098846E+04  3.596725E+02  2.449993E+03
       257  23  1.266675E+04  1.066176E+01 -5.543404E+01  5.835502E+02  3.351785E+02  1.734392E+03
       257  24  1.255866E+04  1.321026E+02  1.535222E+02  1.098810E+04  3.108668E+02  1.012377E+03
       257  25 -8.289318E+04 -2.369049E+04 -2.358151E+04  1.062625E+04  1.032438E+02  2.448708E+03
       257  26 -6.285346E+04 -1.879067E+04 -1.853037E+04  2.894607E+02  7.644361E+01  1.733070E+03
       257  27 -4.303011E+04 -1.371951E+04 -1.350735E+04  1.076228E+04  4.982471E+01  1.011017E+03
       258   1  2.672122E+04  3.612046E+03  3.663228E+03  1.106104E+04 -6.116993E+02 -5.917323E+02
       258   2  6.861264E+03 -1.458918E+03 -8.510652E+02  5.635127E+02 -8.956152E+02  1.284665E+02
       258   3 -1.313746E+04 -6.145769E+03 -5.141358E+03  1.087157E+04 -1.179480E+03  8.436183E+02
       258   4  1.257670E+04  1.029863E+02  2.649919E+02  1.098764E+04 -3.509820E+02 -5.903643E+02
       258   5  1.264626E+04 -1.880130E+01  5.639837E+02  5.844802E+02 -6.367247E+02  1.298222E+02
       258   6  1.257669E+04  2.437909E+02  1.088186E+03  1.098690E+04 -9.224256E+02  8.449631E+02
       258   7 -1.567635E+03 -3.406088E+03 -3.133258E+03  1.091423E+04 -9.027069E+01 -5.889964E+02
       258   8  1.843128E+04  1.421313E+03  1.979030E+03  6.054478E+02 -3.778319E+02  1.311780E+02
       258   9  3.829145E+04  6.633303E+03  7.317682E+03  1.110222E+04 -6.653603E+02  8.463079E+02
       258  10  2.672122E+04  3.612046E+03  3.663227E+03  1.106104E+04 -8.663420E-09 -7.156423E-09
       258  11  6.861263E+03 -1.458918E+03 -8.510667E+02  5.635128E+02 -4.260690E-09 -6.660963E-09
       258  12 -1.313746E+04 -6.145770E+03 -5.141362E+03  1.087157E+04 -8.603331E-09 -2.342872E-09
       258  13  1.257670E+04  1.029859E+02  2.649910E+02  1.098764E+04  1.116732E-09  1.979051E-09
       258  14  1.264626E+04 -1.880143E+01  5.639829E+02  5.844802E+02  2.450682E-10 -2.503728E-09
       258  15  1.257669E+04  2.437899E+02  1.088183E+03  1.098690E+04  6.499559E-10 -7.147963E-09
       258  16 -1.567635E+03 -3.406089E+03 -3.133259E+03  1.091423E+04  6.290455E-09 -4.732312E-09
       258  17  1.843128E+04  1.421313E+03  1.979030E+03  6.054479E+02  4.631892E-09 -2.010609E-08
       258  18  3.829145E+04  6.633302E+03  7.317680E+03  1.110223E+04  7.151290E-09 -1.037070E-08
       258  19  2.672122E+04  3.612046E+03  3.663228E+03  1.106104E+04  6.116993E+02  5.917323E+02
       258  20  6.861264E+03 -1.458918E+03 -8.510652E+02  5.635127E+02  8.956152E+02 -1.284665E+02
       258  21 -1.313746E+04 -6.145769E+03 -5.141358E+03  1.087157E+04  1.179480E+03 -8.436183E+02
       258  22  1.257670E+04  1.029863E+02  2.649919E+02  1.098764E+04  3.509820E+02  5.903643E+02
       258  23  1.264626E+04 -1.880130E+01  5.639837E+02  5.844802E+02  6.367247E+02 -1.298222E+02
       258  24  1.257669E+04  2.437909E+02  1.088186E+03  1.098690E+04  9.224256E+02 -8.449631E+02
       258  25 -1.567635E+03 -3.406088E+03 -3.133258E+03  1.091423E+04  9.027069E+01  5.889964E+02
       258  26  1.843128E+04  1.421313E+03  1.979030E+03  6.054478E+02  3.778319E+02 -1.311780E+02
       258  27  3.829145E+04  6.633303E+03  7.317682E+03  1.110222E+04  6.653603E+02 -8.463079E+02
       259   1 -5.448291E+04 -1.666132E+04 -1.506762E+04  1.085352E+04 -1.421116E+03  1.271050E+03
       259   2 -7.457323E+04 -2.188301E+04 -1.886685E+04  2.136754E+02 -2.638485E+03  1.989174E+03
       259   3 -9.434647E+04 -2.546862E+04 -2.151696E+04  1.037754E+04 -3.855387E+03  2.652530E+03
       259   4  1.267760E+04  6.936858E+01  1.423314E+03  1.098876E+04 -1.150583E+03  1.272453E+03
       259   5  1.251736E+04 -2.007985E+02  2.437748E+03  5.842049E+02 -2.387825E+03  1.990443E+03
       259   6  1.267746E+04  1.168545E+03  4.615077E+03  1.098317E+04 -3.624638E+03  2.653669E+03
       259   7  7.984222E+04  1.679973E+04  1.791392E+04  1.112402E+04 -8.800199E+02  1.273856E+03
       259   8  9.961485E+04  2.148086E+04  2.374180E+04  9.547777E+02 -2.137130E+03  1.991712E+03
       259   9  1.197118E+05  2.780486E+04  3.074628E+04  1.158889E+04 -3.393851E+03  2.654808E+03
       259  10 -5.448292E+04 -1.666133E+04 -1.506763E+04  1.085352E+04 -6.339727E-09 -8.530206E-10
       259  11 -7.457324E+04 -2.188302E+04 -1.886687E+04  2.136796E+02 -3.484494E-09 -1.327041E-08
       259  12 -9.434649E+04 -2.546863E+04 -2.151700E+04  1.037755E+04 -9.064757E-10 -5.271942E-09
       259  13  1.267760E+04  6.936649E+01  1.423308E+03  1.098876E+04 -1.067058E-09  2.208426E-10
       259  14  1.251735E+04 -2.008043E+02  2.437730E+03  5.842088E+02 -2.935096E-10 -5.182494E-10
       259  15  1.267745E+04  1.168534E+03  4.615039E+03  1.098318E+04 -8.582589E-10  9.236928E-09
       259  16  7.984221E+04  1.679972E+04  1.791391E+04  1.112402E+04  5.537669E-09  2.660775E-09
       259  17  9.961485E+04  2.148085E+04  2.374178E+04  9.547811E+02  3.559758E-09 -5.111911E-09
       259  18  1.197118E+05  2.780485E+04  3.074624E+04  1.158890E+04 -9.668799E-10  1.320751E-08
       259  19 -5.448291E+04 -1.666132E+04 -1.506762E+04  1.085352E+04  1.421116E+03 -1.271050E+03
       259  20 -7.457323E+04 -2.188301E+04 -1.886685E+04  2.136754E+02  2.638485E+03 -1.989174E+03
       259  21 -9.434647E+04 -2.546862E+04 -2.151696E+04  1.037754E+04  3.855387E+03 -2.652530E+03
       259  22  1.267760E+04  6.936858E+01  1.423314E+03  1.098876E+04  1.150583E+03 -1.272453E+03
       259  23  1.251736E+04 -2.007985E+02  2.437748E+03  5.842049E+02  2.387825E+03 -1.990443E+03
       259  24  1.267746E+04  1.168545E+03  4.615077E+03  1.098317E+04  3.624638E+03 -2.653669E+03
       259  25  7.984222E+04  1.679973E+04  1.791392E+04  1.112402E+04  8.800199E+02 -1.273856E+03
       259  26  9.961485E+04  2.148086E+04  2.374180E+04  9.547777E+02  2.137130E+03 -1.991712E+03
       259  27  1.197118E+05  2.780486E+04  3.074628E+04  1.158889E+04  3.393851E+03 -2.654808E+03
       260   1 -1.351464E+05 -3.722956E+04 -3.053421E+04  1.138642E+04 -4.921759E+03  3.146364E+03
       260   2 -1.567349E+05 -4.353648E+04 -3.154425E+04 -4.858958E+02 -9.733607E+03  3.865933E+03
       260   3 -1.750144E+05 -3.835597E+04 -2.658899E+04  8.418278E+03 -1.454252E+04  4.062384E+03
       260   4  1.334525E+04 -2.608964E+02  5.846512E+03  1.099466E+04 -4.560778E+03  3.148131E+03
       260   5  1.167499E+04 -1.604390E+03  9.646490E+03  5.856163E+02 -9.562128E+03  3.866690E+03
       260   6  1.334516E+04  8.570767E+03  1.954217E+04  1.095267E+04 -1.456070E+04  4.062174E+03
       260   7  1.618570E+05  3.670613E+04  4.222562E+04  1.060278E+04 -4.199710E+03  3.149897E+03
       260   8  1.801107E+05  4.032561E+04  5.083516E+04  1.657389E+03 -9.390602E+03  3.867448E+03
       260   9  2.017371E+05  5.549489E+04  6.567073E+04  1.348779E+04 -1.457888E+04  4.061964E+03
       260  10 -1.351464E+05 -3.722957E+04 -3.053428E+04  1.138644E+04  9.519006E-09  3.802657E-09
       260  11 -1.567350E+05 -4.353653E+04 -3.154446E+04 -4.858655E+02 -7.334713E-10  1.537800E-08
       260  12 -1.750147E+05 -3.835604E+04 -2.658942E+04  8.418325E+03 -9.899561E-09 -4.815208E-09
       260  13  1.334523E+04 -2.609126E+02  5.846454E+03  1.099467E+04 -2.131380E-09 -1.208881E-08
       260  14  1.167489E+04 -1.604430E+03  9.646290E+03  5.856461E+02  1.956342E-09  7.213000E-09
       260  15  1.334493E+04  8.570692E+03  1.954174E+04  1.095272E+04  2.513442E-10 -1.381647E-09
       260  16  1.618570E+05  3.670612E+04  4.222557E+04  1.060279E+04 -9.274892E-09 -4.747218E-09
       260  17  1.801106E+05  4.032557E+04  5.083497E+04  1.657418E+03  1.380712E-09 -3.180285E-08
       260  18  2.017369E+05  5.549482E+04  6.567030E+04  1.348784E+04  7.293502E-09 -7.087152E-10
       260  19 -1.351464E+05 -3.722956E+04 -3.053421E+04  1.138642E+04  4.921759E+03 -3.146364E+03
       260  20 -1.567349E+05 -4.353648E+04 -3.154425E+04 -4.858958E+02  9.733607E+03 -3.865933E+03
       260  21 -1.750144E+05 -3.835597E+04 -2.658899E+04  8.418278E+03  1.454252E+04 -4.062384E+03
       260  22  1.334525E+04 -2.608964E+02  5.846512E+03  1.099466E+04  4.560778E+03 -3.148131E+03
       260  23  1.167499E+04 -1.604390E+03  9.646490E+03  5.856163E+02  9.562128E+03 -3.866690E+03
       260  24  1.334516E+04  8.570767E+03  1.954217E+04  1.095267E+04  1.456070E+04 -4.062174E+03
       260  25  1.618570E+05  3.670613E+04  4.222562E+04  1.060278E+04  4.199710E+03 -3.149897E+03
       260  26  1.801107E+05  4.032561E+04  5.083516E+04  1.657389E+03  9.390602E+03 -3.867448E+03
       260  27  2.017371E+05  5.549489E+04  6.567073E+04  1.348779E+04  1.457888E+04 -4.061964E+03
       261   1 -2.118050E+05 -6.004491E+04 -3.244292E+04  1.744362E+04 -1.959853E+04  5.207738E+03
       261   2 -2.439855E+05 -7.472710E+04 -2.383382E+04 -4.513200E+03 -3.798018E+04  6.041625E+03
       261   3 -2.516279E+05 -4.960286E+02  1.895755E+04 -5.981675E+03 -5.633936E+04  1.890658E+03
       261   4  1.811702E+04 -2.884823E+03  2.378619E+04  1.101499E+04 -1.837585E+04  5.213493E+03
       261   5  5.697931E+03 -1.253594E+04  3.715040E+04  6.227464E+02 -3.855885E+04  6.038651E+03
       261   6  1.811856E+04  6.701927E+04  8.593769E+04  1.071804E+04 -5.872001E+04  1.879152E+03
       261   7  2.480874E+05  5.427153E+04  8.001148E+04  4.583929E+03 -1.715272E+04  5.219222E+03
       261   8  2.554383E+05  4.965070E+04  9.813008E+04  5.760702E+03 -3.913775E+04  6.035667E+03
       261   9  2.879317E+05  1.345301E+05  1.529125E+05  2.742496E+04 -6.110169E+04  1.867521E+03
       261  10 -2.118055E+05 -6.004504E+04 -3.244370E+04  1.744370E+04  2.497600E-09 -6.726331E-09
       261  11 -2.439871E+05 -7.472753E+04 -2.383660E+04 -4.513015E+03  1.343443E-09  1.663707E-09
       261  12 -2.516313E+05 -4.968849E+02  1.895157E+04 -5.981589E+03 -2.245632E-11  9.057856E-09
       261  13  1.811665E+04 -2.884943E+03  2.378551E+04  1.101507E+04 -1.102668E-09  8.084935E-10
       261  14  5.696325E+03 -1.253638E+04  3.714753E+04  6.229339E+02 -1.731666E-09  2.720591E-09
       261  15  1.811485E+04  6.701834E+04  8.593120E+04  1.071813E+04 -1.583642E-11  1.161934E-08
       261  16  2.480871E+05  5.427142E+04  8.001088E+04  4.584001E+03 -3.319643E-09  1.114034E-08
       261  17  2.554366E+05  4.965025E+04  9.812713E+04  5.760892E+03 -1.872642E-09  1.105608E-08
       261  18  2.879277E+05  1.345291E+05  1.529055E+05  2.742505E+04 -2.590319E-09 -6.325556E-09
       261  19 -2.118050E+05 -6.004491E+04 -3.244292E+04  1.744362E+04  1.959853E+04 -5.207738E+03
       261  20 -2.439855E+05 -7.472710E+04 -2.383382E+04 -4.513200E+03  3.798018E+04 -6.041625E+03
       261  21 -2.516279E+05 -4.960286E+02  1.895755E+04 -5.981675E+03  5.633936E+04 -1.890658E+03
       261  22  1.811702E+04 -2.884823E+03  2.378619E+04  1.101499E+04  1.837585E+04 -5.213493E+03
       261  23  5.697931E+03 -1.253594E+04  3.715040E+04  6.227464E+02  3.855885E+04 -6.038651E+03
       261  24  1.811856E+04  6.701927E+04  8.593769E+04  1.071804E+04  5.872001E+04 -1.879152E+03
       261  25  2.480874E+05  5.427153E+04  8.001148E+04  4.583929E+03  1.715272E+04 -5.219222E+03
       261  26  2.554383E+05  4.965070E+04  9.813008E+04  5.760702E+03  3.913775E+04 -6.035667E+03
       261  27  2.879317E+05  1.345301E+05  1.529125E+05  2.742496E+04  6.110169E+04 -1.867521E+03
       262   1 -2.851550E+05 -1.372795E+06 -3.336585E+05  8.048968E+04 -3.023222E+03 -1.493933E+05
       262   2 -6.440229E+04 -1.274246E+06 -1.941290E+05  1.640250E+04 -9.507102E+03 -9.247094E+04
       262   3 -7.524015E+04 -1.240198E+06 -1.494559E+05  2.091667E+04 -6.977929E+03 -3.551423E+04
       262   4 -1.711179E+05 -9.179840E+05 -2.205533E+05  3.858584E+04 -3.025986E+03 -1.455765E+05
       262   5  3.240547E+04 -8.859939E+05 -9.922013E+04  4.574305E+03 -9.506934E+03 -9.185948E+04
       262   6  4.972455E+03 -9.179080E+05 -7.046642E+04  3.916669E+04 -6.971785E+03 -3.811446E+04
       262   7 -5.708991E+04 -4.629811E+05 -1.074625E+05 -3.348636E+03 -3.029268E+03 -1.417570E+05
       262   8  1.292026E+05 -4.976042E+05 -4.322215E+03 -7.261210E+03 -9.506790E+03 -9.124763E+04
       262   9  8.517865E+04 -5.955225E+05  8.515656E+03  5.742628E+04 -6.965795E+03 -4.071603E+04
       262  10 -2.851610E+05 -1.372819E+06 -3.337006E+05  8.048932E+04 -6.323828E-10 -4.553768E-09
       262  11 -6.440469E+04 -1.274255E+06 -1.941453E+05  1.640179E+04 -2.699677E-09  5.236141E-09
       262  12 -7.524054E+04 -1.240199E+06 -1.494584E+05  2.091647E+04 -1.439834E-09  7.689623E-10
       262  13 -1.711236E+05 -9.180068E+05 -2.205932E+05  3.858549E+04  3.423073E-09 -6.207194E-09
       262  14  3.240310E+04 -8.860030E+05 -9.923618E+04  4.573602E+03 -5.295939E-10  1.767619E-08
       262  15  4.972013E+03 -9.179096E+05 -7.046924E+04  3.916648E+04  5.134202E-10  4.526661E-10
       262  16 -5.709532E+04 -4.630027E+05 -1.075003E+05 -3.348982E+03  9.599533E-10 -2.819998E-09
       262  17  1.292002E+05 -4.976132E+05 -4.338045E+03 -7.261909E+03  4.444799E-09  6.692073E-09
       262  18  8.517816E+04 -5.955243E+05  8.512446E+03  5.742605E+04 -1.258506E-10 -3.756852E-09
       262  19 -2.851550E+05 -1.372795E+06 -3.336585E+05  8.048968E+04  3.023222E+03  1.493933E+05
       262  20 -6.440229E+04 -1.274246E+06 -1.941290E+05  1.640250E+04  9.507102E+03  9.247094E+04
       262  21 -7.524015E+04 -1.240198E+06 -1.494559E+05  2.091667E+04  6.977929E+03  3.551423E+04
       262  22 -1.711179E+05 -9.179840E+05 -2.205533E+05  3.858584E+04  3.025986E+03  1.455765E+05
       262  23  3.240547E+04 -8.859939E+05 -9.922013E+04  4.574305E+03  9.506934E+03  9.185948E+04
       262  24  4.972455E+03 -9.179080E+05 -7.046642E+04  3.916669E+04  6.971785E+03  3.811446E+04
       262  25 -5.708991E+04 -4.629811E+05 -1.074625E+05 -3.348636E+03  3.029268E+03  1.417570E+05
       262  26  1.292026E+05 -4.976042E+05 -4.322215E+03 -7.261210E+03  9.506790E+03  9.124763E+04
       262  27  8.517865E+04 -5.955225E+05  8.515656E+03  5.742628E+04  6.965795E+03  4.071603E+04
       263   1 -6.639090E+04 -1.089197E+06 -1.071375E+05  4.678448E+04 -4.153522E+03 -2.590412E+04
       263   2 -2.060689E+04 -1.013016E+06 -7.405850E+04  4.369848E+03 -2.650560E+03 -1.825787E+03
       263   3 -3.017533E+04 -9.533395E+05 -7.041479E+04  3.281979E+04 -7.295790E+02  2.225560E+04
       263   4 -2.103378E+04 -9.073655E+05 -6.260727E+04  3.946539E+04 -4.151889E+03 -2.639609E+04
       263   5  7.773224E+03 -8.991251E+05 -4.617669E+04  4.037504E+03 -2.648937E+03 -2.463011E+03
       263   6 -1.874104E+04 -9.073634E+05 -5.907538E+04  3.947415E+04 -7.274716E+02  2.147052E+04
       263   7  2.432108E+04 -7.255041E+05 -1.807944E+04  3.214417E+04 -4.150246E+03 -2.688820E+04
       263   8  3.615238E+04 -7.852218E+05 -1.829582E+04  3.705107E+03 -2.647314E+03 -3.100351E+03
       263   9 -7.306730E+03 -8.613854E+05 -4.773609E+04  4.612900E+04 -7.253812E+02  2.068537E+04
       263  10 -6.639110E+04 -1.089197E+06 -1.071388E+05  4.678439E+04 -2.926984E-10 -2.376393E-09
       263  11 -2.060690E+04 -1.013016E+06 -7.405852E+04  4.369844E+03  7.721720E-10  3.682995E-09
       263  12 -3.017546E+04 -9.533400E+05 -7.041573E+04  3.281980E+04  1.434306E-09 -1.041875E-11
       263  13 -2.103399E+04 -9.073662E+05 -6.260861E+04  3.946531E+04  6.668587E-10 -3.597274E-09
       263  14  7.773214E+03 -8.991251E+05 -4.617671E+04  4.037499E+03 -1.705770E-09  1.450522E-08
       263  15 -1.874116E+04 -9.073639E+05 -5.907624E+04  3.947416E+04  3.498733E-10 -1.230257E-09
       263  16  2.432087E+04 -7.255049E+05 -1.808083E+04  3.214409E+04 -2.860656E-09 -2.357085E-09
       263  17  3.615237E+04 -7.852218E+05 -1.829585E+04  3.705100E+03  8.416274E-10  5.043444E-09
       263  18 -7.306846E+03 -8.613858E+05 -4.773689E+04  4.612901E+04 -2.341891E-09 -2.837632E-09
       263  19 -6.639090E+04 -1.089197E+06 -1.071375E+05  4.678448E+04  4.153522E+03  2.590412E+04
       263  20 -2.060689E+04 -1.013016E+06 -7.405850E+04  4.369848E+03  2.650560E+03  1.825787E+03
       263  21 -3.017533E+04 -9.533395E+05 -7.041479E+04  3.281979E+04  7.295790E+02 -2.225560E+04
       263  22 -2.103378E+04 -9.073655E+05 -6.260727E+04  3.946539E+04  4.151889E+03  2.639609E+04
       263  23  7.773224E+03 -8.991251E+05 -4.617669E+04  4.037504E+03  2.648937E+03  2.463011E+03
       263  24 -1.874104E+04 -9.073634E+05 -5.907538E+04  3.947415E+04  7.274716E+02 -2.147052E+04
       263  25  2.432108E+04 -7.255041E+05 -1.807944E+04  3.214417E+04  4.150246E+03  2.688820E+04
       263  26  3.615238E+04 -7.852218E+05 -1.829582E+04  3.705107E+03  2.647314E+03  3.100351E+03
       263  27 -7.306730E+03 -8.613854E+05 -4.773609E+04  4.612900E+04  7.253812E+02 -2.068537E+04
       264   1  2.778071E+04 -8.206519E+05 -4.194708E+04  5.644382E+04  1.602697E+03  3.429314E+04
       264   2  7.007900E+04 -7.241162E+05 -5.030687E+04 -6.021871E+03  4.039700E+03  8.131262E+04
       264   3 -9.594468E+04 -6.852767E+05 -1.412672E+05  1.824985E+03  1.352110E+03  1.283244E+05
       264   4  3.954745E+03 -9.165858E+05 -6.553903E+04  3.949887E+04  1.606164E+03  3.244897E+04
       264   5  2.930774E+04 -8.875989E+05 -9.023249E+04  4.130967E+03  4.041098E+03  8.129875E+04
       264   6 -1.540127E+05 -9.166527E+05 -1.988175E+05  3.907808E+04  1.354945E+03  1.301356E+05
       264   7 -1.987082E+04 -1.012511E+06 -8.913149E+04  2.255654E+04  1.609733E+03  3.060510E+04
       264   8 -1.146512E+04 -1.051057E+06 -1.301600E+05  1.428114E+04  4.042496E+03  8.128488E+04
       264   9 -2.120797E+05 -1.147977E+06 -2.563711E+05  7.631730E+04  1.358000E+03  1.319461E+05
       264  10  2.778039E+04 -8.206532E+05 -4.194930E+04  5.644377E+04 -7.051530E-10 -2.250099E-09
       264  11  7.007720E+04 -7.241233E+05 -5.031934E+04 -6.022136E+03 -7.068206E-10  3.939025E-09
       264  12 -9.594911E+04 -6.852944E+05 -1.412982E+05  1.824845E+03 -7.041038E-10 -5.392217E-10
       264  13  3.954459E+03 -9.165870E+05 -6.554102E+04  3.949882E+04  7.829107E-10 -5.226448E-09
       264  14  2.930594E+04 -8.876061E+05 -9.024496E+04  4.130702E+03  1.251376E-09  1.453749E-08
       264  15 -1.540173E+05 -9.166709E+05 -1.988494E+05  3.907794E+04 -5.712057E-10 -1.019975E-09
       264  16 -1.987107E+04 -1.012512E+06 -8.913326E+04  2.255650E+04 -3.898306E-09 -3.770129E-09
       264  17 -1.146691E+04 -1.051064E+06 -1.301725E+05  1.428087E+04  1.877898E-09  5.282338E-09
       264  18 -2.120843E+05 -1.147996E+06 -2.564039E+05  7.631715E+04  1.892513E-09 -3.089820E-09
       264  19  2.778071E+04 -8.206519E+05 -4.194708E+04  5.644382E+04 -1.602697E+03 -3.429314E+04
       264  20  7.007900E+04 -7.241162E+05 -5.030687E+04 -6.021871E+03 -4.039700E+03 -8.131262E+04
       264  21 -9.594468E+04 -6.852767E+05 -1.412672E+05  1.824985E+03 -1.352110E+03 -1.283244E+05
       264  22  3.954745E+03 -9.165858E+05 -6.553903E+04  3.949887E+04 -1.606164E+03 -3.244897E+04
       264  23  2.930774E+04 -8.875989E+05 -9.023249E+04  4.130967E+03 -4.041098E+03 -8.129875E+04
       264  24 -1.540127E+05 -9.166527E+05 -1.988175E+05  3.907808E+04 -1.354945E+03 -1.301356E+05
       264  25 -1.987082E+04 -1.012511E+06 -8.913149E+04  2.255654E+04 -1.609733E+03 -3.060510E+04
       264  26 -1.146512E+04 -1.051057E+06 -1.301600E+05  1.428114E+04 -4.042496E+03 -8.128488E+04
       264  27 -2.120797E+05 -1.147977E+06 -2.563711E+05  7.631730E+04 -1.358000E+03 -1.319461E+05
       265   1  1.232010E+06  4.084477E+05  2.702890E+05  4.264517E+05  1.245270E+05  4.449349E+04
       265   2  1.188401E+06  2.163232E+05  1.511136E+05  4.429188E+05  8.105356E+04  2.280747E+04
       265   3  1.203351E+06  2.240775E+05  1.158495E+05  4.305228E+05  3.545672E+04  6.724245E+03
       265   4  9.643504E+05  2.764297E+05  1.910215E+05  3.218964E+05  1.220083E+05  4.353089E+04
       265   5  9.254796E+05  1.085010E+05  7.871994E+04  3.621916E+05  8.044356E+04  2.257448E+04
       265   6  9.448200E+05  1.401191E+05  4.884623E+04  3.736158E+05  3.675430E+04  7.217739E+03
       265   7  6.967637E+05  1.444328E+05  1.117475E+05  2.173872E+05  1.194908E+05  4.256906E+04
       265   8  6.626256E+05  6.865005E+02  6.320065E+03  2.814964E+05  7.983384E+04  2.234162E+04
       265   9  6.863527E+05  5.616066E+04 -1.816260E+04  3.167280E+05  3.805129E+04  7.711080E+03
       265  10  1.231993E+06  4.084414E+05  2.702563E+05  4.264473E+05  5.164844E-10  3.699054E-09
       265  11  1.188393E+06  2.163208E+05  1.511003E+05  4.429173E+05  2.674537E-09 -1.298353E-09
       265  12  1.203349E+06  2.240771E+05  1.158471E+05  4.305226E+05 -4.429097E-09 -5.474263E-10
       265  13  9.643339E+05  2.764237E+05  1.909901E+05  3.218921E+05 -1.136570E-09 -7.317170E-09
       265  14  9.254725E+05  1.084987E+05  7.870685E+04  3.621901E+05 -8.660184E-10 -1.321737E-08
       265  15  9.448185E+05  1.401187E+05  4.884360E+04  3.736156E+05 -1.408505E-09 -4.239431E-09
       265  16  6.967479E+05  1.444270E+05  1.117173E+05  2.173831E+05  9.752631E-12  3.568018E-09
       265  17  6.626187E+05  6.842569E+02  6.307167E+03  2.814949E+05  3.567194E-09  4.297570E-09
       265  18  6.863512E+05  5.616021E+04 -1.816543E+04  3.167278E+05 -2.904284E-09 -8.165901E-09
       265  19  1.232010E+06  4.084477E+05  2.702890E+05  4.264517E+05 -1.245270E+05 -4.449349E+04
       265  20  1.188401E+06  2.163232E+05  1.511136E+05  4.429188E+05 -8.105356E+04 -2.280747E+04
       265  21  1.203351E+06  2.240775E+05  1.158495E+05  4.305228E+05 -3.545672E+04 -6.724245E+03
       265  22  9.643504E+05  2.764297E+05  1.910215E+05  3.218964E+05 -1.220083E+05 -4.353089E+04
       265  23  9.254796E+05  1.085010E+05  7.871994E+04  3.621916E+05 -8.044356E+04 -2.257448E+04
       265  24  9.448200E+05  1.401191E+05  4.884623E+04  3.736158E+05 -3.675430E+04 -7.217739E+03
       265  25  6.967637E+05  1.444328E+05  1.117475E+05  2.173872E+05 -1.194908E+05 -4.256906E+04
       265  26  6.626256E+05  6.865005E+02  6.320065E+03  2.814964E+05 -7.983384E+04 -2.234162E+04
       265  27  6.863527E+05  5.616066E+04 -1.816260E+04  3.167280E+05 -3.805129E+04 -7.711080E+03
       266   1  1.139751E+06  2.409422E+05  9.501428E+04  4.202108E+05  2.911307E+04  5.805961E+03
       266   2  1.124198E+06  2.033668E+05  6.843744E+04  4.104971E+05  1.906822E+04  2.175775E+03
       266   3  1.103714E+06  2.050253E+05  5.584002E+04  4.120359E+05  8.799833E+03 -8.658318E+02
       266   4  9.389079E+05  1.610210E+05  4.002721E+04  3.610763E+05  2.906216E+04  5.786294E+03
       266   5  9.401237E+05  1.325977E+05  1.858963E+04  3.588056E+05  1.921909E+04  2.232979E+03
       266   6  9.363723E+05  1.433728E+05  1.097516E+04  3.677866E+05  9.152157E+03 -7.318926E+02
       266   7  7.381031E+05  8.110343E+04 -1.496353E+04  3.019594E+05  2.901127E+04  5.766634E+03
       266   8  7.560822E+05  6.183096E+04 -3.126116E+04  3.071279E+05  1.936991E+04  2.290163E+03
       266   9  7.690574E+05  8.172181E+04 -3.389207E+04  3.235480E+05  9.504376E+03 -5.979909E+02
       266  10  1.139751E+06  2.409419E+05  9.501262E+04  4.202106E+05 -1.138419E-09  1.134308E-08
       266  11  1.124197E+06  2.033667E+05  6.843675E+04  4.104971E+05 -1.185715E-09  2.739929E-08
       266  12  1.103714E+06  2.050253E+05  5.583987E+04  4.120359E+05 -2.638430E-09  1.593068E-08
       266  13  9.389070E+05  1.610208E+05  4.002556E+04  3.610762E+05 -2.836416E-09  5.555583E-09
       266  14  9.401233E+05  1.325976E+05  1.858893E+04  3.588056E+05 -1.554896E-09 -1.650333E-08
       266  15  9.363723E+05  1.433728E+05  1.097500E+04  3.677866E+05 -5.536370E-09  1.103273E-08
       266  16  7.381022E+05  8.110317E+04 -1.496517E+04  3.019593E+05 -6.196108E-09 -7.178386E-09
       266  17  7.560818E+05  6.183085E+04 -3.126187E+04  3.071279E+05 -5.019557E-09 -1.142839E-09
       266  18  7.690573E+05  8.172179E+04 -3.389224E+04  3.235480E+05 -4.817532E-09  5.376703E-09
       266  19  1.139751E+06  2.409422E+05  9.501428E+04  4.202108E+05 -2.911307E+04 -5.805961E+03
       266  20  1.124198E+06  2.033668E+05  6.843744E+04  4.104971E+05 -1.906822E+04 -2.175775E+03
       266  21  1.103714E+06  2.050253E+05  5.584002E+04  4.120359E+05 -8.799833E+03  8.658318E+02
       266  22  9.389079E+05  1.610210E+05  4.002721E+04  3.610763E+05 -2.906216E+04 -5.786294E+03
       266  23  9.401237E+05  1.325977E+05  1.858963E+04  3.588056E+05 -1.921909E+04 -2.232979E+03
       266  24  9.363723E+05  1.433728E+05  1.097516E+04  3.677866E+05 -9.152157E+03  7.318926E+02
       266  25  7.381031E+05  8.110343E+04 -1.496353E+04  3.019594E+05 -2.901127E+04 -5.766634E+03
       266  26  7.560822E+05  6.183096E+04 -3.126116E+04  3.071279E+05 -1.936991E+04 -2.290163E+03
       266  27  7.690574E+05  8.172181E+04 -3.389207E+04  3.235480E+05 -9.504376E+03  5.979909E+02
       267   1  1.059929E+06  1.934593E+05  4.224856E+04  4.006671E+05  7.143314E+03 -9.156405E+02
       267   2  1.048876E+06  1.766708E+05  3.325853E+04  3.882426E+05  4.638286E+03 -1.137932E+03
       267   3  1.024921E+06  1.773931E+05  2.680378E+04  3.912691E+05  2.114984E+03 -1.312768E+03
       267   4  9.356664E+05  1.458626E+05  8.675948E+03  3.659424E+05  7.349892E+03 -8.371148E+02
       267   5  9.419568E+05  1.359824E+05  4.377418E+03  3.586457E+05  4.861342E+03 -1.053093E+03
       267   6  9.353425E+05  1.436104E+05  2.601645E+03  3.668001E+05  2.354448E+03 -1.221638E+03
       267   7  8.114180E+05  9.826669E+04 -2.489811E+04  3.312239E+05  7.556426E+03 -7.586066E+02
       267   8  8.350483E+05  9.529467E+04 -2.450474E+04  3.290533E+05  5.084355E+03 -9.682692E+02
       267   9  8.457714E+05  1.098283E+05 -2.160121E+04  3.423342E+05  2.593874E+03 -1.130522E+03
       267  10  1.059929E+06  1.934593E+05  4.224847E+04  4.006671E+05  5.820786E-09  1.428298E-08
       267  11  1.048876E+06  1.766708E+05  3.325849E+04  3.882426E+05  1.349142E-09  3.649483E-09
       267  12  1.024921E+06  1.773931E+05  2.680377E+04  3.912691E+05 -1.741807E-09  1.365484E-08
       267  13  9.356663E+05  1.458625E+05  8.675845E+03  3.659424E+05 -8.461881E-10  4.443904E-09
       267  14  9.419568E+05  1.359824E+05  4.377372E+03  3.586457E+05  3.289839E-09  8.320121E-09
       267  15  9.353425E+05  1.436104E+05  2.601631E+03  3.668001E+05 -1.836748E-09  1.083931E-08
       267  16  8.114180E+05  9.826668E+04 -2.489822E+04  3.312239E+05 -1.305653E-08  1.017969E-08
       267  17  8.350483E+05  9.529466E+04 -2.450479E+04  3.290533E+05 -7.299783E-09  1.039495E-08
       267  18  8.457714E+05  1.098283E+05 -2.160122E+04  3.423342E+05  1.176994E-10  2.498539E-09
       267  19  1.059929E+06  1.934593E+05  4.224856E+04  4.006671E+05 -7.143314E+03  9.156405E+02
       267  20  1.048876E+06  1.766708E+05  3.325853E+04  3.882426E+05 -4.638286E+03  1.137932E+03
       267  21  1.024921E+06  1.773931E+05  2.680378E+04  3.912691E+05 -2.114984E+03  1.312768E+03
       267  22  9.356664E+05  1.458626E+05  8.675948E+03  3.659424E+05 -7.349892E+03  8.371148E+02
       267  23  9.419568E+05  1.359824E+05  4.377418E+03  3.586457E+05 -4.861342E+03  1.053093E+03
       267  24  9.353425E+05  1.436104E+05  2.601645E+03  3.668001E+05 -2.354448E+03  1.221638E+03
       267  25  8.114180E+05  9.826669E+04 -2.489811E+04  3.312239E+05 -7.556426E+03  7.586066E+02
       267  26  8.350483E+05  9.529467E+04 -2.450474E+04  3.290533E+05 -5.084355E+03  9.682692E+02
       267  27  8.457714E+05  1.098283E+05 -2.160121E+04  3.423342E+05 -2.593874E+03  1.130522E+03
       268   1  9.852520E+05  1.628483E+05  1.551202E+04  3.803236E+05  1.589617E+03 -1.051624E+03
       268   2  9.750813E+05  1.490367E+05  1.021663E+04  3.678446E+05  6.702139E+02 -6.375549E+02
       268   3  9.512309E+05  1.496415E+05  5.543046E+03  3.709307E+05 -2.492977E+02 -2.233294E+02
       268   4  9.353040E+05  1.438370E+05  2.082133E+03  3.664785E+05  1.814781E+03 -9.659151E+02
       268   5  9.421275E+05  1.365128E+05  1.317662E+03  3.587401E+05  8.954809E+02 -5.517954E+02
       268   6  9.352708E+05  1.436052E+05  1.175000E+03  3.665669E+05 -2.395010E+01 -1.375251E+02
       268   7  8.853586E+05  1.248258E+05 -1.134795E+04  3.526343E+05  2.039925E+03 -8.802146E+02
       268   8  9.091746E+05  1.239890E+05 -7.581401E+03  3.496361E+05  1.120735E+03 -4.660409E+02
       268   9  9.193109E+05  1.375688E+05 -3.193077E+03  3.622031E+05  2.013915E+02 -5.172307E+01
       268  10  9.852520E+05  1.628483E+05  1.551202E+04  3.803236E+05  2.880649E-09  7.500386E-09
       268  11  9.750813E+05  1.490367E+05  1.021663E+04  3.678446E+05  1.239178E-09  4.068562E-09
       268  12  9.512309E+05  1.496415E+05  5.543045E+03  3.709307E+05 -9.135266E-09  5.418691E-09
       268  13  9.353040E+05  1.438370E+05  2.082125E+03  3.664785E+05 -9.096184E-10  2.443488E-09
       268  14  9.421275E+05  1.365128E+05  1.317660E+03  3.587401E+05 -1.887883E-09  2.519499E-08
       268  15  9.352708E+05  1.436052E+05  1.175000E+03  3.665669E+05 -2.051358E-09 -3.614012E-09
       268  16  8.853586E+05  1.248258E+05 -1.134796E+04  3.526343E+05 -6.023108E-09  1.799566E-09
       268  17  9.091746E+05  1.239890E+05 -7.581404E+03  3.496361E+05  8.380141E-09  1.898495E-08
       268  18  9.193109E+05  1.375688E+05 -3.193077E+03  3.622031E+05  4.247283E-09  1.697778E-09
       268  19  9.852520E+05  1.628483E+05  1.551202E+04  3.803236E+05 -1.589617E+03  1.051624E+03
       268  20  9.750813E+05  1.490367E+05  1.021663E+04  3.678446E+05 -6.702139E+02  6.375549E+02
       268  21  9.512309E+05  1.496415E+05  5.543046E+03  3.709307E+05  2.492977E+02  2.233294E+02
       268  22  9.353040E+05  1.438370E+05  2.082133E+03  3.664785E+05 -1.814781E+03  9.659151E+02
       268  23  9.421275E+05  1.365128E+05  1.317662E+03  3.587401E+05 -8.954809E+02  5.517954E+02
       268  24  9.352708E+05  1.436052E+05  1.175000E+03  3.665669E+05  2.395010E+01  1.375251E+02
       268  25  8.853586E+05  1.248258E+05 -1.134795E+04  3.526343E+05 -2.039925E+03  8.802146E+02
       268  26  9.091746E+05  1.239890E+05 -7.581401E+03  3.496361E+05 -1.120735E+03  4.660409E+02
       268  27  9.193109E+05  1.375688E+05 -3.193077E+03  3.622031E+05 -2.013915E+02  5.172307E+01
       269   1  9.123730E+05  1.349311E+05 -5.003230E+03  3.603186E+05 -5.967589E+02  8.913141E+01
       269   2  9.022009E+05  1.213142E+05 -9.104091E+03  3.477101E+05 -1.697321E+03  4.348512E+02
       269   3  8.784196E+05  1.222975E+05 -1.240314E+04  3.506546E+05 -2.798168E+03  7.817016E+02
       269   4  9.352784E+05  1.435911E+05  1.237360E+03  3.665849E+05 -3.715240E+02  1.748920E+02
       269   5  9.421106E+05  1.364818E+05  1.673734E+03  3.587359E+05 -1.471771E+03  5.207151E+02
       269   6  9.353332E+05  1.439725E+05  2.911613E+03  3.664395E+05 -2.572327E+03  8.676601E+02
       269   7  9.581843E+05  1.522511E+05  7.477903E+03  3.728515E+05 -1.462800E+02  2.606560E+02
       269   8  9.820218E+05  1.516494E+05  1.245140E+04  3.697623E+05 -1.246205E+03  6.065850E+02
       269   9  9.922498E+05  1.656476E+05  1.822605E+04  3.822258E+05 -2.346464E+03  9.536271E+02
       269  10  9.123730E+05  1.349311E+05 -5.003231E+03  3.603186E+05  4.600990E-09 -1.875578E-09
       269  11  9.022009E+05  1.213142E+05 -9.104097E+03  3.477101E+05  1.061871E-08 -1.919803E-08
       269  12  8.784196E+05  1.222975E+05 -1.240316E+04  3.506546E+05 -4.935396E-09 -2.665444E-08
       269  13  9.352784E+05  1.435911E+05  1.237360E+03  3.665849E+05 -2.610015E-10  2.417760E-08
       269  14  9.421106E+05  1.364818E+05  1.673729E+03  3.587359E+05  3.275936E-09  1.152621E-08
       269  15  9.353332E+05  1.439725E+05  2.911599E+03  3.664395E+05  6.242325E-10  5.756912E-09
       269  16  9.581843E+05  1.522511E+05  7.477903E+03  3.728515E+05 -9.728372E-09  8.148728E-09
       269  17  9.820218E+05  1.516494E+05  1.245140E+04  3.697623E+05 -3.165361E-09 -5.212014E-09
       269  18  9.922498E+05  1.656476E+05  1.822604E+04  3.822258E+05  7.000903E-09 -1.445124E-09
       269  19  9.123730E+05  1.349311E+05 -5.003230E+03  3.603186E+05  5.967589E+02 -8.913141E+01
       269  20  9.022009E+05  1.213142E+05 -9.104091E+03  3.477101E+05  1.697321E+03 -4.348512E+02
       269  21  8.784196E+05  1.222975E+05 -1.240314E+04  3.506546E+05  2.798168E+03 -7.817016E+02
       269  22  9.352784E+05  1.435911E+05  1.237360E+03  3.665849E+05  3.715240E+02 -1.748920E+02
       269  23  9.421106E+05  1.364818E+05  1.673734E+03  3.587359E+05  1.471771E+03 -5.207151E+02
       269  24  9.353332E+05  1.439725E+05  2.911613E+03  3.664395E+05  2.572327E+03 -8.676601E+02
       269  25  9.581843E+05  1.522511E+05  7.477903E+03  3.728515E+05  1.462800E+02 -2.606560E+02
       269  26  9.820218E+05  1.516494E+05  1.245140E+04  3.697623E+05  1.246205E+03 -6.065850E+02
       269  27  9.922498E+05  1.656476E+05  1.822605E+04  3.822258E+05  2.346464E+03 -9.536271E+02
       270   1  8.386492E+05  1.071968E+05 -2.241730E+04  3.405406E+05 -3.512799E+03  9.728617E+02
       270   2  8.277204E+05  9.228907E+04 -2.446266E+04  3.270369E+05 -7.024912E+03  4.254100E+02
       270   3  8.045043E+05  9.640285E+04 -2.284260E+04  3.287198E+05 -1.051838E+04 -1.702127E+02
       270   4  9.354293E+05  1.435970E+05  3.708867E+03  3.668744E+05 -3.272322E+03  1.064369E+03
       270   5  9.418097E+05  1.357424E+05  6.366010E+03  3.586499E+05 -6.801302E+03  5.104482E+02
       270   6  9.359059E+05  1.469121E+05  1.270150E+04  3.656119E+05 -1.031173E+04 -9.168108E+01
       270   7  1.032219E+06  1.799978E+05  2.983425E+04  3.932118E+05 -3.031803E+03  1.155892E+03
       270   8  1.055912E+06  1.791966E+05  3.719355E+04  3.902681E+05 -6.577645E+03  5.955039E+02
       270   9  1.067324E+06  1.974225E+05  4.824406E+04  4.025111E+05 -1.010504E+04 -1.313059E+01
       270  10  8.386492E+05  1.071967E+05 -2.241732E+04  3.405406E+05 -5.513727E-09 -8.284542E-09
       270  11  8.277203E+05  9.228906E+04 -2.446275E+04  3.270369E+05 -5.597122E-09 -2.115272E-08
       270  12  8.045042E+05  9.640282E+04 -2.284281E+04  3.287198E+05 -4.233323E-09 -1.716979E-08
       270  13  9.354293E+05  1.435970E+05  3.708845E+03  3.668744E+05 -2.063811E-09  6.367754E-09
       270  14  9.418096E+05  1.357424E+05  6.365923E+03  3.586499E+05 -1.843316E-09  1.931774E-08
       270  15  9.359058E+05  1.469121E+05  1.270130E+04  3.656119E+05  3.659416E-10 -2.574669E-09
       270  16  1.032219E+06  1.799978E+05  2.983423E+04  3.932118E+05  4.752388E-09  1.212669E-08
       270  17  1.055912E+06  1.791966E+05  3.719347E+04  3.902681E+05  1.574408E-09  7.167220E-09
       270  18  1.067324E+06  1.974225E+05  4.824386E+04  4.025111E+05 -8.098903E-10  1.684026E-09
       270  19  8.386492E+05  1.071968E+05 -2.241730E+04  3.405406E+05  3.512799E+03 -9.728617E+02
       270  20  8.277204E+05  9.228907E+04 -2.446266E+04  3.270369E+05  7.024912E+03 -4.254100E+02
       270  21  8.045043E+05  9.640285E+04 -2.284260E+04  3.287198E+05  1.051838E+04  1.702127E+02
       270  22  9.354293E+05  1.435970E+05  3.708867E+03  3.668744E+05  3.272322E+03 -1.064369E+03
       270  23  9.418097E+05  1.357424E+05  6.366010E+03  3.586499E+05  6.801302E+03 -5.104482E+02
       270  24  9.359059E+05  1.469121E+05  1.270150E+04  3.656119E+05  1.031173E+04  9.168108E+01
       270  25  1.032219E+06  1.799978E+05  2.983425E+04  3.932118E+05  3.031803E+03 -1.155892E+03
       270  26  1.055912E+06  1.791966E+05  3.719355E+04  3.902681E+05  6.577645E+03 -5.955039E+02
       270  27  1.067324E+06  1.974225E+05  4.824406E+04  4.025111E+05  1.010504E+04  1.313059E+01
       271   1  7.615340E+05  7.929672E+04 -3.081936E+04  3.226260E+05 -1.322024E+04 -6.112360E+02
       271   2  7.475980E+05  5.689012E+04 -2.465289E+04  3.048614E+05 -2.765055E+04 -5.226029E+03
       271   3  7.333650E+05  8.493106E+04  1.634048E+03  2.956785E+05 -4.185097E+04 -1.044385E+04
       271   4  9.370267E+05  1.431689E+05  1.608308E+04  3.682229E+05 -1.286388E+04 -4.757487E+02
       271   5  9.390176E+05  1.308839E+05  2.727299E+04  3.590066E+05 -2.750208E+04 -5.169793E+03
       271   6  9.407482E+05  1.690801E+05  5.874308E+04  3.583722E+05 -4.191084E+04 -1.046717E+04
       271   7  1.112549E+06  2.070422E+05  6.298275E+04  4.138310E+05 -1.250742E+04 -3.402233E+02
       271   8  1.130472E+06  2.048803E+05  7.919557E+04  4.131670E+05 -2.735356E+04 -5.113535E+03
       271   9  1.148173E+06  2.532336E+05  1.158483E+05  4.210855E+05 -4.197074E+04 -1.049049E+04
       271  10  7.615338E+05  7.929667E+04 -3.081969E+04  3.226260E+05  7.351589E-09 -1.308601E-08
       271  11  7.475972E+05  5.688988E+04 -2.465437E+04  3.048613E+05  4.750510E-09  6.408880E-09
       271  12  7.333631E+05  8.493047E+04  1.630556E+03  2.956782E+05 -2.393203E-09  1.101509E-08
       271  13  9.370265E+05  1.431689E+05  1.608277E+04  3.682229E+05 -2.083235E-09 -9.752260E-09
       271  14  9.390168E+05  1.308837E+05  2.727152E+04  3.590065E+05  6.489081E-09  7.034244E-10
       271  15  9.407463E+05  1.690795E+05  5.873958E+04  3.583719E+05 -8.309976E-10  4.251169E-09
       271  16  1.112548E+06  2.070422E+05  6.298246E+04  4.138310E+05 -3.291863E-09  6.102186E-09
       271  17  1.130472E+06  2.048801E+05  7.919412E+04  4.131669E+05  2.395406E-09 -2.440386E-08
       271  18  1.148171E+06  2.532330E+05  1.158448E+05  4.210852E+05  3.662546E-09 -1.086455E-08
       271  19  7.615340E+05  7.929672E+04 -3.081936E+04  3.226260E+05  1.322024E+04  6.112360E+02
       271  20  7.475980E+05  5.689012E+04 -2.465289E+04  3.048614E+05  2.765055E+04  5.226029E+03
       271  21  7.333650E+05  8.493106E+04  1.634048E+03  2.956785E+05  4.185097E+04  1.044385E+04
       271  22  9.370267E+05  1.431689E+05  1.608308E+04  3.682229E+05  1.286388E+04  4.757487E+02
       271  23  9.390176E+05  1.308839E+05  2.727299E+04  3.590066E+05  2.750208E+04  5.169793E+03
       271  24  9.407482E+05  1.690801E+05  5.874308E+04  3.583722E+05  4.191084E+04  1.046717E+04
       271  25  1.112549E+06  2.070422E+05  6.298275E+04  4.138310E+05  1.250742E+04  3.402233E+02
       271  26  1.130472E+06  2.048803E+05  7.919557E+04  4.131670E+05  2.735356E+04  5.113535E+03
       271  27  1.148173E+06  2.532336E+05  1.158483E+05  4.210855E+05  4.197074E+04  1.049049E+04
       272   1  6.780939E+05  5.596141E+04  2.462501E+03  3.228492E+05 -5.430482E+04 -1.365150E+04
       272   2  6.488447E+05 -1.808645E+04  4.087878E+04  2.780310E+05 -1.162825E+05 -3.591469E+04
       272   3  7.122861E+05  1.927617E+05  1.987498E+05  1.821898E+05 -1.760802E+05 -6.391620E+04
       272   4  9.495576E+05  1.382610E+05  7.168791E+04  3.766159E+05 -5.298042E+04 -1.314670E+04
       272   5  9.173716E+05  9.569660E+04  1.155528E+05  3.641746E+05 -1.169228E+05 -3.616058E+04
       272   6  9.782150E+05  3.383391E+05  2.803873E+05  3.007234E+05 -1.786852E+05 -6.491943E+04
       272   7  1.221093E+06  2.205597E+05  1.409078E+05  4.304009E+05 -5.165538E+04 -1.264176E+04
       272   8  1.185968E+06  2.094889E+05  1.902199E+05  4.503533E+05 -1.175633E+05 -3.640661E+04
       272   9  1.244215E+06  4.839463E+05  3.620174E+05  4.193095E+05 -1.812913E+05 -6.592357E+04
       272  10  6.780907E+05  5.596042E+04  2.456616E+03  3.228486E+05  1.253954E-08  1.581248E-08
       272  11  6.488298E+05 -1.809146E+04  4.085098E+04  2.780277E+05  9.355483E-09  3.641083E-10
       272  12  7.122517E+05  1.927490E+05  1.986840E+05  1.821807E+05 -3.183301E-09 -4.299374E-09
       272  13  9.495545E+05  1.382601E+05  7.168232E+04  3.766154E+05  3.781728E-09  5.663255E-09
       272  14  9.173566E+05  9.569154E+04  1.155247E+05  3.641712E+05  7.309758E-09 -8.300044E-09
       272  15  9.781797E+05  3.383260E+05  2.803195E+05  3.007141E+05  4.812533E-09  8.766286E-10
       272  16  1.221090E+06  2.205588E+05  1.409025E+05  4.304004E+05 -7.289550E-09 -1.853637E-08
       272  17  1.185952E+06  2.094838E+05  1.901915E+05  4.503499E+05  6.122441E-09 -1.242085E-08
       272  18  1.244179E+06  4.839329E+05  3.619477E+05  4.192999E+05  8.352789E-09 -4.649136E-09
       272  19  6.780939E+05  5.596141E+04  2.462501E+03  3.228492E+05  5.430482E+04  1.365150E+04
       272  20  6.488447E+05 -1.808645E+04  4.087878E+04  2.780310E+05  1.162825E+05  3.591469E+04
       272  21  7.122861E+05  1.927617E+05  1.987498E+05  1.821898E+05  1.760802E+05  6.391620E+04
       272  22  9.495576E+05  1.382610E+05  7.168791E+04  3.766159E+05  5.298042E+04  1.314670E+04
       272  23  9.173716E+05  9.569660E+04  1.155528E+05  3.641746E+05  1.169228E+05  3.616058E+04
       272  24  9.782150E+05  3.383391E+05  2.803873E+05  3.007234E+05  1.786852E+05  6.491943E+04
       272  25  1.221093E+06  2.205597E+05  1.409078E+05  4.304009E+05  5.165538E+04  1.264176E+04
       272  26  1.185968E+06  2.094889E+05  1.902199E+05  4.503533E+05  1.175633E+05  3.640661E+04
       272  27  1.244215E+06  4.839463E+05  3.620174E+05  4.193095E+05  1.812913E+05  6.592357E+04
       273   1 -1.341353E+05 -1.092452E+06 -1.537421E+05  3.659306E+04 -1.785098E+03 -6.019575E+04
       273   2 -4.414356E+04 -1.049459E+06 -9.694366E+04  9.075678E+03 -5.620289E+03 -3.636128E+04
       273   3 -4.826329E+04 -1.032700E+06 -7.913731E+04  1.243591E+04 -4.445342E+03 -1.250580E+04
       273   4 -6.903415E+04 -8.326351E+05 -8.915633E+04  1.930731E+04 -1.792426E+03 -5.796605E+04
       273   5  1.314073E+04 -8.196639E+05 -4.077450E+04  4.009443E+03 -5.621573E+03 -3.592477E+04
       273   6  1.534243E+03 -8.326058E+05 -3.012691E+04  1.958952E+04 -4.440458E+03 -1.386371E+04
       273   7 -3.936963E+03 -5.727565E+05 -2.457550E+04  2.014373E+03 -1.799876E+03 -5.573540E+04
       273   8  7.042119E+04 -5.898206E+05  1.539082E+04 -1.058629E+03 -5.622863E+03 -3.548809E+04
       273   9  5.132902E+04 -6.324748E+05  1.888059E+04  2.674547E+04 -4.435607E+03 -1.522206E+04
       273  10 -1.341363E+05 -1.092456E+06 -1.537489E+05  3.659297E+04 -6.053985E-10 -3.853121E-09
       273  11 -4.414395E+04 -1.049460E+06 -9.694621E+04  9.075513E+03 -2.940378E-09  3.631094E-09
       273  12 -4.826336E+04 -1.032700E+06 -7.913764E+04  1.243587E+04  2.695018E-09 -4.606671E-09
       273  13 -6.903506E+04 -8.326387E+05 -8.916266E+04  1.930723E+04 -6.427352E-10 -2.191728E-09
       273  14  1.314034E+04 -8.196653E+05 -4.077699E+04  4.009280E+03 -3.116786E-09 -2.336438E-09
       273  15  1.534170E+03 -8.326060E+05 -3.012731E+04  1.958947E+04 -2.815708E-10 -5.604480E-09
       273  16 -3.937801E+03 -5.727599E+05 -2.458134E+04  2.014293E+03  5.343393E-10  5.963093E-10
       273  17  7.042081E+04 -5.898220E+05  1.538839E+04 -1.058789E+03  3.513363E-09  2.150503E-08
       273  18  5.132893E+04 -6.324750E+05  1.888011E+04  2.674542E+04 -5.316213E-09  7.920657E-09
       273  19 -1.341353E+05 -1.092452E+06 -1.537421E+05  3.659306E+04  1.785098E+03  6.019575E+04
       273  20 -4.414356E+04 -1.049459E+06 -9.694366E+04  9.075678E+03  5.620289E+03  3.636128E+04
       273  21 -4.826329E+04 -1.032700E+06 -7.913731E+04  1.243591E+04  4.445342E+03  1.250580E+04
       273  22 -6.903415E+04 -8.326351E+05 -8.915633E+04  1.930731E+04  1.792426E+03  5.796605E+04
       273  23  1.314073E+04 -8.196639E+05 -4.077450E+04  4.009443E+03  5.621573E+03  3.592477E+04
       273  24  1.534243E+03 -8.326058E+05 -3.012691E+04  1.958952E+04  4.440458E+03  1.386371E+04
       273  25 -3.936963E+03 -5.727565E+05 -2.457550E+04  2.014373E+03  1.799876E+03  5.573540E+04
       273  26  7.042119E+04 -5.898206E+05  1.539082E+04 -1.058629E+03  5.622863E+03  3.548809E+04
       273  27  5.132902E+04 -6.324748E+05  1.888059E+04  2.674547E+04  4.435607E+03  1.522206E+04
       274   1 -4.244528E+04 -9.651651E+05 -6.092810E+04  2.333177E+04 -3.045329E+03 -8.632967E+03
       274   2 -2.257745E+04 -9.303424E+05 -4.826073E+04  3.835272E+03 -2.474432E+03  3.107471E+03
       274   3 -2.959444E+04 -9.034671E+05 -4.990383E+04  1.650761E+04 -1.517375E+03  1.484956E+04
       274   4 -8.385804E+03 -8.286080E+05 -2.746906E+04  1.977906E+04 -3.044700E+03 -8.785089E+03
       274   5  3.756844E+03 -8.246469E+05 -2.238811E+04  3.690927E+03 -2.473398E+03  2.818428E+03
       274   6 -1.095903E+04 -8.286091E+05 -3.152062E+04  1.977146E+04 -1.515839E+03  1.442302E+04
       274   7  2.567234E+04 -6.920338E+05  5.988621E+03  1.622558E+04 -3.044069E+03 -8.937245E+03
       274   8  3.009031E+04 -7.189413E+05  3.483684E+03  3.546567E+03 -2.472363E+03  2.529335E+03
       274   9  7.676002E+03 -7.537460E+05 -1.313782E+04  2.303571E+04 -1.514307E+03  1.399643E+04
       274  10 -4.244531E+04 -9.651652E+05 -6.092825E+04  2.333175E+04  1.932326E-09 -6.147437E-09
       274  11 -2.257746E+04 -9.303424E+05 -4.826076E+04  3.835278E+03  1.868485E-10  1.518623E-09
       274  12 -2.959450E+04 -9.034673E+05 -4.990425E+04  1.650763E+04  5.551136E-10 -3.231750E-09
       274  13 -8.385835E+03 -8.286081E+05 -2.746922E+04  1.977904E+04 -3.878056E-10 -5.571847E-09
       274  14  3.756836E+03 -8.246469E+05 -2.238814E+04  3.690933E+03 -2.727463E-09  1.428359E-08
       274  15 -1.095909E+04 -8.286094E+05 -3.152102E+04  1.977148E+04 -2.532631E-09  2.601345E-09
       274  16  2.567230E+04 -6.920339E+05  5.988453E+03  1.622556E+04 -2.643502E-09  9.317165E-09
       274  17  3.009030E+04 -7.189413E+05  3.483661E+03  3.546572E+03 -1.095345E-09  2.318849E-08
       274  18  7.675947E+03 -7.537462E+05 -1.313819E+04  2.303573E+04 -7.845773E-10  1.320629E-08
       274  19 -4.244528E+04 -9.651651E+05 -6.092810E+04  2.333177E+04  3.045329E+03  8.632967E+03
       274  20 -2.257745E+04 -9.303424E+05 -4.826073E+04  3.835272E+03  2.474432E+03 -3.107471E+03
       274  21 -2.959444E+04 -9.034671E+05 -4.990383E+04  1.650761E+04  1.517375E+03 -1.484956E+04
       274  22 -8.385804E+03 -8.286080E+05 -2.746906E+04  1.977906E+04  3.044700E+03  8.785089E+03
       274  23  3.756844E+03 -8.246469E+05 -2.238811E+04  3.690927E+03  2.473398E+03 -2.818428E+03
       274  24 -1.095903E+04 -8.286091E+05 -3.152062E+04  1.977146E+04  1.515839E+03 -1.442302E+04
       274  25  2.567234E+04 -6.920338E+05  5.988621E+03  1.622558E+04  3.044069E+03  8.937245E+03
       274  26  3.009031E+04 -7.189413E+05  3.483684E+03  3.546567E+03  2.472363E+03 -2.529335E+03
       274  27  7.676002E+03 -7.537460E+05 -1.313782E+04  2.303571E+04  1.514307E+03 -1.399643E+04
       275   1  1.451433E+02 -8.442826E+05 -3.822880E+04  2.967376E+04 -5.832105E+02  2.101007E+04
       275   2  2.201748E+04 -7.967264E+05 -4.597301E+04 -2.077299E+03  4.524437E+02  4.818078E+04
       275   3 -7.544586E+04 -7.822764E+05 -1.011966E+05 -1.653244E+03  8.452623E+01  7.534793E+04
       275   4  2.722392E+03 -8.342152E+05 -3.581325E+04  1.988921E+04 -5.813293E+02  2.035194E+04
       275   5  1.676627E+04 -8.176348E+05 -5.107017E+04  3.645944E+03  4.534103E+02  4.802606E+04
       275   6 -8.861647E+04 -8.342520E+05 -1.141585E+05  1.957802E+04  8.591250E+01  7.569526E+04
       275   7  5.299992E+03 -8.241474E+05 -3.339765E+04  1.010449E+04 -5.794273E+02  1.969381E+04
       275   8  1.151514E+04 -8.385427E+05 -5.616734E+04  9.368993E+03  4.543739E+02  4.787136E+04
       275   9 -1.017856E+05 -8.862241E+05 -1.271204E+05  4.080750E+04  8.732270E+01  7.604256E+04
       275  10  1.450242E+02 -8.442831E+05 -3.822963E+04  2.967377E+04  1.601864E-09 -3.101119E-09
       275  11  2.201686E+04 -7.967289E+05 -4.597738E+04 -2.077317E+03  2.292576E-09  8.176969E-09
       275  12 -7.544739E+04 -7.822825E+05 -1.012073E+05 -1.653249E+03 -3.718370E-10 -9.371747E-10
       275  13  2.722280E+03 -8.342156E+05 -3.581403E+04  1.988921E+04  7.947691E-10  1.394578E-09
       275  14  1.676565E+04 -8.176373E+05 -5.107451E+04  3.645926E+03  2.187188E-09  1.534063E-09
       275  15 -8.861801E+04 -8.342581E+05 -1.141693E+05  1.957802E+04  1.224614E-09 -4.339526E-09
       275  16  5.299888E+03 -8.241479E+05 -3.339838E+04  1.010450E+04 -1.513742E-09  3.260162E-09
       275  17  1.151453E+04 -8.385452E+05 -5.617165E+04  9.368976E+03  3.277480E-09  1.525359E-08
       275  18 -1.017871E+05 -8.862304E+05 -1.271313E+05  4.080750E+04  2.962638E-11  5.417388E-09
       275  19  1.451433E+02 -8.442826E+05 -3.822880E+04  2.967376E+04  5.832105E+02 -2.101007E+04
       275  20  2.201748E+04 -7.967264E+05 -4.597301E+04 -2.077299E+03 -4.524437E+02 -4.818078E+04
       275  21 -7.544586E+04 -7.822764E+05 -1.011966E+05 -1.653244E+03 -8.452623E+01 -7.534793E+04
       275  22  2.722392E+03 -8.342152E+05 -3.581325E+04  1.988921E+04  5.813293E+02 -2.035194E+04
       275  23  1.676627E+04 -8.176348E+05 -5.107017E+04  3.645944E+03 -4.534103E+02 -4.802606E+04
       275  24 -8.861647E+04 -8.342520E+05 -1.141585E+05  1.957802E+04 -8.591250E+01 -7.569526E+04
       275  25  5.299992E+03 -8.241474E+05 -3.339765E+04  1.010449E+04  5.794273E+02 -1.969381E+04
       275  26  1.151514E+04 -8.385427E+05 -5.616734E+04  9.368993E+03 -4.543739E+02 -4.787136E+04
       275  27 -1.017856E+05 -8.862241E+05 -1.271204E+05  4.080750E+04 -8.732270E+01 -7.604256E+04
       276   1  2.513502E+05 -3.366036E+04 -1.551854E+04  1.284054E+03  5.090601E+04  3.093809E+03
       276   2  2.648749E+05 -1.005842E+05 -5.297268E+04  3.723684E+03  3.476689E+04  8.914773E+03
       276   3  3.013215E+05 -8.564853E+04 -5.938693E+04 -1.976885E+04  1.863587E+04  7.741087E+03
       276   4  6.343017E+05  6.183627E+04  7.945348E+04 -1.296615E+04  5.429279E+04  3.097336E+03
       276   5  6.226388E+05 -1.161218E+04  3.434239E+04  4.343588E+01  3.562461E+04  8.915199E+03
       276   6  6.343220E+05 -2.788200E+03  2.201265E+04 -1.287782E+04  1.696523E+04  7.739634E+03
       276   7  1.017387E+06  1.573227E+05  1.744147E+05 -2.722519E+04  5.768164E+04  3.100707E+03
       276   8  9.805194E+05  7.735041E+04  1.216482E+05 -3.638970E+03  3.648281E+04  8.915615E+03
       276   9  9.674235E+05  8.006412E+04  1.034042E+05 -5.983116E+03  1.529370E+04  7.738144E+03
       276  10  2.513474E+05 -3.366107E+04 -1.552343E+04  1.283927E+03 -4.998232E-10 -4.092317E-11
       276  11  2.648736E+05 -1.005846E+05 -5.297510E+04  3.723434E+03  5.706687E-10 -1.933582E-10
       276  12  3.013211E+05 -8.564869E+04 -5.938769E+04 -1.976897E+04  2.857336E-10  1.054725E-10
       276  13  6.342985E+05  6.183547E+04  7.944792E+04 -1.296629E+04  3.793775E-11 -7.147232E-11
       276  14  6.226374E+05 -1.161261E+04  3.433986E+04  4.318015E+01 -8.237651E-11 -1.115666E-10
       276  15  6.343216E+05 -2.788342E+03  2.201199E+04 -1.287793E+04 -9.589970E-10 -8.337134E-11
       276  16  1.017383E+06  1.573218E+05  1.744085E+05 -2.722534E+04  2.855584E-10  1.223125E-11
       276  17  9.805179E+05  7.734997E+04  1.216455E+05 -3.639232E+03 -4.202182E-10  2.369112E-11
       276  18  9.674232E+05  8.006399E+04  1.034036E+05 -5.983211E+03 -2.183000E-10 -1.828477E-10
       276  19  2.513502E+05 -3.366036E+04 -1.551854E+04  1.284054E+03 -5.090601E+04 -3.093809E+03
       276  20  2.648749E+05 -1.005842E+05 -5.297268E+04  3.723684E+03 -3.476689E+04 -8.914773E+03
       276  21  3.013215E+05 -8.564853E+04 -5.938693E+04 -1.976885E+04 -1.863587E+04 -7.741087E+03
       276  22  6.343017E+05  6.183627E+04  7.945348E+04 -1.296615E+04 -5.429279E+04 -3.097336E+03
       276  23  6.226388E+05 -1.161218E+04  3.434239E+04  4.343588E+01 -3.562461E+04 -8.915199E+03
       276  24  6.343220E+05 -2.788200E+03  2.201265E+04 -1.287782E+04 -1.696523E+04 -7.739634E+03
       276  25  1.017387E+06  1.573227E+05  1.744147E+05 -2.722519E+04 -5.768164E+04 -3.100707E+03
       276  26  9.805194E+05  7.735041E+04  1.216482E+05 -3.638970E+03 -3.648281E+04 -8.915615E+03
       276  27  9.674235E+05  8.006412E+04  1.034042E+05 -5.983116E+03 -1.529370E+04 -7.738144E+03
       277   1  3.470646E+05 -6.257910E+04 -5.113501E+04 -1.102705E+04  1.336089E+04  6.174474E+03
       277   2  3.689487E+05 -6.599298E+04 -5.442545E+04  1.155082E+01  8.985303E+03  6.015316E+03
       277   3  3.941799E+05 -5.900602E+04 -5.223164E+04 -1.352027E+04  4.609458E+03  5.142420E+03
       277   4  6.298920E+05  7.798397E+03  1.808844E+04 -1.260568E+04  1.343725E+04  6.174308E+03
       277   5  6.281990E+05 -1.497590E+03  8.942937E+03 -3.182236E+02  8.802727E+03  6.015062E+03
       277   6  6.298960E+05 -3.502022E+02  5.459602E+03 -1.260050E+04  4.168106E+03  5.142193E+03
       277   7  9.127922E+05  7.816999E+04  8.730604E+04 -1.418504E+04  1.351365E+04  6.174143E+03
       277   8  8.875104E+05  6.299284E+04  7.230642E+04 -6.481432E+02  8.620074E+03  6.014808E+03
       277   9  8.656626E+05  5.830151E+04  6.314678E+04 -1.168039E+04  3.726586E+03  5.141964E+03
       277  10  3.470644E+05 -6.257919E+04 -5.113542E+04 -1.102711E+04 -6.291884E-10  9.633170E-11
       277  11  3.689486E+05 -6.599304E+04 -5.442567E+04  1.150729E+01  5.752080E-10 -9.169548E-11
       277  12  3.941799E+05 -5.900606E+04 -5.223173E+04 -1.352029E+04  2.060275E-09  3.366988E-10
       277  13  6.298918E+05  7.798308E+03  1.808802E+04 -1.260574E+04  5.609917E-10 -4.900817E-11
       277  14  6.281989E+05 -1.497650E+03  8.942723E+03 -3.182662E+02 -2.996046E-10 -8.775118E-11
       277  15  6.298960E+05 -3.502352E+02  5.459520E+03 -1.260052E+04  5.737115E-11  3.401138E-10
       277  16  9.127920E+05  7.816990E+04  8.730562E+04 -1.418510E+04 -4.444189E-11 -1.286564E-10
       277  17  8.875103E+05  6.299278E+04  7.230621E+04 -6.481849E+02 -1.622874E-09 -6.832451E-11
       277  18  8.656626E+05  5.830148E+04  6.314671E+04 -1.168040E+04 -1.450545E-09  4.781826E-10
       277  19  3.470646E+05 -6.257910E+04 -5.113501E+04 -1.102705E+04 -1.336089E+04 -6.174474E+03
       277  20  3.689487E+05 -6.599298E+04 -5.442545E+04  1.155082E+01 -8.985303E+03 -6.015316E+03
       277  21  3.941799E+05 -5.900602E+04 -5.223164E+04 -1.352027E+04 -4.609458E+03 -5.142420E+03
       277  22  6.298920E+05  7.798397E+03  1.808844E+04 -1.260568E+04 -1.343725E+04 -6.174308E+03
       277  23  6.281990E+05 -1.497590E+03  8.942937E+03 -3.182236E+02 -8.802727E+03 -6.015062E+03
       277  24  6.298960E+05 -3.502022E+02  5.459602E+03 -1.260050E+04 -4.168106E+03 -5.142193E+03
       277  25  9.127922E+05  7.816999E+04  8.730604E+04 -1.418504E+04 -1.351365E+04 -6.174143E+03
       277  26  8.875104E+05  6.299284E+04  7.230642E+04 -6.481432E+02 -8.620074E+03 -6.014808E+03
       277  27  8.656626E+05  5.830151E+04  6.314678E+04 -1.168039E+04 -3.726586E+03 -5.141964E+03
       278   1  4.414236E+05 -4.575558E+04 -4.153628E+04 -1.222863E+04  3.552786E+03  4.546716E+03
       278   2  4.637877E+05 -4.129611E+04 -3.802740E+04 -5.503092E+02  2.381276E+03  3.792575E+03
       278   3  4.866957E+05 -3.551562E+04 -3.341345E+04 -1.249164E+04  1.209382E+03  2.976239E+03
       278   4  6.292701E+05  9.654117E+02  4.332273E+03 -1.239088E+04  3.293059E+03  4.546590E+03
       278   5  6.289967E+05 -1.963014E+02  2.361262E+03 -5.811918E+02  2.098821E+03  3.792506E+03
       278   6  6.292710E+05 -3.314769E+01  1.510951E+03 -1.239076E+04  9.042415E+02  2.976237E+03
       278   7  8.171487E+05  4.768380E+04  5.019826E+04 -1.255317E+04  3.033254E+03  4.546463E+03
       278   8  7.942306E+05  4.090149E+04  4.274793E+04 -6.120826E+02  1.816291E+03  3.792437E+03
       278   9  7.718648E+05  3.544782E+04  3.643386E+04 -1.228986E+04  5.990309E+02  2.976234E+03
       278  10  4.414236E+05 -4.575560E+04 -4.153635E+04 -1.222864E+04 -1.625099E-09  2.256097E-10
       278  11  4.637877E+05 -4.129612E+04 -3.802743E+04 -5.503165E+02 -1.419221E-09  1.020794E-10
       278  12  4.866957E+05 -3.551563E+04 -3.341347E+04 -1.249164E+04 -1.786453E-10 -2.890646E-11
       278  13  6.292700E+05  9.653866E+02  4.332214E+03 -1.239089E+04 -2.241922E-10  3.807653E-10
       278  14  6.289967E+05 -1.963180E+02  2.361227E+03 -5.811982E+02 -4.204086E-10 -6.988885E-11
       278  15  6.292710E+05 -3.315742E+01  1.510933E+03 -1.239076E+04 -5.246607E-10 -2.155313E-10
       278  16  8.171486E+05  4.768377E+04  5.019820E+04 -1.255318E+04  1.267782E-09  4.739404E-10
       278  17  7.942306E+05  4.090147E+04  4.274790E+04 -6.120882E+02  1.295673E-09 -4.672407E-11
       278  18  7.718648E+05  3.544781E+04  3.643385E+04 -1.228986E+04 -4.712363E-10 -1.776660E-10
       278  19  4.414236E+05 -4.575558E+04 -4.153628E+04 -1.222863E+04 -3.552786E+03 -4.546716E+03
       278  20  4.637877E+05 -4.129611E+04 -3.802740E+04 -5.503092E+02 -2.381276E+03 -3.792575E+03
       278  21  4.866957E+05 -3.551562E+04 -3.341345E+04 -1.249164E+04 -1.209382E+03 -2.976239E+03
       278  22  6.292701E+05  9.654117E+02  4.332273E+03 -1.239088E+04 -3.293059E+03 -4.546590E+03
       278  23  6.289967E+05 -1.963014E+02  2.361262E+03 -5.811918E+02 -2.098821E+03 -3.792506E+03
       278  24  6.292710E+05 -3.314769E+01  1.510951E+03 -1.239076E+04 -9.042415E+02 -2.976237E+03
       278  25  8.171487E+05  4.768380E+04  5.019826E+04 -1.255317E+04 -3.033254E+03 -4.546463E+03
       278  26  7.942306E+05  4.090149E+04  4.274793E+04 -6.120826E+02 -1.816291E+03 -3.792437E+03
       278  27  7.718648E+05  3.544782E+04  3.643386E+04 -1.228986E+04 -5.990309E+02 -2.976234E+03
       279   1  5.329968E+05 -2.379538E+04 -2.218677E+04 -1.223841E+04  9.415684E+02  2.494986E+03
       279   2  5.550570E+05 -1.845717E+04 -1.714844E+04 -7.136038E+02  4.642299E+02  1.697366E+03
       279   3  5.772350E+05 -1.289305E+04 -1.174344E+04 -1.227456E+04 -1.329512E+01  8.991300E+02
       279   4  6.291787E+05  1.177740E+02  1.258515E+03 -1.227218E+04  6.543820E+02  2.495017E+03
       279   5  6.291203E+05 -3.300497E+01  9.574386E+02 -7.293922E+02  1.767548E+02  1.697423E+03
       279   6  6.291789E+05  4.211985E+01  1.023142E+03 -1.227219E+04 -3.010419E+02  8.992163E+02
       279   7  7.253690E+05  2.403024E+04  2.470313E+04 -1.230596E+04  3.671513E+02  2.495047E+03
       279   8  7.031886E+05  1.839076E+04  1.906292E+04 -7.451823E+02 -1.107544E+02  1.697481E+03
       279   9  6.811252E+05  1.297709E+04  1.378953E+04 -1.226982E+04 -5.888128E+02  8.993026E+02
       279  10  5.329968E+05 -2.379538E+04 -2.218678E+04 -1.223841E+04 -1.990151E-10 -1.372731E-11
       279  11  5.550570E+05 -1.845718E+04 -1.714845E+04 -7.136044E+02  3.531985E-11 -6.655593E-11
       279  12  5.772350E+05 -1.289305E+04 -1.174345E+04 -1.227456E+04 -2.954016E-11 -7.092579E-11
       279  13  6.291787E+05  1.177672E+02  1.258502E+03 -1.227218E+04 -5.017952E-10 -9.998470E-11
       279  14  6.291203E+05 -3.300807E+01  9.574331E+02 -7.293925E+02 -4.353313E-10  1.866586E-10
       279  15  6.291789E+05  4.211896E+01  1.023140E+03 -1.227219E+04  3.490982E-10 -9.128962E-11
       279  16  7.253690E+05  2.403024E+04  2.470312E+04 -1.230596E+04  1.769648E-10  8.198729E-11
       279  17  7.031886E+05  1.839076E+04  1.906291E+04 -7.451822E+02  4.478985E-10  5.371309E-11
       279  18  6.811252E+05  1.297709E+04  1.378953E+04 -1.226982E+04 -2.220961E-10 -1.126846E-10
       279  19  5.329968E+05 -2.379538E+04 -2.218677E+04 -1.223841E+04 -9.415684E+02 -2.494986E+03
       279  20  5.550570E+05 -1.845717E+04 -1.714844E+04 -7.136038E+02 -4.642299E+02 -1.697366E+03
       279  21  5.772350E+05 -1.289305E+04 -1.174344E+04 -1.227456E+04  1.329512E+01 -8.991300E+02
       279  22  6.291787E+05  1.177740E+02  1.258515E+03 -1.227218E+04 -6.543820E+02 -2.495017E+03
       279  23  6.291203E+05 -3.300497E+01  9.574386E+02 -7.293922E+02 -1.767548E+02 -1.697423E+03
       279  24  6.291789E+05  4.211985E+01  1.023142E+03 -1.227219E+04  3.010419E+02 -8.992163E+02
       279  25  7.253690E+05  2.403024E+04  2.470313E+04 -1.230596E+04 -3.671513E+02 -2.495047E+03
       279  26  7.031886E+05  1.839076E+04  1.906292E+04 -7.451823E+02  1.107544E+02 -1.697481E+03
       279  27  6.811252E+05  1.297709E+04  1.378953E+04 -1.226982E+04  5.888128E+02 -8.993026E+02
       280   1  6.229900E+05 -1.523513E+03 -2.936662E+02 -1.219688E+04 -2.104711E+02  4.341817E+02
       280   2  6.448787E+05  3.857896E+03  5.553904E+03 -7.679745E+02 -1.059482E+03 -3.618472E+02
       280   3  6.669812E+05  9.717935E+03  1.206983E+04 -1.229253E+04 -1.908487E+03 -1.153329E+03
       280   4  6.292011E+05  7.852544E+00  1.156273E+03 -1.224287E+04 -4.981712E+02  4.342766E+02
       280   5  6.290943E+05 -6.843948E+01  1.695480E+03 -7.660708E+02 -1.345529E+03 -3.617596E+02
       280   6  6.292007E+05  3.336618E+02  2.901959E+03 -1.224277E+04 -2.192852E+03 -1.153247E+03
       280   7  6.354121E+05  1.539215E+03  2.606209E+03 -1.228886E+04 -7.858742E+02  4.343716E+02
       280   8  6.133102E+05 -3.994793E+03 -2.162961E+03 -7.641672E+02 -1.631569E+03 -3.616720E+02
       280   9  5.914215E+05 -9.050716E+03 -6.266019E+03 -1.219301E+04 -2.477200E+03 -1.153165E+03
       280  10  6.229900E+05 -1.523513E+03 -2.936667E+02 -1.219688E+04  4.206471E-10 -7.326606E-11
       280  11  6.448787E+05  3.857895E+03  5.553901E+03 -7.679748E+02 -4.673562E-10  1.677507E-10
       280  12  6.669812E+05  9.717933E+03  1.206983E+04 -1.229253E+04  5.706821E-10  8.440481E-11
       280  13  6.292011E+05  7.852275E+00  1.156272E+03 -1.224287E+04  2.125101E-10  4.076642E-11
       280  14  6.290943E+05 -6.844011E+01  1.695477E+03 -7.660712E+02  3.982297E-10  1.529041E-10
       280  15  6.292007E+05  3.336590E+02  2.901948E+03 -1.224277E+04  2.522214E-10 -6.135339E-11
       280  16  6.354121E+05  1.539215E+03  2.606208E+03 -1.228886E+04 -3.941393E-11 -3.195168E-11
       280  17  6.133102E+05 -3.994794E+03 -2.162966E+03 -7.641676E+02  5.545707E-10  2.114449E-11
       280  18  5.914214E+05 -9.050719E+03 -6.266033E+03 -1.219301E+04  1.750804E-10 -2.728276E-10
       280  19  6.229900E+05 -1.523513E+03 -2.936662E+02 -1.219688E+04  2.104711E+02 -4.341817E+02
       280  20  6.448787E+05  3.857896E+03  5.553904E+03 -7.679745E+02  1.059482E+03  3.618472E+02
       280  21  6.669812E+05  9.717935E+03  1.206983E+04 -1.229253E+04  1.908487E+03  1.153329E+03
       280  22  6.292011E+05  7.852544E+00  1.156273E+03 -1.224287E+04  4.981712E+02 -4.342766E+02
       280  23  6.290943E+05 -6.843948E+01  1.695480E+03 -7.660708E+02  1.345529E+03  3.617596E+02
       280  24  6.292007E+05  3.336618E+02  2.901959E+03 -1.224277E+04  2.192852E+03  1.153247E+03
       280  25  6.354121E+05  1.539215E+03  2.606209E+03 -1.228886E+04  7.858742E+02 -4.343716E+02
       280  26  6.133102E+05 -3.994793E+03 -2.162961E+03 -7.641672E+02  1.631569E+03  3.616720E+02
       280  27  5.914215E+05 -9.050716E+03 -6.266019E+03 -1.219301E+04  2.477200E+03  1.153165E+03
       281   1  7.131054E+05  2.071865E+04  2.422532E+04 -1.199887E+04 -2.488143E+03 -1.627277E+03
       281   2  7.346994E+05  2.582554E+04  3.210390E+04 -7.928445E+02 -5.653134E+03 -2.431507E+03
       281   3  7.576225E+05  3.454376E+04  4.294681E+04 -1.281417E+04 -8.817963E+03 -3.180832E+03
       281   4  6.294464E+05 -1.039559E+02  3.707822E+03 -1.230387E+04 -2.787813E+03 -1.627207E+03
       281   5  6.287825E+05 -5.195700E+02  6.215003E+03 -6.899181E+02 -5.932541E+03 -2.431485E+03
       281   6  6.294444E+05  2.673137E+03  1.167298E+04 -1.230355E+04 -9.076996E+03 -3.180857E+03
       281   7  5.457937E+05 -2.092708E+04 -1.681019E+04 -1.260883E+04 -3.087442E+03 -1.627137E+03
       281   8  5.228758E+05 -2.686551E+04 -1.967471E+04 -5.870088E+02 -6.211901E+03 -2.431463E+03
       281   9  5.012812E+05 -2.919870E+04 -1.960205E+04 -1.179304E+04 -9.335976E+03 -3.180881E+03
       281  10  7.131054E+05  2.071864E+04  2.422530E+04 -1.199887E+04  1.228444E-10  2.568965E-11
       281  11  7.346994E+05  2.582552E+04  3.210383E+04 -7.928555E+02 -6.185213E-10  8.602465E-11
       281  12  7.576224E+05  3.454373E+04  4.294664E+04 -1.281419E+04  5.709659E-10 -9.942970E-11
       281  13  6.294464E+05 -1.039608E+02  3.707803E+03 -1.230388E+04  9.033633E-11 -1.974764E-10
       281  14  6.287825E+05 -5.195858E+02  6.214926E+03 -6.899297E+02 -1.446197E-13 -1.835573E-11
       281  15  6.294443E+05  2.673104E+03  1.167280E+04 -1.230358E+04 -1.367984E-10 -2.245549E-10
       281  16  5.457937E+05 -2.092708E+04 -1.681021E+04 -1.260883E+04  1.070253E-10 -2.403605E-10
       281  17  5.228757E+05 -2.686552E+04 -1.967480E+04 -5.870210E+02 -8.313625E-11  3.992871E-11
       281  18  5.012812E+05 -2.919873E+04 -1.960223E+04 -1.179307E+04 -5.399463E-10 -2.617223E-10
       281  19  7.131054E+05  2.071865E+04  2.422532E+04 -1.199887E+04  2.488143E+03  1.627277E+03
       281  20  7.346994E+05  2.582554E+04  3.210390E+04 -7.928445E+02  5.653134E+03  2.431507E+03
       281  21  7.576225E+05  3.454376E+04  4.294681E+04 -1.281417E+04  8.817963E+03  3.180832E+03
       281  22  6.294464E+05 -1.039559E+02  3.707822E+03 -1.230387E+04  2.787813E+03  1.627207E+03
       281  23  6.287825E+05 -5.195700E+02  6.215003E+03 -6.899181E+02  5.932541E+03  2.431485E+03
       281  24  6.294444E+05  2.673137E+03  1.167298E+04 -1.230355E+04  9.076996E+03  3.180857E+03
       281  25  5.457937E+05 -2.092708E+04 -1.681019E+04 -1.260883E+04  3.087442E+03  1.627137E+03
       281  26  5.228758E+05 -2.686551E+04 -1.967471E+04 -5.870089E+02  6.211901E+03  2.431463E+03
       281  27  5.012812E+05 -2.919870E+04 -1.960205E+04 -1.179304E+04  9.335976E+03  3.180881E+03
       282   1  8.061231E+05  4.260743E+04  5.760153E+04 -1.005784E+04 -1.102618E+04 -3.747850E+03
       282   2  8.245983E+05  4.517560E+04  7.269804E+04 -1.634546E+03 -2.385355E+04 -4.596457E+03
       282   3  8.519667E+05  7.627198E+04  1.032892E+05 -1.711504E+04 -3.668143E+04 -4.847509E+03
       282   4  6.311153E+05 -9.335374E+02  1.476352E+04 -1.245245E+04 -1.143731E+04 -3.747866E+03
       282   5  6.266817E+05 -4.047629E+03  2.433624E+04 -5.034790E+02 -2.404581E+04 -4.596625E+03
       282   6  6.311058E+05  2.133352E+04  4.925538E+04 -1.245858E+04 -3.665434E+04 -4.847889E+03
       282   7  4.561352E+05 -4.447675E+04 -2.807672E+04 -1.484639E+04 -1.184833E+04 -3.747878E+03
       282   8  4.288007E+05 -5.327375E+04 -2.402843E+04  6.272255E+02 -2.423800E+04 -4.596793E+03
       282   9  4.102893E+05 -3.360846E+04 -4.782003E+03 -7.803791E+03 -3.662725E+04 -4.848268E+03
       282  10  8.061230E+05  4.260738E+04  5.760127E+04 -1.005787E+04  6.678574E-10 -1.212078E-10
       282  11  8.245977E+05  4.517543E+04  7.269694E+04 -1.634634E+03  5.536736E-10  5.953022E-11
       282  12  8.519653E+05  7.627160E+04  1.032866E+05 -1.711518E+04  3.216541E-10 -1.247122E-10
       282  13  6.311151E+05 -9.335875E+02  1.476325E+04 -1.245249E+04  4.739703E-10 -2.033264E-10
       282  14  6.266810E+05 -4.047807E+03  2.433511E+04 -5.035680E+02  2.147251E-10 -3.768082E-11
       282  15  6.311044E+05  2.133314E+04  4.925282E+04 -1.245873E+04 -4.965505E-10 -2.194604E-10
       282  16  4.561351E+05 -4.447680E+04 -2.807701E+04 -1.484643E+04 -1.219822E-10 -2.912905E-10
       282  17  4.288001E+05 -5.327393E+04 -2.402957E+04  6.271358E+02 -5.348826E-10 -1.187256E-10
       282  18  4.102879E+05 -3.360885E+04 -4.784567E+03 -7.803934E+03 -3.325270E-10 -1.775018E-10
       282  19  8.061231E+05  4.260743E+04  5.760153E+04 -1.005784E+04  1.102618E+04  3.747850E+03
       282  20  8.245983E+05  4.517560E+04  7.269804E+04 -1.634546E+03  2.385355E+04  4.596457E+03
       282  21  8.519667E+05  7.627198E+04  1.032892E+05 -1.711504E+04  3.668143E+04  4.847509E+03
       282  22  6.311153E+05 -9.335374E+02  1.476352E+04 -1.245245E+04  1.143731E+04  3.747866E+03
       282  23  6.266817E+05 -4.047629E+03  2.433624E+04 -5.034790E+02  2.404581E+04  4.596625E+03
       282  24  6.311058E+05  2.133352E+04  4.925538E+04 -1.245858E+04  3.665434E+04  4.847889E+03
       282  25  4.561352E+05 -4.447675E+04 -2.807672E+04 -1.484639E+04  1.184833E+04  3.747878E+03
       282  26  4.288007E+05 -5.327375E+04 -2.402843E+04  6.272255E+02  2.423800E+04  4.596793E+03
       282  27  4.102893E+05 -3.360846E+04 -4.782003E+03 -7.803791E+03  3.662725E+04  4.848268E+03
       283   1  9.125385E+05  5.949437E+04  1.257849E+05  5.645314E+03 -4.482538E+04 -6.229352E+03
       283   2  9.049954E+05  4.134576E+04  1.651948E+05 -1.092785E+04 -9.780902E+04 -7.349706E+03
       283   3  9.606755E+05  2.476975E+05  2.952393E+05 -5.257540E+04 -1.507989E+05 -2.624793E+03
       283   4  6.431175E+05 -7.531360E+03  5.994160E+04 -1.266861E+04 -4.625966E+04 -6.228825E+03
       283   5  6.116513E+05 -3.156875E+04  9.363528E+04 -2.087995E+02 -9.711707E+04 -7.351165E+03
       283   6  6.430682E+05  1.685793E+05  2.165184E+05 -1.282164E+04 -1.479784E+05 -2.631974E+03
       283   7  3.737632E+05 -7.456120E+04 -5.906792E+03 -3.097458E+04 -4.769333E+04 -6.228212E+03
       283   8  3.183859E+05 -1.044892E+05  2.206952E+04  1.050516E+04 -9.642544E+04 -7.352600E+03
       283   9  3.255558E+05  8.945945E+04  1.377909E+05  2.691177E+04 -1.451594E+05 -2.638798E+03
       283  10  9.125364E+05  5.949379E+04  1.257810E+05  5.645089E+03  2.824632E-11  3.278147E-11
       283  11  9.049851E+05  4.134314E+04  1.651768E+05 -1.092842E+04  3.056809E-10  2.032223E-10
       283  12  9.606512E+05  2.476914E+05  2.951966E+05 -5.257572E+04  4.260623E-10 -9.384664E-11
       283  13  6.431152E+05 -7.531976E+03  5.993751E+04 -1.266884E+04  2.693555E-10 -2.900738E-11
       283  14  6.116412E+05 -3.157133E+04  9.361747E+04 -2.093743E+02 -2.662686E-10  1.277828E-10
       283  15  6.430447E+05  1.685734E+05  2.164773E+05 -1.282196E+04 -8.715196E-10  4.471468E-11
       283  16  3.737607E+05 -7.456185E+04 -5.911137E+03 -3.097482E+04  1.133448E-10 -8.880355E-11
       283  17  3.183759E+05 -1.044917E+05  2.205195E+04  1.050459E+04  1.364058E-10  4.780694E-10
       283  18  3.255332E+05  8.945379E+04  1.377513E+05  2.691146E+04 -7.632512E-11  1.389103E-10
       283  19  9.125385E+05  5.949437E+04  1.257849E+05  5.645314E+03  4.482538E+04  6.229352E+03
       283  20  9.049954E+05  4.134576E+04  1.651948E+05 -1.092785E+04  9.780902E+04  7.349706E+03
       283  21  9.606755E+05  2.476975E+05  2.952393E+05 -5.257540E+04  1.507989E+05  2.624793E+03
       283  22  6.431175E+05 -7.531360E+03  5.994160E+04 -1.266861E+04  4.625966E+04  6.228825E+03
       283  23  6.116513E+05 -3.156875E+04  9.363528E+04 -2.087995E+02  9.711707E+04  7.351165E+03
       283  24  6.430682E+05  1.685793E+05  2.165184E+05 -1.282164E+04  1.479784E+05  2.631974E+03
       283  25  3.737632E+05 -7.456120E+04 -5.906792E+03 -3.097458E+04  4.769333E+04  6.228212E+03
       283  26  3.183859E+05 -1.044892E+05  2.206952E+04  1.050516E+04  9.642544E+04  7.352600E+03
       283  27  3.255558E+05  8.945945E+04  1.377909E+05  2.691177E+04  1.451594E+05  2.638798E+03
       284   1  1.212194E+05  8.731130E+05  1.383468E+05 -4.389296E+04  1.657374E+03  5.795198E+04
       284   2  3.375392E+04  8.107689E+05  7.852823E+04 -6.786819E+03  4.584634E+03  3.770433E+04
       284   3  2.966370E+04  7.717352E+05  5.269218E+04 -2.237849E+04  2.665564E+03  1.744930E+04
       284   4  6.292547E+04  6.396516E+05  8.043168E+04 -2.877687E+04  1.661982E+03  5.602335E+04
       284   5 -1.166347E+04  6.281553E+05  3.399891E+04 -2.482988E+03  4.585282E+03  3.752855E+04
       284   6 -3.167295E+03  6.396726E+05  2.034198E+04 -2.888697E+04  2.662329E+03  1.902469E+04
       284   7  4.628312E+03  4.062400E+05  2.251265E+04 -1.366644E+04  1.666497E+03  5.409545E+04
       284   8 -5.708324E+04  4.455721E+05 -1.053282E+04  1.819590E+03  4.585927E+03  3.735282E+04
       284   9 -3.599941E+04  5.076261E+05 -1.200946E+04 -3.539406E+04  2.659061E+03  2.059975E+04
       284  10  1.212185E+05  8.731094E+05  1.383405E+05 -4.389304E+04 -1.154675E-10  1.433747E-09
       284  11  3.375351E+04  8.107674E+05  7.852552E+04 -6.786958E+03 -7.234482E-10  5.742080E-12
       284  12  2.966361E+04  7.717348E+05  5.269160E+04 -2.237852E+04  1.300049E-09 -1.963903E-09
       284  13  6.292462E+04  6.396482E+05  8.042579E+04 -2.877695E+04  4.090787E-10 -6.761697E-11
       284  14 -1.166387E+04  6.281538E+05  3.399623E+04 -2.483126E+03 -2.618333E-09  1.625316E-10
       284  15 -3.167400E+03  6.396723E+05  2.034129E+04 -2.888701E+04  3.563780E-10 -1.024862E-11
       284  16  4.627524E+03  4.062368E+05  2.250715E+04 -1.366651E+04 -7.163829E-10 -1.446168E-09
       284  17 -5.708364E+04  4.455706E+05 -1.053548E+04  1.819452E+03 -9.890300E-10  9.239141E-11
       284  18 -3.599954E+04  5.076256E+05 -1.201027E+04 -3.539410E+04 -1.488104E-11  1.873814E-09
       284  19  1.212194E+05  8.731130E+05  1.383468E+05 -4.389296E+04 -1.657374E+03 -5.795198E+04
       284  20  3.375392E+04  8.107689E+05  7.852823E+04 -6.786819E+03 -4.584634E+03 -3.770433E+04
       284  21  2.966370E+04  7.717352E+05  5.269218E+04 -2.237849E+04 -2.665564E+03 -1.744930E+04
       284  22  6.292547E+04  6.396516E+05  8.043168E+04 -2.877687E+04 -1.661982E+03 -5.602335E+04
       284  23 -1.166347E+04  6.281553E+05  3.399891E+04 -2.482988E+03 -4.585282E+03 -3.752855E+04
       284  24 -3.167295E+03  6.396726E+05  2.034198E+04 -2.888697E+04 -2.662329E+03 -1.902469E+04
       284  25  4.628312E+03  4.062400E+05  2.251265E+04 -1.366644E+04 -1.666497E+03 -5.409545E+04
       284  26 -5.708324E+04  4.455721E+05 -1.053282E+04  1.819590E+03 -4.585927E+03 -3.735282E+04
       284  27 -3.599941E+04  5.076261E+05 -1.200946E+04 -3.539406E+04 -2.659061E+03 -2.059975E+04
       285   1  1.502331E+04  6.622131E+05  2.239052E+04 -3.015222E+04  7.819386E+02  1.535146E+04
       285   2 -6.494309E+03  6.111358E+05 -9.631924E+02 -3.156298E+03 -5.606076E+02  1.296277E+04
       285   3 -2.230052E+04  5.615452E+05 -2.138851E+04 -2.865217E+04 -1.821528E+03  1.057454E+04
       285   4  8.228820E+03  6.348896E+05  1.575380E+04 -2.879040E+04  7.809752E+02  1.585154E+04
       285   5 -7.735243E+02  6.341472E+05  4.659654E+03 -2.556643E+03 -5.615143E+02  1.343379E+04
       285   6 -4.059072E+03  6.348948E+05 -3.485128E+03 -2.881450E+04 -1.822380E+03  1.101630E+04
       285   7  1.434285E+03  6.075669E+05  9.117035E+03 -2.742865E+04  7.800141E+02  1.635159E+04
       285   8  4.947223E+03  6.571591E+05  1.028246E+04 -1.956965E+03 -5.624200E+02  1.390482E+04
       285   9  1.418198E+04  7.082493E+05  1.441786E+04 -2.897684E+04 -1.823232E+03  1.145811E+04
       285  10  1.502324E+04  6.622128E+05  2.239008E+04 -3.015223E+04  1.632114E-10 -1.001341E-09
       285  11 -6.494354E+03  6.111356E+05 -9.635085E+02 -3.156292E+03  3.727169E-10 -2.934300E-10
       285  12 -2.230055E+04  5.615451E+05 -2.138872E+04 -2.865216E+04 -6.723391E-10  2.048797E-10
       285  13  8.228752E+03  6.348894E+05  1.575333E+04 -2.879041E+04  3.920000E-10  7.521895E-13
       285  14 -7.735730E+02  6.341470E+05  4.659314E+03 -2.556637E+03  1.379911E-09 -1.623478E-10
       285  15 -4.059109E+03  6.348947E+05 -3.485362E+03 -2.881448E+04  1.555459E-09 -1.737295E-10
       285  16  1.434212E+03  6.075666E+05  9.116532E+03 -2.742866E+04  2.901373E-10  1.086990E-09
       285  17  4.947170E+03  6.571588E+05  1.028210E+04 -1.956959E+03 -1.074640E-09  2.880296E-10
       285  18  1.418194E+04  7.082492E+05  1.441761E+04 -2.897682E+04 -1.896976E-10 -2.112588E-10
       285  19  1.502331E+04  6.622131E+05  2.239052E+04 -3.015222E+04 -7.819386E+02 -1.535146E+04
       285  20 -6.494309E+03  6.111358E+05 -9.631924E+02 -3.156298E+03  5.606076E+02 -1.296277E+04
       285  21 -2.230052E+04  5.615452E+05 -2.138851E+04 -2.865217E+04  1.821528E+03 -1.057454E+04
       285  22  8.228820E+03  6.348896E+05  1.575380E+04 -2.879040E+04 -7.809752E+02 -1.585154E+04
       285  23 -7.735243E+02  6.341472E+05  4.659654E+03 -2.556643E+03  5.615143E+02 -1.343379E+04
       285  24 -4.059072E+03  6.348948E+05 -3.485128E+03 -2.881450E+04  1.822380E+03 -1.101630E+04
       285  25  1.434285E+03  6.075669E+05  9.117035E+03 -2.742865E+04 -7.800141E+02 -1.635159E+04
       285  26  4.947223E+03  6.571591E+05  1.028246E+04 -1.956965E+03  5.624200E+02 -1.390482E+04
       285  27  1.418198E+04  7.082493E+05  1.441786E+04 -2.897684E+04  1.823232E+03 -1.145811E+04
       286   1 -4.192472E+04  4.539063E+05 -5.026432E+04 -2.557901E+04 -3.817471E+03  1.014724E+04
       286   2 -5.150938E+04  4.085397E+05 -7.077843E+04 -4.094076E+03 -5.829445E+03  2.034474E+04
       286   3 -9.993019E+04  3.520342E+05 -1.076616E+05 -3.563390E+04 -2.176517E+03  3.055070E+04
       286   4  2.448335E+03  6.321563E+05 -6.615325E+03 -2.890468E+04 -3.820753E+03  1.188801E+04
       286   5  5.431974E+03  6.375531E+05 -1.491705E+04 -2.417761E+03 -5.828743E+03  2.004797E+04
       286   6 -3.005911E+04  6.321664E+05 -3.816914E+04 -2.895490E+04 -2.172583E+03  2.821727E+04
       286   7  4.681908E+04  8.104352E+05  3.703136E+04 -3.223129E+04 -3.824052E+03  1.362929E+04
       286   8  6.236947E+04  8.666143E+05  4.094051E+04 -7.408059E+02 -5.828043E+03  1.975109E+04
       286   9  3.980627E+04  9.123698E+05  3.131753E+04 -2.227286E+04 -2.168701E+03  2.588279E+04
       286  10 -4.192476E+04  4.539062E+05 -5.026454E+04 -2.557898E+04  1.072508E-11 -2.289177E-10
       286  11 -5.150953E+04  4.085392E+05 -7.077927E+04 -4.093981E+03  2.552621E-10 -1.669679E-10
       286  12 -9.993044E+04  3.520332E+05 -1.076634E+05 -3.563385E+04 -1.324138E-10  1.562978E-10
       286  13  2.448281E+03  6.321562E+05 -6.615617E+03 -2.890464E+04 -1.188383E-09  8.914469E-11
       286  14  5.431829E+03  6.375526E+05 -1.491787E+04 -2.417667E+03  4.462898E-10 -1.239583E-10
       286  15 -3.005933E+04  6.321655E+05 -3.817064E+04 -2.895485E+04 -4.803370E-10  1.856593E-11
       286  16  4.681901E+04  8.104350E+05  3.703098E+04 -3.223125E+04  6.823124E-10  1.867842E-10
       286  17  6.236933E+04  8.666139E+05  4.093971E+04 -7.407132E+02 -3.190286E-10  3.903289E-11
       286  18  3.980608E+04  9.123691E+05  3.131626E+04 -2.227282E+04 -8.107896E-10 -5.622162E-11
       286  19 -4.192472E+04  4.539063E+05 -5.026432E+04 -2.557901E+04  3.817471E+03 -1.014724E+04
       286  20 -5.150938E+04  4.085397E+05 -7.077843E+04 -4.094076E+03  5.829445E+03 -2.034474E+04
       286  21 -9.993019E+04  3.520342E+05 -1.076616E+05 -3.563390E+04  2.176517E+03 -3.055070E+04
       286  22  2.448335E+03  6.321563E+05 -6.615325E+03 -2.890468E+04  3.820753E+03 -1.188801E+04
       286  23  5.431974E+03  6.375531E+05 -1.491705E+04 -2.417761E+03  5.828743E+03 -2.004797E+04
       286  24 -3.005911E+04  6.321664E+05 -3.816914E+04 -2.895490E+04  2.172583E+03 -2.821727E+04
       286  25  4.681908E+04  8.104352E+05  3.703136E+04 -3.223129E+04  3.824052E+03 -1.362929E+04
       286  26  6.236947E+04  8.666143E+05  4.094051E+04 -7.408059E+02  5.828043E+03 -1.975109E+04
       286  27  3.980627E+04  9.123698E+05  3.131753E+04 -2.227286E+04  2.168701E+03 -2.588279E+04
       287   1 -8.055942E+05 -3.222134E+05 -2.488360E+05 -2.627791E+05 -1.203969E+05 -4.315202E+04
       287   2 -7.696710E+05 -1.436086E+05 -1.360554E+05 -2.862073E+05 -7.826909E+04 -2.295776E+04
       287   3 -7.987890E+05 -1.508489E+05 -1.045431E+05 -2.720557E+05 -3.448699E+04 -7.152491E+03
       287   4 -5.962043E+05 -2.136130E+05 -1.856506E+05 -1.755402E+05 -1.184105E+05 -4.241096E+04
       287   5 -5.544037E+05 -5.446122E+04 -7.649842E+04 -2.193232E+05 -7.774812E+04 -2.276304E+04
       287   6 -5.773302E+05 -8.082835E+04 -4.743091E+04 -2.255341E+05 -3.543129E+04 -7.506965E+03
       287   7 -3.867705E+05 -1.049975E+05 -1.224698E+05 -8.827127E+04 -1.164234E+05 -4.166938E+04
       287   8 -3.390917E+05  3.469144E+04 -1.694577E+04 -1.524174E+05 -7.722695E+04 -2.256822E+04
       287   9 -3.558238E+05 -1.080802E+04  9.677535E+03 -1.789990E+05 -3.637596E+04 -7.861527E+03
       287  10 -8.056103E+05 -3.222193E+05 -2.488668E+05 -2.627832E+05  2.785655E-10 -8.795537E-12
       287  11 -7.696777E+05 -1.436108E+05 -1.360680E+05 -2.862087E+05 -9.917386E-10 -1.138572E-10
       287  12 -7.987903E+05 -1.508493E+05 -1.045455E+05 -2.720559E+05  8.994294E-11 -1.354934E-10
       287  13 -5.962199E+05 -2.136187E+05 -1.856804E+05 -1.755443E+05  8.425879E-10  2.667923E-11
       287  14 -5.544103E+05 -5.446340E+04 -7.651077E+04 -2.193247E+05 -5.196107E-11 -1.198143E-10
       287  15 -5.773315E+05 -8.082875E+04 -4.743338E+04 -2.255343E+05  5.856334E-12 -1.663830E-10
       287  16 -3.867856E+05 -1.050030E+05 -1.224985E+05 -8.827518E+04 -9.356871E-11 -8.614950E-11
       287  17 -3.390983E+05  3.468929E+04 -1.695795E+04 -1.524188E+05 -2.154674E-10 -1.506926E-10
       287  18 -3.558252E+05 -1.080844E+04  9.674931E+03 -1.789993E+05  2.936435E-10  9.406308E-11
       287  19 -8.055942E+05 -3.222134E+05 -2.488360E+05 -2.627791E+05  1.203969E+05  4.315202E+04
       287  20 -7.696710E+05 -1.436086E+05 -1.360554E+05 -2.862073E+05  7.826909E+04  2.295776E+04
       287  21 -7.987890E+05 -1.508489E+05 -1.045431E+05 -2.720557E+05  3.448699E+04  7.152491E+03
       287  22 -5.962043E+05 -2.136130E+05 -1.856506E+05 -1.755402E+05  1.184105E+05  4.241096E+04
       287  23 -5.544037E+05 -5.446122E+04 -7.649842E+04 -2.193232E+05  7.774812E+04  2.276304E+04
       287  24 -5.773302E+05 -8.082835E+04 -4.743091E+04 -2.255341E+05  3.543129E+04  7.506965E+03
       287  25 -3.867705E+05 -1.049975E+05 -1.224698E+05 -8.827127E+04  1.164234E+05  4.166938E+04
       287  26 -3.390917E+05  3.469144E+04 -1.694577E+04 -1.524174E+05  7.722695E+04  2.256822E+04
       287  27 -3.558238E+05 -1.080802E+04  9.677535E+03 -1.789990E+05  3.637596E+04  7.861527E+03
       288   1 -7.570766E+05 -1.755218E+05 -8.985471E+04 -2.684251E+05 -2.821772E+04 -5.799472E+03
       288   2 -7.466292E+05 -1.450811E+05 -6.611757E+04 -2.646176E+05 -1.856826E+04 -2.103118E+03
       288   3 -7.375888E+05 -1.463992E+05 -5.591673E+04 -2.646653E+05 -8.728494E+03  1.087263E+03
       288   4 -5.710652E+05 -1.017433E+05 -3.887383E+04 -2.140048E+05 -2.811838E+04 -5.762414E+03
       288   5 -5.691575E+05 -7.726130E+04 -1.805274E+04 -2.153170E+05 -1.863654E+04 -2.128914E+03
       288   6 -5.686207E+05 -8.450080E+04 -1.063186E+04 -2.204851E+05 -8.964563E+03  9.985282E+02
       288   7 -3.850208E+05 -2.796186E+04  1.210378E+04 -1.595695E+05 -2.801901E+04 -5.725342E+03
       288   8 -3.916554E+05 -9.439459E+03  3.000927E+04 -1.660036E+05 -1.870485E+04 -2.154718E+03
       288   9 -3.996249E+05 -2.260098E+04  3.465059E+04 -1.762941E+05 -9.200703E+03  9.097682E+02
       288  10 -7.570775E+05 -1.755221E+05 -8.985627E+04 -2.684253E+05 -9.513094E-11 -7.382307E-11
       288  11 -7.466296E+05 -1.450812E+05 -6.611823E+04 -2.646176E+05  4.250184E-10  8.494721E-11
       288  12 -7.375889E+05 -1.463993E+05 -5.591688E+04 -2.646653E+05  5.102107E-10 -5.977374E-11
       288  13 -5.710660E+05 -1.017435E+05 -3.887538E+04 -2.140049E+05 -8.161483E-10 -5.942968E-11
       288  14 -5.691578E+05 -7.726140E+04 -1.805340E+04 -2.153170E+05 -2.581521E-10  9.084050E-12
       288  15 -5.686208E+05 -8.450082E+04 -1.063202E+04 -2.204851E+05 -2.744621E-10 -1.364482E-10
       288  16 -3.850217E+05 -2.796210E+04  1.210224E+04 -1.595697E+05 -5.372980E-10  7.568439E-12
       288  17 -3.916558E+05 -9.439558E+03  3.000861E+04 -1.660036E+05 -5.048597E-10 -2.209500E-10
       288  18 -3.996250E+05 -2.260100E+04  3.465043E+04 -1.762941E+05 -5.705683E-10 -2.446798E-10
       288  19 -7.570766E+05 -1.755218E+05 -8.985471E+04 -2.684251E+05  2.821772E+04  5.799472E+03
       288  20 -7.466292E+05 -1.450811E+05 -6.611757E+04 -2.646176E+05  1.856826E+04  2.103118E+03
       288  21 -7.375888E+05 -1.463992E+05 -5.591673E+04 -2.646653E+05  8.728494E+03 -1.087263E+03
       288  22 -5.710652E+05 -1.017433E+05 -3.887383E+04 -2.140048E+05  2.811838E+04  5.762414E+03
       288  23 -5.691575E+05 -7.726130E+04 -1.805274E+04 -2.153170E+05  1.863654E+04  2.128914E+03
       288  24 -5.686207E+05 -8.450080E+04 -1.063186E+04 -2.204851E+05  8.964563E+03 -9.985282E+02
       288  25 -3.850208E+05 -2.796186E+04  1.210378E+04 -1.595695E+05  2.801901E+04  5.725342E+03
       288  26 -3.916554E+05 -9.439459E+03  3.000927E+04 -1.660036E+05  1.870485E+04  2.154718E+03
       288  27 -3.996249E+05 -2.260098E+04  3.465059E+04 -1.762941E+05  9.200703E+03 -9.097682E+02
       289   1 -7.099820E+05 -1.413658E+05 -4.687957E+04 -2.583102E+05 -7.168219E+03  1.305588E+03
       289   2 -7.026940E+05 -1.297074E+05 -3.969387E+04 -2.505336E+05 -4.831579E+03  1.746365E+03
       289   3 -6.876700E+05 -1.301796E+05 -3.495180E+04 -2.524436E+05 -2.468923E+03  2.117378E+03
       289   4 -5.676037E+05 -8.729046E+04 -8.404959E+03 -2.190949E+05 -7.286358E+03  1.261152E+03
       289   5 -5.713167E+05 -8.011594E+04 -4.226463E+03 -2.146690E+05 -4.972710E+03  1.693331E+03
       289   6 -5.672889E+05 -8.506689E+04 -2.472891E+03 -2.199293E+05 -2.633093E+03  2.055733E+03
       289   7 -4.252060E+05 -3.321382E+04  3.006784E+04 -1.798715E+05 -7.404526E+03  1.216704E+03
       289   8 -4.399229E+05 -3.052356E+04  3.123937E+04 -1.787975E+05 -5.113873E+03  1.640284E+03
       289   9 -4.468941E+05 -3.995351E+04  3.000466E+04 -1.874095E+05 -2.797298E+03  1.994075E+03
       289  10 -7.099820E+05 -1.413659E+05 -4.687967E+04 -2.583102E+05 -2.131931E-10 -5.207180E-11
       289  11 -7.026941E+05 -1.297074E+05 -3.969392E+04 -2.505336E+05 -6.689928E-10 -1.097607E-10
       289  12 -6.876700E+05 -1.301796E+05 -3.495182E+04 -2.524436E+05  7.227550E-10  1.366054E-11
       289  13 -5.676038E+05 -8.729047E+04 -8.405061E+03 -2.190949E+05 -1.415223E-10 -2.442339E-10
       289  14 -5.713167E+05 -8.011595E+04 -4.226515E+03 -2.146689E+05 -1.355968E-09  1.069541E-11
       289  15 -5.672889E+05 -8.506689E+04 -2.472912E+03 -2.199293E+05 -1.162925E-10 -5.180710E-12
       289  16 -4.252061E+05 -3.321383E+04  3.006774E+04 -1.798715E+05 -2.781149E-10 -5.987881E-11
       289  17 -4.399230E+05 -3.052357E+04  3.123931E+04 -1.787975E+05 -4.550490E-10 -1.494691E-10
       289  18 -4.468941E+05 -3.995352E+04  3.000464E+04 -1.874095E+05  1.245150E-09  1.213203E-10
       289  19 -7.099820E+05 -1.413658E+05 -4.687957E+04 -2.583102E+05  7.168219E+03 -1.305588E+03
       289  20 -7.026940E+05 -1.297074E+05 -3.969387E+04 -2.505336E+05  4.831579E+03 -1.746365E+03
       289  21 -6.876700E+05 -1.301796E+05 -3.495180E+04 -2.524436E+05  2.468923E+03 -2.117378E+03
       289  22 -5.676037E+05 -8.729046E+04 -8.404959E+03 -2.190949E+05  7.286358E+03 -1.261152E+03
       289  23 -5.713167E+05 -8.011594E+04 -4.226463E+03 -2.146690E+05  4.972710E+03 -1.693331E+03
       289  24 -5.672889E+05 -8.506689E+04 -2.472891E+03 -2.199293E+05  2.633093E+03 -2.055733E+03
       289  25 -4.252060E+05 -3.321382E+04  3.006784E+04 -1.798715E+05  7.404526E+03 -1.216704E+03
       289  26 -4.399229E+05 -3.052356E+04  3.123937E+04 -1.787975E+05  5.113873E+03 -1.640284E+03
       289  27 -4.468941E+05 -3.995351E+04  3.000466E+04 -1.874095E+05  2.797298E+03 -1.994075E+03
       290   1 -6.607824E+05 -1.208307E+05 -2.721083E+04 -2.453939E+05 -2.016005E+03  1.975696E+03
       290   2 -6.536799E+05 -1.112665E+05 -2.329117E+04 -2.367943E+05 -1.248744E+03  1.748221E+03
       290   3 -6.372804E+05 -1.116611E+05 -1.993036E+04 -2.390014E+05 -4.758076E+02  1.505313E+03
       290   4 -5.670692E+05 -8.549246E+04 -1.959783E+03 -2.198370E+05 -2.165674E+03  1.919515E+03
       290   5 -5.717000E+05 -8.038667E+04 -1.172097E+03 -2.144812E+05 -1.403521E+03  1.690145E+03
       290   6 -5.670332E+05 -8.523874E+04 -9.392201E+02 -2.199321E+05 -6.357072E+02  1.445338E+03
       290   7 -4.733473E+05 -5.015360E+04  2.329054E+04 -1.942766E+05 -2.315368E+03  1.863324E+03
       290   8 -4.897135E+05 -4.950644E+04  2.094640E+04 -1.921654E+05 -1.558322E+03  1.632060E+03
       290   9 -4.967813E+05 -5.881605E+04  1.805149E+04 -2.008608E+05 -7.956266E+02  1.385357E+03
       290  10 -6.607824E+05 -1.208307E+05 -2.721085E+04 -2.453939E+05  8.155214E-10  1.026507E-10
       290  11 -6.536799E+05 -1.112665E+05 -2.329117E+04 -2.367943E+05 -4.466912E-10 -9.009527E-11
       290  12 -6.372804E+05 -1.116611E+05 -1.993037E+04 -2.390014E+05 -1.542225E-09 -2.901953E-10
       290  13 -5.670692E+05 -8.549247E+04 -1.959799E+03 -2.198370E+05  7.191240E-11 -9.356109E-11
       290  14 -5.717000E+05 -8.038667E+04 -1.172107E+03 -2.144812E+05 -1.209408E-09 -3.596597E-10
       290  15 -5.670332E+05 -8.523874E+04 -9.392247E+02 -2.199321E+05 -1.451143E-09 -4.375076E-10
       290  16 -4.733473E+05 -5.015360E+04  2.329052E+04 -1.942766E+05  1.111071E-09  3.387557E-11
       290  17 -4.897135E+05 -4.950645E+04  2.094639E+04 -1.921654E+05  2.166402E-10 -1.950565E-10
       290  18 -4.967813E+05 -5.881605E+04  1.805148E+04 -2.008608E+05 -1.364597E-09 -6.713492E-10
       290  19 -6.607824E+05 -1.208307E+05 -2.721083E+04 -2.453939E+05  2.016005E+03 -1.975696E+03
       290  20 -6.536799E+05 -1.112665E+05 -2.329117E+04 -2.367943E+05  1.248744E+03 -1.748221E+03
       290  21 -6.372804E+05 -1.116611E+05 -1.993036E+04 -2.390014E+05  4.758076E+02 -1.505313E+03
       290  22 -5.670692E+05 -8.549246E+04 -1.959783E+03 -2.198370E+05  2.165674E+03 -1.919515E+03
       290  23 -5.717000E+05 -8.038667E+04 -1.172097E+03 -2.144812E+05  1.403521E+03 -1.690145E+03
       290  24 -5.670332E+05 -8.523874E+04 -9.392201E+02 -2.199321E+05  6.357072E+02 -1.445338E+03
       290  25 -4.733473E+05 -5.015360E+04  2.329054E+04 -1.942766E+05  2.315368E+03 -1.863324E+03
       290  26 -4.897135E+05 -4.950644E+04  2.094640E+04 -1.921654E+05  1.558322E+03 -1.632060E+03
       290  27 -4.967813E+05 -5.881605E+04  1.805149E+04 -2.008608E+05  7.956266E+02 -1.385357E+03
       291   1 -6.098160E+05 -1.014454E+05 -1.245403E+04 -2.316798E+05 -2.186891E+02  1.287289E+03
       291   2 -6.025685E+05 -9.191916E+04 -9.471816E+03 -2.227843E+05  5.451212E+02  1.036637E+03
       291   3 -5.858170E+05 -9.256928E+04 -7.043085E+03 -2.249611E+05  1.309199E+03  7.851558E+02
       291   4 -5.669869E+05 -8.529145E+04 -9.387871E+02 -2.199891E+05 -3.771265E+02  1.227876E+03
       291   5 -5.717558E+05 -8.032308E+04 -1.160342E+03 -2.144080E+05  3.864340E+02  9.771388E+02
       291   6 -5.670208E+05 -8.553102E+04 -1.935170E+03 -2.198994E+05  1.150250E+03  7.255682E+02
       291   7 -5.241562E+05 -6.913742E+04  1.057627E+04 -2.082977E+05 -5.355756E+02  1.168458E+03
       291   8 -5.409422E+05 -6.872694E+04  7.151048E+03 -2.060314E+05  2.277381E+02  9.176373E+02
       291   9 -5.482243E+05 -7.849273E+04  3.172723E+03 -2.148375E+05  9.912963E+02  6.659786E+02
       291  10 -6.098160E+05 -1.014454E+05 -1.245404E+04 -2.316798E+05 -3.543685E-10 -4.420185E-11
       291  11 -6.025685E+05 -9.191916E+04 -9.471819E+03 -2.227843E+05  1.776724E-09  3.418799E-10
       291  12 -5.858170E+05 -9.256928E+04 -7.043089E+03 -2.249611E+05  1.665134E-10 -1.051850E-09
       291  13 -5.669869E+05 -8.529146E+04 -9.387902E+02 -2.199891E+05 -3.871078E-10  2.282661E-11
       291  14 -5.717558E+05 -8.032308E+04 -1.160344E+03 -2.144080E+05  1.885748E-09  1.674417E-09
       291  15 -5.670208E+05 -8.553102E+04 -1.935173E+03 -2.198994E+05  7.200137E-10  1.308010E-09
       291  16 -5.241562E+05 -6.913743E+04  1.057627E+04 -2.082977E+05 -3.952057E-10 -5.601562E-10
       291  17 -5.409422E+05 -6.872694E+04  7.151046E+03 -2.060314E+05  2.154047E-09  2.620725E-10
       291  18 -5.482243E+05 -7.849273E+04  3.172721E+03 -2.148375E+05  1.143453E-09 -2.849476E-10
       291  19 -6.098160E+05 -1.014454E+05 -1.245403E+04 -2.316798E+05  2.186891E+02 -1.287289E+03
       291  20 -6.025685E+05 -9.191916E+04 -9.471816E+03 -2.227843E+05 -5.451212E+02 -1.036637E+03
       291  21 -5.858170E+05 -9.256928E+04 -7.043085E+03 -2.249611E+05 -1.309199E+03 -7.851558E+02
       291  22 -5.669869E+05 -8.529145E+04 -9.387871E+02 -2.199891E+05  3.771265E+02 -1.227876E+03
       291  23 -5.717558E+05 -8.032308E+04 -1.160342E+03 -2.144080E+05 -3.864340E+02 -9.771388E+02
       291  24 -5.670208E+05 -8.553102E+04 -1.935170E+03 -2.198994E+05 -1.150250E+03 -7.255682E+02
       291  25 -5.241562E+05 -6.913742E+04  1.057627E+04 -2.082977E+05  5.355756E+02 -1.168458E+03
       291  26 -5.409422E+05 -6.872694E+04  7.151048E+03 -2.060314E+05 -2.277381E+02 -9.176373E+02
       291  27 -5.482243E+05 -7.849273E+04  3.172723E+03 -2.148375E+05 -9.912963E+02 -6.659786E+02
       292   1 -5.580274E+05 -8.201069E+04  1.727364E+01 -2.178710E+05  1.783556E+03  6.406101E+02
       292   2 -5.505302E+05 -7.195880E+04  1.504496E+03 -2.086653E+05  4.089617E+03  9.614540E+02
       292   3 -5.346693E+05 -7.465151E+04  5.978890E+02 -2.099422E+05  6.382678E+03  1.317114E+03
       292   4 -5.671495E+05 -8.521293E+04 -2.443118E+03 -2.201016E+05  1.617105E+03  5.782119E+02
       292   5 -5.714842E+05 -7.993129E+04 -4.163659E+03 -2.144513E+05  3.934817E+03  9.034160E+02
       292   6 -5.674577E+05 -8.739665E+04 -8.287320E+03 -2.192834E+05  6.239483E+03  1.263417E+03
       292   7 -5.762716E+05 -8.841516E+04 -4.903516E+03 -2.223322E+05  1.450657E+03  5.158146E+02
       292   8 -5.924379E+05 -8.790376E+04 -9.831846E+03 -2.202370E+05  3.780023E+03  8.453804E+02
       292   9 -6.002451E+05 -1.001417E+05 -1.717261E+04 -2.286243E+05  6.096295E+03  1.209724E+03
       292  10 -5.580274E+05 -8.201069E+04  1.726689E+01 -2.178710E+05  1.002892E-09 -6.743786E-10
       292  11 -5.505302E+05 -7.195880E+04  1.504463E+03 -2.086653E+05  4.016401E-10 -2.826978E-11
       292  12 -5.346693E+05 -7.465152E+04  5.978091E+02 -2.099422E+05 -6.682331E-10 -4.067191E-10
       292  13 -5.671495E+05 -8.521293E+04 -2.443123E+03 -2.201016E+05 -4.335664E-11  1.187586E-09
       292  14 -5.714843E+05 -7.993130E+04 -4.163689E+03 -2.144513E+05  2.279206E-10  9.898479E-10
       292  15 -5.674578E+05 -8.739667E+04 -8.287397E+03 -2.192835E+05  2.834081E-10  2.478071E-10
       292  16 -5.762716E+05 -8.841517E+04 -4.903521E+03 -2.223322E+05 -9.578437E-10 -1.242010E-09
       292  17 -5.924379E+05 -8.790376E+04 -9.831874E+03 -2.202370E+05  3.814780E-10 -2.290447E-10
       292  18 -6.002451E+05 -1.001417E+05 -1.717268E+04 -2.286243E+05  8.385161E-10  4.959310E-10
       292  19 -5.580274E+05 -8.201069E+04  1.727364E+01 -2.178710E+05 -1.783556E+03 -6.406101E+02
       292  20 -5.505302E+05 -7.195880E+04  1.504496E+03 -2.086653E+05 -4.089617E+03 -9.614540E+02
       292  21 -5.346693E+05 -7.465151E+04  5.978890E+02 -2.099422E+05 -6.382678E+03 -1.317114E+03
       292  22 -5.671495E+05 -8.521293E+04 -2.443118E+03 -2.201016E+05 -1.617105E+03 -5.782119E+02
       292  23 -5.714842E+05 -7.993129E+04 -4.163659E+03 -2.144513E+05 -3.934817E+03 -9.034160E+02
       292  24 -5.674577E+05 -8.739665E+04 -8.287320E+03 -2.192834E+05 -6.239483E+03 -1.263417E+03
       292  25 -5.762716E+05 -8.841516E+04 -4.903516E+03 -2.223322E+05 -1.450657E+03 -5.158146E+02
       292  26 -5.924379E+05 -8.790376E+04 -9.831846E+03 -2.202370E+05 -3.780023E+03 -8.453804E+02
       292  27 -6.002451E+05 -1.001417E+05 -1.717261E+04 -2.286243E+05 -6.096295E+03 -1.209724E+03
       293   1 -5.065137E+05 -6.321953E+04  5.898020E+03 -2.057625E+05  8.109968E+03  1.600624E+03
       293   2 -4.976958E+05 -4.909714E+04  1.734885E+03 -1.945228E+05  1.756034E+04  4.593995E+03
       293   3 -4.890846E+05 -6.744043E+04 -1.557432E+04 -1.885159E+05  2.689771E+04  7.889869E+03
       293   4 -5.683755E+05 -8.474152E+04 -1.048454E+04 -2.207577E+05  7.895939E+03  1.520391E+03
       293   5 -5.694609E+05 -7.699761E+04 -1.778949E+04 -2.149544E+05  1.744708E+04  4.551469E+03
       293   6 -5.707744E+05 -1.017414E+05 -3.832175E+04 -2.143839E+05  2.688504E+04  7.884906E+03
       293   7 -6.302338E+05 -1.062635E+05 -2.686746E+04 -2.357518E+05  7.681933E+03  1.440164E+03
       293   8 -6.412210E+05 -1.048977E+05 -3.731435E+04 -2.353838E+05  1.733383E+04  4.508950E+03
       293   9 -6.524576E+05 -1.360416E+05 -6.106980E+04 -2.402487E+05  2.687237E+04  7.879945E+03
       293  10 -5.065138E+05 -6.321955E+04  5.897892E+03 -2.057625E+05 -5.534610E-10 -3.399824E-10
       293  11 -4.976961E+05 -4.909724E+04  1.734266E+03 -1.945229E+05 -3.396727E-10 -3.758117E-10
       293  12 -4.890854E+05 -6.744069E+04 -1.557580E+04 -1.885161E+05  8.369189E-11 -8.389690E-12
       293  13 -5.683756E+05 -8.474154E+04 -1.048466E+04 -2.207578E+05  1.334213E-10  8.327204E-12
       293  14 -5.694612E+05 -7.699772E+04 -1.779010E+04 -2.149545E+05 -7.769686E-11 -7.520032E-11
       293  15 -5.707751E+05 -1.017417E+05 -3.832322E+04 -2.143841E+05 -3.067068E-10 -7.683586E-11
       293  16 -6.302338E+05 -1.062635E+05 -2.686758E+04 -2.357518E+05  2.970501E-10  9.174214E-11
       293  17 -6.412214E+05 -1.048978E+05 -3.731496E+04 -2.353839E+05  3.593335E-10 -9.010717E-11
       293  18 -6.524584E+05 -1.360419E+05 -6.107127E+04 -2.402489E+05  1.200359E-11 -6.218913E-11
       293  19 -5.065137E+05 -6.321953E+04  5.898020E+03 -2.057625E+05 -8.109968E+03 -1.600624E+03
       293  20 -4.976958E+05 -4.909714E+04  1.734885E+03 -1.945228E+05 -1.756034E+04 -4.593995E+03
       293  21 -4.890846E+05 -6.744043E+04 -1.557432E+04 -1.885159E+05 -2.689771E+04 -7.889869E+03
       293  22 -5.683755E+05 -8.474152E+04 -1.048454E+04 -2.207577E+05 -7.895939E+03 -1.520391E+03
       293  23 -5.694609E+05 -7.699761E+04 -1.778949E+04 -2.149544E+05 -1.744708E+04 -4.551469E+03
       293  24 -5.707744E+05 -1.017414E+05 -3.832175E+04 -2.143839E+05 -2.688504E+04 -7.884906E+03
       293  25 -6.302338E+05 -1.062635E+05 -2.686746E+04 -2.357518E+05 -7.681933E+03 -1.440164E+03
       293  26 -6.412210E+05 -1.048977E+05 -3.731435E+04 -2.353838E+05 -1.733383E+04 -4.508950E+03
       293  27 -6.524576E+05 -1.360416E+05 -6.106980E+04 -2.402487E+05 -2.687237E+04 -7.879945E+03
       294   1 -4.562724E+05 -4.909087E+04 -1.682090E+04 -2.067168E+05  3.466610E+04  1.004710E+04
       294   2 -4.384445E+05 -2.714393E+03 -4.248993E+04 -1.790148E+05  7.549917E+04  2.471637E+04
       294   3 -4.826258E+05 -1.407514E+05 -1.464093E+05 -1.162985E+05  1.153331E+05  4.205207E+04
       294   4 -5.768816E+05 -8.120135E+04 -4.675845E+04 -2.258331E+05  3.401959E+04  9.805411E+03
       294   5 -5.550325E+05 -5.439392E+04 -7.539847E+04 -2.187602E+05  7.574258E+04  2.480651E+04
       294   6 -5.953838E+05 -2.121990E+05 -1.830064E+05 -1.766698E+05  1.164665E+05  4.247086E+04
       294   7 -6.974765E+05 -1.133122E+05 -7.669696E+04 -2.449468E+05  3.337322E+04  9.563742E+03
       294   8 -6.716068E+05 -1.060709E+05 -1.083082E+05 -2.584983E+05  7.598594E+04  2.489662E+04
       294   9 -7.081267E+05 -2.836367E+05 -2.196044E+05 -2.370285E+05  1.175997E+05  4.288942E+04
       294  10 -4.562737E+05 -4.909130E+04 -1.682335E+04 -2.067170E+05 -7.763562E-11  5.065311E-11
       294  11 -4.384508E+05 -2.716582E+03 -4.250180E+04 -1.790163E+05 -1.914102E-10 -5.038470E-11
       294  12 -4.826406E+05 -1.407568E+05 -1.464376E+05 -1.163025E+05 -5.399907E-11 -1.488429E-10
       294  13 -5.768829E+05 -8.120176E+04 -4.676080E+04 -2.258333E+05  9.001212E-11  1.091880E-12
       294  14 -5.550388E+05 -5.439613E+04 -7.541042E+04 -2.187617E+05  6.045950E-10 -2.528943E-10
       294  15 -5.953988E+05 -2.122046E+05 -1.830353E+05 -1.766738E+05 -1.433668E-10  1.659554E-10
       294  16 -6.974777E+05 -1.133126E+05 -7.669923E+04 -2.449471E+05 -1.005926E-11 -4.801499E-11
       294  17 -6.716132E+05 -1.060732E+05 -1.083202E+05 -2.584998E+05  5.133232E-10 -9.103889E-11
       294  18 -7.081420E+05 -2.836424E+05 -2.196339E+05 -2.370326E+05  2.636798E-10  1.384970E-11
       294  19 -4.562724E+05 -4.909087E+04 -1.682090E+04 -2.067168E+05 -3.466610E+04 -1.004710E+04
       294  20 -4.384445E+05 -2.714393E+03 -4.248993E+04 -1.790148E+05 -7.549917E+04 -2.471637E+04
       294  21 -4.826258E+05 -1.407514E+05 -1.464093E+05 -1.162985E+05 -1.153331E+05 -4.205207E+04
       294  22 -5.768816E+05 -8.120135E+04 -4.675845E+04 -2.258331E+05 -3.401959E+04 -9.805411E+03
       294  23 -5.550325E+05 -5.439392E+04 -7.539847E+04 -2.187602E+05 -7.574258E+04 -2.480651E+04
       294  24 -5.953838E+05 -2.121990E+05 -1.830064E+05 -1.766698E+05 -1.164665E+05 -4.247086E+04
       294  25 -6.974765E+05 -1.133122E+05 -7.669696E+04 -2.449468E+05 -3.337322E+04 -9.563742E+03
       294  26 -6.716068E+05 -1.060709E+05 -1.083082E+05 -2.584983E+05 -7.598594E+04 -2.489662E+04
       294  27 -7.081267E+05 -2.836367E+05 -2.196044E+05 -2.370285E+05 -1.175997E+05 -4.288942E+04
       295   1 -4.030324E+05 -7.105335E+04 -3.277494E+04 -3.471571E+03  1.072556E+05  6.435856E+03
       295   2 -3.653919E+05 -2.098224E+05 -1.094718E+05  6.687129E+03  7.335424E+04  1.852472E+04
       295   3 -2.788592E+05 -1.757704E+05 -1.206163E+05 -4.762577E+04  3.945647E+04  1.570766E+04
       295   4  4.040172E+05  1.303480E+05  1.674840E+05 -3.389009E+04  1.143977E+05  6.435464E+03
       295   5  3.791466E+05 -2.455183E+04  7.232350E+04 -1.613814E+03  7.508718E+04  1.852259E+04
       295   6  4.040440E+05 -5.804428E+03  4.641038E+04 -3.380334E+04  3.578408E+04  1.570922E+04
       295   7  1.211660E+06  3.317040E+05  3.676949E+05 -6.434830E+04  1.215491E+05  6.434375E+03
       295   8  1.124191E+06  1.606780E+05  2.540784E+05 -9.924759E+03  7.682216E+04  1.852040E+04
       295   9  1.087373E+06  1.641278E+05  2.134032E+05 -1.996560E+04  3.210764E+04  1.571062E+04
       295  10 -4.030447E+05 -7.105648E+04 -3.279665E+04 -3.472127E+03 -1.011820E-09  1.294865E-10
       295  11 -3.653977E+05 -2.098242E+05 -1.094826E+05  6.686034E+03 -2.510400E-10 -4.429349E-11
       295  12 -2.788609E+05 -1.757711E+05 -1.206197E+05 -4.762627E+04 -2.128274E-10 -2.682673E-10
       295  13  4.040031E+05  1.303444E+05  1.674593E+05 -3.389069E+04 -3.339219E-11 -1.705720E-10
       295  14  3.791405E+05 -2.455371E+04  7.231226E+04 -1.614934E+03  1.624615E-11 -5.087406E-11
       295  15  4.040425E+05 -5.805037E+03  4.640751E+04 -3.380379E+04  5.561834E-10 -1.294048E-10
       295  16  1.211644E+06  3.317000E+05  3.676672E+05 -6.434893E+04  1.301614E-10  3.245923E-10
       295  17  1.124184E+06  1.606761E+05  2.540667E+05 -9.925904E+03 -4.231869E-10 -1.216873E-10
       295  18  1.087371E+06  1.641273E+05  2.134008E+05 -1.996600E+04  5.575511E-11 -2.855969E-11
       295  19 -4.030324E+05 -7.105335E+04 -3.277494E+04 -3.471571E+03 -1.072556E+05 -6.435856E+03
       295  20 -3.653919E+05 -2.098224E+05 -1.094718E+05  6.687129E+03 -7.335424E+04 -1.852472E+04
       295  21 -2.788592E+05 -1.757704E+05 -1.206163E+05 -4.762577E+04 -3.945647E+04 -1.570766E+04
       295  22  4.040172E+05  1.303480E+05  1.674840E+05 -3.389009E+04 -1.143977E+05 -6.435464E+03
       295  23  3.791466E+05 -2.455183E+04  7.232350E+04 -1.613814E+03 -7.508718E+04 -1.852259E+04
       295  24  4.040440E+05 -5.804428E+03  4.641038E+04 -3.380334E+04 -3.578408E+04 -1.570922E+04
       295  25  1.211660E+06  3.317040E+05  3.676949E+05 -6.434830E+04 -1.215491E+05 -6.434375E+03
       295  26  1.124191E+06  1.606780E+05  2.540784E+05 -9.924759E+03 -7.682216E+04 -1.852040E+04
       295  27  1.087373E+06  1.641278E+05  2.134032E+05 -1.996560E+04 -3.210764E+04 -1.571062E+04
       296   1 -1.616118E+05 -1.220040E+05 -9.807397E+04 -2.950573E+04  2.829306E+04  1.218037E+04
       296   2 -1.049277E+05 -1.266101E+05 -1.024628E+05 -7.152879E+02  1.910407E+04  1.149850E+04
       296   3 -4.115249E+04 -1.090966E+05 -9.526256E+04 -3.477862E+04  9.910013E+03  9.276272E+03
       296   4  3.946216E+05  1.647461E+04  3.810949E+04 -3.345410E+04  2.833899E+04  1.217947E+04
       296   5  3.910359E+05 -3.172522E+03  1.881080E+04 -2.036327E+03  1.858770E+04  1.149849E+04
       296   6  3.946285E+05 -6.122247E+02  1.148398E+04 -3.346891E+04  8.832219E+03  9.277628E+03
       296   7  9.511368E+05  1.549304E+05  1.742703E+05 -3.740596E+04  2.838496E+04  1.217856E+04
       296   8  8.872236E+05  1.202469E+05  1.400665E+05 -3.358357E+03  1.807091E+04  1.149848E+04
       296   9  8.305824E+05  1.078581E+05  1.182166E+05 -3.215821E+04  7.753668E+03  9.278979E+03
       296  10 -1.616127E+05 -1.220044E+05 -9.807576E+04 -2.950600E+04  4.992004E-10 -2.253100E-10
       296  11 -1.049281E+05 -1.266104E+05 -1.024638E+05 -7.154649E+02 -1.834495E-10 -6.969697E-11
       296  12 -4.115261E+04 -1.090967E+05 -9.526291E+04 -3.477870E+04 -4.371591E-10  9.953990E-10
       296  13  3.946207E+05  1.647424E+04  3.810770E+04 -3.345438E+04 -7.617649E-11  1.719793E-10
       296  14  3.910355E+05 -3.172757E+03  1.880991E+04 -2.036499E+03  1.153818E-09 -1.250989E-09
       296  15  3.946284E+05 -6.123381E+02  1.148367E+04 -3.346898E+04  1.279686E-09  6.549881E-10
       296  16  9.511359E+05  1.549300E+05  1.742685E+05 -3.740624E+04 -6.914787E-11 -2.274601E-10
       296  17  8.872232E+05  1.202467E+05  1.400656E+05 -3.358524E+03  9.354846E-10 -3.512010E-10
       296  18  8.305823E+05  1.078580E+05  1.182163E+05 -3.215826E+04  1.293811E-09  2.188658E-10
       296  19 -1.616118E+05 -1.220040E+05 -9.807397E+04 -2.950573E+04 -2.829306E+04 -1.218037E+04
       296  20 -1.049277E+05 -1.266101E+05 -1.024628E+05 -7.152879E+02 -1.910407E+04 -1.149850E+04
       296  21 -4.115249E+04 -1.090966E+05 -9.526256E+04 -3.477862E+04 -9.910013E+03 -9.276272E+03
       296  22  3.946216E+05  1.647461E+04  3.810949E+04 -3.345410E+04 -2.833899E+04 -1.217947E+04
       296  23  3.910359E+05 -3.172522E+03  1.881080E+04 -2.036327E+03 -1.858770E+04 -1.149849E+04
       296  24  3.946285E+05 -6.122247E+02  1.148398E+04 -3.346891E+04 -8.832219E+03 -9.277628E+03
       296  25  9.511368E+05  1.549304E+05  1.742703E+05 -3.740596E+04 -2.838496E+04 -1.217856E+04
       296  26  8.872236E+05  1.202469E+05  1.400665E+05 -3.358357E+03 -1.807091E+04 -1.149848E+04
       296  27  8.305824E+05  1.078581E+05  1.182166E+05 -3.215821E+04 -7.753668E+03 -9.278979E+03
       297   1  8.144865E+04 -7.543647E+04 -6.702465E+04 -3.243231E+04  7.679979E+03  7.787027E+03
       297   2  1.402211E+05 -6.326101E+04 -5.686924E+04 -1.881295E+03  5.253416E+03  5.795099E+03
       297   3  1.998981E+05 -4.808705E+04 -4.441929E+04 -3.315358E+04  2.824883E+03  3.653071E+03
       297   4  3.932636E+05  2.134839E+03  9.081624E+03 -3.323221E+04  6.990470E+03  7.788012E+03
       297   5  3.928094E+05 -4.026604E+02  4.899410E+03 -2.323255E+03  4.508697E+03  5.796428E+03
       297   6  3.932657E+05  6.745120E+01  3.049359E+03 -3.323601E+04  2.025184E+03  3.654780E+03
       297   7  7.051671E+05  7.969897E+04  8.518082E+04 -3.403246E+04  6.300615E+03  7.788998E+03
       297   8  6.454559E+05  6.245098E+04  6.666341E+04 -2.765366E+03  3.763676E+03  5.797757E+03
       297   9  5.866673E+05  4.821918E+04  5.051527E+04 -3.331844E+04  1.225236E+03  3.656488E+03
       297  10  8.144857E+04 -7.543655E+04 -6.702488E+04 -3.243236E+04  1.160589E-09  1.800298E-10
       297  11  1.402210E+05 -6.326106E+04 -5.686936E+04 -1.881320E+03  2.871806E-10  1.893661E-10
       297  12  1.998981E+05 -4.808706E+04 -4.441933E+04 -3.315359E+04 -1.256143E-09 -1.027799E-09
       297  13  3.932635E+05  2.134761E+03  9.081418E+03 -3.323225E+04 -8.050248E-12  2.638181E-10
       297  14  3.928094E+05 -4.027020E+02  4.899308E+03 -2.323276E+03  1.206385E-09  7.536865E-10
       297  15  3.932657E+05  6.743576E+01  3.049326E+03 -3.323602E+04  1.152700E-09  1.823845E-09
       297  16  7.051670E+05  7.969890E+04  8.518063E+04 -3.403250E+04 -2.068143E-10  5.835716E-11
       297  17  6.454559E+05  6.245094E+04  6.666332E+04 -2.765384E+03  7.010881E-10 -1.624374E-09
       297  18  5.866673E+05  4.821916E+04  5.051524E+04 -3.331845E+04  1.551629E-09 -3.271996E-10
       297  19  8.144865E+04 -7.543647E+04 -6.702465E+04 -3.243231E+04 -7.679979E+03 -7.787027E+03
       297  20  1.402211E+05 -6.326101E+04 -5.686924E+04 -1.881295E+03 -5.253416E+03 -5.795099E+03
       297  21  1.998981E+05 -4.808705E+04 -4.441929E+04 -3.315358E+04 -2.824883E+03 -3.653071E+03
       297  22  3.932636E+05  2.134839E+03  9.081624E+03 -3.323221E+04 -6.990470E+03 -7.788012E+03
       297  23  3.928094E+05 -4.026604E+02  4.899410E+03 -2.323255E+03 -4.508697E+03 -5.796428E+03
       297  24  3.932657E+05  6.745120E+01  3.049359E+03 -3.323601E+04 -2.025184E+03 -3.654780E+03
       297  25  7.051671E+05  7.969897E+04  8.518082E+04 -3.403246E+04 -6.300615E+03 -7.788998E+03
       297  26  6.454559E+05  6.245098E+04  6.666341E+04 -2.765366E+03 -3.763676E+03 -5.797757E+03
       297  27  5.866673E+05  4.821918E+04  5.051527E+04 -3.331844E+04 -1.225236E+03 -3.656488E+03
       298   1  3.222605E+05 -1.719567E+04 -1.466013E+04 -3.299759E+04  2.284491E+03  2.387551E+03
       298   2  3.811748E+05 -3.013114E+03 -1.204337E+03 -2.403038E+03  1.432820E+03  2.713451E+02
       298   3  4.400198E+05  1.182451E+04  1.289632E+04 -3.326240E+04  5.809797E+02 -1.859276E+03
       298   4  3.930576E+05  3.850089E+02  2.471444E+03 -3.315263E+04  1.524309E+03  2.389274E+03
       298   5  3.930931E+05 -4.762593E+01  1.709600E+03 -2.425953E+03  6.673453E+02  2.730866E+02
       298   6  3.930578E+05  1.761680E+02  1.596666E+03 -3.315311E+04 -1.897073E+02 -1.857505E+03
       298   7  4.638593E+05  1.796532E+04  1.960266E+04 -3.330768E+04  7.640413E+02  2.390997E+03
       298   8  4.050115E+05  2.917852E+03  4.623529E+03 -2.448868E+03 -9.814354E+01  2.748283E+02
       298   9  3.460978E+05 -1.147233E+04 -9.703142E+03 -3.304383E+04 -9.603362E+02 -1.855734E+03
       298  10  3.222605E+05 -1.719567E+04 -1.466015E+04 -3.299760E+04  1.393671E-09 -1.941065E-10
       298  11  3.811748E+05 -3.013115E+03 -1.204341E+03 -2.403038E+03  2.132444E-11  2.136372E-10
       298  12  4.400198E+05  1.182450E+04  1.289631E+04 -3.326240E+04 -5.167483E-10 -4.238184E-10
       298  13  3.930576E+05  3.850022E+02  2.471429E+03 -3.315263E+04 -7.598743E-10 -1.282771E-09
       298  14  3.930931E+05 -4.762613E+01  1.709599E+03 -2.425953E+03  1.264824E-09  3.487576E-10
       298  15  3.930578E+05  1.761643E+02  1.596659E+03 -3.315311E+04  1.869799E-09 -1.264463E-09
       298  16  4.638593E+05  1.796531E+04  1.960265E+04 -3.330768E+04 -2.220535E-10  8.366945E-10
       298  17  4.050115E+05  2.917852E+03  4.623528E+03 -2.448868E+03  5.181232E-10 -8.203301E-10
       298  18  3.460978E+05 -1.147233E+04 -9.703150E+03 -3.304383E+04  3.249625E-10 -1.972687E-09
       298  19  3.222605E+05 -1.719567E+04 -1.466013E+04 -3.299759E+04 -2.284491E+03 -2.387551E+03
       298  20  3.811748E+05 -3.013114E+03 -1.204337E+03 -2.403038E+03 -1.432820E+03 -2.713451E+02
       298  21  4.400198E+05  1.182451E+04  1.289632E+04 -3.326240E+04 -5.809797E+02  1.859276E+03
       298  22  3.930576E+05  3.850089E+02  2.471444E+03 -3.315263E+04 -1.524309E+03 -2.389274E+03
       298  23  3.930931E+05 -4.762593E+01  1.709600E+03 -2.425953E+03 -6.673453E+02 -2.730866E+02
       298  24  3.930578E+05  1.761680E+02  1.596666E+03 -3.315311E+04  1.897073E+02  1.857505E+03
       298  25  4.638593E+05  1.796532E+04  1.960266E+04 -3.330768E+04 -7.640413E+02 -2.390997E+03
       298  26  4.050115E+05  2.917852E+03  4.623529E+03 -2.448868E+03  9.814354E+01 -2.748283E+02
       298  27  3.460978E+05 -1.147233E+04 -9.703142E+03 -3.304383E+04  9.603362E+02  1.855734E+03
       299   1  5.625938E+05  4.236909E+04  4.333969E+04 -3.345636E+04  2.783416E+02 -3.105183E+03
       299   2  6.216953E+05  5.680080E+04  5.822325E+04 -2.685836E+03 -8.867130E+02 -5.240300E+03
       299   3  6.809655E+05  7.207516E+04  7.403278E+04 -3.366962E+04 -2.050541E+03 -7.368532E+03
       299   4  3.931018E+05  1.638969E+02  1.717039E+03 -3.322026E+04 -4.929086E+02 -3.103496E+03
       299   5  3.930190E+05 -9.062240E+01  2.315472E+03 -2.342084E+03 -1.655152E+03 -5.238855E+03
       299   6  3.931004E+05  4.972092E+02  3.838183E+03 -3.321963E+04 -2.816059E+03 -7.367318E+03
       299   7  2.236359E+05 -4.204343E+04 -3.990772E+04 -3.298421E+04 -1.263949E+03 -3.101809E+03
       299   8  1.643903E+05 -5.698590E+04 -5.359612E+04 -1.998435E+03 -2.423309E+03 -5.237412E+03
       299   9  1.053108E+05 -7.108685E+04 -6.636244E+04 -3.276981E+04 -3.581224E+03 -7.366105E+03
       299  10  5.625938E+05  4.236908E+04  4.333967E+04 -3.345636E+04  3.445637E-10  9.547374E-10
       299  11  6.216953E+05  5.680077E+04  5.822320E+04 -2.685840E+03 -3.668561E-10  2.843156E-09
       299  12  6.809654E+05  7.207510E+04  7.403267E+04 -3.366964E+04  8.333495E-10 -2.097269E-09
       299  13  3.931018E+05  1.638865E+02  1.717020E+03 -3.322026E+04 -8.083674E-10  1.757510E-10
       299  14  3.930190E+05 -9.065262E+01  2.315415E+03 -2.342091E+03  9.119349E-10 -4.847884E-10
       299  15  3.931004E+05  4.971488E+02  3.838066E+03 -3.321965E+04  1.165650E-09  1.654848E-12
       299  16  2.236359E+05 -4.204344E+04 -3.990774E+04 -3.298421E+04  7.169429E-10 -1.055383E-10
       299  17  1.643902E+05 -5.698594E+04 -5.359618E+04 -1.998445E+03  9.268223E-10 -4.829783E-10
       299  18  1.053108E+05 -7.108691E+04 -6.636256E+04 -3.276983E+04 -8.435346E-10 -3.856503E-10
       299  19  5.625938E+05  4.236909E+04  4.333969E+04 -3.345636E+04 -2.783416E+02  3.105183E+03
       299  20  6.216953E+05  5.680080E+04  5.822325E+04 -2.685836E+03  8.867130E+02  5.240300E+03
       299  21  6.809655E+05  7.207516E+04  7.403278E+04 -3.366962E+04  2.050541E+03  7.368532E+03
       299  22  3.931018E+05  1.638969E+02  1.717039E+03 -3.322026E+04  4.929086E+02  3.103496E+03
       299  23  3.930190E+05 -9.062240E+01  2.315472E+03 -2.342084E+03  1.655152E+03  5.238855E+03
       299  24  3.931004E+05  4.972092E+02  3.838183E+03 -3.321963E+04  2.816059E+03  7.367318E+03
       299  25  2.236359E+05 -4.204343E+04 -3.990772E+04 -3.298421E+04  1.263949E+03  3.101809E+03
       299  26  1.643903E+05 -5.698590E+04 -5.359612E+04 -1.998435E+03  2.423309E+03  5.237412E+03
       299  27  1.053108E+05 -7.108685E+04 -6.636244E+04 -3.276981E+04  3.581224E+03  7.366105E+03
       300   1  8.051925E+05  1.024228E+05  1.057222E+05 -3.356220E+04 -2.792655E+03 -8.652907E+03
       300   2  8.643112E+05  1.166557E+05  1.234173E+05 -2.627913E+03 -6.958095E+03 -1.082194E+04
       300   3  9.254753E+05  1.357335E+05  1.450898E+05 -3.443127E+04 -1.112099E+04 -1.281055E+04
       300   4  3.934887E+05 -2.626694E+01  4.896179E+03 -3.344021E+04 -3.607535E+03 -8.651885E+03
       300   5  3.924709E+05 -7.128377E+02  8.080839E+03 -2.068215E+03 -7.705214E+03 -1.082151E+04
       300   6  3.934849E+05  3.435888E+03  1.519831E+04 -3.343680E+04 -1.179995E+04 -1.281065E+04
       300   7 -1.806080E+04 -1.024879E+05 -9.594222E+04 -3.331822E+04 -4.421875E+03 -8.650864E+03
       300   8 -7.916673E+04 -1.180979E+05 -1.072719E+05 -1.508879E+03 -8.451764E+03 -1.082108E+04
       300   9 -1.382479E+05 -1.288826E+05 -1.147138E+05 -3.244311E+04 -1.247832E+04 -1.281075E+04
       300  10  8.051925E+05  1.024227E+05  1.057220E+05 -3.356222E+04  7.426624E-10 -2.615262E-09
       300  11  8.643111E+05  1.166556E+05  1.234170E+05 -2.627974E+03 -5.955313E-10 -4.419458E-10
       300  12  9.254751E+05  1.357333E+05  1.450893E+05 -3.443138E+04 -1.408334E-09  1.238951E-10
       300  13  3.934887E+05 -2.635083E+01  4.896013E+03 -3.344023E+04 -6.023811E-10 -2.668076E-10
       300  14  3.924708E+05 -7.129794E+02  8.080507E+03 -2.068283E+03  4.672367E-10 -1.933042E-10
       300  15  3.934847E+05  3.435674E+03  1.519774E+04 -3.343692E+04  1.927615E-10 -9.845343E-10
       300  16 -1.806084E+04 -1.024880E+05 -9.594240E+04 -3.331825E+04  1.636455E-10  4.299772E-10
       300  17 -7.916684E+04 -1.180980E+05 -1.072722E+05 -1.508952E+03  8.631215E-10  1.703991E-09
       300  18 -1.382481E+05 -1.288828E+05 -1.147144E+05 -3.244324E+04  8.073611E-10 -2.963759E-10
       300  19  8.051925E+05  1.024228E+05  1.057222E+05 -3.356220E+04  2.792655E+03  8.652907E+03
       300  20  8.643112E+05  1.166557E+05  1.234173E+05 -2.627913E+03  6.958095E+03  1.082194E+04
       300  21  9.254753E+05  1.357335E+05  1.450898E+05 -3.443127E+04  1.112099E+04  1.281055E+04
       300  22  3.934887E+05 -2.626694E+01  4.896179E+03 -3.344021E+04  3.607535E+03  8.651885E+03
       300  23  3.924709E+05 -7.128377E+02  8.080839E+03 -2.068215E+03  7.705214E+03  1.082151E+04
       300  24  3.934849E+05  3.435888E+03  1.519831E+04 -3.343680E+04  1.179995E+04  1.281065E+04
       300  25 -1.806080E+04 -1.024879E+05 -9.594222E+04 -3.331822E+04  4.421875E+03  8.650864E+03
       300  26 -7.916673E+04 -1.180979E+05 -1.072719E+05 -1.508879E+03  8.451764E+03  1.082108E+04
       300  27 -1.382479E+05 -1.288826E+05 -1.147138E+05 -3.244311E+04  1.247832E+04  1.281075E+04
       301   1  1.054281E+06  1.626223E+05  1.803658E+05 -3.102385E+04 -1.371317E+04 -1.439159E+04
       301   2  1.109724E+06  1.737518E+05  2.075625E+05 -3.088444E+03 -3.080508E+04 -1.669110E+04
       301   3  1.177832E+06  2.221036E+05  2.554092E+05 -3.956738E+04 -4.789544E+04 -1.704909E+04
       301   4  3.957774E+05 -1.186519E+03  1.925483E+04 -3.380942E+04 -1.488423E+04 -1.439177E+04
       301   5  3.894960E+05 -5.367229E+03  3.157589E+04 -1.606741E+03 -3.125932E+04 -1.669242E+04
       301   6  3.957666E+05  2.757392E+04  6.406716E+04 -3.382269E+04 -4.763116E+04 -1.705078E+04
       301   7 -2.623315E+05 -1.650274E+05 -1.418878E+05 -3.659197E+04 -1.605405E+04 -1.439195E+04
       301   8 -3.302599E+05 -1.845245E+05 -1.444486E+05 -1.267591E+02 -3.171301E+04 -1.669375E+04
       301   9 -3.857426E+05 -1.670008E+05 -1.273196E+05 -2.808530E+04 -4.736719E+04 -1.705246E+04
       301  10  1.054281E+06  1.626220E+05  1.803651E+05 -3.102401E+04 -7.567642E-11 -6.143591E-10
       301  11  1.109723E+06  1.737512E+05  2.075602E+05 -3.088858E+03  1.059682E-10 -7.896333E-10
       301  12  1.177830E+06  2.221026E+05  2.554044E+05 -3.956803E+04  4.578050E-10 -6.769326E-10
       301  13  3.957771E+05 -1.186801E+03  1.925403E+04 -3.380959E+04 -2.691478E-10 -5.837179E-10
       301  14  3.894949E+05 -5.367790E+03  3.157353E+04 -1.607162E+03 -1.681853E-10  1.526692E-10
       301  15  3.957641E+05  2.757299E+04  6.406235E+04 -3.382334E+04 -3.001556E-10 -4.713439E-10
       301  16 -2.623318E+05 -1.650277E+05 -1.418887E+05 -3.659215E+04  5.681490E-11  8.101544E-11
       301  17 -3.302611E+05 -1.845251E+05 -1.444510E+05 -1.271856E+02  4.802824E-10  1.259013E-09
       301  18 -3.857450E+05 -1.670017E+05 -1.273243E+05 -2.808595E+04 -4.506443E-10 -4.484317E-10
       301  19  1.054281E+06  1.626223E+05  1.803658E+05 -3.102385E+04  1.371317E+04  1.439159E+04
       301  20  1.109724E+06  1.737518E+05  2.075625E+05 -3.088444E+03  3.080508E+04  1.669110E+04
       301  21  1.177832E+06  2.221036E+05  2.554092E+05 -3.956738E+04  4.789544E+04  1.704909E+04
       301  22  3.957774E+05 -1.186519E+03  1.925483E+04 -3.380942E+04  1.488423E+04  1.439177E+04
       301  23  3.894960E+05 -5.367229E+03  3.157589E+04 -1.606741E+03  3.125932E+04  1.669242E+04
       301  24  3.957666E+05  2.757392E+04  6.406716E+04 -3.382269E+04  4.763116E+04  1.705078E+04
       301  25 -2.623315E+05 -1.650274E+05 -1.418878E+05 -3.659197E+04  1.605405E+04  1.439195E+04
       301  26 -3.302599E+05 -1.845245E+05 -1.444486E+05 -1.267591E+02  3.171301E+04  1.669375E+04
       301  27 -3.857426E+05 -1.670008E+05 -1.273196E+05 -2.808530E+04  4.736719E+04  1.705246E+04
       302   1  1.324020E+06  2.170475E+05  3.009381E+05 -9.865892E+03 -5.568334E+04 -2.124456E+04
       302   2  1.345968E+06  2.013730E+05  3.597607E+05 -1.376733E+04 -1.286476E+05 -2.442366E+04
       302   3  1.452918E+06  4.783966E+05  5.396734E+05 -8.473700E+04 -2.016642E+05 -8.730803E+03
       302   4  4.115706E+05 -9.904635E+03  7.801667E+04 -3.423770E+04 -6.014166E+04 -2.124890E+04
       302   5  3.695879E+05 -4.128662E+04  1.216030E+05 -9.853725E+02 -1.262105E+05 -2.442454E+04
       302   6  4.115333E+05  2.190736E+05  2.816271E+05 -3.480122E+04 -1.923231E+05 -8.723881E+03
       302   7 -5.001198E+05 -2.369160E+05 -1.449650E+05 -5.857385E+04 -6.459341E+04 -2.125289E+04
       302   8 -6.059240E+05 -2.840159E+05 -1.166239E+05  1.177607E+04 -1.237771E+05 -2.442531E+04
       302   9 -6.288620E+05 -4.032072E+04  2.350176E+04  1.505027E+04 -1.829974E+05 -8.715463E+03
       302  10  1.324016E+06  2.170462E+05  3.009314E+05 -9.866844E+03 -7.101821E-10  6.393932E-10
       302  11  1.345950E+06  2.013680E+05  3.597286E+05 -1.376986E+04 -6.880149E-10  1.123129E-09
       302  12  1.452874E+06  4.783856E+05  5.395970E+05 -8.473842E+04  3.958580E-10 -2.283674E-10
       302  13  4.115666E+05 -9.906090E+03  7.800903E+04 -3.423873E+04 -1.492267E-10  9.407788E-10
       302  14  3.695706E+05 -4.129153E+04  1.215720E+05 -9.878546E+02 -3.016599E-10  3.540821E-09
       302  15  4.114936E+05  2.190636E+05  2.815575E+05 -3.480257E+04 -1.977544E-09 -2.586685E-10
       302  16 -5.001244E+05 -2.369177E+05 -1.449737E+05 -5.857495E+04  1.524282E-10 -5.899645E-11
       302  17 -6.059406E+05 -2.840206E+05 -1.166539E+05  1.177363E+04 -4.646185E-10  1.315345E-09
       302  18 -6.288980E+05 -4.032981E+04  2.343862E+04  1.504899E+04 -6.168639E-10 -8.198272E-10
       302  19  1.324020E+06  2.170475E+05  3.009381E+05 -9.865892E+03  5.568334E+04  2.124456E+04
       302  20  1.345968E+06  2.013730E+05  3.597607E+05 -1.376733E+04  1.286476E+05  2.442366E+04
       302  21  1.452918E+06  4.783966E+05  5.396734E+05 -8.473700E+04  2.016642E+05  8.730803E+03
       302  22  4.115706E+05 -9.904635E+03  7.801667E+04 -3.423770E+04  6.014166E+04  2.124890E+04
       302  23  3.695879E+05 -4.128662E+04  1.216030E+05 -9.853725E+02  1.262105E+05  2.442454E+04
       302  24  4.115333E+05  2.190736E+05  2.816271E+05 -3.480122E+04  1.923231E+05  8.723881E+03
       302  25 -5.001198E+05 -2.369160E+05 -1.449650E+05 -5.857385E+04  6.459341E+04  2.125289E+04
       302  26 -6.059240E+05 -2.840159E+05 -1.166239E+05  1.177607E+04  1.237771E+05  2.442531E+04
       302  27 -6.288620E+05 -4.032072E+04  2.350176E+04  1.505027E+04  1.829974E+05  8.715463E+03
       303   1  2.211521E+05  7.074323E+05  2.498753E+05 -8.521385E+04  3.380359E+03  9.527261E+04
       303   2  6.968642E+04  5.783631E+05  1.451840E+05 -1.035037E+04  9.077980E+03  6.034645E+04
       303   3  5.760360E+04  4.885461E+05  9.803178E+04 -4.934568E+04  4.928629E+03  2.541084E+04
       303   4  1.042374E+05  2.391472E+05  1.336799E+05 -6.010875E+04  3.389061E+03  9.142046E+04
       303   5 -1.950299E+04  2.198272E+05  5.773723E+04 -3.247121E+03  9.079393E+03  6.006382E+04
       303   6 -4.433748E+03  2.391604E+05  3.688812E+04 -6.024496E+04  4.922272E+03  2.869150E+04
       303   7 -1.269143E+04 -2.289377E+05  1.746842E+04 -3.502250E+04  3.397456E+03  8.757119E+04
       303   8 -1.087017E+05 -1.385915E+05 -2.971889E+04  3.852059E+03  9.080801E+03  5.978135E+04
       303   9 -6.647524E+04 -1.016850E+04 -2.425999E+04 -7.113982E+04  4.915799E+03  3.197085E+04
       303  10  2.211497E+05  7.074225E+05  2.498583E+05 -8.521411E+04 -2.269948E-10 -4.807113E-10
       303  11  6.968536E+04  5.783592E+05  1.451770E+05 -1.035081E+04 -3.498591E-10 -2.110545E-10
       303  12  5.760340E+04  4.885454E+05  9.803052E+04 -4.934578E+04  1.967327E-10  2.378598E-10
       303  13  1.042351E+05  2.391382E+05  1.336642E+05 -6.010900E+04  3.462412E-10  2.601813E-10
       303  14 -1.950405E+04  2.198233E+05  5.773030E+04 -3.247560E+03 -1.592135E-09  7.912144E-11
       303  15 -4.433995E+03  2.391595E+05  3.688653E+04 -6.024507E+04 -3.962179E-11  1.231566E-10
       303  16 -1.269351E+04 -2.289459E+05  1.745399E+04 -3.502274E+04 -1.602153E-10  4.379429E-10
       303  17 -1.087028E+05 -1.385954E+05 -2.972577E+04  3.851622E+03 -5.852740E-10  4.219082E-10
       303  18 -6.647554E+04 -1.016961E+04 -2.426196E+04 -7.113995E+04 -4.874595E-10 -1.978415E-10
       303  19  2.211521E+05  7.074323E+05  2.498753E+05 -8.521385E+04 -3.380359E+03 -9.527261E+04
       303  20  6.968642E+04  5.783631E+05  1.451840E+05 -1.035037E+04 -9.077980E+03 -6.034645E+04
       303  21  5.760360E+04  4.885461E+05  9.803178E+04 -4.934568E+04 -4.928629E+03 -2.541084E+04
       303  22  1.042374E+05  2.391472E+05  1.336799E+05 -6.010875E+04 -3.389061E+03 -9.142046E+04
       303  23 -1.950299E+04  2.198272E+05  5.773723E+04 -3.247121E+03 -9.079393E+03 -6.006382E+04
       303  24 -4.433748E+03  2.391604E+05  3.688812E+04 -6.024496E+04 -4.922272E+03 -2.869150E+04
       303  25 -1.269143E+04 -2.289377E+05  1.746842E+04 -3.502250E+04 -3.397456E+03 -8.757119E+04
       303  26 -1.087017E+05 -1.385915E+05 -2.971889E+04  3.852059E+03 -9.080801E+03 -5.978135E+04
       303  27 -6.647524E+04 -1.016850E+04 -2.425999E+04 -7.113982E+04 -4.915799E+03 -3.197085E+04
       304   1  1.895958E+04  2.540770E+05  3.560082E+04 -6.309328E+04  9.317528E+02  2.164711E+04
       304   2 -2.404079E+04  1.424538E+05 -6.495684E+03 -3.865308E+03 -2.044350E+03  1.412676E+04
       304   3 -4.927356E+04  3.578097E+04 -3.935871E+04 -5.849616E+04 -4.711237E+03  6.609059E+03
       304   4  1.339608E+04  2.316890E+05  3.023093E+04 -6.017972E+04  9.296993E+02  2.278031E+04
       304   5 -2.453766E+03  2.292096E+05  1.471500E+04 -3.263757E+03 -2.046140E+03  1.514909E+04
       304   6 -5.164999E+02  2.316901E+05  8.511453E+03 -6.020524E+04 -4.712756E+03  7.519208E+03
       304   7  7.832578E+03  2.093015E+05  2.486102E+04 -5.726625E+04  9.276564E+02  2.391347E+04
       304   8  1.913270E+04  3.159724E+05  3.592513E+04 -2.662118E+03 -2.047927E+03  1.617156E+04
       304   9  4.823774E+04  4.276342E+05  5.637882E+04 -6.191484E+04 -4.714280E+03  8.429643E+03
       304  10  1.895945E+04  2.540765E+05  3.559994E+04 -6.309330E+04  2.040825E-10 -5.043506E-10
       304  11 -2.404084E+04  1.424536E+05 -6.496067E+03 -3.865285E+03  1.414323E-10 -7.218981E-10
       304  12 -4.927360E+04  3.578091E+04 -3.935884E+04 -5.849614E+04 -1.112104E-09 -7.094947E-11
       304  13  1.339594E+04  2.316884E+05  3.022996E+04 -6.017973E+04  3.030662E-10  5.403265E-10
       304  14 -2.453832E+03  2.292094E+05  1.471456E+04 -3.263732E+03  7.545414E-10 -9.271754E-11
       304  15 -5.165389E+02  2.316900E+05  8.511305E+03 -6.020521E+04  9.891185E-10 -2.305052E-11
       304  16  7.832423E+03  2.093009E+05  2.485994E+04 -5.726627E+04  3.037293E-11  5.380339E-10
       304  17  1.913262E+04  3.159721E+05  3.592463E+04 -2.662092E+03 -1.791828E-09  8.314842E-10
       304  18  4.823770E+04  4.276341E+05  5.637865E+04 -6.191481E+04 -5.704159E-10  4.796296E-11
       304  19  1.895958E+04  2.540770E+05  3.560082E+04 -6.309328E+04 -9.317528E+02 -2.164711E+04
       304  20 -2.404079E+04  1.424538E+05 -6.495684E+03 -3.865308E+03  2.044350E+03 -1.412676E+04
       304  21 -4.927356E+04  3.578097E+04 -3.935871E+04 -5.849616E+04  4.711237E+03 -6.609059E+03
       304  22  1.339608E+04  2.316890E+05  3.023093E+04 -6.017972E+04 -9.296993E+02 -2.278031E+04
       304  23 -2.453766E+03  2.292096E+05  1.471500E+04 -3.263757E+03  2.046140E+03 -1.514909E+04
       304  24 -5.164999E+02  2.316901E+05  8.511453E+03 -6.020524E+04  4.712756E+03 -7.519208E+03
       304  25  7.832578E+03  2.093015E+05  2.486102E+04 -5.726625E+04 -9.276564E+02 -2.391347E+04
       304  26  1.913270E+04  3.159724E+05  3.592513E+04 -2.662118E+03  2.047927E+03 -1.617156E+04
       304  27  4.823774E+04  4.276342E+05  5.637882E+04 -6.191484E+04  4.714280E+03 -8.429643E+03
       305   1 -1.034558E+05 -1.923481E+05 -9.715919E+04 -5.997238E+04 -9.111081E+03  2.283006E+03
       305   2 -1.327251E+05 -3.021068E+05 -1.274583E+05 -2.829573E+03 -1.345992E+04  5.648503E+03
       305   3 -1.611968E+05 -4.117768E+05 -1.596909E+05 -5.988622E+04 -4.914645E+03  9.027008E+03
       305   4  1.889486E+03  2.307403E+05  6.478117E+03 -6.026962E+04 -9.116923E+03  6.169784E+03
       305   5 -2.456939E+02  2.302967E+05  2.498056E+03 -3.174607E+03 -1.345833E+04  4.894882E+03
       305   6 -7.770551E+02  2.307357E+05 -1.918902E+02 -6.027297E+04 -4.910487E+03  3.633667E+03
       305   7  1.072215E+05  6.539918E+05  1.101024E+05 -6.056698E+04 -9.122767E+03  1.005921E+04
       305   8  1.322128E+05  7.629587E+05  1.324338E+05 -3.519866E+03 -1.345675E+04  4.140615E+03
       305   9  1.596117E+05  8.736230E+05  1.592764E+05 -6.066004E+04 -4.906325E+03 -1.765256E+03
       305  10 -1.034558E+05 -1.923481E+05 -9.715935E+04 -5.997237E+04 -7.621113E-11 -3.552222E-10
       305  11 -1.327253E+05 -3.021068E+05 -1.274587E+05 -2.829511E+03 -2.604953E-11 -3.488391E-10
       305  12 -1.611968E+05 -4.117768E+05 -1.596911E+05 -5.988619E+04 -1.028427E-10 -8.294305E-11
       305  13  1.889386E+03  2.307402E+05  6.477890E+03 -6.026957E+04 -1.196555E-09  4.349642E-10
       305  14 -2.458948E+02  2.302967E+05  2.497670E+03 -3.174554E+03 -8.017216E-11 -3.787219E-12
       305  15 -7.770846E+02  2.307357E+05 -1.919603E+02 -6.027296E+04 -1.948470E-10 -3.156443E-11
       305  16  1.072214E+05  6.539917E+05  1.101020E+05 -6.056691E+04  5.627070E-10  3.356988E-10
       305  17  1.322126E+05  7.629586E+05  1.324334E+05 -3.519822E+03 -4.903916E-10  4.361522E-10
       305  18  1.596117E+05  8.736230E+05  1.592763E+05 -6.066005E+04 -4.143994E-10  7.682162E-11
       305  19 -1.034558E+05 -1.923481E+05 -9.715919E+04 -5.997238E+04  9.111081E+03 -2.283006E+03
       305  20 -1.327251E+05 -3.021068E+05 -1.274583E+05 -2.829573E+03  1.345992E+04 -5.648503E+03
       305  21 -1.611968E+05 -4.117768E+05 -1.596909E+05 -5.988622E+04  4.914645E+03 -9.027008E+03
       305  22  1.889486E+03  2.307403E+05  6.478117E+03 -6.026962E+04  9.116923E+03 -6.169784E+03
       305  23 -2.456939E+02  2.302967E+05  2.498056E+03 -3.174607E+03  1.345833E+04 -4.894882E+03
       305  24 -7.770551E+02  2.307357E+05 -1.918902E+02 -6.027297E+04  4.910487E+03 -3.633667E+03
       305  25  1.072215E+05  6.539918E+05  1.101024E+05 -6.056698E+04  9.122767E+03 -1.005921E+04
       305  26  1.322128E+05  7.629587E+05  1.324338E+05 -3.519866E+03  1.345675E+04 -4.140615E+03
       305  27  1.596117E+05  8.736230E+05  1.592764E+05 -6.066004E+04  4.906325E+03  1.765256E+03
       306   1 -1.954607E+06 -5.958860E+05 -3.858705E+05 -6.724761E+05 -1.941705E+05 -7.003627E+04
       306   2 -1.899302E+06 -3.103449E+05 -2.047208E+05 -7.138976E+05 -1.259894E+05 -3.851335E+04
       306   3 -1.953202E+06 -3.219982E+05 -1.549552E+05 -6.900272E+05 -5.558665E+04 -1.289898E+04
       306   4 -1.678617E+06 -4.440231E+05 -3.007584E+05 -5.486160E+05 -1.915040E+05 -6.905225E+04
       306   5 -1.608926E+06 -1.880347E+05 -1.238880E+05 -6.216773E+05 -1.252832E+05 -3.825153E+04
       306   6 -1.648000E+06 -2.287735E+05 -7.679929E+04 -6.294619E+05 -5.683980E+04 -1.336728E+04
       306   7 -1.402548E+06 -2.921260E+05 -2.156536E+05 -4.246976E+05 -1.888362E+05 -6.806722E+04
       306   8 -1.318468E+06 -6.571377E+04 -4.306324E+04 -5.294160E+05 -1.245767E+05 -3.798954E+04
       306   9 -1.342709E+06 -1.355502E+05  1.349335E+03 -5.688732E+05 -5.809363E+04 -1.383572E+04
       306  10 -1.954649E+06 -5.959014E+05 -3.859509E+05 -6.724871E+05  3.856252E-10 -1.210628E-10
       306  11 -1.899319E+06 -3.103508E+05 -2.047535E+05 -7.139016E+05 -4.392036E-10  1.497341E-10
       306  12 -1.953205E+06 -3.219992E+05 -1.549614E+05 -6.900278E+05 -1.522892E-11 -7.388331E-11
       306  13 -1.678658E+06 -4.440381E+05 -3.008365E+05 -5.486267E+05  7.985279E-10 -4.101493E-10
       306  14 -1.608943E+06 -1.880406E+05 -1.239204E+05 -6.216812E+05  4.449942E-10 -2.080434E-10
       306  15 -1.648004E+06 -2.287745E+05 -7.680571E+04 -6.294625E+05  5.873349E-11 -1.987281E-10
       306  16 -1.402588E+06 -2.921405E+05 -2.157295E+05 -4.247079E+05 -8.269361E-11 -7.377452E-11
       306  17 -1.318485E+06 -6.571950E+04 -4.309520E+04 -5.294198E+05 -9.032100E-10 -4.318052E-10
       306  18 -1.342713E+06 -1.355513E+05  1.342617E+03 -5.688739E+05  3.743581E-10 -3.722682E-10
       306  19 -1.954607E+06 -5.958860E+05 -3.858705E+05 -6.724761E+05  1.941705E+05  7.003627E+04
       306  20 -1.899302E+06 -3.103449E+05 -2.047208E+05 -7.138976E+05  1.259894E+05  3.851335E+04
       306  21 -1.953202E+06 -3.219982E+05 -1.549552E+05 -6.900272E+05  5.558665E+04  1.289898E+04
       306  22 -1.678617E+06 -4.440231E+05 -3.007584E+05 -5.486160E+05  1.915040E+05  6.905225E+04
       306  23 -1.608926E+06 -1.880347E+05 -1.238880E+05 -6.216773E+05  1.252832E+05  3.825153E+04
       306  24 -1.648000E+06 -2.287735E+05 -7.679929E+04 -6.294619E+05  5.683980E+04  1.336728E+04
       306  25 -1.402548E+06 -2.921260E+05 -2.156536E+05 -4.246976E+05  1.888362E+05  6.806722E+04
       306  26 -1.318468E+06 -6.571377E+04 -4.306324E+04 -5.294160E+05  1.245767E+05  3.798954E+04
       306  27 -1.342709E+06 -1.355502E+05  1.349335E+03 -5.688732E+05  5.809363E+04  1.383572E+04
       307   1 -1.893695E+06 -3.655209E+05 -1.334077E+05 -6.869575E+05 -4.525487E+04 -1.033313E+04
       307   2 -1.878345E+06 -3.182658E+05 -9.568570E+04 -6.827059E+05 -2.967009E+04 -4.379425E+03
       307   3 -1.867396E+06 -3.203266E+05 -7.986834E+04 -6.822930E+05 -1.381084E+04  8.438748E+02
       307   4 -1.637448E+06 -2.630932E+05 -6.294146E+04 -6.112841E+05 -4.511369E+04 -1.028087E+04
       307   5 -1.633289E+06 -2.244830E+05 -2.921672E+04 -6.146015E+05 -2.976837E+04 -4.416544E+03
       307   6 -1.633480E+06 -2.351317E+05 -1.719951E+04 -6.217588E+05 -1.414897E+04  7.171101E+02
       307   7 -1.381136E+06 -1.606593E+05  7.518923E+03 -5.355814E+05 -4.497243E+04 -1.022858E+04
       307   8 -1.388176E+06 -1.306962E+05  3.724693E+04 -5.464725E+05 -2.986670E+04 -4.453680E+03
       307   9 -1.399511E+06 -1.499345E+05  4.546454E+04 -5.612044E+05 -1.448724E+04  5.902971E+02
       307  10 -1.893697E+06 -3.655216E+05 -1.334118E+05 -6.869579E+05 -1.667895E-10 -1.884410E-11
       307  11 -1.878346E+06 -3.182661E+05 -9.568739E+04 -6.827060E+05 -9.969592E-11 -1.098221E-10
       307  12 -1.867396E+06 -3.203267E+05 -7.986871E+04 -6.822930E+05  1.808621E-10 -5.016885E-10
       307  13 -1.637450E+06 -2.630939E+05 -6.294549E+04 -6.112844E+05 -2.780210E-10 -2.251469E-10
       307  14 -1.633290E+06 -2.244833E+05 -2.921842E+04 -6.146016E+05  9.213298E-11  1.096915E-10
       307  15 -1.633480E+06 -2.351317E+05 -1.719989E+04 -6.217588E+05 -3.892662E-10 -3.865339E-10
       307  16 -1.381138E+06 -1.606599E+05  7.514916E+03 -5.355818E+05  7.014387E-10 -6.158896E-10
       307  17 -1.388177E+06 -1.306964E+05  3.724522E+04 -5.464726E+05 -7.032123E-10  4.333031E-10
       307  18 -1.399512E+06 -1.499346E+05  4.546414E+04 -5.612044E+05 -1.227269E-10 -2.582244E-11
       307  19 -1.893695E+06 -3.655209E+05 -1.334077E+05 -6.869575E+05  4.525487E+04  1.033313E+04
       307  20 -1.878345E+06 -3.182658E+05 -9.568570E+04 -6.827059E+05  2.967009E+04  4.379425E+03
       307  21 -1.867396E+06 -3.203266E+05 -7.986834E+04 -6.822930E+05  1.381084E+04 -8.438748E+02
       307  22 -1.637448E+06 -2.630932E+05 -6.294146E+04 -6.112841E+05  4.511369E+04  1.028087E+04
       307  23 -1.633289E+06 -2.244830E+05 -2.921672E+04 -6.146015E+05  2.976837E+04  4.416544E+03
       307  24 -1.633480E+06 -2.351317E+05 -1.719951E+04 -6.217588E+05  1.414897E+04 -7.171101E+02
       307  25 -1.381136E+06 -1.606593E+05  7.518923E+03 -5.355814E+05  4.497243E+04  1.022858E+04
       307  26 -1.388176E+06 -1.306962E+05  3.724693E+04 -5.464725E+05  2.986670E+04  4.453680E+03
       307  27 -1.399511E+06 -1.499345E+05  4.546454E+04 -5.612044E+05  1.448724E+04 -5.902971E+02
       308   1 -1.826185E+06 -3.139369E+05 -6.626107E+04 -6.734340E+05 -1.128341E+04  1.261245E+03
       308   2 -1.814896E+06 -2.957516E+05 -5.485156E+04 -6.614800E+05 -7.516531E+03  2.010023E+03
       308   3 -1.791807E+06 -2.964836E+05 -4.740103E+04 -6.644355E+05 -3.700104E+03  2.625661E+03
       308   4 -1.631519E+06 -2.399735E+05 -1.359595E+04 -6.198750E+05 -1.145838E+04  1.195585E+03
       308   5 -1.637167E+06 -2.287140E+05 -6.828522E+03 -6.130951E+05 -7.735177E+03  1.928085E+03
       308   6 -1.631007E+06 -2.363620E+05 -3.984422E+03 -6.212248E+05 -3.962532E+03  2.527419E+03
       308   7 -1.436816E+06 -1.660080E+05  3.906568E+04 -5.663009E+05 -1.163341E+04  1.129902E+03
       308   8 -1.459408E+06 -1.616746E+05  4.119170E+04 -5.646978E+05 -7.953892E+03  1.846122E+03
       308   9 -1.470182E+06 -1.762389E+05  3.942997E+04 -5.780040E+05 -4.225035E+03  2.429149E+03
       308  10 -1.826185E+06 -3.139369E+05 -6.626132E+04 -6.734340E+05  5.101446E-11 -3.129329E-10
       308  11 -1.814896E+06 -2.957517E+05 -5.485167E+04 -6.614800E+05  5.432562E-10  6.864933E-10
       308  12 -1.791807E+06 -2.964836E+05 -4.740107E+04 -6.644355E+05  3.626416E-10  1.187343E-09
       308  13 -1.631519E+06 -2.399736E+05 -1.359620E+04 -6.198750E+05 -2.015527E-10 -3.095524E-10
       308  14 -1.637167E+06 -2.287141E+05 -6.828642E+03 -6.130951E+05  9.298435E-10  3.123404E-10
       308  15 -1.631007E+06 -2.363620E+05 -3.984464E+03 -6.212248E+05  1.439751E-10  4.020177E-10
       308  16 -1.436816E+06 -1.660080E+05  3.906542E+04 -5.663009E+05 -7.227941E-12 -6.886695E-11
       308  17 -1.459408E+06 -1.616746E+05  4.119157E+04 -5.646977E+05 -5.094310E-10 -3.518551E-10
       308  18 -1.470182E+06 -1.762389E+05  3.942993E+04 -5.780040E+05 -4.261084E-10 -3.123325E-10
       308  19 -1.826185E+06 -3.139369E+05 -6.626107E+04 -6.734340E+05  1.128341E+04 -1.261245E+03
       308  20 -1.814896E+06 -2.957516E+05 -5.485156E+04 -6.614800E+05  7.516531E+03 -2.010023E+03
       308  21 -1.791807E+06 -2.964836E+05 -4.740103E+04 -6.644355E+05  3.700104E+03 -2.625661E+03
       308  22 -1.631519E+06 -2.399735E+05 -1.359595E+04 -6.198750E+05  1.145838E+04 -1.195585E+03
       308  23 -1.637167E+06 -2.287140E+05 -6.828522E+03 -6.130951E+05  7.735177E+03 -1.928085E+03
       308  24 -1.631007E+06 -2.363620E+05 -3.984422E+03 -6.212248E+05  3.962532E+03 -2.527419E+03
       308  25 -1.436816E+06 -1.660080E+05  3.906568E+04 -5.663009E+05  1.163341E+04 -1.129902E+03
       308  26 -1.459408E+06 -1.616746E+05  4.119170E+04 -5.646978E+05  7.953892E+03 -1.846122E+03
       308  27 -1.470182E+06 -1.762389E+05  3.942997E+04 -5.780040E+05  4.225035E+03 -2.429149E+03
       309   1 -1.748596E+06 -2.817561E+05 -3.499655E+04 -6.534239E+05 -2.973319E+03  2.399342E+03
       309   2 -1.736949E+06 -2.661280E+05 -2.857235E+04 -6.393444E+05 -1.744633E+03  2.026192E+03
       309   3 -1.710110E+06 -2.667586E+05 -2.304400E+04 -6.429964E+05 -5.006021E+02  1.611323E+03
       309   4 -1.630458E+06 -2.372480E+05 -3.150979E+03 -6.212983E+05 -3.212223E+03  2.309946E+03
       309   5 -1.638025E+06 -2.289107E+05 -1.861879E+03 -6.125107E+05 -1.997379E+03  1.931662E+03
       309   6 -1.630398E+06 -2.368290E+05 -1.457444E+03 -6.214545E+05 -7.672265E+02  1.511652E+03
       309   7 -1.512306E+06 -1.927391E+05  2.869335E+04 -5.891671E+05 -3.451178E+03  2.220531E+03
       309   8 -1.539092E+06 -1.916928E+05  2.484769E+04 -5.856732E+05 -2.250171E+03  1.837115E+03
       309   9 -1.550681E+06 -2.068990E+05  2.012850E+04 -5.999103E+05 -1.033888E+03  1.411967E+03
       309  10 -1.748596E+06 -2.817561E+05 -3.499657E+04 -6.534239E+05  1.610936E-09  1.316334E-09
       309  11 -1.736949E+06 -2.661280E+05 -2.857236E+04 -6.393444E+05  1.277748E-09  1.379530E-09
       309  12 -1.710110E+06 -2.667586E+05 -2.304400E+04 -6.429964E+05 -5.259834E-12 -1.824832E-10
       309  13 -1.630458E+06 -2.372480E+05 -3.151008E+03 -6.212982E+05 -8.368203E-11  3.808999E-10
       309  14 -1.638025E+06 -2.289107E+05 -1.861894E+03 -6.125107E+05 -8.948114E-11  8.769462E-10
       309  15 -1.630398E+06 -2.368290E+05 -1.457449E+03 -6.214545E+05 -2.435523E-10 -1.890877E-10
       309  16 -1.512306E+06 -1.927391E+05  2.869331E+04 -5.891671E+05 -1.349460E-09 -7.024012E-10
       309  17 -1.539092E+06 -1.916928E+05  2.484767E+04 -5.856732E+05 -5.782786E-10 -8.737629E-10
       309  18 -1.550681E+06 -2.068990E+05  2.012849E+04 -5.999103E+05  1.156375E-10 -5.452386E-10
       309  19 -1.748596E+06 -2.817561E+05 -3.499655E+04 -6.534239E+05  2.973319E+03 -2.399342E+03
       309  20 -1.736949E+06 -2.661280E+05 -2.857235E+04 -6.393444E+05  1.744633E+03 -2.026192E+03
       309  21 -1.710110E+06 -2.667586E+05 -2.304400E+04 -6.429964E+05  5.006021E+02 -1.611323E+03
       309  22 -1.630458E+06 -2.372480E+05 -3.150979E+03 -6.212983E+05  3.212223E+03 -2.309946E+03
       309  23 -1.638025E+06 -2.289107E+05 -1.861879E+03 -6.125107E+05  1.997379E+03 -1.931662E+03
       309  24 -1.630398E+06 -2.368290E+05 -1.457444E+03 -6.214545E+05  7.672265E+02 -1.511652E+03
       309  25 -1.512306E+06 -1.927391E+05  2.869335E+04 -5.891671E+05  3.451178E+03 -2.220531E+03
       309  26 -1.539092E+06 -1.916928E+05  2.484769E+04 -5.856732E+05  2.250171E+03 -1.837115E+03
       309  27 -1.550681E+06 -2.068990E+05  2.012850E+04 -5.999103E+05  1.033888E+03 -1.411967E+03
       310   1 -1.664377E+06 -2.498513E+05 -1.058305E+04 -6.309227E+05 -9.240299E+01  1.238981E+03
       310   2 -1.652300E+06 -2.340337E+05 -5.539997E+03 -6.161176E+05  1.077463E+03  7.834650E+02
       310   3 -1.624395E+06 -2.350529E+05 -1.325539E+03 -6.198052E+05  2.247045E+03  3.287239E+02
       310   4 -1.630260E+06 -2.369819E+05 -1.438182E+03 -6.216142E+05 -3.559687E+02  1.140475E+03
       310   5 -1.638197E+06 -2.287382E+05 -1.734223E+03 -6.123025E+05  8.141732E+02  6.850666E+02
       310   6 -1.630309E+06 -2.373316E+05 -2.859153E+03 -6.214838E+05  1.983999E+03  2.304235E+02
       310   7 -1.596140E+06 -2.241123E+05  7.706607E+03 -6.123052E+05 -6.195508E+02  1.041962E+03
       310   8 -1.624095E+06 -2.234428E+05  2.071539E+03 -6.084874E+05  5.508767E+02  5.866656E+02
       310   9 -1.636223E+06 -2.396104E+05 -4.392769E+03 -6.231625E+05  1.720956E+03  1.321241E+02
       310  10 -1.664377E+06 -2.498513E+05 -1.058306E+04 -6.309227E+05 -2.949770E-10  6.295103E-10
       310  11 -1.652300E+06 -2.340337E+05 -5.540001E+03 -6.161176E+05  5.224506E-10  9.995056E-10
       310  12 -1.624395E+06 -2.350529E+05 -1.325549E+03 -6.198052E+05  1.133093E-09 -4.239470E-10
       310  13 -1.630260E+06 -2.369819E+05 -1.438185E+03 -6.216142E+05 -1.408340E-10 -5.923064E-10
       310  14 -1.638197E+06 -2.287382E+05 -1.734225E+03 -6.123025E+05 -1.890783E-10  5.518112E-10
       310  15 -1.630309E+06 -2.373316E+05 -2.859160E+03 -6.214838E+05  5.174735E-10 -1.486596E-10
       310  16 -1.596140E+06 -2.241123E+05  7.706604E+03 -6.123052E+05 -1.376331E-10  6.708186E-11
       310  17 -1.624095E+06 -2.234428E+05  2.071538E+03 -6.084874E+05  1.137692E-10 -6.133680E-10
       310  18 -1.636223E+06 -2.396104E+05 -4.392775E+03 -6.231625E+05 -4.479108E-10 -6.500117E-10
       310  19 -1.664377E+06 -2.498513E+05 -1.058305E+04 -6.309227E+05  9.240299E+01 -1.238981E+03
       310  20 -1.652300E+06 -2.340337E+05 -5.539997E+03 -6.161176E+05 -1.077463E+03 -7.834650E+02
       310  21 -1.624395E+06 -2.350529E+05 -1.325539E+03 -6.198052E+05 -2.247045E+03 -3.287239E+02
       310  22 -1.630260E+06 -2.369819E+05 -1.438182E+03 -6.216142E+05  3.559687E+02 -1.140475E+03
       310  23 -1.638197E+06 -2.287382E+05 -1.734223E+03 -6.123025E+05 -8.141732E+02 -6.850666E+02
       310  24 -1.630309E+06 -2.373316E+05 -2.859153E+03 -6.214838E+05 -1.983999E+03 -2.304235E+02
       310  25 -1.596140E+06 -2.241123E+05  7.706607E+03 -6.123052E+05  6.195508E+02 -1.041962E+03
       310  26 -1.624095E+06 -2.234428E+05  2.071539E+03 -6.084874E+05 -5.508767E+02 -5.866656E+02
       310  27 -1.636223E+06 -2.396104E+05 -4.392769E+03 -6.231625E+05 -1.720956E+03 -1.321241E+02
       311   1 -1.578413E+06 -2.175123E+05  1.048936E+04 -6.079234E+05  2.969999E+03  6.170601E+01
       311   2 -1.566236E+06 -2.012579E+05  1.319629E+04 -5.929712E+05  6.381108E+03  4.418114E+02
       311   3 -1.540226E+06 -2.052695E+05  1.239022E+04 -5.952451E+05  9.761951E+03  9.036933E+02
       311   4 -1.630571E+06 -2.367850E+05 -3.599229E+03 -6.216922E+05  2.692024E+03 -4.218200E+01
       311   5 -1.637712E+06 -2.282602E+05 -6.121851E+03 -6.124777E+05  6.130250E+03  3.480215E+02
       311   6 -1.631026E+06 -2.400074E+05 -1.217934E+04 -6.204897E+05  9.538108E+03  8.199636E+02
       311   7 -1.682726E+06 -2.560575E+05 -1.768804E+04 -6.354599E+05  2.414076E+03 -1.460606E+02
       311   8 -1.709183E+06 -2.552623E+05 -2.544045E+04 -6.319823E+05  5.879423E+03  2.542437E+02
       311   9 -1.721819E+06 -2.747449E+05 -3.674969E+04 -6.457310E+05  9.314301E+03  7.362477E+02
       311  10 -1.578413E+06 -2.175123E+05  1.048935E+04 -6.079234E+05 -2.863921E-10 -4.497698E-10
       311  11 -1.566236E+06 -2.012579E+05  1.319621E+04 -5.929712E+05 -2.694672E-10  1.038600E-09
       311  12 -1.540226E+06 -2.052695E+05  1.239004E+04 -5.952451E+05  1.691785E-09  3.309982E-10
       311  13 -1.630571E+06 -2.367850E+05 -3.599243E+03 -6.216922E+05 -4.111555E-10  2.033023E-10
       311  14 -1.637712E+06 -2.282602E+05 -6.121922E+03 -6.124777E+05  5.351194E-10 -2.721789E-11
       311  15 -1.631026E+06 -2.400074E+05 -1.217951E+04 -6.204897E+05 -7.050174E-11 -1.330708E-09
       311  16 -1.682726E+06 -2.560575E+05 -1.768805E+04 -6.354599E+05  2.567859E-10 -2.732894E-10
       311  17 -1.709183E+06 -2.552623E+05 -2.544051E+04 -6.319823E+05 -1.786101E-10  1.724897E-09
       311  18 -1.721819E+06 -2.747449E+05 -3.674985E+04 -6.457310E+05 -8.079476E-10 -1.743212E-09
       311  19 -1.578413E+06 -2.175123E+05  1.048936E+04 -6.079234E+05 -2.969999E+03 -6.170601E+01
       311  20 -1.566236E+06 -2.012579E+05  1.319629E+04 -5.929712E+05 -6.381108E+03 -4.418114E+02
       311  21 -1.540226E+06 -2.052695E+05  1.239022E+04 -5.952451E+05 -9.761951E+03 -9.036933E+02
       311  22 -1.630571E+06 -2.367850E+05 -3.599229E+03 -6.216922E+05 -2.692024E+03  4.218200E+01
       311  23 -1.637712E+06 -2.282602E+05 -6.121851E+03 -6.124777E+05 -6.130250E+03 -3.480215E+02
       311  24 -1.631026E+06 -2.400074E+05 -1.217934E+04 -6.204897E+05 -9.538108E+03 -8.199636E+02
       311  25 -1.682726E+06 -2.560575E+05 -1.768804E+04 -6.354599E+05 -2.414076E+03  1.460606E+02
       311  26 -1.709183E+06 -2.552623E+05 -2.544045E+04 -6.319823E+05 -5.879423E+03 -2.542437E+02
       311  27 -1.721819E+06 -2.747449E+05 -3.674969E+04 -6.457310E+05 -9.314301E+03 -7.362477E+02
       312   1 -1.495809E+06 -1.870123E+05  2.108084E+04 -5.879917E+05  1.233888E+04  1.278800E+03
       312   2 -1.482458E+06 -1.657417E+05  1.513702E+04 -5.709623E+05  2.620446E+04  5.602277E+03
       312   3 -1.468839E+06 -1.927535E+05 -1.010642E+04 -5.622811E+05  3.985776E+04  1.049462E+04
       312   4 -1.632595E+06 -2.358701E+05 -1.540440E+04 -6.223962E+05  1.198693E+04  1.147196E+03
       312   5 -1.634476E+06 -2.242258E+05 -2.614500E+04 -6.135434E+05  2.604051E+04  5.540796E+03
       312   6 -1.636131E+06 -2.609069E+05 -5.633827E+04 -6.130386E+05  3.988139E+04  1.050297E+04
       312   7 -1.769363E+06 -2.847273E+05 -5.189127E+04 -6.567942E+05  1.163507E+04  1.015620E+03
       312   8 -1.786472E+06 -2.827083E+05 -6.742906E+04 -6.561149E+05  2.587659E+04  5.479332E+03
       312   9 -1.803396E+06 -3.290573E+05 -1.025726E+05 -6.637831E+05  3.990501E+04  1.051132E+04
       312  10 -1.495809E+06 -1.870123E+05  2.108055E+04 -5.879917E+05 -1.193471E-10 -1.375821E-09
       312  11 -1.482458E+06 -1.657419E+05  1.513567E+04 -5.709624E+05 -2.183005E-09 -2.162814E-09
       312  12 -1.468841E+06 -1.927540E+05 -1.010962E+04 -5.622815E+05 -5.868223E-10 -7.820128E-10
       312  13 -1.632595E+06 -2.358701E+05 -1.540468E+04 -6.223962E+05  3.107156E-10  5.357476E-10
       312  14 -1.634477E+06 -2.242261E+05 -2.614634E+04 -6.135435E+05 -2.282561E-09 -1.926817E-09
       312  15 -1.636133E+06 -2.609075E+05 -5.634148E+04 -6.130389E+05 -1.040519E-09  2.304236E-10
       312  16 -1.769363E+06 -2.847273E+05 -5.189153E+04 -6.567942E+05 -6.140982E-10 -1.493826E-09
       312  17 -1.786473E+06 -2.827085E+05 -6.743038E+04 -6.561151E+05 -1.568102E-09  8.994341E-11
       312  18 -1.803398E+06 -3.290579E+05 -1.025758E+05 -6.637835E+05 -6.767332E-10  2.895506E-10
       312  19 -1.495809E+06 -1.870123E+05  2.108084E+04 -5.879917E+05 -1.233888E+04 -1.278800E+03
       312  20 -1.482458E+06 -1.657417E+05  1.513702E+04 -5.709623E+05 -2.620446E+04 -5.602277E+03
       312  21 -1.468839E+06 -1.927535E+05 -1.010642E+04 -5.622811E+05 -3.985776E+04 -1.049462E+04
       312  22 -1.632595E+06 -2.358701E+05 -1.540440E+04 -6.223962E+05 -1.198693E+04 -1.147196E+03
       312  23 -1.634476E+06 -2.242258E+05 -2.614500E+04 -6.135434E+05 -2.604051E+04 -5.540796E+03
       312  24 -1.636131E+06 -2.609069E+05 -5.633827E+04 -6.130386E+05 -3.988139E+04 -1.050297E+04
       312  25 -1.769363E+06 -2.847273E+05 -5.189127E+04 -6.567942E+05 -1.163507E+04 -1.015620E+03
       312  26 -1.786472E+06 -2.827083E+05 -6.742906E+04 -6.561149E+05 -2.587659E+04 -5.479332E+03
       312  27 -1.803396E+06 -3.290573E+05 -1.025726E+05 -6.637831E+05 -3.990501E+04 -1.051132E+04
       313   1 -1.421381E+06 -1.654865E+05 -1.206229E+04 -5.887397E+05  5.149328E+04  1.361409E+04
       313   2 -1.395963E+06 -9.835500E+04 -5.018842E+04 -5.489697E+05  1.112723E+05  3.504021E+04
       313   3 -1.462667E+06 -3.014265E+05 -2.032161E+05 -4.565566E+05  1.692803E+05  6.120318E+04
       313   4 -1.645462E+06 -2.303056E+05 -6.874093E+04 -6.294379E+05  5.040021E+04  1.320666E+04
       313   5 -1.612859E+06 -1.914157E+05 -1.108749E+05 -6.196632E+05  1.117504E+05  3.521666E+04
       313   6 -1.672729E+06 -4.231022E+05 -2.691901E+05 -5.572365E+05  1.713298E+05  6.195700E+04
       313   7 -1.869495E+06 -2.951260E+05 -1.254234E+05 -6.701251E+05  4.930757E+04  1.279930E+04
       313   8 -1.829709E+06 -2.844695E+05 -1.715658E+05 -6.903330E+05  1.122284E+05  3.539302E+04
       313   9 -1.882742E+06 -5.447532E+05 -3.351679E+05 -6.578793E+05  1.733785E+05  6.271018E+04
       313  10 -1.421384E+06 -1.654874E+05 -1.206763E+04 -5.887403E+05 -2.250364E-10  8.914599E-11
       313  11 -1.395977E+06 -9.835965E+04 -5.021406E+04 -5.489728E+05  2.484397E-11 -2.395883E-10
       313  12 -1.462699E+06 -3.014382E+05 -2.032771E+05 -4.565649E+05 -4.393379E-10  8.748219E-11
       313  13 -1.645465E+06 -2.303065E+05 -6.874604E+04 -6.294384E+05  3.747770E-10  6.087146E-10
       313  14 -1.612873E+06 -1.914204E+05 -1.109008E+05 -6.196664E+05 -1.314892E-09 -1.060047E-09
       313  15 -1.672761E+06 -4.231143E+05 -2.692526E+05 -5.572451E+05 -3.386918E-10 -1.695848E-10
       313  16 -1.869498E+06 -2.951269E+05 -1.254283E+05 -6.701256E+05  5.157500E-10  4.575622E-10
       313  17 -1.829723E+06 -2.844742E+05 -1.715919E+05 -6.903362E+05  1.171247E-10  4.184720E-10
       313  18 -1.882775E+06 -5.447656E+05 -3.352320E+05 -6.578880E+05  2.289647E-10  1.677318E-14
       313  19 -1.421381E+06 -1.654865E+05 -1.206229E+04 -5.887397E+05 -5.149328E+04 -1.361409E+04
       313  20 -1.395963E+06 -9.835500E+04 -5.018842E+04 -5.489697E+05 -1.112723E+05 -3.504021E+04
       313  21 -1.462667E+06 -3.014265E+05 -2.032161E+05 -4.565566E+05 -1.692803E+05 -6.120318E+04
       313  22 -1.645462E+06 -2.303056E+05 -6.874093E+04 -6.294379E+05 -5.040021E+04 -1.320666E+04
       313  23 -1.612859E+06 -1.914157E+05 -1.108749E+05 -6.196632E+05 -1.117504E+05 -3.521666E+04
       313  24 -1.672729E+06 -4.231022E+05 -2.691901E+05 -5.572365E+05 -1.713298E+05 -6.195700E+04
       313  25 -1.869495E+06 -2.951260E+05 -1.254234E+05 -6.701251E+05 -4.930757E+04 -1.279930E+04
       313  26 -1.829709E+06 -2.844695E+05 -1.715658E+05 -6.903330E+05 -1.122284E+05 -3.539302E+04
       313  27 -1.882742E+06 -5.447532E+05 -3.351679E+05 -6.578793E+05 -1.733785E+05 -6.271018E+04
       314   1  2.266440E+06  4.573847E+05  6.341706E+05  1.230368E+05  5.386048E+05  6.715037E+03
       314   2  2.202883E+06 -2.653159E+05  1.976453E+05  4.424496E+04  3.559634E+05  1.574990E+04
       314   3  2.369799E+06 -1.650098E+05  8.584801E+04 -8.880186E+04  1.733245E+05  1.304027E+04
       314   4  2.920936E+06  6.192236E+05  7.958878E+05 -2.271528E+04  5.445964E+05  6.603955E+03
       314   5  2.805867E+06 -1.159012E+05  3.444158E+05  5.270610E+03  3.575169E+05  1.572963E+04
       314   6  2.921776E+06 -2.772477E+04  2.204979E+05 -2.100476E+04  1.704564E+05  1.305322E+04
       314   7  3.575866E+06  7.811110E+05  9.575851E+05 -1.686208E+05  5.505940E+05  6.490179E+03
       314   8  3.409184E+06  3.349255E+04  4.911608E+05 -3.374175E+04  3.590717E+05  1.570918E+04
       314   9  3.474040E+06  1.095550E+05  3.551281E+05  4.685244E+04  1.675857E+05  1.306554E+04
       314  10  2.266129E+06  4.573071E+05  6.336273E+05  1.230339E+05 -1.142304E-09  1.149080E-09
       314  11  2.202747E+06 -2.653500E+05  1.974077E+05  4.424045E+04  1.871839E-10 -4.239216E-10
       314  12  2.369767E+06 -1.650181E+05  8.579146E+04 -8.880368E+04  1.588521E-09 -7.664952E-11
       314  13  2.920619E+06  6.191444E+05  7.953330E+05 -2.271817E+04 -1.535245E-12  5.456277E-10
       314  14  2.805730E+06 -1.159356E+05  3.441762E+05  5.266087E+03 -1.925498E-09 -2.709095E-09
       314  15  2.921745E+06 -2.773271E+04  2.204432E+05 -2.100655E+04 -1.214348E-09  2.410244E-10
       314  16  3.575542E+06  7.810301E+05  9.570185E+05 -1.686236E+05  4.987311E-10 -1.492780E-10
       314  17  3.409046E+06  3.345792E+04  4.909194E+05 -3.374628E+04 -1.138521E-09 -5.752979E-11
       314  18  3.474010E+06  1.095473E+05  3.550753E+05  4.685068E+04 -2.104701E-09 -8.991826E-10
       314  19  2.266440E+06  4.573847E+05  6.341706E+05  1.230368E+05 -5.386048E+05 -6.715037E+03
       314  20  2.202883E+06 -2.653159E+05  1.976453E+05  4.424496E+04 -3.559634E+05 -1.574990E+04
       314  21  2.369799E+06 -1.650098E+05  8.584801E+04 -8.880186E+04 -1.733245E+05 -1.304027E+04
       314  22  2.920936E+06  6.192236E+05  7.958878E+05 -2.271528E+04 -5.445964E+05 -6.603955E+03
       314  23  2.805867E+06 -1.159012E+05  3.444158E+05  5.270610E+03 -3.575169E+05 -1.572963E+04
       314  24  2.921776E+06 -2.772477E+04  2.204979E+05 -2.100476E+04 -1.704564E+05 -1.305322E+04
       314  25  3.575866E+06  7.811110E+05  9.575851E+05 -1.686208E+05 -5.505940E+05 -6.490179E+03
       314  26  3.409184E+06  3.349255E+04  4.911608E+05 -3.374175E+04 -3.590717E+05 -1.570918E+04
       314  27  3.474040E+06  1.095550E+05  3.551281E+05  4.685244E+04 -1.675857E+05 -1.306554E+04
       315   1  2.418453E+06 -3.559004E+04  6.913331E+04 -2.170069E+03  1.349117E+05  1.019985E+04
       315   2  2.442876E+06 -1.186894E+05 -1.240082E+04  6.165048E+03  8.887739E+04  9.775174E+03
       315   3  2.499894E+06 -9.726334E+04 -3.780301E+04 -2.790412E+04  4.284221E+04  8.269040E+03
       315   4  2.877508E+06  7.830373E+04  1.811998E+05 -1.897220E+04  1.350459E+05  1.019583E+04
       315   5  2.861264E+06 -1.486133E+04  8.961872E+04  2.287004E+03  8.858968E+04  9.773817E+03
       315   6  2.877663E+06 -3.468017E+03  5.443165E+04 -1.885560E+04  4.213557E+04  8.268763E+03
       315   7  3.336754E+06  1.921831E+05  2.932512E+05 -3.578680E+04  1.351802E+05  1.019181E+04
       315   8  3.279811E+06  8.895390E+04  1.916256E+05 -1.593697E+03  8.830178E+04  9.772464E+03
       315   9  3.255561E+06  9.031711E+04  1.466560E+05 -9.801607E+03  4.142850E+04  8.268465E+03
       315  10  2.418434E+06 -3.559502E+04  6.909904E+04 -2.171176E+03 -4.790505E-10 -1.364369E-09
       315  11  2.442868E+06 -1.186916E+05 -1.241578E+04  6.164349E+03  1.406954E-09  1.229768E-09
       315  12  2.499892E+06 -9.726390E+04 -3.780657E+04 -2.790441E+04 -4.642213E-10  8.188088E-11
       315  13  2.877488E+06  7.829875E+04  1.811655E+05 -1.897330E+04  5.062453E-10 -5.206941E-10
       315  14  2.861256E+06 -1.486353E+04  8.960386E+04  2.286307E+03 -1.452846E-09 -1.230040E-11
       315  15  2.877661E+06 -3.468564E+03  5.442820E+04 -1.885588E+04 -1.379416E-09 -7.482198E-10
       315  16  3.336734E+06  1.921781E+05  2.932168E+05 -3.578791E+04  4.512209E-10  2.966148E-10
       315  17  3.279803E+06  8.895172E+04  1.916108E+05 -1.594391E+03 -1.833193E-09 -1.457422E-09
       315  18  3.255559E+06  9.031658E+04  1.466526E+05 -9.801882E+03  1.605489E-10  3.077492E-11
       315  19  2.418453E+06 -3.559004E+04  6.913331E+04 -2.170069E+03 -1.349117E+05 -1.019985E+04
       315  20  2.442876E+06 -1.186894E+05 -1.240082E+04  6.165048E+03 -8.887739E+04 -9.775174E+03
       315  21  2.499894E+06 -9.726334E+04 -3.780301E+04 -2.790412E+04 -4.284221E+04 -8.269040E+03
       315  22  2.877508E+06  7.830373E+04  1.811998E+05 -1.897220E+04 -1.350459E+05 -1.019583E+04
       315  23  2.861264E+06 -1.486133E+04  8.961872E+04  2.287004E+03 -8.858968E+04 -9.773817E+03
       315  24  2.877663E+06 -3.468017E+03  5.443165E+04 -1.885560E+04 -4.213557E+04 -8.268763E+03
       315  25  3.336754E+06  1.921831E+05  2.932512E+05 -3.578680E+04 -1.351802E+05 -1.019181E+04
       315  26  3.279811E+06  8.895390E+04  1.916256E+05 -1.593697E+03 -8.830178E+04 -9.772464E+03
       315  27  3.255561E+06  9.031711E+04  1.466560E+05 -9.801607E+03 -4.142850E+04 -8.268465E+03
       316   1  2.570097E+06 -6.500755E+04 -3.034489E+04 -1.562496E+04  3.381868E+04  7.297816E+03
       316   2  2.601503E+06 -6.830896E+04 -4.218891E+04  5.870138E+02  2.215946E+04  6.128011E+03
       316   3  2.637916E+06 -5.840622E+04 -4.312322E+04 -1.853390E+04  1.049873E+04  4.939240E+03
       316   4  2.871512E+06  9.776619E+03  4.307616E+04 -1.732377E+04  3.341298E+04  7.297232E+03
       316   5  2.869025E+06 -1.916750E+03  2.305559E+04  3.451531E+02  2.174178E+04  6.127652E+03
       316   6  2.871543E+06 -4.074733E+02  1.394898E+04 -1.731776E+04  1.006971E+04  4.939060E+03
       316   7  3.173010E+06  8.455413E+04  1.164906E+05 -1.902341E+04  3.300707E+04  7.296650E+03
       316   8  3.136612E+06  6.447020E+04  8.829489E+04  1.031813E+02  2.132393E+04  6.127294E+03
       316   9  3.105219E+06  5.758726E+04  7.101720E+04 -1.610116E+04  9.640525E+03  4.938878E+03
       316  10  2.570096E+06 -6.500791E+04 -3.034713E+04 -1.562515E+04  5.397771E-10  1.142033E-10
       316  11  2.601502E+06 -6.830913E+04 -4.218990E+04  5.869045E+02  4.231927E-10  6.565467E-11
       316  12  2.637916E+06 -5.840628E+04 -4.312347E+04 -1.853394E+04 -1.734954E-10 -1.747586E-10
       316  13  2.871511E+06  9.776264E+03  4.307397E+04 -1.732396E+04 -5.728017E-10 -2.156051E-10
       316  14  2.869025E+06 -1.916916E+03  2.305463E+04  3.450459E+02  2.733204E-10 -2.246503E-10
       316  15  2.871543E+06 -4.075266E+02  1.394874E+04 -1.731780E+04  9.468442E-10 -1.884896E-10
       316  16  3.173009E+06  8.455379E+04  1.164885E+05 -1.902360E+04 -8.111738E-10 -3.917092E-10
       316  17  3.136612E+06  6.447004E+04  8.829397E+04  1.030762E+02 -3.120725E-10 -5.457574E-10
       316  18  3.105219E+06  5.758721E+04  7.101698E+04 -1.610120E+04 -1.371532E-09 -5.051964E-10
       316  19  2.570097E+06 -6.500755E+04 -3.034489E+04 -1.562496E+04 -3.381868E+04 -7.297816E+03
       316  20  2.601503E+06 -6.830896E+04 -4.218891E+04  5.870138E+02 -2.215946E+04 -6.128011E+03
       316  21  2.637916E+06 -5.840622E+04 -4.312322E+04 -1.853390E+04 -1.049873E+04 -4.939240E+03
       316  22  2.871512E+06  9.776619E+03  4.307616E+04 -1.732377E+04 -3.341298E+04 -7.297232E+03
       316  23  2.869025E+06 -1.916750E+03  2.305559E+04  3.451531E+02 -2.174178E+04 -6.127652E+03
       316  24  2.871543E+06 -4.074733E+02  1.394898E+04 -1.731776E+04 -1.006971E+04 -4.939060E+03
       316  25  3.173010E+06  8.455413E+04  1.164906E+05 -1.902341E+04 -3.300707E+04 -7.296650E+03
       316  26  3.136612E+06  6.447020E+04  8.829489E+04  1.031813E+02 -2.132393E+04 -6.127294E+03
       316  27  3.105219E+06  5.758726E+04  7.101720E+04 -1.610116E+04 -9.640525E+03 -4.938878E+03
       317   1  2.702480E+06 -4.052600E+04 -2.984953E+04 -1.625005E+04  8.219360E+03  4.260349E+03
       317   2  2.731945E+06 -3.457558E+04 -2.682924E+04 -8.044901E+02  4.763735E+03  3.155996E+03
       317   3  2.762351E+06 -2.681821E+04 -2.110614E+04 -1.655099E+04  1.307547E+03  2.096867E+03
       317   4  2.870645E+06  1.186357E+03  1.106400E+04 -1.639953E+04  7.813788E+03  4.260235E+03
       317   5  2.870179E+06 -2.717531E+02  6.882721E+03 -8.036697E+02  4.373671E+03  3.155954E+03
       317   6  2.870651E+06  7.416530E+01  5.393017E+03 -1.639943E+04  9.331549E+02  2.096895E+03
       317   7  3.038836E+06  4.289664E+04  5.197549E+04 -1.654905E+04  7.408108E+03  4.260121E+03
       317   8  3.008430E+06  3.403067E+04  4.059330E+04 -8.028490E+02  3.983521E+03  3.155913E+03
       317   9  2.978961E+06  2.696567E+04  3.189132E+04 -1.624785E+04  5.586979E+02  2.096923E+03
       317  10  2.702480E+06 -4.052604E+04 -2.984969E+04 -1.625008E+04  5.398532E-10  3.366089E-10
       317  11  2.731945E+06 -3.457560E+04 -2.682930E+04 -8.045021E+02 -1.123222E-09  3.518505E-10
       317  12  2.762351E+06 -2.681821E+04 -2.110615E+04 -1.655099E+04 -2.098125E-09  3.773495E-11
       317  13  2.870645E+06  1.186321E+03  1.106386E+04 -1.639955E+04 -4.632898E-10  9.382489E-12
       317  14  2.870179E+06 -2.717690E+02  6.882667E+03 -8.036808E+02  1.319229E-09  6.035187E-11
       317  15  2.870651E+06  7.416034E+01  5.393007E+03 -1.639944E+04  1.487012E-10 -2.466171E-10
       317  16  3.038836E+06  4.289661E+04  5.197535E+04 -1.654907E+04  8.980774E-10  4.222338E-10
       317  17  3.008430E+06  3.403066E+04  4.059325E+04 -8.028592E+02 -1.870735E-10  4.543554E-11
       317  18  2.978961E+06  2.696567E+04  3.189131E+04 -1.624785E+04  1.341447E-09 -5.287213E-10
       317  19  2.702480E+06 -4.052600E+04 -2.984953E+04 -1.625005E+04 -8.219360E+03 -4.260349E+03
       317  20  2.731945E+06 -3.457558E+04 -2.682924E+04 -8.044901E+02 -4.763735E+03 -3.155996E+03
       317  21  2.762351E+06 -2.681821E+04 -2.110614E+04 -1.655099E+04 -1.307547E+03 -2.096867E+03
       317  22  2.870645E+06  1.186357E+03  1.106400E+04 -1.639953E+04 -7.813788E+03 -4.260235E+03
       317  23  2.870179E+06 -2.717531E+02  6.882721E+03 -8.036697E+02 -4.373671E+03 -3.155954E+03
       317  24  2.870651E+06  7.416530E+01  5.393017E+03 -1.639943E+04 -9.331549E+02 -2.096895E+03
       317  25  3.038836E+06  4.289664E+04  5.197549E+04 -1.654905E+04 -7.408108E+03 -4.260121E+03
       317  26  3.008430E+06  3.403067E+04  4.059330E+04 -8.028490E+02 -3.983521E+03 -3.155913E+03
       317  27  2.978961E+06  2.696567E+04  3.189132E+04 -1.624785E+04 -5.586979E+02 -2.096923E+03
       318   1  2.822131E+06 -1.190798E+04 -6.493757E+03 -1.590479E+04  3.473823E+02  1.492986E+03
       318   2  2.850135E+06 -5.213392E+03  1.156576E+03 -1.254639E+03 -2.684499E+03  4.583718E+02
       318   3  2.878904E+06  3.016804E+03  1.115529E+04 -1.618306E+04 -5.716532E+03 -5.602547E+02
       318   4  2.870615E+06  1.050213E+02  5.239226E+03 -1.604104E+04 -2.940937E+01  1.493044E+03
       318   5  2.870231E+06 -2.266822E+02  6.057422E+03 -1.251689E+03 -3.055630E+03  4.584370E+02
       318   6  2.870611E+06  9.763891E+02  9.220219E+03 -1.604086E+04 -6.081867E+03 -5.601809E+02
       318   7  2.919101E+06  1.211785E+04  1.697204E+04 -1.617729E+04 -4.062303E+02  1.493102E+03
       318   8  2.890328E+06  4.759998E+03  1.095824E+04 -1.248738E+03 -3.426774E+03  4.585023E+02
       318   9  2.862318E+06 -1.064031E+03  7.285142E+03 -1.589865E+04 -6.447197E+03 -5.601072E+02
       318  10  2.822131E+06 -1.190798E+04 -6.493762E+03 -1.590479E+04 -5.222538E-10 -3.097278E-10
       318  11  2.850135E+06 -5.213394E+03  1.156562E+03 -1.254638E+03 -6.666819E-10  1.896662E-10
       318  12  2.878904E+06  3.016795E+03  1.115523E+04 -1.618307E+04  7.330953E-10 -4.269050E-10
       318  13  2.870615E+06  1.050189E+02  5.239222E+03 -1.604104E+04 -1.171105E-09  2.063420E-10
       318  14  2.870231E+06 -2.266849E+02  6.057404E+03 -1.251688E+03  3.964939E-10  5.710144E-10
       318  15  2.870611E+06  9.763789E+02  9.220149E+03 -1.604086E+04  1.368304E-09 -1.129081E-09
       318  16  2.919101E+06  1.211785E+04  1.697204E+04 -1.617729E+04  7.172906E-10  1.945880E-10
       318  17  2.890328E+06  4.759994E+03  1.095822E+04 -1.248737E+03 -6.069300E-10  6.396668E-10
       318  18  2.862318E+06 -1.064042E+03  7.285064E+03 -1.589865E+04  5.324718E-10 -4.145672E-10
       318  19  2.822131E+06 -1.190798E+04 -6.493757E+03 -1.590479E+04 -3.473823E+02 -1.492986E+03
       318  20  2.850135E+06 -5.213392E+03  1.156576E+03 -1.254639E+03  2.684499E+03 -4.583718E+02
       318  21  2.878904E+06  3.016804E+03  1.115529E+04 -1.618306E+04  5.716532E+03  5.602547E+02
       318  22  2.870615E+06  1.050213E+02  5.239226E+03 -1.604104E+04  2.940937E+01 -1.493044E+03
       318  23  2.870231E+06 -2.266822E+02  6.057422E+03 -1.251689E+03  3.055630E+03 -4.584370E+02
       318  24  2.870611E+06  9.763891E+02  9.220219E+03 -1.604086E+04  6.081867E+03  5.601809E+02
       318  25  2.919101E+06  1.211785E+04  1.697204E+04 -1.617729E+04  4.062303E+02 -1.493102E+03
       318  26  2.890328E+06  4.759998E+03  1.095824E+04 -1.248738E+03  3.426774E+03 -4.585023E+02
       318  27  2.862318E+06 -1.064031E+03  7.285142E+03 -1.589865E+04  6.447197E+03  5.601072E+02
       319   1  2.938604E+06  1.640089E+04  2.797014E+04 -1.526748E+04 -7.564295E+03 -1.165118E+03
       319   2  2.965772E+06  2.238789E+04  4.225541E+04 -1.312026E+03 -1.706768E+04 -2.206800E+03
       319   3  2.996857E+06  3.907118E+04  6.538264E+04 -1.770998E+04 -2.657148E+04 -3.205612E+03
       319   4  2.871312E+06 -3.130759E+02  1.147464E+04 -1.621340E+04 -7.948221E+03 -1.165042E+03
       319   5  2.869343E+06 -1.538254E+03  1.874363E+04 -1.036404E+03 -1.743482E+04 -2.206794E+03
       319   6  2.871287E+06  7.930978E+03  3.484412E+04 -1.621305E+04 -2.692138E+04 -3.205707E+03
       319   7  2.804023E+06 -1.702737E+04 -5.021201E+03 -1.715921E+04 -8.332106E+03 -1.164965E+03
       319   8  2.772921E+06 -2.546508E+04 -4.768825E+03 -7.608245E+02 -1.780189E+04 -2.206788E+03
       319   9  2.745732E+06 -2.321037E+04  4.304455E+03 -1.471642E+04 -2.727121E+04 -3.205804E+03
       319  10  2.938604E+06  1.640087E+04  2.797003E+04 -1.526749E+04 -1.604624E-09 -6.485079E-10
       319  11  2.965772E+06  2.238781E+04  4.225486E+04 -1.312057E+03  1.149281E-10  2.822445E-10
       319  12  2.996857E+06  3.907098E+04  6.538130E+04 -1.771005E+04 -6.127991E-10  6.748474E-12
       319  13  2.871312E+06 -3.130942E+02  1.147451E+04 -1.621340E+04  4.958535E-10 -6.920516E-10
       319  14  2.869342E+06 -1.538341E+03  1.874305E+04 -1.036435E+03  2.671125E-09 -3.738881E-10
       319  15  2.871287E+06  7.930774E+03  3.484274E+04 -1.621312E+04  9.891913E-10  5.110590E-11
       319  16  2.804023E+06 -1.702739E+04 -5.021334E+03 -1.715921E+04  7.869309E-10 -4.781393E-10
       319  17  2.772921E+06 -2.546517E+04 -4.769427E+03 -7.608561E+02  1.546401E-09 -1.179617E-10
       319  18  2.745731E+06 -2.321058E+04  4.303044E+03 -1.471649E+04  8.989034E-10  1.809955E-10
       319  19  2.938604E+06  1.640089E+04  2.797014E+04 -1.526748E+04  7.564295E+03  1.165118E+03
       319  20  2.965772E+06  2.238789E+04  4.225541E+04 -1.312026E+03  1.706768E+04  2.206800E+03
       319  21  2.996857E+06  3.907118E+04  6.538264E+04 -1.770998E+04  2.657148E+04  3.205612E+03
       319  22  2.871312E+06 -3.130759E+02  1.147464E+04 -1.621340E+04  7.948221E+03  1.165042E+03
       319  23  2.869343E+06 -1.538254E+03  1.874363E+04 -1.036404E+03  1.743482E+04  2.206794E+03
       319  24  2.871287E+06  7.930978E+03  3.484412E+04 -1.621305E+04  2.692138E+04  3.205707E+03
       319  25  2.804023E+06 -1.702737E+04 -5.021201E+03 -1.715921E+04  8.332106E+03  1.164965E+03
       319  26  2.772921E+06 -2.546508E+04 -4.768825E+03 -7.608245E+02  1.780189E+04  2.206788E+03
       319  27  2.745732E+06 -2.321037E+04  4.304455E+03 -1.471642E+04  2.727121E+04  3.205804E+03
       320   1  3.064737E+06  4.401653E+04  9.002998E+04 -9.792097E+03 -3.343133E+04 -3.959926E+03
       320   2  3.083870E+06  4.278436E+04  1.261943E+05 -3.530379E+03 -7.121829E+04 -5.129964E+03
       320   3  3.129124E+06  1.260445E+05  2.080231E+05 -3.087031E+04 -1.090077E+05 -5.601036E+03
       320   4  2.876228E+06 -2.771113E+03  4.398618E+04 -1.692806E+04 -3.397176E+04 -3.959646E+03
       320   5  2.863123E+06 -1.197905E+04  7.238996E+04 -1.397250E+02 -7.149470E+04 -5.130539E+03
       320   6  2.876103E+06  6.327624E+04  1.462880E+05 -1.695326E+04 -1.090182E+05 -5.603630E+03
       320   7  2.687752E+06 -4.956118E+04 -2.060168E+03 -2.406186E+04 -3.451203E+04 -3.959353E+03
       320   8  2.642420E+06 -6.674599E+04  1.858208E+04  3.249723E+03 -7.177100E+04 -5.131118E+03
       320   9  2.623140E+06  5.040247E+02  8.454829E+04 -3.041879E+03 -1.090286E+05 -5.606225E+03
       320  10  3.064736E+06  4.401622E+04  9.002786E+04 -9.792203E+03  7.067320E-10 -2.725247E-10
       320  11  3.083865E+06  4.278297E+04  1.261848E+05 -3.530673E+03  1.331316E-09 -3.249171E-11
       320  12  3.129111E+06  1.260413E+05  2.080008E+05 -3.087080E+04  8.459904E-10 -5.977604E-10
       320  13  2.876227E+06 -2.771437E+03  4.398400E+04 -1.692817E+04  1.213201E-09 -6.608751E-11
       320  14  2.863117E+06 -1.198044E+04  7.238035E+04 -1.400201E+02  6.399941E-10 -1.672645E-10
       320  15  2.876090E+06  6.327304E+04  1.462657E+05 -1.695375E+04 -8.260189E-10 -6.476643E-10
       320  16  2.687751E+06 -4.956151E+04 -2.062426E+03 -2.406197E+04 -3.508622E-10 -4.788230E-10
       320  17  2.642414E+06 -6.674739E+04  1.857239E+04  3.249427E+03 -1.897130E-09 -9.836049E-10
       320  18  2.623127E+06  5.008162E+02  8.452599E+04 -3.042371E+03 -1.113041E-10  6.748753E-12
       320  19  3.064737E+06  4.401653E+04  9.002998E+04 -9.792097E+03  3.343133E+04  3.959926E+03
       320  20  3.083870E+06  4.278436E+04  1.261943E+05 -3.530379E+03  7.121829E+04  5.129964E+03
       320  21  3.129124E+06  1.260445E+05  2.080231E+05 -3.087031E+04  1.090077E+05  5.601036E+03
       320  22  2.876228E+06 -2.771113E+03  4.398618E+04 -1.692806E+04  3.397176E+04  3.959646E+03
       320  23  2.863123E+06 -1.197905E+04  7.238996E+04 -1.397250E+02  7.149470E+04  5.130539E+03
       320  24  2.876103E+06  6.327624E+04  1.462880E+05 -1.695326E+04  1.090182E+05  5.603630E+03
       320  25  2.687752E+06 -4.956118E+04 -2.060168E+03 -2.406186E+04  3.451203E+04  3.959353E+03
       320  26  2.642420E+06 -6.674599E+04  1.858208E+04  3.249723E+03  7.177100E+04  5.131118E+03
       320  27  2.623140E+06  5.040247E+02  8.454829E+04 -3.041879E+03  1.090286E+05  5.606225E+03
       321   1  3.236610E+06  5.833183E+04  2.571887E+05  3.613733E+04 -1.357142E+05 -7.505265E+03
       321   2  3.181320E+06 -3.608067E+03  3.663102E+05 -3.055056E+04 -2.894952E+05 -9.240530E+03
       321   3  3.312371E+06  5.994411E+05  7.415546E+05 -1.372734E+05 -4.432845E+05 -3.547102E+03
       321   4  2.911799E+06 -2.232741E+04  1.779928E+05 -1.819117E+04 -1.376008E+05 -7.494767E+03
       321   5  2.818469E+06 -9.353154E+04  2.780338E+05  1.531456E+03 -2.886343E+05 -9.255115E+03
       321   6  2.911103E+06  4.999594E+05  6.424063E+05 -1.876636E+04 -4.396659E+05 -3.627478E+03
       321   7  2.587090E+06 -1.029834E+05  9.879076E+04 -7.249133E+04 -1.394865E+05 -7.483935E+03
       321   8  2.455739E+06 -1.834608E+05  1.897485E+05  3.359474E+04 -2.877739E+05 -9.269618E+03
       321   9  2.510011E+06  4.005184E+05  5.432536E+05  9.966435E+04 -4.360496E+05 -3.706526E+03
       321  10  3.236590E+06  5.832686E+04  2.571542E+05  3.613651E+04  1.882394E-10 -6.247922E-10
       321  11  3.181231E+06 -3.630510E+03  3.661533E+05 -3.055271E+04 -8.293507E-11  5.596982E-10
       321  12  3.312161E+06  5.993887E+05  7.411872E+05 -1.372747E+05  1.179007E-09  7.602932E-10
       321  13  2.911779E+06 -2.233253E+04  1.779573E+05 -1.819200E+04 -2.042574E-09 -1.142314E-09
       321  14  2.818380E+06 -9.355387E+04  2.778778E+05  1.529307E+03  5.395949E-11  4.049461E-10
       321  15  2.910896E+06  4.999078E+05  6.420447E+05 -1.876765E+04 -1.693466E-09 -3.405833E-10
       321  16  2.587069E+06 -1.029886E+05  9.875425E+04 -7.249217E+04 -9.817631E-10  4.702503E-10
       321  17  2.455650E+06 -1.834830E+05  1.895934E+05  3.359259E+04 -2.300787E-09 -4.303715E-10
       321  18  2.509807E+06  4.004676E+05  5.428977E+05  9.966305E+04 -9.142158E-11  9.615661E-10
       321  19  3.236610E+06  5.833183E+04  2.571887E+05  3.613733E+04  1.357142E+05  7.505265E+03
       321  20  3.181320E+06 -3.608067E+03  3.663102E+05 -3.055056E+04  2.894952E+05  9.240530E+03
       321  21  3.312371E+06  5.994411E+05  7.415546E+05 -1.372734E+05  4.432845E+05  3.547102E+03
       321  22  2.911799E+06 -2.232741E+04  1.779928E+05 -1.819117E+04  1.376008E+05  7.494767E+03
       321  23  2.818469E+06 -9.353154E+04  2.780338E+05  1.531456E+03  2.886343E+05  9.255115E+03
       321  24  2.911103E+06  4.999594E+05  6.424063E+05 -1.876636E+04  4.396659E+05  3.627478E+03
       321  25  2.587090E+06 -1.029834E+05  9.879076E+04 -7.249133E+04  1.394865E+05  7.483935E+03
       321  26  2.455739E+06 -1.834608E+05  1.897485E+05  3.359474E+04  2.877739E+05  9.269618E+03
       321  27  2.510011E+06  4.005184E+05  5.432536E+05  9.966435E+04  4.360496E+05  3.706526E+03
       322   1  1.476179E+05  2.256704E+05  2.245292E+05 -6.033321E+04 -4.393425E+03  2.215456E+05
       322   2 -1.646221E+05  1.809756E+05  3.945594E+04 -1.761084E+04 -1.170167E+04  1.421082E+05
       322   3 -1.223259E+05  2.357668E+05 -5.154312E+03  3.060986E+04 -1.094680E+04  6.268890E+04
       322   4  2.635450E+05  6.921499E+05  3.401137E+05  1.577280E+03 -4.382959E+03  2.258351E+05
       322   5 -4.999133E+04  6.422230E+05  1.520305E+05 -1.546124E+03 -1.170051E+04  1.434358E+05
       322   6 -8.625070E+03  6.922213E+05  1.063920E+05  8.309511E+02 -1.094586E+04  6.105566E+04
       322   7  3.794705E+05  1.158835E+06  4.556843E+05  6.353443E+04 -4.371648E+03  2.301279E+05
       322   8  6.462474E+04  1.103665E+06  2.645898E+05  1.453067E+04 -1.169928E+04  1.447644E+05
       322   9  1.050636E+05  1.148867E+06  2.179235E+05 -2.896980E+04 -1.094476E+04  5.942121E+04
       322  10  1.476047E+05  2.256177E+05  2.244369E+05 -6.033242E+04  3.088389E-10  1.201383E-10
       322  11 -1.646276E+05  1.809539E+05  3.941774E+04 -1.760950E+04 -4.077108E-10 -3.164493E-09
       322  12 -1.223271E+05  2.357625E+05 -5.161919E+03  3.061041E+04  8.204987E-10 -1.223278E-09
       322  13  2.635313E+05  6.920951E+05  3.400179E+05  1.578077E+03  8.097069E-10  2.947873E-09
       322  14 -4.999699E+04  6.422009E+05  1.519916E+05 -1.544772E+03 -1.535964E-09  6.255840E-10
       322  15 -8.626198E+03  6.922173E+05  1.063848E+05  8.314892E+02  6.950393E-11  1.818511E-09
       322  16  3.794562E+05  1.158778E+06  4.555849E+05  6.353524E+04 -1.758136E-10 -1.297977E-09
       322  17  6.461898E+04  1.103642E+06  2.645502E+05  1.453203E+04  3.876582E-10  5.846576E-11
       322  18  1.050626E+05  1.148864E+06  2.179167E+05 -2.896927E+04 -3.572433E-11 -5.768535E-10
       322  19  1.476179E+05  2.256704E+05  2.245292E+05 -6.033321E+04  4.393425E+03 -2.215456E+05
       322  20 -1.646221E+05  1.809756E+05  3.945594E+04 -1.761084E+04  1.170167E+04 -1.421082E+05
       322  21 -1.223259E+05  2.357668E+05 -5.154312E+03  3.060986E+04  1.094680E+04 -6.268890E+04
       322  22  2.635450E+05  6.921499E+05  3.401137E+05  1.577280E+03  4.382959E+03 -2.258351E+05
       322  23 -4.999133E+04  6.422230E+05  1.520305E+05 -1.546124E+03  1.170051E+04 -1.434358E+05
       322  24 -8.625070E+03  6.922213E+05  1.063920E+05  8.309511E+02  1.094586E+04 -6.105566E+04
       322  25  3.794705E+05  1.158835E+06  4.556843E+05  6.353443E+04  4.371648E+03 -2.301279E+05
       322  26  6.462474E+04  1.103665E+06  2.645898E+05  1.453067E+04  1.169928E+04 -1.447644E+05
       322  27  1.050636E+05  1.148867E+06  2.179235E+05 -2.896980E+04  1.094476E+04 -5.942121E+04
       323   1 -7.947434E+04  2.262808E+05 -1.646874E+04 -9.090991E+03 -9.732668E+03  4.286809E+04
       323   2 -1.222212E+05  2.167134E+05 -4.324088E+04 -8.661978E+02 -1.040039E+04  9.290181E+03
       323   3 -8.672245E+04  2.315276E+05 -2.850015E+04  1.014721E+04 -9.492746E+03 -2.428554E+04
       323   4  3.226100E+04  6.754349E+05  9.349036E+04  4.880108E+02 -9.732561E+03  4.343657E+04
       323   5 -1.113790E+04  6.632031E+05  6.589186E+04 -9.208793E+02 -1.039988E+04  9.269350E+03
       323   6  2.378041E+04  6.754383E+05  8.019477E+04  4.586601E+02 -9.491280E+03 -2.489554E+04
       323   7  1.439818E+05  1.124773E+06  2.034348E+05  1.007404E+04 -9.732436E+03  4.400544E+04
       323   8  9.993071E+04  1.109874E+06  1.750101E+05 -9.755337E+02 -1.039936E+04  9.248502E+03
       323   9  1.342690E+05  1.119529E+06  1.888753E+05 -9.236780E+03 -9.489796E+03 -2.550596E+04
       323  10 -7.947493E+04  2.262788E+05 -1.647237E+04 -9.090655E+03  1.543280E-10 -5.415866E-10
       323  11 -1.222214E+05  2.167133E+05 -4.324125E+04 -8.661200E+02  1.033973E-09 -2.031719E-09
       323  12 -8.672271E+04  2.315269E+05 -2.850143E+04  1.014702E+04 -3.661036E-10 -2.485406E-10
       323  13  3.226039E+04  6.754329E+05  9.348664E+04  4.883512E+02  6.130263E-11  2.250464E-09
       323  14 -1.113804E+04  6.632029E+05  6.589150E+04 -9.208017E+02  9.391900E-10 -7.183517E-10
       323  15  2.378015E+04  6.754376E+05  8.019343E+04  4.584698E+02  8.365549E-10  5.238882E-10
       323  16  1.439811E+05  1.124771E+06  2.034309E+05  1.007438E+04  5.293067E-10 -2.292268E-10
       323  17  9.993057E+04  1.109874E+06  1.750097E+05 -9.754563E+02 -3.192834E-10 -4.805541E-10
       323  18  1.342688E+05  1.119528E+06  1.888739E+05 -9.236975E+03  1.914638E-10 -2.915084E-10
       323  19 -7.947434E+04  2.262808E+05 -1.646874E+04 -9.090991E+03  9.732668E+03 -4.286809E+04
       323  20 -1.222212E+05  2.167134E+05 -4.324088E+04 -8.661978E+02  1.040039E+04 -9.290181E+03
       323  21 -8.672245E+04  2.315276E+05 -2.850015E+04  1.014721E+04  9.492746E+03  2.428554E+04
       323  22  3.226100E+04  6.754349E+05  9.349036E+04  4.880108E+02  9.732561E+03 -4.343657E+04
       323  23 -1.113790E+04  6.632031E+05  6.589186E+04 -9.208793E+02  1.039988E+04 -9.269350E+03
       323  24  2.378041E+04  6.754383E+05  8.019477E+04  4.586601E+02  9.491280E+03  2.489554E+04
       323  25  1.439818E+05  1.124773E+06  2.034348E+05  1.007404E+04  9.732436E+03 -4.400544E+04
       323  26  9.993071E+04  1.109874E+06  1.750101E+05 -9.755337E+02  1.039936E+04 -9.248502E+03
       323  27  1.342690E+05  1.119529E+06  1.888753E+05 -9.236780E+03  9.489796E+03  2.550596E+04
       324   1 -1.143087E+05  2.463491E+05 -1.988319E+04 -2.205790E+04 -1.044940E+04 -4.119145E+04
       324   2 -1.476217E+05  2.087967E+05  1.081239E+04  1.255959E+04 -1.076350E+04 -1.023942E+05
       324   3  8.961002E+04  2.472805E+05  1.490864E+05  4.789439E+04 -3.533739E+03 -1.635932E+05
       324   4 -4.739235E+03  6.870081E+05  8.775509E+04 -2.566091E+01 -1.045169E+04 -3.972014E+04
       324   5 -3.817286E+04  6.487485E+05  1.182141E+05 -3.608566E+02 -1.076025E+04 -1.036812E+05
       324   6  1.993109E+05  6.869507E+05  2.581130E+05  1.954606E+01 -3.520430E+03 -1.676388E+05
       324   7  1.048177E+05  1.127845E+06  1.953795E+05  2.202228E+04 -1.045387E+04 -3.824778E+04
       324   8  7.126228E+04  1.088877E+06  2.256019E+05 -1.329046E+04 -1.075695E+04 -1.049691E+05
       324   9  3.090060E+05  1.126801E+06  3.671264E+05 -4.788921E+04 -3.506505E+03 -1.716873E+05
       324  10 -1.143093E+05  2.463473E+05 -1.988658E+04 -2.205825E+04 -3.143081E-10 -4.742353E-10
       324  11 -1.476246E+05  2.087854E+05  1.079248E+04  1.255871E+04 -1.201101E-11 -7.547991E-10
       324  12  8.960283E+04  2.472517E+05  1.490361E+05  4.789392E+04 -1.479943E-10  4.222550E-10
       324  13 -4.739776E+03  6.870064E+05  8.775192E+04 -2.599514E+01 -6.961019E-10  7.965803E-10
       324  14 -3.817586E+04  6.487369E+05  1.181937E+05 -3.617548E+02 -3.550016E-10  1.548305E-10
       324  15  1.993034E+05  6.869205E+05  2.580602E+05  1.907105E+01 -6.727391E-11 -1.967554E-10
       324  16  1.048172E+05  1.127843E+06  1.953765E+05  2.202196E+04  4.723317E-10 -8.751576E-12
       324  17  7.125921E+04  1.088865E+06  2.255810E+05 -1.329137E+04 -5.249776E-10 -1.553295E-10
       324  18  3.089980E+05  1.126770E+06  3.670711E+05 -4.788969E+04 -4.583631E-10  6.361974E-12
       324  19 -1.143087E+05  2.463491E+05 -1.988319E+04 -2.205790E+04  1.044940E+04  4.119145E+04
       324  20 -1.476217E+05  2.087967E+05  1.081239E+04  1.255959E+04  1.076350E+04  1.023942E+05
       324  21  8.961002E+04  2.472805E+05  1.490864E+05  4.789439E+04  3.533739E+03  1.635932E+05
       324  22 -4.739235E+03  6.870081E+05  8.775509E+04 -2.566091E+01  1.045169E+04  3.972014E+04
       324  23 -3.817286E+04  6.487485E+05  1.182141E+05 -3.608566E+02  1.076025E+04  1.036812E+05
       324  24  1.993109E+05  6.869507E+05  2.581130E+05  1.954606E+01  3.520430E+03  1.676388E+05
       324  25  1.048177E+05  1.127845E+06  1.953795E+05  2.202228E+04  1.045387E+04  3.824778E+04
       324  26  7.126228E+04  1.088877E+06  2.256019E+05 -1.329046E+04  1.075695E+04  1.049691E+05
       324  27  3.090060E+05  1.126801E+06  3.671264E+05 -4.788921E+04  3.506505E+03  1.716873E+05
       325   1 -3.189493E+06 -1.163909E+06 -6.169407E+05 -1.192372E+06 -2.933809E+05 -8.333629E+04
       325   2 -3.116377E+06 -9.413132E+05 -3.989465E+05 -1.161097E+06 -1.903477E+05  2.183520E+04
       325   3 -3.089866E+06 -8.361073E+05 -3.032236E+05 -1.117917E+06 -7.269698E+04  8.849467E+04
       325   4 -1.684952E+06 -4.830848E+05 -2.116199E+05 -6.617141E+05 -1.467139E+05 -2.795293E+04
       325   5 -1.657420E+06 -3.513925E+05 -9.990367E+04 -6.979431E+05 -1.168315E+05  4.956949E+04
       325   6 -1.661826E+06 -3.224007E+05 -5.214255E+04 -7.223003E+05 -7.237042E+04  8.859033E+04
       325   7 -1.781439E+05  1.981960E+05  1.935822E+05 -1.297845E+05  3.388066E+02  2.764452E+04
       325   8 -1.962320E+05  2.388506E+05  1.990535E+05 -2.337275E+05 -4.312972E+04  7.739038E+04
       325   9 -2.315969E+05  1.915062E+05  1.988810E+05 -3.258258E+05 -7.204301E+04  8.868635E+04
       325  10 -3.189587E+06 -1.163940E+06 -6.171166E+05 -1.192391E+06  9.123408E-10  9.732861E-11
       325  11 -3.116416E+06 -9.413235E+05 -3.990157E+05 -1.161094E+06 -1.069594E-09  4.171937E-10
       325  12 -3.089873E+06 -8.361171E+05 -3.032482E+05 -1.117912E+06  1.770449E-09  1.012405E-09
       325  13 -1.684976E+06 -4.830914E+05 -2.116620E+05 -6.617174E+05  1.104835E-09  1.415583E-10
       325  14 -1.657435E+06 -3.513988E+05 -9.993397E+04 -6.979384E+05  3.606467E-12 -4.490130E-09
       325  15 -1.661833E+06 -3.224106E+05 -5.216713E+04 -7.222951E+05 -5.742946E-10 -1.990664E-09
       325  16 -1.781441E+05  1.981952E+05  1.935807E+05 -1.297845E+05  7.774015E-10 -7.568705E-10
       325  17 -1.962356E+05  2.388437E+05  1.990387E+05 -2.337248E+05 -1.010859E-09  1.855788E-09
       325  18 -2.316045E+05  1.914963E+05  1.988565E+05 -3.258207E+05 -1.271306E-09 -1.679696E-09
       325  19 -3.189493E+06 -1.163909E+06 -6.169407E+05 -1.192372E+06  2.933809E+05  8.333629E+04
       325  20 -3.116377E+06 -9.413132E+05 -3.989465E+05 -1.161097E+06  1.903477E+05 -2.183520E+04
       325  21 -3.089866E+06 -8.361073E+05 -3.032236E+05 -1.117917E+06  7.269698E+04 -8.849467E+04
       325  22 -1.684952E+06 -4.830848E+05 -2.116199E+05 -6.617141E+05  1.467139E+05  2.795293E+04
       325  23 -1.657420E+06 -3.513925E+05 -9.990367E+04 -6.979431E+05  1.168315E+05 -4.956949E+04
       325  24 -1.661826E+06 -3.224007E+05 -5.214255E+04 -7.223003E+05  7.237042E+04 -8.859033E+04
       325  25 -1.781439E+05  1.981960E+05  1.935822E+05 -1.297845E+05 -3.388066E+02 -2.764452E+04
       325  26 -1.962320E+05  2.388506E+05  1.990535E+05 -2.337275E+05  4.312972E+04 -7.739038E+04
       325  27 -2.315969E+05  1.915062E+05  1.988810E+05 -3.258258E+05  7.204301E+04 -8.868635E+04
       326   1 -3.023139E+06 -8.218624E+05 -2.765239E+05 -1.109579E+06 -6.939466E+04  8.870044E+04
       326   2 -2.947239E+06 -7.749125E+05 -2.356810E+05 -1.080391E+06 -5.169293E+04  9.512524E+04
       326   3 -2.864507E+06 -7.472253E+05 -2.099282E+05 -1.063349E+06 -3.253245E+04  9.768029E+04
       326   4 -1.655415E+06 -3.214059E+05 -3.896142E+04 -7.208683E+05 -6.617551E+04  8.988784E+04
       326   5 -1.658832E+06 -3.077025E+05 -2.039933E+04 -7.165865E+05 -5.580774E+04  9.354790E+04
       326   6 -1.653956E+06 -3.117906E+05 -1.107466E+04 -7.244507E+05 -4.398551E+04  9.334163E+04
       326   7 -2.856961E+05  1.792474E+05  1.985459E+05 -3.313481E+05 -6.294876E+04  9.107823E+04
       326   8 -3.686526E+05  1.596781E+05  1.948394E+05 -3.520706E+05 -5.993163E+04  9.196713E+04
       326   9 -4.418443E+05  1.237881E+05  1.877423E+05 -3.849335E+05 -5.546225E+04  8.899413E+04
       326  10 -3.023147E+06 -8.218721E+05 -2.765477E+05 -1.109574E+06 -1.524695E-09  6.052604E-10
       326  11 -2.947244E+06 -7.749229E+05 -2.357030E+05 -1.080387E+06  7.052400E-10  2.255668E-09
       326  12 -2.864510E+06 -7.472358E+05 -2.099481E+05 -1.063346E+06  1.057240E-09  1.287245E-09
       326  13 -1.655422E+06 -3.214158E+05 -3.898481E+04 -7.208635E+05  1.165756E-09  9.082991E-10
       326  14 -1.658838E+06 -3.077127E+05 -2.042161E+04 -7.165823E+05  2.340531E-09 -1.528994E-09
       326  15 -1.653960E+06 -3.118005E+05 -1.109465E+04 -7.244474E+05  1.064789E-09 -1.283173E-09
       326  16 -2.857026E+05  1.792374E+05  1.985229E+05 -3.313434E+05  2.228695E-09  2.315239E-09
       326  17 -3.686588E+05  1.596681E+05  1.948167E+05 -3.520662E+05  5.679691E-11  1.059497E-09
       326  18 -4.418498E+05  1.237788E+05  1.877217E+05 -3.849296E+05 -7.354178E-09 -1.457137E-09
       326  19 -3.023139E+06 -8.218624E+05 -2.765239E+05 -1.109579E+06  6.939466E+04 -8.870044E+04
       326  20 -2.947239E+06 -7.749125E+05 -2.356810E+05 -1.080391E+06  5.169293E+04 -9.512524E+04
       326  21 -2.864507E+06 -7.472253E+05 -2.099282E+05 -1.063349E+06  3.253245E+04 -9.768029E+04
       326  22 -1.655415E+06 -3.214059E+05 -3.896142E+04 -7.208683E+05  6.617551E+04 -8.988784E+04
       326  23 -1.658832E+06 -3.077025E+05 -2.039933E+04 -7.165865E+05  5.580774E+04 -9.354790E+04
       326  24 -1.653956E+06 -3.117906E+05 -1.107466E+04 -7.244507E+05  4.398551E+04 -9.334163E+04
       326  25 -2.856961E+05  1.792474E+05  1.985459E+05 -3.313481E+05  6.294876E+04 -9.107823E+04
       326  26 -3.686526E+05  1.596781E+05  1.948394E+05 -3.520706E+05  5.993163E+04 -9.196713E+04
       326  27 -4.418443E+05  1.237881E+05  1.877423E+05 -3.849335E+05  5.546225E+04 -8.899413E+04
       327   1 -2.811445E+06 -7.288370E+05 -1.978659E+05 -1.049234E+06 -2.991101E+04  9.454399E+04
       327   2 -2.735606E+06 -6.927301E+05 -1.800846E+05 -1.019477E+06 -2.456735E+04  8.960187E+04
       327   3 -2.648189E+06 -6.691720E+05 -1.646690E+05 -1.003409E+06 -1.907501E+04  8.425134E+04
       327   4 -1.653349E+06 -3.117978E+05 -8.307849E+03 -7.243311E+05 -4.111173E+04  9.030381E+04
       327   5 -1.659138E+06 -3.053441E+05 -4.555729E+03 -7.175673E+05 -3.654001E+04  8.507628E+04
       327   6 -1.653207E+06 -3.112849E+05 -2.554960E+03 -7.244936E+05 -3.182022E+04  7.944059E+04
       327   7 -4.937963E+05  1.053847E+05  1.812247E+05 -3.988525E+05 -5.233484E+04  8.605524E+04
       327   8 -5.814172E+05  8.216391E+04  1.709503E+05 -4.151616E+05 -4.853486E+04  8.054238E+04
       327   9 -6.571592E+05  4.670437E+04  1.595385E+05 -4.451562E+05 -4.458720E+04  7.462168E+04
       327  10 -2.811449E+06 -7.288468E+05 -1.978843E+05 -1.049232E+06 -4.132775E-09 -3.416407E-09
       327  11 -2.735609E+06 -6.927389E+05 -1.801008E+05 -1.019475E+06  2.508683E-10 -1.771823E-09
       327  12 -2.648192E+06 -6.691797E+05 -1.646830E+05 -1.003408E+06  2.079909E-09 -6.160293E-10
       327  13 -1.653353E+06 -3.118070E+05 -8.326333E+03 -7.243281E+05  1.921959E-09 -8.648484E-10
       327  14 -1.659141E+06 -3.053522E+05 -4.571825E+03 -7.175648E+05  3.510302E-09  1.171600E-09
       327  15 -1.653210E+06 -3.112919E+05 -2.568709E+03 -7.244916E+05  8.234674E-10  4.334562E-10
       327  16 -4.938012E+05  1.053760E+05  1.812056E+05 -3.988489E+05  3.510492E-10  1.173652E-09
       327  17 -5.814215E+05  8.215632E+04  1.709337E+05 -4.151584E+05  1.840209E-09  3.173361E-09
       327  18 -6.571628E+05  4.669786E+04  1.595243E+05 -4.451535E+05  8.136231E-10  5.748373E-10
       327  19 -2.811445E+06 -7.288370E+05 -1.978659E+05 -1.049234E+06  2.991101E+04 -9.454399E+04
       327  20 -2.735606E+06 -6.927301E+05 -1.800846E+05 -1.019477E+06  2.456735E+04 -8.960187E+04
       327  21 -2.648189E+06 -6.691720E+05 -1.646690E+05 -1.003409E+06  1.907501E+04 -8.425134E+04
       327  22 -1.653349E+06 -3.117978E+05 -8.307849E+03 -7.243311E+05  4.111173E+04 -9.030381E+04
       327  23 -1.659138E+06 -3.053441E+05 -4.555729E+03 -7.175673E+05  3.654001E+04 -8.507628E+04
       327  24 -1.653207E+06 -3.112849E+05 -2.554960E+03 -7.244936E+05  3.182022E+04 -7.944059E+04
       327  25 -4.937963E+05  1.053847E+05  1.812247E+05 -3.988525E+05  5.233484E+04 -8.605524E+04
       327  26 -5.814172E+05  8.216391E+04  1.709503E+05 -4.151616E+05  4.853486E+04 -8.054238E+04
       327  27 -6.571592E+05  4.670437E+04  1.595385E+05 -4.451562E+05  4.458720E+04 -7.462168E+04
       328   1 -2.595789E+06 -6.502939E+05 -1.551342E+05 -9.887917E+05 -1.722221E+04  8.047933E+04
       328   2 -2.519428E+06 -6.145004E+05 -1.410879E+05 -9.587192E+05 -1.396523E+04  7.402131E+04
       328   3 -2.430940E+06 -5.908741E+05 -1.275610E+05 -9.425122E+05 -1.069091E+04  6.750465E+04
       328   4 -1.653099E+06 -3.112917E+05 -1.965404E+03 -7.244996E+05 -2.997280E+04  7.566962E+04
       328   5 -1.659140E+06 -3.051675E+05 -1.230463E+03 -7.175749E+05 -2.682598E+04  6.917480E+04
       328   6 -1.653039E+06 -3.111892E+05 -9.284635E+02 -7.245180E+05 -2.366193E+04  6.262132E+04
       328   7 -7.094633E+05  2.779828E+04  1.511823E+05 -4.598317E+05 -4.274386E+04  7.085224E+04
       328   8 -7.980548E+05  4.241685E+03  1.386118E+05 -4.761153E+05 -3.970571E+04  6.432118E+04
       328   9 -8.744777E+05 -3.143856E+04  1.256942E+05 -5.062637E+05 -3.665039E+04  5.773144E+04
       328  10 -2.595791E+06 -6.503010E+05 -1.551470E+05 -9.887906E+05  6.997590E-10 -5.128218E-10
       328  11 -2.519430E+06 -6.145063E+05 -1.410985E+05 -9.587183E+05  3.645437E-10 -5.424728E-10
       328  12 -2.430942E+06 -5.908790E+05 -1.275698E+05 -9.425116E+05 -2.731847E-10 -1.850076E-10
       328  13 -1.653102E+06 -3.112981E+05 -1.977840E+03 -7.244978E+05 -9.411763E-10  9.573377E-10
       328  14 -1.659142E+06 -3.051729E+05 -1.240798E+03 -7.175734E+05  8.607938E-10  4.295860E-10
       328  15 -1.653040E+06 -3.111935E+05 -9.368770E+02 -7.245168E+05 -2.659874E-10  4.807285E-10
       328  16 -7.094666E+05  2.779241E+04  1.511694E+05 -4.598293E+05 -3.096178E-10  1.323201E-09
       328  17 -7.980576E+05  4.236825E+03  1.386011E+05 -4.761132E+05 -1.657155E-10  1.630914E-09
       328  18 -8.744800E+05 -3.144250E+04  1.256854E+05 -5.062620E+05  2.596135E-10  2.584494E-10
       328  19 -2.595789E+06 -6.502939E+05 -1.551342E+05 -9.887917E+05  1.722221E+04 -8.047933E+04
       328  20 -2.519428E+06 -6.145004E+05 -1.410879E+05 -9.587192E+05  1.396523E+04 -7.402131E+04
       328  21 -2.430940E+06 -5.908741E+05 -1.275610E+05 -9.425122E+05  1.069091E+04 -6.750465E+04
       328  22 -1.653099E+06 -3.112917E+05 -1.965404E+03 -7.244996E+05  2.997280E+04 -7.566962E+04
       328  23 -1.659140E+06 -3.051675E+05 -1.230463E+03 -7.175749E+05  2.682598E+04 -6.917480E+04
       328  24 -1.653039E+06 -3.111892E+05 -9.284635E+02 -7.245180E+05  2.366193E+04 -6.262132E+04
       328  25 -7.094633E+05  2.779828E+04  1.511823E+05 -4.598317E+05  4.274386E+04 -7.085224E+04
       328  26 -7.980548E+05  4.241685E+03  1.386118E+05 -4.761153E+05  3.970571E+04 -6.432118E+04
       328  27 -8.744777E+05 -3.143856E+04  1.256942E+05 -5.062637E+05  3.665039E+04 -5.773144E+04
       329   1 -2.378216E+06 -5.718347E+05 -1.185709E+05 -9.277844E+05 -9.019153E+03  6.359947E+04
       329   2 -2.301263E+06 -5.358545E+05 -1.054684E+05 -8.975435E+05 -5.858730E+03  5.698602E+04
       329   3 -2.212117E+06 -5.121072E+05 -9.279310E+04 -8.812802E+05 -2.695719E+03  5.035605E+04
       329   4 -1.653006E+06 -3.111825E+05 -9.118713E+02 -7.245438E+05 -2.201448E+04  5.870939E+04
       329   5 -1.659074E+06 -3.050125E+05 -1.125446E+03 -7.175670E+05 -1.888469E+04  5.208794E+04
       329   6 -1.652950E+06 -3.110691E+05 -1.743005E+03 -7.245694E+05 -1.575240E+04  4.544995E+04
       329   7 -9.272291E+05 -5.047619E+04  1.167367E+05 -5.210792E+05 -3.502594E+04  5.381325E+04
       329   8 -1.016444E+06 -7.412939E+04  1.032084E+05 -5.374158E+05 -3.192490E+04  4.718450E+04
       329   9 -1.093454E+06 -1.100011E+05  8.929928E+04 -5.677271E+05 -2.882144E+04  4.053921E+04
       329  10 -2.378217E+06 -5.718390E+05 -1.185786E+05 -9.277839E+05  1.141273E-10 -9.844531E-10
       329  11 -2.301264E+06 -5.358580E+05 -1.054746E+05 -8.975432E+05 -1.076213E-09 -2.601907E-10
       329  12 -2.212117E+06 -5.121099E+05 -9.279788E+04 -8.812801E+05 -9.717341E-10 -3.096035E-11
       329  13 -1.653007E+06 -3.111864E+05 -9.192524E+02 -7.245427E+05 -4.432731E-10 -1.976818E-11
       329  14 -1.659075E+06 -3.050155E+05 -1.131210E+03 -7.175662E+05  1.529363E-09  4.235461E-11
       329  15 -1.652951E+06 -3.110713E+05 -1.747349E+03 -7.245688E+05 -2.767822E-10  1.151346E-10
       329  16 -9.272312E+05 -5.047963E+04  1.167289E+05 -5.210777E+05  1.097088E-09  2.397965E-10
       329  17 -1.016446E+06 -7.413205E+04  1.032023E+05 -5.374146E+05  6.595932E-10  3.663302E-10
       329  18 -1.093456E+06 -1.100031E+05  8.929464E+04 -5.677262E+05 -2.704613E-10  5.345479E-10
       329  19 -2.378216E+06 -5.718347E+05 -1.185709E+05 -9.277844E+05  9.019153E+03 -6.359947E+04
       329  20 -2.301263E+06 -5.358545E+05 -1.054684E+05 -8.975435E+05  5.858730E+03 -5.698602E+04
       329  21 -2.212117E+06 -5.121072E+05 -9.279310E+04 -8.812802E+05  2.695719E+03 -5.035605E+04
       329  22 -1.653006E+06 -3.111825E+05 -9.118713E+02 -7.245438E+05  2.201448E+04 -5.870939E+04
       329  23 -1.659074E+06 -3.050125E+05 -1.125446E+03 -7.175670E+05  1.888469E+04 -5.208794E+04
       329  24 -1.652950E+06 -3.110691E+05 -1.743005E+03 -7.245694E+05  1.575240E+04 -4.544995E+04
       329  25 -9.272291E+05 -5.047619E+04  1.167367E+05 -5.210792E+05  3.502594E+04 -5.381325E+04
       329  26 -1.016444E+06 -7.412939E+04  1.032084E+05 -5.374158E+05  3.192490E+04 -4.718450E+04
       329  27 -1.093454E+06 -1.100011E+05  8.929928E+04 -5.677271E+05  2.882144E+04 -4.053921E+04
       330   1 -2.159062E+06 -4.930008E+05 -8.427456E+04 -8.665484E+05 -8.447439E+02  4.649127E+04
       330   2 -2.081574E+06 -4.568711E+05 -7.260682E+04 -8.361035E+05  3.678340E+03  4.036388E+04
       330   3 -1.992150E+06 -4.333523E+05 -6.246571E+04 -8.197063E+05  8.191898E+03  3.425635E+04
       330   4 -1.652989E+06 -3.110558E+05 -2.254964E+03 -7.246194E+05 -1.392254E+04  4.157896E+04
       330   5 -1.658953E+06 -3.048704E+05 -3.980738E+03 -7.175422E+05 -9.360851E+03  3.546833E+04
       330   6 -1.652999E+06 -3.113047E+05 -7.265116E+03 -7.245154E+05 -4.808971E+03  2.937746E+04
       330   7 -1.146634E+06 -1.290818E+05  7.976161E+04 -5.825797E+05 -2.701181E+04  3.666233E+04
       330   8 -1.236138E+06 -1.528502E+05  6.464298E+04 -5.989039E+05 -2.240955E+04  3.056920E+04
       330   9 -1.313725E+06 -1.892451E+05  4.793377E+04 -6.292752E+05 -1.781740E+04  2.449571E+04
       330  10 -2.159063E+06 -4.930032E+05 -8.427862E+04 -8.665483E+05 -8.082510E-10  1.353173E-10
       330  11 -2.081574E+06 -4.568729E+05 -7.260990E+04 -8.361037E+05 -5.564316E-10  1.727305E-10
       330  12 -1.992150E+06 -4.333535E+05 -6.246804E+04 -8.197066E+05 -2.570556E-09  6.269807E-11
       330  13 -1.652990E+06 -3.110577E+05 -2.258574E+03 -7.246190E+05 -1.013440E-09  3.442407E-10
       330  14 -1.658954E+06 -3.048718E+05 -3.983264E+03 -7.175419E+05 -1.111340E-09  4.281570E-10
       330  15 -1.653000E+06 -3.113057E+05 -7.266780E+03 -7.245153E+05 -1.130531E-09  5.808743E-10
       330  16 -1.146635E+06 -1.290835E+05  7.975771E+04 -5.825789E+05  1.574234E-10  3.148066E-10
       330  17 -1.236138E+06 -1.528513E+05  6.464028E+04 -5.989034E+05  1.350036E-09  5.631226E-10
       330  18 -1.313726E+06 -1.892458E+05  4.793205E+04 -6.292749E+05  1.384732E-09  1.168785E-09
       330  19 -2.159062E+06 -4.930008E+05 -8.427456E+04 -8.665484E+05  8.447439E+02 -4.649127E+04
       330  20 -2.081574E+06 -4.568711E+05 -7.260682E+04 -8.361035E+05 -3.678340E+03 -4.036388E+04
       330  21 -1.992150E+06 -4.333523E+05 -6.246571E+04 -8.197063E+05 -8.191898E+03 -3.425635E+04
       330  22 -1.652989E+06 -3.110558E+05 -2.254964E+03 -7.246194E+05  1.392254E+04 -4.157896E+04
       330  23 -1.658953E+06 -3.048704E+05 -3.980738E+03 -7.175422E+05  9.360851E+03 -3.546833E+04
       330  24 -1.652999E+06 -3.113047E+05 -7.265116E+03 -7.245154E+05  4.808971E+03 -2.937746E+04
       330  25 -1.146634E+06 -1.290818E+05  7.976161E+04 -5.825797E+05  2.701181E+04 -3.666233E+04
       330  26 -1.236138E+06 -1.528502E+05  6.464298E+04 -5.989039E+05  2.240955E+04 -3.056920E+04
       330  27 -1.313725E+06 -1.892451E+05  4.793377E+04 -6.292752E+05  1.781740E+04 -2.449571E+04
       331   1 -1.938841E+06 -4.146466E+05 -5.579532E+04 -8.055742E+05  1.104480E+04  3.077424E+04
       331   2 -1.862190E+06 -3.780024E+05 -5.024773E+04 -7.719290E+05  2.196290E+04  2.723411E+04
       331   3 -1.776267E+06 -3.589207E+05 -5.236613E+04 -7.513682E+05  3.276758E+04  2.399594E+04
       331   4 -1.653452E+06 -3.113247E+05 -9.689983E+03 -7.247125E+05 -1.990960E+03  2.588331E+04
       331   5 -1.658610E+06 -3.066117E+05 -1.782477E+04 -7.166217E+05  9.503708E+03  2.256040E+04
       331   6 -1.654617E+06 -3.195760E+05 -3.408320E+04 -7.216189E+05  2.088397E+04  1.953890E+04
       331   7 -1.367978E+06 -2.079951E+05  3.641353E+04 -6.438163E+05 -1.503294E+04  2.098998E+04
       331   8 -1.454984E+06 -2.352171E+05  1.459806E+04 -6.612974E+05 -2.959823E+03  1.788516E+04
       331   9 -1.532950E+06 -2.802298E+05 -1.579950E+04 -6.918639E+05  8.997761E+03  1.508109E+04
       331  10 -1.938841E+06 -4.146477E+05 -5.579733E+04 -8.055745E+05 -5.451993E-10  4.619108E-10
       331  11 -1.862191E+06 -3.780033E+05 -5.025003E+04 -7.719295E+05 -7.418506E-10 -2.650362E-10
       331  12 -1.776268E+06 -3.589216E+05 -5.236924E+04 -7.513689E+05  1.799079E-10 -4.471628E-10
       331  13 -1.653452E+06 -3.113254E+05 -9.691249E+03 -7.247124E+05 -4.254264E-10  5.794759E-10
       331  14 -1.658610E+06 -3.066122E+05 -1.782589E+04 -7.166219E+05 -1.594824E-10 -2.834343E-10
       331  15 -1.654618E+06 -3.195765E+05 -3.408474E+04 -7.216192E+05  5.038820E-10 -4.716472E-10
       331  16 -1.367978E+06 -2.079956E+05  3.641228E+04 -6.438160E+05  2.339076E-10  5.032891E-10
       331  17 -1.454985E+06 -2.352174E+05  1.459744E+04 -6.612974E+05  1.164598E-09  1.854006E-10
       331  18 -1.532950E+06 -2.802301E+05 -1.580008E+04 -6.918640E+05  6.731195E-10 -3.542699E-10
       331  19 -1.938841E+06 -4.146466E+05 -5.579532E+04 -8.055742E+05 -1.104480E+04 -3.077424E+04
       331  20 -1.862190E+06 -3.780024E+05 -5.024773E+04 -7.719290E+05 -2.196290E+04 -2.723411E+04
       331  21 -1.776267E+06 -3.589207E+05 -5.236613E+04 -7.513682E+05 -3.276758E+04 -2.399594E+04
       331  22 -1.653452E+06 -3.113247E+05 -9.689983E+03 -7.247125E+05  1.990960E+03 -2.588331E+04
       331  23 -1.658610E+06 -3.066117E+05 -1.782477E+04 -7.166217E+05 -9.503708E+03 -2.256040E+04
       331  24 -1.654617E+06 -3.195760E+05 -3.408320E+04 -7.216189E+05 -2.088397E+04 -1.953890E+04
       331  25 -1.367978E+06 -2.079951E+05  3.641353E+04 -6.438163E+05  1.503294E+04 -2.098998E+04
       331  26 -1.454984E+06 -2.352171E+05  1.459806E+04 -6.612974E+05  2.959823E+03 -1.788516E+04
       331  27 -1.532950E+06 -2.802298E+05 -1.579950E+04 -6.918639E+05 -8.997761E+03 -1.508109E+04
       332   1 -1.721837E+06 -3.468458E+05 -5.444520E+04 -7.450839E+05  3.955030E+04  2.222104E+04
       332   2 -1.673979E+06 -3.022669E+05 -7.997244E+04 -6.552801E+05  8.078927E+04  3.219637E+04
       332   3 -1.649288E+06 -3.504518E+05 -1.568515E+05 -5.595819E+05  1.208737E+05  4.526595E+04
       332   4 -1.659836E+06 -3.207784E+05 -4.562098E+04 -7.233049E+05  2.742606E+04  1.767470E+04
       332   5 -1.657645E+06 -3.442912E+05 -8.738114E+04 -6.998387E+05  7.454492E+04  2.984676E+04
       332   6 -1.679808E+06 -4.617558E+05 -1.851673E+05 -6.704877E+05  1.205053E+05  4.510326E+04
       332   7 -1.597829E+06 -2.947097E+05 -3.679601E+04 -7.015234E+05  1.530048E+04  1.312766E+04
       332   8 -1.641304E+06 -3.863038E+05 -9.478812E+04 -7.443965E+05  6.830050E+04  2.749833E+04
       332   9 -1.710302E+06 -5.729978E+05 -2.134763E+05 -7.813759E+05  1.201369E+05  4.494074E+04
       332  10 -1.721839E+06 -3.468468E+05 -5.444908E+04 -7.450846E+05 -1.224654E-09 -7.666291E-10
       332  11 -1.673987E+06 -3.022698E+05 -7.998670E+04 -6.552822E+05 -1.897894E-10 -1.518475E-10
       332  12 -1.649305E+06 -3.504579E+05 -1.568829E+05 -5.595863E+05 -4.184261E-10 -3.983845E-11
       332  13 -1.659837E+06 -3.207789E+05 -4.562299E+04 -7.233053E+05  9.737804E-10 -2.082955E-10
       332  14 -1.657651E+06 -3.442937E+05 -8.739329E+04 -6.998405E+05  1.096439E-09  1.624990E-10
       332  15 -1.679824E+06 -4.617619E+05 -1.851985E+05 -6.704921E+05  4.393852E-11  6.504730E-11
       332  16 -1.597830E+06 -2.947099E+05 -3.679677E+04 -7.015236E+05  1.029593E-09 -1.999422E-10
       332  17 -1.641309E+06 -3.863059E+05 -9.479834E+04 -7.443980E+05  9.861559E-10  1.748050E-10
       332  18 -1.710318E+06 -5.730039E+05 -2.135073E+05 -7.813803E+05 -2.162191E-11  1.916053E-11
       332  19 -1.721837E+06 -3.468458E+05 -5.444520E+04 -7.450839E+05 -3.955030E+04 -2.222104E+04
       332  20 -1.673979E+06 -3.022669E+05 -7.997244E+04 -6.552801E+05 -8.078927E+04 -3.219637E+04
       332  21 -1.649288E+06 -3.504518E+05 -1.568515E+05 -5.595819E+05 -1.208737E+05 -4.526595E+04
       332  22 -1.659836E+06 -3.207784E+05 -4.562098E+04 -7.233049E+05 -2.742606E+04 -1.767470E+04
       332  23 -1.657645E+06 -3.442912E+05 -8.738114E+04 -6.998387E+05 -7.454492E+04 -2.984676E+04
       332  24 -1.679808E+06 -4.617558E+05 -1.851673E+05 -6.704877E+05 -1.205053E+05 -4.510326E+04
       332  25 -1.597829E+06 -2.947097E+05 -3.679601E+04 -7.015234E+05 -1.530048E+04 -1.312766E+04
       332  26 -1.641304E+06 -3.863038E+05 -9.478812E+04 -7.443965E+05 -6.830050E+04 -2.749833E+04
       332  27 -1.710302E+06 -5.729978E+05 -2.134763E+05 -7.813759E+05 -1.201369E+05 -4.494074E+04
       333   1  1.162897E+06  1.989837E+05  2.735861E+05  5.273679E+04  2.274368E+05  2.272706E+03
       333   2  1.133265E+06 -1.067126E+05  8.858588E+04  1.763882E+04  1.501911E+05  5.928894E+03
       333   3  1.200691E+06 -6.492710E+04  4.074104E+04 -3.716396E+04  7.294495E+04  5.000038E+03
       333   4  1.414510E+06  2.615047E+05  3.358930E+05 -9.063904E+03  2.296857E+05  2.252698E+03
       333   5  1.365944E+06 -4.893555E+04  1.453113E+05  9.490934E+02  1.507545E+05  5.925259E+03
       333   6  1.414685E+06 -1.167969E+04  9.301357E+04 -8.743521E+03  7.182538E+04  5.002325E+03
       333   7  1.666189E+06  3.240353E+05  3.981972E+05 -7.088963E+04  2.319356E+05  2.232252E+03
       333   8  1.598673E+06  8.838615E+03  2.020330E+05 -1.574691E+04  1.513181E+05  5.921595E+03
       333   9  1.628723E+06  4.156735E+04  1.452832E+05  1.968671E+04  7.070543E+04  5.004509E+03
       333  10  1.162841E+06  1.989698E+05  2.734891E+05  5.273637E+04 -8.906673E-10 -1.514398E-09
       333  11  1.133240E+06 -1.067187E+05  8.854351E+04  1.763811E+04 -3.562045E-10 -4.850690E-10
       333  12  1.200685E+06 -6.492855E+04  4.073101E+04 -3.716425E+04 -1.129334E-09 -9.511014E-10
       333  13  1.414454E+06  2.614906E+05  3.357941E+05 -9.064321E+03  1.520501E-09  5.687164E-10
       333  14  1.365919E+06 -4.894167E+04  1.452687E+05  9.483744E+02  4.728383E-10 -6.587103E-10
       333  15  1.414680E+06 -1.168110E+04  9.300385E+04 -8.743810E+03 -1.521375E-09 -1.360814E-09
       333  16  1.666131E+06  3.240209E+05  3.980964E+05 -7.089005E+04 -5.934119E-11  5.865218E-10
       333  17  1.598648E+06  8.832451E+03  2.019900E+05 -1.574763E+04 -3.066463E-10 -1.631469E-10
       333  18  1.628717E+06  4.156599E+04  1.452738E+05  1.968643E+04  5.677643E-10  1.691139E-09
       333  19  1.162897E+06  1.989837E+05  2.735861E+05  5.273679E+04 -2.274368E+05 -2.272706E+03
       333  20  1.133265E+06 -1.067126E+05  8.858588E+04  1.763882E+04 -1.501911E+05 -5.928894E+03
       333  21  1.200691E+06 -6.492710E+04  4.074104E+04 -3.716396E+04 -7.294495E+04 -5.000038E+03
       333  22  1.414510E+06  2.615047E+05  3.358930E+05 -9.063904E+03 -2.296857E+05 -2.252698E+03
       333  23  1.365944E+06 -4.893555E+04  1.453113E+05  9.490934E+02 -1.507545E+05 -5.925259E+03
       333  24  1.414685E+06 -1.167969E+04  9.301357E+04 -8.743521E+03 -7.182538E+04 -5.002325E+03
       333  25  1.666189E+06  3.240353E+05  3.981972E+05 -7.088963E+04 -2.319356E+05 -2.232252E+03
       333  26  1.598673E+06  8.838615E+03  2.020330E+05 -1.574691E+04 -1.513181E+05 -5.921595E+03
       333  27  1.628723E+06  4.156735E+04  1.452832E+05  1.968671E+04 -7.070543E+04 -5.004509E+03
       334   1  1.218569E+06 -1.101208E+04  3.304527E+04 -1.162911E+03  5.687497E+04  3.917951E+03
       334   2  1.228559E+06 -4.620421E+04 -1.445386E+03  2.119357E+03  3.746051E+04  3.745925E+03
       334   3  1.252193E+06 -3.723739E+04 -1.225563E+04 -1.212230E+04  1.804586E+04  3.120403E+03
       334   4  1.396057E+06  3.310060E+04  7.644109E+04 -8.373937E+03  5.691080E+04  3.917238E+03
       334   5  1.389239E+06 -6.269202E+03  3.779286E+04  3.999224E+02  3.732769E+04  3.745675E+03
       334   6  1.396089E+06 -1.457387E+03  2.293703E+04 -8.349706E+03  1.774490E+04  3.120327E+03
       334   7  1.573574E+06  7.721115E+04  1.198346E+05 -1.558703E+04  5.694664E+04  3.916524E+03
       334   8  1.549943E+06  3.366392E+04  7.702923E+04 -1.319961E+03  3.719483E+04  3.745427E+03
       334   9  1.540004E+06  3.432114E+04  5.812818E+04 -4.576238E+03  1.744387E+04  3.120247E+03
       334  10  1.218565E+06 -1.101297E+04  3.303918E+04 -1.163091E+03 -9.077779E-10 -7.833614E-10
       334  11  1.228558E+06 -4.620460E+04 -1.448044E+03  2.119244E+03 -2.480570E-10 -1.174248E-10
       334  12  1.252192E+06 -3.723749E+04 -1.225626E+04 -1.212235E+04 -2.423798E-10  9.301966E-11
       334  13  1.396054E+06  3.309971E+04  7.643499E+04 -8.374116E+03 -1.672734E-09  9.021067E-10
       334  14  1.389238E+06 -6.269590E+03  3.779022E+04  3.998099E+02 -3.908266E-09  3.487698E-10
       334  15  1.396089E+06 -1.457481E+03  2.293642E+04 -8.349751E+03 -3.734801E-09 -3.936719E-10
       334  16  1.573571E+06  7.721026E+04  1.198285E+05 -1.558721E+04 -9.696073E-10  5.240142E-10
       334  17  1.549941E+06  3.366353E+04  7.702661E+04 -1.320073E+03 -2.602363E-09 -3.902284E-10
       334  18  1.540004E+06  3.432105E+04  5.812760E+04 -4.576282E+03 -9.603945E-10  2.125586E-10
       334  19  1.218569E+06 -1.101208E+04  3.304527E+04 -1.162911E+03 -5.687497E+04 -3.917951E+03
       334  20  1.228559E+06 -4.620421E+04 -1.445386E+03  2.119357E+03 -3.746051E+04 -3.745925E+03
       334  21  1.252193E+06 -3.723739E+04 -1.225563E+04 -1.212230E+04 -1.804586E+04 -3.120403E+03
       334  22  1.396057E+06  3.310060E+04  7.644109E+04 -8.373937E+03 -5.691080E+04 -3.917238E+03
       334  23  1.389239E+06 -6.269202E+03  3.779286E+04  3.999224E+02 -3.732769E+04 -3.745675E+03
       334  24  1.396089E+06 -1.457387E+03  2.293703E+04 -8.349706E+03 -1.774490E+04 -3.120327E+03
       334  25  1.573574E+06  7.721115E+04  1.198346E+05 -1.558703E+04 -5.694664E+04 -3.916524E+03
       334  26  1.549943E+06  3.366392E+04  7.702923E+04 -1.319961E+03 -3.719483E+04 -3.745427E+03
       334  27  1.540004E+06  3.432114E+04  5.812818E+04 -4.576238E+03 -1.744387E+04 -3.120247E+03
       335   1  1.283018E+06 -2.331107E+04 -8.796723E+03 -7.325469E+03  1.425714E+04  2.707278E+03
       335   2  1.297558E+06 -2.439842E+04 -1.348077E+04  1.633570E+02  9.359505E+03  2.179718E+03
       335   3  1.314162E+06 -1.990666E+04 -1.357949E+04 -8.585474E+03  4.461714E+03  1.620472E+03
       335   4  1.393508E+06  4.143264E+03  1.815150E+04 -8.072490E+03  1.407496E+04  2.707157E+03
       335   5  1.392479E+06 -8.056913E+02  9.703803E+03  4.708156E+01  9.165104E+03  2.179631E+03
       335   6  1.393515E+06 -1.738915E+02  5.849350E+03 -8.070842E+03  4.255214E+03  1.620413E+03
       335   7  1.504010E+06  3.159670E+04  4.509884E+04 -8.819645E+03  1.389275E+04  2.707036E+03
       335   8  1.487407E+06  2.278637E+04  3.288772E+04 -6.921231E+01  8.970674E+03  2.179545E+03
       335   9  1.472872E+06  1.955842E+04  2.527773E+04 -7.556143E+03  4.048689E+03  1.620354E+03
       335  10  1.283018E+06 -2.331113E+04 -8.797118E+03 -7.325500E+03 -1.831629E-09  1.043779E-10
       335  11  1.297558E+06 -2.439845E+04 -1.348094E+04  1.633406E+02 -3.619967E-09 -3.472494E-10
       335  12  1.314162E+06 -1.990667E+04 -1.357953E+04 -8.585480E+03  1.319435E-10 -4.491943E-10
       335  13  1.393508E+06  4.143203E+03  1.815111E+04 -8.072520E+03 -2.236939E-09  1.809271E-10
       335  14  1.392479E+06 -8.057189E+02  9.703637E+03  4.706548E+01 -1.797700E-09 -1.340585E-10
       335  15  1.393515E+06 -1.738991E+02  5.849311E+03 -8.070847E+03 -1.295615E-09 -7.203737E-10
       335  16  1.504010E+06  3.159664E+04  4.509846E+04 -8.819675E+03 -1.471541E-09  2.532222E-11
       335  17  1.487407E+06  2.278635E+04  3.288756E+04 -6.922805E+01 -1.245734E-11 -7.576385E-10
       335  18  1.472872E+06  1.955841E+04  2.527769E+04 -7.556149E+03 -3.272531E-10 -3.194733E-11
       335  19  1.283018E+06 -2.331107E+04 -8.796723E+03 -7.325469E+03 -1.425714E+04 -2.707278E+03
       335  20  1.297558E+06 -2.439842E+04 -1.348077E+04  1.633570E+02 -9.359505E+03 -2.179718E+03
       335  21  1.314162E+06 -1.990666E+04 -1.357949E+04 -8.585474E+03 -4.461714E+03 -1.620472E+03
       335  22  1.393508E+06  4.143264E+03  1.815150E+04 -8.072490E+03 -1.407496E+04 -2.707157E+03
       335  23  1.392479E+06 -8.056913E+02  9.703803E+03  4.708156E+01 -9.165104E+03 -2.179631E+03
       335  24  1.393515E+06 -1.738915E+02  5.849350E+03 -8.070842E+03 -4.255214E+03 -1.620413E+03
       335  25  1.504010E+06  3.159670E+04  4.509884E+04 -8.819645E+03 -1.389275E+04 -2.707036E+03
       335  26  1.487407E+06  2.278637E+04  3.288772E+04 -6.921231E+01 -8.970674E+03 -2.179545E+03
       335  27  1.472872E+06  1.955842E+04  2.527773E+04 -7.556143E+03 -4.048689E+03 -1.620354E+03
       336   1  1.345319E+06 -1.137235E+04 -7.005704E+03 -7.869740E+03  3.507026E+03  1.294120E+03
       336   2  1.360088E+06 -8.280505E+03 -5.183289E+03 -1.338205E+02  2.085949E+03  7.527254E+02
       336   3  1.375239E+06 -4.438171E+03 -2.247467E+03 -8.001890E+03  6.647691E+02  2.131664E+02
       336   4  1.393141E+06  5.044063E+02  4.628543E+03 -7.930628E+03  3.311735E+03  1.294072E+03
       336   5  1.392951E+06 -1.125594E+02  2.843581E+03 -1.286110E+02  1.891219E+03  7.526864E+02
       336   6  1.393142E+06  2.079225E+01  2.171520E+03 -7.930529E+03  4.706346E+02  2.131363E+02
       336   7  1.440965E+06  1.238099E+04  1.626262E+04 -7.991521E+03  3.116430E+03  1.294025E+03
       336   8  1.425815E+06  8.055307E+03  1.087037E+04 -1.234012E+02  1.696479E+03  7.526475E+02
       336   9  1.411046E+06  4.479731E+03  6.590484E+03 -7.859166E+03  2.764945E+02  2.131062E+02
       336  10  1.345319E+06 -1.137235E+04 -7.005731E+03 -7.869744E+03  1.536807E-09 -1.849000E-10
       336  11  1.360088E+06 -8.280507E+03 -5.183298E+03 -1.338218E+02  9.376813E-10  6.365555E-12
       336  12  1.375239E+06 -4.438171E+03 -2.247468E+03 -8.001890E+03 -2.254643E-10 -3.127161E-10
       336  13  1.393141E+06  5.044015E+02  4.628519E+03 -7.930631E+03  1.128130E-09 -1.009064E-10
       336  14  1.392951E+06 -1.125610E+02  2.843573E+03 -1.286121E+02  1.258134E-09 -5.540294E-10
       336  15  1.393142E+06  2.079214E+01  2.171520E+03 -7.930529E+03 -3.721726E-11  3.731919E-11
       336  16  1.440965E+06  1.238099E+04  1.626260E+04 -7.991524E+03 -1.590087E-09  1.639539E-10
       336  17  1.425815E+06  8.055305E+03  1.087037E+04 -1.234023E+02 -5.592373E-10 -3.741749E-10
       336  18  1.411046E+06  4.479731E+03  6.590484E+03 -7.859166E+03 -5.919620E-11  7.149269E-11
       336  19  1.345319E+06 -1.137235E+04 -7.005704E+03 -7.869740E+03 -3.507026E+03 -1.294120E+03
       336  20  1.360088E+06 -8.280505E+03 -5.183289E+03 -1.338205E+02 -2.085949E+03 -7.527254E+02
       336  21  1.375239E+06 -4.438171E+03 -2.247467E+03 -8.001890E+03 -6.647691E+02 -2.131664E+02
       336  22  1.393141E+06  5.044063E+02  4.628543E+03 -7.930628E+03 -3.311735E+03 -1.294072E+03
       336  23  1.392951E+06 -1.125594E+02  2.843581E+03 -1.286110E+02 -1.891219E+03 -7.526864E+02
       336  24  1.393142E+06  2.079225E+01  2.171520E+03 -7.930529E+03 -4.706346E+02 -2.131363E+02
       336  25  1.440965E+06  1.238099E+04  1.626262E+04 -7.991521E+03 -3.116430E+03 -1.294025E+03
       336  26  1.425815E+06  8.055307E+03  1.087037E+04 -1.234012E+02 -1.696479E+03 -7.526475E+02
       336  27  1.411046E+06  4.479731E+03  6.590484E+03 -7.859166E+03 -2.764945E+02 -2.131062E+02
       337   1  1.406102E+06  3.277875E+03  5.293850E+03 -7.874792E+03  2.807102E+02 -1.001227E+02
       337   2  1.420886E+06  6.850490E+03  9.148475E+03 -1.343137E+02 -8.825867E+02 -6.392232E+02
       337   3  1.435975E+06  1.099979E+04  1.390515E+04 -7.972724E+03 -2.045871E+03 -1.179307E+03
       337   4  1.393125E+06  4.345630E+01  2.078230E+03 -7.924985E+03  8.654737E+01 -1.001524E+02
       337   5  1.392973E+06 -8.703449E+01  2.330782E+03 -1.355512E+02 -1.077066E+03 -6.392604E+02
       337   6  1.393125E+06  3.592462E+02  3.485648E+03 -7.925048E+03 -2.240639E+03 -1.179351E+03
       337   7  1.380149E+06 -3.190975E+03 -1.137402E+03 -7.975177E+03 -1.076114E+02 -1.001820E+02
       337   8  1.365060E+06 -7.024616E+03 -4.486967E+03 -1.367886E+02 -1.271537E+03 -6.392976E+02
       337   9  1.350276E+06 -1.028143E+04 -6.933985E+03 -7.877376E+03 -2.435394E+03 -1.179395E+03
       337  10  1.406102E+06  3.277875E+03  5.293850E+03 -7.874792E+03 -7.566875E-10 -1.849831E-10
       337  11  1.420886E+06  6.850489E+03  9.148473E+03 -1.343141E+02  5.420682E-10  6.622276E-10
       337  12  1.435975E+06  1.099978E+04  1.390514E+04 -7.972726E+03  5.525094E-10  3.614308E-10
       337  13  1.393125E+06  4.345629E+01  2.078230E+03 -7.924985E+03  1.006122E-09  5.712282E-10
       337  14  1.392973E+06 -8.703524E+01  2.330779E+03 -1.355517E+02  3.074216E-09  6.646115E-10
       337  15  1.393124E+06  3.592434E+02  3.485636E+03 -7.925050E+03 -2.112096E-09 -1.776926E-10
       337  16  1.380149E+06 -3.190975E+03 -1.137402E+03 -7.975177E+03  7.233986E-10  6.371973E-10
       337  17  1.365060E+06 -7.024617E+03 -4.486971E+03 -1.367893E+02  4.850396E-11  1.135002E-10
       337  18  1.350276E+06 -1.028143E+04 -6.933999E+03 -7.877378E+03 -4.564444E-10 -4.135861E-10
       337  19  1.406102E+06  3.277875E+03  5.293850E+03 -7.874792E+03 -2.807102E+02  1.001227E+02
       337  20  1.420886E+06  6.850490E+03  9.148475E+03 -1.343137E+02  8.825867E+02  6.392232E+02
       337  21  1.435975E+06  1.099979E+04  1.390515E+04 -7.972724E+03  2.045871E+03  1.179307E+03
       337  22  1.393125E+06  4.345630E+01  2.078230E+03 -7.924985E+03 -8.654737E+01  1.001524E+02
       337  23  1.392973E+06 -8.703449E+01  2.330782E+03 -1.355512E+02  1.077066E+03  6.392604E+02
       337  24  1.393125E+06  3.592462E+02  3.485648E+03 -7.925048E+03  2.240639E+03  1.179351E+03
       337  25  1.380149E+06 -3.190975E+03 -1.137402E+03 -7.975177E+03  1.076114E+02  1.001820E+02
       337  26  1.365060E+06 -7.024616E+03 -4.486967E+03 -1.367886E+02  1.271537E+03  6.392976E+02
       337  27  1.350276E+06 -1.028143E+04 -6.933985E+03 -7.877376E+03  2.435394E+03  1.179395E+03
       338   1  1.467674E+06  1.834966E+04  2.250990E+04 -7.685062E+03 -2.737818E+03 -1.504355E+03
       338   2  1.482424E+06  2.173522E+04  2.895324E+04 -5.298257E+01 -6.303840E+03 -2.060787E+03
       338   3  1.498667E+06  2.912287E+04  3.872076E+04 -8.585751E+03 -9.869786E+03 -2.585544E+03
       338   4  1.393388E+06 -1.222399E+02  4.320158E+03 -8.054893E+03 -2.943627E+03 -1.504412E+03
       338   5  1.392639E+06 -5.784137E+02  7.025653E+03  2.704235E+01 -6.497770E+03 -2.060867E+03
       338   6  1.393383E+06  2.965871E+03  1.304755E+04 -8.056012E+03 -1.005175E+04 -2.585649E+03
       338   7  1.319106E+06 -1.859454E+04 -1.386999E+04 -8.424679E+03 -3.149412E+03 -1.504468E+03
       338   8  1.302863E+06 -2.289264E+04 -1.490252E+04  1.070551E+02 -6.691673E+03 -2.060947E+03
       338   9  1.288110E+06 -2.319195E+04 -1.262645E+04 -7.526364E+03 -1.023368E+04 -2.585755E+03
       338  10  1.467674E+06  1.834965E+04  2.250988E+04 -7.685065E+03 -1.236088E-09  6.033580E-11
       338  11  1.482424E+06  2.173521E+04  2.895315E+04 -5.299302E+01 -2.276197E-09 -1.816068E-10
       338  12  1.498666E+06  2.912284E+04  3.872056E+04 -8.585772E+03  7.482029E-10  6.948250E-10
       338  13  1.393388E+06 -1.222447E+02  4.320138E+03 -8.054896E+03  1.027048E-09 -1.566209E-10
       338  14  1.392639E+06 -5.784295E+02  7.025566E+03  2.703157E+01 -1.365787E-10  6.423107E-11
       338  15  1.393383E+06  2.965837E+03  1.304735E+04 -8.056033E+03  1.132203E-09  4.176552E-11
       338  16  1.319106E+06 -1.859455E+04 -1.387001E+04 -8.424683E+03  5.002325E-10 -1.741605E-10
       338  17  1.302863E+06 -2.289266E+04 -1.490261E+04  1.070440E+02  1.005595E-09  2.211336E-10
       338  18  1.288110E+06 -2.319198E+04 -1.262666E+04 -7.526385E+03  4.341494E-11  1.623732E-10
       338  19  1.467674E+06  1.834966E+04  2.250990E+04 -7.685062E+03  2.737818E+03  1.504355E+03
       338  20  1.482424E+06  2.173522E+04  2.895324E+04 -5.298257E+01  6.303840E+03  2.060787E+03
       338  21  1.498667E+06  2.912287E+04  3.872076E+04 -8.585751E+03  9.869786E+03  2.585544E+03
       338  22  1.393388E+06 -1.222399E+02  4.320158E+03 -8.054893E+03  2.943627E+03  1.504412E+03
       338  23  1.392639E+06 -5.784137E+02  7.025653E+03  2.704235E+01  6.497770E+03  2.060867E+03
       338  24  1.393383E+06  2.965871E+03  1.304755E+04 -8.056012E+03  1.005175E+04  2.585649E+03
       338  25  1.319106E+06 -1.859454E+04 -1.386999E+04 -8.424679E+03  3.149412E+03  1.504468E+03
       338  26  1.302863E+06 -2.289264E+04 -1.490252E+04  1.070551E+02  6.691673E+03  2.060947E+03
       338  27  1.288110E+06 -2.319195E+04 -1.262645E+04 -7.526364E+03  1.023368E+04  2.585755E+03
       339   1  1.533733E+06  3.338563E+04  5.033533E+04 -5.608679E+03 -1.239002E+04 -2.994125E+03
       339   2  1.545480E+06  3.406411E+04  6.497964E+04 -8.544378E+02 -2.659316E+04 -3.610668E+03
       339   3  1.567064E+06  6.641941E+04  9.678934E+04 -1.348583E+04 -4.079708E+04 -3.782573E+03
       339   4  1.395233E+06 -1.045813E+03  1.646688E+04 -8.321441E+03 -1.268821E+04 -2.994245E+03
       339   5  1.390316E+06 -4.493286E+03  2.709549E+04  3.631393E+02 -2.672792E+04 -3.610857E+03
       339   6  1.395210E+06  2.371206E+04  5.477933E+04 -8.338028E+03 -4.076802E+04 -3.782963E+03
       339   7  1.256751E+06 -3.547865E+04 -1.740296E+04 -1.103360E+04 -1.298634E+04 -2.994362E+03
       339   8  1.235174E+06 -4.305245E+04 -1.079041E+04  1.580409E+03 -2.686265E+04 -3.611048E+03
       339   9  1.223382E+06 -1.899737E+04  1.276718E+04 -3.191652E+03 -4.073898E+04 -3.783352E+03
       339  10  1.533733E+06  3.338558E+04  5.033502E+04 -5.608709E+03 -3.619465E-10  3.490767E-10
       339  11  1.545479E+06  3.406391E+04  6.497829E+04 -8.545151E+02 -2.314447E-10 -7.300216E-10
       339  12  1.567062E+06  6.641895E+04  9.678619E+04 -1.348596E+04  9.359994E-10 -5.531745E-10
       339  13  1.395233E+06 -1.045866E+03  1.646656E+04 -8.321472E+03 -3.537183E-15  7.724249E-12
       339  14  1.390315E+06 -4.493492E+03  2.709412E+04  3.630616E+02 -1.392810E-09 -3.648649E-10
       339  15  1.395208E+06  2.371160E+04  5.477619E+04 -8.338152E+03 -7.531375E-10 -5.643336E-10
       339  16  1.256750E+06 -3.547870E+04 -1.740329E+04 -1.103363E+04  9.246558E-10  1.754383E-12
       339  17  1.235173E+06 -4.305266E+04 -1.079179E+04  1.580331E+03  1.774181E-09  1.376230E-09
       339  18  1.223381E+06 -1.899783E+04  1.276404E+04 -3.191776E+03 -3.450141E-10 -9.929483E-11
       339  19  1.533733E+06  3.338563E+04  5.033533E+04 -5.608679E+03  1.239002E+04  2.994125E+03
       339  20  1.545480E+06  3.406411E+04  6.497964E+04 -8.544378E+02  2.659316E+04  3.610668E+03
       339  21  1.567064E+06  6.641941E+04  9.678934E+04 -1.348583E+04  4.079708E+04  3.782573E+03
       339  22  1.395233E+06 -1.045813E+03  1.646688E+04 -8.321441E+03  1.268821E+04  2.994245E+03
       339  23  1.390316E+06 -4.493286E+03  2.709549E+04  3.631393E+02  2.672792E+04  3.610857E+03
       339  24  1.395210E+06  2.371206E+04  5.477933E+04 -8.338028E+03  4.076802E+04  3.782963E+03
       339  25  1.256751E+06 -3.547865E+04 -1.740296E+04 -1.103360E+04  1.298634E+04  2.994362E+03
       339  26  1.235174E+06 -4.305245E+04 -1.079041E+04  1.580409E+03  2.686265E+04  3.611048E+03
       339  27  1.223382E+06 -1.899737E+04  1.276718E+04 -3.191652E+03  4.073898E+04  3.783352E+03
       340   1  1.616652E+06  4.337843E+04  1.174671E+05  1.168836E+04 -5.035497E+04 -4.843655E+03
       340   2  1.600187E+06  2.119034E+04  1.593312E+05 -1.103610E+04 -1.085495E+05 -5.724822E+03
       340   3  1.653741E+06  2.483672E+05  3.013912E+05 -5.317945E+04 -1.667498E+05 -2.106680E+03
       340   4  1.408560E+06 -8.372869E+03  6.665073E+04 -8.709954E+03 -5.145527E+04 -4.842984E+03
       340   5  1.373616E+06 -3.506652E+04  1.041078E+05  8.879430E+02 -1.080107E+05 -5.726532E+03
       340   6  1.408431E+06  1.873656E+05  2.406502E+05 -8.930857E+03 -1.645701E+05 -2.116097E+03
       340   7  1.200508E+06 -6.012581E+04  1.583147E+04 -2.910144E+04 -5.255520E+04 -4.842241E+03
       340   8  1.147092E+06 -9.132661E+04  4.888073E+04  1.280762E+04 -1.074722E+05 -5.728222E+03
       340   9  1.163180E+06  1.263670E+05  1.799058E+05  3.530026E+04 -1.623912E+05 -2.125207E+03
       340  10  1.616649E+06  4.337773E+04  1.174623E+05  1.168816E+04  1.076632E-09 -1.256108E-09
       340  11  1.600174E+06  2.118715E+04  1.593090E+05 -1.103660E+04  3.146951E-10 -3.309579E-09
       340  12  1.653711E+06  2.483597E+05  3.013391E+05 -5.317973E+04 -2.786704E-10 -9.019316E-10
       340  13  1.408557E+06 -8.373603E+03  6.664572E+04 -8.710154E+03 -2.548962E-09 -3.667285E-09
       340  14  1.373603E+06 -3.506967E+04  1.040858E+05  8.874451E+02  9.358554E-10  1.518333E-09
       340  15  1.408402E+06  1.873584E+05  2.405994E+05 -8.931137E+03 -2.131634E-09 -3.407179E-10
       340  16  1.200505E+06 -6.012657E+04  1.582624E+04 -2.910164E+04 -2.244817E-09 -1.038399E-09
       340  17  1.147080E+06 -9.132974E+04  4.885900E+04  1.280713E+04  9.192145E-10  1.243886E-09
       340  18  1.163151E+06  1.263599E+05  1.798564E+05  3.529999E+04  1.992207E-10 -1.291190E-09
       340  19  1.616652E+06  4.337843E+04  1.174671E+05  1.168836E+04  5.035497E+04  4.843655E+03
       340  20  1.600187E+06  2.119034E+04  1.593312E+05 -1.103610E+04  1.085495E+05  5.724822E+03
       340  21  1.653741E+06  2.483672E+05  3.013912E+05 -5.317945E+04  1.667498E+05  2.106680E+03
       340  22  1.408560E+06 -8.372869E+03  6.665073E+04 -8.709954E+03  5.145527E+04  4.842984E+03
       340  23  1.373616E+06 -3.506652E+04  1.041078E+05  8.879430E+02  1.080107E+05  5.726532E+03
       340  24  1.408431E+06  1.873656E+05  2.406502E+05 -8.930857E+03  1.645701E+05  2.116097E+03
       340  25  1.200508E+06 -6.012581E+04  1.583147E+04 -2.910144E+04  5.255520E+04  4.842241E+03
       340  26  1.147092E+06 -9.132661E+04  4.888073E+04  1.280762E+04  1.074722E+05  5.728222E+03
       340  27  1.163180E+06  1.263670E+05  1.799058E+05  3.530026E+04  1.623912E+05  2.125207E+03
       341   1  1.020118E+06  4.324161E+06  1.073925E+06 -4.341938E+05  2.422018E+04  1.930344E+05
       341   2  6.065614E+05  3.591569E+06  7.531114E+05 -4.432933E+04  6.560685E+04  1.037411E+05
       341   3  4.784567E+05  2.949203E+06  5.628798E+05 -3.678836E+05  3.954998E+04  1.423309E+04
       341   4  2.000176E+05  1.029935E+06  2.587555E+05 -3.793803E+05  2.431846E+04  1.654080E+05
       341   5 -3.993209E+04  9.871007E+05  1.192089E+05 -2.287031E+04  6.564011E+04  1.008422E+05
       341   6  1.958883E+03  1.030180E+06  9.359491E+04 -3.799269E+05  3.940333E+04  3.596127E+04
       341   7 -6.208819E+05 -2.254480E+06 -5.572160E+05 -3.248467E+05  2.441223E+04  1.379254E+05
       341   8 -6.869228E+05 -1.611207E+06 -5.151851E+05 -1.493928E+03  6.567326E+04  9.795464E+04
       341   9 -4.748094E+05 -8.854989E+05 -3.759567E+05 -3.919261E+05  3.925561E+04  5.762254E+04
       341  10  1.020108E+06  4.324121E+06  1.073854E+06 -4.341975E+05 -1.018386E-09 -5.181125E-09
       341  11  6.065539E+05  3.591556E+06  7.530832E+05 -4.433480E+04 -4.320044E-09 -4.862910E-09
       341  12  4.784550E+05  2.949203E+06  5.628765E+05 -3.678841E+05  3.187666E-09 -1.718971E-09
       341  13  2.000096E+05  1.029905E+06  2.587030E+05 -3.793835E+05  1.199628E-10 -1.643420E-10
       341  14 -3.993944E+04  9.870887E+05  1.191817E+05 -2.287564E+04 -2.041996E-09 -1.083601E-10
       341  15  1.956868E+03  1.030178E+06  9.358956E+04 -3.799280E+05  2.025278E-09 -1.142614E-08
       341  16 -6.208877E+05 -2.254500E+06 -5.572530E+05 -3.248494E+05 -4.951492E-10  2.864407E-09
       341  17 -6.869300E+05 -1.611218E+06 -5.152113E+05 -1.499116E+03  1.244857E-09  5.250460E-09
       341  18 -4.748119E+05 -8.855029E+05 -3.759659E+05 -3.919279E+05  1.908436E-11  8.249633E-09
       341  19  1.020118E+06  4.324161E+06  1.073925E+06 -4.341938E+05 -2.422018E+04 -1.930344E+05
       341  20  6.065614E+05  3.591569E+06  7.531114E+05 -4.432933E+04 -6.560685E+04 -1.037411E+05
       341  21  4.784567E+05  2.949203E+06  5.628798E+05 -3.678836E+05 -3.954998E+04 -1.423309E+04
       341  22  2.000176E+05  1.029935E+06  2.587555E+05 -3.793803E+05 -2.431846E+04 -1.654080E+05
       341  23 -3.993209E+04  9.871007E+05  1.192089E+05 -2.287031E+04 -6.564011E+04 -1.008422E+05
       341  24  1.958883E+03  1.030180E+06  9.359491E+04 -3.799269E+05 -3.940333E+04 -3.596127E+04
       341  25 -6.208819E+05 -2.254480E+06 -5.572160E+05 -3.248467E+05 -2.441223E+04 -1.379254E+05
       341  26 -6.869228E+05 -1.611207E+06 -5.151851E+05 -1.493928E+03 -6.567326E+04 -9.795464E+04
       341  27 -4.748094E+05 -8.854989E+05 -3.759567E+05 -3.919261E+05 -3.925561E+04 -5.762254E+04
       342   1  1.540719E+05  1.523581E+06  2.100218E+05 -3.907101E+05  1.381519E+04  1.317312E+04
       342   2 -5.425005E+04  8.378439E+05  3.566168E+04 -2.324869E+04 -3.747835E+03 -2.661071E+04
       342   3 -1.649860E+05  1.698332E+05 -9.106368E+04 -3.613349E+05 -2.070080E+04 -6.633856E+04
       342   4  2.779187E+04  1.015976E+06  8.652912E+04 -3.779019E+05  1.376594E+04  1.971428E+04
       342   5 -1.208832E+04  1.007301E+06  7.706263E+04 -2.508039E+04 -3.793555E+03 -2.028823E+04
       342   6  4.567321E+04  1.015956E+06  1.154065E+05 -3.777794E+05 -2.074249E+04 -6.027751E+04
       342   7 -9.850653E+04  5.086067E+05 -3.698200E+04 -3.651037E+05  1.371693E+04  2.625012E+04
       342   8  3.007133E+04  1.176785E+06  1.184616E+05 -2.691255E+04 -3.839305E+03 -1.396403E+04
       342   9  2.562804E+05  1.862731E+06  3.218248E+05 -3.942451E+05 -2.078447E+04 -5.420818E+04
       342  10  1.540716E+05  1.523580E+06  2.100211E+05 -3.907103E+05  9.835522E-10 -1.360282E-08
       342  11 -5.425026E+04  8.378431E+05  3.566033E+04 -2.324877E+04  1.418542E-09 -1.000104E-08
       342  12 -1.649876E+05  1.698283E+05 -9.107276E+04 -3.613360E+05 -2.492082E-09 -5.295415E-09
       342  13  2.779156E+04  1.015976E+06  8.652804E+04 -3.779021E+05  8.111562E-10 -4.960903E-11
       342  14 -1.208844E+04  1.007301E+06  7.706183E+04 -2.508045E+04  4.557624E-09 -3.270818E-10
       342  15  4.567178E+04  1.015952E+06  1.153989E+05 -3.777805E+05  5.793799E-09 -1.210901E-08
       342  16 -9.850692E+04  5.086059E+05 -3.698364E+04 -3.651039E+05  7.825657E-10  6.022301E-09
       342  17  3.007126E+04  1.176785E+06  1.184612E+05 -2.691259E+04 -4.139214E-09  9.912908E-09
       342  18  2.562792E+05  1.862727E+06  3.218185E+05 -3.942460E+05 -2.322991E-09  1.276267E-08
       342  19  1.540719E+05  1.523581E+06  2.100218E+05 -3.907101E+05 -1.381519E+04 -1.317312E+04
       342  20 -5.425005E+04  8.378439E+05  3.566168E+04 -2.324869E+04  3.747835E+03  2.661071E+04
       342  21 -1.649860E+05  1.698332E+05 -9.106368E+04 -3.613349E+05  2.070080E+04  6.633856E+04
       342  22  2.779187E+04  1.015976E+06  8.652912E+04 -3.779019E+05 -1.376594E+04 -1.971428E+04
       342  23 -1.208832E+04  1.007301E+06  7.706263E+04 -2.508039E+04  3.793555E+03  2.028823E+04
       342  24  4.567321E+04  1.015956E+06  1.154065E+05 -3.777794E+05  2.074249E+04  6.027751E+04
       342  25 -9.850653E+04  5.086067E+05 -3.698200E+04 -3.651037E+05 -1.371693E+04 -2.625012E+04
       342  26  3.007133E+04  1.176785E+06  1.184616E+05 -2.691255E+04  3.839305E+03  1.396403E+04
       342  27  2.562804E+05  1.862731E+06  3.218248E+05 -3.942451E+05  2.078447E+04  5.420818E+04
       343   1 -5.681302E+05 -1.213871E+06 -4.184633E+05 -4.062053E+05 -4.705165E+04 -1.054146E+05
       343   2 -7.987994E+05 -1.969984E+06 -5.257924E+05  7.747299E+03 -7.385284E+04 -1.834594E+05
       343   3 -5.681184E+05 -2.587308E+06 -4.642853E+05 -2.947239E+05 -2.714725E+04 -2.611361E+05
       343   4 -6.689833E+03  1.042418E+06  1.343983E+05 -3.805864E+05 -4.719790E+04 -8.265203E+04
       343   5 -6.624420E+04  9.710876E+05  1.925064E+05 -2.218131E+04 -7.380790E+04 -1.875339E+05
       343   6  3.390778E+05  1.042093E+06  4.374625E+05 -3.799360E+05 -2.705049E+04 -2.921377E+05
       343   7  5.543775E+05  3.303350E+06  6.868900E+05 -3.548652E+05 -4.734198E+04 -5.980637E+04
       343   8  6.656747E+05  3.920055E+06  9.101754E+05 -5.224459E+04 -7.376271E+04 -1.916260E+05
       343   9  1.245312E+06  4.683489E+06  1.338233E+06 -4.656396E+05 -2.694562E+04 -3.233169E+05
       343  10 -5.681356E+05 -1.213883E+06 -4.184884E+05 -4.062093E+05  7.100683E-10 -1.098287E-08
       343  11 -7.988144E+05 -1.970022E+06 -5.258661E+05  7.736370E+03  7.785055E-10 -4.375564E-09
       343  12 -5.681375E+05 -2.587381E+06 -4.644153E+05 -2.947296E+05 -4.620459E-11 -4.732217E-10
       343  13 -6.694060E+03  1.042410E+06  1.343813E+05 -3.805896E+05 -3.790246E-09  1.818955E-10
       343  14 -6.625947E+04  9.710484E+05  1.924302E+05 -2.219245E+04  1.102032E-09 -1.238895E-10
       343  15  3.390541E+05  1.042001E+06  4.373010E+05 -3.799423E+05 -6.641784E-10 -1.850303E-09
       343  16  5.543741E+05  3.303345E+06  6.868791E+05 -3.548674E+05  1.990502E-09  4.455421E-09
       343  17  6.656591E+05  3.920015E+06  9.100966E+05 -5.225594E+04 -6.927374E-10  3.967870E-09
       343  18  1.245283E+06  4.683377E+06  1.338036E+06 -4.656466E+05 -1.528950E-09  1.712771E-09
       343  19 -5.681302E+05 -1.213871E+06 -4.184633E+05 -4.062053E+05  4.705165E+04  1.054146E+05
       343  20 -7.987994E+05 -1.969984E+06 -5.257924E+05  7.747299E+03  7.385284E+04  1.834594E+05
       343  21 -5.681184E+05 -2.587308E+06 -4.642853E+05 -2.947239E+05  2.714725E+04  2.611361E+05
       343  22 -6.689833E+03  1.042418E+06  1.343983E+05 -3.805864E+05  4.719790E+04  8.265203E+04
       343  23 -6.624420E+04  9.710876E+05  1.925064E+05 -2.218131E+04  7.380790E+04  1.875339E+05
       343  24  3.390778E+05  1.042093E+06  4.374625E+05 -3.799360E+05  2.705049E+04  2.921377E+05
       343  25  5.543775E+05  3.303350E+06  6.868900E+05 -3.548652E+05  4.734198E+04  5.980637E+04
       343  26  6.656747E+05  3.920055E+06  9.101754E+05 -5.224459E+04  7.376271E+04  1.916260E+05
       343  27  1.245312E+06  4.683489E+06  1.338233E+06 -4.656396E+05  2.694562E+04  3.233169E+05
       344   1 -1.359355E+06 -5.923260E+05 -3.117487E+05 -5.746899E+05 -1.578976E+05 -5.012120E+04
       344   2 -1.302300E+06 -4.262305E+05 -1.804840E+05 -5.465223E+05 -9.778190E+04 -6.255798E+03
       344   3 -1.273704E+06 -3.462066E+05 -1.200728E+05 -5.111957E+05 -3.224233E+04  2.324425E+04
       344   4 -8.403892E+05 -3.100289E+05 -1.623669E+05 -3.425291E+05 -1.087388E+05 -3.165171E+04
       344   5 -8.201070E+05 -2.079649E+05 -7.664776E+04 -3.693155E+05 -7.600418E+04  1.926872E+03
       344   6 -8.228258E+05 -1.865129E+05 -4.002275E+04 -3.889544E+05 -3.785574E+04  2.113066E+04
       344   7 -3.211258E+05 -2.760485E+04 -1.299565E+04 -1.101577E+05 -5.953461E+04 -1.314760E+04
       344   8 -3.376630E+05  1.036141E+04  2.717943E+04 -1.919671E+05 -5.420817E+04  1.012015E+04
       344   9 -3.717333E+05 -2.680182E+04  4.002086E+04 -2.666310E+05 -4.347351E+04  1.901552E+04
       344  10 -1.359382E+06 -5.923354E+05 -3.118004E+05 -5.746963E+05 -1.093344E-07 -4.114768E-08
       344  11 -1.302310E+06 -4.262332E+05 -1.805021E+05 -5.465228E+05 -1.027382E-08 -7.870224E-09
       344  12 -1.273705E+06 -3.462074E+05 -1.200758E+05 -5.111951E+05  1.020322E-07  4.084743E-08
       344  13 -8.404021E+05 -3.100331E+05 -1.623910E+05 -3.425319E+05 -5.543020E-09 -3.101645E-09
       344  14 -8.201132E+05 -2.079665E+05 -7.665864E+04 -3.693154E+05 -1.645018E-08 -7.735774E-09
       344  15 -8.228275E+05 -1.865137E+05 -4.002628E+04 -3.889537E+05 -7.197093E-09 -4.370239E-09
       344  16 -3.211296E+05 -2.760599E+04 -1.300264E+04 -1.101583E+05  9.760835E-08  3.545565E-08
       344  17 -3.376662E+05  1.036051E+04  2.717371E+04 -1.919666E+05 -1.766975E-08 -1.072857E-08
       344  18 -3.717354E+05 -2.680271E+04  4.001663E+04 -2.666303E+05 -1.149756E-07 -4.548810E-08
       344  19 -1.359355E+06 -5.923260E+05 -3.117487E+05 -5.746899E+05  1.578976E+05  5.012120E+04
       344  20 -1.302300E+06 -4.262305E+05 -1.804840E+05 -5.465223E+05  9.778190E+04  6.255798E+03
       344  21 -1.273704E+06 -3.462066E+05 -1.200728E+05 -5.111957E+05  3.224233E+04 -2.324425E+04
       344  22 -8.403892E+05 -3.100289E+05 -1.623669E+05 -3.425291E+05  1.087388E+05  3.165171E+04
       344  23 -8.201070E+05 -2.079649E+05 -7.664776E+04 -3.693155E+05  7.600418E+04 -1.926872E+03
       344  24 -8.228258E+05 -1.865129E+05 -4.002275E+04 -3.889544E+05  3.785574E+04 -2.113066E+04
       344  25 -3.211258E+05 -2.760485E+04 -1.299565E+04 -1.101577E+05  5.953461E+04  1.314760E+04
       344  26 -3.376630E+05  1.036141E+04  2.717943E+04 -1.919671E+05  5.420817E+04 -1.012015E+04
       344  27 -3.717333E+05 -2.680182E+04  4.002086E+04 -2.666310E+05  4.347351E+04 -1.901552E+04
       345   1 -1.220360E+06 -3.346966E+05 -1.009472E+05 -5.039522E+05 -2.804419E+04  2.243544E+04
       345   2 -1.157975E+06 -2.975374E+05 -7.254175E+04 -4.797500E+05 -1.626222E+04  2.334079E+04
       345   3 -1.089143E+06 -2.753759E+05 -5.343270E+04 -4.657903E+05 -3.939437E+03  2.280886E+04
       345   4 -8.181064E+05 -1.855741E+05 -2.990303E+04 -3.876377E+05 -3.257150E+04  2.073067E+04
       345   5 -8.210748E+05 -1.746983E+05 -1.564292E+04 -3.838831E+05 -2.352565E+04  2.060827E+04
       345   6 -8.170544E+05 -1.782753E+05 -8.503802E+03 -3.903726E+05 -1.394023E+04  1.904852E+04
       345   7 -4.156860E+05 -3.643519E+04  4.113489E+04 -2.712531E+05 -3.710188E+04  1.902467E+04
       345   8 -4.840532E+05 -5.184697E+04  4.125319E+04 -2.879670E+05 -3.079327E+04  1.787413E+04
       345   9 -5.448831E+05 -8.116637E+04  3.642462E+04 -3.149231E+05 -2.394579E+04  1.528642E+04
       345  10 -1.220360E+06 -3.346974E+05 -1.009496E+05 -5.039517E+05  4.081585E-09  4.828392E-09
       345  11 -1.157976E+06 -2.975381E+05 -7.254327E+04 -4.797497E+05  3.131850E-09  4.232626E-09
       345  12 -1.089143E+06 -2.753764E+05 -5.343370E+04 -4.657902E+05  4.081898E-09  4.371069E-09
       345  13 -8.181077E+05 -1.855748E+05 -2.990583E+04 -3.876372E+05 -2.183859E-09  1.998645E-09
       345  14 -8.210755E+05 -1.746989E+05 -1.564476E+04 -3.838827E+05 -1.331855E-09  3.181092E-09
       345  15 -8.170547E+05 -1.782758E+05 -8.504848E+03 -3.903724E+05 -1.667199E-09  1.529873E-09
       345  16 -4.156876E+05 -3.643595E+04  4.113162E+04 -2.712526E+05 -6.142944E-09 -3.587335E-09
       345  17 -4.840543E+05 -5.184757E+04  4.125080E+04 -2.879666E+05 -4.390739E-09 -1.747495E-09
       345  18 -5.448838E+05 -8.116677E+04  3.642310E+04 -3.149229E+05 -4.293786E-09 -1.726340E-09
       345  19 -1.220360E+06 -3.346966E+05 -1.009472E+05 -5.039522E+05  2.804419E+04 -2.243544E+04
       345  20 -1.157975E+06 -2.975374E+05 -7.254175E+04 -4.797500E+05  1.626222E+04 -2.334079E+04
       345  21 -1.089143E+06 -2.753759E+05 -5.343270E+04 -4.657903E+05  3.939437E+03 -2.280886E+04
       345  22 -8.181064E+05 -1.855741E+05 -2.990303E+04 -3.876377E+05  3.257150E+04 -2.073067E+04
       345  23 -8.210748E+05 -1.746983E+05 -1.564292E+04 -3.838831E+05  2.352565E+04 -2.060827E+04
       345  24 -8.170544E+05 -1.782753E+05 -8.503802E+03 -3.903726E+05  1.394023E+04 -1.904852E+04
       345  25 -4.156860E+05 -3.643519E+04  4.113489E+04 -2.712531E+05  3.710188E+04 -1.902467E+04
       345  26 -4.840532E+05 -5.184697E+04  4.125319E+04 -2.879670E+05  3.079327E+04 -1.787413E+04
       345  27 -5.448831E+05 -8.116637E+04  3.642462E+04 -3.149231E+05  2.394579E+04 -1.528642E+04
       346   1 -1.045710E+06 -2.604049E+05 -4.390709E+04 -4.542212E+05 -1.722158E+03  2.011533E+04
       346   2 -9.836101E+05 -2.311810E+05 -2.999730E+04 -4.299601E+05  2.272975E+03  1.561305E+04
       346   3 -9.120683E+05 -2.121349E+05 -1.767605E+04 -4.169162E+05  6.321977E+03  1.096602E+04
       346   4 -8.166274E+05 -1.782639E+05 -6.376193E+03 -3.902293E+05 -1.161864E+04  1.639480E+04
       346   5 -8.213481E+05 -1.730556E+05 -3.489409E+03 -3.846731E+05 -7.899315E+03  1.178955E+04
       346   6 -8.165773E+05 -1.779705E+05 -1.972198E+03 -3.903356E+05 -4.126371E+03  7.039488E+03
       346   7 -5.874881E+05 -9.611754E+04  3.115392E+04 -3.262152E+05 -2.151899E+04  1.267283E+04
       346   8 -6.590585E+05 -1.149279E+05  2.301807E+04 -3.393752E+05 -1.807437E+04  7.965014E+03
       346   9 -7.210773E+05 -1.438055E+05  1.373160E+04 -3.637514E+05 -1.457631E+04  3.112368E+03
       346  10 -1.045711E+06 -2.604053E+05 -4.390785E+04 -4.542212E+05 -1.191387E-09  1.759224E-09
       346  11 -9.836102E+05 -2.311813E+05 -2.999777E+04 -4.299601E+05  7.568295E-09  3.670650E-09
       346  12 -9.120684E+05 -2.121350E+05 -1.767635E+04 -4.169163E+05  1.073779E-08  3.969376E-09
       346  13 -8.166277E+05 -1.782642E+05 -6.376951E+03 -3.902292E+05  2.657704E-09  2.033615E-09
       346  14 -8.213482E+05 -1.730558E+05 -3.489787E+03 -3.846730E+05  7.312678E-09  5.905516E-09
       346  15 -8.165773E+05 -1.779706E+05 -1.972323E+03 -3.903356E+05  1.639085E-09  2.079312E-09
       346  16 -5.874886E+05 -9.611783E+04  3.115274E+04 -3.262150E+05  7.176794E-09  3.032996E-09
       346  17 -6.590589E+05 -1.149281E+05  2.301734E+04 -3.393751E+05  6.096690E-09  3.615803E-09
       346  18 -7.210775E+05 -1.438056E+05  1.373119E+04 -3.637514E+05 -3.709767E-09 -1.846794E-09
       346  19 -1.045710E+06 -2.604049E+05 -4.390709E+04 -4.542212E+05  1.722158E+03 -2.011533E+04
       346  20 -9.836101E+05 -2.311810E+05 -2.999730E+04 -4.299601E+05 -2.272975E+03 -1.561305E+04
       346  21 -9.120683E+05 -2.121349E+05 -1.767605E+04 -4.169162E+05 -6.321977E+03 -1.096602E+04
       346  22 -8.166274E+05 -1.782639E+05 -6.376193E+03 -3.902293E+05  1.161864E+04 -1.639480E+04
       346  23 -8.213481E+05 -1.730556E+05 -3.489409E+03 -3.846731E+05  7.899315E+03 -1.178955E+04
       346  24 -8.165773E+05 -1.779705E+05 -1.972198E+03 -3.903356E+05  4.126371E+03 -7.039488E+03
       346  25 -5.874881E+05 -9.611754E+04  3.115392E+04 -3.262152E+05  2.151899E+04 -1.267283E+04
       346  26 -6.590585E+05 -1.149279E+05  2.301807E+04 -3.393752E+05  1.807437E+04 -7.965014E+03
       346  27 -7.210773E+05 -1.438055E+05  1.373160E+04 -3.637514E+05  1.457631E+04 -3.112368E+03
       347   1 -8.694124E+05 -1.968464E+05 -9.982153E+03 -4.050368E+05  7.800297E+03  7.878919E+03
       347   2 -8.074415E+05 -1.679909E+05  1.287808E+03 -3.807074E+05  1.036454E+04  2.590858E+03
       347   3 -7.357066E+05 -1.489870E+05  1.217870E+04 -3.676195E+05  1.293341E+04 -2.709284E+03
       347   4 -8.165262E+05 -1.779801E+05 -1.523197E+03 -3.903143E+05 -2.638887E+03  3.956023E+03
       347   5 -8.214087E+05 -1.730650E+05 -9.677440E+02 -3.846890E+05 -9.838807E+01 -1.341044E+03
       347   6 -8.165289E+05 -1.779980E+05 -7.733654E+02 -3.903076E+05  2.446680E+03 -6.650204E+03
       347   7 -7.636362E+05 -1.591133E+05  6.936341E+03 -3.755904E+05 -1.307913E+04  3.273361E+01
       347   8 -8.353755E+05 -1.781390E+05 -3.222853E+03 -3.886704E+05 -1.056113E+04 -5.272872E+03
       347   9 -8.973440E+05 -2.070082E+05 -1.372510E+04 -4.129929E+05 -8.038608E+03 -1.059058E+04
       347  10 -8.694125E+05 -1.968464E+05 -9.982384E+03 -4.050369E+05 -2.427159E-09 -1.511589E-09
       347  11 -8.074416E+05 -1.679909E+05  1.287593E+03 -3.807074E+05 -3.052834E-09  2.237423E-09
       347  12 -7.357067E+05 -1.489870E+05  1.217838E+04 -3.676195E+05 -1.352384E-09  1.978690E-09
       347  13 -8.165262E+05 -1.779801E+05 -1.523240E+03 -3.903143E+05 -5.831952E-12  3.389424E-10
       347  14 -8.214087E+05 -1.730650E+05 -9.677474E+02 -3.846890E+05 -6.987821E-10  1.364129E-09
       347  15 -8.165289E+05 -1.779980E+05 -7.734597E+02 -3.903076E+05 -9.834731E-10  1.848222E-09
       347  16 -7.636364E+05 -1.591133E+05  6.936019E+03 -3.755904E+05  3.092143E-09  1.178243E-09
       347  17 -8.353756E+05 -1.781391E+05 -3.223115E+03 -3.886705E+05  1.735897E-09  1.826963E-09
       347  18 -8.973441E+05 -2.070084E+05 -1.372543E+04 -4.129930E+05  6.261122E-10  1.844005E-09
       347  19 -8.694124E+05 -1.968464E+05 -9.982153E+03 -4.050368E+05 -7.800297E+03 -7.878919E+03
       347  20 -8.074415E+05 -1.679909E+05  1.287808E+03 -3.807074E+05 -1.036454E+04 -2.590858E+03
       347  21 -7.357066E+05 -1.489870E+05  1.217870E+04 -3.676195E+05 -1.293341E+04  2.709284E+03
       347  22 -8.165262E+05 -1.779801E+05 -1.523197E+03 -3.903143E+05  2.638887E+03 -3.956023E+03
       347  23 -8.214087E+05 -1.730650E+05 -9.677440E+02 -3.846890E+05  9.838807E+01  1.341044E+03
       347  24 -8.165289E+05 -1.779980E+05 -7.733654E+02 -3.903076E+05 -2.446680E+03  6.650204E+03
       347  25 -7.636362E+05 -1.591133E+05  6.936341E+03 -3.755904E+05  1.307913E+04 -3.273361E+01
       347  26 -8.353755E+05 -1.781390E+05 -3.222853E+03 -3.886704E+05  1.056113E+04  5.272872E+03
       347  27 -8.973440E+05 -2.070082E+05 -1.372510E+04 -4.129929E+05  8.038608E+03  1.059058E+04
       348   1 -6.931448E+05 -1.336648E+05  1.940011E+04 -3.557230E+05  1.426490E+04 -5.860517E+03
       348   2 -6.312088E+05 -1.048172E+05  2.986218E+04 -3.314033E+05  1.679239E+04 -1.117037E+04
       348   3 -5.595045E+05 -8.580564E+04  3.997751E+04 -3.183181E+05  1.931315E+04 -1.646015E+04
       348   4 -8.165329E+05 -1.779995E+05 -7.809449E+02 -3.903061E+05  3.779168E+03 -9.801313E+03
       348   5 -8.214153E+05 -1.730792E+05 -1.010357E+03 -3.846890E+05  6.343946E+03 -1.509796E+04
       348   6 -8.165415E+05 -1.780028E+05 -1.616223E+03 -3.903084E+05  8.901960E+03 -2.037457E+04
       348   7 -9.399030E+05 -2.223319E+05 -2.096149E+04 -4.248822E+05 -6.704240E+03 -1.374123E+04
       348   8 -1.011583E+06 -2.413374E+05 -3.188319E+04 -4.379593E+05 -4.101100E+03 -1.902427E+04
       348   9 -1.073510E+06 -2.701942E+05 -4.321167E+04 -4.622714E+05 -1.504768E+03 -2.428732E+04
       348  10 -6.931451E+05 -1.336649E+05  1.939967E+04 -3.557229E+05 -1.410806E-09  8.699742E-10
       348  11 -6.312091E+05 -1.048174E+05  2.986141E+04 -3.314031E+05 -1.182278E-10  2.031091E-09
       348  12 -5.595050E+05 -8.580603E+04  3.997630E+04 -3.183178E+05  3.848185E-09 -1.713707E-10
       348  13 -8.165329E+05 -1.779996E+05 -7.811522E+02 -3.903060E+05 -4.938260E-10  1.666255E-09
       348  14 -8.214155E+05 -1.730794E+05 -1.010860E+03 -3.846889E+05 -2.224367E-10  2.402153E-10
       348  15 -8.165417E+05 -1.780033E+05 -1.617152E+03 -3.903082E+05  5.240477E-10  1.279506E-09
       348  16 -9.399031E+05 -2.223321E+05 -2.096193E+04 -4.248823E+05  6.525360E-10  2.174030E-09
       348  17 -1.011583E+06 -2.413378E+05 -3.188391E+04 -4.379594E+05 -1.198757E-09  2.422329E-09
       348  18 -1.073510E+06 -2.701948E+05 -4.321278E+04 -4.622714E+05 -2.480709E-09 -1.279728E-09
       348  19 -6.931448E+05 -1.336648E+05  1.940011E+04 -3.557230E+05 -1.426490E+04  5.860517E+03
       348  20 -6.312088E+05 -1.048172E+05  2.986218E+04 -3.314033E+05 -1.679239E+04  1.117037E+04
       348  21 -5.595045E+05 -8.580564E+04  3.997751E+04 -3.183181E+05 -1.931315E+04  1.646015E+04
       348  22 -8.165329E+05 -1.779995E+05 -7.809449E+02 -3.903061E+05 -3.779168E+03  9.801313E+03
       348  23 -8.214153E+05 -1.730792E+05 -1.010357E+03 -3.846890E+05 -6.343946E+03  1.509796E+04
       348  24 -8.165415E+05 -1.780028E+05 -1.616223E+03 -3.903084E+05 -8.901960E+03  2.037457E+04
       348  25 -9.399030E+05 -2.223319E+05 -2.096149E+04 -4.248822E+05  6.704240E+03  1.374123E+04
       348  26 -1.011583E+06 -2.413374E+05 -3.188319E+04 -4.379593E+05  4.101100E+03  1.902427E+04
       348  27 -1.073510E+06 -2.701942E+05 -4.321167E+04 -4.622714E+05  1.504768E+03  2.428732E+04
       349   1 -5.169992E+05 -7.051300E+04  4.673456E+04 -3.064838E+05  2.082644E+04 -1.952464E+04
       349   2 -4.550963E+05 -4.167531E+04  5.593288E+04 -2.821297E+05  2.433356E+04 -2.432592E+04
       349   3 -3.836578E+05 -2.289052E+04  6.396384E+04 -2.689661E+05  2.776880E+04 -2.893176E+04
       349   4 -8.166032E+05 -1.779955E+05 -2.100209E+03 -3.903275E+05  1.040538E+04 -2.344349E+04
       349   5 -8.213657E+05 -1.730999E+05 -3.729033E+03 -3.846722E+05  1.428345E+04 -2.810686E+04
       349   6 -8.166707E+05 -1.783318E+05 -6.820091E+03 -3.902099E+05  1.808945E+04 -3.257477E+04
       349   7 -1.116111E+06 -2.854687E+05 -5.093644E+04 -4.741331E+05 -1.033888E+01 -2.736035E+04
       349   8 -1.187489E+06 -3.045099E+05 -6.339283E+04 -4.871573E+05  4.239695E+03 -3.188542E+04
       349   9 -1.249477E+06 -3.337521E+05 -7.760640E+04 -5.113728E+05  8.417364E+03 -3.621505E+04
       349  10 -5.169997E+05 -7.051353E+04  4.673303E+04 -3.064834E+05 -7.619026E-10 -2.217684E-09
       349  11 -4.550971E+05 -4.167610E+04  5.593065E+04 -2.821292E+05 -1.369495E-09 -5.960111E-10
       349  12 -3.836589E+05 -2.289163E+04  6.396082E+04 -2.689655E+05 -1.015527E-09  2.463368E-10
       349  13 -8.166035E+05 -1.779961E+05 -2.101445E+03 -3.903273E+05 -9.902630E-10 -3.764613E-10
       349  14 -8.213662E+05 -1.731008E+05 -3.730900E+03 -3.846719E+05 -4.784000E-10  9.867547E-10
       349  15 -8.166713E+05 -1.783331E+05 -6.822699E+03 -3.902094E+05  1.053100E-09 -1.084718E-09
       349  16 -1.116111E+06 -2.854695E+05 -5.093785E+04 -4.741331E+05  1.084024E-09  7.928611E-11
       349  17 -1.187489E+06 -3.045110E+05 -6.339477E+04 -4.871571E+05  1.766382E-09 -1.139570E-09
       349  18 -1.249478E+06 -3.337536E+05 -7.760900E+04 -5.113725E+05  9.141452E-10  8.489164E-10
       349  19 -5.169992E+05 -7.051300E+04  4.673456E+04 -3.064838E+05 -2.082644E+04  1.952464E+04
       349  20 -4.550963E+05 -4.167531E+04  5.593288E+04 -2.821297E+05 -2.433356E+04  2.432592E+04
       349  21 -3.836578E+05 -2.289052E+04  6.396384E+04 -2.689661E+05 -2.776880E+04  2.893176E+04
       349  22 -8.166032E+05 -1.779955E+05 -2.100209E+03 -3.903275E+05 -1.040538E+04  2.344349E+04
       349  23 -8.213657E+05 -1.730999E+05 -3.729033E+03 -3.846722E+05 -1.428345E+04  2.810686E+04
       349  24 -8.166707E+05 -1.783318E+05 -6.820091E+03 -3.902099E+05 -1.808945E+04  3.257477E+04
       349  25 -1.116111E+06 -2.854687E+05 -5.093644E+04 -4.741331E+05  1.033888E+01  2.736035E+04
       349  26 -1.187489E+06 -3.045099E+05 -6.339283E+04 -4.871573E+05 -4.239695E+03  3.188542E+04
       349  27 -1.249477E+06 -3.337521E+05 -7.760640E+04 -5.113728E+05 -8.417364E+03  3.621505E+04
       350   1 -3.411345E+05 -7.969832E+03  6.912898E+04 -2.577124E+05  3.029409E+04 -3.145677E+04
       350   2 -2.806229E+05  2.134409E+04  7.386433E+04 -2.306681E+05  3.664155E+04 -3.384032E+04
       350   3 -2.126216E+05  3.666803E+04  7.389440E+04 -2.137291E+05  4.226793E+04 -3.430182E+04
       350   4 -8.171327E+05 -1.783408E+05 -9.095601E+03 -3.903519E+05  2.047641E+04 -3.515288E+04
       350   5 -8.210809E+05 -1.748929E+05 -1.673620E+04 -3.838331E+05  3.048547E+04 -3.616099E+04
       350   6 -8.182736E+05 -1.861663E+05 -3.199090E+04 -3.874229E+05  3.977257E+04 -3.524631E+04
       350   7 -1.292894E+06 -3.486912E+05 -8.732650E+04 -5.228977E+05  1.066661E+04 -3.884606E+04
       350   8 -1.361230E+06 -3.711003E+05 -1.073448E+05 -5.368733E+05  2.433505E+04 -3.847950E+04
       350   9 -1.423536E+06 -4.089610E+05 -1.378873E+05 -5.609569E+05  3.727979E+04 -3.618979E+04
       350  10 -3.411358E+05 -7.971140E+03  6.912540E+04 -2.577116E+05  2.474893E-09  2.086334E-09
       350  11 -2.806247E+05  2.134250E+04  7.385966E+04 -2.306671E+05 -1.961025E-09  6.943593E-10
       350  12 -2.126239E+05  3.666629E+04  7.388883E+04 -2.137279E+05 -2.078567E-09  8.741243E-11
       350  13 -8.171335E+05 -1.783422E+05 -9.098710E+03 -3.903514E+05 -4.435121E-10 -3.871940E-10
       350  14 -8.210822E+05 -1.748946E+05 -1.674040E+04 -3.838322E+05  2.978259E-10  1.144918E-09
       350  15 -8.182756E+05 -1.861681E+05 -3.199621E+04 -3.874218E+05  8.612735E-11  2.157007E-10
       350  16 -1.292894E+06 -3.486929E+05 -8.732954E+04 -5.228974E+05 -1.845745E-09 -1.138126E-09
       350  17 -1.361231E+06 -3.711021E+05 -1.073487E+05 -5.368726E+05  1.067015E-09 -7.828896E-10
       350  18 -1.423538E+06 -4.089628E+05 -1.378924E+05 -5.609558E+05  3.375513E-09  5.741459E-10
       350  19 -3.411345E+05 -7.969832E+03  6.912898E+04 -2.577124E+05 -3.029409E+04  3.145677E+04
       350  20 -2.806229E+05  2.134409E+04  7.386433E+04 -2.306681E+05 -3.664155E+04  3.384032E+04
       350  21 -2.126216E+05  3.666803E+04  7.389440E+04 -2.137291E+05 -4.226793E+04  3.430182E+04
       350  22 -8.171327E+05 -1.783408E+05 -9.095601E+03 -3.903519E+05 -2.047641E+04  3.515288E+04
       350  23 -8.210809E+05 -1.748929E+05 -1.673620E+04 -3.838331E+05 -3.048547E+04  3.616099E+04
       350  24 -8.182736E+05 -1.861663E+05 -3.199090E+04 -3.874229E+05 -3.977257E+04  3.524631E+04
       350  25 -1.292894E+06 -3.486912E+05 -8.732650E+04 -5.228977E+05 -1.066661E+04  3.884606E+04
       350  26 -1.361230E+06 -3.711003E+05 -1.073448E+05 -5.368733E+05 -2.433505E+04  3.847950E+04
       350  27 -1.423536E+06 -4.089610E+05 -1.378873E+05 -5.609569E+05 -3.727979E+04  3.618979E+04
       351   1 -1.685265E+05  4.606798E+04  7.265469E+04 -2.095414E+05  4.917595E+04 -3.365248E+04
       351   2 -1.371215E+05  8.406268E+04  6.163828E+04 -1.319820E+05  5.220971E+04 -2.388662E+04
       351   3 -1.239434E+05  4.412585E+04  2.719777E+04 -4.568260E+04  4.800670E+04  5.085980E+03
       351   4 -8.233682E+05 -1.871294E+05 -4.281625E+04 -3.887791E+05  4.522731E+04 -3.514426E+04
       351   5 -8.200136E+05 -2.105434E+05 -8.200049E+04 -3.683073E+05  8.490791E+04 -1.158184E+04
       351   6 -8.421951E+05 -3.192202E+05 -1.736997E+05 -3.390921E+05  1.173445E+05  3.119586E+04
       351   7 -1.477756E+06 -4.202883E+05 -1.583004E+05 -5.678413E+05  4.128310E+04 -3.663444E+04
       351   8 -1.502401E+06 -5.050474E+05 -2.256550E+05 -6.043685E+05  1.175670E+05  7.022275E+02
       351   9 -1.559882E+06 -6.823770E+05 -3.746147E+05 -6.321389E+05  1.865927E+05  5.724555E+04
       351  10 -1.685294E+05  4.606612E+04  7.264802E+04 -2.095400E+05  2.117219E-09  1.074491E-09
       351  11 -1.371246E+05  8.406133E+04  6.163209E+04 -1.319810E+05 -1.818528E-09 -4.470787E-09
       351  12 -1.239459E+05  4.412520E+04  2.719339E+04 -4.568280E+04 -4.740714E-09 -2.065993E-09
       351  13 -8.233707E+05 -1.871313E+05 -4.282241E+04 -3.887778E+05  1.180381E-09 -1.241106E-09
       351  14 -8.200214E+05 -2.105455E+05 -8.201430E+04 -3.683065E+05  1.591727E-09 -5.297298E-09
       351  15 -8.422102E+05 -3.192250E+05 -1.737275E+05 -3.390950E+05 -4.648493E-11  3.371587E-09
       351  16 -1.477758E+06 -4.202902E+05 -1.583062E+05 -5.678401E+05 -4.149746E-09 -5.958409E-10
       351  17 -1.502416E+06 -5.050511E+05 -2.256811E+05 -6.043686E+05 -1.970924E-09  2.647721E-09
       351  18 -1.559921E+06 -6.823899E+05 -3.746865E+05 -6.321475E+05  2.590805E-09  1.287479E-10
       351  19 -1.685265E+05  4.606798E+04  7.265469E+04 -2.095414E+05 -4.917595E+04  3.365248E+04
       351  20 -1.371215E+05  8.406268E+04  6.163828E+04 -1.319820E+05 -5.220971E+04  2.388662E+04
       351  21 -1.239434E+05  4.412585E+04  2.719777E+04 -4.568260E+04 -4.800670E+04 -5.085980E+03
       351  22 -8.233682E+05 -1.871294E+05 -4.281625E+04 -3.887791E+05 -4.522731E+04  3.514426E+04
       351  23 -8.200136E+05 -2.105434E+05 -8.200049E+04 -3.683073E+05 -8.490791E+04  1.158184E+04
       351  24 -8.421951E+05 -3.192202E+05 -1.736997E+05 -3.390921E+05 -1.173445E+05 -3.119586E+04
       351  25 -1.477756E+06 -4.202883E+05 -1.583004E+05 -5.678413E+05 -4.128310E+04  3.663444E+04
       351  26 -1.502401E+06 -5.050474E+05 -2.256550E+05 -6.043685E+05 -1.175670E+05 -7.022275E+02
       351  27 -1.559882E+06 -6.823770E+05 -3.746147E+05 -6.321389E+05 -1.865927E+05 -5.724555E+04
       352   1 -6.015108E+05 -1.039684E+05 -1.573293E+05 -3.805174E+04 -1.608418E+05 -2.849362E+03
       352   2 -5.801366E+05  1.142730E+05 -2.579072E+04 -1.275935E+04 -1.066459E+05 -8.062092E+03
       352   3 -6.276279E+05  8.463125E+04  8.526797E+03  2.615239E+04 -5.246158E+04 -7.280848E+03
       352   4 -9.335771E+05 -1.867926E+05 -2.397723E+05  5.828071E+03 -1.637574E+05 -2.864815E+03
       352   5 -8.988992E+05  3.493639E+04 -1.036894E+05 -1.118141E+03 -1.074339E+05 -8.065683E+03
       352   6 -9.334947E+05  8.340245E+03 -6.634341E+04  5.554946E+03 -5.112064E+04 -7.276857E+03
       352   7 -1.265539E+06 -2.696178E+05 -3.222225E+05  4.968435E+04 -1.666715E+05 -2.880686E+03
       352   8 -1.217569E+06 -4.440725E+04 -1.815954E+05  1.051704E+04 -1.082215E+05 -8.069304E+03
       352   9 -1.239275E+06 -6.795613E+04 -1.412202E+05 -1.503236E+04 -4.978036E+04 -7.272955E+03
       352  10 -6.015386E+05 -1.039753E+05 -1.573780E+05 -3.805211E+04 -6.080388E-10  6.034640E-10
       352  11 -5.801488E+05  1.142699E+05 -2.581223E+04 -1.276005E+04  1.187442E-09 -9.698778E-10
       352  12 -6.276308E+05  8.463046E+04  8.521520E+03  2.615208E+04  1.151177E-09 -2.679299E-09
       352  13 -9.336060E+05 -1.867998E+05 -2.398228E+05  5.827693E+03  7.440166E-10  1.658007E-09
       352  14 -8.989116E+05  3.493322E+04 -1.037112E+05 -1.118839E+03 -3.288063E-10  7.845233E-11
       352  15 -9.334975E+05  8.339485E+03 -6.634843E+04  5.554646E+03  5.134470E-10  8.182609E-10
       352  16 -1.265569E+06 -2.696253E+05 -3.222748E+05  4.968396E+04  9.260393E-10  1.005733E-09
       352  17 -1.217581E+06 -4.441047E+04 -1.816175E+05  1.051634E+04 -4.447801E-12 -3.461967E-09
       352  18 -1.239278E+06 -6.795686E+04 -1.412250E+05 -1.503265E+04 -1.361551E-09 -4.428849E-09
       352  19 -6.015108E+05 -1.039684E+05 -1.573293E+05 -3.805174E+04  1.608418E+05  2.849362E+03
       352  20 -5.801366E+05  1.142730E+05 -2.579072E+04 -1.275935E+04  1.066459E+05  8.062092E+03
       352  21 -6.276279E+05  8.463125E+04  8.526797E+03  2.615239E+04  5.246158E+04  7.280848E+03
       352  22 -9.335771E+05 -1.867926E+05 -2.397723E+05  5.828071E+03  1.637574E+05  2.864815E+03
       352  23 -8.988992E+05  3.493639E+04 -1.036894E+05 -1.118141E+03  1.074339E+05  8.065683E+03
       352  24 -9.334947E+05  8.340245E+03 -6.634341E+04  5.554946E+03  5.112064E+04  7.276857E+03
       352  25 -1.265539E+06 -2.696178E+05 -3.222225E+05  4.968435E+04  1.666715E+05  2.880686E+03
       352  26 -1.217569E+06 -4.440725E+04 -1.815954E+05  1.051704E+04  1.082215E+05  8.069304E+03
       352  27 -1.239275E+06 -6.795613E+04 -1.412202E+05 -1.503236E+04  4.978036E+04  7.272955E+03
       353   1 -6.433023E+05  4.533748E+04  1.336131E+04  1.297989E+03 -4.037199E+04 -6.081429E+03
       353   2 -6.533018E+05  6.975754E+04  3.720855E+04 -2.507062E+03 -2.664796E+04 -6.140045E+03
       353   3 -6.728911E+05  6.271746E+04  4.426409E+04  9.158779E+03 -1.292566E+04 -5.536587E+03
       353   4 -9.202583E+05 -2.365490E+04 -5.452705E+04  6.095047E+03 -4.050977E+04 -6.082219E+03
       353   5 -9.154333E+05  4.459477E+03 -2.695502E+04 -1.666188E+03 -2.655320E+04 -6.140054E+03
       353   6 -9.202430E+05  1.065858E+03 -1.634163E+04  6.043921E+03 -1.259802E+04 -5.535867E+03
       353   7 -1.197144E+06 -9.265287E+04 -1.224210E+05  1.088992E+04 -4.064748E+04 -6.083011E+03
       353   8 -1.177502E+06 -6.084368E+04 -9.112361E+04 -8.257050E+02 -2.645847E+04 -6.140063E+03
       353   9 -1.167539E+06 -6.059025E+04 -7.695183E+04  2.930274E+03 -1.227051E+04 -5.535151E+03
       353  10 -6.433040E+05  4.533700E+04  1.335817E+04  1.297791E+03 -1.206730E-09 -5.438846E-09
       353  11 -6.533025E+05  6.975731E+04  3.720714E+04 -2.507194E+03 -1.785246E-09  3.665220E-10
       353  12 -6.728913E+05  6.271738E+04  4.426372E+04  9.158721E+03 -1.324887E-09  3.163386E-09
       353  13 -9.202600E+05 -2.365538E+04 -5.453021E+04  6.094848E+03 -1.770252E-11 -3.763331E-09
       353  14 -9.154340E+05  4.459247E+03 -2.695641E+04 -1.666319E+03 -1.721480E-09 -2.255925E-09
       353  15 -9.202432E+05  1.065782E+03 -1.634199E+04  6.043865E+03 -1.176549E-09 -8.860183E-10
       353  16 -1.197146E+06 -9.265336E+04 -1.224242E+05  1.088972E+04 -1.158057E-10 -1.329212E-09
       353  17 -1.177503E+06 -6.084391E+04 -9.112500E+04 -8.258359E+02  9.252063E-10 -6.357206E-10
       353  18 -1.167539E+06 -6.059032E+04 -7.695218E+04  2.930219E+03  2.378856E-09  1.904144E-09
       353  19 -6.433023E+05  4.533748E+04  1.336131E+04  1.297989E+03  4.037199E+04  6.081429E+03
       353  20 -6.533018E+05  6.975754E+04  3.720855E+04 -2.507062E+03  2.664796E+04  6.140045E+03
       353  21 -6.728911E+05  6.271746E+04  4.426409E+04  9.158779E+03  1.292566E+04  5.536587E+03
       353  22 -9.202583E+05 -2.365490E+04 -5.452705E+04  6.095047E+03  4.050977E+04  6.082219E+03
       353  23 -9.154333E+05  4.459477E+03 -2.695502E+04 -1.666188E+03  2.655320E+04  6.140054E+03
       353  24 -9.202430E+05  1.065858E+03 -1.634163E+04  6.043921E+03  1.259802E+04  5.535867E+03
       353  25 -1.197144E+06 -9.265287E+04 -1.224210E+05  1.088992E+04  4.064748E+04  6.083011E+03
       353  26 -1.177502E+06 -6.084368E+04 -9.112361E+04 -8.257050E+02  2.645847E+04  6.140063E+03
       353  27 -1.167539E+06 -6.059025E+04 -7.695183E+04  2.930274E+03  1.227051E+04  5.535151E+03
       354   1 -7.034576E+05  5.060444E+04  3.965913E+04  6.252473E+03 -1.015970E+04 -5.108376E+03
       354   2 -7.189676E+05  5.007427E+04  4.172686E+04 -1.781629E+03 -6.691591E+03 -4.588864E+03
       354   3 -7.359331E+05  4.564668E+04  4.055437E+04  7.147628E+03 -3.224126E+03 -3.976670E+03
       354   4 -9.184246E+05 -2.944722E+03 -1.293916E+04  6.398218E+03 -9.990395E+03 -5.108063E+03
       354   5 -9.176921E+05  5.620310E+02 -6.928006E+03 -2.087697E+03 -6.490040E+03 -4.588409E+03
       354   6 -9.184214E+05  1.649954E+02 -4.180295E+03  6.390100E+03 -2.990234E+03 -3.976063E+03
       354   7 -1.133349E+06 -5.649731E+04 -6.554084E+04  6.543885E+03 -9.821151E+03 -5.107750E+03
       354   8 -1.116381E+06 -4.895314E+04 -5.558576E+04 -2.393691E+03 -6.288552E+03 -4.587954E+03
       354   9 -1.100879E+06 -4.531916E+04 -4.891740E+04  5.632773E+03 -2.756411E+03 -3.975457E+03
       354  10 -7.034577E+05  5.060439E+04  3.965889E+04  6.252431E+03 -2.140477E-09  5.896830E-09
       354  11 -7.189677E+05  5.007424E+04  4.172673E+04 -1.781654E+03 -1.967492E-09  4.703753E-09
       354  12 -7.359331E+05  4.564666E+04  4.055432E+04  7.147617E+03  1.201864E-09  2.064748E-12
       354  13 -9.184248E+05 -2.944777E+03 -1.293940E+04  6.398177E+03 -4.006857E-10 -1.660782E-09
       354  14 -9.176922E+05  5.619971E+02 -6.928125E+03 -2.087721E+03 -1.477265E-09  2.830488E-09
       354  15 -9.184215E+05  1.649761E+02 -4.180342E+03  6.390090E+03 -2.316790E-09  7.791173E-09
       354  16 -1.133350E+06 -5.649737E+04 -6.554107E+04  6.543844E+03  1.220240E-09  4.319428E-09
       354  17 -1.116381E+06 -4.895317E+04 -5.558588E+04 -2.393714E+03 -2.543588E-09  4.435483E-09
       354  18 -1.100879E+06 -4.531918E+04 -4.891744E+04  5.632764E+03 -2.462672E-09  5.051838E-09
       354  19 -7.034576E+05  5.060444E+04  3.965913E+04  6.252473E+03  1.015970E+04  5.108376E+03
       354  20 -7.189676E+05  5.007427E+04  4.172686E+04 -1.781629E+03  6.691591E+03  4.588864E+03
       354  21 -7.359331E+05  4.564668E+04  4.055437E+04  7.147628E+03  3.224126E+03  3.976670E+03
       354  22 -9.184246E+05 -2.944722E+03 -1.293916E+04  6.398218E+03  9.990395E+03  5.108063E+03
       354  23 -9.176921E+05  5.620310E+02 -6.928006E+03 -2.087697E+03  6.490040E+03  4.588409E+03
       354  24 -9.184214E+05  1.649954E+02 -4.180295E+03  6.390100E+03  2.990234E+03  3.976063E+03
       354  25 -1.133349E+06 -5.649731E+04 -6.554084E+04  6.543885E+03  9.821151E+03  5.107750E+03
       354  26 -1.116381E+06 -4.895314E+04 -5.558576E+04 -2.393691E+03  6.288552E+03  4.587954E+03
       354  27 -1.100879E+06 -4.531916E+04 -4.891740E+04  5.632773E+03  2.756411E+03  3.975457E+03
       355   1 -7.706764E+05  3.641454E+04  3.274099E+04  6.912130E+03 -2.533111E+03 -3.609086E+03
       355   2 -7.877792E+05  3.251830E+04  2.980834E+04 -2.087686E+03 -1.507595E+03 -2.996193E+03
       355   3 -8.052269E+05  2.818386E+04  2.607654E+04  6.954992E+03 -4.824179E+02 -2.359286E+03
       355   4 -9.181704E+05 -3.253231E+02 -3.322967E+03  6.633329E+03 -2.317733E+03 -3.608498E+03
       355   5 -9.179966E+05  7.239837E+01 -2.075762E+03 -2.388569E+03 -1.283800E+03 -2.995542E+03
       355   6 -9.181697E+05  3.032476E+01 -1.633742E+03  6.632263E+03 -2.501783E+02 -2.358569E+03
       355   7 -1.065645E+06 -3.706680E+04 -3.938851E+04  6.354580E+03 -2.102406E+03 -3.607910E+03
       355   8 -1.048198E+06 -3.237476E+04 -3.396110E+04 -2.689401E+03 -1.060052E+03 -2.994891E+03
       355   9 -1.031101E+06 -2.812415E+04 -2.934496E+04  6.309584E+03 -1.798103E+01 -2.357852E+03
       355  10 -7.706764E+05  3.641453E+04  3.274095E+04  6.912122E+03  2.581133E-09 -1.166726E-09
       355  11 -7.877792E+05  3.251829E+04  2.980831E+04 -2.087690E+03  1.238926E-09  8.236707E-09
       355  12 -8.052269E+05  2.818385E+04  2.607653E+04  6.954991E+03  1.160044E-09  8.637031E-09
       355  13 -9.181704E+05 -3.253385E+02 -3.323002E+03  6.633323E+03 -1.075226E-09  1.840826E-09
       355  14 -9.179966E+05  7.238830E+01 -2.075782E+03 -2.388572E+03 -3.405837E-09  5.938132E-09
       355  15 -9.181697E+05  3.031877E+01 -1.633753E+03  6.632263E+03 -2.742279E-09  1.975480E-09
       355  16 -1.065645E+06 -3.706681E+04 -3.938855E+04  6.354574E+03 -5.537875E-09  3.341713E-09
       355  17 -1.048198E+06 -3.237477E+04 -3.396112E+04 -2.689403E+03 -1.941914E-09 -2.564839E-09
       355  18 -1.031101E+06 -2.812416E+04 -2.934497E+04  6.309584E+03 -6.390540E-10 -1.547064E-09
       355  19 -7.706764E+05  3.641454E+04  3.274099E+04  6.912130E+03  2.533111E+03  3.609086E+03
       355  20 -7.877792E+05  3.251830E+04  2.980834E+04 -2.087686E+03  1.507595E+03  2.996193E+03
       355  21 -8.052269E+05  2.818386E+04  2.607654E+04  6.954992E+03  4.824179E+02  2.359286E+03
       355  22 -9.181704E+05 -3.253231E+02 -3.322967E+03  6.633329E+03  2.317733E+03  3.608498E+03
       355  23 -9.179966E+05  7.239837E+01 -2.075762E+03 -2.388569E+03  1.283800E+03  2.995542E+03
       355  24 -9.181697E+05  3.032476E+01 -1.633742E+03  6.632263E+03  2.501783E+02  2.358569E+03
       355  25 -1.065645E+06 -3.706680E+04 -3.938851E+04  6.354580E+03  2.102406E+03  3.607910E+03
       355  26 -1.048198E+06 -3.237476E+04 -3.396110E+04 -2.689401E+03  1.060052E+03  2.994891E+03
       355  27 -1.031101E+06 -2.812415E+04 -2.934496E+04  6.309584E+03  1.798103E+01  2.357852E+03
       356   1 -8.419291E+05  1.900446E+04  1.701598E+04  6.915463E+03 -1.902755E+02 -1.983427E+03
       356   2 -8.596194E+05  1.460928E+04  1.242803E+04 -2.416578E+03  7.367489E+02 -1.338048E+03
       356   3 -8.776666E+05  9.854886E+03  7.115476E+03  6.919081E+03  1.663641E+03 -6.878798E+02
       356   4 -9.181699E+05  1.823597E+01 -1.598147E+03  6.771243E+03  3.987570E+01 -1.982693E+03
       356   5 -9.179913E+05  6.414791E+01 -1.865293E+03 -2.562214E+03  9.685402E+02 -1.337292E+03
       356   6 -9.181701E+05 -2.493724E+02 -2.858126E+03  6.772140E+03  1.897099E+03 -6.871000E+02
       356   7 -9.944053E+05 -1.896842E+04 -2.021270E+04  6.627036E+03  2.699987E+02 -1.981960E+03
       356   8 -9.763602E+05 -1.448124E+04 -1.615886E+04 -2.707839E+03  1.200310E+03 -1.336536E+03
       356   9 -9.586722E+05 -1.035375E+04 -1.283185E+04  6.625207E+03  2.130541E+03 -6.863204E+02
       356  10 -8.419291E+05  1.900446E+04  1.701598E+04  6.915463E+03  2.464404E-09  3.789835E-09
       356  11 -8.596194E+05  1.460928E+04  1.242802E+04 -2.416578E+03  2.353012E-09 -1.492999E-09
       356  12 -8.776666E+05  9.854885E+03  7.115470E+03  6.919082E+03  2.678501E-09 -4.297794E-09
       356  13 -9.181699E+05  1.823175E+01 -1.598155E+03  6.771243E+03  4.230426E-10  1.084509E-08
       356  14 -9.179914E+05  6.414574E+01 -1.865298E+03 -2.562213E+03 -1.574088E-09  3.046252E-09
       356  15 -9.181701E+05 -2.493739E+02 -2.858134E+03  6.772141E+03 -3.083721E-09 -4.853832E-09
       356  16 -9.944053E+05 -1.896842E+04 -2.021271E+04  6.627036E+03 -4.234722E-09  5.094818E-09
       356  17 -9.763602E+05 -1.448124E+04 -1.615887E+04 -2.707837E+03 -4.445494E-09  8.739563E-10
       356  18 -9.586722E+05 -1.035376E+04 -1.283186E+04  6.625208E+03 -2.464768E-09 -7.839063E-09
       356  19 -8.419291E+05  1.900446E+04  1.701598E+04  6.915463E+03  1.902755E+02  1.983427E+03
       356  20 -8.596194E+05  1.460928E+04  1.242803E+04 -2.416578E+03 -7.367489E+02  1.338048E+03
       356  21 -8.776666E+05  9.854886E+03  7.115476E+03  6.919081E+03 -1.663641E+03  6.878798E+02
       356  22 -9.181699E+05  1.823597E+01 -1.598147E+03  6.771243E+03 -3.987570E+01  1.982693E+03
       356  23 -9.179913E+05  6.414791E+01 -1.865293E+03 -2.562214E+03 -9.685402E+02  1.337292E+03
       356  24 -9.181701E+05 -2.493724E+02 -2.858126E+03  6.772140E+03 -1.897099E+03  6.871000E+02
       356  25 -9.944053E+05 -1.896842E+04 -2.021270E+04  6.627036E+03 -2.699987E+02  1.981960E+03
       356  26 -9.763602E+05 -1.448124E+04 -1.615886E+04 -2.707839E+03 -1.200310E+03  1.336536E+03
       356  27 -9.586722E+05 -1.035375E+04 -1.283185E+04  6.625207E+03 -2.130541E+03  6.863204E+02
       357   1 -9.153500E+05  8.990541E+02 -2.874407E+03  6.510230E+03  2.230647E+03 -2.992596E+02
       357   2 -9.326832E+05 -3.253068E+03 -9.496752E+03 -2.554948E+03  5.190926E+03  3.646541E+02
       357   3 -9.513678E+05 -1.063928E+04 -1.888986E+04  7.195843E+03  8.151265E+03  9.901819E+02
       357   4 -9.183898E+05  1.551792E+02 -3.562750E+03  6.801580E+03  2.472741E+03 -2.984443E+02
       357   5 -9.177165E+05  4.756345E+02 -5.832713E+03 -2.602077E+03  5.419283E+03  3.654164E+02
       357   6 -9.183923E+05 -2.435514E+03 -1.086376E+04  6.810218E+03  8.365969E+03  9.908892E+02
       357   7 -9.214297E+05 -5.886960E+02 -4.251093E+03  7.092928E+03  2.714834E+03 -2.976288E+02
       357   8 -9.027496E+05  4.204320E+03 -2.168690E+03 -2.649207E+03  5.647644E+03  3.661786E+02
       357   9 -8.854158E+05  5.768169E+03 -2.837748E+03  6.424571E+03  8.580684E+03  9.915962E+02
       357  10 -9.153500E+05  8.990526E+02 -2.874417E+03  6.510231E+03 -5.205066E-09  5.670440E-10
       357  11 -9.326833E+05 -3.253075E+03 -9.496803E+03 -2.554950E+03 -1.195092E-09  2.070345E-09
       357  12 -9.513679E+05 -1.063929E+04 -1.888998E+04  7.195836E+03  2.107736E-09  1.636491E-09
       357  13 -9.183898E+05  1.551774E+02 -3.562762E+03  6.801580E+03 -1.057969E-09 -3.052870E-09
       357  14 -9.177165E+05  4.756265E+02 -5.832768E+03 -2.602078E+03 -3.956184E-09  2.604295E-09
       357  15 -9.183924E+05 -2.435533E+03 -1.086390E+04  6.810211E+03 -1.978062E-09  2.192884E-09
       357  16 -9.214297E+05 -5.886981E+02 -4.251107E+03  7.092928E+03  2.077812E-09 -2.292823E-09
       357  17 -9.027496E+05  4.204311E+03 -2.168750E+03 -2.649208E+03 -2.870192E-10 -7.166240E-09
       357  18 -8.854159E+05  5.768148E+03 -2.837888E+03  6.424564E+03 -1.249123E-09  5.045645E-11
       357  19 -9.153500E+05  8.990541E+02 -2.874407E+03  6.510230E+03 -2.230647E+03  2.992596E+02
       357  20 -9.326832E+05 -3.253068E+03 -9.496752E+03 -2.554948E+03 -5.190926E+03 -3.646541E+02
       357  21 -9.513678E+05 -1.063928E+04 -1.888986E+04  7.195843E+03 -8.151265E+03 -9.901819E+02
       357  22 -9.183898E+05  1.551792E+02 -3.562750E+03  6.801580E+03 -2.472741E+03  2.984443E+02
       357  23 -9.177165E+05  4.756345E+02 -5.832713E+03 -2.602077E+03 -5.419283E+03 -3.654164E+02
       357  24 -9.183923E+05 -2.435514E+03 -1.086376E+04  6.810218E+03 -8.365969E+03 -9.908892E+02
       357  25 -9.214297E+05 -5.886960E+02 -4.251093E+03  7.092928E+03 -2.714834E+03  2.976288E+02
       357  26 -9.027496E+05  4.204320E+03 -2.168690E+03 -2.649207E+03 -5.647644E+03 -3.661786E+02
       357  27 -8.854158E+05  5.768169E+03 -2.837748E+03  6.424571E+03 -8.580684E+03 -9.915962E+02
       358   1 -9.901513E+05 -1.660705E+04 -3.096621E+04  4.318087E+03  1.025297E+04  1.428083E+03
       358   2 -1.003724E+06 -1.815403E+04 -4.411062E+04 -1.651786E+03  2.207699E+04  2.124498E+03
       358   3 -1.025569E+06 -4.608044E+04 -7.158458E+04  1.090014E+04  3.390171E+04  2.460308E+03
       358   4 -9.199246E+05  9.220925E+02 -1.371366E+04  6.717433E+03  1.055510E+04  1.429110E+03
       358   5 -9.158067E+05  3.744868E+03 -2.259018E+04 -2.510579E+03  2.225092E+04  2.125003E+03
       358   6 -9.199374E+05 -1.978742E+04 -4.570553E+04  6.783181E+03  3.394777E+04  2.460189E+03
       358   7 -8.496933E+05  1.845089E+04  3.538533E+03  9.117048E+03  1.085728E+04  1.430140E+03
       358   8 -8.278819E+05  2.564320E+04 -1.070301E+03 -3.369499E+03  2.242487E+04  2.125508E+03
       358   9 -8.142953E+05  6.504834E+03 -1.982728E+04  2.665513E+03  3.399383E+04  2.460069E+03
       358  10 -9.901515E+05 -1.660708E+04 -3.096641E+04  4.318076E+03 -5.504675E-09  7.024996E-09
       358  11 -1.003725E+06 -1.815417E+04 -4.411154E+04 -1.651824E+03 -7.054747E-10  4.355277E-09
       358  12 -1.025571E+06 -4.608076E+04 -7.158676E+04  1.090007E+04  2.235303E-09  2.157024E-09
       358  13 -9.199247E+05  9.220604E+02 -1.371387E+04  6.717421E+03  1.006317E-11  3.131792E-09
       358  14 -9.158073E+05  3.744730E+03 -2.259112E+04 -2.510617E+03 -1.202365E-09  4.080324E-09
       358  15 -9.199387E+05 -1.978774E+04 -4.570771E+04  6.783114E+03 -2.312584E-09 -1.130193E-09
       358  16 -8.496934E+05  1.845086E+04  3.538307E+03  9.117035E+03  4.548279E-09  1.220189E-09
       358  17 -8.278824E+05  2.564306E+04 -1.071255E+03 -3.369538E+03  1.610131E-09 -4.929903E-10
       358  18 -8.142965E+05  6.504517E+03 -1.982947E+04  2.665445E+03  2.363100E-11 -4.224268E-09
       358  19 -9.901513E+05 -1.660705E+04 -3.096621E+04  4.318087E+03 -1.025297E+04 -1.428083E+03
       358  20 -1.003724E+06 -1.815403E+04 -4.411062E+04 -1.651786E+03 -2.207699E+04 -2.124498E+03
       358  21 -1.025569E+06 -4.608044E+04 -7.158458E+04  1.090014E+04 -3.390171E+04 -2.460308E+03
       358  22 -9.199246E+05  9.220925E+02 -1.371366E+04  6.717433E+03 -1.055510E+04 -1.429110E+03
       358  23 -9.158067E+05  3.744868E+03 -2.259018E+04 -2.510579E+03 -2.225092E+04 -2.125003E+03
       358  24 -9.199374E+05 -1.978742E+04 -4.570553E+04  6.783181E+03 -3.394777E+04 -2.460189E+03
       358  25 -8.496933E+05  1.845089E+04  3.538533E+03  9.117048E+03 -1.085728E+04 -1.430140E+03
       358  26 -8.278819E+05  2.564320E+04 -1.070301E+03 -3.369499E+03 -2.242487E+04 -2.125508E+03
       358  27 -8.142953E+05  6.504834E+03 -1.982728E+04  2.665513E+03 -3.399383E+04 -2.460069E+03
       359   1 -1.072668E+06 -2.840226E+04 -9.033037E+04 -1.075387E+04  4.197005E+04  3.344953E+03
       359   2 -1.060550E+06 -1.014539E+04 -1.256469E+05  7.421667E+03  9.035140E+04  4.232095E+03
       359   3 -1.106916E+06 -2.001954E+05 -2.445897E+05  4.360183E+04  1.387424E+05  1.779668E+03
       359   4 -9.310361E+05  7.026468E+03 -5.560899E+04  6.469660E+03  4.284256E+04  3.348758E+03
       359   5 -9.019396E+05  2.929092E+04 -8.689299E+04 -2.299262E+03  9.003248E+04  4.229616E+03
       359   6 -9.311074E+05 -1.565183E+05 -2.009595E+05  6.937636E+03  1.372335E+05  1.767071E+03
       359   7 -7.893848E+05  4.245480E+04 -2.088893E+04  2.369713E+04  4.371528E+04  3.352611E+03
       359   8 -7.433065E+05  6.872574E+04 -4.814082E+04 -1.202270E+04  8.971348E+04  4.227147E+03
       359   9 -7.552673E+05 -1.128383E+05 -1.573308E+05 -2.973698E+04  1.357241E+05  1.754655E+03
       359  10 -1.072670E+06 -2.840274E+04 -9.033371E+04 -1.075399E+04 -9.972275E-10  1.265992E-09
       359  11 -1.060558E+06 -1.014761E+04 -1.256623E+05  7.421359E+03  1.919075E-09 -2.552339E-09
       359  12 -1.106937E+06 -2.002006E+05 -2.446260E+05  4.360163E+04  4.865104E-10 -2.445935E-10
       359  13 -9.310381E+05  7.025963E+03 -5.561247E+04  6.469545E+03  4.363442E-10  6.563913E-09
       359  14 -9.019484E+05  2.928872E+04 -8.690828E+04 -2.299569E+03 -2.009907E-09 -5.341940E-09
       359  15 -9.311277E+05 -1.565233E+05 -2.009949E+05  6.937441E+03 -2.453857E-09  4.226817E-09
       359  16 -7.893869E+05  4.245428E+04 -2.089255E+04  2.369701E+04 -1.434592E-09  2.828851E-09
       359  17 -7.433152E+05  6.872355E+04 -4.815599E+04 -1.202301E+04 -3.264320E-09  3.661563E-10
       359  18 -7.552871E+05 -1.128433E+05 -1.573655E+05 -2.973717E+04  1.517804E-10 -1.963373E-09
       359  19 -1.072668E+06 -2.840226E+04 -9.033037E+04 -1.075387E+04 -4.197005E+04 -3.344953E+03
       359  20 -1.060550E+06 -1.014539E+04 -1.256469E+05  7.421667E+03 -9.035140E+04 -4.232095E+03
       359  21 -1.106916E+06 -2.001954E+05 -2.445897E+05  4.360183E+04 -1.387424E+05 -1.779668E+03
       359  22 -9.310361E+05  7.026468E+03 -5.560899E+04  6.469660E+03 -4.284256E+04 -3.348758E+03
       359  23 -9.019396E+05  2.929092E+04 -8.689299E+04 -2.299262E+03 -9.003248E+04 -4.229616E+03
       359  24 -9.311074E+05 -1.565183E+05 -2.009595E+05  6.937636E+03 -1.372335E+05 -1.767071E+03
       359  25 -7.893848E+05  4.245480E+04 -2.088893E+04  2.369713E+04 -4.371528E+04 -3.352611E+03
       359  26 -7.433065E+05  6.872574E+04 -4.814082E+04 -1.202270E+04 -8.971348E+04 -4.227147E+03
       359  27 -7.552673E+05 -1.128383E+05 -1.573308E+05 -2.973698E+04 -1.357241E+05 -1.754655E+03
       360   1  7.378741E+05  4.117284E+06  8.543826E+05 -2.456403E+05  9.380995E+03  3.543835E+05
       360   2  1.902946E+05  3.783031E+06  5.008199E+05 -4.206479E+04  2.667675E+04  2.153682E+05
       360   3  1.944666E+05  3.605359E+06  3.754462E+05 -1.041981E+05  1.713237E+04  7.633582E+04
       360   4  4.051849E+05  2.781041E+06  5.239570E+05 -1.464508E+05  9.458277E+03  3.429216E+05
       360   5 -7.745187E+04  2.703752E+06  2.383584E+05 -1.398969E+04  2.669266E+04  2.138592E+05
       360   6 -9.536951E+03  2.781587E+06  1.744084E+05 -1.472290E+05  1.709805E+04  8.472123E+04
       360   7  7.239900E+04  1.446431E+06  1.934045E+05 -4.747289E+04  9.532046E+03  3.314836E+05
       360   8 -3.452810E+05  1.625530E+06 -2.418677E+04  1.403743E+04  2.670846E+04  2.123525E+05
       360   9 -2.135830E+05  1.958435E+06 -2.667742E+04 -1.902024E+05  1.706255E+04  9.309553E+04
       360  10  7.378406E+05  4.117150E+06  8.541480E+05 -2.456430E+05 -1.409636E-09 -1.915570E-09
       360  11  1.902815E+05  3.782981E+06  5.007319E+05 -4.206941E+04 -1.718729E-09 -1.709683E-09
       360  12  1.944647E+05  3.605352E+06  3.754348E+05 -1.041991E+05  4.761221E-09  4.373191E-09
       360  13  4.051534E+05  2.780916E+06  5.237368E+05 -1.464534E+05  8.568358E-10 -2.351248E-09
       360  14 -7.746484E+04  2.703702E+06  2.382715E+05 -1.399428E+04 -2.371215E-09  2.649624E-09
       360  15 -9.539182E+03  2.781580E+06  1.743944E+05 -1.472302E+05 -1.142585E-10  7.825708E-09
       360  16  7.236949E+04  1.446313E+06  1.931984E+05 -4.747543E+04 -9.195096E-10  2.846153E-09
       360  17 -3.452938E+05  1.625481E+06 -2.427262E+04  1.403286E+04  1.157908E-09 -4.040759E-09
       360  18 -2.135857E+05  1.958426E+06 -2.669420E+04 -1.902036E+05  1.461382E-10 -3.034456E-09
       360  19  7.378741E+05  4.117284E+06  8.543826E+05 -2.456403E+05 -9.380995E+03 -3.543835E+05
       360  20  1.902946E+05  3.783031E+06  5.008199E+05 -4.206479E+04 -2.667675E+04 -2.153682E+05
       360  21  1.944666E+05  3.605359E+06  3.754462E+05 -1.041981E+05 -1.713237E+04 -7.633582E+04
       360  22  4.051849E+05  2.781041E+06  5.239570E+05 -1.464508E+05 -9.458277E+03 -3.429216E+05
       360  23 -7.745187E+04  2.703752E+06  2.383584E+05 -1.398969E+04 -2.669266E+04 -2.138592E+05
       360  24 -9.536951E+03  2.781587E+06  1.744084E+05 -1.472290E+05 -1.709805E+04 -8.472123E+04
       360  25  7.239900E+04  1.446431E+06  1.934045E+05 -4.747289E+04 -9.532046E+03 -3.314836E+05
       360  26 -3.452810E+05  1.625530E+06 -2.418677E+04  1.403743E+04 -2.670846E+04 -2.123525E+05
       360  27 -2.135830E+05  1.958435E+06 -2.667742E+04 -1.902024E+05 -1.706255E+04 -9.309553E+04
       361   1  1.263575E+05  3.065780E+06  2.328287E+05 -1.634343E+05  7.488638E+03  5.312888E+04
       361   2 -4.992795E+03  2.798867E+06  1.404775E+05 -1.669973E+04  1.523377E+03 -1.178623E+04
       361   3  1.311895E+04  2.575379E+06  1.271193E+05 -1.250470E+05 -4.660504E+03 -7.667836E+04
       361   4  4.954949E+04  2.756810E+06  1.576114E+05 -1.445266E+05  7.481912E+03  5.532125E+04
       361   5 -2.080706E+04  2.735124E+06  1.249385E+05 -1.696968E+04  1.514639E+03 -9.499422E+03
       361   6  5.829453E+04  2.756796E+06  1.712092E+05 -1.444886E+05 -4.667475E+03 -7.432236E+04
       361   7 -2.726421E+04  2.447927E+06  8.238732E+04 -1.256283E+05  7.475318E+03  5.751253E+04
       361   8 -3.662163E+04  2.671385E+06  1.093993E+05 -1.723960E+04  1.505899E+03 -7.212843E+03
       361   9  1.034691E+05  2.938244E+06  2.152970E+05 -1.639359E+05 -4.674592E+03 -7.196568E+04
       361  10  1.263567E+05  3.065777E+06  2.328233E+05 -1.634346E+05  1.542380E-09  3.581829E-11
       361  11 -4.992835E+03  2.798867E+06  1.404773E+05 -1.669971E+04 -2.485506E-09 -2.145735E-09
       361  12  1.311736E+04  2.575372E+06  1.271082E+05 -1.250472E+05 -2.927932E-09  3.892711E-09
       361  13  4.954861E+04  2.756807E+06  1.576056E+05 -1.445270E+05  7.790687E-10 -3.914101E-09
       361  14 -2.080709E+04  2.735124E+06  1.249384E+05 -1.696967E+04  1.240758E-09  3.465844E-09
       361  15  5.829303E+04  2.756790E+06  1.711988E+05 -1.444889E+05  2.200718E-09  8.062618E-09
       361  16 -2.726516E+04  2.447923E+06  8.238103E+04 -1.256286E+05  2.474478E-10  2.156376E-09
       361  17 -3.662164E+04  2.671385E+06  1.093992E+05 -1.723959E+04 -2.137400E-09 -6.440361E-09
       361  18  1.034677E+05  2.938239E+06  2.152873E+05 -1.639362E+05 -1.546190E-09 -1.740937E-09
       361  19  1.263575E+05  3.065780E+06  2.328287E+05 -1.634343E+05 -7.488638E+03 -5.312888E+04
       361  20 -4.992795E+03  2.798867E+06  1.404775E+05 -1.669973E+04 -1.523377E+03  1.178623E+04
       361  21  1.311895E+04  2.575379E+06  1.271193E+05 -1.250470E+05  4.660504E+03  7.667836E+04
       361  22  4.954949E+04  2.756810E+06  1.576114E+05 -1.445266E+05 -7.481912E+03 -5.532125E+04
       361  23 -2.080706E+04  2.735124E+06  1.249385E+05 -1.696968E+04 -1.514639E+03  9.499422E+03
       361  24  5.829453E+04  2.756796E+06  1.712092E+05 -1.444886E+05  4.667475E+03  7.432236E+04
       361  25 -2.726421E+04  2.447927E+06  8.238732E+04 -1.256283E+05 -7.475318E+03 -5.751253E+04
       361  26 -3.662163E+04  2.671385E+06  1.093993E+05 -1.723960E+04 -1.505899E+03  7.212843E+03
       361  27  1.034691E+05  2.938244E+06  2.152970E+05 -1.639359E+05  4.674592E+03  7.196568E+04
       362   1 -1.851914E+05  2.093462E+06  2.402094E+04 -1.968683E+05 -1.388592E+04 -1.144651E+05
       362   2 -3.244435E+05  1.751415E+06  4.267159E+04  1.752771E+04 -2.328031E+04 -2.534108E+05
       362   3  1.715661E+05  1.586441E+06  3.105450E+05 -3.105784E+04 -8.213128E+03 -3.922189E+05
       362   4 -1.347703E+04  2.786774E+06  1.934216E+05 -1.467163E+05 -1.392424E+04 -1.065818E+05
       362   5 -8.942489E+04  2.697347E+06  2.729771E+05 -1.470485E+04 -2.326236E+04 -2.545646E+05
       362   6  4.708983E+05  2.786148E+06  6.077064E+05 -1.456272E+05 -8.118601E+03 -4.024678E+05
       362   7  1.582118E+05  3.480528E+06  3.627889E+05 -9.650789E+04 -1.396127E+04 -9.868962E+04
       362   8  1.455318E+05  3.644095E+06  5.032183E+05 -4.698592E+04 -2.324431E+04 -2.557200E+05
       362   9  7.701716E+05  3.987185E+06  9.047679E+05 -2.604168E+05 -8.020449E+03 -4.127359E+05
       362  10 -1.851951E+05  2.093448E+06  2.399604E+04 -1.968696E+05  6.605378E-10 -2.311516E-09
       362  11 -3.244613E+05  1.751346E+06  4.255025E+04  1.752296E+04  5.774436E-10 -2.367059E-09
       362  12  1.715249E+05  1.586276E+06  3.102566E+05 -3.106043E+04 -6.554361E-10  2.288832E-09
       362  13 -1.348027E+04  2.786762E+06  1.934000E+05 -1.467175E+05 -3.218696E-09 -3.566430E-09
       362  14 -8.944277E+04  2.697278E+06  2.728548E+05 -1.470962E+04  4.195281E-10  2.288534E-09
       362  15  4.708550E+05  2.785975E+06  6.074032E+05 -1.456299E+05 -1.151560E-09  4.413965E-09
       362  16  1.582090E+05  3.480517E+06  3.627704E+05 -9.650900E+04  4.032985E-10  3.627543E-09
       362  17  1.455137E+05  3.644025E+06  5.030951E+05 -4.699070E+04 -4.641294E-10 -4.672428E-09
       362  18  7.701262E+05  3.987003E+06  9.044497E+05 -2.604195E+05 -6.069541E-10 -7.465874E-10
       362  19 -1.851914E+05  2.093462E+06  2.402094E+04 -1.968683E+05  1.388592E+04  1.144651E+05
       362  20 -3.244435E+05  1.751415E+06  4.267159E+04  1.752771E+04  2.328031E+04  2.534108E+05
       362  21  1.715661E+05  1.586441E+06  3.105450E+05 -3.105784E+04  8.213128E+03  3.922189E+05
       362  22 -1.347703E+04  2.786774E+06  1.934216E+05 -1.467163E+05  1.392424E+04  1.065818E+05
       362  23 -8.942489E+04  2.697347E+06  2.729771E+05 -1.470485E+04  2.326236E+04  2.545646E+05
       362  24  4.708983E+05  2.786148E+06  6.077064E+05 -1.456272E+05  8.118601E+03  4.024678E+05
       362  25  1.582118E+05  3.480528E+06  3.627889E+05 -9.650789E+04  1.396127E+04  9.868962E+04
       362  26  1.455318E+05  3.644095E+06  5.032183E+05 -4.698592E+04  2.324431E+04  2.557200E+05
       362  27  7.701716E+05  3.987185E+06  9.047679E+05 -2.604168E+05  8.020449E+03  4.127359E+05
       363   1 -1.342403E+05 -5.969999E+04 -6.522827E+04 -5.665199E+04 -9.292565E+04 -3.801032E+04
       363   2 -1.184479E+05  6.927941E+04  1.910792E+04 -9.189361E+04 -5.841874E+04 -3.097070E+04
       363   3 -1.729166E+05  6.408403E+04  3.935118E+04 -7.612110E+04 -2.620169E+04 -1.785664E+04
       363   4 -4.704233E+05 -1.626862E+05 -1.524540E+05 -1.236461E+05 -9.566669E+04 -3.904716E+04
       363   5 -4.273312E+05 -4.085724E+04 -6.283594E+04 -1.696847E+05 -5.913133E+04 -3.124038E+04
       363   6 -4.549318E+05 -5.364919E+04 -3.894573E+04 -1.647010E+05 -2.488454E+04 -1.735939E+04
       363   7 -8.064951E+05 -2.656733E+05 -2.396879E+05 -1.906115E+05 -9.840605E+04 -4.008363E+04
       363   8 -7.361217E+05 -1.509904E+05 -1.447877E+05 -2.474418E+05 -5.984352E+04 -3.150993E+04
       363   9 -7.368698E+05 -1.713726E+05 -1.172500E+05 -2.532429E+05 -2.356804E+04 -1.686245E+04
       363  10 -1.342500E+05 -5.970386E+04 -6.524722E+04 -5.665483E+04 -6.149312E-10  3.346207E-10
       363  11 -1.184518E+05  6.927747E+04  1.909970E+04 -9.189507E+04  1.974874E-09  1.623151E-10
       363  12 -1.729174E+05  6.408350E+04  3.934930E+04 -7.612147E+04 -1.638317E-09  2.548196E-10
       363  13 -4.704335E+05 -1.626903E+05 -1.524741E+05 -1.236492E+05  1.543296E-09  1.448312E-09
       363  14 -4.273352E+05 -4.085923E+04 -6.284436E+04 -1.696862E+05 -9.546883E-11 -3.572765E-09
       363  15 -4.549325E+05 -5.364968E+04 -3.894746E+04 -1.647014E+05 -1.512157E-09  3.351513E-09
       363  16 -8.065059E+05 -2.656776E+05 -2.397092E+05 -1.906146E+05  1.269465E-09 -2.192770E-09
       363  17 -7.361258E+05 -1.509924E+05 -1.447963E+05 -2.474433E+05  2.244078E-09 -3.969997E-09
       363  18 -7.368705E+05 -1.713731E+05 -1.172516E+05 -2.532432E+05  9.695127E-11 -3.157098E-09
       363  19 -1.342403E+05 -5.969999E+04 -6.522827E+04 -5.665199E+04  9.292565E+04  3.801032E+04
       363  20 -1.184479E+05  6.927941E+04  1.910792E+04 -9.189361E+04  5.841874E+04  3.097070E+04
       363  21 -1.729166E+05  6.408403E+04  3.935118E+04 -7.612110E+04  2.620169E+04  1.785664E+04
       363  22 -4.704233E+05 -1.626862E+05 -1.524540E+05 -1.236461E+05  9.566669E+04  3.904716E+04
       363  23 -4.273312E+05 -4.085724E+04 -6.283594E+04 -1.696847E+05  5.913133E+04  3.124038E+04
       363  24 -4.549318E+05 -5.364919E+04 -3.894573E+04 -1.647010E+05  2.488454E+04  1.735939E+04
       363  25 -8.064951E+05 -2.656733E+05 -2.396879E+05 -1.906115E+05  9.840605E+04  4.008363E+04
       363  26 -7.361217E+05 -1.509904E+05 -1.447877E+05 -2.474418E+05  5.984352E+04  3.150993E+04
       363  27 -7.368698E+05 -1.713726E+05 -1.172500E+05 -2.532429E+05  2.356804E+04  1.686245E+04
       364   1 -1.916259E+05  2.434437E+04  3.739169E+04 -8.707722E+04 -1.949396E+04 -1.390879E+04
       364   2 -1.972794E+05  3.065849E+04  5.027779E+04 -1.014529E+05 -1.190253E+04 -1.110477E+04
       364   3 -2.232545E+05  3.031547E+04  5.236635E+04 -9.698479E+04 -4.573232E+03 -7.607698E+03
       364   4 -4.501735E+05 -7.044961E+04 -3.192032E+04 -1.548071E+05 -1.962194E+04 -1.395741E+04
       364   5 -4.389774E+05 -6.001761E+04 -1.482736E+04 -1.669004E+05 -1.180013E+04 -1.106630E+04
       364   6 -4.481522E+05 -5.629287E+04 -8.718134E+03 -1.601489E+05 -4.240265E+03 -7.481982E+03
       364   7 -7.086574E+05 -1.652408E+05 -1.012383E+05 -2.225121E+05 -1.974986E+04 -1.400601E+04
       364   8 -6.806196E+05 -1.506906E+05 -7.993775E+04 -2.323251E+05 -1.169777E+04 -1.102785E+04
       364   9 -6.730012E+05 -1.428977E+05 -6.980718E+04 -2.232922E+05 -3.907430E+03 -7.356319E+03
       364  10 -1.916264E+05  2.434406E+04  3.739061E+04 -8.707744E+04  6.843563E-10 -1.927908E-09
       364  11 -1.972796E+05  3.065832E+04  5.027729E+04 -1.014530E+05  1.678584E-10 -1.240807E-09
       364  12 -2.232546E+05  3.031540E+04  5.236620E+04 -9.698482E+04 -2.718208E-10  1.163168E-09
       364  13 -4.501739E+05 -7.044993E+04 -3.192141E+04 -1.548073E+05  3.764965E-10  1.767912E-10
       364  14 -4.389776E+05 -6.001778E+04 -1.482785E+04 -1.669005E+05 -1.443729E-11 -1.678068E-09
       364  15 -4.481522E+05 -5.629294E+04 -8.718273E+03 -1.601489E+05  5.206363E-10 -2.694220E-09
       364  16 -7.086579E+05 -1.652411E+05 -1.012394E+05 -2.225124E+05  7.828875E-10 -8.651193E-10
       364  17 -6.806197E+05 -1.506907E+05 -7.993824E+04 -2.323252E+05  7.525295E-10  1.393788E-09
       364  18 -6.730012E+05 -1.428978E+05 -6.980731E+04 -2.232923E+05  1.698035E-10 -2.079884E-09
       364  19 -1.916259E+05  2.434437E+04  3.739169E+04 -8.707722E+04  1.949396E+04  1.390879E+04
       364  20 -1.972794E+05  3.065849E+04  5.027779E+04 -1.014529E+05  1.190253E+04  1.110477E+04
       364  21 -2.232545E+05  3.031547E+04  5.236635E+04 -9.698479E+04  4.573232E+03  7.607698E+03
       364  22 -4.501735E+05 -7.044961E+04 -3.192032E+04 -1.548071E+05  1.962194E+04  1.395741E+04
       364  23 -4.389774E+05 -6.001761E+04 -1.482736E+04 -1.669004E+05  1.180013E+04  1.106630E+04
       364  24 -4.481522E+05 -5.629287E+04 -8.718134E+03 -1.601489E+05  4.240265E+03  7.481982E+03
       364  25 -7.086574E+05 -1.652408E+05 -1.012383E+05 -2.225121E+05  1.974986E+04  1.400601E+04
       364  26 -6.806196E+05 -1.506906E+05 -7.993775E+04 -2.323251E+05  1.169777E+04  1.102785E+04
       364  27 -6.730012E+05 -1.428977E+05 -6.980718E+04 -2.232922E+05  3.907430E+03  7.356319E+03
       365   1 -2.571043E+05  1.341701E+04  4.444757E+04 -1.068373E+05 -3.308555E+03 -6.606648E+03
       365   2 -2.660961E+05  3.261069E+03  4.362287E+04 -1.189799E+05 -1.776084E+03 -5.401240E+03
       365   3 -2.891565E+05  3.628081E+03  4.084770E+04 -1.157975E+05 -2.782365E+02 -4.105414E+03
       365   4 -4.475858E+05 -5.833057E+04 -6.889410E+03 -1.587140E+05 -3.138117E+03 -6.542326E+03
       365   5 -4.404164E+05 -6.267156E+04 -3.449537E+03 -1.667235E+05 -1.575689E+03 -5.325529E+03
       365   6 -4.473224E+05 -5.649564E+04 -1.984379E+03 -1.594075E+05 -4.783621E+01 -4.018282E+03
       365   7 -6.380321E+05 -1.300759E+05 -5.822951E+04 -2.105764E+05 -2.967736E+03 -6.478027E+03
       365   8 -6.147075E+05 -1.286024E+05 -5.052465E+04 -2.144550E+05 -1.375355E+03 -5.249842E+03
       365   9 -6.054646E+05 -1.166179E+05 -4.481878E+04 -2.030075E+05  1.824999E+02 -3.931174E+03
       365  10 -2.571043E+05  1.341696E+04  4.444746E+04 -1.068373E+05 -2.508619E-09  2.914014E-09
       365  11 -2.660961E+05  3.261036E+03  4.362281E+04 -1.189799E+05 -4.595764E-10 -5.439319E-10
       365  12 -2.891565E+05  3.628063E+03  4.084767E+04 -1.157975E+05 -5.079460E-09 -3.115132E-10
       365  13 -4.475858E+05 -5.833062E+04 -6.889509E+03 -1.587141E+05 -8.197367E-10  2.385893E-09
       365  14 -4.404164E+05 -6.267159E+04 -3.449595E+03 -1.667235E+05  3.651575E-10 -3.723590E-09
       365  15 -4.473224E+05 -5.649566E+04 -1.984410E+03 -1.594075E+05 -6.343297E-09  1.527848E-09
       365  16 -6.380321E+05 -1.300760E+05 -5.822960E+04 -2.105764E+05  7.749516E-11  1.058732E-09
       365  17 -6.147075E+05 -1.286024E+05 -5.052470E+04 -2.144550E+05 -1.696462E-09  5.617769E-09
       365  18 -6.054646E+05 -1.166180E+05 -4.481881E+04 -2.030075E+05 -4.527908E-09  4.278324E-09
       365  19 -2.571043E+05  1.341701E+04  4.444757E+04 -1.068373E+05  3.308555E+03  6.606648E+03
       365  20 -2.660961E+05  3.261069E+03  4.362287E+04 -1.189799E+05  1.776084E+03  5.401240E+03
       365  21 -2.891565E+05  3.628081E+03  4.084770E+04 -1.157975E+05  2.782365E+02  4.105414E+03
       365  22 -4.475858E+05 -5.833057E+04 -6.889410E+03 -1.587140E+05  3.138117E+03  6.542326E+03
       365  23 -4.404164E+05 -6.267156E+04 -3.449537E+03 -1.667235E+05  1.575689E+03  5.325529E+03
       365  24 -4.473224E+05 -5.649564E+04 -1.984379E+03 -1.594075E+05  4.783621E+01  4.018282E+03
       365  25 -6.380321E+05 -1.300759E+05 -5.822951E+04 -2.105764E+05  2.967736E+03  6.478027E+03
       365  26 -6.147075E+05 -1.286024E+05 -5.052465E+04 -2.144550E+05  1.375355E+03  5.249842E+03
       365  27 -6.054646E+05 -1.166179E+05 -4.481878E+04 -2.030075E+05 -1.824999E+02  3.931174E+03
       366   1 -3.262021E+05 -1.084043E+04  3.110378E+04 -1.259201E+05 -1.137443E+02 -3.604256E+03
       366   2 -3.358866E+05 -2.346958E+04  2.741038E+04 -1.380892E+05  7.315785E+01 -2.808102E+03
       366   3 -3.591571E+05 -2.300514E+04  2.331361E+04 -1.349905E+05  2.532635E+02 -1.994658E+03
       366   4 -4.473188E+05 -5.667779E+04 -1.550498E+03 -1.591335E+05  9.726503E+01 -3.524421E+03
       366   5 -4.405083E+05 -6.310847E+04 -8.563543E+02 -1.668110E+05  2.899216E+02 -2.726049E+03
       366   6 -4.472855E+05 -5.644671E+04 -5.702397E+02 -1.592209E+05  4.757928E+02 -1.910381E+03
       366   7 -5.684214E+05 -1.025143E+05 -3.420607E+04 -1.923410E+05  3.082290E+02 -3.444603E+03
       366   8 -5.451194E+05 -1.027467E+05 -2.912404E+04 -1.955285E+05  5.066448E+02 -2.644012E+03
       366   9 -5.354063E+05 -8.988774E+04 -2.445474E+04 -1.834482E+05  6.982868E+02 -1.826118E+03
       366  10 -3.262021E+05 -1.084044E+04  3.110375E+04 -1.259201E+05 -4.296833E-09  9.146582E-10
       366  11 -3.358866E+05 -2.346959E+04  2.741037E+04 -1.380892E+05 -1.818931E-09  1.395064E-09
       366  12 -3.591571E+05 -2.300514E+04  2.331361E+04 -1.349905E+05 -1.595602E-09  4.106670E-09
       366  13 -4.473188E+05 -5.667781E+04 -1.550522E+03 -1.591335E+05 -6.116300E-09 -1.649721E-11
       366  14 -4.405083E+05 -6.310848E+04 -8.563684E+02 -1.668110E+05  8.587142E-10 -4.178209E-09
       366  15 -4.472855E+05 -5.644671E+04 -5.702469E+02 -1.592209E+05 -5.564272E-10 -2.633682E-09
       366  16 -5.684214E+05 -1.025143E+05 -3.420610E+04 -1.923410E+05 -4.337715E-09 -1.799072E-09
       366  17 -5.451194E+05 -1.027467E+05 -2.912405E+04 -1.955285E+05  1.003735E-09 -5.125064E-09
       366  18 -5.354063E+05 -8.988774E+04 -2.445475E+04 -1.834482E+05 -1.045532E-09 -6.341503E-09
       366  19 -3.262021E+05 -1.084043E+04  3.110378E+04 -1.259201E+05  1.137443E+02  3.604256E+03
       366  20 -3.358866E+05 -2.346958E+04  2.741038E+04 -1.380892E+05 -7.315785E+01  2.808102E+03
       366  21 -3.591571E+05 -2.300514E+04  2.331361E+04 -1.349905E+05 -2.532635E+02  1.994658E+03
       366  22 -4.473188E+05 -5.667779E+04 -1.550498E+03 -1.591335E+05 -9.726503E+01  3.524421E+03
       366  23 -4.405083E+05 -6.310847E+04 -8.563543E+02 -1.668110E+05 -2.899216E+02  2.726049E+03
       366  24 -4.472855E+05 -5.644671E+04 -5.702397E+02 -1.592209E+05 -4.757928E+02  1.910381E+03
       366  25 -5.684214E+05 -1.025143E+05 -3.420607E+04 -1.923410E+05 -3.082290E+02  3.444603E+03
       366  26 -5.451194E+05 -1.027467E+05 -2.912404E+04 -1.955285E+05 -5.066448E+02  2.644012E+03
       366  27 -5.354063E+05 -8.988774E+04 -2.445474E+04 -1.834482E+05 -6.982868E+02  1.826118E+03
       367   1 -3.972695E+05 -3.747374E+04  1.295176E+04 -1.454135E+05  1.984325E+02 -1.576635E+03
       367   2 -4.071353E+05 -5.055592E+04  8.522123E+03 -1.577161E+05  1.948579E+02 -8.289158E+02
       367   3 -4.307408E+05 -5.016115E+04  3.865120E+03 -1.545603E+05  1.916374E+02 -8.233303E+01
       367   4 -4.473264E+05 -5.642313E+04 -5.077672E+02 -1.591543E+05  4.193107E+02 -1.492962E+03
       367   5 -4.404607E+05 -6.319034E+04 -4.838604E+02 -1.668727E+05  4.153414E+02 -7.453794E+02
       367   6 -4.473347E+05 -5.648037E+04 -6.869091E+02 -1.591326E+05  4.117330E+02  1.070119E+00
       367   7 -4.973810E+05 -7.537241E+04 -1.396754E+04 -1.728941E+05  6.401696E+02 -1.409296E+03
       367   8 -4.737851E+05 -7.582471E+04 -9.489952E+03 -1.760288E+05  6.358121E+02 -6.618479E+02
       367   9 -4.639283E+05 -6.279957E+04 -5.238963E+03 -1.637048E+05  6.318221E+02  8.447079E+01
       367  10 -3.972695E+05 -3.747374E+04  1.295175E+04 -1.454135E+05 -1.765425E-09 -1.733055E-09
       367  11 -4.071353E+05 -5.055592E+04  8.522121E+03 -1.577161E+05 -3.529561E-09 -4.498015E-09
       367  12 -4.307408E+05 -5.016115E+04  3.865120E+03 -1.545603E+05 -2.326562E-09  1.414560E-09
       367  13 -4.473264E+05 -5.642314E+04 -5.077718E+02 -1.591543E+05 -2.017345E-09 -1.452144E-09
       367  14 -4.404607E+05 -6.319034E+04 -4.838617E+02 -1.668727E+05 -1.197092E-09 -7.932784E-09
       367  15 -4.473347E+05 -5.648037E+04 -6.869094E+02 -1.591326E+05  1.500994E-09  1.174860E-09
       367  16 -4.973810E+05 -7.537242E+04 -1.396755E+04 -1.728941E+05 -4.788937E-10  2.605830E-10
       367  17 -4.737851E+05 -7.582471E+04 -9.489953E+03 -1.760288E+05  2.408395E-09  6.629187E-09
       367  18 -4.639283E+05 -6.279957E+04 -5.238964E+03 -1.637048E+05  2.282453E-09 -4.581557E-09
       367  19 -3.972695E+05 -3.747374E+04  1.295176E+04 -1.454135E+05 -1.984325E+02  1.576635E+03
       367  20 -4.071353E+05 -5.055592E+04  8.522123E+03 -1.577161E+05 -1.948579E+02  8.289158E+02
       367  21 -4.307408E+05 -5.016115E+04  3.865120E+03 -1.545603E+05 -1.916374E+02  8.233303E+01
       367  22 -4.473264E+05 -5.642313E+04 -5.077672E+02 -1.591543E+05 -4.193107E+02  1.492962E+03
       367  23 -4.404607E+05 -6.319034E+04 -4.838604E+02 -1.668727E+05 -4.153414E+02  7.453794E+02
       367  24 -4.473347E+05 -5.648037E+04 -6.869091E+02 -1.591326E+05 -4.117330E+02 -1.070119E+00
       367  25 -4.973810E+05 -7.537241E+04 -1.396754E+04 -1.728941E+05 -6.401696E+02  1.409296E+03
       367  26 -4.737851E+05 -7.582471E+04 -9.489952E+03 -1.760288E+05 -6.358121E+02  6.618479E+02
       367  27 -4.639283E+05 -6.279957E+04 -5.238963E+03 -1.637048E+05 -6.318221E+02 -8.447079E+01
       368   1 -4.690979E+05 -6.470673E+04 -6.787849E+03 -1.652423E+05  1.574755E+02  3.528633E+02
       368   2 -4.788890E+05 -7.763571E+04 -1.177343E+04 -1.774356E+05  6.282759E+02  1.286926E+03
       368   3 -5.027708E+05 -7.790509E+04 -1.756048E+04 -1.739857E+05  1.118328E+03  2.170380E+03
       368   4 -4.473717E+05 -5.638074E+04 -8.363458E+02 -1.591979E+05  3.886135E+02  4.404499E+02
       368   5 -4.403789E+05 -6.306590E+04 -1.373173E+03 -1.668855E+05  8.424033E+02  1.368051E+03
       368   6 -4.474736E+05 -5.708811E+04 -2.697873E+03 -1.589301E+05  1.315466E+03  2.245054E+03
       368   7 -4.256451E+05 -4.805474E+04  5.115103E+03 -1.531534E+05  6.197599E+02  5.280397E+02
       368   8 -4.018675E+05 -4.849600E+04  9.026953E+03 -1.563348E+05  1.056545E+03  1.449181E+03
       368   9 -3.921733E+05 -3.627092E+04  1.216449E+04 -1.438733E+05  1.512624E+03  2.319736E+03
       368  10 -4.690979E+05 -6.470673E+04 -6.787849E+03 -1.652423E+05 -1.821494E-09  2.329125E-09
       368  11 -4.788890E+05 -7.763571E+04 -1.177343E+04 -1.774356E+05  5.441156E-10  1.362334E-09
       368  12 -5.027708E+05 -7.790510E+04 -1.756049E+04 -1.739857E+05 -4.203827E-10 -3.379139E-09
       368  13 -4.473717E+05 -5.638074E+04 -8.363465E+02 -1.591979E+05  2.219623E-09  2.279185E-10
       368  14 -4.403789E+05 -6.306590E+04 -1.373178E+03 -1.668855E+05 -7.585915E-09  2.652989E-10
       368  15 -4.474736E+05 -5.708812E+04 -2.697886E+03 -1.589301E+05  1.808605E-09  6.463204E-10
       368  16 -4.256451E+05 -4.805474E+04  5.115101E+03 -1.531534E+05  2.175284E-10  7.409787E-10
       368  17 -4.018675E+05 -4.849600E+04  9.026947E+03 -1.563348E+05 -3.059658E-09  3.175575E-09
       368  18 -3.921734E+05 -3.627092E+04  1.216448E+04 -1.438733E+05 -3.201321E-09 -1.107229E-10
       368  19 -4.690979E+05 -6.470673E+04 -6.787849E+03 -1.652423E+05 -1.574755E+02 -3.528633E+02
       368  20 -4.788890E+05 -7.763571E+04 -1.177343E+04 -1.774356E+05 -6.282759E+02 -1.286926E+03
       368  21 -5.027708E+05 -7.790509E+04 -1.756048E+04 -1.739857E+05 -1.118328E+03 -2.170380E+03
       368  22 -4.473717E+05 -5.638074E+04 -8.363458E+02 -1.591979E+05 -3.886135E+02 -4.404499E+02
       368  23 -4.403789E+05 -6.306590E+04 -1.373173E+03 -1.668855E+05 -8.424033E+02 -1.368051E+03
       368  24 -4.474736E+05 -5.708811E+04 -2.697873E+03 -1.589301E+05 -1.315466E+03 -2.245054E+03
       368  25 -4.256451E+05 -4.805474E+04  5.115103E+03 -1.531534E+05 -6.197599E+02 -5.280397E+02
       368  26 -4.018675E+05 -4.849600E+04  9.026953E+03 -1.563348E+05 -1.056545E+03 -1.449181E+03
       368  27 -3.921733E+05 -3.627092E+04  1.216449E+04 -1.438733E+05 -1.512624E+03 -2.319736E+03
       369   1 -5.405349E+05 -9.207206E+04 -2.866565E+04 -1.855685E+05  1.345599E+03  2.765662E+03
       369   2 -5.497128E+05 -1.033952E+05 -3.539896E+04 -1.968403E+05  4.272288E+03  4.641611E+03
       369   3 -5.754713E+05 -1.087536E+05 -4.652739E+04 -1.910739E+05  7.364283E+03  6.081210E+03
       369   4 -4.476960E+05 -5.629232E+04 -3.403751E+03 -1.594833E+05  1.645425E+03  2.879216E+03
       369   5 -4.398156E+05 -6.204058E+04 -5.769459E+03 -1.669611E+05  4.425682E+03  4.699655E+03
       369   6 -4.484862E+05 -6.179426E+04 -1.241343E+04 -1.574011E+05  7.371324E+03  6.083808E+03
       369   7 -3.548488E+05 -2.051199E+04  2.185736E+04 -1.333945E+05  1.945301E+03  2.992789E+03
       369   8 -3.299068E+05 -2.068526E+04  2.385894E+04 -1.370772E+05  4.579105E+03  4.757710E+03
       369   9 -3.214859E+05 -1.483423E+04  2.169905E+04 -1.237223E+05  7.378366E+03  6.086407E+03
       369  10 -5.405349E+05 -9.207207E+04 -2.866566E+04 -1.855685E+05 -3.985193E-09  5.026050E-09
       369  11 -5.497129E+05 -1.033953E+05 -3.539904E+04 -1.968403E+05 -2.832634E-09  1.204254E-08
       369  12 -5.754713E+05 -1.087537E+05 -4.652757E+04 -1.910739E+05  9.130317E-10  8.226758E-09
       369  13 -4.476960E+05 -5.629233E+04 -3.403772E+03 -1.594833E+05 -3.362626E-09 -2.763117E-09
       369  14 -4.398156E+05 -6.204061E+04 -5.769538E+03 -1.669611E+05 -9.831209E-10  7.600823E-09
       369  15 -4.484862E+05 -6.179432E+04 -1.241360E+04 -1.574011E+05  1.002211E-09  1.022902E-09
       369  16 -3.548488E+05 -2.051200E+04  2.185734E+04 -1.333945E+05  3.028135E-09 -6.398511E-09
       369  17 -3.299068E+05 -2.068529E+04  2.385886E+04 -1.370772E+05  3.835899E-10 -3.067380E-10
       369  18 -3.214859E+05 -1.483428E+04  2.169888E+04 -1.237223E+05  5.412498E-10 -5.688639E-09
       369  19 -5.405349E+05 -9.207206E+04 -2.866565E+04 -1.855685E+05 -1.345599E+03 -2.765662E+03
       369  20 -5.497128E+05 -1.033952E+05 -3.539896E+04 -1.968403E+05 -4.272288E+03 -4.641611E+03
       369  21 -5.754713E+05 -1.087536E+05 -4.652739E+04 -1.910739E+05 -7.364283E+03 -6.081210E+03
       369  22 -4.476960E+05 -5.629232E+04 -3.403751E+03 -1.594833E+05 -1.645425E+03 -2.879216E+03
       369  23 -4.398156E+05 -6.204058E+04 -5.769459E+03 -1.669611E+05 -4.425682E+03 -4.699655E+03
       369  24 -4.484862E+05 -6.179426E+04 -1.241343E+04 -1.574011E+05 -7.371324E+03 -6.083808E+03
       369  25 -3.548488E+05 -2.051199E+04  2.185736E+04 -1.333945E+05 -1.945301E+03 -2.992789E+03
       369  26 -3.299068E+05 -2.068526E+04  2.385894E+04 -1.370772E+05 -4.579105E+03 -4.757710E+03
       369  27 -3.214859E+05 -1.483423E+04  2.169905E+04 -1.237223E+05 -7.378366E+03 -6.086407E+03
       370   1 -6.104067E+05 -1.203005E+05 -5.926785E+04 -2.096590E+05  8.312741E+03  7.524978E+03
       370   2 -6.162656E+05 -1.205239E+05 -7.271660E+04 -2.150496E+05  2.273225E+04  1.391289E+04
       370   3 -6.583731E+05 -1.648393E+05 -1.127518E+05 -1.909961E+05  3.861255E+04  1.643752E+04
       370   4 -4.502927E+05 -5.529806E+04 -1.514151E+04 -1.612896E+05  9.239725E+03  7.875805E+03
       370   5 -4.353323E+05 -5.456150E+04 -2.442872E+04 -1.680068E+05  2.236205E+04  1.377263E+04
       370   6 -4.563567E+05 -9.764941E+04 -5.926688E+04 -1.452815E+05  3.694548E+04  1.580650E+04
       370   7 -2.901535E+05  9.707144E+03  2.898259E+04 -1.129083E+05  1.016697E+04  8.226748E+03
       370   8 -2.543677E+05  1.140221E+04  2.385629E+04 -1.209520E+05  2.199174E+04  1.363233E+04
       370   9 -2.543021E+05 -3.045954E+04 -5.785544E+03 -9.955467E+04  3.527783E+04  1.517532E+04
       370  10 -6.104068E+05 -1.203006E+05 -5.926809E+04 -2.096591E+05 -2.730524E-10  2.009837E-10
       370  11 -6.162662E+05 -1.205242E+05 -7.271794E+04 -2.150499E+05 -1.226908E-09  5.830871E-09
       370  12 -6.583748E+05 -1.648400E+05 -1.127551E+05 -1.909967E+05 -1.385513E-10  3.426179E-09
       370  13 -4.502928E+05 -5.529815E+04 -1.514179E+04 -1.612896E+05  1.617682E-09  1.259080E-09
       370  14 -4.353329E+05 -5.456184E+04 -2.443001E+04 -1.680071E+05  1.142381E-10  1.240496E-09
       370  15 -4.563582E+05 -9.765005E+04 -5.926992E+04 -1.452820E+05 -2.009075E-10 -5.249872E-09
       370  16 -2.901536E+05  9.707044E+03  2.898227E+04 -1.129084E+05  1.543072E-09 -1.461610E-09
       370  17 -2.543682E+05  1.140188E+04  2.385503E+04 -1.209522E+05 -1.745685E-09  3.939980E-09
       370  18 -2.543035E+05 -3.046012E+04 -5.788317E+03 -9.955510E+04 -2.616784E-09  7.743968E-10
       370  19 -6.104067E+05 -1.203005E+05 -5.926785E+04 -2.096590E+05 -8.312741E+03 -7.524978E+03
       370  20 -6.162656E+05 -1.205239E+05 -7.271660E+04 -2.150496E+05 -2.273225E+04 -1.391289E+04
       370  21 -6.583731E+05 -1.648393E+05 -1.127518E+05 -1.909961E+05 -3.861255E+04 -1.643752E+04
       370  22 -4.502927E+05 -5.529806E+04 -1.514151E+04 -1.612896E+05 -9.239725E+03 -7.875805E+03
       370  23 -4.353323E+05 -5.456150E+04 -2.442872E+04 -1.680068E+05 -2.236205E+04 -1.377263E+04
       370  24 -4.563567E+05 -9.764941E+04 -5.926688E+04 -1.452815E+05 -3.694548E+04 -1.580650E+04
       370  25 -2.901535E+05  9.707144E+03  2.898259E+04 -1.129083E+05 -1.016697E+04 -8.226748E+03
       370  26 -2.543677E+05  1.140221E+04  2.385629E+04 -1.209520E+05 -2.199174E+04 -1.363233E+04
       370  27 -2.543021E+05 -3.045954E+04 -5.785544E+03 -9.955467E+04 -3.527783E+04 -1.517532E+04
       371   1 -4.287095E+05 -2.612335E+04 -7.378496E+04 -2.453121E+04 -1.403389E+05 -4.843049E+03
       371   2 -4.285152E+05  1.625626E+05  3.724733E+04 -1.182286E+04 -9.399498E+04 -1.344091E+04
       371   3 -4.888069E+05  1.320094E+05  6.339134E+04  3.225308E+04 -4.768610E+04 -1.181299E+04
       371   4 -9.880873E+05 -1.655940E+05 -2.126484E+05  1.345018E+04 -1.452296E+05 -4.866562E+03
       371   5 -9.574596E+05  3.092922E+04 -9.199888E+04 -2.497714E+03 -9.524757E+04 -1.344748E+04
       371   6 -9.880060E+05  7.477160E+03 -5.882114E+04  1.292381E+04 -4.529798E+04 -1.180307E+04
       371   7 -1.547177E+06 -3.050826E+05 -3.515342E+05  5.139710E+04 -1.501159E+05 -4.890688E+03
       371   8 -1.486148E+06 -1.007245E+05 -2.212655E+05  6.819250E+03 -9.649908E+04 -1.345409E+04
       371   9 -1.486977E+06 -1.170722E+05 -1.810517E+05 -6.390097E+03 -4.291177E+04 -1.179329E+04
       371  10 -4.287307E+05 -2.612866E+04 -7.382204E+04 -2.453176E+04 -3.099738E-09  2.027634E-09
       371  11 -4.285248E+05  1.625601E+05  3.723037E+04 -1.182388E+04 -1.675863E-09  1.077585E-08
       371  12 -4.888093E+05  1.320086E+05  6.338680E+04  3.225263E+04  1.609653E-09  5.363229E-09
       371  13 -9.881100E+05 -1.655997E+05 -2.126881E+05  1.344961E+04  6.721600E-10 -2.142985E-09
       371  14 -9.574694E+05  3.092659E+04 -9.201630E+04 -2.498746E+03 -9.812484E-11 -9.152442E-09
       371  15 -9.880083E+05  7.476458E+03 -5.882527E+04  1.292338E+04 -2.236672E-09  2.365203E-10
       371  16 -1.547202E+06 -3.050887E+05 -3.515767E+05  5.139651E+04  3.441063E-09  3.530854E-09
       371  17 -1.486158E+06 -1.007272E+05 -2.212833E+05  6.818203E+03 -2.128569E-09  1.085638E-08
       371  18 -1.486979E+06 -1.170729E+05 -1.810554E+05 -6.390505E+03 -1.755566E-09 -2.577017E-09
       371  19 -4.287095E+05 -2.612335E+04 -7.378496E+04 -2.453121E+04  1.403389E+05  4.843049E+03
       371  20 -4.285152E+05  1.625626E+05  3.724733E+04 -1.182286E+04  9.399498E+04  1.344091E+04
       371  21 -4.888069E+05  1.320094E+05  6.339134E+04  3.225308E+04  4.768610E+04  1.181299E+04
       371  22 -9.880873E+05 -1.655940E+05 -2.126484E+05  1.345018E+04  1.452296E+05  4.866562E+03
       371  23 -9.574596E+05  3.092922E+04 -9.199888E+04 -2.497714E+03  9.524757E+04  1.344748E+04
       371  24 -9.880060E+05  7.477160E+03 -5.882114E+04  1.292381E+04  4.529798E+04  1.180307E+04
       371  25 -1.547177E+06 -3.050826E+05 -3.515342E+05  5.139710E+04  1.501159E+05  4.890688E+03
       371  26 -1.486148E+06 -1.007245E+05 -2.212655E+05  6.819250E+03  9.649908E+04  1.345409E+04
       371  27 -1.486977E+06 -1.170722E+05 -1.810517E+05 -6.390097E+03  4.291177E+04  1.179329E+04
       372   1 -5.425519E+05  8.713943E+04  5.795621E+04  1.053411E+04 -3.576307E+04 -9.594211E+03
       372   2 -5.712707E+05  1.037557E+05  7.417444E+04 -3.236681E+03 -2.378036E+04 -9.411546E+03
       372   3 -6.084757E+05  9.275978E+04  7.568203E+04  1.742555E+04 -1.180425E+04 -8.103452E+03
       372   4 -9.763170E+05 -2.090869E+04 -4.835367E+04  1.384514E+04 -3.590042E+04 -9.595462E+03
       372   5 -9.720276E+05  3.924248E+03 -2.391731E+04 -3.417635E+03 -2.352060E+04 -9.410839E+03
       372   6 -9.763014E+05  1.065663E+03 -1.447523E+04  1.375426E+04 -1.114676E+04 -8.100599E+03
       372   7 -1.409910E+06 -1.289707E+05 -1.546774E+05  1.715368E+04 -3.603766E+04 -9.596715E+03
       372   8 -1.372638E+06 -9.591911E+04 -1.220208E+05 -3.598632E+03 -2.326101E+04 -9.410131E+03
       372   9 -1.344004E+06 -9.063846E+04 -1.046424E+05  1.008500E+04 -1.048966E+04 -8.097753E+03
       372  10 -5.425533E+05  8.713899E+04  5.795363E+04  1.053383E+04 -4.738471E-10  1.430023E-10
       372  11 -5.712713E+05  1.037555E+05  7.417321E+04 -3.236862E+03 -1.024480E-11  8.737979E-10
       372  12 -6.084759E+05  9.275967E+04  7.568165E+04  1.742548E+04  5.852822E-09  1.234895E-08
       372  13 -9.763184E+05 -2.090913E+04 -4.835627E+04  1.384486E+04  3.217612E-10  1.481258E-08
       372  14 -9.720282E+05  3.924004E+03 -2.391852E+04 -3.417814E+03  1.414272E-09 -2.614202E-08
       372  15 -9.763015E+05  1.065559E+03 -1.447558E+04  1.375419E+04 -4.204463E-09  1.023160E-08
       372  16 -1.409912E+06 -1.289712E+05 -1.546800E+05  1.715340E+04  2.228483E-10 -1.175752E-08
       372  17 -1.372639E+06 -9.591935E+04 -1.220220E+05 -3.598808E+03 -3.685255E-09 -3.090616E-09
       372  18 -1.344004E+06 -9.063856E+04 -1.046427E+05  1.008493E+04 -7.518144E-09 -1.715594E-09
       372  19 -5.425519E+05  8.713943E+04  5.795621E+04  1.053411E+04  3.576307E+04  9.594211E+03
       372  20 -5.712707E+05  1.037557E+05  7.417444E+04 -3.236681E+03  2.378036E+04  9.411546E+03
       372  21 -6.084757E+05  9.275978E+04  7.568203E+04  1.742555E+04  1.180425E+04  8.103452E+03
       372  22 -9.763170E+05 -2.090869E+04 -4.835367E+04  1.384514E+04  3.590042E+04  9.595462E+03
       372  23 -9.720276E+05  3.924248E+03 -2.391731E+04 -3.417635E+03  2.352060E+04  9.410839E+03
       372  24 -9.763014E+05  1.065663E+03 -1.447523E+04  1.375426E+04  1.114676E+04  8.100599E+03
       372  25 -1.409910E+06 -1.289707E+05 -1.546774E+05  1.715368E+04  3.603766E+04  9.596715E+03
       372  26 -1.372638E+06 -9.591911E+04 -1.220208E+05 -3.598632E+03  2.326101E+04  9.410131E+03
       372  27 -1.344004E+06 -9.063846E+04 -1.046424E+05  1.008500E+04  1.048966E+04  8.097753E+03
       373   1 -6.779844E+05  7.141188E+04  6.110649E+04  1.489122E+04 -9.229015E+03 -7.210565E+03
       373   2 -7.123754E+05  6.566081E+04  5.791513E+04 -3.153949E+03 -6.187932E+03 -6.050971E+03
       373   3 -7.482713E+05  5.674469E+04  5.188463E+04  1.551684E+04 -3.148615E+03 -4.741914E+03
       373   4 -9.747231E+05 -2.504567E+03 -1.146633E+04  1.430103E+04 -8.841379E+03 -7.208894E+03
       373   5 -9.739636E+05  4.802799E+02 -6.132798E+03 -4.064350E+03 -5.747878E+03 -6.048888E+03
       373   6 -9.747195E+05  2.902394E+02 -3.675694E+03  1.428721E+04 -2.655972E+03 -4.739392E+03
       373   7 -1.271382E+06 -7.642754E+04 -8.404559E+04  1.371103E+04 -8.453928E+03 -7.207223E+03
       373   8 -1.235489E+06 -6.470532E+04 -7.018574E+04 -4.974445E+03 -5.308009E+03 -6.046806E+03
       373   9 -1.201121E+06 -5.616802E+04 -5.923978E+04  1.305796E+04 -2.163507E+03 -4.736871E+03
       373  10 -6.779845E+05  7.141180E+04  6.110623E+04  1.489117E+04  4.166962E-09 -4.780385E-09
       373  11 -7.123754E+05  6.566076E+04  5.791499E+04 -3.153979E+03  2.555184E-09 -1.093523E-08
       373  12 -7.482713E+05  5.674467E+04  5.188457E+04  1.551683E+04  4.683334E-09 -9.886137E-09
       373  13 -9.747232E+05 -2.504643E+03 -1.146658E+04  1.430098E+04 -1.080852E-09 -3.226918E-09
       373  14 -9.739637E+05  4.802317E+02 -6.132929E+03 -4.064378E+03 -1.253830E-09 -1.310858E-08
       373  15 -9.747195E+05  2.902134E+02 -3.675749E+03  1.428720E+04 -1.407327E-09 -8.530436E-09
       373  16 -1.271382E+06 -7.642761E+04 -8.404582E+04  1.371098E+04 -5.934707E-09 -1.049646E-08
       373  17 -1.235489E+06 -6.470537E+04 -7.018586E+04 -4.974471E+03 -4.690591E-09  9.060821E-09
       373  18 -1.201121E+06 -5.616805E+04 -5.923983E+04  1.305795E+04 -3.918501E-09  1.210268E-08
       373  19 -6.779844E+05  7.141188E+04  6.110649E+04  1.489122E+04  9.229015E+03  7.210565E+03
       373  20 -7.123754E+05  6.566081E+04  5.791513E+04 -3.153949E+03  6.187932E+03  6.050971E+03
       373  21 -7.482713E+05  5.674469E+04  5.188463E+04  1.551684E+04  3.148615E+03  4.741914E+03
       373  22 -9.747231E+05 -2.504567E+03 -1.146633E+04  1.430103E+04  8.841379E+03  7.208894E+03
       373  23 -9.739636E+05  4.802799E+02 -6.132798E+03 -4.064350E+03  5.747878E+03  6.048888E+03
       373  24 -9.747195E+05  2.902394E+02 -3.675694E+03  1.428721E+04  2.655972E+03  4.739392E+03
       373  25 -1.271382E+06 -7.642754E+04 -8.404559E+04  1.371103E+04  8.453928E+03  7.207223E+03
       373  26 -1.235489E+06 -6.470532E+04 -7.018574E+04 -4.974445E+03  5.308009E+03  6.046806E+03
       373  27 -1.201121E+06 -5.616802E+04 -5.923978E+04  1.305796E+04  2.163507E+03  4.736871E+03
       374   1 -8.228020E+05  3.763111E+04  3.412813E+04  1.515564E+04 -2.531504E+03 -3.961706E+03
       374   2 -8.588902E+05  2.878667E+04  2.645738E+04 -3.953583E+03 -1.660026E+03 -2.659014E+03
       374   3 -8.956037E+05  1.987017E+04  1.809726E+04  1.496185E+04 -7.891633E+02 -1.329303E+03
       374   4 -9.745139E+05 -1.529743E+02 -2.912919E+03  1.458373E+04 -2.069266E+03 -3.959257E+03
       374   5 -9.741994E+05  5.111951E+01 -1.778734E+03 -4.429731E+03 -1.188276E+03 -2.656443E+03
       374   6 -9.745130E+05  1.815269E+02 -1.340588E+03  1.458191E+04 -3.078501E+02 -1.326604E+03
       374   7 -1.126205E+06 -3.793876E+04 -3.995565E+04  1.401192E+04 -1.607141E+03 -3.956808E+03
       374   8 -1.089496E+06 -2.868542E+04 -3.001582E+04 -4.905807E+03 -7.166139E+02 -2.653872E+03
       374   9 -1.053417E+06 -1.950759E+04 -2.077890E+04  1.420200E+04  1.734019E+02 -1.323906E+03
       374  10 -8.228020E+05  3.763109E+04  3.412809E+04  1.515563E+04 -1.364272E-09 -1.136209E-08
       374  11 -8.588902E+05  2.878666E+04  2.645736E+04 -3.953587E+03 -4.300268E-09  5.229783E-09
       374  12 -8.956037E+05  1.987017E+04  1.809726E+04  1.496185E+04  1.516881E-09 -9.246637E-11
       374  13 -9.745139E+05 -1.529923E+02 -2.912956E+03  1.458372E+04 -1.400532E-11  4.759147E-09
       374  14 -9.741994E+05  5.111156E+01 -1.778750E+03 -4.429733E+03  4.340645E-10 -9.120173E-09
       374  15 -9.745130E+05  1.815250E+02 -1.340592E+03  1.458191E+04 -1.281265E-09 -1.107281E-08
       374  16 -1.126205E+06 -3.793878E+04 -3.995568E+04  1.401192E+04  1.244666E-09  5.281391E-09
       374  17 -1.089496E+06 -2.868542E+04 -3.001584E+04 -4.905808E+03  5.928194E-11  2.070285E-08
       374  18 -1.053417E+06 -1.950759E+04 -2.077890E+04  1.420200E+04 -2.314645E-09  3.952067E-10
       374  19 -8.228020E+05  3.763111E+04  3.412813E+04  1.515564E+04  2.531504E+03  3.961706E+03
       374  20 -8.588902E+05  2.878667E+04  2.645738E+04 -3.953583E+03  1.660026E+03  2.659014E+03
       374  21 -8.956037E+05  1.987017E+04  1.809726E+04  1.496185E+04  7.891633E+02  1.329303E+03
       374  22 -9.745139E+05 -1.529743E+02 -2.912919E+03  1.458373E+04  2.069266E+03  3.959257E+03
       374  23 -9.741994E+05  5.111951E+01 -1.778734E+03 -4.429731E+03  1.188276E+03  2.656443E+03
       374  24 -9.745130E+05  1.815269E+02 -1.340588E+03  1.458191E+04  3.078501E+02  1.326604E+03
       374  25 -1.126205E+06 -3.793876E+04 -3.995565E+04  1.401192E+04  1.607141E+03  3.956808E+03
       374  26 -1.089496E+06 -2.868542E+04 -3.001582E+04 -4.905807E+03  7.166139E+02  2.653872E+03
       374  27 -1.053417E+06 -1.950759E+04 -2.077890E+04  1.420200E+04 -1.734019E+02  1.323906E+03
       375   1 -9.719289E+05  7.819800E+02 -7.586543E+02  1.462476E+04 -5.569732E+02 -5.480428E+02
       375   2 -1.008292E+06 -8.461270E+03 -9.759416E+03 -4.649822E+03  1.447710E+02  7.848670E+02
       375   3 -1.045265E+06 -1.764650E+04 -1.931475E+04  1.438507E+04  8.466651E+02  2.103724E+03
       375   4 -9.745071E+05  1.626209E+02 -1.276143E+03  1.464534E+04 -7.660270E+01 -5.453291E+02
       375   5 -9.742023E+05  3.490318E+01 -1.411022E+03 -4.508779E+03  6.200975E+02  7.875286E+02
       375   6 -9.745075E+05 -3.394231E+01 -2.096999E+03  1.464644E+04  1.316989E+03  2.106339E+03
       375   7 -9.770854E+05 -4.567385E+02 -1.793631E+03  1.466592E+04  4.037658E+02 -5.426153E+02
       375   8 -9.401110E+05  8.530990E+03  6.937287E+03 -4.367729E+03  1.095450E+03  7.901905E+02
       375   9 -9.037451E+05  1.757824E+04  1.512039E+04  1.490783E+04  1.787367E+03  2.108953E+03
       375  10 -9.719289E+05  7.819796E+02 -7.586555E+02  1.462476E+04 -6.762402E-09 -1.659900E-09
       375  11 -1.008292E+06 -8.461270E+03 -9.759417E+03 -4.649823E+03  1.199451E-09 -4.330950E-09
       375  12 -1.045265E+06 -1.764650E+04 -1.931476E+04  1.438507E+04  3.385989E-09 -5.598546E-10
       375  13 -9.745071E+05  1.626206E+02 -1.276144E+03  1.464534E+04 -9.231713E-11  4.940223E-09
       375  14 -9.742023E+05  3.490241E+01 -1.411024E+03 -4.508779E+03 -2.416031E-09 -2.398473E-09
       375  15 -9.745075E+05 -3.394754E+01 -2.097011E+03  1.464643E+04 -3.468875E-09 -3.142945E-09
       375  16 -9.770854E+05 -4.567389E+02 -1.793632E+03  1.466592E+04  4.729295E-09 -6.482763E-09
       375  17 -9.401110E+05  8.530989E+03  6.937283E+03 -4.367729E+03 -4.060149E-09 -2.756844E-08
       375  18 -9.037451E+05  1.757824E+04  1.512038E+04  1.490782E+04 -1.968293E-09 -1.553149E-08
       375  19 -9.719289E+05  7.819800E+02 -7.586543E+02  1.462476E+04  5.569732E+02  5.480428E+02
       375  20 -1.008292E+06 -8.461270E+03 -9.759416E+03 -4.649822E+03 -1.447710E+02 -7.848670E+02
       375  21 -1.045265E+06 -1.764650E+04 -1.931475E+04  1.438507E+04 -8.466651E+02 -2.103724E+03
       375  22 -9.745071E+05  1.626209E+02 -1.276143E+03  1.464534E+04  7.660270E+01  5.453291E+02
       375  23 -9.742023E+05  3.490318E+01 -1.411022E+03 -4.508779E+03 -6.200975E+02 -7.875286E+02
       375  24 -9.745075E+05 -3.394231E+01 -2.096999E+03  1.464644E+04 -1.316989E+03 -2.106339E+03
       375  25 -9.770854E+05 -4.567385E+02 -1.793631E+03  1.466592E+04 -4.037658E+02  5.426153E+02
       375  26 -9.401110E+05  8.530990E+03  6.937287E+03 -4.367729E+03 -1.095450E+03 -7.901905E+02
       375  27 -9.037451E+05  1.757824E+04  1.512039E+04  1.490783E+04 -1.787367E+03 -2.108953E+03
       376   1 -1.121249E+06 -3.630237E+04 -3.860663E+04  1.364735E+04  1.236735E+03  2.892750E+03
       376   2 -1.156582E+06 -4.517327E+04 -4.892057E+04 -4.969331E+03  3.403818E+03  4.221814E+03
       376   3 -1.193136E+06 -5.607165E+04 -6.124495E+04  1.396762E+04  5.572113E+03  5.425377E+03
       376   4 -9.746462E+05  2.631156E+02 -2.587983E+03  1.447426E+04  1.733106E+03  2.895456E+03
       376   5 -9.740413E+05  3.234658E+02 -4.215157E+03 -4.297227E+03  3.855626E+03  4.224159E+03
       376   6 -9.746487E+05 -1.635240E+03 -7.821087E+03  1.448424E+04  5.979481E+03  5.427382E+03
       376   7 -8.280242E+05  3.682700E+04  3.342908E+04  1.530134E+04  2.229596E+03  2.898163E+03
       376   8 -7.914698E+05  4.581773E+04  4.048781E+04 -3.624966E+03  4.307567E+03  4.226506E+03
       376   9 -7.561179E+05  5.279764E+04  4.559929E+04  1.500098E+04  6.386993E+03  5.429388E+03
       376  10 -1.121249E+06 -3.630238E+04 -3.860665E+04  1.364735E+04 -7.508444E-09  1.930407E-09
       376  11 -1.156582E+06 -4.517329E+04 -4.892062E+04 -4.969342E+03 -3.578458E-09 -1.439711E-08
       376  12 -1.193136E+06 -5.607169E+04 -6.124507E+04  1.396760E+04  2.038476E-09 -5.097949E-09
       376  13 -9.746462E+05  2.631058E+02 -2.588005E+03  1.447426E+04  5.806547E-10 -3.399812E-09
       376  14 -9.740413E+05  3.234427E+02 -4.215218E+03 -4.297240E+03 -2.893177E-09  6.520853E-09
       376  15 -9.746488E+05 -1.635282E+03 -7.821209E+03  1.448421E+04 -2.972511E-09  7.998328E-09
       376  16 -8.280242E+05  3.682699E+04  3.342905E+04  1.530133E+04  6.097854E-09  3.798565E-09
       376  17 -7.914699E+05  4.581771E+04  4.048775E+04 -3.624981E+03  3.733114E-09 -8.788319E-09
       376  18 -7.561180E+05  5.279759E+04  4.559916E+04  1.500095E+04 -1.555008E-09  1.334332E-08
       376  19 -1.121249E+06 -3.630237E+04 -3.860663E+04  1.364735E+04 -1.236735E+03 -2.892750E+03
       376  20 -1.156582E+06 -4.517327E+04 -4.892057E+04 -4.969331E+03 -3.403818E+03 -4.221814E+03
       376  21 -1.193136E+06 -5.607165E+04 -6.124495E+04  1.396762E+04 -5.572113E+03 -5.425377E+03
       376  22 -9.746462E+05  2.631156E+02 -2.587983E+03  1.447426E+04 -1.733106E+03 -2.895456E+03
       376  23 -9.740413E+05  3.234658E+02 -4.215157E+03 -4.297227E+03 -3.855626E+03 -4.224159E+03
       376  24 -9.746487E+05 -1.635240E+03 -7.821087E+03  1.448424E+04 -5.979481E+03 -5.427382E+03
       376  25 -8.280242E+05  3.682700E+04  3.342908E+04  1.530134E+04 -2.229596E+03 -2.898163E+03
       376  26 -7.914698E+05  4.581773E+04  4.048781E+04 -3.624966E+03 -4.307567E+03 -4.226506E+03
       376  27 -7.561179E+05  5.279764E+04  4.559929E+04  1.500098E+04 -6.386993E+03 -5.429388E+03
       377   1 -1.267482E+06 -7.197466E+04 -8.142362E+04  1.134459E+04  6.902325E+03  6.318993E+03
       377   2 -1.298733E+06 -7.858426E+04 -9.608874E+04 -4.207266E+03  1.566700E+04  7.657300E+03
       377   3 -1.336013E+06 -1.039405E+05 -1.211984E+05  1.605112E+04  2.443679E+04  8.000048E+03
       377   4 -9.757148E+05  7.921840E+02 -9.856721E+03  1.406719E+04  7.548869E+03  6.322121E+03
       377   5 -9.727376E+05  2.661104E+03 -1.626251E+04 -3.802952E+03  1.595965E+04  7.658432E+03
       377   6 -9.757258E+05 -1.414932E+04 -3.286257E+04  1.413609E+04  2.437603E+04  7.999352E+03
       377   7 -6.838696E+05  7.355272E+04  6.170393E+04  1.679098E+04  8.195715E+03  6.325254E+03
       377   8 -6.466450E+05  8.389858E+04  6.355594E+04 -3.398541E+03  1.625246E+04  7.659565E+03
       377   9 -6.153196E+05  7.563219E+04  5.546372E+04  1.221981E+04  2.431523E+04  7.998656E+03
       377  10 -1.267482E+06 -7.197471E+04 -8.142379E+04  1.134455E+04  6.798259E-09  1.537963E-10
       377  11 -1.298733E+06 -7.858439E+04 -9.608932E+04 -4.207362E+03  1.417200E-10  1.066384E-08
       377  12 -1.336014E+06 -1.039407E+05 -1.211996E+05  1.605096E+04 -4.915142E-11 -1.703663E-08
       377  13 -9.757149E+05  7.921258E+02 -9.856904E+03  1.406715E+04 -3.764117E-10 -1.337411E-08
       377  14 -9.727378E+05  2.660973E+03 -1.626310E+04 -3.803050E+03 -6.069719E-09  1.490168E-08
       377  15 -9.757264E+05 -1.414955E+04 -3.286381E+04  1.413593E+04 -2.835025E-09  6.535763E-10
       377  16 -6.838697E+05  7.355266E+04  6.170373E+04  1.679093E+04 -8.918473E-09 -3.914364E-09
       377  17 -6.466453E+05  8.389845E+04  6.355534E+04 -3.398641E+03 -3.169012E-09 -2.228465E-08
       377  18 -6.153202E+05  7.563196E+04  5.546249E+04  1.221965E+04 -3.481865E-10  7.169894E-09
       377  19 -1.267482E+06 -7.197466E+04 -8.142362E+04  1.134459E+04 -6.902325E+03 -6.318993E+03
       377  20 -1.298733E+06 -7.858426E+04 -9.608874E+04 -4.207266E+03 -1.566700E+04 -7.657300E+03
       377  21 -1.336013E+06 -1.039405E+05 -1.211984E+05  1.605112E+04 -2.443679E+04 -8.000048E+03
       377  22 -9.757148E+05  7.921840E+02 -9.856721E+03  1.406719E+04 -7.548869E+03 -6.322121E+03
       377  23 -9.727376E+05  2.661104E+03 -1.626251E+04 -3.802952E+03 -1.595965E+04 -7.658432E+03
       377  24 -9.757258E+05 -1.414932E+04 -3.286257E+04  1.413609E+04 -2.437603E+04 -7.999352E+03
       377  25 -6.838696E+05  7.355272E+04  6.170393E+04  1.679098E+04 -8.195715E+03 -6.325254E+03
       377  26 -6.466450E+05  8.389858E+04  6.355594E+04 -3.398541E+03 -1.625246E+04 -7.659565E+03
       377  27 -6.153196E+05  7.563219E+04  5.546372E+04  1.221981E+04 -2.431523E+04 -7.998656E+03
       378   1 -1.412610E+06 -1.019174E+05 -1.450548E+05 -1.845240E+02  2.857436E+04  1.005974E+04
       378   2 -1.423344E+06 -9.366826E+04 -1.751005E+05  2.848976E+03  6.575714E+04  1.171196E+04
       378   3 -1.476306E+06 -2.353720E+05 -2.668580E+05  3.909709E+04  1.029716E+05  4.273216E+03
       378   4 -9.836540E+05  5.140362E+03 -3.996956E+04  1.336822E+04  3.075892E+04  1.006939E+04
       378   5 -9.628665E+05  2.100373E+04 -6.251965E+04 -3.023502E+03  6.469642E+04  1.170644E+04
       378   6 -9.837116E+05 -1.124631E+05 -1.444928E+05  1.379967E+04  9.866779E+04  4.253162E+03
       378   7 -5.545300E+05  1.121851E+05  6.510230E+04  2.693019E+04  3.294499E+04  1.007913E+04
       378   8 -5.021949E+05  1.356602E+05  5.004574E+04 -8.900545E+03  6.363491E+04  1.170094E+04
       378   9 -4.908950E+05  1.043012E+04 -2.214519E+04 -1.151808E+04  9.436053E+04  4.233469E+03
       378  10 -1.412611E+06 -1.019177E+05 -1.450565E+05 -1.847556E+02  9.668073E-10 -1.384507E-08
       378  11 -1.423349E+06 -9.366957E+04 -1.751089E+05  2.848355E+03  2.579818E-09 -3.284546E-09
       378  12 -1.476317E+06 -2.353749E+05 -2.668780E+05  3.909674E+04  3.305366E-09  1.112150E-08
       378  13 -9.836550E+05  5.139999E+03 -3.997153E+04  1.336797E+04  5.235187E-10  3.412244E-09
       378  14 -9.628711E+05  2.100246E+04 -6.252779E+04 -3.024112E+03 -8.072704E-10  5.366370E-09
       378  15 -9.837221E+05 -1.124657E+05 -1.445111E+05  1.379933E+04 -4.100128E-09  4.306798E-09
       378  16 -5.545312E+05  1.121847E+05  6.510006E+04  2.692992E+04 -2.529867E-09  1.312888E-08
       378  17 -5.021993E+05  1.356589E+05  5.003787E+04 -8.901145E+03 -5.673652E-09  1.830020E-08
       378  18 -4.909046E+05  1.042771E+04 -2.216197E+04 -1.151840E+04 -4.522377E-09  2.778752E-09
       378  19 -1.412610E+06 -1.019174E+05 -1.450548E+05 -1.845240E+02 -2.857436E+04 -1.005974E+04
       378  20 -1.423344E+06 -9.366826E+04 -1.751005E+05  2.848976E+03 -6.575714E+04 -1.171196E+04
       378  21 -1.476306E+06 -2.353720E+05 -2.668580E+05  3.909709E+04 -1.029716E+05 -4.273216E+03
       378  22 -9.836540E+05  5.140362E+03 -3.996956E+04  1.336822E+04 -3.075892E+04 -1.006939E+04
       378  23 -9.628665E+05  2.100373E+04 -6.251965E+04 -3.023502E+03 -6.469642E+04 -1.170644E+04
       378  24 -9.837116E+05 -1.124631E+05 -1.444928E+05  1.379967E+04 -9.866779E+04 -4.253162E+03
       378  25 -5.545300E+05  1.121851E+05  6.510230E+04  2.693019E+04 -3.294499E+04 -1.007913E+04
       378  26 -5.021949E+05  1.356602E+05  5.004574E+04 -8.900545E+03 -6.363491E+04 -1.170094E+04
       378  27 -4.908950E+05  1.043012E+04 -2.214519E+04 -1.151808E+04 -9.436053E+04 -4.233469E+03
       379   1 -1.524696E+05 -5.815490E+05 -1.461666E+05  1.422231E+05 -6.086688E+03 -5.220308E+04
       379   2 -1.101610E+05 -4.682827E+05 -9.154298E+04  1.271254E+05 -1.946933E+04 -2.301789E+04
       379   3 -7.958490E+04 -3.615971E+05 -5.886027E+04  1.317814E+05 -2.035827E+04  6.208633E+03
       379   4 -1.582541E+04 -2.883806E+04 -1.618622E+04  1.313268E+05 -6.186832E+03 -1.234203E+04
       379   5 -5.145622E+03 -2.773881E+04 -7.300903E+03  1.214674E+05 -1.950377E+04 -8.619842E+03
       379   6 -1.770487E+03 -2.880598E+04 -2.661129E+03  1.313621E+05 -2.033059E+04 -4.862390E+03
       379   7  1.207983E+05  5.241578E+05  1.137792E+05  1.204209E+05 -6.288333E+03  2.755433E+04
       379   8  9.985853E+04  4.129926E+05  7.693314E+04  1.158054E+05 -1.953846E+04  5.788186E+03
       379   9  7.603815E+04  3.040946E+05  5.353494E+04  1.309426E+05 -2.030291E+04 -1.593916E+04
       379  10 -1.524704E+05 -5.815519E+05 -1.461718E+05  1.422228E+05  1.078235E-09  4.517412E-09
       379  11 -1.101616E+05 -4.682834E+05 -9.154469E+04  1.271251E+05  2.716647E-09  3.669904E-12
       379  12 -7.958535E+04 -3.615973E+05 -5.886112E+04  1.317815E+05 -9.958318E-10 -5.812752E-11
       379  13 -1.582549E+04 -2.883823E+04 -1.618658E+04  1.313267E+05  1.933001E-09  2.158950E-09
       379  14 -5.146051E+03 -2.773899E+04 -7.301757E+03  1.214673E+05 -3.554660E-10 -2.371789E-09
       379  15 -1.770937E+03 -2.880612E+04 -2.661950E+03  1.313620E+05  1.493301E-09 -2.622173E-09
       379  16  1.207980E+05  5.241570E+05  1.137777E+05  1.204210E+05  1.335738E-11 -3.308365E-09
       379  17  9.985811E+04  4.129925E+05  7.693236E+04  1.158055E+05  8.733782E-10 -7.095391E-09
       379  18  7.603764E+04  3.040942E+05  5.353369E+04  1.309423E+05  4.745761E-10  1.304292E-09
       379  19 -1.524696E+05 -5.815490E+05 -1.461666E+05  1.422231E+05  6.086688E+03  5.220308E+04
       379  20 -1.101610E+05 -4.682827E+05 -9.154298E+04  1.271254E+05  1.946933E+04  2.301789E+04
       379  21 -7.958490E+04 -3.615971E+05 -5.886027E+04  1.317814E+05  2.035827E+04 -6.208633E+03
       379  22 -1.582541E+04 -2.883806E+04 -1.618622E+04  1.313268E+05  6.186832E+03  1.234203E+04
       379  23 -5.145622E+03 -2.773881E+04 -7.300903E+03  1.214674E+05  1.950377E+04  8.619842E+03
       379  24 -1.770487E+03 -2.880598E+04 -2.661129E+03  1.313621E+05  2.033059E+04  4.862390E+03
       379  25  1.207983E+05  5.241578E+05  1.137792E+05  1.204209E+05  6.288333E+03 -2.755433E+04
       379  26  9.985853E+04  4.129926E+05  7.693314E+04  1.158054E+05  1.953846E+04 -5.788186E+03
       379  27  7.603815E+04  3.040946E+05  5.353494E+04  1.309426E+05  2.030291E+04  1.593916E+04
       380   1 -6.281292E+04 -2.909737E+05 -4.442596E+04  1.323175E+05 -1.672972E+04  6.235920E+03
       380   2 -3.551189E+04 -1.811432E+05 -2.099324E+04  1.222340E+05 -1.102667E+04  6.487062E+03
       380   3 -7.799840E+03 -7.109178E+04  2.414697E+03  1.327590E+05 -4.579434E+03  6.739594E+03
       380   4 -1.546429E+03 -2.821173E+04 -9.215709E+02  1.315478E+05 -1.670315E+04 -4.637733E+03
       380   5 -2.516975E+02 -2.844256E+04  2.563349E+03  1.212477E+05 -1.099706E+04 -5.905224E+03
       380   6  1.718354E+03 -2.820033E+04  7.078497E+03  1.315557E+05 -4.546900E+03 -7.171375E+03
       380   7  5.971655E+04  2.346188E+05  4.258120E+04  1.307778E+05 -1.667657E+04 -1.551583E+04
       380   8  3.500744E+04  1.242817E+05  2.611999E+04  1.202611E+05 -1.096742E+04 -1.830044E+04
       380   9  1.123659E+04  1.469346E+04  1.174304E+04  1.303523E+05 -4.514313E+03 -2.108325E+04
       380  10 -6.281323E+04 -2.909739E+05 -4.442656E+04  1.323176E+05 -9.057644E-11  3.455291E-09
       380  11 -3.551203E+04 -1.811433E+05 -2.099355E+04  1.222340E+05  1.543832E-09 -2.698111E-09
       380  12 -7.799874E+03 -7.109184E+04  2.414572E+03  1.327590E+05 -2.346438E-09 -4.426629E-09
       380  13 -1.546734E+03 -2.821183E+04 -9.221356E+02  1.315477E+05  7.912401E-10 -1.073247E-09
       380  14 -2.518367E+02 -2.844263E+04  2.563056E+03  1.212476E+05  4.610511E-09 -5.452435E-09
       380  15  1.718318E+03 -2.820039E+04  7.078361E+03  1.315557E+05 -8.814039E-10 -1.636421E-09
       380  16  5.971619E+04  2.346185E+05  4.258023E+04  1.307776E+05  2.146579E-09 -4.859148E-09
       380  17  3.500722E+04  1.242813E+05  2.611914E+04  1.202609E+05  8.640733E-10 -6.430107E-09
       380  18  1.123645E+04  1.469297E+04  1.174217E+04  1.303522E+05  2.526442E-10  7.532680E-09
       380  19 -6.281292E+04 -2.909737E+05 -4.442596E+04  1.323175E+05  1.672972E+04 -6.235920E+03
       380  20 -3.551189E+04 -1.811432E+05 -2.099324E+04  1.222340E+05  1.102667E+04 -6.487062E+03
       380  21 -7.799840E+03 -7.109178E+04  2.414697E+03  1.327590E+05  4.579434E+03 -6.739594E+03
       380  22 -1.546429E+03 -2.821173E+04 -9.215709E+02  1.315478E+05  1.670315E+04  4.637733E+03
       380  23 -2.516975E+02 -2.844256E+04  2.563349E+03  1.212477E+05  1.099706E+04  5.905224E+03
       380  24  1.718354E+03 -2.820033E+04  7.078497E+03  1.315557E+05  4.546900E+03  7.171375E+03
       380  25  5.971655E+04  2.346188E+05  4.258120E+04  1.307778E+05  1.667657E+04  1.551583E+04
       380  26  3.500744E+04  1.242817E+05  2.611999E+04  1.202611E+05  1.096742E+04  1.830044E+04
       380  27  1.123659E+04  1.469346E+04  1.174304E+04  1.303523E+05  4.514313E+03  2.108325E+04
       381   1  8.996034E+03 -2.094244E+02  1.712071E+04  1.310681E+05 -3.169390E+02  5.582695E+03
       381   2  4.328191E+04  1.058699E+05  4.855758E+04  1.330433E+05  3.656178E+03 -1.634361E+04
       381   3  9.734187E+04  2.198914E+05  9.924364E+04  1.553340E+05  1.759098E+03 -3.828909E+04
       381   4  2.214310E+03 -2.700381E+04  1.001800E+04  1.314820E+05 -2.842555E+02 -8.404789E+03
       381   5  1.036373E+04 -2.993658E+04  1.942803E+04  1.213667E+05  3.661307E+03 -1.835471E+04
       381   6  3.621163E+04 -2.701296E+04  3.977322E+04  1.315652E+05  1.736937E+03 -2.832004E+04
       381   7 -4.567365E+03 -5.379713E+04  2.915976E+03  1.318958E+05 -2.515900E+02 -2.239166E+04
       381   8 -2.255513E+04 -1.657254E+05 -9.702509E+03  1.096926E+05  3.666512E+03 -2.036538E+04
       381   9 -2.492084E+04 -2.738601E+05 -1.970086E+04  1.078058E+05  1.714009E+03 -1.835493E+04
       381  10  8.996026E+03 -2.094579E+02  1.712065E+04  1.310681E+05 -2.318198E-09  5.408999E-09
       381  11  4.328183E+04  1.058696E+05  4.855705E+04  1.330434E+05 -2.515645E-10 -1.738483E-09
       381  12  9.734147E+04  2.198898E+05  9.924088E+04  1.553341E+05 -8.812963E-10 -5.372897E-10
       381  13  2.214291E+03 -2.700388E+04  1.001787E+04  1.314820E+05 -4.289803E-09  2.143901E-09
       381  14  1.036363E+04 -2.993694E+04  1.942737E+04  1.213667E+05  1.687572E-09 -1.148571E-09
       381  15  3.621141E+04 -2.701382E+04  3.977171E+04  1.315652E+05 -1.118788E-10 -1.851414E-10
       381  16 -4.567500E+03 -5.379767E+04  2.915034E+03  1.318958E+05  1.407205E-10 -6.774217E-09
       381  17 -2.255526E+04 -1.657258E+05 -9.703314E+03  1.096926E+05  2.300127E-09 -8.708461E-09
       381  18 -2.492094E+04 -2.738604E+05 -1.970150E+04  1.078059E+05  1.886194E-10  1.869817E-09
       381  19  8.996034E+03 -2.094244E+02  1.712071E+04  1.310681E+05  3.169390E+02 -5.582695E+03
       381  20  4.328191E+04  1.058699E+05  4.855758E+04  1.330433E+05 -3.656178E+03  1.634361E+04
       381  21  9.734187E+04  2.198914E+05  9.924364E+04  1.553340E+05 -1.759098E+03  3.828909E+04
       381  22  2.214310E+03 -2.700381E+04  1.001800E+04  1.314820E+05  2.842555E+02  8.404789E+03
       381  23  1.036373E+04 -2.993658E+04  1.942803E+04  1.213667E+05 -3.661307E+03  1.835471E+04
       381  24  3.621163E+04 -2.701296E+04  3.977322E+04  1.315652E+05 -1.736937E+03  2.832004E+04
       381  25 -4.567365E+03 -5.379713E+04  2.915976E+03  1.318958E+05  2.515900E+02  2.239166E+04
       381  26 -2.255513E+04 -1.657254E+05 -9.702509E+03  1.096926E+05 -3.666512E+03  2.036538E+04
       381  27 -2.492084E+04 -2.738601E+05 -1.970086E+04  1.078058E+05 -1.714009E+03  1.835493E+04
       382   1  1.457621E+06  5.103840E+05  3.505599E+05  4.962921E+05  1.531293E+05  5.391695E+04
       382   2  1.402392E+06  2.731480E+05  2.037478E+05  5.141270E+05  9.996109E+04  2.607352E+04
       382   3  1.416541E+06  2.827961E+05  1.598975E+05  4.995921E+05  4.368466E+04  6.448729E+03
       382   4  1.056349E+06  3.211974E+05  2.334768E+05  3.483170E+05  1.493905E+05  5.249082E+04
       382   5  1.010022E+06  1.146538E+05  9.619761E+04  3.960675E+05  9.902977E+04  2.571828E+04
       382   6  1.032571E+06  1.545232E+05  5.970923E+04  4.114341E+05  4.555853E+04  7.160360E+03
       382   7  6.552384E+05  1.320490E+05  1.163787E+05  2.004376E+05  1.456543E+05  5.106624E+04
       382   8  6.178013E+05 -4.382484E+04 -1.136643E+04  2.780774E+05  9.809907E+04  2.536331E+04
       382   9  6.487418E+05  2.625139E+04 -4.049141E+04  3.233212E+05  4.743113E+04  7.871635E+03
       382  10  1.457595E+06  5.103746E+05  3.505105E+05  4.962855E+05 -1.970250E-09  2.102653E-09
       382  11  1.402381E+06  2.731446E+05  2.037278E+05  5.141250E+05 -1.307690E-10  2.596359E-09
       382  12  1.416539E+06  2.827956E+05  1.598939E+05  4.995918E+05  3.539114E-09  3.045441E-09
       382  13  1.056324E+06  3.211885E+05  2.334298E+05  3.483107E+05 -3.125242E-10 -7.624674E-09
       382  14  1.010011E+06  1.146505E+05  9.617798E+04  3.960655E+05 -5.225003E-09 -1.035621E-08
       382  15  1.032569E+06  1.545226E+05  5.970524E+04  4.114338E+05 -1.145249E-09 -4.708580E-09
       382  16  6.552149E+05  1.320406E+05  1.163340E+05  2.004316E+05  5.536087E-10  2.818101E-09
       382  17  6.177908E+05 -4.382811E+04 -1.138570E+04  2.780754E+05 -2.252612E-09  2.901112E-09
       382  18  6.487394E+05  2.625072E+04 -4.049575E+04  3.233209E+05 -1.692609E-09 -6.699593E-09
       382  19  1.457621E+06  5.103840E+05  3.505599E+05  4.962921E+05 -1.531293E+05 -5.391695E+04
       382  20  1.402392E+06  2.731480E+05  2.037478E+05  5.141270E+05 -9.996109E+04 -2.607352E+04
       382  21  1.416541E+06  2.827961E+05  1.598975E+05  4.995921E+05 -4.368466E+04 -6.448729E+03
       382  22  1.056349E+06  3.211974E+05  2.334768E+05  3.483170E+05 -1.493905E+05 -5.249082E+04
       382  23  1.010022E+06  1.146538E+05  9.619761E+04  3.960675E+05 -9.902977E+04 -2.571828E+04
       382  24  1.032571E+06  1.545232E+05  5.970923E+04  4.114341E+05 -4.555853E+04 -7.160360E+03
       382  25  6.552384E+05  1.320490E+05  1.163787E+05  2.004376E+05 -1.456543E+05 -5.106624E+04
       382  26  6.178013E+05 -4.382484E+04 -1.136643E+04  2.780774E+05 -9.809907E+04 -2.536331E+04
       382  27  6.487418E+05  2.625139E+04 -4.049141E+04  3.233212E+05 -4.743113E+04 -7.871635E+03
       383   1  1.333059E+06  3.010809E+05  1.328868E+05  4.852732E+05  3.615623E+04  5.725265E+03
       383   2  1.312662E+06  2.534524E+05  9.977350E+04  4.717815E+05  2.385257E+04  1.225208E+03
       383   3  1.284567E+06  2.555847E+05  8.380331E+04  4.741140E+05  1.122416E+04 -2.419486E+03
       383   4  1.025449E+06  1.799338E+05  4.892311E+04  3.959602E+05  3.604966E+04  5.684237E+03
       383   5  1.027780E+06  1.443000E+05  2.270958E+04  3.921428E+05  2.404064E+04  1.296331E+03
       383   6  1.022360E+06  1.583774E+05  1.341239E+04  4.041486E+05  1.170632E+04 -2.236368E+03
       383   7  7.179310E+05  5.879459E+04 -3.504912E+04  3.066876E+05  3.594315E+04  5.643230E+03
       383   8  7.429774E+05  3.515311E+04 -5.436151E+04  3.125372E+05  2.422862E+04  1.367416E+03
       383   9  7.602197E+05  6.117363E+04 -5.698442E+04  3.342096E+05  1.218825E+04 -2.053331E+03
       383  10  1.333057E+06  3.010805E+05  1.328842E+05  4.852730E+05  1.091240E-09  7.864216E-09
       383  11  1.312661E+06  2.534523E+05  9.977243E+04  4.717815E+05  1.266041E-09  2.363359E-08
       383  12  1.284567E+06  2.555847E+05  8.380306E+04  4.741140E+05 -1.424910E-09  1.841082E-08
       383  13  1.025448E+06  1.799335E+05  4.892061E+04  3.959600E+05  7.459518E-10  1.497185E-10
       383  14  1.027780E+06  1.442999E+05  2.270849E+04  3.921428E+05 -4.678494E-09 -1.500014E-08
       383  15  1.022360E+06  1.583773E+05  1.341213E+04  4.041487E+05 -4.027071E-09  1.095462E-08
       383  16  7.179297E+05  5.879421E+04 -3.505160E+04  3.066874E+05 -1.020912E-09 -5.940673E-09
       383  17  7.429767E+05  3.515295E+04 -5.436262E+04  3.125371E+05 -3.054305E-09 -1.786191E-09
       383  18  7.602195E+05  6.117359E+04 -5.698471E+04  3.342096E+05 -5.482012E-09 -3.011733E-12
       383  19  1.333059E+06  3.010809E+05  1.328868E+05  4.852732E+05 -3.615623E+04 -5.725265E+03
       383  20  1.312662E+06  2.534524E+05  9.977350E+04  4.717815E+05 -2.385257E+04 -1.225208E+03
       383  21  1.284567E+06  2.555847E+05  8.380331E+04  4.741140E+05 -1.122416E+04  2.419486E+03
       383  22  1.025449E+06  1.799338E+05  4.892311E+04  3.959602E+05 -3.604966E+04 -5.684237E+03
       383  23  1.027780E+06  1.443000E+05  2.270958E+04  3.921428E+05 -2.404064E+04 -1.296331E+03
       383  24  1.022360E+06  1.583774E+05  1.341239E+04  4.041486E+05 -1.170632E+04  2.236368E+03
       383  25  7.179310E+05  5.879459E+04 -3.504912E+04  3.066876E+05 -3.594315E+04 -5.643230E+03
       383  26  7.429774E+05  3.515311E+04 -5.436151E+04  3.125372E+05 -2.422862E+04 -1.367416E+03
       383  27  7.602197E+05  6.117363E+04 -5.698442E+04  3.342096E+05 -1.218825E+04  2.053331E+03
       384   1  1.226879E+06  2.397210E+05  6.602821E+04  4.589262E+05  9.208999E+03 -2.401080E+03
       384   2  1.212403E+06  2.179802E+05  5.460743E+04  4.425837E+05  6.136238E+03 -2.616033E+03
       384   3  1.180922E+06  2.189302E+05  4.628912E+04  4.465926E+05  3.039766E+03 -2.769967E+03
       384   4  1.021596E+06  1.613003E+05  1.059476E+04  4.017669E+05  9.478202E+03 -2.298856E+03
       384   5  1.029904E+06  1.485862E+05  5.327635E+03  3.921128E+05  6.426964E+03 -2.505526E+03
       384   6  1.021203E+06  1.585599E+05  3.146909E+03  4.028103E+05  3.351903E+03 -2.651212E+03
       384   7  8.163533E+05  8.288213E+04 -4.484256E+04  3.446244E+05  9.747308E+03 -2.196671E+03
       384   8  8.474368E+05  7.919418E+04 -4.395518E+04  3.416551E+05  6.717596E+03 -2.395055E+03
       384   9  8.615081E+05  9.819109E+04 -3.999758E+04  3.590380E+05  3.663950E+03 -2.532490E+03
       384  10  1.226879E+06  2.397210E+05  6.602804E+04  4.589262E+05 -3.351463E-10  1.390147E-08
       384  11  1.212403E+06  2.179802E+05  5.460735E+04  4.425838E+05  6.217782E-10 -3.690938E-09
       384  12  1.180922E+06  2.189302E+05  4.628909E+04  4.465926E+05  4.021133E-09  9.799119E-09
       384  13  1.021596E+06  1.613002E+05  1.059458E+04  4.017669E+05 -1.033570E-09  8.557587E-09
       384  14  1.029904E+06  1.485862E+05  5.327545E+03  3.921128E+05  3.042613E-09  1.410779E-08
       384  15  1.021203E+06  1.585599E+05  3.146875E+03  4.028103E+05  5.416457E-09  8.599539E-09
       384  16  8.163532E+05  8.288210E+04 -4.484275E+04  3.446244E+05 -4.361699E-09  6.408688E-09
       384  17  8.474368E+05  7.919416E+04 -4.395527E+04  3.416551E+05 -1.897491E-09  1.227802E-08
       384  18  8.615081E+05  9.819108E+04 -3.999762E+04  3.590380E+05  3.800970E-10  5.216079E-10
       384  19  1.226879E+06  2.397210E+05  6.602821E+04  4.589262E+05 -9.208999E+03  2.401080E+03
       384  20  1.212403E+06  2.179802E+05  5.460743E+04  4.425837E+05 -6.136238E+03  2.616033E+03
       384  21  1.180922E+06  2.189302E+05  4.628912E+04  4.465926E+05 -3.039766E+03  2.769967E+03
       384  22  1.021596E+06  1.613003E+05  1.059476E+04  4.017669E+05 -9.478202E+03  2.298856E+03
       384  23  1.029904E+06  1.485862E+05  5.327635E+03  3.921128E+05 -6.426964E+03  2.505526E+03
       384  24  1.021203E+06  1.585599E+05  3.146909E+03  4.028103E+05 -3.351903E+03  2.651212E+03
       384  25  8.163533E+05  8.288213E+04 -4.484256E+04  3.446244E+05 -9.747308E+03  2.196671E+03
       384  26  8.474368E+05  7.919418E+04 -4.395518E+04  3.416551E+05 -6.717596E+03  2.395055E+03
       384  27  8.615081E+05  9.819109E+04 -3.999758E+04  3.590380E+05 -3.663950E+03  2.532490E+03
       385   1  1.129520E+06  1.999208E+05  3.165681E+04  4.322826E+05  2.393952E+03 -2.415392E+03
       385   2  1.116449E+06  1.821985E+05  2.486018E+04  4.162383E+05  1.299034E+03 -1.845318E+03
       385   3  1.085771E+06  1.829638E+05  1.878650E+04  4.202140E+05  2.072448E+02 -1.284054E+03
       385   4  1.021236E+06  1.587429E+05  2.496927E+03  4.023138E+05  2.686264E+03 -2.304129E+03
       385   5  1.030018E+06  1.493546E+05  1.523399E+03  3.923587E+05  1.588508E+03 -1.735094E+03
       385   6  1.021194E+06  1.584549E+05  1.275217E+03  4.024237E+05  4.938493E+02 -1.174877E+03
       385   7  9.129625E+05  1.175659E+05 -2.666394E+04  3.723498E+05  2.978520E+03 -2.192888E+03
       385   8  9.435948E+05  1.165113E+05 -2.181405E+04  3.684821E+05  1.877938E+03 -1.624886E+03
       385   9  9.566216E+05  1.339462E+05 -1.623647E+04  3.846350E+05  7.804214E+02 -1.065712E+03
       385  10  1.129520E+06  1.999208E+05  3.165679E+04  4.322826E+05  5.956386E-09  4.008185E-09
       385  11  1.116449E+06  1.821984E+05  2.486017E+04  4.162383E+05 -4.192512E-09  2.467943E-10
       385  12  1.085771E+06  1.829638E+05  1.878649E+04  4.202140E+05 -1.284316E-08  5.659207E-09
       385  13  1.021236E+06  1.587429E+05  2.496904E+03  4.023138E+05  7.964917E-10  2.837724E-09
       385  14  1.030018E+06  1.493546E+05  1.523388E+03  3.923587E+05  4.746084E-09  2.774101E-08
       385  15  1.021194E+06  1.584549E+05  1.275214E+03  4.024237E+05 -2.661361E-09 -3.011135E-10
       385  16  9.129625E+05  1.175659E+05 -2.666396E+04  3.723498E+05  1.342243E-10  1.509613E-09
       385  17  9.435948E+05  1.165113E+05 -2.181406E+04  3.684821E+05  5.035256E-09  1.598319E-08
       385  18  9.566216E+05  1.339462E+05 -1.623647E+04  3.846350E+05  6.050785E-09 -1.498968E-09
       385  19  1.129520E+06  1.999208E+05  3.165681E+04  4.322826E+05 -2.393952E+03  2.415392E+03
       385  20  1.116449E+06  1.821985E+05  2.486018E+04  4.162383E+05 -1.299034E+03  1.845318E+03
       385  21  1.085771E+06  1.829638E+05  1.878650E+04  4.202140E+05 -2.072448E+02  1.284054E+03
       385  22  1.021236E+06  1.587429E+05  2.496927E+03  4.023138E+05 -2.686264E+03  2.304129E+03
       385  23  1.030018E+06  1.493546E+05  1.523399E+03  3.923587E+05 -1.588508E+03  1.735094E+03
       385  24  1.021194E+06  1.584549E+05  1.275217E+03  4.024237E+05 -4.938493E+02  1.174877E+03
       385  25  9.129625E+05  1.175659E+05 -2.666394E+04  3.723498E+05 -2.978520E+03  2.192888E+03
       385  26  9.435948E+05  1.165113E+05 -2.181405E+04  3.684821E+05 -1.877938E+03  1.624886E+03
       385  27  9.566216E+05  1.339462E+05 -1.623647E+04  3.846350E+05 -7.804214E+02  1.065712E+03
       386   1  1.036352E+06  1.641527E+05  5.299541E+03  4.065840E+05 -1.948474E+02 -8.709782E+02
       386   2  1.023542E+06  1.469912E+05 -6.057925E+01  3.906789E+05 -1.358019E+03 -3.432955E+02
       386   3  9.934313E+05  1.480935E+05 -4.629121E+03  3.944427E+05 -2.518838E+03  1.784202E+02
       386   4  1.021260E+06  1.583799E+05  1.298535E+03  4.023558E+05  9.234045E+01 -7.615625E+02
       386   5  1.029936E+06  1.494282E+05  1.667231E+03  3.924526E+05 -1.072865E+03 -2.346590E+02
       386   6  1.021312E+06  1.587405E+05  2.829094E+03  4.022182E+05 -2.235748E+03  2.862669E+02
       386   7  1.006168E+06  1.526070E+05 -2.702491E+03  3.981276E+05  3.795206E+02 -6.521497E+02
       386   8  1.036331E+06  1.518651E+05  3.395036E+03  3.942263E+05 -7.877069E+02 -1.260213E+02
       386   9  1.049193E+06  1.693875E+05  1.028723E+04  4.099939E+05 -1.952645E+03  3.941189E+02
       386  10  1.036352E+06  1.641527E+05  5.299539E+03  4.065840E+05 -2.114399E-09 -4.668677E-09
       386  11  1.023542E+06  1.469912E+05 -6.058293E+01  3.906789E+05 -4.772144E-09 -3.012057E-08
       386  12  9.934313E+05  1.480935E+05 -4.629133E+03  3.944427E+05 -1.614650E-08 -2.963800E-08
       386  13  1.021260E+06  1.583799E+05  1.298534E+03  4.023558E+05 -2.720849E-09  2.556247E-08
       386  14  1.029936E+06  1.494282E+05  1.667229E+03  3.924526E+05  3.535743E-09  6.953257E-09
       386  15  1.021312E+06  1.587405E+05  2.829084E+03  4.022182E+05 -4.261589E-10 -6.985275E-10
       386  16  1.006168E+06  1.526070E+05 -2.702492E+03  3.981276E+05  2.675207E-09  1.150031E-08
       386  17  1.036331E+06  1.518651E+05  3.395035E+03  3.942263E+05  9.289391E-09  6.881431E-09
       386  18  1.049193E+06  1.693875E+05  1.028722E+04  4.099939E+05  1.402735E-08 -1.893040E-09
       386  19  1.036352E+06  1.641527E+05  5.299541E+03  4.065840E+05  1.948474E+02  8.709782E+02
       386  20  1.023542E+06  1.469912E+05 -6.057925E+01  3.906789E+05  1.358019E+03  3.432955E+02
       386  21  9.934313E+05  1.480935E+05 -4.629121E+03  3.944427E+05  2.518838E+03 -1.784202E+02
       386  22  1.021260E+06  1.583799E+05  1.298535E+03  4.023558E+05 -9.234045E+01  7.615625E+02
       386  23  1.029936E+06  1.494282E+05  1.667231E+03  3.924526E+05  1.072865E+03  2.346590E+02
       386  24  1.021312E+06  1.587405E+05  2.829094E+03  4.022182E+05  2.235748E+03 -2.862669E+02
       386  25  1.006168E+06  1.526070E+05 -2.702491E+03  3.981276E+05 -3.795206E+02  6.521497E+02
       386  26  1.036331E+06  1.518651E+05  3.395036E+03  3.942263E+05  7.877069E+02  1.260213E+02
       386  27  1.049193E+06  1.693875E+05  1.028723E+04  4.099939E+05  1.952645E+03 -3.941189E+02
       387   1  9.436837E+05  1.291565E+05 -1.741969E+04  3.814981E+05 -3.257207E+03  4.755155E+02
       387   2  9.302304E+05  1.108637E+05 -2.073200E+04  3.648276E+05 -6.709310E+03  1.465039E+02
       387   3  9.008408E+05  1.149625E+05 -2.052450E+04  3.673559E+05 -1.013941E+04 -2.393084E+02
       387   4  1.021426E+06  1.583575E+05  3.586521E+03  4.026085E+05 -2.957249E+03  5.897691E+02
       387   5  1.029621E+06  1.487497E+05  6.127926E+03  3.924032E+05 -6.429046E+03  2.532019E+02
       387   6  1.021883E+06  1.615370E+05  1.220441E+04  4.013965E+05 -9.878961E+03 -1.402104E+02
       387   7  1.099174E+06  1.875588E+05  2.459224E+04  4.237213E+05 -2.657249E+03  7.040382E+02
       387   8  1.129021E+06  1.866365E+05  3.298700E+04  4.199828E+05 -6.148732E+03  3.599190E+02
       387   9  1.142940E+06  2.081125E+05  4.493202E+04  4.354431E+05 -9.618453E+03 -4.109031E+01
       387  10  9.436837E+05  1.291565E+05 -1.741971E+04  3.814981E+05 -1.262769E-08 -6.227091E-09
       387  11  9.302303E+05  1.108637E+05 -2.073209E+04  3.648276E+05 -2.376339E-09 -1.732362E-08
       387  12  9.008407E+05  1.149624E+05 -2.052469E+04  3.673559E+05 -2.961214E-09 -1.555917E-08
       387  13  1.021426E+06  1.583575E+05  3.586504E+03  4.026085E+05 -1.370731E-09  1.562626E-09
       387  14  1.029621E+06  1.487497E+05  6.127848E+03  3.924032E+05 -8.382706E-09  2.688006E-08
       387  15  1.021883E+06  1.615370E+05  1.220423E+04  4.013965E+05 -3.598982E-09 -4.231571E-09
       387  16  1.099174E+06  1.875588E+05  2.459223E+04  4.237213E+05  9.802019E-09  1.512308E-08
       387  17  1.129021E+06  1.866365E+05  3.298693E+04  4.199828E+05 -4.436557E-09  3.478060E-09
       387  18  1.142940E+06  2.081125E+05  4.493185E+04  4.354431E+05 -5.433111E-09  7.371765E-09
       387  19  9.436837E+05  1.291565E+05 -1.741969E+04  3.814981E+05  3.257207E+03 -4.755155E+02
       387  20  9.302304E+05  1.108637E+05 -2.073200E+04  3.648276E+05  6.709310E+03 -1.465039E+02
       387  21  9.008408E+05  1.149625E+05 -2.052450E+04  3.673559E+05  1.013941E+04  2.393084E+02
       387  22  1.021426E+06  1.583575E+05  3.586521E+03  4.026085E+05  2.957249E+03 -5.897691E+02
       387  23  1.029621E+06  1.487497E+05  6.127926E+03  3.924032E+05  6.429046E+03 -2.532019E+02
       387  24  1.021883E+06  1.615370E+05  1.220441E+04  4.013965E+05  9.878961E+03  1.402104E+02
       387  25  1.099174E+06  1.875588E+05  2.459224E+04  4.237213E+05  2.657249E+03 -7.040382E+02
       387  26  1.129021E+06  1.866365E+05  3.298700E+04  4.199828E+05  6.148732E+03 -3.599190E+02
       387  27  1.142940E+06  2.081125E+05  4.493202E+04  4.354431E+05  9.618453E+03  4.109031E+01
       388   1  8.479978E+05  9.415673E+04 -3.134288E+04  3.583287E+05 -1.280612E+04 -5.436180E+02
       388   2  8.315782E+05  6.857222E+04 -2.679375E+04  3.374844E+05 -2.671244E+04 -4.764184E+03
       388   3  8.106575E+05  9.563948E+04 -2.945551E+03  3.296056E+05 -4.036445E+04 -9.650802E+03
       388   4  1.022941E+06  1.579678E+05  1.545127E+04  4.039290E+05 -1.238013E+04 -3.815010E+02
       388   5  1.026959E+06  1.440564E+05  2.619282E+04  3.927148E+05 -2.651557E+04 -4.689481E+03
       388   6  1.026517E+06  1.828347E+05  5.641004E+04  3.944660E+05 -4.039724E+04 -9.663818E+03
       388   7  1.197913E+06  2.217800E+05  6.224265E+04  4.495405E+05 -1.195401E+04 -2.193383E+02
       388   8  1.222377E+06  2.195434E+05  7.917596E+04  4.479609E+05 -2.631862E+04 -4.614751E+03
       388   9  1.242422E+06  2.700347E+05  1.157615E+05  4.593473E+05 -4.043005E+04 -9.676839E+03
       388  10  8.479976E+05  9.415669E+04 -3.134319E+04  3.583287E+05  6.678382E-12 -1.226262E-08
       388  11  8.315774E+05  6.857200E+04 -2.679513E+04  3.374843E+05 -2.902807E-09  1.191463E-08
       388  12  8.106557E+05  9.563894E+04 -2.948783E+03  3.296053E+05  2.805685E-10  1.067081E-08
       388  13  1.022941E+06  1.579677E+05  1.545098E+04  4.039290E+05  2.264368E-09 -7.407946E-09
       388  14  1.026958E+06  1.440562E+05  2.619146E+04  3.927147E+05 -3.463322E-09  9.456805E-10
       388  15  1.026515E+06  1.828342E+05  5.640681E+04  3.944656E+05  1.546580E-09 -1.400585E-09
       388  16  1.197912E+06  2.217799E+05  6.224239E+04  4.495405E+05  1.945937E-09  1.080373E-08
       388  17  1.222376E+06  2.195432E+05  7.917463E+04  4.479608E+05  6.786914E-09 -2.213622E-08
       388  18  1.242420E+06  2.700341E+05  1.157582E+05  4.593470E+05  2.124360E-09 -1.156312E-08
       388  19  8.479978E+05  9.415673E+04 -3.134288E+04  3.583287E+05  1.280612E+04  5.436180E+02
       388  20  8.315782E+05  6.857222E+04 -2.679375E+04  3.374844E+05  2.671244E+04  4.764184E+03
       388  21  8.106575E+05  9.563948E+04 -2.945551E+03  3.296056E+05  4.036445E+04  9.650802E+03
       388  22  1.022941E+06  1.579678E+05  1.545127E+04  4.039290E+05  1.238013E+04  3.815010E+02
       388  23  1.026959E+06  1.440564E+05  2.619282E+04  3.927148E+05  2.651557E+04  4.689481E+03
       388  24  1.026517E+06  1.828347E+05  5.641004E+04  3.944660E+05  4.039724E+04  9.663818E+03
       388  25  1.197913E+06  2.217800E+05  6.224265E+04  4.495405E+05  1.195401E+04  2.193383E+02
       388  26  1.222377E+06  2.195434E+05  7.917596E+04  4.479609E+05  2.631862E+04  4.614751E+03
       388  27  1.242422E+06  2.700347E+05  1.157615E+05  4.593473E+05  4.043005E+04  9.676839E+03
       389   1  7.453956E+05  6.331223E+04 -5.427293E+03  3.524274E+05 -5.261745E+04 -1.256387E+04
       389   2  7.140421E+05 -1.215157E+04  2.999611E+04  3.053500E+05 -1.119414E+05 -3.359877E+04
       389   3  7.672094E+05  1.903871E+05  1.799117E+05  2.143179E+05 -1.688564E+05 -6.096965E+04
       389   4  1.034911E+06  1.533222E+05  6.884263E+04  4.120708E+05 -5.112172E+04 -1.199370E+04
       389   5  1.006234E+06  1.101835E+05  1.109538E+05  3.975834E+05 -1.126132E+05 -3.385667E+04
       389   6  1.062454E+06  3.453951E+05  2.692308E+05  3.391542E+05 -1.716965E+05 -6.206159E+04
       389   7  1.324508E+06  2.433315E+05  1.431062E+05  4.717362E+05 -4.962522E+04 -1.142335E+04
       389   8  1.298507E+06  2.325287E+05  1.919034E+05  4.898575E+05 -1.132854E+05 -3.411473E+04
       389   9  1.357786E+06  5.004341E+05  3.585408E+05  4.640510E+05 -1.745381E+05 -6.315457E+04
       389  10  7.453926E+05  6.331132E+04 -5.432785E+03  3.524269E+05  8.731591E-09  1.110734E-08
       389  11  7.140284E+05 -1.215614E+04  2.997047E+04  3.053470E+05  1.080660E-09 -6.754272E-09
       389  12  7.671778E+05  1.903755E+05  1.798512E+05  2.143096E+05 -3.180460E-09 -8.743254E-09
       389  13  1.034908E+06  1.533213E+05  6.883745E+04  4.120703E+05  5.557967E-10  2.473854E-09
       389  14  1.006220E+06  1.101789E+05  1.109279E+05  3.975804E+05 -2.982598E-10 -1.504966E-08
       389  15  1.062422E+06  3.453831E+05  2.691683E+05  3.391456E+05  1.352661E-09  5.834062E-09
       389  16  1.324505E+06  2.433307E+05  1.431013E+05  4.717357E+05 -1.190161E-08 -1.319279E-08
       389  17  1.298493E+06  2.325240E+05  1.918771E+05  4.898544E+05  5.553994E-10 -9.851172E-09
       389  18  1.357752E+06  5.004217E+05  3.584762E+05  4.640421E+05  1.034484E-09 -5.665714E-09
       389  19  7.453956E+05  6.331223E+04 -5.427293E+03  3.524274E+05  5.261745E+04  1.256387E+04
       389  20  7.140421E+05 -1.215157E+04  2.999611E+04  3.053500E+05  1.119414E+05  3.359877E+04
       389  21  7.672094E+05  1.903871E+05  1.799117E+05  2.143179E+05  1.688564E+05  6.096965E+04
       389  22  1.034911E+06  1.533222E+05  6.884263E+04  4.120708E+05  5.112172E+04  1.199370E+04
       389  23  1.006234E+06  1.101835E+05  1.109538E+05  3.975834E+05  1.126132E+05  3.385667E+04
       389  24  1.062454E+06  3.453951E+05  2.692308E+05  3.391542E+05  1.716965E+05  6.206159E+04
       389  25  1.324508E+06  2.433315E+05  1.431062E+05  4.717362E+05  4.962522E+04  1.142335E+04
       389  26  1.298507E+06  2.325287E+05  1.919034E+05  4.898575E+05  1.132854E+05  3.411473E+04
       389  27  1.357786E+06  5.004341E+05  3.585408E+05  4.640510E+05  1.745381E+05  6.315457E+04
       390   1 -1.888353E+05 -1.088760E+06 -1.946937E+05  8.301313E+04 -4.873640E+03 -2.552433E+04
       390   2 -1.246260E+05 -9.483736E+05 -1.418446E+05  7.459965E+03 -1.318857E+04 -1.255566E+04
       390   3 -9.561009E+04 -8.168756E+05 -1.059488E+05  7.348239E+04 -7.930963E+03  4.536336E+02
       390   4 -2.500649E+04 -4.333095E+05 -3.183573E+04  7.555299E+04 -4.890092E+03 -2.012270E+04
       390   5  4.644892E+03 -4.292787E+05 -1.506365E+04  4.807371E+03 -1.318929E+04 -1.202548E+04
       390   6 -3.328267E+01 -4.332979E+05 -1.184705E+04  7.563113E+04 -7.920747E+03 -3.890607E+03
       390   7  1.387903E+05  2.225318E+05  1.309902E+05  6.808524E+04 -4.906665E+03 -1.471536E+04
       390   8  1.338959E+05  9.006223E+04  1.116976E+05  2.152720E+03 -1.319002E+04 -1.149485E+04
       390   9  9.553263E+04 -4.958606E+04  8.224399E+04  7.778127E+04 -7.910565E+03 -8.237528E+03
       390  10 -1.888355E+05 -1.088761E+06 -1.946950E+05  8.301303E+04 -2.107554E-09 -2.957980E-09
       390  11 -1.246262E+05 -9.483738E+05 -1.418452E+05  7.459832E+03 -3.752082E-09  4.961852E-09
       390  12 -9.561016E+04 -8.168756E+05 -1.059489E+05  7.348239E+04  3.554366E-10 -3.546513E-09
       390  13 -2.500663E+04 -4.333099E+05 -3.183654E+04  7.555291E+04  7.277526E-10 -7.050823E-09
       390  14  4.644666E+03 -4.292789E+05 -1.506425E+04  4.807243E+03 -5.262118E-09  1.369817E-08
       390  15 -3.335409E+01 -4.332980E+05 -1.184720E+04  7.563110E+04 -1.279234E-09  1.557199E-09
       390  16  1.387902E+05  2.225315E+05  1.309898E+05  6.808518E+04 -1.935304E-10  4.037595E-09
       390  17  1.338957E+05  9.006205E+04  1.116970E+05  2.152597E+03  1.427089E-09  1.581689E-08
       390  18  9.553255E+04 -4.958615E+04  8.224374E+04  7.778122E+04 -1.564367E-09  8.250548E-09
       390  19 -1.888353E+05 -1.088760E+06 -1.946937E+05  8.301313E+04  4.873640E+03  2.552433E+04
       390  20 -1.246260E+05 -9.483736E+05 -1.418446E+05  7.459965E+03  1.318857E+04  1.255566E+04
       390  21 -9.561009E+04 -8.168756E+05 -1.059488E+05  7.348239E+04  7.930963E+03 -4.536336E+02
       390  22 -2.500649E+04 -4.333095E+05 -3.183573E+04  7.555299E+04  4.890092E+03  2.012270E+04
       390  23  4.644892E+03 -4.292787E+05 -1.506365E+04  4.807371E+03  1.318929E+04  1.202548E+04
       390  24 -3.328267E+01 -4.332979E+05 -1.184705E+04  7.563113E+04  7.920747E+03  3.890607E+03
       390  25  1.387903E+05  2.225318E+05  1.309902E+05  6.808524E+04  4.906665E+03  1.471536E+04
       390  26  1.338959E+05  9.006223E+04  1.116976E+05  2.152720E+03  1.319002E+04  1.149485E+04
       390  27  9.553263E+04 -4.958606E+04  8.224399E+04  7.778127E+04  7.910565E+03  8.237528E+03
       391   1 -2.802260E+04 -5.318631E+05 -3.557900E+04  7.740826E+04 -2.761487E+03 -5.155565E+02
       391   2  1.097805E+04 -3.936358E+05 -1.490657E+03  4.302732E+03  8.494385E+02  4.904141E+03
       391   3  3.666395E+04 -2.586013E+05  2.590472E+04  7.377750E+04  4.326874E+03  1.032511E+04
       391   4 -3.210455E+03 -4.321832E+05 -1.129121E+04  7.583237E+04 -2.758590E+03 -1.843228E+03
       391   5  1.778367E+03 -4.305744E+05 -1.052815E+04  4.537881E+03  8.523204E+02  3.624417E+03
       391   6 -6.555046E+03 -4.321846E+05 -1.649045E+04  7.582462E+04  4.329722E+03  9.092158E+03
       391   7  2.160096E+04 -3.324942E+05  1.299587E+04  7.425623E+04 -2.755686E+03 -3.171113E+03
       391   8 -7.421416E+03 -4.675119E+05 -1.956574E+04  4.773017E+03  8.552015E+02  2.344770E+03
       391   9 -4.977625E+04 -6.057404E+05 -5.888781E+04  7.787117E+04  4.332561E+03  7.859548E+03
       391  10 -2.802260E+04 -5.318631E+05 -3.557901E+04  7.740826E+04  1.588082E-09 -2.897696E-09
       391  11  1.097804E+04 -3.936358E+05 -1.490704E+03  4.302729E+03  3.300764E-10 -4.157815E-09
       391  12  3.666390E+04 -2.586014E+05  2.590448E+04  7.377747E+04  8.728381E-10 -6.511620E-09
       391  13 -3.210464E+03 -4.321832E+05 -1.129123E+04  7.583236E+04 -1.423995E-09 -2.845148E-09
       391  14  1.778363E+03 -4.305745E+05 -1.052818E+04  4.537878E+03  9.370534E-10  2.641744E-09
       391  15 -6.555088E+03 -4.321847E+05 -1.649064E+04  7.582458E+04  3.172449E-09  1.045854E-10
       391  16  2.160095E+04 -3.324942E+05  1.299584E+04  7.425622E+04 -2.419934E-09  9.354275E-09
       391  17 -7.421418E+03 -4.675119E+05 -1.956575E+04  4.773015E+03 -1.782790E-09  1.303279E-08
       391  18 -4.977629E+04 -6.057404E+05 -5.888796E+04  7.787114E+04 -3.768755E-10  1.006428E-08
       391  19 -2.802260E+04 -5.318631E+05 -3.557900E+04  7.740826E+04  2.761487E+03  5.155565E+02
       391  20  1.097805E+04 -3.936358E+05 -1.490657E+03  4.302732E+03 -8.494385E+02 -4.904141E+03
       391  21  3.666395E+04 -2.586013E+05  2.590472E+04  7.377750E+04 -4.326874E+03 -1.032511E+04
       391  22 -3.210455E+03 -4.321832E+05 -1.129121E+04  7.583237E+04  2.758590E+03  1.843228E+03
       391  23  1.778367E+03 -4.305744E+05 -1.052815E+04  4.537881E+03 -8.523204E+02 -3.624417E+03
       391  24 -6.555046E+03 -4.321846E+05 -1.649045E+04  7.582462E+04 -4.329722E+03 -9.092158E+03
       391  25  2.160096E+04 -3.324942E+05  1.299587E+04  7.425623E+04  2.755686E+03  3.171113E+03
       391  26 -7.421416E+03 -4.675119E+05 -1.956574E+04  4.773017E+03 -8.552015E+02 -2.344770E+03
       391  27 -4.977625E+04 -6.057404E+05 -5.888781E+04  7.787117E+04 -4.332561E+03 -7.859548E+03
       392   1  1.153714E+05  2.213438E+04  9.298732E+04  8.021274E+04  9.642232E+03  1.682915E+04
       392   2  1.567772E+05  1.659646E+05  1.164089E+05  3.785314E+02  1.495067E+04  2.683857E+04
       392   3  1.319734E+05  2.937903E+05  1.171405E+05  6.175835E+04  5.420367E+03  3.680625E+04
       392   4  1.475268E+03 -4.352920E+05 -1.911854E+04  7.558360E+04  9.653474E+03  1.223028E+04
       392   5  9.241185E+03 -4.268179E+05 -2.828879E+04  4.885835E+03  1.494959E+04  2.757004E+04
       392   6 -5.016154E+04 -4.353102E+05 -6.386882E+04  7.541220E+04  5.401034E+03  4.286566E+04
       392   7 -1.124363E+05 -8.925276E+05 -1.312396E+05  7.095798E+04  9.664789E+03  7.634791E+03
       392   8 -1.383207E+05 -1.019280E+06 -1.730121E+05  9.389059E+03  1.494852E+04  2.830080E+04
       392   9 -2.323357E+05 -1.163928E+06 -2.449177E+05  8.905038E+04  5.381958E+03  4.891794E+04
       392  10  1.153712E+05  2.213405E+04  9.298661E+04  8.021261E+04  1.985141E-09 -6.824521E-09
       392  11  1.567768E+05  1.659638E+05  1.164071E+05  3.782084E+02  1.041407E-10  5.330235E-09
       392  12  1.319730E+05  2.937889E+05  1.171379E+05  6.175819E+04 -1.362718E-09  4.183472E-09
       392  13  1.475128E+03 -4.352922E+05 -1.911900E+04  7.558350E+04  2.590941E-10 -3.378067E-09
       392  14  9.240740E+03 -4.268188E+05 -2.829064E+04  4.885503E+03  3.300705E-09  3.344986E-09
       392  15 -5.016206E+04 -4.353122E+05 -6.387233E+04  7.541201E+04 -1.234666E-10  1.690466E-09
       392  16 -1.124364E+05 -8.925277E+05 -1.312399E+05  7.095792E+04  1.478076E-09  1.120828E-08
       392  17 -1.383212E+05 -1.019281E+06 -1.730140E+05  9.388718E+03  3.419734E-09  6.279236E-09
       392  18 -2.323364E+05 -1.163930E+06 -2.449222E+05  8.905017E+04  1.076547E-10  4.481502E-09
       392  19  1.153714E+05  2.213438E+04  9.298732E+04  8.021274E+04 -9.642232E+03 -1.682915E+04
       392  20  1.567772E+05  1.659646E+05  1.164089E+05  3.785314E+02 -1.495067E+04 -2.683857E+04
       392  21  1.319734E+05  2.937903E+05  1.171405E+05  6.175835E+04 -5.420367E+03 -3.680625E+04
       392  22  1.475268E+03 -4.352920E+05 -1.911854E+04  7.558360E+04 -9.653474E+03 -1.223028E+04
       392  23  9.241185E+03 -4.268179E+05 -2.828879E+04  4.885835E+03 -1.494959E+04 -2.757004E+04
       392  24 -5.016154E+04 -4.353102E+05 -6.386882E+04  7.541220E+04 -5.401034E+03 -4.286566E+04
       392  25 -1.124363E+05 -8.925276E+05 -1.312396E+05  7.095798E+04 -9.664789E+03 -7.634791E+03
       392  26 -1.383207E+05 -1.019280E+06 -1.730121E+05  9.389059E+03 -1.494852E+04 -2.830080E+04
       392  27 -2.323357E+05 -1.163928E+06 -2.449177E+05  8.905038E+04 -5.381958E+03 -4.891794E+04
       393   1  7.049042E+05 -4.639495E+04 -3.696991E+04 -2.440766E+03  2.490703E+04  2.495872E+03
       393   2  7.186703E+05 -7.867746E+04 -5.390598E+04  2.346543E+03  1.744609E+04  7.272547E+03
       393   3  7.440381E+05 -6.939609E+04 -5.555107E+04 -1.313985E+04  9.991630E+03  6.362090E+03
       393   4  1.017322E+06  3.149574E+04  4.047805E+04 -9.608503E+03  2.766558E+04  2.499088E+03
       393   5  1.011354E+06 -5.920492E+03  1.749428E+04  5.485318E+02  1.815140E+04  7.273021E+03
       393   6  1.017339E+06 -1.427424E+03  1.122016E+04 -9.567348E+03  8.643939E+03  6.360871E+03
       393   7  1.329827E+06  1.093793E+05  1.179188E+05 -1.677987E+04  3.042552E+04  2.502239E+03
       393   8  1.304117E+06  6.683017E+04  8.888832E+04 -1.250349E+03  1.885704E+04  7.273491E+03
       393   9  1.290707E+06  6.653578E+04  7.798597E+04 -5.993286E+03  7.295656E+03  6.359637E+03
       393  10  7.049035E+05 -4.639512E+04 -3.697108E+04 -2.440816E+03  1.095935E-10  6.816243E-11
       393  11  7.186700E+05 -7.867760E+04 -5.390665E+04  2.346441E+03 -7.059374E-12 -2.673433E-11
       393  12  7.440380E+05 -6.939616E+04 -5.555134E+04 -1.313990E+04  3.263983E-10  8.322945E-11
       393  13  1.017321E+06  3.149553E+04  4.047661E+04 -9.608558E+03  7.613406E-10  3.658008E-11
       393  14  1.011354E+06 -5.920637E+03  1.749357E+04  5.484255E+02  5.694083E-10  5.997285E-11
       393  15  1.017339E+06 -1.427488E+03  1.121995E+04 -9.567392E+03  2.271001E-10 -7.014595E-12
       393  16  1.329827E+06  1.093791E+05  1.179171E+05 -1.677993E+04  9.793875E-10  2.843313E-11
       393  17  1.304116E+06  6.683002E+04  8.888756E+04 -1.250459E+03 -2.692182E-10  7.726496E-12
       393  18  1.290707E+06  6.653572E+04  7.798579E+04 -5.993323E+03 -1.209232E-10 -2.295188E-11
       393  19  7.049042E+05 -4.639495E+04 -3.696991E+04 -2.440766E+03 -2.490703E+04 -2.495872E+03
       393  20  7.186703E+05 -7.867746E+04 -5.390598E+04  2.346543E+03 -1.744609E+04 -7.272547E+03
       393  21  7.440381E+05 -6.939609E+04 -5.555107E+04 -1.313985E+04 -9.991630E+03 -6.362090E+03
       393  22  1.017322E+06  3.149574E+04  4.047805E+04 -9.608503E+03 -2.766558E+04 -2.499088E+03
       393  23  1.011354E+06 -5.920492E+03  1.749428E+04  5.485318E+02 -1.815140E+04 -7.273021E+03
       393  24  1.017339E+06 -1.427424E+03  1.122016E+04 -9.567348E+03 -8.643939E+03 -6.360871E+03
       393  25  1.329827E+06  1.093793E+05  1.179188E+05 -1.677987E+04 -3.042552E+04 -2.502239E+03
       393  26  1.304117E+06  6.683017E+04  8.888832E+04 -1.250349E+03 -1.885704E+04 -7.273491E+03
       393  27  1.290707E+06  6.653578E+04  7.798597E+04 -5.993286E+03 -7.295656E+03 -6.359637E+03
       394   1  7.802651E+05 -5.443901E+04 -4.822696E+04 -8.427196E+03  6.769535E+03  5.111979E+03
       394   2  7.971272E+05 -5.474336E+04 -4.847375E+04  1.887976E+02  4.611163E+03  5.030442E+03
       394   3  8.157172E+05 -4.976781E+04 -4.597056E+04 -9.674874E+03  2.452753E+03  4.379543E+03
       394   4  1.015077E+06  3.965253E+03  9.220677E+03 -9.183170E+03  6.845004E+03  5.111897E+03
       394   5  1.014197E+06 -7.657188E+02  4.561178E+03  5.780162E+01  4.480677E+03  5.030261E+03
       394   6  1.015080E+06 -1.820820E+02  2.793782E+03 -9.180473E+03  2.116373E+03  4.379346E+03
       394   7  1.249938E+06  6.236544E+04  6.666429E+04 -9.939438E+03  6.920502E+03  5.111816E+03
       394   8  1.231309E+06  5.320844E+04  5.759268E+04 -7.324571E+01  4.350145E+03  5.030079E+03
       394   9  1.214479E+06  4.940071E+04  5.155523E+04 -8.685915E+03  1.779885E+03  4.379148E+03
       394  10  7.802651E+05 -5.443905E+04 -4.822710E+04 -8.427224E+03  4.168250E-11 -1.341998E-11
       394  11  7.971271E+05 -5.474339E+04 -4.847384E+04  1.887789E+02 -7.613071E-11  2.396309E-10
       394  12  8.157172E+05 -4.976784E+04 -4.597061E+04 -9.674883E+03  8.224531E-10 -5.819200E-11
       394  13  1.015077E+06  3.965212E+03  9.220540E+03 -9.183198E+03  3.088260E-10 -1.712074E-11
       394  14  1.014197E+06 -7.657514E+02  4.561093E+03  5.778347E+01  1.931823E-10  2.020460E-11
       394  15  1.015080E+06 -1.821038E+02  2.793738E+03 -9.180480E+03  1.606506E-10 -1.411667E-10
       394  16  1.249938E+06  6.236540E+04  6.666415E+04 -9.939466E+03  5.022074E-10 -9.614678E-12
       394  17  1.231309E+06  5.320841E+04  5.759259E+04 -7.326332E+01 -1.415696E-10 -9.924942E-11
       394  18  1.214479E+06  4.940069E+04  5.155519E+04 -8.685921E+03 -8.891935E-10  7.655420E-13
       394  19  7.802651E+05 -5.443901E+04 -4.822696E+04 -8.427196E+03 -6.769535E+03 -5.111979E+03
       394  20  7.971272E+05 -5.474336E+04 -4.847375E+04  1.887976E+02 -4.611163E+03 -5.030442E+03
       394  21  8.157172E+05 -4.976781E+04 -4.597056E+04 -9.674874E+03 -2.452753E+03 -4.379543E+03
       394  22  1.015077E+06  3.965253E+03  9.220677E+03 -9.183170E+03 -6.845004E+03 -5.111897E+03
       394  23  1.014197E+06 -7.657188E+02  4.561178E+03  5.780162E+01 -4.480677E+03 -5.030261E+03
       394  24  1.015080E+06 -1.820820E+02  2.793782E+03 -9.180473E+03 -2.116373E+03 -4.379346E+03
       394  25  1.249938E+06  6.236544E+04  6.666429E+04 -9.939438E+03 -6.920502E+03 -5.111816E+03
       394  26  1.231309E+06  5.320844E+04  5.759268E+04 -7.324571E+01 -4.350145E+03 -5.030079E+03
       394  27  1.214479E+06  4.940071E+04  5.155523E+04 -8.685915E+03 -1.779885E+03 -4.379148E+03
       395   1  8.507510E+05 -4.028875E+04 -3.781676E+04 -8.825514E+03  1.857265E+03  3.931762E+03
       395   2  8.670557E+05 -3.679330E+04 -3.483103E+04 -3.038186E+02  1.252409E+03  3.384512E+03
       395   3  8.836598E+05 -3.262725E+04 -3.127339E+04 -8.945682E+03  6.473173E+02  2.795987E+03
       395   4  1.014759E+06  4.868092E+02  2.221681E+03 -8.888919E+03  1.667830E+03  3.931650E+03
       395   5  1.014608E+06 -1.020205E+02  1.225656E+03 -3.072136E+02  1.047953E+03  3.384435E+03
       395   6  1.014759E+06 -1.766129E+01  8.119381E+02 -8.888812E+03  4.278573E+02  2.795952E+03
       395   7  1.178791E+06  4.126038E+04  4.225816E+04 -8.952343E+03  1.478345E+03  3.931538E+03
       395   8  1.162180E+06  3.658765E+04  3.728076E+04 -3.106100E+02  8.434491E+02  3.384359E+03
       395   9  1.145875E+06  3.259065E+04  3.289601E+04 -8.831930E+03  2.083511E+02  2.795916E+03
       395  10  8.507510E+05 -4.028876E+04 -3.781679E+04 -8.825520E+03  2.189263E-09 -8.947438E-12
       395  11  8.670557E+05 -3.679331E+04 -3.483106E+04 -3.038220E+02 -5.771278E-11  2.432318E-10
       395  12  8.836598E+05 -3.262726E+04 -3.127340E+04 -8.945683E+03 -2.214618E-09  2.407212E-10
       395  13  1.014759E+06  4.867919E+02  2.221647E+03 -8.888925E+03  1.659255E-10  1.110328E-10
       395  14  1.014608E+06 -1.020331E+02  1.225633E+03 -3.072165E+02  8.851654E-11  3.971554E-10
       395  15  1.014759E+06 -1.766974E+01  8.119231E+02 -8.888813E+03  6.904193E-11  6.637905E-11
       395  16  1.178791E+06  4.126036E+04  4.225813E+04 -8.952348E+03 -2.146916E-09 -1.148194E-10
       395  17  1.162180E+06  3.658764E+04  3.728073E+04 -3.106123E+02 -1.648068E-11  4.445431E-10
       395  18  1.145875E+06  3.259065E+04  3.289599E+04 -8.831930E+03  2.227704E-09 -1.017465E-10
       395  19  8.507510E+05 -4.028875E+04 -3.781676E+04 -8.825514E+03 -1.857265E+03 -3.931762E+03
       395  20  8.670557E+05 -3.679330E+04 -3.483103E+04 -3.038186E+02 -1.252409E+03 -3.384512E+03
       395  21  8.836598E+05 -3.262725E+04 -3.127339E+04 -8.945682E+03 -6.473173E+02 -2.795987E+03
       395  22  1.014759E+06  4.868092E+02  2.221681E+03 -8.888919E+03 -1.667830E+03 -3.931650E+03
       395  23  1.014608E+06 -1.020205E+02  1.225656E+03 -3.072136E+02 -1.047953E+03 -3.384435E+03
       395  24  1.014759E+06 -1.766129E+01  8.119381E+02 -8.888812E+03 -4.278573E+02 -2.795952E+03
       395  25  1.178791E+06  4.126038E+04  4.225816E+04 -8.952343E+03 -1.478345E+03 -3.931538E+03
       395  26  1.162180E+06  3.658765E+04  3.728076E+04 -3.106100E+02 -8.434491E+02 -3.384359E+03
       395  27  1.145875E+06  3.259065E+04  3.289601E+04 -8.831930E+03 -2.083511E+02 -2.795916E+03
       396   1  9.168356E+05 -2.427143E+04 -2.317326E+04 -8.688508E+03  4.973191E+02  2.450667E+03
       396   2  9.324502E+05 -2.046503E+04 -1.951153E+04 -5.274753E+02  2.056196E+02  1.883020E+03
       396   3  9.481450E+05 -1.653119E+04 -1.562621E+04 -8.701661E+03 -8.621851E+01  1.321346E+03
       396   4  1.014712E+06  5.679245E+01  6.954492E+02 -8.704790E+03  2.916876E+02  2.450656E+03
       396   5  1.014673E+06 -1.976856E+01  5.806585E+02 -5.372482E+02  2.099615E+00  1.883030E+03
       396   6  1.014712E+06  3.069580E+01  6.879232E+02 -8.704789E+03 -2.876195E+02  1.321378E+03
       396   7  1.112598E+06  2.438431E+04  2.456346E+04 -8.721076E+03  8.602367E+01  2.450644E+03
       396   8  1.096901E+06  2.042500E+04  2.067235E+04 -5.470222E+02 -2.014472E+02  1.883040E+03
       396   9  1.081284E+06  1.659225E+04  1.700173E+04 -8.707917E+03 -4.890420E+02  1.321410E+03
       396  10  9.168356E+05 -2.427144E+04 -2.317327E+04 -8.688509E+03 -6.302465E-10  5.809211E-11
       396  11  9.324502E+05 -2.046504E+04 -1.951153E+04 -5.274756E+02 -5.099951E-12 -3.133089E-10
       396  12  9.481450E+05 -1.653119E+04 -1.562621E+04 -8.701660E+03 -1.273127E-11  1.347246E-10
       396  13  1.014712E+06  5.678598E+01  6.954378E+02 -8.704791E+03 -3.038474E-11  1.424860E-13
       396  14  1.014673E+06 -1.977237E+01  5.806518E+02 -5.372482E+02 -1.760557E-10 -1.348729E-10
       396  15  1.014712E+06  3.069390E+01  6.879198E+02 -8.704789E+03 -1.269558E-10  1.439945E-10
       396  16  1.112598E+06  2.438431E+04  2.456345E+04 -8.721076E+03  5.365629E-10 -1.224216E-10
       396  17  1.096901E+06  2.042499E+04  2.067234E+04 -5.470219E+02  1.325449E-10  1.173311E-10
       396  18  1.081284E+06  1.659225E+04  1.700173E+04 -8.707917E+03  4.153387E-11  7.102749E-11
       396  19  9.168356E+05 -2.427143E+04 -2.317326E+04 -8.688508E+03 -4.973191E+02 -2.450667E+03
       396  20  9.324502E+05 -2.046503E+04 -1.951153E+04 -5.274753E+02 -2.056196E+02 -1.883020E+03
       396  21  9.481450E+05 -1.653119E+04 -1.562621E+04 -8.701661E+03  8.621851E+01 -1.321346E+03
       396  22  1.014712E+06  5.679245E+01  6.954492E+02 -8.704790E+03 -2.916876E+02 -2.450656E+03
       396  23  1.014673E+06 -1.976856E+01  5.806585E+02 -5.372482E+02 -2.099615E+00 -1.883030E+03
       396  24  1.014712E+06  3.069580E+01  6.879232E+02 -8.704789E+03  2.876195E+02 -1.321378E+03
       396  25  1.112598E+06  2.438431E+04  2.456346E+04 -8.721076E+03 -8.602367E+01 -2.450644E+03
       396  26  1.096901E+06  2.042500E+04  2.067235E+04 -5.470222E+02  2.014472E+02 -1.883040E+03
       396  27  1.081284E+06  1.659225E+04  1.700173E+04 -8.707917E+03  4.890420E+02 -1.321410E+03
       397   1  9.801992E+05 -8.577108E+03 -7.584116E+03 -8.583429E+03 -2.211916E+02  9.960271E+02
       397   2  9.954226E+05 -4.832017E+03 -3.461826E+03 -6.347831E+02 -8.417574E+02  4.400803E+02
       397   3  1.010806E+06 -7.344519E+02  1.150294E+03 -8.652551E+03 -1.462367E+03 -1.095231E+02
       397   4  1.014731E+06 -2.655008E-01  8.059614E+02 -8.622877E+03 -4.227737E+02  9.960696E+02
       397   5  1.014651E+06 -5.083147E+01  1.236879E+03 -6.396537E+02 -1.041072E+03  4.401268E+02
       397   6  1.014731E+06  2.506974E+02  2.156066E+03 -8.622812E+03 -1.659398E+03 -1.094718E+02
       397   7  1.049265E+06  8.576489E+03  9.195952E+03 -8.662328E+03 -6.243670E+02  9.961120E+02
       397   8  1.033880E+06  4.730327E+03  5.935556E+03 -6.445245E+02 -1.240392E+03  4.401734E+02
       397   9  1.018655E+06  1.235846E+03  3.161838E+03 -8.593074E+03 -1.856430E+03 -1.094205E+02
       397  10  9.801992E+05 -8.577109E+03 -7.584118E+03 -8.583429E+03 -8.332739E-11  1.746292E-10
       397  11  9.954226E+05 -4.832017E+03 -3.461828E+03 -6.347828E+02 -1.654539E-10 -1.122479E-10
       397  12  1.010806E+06 -7.344525E+02  1.150290E+03 -8.652551E+03 -3.601895E-10  2.932201E-10
       397  13  1.014731E+06 -2.666145E-01  8.059592E+02 -8.622877E+03 -2.386623E-10  2.080077E-10
       397  14  1.014651E+06 -5.083197E+01  1.236876E+03 -6.396534E+02 -3.025706E-10  1.429601E-10
       397  15  1.014731E+06  2.506967E+02  2.156061E+03 -8.622812E+03 -1.685527E-10  3.238198E-10
       397  16  1.049265E+06  8.576488E+03  9.195950E+03 -8.662327E+03 -1.097474E-10 -5.547069E-11
       397  17  1.033880E+06  4.730326E+03  5.935553E+03 -6.445241E+02  1.853635E-10  6.546277E-11
       397  18  1.018655E+06  1.235845E+03  3.161831E+03 -8.593074E+03  2.121135E-10  3.619093E-11
       397  19  9.801992E+05 -8.577108E+03 -7.584116E+03 -8.583429E+03  2.211916E+02 -9.960271E+02
       397  20  9.954226E+05 -4.832017E+03 -3.461826E+03 -6.347831E+02  8.417574E+02 -4.400803E+02
       397  21  1.010806E+06 -7.344519E+02  1.150294E+03 -8.652551E+03  1.462367E+03  1.095231E+02
       397  22  1.014731E+06 -2.655008E-01  8.059614E+02 -8.622877E+03  4.227737E+02 -9.960696E+02
       397  23  1.014651E+06 -5.083147E+01  1.236879E+03 -6.396537E+02  1.041072E+03 -4.401268E+02
       397  24  1.014731E+06  2.506974E+02  2.156066E+03 -8.622812E+03  1.659398E+03  1.094718E+02
       397  25  1.049265E+06  8.576489E+03  9.195952E+03 -8.662328E+03  6.243670E+02 -9.961120E+02
       397  26  1.033880E+06  4.730327E+03  5.935556E+03 -6.445245E+02  1.240392E+03 -4.401734E+02
       397  27  1.018655E+06  1.235846E+03  3.161838E+03 -8.593074E+03  1.856430E+03  1.094205E+02
       398   1  1.042747E+06  6.850439E+03  9.611886E+03 -8.405418E+03 -1.895771E+03 -4.363606E+02
       398   2  1.057644E+06  1.035846E+04  1.521120E+04 -6.893538E+02 -4.261466E+03 -9.923496E+02
       398   3  1.073520E+06  1.657232E+04  2.302418E+04 -9.026190E+03 -6.627119E+03 -1.515298E+03
       398   4  1.014913E+06 -7.950473E+01  2.763738E+03 -8.642231E+03 -2.102260E+03 -4.363085E+02
       398   5  1.014423E+06 -3.878342E+02  4.651199E+03 -6.155507E+02 -4.455898E+03 -9.923133E+02
       398   6  1.014910E+06  2.007783E+03  8.744179E+03 -8.641838E+03 -6.809435E+03 -1.515278E+03
       398   7  9.870792E+05 -7.009506E+03 -4.084467E+03 -8.879033E+03 -2.308741E+03 -4.362563E+02
       398   8  9.712034E+05 -1.113427E+04 -5.908939E+03 -5.417526E+02 -4.650315E+03 -9.922770E+02
       398   9  9.563036E+05 -1.255700E+04 -5.536074E+03 -8.257522E+03 -6.991733E+03 -1.515258E+03
       398  10  1.042747E+06  6.850438E+03  9.611879E+03 -8.405419E+03 -3.008218E-12 -2.645094E-11
       398  11  1.057644E+06  1.035845E+04  1.521117E+04 -6.893573E+02 -7.525645E-11 -1.222536E-11
       398  12  1.073520E+06  1.657230E+04  2.302410E+04 -9.026198E+03 -7.980742E-11 -9.271718E-11
       398  13  1.014913E+06 -7.950612E+01  2.763730E+03 -8.642232E+03 -5.285156E-11 -1.570324E-11
       398  14  1.014423E+06 -3.878406E+02  4.651160E+03 -6.155543E+02  8.445796E-11 -3.028864E-10
       398  15  1.014910E+06  2.007768E+03  8.744087E+03 -8.641846E+03  1.869552E-10 -1.192426E-10
       398  16  9.870792E+05 -7.009508E+03 -4.084477E+03 -8.879034E+03 -2.856966E-10  2.861264E-11
       398  17  9.712034E+05 -1.113427E+04 -5.908982E+03 -5.417563E+02  1.180856E-10 -1.569747E-10
       398  18  9.563036E+05 -1.255702E+04 -5.536170E+03 -8.257530E+03  5.195054E-11 -4.315166E-11
       398  19  1.042747E+06  6.850439E+03  9.611886E+03 -8.405418E+03  1.895771E+03  4.363606E+02
       398  20  1.057644E+06  1.035846E+04  1.521120E+04 -6.893538E+02  4.261466E+03  9.923496E+02
       398  21  1.073520E+06  1.657232E+04  2.302418E+04 -9.026190E+03  6.627119E+03  1.515298E+03
       398  22  1.014913E+06 -7.950473E+01  2.763738E+03 -8.642231E+03  2.102260E+03  4.363085E+02
       398  23  1.014423E+06 -3.878342E+02  4.651199E+03 -6.155507E+02  4.455898E+03  9.923133E+02
       398  24  1.014910E+06  2.007783E+03  8.744179E+03 -8.641838E+03  6.809435E+03  1.515278E+03
       398  25  9.870792E+05 -7.009506E+03 -4.084467E+03 -8.879033E+03  2.308741E+03  4.362563E+02
       398  26  9.712034E+05 -1.113427E+04 -5.908939E+03 -5.417526E+02  4.650315E+03  9.922770E+02
       398  27  9.563036E+05 -1.255700E+04 -5.536074E+03 -8.257522E+03  6.991733E+03  1.515258E+03
       399   1  1.107152E+06  2.193497E+04  3.333608E+04 -6.973414E+03 -8.303194E+03 -1.898891E+03
       399   2  1.119757E+06  2.354875E+04  4.435045E+04 -1.335891E+03 -1.788491E+04 -2.482419E+03
       399   3  1.138971E+06  4.653579E+04  6.694269E+04 -1.228808E+04 -2.746692E+04 -2.706338E+03
       399   4  1.016157E+06 -6.972260E+02  1.105975E+04 -8.761447E+03 -8.577884E+03 -1.898845E+03
       399   5  1.012858E+06 -3.028051E+03  1.823961E+04 -4.666921E+02 -1.802854E+04 -2.482464E+03
       399   6  1.016146E+06  1.599368E+04  3.690793E+04 -8.761724E+03 -2.747924E+04 -2.706528E+03
       399   7  9.251699E+05 -2.333002E+04 -1.121719E+04 -1.054922E+04 -8.852534E+03 -1.898797E+03
       399   8  9.059690E+05 -2.960569E+04 -7.872064E+03  4.023572E+02 -1.817214E+04 -2.482509E+03
       399   9  8.933346E+05 -1.454950E+04  6.872082E+03 -5.236063E+03 -2.749155E+04 -2.706719E+03
       399  10  1.107152E+06  2.193495E+04  3.333594E+04 -6.973427E+03 -1.683676E-11  3.013951E-11
       399  11  1.119756E+06  2.354866E+04  4.434983E+04 -1.335927E+03 -1.347802E-10  5.622949E-11
       399  12  1.138970E+06  4.653558E+04  6.694126E+04 -1.228814E+04  6.357695E-11  2.832738E-10
       399  13  1.016157E+06 -6.972496E+02  1.105960E+04 -8.761460E+03  2.103624E-10  1.232242E-11
       399  14  1.012857E+06 -3.028145E+03  1.823899E+04 -4.667281E+02 -4.219627E-11  1.879065E-10
       399  15  1.016145E+06  1.599347E+04  3.690650E+04 -8.761783E+03 -1.307541E-10  8.198996E-11
       399  16  9.251698E+05 -2.333005E+04 -1.121734E+04 -1.054923E+04  5.674946E-11 -5.020776E-11
       399  17  9.059687E+05 -2.960579E+04 -7.872695E+03  4.023208E+02  4.974071E-12  1.368126E-10
       399  18  8.933338E+05 -1.454971E+04  6.870650E+03 -5.236123E+03 -2.646215E-10 -1.456121E-10
       399  19  1.107152E+06  2.193497E+04  3.333608E+04 -6.973414E+03  8.303194E+03  1.898891E+03
       399  20  1.119757E+06  2.354875E+04  4.435045E+04 -1.335891E+03  1.788491E+04  2.482419E+03
       399  21  1.138971E+06  4.653579E+04  6.694269E+04 -1.228808E+04  2.746692E+04  2.706338E+03
       399  22  1.016157E+06 -6.972260E+02  1.105975E+04 -8.761447E+03  8.577884E+03  1.898845E+03
       399  23  1.012858E+06 -3.028051E+03  1.823961E+04 -4.666921E+02  1.802854E+04  2.482464E+03
       399  24  1.016146E+06  1.599368E+04  3.690793E+04 -8.761724E+03  2.747924E+04  2.706528E+03
       399  25  9.251699E+05 -2.333002E+04 -1.121719E+04 -1.054922E+04  8.852534E+03  1.898797E+03
       399  26  9.059690E+05 -2.960569E+04 -7.872064E+03  4.023572E+02  1.817214E+04  2.482509E+03
       399  27  8.933346E+05 -1.454950E+04  6.872082E+03 -5.236063E+03  2.749155E+04  2.706719E+03
       400   1  1.181883E+06  3.333832E+04  8.320954E+04  4.700918E+03 -3.377639E+04 -3.588665E+03
       400   2  1.175183E+06  1.949420E+04  1.124909E+05 -8.309940E+03 -7.318076E+04 -4.335559E+03
       400   3  1.215700E+06  1.738091E+05  2.094484E+05 -3.892377E+04 -1.125870E+05 -1.530181E+03
       400   4  1.025141E+06 -5.634961E+03  4.491235E+04 -8.972762E+03 -3.467811E+04 -3.588072E+03
       400   5  1.001606E+06 -2.364033E+04  7.016356E+04 -1.957609E+02 -7.279334E+04 -4.336498E+03
       400   6  1.025077E+06  1.263133E+05  1.622104E+05 -9.020683E+03 -1.109093E+05 -1.534975E+03
       400   7  8.684215E+05 -4.460935E+04  6.613476E+03 -2.264299E+04 -3.557960E+04 -3.587440E+03
       400   8  8.280561E+05 -6.677684E+04  2.783411E+04  7.916146E+03 -7.240603E+04 -4.337426E+03
       400   9  8.344892E+05  7.881818E+04  1.149702E+05  2.087323E+04 -1.092321E+05 -1.539610E+03
       400  10  1.181882E+06  3.333800E+04  8.320738E+04  4.700820E+03  3.174080E-10  2.414864E-10
       400  11  1.175177E+06  1.949275E+04  1.124808E+05 -8.310195E+03  4.032905E-11  1.227901E-10
       400  12  1.215686E+06  1.738057E+05  2.094246E+05 -3.892391E+04 -2.620603E-11  2.656733E-12
       400  13  1.025140E+06 -5.635297E+03  4.491007E+04 -8.972862E+03  7.317729E-11  1.638963E-10
       400  14  1.001600E+06 -2.364177E+04  7.015359E+04 -1.960150E+02  9.839903E-11  1.195762E-10
       400  15  1.025064E+06  1.263100E+05  1.621873E+05 -9.020820E+03 -6.560965E-11 -4.151323E-11
       400  16  8.684201E+05 -4.460970E+04  6.611076E+03 -2.264309E+04  4.613002E-11  2.051292E-11
       400  17  8.280505E+05 -6.677827E+04  2.782423E+04  7.915893E+03  1.371153E-11  3.577852E-10
       400  18  8.344764E+05  7.881498E+04  1.149478E+05  2.087310E+04 -2.468033E-11  1.590891E-10
       400  19  1.181883E+06  3.333832E+04  8.320954E+04  4.700918E+03  3.377639E+04  3.588665E+03
       400  20  1.175183E+06  1.949420E+04  1.124909E+05 -8.309940E+03  7.318076E+04  4.335559E+03
       400  21  1.215700E+06  1.738091E+05  2.094484E+05 -3.892377E+04  1.125870E+05  1.530181E+03
       400  22  1.025141E+06 -5.634961E+03  4.491235E+04 -8.972762E+03  3.467811E+04  3.588072E+03
       400  23  1.001606E+06 -2.364033E+04  7.016356E+04 -1.957609E+02  7.279334E+04  4.336498E+03
       400  24  1.025077E+06  1.263133E+05  1.622104E+05 -9.020683E+03  1.109093E+05  1.534975E+03
       400  25  8.684215E+05 -4.460935E+04  6.613476E+03 -2.264299E+04  3.557960E+04  3.587440E+03
       400  26  8.280561E+05 -6.677684E+04  2.783411E+04  7.916146E+03  7.240603E+04  4.337426E+03
       400  27  8.344892E+05  7.881818E+04  1.149702E+05  2.087323E+04  1.092321E+05  1.539610E+03
       401   1  9.685414E+03 -6.841748E+04 -6.160241E+04 -7.489223E+03  1.615813E+04  2.867553E+03
       401   2  2.885453E+04 -8.853664E+04 -7.055915E+04  7.925648E+02  1.189401E+04  8.416211E+03
       401   3  5.608510E+04 -7.966180E+04 -6.943906E+04 -1.494579E+04  7.631293E+03  7.335239E+03
       401   4  3.722368E+05  2.206333E+04  2.834536E+04 -1.262437E+04  1.935722E+04  2.868413E+03
       401   5  3.680034E+05 -4.161244E+03  1.223801E+04 -6.114739E+02  1.270312E+04  8.415943E+03
       401   6  3.722417E+05 -9.854008E+02  7.862398E+03 -1.261785E+04  6.050644E+03  7.335384E+03
       401   7  7.349076E+05  1.125344E+05  1.182834E+05 -1.776253E+04  2.255817E+04  2.869219E+03
       401   8  7.072571E+05  8.020567E+04  9.502680E+04 -2.016283E+03  1.351266E+04  8.415672E+03
       401   9  6.884894E+05  7.768364E+04  8.515657E+04 -1.028872E+04  4.469192E+03  7.335517E+03
       401  10  9.685131E+03 -6.841756E+04 -6.160292E+04 -7.489260E+03  1.481810E-10  3.375013E-11
       401  11  2.885436E+04 -8.853676E+04 -7.055954E+04  7.924841E+02  2.636822E-10  8.785578E-11
       401  12  5.608503E+04 -7.966188E+04 -6.943927E+04 -1.494583E+04 -1.378026E-10 -1.852373E-10
       401  13  3.722364E+05  2.206322E+04  2.834464E+04 -1.262442E+04  1.898784E-10  6.079836E-11
       401  14  3.680032E+05 -4.161363E+03  1.223758E+04 -6.115600E+02 -2.092341E-11  8.685721E-12
       401  15  3.722416E+05 -9.854685E+02  7.862228E+03 -1.261789E+04 -5.036559E-11  5.299336E-11
       401  16  7.349070E+05  1.125343E+05  1.182824E+05 -1.776259E+04  4.137499E-10  1.158386E-10
       401  17  7.072569E+05  8.020554E+04  9.502632E+04 -2.016375E+03 -2.535609E-10  3.127468E-11
       401  18  6.884893E+05  7.768357E+04  8.515643E+04 -1.028874E+04 -7.317733E-11  1.824060E-10
       401  19  9.685414E+03 -6.841748E+04 -6.160241E+04 -7.489223E+03 -1.615813E+04 -2.867553E+03
       401  20  2.885453E+04 -8.853664E+04 -7.055915E+04  7.925648E+02 -1.189401E+04 -8.416211E+03
       401  21  5.608510E+04 -7.966180E+04 -6.943906E+04 -1.494579E+04 -7.631293E+03 -7.335239E+03
       401  22  3.722368E+05  2.206333E+04  2.834536E+04 -1.262437E+04 -1.935722E+04 -2.868413E+03
       401  23  3.680034E+05 -4.161244E+03  1.223801E+04 -6.114739E+02 -1.270312E+04 -8.415943E+03
       401  24  3.722417E+05 -9.854008E+02  7.862398E+03 -1.261785E+04 -6.050644E+03 -7.335384E+03
       401  25  7.349076E+05  1.125344E+05  1.182834E+05 -1.776253E+04 -2.255817E+04 -2.869219E+03
       401  26  7.072571E+05  8.020567E+04  9.502680E+04 -2.016283E+03 -1.351266E+04 -8.415672E+03
       401  27  6.884894E+05  7.768364E+04  8.515657E+04 -1.028872E+04 -4.469192E+03 -7.335517E+03
       402   1  1.017181E+05 -6.415525E+04 -5.938097E+04 -1.178438E+04  4.716656E+03  5.862082E+03
       402   2  1.234956E+05 -6.188823E+04 -5.707774E+04 -5.400856E+02  3.306516E+03  5.716258E+03
       402   3  1.464890E+05 -5.589853E+04 -5.290492E+04 -1.265039E+04  1.895515E+03  4.885683E+03
       402   4  3.706461E+05  2.785680E+03  6.459911E+03 -1.247068E+04  4.788621E+03  5.861887E+03
       402   5  3.700179E+05 -5.415092E+02  3.196506E+03 -7.942723E+02  3.131307E+03  5.716210E+03
       402   6  3.706473E+05 -1.039654E+02  1.973630E+03 -1.247186E+04  1.473180E+03  4.885900E+03
       402   7  6.396399E+05  6.972126E+04  7.229550E+04 -1.315727E+04  4.860616E+03  5.861693E+03
       402   8  6.165956E+05  6.080072E+04  6.346632E+04 -1.048552E+03  2.956028E+03  5.716163E+03
       402   9  5.948513E+05  5.568688E+04  5.684851E+04 -1.229326E+04  1.050692E+03  4.886118E+03
       402  10  1.017180E+05 -6.415529E+04 -5.938108E+04 -1.178440E+04  5.458205E-11 -8.684508E-11
       402  11  1.234956E+05 -6.188827E+04 -5.707783E+04 -5.401008E+02 -7.381804E-11 -1.387051E-10
       402  12  1.464890E+05 -5.589856E+04 -5.290498E+04 -1.265040E+04 -2.514371E-10  3.769869E-10
       402  13  3.706460E+05  2.785637E+03  6.459803E+03 -1.247070E+04 -3.770513E-10 -9.293721E-12
       402  14  3.700179E+05 -5.415469E+02  3.196426E+03 -7.942867E+02  4.381239E-11 -6.134139E-10
       402  15  3.706473E+05 -1.039916E+02  1.973581E+03 -1.247187E+04 -9.348941E-11  3.045306E-10
       402  16  6.396399E+05  6.972121E+04  7.229539E+04 -1.315730E+04 -2.130734E-10 -3.363027E-11
       402  17  6.165956E+05  6.080069E+04  6.346624E+04 -1.048566E+03  3.886686E-10 -3.970242E-10
       402  18  5.948513E+05  5.568686E+04  5.684846E+04 -1.229327E+04  2.047713E-10  1.849804E-10
       402  19  1.017181E+05 -6.415525E+04 -5.938097E+04 -1.178438E+04 -4.716656E+03 -5.862082E+03
       402  20  1.234956E+05 -6.188823E+04 -5.707774E+04 -5.400856E+02 -3.306516E+03 -5.716258E+03
       402  21  1.464890E+05 -5.589853E+04 -5.290492E+04 -1.265039E+04 -1.895515E+03 -4.885683E+03
       402  22  3.706461E+05  2.785680E+03  6.459911E+03 -1.247068E+04 -4.788621E+03 -5.861887E+03
       402  23  3.700179E+05 -5.415092E+02  3.196506E+03 -7.942723E+02 -3.131307E+03 -5.716210E+03
       402  24  3.706473E+05 -1.039654E+02  1.973630E+03 -1.247186E+04 -1.473180E+03 -4.885900E+03
       402  25  6.396399E+05  6.972126E+04  7.229550E+04 -1.315727E+04 -4.860616E+03 -5.861693E+03
       402  26  6.165956E+05  6.080072E+04  6.346632E+04 -1.048552E+03 -2.956028E+03 -5.716163E+03
       402  27  5.948513E+05  5.568688E+04  5.684851E+04 -1.229326E+04 -1.050692E+03 -4.886118E+03
       403   1  1.921877E+05 -4.398189E+04 -4.195610E+04 -1.217273E+04  1.404701E+03  4.316154E+03
       403   2  2.139677E+05 -3.897999E+04 -3.734224E+04 -8.110964E+02  9.763567E+02  3.589879E+03
       403   3  2.359297E+05 -3.346164E+04 -3.232125E+04 -1.227852E+04  5.476030E+02  2.798848E+03
       403   4  3.704147E+05  3.592214E+02  1.575264E+03 -1.235447E+04  1.154920E+03  4.316294E+03
       403   5  3.703220E+05 -7.190275E+01  8.924109E+02 -9.402769E+02  7.031403E+02  3.590094E+03
       403   6  3.704151E+05  1.746267E+01  6.328990E+02 -1.235478E+04  2.509654E+02  2.799148E+03
       403   7  5.486706E+05  4.469799E+04  4.510431E+04 -1.253626E+04  9.050688E+02  4.316434E+03
       403   8  5.266987E+05  3.883438E+04  3.912527E+04 -1.069484E+03  4.298553E+02  3.590310E+03
       403   9  5.049170E+05  3.349522E+04  3.358572E+04 -1.243105E+04 -4.573637E+01  2.799448E+03
       403  10  1.921877E+05 -4.398191E+04 -4.195614E+04 -1.217273E+04  2.366587E-10  2.437214E-11
       403  11  2.139676E+05 -3.898001E+04 -3.734226E+04 -8.110992E+02 -2.092281E-10  1.267010E-10
       403  12  2.359297E+05 -3.346165E+04 -3.232126E+04 -1.227852E+04 -7.923535E-10 -3.790845E-10
       403  13  3.704147E+05  3.592010E+02  1.575226E+03 -1.235448E+04 -4.516300E-10  1.394151E-10
       403  14  3.703220E+05 -7.191672E+01  8.923857E+02 -9.402789E+02 -6.943315E-10  4.265529E-10
       403  15  3.704151E+05  1.745423E+01  6.328842E+02 -1.235478E+04 -4.852655E-10  1.064975E-09
       403  16  5.486706E+05  4.469797E+04  4.510427E+04 -1.253626E+04 -9.480504E-10  2.138448E-10
       403  17  5.266987E+05  3.883437E+04  3.912525E+04 -1.069486E+03  3.729477E-10 -9.600430E-10
       403  18  5.049170E+05  3.349521E+04  3.358571E+04 -1.243105E+04  7.534570E-10  9.962257E-11
       403  19  1.921877E+05 -4.398189E+04 -4.195610E+04 -1.217273E+04 -1.404701E+03 -4.316154E+03
       403  20  2.139677E+05 -3.897999E+04 -3.734224E+04 -8.110964E+02 -9.763567E+02 -3.589879E+03
       403  21  2.359297E+05 -3.346164E+04 -3.232125E+04 -1.227852E+04 -5.476030E+02 -2.798848E+03
       403  22  3.704147E+05  3.592214E+02  1.575264E+03 -1.235447E+04 -1.154920E+03 -4.316294E+03
       403  23  3.703220E+05 -7.190275E+01  8.924109E+02 -9.402769E+02 -7.031403E+02 -3.590094E+03
       403  24  3.704151E+05  1.746267E+01  6.328990E+02 -1.235478E+04 -2.509654E+02 -2.799148E+03
       403  25  5.486706E+05  4.469799E+04  4.510431E+04 -1.253626E+04 -9.050688E+02 -4.316434E+03
       403  26  5.266987E+05  3.883438E+04  3.912527E+04 -1.069484E+03 -4.298553E+02 -3.590310E+03
       403  27  5.049170E+05  3.349522E+04  3.358572E+04 -1.243105E+04  4.573637E+01 -2.799448E+03
       404   1  2.810006E+05 -2.216296E+04 -2.122075E+04 -1.219832E+04  4.209000E+02  2.331004E+03
       404   2  3.025805E+05 -1.688363E+04 -1.602606E+04 -9.568534E+02  1.466454E+02  1.554279E+03
       404   3  3.241763E+05 -1.144549E+04 -1.062579E+04 -1.224733E+04 -1.277638E+02  7.742359E+02
       404   4  3.703805E+05  6.489820E+01  5.698273E+02 -1.228868E+04  1.416730E+02  2.331316E+03
       404   5  3.703726E+05 -1.464306E+01  5.513760E+02 -1.022785E+03 -1.338081E+02  1.554617E+03
       404   6  3.703806E+05  6.494668E+01  7.394564E+02 -1.228868E+04 -4.094343E+02  7.746014E+02
       404   7  4.597677E+05  2.229216E+04  2.235982E+04 -1.237905E+04 -1.375940E+02  2.331629E+03
       404   8  4.381688E+05  1.685400E+04  1.712848E+04 -1.088723E+03 -4.142921E+02  1.554955E+03
       404   9  4.165869E+05  1.157522E+04  1.210455E+04 -1.233003E+04 -6.911257E+02  7.749670E+02
       404  10  2.810006E+05 -2.216296E+04 -2.122076E+04 -1.219832E+04  4.559906E-11  1.106648E-11
       404  11  3.025805E+05 -1.688363E+04 -1.602606E+04 -9.568536E+02  8.883224E-11  2.324324E-11
       404  12  3.241763E+05 -1.144549E+04 -1.062579E+04 -1.224733E+04 -2.233307E-10 -5.807902E-11
       404  13  3.703805E+05  6.489236E+01  5.698171E+02 -1.228868E+04 -6.950936E-10 -6.349580E-10
       404  14  3.703726E+05 -1.464566E+01  5.513714E+02 -1.022785E+03 -1.065560E-09  2.542259E-10
       404  15  3.703806E+05  6.494599E+01  7.394549E+02 -1.228868E+04 -4.496379E-10 -4.983910E-10
       404  16  4.597677E+05  2.229216E+04  2.235981E+04 -1.237905E+04 -9.622621E-10  5.414733E-10
       404  17  4.381688E+05  1.685400E+04  1.712847E+04 -1.088722E+03  1.349730E-10 -5.159150E-10
       404  18  4.165869E+05  1.157522E+04  1.210454E+04 -1.233003E+04  1.459938E-10 -1.049792E-09
       404  19  2.810006E+05 -2.216296E+04 -2.122075E+04 -1.219832E+04 -4.209000E+02 -2.331004E+03
       404  20  3.025805E+05 -1.688363E+04 -1.602606E+04 -9.568534E+02 -1.466454E+02 -1.554279E+03
       404  21  3.241763E+05 -1.144549E+04 -1.062579E+04 -1.224733E+04  1.277638E+02 -7.742359E+02
       404  22  3.703805E+05  6.489820E+01  5.698273E+02 -1.228868E+04 -1.416730E+02 -2.331316E+03
       404  23  3.703726E+05 -1.464306E+01  5.513760E+02 -1.022785E+03  1.338081E+02 -1.554617E+03
       404  24  3.703806E+05  6.494668E+01  7.394564E+02 -1.228868E+04  4.094343E+02 -7.746014E+02
       404  25  4.597677E+05  2.229216E+04  2.235982E+04 -1.237905E+04  1.375940E+02 -2.331629E+03
       404  26  4.381688E+05  1.685400E+04  1.712848E+04 -1.088723E+03  4.142921E+02 -1.554955E+03
       404  27  4.165869E+05  1.157522E+04  1.210455E+04 -1.233003E+04  6.911257E+02 -7.749670E+02
       405   1  3.689555E+05 -3.243007E+02  6.127543E+02 -1.223331E+04 -2.767713E+02  3.190317E+02
       405   2  3.904140E+05  4.936946E+03  6.354315E+03 -1.057310E+03 -1.001970E+03 -4.593606E+02
       405   3  4.120121E+05  1.066276E+04  1.266892E+04 -1.235028E+04 -1.727157E+03 -1.232953E+03
       405   4  3.704085E+05  2.399217E+01  9.011896E+02 -1.227487E+04 -5.583175E+02  3.194039E+02
       405   5  3.703391E+05 -5.808978E+01  1.445676E+03 -1.040167E+03 -1.281772E+03 -4.589988E+02
       405   6  3.704083E+05  3.240648E+02  2.561969E+03 -1.227448E+04 -2.005189E+03 -1.232600E+03
       405   7  3.718615E+05  3.722850E+02  1.189625E+03 -1.231643E+04 -8.398645E+02  3.197763E+02
       405   8  3.502646E+05 -5.053155E+03 -3.462993E+03 -1.023024E+03 -1.561565E+03 -4.586370E+02
       405   9  3.288060E+05 -1.001476E+04 -7.545105E+03 -1.219868E+04 -2.283203E+03 -1.232247E+03
       405  10  3.689555E+05 -3.243008E+02  6.127539E+02 -1.223331E+04 -4.887075E-10  1.024489E-09
       405  11  3.904140E+05  4.936946E+03  6.354312E+03 -1.057310E+03 -1.430045E-10  2.061051E-09
       405  12  4.120121E+05  1.066276E+04  1.266891E+04 -1.235029E+04  6.291964E-10 -1.259322E-09
       405  13  3.704085E+05  2.399198E+01  9.011888E+02 -1.227487E+04 -9.634928E-10  1.212062E-10
       405  14  3.703391E+05 -5.809045E+01  1.445672E+03 -1.040167E+03 -9.302795E-10 -5.284950E-10
       405  15  3.704083E+05  3.240620E+02  2.561959E+03 -1.227448E+04 -5.329001E-10  9.718561E-11
       405  16  3.718615E+05  3.722847E+02  1.189624E+03 -1.231643E+04 -6.440438E-10  3.043230E-10
       405  17  3.502646E+05 -5.053156E+03 -3.462998E+03 -1.023025E+03  4.800375E-10 -4.628999E-10
       405  18  3.288060E+05 -1.001477E+04 -7.545117E+03 -1.219868E+04 -9.212923E-10 -2.627231E-11
       405  19  3.689555E+05 -3.243007E+02  6.127543E+02 -1.223331E+04  2.767713E+02 -3.190317E+02
       405  20  3.904140E+05  4.936946E+03  6.354315E+03 -1.057310E+03  1.001970E+03  4.593606E+02
       405  21  4.120121E+05  1.066276E+04  1.266892E+04 -1.235028E+04  1.727157E+03  1.232953E+03
       405  22  3.704085E+05  2.399217E+01  9.011896E+02 -1.227487E+04  5.583175E+02 -3.194039E+02
       405  23  3.703391E+05 -5.808978E+01  1.445676E+03 -1.040167E+03  1.281772E+03  4.589988E+02
       405  24  3.704083E+05  3.240648E+02  2.561969E+03 -1.227448E+04  2.005189E+03  1.232600E+03
       405  25  3.718615E+05  3.722850E+02  1.189625E+03 -1.231643E+04  8.398645E+02 -3.197763E+02
       405  26  3.502646E+05 -5.053155E+03 -3.462993E+03 -1.023024E+03  1.561565E+03  4.586370E+02
       405  27  3.288060E+05 -1.001476E+04 -7.545105E+03 -1.219868E+04  2.283203E+03  1.232247E+03
       406   1  4.570962E+05  2.145605E+04  2.450456E+04 -1.210483E+04 -2.239673E+03 -1.696303E+03
       406   2  4.782122E+05  2.644461E+04  3.200690E+04 -1.166783E+03 -5.076447E+03 -2.478891E+03
       406   3  5.004804E+05  3.472273E+04  4.216892E+04 -1.286508E+04 -7.913035E+03 -3.204158E+03
       406   4  3.706310E+05 -6.981435E+01  3.296694E+03 -1.231289E+04 -2.532880E+03 -1.695949E+03
       406   5  3.700562E+05 -4.654137E+02  5.563137E+03 -9.932357E+02 -5.348570E+03 -2.478605E+03
       406   6  3.706299E+05  2.425261E+03  1.047503E+04 -1.231016E+04 -8.163976E+03 -3.203937E+03
       406   7  2.841726E+05 -2.159623E+04 -1.791172E+04 -1.252092E+04 -2.826047E+03 -1.695594E+03
       406   8  2.619109E+05 -2.737631E+04 -2.088148E+04 -8.197153E+02 -5.620646E+03 -2.478318E+03
       406   9  2.407947E+05 -2.987345E+04 -2.122009E+04 -1.175535E+04 -8.414866E+03 -3.203716E+03
       406  10  4.570962E+05  2.145604E+04  2.450455E+04 -1.210484E+04 -1.563901E-10 -1.490288E-09
       406  11  4.782122E+05  2.644460E+04  3.200684E+04 -1.166793E+03 -3.107091E-10  1.804633E-10
       406  12  5.004803E+05  3.472270E+04  4.216879E+04 -1.286510E+04 -7.943575E-10  5.341815E-10
       406  13  3.706310E+05 -6.981916E+01  3.296676E+03 -1.231290E+04 -1.269431E-09 -4.543362E-11
       406  14  3.700562E+05 -4.654280E+02  5.563072E+03 -9.932464E+02 -6.830522E-10 -8.991469E-10
       406  15  3.706298E+05  2.425232E+03  1.047488E+04 -1.231018E+04 -1.202143E-10 -4.553483E-10
       406  16  2.841726E+05 -2.159623E+04 -1.791174E+04 -1.252092E+04 -1.138024E-09  4.522865E-11
       406  17  2.619109E+05 -2.737632E+04 -2.088156E+04 -8.197266E+02  7.652207E-10  1.256348E-09
       406  18  2.407946E+05 -2.987348E+04 -2.122025E+04 -1.175537E+04  7.080137E-10  5.572620E-10
       406  19  4.570962E+05  2.145605E+04  2.450456E+04 -1.210483E+04  2.239673E+03  1.696303E+03
       406  20  4.782122E+05  2.644461E+04  3.200690E+04 -1.166783E+03  5.076447E+03  2.478891E+03
       406  21  5.004804E+05  3.472273E+04  4.216892E+04 -1.286508E+04  7.913035E+03  3.204158E+03
       406  22  3.706310E+05 -6.981435E+01  3.296694E+03 -1.231289E+04  2.532880E+03  1.695949E+03
       406  23  3.700562E+05 -4.654137E+02  5.563137E+03 -9.932357E+02  5.348570E+03  2.478605E+03
       406  24  3.706299E+05  2.425261E+03  1.047503E+04 -1.231016E+04  8.163976E+03  3.203937E+03
       406  25  2.841726E+05 -2.159623E+04 -1.791172E+04 -1.252092E+04  2.826047E+03  1.695594E+03
       406  26  2.619109E+05 -2.737631E+04 -2.088148E+04 -8.197153E+02  5.620646E+03  2.478318E+03
       406  27  2.407947E+05 -2.987345E+04 -2.122009E+04 -1.175535E+04  8.414866E+03  3.203716E+03
       407   1  5.474232E+05  4.280348E+04  5.617117E+04 -1.038150E+04 -9.882351E+03 -3.753413E+03
       407   2  5.655240E+05  4.546386E+04  7.009659E+04 -2.042208E+03 -2.142314E+04 -4.563069E+03
       407   3  5.915836E+05  7.380800E+04  9.795907E+04 -1.672849E+04 -3.296344E+04 -4.781181E+03
       407   4  3.721320E+05 -8.150081E+02  1.325439E+04 -1.240344E+04 -1.028255E+04 -3.753046E+03
       407   5  3.681676E+05 -3.636854E+03  2.185714E+04 -8.834140E+02 -2.160706E+04 -4.563046E+03
       407   6  3.721270E+05  1.919218E+04  4.425025E+04 -1.238935E+04 -3.293067E+04 -4.781536E+03
       407   7  1.968688E+05 -4.443576E+04 -2.966463E+04 -1.442481E+04 -1.068264E+04 -3.752677E+03
       407   8  1.708466E+05 -5.274044E+04 -2.638516E+04  2.750188E+02 -2.179092E+04 -4.563024E+03
       407   9  1.527143E+05 -3.542715E+04 -9.462087E+03 -8.051740E+03 -3.289791E+04 -4.781891E+03
       407  10  5.474231E+05  4.280344E+04  5.617096E+04 -1.038153E+04 -3.184744E-11  9.446804E-10
       407  11  5.655235E+05  4.546372E+04  7.009569E+04 -2.042287E+03  3.432356E-10 -5.548866E-10
       407  12  5.915824E+05  7.380769E+04  9.795699E+04 -1.672862E+04  8.379859E-11 -2.574467E-10
       407  13  3.721319E+05 -8.150516E+02  1.325417E+04 -1.240347E+04 -7.856201E-10  8.195994E-10
       407  14  3.681671E+05 -3.637001E+03  2.185622E+04 -8.834934E+02 -9.716814E-10  9.367165E-10
       407  15  3.721259E+05  1.919186E+04  4.424817E+04 -1.238948E+04 -8.859012E-11 -5.384816E-10
       407  16  1.968687E+05 -4.443580E+04 -2.966487E+04 -1.442484E+04 -6.964139E-10  5.874944E-10
       407  17  1.708460E+05 -5.274059E+04 -2.638609E+04  2.749387E+02  1.290685E-10  1.093180E-10
       407  18  1.527132E+05 -3.542746E+04 -9.464163E+03 -8.051867E+03 -1.255091E-10 -7.332090E-10
       407  19  5.474232E+05  4.280348E+04  5.617117E+04 -1.038150E+04  9.882351E+03  3.753413E+03
       407  20  5.655240E+05  4.546386E+04  7.009659E+04 -2.042208E+03  2.142314E+04  4.563069E+03
       407  21  5.915836E+05  7.380800E+04  9.795907E+04 -1.672849E+04  3.296344E+04  4.781181E+03
       407  22  3.721320E+05 -8.150081E+02  1.325439E+04 -1.240344E+04  1.028255E+04  3.753046E+03
       407  23  3.681676E+05 -3.636854E+03  2.185714E+04 -8.834140E+02  2.160706E+04  4.563046E+03
       407  24  3.721270E+05  1.919218E+04  4.425025E+04 -1.238935E+04  3.293067E+04  4.781536E+03
       407  25  1.968688E+05 -4.443576E+04 -2.966463E+04 -1.442481E+04  1.068264E+04  3.752677E+03
       407  26  1.708466E+05 -5.274044E+04 -2.638516E+04  2.750188E+02  2.179092E+04  4.563024E+03
       407  27  1.527143E+05 -3.542715E+04 -9.462087E+03 -8.051740E+03  3.289791E+04  4.781891E+03
       408   1  6.488521E+05  5.939149E+04  1.188537E+05  3.730444E+03 -4.016325E+04 -6.114046E+03
       408   2  6.431932E+05  4.339512E+04  1.545372E+05 -1.056091E+04 -8.793474E+04 -7.137484E+03
       408   3  6.943497E+05  2.292060E+05  2.717865E+05 -4.843701E+04 -1.357073E+05 -2.434290E+03
       408   4  3.829173E+05 -6.743981E+03  5.385285E+04 -1.253253E+04 -4.156013E+04 -6.112386E+03
       408   5  3.546655E+05 -2.836831E+04  8.412655E+04 -7.316597E+02 -8.725093E+04 -7.139286E+03
       408   6  3.828930E+05  1.515013E+05  1.945485E+05 -1.251377E+04 -1.329408E+05 -2.442395E+03
       408   7  1.170475E+05 -7.288368E+04 -1.115299E+04 -2.878853E+04 -4.295640E+04 -6.110652E+03
       408   8  6.621388E+04 -1.001375E+05  1.370987E+04  9.093018E+03 -8.656743E+04 -7.141066E+03
       408   9  7.152712E+04  7.379417E+04  1.173041E+05  2.339146E+04 -1.301757E+05 -2.450184E+03
       408  10  6.488504E+05  5.939102E+04  1.188506E+05  3.730246E+03  4.378632E-12 -3.927370E-10
       408  11  6.431849E+05  4.339300E+04  1.545226E+05 -1.056141E+04  2.264438E-10 -6.266153E-10
       408  12  6.943299E+05  2.292010E+05  2.717519E+05 -4.843728E+04 -1.629823E-10 -3.954398E-10
       408  13  3.829155E+05 -6.744485E+03  5.384953E+04 -1.253274E+04 -1.656945E-10 -1.088943E-09
       408  14  3.546573E+05 -2.837041E+04  8.411215E+04 -7.321613E+02  1.700579E-10 -1.722591E-09
       408  15  3.828740E+05  1.514965E+05  1.945153E+05 -1.251403E+04 -1.037980E-10 -1.265542E-10
       408  16  1.170455E+05 -7.288421E+04 -1.115653E+04 -2.878874E+04 -5.741315E-10 -1.046115E-09
       408  17  6.620582E+04 -1.001396E+05  1.369570E+04  9.092520E+03  2.151121E-10 -8.300904E-10
       408  18  7.150892E+04  7.378962E+04  1.172722E+05  2.339120E+04  1.287638E-10 -1.384298E-10
       408  19  6.488521E+05  5.939149E+04  1.188537E+05  3.730444E+03  4.016325E+04  6.114046E+03
       408  20  6.431932E+05  4.339512E+04  1.545372E+05 -1.056091E+04  8.793474E+04  7.137484E+03
       408  21  6.943497E+05  2.292060E+05  2.717865E+05 -4.843701E+04  1.357073E+05  2.434290E+03
       408  22  3.829173E+05 -6.743981E+03  5.385285E+04 -1.253253E+04  4.156013E+04  6.112386E+03
       408  23  3.546655E+05 -2.836831E+04  8.412655E+04 -7.316597E+02  8.725093E+04  7.139286E+03
       408  24  3.828930E+05  1.515013E+05  1.945485E+05 -1.251377E+04  1.329408E+05  2.442395E+03
       408  25  1.170475E+05 -7.288368E+04 -1.115299E+04 -2.878853E+04  4.295640E+04  6.110652E+03
       408  26  6.621388E+04 -1.001375E+05  1.370987E+04  9.093018E+03  8.656743E+04  7.141066E+03
       408  27  7.152712E+04  7.379417E+04  1.173041E+05  2.339146E+04  1.301757E+05  2.450184E+03
       409   1 -1.217043E+06 -8.899338E+04 -1.265665E+05 -2.661256E+04 -1.138207E+05 -1.358763E+03
       409   2 -1.201441E+06  6.488438E+04 -3.352131E+04 -8.486386E+03 -7.527286E+04 -4.026072E+03
       409   3 -1.234524E+06  4.398825E+04 -9.283288E+03  1.872507E+04 -3.672649E+04 -3.576601E+03
       409   4 -1.387502E+06 -1.316036E+05 -1.689260E+05  4.502822E+03 -1.153173E+05 -1.364622E+03
       409   5 -1.363010E+06  2.462766E+04 -7.303097E+04 -4.716975E+01 -7.565971E+04 -4.027250E+03
       409   6 -1.387410E+06  5.865674E+03 -4.672846E+04  4.487755E+03 -3.600303E+04 -3.575562E+03
       409   7 -1.557932E+06 -1.742124E+05 -2.112872E+05  3.560964E+04 -1.168134E+05 -1.370632E+03
       409   8 -1.524555E+06 -1.563072E+04 -1.125425E+05  8.389840E+03 -7.604647E+04 -4.028438E+03
       409   9 -1.540275E+06 -3.225788E+04 -8.417523E+04 -9.746043E+03 -3.527975E+04 -3.574556E+03
       409  10 -1.217057E+06 -8.899687E+04 -1.265909E+05 -2.661268E+04 -4.121654E-10  2.005867E-10
       409  11 -1.201447E+06  6.488284E+04 -3.353201E+04 -8.486630E+03 -1.819779E-09  6.301535E-11
       409  12 -1.234526E+06  4.398788E+04 -9.285852E+03  1.872497E+04 -2.254607E-09  4.886691E-10
       409  13 -1.387516E+06 -1.316072E+05 -1.689511E+05  4.502695E+03  1.295654E-10 -4.552860E-10
       409  14 -1.363016E+06  2.462610E+04 -7.304178E+04 -4.741528E+01  5.747821E-10 -1.979792E-09
       409  15 -1.387412E+06  5.865311E+03 -4.673092E+04  4.487651E+03 -2.408494E-10 -2.242858E-09
       409  16 -1.557947E+06 -1.742161E+05 -2.113129E+05  3.560951E+04  5.580396E-10 -1.711930E-10
       409  17 -1.524561E+06 -1.563230E+04 -1.125534E+05  8.389593E+03  1.970633E-09  1.151462E-10
       409  18 -1.540276E+06 -3.225823E+04 -8.417760E+04 -9.746145E+03  2.219263E-09  8.541606E-11
       409  19 -1.217043E+06 -8.899338E+04 -1.265665E+05 -2.661256E+04  1.138207E+05  1.358763E+03
       409  20 -1.201441E+06  6.488438E+04 -3.352131E+04 -8.486386E+03  7.527286E+04  4.026072E+03
       409  21 -1.234524E+06  4.398825E+04 -9.283288E+03  1.872507E+04  3.672649E+04  3.576601E+03
       409  22 -1.387502E+06 -1.316036E+05 -1.689260E+05  4.502822E+03  1.153173E+05  1.364622E+03
       409  23 -1.363010E+06  2.462766E+04 -7.303097E+04 -4.716975E+01  7.565971E+04  4.027250E+03
       409  24 -1.387410E+06  5.865674E+03 -4.672846E+04  4.487755E+03  3.600303E+04  3.575562E+03
       409  25 -1.557932E+06 -1.742124E+05 -2.112872E+05  3.560964E+04  1.168134E+05  1.370632E+03
       409  26 -1.524555E+06 -1.563072E+04 -1.125425E+05  8.389840E+03  7.604647E+04  4.028438E+03
       409  27 -1.540275E+06 -3.225788E+04 -8.417523E+04 -9.746043E+03  3.527975E+04  3.574556E+03
       410   1 -1.244930E+06  1.652293E+04 -5.745392E+03  1.196639E+03 -2.848641E+04 -2.913947E+03
       410   2 -1.251627E+06  3.381981E+04  1.116544E+04 -1.306248E+03 -1.878921E+04 -2.869203E+03
       410   3 -1.265126E+06  2.889898E+04  1.620404E+04  6.741036E+03 -9.092513E+03 -2.475338E+03
       410   4 -1.378083E+06 -1.667403E+04 -3.840156E+04  4.825385E+03 -2.853039E+04 -2.914175E+03
       410   5 -1.374662E+06  3.151497E+03 -1.896794E+04 -4.536791E+02 -1.870961E+04 -2.869225E+03
       410   6 -1.378067E+06  7.352671E+02 -1.149438E+04  4.817647E+03 -8.889189E+03 -2.475211E+03
       410   7 -1.511220E+06 -4.987225E+04 -7.105903E+04  8.453349E+03 -2.857435E+04 -2.914403E+03
       410   8 -1.497684E+06 -2.751794E+04 -4.910243E+04  3.987182E+02 -1.863003E+04 -2.869247E+03
       410   9 -1.490996E+06 -2.742938E+04 -3.919374E+04  2.894607E+03 -8.685902E+03 -2.475086E+03
       410  10 -1.244931E+06  1.652270E+04 -5.746936E+03  1.196572E+03  2.263970E-09  3.105129E-10
       410  11 -1.251627E+06  3.381971E+04  1.116476E+04 -1.306291E+03  2.070543E-09  1.008304E-09
       410  12 -1.265126E+06  2.889895E+04  1.620388E+04  6.741018E+03  1.473339E-09 -5.502402E-10
       410  13 -1.378084E+06 -1.667426E+04 -3.840311E+04  4.825318E+03 -8.381689E-11 -1.987788E-09
       410  14 -1.374663E+06  3.151394E+03 -1.896861E+04 -4.537224E+02  6.681186E-12 -7.665612E-10
       410  15 -1.378067E+06  7.352393E+02 -1.149454E+04  4.817629E+03  3.842907E-10 -6.792431E-10
       410  16 -1.511221E+06 -4.987248E+04 -7.106058E+04  8.453282E+03 -2.262601E-09  7.945891E-10
       410  17 -1.497684E+06 -2.751804E+04 -4.910310E+04  3.986751E+02 -1.746967E-09  4.048570E-10
       410  18 -1.490996E+06 -2.742941E+04 -3.919389E+04  2.894589E+03 -1.228061E-09  1.479028E-11
       410  19 -1.244930E+06  1.652293E+04 -5.745392E+03  1.196639E+03  2.848641E+04  2.913947E+03
       410  20 -1.251627E+06  3.381981E+04  1.116544E+04 -1.306248E+03  1.878921E+04  2.869203E+03
       410  21 -1.265126E+06  2.889898E+04  1.620404E+04  6.741036E+03  9.092513E+03  2.475338E+03
       410  22 -1.378083E+06 -1.667403E+04 -3.840156E+04  4.825385E+03  2.853039E+04  2.914175E+03
       410  23 -1.374662E+06  3.151497E+03 -1.896794E+04 -4.536791E+02  1.870961E+04  2.869225E+03
       410  24 -1.378067E+06  7.352671E+02 -1.149438E+04  4.817647E+03  8.889189E+03  2.475211E+03
       410  25 -1.511220E+06 -4.987225E+04 -7.105903E+04  8.453349E+03  2.857435E+04  2.914403E+03
       410  26 -1.497684E+06 -2.751794E+04 -4.910243E+04  3.987182E+02  1.863003E+04  2.869247E+03
       410  27 -1.490996E+06 -2.742938E+04 -3.919374E+04  2.894607E+03  8.685902E+03  2.475086E+03
       411   1 -1.285985E+06  2.054013E+04  1.312598E+04  4.698863E+03 -7.176165E+03 -2.200528E+03
       411   2 -1.296533E+06  2.027955E+04  1.469380E+04 -7.610357E+02 -4.747954E+03 -1.839610E+03
       411   3 -1.308104E+06  1.722362E+04  1.397788E+04  5.338394E+03 -2.319866E+03 -1.428628E+03
       411   4 -1.376779E+06 -2.088394E+03 -9.091423E+03  5.045595E+03 -7.055352E+03 -2.200471E+03
       411   5 -1.376265E+06  4.031927E+02 -4.838406E+03 -7.348744E+02 -4.609471E+03 -1.839523E+03
       411   6 -1.376776E+06  9.617641E+01 -2.881624E+03  5.044079E+03 -2.163670E+03 -1.428510E+03
       411   7 -1.467566E+06 -2.471752E+04 -3.130943E+04  5.392274E+03 -6.934556E+03 -2.200414E+03
       411   8 -1.455991E+06 -1.947363E+04 -2.437108E+04 -7.087176E+02 -4.471006E+03 -1.839436E+03
       411   9 -1.445445E+06 -1.703161E+04 -1.974147E+04  4.749796E+03 -2.007491E+03 -1.428393E+03
       411  10 -1.285985E+06  2.054011E+04  1.312588E+04  4.698851E+03 -4.961170E-11 -1.067751E-10
       411  11 -1.296533E+06  2.027954E+04  1.469375E+04 -7.610428E+02 -1.541350E-10 -5.147148E-10
       411  12 -1.308104E+06  1.722361E+04  1.397787E+04  5.338391E+03  1.869452E-10 -3.527030E-10
       411  13 -1.376780E+06 -2.088412E+03 -9.091526E+03  5.045582E+03  3.929874E-10 -5.727149E-10
       411  14 -1.376265E+06  4.031834E+02 -4.838453E+03 -7.348813E+02  7.948460E-11 -4.115100E-11
       411  15 -1.376776E+06  9.617296E+01 -2.881636E+03  5.044077E+03  1.889898E-10 -5.242716E-10
       411  16 -1.467566E+06 -2.471754E+04 -3.130953E+04  5.392261E+03  3.027068E-10 -8.500799E-10
       411  17 -1.455991E+06 -1.947364E+04 -2.437112E+04 -7.087242E+02 -1.732069E-10 -1.080470E-09
       411  18 -1.445445E+06 -1.703162E+04 -1.974149E+04  4.749794E+03  4.501556E-10 -1.488653E-09
       411  19 -1.285985E+06  2.054013E+04  1.312598E+04  4.698863E+03  7.176165E+03  2.200528E+03
       411  20 -1.296533E+06  2.027955E+04  1.469380E+04 -7.610357E+02  4.747954E+03  1.839610E+03
       411  21 -1.308104E+06  1.722362E+04  1.397788E+04  5.338394E+03  2.319866E+03  1.428628E+03
       411  22 -1.376779E+06 -2.088394E+03 -9.091423E+03  5.045595E+03  7.055352E+03  2.200471E+03
       411  23 -1.376265E+06  4.031927E+02 -4.838406E+03 -7.348744E+02  4.609471E+03  1.839523E+03
       411  24 -1.376776E+06  9.617641E+01 -2.881624E+03  5.044079E+03  2.163670E+03  1.428510E+03
       411  25 -1.467566E+06 -2.471752E+04 -3.130943E+04  5.392274E+03  6.934556E+03  2.200414E+03
       411  26 -1.455991E+06 -1.947363E+04 -2.437108E+04 -7.087176E+02  4.471006E+03  1.839436E+03
       411  27 -1.445445E+06 -1.703161E+04 -1.974147E+04  4.749796E+03  2.007491E+03  1.428393E+03
       412   1 -1.331633E+06  1.095176E+04  8.723410E+03  5.164163E+03 -1.849207E+03 -1.181561E+03
       412   2 -1.343132E+06  8.370682E+03  6.857757E+03 -8.676549E+02 -1.196268E+03 -7.682325E+02
       412   3 -1.354826E+06  5.442741E+03  4.474654E+03  5.218933E+03 -5.433874E+02 -3.450056E+02
       412   4 -1.376591E+06 -2.492296E+02 -2.256367E+03  5.168966E+03 -1.702550E+03 -1.181443E+03
       412   5 -1.376493E+06  5.381558E+01 -1.315245E+03 -8.903675E+02 -1.046098E+03 -7.681052E+02
       412   6 -1.376591E+06  9.374068E+00 -8.940413E+02  5.168747E+03 -3.896922E+02 -3.448683E+02
       412   7 -1.421547E+06 -1.145036E+04 -1.323629E+04  5.173768E+03 -1.555904E+03 -1.181325E+03
       412   8 -1.409853E+06 -8.263134E+03 -9.488329E+03 -9.130791E+02 -8.959360E+02 -7.679779E+02
       412   9 -1.398355E+06 -5.424029E+03 -6.262772E+03  5.118562E+03 -2.360023E+02 -3.447309E+02
       412  10 -1.331633E+06  1.095175E+04  8.723401E+03  5.164162E+03  5.016432E-11 -3.919294E-10
       412  11 -1.343132E+06  8.370681E+03  6.857753E+03 -8.676557E+02  6.638103E-10 -8.358059E-10
       412  12 -1.354826E+06  5.442741E+03  4.474653E+03  5.218933E+03  9.439531E-10 -6.646092E-10
       412  13 -1.376591E+06 -2.492319E+02 -2.256375E+03  5.168964E+03  9.441273E-10 -1.460172E-09
       412  14 -1.376493E+06  5.381465E+01 -1.315248E+03 -8.903682E+02  4.136770E-10  6.952447E-10
       412  15 -1.376591E+06  9.373899E+00 -8.940419E+02  5.168747E+03 -1.879546E-10  1.702422E-10
       412  16 -1.421547E+06 -1.145037E+04 -1.323630E+04  5.173766E+03  2.994713E-10  4.972636E-10
       412  17 -1.409853E+06 -8.263135E+03 -9.488332E+03 -9.130797E+02 -2.796381E-10  7.220513E-10
       412  18 -1.398355E+06 -5.424029E+03 -6.262772E+03  5.118562E+03 -1.123129E-09  7.481838E-10
       412  19 -1.331633E+06  1.095176E+04  8.723410E+03  5.164163E+03  1.849207E+03  1.181561E+03
       412  20 -1.343132E+06  8.370682E+03  6.857757E+03 -8.676549E+02  1.196268E+03  7.682325E+02
       412  21 -1.354826E+06  5.442741E+03  4.474654E+03  5.218933E+03  5.433874E+02  3.450056E+02
       412  22 -1.376591E+06 -2.492296E+02 -2.256367E+03  5.168966E+03  1.702550E+03  1.181443E+03
       412  23 -1.376493E+06  5.381558E+01 -1.315245E+03 -8.903675E+02  1.046098E+03  7.681052E+02
       412  24 -1.376591E+06  9.374068E+00 -8.940413E+02  5.168747E+03  3.896922E+02  3.448683E+02
       412  25 -1.421547E+06 -1.145036E+04 -1.323629E+04  5.173768E+03  1.555904E+03  1.181325E+03
       412  26 -1.409853E+06 -8.263134E+03 -9.488329E+03 -9.130791E+02  8.959360E+02  7.679779E+02
       412  27 -1.398355E+06 -5.424029E+03 -6.262772E+03  5.118562E+03  2.360023E+02  3.447309E+02
       413   1 -1.379177E+06 -6.735204E+02 -1.463315E+03  5.175868E+03 -3.916584E+02 -9.554940E+01
       413   2 -1.390807E+06 -3.537951E+03 -4.235903E+03 -9.238421E+02 -2.383062E+01  3.287941E+02
       413   3 -1.402549E+06 -6.551874E+03 -7.291273E+03  5.189483E+03  3.440064E+02  7.473504E+02
       413   4 -1.376572E+06 -1.674765E+01 -7.887165E+02  5.189822E+03 -2.382296E+02 -9.541078E+01
       413   5 -1.376516E+06  2.499398E+01 -7.346136E+02 -9.166581E+02  1.275206E+02  3.289278E+02
       413   6 -1.376572E+06 -8.242708E+01 -9.618803E+02  5.189879E+03  4.932869E+02  7.474796E+02
       413   7 -1.373966E+06  6.400246E+02 -1.141187E+02  5.203777E+03 -8.480020E+01 -9.527216E+01
       413   8 -1.362224E+06  3.587924E+03  2.766661E+03 -9.094739E+02  2.788752E+02  3.290615E+02
       413   9 -1.350593E+06  6.386970E+03  5.367463E+03  5.190276E+03  6.425737E+02  7.476088E+02
       413  10 -1.379177E+06 -6.735204E+02 -1.463315E+03  5.175868E+03  1.840529E-10 -1.582959E-10
       413  11 -1.390807E+06 -3.537951E+03 -4.235903E+03 -9.238421E+02 -2.294348E-10  8.090742E-10
       413  12 -1.402549E+06 -6.551875E+03 -7.291274E+03  5.189483E+03 -4.568574E-11  1.883911E-10
       413  13 -1.376572E+06 -1.674768E+01 -7.887167E+02  5.189822E+03  7.416025E-10 -1.293965E-09
       413  14 -1.376516E+06  2.499386E+01 -7.346139E+02 -9.166581E+02  1.087925E-09 -7.219782E-10
       413  15 -1.376572E+06 -8.242775E+01 -9.618818E+02  5.189879E+03 -6.309427E-10  1.155694E-09
       413  16 -1.373966E+06  6.400246E+02 -1.141187E+02  5.203777E+03  5.957719E-10 -7.652378E-10
       413  17 -1.362224E+06  3.587924E+03  2.766660E+03 -9.094740E+02  9.873471E-11 -6.974306E-10
       413  18 -1.350593E+06  6.386969E+03  5.367462E+03  5.190276E+03 -3.650840E-10 -3.799141E-11
       413  19 -1.379177E+06 -6.735204E+02 -1.463315E+03  5.175868E+03  3.916584E+02  9.554940E+01
       413  20 -1.390807E+06 -3.537951E+03 -4.235903E+03 -9.238421E+02  2.383062E+01 -3.287941E+02
       413  21 -1.402549E+06 -6.551874E+03 -7.291273E+03  5.189483E+03 -3.440064E+02 -7.473504E+02
       413  22 -1.376572E+06 -1.674765E+01 -7.887165E+02  5.189822E+03  2.382296E+02  9.541078E+01
       413  23 -1.376516E+06  2.499398E+01 -7.346136E+02 -9.166581E+02 -1.275206E+02 -3.289278E+02
       413  24 -1.376572E+06 -8.242708E+01 -9.618803E+02  5.189879E+03 -4.932869E+02 -7.474796E+02
       413  25 -1.373966E+06  6.400246E+02 -1.141187E+02  5.203777E+03  8.480020E+01  9.527216E+01
       413  26 -1.362224E+06  3.587924E+03  2.766661E+03 -9.094739E+02 -2.788752E+02 -3.290615E+02
       413  27 -1.350593E+06  6.386970E+03  5.367463E+03  5.190276E+03 -6.425737E+02 -7.476088E+02
       414   1 -1.426698E+06 -1.245101E+04 -1.345221E+04  4.983972E+03  5.250674E+02  9.976820E+02
       414   2 -1.437833E+06 -1.516061E+04 -1.684397E+04 -8.226131E+02  1.451320E+03  1.415520E+03
       414   3 -1.449355E+06 -1.887056E+04 -2.109321E+04  5.207509E+03  2.377672E+03  1.789713E+03
       414   4 -1.376633E+06  3.833552E+01 -1.150024E+03  5.105991E+03  6.828287E+02  9.978126E+02
       414   5 -1.376441E+06  1.450891E+02 -1.803429E+03 -8.120252E+02  1.593477E+03  1.415625E+03
       414   6 -1.376634E+06 -7.456664E+02 -3.303350E+03  5.106592E+03  2.504241E+03  1.789794E+03
       414   7 -1.326565E+06  1.252749E+04  1.115198E+04  5.228020E+03  8.406028E+02  9.979433E+02
       414   8 -1.315046E+06  1.545051E+04  1.323683E+04 -8.014370E+02  1.735648E+03  1.415730E+03
       414   9 -1.303908E+06  1.737883E+04  1.448612E+04  5.005663E+03  2.630825E+03  1.789876E+03
       414  10 -1.426698E+06 -1.245101E+04 -1.345221E+04  4.983971E+03 -1.490632E-09 -1.153777E-09
       414  11 -1.437833E+06 -1.516061E+04 -1.684397E+04 -8.226147E+02 -1.777722E-11  5.610675E-10
       414  12 -1.449355E+06 -1.887056E+04 -2.109323E+04  5.207505E+03  3.201897E-09 -7.375379E-10
       414  13 -1.376633E+06  3.833432E+01 -1.150027E+03  5.105991E+03 -7.662330E-11  4.983044E-10
       414  14 -1.376441E+06  1.450863E+02 -1.803438E+03 -8.120270E+02 -3.219066E-10  1.248239E-09
       414  15 -1.376634E+06 -7.456716E+02 -3.303367E+03  5.106588E+03  2.517775E-10 -6.764651E-10
       414  16 -1.326565E+06  1.252749E+04  1.115197E+04  5.228020E+03  2.984784E-09 -7.727050E-10
       414  17 -1.315046E+06  1.545051E+04  1.323682E+04 -8.014390E+02 -1.092922E-09  1.320141E-09
       414  18 -1.303908E+06  1.737882E+04  1.448610E+04  5.005659E+03 -3.118370E-09  2.530674E-10
       414  19 -1.426698E+06 -1.245101E+04 -1.345221E+04  4.983972E+03 -5.250674E+02 -9.976820E+02
       414  20 -1.437833E+06 -1.516061E+04 -1.684397E+04 -8.226131E+02 -1.451320E+03 -1.415520E+03
       414  21 -1.449355E+06 -1.887056E+04 -2.109321E+04  5.207509E+03 -2.377672E+03 -1.789713E+03
       414  22 -1.376633E+06  3.833552E+01 -1.150024E+03  5.105991E+03 -6.828287E+02 -9.978126E+02
       414  23 -1.376441E+06  1.450891E+02 -1.803429E+03 -8.120252E+02 -1.593477E+03 -1.415625E+03
       414  24 -1.376634E+06 -7.456664E+02 -3.303350E+03  5.106592E+03 -2.504241E+03 -1.789794E+03
       414  25 -1.326565E+06  1.252749E+04  1.115198E+04  5.228020E+03 -8.406028E+02 -9.979433E+02
       414  26 -1.315046E+06  1.545051E+04  1.323683E+04 -8.014370E+02 -1.735648E+03 -1.415730E+03
       414  27 -1.303908E+06  1.737883E+04  1.448612E+04  5.005663E+03 -2.630825E+03 -1.789876E+03
       415   1 -1.472693E+06 -2.357296E+04 -2.761078E+04  4.197165E+03  2.966205E+03  2.067793E+03
       415   2 -1.481997E+06 -2.532675E+04 -3.282594E+04 -3.058802E+02  6.616394E+03  2.472704E+03
       415   3 -1.493771E+06 -3.508110E+04 -4.242045E+04  6.195552E+03  1.026680E+04  2.557647E+03
       415   4 -1.377093E+06  2.693050E+02 -4.156774E+03  4.920055E+03  3.168630E+03  2.067920E+03
       415   5 -1.375871E+06  1.130760E+03 -6.830822E+03 -5.803975E+02  6.704375E+03  2.472728E+03
       415   6 -1.377099E+06 -5.987669E+03 -1.380405E+04  4.923527E+03  1.024040E+04  2.557580E+03
       415   7 -1.281485E+06  2.411089E+04  1.929656E+04  5.643055E+03  3.371087E+03  2.068048E+03
       415   8 -1.269735E+06  2.758744E+04  1.916347E+04 -8.549636E+02  6.792372E+03  2.472752E+03
       415   9 -1.260415E+06  2.310476E+04  1.481135E+04  3.651259E+03  1.021399E+04  2.557513E+03
       415  10 -1.472693E+06 -2.357297E+04 -2.761080E+04  4.197160E+03  3.683630E-10  3.757140E-10
       415  11 -1.481997E+06 -2.532677E+04 -3.282603E+04 -3.058934E+02  3.252724E-12  7.854715E-11
       415  12 -1.493771E+06 -3.508114E+04 -4.242066E+04  6.195531E+03 -3.735714E-12 -4.744664E-11
       415  13 -1.377093E+06  2.692977E+02 -4.156801E+03  4.920050E+03  3.785968E-10 -4.629285E-10
       415  14 -1.375871E+06  1.130741E+03 -6.830919E+03 -5.804109E+02  9.853337E-11  1.099721E-10
       415  15 -1.377099E+06 -5.987704E+03 -1.380426E+04  4.923505E+03  4.476990E-10 -1.614816E-10
       415  16 -1.281485E+06  2.411088E+04  1.929653E+04  5.643050E+03 -3.479104E-10 -7.256722E-10
       415  17 -1.269735E+06  2.758742E+04  1.916337E+04 -8.549771E+02 -7.458787E-11 -5.481176E-10
       415  18 -1.260415E+06  2.310473E+04  1.481114E+04  3.651238E+03  1.229515E-10  3.357549E-10
       415  19 -1.472693E+06 -2.357296E+04 -2.761078E+04  4.197165E+03 -2.966205E+03 -2.067793E+03
       415  20 -1.481997E+06 -2.532675E+04 -3.282594E+04 -3.058802E+02 -6.616394E+03 -2.472704E+03
       415  21 -1.493771E+06 -3.508110E+04 -4.242045E+04  6.195552E+03 -1.026680E+04 -2.557647E+03
       415  22 -1.377093E+06  2.693050E+02 -4.156774E+03  4.920055E+03 -3.168630E+03 -2.067920E+03
       415  23 -1.375871E+06  1.130760E+03 -6.830822E+03 -5.803975E+02 -6.704375E+03 -2.472728E+03
       415  24 -1.377099E+06 -5.987669E+03 -1.380405E+04  4.923527E+03 -1.024040E+04 -2.557580E+03
       415  25 -1.281485E+06  2.411089E+04  1.929656E+04  5.643055E+03 -3.371087E+03 -2.068048E+03
       415  26 -1.269735E+06  2.758744E+04  1.916347E+04 -8.549636E+02 -6.792372E+03 -2.472752E+03
       415  27 -1.260415E+06  2.310476E+04  1.481135E+04  3.651259E+03 -1.021399E+04 -2.557513E+03
       416   1 -1.517912E+06 -3.216858E+04 -5.046849E+04 -5.190858E+02  1.224423E+04  3.194360E+03
       416   2 -1.518432E+06 -2.772676E+04 -6.213198E+04  2.782321E+03  2.752042E+04  3.657402E+03
       416   3 -1.536676E+06 -8.632216E+04 -9.951047E+04  1.579271E+04  4.279697E+04  1.249790E+03
       416   4 -1.380446E+06  2.109941E+03 -1.679235E+04  4.628693E+03  1.292587E+04  3.194738E+03
       416   5 -1.371693E+06  8.843484E+03 -2.624307E+04 -2.196507E+02  2.717339E+04  3.657092E+03
       416   6 -1.380480E+06 -4.727357E+04 -6.068898E+04  4.641194E+03  4.142155E+04  1.248687E+03
       416   7 -1.242963E+06  3.638716E+04  1.688242E+04  9.777615E+03  1.360766E+04  3.195127E+03
       416   8 -1.224934E+06  4.541217E+04  9.644273E+03 -3.222336E+03  2.682628E+04  3.656784E+03
       416   9 -1.224262E+06 -8.226344E+03 -2.186924E+04 -6.513134E+03  4.004578E+04  1.247634E+03
       416  10 -1.517912E+06 -3.216863E+04 -5.046880E+04 -5.191173E+02  1.273450E-10  1.113180E-10
       416  11 -1.518433E+06 -2.772698E+04 -6.213343E+04  2.782239E+03  1.317854E-10  3.064243E-10
       416  12 -1.536678E+06 -8.632266E+04 -9.951392E+04  1.579266E+04 -1.232128E-10  7.023028E-11
       416  13 -1.380447E+06  2.109885E+03 -1.679268E+04  4.628660E+03  1.221264E-09 -7.878261E-10
       416  14 -1.371693E+06  8.843271E+03 -2.624449E+04 -2.197308E+02  1.654315E-10  2.491898E-10
       416  15 -1.380482E+06 -4.727403E+04 -6.069221E+04  4.641152E+03  1.911200E-10 -1.118709E-11
       416  16 -1.242964E+06  3.638710E+04  1.688205E+04  9.777580E+03  4.664344E-10  2.862519E-10
       416  17 -1.224935E+06  4.541196E+04  9.642893E+03 -3.222415E+03  1.316904E-10  4.182180E-11
       416  18 -1.224264E+06 -8.226777E+03 -2.187227E+04 -6.513174E+03 -4.338340E-10  3.480470E-10
       416  19 -1.517912E+06 -3.216858E+04 -5.046849E+04 -5.190858E+02 -1.224423E+04 -3.194360E+03
       416  20 -1.518432E+06 -2.772676E+04 -6.213198E+04  2.782321E+03 -2.752042E+04 -3.657402E+03
       416  21 -1.536676E+06 -8.632216E+04 -9.951047E+04  1.579271E+04 -4.279697E+04 -1.249790E+03
       416  22 -1.380446E+06  2.109941E+03 -1.679235E+04  4.628693E+03 -1.292587E+04 -3.194738E+03
       416  23 -1.371693E+06  8.843484E+03 -2.624307E+04 -2.196507E+02 -2.717339E+04 -3.657092E+03
       416  24 -1.380480E+06 -4.727357E+04 -6.068898E+04  4.641194E+03 -4.142155E+04 -1.248687E+03
       416  25 -1.242963E+06  3.638716E+04  1.688242E+04  9.777615E+03 -1.360766E+04 -3.195127E+03
       416  26 -1.224934E+06  4.541217E+04  9.644273E+03 -3.222336E+03 -2.682628E+04 -3.656784E+03
       416  27 -1.224262E+06 -8.226344E+03 -2.186924E+04 -6.513134E+03 -4.004578E+04 -1.247634E+03
       417   1  3.938130E+06  8.064455E+05  1.032148E+06  1.901371E+05  6.974611E+05 -1.100679E+02
       417   2  3.790175E+06 -1.341150E+05  4.543277E+05  5.222164E+04  4.577667E+05 -1.227424E+03
       417   3  3.936121E+06 -2.190456E+04  2.952571E+05 -8.399045E+04  2.180515E+05 -1.256289E+03
       417   4  3.880308E+06  7.919296E+05  1.017848E+06  1.734362E+03  6.969146E+05 -3.205715E+02
       417   5  3.734116E+06 -1.480430E+05  4.406897E+05  9.824900E+02  4.575956E+05 -1.265028E+03
       417   6  3.881746E+06 -3.532938E+04  2.820382E+05  1.905485E+03  2.182549E+05 -1.226246E+03
       417   7  3.822564E+06  7.775461E+05  1.003568E+06 -1.866509E+05  6.963683E+05 -5.307623E+02
       417   8  3.678065E+06 -1.619614E+05  4.270529E+05 -5.025205E+04  4.574246E+05 -1.302606E+03
       417   9  3.827390E+06 -4.872686E+04  2.688230E+05  8.779393E+04  2.184582E+05 -1.196146E+03
       417  10  3.937610E+06  8.063159E+05  1.031240E+06  1.901372E+05 -1.116343E-10 -5.206488E-10
       417  11  3.789951E+06 -1.341708E+05  4.539364E+05  5.222210E+04  1.482517E-09 -1.092497E-09
       417  12  3.936071E+06 -2.191722E+04  2.951684E+05 -8.399023E+04 -1.541829E-09 -9.537301E-10
       417  13  3.879789E+06  7.918002E+05  1.016941E+06  1.734542E+03  1.406967E-09 -3.215589E-10
       417  14  3.733892E+06 -1.480988E+05  4.402986E+05  9.829555E+02  1.390118E-09 -1.053696E-09
       417  15  3.881695E+06 -3.534207E+04  2.819493E+05  1.905700E+03 -1.477526E-09 -8.343811E-10
       417  16  3.822046E+06  7.774169E+05  1.002662E+06 -1.866506E+05  9.511824E-10 -5.144065E-10
       417  17  3.677841E+06 -1.620172E+05  4.266621E+05 -5.025158E+04  1.819900E-09 -1.235925E-09
       417  18  3.827338E+06 -4.873958E+04  2.687339E+05  8.779414E+04  2.981788E-09  8.965235E-10
       417  19  3.938130E+06  8.064455E+05  1.032148E+06  1.901371E+05 -6.974611E+05  1.100679E+02
       417  20  3.790175E+06 -1.341150E+05  4.543277E+05  5.222164E+04 -4.577667E+05  1.227424E+03
       417  21  3.936121E+06 -2.190456E+04  2.952571E+05 -8.399045E+04 -2.180515E+05  1.256289E+03
       417  22  3.880308E+06  7.919296E+05  1.017848E+06  1.734362E+03 -6.969146E+05  3.205715E+02
       417  23  3.734116E+06 -1.480430E+05  4.406897E+05  9.824900E+02 -4.575956E+05  1.265028E+03
       417  24  3.881746E+06 -3.532938E+04  2.820382E+05  1.905485E+03 -2.182549E+05  1.226246E+03
       417  25  3.822564E+06  7.775461E+05  1.003568E+06 -1.866509E+05 -6.963683E+05  5.307623E+02
       417  26  3.678065E+06 -1.619614E+05  4.270529E+05 -5.025205E+04 -4.574246E+05  1.302606E+03
       417  27  3.827390E+06 -4.872686E+04  2.688230E+05  8.779393E+04 -2.184582E+05  1.196146E+03
       418   1  3.877390E+06  1.132217E+05  2.445359E+05  2.372911E+04  1.729709E+05 -1.052856E+03
       418   2  3.856625E+06 -6.095538E+03  1.273457E+05  6.829001E+03  1.134632E+05 -1.149740E+03
       418   3  3.876964E+06  8.363182E+03  8.218057E+04 -9.731803E+03  5.395783E+04 -1.168281E+03
       418   4  3.825204E+06  1.002652E+05  2.318036E+05  1.526310E+03  1.729209E+05 -1.059024E+03
       418   5  3.804785E+06 -1.894999E+04  1.147193E+05  1.373671E+03  1.134448E+05 -1.150741E+03
       418   6  3.825466E+06 -4.389727E+03  6.964214E+04  1.560408E+03  5.397097E+04 -1.167305E+03
       418   7  3.773022E+06  8.731039E+04  2.190713E+05 -2.067463E+04  1.728710E+05 -1.065188E+03
       418   8  3.752947E+06 -3.180453E+04  1.020927E+05 -4.081205E+03  1.134264E+05 -1.151743E+03
       418   9  3.773971E+06 -1.714235E+04  5.710359E+04  1.285169E+04  5.398411E+04 -1.166328E+03
       418  10  3.877358E+06  1.132137E+05  2.444800E+05  2.372926E+04 -1.105430E-09 -6.679279E-10
       418  11  3.856611E+06 -6.098969E+03  1.273217E+05  6.829106E+03  1.009008E-09  4.559373E-10
       418  12  3.876961E+06  8.362405E+03  8.217513E+04 -9.731752E+03  1.568666E-10 -4.089614E-10
       418  13  3.825172E+06  1.002572E+05  2.317477E+05  1.526457E+03  1.502258E-09  3.263426E-10
       418  14  3.804771E+06 -1.895342E+04  1.146953E+05  1.373776E+03  2.074317E-09  3.143462E-10
       418  15  3.825463E+06 -4.390504E+03  6.963670E+04  1.560459E+03 -1.462823E-09 -6.938519E-10
       418  16  3.772990E+06  8.730243E+04  2.190155E+05 -2.067449E+04  7.681149E-10  3.850589E-10
       418  17  3.752933E+06 -3.180796E+04  1.020686E+05 -4.081100E+03  8.697164E-10 -3.493438E-10
       418  18  3.773968E+06 -1.714313E+04  5.709814E+04  1.285174E+04 -4.539535E-10 -2.005125E-10
       418  19  3.877390E+06  1.132217E+05  2.445359E+05  2.372911E+04 -1.729709E+05  1.052856E+03
       418  20  3.856625E+06 -6.095538E+03  1.273457E+05  6.829001E+03 -1.134632E+05  1.149740E+03
       418  21  3.876964E+06  8.363182E+03  8.218057E+04 -9.731803E+03 -5.395783E+04  1.168281E+03
       418  22  3.825204E+06  1.002652E+05  2.318036E+05  1.526310E+03 -1.729209E+05  1.059024E+03
       418  23  3.804785E+06 -1.894999E+04  1.147193E+05  1.373671E+03 -1.134448E+05  1.150741E+03
       418  24  3.825466E+06 -4.389727E+03  6.964214E+04  1.560408E+03 -5.397097E+04  1.167305E+03
       418  25  3.773022E+06  8.731039E+04  2.190713E+05 -2.067463E+04 -1.728710E+05  1.065188E+03
       418  26  3.752947E+06 -3.180453E+04  1.020927E+05 -4.081205E+03 -1.134264E+05  1.151743E+03
       418  27  3.773971E+06 -1.714235E+04  5.710359E+04  1.285169E+04 -5.398411E+04  1.166328E+03
       419   1  3.869819E+06  2.550651E+04  6.784068E+04  3.621405E+03  4.281414E+04 -1.161001E+03
       419   2  3.867770E+06  1.074690E+04  4.248327E+04  2.208378E+03  2.786700E+04 -1.199209E+03
       419   3  3.871886E+06  1.291066E+04  3.104518E+04 -2.585584E+02  1.292032E+04 -1.256745E+03
       419   4  3.817661E+06  1.257515E+04  5.513271E+04  1.235397E+03  4.280369E+04 -1.161174E+03
       419   5  3.814602E+06 -2.432256E+03  2.953201E+04  1.765226E+03  2.785062E+04 -1.199242E+03
       419   6  3.817711E+06 -5.144597E+02  1.785550E+04  1.241129E+03  1.289803E+04 -1.256732E+03
       419   7  3.765505E+06 -3.563834E+02  4.242454E+04 -1.150412E+03  4.279324E+04 -1.161347E+03
       419   8  3.761437E+06 -1.561161E+04  1.658054E+04  1.322110E+03  2.783424E+04 -1.199276E+03
       419   9  3.763539E+06 -1.393979E+04  4.665597E+03  2.740687E+03  1.287575E+04 -1.256719E+03
       419  10  3.869817E+06  2.550602E+04  6.783726E+04  3.621445E+03 -1.006239E-09 -2.091766E-10
       419  11  3.867769E+06  1.074669E+04  4.248182E+04  2.208405E+03 -3.143071E-09 -9.752246E-10
       419  12  3.871886E+06  1.291062E+04  3.104487E+04 -2.585453E+02 -5.235744E-10  5.878967E-11
       419  13  3.817659E+06  1.257466E+04  5.512928E+04  1.235437E+03 -1.449466E-09 -3.839062E-10
       419  14  3.814601E+06 -2.432464E+03  2.953056E+04  1.765252E+03  3.883318E-10  5.436298E-11
       419  15  3.817711E+06 -5.145058E+02  1.785518E+04  1.241143E+03 -2.848861E-09 -7.280222E-10
       419  16  3.765503E+06 -3.568729E+02  4.242112E+04 -1.150372E+03 -3.331059E-10  1.470428E-10
       419  17  3.761437E+06 -1.561182E+04  1.657909E+04  1.322137E+03 -1.542101E-09 -8.547060E-10
       419  18  3.763539E+06 -1.393983E+04  4.665284E+03  2.740700E+03  1.528404E-10  4.777058E-10
       419  19  3.869819E+06  2.550651E+04  6.784068E+04  3.621405E+03 -4.281414E+04  1.161001E+03
       419  20  3.867770E+06  1.074690E+04  4.248327E+04  2.208378E+03 -2.786700E+04  1.199209E+03
       419  21  3.871886E+06  1.291066E+04  3.104518E+04 -2.585584E+02 -1.292032E+04  1.256745E+03
       419  22  3.817661E+06  1.257515E+04  5.513271E+04  1.235397E+03 -4.280369E+04  1.161174E+03
       419  23  3.814602E+06 -2.432256E+03  2.953201E+04  1.765226E+03 -2.785062E+04  1.199242E+03
       419  24  3.817711E+06 -5.144597E+02  1.785550E+04  1.241129E+03 -1.289803E+04  1.256732E+03
       419  25  3.765505E+06 -3.563834E+02  4.242454E+04 -1.150412E+03 -4.279324E+04  1.161347E+03
       419  26  3.761437E+06 -1.561161E+04  1.658054E+04  1.322110E+03 -2.783424E+04  1.199276E+03
       419  27  3.763539E+06 -1.393979E+04  4.665597E+03  2.740687E+03 -1.287575E+04  1.256719E+03
       420   1  3.874326E+06  1.585293E+04  2.824228E+04  1.134542E+03  1.002962E+04 -1.291875E+03
       420   2  3.876228E+06  1.458009E+04  2.349497E+04  2.216504E+03  5.627230E+03 -1.368520E+03
       420   3  3.879289E+06  1.562230E+04  2.218180E+04  7.201901E+02  1.224809E+03 -1.477532E+03
       420   4  3.816595E+06  1.542030E+03  1.417494E+04  8.998939E+02  1.000796E+04 -1.291898E+03
       420   5  3.816019E+06 -3.439973E+02  8.828179E+03  2.189436E+03  5.594223E+03 -1.368548E+03
       420   6  3.816604E+06  8.712357E+01  6.923596E+03  9.006902E+02  1.180469E+03 -1.477569E+03
       420   7  3.758867E+06 -1.276911E+04  1.073574E+02  6.652672E+02  9.986309E+03 -1.291920E+03
       420   8  3.755813E+06 -1.526835E+04 -5.838873E+03  2.162369E+03  5.561220E+03 -1.368576E+03
       420   9  3.753922E+06 -1.544834E+04 -8.334887E+03  1.081171E+03  1.136134E+03 -1.477607E+03
       420  10  3.874325E+06  1.585290E+04  2.824209E+04  1.134552E+03  4.844095E-10 -1.041968E-10
       420  11  3.876228E+06  1.458008E+04  2.349491E+04  2.216510E+03 -2.842898E-10 -9.476672E-10
       420  12  3.879289E+06  1.562230E+04  2.218179E+04  7.201916E+02 -1.231019E-09 -1.608977E-09
       420  13  3.816595E+06  1.542002E+03  1.417475E+04  8.999043E+02  2.924973E-10  1.006547E-10
       420  14  3.816018E+06 -3.440077E+02  8.828117E+03  2.189442E+03 -2.339241E-10 -7.576083E-10
       420  15  3.816604E+06  8.712085E+01  6.923590E+03  9.006916E+02  1.848377E-09 -6.724114E-11
       420  16  3.758867E+06 -1.276914E+04  1.071679E+02  6.652776E+02  2.785688E-10  8.064711E-10
       420  17  3.755813E+06 -1.526836E+04 -5.838934E+03  2.162375E+03 -8.566471E-10 -1.468264E-09
       420  18  3.753922E+06 -1.544834E+04 -8.334893E+03  1.081173E+03  9.153089E-10  9.649073E-11
       420  19  3.874326E+06  1.585293E+04  2.824228E+04  1.134542E+03 -1.002962E+04  1.291875E+03
       420  20  3.876228E+06  1.458009E+04  2.349497E+04  2.216504E+03 -5.627230E+03  1.368520E+03
       420  21  3.879289E+06  1.562230E+04  2.218180E+04  7.201901E+02 -1.224809E+03  1.477532E+03
       420  22  3.816595E+06  1.542030E+03  1.417494E+04  8.998939E+02 -1.000796E+04  1.291898E+03
       420  23  3.816019E+06 -3.439973E+02  8.828179E+03  2.189436E+03 -5.594223E+03  1.368548E+03
       420  24  3.816604E+06  8.712357E+01  6.923596E+03  9.006902E+02 -1.180469E+03  1.477569E+03
       420  25  3.758867E+06 -1.276911E+04  1.073574E+02  6.652672E+02 -9.986309E+03  1.291920E+03
       420  26  3.755813E+06 -1.526835E+04 -5.838873E+03  2.162369E+03 -5.561220E+03  1.368576E+03
       420  27  3.753922E+06 -1.544834E+04 -8.334887E+03  1.081171E+03 -1.136134E+03  1.477607E+03
       421   1  3.886085E+06  1.736500E+04  2.367870E+04  7.031551E+02 -1.529138E+01 -1.547068E+03
       421   2  3.889788E+06  1.798199E+04  2.575819E+04  2.725901E+03 -3.899540E+03 -1.682929E+03
       421   3  3.894504E+06  2.056336E+04  3.084996E+04  3.620247E+02 -7.783768E+03 -1.856189E+03
       421   4  3.816571E+06  1.325703E+02  6.736645E+03  4.988351E+02 -5.671546E+01 -1.547107E+03
       421   5  3.816060E+06 -2.928770E+02  7.798417E+03  2.691717E+03 -3.954093E+03 -1.682982E+03
       421   6  3.816564E+06  1.248465E+03  1.188178E+04  4.979442E+02 -7.851424E+03 -1.856260E+03
       421   7  3.747061E+06 -1.710021E+04 -1.020576E+04  2.945373E+02 -9.813493E+01 -1.547146E+03
       421   8  3.742337E+06 -1.856815E+04 -1.016175E+04  2.657535E+03 -4.008640E+03 -1.683035E+03
       421   9  3.738630E+06 -1.806687E+04 -7.086838E+03  6.338455E+02 -7.919071E+03 -1.856331E+03
       421  10  3.886085E+06  1.736499E+04  2.367869E+04  7.031550E+02 -2.146445E-09 -7.211820E-10
       421  11  3.889788E+06  1.798199E+04  2.575816E+04  2.725896E+03  1.750662E-09  1.394911E-09
       421  12  3.894504E+06  2.056334E+04  3.084984E+04  3.620131E+02  1.850846E-09  1.743700E-10
       421  13  3.816571E+06  1.325677E+02  6.736641E+03  4.988351E+02  3.219480E-09  1.553446E-09
       421  14  3.816060E+06 -2.928843E+02  7.798383E+03  2.691711E+03  3.555649E-09  2.429293E-09
       421  15  3.816564E+06  1.248445E+03  1.188166E+04  4.979324E+02  5.117829E-10 -8.383882E-11
       421  16  3.747061E+06 -1.710021E+04 -1.020576E+04  2.945372E+02  3.557665E-09  5.557147E-10
       421  17  3.742337E+06 -1.856815E+04 -1.016179E+04  2.657530E+03 -1.396378E-09 -1.164548E-10
       421  18  3.738630E+06 -1.806689E+04 -7.086962E+03  6.338337E+02 -2.668783E-09 -3.268227E-10
       421  19  3.886085E+06  1.736500E+04  2.367870E+04  7.031551E+02  1.529138E+01  1.547068E+03
       421  20  3.889788E+06  1.798199E+04  2.575819E+04  2.725901E+03  3.899540E+03  1.682929E+03
       421  21  3.894504E+06  2.056336E+04  3.084996E+04  3.620247E+02  7.783768E+03  1.856189E+03
       421  22  3.816571E+06  1.325703E+02  6.736645E+03  4.988351E+02  5.671546E+01  1.547107E+03
       421  23  3.816060E+06 -2.928770E+02  7.798417E+03  2.691717E+03  3.954093E+03  1.682982E+03
       421  24  3.816564E+06  1.248465E+03  1.188178E+04  4.979442E+02  7.851424E+03  1.856260E+03
       421  25  3.747061E+06 -1.710021E+04 -1.020576E+04  2.945373E+02  9.813493E+01  1.547146E+03
       421  26  3.742337E+06 -1.856815E+04 -1.016175E+04  2.657535E+03  4.008640E+03  1.683035E+03
       421  27  3.738630E+06 -1.806687E+04 -7.086838E+03  6.338455E+02  7.919071E+03  1.856331E+03
       422   1  3.906239E+06  2.159513E+04  3.642726E+04  1.281948E+03 -1.018624E+04 -1.972619E+03
       422   2  3.910097E+06  2.161280E+04  4.734295E+04  3.044191E+03 -2.241291E+04 -2.192402E+03
       422   3  3.919006E+06  3.538483E+04  6.962799E+04 -1.868384E+03 -3.463961E+04 -2.428637E+03
       422   4  3.817464E+06 -4.143904E+02  1.478825E+04 -6.617510E+00 -1.025801E+04 -1.972676E+03
       422   5  3.814918E+06 -1.978016E+03  2.415906E+04  3.325643E+03 -2.248900E+04 -2.192505E+03
       422   6  3.817423E+06  1.021471E+04  4.490347E+04 -1.699633E+01 -3.471990E+04 -2.428848E+03
       422   7  3.728697E+06 -2.242448E+04 -6.851326E+03 -1.295000E+03 -1.032978E+04 -1.972734E+03
       422   8  3.719746E+06 -2.556950E+04  9.745067E+02  3.607050E+03 -2.256509E+04 -2.192609E+03
       422   9  3.715850E+06 -1.495614E+04  2.017819E+04  1.834087E+03 -3.480019E+04 -2.429060E+03
       422  10  3.906239E+06  2.159510E+04  3.642705E+04  1.281931E+03 -1.639957E-09  1.569946E-10
       422  11  3.910096E+06  2.161266E+04  4.734201E+04  3.044151E+03 -3.563063E-09 -8.696366E-10
       422  12  3.919004E+06  3.538450E+04  6.962574E+04 -1.868452E+03  2.005381E-09 -2.758482E-10
       422  13  3.817464E+06 -4.144226E+02  1.478805E+04 -6.633786E+00  9.945898E-10  1.740180E-10
       422  14  3.814917E+06 -1.978156E+03  2.415810E+04  3.325603E+03 -1.319145E-09  5.057680E-10
       422  15  3.817422E+06  1.021439E+04  4.490120E+04 -1.706415E+01 -5.535851E-10 -4.724041E-10
       422  16  3.728697E+06 -2.242452E+04 -6.851533E+03 -1.295017E+03  1.413562E-09 -1.647940E-09
       422  17  3.719746E+06 -2.556964E+04  9.735465E+02  3.607010E+03 -8.087737E-10  1.270550E-09
       422  18  3.715848E+06 -1.495647E+04  2.017592E+04  1.834019E+03 -8.986443E-10  1.704136E-10
       422  19  3.906239E+06  2.159513E+04  3.642726E+04  1.281948E+03  1.018624E+04  1.972619E+03
       422  20  3.910097E+06  2.161280E+04  4.734295E+04  3.044191E+03  2.241291E+04  2.192402E+03
       422  21  3.919006E+06  3.538483E+04  6.962799E+04 -1.868384E+03  3.463961E+04  2.428637E+03
       422  22  3.817464E+06 -4.143904E+02  1.478825E+04 -6.617510E+00  1.025801E+04  1.972676E+03
       422  23  3.814918E+06 -1.978016E+03  2.415906E+04  3.325643E+03  2.248900E+04  2.192505E+03
       422  24  3.817423E+06  1.021471E+04  4.490347E+04 -1.699633E+01  3.471990E+04  2.428848E+03
       422  25  3.728697E+06 -2.242448E+04 -6.851326E+03 -1.295000E+03  1.032978E+04  1.972734E+03
       422  26  3.719746E+06 -2.556950E+04  9.745067E+02  3.607050E+03  2.256509E+04  2.192609E+03
       422  27  3.715850E+06 -1.495614E+04  2.017819E+04  1.834087E+03  3.480019E+04  2.429060E+03
       423   1  3.941333E+06  2.559220E+04  8.533397E+04  8.622092E+03 -4.364891E+04 -2.654962E+03
       423   2  3.933805E+06  1.603056E+04  1.241752E+05 -1.508703E+02 -9.212127E+04 -3.029854E+03
       423   3  3.959753E+06  1.151971E+05  2.216313E+05 -1.867557E+04 -1.405968E+05 -3.119065E+03
       423   4  3.823770E+06 -3.574426E+03  5.667666E+04 -6.604163E+02 -4.381195E+04 -2.654521E+03
       423   5  3.806931E+06 -1.540285E+04  9.328153E+04  4.162859E+03 -9.217300E+04 -3.030604E+03
       423   6  3.823555E+06  8.148917E+04  1.884328E+05 -7.653743E+02 -1.405365E+05 -3.123091E+03
       423   7  3.706220E+06 -3.274175E+04  2.801839E+04 -9.941176E+03 -4.397495E+04 -2.654075E+03
       423   8  3.680071E+06 -4.683737E+04  6.238669E+04  8.475706E+03 -9.222471E+04 -3.031355E+03
       423   9  3.687375E+06  4.778112E+04  1.552332E+05  1.714090E+04 -1.404762E+05 -3.127114E+03
       423  10  3.941331E+06  2.559168E+04  8.533040E+04  8.621999E+03  6.013080E-12 -2.928849E-10
       423  11  3.933796E+06  1.602829E+04  1.241593E+05 -1.510947E+02 -3.077541E-10 -1.061913E-09
       423  12  3.959732E+06  1.151918E+05  2.215943E+05 -1.867592E+04  1.227102E-09 -1.690703E-09
       423  13  3.823768E+06 -3.574945E+03  5.667306E+04 -6.605098E+02  9.396370E-10 -5.283772E-10
       423  14  3.806922E+06 -1.540512E+04  9.326564E+04  4.162634E+03  8.656992E-11 -4.773206E-11
       423  15  3.823534E+06  8.148389E+04  1.883959E+05 -7.657273E+02  3.693921E-10 -1.688540E-09
       423  16  3.706218E+06 -3.274227E+04  2.801477E+04 -9.941270E+03  1.231647E-09 -2.378138E-10
       423  17  3.680062E+06 -4.683964E+04  6.237078E+04  8.475481E+03  4.286094E-09  2.841129E-09
       423  18  3.687354E+06  4.777585E+04  1.551963E+05  1.714055E+04  5.652732E-10 -6.173722E-10
       423  19  3.941333E+06  2.559220E+04  8.533397E+04  8.622092E+03  4.364891E+04  2.654962E+03
       423  20  3.933805E+06  1.603056E+04  1.241752E+05 -1.508703E+02  9.212127E+04  3.029854E+03
       423  21  3.959753E+06  1.151971E+05  2.216313E+05 -1.867557E+04  1.405968E+05  3.119065E+03
       423  22  3.823770E+06 -3.574426E+03  5.667666E+04 -6.604163E+02  4.381195E+04  2.654521E+03
       423  23  3.806931E+06 -1.540285E+04  9.328153E+04  4.162859E+03  9.217300E+04  3.030604E+03
       423  24  3.823555E+06  8.148917E+04  1.884328E+05 -7.653743E+02  1.405365E+05  3.123091E+03
       423  25  3.706220E+06 -3.274175E+04  2.801839E+04 -9.941176E+03  4.397495E+04  2.654075E+03
       423  26  3.680071E+06 -4.683737E+04  6.238669E+04  8.475706E+03  9.222471E+04  3.031355E+03
       423  27  3.687375E+06  4.778112E+04  1.552332E+05  1.714090E+04  1.404762E+05  3.127114E+03
       424   1  4.028318E+06  1.086106E+04  2.679563E+05  6.854254E+04 -1.765958E+05 -3.944930E+03
       424   2  3.921729E+06 -7.780246E+04  3.999971E+05 -3.610643E+04 -3.723973E+05 -4.772926E+03
       424   3  4.054241E+06  6.893216E+05  8.730088E+05 -1.554470E+05 -5.681968E+05 -2.223626E+03
       424   4  3.869521E+06 -2.873170E+04  2.292534E+05 -1.450826E+03 -1.773826E+05 -3.926289E+03
       424   5  3.749460E+06 -1.203397E+05  3.581452E+05  5.351632E+03 -3.719403E+05 -4.797162E+03
       424   6  3.868328E+06  6.437054E+05  8.272092E+05 -2.515556E+03 -5.664911E+05 -2.360221E+03
       424   7  3.710757E+06 -6.830805E+04  1.905512E+05 -7.142635E+04 -1.781693E+05 -3.907468E+03
       424   8  3.577222E+06 -1.628726E+05  3.162920E+05  4.679822E+04 -3.714833E+05 -4.821342E+03
       424   9  3.682496E+06  5.981741E+05  7.814195E+05  1.503704E+05 -5.647860E+05 -2.496016E+03
       424  10  4.028284E+06  1.085273E+04  2.678981E+05  6.854198E+04 -2.377308E-10 -1.880408E-09
       424  11  3.921581E+06 -7.783941E+04  3.997381E+05 -3.610786E+04 -3.254988E-09 -4.611991E-09
       424  12  4.053897E+06  6.892356E+05  8.724060E+05 -1.554480E+05 -1.030671E-09 -1.226138E-09
       424  13  3.869487E+06 -2.874010E+04  2.291946E+05 -1.451386E+03 -3.889411E-09 -6.597222E-09
       424  14  3.749313E+06 -1.203765E+05  3.578868E+05  5.350198E+03  4.809772E-09  3.352965E-09
       424  15  3.867985E+06  6.436199E+05  8.266098E+05 -2.516630E+03  1.033223E-09  1.567010E-10
       424  16  3.710724E+06 -6.831653E+04  1.904919E+05 -7.142691E+04  1.949734E-09 -2.047961E-09
       424  17  3.577075E+06 -1.629094E+05  3.160341E+05  4.679678E+04  3.880873E-09  3.091130E-09
       424  18  3.682155E+06  5.980891E+05  7.808235E+05  1.503693E+05  1.912233E-10 -9.819127E-10
       424  19  4.028318E+06  1.086106E+04  2.679563E+05  6.854254E+04  1.765958E+05  3.944930E+03
       424  20  3.921729E+06 -7.780246E+04  3.999971E+05 -3.610643E+04  3.723973E+05  4.772926E+03
       424  21  4.054241E+06  6.893216E+05  8.730088E+05 -1.554470E+05  5.681968E+05  2.223626E+03
       424  22  3.869521E+06 -2.873170E+04  2.292534E+05 -1.450826E+03  1.773826E+05  3.926289E+03
       424  23  3.749460E+06 -1.203397E+05  3.581452E+05  5.351632E+03  3.719403E+05  4.797162E+03
       424  24  3.868328E+06  6.437054E+05  8.272092E+05 -2.515556E+03  5.664911E+05  2.360221E+03
       424  25  3.710757E+06 -6.830805E+04  1.905512E+05 -7.142635E+04  1.781693E+05  3.907468E+03
       424  26  3.577222E+06 -1.628726E+05  3.162920E+05  4.679822E+04  3.714833E+05  4.821342E+03
       424  27  3.682496E+06  5.981741E+05  7.814195E+05  1.503704E+05  5.647860E+05  2.496016E+03
       425   1  5.887415E+05  1.908764E+05  1.773438E+05  5.330995E+04  6.369651E+04 -1.134785E+04
       425   2  5.340966E+05  1.800124E+05  1.347860E+05  5.400621E+04  3.071434E+04 -3.904651E+04
       425   3  4.835913E+05  1.684797E+05  1.135568E+05  6.315839E+04 -2.292251E+03 -4.855818E+04
       425   4 -2.460856E+05 -1.469809E+04 -1.609196E+04  6.192944E+04 -1.128452E+04 -1.148328E+04
       425   5 -2.449176E+05 -4.296067E+03 -7.991741E+03  5.768816E+04 -7.130923E+03 -3.912312E+04
       425   6 -2.460582E+05 -1.009570E+03 -4.342555E+03  6.190231E+04 -3.005814E+03 -4.856497E+04
       425   7 -1.080257E+06 -2.203183E+05 -2.095533E+05  7.053696E+04 -8.616552E+04 -1.162089E+04
       425   8 -1.023340E+06 -1.886381E+05 -1.507888E+05  6.136508E+04 -4.492999E+04 -3.920024E+04
       425   9 -9.751795E+05 -1.705258E+05 -1.222565E+05  6.064748E+04 -3.718567E+03 -4.857176E+04
       425  10  5.887371E+05  1.908752E+05  1.773360E+05  5.331053E+04 -5.742201E-10 -2.278191E-09
       425  11  5.340952E+05  1.800105E+05  1.347813E+05  5.400718E+04  3.088618E-09 -4.647759E-09
       425  12  4.835906E+05  1.684771E+05  1.135524E+05  6.315830E+04  1.610714E-11 -3.545348E-09
       425  13 -2.460858E+05 -1.469826E+04 -1.609245E+04  6.192933E+04 -1.101404E-10  1.331924E-09
       425  14 -2.449180E+05 -4.297724E+03 -7.994713E+03  5.768794E+04  2.325452E-09 -1.116956E-09
       425  15 -2.460588E+05 -1.012105E+03 -4.347004E+03  6.190219E+04  1.925686E-09 -2.417837E-09
       425  16 -1.080265E+06 -2.203204E+05 -2.095675E+05  7.053616E+04 -8.338370E-10  1.531235E-09
       425  17 -1.023342E+06 -1.886403E+05 -1.507955E+05  6.136366E+04 -1.975067E-09 -2.423982E-09
       425  18 -9.751802E+05 -1.705283E+05 -1.222609E+05  6.064733E+04 -6.189456E-10 -2.401967E-09
       425  19  5.887415E+05  1.908764E+05  1.773438E+05  5.330995E+04 -6.369651E+04  1.134785E+04
       425  20  5.340966E+05  1.800124E+05  1.347860E+05  5.400621E+04 -3.071434E+04  3.904651E+04
       425  21  4.835913E+05  1.684797E+05  1.135568E+05  6.315839E+04  2.292251E+03  4.855818E+04
       425  22 -2.460856E+05 -1.469809E+04 -1.609196E+04  6.192944E+04  1.128452E+04  1.148328E+04
       425  23 -2.449176E+05 -4.296067E+03 -7.991741E+03  5.768816E+04  7.130923E+03  3.912312E+04
       425  24 -2.460582E+05 -1.009570E+03 -4.342555E+03  6.190231E+04  3.005814E+03  4.856497E+04
       425  25 -1.080257E+06 -2.203183E+05 -2.095533E+05  7.053696E+04  8.616552E+04  1.162089E+04
       425  26 -1.023340E+06 -1.886381E+05 -1.507888E+05  6.136508E+04  4.492999E+04  3.920024E+04
       425  27 -9.751795E+05 -1.705258E+05 -1.222565E+05  6.064748E+04  3.718567E+03  4.857176E+04
       426   1  4.499047E+05  1.602702E+05  1.066768E+05  6.280535E+04 -1.428991E+03 -4.812111E+04
       426   2  3.971760E+05  1.479326E+05  9.566397E+04  5.817854E+04 -4.765628E+03 -4.759042E+04
       426   3  3.449262E+05  1.358480E+05  8.688341E+04  6.330306E+04 -8.107347E+03 -4.498699E+04
       426   4 -2.455936E+05 -7.986681E+02 -3.267272E+03  6.219265E+04 -2.444352E+03 -4.812835E+04
       426   5 -2.454537E+05 -7.055281E+01 -1.784887E+03  5.731558E+04 -1.550389E+03 -4.758813E+04
       426   6 -2.455709E+05  1.765211E+02 -1.007244E+03  6.219048E+04 -6.617167E+02 -4.497406E+04
       426   7 -9.406104E+05 -1.618915E+05 -1.132234E+05  6.158039E+04 -3.458617E+03 -4.813560E+04
       426   8 -8.876696E+05 -1.480934E+05 -9.924229E+04  5.645331E+04  1.661655E+03 -4.758585E+04
       426   9 -8.357176E+05 -1.355113E+05 -8.890428E+04  6.107879E+04  6.777121E+03 -4.496115E+04
       426  10  4.499041E+05  1.602677E+05  1.066724E+05  6.280530E+04 -9.606400E-09 -4.036493E-09
       426  11  3.971753E+05  1.479301E+05  9.565967E+04  5.817836E+04  1.288935E-09  1.609972E-09
       426  12  3.449256E+05  1.358458E+05  8.687949E+04  6.330277E+04  2.318121E-09  8.764494E-10
       426  13 -2.455943E+05 -8.011568E+02 -3.271636E+03  6.219255E+04  5.406172E-10 -1.119083E-09
       426  14 -2.454543E+05 -7.298498E+01 -1.789147E+03  5.731552E+04  2.474130E-09  9.465898E-10
       426  15 -2.455715E+05  1.743492E+02 -1.011045E+03  6.219046E+04  1.290441E-09 -3.958449E-09
       426  16 -9.406111E+05 -1.618940E+05 -1.132278E+05  6.158026E+04  8.001522E-09  2.017133E-09
       426  17 -8.876702E+05 -1.480958E+05 -9.924655E+04  5.645338E+04 -1.461625E-09  3.194299E-09
       426  18 -8.357182E+05 -1.355135E+05 -8.890816E+04  6.107903E+04 -4.208733E-09 -2.138931E-09
       426  19  4.499047E+05  1.602702E+05  1.066768E+05  6.280535E+04  1.428991E+03  4.812111E+04
       426  20  3.971760E+05  1.479326E+05  9.566397E+04  5.817854E+04  4.765628E+03  4.759042E+04
       426  21  3.449262E+05  1.358480E+05  8.688341E+04  6.330306E+04  8.107347E+03  4.498699E+04
       426  22 -2.455936E+05 -7.986681E+02 -3.267272E+03  6.219265E+04  2.444352E+03  4.812835E+04
       426  23 -2.454537E+05 -7.055281E+01 -1.784887E+03  5.731558E+04  1.550389E+03  4.758813E+04
       426  24 -2.455709E+05  1.765211E+02 -1.007244E+03  6.219048E+04  6.617167E+02  4.497406E+04
       426  25 -9.406104E+05 -1.618915E+05 -1.132234E+05  6.158039E+04  3.458617E+03  4.813560E+04
       426  26 -8.876696E+05 -1.480934E+05 -9.924229E+04  5.645331E+04 -1.661655E+03  4.758585E+04
       426  27 -8.357176E+05 -1.355113E+05 -8.890428E+04  6.107879E+04 -6.777121E+03  4.496115E+04
       427   1  3.117790E+05  1.281522E+05  8.174828E+04  6.323906E+04 -7.926828E+03 -4.279057E+04
       427   2  2.592496E+05  1.160462E+05  7.392062E+04  5.822113E+04 -8.201675E+03 -3.904079E+04
       427   3  2.067439E+05  1.040375E+05  6.628508E+04  6.310714E+04 -8.478257E+03 -3.505401E+04
       427   4 -2.455206E+05  1.936167E+02 -7.634171E+02  6.222456E+04 -5.140017E+02 -4.277692E+04
       427   5 -2.454801E+05  2.290407E+02 -4.350975E+02  5.727227E+04 -3.055959E+02 -3.902478E+04
       427   6 -2.455026E+05  2.779585E+02 -2.504316E+02  6.222439E+04 -9.894604E+01 -3.503555E+04
       427   7 -8.025078E+05 -1.277795E+05 -8.328060E+04  6.121082E+04  6.892444E+03 -4.276329E+04
       427   8 -7.499533E+05 -1.155999E+05 -7.479513E+04  5.632406E+04  7.584329E+03 -3.900879E+04
       427   9 -6.975430E+05 -1.034911E+05 -6.678930E+04  6.134217E+04  8.274513E+03 -3.501710E+04
       427  10  3.117785E+05  1.281502E+05  8.174472E+04  6.323878E+04 -7.000232E-08  5.080158E-10
       427  11  2.592491E+05  1.160445E+05  7.391763E+04  5.822087E+04  3.417338E-09 -1.764842E-09
       427  12  2.067435E+05  1.040362E+05  6.628263E+04  6.310690E+04  7.091471E-08 -2.658573E-09
       427  13 -2.455211E+05  1.916519E+02 -7.668559E+02  6.222454E+04  1.576969E-10 -7.086169E-09
       427  14 -2.454805E+05  2.274055E+02 -4.379592E+02  5.727226E+04  3.836280E-10 -1.734845E-09
       427  15 -2.455029E+05  2.766405E+02 -2.527381E+02  6.222438E+04  3.470354E-09  1.690418E-09
       427  16 -8.025083E+05 -1.277814E+05 -8.328413E+04  6.121106E+04  6.884890E-08 -7.385653E-10
       427  17 -7.499537E+05 -1.156016E+05 -7.479809E+04  5.632429E+04 -2.616684E-09  1.508881E-09
       427  18 -6.975435E+05 -1.034924E+05 -6.679173E+04  6.134240E+04 -7.236943E-08 -3.341212E-09
       427  19  3.117790E+05  1.281522E+05  8.174828E+04  6.323906E+04  7.926828E+03  4.279057E+04
       427  20  2.592496E+05  1.160462E+05  7.392062E+04  5.822113E+04  8.201675E+03  3.904079E+04
       427  21  2.067439E+05  1.040375E+05  6.628508E+04  6.310714E+04  8.478257E+03  3.505401E+04
       427  22 -2.455206E+05  1.936167E+02 -7.634171E+02  6.222456E+04  5.140017E+02  4.277692E+04
       427  23 -2.454801E+05  2.290407E+02 -4.350975E+02  5.727227E+04  3.055959E+02  3.902478E+04
       427  24 -2.455026E+05  2.779585E+02 -2.504316E+02  6.222439E+04  9.894604E+01  3.503555E+04
       427  25 -8.025078E+05 -1.277795E+05 -8.328060E+04  6.121082E+04 -6.892444E+03  4.276329E+04
       427  26 -7.499533E+05 -1.155999E+05 -7.479513E+04  5.632406E+04 -7.584329E+03  3.900879E+04
       427  27 -6.975430E+05 -1.034911E+05 -6.678930E+04  6.134217E+04 -8.274513E+03  3.501710E+04
       428   1  1.736458E+05  9.640644E+04  6.125361E+04  6.305245E+04 -8.441371E+03 -3.265562E+04
       428   2  1.211152E+05  8.435149E+04  5.366144E+04  5.799623E+04 -8.446943E+03 -2.853704E+04
       428   3  6.855123E+04  7.235600E+04  4.607228E+04  6.286592E+04 -8.453497E+03 -2.439161E+04
       428   4 -2.454935E+05  2.846722E+02 -1.927442E+02  6.222925E+04 -6.456238E+01 -3.263650E+04
       428   5 -2.454637E+05  2.733709E+02 -1.178791E+02  5.726612E+04 -1.579072E+01 -2.851683E+04
       428   6 -2.454804E+05  3.119465E+02 -7.819250E+01  6.222921E+04  3.199756E+01 -2.437031E+04
       428   7 -6.644557E+05 -9.584521E+04 -6.164189E+04  6.140652E+04  8.306826E+03 -3.261740E+04
       428   8 -6.119071E+05 -8.381095E+04 -5.389927E+04  5.653636E+04  8.410589E+03 -2.849664E+04
       428   9 -5.594126E+05 -7.173665E+04 -4.623013E+04  6.159278E+04  8.513377E+03 -2.434902E+04
       428  10  1.736454E+05  9.640528E+04  6.125147E+04  6.305223E+04  2.200060E-08 -2.133257E-09
       428  11  1.211149E+05  8.435060E+04  5.365978E+04  5.799604E+04 -2.499530E-09  4.002125E-09
       428  12  6.855099E+04  7.235534E+04  4.607103E+04  6.286575E+04 -3.806773E-08  3.334831E-10
       428  13 -2.454938E+05  2.835286E+02 -1.947456E+02  6.222925E+04  1.056244E-11  5.293851E-10
       428  14 -2.454639E+05  2.724978E+02 -1.194072E+02  5.726612E+04  1.984695E-09  1.322950E-08
       428  15 -2.454806E+05  3.113088E+02 -7.930845E+01  6.222922E+04  2.647993E-09  1.594165E-08
       428  16 -6.644560E+05 -9.584638E+04 -6.164401E+04  6.140674E+04 -2.289108E-08 -2.211575E-09
       428  17 -6.119074E+05 -8.381184E+04 -5.390093E+04  5.653655E+04  3.689804E-09  8.351376E-10
       428  18 -5.594128E+05 -7.173731E+04 -4.623138E+04  6.159294E+04  3.666731E-08 -2.582405E-09
       428  19  1.736458E+05  9.640644E+04  6.125361E+04  6.305245E+04  8.441371E+03  3.265562E+04
       428  20  1.211152E+05  8.435149E+04  5.366144E+04  5.799623E+04  8.446943E+03  2.853704E+04
       428  21  6.855123E+04  7.235600E+04  4.607228E+04  6.286592E+04  8.453497E+03  2.439161E+04
       428  22 -2.454935E+05  2.846722E+02 -1.927442E+02  6.222925E+04  6.456238E+01  3.263650E+04
       428  23 -2.454637E+05  2.733709E+02 -1.178791E+02  5.726612E+04  1.579072E+01  2.851683E+04
       428  24 -2.454804E+05  3.119465E+02 -7.819250E+01  6.222921E+04 -3.199756E+01  2.437031E+04
       428  25 -6.644557E+05 -9.584521E+04 -6.164189E+04  6.140652E+04 -8.306826E+03  3.261740E+04
       428  26 -6.119071E+05 -8.381095E+04 -5.389927E+04  5.653636E+04 -8.410589E+03  2.849664E+04
       428  27 -5.594126E+05 -7.173665E+04 -4.623013E+04  6.159278E+04 -8.513377E+03  2.434902E+04
       429   1  3.544308E+04  6.472750E+04  4.102112E+04  6.280408E+04 -8.446793E+03 -2.196963E+04
       429   2 -1.709812E+04  5.267211E+04  3.340305E+04  5.773130E+04 -8.414970E+03 -1.781218E+04
       429   3 -6.969055E+04  4.066693E+04  2.575806E+04  6.259302E+04 -8.383711E+03 -1.365923E+04
       429   4 -2.454778E+05  3.172790E+02 -6.922182E+01  6.223109E+04  3.927748E+01 -2.194787E+04
       429   5 -2.454479E+05  3.002545E+02 -6.662020E+01  5.726373E+04  6.161596E+01 -1.778985E+04
       429   6 -2.454697E+05  3.353707E+02 -8.430927E+01  6.223107E+04  8.339308E+01 -1.363633E+04
       429   7 -5.263190E+05 -6.409656E+04 -4.116064E+04  6.165832E+04  8.521667E+03 -2.192612E+04
       429   8 -4.737450E+05 -5.207398E+04 -3.353692E+04  5.679630E+04  8.535213E+03 -1.776752E+04
       429   9 -4.212175E+05 -3.999759E+04 -2.592695E+04  6.186920E+04  8.548199E+03 -1.361344E+04
       429  10  3.544287E+04  6.472697E+04  4.102008E+04  6.280393E+04  4.882540E-08 -4.644394E-09
       429  11 -1.709828E+04  5.267175E+04  3.340232E+04  5.773118E+04  1.222502E-08 -4.417410E-09
       429  12 -6.969067E+04  4.066671E+04  2.575758E+04  6.259293E+04 -3.312555E-08 -2.490346E-09
       429  13 -2.454779E+05  3.167618E+02 -7.012695E+01  6.223109E+04  3.396801E-10  2.069553E-08
       429  14 -2.454480E+05  2.999147E+02 -6.721486E+01  5.726373E+04  1.337661E-09  8.790314E-09
       429  15 -2.454697E+05  3.351711E+02 -8.465868E+01  6.223107E+04  1.748857E-09 -9.662007E-11
       429  16 -5.263192E+05 -6.409710E+04 -4.116168E+04  6.165848E+04 -5.118924E-08 -1.432397E-09
       429  17 -4.737452E+05 -5.207434E+04 -3.353765E+04  5.679643E+04 -1.222798E-08 -4.107480E-09
       429  18 -4.212176E+05 -3.999781E+04 -2.592744E+04  6.186929E+04  3.253338E-08 -3.229213E-09
       429  19  3.544308E+04  6.472750E+04  4.102112E+04  6.280408E+04  8.446793E+03  2.196963E+04
       429  20 -1.709812E+04  5.267211E+04  3.340305E+04  5.773130E+04  8.414970E+03  1.781218E+04
       429  21 -6.969055E+04  4.066693E+04  2.575806E+04  6.259302E+04  8.383711E+03  1.365923E+04
       429  22 -2.454778E+05  3.172790E+02 -6.922182E+01  6.223109E+04 -3.927748E+01  2.194787E+04
       429  23 -2.454479E+05  3.002545E+02 -6.662020E+01  5.726373E+04 -6.161596E+01  1.778985E+04
       429  24 -2.454697E+05  3.353707E+02 -8.430927E+01  6.223107E+04 -8.339308E+01  1.363633E+04
       429  25 -5.263190E+05 -6.409656E+04 -4.116064E+04  6.165832E+04 -8.521667E+03  2.192612E+04
       429  26 -4.737450E+05 -5.207398E+04 -3.353692E+04  5.679630E+04 -8.535213E+03  1.776752E+04
       429  27 -4.212175E+05 -3.999759E+04 -2.592695E+04  6.186920E+04 -8.548199E+03  1.361344E+04
       430   1 -1.028113E+05  3.303216E+04  2.067122E+04  6.252086E+04 -8.374922E+03 -1.124044E+04
       430   2 -1.553432E+05  2.095739E+04  1.293131E+04  5.744529E+04 -8.159279E+03 -7.123197E+03
       430   3 -2.079633E+05  8.897021E+03  5.034502E+03  6.230120E+04 -7.943695E+03 -3.076385E+03
       430   4 -2.454709E+05  3.389362E+02 -1.030484E+02  6.223035E+04  9.368931E+01 -1.121729E+04
       430   5 -2.454363E+05  3.145145E+02 -1.668986E+02  5.726460E+04  1.653187E+02 -7.100213E+03
       430   6 -2.454677E+05  3.295688E+02 -2.877970E+02  6.223039E+04  2.369076E+02 -3.053571E+03
       430   7 -3.881098E+05 -3.235519E+04 -2.087739E+04  6.193990E+04  8.560435E+03 -1.119415E+04
       430   8 -3.355210E+05 -2.032870E+04 -1.326498E+04  5.708392E+04  8.488759E+03 -7.077232E+03
       430   9 -2.829704E+05 -8.237911E+03 -5.609864E+03  6.215959E+04  8.417037E+03 -3.030759E+03
       430  10 -1.028114E+05  3.303200E+04  2.067085E+04  6.252079E+04 -9.349934E-09  3.047818E-09
       430  11 -1.553433E+05  2.095732E+04  1.293108E+04  5.744525E+04 -1.979864E-09  1.506311E-09
       430  12 -2.079634E+05  8.896994E+03  5.034365E+03  6.230118E+04 -4.585621E-09  3.029970E-10
       430  13 -2.454709E+05  3.388011E+02 -1.032848E+02  6.223036E+04 -1.061342E-09  4.974235E-10
       430  14 -2.454363E+05  3.144604E+02 -1.669934E+02  5.726460E+04  1.166753E-09  7.512954E-10
       430  15 -2.454677E+05  3.295588E+02 -2.878146E+02  6.223039E+04  2.271197E-09  1.551781E-09
       430  16 -3.881099E+05 -3.235534E+04 -2.087776E+04  6.193998E+04  6.544681E-09  1.826356E-09
       430  17 -3.355210E+05 -2.032877E+04 -1.326521E+04  5.708397E+04  1.805712E-09 -6.911869E-09
       430  18 -2.829705E+05 -8.237940E+03 -5.610014E+03  6.215961E+04  3.539026E-09  1.022472E-09
       430  19 -1.028113E+05  3.303216E+04  2.067122E+04  6.252086E+04  8.374922E+03  1.124044E+04
       430  20 -1.553432E+05  2.095739E+04  1.293131E+04  5.744529E+04  8.159279E+03  7.123197E+03
       430  21 -2.079633E+05  8.897021E+03  5.034502E+03  6.230120E+04  7.943695E+03  3.076385E+03
       430  22 -2.454709E+05  3.389362E+02 -1.030484E+02  6.223035E+04 -9.368931E+01  1.121729E+04
       430  23 -2.454363E+05  3.145145E+02 -1.668986E+02  5.726460E+04 -1.653187E+02  7.100213E+03
       430  24 -2.454677E+05  3.295688E+02 -2.877970E+02  6.223039E+04 -2.369076E+02  3.053571E+03
       430  25 -3.881098E+05 -3.235519E+04 -2.087739E+04  6.193990E+04 -8.560435E+03  1.119415E+04
       430  26 -3.355210E+05 -2.032870E+04 -1.326498E+04  5.708392E+04 -8.488759E+03  7.077232E+03
       430  27 -2.829704E+05 -8.237911E+03 -5.609864E+03  6.215959E+04 -8.417037E+03  3.030759E+03
       431   1 -2.411337E+05  1.231037E+03 -2.132585E+02  6.219791E+04 -7.903406E+03 -7.169192E+02
       431   2 -2.935301E+05 -1.100857E+04 -8.702973E+03  5.725227E+04 -6.307943E+03  2.992194E+03
       431   3 -3.462893E+05 -2.361498E+04 -1.834295E+04  6.219490E+04 -4.710891E+03  6.077778E+03
       431   4 -2.454851E+05  3.276529E+02 -3.786260E+02  6.222065E+04  2.874965E+02 -6.940443E+02
       431   5 -2.454132E+05  2.247335E+02 -6.674233E+02  5.727703E+04  6.110704E+02  3.011419E+03
       431   6 -2.454868E+05 -2.421290E+01 -1.223281E+03  6.222162E+04  9.363786E+02  6.093380E+03
       431   7 -2.498362E+05 -5.756954E+02 -5.437400E+02  6.224340E+04  8.478347E+03 -6.711687E+02
       431   8 -1.972939E+05  1.145794E+04  7.368235E+03  5.730179E+04  7.530602E+03  3.030644E+03
       431   9 -1.446743E+05  2.356603E+04  1.589617E+04  6.224834E+04  6.584536E+03  6.108980E+03
       431  10 -2.411338E+05  1.231020E+03 -2.133768E+02  6.219791E+04 -1.340773E-08  5.228426E-09
       431  11 -2.935301E+05 -1.100859E+04 -8.703064E+03  5.725229E+04  2.956665E-09 -2.475454E-10
       431  12 -3.462893E+05 -2.361503E+04 -1.834306E+04  6.219493E+04  9.754510E-09  2.462002E-09
       431  13 -2.454851E+05  3.276524E+02 -3.786271E+02  6.222065E+04 -2.889949E-12  2.687002E-09
       431  14 -2.454132E+05  2.247237E+02 -6.674410E+02  5.727703E+04  1.165419E-09  4.040084E-09
       431  15 -2.454868E+05 -2.425300E+01 -1.223353E+03  6.222162E+04  2.530503E-09 -1.174460E-09
       431  16 -2.498363E+05 -5.757152E+02 -5.438760E+02  6.224340E+04  1.202512E-08  3.510043E-09
       431  17 -1.972940E+05  1.145791E+04  7.368111E+03  5.730177E+04 -2.739551E-09  1.905903E-09
       431  18 -1.446744E+05  2.356598E+04  1.589602E+04  6.224831E+04 -1.144416E-08 -8.241990E-09
       431  19 -2.411337E+05  1.231037E+03 -2.132585E+02  6.219791E+04  7.903406E+03  7.169192E+02
       431  20 -2.935301E+05 -1.100857E+04 -8.702973E+03  5.725227E+04  6.307943E+03 -2.992194E+03
       431  21 -3.462893E+05 -2.361498E+04 -1.834295E+04  6.219490E+04  4.710891E+03 -6.077778E+03
       431  22 -2.454851E+05  3.276529E+02 -3.786260E+02  6.222065E+04 -2.874965E+02  6.940443E+02
       431  23 -2.454132E+05  2.247335E+02 -6.674233E+02  5.727703E+04 -6.110704E+02 -3.011419E+03
       431  24 -2.454868E+05 -2.421290E+01 -1.223281E+03  6.222162E+04 -9.363786E+02 -6.093380E+03
       431  25 -2.498362E+05 -5.756954E+02 -5.437400E+02  6.224340E+04 -8.478347E+03  6.711687E+02
       431  26 -1.972939E+05  1.145794E+04  7.368235E+03  5.730179E+04 -7.530602E+03 -3.030644E+03
       431  27 -1.446743E+05  2.356603E+04  1.589617E+04  6.224834E+04 -6.584536E+03 -6.108980E+03
       432   1 -3.799047E+05 -3.157142E+04 -2.467967E+04  6.180411E+04 -4.596408E+03  7.908281E+03
       432   2 -4.310883E+05 -4.570625E+04 -3.885630E+04  5.881580E+04  8.100223E+03  8.019744E+03
       432   3 -4.851299E+05 -6.442426E+04 -6.246096E+04  6.533027E+04  2.081004E+04  2.655799E+03
       432   4 -2.456604E+05 -1.009194E+02 -1.626265E+03  6.213470E+04  1.141655E+03  7.924008E+03
       432   5 -2.452039E+05 -1.352368E+03 -2.990991E+03  5.739030E+04  2.674946E+03  8.004679E+03
       432   6 -2.456675E+05 -5.246994E+03 -6.027435E+03  6.214865E+04  4.222401E+03  2.610625E+03
       432   7 -1.113983E+05  3.136863E+04  2.142665E+04  6.246535E+04  6.880921E+03  7.939739E+03
       432   8 -5.928617E+04  4.299949E+04  3.287282E+04  5.596433E+04 -2.751920E+03  7.989641E+03
       432   9 -6.151704E+03  5.392636E+04  5.040318E+04  5.896575E+04 -1.237160E+04  2.565630E+03
       432  10 -3.799048E+05 -3.157149E+04 -2.467982E+04  6.180414E+04 -7.262430E-09  1.947984E-09
       432  11 -4.310883E+05 -4.570634E+04 -3.885654E+04  5.881575E+04  2.058116E-09 -2.104888E-09
       432  12 -4.851304E+05 -6.442438E+04 -6.246178E+04  6.533023E+04 -3.022351E-10 -7.023333E-10
       432  13 -2.456604E+05 -1.009872E+02 -1.626386E+03  6.213469E+04 -1.786027E-10  2.690447E-09
       432  14 -2.452039E+05 -1.352438E+03 -2.991125E+03  5.739028E+04  1.604894E-09 -6.978393E-09
       432  15 -2.456675E+05 -5.247006E+03 -6.027481E+03  6.214864E+04  2.040894E-09  1.021828E-09
       432  16 -1.113984E+05  3.136855E+04  2.142645E+04  6.246530E+04  5.652507E-09 -3.972043E-09
       432  17 -5.928620E+04  4.299942E+04  3.287269E+04  5.596435E+04 -6.117423E-10 -2.586719E-10
       432  18 -6.151870E+03  5.392631E+04  5.040288E+04  5.896577E+04 -1.626646E-09 -2.320981E-09
       432  19 -3.799047E+05 -3.157142E+04 -2.467967E+04  6.180411E+04  4.596408E+03 -7.908281E+03
       432  20 -4.310883E+05 -4.570625E+04 -3.885630E+04  5.881580E+04 -8.100223E+03 -8.019744E+03
       432  21 -4.851299E+05 -6.442426E+04 -6.246096E+04  6.533027E+04 -2.081004E+04 -2.655799E+03
       432  22 -2.456604E+05 -1.009194E+02 -1.626265E+03  6.213470E+04 -1.141655E+03 -7.924008E+03
       432  23 -2.452039E+05 -1.352368E+03 -2.990991E+03  5.739030E+04 -2.674946E+03 -8.004679E+03
       432  24 -2.456675E+05 -5.246994E+03 -6.027435E+03  6.214865E+04 -4.222401E+03 -2.610625E+03
       432  25 -1.113983E+05  3.136863E+04  2.142665E+04  6.246535E+04 -6.880921E+03 -7.939739E+03
       432  26 -5.928617E+04  4.299949E+04  3.287282E+04  5.596433E+04  2.751920E+03 -7.989641E+03
       432  27 -6.151704E+03  5.392636E+04  5.040318E+04  5.896575E+04  1.237160E+04 -2.565630E+03
       433   1 -6.042426E+05 -1.254310E+04 -5.583524E+04 -2.306146E+04 -1.268247E+05 -4.728369E+03
       433   2 -6.038248E+05  1.585629E+05  4.472804E+04 -1.134387E+04 -8.508205E+04 -1.327452E+04
       433   3 -6.581483E+05  1.309190E+05  6.851872E+04  2.848180E+04 -4.337139E+04 -1.177931E+04
       433   4 -1.155915E+06 -1.501560E+05 -1.928172E+05  1.134806E+04 -1.316647E+05 -4.749238E+03
       433   5 -1.128165E+06  2.803800E+04 -8.342187E+04 -2.931068E+03 -8.634652E+04 -1.328059E+04
       433   6 -1.155828E+06  6.767670E+03 -5.333375E+04  1.089948E+04 -4.105816E+04 -1.177035E+04
       433   7 -1.707309E+06 -2.877872E+05 -3.298211E+05  4.572677E+04 -1.365004E+05 -4.770655E+03
       433   8 -1.652255E+06 -1.025069E+05 -2.115918E+05  5.474407E+03 -8.760989E+04 -1.328670E+04
       433   9 -1.653281E+06 -1.174009E+05 -1.752042E+05 -6.668903E+03 -3.874677E+04 -1.176152E+04
       433  10 -6.042599E+05 -1.254745E+04 -5.586554E+04 -2.306194E+04 -2.834261E-09  1.367911E-09
       433  11 -6.038327E+05  1.585608E+05  4.471409E+04 -1.134478E+04 -1.210563E-11  8.631251E-09
       433  12 -6.581504E+05  1.309183E+05  6.851492E+04  2.848138E+04  1.862347E-09  4.734034E-09
       433  13 -1.155934E+06 -1.501607E+05 -1.928498E+05  1.134756E+04  2.840758E-09 -3.092847E-09
       433  14 -1.128173E+06  2.803580E+04 -8.343624E+04 -2.931992E+03  4.273439E-09 -8.836926E-09
       433  15 -1.155830E+06  6.767068E+03 -5.333718E+04  1.089909E+04  1.128066E-09 -4.458003E-10
       433  16 -1.707329E+06 -2.877923E+05 -3.298562E+05  4.572624E+04  5.146972E-09  1.093192E-09
       433  17 -1.652263E+06 -1.025092E+05 -2.116066E+05  5.473468E+03 -1.003635E-09  8.269352E-09
       433  18 -1.653282E+06 -1.174015E+05 -1.752073E+05 -6.669271E+03 -6.121886E-10 -2.636576E-09
       433  19 -6.042426E+05 -1.254310E+04 -5.583524E+04 -2.306146E+04  1.268247E+05  4.728369E+03
       433  20 -6.038248E+05  1.585629E+05  4.472804E+04 -1.134387E+04  8.508205E+04  1.327452E+04
       433  21 -6.581483E+05  1.309190E+05  6.851872E+04  2.848180E+04  4.337139E+04  1.177931E+04
       433  22 -1.155915E+06 -1.501560E+05 -1.928172E+05  1.134806E+04  1.316647E+05  4.749238E+03
       433  23 -1.128165E+06  2.803800E+04 -8.342187E+04 -2.931068E+03  8.634652E+04  1.328059E+04
       433  24 -1.155828E+06  6.767670E+03 -5.333375E+04  1.089948E+04  4.105816E+04  1.177035E+04
       433  25 -1.707309E+06 -2.877872E+05 -3.298211E+05  4.572677E+04  1.365004E+05  4.770655E+03
       433  26 -1.652255E+06 -1.025069E+05 -2.115918E+05  5.474407E+03  8.760989E+04  1.328670E+04
       433  27 -1.653281E+06 -1.174009E+05 -1.752042E+05 -6.668903E+03  3.874677E+04  1.176152E+04
       434   1 -7.072261E+05  9.016275E+04  6.353012E+04  8.997555E+03 -3.237416E+04 -9.652939E+03
       434   2 -7.338516E+05  1.050856E+05  7.806965E+04 -3.761726E+03 -2.153977E+04 -9.553762E+03
       434   3 -7.681150E+05  9.497487E+04  7.930095E+04  1.528140E+04 -1.071156E+04 -8.338752E+03
       434   4 -1.145233E+06 -1.896906E+04 -4.384396E+04  1.192629E+04 -3.253876E+04 -9.654230E+03
       434   5 -1.141368E+06  3.550277E+03 -2.169575E+04 -4.015023E+03 -2.131012E+04 -9.553234E+03
       434   6 -1.145217E+06  9.578936E+02 -1.313683E+04  1.184760E+04 -1.008714E+04 -8.336193E+03
       434   7 -1.583065E+06 -1.281151E+05 -1.512321E+05  1.485277E+04 -3.270323E+04 -9.655522E+03
       434   8 -1.548733E+06 -9.799741E+04 -1.214733E+05 -4.268310E+03 -2.108061E+04 -9.552706E+03
       434   9 -1.522188E+06 -9.306960E+04 -1.055850E+05  8.415748E+03 -9.463091E+03 -8.333639E+03
       434  10 -7.072272E+05  9.016237E+04  6.352797E+04  8.997303E+03 -8.534520E-10 -3.556422E-09
       434  11 -7.338522E+05  1.050854E+05  7.806861E+04 -3.761892E+03  1.286927E-09  6.945174E-09
       434  12 -7.681152E+05  9.497476E+04  7.930061E+04  1.528133E+04  4.681348E-09  1.300285E-08
       434  13 -1.145234E+06 -1.896944E+04 -4.384612E+04  1.192603E+04  1.724656E-09  1.128644E-08
       434  14 -1.141369E+06  3.550057E+03 -2.169678E+04 -4.015187E+03  5.837799E-09 -2.118021E-08
       434  15 -1.145217E+06  9.577916E+02 -1.313715E+04  1.184753E+04  7.779844E-11  9.880395E-09
       434  16 -1.583066E+06 -1.281154E+05 -1.512343E+05  1.485252E+04  6.182965E-09 -1.118515E-08
       434  17 -1.548733E+06 -9.799763E+04 -1.214743E+05 -4.268473E+03 -2.356976E-09 -1.176570E-09
       434  18 -1.522188E+06 -9.306970E+04 -1.055853E+05  8.415685E+03 -5.129779E-09 -4.566839E-09
       434  19 -7.072261E+05  9.016275E+04  6.353012E+04  8.997555E+03  3.237416E+04  9.652939E+03
       434  20 -7.338516E+05  1.050856E+05  7.806965E+04 -3.761726E+03  2.153977E+04  9.553762E+03
       434  21 -7.681150E+05  9.497487E+04  7.930095E+04  1.528140E+04  1.071156E+04  8.338752E+03
       434  22 -1.145233E+06 -1.896906E+04 -4.384396E+04  1.192629E+04  3.253876E+04  9.654230E+03
       434  23 -1.141368E+06  3.550277E+03 -2.169575E+04 -4.015023E+03  2.131012E+04  9.553234E+03
       434  24 -1.145217E+06  9.578936E+02 -1.313683E+04  1.184760E+04  1.008714E+04  8.336193E+03
       434  25 -1.583065E+06 -1.281151E+05 -1.512321E+05  1.485277E+04  3.270323E+04  9.655522E+03
       434  26 -1.548733E+06 -9.799741E+04 -1.214733E+05 -4.268310E+03  2.108061E+04  9.552706E+03
       434  27 -1.522188E+06 -9.306960E+04 -1.055850E+05  8.415748E+03  9.463091E+03  8.333639E+03
       435   1 -8.330805E+05  7.513385E+04  6.559929E+04  1.314877E+04 -8.353454E+03 -7.497637E+03
       435   2 -8.655199E+05  6.960875E+04  6.238155E+04 -3.854169E+03 -5.585772E+03 -6.416276E+03
       435   3 -8.992944E+05  6.121770E+04  5.658965E+04  1.373516E+04 -2.819849E+03 -5.178461E+03
       435   4 -1.143790E+06 -2.279268E+03 -1.041481E+04  1.250188E+04 -7.994758E+03 -7.496188E+03
       435   5 -1.143115E+06  4.275595E+02 -5.597709E+03 -4.800806E+03 -5.172089E+03 -6.414414E+03
       435   6 -1.143786E+06  2.581584E+02 -3.393798E+03  1.248975E+04 -2.351030E+03 -5.176154E+03
       435   7 -1.454411E+06 -7.969954E+04 -8.643598E+04  1.185521E+04 -7.636242E+03 -7.494740E+03
       435   8 -1.420640E+06 -6.875935E+04 -7.358261E+04 -5.747105E+03 -4.758590E+03 -6.412553E+03
       435   9 -1.388224E+06 -6.070582E+04 -6.338164E+04  1.124477E+04 -1.882395E+03 -5.173849E+03
       435  10 -8.330806E+05  7.513377E+04  6.559905E+04  1.314872E+04  4.121589E-10 -5.626621E-09
       435  11 -8.655199E+05  6.960870E+04  6.238141E+04 -3.854198E+03 -1.073518E-09 -8.099349E-09
       435  12 -8.992944E+05  6.121767E+04  5.658958E+04  1.373515E+04  2.900474E-09 -8.043889E-09
       435  13 -1.143790E+06 -2.279345E+03 -1.041504E+04  1.250183E+04  2.508643E-09 -4.752208E-09
       435  14 -1.143115E+06  4.275082E+02 -5.597837E+03 -4.800833E+03  2.810194E-09 -9.069441E-09
       435  15 -1.143786E+06  2.581282E+02 -3.393859E+03  1.248974E+04  1.455620E-09 -1.213655E-08
       435  16 -1.454412E+06 -7.969961E+04 -8.643619E+04  1.185516E+04  4.612859E-09 -1.374518E-08
       435  17 -1.420640E+06 -6.875940E+04 -7.358273E+04 -5.747130E+03 -1.138804E-09  6.839282E-09
       435  18 -1.388224E+06 -6.070585E+04 -6.338169E+04  1.124476E+04 -2.526590E-09  9.750172E-09
       435  19 -8.330805E+05  7.513385E+04  6.559929E+04  1.314877E+04  8.353454E+03  7.497637E+03
       435  20 -8.655199E+05  6.960875E+04  6.238155E+04 -3.854169E+03  5.585772E+03  6.416276E+03
       435  21 -8.992944E+05  6.121770E+04  5.658965E+04  1.373516E+04  2.819849E+03  5.178461E+03
       435  22 -1.143790E+06 -2.279268E+03 -1.041481E+04  1.250188E+04  7.994758E+03  7.496188E+03
       435  23 -1.143115E+06  4.275595E+02 -5.597709E+03 -4.800806E+03  5.172089E+03  6.414414E+03
       435  24 -1.143786E+06  2.581584E+02 -3.393798E+03  1.248975E+04  2.351030E+03  5.176154E+03
       435  25 -1.454411E+06 -7.969954E+04 -8.643598E+04  1.185521E+04  7.636242E+03  7.494740E+03
       435  26 -1.420640E+06 -6.875935E+04 -7.358261E+04 -5.747105E+03  4.758590E+03  6.412553E+03
       435  27 -1.388224E+06 -6.070582E+04 -6.338164E+04  1.124477E+04  1.882395E+03  5.173849E+03
       436   1 -9.700493E+05  4.309398E+04  3.968023E+04  1.351771E+04 -2.244623E+03 -4.437172E+03
       436   2 -1.004502E+06  3.464078E+04  3.224021E+04 -4.715451E+03 -1.386186E+03 -3.198172E+03
       436   3 -1.039532E+06  2.611505E+04  2.412898E+04  1.334584E+04 -5.284546E+02 -1.925496E+03
       436   4 -1.143607E+06 -1.426305E+02 -2.723518E+03  1.287301E+04 -1.806491E+03 -4.434930E+03
       436   5 -1.143317E+06  4.173916E+01 -1.757608E+03 -5.275244E+03 -9.361669E+02 -3.195787E+03
       436   6 -1.143606E+06  1.515111E+02 -1.471243E+03  1.287145E+04 -6.650200E+01 -1.922960E+03
       436   7 -1.317138E+06 -4.338147E+04 -4.512947E+04  1.222846E+04 -1.368480E+03 -4.432688E+03
       436   8 -1.282114E+06 -3.455873E+04 -3.575684E+04 -5.834936E+03 -4.862487E+02 -3.193402E+03
       436   9 -1.247671E+06 -2.581283E+04 -2.707226E+04  1.239713E+04  3.953731E+02 -1.920424E+03
       436  10 -9.700493E+05  4.309395E+04  3.968019E+04  1.351770E+04 -6.155865E-11 -1.334294E-08
       436  11 -1.004502E+06  3.464077E+04  3.224019E+04 -4.715454E+03 -1.905813E-09  4.177783E-09
       436  12 -1.039532E+06  2.611505E+04  2.412897E+04  1.334584E+04 -6.455381E-10 -1.713071E-09
       436  13 -1.143607E+06 -1.426525E+02 -2.723562E+03  1.287301E+04  2.293716E-09  3.066459E-09
       436  14 -1.143317E+06  4.172796E+01 -1.757629E+03 -5.275247E+03  3.449564E-09 -1.086233E-08
       436  15 -1.143606E+06  1.515071E+02 -1.471250E+03  1.287145E+04  2.054350E-09 -1.139132E-08
       436  16 -1.317138E+06 -4.338149E+04 -4.512951E+04  1.222846E+04  4.925895E-09  6.980679E-09
       436  17 -1.282114E+06 -3.455874E+04 -3.575686E+04 -5.834937E+03 -8.277526E-10  2.515733E-08
       436  18 -1.247671E+06 -2.581284E+04 -2.707227E+04  1.239713E+04  1.011719E-09  4.046841E-09
       436  19 -9.700493E+05  4.309398E+04  3.968023E+04  1.351771E+04  2.244623E+03  4.437172E+03
       436  20 -1.004502E+06  3.464078E+04  3.224021E+04 -4.715451E+03  1.386186E+03  3.198172E+03
       436  21 -1.039532E+06  2.611505E+04  2.412898E+04  1.334584E+04  5.284546E+02  1.925496E+03
       436  22 -1.143607E+06 -1.426305E+02 -2.723518E+03  1.287301E+04  1.806491E+03  4.434930E+03
       436  23 -1.143317E+06  4.173916E+01 -1.757608E+03 -5.275244E+03  9.361669E+02  3.195787E+03
       436  24 -1.143606E+06  1.515111E+02 -1.471243E+03  1.287145E+04  6.650200E+01  1.922960E+03
       436  25 -1.317138E+06 -4.338147E+04 -4.512947E+04  1.222846E+04  1.368480E+03  4.432688E+03
       436  26 -1.282114E+06 -3.455873E+04 -3.575684E+04 -5.834936E+03  4.862487E+02  3.193402E+03
       436  27 -1.247671E+06 -2.581283E+04 -2.707226E+04  1.239713E+04 -3.953731E+02  1.920424E+03
       437   1 -1.112737E+06  7.827880E+03  5.962254E+03  1.307760E+04 -2.640172E+02 -1.175792E+03
       437   2 -1.147676E+06 -1.042817E+03 -2.930266E+03 -5.446332E+03  6.591330E+02  1.051814E+02
       437   3 -1.183269E+06 -1.000983E+04 -1.255549E+04  1.287740E+04  1.582281E+03  1.377205E+03
       437   4 -1.143620E+06  1.522142E+02 -1.493026E+03  1.299424E+04  1.962631E+02 -1.173233E+03
       437   5 -1.143293E+06  4.981169E+01 -1.856764E+03 -5.428746E+03  1.116181E+03  1.077176E+02
       437   6 -1.143620E+06 -1.483756E+02 -2.950992E+03  1.299591E+04  2.036149E+03  1.379723E+03
       437   7 -1.174502E+06 -7.523522E+03 -8.948374E+03  1.291089E+04  6.565207E+02 -1.170674E+03
       437   8 -1.138909E+06  1.142439E+03 -7.832635E+02 -5.411161E+03  1.573232E+03  1.102538E+02
       437   9 -1.103970E+06  9.712961E+03  6.653393E+03  1.311442E+04  2.490045E+03  1.382241E+03
       437  10 -1.112737E+06  7.827879E+03  5.962251E+03  1.307760E+04 -9.218497E-09 -8.893969E-10
       437  11 -1.147676E+06 -1.042817E+03 -2.930267E+03 -5.446332E+03 -3.704121E-09 -5.591878E-09
       437  12 -1.183269E+06 -1.000983E+04 -1.255550E+04  1.287740E+04 -1.368876E-09 -6.149507E-09
       437  13 -1.143620E+06  1.522127E+02 -1.493029E+03  1.299424E+04  2.184578E-09  5.493187E-09
       437  14 -1.143293E+06  4.981134E+01 -1.856767E+03 -5.428746E+03  3.512850E-09 -8.962641E-09
       437  15 -1.143620E+06 -1.483787E+02 -2.951003E+03  1.299591E+04  1.050319E-09 -1.377692E-08
       437  16 -1.174502E+06 -7.523523E+03 -8.948378E+03  1.291089E+04  1.301083E-08 -1.524173E-09
       437  17 -1.138909E+06  1.142438E+03 -7.832682E+02 -5.411161E+03  2.904963E-09 -2.101961E-08
       437  18 -1.103970E+06  9.712957E+03  6.653377E+03  1.311442E+04  2.294197E-09 -1.265793E-08
       437  19 -1.112737E+06  7.827880E+03  5.962254E+03  1.307760E+04  2.640172E+02  1.175792E+03
       437  20 -1.147676E+06 -1.042817E+03 -2.930266E+03 -5.446332E+03 -6.591330E+02 -1.051814E+02
       437  21 -1.183269E+06 -1.000983E+04 -1.255549E+04  1.287740E+04 -1.582281E+03 -1.377205E+03
       437  22 -1.143620E+06  1.522142E+02 -1.493026E+03  1.299424E+04 -1.962631E+02  1.173233E+03
       437  23 -1.143293E+06  4.981169E+01 -1.856764E+03 -5.428746E+03 -1.116181E+03 -1.077176E+02
       437  24 -1.143620E+06 -1.483756E+02 -2.950992E+03  1.299591E+04 -2.036149E+03 -1.379723E+03
       437  25 -1.174502E+06 -7.523522E+03 -8.948374E+03  1.291089E+04 -6.565207E+02  1.170674E+03
       437  26 -1.138909E+06  1.142439E+03 -7.832635E+02 -5.411161E+03 -1.573232E+03 -1.102538E+02
       437  27 -1.103970E+06  9.712961E+03  6.653393E+03  1.311442E+04 -2.490045E+03 -1.382241E+03
       438   1 -1.256597E+06 -2.785030E+04 -3.143437E+04  1.206770E+04  2.152104E+03  2.138378E+03
       438   2 -1.290450E+06 -3.626775E+04 -4.223345E+04 -5.759989E+03  5.280664E+03  3.425158E+03
       438   3 -1.325941E+06 -4.784748E+04 -5.595557E+04  1.264287E+04  8.410199E+03  4.596993E+03
       438   4 -1.143841E+06  2.845710E+02 -3.704252E+03  1.285267E+04  2.629477E+03  2.140991E+03
       438   5 -1.143027E+06  4.817554E+02 -6.122943E+03 -5.255044E+03  5.717375E+03  3.427456E+03
       438   6 -1.143844E+06 -2.475519E+03 -1.143560E+04  1.286727E+04  8.806423E+03  4.598989E+03
       438   7 -1.031072E+06  2.841849E+04  2.402493E+04  1.363776E+04  3.106937E+03  2.143604E+03
       438   8 -9.955837E+05  3.722965E+04  2.998597E+04 -4.750006E+03  6.154191E+03  3.429755E+03
       438   9 -9.617172E+05  4.289398E+04  3.308194E+04  1.309170E+04  9.202762E+03  4.600986E+03
       438  10 -1.256597E+06 -2.785030E+04 -3.143439E+04  1.206770E+04 -6.118777E-09 -4.643843E-09
       438  11 -1.290450E+06 -3.626777E+04 -4.223353E+04 -5.760003E+03  3.363849E-10 -1.156257E-08
       438  12 -1.325941E+06 -4.784752E+04 -5.595574E+04  1.264284E+04  5.991651E-09  5.077680E-11
       438  13 -1.143841E+06  2.845642E+02 -3.704273E+03  1.285266E+04  2.430852E-09 -1.324552E-08
       438  14 -1.143027E+06  4.817340E+02 -6.123026E+03 -5.255060E+03  2.175656E-09  2.285125E-09
       438  15 -1.143844E+06 -2.475563E+03 -1.143579E+04  1.286724E+04  1.106727E-09  5.907336E-09
       438  16 -1.031072E+06  2.841849E+04  2.402490E+04  1.363775E+04  9.498147E-09  7.071807E-09
       438  17 -9.955837E+05  3.722962E+04  2.998588E+04 -4.750023E+03  1.646432E-10 -4.890461E-09
       438  18 -9.617173E+05  4.289394E+04  3.308175E+04  1.309166E+04 -5.188729E-09  1.220131E-08
       438  19 -1.256597E+06 -2.785030E+04 -3.143437E+04  1.206770E+04 -2.152104E+03 -2.138378E+03
       438  20 -1.290450E+06 -3.626775E+04 -4.223345E+04 -5.759989E+03 -5.280664E+03 -3.425158E+03
       438  21 -1.325941E+06 -4.784748E+04 -5.595557E+04  1.264287E+04 -8.410199E+03 -4.596993E+03
       438  22 -1.143841E+06  2.845710E+02 -3.704252E+03  1.285267E+04 -2.629477E+03 -2.140991E+03
       438  23 -1.143027E+06  4.817554E+02 -6.122943E+03 -5.255044E+03 -5.717375E+03 -3.427456E+03
       438  24 -1.143844E+06 -2.475519E+03 -1.143560E+04  1.286727E+04 -8.806423E+03 -4.598989E+03
       438  25 -1.031072E+06  2.841849E+04  2.402493E+04  1.363776E+04 -3.106937E+03 -2.143604E+03
       438  26 -9.955837E+05  3.722965E+04  2.998597E+04 -4.750006E+03 -6.154191E+03 -3.429755E+03
       438  27 -9.617172E+05  4.289398E+04  3.308194E+04  1.309170E+04 -9.202762E+03 -4.600986E+03
       439   1 -1.398198E+06 -6.199112E+04 -7.645838E+04  9.112722E+03  1.049243E+04  5.455123E+03
       439   2 -1.426801E+06 -6.729711E+04 -9.379354E+04 -4.684104E+03  2.313774E+04  6.763746E+03
       439   3 -1.464210E+06 -1.002318E+05 -1.263347E+05  1.603268E+04  3.578749E+04  7.162361E+03
       439   4 -1.145432E+06  1.073958E+03 -1.443486E+04  1.244159E+04  1.110619E+04  5.458192E+03
       439   5 -1.141068E+06  3.919909E+03 -2.381658E+04 -4.763057E+03  2.342952E+04  6.764939E+03
       439   6 -1.145450E+06 -2.079953E+04 -4.817502E+04  1.254508E+04  3.575794E+04  7.161724E+03
       439   7 -8.926074E+05  6.413432E+04  4.758396E+04  1.577175E+04  1.172021E+04  5.461268E+03
       439   8 -8.552602E+05  7.513087E+04  4.615440E+04 -4.842136E+03  2.372142E+04  6.766132E+03
       439   9 -8.265968E+05  5.862523E+04  2.997722E+04  9.055575E+03  3.572836E+04  7.161088E+03
       439  10 -1.398198E+06 -6.199118E+04 -7.645864E+04  9.112676E+03  1.241730E-08  1.755889E-09
       439  11 -1.426802E+06 -6.729730E+04 -9.379463E+04 -4.684230E+03  2.456462E-09  1.051955E-08
       439  12 -1.464211E+06 -1.002322E+05 -1.263372E+05  1.603247E+04  2.161803E-09 -9.915710E-09
       439  13 -1.145432E+06  1.073893E+03 -1.443515E+04  1.244155E+04  3.369248E-09 -6.652450E-09
       439  14 -1.141069E+06  3.919712E+03 -2.381770E+04 -4.763184E+03  9.935353E-10  5.839270E-09
       439  15 -1.145451E+06 -2.079993E+04 -4.817752E+04  1.254487E+04  1.066938E-09 -2.264310E-09
       439  16 -8.926076E+05  6.413425E+04  4.758365E+04  1.577170E+04 -7.526914E-09 -4.729736E-09
       439  17 -8.552608E+05  7.513067E+04  4.615326E+04 -4.842266E+03 -3.283888E-09 -2.761293E-08
       439  18 -8.265982E+05  5.862483E+04  2.997472E+04  9.055369E+03 -4.804838E-10 -1.015430E-10
       439  19 -1.398198E+06 -6.199112E+04 -7.645838E+04  9.112722E+03 -1.049243E+04 -5.455123E+03
       439  20 -1.426801E+06 -6.729711E+04 -9.379354E+04 -4.684104E+03 -2.313774E+04 -6.763746E+03
       439  21 -1.464210E+06 -1.002318E+05 -1.263347E+05  1.603268E+04 -3.578749E+04 -7.162361E+03
       439  22 -1.145432E+06  1.073958E+03 -1.443486E+04  1.244159E+04 -1.110619E+04 -5.458192E+03
       439  23 -1.141068E+06  3.919909E+03 -2.381658E+04 -4.763057E+03 -2.342952E+04 -6.764939E+03
       439  24 -1.145450E+06 -2.079953E+04 -4.817502E+04  1.254508E+04 -3.575794E+04 -7.161724E+03
       439  25 -8.926074E+05  6.413432E+04  4.758396E+04  1.577175E+04 -1.172021E+04 -5.461268E+03
       439  26 -8.552602E+05  7.513087E+04  4.615440E+04 -4.842136E+03 -2.372142E+04 -6.766132E+03
       439  27 -8.265968E+05  5.862523E+04  2.997722E+04  9.055575E+03 -3.572836E+04 -7.161088E+03
       440   1 -1.541745E+06 -8.861977E+04 -1.528720E+05 -7.419536E+03  4.311206E+04  9.082643E+03
       440   2 -1.541387E+06 -7.244556E+04 -1.930621E+05  5.355890E+03  9.580329E+04  1.072373E+04
       440   3 -1.602830E+06 -2.760070E+05 -3.225440E+05  5.011430E+04  1.485243E+05  4.100189E+03
       440   4 -1.157107E+06  7.476326E+03 -5.860570E+04  1.168945E+04  4.512155E+04  9.092593E+03
       440   5 -1.126530E+06  3.083576E+04 -9.162865E+04 -3.967888E+03  9.487110E+04  1.071777E+04
       440   6 -1.157203E+06 -1.649529E+05 -2.118553E+05  1.235943E+04  1.446534E+05  4.075910E+03
       440   7 -7.723327E+05  1.035627E+05  3.564992E+04  3.081017E+04  4.713228E+04  9.102664E+03
       440   8 -7.115157E+05  1.341047E+05  9.792326E+03 -1.329808E+04  9.393827E+04  1.071185E+04
       440   9 -7.113920E+05 -5.390821E+04 -1.011805E+05 -2.542278E+04  1.407796E+05  4.052114E+03
       440  10 -1.541747E+06 -8.862036E+04 -1.528757E+05 -7.419852E+03  5.001702E-09 -9.792570E-09
       440  11 -1.541397E+06 -7.244815E+04 -1.930796E+05  5.355062E+03  3.308302E-09 -5.861140E-09
       440  12 -1.602854E+06 -2.760130E+05 -3.225856E+05  5.011381E+04  1.186524E-09  8.002225E-09
       440  13 -1.157109E+06  7.475689E+03 -5.860969E+04  1.168912E+04  2.944016E-09  3.134355E-09
       440  14 -1.126540E+06  3.083321E+04 -9.164581E+04 -3.968707E+03  3.019120E-09  7.604280E-09
       440  15 -1.157226E+06 -1.649586E+05 -2.118947E+05  1.235896E+04 -2.950804E-10  1.131933E-08
       440  16 -7.723352E+05  1.035620E+05  3.564558E+04  3.080982E+04 -2.857962E-10  7.339422E-09
       440  17 -7.115252E+05  1.341022E+05  9.775508E+03 -1.329890E+04 -4.577884E-09  1.642983E-08
       440  18 -7.114133E+05 -5.391355E+04 -1.012179E+05 -2.542324E+04 -1.399309E-09  3.469268E-09
       440  19 -1.541745E+06 -8.861977E+04 -1.528720E+05 -7.419536E+03 -4.311206E+04 -9.082643E+03
       440  20 -1.541387E+06 -7.244556E+04 -1.930621E+05  5.355890E+03 -9.580329E+04 -1.072373E+04
       440  21 -1.602830E+06 -2.760070E+05 -3.225440E+05  5.011430E+04 -1.485243E+05 -4.100189E+03
       440  22 -1.157107E+06  7.476326E+03 -5.860570E+04  1.168945E+04 -4.512155E+04 -9.092593E+03
       440  23 -1.126530E+06  3.083576E+04 -9.162865E+04 -3.967888E+03 -9.487110E+04 -1.071777E+04
       440  24 -1.157203E+06 -1.649529E+05 -2.118553E+05  1.235943E+04 -1.446534E+05 -4.075910E+03
       440  25 -7.723327E+05  1.035627E+05  3.564992E+04  3.081017E+04 -4.713228E+04 -9.102664E+03
       440  26 -7.115157E+05  1.341047E+05  9.792326E+03 -1.329808E+04 -9.393827E+04 -1.071185E+04
       440  27 -7.113920E+05 -5.390821E+04 -1.011805E+05 -2.542278E+04 -1.407796E+05 -4.052114E+03
