    1C
    1UUSER                                                              
    1UDATE              11.october.2022                                 
    1UTIME              19:00:40                                        
    1UHOST                                                              
    1UPGM               CalculiX                                        
    1UVERSION           Version 2.20                             
    1UCOMPILETIME       Sun Jul 31 18:08:37 CEST 2022                    
    1UDIR                                                               
    1UDBN                                                               
    1UMAT    1MESH_MATERIAL                                             
    2C                           409                                     1
 -1         1 0.00000E+00 0.00000E+00 0.00000E+00
 -1         2 1.66667E-02 0.00000E+00 0.00000E+00
 -1         3 3.33333E-02 0.00000E+00 0.00000E+00
 -1         5 6.66667E-02 0.00000E+00 0.00000E+00
 -1         8 0.00000E+00 6.25000E-03 0.00000E+00
 -1         9 1.66667E-02 6.25000E-03 0.00000E+00
 -1        10 3.33333E-02 6.25000E-03 0.00000E+00
 -1        12 6.66667E-02 6.25000E-03 0.00000E+00
 -1        15 0.00000E+00 1.25000E-02 0.00000E+00
 -1        16 1.66667E-02 1.25000E-02 0.00000E+00
 -1        17 3.33333E-02 1.25000E-02 0.00000E+00
 -1        18 5.00000E-02 1.25000E-02 0.00000E+00
 -1        19 6.66667E-02 1.25000E-02 0.00000E+00
 -1        20 8.33333E-02 1.25000E-02 0.00000E+00
 -1        21 1.00000E-01 1.25000E-02 0.00000E+00
 -1        24 3.33333E-02 1.87500E-02 0.00000E+00
 -1        25 5.00000E-02 1.87500E-02 0.00000E+00
 -1        26 6.66667E-02 1.87500E-02 0.00000E+00
 -1        27 8.33333E-02 1.87500E-02 0.00000E+00
 -1        28 1.00000E-01 1.87500E-02 0.00000E+00
 -1        32 5.00000E-02 2.50000E-02 0.00000E+00
 -1        33 6.66667E-02 2.50000E-02 0.00000E+00
 -1        34 8.33333E-02 2.50000E-02 0.00000E+00
 -1        35 1.00000E-01 2.50000E-02 0.00000E+00
 -1        51 0.00000E+00 1.04167E-03 0.00000E+00
 -1        52 0.00000E+00 2.08333E-03 0.00000E+00
 -1        53 0.00000E+00 3.12500E-03 0.00000E+00
 -1        54 0.00000E+00 4.16667E-03 0.00000E+00
 -1        55 0.00000E+00 5.20833E-03 0.00000E+00
 -1        56 1.04167E-03 3.90630E-04 0.00000E+00
 -1        57 2.08333E-03 7.81250E-04 0.00000E+00
 -1        58 3.12500E-03 1.17188E-03 0.00000E+00
 -1        59 4.16667E-03 1.56250E-03 0.00000E+00
 -1        60 5.20833E-03 1.95312E-03 0.00000E+00
 -1        61 6.25000E-03 2.34375E-03 0.00000E+00
 -1        62 7.29167E-03 2.73438E-03 0.00000E+00
 -1        63 8.33333E-03 3.12500E-03 0.00000E+00
 -1        64 9.37500E-03 3.51563E-03 0.00000E+00
 -1        65 1.04167E-02 3.90625E-03 0.00000E+00
 -1        66 1.14583E-02 4.29688E-03 0.00000E+00
 -1        67 1.25000E-02 4.68750E-03 0.00000E+00
 -1        68 1.35417E-02 5.07813E-03 0.00000E+00
 -1        69 1.45833E-02 5.46875E-03 0.00000E+00
 -1        70 1.56250E-02 5.85938E-03 0.00000E+00
 -1        86 1.66667E-02 1.04167E-03 0.00000E+00
 -1        87 1.66667E-02 2.08333E-03 0.00000E+00
 -1        88 1.66667E-02 3.12500E-03 0.00000E+00
 -1        89 1.66667E-02 4.16667E-03 0.00000E+00
 -1        90 1.66667E-02 5.20833E-03 0.00000E+00
 -1       121 3.33333E-02 1.04167E-03 0.00000E+00
 -1       122 3.33333E-02 2.08333E-03 0.00000E+00
 -1       123 3.33333E-02 3.12500E-03 0.00000E+00
 -1       124 3.33333E-02 4.16667E-03 0.00000E+00
 -1       125 3.33333E-02 5.20833E-03 0.00000E+00
 -1       191 6.66667E-02 1.04167E-03 0.00000E+00
 -1       192 6.66667E-02 2.08333E-03 0.00000E+00
 -1       193 6.66667E-02 3.12500E-03 0.00000E+00
 -1       194 6.66667E-02 4.16667E-03 0.00000E+00
 -1       195 6.66667E-02 5.20833E-03 0.00000E+00
 -1       251 1.04167E-03 6.25000E-03 0.00000E+00
 -1       252 2.08333E-03 6.25000E-03 0.00000E+00
 -1       253 3.12500E-03 6.25000E-03 0.00000E+00
 -1       254 4.16667E-03 6.25000E-03 0.00000E+00
 -1       255 5.20833E-03 6.25000E-03 0.00000E+00
 -1       256 6.25000E-03 6.25000E-03 0.00000E+00
 -1       257 7.29167E-03 6.25000E-03 0.00000E+00
 -1       258 8.33333E-03 6.25000E-03 0.00000E+00
 -1       259 9.37500E-03 6.25000E-03 0.00000E+00
 -1       260 1.04167E-02 6.25000E-03 0.00000E+00
 -1       261 1.14583E-02 6.25000E-03 0.00000E+00
 -1       262 1.25000E-02 6.25000E-03 0.00000E+00
 -1       263 1.35417E-02 6.25000E-03 0.00000E+00
 -1       264 1.45833E-02 6.25000E-03 0.00000E+00
 -1       265 1.56250E-02 6.25000E-03 0.00000E+00
 -1       266 0.00000E+00 7.29167E-03 0.00000E+00
 -1       267 0.00000E+00 8.33333E-03 0.00000E+00
 -1       268 0.00000E+00 9.37500E-03 0.00000E+00
 -1       269 0.00000E+00 1.04167E-02 0.00000E+00
 -1       270 0.00000E+00 1.14583E-02 0.00000E+00
 -1       271 1.04167E-03 6.64063E-03 0.00000E+00
 -1       272 2.08333E-03 7.03125E-03 0.00000E+00
 -1       273 3.12500E-03 7.42188E-03 0.00000E+00
 -1       274 4.16667E-03 7.81250E-03 0.00000E+00
 -1       275 5.20833E-03 8.20313E-03 0.00000E+00
 -1       276 6.25000E-03 8.59375E-03 0.00000E+00
 -1       277 7.29167E-03 8.98438E-03 0.00000E+00
 -1       278 8.33333E-03 9.37500E-03 0.00000E+00
 -1       279 9.37500E-03 9.76562E-03 0.00000E+00
 -1       280 1.04167E-02 1.01562E-02 0.00000E+00
 -1       281 1.14583E-02 1.05469E-02 0.00000E+00
 -1       282 1.25000E-02 1.09375E-02 0.00000E+00
 -1       283 1.35417E-02 1.13281E-02 0.00000E+00
 -1       284 1.45833E-02 1.17188E-02 0.00000E+00
 -1       285 1.56250E-02 1.21094E-02 0.00000E+00
 -1       301 1.66667E-02 7.29167E-03 0.00000E+00
 -1       302 1.66667E-02 8.33333E-03 0.00000E+00
 -1       303 1.66667E-02 9.37500E-03 0.00000E+00
 -1       304 1.66667E-02 1.04167E-02 0.00000E+00
 -1       305 1.66667E-02 1.14583E-02 0.00000E+00
 -1       306 1.77083E-02 6.64063E-03 0.00000E+00
 -1       307 1.87500E-02 7.03125E-03 0.00000E+00
 -1       308 1.97917E-02 7.42188E-03 0.00000E+00
 -1       309 2.08333E-02 7.81250E-03 0.00000E+00
 -1       310 2.18750E-02 8.20313E-03 0.00000E+00
 -1       311 2.29167E-02 8.59375E-03 0.00000E+00
 -1       312 2.39583E-02 8.98438E-03 0.00000E+00
 -1       313 2.50000E-02 9.37500E-03 0.00000E+00
 -1       314 2.60417E-02 9.76562E-03 0.00000E+00
 -1       315 2.70833E-02 1.01562E-02 0.00000E+00
 -1       316 2.81250E-02 1.05469E-02 0.00000E+00
 -1       317 2.91667E-02 1.09375E-02 0.00000E+00
 -1       318 3.02083E-02 1.13281E-02 0.00000E+00
 -1       319 3.12500E-02 1.17188E-02 0.00000E+00
 -1       320 3.22917E-02 1.21094E-02 0.00000E+00
 -1       336 3.33333E-02 7.29167E-03 0.00000E+00
 -1       337 3.33333E-02 8.33333E-03 0.00000E+00
 -1       338 3.33333E-02 9.37500E-03 0.00000E+00
 -1       339 3.33333E-02 1.04167E-02 0.00000E+00
 -1       340 3.33333E-02 1.14583E-02 0.00000E+00
 -1       406 6.66667E-02 7.29167E-03 0.00000E+00
 -1       407 6.66667E-02 8.33333E-03 0.00000E+00
 -1       408 6.66667E-02 9.37500E-03 0.00000E+00
 -1       409 6.66667E-02 1.04167E-02 0.00000E+00
 -1       410 6.66667E-02 1.14583E-02 0.00000E+00
 -1       521 1.77083E-02 1.28906E-02 0.00000E+00
 -1       522 1.87500E-02 1.32813E-02 0.00000E+00
 -1       523 1.97917E-02 1.36719E-02 0.00000E+00
 -1       524 2.08333E-02 1.40625E-02 0.00000E+00
 -1       525 2.18750E-02 1.44531E-02 0.00000E+00
 -1       526 2.29167E-02 1.48437E-02 0.00000E+00
 -1       527 2.39583E-02 1.52344E-02 0.00000E+00
 -1       528 2.50000E-02 1.56250E-02 0.00000E+00
 -1       529 2.60417E-02 1.60156E-02 0.00000E+00
 -1       530 2.70833E-02 1.64062E-02 0.00000E+00
 -1       531 2.81250E-02 1.67969E-02 0.00000E+00
 -1       532 2.91667E-02 1.71875E-02 0.00000E+00
 -1       533 3.02083E-02 1.75781E-02 0.00000E+00
 -1       534 3.12500E-02 1.79687E-02 0.00000E+00
 -1       535 3.22917E-02 1.83594E-02 0.00000E+00
 -1       536 3.43750E-02 1.25000E-02 0.00000E+00
 -1       537 3.54167E-02 1.25000E-02 0.00000E+00
 -1       538 3.64583E-02 1.25000E-02 0.00000E+00
 -1       539 3.75000E-02 1.25000E-02 0.00000E+00
 -1       540 3.85417E-02 1.25000E-02 0.00000E+00
 -1       541 3.95833E-02 1.25000E-02 0.00000E+00
 -1       542 4.06250E-02 1.25000E-02 0.00000E+00
 -1       543 4.16667E-02 1.25000E-02 0.00000E+00
 -1       544 4.27083E-02 1.25000E-02 0.00000E+00
 -1       545 4.37500E-02 1.25000E-02 0.00000E+00
 -1       546 4.47917E-02 1.25000E-02 0.00000E+00
 -1       547 4.58333E-02 1.25000E-02 0.00000E+00
 -1       548 4.68750E-02 1.25000E-02 0.00000E+00
 -1       549 4.79167E-02 1.25000E-02 0.00000E+00
 -1       550 4.89583E-02 1.25000E-02 0.00000E+00
 -1       551 3.33333E-02 1.35417E-02 0.00000E+00
 -1       552 3.33333E-02 1.45833E-02 0.00000E+00
 -1       553 3.33333E-02 1.56250E-02 0.00000E+00
 -1       554 3.33333E-02 1.66667E-02 0.00000E+00
 -1       555 3.33333E-02 1.77083E-02 0.00000E+00
 -1       556 3.43750E-02 1.28906E-02 0.00000E+00
 -1       557 3.54167E-02 1.32813E-02 0.00000E+00
 -1       558 3.64583E-02 1.36719E-02 0.00000E+00
 -1       559 3.75000E-02 1.40625E-02 0.00000E+00
 -1       560 3.85417E-02 1.44531E-02 0.00000E+00
 -1       561 3.95833E-02 1.48437E-02 0.00000E+00
 -1       562 4.06250E-02 1.52344E-02 0.00000E+00
 -1       563 4.16667E-02 1.56250E-02 0.00000E+00
 -1       564 4.27083E-02 1.60156E-02 0.00000E+00
 -1       565 4.37500E-02 1.64062E-02 0.00000E+00
 -1       566 4.47917E-02 1.67969E-02 0.00000E+00
 -1       567 4.58333E-02 1.71875E-02 0.00000E+00
 -1       568 4.68750E-02 1.75781E-02 0.00000E+00
 -1       569 4.79167E-02 1.79687E-02 0.00000E+00
 -1       570 4.89583E-02 1.83594E-02 0.00000E+00
 -1       571 5.10417E-02 1.25000E-02 0.00000E+00
 -1       572 5.20833E-02 1.25000E-02 0.00000E+00
 -1       573 5.31250E-02 1.25000E-02 0.00000E+00
 -1       574 5.41667E-02 1.25000E-02 0.00000E+00
 -1       575 5.52083E-02 1.25000E-02 0.00000E+00
 -1       576 5.62500E-02 1.25000E-02 0.00000E+00
 -1       577 5.72917E-02 1.25000E-02 0.00000E+00
 -1       578 5.83333E-02 1.25000E-02 0.00000E+00
 -1       579 5.93750E-02 1.25000E-02 0.00000E+00
 -1       580 6.04167E-02 1.25000E-02 0.00000E+00
 -1       581 6.14583E-02 1.25000E-02 0.00000E+00
 -1       582 6.25000E-02 1.25000E-02 0.00000E+00
 -1       583 6.35417E-02 1.25000E-02 0.00000E+00
 -1       584 6.45833E-02 1.25000E-02 0.00000E+00
 -1       585 6.56250E-02 1.25000E-02 0.00000E+00
 -1       586 5.00000E-02 1.35417E-02 0.00000E+00
 -1       587 5.00000E-02 1.45833E-02 0.00000E+00
 -1       588 5.00000E-02 1.56250E-02 0.00000E+00
 -1       589 5.00000E-02 1.66667E-02 0.00000E+00
 -1       590 5.00000E-02 1.77083E-02 0.00000E+00
 -1       591 5.10417E-02 1.28906E-02 0.00000E+00
 -1       592 5.20833E-02 1.32813E-02 0.00000E+00
 -1       593 5.31250E-02 1.36719E-02 0.00000E+00
 -1       594 5.41667E-02 1.40625E-02 0.00000E+00
 -1       595 5.52083E-02 1.44531E-02 0.00000E+00
 -1       596 5.62500E-02 1.48437E-02 0.00000E+00
 -1       597 5.72917E-02 1.52344E-02 0.00000E+00
 -1       598 5.83333E-02 1.56250E-02 0.00000E+00
 -1       599 5.93750E-02 1.60156E-02 0.00000E+00
 -1       600 6.04167E-02 1.64062E-02 0.00000E+00
 -1       601 6.14583E-02 1.67969E-02 0.00000E+00
 -1       602 6.25000E-02 1.71875E-02 0.00000E+00
 -1       603 6.35417E-02 1.75781E-02 0.00000E+00
 -1       604 6.45833E-02 1.79687E-02 0.00000E+00
 -1       605 6.56250E-02 1.83594E-02 0.00000E+00
 -1       606 6.77083E-02 1.25000E-02 0.00000E+00
 -1       607 6.87500E-02 1.25000E-02 0.00000E+00
 -1       608 6.97917E-02 1.25000E-02 0.00000E+00
 -1       609 7.08333E-02 1.25000E-02 0.00000E+00
 -1       610 7.18750E-02 1.25000E-02 0.00000E+00
 -1       611 7.29167E-02 1.25000E-02 0.00000E+00
 -1       612 7.39583E-02 1.25000E-02 0.00000E+00
 -1       613 7.50000E-02 1.25000E-02 0.00000E+00
 -1       614 7.60417E-02 1.25000E-02 0.00000E+00
 -1       615 7.70833E-02 1.25000E-02 0.00000E+00
 -1       616 7.81250E-02 1.25000E-02 0.00000E+00
 -1       617 7.91667E-02 1.25000E-02 0.00000E+00
 -1       618 8.02083E-02 1.25000E-02 0.00000E+00
 -1       619 8.12500E-02 1.25000E-02 0.00000E+00
 -1       620 8.22917E-02 1.25000E-02 0.00000E+00
 -1       621 6.66667E-02 1.35417E-02 0.00000E+00
 -1       622 6.66667E-02 1.45833E-02 0.00000E+00
 -1       623 6.66667E-02 1.56250E-02 0.00000E+00
 -1       624 6.66667E-02 1.66667E-02 0.00000E+00
 -1       625 6.66667E-02 1.77083E-02 0.00000E+00
 -1       626 6.77083E-02 1.28906E-02 0.00000E+00
 -1       627 6.87500E-02 1.32813E-02 0.00000E+00
 -1       628 6.97917E-02 1.36719E-02 0.00000E+00
 -1       629 7.08333E-02 1.40625E-02 0.00000E+00
 -1       630 7.18750E-02 1.44531E-02 0.00000E+00
 -1       631 7.29167E-02 1.48437E-02 0.00000E+00
 -1       632 7.39583E-02 1.52344E-02 0.00000E+00
 -1       633 7.50000E-02 1.56250E-02 0.00000E+00
 -1       634 7.60417E-02 1.60156E-02 0.00000E+00
 -1       635 7.70833E-02 1.64062E-02 0.00000E+00
 -1       636 7.81250E-02 1.67969E-02 0.00000E+00
 -1       637 7.91667E-02 1.71875E-02 0.00000E+00
 -1       638 8.02083E-02 1.75781E-02 0.00000E+00
 -1       639 8.12500E-02 1.79687E-02 0.00000E+00
 -1       640 8.22917E-02 1.83594E-02 0.00000E+00
 -1       656 8.33333E-02 1.35417E-02 0.00000E+00
 -1       657 8.33333E-02 1.45833E-02 0.00000E+00
 -1       658 8.33333E-02 1.56250E-02 0.00000E+00
 -1       659 8.33333E-02 1.66667E-02 0.00000E+00
 -1       660 8.33333E-02 1.77083E-02 0.00000E+00
 -1       661 8.43750E-02 1.28906E-02 0.00000E+00
 -1       662 8.54167E-02 1.32813E-02 0.00000E+00
 -1       663 8.64583E-02 1.36719E-02 0.00000E+00
 -1       664 8.75000E-02 1.40625E-02 0.00000E+00
 -1       665 8.85417E-02 1.44531E-02 0.00000E+00
 -1       666 8.95833E-02 1.48437E-02 0.00000E+00
 -1       667 9.06250E-02 1.52344E-02 0.00000E+00
 -1       668 9.16667E-02 1.56250E-02 0.00000E+00
 -1       669 9.27083E-02 1.60156E-02 0.00000E+00
 -1       670 9.37500E-02 1.64062E-02 0.00000E+00
 -1       671 9.47917E-02 1.67969E-02 0.00000E+00
 -1       672 9.58333E-02 1.71875E-02 0.00000E+00
 -1       673 9.68750E-02 1.75781E-02 0.00000E+00
 -1       674 9.79167E-02 1.79687E-02 0.00000E+00
 -1       675 9.89583E-02 1.83594E-02 0.00000E+00
 -1       676 1.00000E-01 1.35417E-02 0.00000E+00
 -1       677 1.00000E-01 1.45833E-02 0.00000E+00
 -1       678 1.00000E-01 1.56250E-02 0.00000E+00
 -1       679 1.00000E-01 1.66667E-02 0.00000E+00
 -1       680 1.00000E-01 1.77083E-02 0.00000E+00
 -1       771 3.43750E-02 1.91406E-02 0.00000E+00
 -1       772 3.54167E-02 1.95312E-02 0.00000E+00
 -1       773 3.64583E-02 1.99219E-02 0.00000E+00
 -1       774 3.75000E-02 2.03125E-02 0.00000E+00
 -1       775 3.85417E-02 2.07031E-02 0.00000E+00
 -1       776 3.95833E-02 2.10938E-02 0.00000E+00
 -1       777 4.06250E-02 2.14844E-02 0.00000E+00
 -1       778 4.16667E-02 2.18750E-02 0.00000E+00
 -1       779 4.27083E-02 2.22656E-02 0.00000E+00
 -1       780 4.37500E-02 2.26563E-02 0.00000E+00
 -1       781 4.47917E-02 2.30469E-02 0.00000E+00
 -1       782 4.58333E-02 2.34375E-02 0.00000E+00
 -1       783 4.68750E-02 2.38281E-02 0.00000E+00
 -1       784 4.79167E-02 2.42187E-02 0.00000E+00
 -1       785 4.89583E-02 2.46094E-02 0.00000E+00
 -1       786 5.10417E-02 1.87500E-02 0.00000E+00
 -1       787 5.20833E-02 1.87500E-02 0.00000E+00
 -1       788 5.31250E-02 1.87500E-02 0.00000E+00
 -1       789 5.41667E-02 1.87500E-02 0.00000E+00
 -1       790 5.52083E-02 1.87500E-02 0.00000E+00
 -1       791 5.62500E-02 1.87500E-02 0.00000E+00
 -1       792 5.72917E-02 1.87500E-02 0.00000E+00
 -1       793 5.83333E-02 1.87500E-02 0.00000E+00
 -1       794 5.93750E-02 1.87500E-02 0.00000E+00
 -1       795 6.04167E-02 1.87500E-02 0.00000E+00
 -1       796 6.14583E-02 1.87500E-02 0.00000E+00
 -1       797 6.25000E-02 1.87500E-02 0.00000E+00
 -1       798 6.35417E-02 1.87500E-02 0.00000E+00
 -1       799 6.45833E-02 1.87500E-02 0.00000E+00
 -1       800 6.56250E-02 1.87500E-02 0.00000E+00
 -1       801 5.00000E-02 1.97917E-02 0.00000E+00
 -1       802 5.00000E-02 2.08333E-02 0.00000E+00
 -1       803 5.00000E-02 2.18750E-02 0.00000E+00
 -1       804 5.00000E-02 2.29167E-02 0.00000E+00
 -1       805 5.00000E-02 2.39583E-02 0.00000E+00
 -1       806 5.10417E-02 1.91406E-02 0.00000E+00
 -1       807 5.20833E-02 1.95312E-02 0.00000E+00
 -1       808 5.31250E-02 1.99219E-02 0.00000E+00
 -1       809 5.41667E-02 2.03125E-02 0.00000E+00
 -1       810 5.52083E-02 2.07031E-02 0.00000E+00
 -1       811 5.62500E-02 2.10938E-02 0.00000E+00
 -1       812 5.72917E-02 2.14844E-02 0.00000E+00
 -1       813 5.83333E-02 2.18750E-02 0.00000E+00
 -1       814 5.93750E-02 2.22656E-02 0.00000E+00
 -1       815 6.04167E-02 2.26563E-02 0.00000E+00
 -1       816 6.14583E-02 2.30469E-02 0.00000E+00
 -1       817 6.25000E-02 2.34375E-02 0.00000E+00
 -1       818 6.35417E-02 2.38281E-02 0.00000E+00
 -1       819 6.45833E-02 2.42187E-02 0.00000E+00
 -1       820 6.56250E-02 2.46094E-02 0.00000E+00
 -1       821 6.77083E-02 1.87500E-02 0.00000E+00
 -1       822 6.87500E-02 1.87500E-02 0.00000E+00
 -1       823 6.97917E-02 1.87500E-02 0.00000E+00
 -1       824 7.08333E-02 1.87500E-02 0.00000E+00
 -1       825 7.18750E-02 1.87500E-02 0.00000E+00
 -1       826 7.29167E-02 1.87500E-02 0.00000E+00
 -1       827 7.39583E-02 1.87500E-02 0.00000E+00
 -1       828 7.50000E-02 1.87500E-02 0.00000E+00
 -1       829 7.60417E-02 1.87500E-02 0.00000E+00
 -1       830 7.70833E-02 1.87500E-02 0.00000E+00
 -1       831 7.81250E-02 1.87500E-02 0.00000E+00
 -1       832 7.91667E-02 1.87500E-02 0.00000E+00
 -1       833 8.02083E-02 1.87500E-02 0.00000E+00
 -1       834 8.12500E-02 1.87500E-02 0.00000E+00
 -1       835 8.22917E-02 1.87500E-02 0.00000E+00
 -1       836 6.66667E-02 1.97917E-02 0.00000E+00
 -1       837 6.66667E-02 2.08333E-02 0.00000E+00
 -1       838 6.66667E-02 2.18750E-02 0.00000E+00
 -1       839 6.66667E-02 2.29167E-02 0.00000E+00
 -1       840 6.66667E-02 2.39583E-02 0.00000E+00
 -1       856 8.43750E-02 1.87500E-02 0.00000E+00
 -1       857 8.54167E-02 1.87500E-02 0.00000E+00
 -1       858 8.64583E-02 1.87500E-02 0.00000E+00
 -1       859 8.75000E-02 1.87500E-02 0.00000E+00
 -1       860 8.85417E-02 1.87500E-02 0.00000E+00
 -1       861 8.95833E-02 1.87500E-02 0.00000E+00
 -1       862 9.06250E-02 1.87500E-02 0.00000E+00
 -1       863 9.16667E-02 1.87500E-02 0.00000E+00
 -1       864 9.27083E-02 1.87500E-02 0.00000E+00
 -1       865 9.37500E-02 1.87500E-02 0.00000E+00
 -1       866 9.47917E-02 1.87500E-02 0.00000E+00
 -1       867 9.58333E-02 1.87500E-02 0.00000E+00
 -1       868 9.68750E-02 1.87500E-02 0.00000E+00
 -1       869 9.79167E-02 1.87500E-02 0.00000E+00
 -1       870 9.89583E-02 1.87500E-02 0.00000E+00
 -1       871 8.33333E-02 1.97917E-02 0.00000E+00
 -1       872 8.33333E-02 2.08333E-02 0.00000E+00
 -1       873 8.33333E-02 2.18750E-02 0.00000E+00
 -1       874 8.33333E-02 2.29167E-02 0.00000E+00
 -1       875 8.33333E-02 2.39583E-02 0.00000E+00
 -1       876 8.43750E-02 1.91406E-02 0.00000E+00
 -1       877 8.54167E-02 1.95312E-02 0.00000E+00
 -1       878 8.64583E-02 1.99219E-02 0.00000E+00
 -1       879 8.75000E-02 2.03125E-02 0.00000E+00
 -1       880 8.85417E-02 2.07031E-02 0.00000E+00
 -1       881 8.95833E-02 2.10938E-02 0.00000E+00
 -1       882 9.06250E-02 2.14844E-02 0.00000E+00
 -1       883 9.16667E-02 2.18750E-02 0.00000E+00
 -1       884 9.27083E-02 2.22656E-02 0.00000E+00
 -1       885 9.37500E-02 2.26563E-02 0.00000E+00
 -1       886 9.47917E-02 2.30469E-02 0.00000E+00
 -1       887 9.58333E-02 2.34375E-02 0.00000E+00
 -1       888 9.68750E-02 2.38281E-02 0.00000E+00
 -1       889 9.79167E-02 2.42187E-02 0.00000E+00
 -1       890 9.89583E-02 2.46094E-02 0.00000E+00
 -1       891 1.00000E-01 1.97917E-02 0.00000E+00
 -1       892 1.00000E-01 2.08333E-02 0.00000E+00
 -1       893 1.00000E-01 2.18750E-02 0.00000E+00
 -1       894 1.00000E-01 2.29167E-02 0.00000E+00
 -1       895 1.00000E-01 2.39583E-02 0.00000E+00
 -1       956 6.77083E-02 2.50000E-02 0.00000E+00
 -1       957 6.87500E-02 2.50000E-02 0.00000E+00
 -1       958 6.97917E-02 2.50000E-02 0.00000E+00
 -1       959 7.08333E-02 2.50000E-02 0.00000E+00
 -1       960 7.18750E-02 2.50000E-02 0.00000E+00
 -1       961 7.29167E-02 2.50000E-02 0.00000E+00
 -1       962 7.39583E-02 2.50000E-02 0.00000E+00
 -1       963 7.50000E-02 2.50000E-02 0.00000E+00
 -1       964 7.60417E-02 2.50000E-02 0.00000E+00
 -1       965 7.70833E-02 2.50000E-02 0.00000E+00
 -1       966 7.81250E-02 2.50000E-02 0.00000E+00
 -1       967 7.91667E-02 2.50000E-02 0.00000E+00
 -1       968 8.02083E-02 2.50000E-02 0.00000E+00
 -1       969 8.12500E-02 2.50000E-02 0.00000E+00
 -1       970 8.22917E-02 2.50000E-02 0.00000E+00
 -1       971 8.43750E-02 2.50000E-02 0.00000E+00
 -1       972 8.54167E-02 2.50000E-02 0.00000E+00
 -1       973 8.64583E-02 2.50000E-02 0.00000E+00
 -1       974 8.75000E-02 2.50000E-02 0.00000E+00
 -1       975 8.85417E-02 2.50000E-02 0.00000E+00
 -1       976 8.95833E-02 2.50000E-02 0.00000E+00
 -1       977 9.06250E-02 2.50000E-02 0.00000E+00
 -1       978 9.16667E-02 2.50000E-02 0.00000E+00
 -1       979 9.27083E-02 2.50000E-02 0.00000E+00
 -1       980 9.37500E-02 2.50000E-02 0.00000E+00
 -1       981 9.47917E-02 2.50000E-02 0.00000E+00
 -1       982 9.58333E-02 2.50000E-02 0.00000E+00
 -1       983 9.68750E-02 2.50000E-02 0.00000E+00
 -1       984 9.79167E-02 2.50000E-02 0.00000E+00
 -1       985 9.89583E-02 2.50000E-02 0.00000E+00
 -3
    3C                           211                                     1
 -1         1   12    0    1
 -2         1        52        51
 -1         2   12    0    1
 -2        52        54        53
 -1         3   12    0    1
 -2        54         8        55
 -1         4   12    0    1
 -2         1        57        56
 -1         5   12    0    1
 -2        57        59        58
 -1         6   12    0    1
 -2        59        61        60
 -1         7   12    0    1
 -2        61        63        62
 -1         8   12    0    1
 -2        63        65        64
 -1         9   12    0    1
 -2        65        67        66
 -1        10   12    0    1
 -2        67        69        68
 -1        11   12    0    1
 -2        69         9        70
 -1        12   12    0    1
 -2         2        87        86
 -1        13   12    0    1
 -2        87        89        88
 -1        14   12    0    1
 -2        89         9        90
 -1        15   12    0    1
 -2         3       122       121
 -1        16   12    0    1
 -2       122       124       123
 -1        17   12    0    1
 -2       124        10       125
 -1        18   12    0    1
 -2         5       192       191
 -1        19   12    0    1
 -2       192       194       193
 -1        20   12    0    1
 -2       194        12       195
 -1        21   12    0    1
 -2         8       252       251
 -1        22   12    0    1
 -2       252       254       253
 -1        23   12    0    1
 -2       254       256       255
 -1        24   12    0    1
 -2       256       258       257
 -1        25   12    0    1
 -2       258       260       259
 -1        26   12    0    1
 -2       260       262       261
 -1        27   12    0    1
 -2       262       264       263
 -1        28   12    0    1
 -2       264         9       265
 -1        29   12    0    1
 -2         8       267       266
 -1        30   12    0    1
 -2       267       269       268
 -1        31   12    0    1
 -2       269        15       270
 -1        32   12    0    1
 -2         8       272       271
 -1        33   12    0    1
 -2       272       274       273
 -1        34   12    0    1
 -2       274       276       275
 -1        35   12    0    1
 -2       276       278       277
 -1        36   12    0    1
 -2       278       280       279
 -1        37   12    0    1
 -2       280       282       281
 -1        38   12    0    1
 -2       282       284       283
 -1        39   12    0    1
 -2       284        16       285
 -1        40   12    0    1
 -2         9       302       301
 -1        41   12    0    1
 -2       302       304       303
 -1        42   12    0    1
 -2       304        16       305
 -1        43   12    0    1
 -2         9       307       306
 -1        44   12    0    1
 -2       307       309       308
 -1        45   12    0    1
 -2       309       311       310
 -1        46   12    0    1
 -2       311       313       312
 -1        47   12    0    1
 -2       313       315       314
 -1        48   12    0    1
 -2       315       317       316
 -1        49   12    0    1
 -2       317       319       318
 -1        50   12    0    1
 -2       319        17       320
 -1        51   12    0    1
 -2        10       337       336
 -1        52   12    0    1
 -2       337       339       338
 -1        53   12    0    1
 -2       339        17       340
 -1        54   12    0    1
 -2        12       407       406
 -1        55   12    0    1
 -2       407       409       408
 -1        56   12    0    1
 -2       409        19       410
 -1        57   12    0    1
 -2        16       522       521
 -1        58   12    0    1
 -2       522       524       523
 -1        59   12    0    1
 -2       524       526       525
 -1        60   12    0    1
 -2       526       528       527
 -1        61   12    0    1
 -2       528       530       529
 -1        62   12    0    1
 -2       530       532       531
 -1        63   12    0    1
 -2       532       534       533
 -1        64   12    0    1
 -2       534        24       535
 -1        65   12    0    1
 -2        17       537       536
 -1        66   12    0    1
 -2       537       539       538
 -1        67   12    0    1
 -2       539       541       540
 -1        68   12    0    1
 -2       541       543       542
 -1        69   12    0    1
 -2       543       545       544
 -1        70   12    0    1
 -2       545       547       546
 -1        71   12    0    1
 -2       547       549       548
 -1        72   12    0    1
 -2       549        18       550
 -1        73   12    0    1
 -2        17       552       551
 -1        74   12    0    1
 -2       552       554       553
 -1        75   12    0    1
 -2       554        24       555
 -1        76   12    0    1
 -2        17       557       556
 -1        77   12    0    1
 -2       557       559       558
 -1        78   12    0    1
 -2       559       561       560
 -1        79   12    0    1
 -2       561       563       562
 -1        80   12    0    1
 -2       563       565       564
 -1        81   12    0    1
 -2       565       567       566
 -1        82   12    0    1
 -2       567       569       568
 -1        83   12    0    1
 -2       569        25       570
 -1        84   12    0    1
 -2        18       572       571
 -1        85   12    0    1
 -2       572       574       573
 -1        86   12    0    1
 -2       574       576       575
 -1        87   12    0    1
 -2       576       578       577
 -1        88   12    0    1
 -2       578       580       579
 -1        89   12    0    1
 -2       580       582       581
 -1        90   12    0    1
 -2       582       584       583
 -1        91   12    0    1
 -2       584        19       585
 -1        92   12    0    1
 -2        18       587       586
 -1        93   12    0    1
 -2       587       589       588
 -1        94   12    0    1
 -2       589        25       590
 -1        95   12    0    1
 -2        18       592       591
 -1        96   12    0    1
 -2       592       594       593
 -1        97   12    0    1
 -2       594       596       595
 -1        98   12    0    1
 -2       596       598       597
 -1        99   12    0    1
 -2       598       600       599
 -1       100   12    0    1
 -2       600       602       601
 -1       101   12    0    1
 -2       602       604       603
 -1       102   12    0    1
 -2       604        26       605
 -1       103   12    0    1
 -2        19       607       606
 -1       104   12    0    1
 -2       607       609       608
 -1       105   12    0    1
 -2       609       611       610
 -1       106   12    0    1
 -2       611       613       612
 -1       107   12    0    1
 -2       613       615       614
 -1       108   12    0    1
 -2       615       617       616
 -1       109   12    0    1
 -2       617       619       618
 -1       110   12    0    1
 -2       619        20       620
 -1       111   12    0    1
 -2        19       622       621
 -1       112   12    0    1
 -2       622       624       623
 -1       113   12    0    1
 -2       624        26       625
 -1       114   12    0    1
 -2        19       627       626
 -1       115   12    0    1
 -2       627       629       628
 -1       116   12    0    1
 -2       629       631       630
 -1       117   12    0    1
 -2       631       633       632
 -1       118   12    0    1
 -2       633       635       634
 -1       119   12    0    1
 -2       635       637       636
 -1       120   12    0    1
 -2       637       639       638
 -1       121   12    0    1
 -2       639        27       640
 -1       122   12    0    1
 -2        20       657       656
 -1       123   12    0    1
 -2       657       659       658
 -1       124   12    0    1
 -2       659        27       660
 -1       125   12    0    1
 -2        20       662       661
 -1       126   12    0    1
 -2       662       664       663
 -1       127   12    0    1
 -2       664       666       665
 -1       128   12    0    1
 -2       666       668       667
 -1       129   12    0    1
 -2       668       670       669
 -1       130   12    0    1
 -2       670       672       671
 -1       131   12    0    1
 -2       672       674       673
 -1       132   12    0    1
 -2       674        28       675
 -1       133   12    0    1
 -2        21       677       676
 -1       134   12    0    1
 -2       677       679       678
 -1       135   12    0    1
 -2       679        28       680
 -1       136   12    0    1
 -2        24       772       771
 -1       137   12    0    1
 -2       772       774       773
 -1       138   12    0    1
 -2       774       776       775
 -1       139   12    0    1
 -2       776       778       777
 -1       140   12    0    1
 -2       778       780       779
 -1       141   12    0    1
 -2       780       782       781
 -1       142   12    0    1
 -2       782       784       783
 -1       143   12    0    1
 -2       784        32       785
 -1       144   12    0    1
 -2        25       787       786
 -1       145   12    0    1
 -2       787       789       788
 -1       146   12    0    1
 -2       789       791       790
 -1       147   12    0    1
 -2       791       793       792
 -1       148   12    0    1
 -2       793       795       794
 -1       149   12    0    1
 -2       795       797       796
 -1       150   12    0    1
 -2       797       799       798
 -1       151   12    0    1
 -2       799        26       800
 -1       152   12    0    1
 -2        25       802       801
 -1       153   12    0    1
 -2       802       804       803
 -1       154   12    0    1
 -2       804        32       805
 -1       155   12    0    1
 -2        25       807       806
 -1       156   12    0    1
 -2       807       809       808
 -1       157   12    0    1
 -2       809       811       810
 -1       158   12    0    1
 -2       811       813       812
 -1       159   12    0    1
 -2       813       815       814
 -1       160   12    0    1
 -2       815       817       816
 -1       161   12    0    1
 -2       817       819       818
 -1       162   12    0    1
 -2       819        33       820
 -1       163   12    0    1
 -2        26       822       821
 -1       164   12    0    1
 -2       822       824       823
 -1       165   12    0    1
 -2       824       826       825
 -1       166   12    0    1
 -2       826       828       827
 -1       167   12    0    1
 -2       828       830       829
 -1       168   12    0    1
 -2       830       832       831
 -1       169   12    0    1
 -2       832       834       833
 -1       170   12    0    1
 -2       834        27       835
 -1       171   12    0    1
 -2        26       837       836
 -1       172   12    0    1
 -2       837       839       838
 -1       173   12    0    1
 -2       839        33       840
 -1       174   12    0    1
 -2        27       857       856
 -1       175   12    0    1
 -2       857       859       858
 -1       176   12    0    1
 -2       859       861       860
 -1       177   12    0    1
 -2       861       863       862
 -1       178   12    0    1
 -2       863       865       864
 -1       179   12    0    1
 -2       865       867       866
 -1       180   12    0    1
 -2       867       869       868
 -1       181   12    0    1
 -2       869        28       870
 -1       182   12    0    1
 -2        27       872       871
 -1       183   12    0    1
 -2       872       874       873
 -1       184   12    0    1
 -2       874        34       875
 -1       185   12    0    1
 -2        27       877       876
 -1       186   12    0    1
 -2       877       879       878
 -1       187   12    0    1
 -2       879       881       880
 -1       188   12    0    1
 -2       881       883       882
 -1       189   12    0    1
 -2       883       885       884
 -1       190   12    0    1
 -2       885       887       886
 -1       191   12    0    1
 -2       887       889       888
 -1       192   12    0    1
 -2       889        35       890
 -1       193   12    0    1
 -2        28       892       891
 -1       194   12    0    1
 -2       892       894       893
 -1       195   12    0    1
 -2       894        35       895
 -1       196   12    0    1
 -2        33       957       956
 -1       197   12    0    1
 -2       957       959       958
 -1       198   12    0    1
 -2       959       961       960
 -1       199   12    0    1
 -2       961       963       962
 -1       200   12    0    1
 -2       963       965       964
 -1       201   12    0    1
 -2       965       967       966
 -1       202   12    0    1
 -2       967       969       968
 -1       203   12    0    1
 -2       969        34       970
 -1       204   12    0    1
 -2        34       972       971
 -1       205   12    0    1
 -2       972       974       973
 -1       206   12    0    1
 -2       974       976       975
 -1       207   12    0    1
 -2       976       978       977
 -1       208   12    0    1
 -2       978       980       979
 -1       209   12    0    1
 -2       980       982       981
 -1       210   12    0    1
 -2       982       984       983
 -1       211   12    0    1
 -2       984        35       985
 -3
    1PSTEP                         1           1           1          
  100CL  101 2.50000E-01         409                     0    1           1
 -4  DISP        4    1
 -5  D1          1    2    1    0
 -5  D2          1    2    2    0
 -5  D3          1    2    3    0
 -5  ALL         1    2    0    0    1ALL
 -1         1 6.52359E-05 0.00000E+00 0.00000E+00
 -1         2 6.02684E-05 2.05095E-29 0.00000E+00
 -1         3 5.54705E-05-2.58790E-27 0.00000E+00
 -1         5 4.00371E-05 4.82173E-26 1.65436E-24
 -1         8 5.20700E-05-4.68975E-07 0.00000E+00
 -1         9 5.28941E-05 3.09988E-07 0.00000E+00
 -1        10 5.14305E-05-7.59708E-07 1.65436E-24
 -1        12 3.97504E-05 2.72222E-07 8.27181E-25
 -1        15 3.64080E-05-5.01685E-07 0.00000E+00
 -1        16 3.76674E-05 2.49397E-07 0.00000E+00
 -1        17 3.83744E-05-1.59167E-06 0.00000E+00
 -1        18 3.83639E-05 7.32061E-08 0.00000E+00
 -1        19 3.88907E-05 5.42971E-07 0.00000E+00
 -1        20 3.89627E-05 8.10315E-06 0.00000E+00
 -1        21 3.86919E-05 1.53275E-05 8.27181E-25
 -1        24 9.81931E-06-2.11649E-06 0.00000E+00
 -1        25 3.74478E-05 1.35460E-07 0.00000E+00
 -1        26 3.79431E-05 7.56579E-07 0.00000E+00
 -1        27 3.71907E-05 6.89239E-06 0.00000E+00
 -1        28 3.69473E-05 1.50947E-05 0.00000E+00
 -1        32 0.00000E+00 0.00000E+00 0.00000E+00
 -1        33 3.63457E-05 1.01477E-06 0.00000E+00
 -1        34 3.56178E-05 6.88170E-06 0.00000E+00
 -1        35 3.49263E-05 1.49720E-05 0.00000E+00
 -1        51 6.43791E-05-7.81442E-08 0.00000E+00
 -1        52 6.27916E-05-1.53934E-07 0.00000E+00
 -1        53 6.06172E-05-2.29970E-07 0.00000E+00
 -1        54 5.80055E-05-3.06970E-07 0.00000E+00
 -1        55 5.51064E-05-3.85466E-07-2.27475E-24
 -1        56 6.46334E-05-3.64435E-07-1.32349E-23
 -1        57 6.40906E-05-9.55874E-07-6.61744E-24
 -1        58 6.36095E-05-1.70798E-06 1.32349E-23
 -1        59 6.31624E-05-2.56246E-06 1.32349E-23
 -1        60 6.27292E-05-3.45443E-06 0.00000E+00
 -1        61 6.22854E-05-4.32007E-06 0.00000E+00
 -1        62 6.18079E-05-5.09604E-06 0.00000E+00
 -1        63 6.12736E-05-5.72067E-06 1.32349E-23
 -1        64 6.06612E-05-6.13708E-06 0.00000E+00
 -1        65 5.99508E-05-6.29166E-06 0.00000E+00
 -1        66 5.91252E-05-6.13924E-06 0.00000E+00
 -1        67 5.81699E-05-5.63933E-06 1.32349E-23
 -1        68 5.70731E-05-4.76293E-06-1.32349E-23
 -1        69 5.58293E-05-3.48559E-06 6.61744E-24
 -1        70 5.44297E-05-1.79857E-06-1.32349E-23
 -1        86 6.00720E-05 5.52433E-08 0.00000E+00
 -1        87 5.94824E-05 1.10045E-07 8.27181E-25
 -1        88 5.84877E-05 1.64496E-07 8.27181E-25
 -1        89 5.70749E-05 2.16625E-07 0.00000E+00
 -1        90 5.52191E-05 2.68677E-07 0.00000E+00
 -1       121 5.53580E-05-1.26284E-07-3.30872E-24
 -1       122 5.50206E-05-2.52619E-07 0.00000E+00
 -1       123 5.44585E-05-3.79056E-07 0.00000E+00
 -1       124 5.36724E-05-5.05667E-07 1.65436E-24
 -1       125 5.26627E-05-6.32465E-07 0.00000E+00
 -1       191 4.00292E-05 4.53734E-08 1.65436E-24
 -1       192 4.00053E-05 9.07460E-08 0.00000E+00
 -1       193 3.99654E-05 1.36118E-07-1.65436E-24
 -1       194 3.99097E-05 1.81489E-07 8.27181E-25
 -1       195 3.98380E-05 2.26858E-07 0.00000E+00
 -1       251 5.21106E-05 1.69842E-06-1.65436E-24
 -1       252 5.21623E-05 2.99373E-06 5.16988E-26
 -1       253 5.22140E-05 3.55989E-06 8.27181E-25
 -1       254 5.22676E-05 3.53806E-06-8.27181E-25
 -1       255 5.23213E-05 3.05281E-06 0.00000E+00
 -1       256 5.23750E-05 2.22765E-06 0.00000E+00
 -1       257 5.24286E-05 1.17641E-06-1.65436E-24
 -1       258 5.24822E-05 1.24246E-08-8.27181E-25
 -1       259 5.25357E-05-1.15423E-06 1.65436E-24
 -1       260 5.25893E-05-2.21346E-06 0.00000E+00
 -1       261 5.26431E-05-3.05208E-06 0.00000E+00
 -1       262 5.26967E-05-3.55645E-06 8.27181E-25
 -1       263 5.27503E-05-3.60340E-06 0.00000E+00
 -1       264 5.28020E-05-3.06871E-06 1.03398E-25
 -1       265 5.28536E-05-1.81169E-06 1.65436E-24
 -1       266 4.94597E-05-4.80961E-07 0.00000E+00
 -1       267 4.68493E-05-4.85614E-07 8.27181E-25
 -1       268 4.42390E-05-4.90737E-07-8.27181E-25
 -1       269 4.16286E-05-4.94480E-07 0.00000E+00
 -1       270 3.90183E-05-4.98192E-07 2.06795E-25
 -1       271 5.04858E-05 1.47043E-06 0.00000E+00
 -1       272 4.91435E-05 2.69232E-06 0.00000E+00
 -1       273 4.80365E-05 3.29144E-06 2.64698E-23
 -1       274 4.71255E-05 3.35753E-06-1.32349E-23
 -1       275 4.63771E-05 2.98884E-06 0.00000E+00
 -1       276 4.57531E-05 2.28649E-06 0.00000E+00
 -1       277 4.52145E-05 1.35539E-06 2.64698E-23
 -1       278 4.47214E-05 3.02521E-07 0.00000E+00
 -1       279 4.42334E-05-7.63856E-07-2.64698E-23
 -1       280 4.37099E-05-1.73531E-06 1.32349E-23
 -1       281 4.31107E-05-2.50449E-06 2.64698E-23
 -1       282 4.23968E-05-2.96593E-06 1.32349E-23
 -1       283 4.15294E-05-3.01752E-06 2.64698E-23
 -1       284 4.04738E-05-2.56023E-06 0.00000E+00
 -1       285 3.91916E-05-1.50233E-06 0.00000E+00
 -1       301 5.03158E-05 2.96773E-07-3.30872E-24
 -1       302 4.77379E-05 2.91366E-07 8.27181E-25
 -1       303 4.51722E-05 2.86185E-07 1.65436E-24
 -1       304 4.26307E-05 2.80135E-07 0.00000E+00
 -1       305 4.01251E-05 2.72859E-07 0.00000E+00
 -1       306 5.12645E-05 2.18899E-06 0.00000E+00
 -1       307 4.98918E-05 3.30531E-06 1.32349E-23
 -1       308 4.87907E-05 3.70472E-06 0.00000E+00
 -1       309 4.79342E-05 3.43798E-06 0.00000E+00
 -1       310 4.72870E-05 2.61278E-06-2.64698E-23
 -1       311 4.68029E-05 1.34887E-06 0.00000E+00
 -1       312 4.64247E-05-1.98450E-07 0.00000E+00
 -1       313 4.60917E-05-1.86712E-06 1.32349E-23
 -1       314 4.57397E-05-3.48509E-06 0.00000E+00
 -1       315 4.53051E-05-4.88155E-06 0.00000E+00
 -1       316 4.47307E-05-5.90389E-06 0.00000E+00
 -1       317 4.39635E-05-6.40846E-06 0.00000E+00
 -1       318 4.29640E-05-6.29339E-06 2.64698E-23
 -1       319 4.17044E-05-5.47013E-06 1.32349E-23
 -1       320 4.01655E-05-3.91090E-06-1.32349E-23
 -1       336 4.99472E-05-8.97254E-07 0.00000E+00
 -1       337 4.81842E-05-1.03543E-06 0.00000E+00
 -1       338 4.61430E-05-1.17407E-06-3.30872E-24
 -1       339 4.38259E-05-1.31309E-06-1.65436E-24
 -1       340 4.12354E-05-1.45279E-06-3.30872E-24
 -1       406 3.96469E-05 3.17580E-07-1.65436E-24
 -1       407 3.95275E-05 3.62921E-07 0.00000E+00
 -1       408 3.93921E-05 4.08233E-07 1.65436E-24
 -1       409 3.92408E-05 4.53459E-07 0.00000E+00
 -1       410 3.90736E-05 4.98510E-07-1.65436E-24
 -1       521 3.54013E-05 1.64680E-06-2.64698E-23
 -1       522 3.34225E-05 2.13085E-06 0.00000E+00
 -1       523 3.17662E-05 1.76552E-06 5.29396E-23
 -1       524 3.03895E-05 6.27819E-07 0.00000E+00
 -1       525 2.92368E-05-1.10906E-06 0.00000E+00
 -1       526 2.82329E-05-3.24947E-06 0.00000E+00
 -1       527 2.72887E-05-5.55003E-06 0.00000E+00
 -1       528 2.63108E-05-7.76108E-06-2.64698E-23
 -1       529 2.52100E-05-9.64308E-06 0.00000E+00
 -1       530 2.39023E-05-1.09708E-05-2.64698E-23
 -1       531 2.23268E-05-1.15834E-05 0.00000E+00
 -1       532 2.04357E-05-1.13505E-05 2.64698E-23
 -1       533 1.82146E-05-1.02406E-05 0.00000E+00
 -1       534 1.56736E-05-8.25628E-06-2.64698E-23
 -1       535 1.28402E-05-5.50833E-06-2.64698E-23
 -1       536 3.83664E-05 1.07182E-06 1.65436E-24
 -1       537 3.83639E-05 3.07446E-06 0.00000E+00
 -1       538 3.83622E-05 4.48499E-06 0.00000E+00
 -1       539 3.83619E-05 5.37215E-06 1.03398E-25
 -1       540 3.83618E-05 5.80448E-06-1.03398E-25
 -1       541 3.83620E-05 5.85050E-06-2.58494E-26
 -1       542 3.83622E-05 5.57854E-06 0.00000E+00
 -1       543 3.83623E-05 5.05691E-06 0.00000E+00
 -1       544 3.83623E-05 4.35380E-06 0.00000E+00
 -1       545 3.83623E-05 3.53735E-06 0.00000E+00
 -1       546 3.83622E-05 2.67569E-06-2.58494E-26
 -1       547 3.83622E-05 1.83690E-06 0.00000E+00
 -1       548 3.83623E-05 1.08910E-06 0.00000E+00
 -1       549 3.83625E-05 5.00397E-07-5.16988E-26
 -1       550 3.83629E-05 1.39029E-07 0.00000E+00
 -1       551 3.45853E-05-1.67257E-06 0.00000E+00
 -1       552 3.00525E-05-1.75518E-06 0.00000E+00
 -1       553 2.50410E-05-1.84010E-06-1.65436E-24
 -1       554 1.98194E-05-1.92735E-06 0.00000E+00
 -1       555 1.46566E-05-2.01576E-06 0.00000E+00
 -1       556 3.73835E-05 9.81283E-07-6.61744E-24
 -1       557 3.66268E-05 2.94603E-06 0.00000E+00
 -1       558 3.60786E-05 4.35880E-06 0.00000E+00
 -1       559 3.57158E-05 5.28025E-06 0.00000E+00
 -1       560 3.55152E-05 5.77086E-06-6.61744E-24
 -1       561 3.54536E-05 5.89141E-06 0.00000E+00
 -1       562 3.55080E-05 5.70272E-06 0.00000E+00
 -1       563 3.56555E-05 5.26567E-06 0.00000E+00
 -1       564 3.58733E-05 4.64115E-06 0.00000E+00
 -1       565 3.61384E-05 3.89006E-06 0.00000E+00
 -1       566 3.64281E-05 3.07333E-06-4.13590E-25
 -1       567 3.67196E-05 2.25189E-06-2.06795E-25
 -1       568 3.69900E-05 1.48665E-06 0.00000E+00
 -1       569 3.72167E-05 8.38477E-07 0.00000E+00
 -1       570 3.73767E-05 3.68239E-07 0.00000E+00
 -1       571 3.83959E-05 1.23460E-07-4.13590E-25
 -1       572 3.84286E-05 1.52009E-07 0.00000E+00
 -1       573 3.84614E-05 1.62714E-07-8.27181E-25
 -1       574 3.84944E-05 1.59644E-07 4.13590E-25
 -1       575 3.85274E-05 1.46882E-07 0.00000E+00
 -1       576 3.85605E-05 1.28541E-07 4.13590E-25
 -1       577 3.85935E-05 1.08736E-07 0.00000E+00
 -1       578 3.86265E-05 9.15838E-08 8.27181E-25
 -1       579 3.86596E-05 8.12032E-08 0.00000E+00
 -1       580 3.86926E-05 8.17126E-08 0.00000E+00
 -1       581 3.87257E-05 9.72296E-08 0.00000E+00
 -1       582 3.87587E-05 1.31867E-07 0.00000E+00
 -1       583 3.87917E-05 1.89734E-07 1.65436E-24
 -1       584 3.88248E-05 2.74898E-07 0.00000E+00
 -1       585 3.88578E-05 3.91400E-07 0.00000E+00
 -1       586 3.81999E-05 8.42342E-08 0.00000E+00
 -1       587 3.80219E-05 9.49816E-08 0.00000E+00
 -1       588 3.78438E-05 1.05609E-07 0.00000E+00
 -1       589 3.76796E-05 1.16066E-07 0.00000E+00
 -1       590 3.75430E-05 1.26238E-07 0.00000E+00
 -1       591 3.83298E-05 1.40153E-07 2.58494E-26
 -1       592 3.83012E-05 1.89113E-07 0.00000E+00
 -1       593 3.82779E-05 2.23511E-07-2.06795E-25
 -1       594 3.82588E-05 2.46429E-07 0.00000E+00
 -1       595 3.82428E-05 2.60993E-07 4.13590E-25
 -1       596 3.82288E-05 2.70304E-07 0.00000E+00
 -1       597 3.82155E-05 2.77461E-07 0.00000E+00
 -1       598 3.82019E-05 2.85563E-07 0.00000E+00
 -1       599 3.81868E-05 2.97705E-07-2.06795E-25
 -1       600 3.81689E-05 3.16986E-07 1.03398E-25
 -1       601 3.81473E-05 3.46502E-07 2.06795E-25
 -1       602 3.81207E-05 3.89355E-07-5.16988E-26
 -1       603 3.80880E-05 4.48643E-07-1.03398E-25
 -1       604 3.80481E-05 5.27495E-07 0.00000E+00
 -1       605 3.79998E-05 6.28992E-07 0.00000E+00
 -1       606 3.88968E-05 7.69624E-07 0.00000E+00
 -1       607 3.89018E-05 1.04349E-06 8.27181E-25
 -1       608 3.89065E-05 1.36181E-06 0.00000E+00
 -1       609 3.89110E-05 1.72144E-06 0.00000E+00
 -1       610 3.89154E-05 2.11925E-06 0.00000E+00
 -1       611 3.89198E-05 2.55206E-06-8.27181E-25
 -1       612 3.89242E-05 3.01667E-06 0.00000E+00
 -1       613 3.89285E-05 3.50990E-06 0.00000E+00
 -1       614 3.89329E-05 4.02856E-06 0.00000E+00
 -1       615 3.89372E-05 4.56946E-06 0.00000E+00
 -1       616 3.89415E-05 5.12941E-06 0.00000E+00
 -1       617 3.89458E-05 5.70521E-06 0.00000E+00
 -1       618 3.89501E-05 6.29367E-06 0.00000E+00
 -1       619 3.89544E-05 6.89161E-06 0.00000E+00
 -1       620 3.89586E-05 7.49584E-06 0.00000E+00
 -1       621 3.87102E-05 5.78598E-07-8.27181E-25
 -1       622 3.85423E-05 6.14398E-07 0.00000E+00
 -1       623 3.83844E-05 6.50192E-07-8.27181E-25
 -1       624 3.82336E-05 6.85929E-07-4.13590E-25
 -1       625 3.80874E-05 7.21604E-07 0.00000E+00
 -1       626 3.88438E-05 7.80832E-07 1.65436E-24
 -1       627 3.87826E-05 1.05780E-06 0.00000E+00
 -1       628 3.87081E-05 1.37026E-06 0.00000E+00
 -1       629 3.86218E-05 1.71434E-06 0.00000E+00
 -1       630 3.85251E-05 2.08618E-06-1.65436E-24
 -1       631 3.84194E-05 2.48186E-06 0.00000E+00
 -1       632 3.83063E-05 2.89749E-06-1.65436E-24
 -1       633 3.81871E-05 3.32918E-06 0.00000E+00
 -1       634 3.80633E-05 3.77302E-06 0.00000E+00
 -1       635 3.79365E-05 4.22510E-06 8.27181E-25
 -1       636 3.78080E-05 4.68154E-06 8.27181E-25
 -1       637 3.76793E-05 5.13843E-06-4.13590E-25
 -1       638 3.75519E-05 5.59187E-06 0.00000E+00
 -1       639 3.74272E-05 6.03795E-06 0.00000E+00
 -1       640 3.73065E-05 6.47278E-06 0.00000E+00
 -1       656 3.84581E-05 7.90620E-06 3.30872E-24
 -1       657 3.81315E-05 7.70133E-06 0.00000E+00
 -1       658 3.79133E-05 7.49709E-06-3.30872E-24
 -1       659 3.77333E-05 7.29301E-06 0.00000E+00
 -1       660 3.75171E-05 7.08829E-06 0.00000E+00
 -1       661 3.87759E-05 8.69843E-06-4.13590E-25
 -1       662 3.86001E-05 9.26859E-06 4.13590E-25
 -1       663 3.84334E-05 9.81413E-06 0.00000E+00
 -1       664 3.82759E-05 1.03362E-05 0.00000E+00
 -1       665 3.81268E-05 1.08357E-05 0.00000E+00
 -1       666 3.79859E-05 1.13135E-05 4.13590E-25
 -1       667 3.78528E-05 1.17707E-05 8.27181E-25
 -1       668 3.77271E-05 1.22081E-05 4.13590E-25
 -1       669 3.76085E-05 1.26265E-05 0.00000E+00
 -1       670 3.74966E-05 1.30269E-05 0.00000E+00
 -1       671 3.73913E-05 1.34101E-05 0.00000E+00
 -1       672 3.72920E-05 1.37769E-05 0.00000E+00
 -1       673 3.71985E-05 1.41281E-05-8.27181E-25
 -1       674 3.71102E-05 1.44643E-05 4.13590E-25
 -1       675 3.70274E-05 1.47866E-05 0.00000E+00
 -1       676 3.84007E-05 1.52884E-05 0.00000E+00
 -1       677 3.81096E-05 1.52494E-05-4.13590E-25
 -1       678 3.78187E-05 1.52104E-05 0.00000E+00
 -1       679 3.75280E-05 1.51716E-05 0.00000E+00
 -1       680 3.72375E-05 1.51327E-05 0.00000E+00
 -1       771 7.87684E-06 1.55763E-06 1.32349E-23
 -1       772 6.18444E-06 4.55741E-06 0.00000E+00
 -1       773 4.73127E-06 6.92347E-06 2.64698E-23
 -1       774 3.50082E-06 8.69811E-06 0.00000E+00
 -1       775 2.47699E-06 9.92413E-06 0.00000E+00
 -1       776 1.64313E-06 1.06451E-05 0.00000E+00
 -1       777 9.82476E-07 1.09051E-05-1.32349E-23
 -1       778 4.78060E-07 1.07488E-05 0.00000E+00
 -1       779 1.12832E-07 1.02212E-05 1.32349E-23
 -1       780-1.30432E-07 9.36792E-06 0.00000E+00
 -1       781-2.68983E-07 8.23484E-06-1.32349E-23
 -1       782-3.20208E-07 6.86826E-06-6.61744E-24
 -1       783-3.01506E-07 5.31462E-06 1.32349E-23
 -1       784-2.30333E-07 3.62071E-06 0.00000E+00
 -1       785-1.24204E-07 1.83343E-06 0.00000E+00
 -1       786 3.74770E-05 1.36142E-07-4.13590E-25
 -1       787 3.75079E-05 1.37387E-07-4.13590E-25
 -1       788 3.75386E-05 1.39809E-07-8.27181E-25
 -1       789 3.75697E-05 1.44026E-07 4.13590E-25
 -1       790 3.76008E-05 1.50780E-07 0.00000E+00
 -1       791 3.76320E-05 1.60818E-07 0.00000E+00
 -1       792 3.76632E-05 1.75117E-07-8.27181E-25
 -1       793 3.76944E-05 1.94661E-07 0.00000E+00
 -1       794 3.77256E-05 2.20803E-07 0.00000E+00
 -1       795 3.77568E-05 2.54904E-07 4.13590E-25
 -1       796 3.77880E-05 2.98888E-07-8.27181E-25
 -1       797 3.78191E-05 3.54690E-07 0.00000E+00
 -1       798 3.78503E-05 4.25079E-07 0.00000E+00
 -1       799 3.78814E-05 5.12844E-07 4.13590E-25
 -1       800 3.79125E-05 6.21997E-07 8.27181E-25
 -1       801 3.49189E-05 1.38280E-07-4.13590E-25
 -1       802 2.73973E-05 1.17024E-07 4.13590E-25
 -1       803 1.75146E-05 7.69295E-08 0.00000E+00
 -1       804 7.90203E-06 3.57735E-08 0.00000E+00
 -1       805 1.18718E-06 1.72335E-08-6.61744E-24
 -1       806 3.74090E-05 1.15250E-07 0.00000E+00
 -1       807 3.73685E-05 9.52682E-08 0.00000E+00
 -1       808 3.73267E-05 7.79363E-08 0.00000E+00
 -1       809 3.72830E-05 6.53037E-08-8.27181E-25
 -1       810 3.72367E-05 5.94165E-08-1.65436E-24
 -1       811 3.71871E-05 6.22904E-08 4.13590E-25
 -1       812 3.71335E-05 7.59392E-08-1.65436E-24
 -1       813 3.70750E-05 1.02372E-07-4.13590E-25
 -1       814 3.70110E-05 1.43597E-07-8.27181E-25
 -1       815 3.69407E-05 2.01621E-07 0.00000E+00
 -1       816 3.68634E-05 2.78450E-07-1.65436E-24
 -1       817 3.67782E-05 3.76092E-07 0.00000E+00
 -1       818 3.66845E-05 4.96550E-07 1.65436E-24
 -1       819 3.65816E-05 6.41824E-07 0.00000E+00
 -1       820 3.64687E-05 8.13913E-07 0.00000E+00
 -1       821 3.78988E-05 9.20509E-07 0.00000E+00
 -1       822 3.78517E-05 1.11778E-06 0.00000E+00
 -1       823 3.78048E-05 1.35315E-06 1.65436E-24
 -1       824 3.77574E-05 1.63130E-06-8.27181E-25
 -1       825 3.77099E-05 1.95259E-06 0.00000E+00
 -1       826 3.76623E-05 2.31727E-06-8.27181E-25
 -1       827 3.76147E-05 2.72119E-06 0.00000E+00
 -1       828 3.75671E-05 3.16014E-06 8.27181E-25
 -1       829 3.75195E-05 3.62634E-06 0.00000E+00
 -1       830 3.74718E-05 4.11195E-06 0.00000E+00
 -1       831 3.74242E-05 4.60717E-06-1.65436E-24
 -1       832 3.73767E-05 5.10218E-06 0.00000E+00
 -1       833 3.73292E-05 5.58718E-06 1.65436E-24
 -1       834 3.72822E-05 6.05239E-06 0.00000E+00
 -1       835 3.72351E-05 6.49004E-06 4.13590E-25
 -1       836 3.77489E-05 7.99555E-07 8.27181E-25
 -1       837 3.74980E-05 8.43485E-07 0.00000E+00
 -1       838 3.72113E-05 8.87338E-07 8.27181E-25
 -1       839 3.69097E-05 9.30912E-07 0.00000E+00
 -1       840 3.66142E-05 9.74418E-07 0.00000E+00
 -1       856 3.71772E-05 7.30481E-06 0.00000E+00
 -1       857 3.71621E-05 7.76913E-06-1.03398E-25
 -1       858 3.71472E-05 8.27713E-06 0.00000E+00
 -1       859 3.71319E-05 8.82059E-06 0.00000E+00
 -1       860 3.71166E-05 9.39123E-06 0.00000E+00
 -1       861 3.71012E-05 9.98079E-06 0.00000E+00
 -1       862 3.70858E-05 1.05810E-05 0.00000E+00
 -1       863 3.70704E-05 1.11835E-05 0.00000E+00
 -1       864 3.70550E-05 1.17801E-05 0.00000E+00
 -1       865 3.70396E-05 1.23624E-05-2.06795E-25
 -1       866 3.70242E-05 1.29222E-05-4.13590E-25
 -1       867 3.70088E-05 1.34512E-05 0.00000E+00
 -1       868 3.69935E-05 1.39412E-05 4.13590E-25
 -1       869 3.69781E-05 1.43839E-05 2.06795E-25
 -1       870 3.69628E-05 1.47711E-05-4.13590E-25
 -1       871 3.68758E-05 6.89202E-06 2.06795E-25
 -1       872 3.66107E-05 6.89061E-06 0.00000E+00
 -1       873 3.63740E-05 6.88901E-06 2.06795E-25
 -1       874 3.61440E-05 6.88716E-06-2.58494E-26
 -1       875 3.58991E-05 6.88509E-06-2.06795E-25
 -1       876 3.70814E-05 7.30907E-06 0.00000E+00
 -1       877 3.69637E-05 7.75099E-06 8.27181E-25
 -1       878 3.68377E-05 8.21508E-06 0.00000E+00
 -1       879 3.67046E-05 8.69853E-06 8.27181E-25
 -1       880 3.65654E-05 9.19846E-06 1.65436E-24
 -1       881 3.64210E-05 9.71202E-06 0.00000E+00
 -1       882 3.62726E-05 1.02364E-05 1.65436E-24
 -1       883 3.61212E-05 1.07687E-05 0.00000E+00
 -1       884 3.59678E-05 1.13061E-05 0.00000E+00
 -1       885 3.58136E-05 1.18459E-05 0.00000E+00
 -1       886 3.56596E-05 1.23850E-05 0.00000E+00
 -1       887 3.55069E-05 1.29208E-05 0.00000E+00
 -1       888 3.53564E-05 1.34503E-05 0.00000E+00
 -1       889 3.52090E-05 1.39706E-05 4.13590E-25
 -1       890 3.50660E-05 1.44790E-05 8.27181E-25
 -1       891 3.66671E-05 1.50742E-05 4.13590E-25
 -1       892 3.63779E-05 1.50535E-05-2.06795E-25
 -1       893 3.60695E-05 1.50329E-05-4.13590E-25
 -1       894 3.57315E-05 1.50124E-05 1.03398E-25
 -1       895 3.53538E-05 1.49919E-05-3.10193E-25
 -1       956 3.63011E-05 1.27442E-06 0.00000E+00
 -1       957 3.62557E-05 1.56322E-06 8.27181E-25
 -1       958 3.62101E-05 1.87814E-06-8.27181E-25
 -1       959 3.61645E-05 2.21597E-06-4.13590E-25
 -1       960 3.61189E-05 2.57350E-06 0.00000E+00
 -1       961 3.60732E-05 2.94750E-06 8.27181E-25
 -1       962 3.60276E-05 3.33473E-06-1.65436E-24
 -1       963 3.59819E-05 3.73196E-06 0.00000E+00
 -1       964 3.59362E-05 4.13595E-06 1.65436E-24
 -1       965 3.58905E-05 4.54347E-06 0.00000E+00
 -1       966 3.58448E-05 4.95128E-06 1.65436E-24
 -1       967 3.57992E-05 5.35615E-06-8.27181E-25
 -1       968 3.57535E-05 5.75484E-06-1.65436E-24
 -1       969 3.57080E-05 6.14413E-06 8.27181E-25
 -1       970 3.56625E-05 6.52079E-06 0.00000E+00
 -1       971 3.55751E-05 7.25245E-06 8.27181E-25
 -1       972 3.55318E-05 7.66174E-06-4.13590E-25
 -1       973 3.54885E-05 8.10529E-06 1.65436E-24
 -1       974 3.54451E-05 8.57869E-06 4.13590E-25
 -1       975 3.54016E-05 9.07750E-06 1.65436E-24
 -1       976 3.53581E-05 9.59728E-06 4.13590E-25
 -1       977 3.53146E-05 1.01336E-05 1.65436E-24
 -1       978 3.52711E-05 1.06820E-05 0.00000E+00
 -1       979 3.52276E-05 1.12381E-05 1.65436E-24
 -1       980 3.51841E-05 1.17974E-05 0.00000E+00
 -1       981 3.51407E-05 1.23554E-05 1.65436E-24
 -1       982 3.50972E-05 1.29078E-05 0.00000E+00
 -1       983 3.50538E-05 1.34501E-05-1.65436E-24
 -1       984 3.50107E-05 1.39778E-05 0.00000E+00
 -1       985 3.49676E-05 1.44865E-05 0.00000E+00
 -3
    1PSTEP                         2           1           1          
  100CL  101 2.50000E-01         409                     0    1           1
 -4  STRESS      6    1
 -5  SXX         1    4    1    1
 -5  SYY         1    4    2    2
 -5  SZZ         1    4    3    3
 -5  SXY         1    4    1    2
 -5  SYZ         1    4    2    3
 -5  SZX         1    4    3    1
 -1         1-8.63899E+05-3.98579E+05-1.75218E+05-5.58308E+05 1.45519E-11-9.16771E-10
 -1         2 1.44473E+03 1.59917E+05 4.70698E+03 2.67235E+02-8.24514E-11-2.61022E-09
 -1         3-1.82477E+01-3.60992E+05 8.29989E+01-6.58652E+01-7.67919E-11 8.79481E-09
 -1         5-2.14371E+00 1.29817E+05 3.39830E+00-5.15264E-02 5.16971E-11-1.03332E-08
 -1         8-4.06394E+05-1.76785E+05-1.28470E+04-3.08588E+05 2.64663E-10-6.08270E-09
 -1         9-6.98526E+05-1.82664E+05-6.93962E+04-2.42747E+05 1.87574E-09 7.04313E-10
 -1        10-2.67805E+02-3.76081E+05-4.78146E+02-4.36340E+02-1.74964E-09 7.23524E-09
 -1        12-7.48705E-01 1.29824E+05 1.10152E+02-1.07184E-01 6.00693E-11 4.09273E-10
 -1        15 1.10655E+03 6.03539E+02 3.50966E+03 1.26050E+00-9.85506E-09-3.96445E-06
 -1        16-1.96249E+06-6.33009E+05-3.05149E+05-6.44102E+05 5.94446E-09-9.21621E-10
 -1        17-4.32440E+05-2.68029E+05-8.31146E+04-2.53402E+05-2.80415E-09-6.59202E-10
 -1        18 1.65419E+04 1.70542E+03-5.84077E+03-3.05397E+04 3.82954E-10 1.91721E-09
 -1        19 4.06949E+04 4.85203E+04-2.24202E+02 7.97860E+03-3.27145E-10-6.78119E-10
 -1        20-1.68651E+04-1.92379E+05-4.24155E+04 1.43393E+04 1.30520E-09-1.92995E-09
 -1        21-1.82290E+01-1.11628E+05-3.60554E+02-2.22918E+01-4.41067E-09 7.46290E-09
 -1        24-1.72164E+06-6.03025E+05-2.45941E+05-7.35749E+05-7.97202E-09-4.87247E-09
 -1        25 1.47476E+04-3.61474E+03 8.70225E+03-5.51253E+04 1.85901E-10 1.63400E-09
 -1        26-9.43643E+03 3.31549E+04-6.58720E+03-4.72683E+03 8.13998E-10 6.30124E-10
 -1        27-3.07991E+04-1.05564E+05-3.96011E+04 2.37916E+04 3.27335E-09-3.68345E-11
 -1        28 8.62006E+03-3.08399E+04 6.29992E+03 9.89382E+03 1.74595E-09 4.11809E-10
 -1        32-4.12954E+05-6.50091E+04 1.76725E+05-2.77038E+05-8.03266E-09 7.81081E-09
 -1        33-6.03990E+04 3.10495E+04 1.10087E+04-1.80143E+04 5.25934E-10-3.27418E-11
 -1        34-7.83997E+04-7.80330E+03 1.86273E+02 2.41083E+04 2.61079E-09-9.02370E-10
 -1        35-8.77235E+03-1.22692E+04-4.77807E+02 1.94405E+04 2.15183E-09-1.00287E-09
 -1        51 8.24408E+03-2.04644E+05 1.98764E+04-5.03528E+05 3.63798E-11 4.00178E-10
 -1        52 3.99770E+03-2.02587E+05 1.30833E+04-5.87268E+05 1.92813E-10 9.60426E-10
 -1        53 2.41033E+03-2.07362E+05 1.14464E+04-5.01825E+05 3.09228E-10-2.76486E-10
 -1        54 7.95052E+03-2.05228E+05 1.85052E+04-5.89086E+05-5.09317E-10-3.76531E-10
 -1        55 1.83369E+04-2.11904E+05 3.33307E+04-5.01615E+05 2.47383E-10-3.56522E-10
 -1        56-1.65949E+06-1.87757E+05-1.29602E+05-6.40155E+05-1.49157E-10-5.10772E-09
 -1        57-1.71218E+06-3.04312E+05-8.73464E+04-6.34465E+05-1.53250E-10 6.53745E-09
 -1        58-1.68526E+06-2.29058E+05-3.05143E+04-6.32356E+05-1.39607E-10 1.47338E-09
 -1        59-1.68238E+06-2.55895E+05-1.82166E+04-6.43837E+05-4.92491E-10-1.51340E-09
 -1        60-1.68905E+06-2.34794E+05-7.13362E+03-6.31280E+05 6.48015E-11 1.29444E-09
 -1        61-1.67827E+06-2.48902E+05-4.05742E+03-6.44767E+05 8.11781E-10 5.40669E-09
 -1        62-1.68932E+06-2.35877E+05-1.95504E+03-6.31482E+05 1.63482E-10 6.88999E-09
 -1        63-1.67860E+06-2.47158E+05-1.61160E+03-6.43823E+05-4.65548E-10 2.65868E-09
 -1        64-1.68870E+06-2.36532E+05-1.84669E+03-6.32215E+05-6.70866E-10 5.79519E-09
 -1        65-1.68061E+06-2.46312E+05-3.70628E+03-6.41869E+05-1.45576E-10 2.80579E-09
 -1        66-1.68728E+06-2.36760E+05-6.51018E+03-6.33409E+05-8.95852E-10 1.18234E-10
 -1        67-1.68654E+06-2.50402E+05-1.65341E+04-6.38406E+05 1.27682E-09 3.63320E-09
 -1        68-1.68278E+06-2.32620E+05-2.77416E+04-6.35604E+05 1.15233E-09-1.05865E-09
 -1        69-1.71552E+06-2.92461E+05-7.93201E+04-6.27711E+05 1.62618E-09-2.59752E-09
 -1        70-1.65852E+06-1.95955E+05-1.17748E+05-6.43648E+05-2.83762E-10-4.22733E-09
 -1        86-7.23815E+02 1.58517E+05 5.05322E+03-1.33625E+02 6.52676E-10-6.09646E-11
 -1        87 4.80652E+03 1.61553E+05 1.05282E+04 5.46824E+02 1.09230E-09-1.11164E-09
 -1        88-4.07569E+03 1.56882E+05 1.61344E+04-4.13214E+02 1.62254E-09-2.84368E-09
 -1        89 3.03761E+04 1.73449E+05 4.34889E+04 1.16548E+03 2.44972E-09-3.40999E-09
 -1        90-2.62095E+04 1.46626E+05 6.14524E+04-7.52104E+02 2.74667E-09 4.66002E-09
 -1       121-3.46436E+01-3.61108E+05 8.29749E+01 3.29132E+01 1.98085E-10 4.15002E-09
 -1       122 9.03270E+00-3.60973E+05 1.81864E+02-1.31878E+02-6.59499E-10 4.56794E-09
 -1       123-5.46910E+01-3.61128E+05 2.99038E+02 9.88515E+01 5.39586E-10 6.07361E-09
 -1       124 3.44650E+02-3.60766E+05 7.64449E+02-3.26936E+02-1.26983E-09 1.11481E-09
 -1       125-2.73396E+02-3.61318E+05 1.17694E+03 2.27993E+02 8.16271E-10-3.54066E-09
 -1       191-2.36339E+00 1.29828E+05 4.07790E+00 2.56028E-02 8.11594E-11-2.12804E-08
 -1       192-2.45559E+00 1.29818E+05 7.19493E+00 1.57135E-01 1.23400E-10-3.73082E-08
 -1       193-3.19294E+00 1.29828E+05 1.33966E+01-1.83862E-01 1.49115E-10-1.63081E-08
 -1       194-3.45947E+00 1.29819E+05 2.72147E+01 4.94980E-01 8.99329E-11-1.23873E-09
 -1       195-4.78757E+00 1.29827E+05 5.32505E+01-3.14255E-01 2.16062E-10-2.43745E-09
 -1       251 1.42999E+05-2.55194E+04 5.96641E+04 2.15036E+03 2.27374E-12 2.43745E-10
 -1       252 1.69711E+05 2.95399E+04 4.22529E+04-7.51069E+03 5.84066E-11 3.94130E-09
 -1       253 1.53165E+05-3.95263E+03 1.54458E+04 1.62186E+03-7.78755E-11 2.65572E-10
 -1       254 1.57776E+05 4.56986E+03 9.74097E+03-6.67113E+03-1.60867E-11-1.48884E-09
 -1       255 1.54900E+05-6.11096E+02 3.99071E+03 1.31092E+03 2.28141E-10 2.09207E-09
 -1       256 1.55715E+05 7.23933E+02 2.42106E+03-6.21024E+03 7.81405E-10 2.97402E-09
 -1       257 1.55211E+05-1.07108E+02 1.24695E+03 1.16095E+03 2.95906E-10 2.81327E-09
 -1       258 1.55400E+05 2.23937E+02 1.10394E+03-6.05843E+03-3.46970E-10 1.61583E-09
 -1       259 1.55210E+05-1.08902E+02 1.26394E+03 1.15912E+03 1.15627E-10 2.87454E-09
 -1       260 1.55721E+05 7.39703E+02 2.46926E+03-6.20341E+03 1.01785E-10-4.48361E-09
 -1       261 1.54894E+05-6.24863E+02 4.07900E+03 1.30593E+03 7.73070E-10-3.50155E-11
 -1       262 1.57822E+05 4.67379E+03 9.95858E+03-6.65637E+03 3.72779E-10 6.19252E-10
 -1       263 1.53124E+05-4.04211E+03 1.57971E+04 1.61209E+03-3.12866E-10 2.82489E-09
 -1       264 1.70015E+05 3.02101E+04 4.32067E+04-7.48678E+03-1.82706E-09 3.03771E-10
 -1       265 1.42735E+05-2.60969E+04 6.10216E+04 2.13621E+03-6.53358E-10 2.11730E-09
 -1       266-1.97617E+04-9.19375E+03 4.60073E+04-2.64829E+01-1.50285E-08-6.02715E-06
 -1       267 2.28974E+04 1.07235E+04 3.25746E+04 3.05072E+01-2.99838E-08-1.19630E-05
 -1       268-3.09356E+03-1.52651E+03 1.20841E+04-3.92692E+00-2.39811E-08-9.58452E-06
 -1       269 3.65207E+03 1.82845E+03 7.87448E+03 4.56990E+00-1.81030E-08-7.22123E-06
 -1       270-5.52506E+02-3.01766E+02 3.79169E+03-6.28325E-01-1.36890E-08-5.45918E-06
 -1       271-1.91288E+06-2.37783E+05-1.46737E+05-7.43889E+05 6.56655E-10-1.54250E-09
 -1       272-1.95245E+06-3.58061E+05-9.43581E+04-7.57850E+05 3.55044E-10-6.71753E-09
 -1       273-1.94047E+06-2.74347E+05-3.46586E+04-7.37394E+05-1.21508E-09-1.27329E-10
 -1       274-1.92036E+06-3.13107E+05-1.94191E+04-7.67744E+05-6.61203E-10 2.57342E-09
 -1       275-1.94456E+06-2.77863E+05-8.06250E+03-7.35963E+05-1.38925E-09 9.87711E-10
 -1       276-1.91556E+06-3.08934E+05-4.29299E+03-7.70032E+05-2.05046E-09 8.54129E-10
 -1       277-1.94541E+06-2.77907E+05-2.09971E+03-7.35436E+05-2.16914E-10 2.35696E-09
 -1       278-1.91474E+06-3.08806E+05-1.52945E+03-7.70664E+05 3.41061E-10-1.11191E-09
 -1       279-1.94546E+06-2.77899E+05-1.64149E+03-7.35405E+05-1.39198E-09-4.38536E-09
 -1       280-1.91530E+06-3.08811E+05-3.00927E+03-7.70181E+05-1.91221E-09-4.00223E-09
 -1       281-1.94479E+06-2.77970E+05-5.49639E+03-7.35862E+05-3.10138E-10-3.63025E-09
 -1       282-1.91880E+06-3.11319E+05-1.31355E+04-7.68241E+05 1.80307E-10 2.32740E-09
 -1       283-1.94181E+06-2.75842E+05-2.34287E+04-7.37081E+05-3.30147E-10-4.10000E-09
 -1       284-1.94096E+06-3.41101E+05-6.37141E+04-7.60836E+05 2.82398E-10-4.27372E-09
 -1       285-1.92281E+06-2.51544E+05-9.91385E+04-7.41870E+05 7.48514E-10 1.74623E-10
 -1       301 7.33932E+03-4.64645E+03 5.73877E+04-1.42746E+04-2.38288E-10 4.29168E-10
 -1       302 7.87878E+03 9.92614E+03 4.14458E+04-2.09906E+04 8.86871E-10 2.16738E-09
 -1       303 3.29868E+02 5.07474E+02 3.81583E+04-1.42960E+04-5.74801E-10-3.22188E-10
 -1       304 1.48777E+04 1.63791E+04 6.41948E+04-2.09355E+04 5.96629E-10 3.05954E-09
 -1       305 1.47495E+04-1.10694E+04 1.07724E+05-1.42995E+04-5.38421E-10 4.12888E-09
 -1       306-2.06384E+06-2.36046E+05-1.57194E+05-8.03067E+05 7.02130E-10-2.77214E-09
 -1       307-2.13863E+06-3.75287E+05-1.07205E+05-7.83195E+05 1.36970E-09-2.58296E-10
 -1       308-2.09863E+06-2.85768E+05-3.69780E+04-7.89348E+05 1.33696E-09-2.96495E-10
 -1       309-2.09628E+06-3.19519E+05-2.24327E+04-8.01768E+05 1.68569E-10 2.62662E-09
 -1       310-2.10603E+06-2.90857E+05-8.67600E+03-7.84845E+05 4.20037E-10-3.03362E-09
 -1       311-2.08688E+06-3.14522E+05-5.04259E+03-8.08141E+05 2.17446E-09-3.74257E-09
 -1       312-2.10806E+06-2.90588E+05-2.46345E+03-7.83066E+05 1.54363E-09-8.08711E-10
 -1       313-2.08512E+06-3.14531E+05-2.22283E+03-8.09651E+05-5.17424E-10 3.80913E-09
 -1       314-2.10781E+06-2.90817E+05-2.66814E+03-7.83357E+05-2.71484E-10 2.66346E-09
 -1       315-2.08789E+06-3.13791E+05-5.63893E+03-8.07010E+05 1.46429E-10 5.17377E-09
 -1       316-2.10525E+06-2.91375E+05-9.80052E+03-7.85670E+05 9.73088E-10 3.03316E-10
 -1       317-2.09877E+06-3.19257E+05-2.53866E+04-7.99579E+05-1.80876E-10-4.87171E-09
 -1       318-2.09690E+06-2.85547E+05-4.18628E+04-7.90690E+05-2.65754E-09 5.76620E-10
 -1       319-2.14639E+06-3.82828E+05-1.21402E+05-7.79069E+05-1.64391E-09-5.22232E-09
 -1       320-2.05783E+06-2.28869E+05-1.77968E+05-8.05797E+05 3.86717E-09-4.09636E-09
 -1       336 2.93857E+02-3.90924E+05-2.06912E+03 2.08174E+02-3.40663E-09 4.30009E-09
 -1       337-7.41700E+02-3.91525E+05-2.26765E+03-5.87294E+02-6.35441E-09 1.22009E-09
 -1       338 1.94783E+02-3.90986E+05-2.84149E+03 3.78314E+02-4.46835E-09-4.00178E-11
 -1       339-2.93718E+03-3.92865E+05-6.22795E+03-9.25160E+02-8.25366E-09-2.84854E-09
 -1       340 2.00979E+03-3.89594E+05-9.58705E+03 5.44311E+02-5.43582E-09 4.90309E-09
 -1       406 7.67834E+00 1.29822E+05 2.17490E+02 4.16825E-01 2.53678E-10 8.13270E-09
 -1       407 7.50742E+01 1.29863E+05 4.62226E+02-5.65777E+00 6.96332E-12 1.85164E-08
 -1       408 2.37186E+02 1.29789E+05 9.23202E+02 5.28978E+00 3.13889E-10 6.77301E-09
 -1       409 9.97529E+02 1.30158E+05 2.07845E+03-4.74676E+01-1.59162E-12 4.92491E-10
 -1       410 2.86743E+03 1.29527E+05 4.24314E+03 4.30889E+01 3.48791E-10-1.58275E-09
 -1       521-3.88767E+06-4.47697E+05-2.90906E+05-1.51036E+06 3.56886E-09-3.98722E-09
 -1       522-4.02703E+06-6.99865E+05-1.97743E+05-1.47276E+06-1.04956E-09-4.01633E-09
 -1       523-3.95241E+06-5.37709E+05-6.83941E+04-1.48460E+06 3.97449E-10 1.66983E-09
 -1       524-3.94826E+06-5.98667E+05-4.12841E+04-1.50753E+06 4.67821E-10 1.28193E-09
 -1       525-3.96595E+06-5.46694E+05-1.59843E+04-1.47634E+06 1.17905E-09 1.98452E-09
 -1       526-3.93214E+06-5.88665E+05-9.22043E+03-1.51782E+06 1.20930E-09 2.15312E-09
 -1       527-3.96852E+06-5.47333E+05-4.42578E+03-1.47447E+06 1.52630E-09-9.64405E-10
 -1       528-3.93219E+06-5.85200E+05-3.79484E+03-1.51645E+06 2.26407E-10 1.90511E-10
 -1       529-3.96585E+06-5.50148E+05-4.44462E+03-1.47769E+06-1.17848E-09-9.69749E-10
 -1       530-3.94188E+06-5.78425E+05-9.08487E+03-1.50584E+06-1.66244E-09 2.77919E-09
 -1       531-3.95868E+06-5.54248E+05-1.59369E+04-1.48496E+06-1.12760E-09 9.61336E-10
 -1       532-3.96509E+06-5.81216E+05-4.09094E+04-1.48756E+06-5.46436E-10-4.24188E-09
 -1       533-3.94268E+06-5.47712E+05-6.78870E+04-1.49583E+06 1.32786E-09-2.05182E-09
 -1       534-4.04566E+06-6.79779E+05-1.96244E+05-1.45130E+06 1.32513E-09 3.56704E-09
 -1       535-3.87882E+06-4.57724E+05-2.88601E+05-1.52062E+06-5.42786E-09 3.75439E-09
 -1       536-4.54253E+03-1.10551E+04 2.54857E+04 2.64229E+02-7.38964E-10 4.00723E-09
 -1       537 7.10514E+03 1.27926E+04 1.81321E+04-1.00669E+03-3.86558E-09 2.11458E-09
 -1       538-1.91078E+02-1.73247E+03 6.57861E+03 2.41866E+02-3.21577E-10-2.90129E-10
 -1       539 1.98452E+03 2.00076E+03 4.18474E+03-9.80979E+02 2.18147E-09-2.44870E-09
 -1       540 5.73647E+02-2.69668E+02 1.66388E+03 2.38521E+02 3.84574E-10-6.40171E-10
 -1       541 1.05640E+03 3.09049E+02 9.86241E+02-9.76281E+02 7.85612E-11 8.58108E-10
 -1       542 7.34395E+02-4.01683E+01 4.01372E+02 2.37164E+02-2.59824E-10 7.26772E-10
 -1       543 8.46536E+02 3.93426E+01 2.02421E+02-9.74229E+02-3.01062E-10 1.19270E-09
 -1       544 7.81829E+02 1.06485E+00 3.68268E+01 2.36469E+02-4.24063E-10-1.63991E-09
 -1       545 7.69634E+02-4.36024E+01-1.00435E+02-9.73390E+02-5.26841E-10 1.34795E-09
 -1       546 8.10539E+02 4.32742E+01-2.45016E+02 2.36326E+02 3.99054E-10 1.15540E-09
 -1       547 6.38612E+02-3.22073E+02-6.54219E+02-9.73609E+02-1.39341E-09-8.03894E-10
 -1       548 9.13010E+02 2.79224E+02-1.06281E+03 2.36687E+02-1.22179E-09 3.96540E-10
 -1       549-1.21144E+02-2.05910E+03-2.90282E+03-9.74327E+02-7.09589E-10 6.62601E-09
 -1       550 1.57140E+03 1.77816E+03-4.13150E+03 2.37043E+02 1.61933E-11 3.24917E-09
 -1       551 2.97860E+03-2.06460E+05 1.16043E+04-3.54335E+05-1.53541E-08 4.72937E-11
 -1       552 5.83893E+03-2.05795E+05 1.48393E+04-5.04111E+05-1.12595E-08 6.90488E-09
 -1       553 3.57783E+03-2.08514E+05 2.31334E+04-3.53226E+05-1.88520E-08 5.30235E-09
 -1       554 1.69034E+04-1.97805E+05 4.91089E+04-5.04591E+05-1.23146E-08 2.06285E-09
 -1       555 1.78836E+04-2.17987E+05 8.83663E+04-3.53734E+05-1.90630E-08-2.76304E-09
 -1       556 2.80286E+04-6.54591E+04 2.29923E+04-8.83025E+04-3.25963E-09-3.16868E-09
 -1       557 5.46726E+04-8.79819E+04 1.20063E+04-1.10208E+05 5.85715E-10 6.84281E-09
 -1       558 2.85030E+04-6.88454E+04 4.95484E+03-8.53524E+04-2.39379E-09 1.23964E-09
 -1       559 5.17143E+04-9.13348E+04 2.48131E+03-1.11357E+05 2.79215E-09-2.33558E-09
 -1       560 2.81488E+04-6.85913E+04 1.07794E+03-8.55368E+04 3.25963E-09 7.67432E-09
 -1       561 5.10040E+04-9.12473E+04 5.49027E+02-1.11796E+05-7.27596E-10-3.97631E-09
 -1       562 2.78300E+04-6.83621E+04 2.30443E+02-8.57715E+04-5.38421E-10-7.52607E-11
 -1       563 5.06116E+04-9.10819E+04 1.27135E+02-1.12046E+05-6.45741E-11-1.95683E-09
 -1       564 2.76306E+04-6.82289E+04 4.80302E+01-8.59156E+04 1.59707E-09-9.13133E-10
 -1       565 5.04107E+04-9.09980E+04 2.00700E+01-1.12170E+05 1.21918E-09-7.93079E-10
 -1       566 2.75636E+04-6.81815E+04-1.78851E+01-8.59661E+04-3.44698E-10-2.78033E-09
 -1       567 5.03783E+04-9.09816E+04-6.78783E+01-1.12157E+05 4.03872E-09-2.75577E-09
 -1       568 2.76465E+04-6.82378E+04-1.69143E+02-8.59389E+04-5.63887E-11-3.89264E-10
 -1       569 5.01755E+04-9.08696E+04-4.01054E+02-1.11719E+05-1.47293E-09 5.64614E-09
 -1       570 2.81604E+04-6.87575E+04-8.13974E+02-8.60310E+04 9.07676E-10 2.05910E-09
 -1       571 9.41919E+04 3.41564E+03 5.05805E+03-2.36064E+04-9.29958E-11-6.54836E-11
 -1       572 9.49462E+04 1.18829E+03 2.47787E+03-2.58768E+04 2.18051E-10-2.82989E-09
 -1       573 9.44986E+04 2.83345E+02 1.10075E+03-2.35449E+04 1.96223E-10-1.83582E-09
 -1       574 9.45891E+04 9.13943E+01 5.51342E+02-2.59460E+04-8.07177E-12 1.57502E-09
 -1       575 9.45349E+04 1.17180E+01 2.59810E+02-2.35367E+04 5.66160E-11-7.04858E-12
 -1       576 9.45415E+04 2.14155E+00 1.32149E+02-2.59553E+04-2.10107E-10 4.82896E-09
 -1       577 9.45402E+04-2.93102E+00 6.50465E+01-2.35356E+04 1.77067E-10 1.08798E-09
 -1       578 9.45357E+04-1.76595E+00 3.53546E+01-2.59564E+04-3.10536E-10-5.45356E-09
 -1       579 9.45436E+04-2.61582E+00 2.15774E+01-2.35356E+04-7.23048E-11-1.31058E-09
 -1       580 9.45393E+04-2.58131E+00 1.99667E+01-2.59549E+04 9.09495E-11 4.09477E-09
 -1       581 9.45486E+04-3.36955E+00 2.71442E+01-2.35371E+04 1.15506E-10 2.08115E-09
 -1       582 9.45505E+04 1.99837E+00 5.14723E+01-2.59407E+04 4.47471E-10 2.09070E-09
 -1       583 9.45532E+04 1.67263E+01 9.91417E+01-2.35498E+04 2.79670E-10 2.54602E-09
 -1       584 9.45924E+04 9.54394E+01 2.21917E+02-2.58354E+04-1.35606E-09 3.66640E-10
 -1       585 9.45350E+04 2.92673E+02 4.51339E+02-2.36425E+04-3.28782E-10-9.22228E-10
 -1       586-1.18420E+03 3.06277E+04-1.55456E+03-8.05420E+04 2.54204E-10-1.89993E-09
 -1       587-2.71393E+02 3.04222E+04-1.90751E+02-8.86301E+04 4.38831E-10-4.01565E-09
 -1       588 3.05582E+02 3.04612E+04 1.06562E+03-8.04930E+04 2.58751E-10-3.17505E-09
 -1       589 1.58677E+03 3.10409E+04 3.12672E+03-8.85566E+04 3.85626E-10-1.79898E-09
 -1       590 4.58936E+03 3.00584E+04 6.70605E+03-8.06157E+04 2.02817E-10 3.04226E-09
 -1       591-2.04318E+04-5.87253E+03-6.83358E+03-1.06202E+04 2.00546E-09 2.15095E-09
 -1       592-2.10696E+04-7.55308E+03-3.70135E+03-1.24049E+04 1.13505E-09 6.66734E-09
 -1       593-2.11225E+04-5.36912E+03-1.54089E+03-1.11134E+04-2.72621E-10-1.46213E-09
 -1       594-2.01169E+04-6.56001E+03-7.68540E+02-1.24519E+04 7.00538E-10-2.72463E-09
 -1       595-2.11751E+04-5.36700E+03-3.53195E+02-1.11359E+04-2.16914E-10-3.08431E-09
 -1       596-2.00523E+04-6.51457E+03-1.80057E+02-1.24450E+04 5.15058E-10 8.35882E-10
 -1       597-2.11818E+04-5.37142E+03-9.91243E+01-1.11368E+04 9.72769E-10 3.35191E-09
 -1       598-2.00462E+04-6.51282E+03-8.16593E+01-1.24432E+04-4.66059E-10 4.08191E-09
 -1       599-2.11814E+04-5.37135E+03-1.06740E+02-1.11367E+04 5.03121E-10-1.11112E-09
 -1       600-2.00533E+04-6.51507E+03-2.00282E+02-1.24451E+04-9.41299E-10-6.78250E-09
 -1       601-2.11733E+04-5.36637E+03-3.96070E+02-1.11355E+04-2.09184E-11-1.89925E-09
 -1       602-2.01262E+04-6.56599E+03-8.63856E+02-1.24523E+04 2.60343E-11-2.31694E-09
 -1       603-2.11136E+04-5.36943E+03-1.73257E+03-1.11104E+04-1.96678E-11-2.24668E-09
 -1       604-2.12012E+04-7.67874E+03-4.16215E+03-1.23945E+04-2.74326E-10 3.19778E-09
 -1       605-2.03326E+04-5.93876E+03-7.68415E+03-1.05598E+04 2.95586E-11 6.88078E-09
 -1       606 1.34716E+04-4.53069E+03-8.16356E+03 1.31956E+04-1.05047E-09 9.84983E-10
 -1       607 1.20738E+04-1.46126E+03-4.06524E+03 1.48128E+04 9.31777E-10-1.19167E-09
 -1       608 1.28725E+04-2.45389E+02-1.81987E+03 1.30903E+04 2.56659E-09 5.82077E-11
 -1       609 1.27166E+04-6.60109E+01-9.19411E+02 1.49294E+04-1.50703E-09 2.94904E-10
 -1       610 1.28051E+04 9.63506E+00-4.38746E+02 1.30785E+04-3.47700E-09 2.34729E-09
 -1       611 1.27776E+04 1.26065E+01-2.21448E+02 1.49422E+04-4.76143E-09-8.16044E-10
 -1       612 1.27904E+04 1.38220E+01-1.05704E+02 1.30774E+04 7.86258E-09 2.39379E-09
 -1       613 1.27816E+04 1.37713E+01-4.83092E+01 1.49437E+04 1.69055E-08 1.69439E-09
 -1       614 1.27837E+04 1.17230E+01-1.33892E+01 1.30769E+04 9.66747E-09 1.51579E-09
 -1       615 1.27799E+04 1.41504E+01 1.49211E+01 1.49440E+04 2.77396E-09 1.63902E-09
 -1       616 1.27785E+04 1.25877E+01 4.97232E+01 1.30771E+04-1.70598E-09-1.73407E-09
 -1       617 1.27857E+04 2.50650E+01 1.15205E+02 1.49438E+04 8.99945E-10-4.10103E-09
 -1       618 1.27682E+04 4.60417E+01 2.32967E+02 1.30771E+04 9.84983E-10-1.98042E-10
 -1       619 1.28679E+04 2.05484E+02 5.23581E+02 1.49435E+04 2.24026E-09 8.73456E-10
 -1       620 1.26906E+04 5.99115E+02 1.05256E+03 1.30769E+04 1.52880E-09 1.78306E-09
 -1       621 1.64511E+02 1.02541E+05 1.41739E+03 3.23306E+03-2.13966E-10 1.22191E-09
 -1       622 1.88007E+02 1.02892E+05 1.20237E+03 4.71725E+03-1.39238E-10-2.35767E-09
 -1       623 8.39292E+00 1.02642E+05 1.38202E+03 3.21774E+03-1.50834E-10 3.27697E-09
 -1       624 6.25802E+02 1.03294E+05 2.62376E+03 4.73237E+03-1.74879E-10 8.01528E-09
 -1       625 6.27955E+02 1.02137E+05 4.56099E+03 3.21805E+03-8.59472E-11 5.46794E-09
 -1       626 8.46290E+04 2.34860E+04 1.69274E+03 4.57990E+04-7.52607E-10 1.20235E-09
 -1       627 8.34670E+04 2.43412E+04 8.15294E+02 4.76571E+04-8.18318E-10 4.34284E-11
 -1       628 8.46974E+04 2.26833E+04 3.44676E+02 4.60560E+04 1.83718E-09-9.90667E-10
 -1       629 8.32270E+04 2.41476E+04 1.68751E+02 4.77719E+04 2.16460E-09-2.91030E-09
 -1       630 8.47052E+04 2.26434E+04 7.81954E+01 4.60649E+04 1.03119E-08-7.75850E-09
 -1       631 8.32007E+04 2.41420E+04 4.19347E+01 4.77756E+04 2.38588E-08 7.09383E-09
 -1       632 8.47037E+04 2.26449E+04 2.77452E+01 4.60628E+04 6.66614E-09-4.80242E-09
 -1       633 8.31967E+04 2.41436E+04 3.08820E+01 4.77741E+04-1.15756E-09-4.11649E-09
 -1       634 8.47005E+04 2.26444E+04 5.00442E+01 4.60616E+04 3.07591E-09 9.61222E-11
 -1       635 8.31998E+04 2.41440E+04 1.01464E+02 4.77747E+04 2.23861E-09 4.10705E-09
 -1       636 8.46956E+04 2.26438E+04 2.05023E+02 4.60604E+04-9.25411E-11 7.95353E-10
 -1       637 8.32415E+04 2.41767E+04 4.50654E+02 4.77725E+04 1.31377E-09 1.30717E-09
 -1       638 8.46772E+04 2.27446E+04 9.26332E+02 4.60137E+04-4.94538E-10-4.05316E-09
 -1       639 8.37248E+04 2.48549E+04 2.19150E+03 4.76277E+04-1.78898E-09-2.31807E-09
 -1       640 8.46104E+04 2.47631E+04 4.54819E+03 4.51567E+04-1.30080E-09-9.68271E-10
 -1       656 2.29459E+04-5.80840E+05-5.54080E+04-4.99103E+02-1.89175E-10-5.19888E-09
 -1       657-3.03182E+04-6.05873E+05-4.58220E+04 3.81004E+03 1.27784E-10 1.55805E-09
 -1       658 7.27408E+03-5.87986E+05-2.81212E+04-7.81665E+02 6.97128E-10 1.39946E-09
 -1       659-3.25020E+04-6.06899E+05-4.86899E+04 3.99538E+03 6.03450E-10-4.52474E-10
 -1       660 2.51235E+04-5.79816E+05-6.03479E+04-6.84434E+02 2.00089E-10 2.19450E-09
 -1       661 8.26501E+04 8.96648E+03 7.91988E+03 3.22518E+04 1.34378E-09 3.51110E-09
 -1       662 8.67434E+04 1.52097E+04 5.33664E+03 3.09097E+04 1.78647E-09-9.06311E-10
 -1       663 8.41983E+04 1.15142E+04 1.86681E+03 3.18084E+04-5.16366E-10 4.63615E-10
 -1       664 8.49545E+04 1.22247E+04 1.11600E+03 3.14460E+04-1.73287E-10 6.70767E-10
 -1       665 8.44273E+04 1.18678E+04 4.40282E+02 3.17471E+04 9.01395E-10-9.78474E-10
 -1       666 8.46883E+04 1.18154E+04 2.56650E+02 3.15220E+04-3.07897E-09 6.85475E-09
 -1       667 8.44630E+04 1.19128E+04 1.35360E+02 3.17362E+04-8.32244E-10 1.90127E-10
 -1       668 8.46528E+04 1.17764E+04 1.35469E+02 3.15361E+04 1.19176E-09-4.20661E-09
 -1       669 8.44626E+04 1.19058E+04 1.81571E+02 3.17335E+04 7.15431E-10 2.82732E-09
 -1       670 8.47038E+04 1.18671E+04 3.93462E+02 3.15297E+04 3.99861E-09-3.20028E-11
 -1       671 8.44122E+04 1.18240E+04 6.98124E+02 3.17419E+04 4.85752E-10 3.41853E-09
 -1       672 8.51158E+04 1.25411E+04 1.78563E+03 3.14256E+04-1.73528E-09-1.83491E-10
 -1       673 8.40529E+04 1.12488E+04 2.99232E+03 3.18311E+04-2.11355E-09-6.18456E-10
 -1       674 8.79695E+04 1.73438E+04 8.55777E+03 3.05830E+04-7.22025E-10 3.06886E-09
 -1       675 8.15771E+04 7.15569E+03 1.27019E+04 3.25340E+04 1.85423E-09-2.11821E-09
 -1       676 9.35342E+00-1.11598E+05-4.34557E+02 1.11462E+01-8.46711E-10 7.04894E-10
 -1       677-1.15352E+02-1.11703E+05-7.95248E+02-2.22912E+01-3.32970E-09-2.52237E-09
 -1       678 7.70084E+01-1.11523E+05-1.40577E+03 1.11374E+01-5.72186E-10 1.55589E-09
 -1       679-1.40589E+03-1.12551E+05-3.33922E+03-2.22486E+01-9.23819E-10 1.82711E-10
 -1       680 8.38944E+02-1.10749E+05-5.38176E+03 1.09753E+01 8.13998E-11 2.31818E-09
 -1       771-1.20096E+06-2.08275E+05-2.90873E+04-4.96863E+05-4.81668E-09-3.36149E-09
 -1       772-1.19330E+06-2.24803E+05-1.56586E+04-5.15265E+05-3.62706E-09 1.65983E-09
 -1       773-1.20469E+06-2.05395E+05-6.66733E+03-4.98491E+05-2.13186E-09 2.11185E-09
 -1       774-1.18901E+06-2.21227E+05-3.27110E+03-5.16618E+05 3.79441E-09-5.06134E-10
 -1       775-1.20534E+06-2.05025E+05-1.59352E+03-4.98583E+05-1.01863E-09 3.25599E-10
 -1       776-1.18884E+06-2.21170E+05-7.50787E+02-5.17183E+05-4.80213E-10 8.95852E-10
 -1       777-1.20573E+06-2.04764E+05-4.27296E+02-4.98614E+05 1.96451E-10 9.93168E-10
 -1       778-1.18892E+06-2.21240E+05-2.01323E+02-5.17643E+05 1.06775E-09 1.79989E-09
 -1       779-1.20603E+06-2.04540E+05-1.78396E+02-4.98640E+05-1.07684E-09-1.37561E-09
 -1       780-1.18902E+06-2.21306E+05-1.56541E+02-5.18016E+05-1.59616E-09 1.10958E-10
 -1       781-1.20624E+06-2.04357E+05-2.73484E+02-4.98656E+05-4.45289E-09-6.46423E-10
 -1       782-1.18913E+06-2.21383E+05-5.21435E+02-5.18292E+05-5.52154E-09-1.43075E-09
 -1       783-1.20636E+06-2.04241E+05-1.04076E+03-4.98655E+05-1.33059E-09-1.97480E-09
 -1       784-1.18980E+06-2.22080E+05-2.47516E+03-5.18432E+05-3.01998E-09-1.00044E-11
 -1       785-1.20598E+06-2.04510E+05-4.57405E+03-4.98325E+05-5.02223E-09 7.68978E-10
 -1       786 8.71136E+04-4.65890E+03 1.07776E+04 2.10530E+00 4.23880E-08-2.48565E-09
 -1       787 9.17839E+04 5.39351E+03 7.62516E+03-8.71257E+00 8.38850E-08-1.82990E-09
 -1       788 8.89155E+04-7.30330E+02 2.78949E+03 2.59577E+00 1.35419E-07 1.92233E-09
 -1       789 8.96849E+04 8.45032E+02 1.75267E+03-1.02592E+01 1.87156E-07 5.79161E-09
 -1       790 8.92129E+04-1.14089E+02 7.13136E+02 3.65194E+00 2.68608E-07-8.75133E-10
 -1       791 8.93379E+04 1.32555E+02 4.18707E+02-1.30860E+01 3.50379E-07-3.20764E-09
 -1       792 8.92626E+04-1.83869E+01 1.91100E+02 5.42265E+00 5.01585E-07-6.34972E-09
 -1       793 8.92818E+04 2.58276E+01 1.25245E+02-1.76014E+01 6.53972E-07 7.09291E-09
 -1       794 8.92690E+04-7.43024E+00 9.28065E+01 8.16744E+00 9.59185E-07-9.58618E-09
 -1       795 8.92873E+04 3.83506E+01 1.34289E+02-2.44589E+01 1.26288E-06 3.22229E-09
 -1       796 8.92571E+04-3.09012E+01 2.01191E+02 1.22802E+01 6.31497E-07-3.39323E-09
 -1       797 8.93785E+04 2.26517E+02 4.74396E+02-3.46432E+01 1.95336E-09 1.44041E-09
 -1       798 8.91777E+04-1.95458E+02 7.48867E+02 1.83520E+01-1.90732E-10-1.25183E-09
 -1       799 8.99401E+04 1.44315E+03 2.04149E+03-4.97173E+01-4.09427E-10-2.36923E-10
 -1       800 8.86955E+04-1.24655E+03 2.88394E+03 2.73544E+01 1.15423E-11 3.88582E-10
 -1       801-4.62177E+03 9.43590E+03 8.37373E+03 9.21266E+03 5.10704E-09 1.38016E-09
 -1       802 1.28799E+04 4.04867E+04 2.46985E+04-3.79332E+04 1.36554E-08-2.22474E-09
 -1       803-8.00553E+03 1.93811E+04 3.26054E+04 8.87161E+03 1.07757E-08 7.94951E-09
 -1       804 6.29243E+04 6.63482E+04 9.01862E+04-3.82594E+04 1.27675E-08 1.01607E-08
 -1       805-5.46701E+04-1.63347E+04 1.19479E+05 9.53837E+03 4.52565E-09 1.29176E-08
 -1       806-1.02715E+05-2.19907E+04-8.72066E+03-4.27579E+04-1.26420E-10-4.52656E-09
 -1       807-1.03230E+05-2.07406E+04-4.28423E+03-4.50689E+04 1.17416E-09-1.85406E-09
 -1       808-1.02963E+05-1.88401E+04-1.81744E+03-4.42375E+04 3.50906E-09-3.25414E-10
 -1       809-1.02316E+05-1.95509E+04-8.88517E+02-4.51926E+04 4.04367E-09-4.63876E-09
 -1       810-1.03002E+05-1.87287E+04-4.06830E+02-4.43030E+04 2.82921E-09-2.42130E-09
 -1       811-1.02246E+05-1.95038E+04-2.01774E+02-4.51826E+04-2.54090E-11-2.03499E-09
 -1       812-1.03009E+05-1.87366E+04-1.00639E+02-4.43031E+04 3.96767E-10-1.04319E-09
 -1       813-1.02237E+05-1.95048E+04-6.35065E+01-4.51778E+04 1.46429E-09 9.56925E-09
 -1       814-1.03009E+05-1.87392E+04-5.94637E+01-4.43021E+04-5.28189E-10-1.33412E-09
 -1       815-1.02239E+05-1.95056E+04-9.32003E+01-4.51772E+04 6.52562E-10 4.00405E-10
 -1       816-1.03004E+05-1.87378E+04-1.74525E+02-4.43014E+04-1.18212E-09-8.50378E-11
 -1       817-1.02270E+05-1.95221E+04-3.74468E+02-4.51751E+04-3.38082E-09-4.83931E-09
 -1       818-1.02983E+05-1.87897E+04-7.63019E+02-4.42771E+04-1.06411E-10 1.86628E-09
 -1       819-1.02693E+05-1.99800E+04-1.79625E+03-4.50742E+04-8.62428E-10-8.74365E-10
 -1       820-1.02838E+05-2.01475E+04-3.65543E+03-4.36987E+04-2.99951E-09-7.40630E-09
 -1       821-1.32652E+05 7.36523E+03-1.70358E+04-7.10680E-01-4.95163E-10 1.68438E-09
 -1       822-1.40034E+05-8.52650E+03-1.20545E+04-9.44169E+01-1.38418E-09 1.57024E-09
 -1       823-1.35501E+05 1.15461E+03-4.41233E+03-2.45660E+01 1.04315E-09-4.23142E-10
 -1       824-1.36715E+05-1.33641E+03-2.77682E+03-4.33171E+01-5.24434E-10-5.99357E-10
 -1       825-1.35971E+05 1.80800E+02-1.14061E+03-5.18122E+01-1.29878E-09-9.20465E-10
 -1       826-1.36169E+05-2.13237E+02-6.90107E+02 8.76525E+00-2.49804E-09-4.19220E-09
 -1       827-1.36047E+05 3.22611E+01-3.55874E+02-7.66495E+01-2.89378E-09-2.28310E-09
 -1       828-1.36094E+05-6.51965E+01-3.16120E+02 5.08697E+01 2.96746E-08 4.96800E-09
 -1       829-1.36046E+05 3.28738E+01-3.61252E+02-9.39174E+01 9.46819E-06-7.86598E-09
 -1       830-1.36174E+05-2.18452E+02-7.06180E+02 7.42567E+01 1.88455E-05-7.39542E-09
 -1       831-1.35967E+05 1.85423E+02-1.16888E+03-1.00037E+02-1.20775E-06-2.63617E-09
 -1       832-1.36734E+05-1.37073E+03-2.84819E+03 7.42437E+01-2.12543E-05 6.36186E-09
 -1       833-1.35486E+05 1.18432E+03-4.52559E+03-9.39041E+01-1.06754E-05 1.32691E-08
 -1       834-1.40137E+05-8.74597E+03-1.23650E+04 5.16908E+01-3.49873E-08 4.62524E-09
 -1       835-1.32565E+05 7.55484E+03-1.74744E+04-7.74814E+01 1.88348E-09 2.88401E-09
 -1       836-4.42692E+02 1.25827E+05 7.57448E+03-1.10255E+04 1.01772E-09-1.42040E-09
 -1       837 1.66154E+03 1.28175E+05 6.46372E+03-2.21647E+04 1.31922E-09-8.87985E-09
 -1       838-1.65885E+02 1.26483E+05 6.66282E+03-1.09865E+04 1.22509E-09-6.27801E-09
 -1       839 4.26901E+03 1.30125E+05 1.26803E+04-2.21795E+04 1.63072E-09-9.11257E-10
 -1       840-1.28902E+03 1.23868E+05 2.02514E+04-1.10102E+04 1.08048E-09-3.04021E-09
 -1       856-4.17771E+04 3.56271E+03-9.38744E+03-1.96639E+02-1.87038E-09-1.78534E-09
 -1       857-4.56560E+04-4.17946E+03-6.46345E+03 2.15941E+03-5.44645E-10-2.28624E-10
 -1       858-4.33096E+04 4.99424E+02-2.43626E+03-2.02432E+02-1.72727E-09 3.89514E-09
 -1       859-4.38950E+04-5.82041E+02-1.47166E+03 2.16839E+03-6.77574E-11 4.29594E-09
 -1       860-4.35390E+04 6.96236E+01-6.18780E+02-2.05661E+02 3.98842E-10-2.54423E-09
 -1       861-4.36303E+04-7.85729E+01-3.44831E+02 2.17273E+03-2.56333E-09-3.66435E-09
 -1       862-4.35747E+04 9.38528E+00-1.52143E+02-2.06780E+02 3.21894E-09-2.23451E-09
 -1       863-4.35881E+04-7.60693E+00-7.53991E+01 2.17324E+03 6.63245E-09-2.84803E-09
 -1       864-4.35812E+04 1.78977E-01-2.39733E+01-2.06168E+02 2.43227E-09-1.66419E-09
 -1       865-4.35765E+04 8.63793E+00 1.31868E+01 2.17002E+03 2.03394E-09-4.03296E-09
 -1       866-4.35859E+04-6.85370E+00 4.99260E+01-2.03565E+02 9.37632E-10-1.05535E-09
 -1       867-4.35483E+04 5.81448E+01 1.37230E+02 2.16300E+03 9.47111E-10-3.15527E-09
 -1       868-4.36087E+04-4.86095E+01 2.32238E+02-1.99149E+02 7.94699E-10-2.98805E-09
 -1       869-4.33758E+04 4.04833E+02 6.22642E+02 2.15068E+03 4.56026E-11-1.03455E-09
 -1       870-4.37572E+04-3.44364E+02 9.04087E+02-1.91238E+02 7.21400E-10 2.04329E-09
 -1       871-1.92255E+03-4.01662E+03-6.30045E+03 4.13191E+04 1.49657E-09-1.72895E-09
 -1       872-8.29578E+02-5.42253E+03-2.56575E+03 5.35659E+04 2.27806E-09 4.24370E-09
 -1       873-9.84238E+00-4.75398E+03 3.76712E+02 4.12270E+04 9.62018E-10-3.30431E-10
 -1       874 9.85143E+02-3.83686E+03 3.59806E+03 5.35855E+04 3.15151E-09 8.68567E-10
 -1       875 2.32175E+03-5.61513E+03 7.97503E+03 4.13017E+04 1.51294E-09 2.70575E-11
 -1       876 1.03546E+05 1.78276E+04 5.55281E+03 4.19893E+04-2.85237E-09-4.51564E-10
 -1       877 1.03862E+05 1.90473E+04 2.96522E+03 4.36340E+04-3.71438E-09 1.57911E-09
 -1       878 1.04066E+05 1.72120E+04 1.24237E+03 4.24450E+04 4.45766E-10-4.15298E-10
 -1       879 1.03107E+05 1.82954E+04 6.18804E+02 4.36749E+04 1.15165E-09-8.68994E-10
 -1       880 1.04105E+05 1.72045E+04 2.88129E+02 4.24636E+04 1.41927E-09-2.20666E-10
 -1       881 1.03057E+05 1.82636E+04 1.53389E+02 4.36681E+04 3.38736E-09 2.30687E-09
 -1       882 1.04109E+05 1.72085E+04 9.74019E+01 4.24641E+04 3.48939E-09 2.08208E-09
 -1       883 1.03053E+05 1.82623E+04 1.03483E+02 4.36665E+04 2.34422E-10 3.21943E-09
 -1       884 1.04108E+05 1.72072E+04 1.63548E+02 4.24642E+04-6.13852E-10 6.00778E-10
 -1       885 1.03066E+05 1.82646E+04 3.28162E+02 4.36708E+04 3.15494E-09 2.83751E-09
 -1       886 1.04095E+05 1.71976E+04 6.61126E+02 4.24629E+04 1.74706E-09-2.48764E-09
 -1       887 1.03183E+05 1.83407E+04 1.44409E+03 4.36872E+04-2.34695E-09-3.66936E-09
 -1       888 1.04003E+05 1.72140E+04 2.90996E+03 4.24167E+04-2.15294E-10 1.74032E-09
 -1       889 1.04917E+05 2.01411E+04 6.95202E+03 4.36315E+04 8.63793E-10-1.04774E-09
 -1       890 1.02816E+05 1.86232E+04 1.30202E+04 4.13077E+04 1.72554E-09-1.34969E-09
 -1       891-6.07220E+01-5.89033E+04-6.92535E+02 1.12055E+04 7.68523E-11 3.32534E-10
 -1       892-1.06025E+02-5.90724E+04-7.54766E+02 1.69622E+04 4.97948E-11-2.17142E-11
 -1       893-1.27647E+01-5.89274E+04-1.07942E+03 1.12074E+04 1.22202E-09 6.32008E-09
 -1       894-5.81506E+02-5.94936E+04-2.24275E+03 1.69026E+04 7.19638E-10 1.08777E-08
 -1       895-4.51999E+02-5.84660E+04-3.95130E+03 1.12646E+04-1.20423E-10 2.61934E-09
 -1       956-1.30022E+05-1.87586E+03-4.72171E+03 8.59155E+03-5.95628E-09 1.56552E-09
 -1       957-1.30954E+05-6.34305E+02-2.42415E+03 1.03399E+04-8.53652E-09-3.80010E-09
 -1       958-1.30438E+05-5.18669E+01-1.09196E+03 8.53604E+03-2.73121E-09-4.29281E-10
 -1       959-1.30511E+05-1.19047E+01-5.57858E+02 1.04000E+04-1.22964E-09 1.83263E-10
 -1       960-1.30473E+05 1.27553E+01-2.71816E+02 8.53105E+03 1.36697E-09-4.26212E-10
 -1       961-1.30477E+05 1.02523E+01-1.44180E+02 1.04055E+04 5.83793E-09 9.28139E-10
 -1       962-1.30479E+05 9.81112E+00-8.22856E+01 8.53047E+03 2.44643E-09 1.20156E-09
 -1       963-1.30474E+05 1.00457E+01-6.57063E+01 1.04063E+04-2.23986E-09 3.08444E-09
 -1       964-1.30480E+05 1.02343E+01-7.92400E+01 8.53026E+03-4.82260E-10-6.90591E-10
 -1       965-1.30478E+05 1.12460E+01-1.36492E+02 1.04062E+04 1.61901E-09-7.64715E-10
 -1       966-1.30476E+05 1.39761E+01-2.55889E+02 8.53051E+03-1.22520E-09-1.33184E-09
 -1       967-1.30513E+05-8.55035E+00-5.24663E+02 1.04031E+04-7.00879E-10-1.15870E-09
 -1       968-1.30445E+05-4.58024E+01-1.02653E+03 8.53339E+03 4.40082E-10-1.15551E-09
 -1       969-1.30931E+05-5.92817E+02-2.27916E+03 1.03681E+04 5.47971E-10-7.39732E-10
 -1       970-1.30055E+05-1.76007E+03-4.43906E+03 8.56626E+03 5.68775E-10 2.73303E-10
 -1       971-1.23606E+05-6.54558E+02-3.63952E+03 6.10458E+03-1.39244E-09 1.08757E-09
 -1       972-1.24491E+05-4.71659E+02-1.98242E+03 8.51315E+03-7.95580E-10 4.43606E-10
 -1       973-1.24008E+05-5.80935E+00-8.87301E+02 6.05516E+03-1.57934E-09-1.53909E-09
 -1       974-1.24068E+05-8.42394E+00-4.59822E+02 8.56601E+03 6.08907E-10-1.89266E-09
 -1       975-1.24037E+05 9.57769E+00-2.29100E+02 6.05139E+03 1.06479E-09 7.97513E-10
 -1       976-1.24040E+05 9.15503E+00-1.31259E+02 8.57029E+03-1.32763E-09 4.69913E-09
 -1       977-1.24042E+05 8.38604E+00-9.33562E+01 6.05086E+03 9.89303E-10 4.98642E-09
 -1       978-1.24040E+05 1.04099E+01-1.06797E+02 8.57101E+03 4.75094E-09-1.49288E-09
 -1       979-1.24041E+05 1.07545E+01-1.69351E+02 6.05066E+03 3.25693E-09-4.34341E-10
 -1       980-1.24052E+05 1.12236E+01-3.25594E+02 8.57106E+03 2.62111E-09 1.52426E-09
 -1       981-1.24031E+05 1.89325E+01-6.29764E+02 6.05081E+03 4.84249E-10 6.40568E-10
 -1       982-1.24139E+05-3.48468E+01-1.30123E+03 8.56886E+03-1.94728E-09-7.83171E-10
 -1       983-1.23952E+05-2.06710E+01-2.52787E+03 6.05291E+03-5.79348E-10-8.42306E-10
 -1       984-1.25357E+05-1.35379E+03-5.66063E+03 8.53533E+03-1.09458E-09 2.14732E-09
 -1       985-1.22809E+05-1.86963E+03-1.03947E+04 6.08573E+03 5.67525E-10-5.23414E-10
 -3
    1PSTEP                         3           2           1          
  100CL  102 3.12500E-01         409                     0    2           1
 -4  DISP        4    1
 -5  D1          1    2    1    0
 -5  D2          1    2    2    0
 -5  D3          1    2    3    0
 -5  ALL         1    2    0    0    1ALL
 -1         1 8.16622E-05 0.00000E+00 0.00000E+00
 -1         2 7.53880E-05 1.22844E-29-1.65436E-24
 -1         3 6.96205E-05-1.39704E-27 6.61744E-24
 -1         5 5.01401E-05 2.81316E-26-3.30872E-24
 -1         8 6.51890E-05-5.91709E-07 0.00000E+00
 -1         9 6.62404E-05 3.93735E-07 0.00000E+00
 -1        10 6.45258E-05-9.52194E-07 0.00000E+00
 -1        12 4.97850E-05 3.40515E-07-3.30872E-24
 -1        15 4.55889E-05-6.38803E-07 0.00000E+00
 -1        16 4.71603E-05 3.12483E-07 0.00000E+00
 -1        17 4.81100E-05-1.99896E-06 0.00000E+00
 -1        18 4.80615E-05 1.33965E-07 0.00000E+00
 -1        19 4.87201E-05 6.79170E-07 0.00000E+00
 -1        20 4.88096E-05 1.00922E-05 0.00000E+00
 -1        21 4.84727E-05 1.90838E-05 0.00000E+00
 -1        24 1.22977E-05-2.67557E-06 0.00000E+00
 -1        25 4.69295E-05 2.11961E-07 0.00000E+00
 -1        26 4.75505E-05 9.46331E-07 0.00000E+00
 -1        27 4.66090E-05 8.57827E-06 0.00000E+00
 -1        28 4.63044E-05 1.87928E-05 0.00000E+00
 -1        32 0.00000E+00 0.00000E+00 0.00000E+00
 -1        33 4.55676E-05 1.26913E-06 0.00000E+00
 -1        34 4.46573E-05 8.56482E-06 0.00000E+00
 -1        35 4.37923E-05 1.86392E-05 0.00000E+00
 -1        51 8.05906E-05-9.81387E-08 0.00000E+00
 -1        52 7.86044E-05-1.93473E-07 0.00000E+00
 -1        53 7.58839E-05-2.89333E-07 0.00000E+00
 -1        54 7.26161E-05-3.86634E-07 0.00000E+00
 -1        55 6.89885E-05-4.85987E-07 1.86116E-24
 -1        56 8.09135E-05-4.65320E-07-1.32349E-23
 -1        57 8.02466E-05-1.23340E-06-1.32349E-23
 -1        58 7.96622E-05-2.21716E-06-2.64698E-23
 -1        59 7.91238E-05-3.33846E-06 0.00000E+00
 -1        60 7.86039E-05-4.50957E-06-2.64698E-23
 -1        61 7.80693E-05-5.64380E-06 0.00000E+00
 -1        62 7.74887E-05-6.65553E-06-2.64698E-23
 -1        63 7.68310E-05-7.46185E-06 0.00000E+00
 -1        64 7.60684E-05-7.98801E-06 2.64698E-23
 -1        65 7.51749E-05-8.16472E-06 0.00000E+00
 -1        66 7.41296E-05-7.93679E-06 0.00000E+00
 -1        67 7.29152E-05-7.25674E-06 0.00000E+00
 -1        68 7.15200E-05-6.09564E-06 0.00000E+00
 -1        69 6.99404E-05-4.43227E-06 1.32349E-23
 -1        70 6.81704E-05-2.26906E-06 1.32349E-23
 -1        86 7.51472E-05 7.03919E-08 0.00000E+00
 -1        87 7.44240E-05 1.40193E-07-8.27181E-25
 -1        88 7.31999E-05 2.09471E-07 0.00000E+00
 -1        89 7.14545E-05 2.75702E-07 0.00000E+00
 -1        90 6.91484E-05 3.41615E-07 0.00000E+00
 -1       121 6.94786E-05-1.58185E-07 0.00000E+00
 -1       122 6.90528E-05-3.16451E-07-1.65436E-24
 -1       123 6.83438E-05-4.74878E-07-3.30872E-24
 -1       124 6.73521E-05-6.33572E-07 3.30872E-24
 -1       125 6.60790E-05-7.92565E-07 3.30872E-24
 -1       191 5.01302E-05 5.67567E-08 0.00000E+00
 -1       192 5.01006E-05 1.13512E-07 0.00000E+00
 -1       193 5.00513E-05 1.70267E-07 0.00000E+00
 -1       194 4.99823E-05 2.27020E-07 0.00000E+00
 -1       195 4.98935E-05 2.83770E-07 0.00000E+00
 -1       251 6.52405E-05 2.11578E-06-3.30872E-24
 -1       252 6.53063E-05 3.72321E-06 5.16988E-26
 -1       253 6.53724E-05 4.41700E-06 8.27181E-25
 -1       254 6.54410E-05 4.38082E-06 8.27181E-25
 -1       255 6.55095E-05 3.77187E-06 0.00000E+00
 -1       256 6.55782E-05 2.74570E-06 0.00000E+00
 -1       257 6.56466E-05 1.44263E-06 0.00000E+00
 -1       258 6.57148E-05 2.20985E-09 8.27181E-25
 -1       259 6.57831E-05-1.44109E-06 0.00000E+00
 -1       260 6.58515E-05-2.75277E-06 0.00000E+00
 -1       261 6.59201E-05-3.79349E-06-1.65436E-24
 -1       262 6.59886E-05-4.42322E-06 0.00000E+00
 -1       263 6.60572E-05-4.48684E-06 0.00000E+00
 -1       264 6.61232E-05-3.82762E-06 0.00000E+00
 -1       265 6.61891E-05-2.26264E-06-3.30872E-24
 -1       266 6.19223E-05-6.07727E-07 3.30872E-24
 -1       267 5.86556E-05-6.14578E-07 0.00000E+00
 -1       268 5.53889E-05-6.22017E-07-8.27181E-25
 -1       269 5.21222E-05-6.27729E-07 0.00000E+00
 -1       270 4.88556E-05-6.33403E-07-2.06795E-25
 -1       271 6.32039E-05 1.83990E-06 0.00000E+00
 -1       272 6.15201E-05 3.37848E-06 0.00000E+00
 -1       273 6.01313E-05 4.13737E-06 0.00000E+00
 -1       274 5.89891E-05 4.22554E-06 0.00000E+00
 -1       275 5.80525E-05 3.76445E-06-2.64698E-23
 -1       276 5.72734E-05 2.88049E-06 0.00000E+00
 -1       277 5.66029E-05 1.70600E-06 0.00000E+00
 -1       278 5.59901E-05 3.76659E-07 0.00000E+00
 -1       279 5.53838E-05-9.69829E-07 0.00000E+00
 -1       280 5.47323E-05-2.19549E-06 0.00000E+00
 -1       281 5.39847E-05-3.16405E-06 2.64698E-23
 -1       282 5.30916E-05-3.74226E-06-1.32349E-23
 -1       283 5.20043E-05-3.80215E-06-2.64698E-23
 -1       284 5.06800E-05-3.22095E-06 1.32349E-23
 -1       285 4.90712E-05-1.88672E-06 0.00000E+00
 -1       301 6.30082E-05 3.76283E-07 3.30872E-24
 -1       302 5.97772E-05 3.68577E-07 1.65436E-24
 -1       303 5.65623E-05 3.61162E-07 0.00000E+00
 -1       304 5.33780E-05 3.52678E-07 0.00000E+00
 -1       305 5.02392E-05 3.42687E-07 0.00000E+00
 -1       306 6.41938E-05 2.76908E-06-2.64698E-23
 -1       307 6.24608E-05 4.21220E-06 1.32349E-23
 -1       308 6.10712E-05 4.74952E-06-2.64698E-23
 -1       309 6.00005E-05 4.41957E-06-1.32349E-23
 -1       310 5.92064E-05 3.35147E-06 2.64698E-23
 -1       311 5.86310E-05 1.69497E-06 0.00000E+00
 -1       312 5.81973E-05-3.41162E-07 0.00000E+00
 -1       313 5.78228E-05-2.53671E-06 1.32349E-23
 -1       314 5.74197E-05-4.65527E-06 2.64698E-23
 -1       315 5.69007E-05-6.46282E-06 1.32349E-23
 -1       316 5.61898E-05-7.75681E-06-2.64698E-23
 -1       317 5.52181E-05-8.35023E-06-1.32349E-23
 -1       318 5.39397E-05-8.12614E-06 0.00000E+00
 -1       319 5.23260E-05-6.99030E-06-1.32349E-23
 -1       320 5.03663E-05-4.94409E-06 1.32349E-23
 -1       336 6.26571E-05-1.12484E-06-3.30872E-24
 -1       337 6.04372E-05-1.29841E-06 0.00000E+00
 -1       338 5.78687E-05-1.47273E-06 0.00000E+00
 -1       339 5.49554E-05-1.64772E-06 1.65436E-24
 -1       340 5.17009E-05-1.82375E-06 3.30872E-24
 -1       406 4.96568E-05 3.97250E-07 0.00000E+00
 -1       407 4.95088E-05 4.53965E-07 0.00000E+00
 -1       408 4.93411E-05 5.10641E-07 3.30872E-24
 -1       409 4.91537E-05 5.67210E-07 1.65436E-24
 -1       410 4.89467E-05 6.23561E-07 0.00000E+00
 -1       521 4.43441E-05 2.00752E-06 0.00000E+00
 -1       522 4.19359E-05 2.43125E-06-2.64698E-23
 -1       523 3.99839E-05 1.65215E-06 0.00000E+00
 -1       524 3.84309E-05-2.25821E-07 0.00000E+00
 -1       525 3.71869E-05-2.93238E-06 5.29396E-23
 -1       526 3.61335E-05-6.15665E-06-2.64698E-23
 -1       527 3.51288E-05-9.51207E-06 0.00000E+00
 -1       528 3.40263E-05-1.26057E-05-2.64698E-23
 -1       529 3.26936E-05-1.50821E-05 0.00000E+00
 -1       530 3.10104E-05-1.66194E-05-2.64698E-23
 -1       531 2.89054E-05-1.70310E-05 0.00000E+00
 -1       532 2.63320E-05-1.61907E-05-2.64698E-23
 -1       533 2.33071E-05-1.41532E-05 0.00000E+00
 -1       534 1.98848E-05-1.10336E-05 2.64698E-23
 -1       535 1.61532E-05-7.11044E-06-5.29396E-23
 -1       536 4.80969E-05 1.34801E-06 0.00000E+00
 -1       537 4.80912E-05 3.87706E-06 0.00000E+00
 -1       538 4.80867E-05 5.66879E-06 4.13590E-25
 -1       539 4.80840E-05 6.80388E-06 1.03398E-25
 -1       540 4.80819E-05 7.36564E-06 0.00000E+00
 -1       541 4.80801E-05 7.43743E-06 0.00000E+00
 -1       542 4.80783E-05 7.10448E-06 0.00000E+00
 -1       543 4.80763E-05 6.45204E-06 2.58494E-26
 -1       544 4.80742E-05 5.56659E-06 0.00000E+00
 -1       545 4.80720E-05 4.53460E-06 2.58494E-26
 -1       546 4.80698E-05 3.44308E-06-2.58494E-26
 -1       547 4.80676E-05 2.37911E-06 0.00000E+00
 -1       548 4.80655E-05 1.42957E-06 2.58494E-26
 -1       549 4.80638E-05 6.81414E-07-5.16988E-26
 -1       550 4.80621E-05 2.20829E-07 0.00000E+00
 -1       551 4.33597E-05-2.10234E-06 3.30872E-24
 -1       552 3.76778E-05-2.20868E-06-8.27181E-25
 -1       553 3.13951E-05-2.31855E-06 1.65436E-24
 -1       554 2.48474E-05-2.43164E-06 0.00000E+00
 -1       555 1.83706E-05-2.54611E-06 1.32349E-23
 -1       556 4.68656E-05 1.22929E-06 0.00000E+00
 -1       557 4.59149E-05 3.69578E-06-6.61744E-24
 -1       558 4.52259E-05 5.47085E-06 0.00000E+00
 -1       559 4.47694E-05 6.63034E-06 0.00000E+00
 -1       560 4.45162E-05 7.24991E-06 0.00000E+00
 -1       561 4.44373E-05 7.40562E-06 0.00000E+00
 -1       562 4.45039E-05 7.17359E-06 0.00000E+00
 -1       563 4.46873E-05 6.62999E-06 0.00000E+00
 -1       564 4.49589E-05 5.85105E-06 0.00000E+00
 -1       565 4.52899E-05 4.91301E-06 0.00000E+00
 -1       566 4.56520E-05 3.89212E-06 0.00000E+00
 -1       567 4.60166E-05 2.86467E-06 0.00000E+00
 -1       568 4.63550E-05 1.90691E-06 0.00000E+00
 -1       569 4.66389E-05 1.09502E-06 0.00000E+00
 -1       570 4.68397E-05 5.05201E-07 0.00000E+00
 -1       571 4.81015E-05 1.94242E-07 0.00000E+00
 -1       572 4.81423E-05 2.27319E-07 1.03398E-25
 -1       573 4.81834E-05 2.38036E-07-1.24077E-24
 -1       574 4.82247E-05 2.31489E-07 0.00000E+00
 -1       575 4.82659E-05 2.12796E-07 8.27181E-25
 -1       576 4.83072E-05 1.87109E-07 4.13590E-25
 -1       577 4.83485E-05 1.59584E-07-1.65436E-24
 -1       578 4.83898E-05 1.35380E-07 0.00000E+00
 -1       579 4.84312E-05 1.19659E-07 0.00000E+00
 -1       580 4.84725E-05 1.17579E-07 8.27181E-25
 -1       581 4.85138E-05 1.34301E-07-1.65436E-24
 -1       582 4.85551E-05 1.74978E-07 0.00000E+00
 -1       583 4.85964E-05 2.44758E-07 0.00000E+00
 -1       584 4.86377E-05 3.48739E-07 0.00000E+00
 -1       585 4.86789E-05 4.91985E-07 3.30872E-24
 -1       586 4.78587E-05 1.47778E-07 0.00000E+00
 -1       587 4.76386E-05 1.61241E-07-1.03398E-25
 -1       588 4.74181E-05 1.74555E-07 4.13590E-25
 -1       589 4.72150E-05 1.87657E-07 0.00000E+00
 -1       590 4.70465E-05 2.00401E-07 0.00000E+00
 -1       591 4.80198E-05 2.15167E-07-5.16988E-26
 -1       592 4.79849E-05 2.73843E-07 0.00000E+00
 -1       593 4.79567E-05 3.14278E-07 0.00000E+00
 -1       594 4.79338E-05 3.40332E-07 0.00000E+00
 -1       595 4.79147E-05 3.55916E-07 4.13590E-25
 -1       596 4.78981E-05 3.64912E-07-2.06795E-25
 -1       597 4.78825E-05 3.71200E-07 0.00000E+00
 -1       598 4.78664E-05 3.78658E-07 2.06795E-25
 -1       599 4.78484E-05 3.91161E-07-2.06795E-25
 -1       600 4.78271E-05 4.12588E-07-2.06795E-25
 -1       601 4.78011E-05 4.46815E-07 4.13590E-25
 -1       602 4.77687E-05 4.97722E-07-1.55096E-25
 -1       603 4.77288E-05 5.69191E-07-1.03398E-25
 -1       604 4.76798E-05 6.65134E-07 5.16988E-26
 -1       605 4.76204E-05 7.89411E-07 0.00000E+00
 -1       606 4.87278E-05 9.60310E-07 0.00000E+00
 -1       607 4.87340E-05 1.30044E-06 0.00000E+00
 -1       608 4.87398E-05 1.69610E-06 0.00000E+00
 -1       609 4.87454E-05 2.14339E-06 0.00000E+00
 -1       610 4.87509E-05 2.63837E-06 0.00000E+00
 -1       611 4.87564E-05 3.17708E-06 0.00000E+00
 -1       612 4.87618E-05 3.75553E-06-1.65436E-24
 -1       613 4.87672E-05 4.36974E-06 0.00000E+00
 -1       614 4.87726E-05 5.01572E-06 0.00000E+00
 -1       615 4.87780E-05 5.68947E-06 0.00000E+00
 -1       616 4.87833E-05 6.38703E-06 0.00000E+00
 -1       617 4.87887E-05 7.10440E-06 0.00000E+00
 -1       618 4.87940E-05 7.83759E-06 0.00000E+00
 -1       619 4.87993E-05 8.58262E-06 0.00000E+00
 -1       620 4.88045E-05 9.33550E-06 0.00000E+00
 -1       621 4.84968E-05 7.23728E-07 0.00000E+00
 -1       622 4.82893E-05 7.68502E-07 8.27181E-25
 -1       623 4.80943E-05 8.13270E-07 0.00000E+00
 -1       624 4.79085E-05 8.57968E-07 4.13590E-25
 -1       625 4.77283E-05 9.02588E-07-8.27181E-25
 -1       626 4.86624E-05 9.74321E-07 3.30872E-24
 -1       627 4.85866E-05 1.31833E-06 0.00000E+00
 -1       628 4.84944E-05 1.70666E-06 3.30872E-24
 -1       629 4.83873E-05 2.13449E-06-3.30872E-24
 -1       630 4.82673E-05 2.59698E-06 3.30872E-24
 -1       631 4.81360E-05 3.08926E-06 0.00000E+00
 -1       632 4.79954E-05 3.60644E-06 1.65436E-24
 -1       633 4.78473E-05 4.14368E-06 0.00000E+00
 -1       634 4.76935E-05 4.69608E-06 1.65436E-24
 -1       635 4.75358E-05 5.25878E-06-8.27181E-25
 -1       636 4.73761E-05 5.82691E-06-1.65436E-24
 -1       637 4.72162E-05 6.39559E-06 8.27181E-25
 -1       638 4.70578E-05 6.95995E-06 0.00000E+00
 -1       639 4.69028E-05 7.51511E-06 4.13590E-25
 -1       640 4.67528E-05 8.05620E-06-8.27181E-25
 -1       656 4.81809E-05 9.84594E-06 0.00000E+00
 -1       657 4.77742E-05 9.58976E-06 0.00000E+00
 -1       658 4.75035E-05 9.33438E-06 0.00000E+00
 -1       659 4.72814E-05 9.07921E-06-3.30872E-24
 -1       660 4.70143E-05 8.82323E-06 0.00000E+00
 -1       661 4.85769E-05 1.08338E-05 0.00000E+00
 -1       662 4.83581E-05 1.15439E-05 0.00000E+00
 -1       663 4.81508E-05 1.22232E-05 0.00000E+00
 -1       664 4.79548E-05 1.28731E-05-8.27181E-25
 -1       665 4.77694E-05 1.34947E-05-1.65436E-24
 -1       666 4.75942E-05 1.40894E-05 0.00000E+00
 -1       667 4.74287E-05 1.46583E-05-1.65436E-24
 -1       668 4.72725E-05 1.52025E-05 8.27181E-25
 -1       669 4.71251E-05 1.57232E-05 1.65436E-24
 -1       670 4.69862E-05 1.62213E-05-8.27181E-25
 -1       671 4.68553E-05 1.66981E-05-1.65436E-24
 -1       672 4.67320E-05 1.71543E-05 0.00000E+00
 -1       673 4.66160E-05 1.75911E-05 0.00000E+00
 -1       674 4.65064E-05 1.80093E-05 0.00000E+00
 -1       675 4.64036E-05 1.84099E-05 0.00000E+00
 -1       676 4.81108E-05 1.90350E-05 0.00000E+00
 -1       677 4.77489E-05 1.89862E-05 0.00000E+00
 -1       678 4.73872E-05 1.89375E-05 0.00000E+00
 -1       679 4.70258E-05 1.88889E-05-8.27181E-25
 -1       680 4.66649E-05 1.88403E-05-8.27181E-25
 -1       771 9.85629E-06 1.94460E-06 0.00000E+00
 -1       772 7.72888E-06 5.72045E-06 0.00000E+00
 -1       773 5.90213E-06 8.70162E-06 0.00000E+00
 -1       774 4.35552E-06 1.09402E-05 0.00000E+00
 -1       775 3.06902E-06 1.24891E-05 0.00000E+00
 -1       776 2.02184E-06 1.34023E-05-1.32349E-23
 -1       777 1.19303E-06 1.37347E-05-2.64698E-23
 -1       778 5.61290E-07 1.35420E-05 0.00000E+00
 -1       779 1.05226E-07 1.28808E-05 0.00000E+00
 -1       780-1.96837E-07 1.18081E-05 0.00000E+00
 -1       781-3.66623E-07 1.03819E-05 2.64698E-23
 -1       782-4.26061E-07 8.66031E-06 0.00000E+00
 -1       783-3.97110E-07 6.70208E-06-2.64698E-23
 -1       784-3.01825E-07 4.56634E-06-1.32349E-23
 -1       785-1.62337E-07 2.31238E-06 2.64698E-23
 -1       786 4.69661E-05 2.10924E-07 0.00000E+00
 -1       787 4.70048E-05 2.11244E-07-4.13590E-25
 -1       788 4.70434E-05 2.13430E-07 8.27181E-25
 -1       789 4.70824E-05 2.18001E-07-4.13590E-25
 -1       790 4.71214E-05 2.25681E-07-8.27181E-25
 -1       791 4.71605E-05 2.37204E-07 0.00000E+00
 -1       792 4.71995E-05 2.53644E-07-8.27181E-25
 -1       793 4.72387E-05 2.76082E-07 0.00000E+00
 -1       794 4.72778E-05 3.06134E-07 1.65436E-24
 -1       795 4.73169E-05 3.45429E-07 0.00000E+00
 -1       796 4.73560E-05 3.96413E-07 0.00000E+00
 -1       797 4.73951E-05 4.61560E-07 0.00000E+00
 -1       798 4.74341E-05 5.44593E-07-8.27181E-25
 -1       799 4.74731E-05 6.49271E-07 0.00000E+00
 -1       800 4.75121E-05 7.81275E-07 0.00000E+00
 -1       801 4.37601E-05 2.14957E-07-4.13590E-25
 -1       802 3.43295E-05 1.80170E-07 0.00000E+00
 -1       803 2.19394E-05 1.15839E-07 0.00000E+00
 -1       804 9.89035E-06 5.10265E-08-1.65436E-24
 -1       805 1.47749E-06 2.13796E-08 0.00000E+00
 -1       806 4.68819E-05 1.84405E-07 8.27181E-25
 -1       807 4.68321E-05 1.57043E-07 0.00000E+00
 -1       808 4.67808E-05 1.32912E-07 1.65436E-24
 -1       809 4.67272E-05 1.14584E-07 8.27181E-25
 -1       810 4.66703E-05 1.04626E-07 0.00000E+00
 -1       811 4.66093E-05 1.05571E-07 8.27181E-25
 -1       812 4.65432E-05 1.19944E-07-1.65436E-24
 -1       813 4.64712E-05 1.50267E-07 0.00000E+00
 -1       814 4.63922E-05 1.99061E-07 1.65436E-24
 -1       815 4.63053E-05 2.68845E-07-4.13590E-25
 -1       816 4.62097E-05 3.62136E-07 8.27181E-25
 -1       817 4.61043E-05 4.81451E-07-8.27181E-25
 -1       818 4.59882E-05 6.29306E-07 0.00000E+00
 -1       819 4.58605E-05 8.08208E-07 8.27181E-25
 -1       820 4.57204E-05 1.02066E-06-8.27181E-25
 -1       821 4.74951E-05 1.14373E-06 0.00000E+00
 -1       822 4.74362E-05 1.37293E-06 4.13590E-25
 -1       823 4.73775E-05 1.64433E-06-1.65436E-24
 -1       824 4.73182E-05 1.96819E-06-8.27181E-25
 -1       825 4.72588E-05 2.34821E-06 1.65436E-24
 -1       826 4.71993E-05 2.78791E-06 8.27181E-25
 -1       827 4.71397E-05 3.28331E-06 0.00000E+00
 -1       828 4.70801E-05 3.83030E-06 8.27181E-25
 -1       829 4.70204E-05 4.41827E-06 1.65436E-24
 -1       830 4.69608E-05 5.03649E-06 0.00000E+00
 -1       831 4.69012E-05 5.67046E-06 0.00000E+00
 -1       832 4.68417E-05 6.30560E-06 8.27181E-25
 -1       833 4.67822E-05 6.92720E-06 1.65436E-24
 -1       834 4.67234E-05 7.52059E-06 0.00000E+00
 -1       835 4.66645E-05 8.07462E-06 4.13590E-25
 -1       836 4.73101E-05 1.00006E-06 1.65436E-24
 -1       837 4.69988E-05 1.05499E-06-8.27181E-25
 -1       838 4.66426E-05 1.10981E-06 0.00000E+00
 -1       839 4.62679E-05 1.16429E-06 0.00000E+00
 -1       840 4.59008E-05 1.21868E-06-2.06795E-25
 -1       856 4.65921E-05 9.09135E-06 0.00000E+00
 -1       857 4.65732E-05 9.66930E-06-1.03398E-25
 -1       858 4.65545E-05 1.03019E-05 0.00000E+00
 -1       859 4.65354E-05 1.09788E-05 0.00000E+00
 -1       860 4.65162E-05 1.16897E-05 0.00000E+00
 -1       861 4.64969E-05 1.24242E-05 2.06795E-25
 -1       862 4.64777E-05 1.31721E-05-4.13590E-25
 -1       863 4.64584E-05 1.39229E-05 0.00000E+00
 -1       864 4.64391E-05 1.46662E-05 0.00000E+00
 -1       865 4.64198E-05 1.53918E-05 2.06795E-25
 -1       866 4.64006E-05 1.60891E-05-4.13590E-25
 -1       867 4.63813E-05 1.67480E-05 0.00000E+00
 -1       868 4.63621E-05 1.73580E-05-8.27181E-25
 -1       869 4.63429E-05 1.79090E-05 0.00000E+00
 -1       870 4.63237E-05 1.83906E-05 0.00000E+00
 -1       871 4.62178E-05 8.57778E-06-2.06795E-25
 -1       872 4.58888E-05 8.57601E-06 0.00000E+00
 -1       873 4.55953E-05 8.57400E-06 0.00000E+00
 -1       874 4.53103E-05 8.57167E-06-1.03398E-25
 -1       875 4.50065E-05 8.56906E-06-2.06795E-25
 -1       876 4.64732E-05 9.09669E-06 0.00000E+00
 -1       877 4.63270E-05 9.64667E-06-8.27181E-25
 -1       878 4.61704E-05 1.02244E-05 0.00000E+00
 -1       879 4.60049E-05 1.08263E-05 8.27181E-25
 -1       880 4.58317E-05 1.14488E-05 1.65436E-24
 -1       881 4.56521E-05 1.20883E-05-8.27181E-25
 -1       882 4.54674E-05 1.27414E-05-1.65436E-24
 -1       883 4.52790E-05 1.34044E-05-8.27181E-25
 -1       884 4.50882E-05 1.40737E-05 0.00000E+00
 -1       885 4.48963E-05 1.47460E-05-8.27181E-25
 -1       886 4.47047E-05 1.54175E-05 1.65436E-24
 -1       887 4.45145E-05 1.60848E-05 8.27181E-25
 -1       888 4.43273E-05 1.67443E-05 0.00000E+00
 -1       889 4.41440E-05 1.73924E-05-8.27181E-25
 -1       890 4.39660E-05 1.80255E-05-8.27181E-25
 -1       891 4.59565E-05 1.87671E-05 0.00000E+00
 -1       892 4.55973E-05 1.87413E-05-4.13590E-25
 -1       893 4.52141E-05 1.87155E-05 0.00000E+00
 -1       894 4.47941E-05 1.86898E-05 4.13590E-25
 -1       895 4.43243E-05 1.86642E-05 2.06795E-25
 -1       956 4.55118E-05 1.59115E-06 1.65436E-24
 -1       957 4.54550E-05 1.94965E-06 0.00000E+00
 -1       958 4.53981E-05 2.34083E-06-8.27181E-25
 -1       959 4.53411E-05 2.76069E-06 8.27181E-25
 -1       960 4.52840E-05 3.20521E-06 0.00000E+00
 -1       961 4.52269E-05 3.67033E-06 8.27181E-25
 -1       962 4.51698E-05 4.15201E-06 0.00000E+00
 -1       963 4.51126E-05 4.64622E-06 0.00000E+00
 -1       964 4.50555E-05 5.14889E-06 0.00000E+00
 -1       965 4.49984E-05 5.65597E-06 0.00000E+00
 -1       966 4.49413E-05 6.16343E-06 0.00000E+00
 -1       967 4.48841E-05 6.66720E-06 8.27181E-25
 -1       968 4.48271E-05 7.16325E-06 0.00000E+00
 -1       969 4.47701E-05 7.64753E-06 0.00000E+00
 -1       970 4.47133E-05 8.11602E-06-1.65436E-24
 -1       971 4.46039E-05 9.02587E-06-8.27181E-25
 -1       972 4.45498E-05 9.53508E-06-8.27181E-25
 -1       973 4.44956E-05 1.00871E-05-1.65436E-24
 -1       974 4.44413E-05 1.06765E-05 0.00000E+00
 -1       975 4.43869E-05 1.12976E-05 1.65436E-24
 -1       976 4.43325E-05 1.19449E-05-8.27181E-25
 -1       977 4.42781E-05 1.26129E-05 0.00000E+00
 -1       978 4.42237E-05 1.32960E-05 0.00000E+00
 -1       979 4.41693E-05 1.39887E-05-1.65436E-24
 -1       980 4.41149E-05 1.46854E-05 8.27181E-25
 -1       981 4.40605E-05 1.53806E-05 0.00000E+00
 -1       982 4.40061E-05 1.60687E-05-8.27181E-25
 -1       983 4.39518E-05 1.67441E-05 1.65436E-24
 -1       984 4.38978E-05 1.74014E-05-8.27181E-25
 -1       985 4.38440E-05 1.80349E-05 0.00000E+00
 -3
    1PSTEP                         4           2           1          
  100CL  102 3.12500E-01         409                     0    2           1
 -4  STRESS      6    1
 -5  SXX         1    4    1    1
 -5  SYY         1    4    2    2
 -5  SZZ         1    4    3    3
 -5  SXY         1    4    1    2
 -5  SYZ         1    4    2    3
 -5  SZX         1    4    3    1
 -1         1-1.07897E+06-4.96981E+05-2.19369E+05-6.97926E+05-4.00178E-11 5.06407E-09
 -1         2 1.81008E+03 2.03792E+05 5.90845E+03 4.17752E+02-1.03825E-10-2.11969E-09
 -1         3-3.09549E+01-4.52105E+05 1.04479E+02-1.03269E+02-4.82370E-11 4.36921E-09
 -1         5-3.18823E+00 1.62391E+05 4.25275E+00-2.28896E-02 6.85100E-11-7.02767E-09
 -1         8-5.07312E+05-2.20751E+05-1.59031E+04-3.85657E+05 1.01863E-10 3.06318E-09
 -1         9-8.72191E+05-2.25760E+05-8.63368E+04-3.01504E+05 2.28756E-09 1.99070E-09
 -1        10-3.43442E+02-4.71000E+05-6.01872E+02-6.89811E+02-2.06728E-09 3.36117E-09
 -1        12-1.44303E+00 1.62400E+05 1.37876E+02 1.11333E-01 1.59091E-10 2.39015E-09
 -1        15 1.38339E+03 7.54538E+02 4.38774E+03 1.97211E+00-1.70864E-09-5.24648E-07
 -1        16-2.45638E+06-7.89960E+05-3.81897E+05-8.02959E+05 7.20805E-09-1.74623E-10
 -1        17-5.41684E+05-3.34200E+05-1.04225E+05-3.15206E+05-3.44517E-09-1.37516E-09
 -1        18 1.91647E+04 1.76944E+03-7.67835E+03-3.82295E+04 4.79986E-10-5.33646E-10
 -1        19 5.08870E+04 6.06867E+04-2.81469E+02 9.96967E+03-4.15639E-10-6.98492E-10
 -1        20-2.11017E+04-2.40522E+05-5.30351E+04 1.78808E+04 2.76236E-09-4.61114E-10
 -1        21-2.27746E+01-1.39534E+05-4.50712E+02-3.46447E+01-2.50393E-09-2.94773E-09
 -1        24-2.15776E+06-7.49250E+05-3.07975E+05-9.13416E+05-9.75827E-09-6.70358E-09
 -1        25 1.91008E+04-2.41269E+03 1.13912E+04-6.90480E+04 2.43335E-10 1.05174E-09
 -1        26-1.17623E+04 4.14751E+04-8.22319E+03-5.93604E+03 1.00754E-09-4.19374E-10
 -1        27-3.85202E+04-1.31980E+05-4.95134E+04 2.97429E+04 3.71316E-09-2.85127E-10
 -1        28 1.07838E+04-3.85441E+04 7.87677E+03 1.23677E+04 1.24483E-09 2.45481E-09
 -1        32-5.14542E+05-7.51631E+04 2.22448E+05-3.46909E+05-1.01136E-08 8.68235E-09
 -1        33-7.54886E+04 3.88223E+04 1.37629E+04-2.25512E+04 7.01088E-10 3.35785E-09
 -1        34-9.80106E+04-9.75358E+03 2.31714E+02 3.01319E+04 2.86394E-09 1.39501E-09
 -1        35-1.09716E+04-1.53297E+04-5.98049E+02 2.43022E+04 2.19291E-09-2.45382E-09
 -1        51 9.90085E+03-2.54347E+05 2.44251E+04-6.29738E+05-4.36557E-11 1.20708E-08
 -1        52 5.23167E+03-2.52392E+05 1.62218E+04-7.34475E+05 2.14641E-10 6.40284E-10
 -1        53 3.44669E+03-2.59026E+05 1.42357E+04-6.27592E+05 3.09228E-10 4.14730E-10
 -1        54 1.08330E+04-2.56870E+05 2.31467E+04-7.36751E+05-2.25555E-10-8.80391E-09
 -1        55 2.37978E+04-2.65369E+05 4.16964E+04-6.27305E+05 8.00355E-11-6.06087E-09
 -1        56-2.07237E+06-2.34247E+05-1.61927E+05-7.99202E+05-3.38332E-10-3.23780E-09
 -1        57-2.13742E+06-3.80669E+05-1.09137E+05-7.92953E+05 2.60115E-10-8.28550E-09
 -1        58-2.10476E+06-2.85650E+05-3.81179E+04-7.89206E+05 1.08230E-10 1.35697E-09
 -1        59-2.09993E+06-3.20413E+05-2.27554E+04-8.04968E+05 4.39286E-10-3.60887E-09
 -1        60-2.10954E+06-2.92772E+05-8.90842E+03-7.87806E+05-1.19690E-09-8.09450E-10
 -1        61-2.09488E+06-3.11594E+05-5.06588E+03-8.06037E+05 1.66693E-09 3.23473E-09
 -1        62-2.10975E+06-2.94253E+05-2.44232E+03-7.88202E+05-3.88809E-10-2.16511E-09
 -1        63-2.09566E+06-3.09016E+05-2.00815E+03-8.04387E+05-3.23780E-10-2.39447E-09
 -1        64-2.10871E+06-2.95350E+05-2.31025E+03-7.89436E+05-5.91399E-10 6.20435E-09
 -1        65-2.09880E+06-3.07312E+05-4.62115E+03-8.01191E+05 1.86924E-09-2.52498E-10
 -1        66-2.10657E+06-2.96011E+05-8.13698E+03-7.91356E+05 1.44337E-09 1.01863E-10
 -1        67-2.10698E+06-3.11648E+05-2.06446E+04-7.95974E+05-1.31223E-10 1.33059E-09
 -1        68-2.10055E+06-2.91241E+05-3.46587E+04-7.94558E+05 1.83263E-10 1.60253E-09
 -1        69-2.14397E+06-3.63448E+05-9.90981E+04-7.81757E+05 6.60293E-10 1.12232E-09
 -1        70-2.06988E+06-2.45773E+05-1.47108E+05-8.05018E+05-1.71531E-09 3.56522E-10
 -1        86-9.07660E+02 2.01982E+05 6.33211E+03-2.08888E+02 7.96717E-10-6.44317E-09
 -1        87 6.02454E+03 2.05851E+05 1.32083E+04 8.58206E+02 1.34878E-09-8.39088E-09
 -1        88-5.11013E+03 1.99925E+05 2.02242E+04-6.49345E+02 1.99179E-09-1.33070E-09
 -1        89 3.80833E+04 2.20793E+05 5.45381E+04 1.84433E+03 3.06409E-09-9.08102E-09
 -1        90-3.28624E+04 1.87050E+05 7.70414E+04-1.19474E+03 3.44153E-09-1.25340E-10
 -1       121-5.42403E+01-4.52276E+05 9.90219E+01 5.15956E+01 2.22993E-10-8.09450E-11
 -1       122 3.39953E+00-4.52082E+05 2.28207E+02-2.06661E+02-9.19748E-10 1.39698E-09
 -1       123-7.91696E+01-4.52301E+05 3.69481E+02 1.54837E+02 6.67825E-10 2.37924E-09
 -1       124 4.24272E+02-4.51823E+05 9.57366E+02-4.92379E+02-1.60503E-09 2.04182E-10
 -1       125-3.52751E+02-4.52539E+05 1.46826E+03 3.37301E+02 1.07116E-09 7.76708E-10
 -1       191-3.48808E+00 1.62405E+05 5.07764E+00 1.11597E-02 1.12490E-10-1.02964E-08
 -1       192-3.57881E+00 1.62391E+05 9.00512E+00 2.76292E-01 1.54410E-10-2.03236E-08
 -1       193-4.52678E+00 1.62405E+05 1.67420E+01-2.89413E-01 1.72079E-10-1.18280E-08
 -1       194-4.83587E+00 1.62393E+05 3.40642E+01 7.76267E-01 7.65543E-11-5.16957E-09
 -1       195-6.52328E+00 1.62404E+05 6.66272E+01-4.92154E-01 2.72152E-10-2.07274E-09
 -1       251 1.82919E+05-3.20800E+04 7.49522E+04 2.93242E+03-2.20552E-11 5.55156E-09
 -1       252 2.16790E+05 3.71242E+04 5.31315E+04-9.77138E+03-7.39504E-10 1.45155E-09
 -1       253 1.95772E+05-4.96773E+03 1.94007E+04 2.08705E+03-7.14408E-10-5.05406E-09
 -1       254 2.01672E+05 5.74120E+03 1.22520E+04-8.43471E+03 3.09086E-10-1.39471E-09
 -1       255 1.97985E+05-7.67608E+02 5.01244E+03 1.59591E+03 1.07747E-10 1.11527E-09
 -1       256 1.99033E+05 9.10402E+02 3.04448E+03-7.70869E+03 1.00125E-09 7.72616E-09
 -1       257 1.98387E+05-1.34277E+02 1.56648E+03 1.36101E+03 3.48024E-10 1.82297E-09
 -1       258 1.98623E+05 2.82787E+02 1.38615E+03-7.47126E+03-4.73374E-10-1.43145E-09
 -1       259 1.98387E+05-1.36364E+02 1.58624E+03 1.35849E+03-2.14243E-10-3.19858E-10
 -1       260 1.99039E+05 9.28763E+02 3.10042E+03-7.69918E+03-4.59373E-10-3.32494E-09
 -1       261 1.97978E+05-7.83612E+02 5.11508E+03 1.58893E+03 1.04592E-09 2.08775E-09
 -1       262 2.01724E+05 5.86203E+03 1.25046E+04-8.41412E+03 4.24507E-10-1.74987E-09
 -1       263 1.95726E+05-5.07169E+03 1.98092E+04 2.07344E+03-6.62510E-10-1.11868E-09
 -1       264 2.17140E+05 3.79028E+04 5.42391E+04-9.73778E+03-1.13050E-09 5.40240E-10
 -1       265 1.82615E+05-3.27508E+04 7.65302E+04 2.91242E+03-8.92442E-10 4.75848E-09
 -1       266-2.47056E+04-1.14930E+04 5.75207E+04-4.14356E+01-2.44472E-09-7.74548E-07
 -1       267 2.86260E+04 1.34065E+04 4.07246E+04 4.77294E+01-4.78622E-09-1.54238E-06
 -1       268-3.86751E+03-1.90837E+03 1.51075E+04-6.14398E+00-3.88718E-09-1.23197E-06
 -1       269 4.56577E+03 2.28591E+03 9.84459E+03 7.14979E+00-2.95677E-09-9.32915E-07
 -1       270-6.90736E+02-3.77265E+02 4.74033E+03-9.83064E-01-2.23508E-09-7.07846E-07
 -1       271-2.39235E+06-2.98022E+05-1.83663E+05-9.31201E+05 5.16593E-10 7.44330E-09
 -1       272-2.44315E+06-4.47121E+05-1.18081E+05-9.46944E+05 1.51681E-09-1.43336E-09
 -1       273-2.42726E+06-3.43401E+05-4.33825E+04-9.22642E+05 4.16549E-10 3.74894E-09
 -1       274-2.40241E+06-3.91477E+05-2.42891E+04-9.60121E+05 1.16552E-09-4.02906E-09
 -1       275-2.43264E+06-3.47512E+05-1.00915E+04-9.20546E+05 2.23235E-09-1.11322E-09
 -1       276-2.39606E+06-3.86652E+05-5.36605E+03-9.63505E+05 2.80124E-10 1.07832E-09
 -1       277-2.43386E+06-3.47409E+05-2.62512E+03-9.19723E+05 4.98403E-10 5.33419E-10
 -1       278-2.39491E+06-3.86639E+05-1.91076E+03-9.64490E+05 1.20360E-09 3.01782E-10
 -1       279-2.43392E+06-3.47389E+05-2.05174E+03-9.19676E+05 8.18659E-10 2.07865E-09
 -1       280-2.39571E+06-3.86530E+05-3.76098E+03-9.63733E+05-5.96401E-10 9.96351E-10
 -1       281-2.43295E+06-3.47618E+05-6.88094E+03-9.20392E+05-1.46792E-09 2.36105E-09
 -1       282-2.40041E+06-3.89300E+05-1.64288E+04-9.60824E+05 1.08275E-09-2.35832E-09
 -1       283-2.42897E+06-3.45230E+05-2.93326E+04-9.22205E+05-1.98725E-10-4.01087E-09
 -1       284-2.42868E+06-4.25980E+05-7.97338E+04-9.50794E+05-8.07177E-12-1.29876E-09
 -1       285-2.40483E+06-3.15195E+05-1.24110E+05-9.28612E+05 1.32695E-09 2.10275E-09
 -1       301 9.18177E+03-5.60934E+03 7.16399E+04-1.76314E+04-4.94765E-10 1.38073E-09
 -1       302 9.86573E+03 1.25708E+04 5.17640E+04-2.59449E+04 1.06002E-09-4.79417E-09
 -1       303 4.32854E+02 8.20373E+02 4.77002E+04-1.76687E+04-5.12046E-10-1.96428E-09
 -1       304 1.86412E+04 2.06655E+04 8.02922E+04-2.58736E+04 5.33873E-10 1.03500E-09
 -1       305 1.84750E+04-1.36570E+04 1.34772E+05-1.76551E+04-6.03904E-10 2.44745E-09
 -1       306-2.57452E+06-2.96255E+05-1.96291E+05-1.00432E+06 1.66256E-09 1.34605E-09
 -1       307-2.67213E+06-4.65730E+05-1.33841E+05-9.74395E+05 2.14504E-09 4.05271E-09
 -1       308-2.61915E+06-3.57204E+05-4.61849E+04-9.85860E+05-3.13776E-11 4.93128E-09
 -1       309-2.61699E+06-3.98324E+05-2.79774E+04-1.00017E+06-6.82576E-10 3.21961E-09
 -1       310-2.62944E+06-3.62462E+05-1.08391E+04-9.78977E+05-4.03588E-10-3.30056E-09
 -1       311-2.60369E+06-3.93747E+05-6.28336E+03-1.01009E+06 2.77507E-09 4.22006E-09
 -1       312-2.63251E+06-3.61535E+05-3.07210E+03-9.76075E+05-8.42164E-10-3.39105E-09
 -1       313-2.60111E+06-3.94178E+05-2.76986E+03-1.01248E+06-1.75299E-09 1.20163E-09
 -1       314-2.63205E+06-3.61983E+05-3.33078E+03-9.76624E+05-2.08189E-09-3.72643E-09
 -1       315-2.60549E+06-3.92255E+05-7.01921E+03-1.00799E+06 4.33829E-10 6.15285E-09
 -1       316-2.62806E+06-3.63535E+05-1.22462E+04-9.80495E+05 1.42916E-09 1.07957E-09
 -1       317-2.62103E+06-3.97040E+05-3.16532E+04-9.96330E+05 4.00490E-10-1.63254E-09
 -1       318-2.61646E+06-3.57465E+05-5.22719E+04-9.88145E+05-3.10774E-09 8.63656E-09
 -1       319-2.68283E+06-4.74143E+05-1.51542E+05-9.68138E+05-2.65209E-09 4.80213E-10
 -1       320-2.56655E+06-2.87754E+05-2.22168E+05-1.00823E+06 5.69344E-09-2.47383E-09
 -1       336 3.54567E+02-4.89618E+05-2.60519E+03 3.52068E+02-4.44561E-09-6.19730E-09
 -1       337-9.38883E+02-4.90340E+05-2.85395E+03-9.49542E+02-8.17261E-09-2.64208E-09
 -1       338 2.33411E+02-4.89694E+05-3.59225E+03 5.95954E+02-5.73175E-09-3.12866E-10
 -1       339-3.71419E+03-4.92041E+05-7.86598E+03-1.43294E+03-1.01181E-08 2.25373E-09
 -1       340 2.52774E+03-4.87937E+05-1.21191E+04 8.32691E+02-6.87214E-09 1.30058E-09
 -1       406 9.08084E+00 1.62397E+05 2.72202E+02 3.73008E-01 3.76360E-10 9.55197E-09
 -1       407 9.34669E+01 1.62448E+05 5.78555E+02-6.68406E+00 3.87104E-11 1.80378E-08
 -1       408 2.96359E+02 1.62356E+05 1.15550E+03 6.38586E+00 4.20755E-10 1.01236E-08
 -1       409 1.24810E+03 1.62817E+05 2.60147E+03-5.83761E+01 2.44427E-11-3.76804E-09
 -1       410 3.58859E+03 1.62027E+05 5.31084E+03 5.34015E+01 4.52928E-10 6.02995E-10
 -1       521-4.86021E+06-5.61450E+05-3.63963E+05-1.89075E+06 4.48199E-09-6.06815E-09
 -1       522-5.03625E+06-8.74636E+05-2.47315E+05-1.84078E+06 8.80391E-10-6.87578E-10
 -1       523-4.94488E+06-6.70370E+05-8.55743E+04-1.85418E+06 9.76797E-10 6.25732E-10
 -1       524-4.93180E+06-7.54071E+05-5.15776E+04-1.89147E+06 8.15703E-10 2.44836E-09
 -1       525-4.96406E+06-6.79178E+05-1.99759E+04-1.84104E+06 2.31285E-09 9.70431E-10
 -1       526-4.90980E+06-7.43610E+05-1.15130E+04-1.90685E+06-4.87347E-10 6.51198E-10
 -1       527-4.96695E+06-6.80288E+05-5.52741E+03-1.83905E+06 2.34058E-09-1.31615E-09
 -1       528-4.91292E+06-7.35957E+05-4.69420E+03-1.90119E+06 8.58563E-10 1.31081E-09
 -1       529-4.96076E+06-6.86884E+05-5.61364E+03-1.84660E+06-1.59343E-09 3.43425E-09
 -1       530-4.93201E+06-7.20171E+05-1.12554E+04-1.87934E+06-1.37538E-09 2.18256E-09
 -1       531-4.94755E+06-6.96350E+05-2.00065E+04-1.86065E+06-1.71849E-09-2.79215E-10
 -1       532-4.96892E+06-7.15969E+05-5.10884E+04-1.84778E+06 1.55580E-09-6.24641E-09
 -1       533-4.92398E+06-6.91493E+05-8.49235E+04-1.87805E+06 1.38698E-09-4.20914E-09
 -1       534-5.07422E+06-8.35517E+05-2.45582E+05-1.79834E+06 1.07229E-09 3.69619E-09
 -1       535-4.84345E+06-5.79212E+05-3.61038E+05-1.90954E+06-6.10453E-09 3.66708E-09
 -1       536-1.14739E+04-1.35856E+04 3.12935E+04 2.96389E+02-7.87281E-10 7.22321E-09
 -1       537 3.01146E+03 1.57195E+04 2.22960E+04-1.20130E+03-5.35305E-09 1.63368E-09
 -1       538-6.10912E+03-2.12921E+03 8.07193E+03 2.82217E+02-7.43512E-10-6.88033E-10
 -1       539-3.31780E+03 2.45786E+03 5.15429E+03-1.19751E+03 2.20943E-09 1.69666E-09
 -1       540-5.15142E+03-3.31359E+02 2.03796E+03 2.92605E+02 4.08548E-10 6.64090E-09
 -1       541-4.49211E+03 3.79028E+02 1.21756E+03-1.21680E+03-3.57176E-10 7.68284E-09
 -1       542-4.93896E+03-4.90385E+01 4.88189E+02 3.01504E+02-6.95401E-10 3.32062E-09
 -1       543-4.77546E+03 4.68276E+01 2.45726E+02-1.23094E+03-1.41538E-10-3.95990E-09
 -1       544-4.87077E+03 2.55566E+00 3.47086E+01 3.06736E+02-3.22416E-10-3.10098E-09
 -1       545-4.88562E+03-6.11917E+01-1.46292E+02-1.23755E+03-6.51881E-10-2.00916E-09
 -1       546-4.83004E+03 5.98125E+01-3.40864E+02 3.08117E+02 1.91861E-10 1.66366E-09
 -1       547-5.06417E+03-4.43135E+02-9.01454E+02-1.23639E+03-1.32773E-09-3.42561E-09
 -1       548-4.69198E+03 3.84052E+02-1.46333E+03 3.05574E+02-1.33910E-09-4.15685E-09
 -1       549-6.09909E+03-2.83122E+03-3.99061E+03-1.22649E+03-9.33539E-10-7.41238E-10
 -1       550-3.79335E+03 2.44478E+03-5.68491E+03 2.98223E+02 2.96296E-11 7.36463E-10
 -1       551 4.25101E+03-2.57746E+05 1.43334E+04-4.42309E+05-1.91903E-08-9.09495E-10
 -1       552 8.66927E+03-2.57648E+05 1.85560E+04-6.29373E+05-1.50976E-08 6.74481E-09
 -1       553 5.52900E+03-2.61034E+05 2.89324E+04-4.40901E+05-2.36505E-08 8.01992E-09
 -1       554 2.27648E+04-2.48154E+05 6.14501E+04-6.29975E+05-1.47120E-08 4.73619E-09
 -1       555 2.33769E+04-2.72815E+05 1.10493E+05-4.41507E+05-2.37414E-08-1.02409E-09
 -1       556 3.57885E+04-8.22110E+04 2.85980E+04-1.10109E+05-7.01402E-09-1.29658E-08
 -1       557 6.91882E+04-1.10302E+05 1.49590E+04-1.37519E+05-7.56700E-10-2.56273E-09
 -1       558 3.61946E+04-8.63195E+04 6.13764E+03-1.06540E+05-3.21597E-09-1.83172E-09
 -1       559 6.52589E+04-1.14401E+05 3.08568E+03-1.39109E+05 3.05590E-09 1.62254E-09
 -1       560 3.56036E+04-8.59095E+04 1.32200E+03-1.06876E+05 3.35785E-09 6.64022E-09
 -1       561 6.41943E+04-1.14215E+05 6.81564E+02-1.39773E+05 1.30967E-10-3.18755E-09
 -1       562 3.50976E+04-8.55561E+04 2.78516E+02-1.07245E+05-3.81988E-10-2.26396E-09
 -1       563 6.35843E+04-1.13956E+05 1.59503E+02-1.40163E+05-1.08412E-09-1.82104E-09
 -1       564 3.47825E+04-8.53486E+04 5.92091E+01-1.07471E+05 4.51109E-09 5.36420E-09
 -1       565 6.32715E+04-1.13824E+05 2.79885E+01-1.40357E+05 1.84991E-09 1.50430E-09
 -1       566 3.46752E+04-8.52745E+04-2.02880E+01-1.07551E+05-4.81123E-10-6.95763E-10
 -1       567 6.32275E+04-1.13802E+05-8.21014E+01-1.40344E+05 3.77850E-09 4.01997E-09
 -1       568 3.47971E+04-8.53564E+04-2.12593E+02-1.07504E+05-1.05865E-09-2.67755E-09
 -1       569 6.30304E+04-1.13684E+05-5.01802E+02-1.39760E+05-1.02500E-09 2.53749E-10
 -1       570 3.54968E+04-8.60412E+04-1.03248E+03-1.07579E+05 8.62201E-10 6.15728E-10
 -1       571 1.17775E+05 4.26991E+03 6.32477E+03-2.95802E+04 2.73758E-10 2.90834E-09
 -1       572 1.18717E+05 1.48520E+03 3.09851E+03-3.24250E+04-1.99861E-10-4.55839E-09
 -1       573 1.18156E+05 3.53969E+02 1.37646E+03-2.95030E+04 5.22050E-10-1.98884E-09
 -1       574 1.18269E+05 1.14394E+02 6.89496E+02-3.25116E+04 1.81899E-12-4.03111E-09
 -1       575 1.18201E+05 1.49246E+01 3.24921E+02-2.94927E+04-7.40101E-11-1.85946E-09
 -1       576 1.18209E+05 3.15537E+00 1.65297E+02-3.25232E+04-3.62235E-10 1.10049E-10
 -1       577 1.18207E+05-3.29781E+00 8.13664E+01-2.94913E+04-2.57728E-10-6.66660E-10
 -1       578 1.18202E+05-1.91400E+00 4.42413E+01-3.25246E+04-1.54205E-09-1.06547E-09
 -1       579 1.18212E+05-3.36088E+00 2.69691E+01-2.94914E+04-1.39107E-09-5.11068E-09
 -1       580 1.18208E+05-3.68257E+00 2.49459E+01-3.25228E+04-1.20599E-09-1.86492E-09
 -1       581 1.18220E+05-5.32109E+00 3.37924E+01-2.94932E+04 2.28283E-10-2.87423E-09
 -1       582 1.18224E+05 7.06754E-01 6.41134E+01-3.25051E+04 6.58019E-10 4.29736E-10
 -1       583 1.18228E+05 1.81528E+01 1.23270E+02-2.95090E+04 3.48700E-09 2.88753E-09
 -1       584 1.18280E+05 1.15324E+02 2.76066E+02-3.23733E+04 1.43336E-09-3.21552E-09
 -1       585 1.18209E+05 3.60015E+02 5.61157E+02-2.96251E+04-2.56478E-10-4.65297E-09
 -1       586-1.46632E+03 3.83783E+04-1.93379E+03-1.00776E+05 3.01270E-10-4.45107E-09
 -1       587-3.27625E+02 3.81210E+04-2.33629E+02-1.10895E+05 5.54792E-10-4.53477E-09
 -1       588 3.89612E+02 3.81708E+04 1.33361E+03-1.00714E+05 2.97405E-10-3.25463E-09
 -1       589 1.98947E+03 3.88991E+04 3.90809E+03-1.10803E+05 4.53838E-10-7.39692E-09
 -1       590 5.73679E+03 3.76773E+04 8.37894E+03-1.00868E+05 2.31921E-10-5.01950E-09
 -1       591-2.56289E+04-7.35855E+03-8.55257E+03-1.33139E+04 5.07612E-10-1.67211E-09
 -1       592-2.64270E+04-9.46195E+03-4.63243E+03-1.55476E+04 1.34281E-09-2.36935E-09
 -1       593-2.64935E+04-6.72843E+03-1.92851E+03-1.39312E+04 2.28965E-10-1.87015E-09
 -1       594-2.52348E+04-8.21903E+03-9.61859E+02-1.56067E+04 4.51791E-10 7.38306E-09
 -1       595-2.65595E+04-6.72569E+03-4.42037E+02-1.39595E+04 1.16694E-09 9.88222E-09
 -1       596-2.51540E+04-8.16214E+03-2.25341E+02-1.55981E+04 3.14444E-10 6.59839E-09
 -1       597-2.65679E+04-6.73121E+03-1.24050E+02-1.39606E+04-3.35731E-11-2.70697E-09
 -1       598-2.51463E+04-8.15995E+03-1.02187E+02-1.55958E+04 1.10280E-09-7.60679E-10
 -1       599-2.65673E+04-6.73116E+03-1.33578E+02-1.39604E+04 9.57812E-10-1.13926E-09
 -1       600-2.51551E+04-8.16280E+03-2.50630E+02-1.55982E+04-7.51754E-10-6.07565E-09
 -1       601-2.65571E+04-6.72502E+03-4.95660E+02-1.39588E+04-9.57016E-10-3.57863E-09
 -1       602-2.52461E+04-8.22658E+03-1.08103E+03-1.56069E+04-3.66242E-10 7.20775E-10
 -1       603-2.64822E+04-6.72900E+03-2.16817E+03-1.39273E+04-7.43057E-10 1.69825E-09
 -1       604-2.65911E+04-9.61916E+03-5.20850E+03-1.55343E+04-1.75521E-09-2.10332E-09
 -1       605-2.55046E+04-7.44154E+03-9.61594E+03-1.32381E+04 9.35870E-10-2.26009E-10
 -1       606 1.68486E+04-5.66772E+03-1.02106E+04 1.64888E+04-2.37924E-09-3.03362E-09
 -1       607 1.51002E+04-1.82797E+03-5.08452E+03 1.85096E+04-1.58570E-09-4.81066E-09
 -1       608 1.60972E+04-3.07219E+02-2.27641E+03 1.63572E+04 1.67984E-09-1.78989E-09
 -1       609 1.59013E+04-8.15807E+01-1.14996E+03 1.86551E+04 2.64663E-10 6.03677E-09
 -1       610 1.60105E+04 1.31167E+01-5.48937E+02 1.63425E+04-2.85581E-09 4.14980E-09
 -1       611 1.59752E+04 1.80699E+01-2.77008E+02 1.86710E+04-6.07906E-09 3.33307E-09
 -1       612 1.59903E+04 1.95408E+01-1.32335E+02 1.63411E+04 7.29779E-09 1.08457E-09
 -1       613 1.59782E+04 2.06227E+01-6.04442E+01 1.86729E+04 1.56069E-08-3.67913E-09
 -1       614 1.59803E+04 1.78673E+01-1.68219E+01 1.63405E+04 8.08950E-09 1.87742E-09
 -1       615 1.59746E+04 2.19491E+01 1.86534E+01 1.86733E+04 2.21644E-09 1.18860E-09
 -1       616 1.59728E+04 1.96618E+01 6.21501E+01 1.63407E+04-1.01772E-09-1.44405E-09
 -1       617 1.59808E+04 3.62065E+01 1.44079E+02 1.86730E+04 2.02999E-09-8.53106E-10
 -1       618 1.59591E+04 6.19728E+01 2.91337E+02 1.63408E+04 1.75851E-09-1.48202E-09
 -1       619 1.60828E+04 2.62196E+02 6.54786E+02 1.86726E+04 1.20059E-09 1.23532E-09
 -1       620 1.58617E+04 7.53865E+02 1.31630E+03 1.63404E+04 1.16131E-09-3.28032E-09
 -1       621 2.05655E+02 1.28261E+05 1.77526E+03 4.07594E+03-2.59874E-10 2.50679E-10
 -1       622 2.34981E+02 1.28701E+05 1.50563E+03 5.94924E+03-1.48759E-10-5.39285E-09
 -1       623 1.01822E+01 1.28388E+05 1.73010E+03 4.05669E+03-1.75930E-10-6.25079E-09
 -1       624 7.82853E+02 1.29204E+05 3.28417E+03 5.96816E+03-2.47553E-10-6.90102E-09
 -1       625 7.85741E+02 1.27756E+05 5.70881E+03 4.05718E+03-1.35060E-10-5.81926E-09
 -1       626 1.05802E+05 2.93609E+04 2.11179E+03 5.72591E+04-9.92259E-10-1.21872E-10
 -1       627 1.04349E+05 3.04314E+04 1.01725E+03 5.95801E+04-4.36557E-10-1.42427E-09
 -1       628 1.05886E+05 2.83600E+04 4.29932E+02 5.75788E+04 1.28330E-09 1.59525E-09
 -1       629 1.04047E+05 3.01905E+04 2.10569E+02 5.97222E+04 6.04132E-10 6.43638E-10
 -1       630 1.05894E+05 2.83109E+04 9.75085E+01 5.75891E+04-1.10017E-08-1.42825E-09
 -1       631 1.04013E+05 3.01841E+04 5.23479E+01 5.97258E+04-1.04346E-08 2.81225E-08
 -1       632 1.05891E+05 2.83134E+04 3.46246E+01 5.75857E+04-1.04178E-08 2.66724E-09
 -1       633 1.04007E+05 3.01865E+04 3.86097E+01 5.97231E+04-2.14584E-09 5.49380E-09
 -1       634 1.05886E+05 2.83132E+04 6.25670E+01 5.75838E+04 1.22486E-09 5.46152E-10
 -1       635 1.04011E+05 3.01871E+04 1.26878E+02 5.97235E+04 1.06240E-10 4.58272E-09
 -1       636 1.05880E+05 2.83125E+04 2.56350E+02 5.75821E+04 3.56010E-10 8.90782E-09
 -1       637 1.04063E+05 3.02280E+04 5.63459E+02 5.97208E+04 4.61222E-10-2.01749E-09
 -1       638 1.05857E+05 2.84385E+04 1.15815E+03 5.75239E+04 4.61000E-11-4.88512E-09
 -1       639 1.04668E+05 3.10758E+04 2.73991E+03 5.95400E+04-1.40346E-09-2.47383E-09
 -1       640 1.05774E+05 3.09616E+04 5.68626E+03 5.64525E+04-3.63957E-09-4.43106E-09
 -1       656 2.86908E+04-7.26192E+05-6.92746E+04-5.11062E+02-1.67347E-10 1.53210E-09
 -1       657-3.79095E+04-7.57481E+05-5.72892E+04 4.75260E+03 6.28006E-10 8.17636E-10
 -1       658 9.09554E+03-7.35122E+05-3.51570E+04-9.53657E+02 6.01744E-10 3.05270E-09
 -1       659-4.06398E+04-7.58767E+05-6.08751E+04 5.04395E+03-1.03137E-09 7.78253E-10
 -1       660 3.14137E+04-7.24908E+05-7.54488E+04-8.02398E+02 2.14641E-10-1.73273E-10
 -1       661 1.03296E+05 1.12192E+04 9.89951E+03 4.03261E+04 2.42380E-09 2.63753E-09
 -1       662 1.08423E+05 1.90120E+04 6.67058E+03 3.86365E+04 3.90190E-09-2.30921E-09
 -1       663 1.05232E+05 1.44023E+04 2.33343E+03 3.97702E+04 1.88032E-09-2.35332E-10
 -1       664 1.06185E+05 1.52835E+04 1.39499E+03 3.93095E+04-1.79057E-11 2.77257E-09
 -1       665 1.05520E+05 1.48432E+04 5.50329E+02 3.96924E+04-2.26802E-09-9.34037E-10
 -1       666 1.05850E+05 1.47740E+04 3.20829E+02 3.94070E+04-3.89466E-09-2.92233E-09
 -1       667 1.05565E+05 1.48985E+04 1.69185E+02 3.96777E+04-1.38989E-09-1.53438E-09
 -1       668 1.05804E+05 1.47272E+04 1.69351E+02 3.94267E+04 1.29157E-09 1.66440E-09
 -1       669 1.05566E+05 1.48888E+04 2.26948E+02 3.96732E+04 1.44591E-09 2.21834E-09
 -1       670 1.05866E+05 1.48422E+04 4.91826E+02 3.94207E+04 5.66970E-09-2.85851E-09
 -1       671 1.05504E+05 1.47858E+04 8.72617E+02 3.96828E+04-1.48315E-09-1.61958E-09
 -1       672 1.06379E+05 1.56862E+04 2.23195E+03 3.92923E+04-1.06354E-09-7.75401E-10
 -1       673 1.05055E+05 1.40661E+04 3.74022E+03 3.97935E+04-4.29736E-10-3.76099E-09
 -1       674 1.09944E+05 2.16904E+04 1.06966E+04 3.82406E+04-1.30012E-09-3.78168E-09
 -1       675 1.01961E+05 8.94950E+03 1.58766E+04 4.06714E+04-5.72527E-10-3.07227E-09
 -1       676 1.16947E+01-1.39497E+05-5.43221E+02 1.73228E+01 5.10127E-10-8.42133E-10
 -1       677-1.44191E+02-1.39628E+05-9.94118E+02-3.46400E+01-2.37020E-09-4.28427E-09
 -1       678 9.62741E+01-1.39403E+05-1.75732E+03 1.73053E+01-1.77852E-09-2.72854E-09
 -1       679-1.75753E+03-1.40689E+05-4.17434E+03-3.45621E+01-1.99873E-09-3.66514E-09
 -1       680 1.04881E+03-1.38436E+05-6.72769E+03 1.70458E+01-1.06775E-09-1.55345E-09
 -1       771-1.50056E+06-2.60804E+05-3.64851E+04-6.21052E+05-5.90080E-09-5.00586E-09
 -1       772-1.49117E+06-2.81053E+05-1.96142E+04-6.43601E+05-4.12183E-09 2.50930E-09
 -1       773-1.50535E+06-2.57101E+05-8.39943E+03-6.23096E+05-1.89902E-09 2.37560E-09
 -1       774-1.48583E+06-2.76634E+05-4.10723E+03-6.45495E+05 5.07862E-09-1.22600E-09
 -1       775-1.50629E+06-2.56535E+05-2.03470E+03-6.23218E+05 5.02041E-10 2.49202E-10
 -1       776-1.48566E+06-2.76600E+05-9.49080E+02-6.46382E+05-8.64020E-10 1.63345E-09
 -1       777-1.50689E+06-2.56117E+05-5.62497E+02-6.23266E+05-6.78483E-09-8.39555E-09
 -1       778-1.48580E+06-2.76714E+05-2.57734E+02-6.47112E+05-8.00355E-10 2.74576E-09
 -1       779-1.50735E+06-2.55760E+05-2.40154E+02-6.23306E+05-7.49424E-10-2.25828E-09
 -1       780-1.48595E+06-2.76816E+05-1.98689E+02-6.47703E+05-2.47383E-10-2.71257E-10
 -1       781-1.50770E+06-2.55472E+05-3.50762E+02-6.23334E+05-5.47698E-09-1.05683E-09
 -1       782-1.48612E+06-2.76926E+05-6.53615E+02-6.48138E+05-6.82576E-09-1.92983E-09
 -1       783-1.50789E+06-2.55287E+05-1.30633E+03-6.23338E+05-3.18323E-10-2.76538E-09
 -1       784-1.48698E+06-2.77807E+05-3.10070E+03-6.48368E+05-3.31011E-09-1.04137E-10
 -1       785-1.50744E+06-2.55604E+05-5.73164E+03-6.22928E+05-6.47924E-09 9.23137E-10
 -1       786 1.09221E+05-5.83160E+03 1.34908E+04 1.47819E+00 9.41391E-08 5.64796E-10
 -1       787 1.15067E+05 6.75114E+03 9.54465E+03-7.27149E+00 1.87263E-07 3.95369E-09
 -1       788 1.11476E+05-9.14166E+02 3.49174E+03 2.46213E+00 2.67209E-07-2.26692E-10
 -1       789 1.12439E+05 1.05774E+03 2.19390E+03-9.87903E+00 3.47758E-07 7.18057E-09
 -1       790 1.11849E+05-1.42808E+02 8.92699E+02 4.08576E+00 4.74288E-07-7.76322E-09
 -1       791 1.12005E+05 1.65929E+02 5.24173E+02-1.40645E+01 6.01534E-07 6.56802E-09
 -1       792 1.11911E+05-2.30209E+01 2.39313E+02 6.64772E+00 8.40113E-07-5.68782E-09
 -1       793 1.11935E+05 3.23725E+01 1.56995E+02-2.05976E+01 1.07666E-06 2.03239E-09
 -1       794 1.11919E+05-9.33966E+00 1.16565E+02 1.06189E+01 5.38763E-07-7.26050E-09
 -1       795 1.11942E+05 4.82908E+01 1.69005E+02-3.06686E+01 2.11239E-09-1.19251E-09
 -1       796 1.11904E+05-3.89273E+01 2.53398E+02 1.67189E+01 2.13389E-10 4.90533E-09
 -1       797 1.12057E+05 2.85384E+02 5.97672E+02-4.61052E+01-7.16707E-11 5.42619E-09
 -1       798 1.11804E+05-2.46258E+02 9.43495E+02 2.60558E+01-1.91271E-10-9.67589E-10
 -1       799 1.12765E+05 1.81825E+03 2.57215E+03-6.98595E+01-4.57742E-10-3.51687E-09
 -1       800 1.11196E+05-1.57055E+03 3.63351E+03 4.04733E+01 2.84839E-11-3.55408E-09
 -1       801-6.32051E+03 1.03332E+04 9.85345E+03 1.16003E+04 6.42126E-09-3.18653E-09
 -1       802 1.65597E+04 5.69003E+04 3.18445E+04-4.77753E+04 1.71203E-08-4.76642E-09
 -1       803-9.84158E+03 2.68561E+04 4.09229E+04 1.10102E+04 1.35606E-08 1.20644E-08
 -1       804 7.92076E+04 9.01749E+04 1.13916E+05-4.82956E+04 1.60071E-08 1.49076E-08
 -1       805-6.89879E+04-2.27982E+04 1.48578E+05 1.21196E+04 5.71163E-09 1.51483E-08
 -1       806-1.28373E+05-2.75119E+04-1.09126E+04-5.34671E+04 2.13481E-09-3.81851E-09
 -1       807-1.29014E+05-2.59503E+04-5.36110E+03-5.63620E+04-1.19599E-10-2.79854E-09
 -1       808-1.28682E+05-2.35694E+04-2.27423E+03-5.53184E+04 1.66410E-08-1.34457E-08
 -1       809-1.27870E+05-2.44618E+04-1.11183E+03-5.65168E+04 3.72378E-08-1.81092E-08
 -1       810-1.28731E+05-2.34301E+04-5.09082E+02-5.54002E+04 1.74831E-08-1.25867E-08
 -1       811-1.27782E+05-2.44028E+04-2.52478E+02-5.65041E+04 1.93222E-09 2.12935E-10
 -1       812-1.28740E+05-2.34401E+04-1.25944E+02-5.54002E+04 4.60341E-09-3.25372E-10
 -1       813-1.27772E+05-2.44042E+04-7.94523E+01-5.64978E+04 7.56108E-09 1.83445E-09
 -1       814-1.28739E+05-2.34435E+04-7.44074E+01-5.53988E+04 4.10682E-09 2.86832E-09
 -1       815-1.27774E+05-2.44053E+04-1.16542E+02-5.64966E+04 4.08363E-10 1.40108E-09
 -1       816-1.28733E+05-2.34421E+04-2.18259E+02-5.53977E+04-1.08184E-09 3.91901E-09
 -1       817-1.27812E+05-2.44260E+04-4.68172E+02-5.64935E+04-2.20371E-09-1.64255E-09
 -1       818-1.28706E+05-2.35072E+04-9.54008E+02-5.53671E+04-2.14004E-09-9.04856E-09
 -1       819-1.28339E+05-2.49985E+04-2.24567E+03-5.63669E+04-5.92991E-10 6.41876E-10
 -1       820-1.28525E+05-2.52050E+04-4.57013E+03-5.46438E+04 2.30330E-09 1.00830E-08
 -1       821-1.65924E+05 9.21135E+03-2.13050E+04 9.49613E+00-4.12045E-10-1.43609E-09
 -1       822-1.75156E+05-1.06637E+04-1.50757E+04-1.85294E+02-1.61745E-09 2.51021E-09
 -1       823-1.69487E+05 1.44400E+03-5.51810E+03-2.34157E+01 1.00151E-09-8.77208E-10
 -1       824-1.71005E+05-1.67138E+03-3.47254E+03-1.08007E+02 2.20457E-10 6.00971E-09
 -1       825-1.70074E+05 2.26088E+02-1.42654E+03-6.77933E+01-2.29107E-09-2.89845E-10
 -1       826-1.70321E+05-2.66664E+02-8.62806E+02-1.95332E+01-4.40128E-09-3.87806E-09
 -1       827-1.70170E+05 4.03075E+01-4.45146E+02-1.11891E+02-2.82927E-09 2.27942E-09
 -1       828-1.70227E+05-8.15026E+01-3.95174E+02 5.70389E+01-4.23220E-09 5.51442E-09
 -1       829-1.70169E+05 4.10769E+01-4.51798E+02-1.44367E+02-6.52209E-10 1.96199E-09
 -1       830-1.70328E+05-2.73162E+02-8.83079E+02 1.02030E+02 9.66699E-10 1.86108E-09
 -1       831-1.70070E+05 2.31864E+02-1.46173E+03-1.56883E+02-1.97916E-09 1.59275E-10
 -1       832-1.71029E+05-1.71421E+03-3.56184E+03 1.04149E+02-1.00996E-09 3.57477E-09
 -1       833-1.69468E+05 1.48108E+03-5.65959E+03-1.46485E+02-5.30046E-10 4.38831E-09
 -1       834-1.75284E+05-1.09377E+04-1.54634E+04 6.41467E+01-6.91978E-10 2.96677E-09
 -1       835-1.65815E+05 9.44815E+03-2.18532E+04-1.16877E+02 3.15821E-09 2.88310E-09
 -1       836-5.53267E+02 1.57343E+05 9.47253E+03-1.38256E+04 1.21736E-09 5.00472E-09
 -1       837 2.08122E+03 1.60278E+05 8.08320E+03-2.77849E+04 1.75396E-09 5.90205E-09
 -1       838-2.05565E+02 1.58162E+05 8.33112E+03-1.37774E+04 1.50294E-09 2.81943E-09
 -1       839 5.34121E+03 1.62714E+05 1.58542E+04-2.78027E+04 1.90516E-09-2.45194E-10
 -1       840-1.60975E+03 1.54893E+05 2.53198E+04-1.38070E+04 1.30240E-09 1.04626E-09
 -1       856-5.21675E+04 4.45155E+03-1.17299E+04-2.51112E+02-2.35281E-09-1.85855E-09
 -1       857-5.70140E+04-5.22178E+03-8.07614E+03 2.68983E+03-3.58298E-10-1.27795E-09
 -1       858-5.40823E+04 6.23938E+02-3.04421E+03-2.59664E+02-3.03964E-09 1.82774E-09
 -1       859-5.48141E+04-7.26592E+02-1.83882E+03 2.70325E+03-1.20676E-09 1.00462E-09
 -1       860-5.43688E+04 8.69181E+01-7.73179E+02-2.64591E+02 4.95518E-10-2.04236E-09
 -1       861-5.44837E+04-9.74291E+01-4.30852E+02 2.70992E+03-1.57382E-09 2.43910E-09
 -1       862-5.44134E+04 1.16585E+01-1.90079E+02-2.66347E+02 3.33311E-09-6.90208E-09
 -1       863-5.44310E+04-8.74180E+00-9.41636E+01 2.71071E+03 6.42619E-09-8.77645E-09
 -1       864-5.44215E+04 1.44722E-01-2.98773E+01-2.65379E+02 3.27925E-09-3.63102E-09
 -1       865-5.44162E+04 1.15431E+01 1.66861E+01 2.70573E+03 3.97070E-09-6.35108E-09
 -1       866-5.44275E+04-8.69686E+00 6.26712E+01-2.61365E+02-5.20117E-11 2.09141E-10
 -1       867-5.43803E+04 7.35654E+01 1.72319E+02 2.69487E+03-7.95893E-10 2.45028E-09
 -1       868-5.44563E+04-6.11413E+01 2.91366E+02-2.54524E+02-9.54060E-10 1.08381E-09
 -1       869-5.41632E+04 5.08539E+02 7.81550E+02 2.67627E+03-8.39989E-10-5.50800E-09
 -1       870-5.46428E+04-4.32401E+02 1.13439E+03-2.42759E+02 7.28392E-10 6.97185E-10
 -1       871-2.41291E+03-5.02633E+03-7.87888E+03 5.16558E+04 1.47702E-09 4.87216E-09
 -1       872-1.04528E+03-6.78523E+03-3.20837E+03 6.69670E+04 2.81625E-09 3.23007E-09
 -1       873-1.80054E+01-5.95326E+03 4.70314E+02 5.15411E+04 1.70053E-09 2.06376E-09
 -1       874 1.22419E+03-4.80457E+03 4.49726E+03 6.69914E+04 2.82409E-09 1.28000E-09
 -1       875 2.89461E+03-7.02702E+03 9.96767E+03 5.16349E+04 1.62072E-09 3.63661E-09
 -1       876 1.29428E+05 2.22977E+04 6.94102E+03 5.25027E+04-2.48275E-09-2.13458E-09
 -1       877 1.29822E+05 2.38237E+04 3.70656E+03 5.45593E+04-4.16856E-09-8.94465E-09
 -1       878 1.30078E+05 2.15286E+04 1.55295E+03 5.30723E+04 2.60366E-09-2.13311E-09
 -1       879 1.28878E+05 2.28837E+04 7.73523E+02 5.46099E+04 1.63470E-09 3.55470E-09
 -1       880 1.30126E+05 2.15194E+04 3.60152E+02 5.30956E+04 1.09026E-09 2.45501E-09
 -1       881 1.28815E+05 2.28440E+04 1.91747E+02 5.46012E+04 4.65781E-09-5.26057E-10
 -1       882 1.30131E+05 2.15246E+04 1.21756E+02 5.30962E+04 4.11285E-09-1.05493E-09
 -1       883 1.28811E+05 2.28422E+04 1.29369E+02 5.45989E+04 6.49777E-10 4.48807E-09
 -1       884 1.30129E+05 2.15230E+04 2.04456E+02 5.30963E+04-7.59030E-10 4.97607E-10
 -1       885 1.28827E+05 2.28452E+04 4.10240E+02 5.46042E+04 3.33847E-09 4.26780E-09
 -1       886 1.30113E+05 2.15110E+04 8.26468E+02 5.30947E+04 3.88304E-09-3.02180E-10
 -1       887 1.28973E+05 2.29403E+04 1.80523E+03 5.46249E+04-2.72584E-09-4.37694E-09
 -1       888 1.29999E+05 2.15314E+04 3.63765E+03 5.30370E+04 4.92065E-10-2.82216E-09
 -1       889 1.31141E+05 2.51908E+04 8.69038E+03 5.45554E+04 8.38739E-10-2.73303E-09
 -1       890 1.28515E+05 2.32927E+04 1.62761E+04 5.16502E+04 2.30409E-09-2.84035E-09
 -1       891-7.78653E+01-7.36274E+04-8.66185E+02 1.40165E+04 7.55904E-10 4.94367E-09
 -1       892-1.35700E+02-7.38374E+04-9.43735E+02 2.12147E+04-9.36325E-10-1.14449E-09
 -1       893-1.85697E+01-7.36567E+04-1.34957E+03 1.40190E+04-2.38970E-10 3.71415E-09
 -1       894-7.31119E+02-7.43616E+04-2.80368E+03 2.11399E+04 4.27463E-10 6.17638E-09
 -1       895-5.69042E+02-7.30782E+04-4.93991E+03 1.40906E+04 5.15456E-10 5.94537E-09
 -1       956-1.62539E+05-2.34517E+03-5.90452E+03 1.07359E+04 2.20598E-09 6.20389E-10
 -1       957-1.63705E+05-7.92047E+02-3.03134E+03 1.29228E+04 1.08253E-08-5.48664E-09
 -1       958-1.63061E+05-6.38575E+01-1.36553E+03 1.06662E+04 9.09631E-09-1.58684E-09
 -1       959-1.63152E+05-1.31878E+01-6.97581E+02 1.29981E+04 3.09228E-11 2.29340E-09
 -1       960-1.63105E+05 1.74477E+01-3.39927E+02 1.06598E+04 1.92199E-09 2.42846E-09
 -1       961-1.63110E+05 1.49584E+01-1.80281E+02 1.30052E+04 3.95073E-09 3.13923E-09
 -1       962-1.63113E+05 1.41078E+01-1.02892E+02 1.06591E+04 3.17164E-09-8.65157E-11
 -1       963-1.63107E+05 1.49688E+01-8.21340E+01 1.30063E+04-2.23849E-09 2.77316E-09
 -1       964-1.63114E+05 1.48114E+01-9.90473E+01 1.06588E+04 4.07567E-10 3.33785E-09
 -1       965-1.63113E+05 1.65641E+01-1.70603E+02 1.30062E+04 2.64553E-09-1.56217E-09
 -1       966-1.63110E+05 1.94969E+01-3.19858E+02 1.06591E+04-1.15602E-09-4.82203E-09
 -1       967-1.63155E+05-8.26060E+00-6.55834E+02 1.30023E+04 4.58385E-10-3.63798E-10
 -1       968-1.63070E+05-5.53827E+01-1.28322E+03 1.06627E+04 3.75394E-10-9.92515E-10
 -1       969-1.63678E+05-7.38872E+02-2.84908E+03 1.29585E+04 5.14774E-10 3.97294E-09
 -1       970-1.62582E+05-2.19856E+03-5.54914E+03 1.07041E+04 1.84400E-09 3.28100E-09
 -1       971-1.54515E+05-8.17724E+02-4.54960E+03 7.61110E+03-1.64755E-09 1.89678E-09
 -1       972-1.55622E+05-5.88096E+02-2.47803E+03 1.06199E+04-1.03682E-09 3.39082E-09
 -1       973-1.55019E+05-6.24656E+00-1.10924E+03 7.54896E+03-2.47292E-09 2.16392E-09
 -1       974-1.55094E+05-8.46404E+00-5.74781E+02 1.06864E+04-3.37195E-10-1.01113E-09
 -1       975-1.55056E+05 1.34770E+01-2.86427E+02 7.54400E+03 1.95541E-11 1.37629E-09
 -1       976-1.55061E+05 1.39493E+01-1.64067E+02 1.06921E+04-2.44108E-09 1.23151E-09
 -1       977-1.55062E+05 1.23099E+01-1.16704E+02 7.54319E+03 1.44701E-09 1.96309E-09
 -1       978-1.55061E+05 1.57724E+01-1.33482E+02 1.06933E+04 8.02015E-09-3.30829E-10
 -1       979-1.55061E+05 1.54201E+01-2.11683E+02 7.54288E+03 4.76504E-09 1.39971E-09
 -1       980-1.55076E+05 1.68570E+01-4.06991E+02 1.06934E+04 3.83169E-09 2.71888E-09
 -1       981-1.55048E+05 2.56193E+01-7.87236E+02 7.54308E+03 6.73651E-10 2.31836E-09
 -1       982-1.55185E+05-4.08569E+01-1.62663E+03 1.06905E+04 2.57046E-10-3.72653E-09
 -1       983-1.54950E+05-2.40811E+01-3.16007E+03 7.54581E+03 1.26579E-09 2.26726E-09
 -1       984-1.56706E+05-1.69000E+03-7.07634E+03 1.06484E+04-6.88601E-10 1.51687E-09
 -1       985-1.53521E+05-2.33567E+03-1.29944E+04 7.58735E+03 2.61412E-09 2.65300E-09
 -3
    1PSTEP                         5           3           1          
  100CL  103 3.75000E-01         409                     0    3           1
 -4  DISP        4    1
 -5  D1          1    2    1    0
 -5  D2          1    2    2    0
 -5  D3          1    2    3    0
 -5  ALL         1    2    0    0    1ALL
 -1         1 9.81711E-05 0.00000E+00 0.00000E+00
 -1         2 9.05554E-05 6.63191E-30 0.00000E+00
 -1         3 8.39379E-05-9.34863E-28 0.00000E+00
 -1         5 6.03105E-05 5.81223E-27 0.00000E+00
 -1         8 7.83869E-05-7.16458E-07 0.00000E+00
 -1         9 7.96652E-05 4.79527E-07 0.00000E+00
 -1        10 7.77658E-05-1.14674E-06-3.30872E-24
 -1        12 5.98887E-05 4.08912E-07 0.00000E+00
 -1        15 5.48430E-05-7.80435E-07 2.06795E-25
 -1        16 5.67282E-05 3.75028E-07 0.00000E+00
 -1        17 5.79380E-05-2.41228E-06 0.00000E+00
 -1        18 5.78330E-05 2.16132E-07 0.00000E+00
 -1        19 5.86236E-05 8.15574E-07 0.00000E+00
 -1        20 5.87303E-05 1.20626E-05 0.00000E+00
 -1        21 5.83281E-05 2.28014E-05 0.00000E+00
 -1        24 1.47874E-05-3.24968E-06 0.00000E+00
 -1        25 5.64922E-05 3.09952E-07 0.00000E+00
 -1        26 5.72395E-05 1.13635E-06 0.00000E+00
 -1        27 5.61084E-05 1.02452E-05 0.00000E+00
 -1        28 5.57426E-05 2.24521E-05 0.00000E+00
 -1        32 0.00000E+00 0.00000E+00 0.00000E+00
 -1        33 5.48784E-05 1.52378E-06 0.00000E+00
 -1        34 5.37855E-05 1.02289E-05 0.00000E+00
 -1        35 5.27466E-05 2.22677E-05 0.00000E+00
 -1        51 9.68843E-05-1.18287E-07 0.00000E+00
 -1        52 9.44992E-05-2.33375E-07 0.00000E+00
 -1        53 9.12321E-05-3.49354E-07 0.00000E+00
 -1        54 8.73075E-05-4.67346E-07 0.00000E+00
 -1        55 8.29505E-05-5.88019E-07 2.68834E-24
 -1        56 9.72779E-05-5.71429E-07 0.00000E+00
 -1        57 9.64923E-05-1.53130E-06 0.00000E+00
 -1        58 9.58131E-05-2.76961E-06 2.64698E-23
 -1        59 9.51938E-05-4.18555E-06 0.00000E+00
 -1        60 9.45980E-05-5.66497E-06-2.64698E-23
 -1        61 9.39825E-05-7.09461E-06 0.00000E+00
 -1        62 9.33065E-05-8.36312E-06-2.64698E-23
 -1        63 9.25300E-05-9.36333E-06 0.00000E+00
 -1        64 9.16176E-05-1.00008E-05 0.00000E+00
 -1        65 9.05371E-05-1.01897E-05-1.32349E-23
 -1        66 8.92643E-05-9.86580E-06-2.64698E-23
 -1        67 8.77799E-05-8.97658E-06 0.00000E+00
 -1        68 8.60733E-05-7.49726E-06 0.00000E+00
 -1        69 8.41451E-05-5.41483E-06-1.32349E-23
 -1        70 8.19946E-05-2.74942E-06 2.64698E-23
 -1        86 9.02721E-05 8.59921E-08 0.00000E+00
 -1        87 8.94212E-05 1.71233E-07 0.00000E+00
 -1        88 8.79757E-05 2.55751E-07 1.65436E-24
 -1        89 8.59066E-05 3.36444E-07 5.16988E-26
 -1        90 8.31564E-05 4.16490E-07-3.30872E-24
 -1       121 8.37658E-05-1.90386E-07 0.00000E+00
 -1       122 8.32498E-05-3.80891E-07 3.30872E-24
 -1       123 8.23904E-05-5.71630E-07 0.00000E+00
 -1       124 8.11888E-05-7.62750E-07 3.30872E-24
 -1       125 7.96466E-05-9.54311E-07 6.61744E-24
 -1       191 6.02988E-05 6.81576E-08 0.00000E+00
 -1       192 6.02636E-05 1.36314E-07 0.00000E+00
 -1       193 6.02050E-05 2.04469E-07 0.00000E+00
 -1       194 6.01230E-05 2.72622E-07 3.30872E-24
 -1       195 6.00176E-05 3.40770E-07 0.00000E+00
 -1       251 7.84491E-05 2.53006E-06-3.30872E-24
 -1       252 7.85291E-05 4.44492E-06 5.16988E-26
 -1       253 7.86096E-05 5.26103E-06 0.00000E+00
 -1       254 7.86932E-05 5.20721E-06 8.27181E-25
 -1       255 7.87766E-05 4.47382E-06 0.00000E+00
 -1       256 7.88601E-05 3.24882E-06 0.00000E+00
 -1       257 7.89432E-05 1.69826E-06 3.30872E-24
 -1       258 7.90262E-05-1.29381E-08 0.00000E+00
 -1       259 7.91092E-05-1.72708E-06 3.30872E-24
 -1       260 7.91923E-05-3.28643E-06-1.65436E-24
 -1       261 7.92757E-05-4.52634E-06 1.65436E-24
 -1       262 7.93591E-05-5.28109E-06 8.27181E-25
 -1       263 7.94427E-05-5.36329E-06 0.00000E+00
 -1       264 7.95232E-05-4.58320E-06 0.00000E+00
 -1       265 7.96031E-05-2.71288E-06 0.00000E+00
 -1       266 7.44630E-05-7.36923E-07 0.00000E+00
 -1       267 7.05390E-05-7.46389E-07-8.27181E-25
 -1       268 6.66150E-05-7.56559E-07 8.27181E-25
 -1       269 6.26910E-05-7.64658E-07-2.06795E-25
 -1       270 5.87670E-05-7.72712E-07-4.13590E-25
 -1       271 7.59993E-05 2.21049E-06 2.64698E-23
 -1       272 7.39716E-05 4.07146E-06 0.00000E+00
 -1       273 7.22985E-05 4.99609E-06 2.64698E-23
 -1       274 7.09232E-05 5.11102E-06 0.00000E+00
 -1       275 6.97973E-05 4.56006E-06 0.00000E+00
 -1       276 6.88630E-05 3.49468E-06 0.00000E+00
 -1       277 6.80610E-05 2.07492E-06 0.00000E+00
 -1       278 6.73297E-05 4.65757E-07-1.32349E-23
 -1       279 6.66063E-05-1.16483E-06 0.00000E+00
 -1       280 6.58281E-05-2.64851E-06 0.00000E+00
 -1       281 6.49331E-05-3.81935E-06 2.64698E-23
 -1       282 6.38612E-05-4.51593E-06-1.32349E-23
 -1       283 6.25541E-05-4.58446E-06 2.64698E-23
 -1       284 6.09606E-05-3.87901E-06 0.00000E+00
 -1       285 5.90250E-05-2.26871E-06 2.64698E-23
 -1       301 7.57753E-05 4.57387E-07 3.30872E-24
 -1       302 7.18885E-05 4.46930E-07 0.00000E+00
 -1       303 6.80226E-05 4.36840E-07-3.30872E-24
 -1       304 6.41954E-05 4.25492E-07 0.00000E+00
 -1       305 6.04247E-05 4.12373E-07-6.61744E-24
 -1       306 7.71983E-05 3.36091E-06 2.64698E-23
 -1       307 7.50995E-05 5.14735E-06 0.00000E+00
 -1       308 7.34188E-05 5.83182E-06-2.64698E-23
 -1       309 7.21385E-05 5.42904E-06 1.32349E-23
 -1       310 7.12097E-05 4.08768E-06 0.00000E+00
 -1       311 7.05625E-05 1.98855E-06 0.00000E+00
 -1       312 7.00967E-05-5.97117E-07-5.29396E-23
 -1       313 6.97042E-05-3.38040E-06 0.00000E+00
 -1       314 6.92689E-05-6.04852E-06 5.29396E-23
 -1       315 6.86759E-05-8.29303E-06 1.32349E-23
 -1       316 6.78286E-05-9.85628E-06 0.00000E+00
 -1       317 6.66409E-05-1.05056E-05 0.00000E+00
 -1       318 6.50637E-05-1.01169E-05-2.64698E-23
 -1       319 6.30714E-05-8.60163E-06 0.00000E+00
 -1       320 6.06695E-05-6.01050E-06 0.00000E+00
 -1       336 7.55040E-05-1.35496E-06 0.00000E+00
 -1       337 7.28188E-05-1.56448E-06-3.30872E-24
 -1       338 6.97142E-05-1.77510E-06 6.61744E-24
 -1       339 6.61953E-05-1.98675E-06 3.30872E-24
 -1       340 6.22677E-05-2.19988E-06 0.00000E+00
 -1       406 5.97364E-05 4.77043E-07 0.00000E+00
 -1       407 5.95606E-05 5.45147E-07 0.00000E+00
 -1       408 5.93614E-05 6.13206E-07-3.30872E-24
 -1       409 5.91387E-05 6.81135E-07 0.00000E+00
 -1       410 5.88927E-05 7.48800E-07-3.30872E-24
 -1       521 5.34243E-05 2.19805E-06 0.00000E+00
 -1       522 5.07713E-05 2.06702E-06-2.64698E-23
 -1       523 4.88068E-05 1.13185E-07 0.00000E+00
 -1       524 4.74272E-05-3.44891E-06 0.00000E+00
 -1       525 4.64590E-05-8.11907E-06 0.00000E+00
 -1       526 4.56885E-05-1.33300E-05 0.00000E+00
 -1       527 4.48730E-05-1.84199E-05 0.00000E+00
 -1       528 4.37700E-05-2.27362E-05 0.00000E+00
 -1       529 4.21857E-05-2.57588E-05 5.29396E-23
 -1       530 3.99558E-05-2.70520E-05 0.00000E+00
 -1       531 3.70245E-05-2.64774E-05 5.29396E-23
 -1       532 3.33837E-05-2.40171E-05 2.64698E-23
 -1       533 2.91439E-05-1.99770E-05 5.29396E-23
 -1       534 2.44704E-05-1.47598E-05 0.00000E+00
 -1       535 1.95767E-05-8.97949E-06-5.29396E-23
 -1       536 5.79183E-05 1.63146E-06 0.00000E+00
 -1       537 5.79079E-05 4.70994E-06 0.00000E+00
 -1       538 5.78993E-05 6.90981E-06 8.27181E-25
 -1       539 5.78933E-05 8.31793E-06 2.06795E-25
 -1       540 5.78879E-05 9.02968E-06-2.06795E-25
 -1       541 5.78831E-05 9.14057E-06 0.00000E+00
 -1       542 5.78782E-05 8.75242E-06 2.06795E-25
 -1       543 5.78731E-05 7.96717E-06 0.00000E+00
 -1       544 5.78678E-05 6.89091E-06-1.03398E-25
 -1       545 5.78623E-05 5.62976E-06 0.00000E+00
 -1       546 5.78567E-05 4.29182E-06-1.03398E-25
 -1       547 5.78512E-05 2.98517E-06 5.16988E-26
 -1       548 5.78459E-05 1.81756E-06 2.58494E-26
 -1       549 5.78410E-05 8.96730E-07 5.16988E-26
 -1       550 5.78364E-05 3.27890E-07 4.13590E-25
 -1       551 5.22178E-05-2.53912E-06-3.30872E-24
 -1       552 4.53763E-05-2.67053E-06-8.27181E-25
 -1       553 3.78103E-05-2.80696E-06-1.65436E-24
 -1       554 2.99223E-05-2.94764E-06 0.00000E+00
 -1       555 2.21148E-05-3.08992E-06 0.00000E+00
 -1       556 5.64368E-05 1.47874E-06 0.00000E+00
 -1       557 5.52895E-05 4.45337E-06 0.00000E+00
 -1       558 5.44574E-05 6.59608E-06 0.00000E+00
 -1       559 5.39055E-05 7.99800E-06 0.00000E+00
 -1       560 5.35983E-05 8.75002E-06 0.00000E+00
 -1       561 5.35012E-05 8.94354E-06 0.00000E+00
 -1       562 5.35793E-05 8.67005E-06 0.00000E+00
 -1       563 5.37981E-05 8.02111E-06 0.00000E+00
 -1       564 5.41232E-05 7.08835E-06-3.30872E-24
 -1       565 5.45202E-05 5.96342E-06 0.00000E+00
 -1       566 5.49548E-05 4.73800E-06 0.00000E+00
 -1       567 5.53926E-05 3.50380E-06 2.06795E-25
 -1       568 5.57995E-05 2.35251E-06 0.00000E+00
 -1       569 5.61411E-05 1.37570E-06 0.00000E+00
 -1       570 5.63832E-05 6.64992E-07 0.00000E+00
 -1       571 5.78810E-05 2.85127E-07-4.13590E-25
 -1       572 5.79300E-05 3.21397E-07 0.00000E+00
 -1       573 5.79794E-05 3.30767E-07 8.27181E-25
 -1       574 5.80289E-05 3.19367E-07-4.13590E-25
 -1       575 5.80784E-05 2.93354E-07 8.27181E-25
 -1       576 5.81280E-05 2.58926E-07 8.27181E-25
 -1       577 5.81776E-05 2.22285E-07 1.65436E-24
 -1       578 5.82272E-05 1.89640E-07 0.00000E+00
 -1       579 5.82768E-05 1.67197E-07-1.65436E-24
 -1       580 5.83263E-05 1.61164E-07 0.00000E+00
 -1       581 5.83759E-05 1.77749E-07-3.30872E-24
 -1       582 5.84255E-05 2.23152E-07 0.00000E+00
 -1       583 5.84751E-05 3.03566E-07 0.00000E+00
 -1       584 5.85246E-05 4.25124E-07 0.00000E+00
 -1       585 5.85742E-05 5.93918E-07-3.30872E-24
 -1       586 5.75928E-05 2.32743E-07 0.00000E+00
 -1       587 5.73315E-05 2.48936E-07 0.00000E+00
 -1       588 5.70699E-05 2.64950E-07-4.13590E-25
 -1       589 5.68290E-05 2.80710E-07 0.00000E+00
 -1       590 5.66296E-05 2.96042E-07 0.00000E+00
 -1       591 5.77841E-05 3.10314E-07-1.03398E-25
 -1       592 5.77435E-05 3.77416E-07 0.00000E+00
 -1       593 5.77109E-05 4.22587E-07-4.13590E-25
 -1       594 5.76846E-05 4.50463E-07-2.06795E-25
 -1       595 5.76629E-05 4.65745E-07-4.13590E-25
 -1       596 5.76442E-05 4.73096E-07 0.00000E+00
 -1       597 5.76267E-05 4.77180E-07 0.00000E+00
 -1       598 5.76087E-05 4.82654E-07 2.06795E-25
 -1       599 5.75884E-05 4.94179E-07 0.00000E+00
 -1       600 5.75641E-05 5.16411E-07 1.03398E-25
 -1       601 5.75340E-05 5.54008E-07 4.13590E-25
 -1       602 5.74965E-05 6.11635E-07 0.00000E+00
 -1       603 5.74498E-05 6.93953E-07-1.03398E-25
 -1       604 5.73922E-05 8.05664E-07 0.00000E+00
 -1       605 5.73221E-05 9.51405E-07 0.00000E+00
 -1       606 5.86328E-05 1.15010E-06-1.65436E-24
 -1       607 5.86402E-05 1.55538E-06 0.00000E+00
 -1       608 5.86472E-05 2.02726E-06 0.00000E+00
 -1       609 5.86539E-05 2.56105E-06 0.00000E+00
 -1       610 5.86605E-05 3.15206E-06 0.00000E+00
 -1       611 5.86670E-05 3.79550E-06 0.00000E+00
 -1       612 5.86735E-05 4.48661E-06 0.00000E+00
 -1       613 5.86799E-05 5.22060E-06 0.00000E+00
 -1       614 5.86864E-05 5.99270E-06-1.65436E-24
 -1       615 5.86928E-05 6.79811E-06 0.00000E+00
 -1       616 5.86991E-05 7.63207E-06 0.00000E+00
 -1       617 5.87055E-05 8.48979E-06 0.00000E+00
 -1       618 5.87118E-05 9.36647E-06 0.00000E+00
 -1       619 5.87181E-05 1.02574E-05 0.00000E+00
 -1       620 5.87243E-05 1.11577E-05 0.00000E+00
 -1       621 5.83586E-05 8.69072E-07 0.00000E+00
 -1       622 5.81127E-05 9.22832E-07 8.27181E-25
 -1       623 5.78820E-05 9.76585E-07 0.00000E+00
 -1       624 5.76623E-05 1.03025E-06-8.27181E-25
 -1       625 5.74495E-05 1.08383E-06 0.00000E+00
 -1       626 5.85553E-05 1.16692E-06 0.00000E+00
 -1       627 5.84656E-05 1.57684E-06 0.00000E+00
 -1       628 5.83559E-05 2.03992E-06 0.00000E+00
 -1       629 5.82286E-05 2.55034E-06 0.00000E+00
 -1       630 5.80856E-05 3.10233E-06 0.00000E+00
 -1       631 5.79292E-05 3.69002E-06 1.65436E-24
 -1       632 5.77617E-05 4.30757E-06 0.00000E+00
 -1       633 5.75851E-05 4.94914E-06 0.00000E+00
 -1       634 5.74016E-05 5.60890E-06 1.65436E-24
 -1       635 5.72136E-05 6.28098E-06 0.00000E+00
 -1       636 5.70231E-05 6.95957E-06 0.00000E+00
 -1       637 5.68323E-05 7.63880E-06 0.00000E+00
 -1       638 5.66434E-05 8.31283E-06 1.65436E-24
 -1       639 5.64586E-05 8.97582E-06 4.13590E-25
 -1       640 5.62798E-05 9.62192E-06 8.27181E-25
 -1       656 5.79786E-05 1.17669E-05 3.30872E-24
 -1       657 5.74927E-05 1.14594E-05 3.30872E-24
 -1       658 5.71705E-05 1.11528E-05-6.61744E-24
 -1       659 5.69078E-05 1.08465E-05 0.00000E+00
 -1       660 5.65913E-05 1.05393E-05 3.30872E-24
 -1       661 5.84523E-05 1.29493E-05 0.00000E+00
 -1       662 5.81909E-05 1.37980E-05 0.00000E+00
 -1       663 5.79433E-05 1.46096E-05 1.65436E-24
 -1       664 5.77094E-05 1.53860E-05-8.27181E-25
 -1       665 5.74882E-05 1.61285E-05 0.00000E+00
 -1       666 5.72792E-05 1.68386E-05 0.00000E+00
 -1       667 5.70818E-05 1.75179E-05 0.00000E+00
 -1       668 5.68956E-05 1.81677E-05 0.00000E+00
 -1       669 5.67199E-05 1.87893E-05-1.65436E-24
 -1       670 5.65543E-05 1.93840E-05 0.00000E+00
 -1       671 5.63983E-05 1.99531E-05 1.65436E-24
 -1       672 5.62514E-05 2.04977E-05 8.27181E-25
 -1       673 5.61132E-05 2.10189E-05 0.00000E+00
 -1       674 5.59828E-05 2.15178E-05 4.13590E-25
 -1       675 5.58606E-05 2.19956E-05-4.13590E-25
 -1       676 5.78963E-05 2.27429E-05 0.00000E+00
 -1       677 5.74647E-05 2.26843E-05 0.00000E+00
 -1       678 5.70334E-05 2.26258E-05 1.65436E-24
 -1       679 5.66025E-05 2.25675E-05 8.27181E-25
 -1       680 5.61722E-05 2.25091E-05 0.00000E+00
 -1       771 1.18385E-05 2.33592E-06 2.64698E-23
 -1       772 9.26865E-06 6.90517E-06 0.00000E+00
 -1       773 7.06205E-06 1.05164E-05 0.00000E+00
 -1       774 5.19424E-06 1.32312E-05 1.32349E-23
 -1       775 3.64125E-06 1.51124E-05-2.64698E-23
 -1       776 2.37815E-06 1.62243E-05 0.00000E+00
 -1       777 1.37971E-06 1.66326E-05 2.64698E-23
 -1       778 6.20288E-07 1.64044E-05 0.00000E+00
 -1       779 7.40401E-08 1.56075E-05-2.64698E-23
 -1       780-2.85253E-07 1.43110E-05-1.32349E-23
 -1       781-4.83892E-07 1.25848E-05 0.00000E+00
 -1       782-5.48471E-07 1.04995E-05-1.32349E-23
 -1       783-5.05634E-07 8.12635E-06-2.64698E-23
 -1       784-3.82170E-07 5.53720E-06 1.32349E-23
 -1       785-2.04969E-07 2.80417E-06 0.00000E+00
 -1       786 5.65362E-05 3.06086E-07 4.13590E-25
 -1       787 5.65828E-05 3.04570E-07 4.13590E-25
 -1       788 5.66292E-05 3.05730E-07 1.65436E-24
 -1       789 5.66761E-05 3.09899E-07 0.00000E+00
 -1       790 5.67231E-05 3.17733E-07 0.00000E+00
 -1       791 5.67701E-05 3.29896E-07-8.27181E-25
 -1       792 5.68171E-05 3.47518E-07 0.00000E+00
 -1       793 5.68642E-05 3.71738E-07 0.00000E+00
 -1       794 5.69113E-05 4.04408E-07 0.00000E+00
 -1       795 5.69583E-05 4.47395E-07 0.00000E+00
 -1       796 5.70054E-05 5.03676E-07-1.65436E-24
 -1       797 5.70524E-05 5.76257E-07-8.27181E-25
 -1       798 5.70995E-05 6.69895E-07 1.65436E-24
 -1       799 5.71463E-05 7.89391E-07 0.00000E+00
 -1       800 5.71933E-05 9.42326E-07 8.27181E-25
 -1       801 5.26765E-05 3.12333E-07 0.00000E+00
 -1       802 4.13178E-05 2.59941E-07 4.13590E-25
 -1       803 2.63956E-05 1.64765E-07 3.30872E-24
 -1       804 1.18878E-05 7.00689E-08 3.30872E-24
 -1       805 1.76400E-06 2.60177E-08 0.00000E+00
 -1       806 5.64361E-05 2.73813E-07 0.00000E+00
 -1       807 5.63776E-05 2.37807E-07-8.27181E-25
 -1       808 5.63173E-05 2.05586E-07 0.00000E+00
 -1       809 5.62541E-05 1.80252E-07-8.27181E-25
 -1       810 5.61871E-05 1.64897E-07-1.65436E-24
 -1       811 5.61152E-05 1.62570E-07-8.27181E-25
 -1       812 5.60373E-05 1.76316E-07 0.00000E+00
 -1       813 5.59521E-05 2.09172E-07-8.27181E-25
 -1       814 5.58587E-05 2.64175E-07 0.00000E+00
 -1       815 5.57558E-05 3.44357E-07 0.00000E+00
 -1       816 5.56423E-05 4.52751E-07 0.00000E+00
 -1       817 5.55172E-05 5.92388E-07-4.13590E-25
 -1       818 5.53792E-05 7.66298E-07-8.27181E-25
 -1       819 5.52273E-05 9.77498E-07 4.13590E-25
 -1       820 5.50605E-05 1.22901E-06-8.27181E-25
 -1       821 5.71729E-05 1.36233E-06 0.00000E+00
 -1       822 5.71022E-05 1.61147E-06 8.27181E-25
 -1       823 5.70317E-05 1.90258E-06 0.00000E+00
 -1       824 5.69605E-05 2.25437E-06 0.00000E+00
 -1       825 5.68892E-05 2.67644E-06 1.65436E-24
 -1       826 5.68177E-05 3.17817E-06-8.27181E-25
 -1       827 5.67461E-05 3.75702E-06-1.65436E-24
 -1       828 5.66745E-05 4.41019E-06 0.00000E+00
 -1       829 5.66029E-05 5.12376E-06 0.00000E+00
 -1       830 5.65312E-05 5.88361E-06-8.27181E-25
 -1       831 5.64596E-05 6.66871E-06 1.65436E-24
 -1       832 5.63880E-05 7.45792E-06 8.27181E-25
 -1       833 5.63166E-05 8.22949E-06 1.65436E-24
 -1       834 5.62459E-05 8.96174E-06 8.27181E-25
 -1       835 5.61750E-05 9.63885E-06 0.00000E+00
 -1       836 5.69542E-05 1.20085E-06 0.00000E+00
 -1       837 5.65836E-05 1.26677E-06-8.27181E-25
 -1       838 5.61592E-05 1.33257E-06 0.00000E+00
 -1       839 5.57124E-05 1.39795E-06 4.13590E-25
 -1       840 5.52750E-05 1.46323E-06 0.00000E+00
 -1       856 5.60881E-05 1.08577E-05 0.00000E+00
 -1       857 5.60655E-05 1.15480E-05 1.03398E-25
 -1       858 5.60430E-05 1.23039E-05 4.13590E-25
 -1       859 5.60200E-05 1.31130E-05 0.00000E+00
 -1       860 5.59970E-05 1.39629E-05 0.00000E+00
 -1       861 5.59738E-05 1.48412E-05 0.00000E+00
 -1       862 5.59507E-05 1.57355E-05 0.00000E+00
 -1       863 5.59275E-05 1.66334E-05-4.13590E-25
 -1       864 5.59043E-05 1.75222E-05 0.00000E+00
 -1       865 5.58812E-05 1.83898E-05-4.13590E-25
 -1       866 5.58580E-05 1.92234E-05 0.00000E+00
 -1       867 5.58349E-05 2.00109E-05 4.13590E-25
 -1       868 5.58118E-05 2.07398E-05 8.27181E-25
 -1       869 5.57888E-05 2.13978E-05 0.00000E+00
 -1       870 5.57658E-05 2.19726E-05 0.00000E+00
 -1       871 5.56422E-05 1.02446E-05-4.13590E-25
 -1       872 5.52506E-05 1.02424E-05 0.00000E+00
 -1       873 5.49016E-05 1.02400E-05-2.06795E-25
 -1       874 5.45627E-05 1.02372E-05-1.03398E-25
 -1       875 5.42014E-05 1.02341E-05-2.06795E-25
 -1       876 5.59467E-05 1.08641E-05 1.65436E-24
 -1       877 5.57723E-05 1.15209E-05-8.27181E-25
 -1       878 5.55856E-05 1.22110E-05-1.65436E-24
 -1       879 5.53881E-05 1.29301E-05-8.27181E-25
 -1       880 5.51814E-05 1.36739E-05 1.65436E-24
 -1       881 5.49670E-05 1.44382E-05 8.27181E-25
 -1       882 5.47466E-05 1.52187E-05 0.00000E+00
 -1       883 5.45216E-05 1.60111E-05 8.27181E-25
 -1       884 5.42938E-05 1.68112E-05-1.65436E-24
 -1       885 5.40647E-05 1.76148E-05 0.00000E+00
 -1       886 5.38358E-05 1.84175E-05-1.65436E-24
 -1       887 5.36088E-05 1.92150E-05-8.27181E-25
 -1       888 5.33852E-05 2.00033E-05-1.65436E-24
 -1       889 5.31664E-05 2.07778E-05-8.27181E-25
 -1       890 5.29540E-05 2.15344E-05 0.00000E+00
 -1       891 5.53281E-05 2.24212E-05 8.27181E-25
 -1       892 5.49002E-05 2.23903E-05-4.13590E-25
 -1       893 5.44435E-05 2.23594E-05 4.13590E-25
 -1       894 5.39425E-05 2.23285E-05 0.00000E+00
 -1       895 5.33819E-05 2.22977E-05 6.20385E-25
 -1       956 5.48113E-05 1.90691E-06-1.65436E-24
 -1       957 5.47432E-05 2.33385E-06 8.27181E-25
 -1       958 5.46749E-05 2.80007E-06 0.00000E+00
 -1       959 5.46064E-05 3.30073E-06-8.27181E-25
 -1       960 5.45379E-05 3.83102E-06 0.00000E+00
 -1       961 5.44693E-05 4.38607E-06 8.27181E-25
 -1       962 5.44007E-05 4.96101E-06 0.00000E+00
 -1       963 5.43322E-05 5.55100E-06 8.27181E-25
 -1       964 5.42636E-05 6.15116E-06 1.65436E-24
 -1       965 5.41950E-05 6.75663E-06 8.27181E-25
 -1       966 5.41264E-05 7.36255E-06-1.65436E-24
 -1       967 5.40578E-05 7.96405E-06 8.27181E-25
 -1       968 5.39893E-05 8.55627E-06 1.65436E-24
 -1       969 5.39209E-05 9.13436E-06 0.00000E+00
 -1       970 5.38527E-05 9.69348E-06 0.00000E+00
 -1       971 5.37214E-05 1.07791E-05 0.00000E+00
 -1       972 5.36564E-05 1.13870E-05 0.00000E+00
 -1       973 5.35913E-05 1.20463E-05 0.00000E+00
 -1       974 5.35261E-05 1.27503E-05 8.27181E-25
 -1       975 5.34608E-05 1.34925E-05-1.65436E-24
 -1       976 5.33955E-05 1.42661E-05-8.27181E-25
 -1       977 5.33302E-05 1.50646E-05 0.00000E+00
 -1       978 5.32648E-05 1.58812E-05 0.00000E+00
 -1       979 5.31994E-05 1.67092E-05 0.00000E+00
 -1       980 5.31341E-05 1.75421E-05 0.00000E+00
 -1       981 5.30687E-05 1.83731E-05 1.65436E-24
 -1       982 5.30035E-05 1.91957E-05-8.27181E-25
 -1       983 5.29383E-05 2.00030E-05 0.00000E+00
 -1       984 5.28734E-05 2.07886E-05 0.00000E+00
 -1       985 5.28088E-05 2.15456E-05 0.00000E+00
 -3
    1PSTEP                         6           3           1          
  100CL  103 3.75000E-01         409                     0    3           1
 -4  STRESS      6    1
 -5  SXX         1    4    1    1
 -5  SYY         1    4    2    2
 -5  SZZ         1    4    3    3
 -5  SXY         1    4    1    2
 -5  SYZ         1    4    2    3
 -5  SZX         1    4    3    1
 -1         1-1.29408E+06-5.95011E+05-2.63761E+05-8.37621E+05-1.30967E-10 1.68802E-09
 -1         2 2.17684E+03 2.48981E+05 7.11881E+03 6.00599E+02-1.29745E-10-7.32712E-09
 -1         3-4.73456E+01-5.44039E+05 1.26356E+02-1.49847E+02-1.12975E-10 2.18370E-09
 -1         5-4.40618E+00 1.95018E+05 5.10937E+00 2.15016E-02 1.35592E-10 1.27825E-08
 -1         8-6.08212E+05-2.64628E+05-1.89820E+04-4.62573E+05 1.61890E-10-9.53150E-10
 -1         9-1.04584E+06-2.67889E+05-1.03156E+05-3.59559E+05 2.87255E-09 2.29338E-09
 -1        10-4.22848E+02-5.66774E+05-7.28875E+02-1.00606E+03-2.60388E-09 8.08275E-09
 -1        12-2.31056E+00 1.95028E+05 1.65679E+02 4.22584E-01 1.72875E-10 2.50793E-10
 -1        15 1.65995E+03 9.05387E+02 5.26493E+03 2.84252E+00-2.19615E-10-6.86654E-08
 -1        16-2.94998E+06-9.47539E+05-4.58767E+05-9.62441E+05 8.86697E-09-2.86188E-09
 -1        17-6.51437E+05-4.00041E+05-1.25470E+05-3.76209E+05-4.53583E-09 9.02219E-11
 -1        18 2.09993E+04 1.64419E+03-9.71232E+03-4.59478E+04 5.94810E-10-3.73666E-09
 -1        19 6.10882E+04 7.28688E+04-3.39324E+02 1.19593E+04-4.75120E-10-1.02773E-09
 -1        20-2.53513E+04-2.88691E+05-6.36629E+04 2.14028E+04 4.16549E-09-3.20445E-10
 -1        21-2.73119E+01-1.67440E+05-5.40874E+02-4.95883E+01-2.91365E-09 6.89814E-10
 -1        24-2.59866E+06-8.91584E+05-3.70289E+05-1.08617E+06-1.29197E-08-6.57261E-09
 -1        25 2.36544E+04-6.78956E+02 1.42117E+04-8.30558E+04 2.76668E-10 5.75528E-09
 -1        26-1.40774E+04 4.98079E+04-9.85532E+03-7.15579E+03 1.18271E-09 6.61415E-09
 -1        27-4.62484E+04-1.58408E+05-5.94314E+04 3.56970E+04 4.64327E-09 1.53962E-09
 -1        28 1.29509E+04-4.62465E+04 9.45438E+03 1.48409E+04 1.90542E-09-1.35935E-09
 -1        32-6.15604E+05-8.36397E+04 2.68627E+05-4.17128E+05-1.24273E-08 1.19379E-08
 -1        33-9.05771E+04 4.65998E+04 1.65181E+04-2.70997E+04 9.43203E-10 3.79229E-09
 -1        34-1.17628E+05-1.17042E+04 2.76733E+02 3.61557E+04 2.29379E-09 6.04753E-09
 -1        35-1.31732E+04-1.83877E+04-7.18616E+02 2.91645E+04 5.05665E-09-7.59125E-10
 -1        51 1.13997E+04-3.03370E+05 2.88156E+04-7.55955E+05 4.36557E-11 7.30506E-09
 -1        52 6.56071E+03-3.01761E+05 1.93119E+04-8.81692E+05 4.65661E-10-8.93488E-09
 -1        53 4.65669E+03-3.10524E+05 1.69966E+04-7.53359E+05 2.47383E-10-8.87667E-10
 -1        54 1.40734E+04-3.08552E+05 2.77917E+04-8.84425E+05 2.98314E-10 2.61934E-09
 -1        55 2.96071E+04-3.18934E+05 5.00679E+04-7.52983E+05 2.76486E-10-3.07409E-09
 -1        56-2.48524E+06-2.80619E+05-1.94299E+05-9.58131E+05 3.89264E-10-9.51695E-09
 -1        57-2.56229E+06-4.57350E+05-1.30960E+05-9.51763E+05 9.88166E-10-2.25555E-09
 -1        58-2.52439E+06-3.42026E+05-4.57296E+04-9.45794E+05-1.22054E-09 3.27600E-09
 -1        59-2.51696E+06-3.85374E+05-2.72986E+04-9.66596E+05 7.87736E-10 1.07848E-08
 -1        60-2.53018E+06-3.50510E+05-1.06839E+04-9.44040E+05 3.53111E-10-6.61657E-09
 -1        61-2.51100E+06-3.74674E+05-6.07394E+03-9.67743E+05 3.55158E-10-6.27961E-09
 -1        62-2.53027E+06-3.52468E+05-2.93079E+03-9.44720E+05-1.09139E-11-8.69424E-09
 -1        63-2.51246E+06-3.71029E+05-2.40178E+03-9.65110E+05-3.31511E-10 1.15006E-09
 -1        64-2.52865E+06-3.54167E+05-2.77709E+03-9.46635E+05-1.91199E-09 8.25594E-10
 -1        65-2.51707E+06-3.68113E+05-5.53157E+03-9.60258E+05-4.32806E-10-2.47132E-09
 -1        66-2.52559E+06-3.55460E+05-9.76825E+03-9.49509E+05 9.07903E-10 3.06682E-09
 -1        67-2.52788E+06-3.72317E+05-2.47533E+04-9.52860E+05-3.83693E-11-4.91445E-09
 -1        68-2.51786E+06-3.50237E+05-4.15823E+04-9.53922E+05 1.10367E-09-9.90804E-09
 -1        69-2.57322E+06-4.33582E+05-1.18896E+05-9.34799E+05 2.91038E-11-4.71482E-09
 -1        70-2.48065E+06-2.96057E+05-1.76494E+05-9.66924E+05-8.65839E-10 1.68075E-09
 -1        86-1.09244E+03 2.46743E+05 7.61752E+03-3.00317E+02 9.41782E-10 5.79411E-09
 -1        87 7.24858E+03 2.51469E+05 1.59066E+04 1.23902E+03 1.56774E-09 1.44671E-08
 -1        88-6.15038E+03 2.44257E+05 2.43359E+04-9.38749E+02 2.36287E-09 8.42402E-09
 -1        89 4.58341E+04 2.69492E+05 6.56575E+04 2.68561E+03 3.59069E-09-1.18124E-08
 -1        90-3.95546E+04 2.28735E+05 9.27176E+04-1.74653E+03 4.20550E-09 4.33215E-09
 -1       121-7.87971E+01-5.44277E+05 1.13020E+02 7.48547E+01 2.89283E-10-1.71258E-09
 -1       122-5.71884E+00-5.44012E+05 2.75102E+02-2.99755E+02-1.01633E-09 1.05319E-09
 -1       123-1.08524E+02-5.44307E+05 4.38257E+02 2.24492E+02 8.63963E-10 3.43334E-09
 -1       124 5.01568E+02-5.43703E+05 1.15180E+03-6.94444E+02-1.91130E-09-8.84029E-10
 -1       125-4.37235E+02-5.44593E+05 1.75934E+03 4.69456E+02 1.26511E-09 5.14501E-09
 -1       191-4.79485E+00 1.95034E+05 6.07124E+00-1.12069E-02 1.34067E-10 1.19376E-08
 -1       192-4.87579E+00 1.95018E+05 1.08202E+01 4.25362E-01 1.52146E-10 1.50437E-08
 -1       193-6.04351E+00 1.95034E+05 2.00881E+01-4.17250E-01 1.98146E-10 1.20340E-08
 -1       194-6.38709E+00 1.95019E+05 4.09331E+01 1.11630E+00 1.64553E-10 2.94790E-09
 -1       195-8.44339E+00 1.95032E+05 8.00332E+01-7.07201E-01 3.38250E-10 3.04590E-09
 -1       251 2.22879E+05-3.86443E+04 9.02265E+04 3.81058E+03 4.44516E-11-7.71252E-10
 -1       252 2.64039E+05 4.47080E+04 6.40228E+04-1.21792E+04-4.79758E-11 1.49157E-09
 -1       253 2.38456E+05-5.98260E+03 2.33516E+04 2.57319E+03-1.87526E-10 2.19006E-09
 -1       254 2.45681E+05 6.91143E+03 1.47665E+04-1.02318E+04 8.78828E-10 1.43245E-11
 -1       255 2.41159E+05-9.23822E+02 6.03329E+03 1.86342E+03 7.10259E-11 4.08704E-09
 -1       256 2.42446E+05 1.09697E+03 3.66844E+03-9.18552E+03-2.82853E-10 4.61540E-09
 -1       257 2.41657E+05-1.61274E+02 1.88594E+03 1.52685E+03-4.31143E-10-5.34669E-10
 -1       258 2.41939E+05 3.42108E+02 1.66816E+03-8.84581E+03 5.53788E-11 2.76465E-10
 -1       259 2.41656E+05-1.63637E+02 1.90829E+03 1.52372E+03-1.41839E-10 1.37254E-09
 -1       260 2.42453E+05 1.11776E+03 3.73164E+03-9.17362E+03 3.37195E-10-3.96540E-10
 -1       261 2.41152E+05-9.41926E+02 6.14939E+03 1.85465E+03 4.75296E-10 2.03318E-09
 -1       262 2.45739E+05 7.04812E+03 1.50520E+04-1.02059E+04 1.21389E-10 1.62527E-09
 -1       263 2.38404E+05-6.10014E+03 2.38136E+04 2.55602E+03-3.55783E-10 3.72893E-10
 -1       264 2.64432E+05 4.55884E+04 6.52746E+04-1.21365E+04-1.65696E-09-1.67347E-09
 -1       265 2.22536E+05-3.94024E+04 9.20113E+04 3.78507E+03-5.58998E-10 3.87081E-09
 -1       266-2.96443E+04-1.37895E+04 6.90236E+04-5.97268E+01-2.80124E-10-1.03682E-07
 -1       267 3.43488E+04 1.60868E+04 4.88664E+04 6.87949E+01-7.56700E-10-2.02765E-07
 -1       268-4.64067E+03-2.28983E+03 1.81280E+04-8.85587E+00-6.04814E-10-1.59710E-07
 -1       269 5.47854E+03 2.74292E+03 1.18127E+04 1.03054E+01-4.55884E-10-1.11208E-07
 -1       270-8.28826E+02-4.52687E+02 5.68802E+03-1.41696E+00-3.25826E-10-9.14712E-08
 -1       271-2.87154E+06-3.58480E+05-2.20621E+05-1.11874E+06 1.24237E-09 5.32600E-09
 -1       272-2.93415E+06-5.35782E+05-1.41817E+05-1.13550E+06-2.28283E-10 4.71118E-09
 -1       273-2.91391E+06-4.12530E+05-5.21156E+04-1.10795E+06-3.65617E-10-3.45608E-09
 -1       274-2.88452E+06-4.69693E+05-2.91565E+04-1.15229E+06 4.28372E-10-1.06229E-09
 -1       275-2.92070E+06-4.17115E+05-1.21228E+04-1.10506E+06 2.83762E-09 1.46701E-09
 -1       276-2.87646E+06-4.64388E+05-6.43695E+03-1.15699E+06 9.09495E-13 1.01477E-09
 -1       277-2.92234E+06-4.16795E+05-3.14979E+03-1.10387E+06-3.71983E-10-5.53655E-10
 -1       278-2.87492E+06-4.64556E+05-2.29069E+03-1.15842E+06 1.44314E-09-7.23355E-09
 -1       279-2.92244E+06-4.16758E+05-2.46077E+03-1.10380E+06-7.35554E-10-3.18505E-09
 -1       280-2.87600E+06-4.64286E+05-4.51009E+03-1.15732E+06-7.24867E-10 8.23047E-09
 -1       281-2.92111E+06-4.17205E+05-8.26575E+03-1.10483E+06 1.79170E-10 1.69712E-09
 -1       282-2.88203E+06-4.67164E+05-1.97156E+04-1.15324E+06-1.28239E-09 2.66527E-09
 -1       283-2.91601E+06-4.14670E+05-3.52374E+04-1.10736E+06 7.79892E-10-3.04317E-09
 -1       284-2.91664E+06-5.10495E+05-9.57411E+04-1.14028E+06-3.21961E-10-4.42924E-09
 -1       285-2.88660E+06-3.79050E+05-1.49079E+05-1.11555E+06 1.42791E-09-5.05679E-09
 -1       301 1.10308E+04-6.67145E+03 8.58572E+04-2.13697E+04-7.56700E-10-3.68431E-09
 -1       302 1.18643E+04 1.51015E+04 6.20647E+04-3.14673E+04 1.32059E-09 2.53726E-09
 -1       303 5.46690E+02 1.03000E+03 5.72392E+04-2.14273E+04-4.92037E-10 6.44241E-09
 -1       304 2.24234E+04 2.48477E+04 9.63988E+04-3.13762E+04 9.24047E-10 1.36720E-09
 -1       305 2.22152E+04-1.63472E+04 1.61847E+05-2.13925E+04-6.98492E-10 2.60479E-09
 -1       306-3.08211E+06-3.56911E+05-2.35195E+05-1.20546E+06 2.15005E-09-3.85626E-09
 -1       307-3.20433E+06-5.54484E+05-1.60335E+05-1.16324E+06 2.92994E-09-8.80391E-10
 -1       308-3.13707E+06-4.28530E+05-5.53567E+04-1.18170E+06 1.28648E-09-3.76531E-09
 -1       309-3.13533E+06-4.76590E+05-3.34744E+04-1.19743E+06-2.10390E-09-2.32376E-09
 -1       310-3.15081E+06-4.33367E+05-1.29979E+04-1.17178E+06-9.20608E-10-1.03500E-09
 -1       311-3.11733E+06-4.73318E+05-7.51007E+03-1.21194E+06 2.20973E-09 8.23684E-09
 -1       312-3.15519E+06-4.31470E+05-3.67572E+03-1.16739E+06-9.83988E-10 5.89375E-09
 -1       313-3.11380E+06-4.74327E+05-3.31045E+03-1.21539E+06-1.93143E-09 9.19567E-09
 -1       314-3.15439E+06-4.32288E+05-3.99246E+03-1.16837E+06-5.05793E-10-7.48423E-09
 -1       315-3.12040E+06-4.70541E+05-8.37762E+03-1.20825E+06 6.73026E-10-1.24021E-09
 -1       316-3.14847E+06-4.35379E+05-1.46926E+04-1.17443E+06 1.68330E-09 1.06866E-09
 -1       317-3.14171E+06-4.73468E+05-3.78665E+04-1.19100E+06 2.97291E-10-1.09280E-08
 -1       318-3.13298E+06-4.29710E+05-6.26395E+04-1.18543E+06-3.19505E-09 5.31145E-09
 -1       319-3.21873E+06-5.63036E+05-1.81535E+05-1.15405E+06-3.31875E-09 6.03723E-09
 -1       320-3.07187E+06-3.47370E+05-2.66147E+05-1.21087E+06 6.66478E-09-5.79166E-09
 -1       336 4.10306E+02-5.89214E+05-3.15358E+03 5.35709E+02-5.27348E-09 2.95859E-09
 -1       337-1.14190E+03-5.90047E+05-3.45518E+03-1.40482E+03-9.63030E-09-2.51202E-09
 -1       338 2.68866E+02-5.89304E+05-4.37056E+03 8.66541E+02-6.91261E-09-5.98266E-09
 -1       339-4.51968E+03-5.92127E+05-9.56340E+03-2.05929E+03-1.26106E-08 5.04133E-09
 -1       340 3.06124E+03-5.87168E+05-1.47472E+04 1.18606E+03-8.25594E-09 1.13596E-09
 -1       406 1.03078E+01 1.95025E+05 3.27059E+02 2.72574E-01 5.21226E-10-2.75895E-09
 -1       407 1.11741E+02 1.95086E+05 6.95209E+02-7.55574E+00 9.08500E-11-7.20138E-09
 -1       408 3.55522E+02 1.94975E+05 1.38844E+03 7.38876E+00 5.66729E-10-5.67115E-09
 -1       409 1.49920E+03 1.95529E+05 3.12593E+03-6.88549E+01 2.86491E-11-1.98270E-09
 -1       410 4.31160E+03 1.94580E+05 6.38147E+03 6.34793E+01 4.80213E-10 1.50249E-09
 -1       521-5.83618E+06-6.74146E+05-4.37397E+05-2.27028E+06 4.02360E-09-6.63567E-09
 -1       522-6.03934E+06-1.05637E+06-2.96842E+05-2.21684E+06-2.11639E-09-1.44792E-09
 -1       523-5.94543E+06-7.97120E+05-1.02878E+05-2.21723E+06 1.72258E-09-1.44064E-09
 -1       524-5.90365E+06-9.22698E+05-6.18339E+04-2.29129E+06 5.06679E-09 1.95359E-09
 -1       525-5.97145E+06-8.04102E+05-2.39419E+04-2.19729E+06 3.99473E-09-6.62112E-10
 -1       526-5.87732E+06-9.10375E+05-1.37787E+04-2.31031E+06 8.68511E-10 1.71667E-11
 -1       527-5.97194E+06-8.08678E+05-6.67736E+03-2.19861E+06 4.29827E-09 9.53378E-10
 -1       528-5.89153E+06-8.89593E+05-5.42692E+03-2.28952E+06-2.75895E-09 2.83057E-09
 -1       529-5.95657E+06-8.25269E+05-6.98352E+03-2.21762E+06-2.50111E-11-4.33010E-09
 -1       530-5.93160E+06-8.52815E+05-1.32032E+04-2.24248E+06-1.34173E-09 9.66338E-11
 -1       531-5.93124E+06-8.45983E+05-2.42261E+04-2.24514E+06-1.32923E-09 6.73026E-11
 -1       532-5.99141E+06-8.33453E+05-6.12098E+04-2.18896E+06-4.52985E-10-1.03273E-08
 -1       533-5.89740E+06-8.44812E+05-1.01951E+05-2.27134E+06 6.22094E-10-1.01099E-08
 -1       534-6.12104E+06-9.75246E+05-2.95093E+05-2.12813E+06-2.81125E-09 9.42600E-09
 -1       535-5.80363E+06-7.06767E+05-4.33651E+05-2.30572E+06-9.03674E-09 7.88714E-09
 -1       536-2.14174E+04-1.59970E+04 3.68198E+04 2.87265E+02-1.44723E-09 1.67711E-09
 -1       537-4.16676E+03 1.85084E+04 2.62696E+04-1.32809E+03-6.44530E-09 7.81711E-10
 -1       538-1.50896E+04-2.50775E+03 9.48936E+03 2.99408E+02 4.20357E-11-1.05138E-09
 -1       539-1.16508E+04 2.89364E+03 6.08492E+03-1.38054E+03 2.35426E-09-3.88491E-09
 -1       540-1.39426E+04-3.90393E+02 2.39053E+03 3.39721E+02-1.17836E-10 2.62514E-09
 -1       541-1.30735E+04 4.45614E+02 1.44189E+03-1.45206E+03-1.31508E-09-1.64135E-10
 -1       542-1.36728E+04-5.74225E+01 5.67772E+02 3.70903E+02 4.63814E-10 1.74376E-09
 -1       543-1.34419E+04 5.31924E+01 2.85750E+02-1.50156E+03 1.61748E-10 5.71417E-09
 -1       544-1.35782E+04 4.67091E+00 2.66029E+01 3.89223E+02 6.99188E-10-4.17330E-10
 -1       545-1.35944E+04-8.22756E+01-2.02865E+02-1.52477E+03-3.88511E-10-5.00029E-09
 -1       546-1.35223E+04 7.93553E+01-4.54747E+02 3.94119E+02 2.84624E-10-7.06166E-10
 -1       547-1.38286E+04-5.85358E+02-1.19235E+03-1.52097E+03-1.82713E-09-8.76682E-10
 -1       548-1.33437E+04 5.07150E+02-1.93428E+03 3.85419E+02-1.82915E-09 2.12913E-09
 -1       549-1.51826E+04-3.73763E+03-5.26729E+03-1.48867E+03-1.10504E-09 4.74915E-09
 -1       550-1.21656E+04 3.22730E+03-7.51018E+03 3.61821E+02 4.03588E-11-1.34150E-10
 -1       551 5.73211E+03-3.08985E+05 1.69873E+04-5.29882E+05-2.34395E-08 7.27596E-10
 -1       552 1.20525E+04-3.09753E+05 2.22730E+04-7.54103E+05-1.79934E-08 2.18279E-09
 -1       553 7.90855E+03-3.13808E+05 3.47372E+04-5.28162E+05-2.92275E-08 8.96398E-09
 -1       554 2.92970E+04-2.98971E+05 7.38195E+04-7.54828E+05-1.81681E-08 3.41834E-09
 -1       555 2.92978E+04-3.27887E+05 1.32641E+05-5.28853E+05-2.80634E-08-3.54703E-09
 -1       556 4.38989E+04-9.91627E+04 3.41504E+04-1.31847E+05-7.66158E-09-1.20854E-08
 -1       557 8.41091E+04-1.32810E+05 1.78945E+04-1.64789E+05-2.32831E-10 2.53567E-09
 -1       558 4.41599E+04-1.03943E+05 7.29834E+03-1.27710E+05-3.87081E-09-1.17325E-09
 -1       559 7.91128E+04-1.37618E+05 3.68400E+03-1.66887E+05 4.21278E-09-3.75712E-09
 -1       560 4.32704E+04-1.03339E+05 1.55563E+03-1.28241E+05 1.40426E-09-1.88174E-09
 -1       561 7.76203E+04-1.37302E+05 8.12221E+02-1.67823E+05-9.45874E-10 2.30580E-09
 -1       562 4.25323E+04-1.02834E+05 3.22571E+02-1.28776E+05-1.91721E-09 2.81943E-09
 -1       563 7.67426E+04-1.36927E+05 1.92106E+02-1.68384E+05-1.86446E-09-6.61561E-09
 -1       564 4.20739E+04-1.02534E+05 6.99944E+01-1.29104E+05 1.69166E-10-9.74796E-09
 -1       565 7.62916E+04-1.36736E+05 3.71185E+01-1.68666E+05 2.24190E-09 1.44428E-09
 -1       566 4.19159E+04-1.02427E+05-2.17931E+01-1.29219E+05-7.04858E-10-4.24825E-09
 -1       567 7.62338E+04-1.36707E+05-9.50804E+01-1.68653E+05 4.40241E-09 2.89947E-09
 -1       568 4.20840E+04-1.02539E+05-2.56258E+02-1.29148E+05-1.11140E-09-5.18412E-10
 -1       569 7.60651E+04-1.36592E+05-6.02248E+02-1.67912E+05-4.25644E-10 3.63798E-10
 -1       570 4.29926E+04-1.03403E+05-1.25611E+03-1.29190E+05 1.70985E-09 2.96041E-10
 -1       571 1.41376E+05 5.12480E+03 7.59298E+03-3.55876E+04 2.87855E-10 2.20484E-09
 -1       572 1.42507E+05 1.78228E+03 3.71992E+03-3.90099E+04 1.21736E-09-3.25485E-09
 -1       573 1.41833E+05 4.24629E+02 1.65252E+03-3.54946E+04 9.90894E-10 4.05566E-09
 -1       574 1.41967E+05 1.37569E+02 8.27844E+02-3.91141E+04 4.25871E-10 1.06957E-09
 -1       575 1.41884E+05 1.83395E+01 3.90126E+02-3.54822E+04-8.99718E-10 2.00089E-09
 -1       576 1.41894E+05 4.46865E+00 1.98505E+02-3.91281E+04-9.88024E-10 3.06318E-09
 -1       577 1.41892E+05-3.42187E+00 9.77182E+01-3.54806E+04-6.06860E-10 7.71706E-10
 -1       578 1.41886E+05-1.83985E+00 5.31531E+01-3.91297E+04-1.35628E-10-1.07229E-09
 -1       579 1.41899E+05-4.05233E+00 3.23645E+01-3.54806E+04 6.46651E-10-6.31962E-09
 -1       580 1.41895E+05-4.87140E+00 2.99271E+01-3.91276E+04 1.05501E-10-9.52696E-10
 -1       581 1.41911E+05-7.63928E+00 4.03966E+01-3.54828E+04 1.20963E-10-1.01818E-09
 -1       582 1.41917E+05-1.22031E+00 7.66877E+01-3.91064E+04-2.03727E-10 6.88078E-09
 -1       583 1.41924E+05 1.85453E+01 1.47181E+02-3.55018E+04-3.87445E-10-1.96110E-10
 -1       584 1.41988E+05 1.33723E+02 3.29784E+02-3.89479E+04-1.07320E-09-8.70045E-10
 -1       585 1.41904E+05 4.25204E+02 6.69973E+02-3.56414E+04 6.63022E-10 1.76078E-09
 -1       586-1.74272E+03 4.61718E+04-2.30864E+03-1.21066E+05 3.77213E-10-2.19120E-09
 -1       587-3.79312E+02 4.58624E+04-2.74150E+02-1.33223E+05 6.16637E-10 8.37190E-10
 -1       588 4.76573E+02 4.59235E+04 1.60267E+03-1.20992E+05 3.57431E-10 2.26100E-09
 -1       589 2.39468E+03 4.68020E+04 4.69013E+03-1.33113E+05 5.54792E-10 3.52793E-09
 -1       590 6.88501E+03 4.53432E+04 1.00519E+04-1.21177E+05 2.78305E-10-1.30967E-10
 -1       591-3.08645E+04-8.85178E+03-1.02760E+04-1.60236E+04 8.50378E-11-2.22690E-09
 -1       592-3.18233E+04-1.13790E+04-5.56592E+03-1.87074E+04-4.73676E-10 8.60615E-09
 -1       593-3.19034E+04-8.09460E+03-2.31714E+03-1.67654E+04 8.50378E-11 1.14414E-09
 -1       594-3.03910E+04-9.88557E+03-1.15568E+03-1.87786E+04 1.88192E-09-1.05331E-09
 -1       595-3.19829E+04-8.09122E+03-5.31109E+02-1.67994E+04 2.82762E-09-1.40484E-09
 -1       596-3.02940E+04-9.81718E+03-2.70738E+02-1.87684E+04 4.36309E-09-1.10771E-09
 -1       597-3.19930E+04-8.09782E+03-1.49037E+02-1.68008E+04 4.09138E-09-3.96733E-09
 -1       598-3.02848E+04-9.81456E+03-1.22762E+02-1.87657E+04 1.21074E-09-9.85494E-10
 -1       599-3.19923E+04-8.09780E+03-1.60481E+02-1.68006E+04 8.74707E-10-5.92081E-09
 -1       600-3.02953E+04-9.81803E+03-3.01094E+02-1.87683E+04-3.06130E-09-3.99257E-09
 -1       601-3.19798E+04-8.09054E+03-5.95490E+02-1.67986E+04-1.06149E-09-2.76248E-09
 -1       602-3.04044E+04-9.89471E+03-1.29870E+03-1.87786E+04-4.29850E-10-5.15121E-09
 -1       603-3.18896E+04-8.09550E+03-2.60481E+03-1.67606E+04-2.61707E-10-1.87811E-10
 -1       604-3.20198E+04-1.15678E+04-6.25730E+03-1.86911E+04-1.32968E-09-4.50927E-09
 -1       605-3.07149E+04-8.95163E+03-1.15523E+04-1.59323E+04 1.24408E-09 4.00814E-09
 -1       606 2.02281E+04-6.80680E+03-1.22606E+04 1.97784E+04-2.39015E-09 1.55524E-09
 -1       607 1.81284E+04-2.19537E+03-6.10524E+03 2.22022E+04-7.28051E-10-5.07157E-09
 -1       608 1.93231E+04-3.69295E+02-2.73368E+03 1.96205E+04 1.37970E-09 1.98702E-09
 -1       609 1.90870E+04-9.68280E+01-1.38085E+03 2.23765E+04-2.68528E-09 1.09771E-08
 -1       610 1.92164E+04 1.69864E+01-6.59356E+02 1.96029E+04-5.21050E-09 5.78348E-09
 -1       611 1.91727E+04 2.44075E+01-3.32661E+02 2.23956E+04-5.56611E-09 2.94722E-09
 -1       612 1.91898E+04 2.61200E+01-1.59054E+02 1.96012E+04-1.09530E-08 7.24299E-09
 -1       613 1.91740E+04 2.87832E+01-7.26046E+01 2.23979E+04-2.33049E-08-6.87510E-09
 -1       614 1.91760E+04 2.52487E+01-2.02884E+01 1.96005E+04-9.41509E-09-1.23941E-09
 -1       615 1.91679E+04 3.13950E+01 2.23894E+01 2.23983E+04 4.91286E-09 1.72759E-09
 -1       616 1.91655E+04 2.82560E+01 7.45826E+01 1.96007E+04-3.76440E-09-3.79009E-09
 -1       617 1.91740E+04 4.92399E+01 1.72998E+02 2.23980E+04-1.95405E-09-1.75942E-09
 -1       618 1.91482E+04 7.96240E+01 3.49788E+02 1.96008E+04 2.97177E-10-2.08411E-09
 -1       619 1.92957E+04 3.21009E+02 7.86182E+02 2.23975E+04 1.49885E-09-3.94243E-09
 -1       620 1.90308E+04 9.10626E+02 1.58041E+03 1.96002E+04 1.66676E-09-1.06002E-09
 -1       621 2.46775E+02 1.54016E+05 2.13435E+03 4.93696E+03-3.15204E-10-9.44738E-10
 -1       622 2.81921E+02 1.54545E+05 1.80986E+03 7.20850E+03-3.48678E-10 2.80971E-09
 -1       623 1.18506E+01 1.54169E+05 2.07921E+03 4.91373E+03-1.98952E-10 3.59000E-09
 -1       624 9.40173E+02 1.55149E+05 3.94644E+03 7.23123E+03-9.50422E-11 2.89120E-09
 -1       625 9.43874E+02 1.53409E+05 6.85982E+03 4.91446E+03-1.01636E-10 2.55170E-09
 -1       626 1.26986E+05 3.52370E+04 2.52930E+03 6.87240E+04-1.00590E-09-1.11413E-09
 -1       627 1.25242E+05 3.65233E+04 1.21852E+03 7.15072E+04-1.78852E-09-5.71163E-10
 -1       628 1.27084E+05 3.40387E+04 5.14850E+02 6.91058E+04 1.63436E-09 2.70734E-09
 -1       629 1.24878E+05 3.62356E+04 2.52250E+02 7.16759E+04 3.28146E-09-5.09419E-09
 -1       630 1.27092E+05 3.39809E+04 1.16733E+02 6.91170E+04 1.88902E-09 7.85514E-09
 -1       631 1.24836E+05 3.62286E+04 6.27359E+01 7.16790E+04-5.76347E-09-3.65191E-10
 -1       632 1.27087E+05 3.39846E+04 4.14832E+01 6.91122E+04-5.71026E-09-9.68532E-09
 -1       633 1.24828E+05 3.62319E+04 4.63419E+01 7.16750E+04-2.62912E-09-2.20894E-09
 -1       634 1.27081E+05 3.39848E+04 7.50971E+01 6.91095E+04 2.78465E-09 2.58171E-09
 -1       635 1.24831E+05 3.62329E+04 1.52317E+02 7.16750E+04-5.51381E-10 9.90963E-09
 -1       636 1.27073E+05 3.39841E+04 3.07714E+02 6.91073E+04-4.07886E-09-4.11069E-09
 -1       637 1.24894E+05 3.62820E+04 6.76343E+02 7.16717E+04 2.41970E-09 3.58409E-09
 -1       638 1.27046E+05 3.41352E+04 1.39012E+03 6.90375E+04-3.71983E-10-4.92719E-10
 -1       639 1.25620E+05 3.72993E+04 3.28865E+03 7.14551E+04-4.14593E-09-6.56382E-09
 -1       640 1.26947E+05 3.71631E+04 6.82496E+03 6.77516E+04-1.79921E-09-2.82580E-09
 -1       656 3.44397E+04-8.71619E+05-8.31487E+04-4.78360E+02 7.38510E-10 5.34286E-09
 -1       657-4.55063E+04-9.09166E+05-6.87625E+04 5.68953E+03-1.75987E-10 2.94222E-09
 -1       658 1.09184E+04-8.82333E+05-4.21960E+04-1.11731E+03 7.86713E-11-6.38257E-09
 -1       659-4.87836E+04-9.10712E+05-7.30669E+04 6.11168E+03-5.77529E-10-2.45461E-10
 -1       660 3.77085E+04-8.70076E+05-9.05573E+04-9.00494E+02 3.89264E-10 3.86140E-09
 -1       661 1.23927E+05 1.34752E+04 1.18784E+04 4.84016E+04 3.30783E-09-2.02817E-10
 -1       662 1.30092E+05 2.28128E+04 8.00406E+03 4.63597E+04 2.30881E-09-7.77300E-09
 -1       663 1.26252E+05 1.72929E+04 2.79989E+03 4.77328E+04 1.58349E-09-4.64149E-09
 -1       664 1.27403E+05 1.83419E+04 1.67390E+03 4.71706E+04-3.05960E-11-6.09404E-10
 -1       665 1.26598E+05 1.78206E+04 6.60333E+02 4.76379E+04-2.06776E-09-1.98108E-09
 -1       666 1.26999E+05 1.77332E+04 3.84997E+02 4.72905E+04-6.20814E-09-5.48803E-09
 -1       667 1.26654E+05 1.78858E+04 2.02995E+02 4.76189E+04-1.21825E-09 3.43809E-10
 -1       668 1.26941E+05 1.76792E+04 2.03230E+02 4.73166E+04 4.24106E-09-9.31095E-11
 -1       669 1.26656E+05 1.78731E+04 2.72308E+02 4.76123E+04 1.33804E-09 1.17547E-09
 -1       670 1.27013E+05 1.78193E+04 5.90166E+02 4.73117E+04 3.57871E-09 4.16817E-09
 -1       671 1.26582E+05 1.77486E+04 1.04705E+03 4.76227E+04-2.08800E-09 1.69388E-09
 -1       672 1.27628E+05 1.88339E+04 2.67813E+03 4.71598E+04-3.45784E-09-3.07480E-09
 -1       673 1.26045E+05 1.68842E+04 4.48788E+03 4.77545E+04-1.82166E-09-1.22759E-09
 -1       674 1.31904E+05 2.60397E+04 1.28347E+04 4.58996E+04 1.49885E-09-8.44739E-09
 -1       675 1.22333E+05 1.07443E+04 1.90503E+04 4.88070E+04 1.35287E-09 1.10776E-09
 -1       676 1.40375E+01-1.67395E+05-6.51889E+02 2.47948E+01 1.78034E-10-3.55861E-09
 -1       677-1.73027E+02-1.67553E+05-1.19300E+03-4.95760E+01-6.49216E-09-1.00156E-08
 -1       678 1.15545E+02-1.67283E+05-2.10889E+03 2.47641E+01 7.54767E-10-9.98353E-09
 -1       679-2.10920E+03-1.68826E+05-5.00954E+03-4.94478E+01-1.70178E-09-2.02293E-09
 -1       680 1.25872E+03-1.66123E+05-8.07375E+03 2.43821E+01 7.22139E-10-9.31803E-09
 -1       771-1.79985E+06-3.13600E+05-4.39273E+04-7.45319E+05-6.51198E-09-4.87489E-09
 -1       772-1.78878E+06-3.37425E+05-2.35826E+04-7.71858E+05-3.76895E-09 3.01134E-09
 -1       773-1.80575E+06-3.09031E+05-1.01583E+04-7.47779E+05-3.48518E-09 3.62706E-09
 -1       774-1.78241E+06-3.32190E+05-4.95065E+03-7.74376E+05 2.42653E-09-5.80985E-09
 -1       775-1.80703E+06-3.08225E+05-2.49489E+03-7.47933E+05-1.19326E-09 8.38554E-10
 -1       776-1.78225E+06-3.32195E+05-1.15212E+03-7.75665E+05-8.03993E-10 1.25874E-09
 -1       777-1.80790E+06-3.07611E+05-7.10774E+02-7.48001E+05-2.11003E-10 1.11686E-09
 -1       778-1.78246E+06-3.32365E+05-3.16993E+02-7.76732E+05 1.86265E-09 2.77169E-09
 -1       779-1.80857E+06-3.07088E+05-3.09928E+02-7.48061E+05-1.94268E-09-2.01726E-09
 -1       780-1.78269E+06-3.32511E+05-2.42169E+02-7.77596E+05-2.83762E-09-6.18456E-11
 -1       781-1.80908E+06-3.06668E+05-4.31997E+02-7.48104E+05-7.26504E-09-1.13459E-09
 -1       782-1.78292E+06-3.32658E+05-7.86040E+02-7.78231E+05-8.41737E-09-2.32126E-09
 -1       783-1.80938E+06-3.06395E+05-1.57317E+03-7.48117E+05-1.20781E-09-3.15310E-09
 -1       784-1.78398E+06-3.33725E+05-3.72625E+03-7.78576E+05-3.77986E-09 3.03544E-11
 -1       785-1.80887E+06-3.06751E+05-6.89001E+03-7.47630E+05-7.88168E-09 1.01954E-09
 -1       786 1.31450E+05-7.00748E+03 1.62114E+04 2.95350E-01 1.83711E-07 3.19233E-09
 -1       787 1.38475E+05 8.11246E+03 1.14694E+04-4.76119E+00 3.65041E-07 1.08091E-08
 -1       788 1.34161E+05-1.09850E+03 4.19593E+03 2.00314E+00 4.74171E-07 5.02723E-10
 -1       789 1.35318E+05 1.27103E+03 2.63636E+03-8.77254E+00 5.82934E-07 7.43478E-09
 -1       790 1.34608E+05-1.71605E+02 1.07277E+03 4.30673E+00 7.59315E-07-6.77915E-09
 -1       791 1.34796E+05 1.99395E+02 6.29952E+02-1.44999E+01 9.36922E-07 1.46223E-09
 -1       792 1.34683E+05-2.76697E+01 2.87696E+02 7.73055E+00 1.28191E-06-1.02334E-08
 -1       793 1.34712E+05 3.89513E+01 1.88914E+02-2.32274E+01 1.62416E-06 6.76337E-10
 -1       794 1.34692E+05-1.12675E+01 1.40534E+02 1.30344E+01 8.12362E-07-1.37143E-08
 -1       795 1.34720E+05 5.83621E+01 2.04146E+02-3.68792E+01 2.77877E-09 2.20324E-09
 -1       796 1.34674E+05-4.70661E+01 3.06317E+02 2.13826E+01 5.93219E-11-4.14991E-09
 -1       797 1.34859E+05 3.45083E+02 7.22688E+02-5.84571E+01-3.19765E-10-5.02007E-09
 -1       798 1.34553E+05-2.97777E+02 1.14088E+03 3.46127E+01-1.50247E-10-4.63137E-09
 -1       799 1.35715E+05 2.19867E+03 3.11037E+03-9.29179E+01-5.61984E-10 4.70209E-10
 -1       800 1.33818E+05-1.89916E+03 4.39372E+03 5.58437E+01-1.04234E-10 2.06205E-09
 -1       801-8.18417E+03 8.92866E+03 1.09151E+04 1.40472E+04 7.70524E-09-9.41168E-09
 -1       802 2.03490E+04 7.42373E+04 3.92756E+04-5.78179E+04 2.07829E-08-7.92704E-09
 -1       803-1.15863E+04 3.37472E+04 4.92365E+04 1.31409E+04 1.62654E-08 1.04269E-08
 -1       804 9.56445E+04 1.15345E+05 1.38029E+05-5.85768E+04 1.92995E-08 1.70530E-08
 -1       805-8.35212E+04-3.19700E+04 1.77194E+05 1.48043E+04 6.82485E-09 1.91365E-08
 -1       806-1.54027E+05-3.30415E+04-1.31089E+04-6.41842E+04-5.63887E-10-2.44336E-09
 -1       807-1.54794E+05-3.11688E+04-6.44007E+03-6.76652E+04 1.22282E-09-4.17751E-09
 -1       808-1.54399E+05-2.83055E+04-2.73191E+03-6.64078E+04 1.61606E-09-1.60048E-09
 -1       809-1.53420E+05-2.93808E+04-1.33556E+03-6.78512E+04 2.29466E-09 3.69727E-09
 -1       810-1.54457E+05-2.81383E+04-6.11532E+02-6.65060E+04 1.88584E-09 4.47301E-09
 -1       811-1.53315E+05-2.93101E+04-3.03278E+02-6.78357E+04 6.57224E-10 7.18842E-10
 -1       812-1.54468E+05-2.81505E+04-1.51303E+02-6.65059E+04-4.49290E-10 2.29875E-09
 -1       813-1.53301E+05-2.93119E+04-9.54239E+01-6.78278E+04-4.72369E-10 1.94950E-09
 -1       814-1.54467E+05-2.81549E+04-8.93822E+01-6.65040E+04-2.34013E-09-9.76138E-09
 -1       815-1.53303E+05-2.93133E+04-1.39903E+02-6.78259E+04 2.97860E-11-5.18912E-09
 -1       816-1.54458E+05-2.81536E+04-2.62039E+02-6.65024E+04-3.68345E-11 6.34145E-10
 -1       817-1.53348E+05-2.93383E+04-5.61922E+02-6.78216E+04 1.64187E-09 4.78451E-09
 -1       818-1.54425E+05-2.82321E+04-1.14511E+03-6.64654E+04-2.83899E-09-9.63018E-09
 -1       819-1.53981E+05-3.00254E+04-2.69530E+03-6.76688E+04 1.87174E-09 4.77826E-09
 -1       820-1.54208E+05-3.02700E+04-5.48528E+03-6.55970E+04-1.10595E-09 2.35298E-09
 -1       821-1.99240E+05 1.10594E+04-2.55784E+04 2.76253E+01-3.92880E-10-8.53106E-10
 -1       822-2.10324E+05-1.28031E+04-1.80999E+04-3.14405E+02-1.60991E-09 5.15911E-10
 -1       823-2.03518E+05 1.73373E+03-6.62495E+03-1.14252E+01 7.84679E-10 2.04636E-10
 -1       824-2.05339E+05-2.00674E+03-4.16884E+03-2.08640E+02 1.80144E-10 1.91960E-09
 -1       825-2.04224E+05 2.71407E+02-1.71285E+03-7.81429E+01-2.91851E-09-1.79023E-09
 -1       826-2.04518E+05-3.20128E+02-1.03542E+03-6.86200E+01-5.36200E-09 1.11856E-09
 -1       827-2.04339E+05 4.83226E+01-5.34638E+02-1.51448E+02-3.22781E-09-2.51534E-09
 -1       828-2.04405E+05-9.77881E+01-4.74098E+02 6.21516E+01-4.14851E-09-2.90548E-10
 -1       829-2.04337E+05 4.92569E+01-5.42489E+02-2.08917E+02-9.50413E-10-1.36765E-10
 -1       830-2.04527E+05-3.27896E+02-1.06009E+03 1.43697E+02 1.39185E-09-1.09623E-09
 -1       831-2.04217E+05 2.78330E+02-1.75487E+03-2.32995E+02-2.06451E-09-3.11661E-09
 -1       832-2.05369E+05-2.05802E+03-4.27618E+03 1.51478E+02-1.07589E-09 3.55612E-10
 -1       833-2.03495E+05 1.77813E+03-6.79474E+03-2.16697E+02-1.37840E-09 1.26693E-09
 -1       834-2.10477E+05-1.31318E+04-1.85649E+04 8.48901E+01-2.02597E-09 3.40970E-09
 -1       835-1.99110E+05 1.13434E+04-2.62365E+04-1.66401E+02 3.70179E-09 6.37374E-09
 -1       836-6.63851E+02 1.88884E+05 1.13725E+04-1.66412E+04 1.39562E-09 1.46929E-09
 -1       837 2.50260E+03 1.92406E+05 9.70423E+03-3.34329E+04 2.02044E-09-1.72611E-09
 -1       838-2.44557E+02 1.89866E+05 1.00006E+04-1.65841E+04 1.85537E-09 1.58150E-09
 -1       839 6.41545E+03 1.95327E+05 1.90298E+04-3.34535E+04 2.45927E-09-1.96734E-09
 -1       840-1.92993E+03 1.85942E+05 3.03910E+04-1.66196E+04 1.69530E-09 5.28530E-09
 -1       856-6.25290E+04 5.33948E+03-1.40701E+04-3.07610E+02-2.37219E-09 2.84035E-09
 -1       857-6.83420E+04-6.26288E+03-9.68726E+03 3.21657E+03-2.84500E-09-1.00283E-09
 -1       858-6.48256E+04 7.48290E+02-3.65158E+03-3.19442E+02-1.58244E-09-3.15481E-09
 -1       859-6.57039E+04-8.70743E+02-2.20562E+03 3.23530E+03 7.45061E-10-3.18585E-09
 -1       860-6.51691E+04 1.04163E+02-9.27431E+02-3.26423E+02 1.21311E-09-2.63145E-09
 -1       861-6.53079E+04-1.15976E+02-5.16780E+02 3.24480E+03-2.41346E-09 4.47170E-09
 -1       862-6.52226E+04 1.38999E+01-2.27965E+02-3.28958E+02 2.96115E-09-3.74148E-09
 -1       863-6.52447E+04-9.57756E+00-1.12884E+02 3.24593E+03 8.49156E-09-7.91077E-09
 -1       864-6.52324E+04 7.62224E-02-3.57316E+01-3.27556E+02 2.79843E-09-2.69552E-09
 -1       865-6.52268E+04 1.47432E+01 2.02944E+01 3.23879E+03 4.81629E-09 2.91722E-09
 -1       866-6.52398E+04-1.05988E+01 7.55706E+01-3.21825E+02-2.08072E-09 3.85257E-09
 -1       867-6.51829E+04 8.93744E+01 2.07836E+02 3.22328E+03-7.09534E-10 7.63731E-09
 -1       868-6.52745E+04-7.38645E+01 3.51111E+02-3.12037E+02 6.87805E-10-1.09858E-09
 -1       869-6.49204E+04 6.13557E+02 9.42260E+02 3.19712E+03-1.65642E-10-6.53351E-09
 -1       870-6.54997E+04-5.21492E+02 1.36715E+03-2.95674E+02 4.57590E-10-3.64713E-09
 -1       871-2.90711E+03-6.03946E+03-9.45899E+03 6.19982E+04 2.27465E-09 7.09406E-10
 -1       872-1.26417E+03-8.15208E+03-3.85162E+03 8.03754E+04 3.45972E-09-8.87667E-10
 -1       873-2.83053E+01-7.15810E+03 5.63640E+02 6.18609E+04 2.28147E-09 6.39034E-10
 -1       874 1.46055E+03-5.77695E+03 5.39638E+03 8.04045E+04 4.19232E-09 4.34136E-09
 -1       875 3.46464E+03-8.44340E+03 1.19600E+04 6.19740E+04 2.09275E-09 6.38238E-09
 -1       876 1.55311E+05 2.67734E+04 8.32927E+03 6.30232E+04-1.92495E-09-1.41426E-09
 -1       877 1.55782E+05 2.86061E+04 4.44794E+03 6.54921E+04-3.12764E-09-1.18359E-09
 -1       878 1.56090E+05 2.58508E+04 1.86353E+03 6.37069E+04 3.29010E-09 3.74939E-09
 -1       879 1.54649E+05 2.74780E+04 9.28254E+02 6.55523E+04 1.64880E-09 8.42599E-09
 -1       880 1.56148E+05 2.58401E+04 4.32174E+02 6.37348E+04 2.06023E-09 2.79005E-09
 -1       881 1.54574E+05 2.74303E+04 2.30110E+02 6.55413E+04 4.22688E-09 7.16043E-09
 -1       882 1.56154E+05 2.58465E+04 1.46112E+02 6.37356E+04 5.45208E-09 3.23806E-09
 -1       883 1.54569E+05 2.74281E+04 1.55264E+02 6.55384E+04 1.92858E-09 2.91971E-09
 -1       884 1.56151E+05 2.58446E+04 2.45376E+02 6.37357E+04 1.06513E-09 1.71809E-10
 -1       885 1.54588E+05 2.74317E+04 4.92340E+02 6.55447E+04-7.53744E-11-5.01291E-09
 -1       886 1.56132E+05 2.58303E+04 9.91848E+02 6.37337E+04 2.33052E-09-3.30056E-09
 -1       887 1.54763E+05 2.75459E+04 2.16644E+03 6.55696E+04-1.47567E-09-6.04564E-09
 -1       888 1.55995E+05 2.58546E+04 4.36547E+03 6.36644E+04-9.91150E-10 2.42539E-09
 -1       889 1.57364E+05 3.02465E+04 1.04290E+04 6.54864E+04 8.32085E-10-1.89175E-10
 -1       890 1.54215E+05 2.79679E+04 1.95325E+04 6.19998E+04 3.14185E-09 4.47471E-09
 -1       891-9.57578E+01-8.83518E+04-1.04006E+03 1.68309E+04-1.34037E-09-1.44416E-09
 -1       892-1.66588E+02-8.86022E+04-1.13283E+03 2.54714E+04 5.55929E-11-2.28465E-09
 -1       893-2.53821E+01-8.83859E+04-1.61986E+03 1.68340E+04 5.26370E-10-1.02500E-09
 -1       894-8.82381E+02-8.92285E+04-3.36475E+03 2.53813E+04-2.53931E-09 9.47693E-09
 -1       895-6.87672E+02-8.76894E+04-5.92891E+03 1.69199E+04 1.00852E-09 6.42285E-09
 -1       956-1.95065E+05-2.81469E+03-7.08836E+03 1.28798E+04 1.33377E-09-2.63231E-09
 -1       957-1.96465E+05-9.49505E+02-3.63904E+03 1.55059E+04 6.81325E-09-8.75025E-09
 -1       958-1.95692E+05-7.54907E+01-1.63935E+03 1.27958E+04 5.99766E-09-6.13841E-09
 -1       959-1.95803E+05-1.38299E+01-8.37418E+02 1.55966E+04-7.52607E-11 8.53572E-09
 -1       960-1.95747E+05 2.27122E+01-4.08105E+02 1.27881E+04-2.51657E-09 1.04035E-09
 -1       961-1.95753E+05 2.04882E+01-2.16407E+02 1.56054E+04-3.74609E-09 1.11572E-09
 -1       962-1.95757E+05 1.91146E+01-1.23515E+02 1.27870E+04-5.18367E-09 1.79534E-09
 -1       963-1.95750E+05 2.08246E+01-9.85638E+01 1.56068E+04-1.26838E-08 5.30019E-09
 -1       964-1.95759E+05 2.01696E+01-1.18856E+02 1.27866E+04-6.10942E-09 1.62720E-09
 -1       965-1.95757E+05 2.28537E+01-2.04714E+02 1.56068E+04 2.08822E-09-3.82477E-09
 -1       966-1.95753E+05 2.58022E+01-3.83835E+02 1.27870E+04-1.56348E-09-2.10787E-09
 -1       967-1.95808E+05-7.03233E+00-7.87026E+02 1.56021E+04-6.48072E-10-3.13196E-09
 -1       968-1.95705E+05-6.42444E+01-1.53996E+03 1.27914E+04 7.83302E-10 2.38491E-09
 -1       969-1.96435E+05-8.84122E+02-3.41913E+03 1.55493E+04 2.03499E-09-3.28897E-09
 -1       970-1.95119E+05-2.63652E+03-6.65952E+03 1.28414E+04 1.89357E-09 8.23093E-10
 -1       971-1.85430E+05-9.80720E+02-5.45973E+03 9.10983E+03-5.19731E-09 1.19454E-09
 -1       972-1.86758E+05-7.03972E+02-2.97362E+03 1.27179E+04-2.94040E-09-3.29669E-09
 -1       973-1.86035E+05-6.30480E+00-1.33121E+03 9.03483E+03-1.89311E-09-2.06535E-09
 -1       974-1.86127E+05-7.71477E+00-6.89738E+02 1.27984E+04 2.63753E-11 2.00657E-09
 -1       975-1.86080E+05 1.79505E+01-3.43772E+02 9.02861E+03 1.69621E-10-1.36470E-09
 -1       976-1.86087E+05 1.97084E+01-1.96872E+02 1.28057E+04-8.17408E-10 2.81455E-09
 -1       977-1.86088E+05 1.69366E+01-1.40057E+02 9.02745E+03 2.64845E-09 2.46496E-09
 -1       978-1.86088E+05 2.22018E+01-1.60162E+02 1.28073E+04 9.50359E-09-2.99963E-10
 -1       979-1.86088E+05 2.08484E+01-2.54015E+02 9.02699E+03 6.41643E-09-4.22813E-09
 -1       980-1.86106E+05 2.35843E+01-4.88393E+02 1.28075E+04 4.46880E-09-3.76411E-09
 -1       981-1.86072E+05 3.30599E+01-9.44734E+02 9.02725E+03-1.70269E-09 1.99208E-09
 -1       982-1.86236E+05-4.58244E+01-1.95208E+03 1.28040E+04-4.28599E-09-2.01007E-09
 -1       983-1.85954E+05-2.68167E+01-3.79242E+03 9.03065E+03 1.68939E-09 2.23736E-10
 -1       984-1.88062E+05-2.02538E+03-8.49239E+03 1.27532E+04 1.69007E-09-7.24185E-11
 -1       985-1.84238E+05-2.80123E+03-1.55947E+04 9.08112E+03 2.58478E-09 9.64064E-10
 -3
    1PSTEP                         7           4           1          
  100CL  104 4.68750E-01         409                     0    4           1
 -4  DISP        4    1
 -5  D1          1    2    1    0
 -5  D2          1    2    2    0
 -5  D3          1    2    3    0
 -5  ALL         1    2    0    0    1ALL
 -1         1 1.27098E-04 0.00000E+00 0.00000E+00
 -1         2 1.16520E-04 2.07814E-30-1.65436E-24
 -1         3 1.10139E-04 1.33591E-27 0.00000E+00
 -1         5 7.79902E-05 5.51055E-27-3.30872E-24
 -1         8 1.02691E-04-8.86297E-07 0.00000E+00
 -1         9 1.03384E-04 4.52924E-07 0.00000E+00
 -1        10 1.01915E-04-1.50232E-06-3.30872E-24
 -1        12 7.75021E-05 5.12305E-07 0.00000E+00
 -1        15 7.36259E-05-9.77969E-07 0.00000E+00
 -1        16 7.62676E-05 2.98173E-07 0.00000E+00
 -1        17 7.56367E-05-3.17265E-06 0.00000E+00
 -1        18 7.50466E-05 7.82230E-07 0.00000E+00
 -1        19 7.60382E-05 1.02178E-06 0.00000E+00
 -1        20 7.61699E-05 1.46104E-05 0.00000E+00
 -1        21 7.56690E-05 2.75164E-05 0.00000E+00
 -1        24 1.86443E-05-4.31990E-06 0.00000E+00
 -1        25 7.35658E-05 9.00633E-07 0.00000E+00
 -1        26 7.44936E-05 1.42303E-06 0.00000E+00
 -1        27 7.30753E-05 1.23334E-05 0.00000E+00
 -1        28 7.26224E-05 2.70797E-05 0.00000E+00
 -1        32 0.00000E+00 0.00000E+00 0.00000E+00
 -1        33 7.17366E-05 1.90744E-06 0.00000E+00
 -1        34 7.03674E-05 1.23127E-05 0.00000E+00
 -1        35 6.90664E-05 2.68489E-05 0.00000E+00
 -1        51 1.25511E-04-1.45658E-07 0.00000E+00
 -1        52 1.22570E-04-2.87403E-07 0.00000E+00
 -1        53 1.18540E-04-4.30641E-07 0.00000E+00
 -1        54 1.13698E-04-5.76817E-07-3.30872E-24
 -1        55 1.08322E-04-7.26668E-07 4.44610E-24
 -1        56 1.25954E-04-7.43485E-07 0.00000E+00
 -1        57 1.24957E-04-2.00580E-06 1.32349E-23
 -1        58 1.24101E-04-3.64116E-06 0.00000E+00
 -1        59 1.23325E-04-5.51283E-06 2.64698E-23
 -1        60 1.22579E-04-7.46335E-06 0.00000E+00
 -1        61 1.21802E-04-9.33599E-06-2.64698E-23
 -1        62 1.20938E-04-1.09782E-05 0.00000E+00
 -1        63 1.19934E-04-1.22448E-05 0.00000E+00
 -1        64 1.18744E-04-1.30137E-05 0.00000E+00
 -1        65 1.17326E-04-1.31778E-05 2.64698E-23
 -1        66 1.15656E-04-1.26673E-05-5.29396E-23
 -1        67 1.13714E-04-1.14324E-05 2.64698E-23
 -1        68 1.11498E-04-9.46838E-06 0.00000E+00
 -1        69 1.09019E-04-6.79004E-06 1.32349E-23
 -1        70 1.06290E-04-3.46126E-06-2.64698E-23
 -1        86 1.16178E-04 8.33965E-08 0.00000E+00
 -1        87 1.15150E-04 1.65802E-07-8.27181E-25
 -1        88 1.13404E-04 2.47169E-07 0.00000E+00
 -1        89 1.10906E-04 3.23615E-07 0.00000E+00
 -1        90 1.07590E-04 3.98910E-07 0.00000E+00
 -1       121 1.09910E-04-2.49118E-07 0.00000E+00
 -1       122 1.09221E-04-4.98444E-07 0.00000E+00
 -1       123 1.08075E-04-7.48183E-07 0.00000E+00
 -1       124 1.06474E-04-9.98579E-07 0.00000E+00
 -1       125 1.04419E-04-1.24976E-06-6.61744E-24
 -1       191 7.79766E-05 8.53914E-08 3.30872E-24
 -1       192 7.79360E-05 1.70781E-07 1.65436E-24
 -1       193 7.78682E-05 2.56170E-07 0.00000E+00
 -1       194 7.77733E-05 3.41555E-07 0.00000E+00
 -1       195 7.76513E-05 4.26934E-07 3.30872E-24
 -1       251 1.02713E-04 3.14199E-06 3.30872E-24
 -1       252 1.02756E-04 5.56370E-06 8.27181E-25
 -1       253 1.02801E-04 6.63819E-06 0.00000E+00
 -1       254 1.02849E-04 6.62184E-06-4.13590E-25
 -1       255 1.02897E-04 5.74339E-06 0.00000E+00
 -1       256 1.02944E-04 4.22981E-06 8.27181E-25
 -1       257 1.02991E-04 2.29178E-06 0.00000E+00
 -1       258 1.03038E-04 1.39113E-07-8.27181E-25
 -1       259 1.03085E-04-2.02395E-06 1.65436E-24
 -1       260 1.03132E-04-3.99312E-06 8.27181E-25
 -1       261 1.03179E-04-5.55914E-06 8.27181E-25
 -1       262 1.03227E-04-6.51198E-06 0.00000E+00
 -1       263 1.03275E-04-6.62582E-06 0.00000E+00
 -1       264 1.03319E-04-5.67312E-06 8.27181E-25
 -1       265 1.03362E-04-3.39935E-06 0.00000E+00
 -1       266 9.78466E-05-9.13605E-07 0.00000E+00
 -1       267 9.30025E-05-9.27414E-07 0.00000E+00
 -1       268 8.81583E-05-9.42088E-07 0.00000E+00
 -1       269 8.33142E-05-9.54220E-07-4.13590E-25
 -1       270 7.84701E-05-9.66297E-07-4.13590E-25
 -1       271 9.97421E-05 2.76601E-06 0.00000E+00
 -1       272 9.72197E-05 5.15452E-06 0.00000E+00
 -1       273 9.51237E-05 6.41878E-06-5.29396E-23
 -1       274 9.33905E-05 6.69804E-06 2.64698E-23
 -1       275 9.19650E-05 6.15586E-06 0.00000E+00
 -1       276 9.07801E-05 4.96795E-06-2.64698E-23
 -1       277 8.97659E-05 3.32299E-06 0.00000E+00
 -1       278 8.88488E-05 1.41756E-06 2.64698E-23
 -1       279 8.79537E-05-5.46734E-07-5.29396E-23
 -1       280 8.70049E-05-2.36717E-06 2.64698E-23
 -1       281 8.59279E-05-3.84393E-06-5.29396E-23
 -1       282 8.46506E-05-4.78322E-06 2.64698E-23
 -1       283 8.31034E-05-5.00182E-06 0.00000E+00
 -1       284 8.12262E-05-4.32776E-06-2.64698E-23
 -1       285 7.89542E-05-2.60976E-06 0.00000E+00
 -1       301 9.86860E-05 4.20134E-07 6.61744E-24
 -1       302 9.40093E-05 4.02521E-07 1.65436E-24
 -1       303 8.93918E-05 3.85596E-07 3.30872E-24
 -1       304 8.48707E-05 3.67457E-07-3.30872E-24
 -1       305 8.04838E-05 3.47485E-07 1.32349E-23
 -1       306 1.00341E-04 3.85349E-06 0.00000E+00
 -1       307 9.77747E-05 5.83768E-06 0.00000E+00
 -1       308 9.57678E-05 6.34887E-06-5.29396E-23
 -1       309 9.43078E-05 5.37582E-06 0.00000E+00
 -1       310 9.33215E-05 3.13564E-06-5.29396E-23
 -1       311 9.27035E-05-9.79163E-08 2.64698E-23
 -1       312 9.22974E-05-3.90155E-06-5.29396E-23
 -1       313 9.19357E-05-7.82548E-06 0.00000E+00
 -1       314 9.14446E-05-1.14013E-05-5.29396E-23
 -1       315 9.06561E-05-1.41772E-05 0.00000E+00
 -1       316 8.94456E-05-1.58220E-05 5.29396E-23
 -1       317 8.77092E-05-1.60575E-05 0.00000E+00
 -1       318 8.54178E-05-1.48171E-05-5.29396E-23
 -1       319 8.25800E-05-1.20997E-05 2.64698E-23
 -1       320 7.92640E-05-8.13223E-06 0.00000E+00
 -1       336 9.89058E-05-1.77591E-06 0.00000E+00
 -1       337 9.53377E-05-2.05163E-06 0.00000E+00
 -1       338 9.12173E-05-2.32931E-06 0.00000E+00
 -1       339 8.65536E-05-2.60887E-06 0.00000E+00
 -1       340 8.13563E-05-2.89099E-06 6.61744E-24
 -1       406 7.73259E-05 5.97662E-07-3.30872E-24
 -1       407 7.71225E-05 6.82986E-07-1.65436E-24
 -1       408 7.68920E-05 7.68252E-07 0.00000E+00
 -1       409 7.66343E-05 8.53354E-07-1.65436E-24
 -1       410 7.63497E-05 9.38126E-07 0.00000E+00
 -1       521 7.44539E-05-3.55866E-06-5.29396E-23
 -1       522 7.74212E-05-2.08120E-05 2.64698E-23
 -1       523 8.40949E-05-4.85554E-05 0.00000E+00
 -1       524 9.30614E-05-8.30420E-05-5.29396E-23
 -1       525 1.02552E-04-1.19072E-04 1.05879E-22
 -1       526 1.10754E-04-1.51320E-04 5.29396E-23
 -1       527 1.16079E-04-1.75274E-04 0.00000E+00
 -1       528 1.17083E-04-1.87119E-04 5.29396E-23
 -1       529 1.13137E-04-1.85616E-04 0.00000E+00
 -1       530 1.03988E-04-1.70609E-04 0.00000E+00
 -1       531 9.05233E-05-1.44757E-04 0.00000E+00
 -1       532 7.40579E-05-1.11561E-04 5.29396E-23
 -1       533 5.66278E-05-7.60293E-05 0.00000E+00
 -1       534 4.03933E-05-4.33389E-05 2.64698E-23
 -1       535 2.71894E-05-1.81052E-05 0.00000E+00
 -1       536 7.55810E-05 2.31516E-06 3.30872E-24
 -1       537 7.55364E-05 6.82713E-06 8.27181E-25
 -1       538 7.54953E-05 1.03304E-05 0.00000E+00
 -1       539 7.54584E-05 1.27936E-05 0.00000E+00
 -1       540 7.54234E-05 1.42609E-05 0.00000E+00
 -1       541 7.53895E-05 1.47779E-05 0.00000E+00
 -1       542 7.53558E-05 1.44587E-05 0.00000E+00
 -1       543 7.53217E-05 1.34190E-05-4.13590E-25
 -1       544 7.52869E-05 1.18264E-05 8.27181E-25
 -1       545 7.52515E-05 9.84938E-06 4.13590E-25
 -1       546 7.52157E-05 7.68413E-06 8.27181E-25
 -1       547 7.51800E-05 5.52722E-06-4.13590E-25
 -1       548 7.51448E-05 3.57453E-06 0.00000E+00
 -1       549 7.51107E-05 2.02173E-06 0.00000E+00
 -1       550 7.50771E-05 1.03565E-06 5.16988E-26
 -1       551 6.81195E-05-3.34362E-06-6.61744E-24
 -1       552 5.91301E-05-3.52313E-06-1.65436E-24
 -1       553 4.91745E-05-3.71116E-06 0.00000E+00
 -1       554 3.87665E-05-3.90580E-06-3.30872E-24
 -1       555 2.84197E-05-4.10255E-06 1.32349E-23
 -1       556 7.36499E-05 1.97200E-06 0.00000E+00
 -1       557 7.21267E-05 5.92018E-06 0.00000E+00
 -1       558 7.10165E-05 8.78119E-06 0.00000E+00
 -1       559 7.02734E-05 1.06730E-05 0.00000E+00
 -1       560 6.98515E-05 1.17135E-05 0.00000E+00
 -1       561 6.97054E-05 1.20209E-05 0.00000E+00
 -1       562 6.97900E-05 1.17138E-05 0.00000E+00
 -1       563 7.00603E-05 1.09111E-05 0.00000E+00
 -1       564 7.04717E-05 9.73131E-06 0.00000E+00
 -1       565 7.09797E-05 8.29344E-06 0.00000E+00
 -1       566 7.15396E-05 6.71635E-06 0.00000E+00
 -1       567 7.21072E-05 5.11897E-06 0.00000E+00
 -1       568 7.26379E-05 3.62019E-06 0.00000E+00
 -1       569 7.30874E-05 2.33877E-06 0.00000E+00
 -1       570 7.34112E-05 1.39353E-06 0.00000E+00
 -1       571 7.51068E-05 8.34941E-07 8.27181E-25
 -1       572 7.51683E-05 8.46550E-07 2.06795E-25
 -1       573 7.52302E-05 8.24425E-07 0.00000E+00
 -1       574 7.52923E-05 7.76318E-07 8.27181E-25
 -1       575 7.53544E-05 7.10017E-07 0.00000E+00
 -1       576 7.54166E-05 6.33360E-07 0.00000E+00
 -1       577 7.54788E-05 5.54189E-07 1.65436E-24
 -1       578 7.55410E-05 4.80356E-07-1.65436E-24
 -1       579 7.56032E-05 4.19710E-07 0.00000E+00
 -1       580 7.56654E-05 3.80101E-07 0.00000E+00
 -1       581 7.57276E-05 3.69379E-07 0.00000E+00
 -1       582 7.57898E-05 3.95385E-07 0.00000E+00
 -1       583 7.58519E-05 4.65953E-07 0.00000E+00
 -1       584 7.59141E-05 5.88836E-07 3.30872E-24
 -1       585 7.59762E-05 7.71742E-07-3.30872E-24
 -1       586 7.47775E-05 8.03181E-07-8.27181E-25
 -1       587 7.44822E-05 8.23618E-07 2.06795E-25
 -1       588 7.41869E-05 8.43832E-07 0.00000E+00
 -1       589 7.39182E-05 8.63727E-07 0.00000E+00
 -1       590 7.37026E-05 8.83081E-07 0.00000E+00
 -1       591 7.49977E-05 8.67187E-07 0.00000E+00
 -1       592 7.49589E-05 9.18619E-07 0.00000E+00
 -1       593 7.49301E-05 9.42920E-07 0.00000E+00
 -1       594 7.49090E-05 9.45842E-07 2.06795E-25
 -1       595 7.48937E-05 9.33218E-07 4.13590E-25
 -1       596 7.48820E-05 9.10833E-07 0.00000E+00
 -1       597 7.48718E-05 8.84474E-07 4.13590E-25
 -1       598 7.48609E-05 8.59920E-07-2.06795E-25
 -1       599 7.48472E-05 8.42951E-07-4.13590E-25
 -1       600 7.48284E-05 8.39346E-07-2.06795E-25
 -1       601 7.48025E-05 8.54885E-07 0.00000E+00
 -1       602 7.47673E-05 8.95353E-07 1.03398E-25
 -1       603 7.47207E-05 9.66533E-07 2.06795E-25
 -1       604 7.46606E-05 1.07426E-06 0.00000E+00
 -1       605 7.45849E-05 1.22428E-06 0.00000E+00
 -1       606 7.60496E-05 1.41350E-06 0.00000E+00
 -1       607 7.60588E-05 1.89309E-06-1.65436E-24
 -1       608 7.60675E-05 2.45540E-06 0.00000E+00
 -1       609 7.60758E-05 3.09461E-06-1.65436E-24
 -1       610 7.60840E-05 3.80488E-06 0.00000E+00
 -1       611 7.60920E-05 4.58028E-06 0.00000E+00
 -1       612 7.61001E-05 5.41487E-06 0.00000E+00
 -1       613 7.61080E-05 6.30273E-06 0.00000E+00
 -1       614 7.61159E-05 7.23792E-06 0.00000E+00
 -1       615 7.61238E-05 8.21448E-06 0.00000E+00
 -1       616 7.61317E-05 9.22649E-06 1.65436E-24
 -1       617 7.61395E-05 1.02680E-05 0.00000E+00
 -1       618 7.61472E-05 1.13331E-05 0.00000E+00
 -1       619 7.61550E-05 1.24158E-05 0.00000E+00
 -1       620 7.61626E-05 1.35102E-05 0.00000E+00
 -1       621 7.57344E-05 1.08870E-06-1.65436E-24
 -1       622 7.54565E-05 1.15595E-06 0.00000E+00
 -1       623 7.51990E-05 1.22319E-06 1.65436E-24
 -1       624 7.49564E-05 1.29032E-06 0.00000E+00
 -1       625 7.47231E-05 1.35734E-06-1.65436E-24
 -1       626 7.59629E-05 1.43463E-06 0.00000E+00
 -1       627 7.58610E-05 1.92013E-06 0.00000E+00
 -1       628 7.57345E-05 2.47150E-06 0.00000E+00
 -1       629 7.55859E-05 3.08153E-06 0.00000E+00
 -1       630 7.54181E-05 3.74300E-06 0.00000E+00
 -1       631 7.52337E-05 4.44863E-06 0.00000E+00
 -1       632 7.50355E-05 5.19114E-06 0.00000E+00
 -1       633 7.48261E-05 5.96328E-06 1.65436E-24
 -1       634 7.46083E-05 6.75775E-06 0.00000E+00
 -1       635 7.43849E-05 7.56727E-06 0.00000E+00
 -1       636 7.41585E-05 8.38460E-06 1.65436E-24
 -1       637 7.39319E-05 9.20245E-06 0.00000E+00
 -1       638 7.37077E-05 1.00135E-05 0.00000E+00
 -1       639 7.34887E-05 1.08106E-05-8.27181E-25
 -1       640 7.32774E-05 1.15863E-05 0.00000E+00
 -1       656 7.52600E-05 1.42399E-05 6.61744E-24
 -1       657 7.46808E-05 1.38546E-05-3.30872E-24
 -1       658 7.43070E-05 1.34705E-05 0.00000E+00
 -1       659 7.40100E-05 1.30868E-05 0.00000E+00
 -1       660 7.36468E-05 1.27018E-05 0.00000E+00
 -1       661 7.58338E-05 1.56873E-05-8.27181E-25
 -1       662 7.55185E-05 1.67162E-05 0.00000E+00
 -1       663 7.52208E-05 1.76983E-05-1.65436E-24
 -1       664 7.49402E-05 1.86359E-05 0.00000E+00
 -1       665 7.46756E-05 1.95311E-05 0.00000E+00
 -1       666 7.44263E-05 2.03858E-05-8.27181E-25
 -1       667 7.41915E-05 2.12018E-05 1.65436E-24
 -1       668 7.39706E-05 2.19811E-05 0.00000E+00
 -1       669 7.37629E-05 2.27253E-05 1.65436E-24
 -1       670 7.35677E-05 2.34361E-05 0.00000E+00
 -1       671 7.33844E-05 2.41150E-05 0.00000E+00
 -1       672 7.32125E-05 2.47635E-05 8.27181E-25
 -1       673 7.30513E-05 2.53831E-05-1.65436E-24
 -1       674 7.28999E-05 2.59749E-05 0.00000E+00
 -1       675 7.27585E-05 2.65405E-05 0.00000E+00
 -1       676 7.51600E-05 2.74432E-05 0.00000E+00
 -1       677 7.46512E-05 2.73700E-05 0.00000E+00
 -1       678 7.41428E-05 2.72968E-05-1.65436E-24
 -1       679 7.36351E-05 2.72239E-05 0.00000E+00
 -1       680 7.31282E-05 2.71510E-05 1.65436E-24
 -1       771 1.47363E-05 3.22085E-06 0.00000E+00
 -1       772 1.13403E-05 9.39772E-06-1.32349E-23
 -1       773 8.43531E-06 1.42858E-05 2.64698E-23
 -1       774 5.98870E-06 1.79655E-05 1.32349E-23
 -1       775 3.96850E-06 2.05190E-05 0.00000E+00
 -1       776 2.34130E-06 2.20318E-05 0.00000E+00
 -1       777 1.07322E-06 2.25909E-05 2.64698E-23
 -1       778 1.29694E-07 2.22860E-05 0.00000E+00
 -1       779-5.24156E-07 2.12081E-05-2.64698E-23
 -1       780-9.23826E-07 1.94506E-05 0.00000E+00
 -1       781-1.10495E-06 1.71077E-05 2.64698E-23
 -1       782-1.10363E-06 1.42753E-05 0.00000E+00
 -1       783-9.56068E-07 1.10502E-05 0.00000E+00
 -1       784-6.98725E-07 7.53028E-06 1.32349E-23
 -1       785-3.68183E-07 3.81380E-06 0.00000E+00
 -1       786 7.36204E-05 8.59820E-07-4.13590E-25
 -1       787 7.36782E-05 8.25019E-07 4.13590E-25
 -1       788 7.37359E-05 7.95768E-07 0.00000E+00
 -1       789 7.37941E-05 7.71618E-07 0.00000E+00
 -1       790 7.38524E-05 7.52808E-07-1.65436E-24
 -1       791 7.39108E-05 7.39588E-07-8.27181E-25
 -1       792 7.39692E-05 7.32965E-07-1.65436E-24
 -1       793 7.40276E-05 7.33958E-07-8.27181E-25
 -1       794 7.40861E-05 7.44617E-07 1.65436E-24
 -1       795 7.41445E-05 7.67012E-07-8.27181E-25
 -1       796 7.42029E-05 8.04798E-07-1.65436E-24
 -1       797 7.42613E-05 8.61666E-07 0.00000E+00
 -1       798 7.43197E-05 9.43880E-07 1.65436E-24
 -1       799 7.43780E-05 1.05777E-06 0.00000E+00
 -1       800 7.44362E-05 1.21392E-06 0.00000E+00
 -1       801 6.85960E-05 8.40833E-07-1.65436E-24
 -1       802 5.37169E-05 6.84601E-07 1.65436E-24
 -1       803 3.41871E-05 4.55600E-07 0.00000E+00
 -1       804 1.52751E-05 2.31277E-07 3.30872E-24
 -1       805 2.15635E-06 9.29483E-08 1.32349E-23
 -1       806 7.35093E-05 8.18541E-07 1.65436E-24
 -1       807 7.34495E-05 7.37596E-07 8.27181E-25
 -1       808 7.33870E-05 6.62304E-07 0.00000E+00
 -1       809 7.33207E-05 5.96473E-07 8.27181E-25
 -1       810 7.32492E-05 5.43903E-07-3.30872E-24
 -1       811 7.31714E-05 5.08334E-07 1.65436E-24
 -1       812 7.30857E-05 4.93506E-07 3.30872E-24
 -1       813 7.29909E-05 5.03146E-07-1.65436E-24
 -1       814 7.28855E-05 5.40981E-07 1.65436E-24
 -1       815 7.27681E-05 6.10731E-07 1.65436E-24
 -1       816 7.26373E-05 7.16117E-07-1.65436E-24
 -1       817 7.24918E-05 8.60858E-07-8.27181E-25
 -1       818 7.23302E-05 1.04867E-06 0.00000E+00
 -1       819 7.21512E-05 1.28325E-06 4.13590E-25
 -1       820 7.19535E-05 1.56830E-06 0.00000E+00
 -1       821 7.44102E-05 1.65230E-06-8.27181E-25
 -1       822 7.43216E-05 1.86959E-06 0.00000E+00
 -1       823 7.42333E-05 2.11468E-06 1.65436E-24
 -1       824 7.41440E-05 2.42719E-06 0.00000E+00
 -1       825 7.40547E-05 2.83428E-06 0.00000E+00
 -1       826 7.39651E-05 3.36268E-06-1.65436E-24
 -1       827 7.38755E-05 4.01668E-06 3.30872E-24
 -1       828 7.37857E-05 4.80004E-06 0.00000E+00
 -1       829 7.36958E-05 5.69255E-06 0.00000E+00
 -1       830 7.36059E-05 6.67356E-06 1.65436E-24
 -1       831 7.35159E-05 7.70604E-06 0.00000E+00
 -1       832 7.34262E-05 8.75271E-06 1.65436E-24
 -1       833 7.33364E-05 9.77368E-06 1.65436E-24
 -1       834 7.32478E-05 1.07292E-05 0.00000E+00
 -1       835 7.31589E-05 1.15915E-05 8.27181E-25
 -1       836 7.41701E-05 1.50368E-06 1.65436E-24
 -1       837 7.37402E-05 1.58611E-06 0.00000E+00
 -1       838 7.32428E-05 1.66838E-06 0.00000E+00
 -1       839 7.27170E-05 1.75012E-06 0.00000E+00
 -1       840 7.22020E-05 1.83173E-06 0.00000E+00
 -1       856 7.30502E-05 1.30669E-05-2.06795E-25
 -1       857 7.30223E-05 1.38975E-05-2.06795E-25
 -1       858 7.29944E-05 1.48101E-05 0.00000E+00
 -1       859 7.29659E-05 1.57893E-05 0.00000E+00
 -1       860 7.29374E-05 1.68195E-05 0.00000E+00
 -1       861 7.29087E-05 1.78852E-05-4.13590E-25
 -1       862 7.28800E-05 1.89710E-05-8.27181E-25
 -1       863 7.28513E-05 2.00611E-05 0.00000E+00
 -1       864 7.28226E-05 2.11402E-05 0.00000E+00
 -1       865 7.27939E-05 2.21925E-05 0.00000E+00
 -1       866 7.27652E-05 2.32026E-05 0.00000E+00
 -1       867 7.27366E-05 2.41550E-05 4.13590E-25
 -1       868 7.27080E-05 2.50341E-05 0.00000E+00
 -1       869 7.26795E-05 2.58248E-05-4.13590E-25
 -1       870 7.26511E-05 2.65117E-05 0.00000E+00
 -1       871 7.25251E-05 1.23326E-05 0.00000E+00
 -1       872 7.20684E-05 1.23298E-05 0.00000E+00
 -1       873 7.16651E-05 1.23267E-05 0.00000E+00
 -1       874 7.12742E-05 1.23232E-05 0.00000E+00
 -1       875 7.08551E-05 1.23192E-05-6.20385E-25
 -1       876 7.28853E-05 1.30750E-05-1.65436E-24
 -1       877 7.26794E-05 1.38639E-05 0.00000E+00
 -1       878 7.24581E-05 1.46944E-05-3.30872E-24
 -1       879 7.22234E-05 1.55612E-05 0.00000E+00
 -1       880 7.19771E-05 1.64589E-05-3.30872E-24
 -1       881 7.17212E-05 1.73821E-05 0.00000E+00
 -1       882 7.14577E-05 1.83257E-05 0.00000E+00
 -1       883 7.11887E-05 1.92841E-05 1.65436E-24
 -1       884 7.09160E-05 2.02521E-05-3.30872E-24
 -1       885 7.06416E-05 2.12245E-05 0.00000E+00
 -1       886 7.03677E-05 2.21958E-05 0.00000E+00
 -1       887 7.00960E-05 2.31608E-05 0.00000E+00
 -1       888 6.98286E-05 2.41141E-05 1.65436E-24
 -1       889 6.95671E-05 2.50503E-05 8.27181E-25
 -1       890 6.93136E-05 2.59641E-05-8.27181E-25
 -1       891 7.21355E-05 2.70411E-05-8.27181E-25
 -1       892 7.16320E-05 2.70023E-05 0.00000E+00
 -1       893 7.10925E-05 2.69636E-05 0.00000E+00
 -1       894 7.04978E-05 2.69250E-05 0.00000E+00
 -1       895 6.98287E-05 2.68864E-05-2.06795E-25
 -1       956 7.16527E-05 2.35701E-06-1.65436E-24
 -1       957 7.15673E-05 2.86145E-06-8.27181E-25
 -1       958 7.14817E-05 3.41505E-06-1.65436E-24
 -1       959 7.13959E-05 4.01173E-06 8.27181E-25
 -1       960 7.13101E-05 4.64545E-06 1.65436E-24
 -1       961 7.12242E-05 5.31009E-06 0.00000E+00
 -1       962 7.11383E-05 5.99953E-06-3.30872E-24
 -1       963 7.10523E-05 6.70768E-06-1.65436E-24
 -1       964 7.09664E-05 7.42842E-06 0.00000E+00
 -1       965 7.08804E-05 8.15561E-06 0.00000E+00
 -1       966 7.07945E-05 8.88317E-06 3.30872E-24
 -1       967 7.07086E-05 9.60498E-06-1.65436E-24
 -1       968 7.06227E-05 1.03149E-05 3.30872E-24
 -1       969 7.05370E-05 1.10069E-05-1.65436E-24
 -1       970 7.04516E-05 1.16748E-05 0.00000E+00
 -1       971 7.02871E-05 1.29687E-05 0.00000E+00
 -1       972 7.02058E-05 1.36967E-05 0.00000E+00
 -1       973 7.01243E-05 1.44890E-05-3.30872E-24
 -1       974 7.00426E-05 1.53370E-05 0.00000E+00
 -1       975 6.99609E-05 1.62327E-05-3.30872E-24
 -1       976 6.98791E-05 1.71677E-05-8.27181E-25
 -1       977 6.97972E-05 1.81336E-05 1.65436E-24
 -1       978 6.97153E-05 1.91222E-05 1.65436E-24
 -1       979 6.96335E-05 2.01252E-05 0.00000E+00
 -1       980 6.95516E-05 2.11342E-05 0.00000E+00
 -1       981 6.94698E-05 2.21408E-05 0.00000E+00
 -1       982 6.93880E-05 2.31369E-05 0.00000E+00
 -1       983 6.93064E-05 2.41140E-05 0.00000E+00
 -1       984 6.92251E-05 2.50639E-05-8.27181E-25
 -1       985 6.91442E-05 2.59782E-05 1.65436E-24
 -3
    1PSTEP                         8           4           1          
  100CL  104 4.68750E-01         409                     0    4           1
 -4  STRESS      6    1
 -5  SXX         1    4    1    1
 -5  SYY         1    4    2    2
 -5  SZZ         1    4    3    3
 -5  SXY         1    4    1    2
 -5  SYZ         1    4    2    3
 -5  SZX         1    4    3    1
 -1         1-1.66230E+06-7.54109E+05-3.41783E+05-1.05172E+06 7.42148E-10 1.13505E-08
 -1         2 2.65834E+03 2.42319E+05 8.71183E+03 7.05415E+02-1.47736E-10-4.92957E-09
 -1         3-8.82100E+01-7.11618E+05 1.66340E+02-2.59911E+02-1.20707E-10 5.82077E-09
 -1         5-5.85325E+00 2.44337E+05 6.40119E+00 1.10043E-01 9.90650E-11 1.53136E-08
 -1         8-7.83132E+05-3.31699E+05-3.21272E+04-5.65441E+05 2.36469E-10-2.07365E-09
 -1         9-1.37671E+06-3.63500E+05-1.40797E+05-4.61591E+05 3.42261E-09-7.45058E-10
 -1        10-5.77797E+02-7.41356E+05-9.84098E+02-1.75378E+03-3.62434E-09-3.10148E-08
 -1        12-3.23023E+00 2.44351E+05 2.07573E+02 9.97027E-01 1.65063E-10 4.13256E-08
 -1        15 2.03695E+03 1.11103E+03 6.46070E+03 4.30603E+00 1.71838E-10-7.57224E-09
 -1        16-3.52222E+06-1.21074E+06-5.55568E+05-1.24176E+06 1.06908E-08-3.18202E-09
 -1        17-8.49011E+05-5.15048E+05-1.64457E+05-4.75600E+05-5.78875E-09 3.41970E-09
 -1        18 5.95767E+03-2.87345E+03-1.71842E+04-5.81633E+04 7.12362E-10 4.77939E-10
 -1        19 7.65700E+04 9.12153E+04-4.39536E+02 1.49590E+04-5.22778E-10 1.02627E-09
 -1        20-3.22295E+04-3.61759E+05-7.98171E+04 2.64923E+04 3.89067E-09 2.54355E-10
 -1        21-3.40895E+01-2.09299E+05-6.75688E+02-7.30743E+01 7.40705E-11-3.86378E-09
 -1        24-3.25431E+06-1.02222E+06-4.49768E+05-1.25933E+06-2.08868E-08-1.12971E-08
 -1        25 2.28813E+04-3.28291E+04 1.01556E+04-1.05028E+05 3.04044E-10 1.18715E-08
 -1        26-1.80175E+04 6.22142E+04-1.23983E+04-8.77983E+03 1.41263E-09-1.36089E-09
 -1        27-5.77668E+04-1.98426E+05-7.44231E+04 4.47160E+04 5.62864E-09 3.16201E-10
 -1        28 1.62004E+04-5.78456E+04 1.18249E+04 1.84729E+04 3.23837E-10 2.10079E-10
 -1        32-7.84695E+05-1.81850E+05 3.18974E+05-5.24303E+05-1.65383E-08 9.72048E-09
 -1        33-1.13541E+05 5.83025E+04 2.06724E+04-3.37062E+04 8.82816E-10 1.25950E-09
 -1        34-1.47276E+05-1.46737E+04 3.46508E+02 4.53349E+04 2.19968E-09 5.93597E-10
 -1        35-1.64751E+04-2.29891E+04-9.01028E+02 3.64589E+04 3.30192E-09 1.85173E-09
 -1        51 1.40546E+04-3.66905E+05 3.64073E+04-9.31467E+05 1.60071E-10 1.60071E-10
 -1        52 8.83274E+03-3.65864E+05 2.44118E+04-1.08640E+06 3.05590E-10 2.91038E-10
 -1        53 6.66117E+03-3.78226E+05 2.11855E+04-9.28229E+05 8.36735E-10 2.12458E-09
 -1        54 1.91927E+04-3.76825E+05 3.44610E+04-1.08977E+06 4.36557E-10-9.38962E-09
 -1        55 3.82837E+04-3.89958E+05 6.18225E+04-9.27708E+05 1.00408E-09 8.56744E-09
 -1        56-3.19008E+06-3.59190E+05-2.51160E+05-1.22966E+06 1.33150E-09 4.11819E-09
 -1        57-3.28911E+06-5.88298E+05-1.69300E+05-1.22204E+06 2.56387E-09 2.21917E-09
 -1        58-3.24121E+06-4.38060E+05-5.90928E+04-1.21306E+06 4.01087E-10-2.74304E-09
 -1        59-3.22988E+06-4.95834E+05-3.52742E+04-1.24197E+06 4.57931E-10-3.46608E-09
 -1        60-3.24878E+06-4.48946E+05-1.37973E+04-1.21069E+06-7.95580E-10-4.02270E-09
 -1        61-3.22246E+06-4.81683E+05-7.83732E+03-1.24308E+06 4.22915E-11-2.68619E-09
 -1        62-3.24850E+06-4.51884E+05-3.78226E+03-1.21203E+06-6.03222E-10-3.85964E-09
 -1        63-3.22545E+06-4.75795E+05-3.07183E+03-1.23829E+06-6.84850E-10 4.26024E-09
 -1        64-3.24565E+06-4.54870E+05-3.56776E+03-1.21540E+06 1.84855E-10-1.16488E-08
 -1        65-3.23307E+06-4.70300E+05-7.04987E+03-1.23005E+06-1.17166E-09-2.35764E-09
 -1        66-3.24078E+06-4.57491E+05-1.24925E+04-1.22018E+06 7.72161E-10 8.42192E-09
 -1        67-3.24874E+06-4.73867E+05-3.16130E+04-1.21856E+06 7.81256E-10-3.92902E-09
 -1        68-3.23004E+06-4.51641E+05-5.31309E+04-1.22677E+06-3.21052E-10-8.09814E-09
 -1        69-3.30811E+06-5.50927E+05-1.51971E+05-1.19409E+06 2.44654E-09-1.00699E-08
 -1        70-3.18203E+06-3.82775E+05-2.25547E+05-1.24388E+06-6.69388E-10 1.68802E-09
 -1        86-1.33569E+03 2.39469E+05 9.30008E+03-3.52734E+02 1.13641E-09 1.76840E-09
 -1        87 8.85523E+03 2.45366E+05 1.94507E+04 1.45639E+03 1.91608E-09 1.40420E-09
 -1        88-7.51610E+03 2.36425E+05 2.97267E+04-1.10373E+03 2.86673E-09 8.28067E-09
 -1        89 5.60041E+04 2.67413E+05 8.02452E+04 3.17748E+03 4.41014E-09-2.78555E-09
 -1        90-4.83344E+04 2.17446E+05 1.13285E+05-2.07330E+03 5.04951E-09 3.32386E-09
 -1       121-1.38282E+02-7.12011E+05 1.31148E+02 1.29792E+02 4.08050E-10-9.50240E-09
 -1       122-3.28540E+01-7.11584E+05 3.59895E+02-5.19650E+02-1.28240E-09-8.38099E-09
 -1       123-1.76282E+02-7.12050E+05 5.54496E+02 3.88888E+02 1.17274E-09-2.33558E-09
 -1       124 6.33233E+02-7.11186E+05 1.50132E+03-1.16346E+03-2.74338E-09 1.71713E-09
 -1       125-6.04494E+02-7.12426E+05 2.27301E+03 7.73217E+02 1.75214E-09-4.00178E-11
 -1       191-6.35666E+00 2.44358E+05 7.58934E+00-5.57163E-02 1.51816E-10 4.15639E-10
 -1       192-6.44201E+00 2.44338E+05 1.35564E+01 6.62165E-01 2.40009E-10-9.03947E-09
 -1       193-7.92182E+00 2.44358E+05 2.51511E+01-6.11133E-01 2.47561E-10-6.57883E-09
 -1       194-8.33658E+00 2.44340E+05 5.12845E+01 1.63136E+00 1.05314E-10-5.51063E-09
 -1       195-1.09297E+01 2.44356E+05 1.00255E+02-1.03245E+00 2.95557E-10 1.99470E-08
 -1       251 1.19671E+05-4.15425E+04 9.68351E+04 3.90540E+03-8.46967E-10-2.98314E-09
 -1       252 1.64751E+05 4.80347E+04 6.88669E+04-1.37130E+04-6.27551E-11 5.25688E-09
 -1       253 1.36549E+05-6.43335E+03 2.50429E+04 2.96535E+03-6.68251E-10-1.08166E-08
 -1       254 1.44745E+05 7.42316E+03 1.59087E+04-1.22464E+04-9.50877E-10-1.06866E-09
 -1       255 1.39561E+05-9.93867E+02 6.47143E+03 2.43895E+03-3.82045E-10-6.72799E-10
 -1       256 1.41084E+05 1.18428E+03 3.96431E+03-1.14655E+04 1.05378E-09 1.46383E-09
 -1       257 1.40154E+05-1.74400E+02 2.04677E+03 2.18442E+03-2.25398E-10-4.95902E-09
 -1       258 1.40475E+05 3.84851E+02 1.84115E+03-1.12046E+04 1.30207E-10 1.73159E-09
 -1       259 1.40153E+05-1.84054E+02 2.13847E+03 2.17805E+03-4.23114E-10 9.70886E-11
 -1       260 1.41111E+05 1.26944E+03 4.22297E+03-1.14409E+04 2.14840E-10 9.13678E-09
 -1       261 1.39534E+05-1.06793E+03 6.94745E+03 2.42067E+03 5.55247E-10 7.13317E-09
 -1       262 1.44983E+05 7.98323E+03 1.70783E+04-1.21948E+04-5.61357E-10-5.54792E-11
 -1       263 1.36334E+05-6.91495E+03 2.69356E+04 2.93205E+03-1.85082E-10 9.36780E-10
 -1       264 1.66370E+05 5.16419E+04 7.39990E+04-1.36362E+04-2.55230E-09 1.72986E-09
 -1       265 1.18261E+05-4.46504E+04 1.04147E+05 3.86191E+03-1.29467E-09 1.04992E-08
 -1       266-3.63765E+04-1.69196E+04 8.47061E+04-9.04846E+01 6.54836E-11-3.12377E-09
 -1       267 4.21500E+04 1.97408E+04 5.99654E+04 1.04214E+02 4.36557E-11-2.73302E-09
 -1       268-5.69461E+03-2.80981E+03 2.22456E+04-1.34158E+01-9.09495E-12-1.18177E-08
 -1       269 6.72281E+03 3.36593E+03 1.44957E+04 1.56112E+01-6.00267E-11-2.75618E-09
 -1       270-1.01707E+03-5.55500E+02 6.97991E+03-2.14652E+00-5.00222E-12 4.15758E-09
 -1       271-3.50739E+06-4.39022E+05-2.69291E+05-1.36787E+06 9.82254E-11-2.24099E-09
 -1       272-3.58878E+06-6.50251E+05-1.73079E+05-1.38222E+06 3.47654E-10 6.87032E-09
 -1       273-3.55977E+06-5.04344E+05-6.36194E+04-1.35392E+06 2.91948E-10 2.22281E-09
 -1       274-3.52704E+06-5.70752E+05-3.55590E+04-1.40414E+06 1.57524E-09-5.76983E-09
 -1       275-3.56860E+06-5.09372E+05-1.48023E+04-1.34978E+06 7.59428E-10 4.12547E-09
 -1       276-3.51643E+06-5.65145E+05-7.84096E+03-1.41098E+06-2.34286E-09 5.17434E-09
 -1       277-3.57096E+06-5.08598E+05-3.83944E+03-1.34792E+06 6.08452E-10 9.67702E-10
 -1       278-3.51414E+06-5.65818E+05-2.78232E+03-1.41333E+06-3.68345E-11-9.33596E-10
 -1       279-3.57121E+06-5.08413E+05-2.98152E+03-1.34769E+06-1.19803E-09-3.49451E-09
 -1       280-3.51543E+06-5.65505E+05-5.46389E+03-1.41202E+06-2.80670E-09 3.08796E-09
 -1       281-3.56949E+06-5.09077E+05-1.00173E+04-1.34908E+06-1.02318E-09 7.65976E-09
 -1       282-3.52314E+06-5.68561E+05-2.38908E+04-1.40652E+06 1.55615E-09 1.53591E-08
 -1       283-3.56297E+06-5.06359E+05-4.27232E+04-1.35252E+06 5.38876E-10 3.63070E-09
 -1       284-3.56589E+06-6.20299E+05-1.16078E+05-1.38980E+06-1.65528E-10-4.22006E-10
 -1       285-3.52682E+06-4.63672E+05-1.80774E+05-1.36303E+06 1.28239E-09 4.65661E-10
 -1       301 1.44196E+04-1.74676E+04 1.10189E+05-4.48340E+04-4.87489E-10-2.25555E-10
 -1       302 1.55217E+04 1.03997E+04 7.88164E+04-6.60216E+04 1.59525E-09 5.53518E-09
 -1       303 8.64045E+02-7.44054E+03 7.14032E+04-4.49368E+04-1.12050E-09-2.37378E-10
 -1       304 2.78024E+04 2.18423E+04 1.18867E+05-6.57951E+04 5.56611E-10 2.65391E-09
 -1       305 2.74057E+04-2.86561E+04 1.98837E+05-4.49858E+04-1.11322E-09 4.82396E-09
 -1       306-3.92450E+06-4.58124E+05-2.98092E+05-1.53891E+06 2.80852E-09-9.25502E-09
 -1       307-4.08572E+06-7.01490E+05-2.03102E+05-1.47718E+06 2.96313E-09-7.53062E-09
 -1       308-3.99775E+06-5.45446E+05-7.02082E+04-1.50479E+06 7.61247E-10 8.52015E-09
 -1       309-3.99178E+06-6.09286E+05-4.23204E+04-1.52809E+06 2.17440E-10 1.44246E-09
 -1       310-4.01803E+06-5.48472E+05-1.64842E+04-1.48863E+06 5.11534E-10-2.17733E-09
 -1       311-3.96556E+06-6.08954E+05-9.49406E+03-1.55110E+06 3.16987E-09 4.55429E-10
 -1       312-4.02424E+06-5.45256E+05-4.64217E+03-1.48213E+06 1.02318E-11 3.69630E-09
 -1       313-3.96238E+06-6.08863E+05-4.16935E+03-1.55387E+06-5.22704E-09 4.63092E-09
 -1       314-4.02125E+06-5.48490E+05-5.11798E+03-1.48591E+06-2.37105E-09-5.23755E-09
 -1       315-3.97650E+06-5.97775E+05-1.05365E+04-1.53729E+06-2.64026E-09 3.18732E-09
 -1       316-4.00977E+06-5.56628E+05-1.88005E+04-1.49844E+06 3.58148E-09 2.57296E-09
 -1       317-4.01176E+06-5.93302E+05-4.80562E+04-1.50591E+06 2.29488E-09-3.11593E-09
 -1       318-3.98586E+06-5.53436E+05-7.97769E+04-1.51703E+06-7.07405E-09 7.24685E-09
 -1       319-4.11634E+06-7.01633E+05-2.31109E+05-1.45268E+06-2.81943E-09-8.89486E-09
 -1       320-3.90604E+06-4.50127E+05-3.38736E+05-1.55123E+06 9.05857E-09-5.96629E-10
 -1       336 4.96542E+02-7.70793E+05-4.20953E+03 9.78159E+02-7.05450E-09 3.15413E-09
 -1       337-1.53804E+03-7.71809E+05-4.65508E+03-2.48712E+03-1.30644E-08-8.53834E-09
 -1       338 3.34574E+02-7.70897E+05-5.98699E+03 1.50328E+03-9.45488E-09-8.05812E-10
 -1       339-6.20933E+03-7.74716E+05-1.31246E+04-3.52246E+03-1.66174E-08 1.41245E-08
 -1       340 4.18021E+03-7.67963E+05-2.02813E+04 2.00598E+03-1.11704E-08 1.14433E-08
 -1       406 1.25633E+01 2.44347E+05 4.09738E+02 1.73572E-02 5.28075E-10 1.50158E-08
 -1       407 1.39661E+02 2.44422E+05 8.70980E+02-8.06965E+00 8.92442E-11 1.14642E-09
 -1       408 4.45068E+02 2.44284E+05 1.73945E+03 8.20455E+00 6.64613E-10 4.01269E-09
 -1       409 1.87790E+03 2.44978E+05 3.91615E+03-7.88088E+01-1.13459E-10 4.27394E-09
 -1       410 5.40130E+03 2.43789E+05 7.99462E+03 7.35219E+01 4.65661E-10 3.11275E-09
 -1       521-7.36710E+06-7.74911E+05-5.67108E+05-2.72070E+06 1.32059E-09-3.20142E-09
 -1       522-7.08119E+06-1.58112E+06-3.49632E+05-3.07567E+06-2.58406E-08-6.92671E-09
 -1       523-7.58036E+06-7.77264E+05-1.31555E+05-2.48361E+06 1.33241E-09-2.01399E-08
 -1       524-6.87931E+06-1.54674E+06-7.24012E+04-3.37706E+06 2.43779E-08-3.33675E-08
 -1       525-7.60691E+06-7.76680E+05-2.94031E+04-2.44810E+06 1.76460E-08-1.83277E-08
 -1       526-6.89908E+06-1.42039E+06-4.18593E+03-3.23204E+06 1.84154E-08-9.69158E-09
 -1       527-7.53579E+06-9.20942E+05-2.66973E+04-2.61171E+06 1.61308E-08-1.02955E-09
 -1       528-7.12282E+06-1.09219E+06 2.03295E+04-2.79438E+06 1.04301E-08 1.74296E-08
 -1       529-7.34315E+06-1.13349E+06-3.21999E+04-2.85543E+06-1.41517E-08-1.16233E-09
 -1       530-7.56397E+06-7.08959E+05 2.82888E+03-2.38827E+06-2.44545E-08 1.65819E-08
 -1       531-7.11683E+06-1.28789E+06-3.49603E+04-3.03265E+06-4.42269E-08 7.70706E-09
 -1       532-7.90292E+06-5.19573E+05-7.10808E+04-2.20338E+06 3.59021E-08-3.10774E-08
 -1       533-7.04499E+06-1.29469E+06-1.24877E+05-3.07258E+06 8.17090E-09-5.08517E-08
 -1       534-7.89313E+06-8.10986E+05-3.52133E+05-2.23235E+06-8.97126E-09 3.99159E-08
 -1       535-7.11044E+06-1.01310E+06-5.54482E+05-2.98801E+06-9.96806E-09 2.65718E-08
 -1       536-1.04583E+05-1.75242E+04 4.03507E+04-6.37754E+02-6.33520E-10 5.66251E-09
 -1       537-8.55720E+04 2.02859E+04 2.88105E+04 8.97857E+00-9.26241E-09-2.40652E-09
 -1       538-9.78798E+04-2.75820E+03 1.03562E+04-2.45535E+02-8.76042E-10 4.22006E-09
 -1       539-9.34810E+04 3.18429E+03 6.74955E+03-8.22860E+02 4.13146E-09 9.16634E-09
 -1       540-9.66782E+04-4.36640E+02 2.56154E+03 1.94100E+02 9.29205E-10 3.44062E-09
 -1       541-9.50653E+04 4.94037E+02 1.64293E+03-1.63601E+03-9.13296E-10 4.94310E-10
 -1       542-9.63031E+04-6.47849E+01 5.55239E+02 5.67576E+02-9.71056E-10-3.31369E-10
 -1       543-9.56748E+04 4.45777E+01 2.80084E+02-2.25654E+03-1.06699E-09-2.69164E-09
 -1       544-9.60783E+04 1.95160E+01-1.15851E+02 8.14621E+02 5.79831E-10-4.01198E-09
 -1       545-9.60591E+04-1.91405E+02-5.26209E+02-2.58778E+03 6.86113E-10 4.46349E-10
 -1       546-9.59253E+04 1.75857E+02-1.03362E+03 8.98837E+02 8.11162E-10-2.95006E-09
 -1       547-9.65859E+04-1.27950E+03-2.62291E+03-2.58103E+03-3.17680E-09 1.66119E-09
 -1       548-9.55515E+04 1.10671E+03-4.23489E+03 8.07866E+02-3.68500E-09-2.23099E-09
 -1       549-9.94968E+04-8.15501E+03-1.14921E+04-2.23213E+03-1.56040E-09 8.82324E-09
 -1       550-9.30079E+04 7.04103E+03-1.64040E+04 5.49922E+02 5.82929E-11 3.82079E-09
 -1       551 8.69546E+03-3.98635E+05 2.08162E+04-6.75270E+05-3.03517E-08 1.06957E-09
 -1       552 1.91812E+04-4.01753E+05 2.77889E+04-9.61215E+05-2.33485E-08 1.96269E-08
 -1       553 1.30808E+04-4.06953E+05 4.31622E+04-6.72953E+05-3.75003E-08 1.36679E-08
 -1       554 4.15359E+04-3.90362E+05 9.17268E+04-9.62216E+05-2.43017E-08 9.65190E-09
 -1       555 3.97586E+04-4.24593E+05 1.64568E+05-6.73700E+05-3.69473E-08-3.72529E-09
 -1       556 6.10569E+04-1.29114E+05 4.36991E+04-1.68946E+05-6.37374E-09-8.77480E-09
 -1       557 1.13332E+05-1.72442E+05 2.29731E+04-2.11619E+05-5.82077E-10 4.37831E-09
 -1       558 6.08539E+04-1.34929E+05 9.26180E+03-1.63939E+05-4.96220E-09-1.61890E-09
 -1       559 1.06220E+05-1.78398E+05 4.71096E+03-2.14786E+05 6.80666E-09 4.02360E-09
 -1       560 5.92765E+04-1.33882E+05 1.93183E+03-1.64932E+05-5.82077E-10-5.94446E-09
 -1       561 1.03778E+05-1.77767E+05 1.03394E+03-2.16332E+05 1.57161E-09-1.03228E-09
 -1       562 5.80069E+04-1.33032E+05 3.85879E+02-1.65846E+05-3.63798E-11 3.80578E-09
 -1       563 1.02287E+05-1.77127E+05 2.49257E+02-2.17286E+05-2.96677E-09 2.91777E-09
 -1       564 5.72142E+04-1.32521E+05 8.72753E+01-1.66409E+05-5.82077E-11-5.69253E-09
 -1       565 1.01508E+05-1.76793E+05 5.89288E+01-2.17775E+05 1.42700E-09 1.50067E-09
 -1       566 5.69266E+04-1.32330E+05-1.56582E+01-1.66617E+05-5.10136E-09-1.05847E-08
 -1       567 1.01401E+05-1.76740E+05-9.97891E+01-2.17780E+05 5.27302E-09 4.25644E-09
 -1       568 5.71763E+04-1.32495E+05-3.01664E+02-1.66502E+05-4.56566E-09-8.62201E-10
 -1       569 1.01339E+05-1.76631E+05-7.05873E+02-2.16749E+05-1.19471E-08-3.41970E-09
 -1       570 5.84776E+04-1.33668E+05-1.51989E+03-1.66465E+05-2.82307E-09 8.52560E-09
 -1       571 1.77331E+05 6.45065E+03 9.55719E+03-4.50117E+04 1.05865E-09 3.27373E-09
 -1       572 1.78752E+05 2.24479E+03 4.68242E+03-4.93413E+04-2.68983E-10-1.12323E-10
 -1       573 1.77901E+05 5.36467E+02 2.08011E+03-4.48945E+04 1.03901E-08 2.18870E-09
 -1       574 1.78068E+05 1.76449E+02 1.04219E+03-4.94722E+04 1.95314E-08-9.08585E-10
 -1       575 1.77964E+05 2.64369E+01 4.91171E+02-4.48791E+04 9.73682E-09-9.47693E-10
 -1       576 1.77975E+05 9.68552E+00 2.50018E+02-4.94897E+04 1.20374E-09 6.43286E-09
 -1       577 1.77973E+05-8.44415E-01 1.23138E+02-4.48771E+04 1.47736E-09 1.63118E-09
 -1       578 1.77966E+05 1.17740E+00 6.71271E+01-4.94918E+04 1.06547E-09-4.78394E-10
 -1       579 1.77984E+05-2.87037E+00 4.09891E+01-4.48770E+04-2.27374E-11-1.69894E-09
 -1       580 1.77980E+05-4.55621E+00 3.82088E+01-4.94892E+04-3.12866E-10 8.95852E-10
 -1       581 1.78003E+05-9.89892E+00 5.16446E+01-4.48797E+04-7.55790E-10-3.26554E-09
 -1       582 1.78015E+05-2.90997E+00 9.84041E+01-4.94625E+04-9.17680E-10-6.78392E-09
 -1       583 1.78026E+05 2.01741E+01 1.88502E+02-4.49037E+04-1.43700E-10 2.67983E-09
 -1       584 1.78113E+05 1.66396E+02 4.22786E+02-4.92616E+04-1.03228E-10-1.02140E-08
 -1       585 1.78008E+05 5.38369E+02 8.58250E+02-4.50809E+04 4.63842E-10 2.69210E-10
 -1       586-2.12589E+03 5.82894E+04-2.81679E+03-1.53294E+05 3.52884E-10 1.81217E-10
 -1       587-4.43433E+02 5.79108E+04-2.94967E+02-1.68688E+05 6.43922E-10-3.30147E-10
 -1       588 6.16205E+02 5.79829E+04 2.05023E+03-1.53201E+05 4.45652E-10 2.02622E-08
 -1       589 3.03578E+03 5.91070E+04 5.94451E+03-1.68547E+05 4.98403E-10 1.71717E-08
 -1       590 8.70482E+03 5.72741E+04 1.27181E+04-1.53437E+05 2.34650E-10 9.10495E-09
 -1       591-3.89073E+04-1.10786E+04-1.28754E+04-2.01043E+04 1.27000E-09-3.38787E-09
 -1       592-4.01293E+04-1.42243E+04-6.97385E+03-2.34437E+04-2.03272E-10 4.56066E-09
 -1       593-4.02091E+04-1.01300E+04-2.90328E+03-2.10344E+04 1.05297E-09 8.78822E-09
 -1       594-3.83354E+04-1.23527E+04-1.44799E+03-2.35328E+04 1.32422E-09-4.21056E-09
 -1       595-4.03089E+04-1.01256E+04-6.65441E+02-2.10771E+04-7.40556E-10 1.04683E-08
 -1       596-3.82140E+04-1.22669E+04-3.39194E+02-2.35202E+04 2.02320E-09 6.56047E-09
 -1       597-4.03215E+04-1.01338E+04-1.86700E+02-2.10788E+04-8.66024E-10-4.89661E-09
 -1       598-3.82024E+04-1.22637E+04-1.53748E+02-2.35167E+04 1.44209E-09-2.02010E-09
 -1       599-4.03206E+04-1.01339E+04-2.00970E+02-2.10785E+04 9.04947E-11-6.86964E-09
 -1       600-3.82153E+04-1.22681E+04-3.77011E+02-2.35198E+04-1.88516E-09 3.68811E-09
 -1       601-4.03046E+04-1.01250E+04-7.45678E+02-2.10759E+04-6.43581E-10-1.98440E-09
 -1       602-3.83515E+04-1.23642E+04-1.62615E+03-2.35323E+04-7.31575E-10 1.39983E-09
 -1       603-4.01913E+04-1.01315E+04-3.26166E+03-2.10281E+04 8.68113E-10-2.92198E-09
 -1       604-4.03733E+04-1.44596E+04-7.83498E+03-2.34225E+04-1.62743E-09 1.14778E-09
 -1       605-3.87202E+04-1.12035E+04-1.44650E+04-1.99903E+04 2.51941E-09 6.76755E-09
 -1       606 2.51772E+04-8.54317E+03-1.53829E+04 2.45696E+04-3.27873E-09 5.67161E-09
 -1       607 2.25426E+04-2.75621E+03-7.65976E+03 2.75808E+04-7.03949E-10-8.51742E-10
 -1       608 2.40371E+04-4.64989E+02-3.43022E+03 2.43737E+04 1.79534E-09-2.65027E-09
 -1       609 2.37393E+04-1.20614E+02-1.73250E+03 2.77970E+04-1.46247E-09-2.23895E-09
 -1       610 2.38986E+04 2.25027E+01-8.27618E+02 2.43518E+04-4.32647E-09-3.19369E-09
 -1       611 2.38419E+04 3.42439E+01-4.17424E+02 2.78206E+04-7.25049E-09 4.86398E-09
 -1       612 2.38613E+04 3.64354E+01-1.99789E+02 2.43496E+04-2.23372E-09 3.45312E-09
 -1       613 2.38394E+04 4.20154E+01-9.10793E+01 2.78234E+04-3.94448E-09-1.13232E-09
 -1       614 2.38408E+04 3.73211E+01-2.54967E+01 2.43489E+04-8.34916E-10 5.70367E-09
 -1       615 2.38285E+04 4.70662E+01 2.83076E+01 2.78238E+04 6.99993E-09 3.17391E-09
 -1       616 2.38252E+04 4.25805E+01 9.39534E+01 2.43491E+04-1.21690E-09 8.50150E-10
 -1       617 2.38340E+04 7.07962E+01 2.17997E+02 2.78234E+04-1.46792E-09-3.04453E-09
 -1       618 2.38018E+04 1.08270E+02 4.40687E+02 2.43492E+04-3.69755E-09 2.12140E-09
 -1       619 2.39861E+04 4.13930E+02 9.90506E+02 2.78227E+04-3.17391E-09 1.72463E-09
 -1       620 2.36531E+04 1.15570E+03 1.99110E+03 2.43482E+04 9.88507E-10 1.06729E-09
 -1       621 3.03842E+02 1.92662E+05 2.64334E+03 6.64102E+03-2.58041E-10 7.95171E-09
 -1       622 3.47941E+02 1.93317E+05 2.25080E+03 9.69760E+03-1.89516E-10 4.55293E-09
 -1       623 1.41494E+01 1.92850E+05 2.59787E+03 6.60991E+03-2.36781E-10-2.78544E-09
 -1       624 1.17717E+03 1.94077E+05 4.94141E+03 9.72800E+03-2.51646E-10-7.74691E-09
 -1       625 1.18238E+03 1.91897E+05 8.59429E+03 6.61093E+03-1.63254E-10-1.58889E-09
 -1       626 1.59269E+05 4.40619E+04 3.17434E+03 8.60168E+04-4.87216E-09-8.03811E-09
 -1       627 1.57098E+05 4.56588E+04 1.52956E+03 8.94876E+04-7.20684E-09-4.95425E-09
 -1       628 1.59387E+05 4.25606E+04 6.46021E+02 8.64958E+04 8.04812E-09 2.38997E-08
 -1       629 1.56639E+05 4.52975E+04 3.16664E+02 8.96949E+04 8.16317E-09 1.50194E-08
 -1       630 1.59394E+05 4.24898E+04 1.46403E+02 8.65082E+04 1.29512E-09 3.29493E-09
 -1       631 1.56583E+05 4.52896E+04 7.87757E+01 8.96964E+04-5.77893E-09 3.21189E-09
 -1       632 1.59386E+05 4.24957E+04 5.20108E+01 8.65009E+04-6.78347E-09-7.48696E-09
 -1       633 1.56571E+05 4.52945E+04 5.81708E+01 8.96899E+04-3.18437E-09-9.57471E-10
 -1       634 1.59377E+05 4.24966E+04 9.41921E+01 8.64966E+04 3.61752E-09 2.31216E-09
 -1       635 1.56575E+05 4.52961E+04 1.91041E+02 8.96892E+04 5.49335E-10-6.72799E-10
 -1       636 1.59366E+05 4.24960E+04 3.85867E+02 8.64936E+04-4.41332E-09-1.39357E-09
 -1       637 1.56653E+05 4.53576E+04 8.48080E+02 8.96852E+04 3.17826E-10-3.28464E-09
 -1       638 1.59333E+05 4.26852E+04 1.74297E+03 8.64063E+04-8.96068E-09-8.75480E-09
 -1       639 1.57565E+05 4.66327E+04 4.12334E+03 8.94141E+04-1.36911E-08 3.88445E-09
 -1       640 1.59211E+05 4.64807E+04 8.55700E+03 8.47945E+04-3.35126E-09 1.46870E-08
 -1       656 4.31369E+04-1.09184E+06-1.04135E+05-3.66007E+02 1.42973E-09-1.26150E-09
 -1       657-5.70012E+04-1.13885E+06-8.61205E+04 7.03856E+03 7.91260E-10 8.06189E-09
 -1       658 1.36782E+04-1.10525E+06-5.28491E+04-1.36889E+03 3.29806E-10 4.73527E-10
 -1       659-6.11190E+04-1.14080E+06-9.15290E+04 7.70762E+03-4.01997E-10-3.08818E-09
 -1       660 4.72446E+04-1.08990E+06-1.13439E+05-1.03505E+03 1.38243E-10 2.80474E-09
 -1       661 1.54023E+05 1.67667E+04 1.47865E+04 6.01953E+04 1.20531E-09 1.59525E-09
 -1       662 1.61733E+05 2.83558E+04 9.96364E+03 5.76151E+04-7.22480E-11-6.70752E-10
 -1       663 1.56921E+05 2.15159E+04 3.48536E+03 5.93594E+04-1.50794E-09 4.67151E-09
 -1       664 1.58380E+05 2.27962E+04 2.08380E+03 5.86309E+04 2.13996E-09 3.94107E-09
 -1       665 1.57354E+05 2.21702E+04 8.21993E+02 5.92384E+04-1.15810E-09 3.26565E-11
 -1       666 1.57872E+05 2.20432E+04 4.79346E+02 5.87855E+04-4.08163E-09 1.79497E-09
 -1       667 1.57426E+05 2.22492E+04 2.52727E+02 5.92122E+04-3.82755E-10 1.04773E-09
 -1       668 1.57796E+05 2.19803E+04 2.53163E+02 5.88228E+04 5.77852E-09-3.20615E-09
 -1       669 1.57430E+05 2.22313E+04 3.39207E+02 5.92017E+04 2.02442E-09 3.71026E-09
 -1       670 1.57882E+05 2.21586E+04 7.35288E+02 5.88209E+04 7.42545E-09 4.07539E-09
 -1       671 1.57340E+05 2.20744E+04 1.30447E+03 5.92126E+04-1.21664E-09-4.04367E-09
 -1       672 1.58644E+05 2.34259E+04 3.33657E+03 5.86355E+04-3.43769E-09-3.23928E-09
 -1       673 1.56673E+05 2.09960E+04 5.59124E+03 5.93750E+04-3.24030E-09 2.48838E-09
 -1       674 1.63969E+05 3.24058E+04 1.59898E+04 5.70687E+04 1.83172E-09 1.74077E-09
 -1       675 1.52050E+05 1.33456E+04 2.37338E+04 6.06848E+04 3.28191E-09 9.72250E-10
 -1       676 1.75421E+01-2.09243E+05-8.14377E+02 3.65381E+01 2.91635E-10-6.64873E-09
 -1       677-2.16142E+02-2.09440E+05-1.49039E+03-7.30438E+01-4.66244E-09-1.53955E-09
 -1       678 1.44366E+02-2.09103E+05-2.63461E+03 3.64806E+01 2.26123E-10 4.82486E-09
 -1       679-2.63511E+03-2.11030E+05-6.25848E+03-7.28179E+01 2.04523E-10-2.28914E-09
 -1       680 1.57266E+03-2.07653E+05-1.00866E+04 3.58940E+01-8.26276E-10 3.67683E-09
 -1       771-2.24591E+06-3.98065E+05-5.57069E+04-9.36908E+05-1.00408E-08-7.36327E-09
 -1       772-2.23052E+06-4.28584E+05-2.98034E+04-9.71005E+05-7.22139E-09 3.82261E-09
 -1       773-2.25381E+06-3.91906E+05-1.30287E+04-9.40008E+05-7.95990E-09 6.12999E-09
 -1       774-2.22265E+06-4.22194E+05-6.29715E+03-9.74924E+05-2.03363E-09 1.56979E-09
 -1       775-2.25588E+06-3.90530E+05-3.30765E+03-9.40268E+05-5.80621E-09 2.49565E-09
 -1       776-2.22265E+06-4.22279E+05-1.49094E+03-9.77173E+05-1.26238E-09 2.15368E-09
 -1       777-2.25738E+06-3.89434E+05-1.00670E+03-9.40427E+05-2.31375E-09-3.11957E-09
 -1       778-2.22311E+06-4.22538E+05-4.19853E+02-9.79055E+05-1.76078E-09 5.82077E-10
 -1       779-2.25858E+06-3.88503E+05-4.52433E+02-9.40570E+05-1.89175E-10-2.99406E-09
 -1       780-2.22359E+06-4.22749E+05-3.01500E+02-9.80578E+05 3.34694E-10-2.67391E-10
 -1       781-2.25950E+06-3.87760E+05-5.47998E+02-9.40680E+05-7.96717E-09-1.28330E-09
 -1       782-2.22403E+06-4.22943E+05-9.26337E+02-9.81698E+05-9.86438E-09-2.94847E-09
 -1       783-2.26007E+06-3.87268E+05-1.86016E+03-9.40738E+05-9.67702E-10-4.47187E-09
 -1       784-2.22537E+06-4.24207E+05-4.37506E+03-9.82331E+05-5.88170E-09-4.02815E-09
 -1       785-2.25958E+06-3.87600E+05-8.09687E+03-9.40190E+05-1.01272E-08 9.93168E-10
 -1       786 1.63183E+05-8.74876E+03 2.02404E+04-9.20150E+00 9.50975E-07 3.94539E-09
 -1       787 1.71954E+05 1.01283E+04 1.43196E+04 1.74996E+00 1.89390E-06 1.11613E-08
 -1       788 1.66567E+05-1.37147E+03 5.23873E+03-4.66572E+00 2.00200E-06-2.43358E-09
 -1       789 1.68012E+05 1.58687E+03 3.29153E+03-6.97157E+00 2.10630E-06 1.14318E-08
 -1       790 1.67126E+05-2.14245E+02 1.33932E+03-4.80166E-01 2.33966E-06-7.78061E-09
 -1       791 1.67361E+05 2.48919E+02 7.86336E+02-1.62973E+01 2.57566E-06 1.08594E-08
 -1       792 1.67219E+05-3.45235E+01 3.58847E+02 4.66010E+00 3.15566E-06-1.99873E-08
 -1       793 1.67255E+05 4.84657E+01 2.35074E+02-2.89706E+01 3.72971E-06 4.56393E-09
 -1       794 1.67231E+05-1.39243E+01 1.74019E+02 1.21934E+01 1.86646E-06-9.40474E-09
 -1       795 1.67266E+05 7.17970E+01 2.51557E+02-4.85023E+01 5.90876E-09 6.85905E-09
 -1       796 1.67209E+05-5.78378E+01 3.76707E+02 2.41922E+01 5.04554E-10 7.69148E-10
 -1       797 1.67436E+05 4.23996E+02 8.88154E+02-8.02718E+01-2.42529E-10-1.08980E-09
 -1       798 1.67060E+05-3.65864E+02 1.40186E+03 4.39634E+01 4.14686E-10-9.51559E-10
 -1       799 1.68488E+05 2.70143E+03 3.82175E+03-1.33324E+02-1.02432E-10 1.00675E-09
 -1       800 1.66157E+05-2.33344E+03 5.39838E+03 7.72449E+01-3.72253E-11 4.06476E-09
 -1       801-4.94427E+03-1.74306E+05-5.31626E+03 1.88674E+04 1.00790E-08-2.54659E-09
 -1       802 1.77152E+04-7.41110E+04 3.86203E+04-7.27811E+04 2.70829E-08-5.39470E-09
 -1       803-1.19084E+04-1.31730E+05 5.40279E+04 2.11426E+04 2.14459E-08 1.51946E-08
 -1       804 1.12375E+05-1.96478E+04 1.63075E+05-7.30900E+04 2.52476E-08 2.28565E-08
 -1       805-9.97251E+04-2.28406E+05 2.02624E+05 1.91724E+04 8.90577E-09 2.05389E-08
 -1       806-1.93118E+05-4.12189E+04-1.63520E+04-8.02533E+04-4.33693E-09-1.14310E-08
 -1       807-1.94094E+05-3.88629E+04-8.03341E+03-8.45723E+04-9.17453E-11 2.69324E-10
 -1       808-1.93580E+05-3.53125E+04-3.40776E+03-8.30280E+04 3.04226E-10 1.29134E-08
 -1       809-1.92381E+05-3.66311E+04-1.66597E+03-8.48023E+04-3.11388E-09-3.47472E-09
 -1       810-1.93653E+05-3.51043E+04-7.62843E+02-8.31504E+04 4.62023E-10 1.28910E-09
 -1       811-1.92250E+05-3.65429E+04-3.78338E+02-8.47823E+04-2.02363E-10 6.81302E-09
 -1       812-1.93665E+05-3.51200E+04-1.88861E+02-8.31500E+04 7.43967E-10-5.85624E-09
 -1       813-1.92232E+05-3.65452E+04-1.19185E+02-8.47718E+04 5.42059E-10-6.69900E-09
 -1       814-1.93663E+05-3.51260E+04-1.11881E+02-8.31473E+04-3.79760E-09-9.62177E-09
 -1       815-1.92234E+05-3.65472E+04-1.75143E+02-8.47685E+04-2.06205E-09-4.04486E-09
 -1       816-1.93651E+05-3.51249E+04-3.28228E+02-8.31449E+04-1.41836E-09 1.43928E-10
 -1       817-1.92290E+05-3.65787E+04-7.03615E+02-8.47621E+04 1.03569E-09-1.20053E-10
 -1       818-1.93608E+05-3.52239E+04-1.43402E+03-8.30980E+04 3.46063E-09-3.20142E-09
 -1       819-1.93081E+05-3.74394E+04-3.37489E+03-8.45699E+04 3.25872E-09-8.89486E-10
 -1       820-1.93335E+05-3.77757E+04-6.86857E+03-8.20099E+04 1.83263E-09 2.96450E-09
 -1       821-2.49688E+05 1.38468E+04-3.20231E+04 8.64644E+01-4.42676E-10 4.92946E-10
 -1       822-2.63565E+05-1.60300E+04-2.26610E+04-6.07508E+02-1.53977E-09 9.73887E-09
 -1       823-2.55044E+05 2.17082E+03-8.29408E+03 5.50415E+01 3.03135E-10 3.87172E-09
 -1       824-2.57320E+05-2.51264E+03-5.21861E+03-4.63508E+02-2.44169E-10 1.08048E-09
 -1       825-2.55931E+05 3.39726E+02-2.14503E+03-5.75402E+01-2.82314E-09 4.18788E-09
 -1       826-2.56287E+05-4.00677E+02-1.29472E+03-2.01308E+02-4.93617E-09 8.15803E-10
 -1       827-2.56076E+05 6.02592E+01-6.70382E+02-2.07163E+02-3.75081E-09-7.52678E-10
 -1       828-2.56147E+05-1.22225E+02-5.92355E+02 7.84218E+01-4.54373E-09 1.68334E-09
 -1       829-2.56071E+05 6.15300E+01-6.80110E+02-3.37276E+02-7.57844E-10-2.78391E-10
 -1       830-2.56305E+05-4.10688E+02-1.32783E+03 2.69968E+02 1.71960E-09-2.35627E-09
 -1       831-2.55919E+05 3.48697E+02-2.19890E+03-3.98712E+02-2.40693E-09-2.29090E-09
 -1       832-2.57362E+05-2.57877E+03-5.35824E+03 3.01526E+02-1.04627E-09-6.05326E-09
 -1       833-2.55015E+05 2.22808E+03-8.51458E+03-3.68833E+02-2.31699E-09-3.71665E-09
 -1       834-2.63758E+05-1.64555E+04-2.32630E+04 1.63409E+02-8.57908E-10 6.89397E-09
 -1       835-2.49523E+05 1.42145E+04-3.28776E+04-2.60586E+02 5.80138E-09 4.85306E-09
 -1       836-8.31302E+02 2.36203E+05 1.42329E+04-2.06131E+04 1.59116E-09-2.02272E-09
 -1       837 3.13657E+03 2.40609E+05 1.21460E+04-4.13968E+04 2.32603E-09-3.95812E-09
 -1       838-3.03424E+02 2.37430E+05 1.25169E+04-2.05434E+04 2.14823E-09-8.99001E-09
 -1       839 8.03507E+03 2.44261E+05 2.38175E+04-4.14217E+04 2.82489E-09 1.54637E-09
 -1       840-2.41250E+03 2.32519E+05 3.80373E+04-2.05867E+04 2.11912E-09-5.47607E-09
 -1       856-7.72178E+04 6.65099E+03-1.75270E+04-3.93121E+02-4.77809E-09 2.63299E-09
 -1       857-8.44581E+04-7.80051E+03-1.20670E+04 3.99961E+03-2.65183E-09 9.73159E-10
 -1       858-8.00783E+04 9.31909E+02-4.54877E+03-4.10751E+02-2.89316E-09 5.91172E-12
 -1       859-8.11730E+04-1.08336E+03-2.74734E+03 4.02774E+03 9.90042E-10 1.81217E-09
 -1       860-8.05060E+04 1.29589E+02-1.15519E+03-4.21383E+02 7.19353E-10 3.01713E-09
 -1       861-8.06803E+04-1.42993E+02-6.43506E+02 4.04228E+03-3.24638E-09-4.36337E-09
 -1       862-8.05725E+04 1.71611E+01-2.83556E+02-4.25313E+02 1.61848E-09-2.36339E-09
 -1       863-8.06016E+04-1.03354E+01-1.39745E+02 4.04403E+03 8.98952E-09-6.64841E-09
 -1       864-8.05849E+04-1.57940E-01-4.29130E+01-4.23138E+02 1.83425E-09-3.36549E-10
 -1       865-8.05784E+04 2.05670E+01 2.89137E+01 4.03308E+03 4.66163E-09-9.80047E-09
 -1       866-8.05946E+04-1.41250E+01 1.00435E+02-4.14366E+02-1.92071E-09-6.36035E-09
 -1       867-8.05200E+04 1.18484E+02 2.74232E+02 4.00929E+03-2.11386E-09 7.29123E-10
 -1       868-8.06405E+04-9.74598E+01 4.62245E+02-3.99341E+02 1.50010E-10 3.55109E-09
 -1       869-8.01733E+04 8.08256E+02 1.24069E+03 3.96985E+03-4.10154E-09-2.93358E-09
 -1       870-8.09372E+04-6.86841E+02 1.79927E+03-3.74933E+02-6.46935E-10-2.88912E-09
 -1       871-3.66180E+03-7.65602E+03-1.18664E+04 7.78031E+04 1.99634E-09 2.31375E-09
 -1       872-1.59772E+03-1.03095E+04-4.83398E+03 1.00866E+05 4.13138E-09-4.94765E-09
 -1       873-4.39827E+01-9.07011E+03 6.99171E+02 7.76318E+04 1.61731E-09 4.53190E-09
 -1       874 1.81718E+03-7.33798E+03 6.75039E+03 1.00902E+05 3.50292E-09 8.90952E-09
 -1       875 4.32312E+03-1.06724E+04 1.49643E+04 7.77746E+04 3.32238E-09 2.02044E-09
 -1       876 1.94398E+05 3.35253E+04 1.04148E+04 7.89036E+04-3.90276E-09-2.99315E-09
 -1       877 1.94987E+05 3.58173E+04 5.56171E+03 8.19899E+04-3.12639E-09-1.20875E-08
 -1       878 1.95371E+05 3.23724E+04 2.33010E+03 7.97588E+04 2.80647E-09 3.36740E-10
 -1       879 1.93570E+05 3.44065E+04 1.16072E+03 8.20640E+04 9.23706E-10 5.37105E-09
 -1       880 1.95442E+05 3.23595E+04 5.40375E+02 7.97936E+04 1.16665E-09-9.51104E-09
 -1       881 1.93476E+05 3.43467E+04 2.87777E+02 8.20495E+04 3.10445E-09-6.17534E-09
 -1       882 1.95449E+05 3.23679E+04 1.82758E+02 7.97946E+04 5.50335E-09-2.44536E-09
 -1       883 1.93470E+05 3.43439E+04 1.94293E+02 8.20453E+04 1.78670E-09 2.10912E-09
 -1       884 1.95446E+05 3.23658E+04 3.07104E+02 7.97947E+04 8.36621E-10 3.56124E-10
 -1       885 1.93494E+05 3.43482E+04 6.16220E+02 8.20531E+04 6.32889E-09 5.58970E-09
 -1       886 1.95422E+05 3.23477E+04 1.24140E+03 7.97923E+04 3.36473E-09 1.49032E-09
 -1       887 1.93712E+05 3.44912E+04 2.71147E+03 8.20844E+04-5.11545E-09-4.71891E-09
 -1       888 1.95250E+05 3.23780E+04 5.46366E+03 7.97055E+04-3.43505E-10-1.17188E-09
 -1       889 1.96968E+05 3.78712E+04 1.30523E+04 8.19808E+04 5.58339E-09 4.89354E-09
 -1       890 1.93024E+05 3.50223E+04 2.44459E+04 7.76213E+04 5.99266E-09 1.68566E-08
 -1       891-1.23112E+02-1.10528E+05-1.30349E+03 2.10248E+04-1.14971E-09 5.24381E-09
 -1       892-2.13848E+02-1.10839E+05-1.41867E+03 3.18141E+04-2.64390E-09 6.34782E-09
 -1       893-3.63871E+01-1.10569E+05-2.02789E+03 2.10289E+04 7.96035E-10 5.94400E-09
 -1       894-1.11180E+03-1.11618E+05-4.21113E+03 3.17011E+04-1.72395E-09-3.76531E-09
 -1       895-8.68293E+02-1.09694E+05-7.42093E+03 2.11363E+04 1.91363E-09-1.13505E-09
 -1       956-2.44312E+05-3.52163E+03-8.87008E+03 1.61627E+04 1.68484E-09 1.47315E-09
 -1       957-2.46064E+05-1.18651E+03-4.55359E+03 1.94626E+04 9.12269E-09 1.22523E-08
 -1       958-2.45098E+05-9.29723E+01-2.05148E+03 1.60571E+04 7.95080E-09-3.19119E-09
 -1       959-2.45238E+05-1.43963E+01-1.04786E+03 1.95767E+04-2.64481E-09 1.32604E-09
 -1       960-2.45168E+05 3.10491E+01-5.10737E+02 1.60471E+04-4.37421E-09 1.44337E-09
 -1       961-2.45177E+05 2.95481E+01-2.70787E+02 1.95881E+04-4.83033E-09 7.29437E-09
 -1       962-2.45182E+05 2.73218E+01-1.54593E+02 1.60457E+04-5.20481E-09 2.63776E-09
 -1       963-2.45175E+05 3.05708E+01-1.23365E+02 1.95901E+04-9.87040E-09 4.04998E-09
 -1       964-2.45185E+05 2.90272E+01-1.48832E+02 1.60451E+04-4.72085E-09 5.12932E-09
 -1       965-2.45184E+05 3.33044E+01-2.56396E+02 1.95902E+04 9.17357E-10 5.04622E-09
 -1       966-2.45177E+05 3.60719E+01-4.80821E+02 1.60456E+04-2.51123E-09 3.51872E-09
 -1       967-2.45248E+05-4.35294E+00-9.85932E+02 1.95841E+04-5.24778E-10-3.18016E-09
 -1       968-2.45117E+05-7.71304E+01-1.92927E+03 1.60513E+04 5.10818E-09-6.22947E-09
 -1       969-2.46031E+05-1.10378E+03-4.28353E+03 1.95172E+04 1.02270E-08-6.27537E-09
 -1       970-2.44382E+05-3.30029E+03-8.34329E+03 1.61149E+04 5.87625E-09-2.71302E-09
 -1       971-2.32052E+05-1.22495E+03-6.82209E+03 1.13357E+04-1.56888E-10-3.71188E-11
 -1       972-2.33712E+05-8.77187E+02-3.71540E+03 1.58360E+04 4.95152E-09-5.20367E-09
 -1       973-2.32810E+05-6.26435E+00-1.66353E+03 1.12413E+04 2.97268E-09 2.54988E-09
 -1       974-2.32926E+05-5.94952E+00-8.61816E+02 1.59376E+04 3.73007E-09 1.67699E-09
 -1       975-2.32868E+05 2.51314E+01-4.29670E+02 1.12330E+04-4.68390E-10 1.66710E-09
 -1       976-2.32878E+05 2.92939E+01-2.46026E+02 1.59476E+04-4.18675E-09-2.03681E-09
 -1       977-2.32879E+05 2.45848E+01-1.75133E+02 1.12312E+04 3.91765E-10-2.30557E-09
 -1       978-2.32880E+05 3.29795E+01-2.00327E+02 1.59501E+04 8.90014E-09-1.54114E-09
 -1       979-2.32878E+05 2.98151E+01-3.17844E+02 1.12305E+04 6.10180E-09 4.43185E-09
 -1       980-2.32904E+05 3.48606E+01-6.11200E+02 1.59505E+04 8.40008E-09 2.35849E-09
 -1       981-2.32859E+05 4.50480E+01-1.18240E+03 1.12308E+04-1.04603E-09-6.69331E-10
 -1       982-2.33066E+05-5.22825E+01-2.44322E+03 1.59458E+04-5.49880E-09-7.66271E-10
 -1       983-2.32710E+05-3.03206E+01-4.74673E+03 1.12353E+04 5.61022E-09 1.65824E-09
 -1       984-2.35349E+05-2.53072E+03-1.06295E+04 1.58819E+04 1.25892E-08 4.89649E-09
 -1       985-2.30562E+05-3.50338E+03-1.95192E+04 1.12993E+04 9.29140E-09-3.40151E-10
 -3
    1PSTEP                         9           5           1          
  100CL  105 5.03906E-01         409                     0    5           1
 -4  DISP        4    1
 -5  D1          1    2    1    0
 -5  D2          1    2    2    0
 -5  D3          1    2    3    0
 -5  ALL         1    2    0    0    1ALL
 -1         1 1.52998E-04 0.00000E+00 0.00000E+00
 -1         2 1.37938E-04-6.57776E-31 0.00000E+00
 -1         3 1.35477E-04-1.01122E-27 0.00000E+00
 -1         5 9.22380E-05-3.95235E-27 0.00000E+00
 -1         8 1.28012E-04-8.82968E-07 0.00000E+00
 -1         9 1.25462E-04-6.63203E-08 0.00000E+00
 -1        10 1.25013E-04-1.83239E-06-6.61744E-24
 -1        12 9.18426E-05 5.52921E-07 3.30872E-24
 -1        15 9.82292E-05-9.78268E-07 0.00000E+00
 -1        16 1.02025E-04-2.43739E-07 0.00000E+00
 -1        17 9.17513E-05-3.88842E-06 0.00000E+00
 -1        18 8.95785E-05 2.53319E-06 0.00000E+00
 -1        19 9.06567E-05 1.10287E-06 0.00000E+00
 -1        20 9.07961E-05 1.41315E-05 0.00000E+00
 -1        21 9.02503E-05 2.62422E-05 1.65436E-24
 -1        24 2.04413E-05-5.36848E-06 0.00000E+00
 -1        25 8.86710E-05 2.66296E-06 0.00000E+00
 -1        26 8.96162E-05 1.53375E-06 0.00000E+00
 -1        27 8.80846E-05 1.16663E-05 0.00000E+00
 -1        28 8.76184E-05 2.57729E-05 0.00000E+00
 -1        32 0.00000E+00 0.00000E+00 0.00000E+00
 -1        33 8.73242E-05 2.05453E-06 0.00000E+00
 -1        34 8.58423E-05 1.16435E-05 0.00000E+00
 -1        35 8.44389E-05 2.55243E-05 0.00000E+00
 -1        51 1.51376E-04-1.45901E-07 0.00000E+00
 -1        52 1.48366E-04-2.86910E-07 0.00000E+00
 -1        53 1.44241E-04-4.29306E-07 0.00000E+00
 -1        54 1.39285E-04-5.74666E-07 0.00000E+00
 -1        55 1.33781E-04-7.23805E-07-5.81611E-24
 -1        56 1.51635E-04-8.02427E-07 0.00000E+00
 -1        57 1.50395E-04-2.08816E-06 0.00000E+00
 -1        58 1.49284E-04-3.71243E-06 5.29396E-23
 -1        59 1.48240E-04-5.54276E-06 0.00000E+00
 -1        60 1.47216E-04-7.42453E-06-5.29396E-23
 -1        61 1.46151E-04-9.20501E-06 0.00000E+00
 -1        62 1.44994E-04-1.07380E-05-5.29396E-23
 -1        63 1.43693E-04-1.18866E-05 2.64698E-23
 -1        64 1.42207E-04-1.25415E-05 0.00000E+00
 -1        65 1.40501E-04-1.26107E-05 0.00000E+00
 -1        66 1.38556E-04-1.20444E-05 5.29396E-23
 -1        67 1.36364E-04-1.08148E-05 0.00000E+00
 -1        68 1.33929E-04-8.94258E-06 0.00000E+00
 -1        69 1.31275E-04-6.46790E-06 2.64698E-23
 -1        70 1.28424E-04-3.48036E-06 2.64698E-23
 -1        86 1.37591E-04-3.57065E-09-8.27181E-25
 -1        87 1.36548E-04-8.14042E-09 0.00000E+00
 -1        88 1.34813E-04-1.37134E-08-1.65436E-24
 -1        89 1.32385E-04-2.40376E-08-1.65436E-24
 -1        90 1.29267E-04-3.50605E-08 0.00000E+00
 -1       121 1.35184E-04-3.03387E-07-6.61744E-24
 -1       122 1.34308E-04-6.07108E-07 0.00000E+00
 -1       123 1.32849E-04-9.11494E-07 0.00000E+00
 -1       124 1.30810E-04-1.21692E-06-3.30872E-24
 -1       125 1.28197E-04-1.52362E-06 0.00000E+00
 -1       191 9.22270E-05 9.21594E-08 0.00000E+00
 -1       192 9.21941E-05 1.84317E-07 0.00000E+00
 -1       193 9.21391E-05 2.76475E-07-3.30872E-24
 -1       194 9.20623E-05 3.68629E-07-1.65436E-24
 -1       195 9.19634E-05 4.60778E-07 3.30872E-24
 -1       251 1.27840E-04 3.39867E-06 0.00000E+00
 -1       252 1.27679E-04 6.31786E-06 0.00000E+00
 -1       253 1.27521E-04 7.94390E-06 6.61744E-24
 -1       254 1.27366E-04 8.35413E-06 3.30872E-24
 -1       255 1.27210E-04 7.72184E-06 0.00000E+00
 -1       256 1.27054E-04 6.22692E-06-3.30872E-24
 -1       257 1.26897E-04 4.11723E-06 0.00000E+00
 -1       258 1.26739E-04 1.64453E-06 0.00000E+00
 -1       259 1.26581E-04-9.10894E-07 0.00000E+00
 -1       260 1.26423E-04-3.26815E-06 0.00000E+00
 -1       261 1.26266E-04-5.16196E-06 0.00000E+00
 -1       262 1.26110E-04-6.33005E-06 0.00000E+00
 -1       263 1.25954E-04-6.56730E-06-6.61744E-24
 -1       264 1.25796E-04-5.67446E-06 3.30872E-24
 -1       265 1.25637E-04-3.54155E-06 0.00000E+00
 -1       266 1.23049E-04-9.11003E-07 6.61744E-24
 -1       267 1.18085E-04-9.25402E-07-1.65436E-24
 -1       268 1.13121E-04-9.40674E-07 0.00000E+00
 -1       269 1.08157E-04-9.53379E-07-4.13590E-25
 -1       270 1.03193E-04-9.66028E-07 0.00000E+00
 -1       271 1.25015E-04 2.93444E-06 2.64698E-23
 -1       272 1.22419E-04 5.55519E-06 1.32349E-23
 -1       273 1.20232E-04 7.09877E-06 5.29396E-23
 -1       274 1.18398E-04 7.68365E-06 0.00000E+00
 -1       275 1.16870E-04 7.45179E-06-5.29396E-23
 -1       276 1.15590E-04 6.55715E-06-2.64698E-23
 -1       277 1.14495E-04 5.16683E-06 0.00000E+00
 -1       278 1.13520E-04 3.45644E-06-2.64698E-23
 -1       279 1.12596E-04 1.60773E-06-5.29396E-23
 -1       280 1.11655E-04-1.95074E-07 2.64698E-23
 -1       281 1.10628E-04-1.76872E-06 5.29396E-23
 -1       282 1.09450E-04-2.93392E-06 0.00000E+00
 -1       283 1.08055E-04-3.51935E-06 0.00000E+00
 -1       284 1.06386E-04-3.36238E-06 0.00000E+00
 -1       285 1.04383E-04-2.31801E-06 0.00000E+00
 -1       301 1.21243E-04-1.06668E-07-6.61744E-24
 -1       302 1.17068E-04-1.28301E-07-3.30872E-24
 -1       303 1.12997E-04-1.48759E-07 0.00000E+00
 -1       304 1.09092E-04-1.69828E-07 0.00000E+00
 -1       305 1.05415E-04-1.92349E-07 0.00000E+00
 -1       306 1.22472E-04 2.24139E-06 0.00000E+00
 -1       307 1.20295E-04 2.20858E-06-2.64698E-23
 -1       308 1.18945E-04-1.90215E-08-5.29396E-23
 -1       309 1.18309E-04-4.19878E-06 0.00000E+00
 -1       310 1.18174E-04-9.73195E-06-5.29396E-23
 -1       311 1.18289E-04-1.59462E-05 0.00000E+00
 -1       312 1.18361E-04-2.20462E-05 0.00000E+00
 -1       313 1.18100E-04-2.72442E-05 2.64698E-23
 -1       314 1.17271E-04-3.09130E-05 0.00000E+00
 -1       315 1.15671E-04-3.25134E-05 2.64698E-23
 -1       316 1.13232E-04-3.18764E-05 0.00000E+00
 -1       317 1.09935E-04-2.89597E-05 2.64698E-23
 -1       318 1.05909E-04-2.41278E-05 0.00000E+00
 -1       319 1.01345E-04-1.78481E-05-2.64698E-23
 -1       320 9.65034E-05-1.08550E-05-2.64698E-23
 -1       336 1.21191E-04-2.16728E-06-6.61744E-24
 -1       337 1.16664E-04-2.50545E-06 0.00000E+00
 -1       338 1.11442E-04-2.84677E-06 6.61744E-24
 -1       339 1.05538E-04-3.19121E-06 3.30872E-24
 -1       340 9.89692E-05-3.53968E-06-6.61744E-24
 -1       406 9.16998E-05 6.45049E-07 0.00000E+00
 -1       407 9.15351E-05 7.37144E-07-1.65436E-24
 -1       408 9.13483E-05 8.29179E-07-3.30872E-24
 -1       409 9.11396E-05 9.21042E-07 0.00000E+00
 -1       410 9.09090E-05 1.01255E-06-3.30872E-24
 -1       521 1.03558E-04-1.34767E-05 0.00000E+00
 -1       522 1.15253E-04-5.63714E-05-5.29396E-23
 -1       523 1.34181E-04-1.21812E-04 1.05879E-22
 -1       524 1.57127E-04-2.00703E-04 0.00000E+00
 -1       525 1.80475E-04-2.80958E-04 0.00000E+00
 -1       526 2.00595E-04-3.50366E-04-5.29396E-23
 -1       527 2.14202E-04-3.99143E-04-1.05879E-22
 -1       528 2.18112E-04-4.19339E-04 0.00000E+00
 -1       529 2.10767E-04-4.09198E-04-1.05879E-22
 -1       530 1.91481E-04-3.69496E-04 0.00000E+00
 -1       531 1.62410E-04-3.07127E-04 0.00000E+00
 -1       532 1.26928E-04-2.30673E-04-5.29396E-23
 -1       533 9.02062E-05-1.51535E-04 1.05879E-22
 -1       534 5.76069E-05-8.12856E-05-5.29396E-23
 -1       535 3.32933E-05-2.97602E-05 5.29396E-23
 -1       536 9.16019E-05 4.53847E-06 6.61744E-24
 -1       537 9.14417E-05 1.47293E-05 0.00000E+00
 -1       538 9.12752E-05 2.55208E-05 0.00000E+00
 -1       539 9.11154E-05 3.57473E-05 0.00000E+00
 -1       540 9.09698E-05 4.43687E-05 3.30872E-24
 -1       541 9.08430E-05 5.03526E-05 0.00000E+00
 -1       542 9.07291E-05 5.32558E-05 0.00000E+00
 -1       543 9.06191E-05 5.26500E-05 0.00000E+00
 -1       544 9.05027E-05 4.88894E-05 0.00000E+00
 -1       545 9.03725E-05 4.23435E-05 1.65436E-24
 -1       546 9.02299E-05 3.40037E-05 0.00000E+00
 -1       547 9.00809E-05 2.48702E-05 1.65436E-24
 -1       548 8.99351E-05 1.61207E-05 0.00000E+00
 -1       549 8.98023E-05 8.93130E-06 0.00000E+00
 -1       550 8.96826E-05 4.13009E-06 8.27181E-25
 -1       551 8.23419E-05-4.10658E-06 0.00000E+00
 -1       552 7.11229E-05-4.33847E-06 1.65436E-24
 -1       553 5.87044E-05-4.58323E-06 4.96308E-24
 -1       554 4.57057E-05-4.83708E-06-3.30872E-24
 -1       555 3.27463E-05-5.09320E-06-1.32349E-23
 -1       556 8.92345E-05 2.62884E-06 0.00000E+00
 -1       557 8.72892E-05 7.67607E-06 0.00000E+00
 -1       558 8.58541E-05 1.13846E-05 0.00000E+00
 -1       559 8.48732E-05 1.38966E-05 0.00000E+00
 -1       560 8.42910E-05 1.53537E-05 0.00000E+00
 -1       561 8.40522E-05 1.58986E-05 0.00000E+00
 -1       562 8.41025E-05 1.56742E-05 0.00000E+00
 -1       563 8.43875E-05 1.48236E-05 0.00000E+00
 -1       564 8.48533E-05 1.34898E-05 0.00000E+00
 -1       565 8.54461E-05 1.18163E-05-1.65436E-24
 -1       566 8.61123E-05 9.94624E-06 0.00000E+00
 -1       567 8.67983E-05 8.02315E-06 1.03398E-25
 -1       568 8.74506E-05 6.19035E-06 0.00000E+00
 -1       569 8.80157E-05 4.59105E-06 0.00000E+00
 -1       570 8.84400E-05 3.36853E-06 0.00000E+00
 -1       571 8.96439E-05 2.47581E-06 8.27181E-25
 -1       572 8.97108E-05 2.37431E-06 4.13590E-25
 -1       573 8.97781E-05 2.23683E-06 0.00000E+00
 -1       574 8.98456E-05 2.07195E-06-4.13590E-25
 -1       575 8.99131E-05 1.88827E-06 0.00000E+00
 -1       576 8.99807E-05 1.69444E-06 0.00000E+00
 -1       577 9.00484E-05 1.49912E-06 0.00000E+00
 -1       578 9.01160E-05 1.31099E-06 0.00000E+00
 -1       579 9.01836E-05 1.13872E-06 0.00000E+00
 -1       580 9.02512E-05 9.90980E-07 0.00000E+00
 -1       581 9.03189E-05 8.76437E-07 0.00000E+00
 -1       582 9.03865E-05 8.03750E-07 3.30872E-24
 -1       583 9.04541E-05 7.81574E-07 0.00000E+00
 -1       584 9.05217E-05 8.18474E-07 0.00000E+00
 -1       585 9.05893E-05 9.22957E-07 0.00000E+00
 -1       586 8.93970E-05 2.55615E-06 8.27181E-25
 -1       587 8.91884E-05 2.57857E-06-2.06795E-25
 -1       588 8.89820E-05 2.60075E-06 0.00000E+00
 -1       589 8.88074E-05 2.62258E-06 0.00000E+00
 -1       590 8.86942E-05 2.64379E-06 0.00000E+00
 -1       591 8.95676E-05 2.51301E-06-5.16988E-26
 -1       592 8.95669E-05 2.45881E-06 0.00000E+00
 -1       593 8.95763E-05 2.37719E-06 0.00000E+00
 -1       594 8.95934E-05 2.27409E-06 4.13590E-25
 -1       595 8.96163E-05 2.15551E-06 0.00000E+00
 -1       596 8.96427E-05 2.02741E-06 2.06795E-25
 -1       597 8.96704E-05 1.89575E-06-4.13590E-25
 -1       598 8.96972E-05 1.76649E-06 2.06795E-25
 -1       599 8.97208E-05 1.64556E-06-4.13590E-25
 -1       600 8.97391E-05 1.53894E-06 0.00000E+00
 -1       601 8.97499E-05 1.45256E-06 0.00000E+00
 -1       602 8.97509E-05 1.39238E-06 1.03398E-25
 -1       603 8.97398E-05 1.36436E-06-2.06795E-25
 -1       604 8.97148E-05 1.37452E-06 0.00000E+00
 -1       605 8.96735E-05 1.42876E-06 4.13590E-25
 -1       606 9.06689E-05 1.43632E-06 0.00000E+00
 -1       607 9.06786E-05 1.86212E-06 0.00000E+00
 -1       608 9.06877E-05 2.37485E-06 0.00000E+00
 -1       609 9.06965E-05 2.96839E-06 1.65436E-24
 -1       610 9.07052E-05 3.63661E-06 0.00000E+00
 -1       611 9.07137E-05 4.37327E-06 0.00000E+00
 -1       612 9.07222E-05 5.17213E-06 0.00000E+00
 -1       613 9.07306E-05 6.02696E-06 0.00000E+00
 -1       614 9.07390E-05 6.93152E-06 0.00000E+00
 -1       615 9.07473E-05 7.87956E-06 0.00000E+00
 -1       616 9.07556E-05 8.86485E-06 1.65436E-24
 -1       617 9.07639E-05 9.88115E-06 0.00000E+00
 -1       618 9.07721E-05 1.09222E-05 0.00000E+00
 -1       619 9.07803E-05 1.19818E-05 0.00000E+00
 -1       620 9.07884E-05 1.30536E-05 4.13590E-25
 -1       621 9.04214E-05 1.17475E-06 1.65436E-24
 -1       622 9.02204E-05 1.24697E-06 8.27181E-25
 -1       623 9.00467E-05 1.31917E-06-1.65436E-24
 -1       624 8.98929E-05 1.39125E-06 0.00000E+00
 -1       625 8.97518E-05 1.46321E-06-1.65436E-24
 -1       626 9.06093E-05 1.45950E-06 0.00000E+00
 -1       627 9.05341E-05 1.89209E-06 0.00000E+00
 -1       628 9.04332E-05 2.39344E-06 0.00000E+00
 -1       629 9.03094E-05 2.95589E-06 0.00000E+00
 -1       630 9.01656E-05 3.57179E-06 0.00000E+00
 -1       631 9.00046E-05 4.23340E-06 0.00000E+00
 -1       632 8.98294E-05 4.93301E-06 0.00000E+00
 -1       633 8.96428E-05 5.66291E-06 1.65436E-24
 -1       634 8.94476E-05 6.41538E-06 0.00000E+00
 -1       635 8.92469E-05 7.18270E-06 0.00000E+00
 -1       636 8.90435E-05 7.95716E-06 0.00000E+00
 -1       637 8.88403E-05 8.73104E-06-8.27181E-25
 -1       638 8.86402E-05 9.49662E-06 0.00000E+00
 -1       639 8.84459E-05 1.02462E-05-8.27181E-25
 -1       640 8.82601E-05 1.09720E-05 0.00000E+00
 -1       656 8.99206E-05 1.37304E-05 0.00000E+00
 -1       657 8.93978E-05 1.33133E-05 0.00000E+00
 -1       658 8.90955E-05 1.28974E-05-1.32349E-23
 -1       659 8.88779E-05 1.24819E-05 3.30872E-24
 -1       660 8.85916E-05 1.20651E-05 6.61744E-24
 -1       661 9.04728E-05 1.51836E-05-8.27181E-25
 -1       662 9.01726E-05 1.61824E-05-8.27181E-25
 -1       663 8.98917E-05 1.71295E-05-1.65436E-24
 -1       664 8.96296E-05 1.80278E-05 8.27181E-25
 -1       665 8.93851E-05 1.88794E-05-1.65436E-24
 -1       666 8.91573E-05 1.96868E-05-8.27181E-25
 -1       667 8.89453E-05 2.04522E-05 0.00000E+00
 -1       668 8.87483E-05 2.11778E-05-8.27181E-25
 -1       669 8.85654E-05 2.18656E-05 0.00000E+00
 -1       670 8.83961E-05 2.25175E-05 0.00000E+00
 -1       671 8.82395E-05 2.31354E-05-1.65436E-24
 -1       672 8.80948E-05 2.37210E-05 0.00000E+00
 -1       673 8.79616E-05 2.42762E-05 1.65436E-24
 -1       674 8.78384E-05 2.48023E-05 0.00000E+00
 -1       675 8.77257E-05 2.53013E-05 0.00000E+00
 -1       676 8.98105E-05 2.61635E-05-1.65436E-24
 -1       677 8.93709E-05 2.60849E-05 0.00000E+00
 -1       678 8.89317E-05 2.60063E-05-1.65436E-24
 -1       679 8.84930E-05 2.59279E-05 0.00000E+00
 -1       680 8.80552E-05 2.58495E-05 0.00000E+00
 -1       771 1.56521E-05 4.24730E-06 0.00000E+00
 -1       772 1.15198E-05 1.21277E-05 0.00000E+00
 -1       773 8.01599E-06 1.83661E-05 0.00000E+00
 -1       774 5.09901E-06 2.30635E-05 2.64698E-23
 -1       775 2.72780E-06 2.63236E-05-5.29396E-23
 -1       776 8.59504E-07 2.82543E-05 2.64698E-23
 -1       777-5.49224E-07 2.89660E-05 5.29396E-23
 -1       778-1.54270E-06 2.85725E-05-2.64698E-23
 -1       779-2.16555E-06 2.71897E-05-2.64698E-23
 -1       780-2.46322E-06 2.49364E-05 0.00000E+00
 -1       781-2.48128E-06 2.19332E-05 0.00000E+00
 -1       782-2.26596E-06 1.83025E-05 1.32349E-23
 -1       783-1.86353E-06 1.41682E-05 2.64698E-23
 -1       784-1.32068E-06 9.65550E-06 0.00000E+00
 -1       785-6.84154E-07 4.89045E-06 2.64698E-23
 -1       786 8.87265E-05 2.49108E-06 4.13590E-25
 -1       787 8.87854E-05 2.33386E-06 4.13590E-25
 -1       788 8.88441E-05 2.18903E-06 0.00000E+00
 -1       789 8.89034E-05 2.05439E-06 0.00000E+00
 -1       790 8.89627E-05 1.92912E-06-1.65436E-24
 -1       791 8.90222E-05 1.81242E-06 8.27181E-25
 -1       792 8.90817E-05 1.70467E-06 0.00000E+00
 -1       793 8.91412E-05 1.60628E-06 0.00000E+00
 -1       794 8.92008E-05 1.51894E-06 0.00000E+00
 -1       795 8.92603E-05 1.44436E-06 0.00000E+00
 -1       796 8.93198E-05 1.38603E-06-1.65436E-24
 -1       797 8.93793E-05 1.34745E-06 0.00000E+00
 -1       798 8.94388E-05 1.33485E-06 0.00000E+00
 -1       799 8.94982E-05 1.35453E-06 0.00000E+00
 -1       800 8.95576E-05 1.41722E-06 1.65436E-24
 -1       801 8.26669E-05 2.35357E-06-6.61744E-24
 -1       802 6.43789E-05 1.88933E-06 0.00000E+00
 -1       803 4.04856E-05 1.31856E-06 1.32349E-23
 -1       804 1.77428E-05 7.66235E-07 0.00000E+00
 -1       805 2.24616E-06 3.40982E-07 2.64698E-23
 -1       806 8.86577E-05 2.44576E-06 0.00000E+00
 -1       807 8.86390E-05 2.23464E-06 0.00000E+00
 -1       808 8.86157E-05 2.03409E-06-3.30872E-24
 -1       809 8.85868E-05 1.84783E-06 8.27181E-25
 -1       810 8.85510E-05 1.67957E-06 3.30872E-24
 -1       811 8.85070E-05 1.53294E-06 0.00000E+00
 -1       812 8.84536E-05 1.41160E-06 0.00000E+00
 -1       813 8.83893E-05 1.31917E-06-1.65436E-24
 -1       814 8.83128E-05 1.25927E-06-1.65436E-24
 -1       815 8.82227E-05 1.23552E-06 8.27181E-25
 -1       816 8.81177E-05 1.25155E-06 0.00000E+00
 -1       817 8.79965E-05 1.31096E-06-1.65436E-24
 -1       818 8.78577E-05 1.41738E-06-1.65436E-24
 -1       819 8.77000E-05 1.57439E-06 1.65436E-24
 -1       820 8.75223E-05 1.78560E-06 1.65436E-24
 -1       821 8.95260E-05 1.65839E-06-8.27181E-25
 -1       822 8.94303E-05 1.74634E-06 8.27181E-25
 -1       823 8.93350E-05 1.85016E-06 0.00000E+00
 -1       824 8.92386E-05 2.02235E-06 0.00000E+00
 -1       825 8.91421E-05 2.30177E-06 0.00000E+00
 -1       826 8.90454E-05 2.72681E-06 0.00000E+00
 -1       827 8.89486E-05 3.30685E-06 0.00000E+00
 -1       828 8.88517E-05 4.05061E-06-1.65436E-24
 -1       829 8.87546E-05 4.93417E-06 3.30872E-24
 -1       830 8.86575E-05 5.93301E-06 0.00000E+00
 -1       831 8.85604E-05 6.99968E-06-3.30872E-24
 -1       832 8.84634E-05 8.08639E-06 0.00000E+00
 -1       833 8.83665E-05 9.14135E-06 3.30872E-24
 -1       834 8.82708E-05 1.01129E-05 0.00000E+00
 -1       835 8.81748E-05 1.09661E-05 0.00000E+00
 -1       836 8.93817E-05 1.62044E-06 0.00000E+00
 -1       837 8.90356E-05 1.70907E-06-8.27181E-25
 -1       838 8.86172E-05 1.79752E-06 0.00000E+00
 -1       839 8.81662E-05 1.88541E-06-8.27181E-25
 -1       840 8.77221E-05 1.97316E-06-4.13590E-25
 -1       856 8.80589E-05 1.23455E-05-2.06795E-25
 -1       857 8.80301E-05 1.31291E-05-2.06795E-25
 -1       858 8.80014E-05 1.40005E-05-8.27181E-25
 -1       859 8.79721E-05 1.49433E-05 0.00000E+00
 -1       860 8.79428E-05 1.59409E-05 8.27181E-25
 -1       861 8.79133E-05 1.69767E-05 0.00000E+00
 -1       862 8.78837E-05 1.80341E-05-8.27181E-25
 -1       863 8.78542E-05 1.90963E-05-4.13590E-25
 -1       864 8.78246E-05 2.01467E-05 0.00000E+00
 -1       865 8.77951E-05 2.11686E-05 4.13590E-25
 -1       866 8.77656E-05 2.21453E-05-8.27181E-25
 -1       867 8.77361E-05 2.30602E-05-4.13590E-25
 -1       868 8.77067E-05 2.38968E-05 0.00000E+00
 -1       869 8.76773E-05 2.46387E-05 4.13590E-25
 -1       870 8.76480E-05 2.52695E-05-8.27181E-25
 -1       871 8.76040E-05 1.16653E-05 0.00000E+00
 -1       872 8.72251E-05 1.16623E-05 0.00000E+00
 -1       873 8.69039E-05 1.16589E-05 0.00000E+00
 -1       874 8.65960E-05 1.16549E-05-5.16988E-26
 -1       875 8.62568E-05 1.16505E-05-6.20385E-25
 -1       876 8.79217E-05 1.23545E-05 0.00000E+00
 -1       877 8.77419E-05 1.30935E-05 0.00000E+00
 -1       878 8.75455E-05 1.38771E-05 3.30872E-24
 -1       879 8.73347E-05 1.46996E-05 1.65436E-24
 -1       880 8.71115E-05 1.55552E-05 0.00000E+00
 -1       881 8.68781E-05 1.64384E-05 1.65436E-24
 -1       882 8.66364E-05 1.73432E-05 3.30872E-24
 -1       883 8.63888E-05 1.82642E-05 1.65436E-24
 -1       884 8.61372E-05 1.91955E-05 0.00000E+00
 -1       885 8.58839E-05 2.01314E-05 1.65436E-24
 -1       886 8.56309E-05 2.10664E-05 0.00000E+00
 -1       887 8.53803E-05 2.19946E-05 0.00000E+00
 -1       888 8.51343E-05 2.29104E-05 1.65436E-24
 -1       889 8.48946E-05 2.38080E-05-8.27181E-25
 -1       890 8.46634E-05 2.46816E-05-8.27181E-25
 -1       891 8.72017E-05 2.57313E-05 0.00000E+00
 -1       892 8.67671E-05 2.56896E-05 8.27181E-25
 -1       893 8.62941E-05 2.56479E-05 8.27181E-25
 -1       894 8.57620E-05 2.56063E-05 2.06795E-25
 -1       895 8.51503E-05 2.55647E-05 6.20385E-25
 -1       956 8.72333E-05 2.44142E-06 0.00000E+00
 -1       957 8.71410E-05 2.88732E-06 1.65436E-24
 -1       958 8.70483E-05 3.38598E-06-1.65436E-24
 -1       959 8.69554E-05 3.93080E-06 8.27181E-25
 -1       960 8.68625E-05 4.51513E-06 0.00000E+00
 -1       961 8.67696E-05 5.13232E-06 0.00000E+00
 -1       962 8.66766E-05 5.77570E-06 3.30872E-24
 -1       963 8.65836E-05 6.43859E-06-1.65436E-24
 -1       964 8.64905E-05 7.11431E-06 0.00000E+00
 -1       965 8.63975E-05 7.79620E-06 0.00000E+00
 -1       966 8.63045E-05 8.47757E-06 3.30872E-24
 -1       967 8.62115E-05 9.15174E-06 0.00000E+00
 -1       968 8.61186E-05 9.81205E-06-3.30872E-24
 -1       969 8.60259E-05 1.04518E-05 0.00000E+00
 -1       970 8.59334E-05 1.10645E-05 0.00000E+00
 -1       971 8.57557E-05 1.22406E-05-1.65436E-24
 -1       972 8.56679E-05 1.29150E-05 8.27181E-25
 -1       973 8.55800E-05 1.36580E-05-3.30872E-24
 -1       974 8.54919E-05 1.44608E-05 0.00000E+00
 -1       975 8.54037E-05 1.53145E-05-1.65436E-24
 -1       976 8.53155E-05 1.62103E-05-8.27181E-25
 -1       977 8.52272E-05 1.71393E-05-3.30872E-24
 -1       978 8.51389E-05 1.80925E-05-1.65436E-24
 -1       979 8.50506E-05 1.90611E-05 0.00000E+00
 -1       980 8.49623E-05 2.00362E-05 0.00000E+00
 -1       981 8.48740E-05 2.10089E-05-3.30872E-24
 -1       982 8.47858E-05 2.19702E-05 0.00000E+00
 -1       983 8.46978E-05 2.29112E-05 0.00000E+00
 -1       984 8.46101E-05 2.38232E-05 1.65436E-24
 -1       985 8.45228E-05 2.46971E-05 0.00000E+00
 -3
    1PSTEP                        10           5           1          
  100CL  105 5.03906E-01         409                     0    5           1
 -4  STRESS      6    1
 -5  SXX         1    4    1    1
 -5  SYY         1    4    2    2
 -5  SZZ         1    4    3    3
 -5  SXY         1    4    1    2
 -5  SYZ         1    4    2    3
 -5  SZX         1    4    3    1
 -1         1-1.94897E+06-8.55076E+05-4.06897E+05-1.14605E+06 2.47383E-10-1.07684E-08
 -1         2 2.64710E+03-6.50367E+03 8.65556E+03-2.39121E+01-1.22981E-10 1.23975E-10
 -1         3-1.47473E+02-8.66285E+05 2.04844E+02-4.01603E+02-1.35078E-10 6.10271E-09
 -1         5-4.12033E+00 2.63698E+05 6.88035E+00 1.16236E-01 4.69610E-11-5.04347E-08
 -1         8-9.25524E+05-3.62465E+05-6.48194E+04-5.64574E+05-1.89175E-10 1.44064E-09
 -1         9-1.77022E+06-5.22841E+05-2.03602E+05-5.56405E+05 3.90282E-09 3.32366E-09
 -1        10-7.37193E+02-9.02488E+05-1.21961E+03-2.71551E+03-4.20278E-09-1.11066E-08
 -1        12-1.29969E+00 2.63712E+05 2.22953E+02 9.70440E-01 1.37955E-10-5.53291E-09
 -1        15 2.05759E+03 1.12228E+03 6.52615E+03 4.45719E+00 1.47793E-10-1.04510E-08
 -1        16-3.21323E+06-1.25162E+06-5.15981E+05-1.30615E+06 1.16755E-08 3.49246E-10
 -1        17-1.06761E+06-6.25660E+05-2.08885E+05-5.61878E+05-5.26634E-09 7.10133E-09
 -1        18-4.48723E+04-1.55605E+04-3.12725E+04-6.54863E+04 2.17506E-09-3.57977E-09
 -1        19 8.30124E+04 9.82098E+04-5.25797E+02 1.61819E+04-4.84397E-10-2.43745E-10
 -1        20-3.67361E+04-3.92210E+05-8.66632E+04 2.77603E+04 2.79942E-09 5.79045E-10
 -1        21-3.65868E+01-2.24996E+05-7.24502E+02-6.78734E+01-6.54602E-09 9.53476E-09
 -1        24-3.22550E+06-9.05670E+05-4.08906E+05-1.18629E+06-3.02753E-08-1.59489E-08
 -1        25-8.07484E+03-1.78546E+05-2.33479E+04-1.14243E+05 2.74940E-10 1.06973E-08
 -1        26-2.16540E+04 6.63475E+04-1.38284E+04-8.42312E+03 1.45010E-09 1.84690E-10
 -1        27-6.16569E+04-2.14810E+05-8.04426E+04 4.84231E+04 4.85170E-09-2.80640E-09
 -1        28 1.73913E+04-6.23905E+04 1.27251E+04 1.95265E+04 3.76082E-09-1.83988E-10
 -1        32-9.19827E+05-5.49822E+05 2.63035E+05-5.58622E+05-2.01399E-08 1.27276E-08
 -1        33-1.23509E+05 6.28153E+04 2.23131E+04-3.51577E+04 9.63837E-10 5.66100E-09
 -1        34-1.59244E+05-1.59573E+04 3.84622E+02 4.93493E+04 1.49596E-09-3.22416E-10
 -1        35-1.76944E+04-2.47906E+04-9.73445E+02 3.91942E+04 4.51690E-09 2.37196E-09
 -1        51 1.72879E+04-3.62517E+05 4.34382E+04-9.52231E+05-2.91038E-11-3.94357E-09
 -1        52 1.00535E+04-3.60447E+05 2.81157E+04-1.11058E+06 1.60071E-10 1.68657E-08
 -1        53 7.03936E+03-3.73931E+05 2.30745E+04-9.48900E+05 4.72937E-10-7.52334E-09
 -1        54 1.99030E+04-3.72517E+05 3.59716E+04-1.11404E+06 2.54659E-10-3.34549E-08
 -1        55 3.94161E+04-3.86080E+05 6.35810E+04-9.48357E+05 2.47383E-10-9.85892E-09
 -1        56-3.73277E+06-4.18896E+05-2.99222E+05-1.44036E+06-2.08092E-09-1.87720E-08
 -1        57-3.85642E+06-6.86471E+05-2.01746E+05-1.42490E+06-2.23372E-09-1.34805E-08
 -1        58-3.79342E+06-5.13213E+05-7.03844E+04-1.42089E+06 1.41154E-09 1.61162E-09
 -1        59-3.78625E+06-5.75765E+05-4.20168E+04-1.44806E+06 2.17665E-09 1.13532E-08
 -1        60-3.80224E+06-5.26392E+05-1.64241E+04-1.41829E+06-1.56524E-09-1.99816E-09
 -1        61-3.77768E+06-5.58608E+05-9.31875E+03-1.44906E+06-3.56977E-10-1.33377E-09
 -1        62-3.80181E+06-5.29980E+05-4.47214E+03-1.41999E+06 1.10367E-09 1.38934E-08
 -1        63-3.78129E+06-5.51578E+05-3.59981E+03-1.44339E+06 3.37877E-10 3.53930E-09
 -1        64-3.79850E+06-5.33446E+05-4.11111E+03-1.42390E+06 3.03316E-10-3.76576E-09
 -1        65-3.78997E+06-5.45395E+05-8.11710E+03-1.43414E+06 6.00380E-10-5.84805E-10
 -1        66-3.79306E+06-5.36261E+05-1.43097E+04-1.42916E+06-1.87083E-09 4.99494E-09
 -1        67-3.80736E+06-5.50173E+05-3.62947E+04-1.42178E+06-1.91827E-09 1.08985E-08
 -1        68-3.78123E+06-5.29028E+05-6.09132E+04-1.43615E+06-4.16549E-10-4.56203E-09
 -1        69-3.87414E+06-6.40031E+05-1.74412E+05-1.39530E+06 1.04046E-09-8.83119E-09
 -1        70-3.72705E+06-4.49085E+05-2.58748E+05-1.45479E+06 2.83762E-10-2.79397E-09
 -1        86-1.33044E+03-9.38022E+03 9.23287E+03 1.19348E+01 1.15938E-09 1.24413E-09
 -1        87 8.80638E+03-3.52846E+03 1.93127E+04-3.65982E+01 1.93836E-09 6.12999E-09
 -1        88-7.47005E+03-1.23544E+04 2.95313E+04 2.46153E+01 2.82125E-09-7.90794E-09
 -1        89 5.56431E+04 1.81926E+04 7.96672E+04 3.54620E+01 4.26280E-09-2.95574E-08
 -1        90-4.80069E+04-3.10824E+04 1.12562E+05-5.96235E+01 4.61296E-09 3.49496E-09
 -1       121-2.22070E+02-8.66889E+05 1.35105E+02 2.00465E+02 4.73534E-10-3.23053E-09
 -1       122-7.85105E+01-8.66248E+05 4.39776E+02-8.02675E+02-1.78249E-09 6.82121E-11
 -1       123-2.66826E+02-8.66938E+05 6.49464E+02 6.00208E+02 1.49674E-09-5.54792E-10
 -1       124 7.36867E+02-8.65773E+05 1.82565E+03-1.76012E+03-3.20324E-09-9.47693E-09
 -1       125-7.85226E+02-8.67398E+05 2.73599E+03 1.15685E+03 2.03863E-09-1.20817E-08
 -1       191-4.55437E+00 2.63720E+05 8.26725E+00-5.85495E-02 1.18952E-10-1.46442E-08
 -1       192-4.75215E+00 2.63698E+05 1.45656E+01 5.90848E-01 1.63052E-10 6.05655E-09
 -1       193-6.23440E+00 2.63720E+05 2.71299E+01-5.35335E-01 1.76383E-10-2.57523E-09
 -1       194-6.78548E+00 2.63700E+05 5.50881E+01 1.43034E+00 8.93010E-11 1.36697E-09
 -1       195-9.46309E+00 2.63718E+05 1.07797E+02-9.03554E-01 2.75044E-10 2.37878E-09
 -1       251-4.53143E+05-1.98675E+04 4.61186E+04-1.27406E+03 1.50294E-10-2.21371E-09
 -1       252-4.30557E+05 2.29580E+04 3.30023E+04-4.90475E+03-2.01453E-10-9.49512E-09
 -1       253-4.45238E+05-3.10211E+03 1.18544E+04 1.11233E+03-1.38357E-10 5.02769E-09
 -1       254-4.40138E+05 3.55750E+03 7.73779E+03-9.25804E+03-9.14753E-10-2.97359E-09
 -1       255-4.43630E+05-4.90565E+02 3.05549E+03 3.07907E+03-2.31239E-10-1.67142E-09
 -1       256-4.42310E+05 5.89873E+02 2.00165E+03-1.23878E+04 4.82885E-11 2.34934E-09
 -1       257-4.43136E+05-9.36300E+01 1.06780E+03 4.24210E+03 4.62421E-11-5.12588E-09
 -1       258-4.42862E+05 2.53349E+02 1.10469E+03-1.37068E+04-5.14209E-10 2.85984E-09
 -1       259-4.43114E+05-1.28836E+02 1.42200E+03 4.39816E+03 6.11067E-12-7.91658E-10
 -1       260-4.42300E+05 9.14764E+02 2.96543E+03-1.29874E+04 5.11250E-10-7.64754E-09
 -1       261-4.43678E+05-7.67922E+02 4.87381E+03 3.52261E+03 1.19843E-09-3.52452E-09
 -1       262-4.39297E+05 5.68195E+03 1.21643E+04-1.03566E+04 1.01466E-10-1.89266E-09
 -1       263-4.46050E+05-4.92730E+03 1.90373E+04 1.76728E+03-9.00059E-10 2.57296E-09
 -1       264-4.24248E+05 3.66518E+04 5.25139E+04-6.34069E+03-3.26966E-09 3.92902E-10
 -1       265-4.58642E+05-3.16804E+04 7.38363E+04-4.93283E+02-1.90118E-09 4.99131E-09
 -1       266-3.67449E+04-1.70909E+04 8.55645E+04-9.36612E+01 5.09317E-11-7.41923E-09
 -1       267 4.25769E+04 1.99408E+04 6.05729E+04 1.07873E+02-2.18279E-11-1.30220E-08
 -1       268-5.75230E+03-2.83827E+03 2.24710E+04-1.38868E+01 8.18545E-12 1.38689E-09
 -1       269 6.79091E+03 3.40003E+03 1.46425E+04 1.61592E+01 6.36646E-12-8.24938E-09
 -1       270-1.02737E+03-5.61128E+02 7.05062E+03-2.22187E+00 4.95675E-11-3.52655E-09
 -1       271-3.47715E+06-4.35243E+05-2.65323E+05-1.35541E+06-1.22236E-09-2.86673E-09
 -1       272-3.56261E+06-6.38284E+05-1.70559E+05-1.36370E+06 1.86287E-09-8.94943E-09
 -1       273-3.52862E+06-4.99791E+05-6.26836E+04-1.34181E+06-1.64073E-09 4.26735E-09
 -1       274-3.50177E+06-5.59836E+05-3.50413E+04-1.38506E+06 7.68523E-11 3.84625E-09
 -1       275-3.53732E+06-5.04766E+05-1.45937E+04-1.33772E+06-6.80302E-10 3.94721E-09
 -1       276-3.49110E+06-5.54472E+05-7.72366E+03-1.39193E+06-1.43928E-09-4.74984E-10
 -1       277-3.53979E+06-5.03862E+05-3.79029E+03-1.33573E+06-1.04728E-09 4.48404E-09
 -1       278-3.48847E+06-5.55544E+05-2.73650E+03-1.39474E+06 5.80712E-10-6.85034E-10
 -1       279-3.54031E+06-5.03386E+05-2.92349E+03-1.33520E+06-2.31418E-09-8.21046E-09
 -1       280-3.48921E+06-5.55864E+05-5.36324E+03-1.39429E+06 1.56945E-09-9.06516E-09
 -1       281-3.53901E+06-5.03622E+05-9.79350E+03-1.33613E+06-2.10366E-09 2.36014E-09
 -1       282-3.49608E+06-5.59662E+05-2.34246E+04-1.38996E+06-3.89264E-09-1.10595E-08
 -1       283-3.53309E+06-5.00455E+05-4.18103E+04-1.33900E+06-7.40783E-10-4.23825E-09
 -1       284-3.53715E+06-6.11317E+05-1.13753E+05-1.37479E+06-8.06551E-10 1.66438E-09
 -1       285-3.49820E+06-4.58065E+05-1.77034E+05-1.34872E+06-1.61890E-10 1.16415E-09
 -1       301 1.76962E+04-3.51548E+04 1.32234E+05-7.37224E+04-5.71163E-10 1.01732E-08
 -1       302 1.88200E+04-1.70932E+03 9.08649E+04-1.08506E+05 1.23327E-09 6.04769E-09
 -1       303 1.03394E+03-2.25382E+04 7.65281E+04-7.38447E+04-8.40373E-10 4.22551E-09
 -1       304 2.79751E+04 7.10409E+03 1.21030E+05-1.08120E+05 9.82254E-10 3.80442E-09
 -1       305 2.73008E+04-4.33396E+04 1.98977E+05-7.40997E+04-8.07631E-10 7.82711E-09
 -1       306-4.73070E+06-5.45003E+05-3.56693E+05-1.84314E+06 2.38651E-09-3.39060E-09
 -1       307-4.89326E+06-8.62334E+05-2.42408E+05-1.79930E+06-2.18279E-09 8.76025E-09
 -1       308-4.82552E+06-6.41133E+05-8.40212E+04-1.79278E+06 2.46200E-09-5.01313E-09
 -1       309-4.77418E+06-7.61018E+05-5.05388E+04-1.87165E+06 2.27578E-09-1.06857E-08
 -1       310-4.84992E+06-6.43601E+05-1.95661E+04-1.77204E+06-1.31286E-09-6.71753E-09
 -1       311-4.74969E+06-7.54002E+05-1.13529E+04-1.89175E+06 8.70477E-09 3.54817E-10
 -1       312-4.85039E+06-6.47460E+05-5.62373E+03-1.77314E+06-2.07501E-09 2.07618E-09
 -1       313-4.76400E+06-7.33366E+05-4.62297E+03-1.87020E+06-1.37220E-09 1.58977E-08
 -1       314-4.83486E+06-6.64704E+05-6.58701E+03-1.79306E+06-1.37288E-09-1.37197E-09
 -1       315-4.80516E+06-6.94706E+05-1.21081E+04-1.82066E+06-3.87922E-09 1.12213E-08
 -1       316-4.80844E+06-6.86733E+05-2.29527E+04-1.82207E+06-3.46608E-09-8.56744E-10
 -1       317-4.86726E+06-6.71962E+05-5.76123E+04-1.76441E+06 6.87817E-09-8.13452E-09
 -1       318-4.77338E+06-6.87498E+05-9.58671E+04-1.84956E+06-9.79890E-09 1.32859E-08
 -1       319-4.99447E+06-8.03303E+05-2.78282E+05-1.70271E+06-3.11047E-09 1.30822E-08
 -1       320-4.68308E+06-5.57080E+05-4.07407E+05-1.88383E+06 1.29512E-08 2.70666E-09
 -1       336 5.42604E+02-9.38455E+05-5.20305E+03 1.55335E+03-8.82574E-09-8.90032E-09
 -1       337-1.91429E+03-9.39570E+05-5.76366E+03-3.88231E+03-1.64271E-08-6.43013E-09
 -1       338 3.66492E+02-9.38576E+05-7.50038E+03 2.31795E+03-1.14935E-08-5.66979E-09
 -1       339-7.77390E+03-9.43266E+05-1.64263E+04-5.38486E+03-2.10007E-08 3.80896E-09
 -1       340 5.19358E+03-9.34905E+05-2.54298E+04 3.04393E+03-1.39935E-08 1.43154E-08
 -1       406 1.57706E+01 2.63708E+05 4.40206E+02-7.94820E-02 3.73348E-10-1.33014E-09
 -1       407 1.52163E+02 2.63789E+05 9.35497E+02-6.32137E+00 1.23350E-11-8.42192E-10
 -1       408 4.80281E+02 2.63641E+05 1.86843E+03 6.53746E+00 4.36444E-10-1.58243E-08
 -1       409 2.01897E+03 2.64386E+05 4.20627E+03-6.35658E+01-5.09317E-11-3.39712E-08
 -1       410 5.80319E+03 2.63110E+05 8.58696E+03 5.95719E+01 5.17502E-10-1.55874E-08
 -1       521-7.80675E+06-7.58580E+05-6.72470E+05-2.62920E+06-1.83354E-09 1.93540E-08
 -1       522-6.37749E+06-1.92451E+06-2.84352E+05-3.59810E+06-5.94664E-08-9.19681E-09
 -1       523-7.96710E+06-5.12386E+05-1.44114E+05-2.10671E+06-8.53834E-09-2.75104E-08
 -1       524-6.39522E+06-2.03068E+06-5.63105E+04-4.27687E+06 4.72340E-08-7.71802E-08
 -1       525-7.97657E+06-5.10935E+05-3.49588E+04-2.07164E+06 6.55928E-08-4.07354E-08
 -1       526-6.25410E+06-1.76296E+06 5.71642E+04-3.75868E+06 1.90157E-08 1.94259E-08
 -1       527-7.94925E+06-8.95369E+05-1.11366E+05-2.52525E+06-2.85218E-09-2.32467E-09
 -1       528-6.54736E+06-1.01152E+06 1.33839E+05-2.59423E+06 6.23550E-09 1.45519E-09
 -1       529-7.50229E+06-1.39000E+06-1.24529E+05-3.09169E+06 2.76195E-08 1.21290E-08
 -1       530-7.79090E+06-1.15244E+05 7.39184E+04-1.80546E+06-2.99078E-08 7.00365E-08
 -1       531-6.85522E+06-1.68252E+06-4.80424E+04-3.40888E+06-9.68575E-08-6.90852E-09
 -1       532-8.72662E+06 3.07781E+05-5.31018E+04-1.61063E+06 4.95320E-08-7.51888E-08
 -1       533-6.74658E+06-1.68909E+06-1.27348E+05-3.44358E+06 1.26820E-08-1.11017E-07
 -1       534-8.23325E+06-1.66821E+05-2.88837E+05-1.68195E+06-2.26246E-08 8.36935E-08
 -1       535-7.22909E+06-1.29477E+06-6.40587E+05-3.22807E+06-6.11180E-09 5.44824E-08
 -1       536-3.20322E+05-1.37520E+04 3.09448E+04-6.40214E+03-1.93756E-09 1.40299E-08
 -1       537-3.03955E+05 1.58987E+04 2.24173E+04 1.29478E+04-2.13207E-08-2.10889E-09
 -1       538-3.13630E+05-2.05991E+03 8.08673E+03-7.28782E+03 2.05580E-09 1.10622E-08
 -1       539-3.08192E+05 2.54426E+03 5.68635E+03 1.15297E+04 1.75126E-08 2.48311E-08
 -1       540-3.16036E+05-4.45902E+02 1.36457E+03-4.98327E+03 6.26471E-10 2.15628E-08
 -1       541-3.03129E+05 6.73223E+02 2.96448E+03 4.73278E+03-2.50461E-09 2.38720E-08
 -1       542-3.18539E+05-3.18384E+02-8.29583E+02-4.89878E+02-9.96465E-11 3.32292E-09
 -1       543-3.02917E+05 2.89207E+02 1.88529E+03-4.37276E+03-1.52784E-09-1.73581E-08
 -1       544-3.16242E+05-7.33495E+01-1.20752E+03 4.12083E+03 4.77689E-09-8.27293E-09
 -1       545-3.09055E+05-3.86413E+02-5.81001E+02-1.15799E+04-8.38426E-10-6.15296E-09
 -1       546-3.12553E+05 4.81574E+02-2.36354E+03 6.71753E+03 3.93840E-09-1.40827E-08
 -1       547-3.12899E+05-2.84677E+03-5.64912E+03-1.36255E+04-1.22382E-08-1.17720E-08
 -1       548-3.12465E+05 2.44408E+03-9.54254E+03 6.16728E+03-1.26528E-08-6.20958E-09
 -1       549-3.14914E+05-1.75442E+04-2.42487E+04-9.56751E+03-9.07211E-09 5.42968E-10
 -1       550-3.10417E+05 1.50642E+04-3.71686E+04 2.65826E+03 2.29477E-10-9.53150E-09
 -1       551 1.22567E+04-4.85789E+05 2.25442E+04-8.12996E+05-3.79005E-08 3.81260E-09
 -1       552 2.77080E+04-4.92501E+05 2.97457E+04-1.15756E+06-2.93148E-08 1.28239E-08
 -1       553 1.94222E+04-4.98211E+05 4.49520E+04-8.10062E+05-4.72282E-08 1.20417E-08
 -1       554 5.21447E+04-4.84278E+05 9.49211E+04-1.15881E+06-3.03262E-08 9.44419E-09
 -1       555 4.70458E+04-5.16558E+05 1.69559E+05-8.10878E+05-4.81741E-08-5.01677E-09
 -1       556 8.22814E+04-1.55723E+05 5.28822E+04-1.99946E+05-8.32370E-09-2.44472E-09
 -1       557 1.45687E+05-2.07624E+05 2.78879E+04-2.51175E+05 1.52795E-10 4.71073E-09
 -1       558 8.14455E+04-1.62434E+05 1.11083E+04-1.94214E+05-6.51926E-09-1.65164E-09
 -1       559 1.36260E+05-2.14610E+05 5.69260E+03-2.55549E+05 5.96629E-09-1.90630E-09
 -1       560 7.90352E+04-1.60855E+05 2.25724E+03-1.95779E+05 1.48430E-09-1.27329E-10
 -1       561 1.32680E+05-2.13582E+05 1.23979E+03-2.57827E+05-3.29965E-09-7.26095E-09
 -1       562 7.71107E+04-1.59586E+05 4.25102E+02-1.97163E+05-2.69210E-10-1.43837E-09
 -1       563 1.30421E+05-2.12607E+05 3.02581E+02-2.59273E+05 6.25732E-10 3.18784E-09
 -1       564 7.58831E+04-1.58801E+05 9.84201E+01-1.98033E+05 4.36921E-09 3.47427E-10
 -1       565 1.29192E+05-2.12077E+05 8.88928E+01-2.60047E+05 2.06637E-09 5.82440E-09
 -1       566 7.53894E+04-1.58479E+05 8.11189E+00-1.98386E+05-1.58070E-09-6.34827E-09
 -1       567 1.28952E+05-2.11962E+05-6.32698E+01-2.60129E+05 9.45738E-09 2.90856E-09
 -1       568 7.56646E+04-1.58661E+05-2.62417E+02-1.98262E+05-1.31149E-09-7.42148E-10
 -1       569 1.29018E+05-2.11824E+05-6.19857E+02-2.58882E+05-6.22458E-09 5.57884E-09
 -1       570 7.72756E+04-1.60030E+05-1.41630E+03-1.98169E+05 9.96806E-10 6.21367E-09
 -1       571 1.92844E+05 7.09165E+03 1.04917E+04-4.97330E+04 3.57886E-10 1.98179E-09
 -1       572 1.94402E+05 2.47608E+03 5.14040E+03-5.45231E+04 6.77119E-10-6.51198E-10
 -1       573 1.93468E+05 5.99912E+02 2.28360E+03-4.96073E+04 2.07501E-09 2.12594E-09
 -1       574 1.93650E+05 2.06117E+02 1.14423E+03-5.46644E+04-1.24146E-09 3.67481E-09
 -1       575 1.93536E+05 4.02800E+01 5.39344E+02-4.95907E+04-1.65051E-09-4.74574E-09
 -1       576 1.93548E+05 2.29578E+01 2.74698E+02-5.46833E+04-1.68716E-09-1.04642E-08
 -1       577 1.93547E+05 9.85088E+00 1.35537E+02-4.95885E+04-4.37922E-10 3.20506E-09
 -1       578 1.93539E+05 1.27369E+01 7.43987E+01-5.46856E+04 9.73841E-10 4.77576E-09
 -1       579 1.93561E+05 6.36011E+00 4.62620E+01-4.95884E+04 8.71296E-10 5.98948E-09
 -1       580 1.93558E+05 4.86658E+00 4.46136E+01-5.46827E+04-1.47065E-09-2.35059E-09
 -1       581 1.93585E+05-3.05344E+00 6.17758E+01-4.95914E+04 7.24867E-10 1.04374E-08
 -1       582 1.93601E+05 6.07690E+00 1.19003E+02-5.46528E+04 5.87534E-10 1.02050E-08
 -1       583 1.93614E+05 3.27243E+01 2.28500E+02-4.96183E+04 9.98625E-10 5.68934E-09
 -1       584 1.93722E+05 2.10905E+02 5.13000E+02-5.44276E+04-1.75078E-09 4.20846E-09
 -1       585 1.93593E+05 6.61309E+02 1.04144E+03-4.98169E+04 2.41016E-10 2.01908E-09
 -1       586-2.23258E+03 6.39402E+04-2.88953E+03-1.70878E+05-3.00133E-11-2.97860E-10
 -1       587-4.65184E+02 6.35609E+04-1.93136E+02-1.88051E+05 3.19233E-10 1.32695E-09
 -1       588 6.77433E+02 6.36179E+04 2.37064E+03-1.70781E+05-1.09139E-11-4.83942E-09
 -1       589 3.38576E+03 6.49025E+04 6.72588E+03-1.87882E+05 5.82077E-11-6.88260E-09
 -1       590 9.76461E+03 6.28401E+04 1.43365E+04-1.71051E+05 2.81943E-11 1.22600E-09
 -1       591-4.21383E+04-1.17471E+04-1.38739E+04-2.14515E+04 1.05217E-10-3.69801E-09
 -1       592-4.35541E+04-1.50379E+04-7.51471E+03-2.49374E+04-1.83303E-09-4.82828E-10
 -1       593-4.35396E+04-1.07264E+04-3.12842E+03-2.24552E+04-1.17302E-09 6.42603E-09
 -1       594-4.16227E+04-1.30195E+04-1.56028E+03-2.50315E+04 1.29444E-09-3.56007E-09
 -1       595-4.36470E+04-1.07218E+04-7.17005E+02-2.25012E+04-1.39664E-10 3.82879E-09
 -1       596-4.14918E+04-1.29270E+04-3.65436E+02-2.50177E+04-4.40991E-09 3.77975E-09
 -1       597-4.36606E+04-1.07307E+04-2.01043E+02-2.25031E+04-1.07056E-09-4.14576E-09
 -1       598-4.14793E+04-1.29235E+04-1.65379E+02-2.50139E+04 2.29545E-09 3.43550E-09
 -1       599-4.36595E+04-1.07308E+04-2.15957E+02-2.25027E+04 9.06766E-10-5.32293E-09
 -1       600-4.14931E+04-1.29282E+04-4.04946E+02-2.50172E+04-1.01682E-09-5.17872E-09
 -1       601-4.36424E+04-1.07213E+04-8.00851E+02-2.24999E+04 1.47065E-09 6.60282E-09
 -1       602-4.16393E+04-1.30315E+04-1.74640E+03-2.50306E+04 1.29603E-09-7.77209E-09
 -1       603-4.35207E+04-1.07282E+04-3.50284E+03-2.24486E+04-1.71053E-09 2.16596E-09
 -1       604-4.38093E+04-1.52832E+04-8.41431E+03-2.49141E+04-2.74633E-09 1.22118E-08
 -1       605-4.19419E+04-1.18784E+04-1.55346E+04-2.13329E+04 4.42469E-10 6.92762E-09
 -1       606 2.65327E+04-9.28544E+03-1.67121E+04 2.58208E+04-2.75668E-09-6.27915E-09
 -1       607 2.36709E+04-2.99880E+03-8.32162E+03 2.89865E+04-2.05819E-09 3.22871E-09
 -1       608 2.52936E+04-5.09085E+02-3.72666E+03 2.56157E+04 6.31189E-10-5.66843E-10
 -1       609 2.49704E+04-1.35235E+02-1.88219E+03 2.92137E+04-6.25732E-10 4.86693E-09
 -1       610 2.51426E+04 2.08093E+01-8.99137E+02 2.55928E+04-1.98997E-09-4.66684E-09
 -1       611 2.50814E+04 3.32633E+01-4.53437E+02 2.92385E+04-5.34237E-09-2.82762E-09
 -1       612 2.51017E+04 3.61782E+01-2.16954E+02 2.55905E+04-2.26009E-09-2.39856E-09
 -1       613 2.50783E+04 4.19166E+01-9.87002E+01 2.92414E+04-5.66615E-09 3.25940E-09
 -1       614 2.50791E+04 3.73107E+01-2.72165E+01 2.55897E+04-3.14321E-09 8.38327E-10
 -1       615 2.50663E+04 4.75649E+01 3.17738E+01 2.92419E+04 3.65981E-09-3.86558E-09
 -1       616 2.50619E+04 4.31696E+01 1.04075E+02 2.55900E+04-3.19733E-09-5.82304E-09
 -1       617 2.50723E+04 7.38072E+01 2.41044E+02 2.92414E+04-2.00725E-09-6.65409E-09
 -1       618 2.50361E+04 1.15777E+02 4.87090E+02 2.55901E+04-2.10866E-09 1.32718E-09
 -1       619 2.52404E+04 4.53026E+02 1.09470E+03 2.92406E+04-6.93262E-10-1.14474E-08
 -1       620 2.48717E+04 1.27335E+03 2.20050E+03 2.55890E+04 2.72235E-09 3.37877E-10
 -1       621 3.06862E+02 2.06838E+05 2.70378E+03 8.72891E+03-1.98668E-10 2.07933E-09
 -1       622 3.55439E+02 2.07506E+05 2.34414E+03 1.27327E+04-2.46928E-10 5.00938E-09
 -1       623 1.53531E+01 2.07022E+05 2.75996E+03 8.68783E+03-1.37661E-10 2.92130E-09
 -1       624 1.26615E+03 2.08339E+05 5.29698E+03 1.27733E+04-1.19400E-10-6.23709E-09
 -1       625 1.27235E+03 2.05996E+05 9.23493E+03 8.68841E+03-1.47793E-10-3.50343E-09
 -1       626 1.73323E+05 4.74130E+04 3.51141E+03 9.28504E+04-8.31278E-09-9.69521E-10
 -1       627 1.71033E+05 4.90683E+04 1.69206E+03 9.65630E+04-1.17543E-08 6.04348E-09
 -1       628 1.73447E+05 4.57592E+04 7.14670E+02 9.33878E+04-5.70617E-09 5.74278E-09
 -1       629 1.70533E+05 4.86610E+04 3.50262E+02 9.67838E+04 3.07591E-09 1.26948E-08
 -1       630 1.73454E+05 4.56815E+04 1.61894E+02 9.34024E+04-5.90262E-09-7.82416E-09
 -1       631 1.70472E+05 4.86516E+04 8.70029E+01 9.67847E+04-4.70027E-09-3.73386E-09
 -1       632 1.73445E+05 4.56880E+04 5.71570E+01 9.33944E+04 1.20508E-09-1.83743E-08
 -1       633 1.70459E+05 4.86568E+04 6.35399E+01 9.67775E+04 2.04636E-08 7.95950E-09
 -1       634 1.73435E+05 4.56890E+04 1.02514E+02 9.33899E+04 1.52113E-08 5.92536E-09
 -1       635 1.70463E+05 4.86584E+04 2.07654E+02 9.67769E+04 3.61069E-09-1.15142E-08
 -1       636 1.73424E+05 4.56882E+04 4.19291E+02 9.33868E+04-6.80302E-10 1.09708E-09
 -1       637 1.70549E+05 4.87251E+04 9.21492E+02 9.67728E+04 1.77015E-09-5.40467E-09
 -1       638 1.73388E+05 4.58935E+04 1.89374E+03 9.32923E+04 1.38687E-09 4.88444E-09
 -1       639 1.71540E+05 5.01100E+04 4.48004E+03 9.64784E+04-2.21155E-09-9.05584E-09
 -1       640 1.73255E+05 5.00176E+04 9.29715E+03 9.15420E+04 5.03928E-09 2.05368E-08
 -1       656 4.66639E+04-1.18216E+06-1.12647E+05-3.83742E+02-2.11003E-10-3.67797E-09
 -1       657-6.16691E+04-1.23301E+06-9.31752E+04 7.35695E+03 3.22871E-10-2.88620E-09
 -1       658 1.48048E+04-1.19666E+06-5.71980E+04-1.54739E+03-3.91537E-10 1.95680E-09
 -1       659-6.61792E+04-1.23515E+06-9.90990E+04 8.14760E+03-6.47560E-10-6.10354E-09
 -1       660 5.11632E+04-1.18003E+06-1.22835E+05-1.17438E+03-8.07631E-10-2.15194E-09
 -1       661 1.61997E+05 1.76054E+04 1.56393E+04 6.33257E+04 1.51385E-09-1.03682E-09
 -1       662 1.70205E+05 2.98106E+04 1.05384E+04 6.05368E+04 6.50061E-10-5.30872E-09
 -1       663 1.65064E+05 2.26272E+04 3.68637E+03 6.24400E+04 3.87558E-10-5.94127E-09
 -1       664 1.66656E+05 2.39328E+04 2.20407E+03 6.16140E+04 6.16296E-10 2.60516E-09
 -1       665 1.65523E+05 2.33182E+04 8.69436E+02 6.23108E+04-2.31000E-09 6.46889E-09
 -1       666 1.66117E+05 2.31385E+04 5.07154E+02 6.17798E+04-5.81905E-09-9.48480E-09
 -1       667 1.65600E+05 2.34007E+04 2.67529E+02 6.22820E+04-2.16721E-09-4.68972E-09
 -1       668 1.66034E+05 2.30738E+04 2.68351E+02 6.18213E+04 4.16514E-09 3.53023E-09
 -1       669 1.65605E+05 2.33810E+04 3.59829E+02 6.22700E+04 2.30500E-10 7.83322E-09
 -1       670 1.66124E+05 2.32644E+04 7.80280E+02 6.18208E+04 4.41836E-09 2.44461E-09
 -1       671 1.65510E+05 2.32139E+04 1.38436E+03 6.22809E+04-4.04363E-10 4.19448E-09
 -1       672 1.66932E+05 2.46103E+04 3.54099E+03 6.16251E+04-3.19250E-09 5.75392E-09
 -1       673 1.64802E+05 2.20690E+04 5.93381E+03 6.24528E+04-8.28550E-10 3.00452E-09
 -1       674 1.72582E+05 3.41411E+04 1.69694E+04 5.99633E+04-1.65988E-09-3.22257E-09
 -1       675 1.59897E+05 1.39495E+04 2.51880E+04 6.38423E+04 2.00453E-09-5.59066E-09
 -1       676 1.88061E+01-2.24936E+05-8.73212E+02 3.39375E+01 7.71706E-10 7.79664E-09
 -1       677-2.31798E+02-2.25147E+05-1.59808E+03-6.78407E+01-2.75821E-09 7.64878E-10
 -1       678 1.54798E+02-2.24785E+05-2.82498E+03 3.38799E+01-4.10409E-10-1.10460E-08
 -1       679-2.82560E+03-2.26852E+05-6.71074E+03-6.76172E+01-3.32705E-09 4.73994E-09
 -1       680 1.68634E+03-2.23231E+05-1.08155E+04 3.33268E+01-2.96950E-10 9.94886E-09
 -1       771-2.40608E+06-4.43677E+05-6.31965E+04-1.02261E+06-1.23764E-08-9.99717E-09
 -1       772-2.38412E+06-4.81078E+05-3.36387E+04-1.06466E+06-8.91305E-09 5.06407E-09
 -1       773-2.41571E+06-4.36127E+05-1.50210E+04-1.02617E+06-1.05065E-08 7.17773E-09
 -1       774-2.37571E+06-4.74084E+05-7.17482E+03-1.07014E+06-1.00408E-09-2.76668E-09
 -1       775-2.41870E+06-4.34074E+05-3.98490E+03-1.02669E+06-9.45874E-09 4.55839E-09
 -1       776-2.37623E+06-4.74133E+05-1.73773E+03-1.07350E+06-1.41044E-08 1.89175E-10
 -1       777-2.42097E+06-4.32398E+05-1.30767E+03-1.02708E+06-3.14321E-09 3.47063E-09
 -1       778-2.37724E+06-4.74350E+05-4.95650E+02-1.07633E+06 5.82077E-10 4.02451E-09
 -1       779-2.42283E+06-4.30973E+05-5.90051E+02-1.02743E+06-1.14960E-09 4.80213E-10
 -1       780-2.37818E+06-4.74514E+05-2.92705E+02-1.07861E+06 3.38332E-10-4.54747E-10
 -1       781-2.42426E+06-4.29841E+05-5.39589E+02-1.02770E+06-6.08270E-09-2.33285E-09
 -1       782-2.37897E+06-4.74654E+05-7.56677E+02-1.08029E+06-6.34464E-09-6.58565E-09
 -1       783-2.42519E+06-4.29084E+05-1.52965E+03-1.02787E+06 2.69574E-09-7.55733E-09
 -1       784-2.38032E+06-4.75655E+05-3.52325E+03-1.08127E+06-5.82531E-09-8.36735E-11
 -1       785-2.42504E+06-4.29168E+05-6.53601E+03-1.02750E+06-1.39935E-08 2.70120E-10
 -1       786 1.66099E+05-9.23399E+03 2.13631E+04-3.87139E+01 5.73984E-06 3.03662E-08
 -1       787 1.75356E+05 1.06901E+04 1.51138E+04 8.83179E+00 1.14354E-05 2.38060E-08
 -1       788 1.69670E+05-1.44753E+03 5.52913E+03-2.80301E+01 1.05699E-05-9.93782E-09
 -1       789 1.71196E+05 1.67485E+03 3.47374E+03-9.39330E+00 9.68135E-06 1.92428E-08
 -1       790 1.70260E+05-2.26098E+02 1.41288E+03-2.04900E+01 9.12327E-06-1.20702E-08
 -1       791 1.70508E+05 2.62525E+02 8.28408E+02-2.40508E+01 8.55825E-06 4.43148E-09
 -1       792 1.70358E+05-3.62641E+01 3.75843E+02-1.33725E+01 4.28296E-06-9.39571E-09
 -1       793 1.70396E+05 4.98404E+01 2.41721E+02-3.99426E+01 1.31208E-08 5.78729E-09
 -1       794 1.70372E+05-1.35526E+01 1.72077E+02-4.59796E+00 1.22902E-09 2.85362E-10
 -1       795 1.70403E+05 6.72638E+01 2.38822E+02-6.16138E+01-8.76550E-10-2.71277E-09
 -1       796 1.70351E+05-5.36713E+01 3.51630E+02 8.29912E+00 6.85157E-10-9.57392E-09
 -1       797 1.70561E+05 3.92839E+02 8.24060E+02-9.51433E+01-1.12314E-09-1.12114E-08
 -1       798 1.70214E+05-3.38891E+02 1.29909E+03 2.89320E+01 2.59111E-10 1.63038E-09
 -1       799 1.71535E+05 2.50217E+03 3.54016E+03-1.50153E+02-3.59351E-10 1.27933E-08
 -1       800 1.69377E+05-2.16131E+03 5.00018E+03 6.33095E+01 1.07423E-10 5.45288E-09
 -1       801 1.98670E+04-9.12556E+05-7.62352E+04 2.47903E+04 1.21909E-08-2.74076E-09
 -1       802-1.51361E+04-7.90633E+05-7.49258E+03-7.16768E+04 3.32657E-08-6.88658E-09
 -1       803-4.24314E+03-8.52572E+05 2.68161E+04 4.64616E+04 2.63790E-08 2.17368E-08
 -1       804 8.74822E+04-7.30864E+05 1.27730E+05-6.63270E+04 3.00697E-08 2.40554E-08
 -1       805-8.30654E+04-9.71804E+05 1.49372E+05 1.94348E+04 1.09139E-08 2.20866E-08
 -1       806-2.10317E+05-4.37613E+04-1.73169E+04-8.62277E+04-1.98406E-09 3.25008E-09
 -1       807-2.11459E+05-4.11585E+04-8.50750E+03-9.06783E+04 3.43630E-09 6.63616E-09
 -1       808-2.10801E+05-3.75125E+04-3.60890E+03-8.91723E+04-1.61208E-10 3.64697E-09
 -1       809-2.09651E+05-3.87881E+04-1.76437E+03-9.09131E+04-2.03136E-09-6.99629E-09
 -1       810-2.10877E+05-3.72929E+04-8.08001E+02-8.93023E+04 8.73115E-10 1.87219E-09
 -1       811-2.09512E+05-3.86940E+04-4.00903E+02-9.08907E+04 2.37378E-10-1.96337E-10
 -1       812-2.10889E+05-3.73098E+04-2.00507E+02-8.93019E+04-2.47474E-09-4.59386E-09
 -1       813-2.09494E+05-3.86962E+04-1.27076E+02-9.08790E+04-4.79122E-09-1.91687E-09
 -1       814-2.10886E+05-3.73163E+04-1.20271E+02-8.92991E+04 2.80625E-09-3.14913E-10
 -1       815-2.09496E+05-3.86983E+04-1.89131E+02-9.08753E+04 3.38878E-09 1.04194E-09
 -1       816-2.10873E+05-3.73152E+04-3.55054E+02-8.92965E+04 1.63391E-09 1.36029E-08
 -1       817-2.09557E+05-3.87323E+04-7.61266E+02-9.08684E+04-1.17689E-09 6.06974E-09
 -1       818-2.10828E+05-3.74222E+04-1.55169E+03-8.92458E+04 2.27465E-09 1.32650E-09
 -1       819-2.10411E+05-3.96650E+04-3.65170E+03-9.06623E+04-1.10003E-09-5.82531E-09
 -1       820-2.10534E+05-4.01817E+04-7.43201E+03-8.80672E+04 2.91038E-11 6.39886E-09
 -1       821-2.69728E+05 1.49242E+04-3.45145E+04 1.52305E+02 3.73261E-10 2.15914E-09
 -1       822-2.84685E+05-1.72773E+04-2.44240E+04-7.53589E+02-2.06356E-09-3.90264E-09
 -1       823-2.75500E+05 2.33986E+03-8.93927E+03 1.33438E+02 1.08640E-09 1.25510E-09
 -1       824-2.77952E+05-2.70818E+03-5.62420E+03-5.96694E+02-5.61691E-10 6.11180E-09
 -1       825-2.76460E+05 3.66121E+02-2.31252E+03-4.59326E+00-2.11911E-09 9.20124E-09
 -1       826-2.76834E+05-4.31705E+02-1.39434E+03-2.59183E+02-5.29583E-09 2.43953E-09
 -1       827-2.76618E+05 6.48056E+01-7.23889E+02-2.04078E+02-3.83108E-09-5.15499E-09
 -1       828-2.76683E+05-1.31747E+02-6.38256E+02 1.20297E+02-5.76067E-09 4.82561E-09
 -1       829-2.76610E+05 6.64449E+01-7.35526E+02-3.84080E+02-1.10589E-10 7.02997E-09
 -1       830-2.76858E+05-4.44076E+02-1.43545E+03 3.87707E+02 1.72090E-09-1.60719E-09
 -1       831-2.76443E+05 3.77197E+02-2.37811E+03-4.71494E+02-3.16751E-09-3.67436E-10
 -1       832-2.78003E+05-2.78911E+03-5.79512E+03 4.35040E+02-1.58019E-09 2.95745E-09
 -1       833-2.75466E+05 2.40985E+03-9.20935E+03-4.31413E+02-6.96659E-10 7.10452E-09
 -1       834-2.84918E+05-1.77978E+04-2.51599E+04 2.44708E+02-6.92908E-10 4.56066E-09
 -1       835-2.69530E+05 1.53741E+04-3.55606E+04-2.81151E+02 6.32466E-09 1.49157E-10
 -1       836-8.99947E+02 2.53855E+05 1.53316E+04-2.08529E+04 1.13323E-09 1.60753E-09
 -1       837 3.36969E+03 2.58605E+05 1.30914E+04-4.18861E+04 1.92040E-09 2.46700E-11
 -1       838-3.31899E+02 2.55174E+05 1.35019E+04-2.07811E+04 1.82217E-09 1.87913E-09
 -1       839 8.66296E+03 2.62550E+05 2.57022E+04-4.19144E+04 2.54749E-09-5.86863E-09
 -1       840-2.60699E+03 2.49872E+05 4.10524E+04-2.08231E+04 1.68984E-09 2.72848E-10
 -1       856-7.94986E+04 7.06728E+03-1.86243E+04-4.14345E+02-3.13094E-09-2.21280E-09
 -1       857-8.71911E+04-8.28917E+03-1.28223E+04 4.29035E+03-2.02687E-09 4.46448E-09
 -1       858-8.25380E+04 9.90233E+02-4.83349E+03-4.33996E+02-3.99655E-09 1.03228E-10
 -1       859-8.37008E+04-1.15141E+03-2.91909E+03 4.32165E+03 1.25344E-09-1.52278E-09
 -1       860-8.29924E+04 1.37710E+02-1.22714E+03-4.45772E+02 1.28159E-09-3.72933E-09
 -1       861-8.31775E+04-1.52065E+02-6.82988E+02 4.33777E+03-4.55378E-09-1.20555E-08
 -1       862-8.30631E+04 1.82103E+01-2.99783E+02-4.50140E+02 3.23513E-09-1.67816E-10
 -1       863-8.30936E+04-1.07163E+01-1.45236E+02 4.33975E+03 6.50883E-09-2.09732E-09
 -1       864-8.30765E+04-5.24939E-01-3.95248E+01-4.47756E+02 3.19866E-09-9.06434E-09
 -1       865-8.30671E+04 2.48063E+01 4.42685E+01 4.32770E+03 5.61512E-09-7.72377E-09
 -1       866-8.30882E+04-1.77346E+01 1.30847E+02-4.38096E+02-2.93596E-10-2.69451E-09
 -1       867-8.29944E+04 1.48379E+02 3.48865E+02 4.30148E+03 1.22046E-09 1.53536E-09
 -1       868-8.31461E+04-1.23091E+02 5.86073E+02-4.21528E+02 1.96388E-09 6.95792E-10
 -1       869-8.25565E+04 1.02148E+03 1.57050E+03 4.25809E+03-6.55746E-09-9.70729E-09
 -1       870-8.35213E+04-8.68902E+02 2.27769E+03-3.94710E+02 2.51373E-09-1.14903E-08
 -1       871-3.97125E+03-8.61696E+03-1.29063E+04 8.48616E+04 1.45246E-09-5.33873E-10
 -1       872-1.72091E+03-1.15096E+04-5.26768E+03 1.10019E+05 1.57070E-09-4.08363E-10
 -1       873-3.53778E+01-1.01587E+04 7.34351E+02 8.46750E+04 1.81399E-09-1.74589E-09
 -1       874 1.97879E+03-8.29211E+03 7.28062E+03 1.10057E+05 4.35693E-09-8.23354E-09
 -1       875 4.67931E+03-1.18862E+04 1.61571E+04 8.48311E+04 2.43563E-09-4.93401E-09
 -1       876 2.10105E+05 3.61726E+04 1.12088E+04 8.52086E+04-3.77088E-09-1.90266E-09
 -1       877 2.10750E+05 3.86294E+04 5.98577E+03 8.85193E+04-1.44382E-09-6.25278E-10
 -1       878 2.11152E+05 3.49321E+04 2.50775E+03 8.61291E+04 3.21756E-09-7.98082E-11
 -1       879 2.09225E+05 3.71108E+04 1.24926E+03 8.85985E+04-8.83233E-10 4.18527E-09
 -1       880 2.11229E+05 3.49184E+04 5.81620E+02 8.61666E+04 2.43745E-09-3.35046E-09
 -1       881 2.09124E+05 3.70463E+04 3.09841E+02 8.85825E+04 6.31064E-09-4.23429E-09
 -1       882 2.11236E+05 3.49276E+04 1.96928E+02 8.61677E+04 1.22031E-09 2.19347E-09
 -1       883 2.09116E+05 3.70432E+04 2.09621E+02 8.85779E+04-2.04568E-09 8.51924E-09
 -1       884 2.11232E+05 3.49253E+04 3.31567E+02 8.61678E+04 2.95194E-09-2.95069E-09
 -1       885 2.09142E+05 3.70480E+04 6.65454E+02 8.85862E+04 4.45013E-09-1.82308E-09
 -1       886 2.11206E+05 3.49058E+04 1.34064E+03 8.61652E+04 5.38517E-09 5.79575E-10
 -1       887 2.09378E+05 3.72024E+04 2.92826E+03 8.86201E+04-2.14456E-09-8.18955E-09
 -1       888 2.11021E+05 3.49384E+04 5.90049E+03 8.60715E+04-8.94573E-10 4.31146E-09
 -1       889 2.12894E+05 4.08528E+04 1.40958E+04 8.85088E+04 3.07100E-09-7.50060E-09
 -1       890 2.08617E+05 3.77940E+04 2.64003E+04 8.38205E+04 5.45697E-09 1.01691E-08
 -1       891-1.30184E+02-1.19204E+05-1.41127E+03 2.24624E+04 1.02318E-09 9.55356E-09
 -1       892-2.26793E+02-1.19542E+05-1.53378E+03 3.39933E+04-2.40152E-09 1.09537E-09
 -1       893-3.66188E+01-1.19248E+05-2.19031E+03 2.24669E+04 1.50112E-09-4.02952E-09
 -1       894-1.19644E+03-1.20381E+05-4.54671E+03 3.38722E+04-3.02862E-09 3.16481E-09
 -1       895-9.35677E+02-1.18302E+05-8.01193E+03 2.25819E+04-6.46196E-10-1.35333E-09
 -1       956-2.64553E+05-3.79486E+03-9.55196E+03 1.76583E+04-7.58018E-09-4.46585E-09
 -1       957-2.66439E+05-1.28029E+03-4.90358E+03 2.12646E+04-1.02968E-08 1.25397E-09
 -1       958-2.65401E+05-1.02140E+02-2.20921E+03 1.75448E+04-2.15641E-09 1.68257E-09
 -1       959-2.65551E+05-1.75190E+01-1.12841E+03 2.13877E+04-4.09113E-09-5.49289E-09
 -1       960-2.65477E+05 3.19131E+01-5.50049E+02 1.75339E+04-4.28963E-09-1.58320E-09
 -1       961-2.65487E+05 3.02151E+01-2.91686E+02 2.14000E+04-2.41243E-09 6.72435E-09
 -1       962-2.65492E+05 2.81969E+01-1.66673E+02 1.75323E+04-5.57861E-09 4.95675E-09
 -1       963-2.65484E+05 3.15147E+01-1.33260E+02 2.14023E+04-1.25436E-08-8.25798E-09
 -1       964-2.65496E+05 3.01338E+01-1.61114E+02 1.75317E+04-6.02790E-09 2.77305E-09
 -1       965-2.65494E+05 3.44431E+01-2.77849E+02 2.14023E+04-7.23933E-10 6.32326E-09
 -1       966-2.65487E+05 3.76334E+01-5.21248E+02 1.75322E+04-3.73427E-09-3.67481E-09
 -1       967-2.65563E+05-6.63924E+00-1.06893E+03 2.13955E+04-1.12584E-09 5.59339E-11
 -1       968-2.65421E+05-8.54458E+01-2.09177E+03 1.75386E+04-5.17616E-09 1.46997E-09
 -1       969-2.66411E+05-1.19910E+03-4.64433E+03 2.13206E+04-7.69978E-09 2.52379E-09
 -1       970-2.64623E+05-3.58052E+03-9.04616E+03 1.76094E+04-5.26597E-09 6.57928E-09
 -1       971-2.50502E+05-1.31673E+03-7.32170E+03 1.21364E+04-3.28828E-09 1.75197E-09
 -1       972-2.52282E+05-9.43686E+02-3.98741E+03 1.69503E+04-8.41283E-12 3.41606E-09
 -1       973-2.51316E+05-8.37319E+00-1.78544E+03 1.20352E+04 9.91349E-11-4.00314E-09
 -1       974-2.51440E+05-8.21243E+00-9.24973E+02 1.70595E+04 1.08298E-09 5.02553E-10
 -1       975-2.51379E+05 2.57211E+01-4.61291E+02 1.20261E+04 1.60844E-09 8.64020E-11
 -1       976-2.51389E+05 2.99687E+01-2.64284E+02 1.70705E+04-4.30737E-09-4.57248E-10
 -1       977-2.51391E+05 2.54067E+01-1.88460E+02 1.20240E+04 1.36674E-09 3.86410E-09
 -1       978-2.51392E+05 3.41415E+01-2.15997E+02 1.70734E+04 7.41124E-09 4.56839E-09
 -1       979-2.51390E+05 3.11807E+01-3.43110E+02 1.20232E+04 6.50044E-09 1.84946E-09
 -1       980-2.51417E+05 3.62288E+01-6.60039E+02 1.70738E+04 5.92331E-09 1.82831E-09
 -1       981-2.51369E+05 4.76224E+01-1.27703E+03 1.20236E+04 3.42516E-09 4.26161E-09
 -1       982-2.51592E+05-5.79784E+01-2.63886E+03 1.70688E+04-3.36286E-09-1.49045E-09
 -1       983-2.51209E+05-3.39194E+01-5.12690E+03 1.20285E+04 3.08955E-09 8.99411E-09
 -1       984-2.54058E+05-2.73517E+03-1.14809E+04 1.70002E+04 6.15523E-09 1.39643E-08
 -1       985-2.48888E+05-3.78530E+03-2.10826E+04 1.20968E+04 9.80344E-09 8.45557E-09
 -3
    1PSTEP                        11           6           1          
  100CL  106 5.39062E-01         409                     0    6           1
 -4  DISP        4    1
 -5  D1          1    2    1    0
 -5  D2          1    2    2    0
 -5  D3          1    2    3    0
 -5  ALL         1    2    0    0    1ALL
 -1         1 1.83158E-04 0.00000E+00 0.00000E+00
 -1         2 1.62689E-04-3.16977E-30 0.00000E+00
 -1         3 1.63619E-04-4.78917E-27 0.00000E+00
 -1         5 1.07191E-04 1.71826E-26-3.30872E-24
 -1         8 1.57747E-04-8.71332E-07 0.00000E+00
 -1         9 1.51554E-04-6.44672E-07 0.00000E+00
 -1        10 1.50557E-04-2.19919E-06-6.61744E-24
 -1        12 1.06928E-04 5.92389E-07 0.00000E+00
 -1        15 1.27428E-04-9.69271E-07 4.13590E-25
 -1        16 1.32472E-04-8.44138E-07 0.00000E+00
 -1        17 1.09268E-04-4.69350E-06 0.00000E+00
 -1        18 1.04968E-04 4.79556E-06 0.00000E+00
 -1        19 1.06138E-04 1.18169E-06 0.00000E+00
 -1        20 1.06284E-04 1.31355E-05 0.00000E+00
 -1        21 1.05688E-04 2.38451E-05 0.00000E+00
 -1        24 2.23271E-05-6.57125E-06 0.00000E+00
 -1        25 1.04895E-04 4.93546E-06 0.00000E+00
 -1        26 1.05797E-04 1.64107E-06 0.00000E+00
 -1        27 1.04159E-04 1.04739E-05 0.00000E+00
 -1        28 1.03690E-04 2.33434E-05 0.00000E+00
 -1        32 0.00000E+00 0.00000E+00 0.00000E+00
 -1        33 1.04214E-04 2.19865E-06 0.00000E+00
 -1        34 1.02614E-04 1.04487E-05 0.00000E+00
 -1        35 1.01106E-04 2.30766E-05 0.00000E+00
 -1        51 1.81509E-04-1.44915E-07 0.00000E+00
 -1        52 1.78449E-04-2.83867E-07 0.00000E+00
 -1        53 1.74255E-04-4.24051E-07 0.00000E+00
 -1        54 1.69215E-04-5.67180E-07 0.00000E+00
 -1        55 1.63615E-04-7.14155E-07 4.54949E-24
 -1        56 1.81554E-04-8.48034E-07 2.64698E-23
 -1        57 1.80036E-04-2.10838E-06-2.64698E-23
 -1        58 1.78624E-04-3.64285E-06 0.00000E+00
 -1        59 1.77258E-04-5.33066E-06 0.00000E+00
 -1        60 1.75895E-04-7.02970E-06 0.00000E+00
 -1        61 1.74483E-04-8.60175E-06-2.64698E-23
 -1        62 1.72975E-04-9.91827E-06 0.00000E+00
 -1        63 1.71327E-04-1.08618E-05 0.00000E+00
 -1        64 1.69507E-04-1.13456E-05 5.29396E-23
 -1        65 1.67489E-04-1.13017E-05-2.64698E-23
 -1        66 1.65263E-04-1.07059E-05-5.29396E-23
 -1        67 1.62831E-04-9.55602E-06 0.00000E+00
 -1        68 1.60206E-04-7.89661E-06 0.00000E+00
 -1        69 1.57423E-04-5.78939E-06 2.64698E-23
 -1        70 1.54506E-04-3.34024E-06-2.64698E-23
 -1        86 1.62355E-04-1.00655E-07 0.00000E+00
 -1        87 1.61355E-04-2.02263E-07 0.00000E+00
 -1        88 1.59724E-04-3.04742E-07 3.30872E-24
 -1        89 1.57501E-04-4.11639E-07 0.00000E+00
 -1        90 1.54754E-04-5.18656E-07-1.32349E-23
 -1       121 1.63254E-04-3.63446E-07 0.00000E+00
 -1       122 1.62158E-04-7.27412E-07-6.61744E-24
 -1       123 1.60336E-04-1.09241E-06 0.00000E+00
 -1       124 1.57790E-04-1.45900E-06-6.61744E-24
 -1       125 1.54528E-04-1.82758E-06 1.32349E-23
 -1       191 1.07184E-04 9.87362E-08-3.30872E-24
 -1       192 1.07162E-04 1.97471E-07 0.00000E+00
 -1       193 1.07125E-04 2.96206E-07-3.30872E-24
 -1       194 1.07074E-04 3.94938E-07 1.65436E-24
 -1       195 1.07008E-04 4.93667E-07 3.30872E-24
 -1       251 1.57355E-04 3.86168E-06 1.32349E-23
 -1       252 1.56964E-04 7.92239E-06 0.00000E+00
 -1       253 1.56577E-04 1.10103E-05 0.00000E+00
 -1       254 1.56192E-04 1.28401E-05 0.00000E+00
 -1       255 1.55809E-04 1.33627E-05-1.32349E-23
 -1       256 1.55425E-04 1.25495E-05 6.61744E-24
 -1       257 1.55040E-04 1.06227E-05-1.32349E-23
 -1       258 1.54653E-04 7.82210E-06-6.61744E-24
 -1       259 1.54265E-04 4.55130E-06 1.32349E-23
 -1       260 1.53876E-04 1.22152E-06-6.61744E-24
 -1       261 1.53489E-04-1.74502E-06 0.00000E+00
 -1       262 1.53103E-04-3.93184E-06 0.00000E+00
 -1       263 1.52719E-04-5.06887E-06 1.32349E-23
 -1       264 1.52334E-04-4.90244E-06 6.61744E-24
 -1       265 1.51949E-04-3.42379E-06 0.00000E+00
 -1       266 1.52694E-04-8.99839E-07-6.61744E-24
 -1       267 1.47640E-04-9.14674E-07 1.65436E-24
 -1       268 1.42587E-04-9.30385E-07 0.00000E+00
 -1       269 1.37534E-04-9.43521E-07-4.13590E-25
 -1       270 1.32481E-04-9.56601E-07 4.13590E-25
 -1       271 1.54725E-04 3.08608E-06-2.64698E-23
 -1       272 1.52080E-04 5.91557E-06 1.32349E-23
 -1       273 1.49826E-04 7.71731E-06 0.00000E+00
 -1       274 1.47914E-04 8.58968E-06 0.00000E+00
 -1       275 1.46306E-04 8.65351E-06 0.00000E+00
 -1       276 1.44950E-04 8.04128E-06 2.64698E-23
 -1       277 1.43792E-04 6.89857E-06 0.00000E+00
 -1       278 1.42776E-04 5.37994E-06 0.00000E+00
 -1       279 1.41839E-04 3.64698E-06 5.29396E-23
 -1       280 1.40920E-04 1.86507E-06-2.64698E-23
 -1       281 1.39958E-04 2.00353E-07-5.29396E-23
 -1       282 1.38892E-04-1.18290E-06 0.00000E+00
 -1       283 1.37661E-04-2.12590E-06-5.29396E-23
 -1       284 1.36213E-04-2.47595E-06 0.00000E+00
 -1       285 1.34489E-04-2.09482E-06-2.64698E-23
 -1       301 1.48020E-04-6.92381E-07 6.61744E-24
 -1       302 1.44516E-04-7.17665E-07 0.00000E+00
 -1       303 1.41124E-04-7.41432E-07 0.00000E+00
 -1       304 1.37930E-04-7.65357E-07-3.30872E-24
 -1       305 1.35018E-04-7.90569E-07 0.00000E+00
 -1       306 1.49634E-04-2.24872E-06 5.29396E-23
 -1       307 1.50684E-04-1.21084E-05 0.00000E+00
 -1       308 1.54126E-04-2.85582E-05 5.29396E-23
 -1       309 1.59153E-04-4.95057E-05 0.00000E+00
 -1       310 1.64690E-04-7.18978E-05-5.29396E-23
 -1       311 1.69623E-04-9.25844E-05 0.00000E+00
 -1       312 1.72953E-04-1.08777E-04 0.00000E+00
 -1       313 1.73760E-04-1.18004E-04 0.00000E+00
 -1       314 1.71616E-04-1.19262E-04 0.00000E+00
 -1       315 1.66277E-04-1.12096E-04 2.64698E-23
 -1       316 1.58181E-04-9.78097E-05-5.29396E-23
 -1       317 1.47978E-04-7.81786E-05 0.00000E+00
 -1       318 1.36795E-04-5.60852E-05-5.29396E-23
 -1       319 1.25858E-04-3.45638E-05-2.64698E-23
 -1       320 1.16306E-04-1.65471E-05-5.29396E-23
 -1       336 1.45795E-04-2.60286E-06-1.32349E-23
 -1       337 1.40159E-04-3.01142E-06 0.00000E+00
 -1       338 1.33667E-04-3.42483E-06 0.00000E+00
 -1       339 1.26339E-04-3.84314E-06 0.00000E+00
 -1       340 1.18198E-04-4.26756E-06 0.00000E+00
 -1       406 1.06833E-04 6.91098E-07 0.00000E+00
 -1       407 1.06723E-04 7.89774E-07-1.65436E-24
 -1       408 1.06599E-04 8.88389E-07 0.00000E+00
 -1       409 1.06460E-04 9.86823E-07 1.65436E-24
 -1       410 1.06306E-04 1.08489E-06 0.00000E+00
 -1       521 1.36467E-04-2.11478E-05 0.00000E+00
 -1       522 1.54168E-04-8.29855E-05 5.29396E-23
 -1       523 1.81204E-04-1.76188E-04 1.05879E-22
 -1       524 2.13162E-04-2.87716E-04-5.29396E-23
 -1       525 2.45420E-04-4.00377E-04 1.05879E-22
 -1       526 2.73352E-04-4.96876E-04 5.29396E-23
 -1       527 2.92544E-04-5.63597E-04-1.05879E-22
 -1       528 2.98450E-04-5.89660E-04 5.29396E-23
 -1       529 2.88500E-04-5.73036E-04 0.00000E+00
 -1       530 2.61382E-04-5.15328E-04 5.29396E-23
 -1       531 2.20048E-04-4.26517E-04-1.05879E-22
 -1       532 1.69452E-04-3.18812E-04 0.00000E+00
 -1       533 1.17351E-04-2.08094E-04 0.00000E+00
 -1       534 7.17619E-05-1.10418E-04 0.00000E+00
 -1       535 3.86750E-05-3.93571E-05 5.29396E-23
 -1       536 1.09055E-04 7.98645E-06 0.00000E+00
 -1       537 1.08746E-04 2.73576E-05 0.00000E+00
 -1       538 1.08359E-04 5.05977E-05 3.30872E-24
 -1       539 1.07949E-04 7.48644E-05-1.65436E-24
 -1       540 1.07585E-04 9.70467E-05 3.30872E-24
 -1       541 1.07319E-04 1.14045E-04 0.00000E+00
 -1       542 1.07141E-04 1.24090E-04-3.30872E-24
 -1       543 1.07011E-04 1.25452E-04 0.00000E+00
 -1       544 1.06860E-04 1.18600E-04 0.00000E+00
 -1       545 1.06629E-04 1.04048E-04-1.65436E-24
 -1       546 1.06315E-04 8.42703E-05 0.00000E+00
 -1       547 1.05946E-04 6.17693E-05 1.65436E-24
 -1       548 1.05587E-04 3.97502E-05 0.00000E+00
 -1       549 1.05300E-04 2.14164E-05-1.65436E-24
 -1       550 1.05099E-04 9.02427E-06 1.65436E-24
 -1       551 9.77260E-05-4.96753E-06 6.61744E-24
 -1       552 8.40304E-05-5.26218E-06-3.30872E-24
 -1       553 6.89065E-05-5.57521E-06-3.30872E-24
 -1       554 5.30911E-05-5.90030E-06 0.00000E+00
 -1       555 3.73207E-05-6.22752E-06-2.64698E-23
 -1       556 1.06140E-04 3.39344E-06 0.00000E+00
 -1       557 1.03705E-04 9.70579E-06 0.00000E+00
 -1       558 1.01889E-04 1.43989E-05 0.00000E+00
 -1       559 1.00625E-04 1.76408E-05 0.00000E+00
 -1       560 9.98469E-05 1.95995E-05 0.00000E+00
 -1       561 9.94891E-05 2.04441E-05 0.00000E+00
 -1       562 9.94866E-05 2.03437E-05-1.32349E-23
 -1       563 9.97748E-05 1.94680E-05 0.00000E+00
 -1       564 1.00290E-04 1.79867E-05-6.61744E-24
 -1       565 1.00967E-04 1.60697E-05 0.00000E+00
 -1       566 1.01744E-04 1.38871E-05 0.00000E+00
 -1       567 1.02556E-04 1.16088E-05 5.16988E-26
 -1       568 1.03341E-04 9.40490E-06 0.00000E+00
 -1       569 1.04035E-04 7.44536E-06 0.00000E+00
 -1       570 1.04573E-04 5.90007E-06 0.00000E+00
 -1       571 1.05039E-04 4.58897E-06 0.00000E+00
 -1       572 1.05112E-04 4.33633E-06-2.06795E-25
 -1       573 1.05185E-04 4.04653E-06 1.65436E-24
 -1       574 1.05258E-04 3.72894E-06-8.27181E-25
 -1       575 1.05331E-04 3.39293E-06 1.65436E-24
 -1       576 1.05405E-04 3.04794E-06 8.27181E-25
 -1       577 1.05478E-04 2.70342E-06 3.30872E-24
 -1       578 1.05551E-04 2.36883E-06-1.65436E-24
 -1       579 1.05625E-04 2.05362E-06 3.30872E-24
 -1       580 1.05698E-04 1.76726E-06 0.00000E+00
 -1       581 1.05772E-04 1.51919E-06 0.00000E+00
 -1       582 1.05845E-04 1.31886E-06 0.00000E+00
 -1       583 1.05918E-04 1.17570E-06 0.00000E+00
 -1       584 1.05992E-04 1.09906E-06 0.00000E+00
 -1       585 1.06065E-04 1.09821E-06 0.00000E+00
 -1       586 1.04917E-04 4.82037E-06 0.00000E+00
 -1       587 1.04838E-04 4.84460E-06-2.06795E-25
 -1       588 1.04764E-04 4.86856E-06 0.00000E+00
 -1       589 1.04728E-04 4.89211E-06 0.00000E+00
 -1       590 1.04761E-04 4.91495E-06 0.00000E+00
 -1       591 1.05010E-04 4.63186E-06-1.42172E-25
 -1       592 1.05062E-04 4.43559E-06 0.00000E+00
 -1       593 1.05123E-04 4.21334E-06 0.00000E+00
 -1       594 1.05191E-04 3.97099E-06-4.13590E-25
 -1       595 1.05265E-04 3.71446E-06-8.27181E-25
 -1       596 1.05341E-04 3.44965E-06-4.13590E-25
 -1       597 1.05419E-04 3.18243E-06 4.13590E-25
 -1       598 1.05495E-04 2.91871E-06 0.00000E+00
 -1       599 1.05567E-04 2.66435E-06 8.27181E-25
 -1       600 1.05634E-04 2.42522E-06 2.06795E-25
 -1       601 1.05693E-04 2.20723E-06-4.13590E-25
 -1       602 1.05742E-04 2.01624E-06 0.00000E+00
 -1       603 1.05779E-04 1.85815E-06-3.10193E-25
 -1       604 1.05801E-04 1.73890E-06 1.03398E-25
 -1       605 1.05807E-04 1.66433E-06 0.00000E+00
 -1       606 1.06151E-04 1.42993E-06 3.30872E-24
 -1       607 1.06161E-04 1.77399E-06 0.00000E+00
 -1       608 1.06171E-04 2.20824E-06 0.00000E+00
 -1       609 1.06180E-04 2.72633E-06 0.00000E+00
 -1       610 1.06189E-04 3.32191E-06 0.00000E+00
 -1       611 1.06198E-04 3.98849E-06 0.00000E+00
 -1       612 1.06207E-04 4.71960E-06 0.00000E+00
 -1       613 1.06215E-04 5.50879E-06 0.00000E+00
 -1       614 1.06224E-04 6.34957E-06 0.00000E+00
 -1       615 1.06233E-04 7.23545E-06 0.00000E+00
 -1       616 1.06242E-04 8.15998E-06 0.00000E+00
 -1       617 1.06250E-04 9.11666E-06 0.00000E+00
 -1       618 1.06259E-04 1.00990E-05 0.00000E+00
 -1       619 1.06267E-04 1.11006E-05 0.00000E+00
 -1       620 1.06276E-04 1.21149E-05 0.00000E+00
 -1       621 1.05999E-04 1.25836E-06 1.65436E-24
 -1       622 1.05905E-04 1.33535E-06 8.27181E-25
 -1       623 1.05848E-04 1.41233E-06-1.65436E-24
 -1       624 1.05817E-04 1.48917E-06 8.27181E-25
 -1       625 1.05803E-04 1.56588E-06 1.65436E-24
 -1       626 1.06129E-04 1.45538E-06 0.00000E+00
 -1       627 1.06091E-04 1.80735E-06 1.65436E-24
 -1       628 1.06027E-04 2.23000E-06-3.30872E-24
 -1       629 1.05940E-04 2.71529E-06 0.00000E+00
 -1       630 1.05832E-04 3.25514E-06 3.30872E-24
 -1       631 1.05706E-04 3.84143E-06 0.00000E+00
 -1       632 1.05566E-04 4.46606E-06 3.30872E-24
 -1       633 1.05415E-04 5.12092E-06 0.00000E+00
 -1       634 1.05256E-04 5.79788E-06-3.30872E-24
 -1       635 1.05091E-04 6.48883E-06 0.00000E+00
 -1       636 1.04924E-04 7.18566E-06 3.30872E-24
 -1       637 1.04758E-04 7.88027E-06-8.27181E-25
 -1       638 1.04596E-04 8.56453E-06 0.00000E+00
 -1       639 1.04440E-04 9.23032E-06 8.27181E-25
 -1       640 1.04294E-04 9.86952E-06 1.65436E-24
 -1       656 1.05477E-04 1.27024E-05 6.61744E-24
 -1       657 1.05044E-04 1.22521E-05-6.61744E-24
 -1       658 1.04845E-04 1.18031E-05 0.00000E+00
 -1       659 1.04740E-04 1.13545E-05 3.30872E-24
 -1       660 1.04566E-04 1.09045E-05-6.61744E-24
 -1       661 1.05986E-04 1.41272E-05 8.27181E-25
 -1       662 1.05714E-04 1.50596E-05 8.27181E-25
 -1       663 1.05463E-04 1.59348E-05 0.00000E+00
 -1       664 1.05232E-04 1.67562E-05-8.27181E-25
 -1       665 1.05021E-04 1.75263E-05 1.65436E-24
 -1       666 1.04829E-04 1.82481E-05-8.27181E-25
 -1       667 1.04653E-04 1.89243E-05 0.00000E+00
 -1       668 1.04494E-04 1.95573E-05 0.00000E+00
 -1       669 1.04350E-04 2.01497E-05 0.00000E+00
 -1       670 1.04220E-04 2.07039E-05 0.00000E+00
 -1       671 1.04104E-04 2.12220E-05 0.00000E+00
 -1       672 1.04000E-04 2.17062E-05 0.00000E+00
 -1       673 1.03908E-04 2.21587E-05 0.00000E+00
 -1       674 1.03827E-04 2.25812E-05 8.27181E-25
 -1       675 1.03756E-04 2.29761E-05 0.00000E+00
 -1       676 1.05355E-04 2.37610E-05 0.00000E+00
 -1       677 1.05021E-04 2.36769E-05 1.65436E-24
 -1       678 1.04687E-04 2.35929E-05-3.30872E-24
 -1       679 1.04354E-04 2.35091E-05 8.27181E-25
 -1       680 1.04022E-04 2.34253E-05-1.65436E-24
 -1       771 1.66085E-05 5.22971E-06 0.00000E+00
 -1       772 1.16998E-05 1.49073E-05 0.00000E+00
 -1       773 7.56483E-06 2.25734E-05-5.29396E-23
 -1       774 4.15226E-06 2.83500E-05 0.00000E+00
 -1       775 1.41145E-06 3.23627E-05-5.29396E-23
 -1       776-7.10443E-07 3.47424E-05 2.64698E-23
 -1       777-2.26679E-06 3.56237E-05 0.00000E+00
 -1       778-3.31222E-06 3.51456E-05 0.00000E+00
 -1       779-3.90163E-06 3.34500E-05 0.00000E+00
 -1       780-4.09100E-06 3.06823E-05 0.00000E+00
 -1       781-3.93639E-06 2.69905E-05 5.29396E-23
 -1       782-3.49467E-06 2.25253E-05 1.32349E-23
 -1       783-2.82275E-06 1.74389E-05 0.00000E+00
 -1       784-1.97809E-06 1.18855E-05 1.32349E-23
 -1       785-1.01811E-06 6.02048E-06 0.00000E+00
 -1       786 1.04948E-04 4.59188E-06 0.00000E+00
 -1       787 1.05004E-04 4.27409E-06 4.13590E-25
 -1       788 1.05060E-04 3.97768E-06-1.65436E-24
 -1       789 1.05117E-04 3.69827E-06-8.27181E-25
 -1       790 1.05173E-04 3.43373E-06-1.65436E-24
 -1       791 1.05230E-04 3.18195E-06 0.00000E+00
 -1       792 1.05287E-04 2.94249E-06 0.00000E+00
 -1       793 1.05343E-04 2.71495E-06 0.00000E+00
 -1       794 1.05400E-04 2.50047E-06 0.00000E+00
 -1       795 1.05457E-04 2.30024E-06-8.27181E-25
 -1       796 1.05514E-04 2.11731E-06 0.00000E+00
 -1       797 1.05571E-04 1.95476E-06 0.00000E+00
 -1       798 1.05627E-04 1.81835E-06 0.00000E+00
 -1       799 1.05684E-04 1.71392E-06 8.27181E-25
 -1       800 1.05741E-04 1.65146E-06 0.00000E+00
 -1       801 9.76361E-05 4.30328E-06 0.00000E+00
 -1       802 7.51575E-05 3.42989E-06 0.00000E+00
 -1       803 4.61940E-05 2.40752E-06 0.00000E+00
 -1       804 1.96669E-05 1.44207E-06 0.00000E+00
 -1       805 2.15732E-06 6.58277E-07-2.64698E-23
 -1       806 1.04940E-04 4.54253E-06 0.00000E+00
 -1       807 1.04976E-04 4.16260E-06-1.65436E-24
 -1       808 1.05005E-04 3.79997E-06 0.00000E+00
 -1       809 1.05026E-04 3.45808E-06-8.27181E-25
 -1       810 1.05038E-04 3.14038E-06 1.65436E-24
 -1       811 1.05040E-04 2.85021E-06 8.27181E-25
 -1       812 1.05030E-04 2.59094E-06-3.30872E-24
 -1       813 1.05007E-04 2.36592E-06-8.27181E-25
 -1       814 1.04970E-04 2.17849E-06 1.65436E-24
 -1       815 1.04917E-04 2.03198E-06-8.27181E-25
 -1       816 1.04848E-04 1.92974E-06-1.65436E-24
 -1       817 1.04762E-04 1.87508E-06 0.00000E+00
 -1       818 1.04656E-04 1.87134E-06-3.30872E-24
 -1       819 1.04530E-04 1.92182E-06 1.65436E-24
 -1       820 1.04382E-04 2.02985E-06-1.65436E-24
 -1       821 1.05701E-04 1.62097E-06 8.27181E-25
 -1       822 1.05598E-04 1.53058E-06-8.27181E-25
 -1       823 1.05496E-04 1.43852E-06-3.30872E-24
 -1       824 1.05393E-04 1.41344E-06 0.00000E+00
 -1       825 1.05290E-04 1.50976E-06 0.00000E+00
 -1       826 1.05187E-04 1.78131E-06 1.65436E-24
 -1       827 1.05083E-04 2.24477E-06 3.30872E-24
 -1       828 1.04980E-04 2.91592E-06 1.65436E-24
 -1       829 1.04876E-04 3.76649E-06 0.00000E+00
 -1       830 1.04772E-04 4.76738E-06 0.00000E+00
 -1       831 1.04668E-04 5.85762E-06-3.30872E-24
 -1       832 1.04564E-04 6.97579E-06 0.00000E+00
 -1       833 1.04461E-04 8.05457E-06 0.00000E+00
 -1       834 1.04358E-04 9.02680E-06 0.00000E+00
 -1       835 1.04256E-04 9.84789E-06 0.00000E+00
 -1       836 1.05691E-04 1.73388E-06-1.65436E-24
 -1       837 1.05471E-04 1.82878E-06 0.00000E+00
 -1       838 1.05176E-04 1.92350E-06 0.00000E+00
 -1       839 1.04842E-04 2.01761E-06 8.27181E-25
 -1       840 1.04509E-04 2.11157E-06 0.00000E+00
 -1       856 1.04134E-04 1.10616E-05 2.06795E-25
 -1       857 1.04105E-04 1.17606E-05 2.06795E-25
 -1       858 1.04076E-04 1.25532E-05-8.27181E-25
 -1       859 1.04047E-04 1.34220E-05 4.13590E-25
 -1       860 1.04017E-04 1.43494E-05-8.27181E-25
 -1       861 1.03987E-04 1.53175E-05-4.13590E-25
 -1       862 1.03958E-04 1.63088E-05 8.27181E-25
 -1       863 1.03928E-04 1.73054E-05 0.00000E+00
 -1       864 1.03898E-04 1.82895E-05-8.27181E-25
 -1       865 1.03868E-04 1.92434E-05 0.00000E+00
 -1       866 1.03839E-04 2.01493E-05 0.00000E+00
 -1       867 1.03809E-04 2.09895E-05-4.13590E-25
 -1       868 1.03779E-04 2.17465E-05 0.00000E+00
 -1       869 1.03750E-04 2.24027E-05-4.13590E-25
 -1       870 1.03720E-04 2.29408E-05 0.00000E+00
 -1       871 1.03787E-04 1.04728E-05-8.27181E-25
 -1       872 1.03524E-04 1.04694E-05 0.00000E+00
 -1       873 1.03324E-04 1.04656E-05 0.00000E+00
 -1       874 1.03138E-04 1.04613E-05 1.55096E-25
 -1       875 1.02917E-04 1.04564E-05-6.20385E-25
 -1       876 1.04038E-04 1.10715E-05-3.30872E-24
 -1       877 1.03899E-04 1.17233E-05 0.00000E+00
 -1       878 1.03741E-04 1.24226E-05-3.30872E-24
 -1       879 1.03569E-04 1.31634E-05-1.65436E-24
 -1       880 1.03383E-04 1.39396E-05-3.30872E-24
 -1       881 1.03186E-04 1.47451E-05-1.65436E-24
 -1       882 1.02981E-04 1.55738E-05-3.30872E-24
 -1       883 1.02769E-04 1.64197E-05 0.00000E+00
 -1       884 1.02553E-04 1.72768E-05-3.30872E-24
 -1       885 1.02335E-04 1.81389E-05-1.65436E-24
 -1       886 1.02117E-04 1.90001E-05 0.00000E+00
 -1       887 1.01902E-04 1.98541E-05 1.65436E-24
 -1       888 1.01692E-04 2.06951E-05-1.65436E-24
 -1       889 1.01488E-04 2.15168E-05 0.00000E+00
 -1       890 1.01293E-04 2.23131E-05-8.27181E-25
 -1       891 1.03380E-04 2.32987E-05-8.27181E-25
 -1       892 1.03051E-04 2.32539E-05-4.13590E-25
 -1       893 1.02680E-04 2.32092E-05 1.65436E-24
 -1       894 1.02247E-04 2.31645E-05-2.06795E-25
 -1       895 1.01729E-04 2.31199E-05-2.06795E-25
 -1       956 1.04116E-04 2.49241E-06 1.65436E-24
 -1       957 1.04016E-04 2.84922E-06 0.00000E+00
 -1       958 1.03916E-04 3.26226E-06-1.65436E-24
 -1       959 1.03816E-04 3.72432E-06 0.00000E+00
 -1       960 1.03715E-04 4.22817E-06 1.65436E-24
 -1       961 1.03615E-04 4.76655E-06 0.00000E+00
 -1       962 1.03515E-04 5.33217E-06 3.30872E-24
 -1       963 1.03414E-04 5.91778E-06 1.65436E-24
 -1       964 1.03314E-04 6.51607E-06 0.00000E+00
 -1       965 1.03213E-04 7.11978E-06 1.65436E-24
 -1       966 1.03113E-04 7.72163E-06 0.00000E+00
 -1       967 1.03013E-04 8.31433E-06 1.65436E-24
 -1       968 1.02912E-04 8.89061E-06-3.30872E-24
 -1       969 1.02812E-04 9.44322E-06-1.65436E-24
 -1       970 1.02712E-04 9.96490E-06 0.00000E+00
 -1       971 1.02521E-04 1.09501E-05-1.65436E-24
 -1       972 1.02427E-04 1.15337E-05 8.27181E-25
 -1       973 1.02332E-04 1.21903E-05 1.65436E-24
 -1       974 1.02237E-04 1.29105E-05 8.27181E-25
 -1       975 1.02143E-04 1.36850E-05 0.00000E+00
 -1       976 1.02048E-04 1.45042E-05 0.00000E+00
 -1       977 1.01953E-04 1.53587E-05 3.30872E-24
 -1       978 1.01858E-04 1.62390E-05 0.00000E+00
 -1       979 1.01763E-04 1.71357E-05 0.00000E+00
 -1       980 1.01668E-04 1.80394E-05 1.65436E-24
 -1       981 1.01573E-04 1.89405E-05 3.30872E-24
 -1       982 1.01479E-04 1.98295E-05-1.65436E-24
 -1       983 1.01384E-04 2.06971E-05 0.00000E+00
 -1       984 1.01290E-04 2.15337E-05 0.00000E+00
 -1       985 1.01196E-04 2.23300E-05 1.65436E-24
 -3
    1PSTEP                        12           6           1          
  100CL  106 5.39062E-01         409                     0    6           1
 -4  STRESS      6    1
 -5  SXX         1    4    1    1
 -5  SYY         1    4    2    2
 -5  SZZ         1    4    3    3
 -5  SXY         1    4    1    2
 -5  SYZ         1    4    2    3
 -5  SZX         1    4    3    1
 -1         1-2.25487E+06-9.61368E+05-4.76633E+05-1.24200E+06 4.58385E-10-2.48838E-09
 -1         2 2.61632E+03-2.84273E+05 8.52817E+03-8.14885E+02-8.69704E-11-6.89852E-09
 -1         3-2.35128E+02-1.03728E+06 2.48916E+02-5.99546E+02-1.97577E-10-1.25838E-08
 -1         5-2.27039E+00 2.82511E+05 7.29619E+00 9.49558E-02 4.09621E-11 2.22508E-09
 -1         8-1.07749E+06-3.94284E+05-1.01062E+05-5.57788E+05-5.09317E-11 3.90719E-09
 -1         9-2.17559E+06-7.10355E+05-2.71150E+05-6.72820E+05 4.87489E-09-6.77537E-09
 -1        10-9.26771E+02-1.08063E+06-1.48288E+03-4.05714E+03-5.66797E-09-4.46329E-09
 -1        12 7.22941E-01 2.82526E+05 2.36274E+02 7.51819E-01 1.37373E-10-9.66247E-09
 -1        15 2.06313E+03 1.12531E+03 6.54373E+03 4.54951E+00 4.33431E-11-2.44804E-08
 -1        16-2.84382E+06-1.24724E+06-4.62594E+05-1.32291E+06 1.07005E-08 6.49986E-09
 -1        17-1.27164E+06-7.17052E+05-2.45226E+05-6.36626E+05-6.37228E-09 6.57747E-10
 -1        18-4.03065E+04-1.46629E+04-3.18634E+04-7.35171E+04 5.18969E-09 7.06996E-09
 -1        19 8.97182E+04 1.05029E+05-6.32779E+02 1.75534E+04-3.45062E-10 2.68992E-09
 -1        20-4.22601E+04-4.24204E+05-9.39113E+04 2.86871E+04 3.62828E-09 2.62662E-09
 -1        21-3.90492E+01-2.40693E+05-7.72373E+02-5.51347E+01-4.36329E-09-1.08934E-10
 -1        24-3.10119E+06-7.88141E+05-3.53305E+05-1.12242E+06-4.10316E-08-1.90824E-08
 -1        25-5.13145E+04-3.62834E+05-6.63444E+04-1.20036E+05 3.16959E-10 1.49521E-10
 -1        26-2.71418E+04 7.00244E+04-1.57517E+04-7.35558E+03 1.51376E-09 1.41417E-08
 -1        27-6.49771E+04-2.31799E+05-8.65835E+04 5.23077E+04 5.68214E-09-6.86032E-09
 -1        28 1.85672E+04-6.70411E+04 1.36315E+04 2.04130E+04 1.79560E-09-3.12008E-09
 -1        32-1.07956E+06-1.02236E+06 1.82723E+05-5.74696E+05-2.38688E-08 1.04583E-09
 -1        33-1.34262E+05 6.74553E+04 2.40186E+04-3.58014E+04 7.21836E-10 1.23130E-08
 -1        34-1.71668E+05-1.73242E+04 4.29187E+02 5.36652E+04 2.31872E-09-4.73362E-09
 -1        35-1.89031E+04-2.66341E+04-1.04803E+03 4.19297E+04 5.20371E-09-1.63891E-09
 -1        51 2.08160E+04-3.54722E+05 5.10122E+04-9.67206E+05 1.74623E-10-7.21775E-09
 -1        52 1.13190E+04-3.51454E+05 3.20511E+04-1.12801E+06 5.60249E-10 3.45608E-09
 -1        53 7.36382E+03-3.66019E+05 2.50054E+04-9.63802E+05 1.01863E-09 1.10449E-08
 -1        54 2.04444E+04-3.64554E+05 3.73550E+04-1.13153E+06 5.45697E-10-1.12486E-08
 -1        55 4.02623E+04-3.78466E+05 6.49993E+04-9.63241E+05 6.11180E-10-5.59521E-09
 -1        56-4.31099E+06-4.82611E+05-3.50702E+05-1.66520E+06-1.32422E-09-9.51695E-09
 -1        57-4.46208E+06-7.90417E+05-2.36515E+05-1.64015E+06-2.45564E-09-1.85973E-08
 -1        58-4.38155E+06-5.93795E+05-8.24740E+04-1.64300E+06-1.49157E-10 2.80488E-09
 -1        59-4.38059E+06-6.59707E+05-4.92367E+04-1.66626E+06-1.44314E-09 8.42829E-09
 -1        60-4.39157E+06-6.09581E+05-1.92350E+04-1.64032E+06-2.82398E-10 1.42563E-08
 -1        61-4.37090E+06-6.39223E+05-1.09041E+04-1.66702E+06-1.06411E-09 8.40021E-09
 -1        62-4.39101E+06-6.13818E+05-5.20634E+03-1.64234E+06-5.90035E-10-9.22381E-09
 -1        63-4.37491E+06-6.31260E+05-4.16538E+03-1.66075E+06-9.58607E-10 1.76656E-08
 -1        64-4.38744E+06-6.17545E+05-4.68012E+03-1.64653E+06 2.74895E-09 2.36323E-08
 -1        65-4.38407E+06-6.25010E+05-9.25041E+03-1.65121E+06-1.35606E-09-1.34298E-08
 -1        66-4.38183E+06-6.20147E+05-1.62211E+04-1.65184E+06 2.29215E-09-1.81353E-09
 -1        67-4.40231E+06-6.32009E+05-4.12419E+04-1.63900E+06-1.89772E-09-6.61703E-09
 -1        68-4.36938E+06-6.10936E+05-6.91292E+04-1.65866E+06 3.32875E-09-3.44880E-09
 -1        69-4.47584E+06-7.36442E+05-1.98121E+05-1.61154E+06-2.62935E-09 1.61817E-08
 -1        70-4.30921E+06-5.18775E+05-2.93832E+05-1.67835E+06-1.09139E-09-1.19326E-08
 -1        86-1.31438E+03-2.87090E+05 9.10400E+03 4.07430E+02 1.09753E-09 3.13378E-10
 -1        87 8.69260E+03-2.81388E+05 1.90275E+04-1.57476E+03 1.78898E-09-3.42115E-09
 -1        88-7.36800E+03-2.89977E+05 2.91281E+04 1.16732E+03 2.59752E-09 8.66231E-09
 -1        89 5.48810E+04-2.60092E+05 7.85201E+04-2.88968E+03 3.99723E-09-1.73826E-09
 -1        90-4.73365E+04-3.08367E+05 1.11026E+05 1.72278E+03 3.87809E-09 1.04076E-08
 -1       121-3.44395E+02-1.03818E+06 1.26198E+02 2.99118E+02 6.13539E-10 1.32495E-08
 -1       122-1.49778E+02-1.03724E+06 5.29510E+02-1.19796E+03-2.12936E-09 5.36966E-09
 -1       123-3.95357E+02-1.03824E+06 7.41550E+02 8.94944E+02 1.73713E-09-8.74934E-10
 -1       124 8.34567E+02-1.03668E+06 2.18523E+03-2.58408E+03-4.21596E-09-6.45741E-11
 -1       125-1.01108E+03-1.03880E+06 3.23541E+03 1.68286E+03 2.67119E-09 2.09184E-10
 -1       191-2.62712E+00 2.82536E+05 8.87307E+00-4.76716E-02 7.72138E-11-9.85892E-10
 -1       192-2.93931E+00 2.82511E+05 1.54405E+01 4.28805E-01 1.02500E-10-8.18318E-09
 -1       193-4.40628E+00 2.82535E+05 2.88626E+01-3.82607E-01 1.04201E-10 1.60799E-09
 -1       194-5.09225E+00 2.82514E+05 5.83834E+01 1.02318E+00 7.10365E-11 7.83257E-09
 -1       195-7.82554E+00 2.82533E+05 1.14348E+02-6.45268E-01 2.06910E-10-3.94084E-09
 -1       251-1.09331E+06 4.72709E+03-1.12711E+04-9.26917E+03-5.68662E-10 1.25979E-08
 -1       252-1.09701E+06-5.43981E+03-7.72402E+03 1.14326E+04-1.09139E-11-4.01542E-10
 -1       253-1.09575E+06 6.74376E+02-3.05592E+03-4.71831E+03-6.69843E-10-5.29849E-09
 -1       254-1.09408E+06-8.03762E+02-1.47435E+03 7.79350E+02 1.03228E-10-6.18942E-09
 -1       255-1.09616E+06 5.26432E+01-8.80378E+02 1.38417E+03 8.20819E-11-6.32687E-09
 -1       256-1.09415E+06-7.23045E+01-1.03065E+02-1.05217E+04 1.39849E-09-3.02433E-09
 -1       257-1.09572E+06-2.22606E+01-9.60285E+01 6.58253E+03-1.12453E-09 8.10981E-09
 -1       258-1.09503E+06 1.22284E+02 3.14000E+02-1.79121E+04-2.33297E-09 2.65433E-09
 -1       259-1.09538E+06-6.94780E+01 6.12852E+02 8.77494E+03-7.39799E-10-2.76927E-09
 -1       260-1.09489E+06 5.34829E+02 1.51212E+03-1.84106E+04 3.51520E-10-1.69152E-08
 -1       261-1.09586E+06-4.26851E+02 2.51636E+03 7.08109E+03 1.98878E-09 2.03011E-09
 -1       262-1.09271E+06 3.06279E+03 6.55787E+03-1.18199E+04 7.76623E-10 2.30648E-09
 -1       263-1.09747E+06-2.65830E+03 9.97914E+03 2.18402E+03-1.08685E-09-4.03406E-09
 -1       264-1.08449E+06 1.95051E+04 2.80225E+04-8.37928E+02-1.30919E-09 1.84850E-08
 -1       265-1.10400E+06-1.68587E+04 3.90805E+04-3.90088E+03-1.79932E-09 3.42516E-09
 -1       266-3.68439E+04-1.71369E+04 8.57951E+04-9.56013E+01-3.63798E-11-2.10670E-08
 -1       267 4.26916E+04 1.99945E+04 6.07360E+04 1.10107E+02-2.38288E-10-3.47627E-08
 -1       268-5.76778E+03-2.84591E+03 2.25315E+04-1.41744E+01-2.13731E-10-2.93616E-08
 -1       269 6.80920E+03 3.40920E+03 1.46820E+04 1.64939E+01-3.02862E-10-2.21862E-08
 -1       270-1.03013E+03-5.62638E+02 7.06961E+03-2.26789E+00-4.36557E-11-3.03063E-08
 -1       271-3.41267E+06-4.27243E+05-2.58533E+05-1.32958E+06 2.05182E-09-5.03496E-09
 -1       272-3.50072E+06-6.20476E+05-1.66218E+05-1.33236E+06 6.07770E-10-4.85124E-09
 -1       273-3.46269E+06-4.90319E+05-6.10815E+04-1.31648E+06 1.11277E-09 2.01908E-09
 -1       274-3.44146E+06-5.43907E+05-3.41500E+04-1.35294E+06 7.45786E-10 1.42745E-08
 -1       275-3.47116E+06-4.95196E+05-1.42298E+04-1.31249E+06 2.72848E-11 7.33235E-09
 -1       276-3.43087E+06-5.38817E+05-7.52413E+03-1.35974E+06 1.66028E-09 9.96738E-09
 -1       277-3.47370E+06-4.94189E+05-3.70248E+03-1.31040E+06-1.43564E-09 4.34966E-10
 -1       278-3.42794E+06-5.40248E+05-2.66202E+03-1.36294E+06 1.34423E-09 2.58727E-09
 -1       279-3.47447E+06-4.93450E+05-2.84164E+03-1.30959E+06-2.97177E-10-1.01658E-08
 -1       280-3.42813E+06-5.41166E+05-5.21103E+03-1.36328E+06 3.02180E-10-4.63035E-09
 -1       281-3.47358E+06-4.93281E+05-9.48874E+03-1.31009E+06-1.14778E-09 7.27869E-09
 -1       282-3.43413E+06-5.45640E+05-2.27432E+04-1.36011E+06-3.89491E-10 9.37735E-09
 -1       283-3.46829E+06-4.89718E+05-4.05321E+04-1.31237E+06 3.95630E-10 1.07902E-08
 -1       284-3.47316E+06-5.96713E+05-1.10396E+05-1.34658E+06-8.95625E-10 1.00263E-08
 -1       285-3.43495E+06-4.48029E+05-1.71714E+05-1.32123E+06 5.65706E-10 1.64437E-09
 -1       301 2.11558E+04-5.27024E+04 1.56161E+05-1.01347E+05-3.12866E-10 6.84031E-09
 -1       302 2.22476E+04-1.31746E+04 1.03754E+05-1.49010E+05 1.05501E-09-2.67573E-09
 -1       303 1.12108E+03-3.72747E+04 8.16334E+04-1.01438E+05-7.73070E-10-6.35919E-09
 -1       304 2.77426E+04-7.48840E+03 1.22289E+05-1.48550E+05 8.22183E-10 4.14366E-09
 -1       305 2.68099E+04-5.73954E+04 1.97134E+05-1.01849E+05-8.29459E-10 4.08363E-09
 -1       306-5.67782E+06-6.12458E+05-4.29734E+05-2.14089E+06 3.60160E-09-3.98722E-09
 -1       307-5.63039E+06-1.15371E+06-2.79598E+05-2.28989E+06-2.13445E-08 7.43603E-09
 -1       308-5.82741E+06-6.63132E+05-1.00779E+05-2.00881E+06 2.38731E-09 8.43283E-09
 -1       309-5.46819E+06-1.09104E+06-5.84299E+04-2.45915E+06 1.04881E-08 1.06038E-08
 -1       310-5.85147E+06-6.63720E+05-2.27552E+04-1.98124E+06-3.10592E-09 5.48971E-09
 -1       311-5.47594E+06-1.02833E+06-9.34864E+03-2.40964E+06 3.31192E-08-3.66890E-09
 -1       312-5.81394E+06-7.29438E+05-1.23324E+04-2.05446E+06 2.99042E-09 1.00763E-08
 -1       313-5.59534E+06-8.64966E+05 4.33567E+03-2.20346E+06-3.06500E-10 1.31163E-08
 -1       314-5.71901E+06-8.36366E+05-1.60882E+04-2.17771E+06 2.25555E-09 1.91994E-09
 -1       315-5.80873E+06-6.68369E+05-6.72962E+03-1.98091E+06-3.00861E-09 2.86491E-09
 -1       316-5.60447E+06-9.23239E+05-2.96374E+04-2.27950E+06-2.12149E-08-2.84672E-09
 -1       317-5.99627E+06-5.66299E+05-6.68241E+04-1.85207E+06 2.54004E-08 2.45473E-09
 -1       318-5.54505E+06-9.29379E+05-1.12878E+05-2.31680E+06-3.07318E-08 1.04483E-08
 -1       319-6.08800E+06-7.70411E+05-3.27016E+05-1.82998E+06-5.10772E-09-6.93763E-09
 -1       320-5.51207E+06-7.23216E+05-4.88672E+05-2.29940E+06 1.68657E-08 1.28057E-09
 -1       336 5.61832E+02-1.12389E+06-6.32523E+03 2.36352E+03-1.12700E-08-1.13505E-09
 -1       337-2.33639E+03-1.12505E+06-7.00294E+03-5.83167E+03-2.05466E-08-2.40561E-09
 -1       338 3.78235E+02-1.12403E+06-9.21571E+03 3.44791E+03-1.43709E-08-2.77396E-09
 -1       339-9.52432E+03-1.12967E+06-2.01466E+04-7.95445E+03-2.60438E-08 7.99264E-09
 -1       340 6.31867E+03-1.11953E+06-3.12461E+04 4.46818E+03-1.71685E-08 1.86265E-08
 -1       406 1.89166E+01 2.82523E+05 4.66615E+02-1.13432E-01 2.65516E-10-4.06317E-09
 -1       407 1.63340E+02 2.82608E+05 9.91380E+02-4.07081E+00 5.46976E-11 5.46243E-09
 -1       408 5.11144E+02 2.82451E+05 1.98017E+03 4.28333E+00 3.29464E-10-7.68068E-10
 -1       409 2.14149E+03 2.83240E+05 4.45756E+03-4.21624E+01-2.09184E-11-2.09558E-08
 -1       410 6.15157E+03 2.81888E+05 9.10004E+03 3.96777E+01 3.49246E-10-2.93085E-09
 -1       521-8.17524E+06-7.90968E+05-7.90807E+05-2.55326E+06-1.07539E-08 1.05938E-08
 -1       522-5.66683E+06-2.10004E+06-2.02612E+05-3.95281E+06-8.39937E-08-4.12401E-08
 -1       523-8.17381E+06-3.38014E+05-1.55708E+05-1.79651E+06-5.99539E-09-5.63959E-08
 -1       524-6.03669E+06-2.27805E+06-3.55519E+04-4.96025E+06 1.28999E-07-1.11998E-07
 -1       525-8.17372E+06-3.37550E+05-4.32109E+04-1.76554E+06 6.68369E-08-6.39866E-08
 -1       526-5.58127E+06-1.94439E+06 1.34049E+05-4.10029E+06-5.99539E-09-1.05319E-08
 -1       527-8.29502E+06-9.17230E+05-2.15759E+05-2.46079E+06 4.01196E-08-1.01718E-08
 -1       528-5.75608E+06-8.97557E+05 2.71607E+05-2.31235E+06 3.54557E-08 2.14350E-08
 -1       529-7.65720E+06-1.62417E+06-2.34814E+05-3.26903E+06 1.61672E-08-2.44472E-09
 -1       530-7.76728E+06 4.03142E+05 1.58553E+05-1.32086E+06-1.99361E-08 7.01693E-08
 -1       531-6.59811E+06-1.98665E+06-6.21061E+04-3.64357E+06-1.21472E-07 2.32831E-09
 -1       532-9.30347E+06 9.99624E+05-3.02382E+04-1.23149E+06 1.65874E-08-8.39486E-08
 -1       533-6.45600E+06-1.99228E+06-1.30214E+05-3.67158E+06 5.52973E-10-1.57945E-07
 -1       534-8.31139E+06 4.05014E+05-2.06120E+05-1.23350E+06-3.73839E-08 1.07974E-07
 -1       535-7.34902E+06-1.55977E+06-7.40024E+05-3.40714E+06-1.32713E-08 7.74453E-08
 -1       536-3.90410E+05-1.90848E+04 3.32442E+04-1.33769E+04-2.42164E-09 2.49147E-08
 -1       537-3.31353E+05 2.14033E+04 3.13295E+04 3.20702E+04-3.80281E-08 3.75385E-08
 -1       538-3.61710E+05-2.06765E+03 9.95746E+03-1.95568E+04 2.62659E-09 3.64939E-08
 -1       539-3.48648E+05 3.04845E+03 8.20801E+03 3.49721E+04 4.21168E-08 3.21311E-08
 -1       540-3.73349E+05-5.38438E+02 3.78545E+01-1.62857E+04 4.54770E-09 2.90478E-08
 -1       541-3.12169E+05 1.98908E+03 1.10502E+04 2.00029E+04-1.26352E-09 3.12369E-08
 -1       542-3.97208E+05-1.82372E+03-6.89122E+03-4.56773E+03 1.80769E-08 1.07630E-08
 -1       543-2.95913E+05 2.22304E+03 1.30105E+04-5.98263E+03-7.33098E-09-2.14095E-09
 -1       544-3.89187E+05-1.13634E+03-6.23580E+03 9.68062E+03-5.43253E-09-1.61340E-08
 -1       545-3.30694E+05 1.14708E+02 4.51241E+03-2.88254E+04-1.63532E-08-3.12855E-08
 -1       546-3.63324E+05 1.02917E+03-3.10386E+03 1.82711E+04 5.00779E-09-2.46533E-08
 -1       547-3.55118E+05-3.39459E+03-5.29597E+03-3.66463E+04-3.09199E-08-2.91056E-08
 -1       548-3.65360E+05 2.88012E+03-1.17471E+04 1.75164E+04-3.04841E-08-2.70552E-08
 -1       549-3.32146E+05-1.72203E+04-2.09375E+04-2.59323E+04-2.13781E-08-1.60030E-08
 -1       550-3.85520E+05 1.41924E+04-4.80409E+04 7.53932E+03 5.14547E-10-1.20108E-08
 -1       551 1.72611E+04-5.80203E+05 2.43839E+04-9.65345E+05-4.80140E-08-5.57338E-09
 -1       552 3.91997E+04-5.91816E+05 3.18105E+04-1.37496E+06-3.65835E-08 1.83281E-08
 -1       553 2.79387E+04-5.97771E+05 4.65821E+04-9.61710E+05-5.84623E-08 1.86410E-08
 -1       554 6.58421E+04-5.87578E+05 9.75953E+04-1.37639E+06-3.47936E-08 6.57565E-09
 -1       555 5.61192E+04-6.16422E+05 1.73348E+05-9.62654E+05-5.90298E-08-6.88669E-09
 -1       556 1.00526E+05-1.86142E+05 6.21347E+04-2.35252E+05-7.84348E-09-9.09495E-09
 -1       557 1.76080E+05-2.47205E+05 3.28912E+04-2.95805E+05-5.45697E-10 2.86673E-09
 -1       558 9.87047E+04-1.93558E+05 1.29076E+04-2.28960E+05-7.87259E-09-4.82032E-09
 -1       559 1.63871E+05-2.55127E+05 6.67528E+03-3.01735E+05 9.24047E-09 3.57431E-10
 -1       560 9.51662E+04-1.91264E+05 2.53406E+03-2.31312E+05 4.38013E-09 3.09410E-09
 -1       561 1.58788E+05-2.53550E+05 1.43810E+03-3.04992E+05-3.20142E-10 2.79215E-09
 -1       562 9.23540E+04-1.89431E+05 4.35016E+02-2.33332E+05-3.84171E-09 6.06087E-09
 -1       563 1.55485E+05-2.52120E+05 3.52019E+02-3.07109E+05 2.58296E-09 3.12025E-09
 -1       564 9.05259E+04-1.88268E+05 9.57519E+01-2.34626E+05 8.69477E-09 8.81846E-09
 -1       565 1.53624E+05-2.51315E+05 1.13539E+02-3.08285E+05 1.61526E-09 9.78616E-10
 -1       566 8.97296E+04-1.87753E+05 1.61819E+01-2.35190E+05-1.43882E-09 6.23913E-09
 -1       567 1.53162E+05-2.51102E+05-5.91133E+01-3.08498E+05 8.77316E-09 4.95493E-09
 -1       568 9.00054E+04-1.87938E+05-2.95919E+02-2.35075E+05-4.18731E-09 9.02946E-09
 -1       569 1.53325E+05-2.50981E+05-7.11766E+02-3.07026E+05-9.40054E-09 2.10184E-08
 -1       570 9.19930E+04-1.89594E+05-1.66986E+03-2.34861E+05 5.16593E-10 9.80435E-10
 -1       571 2.09263E+05 7.70805E+03 1.13804E+04-5.42614E+04 1.70439E-09 1.77192E-09
 -1       572 2.10952E+05 2.70346E+03 5.57591E+03-5.94982E+04-1.27784E-10-6.78119E-09
 -1       573 2.09939E+05 6.66935E+02 2.47715E+03-5.41302E+04-7.07587E-10 7.63976E-10
 -1       574 2.10135E+05 2.41472E+02 1.24130E+03-5.96471E+04 3.44471E-10 4.01360E-09
 -1       575 2.10014E+05 5.97215E+01 5.85235E+02-5.41128E+04-7.96945E-10-1.86537E-09
 -1       576 2.10025E+05 4.22236E+01 2.98316E+02-5.96669E+04-1.24064E-09 7.05222E-09
 -1       577 2.10027E+05 2.57246E+01 1.47596E+02-5.41105E+04 7.32143E-11 8.81437E-09
 -1       578 2.10019E+05 2.97170E+01 8.18757E+01-5.96694E+04-8.26731E-10 3.04408E-09
 -1       579 2.10045E+05 2.01128E+01 5.23386E+01-5.41104E+04-2.94676E-10 4.00223E-09
 -1       580 2.10044E+05 1.90931E+01 5.29534E+01-5.96662E+04-1.87174E-09-8.50969E-09
 -1       581 2.10075E+05 7.85428E+00 7.57828E+01-5.41137E+04-4.86580E-10 6.33736E-09
 -1       582 2.10097E+05 2.05247E+01 1.47989E+02-5.96330E+04 1.07184E-09 7.11816E-09
 -1       583 2.10111E+05 5.27912E+01 2.85176E+02-5.41436E+04-8.73115E-11 2.27146E-10
 -1       584 2.10247E+05 2.76945E+02 6.40903E+02-5.93821E+04-1.29148E-09 2.15209E-09
 -1       585 2.10084E+05 8.39099E+02 1.30147E+03-5.43651E+04 8.69477E-10 5.09317E-09
 -1       586-2.49624E+03 6.90826E+04-3.15147E+03-1.86552E+05-5.50699E-10-9.84539E-09
 -1       587-5.52818E+02 6.86795E+04-1.56532E+02-2.05317E+05 2.00089E-11-2.33662E-08
 -1       588 7.22856E+02 6.87322E+04 2.71762E+03-1.86454E+05-3.49246E-10-1.42009E-08
 -1       589 3.78313E+03 7.02062E+04 7.64575E+03-2.05119E+05-9.22228E-10-9.95533E-09
 -1       590 1.10204E+04 6.78658E+04 1.62729E+04-1.86758E+05-4.10182E-10-8.57744E-09
 -1       591-4.44987E+04-1.21021E+04-1.48866E+04-2.22162E+04-2.53522E-11 1.07593E-09
 -1       592-4.61989E+04-1.54527E+04-8.06333E+03-2.57508E+04-4.64183E-10 3.06545E-09
 -1       593-4.59994E+04-1.10098E+04-3.35674E+03-2.32961E+04-1.02443E-09-5.75778E-09
 -1       594-4.41292E+04-1.32838E+04-1.67416E+03-2.58479E+04-5.40012E-10 7.96143E-09
 -1       595-4.61143E+04-1.10051E+04-7.69237E+02-2.33455E+04-1.85406E-09-2.74904E-09
 -1       596-4.39888E+04-1.31845E+04-3.91924E+02-2.58328E+04 3.38392E-09 9.64491E-10
 -1       597-4.61288E+04-1.10148E+04-2.15311E+02-2.33475E+04-9.56163E-10 6.36447E-09
 -1       598-4.39752E+04-1.31807E+04-1.76566E+02-2.58286E+04-2.82557E-09-5.47897E-09
 -1       599-4.61277E+04-1.10149E+04-2.29894E+02-2.33471E+04 8.26276E-10-7.16022E-09
 -1       600-4.39899E+04-1.31857E+04-4.30546E+02-2.58321E+04-6.88260E-10-2.11048E-09
 -1       601-4.61095E+04-1.10048E+04-8.51205E+02-2.33441E+04-1.43359E-09-6.23004E-11
 -1       602-4.41453E+04-1.32956E+04-1.85605E+03-2.58465E+04-3.51065E-09-8.35007E-09
 -1       603-4.59804E+04-1.10120E+04-3.72268E+03-2.32896E+04-3.06954E-10 2.00816E-09
 -1       604-4.64495E+04-1.56907E+04-8.94242E+03-2.57254E+04-1.92858E-09 4.05839E-09
 -1       605-4.43045E+04-1.22325E+04-1.65095E+04-2.21020E+04-1.37106E-09-5.15774E-09
 -1       606 2.76136E+04-1.00562E+04-1.80904E+04 2.67914E+04-1.44883E-09-5.94537E-09
 -1       607 2.45165E+04-3.25173E+03-9.00799E+03 3.00775E+04 1.71531E-09-7.54289E-09
 -1       608 2.62724E+04-5.56008E+02-4.03401E+03 2.65796E+04 2.38651E-09-4.05862E-10
 -1       609 2.59234E+04-1.52112E+02-2.03741E+03 3.03133E+04 1.70166E-09-4.44516E-10
 -1       610 2.61091E+04 1.74958E+01-9.73238E+02 2.65558E+04-1.92085E-09 1.14596E-10
 -1       611 2.60437E+04 3.01792E+01-4.90738E+02 3.03390E+04-8.42874E-09-6.02040E-09
 -1       612 2.60650E+04 3.40364E+01-2.34650E+02 2.65535E+04-3.95357E-09 6.78119E-09
 -1       613 2.60405E+04 3.94513E+01-1.06453E+02 3.03421E+04-4.39377E-09 1.70758E-10
 -1       614 2.60406E+04 3.51608E+01-2.86970E+01 2.65527E+04-1.68802E-09 9.16521E-09
 -1       615 2.60277E+04 4.54880E+01 3.59505E+01 3.03425E+04 2.24782E-09 2.36059E-09
 -1       616 2.60220E+04 4.14539E+01 1.15722E+02 2.65530E+04-3.35694E-09-1.70235E-09
 -1       617 2.60348E+04 7.43682E+01 2.67337E+02 3.03420E+04-9.06084E-10 1.11331E-08
 -1       618 2.59937E+04 1.21761E+02 5.39948E+02 2.65531E+04 1.09867E-09 7.65340E-09
 -1       619 2.62213E+04 4.94533E+02 1.21332E+03 3.03412E+04 1.15369E-09-2.20780E-10
 -1       620 2.58117E+04 1.40465E+03 2.43890E+03 2.65520E+04 1.36765E-09 3.50383E-09
 -1       621 3.00262E+02 2.20477E+05 2.68873E+03 1.13100E+04-2.47724E-10-9.43078E-09
 -1       622 3.54096E+02 2.21140E+05 2.38958E+03 1.64809E+04-5.68434E-12-5.03132E-09
 -1       623 1.73877E+01 2.20650E+05 2.88788E+03 1.12562E+04 3.82556E-11-7.04404E-10
 -1       624 1.34725E+03 2.22044E+05 5.60602E+03 1.65350E+04 6.50289E-11 1.78488E-10
 -1       625 1.35416E+03 2.19558E+05 9.80330E+03 1.12558E+04 1.31877E-10-2.30835E-09
 -1       626 1.88380E+05 5.08087E+04 3.93044E+03 9.98673E+04-1.02368E-08 5.17321E-09
 -1       627 1.85997E+05 5.24839E+04 1.89405E+03 1.03821E+05-1.86865E-08 1.05917E-08
 -1       628 1.88511E+05 4.89679E+04 8.00060E+02 1.00481E+05-9.76524E-09 1.35446E-09
 -1       629 1.85450E+05 5.20161E+04 3.91986E+02 1.04055E+05 1.65664E-09 2.56858E-09
 -1       630 1.88518E+05 4.88815E+04 1.81118E+02 1.00499E+05 4.51018E-09 6.29922E-09
 -1       631 1.85383E+05 5.20042E+04 9.70880E+01 1.04056E+05-2.87400E-10 2.04091E-09
 -1       632 1.88509E+05 4.88885E+04 6.32519E+01 1.00491E+05-2.00089E-09 9.27190E-09
 -1       633 1.85370E+05 5.20096E+04 6.95398E+01 1.04048E+05-4.03452E-09-5.37511E-09
 -1       634 1.88499E+05 4.88896E+04 1.11484E+02 1.00486E+05 3.64344E-09-6.05405E-09
 -1       635 1.85374E+05 5.20111E+04 2.25322E+02 1.04048E+05 1.88834E-09 2.76691E-09
 -1       636 1.88487E+05 4.88883E+04 4.54735E+02 1.00483E+05 8.27583E-10-1.80421E-09
 -1       637 1.85468E+05 5.20831E+04 9.99294E+02 1.04044E+05 2.96416E-09-1.13268E-08
 -1       638 1.88449E+05 4.91107E+04 2.05349E+03 1.00381E+05-3.84034E-10-1.85491E-09
 -1       639 1.86544E+05 5.35841E+04 4.85798E+03 1.03725E+05 7.06223E-10 1.47622E-08
 -1       640 1.88305E+05 5.35832E+04 1.00814E+04 9.84844E+04-8.64020E-12 1.15051E-09
 -1       656 5.03229E+04-1.27636E+06-1.21478E+05-4.33869E+02 3.20142E-10-3.38736E-09
 -1       657-6.65153E+04-1.33119E+06-1.00502E+05 7.57306E+03 1.52795E-10-8.61543E-09
 -1       658 1.59775E+04-1.29198E+06-6.17247E+04-1.77215E+03 7.88418E-10-3.88441E-09
 -1       659-7.14592E+04-1.33354E+06-1.06996E+05 8.50379E+03-6.11180E-10-3.69389E-09
 -1       660 5.52553E+04-1.27402E+06-1.32645E+05-1.36458E+03-6.03904E-10-1.76253E-09
 -1       661 1.68179E+05 1.82309E+04 1.63627E+04 6.57571E+04 3.26327E-09-5.52245E-09
 -1       662 1.76840E+05 3.09281E+04 1.10259E+04 6.27565E+04 5.17275E-12-2.14371E-08
 -1       663 1.71389E+05 2.34836E+04 3.85686E+03 6.48289E+04-1.42370E-09-1.22327E-09
 -1       664 1.73124E+05 2.47811E+04 2.30613E+03 6.38865E+04 4.45539E-10 1.43284E-08
 -1       665 1.71871E+05 2.42052E+04 9.09703E+02 6.46922E+04-3.52640E-09 1.79369E-10
 -1       666 1.72557E+05 2.39525E+04 5.30841E+02 6.40626E+04-5.72523E-09 1.67791E-09
 -1       667 1.71952E+05 2.42905E+04 2.80239E+02 6.46609E+04-9.66395E-10 7.46414E-10
 -1       668 1.72469E+05 2.38867E+04 2.81619E+02 6.41080E+04 1.46559E-09-3.83377E-09
 -1       669 1.71958E+05 2.42689E+04 3.78031E+02 6.46475E+04 4.18146E-09-7.14806E-10
 -1       670 1.72562E+05 2.40884E+04 8.20166E+02 6.41089E+04 7.63424E-09-1.19698E-08
 -1       671 1.71859E+05 2.40928E+04 1.45524E+03 6.46584E+04-1.36215E-09 3.52185E-09
 -1       672 1.73410E+05 2.55041E+04 3.72241E+03 6.39041E+04-6.88024E-09-1.61936E-09
 -1       673 1.71115E+05 2.28889E+04 6.23785E+03 6.48386E+04-1.70314E-09-5.16434E-09
 -1       674 1.79349E+05 3.55240E+04 1.78388E+04 6.21580E+04-6.14307E-10-1.28775E-08
 -1       675 1.65959E+05 1.43531E+04 2.64786E+04 6.62989E+04-5.71617E-10-1.18234E-10
 -1       676 2.00449E+01-2.40629E+05-9.30910E+02 2.75680E+01-5.96117E-10 2.43813E-09
 -1       677-2.47167E+02-2.40854E+05-1.70368E+03-5.51047E+01-3.25372E-09-7.29661E-09
 -1       678 1.65029E+02-2.40468E+05-3.01167E+03 2.75177E+01 6.81553E-10 8.07720E-10
 -1       679-3.01244E+03-2.42672E+05-7.15428E+03-5.49116E+01-6.12772E-11-1.68802E-08
 -1       680 1.79785E+03-2.38811E+05-1.15303E+04 2.70618E+01 1.70803E-09-6.08570E-09
 -1       771-2.56521E+06-4.90846E+05-7.15228E+04-1.10885E+06-1.48284E-08-1.17725E-08
 -1       772-2.53630E+06-5.35129E+05-3.78629E+04-1.15891E+06-9.31323E-09 5.37329E-09
 -1       773-2.57682E+06-4.81702E+05-1.72977E+04-1.11302E+06-2.15368E-09 4.64206E-09
 -1       774-2.52748E+06-5.27437E+05-8.16030E+03-1.16625E+06 1.43555E-08-8.83665E-09
 -1       775-2.58095E+06-4.78813E+05-4.79886E+03-1.11391E+06-1.96451E-09 1.86265E-09
 -1       776-2.52875E+06-5.27394E+05-2.02539E+03-1.17100E+06-1.12923E-08 4.77303E-09
 -1       777-2.58421E+06-4.76407E+05-1.68688E+03-1.11465E+06-1.93540E-09 3.31420E-09
 -1       778-2.53051E+06-5.27509E+05-5.87224E+02-1.17501E+06 1.20053E-09 5.17139E-09
 -1       779-2.58691E+06-4.74358E+05-7.66579E+02-1.11529E+06-6.11180E-09-3.11775E-09
 -1       780-2.53211E+06-5.27571E+05-2.76362E+02-1.17825E+06-4.20550E-09-6.34827E-10
 -1       781-2.58899E+06-4.72730E+05-5.21270E+02-1.11579E+06-1.17216E-08 2.37014E-09
 -1       782-2.53338E+06-5.27608E+05-5.17214E+02-1.18064E+06-1.27220E-08 1.08412E-09
 -1       783-2.59039E+06-4.71632E+05-1.06262E+03-1.11613E+06-2.91038E-09-7.50924E-09
 -1       784-2.53475E+06-5.28222E+05-2.32444E+03-1.18206E+06-1.14524E-08-1.87129E-10
 -1       785-2.59069E+06-4.71385E+05-4.33798E+03-1.11600E+06-1.72786E-08 2.43381E-09
 -1       786 1.58256E+05-9.44017E+03 2.18399E+04-7.39324E+01 1.67486E-09-1.17961E-09
 -1       787 1.67721E+05 1.09288E+04 1.54511E+04 1.80206E+01 2.49374E-09 1.41699E-09
 -1       788 1.61907E+05-1.47983E+03 5.65216E+03-5.60558E+01 1.57202E-09 8.17863E-09
 -1       789 1.63468E+05 1.71218E+03 3.55050E+03-1.13358E+01 3.09116E-10 6.84258E-09
 -1       790 1.62510E+05-2.31080E+02 1.44286E+03-4.45785E+01-9.97136E-11 1.68898E-08
 -1       791 1.62764E+05 2.67959E+02 8.43603E+02-3.21723E+01-4.73436E-10 1.77473E-08
 -1       792 1.62611E+05-3.66917E+01 3.78032E+02-3.52193E+01-3.69109E-11-9.38279E-09
 -1       793 1.62649E+05 4.81521E+01 2.33496E+02-5.14368E+01-6.33559E-10 1.72789E-09
 -1       794 1.62626E+05-1.14153E+01 1.51212E+02-2.53137E+01 1.01660E-09-3.53124E-09
 -1       795 1.62648E+05 5.06166E+01 1.87294E+02-7.44513E+01-6.77233E-10 9.74017E-10
 -1       796 1.62612E+05-3.91512E+01 2.61536E+02-1.22044E+01 1.21310E-10-4.40366E-10
 -1       797 1.62761E+05 2.85121E+02 6.00953E+02-1.07360E+02 6.61958E-10 9.05381E-10
 -1       798 1.62512E+05-2.45750E+02 9.43488E+02 7.59596E+00 1.51615E-10 3.13372E-09
 -1       799 1.63468E+05 1.81428E+03 2.56765E+03-1.59046E+02 4.53498E-10 1.64485E-09
 -1       800 1.61905E+05-1.56709E+03 3.62557E+03 3.94825E+01 1.13420E-11 9.13747E-09
 -1       801 5.10692E+04-1.86802E+06-1.68968E+05 3.41901E+04 1.49303E-08-3.05135E-09
 -1       802-5.68967E+04-1.70383E+06-6.57318E+04-6.17216E+04 4.09509E-08-2.02317E-09
 -1       803 5.16481E+03-1.78034E+06-9.78992E+03 8.71964E+04 3.16832E-08 2.94718E-08
 -1       804 5.21874E+04-1.65002E+06 7.79194E+04-4.18451E+04 3.39860E-08 3.46567E-08
 -1       805-5.87350E+04-1.92122E+06 7.70349E+04 1.43057E+04 1.27548E-08 1.94359E-08
 -1       806-2.29132E+05-4.60531E+04-1.80720E+04-9.23107E+04-2.07956E-09-4.33420E-09
 -1       807-2.30471E+05-4.31884E+04-8.87850E+03-9.67853E+04 3.66549E-09-2.36562E-09
 -1       808-2.29628E+05-3.95402E+04-3.76636E+03-9.53922E+04 2.36014E-10 6.80117E-09
 -1       809-2.28593E+05-4.07051E+04-1.84147E+03-9.70185E+04-1.54023E-09-3.67868E-09
 -1       810-2.29705E+05-3.93120E+04-8.43494E+02-9.55286E+04 9.58153E-10 1.55653E-08
 -1       811-2.28449E+05-4.06058E+04-4.18801E+02-9.69936E+04 9.79981E-11 1.03314E-08
 -1       812-2.29718E+05-3.93301E+04-2.10113E+02-9.55283E+04-3.91810E-09-8.06926E-09
 -1       813-2.28430E+05-4.06078E+04-1.34144E+02-9.69809E+04-4.05680E-09-6.90648E-10
 -1       814-2.29715E+05-3.93369E+04-1.28675E+02-9.55254E+04 1.55524E-09 4.29191E-09
 -1       815-2.28433E+05-4.06097E+04-2.03907E+02-9.69769E+04 6.58474E-10 4.36489E-09
 -1       816-2.29701E+05-3.93355E+04-3.83865E+02-9.55230E+04-1.44064E-09 2.78305E-10
 -1       817-2.28499E+05-4.06463E+04-8.23411E+02-9.69698E+04-4.31555E-10-4.73528E-09
 -1       818-2.29653E+05-3.94509E+04-1.67863E+03-9.54683E+04 2.35650E-09-7.40874E-09
 -1       819-2.29421E+05-4.16580E+04-3.95042E+03-9.67507E+04-1.93495E-09-6.78256E-10
 -1       820-2.29338E+05-4.24333E+04-8.04003E+03-9.41909E+04 2.51475E-09 1.45067E-08
 -1       821-2.88483E+05 1.59576E+04-3.69046E+04 2.43443E+02 1.11781E-09-3.10138E-09
 -1       822-3.04473E+05-1.84736E+04-2.61151E+04-9.24745E+02-1.42041E-09 1.78989E-09
 -1       823-2.94652E+05 2.50208E+03-9.55812E+03 2.46998E+02 1.71938E-10-1.71076E-09
 -1       824-2.97270E+05-2.89571E+03-6.01305E+03-7.60999E+02 6.88726E-10-1.97088E-09
 -1       825-2.95682E+05 3.91405E+02-2.47352E+03 7.96947E+01-1.25925E-09 3.54726E-09
 -1       826-2.96067E+05-4.61316E+02-1.48904E+03-3.29532E+02-3.75336E-09 1.16798E-08
 -1       827-2.95854E+05 6.90365E+01-7.76049E+02-1.84477E+02-3.27291E-09 6.73595E-12
 -1       828-2.95907E+05-1.40800E+02-6.81651E+02 1.81679E+02-4.99477E-09-1.93482E-09
 -1       829-2.95843E+05 7.11867E+01-7.89798E+02-4.31526E+02-2.31932E-10-2.96913E-09
 -1       830-2.96102E+05-4.76634E+02-1.53999E+03 5.51833E+02 1.75034E-09-3.16129E-09
 -1       831-2.95660E+05 4.05086E+02-2.55292E+03-5.54637E+02-2.79686E-09 1.49066E-09
 -1       832-2.97333E+05-2.99435E+03-6.22120E+03 6.21476E+02-1.39081E-09 3.06682E-09
 -1       833-2.94613E+05 2.58720E+03-9.88736E+03-5.01169E+02-1.23249E-09-2.94222E-09
 -1       834-3.04750E+05-1.91072E+04-2.70100E+04 3.61022E+02-7.79858E-10 1.58389E-09
 -1       835-2.88244E+05 1.65052E+04-3.81788E+04-2.94170E+02 5.76255E-09 7.99446E-09
 -1       836-9.70276E+02 2.71715E+05 1.64407E+04-1.99701E+04 8.53106E-10 3.25917E-09
 -1       837 3.60046E+03 2.76817E+05 1.40536E+04-4.01256E+04 1.34310E-09-2.76486E-10
 -1       838-3.63728E+02 2.73128E+05 1.45161E+04-1.98989E+04 1.32695E-09 9.92077E-09
 -1       839 9.30926E+03 2.81070E+05 2.76539E+04-4.01580E+04 1.56024E-09-1.35316E-10
 -1       840-2.81051E+03 2.67420E+05 4.41803E+04-1.99364E+04 1.15506E-09 6.64159E-10
 -1       856-8.00329E+04 7.44303E+03-1.96147E+04-4.30472E+02-1.78181E-09 2.67391E-10
 -1       857-8.81330E+04-8.73060E+03-1.35040E+04 4.57849E+03-1.75854E-09-6.93763E-09
 -1       858-8.32337E+04 1.04290E+03-5.09043E+03-4.51922E+02-2.80693E-09 5.60021E-10
 -1       859-8.44577E+04-1.21319E+03-3.07399E+03 4.61255E+03-7.81370E-10 7.16409E-09
 -1       860-8.37122E+04 1.45071E+02-1.29186E+03-4.64636E+02 9.53889E-10-2.49912E-09
 -1       861-8.39068E+04-1.60568E+02-7.18151E+02 4.62996E+03-5.88329E-09-2.08694E-09
 -1       862-8.37867E+04 1.91655E+01-3.13524E+02-4.69363E+02 3.27711E-09-1.45025E-09
 -1       863-8.38181E+04-1.11485E+01-1.48254E+02 4.63215E+03 8.66822E-09-1.34262E-08
 -1       864-8.38011E+04-1.04367E+00-3.28492E+01-4.66831E+02 5.04551E-09-6.10617E-09
 -1       865-8.37876E+04 3.01610E+01 6.61807E+01 4.61927E+03 2.75735E-09-7.24751E-09
 -1       866-8.38156E+04-2.25823E+01 1.72668E+02-4.56484E+02 6.37073E-10-2.57666E-09
 -1       867-8.36956E+04 1.88548E+02 4.50409E+02 4.59116E+03 3.01725E-09 7.32066E-09
 -1       868-8.38896E+04-1.57802E+02 7.54354E+02-4.38717E+02 2.81022E-09 2.93613E-09
 -1       869-8.31345E+04 1.31057E+03 2.01822E+03 4.54467E+03-2.40939E-09-3.76309E-09
 -1       870-8.43713E+04-1.11592E+03 2.92732E+03-4.09993E+02-9.10291E-10-1.55865E-09
 -1       871-4.29379E+03-9.73883E+03-1.40181E+04 9.25314E+04 1.68529E-09-2.96677E-09
 -1       872-1.84181E+03-1.28902E+04-5.73527E+03 1.19964E+05 2.23758E-09-6.93035E-10
 -1       873-1.81287E+01-1.14176E+04 7.62089E+02 9.23283E+04 1.50271E-09 8.22570E-09
 -1       874 2.15677E+03-9.41470E+03 7.82441E+03 1.20003E+05 2.40539E-09 1.06792E-08
 -1       875 5.05523E+03-1.32734E+04 1.73879E+04 9.24986E+04 9.72250E-10-1.45610E-09
 -1       876 2.26381E+05 3.88802E+04 1.20083E+04 9.17008E+04-2.57927E-09 4.25734E-09
 -1       877 2.27087E+05 4.14971E+04 6.41278E+03 9.52311E+04-3.98450E-09 9.93987E-09
 -1       878 2.27503E+05 3.75515E+04 2.68664E+03 9.26870E+04 2.02385E-09 2.21007E-09
 -1       879 2.25454E+05 3.98699E+04 1.33842E+03 9.53151E+04 1.01454E-09 2.19654E-09
 -1       880 2.27584E+05 3.75370E+04 6.23179E+02 9.27272E+04 2.99087E-09 1.53091E-09
 -1       881 2.25345E+05 3.98007E+04 3.32118E+02 9.52977E+04 8.64748E-09-3.78374E-09
 -1       882 2.27592E+05 3.75470E+04 2.11319E+02 9.27283E+04 6.57269E-09 1.93022E-09
 -1       883 2.25337E+05 3.97973E+04 2.25318E+02 9.52925E+04 3.10763E-09 1.67565E-08
 -1       884 2.27588E+05 3.75446E+04 3.56739E+02 9.27285E+04-4.36842E-10 3.75053E-09
 -1       885 2.25366E+05 3.98024E+04 7.16189E+02 9.53014E+04 6.06281E-09-1.06138E-09
 -1       886 2.27560E+05 3.75237E+04 1.44295E+03 9.27256E+04 2.83379E-09-7.84758E-09
 -1       887 2.25619E+05 3.99686E+04 3.15176E+03 9.53380E+04-3.80726E-09-4.01565E-09
 -1       888 2.27361E+05 3.75587E+04 6.35084E+03 9.26247E+04-2.73690E-09-7.13862E-09
 -1       889 2.29403E+05 4.38981E+04 1.51715E+04 9.52188E+04-2.45327E-09 6.25346E-09
 -1       890 2.24774E+05 4.06323E+04 2.84152E+04 9.02019E+04 2.77987E-09-4.24461E-09
 -1       891-1.35620E+02-1.28075E+05-1.52390E+03 2.38267E+04 3.02066E-10-1.09549E-09
 -1       892-2.37278E+02-1.28442E+05-1.65317E+03 3.60644E+04-3.18323E-10 6.47083E-09
 -1       893-3.48154E+01-1.28122E+05-2.35781E+03 2.38316E+04 3.30829E-10-3.47654E-09
 -1       894-1.28043E+03-1.29342E+05-4.89211E+03 3.59354E+04 7.05313E-10-3.34512E-09
 -1       895-1.00291E+03-1.27103E+05-8.61992E+03 2.39542E+04 1.49186E-09-5.11409E-09
 -1       956-2.85754E+05-4.06883E+03-1.02320E+04 1.92742E+04-4.02633E-09-1.37481E-09
 -1       957-2.87774E+05-1.37550E+03-5.25264E+03 2.32113E+04-2.64163E-09-1.24055E-09
 -1       958-2.86663E+05-1.12625E+02-2.36652E+03 1.91530E+04 7.14954E-09-2.64049E-09
 -1       959-2.86824E+05-2.22158E+01-1.20875E+03 2.33433E+04 2.89401E-09 4.56259E-09
 -1       960-2.86746E+05 3.15098E+01-5.89278E+02 1.91413E+04-2.38606E-09-4.10796E-09
 -1       961-2.86756E+05 2.93447E+01-3.12591E+02 2.33567E+04-4.30464E-09-5.94605E-09
 -1       962-2.86762E+05 2.78229E+01-1.78852E+02 1.91395E+04-1.13687E-11-5.08157E-09
 -1       963-2.86753E+05 3.09076E+01-1.43417E+02 2.33592E+04 1.60253E-09 3.59546E-09
 -1       964-2.86766E+05 2.99592E+01-1.73940E+02 1.91388E+04 3.60365E-09 5.54041E-09
 -1       965-2.86764E+05 3.39607E+01-3.00434E+02 2.33591E+04 4.88933E-09 1.10822E-08
 -1       966-2.86757E+05 3.78385E+01-5.63925E+02 1.91395E+04 1.94768E-09-3.12320E-09
 -1       967-2.86837E+05-1.08685E+01-1.15658E+03 2.33514E+04 1.70871E-10-1.47224E-09
 -1       968-2.86685E+05-9.58195E+01-2.26345E+03 1.91467E+04 3.58887E-09-1.31249E-08
 -1       969-2.87754E+05-1.30177E+03-5.02550E+03 2.32671E+04 1.13578E-08-1.85557E-09
 -1       970-2.85820E+05-3.87831E+03-9.78874E+03 1.92257E+04 5.44242E-09 7.10770E-09
 -1       971-2.69475E+05-1.40876E+03-7.81625E+03 1.29216E+04-2.16869E-09-1.85699E-09
 -1       972-2.71374E+05-1.01111E+03-4.25668E+03 1.80386E+04-3.76212E-09-7.86531E-09
 -1       973-2.70344E+05-1.15999E+01-1.90613E+03 1.28139E+04-2.09911E-09 2.22985E-09
 -1       974-2.70475E+05-1.20199E+01-9.87519E+02 1.81553E+04 1.47156E-09-2.20064E-09
 -1       975-2.70412E+05 2.52032E+01-4.92655E+02 1.28040E+04 8.33097E-10 2.24509E-09
 -1       976-2.70422E+05 2.91020E+01-2.82480E+02 1.81675E+04-3.92129E-09 8.77617E-09
 -1       977-2.70425E+05 2.51481E+01-2.01896E+02 1.28016E+04 3.08773E-10-6.38352E-10
 -1       978-2.70426E+05 3.37815E+01-2.32005E+02 1.81708E+04 1.00222E-08-9.07107E-10
 -1       979-2.70425E+05 3.14912E+01-3.69097E+02 1.28006E+04 3.84995E-09 3.13401E-09
 -1       980-2.70453E+05 3.60852E+01-7.10385E+02 1.81713E+04 2.65587E-09-1.97235E-09
 -1       981-2.70402E+05 4.91837E+01-1.37465E+03 1.28011E+04-4.04270E-10-1.30905E-09
 -1       982-2.70641E+05-6.54077E+01-2.84069E+03 1.81658E+04-2.73030E-09-3.38927E-09
 -1       983-2.70229E+05-3.87250E+01-5.51912E+03 1.28063E+04-1.24419E-08 9.47011E-10
 -1       984-2.73296E+05-2.94765E+03-1.23593E+04 1.80927E+04-2.70811E-08 6.69138E-09
 -1       985-2.67731E+05-4.07724E+03-2.26956E+04 1.28786E+04-1.12423E-08-1.66801E-09
 -3
    1PSTEP                        13           7           1          
  100CL  107 5.74219E-01         409                     0    7           1
 -4  DISP        4    1
 -5  D1          1    2    1    0
 -5  D2          1    2    2    0
 -5  D3          1    2    3    0
 -5  ALL         1    2    0    0    1ALL
 -1         1 5.32960E-04 0.00000E+00 0.00000E+00
 -1         2 4.92090E-04-1.20286E-29-1.32349E-23
 -1         3 2.15172E-04-2.13204E-27 0.00000E+00
 -1         5 1.29512E-04-3.53319E-27 0.00000E+00
 -1         8 5.10124E-04-7.45508E-07 0.00000E+00
 -1         9 4.92258E-04-1.89144E-06 0.00000E+00
 -1        10 1.96690E-04-2.81374E-06 0.00000E+00
 -1        12 1.29683E-04 6.38305E-07 1.65436E-24
 -1        15 4.82831E-04-8.26570E-07 0.00000E+00
 -1        16 4.89066E-04-2.33001E-06 0.00000E+00
 -1        17 1.38810E-04-6.08423E-06 0.00000E+00
 -1        18 1.28908E-04 1.10179E-05 0.00000E+00
 -1        19 1.30196E-04 1.27337E-06 0.00000E+00
 -1        20 1.30343E-04 8.44685E-06 0.00000E+00
 -1        21 1.29674E-04 1.36248E-05-3.30872E-24
 -1        24 2.47556E-05-8.58374E-06 0.00000E+00
 -1        25 1.31281E-04 1.11726E-05 0.00000E+00
 -1        26 1.32002E-04 1.76403E-06 0.00000E+00
 -1        27 1.30248E-04 5.54602E-06 0.00000E+00
 -1        28 1.29823E-04 1.30906E-05 0.00000E+00
 -1        32 0.00000E+00 0.00000E+00 0.00000E+00
 -1        33 1.32706E-04 2.36425E-06 0.00000E+00
 -1        34 1.30965E-04 5.51590E-06 0.00000E+00
 -1        35 1.29341E-04 1.28042E-05 0.00000E+00
 -1        51 5.31480E-04-1.27997E-07 0.00000E+00
 -1        52 5.28733E-04-2.47135E-07 0.00000E+00
 -1        53 5.24965E-04-3.66417E-07 0.00000E+00
 -1        54 5.20436E-04-4.87697E-07-3.30872E-24
 -1        55 5.15403E-04-6.12109E-07-2.89513E-24
 -1        56 5.30734E-04-7.27200E-07 0.00000E+00
 -1        57 5.28352E-04-1.28339E-06 0.00000E+00
 -1        58 5.25895E-04-1.62497E-06 5.29396E-23
 -1        59 5.23344E-04-1.75849E-06 0.00000E+00
 -1        60 5.20720E-04-1.70115E-06 5.29396E-23
 -1        61 5.18035E-04-1.48608E-06 0.00000E+00
 -1        62 5.15308E-04-1.16220E-06 0.00000E+00
 -1        63 5.12561E-04-7.85061E-07 2.64698E-23
 -1        64 5.09816E-04-4.15583E-07 5.29396E-23
 -1        65 5.07098E-04-1.14286E-07 0.00000E+00
 -1        66 5.04425E-04 6.54905E-08 0.00000E+00
 -1        67 5.01818E-04 7.75175E-08 0.00000E+00
 -1        68 4.99286E-04-1.07627E-07 5.29396E-23
 -1        69 4.96846E-04-5.04054E-07 0.00000E+00
 -1        70 4.94482E-04-1.11295E-06-5.29396E-23
 -1        86 4.92096E-04-3.11626E-07 0.00000E+00
 -1        87 4.92114E-04-6.23653E-07 6.61744E-24
 -1        88 4.92142E-04-9.35743E-07 0.00000E+00
 -1        89 4.92177E-04-1.25037E-06 0.00000E+00
 -1        90 4.92217E-04-1.56414E-06-1.32349E-23
 -1       121 2.14654E-04-4.62899E-07 0.00000E+00
 -1       122 2.13101E-04-9.26836E-07 6.61744E-24
 -1       123 2.10519E-04-1.39283E-06-1.32349E-23
 -1       124 2.06915E-04-1.86196E-06 0.00000E+00
 -1       125 2.02300E-04-2.33504E-06 0.00000E+00
 -1       191 1.29517E-04 1.06388E-07-3.30872E-24
 -1       192 1.29531E-04 2.12775E-07 0.00000E+00
 -1       193 1.29555E-04 3.19162E-07-3.30872E-24
 -1       194 1.29588E-04 4.25548E-07 1.65436E-24
 -1       195 1.29631E-04 5.31929E-07 0.00000E+00
 -1       251 5.09518E-04-5.40240E-06 0.00000E+00
 -1       252 5.08661E-04-2.83080E-05-6.61744E-24
 -1       253 5.07427E-04-6.48467E-05-1.32349E-23
 -1       254 5.05849E-04-1.10067E-04 6.61744E-24
 -1       255 5.04217E-04-1.56559E-04 0.00000E+00
 -1       256 5.02842E-04-1.96883E-04 0.00000E+00
 -1       257 5.01846E-04-2.25351E-04-1.32349E-23
 -1       258 5.01180E-04-2.36564E-04-6.61744E-24
 -1       259 5.00551E-04-2.29948E-04 1.32349E-23
 -1       260 4.99653E-04-2.05372E-04 0.00000E+00
 -1       261 4.98377E-04-1.67719E-04 0.00000E+00
 -1       262 4.96786E-04-1.22190E-04 0.00000E+00
 -1       263 4.95176E-04-7.62224E-05 0.00000E+00
 -1       264 4.93851E-04-3.72644E-05-6.61744E-24
 -1       265 4.92907E-04-1.07695E-05-5.29396E-23
 -1       266 5.05575E-04-7.69738E-07 0.00000E+00
 -1       267 5.01027E-04-7.81939E-07 8.27181E-25
 -1       268 4.96478E-04-7.94910E-07 8.27181E-25
 -1       269 4.91929E-04-8.05616E-07 0.00000E+00
 -1       270 4.87380E-04-8.16273E-07 0.00000E+00
 -1       271 5.07394E-04 3.02192E-06-2.64698E-23
 -1       272 5.04886E-04 6.08768E-06 0.00000E+00
 -1       273 5.02637E-04 8.47389E-06 0.00000E+00
 -1       274 5.00633E-04 1.01958E-05 0.00000E+00
 -1       275 4.98867E-04 1.12835E-05-2.64698E-23
 -1       276 4.97324E-04 1.17747E-05-1.32349E-23
 -1       277 4.95988E-04 1.17168E-05-2.64698E-23
 -1       278 4.94836E-04 1.11652E-05 1.32349E-23
 -1       279 4.93846E-04 1.01830E-05 0.00000E+00
 -1       280 4.92991E-04 8.84012E-06 0.00000E+00
 -1       281 4.92243E-04 7.21168E-06 0.00000E+00
 -1       282 4.91572E-04 5.37743E-06 1.32349E-23
 -1       283 4.90948E-04 3.42014E-06-2.64698E-23
 -1       284 4.90342E-04 1.42574E-06-1.32349E-23
 -1       285 4.89717E-04-5.22138E-07 0.00000E+00
 -1       301 4.91691E-04-1.98180E-06 0.00000E+00
 -1       302 4.90756E-04-2.04703E-06-3.30872E-24
 -1       303 4.89738E-04-2.11071E-06 0.00000E+00
 -1       304 4.88926E-04-2.17429E-06 1.32349E-23
 -1       305 4.88607E-04-2.23942E-06-1.32349E-23
 -1       306 5.06588E-04-5.28586E-05 0.00000E+00
 -1       307 5.47370E-04-2.00950E-04 0.00000E+00
 -1       308 6.02397E-04-4.21671E-04 0.00000E+00
 -1       309 6.63009E-04-6.83294E-04 2.64698E-23
 -1       310 7.23421E-04-9.43366E-04-5.29396E-23
 -1       311 7.77708E-04-1.15957E-03 2.64698E-23
 -1       312 8.16944E-04-1.30106E-03 1.05879E-22
 -1       313 8.28735E-04-1.34445E-03-2.64698E-23
 -1       314 8.02495E-04-1.28869E-03 1.05879E-22
 -1       315 7.31151E-04-1.14183E-03 2.64698E-23
 -1       316 6.21252E-04-9.29664E-04 0.00000E+00
 -1       317 4.86896E-04-6.81214E-04 0.00000E+00
 -1       318 3.51968E-04-4.31933E-04 5.29396E-23
 -1       319 2.40487E-04-2.17282E-04 2.64698E-23
 -1       320 1.67058E-04-6.65815E-05-5.29396E-23
 -1       336 1.89971E-04-3.33559E-06 0.00000E+00
 -1       337 1.82035E-04-3.86661E-06 0.00000E+00
 -1       338 1.72913E-04-4.40712E-06 1.32349E-23
 -1       339 1.62640E-04-4.95718E-06 6.61744E-24
 -1       340 1.51258E-04-5.51887E-06 1.32349E-23
 -1       406 1.29745E-04 7.44667E-07 0.00000E+00
 -1       407 1.29816E-04 8.50995E-07-1.65436E-24
 -1       408 1.29897E-04 9.57260E-07-3.30872E-24
 -1       409 1.29987E-04 1.06333E-06-1.65436E-24
 -1       410 1.30087E-04 1.16902E-06 0.00000E+00
 -1       521 5.05400E-04-6.23678E-05 0.00000E+00
 -1       522 5.50280E-04-2.33574E-04-5.29396E-23
 -1       523 6.09412E-04-4.88277E-04-1.05879E-22
 -1       524 6.73339E-04-7.89389E-04-5.29396E-23
 -1       525 7.37047E-04-1.08819E-03 0.00000E+00
 -1       526 7.95281E-04-1.33619E-03 0.00000E+00
 -1       527 8.38063E-04-1.49759E-03-1.05879E-22
 -1       528 8.50718E-04-1.54639E-03-5.29396E-23
 -1       529 8.19302E-04-1.48113E-03-1.05879E-22
 -1       530 7.34629E-04-1.31251E-03 0.00000E+00
 -1       531 6.03489E-04-1.06983E-03 1.05879E-22
 -1       532 4.42726E-04-7.86437E-04-5.29396E-23
 -1       533 2.81040E-04-5.01806E-04 0.00000E+00
 -1       534 1.47363E-04-2.55427E-04 0.00000E+00
 -1       535 5.93577E-05-8.10357E-05 1.05879E-22
 -1       536 1.38474E-04 1.37089E-05 6.61744E-24
 -1       537 1.37799E-04 4.70898E-05 3.30872E-24
 -1       538 1.36826E-04 8.89080E-05 0.00000E+00
 -1       539 1.35718E-04 1.33968E-04 0.00000E+00
 -1       540 1.34728E-04 1.76168E-04 3.30872E-24
 -1       541 1.34062E-04 2.09424E-04-1.65436E-24
 -1       542 1.33715E-04 2.30079E-04-3.30872E-24
 -1       543 1.33563E-04 2.34551E-04 0.00000E+00
 -1       544 1.33363E-04 2.23435E-04-3.30872E-24
 -1       545 1.32897E-04 1.97425E-04 1.65436E-24
 -1       546 1.32131E-04 1.61103E-04-3.30872E-24
 -1       547 1.31152E-04 1.19111E-04 1.65436E-24
 -1       548 1.30194E-04 7.76505E-05 0.00000E+00
 -1       549 1.29483E-04 4.29204E-05 0.00000E+00
 -1       550 1.29075E-04 1.92792E-05 0.00000E+00
 -1       551 1.23328E-04-6.44089E-06 0.00000E+00
 -1       552 1.05354E-04-6.83160E-06 3.30872E-24
 -1       553 8.56928E-05-7.25082E-06 3.30872E-24
 -1       554 6.51618E-05-7.68828E-06 0.00000E+00
 -1       555 4.45786E-05-8.12943E-06 2.64698E-23
 -1       556 1.34414E-04 5.24864E-06 0.00000E+00
 -1       557 1.30946E-04 1.42161E-05 0.00000E+00
 -1       558 1.28312E-04 2.10176E-05 0.00000E+00
 -1       559 1.26424E-04 2.58690E-05 0.00000E+00
 -1       560 1.25195E-04 2.89860E-05 0.00000E+00
 -1       561 1.24540E-04 3.05857E-05 0.00000E+00
 -1       562 1.24375E-04 3.08859E-05 0.00000E+00
 -1       563 1.24616E-04 3.01046E-05 0.00000E+00
 -1       564 1.25179E-04 2.84603E-05 1.32349E-23
 -1       565 1.25983E-04 2.61719E-05-3.30872E-24
 -1       566 1.26946E-04 2.34581E-05 0.00000E+00
 -1       567 1.27985E-04 2.05382E-05 0.00000E+00
 -1       568 1.29020E-04 1.76312E-05 0.00000E+00
 -1       569 1.29969E-04 1.49560E-05 0.00000E+00
 -1       570 1.30749E-04 1.27315E-05 0.00000E+00
 -1       571 1.28986E-04 1.03937E-05 8.27181E-25
 -1       572 1.29066E-04 9.72210E-06 4.13590E-25
 -1       573 1.29146E-04 9.01320E-06 1.65436E-24
 -1       574 1.29227E-04 8.27767E-06 1.65436E-24
 -1       575 1.29308E-04 7.52616E-06-1.65436E-24
 -1       576 1.29388E-04 6.76940E-06 1.65436E-24
 -1       577 1.29469E-04 6.01814E-06-3.30872E-24
 -1       578 1.29550E-04 5.28311E-06 0.00000E+00
 -1       579 1.29630E-04 4.57505E-06 0.00000E+00
 -1       580 1.29711E-04 3.90471E-06 1.65436E-24
 -1       581 1.29792E-04 3.28283E-06 0.00000E+00
 -1       582 1.29873E-04 2.72014E-06 0.00000E+00
 -1       583 1.29954E-04 2.22736E-06 0.00000E+00
 -1       584 1.30034E-04 1.81511E-06 0.00000E+00
 -1       585 1.30115E-04 1.49389E-06 0.00000E+00
 -1       586 1.29249E-04 1.10455E-05 0.00000E+00
 -1       587 1.29564E-04 1.10724E-05 2.06795E-25
 -1       588 1.29889E-04 1.10990E-05 0.00000E+00
 -1       589 1.30260E-04 1.11251E-05 0.00000E+00
 -1       590 1.30713E-04 1.11503E-05 0.00000E+00
 -1       591 1.29101E-04 1.04481E-05 5.16988E-26
 -1       592 1.29301E-04 9.85228E-06-4.13590E-25
 -1       593 1.29508E-04 9.23650E-06-4.13590E-25
 -1       594 1.29721E-04 8.60587E-06 4.13590E-25
 -1       595 1.29937E-04 7.96562E-06 0.00000E+00
 -1       596 1.30154E-04 7.32090E-06 0.00000E+00
 -1       597 1.30372E-04 6.67689E-06 4.13590E-25
 -1       598 1.30587E-04 6.03873E-06-2.06795E-25
 -1       599 1.30798E-04 5.41157E-06 4.13590E-25
 -1       600 1.31002E-04 4.80059E-06 2.06795E-25
 -1       601 1.31199E-04 4.21092E-06 0.00000E+00
 -1       602 1.31386E-04 3.64773E-06-2.06795E-25
 -1       603 1.31562E-04 3.11618E-06-4.13590E-25
 -1       604 1.31724E-04 2.62149E-06-5.16988E-26
 -1       605 1.31870E-04 2.16878E-06 0.00000E+00
 -1       606 1.30209E-04 1.23135E-06 0.00000E+00
 -1       607 1.30219E-04 1.28352E-06 0.00000E+00
 -1       608 1.30229E-04 1.42437E-06 0.00000E+00
 -1       609 1.30238E-04 1.64764E-06 0.00000E+00
 -1       610 1.30247E-04 1.94706E-06 0.00000E+00
 -1       611 1.30256E-04 2.31629E-06 0.00000E+00
 -1       612 1.30265E-04 2.74896E-06 0.00000E+00
 -1       613 1.30274E-04 3.23869E-06 0.00000E+00
 -1       614 1.30283E-04 3.77914E-06 0.00000E+00
 -1       615 1.30291E-04 4.36390E-06 0.00000E+00
 -1       616 1.30300E-04 4.98664E-06 0.00000E+00
 -1       617 1.30309E-04 5.64097E-06-4.13590E-25
 -1       618 1.30318E-04 6.32052E-06 0.00000E+00
 -1       619 1.30326E-04 7.01894E-06 0.00000E+00
 -1       620 1.30335E-04 7.72984E-06 0.00000E+00
 -1       621 1.30367E-04 1.35535E-06 3.30872E-24
 -1       622 1.30609E-04 1.43760E-06-8.27181E-25
 -1       623 1.30908E-04 1.51981E-06-1.65436E-24
 -1       624 1.31249E-04 1.60186E-06 0.00000E+00
 -1       625 1.31619E-04 1.68376E-06 0.00000E+00
 -1       626 1.30303E-04 1.26004E-06 3.30872E-24
 -1       627 1.30384E-04 1.32212E-06 1.65436E-24
 -1       628 1.30439E-04 1.45183E-06 0.00000E+00
 -1       629 1.30471E-04 1.64098E-06-1.65436E-24
 -1       630 1.30485E-04 1.88136E-06 0.00000E+00
 -1       631 1.30483E-04 2.16471E-06 0.00000E+00
 -1       632 1.30467E-04 2.48277E-06-3.30872E-24
 -1       633 1.30442E-04 2.82731E-06 0.00000E+00
 -1       634 1.30409E-04 3.19006E-06-3.30872E-24
 -1       635 1.30373E-04 3.56277E-06-1.65436E-24
 -1       636 1.30337E-04 3.93720E-06 3.30872E-24
 -1       637 1.30302E-04 4.30509E-06 0.00000E+00
 -1       638 1.30274E-04 4.65819E-06 0.00000E+00
 -1       639 1.30253E-04 4.98824E-06-8.27181E-25
 -1       640 1.30244E-04 5.28697E-06 0.00000E+00
 -1       656 1.29846E-04 7.97496E-06 0.00000E+00
 -1       657 1.29738E-04 7.48416E-06 0.00000E+00
 -1       658 1.29878E-04 6.99479E-06 1.32349E-23
 -1       659 1.30123E-04 6.50580E-06 0.00000E+00
 -1       660 1.30302E-04 6.01528E-06 0.00000E+00
 -1       661 1.30160E-04 9.13025E-06 0.00000E+00
 -1       662 1.30006E-04 9.74502E-06 0.00000E+00
 -1       663 1.29877E-04 1.02941E-05 0.00000E+00
 -1       664 1.29771E-04 1.07818E-05 0.00000E+00
 -1       665 1.29687E-04 1.12117E-05 0.00000E+00
 -1       666 1.29623E-04 1.15875E-05-8.27181E-25
 -1       667 1.29578E-04 1.19127E-05-1.65436E-24
 -1       668 1.29551E-04 1.21908E-05-8.27181E-25
 -1       669 1.29541E-04 1.24249E-05-1.65436E-24
 -1       670 1.29545E-04 1.26185E-05 0.00000E+00
 -1       671 1.29564E-04 1.27744E-05 0.00000E+00
 -1       672 1.29596E-04 1.28957E-05 0.00000E+00
 -1       673 1.29639E-04 1.29855E-05-1.65436E-24
 -1       674 1.29692E-04 1.30461E-05-8.27181E-25
 -1       675 1.29756E-04 1.30809E-05 4.13590E-25
 -1       676 1.29699E-04 1.35353E-05-3.30872E-24
 -1       677 1.29724E-04 1.34458E-05-1.65436E-24
 -1       678 1.29749E-04 1.33563E-05-3.30872E-24
 -1       679 1.29774E-04 1.32671E-05 0.00000E+00
 -1       680 1.29799E-04 1.31779E-05 1.65436E-24
 -1       771 1.72958E-05 7.44525E-06-5.29396E-23
 -1       772 1.09475E-05 2.05984E-05 0.00000E+00
 -1       773 5.65859E-06 3.10230E-05 0.00000E+00
 -1       774 1.35813E-06 3.88815E-05 0.00000E+00
 -1       775-2.02388E-06 4.43415E-05 0.00000E+00
 -1       776-4.56033E-06 4.75787E-05 0.00000E+00
 -1       777-6.32455E-06 4.87740E-05 5.29396E-23
 -1       778-7.39153E-06 4.81152E-05 0.00000E+00
 -1       779-7.83643E-06 4.57939E-05-5.29396E-23
 -1       780-7.73576E-06 4.20077E-05 0.00000E+00
 -1       781-7.16601E-06 3.69572E-05-5.29396E-23
 -1       782-6.20470E-06 3.08476E-05-2.64698E-23
 -1       783-4.92926E-06 2.38860E-05 0.00000E+00
 -1       784-3.41790E-06 1.62828E-05-2.64698E-23
 -1       785-1.74856E-06 8.24981E-06 2.64698E-23
 -1       786 1.31322E-04 1.03791E-05 1.03398E-25
 -1       787 1.31367E-04 9.63099E-06 4.13590E-25
 -1       788 1.31412E-04 8.92070E-06 0.00000E+00
 -1       789 1.31457E-04 8.24075E-06 0.00000E+00
 -1       790 1.31502E-04 7.58680E-06 0.00000E+00
 -1       791 1.31547E-04 6.95453E-06 0.00000E+00
 -1       792 1.31593E-04 6.34191E-06-1.65436E-24
 -1       793 1.31638E-04 5.74696E-06 0.00000E+00
 -1       794 1.31684E-04 5.16948E-06 1.65436E-24
 -1       795 1.31729E-04 4.60937E-06 8.27181E-25
 -1       796 1.31774E-04 4.06829E-06 0.00000E+00
 -1       797 1.31820E-04 3.54796E-06 0.00000E+00
 -1       798 1.31865E-04 3.05225E-06 1.65436E-24
 -1       799 1.31911E-04 2.58509E-06 8.27181E-25
 -1       800 1.31956E-04 2.15336E-06 0.00000E+00
 -1       801 1.13734E-04 9.69811E-06 0.00000E+00
 -1       802 5.97847E-05 6.93171E-06 1.32349E-23
 -1       803 6.12068E-06 4.17963E-06 0.00000E+00
 -1       804-1.05593E-05 2.66456E-06-1.32349E-23
 -1       805-6.69869E-06 1.34022E-06 2.64698E-23
 -1       806 1.31485E-04 1.03254E-05 0.00000E+00
 -1       807 1.31676E-04 9.50463E-06-8.27181E-25
 -1       808 1.31855E-04 8.71401E-06 3.30872E-24
 -1       809 1.32021E-04 7.95622E-06 1.65436E-24
 -1       810 1.32174E-04 7.23393E-06 1.65436E-24
 -1       811 1.32313E-04 6.54970E-06-8.27181E-25
 -1       812 1.32436E-04 5.90613E-06 1.65436E-24
 -1       813 1.32543E-04 5.30578E-06-8.27181E-25
 -1       814 1.32633E-04 4.75119E-06 1.65436E-24
 -1       815 1.32705E-04 4.24492E-06 1.65436E-24
 -1       816 1.32758E-04 3.78952E-06 3.30872E-24
 -1       817 1.32791E-04 3.38753E-06-1.65436E-24
 -1       818 1.32803E-04 3.04149E-06 1.65436E-24
 -1       819 1.32793E-04 2.75393E-06 8.27181E-25
 -1       820 1.32761E-04 2.52736E-06 0.00000E+00
 -1       821 1.31898E-04 1.33343E-06 0.00000E+00
 -1       822 1.31789E-04 7.79517E-07-8.27181E-25
 -1       823 1.31679E-04 1.95859E-07 0.00000E+00
 -1       824 1.31569E-04-3.23818E-07 0.00000E+00
 -1       825 1.31458E-04-7.00333E-07-3.30872E-24
 -1       826 1.31347E-04-8.55199E-07-1.65436E-24
 -1       827 1.31237E-04-7.60068E-07 0.00000E+00
 -1       828 1.31126E-04-3.87831E-07-1.65436E-24
 -1       829 1.31015E-04 2.25942E-07 0.00000E+00
 -1       830 1.30904E-04 1.04448E-06 0.00000E+00
 -1       831 1.30792E-04 1.98473E-06 0.00000E+00
 -1       832 1.30681E-04 2.96298E-06-1.65436E-24
 -1       833 1.30571E-04 3.88695E-06 3.30872E-24
 -1       834 1.30461E-04 4.66463E-06 8.27181E-25
 -1       835 1.30351E-04 5.23698E-06 0.00000E+00
 -1       836 1.32288E-04 1.86389E-06 0.00000E+00
 -1       837 1.32466E-04 1.96603E-06-1.65436E-24
 -1       838 1.32565E-04 2.06803E-06 3.30872E-24
 -1       839 1.32618E-04 2.16937E-06 0.00000E+00
 -1       840 1.32655E-04 2.27055E-06 4.13590E-25
 -1       856 1.30225E-04 5.78606E-06 0.00000E+00
 -1       857 1.30199E-04 6.14379E-06 0.00000E+00
 -1       858 1.30173E-04 6.60079E-06 0.00000E+00
 -1       859 1.30146E-04 7.13855E-06 0.00000E+00
 -1       860 1.30120E-04 7.73843E-06 8.27181E-25
 -1       861 1.30093E-04 8.38177E-06 4.13590E-25
 -1       862 1.30066E-04 9.04985E-06-8.27181E-25
 -1       863 1.30039E-04 9.72395E-06 0.00000E+00
 -1       864 1.30012E-04 1.03853E-05 8.27181E-25
 -1       865 1.29985E-04 1.10152E-05 0.00000E+00
 -1       866 1.29958E-04 1.15949E-05-8.27181E-25
 -1       867 1.29931E-04 1.21057E-05 0.00000E+00
 -1       868 1.29905E-04 1.25292E-05 0.00000E+00
 -1       869 1.29878E-04 1.28467E-05 0.00000E+00
 -1       870 1.29851E-04 1.30400E-05 8.27181E-25
 -1       871 1.30244E-04 5.54446E-06-4.13590E-25
 -1       872 1.30360E-04 5.54032E-06 0.00000E+00
 -1       873 1.30545E-04 5.53570E-06 0.00000E+00
 -1       874 1.30743E-04 5.53047E-06 1.55096E-25
 -1       875 1.30901E-04 5.52472E-06-6.20385E-25
 -1       876 1.30265E-04 5.79732E-06-3.30872E-24
 -1       877 1.30263E-04 6.10595E-06 0.00000E+00
 -1       878 1.30243E-04 6.46497E-06 0.00000E+00
 -1       879 1.30206E-04 6.86799E-06-1.65436E-24
 -1       880 1.30155E-04 7.30858E-06-3.30872E-24
 -1       881 1.30092E-04 7.78031E-06 0.00000E+00
 -1       882 1.30020E-04 8.27682E-06 0.00000E+00
 -1       883 1.29941E-04 8.79170E-06 1.65436E-24
 -1       884 1.29858E-04 9.31857E-06 3.30872E-24
 -1       885 1.29773E-04 9.85107E-06 0.00000E+00
 -1       886 1.29687E-04 1.03828E-05 3.30872E-24
 -1       887 1.29605E-04 1.09074E-05 0.00000E+00
 -1       888 1.29527E-04 1.14184E-05 0.00000E+00
 -1       889 1.29456E-04 1.19094E-05 0.00000E+00
 -1       890 1.29395E-04 1.23740E-05 1.65436E-24
 -1       891 1.29869E-04 1.30427E-05 1.65436E-24
 -1       892 1.29895E-04 1.29945E-05 4.13590E-25
 -1       893 1.29878E-04 1.29464E-05 8.27181E-25
 -1       894 1.29795E-04 1.28985E-05 8.27181E-25
 -1       895 1.29623E-04 1.28506E-05 0.00000E+00
 -1       956 1.32599E-04 2.33349E-06 0.00000E+00
 -1       957 1.32491E-04 2.37076E-06 0.00000E+00
 -1       958 1.32382E-04 2.46840E-06 3.30872E-24
 -1       959 1.32273E-04 2.61827E-06 1.65436E-24
 -1       960 1.32164E-04 2.81224E-06 3.30872E-24
 -1       961 1.32054E-04 3.04214E-06 0.00000E+00
 -1       962 1.31945E-04 3.29977E-06 0.00000E+00
 -1       963 1.31836E-04 3.57695E-06 0.00000E+00
 -1       964 1.31727E-04 3.86550E-06-3.30872E-24
 -1       965 1.31617E-04 4.15720E-06 1.65436E-24
 -1       966 1.31508E-04 4.44389E-06 3.30872E-24
 -1       967 1.31399E-04 4.71735E-06 0.00000E+00
 -1       968 1.31290E-04 4.96941E-06 3.30872E-24
 -1       969 1.31181E-04 5.19190E-06-1.65436E-24
 -1       970 1.31072E-04 5.37668E-06 0.00000E+00
 -1       971 1.30865E-04 5.66928E-06 1.65436E-24
 -1       972 1.30763E-04 5.90877E-06 0.00000E+00
 -1       973 1.30661E-04 6.22489E-06 1.65436E-24
 -1       974 1.30559E-04 6.60777E-06 0.00000E+00
 -1       975 1.30457E-04 7.04753E-06-3.30872E-24
 -1       976 1.30355E-04 7.53426E-06-1.65436E-24
 -1       977 1.30253E-04 8.05807E-06 0.00000E+00
 -1       978 1.30151E-04 8.60905E-06-1.65436E-24
 -1       979 1.30048E-04 9.17725E-06 0.00000E+00
 -1       980 1.29946E-04 9.75277E-06 0.00000E+00
 -1       981 1.29844E-04 1.03257E-05 3.30872E-24
 -1       982 1.29742E-04 1.08861E-05 0.00000E+00
 -1       983 1.29640E-04 1.14240E-05 0.00000E+00
 -1       984 1.29539E-04 1.19295E-05 1.65436E-24
 -1       985 1.29438E-04 1.23928E-05-1.65436E-24
 -3
    1PSTEP                        14           7           1          
  100CL  107 5.74219E-01         409                     0    7           1
 -4  STRESS      6    1
 -5  SXX         1    4    1    1
 -5  SYY         1    4    2    2
 -5  SZZ         1    4    3    3
 -5  SXY         1    4    1    2
 -5  SYZ         1    4    2    3
 -5  SZX         1    4    3    1
 -1         1-2.94128E+06-1.18347E+06-6.35008E+05-1.37275E+06 1.89175E-10 1.23400E-08
 -1         2 1.99790E+03-8.88688E+05 6.44982E+03 4.48586E+01-5.48539E-12 4.07522E-08
 -1         3-4.84036E+02-1.31965E+06 3.16811E+02-1.07911E+03-2.57810E-10-5.28962E-09
 -1         5-1.44093E+00 3.04406E+05 7.72261E+00-7.48617E-02-7.10070E-11-5.85624E-09
 -1         8-1.03630E+06-3.58180E+05-1.09703E+05-5.12881E+05 2.40107E-10-1.71603E-08
 -1         9-5.27398E+05-8.22118E+05-6.88766E+01-7.79361E+05 1.53377E-08 3.32366E-08
 -1        10-1.33730E+03-1.37490E+06-2.33403E+03-7.29911E+03-7.53334E-09-5.50074E-10
 -1        12 1.72866E+00 3.04422E+05 2.50008E+02-5.67253E-01-3.21343E-11-1.07303E-08
 -1        15 1.81525E+03 9.90101E+02 5.75752E+03 3.60344E+00 1.96167E-10 8.45539E-08
 -1        16 1.17020E+06-9.40760E+05 1.44890E+05-1.20796E+06 1.16415E-08-1.94026E-10
 -1        17-7.79663E+03 8.65245E+04 8.21362E+04 2.05036E+05 6.98492E-11 8.60309E-09
 -1        18 2.13828E+03-4.06445E+03-2.37058E+04-8.51895E+04 8.85495E-09 1.36652E-09
 -1        19 9.81404E+04 1.12708E+05-8.12259E+02 1.91885E+04 1.28603E-10-4.41432E-09
 -1        20-5.27112E+04-4.64282E+05-1.03234E+05 2.79845E+04 1.14323E-09 3.56279E-09
 -1        21-4.13127E+01-2.56389E+05-8.15853E+02 4.37281E+00-1.85614E-09-1.29129E-08
 -1        24-5.37628E+05 8.12644E+05 2.61472E+05 4.77392E+05-6.91313E-08-3.07239E-08
 -1        25-1.02703E+05-5.77853E+05-1.15859E+05-1.83279E+05-3.99405E-10 5.63668E-09
 -1        26-3.81790E+04 7.32291E+04-1.90226E+04-3.92299E+03 1.38971E-09-5.20810E-09
 -1        27-6.71334E+04-2.52479E+05-9.37253E+04 5.69761E+04 5.19170E-09-2.33437E-10
 -1        28 1.96578E+04-7.21850E+04 1.45632E+04 2.05292E+04 8.29004E-10 1.93521E-09
 -1        32-1.39709E+06-2.20961E+06-6.26689E+04-3.83718E+05-2.86491E-08-6.27224E-09
 -1        33-1.47963E+05 7.30979E+04 2.60778E+04-3.43264E+04 1.85499E-11 1.62800E-10
 -1        34-1.86215E+05-1.92018E+04 5.03248E+02 5.95029E+04 7.89261E-10-5.69359E-09
 -1        35-2.00594E+04-2.86694E+04-1.13230E+03 4.46597E+04 2.15092E-09 5.47516E-09
 -1        51 3.00873E+04-3.03829E+05 6.91038E+04-8.67112E+05-1.45519E-11 2.24536E-08
 -1        52 1.34101E+04-2.96020E+05 4.04227E+04-1.01118E+06 7.27596E-11 1.60653E-08
 -1        53 6.57664E+03-3.10772E+05 2.76489E+04-8.64030E+05 4.65661E-10-3.78350E-10
 -1        54 1.75192E+04-3.08497E+05 3.60372E+04-1.01437E+06-4.14730E-10 4.75484E-09
 -1        55 3.52239E+04-3.21087E+05 5.93628E+04-8.63553E+05 4.51109E-10-7.25049E-09
 -1        56-5.59814E+06-6.26504E+05-4.68326E+05-2.17042E+06 1.04774E-09-4.38595E-08
 -1        57-5.82664E+06-1.01170E+06-3.15994E+05-2.10656E+06 7.99082E-09 5.60613E-09
 -1        58-5.68729E+06-7.80366E+05-1.10090E+05-2.14662E+06-2.25555E-10 1.82699E-08
 -1        59-5.72478E+06-8.29681E+05-6.57256E+04-2.13311E+06-2.63753E-09-1.90994E-09
 -1        60-5.69856E+06-8.03560E+05-2.56592E+04-2.14542E+06-9.99080E-10-2.91448E-08
 -1        61-5.71243E+06-8.01779E+05-1.45592E+04-2.13362E+06-6.14443E-09-2.48710E-08
 -1        62-5.69935E+06-8.07604E+05-6.92139E+03-2.14627E+06-4.89877E-09-6.95400E-09
 -1        63-5.71146E+06-7.97680E+05-5.60934E+03-2.13289E+06-1.01584E-08-6.43679E-09
 -1        64-5.69949E+06-8.07581E+05-6.21991E+03-2.14616E+06-6.55962E-09-2.15599E-08
 -1        65-5.71170E+06-8.01460E+05-1.24739E+04-2.13405E+06-6.50925E-09-6.25241E-08
 -1        66-5.69914E+06-8.03888E+05-2.17332E+04-2.14510E+06-1.13387E-08 1.85519E-08
 -1        67-5.72144E+06-8.25646E+05-5.54857E+04-2.13437E+06-1.41881E-10-5.33619E-08
 -1        68-5.69001E+06-7.83957E+05-9.28977E+04-2.14570E+06-2.56114E-09-2.17115E-08
 -1        69-5.80665E+06-9.79899E+05-2.66576E+05-2.11280E+06-2.33558E-09-1.29767E-08
 -1        70-5.61518E+06-6.53838E+05-3.95206E+05-2.16539E+06-2.91038E-11-3.88391E-08
 -1        86-9.96476E+02-8.90414E+05 6.98544E+03-2.24299E+01-5.43423E-11 2.05562E-09
 -1        87 6.63881E+03-8.86443E+05 1.44783E+04 8.21529E+01-8.27640E-11-1.10360E-09
 -1        88-5.62270E+03-8.92652E+05 2.22769E+04-5.97265E+01 4.18368E-11-1.93450E-09
 -1        89 4.19309E+04-8.70066E+05 5.99583E+04 1.36319E+02-1.09139E-11-1.19021E-09
 -1        90-3.61690E+04-9.06751E+05 8.48496E+04-7.66009E+01 6.91216E-11 2.43573E-08
 -1       121-6.85961E+02-1.32138E+06 3.42679E+01 5.37694E+02 9.00897E-10-7.14135E-09
 -1       122-3.65728E+02-1.31962E+06 6.58683E+02-2.15582E+03-3.02064E-09-6.40830E-09
 -1       123-7.41056E+02-1.32146E+06 7.84422E+02 1.60705E+03 2.33513E-09 2.81943E-09
 -1       124 9.12705E+02-1.31898E+06 2.68503E+03-4.56389E+03-5.85260E-09 1.69821E-08
 -1       125-1.50393E+03-1.32218E+06 3.80928E+03 2.93801E+03 3.79987E-09-5.46788E-09
 -1       191-1.77105E+00 3.04433E+05 9.44031E+00 3.75310E-02-4.49478E-11-7.32985E-09
 -1       192-2.14843E+00 3.04406E+05 1.63403E+01-3.04807E-01-5.09650E-11-5.79848E-09
 -1       193-3.65302E+00 3.04432E+05 3.05918E+01 2.68089E-01-1.02602E-10 7.29210E-09
 -1       194-4.42558E+00 3.04409E+05 6.17792E+01-7.17032E-01-6.70539E-11 2.40725E-08
 -1       195-7.26979E+00 3.04430E+05 1.21046E+02 4.51770E-01-1.66544E-10 5.49562E-09
 -1       251-1.83493E+06 9.30681E+03-1.11122E+05 5.11879E+04-9.07676E-10 2.41198E-09
 -1       252-1.52043E+06-1.19658E+04-1.19923E+04-2.00139E+05-1.18098E-09-5.80949E-08
 -1       253-1.71463E+06-1.87183E+03-2.57359E+04 1.49011E+05 9.82163E-09 3.75712E-09
 -1       254-1.67410E+06 1.42730E+04-4.34436E+03-3.05834E+05 8.07984E-09 1.31810E-08
 -1       255-1.69740E+06-3.63778E+03-6.96328E+03 1.57574E+05-1.09121E-08 7.46086E-08
 -1       256-1.54835E+06 1.47862E+04 2.73416E+04-2.31380E+05-7.25231E-09 3.90547E-08
 -1       257-1.82818E+06-1.23508E+04-3.16066E+04 7.39695E+04-6.37920E-09 7.14658E-09
 -1       258-1.38936E+06 1.15968E+04 5.87813E+04-1.48406E+04 1.41627E-08-1.40742E-08
 -1       259-1.84076E+06-1.32059E+04-3.32244E+04-5.86822E+04 2.07638E-08-2.60405E-08
 -1       260-1.52049E+06 1.50697E+04 3.55131E+04 2.11386E+05 1.89648E-08-4.13829E-08
 -1       261-1.70999E+06-5.25174E+03-3.88484E+03-1.51764E+05-1.55683E-08-5.77623E-08
 -1       262-1.67188E+06 2.09177E+04 9.61361E+03 3.06735E+05 2.77020E-08-4.66443E-08
 -1       263-1.70438E+06-6.78058E+03-1.06878E+02-1.54696E+05-8.13407E-09-6.14341E-09
 -1       264-1.52713E+06 3.22004E+04 4.50982E+04 2.22179E+05-6.88506E-08 3.71529E-09
 -1       265-1.84110E+06-2.76248E+04-2.05998E+04-6.65779E+04-2.20680E-08 4.36621E-08
 -1       266-3.24176E+04-1.50790E+04 7.54836E+04-7.57174E+01 1.41881E-10-2.25208E-08
 -1       267 3.75624E+04 1.75921E+04 5.34385E+04 8.72105E+01 1.15506E-10 3.18801E-08
 -1       268-5.07483E+03-2.50404E+03 1.98242E+04-1.12266E+01 1.53705E-10-1.38697E-08
 -1       269 5.99111E+03 2.99957E+03 1.29179E+04 1.30640E+01 5.45697E-11 5.35484E-08
 -1       270-9.06367E+02-4.95039E+02 6.22020E+03-1.79627E+00-6.13909E-12-9.87813E-09
 -1       271-2.92725E+06-3.63584E+05-2.19403E+05-1.13590E+06-5.19503E-09 3.18687E-08
 -1       272-3.02080E+06-5.09615E+05-1.41179E+05-1.11780E+06 1.23487E-09 6.33590E-08
 -1       273-2.96872E+06-4.18256E+05-5.18183E+04-1.12590E+06 6.81098E-10 2.72958E-08
 -1       274-2.97153E+06-4.43200E+05-2.90208E+04-1.13331E+06-4.83351E-09-2.65109E-08
 -1       275-2.97543E+06-4.22971E+05-1.20804E+04-1.12303E+06 3.24508E-09-2.60688E-08
 -1       276-2.96261E+06-4.38548E+05-6.37679E+03-1.13841E+06-2.20462E-09 3.51210E-08
 -1       277-2.97765E+06-4.22099E+05-3.14689E+03-1.12116E+06-3.53612E-09-4.08404E-08
 -1       278-2.95928E+06-4.40498E+05-2.18701E+03-1.14186E+06 5.82486E-09-4.79140E-08
 -1       279-2.97894E+06-4.20841E+05-2.31037E+03-1.11974E+06-3.64662E-09-4.97990E-08
 -1       280-2.95771E+06-4.42999E+05-4.11612E+03-1.14429E+06 1.32477E-08-9.62037E-09
 -1       281-2.97940E+06-4.19522E+05-7.46879E+03-1.11884E+06-8.36371E-09 1.72427E-08
 -1       282-2.96008E+06-4.49108E+05-1.78881E+04-1.14505E+06-3.01156E-09 3.35992E-08
 -1       283-2.97678E+06-4.15097E+05-3.17896E+04-1.11891E+06-1.85901E-09 1.59162E-08
 -1       284-2.98775E+06-4.92562E+05-8.67465E+04-1.13861E+06-4.65661E-10 2.57969E-08
 -1       285-2.95248E+06-3.80360E+05-1.34741E+05-1.12375E+06 6.74845E-10 2.82525E-08
 -1       301 2.31871E+04-1.82029E+05 1.72476E+05-3.46475E+05 1.67347E-10 1.74496E-08
 -1       302 2.46376E+04-1.38745E+05 1.10418E+05-5.07311E+05-6.18456E-11 3.92743E-08
 -1       303 1.04254E+03-1.64910E+05 7.95358E+04-3.45819E+05-2.87400E-10 3.53557E-08
 -1       304 2.37324E+04-1.37372E+05 1.09862E+05-5.06823E+05 1.16415E-10 5.84896E-08
 -1       305 2.15912E+04-1.79969E+05 1.71017E+05-3.47030E+05-4.07454E-10-4.28154E-08
 -1       306-9.95283E+06-1.29557E+06-1.64829E+06-2.03689E+06-3.36149E-08-1.92667E-08
 -1       307 1.78629E+05-1.88273E+06 6.17690E+05-4.78541E+06-3.03029E-07-5.44969E-09
 -1       308-7.60172E+06 2.26205E+05-2.12815E+05-2.61772E+04-3.95376E-08 9.92150E-08
 -1       309-3.74037E+06-2.09373E+06 1.73332E+05-7.44145E+06 1.19354E-07 6.58765E-08
 -1       310-7.68492E+06 1.97694E+05-1.47972E+05-6.85966E+04 2.67028E-08 1.60999E-08
 -1       311 3.84039E+05-1.88887E+06 8.91647E+05-4.58403E+06 1.61992E-07-7.66504E-08
 -1       312-9.97912E+06-1.33358E+06-1.13307E+06-2.14188E+06 1.05880E-07-2.22281E-08
 -1       313 2.16785E+06 5.17316E+05 1.55408E+06 7.64741E+05 2.65427E-08 6.55637E-08
 -1       314-8.22806E+06-3.06807E+06-1.12935E+06-4.07235E+06 2.46830E-07-6.23259E-08
 -1       315-5.24385E+06 3.69569E+06 8.82785E+05 1.61380E+06-9.01055E-08-7.39747E-08
 -1       316-4.21802E+06-3.24652E+06-1.46811E+05-3.90730E+06-3.29237E-07-2.35974E-07
 -1       317-1.04088E+07 4.56481E+06 1.61391E+05-1.39398E+04 3.02682E-07-1.86927E-07
 -1       318-4.15131E+06-3.23718E+06-2.37772E+05-3.89307E+06-3.38594E-07-1.00845E-08
 -1       319-5.46263E+06 3.74201E+06 5.67665E+05 1.56117E+06-6.33518E-08 2.51166E-08
 -1       320-8.12455E+06-3.09070E+06-1.73688E+06-4.08406E+06 7.34581E-08-2.69210E-10
 -1       336 4.70445E+02-1.43045E+06-9.08263E+03 4.32957E+03-1.53232E-08 7.39965E-09
 -1       337-3.42085E+03-1.43171E+06-1.08675E+04-1.05395E+04-2.85604E-08 4.95493E-09
 -1       338 5.48404E+02-1.43043E+06-1.54195E+04 6.15707E+03-2.00935E-08-7.62157E-09
 -1       339-1.62392E+04-1.44012E+06-3.44198E+04-1.41060E+04-3.65962E-08 2.92130E-08
 -1       340 1.08433E+04-1.42268E+06-5.37033E+04 7.85412E+03-2.43890E-08 1.63527E-08
 -1       406 2.10279E+01 3.04419E+05 4.93784E+02 1.19613E-01-1.77977E-10-8.74729E-09
 -1       407 1.73791E+02 3.04508E+05 1.04899E+03 2.53669E+00-3.86535E-11-2.98587E-09
 -1       408 5.41847E+02 3.04344E+05 2.09529E+03-2.72513E+00-2.88139E-10-1.83945E-09
 -1       409 2.26680E+03 3.05178E+05 4.71657E+03 2.72293E+01-8.77662E-11 8.33938E-09
 -1       410 6.50980E+03 3.03748E+05 9.62883E+03-2.57403E+01-4.14047E-10 4.77087E-09
 -1       521-1.21713E+07-1.76270E+06-2.23648E+06-2.28169E+06-4.93019E-08 1.22818E-08
 -1       522 6.54784E+05-2.20498E+06 7.61979E+05-6.29500E+06-2.46684E-07-4.75120E-08
 -1       523-9.18253E+06 2.39589E+05-2.71905E+05 2.05291E+05-9.70613E-09-1.09336E-07
 -1       524-4.88756E+06-2.07259E+06 2.42169E+05-9.71656E+06 3.20741E-07-3.40697E-07
 -1       525-9.31901E+06 1.87737E+05-1.98653E+05 1.39781E+05 2.40543E-07-2.19299E-07
 -1       526 1.04225E+06-2.22744E+06 1.14049E+06-5.95348E+06 1.90630E-07 2.08456E-09
 -1       527-1.22197E+07-1.84136E+06-1.55935E+06-2.44977E+06 1.48080E-07 1.01572E-08
 -1       528 3.62571E+06 7.20105E+05 1.95918E+06 1.35554E+06-3.92029E-08 2.62444E-08
 -1       529-9.94332E+06-4.08886E+06-1.55063E+06-4.92890E+06 2.07219E-08-5.44242E-08
 -1       530-6.44830E+06 5.19290E+06 1.13156E+06 2.19392E+06-2.71611E-07 1.81899E-07
 -1       531-4.87024E+06-4.22777E+06-1.86605E+05-4.73799E+06-3.33413E-07 2.27446E-08
 -1       532-1.32885E+07 6.33139E+06 2.48613E+05-4.36676E+05 2.17504E-07-2.15945E-07
 -1       533-4.76451E+06-4.21487E+06-2.69720E+05-4.71311E+06 3.22907E-08-4.05416E-07
 -1       534-6.79125E+06 5.34636E+06 8.04734E+05 2.07012E+06-7.33417E-08 3.12662E-07
 -1       535-9.80669E+06-4.18763E+06-2.19755E+06-4.94073E+06 4.94765E-09 1.88982E-07
 -1       536-4.74043E+05-2.91291E+04 2.31662E+04-2.47756E+04-4.39582E-09 3.99705E-08
 -1       537-2.75132E+05 3.08997E+04 4.94582E+04 6.09372E+04-6.75561E-08 6.28697E-08
 -1       538-3.78028E+05-1.28080E+03 1.08575E+04-3.75347E+04 9.73000E-09 6.07051E-08
 -1       539-3.39673E+05 3.32430E+03 1.32684E+04 6.97367E+04 8.99083E-08 5.76574E-08
 -1       540-4.10921E+05-4.19449E+02-4.26239E+03-3.36501E+04-4.13911E-09 6.33788E-08
 -1       541-2.13428E+05 5.48298E+03 3.37238E+04 4.40589E+04-2.93520E-08 6.71396E-08
 -1       542-5.00889E+05-6.21037E+03-2.49967E+04-1.17210E+04 2.91952E-08 4.12305E-08
 -1       543-1.41410E+05 8.15043E+03 4.68879E+04-8.36277E+03 1.77891E-08-5.92649E-10
 -1       544-4.81029E+05-4.64556E+03-2.19877E+04 1.86573E+04 3.52816E-09-1.77890E-08
 -1       545-2.58510E+05 2.06815E+03 2.14890E+04-5.56640E+04-1.49903E-08-4.25649E-08
 -1       546-3.86884E+05 2.39640E+03-4.93941E+03 3.55367E+04 1.12240E-08-3.58206E-08
 -1       547-3.49290E+05-4.01941E+03-1.97123E+03-7.17071E+04-5.60989E-08-5.53382E-08
 -1       548-3.92628E+05 3.38664E+03-1.48929E+04 3.48073E+04-6.00076E-08-4.95047E-08
 -1       549-2.50595E+05-9.86352E+03-2.12897E+03-5.23820E+04-3.67127E-08-4.33015E-08
 -1       550-4.82830E+05 5.98271E+03-6.80288E+04 1.60941E+04 4.24143E-09-1.86701E-08
 -1       551 2.46676E+04-6.71207E+05 2.06637E+04-1.06810E+06-6.41230E-08 8.44011E-10
 -1       552 5.48158E+04-6.90341E+05 3.03566E+04-1.52211E+06-4.79340E-08 4.71482E-09
 -1       553 3.99068E+04-6.94753E+05 4.56729E+04-1.06367E+06-7.66813E-08 1.81244E-08
 -1       554 8.44181E+04-6.91474E+05 9.69230E+04-1.52380E+06-4.75120E-08 1.06056E-08
 -1       555 6.89557E+04-7.14720E+05 1.72156E+05-1.06438E+06-7.60483E-08-7.31234E-09
 -1       556 1.36248E+05-2.46738E+05 6.30297E+04-2.96916E+05-7.01402E-09 5.82077E-10
 -1       557 2.31439E+05-3.23358E+05 3.38600E+04-3.76213E+05 9.89530E-09-4.50018E-09
 -1       558 1.30817E+05-2.52122E+05 1.25247E+04-2.91912E+05-3.55067E-09-6.96673E-09
 -1       559 2.15010E+05-3.30678E+05 6.72012E+03-3.85774E+05 1.12923E-08 2.25918E-09
 -1       560 1.24448E+05-2.48051E+05 2.10299E+03-2.96279E+05 3.78350E-09-3.38696E-09
 -1       561 2.06444E+05-3.27664E+05 1.38330E+03-3.91386E+05 1.44064E-09-4.91127E-11
 -1       562 1.19438E+05-2.44855E+05 1.81004E+02-2.99874E+05 1.32422E-09-8.61655E-09
 -1       563 2.00562E+05-3.25105E+05 3.37951E+02-3.95177E+05 2.09184E-09-5.73482E-09
 -1       564 1.16075E+05-2.42735E+05 4.70334E+00-3.02248E+05 6.44650E-09 6.64022E-09
 -1       565 1.97039E+05-3.23575E+05 1.30516E+02-3.97412E+05 2.70666E-09 4.36921E-09
 -1       566 1.14423E+05-2.41680E+05-6.64373E-01-3.03409E+05-2.72485E-09-1.15906E-08
 -1       567 1.95846E+05-3.23043E+05-8.41736E+01-3.98073E+05 1.41972E-08-4.56930E-09
 -1       568 1.14534E+05-2.41763E+05-4.22762E+02-3.03424E+05 1.01318E-09 1.06811E-08
 -1       569 1.96036E+05-3.22972E+05-1.05300E+03-3.96309E+05-7.37236E-09 3.63070E-09
 -1       570 1.17177E+05-2.43967E+05-2.47721E+03-3.02935E+05 9.22591E-09 1.50958E-08
 -1       571 2.30825E+05 8.48760E+03 1.24561E+04-6.17174E+04 3.42880E-10 6.17547E-10
 -1       572 2.32666E+05 3.01562E+03 6.10312E+03-6.76981E+04-1.19189E-09-9.01832E-09
 -1       573 2.31563E+05 7.81635E+02 2.71153E+03-6.15832E+04 2.99860E-09 8.31051E-09
 -1       574 2.31773E+05 3.20937E+02 1.35894E+03-6.78549E+04 4.28076E-09 9.35643E-09
 -1       575 2.31646E+05 1.15985E+02 6.40988E+02-6.15653E+04 2.48895E-09 6.88260E-09
 -1       576 2.31656E+05 1.00907E+02 3.27273E+02-6.78758E+04-1.59230E-09 8.39555E-09
 -1       577 2.31666E+05 7.58995E+01 1.62788E+02-6.15629E+04 7.84439E-09 4.43151E-09
 -1       578 2.31656E+05 8.33734E+01 9.21895E+01-6.78784E+04 1.63618E-08 5.82668E-09
 -1       579 2.31693E+05 6.50187E+01 6.19722E+01-6.15628E+04 1.13350E-08 2.82535E-09
 -1       580 2.31693E+05 6.64062E+01 6.79581E+01-6.78749E+04-3.95812E-09-2.43199E-09
 -1       581 2.31737E+05 4.63499E+01 1.02114E+02-6.15665E+04 1.00044E-09 7.25322E-09
 -1       582 2.31769E+05 6.74448E+01 2.03421E+02-6.78357E+04 1.92813E-10 7.32643E-09
 -1       583 2.31786E+05 1.08223E+02 3.93817E+02-6.16020E+04-8.21274E-09 4.15503E-09
 -1       584 2.31976E+05 4.22424E+02 8.86507E+02-6.75376E+04-1.81244E-08-6.46162E-09
 -1       585 2.31747E+05 1.19755E+03 1.80078E+03-6.18649E+04-1.01882E-08-1.24237E-08
 -1       586-2.92506E+03 7.70189E+04-3.44784E+03-2.06252E+05-1.83627E-09-2.80579E-10
 -1       587-7.61833E+02 7.66079E+04-3.15194E+01-2.27027E+05-2.57751E-09 2.98678E-09
 -1       588 7.17376E+02 7.66332E+04 3.31569E+03-2.06157E+05-2.60843E-09 1.56915E-08
 -1       589 4.34196E+03 7.84279E+04 9.16925E+03-2.26786E+05-3.05954E-09-9.96170E-09
 -1       590 1.29970E+04 7.56181E+04 1.94573E+04-2.06512E+05-2.52840E-09 1.94632E-10
 -1       591-4.76602E+04-1.20769E+04-1.62577E+04-2.25739E+04 1.84866E-09-9.06857E-09
 -1       592-4.99705E+04-1.52839E+04-8.80617E+03-2.59180E+04 8.51779E-09-9.54606E-09
 -1       593-4.92921E+04-1.08910E+04-3.66581E+03-2.37600E+04 4.64462E-09 3.93425E-09
 -1       594-4.77171E+04-1.29078E+04-1.82832E+03-2.60145E+04-2.66564E-09 1.36290E-08
 -1       595-4.94168E+04-1.08865E+04-8.39809E+02-2.38141E+04-9.32346E-10 1.44759E-08
 -1       596-4.75634E+04-1.27991E+04-4.27509E+02-2.59971E+04 4.86150E-09 1.65886E-09
 -1       597-4.94325E+04-1.08974E+04-2.34022E+02-2.38162E+04 1.88800E-09-2.09189E-09
 -1       598-4.75484E+04-1.27949E+04-1.90386E+02-2.59922E+04 1.01574E-09 9.09722E-10
 -1       599-4.94313E+04-1.08976E+04-2.46013E+02-2.38158E+04 8.74138E-10-7.68500E-09
 -1       600-4.75642E+04-1.28001E+04-4.59261E+02-2.59960E+04 1.59457E-09-1.13506E-08
 -1       601-4.94123E+04-1.08867E+04-9.07185E+02-2.38128E+04 1.41085E-09-9.20954E-09
 -1       602-4.77300E+04-1.29172E+04-1.97772E+03-2.60121E+04-1.44757E-09-1.22291E-08
 -1       603-4.92754E+04-1.08937E+04-3.96647E+03-2.37547E+04 1.98247E-09-6.04336E-09
 -1       604-5.01805E+04-1.54745E+04-9.52817E+03-2.58901E+04 8.99138E-09 3.00156E-09
 -1       605-4.74948E+04-1.21894E+04-1.75907E+04-2.24849E+04 7.23554E-09 2.15887E-08
 -1       606 2.74390E+04-1.10799E+04-1.99113E+04 2.63365E+04-7.27596E-12-7.52152E-10
 -1       607 2.40321E+04-3.59332E+03-9.91501E+03 2.95716E+04-1.10867E-09-5.52609E-09
 -1       608 2.59664E+04-6.24465E+02-4.43975E+03 2.61318E+04-5.60249E-10 7.45626E-09
 -1       609 2.55859E+04-1.84016E+02-2.24246E+03 2.98038E+04 1.14233E-09 8.79800E-09
 -1       610 2.57907E+04 4.35713E+00-1.07080E+03 2.61086E+04-2.25555E-09-7.46695E-10
 -1       611 2.57226E+04 1.42585E+01-5.39860E+02 2.98291E+04-6.59929E-09 1.34605E-10
 -1       612 2.57454E+04 2.04271E+01-2.57600E+02 2.61063E+04-1.38434E-08 4.17822E-09
 -1       613 2.57226E+04 2.24775E+01-1.16216E+02 2.98321E+04-2.16896E-08-7.79960E-09
 -1       614 2.57213E+04 1.98946E+01-2.96516E+01 2.61055E+04-7.76072E-09 8.47103E-09
 -1       615 2.57113E+04 2.75685E+01 4.32772E+01 2.98326E+04 4.49427E-09 6.63931E-09
 -1       616 2.57028E+04 2.55590E+01 1.34709E+02 2.61058E+04 2.62708E-09 2.87127E-09
 -1       617 2.57222E+04 5.95064E+01 3.09489E+02 2.98320E+04 1.13323E-09 1.95996E-10
 -1       618 2.56720E+04 1.17259E+02 6.24486E+02 2.61060E+04-1.98725E-10-1.10958E-08
 -1       619 2.59395E+04 5.44388E+02 1.40287E+03 2.98312E+04 3.80169E-10 3.47654E-10
 -1       620 2.54625E+04 1.59990E+03 2.81980E+03 2.61052E+04 9.62018E-10-1.16270E-08
 -1       621 2.77910E+02 2.35612E+05 2.53293E+03 1.76487E+04-3.77440E-11-1.05124E-08
 -1       622 3.44967E+02 2.36227E+05 2.36520E+03 2.56760E+04 2.67846E-10-7.23117E-09
 -1       623 2.77079E+01 2.35751E+05 2.99891E+03 1.75645E+04 2.33968E-10 2.49520E-09
 -1       624 1.45275E+03 2.37223E+05 5.93905E+03 2.57618E+04 3.32051E-10 7.30665E-10
 -1       625 1.45704E+03 2.34579E+05 1.04394E+04 1.75619E+04 3.27418E-10-1.53788E-08
 -1       626 2.08321E+05 5.42024E+04 4.53673E+03 1.07660E+05 1.92676E-09 4.88581E-09
 -1       627 2.05950E+05 5.57579E+04 2.18620E+03 1.11795E+05 2.25100E-09-2.67562E-09
 -1       628 2.08454E+05 5.20997E+04 9.23823E+02 1.08396E+05 1.30331E-09-1.97133E-09
 -1       629 2.05348E+05 5.51907E+04 4.52279E+02 1.12040E+05-2.91038E-11-1.37533E-10
 -1       630 2.08464E+05 5.20001E+04 2.09008E+02 1.08422E+05 8.36735E-10-5.72129E-10
 -1       631 2.05279E+05 5.51732E+04 1.11589E+02 1.12041E+05 3.09956E-09-2.47289E-09
 -1       632 2.08456E+05 5.20066E+04 7.18389E+01 1.08414E+05-1.86310E-09-1.04452E-08
 -1       633 2.05266E+05 5.51778E+04 7.76296E+01 1.12034E+05-4.45789E-09-5.85203E-10
 -1       634 2.08447E+05 5.20069E+04 1.23272E+02 1.08411E+05 4.87216E-09 2.26223E-08
 -1       635 2.05273E+05 5.51786E+04 2.48247E+02 1.12035E+05 1.82035E-09 1.04812E-08
 -1       636 2.08436E+05 5.20045E+04 5.00641E+02 1.08408E+05-5.08123E-10 1.17020E-08
 -1       637 2.05378E+05 5.52573E+04 1.10008E+03 1.12032E+05-2.34013E-09 8.64884E-09
 -1       638 2.08395E+05 5.22487E+04 2.26037E+03 1.08297E+05-2.42153E-09 5.55247E-09
 -1       639 2.06564E+05 5.69082E+04 5.34755E+03 1.11680E+05-2.44484E-09-2.40379E-09
 -1       640 2.08235E+05 5.71741E+04 1.10972E+04 1.06212E+05 9.71795E-10-5.96197E-09
 -1       656 5.46952E+04-1.39122E+06-1.32035E+05-7.61362E+02-2.40107E-10-4.71829E-09
 -1       657-7.23186E+04-1.45084E+06-1.09290E+05 7.23729E+03-2.96495E-10 5.33453E-09
 -1       658 1.73935E+04-1.40819E+06-6.71938E+04-2.29448E+03 2.15095E-10 6.82217E-09
 -1       659-7.78859E+04-1.45348E+06-1.16604E+05 8.36186E+03-3.28328E-10 3.38528E-09
 -1       660 6.02497E+04-1.38859E+06-1.44610E+05-1.88592E+03-1.00408E-09 1.58041E-08
 -1       661 1.66095E+05 1.78601E+04 1.64962E+04 6.49534E+04 3.98495E-09 5.25779E-09
 -1       662 1.74999E+05 3.04910E+04 1.11163E+04 6.17331E+04 3.23735E-09 8.98012E-10
 -1       663 1.69332E+05 2.31542E+04 3.88828E+03 6.40158E+04-5.95151E-10 1.09210E-08
 -1       664 1.71249E+05 2.42969E+04 2.32521E+03 6.28758E+04 3.32423E-09-3.56249E-09
 -1       665 1.69820E+05 2.38802E+04 9.17260E+02 6.38762E+04-1.43734E-09 4.79679E-09
 -1       666 1.70674E+05 2.34644E+04 5.35724E+02 6.30565E+04-2.64363E-09 4.01105E-09
 -1       667 1.69903E+05 2.39649E+04 2.83390E+02 6.38432E+04-1.17177E-09 7.36625E-09
 -1       668 1.70583E+05 2.34004E+04 2.86072E+02 6.31044E+04 9.28011E-10-2.82212E-09
 -1       669 1.69910E+05 2.39422E+04 3.85100E+02 6.38288E+04 2.98485E-10 8.64091E-09
 -1       670 1.70678E+05 2.36071E+04 8.36511E+02 6.31060E+04 4.47776E-09-5.57262E-09
 -1       671 1.69809E+05 2.37623E+04 1.48459E+03 6.38398E+04-8.75900E-10-6.30746E-09
 -1       672 1.71543E+05 2.50514E+04 3.79775E+03 6.28969E+04 7.16000E-10-6.47441E-09
 -1       673 1.69050E+05 2.25343E+04 6.36421E+03 6.40240E+04-1.78591E-09-8.46512E-10
 -1       674 1.77602E+05 3.52744E+04 1.82002E+04 6.11155E+04-1.60912E-09 1.29876E-08
 -1       675 1.63789E+05 1.38254E+04 2.70152E+04 6.55135E+04 7.89896E-10 1.09339E-08
 -1       676 2.11665E+01-2.56321E+05-9.83316E+02-2.18645E+00 3.02521E-10 1.34983E-09
 -1       677-2.61154E+02-2.56559E+05-1.79960E+03 4.37014E+00-1.43564E-09-6.29081E-09
 -1       678 1.74320E+02-2.56152E+05-3.18124E+03-2.18219E+00-1.39812E-09 3.73820E-09
 -1       679-3.18218E+03-2.58479E+05-7.55716E+03 4.35380E+00 1.08491E-09 1.23297E-09
 -1       680 1.89913E+03-2.54402E+05-1.21796E+04-2.14550E+00-6.90761E-10 9.39286E-09
 -1       771-2.71155E+06-5.60856E+05-8.79888E+04-1.21402E+06-2.04018E-08-2.00234E-08
 -1       772-2.66795E+06-6.18119E+05-4.60657E+04-1.27937E+06-1.15542E-08 7.25777E-09
 -1       773-2.72734E+06-5.48379E+05-2.20239E+04-1.21978E+06-6.40284E-09 7.10133E-09
 -1       774-2.65919E+06-6.08878E+05-1.01423E+04-1.29084E+06 1.92158E-08-1.60071E-09
 -1       775-2.73412E+06-5.43575E+05-6.62702E+03-1.22180E+06-7.61065E-09-3.21597E-09
 -1       776-2.66265E+06-6.08356E+05-2.64108E+03-1.29877E+06-8.73115E-09 3.29055E-09
 -1       777-2.73972E+06-5.39468E+05-2.59649E+03-1.22355E+06-4.51109E-10-3.06318E-09
 -1       778-2.66656E+06-6.07988E+05-7.96101E+02-1.30549E+06 3.30328E-09 6.00994E-09
 -1       779-2.74441E+06-5.35950E+05-1.20484E+03-1.22506E+06-1.46829E-08-7.33053E-09
 -1       780-2.67002E+06-6.07600E+05-2.32613E+02-1.31094E+06-1.61890E-08-2.76395E-09
 -1       781-2.74808E+06-5.33151E+05-4.78501E+02-1.22624E+06-1.82990E-08-6.25732E-10
 -1       782-2.67267E+06-6.07235E+05 8.17884E+01-1.31495E+06-1.85682E-08-5.69707E-09
 -1       783-2.75063E+06-5.31240E+05 1.03582E+02-1.22708E+06 1.16415E-09-6.30916E-09
 -1       784-2.67417E+06-6.06793E+05 6.74936E+02-1.31740E+06-9.35142E-09-9.69931E-09
 -1       785-2.75204E+06-5.30174E+05 1.16200E+03-1.22759E+06-1.79189E-08 3.07864E-09
 -1       786 1.26246E+05-9.05685E+03 2.09526E+04-1.34107E+02 1.01901E-09-2.18824E-09
 -1       787 1.35331E+05 1.04850E+04 1.48234E+04 2.24916E+01 2.65058E-09 8.14430E-09
 -1       788 1.29749E+05-1.41966E+03 5.42157E+03-1.07528E+02 1.45005E-09 1.53827E-08
 -1       789 1.31250E+05 1.64248E+03 3.40445E+03-2.03594E+01-6.86440E-10 2.82108E-09
 -1       790 1.30328E+05-2.21512E+02 1.38059E+03-9.12618E+01-1.32510E-09 5.30224E-09
 -1       791 1.30574E+05 2.56080E+02 8.01681E+02-4.86244E+01-2.35630E-09 1.50195E-09
 -1       792 1.30425E+05-3.42932E+01 3.48266E+02-7.92632E+01-1.53518E-09 9.80330E-09
 -1       793 1.30459E+05 3.96940E+01 1.92385E+02-7.12616E+01-3.86724E-10-2.86069E-09
 -1       794 1.30442E+05-5.26360E+00 8.76980E+01-6.86242E+01 1.32813E-09-4.94328E-09
 -1       795 1.30440E+05 6.42464E+00 4.76582E+01-9.34729E+01-1.34577E-09 9.46070E-09
 -1       796 1.30445E+05-1.04040E+00 2.34845E+01-5.70515E+01 1.42166E-09-3.73313E-09
 -1       797 1.30437E+05 3.05234E+00 1.57560E+01-1.20000E+02 1.18462E-09 3.93349E-10
 -1       798 1.30445E+05-1.89529E+00 1.21103E+01-4.20963E+01 4.44476E-10 1.43638E-08
 -1       799 1.30442E+05 1.35355E+01 2.15849E+01-1.56493E+02 1.87748E-09 1.82070E-09
 -1       800 1.30440E+05-1.15254E+01 2.72476E+01-2.05583E+01 5.35405E-10 1.10167E-08
 -1       801 7.58452E+04-4.34744E+06-4.61450E+05 2.21571E+05 3.60887E-08-1.00081E-08
 -1       802-5.33986E+04-2.56165E+06 3.88120E+04-2.08600E+05 1.00375E-07-6.21367E-09
 -1       803-2.47000E+04-4.41385E+06-2.28738E+05 2.21200E+05 4.50345E-08 2.76796E-08
 -1       804-2.49553E+04-3.14853E+06 5.07872E+04 1.71440E+05-6.81121E-09-6.73720E-09
 -1       805 3.82188E+04-3.76579E+06-5.59044E+04-1.58247E+05-3.54703E-09-3.50039E-09
 -1       806-2.53783E+05-4.79079E+04-1.84861E+04-9.91338E+04-1.70166E-09 5.04451E-09
 -1       807-2.55439E+05-4.46878E+04-9.08198E+03-1.03379E+05 1.88652E-09 7.38068E-09
 -1       808-2.54275E+05-4.12615E+04-3.85297E+03-1.02302E+05-6.59929E-09-3.53532E-09
 -1       809-2.53539E+05-4.21282E+04-1.88404E+03-1.03594E+05-3.11297E-09-3.99586E-09
 -1       810-2.54352E+05-4.10298E+04-8.63438E+02-1.02444E+05 4.71891E-09-9.88825E-09
 -1       811-2.53393E+05-4.20243E+04-4.29292E+02-1.03566E+05 4.21051E-09-1.91977E-08
 -1       812-2.54365E+05-4.10489E+04-2.16771E+02-1.02444E+05 6.21230E-09 5.78848E-09
 -1       813-2.53374E+05-4.20254E+04-1.40447E+02-1.03553E+05-7.90806E-10-1.33823E-08
 -1       814-2.54361E+05-4.10556E+04-1.38287E+02-1.02442E+05 4.52928E-10-4.62569E-09
 -1       815-2.53379E+05-4.20266E+04-2.22369E+02-1.03549E+05 6.10817E-09 2.96177E-09
 -1       816-2.54347E+05-4.10534E+04-4.20796E+02-1.02440E+05 2.07092E-09 6.91534E-09
 -1       817-2.53453E+05-4.20663E+04-9.03476E+02-1.03542E+05-9.65429E-10 3.00722E-08
 -1       818-2.54295E+05-4.11789E+04-1.84236E+03-1.02380E+05 1.51886E-09 2.24918E-09
 -1       819-2.54461E+05-4.31817E+04-4.33584E+03-1.03310E+05-7.43967E-10-1.30483E-08
 -1       820-2.53957E+05-4.44468E+04-8.82452E+03-1.00975E+05-2.95040E-09 9.90894E-10
 -1       821-3.09157E+05 1.70930E+04-3.95327E+04 4.50595E+02 4.43724E-07-2.38560E-08
 -1       822-3.26278E+05-1.97879E+04-2.79735E+04-1.12432E+03 8.92481E-07 1.87906E-08
 -1       823-3.15761E+05 2.68034E+03-1.02384E+04 4.93775E+02 4.42831E-07 8.53152E-09
 -1       824-3.18560E+05-3.10141E+03-6.43993E+03-9.55584E+02 1.21279E-09 1.37602E-08
 -1       825-3.16872E+05 4.18983E+02-2.65140E+03 2.81862E+02 8.21441E-10 5.72311E-09
 -1       826-3.17255E+05-4.93350E+02-1.59115E+03-3.74840E+02 4.28507E-10-1.32185E-08
 -1       827-3.17064E+05 7.33934E+01-8.35470E+02-8.69796E+01-1.33335E-09-3.82209E-09
 -1       828-3.17082E+05-1.50733E+02-7.28174E+02 3.50366E+02-3.37440E-09 2.54389E-09
 -1       829-3.17045E+05 7.66707E+01-8.52515E+02-4.43356E+02-2.65764E-10 1.62083E-09
 -1       830-3.17308E+05-5.14370E+02-1.65918E+03 8.86348E+02 1.79889E-09 5.32066E-09
 -1       831-3.16839E+05 4.37578E+02-2.75374E+03-6.22972E+02-2.94743E-09 2.15857E-09
 -1       832-3.18640E+05-3.23074E+03-6.71065E+03 9.86369E+02-9.34339E-10 1.57888E-09
 -1       833-3.15714E+05 2.79130E+03-1.06674E+04-5.43378E+02-2.17492E-09 4.10364E-09
 -1       834-3.26628E+05-2.06123E+04-2.91351E+04 6.01315E+02-1.77916E-09 1.70749E-08
 -1       835-3.08853E+05 1.78051E+04-4.11907E+04-2.37905E+02 5.28058E-09 9.35506E-09
 -1       836-1.06104E+03 2.92476E+05 1.77888E+04-1.62347E+04-1.05865E-09 1.09667E-08
 -1       837 3.86529E+03 2.98013E+05 1.52188E+04-3.26902E+04-7.82393E-10 1.77831E-08
 -1       838-4.10418E+02 2.94007E+05 1.57395E+04-1.61698E+04-4.01087E-10 1.71635E-08
 -1       839 1.00706E+04 3.02639E+05 3.00039E+04-3.27303E+04-2.03727E-10 1.14042E-08
 -1       840-3.06263E+03 2.87807E+05 4.79452E+04-1.61943E+04-3.49246E-10-4.42839E-09
 -1       856-7.25808E+04 7.62882E+03-2.01042E+04-4.20620E+02-1.98577E-09 9.26502E-09
 -1       857-8.08793E+04-8.95139E+03-1.38406E+04 4.86548E+03 6.94286E-10 9.79526E-10
 -1       858-7.58614E+04 1.06913E+03-5.21720E+03-4.42681E+02-2.21667E-09 8.95557E-09
 -1       859-7.71129E+04-1.24631E+03-3.14993E+03 4.90001E+03-1.42336E-10-1.40699E-09
 -1       860-7.63517E+04 1.48930E+02-1.32272E+03-4.55188E+02 1.00164E-09 5.18526E-10
 -1       861-7.65485E+04-1.67160E+02-7.33116E+02 4.91713E+03-4.46918E-09 3.52270E-09
 -1       862-7.64281E+04 1.97366E+01-3.15694E+02-4.59821E+02 3.73662E-09-3.66641E-09
 -1       863-7.64567E+04-1.25950E+01-1.39852E+02 4.91941E+03 3.76158E-09-1.63038E-08
 -1       864-7.64438E+04-2.19828E+00-1.10661E+01-4.57469E+02 1.69648E-09 9.61870E-09
 -1       865-7.64192E+04 3.98553E+01 1.18145E+02 4.90716E+03 2.81268E-09 2.57014E-09
 -1       866-7.64639E+04-3.30326E+01 2.66787E+02-4.47566E+02 6.32497E-10-7.06119E-09
 -1       867-7.62859E+04 2.75055E+02 6.75203E+02 4.88021E+03 1.30174E-09-1.02295E-08
 -1       868-7.65732E+04-2.34028E+02 1.12632E+03-4.30526E+02 9.94078E-10 4.14337E-09
 -1       869-7.54544E+04 1.94655E+03 3.00601E+03 4.83542E+03 1.95448E-09-2.52242E-08
 -1       870-7.72894E+04-1.66040E+03 4.36129E+03-4.02773E+02-1.38527E-09-6.74549E-09
 -1       871-4.66770E+03-1.20341E+04-1.54884E+04 1.03035E+05 6.20275E-10-4.81305E-09
 -1       872-1.93641E+03-1.55430E+04-6.37619E+03 1.33586E+05-4.92946E-10 5.52791E-09
 -1       873 5.29640E+01-1.38917E+04 7.42808E+02 1.02809E+05-4.76575E-10 2.38197E-09
 -1       874 2.42492E+03-1.17530E+04 8.41277E+03 1.33625E+05-1.41881E-10 9.45693E-09
 -1       875 5.52925E+03-1.58897E+04 1.87648E+04 1.02999E+05 3.29237E-10 5.26597E-10
 -1       876 2.45286E+05 4.18710E+04 1.28488E+04 9.90606E+04-1.37186E-09 3.15777E-09
 -1       877 2.46079E+05 4.46336E+04 6.86168E+03 1.02799E+05 8.92896E-10-4.14559E-09
 -1       878 2.46487E+05 4.04493E+04 2.87472E+03 1.00116E+05-1.55887E-09-3.32693E-09
 -1       879 2.44332E+05 4.28917E+04 1.43221E+03 1.02887E+05-8.64020E-11 1.61649E-08
 -1       880 2.46573E+05 4.04340E+04 6.66971E+02 1.00159E+05-7.31461E-09 2.01487E-08
 -1       881 2.44216E+05 4.28175E+04 3.55759E+02 1.02868E+05-1.75176E-08 1.76708E-08
 -1       882 2.46582E+05 4.04449E+04 2.26903E+02 1.00160E+05-8.30869E-09 2.48884E-09
 -1       883 2.44208E+05 4.28138E+04 2.42800E+02 1.02863E+05 6.35600E-09 1.67732E-08
 -1       884 2.46576E+05 4.04423E+04 3.85217E+02 1.00160E+05 1.59679E-09 5.40376E-09
 -1       885 2.44238E+05 4.28192E+04 7.73866E+02 1.02872E+05 1.63968E-09-2.71848E-09
 -1       886 2.46547E+05 4.04197E+04 1.55940E+03 1.00157E+05-7.42745E-10 2.73451E-09
 -1       887 2.44512E+05 4.29989E+04 3.40621E+03 1.02912E+05-8.03880E-10-4.61387E-09
 -1       888 2.46331E+05 4.04575E+04 6.86360E+03 1.00048E+05 1.13286E-09 8.74161E-09
 -1       889 2.48600E+05 4.72466E+04 1.63963E+04 1.02784E+05 2.70631E-09-3.90014E-09
 -1       890 2.43534E+05 4.37802E+04 3.07093E+04 9.74304E+04 8.56744E-10-1.67911E-08
 -1       891-1.30399E+02-1.37847E+05-1.65822E+03 2.48375E+04-1.40972E-10 3.55158E-10
 -1       892-2.31650E+02-1.38256E+05-1.79196E+03 3.76184E+04 1.88720E-11-2.27824E-08
 -1       893-2.03157E+01-1.37899E+05-2.54862E+03 2.48430E+04 1.00954E-10 2.02772E-09
 -1       894-1.35636E+03-1.39225E+05-5.28294E+03 3.74827E+04 1.28148E-09 5.86442E-09
 -1       895-1.06560E+03-1.36798E+05-9.30649E+03 2.49721E+04 1.64283E-09 6.51380E-09
 -1       956-3.11380E+05-4.38293E+03-1.09872E+04 2.17806E+04-9.77707E-10 4.43379E-10
 -1       957-3.13546E+05-1.49279E+03-5.64017E+03 2.62238E+04-8.91305E-10 4.83851E-10
 -1       958-3.12358E+05-1.33682E+02-2.54118E+03 2.16508E+04 7.42148E-10-2.69233E-09
 -1       959-3.12528E+05-3.86662E+01-1.29795E+03 2.63673E+04-3.07591E-09 5.60044E-09
 -1       960-3.12448E+05 2.19598E+01-6.32871E+02 2.16381E+04-3.83807E-10-4.06089E-09
 -1       961-3.12456E+05 1.73349E+01-3.35922E+02 2.63820E+04 1.35151E-09 8.88713E-09
 -1       962-3.12466E+05 1.83858E+01-1.92641E+02 2.16361E+04-1.14528E-09 5.02973E-09
 -1       963-3.12453E+05 1.91498E+01-1.55290E+02 2.63846E+04-2.34013E-09 9.71886E-09
 -1       964-3.12470E+05 2.06117E+01-1.89394E+02 2.16355E+04 1.03449E-09 4.97835E-09
 -1       965-3.12464E+05 2.20703E+01-3.28024E+02 2.63843E+04-6.09361E-11-6.23436E-09
 -1       966-3.12459E+05 2.85835E+01-6.16304E+02 2.16364E+04-2.69688E-09 1.29626E-09
 -1       967-3.12543E+05-2.78490E+01-1.26424E+03 2.63748E+04-9.11768E-10-1.29228E-09
 -1       968-3.12378E+05-1.18640E+02-2.47444E+03 2.16450E+04 2.05546E-09-5.92843E-09
 -1       969-3.13543E+05-1.44029E+03-5.49382E+03 2.62742E+04 2.06501E-09 1.83366E-09
 -1       970-3.11431E+05-4.25488E+03-1.07013E+04 2.17372E+04 9.24956E-10 1.32522E-08
 -1       971-2.90853E+05-1.50077E+03-8.27304E+03 1.36297E+04-1.24146E-09 5.65286E-09
 -1       972-2.92859E+05-1.08327E+03-4.50542E+03 1.89919E+04-1.69257E-09 7.48514E-10
 -1       973-2.91774E+05-2.15996E+01-2.01766E+03 1.35172E+04-4.77939E-10-8.91646E-09
 -1       974-2.91908E+05-2.55354E+01-1.04545E+03 1.91149E+04-1.43791E-09 5.16479E-10
 -1       975-2.91846E+05 1.76645E+01-5.21943E+02 1.35065E+04 5.07498E-10-5.46379E-10
 -1       976-2.91853E+05 1.82578E+01-2.99951E+02 1.91281E+04 3.53793E-10 2.59809E-09
 -1       977-2.91860E+05 1.78436E+01-2.15615E+02 1.35039E+04 1.35515E-10 2.99315E-09
 -1       978-2.91857E+05 2.34047E+01-2.49467E+02 1.91318E+04 4.84124E-09-1.68711E-09
 -1       979-2.91860E+05 2.47994E+01-3.98371E+02 1.35028E+04 3.67294E-09-8.94795E-09
 -1       980-2.91886E+05 2.59348E+01-7.67671E+02 1.91325E+04 2.71531E-09-5.14444E-09
 -1       981-2.91835E+05 4.39432E+01-1.48600E+03 1.35032E+04-5.64251E-09 1.16003E-08
 -1       982-2.92090E+05-8.38101E+01-3.07108E+03 1.91267E+04-1.31404E-08-5.55563E-09
 -1       983-2.91648E+05-5.11360E+01-5.96688E+03 1.35088E+04-3.69573E-09 4.65661E-09
 -1       984-2.94960E+05-3.20000E+03-1.33622E+04 1.90498E+04-2.30648E-09 3.46631E-09
 -1       985-2.88947E+05-4.41733E+03-2.45372E+04 1.35825E+04 9.39508E-10-4.05817E-09
 -3
    1PSTEP                        15           8           1          
  100CL  108 6.09375E-01         409                     0    8           1
 -4  DISP        4    1
 -5  D1          1    2    1    0
 -5  D2          1    2    2    0
 -5  D3          1    2    3    0
 -5  ALL         1    2    0    0    1ALL
 -1         1 1.30195E-03 0.00000E+00 0.00000E+00
 -1         2 1.22690E-03 1.27298E-27-1.32349E-23
 -1         3 2.69062E-04-8.09301E-28-1.32349E-23
 -1         5 1.49513E-04-7.25341E-26 3.30872E-24
 -1         8 1.28242E-03-6.16114E-07 0.00000E+00
 -1         9 1.25090E-03-3.71104E-06 0.00000E+00
 -1        10 2.44806E-04-3.24197E-06 6.61744E-24
 -1        12 1.50380E-04 7.07257E-07-8.27181E-25
 -1        15 1.25899E-03-6.78048E-07 2.06795E-25
 -1        16 1.26582E-03-4.51203E-06 0.00000E+00
 -1        17 1.69326E-04-7.13595E-06 0.00000E+00
 -1        18 1.51568E-04 2.07162E-05 0.00000E+00
 -1        19 1.52983E-04 1.41040E-06 0.00000E+00
 -1        20 1.53129E-04 7.94272E-07 0.00000E+00
 -1        21 1.52375E-04-2.66802E-06 0.00000E+00
 -1        24 2.71928E-05-1.03268E-05 0.00000E+00
 -1        25 1.57439E-04 2.09012E-05 0.00000E+00
 -1        26 1.58138E-04 1.95434E-06 0.00000E+00
 -1        27 1.56209E-04-2.37086E-06 0.00000E+00
 -1        28 1.55834E-04-3.23592E-06 0.00000E+00
 -1        32 0.00000E+00 0.00000E+00 0.00000E+00
 -1        33 1.62242E-04 2.61756E-06 0.00000E+00
 -1        34 1.60351E-04-2.41039E-06 0.00000E+00
 -1        35 1.58607E-04-3.54365E-06 0.00000E+00
 -1        51 1.30069E-03-1.11081E-07 0.00000E+00
 -1        52 1.29834E-03-2.10011E-07 0.00000E+00
 -1        53 1.29512E-03-3.07847E-07 0.00000E+00
 -1        54 1.29125E-03-4.06595E-07 0.00000E+00
 -1        55 1.28694E-03-5.07631E-07 5.37667E-24
 -1        56 1.29893E-03-3.60710E-07 0.00000E+00
 -1        57 1.29530E-03 5.62322E-07-2.64698E-23
 -1        58 1.29126E-03 2.61536E-06-1.05879E-22
 -1        59 1.28687E-03 5.51821E-06 0.00000E+00
 -1        60 1.28230E-03 8.89199E-06 0.00000E+00
 -1        61 1.27772E-03 1.23190E-05 0.00000E+00
 -1        62 1.27327E-03 1.53756E-05 0.00000E+00
 -1        63 1.26911E-03 1.76619E-05 5.29396E-23
 -1        64 1.26535E-03 1.88818E-05 0.00000E+00
 -1        65 1.26208E-03 1.88102E-05 0.00000E+00
 -1        66 1.25932E-03 1.73958E-05-1.05879E-22
 -1        67 1.25705E-03 1.46779E-05 0.00000E+00
 -1        68 1.25518E-03 1.08700E-05 0.00000E+00
 -1        69 1.25363E-03 6.26533E-06-2.64698E-23
 -1        70 1.25222E-03 1.25210E-06-5.29396E-23
 -1        86 1.22796E-03-6.09230E-07 0.00000E+00
 -1        87 1.23113E-03-1.22286E-06 0.00000E+00
 -1        88 1.23577E-03-1.84185E-06-2.64698E-23
 -1        89 1.24121E-03-2.46553E-06 0.00000E+00
 -1        90 1.24655E-03-3.08844E-06-2.64698E-23
 -1       121 2.68381E-04-5.30019E-07 0.00000E+00
 -1       122 2.66341E-04-1.06182E-06 0.00000E+00
 -1       123 2.62949E-04-1.59716E-06 1.32349E-23
 -1       124 2.58218E-04-2.13783E-06-6.61744E-24
 -1       125 2.52162E-04-2.68531E-06-1.32349E-23
 -1       191 1.49537E-04 1.17893E-07 0.00000E+00
 -1       192 1.49609E-04 2.35783E-07-8.27181E-25
 -1       193 1.49730E-04 3.53669E-07-1.65436E-24
 -1       194 1.49898E-04 4.71546E-07-8.27181E-25
 -1       195 1.50115E-04 5.89410E-07 0.00000E+00
 -1       251 1.28174E-03-1.14177E-05 0.00000E+00
 -1       252 1.28034E-03-5.13076E-05 0.00000E+00
 -1       253 1.27795E-03-1.12447E-04 0.00000E+00
 -1       254 1.27471E-03-1.86469E-04 0.00000E+00
 -1       255 1.27142E-03-2.61278E-04 0.00000E+00
 -1       256 1.26888E-03-3.24765E-04-6.61744E-24
 -1       257 1.26734E-03-3.68103E-04-1.32349E-23
 -1       258 1.26660E-03-3.82960E-04 0.00000E+00
 -1       259 1.26588E-03-3.68927E-04 1.32349E-23
 -1       260 1.26437E-03-3.26345E-04 0.00000E+00
 -1       261 1.26187E-03-2.63495E-04 0.00000E+00
 -1       262 1.25861E-03-1.89156E-04 0.00000E+00
 -1       263 1.25539E-03-1.15437E-04-1.32349E-23
 -1       264 1.25300E-03-5.44395E-05-1.32349E-23
 -1       265 1.25160E-03-1.45670E-05-2.64698E-23
 -1       266 1.27851E-03-6.35441E-07-3.30872E-24
 -1       267 1.27461E-03-6.44664E-07 0.00000E+00
 -1       268 1.27071E-03-6.54533E-07 0.00000E+00
 -1       269 1.26680E-03-6.62500E-07 0.00000E+00
 -1       270 1.26290E-03-6.70425E-07 0.00000E+00
 -1       271 1.28002E-03 2.86703E-06-2.64698E-23
 -1       272 1.27765E-03 6.15146E-06 0.00000E+00
 -1       273 1.27539E-03 9.16525E-06 0.00000E+00
 -1       274 1.27326E-03 1.18253E-05-1.32349E-23
 -1       275 1.27129E-03 1.40570E-05 0.00000E+00
 -1       276 1.26951E-03 1.57893E-05 0.00000E+00
 -1       277 1.26794E-03 1.69578E-05-2.64698E-23
 -1       278 1.26661E-03 1.75052E-05 1.32349E-23
 -1       279 1.26552E-03 1.73820E-05 0.00000E+00
 -1       280 1.26471E-03 1.65472E-05 1.32349E-23
 -1       281 1.26417E-03 1.49689E-05 0.00000E+00
 -1       282 1.26392E-03 1.26244E-05-1.32349E-23
 -1       283 1.26395E-03 9.50116E-06 2.64698E-23
 -1       284 1.26429E-03 5.59707E-06-1.32349E-23
 -1       285 1.26490E-03 9.17986E-07 2.64698E-23
 -1       301 1.25357E-03-3.86442E-06-6.61744E-24
 -1       302 1.25549E-03-3.98968E-06 0.00000E+00
 -1       303 1.25715E-03-4.11244E-06 0.00000E+00
 -1       304 1.25908E-03-4.23516E-06 0.00000E+00
 -1       305 1.26180E-03-4.36134E-06 2.64698E-23
 -1       306 1.27731E-03-1.00715E-04 0.00000E+00
 -1       307 1.33744E-03-3.74762E-04-5.29396E-23
 -1       308 1.40519E-03-7.81834E-04 0.00000E+00
 -1       309 1.46961E-03-1.26157E-03 0.00000E+00
 -1       310 1.53455E-03-1.73234E-03 0.00000E+00
 -1       311 1.60219E-03-2.11341E-03-5.29396E-23
 -1       312 1.65738E-03-2.34936E-03 1.05879E-22
 -1       313 1.67103E-03-2.40370E-03 0.00000E+00
 -1       314 1.60961E-03-2.27843E-03 1.05879E-22
 -1       315 1.45067E-03-1.99967E-03 5.29396E-23
 -1       316 1.20405E-03-1.61642E-03 0.00000E+00
 -1       317 9.02150E-04-1.17998E-03 0.00000E+00
 -1       318 6.03795E-04-7.46844E-04 0.00000E+00
 -1       319 3.66868E-04-3.73815E-04 0.00000E+00
 -1       320 2.20105E-04-1.11434E-04-1.05879E-22
 -1       336 2.36006E-04-3.85175E-06 0.00000E+00
 -1       337 2.25625E-04-4.47668E-06 6.61744E-24
 -1       338 2.13710E-04-5.11770E-06 1.32349E-23
 -1       339 2.00314E-04-5.77499E-06 0.00000E+00
 -1       340 1.85497E-04-6.45162E-06-1.32349E-23
 -1       406 1.50694E-04 8.25076E-07 1.65436E-24
 -1       407 1.51055E-04 9.42842E-07 8.27181E-25
 -1       408 1.51465E-04 1.06052E-06-1.65436E-24
 -1       409 1.51923E-04 1.17796E-06 8.27181E-25
 -1       410 1.52429E-04 1.29495E-06 1.65436E-24
 -1       521 1.29346E-03-1.09979E-04-1.05879E-22
 -1       522 1.35453E-03-4.03485E-04 0.00000E+00
 -1       523 1.42090E-03-8.38429E-04 0.00000E+00
 -1       524 1.48184E-03-1.34911E-03 0.00000E+00
 -1       525 1.54362E-03-1.84959E-03-1.05879E-22
 -1       526 1.61052E-03-2.25496E-03-5.29396E-23
 -1       527 1.66657E-03-2.50495E-03-1.05879E-22
 -1       528 1.67982E-03-2.56163E-03 5.29396E-23
 -1       529 1.61189E-03-2.42643E-03 1.05879E-22
 -1       530 1.43783E-03-2.12976E-03-5.29396E-23
 -1       531 1.16735E-03-1.72364E-03 0.00000E+00
 -1       532 8.36435E-04-1.26289E-03-5.29396E-23
 -1       533 5.08895E-04-8.05076E-04 0.00000E+00
 -1       534 2.47607E-04-4.08096E-04 5.29396E-23
 -1       535 8.50926E-05-1.26275E-04 0.00000E+00
 -1       536 1.68825E-04 1.95689E-05 0.00000E+00
 -1       537 1.67642E-04 6.59335E-05 0.00000E+00
 -1       538 1.65843E-04 1.24760E-04 0.00000E+00
 -1       539 1.63739E-04 1.88785E-04 0.00000E+00
 -1       540 1.61844E-04 2.49212E-04 0.00000E+00
 -1       541 1.60596E-04 2.97266E-04 0.00000E+00
 -1       542 1.59996E-04 3.27669E-04 3.30872E-24
 -1       543 1.59813E-04 3.35251E-04 1.65436E-24
 -1       544 1.59559E-04 3.20688E-04 0.00000E+00
 -1       545 1.58787E-04 2.84808E-04 0.00000E+00
 -1       546 1.57412E-04 2.34002E-04 3.30872E-24
 -1       547 1.55589E-04 1.74748E-04-1.65436E-24
 -1       548 1.53792E-04 1.15964E-04 0.00000E+00
 -1       549 1.52485E-04 6.65666E-05 0.00000E+00
 -1       550 1.51785E-04 3.27764E-05-1.65436E-24
 -1       551 1.49747E-04-7.58026E-06 0.00000E+00
 -1       552 1.27368E-04-8.07597E-06-3.30872E-24
 -1       553 1.03050E-04-8.61271E-06 2.68187E-24
 -1       554 7.76664E-05-9.17602E-06 0.00000E+00
 -1       555 5.20908E-05-9.74636E-06 2.64698E-23
 -1       556 1.63563E-04 7.67667E-06 0.00000E+00
 -1       557 1.58953E-04 1.95626E-05 0.00000E+00
 -1       558 1.55387E-04 2.87585E-05 0.00000E+00
 -1       559 1.52758E-04 3.55203E-05 0.00000E+00
 -1       560 1.50961E-04 4.01039E-05 0.00000E+00
 -1       561 1.49893E-04 4.27672E-05 0.00000E+00
 -1       562 1.49453E-04 4.37688E-05 0.00000E+00
 -1       563 1.49540E-04 4.33679E-05 0.00000E+00
 -1       564 1.50056E-04 4.18242E-05 0.00000E+00
 -1       565 1.50901E-04 3.93980E-05 0.00000E+00
 -1       566 1.51977E-04 3.63498E-05 0.00000E+00
 -1       567 1.53189E-04 3.29404E-05 0.00000E+00
 -1       568 1.54437E-04 2.94305E-05-8.27181E-25
 -1       569 1.55626E-04 2.60809E-05 0.00000E+00
 -1       570 1.56659E-04 2.31523E-05 0.00000E+00
 -1       571 1.51654E-04 1.94677E-05 8.27181E-25
 -1       572 1.51742E-04 1.81644E-05 1.24077E-24
 -1       573 1.51830E-04 1.68188E-05 0.00000E+00
 -1       574 1.51918E-04 1.54439E-05-8.27181E-25
 -1       575 1.52007E-04 1.40526E-05 0.00000E+00
 -1       576 1.52095E-04 1.26580E-05 0.00000E+00
 -1       577 1.52184E-04 1.12732E-05 6.61744E-24
 -1       578 1.52272E-04 9.91138E-06 1.65436E-24
 -1       579 1.52361E-04 8.58555E-06 0.00000E+00
 -1       580 1.52450E-04 7.30886E-06-6.61744E-24
 -1       581 1.52539E-04 6.09441E-06 0.00000E+00
 -1       582 1.52628E-04 4.95525E-06 0.00000E+00
 -1       583 1.52716E-04 3.90449E-06 0.00000E+00
 -1       584 1.52805E-04 2.95506E-06 0.00000E+00
 -1       585 1.52894E-04 2.11978E-06 0.00000E+00
 -1       586 1.52497E-04 2.07489E-05 0.00000E+00
 -1       587 1.53395E-04 2.07811E-05 0.00000E+00
 -1       588 1.54299E-04 2.08129E-05 0.00000E+00
 -1       589 1.55249E-04 2.08441E-05 0.00000E+00
 -1       590 1.56283E-04 2.08743E-05 0.00000E+00
 -1       591 1.51984E-04 1.95383E-05 1.03398E-25
 -1       592 1.52406E-04 1.83373E-05 2.06795E-25
 -1       593 1.52833E-04 1.71190E-05 0.00000E+00
 -1       594 1.53265E-04 1.58883E-05 4.13590E-25
 -1       595 1.53699E-04 1.46503E-05 8.27181E-25
 -1       596 1.54134E-04 1.34098E-05-4.13590E-25
 -1       597 1.54569E-04 1.21718E-05 8.27181E-25
 -1       598 1.55000E-04 1.09412E-05-4.13590E-25
 -1       599 1.55427E-04 9.72288E-06 8.27181E-25
 -1       600 1.55848E-04 8.52182E-06 2.06795E-25
 -1       601 1.56260E-04 7.34293E-06 4.13590E-25
 -1       602 1.56662E-04 6.19110E-06-2.06795E-25
 -1       603 1.57052E-04 5.07128E-06 2.06795E-25
 -1       604 1.57429E-04 3.98847E-06-7.75482E-26
 -1       605 1.57791E-04 2.94753E-06 0.00000E+00
 -1       606 1.52996E-04 9.01641E-07 0.00000E+00
 -1       607 1.53007E-04 4.83227E-07 0.00000E+00
 -1       608 1.53016E-04 1.49856E-07-3.30872E-24
 -1       609 1.53025E-04-1.04451E-07 0.00000E+00
 -1       610 1.53034E-04-2.85722E-07 0.00000E+00
 -1       611 1.53043E-04-4.00052E-07 0.00000E+00
 -1       612 1.53051E-04-4.53545E-07 0.00000E+00
 -1       613 1.53060E-04-4.52312E-07 0.00000E+00
 -1       614 1.53069E-04-4.02465E-07-1.65436E-24
 -1       615 1.53078E-04-3.10116E-07 0.00000E+00
 -1       616 1.53086E-04-1.81376E-07 0.00000E+00
 -1       617 1.53095E-04-2.23567E-08 4.13590E-25
 -1       618 1.53104E-04 1.60827E-07 8.27181E-25
 -1       619 1.53113E-04 3.62068E-07 0.00000E+00
 -1       620 1.53121E-04 5.75254E-07 0.00000E+00
 -1       621 1.53648E-04 1.50137E-06 0.00000E+00
 -1       622 1.54420E-04 1.59262E-06 1.65436E-24
 -1       623 1.55277E-04 1.68377E-06-1.65436E-24
 -1       624 1.56198E-04 1.77471E-06 0.00000E+00
 -1       625 1.57159E-04 1.86545E-06-1.65436E-24
 -1       626 1.53274E-04 9.33412E-07 3.30872E-24
 -1       627 1.53540E-04 5.26375E-07-1.65436E-24
 -1       628 1.53782E-04 1.81512E-07 3.30872E-24
 -1       629 1.54005E-04-1.09335E-07 4.96308E-24
 -1       630 1.54210E-04-3.54342E-07-3.30872E-24
 -1       631 1.54401E-04-5.61713E-07 1.65436E-24
 -1       632 1.54581E-04-7.39650E-07 0.00000E+00
 -1       633 1.54753E-04-8.96364E-07 1.65436E-24
 -1       634 1.54921E-04-1.04006E-06-3.30872E-24
 -1       635 1.55086E-04-1.17893E-06 1.65436E-24
 -1       636 1.55253E-04-1.32120E-06 3.30872E-24
 -1       637 1.55424E-04-1.47506E-06 8.27181E-25
 -1       638 1.55602E-04-1.64873E-06 0.00000E+00
 -1       639 1.55791E-04-1.85042E-06 8.27181E-25
 -1       640 1.55993E-04-2.08835E-06-1.65436E-24
 -1       656 1.53135E-04 2.79584E-07 0.00000E+00
 -1       657 1.53541E-04-2.55865E-07-6.61744E-24
 -1       658 1.54208E-04-7.89900E-07 0.00000E+00
 -1       659 1.54992E-04-1.32356E-06 0.00000E+00
 -1       660 1.55717E-04-1.85886E-06-6.61744E-24
 -1       661 1.53133E-04 9.75031E-07 0.00000E+00
 -1       662 1.53170E-04 1.07763E-06 8.27181E-25
 -1       663 1.53234E-04 1.10600E-06 0.00000E+00
 -1       664 1.53325E-04 1.06529E-06 8.27181E-25
 -1       665 1.53440E-04 9.60052E-07 0.00000E+00
 -1       666 1.53577E-04 7.94913E-07 0.00000E+00
 -1       667 1.53735E-04 5.74262E-07 0.00000E+00
 -1       668 1.53913E-04 3.02436E-07 8.27181E-25
 -1       669 1.54108E-04-1.63969E-08-1.65436E-24
 -1       670 1.54319E-04-3.78151E-07 0.00000E+00
 -1       671 1.54545E-04-7.78860E-07 0.00000E+00
 -1       672 1.54783E-04-1.21467E-06 8.27181E-25
 -1       673 1.55034E-04-1.68174E-06 0.00000E+00
 -1       674 1.55293E-04-2.17663E-06-8.27181E-25
 -1       675 1.55562E-04-2.69528E-06 0.00000E+00
 -1       676 1.52954E-04-2.76323E-06 0.00000E+00
 -1       677 1.53532E-04-2.85839E-06 0.00000E+00
 -1       678 1.54109E-04-2.95350E-06 3.30872E-24
 -1       679 1.54686E-04-3.04833E-06 0.00000E+00
 -1       680 1.55261E-04-3.14315E-06 0.00000E+00
 -1       771 1.78606E-05 1.02109E-05 0.00000E+00
 -1       772 9.96671E-06 2.70712E-05 0.00000E+00
 -1       773 3.44265E-06 4.04378E-05 0.00000E+00
 -1       774-1.80443E-06 5.05146E-05-5.29396E-23
 -1       775-5.86586E-06 5.75126E-05 5.29396E-23
 -1       776-8.83660E-06 6.16546E-05 2.64698E-23
 -1       777-1.08119E-05 6.31700E-05 0.00000E+00
 -1       778-1.18890E-05 6.22979E-05 0.00000E+00
 -1       779-1.21651E-05 5.92832E-05 0.00000E+00
 -1       780-1.17390E-05 5.43785E-05 0.00000E+00
 -1       781-1.07093E-05 4.78413E-05 0.00000E+00
 -1       782-9.17566E-06 3.99350E-05 2.64698E-23
 -1       783-7.23761E-06 3.09259E-05-5.29396E-23
 -1       784-4.99551E-06 2.10849E-05 0.00000E+00
 -1       785-2.54927E-06 1.06848E-05 0.00000E+00
 -1       786 1.57479E-04 1.95010E-05 0.00000E+00
 -1       787 1.57522E-04 1.81485E-05 0.00000E+00
 -1       788 1.57565E-04 1.68357E-05 0.00000E+00
 -1       789 1.57609E-04 1.55550E-05-8.27181E-25
 -1       790 1.57653E-04 1.43017E-05 1.65436E-24
 -1       791 1.57697E-04 1.30713E-05-8.27181E-25
 -1       792 1.57741E-04 1.18617E-05 0.00000E+00
 -1       793 1.57785E-04 1.06708E-05-8.27181E-25
 -1       794 1.57829E-04 9.49826E-06 0.00000E+00
 -1       795 1.57873E-04 8.34400E-06 0.00000E+00
 -1       796 1.57917E-04 7.20970E-06 1.65436E-24
 -1       797 1.57961E-04 6.09705E-06 0.00000E+00
 -1       798 1.58005E-04 5.01000E-06-1.65436E-24
 -1       799 1.58049E-04 3.95252E-06-8.27181E-25
 -1       800 1.58094E-04 2.93161E-06 0.00000E+00
 -1       801 1.24881E-04 1.85593E-05 0.00000E+00
 -1       802 2.59669E-05 1.20026E-05 0.00000E+00
 -1       803-6.11324E-05 6.33875E-06-5.29396E-23
 -1       804-5.92352E-05 4.30028E-06 0.00000E+00
 -1       805-2.04030E-05 1.89896E-06 5.29396E-23
 -1       806 1.57862E-04 1.94413E-05 0.00000E+00
 -1       807 1.58272E-04 1.80082E-05-8.27181E-25
 -1       808 1.58669E-04 1.66060E-05 0.00000E+00
 -1       809 1.59053E-04 1.52380E-05-1.65436E-24
 -1       810 1.59422E-04 1.39073E-05 3.30872E-24
 -1       811 1.59777E-04 1.26172E-05 0.00000E+00
 -1       812 1.60115E-04 1.13706E-05-1.65436E-24
 -1       813 1.60436E-04 1.01706E-05-8.27181E-25
 -1       814 1.60739E-04 9.02034E-06 3.30872E-24
 -1       815 1.61021E-04 7.92288E-06-1.65436E-24
 -1       816 1.61283E-04 6.88127E-06 1.65436E-24
 -1       817 1.61523E-04 5.89856E-06 0.00000E+00
 -1       818 1.61739E-04 4.97780E-06-1.65436E-24
 -1       819 1.61932E-04 4.12205E-06 8.27181E-25
 -1       820 1.62099E-04 3.33431E-06 0.00000E+00
 -1       821 1.58024E-04 8.56950E-07 0.00000E+00
 -1       822 1.57903E-04-5.21938E-07-1.65436E-24
 -1       823 1.57782E-04-2.02943E-06 0.00000E+00
 -1       824 1.57659E-04-3.51188E-06-1.65436E-24
 -1       825 1.57537E-04-4.82201E-06 0.00000E+00
 -1       826 1.57415E-04-5.81340E-06 0.00000E+00
 -1       827 1.57293E-04-6.41828E-06 0.00000E+00
 -1       828 1.57171E-04-6.57096E-06 1.65436E-24
 -1       829 1.57050E-04-6.31729E-06 0.00000E+00
 -1       830 1.56928E-04-5.70528E-06 1.65436E-24
 -1       831 1.56806E-04-4.87133E-06 0.00000E+00
 -1       832 1.56684E-04-3.95305E-06 0.00000E+00
 -1       833 1.56563E-04-3.10887E-06 3.30872E-24
 -1       834 1.56443E-04-2.49678E-06-8.27181E-25
 -1       835 1.56322E-04-2.21775E-06-8.27181E-25
 -1       836 1.59008E-04 2.06452E-06 0.00000E+00
 -1       837 1.59763E-04 2.17734E-06 0.00000E+00
 -1       838 1.60433E-04 2.29003E-06 0.00000E+00
 -1       839 1.61048E-04 2.40206E-06-8.27181E-25
 -1       840 1.61641E-04 2.51391E-06 4.13590E-25
 -1       856 1.56189E-04-2.67383E-06 4.13590E-25
 -1       857 1.56166E-04-2.85199E-06 0.00000E+00
 -1       858 1.56143E-04-2.92480E-06 0.00000E+00
 -1       859 1.56120E-04-2.91183E-06-2.06795E-25
 -1       860 1.56096E-04-2.83271E-06-8.27181E-25
 -1       861 1.56073E-04-2.70714E-06-4.13590E-25
 -1       862 1.56049E-04-2.55484E-06 0.00000E+00
 -1       863 1.56025E-04-2.39558E-06 0.00000E+00
 -1       864 1.56002E-04-2.24913E-06 0.00000E+00
 -1       865 1.55978E-04-2.13523E-06 0.00000E+00
 -1       866 1.55954E-04-2.07361E-06-8.27181E-25
 -1       867 1.55931E-04-2.08396E-06 4.13590E-25
 -1       868 1.55907E-04-2.18588E-06 0.00000E+00
 -1       869 1.55883E-04-2.39891E-06 0.00000E+00
 -1       870 1.55859E-04-2.74248E-06 0.00000E+00
 -1       871 1.56768E-04-2.37360E-06 4.13590E-25
 -1       872 1.57459E-04-2.37924E-06 0.00000E+00
 -1       873 1.58223E-04-2.38545E-06 0.00000E+00
 -1       874 1.58999E-04-2.39232E-06-2.58494E-25
 -1       875 1.59729E-04-2.39974E-06-4.13590E-25
 -1       876 1.56438E-04-2.66114E-06 0.00000E+00
 -1       877 1.56646E-04-2.89033E-06 0.00000E+00
 -1       878 1.56835E-04-3.06578E-06 3.30872E-24
 -1       879 1.57006E-04-3.19426E-06 1.65436E-24
 -1       880 1.57163E-04-3.28260E-06-3.30872E-24
 -1       881 1.57307E-04-3.33759E-06-1.65436E-24
 -1       882 1.57441E-04-3.36600E-06 3.30872E-24
 -1       883 1.57567E-04-3.37459E-06 0.00000E+00
 -1       884 1.57689E-04-3.37012E-06 0.00000E+00
 -1       885 1.57808E-04-3.35935E-06 1.65436E-24
 -1       886 1.57928E-04-3.34903E-06 0.00000E+00
 -1       887 1.58050E-04-3.34594E-06 1.65436E-24
 -1       888 1.58177E-04-3.35684E-06 0.00000E+00
 -1       889 1.58311E-04-3.38865E-06-1.65436E-24
 -1       890 1.58455E-04-3.44809E-06 0.00000E+00
 -1       891 1.56429E-04-3.28753E-06 0.00000E+00
 -1       892 1.57002E-04-3.33929E-06-4.13590E-25
 -1       893 1.57530E-04-3.39100E-06-8.27181E-25
 -1       894 1.57989E-04-3.44252E-06-4.13590E-25
 -1       895 1.58356E-04-3.49388E-06 4.13590E-25
 -1       956 1.62125E-04 2.05008E-06 1.65436E-24
 -1       957 1.62007E-04 1.56013E-06 0.00000E+00
 -1       958 1.61889E-04 1.13880E-06 0.00000E+00
 -1       959 1.61771E-04 7.76640E-07 0.00000E+00
 -1       960 1.61652E-04 4.64204E-07 0.00000E+00
 -1       961 1.61534E-04 1.91987E-07 0.00000E+00
 -1       962 1.61415E-04-4.95145E-08 3.30872E-24
 -1       963 1.61296E-04-2.69821E-07 0.00000E+00
 -1       964 1.61178E-04-4.78446E-07-3.30872E-24
 -1       965 1.61059E-04-6.84907E-07 1.65436E-24
 -1       966 1.60941E-04-8.98727E-07 3.30872E-24
 -1       967 1.60822E-04-1.12942E-06 0.00000E+00
 -1       968 1.60704E-04-1.38649E-06 3.30872E-24
 -1       969 1.60586E-04-1.67943E-06 1.65436E-24
 -1       970 1.60468E-04-2.01770E-06 0.00000E+00
 -1       971 1.60243E-04-2.79470E-06 1.65436E-24
 -1       972 1.60134E-04-3.08965E-06-1.65436E-24
 -1       973 1.60025E-04-3.30507E-06 3.30872E-24
 -1       974 1.59915E-04-3.45123E-06 0.00000E+00
 -1       975 1.59805E-04-3.53837E-06 0.00000E+00
 -1       976 1.59696E-04-3.57675E-06-1.65436E-24
 -1       977 1.59586E-04-3.57666E-06 3.30872E-24
 -1       978 1.59476E-04-3.54841E-06 0.00000E+00
 -1       979 1.59367E-04-3.50227E-06 0.00000E+00
 -1       980 1.59257E-04-3.44856E-06 0.00000E+00
 -1       981 1.59147E-04-3.39757E-06 0.00000E+00
 -1       982 1.59038E-04-3.35961E-06 1.65436E-24
 -1       983 1.58928E-04-3.34499E-06 0.00000E+00
 -1       984 1.58819E-04-3.36397E-06 3.30872E-24
 -1       985 1.58711E-04-3.42684E-06 0.00000E+00
 -3
    1PSTEP                        16           8           1          
  100CL  108 6.09375E-01         409                     0    8           1
 -4  STRESS      6    1
 -5  SXX         1    4    1    1
 -5  SYY         1    4    2    2
 -5  SZZ         1    4    3    3
 -5  SXY         1    4    1    2
 -5  SYZ         1    4    2    3
 -5  SZX         1    4    3    1
 -1         1-3.72520E+06-1.43762E+06-8.15141E+05-1.51053E+06 5.45697E-10-4.41214E-08
 -1         2 8.06568E+02-1.73369E+06 2.89042E+03 1.57455E+04 2.53337E-10 6.35747E-08
 -1         3-8.47304E+02-1.50886E+06 3.67474E+02-1.62121E+03-5.16629E-10 2.52658E-08
 -1         5-1.72889E+01 3.37394E+05 8.66032E+00-4.81091E-01-2.69114E-10-1.35688E-08
 -1         8-8.01444E+05-2.73890E+05-7.44669E+04-4.52518E+05 2.00089E-10-1.74005E-08
 -1         9 3.70829E+06-6.98725E+05 6.82263E+05-7.94426E+05 2.97150E-08-8.00705E-08
 -1        10-1.76071E+03-1.57219E+06-3.20889E+03-1.09582E+04-1.06975E-08-9.90883E-09
 -1        12-1.37639E+01 3.37413E+05 2.81429E+02-3.46669E+00-2.63725E-10 1.06661E-08
 -1        15 1.52497E+03 8.31768E+02 4.83682E+03 2.59819E+00 5.97424E-11-8.72795E-08
 -1        16 9.32625E+06-3.93388E+05 1.34351E+06-1.07997E+06 9.60426E-09 2.04775E-07
 -1        17 3.21883E+06 2.11675E+06 8.83540E+05 2.18430E+06 7.45349E-09 9.81963E-09
 -1        18 6.19045E+04 1.18889E+04-1.16931E+04-9.94983E+04 1.09426E-08-3.65662E-09
 -1        19 1.07955E+05 1.24350E+05-8.64988E+02 2.03012E+04 7.23594E-10 2.53567E-10
 -1        20-6.47756E+04-5.08508E+05-1.13557E+05 2.67204E+04 1.89023E-10-1.71955E-09
 -1        21-4.32621E+01-2.72086E+05-8.58319E+02 1.07932E+02 5.87816E-09-1.80303E-08
 -1        24 5.02677E+06 4.51409E+06 1.58548E+06 4.11897E+06-1.07044E-07-4.02991E-08
 -1        25-8.25501E+03-2.22921E+05-2.55157E+04-3.69193E+05 4.09636E-10 1.99438E-08
 -1        26-4.61044E+04 8.06748E+04-2.15009E+04-1.57467E+03 8.29459E-10 6.19133E-09
 -1        27-7.09537E+04-2.75793E+05-1.01731E+05 6.17337E+04 4.75787E-09-3.46457E-09
 -1        28 2.06858E+04-7.74420E+04 1.54923E+04 2.04931E+04-1.17072E-09 7.51765E-09
 -1        32-1.53444E+06-2.69098E+06-1.39290E+05-3.16546E+04-3.35276E-08-3.34063E-09
 -1        33-1.60282E+05 8.11218E+04 2.86198E+04-3.58470E+04-1.25965E-09-5.79803E-09
 -1        34-2.01232E+05-2.15591E+04 5.80209E+02 6.60415E+04-1.61484E-09 3.01179E-09
 -1        35-2.11977E+04-3.07338E+04-1.21872E+03 4.73706E+04-9.28774E-11 6.52290E-09
 -1        51 4.06070E+04-2.52543E+05 8.95939E+04-7.37811E+05 5.82077E-11 2.09693E-08
 -1        52 1.57794E+04-2.39600E+05 4.98055E+04-8.60296E+05 5.16593E-10 1.19762E-07
 -1        53 5.66639E+03-2.54558E+05 3.04012E+04-7.35154E+05 8.58563E-10 2.39612E-07
 -1        54 1.40408E+04-2.51487E+05 3.39827E+04-8.63049E+05-5.23869E-10 1.17121E-07
 -1        55 2.89841E+04-2.62376E+05 5.18538E+04-7.34768E+05 8.07631E-10 1.33423E-07
 -1        56-7.06198E+06-7.95324E+05-6.02290E+05-2.75156E+06-1.77679E-08-2.24099E-09
 -1        57-7.39302E+06-1.25197E+06-4.06189E+05-2.62485E+06 1.21763E-08 4.96984E-08
 -1        58-7.16429E+06-1.00516E+06-1.41526E+05-2.73438E+06 2.04454E-09 3.41242E-09
 -1        59-7.27859E+06-1.00201E+06-8.44019E+04-2.64187E+06-1.23237E-09-8.97999E-08
 -1        60-7.17489E+06-1.03853E+06-3.29194E+04-2.73683E+06-7.03494E-10-1.82408E-08
 -1        61-7.26003E+06-9.68788E+05-1.86642E+04-2.64564E+06-3.10877E-08-8.52106E-08
 -1        62-7.18242E+06-1.03751E+06-8.99068E+03-2.73081E+06-2.47655E-09 7.59483E-08
 -1        63-7.23750E+06-9.83812E+05-7.11803E+03-2.66707E+06-5.04497E-09 1.38666E-07
 -1        64-7.19679E+06-1.02378E+06-8.41137E+03-2.71501E+06-3.50337E-09 8.09024E-08
 -1        65-7.20745E+06-1.01860E+06-1.62232E+04-2.70212E+06-2.22576E-08 1.01401E-07
 -1        66-7.21216E+06-1.00305E+06-2.90014E+04-2.69549E+06 1.49621E-08-1.45301E-08
 -1        67-7.19382E+06-1.07793E+06-7.33510E+04-2.73425E+06-1.18016E-08-4.25762E-08
 -1        68-7.21117E+06-9.64962E+05-1.23176E+05-2.68298E+06-2.74304E-09 5.94882E-08
 -1        69-7.29411E+06-1.29663E+06-3.53572E+05-2.72240E+06-2.91766E-08 3.83588E-08
 -1        70-7.11431E+06-7.89545E+05-5.24018E+05-2.70614E+06 7.95990E-09-6.05942E-08
 -1        86-5.02082E+02-1.74071E+06 1.75853E+03-7.87251E+03-3.47410E-09 2.04286E-08
 -1        87 2.33782E+03-1.73508E+06 5.04999E+03 2.66072E+04-5.91172E-09-2.38769E-08
 -1        88-1.85837E+03-1.73953E+06 7.01538E+03-1.87345E+04-6.35100E-09-3.12946E-08
 -1        89 1.36684E+04-1.73175E+06 1.91439E+04 3.67419E+04-9.48580E-09-8.98683E-09
 -1        90-1.16406E+04-1.74420E+06 2.67912E+04-1.80085E+04-5.18412E-09 9.33391E-08
 -1       121-1.17823E+03-1.51176E+06-1.55309E+02 8.06393E+02 1.10836E-09-9.06584E-09
 -1       122-6.95872E+02-1.50886E+06 7.40119E+02-3.24003E+03-4.26999E-09 1.62072E-09
 -1       123-1.22525E+03-1.51187E+06 6.64809E+02 2.40858E+03 3.29760E-09 1.66001E-08
 -1       124 8.09902E+02-1.50825E+06 2.96010E+03-6.79646E+03-7.75390E-09 2.75813E-08
 -1       125-2.06465E+03-1.51270E+06 3.94875E+03 4.34398E+03 5.07498E-09-9.47693E-09
 -1       191-1.84326E+01 3.37421E+05 9.79346E+00 2.43859E-01-2.45791E-10 3.72074E-09
 -1       192-1.80919E+01 3.37395E+05 1.83631E+01-1.74383E+00-3.40224E-10 1.11249E-08
 -1       193-2.05636E+01 3.37420E+05 3.36070E+01 1.52112E+00-5.17179E-10-4.09727E-09
 -1       194-2.06740E+01 3.37398E+05 6.95212E+01-4.03267E+00-2.82443E-10 5.78802E-09
 -1       195-2.46574E+01 3.37418E+05 1.35440E+02 2.56073E+00-7.41199E-10-1.04355E-08
 -1       251-2.08214E+06-2.09468E+04-1.80552E+05 1.00080E+05 2.44108E-09 3.25417E-08
 -1       252-1.25749E+06 2.32194E+04 3.87113E+04-3.50769E+05-2.62617E-09 1.05365E-07
 -1       253-1.74614E+06-1.13807E+04-3.61366E+04 2.49831E+05-1.67056E-08 1.04619E-07
 -1       254-1.65088E+06 4.66451E+04 5.80107E+03-5.02408E+05 5.00449E-09-1.17700E-07
 -1       255-1.72823E+06-1.18839E+04-1.43029E+04 2.54583E+05-8.37372E-09 9.01537E-09
 -1       256-1.28958E+06 3.96892E+04 8.18883E+04-3.70159E+05 8.14907E-10 1.56359E-07
 -1       257-2.07192E+06-3.35976E+04-8.44793E+04 1.14890E+05-3.14303E-08 3.28237E-08
 -1       258-9.05878E+05 3.05488E+04 1.55072E+05-1.33424E+03-5.76265E-08-1.00353E-07
 -1       259-2.07404E+06-3.37787E+04-8.34408E+04-1.12612E+05-1.65019E-08-3.86900E-08
 -1       260-1.28428E+06 4.06458E+04 8.68799E+04 3.68655E+05-7.13408E-09 3.45719E-08
 -1       261-1.73097E+06-1.30032E+04-7.11336E+03-2.53391E+05-5.61495E-08 1.38912E-07
 -1       262-1.64622E+06 5.52252E+04 2.46792E+04 5.02912E+05 4.11817E-08-2.36735E-08
 -1       263-1.74806E+06-1.87975E+04-5.33131E+03-2.49557E+05 5.64614E-09-4.00964E-08
 -1       264-1.23466E+06 8.11478E+04 1.20652E+05 3.54254E+05-1.01513E-07 2.58256E-08
 -1       265-2.10341E+06-7.09165E+04-6.26589E+04-1.01915E+05-3.35513E-08 6.67224E-08
 -1       266-2.72340E+04-1.26688E+04 6.34096E+04-5.45916E+01-3.63798E-11-8.97666E-08
 -1       267 3.15558E+04 1.47788E+04 4.48929E+04 6.28818E+01-4.54747E-11 1.27480E-08
 -1       268-4.26333E+03-2.10367E+03 1.66539E+04-8.09458E+00-1.90994E-11 7.88675E-08
 -1       269 5.03307E+03 2.51989E+03 1.08522E+04 9.41961E+00-6.33236E-11-6.35384E-08
 -1       270-7.61432E+02-4.15879E+02 5.22551E+03-1.29516E+00 7.12816E-11-1.37253E-08
 -1       271-2.44009E+06-2.98418E+05-1.81855E+05-9.40432E+05 5.90444E-09 5.44751E-08
 -1       272-2.54414E+06-3.93506E+05-1.17090E+05-8.96082E+05 8.55653E-09-4.33647E-08
 -1       273-2.47345E+06-3.44815E+05-4.29259E+04-9.33301E+05-1.39680E-08-2.93403E-09
 -1       274-2.50457E+06-3.36971E+05-2.40815E+04-9.07053E+05 2.91743E-09 6.15837E-08
 -1       275-2.47852E+06-3.49286E+05-1.00070E+04-9.31464E+05 1.80139E-08 5.17330E-08
 -1       276-2.49727E+06-3.32746E+05-5.27208E+03-9.10571E+05-8.96353E-09-5.20165E-08
 -1       277-2.48040E+06-3.48599E+05-2.62656E+03-9.29825E+05 6.62476E-09-2.25600E-09
 -1       278-2.49350E+06-3.35079E+05-1.73786E+03-9.13947E+05-4.40923E-09 1.04417E-07
 -1       279-2.48204E+06-3.47045E+05-1.89964E+03-9.27945E+05-4.44197E-09-3.36190E-08
 -1       280-2.49018E+06-3.38885E+05-3.14504E+03-9.17738E+05 1.44291E-08 4.11023E-09
 -1       281-2.48356E+06-3.44929E+05-5.88510E+03-9.25905E+05 4.68026E-09 8.25571E-08
 -1       282-2.48905E+06-3.46397E+05-1.37402E+04-9.21426E+05 4.03270E-09 1.10466E-07
 -1       283-2.48315E+06-3.39925E+05-2.46462E+04-9.24080E+05 4.03270E-09 2.01271E-08
 -1       284-2.50667E+06-3.83559E+05-6.68204E+04-9.20739E+05-1.43964E-08-1.02855E-08
 -1       285-2.46649E+06-3.11090E+05-1.04025E+05-9.25410E+05 2.18643E-09 8.33461E-08
 -1       301 1.94563E+04-3.44782E+05 1.73021E+05-6.24651E+05 7.85803E-10 3.05808E-08
 -1       302 2.09343E+04-3.01154E+05 1.07672E+05-9.13712E+05-1.18234E-09 6.92417E-08
 -1       303-1.88973E+03-3.28736E+05 7.12176E+04-6.23200E+05 2.91038E-10 1.10518E-07
 -1       304 1.36720E+04-3.02637E+05 8.97012E+04-9.13054E+05-1.09139E-10-3.48991E-08
 -1       305 1.02500E+04-3.35216E+05 1.32701E+05-6.25288E+05-4.60204E-10 3.78277E-08
 -1       306-1.78556E+07-3.25726E+06-4.32292E+06-1.85240E+06-6.19330E-08 4.72646E-08
 -1       307 1.10093E+07-5.64731E+05 2.59293E+06-8.08118E+06-5.97211E-07-4.35393E-08
 -1       308-8.17364E+06 1.07123E+05-4.05668E+05 2.38453E+06-5.89062E-08 1.09894E-07
 -1       309-3.22523E+06 8.15677E+05 8.27084E+05-1.32071E+07 3.93304E-07 1.15810E-07
 -1       310-9.17982E+06-5.52200E+04-6.04185E+05 2.19446E+06-7.90751E-08-1.70967E-07
 -1       311 1.33027E+07-1.25845E+06 3.09355E+06-6.50170E+06 5.82979E-07-3.74566E-08
 -1       312-1.80945E+07-3.23758E+06-3.78777E+06-2.79144E+06-5.67525E-08 7.17264E-08
 -1       313 2.00117E+07 4.42683E+06 5.02787E+06 8.37990E+06-3.00613E-07-8.57835E-08
 -1       314-1.28040E+07-7.79152E+06-3.59154E+06-7.33350E+06 2.17697E-07 8.26549E-09
 -1       315-2.25069E+06 1.24084E+07 2.79923E+06 6.61156E+06-2.75730E-07-1.17579E-08
 -1       316-1.97661E+06-6.26758E+06-3.49803E+05-4.35096E+06-6.61617E-07-2.83035E-07
 -1       317-1.45300E+07 1.20740E+07 8.06984E+05-1.42933E+06 5.37253E-07-3.96522E-07
 -1       318-2.46898E+06-6.54464E+06-6.81631E+05-4.54712E+06-5.91157E-07-1.40280E-08
 -1       319-5.28421E+05 1.27905E+07 2.81411E+06 7.16226E+06-7.65649E-08 1.14887E-07
 -1       320-1.37298E+07-8.09453E+06-4.63618E+06-7.20426E+06 1.29163E-07-3.02389E-08
 -1       336 1.41090E+02-1.63653E+06-1.16918E+04 6.54180E+03-1.97497E-08 2.39997E-08
 -1       337-4.46299E+03-1.63752E+06-1.47930E+04-1.58435E+04-3.69414E-08-8.83301E-09
 -1       338 6.26691E+02-1.63628E+06-2.21537E+04 9.18880E+03-2.64363E-08 1.72440E-09
 -1       339-2.35257E+04-1.65031E+06-5.00099E+04-2.10067E+04-4.77021E-08 2.36032E-08
 -1       340 1.57355E+04-1.62497E+06-7.83602E+04 1.16280E+04-3.11848E-08 2.06128E-08
 -1       406 7.18980E+00 3.37405E+05 5.55030E+02 9.79125E-01-8.31697E-10-1.36424E-10
 -1       407 1.80022E+02 3.37510E+05 1.18084E+03 1.21004E+01-1.24651E-10-4.02815E-08
 -1       408 5.93715E+02 3.37320E+05 2.35761E+03-1.34072E+01-1.19326E-09-1.95478E-08
 -1       409 2.53725E+03 3.38263E+05 5.30873E+03 1.37228E+02-3.09171E-10-7.71979E-09
 -1       410 7.31453E+03 3.36648E+05 1.08370E+04-1.30808E+02-1.42700E-09-5.53791E-09
 -1       521-1.98472E+07-4.07269E+06-5.22996E+06-1.80225E+06-8.59145E-08-1.57161E-09
 -1       522 1.17705E+07-5.10388E+05 2.71876E+06-1.03391E+07-3.99246E-07-1.46014E-07
 -1       523-9.39084E+06-3.89582E+04-4.57112E+05 2.78950E+06-1.83936E-08-1.15233E-07
 -1       524-5.25971E+06 1.98339E+06 9.44044E+05-1.59681E+07 5.78675E-07-4.34231E-07
 -1       525-1.05425E+07-2.84127E+05-6.96613E+05 2.57497E+06 2.64496E-07-2.34737E-07
 -1       526 1.48265E+07-1.42107E+06 3.39044E+06-8.39678E+06-7.48551E-08 5.45988E-08
 -1       527-2.01757E+07-4.16119E+06-4.50692E+06-2.88380E+06 1.89815E-07-1.00976E-07
 -1       528 2.26883E+07 4.90646E+06 5.45623E+06 9.77338E+06 1.77388E-07-1.63156E-07
 -1       529-1.42037E+07-9.30009E+06-4.26665E+06-7.96036E+06-8.05594E-08 1.92085E-09
 -1       530-3.87316E+06 1.51171E+07 3.08118E+06 7.15421E+06-4.82207E-07 5.15342E-07
 -1       531-2.28926E+06-7.44178E+06-3.84747E+05-4.89763E+06-5.64149E-07 1.28697E-07
 -1       532-1.77618E+07 1.44371E+07 9.45118E+05-3.13516E+06 3.62554E-07-3.55831E-07
 -1       533-2.76235E+06-7.71993E+06-7.37071E+05-5.06531E+06-5.89062E-08-6.88975E-07
 -1       534-2.09478E+06 1.55628E+07 3.07250E+06 7.76016E+06-1.21538E-07 5.33968E-07
 -1       535-1.51597E+07-9.68335E+06-5.42194E+06-7.80796E+06 4.90109E-08 3.11848E-07
 -1       536-5.77280E+05-3.83920E+04-3.59622E+03-3.76325E+04-5.10954E-09 5.91917E-08
 -1       537-1.80245E+05 3.86970E+04 6.73340E+04 8.99001E+04-9.12750E-08 7.09479E-08
 -1       538-3.87524E+05 4.70421E+02 8.69465E+03-5.43514E+04 3.31506E-08 9.11750E-08
 -1       539-3.12424E+05 3.11024E+03 1.86086E+04 1.02831E+05 1.52091E-07 8.16527E-08
 -1       540-4.48279E+05-2.04705E+02-1.09454E+04-5.08030E+04 1.46770E-08 7.79894E-08
 -1       541-6.27951E+04 1.02618E+04 6.46349E+04 6.89181E+04-2.10597E-08 5.71287E-08
 -1       542-6.30456E+05-1.22155E+04-5.03005E+04-2.00438E+04 2.88992E-08 4.26687E-08
 -1       543 9.06412E+04 1.64335E+04 9.44782E+04-1.05216E+04-3.02198E-08-2.60798E-10
 -1       544-5.97628E+05-9.73625E+03-4.45748E+04 2.83255E+04-1.02345E-08-2.68555E-08
 -1       545-1.38274E+05 5.12684E+03 4.62661E+04-8.25316E+04-9.16032E-09-5.17269E-08
 -1       546-4.07637E+05 4.10432E+03-7.88858E+03 5.18190E+04 2.39417E-08-7.69747E-08
 -1       547-3.25328E+05-4.52379E+03 3.21105E+03-1.05220E+05-8.44288E-08-8.09923E-08
 -1       548-4.15548E+05 4.02554E+03-1.87655E+04 5.13266E+04-7.76506E-08-8.50096E-08
 -1       549-1.23723E+05 1.15006E+03 2.47980E+04-7.96656E+04-4.91350E-08-4.26785E-08
 -1       550-6.03806E+05-6.06643E+03-9.43837E+04 2.59334E+04 5.15774E-09-2.55714E-08
 -1       551 3.11257E+04-7.30309E+05 7.45827E+03-1.13870E+06-7.93007E-08-2.02854E-08
 -1       552 6.98182E+04-7.59211E+05 2.29771E+04-1.62341E+06-5.81495E-08 3.05590E-08
 -1       553 5.22472E+04-7.60577E+05 4.07012E+04-1.13343E+06-9.22373E-08 1.85755E-08
 -1       554 1.02864E+05-7.66042E+05 9.10646E+04-1.62530E+06-5.68689E-08 1.09358E-08
 -1       555 8.16007E+04-7.81978E+05 1.63197E+05-1.13378E+06-9.68212E-08-1.29003E-08
 -1       556 1.70929E+05-3.02663E+05 5.20452E+04-3.45376E+05-1.88738E-08-2.49420E-08
 -1       557 2.81439E+05-3.91386E+05 2.87631E+04-4.41530E+05-4.19095E-09-8.58381E-09
 -1       558 1.60792E+05-3.03753E+05 9.37627E+03-3.43415E+05-1.43191E-08 1.13214E-08
 -1       559 2.61511E+05-3.96417E+05 5.44496E+03-4.55190E+05 1.83354E-08 1.53668E-08
 -1       560 1.51098E+05-2.97614E+05 9.21448E+02-3.50220E+05-3.63798E-09-7.91988E-09
 -1       561 2.48957E+05-3.91669E+05 9.93392E+02-4.63576E+05-1.12923E-08-1.61235E-08
 -1       562 1.43458E+05-2.92808E+05-3.30731E+02-3.55717E+05 2.73576E-09-1.34423E-09
 -1       563 2.39933E+05-3.87735E+05 2.20101E+02-4.69426E+05-1.62981E-09-6.10316E-09
 -1       564 1.38153E+05-2.89486E+05-2.00816E+02-3.59465E+05 9.45874E-09-3.33421E-09
 -1       565 2.34209E+05-3.85245E+05 9.53312E+01-4.73070E+05 1.01063E-08-2.79761E-09
 -1       566 1.35270E+05-2.87654E+05-9.41999E+01-3.61485E+05 9.85892E-10 8.73115E-10
 -1       567 2.31784E+05-3.84184E+05-2.03912E+02-4.74501E+05 1.86919E-08 3.83079E-09
 -1       568 1.34872E+05-2.87421E+05-7.20209E+02-3.61859E+05-6.59838E-10 4.72210E-09
 -1       569 2.31520E+05-3.84158E+05-1.81647E+03-4.72816E+05-2.51839E-09-3.90355E-09
 -1       570 1.37863E+05-2.90078E+05-4.06098E+03-3.61124E+05 1.99361E-09-2.52812E-08
 -1       571 2.55044E+05 9.28449E+03 1.34808E+04-7.53931E+04 1.47975E-09-2.12094E-09
 -1       572 2.57022E+05 3.37539E+03 6.60574E+03-8.27090E+04 3.72711E-09-2.88310E-09
 -1       573 2.55834E+05 9.48901E+02 2.93497E+03-7.52415E+04 1.03773E-09-1.01913E-08
 -1       574 2.56048E+05 4.62513E+02 1.47130E+03-8.28929E+04 1.84627E-10-8.75207E-09
 -1       575 2.55922E+05 2.29720E+02 6.94171E+02-7.52210E+04 3.91418E-09 1.15415E-08
 -1       576 2.55923E+05 2.23365E+02 3.54846E+02-8.29174E+04 8.55039E-09 1.23146E-09
 -1       577 2.55948E+05 1.82937E+02 1.76827E+02-7.52182E+04-1.28439E-08 1.25101E-08
 -1       578 2.55933E+05 1.98504E+02 1.01063E+02-8.29207E+04-3.77804E-08-1.20344E-08
 -1       579 2.55992E+05 1.62950E+02 6.87784E+01-7.52180E+04-1.25419E-08-5.32691E-09
 -1       580 2.55994E+05 1.69505E+02 7.75425E+01-8.29165E+04-7.00675E-09 1.20453E-08
 -1       581 2.56060E+05 1.30253E+02 1.17150E+02-7.52226E+04 8.51287E-10 1.54068E-09
 -1       582 2.56105E+05 1.57714E+02 2.35541E+02-8.28679E+04-1.95723E-09 6.83076E-09
 -1       583 2.56141E+05 1.87702E+02 4.54596E+02-7.52668E+04-1.32077E-08-8.18545E-10
 -1       584 2.56375E+05 5.53766E+02 1.02553E+03-8.24964E+04-1.78661E-08 3.08137E-09
 -1       585 2.56123E+05 1.43724E+03 2.08064E+03-7.55940E+04-8.66930E-09 7.78527E-10
 -1       586-3.09926E+03 9.32704E+04-3.22165E+03-2.24290E+05-3.10638E-09-5.35601E-09
 -1       587-9.68837E+02 9.29260E+04 3.04263E+02-2.46866E+05-2.20462E-09-1.73043E-09
 -1       588 6.13592E+02 9.28635E+04 3.91582E+03-2.24178E+05-4.40377E-09 2.22826E-10
 -1       589 4.68140E+03 9.49367E+04 1.04869E+04-2.46627E+05-5.42786E-09-2.42044E-08
 -1       590 1.45246E+04 9.17148E+04 2.21282E+04-2.24563E+05-1.65346E-09-1.26565E-08
 -1       591-5.88294E+04-1.36411E+04-1.88108E+04-2.63744E+04 3.98313E-09-5.43878E-10
 -1       592-6.18795E+04-1.69753E+04-1.01892E+04-2.98154E+04 3.84205E-09-1.31240E-09
 -1       593-6.07137E+04-1.22730E+04-4.24141E+03-2.77508E+04 2.53331E-09-4.25393E-09
 -1       594-5.92774E+04-1.42204E+04-2.11535E+03-2.99203E+04 8.80192E-09-6.68734E-09
 -1       595-6.08575E+04-1.22682E+04-9.71401E+02-2.78134E+04 3.29253E-09 1.07240E-08
 -1       596-5.90996E+04-1.40944E+04-4.94059E+02-2.98996E+04 2.64451E-09 1.55073E-08
 -1       597-6.08756E+04-1.22809E+04-2.69535E+02-2.78158E+04-2.66937E-10 2.90896E-09
 -1       598-5.90821E+04-1.40895E+04-2.17606E+02-2.98938E+04-2.89901E-10 1.93415E-08
 -1       599-6.08744E+04-1.22812E+04-2.79124E+02-2.78154E+04 2.54056E-09 4.10671E-09
 -1       600-5.90999E+04-1.40952E+04-5.19448E+02-2.98981E+04 4.70970E-09 2.79533E-09
 -1       601-6.08531E+04-1.22688E+04-1.02523E+03-2.78122E+04 1.94200E-09 1.26845E-08
 -1       602-5.92875E+04-1.42276E+04-2.23464E+03-2.99168E+04-2.10275E-09 9.56982E-09
 -1       603-6.06989E+04-1.22764E+04-4.48150E+03-2.77467E+04-1.88447E-09-1.17907E-08
 -1       604-6.20516E+04-1.71220E+04-1.07655E+04-2.97852E+04 3.39912E-09-5.78893E-10
 -1       605-5.86909E+04-1.37368E+04-1.98747E+04-2.63086E+04 2.26834E-09 1.06620E-08
 -1       606 2.70319E+04-1.23990E+04-2.22538E+04 2.52535E+04 1.75351E-09-4.78576E-09
 -1       607 2.32269E+04-4.03558E+03-1.10819E+04 2.83642E+04 1.04046E-09-9.34870E-09
 -1       608 2.53913E+04-7.14997E+02-4.96163E+03 2.50637E+04 3.20142E-10 7.12726E-09
 -1       609 2.49710E+04-2.28472E+02-2.50627E+03 2.85878E+04-1.16052E-09 1.03037E-08
 -1       610 2.52006E+04-1.56259E+01-1.19627E+03 2.50419E+04 9.88530E-09 1.62458E-09
 -1       611 2.51300E+04-1.02341E+01-6.03136E+02 2.86121E+04 2.00794E-08-5.33487E-09
 -1       612 2.51549E+04-6.89788E-01-2.87260E+02 2.50397E+04 8.21728E-09-1.57297E-09
 -1       613 2.51349E+04-3.85295E+00-1.29158E+02 2.86149E+04 8.36735E-11-1.05279E-08
 -1       614 2.51318E+04-3.75344E+00-3.16140E+01 2.50389E+04 1.19871E-09-3.25144E-09
 -1       615 2.51263E+04-3.50188E-01 5.11313E+01 2.86154E+04 3.88854E-09 1.03471E-08
 -1       616 2.51139E+04 7.75225E-01 1.56053E+02 2.50392E+04-4.47017E-10 1.88743E-09
 -1       617 2.51421E+04 3.47216E+01 3.57228E+02 2.86149E+04-2.22281E-09-3.24826E-09
 -1       618 2.50806E+04 1.05152E+02 7.20415E+02 2.50394E+04-5.92081E-10-3.56135E-09
 -1       619 2.53947E+04 5.92888E+02 1.61805E+03 2.86141E+04-1.78375E-10 4.62478E-10
 -1       620 2.48402E+04 1.81447E+03 3.25226E+03 2.50394E+04 1.54853E-09-1.15333E-08
 -1       621 3.62123E+02 2.62122E+05 3.07369E+03 2.73127E+04 5.27280E-10-5.38148E-09
 -1       622 4.61050E+02 2.62856E+05 2.79952E+03 3.96921E+04 5.12046E-10 1.73168E-09
 -1       623 6.19461E+01 2.62287E+05 3.46099E+03 2.71862E+04 7.85462E-10-2.18279E-11
 -1       624 1.70601E+03 2.63948E+05 6.78649E+03 3.98187E+04 7.25180E-10-1.45762E-08
 -1       625 1.69485E+03 2.60946E+05 1.18970E+04 2.71834E+04 7.43967E-10-8.01128E-09
 -1       626 2.29664E+05 5.70571E+04 4.77975E+03 1.15307E+05-1.61958E-08 5.83168E-09
 -1       627 2.27326E+05 5.85363E+04 2.30330E+03 1.19488E+05-3.13676E-08 2.33686E-08
 -1       628 2.29795E+05 5.48550E+04 9.73699E+02 1.16100E+05-2.59915E-08-5.19685E-09
 -1       629 2.26711E+05 5.79215E+04 4.76625E+02 1.19730E+05-6.76118E-09 5.03343E-09
 -1       630 2.29807E+05 5.47497E+04 2.20685E+02 1.16130E+05 2.28829E-09-5.75133E-09
 -1       631 2.26643E+05 5.79004E+04 1.18268E+02 1.19731E+05 6.51380E-09 2.48068E-09
 -1       632 2.29801E+05 5.47551E+04 7.69665E+01 1.16124E+05 8.26412E-09-7.68750E-09
 -1       633 2.26632E+05 5.79038E+04 8.44108E+01 1.19726E+05 2.11360E-08-7.32462E-09
 -1       634 2.29794E+05 5.47541E+04 1.35224E+02 1.16122E+05 2.19015E-08-1.41765E-08
 -1       635 2.26642E+05 5.79035E+04 2.72944E+02 1.19729E+05 1.88818E-08-2.44584E-08
 -1       636 2.29784E+05 5.47503E+04 5.50840E+02 1.16120E+05 1.38126E-08-4.89990E-09
 -1       637 2.26759E+05 5.79896E+04 1.21074E+03 1.19726E+05 2.35104E-09 1.79543E-08
 -1       638 2.29739E+05 5.50184E+04 2.48770E+03 1.15998E+05 1.77411E-08-1.07680E-08
 -1       639 2.28065E+05 5.98068E+04 5.88563E+03 1.19341E+05 3.54084E-08 4.41378E-09
 -1       640 2.29561E+05 6.04419E+04 1.22138E+04 1.13707E+05 2.28133E-08-4.88581E-09
 -1       656 5.94876E+04-1.51751E+06-1.43603E+05-1.42345E+03-2.18279E-11-1.11743E-08
 -1       657-7.86737E+04-1.58237E+06-1.18913E+05 6.45425E+03-8.09450E-11 8.48570E-09
 -1       658 1.89395E+04-1.53595E+06-7.31696E+04-3.16619E+03 2.25782E-10 1.48453E-09
 -1       659-8.48928E+04-1.58532E+06-1.27083E+05 7.80752E+03-1.14960E-09 1.05493E-09
 -1       660 6.56925E+04-1.51456E+06-1.57652E+05-2.77671E+03-1.33150E-09 2.23449E-09
 -1       661 1.62348E+05 1.72637E+04 1.65299E+04 6.34770E+04 1.63709E-10 1.69784E-08
 -1       662 1.71451E+05 2.97428E+04 1.11394E+04 6.00447E+04 4.79758E-11-1.80427E-08
 -1       663 1.65594E+05 2.25679E+04 3.89617E+03 6.25364E+04-2.49975E-09 1.58707E-10
 -1       664 1.67691E+05 2.35382E+04 2.33024E+03 6.11923E+04-1.33304E-09 2.02855E-08
 -1       665 1.66084E+05 2.32940E+04 9.19267E+02 6.23948E+04-2.54175E-09 3.41819E-09
 -1       666 1.67112E+05 2.27066E+04 5.37394E+02 6.13761E+04 3.91431E-09-1.80279E-08
 -1       667 1.66169E+05 2.33778E+04 2.84857E+02 6.23605E+04 7.85008E-10-4.18524E-10
 -1       668 1.67019E+05 2.26445E+04 2.88880E+02 6.14259E+04-1.30990E-09-2.80019E-08
 -1       669 1.66176E+05 2.33542E+04 3.89992E+02 6.23454E+04-4.54492E-10 2.85513E-09
 -1       670 1.67115E+05 2.28549E+04 8.48168E+02 6.14280E+04-5.59034E-09 1.97035E-08
 -1       671 1.66073E+05 2.31718E+04 1.50564E+03 6.23566E+04 3.15609E-10 4.13718E-09
 -1       672 1.67992E+05 2.43196E+04 3.85186E+03 6.12156E+04 5.17538E-09 3.32966E-09
 -1       673 1.65303E+05 2.19265E+04 6.45499E+03 6.25437E+04-1.74089E-09-1.93040E-10
 -1       674 1.74137E+05 3.46890E+04 1.84599E+04 5.94094E+04 4.72141E-10-4.53565E-09
 -1       675 1.59968E+05 1.30925E+04 2.74008E+04 6.40536E+04-2.62844E-09 5.99903E-09
 -1       676 2.22924E+01-2.72014E+05-1.03450E+03-5.39673E+01 4.22489E-10-1.65114E-08
 -1       677-2.74555E+02-2.72264E+05-1.89329E+03 1.07859E+02 3.65159E-09-1.93335E-08
 -1       678 1.83424E+02-2.71836E+05-3.34686E+03-5.38553E+01 2.52498E-10-3.01665E-09
 -1       679-3.34772E+03-2.74284E+05-7.95066E+03 1.07430E+02 3.54748E-09 5.49007E-09
 -1       680 1.99810E+03-2.69995E+05-1.28138E+04-5.29367E+01 3.00133E-10 1.07732E-08
 -1       771-2.85125E+06-6.36245E+05-1.15584E+05-1.31825E+06-2.99915E-08-1.76078E-08
 -1       772-2.79315E+06-7.07169E+05-6.00199E+04-1.39972E+06-2.56114E-08 1.25328E-08
 -1       773-2.87290E+06-6.19214E+05-2.96787E+04-1.32697E+06-1.56288E-08 1.00699E-08
 -1       774-2.78413E+06-6.94751E+05-1.34362E+04-1.41653E+06 1.66474E-08-1.67347E-09
 -1       775-2.88325E+06-6.11896E+05-9.44100E+03-1.33074E+06-4.16185E-09 2.66300E-09
 -1       776-2.79077E+06-6.93366E+05-3.63113E+03-1.42869E+06-5.99539E-09 3.49974E-09
 -1       777-2.89202E+06-6.05514E+05-3.95567E+03-1.33404E+06-1.04774E-09-1.66619E-09
 -1       778-2.79785E+06-6.92165E+05-1.15360E+03-1.43906E+06 2.05910E-09 7.62157E-09
 -1       779-2.89946E+06-6.00004E+05-1.91091E+03-1.33688E+06-6.33008E-09-5.43150E-09
 -1       780-2.80407E+06-6.91006E+05-3.25815E+02-1.44749E+06-5.44969E-09 1.28694E-09
 -1       781-2.90531E+06-5.95597E+05-7.26021E+02-1.33910E+06-2.81289E-08-1.01136E-09
 -1       782-2.80884E+06-6.90000E+05 2.66474E+02-1.45370E+06-3.00279E-08-4.58658E-09
 -1       783-2.90941E+06-5.92563E+05 4.23331E+02-1.34066E+06-4.32192E-09-1.15656E-08
 -1       784-2.81143E+06-6.88864E+05 1.72433E+03-1.45752E+06-1.57161E-08 3.30601E-10
 -1       785-2.91182E+06-5.90769E+05 3.04561E+03-1.34167E+06-2.99660E-08 4.92400E-09
 -1       786 1.23639E+05-9.30126E+03 2.15184E+04-2.10977E+02 1.39803E-09 1.26720E-08
 -1       787 1.32971E+05 1.07682E+04 1.52236E+04-4.19306E+01 3.59067E-09 1.33309E-09
 -1       788 1.27237E+05-1.45783E+03 5.56765E+03-1.81082E+02 2.69382E-09 2.15709E-09
 -1       789 1.28779E+05 1.68684E+03 3.49571E+03-8.90431E+01-7.97127E-10-7.57706E-09
 -1       790 1.27832E+05-2.27303E+02 1.41655E+03-1.63875E+02-1.78711E-09 1.14856E-08
 -1       791 1.28085E+05 2.62718E+02 8.20504E+02-1.18745E+02-4.90910E-09 1.26455E-09
 -1       792 1.27932E+05-3.47702E+01 3.52361E+02-1.51382E+02-2.29406E-09 3.48753E-09
 -1       793 1.27966E+05 3.84748E+01 1.85907E+02-1.42249E+02 5.04813E-10 3.30656E-09
 -1       794 1.27950E+05-3.20160E+00 6.88970E+01-1.40370E+02 1.97811E-09-1.11587E-08
 -1       795 1.27938E+05-8.82556E+00 2.21630E-01-1.65158E+02-3.71050E-09 4.16771E-09
 -1       796 1.27959E+05 1.25049E+01-5.98124E+01-1.28472E+02 2.05987E-09-8.19927E-09
 -1       797 1.27895E+05-9.65416E+01-1.90766E+02-1.92338E+02 2.02341E-09 2.86991E-09
 -1       798 1.27994E+05 8.44478E+01-3.17150E+02-1.13190E+02 7.89571E-10-1.08952E-08
 -1       799 1.27652E+05-6.23287E+02-8.78931E+02-2.29629E+02 4.14216E-09-1.51282E-08
 -1       800 1.28202E+05 5.38814E+02-1.24566E+03-9.11808E+01 4.46241E-10 8.36258E-09
 -1       801-1.39823E+04-6.80027E+06-8.60182E+05 6.96949E+05 6.60948E-08-3.27673E-08
 -1       802 2.63308E+05 9.79392E+05 9.34659E+05-7.96300E+05 1.84245E-07-2.02308E-08
 -1       803-2.43294E+05-8.59112E+06-9.25027E+05 4.60357E+05 5.99975E-08 2.11385E-08
 -1       804 9.59617E+04-9.33903E+05 6.56436E+05 4.19008E+05-7.36400E-08-5.91674E-08
 -1       805 1.17746E+05-4.90052E+06-1.46826E+05-5.15891E+05-3.06791E-08-3.85239E-08
 -1       806-2.76075E+05-5.26301E+04-2.02031E+04-1.08482E+05-6.88215E-09 7.85667E-09
 -1       807-2.77792E+05-4.92051E+04-9.92556E+03-1.13233E+05 7.07496E-09 1.60713E-08
 -1       808-2.76620E+05-4.53594E+04-4.21082E+03-1.11936E+05-2.86036E-10 5.23960E-09
 -1       809-2.75711E+05-4.64111E+04-2.05901E+03-1.13472E+05-9.12496E-09 3.86945E-09
 -1       810-2.76704E+05-4.51061E+04-9.43705E+02-1.12090E+05-5.22505E-10-1.15008E-08
 -1       811-2.75551E+05-4.62982E+04-4.69279E+02-1.13440E+05-5.49107E-10 2.93755E-09
 -1       812-2.76717E+05-4.51274E+04-2.37211E+02-1.12090E+05-6.28097E-09-5.43196E-09
 -1       813-2.75530E+05-4.62996E+04-1.54043E+02-1.13425E+05-1.41517E-09 9.74842E-09
 -1       814-2.76713E+05-4.51351E+04-1.52332E+02-1.12087E+05-8.79481E-10-8.84938E-10
 -1       815-2.75534E+05-4.63012E+04-2.45393E+02-1.13420E+05 1.97178E-09-1.15506E-10
 -1       816-2.76696E+05-4.51334E+04-4.64820E+02-1.12084E+05 2.45836E-09 7.98764E-09
 -1       817-2.75614E+05-4.63452E+04-9.97895E+02-1.13411E+05-8.28004E-09-5.79212E-09
 -1       818-2.76638E+05-4.52729E+04-2.03512E+03-1.12019E+05 7.03949E-10-2.92857E-09
 -1       819-2.76729E+05-4.75761E+04-4.78910E+03-1.13152E+05-2.25555E-09-8.56289E-10
 -1       820-2.76259E+05-4.88859E+04-9.74723E+03-1.10469E+05-1.69530E-09 4.36103E-09
 -1       821-3.39565E+05 1.87343E+04-4.33443E+04 8.66274E+02 6.64416E-09 4.78394E-09
 -1       822-3.58279E+05-2.16884E+04-3.06607E+04-1.63707E+03-2.84985E-10 5.19776E-09
 -1       823-3.46770E+05 2.93862E+03-1.12230E+04 1.07158E+03-3.58338E-09 1.12896E-08
 -1       824-3.49827E+05-3.39866E+03-7.05644E+03-1.56148E+03 5.16923E-10 2.18060E-08
 -1       825-3.48014E+05 4.58323E+02-2.91085E+03 7.90694E+02 6.20727E-09-9.53378E-10
 -1       826-3.48333E+05-5.37643E+02-1.72805E+03-6.54309E+02 6.36372E-09-3.49669E-09
 -1       827-3.48260E+05 7.74775E+01-9.27297E+02 1.64392E+02 2.20324E-09-5.05923E-09
 -1       828-3.48124E+05-1.62221E+02-7.77927E+02 6.30390E+02-1.22821E-09-1.34908E-08
 -1       829-3.48222E+05 8.28656E+01-9.41180E+02-4.94026E+02 1.01210E-09-8.73371E-10
 -1       830-3.48429E+05-5.63684E+02-1.80827E+03 1.64835E+03-5.46365E-10 7.14161E-09
 -1       831-3.47958E+05 4.80784E+02-3.01384E+03-8.53585E+02-2.34451E-09-4.81043E-09
 -1       832-3.49913E+05-3.53756E+03-7.34187E+03 1.88791E+03-9.97920E-10 7.92056E-09
 -1       833-3.46740E+05 3.05540E+03-1.16773E+04-7.33589E+02-2.38645E-09 3.85444E-09
 -1       834-3.58601E+05-2.25545E+04-3.18722E+04 1.21813E+03-2.33526E-09 7.46513E-09
 -1       835-3.39271E+05 1.94813E+04-4.50917E+04-1.83786E+02 5.02511E-09-4.36557E-09
 -1       836-1.20385E+03 3.23772E+05 1.98609E+04-1.60222E+04-3.47063E-09-9.02173E-09
 -1       837 4.27712E+03 3.29972E+05 1.69014E+04-3.24376E+04-3.60615E-09-1.87265E-09
 -1       838-4.70206E+02 3.25498E+05 1.73547E+04-1.59550E+04-2.88355E-09 4.89695E-09
 -1       839 1.10180E+04 3.34995E+05 3.29617E+04-3.24831E+04-2.85718E-09 1.35834E-08
 -1       840-3.37646E+03 3.18699E+05 5.26193E+04-1.59787E+04-2.84854E-09-4.80782E-10
 -1       856-6.37190E+04 7.76661E+03-2.04670E+04-4.03563E+02 1.17268E-09-6.58201E-09
 -1       857-7.21608E+04-9.11798E+03-1.40899E+04 5.17487E+03-1.77150E-09-1.44764E-08
 -1       858-6.70586E+04 1.08876E+03-5.31106E+03-4.26442E+02-2.38009E-09-5.97674E-09
 -1       859-6.83274E+04-1.27381E+03-3.20591E+03 5.20993E+03-4.11389E-09-5.42116E-09
 -1       860-6.75576E+04 1.52008E+02-1.34507E+03-4.38540E+02-6.55888E-10-5.25682E-09
 -1       861-6.77530E+04-1.74900E+02-7.43085E+02 5.22648E+03-1.36749E-09-1.82990E-09
 -1       862-6.76356E+04 2.03278E+01-3.15167E+02-4.42987E+02 1.34228E-09-8.84421E-09
 -1       863-6.76586E+04-1.59807E+01-1.29056E+02 5.22884E+03 1.36556E-10-1.01148E-08
 -1       864-6.76524E+04-3.34622E+00 1.36126E+01-4.40909E+02 6.47120E-10 1.73493E-09
 -1       865-6.76135E+04 4.85450E+01 1.75650E+02 5.21760E+03 7.35142E-10 1.29817E-09
 -1       866-6.76787E+04-4.43789E+01 3.70446E+02-4.31740E+02 1.49100E-10-4.45567E-09
 -1       867-6.74349E+04 3.68174E+02 9.22424E+02 5.19264E+03-4.08363E-10 4.03288E-09
 -1       868-6.78268E+04-3.17685E+02 1.53531E+03-4.15949E+02 1.70644E-10 8.33131E-09
 -1       869-6.63061E+04 2.64374E+03 4.09197E+03 5.15111E+03 2.35445E-10-1.17465E-08
 -1       870-6.88008E+04-2.25883E+03 5.93778E+03-3.90176E+02-1.54182E-09-1.00224E-08
 -1       871-5.02575E+03-1.58487E+04-1.71109E+04 1.14156E+05-1.80626E-09 1.40117E-08
 -1       872-1.97323E+03-1.97675E+04-7.10164E+03 1.48012E+05-4.98039E-09 2.24404E-08
 -1       873 1.81591E+02-1.79006E+04 6.76656E+02 1.13906E+05-2.42426E-09 9.61222E-09
 -1       874 2.76172E+03-1.56501E+04 8.95727E+03 1.48047E+05-5.36784E-09 8.29732E-09
 -1       875 6.04495E+03-2.00326E+04 2.00835E+04 1.14116E+05-2.33194E-09-8.05812E-10
 -1       876 2.64734E+05 4.49367E+04 1.37453E+04 1.06615E+05 1.57615E-09-5.29690E-09
 -1       877 2.65609E+05 4.78644E+04 7.34046E+03 1.10588E+05 1.00135E-09-3.11388E-09
 -1       878 2.66018E+05 4.34150E+04 3.07531E+03 1.07743E+05-1.86401E-09-2.88992E-09
 -1       879 2.63741E+05 4.60004E+04 1.53222E+03 1.10682E+05 4.25007E-09 5.73925E-09
 -1       880 2.66111E+05 4.33989E+04 7.13616E+02 1.07789E+05 4.79372E-09 4.95902E-10
 -1       881 2.63617E+05 4.59208E+04 3.80854E+02 1.10662E+05 5.73823E-09 6.91149E-09
 -1       882 2.66120E+05 4.34107E+04 2.43275E+02 1.07790E+05-3.74484E-10 8.11750E-09
 -1       883 2.63608E+05 4.59168E+04 2.60915E+02 1.10655E+05-1.69047E-09 2.74028E-08
 -1       884 2.66114E+05 4.34081E+04 4.14502E+02 1.07791E+05-6.50061E-10-6.53131E-11
 -1       885 2.63641E+05 4.59226E+04 8.33034E+02 1.10665E+05-6.42876E-09-1.18121E-09
 -1       886 2.66082E+05 4.33837E+04 1.67879E+03 1.07787E+05-1.49976E-09-4.22870E-09
 -1       887 2.63936E+05 4.61161E+04 3.66704E+03 1.10708E+05 3.12647E-09-1.75976E-09
 -1       888 2.65850E+05 4.34245E+04 7.38919E+03 1.07670E+05 5.60135E-10 6.36192E-09
 -1       889 2.68336E+05 5.06899E+04 1.76517E+04 1.10572E+05-3.82464E-09 1.13832E-08
 -1       890 2.62837E+05 4.70038E+04 3.30609E+04 1.04854E+05-1.58911E-09 4.16367E-09
 -1       891-1.14502E+02-1.47807E+05-1.79486E+03 2.57328E+04-7.70569E-10-8.81778E-09
 -1       892-2.09909E+02-1.48263E+05-1.93367E+03 3.90154E+04 8.83574E-10-1.45794E-08
 -1       893 4.98438E+00-1.47864E+05-2.74400E+03 2.57390E+04-4.13820E-10-9.67793E-09
 -1       894-1.41842E+03-1.49304E+05-5.68356E+03 3.88732E+04 9.50422E-10 1.44373E-08
 -1       895-1.11932E+03-1.46680E+05-1.00104E+04 2.58750E+04-2.96495E-10 2.59206E-09
 -1       956-3.37892E+05-4.80593E+03-1.19755E+04 2.54676E+04 6.67569E-09-7.86895E-09
 -1       957-3.40249E+05-1.65973E+03-6.14725E+03 3.06377E+04 7.02858E-09-9.93168E-09
 -1       958-3.38963E+05-1.72313E+02-2.76985E+03 2.53222E+04-2.87673E-09-1.45715E-08
 -1       959-3.39144E+05-7.27318E+01-1.41457E+03 3.08022E+04-6.29916E-09 1.05138E-08
 -1       960-3.39063E+05-6.90251E-01-6.89766E+02 2.53076E+04 8.82665E-10 9.72068E-09
 -1       961-3.39068E+05-1.00972E+01-3.65952E+02 3.08191E+04 5.90285E-09-7.36281E-09
 -1       962-3.39085E+05-3.46067E+00-2.09719E+02 2.53053E+04 1.00727E-10-4.54065E-10
 -1       963-3.39067E+05-7.41633E+00-1.68767E+02 3.08221E+04-2.18392E-09 1.06650E-08
 -1       964-3.39090E+05-8.11748E-01-2.05584E+02 2.53046E+04-1.29762E-09-5.78621E-09
 -1       965-3.39078E+05-4.45563E+00-3.55864E+02 3.08216E+04-3.39497E-09-3.67800E-09
 -1       966-3.39076E+05 7.18724E+00-6.68625E+02 2.53058E+04-6.37101E-09-8.75389E-09
 -1       967-3.39161E+05-5.97266E+01-1.37148E+03 3.08102E+04-9.58380E-09-7.61702E-10
 -1       968-3.38987E+05-1.54055E+02-2.68454E+03 2.53161E+04-2.66027E-09-1.53591E-09
 -1       969-3.40243E+05-1.59380E+03-5.96001E+03 3.06900E+04 3.44244E-09 3.46608E-09
 -1       970-3.37956E+05-4.64331E+03-1.16098E+04 2.54229E+04-1.13823E-09-4.45016E-09
 -1       971-3.12697E+05-1.58960E+03-8.67980E+03 1.42987E+04-2.39197E-10 4.52999E-10
 -1       972-3.14795E+05-1.15717E+03-4.72694E+03 1.98637E+04 4.10637E-10-4.34375E-09
 -1       973-3.13663E+05-3.73936E+01-2.11703E+03 1.41829E+04 5.02951E-10-2.23690E-09
 -1       974-3.13798E+05-4.73153E+01-1.09715E+03 1.99922E+04 8.05812E-10-1.41431E-08
 -1       975-3.13739E+05 4.04145E+00-5.48244E+02 1.41717E+04 2.73076E-09-1.34878E-09
 -1       976-3.13740E+05-1.17442E+00-3.15974E+02 2.00064E+04 1.14705E-08-1.69970E-08
 -1       977-3.13754E+05 4.42551E+00-2.28751E+02 1.41687E+04 2.37242E-09-6.49629E-09
 -1       978-3.13744E+05 4.38293E+00-2.66900E+02 2.00105E+04 1.87333E-09 6.45343E-09
 -1       979-3.13754E+05 1.19807E+01-4.28145E+02 1.41675E+04 1.62919E-09 1.07415E-08
 -1       980-3.13776E+05 7.12106E+00-8.26267E+02 2.00113E+04 1.54988E-09-4.49313E-09
 -1       981-3.13728E+05 3.26107E+01-1.60006E+03 1.41680E+04 1.37550E-09-1.66774E-08
 -1       982-3.13996E+05-1.11062E+02-3.30717E+03 2.00052E+04 5.42286E-10-8.27772E-09
 -1       983-3.13526E+05-6.97835E+01-6.42577E+03 1.41737E+04-3.03339E-09 3.75780E-09
 -1       984-3.17086E+05-3.46694E+03-1.43900E+04 1.99249E+04-1.14346E-09 2.89231E-09
 -1       985-3.10617E+05-4.77175E+03-2.64246E+04 1.42466E+04-5.41149E-11 4.74756E-09
 -3
    1PSTEP                        17           9           1          
  100CL  109 6.44531E-01         409                     0    9           1
 -4  DISP        4    1
 -5  D1          1    2    1    0
 -5  D2          1    2    2    0
 -5  D3          1    2    3    0
 -5  ALL         1    2    0    0    1ALL
 -1         1 2.12514E-03 0.00000E+00 0.00000E+00
 -1         2 1.84192E-03-1.41255E-26 0.00000E+00
 -1         3 3.16015E-04-1.11770E-27 0.00000E+00
 -1         5 1.67194E-04-4.64628E-26-2.99853E-24
 -1         8 2.10826E-03-5.15526E-07 0.00000E+00
 -1         9 2.06652E-03-1.07423E-05 0.00000E+00
 -1        10 2.86765E-04-3.50919E-06-6.61744E-24
 -1        12 1.68664E-04 7.72781E-07 5.16988E-26
 -1        15 2.08795E-03-5.63833E-07-2.06795E-25
 -1        16 2.09731E-03-1.19351E-05 0.00000E+00
 -1        17 1.96083E-04-7.86628E-06 0.00000E+00
 -1        18 1.71542E-04 2.91740E-05 0.00000E+00
 -1        19 1.73073E-04 1.54016E-06 0.00000E+00
 -1        20 1.73217E-04-5.72340E-06 0.00000E+00
 -1        21 1.72377E-04-1.65722E-05 0.00000E+00
 -1        24 2.95077E-05-1.17352E-05 0.00000E+00
 -1        25 1.80435E-04 2.93853E-05 0.00000E+00
 -1        26 1.81130E-04 2.13366E-06 0.00000E+00
 -1        27 1.79028E-04-9.14150E-06 0.00000E+00
 -1        28 1.78689E-04-1.71751E-05 0.00000E+00
 -1        32 0.00000E+00 0.00000E+00 0.00000E+00
 -1        33 1.88158E-04 2.85563E-06 0.00000E+00
 -1        34 1.86122E-04-9.19096E-06 0.00000E+00
 -1        35 1.84257E-04-1.75049E-05 0.00000E+00
 -1        51 2.12405E-03-9.81719E-08 6.61744E-24
 -1        52 2.12202E-03-1.81350E-07 0.00000E+00
 -1        53 2.11924E-03-2.62450E-07 0.00000E+00
 -1        54 2.11590E-03-3.43627E-07 0.00000E+00
 -1        55 2.11217E-03-4.26456E-07 2.48154E-24
 -1        56 2.12117E-03 5.92744E-07 0.00000E+00
 -1        57 2.11574E-03 4.64686E-06 0.00000E+00
 -1        58 2.10925E-03 1.15227E-05 1.05879E-22
 -1        59 2.10200E-03 2.02954E-05 5.29396E-23
 -1        60 2.09449E-03 2.97605E-05 0.00000E+00
 -1        61 2.08719E-03 3.86505E-05 5.29396E-23
 -1        62 2.08057E-03 4.57901E-05 0.00000E+00
 -1        63 2.07501E-03 5.01394E-05 5.29396E-23
 -1        64 2.07074E-03 5.11003E-05-1.05879E-22
 -1        65 2.06786E-03 4.83414E-05 0.00000E+00
 -1        66 2.06628E-03 4.21223E-05-1.05879E-22
 -1        67 2.06577E-03 3.29792E-05 5.29396E-23
 -1        68 2.06596E-03 2.19138E-05 0.00000E+00
 -1        69 2.06645E-03 1.00896E-05 0.00000E+00
 -1        70 2.06675E-03-1.22237E-06 0.00000E+00
 -1        86 1.85520E-03-1.09380E-06 0.00000E+00
 -1        87 1.89449E-03-2.84494E-06 1.32349E-23
 -1        88 1.94794E-03-5.19442E-06-2.64698E-23
 -1        89 2.00315E-03-7.63515E-06 1.32349E-23
 -1        90 2.04692E-03-9.55899E-06-2.64698E-23
 -1       121 3.15194E-04-5.69963E-07 1.32349E-23
 -1       122 3.12732E-04-1.14252E-06 6.61744E-24
 -1       123 3.08639E-04-1.72021E-06 1.32349E-23
 -1       124 3.02932E-04-2.30561E-06 0.00000E+00
 -1       125 2.95630E-04-2.90091E-06 0.00000E+00
 -1       191 1.67235E-04 1.28839E-07-3.30872E-24
 -1       192 1.67358E-04 2.57670E-07 1.03398E-25
 -1       193 1.67562E-04 3.86488E-07-1.34417E-24
 -1       194 1.67847E-04 5.15285E-07-1.29247E-24
 -1       195 1.68215E-04 6.44053E-07 1.44757E-24
 -1       251 2.10751E-03-1.48889E-05 0.00000E+00
 -1       252 2.10568E-03-6.43576E-05 6.61744E-24
 -1       253 2.10237E-03-1.39312E-04-1.32349E-23
 -1       254 2.09785E-03-2.29501E-04-6.61744E-24
 -1       255 2.09329E-03-3.20186E-04 0.00000E+00
 -1       256 2.08987E-03-3.96616E-04 6.61744E-24
 -1       257 2.08793E-03-4.48251E-04-1.32349E-23
 -1       258 2.08714E-03-4.65166E-04 6.61744E-24
 -1       259 2.08632E-03-4.47080E-04 1.32349E-23
 -1       260 2.08435E-03-3.94658E-04 6.61744E-24
 -1       261 2.08092E-03-3.18114E-04 1.32349E-23
 -1       262 2.07643E-03-2.28262E-04 0.00000E+00
 -1       263 2.07206E-03-1.39854E-04 0.00000E+00
 -1       264 2.06893E-03-6.76076E-05 1.32349E-23
 -1       265 2.06725E-03-2.14698E-05 0.00000E+00
 -1       266 2.10487E-03-5.31225E-07 0.00000E+00
 -1       267 2.10149E-03-5.38342E-07 8.27181E-25
 -1       268 2.09810E-03-5.46008E-07-8.27181E-25
 -1       269 2.09472E-03-5.52059E-07 2.06795E-25
 -1       270 2.09133E-03-5.58075E-07-2.06795E-25
 -1       271 2.10614E-03 2.68626E-06 0.00000E+00
 -1       272 2.10394E-03 5.99703E-06 1.32349E-23
 -1       273 2.10177E-03 9.27734E-06 2.64698E-23
 -1       274 2.09965E-03 1.23757E-05 1.32349E-23
 -1       275 2.09766E-03 1.51460E-05 2.64698E-23
 -1       276 2.09585E-03 1.74439E-05 0.00000E+00
 -1       277 2.09426E-03 1.91304E-05 0.00000E+00
 -1       278 2.09296E-03 2.00728E-05 1.32349E-23
 -1       279 2.09199E-03 2.01463E-05-2.64698E-23
 -1       280 2.09138E-03 1.92352E-05-1.32349E-23
 -1       281 2.09118E-03 1.72344E-05 0.00000E+00
 -1       282 2.09142E-03 1.40499E-05 0.00000E+00
 -1       283 2.09213E-03 9.60066E-06 2.64698E-23
 -1       284 2.09334E-03 3.81959E-06 1.32349E-23
 -1       285 2.09506E-03-3.34794E-06-2.64698E-23
 -1       301 2.07208E-03-1.09648E-05 0.00000E+00
 -1       302 2.07652E-03-1.11542E-05 3.30872E-24
 -1       303 2.08055E-03-1.13394E-05 0.00000E+00
 -1       304 2.08488E-03-1.15248E-05 0.00000E+00
 -1       305 2.09023E-03-1.17167E-05 0.00000E+00
 -1       306 2.10006E-03-1.41999E-04 0.00000E+00
 -1       307 2.16464E-03-5.05697E-04-1.05879E-22
 -1       308 2.22242E-03-1.04406E-03-1.05879E-22
 -1       309 2.26401E-03-1.67505E-03-5.29396E-23
 -1       310 2.30889E-03-2.28837E-03 0.00000E+00
 -1       311 2.37186E-03-2.77536E-03-5.29396E-23
 -1       312 2.43144E-03-3.06314E-03 0.00000E+00
 -1       313 2.44100E-03-3.11052E-03 5.29396E-23
 -1       314 2.34242E-03-2.92312E-03 0.00000E+00
 -1       315 2.09945E-03-2.54815E-03 5.29396E-23
 -1       316 1.72424E-03-2.05204E-03 0.00000E+00
 -1       317 1.26714E-03-1.49961E-03 0.00000E+00
 -1       318 8.20448E-04-9.54084E-04 1.05879E-22
 -1       319 4.73410E-04-4.80322E-04-5.29396E-23
 -1       320 2.65374E-04-1.43766E-04-1.05879E-22
 -1       336 2.76165E-04-4.17876E-06-1.32349E-23
 -1       337 2.63671E-04-4.86991E-06 6.61744E-24
 -1       338 2.49342E-04-5.58426E-06 0.00000E+00
 -1       339 2.33248E-04-6.32221E-06-6.61744E-24
 -1       340 2.15466E-04-7.08771E-06-1.32349E-23
 -1       406 1.69195E-04 9.01455E-07 4.13590E-25
 -1       407 1.69807E-04 1.03004E-06 4.13590E-25
 -1       408 1.70502E-04 1.15850E-06-2.27475E-24
 -1       409 1.71277E-04 1.28667E-06 1.44757E-24
 -1       410 1.72135E-04 1.41428E-06 2.48154E-24
 -1       521 2.13171E-03-1.52015E-04 0.00000E+00
 -1       522 2.19551E-03-5.34731E-04 5.29396E-23
 -1       523 2.24882E-03-1.09942E-03-1.05879E-22
 -1       524 2.28339E-03-1.75806E-03-5.29396E-23
 -1       525 2.32201E-03-2.39739E-03 1.05879E-22
 -1       526 2.38213E-03-2.90600E-03 5.29396E-23
 -1       527 2.44151E-03-3.20531E-03-1.05879E-22
 -1       528 2.44978E-03-3.25297E-03 0.00000E+00
 -1       529 2.34255E-03-3.05407E-03-2.11758E-22
 -1       530 2.08111E-03-2.66187E-03 0.00000E+00
 -1       531 1.67775E-03-2.14608E-03 0.00000E+00
 -1       532 1.18774E-03-1.57464E-03-5.29396E-23
 -1       533 7.08216E-04-1.00968E-03 1.05879E-22
 -1       534 3.33203E-04-5.15035E-04 0.00000E+00
 -1       535 1.07081E-04-1.59973E-04-1.05879E-22
 -1       536 1.95426E-04 2.41229E-05 0.00000E+00
 -1       537 1.93786E-04 7.96577E-05 3.30872E-24
 -1       538 1.91259E-04 1.50179E-04-3.30872E-24
 -1       539 1.88283E-04 2.27048E-04 0.00000E+00
 -1       540 1.85602E-04 2.99688E-04 0.00000E+00
 -1       541 1.83852E-04 3.57539E-04 1.65436E-24
 -1       542 1.83035E-04 3.94334E-04 0.00000E+00
 -1       543 1.82826E-04 4.03939E-04 0.00000E+00
 -1       544 1.82528E-04 3.87091E-04 0.00000E+00
 -1       545 1.81503E-04 3.44726E-04 0.00000E+00
 -1       546 1.79617E-04 2.84388E-04 3.30872E-24
 -1       547 1.77079E-04 2.13730E-04 0.00000E+00
 -1       548 1.74568E-04 1.43484E-04 0.00000E+00
 -1       549 1.72753E-04 8.43820E-05 1.65436E-24
 -1       550 1.71803E-04 4.38437E-05 1.65436E-24
 -1       551 1.72950E-04-8.39513E-06 0.00000E+00
 -1       552 1.46734E-04-8.99303E-06 0.00000E+00
 -1       553 1.18352E-04-9.64481E-06 0.00000E+00
 -1       554 8.87342E-05-1.03319E-05 0.00000E+00
 -1       555 5.88107E-05-1.10297E-05 2.64698E-23
 -1       556 1.89131E-04 9.94334E-06 0.00000E+00
 -1       557 1.83532E-04 2.43419E-05 0.00000E+00
 -1       558 1.79158E-04 3.55984E-05 0.00000E+00
 -1       559 1.75888E-04 4.40031E-05 0.00000E+00
 -1       560 1.73600E-04 4.98466E-05 0.00000E+00
 -1       561 1.72177E-04 5.34217E-05 0.00000E+00
 -1       562 1.71502E-04 5.50224E-05 0.00000E+00
 -1       563 1.71459E-04 5.49434E-05 0.00000E+00
 -1       564 1.71935E-04 5.34802E-05 0.00000E+00
 -1       565 1.72817E-04 5.09289E-05 0.00000E+00
 -1       566 1.73994E-04 4.75860E-05 0.00000E+00
 -1       567 1.75356E-04 4.37484E-05 3.30872E-24
 -1       568 1.76791E-04 3.97130E-05-8.27181E-25
 -1       569 1.78189E-04 3.57768E-05 0.00000E+00
 -1       570 1.79440E-04 3.22367E-05 0.00000E+00
 -1       571 1.71635E-04 2.73830E-05-1.65436E-24
 -1       572 1.71730E-04 2.55302E-05 1.24077E-24
 -1       573 1.71825E-04 2.36302E-05 0.00000E+00
 -1       574 1.71921E-04 2.16979E-05-8.27181E-25
 -1       575 1.72017E-04 1.97487E-05-3.30872E-24
 -1       576 1.72112E-04 1.77976E-05 3.30872E-24
 -1       577 1.72208E-04 1.58601E-05 0.00000E+00
 -1       578 1.72304E-04 1.39512E-05 6.61744E-24
 -1       579 1.72400E-04 1.20863E-05-6.61744E-24
 -1       580 1.72495E-04 1.02806E-05 0.00000E+00
 -1       581 1.72592E-04 8.54939E-06-6.61744E-24
 -1       582 1.72688E-04 6.90789E-06 0.00000E+00
 -1       583 1.72784E-04 5.37134E-06 0.00000E+00
 -1       584 1.72880E-04 3.95479E-06 0.00000E+00
 -1       585 1.72977E-04 2.67318E-06 0.00000E+00
 -1       586 1.72980E-04 2.92112E-05 1.65436E-24
 -1       587 1.74381E-04 2.92479E-05 2.06795E-25
 -1       588 1.75785E-04 2.92843E-05 0.00000E+00
 -1       589 1.77234E-04 2.93200E-05 0.00000E+00
 -1       590 1.78771E-04 2.93545E-05 0.00000E+00
 -1       591 1.72152E-04 2.74680E-05 0.00000E+00
 -1       592 1.72765E-04 2.57407E-05-2.06795E-25
 -1       593 1.73384E-04 2.39980E-05-8.27181E-25
 -1       594 1.74006E-04 2.22447E-05 4.13590E-25
 -1       595 1.74630E-04 2.04856E-05 0.00000E+00
 -1       596 1.75254E-04 1.87256E-05 4.13590E-25
 -1       597 1.75877E-04 1.69694E-05 0.00000E+00
 -1       598 1.76497E-04 1.52220E-05 0.00000E+00
 -1       599 1.77112E-04 1.34881E-05 0.00000E+00
 -1       600 1.77720E-04 1.17724E-05-4.13590E-25
 -1       601 1.78319E-04 1.00799E-05 8.27181E-25
 -1       602 1.78908E-04 8.41530E-06-2.06795E-25
 -1       603 1.79485E-04 6.78341E-06 0.00000E+00
 -1       604 1.80048E-04 5.18917E-06 3.87741E-26
 -1       605 1.80596E-04 3.63728E-06-4.13590E-25
 -1       606 1.73087E-04 6.28637E-07 0.00000E+00
 -1       607 1.73097E-04-1.94968E-07 0.00000E+00
 -1       608 1.73106E-04-9.35814E-07 0.00000E+00
 -1       609 1.73114E-04-1.59972E-06 0.00000E+00
 -1       610 1.73123E-04-2.19256E-06 0.00000E+00
 -1       611 1.73132E-04-2.72026E-06 0.00000E+00
 -1       612 1.73140E-04-3.18877E-06 0.00000E+00
 -1       613 1.73149E-04-3.60404E-06 0.00000E+00
 -1       614 1.73157E-04-3.97201E-06 0.00000E+00
 -1       615 1.73166E-04-4.29864E-06 0.00000E+00
 -1       616 1.73175E-04-4.58988E-06 0.00000E+00
 -1       617 1.73183E-04-4.85167E-06 0.00000E+00
 -1       618 1.73192E-04-5.08997E-06 0.00000E+00
 -1       619 1.73200E-04-5.31073E-06 2.06795E-25
 -1       620 1.73209E-04-5.51989E-06 0.00000E+00
 -1       621 1.74165E-04 1.63953E-06 0.00000E+00
 -1       622 1.75396E-04 1.73917E-06 8.27181E-25
 -1       623 1.76737E-04 1.83865E-06 1.65436E-24
 -1       624 1.78159E-04 1.93785E-06 8.27181E-25
 -1       625 1.79633E-04 2.03679E-06-1.65436E-24
 -1       626 1.73523E-04 6.63198E-07 0.00000E+00
 -1       627 1.73949E-04-1.47795E-07-3.30872E-24
 -1       628 1.74353E-04-9.00670E-07 0.00000E+00
 -1       629 1.74739E-04-1.60362E-06-1.65436E-24
 -1       630 1.75109E-04-2.26485E-06-3.30872E-24
 -1       631 1.75467E-04-2.89261E-06 1.65436E-24
 -1       632 1.75815E-04-3.49512E-06 0.00000E+00
 -1       633 1.76157E-04-4.08064E-06-1.65436E-24
 -1       634 1.76495E-04-4.65739E-06 0.00000E+00
 -1       635 1.76834E-04-5.23360E-06 0.00000E+00
 -1       636 1.77175E-04-5.81753E-06-3.30872E-24
 -1       637 1.77522E-04-6.41741E-06-1.65436E-24
 -1       638 1.77878E-04-7.04148E-06 1.65436E-24
 -1       639 1.78246E-04-7.69799E-06-1.65436E-24
 -1       640 1.78629E-04-8.39521E-06-1.65436E-24
 -1       656 1.73651E-04-6.27905E-06-6.61744E-24
 -1       657 1.74499E-04-6.85723E-06 0.00000E+00
 -1       658 1.75620E-04-7.43400E-06 0.00000E+00
 -1       659 1.76870E-04-8.01041E-06 0.00000E+00
 -1       660 1.78066E-04-8.58857E-06 0.00000E+00
 -1       661 1.73380E-04-5.96947E-06-8.27181E-25
 -1       662 1.73579E-04-6.30238E-06-8.27181E-25
 -1       663 1.73809E-04-6.71738E-06 1.65436E-24
 -1       664 1.74067E-04-7.20848E-06 0.00000E+00
 -1       665 1.74353E-04-7.77032E-06-1.65436E-24
 -1       666 1.74662E-04-8.39747E-06-8.27181E-25
 -1       667 1.74995E-04-9.08475E-06 1.65436E-24
 -1       668 1.75347E-04-9.82704E-06 8.27181E-25
 -1       669 1.75719E-04-1.06194E-05 1.65436E-24
 -1       670 1.76107E-04-1.14570E-05 0.00000E+00
 -1       671 1.76511E-04-1.23350E-05 1.65436E-24
 -1       672 1.76928E-04-1.32489E-05 8.27181E-25
 -1       673 1.77356E-04-1.41941E-05-1.65436E-24
 -1       674 1.77794E-04-1.51664E-05 0.00000E+00
 -1       675 1.78240E-04-1.61609E-05 0.00000E+00
 -1       676 1.73433E-04-1.66733E-05-3.30872E-24
 -1       677 1.74487E-04-1.67743E-05 0.00000E+00
 -1       678 1.75541E-04-1.68753E-05 0.00000E+00
 -1       679 1.76593E-04-1.69760E-05 1.65436E-24
 -1       680 1.77642E-04-1.70766E-05 0.00000E+00
 -1       771 1.85305E-05 1.26931E-05 0.00000E+00
 -1       772 9.27730E-06 3.27567E-05 0.00000E+00
 -1       773 1.66547E-06 4.86687E-05 0.00000E+00
 -1       774-4.41722E-06 6.06670E-05-2.64698E-23
 -1       775-9.08090E-06 6.89988E-05 5.29396E-23
 -1       776-1.24401E-05 7.39258E-05 0.00000E+00
 -1       777-1.46094E-05 7.57189E-05 0.00000E+00
 -1       778-1.57056E-05 7.46610E-05 0.00000E+00
 -1       779-1.58453E-05 7.10424E-05 0.00000E+00
 -1       780-1.51470E-05 6.51635E-05 2.64698E-23
 -1       781-1.37283E-05 5.73307E-05 5.29396E-23
 -1       782-1.17086E-05 4.78581E-05 5.29396E-23
 -1       783-9.20639E-06 3.70638E-05 5.29396E-23
 -1       784-6.34132E-06 2.52715E-05 0.00000E+00
 -1       785-3.23237E-06 1.28074E-05 5.29396E-23
 -1       786 1.80474E-04 2.74594E-05 5.16988E-26
 -1       787 1.80517E-04 2.55824E-05 0.00000E+00
 -1       788 1.80560E-04 2.37463E-05 0.00000E+00
 -1       789 1.80603E-04 2.19431E-05-8.27181E-25
 -1       790 1.80647E-04 2.01680E-05-1.65436E-24
 -1       791 1.80690E-04 1.84165E-05 8.27181E-25
 -1       792 1.80734E-04 1.66864E-05-1.65436E-24
 -1       793 1.80778E-04 1.49755E-05-8.27181E-25
 -1       794 1.80821E-04 1.32836E-05 0.00000E+00
 -1       795 1.80865E-04 1.16106E-05 0.00000E+00
 -1       796 1.80909E-04 9.95842E-06-1.65436E-24
 -1       797 1.80953E-04 8.32881E-06 8.27181E-25
 -1       798 1.80997E-04 6.72599E-06-1.65436E-24
 -1       799 1.81041E-04 5.15424E-06 8.27181E-25
 -1       800 1.81085E-04 3.62095E-06 0.00000E+00
 -1       801 1.39211E-04 2.63270E-05 2.64698E-23
 -1       802 1.43730E-05 1.65829E-05 0.00000E+00
 -1       803-9.30555E-05 8.47603E-06 0.00000E+00
 -1       804-8.39067E-05 5.85709E-06 2.64698E-23
 -1       805-2.78982E-05 2.38290E-06 0.00000E+00
 -1       806 1.81047E-04 2.73939E-05 3.30872E-24
 -1       807 1.81645E-04 2.54286E-05-1.65436E-24
 -1       808 1.82231E-04 2.34945E-05-3.30872E-24
 -1       809 1.82803E-04 2.15952E-05 0.00000E+00
 -1       810 1.83361E-04 1.97346E-05 0.00000E+00
 -1       811 1.83902E-04 1.79163E-05 0.00000E+00
 -1       812 1.84427E-04 1.61439E-05 3.30872E-24
 -1       813 1.84933E-04 1.44210E-05-1.65436E-24
 -1       814 1.85420E-04 1.27513E-05-1.65436E-24
 -1       815 1.85885E-04 1.11384E-05 8.27181E-25
 -1       816 1.86327E-04 9.58600E-06 3.30872E-24
 -1       817 1.86746E-04 8.09755E-06-8.27181E-25
 -1       818 1.87140E-04 6.67672E-06 1.65436E-24
 -1       819 1.87507E-04 5.32710E-06 8.27181E-25
 -1       820 1.87846E-04 4.05223E-06 1.65436E-24
 -1       821 1.81005E-04 3.26666E-07 1.65436E-24
 -1       822 1.80872E-04-2.16188E-06 0.00000E+00
 -1       823 1.80739E-04-5.04908E-06-3.30872E-24
 -1       824 1.80603E-04-8.04960E-06 0.00000E+00
 -1       825 1.80468E-04-1.08485E-05 3.30872E-24
 -1       826 1.80335E-04-1.31319E-05 0.00000E+00
 -1       827 1.80202E-04-1.47225E-05 0.00000E+00
 -1       828 1.80070E-04-1.54470E-05 0.00000E+00
 -1       829 1.79939E-04-1.53612E-05 3.30872E-24
 -1       830 1.79807E-04-1.45259E-05 0.00000E+00
 -1       831 1.79675E-04-1.31999E-05 0.00000E+00
 -1       832 1.79543E-04-1.16453E-05 1.65436E-24
 -1       833 1.79411E-04-1.01845E-05 3.30872E-24
 -1       834 1.79280E-04-9.13942E-06 1.65436E-24
 -1       835 1.79150E-04-8.72225E-06-8.27181E-25
 -1       836 1.82504E-04 2.25346E-06 3.30872E-24
 -1       837 1.83755E-04 2.37623E-06 0.00000E+00
 -1       838 1.84915E-04 2.49890E-06-3.30872E-24
 -1       839 1.86014E-04 2.62089E-06 8.27181E-25
 -1       840 1.87085E-04 2.74271E-06-8.27181E-25
 -1       856 1.79010E-04-9.90951E-06-8.27181E-25
 -1       857 1.78989E-04-1.05455E-05-6.46235E-27
 -1       858 1.78969E-04-1.10701E-05 0.00000E+00
 -1       859 1.78948E-04-1.15038E-05-2.06795E-25
 -1       860 1.78926E-04-1.18674E-05 4.13590E-25
 -1       861 1.78905E-04-1.21815E-05 0.00000E+00
 -1       862 1.78884E-04-1.24671E-05-8.27181E-25
 -1       863 1.78862E-04-1.27447E-05-4.13590E-25
 -1       864 1.78841E-04-1.30354E-05 0.00000E+00
 -1       865 1.78820E-04-1.33598E-05 0.00000E+00
 -1       866 1.78798E-04-1.37388E-05 8.27181E-25
 -1       867 1.78777E-04-1.41931E-05 4.13590E-25
 -1       868 1.78755E-04-1.47433E-05 0.00000E+00
 -1       869 1.78734E-04-1.54101E-05 0.00000E+00
 -1       870 1.78712E-04-1.62139E-05 0.00000E+00
 -1       871 1.80073E-04-9.14552E-06 0.00000E+00
 -1       872 1.81259E-04-9.15276E-06 0.00000E+00
 -1       873 1.82522E-04-9.16065E-06 0.00000E+00
 -1       874 1.83797E-04-9.16925E-06 2.06795E-25
 -1       875 1.85019E-04-9.17842E-06-1.03398E-24
 -1       876 1.79439E-04-9.89560E-06 3.30872E-24
 -1       877 1.79828E-04-1.05849E-05 1.65436E-24
 -1       878 1.80197E-04-1.12170E-05 0.00000E+00
 -1       879 1.80547E-04-1.17993E-05 0.00000E+00
 -1       880 1.80881E-04-1.23389E-05 0.00000E+00
 -1       881 1.81202E-04-1.28429E-05-1.65436E-24
 -1       882 1.81512E-04-1.33186E-05 3.30872E-24
 -1       883 1.81814E-04-1.37731E-05 0.00000E+00
 -1       884 1.82111E-04-1.42135E-05-3.30872E-24
 -1       885 1.82406E-04-1.46469E-05 1.65436E-24
 -1       886 1.82700E-04-1.50806E-05 3.30872E-24
 -1       887 1.82997E-04-1.55216E-05 0.00000E+00
 -1       888 1.83300E-04-1.59771E-05 3.30872E-24
 -1       889 1.83610E-04-1.64545E-05 0.00000E+00
 -1       890 1.83930E-04-1.69607E-05 0.00000E+00
 -1       891 1.79756E-04-1.72305E-05 0.00000E+00
 -1       892 1.80800E-04-1.72860E-05-8.27181E-25
 -1       893 1.81797E-04-1.73414E-05 0.00000E+00
 -1       894 1.82722E-04-1.73966E-05 4.13590E-25
 -1       895 1.83550E-04-1.74516E-05-8.27181E-25
 -1       956 1.88033E-04 1.82452E-06 3.30872E-24
 -1       957 1.87906E-04 8.79898E-07 8.27181E-25
 -1       958 1.87778E-04 1.16834E-08 0.00000E+00
 -1       959 1.87651E-04-7.90762E-07 0.00000E+00
 -1       960 1.87523E-04-1.53812E-06 0.00000E+00
 -1       961 1.87395E-04-2.24110E-06-1.65436E-24
 -1       962 1.87268E-04-2.91042E-06 0.00000E+00
 -1       963 1.87140E-04-3.55684E-06 0.00000E+00
 -1       964 1.87012E-04-4.19109E-06 0.00000E+00
 -1       965 1.86885E-04-4.82389E-06 0.00000E+00
 -1       966 1.86757E-04-5.46601E-06 3.30872E-24
 -1       967 1.86630E-04-6.12816E-06 1.65436E-24
 -1       968 1.86502E-04-6.82109E-06 0.00000E+00
 -1       969 1.86375E-04-7.55548E-06 0.00000E+00
 -1       970 1.86248E-04-8.34203E-06 3.30872E-24
 -1       971 1.86007E-04-1.00364E-05 0.00000E+00
 -1       972 1.85890E-04-1.07889E-05 0.00000E+00
 -1       973 1.85773E-04-1.14588E-05 0.00000E+00
 -1       974 1.85655E-04-1.20566E-05-1.65436E-24
 -1       975 1.85538E-04-1.25931E-05 0.00000E+00
 -1       976 1.85421E-04-1.30790E-05 1.65436E-24
 -1       977 1.85304E-04-1.35248E-05 0.00000E+00
 -1       978 1.85186E-04-1.39414E-05 0.00000E+00
 -1       979 1.85069E-04-1.43394E-05 0.00000E+00
 -1       980 1.84952E-04-1.47296E-05 0.00000E+00
 -1       981 1.84835E-04-1.51226E-05 0.00000E+00
 -1       982 1.84718E-04-1.55292E-05 1.65436E-24
 -1       983 1.84601E-04-1.59600E-05 3.30872E-24
 -1       984 1.84485E-04-1.64258E-05 1.65436E-24
 -1       985 1.84369E-04-1.69373E-05 0.00000E+00
 -3
    1PSTEP                        18           9           1          
  100CL  109 6.44531E-01         409                     0    9           1
 -4  STRESS      6    1
 -5  SXX         1    4    1    1
 -5  SYY         1    4    2    2
 -5  SZZ         1    4    3    3
 -5  SXY         1    4    1    2
 -5  SYZ         1    4    2    3
 -5  SZX         1    4    3    1
 -1         1-4.42961E+06-1.65126E+06-9.74344E+05-1.62388E+06-4.80213E-10 1.77766E-07
 -1         2 3.01975E+04-2.13494E+06 1.25887E+05 3.29440E+05 4.93037E-09-1.53668E-07
 -1         3-1.24264E+03-1.62025E+06 4.06078E+02-2.10249E+03-3.81739E-10 1.48430E-08
 -1         5-4.80108E+01 3.68842E+05 9.52122E+00-9.77752E-01-4.83800E-10 5.44605E-09
 -1         8-6.20873E+05-2.08853E+05-4.79717E+04-4.00685E+05-2.57387E-10-3.05154E-08
 -1         9 8.09546E+06-6.71752E+05 1.35485E+06-1.01666E+06 3.22005E-08 8.89413E-08
 -1        10-2.13268E+03-1.68841E+06-3.86912E+03-1.42073E+04-1.28639E-08-1.31408E-08
 -1        12-4.42063E+01 3.68862E+05 3.11375E+02-6.78999E+00-5.56224E-10 5.14956E-09
 -1        15 1.29506E+03 7.06364E+02 4.10759E+03 1.91280E+00-2.92886E-11-1.30453E-07
 -1        16 1.75964E+07-1.51073E+05 2.47683E+06-1.43395E+06 1.75011E-08 1.00117E-07
 -1        17 6.31880E+06 4.50813E+06 1.70241E+06 4.42718E+06 1.49070E-08 2.25496E-08
 -1        18 1.12844E+05 2.55356E+04-1.67875E+03-1.12228E+05 1.41738E-08 7.59110E-09
 -1        19 1.17242E+05 1.35494E+05-9.13017E+02 2.13878E+04 1.15124E-09-5.58393E-09
 -1        20-7.55271E+04-5.50412E+05-1.23292E+05 2.58518E+04-1.35803E-09 3.27782E-09
 -1        21-4.49553E+01-2.87782E+05-9.01864E+02 2.08336E+02 1.44268E-08 5.68287E-10
 -1        24 1.03403E+07 8.81589E+06 2.92709E+06 8.20057E+06-1.48177E-07-4.98646E-08
 -1        25 7.41570E+04 8.06887E+04 5.22199E+04-5.36300E+05-8.76389E-10 1.18451E-08
 -1        26-5.24160E+04 8.80433E+04-2.36006E+04 1.89322E+02 1.92449E-10 1.89098E-09
 -1        27-7.45177E+04-2.97897E+05-1.09323E+05 6.63568E+04 4.10455E-09-5.93900E-10
 -1        28 2.17216E+04-8.25764E+04 1.64128E+04 2.06513E+04-2.15346E-09-3.01871E-09
 -1        32-1.62981E+06-2.99592E+06-1.74403E+05 2.62227E+05-3.88172E-08-9.41282E-09
 -1        33-1.71986E+05 8.87382E+04 3.10419E+04-3.76572E+04-2.29208E-09 2.49668E-08
 -1        34-2.15690E+05-2.37678E+04 6.49248E+02 7.21742E+04-3.05492E-09 1.24783E-09
 -1        35-2.23425E+04-3.27551E+04-1.30281E+03 5.00800E+04-2.30305E-09 1.15688E-09
 -1        51 4.97337E+04-2.11643E+05 1.07572E+05-6.34966E+05-3.49246E-10 1.71662E-07
 -1        52 1.80196E+04-1.94466E+05 5.81387E+04-7.40303E+05 2.03727E-10-1.14560E-07
 -1        53 5.11259E+03-2.09960E+05 3.29794E+04-6.32651E+05 4.11092E-10-4.37140E-08
 -1        54 1.15519E+04-2.06364E+05 3.25636E+04-7.42701E+05-1.01863E-10 6.55637E-08
 -1        55 2.42867E+04-2.15958E+05 4.59966E+04-6.32333E+05 5.74801E-10 1.69173E-07
 -1        56-8.35201E+06-9.59372E+05-7.22392E+05-3.28204E+06-2.51021E-08 6.20203E-08
 -1        57-8.82284E+06-1.41977E+06-4.85226E+05-3.03449E+06 1.04301E-08 6.19912E-08
 -1        58-8.44552E+06-1.23574E+06-1.69594E+05-3.29028E+06-3.57068E-08-9.34451E-08
 -1        59-8.72213E+06-1.09010E+06-1.00710E+05-3.02494E+06-1.65946E-08-1.51820E-07
 -1        60-8.45394E+06-1.27871E+06-3.92513E+04-3.29670E+06-3.19233E-10-2.78942E-08
 -1        61-8.67886E+06-1.06877E+06-2.17335E+04-3.04841E+06 2.26660E-08 1.41013E-07
 -1        62-8.48678E+06-1.25698E+06-1.17367E+04-3.26594E+06 2.13186E-09-8.10787E-08
 -1        63-8.58680E+06-1.14498E+06-7.09420E+03-3.13494E+06-5.29508E-09-1.20453E-08
 -1        64-8.54137E+06-1.20547E+06-1.18909E+04-3.20682E+06 7.65613E-09-1.17461E-09
 -1        65-8.48343E+06-1.25452E+06-1.82618E+04-3.25489E+06-1.92522E-08-2.61380E-08
 -1        66-8.58997E+06-1.14774E+06-3.60800E+04-3.14586E+06-1.49357E-08 1.55978E-08
 -1        67-8.43126E+06-1.36945E+06-8.86317E+04-3.34903E+06-1.46974E-09 1.05441E-07
 -1        68-8.59857E+06-1.08840E+06-1.49506E+05-3.11579E+06 2.06237E-08 7.58664E-08
 -1        69-8.55763E+06-1.63313E+06-4.29726E+05-3.33378E+06-2.85509E-08-2.01399E-08
 -1        70-8.46795E+06-8.89566E+05-6.37514E+05-3.16061E+06 2.88419E-08-5.53555E-08
 -1        86-3.10272E+04-3.09773E+06-7.37296E+04-1.64002E+05-4.28540E-08-6.88378E-08
 -1        87 3.75640E+04-2.51613E+06 5.14101E+04 4.89011E+05-7.27655E-08 9.76379E-08
 -1        88-1.38255E+03-2.75719E+06-7.80100E+03-3.24526E+05-6.60875E-08-4.81000E-08
 -1        89 3.62839E+04-2.57019E+06 2.03821E+04 5.21250E+05-9.48276E-08-3.25502E-07
 -1        90-2.46433E+04-3.04933E+06-1.13890E+05-1.96509E+05-2.64990E-08-2.38178E-08
 -1       121-1.71138E+03-1.62440E+06-3.80175E+02 1.04385E+03 1.34833E-09-8.82937E-09
 -1       122-1.06109E+03-1.62029E+06 7.91955E+02-4.20456E+03-5.17309E-09 7.29779E-09
 -1       123-1.74340E+03-1.62453E+06 4.73793E+02 3.11674E+03 3.94573E-09 1.67456E-08
 -1       124 6.08317E+02-1.61975E+06 3.09992E+03-8.77882E+03-9.10768E-09 3.47936E-08
 -1       125-2.60770E+03-1.62545E+06 3.86946E+03 5.58391E+03 6.46833E-09 5.12955E-10
 -1       191-5.07000E+01 3.68865E+05 9.29922E+00 5.03648E-01-4.24305E-10 8.33097E-10
 -1       192-4.89131E+01 3.68843E+05 2.02598E+01-3.26109E+00-6.14582E-10-8.38918E-09
 -1       193-5.30841E+01 3.68864E+05 3.56530E+01 2.84861E+00-9.16236E-10 8.75298E-09
 -1       194-5.18099E+01 3.68846E+05 7.68765E+01-7.44487E+00-5.07044E-10 6.96764E-09
 -1       195-5.76617E+01 3.68862E+05 1.48341E+02 4.79159E+00-1.17158E-09 3.47609E-09
 -1       251-2.27317E+06-4.35466E+04-2.33749E+05 1.31203E+05-1.01863E-09 1.20712E-07
 -1       252-1.06775E+06 5.01301E+04 7.59213E+04-4.40000E+05 5.17048E-09-1.17974E-07
 -1       253-1.77393E+06-1.88778E+04-4.39888E+04 3.08648E+05-9.96260E-09-2.03781E-08
 -1       254-1.63753E+06 7.22254E+04 1.38168E+04-6.15112E+05-7.04489E-09-1.09034E-08
 -1       255-1.76011E+06-1.87990E+04-2.06641E+04 3.11392E+05-3.50792E-09 1.62267E-07
 -1       256-1.09291E+06 5.90499E+04 1.24453E+05-4.52216E+05-3.22379E-08 7.90824E-08
 -1       257-2.26480E+06-5.00363E+04-1.25155E+05 1.40839E+05 5.05679E-09 1.34678E-08
 -1       258-5.47067E+05 4.50020E+04 2.27705E+05 9.33996E+03-2.53203E-08-1.01209E-07
 -1       259-2.25194E+06-4.91510E+04-1.20490E+05-1.47041E+05-9.74978E-10 1.21242E-07
 -1       260-1.12030E+06 6.03448E+04 1.24196E+05 4.64616E+05 1.81526E-08-9.21621E-08
 -1       261-1.74849E+06-1.85854E+04-8.46621E+03-3.11636E+05-5.62859E-08-2.91082E-08
 -1       262-1.62896E+06 8.16604E+04 3.72772E+04 6.16474E+05 5.95669E-08 1.32814E-07
 -1       263-1.79394E+06-2.86195E+04-1.00030E+04-3.03521E+05-6.28643E-09-4.99758E-08
 -1       264-1.00487E+06 1.19424E+05 1.82571E+05 4.30926E+05-1.10500E-07-8.03029E-08
 -1       265-2.31308E+06-1.05243E+05-9.22641E+04-1.21037E+05-3.77659E-08 1.06205E-07
 -1       266-2.31283E+04-1.07595E+04 5.38473E+04-4.01887E+01-1.34605E-10-2.55083E-07
 -1       267 2.67983E+04 1.25505E+04 3.81244E+04 4.62939E+01 1.35969E-10 3.60919E-08
 -1       268-3.62058E+03-1.78655E+03 1.41429E+04-5.95916E+00 8.73115E-11 1.54379E-07
 -1       269 4.27426E+03 2.13996E+03 9.21604E+03 6.93476E+00 3.92220E-11 2.74217E-07
 -1       270-6.46635E+02-3.53179E+02 4.43767E+03-9.53498E-01 6.70752E-12 1.47332E-08
 -1       271-2.05183E+06-2.46804E+05-1.51983E+05-7.84881E+05-2.10930E-08 1.95942E-08
 -1       272-2.16169E+06-3.03378E+05-9.78501E+04-7.22034E+05-3.53521E-09-9.95205E-08
 -1       273-2.07918E+06-2.86065E+05-3.58612E+04-7.79532E+05-5.35420E-09-8.43065E-08
 -1       274-2.12934E+06-2.55426E+05-2.01258E+04-7.30360E+05-2.33827E-08 1.37446E-07
 -1       275-2.08321E+06-2.90033E+05-8.35912E+03-7.78216E+05 2.17228E-08 7.71961E-08
 -1       276-2.12309E+06-2.51856E+05-4.37989E+03-7.33049E+05-8.01401E-09 1.37181E-07
 -1       277-2.08489E+06-2.89430E+05-2.21544E+03-7.76695E+05-1.98388E-08 9.66329E-08
 -1       278-2.11899E+06-2.54420E+05-1.36146E+03-7.36217E+05-1.20754E-08-8.11131E-08
 -1       279-2.08665E+06-2.87832E+05-1.59377E+03-7.74603E+05-3.41497E-08-4.63483E-08
 -1       280-2.11450E+06-2.58812E+05-2.32730E+03-7.40369E+05 1.44537E-08-4.23261E-08
 -1       281-2.08865E+06-2.85517E+05-4.67091E+03-7.72023E+05-1.82263E-09 1.62697E-07
 -1       282-2.11105E+06-2.66629E+05-1.03223E+04-7.45151E+05 3.73111E-08 2.11828E-07
 -1       283-2.08946E+06-2.80710E+05-1.89915E+04-7.69252E+05 7.42148E-10-9.12629E-08
 -1       284-2.12126E+06-2.97511E+05-5.05868E+04-7.47432E+05 2.96459E-08-2.33000E-07
 -1       285-2.07829E+06-2.57512E+05-7.93714E+04-7.68477E+05-9.75342E-09-3.12175E-08
 -1       301 1.30142E+04-4.97631E+05 1.73749E+05-8.63596E+05 7.27596E-11 9.62027E-08
 -1       302 1.42533E+04-4.53147E+05 1.05707E+05-1.26237E+06-2.91766E-09 1.22311E-07
 -1       303-6.80872E+03-4.83661E+05 6.42807E+04-8.61440E+05 9.96806E-10 8.27858E-08
 -1       304 1.36531E+03-4.56916E+05 7.25907E+04-1.26160E+06-5.09317E-10-7.13044E-10
 -1       305-2.99020E+03-4.81290E+05 9.96086E+04-8.64141E+05 7.25777E-10 1.32713E-08
 -1       306-2.56807E+07-5.17943E+06-7.03794E+06-1.27220E+06-7.99773E-08-3.26254E-08
 -1       307 2.08626E+07 1.59321E+06 4.52353E+06-1.20485E+07-7.39950E-07 5.87315E-08
 -1       308-7.89511E+06-6.23153E+05-5.56771E+05 4.28134E+06-6.18165E-08 4.70638E-07
 -1       309-3.57573E+06 5.59902E+06 1.65516E+06-1.78926E+07 1.26674E-07 4.30311E-07
 -1       310-1.06951E+07-1.04640E+06-1.28011E+06 4.14138E+06-2.26835E-07 2.95404E-09
 -1       311 2.73277E+07-3.15010E+05 5.48528E+06-8.55324E+06 4.02099E-07-2.02708E-08
 -1       312-2.64887E+07-5.19175E+06-6.59298E+06-3.63006E+06-3.49246E-10 1.41998E-07
 -1       313 3.69209E+07 9.58152E+06 8.50242E+06 1.69526E+07-2.87866E-07-7.42148E-10
 -1       314-1.64433E+07-1.33303E+07-6.07567E+06-1.06300E+07 3.80096E-08-1.16124E-07
 -1       315-7.38041E+05 2.25074E+07 4.67842E+06 1.02777E+07 1.43060E-07-2.68570E-07
 -1       316-2.61870E+04-8.78638E+06-5.15069E+05-3.70934E+06-1.02117E-06-4.03961E-07
 -1       317-1.68264E+07 1.87526E+07 1.62509E+06-5.15998E+06 7.43428E-07-6.73943E-07
 -1       318-1.36888E+06-9.98193E+06-1.33723E+06-4.48163E+06-7.00355E-07 1.72033E-07
 -1       319 4.06072E+06 2.35910E+07 5.24686E+06 1.27294E+07-4.76139E-08 2.21131E-07
 -1       320-1.91327E+07-1.36762E+07-7.71921E+06-1.05256E+07 1.69966E-07-5.41040E-08
 -1       336-3.07772E+02-1.75848E+06-1.36623E+04 8.49558E+03-2.45864E-08 4.72210E-09
 -1       337-5.24205E+03-1.75890E+06-1.77449E+04-2.05473E+04-4.42758E-08 6.83940E-10
 -1       338 5.53355E+02-1.75803E+06-2.74246E+04 1.18605E+04-3.10056E-08-1.04774E-09
 -1       339-2.91224E+04-1.77527E+06-6.21146E+04-2.71128E+04-5.70944E-08-1.70548E-08
 -1       340 1.94407E+04-1.74399E+06-9.75991E+04 1.49490E+04-3.73875E-08 2.24463E-08
 -1       406-2.24499E+01 3.68848E+05 6.12593E+02 2.29040E+00-1.55613E-09-1.18962E-09
 -1       407 1.70371E+02 3.68970E+05 1.30652E+03 1.92819E+01-3.51285E-10-9.10950E-09
 -1       408 6.26934E+02 3.68753E+05 2.60665E+03-2.19810E+01-1.87117E-09-1.03610E-08
 -1       409 2.78061E+03 3.69803E+05 5.87260E+03 2.30881E+02-2.72394E-10-1.50976E-08
 -1       410 8.06821E+03 3.68006E+05 1.19868E+04-2.21754E+02-2.46291E-09-9.60426E-09
 -1       521-2.73151E+07-6.36282E+06-8.24363E+06-9.97149E+05-1.57743E-07 4.56348E-08
 -1       522 2.16495E+07 2.14523E+06 4.60933E+06-1.50111E+07-4.97384E-07-1.51456E-07
 -1       523-8.71333E+06-8.90386E+05-5.80852E+05 4.72776E+06 1.15717E-07-2.99915E-07
 -1       524-6.55975E+06 7.89235E+06 1.80266E+06-2.08044E+07 7.67865E-07-5.00022E-07
 -1       525-1.17115E+07-1.49263E+06-1.41362E+06 4.57551E+06 7.14383E-07-7.62229E-08
 -1       526 2.96854E+07-3.44599E+05 5.79403E+06-1.09537E+07-6.40866E-08-3.25381E-08
 -1       527-2.83109E+07-6.54301E+06-7.60697E+06-3.55111E+06 1.10478E-07 5.95173E-08
 -1       528 4.05041E+07 1.04971E+07 8.90828E+06 1.92363E+07 2.90747E-07 1.63564E-08
 -1       529-1.75266E+07-1.52077E+07-6.98521E+06-1.09002E+07 1.35624E-07 7.25850E-08
 -1       530-2.87704E+06 2.63729E+07 4.96577E+06 1.04107E+07-2.33558E-08 6.88713E-07
 -1       531-1.29988E+05-9.94230E+06-5.24796E+05-3.91845E+06-8.18778E-07 2.52592E-07
 -1       532-1.98715E+07 2.10801E+07 1.79509E+06-8.30421E+06 2.87531E-07-6.06946E-07
 -1       533-1.46899E+06-1.11499E+07-1.41446E+06-4.61583E+06-1.50816E-07-8.38074E-07
 -1       534 2.16407E+06 2.75534E+07 5.49264E+06 1.32609E+07-7.11807E-08 6.49830E-07
 -1       535-2.03193E+07-1.56686E+07-8.83644E+06-1.07789E+07 8.90577E-08 4.00818E-07
 -1       536-6.59925E+05-4.50049E+04-2.87630E+04-4.83540E+04-4.14639E-09 6.14618E-08
 -1       537-9.99605E+04 4.39979E+04 8.01036E+04 1.11663E+05-9.67241E-08 9.46688E-08
 -1       538-3.92373E+05 2.08674E+03 6.21098E+03-6.60040E+04 3.76416E-08 1.07711E-07
 -1       539-2.85478E+05 3.09006E+03 2.30072E+04 1.26135E+05 1.38300E-07 1.10665E-07
 -1       540-4.78999E+05-2.93534E+02-1.71838E+04-6.32444E+04-1.82210E-08 9.94364E-08
 -1       541 6.88535E+04 1.44794E+04 9.10259E+04 8.74922E+04-6.80300E-08 8.34026E-08
 -1       542-7.37172E+05-1.72376E+04-7.17018E+04-2.66791E+04 3.80815E-08 3.25738E-08
 -1       543 2.89371E+05 2.33467E+04 1.34650E+05-1.23169E+04 4.01405E-09-1.16415E-08
 -1       544-6.93617E+05-1.40385E+04-6.36956E+04 3.60389E+04-2.18170E-08-1.82045E-08
 -1       545-3.29661E+04 7.84669E+03 6.74332E+04-1.02503E+05-3.44771E-08-7.22976E-08
 -1       546-4.23466E+05 5.40186E+03-1.05840E+04 6.32406E+04 3.74484E-10-7.94590E-08
 -1       547-3.01615E+05-4.68266E+03 7.81634E+03-1.28846E+05-9.01732E-08-7.83842E-08
 -1       548-4.32164E+05 4.48910E+03-2.20006E+04 6.29220E+04-7.97488E-08-9.50381E-08
 -1       549-1.50566E+04 1.05533E+04 4.74051E+04-1.00081E+05-6.04959E-08-7.42712E-08
 -1       550-7.02347E+05-1.62308E+04-1.16320E+05 3.39131E+04 5.02041E-09-2.54950E-08
 -1       551 3.73322E+04-7.69134E+05-6.28812E+03-1.20996E+06-9.48494E-08-1.64728E-08
 -1       552 8.46329E+04-8.07943E+05 1.53699E+04-1.72546E+06-6.54109E-08 2.35668E-08
 -1       553 6.44872E+04-8.06275E+05 3.57181E+04-1.20383E+06-1.07713E-07 1.49739E-08
 -1       554 1.21233E+05-8.20307E+05 8.54192E+04-1.72742E+06-6.80084E-08 3.34694E-09
 -1       555 9.41248E+04-8.29028E+05 1.54675E+05-1.20387E+06-1.10784E-07-2.03217E-08
 -1       556 2.03341E+05-3.52832E+05 3.88901E+04-3.85271E+05-2.33122E-08-2.77068E-08
 -1       557 3.27006E+05-4.51635E+05 2.25571E+04-4.96337E+05 8.84756E-09-1.45501E-08
 -1       558 1.88440E+05-3.49356E+05 5.71684E+03-3.86812E+05-2.32831E-09-2.93949E-09
 -1       559 3.03679E+05-4.54028E+05 3.92592E+03-5.14115E+05 3.74566E-08 1.04774E-08
 -1       560 1.75361E+05-3.41126E+05-4.04928E+02-3.96152E+05 2.44763E-08 9.98261E-09
 -1       561 2.87062E+05-4.47507E+05 5.39447E+02-5.25358E+05 2.34286E-09 6.16274E-09
 -1       562 1.65025E+05-3.34676E+05-8.97144E+02-4.03618E+05-2.45927E-09-1.48066E-09
 -1       563 2.74805E+05-4.42163E+05 8.14815E+01-5.33342E+05 3.70346E-09 4.85761E-09
 -1       564 1.57711E+05-3.30111E+05-4.31850E+02-4.08795E+05 5.10772E-09 1.78247E-08
 -1       565 2.66788E+05-4.38672E+05 5.59146E+01-5.38459E+05 9.33505E-09 1.25747E-08
 -1       566 1.53529E+05-3.27462E+05-1.92431E+02-4.11722E+05-3.76895E-09-6.08452E-09
 -1       567 2.63042E+05-4.37041E+05-3.04092E+02-5.40716E+05 2.51493E-08-7.74889E-09
 -1       568 1.52557E+05-3.26871E+05-9.76039E+02-4.12498E+05 2.23736E-09-5.98448E-09
 -1       569 2.62271E+05-4.37001E+05-2.46658E+03-5.39171E+05-1.47338E-08-4.88217E-09
 -1       570 1.55818E+05-3.29900E+05-5.42253E+03-4.11575E+05 3.39060E-09-1.62754E-08
 -1       571 2.77780E+05 1.00621E+04 1.44556E+04-8.78998E+04-1.52331E-08 1.34887E-08
 -1       572 2.79885E+05 3.73956E+03 7.08402E+03-9.64333E+04-3.30015E-08 2.97587E-09
 -1       573 2.78617E+05 1.12816E+03 3.14759E+03-8.77320E+04-1.83854E-08 3.99905E-09
 -1       574 2.78832E+05 6.19663E+02 1.57826E+03-9.66430E+04-2.13004E-09-9.58153E-09
 -1       575 2.78709E+05 3.58259E+02 7.44797E+02-8.77091E+04-6.42319E-09 3.21324E-09
 -1       576 2.78700E+05 3.62178E+02 3.81101E+02-9.66709E+04-1.16894E-08 1.37661E-08
 -1       577 2.78743E+05 3.04576E+02 1.90122E+02-8.77060E+04-4.12547E-09-9.45874E-11
 -1       578 2.78722E+05 3.29418E+02 1.09382E+02-9.66747E+04-6.18456E-10-8.94215E-09
 -1       579 2.78804E+05 2.74627E+02 7.48724E+01-8.77057E+04 5.79894E-09-7.80074E-09
 -1       580 2.78807E+05 2.87230E+02 8.59552E+01-9.66702E+04-1.11640E-08-1.36506E-08
 -1       581 2.78900E+05 2.26421E+02 1.29854E+02-8.77111E+04 4.89490E-09-1.19417E-08
 -1       582 2.78957E+05 2.60220E+02 2.62914E+02-9.66133E+04 9.53150E-10 5.27598E-09
 -1       583 2.79016E+05 2.75318E+02 5.05672E+02-8.77631E+04-1.11340E-08 1.82836E-08
 -1       584 2.79292E+05 6.85932E+02 1.14296E+03-9.61757E+04-1.81499E-08-2.82375E-09
 -1       585 2.79024E+05 1.65645E+03 2.31609E+03-8.81482E+04-1.13669E-08-3.23053E-09
 -1       586-3.29592E+03 1.08231E+05-3.03647E+03-2.41237E+05-3.15185E-09-2.97428E-09
 -1       587-1.18861E+03 1.07945E+05 5.97531E+02-2.65505E+05-8.82210E-09-2.24273E-08
 -1       588 4.92599E+02 1.07802E+05 4.45164E+03-2.41108E+05-4.86216E-09-1.95187E-08
 -1       589 4.95685E+03 1.10129E+05 1.16700E+04-2.65270E+05-6.00994E-09-5.32600E-09
 -1       590 1.58702E+04 1.06535E+05 2.45288E+04-2.41523E+05-1.22600E-09-4.51473E-09
 -1       591-6.91511E+04-1.51623E+04-2.11876E+04-2.99840E+04 1.24510E-09-1.53705E-09
 -1       592-7.28522E+04-1.86525E+04-1.14768E+04-3.35579E+04 7.50451E-09-2.08237E-08
 -1       593-7.12712E+04-1.36237E+04-4.77729E+03-3.15365E+04 7.73881E-09 3.20620E-09
 -1       594-6.99249E+04-1.55456E+04-2.38257E+03-3.36713E+04 2.35326E-09 1.85969E-08
 -1       595-7.14329E+04-1.36185E+04-1.09393E+03-3.16070E+04-2.65490E-09 2.06467E-08
 -1       596-6.97246E+04-1.54035E+04-5.56064E+02-3.36477E+04 6.92802E-09 1.72662E-09
 -1       597-7.14532E+04-1.36329E+04-3.02704E+02-3.16097E+04 6.70002E-09-3.99291E-09
 -1       598-6.97048E+04-1.53979E+04-2.43179E+02-3.36410E+04-3.03760E-09 2.57429E-08
 -1       599-7.14519E+04-1.36334E+04-3.10431E+02-3.16093E+04 8.88122E-10-1.83204E-08
 -1       600-6.97247E+04-1.54042E+04-5.76520E+02-3.36457E+04 4.22426E-09-1.76487E-08
 -1       601-7.14285E+04-1.36196E+04-1.13726E+03-3.16060E+04 6.66137E-09 1.20717E-08
 -1       602-6.99328E+04-1.55509E+04-2.47850E+03-3.36667E+04-4.32567E-09 5.09760E-09
 -1       603-7.12577E+04-1.36278E+04-4.97040E+03-3.15333E+04-4.47358E-09 1.42363E-08
 -1       604-7.29950E+04-1.87649E+04-1.19400E+04-3.35253E+04 2.86298E-09-3.94243E-09
 -1       605-6.90329E+04-1.52453E+04-2.20428E+04-2.99364E+04 3.69326E-09 1.53823E-08
 -1       606 2.69367E+04-1.36337E+04-2.44499E+04 2.45676E+04 1.63263E-08-9.75569E-09
 -1       607 2.27581E+04-4.44780E+03-1.21758E+04 2.76026E+04 1.86483E-08-2.48956E-08
 -1       608 2.51378E+04-7.97778E+02-5.45094E+03 2.43899E+04 5.88989E-09 1.06222E-08
 -1       609 2.46796E+04-2.67320E+02-2.75358E+03 2.78211E+04-1.60799E-09 1.98906E-08
 -1       610 2.49322E+04-3.18118E+01-1.31397E+03 2.43691E+04-1.79170E-10-1.98611E-09
 -1       611 2.48585E+04-2.99203E+01-6.62486E+02 2.78448E+04 5.30235E-09 9.03106E-09
 -1       612 2.48854E+04-1.75373E+01-3.15147E+02 2.43670E+04 7.73707E-09-1.67879E-08
 -1       613 2.48675E+04-2.48899E+01-1.41376E+02 2.78476E+04 7.94535E-09-5.39376E-09
 -1       614 2.48628E+04-2.26469E+01-3.36335E+01 2.43662E+04 2.42017E-09 4.88603E-09
 -1       615 2.48609E+04-2.25861E+01 5.81746E+01 2.78480E+04-2.52612E-09 1.01118E-08
 -1       616 2.48451E+04-1.89435E+01 1.75425E+02 2.43665E+04-1.07184E-09 5.64842E-09
 -1       617 2.48808E+04 1.55223E+01 4.00672E+02 2.78475E+04-8.51287E-10-1.68995E-08
 -1       618 2.48094E+04 9.71190E+01 8.07748E+02 2.43668E+04 9.59972E-10-9.72705E-10
 -1       619 2.51652E+04 6.40529E+02 1.81397E+03 2.78468E+04 6.57224E-10-8.32983E-09
 -1       620 2.45407E+04 2.01291E+03 3.64604E+03 2.43677E+04 2.57103E-09 1.30362E-08
 -1       621 4.53386E+02 2.87421E+05 3.59619E+03 3.58392E+04 8.12634E-10-3.54612E-09
 -1       622 5.91226E+02 2.88263E+05 3.21648E+03 5.20485E+04 9.14497E-10 6.73299E-09
 -1       623 1.07675E+02 2.87607E+05 3.89958E+03 3.56758E+04 9.72932E-10 2.77942E-09
 -1       624 1.96635E+03 2.89439E+05 7.58680E+03 5.22101E+04 1.12914E-09 2.82034E-09
 -1       625 1.93400E+03 2.86106E+05 1.32711E+04 3.56729E+04 1.12141E-09 4.50223E-09
 -1       626 2.49692E+05 5.99370E+04 5.00130E+03 1.22754E+05-1.77033E-09-8.82392E-09
 -1       627 2.47357E+05 6.13718E+04 2.41008E+03 1.27005E+05 5.68207E-09 9.60199E-10
 -1       628 2.49821E+05 5.76427E+04 1.01913E+03 1.23596E+05 2.76759E-09 1.96860E-09
 -1       629 2.46728E+05 6.07155E+04 4.98835E+02 1.27246E+05-3.71529E-10 2.06820E-08
 -1       630 2.49834E+05 5.75323E+04 2.31311E+02 1.23630E+05 6.00630E-09 4.73213E-09
 -1       631 2.46660E+05 6.06914E+04 1.24382E+02 1.27248E+05 1.18082E-08-1.75576E-08
 -1       632 2.49830E+05 5.75369E+04 8.16891E+01 1.23625E+05 1.42895E-08-1.78784E-09
 -1       633 2.46651E+05 6.06938E+04 9.07419E+01 1.27243E+05 2.48428E-09 1.18871E-08
 -1       634 2.49824E+05 5.75347E+04 1.46414E+02 1.23624E+05 1.44377E-08-9.60654E-09
 -1       635 2.46664E+05 6.06926E+04 2.96135E+02 1.27248E+05 1.49208E-08-2.59006E-08
 -1       636 2.49814E+05 5.75297E+04 5.97975E+02 1.23623E+05 1.11668E-08 2.96950E-09
 -1       637 2.46793E+05 6.07858E+04 1.31467E+03 1.27247E+05 3.34808E-10-5.63887E-11
 -1       638 2.49768E+05 5.78203E+04 2.70119E+03 1.23492E+05 2.24281E-09-1.46370E-08
 -1       639 2.48211E+05 6.27592E+04 6.39101E+03 1.26829E+05 5.70435E-09-4.62715E-08
 -1       640 2.49572E+05 6.37117E+04 1.32625E+04 1.21007E+05 3.53066E-09-1.48914E-08
 -1       656 6.40699E+04-1.63777E+06-1.54661E+05-2.09619E+03-1.60071E-10-3.98131E-09
 -1       657-8.47492E+04-1.70765E+06-1.28107E+05 5.71082E+03-2.72848E-12-2.41310E-09
 -1       658 2.04142E+04-1.65762E+06-7.88714E+04-4.05918E+03 6.11180E-10-1.58133E-08
 -1       659-9.15717E+04-1.71089E+06-1.37072E+05 7.30170E+03-1.23691E-09 4.49737E-09
 -1       660 7.08771E+04-1.63454E+06-1.70075E+05-3.68706E+03-1.61526E-09 4.99347E-09
 -1       661 1.60702E+05 1.69233E+04 1.67120E+04 6.28255E+04 7.24867E-10 2.03272E-09
 -1       662 1.70057E+05 2.93918E+04 1.12624E+04 5.91835E+04-3.28612E-10-1.91653E-08
 -1       663 1.63985E+05 2.22851E+04 3.93902E+03 6.18733E+04 2.11571E-10 7.92147E-09
 -1       664 1.66252E+05 2.31210E+04 2.35616E+03 6.03461E+04-9.23961E-10 1.19875E-08
 -1       665 1.64482E+05 2.30180E+04 9.29492E+02 6.17287E+04 2.32205E-10 5.37062E-09
 -1       666 1.65664E+05 2.22825E+04 5.43805E+02 6.05345E+04 4.81310E-09-1.93372E-08
 -1       667 1.64569E+05 2.31017E+04 2.88730E+02 6.16929E+04-1.75856E-09-2.73626E-09
 -1       668 1.65569E+05 2.22217E+04 2.93926E+02 6.05866E+04-5.54915E-09-3.73344E-09
 -1       669 1.64576E+05 2.30770E+04 3.97715E+02 6.16769E+04-4.17461E-09 1.06011E-08
 -1       670 1.65666E+05 2.24372E+04 8.65825E+02 6.05893E+04-7.09407E-09 4.35433E-09
 -1       671 1.64472E+05 2.28906E+04 1.53727E+03 6.16882E+04 3.42123E-09 1.14380E-09
 -1       672 1.66561E+05 2.39329E+04 3.93301E+03 6.03724E+04 1.40830E-09 5.27893E-09
 -1       673 1.63685E+05 2.16192E+04 6.59107E+03 6.18794E+04 3.63718E-09-3.49519E-09
 -1       674 1.72835E+05 3.45218E+04 1.88491E+04 5.85291E+04-1.90414E-09-2.77178E-08
 -1       675 1.58239E+05 1.25982E+04 2.79786E+04 6.34202E+04-2.91766E-09 1.29530E-08
 -1       676 2.34831E+01-2.87707E+05-1.08698E+03-1.04171E+02 1.59304E-09-9.96389E-09
 -1       677-2.87993E+02-2.87970E+05-1.98936E+03 2.08181E+02 5.72638E-09 3.96674E-09
 -1       678 1.92796E+02-2.87520E+05-3.51669E+03-1.03942E+02 3.72211E-10 2.10468E-09
 -1       679-3.51717E+03-2.90093E+05-8.35417E+03 2.07307E+02 8.03664E-09 8.81120E-09
 -1       680 2.09961E+03-2.85585E+05-1.34641E+04-1.02143E+02-3.43789E-10-3.85830E-09
 -1       771-2.99237E+06-7.06353E+05-1.44445E+05-1.41457E+06-3.27127E-08-2.72412E-08
 -1       772-2.92209E+06-7.88447E+05-7.46150E+04-1.50928E+06-2.84781E-08 1.03355E-08
 -1       773-3.01986E+06-6.84832E+05-3.77163E+04-1.42659E+06-1.60944E-08 1.19326E-08
 -1       774-2.91288E+06-7.72601E+05-1.68936E+04-1.53149E+06 2.52767E-08 5.07862E-09
 -1       775-3.03387E+06-6.74967E+05-1.24214E+04-1.43228E+06-1.08557E-08 7.27596E-12
 -1       776-2.92290E+06-7.70267E+05-4.67962E+03-1.54805E+06-3.37604E-09 4.06362E-09
 -1       777-3.04593E+06-6.66232E+05-5.41027E+03-1.43730E+06 3.34694E-09 1.38243E-10
 -1       778-2.93341E+06-7.68129E+05-1.54105E+03-1.56224E+06-3.08501E-09 7.30506E-09
 -1       779-3.05625E+06-6.58633E+05-2.67918E+03-1.44159E+06-3.39060E-09-2.38288E-09
 -1       780-2.94265E+06-7.66086E+05-4.46256E+02-1.57380E+06-5.23141E-09 1.80080E-10
 -1       781-3.06443E+06-6.52526E+05-1.03317E+03-1.44494E+06-2.57714E-08 1.30967E-10
 -1       782-2.94976E+06-7.64342E+05 3.78237E+02-1.58232E+06-3.60305E-08-5.04770E-09
 -1       783-3.07018E+06-6.48296E+05 5.93070E+02-1.44730E+06-8.89850E-09-1.34237E-08
 -1       784-2.95367E+06-7.62535E+05 2.43546E+03-1.58757E+06-1.84082E-08 4.06544E-10
 -1       785-3.07357E+06-6.45778E+05 4.30085E+03-1.44880E+06-3.54194E-08 6.79393E-09
 -1       786 1.24740E+05-9.64259E+03 2.23087E+04-2.81784E+02 1.19178E-09-3.74166E-09
 -1       787 1.34415E+05 1.11637E+04 1.57825E+04-1.01694E+02 5.95180E-09-8.56062E-09
 -1       788 1.28471E+05-1.51115E+03 5.77190E+03-2.48534E+02 1.87472E-09 8.84006E-09
 -1       789 1.30069E+05 1.74887E+03 3.62363E+03-1.53134E+02 1.72905E-09-1.64282E-08
 -1       790 1.29087E+05-2.35424E+02 1.46767E+03-2.30358E+02-2.77166E-09 6.53506E-09
 -1       791 1.29349E+05 2.72265E+02 8.48719E+02-1.84335E+02-5.64097E-09-1.95722E-09
 -1       792 1.29191E+05-3.56502E+01 3.61703E+02-2.17335E+02-5.15744E-09 3.94795E-09
 -1       793 1.29225E+05 3.84276E+01 1.84816E+02-2.08854E+02 5.82743E-11-7.26878E-10
 -1       794 1.29211E+05-1.73490E+00 5.70705E+01-2.05838E+02 4.34714E-09 4.61463E-09
 -1       795 1.29192E+05-1.95105E+01-3.28154E+01-2.32859E+02-4.17977E-09 1.29635E-08
 -1       796 1.29224E+05 2.22560E+01-1.18933E+02-1.93330E+02 4.34082E-09-4.14091E-09
 -1       797 1.29119E+05-1.67582E+02-3.38125E+02-2.61580E+02 2.79193E-09 2.86402E-09
 -1       798 1.29284E+05 1.46225E+02-5.52334E+02-1.77117E+02 1.61329E-09 1.33188E-08
 -1       799 1.28699E+05-1.07821E+03-1.52234E+03-3.01525E+02 4.67924E-09 1.34877E-08
 -1       800 1.29644E+05 9.32134E+02-2.15522E+03-1.53385E+02-3.13038E-11-1.00933E-08
 -1       801-1.06180E+05-8.78747E+06-1.19007E+06 1.12822E+06 8.50123E-08-4.20441E-08
 -1       802 5.52029E+05 4.05981E+06 1.70658E+06-1.36221E+06 2.32962E-07-3.40806E-08
 -1       803-4.26699E+05-1.21136E+07-1.52300E+06 7.18379E+05 7.09078E-08 1.45628E-08
 -1       804 2.14576E+05 1.12781E+06 1.20283E+06 5.82484E+05-1.04268E-07-8.68195E-08
 -1       805 1.64491E+05-5.87063E+06-2.32509E+05-8.11864E+05-4.35466E-08-6.23049E-08
 -1       806-2.97135E+05-5.72411E+04-2.19077E+04-1.17462E+05-1.18330E-08 1.88265E-10
 -1       807-2.98899E+05-5.36240E+04-1.07630E+04-1.22729E+05 2.42562E-09 1.58298E-09
 -1       808-2.97733E+05-4.93495E+04-4.56604E+03-1.21199E+05-3.23098E-09 1.23115E-08
 -1       809-2.96638E+05-5.05982E+04-2.23269E+03-1.22992E+05-5.01927E-09 9.96477E-09
 -1       810-2.97823E+05-4.90747E+04-1.02334E+03-1.21365E+05 5.59248E-09-4.58044E-09
 -1       811-2.96464E+05-5.04764E+04-5.08908E+02-1.22958E+05 1.22236E-09-1.94336E-08
 -1       812-2.97837E+05-4.90981E+04-2.57375E+02-1.21364E+05-6.27915E-09 1.53750E-09
 -1       813-2.96440E+05-5.04783E+04-1.67298E+02-1.22940E+05-8.90850E-09-2.94813E-09
 -1       814-2.97831E+05-4.91071E+04-1.65789E+02-1.21361E+05 7.08496E-10-1.08189E-08
 -1       815-2.96444E+05-5.04804E+04-2.67211E+02-1.22934E+05 1.08339E-08 1.44919E-08
 -1       816-2.97812E+05-4.91059E+04-5.06416E+02-1.21357E+05 1.10349E-08 3.06845E-08
 -1       817-2.96530E+05-5.05285E+04-1.08699E+03-1.22923E+05-4.17458E-09 1.76988E-09
 -1       818-2.97747E+05-4.92589E+04-2.21700E+03-1.21285E+05 1.13696E-08 4.43288E-09
 -1       819-2.97744E+05-5.18683E+04-5.21668E+03-1.22637E+05 1.20672E-08 9.02833E-09
 -1       820-2.97330E+05-5.31979E+04-1.06177E+04-1.19600E+05 3.82170E-09 8.96762E-10
 -1       821-3.66967E+05 2.02196E+04-4.68726E+04 1.51420E+03 1.06084E-08 9.12041E-09
 -1       822-3.86826E+05-2.34126E+04-3.30898E+04-2.94163E+03 1.92103E-09 4.96129E-09
 -1       823-3.74564E+05 3.17684E+03-1.21255E+04 2.21057E+03-7.97118E-09 1.98361E-09
 -1       824-3.77812E+05-3.66964E+03-7.61288E+03-3.28227E+03 5.22231E-11 1.71453E-08
 -1       825-3.75979E+05 4.93763E+02-3.15862E+03 1.85488E+03 1.29783E-08-4.02724E-09
 -1       826-3.75934E+05-5.68830E+02-1.80225E+03-1.71415E+03 1.68576E-08-1.24634E-08
 -1       827-3.76431E+05 7.02420E+01-1.05326E+03 6.42401E+02 7.12132E-09-1.09121E-08
 -1       828-3.75570E+05-1.59477E+02-7.47390E+02 9.16523E+02 1.64079E-10-2.37780E-09
 -1       829-3.76339E+05 8.14634E+01-1.05645E+03-7.75829E+02 1.33808E-09-4.02042E-09
 -1       830-3.76143E+05-6.07141E+02-1.90886E+03 3.19306E+03-1.03181E-09-1.39430E-08
 -1       831-3.75868E+05 5.25203E+02-3.25350E+03-1.63416E+03-4.25573E-09 4.79497E-09
 -1       832-3.77899E+05-3.82172E+03-7.90970E+03 3.88722E+03-2.17093E-09 2.10121E-08
 -1       833-3.74589E+05 3.29797E+03-1.26069E+04-1.47001E+03-3.72327E-09-2.16642E-09
 -1       834-3.87037E+05-2.43096E+04-3.43211E+04 2.60171E+03-3.94411E-09-4.48290E-09
 -1       835-3.66726E+05 2.09905E+04-4.86955E+04-3.48619E+02 5.00037E-09-3.92174E-09
 -1       836-1.33845E+03 3.53629E+05 2.18193E+04-1.62273E+04-5.73800E-09 8.61837E-09
 -1       837 4.66783E+03 3.60455E+05 1.84957E+04-3.30337E+04-6.11396E-09-2.63140E-09
 -1       838-5.26130E+02 3.55538E+05 1.88904E+04-1.61571E+04-5.02405E-09 1.50976E-09
 -1       839 1.19229E+04 3.65859E+05 3.57798E+04-3.30836E+04-5.45560E-09-1.13863E-09
 -1       840-3.67473E+03 3.48168E+05 5.70752E+04-1.61817E+04-4.86398E-09-8.79912E-09
 -1       856-5.69431E+04 7.95552E+03-2.09647E+04-3.99249E+02 1.08912E-09-4.72028E-10
 -1       857-6.55840E+04-9.34443E+03-1.44321E+04 5.47823E+03 2.30645E-09 2.13322E-09
 -1       858-6.03636E+04 1.11551E+03-5.43997E+03-4.23101E+02 1.18717E-09 1.76510E-09
 -1       859-6.16582E+04-1.30948E+03-3.28313E+03 5.51413E+03-3.19062E-09-1.06281E-08
 -1       860-6.08747E+04 1.56037E+02-1.37654E+03-4.34958E+02-1.17350E-09 1.62473E-08
 -1       861-6.10702E+04-1.83590E+02-7.58475E+02 5.53031E+03-1.11709E-09 2.57257E-08
 -1       862-6.09546E+04 2.10322E+01-3.17724E+02-4.39271E+02-2.03742E-09 1.00550E-08
 -1       863-6.09727E+04-1.95188E+01-1.21270E+02 5.53274E+03-1.29802E-10-2.66857E-09
 -1       864-6.09727E+04-4.31965E+00 3.43439E+01-4.37386E+02-2.33362E-09 2.32593E-09
 -1       865-6.09208E+04 5.56889E+01 2.25334E+02 5.52220E+03 3.08063E-10-5.71378E-09
 -1       866-6.10043E+04-5.42615E+01 4.60498E+02-4.28733E+02 1.85599E-09-9.05297E-09
 -1       867-6.07025E+04 4.48813E+02 1.13760E+03 5.49868E+03 1.83195E-09 2.35048E-09
 -1       868-6.11863E+04-3.90543E+02 1.89132E+03-4.13856E+02-3.17982E-10-2.75782E-09
 -1       869-5.93147E+04 3.25028E+03 5.03751E+03 5.45973E+03 9.58835E-10-6.43786E-09
 -1       870-6.23848E+04-2.77992E+03 7.31030E+03-3.89720E+02-3.68050E-09 4.60705E-09
 -1       871-5.35210E+03-1.92855E+04-1.86354E+04 1.24549E+05-3.17959E-09-1.01063E-08
 -1       872-1.99282E+03-2.35938E+04-7.77865E+03 1.61493E+05-8.54652E-09-8.90213E-09
 -1       873 3.14368E+02-2.15220E+04 6.25463E+02 1.24276E+05-5.27780E-09-1.23018E-08
 -1       874 3.09929E+03-1.91635E+04 9.49433E+03 1.61525E+05-8.74024E-09-1.32818E-08
 -1       875 6.55392E+03-2.37833E+04 2.13707E+04 1.24504E+05-3.74712E-09-6.87578E-10
 -1       876 2.83524E+05 4.79148E+04 1.46284E+04 1.13933E+05-3.03771E-10 1.41790E-09
 -1       877 2.84478E+05 5.10091E+04 7.81211E+03 1.18141E+05 8.65748E-09 2.45768E-09
 -1       878 2.84892E+05 4.62947E+04 3.27289E+03 1.15132E+05-6.89352E-09 1.59230E-09
 -1       879 2.82489E+05 4.90249E+04 1.63072E+03 1.18241E+05 2.88651E-09 1.60459E-08
 -1       880 2.84990E+05 4.62778E+04 7.59542E+02 1.15181E+05-5.98220E-10 3.39014E-09
 -1       881 2.82357E+05 4.89401E+04 4.05531E+02 1.18218E+05-8.62747E-09 6.74724E-09
 -1       882 2.84999E+05 4.62906E+04 2.59308E+02 1.15182E+05-5.71845E-09 2.08093E-08
 -1       883 2.82348E+05 4.89357E+04 2.78559E+02 1.18211E+05-2.60661E-09 3.51083E-08
 -1       884 2.84993E+05 4.62878E+04 4.42934E+02 1.15182E+05-2.72996E-09 1.25757E-08
 -1       885 2.82383E+05 4.89419E+04 8.90426E+02 1.18222E+05-7.41045E-09-6.23140E-09
 -1       886 2.84958E+05 4.62619E+04 1.79456E+03 1.15179E+05-3.08943E-09-9.25638E-10
 -1       887 2.82699E+05 4.91487E+04 3.91996E+03 1.18267E+05-1.74634E-09-6.71992E-09
 -1       888 2.84711E+05 4.63055E+04 7.89882E+03 1.15053E+05-6.17572E-09 4.10319E-09
 -1       889 2.87401E+05 5.40386E+04 1.88689E+04 1.18122E+05-3.24012E-09 6.79302E-09
 -1       890 2.81488E+05 5.01338E+04 3.53409E+04 1.12046E+05-7.97945E-09-1.00663E-08
 -1       891-9.98325E+01-1.57539E+05-1.92540E+03 2.67052E+04-2.06774E-09-1.05842E-09
 -1       892-1.90022E+02-1.58041E+05-2.07013E+03 4.05283E+04 2.85763E-09 1.38234E-08
 -1       893 2.84039E+01-1.57601E+05-2.93337E+03 2.67121E+04-1.50749E-10 1.13146E-08
 -1       894-1.48049E+03-1.59150E+05-6.07263E+03 4.03792E+04 2.67300E-09 1.27102E-08
 -1       895-1.17297E+03-1.56336E+05-1.06945E+04 2.68554E+04-9.11768E-11-1.21072E-08
 -1       956-3.63264E+05-5.21835E+03-1.29297E+04 2.88755E+04 9.69612E-09-1.14362E-08
 -1       957-3.65804E+05-1.82552E+03-6.63675E+03 3.47143E+04 9.73569E-09-1.18421E-08
 -1       958-3.64423E+05-2.13410E+02-2.99061E+03 2.87157E+04 1.06138E-09 9.65656E-09
 -1       959-3.64615E+05-1.09976E+02-1.52715E+03 3.48986E+04 1.58434E-09 2.20844E-08
 -1       960-3.64535E+05-2.61009E+01-7.44692E+02 2.86994E+04 3.00770E-09 6.98174E-09
 -1       961-3.64536E+05-4.07255E+01-3.94919E+02 3.49178E+04 4.51291E-09 1.03578E-08
 -1       962-3.64561E+05-2.79392E+01-2.26171E+02 2.86967E+04 1.85764E-09 8.71501E-09
 -1       963-3.64536E+05-3.71017E+01-1.81704E+02 3.49212E+04 4.11922E-09-1.31718E-09
 -1       964-3.64566E+05-2.48336E+01-2.21081E+02 2.86960E+04 1.72301E-09-2.62321E-09
 -1       965-3.64548E+05-3.41053E+01-3.82474E+02 3.49206E+04-2.86883E-09 3.09228E-10
 -1       966-3.64551E+05-1.68695E+01-7.18631E+02 2.86973E+04 2.73417E-09 6.54927E-09
 -1       967-3.64635E+05-9.46099E+01-1.47395E+03 3.49073E+04 5.24551E-10 1.10936E-08
 -1       968-3.64452E+05-1.91684E+02-2.88534E+03 2.87091E+04 3.83352E-09 1.30626E-10
 -1       969-3.65794E+05-1.74513E+03-6.40554E+03 3.47694E+04 2.33376E-09-4.53980E-09
 -1       970-3.63340E+05-5.01854E+03-1.24781E+04 2.88289E+04-4.55748E-09 1.20517E-08
 -1       971-3.33920E+05-1.67996E+03-9.09924E+03 1.50097E+04 4.15730E-09 5.80383E-09
 -1       972-3.36114E+05-1.23150E+03-4.95535E+03 2.07949E+04 4.49154E-09-2.70620E-09
 -1       973-3.34933E+05-5.23825E+01-2.21947E+03 1.48902E+04-1.07229E-09 5.70253E-10
 -1       974-3.35069E+05-6.78123E+01-1.15040E+03 2.09292E+04-8.81528E-10-1.11781E-08
 -1       975-3.35013E+05-8.65310E+00-5.75261E+02 1.48782E+04 5.06270E-09-3.62877E-09
 -1       976-3.35009E+05-1.92001E+01-3.32273E+02 2.09444E+04 8.39464E-09-5.94434E-09
 -1       977-3.35029E+05-8.02785E+00-2.41859E+02 1.48750E+04-3.31966E-10-2.86707E-09
 -1       978-3.35014E+05-1.31979E+01-2.83978E+02 2.09490E+04-3.27464E-09 1.89623E-08
 -1       979-3.35029E+05 1.30153E-01-4.57082E+02 1.48736E+04 2.41755E-10 1.25679E-08
 -1       980-3.35048E+05-1.02473E+01-8.83082E+02 2.09500E+04-2.46348E-09 5.14797E-09
 -1       981-3.35001E+05 2.21929E+01-1.71060E+03 1.48741E+04 4.83203E-09-1.46471E-08
 -1       982-3.35283E+05-1.36632E+02-3.53591E+03 2.09435E+04-2.02454E-09 7.31438E-09
 -1       983-3.34785E+05-8.73276E+01-6.87038E+03 1.48800E+04-2.31421E-09 4.37922E-10
 -1       984-3.38587E+05-3.72480E+03-1.53859E+04 2.08596E+04-2.66482E-09 1.71497E-09
 -1       985-3.31675E+05-5.11465E+03-2.82533E+04 1.49524E+04-1.55524E-09-2.86309E-09
 -3
    1PSTEP                        19          10           1          
  100CL  110 6.53320E-01         409                     0   10           1
 -4  DISP        4    1
 -5  D1          1    2    1    0
 -5  D2          1    2    2    0
 -5  D3          1    2    3    0
 -5  ALL         1    2    0    0    1ALL
 -1         1 2.38248E-03 0.00000E+00 0.00000E+00
 -1         2 1.43631E-03-6.90219E-27 0.00000E+00
 -1         3 3.28364E-04 6.79959E-29 0.00000E+00
 -1         5 1.71794E-04-1.50482E-26-2.48154E-24
 -1         8 2.36752E-03-4.76171E-07 0.00000E+00
 -1         9 2.34909E-03-9.02447E-05 0.00000E+00
 -1        10 2.97848E-04-3.47709E-06 0.00000E+00
 -1        12 1.73435E-04 7.89920E-07-1.03398E-24
 -1        15 2.34985E-03-5.15332E-07-2.06795E-25
 -1        16 2.38778E-03-9.16182E-05 0.00000E+00
 -1        17 2.03184E-04-7.85167E-06 0.00000E+00
 -1        18 1.76799E-04 3.15674E-05 0.00000E+00
 -1        19 1.78360E-04 1.57400E-06 0.00000E+00
 -1        20 1.78502E-04-7.60749E-06 0.00000E+00
 -1        21 1.77638E-04-2.05841E-05-3.30872E-24
 -1        24 3.00357E-05-1.18863E-05 0.00000E+00
 -1        25 1.86554E-04 3.17855E-05 0.00000E+00
 -1        26 1.87242E-04 2.18012E-06 0.00000E+00
 -1        27 1.85095E-04-1.10918E-05 0.00000E+00
 -1        28 1.84766E-04-2.11960E-05 0.00000E+00
 -1        32 0.00000E+00 0.00000E+00 0.00000E+00
 -1        33 1.95108E-04 2.91718E-06 0.00000E+00
 -1        34 1.93033E-04-1.11443E-05 0.00000E+00
 -1        35 1.91137E-04-2.15317E-05 0.00000E+00
 -1        51 2.38150E-03-9.33796E-08 0.00000E+00
 -1        52 2.37970E-03-1.70601E-07 0.00000E+00
 -1        53 2.37722E-03-2.45252E-07 0.00000E+00
 -1        54 2.37425E-03-3.19519E-07 0.00000E+00
 -1        55 2.37096E-03-3.95051E-07 2.32645E-24
 -1        56 2.37806E-03 1.20268E-06 0.00000E+00
 -1        57 2.37176E-03 6.90960E-06 0.00000E+00
 -1        58 2.36431E-03 1.56557E-05 0.00000E+00
 -1        59 2.35635E-03 2.56558E-05-5.29396E-23
 -1        60 2.34867E-03 3.49380E-05-1.05879E-22
 -1        61 2.34200E-03 4.15797E-05 5.29396E-23
 -1        62 2.33690E-03 4.40994E-05 0.00000E+00
 -1        63 2.33378E-03 4.13554E-05 5.29396E-23
 -1        64 2.33270E-03 3.30886E-05 0.00000E+00
 -1        65 2.33357E-03 1.95036E-05 0.00000E+00
 -1        66 2.33595E-03 1.70431E-06 0.00000E+00
 -1        67 2.33931E-03-1.88462E-05 0.00000E+00
 -1        68 2.34297E-03-4.02179E-05 0.00000E+00
 -1        69 2.34623E-03-6.04025E-05 5.29396E-23
 -1        70 2.34841E-03-7.76076E-05-5.29396E-23
 -1        86 1.49328E-03-3.30377E-06-5.29396E-23
 -1        87 1.66007E-03-1.85127E-05 0.00000E+00
 -1        88 1.88435E-03-4.41049E-05-2.64698E-23
 -1        89 2.11113E-03-7.02619E-05 0.00000E+00
 -1        90 2.28408E-03-8.64458E-05 0.00000E+00
 -1       121 3.27507E-04-5.63317E-07 0.00000E+00
 -1       122 3.24939E-04-1.12945E-06 0.00000E+00
 -1       123 3.20670E-04-1.70118E-06 0.00000E+00
 -1       124 3.14716E-04-2.28128E-06-6.61744E-24
 -1       125 3.07098E-04-2.87216E-06 0.00000E+00
 -1       191 1.71840E-04 1.31705E-07 1.44757E-24
 -1       192 1.71976E-04 2.63400E-07 1.03398E-24
 -1       193 1.72204E-04 3.95079E-07 1.03398E-24
 -1       194 1.72523E-04 5.26733E-07 8.27181E-25
 -1       195 1.72934E-04 6.58350E-07 0.00000E+00
 -1       251 2.36688E-03-7.14432E-06-1.32349E-23
 -1       252 2.36593E-03-3.29248E-05 6.61744E-24
 -1       253 2.36452E-03-7.33738E-05-1.32349E-23
 -1       254 2.36268E-03-1.23668E-04-6.61744E-24
 -1       255 2.36074E-03-1.76077E-04 0.00000E+00
 -1       256 2.35907E-03-2.22818E-04-6.61744E-24
 -1       257 2.35785E-03-2.57792E-04-2.64698E-23
 -1       258 2.35707E-03-2.75199E-04 0.00000E+00
 -1       259 2.35643E-03-2.74365E-04 0.00000E+00
 -1       260 2.35561E-03-2.55092E-04 0.00000E+00
 -1       261 2.35448E-03-2.22557E-04 2.64698E-23
 -1       262 2.35308E-03-1.82276E-04 1.32349E-23
 -1       263 2.35168E-03-1.42062E-04 0.00000E+00
 -1       264 2.35055E-03-1.09729E-04-1.32349E-23
 -1       265 2.34974E-03-9.07455E-05-2.64698E-23
 -1       266 2.36458E-03-4.89767E-07 0.00000E+00
 -1       267 2.36163E-03-4.95430E-07 0.00000E+00
 -1       268 2.35869E-03-5.01602E-07 0.00000E+00
 -1       269 2.35574E-03-5.06280E-07 0.00000E+00
 -1       270 2.35279E-03-5.10925E-07 0.00000E+00
 -1       271 2.36593E-03 1.58827E-06 0.00000E+00
 -1       272 2.36477E-03 2.41986E-06-1.32349E-23
 -1       273 2.36408E-03 2.03280E-06 0.00000E+00
 -1       274 2.36382E-03 4.42786E-07 0.00000E+00
 -1       275 2.36401E-03-2.31996E-06 0.00000E+00
 -1       276 2.36461E-03-6.21561E-06 1.32349E-23
 -1       277 2.36562E-03-1.11928E-05 2.64698E-23
 -1       278 2.36700E-03-1.71901E-05 0.00000E+00
 -1       279 2.36873E-03-2.41362E-05-2.64698E-23
 -1       280 2.37079E-03-3.19506E-05-1.32349E-23
 -1       281 2.37312E-03-4.05444E-05-2.64698E-23
 -1       282 2.37571E-03-4.98215E-05 0.00000E+00
 -1       283 2.37851E-03-5.96786E-05 2.64698E-23
 -1       284 2.38148E-03-7.00067E-05 1.32349E-23
 -1       285 2.38458E-03-8.06935E-05 0.00000E+00
 -1       301 2.35610E-03-9.04991E-05 1.32349E-23
 -1       302 2.36181E-03-9.07178E-05-3.30872E-24
 -1       303 2.36703E-03-9.09311E-05 1.32349E-23
 -1       304 2.37257E-03-9.11449E-05 0.00000E+00
 -1       305 2.37922E-03-9.13671E-05 0.00000E+00
 -1       306 2.38439E-03-2.30948E-04-1.05879E-22
 -1       307 2.44892E-03-6.17157E-04 0.00000E+00
 -1       308 2.50207E-03-1.18653E-03 0.00000E+00
 -1       309 2.53579E-03-1.85061E-03 0.00000E+00
 -1       310 2.57444E-03-2.49174E-03-1.05879E-22
 -1       311 2.63571E-03-2.99431E-03 0.00000E+00
 -1       312 2.69472E-03-3.28166E-03 0.00000E+00
 -1       313 2.69851E-03-3.31360E-03-5.29396E-23
 -1       314 2.58177E-03-3.09838E-03 0.00000E+00
 -1       315 2.30569E-03-2.69085E-03-5.29396E-23
 -1       316 1.88493E-03-2.16229E-03 1.05879E-22
 -1       317 1.37670E-03-1.58003E-03-5.29396E-23
 -1       318 8.83486E-04-1.00667E-03 0.00000E+00
 -1       319 5.03328E-04-5.07567E-04 0.00000E+00
 -1       320 2.77714E-04-1.52106E-04-1.05879E-22
 -1       336 2.86787E-04-4.14423E-06 0.00000E+00
 -1       337 2.73749E-04-4.83482E-06 0.00000E+00
 -1       338 2.58793E-04-5.55073E-06 0.00000E+00
 -1       339 2.41992E-04-6.29253E-06 0.00000E+00
 -1       340 2.23426E-04-7.06441E-06-1.32349E-23
 -1       406 1.74028E-04 9.21426E-07 6.20385E-25
 -1       407 1.74712E-04 1.05283E-06 2.06795E-25
 -1       408 1.75488E-04 1.18410E-06-2.27475E-24
 -1       409 1.76354E-04 1.31505E-06-1.42172E-24
 -1       410 1.77312E-04 1.44542E-06 0.00000E+00
 -1       521 2.42385E-03-2.41366E-04-1.05879E-22
 -1       522 2.48719E-03-6.46768E-04 0.00000E+00
 -1       523 2.53512E-03-1.24242E-03-1.05879E-22
 -1       524 2.56107E-03-1.93368E-03 0.00000E+00
 -1       525 2.59290E-03-2.60018E-03 1.05879E-22
 -1       526 2.65106E-03-3.12387E-03 0.00000E+00
 -1       527 2.70974E-03-3.42204E-03 2.11758E-22
 -1       528 2.71187E-03-3.45344E-03 5.29396E-23
 -1       529 2.58537E-03-3.22595E-03 0.00000E+00
 -1       530 2.28914E-03-2.80114E-03 0.00000E+00
 -1       531 1.83820E-03-2.25367E-03 0.00000E+00
 -1       532 1.29524E-03-1.65372E-03 5.29396E-23
 -1       533 7.67554E-04-1.06218E-03 0.00000E+00
 -1       534 3.57899E-04-5.42751E-04 0.00000E+00
 -1       535 1.13260E-04-1.68771E-04-1.05879E-22
 -1       536 2.02482E-04 2.55008E-05 6.61744E-24
 -1       537 2.00715E-04 8.33273E-05 0.00000E+00
 -1       538 1.97988E-04 1.56736E-04 0.00000E+00
 -1       539 1.94774E-04 2.36755E-04 0.00000E+00
 -1       540 1.91880E-04 3.12372E-04 0.00000E+00
 -1       541 1.89994E-04 3.72596E-04 0.00000E+00
 -1       542 1.89119E-04 4.10928E-04-3.30872E-24
 -1       543 1.88903E-04 4.21012E-04 0.00000E+00
 -1       544 1.88594E-04 4.03602E-04-3.30872E-24
 -1       545 1.87501E-04 3.59661E-04 1.65436E-24
 -1       546 1.85477E-04 2.97008E-04 0.00000E+00
 -1       547 1.82746E-04 2.23577E-04-1.65436E-24
 -1       548 1.80042E-04 1.50541E-04 0.00000E+00
 -1       549 1.78090E-04 8.90759E-05 0.00000E+00
 -1       550 1.77072E-04 4.68888E-05 1.65436E-24
 -1       551 1.79096E-04-8.39974E-06 0.00000E+00
 -1       552 1.51851E-04-9.02201E-06 0.00000E+00
 -1       553 1.22379E-04-9.70192E-06 8.27181E-24
 -1       554 9.16226E-05-1.04197E-05 3.30872E-24
 -1       555 6.05283E-05-1.11494E-05 1.32349E-23
 -1       556 1.95911E-04 1.07634E-05 0.00000E+00
 -1       557 1.90045E-04 2.58361E-05 0.00000E+00
 -1       558 1.85454E-04 3.76442E-05 0.00000E+00
 -1       559 1.82012E-04 4.64873E-05 0.00000E+00
 -1       560 1.79594E-04 5.26654E-05 0.00000E+00
 -1       561 1.78077E-04 5.64808E-05 0.00000E+00
 -1       562 1.77340E-04 5.82369E-05 0.00000E+00
 -1       563 1.77265E-04 5.82382E-05 0.00000E+00
 -1       564 1.77732E-04 5.67898E-05 0.00000E+00
 -1       565 1.78628E-04 5.41976E-05 0.00000E+00
 -1       566 1.79835E-04 5.07677E-05 0.00000E+00
 -1       567 1.81240E-04 4.68069E-05 0.00000E+00
 -1       568 1.82728E-04 4.26220E-05 1.65436E-24
 -1       569 1.84185E-04 3.85196E-05 0.00000E+00
 -1       570 1.85498E-04 3.48067E-05 0.00000E+00
 -1       571 1.76894E-04 2.96224E-05 0.00000E+00
 -1       572 1.76991E-04 2.76138E-05-1.24077E-24
 -1       573 1.77088E-04 2.55567E-05-3.30872E-24
 -1       574 1.77185E-04 2.34667E-05 8.27181E-25
 -1       575 1.77283E-04 2.13595E-05 0.00000E+00
 -1       576 1.77380E-04 1.92510E-05 1.65436E-24
 -1       577 1.77478E-04 1.71571E-05 0.00000E+00
 -1       578 1.77575E-04 1.50935E-05 0.00000E+00
 -1       579 1.77673E-04 1.30761E-05 0.00000E+00
 -1       580 1.77771E-04 1.11207E-05 0.00000E+00
 -1       581 1.77868E-04 9.24321E-06 0.00000E+00
 -1       582 1.77967E-04 7.45942E-06 0.00000E+00
 -1       583 1.78065E-04 5.78515E-06 0.00000E+00
 -1       584 1.78163E-04 4.23605E-06 3.30872E-24
 -1       585 1.78261E-04 2.82760E-06 6.61744E-24
 -1       586 1.78382E-04 3.16058E-05 0.00000E+00
 -1       587 1.79926E-04 3.16437E-05 0.00000E+00
 -1       588 1.81473E-04 3.16812E-05 0.00000E+00
 -1       589 1.83065E-04 3.17181E-05 0.00000E+00
 -1       590 1.84745E-04 3.17537E-05 0.00000E+00
 -1       591 1.77463E-04 2.97115E-05-1.03398E-25
 -1       592 1.78131E-04 2.78349E-05 2.06795E-25
 -1       593 1.78804E-04 2.59435E-05 0.00000E+00
 -1       594 1.79480E-04 2.40420E-05 4.13590E-25
 -1       595 1.80158E-04 2.21354E-05 8.27181E-25
 -1       596 1.80836E-04 2.02283E-05 0.00000E+00
 -1       597 1.81513E-04 1.83255E-05 0.00000E+00
 -1       598 1.82186E-04 1.64318E-05 4.13590E-25
 -1       599 1.82854E-04 1.45518E-05-8.27181E-25
 -1       600 1.83515E-04 1.26905E-05-4.13590E-25
 -1       601 1.84167E-04 1.08525E-05 0.00000E+00
 -1       602 1.84809E-04 9.04256E-06 0.00000E+00
 -1       603 1.85439E-04 7.26545E-06 0.00000E+00
 -1       604 1.86055E-04 5.52602E-06-1.55096E-25
 -1       605 1.86655E-04 3.82896E-06 0.00000E+00
 -1       606 1.78373E-04 5.47410E-07 0.00000E+00
 -1       607 1.78383E-04-3.92177E-07 0.00000E+00
 -1       608 1.78392E-04-1.24987E-06 0.00000E+00
 -1       609 1.78400E-04-2.03143E-06 0.00000E+00
 -1       610 1.78409E-04-2.74267E-06 3.30872E-24
 -1       611 1.78417E-04-3.38946E-06 0.00000E+00
 -1       612 1.78426E-04-3.97767E-06 0.00000E+00
 -1       613 1.78434E-04-4.51320E-06 0.00000E+00
 -1       614 1.78443E-04-5.00194E-06 0.00000E+00
 -1       615 1.78452E-04-5.44977E-06 8.27181E-25
 -1       616 1.78460E-04-5.86259E-06 0.00000E+00
 -1       617 1.78469E-04-6.24627E-06 0.00000E+00
 -1       618 1.78477E-04-6.60672E-06 0.00000E+00
 -1       619 1.78486E-04-6.94981E-06 2.06795E-25
 -1       620 1.78494E-04-7.28144E-06 2.06795E-25
 -1       621 1.79573E-04 1.67552E-06 0.00000E+00
 -1       622 1.80935E-04 1.77731E-06-8.27181E-25
 -1       623 1.82414E-04 1.87891E-06 0.00000E+00
 -1       624 1.83979E-04 1.98021E-06 8.27181E-25
 -1       625 1.85599E-04 2.08123E-06-1.65436E-24
 -1       626 1.78855E-04 5.82705E-07 3.30872E-24
 -1       627 1.79326E-04-3.43936E-07-3.30872E-24
 -1       628 1.79777E-04-1.21378E-06-6.61744E-24
 -1       629 1.80209E-04-2.03501E-06 0.00000E+00
 -1       630 1.80626E-04-2.81583E-06 3.30872E-24
 -1       631 1.81032E-04-3.56448E-06 0.00000E+00
 -1       632 1.81428E-04-4.28917E-06-3.30872E-24
 -1       633 1.81818E-04-4.99815E-06 0.00000E+00
 -1       634 1.82206E-04-5.69963E-06-3.30872E-24
 -1       635 1.82594E-04-6.40184E-06 0.00000E+00
 -1       636 1.82985E-04-7.11303E-06 0.00000E+00
 -1       637 1.83383E-04-7.84141E-06 0.00000E+00
 -1       638 1.83790E-04-8.59521E-06 0.00000E+00
 -1       639 1.84209E-04-9.38270E-06-8.27181E-25
 -1       640 1.84644E-04-1.02121E-05 1.65436E-24
 -1       656 1.79059E-04-8.17386E-06 0.00000E+00
 -1       657 1.80034E-04-8.76321E-06-6.61744E-24
 -1       658 1.81285E-04-9.35117E-06-1.32349E-23
 -1       659 1.82668E-04-9.93878E-06-6.61744E-24
 -1       660 1.83998E-04-1.05282E-05 6.61744E-24
 -1       661 1.78711E-04-7.97728E-06 0.00000E+00
 -1       662 1.78957E-04-8.43627E-06-8.27181E-25
 -1       663 1.79234E-04-8.97948E-06-1.65436E-24
 -1       664 1.79541E-04-9.60068E-06 0.00000E+00
 -1       665 1.79875E-04-1.02943E-05 0.00000E+00
 -1       666 1.80234E-04-1.10547E-05 8.27181E-25
 -1       667 1.80616E-04-1.18764E-05 0.00000E+00
 -1       668 1.81019E-04-1.27541E-05 0.00000E+00
 -1       669 1.81442E-04-1.36827E-05 0.00000E+00
 -1       670 1.81881E-04-1.46571E-05 0.00000E+00
 -1       671 1.82335E-04-1.56723E-05-1.65436E-24
 -1       672 1.82803E-04-1.67235E-05 8.27181E-25
 -1       673 1.83282E-04-1.78060E-05 0.00000E+00
 -1       674 1.83771E-04-1.89152E-05 0.00000E+00
 -1       675 1.84268E-04-2.00461E-05-4.13590E-25
 -1       676 1.78830E-04-2.06867E-05 3.30872E-24
 -1       677 1.80021E-04-2.07892E-05-1.65436E-24
 -1       678 1.81211E-04-2.08917E-05-3.30872E-24
 -1       679 1.82399E-04-2.09939E-05-1.65436E-24
 -1       680 1.83584E-04-2.10961E-05 0.00000E+00
 -1       771 1.86124E-05 1.35942E-05-5.29396E-23
 -1       772 8.99179E-06 3.45222E-05 2.64698E-23
 -1       773 1.08761E-06 5.11185E-05 0.00000E+00
 -1       774-5.21789E-06 6.36303E-05 2.64698E-23
 -1       775-1.00400E-05 7.23142E-05 5.29396E-23
 -1       776-1.34989E-05 7.74430E-05 0.00000E+00
 -1       777-1.57143E-05 7.92984E-05 0.00000E+00
 -1       778-1.68086E-05 7.81753E-05-2.64698E-23
 -1       779-1.69038E-05 7.43767E-05 0.00000E+00
 -1       780-1.61236E-05 6.82158E-05 0.00000E+00
 -1       781-1.45912E-05 6.00125E-05 5.29396E-23
 -1       782-1.24311E-05 5.00949E-05 2.64698E-23
 -1       783-9.76714E-06 3.87954E-05 0.00000E+00
 -1       784-6.72427E-06 2.64520E-05-2.64698E-23
 -1       785-3.42662E-06 1.34058E-05 5.29396E-23
 -1       786 1.86593E-04 2.97101E-05 0.00000E+00
 -1       787 1.86635E-04 2.76842E-05-4.13590E-25
 -1       788 1.86677E-04 2.56996E-05 8.27181E-25
 -1       789 1.86720E-04 2.37482E-05 8.27181E-25
 -1       790 1.86763E-04 2.18253E-05 0.00000E+00
 -1       791 1.86807E-04 1.99262E-05 0.00000E+00
 -1       792 1.86850E-04 1.80486E-05 0.00000E+00
 -1       793 1.86893E-04 1.61906E-05 8.27181E-25
 -1       794 1.86937E-04 1.43518E-05 0.00000E+00
 -1       795 1.86980E-04 1.25321E-05 0.00000E+00
 -1       796 1.87024E-04 1.07334E-05 0.00000E+00
 -1       797 1.87067E-04 8.95753E-06 0.00000E+00
 -1       798 1.87111E-04 7.20870E-06 1.65436E-24
 -1       799 1.87154E-04 5.49119E-06 0.00000E+00
 -1       800 1.87198E-04 3.81247E-06 1.65436E-24
 -1       801 1.43189E-04 2.85259E-05 2.64698E-23
 -1       802 1.19620E-05 1.78827E-05 2.64698E-23
 -1       803-1.00536E-04 9.08735E-06 5.29396E-23
 -1       804-8.98292E-05 6.30192E-06 0.00000E+00
 -1       805-2.97567E-05 2.52047E-06 0.00000E+00
 -1       806 1.87220E-04 2.96431E-05-1.65436E-24
 -1       807 1.87871E-04 2.75269E-05 1.65436E-24
 -1       808 1.88511E-04 2.54419E-05 3.30872E-24
 -1       809 1.89136E-04 2.33921E-05 0.00000E+00
 -1       810 1.89747E-04 2.13813E-05 3.30872E-24
 -1       811 1.90342E-04 1.94134E-05 1.65436E-24
 -1       812 1.90920E-04 1.74920E-05 0.00000E+00
 -1       813 1.91479E-04 1.56211E-05-1.65436E-24
 -1       814 1.92017E-04 1.38043E-05 0.00000E+00
 -1       815 1.92534E-04 1.20455E-05 0.00000E+00
 -1       816 1.93028E-04 1.03482E-05-1.65436E-24
 -1       817 1.93498E-04 8.71640E-06 8.27181E-25
 -1       818 1.93942E-04 7.15366E-06 0.00000E+00
 -1       819 1.94359E-04 5.66377E-06 0.00000E+00
 -1       820 1.94748E-04 4.25039E-06 3.30872E-24
 -1       821 1.87116E-04 1.30668E-07 0.00000E+00
 -1       822 1.86979E-04-2.79486E-06 0.00000E+00
 -1       823 1.86842E-04-6.25330E-06 0.00000E+00
 -1       824 1.86702E-04-9.89819E-06-1.65436E-24
 -1       825 1.86563E-04-1.33335E-05 3.30872E-24
 -1       826 1.86426E-04-1.61643E-05 1.65436E-24
 -1       827 1.86291E-04-1.81580E-05 0.00000E+00
 -1       828 1.86156E-04-1.90874E-05 1.65436E-24
 -1       829 1.86023E-04-1.90108E-05 3.30872E-24
 -1       830 1.85889E-04-1.79925E-05-1.65436E-24
 -1       831 1.85754E-04-1.63499E-05-3.30872E-24
 -1       832 1.85619E-04-1.44041E-05-1.65436E-24
 -1       833 1.85484E-04-1.25576E-05 3.30872E-24
 -1       834 1.85352E-04-1.12123E-05-1.65436E-24
 -1       835 1.85219E-04-1.06360E-05-8.27181E-25
 -1       836 1.88761E-04 2.30239E-06 0.00000E+00
 -1       837 1.90154E-04 2.42771E-06 1.65436E-24
 -1       838 1.91454E-04 2.55295E-06-3.30872E-24
 -1       839 1.92692E-04 2.67749E-06 0.00000E+00
 -1       840 1.93899E-04 2.80187E-06-8.27181E-25
 -1       856 1.85078E-04-1.19936E-05 0.00000E+00
 -1       857 1.85058E-04-1.27615E-05 0.00000E+00
 -1       858 1.85038E-04-1.34165E-05 0.00000E+00
 -1       859 1.85017E-04-1.39794E-05 0.00000E+00
 -1       860 1.84997E-04-1.44712E-05 0.00000E+00
 -1       861 1.84976E-04-1.49127E-05 2.06795E-25
 -1       862 1.84955E-04-1.53252E-05 8.27181E-25
 -1       863 1.84935E-04-1.57296E-05-4.13590E-25
 -1       864 1.84914E-04-1.61470E-05 0.00000E+00
 -1       865 1.84893E-04-1.65984E-05-4.13590E-25
 -1       866 1.84873E-04-1.71050E-05-8.27181E-25
 -1       867 1.84852E-04-1.76876E-05 0.00000E+00
 -1       868 1.84831E-04-1.83672E-05 0.00000E+00
 -1       869 1.84810E-04-1.91646E-05 4.13590E-25
 -1       870 1.84789E-04-2.01007E-05 8.27181E-25
 -1       871 1.86278E-04-1.10962E-05 0.00000E+00
 -1       872 1.87606E-04-1.11040E-05 0.00000E+00
 -1       873 1.89012E-04-1.11124E-05 0.00000E+00
 -1       874 1.90430E-04-1.11215E-05-3.10193E-25
 -1       875 1.91792E-04-1.11312E-05 1.03398E-24
 -1       876 1.85558E-04-1.19793E-05-3.30872E-24
 -1       877 1.85999E-04-1.28011E-05 0.00000E+00
 -1       878 1.86419E-04-1.35649E-05-3.30872E-24
 -1       879 1.86820E-04-1.42781E-05 0.00000E+00
 -1       880 1.87205E-04-1.49480E-05 3.30872E-24
 -1       881 1.87577E-04-1.55817E-05 0.00000E+00
 -1       882 1.87938E-04-1.61867E-05 0.00000E+00
 -1       883 1.88291E-04-1.67701E-05-1.65436E-24
 -1       884 1.88638E-04-1.73391E-05 3.30872E-24
 -1       885 1.88983E-04-1.79011E-05 1.65436E-24
 -1       886 1.89328E-04-1.84632E-05 0.00000E+00
 -1       887 1.89675E-04-1.90326E-05-1.65436E-24
 -1       888 1.90028E-04-1.96167E-05 0.00000E+00
 -1       889 1.90388E-04-2.02228E-05 0.00000E+00
 -1       890 1.90759E-04-2.08581E-05-1.65436E-24
 -1       891 1.85969E-04-2.12524E-05-1.65436E-24
 -1       892 1.87148E-04-2.13090E-05 0.00000E+00
 -1       893 1.88279E-04-2.13654E-05-8.27181E-25
 -1       894 1.89337E-04-2.14216E-05 4.13590E-25
 -1       895 1.90298E-04-2.14776E-05-4.13590E-25
 -1       956 1.94980E-04 1.75373E-06-1.65436E-24
 -1       957 1.94851E-04 6.79149E-07-1.65436E-24
 -1       958 1.94721E-04-3.16964E-07-3.30872E-24
 -1       959 1.94591E-04-1.24557E-06 1.65436E-24
 -1       960 1.94461E-04-2.11768E-06 3.30872E-24
 -1       961 1.94331E-04-2.94434E-06 0.00000E+00
 -1       962 1.94201E-04-3.73660E-06 3.30872E-24
 -1       963 1.94071E-04-4.50553E-06-1.65436E-24
 -1       964 1.93941E-04-5.26220E-06 3.30872E-24
 -1       965 1.93810E-04-6.01767E-06-1.65436E-24
 -1       966 1.93680E-04-6.78303E-06-3.30872E-24
 -1       967 1.93550E-04-7.56933E-06-1.65436E-24
 -1       968 1.93420E-04-8.38763E-06 0.00000E+00
 -1       969 1.93291E-04-9.24896E-06 1.65436E-24
 -1       970 1.93161E-04-1.01643E-05-3.30872E-24
 -1       971 1.92916E-04-1.21222E-05 0.00000E+00
 -1       972 1.92797E-04-1.30063E-05 0.00000E+00
 -1       973 1.92678E-04-1.38071E-05 0.00000E+00
 -1       974 1.92559E-04-1.45352E-05 1.65436E-24
 -1       975 1.92439E-04-1.52015E-05 3.30872E-24
 -1       976 1.92320E-04-1.58166E-05 0.00000E+00
 -1       977 1.92201E-04-1.63914E-05-3.30872E-24
 -1       978 1.92082E-04-1.69367E-05-1.65436E-24
 -1       979 1.91963E-04-1.74632E-05-3.30872E-24
 -1       980 1.91843E-04-1.79818E-05 0.00000E+00
 -1       981 1.91724E-04-1.85033E-05-3.30872E-24
 -1       982 1.91605E-04-1.90385E-05 0.00000E+00
 -1       983 1.91486E-04-1.95981E-05 0.00000E+00
 -1       984 1.91368E-04-2.01931E-05 0.00000E+00
 -1       985 1.91250E-04-2.08341E-05 0.00000E+00
 -3
    1PSTEP                        20          10           1          
  100CL  110 6.53320E-01         409                     0   10           1
 -4  STRESS      6    1
 -5  SXX         1    4    1    1
 -5  SYY         1    4    2    2
 -5  SZZ         1    4    3    3
 -5  SXY         1    4    1    2
 -5  SYZ         1    4    2    3
 -5  SZX         1    4    3    1
 -1         1-4.75554E+06-1.68004E+06-1.03576E+06-1.59452E+06-8.44011E-10-4.42669E-08
 -1         2 6.12875E+05 8.39917E+06 2.31381E+06 2.77137E+06 1.98779E-08 9.51404E-08
 -1         3-1.35474E+03-1.60054E+06 4.07555E+02-2.16785E+03-4.40977E-10 3.34185E-08
 -1         5-5.96626E+01 3.77091E+05 9.73922E+00-1.13960E+00-4.43601E-10 1.38789E-09
 -1         8-7.89833E+05-2.55261E+05-9.78663E+04-3.33153E+05-6.09361E-11-8.56271E-08
 -1         9 9.58180E+06 1.32214E+06 1.96284E+06-7.20330E+05 1.86265E-09 1.64588E-07
 -1        10-2.21342E+03-1.66788E+06-3.92476E+03-1.46565E+04-1.29185E-08-2.77729E-08
 -1        12-5.57999E+01 3.77112E+05 3.19220E+02-7.84441E+00-5.56582E-10 1.04410E-08
 -1        15 1.19706E+03 6.52911E+02 3.79676E+03 1.53923E+00 2.81105E-10-2.94693E-07
 -1        16 1.99742E+07-2.08455E+05 2.77120E+06-1.73640E+06 2.73382E-08 1.37525E-07
 -1        17 7.26154E+06 5.29493E+06 1.95671E+06 5.13547E+06 2.05706E-08 3.25148E-08
 -1        18 1.26456E+05 2.92117E+04 1.00377E+03-1.15628E+05 1.46802E-08 9.81663E-09
 -1        19 1.19678E+05 1.38401E+05-9.27501E+02 2.16645E+04 1.37097E-09-6.91289E-09
 -1        20-7.85163E+04-5.61388E+05-1.25854E+05 2.55285E+04-9.52999E-10 5.99418E-09
 -1        21-4.52828E+01-2.91706E+05-9.12476E+02 2.38525E+02 1.44914E-08-1.31098E-08
 -1        24 1.19807E+07 1.02238E+07 3.34844E+06 9.49723E+06-1.51553E-07-4.82930E-08
 -1        25 9.73370E+04 1.65996E+05 7.40568E+04-5.85764E+05-2.21253E-09 6.54309E-09
 -1        26-5.39470E+04 9.00075E+04-2.41171E+04 7.05861E+02 8.58563E-11-1.30316E-09
 -1        27-7.51442E+04-3.03609E+05-1.11233E+05 6.75843E+04 4.32510E-09-3.51671E-11
 -1        28 2.19719E+04-8.38903E+04 1.66439E+04 2.06443E+04-2.33223E-09-6.64452E-09
 -1        32-1.65373E+06-3.08015E+06-1.84638E+05 3.50228E+05-4.02579E-08-6.30723E-09
 -1        33-1.75050E+05 9.07425E+04 3.16759E+04-3.80542E+04-2.68559E-09 6.20548E-09
 -1        34-2.19430E+05-2.43592E+04 6.68171E+02 7.38087E+04-3.71995E-09 1.37667E-09
 -1        35-2.26242E+04-3.32727E+04-1.32442E+03 5.07560E+04-5.94307E-09-3.04863E-09
 -1        51 5.34991E+04-1.97563E+05 1.14666E+05-5.77729E+05 3.63798E-10-1.89713E-07
 -1        52 1.89176E+04-1.78595E+05 6.13606E+04-6.73657E+05 3.67436E-10-4.60528E-07
 -1        53 4.84172E+03-1.94013E+05 3.38932E+04-5.75668E+05 4.22006E-10-1.75009E-07
 -1        54 1.02796E+04-1.90079E+05 3.17412E+04-6.75750E+05 1.16415E-10-9.71486E-08
 -1        55 2.19393E+04-1.98928E+05 4.31730E+04-5.75439E+05 6.76664E-10 4.89817E-08
 -1        56-8.84163E+06-1.03603E+06-7.69609E+05-3.50178E+06-3.05590E-09-9.25502E-08
 -1        57-9.48408E+06-1.37811E+06-5.15707E+05-3.07584E+06 6.82121E-09 1.07611E-07
 -1        58-8.93422E+06-1.33168E+06-1.79808E+05-3.51373E+06-3.42188E-08 9.50895E-08
 -1        59-9.35774E+06-1.04758E+06-1.06739E+05-3.08828E+06 4.68253E-09-3.08017E-07
 -1        60-8.96954E+06-1.35531E+06-4.25592E+04-3.49501E+06 1.78470E-08-9.75051E-08
 -1        61-9.23518E+06-1.08852E+06-2.10996E+04-3.17665E+06 2.25555E-10-8.93197E-08
 -1        62-9.04731E+06-1.29566E+06-1.53448E+04-3.41897E+06-2.50766E-08 2.20183E-07
 -1        63-9.06074E+06-1.24206E+06-5.05183E+03-3.35133E+06 1.30785E-09 1.86632E-07
 -1        64-9.13662E+06-1.20667E+06-1.46107E+04-3.31520E+06 3.16504E-09 5.81877E-08
 -1        65-8.92125E+06-1.40070E+06-1.86613E+04-3.54083E+06 2.07910E-09-3.53343E-07
 -1        66-9.19371E+06-1.13244E+06-3.81969E+04-3.23454E+06 1.25510E-10-1.11895E-07
 -1        67-8.88225E+06-1.51447E+06-9.50906E+04-3.63893E+06-2.02017E-08 8.66421E-08
 -1        68-9.18545E+06-1.08750E+06-1.60268E+05-3.22342E+06 1.72295E-08-1.16459E-07
 -1        69-9.06196E+06-1.74166E+06-4.59570E+05-3.54910E+06-3.13776E-09-8.95234E-08
 -1        70-9.01234E+06-9.15593E+05-6.86554E+05-3.31940E+06 8.74570E-09-7.79401E-08
 -1        86-6.22423E+05-8.75321E+06-1.26196E+06-1.32806E+06-1.79654E-07-2.40398E-08
 -1        87 8.96460E+05 1.44210E+06 1.04825E+06 2.93265E+06-3.01970E-07-1.09567E-07
 -1        88-1.27296E+05-2.59930E+06 8.38292E+04-1.57609E+06-2.68619E-07 6.88865E-08
 -1        89 1.21466E+06 1.31006E+06 1.05067E+06 3.00806E+06-3.88754E-07-1.46225E-07
 -1        90-9.07344E+05-8.65168E+06-1.38942E+06-1.41008E+06-9.77743E-08 2.86826E-07
 -1       121-1.86104E+03-1.60503E+06-4.54715E+02 1.07553E+03 1.45303E-09-2.10930E-08
 -1       122-1.17015E+03-1.60059E+06 7.85286E+02-4.33707E+03-5.14417E-09-9.22591E-09
 -1       123-1.88751E+03-1.60516E+06 3.82752E+02 3.21160E+03 4.06339E-09-1.43118E-08
 -1       124 4.93368E+02-1.60009E+06 3.04664E+03-9.06151E+03-9.58198E-09-1.78406E-08
 -1       125-2.73083E+03-1.60608E+06 3.70632E+03 5.76062E+03 6.33554E-09-6.43195E-09
 -1       191-6.29344E+01 3.77112E+05 8.97808E+00 5.90170E-01-4.92231E-10-6.79574E-09
 -1       192-6.05930E+01 3.77092E+05 2.07495E+01-3.72952E+00-6.54475E-10-2.38624E-08
 -1       193-6.53887E+01 3.77111E+05 3.59981E+01 3.26454E+00-9.18734E-10-5.70981E-09
 -1       194-6.35783E+01 3.77095E+05 7.87982E+01-8.48937E+00-5.60648E-10-2.80761E-09
 -1       195-7.01004E+01 3.77109E+05 1.51532E+02 5.49015E+00-1.39457E-09 4.54747E-10
 -1       251-1.92512E+06 2.13530E+04-1.47525E+05 5.15079E+04 3.74348E-09-9.37871E-09
 -1       252-1.58355E+06-2.51389E+04-2.96601E+04-1.84932E+05-9.76797E-10 6.19211E-08
 -1       253-1.80312E+06-1.62781E+03-3.62594E+04 1.62014E+05-4.80486E-09 4.60313E-08
 -1       254-1.75347E+06 1.66333E+04-8.03874E+03-3.09322E+05-5.19270E-09-1.45577E-07
 -1       255-1.77281E+06-4.44383E+03-8.09370E+03 1.76788E+05-8.27276E-09 2.61743E-08
 -1       256-1.63213E+06 1.83011E+04 2.65450E+04-2.38646E+05-9.11996E-09 1.32614E-07
 -1       257-1.91366E+06-1.38114E+04-3.31150E+04 9.06776E+04 1.32604E-09 3.27525E-08
 -1       258-1.45761E+06 1.25877E+04 6.14941E+04-1.03009E+04-1.76897E-10 1.23940E-07
 -1       259-1.93095E+06-1.33575E+04-3.46072E+04-5.14519E+04 2.77942E-08 8.62374E-08
 -1       260-1.59287E+06 1.43085E+04 3.81417E+04 2.32084E+05-3.41147E-08-1.15823E-07
 -1       261-1.79110E+06-3.18524E+03-1.24963E+03-1.51032E+05-2.54645E-08 1.51363E-08
 -1       262-1.74445E+06 2.14534E+04 1.57744E+04 3.30643E+05 1.88060E-08 3.08430E-07
 -1       263-1.79392E+06-7.03874E+03 6.85960E+03-1.50519E+05 3.53793E-10 2.10553E-07
 -1       264-1.57635E+06 4.63677E+04 7.15224E+04 2.30793E+05-6.85291E-08 1.23022E-07
 -1       265-1.94457E+06-4.18039E+04 7.02233E+03-5.06765E+04-1.44137E-08-1.53432E-08
 -1       266-2.13782E+04-9.94555E+03 4.97716E+04-3.23394E+01 0.00000E+00-1.01913E-07
 -1       267 2.47704E+04 1.16008E+04 3.52393E+04 3.72530E+01 1.09139E-10 4.98845E-08
 -1       268-3.34661E+03-1.65136E+03 1.30726E+04-4.79532E+00-9.09495E-11-5.08561E-08
 -1       269 3.95082E+03 1.97802E+03 8.51863E+03 5.58043E+00 1.27329E-11 8.68123E-08
 -1       270-5.97701E+02-3.26451E+02 4.10186E+03-7.67283E-01 1.06866E-10-1.71556E-08
 -1       271-1.83314E+06-2.25573E+05-1.34866E+05-7.06459E+05 2.19115E-08 1.63614E-07
 -1       272-1.88833E+06-3.15160E+05-8.64494E+04-6.95520E+05-2.84108E-08 7.08751E-08
 -1       273-1.85961E+06-2.57964E+05-3.20390E+04-6.99138E+05 2.13913E-08-4.94856E-08
 -1       274-1.85624E+06-2.76520E+05-1.76850E+04-7.07459E+05-1.31295E-08-2.50802E-08
 -1       275-1.86472E+06-2.59821E+05-7.61813E+03-6.96247E+05 3.98541E-08 9.13133E-09
 -1       276-1.84906E+06-2.75579E+05-3.78314E+03-7.13026E+05 6.55746E-10 1.75119E-07
 -1       277-1.86706E+06-2.58256E+05-2.05030E+03-6.93975E+05-2.01017E-08 7.38114E-08
 -1       278-1.84545E+06-2.78592E+05-1.13254E+03-7.17580E+05 1.72340E-08 8.87326E-08
 -1       279-1.86878E+06-2.56485E+05-1.28849E+03-6.92029E+05 1.64691E-08-2.76282E-08
 -1       280-1.84298E+06-2.81757E+05-1.87436E+03-7.21438E+05 3.13416E-08 1.61337E-07
 -1       281-1.87002E+06-2.54796E+05-3.53407E+03-6.90459E+05-6.28388E-08 6.53795E-08
 -1       282-1.84256E+06-2.86340E+05-8.16969E+03-7.24239E+05 4.77621E-09 1.81183E-07
 -1       283-1.86970E+06-2.51816E+05-1.46146E+04-6.89479E+05-4.86034E-08-9.18885E-08
 -1       284-1.85391E+06-3.07787E+05-3.97119E+04-7.23418E+05-2.42862E-08-2.12056E-07
 -1       285-1.85933E+06-2.35113E+05-6.17297E+04-6.90819E+05 2.38942E-08-4.86943E-08
 -1       301 8.34252E+03-5.57906E+05 1.70848E+05-9.73017E+05 8.14907E-10 8.49177E-08
 -1       302 9.35625E+03-5.13633E+05 1.03410E+05-1.42191E+06-3.34694E-10 2.04509E-08
 -1       303-9.98331E+03-5.45735E+05 6.11078E+04-9.70540E+05 2.87400E-09 1.30967E-10
 -1       304-5.21529E+03-5.17711E+05 6.61672E+04-1.42110E+06-1.09212E-08 1.56204E-07
 -1       305-9.80357E+03-5.39327E+05 8.74483E+04-9.73479E+05 7.92897E-09 6.45523E-08
 -1       306-2.77930E+07-5.67688E+06-7.78110E+06-9.85688E+05-8.06758E-08-4.48781E-08
 -1       307 2.31479E+07 2.30413E+06 5.00434E+06-1.34384E+07-8.29765E-07 3.88245E-08
 -1       308-7.55217E+06-8.14325E+05-5.30378E+05 4.73317E+06-1.52853E-07 4.07163E-07
 -1       309-3.47063E+06 7.02434E+06 1.93559E+06-1.91955E+07 3.88751E-07 3.53481E-07
 -1       310-1.14660E+07-1.43059E+06-1.59374E+06 4.63762E+06 6.06524E-08-7.19156E-08
 -1       311 3.22338E+07-1.48941E+05 6.28482E+06-8.77193E+06 4.51197E-07 2.20316E-07
 -1       312-2.89946E+07-5.88921E+06-7.47485E+06-4.20181E+06 1.67638E-07-2.81580E-08
 -1       313 4.10709E+07 1.18598E+07 9.50467E+06 1.99973E+07-1.25379E-07-5.00149E-07
 -1       314-1.69370E+07-1.53041E+07-6.75411E+06-1.15517E+07 5.29573E-07 5.68689E-08
 -1       315-1.10985E+06 2.57987E+07 5.15076E+06 1.06086E+07-1.99041E-07-3.35276E-08
 -1       316 6.41028E+05-9.34475E+06-4.94573E+05-3.23181E+06-1.13540E-06-3.23838E-07
 -1       317-1.70880E+07 2.05127E+07 1.90022E+06-6.75224E+06 7.05797E-07-5.33957E-07
 -1       318-1.20429E+06-1.12237E+07-1.63858E+06-4.39686E+06-8.28790E-07 1.37952E-07
 -1       319 5.54017E+06 2.72880E+07 6.05466E+06 1.45030E+07-3.74785E-08 2.06433E-07
 -1       320-2.07436E+07-1.54665E+07-8.69104E+06-1.15676E+07 1.77650E-07-2.57569E-08
 -1       336-4.96793E+02-1.73751E+06-1.38104E+04 8.74959E+03-2.51785E-08 2.13877E-08
 -1       337-5.33471E+03-1.73756E+06-1.79839E+04-2.11959E+04-4.70898E-08 6.24204E-08
 -1       338 4.41799E+02-1.73703E+06-2.80307E+04 1.22289E+04-3.25372E-08 8.53834E-09
 -1       339-2.97535E+04-1.75442E+06-6.34399E+04-2.79950E+04-5.99248E-08-2.47928E-09
 -1       340 1.97600E+04-1.72269E+06-9.97899E+04 1.54280E+04-3.89009E-08 2.92384E-08
 -1       406-3.40123E+01 3.77095E+05 6.27487E+02 2.75115E+00-1.59326E-09 1.35587E-08
 -1       407 1.64243E+02 3.77222E+05 1.33946E+03 2.11890E+01-3.53772E-10-3.32147E-09
 -1       408 6.31893E+02 3.76997E+05 2.67167E+03-2.43252E+01-2.14754E-09-2.00998E-08
 -1       409 2.84105E+03 3.78076E+05 6.02022E+03 2.57408E+02-2.53749E-10-2.74586E-08
 -1       410 8.26260E+03 3.76230E+05 1.22876E+04-2.47704E+02-2.73212E-09-2.17151E-08
 -1       521-2.93245E+07-6.96755E+06-9.07276E+06-6.56524E+05-1.09663E-07 2.22353E-08
 -1       522 2.38996E+07 3.03583E+06 5.08296E+06-1.66181E+07-4.25236E-07-4.59288E-07
 -1       523-8.25998E+06-1.09744E+06-5.38701E+05 5.17219E+06 4.59841E-08-1.18394E-07
 -1       524-6.68915E+06 9.61733E+06 2.09284E+06-2.21457E+07 8.44913E-07-1.95661E-07
 -1       525-1.23776E+07-1.94839E+06-1.75002E+06 5.06773E+06 6.58270E-07-1.25699E-07
 -1       526 3.49789E+07-2.03905E+05 6.59878E+06-1.12726E+07 2.40980E-08-2.10101E-07
 -1       527-3.07591E+07-7.38055E+06-8.59303E+06-4.08810E+06-2.89874E-08-1.89757E-08
 -1       528 4.48319E+07 1.30441E+07 9.90805E+06 2.26357E+07-7.17700E-08-1.34314E-07
 -1       529-1.79312E+07-1.72854E+07-7.73092E+06-1.16973E+07-7.15954E-09-6.33881E-08
 -1       530-3.41799E+06 3.00066E+07 5.44244E+06 1.04611E+07 2.32685E-08 5.22879E-07
 -1       531 5.80954E+05-1.04601E+07-4.88038E+05-3.33400E+06-7.08635E-07 3.19211E-07
 -1       532-1.99345E+07 2.26898E+07 2.07927E+06-1.03714E+07 5.78875E-07-5.77958E-07
 -1       533-1.27391E+06-1.23645E+07-1.73158E+06-4.39329E+06-3.12808E-07-8.60018E-07
 -1       534 3.56835E+06 3.16559E+07 6.29881E+06 1.50172E+07-4.74392E-08 6.68864E-07
 -1       535-2.18834E+07-1.75903E+07-9.92564E+06-1.17119E+07 1.10595E-07 4.08734E-07
 -1       536-6.81344E+05-4.59668E+04-3.73475E+04-5.12621E+04-7.33780E-09 4.69645E-08
 -1       537-7.90641E+04 4.44959E+04 8.21365E+04 1.17313E+05-1.03004E-07 6.29916E-08
 -1       538-3.93364E+05 2.64297E+03 5.07773E+03-6.89050E+04 3.27055E-08 1.09046E-07
 -1       539-2.77960E+05 2.99586E+03 2.39360E+04 1.32013E+05 1.52419E-07 1.09155E-07
 -1       540-4.87405E+05-3.47436E+02-1.90520E+04-6.64329E+04-1.93616E-08 9.24429E-08
 -1       541 1.04643E+05 1.56243E+04 9.81072E+04 9.23238E+04-4.09973E-08 5.17590E-08
 -1       542-7.65666E+05-1.85759E+04-7.74762E+04-2.84468E+04 4.35916E-08 2.86623E-08
 -1       543 3.42831E+05 2.51852E+04 1.45408E+05-1.28006E+04-1.13050E-09-2.33936E-08
 -1       544-7.19213E+05-1.51908E+04-6.88311E+04 3.81010E+04 8.76025E-09-4.01922E-08
 -1       545-4.45898E+03 8.59615E+03 7.31336E+04-1.07664E+05-2.88246E-08-8.18127E-08
 -1       546-4.27688E+05 5.72767E+03-1.13355E+04 6.61145E+04 2.31119E-08-8.43822E-08
 -1       547-2.94987E+05-4.68160E+03 9.08488E+03-1.34792E+05-1.33475E-07-9.38870E-08
 -1       548-4.36481E+05 4.59905E+03-2.28685E+04 6.58367E+04-1.21375E-07-8.49345E-08
 -1       549 1.41030E+04 1.30938E+04 5.34544E+04-1.05370E+05-5.93760E-08-5.02837E-08
 -1       550-7.28503E+05-1.89563E+04-1.22164E+05 3.60606E+04 8.01629E-09-3.76913E-08
 -1       551 3.89755E+04-7.63963E+05-1.05885E+04-1.22808E+06-9.92732E-08-1.90339E-08
 -1       552 8.86679E+04-8.05613E+05 1.29555E+04-1.75125E+06-7.17409E-08 1.47847E-08
 -1       553 6.78710E+04-8.03047E+05 3.41252E+04-1.22172E+06-1.16139E-07 2.04600E-08
 -1       554 1.26282E+05-8.19536E+05 8.35862E+04-1.75320E+06-7.51606E-08 1.92085E-08
 -1       555 9.75666E+04-8.26192E+05 1.51912E+05-1.22166E+06-1.19675E-07-7.71252E-09
 -1       556 2.12635E+05-3.66979E+05 3.32471E+04-3.95564E+05-1.64437E-08-2.18861E-08
 -1       557 3.39553E+05-4.68379E+05 1.98139E+04-5.10913E+05-1.36788E-09-1.15324E-09
 -1       558 1.96240E+05-3.61862E+05 4.24826E+03-3.98375E+05-1.99361E-08-9.34961E-09
 -1       559 3.15425E+05-4.69760E+05 3.28657E+03-5.29903E+05 1.25729E-08-9.77889E-09
 -1       560 1.82153E+05-3.53012E+05-8.87003E+02-4.08477E+05 6.72298E-09 2.80961E-08
 -1       561 2.97622E+05-4.62707E+05 3.61746E+02-5.41993E+05-5.73345E-09 4.49345E-08
 -1       562 1.71018E+05-3.46078E+05-1.08734E+03-4.16530E+05-1.04919E-08 9.31686E-09
 -1       563 2.84406E+05-4.56945E+05 2.98557E+01-5.50611E+05 3.47791E-09-2.92493E-09
 -1       564 1.63106E+05-3.41144E+05-5.06900E+02-4.22133E+05 4.36557E-09-8.38691E-09
 -1       565 2.75704E+05-4.53156E+05 4.18837E+01-5.56168E+05 2.24099E-09-1.04019E-08
 -1       566 1.58533E+05-3.38249E+05-2.22808E+02-4.25332E+05-7.82893E-09 4.92946E-10
 -1       567 2.71560E+05-4.51353E+05-3.31317E+02-5.58676E+05 7.40329E-09 7.98900E-09
 -1       568 1.57384E+05-3.37547E+05-1.04571E+03-4.26232E+05-1.04046E-08-7.74162E-09
 -1       569 2.70632E+05-4.51300E+05-2.64217E+03-5.57179E+05-1.62845E-08-1.21508E-08
 -1       570 1.60713E+05-3.40674E+05-5.79203E+03-4.25262E+05 6.72298E-09 7.63885E-09
 -1       571 2.83781E+05 1.02713E+04 1.47091E+04-9.13103E+04-5.49244E-09-1.39580E-08
 -1       572 2.85918E+05 3.84211E+03 7.20842E+03-1.00176E+05-2.13950E-08-2.69201E-08
 -1       573 2.84631E+05 1.18196E+03 3.20290E+03-9.11383E+04-1.41381E-08 1.00781E-08
 -1       574 2.84846E+05 6.68490E+02 1.60610E+03-1.00392E+05-4.14275E-10 1.08903E-08
 -1       575 2.84723E+05 3.98860E+02 7.57983E+02-9.11149E+04 8.80789E-10 4.43288E-09
 -1       576 2.84712E+05 4.06110E+02 3.87959E+02-1.00421E+05-5.59430E-09-1.51895E-08
 -1       577 2.84760E+05 3.43136E+02 1.93607E+02-9.11117E+04-2.46109E-09 1.45519E-10
 -1       578 2.84737E+05 3.70922E+02 1.11605E+02-1.00425E+05-5.41922E-09 2.13731E-10
 -1       579 2.84826E+05 3.10108E+02 7.65291E+01-9.11114E+04 1.37079E-08-4.08272E-09
 -1       580 2.84830E+05 3.24692E+02 8.83254E+01-1.00421E+05 8.42374E-09-9.46784E-09
 -1       581 2.84930E+05 2.57161E+02 1.33447E+02-9.11170E+04 1.53232E-08-1.28784E-09
 -1       582 2.84992E+05 2.92984E+02 2.70728E+02-1.00361E+05 5.68889E-09-3.00133E-10
 -1       583 2.85058E+05 3.03245E+02 5.20214E+02-9.11711E+04 4.82396E-09-1.37720E-09
 -1       584 2.85345E+05 7.26777E+02 1.17646E+03-9.99056E+04 6.68661E-09 8.29345E-09
 -1       585 2.85074E+05 1.72169E+03 2.38321E+03-9.15722E+04-5.47516E-10-7.24322E-09
 -1       586-3.35452E+03 1.12286E+05-2.98146E+03-2.45700E+05-6.97401E-09 1.74066E-08
 -1       587-1.25661E+03 1.12017E+05 6.78847E+02-2.70414E+05-5.00222E-09 1.00168E-08
 -1       588 4.51109E+02 1.11851E+05 4.59659E+03-2.45567E+05-1.41699E-09 2.00080E-08
 -1       589 5.02061E+03 1.14246E+05 1.19880E+04-2.70180E+05-5.22596E-09-2.38224E-08
 -1       590 1.62220E+04 1.10553E+05 2.51733E+04-2.45989E+05-4.75211E-09-1.07739E-08
 -1       591-7.19040E+04-1.55474E+04-2.18200E+04-3.09194E+04-3.17186E-10 5.33782E-09
 -1       592-7.57869E+04-1.90705E+04-1.18194E+04-3.45188E+04 3.36286E-10 1.00413E-08
 -1       593-7.40868E+04-1.39635E+04-4.91985E+03-3.25188E+04 4.93806E-09 1.35462E-08
 -1       594-7.27732E+04-1.58698E+04-2.45366E+03-3.46342E+04-6.01767E-09 2.95086E-09
 -1       595-7.42532E+04-1.39582E+04-1.12653E+03-3.25914E+04 6.90353E-10 1.68671E-09
 -1       596-7.25669E+04-1.57235E+04-5.72552E+02-3.46098E+04 7.34740E-09 7.01991E-09
 -1       597-7.42741E+04-1.39731E+04-3.11512E+02-3.25942E+04-8.35144E-10 6.63238E-09
 -1       598-7.25466E+04-1.57177E+04-2.49945E+02-3.46030E+04-3.79168E-09-1.63245E-08
 -1       599-7.42729E+04-1.39736E+04-3.18684E+02-3.25938E+04 4.36319E-09-1.14122E-08
 -1       600-7.25670E+04-1.57241E+04-5.91539E+02-3.46078E+04-3.71983E-10 1.23405E-08
 -1       601-7.42488E+04-1.39595E+04-1.16673E+03-3.25904E+04-4.42492E-09 1.35997E-08
 -1       602-7.27805E+04-1.58746E+04-2.54264E+03-3.46294E+04-8.67203E-09-2.33922E-09
 -1       603-7.40737E+04-1.39678E+04-5.09897E+03-3.25159E+04-8.76298E-10 4.25143E-09
 -1       604-7.59210E+04-1.91728E+04-1.22489E+04-3.44856E+04 3.86609E-09 1.60599E-08
 -1       605-7.17920E+04-1.56266E+04-2.26130E+04-3.08772E+04 4.98176E-10-2.61934E-10
 -1       606 2.68365E+04-1.39612E+04-2.50326E+04 2.43083E+04-1.26638E-08-5.21209E-09
 -1       607 2.25587E+04-4.55710E+03-1.24660E+04 2.73140E+04-4.02324E-08-1.11925E-08
 -1       608 2.49958E+04-8.19667E+02-5.58077E+03 2.41346E+04-2.12349E-08-3.94039E-09
 -1       609 2.45275E+04-2.77629E+02-2.81921E+03 2.75305E+04 1.44246E-09 7.78027E-09
 -1       610 2.47864E+04-3.61212E+01-1.34519E+03 2.41141E+04 3.75258E-09 1.97406E-08
 -1       611 2.47119E+04-3.52331E+01-6.78228E+02 2.75539E+04 2.82171E-09 1.21627E-08
 -1       612 2.47394E+04-2.21018E+01-3.22530E+02 2.41121E+04-1.01863E-09 1.24890E-08
 -1       613 2.47221E+04-3.06348E+01-1.44599E+02 2.75567E+04 1.48702E-10-2.03502E-08
 -1       614 2.47170E+04-2.78193E+01-3.41290E+01 2.41114E+04-4.36557E-10-1.00583E-08
 -1       615 2.47161E+04-2.87066E+01 6.01164E+01 2.75571E+04-3.38468E-09-6.84395E-10
 -1       616 2.46994E+04-2.43821E+01 1.80711E+02 2.41116E+04 1.21327E-09 4.01315E-09
 -1       617 2.47372E+04 1.01912E+01 4.12499E+02 2.75566E+04-8.15817E-10-2.03236E-08
 -1       618 2.46631E+04 9.48312E+01 8.31515E+02 2.41119E+04 1.25374E-09 3.59955E-09
 -1       619 2.50304E+04 6.53363E+02 1.86728E+03 2.75560E+04-9.50763E-10-1.88099E-08
 -1       620 2.43867E+04 2.06679E+03 3.75319E+03 2.41131E+04-5.94582E-11 5.86306E-09
 -1       621 4.79679E+02 2.94032E+05 3.73151E+03 3.82493E+04 8.99945E-10 1.34005E-08
 -1       622 6.30196E+02 2.94901E+05 3.32501E+03 5.55395E+04 1.11413E-09 1.15801E-08
 -1       623 1.23254E+02 2.94223E+05 4.01406E+03 3.80756E+04 1.14642E-09 1.29794E-08
 -1       624 2.04038E+03 2.96097E+05 7.79620E+03 5.57109E+04 1.09765E-09 7.70592E-09
 -1       625 2.00073E+03 2.92678E+05 1.36308E+04 3.80725E+04 1.42336E-09-5.17957E-10
 -1       626 2.54977E+05 6.06442E+04 5.05897E+03 1.24650E+05-2.39697E-09-2.90493E-09
 -1       627 2.52649E+05 6.20618E+04 2.43787E+03 1.28912E+05 2.44427E-09-1.35086E-08
 -1       628 2.55105E+05 5.83263E+04 1.03096E+03 1.25505E+05-6.14364E-09-4.21596E-09
 -1       629 2.52017E+05 6.13942E+04 5.04614E+02 1.29153E+05 2.67028E-09 1.54364E-08
 -1       630 2.55119E+05 5.82146E+04 2.34079E+02 1.25541E+05-5.86624E-10 9.86518E-09
 -1       631 2.51950E+05 6.13692E+04 1.25976E+02 1.29155E+05 1.16888E-08 3.31941E-08
 -1       632 2.55115E+05 5.82188E+04 8.29196E+01 1.25536E+05 1.47334E-08 2.42130E-09
 -1       633 2.51941E+05 6.13714E+04 9.23973E+01 1.29151E+05 9.55879E-09-3.49239E-08
 -1       634 2.55110E+05 5.82164E+04 1.49341E+02 1.25535E+05-7.84269E-09-1.44844E-08
 -1       635 2.51954E+05 6.13699E+04 3.02207E+02 1.29156E+05-2.72001E-08-7.50424E-09
 -1       636 2.55101E+05 5.82110E+04 6.10316E+02 1.25535E+05-7.39351E-09 7.02721E-09
 -1       637 2.52086E+05 6.14649E+04 1.34189E+03 1.29155E+05-3.68664E-09 1.29712E-08
 -1       638 2.55053E+05 5.85075E+04 2.75711E+03 1.25401E+05-2.34786E-09-2.22726E-08
 -1       639 2.53534E+05 6.34792E+04 6.52339E+03 1.28729E+05 7.49969E-09-3.76258E-09
 -1       640 2.54853E+05 6.45216E+04 1.35372E+04 1.22865E+05 1.87401E-09-2.01612E-09
 -1       656 6.52599E+04-1.66912E+06-1.57534E+05-2.30454E+03-8.73115E-11 5.30758E-09
 -1       657-8.63279E+04-1.74030E+06-1.30496E+05 5.46583E+03-7.69433E-10-1.15536E-08
 -1       658 2.07978E+04-1.68934E+06-8.03552E+04-4.32495E+03-2.50111E-12-5.05139E-10
 -1       659-9.33124E+04-1.74362E+06-1.39674E+05 7.12244E+03-1.31149E-09 1.85002E-08
 -1       660 7.22288E+04-1.66581E+06-1.73313E+05-3.96114E+03-2.11003E-09 6.68774E-09
 -1       661 1.59792E+05 1.67786E+04 1.67221E+04 6.24682E+04 6.89852E-10-2.98769E-09
 -1       662 1.69196E+05 2.92116E+04 1.12694E+04 5.87739E+04 6.96616E-10-2.00615E-08
 -1       663 1.63077E+05 2.21434E+04 3.94139E+03 6.15152E+04-6.50402E-10-1.67220E-08
 -1       664 1.65389E+05 2.29374E+04 2.35767E+03 5.99378E+04 7.68324E-10-2.38317E-08
 -1       665 1.63575E+05 2.28765E+04 9.30086E+02 6.13701E+04 1.05223E-09-1.23529E-09
 -1       666 1.64800E+05 2.20990E+04 5.44282E+02 6.01268E+04 9.22853E-09 2.75996E-08
 -1       667 1.63662E+05 2.29600E+04 2.89124E+02 6.13340E+04 3.08873E-09-6.13138E-09
 -1       668 1.64704E+05 2.20386E+04 2.94659E+02 6.01794E+04-8.09041E-09-6.46924E-09
 -1       669 1.63670E+05 2.29351E+04 3.98976E+02 6.13179E+04-3.24013E-09 1.43833E-08
 -1       670 1.64801E+05 2.22551E+04 8.68825E+02 6.01823E+04-6.93115E-09 4.19729E-09
 -1       671 1.63565E+05 2.27480E+04 1.54268E+03 6.13291E+04 4.29218E-09-7.07405E-09
 -1       672 1.65700E+05 2.37560E+04 3.94692E+03 5.99645E+04 3.77187E-09-4.11995E-09
 -1       673 1.62775E+05 2.14722E+04 6.61441E+03 6.15211E+04 5.12955E-09-9.37871E-09
 -1       674 1.71995E+05 3.43826E+04 1.89158E+04 5.81148E+04-2.50850E-09-7.79801E-09
 -1       675 1.57310E+05 1.24191E+04 2.80777E+04 6.30671E+04-1.49612E-09 9.59517E-09
 -1       676 2.37833E+01-2.91630E+05-1.09977E+03-1.19266E+02 6.41194E-11-4.67722E-09
 -1       677-2.91183E+02-2.91896E+05-2.01277E+03 2.38344E+02 9.00150E-09-2.13799E-08
 -1       678 1.95089E+02-2.91441E+05-3.55808E+03-1.19000E+02 2.40925E-09-6.11248E-09
 -1       679-3.55839E+03-2.94044E+05-8.45251E+03 2.37329E+02 6.93126E-09 1.64066E-08
 -1       680 2.12437E+03-2.89483E+05-1.36226E+04-1.16933E+02 1.49248E-09 1.71453E-09
 -1       771-3.02642E+06-7.25258E+05-1.53885E+05-1.43891E+06-2.69501E-08-3.00643E-08
 -1       772-2.95299E+06-8.10429E+05-7.94147E+04-1.53727E+06-2.02417E-08 2.37924E-09
 -1       773-3.05570E+06-7.02379E+05-4.03115E+04-1.45203E+06-5.18048E-09 1.12341E-08
 -1       774-2.94365E+06-7.93415E+05-1.80205E+04-1.56108E+06 2.58733E-08-6.66114E-09
 -1       775-3.07080E+06-6.91762E+05-1.33637E+04-1.45832E+06-1.54250E-09 2.85945E-09
 -1       776-2.95470E+06-7.90774E+05-5.01597E+03-1.57895E+06 3.49246E-10 3.25599E-09
 -1       777-3.08385E+06-6.82325E+05-5.86248E+03-1.46387E+06 3.14321E-09 3.49246E-10
 -1       778-2.96627E+06-7.88336E+05-1.66350E+03-1.59429E+06 2.96859E-09 8.77117E-09
 -1       779-3.09504E+06-6.74098E+05-2.91634E+03-1.46862E+06-2.93949E-09-2.92493E-09
 -1       780-2.97645E+06-7.86007E+05-4.84522E+02-1.60678E+06-4.39468E-09-2.91584E-09
 -1       781-3.10393E+06-6.67477E+05-1.12859E+03-1.47233E+06-2.67464E-08-5.82077E-10
 -1       782-2.98428E+06-7.84024E+05 4.10529E+02-1.61600E+06-3.48373E-08-4.98312E-09
 -1       783-3.11017E+06-6.62884E+05 6.41544E+02-1.47493E+06-9.93896E-09-1.72772E-08
 -1       784-2.98861E+06-7.82007E+05 2.64526E+03-1.62168E+06-1.90921E-08-1.70985E-10
 -1       785-3.11387E+06-6.60148E+05 4.67067E+03-1.47659E+06-3.47864E-08 7.03767E-09
 -1       786 1.24340E+05-9.70595E+03 2.24555E+04-3.00685E+02 1.36665E-09-7.36691E-11
 -1       787 1.34079E+05 1.12372E+04 1.58863E+04-1.17463E+02 5.39659E-09-9.79639E-09
 -1       788 1.28095E+05-1.52102E+03 5.80980E+03-2.66552E+02 8.09291E-09 1.50462E-08
 -1       789 1.29704E+05 1.76040E+03 3.64731E+03-1.70029E+02 1.49507E-09 2.30211E-08
 -1       790 1.28715E+05-2.36898E+02 1.47703E+03-2.48135E+02-2.01115E-09 1.16152E-08
 -1       791 1.28979E+05 2.74024E+02 8.53669E+02-2.01595E+02-6.30206E-09 1.15265E-08
 -1       792 1.28820E+05-3.57525E+01 3.62894E+02-2.34988E+02-5.46292E-09 4.79530E-09
 -1       793 1.28854E+05 3.81992E+01 1.83420E+02-2.26336E+02 2.63199E-09 1.09989E-08
 -1       794 1.28840E+05-1.22188E+00 5.27092E+01-2.23394E+02 4.64796E-09 1.00840E-08
 -1       795 1.28819E+05-2.30576E+01-4.39336E+01-2.50535E+02-4.40051E-09-7.00098E-09
 -1       796 1.28855E+05 2.54703E+01-1.38496E+02-2.10788E+02 3.92923E-09-8.59896E-09
 -1       797 1.28736E+05-1.90954E+02-3.86656E+02-2.79481E+02 3.72157E-09 8.88798E-09
 -1       798 1.28923E+05 1.66548E+02-6.29717E+02-1.94448E+02 2.07884E-09 1.42615E-08
 -1       799 1.28258E+05-1.22784E+03-1.73399E+03-3.19826E+02 5.99172E-09 2.28445E-09
 -1       800 1.29333E+05 1.06151E+03-2.45439E+03-1.70444E+02 3.19643E-10 2.47269E-10
 -1       801-1.35018E+05-9.34010E+06-1.28269E+06 1.25703E+06 8.80682E-08-5.33182E-08
 -1       802 6.36083E+05 4.92219E+06 1.92316E+06-1.53427E+06 2.48539E-07-2.59170E-08
 -1       803-4.77096E+05-1.30966E+07-1.69061E+06 7.98398E+05 7.52516E-08 1.20926E-08
 -1       804 2.47797E+05 1.70637E+06 1.35563E+06 6.26074E+05-1.12428E-07-9.06593E-08
 -1       805 1.76124E+05-6.13916E+06-2.56983E+05-8.98183E+05-4.66825E-08-6.35846E-08
 -1       806-3.02678E+05-5.84257E+04-2.23528E+04-1.19791E+05-1.56970E-08 6.72799E-09
 -1       807-3.04459E+05-5.47552E+04-1.09817E+04-1.25188E+05-2.21530E-09-6.71257E-09
 -1       808-3.03290E+05-5.03720E+04-4.65879E+03-1.23601E+05-1.02314E-08-6.27881E-09
 -1       809-3.02151E+05-5.16686E+04-2.27804E+03-1.25457E+05-1.12314E-08-4.57283E-09
 -1       810-3.03383E+05-5.00916E+04-1.04414E+03-1.23770E+05 8.79299E-09 2.14550E-09
 -1       811-3.01972E+05-5.15445E+04-5.19260E+02-1.25422E+05 7.83848E-09 7.95717E-09
 -1       812-3.03397E+05-5.01156E+04-2.62650E+02-1.23769E+05-6.22549E-09-1.41617E-08
 -1       813-3.01948E+05-5.15466E+04-1.70773E+02-1.25404E+05-1.35387E-08-1.23812E-08
 -1       814-3.03390E+05-5.01249E+04-1.69333E+02-1.23766E+05-7.15499E-09-1.80662E-08
 -1       815-3.01952E+05-5.15487E+04-2.72964E+02-1.25397E+05 3.30010E-09-8.40259E-09
 -1       816-3.03370E+05-5.01239E+04-5.17394E+02-1.23762E+05 4.76030E-09 1.81221E-08
 -1       817-3.02040E+05-5.15980E+04-1.11050E+03-1.25386E+05-8.57335E-09 1.49696E-08
 -1       818-3.03303E+05-5.02804E+04-2.26500E+03-1.23688E+05-2.82671E-09 3.81078E-10
 -1       819-3.03280E+05-5.29665E+04-5.32950E+03-1.25093E+05-1.00481E-08-2.75304E-09
 -1       820-3.02877E+05-5.43055E+04-1.08474E+04-1.21968E+05-2.98314E-09-4.04498E-10
 -1       821-3.73117E+05 2.05528E+04-4.77155E+04 1.77646E+03 1.16179E-08-3.32147E-09
 -1       822-3.93029E+05-2.38022E+04-3.36315E+04-3.57087E+03 3.93094E-09-7.47787E-09
 -1       823-3.80706E+05 3.23304E+03-1.23364E+04 2.72478E+03-9.96385E-09 2.03408E-09
 -1       824-3.83966E+05-3.73207E+03-7.73699E+03-4.14308E+03 3.17270E-10 1.30393E-08
 -1       825-3.82182E+05 5.02218E+02-3.22136E+03 2.34874E+03 1.60575E-08-5.87283E-09
 -1       826-3.81878E+05-5.70886E+02-1.78980E+03-2.27854E+03 2.28322E-08-5.62295E-09
 -1       827-3.82779E+05 6.21380E+01-1.10753E+03 8.60153E+02 8.79845E-09-5.91598E-10
 -1       828-3.81394E+05-1.50567E+02-6.93699E+02 1.00007E+03-1.56140E-09 7.66249E-09
 -1       829-3.82658E+05 7.64905E+01-1.10498E+03-9.29904E+02 1.23161E-09 7.61639E-09
 -1       830-3.82144E+05-6.15731E+02-1.90936E+03 3.90028E+03 1.19669E-09 1.23891E-08
 -1       831-3.82043E+05 5.38365E+02-3.31118E+03-2.04009E+03-2.44351E-09 4.69640E-09
 -1       832-3.84051E+05-3.89016E+03-8.03688E+03 4.83392E+03-3.30829E-09 3.07682E-09
 -1       833-3.80761E+05 3.35552E+03-1.28279E+04-1.86357E+03-5.11307E-10-8.82483E-09
 -1       834-3.93180E+05-2.47077E+04-3.48620E+04 3.26196E+03-1.21897E-09-1.16634E-08
 -1       835-3.72905E+05 2.13295E+04-4.95615E+04-4.68073E+02 5.41650E-09-7.82529E-09
 -1       836-1.37399E+03 3.61451E+05 2.23335E+04-1.61945E+04-6.22549E-09-2.16642E-09
 -1       837 4.76983E+03 3.68442E+05 1.89139E+04-3.30242E+04-6.57906E-09 1.37188E-08
 -1       838-5.41077E+02 3.63409E+05 1.92928E+04-1.61236E+04-5.49971E-09 2.88992E-10
 -1       839 1.21591E+04 3.73946E+05 3.65176E+04-3.30753E+04-5.73618E-09-1.68277E-08
 -1       840-3.75305E+03 3.55890E+05 5.82415E+04-1.61483E+04-5.55156E-09 4.75798E-09
 -1       856-5.47822E+04 7.99144E+03-2.10593E+04-3.98349E+02 3.26554E-09-1.30149E-09
 -1       857-6.34602E+04-9.38802E+03-1.44971E+04 5.55281E+03 7.55233E-09-1.36743E-08
 -1       858-5.82181E+04 1.12063E+03-5.46445E+03-4.22341E+02 1.61782E-09-3.60365E-09
 -1       859-5.95170E+04-1.31680E+03-3.29773E+03 5.58873E+03-1.45496E-09 1.86328E-08
 -1       860-5.87315E+04 1.56839E+02-1.38239E+03-4.34042E+02 1.73904E-09-1.00579E-09
 -1       861-5.89264E+04-1.85760E+02-7.61121E+02 5.60469E+03 3.71571E-10 6.90763E-09
 -1       862-5.88117E+04 2.11884E+01-3.17677E+02-4.38280E+02-1.67775E-09 3.18934E-09
 -1       863-5.88282E+04-2.05758E+01-1.18648E+02 5.60711E+03-1.79313E-09-2.57704E-08
 -1       864-5.88301E+04-4.59724E+00 4.04166E+01-4.36462E+02-1.63925E-09-2.00473E-08
 -1       865-5.87745E+04 5.76161E+01 2.39522E+02 5.59685E+03 1.09097E-10-1.19307E-09
 -1       866-5.88633E+04-5.70581E+01 4.86086E+02-4.28021E+02 3.71261E-09-7.21656E-10
 -1       867-5.85450E+04 4.71581E+02 1.19864E+03 5.57391E+03-2.28653E-10-5.51594E-09
 -1       868-5.90548E+04-4.11194E+02 1.99229E+03-4.13523E+02-6.18513E-10-1.26413E-08
 -1       869-5.70837E+04 3.42218E+03 5.30564E+03 5.53604E+03 2.37705E-09-2.37292E-08
 -1       870-6.03170E+04-2.92767E+03 7.69954E+03-3.90062E+02-5.82202E-09-2.08870E-08
 -1       871-5.43260E+03-2.02412E+04-1.90393E+04 1.27320E+05-3.81260E-09 9.01309E-10
 -1       872-1.99028E+03-2.46546E+04-7.95910E+03 1.65087E+05-9.97807E-09 1.54596E-08
 -1       873 3.55391E+02-2.25266E+04 6.09231E+02 1.27040E+05-4.03088E-09 7.50413E-09
 -1       874 3.19486E+03-2.01425E+04 9.63039E+03 1.65118E+05-1.08594E-08 2.99005E-08
 -1       875 6.69103E+03-2.48206E+04 2.16997E+04 1.27273E+05-4.15457E-09 7.39055E-09
 -1       876 2.88383E+05 4.86741E+04 1.48526E+04 1.15812E+05 4.20096E-09-8.03084E-10
 -1       877 2.89358E+05 5.18095E+04 7.93187E+03 1.20079E+05 7.50515E-09 3.13548E-10
 -1       878 2.89772E+05 4.70291E+04 3.32306E+03 1.17029E+05-6.32826E-09-1.26538E-08
 -1       879 2.87339E+05 4.97948E+04 1.65574E+03 1.20180E+05-2.72303E-09 1.16339E-08
 -1       880 2.89872E+05 4.70120E+04 7.71208E+02 1.17079E+05-4.54156E-09-7.29972E-09
 -1       881 2.87205E+05 4.97086E+04 4.11807E+02 1.20157E+05-5.04599E-09-1.13161E-08
 -1       882 2.89881E+05 4.70250E+04 2.63399E+02 1.17080E+05-1.79284E-09-1.44619E-08
 -1       883 2.87195E+05 4.97042E+04 2.83083E+02 1.20149E+05-3.02879E-09-1.28328E-09
 -1       884 2.89874E+05 4.70222E+04 4.50244E+02 1.17080E+05-9.90667E-10-2.29031E-08
 -1       885 2.87231E+05 4.97104E+04 9.05194E+02 1.20160E+05 5.31202E-11-3.46860E-08
 -1       886 2.89839E+05 4.69958E+04 1.82436E+03 1.17077E+05-2.49095E-09-1.15922E-08
 -1       887 2.87552E+05 4.99206E+04 3.98505E+03 1.20206E+05 6.53185E-09-1.06793E-08
 -1       888 2.89587E+05 4.70402E+04 8.02999E+03 1.16949E+05-1.32226E-09 4.51746E-09
 -1       889 2.92332E+05 5.48919E+04 1.91822E+04 1.20060E+05 2.04052E-09-1.05147E-08
 -1       890 2.86310E+05 5.09327E+04 3.59277E+04 1.13892E+05-3.51247E-09-8.12179E-09
 -1       891-9.51453E+01-1.60027E+05-1.95920E+03 2.69237E+04-1.23373E-09 1.51908E-09
 -1       892-1.83503E+02-1.60541E+05-2.10534E+03 4.08714E+04 2.01067E-09-1.19278E-08
 -1       893 3.53819E+01-1.60090E+05-2.98209E+03 2.69308E+04-1.47725E-09-1.64841E-08
 -1       894-1.49498E+03-1.61668E+05-6.17265E+03 4.07206E+04 1.93540E-09 2.18006E-09
 -1       895-1.18576E+03-1.58804E+05-1.08703E+04 2.70758E+04-3.24951E-09 9.10404E-09
 -1       956-3.69872E+05-5.32719E+03-1.31772E+04 2.98029E+04 8.99945E-09-3.15526E-09
 -1       957-3.72460E+05-1.87065E+03-6.76375E+03 3.58227E+04 2.94676E-10 1.71644E-08
 -1       958-3.71055E+05-2.25809E+02-3.04790E+03 2.96393E+04-4.14911E-09 3.72324E-09
 -1       959-3.71249E+05-1.21679E+02-1.55636E+03 3.60123E+04-5.58884E-10-9.34619E-09
 -1       960-3.71170E+05-3.43533E+01-7.58944E+02 2.96225E+04 7.02221E-09-8.69068E-09
 -1       961-3.71170E+05-5.06535E+01-4.02433E+02 3.60321E+04 1.23493E-08 9.73841E-09
 -1       962-3.71196E+05-3.59122E+01-2.30441E+02 2.96197E+04 2.56068E-09-8.98899E-09
 -1       963-3.71170E+05-4.67668E+01-1.85067E+02 3.60356E+04 4.16048E-09 2.42585E-09
 -1       964-3.71202E+05-3.26895E+01-2.25119E+02 2.96190E+04 2.04327E-09-2.00271E-09
 -1       965-3.71182E+05-4.37835E+01-3.89416E+02 3.60349E+04-8.19028E-09-1.62609E-08
 -1       966-3.71186E+05-2.47751E+01-7.31689E+02 2.96204E+04 6.09680E-09 1.33668E-08
 -1       967-3.71270E+05-1.05715E+02-1.50071E+03 3.60212E+04 8.51833E-09 2.13822E-08
 -1       968-3.71085E+05-2.03211E+02-2.93778E+03 2.96326E+04 5.74255E-09-6.94513E-10
 -1       969-3.72449E+05-1.78672E+03-6.52188E+03 3.58783E+04 4.44015E-09-1.14750E-08
 -1       970-3.69952E+05-5.11833E+03-1.27049E+04 2.97559E+04 1.52795E-09 1.71931E-08
 -1       971-3.39369E+05-1.70264E+03-9.20101E+03 1.51860E+04 6.02904E-09-5.99488E-09
 -1       972-3.41586E+05-1.25058E+03-5.01077E+03 2.10224E+04 7.05586E-09 5.13364E-09
 -1       973-3.40394E+05-5.67722E+01-2.24433E+03 1.50656E+04 7.37691E-09-1.06272E-08
 -1       974-3.40529E+05-7.38395E+01-1.16333E+03 2.11580E+04 7.07769E-09 7.68523E-10
 -1       975-3.40475E+05-1.24883E+01-5.81841E+02 1.50535E+04-1.71667E-09 7.30597E-09
 -1       976-3.40469E+05-2.46311E+01-3.36279E+02 2.11735E+04-1.64982E-09-1.79944E-08
 -1       977-3.40491E+05-1.18045E+01-2.45140E+02 1.50502E+04-5.86465E-09-6.50095E-09
 -1       978-3.40474E+05-1.85209E+01-2.88328E+02 2.11782E+04-2.55750E-09-3.78566E-09
 -1       979-3.40491E+05-3.49353E+00-4.64510E+02 1.50488E+04 5.64950E-09 5.49608E-09
 -1       980-3.40509E+05-1.55171E+01-8.97700E+02 2.11792E+04 8.78164E-09-4.74506E-09
 -1       981-3.40462E+05 1.89393E+01-1.73905E+03 1.50493E+04 5.83520E-09-4.84152E-09
 -1       982-3.40747E+05-1.44009E+02-3.59481E+03 2.11726E+04 3.15697E-09 1.16400E-09
 -1       983-3.40243E+05-9.24109E+01-6.98486E+03 1.50553E+04 4.47699E-09 1.54828E-08
 -1       984-3.44107E+05-3.79199E+03-1.56423E+04 2.10879E+04 2.49906E-09 1.44121E-08
 -1       985-3.37081E+05-5.20351E+03-2.87242E+04 1.51273E+04-3.12230E-09 1.56251E-09
 -3
    1PSTEP                        21          11           1          
  100CL  111 6.62109E-01         409                     0   11           1
 -4  DISP        4    1
 -5  D1          1    2    1    0
 -5  D2          1    2    2    0
 -5  D3          1    2    3    0
 -5  ALL         1    2    0    0    1ALL
 -1         1 2.73512E-03 0.00000E+00 0.00000E+00
 -1         2 1.26382E-03 1.76633E-26 0.00000E+00
 -1         3 3.42246E-04-1.10958E-27 0.00000E+00
 -1         5 1.76922E-04 4.87998E-27 8.27181E-25
 -1         8 2.72485E-03-3.91129E-07 0.00000E+00
 -1         9 2.71753E-03-2.21660E-04 0.00000E+00
 -1        10 3.10356E-04-3.36604E-06 0.00000E+00
 -1        12 1.78769E-04 8.08376E-07 8.27181E-25
 -1        15 2.71324E-03-4.12835E-07 0.00000E+00
 -1        16 2.79610E-03-2.23663E-04 0.00000E+00
 -1        17 2.11241E-04-7.68253E-06 0.00000E+00
 -1        18 1.82719E-04 3.44081E-05 0.00000E+00
 -1        19 1.84310E-04 1.61034E-06 0.00000E+00
 -1        20 1.84450E-04-9.89863E-06 0.00000E+00
 -1        21 1.83558E-04-2.54513E-05 3.30872E-24
 -1        24 3.05436E-05-1.18889E-05 0.00000E+00
 -1        25 1.93505E-04 3.46337E-05 0.00000E+00
 -1        26 1.94181E-04 2.22980E-06 0.00000E+00
 -1        27 1.91983E-04-1.34537E-05 0.00000E+00
 -1        28 1.91669E-04-2.60726E-05 0.00000E+00
 -1        32 0.00000E+00 0.00000E+00 0.00000E+00
 -1        33 2.03052E-04 2.98283E-06 0.00000E+00
 -1        34 2.00936E-04-1.35099E-05 0.00000E+00
 -1        35 1.99005E-04-2.64147E-05 0.00000E+00
 -1        51 2.73442E-03-8.29344E-08 3.30872E-24
 -1        52 2.73315E-03-1.47278E-07 0.00000E+00
 -1        53 2.73144E-03-2.08056E-07-3.30872E-24
 -1        54 2.72940E-03-2.67503E-07 8.27181E-25
 -1        55 2.72716E-03-3.27392E-07 1.65436E-24
 -1        56 2.72614E-03 1.16179E-05 0.00000E+00
 -1        57 2.70734E-03 4.72239E-05 5.29396E-23
 -1        58 2.68153E-03 9.93826E-05 1.05879E-22
 -1        59 2.65237E-03 1.59115E-04 0.00000E+00
 -1        60 2.62439E-03 2.16145E-04 0.00000E+00
 -1        61 2.60195E-03 2.60412E-04 0.00000E+00
 -1        62 2.58798E-03 2.84122E-04 1.05879E-22
 -1        63 2.58431E-03 2.81299E-04 0.00000E+00
 -1        64 2.59054E-03 2.50857E-04 1.05879E-22
 -1        65 2.60538E-03 1.94358E-04-5.29396E-23
 -1        66 2.62624E-03 1.18378E-04 0.00000E+00
 -1        67 2.65028E-03 3.14484E-05 0.00000E+00
 -1        68 2.67440E-03-5.57310E-05-1.05879E-22
 -1        69 2.69550E-03-1.32432E-04 5.29396E-23
 -1        70 2.71070E-03-1.89995E-04-5.29396E-23
 -1        86 1.35531E-03-6.87913E-06 5.29396E-23
 -1        87 1.61913E-03-4.37727E-05 0.00000E+00
 -1        88 1.97398E-03-1.07433E-04 5.29396E-23
 -1        89 2.33406E-03-1.73030E-04 1.32349E-23
 -1        90 2.61051E-03-2.13211E-04 0.00000E+00
 -1       121 3.41351E-04-5.43341E-07 0.00000E+00
 -1       122 3.38668E-04-1.08976E-06 0.00000E+00
 -1       123 3.34208E-04-1.64228E-06 0.00000E+00
 -1       124 3.27986E-04-2.20393E-06 6.61744E-24
 -1       125 3.20025E-04-2.77735E-06 1.32349E-23
 -1       191 1.76973E-04 1.34793E-07 1.65436E-24
 -1       192 1.77127E-04 2.69575E-07-1.24077E-24
 -1       193 1.77383E-04 4.04336E-07-3.30872E-24
 -1       194 1.77742E-04 5.39066E-07-8.27181E-25
 -1       195 1.78204E-04 6.73750E-07-2.48154E-24
 -1       251 2.72454E-03 1.61116E-06 6.61744E-24
 -1       252 2.72423E-03 3.63977E-06 3.30872E-24
 -1       253 2.72392E-03 4.53310E-06 6.61744E-24
 -1       254 2.72361E-03 3.14396E-06-3.30872E-24
 -1       255 2.72329E-03-1.32141E-06 0.00000E+00
 -1       256 2.72294E-03-9.61744E-06 0.00000E+00
 -1       257 2.72255E-03-2.19059E-05 0.00000E+00
 -1       258 2.72211E-03-3.82975E-05 0.00000E+00
 -1       259 2.72161E-03-5.82687E-05-1.32349E-23
 -1       260 2.72104E-03-8.12499E-05 6.61744E-24
 -1       261 2.72043E-03-1.06206E-04-1.32349E-23
 -1       262 2.71980E-03-1.32076E-04 0.00000E+00
 -1       263 2.71917E-03-1.57660E-04 1.32349E-23
 -1       264 2.71857E-03-1.81758E-04 0.00000E+00
 -1       265 2.71803E-03-2.03403E-04 1.32349E-23
 -1       266 2.72292E-03-4.00199E-07 1.65436E-24
 -1       267 2.72098E-03-4.03151E-07-4.13590E-25
 -1       268 2.71905E-03-4.06494E-07 0.00000E+00
 -1       269 2.71711E-03-4.08685E-07-2.06795E-25
 -1       270 2.71517E-03-4.10852E-07-2.06795E-25
 -1       271 2.72415E-03-2.26147E-07 0.00000E+00
 -1       272 2.72456E-03-3.05359E-06 0.00000E+00
 -1       273 2.72600E-03-8.68684E-06-1.32349E-23
 -1       274 2.72839E-03-1.69247E-05 0.00000E+00
 -1       275 2.73166E-03-2.75437E-05 0.00000E+00
 -1       276 2.73570E-03-4.03038E-05 6.61744E-24
 -1       277 2.74042E-03-5.49477E-05 0.00000E+00
 -1       278 2.74572E-03-7.12039E-05 0.00000E+00
 -1       279 2.75149E-03-8.87886E-05-1.32349E-23
 -1       280 2.75763E-03-1.07408E-04 6.61744E-24
 -1       281 2.76403E-03-1.26759E-04 1.32349E-23
 -1       282 2.77059E-03-1.46535E-04-6.61744E-24
 -1       283 2.77718E-03-1.66424E-04 0.00000E+00
 -1       284 2.78370E-03-1.86115E-04-6.61744E-24
 -1       285 2.79004E-03-2.05297E-04-1.32349E-23
 -1       301 2.73179E-03-2.22032E-04 6.61744E-24
 -1       302 2.74430E-03-2.22354E-04-6.61744E-24
 -1       303 2.75604E-03-2.22663E-04-1.32349E-23
 -1       304 2.76794E-03-2.22972E-04-6.61744E-24
 -1       305 2.78098E-03-2.23297E-04 0.00000E+00
 -1       306 2.75596E-03-3.78600E-04 0.00000E+00
 -1       307 2.81983E-03-7.94413E-04 5.29396E-23
 -1       308 2.86648E-03-1.40005E-03 1.05879E-22
 -1       309 2.89081E-03-2.09901E-03-5.29396E-23
 -1       310 2.92299E-03-2.76556E-03 0.00000E+00
 -1       311 2.98301E-03-3.27682E-03 0.00000E+00
 -1       312 3.04021E-03-3.55275E-03 0.00000E+00
 -1       313 3.03318E-03-3.55654E-03 0.00000E+00
 -1       314 2.88823E-03-3.30115E-03 1.05879E-22
 -1       315 2.56516E-03-2.85164E-03 0.00000E+00
 -1       316 2.08341E-03-2.28469E-03-1.05879E-22
 -1       317 1.50976E-03-1.66926E-03 0.00000E+00
 -1       318 9.58788E-04-1.06549E-03 1.05879E-22
 -1       319 5.38381E-04-5.38185E-04-5.29396E-23
 -1       320 2.91941E-04-1.61483E-04-1.05879E-22
 -1       336 2.98790E-04-4.01705E-06 1.32349E-23
 -1       337 2.85151E-04-4.69366E-06 0.00000E+00
 -1       338 2.69500E-04-5.39812E-06 0.00000E+00
 -1       339 2.51909E-04-6.13128E-06 6.61744E-24
 -1       340 2.32459E-04-6.89759E-06 0.00000E+00
 -1       406 1.79436E-04 9.42925E-07-3.30872E-24
 -1       407 1.80206E-04 1.07736E-06-1.24077E-24
 -1       408 1.81078E-04 1.21163E-06-2.48154E-24
 -1       409 1.82053E-04 1.34556E-06-4.13590E-25
 -1       410 1.83131E-04 1.47888E-06 1.65436E-24
 -1       521 2.83509E-03-3.89969E-04 0.00000E+00
 -1       522 2.89710E-03-8.26802E-04 0.00000E+00
 -1       523 2.93700E-03-1.46156E-03-1.05879E-22
 -1       524 2.95163E-03-2.19078E-03 0.00000E+00
 -1       525 2.97553E-03-2.88550E-03 1.05879E-22
 -1       526 3.03193E-03-3.41994E-03-5.29396E-23
 -1       527 3.08877E-03-3.70689E-03-2.11758E-22
 -1       528 3.07928E-03-3.70861E-03 5.29396E-23
 -1       529 2.92148E-03-3.43819E-03 2.11758E-22
 -1       530 2.57285E-03-2.96909E-03 0.00000E+00
 -1       531 2.05373E-03-2.38196E-03 0.00000E+00
 -1       532 1.43766E-03-1.74839E-03-5.29396E-23
 -1       533 8.45121E-04-1.12580E-03 0.00000E+00
 -1       534 3.89621E-04-5.76591E-04 0.00000E+00
 -1       535 1.21020E-04-1.79503E-04 2.11758E-22
 -1       536 2.10487E-04 2.72095E-05-6.61744E-24
 -1       537 2.08572E-04 8.76012E-05 1.65436E-24
 -1       538 2.05613E-04 1.64232E-04-3.30872E-24
 -1       539 2.02122E-04 2.47758E-04 0.00000E+00
 -1       540 1.98980E-04 3.26684E-04 0.00000E+00
 -1       541 1.96938E-04 3.89538E-04 0.00000E+00
 -1       542 1.95996E-04 4.29571E-04 0.00000E+00
 -1       543 1.95771E-04 4.40183E-04 0.00000E+00
 -1       544 1.95449E-04 4.22148E-04 0.00000E+00
 -1       545 1.94278E-04 3.76457E-04-1.65436E-24
 -1       546 1.92095E-04 3.11234E-04 0.00000E+00
 -1       547 1.89141E-04 2.34720E-04 1.65436E-24
 -1       548 1.86214E-04 1.58582E-04 0.00000E+00
 -1       549 1.84102E-04 9.44880E-05 0.00000E+00
 -1       550 1.83005E-04 5.04637E-05 0.00000E+00
 -1       551 1.86067E-04-8.24892E-06 0.00000E+00
 -1       552 1.57651E-04-8.89564E-06 0.00000E+00
 -1       553 1.26934E-04-9.60454E-06 9.92617E-24
 -1       554 9.48719E-05-1.03546E-05 3.30872E-24
 -1       555 6.24242E-05-1.11184E-05 0.00000E+00
 -1       556 2.03602E-04 1.18520E-05 0.00000E+00
 -1       557 1.97430E-04 2.76941E-05-2.64698E-23
 -1       558 1.92591E-04 4.01315E-05 0.00000E+00
 -1       559 1.88953E-04 4.94745E-05 0.00000E+00
 -1       560 1.86386E-04 5.60336E-05 0.00000E+00
 -1       561 1.84763E-04 6.01219E-05 0.00000E+00
 -1       562 1.83956E-04 6.20539E-05 0.00000E+00
 -1       563 1.83844E-04 6.21447E-05 0.00000E+00
 -1       564 1.84304E-04 6.07106E-05 0.00000E+00
 -1       565 1.85215E-04 5.80685E-05 0.00000E+00
 -1       566 1.86458E-04 5.45357E-05 0.00000E+00
 -1       567 1.87913E-04 5.04301E-05 0.00000E+00
 -1       568 1.89463E-04 4.60695E-05 0.00000E+00
 -1       569 1.90990E-04 4.17721E-05-8.27181E-25
 -1       570 1.92376E-04 3.78556E-05 0.00000E+00
 -1       571 1.82815E-04 3.22799E-05-1.65436E-24
 -1       572 1.82914E-04 3.00860E-05 1.65436E-24
 -1       573 1.83013E-04 2.78422E-05-3.30872E-24
 -1       574 1.83112E-04 2.55648E-05 8.27181E-25
 -1       575 1.83212E-04 2.32703E-05-3.30872E-24
 -1       576 1.83311E-04 2.09750E-05 1.65436E-24
 -1       577 1.83410E-04 1.86955E-05 3.30872E-24
 -1       578 1.83510E-04 1.64484E-05 0.00000E+00
 -1       579 1.83609E-04 1.42500E-05-6.61744E-24
 -1       580 1.83709E-04 1.21170E-05 0.00000E+00
 -1       581 1.83809E-04 1.00658E-05 0.00000E+00
 -1       582 1.83909E-04 8.11291E-06 0.00000E+00
 -1       583 1.84009E-04 6.27481E-06-6.61744E-24
 -1       584 1.84110E-04 4.56782E-06 0.00000E+00
 -1       585 1.84210E-04 3.00807E-06 0.00000E+00
 -1       586 1.84475E-04 3.44478E-05 0.00000E+00
 -1       587 1.86191E-04 3.44870E-05 8.27181E-25
 -1       588 1.87908E-04 3.45258E-05 0.00000E+00
 -1       589 1.89671E-04 3.45639E-05 0.00000E+00
 -1       590 1.91522E-04 3.46008E-05 0.00000E+00
 -1       591 1.83448E-04 3.23735E-05-1.03398E-25
 -1       592 1.84181E-04 3.03192E-05-2.06795E-25
 -1       593 1.84918E-04 2.82511E-05 8.27181E-25
 -1       594 1.85659E-04 2.61736E-05 0.00000E+00
 -1       595 1.86401E-04 2.40917E-05-8.27181E-25
 -1       596 1.87142E-04 2.20099E-05-4.13590E-25
 -1       597 1.87882E-04 1.99330E-05 0.00000E+00
 -1       598 1.88619E-04 1.78656E-05 4.13590E-25
 -1       599 1.89350E-04 1.58124E-05 0.00000E+00
 -1       600 1.90074E-04 1.37780E-05-4.13590E-25
 -1       601 1.90789E-04 1.17671E-05 0.00000E+00
 -1       602 1.91494E-04 9.78433E-06 0.00000E+00
 -1       603 1.92187E-04 7.83442E-06 4.13590E-25
 -1       604 1.92866E-04 5.92210E-06-2.06795E-25
 -1       605 1.93530E-04 4.05195E-06 0.00000E+00
 -1       606 1.84324E-04 4.45658E-07 0.00000E+00
 -1       607 1.84333E-04-6.33434E-07 0.00000E+00
 -1       608 1.84342E-04-1.63196E-06-3.30872E-24
 -1       609 1.84351E-04-2.55559E-06 1.65436E-24
 -1       610 1.84359E-04-3.41004E-06-3.30872E-24
 -1       611 1.84367E-04-4.20109E-06 0.00000E+00
 -1       612 1.84375E-04-4.93452E-06 0.00000E+00
 -1       613 1.84384E-04-5.61613E-06 0.00000E+00
 -1       614 1.84392E-04-6.25171E-06 1.65436E-24
 -1       615 1.84400E-04-6.84705E-06 0.00000E+00
 -1       616 1.84409E-04-7.40796E-06 0.00000E+00
 -1       617 1.84417E-04-7.94022E-06 0.00000E+00
 -1       618 1.84426E-04-8.44961E-06 0.00000E+00
 -1       619 1.84434E-04-8.94196E-06 0.00000E+00
 -1       620 1.84442E-04-9.42303E-06 0.00000E+00
 -1       621 1.85670E-04 1.71415E-06 0.00000E+00
 -1       622 1.87187E-04 1.81821E-06 8.27181E-25
 -1       623 1.88831E-04 1.92205E-06-1.65436E-24
 -1       624 1.90567E-04 2.02556E-06 0.00000E+00
 -1       625 1.92361E-04 2.12878E-06 0.00000E+00
 -1       626 1.84859E-04 4.81748E-07 0.00000E+00
 -1       627 1.85385E-04-5.84017E-07-6.61744E-24
 -1       628 1.85891E-04-1.59480E-06 0.00000E+00
 -1       629 1.86379E-04-2.55873E-06 0.00000E+00
 -1       630 1.86853E-04-3.48401E-06 0.00000E+00
 -1       631 1.87316E-04-4.37881E-06-1.65436E-24
 -1       632 1.87770E-04-5.25133E-06 0.00000E+00
 -1       633 1.88219E-04-6.10977E-06-1.65436E-24
 -1       634 1.88665E-04-6.96231E-06 0.00000E+00
 -1       635 1.89113E-04-7.81715E-06 1.65436E-24
 -1       636 1.89564E-04-8.68248E-06 0.00000E+00
 -1       637 1.90023E-04-9.56651E-06-1.65436E-24
 -1       638 1.90491E-04-1.04774E-05 0.00000E+00
 -1       639 1.90972E-04-1.14234E-05-8.27181E-25
 -1       640 1.91469E-04-1.24128E-05-3.30872E-24
 -1       656 1.85158E-04-1.04764E-05 0.00000E+00
 -1       657 1.86284E-04-1.10777E-05 0.00000E+00
 -1       658 1.87691E-04-1.16777E-05 0.00000E+00
 -1       659 1.89233E-04-1.22772E-05 6.61744E-24
 -1       660 1.90724E-04-1.28786E-05 6.61744E-24
 -1       661 1.84715E-04-1.04193E-05-8.27181E-25
 -1       662 1.85017E-04-1.10318E-05 0.00000E+00
 -1       663 1.85352E-04-1.17309E-05 0.00000E+00
 -1       664 1.85717E-04-1.25102E-05 0.00000E+00
 -1       665 1.86110E-04-1.33636E-05 0.00000E+00
 -1       666 1.86529E-04-1.42855E-05-8.27181E-25
 -1       667 1.86971E-04-1.52700E-05-1.65436E-24
 -1       668 1.87435E-04-1.63116E-05-8.27181E-25
 -1       669 1.87918E-04-1.74048E-05-1.65436E-24
 -1       670 1.88418E-04-1.85445E-05 0.00000E+00
 -1       671 1.88934E-04-1.97253E-05 0.00000E+00
 -1       672 1.89463E-04-2.09421E-05 8.27181E-25
 -1       673 1.90003E-04-2.21900E-05-1.65436E-24
 -1       674 1.90552E-04-2.34641E-05 4.13590E-25
 -1       675 1.91110E-04-2.47593E-05-2.06795E-25
 -1       676 1.84914E-04-2.55554E-05 0.00000E+00
 -1       677 1.86270E-04-2.56596E-05-1.65436E-24
 -1       678 1.87624E-04-2.57636E-05-3.30872E-24
 -1       679 1.88976E-04-2.58674E-05 1.65436E-24
 -1       680 1.90324E-04-2.59711E-05 1.65436E-24
 -1       771 1.85976E-05 1.48294E-05 5.29396E-23
 -1       772 8.54810E-06 3.67719E-05 0.00000E+00
 -1       773 3.04381E-07 5.41690E-05 0.00000E+00
 -1       774-6.25788E-06 6.72788E-05 2.64698E-23
 -1       775-1.12603E-05 7.63695E-05 0.00000E+00
 -1       776-1.48296E-05 8.17264E-05 0.00000E+00
 -1       777-1.70919E-05 8.36446E-05 0.00000E+00
 -1       778-1.81762E-05 8.24332E-05 2.64698E-23
 -1       779-1.82108E-05 7.84098E-05 0.00000E+00
 -1       780-1.73260E-05 7.19033E-05-2.64698E-23
 -1       781-1.56511E-05 6.32494E-05 0.00000E+00
 -1       782-1.33170E-05 5.27929E-05 0.00000E+00
 -1       783-1.04539E-05 4.08828E-05 5.29396E-23
 -1       784-7.19285E-06 2.78745E-05-2.64698E-23
 -1       785-3.66421E-06 1.41267E-05-5.29396E-23
 -1       786 1.93542E-04 3.23804E-05 0.00000E+00
 -1       787 1.93584E-04 3.01772E-05-4.13590E-25
 -1       788 1.93625E-04 2.80159E-05-8.27181E-25
 -1       789 1.93668E-04 2.58883E-05 0.00000E+00
 -1       790 1.93710E-04 2.37896E-05 0.00000E+00
 -1       791 1.93752E-04 2.17151E-05 8.27181E-25
 -1       792 1.93795E-04 1.96625E-05 0.00000E+00
 -1       793 1.93838E-04 1.76298E-05-8.27181E-25
 -1       794 1.93880E-04 1.56165E-05 0.00000E+00
 -1       795 1.93923E-04 1.36227E-05 0.00000E+00
 -1       796 1.93966E-04 1.16501E-05 0.00000E+00
 -1       797 1.94008E-04 9.70044E-06-8.27181E-25
 -1       798 1.94051E-04 7.77807E-06 0.00000E+00
 -1       799 1.94094E-04 5.88721E-06 0.00000E+00
 -1       800 1.94137E-04 4.03527E-06 0.00000E+00
 -1       801 1.47726E-04 3.11356E-05-2.64698E-23
 -1       802 9.31162E-06 1.94268E-05-2.64698E-23
 -1       803-1.08901E-04 9.81702E-06 5.29396E-23
 -1       804-9.65003E-05 6.83352E-06 2.64698E-23
 -1       805-3.18809E-05 2.68470E-06 5.29396E-23
 -1       806 1.94234E-04 3.23117E-05-3.30872E-24
 -1       807 1.94950E-04 3.00160E-05 1.65436E-24
 -1       808 1.95653E-04 2.77518E-05 0.00000E+00
 -1       809 1.96343E-04 2.55231E-05-1.65436E-24
 -1       810 1.97018E-04 2.33340E-05-3.30872E-24
 -1       811 1.97676E-04 2.11884E-05 1.65436E-24
 -1       812 1.98317E-04 1.90903E-05 3.30872E-24
 -1       813 1.98938E-04 1.70435E-05 0.00000E+00
 -1       814 1.99539E-04 1.50519E-05 3.30872E-24
 -1       815 2.00118E-04 1.31194E-05-8.27181E-25
 -1       816 2.00674E-04 1.12499E-05 0.00000E+00
 -1       817 2.01204E-04 9.44733E-06-8.27181E-25
 -1       818 2.01709E-04 7.71548E-06 1.65436E-24
 -1       819 2.02185E-04 6.05825E-06-8.27181E-25
 -1       820 2.02633E-04 4.47944E-06 0.00000E+00
 -1       821 1.94052E-04-1.24526E-07 0.00000E+00
 -1       822 1.93912E-04-3.61763E-06-1.65436E-24
 -1       823 1.93769E-04-7.82599E-06 3.30872E-24
 -1       824 1.93625E-04-1.23216E-05 1.65436E-24
 -1       825 1.93481E-04-1.65990E-05 0.00000E+00
 -1       826 1.93339E-04-2.01537E-05-1.65436E-24
 -1       827 1.93201E-04-2.26781E-05 0.00000E+00
 -1       828 1.93064E-04-2.38709E-05 1.65436E-24
 -1       829 1.92929E-04-2.37932E-05 0.00000E+00
 -1       830 1.92792E-04-2.25134E-05 0.00000E+00
 -1       831 1.92655E-04-2.04274E-05-3.30872E-24
 -1       832 1.92517E-04-1.79357E-05 0.00000E+00
 -1       833 1.92379E-04-1.55495E-05-3.30872E-24
 -1       834 1.92244E-04-1.37792E-05-1.65436E-24
 -1       835 1.92109E-04-1.29681E-05 8.27181E-25
 -1       836 1.95872E-04 2.35467E-06 0.00000E+00
 -1       837 1.97436E-04 2.48269E-06 0.00000E+00
 -1       838 1.98904E-04 2.61064E-06 0.00000E+00
 -1       839 2.00308E-04 2.73790E-06 8.27181E-25
 -1       840 2.01681E-04 2.86499E-06 0.00000E+00
 -1       856 1.91967E-04-1.45171E-05-8.27181E-25
 -1       857 1.91948E-04-1.54449E-05 0.00000E+00
 -1       858 1.91929E-04-1.62582E-05-2.06795E-25
 -1       859 1.91909E-04-1.69782E-05 0.00000E+00
 -1       860 1.91889E-04-1.76261E-05-4.13590E-25
 -1       861 1.91870E-04-1.82229E-05 0.00000E+00
 -1       862 1.91850E-04-1.87902E-05-4.13590E-25
 -1       863 1.91830E-04-1.93492E-05 4.13590E-25
 -1       864 1.91811E-04-1.99211E-05 0.00000E+00
 -1       865 1.91791E-04-2.05273E-05 4.13590E-25
 -1       866 1.91771E-04-2.11891E-05 8.27181E-25
 -1       867 1.91751E-04-2.19277E-05 0.00000E+00
 -1       868 1.91731E-04-2.27643E-05 0.00000E+00
 -1       869 1.91711E-04-2.37200E-05 0.00000E+00
 -1       870 1.91690E-04-2.48158E-05-8.27181E-25
 -1       871 1.93334E-04-1.34587E-05 0.00000E+00
 -1       872 1.94832E-04-1.34670E-05 0.00000E+00
 -1       873 1.96409E-04-1.34760E-05 0.00000E+00
 -1       874 1.97998E-04-1.34858E-05-3.36042E-25
 -1       875 1.99529E-04-1.34961E-05 1.44757E-24
 -1       876 1.92509E-04-1.45025E-05 0.00000E+00
 -1       877 1.93012E-04-1.54846E-05 1.65436E-24
 -1       878 1.93494E-04-1.64080E-05 0.00000E+00
 -1       879 1.93957E-04-1.72799E-05-1.65436E-24
 -1       880 1.94404E-04-1.81079E-05 0.00000E+00
 -1       881 1.94837E-04-1.88992E-05 1.65436E-24
 -1       882 1.95259E-04-1.96613E-05 3.30872E-24
 -1       883 1.95673E-04-2.04014E-05-1.65436E-24
 -1       884 1.96081E-04-2.11269E-05 3.30872E-24
 -1       885 1.96487E-04-2.18451E-05-1.65436E-24
 -1       886 1.96892E-04-2.25633E-05 0.00000E+00
 -1       887 1.97300E-04-2.32890E-05 1.65436E-24
 -1       888 1.97714E-04-2.40293E-05-3.30872E-24
 -1       889 1.98135E-04-2.47918E-05-1.65436E-24
 -1       890 1.98566E-04-2.55839E-05-1.65436E-24
 -1       891 1.93034E-04-2.61301E-05 1.65436E-24
 -1       892 1.94375E-04-2.61877E-05-8.27181E-25
 -1       893 1.95668E-04-2.62452E-05-1.65436E-24
 -1       894 1.96887E-04-2.63025E-05 0.00000E+00
 -1       895 1.98008E-04-2.63595E-05 0.00000E+00
 -1       956 2.02922E-04 1.66065E-06-1.65436E-24
 -1       957 2.02789E-04 4.29942E-07 0.00000E+00
 -1       958 2.02657E-04-7.20036E-07 0.00000E+00
 -1       959 2.02524E-04-1.80061E-06 1.65436E-24
 -1       960 2.02391E-04-2.82317E-06 0.00000E+00
 -1       961 2.02259E-04-3.79913E-06 1.65436E-24
 -1       962 2.02126E-04-4.73989E-06 0.00000E+00
 -1       963 2.01993E-04-5.65692E-06 0.00000E+00
 -1       964 2.01861E-04-6.56164E-06 0.00000E+00
 -1       965 2.01728E-04-7.46548E-06-1.65436E-24
 -1       966 2.01595E-04-8.37991E-06 0.00000E+00
 -1       967 2.01463E-04-9.31635E-06 0.00000E+00
 -1       968 2.01330E-04-1.02862E-05-6.61744E-24
 -1       969 2.01198E-04-1.13009E-05 0.00000E+00
 -1       970 2.01066E-04-1.23719E-05 0.00000E+00
 -1       971 2.00816E-04-1.46476E-05 0.00000E+00
 -1       972 2.00695E-04-1.56909E-05 1.65436E-24
 -1       973 2.00573E-04-1.66501E-05-3.30872E-24
 -1       974 2.00452E-04-1.75362E-05 0.00000E+00
 -1       975 2.00331E-04-1.83599E-05 0.00000E+00
 -1       976 2.00210E-04-1.91321E-05-1.65436E-24
 -1       977 2.00088E-04-1.98636E-05 3.30872E-24
 -1       978 1.99967E-04-2.05654E-05-1.65436E-24
 -1       979 1.99846E-04-2.12483E-05 3.30872E-24
 -1       980 1.99725E-04-2.19233E-05 0.00000E+00
 -1       981 1.99603E-04-2.26011E-05 0.00000E+00
 -1       982 1.99482E-04-2.32928E-05 1.65436E-24
 -1       983 1.99361E-04-2.40091E-05 3.30872E-24
 -1       984 1.99241E-04-2.47610E-05-1.65436E-24
 -1       985 1.99121E-04-2.55593E-05 0.00000E+00
 -3
    1PSTEP                        22          11           1          
  100CL  111 6.62109E-01         409                     0   11           1
 -4  STRESS      6    1
 -5  SXX         1    4    1    1
 -5  SYY         1    4    2    2
 -5  SZZ         1    4    3    3
 -5  SXY         1    4    1    2
 -5  SYZ         1    4    2    3
 -5  SZX         1    4    3    1
 -1         1-5.34088E+06-1.49696E+06-1.12535E+06-1.22996E+06-8.44011E-10-4.88071E-08
 -1         2 1.72234E+06 2.50251E+07 5.74921E+06 7.65612E+06 3.24508E-08 3.04717E-08
 -1         3-1.48184E+03-1.54267E+06 4.02463E+02-2.18511E+03-5.39199E-10-1.64437E-08
 -1         5-7.53092E+01 3.85993E+05 9.96924E+00-1.34016E+00-3.61258E-10-7.88168E-09
 -1         8-5.43563E+05-1.98304E+05-6.23295E+04-2.34636E+05-6.91216E-11-6.94090E-08
 -1         9 1.19345E+07 4.40969E+06 2.92937E+06-1.62857E+05 2.68919E-09 8.72882E-08
 -1        10-2.29460E+03-1.60757E+06-3.90674E+03-1.47884E+04-1.30040E-08-1.54433E-08
 -1        12-7.13958E+01 3.86014E+05 3.27725E+02-9.13719E+00-4.80469E-10 3.39442E-08
 -1        15 9.23300E+02 5.03592E+02 2.92845E+03 7.79752E-01-1.04805E-10 2.91703E-07
 -1        16 2.29172E+07-3.60133E+05 3.11200E+06-2.36770E+06-2.32831E-10 1.10750E-07
 -1        17 8.40603E+06 6.28609E+06 2.26864E+06 6.00966E+06 2.41213E-08 2.39816E-08
 -1        18 1.42055E+05 3.34525E+04 4.11570E+03-1.19432E+05 1.64723E-08 2.00725E-09
 -1        19 1.22300E+05 1.41518E+05-9.44385E+02 2.19456E+04 1.58543E-09-3.48955E-09
 -1        20-8.19713E+04-5.73160E+05-1.28619E+05 2.50473E+04-2.30724E-09-2.31218E-08
 -1        21-4.55103E+01-2.95631E+05-9.22678E+02 2.75058E+02 2.06714E-08 8.83963E-09
 -1        24 1.41530E+07 1.21587E+07 3.91270E+06 1.12554E+07-1.58373E-07-5.49480E-08
 -1        25 1.24661E+05 2.66767E+05 9.98118E+04-6.45642E+05-3.84280E-09 1.84034E-08
 -1        26-5.55224E+04 9.21518E+04-2.46466E+04 1.35763E+03-2.04818E-10-5.37307E-10
 -1        27-7.54915E+04-3.09650E+05-1.13195E+05 6.88992E+04 4.51215E-09 9.00885E-09
 -1        28 2.22111E+04-8.52499E+04 1.68768E+04 2.05666E+04-2.73948E-09 4.51898E-10
 -1        32-1.67872E+06-3.17967E+06-1.97800E+05 4.58510E+05-4.26517E-08-9.47421E-09
 -1        33-1.78314E+05 9.29129E+04 3.23562E+04-3.83854E+04-3.15492E-09-4.92067E-09
 -1        34-2.23365E+05-2.50114E+04 6.89679E+02 7.55981E+04-5.24489E-09-6.85456E-10
 -1        35-2.29002E+04-3.38080E+04-1.34693E+03 5.14306E+04-2.27666E-09-3.75924E-11
 -1        51 6.12681E+04-1.66443E+05 1.29400E+05-4.21052E+05-2.03727E-10 1.11657E-07
 -1        52 2.06531E+04-1.43714E+05 6.77655E+04-4.91106E+05 3.33785E-10-3.43425E-08
 -1        53 4.10210E+03-1.59017E+05 3.50800E+04-4.19624E+05 4.67480E-10-9.53514E-08
 -1        54 7.06203E+03-1.54755E+05 2.84007E+04-4.92490E+05-6.18456E-11-1.38127E-07
 -1        55 1.54801E+04-1.61575E+05 3.40514E+04-4.19555E+05 4.18368E-10 5.52736E-08
 -1        56-9.87097E+06-1.48333E+06-9.60497E+05-4.18602E+06-4.07454E-09 2.81725E-08
 -1        57-1.12914E+07-5.52923E+05-5.32102E+05-2.48718E+06 5.74582E-08 1.24855E-07
 -1        58-9.53298E+06-1.98974E+06-2.03722E+05-4.43530E+06-2.85945E-09-2.47455E-08
 -1        59-1.16485E+07 5.64563E+04-1.01968E+05-2.40658E+06 1.80075E-08-3.71132E-07
 -1        60-9.64670E+06-1.99108E+06-6.35656E+04-4.38338E+06-1.15760E-08 1.83689E-07
 -1        61-1.07409E+07-3.90264E+05 4.11401E+04-2.66493E+06-6.35628E-08 1.54774E-07
 -1        62-1.02261E+07-1.68834E+06-1.15560E+05-4.00219E+06-1.76224E-08 9.45292E-08
 -1        63-9.50828E+06-1.31993E+06 9.42088E+04-3.53118E+06-3.03990E-08 1.87556E-07
 -1        64-1.06990E+07-1.19082E+06-1.06771E+05-3.40643E+06-2.21189E-09-3.29528E-08
 -1        65-9.11350E+06-2.07938E+06 3.56303E+04-4.74643E+06-5.03496E-09-3.20965E-07
 -1        66-1.08231E+07-7.88353E+05-5.02919E+04-2.94143E+06-4.96220E-09 1.30594E-07
 -1        67-9.21477E+06-2.37551E+06-9.12819E+04-5.33611E+06-5.98557E-08 3.25546E-07
 -1        68-1.08030E+07-7.48700E+05-1.91503E+05-2.94004E+06-6.30280E-08-7.10133E-09
 -1        69-9.30758E+06-2.41560E+06-4.68624E+05-4.71717E+06-1.80225E-08-1.96800E-07
 -1        70-1.05363E+07-8.97947E+05-8.88106E+05-3.43989E+06 2.45564E-08 1.00350E-07
 -1        86-1.75834E+06-1.71932E+07-3.15136E+06-3.58458E+06-2.97074E-07 1.05560E-07
 -1        87 2.80872E+06 7.37978E+06 2.61917E+06 6.43812E+06-4.92320E-07 1.42409E-07
 -1        88-5.50956E+05-1.76067E+06 2.53037E+05-2.76700E+06-4.74049E-07-1.37538E-08
 -1        89 3.75667E+06 7.01512E+06 2.68784E+06 6.67052E+06-6.50296E-07-3.74852E-07
 -1        90-2.58979E+06-1.69201E+07-3.39500E+06-3.85576E+06-1.78781E-07 1.96946E-07
 -1       121-2.02963E+03-1.54756E+06-5.46960E+02 1.08299E+03 1.45982E-09-3.70928E-08
 -1       122-1.29823E+03-1.54274E+06 7.62387E+02-4.37458E+03-5.29411E-09-2.55859E-08
 -1       123-2.04947E+03-1.54769E+06 2.52656E+02 3.23458E+03 4.19527E-09-4.75120E-09
 -1       124 3.20529E+02-1.54229E+06 2.91956E+03-9.15971E+03-1.04146E-08-2.57278E-08
 -1       125-2.85061E+03-1.54857E+06 3.41862E+03 5.82235E+03 6.63931E-09-1.23036E-08
 -1       191-7.93613E+01 3.86011E+05 8.46957E+00 6.98852E-01-5.80758E-10 1.07066E-08
 -1       192-7.62718E+01 3.85993E+05 2.12745E+01-4.30062E+00-8.36517E-10 4.14730E-10
 -1       193-8.18950E+01 3.86010E+05 3.62125E+01 3.77794E+00-9.62725E-10-1.03864E-09
 -1       194-7.93579E+01 3.85997E+05 8.08770E+01-9.76053E+00-5.50544E-10 7.35326E-09
 -1       195-8.67581E+01 3.86008E+05 1.54834E+02 6.35224E+00-1.58824E-09-5.75710E-09
 -1       251-8.84368E+05 1.73997E+04-4.05968E+04-1.63423E+04-5.20505E-09-1.59107E-08
 -1       252-8.99635E+05-2.01427E+04-2.82284E+04 5.88748E+04 5.94150E-09-6.02704E-08
 -1       253-8.93579E+05 2.69104E+03-1.09671E+04-1.20118E+04-3.03203E-09-2.00205E-07
 -1       254-8.84109E+05-3.27914E+03-4.67237E+03 4.27925E+04-3.27771E-09-8.53024E-08
 -1       255-8.99122E+05 1.06800E+01-4.02034E+03-2.64917E+02 8.36144E-09 1.21027E-07
 -1       256-8.77028E+05-2.92619E+02 1.72039E+03 1.57753E+04-2.53015E-08 2.89079E-08
 -1       257-9.00053E+05-7.46720E+02-1.83710E+03 1.49886E+04 3.83716E-09 5.25023E-08
 -1       258-8.80430E+05 1.09911E+03 3.24597E+03-1.30703E+04-1.85669E-08-1.73470E-07
 -1       259-8.96007E+05-1.15494E+03 1.12172E+03 2.85762E+04 7.67159E-10-2.08802E-08
 -1       260-8.88957E+05 3.32817E+03 5.73989E+03-3.40557E+04 2.04999E-08 1.45290E-07
 -1       261-8.92349E+05-2.33618E+03 8.57841E+03 3.59974E+04 3.08854E-08-7.69173E-08
 -1       262-8.88654E+05 1.22030E+04 2.13778E+04-4.03102E+04 2.62668E-09-8.22224E-08
 -1       263-8.96651E+05-9.73089E+03 3.37639E+04 3.48449E+04 1.65072E-08 2.48565E-08
 -1       264-8.56896E+05 6.70123E+04 9.39144E+04-2.96563E+04 5.99496E-08 2.96881E-07
 -1       265-9.23484E+05-5.73784E+04 1.30027E+05 2.53250E+04 1.37429E-08 1.45847E-07
 -1       266-1.64892E+04-7.67163E+03 3.83870E+04-1.63817E+01 2.54659E-11-1.41753E-07
 -1       267 1.91055E+04 8.94761E+03 2.71800E+04 1.88718E+01 1.74623E-10-1.55995E-07
 -1       268-2.58126E+03-1.27373E+03 1.00828E+04-2.42918E+00-1.85082E-10-1.33609E-07
 -1       269 3.04728E+03 1.52564E+03 6.57043E+03 2.82696E+00 2.52385E-10 2.08104E-07
 -1       270-4.61007E+02-2.51791E+02 3.16376E+03-3.88690E-01 2.16232E-10 1.77782E-07
 -1       271-1.41552E+06-1.82268E+05-1.06619E+05-5.52141E+05-9.27321E-09 2.88972E-07
 -1       272-1.39875E+06-2.99622E+05-6.64429E+04-5.99955E+05-1.11540E-08-2.46018E-08
 -1       273-1.43836E+06-2.04057E+05-2.60522E+04-5.44064E+05-4.02470E-08 1.59453E-08
 -1       274-1.37345E+06-2.73158E+05-1.32508E+04-6.15852E+05 4.48636E-08 5.35620E-08
 -1       275-1.44403E+06-2.03115E+05-6.60272E+03-5.40168E+05-1.87320E-08-8.88031E-08
 -1       276-1.36841E+06-2.74401E+05-2.61661E+03-6.25208E+05-3.77222E-08-1.79516E-08
 -1       277-1.44697E+06-2.00216E+05-1.85846E+03-5.37350E+05 1.53923E-08 1.86604E-07
 -1       278-1.36666E+06-2.77641E+05-6.08714E+02-6.32060E+05 4.59768E-08 9.17789E-08
 -1       279-1.44883E+06-1.97922E+05-7.93794E+02-5.35404E+05-9.92623E-09-2.50410E-07
 -1       280-1.36594E+06-2.79976E+05-8.00976E+02-6.36471E+05 7.85658E-08-7.58299E-08
 -1       281-1.44979E+06-1.96554E+05-1.49354E+03-5.34348E+05-4.05926E-08 7.79059E-08
 -1       282-1.36632E+06-2.81838E+05-3.45675E+03-6.38167E+05-2.15909E-08-2.88128E-09
 -1       283-1.44936E+06-1.95577E+05-6.16450E+03-5.34277E+05-8.43147E-09-2.48583E-07
 -1       284-1.37189E+06-2.89664E+05-1.67697E+04-6.35937E+05 5.16538E-08-2.53692E-07
 -1       285-1.44392E+06-1.89833E+05-2.62955E+04-5.36004E+05 2.29829E-09 4.75357E-08
 -1       301-1.25494E+04-6.57439E+05 1.65944E+05-1.16235E+06 1.01718E-08-1.45708E-07
 -1       302-1.57571E+04-6.09272E+05 9.98860E+04-1.69582E+06-7.58882E-09 2.89583E-07
 -1       303-2.61877E+04-6.51223E+05 5.61511E+04-1.15908E+06-1.58034E-08 2.24540E-07
 -1       304-3.13145E+04-6.17441E+05 5.60042E+04-1.69535E+06-3.64817E-08 2.06837E-07
 -1       305-3.08053E+04-6.39741E+05 6.81863E+04-1.16215E+06-3.38696E-09 7.74016E-08
 -1       306-3.00125E+07-6.18142E+06-8.56688E+06-4.45709E+05-7.86968E-08 2.15630E-07
 -1       307 2.50028E+07 3.28814E+06 5.46421E+06-1.53244E+07-8.90766E-07-4.64730E-07
 -1       308-6.83480E+06-9.75151E+05-4.05571E+05 5.19056E+06-1.55007E-07-1.43918E-07
 -1       309-3.07406E+06 8.64392E+06 2.29555E+06-2.06954E+07 3.98122E-07 3.77659E-08
 -1       310-1.27795E+07-1.95677E+06-2.09802E+06 5.18876E+06-1.11584E-07-3.20113E-07
 -1       311 3.88901E+07-4.61862E+04 7.33991E+06-8.51939E+06 3.45870E-07-2.53058E-07
 -1       312-3.19546E+07-6.86899E+06-8.57322E+06-5.21662E+06 1.86265E-08 1.35507E-07
 -1       313 4.51384E+07 1.53664E+07 1.06772E+07 2.40409E+07-2.54571E-07 1.48400E-07
 -1       314-1.70061E+07-1.79061E+07-7.49980E+06-1.25037E+07 4.51226E-07 7.96863E-08
 -1       315-2.11618E+06 2.97901E+07 5.63346E+06 1.02636E+07-5.87097E-07 1.20868E-07
 -1       316 1.47726E+06-9.77584E+06-4.04499E+05-2.44607E+06-1.20004E-06-2.56317E-07
 -1       317-1.70459E+07 2.23980E+07 2.24624E+06-8.92124E+06 6.21469E-07-7.71397E-07
 -1       318-1.12177E+06-1.29001E+07-2.08834E+06-4.25689E+06-9.23115E-07 2.03843E-07
 -1       319 7.38735E+06 3.21125E+07 7.08742E+06 1.67418E+07-5.92263E-08 2.45171E-07
 -1       320-2.26588E+07-1.76824E+07-9.88612E+06-1.28405E+07 1.87079E-07-6.82194E-08
 -1       336-7.57168E+02-1.67528E+06-1.37161E+04 8.79696E+03-2.65554E-08 5.63887E-09
 -1       337-5.37138E+03-1.67477E+06-1.78850E+04-2.13834E+04-4.92239E-08 2.51202E-09
 -1       338 2.52758E+02-1.67477E+06-2.81862E+04 1.23362E+04-3.46627E-08 3.03044E-09
 -1       339-2.99175E+04-1.69183E+06-6.36806E+04-2.83202E+04-6.23331E-08 2.38979E-08
 -1       340 1.96735E+04-1.66037E+06-1.00329E+05 1.56034E+04-4.12620E-08 3.40442E-08
 -1       406-4.97239E+01 3.85993E+05 6.43478E+02 3.33826E+00-1.85824E-09 2.04727E-08
 -1       407 1.54589E+02 3.86128E+05 1.37517E+03 2.34349E+01-7.33436E-10 3.31565E-08
 -1       408 6.34138E+02 3.85893E+05 2.74197E+03-2.70923E+01-2.47906E-09 3.23780E-08
 -1       409 2.90379E+03 3.87003E+05 6.18016E+03 2.89138E+02 4.95675E-11-7.71615E-09
 -1       410 8.47079E+03 3.85104E+05 1.26135E+04-2.78790E+02-2.95768E-09-2.15787E-08
 -1       521-3.16775E+07-7.67294E+06-1.00640E+07-4.45974E+04-6.98492E-08 1.72411E-07
 -1       522 2.59957E+07 4.37954E+06 5.60464E+06-1.89146E+07-4.02826E-07-1.36351E-07
 -1       523-7.40466E+06-1.29785E+06-3.97081E+05 5.66093E+06-3.09665E-08-2.04614E-07
 -1       524-6.57278E+06 1.17994E+07 2.49922E+06-2.38463E+07 1.03225E-06-5.87610E-07
 -1       525-1.35934E+07-2.62368E+06-2.31970E+06 5.67083E+06 6.77712E-07-3.11440E-07
 -1       526 4.27217E+07-1.58092E+05 7.73850E+06-1.11848E+07 1.17987E-07 9.97970E-08
 -1       527-3.39366E+07-8.61015E+06-9.93367E+06-5.09578E+06 1.47847E-08 1.70985E-07
 -1       528 4.95099E+07 1.72684E+07 1.11910E+07 2.74989E+07 2.24973E-07-1.49128E-07
 -1       529-1.79780E+07-2.02254E+07-8.64330E+06-1.25664E+07 2.16707E-07-1.92202E-07
 -1       530-4.61012E+06 3.47743E+07 5.99464E+06 9.67183E+06-1.44108E-07 7.17526E-07
 -1       531 1.50223E+06-1.08709E+07-3.74901E+05-2.36213E+06-8.61677E-07 2.68861E-07
 -1       532-1.95260E+07 2.44637E+07 2.47113E+06-1.33484E+07 5.18397E-07-6.33241E-07
 -1       533-1.15586E+06-1.41125E+07-2.24050E+06-4.03631E+06-2.58704E-07-9.26317E-07
 -1       534 5.43561E+06 3.74946E+07 7.41560E+06 1.74103E+07-4.16476E-08 7.34173E-07
 -1       535-2.39203E+07-2.01889E+07-1.13943E+07-1.29570E+07 1.03842E-07 4.82949E-07
 -1       536-7.05647E+05-4.64528E+04-4.86828E+04-5.46328E+04-2.51794E-09 7.11916E-08
 -1       537-5.53935E+04 4.43559E+04 8.34344E+04 1.23763E+05-1.20832E-07 1.25026E-07
 -1       538-3.94387E+05 3.37981E+03 3.40294E+03-7.21618E+04 1.65531E-08 1.12969E-07
 -1       539-2.69212E+05 2.80276E+03 2.47972E+04 1.38658E+05 1.58509E-07 8.64168E-08
 -1       540-4.97201E+05-4.18323E+02-2.13336E+04-7.00617E+04 1.31413E-08 8.86191E-08
 -1       541 1.46076E+05 1.69443E+04 1.06248E+05 9.78598E+04 2.44340E-08 7.06133E-08
 -1       542-7.98486E+05-2.01134E+04-8.41578E+04-3.04903E+04 5.50931E-08 4.31067E-08
 -1       543 4.04510E+05 2.72965E+04 1.57799E+05-1.33533E+04-7.92625E-09-3.13730E-08
 -1       544-7.48704E+05-1.65197E+04-7.47603E+04 4.04828E+04-3.77977E-08-5.74944E-08
 -1       545 2.85193E+04 9.47225E+03 7.97212E+04-1.13548E+05-4.58484E-08-7.72977E-08
 -1       546-4.32593E+05 6.09089E+03-1.22180E+04 6.93585E+04 3.72597E-08-8.87143E-08
 -1       547-2.87246E+05-4.65596E+03 1.05674E+04-1.41500E+05-1.01350E-07-1.13032E-07
 -1       548-4.41428E+05 4.71751E+03-2.38660E+04 6.91249E+04-1.04191E-07-1.07970E-07
 -1       549 4.76922E+04 1.60396E+04 6.04309E+04-1.11407E+05-6.52633E-08-8.15035E-08
 -1       550-7.58569E+05-2.21045E+04-1.28869E+05 3.85511E+04 3.65435E-09-3.70092E-08
 -1       551 4.06244E+04-7.44950E+05-1.59571E+04-1.24502E+06-1.01471E-07 8.35280E-09
 -1       552 9.29602E+04-7.89821E+05 9.83814E+03-1.77517E+06-7.27450E-08 4.61587E-08
 -1       553 7.15478E+04-7.86262E+05 3.19317E+04-1.23838E+06-1.20810E-07 4.10364E-08
 -1       554 1.31698E+05-8.05716E+05 8.08447E+04-1.77712E+06-7.66886E-08 1.62654E-08
 -1       555 1.01257E+05-8.09909E+05 1.47671E+05-1.23821E+06-1.21741E-07-1.64619E-08
 -1       556 2.23544E+05-3.83468E+05 2.51659E+04-4.06907E+05-1.67638E-08-1.25438E-08
 -1       557 3.53890E+05-4.87725E+05 1.58407E+04-5.27325E+05 1.28057E-09-1.70257E-08
 -1       558 2.05305E+05-3.76172E+05 2.20068E+03-4.11403E+05-2.55532E-08 3.12139E-09
 -1       559 3.28979E+05-4.87725E+05 2.37770E+03-5.47749E+05 3.10974E-08-1.15579E-08
 -1       560 1.90017E+05-3.66585E+05-1.52963E+03-4.22418E+05 2.10421E-08 4.16185E-09
 -1       561 3.09780E+05-4.80036E+05 1.16595E+02-5.60842E+05 5.23869E-09-3.37786E-09
 -1       562 1.77933E+05-3.59078E+05-1.33071E+03-4.31168E+05 8.29459E-10 7.58155E-09
 -1       563 2.95428E+05-4.73778E+05-3.98192E+01-5.70216E+05 1.89902E-09 1.95732E-08
 -1       564 1.69309E+05-3.53705E+05-6.01232E+02-4.37279E+05 7.13044E-09 1.77670E-09
 -1       565 2.85908E+05-4.69632E+05 2.30742E+01-5.76298E+05 1.94705E-08 2.20971E-08
 -1       566 1.64268E+05-3.50516E+05-2.60354E+02-4.40805E+05 2.47383E-10-2.32048E-08
 -1       567 2.81282E+05-4.67620E+05-3.63115E+02-5.79107E+05 2.61207E-08-1.03464E-08
 -1       568 1.62901E+05-3.49679E+05-1.12627E+03-4.41857E+05 3.97722E-09 1.03246E-08
 -1       569 2.80162E+05-4.67548E+05-2.84416E+03-5.77678E+05-8.38918E-09 2.61425E-08
 -1       570 1.66300E+05-3.52913E+05-6.21695E+03-4.40837E+05 8.01083E-09 4.06726E-09
 -1       571 2.90288E+05 1.04997E+04 1.49774E+04-9.51879E+04 1.23346E-08-1.09562E-08
 -1       572 2.92458E+05 3.95838E+03 7.34015E+03-1.04431E+05 2.07815E-08-1.73541E-08
 -1       573 2.91150E+05 1.24597E+03 3.26147E+03-9.50116E+04 1.21408E-08 8.22365E-09
 -1       574 2.91364E+05 7.27983E+02 1.63560E+03-1.04655E+05 1.56206E-09-2.58478E-09
 -1       575 2.91244E+05 4.48870E+02 7.71964E+02-9.49875E+04-2.59341E-09 6.87851E-09
 -1       576 2.91228E+05 4.60289E+02 3.95252E+02-1.04685E+05-8.98217E-09-9.18590E-11
 -1       577 2.91284E+05 3.90738E+02 1.97328E+02-9.49842E+04-5.16138E-09-6.81484E-09
 -1       578 2.91259E+05 4.22164E+02 1.14029E+02-1.04689E+05-6.39557E-09 1.70612E-08
 -1       579 2.91356E+05 3.53972E+02 7.83757E+01-9.49839E+04 7.34144E-09 2.18733E-09
 -1       580 2.91361E+05 3.71058E+02 9.10591E+01-1.04685E+05-4.72482E-09-2.03008E-08
 -1       581 2.91470E+05 2.95327E+02 1.37627E+02-9.49898E+04 7.19956E-09-1.67220E-08
 -1       582 2.91536E+05 3.33695E+02 2.79877E+02-1.04623E+05 1.88084E-09 2.61207E-09
 -1       583 2.91610E+05 3.37966E+02 5.37232E+02-9.50464E+04 2.21917E-10 1.68075E-08
 -1       584 2.91912E+05 7.76808E+02 1.21571E+03-1.04146E+05 7.33780E-09 1.23325E-08
 -1       585 2.91636E+05 1.80004E+03 2.46180E+03-9.54657E+04 3.01952E-10-2.15005E-09
 -1       586-3.42042E+03 1.16868E+05-2.90917E+03-2.50499E+05-4.93992E-09 5.69139E-09
 -1       587-1.33861E+03 1.16620E+05 7.74885E+02-2.75693E+05-5.72254E-09 1.04374E-08
 -1       588 3.97581E+02 1.16427E+05 4.76061E+03-2.50361E+05-5.09863E-09 2.78578E-08
 -1       589 5.08334E+03 1.18900E+05 1.23439E+04-2.75460E+05-8.24912E-09 2.18133E-08
 -1       590 1.66066E+04 1.15093E+05 2.58925E+04-2.50792E+05-5.67798E-09 8.15999E-09
 -1       591-7.49819E+04-1.59530E+04-2.25191E+04-3.19330E+04-4.69640E-09 3.79259E-09
 -1       592-7.90767E+04-1.95016E+04-1.21981E+04-3.55481E+04-1.33370E-08-7.69785E-09
 -1       593-7.72340E+04-1.43190E+04-5.07747E+03-3.35843E+04-1.94490E-09 6.25755E-09
 -1       594-7.59676E+04-1.61971E+04-2.53226E+03-3.56657E+04 4.82738E-09-5.31912E-09
 -1       595-7.74056E+04-1.43137E+04-1.16256E+03-3.36593E+04-1.66039E-09 8.77569E-09
 -1       596-7.57548E+04-1.60460E+04-5.90770E+02-3.56404E+04 1.44733E-09 1.89007E-08
 -1       597-7.74272E+04-1.43291E+04-3.21226E+02-3.36622E+04 2.47474E-09 3.14776E-09
 -1       598-7.57338E+04-1.60400E+04-2.57373E+02-3.56332E+04 9.57414E-10-1.80682E-08
 -1       599-7.74259E+04-1.43296E+04-3.27697E+02-3.36618E+04 5.36136E-09-4.39763E-09
 -1       600-7.57548E+04-1.60465E+04-6.07904E+02-3.56382E+04-3.38139E-09-1.65476E-08
 -1       601-7.74013E+04-1.43151E+04-1.19882E+03-3.36584E+04 6.61385E-09 4.41605E-09
 -1       602-7.59743E+04-1.62012E+04-2.61247E+03-3.56605E+04 6.44911E-09 1.14146E-08
 -1       603-7.72215E+04-1.43235E+04-5.23896E+03-3.35818E+04 2.92584E-09 3.79350E-09
 -1       604-7.91999E+04-1.95911E+04-1.25852E+04-3.55143E+04 5.01097E-09 9.69339E-09
 -1       605-7.48779E+04-1.60271E+04-2.32338E+04-3.18975E+04 5.79712E-09 1.39098E-08
 -1       606 2.66211E+04-1.43193E+04-2.56698E+04 2.39110E+04 5.67252E-09-7.74526E-09
 -1       607 2.22350E+04-4.67662E+03-1.27835E+04 2.68710E+04-9.13133E-10-2.17640E-08
 -1       608 2.47349E+04-8.43591E+02-5.72273E+03 2.37430E+04-5.02405E-09 8.36758E-09
 -1       609 2.42558E+04-2.89017E+02-2.89097E+03 2.70844E+04 1.36788E-09 1.39145E-08
 -1       610 2.45216E+04-4.09536E+01-1.37930E+03 2.37230E+04 6.26824E-09-6.85941E-09
 -1       611 2.44464E+04-4.12866E+01-6.95434E+02 2.71075E+04 7.39601E-09 3.02330E-08
 -1       612 2.44747E+04-2.73302E+01-3.30579E+02 2.37209E+04 3.33421E-09 1.90162E-08
 -1       613 2.44581E+04-3.72691E+01-1.48097E+02 2.71102E+04 5.46697E-09-2.23531E-09
 -1       614 2.44526E+04-3.38076E+01-3.46171E+01 2.37202E+04 2.79124E-09 5.51199E-09
 -1       615 2.44530E+04-3.58361E+01 6.23365E+01 2.71106E+04-1.80944E-09 1.40042E-08
 -1       616 2.44353E+04-3.07313E+01 1.86683E+02 2.37205E+04-2.25964E-09 7.65476E-09
 -1       617 2.44755E+04 3.89770E+00 4.25828E+02 2.71101E+04-9.72932E-10-3.40792E-08
 -1       618 2.43984E+04 9.19893E+01 8.58290E+02 2.37208E+04-1.73713E-10-7.93420E-09
 -1       619 2.47785E+04 6.67497E+02 1.92733E+03 2.71095E+04-3.60353E-09-7.27846E-09
 -1       620 2.41134E+04 2.12719E+03 3.87388E+03 2.37224E+04 6.34941E-10-5.15092E-09
 -1       621 5.10484E+02 3.01155E+05 3.87877E+03 4.10974E+04 9.06311E-10 2.45745E-09
 -1       622 6.76896E+02 3.02050E+05 3.44322E+03 5.96641E+04 1.19462E-09 2.31557E-09
 -1       623 1.43248E+02 3.01348E+05 4.13854E+03 4.09114E+04 1.31649E-09 1.08885E-08
 -1       624 2.12583E+03 3.03266E+05 8.02387E+03 5.98472E+04 1.39698E-09 3.18723E-08
 -1       625 2.07674E+03 2.99757E+05 1.40217E+04 4.09082E+04 1.28148E-09 6.59861E-09
 -1       626 2.60699E+05 6.13308E+04 5.11829E+03 1.26600E+05-1.26083E-08 4.42833E-09
 -1       627 2.58387E+05 6.27219E+04 2.46646E+03 1.30865E+05-1.71694E-08 3.03697E-08
 -1       628 2.60826E+05 5.89893E+04 1.04314E+03 1.27471E+05-2.80634E-08 3.25372E-09
 -1       629 2.57753E+05 6.20417E+04 5.10559E+02 1.31105E+05-1.14783E-08 3.61394E-08
 -1       630 2.60841E+05 5.88761E+04 2.36939E+02 1.27507E+05-1.87224E-08 1.96297E-09
 -1       631 2.57686E+05 6.20157E+04 1.27634E+02 1.31107E+05-1.41340E-08 2.47874E-08
 -1       632 2.60837E+05 5.88800E+04 8.42132E+01 1.27503E+05-5.20231E-09-3.47814E-09
 -1       633 2.57678E+05 6.20175E+04 9.41623E+01 1.31103E+05 8.00969E-09 2.27051E-08
 -1       634 2.60833E+05 5.88771E+04 1.52478E+02 1.27503E+05-2.15438E-08-9.43601E-09
 -1       635 2.57692E+05 6.20158E+04 3.08728E+02 1.31109E+05-3.82616E-08 2.66300E-09
 -1       636 2.60824E+05 5.88713E+04 6.23576E+02 1.27503E+05-1.23964E-08 1.70526E-08
 -1       637 2.57827E+05 6.21127E+04 1.37116E+03 1.31108E+05-6.78210E-09-2.19006E-09
 -1       638 2.60775E+05 5.91742E+04 2.81722E+03 1.27366E+05-9.08130E-10 6.25278E-09
 -1       639 2.59307E+05 6.41710E+04 6.66570E+03 1.30672E+05 7.62520E-09-4.76325E-09
 -1       640 2.60570E+05 6.53204E+04 1.38325E+04 1.24776E+05 6.90034E-09 9.41213E-09
 -1       656 6.65213E+04-1.70252E+06-1.60578E+05-2.56155E+03-1.44064E-09-3.78816E-09
 -1       657-8.80025E+04-1.77508E+06-1.33031E+05 5.14627E+03 5.02041E-10 1.21077E-08
 -1       658 2.12052E+04-1.72313E+06-8.19321E+04-4.64071E+03-4.52928E-10 1.44965E-08
 -1       659-9.51656E+04-1.77849E+06-1.42445E+05 6.87499E+03-2.34286E-09 1.88050E-09
 -1       660 7.36684E+04-1.69913E+06-1.76763E+05-4.29026E+03-2.44472E-09-7.09025E-09
 -1       661 1.58125E+05 1.65430E+04 1.66787E+04 6.18153E+04-1.47429E-09-4.20459E-09
 -1       662 1.67558E+05 2.88906E+04 1.12403E+04 5.80688E+04 8.16954E-10-2.07119E-08
 -1       663 1.61401E+05 2.18938E+04 3.93114E+03 6.08646E+04 8.73911E-10 4.72482E-10
 -1       664 1.63760E+05 2.26332E+04 2.35165E+03 5.92301E+04-7.20917E-10 1.84988E-08
 -1       665 1.61898E+05 2.26247E+04 9.27710E+02 6.07195E+04-3.46648E-09 1.15919E-08
 -1       666 1.63172E+05 2.17975E+04 5.43051E+02 5.94193E+04-4.85386E-10 9.17219E-09
 -1       667 1.61985E+05 2.27078E+04 2.88650E+02 6.06832E+04 1.81586E-09 4.17797E-09
 -1       668 1.63076E+05 2.17378E+04 2.94588E+02 5.94721E+04-2.32224E-09 7.09018E-09
 -1       669 1.61993E+05 2.26827E+04 3.99221E+02 6.06670E+04-1.60625E-09 1.28547E-08
 -1       670 1.63173E+05 2.19546E+04 8.69673E+02 5.94750E+04-9.40680E-09-1.01013E-08
 -1       671 1.61888E+05 2.24955E+04 1.54429E+03 6.06783E+04 1.72405E-09 9.34108E-10
 -1       672 1.64073E+05 2.34570E+04 3.95114E+03 5.92568E+04 5.49437E-09 2.07933E-10
 -1       673 1.61097E+05 2.12184E+04 6.62151E+03 6.08705E+04 1.14471E-09 2.78987E-09
 -1       674 1.70375E+05 3.40951E+04 1.89361E+04 5.74053E+04-3.64253E-09-2.10885E-08
 -1       675 1.55626E+05 1.21553E+04 2.81079E+04 6.24180E+04-2.19006E-09-6.41194E-09
 -1       676 2.40821E+01-2.95553E+05-1.11207E+03-1.37533E+02 2.35676E-09-9.86008E-09
 -1       677-2.94164E+02-2.95822E+05-2.03528E+03 2.74845E+02 7.93747E-09-3.05806E-08
 -1       678 1.97304E+02-2.95362E+05-3.59787E+03-1.37222E+02 1.79739E-09-4.37361E-09
 -1       679-3.59792E+03-2.97994E+05-8.54705E+03 2.73659E+02 9.83357E-09 2.10549E-08
 -1       680 2.14817E+03-2.93383E+05-1.37749E+04-1.34831E+02 2.29466E-09 1.65128E-08
 -1       771-3.05851E+06-7.46738E+05-1.66388E+05-1.46445E+06-3.82424E-08-2.73285E-08
 -1       772-2.98149E+06-8.35664E+05-8.57984E+04-1.56725E+06-2.67464E-08 2.30757E-08
 -1       773-3.09005E+06-7.22152E+05-4.37108E+04-1.47904E+06-1.17871E-08 1.44792E-08
 -1       774-2.97191E+06-8.17056E+05-1.95075E+04-1.59302E+06 3.07336E-08-1.33150E-09
 -1       775-3.10650E+06-7.10614E+05-1.45743E+04-1.48610E+06-3.81260E-09-2.75031E-09
 -1       776-2.98426E+06-8.14009E+05-5.45316E+03-1.61251E+06-8.96398E-09-4.89308E-09
 -1       777-3.12077E+06-7.00317E+05-6.43338E+03-1.49232E+06 1.16415E-09-2.32103E-09
 -1       778-2.99716E+06-8.11180E+05-1.82003E+03-1.62925E+06 7.47968E-09 6.51926E-09
 -1       779-3.13304E+06-6.91319E+05-3.21302E+03-1.49764E+06-8.14907E-10-9.04765E-09
 -1       780-3.00852E+06-8.08482E+05-5.32917E+02-1.64289E+06-3.99450E-09 5.96629E-10
 -1       781-3.14279E+06-6.84066E+05-1.24733E+03-1.50180E+06-2.16969E-08-3.27418E-11
 -1       782-3.01727E+06-8.06192E+05 4.51204E+02-1.65296E+06-3.75512E-08-2.46564E-09
 -1       783-3.14966E+06-6.79026E+05 7.03227E+02-1.50471E+06-1.49375E-08-1.58834E-08
 -1       784-3.02212E+06-8.03904E+05 2.90970E+03-1.65917E+06-2.35850E-08 1.79443E-09
 -1       785-3.15372E+06-6.76018E+05 5.13725E+03-1.50656E+06-3.77913E-08 7.81074E-09
 -1       786 1.23074E+05-9.74269E+03 2.25406E+04-3.21192E+02 5.86184E-10 1.29521E-08
 -1       787 1.32850E+05 1.12799E+04 1.59466E+04-1.34647E+02 6.80032E-09 2.07672E-08
 -1       788 1.26843E+05-1.52670E+03 5.83174E+03-2.86161E+02 5.61063E-09 2.16426E-08
 -1       789 1.28459E+05 1.76712E+03 3.66094E+03-1.88329E+02-5.06311E-11 1.31511E-08
 -1       790 1.27466E+05-2.37701E+02 1.48223E+03-2.67528E+02-3.86458E-09-3.38650E-09
 -1       791 1.27731E+05 2.75016E+02 8.56053E+02-2.20210E+02-9.54270E-09-4.74904E-09
 -1       792 1.27571E+05-3.57149E+01 3.62665E+02-2.54282E+02-5.66285E-09-7.87293E-09
 -1       793 1.27605E+05 3.76874E+01 1.80586E+02-2.45109E+02-3.91807E-10-4.71707E-09
 -1       794 1.27592E+05-5.22631E-01 4.65072E+01-2.42629E+02 5.48262E-09-6.77537E-09
 -1       795 1.27568E+05-2.77730E+01-5.88346E+01-2.69392E+02-4.85574E-09 1.82722E-08
 -1       796 1.27608E+05 2.97090E+01-1.64403E+02-2.30000E+02 4.05597E-09 1.16414E-08
 -1       797 1.27472E+05-2.21786E+02-4.50706E+02-2.98352E+02 4.26128E-09 8.33339E-10
 -1       798 1.27687E+05 1.93344E+02-7.31776E+02-2.13669E+02 2.03047E-09 1.57735E-09
 -1       799 1.26917E+05-1.42516E+03-2.01307E+03-3.38749E+02 5.97574E-09-2.14547E-08
 -1       800 1.28164E+05 1.23210E+03-2.84886E+03-1.89603E+02-7.12850E-10 8.44113E-09
 -1       801-1.70727E+05-9.99097E+06-1.39228E+06 1.41388E+06 9.10659E-08-6.17802E-08
 -1       802 7.37184E+05 5.94104E+06 2.17930E+06-1.74517E+06 2.58602E-07-2.42453E-08
 -1       803-5.36109E+05-1.42574E+07-1.88905E+06 8.96798E+05 7.67141E-08 1.88193E-08
 -1       804 2.86838E+05 2.39039E+06 1.53574E+06 6.77009E+05-1.20192E-07-1.07014E-07
 -1       805 1.89288E+05-6.45443E+06-2.86564E+05-1.00263E+06-5.01605E-08-6.66141E-08
 -1       806-3.08626E+05-5.96750E+04-2.28251E+04-1.22264E+05-8.46740E-09-4.60614E-09
 -1       807-3.10425E+05-5.59460E+04-1.12137E+04-1.27799E+05-7.02357E-10-4.20397E-09
 -1       808-3.09253E+05-5.14492E+04-4.75723E+03-1.26153E+05-4.55202E-09 2.07000E-08
 -1       809-3.08068E+05-5.27949E+04-2.32617E+03-1.28074E+05-4.53838E-09 5.91490E-09
 -1       810-3.09347E+05-5.11629E+04-1.06622E+03-1.26325E+05 1.50021E-09-1.20408E-08
 -1       811-3.07885E+05-5.26683E+04-5.30253E+02-1.28039E+05-2.73667E-09-1.06638E-10
 -1       812-3.09361E+05-5.11875E+04-2.68266E+02-1.26324E+05-6.90488E-09-2.02090E-09
 -1       813-3.07860E+05-5.26705E+04-1.74489E+02-1.28020E+05-2.61980E-09 9.16225E-09
 -1       814-3.09354E+05-5.11972E+04-1.73153E+02-1.26320E+05 3.16049E-09-2.33740E-09
 -1       815-3.07864E+05-5.26727E+04-2.79187E+02-1.28012E+05-3.88764E-09-3.27918E-09
 -1       816-3.09333E+05-5.11963E+04-5.29285E+02-1.26316E+05 6.43013E-09 2.16874E-08
 -1       817-3.07954E+05-5.27232E+04-1.13596E+03-1.28001E+05-5.98357E-09 2.60998E-08
 -1       818-3.09264E+05-5.13567E+04-2.31699E+03-1.26241E+05-1.33787E-09 1.31299E-08
 -1       819-3.09222E+05-5.41230E+04-5.45171E+03-1.27700E+05-4.10182E-09 9.19590E-09
 -1       820-3.08827E+05-5.54750E+04-1.10962E+04-1.24482E+05-4.05089E-09-6.94081E-09
 -1       821-3.78750E+05 2.08564E+04-4.85434E+04 2.11590E+03 1.40595E-08 4.47471E-10
 -1       822-3.98469E+05-2.41605E+04-3.41204E+04-4.41584E+03 5.04730E-09-5.40967E-09
 -1       823-3.86222E+05 3.28730E+03-1.25390E+04 3.40934E+03-1.13982E-08 1.41904E-08
 -1       824-3.89454E+05-3.79101E+03-7.84934E+03-5.31167E+03 2.62034E-09-1.17094E-08
 -1       825-3.87772E+05 5.10790E+02-3.28615E+03 3.01184E+03 2.05489E-08-1.44931E-08
 -1       826-3.87038E+05-5.67486E+02-1.74651E+03-3.05578E+03 2.57758E-08 7.80665E-09
 -1       827-3.88613E+05 4.75589E+01-1.18608E+03 1.15330E+03 1.42223E-08-6.90335E-10
 -1       828-3.86344E+05-1.32994E+02-5.91640E+02 1.09691E+03 2.87616E-09-6.11057E-09
 -1       829-3.88453E+05 6.64820E+01-1.17535E+03-1.14088E+03 2.54119E-10-3.05471E-09
 -1       830-3.87385E+05-6.21986E+02-1.88407E+03 4.84549E+03-1.15722E-09 5.64785E-09
 -1       831-3.87595E+05 5.53859E+02-3.36847E+03-2.59530E+03-7.42632E-09-1.03917E-08
 -1       832-3.89534E+05-3.95780E+03-8.15246E+03 6.10992E+03-5.55445E-09-2.21388E-08
 -1       833-3.86319E+05 3.41158E+03-1.30431E+04-2.40535E+03-2.61051E-09-8.11815E-09
 -1       834-3.98534E+05-2.50755E+04-3.53458E+04 4.15462E+03-4.28744E-09 1.11731E-08
 -1       835-3.78579E+05 2.16389E+04-5.04158E+04-6.39921E+02 5.02857E-09-1.89539E-09
 -1       836-1.41268E+03 3.69881E+05 2.28905E+04-1.60563E+04-7.00584E-09 5.54246E-09
 -1       837 4.87976E+03 3.77050E+05 1.93656E+04-3.28152E+04-7.32325E-09-3.76349E-09
 -1       838-5.57463E+02 3.71891E+05 1.97256E+04-1.59849E+04-6.59429E-09 1.19528E-08
 -1       839 1.24118E+04 3.82660E+05 3.73094E+04-3.28678E+04-6.73117E-09 8.47797E-09
 -1       840-3.83732E+03 3.64211E+05 5.94924E+04-1.60096E+04-5.86078E-09 3.80075E-09
 -1       856-5.19029E+04 8.00981E+03-2.11076E+04-3.96980E+02 5.33771E-09 1.63409E-08
 -1       857-6.05987E+04-9.41132E+03-1.45303E+04 5.62621E+03 7.11572E-09 5.34328E-10
 -1       858-5.53466E+04 1.12330E+03-5.47690E+03-4.20975E+02 3.03771E-09-1.13193E-08
 -1       859-5.66466E+04-1.32157E+03-3.30504E+03 5.66189E+03-3.46002E-09 1.24642E-08
 -1       860-5.58611E+04 1.57319E+02-1.38511E+03-4.32390E+02-5.84748E-10 6.14108E-09
 -1       861-5.60548E+04-1.87855E+02-7.61904E+02 5.67743E+03 3.30536E-09-1.20489E-08
 -1       862-5.59416E+04 2.13112E+01-3.16568E+02-4.36498E+02-3.47050E-09 1.34808E-08
 -1       863-5.59561E+04-2.18288E+01-1.14986E+02 5.67982E+03-3.62447E-09 2.32055E-08
 -1       864-5.59603E+04-4.92975E+00 4.78576E+01-4.34777E+02-4.47022E-09 8.18950E-09
 -1       865-5.59002E+04 5.98292E+01 2.56426E+02 5.66998E+03-1.69497E-09 1.39477E-08
 -1       866-5.59953E+04-6.03572E+01 5.16396E+02-4.26663E+02-8.59529E-10-1.28830E-08
 -1       867-5.56575E+04 4.98424E+02 1.27081E+03 5.64796E+03-3.18914E-09-1.53110E-08
 -1       868-5.61981E+04-4.35588E+02 2.11166E+03-4.12750E+02-9.60995E-10 6.31098E-09
 -1       869-5.41095E+04 3.62529E+03 5.62252E+03 5.61172E+03 1.99088E-09 1.76408E-08
 -1       870-5.75355E+04-3.10227E+03 8.15957E+03-3.90315E+02-6.29598E-10 8.06585E-09
 -1       871-5.51413E+03-2.13500E+04-1.94787E+04 1.30353E+05-4.18186E-09 1.80498E-08
 -1       872-1.97995E+03-2.58795E+04-8.15698E+03 1.69022E+05-1.03273E-08-4.82760E-09
 -1       873 4.05667E+02-2.36884E+04 5.87487E+02 1.30066E+05-4.87671E-09 9.92441E-09
 -1       874 3.30393E+03-2.12803E+04 9.76880E+03 1.69051E+05-1.14687E-08 1.44082E-08
 -1       875 6.84053E+03-2.60158E+04 2.20392E+04 1.30305E+05-5.26779E-09-8.19455E-10
 -1       876 2.93485E+05 4.94583E+04 1.50823E+04 1.17769E+05 6.16728E-09-1.61263E-08
 -1       877 2.94483E+05 5.26340E+04 8.05457E+03 1.22095E+05 8.85188E-09-9.54981E-09
 -1       878 2.94895E+05 4.77875E+04 3.37447E+03 1.19005E+05-4.52565E-09-1.69639E-08
 -1       879 2.92433E+05 5.05879E+04 1.68137E+03 1.22197E+05 6.29757E-09 1.13697E-08
 -1       880 2.94996E+05 4.77703E+04 7.83166E+02 1.19055E+05-3.34080E-09 1.42960E-08
 -1       881 2.92296E+05 5.05004E+04 4.18251E+02 1.22173E+05-1.01165E-08 1.51702E-09
 -1       882 2.95006E+05 4.77835E+04 2.67620E+02 1.19057E+05-3.39014E-09-1.28239E-08
 -1       883 2.92287E+05 5.04958E+04 2.87781E+02 1.22166E+05-1.88334E-09-9.68622E-09
 -1       884 2.94999E+05 4.77807E+04 4.57862E+02 1.19057E+05 6.88374E-10-1.36419E-09
 -1       885 2.92323E+05 5.05022E+04 9.20600E+02 1.22177E+05-4.30342E-09 2.48031E-09
 -1       886 2.94963E+05 4.77539E+04 1.85545E+03 1.19053E+05-1.96420E-09-1.43211E-08
 -1       887 2.92649E+05 5.07160E+04 4.05298E+03 1.22224E+05 8.52498E-09-1.92682E-08
 -1       888 2.94707E+05 4.77990E+04 8.16687E+03 1.18924E+05-4.20833E-09 9.86802E-11
 -1       889 2.97511E+05 5.57722E+04 1.95091E+04 1.22075E+05-5.75425E-09-7.51288E-09
 -1       890 2.91374E+05 5.17586E+04 3.65402E+04 1.15816E+05-3.04090E-09-9.25684E-09
 -1       891-8.91623E+01-1.62598E+05-1.99485E+03 2.71068E+04-1.70030E-09 3.29737E-09
 -1       892-1.75016E+02-1.63125E+05-2.14226E+03 4.11635E+04 2.00771E-10 1.48839E-08
 -1       893 4.38327E+01-1.62662E+05-3.03293E+03 2.71141E+04-3.77486E-09 1.65369E-08
 -1       894-1.50826E+03-1.64270E+05-6.27685E+03 4.10112E+04 3.25190E-09 1.00208E-08
 -1       895-1.19781E+03-1.61354E+05-1.10534E+04 2.72609E+04 1.74737E-10 1.08148E-08
 -1       956-3.76886E+05-5.44438E+03-1.34397E+04 3.08483E+04 8.48740E-09 1.61967E-08
 -1       957-3.79523E+05-1.92060E+03-6.89839E+03 3.70716E+04-3.32147E-09-5.60340E-09
 -1       958-3.78094E+05-2.40675E+02-3.10863E+03 3.06807E+04-7.51879E-09-9.91349E-09
 -1       959-3.78290E+05-1.36119E+02-1.58732E+03 3.72670E+04-6.31644E-10 6.41876E-09
 -1       960-3.78212E+05-4.47593E+01-7.74053E+02 3.06634E+04 8.36826E-09 4.28986E-09
 -1       961-3.78210E+05-6.31652E+01-4.10397E+02 3.72874E+04 1.49755E-08-1.92131E-10
 -1       962-3.78239E+05-4.59921E+01-2.34967E+02 3.06606E+04 5.45378E-09-5.79371E-09
 -1       963-3.78210E+05-5.89877E+01-1.88633E+02 3.72911E+04 5.41240E-09-2.10389E-09
 -1       964-3.78245E+05-4.26511E+01-2.29408E+02 3.06598E+04 1.92486E-10-1.12318E-08
 -1       965-3.78222E+05-5.60426E+01-3.96795E+02 3.72904E+04-5.82617E-09 1.28043E-08
 -1       966-3.78229E+05-3.48304E+01-7.45576E+02 3.06613E+04-3.51247E-09-2.23924E-08
 -1       967-3.78312E+05-1.19550E+02-1.52916E+03 3.72760E+04-1.34469E-08-2.41675E-09
 -1       968-3.78125E+05-2.17193E+02-2.99356E+03 3.06740E+04-3.86854E-09 1.38622E-08
 -1       969-3.79511E+05-1.83306E+03-6.64561E+03 3.71275E+04 2.73985E-09 3.13767E-09
 -1       970-3.76969E+05-5.22626E+03-1.29460E+04 3.08012E+04-2.29284E-09 8.58563E-09
 -1       971-3.45037E+05-1.72524E+03-9.29781E+03 1.53568E+04 5.52427E-09-1.57613E-08
 -1       972-3.47275E+05-1.27016E+03-5.06350E+03 2.12382E+04 6.29916E-09-9.51104E-09
 -1       973-3.46073E+05-6.19839E+01-2.26799E+03 1.52359E+04-1.95087E-09 2.31262E-09
 -1       974-3.46208E+05-8.10361E+01-1.17565E+03 2.13750E+04-1.11822E-08-5.73345E-09
 -1       975-3.46155E+05-1.71818E+01-5.88138E+02 1.52236E+04-5.77802E-09-1.26058E-08
 -1       976-3.46147E+05-3.12702E+01-3.40172E+02 2.13908E+04 5.94355E-10-1.44940E-08
 -1       977-3.46172E+05-1.64459E+01-2.48424E+02 1.52202E+04-1.74509E-09-5.50585E-09
 -1       978-3.46152E+05-2.50602E+01-2.92800E+02 2.13956E+04-1.04205E-08 1.15414E-08
 -1       979-3.46171E+05-7.98033E+00-4.72233E+02 1.52187E+04 3.38184E-09-1.83643E-08
 -1       980-3.46187E+05-2.20038E+01-9.12950E+02 2.13966E+04 2.68540E-09-2.11629E-08
 -1       981-3.46142E+05 1.48409E+01-1.76876E+03 1.52193E+04 2.32376E-09 1.31500E-08
 -1       982-3.46430E+05-1.52691E+02-3.65632E+03 2.13900E+04-1.57797E-09-1.60897E-09
 -1       983-3.45919E+05-9.84099E+01-7.10442E+03 1.52253E+04-1.54164E-08 1.41999E-08
 -1       984-3.49847E+05-3.86311E+03-1.59101E+04 2.13045E+04-2.71609E-08 2.47044E-08
 -1       985-3.42703E+05-5.29698E+03-2.92159E+04 1.52966E+04-1.68911E-08-2.16642E-08
 -3
    1PSTEP                        23          12           1          
  100CL  112 6.62659E-01         409                     0   12           1
 -4  DISP        4    1
 -5  D1          1    2    1    0
 -5  D2          1    2    2    0
 -5  D3          1    2    3    0
 -5  ALL         1    2    0    0    1ALL
 -1         1 2.73120E-03 0.00000E+00 0.00000E+00
 -1         2 1.30383E-03 1.43411E-27-5.29396E-23
 -1         3 3.42610E-04-7.77891E-28-1.32349E-23
 -1         5 1.77075E-04-2.40756E-28 1.65436E-24
 -1         8 2.72068E-03-3.97142E-07 0.00000E+00
 -1         9 2.71374E-03-2.08703E-04 0.00000E+00
 -1        10 3.10673E-04-3.38358E-06-6.61744E-24
 -1        12 1.78924E-04 8.09106E-07 4.13590E-25
 -1        15 2.70873E-03-4.19672E-07 0.00000E+00
 -1        16 2.78703E-03-2.10627E-04 0.00000E+00
 -1        17 2.11439E-04-7.72049E-06 0.00000E+00
 -1        18 1.82878E-04 3.44405E-05 0.00000E+00
 -1        19 1.84471E-04 1.61179E-06 0.00000E+00
 -1        20 1.84610E-04-9.90956E-06 0.00000E+00
 -1        21 1.83717E-04-2.54776E-05-3.30872E-24
 -1        24 3.05843E-05-1.19376E-05 0.00000E+00
 -1        25 1.93673E-04 3.46663E-05 0.00000E+00
 -1        26 1.94351E-04 2.23182E-06 0.00000E+00
 -1        27 1.92151E-04-1.34676E-05 0.00000E+00
 -1        28 1.91836E-04-2.60994E-05 0.00000E+00
 -1        32 0.00000E+00 0.00000E+00 0.00000E+00
 -1        33 2.03230E-04 2.98553E-06 0.00000E+00
 -1        34 2.01112E-04-1.35238E-05 0.00000E+00
 -1        35 1.99180E-04-2.64418E-05 0.00000E+00
 -1        51 2.73049E-03-8.38131E-08-6.61744E-24
 -1        52 2.72919E-03-1.49101E-07 0.00000E+00
 -1        53 2.72744E-03-2.10859E-07 0.00000E+00
 -1        54 2.72535E-03-2.71324E-07-1.65436E-24
 -1        55 2.72305E-03-3.32267E-07-2.48154E-24
 -1        56 2.72275E-03 1.03252E-05 5.29396E-23
 -1        57 2.70550E-03 4.22452E-05 0.00000E+00
 -1        58 2.68203E-03 8.90345E-05-1.05879E-22
 -1        59 2.65562E-03 1.42567E-04-5.29396E-23
 -1        60 2.63030E-03 1.93561E-04 1.05879E-22
 -1        61 2.60994E-03 2.32937E-04 0.00000E+00
 -1        62 2.59719E-03 2.53686E-04 0.00000E+00
 -1        63 2.59370E-03 2.50454E-04 5.29396E-23
 -1        64 2.59917E-03 2.22301E-04 0.00000E+00
 -1        65 2.61249E-03 1.70667E-04 0.00000E+00
 -1        66 2.63132E-03 1.01488E-04 1.05879E-22
 -1        67 2.65310E-03 2.24471E-05 0.00000E+00
 -1        68 2.67495E-03-5.68352E-05 1.05879E-22
 -1        69 2.69402E-03-1.26708E-04 0.00000E+00
 -1        70 2.70769E-03-1.79370E-04-5.29396E-23
 -1        86 1.39253E-03-6.52974E-06 0.00000E+00
 -1        87 1.64868E-03-4.13320E-05 2.64698E-23
 -1        88 1.99316E-03-1.01279E-04 0.00000E+00
 -1        89 2.34252E-03-1.62974E-04 0.00000E+00
 -1        90 2.61046E-03-2.00747E-04-5.29396E-23
 -1       121 3.41714E-04-5.46213E-07 0.00000E+00
 -1       122 3.39027E-04-1.09551E-06 0.00000E+00
 -1       123 3.34560E-04-1.65093E-06 0.00000E+00
 -1       124 3.28329E-04-2.21550E-06-6.61744E-24
 -1       125 3.20356E-04-2.79189E-06-1.32349E-23
 -1       191 1.77126E-04 1.34915E-07 1.65436E-24
 -1       192 1.77280E-04 2.69818E-07-1.24077E-24
 -1       193 1.77537E-04 4.04702E-07-1.65436E-24
 -1       194 1.77897E-04 5.39553E-07 1.65436E-24
 -1       195 1.78359E-04 6.74358E-07-3.30872E-24
 -1       251 2.72038E-03 1.58669E-06 6.61744E-24
 -1       252 2.72008E-03 3.45469E-06 3.30872E-24
 -1       253 2.71977E-03 4.15282E-06-6.61744E-24
 -1       254 2.71946E-03 2.64158E-06-3.30872E-24
 -1       255 2.71915E-03-1.78348E-06-6.61744E-24
 -1       256 2.71881E-03-9.79034E-06-3.30872E-24
 -1       257 2.71844E-03-2.15042E-05 6.61744E-24
 -1       258 2.71802E-03-3.70038E-05-3.30872E-24
 -1       259 2.71754E-03-5.57948E-05 0.00000E+00
 -1       260 2.71701E-03-7.73412E-05 0.00000E+00
 -1       261 2.71645E-03-1.00689E-04-1.32349E-23
 -1       262 2.71586E-03-1.24864E-04 6.61744E-24
 -1       263 2.71528E-03-1.48764E-04 1.32349E-23
 -1       264 2.71472E-03-1.71291E-04 0.00000E+00
 -1       265 2.71422E-03-1.91558E-04 0.00000E+00
 -1       266 2.71869E-03-4.06438E-07 0.00000E+00
 -1       267 2.71670E-03-4.09516E-07 0.00000E+00
 -1       268 2.71470E-03-4.12993E-07 4.13590E-25
 -1       269 2.71271E-03-4.15298E-07 0.00000E+00
 -1       270 2.71072E-03-4.17578E-07 0.00000E+00
 -1       271 2.71992E-03-9.19801E-08-1.32349E-23
 -1       272 2.72019E-03-2.61546E-06 0.00000E+00
 -1       273 2.72145E-03-7.79479E-06 1.32349E-23
 -1       274 2.72362E-03-1.54436E-05 0.00000E+00
 -1       275 2.72661E-03-2.53540E-05-2.64698E-23
 -1       276 2.73035E-03-3.73019E-05 1.32349E-23
 -1       277 2.73473E-03-5.10467E-05-1.32349E-23
 -1       278 2.73967E-03-6.63338E-05 0.00000E+00
 -1       279 2.74506E-03-8.28970E-05 1.32349E-23
 -1       280 2.75081E-03-1.00459E-04 0.00000E+00
 -1       281 2.75682E-03-1.18737E-04 0.00000E+00
 -1       282 2.76298E-03-1.37439E-04-6.61744E-24
 -1       283 2.76918E-03-1.56273E-04 0.00000E+00
 -1       284 2.77532E-03-1.74944E-04-6.61744E-24
 -1       285 2.78131E-03-1.93159E-04 0.00000E+00
 -1       301 2.72705E-03-2.09060E-04-1.32349E-23
 -1       302 2.73867E-03-2.09369E-04 6.61744E-24
 -1       303 2.74952E-03-2.09666E-04-1.32349E-23
 -1       304 2.76057E-03-2.09963E-04 6.61744E-24
 -1       305 2.77276E-03-2.10276E-04 0.00000E+00
 -1       306 2.75198E-03-3.64851E-04 0.00000E+00
 -1       307 2.81584E-03-7.80320E-04 5.29396E-23
 -1       308 2.86241E-03-1.38631E-03 1.05879E-22
 -1       309 2.88640E-03-2.08642E-03 0.00000E+00
 -1       310 2.91812E-03-2.75479E-03-1.05879E-22
 -1       311 2.97789E-03-3.26835E-03 5.29396E-23
 -1       312 3.03534E-03-3.54678E-03 1.05879E-22
 -1       313 3.02916E-03-3.55287E-03-5.29396E-23
 -1       314 2.88548E-03-3.29927E-03-1.05879E-22
 -1       315 2.56378E-03-2.85096E-03-5.29396E-23
 -1       316 2.08312E-03-2.28466E-03 0.00000E+00
 -1       317 1.51007E-03-1.66951E-03 0.00000E+00
 -1       318 9.59261E-04-1.06582E-03-1.05879E-22
 -1       319 5.38773E-04-5.38449E-04 5.29396E-23
 -1       320 2.92195E-04-1.61610E-04 0.00000E+00
 -1       336 2.99091E-04-4.03787E-06 0.00000E+00
 -1       337 2.85434E-04-4.71783E-06 0.00000E+00
 -1       338 2.69762E-04-5.42569E-06 1.32349E-23
 -1       339 2.52150E-04-6.16229E-06 6.61744E-24
 -1       340 2.32679E-04-6.93210E-06 0.00000E+00
 -1       406 1.79591E-04 9.43776E-07 1.65436E-24
 -1       407 1.80362E-04 1.07833E-06 8.27181E-25
 -1       408 1.81235E-04 1.21272E-06 1.65436E-24
 -1       409 1.82212E-04 1.34678E-06-1.44757E-24
 -1       410 1.83290E-04 1.48021E-06-2.89513E-24
 -1       521 2.82585E-03-3.76103E-04-1.05879E-22
 -1       522 2.88787E-03-8.12291E-04 0.00000E+00
 -1       523 2.92779E-03-1.44690E-03 0.00000E+00
 -1       524 2.94225E-03-2.17662E-03-5.29396E-23
 -1       525 2.96582E-03-2.87254E-03-1.05879E-22
 -1       526 3.02199E-03-3.40884E-03 0.00000E+00
 -1       527 3.07905E-03-3.69811E-03 0.00000E+00
 -1       528 3.07047E-03-3.70223E-03 0.00000E+00
 -1       529 2.91425E-03-3.43393E-03-2.11758E-22
 -1       530 2.56757E-03-2.96641E-03 0.00000E+00
 -1       531 2.05037E-03-2.38033E-03 1.05879E-22
 -1       532 1.43585E-03-1.74741E-03 0.00000E+00
 -1       533 8.44366E-04-1.12527E-03 0.00000E+00
 -1       534 3.89426E-04-5.76407E-04 0.00000E+00
 -1       535 1.21023E-04-1.79502E-04 0.00000E+00
 -1       536 2.10684E-04 2.72021E-05 6.61744E-24
 -1       537 2.08766E-04 8.76415E-05-1.65436E-24
 -1       538 2.05802E-04 1.64331E-04 0.00000E+00
 -1       539 2.02306E-04 2.47919E-04 1.65436E-24
 -1       540 1.99160E-04 3.26904E-04 0.00000E+00
 -1       541 1.97115E-04 3.89804E-04-1.65436E-24
 -1       542 1.96172E-04 4.29868E-04 3.30872E-24
 -1       543 1.95947E-04 4.40490E-04 1.65436E-24
 -1       544 1.95624E-04 4.22443E-04-3.30872E-24
 -1       545 1.94452E-04 3.76724E-04 1.65436E-24
 -1       546 1.92267E-04 3.11457E-04 0.00000E+00
 -1       547 1.89309E-04 2.34890E-04 0.00000E+00
 -1       548 1.86378E-04 1.58700E-04 3.30872E-24
 -1       549 1.84263E-04 9.45623E-05-1.65436E-24
 -1       550 1.83165E-04 5.05075E-05-1.65436E-24
 -1       551 1.86240E-04-8.28851E-06 0.00000E+00
 -1       552 1.57798E-04-8.93699E-06 0.00000E+00
 -1       553 1.27052E-04-9.64771E-06-1.32349E-23
 -1       554 9.49630E-05-1.03996E-05 3.30872E-24
 -1       555 6.24890E-05-1.11653E-05-1.32349E-23
 -1       556 2.03791E-04 1.18337E-05-5.29396E-23
 -1       557 1.97613E-04 2.76924E-05 2.64698E-23
 -1       558 1.92769E-04 4.01435E-05 0.00000E+00
 -1       559 1.89127E-04 4.94975E-05 0.00000E+00
 -1       560 1.86556E-04 5.60651E-05 0.00000E+00
 -1       561 1.84930E-04 6.01597E-05 0.00000E+00
 -1       562 1.84122E-04 6.20960E-05 0.00000E+00
 -1       563 1.84009E-04 6.21895E-05 0.00000E+00
 -1       564 1.84468E-04 6.07565E-05 0.00000E+00
 -1       565 1.85379E-04 5.81143E-05 0.00000E+00
 -1       566 1.86622E-04 5.45803E-05 0.00000E+00
 -1       567 1.88078E-04 5.04728E-05 0.00000E+00
 -1       568 1.89629E-04 4.61099E-05-1.65436E-24
 -1       569 1.91157E-04 4.18098E-05-8.27181E-25
 -1       570 1.92544E-04 3.78907E-05 0.00000E+00
 -1       571 1.82975E-04 3.23103E-05 1.65436E-24
 -1       572 1.83073E-04 3.01145E-05-1.65436E-24
 -1       573 1.83172E-04 2.78686E-05 0.00000E+00
 -1       574 1.83272E-04 2.55891E-05 8.27181E-25
 -1       575 1.83371E-04 2.32924E-05-3.30872E-24
 -1       576 1.83471E-04 2.09950E-05 0.00000E+00
 -1       577 1.83570E-04 1.87134E-05-3.30872E-24
 -1       578 1.83670E-04 1.64641E-05 0.00000E+00
 -1       579 1.83769E-04 1.42637E-05 0.00000E+00
 -1       580 1.83869E-04 1.21286E-05 0.00000E+00
 -1       581 1.83969E-04 1.00754E-05 0.00000E+00
 -1       582 1.84069E-04 8.12067E-06 0.00000E+00
 -1       583 1.84170E-04 6.28081E-06 6.61744E-24
 -1       584 1.84270E-04 4.57216E-06 0.00000E+00
 -1       585 1.84371E-04 3.01089E-06 0.00000E+00
 -1       586 1.84636E-04 3.44803E-05 0.00000E+00
 -1       587 1.86353E-04 3.45195E-05 4.13590E-25
 -1       588 1.88072E-04 3.45583E-05 8.27181E-25
 -1       589 1.89836E-04 3.45965E-05 0.00000E+00
 -1       590 1.91689E-04 3.46334E-05 0.00000E+00
 -1       591 1.83608E-04 3.24041E-05-1.03398E-25
 -1       592 1.84341E-04 3.03479E-05-2.06795E-25
 -1       593 1.85080E-04 2.82778E-05-8.27181E-25
 -1       594 1.85821E-04 2.61984E-05 0.00000E+00
 -1       595 1.86563E-04 2.41145E-05 0.00000E+00
 -1       596 1.87306E-04 2.20308E-05-4.13590E-25
 -1       597 1.88046E-04 1.99519E-05 0.00000E+00
 -1       598 1.88783E-04 1.78825E-05 0.00000E+00
 -1       599 1.89515E-04 1.58273E-05 0.00000E+00
 -1       600 1.90240E-04 1.37910E-05 0.00000E+00
 -1       601 1.90956E-04 1.17782E-05-8.27181E-25
 -1       602 1.91662E-04 9.79352E-06-2.06795E-25
 -1       603 1.92355E-04 7.84175E-06 4.13590E-25
 -1       604 1.93035E-04 5.92761E-06 7.75482E-26
 -1       605 1.93700E-04 4.05569E-06 0.00000E+00
 -1       606 1.84484E-04 4.45956E-07 3.30872E-24
 -1       607 1.84494E-04-6.34218E-07 0.00000E+00
 -1       608 1.84503E-04-1.63376E-06 3.30872E-24
 -1       609 1.84511E-04-2.55833E-06 0.00000E+00
 -1       610 1.84519E-04-3.41368E-06 3.30872E-24
 -1       611 1.84528E-04-4.20556E-06 0.00000E+00
 -1       612 1.84536E-04-4.93978E-06 0.00000E+00
 -1       613 1.84544E-04-5.62213E-06 0.00000E+00
 -1       614 1.84553E-04-6.25841E-06 0.00000E+00
 -1       615 1.84561E-04-6.85442E-06 0.00000E+00
 -1       616 1.84569E-04-7.41597E-06 0.00000E+00
 -1       617 1.84578E-04-7.94884E-06 0.00000E+00
 -1       618 1.84586E-04-8.45883E-06 0.00000E+00
 -1       619 1.84594E-04-8.95175E-06 0.00000E+00
 -1       620 1.84603E-04-9.43340E-06 0.00000E+00
 -1       621 1.85831E-04 1.71570E-06 1.65436E-24
 -1       622 1.87351E-04 1.81985E-06 1.65436E-24
 -1       623 1.88996E-04 1.92379E-06 1.65436E-24
 -1       624 1.90733E-04 2.02740E-06-8.27181E-25
 -1       625 1.92530E-04 2.13071E-06-1.65436E-24
 -1       626 1.85020E-04 4.82074E-07 0.00000E+00
 -1       627 1.85547E-04-5.84765E-07 3.30872E-24
 -1       628 1.86053E-04-1.59657E-06 0.00000E+00
 -1       629 1.86542E-04-2.56149E-06-1.65436E-24
 -1       630 1.87016E-04-3.48772E-06 0.00000E+00
 -1       631 1.87479E-04-4.38345E-06-1.65436E-24
 -1       632 1.87934E-04-5.25687E-06-3.30872E-24
 -1       633 1.88383E-04-6.11620E-06-1.65436E-24
 -1       634 1.88830E-04-6.96963E-06 0.00000E+00
 -1       635 1.89278E-04-7.82534E-06 0.00000E+00
 -1       636 1.89730E-04-8.69157E-06 3.30872E-24
 -1       637 1.90189E-04-9.57650E-06 0.00000E+00
 -1       638 1.90658E-04-1.04883E-05 3.30872E-24
 -1       639 1.91139E-04-1.14353E-05 0.00000E+00
 -1       640 1.91637E-04-1.24256E-05-3.30872E-24
 -1       656 1.85319E-04-1.04879E-05-6.61744E-24
 -1       657 1.86447E-04-1.10897E-05-6.61744E-24
 -1       658 1.87855E-04-1.16901E-05 1.32349E-23
 -1       659 1.89398E-04-1.22902E-05 0.00000E+00
 -1       660 1.90891E-04-1.28920E-05 0.00000E+00
 -1       661 1.84875E-04-1.04308E-05 0.00000E+00
 -1       662 1.85178E-04-1.10440E-05 8.27181E-25
 -1       663 1.85514E-04-1.17439E-05-1.65436E-24
 -1       664 1.85879E-04-1.25239E-05 0.00000E+00
 -1       665 1.86273E-04-1.33783E-05 0.00000E+00
 -1       666 1.86692E-04-1.43010E-05 0.00000E+00
 -1       667 1.87135E-04-1.52865E-05-1.65436E-24
 -1       668 1.87599E-04-1.63291E-05-8.27181E-25
 -1       669 1.88082E-04-1.74234E-05 0.00000E+00
 -1       670 1.88583E-04-1.85641E-05 8.27181E-25
 -1       671 1.89099E-04-1.97461E-05-1.65436E-24
 -1       672 1.89628E-04-2.09641E-05 8.27181E-25
 -1       673 1.90169E-04-2.22131E-05-1.65436E-24
 -1       674 1.90719E-04-2.34885E-05 0.00000E+00
 -1       675 1.91277E-04-2.47849E-05 0.00000E+00
 -1       676 1.85075E-04-2.55818E-05 3.30872E-24
 -1       677 1.86432E-04-2.56860E-05-1.65436E-24
 -1       678 1.87788E-04-2.57902E-05 0.00000E+00
 -1       679 1.89141E-04-2.58940E-05-1.65436E-24
 -1       680 1.90490E-04-2.59978E-05 1.65436E-24
 -1       771 1.86291E-05 1.47999E-05 0.00000E+00
 -1       772 8.57174E-06 3.67589E-05 5.29396E-23
 -1       773 3.21308E-07 5.41698E-05 0.00000E+00
 -1       774-6.24658E-06 6.72906E-05 7.94093E-23
 -1       775-1.12537E-05 7.63900E-05-5.29396E-23
 -1       776-1.48266E-05 8.17531E-05 0.00000E+00
 -1       777-1.70917E-05 8.36754E-05 0.00000E+00
 -1       778-1.81780E-05 8.24660E-05 0.00000E+00
 -1       779-1.82139E-05 7.84427E-05-5.29396E-23
 -1       780-1.73298E-05 7.19347E-05-2.64698E-23
 -1       781-1.56551E-05 6.32779E-05 0.00000E+00
 -1       782-1.33208E-05 5.28172E-05-2.64698E-23
 -1       783-1.04570E-05 4.09019E-05 0.00000E+00
 -1       784-7.19508E-06 2.78877E-05-2.64698E-23
 -1       785-3.66537E-06 1.41334E-05 0.00000E+00
 -1       786 1.93711E-04 3.24112E-05 0.00000E+00
 -1       787 1.93753E-04 3.02061E-05-4.13590E-25
 -1       788 1.93794E-04 2.80429E-05 0.00000E+00
 -1       789 1.93837E-04 2.59134E-05 0.00000E+00
 -1       790 1.93879E-04 2.38128E-05 1.65436E-24
 -1       791 1.93922E-04 2.17363E-05 0.00000E+00
 -1       792 1.93964E-04 1.96818E-05 0.00000E+00
 -1       793 1.94007E-04 1.76471E-05 0.00000E+00
 -1       794 1.94050E-04 1.56319E-05-1.65436E-24
 -1       795 1.94092E-04 1.36360E-05 0.00000E+00
 -1       796 1.94135E-04 1.16614E-05 0.00000E+00
 -1       797 1.94178E-04 9.70983E-06 0.00000E+00
 -1       798 1.94221E-04 7.78552E-06 0.00000E+00
 -1       799 1.94264E-04 5.89277E-06 8.27181E-25
 -1       800 1.94307E-04 4.03902E-06-1.65436E-24
 -1       801 1.47865E-04 3.11654E-05 0.00000E+00
 -1       802 9.36315E-06 1.94434E-05 0.00000E+00
 -1       803-1.08930E-04 9.82270E-06-5.29396E-23
 -1       804-9.65387E-05 6.83748E-06 2.64698E-23
 -1       805-3.18947E-05 2.68618E-06 0.00000E+00
 -1       806 1.94404E-04 3.23424E-05 1.65436E-24
 -1       807 1.95120E-04 3.00447E-05 0.00000E+00
 -1       808 1.95824E-04 2.77786E-05 0.00000E+00
 -1       809 1.96514E-04 2.55479E-05 0.00000E+00
 -1       810 1.97189E-04 2.33568E-05-3.30872E-24
 -1       811 1.97849E-04 2.12092E-05 0.00000E+00
 -1       812 1.98490E-04 1.91091E-05-3.30872E-24
 -1       813 1.99112E-04 1.70603E-05 0.00000E+00
 -1       814 1.99714E-04 1.50667E-05-3.30872E-24
 -1       815 2.00293E-04 1.31323E-05-1.65436E-24
 -1       816 2.00849E-04 1.12610E-05 3.30872E-24
 -1       817 2.01380E-04 9.45661E-06 1.65436E-24
 -1       818 2.01885E-04 7.72301E-06-3.30872E-24
 -1       819 2.02362E-04 6.06409E-06 1.65436E-24
 -1       820 2.02810E-04 4.48367E-06 0.00000E+00
 -1       821 1.94222E-04-1.30361E-07 1.65436E-24
 -1       822 1.94081E-04-3.64367E-06 0.00000E+00
 -1       823 1.93939E-04-7.88088E-06 3.30872E-24
 -1       824 1.93794E-04-1.24102E-05 0.00000E+00
 -1       825 1.93650E-04-1.67210E-05 0.00000E+00
 -1       826 1.93508E-04-2.03038E-05 1.65436E-24
 -1       827 1.93369E-04-2.28473E-05 0.00000E+00
 -1       828 1.93233E-04-2.40468E-05-1.65436E-24
 -1       829 1.93097E-04-2.39634E-05-3.30872E-24
 -1       830 1.92961E-04-2.26656E-05-1.65436E-24
 -1       831 1.92823E-04-2.05530E-05 0.00000E+00
 -1       832 1.92685E-04-1.80298E-05-1.65436E-24
 -1       833 1.92547E-04-1.56121E-05 0.00000E+00
 -1       834 1.92412E-04-1.38156E-05 0.00000E+00
 -1       835 1.92277E-04-1.29871E-05-8.27181E-25
 -1       836 1.96043E-04 2.35681E-06 0.00000E+00
 -1       837 1.97608E-04 2.48494E-06 0.00000E+00
 -1       838 1.99078E-04 2.61301E-06-3.30872E-24
 -1       839 2.00484E-04 2.74038E-06 0.00000E+00
 -1       840 2.01857E-04 2.86759E-06-8.27181E-25
 -1       856 1.92135E-04-1.45320E-05-8.27181E-25
 -1       857 1.92115E-04-1.54608E-05 2.58494E-26
 -1       858 1.92096E-04-1.62749E-05 0.00000E+00
 -1       859 1.92077E-04-1.69957E-05-2.06795E-25
 -1       860 1.92057E-04-1.76442E-05 4.13590E-25
 -1       861 1.92037E-04-1.82417E-05 2.06795E-25
 -1       862 1.92018E-04-1.88096E-05-4.13590E-25
 -1       863 1.91998E-04-1.93692E-05 0.00000E+00
 -1       864 1.91978E-04-1.99417E-05-8.27181E-25
 -1       865 1.91959E-04-2.05486E-05-4.13590E-25
 -1       866 1.91939E-04-2.12111E-05 0.00000E+00
 -1       867 1.91919E-04-2.19505E-05 0.00000E+00
 -1       868 1.91899E-04-2.27879E-05 0.00000E+00
 -1       869 1.91878E-04-2.37445E-05 4.13590E-25
 -1       870 1.91858E-04-2.48414E-05 0.00000E+00
 -1       871 1.93503E-04-1.34725E-05-8.27181E-25
 -1       872 1.95002E-04-1.34809E-05 0.00000E+00
 -1       873 1.96581E-04-1.34899E-05 0.00000E+00
 -1       874 1.98171E-04-1.34997E-05 2.32645E-25
 -1       875 1.99704E-04-1.35100E-05 8.27181E-25
 -1       876 1.92677E-04-1.45174E-05 0.00000E+00
 -1       877 1.93181E-04-1.55005E-05-1.65436E-24
 -1       878 1.93663E-04-1.64248E-05-3.30872E-24
 -1       879 1.94127E-04-1.72976E-05 0.00000E+00
 -1       880 1.94574E-04-1.81264E-05-3.30872E-24
 -1       881 1.95007E-04-1.89186E-05 1.65436E-24
 -1       882 1.95430E-04-1.96814E-05-3.30872E-24
 -1       883 1.95844E-04-2.04223E-05-1.65436E-24
 -1       884 1.96253E-04-2.11485E-05 3.30872E-24
 -1       885 1.96659E-04-2.18675E-05-1.65436E-24
 -1       886 1.97065E-04-2.25865E-05 3.30872E-24
 -1       887 1.97473E-04-2.33128E-05 1.65436E-24
 -1       888 1.97887E-04-2.40540E-05 0.00000E+00
 -1       889 1.98309E-04-2.48173E-05 0.00000E+00
 -1       890 1.98741E-04-2.56101E-05 0.00000E+00
 -1       891 1.93202E-04-2.61569E-05 0.00000E+00
 -1       892 1.94545E-04-2.62146E-05 8.27181E-25
 -1       893 1.95839E-04-2.62722E-05 8.27181E-25
 -1       894 1.97060E-04-2.63295E-05 4.13590E-25
 -1       895 1.98182E-04-2.63866E-05-8.27181E-25
 -1       956 2.03099E-04 1.66201E-06 0.00000E+00
 -1       957 2.02967E-04 4.30037E-07-8.27181E-25
 -1       958 2.02834E-04-7.21123E-07 0.00000E+00
 -1       959 2.02702E-04-1.80281E-06 0.00000E+00
 -1       960 2.02569E-04-2.82643E-06 3.30872E-24
 -1       961 2.02436E-04-3.80339E-06 0.00000E+00
 -1       962 2.02303E-04-4.74512E-06 0.00000E+00
 -1       963 2.02170E-04-5.66309E-06 1.65436E-24
 -1       964 2.02038E-04-6.56873E-06 0.00000E+00
 -1       965 2.01905E-04-7.47349E-06 0.00000E+00
 -1       966 2.01772E-04-8.38884E-06 0.00000E+00
 -1       967 2.01640E-04-9.32621E-06 0.00000E+00
 -1       968 2.01507E-04-1.02970E-05 0.00000E+00
 -1       969 2.01374E-04-1.13127E-05 0.00000E+00
 -1       970 2.01242E-04-1.23847E-05 3.30872E-24
 -1       971 2.00992E-04-1.46626E-05 3.30872E-24
 -1       972 2.00871E-04-1.57069E-05 1.65436E-24
 -1       973 2.00749E-04-1.66671E-05 0.00000E+00
 -1       974 2.00628E-04-1.75541E-05 1.65436E-24
 -1       975 2.00507E-04-1.83786E-05 3.30872E-24
 -1       976 2.00385E-04-1.91516E-05 0.00000E+00
 -1       977 2.00264E-04-1.98839E-05-3.30872E-24
 -1       978 2.00142E-04-2.05864E-05 0.00000E+00
 -1       979 2.00021E-04-2.12701E-05 0.00000E+00
 -1       980 1.99900E-04-2.19457E-05-1.65436E-24
 -1       981 1.99779E-04-2.26243E-05-3.30872E-24
 -1       982 1.99657E-04-2.33167E-05 1.65436E-24
 -1       983 1.99536E-04-2.40337E-05-3.30872E-24
 -1       984 1.99416E-04-2.47864E-05 1.65436E-24
 -1       985 1.99296E-04-2.55856E-05 0.00000E+00
 -3
    1PSTEP                        24          12           1          
  100CL  112 6.62659E-01         409                     0   12           1
 -4  STRESS      6    1
 -5  SXX         1    4    1    1
 -5  SYY         1    4    2    2
 -5  SZZ         1    4    3    3
 -5  SXY         1    4    1    2
 -5  SYZ         1    4    2    3
 -5  SZX         1    4    3    1
 -1         1-5.34834E+06-1.54300E+06-1.13037E+06-1.28828E+06 3.20142E-10-2.39845E-07
 -1         2 1.60629E+06 2.34565E+07 5.42343E+06 7.12963E+06 2.95113E-08 1.29017E-07
 -1         3-1.48630E+03-1.55084E+06 4.04271E+02-2.19992E+03-6.46086E-10-1.74259E-08
 -1         5-7.54562E+01 3.86342E+05 9.97906E+00-1.34376E+00-3.84411E-10 2.85636E-08
 -1         8-5.47340E+05-1.98862E+05-6.17143E+04-2.39390E+05 1.32786E-10-1.35824E-07
 -1         9 1.18672E+07 4.12454E+06 2.86299E+06-2.49523E+05-2.18861E-08 1.49617E-07
 -1        10-2.30080E+03-1.61609E+06-3.92819E+03-1.48872E+04-1.32986E-08-5.17402E-08
 -1        12-7.15394E+01 3.86363E+05 3.28052E+02-9.15946E+00-6.38899E-10 1.67256E-08
 -1        15 9.38413E+02 5.11835E+02 2.97638E+03 8.15911E-01-4.34426E-10-1.73225E-07
 -1        16 2.29354E+07-3.45409E+05 3.11804E+06-2.32691E+06 8.49832E-09-4.37722E-08
 -1        17 8.40417E+06 6.29316E+06 2.26936E+06 6.01817E+06 2.33762E-08 3.12575E-08
 -1        18 1.42352E+05 3.35276E+04 4.16291E+03-1.19538E+05 1.62572E-08-3.67118E-09
 -1        19 1.22403E+05 1.41646E+05-9.44683E+02 2.19621E+04 1.63254E-09-1.62170E-08
 -1        20-8.20366E+04-5.73633E+05-1.28725E+05 2.50673E+04-2.04833E-09 1.86258E-08
 -1        21-4.55459E+01-2.95876E+05-9.23446E+02 2.75550E+02 1.64174E-08-2.02223E-08
 -1        24 1.41170E+07 1.21447E+07 3.90536E+06 1.12433E+07-1.74051E-07-5.62092E-08
 -1        25 1.25088E+05 2.68161E+05 1.00187E+05-6.46357E+05-1.10831E-09 1.68777E-08
 -1        26-5.55128E+04 9.22515E+04-2.46540E+04 1.34733E+03-2.45927E-10 1.87605E-08
 -1        27-7.55306E+04-3.09901E+05-1.13283E+05 6.89588E+04 4.26083E-09 6.47742E-09
 -1        28 2.22292E+04-8.53204E+04 1.68907E+04 2.05842E+04-4.30390E-09-6.11877E-09
 -1        32-1.67986E+06-3.18126E+06-1.97727E+05 4.59248E+05-4.15748E-08-1.26761E-08
 -1        33-1.78453E+05 9.29963E+04 3.23841E+04-3.84307E+04-3.06860E-09 4.61993E-09
 -1        34-2.23549E+05-2.50330E+04 6.90193E+02 7.56611E+04-5.61118E-09-1.61040E-08
 -1        35-2.29191E+04-3.38359E+04-1.34805E+03 5.14731E+04-1.82076E-09-1.33684E-08
 -1        51 6.10603E+04-1.68870E+05 1.29036E+05-4.28471E+05-1.30967E-10-7.99701E-08
 -1        52 2.06169E+04-1.46251E+05 6.76301E+04-4.99742E+05 1.00954E-10-2.01631E-07
 -1        53 4.13758E+03-1.61590E+05 3.51000E+04-4.27009E+05 3.36513E-10-1.25670E-07
 -1        54 7.20788E+03-1.57332E+05 2.85993E+04-5.01166E+05 6.18456E-11-5.74073E-08
 -1        55 1.57821E+04-1.64254E+05 3.45068E+04-4.26930E+05 5.96629E-10 7.34599E-08
 -1        56-9.83764E+06-1.43136E+06-9.39485E+05-4.14160E+06-5.57629E-08-2.85043E-07
 -1        57-1.11984E+07-6.81347E+05-5.40263E+05-2.59576E+06 1.63345E-08 2.52548E-07
 -1        58-9.56915E+06-1.91989E+06-2.02701E+05-4.36442E+06-1.15033E-08 2.86629E-07
 -1        59-1.14690E+07-1.06356E+05-1.05160E+05-2.51664E+06-4.62978E-09-3.22714E-07
 -1        60-9.67354E+06-1.92243E+06-6.06697E+04-4.31421E+06 3.28873E-09-1.61126E-07
 -1        61-1.06828E+07-5.02131E+05 2.88305E+04-2.77424E+06 8.81846E-09-7.57900E-08
 -1        62-1.01790E+07-1.64356E+06-9.66155E+04-3.96485E+06 8.78936E-09 7.97227E-08
 -1        63-9.60511E+06-1.33257E+06 7.48747E+04-3.56773E+06-1.75205E-08 1.56704E-07
 -1        64-1.06059E+07-1.19592E+06-8.90901E+04-3.43023E+06-2.61934E-09 6.32172E-08
 -1        65-9.21312E+06-2.02368E+06 2.45305E+04-4.64111E+06-5.72763E-08 3.20911E-08
 -1        66-1.07363E+07-8.37632E+05-4.87868E+04-3.01705E+06-1.63709E-08-1.81317E-08
 -1        67-9.26902E+06-2.30388E+06-9.44136E+04-5.15693E+06-8.28004E-08-2.22733E-07
 -1        68-1.07163E+07-7.98070E+05-1.89390E+05-3.01607E+06-6.91689E-08 2.57714E-08
 -1        69-9.40682E+06-2.36181E+06-4.78179E+05-4.60986E+06-2.18351E-08-2.18271E-07
 -1        70-1.04425E+07-9.01826E+05-8.65875E+05-3.46465E+06 2.90438E-08-2.02330E-07
 -1        86-1.63937E+06-1.64035E+07-2.97071E+06-3.34334E+06-2.75155E-07-8.75007E-08
 -1        87 2.59799E+06 6.84275E+06 2.47000E+06 6.09139E+06-4.79806E-07-1.27995E-07
 -1        88-4.99526E+05-1.85819E+06 2.36113E+05-2.66672E+06-4.17584E-07-6.83567E-08
 -1        89 3.47670E+06 6.51288E+06 2.53315E+06 6.30350E+06-6.07455E-07-1.27852E-07
 -1        90-2.41311E+06-1.61573E+07-3.20365E+06-3.58919E+06-1.59114E-07 5.63887E-08
 -1       121-2.03585E+03-1.55574E+06-5.47923E+02 1.09034E+03 1.48025E-09-7.31961E-09
 -1       122-1.30150E+03-1.55090E+06 7.66072E+02-4.40406E+03-5.23589E-09 1.74587E-08
 -1       123-2.05561E+03-1.55587E+06 2.55941E+02 3.25646E+03 4.20494E-09-1.60071E-09
 -1       124 3.26483E+02-1.55046E+06 2.93455E+03-9.21842E+03-1.06693E-08 2.06001E-08
 -1       125-2.86065E+03-1.55676E+06 3.43855E+03 5.85878E+03 6.73754E-09-9.67702E-10
 -1       191-7.95159E+01 3.86360E+05 8.47421E+00 7.00734E-01-5.46771E-10 2.01981E-08
 -1       192-7.64198E+01 3.86342E+05 2.12956E+01-4.30930E+00-8.11281E-10-1.68502E-08
 -1       193-8.20522E+01 3.86360E+05 3.62449E+01 3.78524E+00-1.05134E-09-2.64117E-09
 -1       194-7.95092E+01 3.86346E+05 8.09577E+01-9.77901E+00-5.61664E-10 3.18132E-08
 -1       195-8.69205E+01 3.86357E+05 1.54985E+02 6.36447E+00-1.58145E-09 3.41388E-08
 -1       251-8.65659E+05 1.64012E+04-3.82741E+04-1.49992E+04-1.21830E-10 5.96083E-09
 -1       252-8.80013E+05-1.89869E+04-2.66054E+04 5.34746E+04-1.18912E-08-7.11552E-08
 -1       253-8.74329E+05 2.52016E+03-1.03390E+04-1.06306E+04 2.64231E-09-2.69331E-07
 -1       254-8.65908E+05-3.07031E+03-4.49109E+03 3.82171E+04-1.57047E-08-1.97369E-07
 -1       255-8.79090E+05 3.13693E+01-3.68000E+03 2.53910E+02 4.95925E-09 1.32909E-07
 -1       256-8.60007E+05-2.72957E+02 1.40035E+03 1.34675E+04 1.84821E-09 2.25793E-07
 -1       257-8.79736E+05-6.42394E+02-1.53764E+03 1.41057E+04-1.37879E-09 1.42488E-08
 -1       258-8.63110E+05 9.87061E+02 2.90561E+03-1.26134E+04-2.93346E-09-1.42162E-07
 -1       259-8.76257E+05-1.02086E+03 1.29841E+03 2.63319E+04-5.86260E-09 2.28642E-08
 -1       260-8.70261E+05 3.09632E+03 5.65644E+03-3.14548E+04 5.73408E-09-8.29340E-08
 -1       261-8.73289E+05-2.21007E+03 8.67461E+03 3.29659E+04 2.46359E-08-1.37917E-07
 -1       262-8.69265E+05 1.19983E+04 2.15686E+04-3.69963E+04-3.80495E-09-3.03380E-07
 -1       263-8.77536E+05-9.67110E+03 3.41390E+04 3.18846E+04 1.25569E-08-1.13809E-07
 -1       264-8.38182E+05 6.73763E+04 9.46603E+04-2.73175E+04 4.82343E-08 3.72267E-07
 -1       265-9.03829E+05-5.77535E+04 1.31568E+05 2.32726E+04-9.16020E-09 2.66664E-07
 -1       266-1.67591E+04-7.79717E+03 3.90155E+04-1.71413E+01 1.18234E-10-2.78975E-07
 -1       267 1.94183E+04 9.09408E+03 2.76250E+04 1.97468E+01-3.01952E-10-4.97131E-07
 -1       268-2.62351E+03-1.29458E+03 1.02479E+04-2.54181E+00 5.36602E-11-1.48202E-07
 -1       269 3.09716E+03 1.55062E+03 6.67798E+03 2.95804E+00-7.81029E-11-1.88464E-07
 -1       270-4.68554E+02-2.55913E+02 3.21555E+03-4.06716E-01 2.08274E-10-1.85293E-08
 -1       271-1.44638E+06-1.85175E+05-1.08806E+05-5.63472E+05-9.02219E-09 6.11399E-08
 -1       272-1.43578E+06-3.00452E+05-6.80842E+04-6.06631E+05 4.80941E-08-2.02643E-07
 -1       273-1.46953E+06-2.07856E+05-2.64820E+04-5.55430E+05-6.85395E-09-1.22558E-07
 -1       274-1.40977E+06-2.73037E+05-1.36297E+04-6.22129E+05 8.65839E-10 3.83079E-08
 -1       275-1.47516E+06-2.07171E+05-6.65283E+03-5.51604E+05-9.38962E-09 7.02894E-08
 -1       276-1.40443E+06-2.74126E+05-2.72492E+03-6.31092E+05 1.57306E-08 6.86077E-09
 -1       277-1.47803E+06-2.04415E+05-1.85702E+03-5.48836E+05-3.45372E-08 1.08409E-07
 -1       278-1.40246E+06-2.77341E+05-6.59388E+02-6.37665E+05 5.34828E-08-1.54746E-07
 -1       279-1.47985E+06-2.02202E+05-8.26746E+02-5.46910E+05-1.86665E-08-1.66187E-07
 -1       280-1.40160E+06-2.79704E+05-8.92877E+02-6.41935E+05 7.50720E-08 3.19105E-08
 -1       281-1.48081E+06-2.00848E+05-1.65617E+03-5.45848E+05-3.38505E-08 1.41842E-07
 -1       282-1.40197E+06-2.81716E+05-3.84318E+03-6.43625E+05-1.16970E-08 3.36792E-07
 -1       283-1.48034E+06-1.99750E+05-6.84597E+03-5.45754E+05-2.29821E-08 1.55517E-07
 -1       284-1.40814E+06-2.90548E+05-1.86374E+04-6.41415E+05 1.60055E-08 7.86313E-08
 -1       285-1.47445E+06-1.93154E+05-2.91580E+04-5.47513E+05 5.96629E-09-1.46272E-07
 -1       301-9.93556E+03-6.53059E+05 1.66432E+05-1.15114E+06 1.48430E-08 1.48284E-07
 -1       302-1.24270E+04-6.05574E+05 1.00166E+05-1.67982E+06 2.71393E-09 1.95418E-07
 -1       303-2.40417E+04-6.46248E+05 5.64279E+04-1.14793E+06 1.25801E-08 3.53066E-08
 -1       304-2.81388E+04-6.13227E+05 5.64928E+04-1.67929E+06-1.94123E-08 3.95812E-09
 -1       305-2.85482E+04-6.34849E+05 6.90689E+04-1.15102E+06-1.58070E-09-1.05094E-07
 -1       306-3.00974E+07-6.20587E+06-8.59736E+06-4.69125E+05-1.15368E-07 6.55127E-08
 -1       307 2.51840E+07 3.29435E+06 5.49308E+06-1.53067E+07-8.99439E-07 1.58208E-07
 -1       308-6.88063E+06-9.99237E+05-4.23482E+05 5.20545E+06-2.20723E-07 4.25498E-07
 -1       309-3.14283E+06 8.71380E+06 2.29729E+06-2.07115E+07 4.04940E-07 2.88048E-07
 -1       310-1.27106E+07-1.95934E+06-2.07967E+06 5.21077E+06-2.63681E-08-2.54426E-07
 -1       311 3.87989E+07-1.90331E+04 7.33083E+06-8.64155E+06 2.44938E-07-1.50088E-07
 -1       312-3.19926E+07-6.84354E+06-8.57587E+06-5.15639E+06-7.24103E-08 1.49914E-07
 -1       313 4.53302E+07 1.52746E+07 1.06931E+07 2.40030E+07-2.53553E-07 9.77889E-08
 -1       314-1.71012E+07-1.78981E+07-7.52286E+06-1.25322E+07 5.14265E-07-3.07453E-07
 -1       315-2.01092E+06 2.98326E+07 5.65680E+06 1.03788E+07-4.14235E-07 2.10362E-07
 -1       316 1.45661E+06-9.81021E+06-4.18177E+05-2.46920E+06-1.12092E-06-2.42959E-07
 -1       317-1.70750E+07 2.24385E+07 2.24954E+06-8.91552E+06 7.97736E-07-5.92023E-07
 -1       318-1.10027E+06-1.28802E+07-2.07668E+06-4.24748E+06-9.94682E-07 1.79396E-07
 -1       319 7.34350E+06 3.21304E+07 7.08404E+06 1.67262E+07-4.23097E-08 3.03728E-07
 -1       320-2.26638E+07-1.77008E+07-9.89230E+06-1.28501E+07 2.10479E-07-6.39702E-08
 -1       336-7.53483E+02-1.68414E+06-1.37859E+04 8.85880E+03-2.68374E-08-4.23461E-09
 -1       337-5.39218E+03-1.68365E+06-1.79826E+04-2.15269E+04-4.90863E-08 1.57161E-08
 -1       338 2.62790E+02-1.68363E+06-2.83352E+04 1.24171E+04-3.53684E-08 6.25732E-09
 -1       339-3.00719E+04-1.70081E+06-6.40283E+04-2.84992E+04-6.23259E-08 1.30458E-08
 -1       340 1.97907E+04-1.66915E+06-1.00871E+05 1.57004E+04-4.12329E-08 4.85379E-08
 -1       406-4.98495E+01 3.86342E+05 6.44117E+02 3.34987E+00-1.86863E-09-7.73980E-09
 -1       407 1.54671E+02 3.86477E+05 1.37654E+03 2.34403E+01-5.21659E-10-1.43154E-08
 -1       408 6.34696E+02 3.86242E+05 2.74470E+03-2.71093E+01-2.63231E-09-9.29504E-10
 -1       409 2.90662E+03 3.87353E+05 6.18633E+03 2.89399E+02-6.12090E-10 3.12411E-09
 -1       410 8.47919E+03 3.85452E+05 1.26260E+04-2.79066E+02-3.14321E-09-2.53931E-08
 -1       521-3.17166E+07-7.68732E+06-1.00788E+07-7.04439E+04-1.45519E-07-4.86616E-08
 -1       522 2.61291E+07 4.36489E+06 5.62138E+06-1.88704E+07-5.73549E-07-2.19006E-07
 -1       523-7.45077E+06-1.31863E+06-4.14884E+05 5.66731E+06 1.74157E-07-3.58224E-07
 -1       524-6.64814E+06 1.18402E+07 2.49487E+06-2.38292E+07 9.36248E-07-5.77380E-07
 -1       525-1.35161E+07-2.61568E+06-2.29431E+06 5.68120E+06 6.16827E-07-3.49013E-07
 -1       526 4.25206E+07-1.23624E+05 7.71515E+06-1.13038E+07-1.33296E-08-2.02126E-07
 -1       527-3.39238E+07-8.57124E+06-9.91713E+06-5.02800E+06 2.16998E-07-2.44399E-07
 -1       528 4.96339E+07 1.71121E+07 1.11866E+07 2.73947E+07-2.02504E-07-1.79192E-07
 -1       529-1.80608E+07-2.01785E+07-8.65278E+06-1.25800E+07 2.80037E-07-7.49715E-08
 -1       530-4.50338E+06 3.47530E+07 6.00682E+06 9.80064E+06-6.97764E-08 1.91096E-07
 -1       531 1.47246E+06-1.08959E+07-3.89245E+05-2.39499E+06-8.76535E-07 3.39467E-07
 -1       532-1.95640E+07 2.44788E+07 2.46833E+06-1.33029E+07 3.54674E-07-6.72982E-07
 -1       533-1.13770E+06-1.40685E+07-2.22161E+06-4.03447E+06-2.74187E-07-9.88191E-07
 -1       534 5.36783E+06 3.74272E+07 7.39677E+06 1.73587E+07 2.50293E-09 7.68341E-07
 -1       535-2.38943E+07-2.01682E+07-1.13789E+07-1.29465E+07 9.12696E-08 4.75382E-07
 -1       536-7.06130E+05-4.66206E+04-4.85092E+04-5.46959E+04 5.96629E-10 5.28598E-08
 -1       537-5.49066E+04 4.45383E+04 8.37151E+04 1.23877E+05-1.10164E-07 1.13108E-07
 -1       538-3.94409E+05 3.36774E+03 3.47015E+03-7.22179E+04 2.80913E-08 1.20432E-07
 -1       539-2.69037E+05 2.82927E+03 2.48733E+04 1.38772E+05 1.67152E-07 1.14059E-07
 -1       540-4.97380E+05-4.24496E+02-2.13512E+04-7.01252E+04 2.12799E-08 1.14183E-07
 -1       541 1.46824E+05 1.69730E+04 1.06408E+05 9.79553E+04-5.16852E-08 7.15618E-08
 -1       542-7.99064E+05-2.01412E+04-8.42700E+04-3.05262E+04 3.90496E-08 3.73609E-08
 -1       543 4.05601E+05 2.73341E+04 1.58021E+05-1.33643E+04 2.79708E-08-1.09858E-08
 -1       544-7.49216E+05-1.65428E+04-7.48626E+04 4.05244E+04-1.63782E-08-4.52754E-08
 -1       545 2.90995E+04 9.48727E+03 7.98369E+04-1.13651E+05-4.52212E-09-8.05683E-08
 -1       546-4.32674E+05 6.09750E+03-1.22332E+04 6.94142E+04 2.95365E-08-9.37295E-08
 -1       547-2.87106E+05-4.65601E+03 1.05928E+04-1.41617E+05-1.08657E-07-1.11619E-07
 -1       548-4.41512E+05 4.71990E+03-2.38850E+04 6.91813E+04-1.09933E-07-1.04677E-07
 -1       549 4.82875E+04 1.60889E+04 6.05504E+04-1.11513E+05-7.61070E-08-6.81812E-08
 -1       550-7.59093E+05-2.21576E+04-1.28992E+05 3.85940E+04 1.51858E-08-4.42760E-08
 -1       551 4.07298E+04-7.47932E+05-1.59535E+04-1.24633E+06-1.05021E-07 2.27010E-09
 -1       552 9.31623E+04-7.92888E+05 9.86494E+03-1.77707E+06-7.56263E-08 4.76502E-08
 -1       553 7.16961E+04-7.89304E+05 3.19782E+04-1.23968E+06-1.22629E-07 3.63943E-08
 -1       554 1.31941E+05-8.08799E+05 8.09470E+04-1.77902E+06-7.57573E-08 1.15706E-08
 -1       555 1.01426E+05-8.12959E+05 1.47848E+05-1.23951E+06-1.24593E-07-1.95796E-08
 -1       556 2.23749E+05-3.83754E+05 2.54116E+04-4.07213E+05-2.56987E-08-2.11003E-08
 -1       557 3.54255E+05-4.88096E+05 1.59727E+04-5.27690E+05-1.10595E-09 1.25729E-08
 -1       558 2.05496E+05-3.76487E+05 2.24857E+03-4.11696E+05-2.21480E-08 4.86762E-09
 -1       559 3.29276E+05-4.88120E+05 2.40346E+03-5.48146E+05 1.19326E-08-9.31323E-10
 -1       560 1.90185E+05-3.66886E+05-1.52259E+03-4.22729E+05 1.62981E-08 1.83718E-08
 -1       561 3.10044E+05-4.80419E+05 1.21498E+02-5.61261E+05 7.01402E-09 1.12632E-08
 -1       562 1.78081E+05-3.59366E+05-1.33108E+03-4.31494E+05 5.38421E-10-1.90630E-09
 -1       563 2.95667E+05-4.74151E+05-3.89492E+01-5.70651E+05-1.13068E-08 7.54699E-09
 -1       564 1.69442E+05-3.53983E+05-6.02032E+02-4.37616E+05 8.70205E-09-8.97671E-09
 -1       565 2.86130E+05-4.69998E+05 2.32880E+01-5.76744E+05 1.59780E-08-2.16914E-09
 -1       566 1.64392E+05-3.50789E+05-2.60751E+02-4.41148E+05-1.30967E-09-1.46792E-08
 -1       567 2.81495E+05-4.67981E+05-3.63468E+02-5.79559E+05 1.40390E-08-3.52884E-10
 -1       568 1.63021E+05-3.49949E+05-1.12758E+03-4.42202E+05-2.60025E-09 2.57751E-08
 -1       569 2.80371E+05-4.67909E+05-2.84762E+03-5.78130E+05-9.93350E-09 6.17001E-09
 -1       570 1.66423E+05-3.53186E+05-6.22456E+03-4.41181E+05 7.76345E-09-1.08457E-08
 -1       571 2.90527E+05 1.05083E+04 1.49890E+04-9.52813E+04-5.20140E-09-2.05591E-09
 -1       572 2.92699E+05 3.96193E+03 7.34584E+03-1.04534E+05-1.00335E-08 4.79349E-09
 -1       573 2.91390E+05 1.24738E+03 3.26400E+03-9.51048E+04-5.97811E-09-2.54840E-09
 -1       574 2.91604E+05 7.29063E+02 1.63687E+03-1.04758E+05 1.66210E-10-8.31915E-09
 -1       575 2.91484E+05 4.49690E+02 7.72564E+02-9.50807E+04 5.49250E-11-1.05883E-08
 -1       576 2.91468E+05 4.61170E+02 3.95560E+02-1.04788E+05-8.71501E-09-9.42509E-09
 -1       577 2.91524E+05 3.91506E+02 1.97479E+02-9.50774E+04-5.28144E-09-5.02951E-09
 -1       578 2.91498E+05 4.22991E+02 1.14113E+02-1.04792E+05-8.58381E-09 2.05218E-08
 -1       579 2.91596E+05 3.54671E+02 7.84246E+01-9.50770E+04 4.04907E-09 1.26565E-08
 -1       580 2.91600E+05 3.71787E+02 9.11067E+01-1.04787E+05-1.02727E-08 3.76440E-09
 -1       581 2.91710E+05 2.95905E+02 1.37681E+02-9.50830E+04 1.06775E-09-4.12638E-09
 -1       582 2.91776E+05 3.34286E+02 2.79988E+02-1.04726E+05 1.96451E-10-1.98634E-09
 -1       583 2.91851E+05 3.38421E+02 5.37424E+02-9.51396E+04 1.12050E-09-1.57947E-08
 -1       584 2.92153E+05 7.77417E+02 1.21616E+03-1.04248E+05 6.55564E-09-2.85479E-08
 -1       585 2.91877E+05 1.80092E+03 2.46268E+03-9.55593E+04 7.45786E-11-4.98403E-10
 -1       586-3.42299E+03 1.16985E+05-2.91016E+03-2.50689E+05-3.94130E-09 1.71758E-09
 -1       587-1.34013E+03 1.16738E+05 7.76129E+02-2.75902E+05-9.15861E-09 2.56478E-10
 -1       588 3.97255E+02 1.16544E+05 4.76461E+03-2.50551E+05-7.79437E-09 1.99516E-08
 -1       589 5.08655E+03 1.19019E+05 1.23536E+04-2.75669E+05-8.34370E-09 2.89947E-09
 -1       590 1.66189E+04 1.15209E+05 2.59128E+04-2.50982E+05-3.80896E-09 5.37511E-09
 -1       591-7.50640E+04-1.59710E+04-2.25406E+04-3.19693E+04 3.86422E-09-8.26367E-09
 -1       592-7.91621E+04-1.95238E+04-1.22098E+04-3.55886E+04 9.09699E-09-2.33563E-08
 -1       593-7.73182E+04-1.43355E+04-5.08233E+03-3.36221E+04-1.45352E-09-1.04512E-08
 -1       594-7.60500E+04-1.62161E+04-2.53468E+03-3.57063E+04-6.08765E-10 5.19231E-09
 -1       595-7.74901E+04-1.43302E+04-1.16367E+03-3.36972E+04 1.77063E-09 8.90151E-09
 -1       596-7.58369E+04-1.60648E+04-5.91336E+02-3.56810E+04 5.11889E-09 2.50484E-08
 -1       597-7.75116E+04-1.43456E+04-3.21535E+02-3.37001E+04 6.02523E-09 1.22769E-08
 -1       598-7.58159E+04-1.60588E+04-2.57622E+02-3.56739E+04-3.03157E-09 2.44563E-08
 -1       599-7.75104E+04-1.43461E+04-3.28018E+02-3.36997E+04 2.77976E-09-8.57654E-09
 -1       600-7.58369E+04-1.60653E+04-6.08500E+02-3.56788E+04 3.72017E-09 1.51624E-09
 -1       601-7.74857E+04-1.43316E+04-1.19999E+03-3.36962E+04 5.61613E-10-3.15072E-09
 -1       602-7.60566E+04-1.62202E+04-2.61503E+03-3.57011E+04-3.65435E-09-1.58923E-09
 -1       603-7.73057E+04-1.43400E+04-5.24410E+03-3.36196E+04-5.99084E-09 2.06774E-09
 -1       604-7.92854E+04-1.96135E+04-1.25976E+04-3.55548E+04 7.59314E-10 2.37414E-08
 -1       605-7.49598E+04-1.60453E+04-2.32566E+04-3.19337E+04 2.02601E-09 5.04042E-09
 -1       606 2.66443E+04-1.43317E+04-2.56920E+04 2.39314E+04 2.46328E-08 6.68933E-09
 -1       607 2.22544E+04-4.68073E+03-1.27945E+04 2.68940E+04 3.90746E-08-1.18482E-08
 -1       608 2.47564E+04-8.44389E+02-5.72767E+03 2.37632E+04 1.57215E-08-4.99040E-09
 -1       609 2.42769E+04-2.89335E+02-2.89347E+03 2.71075E+04 3.49337E-09 3.10058E-09
 -1       610 2.45429E+04-4.10468E+01-1.38050E+03 2.37432E+04 8.32733E-09 1.06297E-09
 -1       611 2.44676E+04-4.13785E+01-6.96035E+02 2.71306E+04 1.14469E-08 9.52446E-09
 -1       612 2.44959E+04-2.74009E+01-3.30866E+02 2.37412E+04 6.00357E-09 4.88626E-10
 -1       613 2.44793E+04-3.73478E+01-1.48227E+02 2.71333E+04 1.56797E-09-2.71348E-09
 -1       614 2.44738E+04-3.38753E+01-3.46503E+01 2.37405E+04-5.28416E-10 1.10392E-08
 -1       615 2.44742E+04-3.59058E+01 6.23847E+01 2.71337E+04-7.99446E-10 1.23296E-08
 -1       616 2.44565E+04-3.07900E+01 1.86833E+02 2.37407E+04-6.68933E-10 9.74865E-09
 -1       617 2.44967E+04 3.86586E+00 4.26172E+02 2.71332E+04 2.83035E-09-2.73644E-09
 -1       618 2.44195E+04 9.20345E+01 8.58985E+02 2.37410E+04 9.71340E-10-1.11777E-08
 -1       619 2.48000E+04 6.68007E+02 1.92889E+03 2.71326E+04-1.85719E-09-1.02434E-08
 -1       620 2.41342E+04 2.12889E+03 3.87702E+03 2.37426E+04-5.79121E-10-2.49383E-09
 -1       621 5.11315E+02 3.01437E+05 3.88442E+03 4.11368E+04 1.07775E-09 1.20599E-08
 -1       622 6.77969E+02 3.02334E+05 3.44760E+03 5.97212E+04 1.21327E-09 2.19975E-08
 -1       623 1.43502E+02 3.01631E+05 4.14301E+03 4.09507E+04 1.36902E-09 3.53330E-08
 -1       624 2.12808E+03 3.03551E+05 8.03187E+03 5.99044E+04 1.47298E-09 9.64747E-09
 -1       625 2.07888E+03 3.00038E+05 1.40354E+04 4.09475E+04 1.44973E-09-9.63473E-09
 -1       626 2.60910E+05 6.13798E+04 5.12098E+03 1.26703E+05 2.36332E-09-1.73532E-08
 -1       627 2.58596E+05 6.27725E+04 2.46776E+03 1.30971E+05 1.10458E-09-1.04221E-08
 -1       628 2.61037E+05 5.90370E+04 1.04369E+03 1.27574E+05-8.19273E-09-3.43834E-09
 -1       629 2.57961E+05 6.20919E+04 5.10828E+02 1.31211E+05-9.38780E-09 6.28097E-09
 -1       630 2.61052E+05 5.89238E+04 2.37066E+02 1.27611E+05-5.12364E-09 1.51090E-08
 -1       631 2.57894E+05 6.20660E+04 1.27705E+02 1.31213E+05-5.92081E-09 2.26378E-08
 -1       632 2.61048E+05 5.89277E+04 8.42667E+01 1.27606E+05 6.09452E-09-1.23050E-08
 -1       633 2.57886E+05 6.20678E+04 9.42314E+01 1.31209E+05 2.35511E-08 5.56088E-09
 -1       634 2.61044E+05 5.89248E+04 1.52598E+02 1.27606E+05 2.44904E-09-8.46012E-09
 -1       635 2.57900E+05 6.20660E+04 3.08976E+02 1.31215E+05-5.71623E-09-6.46969E-09
 -1       636 2.61035E+05 5.89190E+04 6.24078E+02 1.27606E+05-2.53794E-09-6.06042E-09
 -1       637 2.58036E+05 6.21631E+04 1.37226E+03 1.31214E+05-1.10754E-09 1.59321E-08
 -1       638 2.60986E+05 5.92221E+04 2.81950E+03 1.27469E+05-3.31465E-09-2.67673E-08
 -1       639 2.59517E+05 6.42230E+04 6.67108E+03 1.30778E+05 4.23938E-09 8.72205E-09
 -1       640 2.60781E+05 6.53732E+04 1.38436E+04 1.24877E+05 8.29687E-09 4.76780E-09
 -1       656 6.65764E+04-1.70393E+06-1.60711E+05-2.56444E+03-5.45697E-10-1.68711E-08
 -1       657-8.80754E+04-1.77655E+06-1.33141E+05 5.14738E+03-4.57476E-10-6.58036E-09
 -1       658 2.12228E+04-1.72455E+06-8.19998E+04-4.64709E+03-1.09367E-09-7.69046E-09
 -1       659-9.52442E+04-1.77996E+06-1.42562E+05 6.87904E+03-2.01362E-09-2.47726E-08
 -1       660 7.37293E+04-1.70053E+06-1.76909E+05-4.29609E+03-2.23372E-09-1.17421E-08
 -1       661 1.58262E+05 1.65573E+04 1.66930E+04 6.18689E+04-2.28874E-09 1.07057E-08
 -1       662 1.67704E+05 2.89156E+04 1.12499E+04 5.81192E+04 2.09798E-09-1.34241E-09
 -1       663 1.61541E+05 2.19128E+04 3.93451E+03 6.09173E+04-5.43196E-10-2.08870E-08
 -1       664 1.63902E+05 2.26528E+04 2.35367E+03 5.92816E+04-7.90465E-10-2.33432E-08
 -1       665 1.62039E+05 2.26442E+04 9.28506E+02 6.07721E+04 1.64664E-09-2.01664E-08
 -1       666 1.63314E+05 2.18165E+04 5.43517E+02 5.94709E+04 4.39948E-09-2.24918E-09
 -1       667 1.62126E+05 2.27274E+04 2.88897E+02 6.07358E+04 8.14566E-10 3.89039E-09
 -1       668 1.63217E+05 2.17567E+04 2.94840E+02 5.95238E+04-1.21320E-08-2.76265E-08
 -1       669 1.62134E+05 2.27023E+04 3.99561E+02 6.07195E+04-5.01370E-09-1.99159E-08
 -1       670 1.63315E+05 2.19737E+04 8.70413E+02 5.95267E+04-8.20357E-09-2.98298E-08
 -1       671 1.62029E+05 2.25149E+04 1.54561E+03 6.07309E+04 2.65906E-09-9.18760E-09
 -1       672 1.64216E+05 2.34774E+04 3.95450E+03 5.93084E+04 5.58987E-09 1.79812E-08
 -1       673 1.61238E+05 2.12367E+04 6.62714E+03 6.09233E+04 8.19000E-10 5.84305E-09
 -1       674 1.70523E+05 3.41246E+04 1.89522E+04 5.74554E+04-4.47278E-09 1.09223E-08
 -1       675 1.55762E+05 1.21659E+04 2.81318E+04 6.24720E+04-4.38877E-09 1.94996E-08
 -1       676 2.41024E+01-2.95798E+05-1.11300E+03-1.37779E+02 6.02029E-10 6.53994E-09
 -1       677-2.94406E+02-2.96068E+05-2.03697E+03 2.75337E+02 7.63396E-09-6.81881E-09
 -1       678 1.97469E+02-2.95607E+05-3.60087E+03-1.37467E+02 1.38471E-09 3.94267E-09
 -1       679-3.60092E+03-2.98242E+05-8.55416E+03 2.74148E+02 1.18462E-08 1.14406E-08
 -1       680 2.14996E+03-2.93626E+05-1.37864E+04-1.35072E+02 1.21690E-09-3.87625E-09
 -1       771-3.06107E+06-7.47305E+05-1.66264E+05-1.46561E+06-3.25963E-08-2.96277E-08
 -1       772-2.98395E+06-8.36236E+05-8.57261E+04-1.56843E+06-1.81462E-08 1.12377E-08
 -1       773-3.09261E+06-7.22715E+05-4.36906E+04-1.48019E+06-1.62981E-08 8.94943E-09
 -1       774-2.97440E+06-8.17655E+05-1.94949E+04-1.59422E+06 2.41998E-08-4.69299E-09
 -1       775-3.10908E+06-7.11164E+05-1.45759E+04-1.48726E+06 2.99769E-09-2.45927E-09
 -1       776-2.98677E+06-8.14609E+05-5.45192E+03-1.61373E+06-3.53612E-09-4.43833E-09
 -1       777-3.12337E+06-7.00854E+05-6.43795E+03-1.49349E+06-6.31553E-09-4.14730E-10
 -1       778-2.99968E+06-8.11778E+05-1.82066E+03-1.63050E+06-1.05356E-08 1.20490E-08
 -1       779-3.13565E+06-6.91845E+05-3.21656E+03-1.49881E+06-2.96859E-09-4.47108E-09
 -1       780-3.01105E+06-8.09078E+05-5.33491E+02-1.64416E+06 3.09228E-09 9.87711E-10
 -1       781-3.14541E+06-6.84582E+05-1.24934E+03-1.50298E+06-2.41416E-08-1.14778E-09
 -1       782-3.01982E+06-8.06785E+05 4.50791E+02-1.65424E+06-3.97922E-08-3.83534E-09
 -1       783-3.15229E+06-6.79534E+05 7.01999E+02-1.50590E+06-9.84437E-09-1.40094E-08
 -1       784-3.02467E+06-8.04496E+05 2.90835E+03-1.66046E+06-2.05764E-08 2.04727E-09
 -1       785-3.15636E+06-6.76524E+05 5.13441E+03-1.50775E+06-3.85553E-08 8.33825E-09
 -1       786 1.23310E+05-9.75475E+03 2.25686E+04-3.21987E+02-1.01796E-10 4.93128E-09
 -1       787 1.33098E+05 1.12938E+04 1.59663E+04-1.35292E+02 8.23917E-09 2.38554E-08
 -1       788 1.27084E+05-1.52859E+03 5.83897E+03-2.86899E+02 2.72690E-09 1.73122E-09
 -1       789 1.28701E+05 1.76931E+03 3.66549E+03-1.89053E+02 1.90178E-09 1.08631E-08
 -1       790 1.27707E+05-2.37995E+02 1.48408E+03-2.68243E+02-4.02444E-09 2.07705E-08
 -1       791 1.27973E+05 2.75361E+02 8.57140E+02-2.20972E+02-6.98459E-09 1.73572E-08
 -1       792 1.27813E+05-3.57609E+01 3.63164E+02-2.54983E+02-4.52469E-09 1.38526E-09
 -1       793 1.27847E+05 3.77583E+01 1.80920E+02-2.45903E+02-1.11045E-10 4.32465E-10
 -1       794 1.27833E+05-5.41752E-01 4.67638E+01-2.43312E+02 4.03646E-09-4.91448E-09
 -1       795 1.27809E+05-2.76595E+01-5.84496E+01-2.70230E+02-4.65383E-09 2.18999E-08
 -1       796 1.27850E+05 2.96202E+01-1.63818E+02-2.30656E+02 3.53109E-09 7.57218E-09
 -1       797 1.27714E+05-2.21120E+02-4.49320E+02-2.99266E+02 4.08609E-09 3.29152E-09
 -1       798 1.27929E+05 1.92774E+02-7.29585E+02-2.14276E+02 1.89510E-09 2.30608E-09
 -1       799 1.27161E+05-1.42093E+03-2.00709E+03-3.39798E+02 6.04528E-09 1.62173E-08
 -1       800 1.28403E+05 1.22845E+03-2.84042E+03-1.90125E+02 6.25743E-10 2.29290E-08
 -1       801-1.71250E+05-9.99863E+06-1.39360E+06 1.41566E+06 9.28703E-08-4.79922E-08
 -1       802 7.38401E+05 5.95200E+06 2.18210E+06-1.74761E+06 2.60647E-07-3.26181E-08
 -1       803-5.36737E+05-1.42690E+07-1.89095E+06 8.98218E+05 7.73944E-08 1.52504E-08
 -1       804 2.87260E+05 2.39661E+06 1.53757E+06 6.77346E+05-1.21207E-07-9.18126E-08
 -1       805 1.89386E+05-6.45735E+06-2.86563E+05-1.00363E+06-4.95929E-08-6.82494E-08
 -1       806-3.08866E+05-5.97335E+04-2.28463E+04-1.22373E+05 1.55114E-09 1.95046E-08
 -1       807-3.10665E+05-5.60026E+04-1.12242E+04-1.27915E+05 1.57133E-08 2.29332E-08
 -1       808-3.09493E+05-5.15000E+04-4.76165E+03-1.26265E+05-2.64845E-09 1.53126E-08
 -1       809-3.08305E+05-5.28486E+04-2.32833E+03-1.28190E+05-1.20290E-08 2.16733E-09
 -1       810-3.09588E+05-5.12133E+04-1.06721E+03-1.26438E+05 5.74391E-09 3.78827E-09
 -1       811-3.08123E+05-5.27219E+04-5.30744E+02-1.28155E+05 3.35604E-09 1.10363E-08
 -1       812-3.09602E+05-5.12380E+04-2.68512E+02-1.26437E+05-5.60794E-09-1.06629E-08
 -1       813-3.08098E+05-5.27241E+04-1.74646E+02-1.28136E+05-7.13862E-09-2.91675E-09
 -1       814-3.09595E+05-5.12477E+04-1.73305E+02-1.26433E+05 5.71163E-10 6.86305E-09
 -1       815-3.08101E+05-5.27264E+04-2.79425E+02-1.28129E+05 4.23779E-09-1.54614E-10
 -1       816-3.09574E+05-5.12468E+04-5.29735E+02-1.26429E+05 1.06293E-08 5.79303E-09
 -1       817-3.08191E+05-5.27769E+04-1.13692E+03-1.28117E+05-1.03651E-08 2.30259E-08
 -1       818-3.09505E+05-5.14073E+04-2.31896E+03-1.26353E+05-2.80761E-09 2.46246E-09
 -1       819-3.09460E+05-5.41778E+04-5.45632E+03-1.27816E+05 4.85670E-09-1.35899E-08
 -1       820-3.09067E+05-5.55292E+04-1.11056E+04-1.24593E+05 6.43013E-10 1.14696E-08
 -1       821-3.78960E+05 2.08681E+04-4.85772E+04 2.12907E+03 1.40792E-08 8.78208E-09
 -1       822-3.98664E+05-2.41745E+04-3.41391E+04-4.45705E+03 5.03655E-09 1.72954E-08
 -1       823-3.86424E+05 3.28952E+03-1.25471E+04 3.43894E+03-1.23707E-08-8.24730E-09
 -1       824-3.89654E+05-3.79341E+03-7.85366E+03-5.36862E+03-4.50115E-10-4.77246E-09
 -1       825-3.87978E+05 5.11189E+02-3.28885E+03 3.04076E+03 2.08335E-08-1.37829E-08
 -1       826-3.87222E+05-5.67240E+02-1.74391E+03-3.09495E+03 2.57982E-08-6.23191E-09
 -1       827-3.88832E+05 4.67977E+01-1.18997E+03 1.16512E+03 9.81274E-09-8.68314E-09
 -1       828-3.86517E+05-1.32015E+02-5.86091E+02 1.09846E+03-3.22781E-09-1.87267E-08
 -1       829-3.88670E+05 6.59085E+01-1.17887E+03-1.15268E+03 2.03980E-09 8.38955E-09
 -1       830-3.87572E+05-6.22105E+02-1.88226E+03 4.88700E+03 2.76309E-10 8.95020E-09
 -1       831-3.87799E+05 5.54519E+02-3.37079E+03-2.62343E+03-3.89984E-09 2.71484E-09
 -1       832-3.89734E+05-3.96044E+03-8.15679E+03 6.16744E+03-3.58742E-09 3.77763E-08
 -1       833-3.86524E+05 3.41378E+03-1.30517E+04-2.43317E+03-3.21069E-09 8.45830E-09
 -1       834-3.98725E+05-2.50894E+04-3.53637E+04 4.19478E+03-2.69833E-09-7.73116E-09
 -1       835-3.78791E+05 2.16506E+04-5.04500E+04-6.50685E+02 5.02115E-09 1.40790E-09
 -1       836-1.41408E+03 3.70218E+05 2.29111E+04-1.60858E+04-7.07132E-09 3.94311E-09
 -1       837 4.88398E+03 3.77394E+05 1.93829E+04-3.28757E+04-7.49014E-09-1.15783E-08
 -1       838-5.58034E+02 3.72230E+05 1.97428E+04-1.60144E+04-6.58474E-09 2.87498E-08
 -1       839 1.24224E+04 3.83008E+05 3.73417E+04-3.29282E+04-6.86850E-09 3.52009E-08
 -1       840-3.84071E+03 3.64544E+05 5.95438E+04-1.60391E+04-6.12636E-09-1.35793E-09
 -1       856-5.19537E+04 8.01660E+03-2.11255E+04-3.97247E+02 4.46391E-09 1.37152E-09
 -1       857-6.06569E+04-9.41931E+03-1.45426E+04 5.63098E+03 8.11326E-09-1.18598E-09
 -1       858-5.54004E+04 1.12425E+03-5.48154E+03-4.21282E+02 1.34446E-09-1.68245E-08
 -1       859-5.67015E+04-1.32270E+03-3.30784E+03 5.66672E+03-4.24710E-09-5.03587E-09
 -1       860-5.59154E+04 1.57453E+02-1.38628E+03-4.32717E+02 1.66867E-09-1.43303E-08
 -1       861-5.61092E+04-1.88022E+02-7.62552E+02 5.68229E+03 5.53449E-10-2.44796E-09
 -1       862-5.59959E+04 2.13301E+01-3.16840E+02-4.36832E+02-6.14072E-10-3.52449E-09
 -1       863-5.60104E+04-2.18554E+01-1.15092E+02 5.68468E+03-5.97764E-09-5.41685E-09
 -1       864-5.60146E+04-4.93250E+00 4.78834E+01-4.35108E+02-1.17092E-09-3.42814E-09
 -1       865-5.59545E+04 5.98644E+01 2.56611E+02 5.67483E+03-3.81374E-09 1.08230E-08
 -1       866-5.60496E+04-6.04017E+01 5.16775E+02-4.26979E+02 3.87053E-09-2.97650E-08
 -1       867-5.57116E+04 4.98782E+02 1.27175E+03 5.65276E+03 1.29120E-10-2.23861E-08
 -1       868-5.62526E+04-4.35911E+02 2.11322E+03-4.13042E+02 3.12554E-09-8.10917E-09
 -1       869-5.41624E+04 3.62796E+03 5.62668E+03 5.61646E+03 4.36211E-09-9.46568E-09
 -1       870-5.75910E+04-3.10456E+03 8.16560E+03-3.90570E+02-3.03794E-09-3.61979E-09
 -1       871-5.51840E+03-2.13709E+04-1.94948E+04 1.30459E+05-4.94583E-09 1.94905E-08
 -1       872-1.98113E+03-2.59043E+04-8.16376E+03 1.69160E+05-1.05902E-08 1.84759E-08
 -1       873 4.06359E+02-2.37113E+04 5.87901E+02 1.30172E+05-5.21459E-09 2.20289E-08
 -1       874 3.30709E+03-2.13014E+04 9.77671E+03 1.69189E+05-1.10231E-08 7.13680E-09
 -1       875 6.84639E+03-2.60405E+04 2.20571E+04 1.30411E+05-5.23869E-09-5.96719E-09
 -1       876 2.93727E+05 4.94990E+04 1.50950E+04 1.17866E+05-1.90425E-10-1.35606E-09
 -1       877 2.94725E+05 5.26774E+04 8.06132E+03 1.22196E+05 1.36515E-08 3.62354E-09
 -1       878 2.95138E+05 4.78269E+04 3.37730E+03 1.19103E+05-3.54430E-09 1.07661E-09
 -1       879 2.92673E+05 5.06296E+04 1.68278E+03 1.22298E+05 6.64022E-09 2.10190E-09
 -1       880 2.95240E+05 4.78096E+04 7.83822E+02 1.19153E+05 2.09002E-09-2.05557E-09
 -1       881 2.92537E+05 5.05420E+04 4.18601E+02 1.22274E+05-1.06882E-08 2.35975E-08
 -1       882 2.95249E+05 4.78229E+04 2.67843E+02 1.19155E+05-3.23439E-09-1.89089E-08
 -1       883 2.92528E+05 5.05375E+04 2.88019E+02 1.22266E+05-6.58451E-09-1.92146E-08
 -1       884 2.95242E+05 4.78201E+04 4.58240E+02 1.19155E+05-2.31250E-09-2.95404E-09
 -1       885 2.92564E+05 5.05438E+04 9.21359E+02 1.22277E+05 9.83960E-11 1.09288E-08
 -1       886 2.95206E+05 4.77932E+04 1.85698E+03 1.19151E+05-5.73426E-09-2.81807E-09
 -1       887 2.92890E+05 5.07578E+04 4.05632E+03 1.22325E+05-5.75417E-09 5.65603E-09
 -1       888 2.94950E+05 4.78383E+04 8.17360E+03 1.19022E+05-1.14477E-08-4.19141E-09
 -1       889 2.97756E+05 5.58182E+04 1.95252E+04 1.22175E+05-1.45304E-08-1.94009E-08
 -1       890 2.91614E+05 5.18013E+04 3.65703E+04 1.15911E+05-9.67475E-09-4.10182E-09
 -1       891-8.91665E+01-1.62732E+05-1.99647E+03 2.71291E+04-5.43196E-10 8.61792E-09
 -1       892-1.75060E+02-1.63259E+05-2.14401E+03 4.11976E+04 2.67528E-09 9.85187E-09
 -1       893 4.39234E+01-1.62796E+05-3.03543E+03 2.71365E+04-3.34649E-09 8.27549E-09
 -1       894-1.50943E+03-1.64406E+05-6.28202E+03 4.10452E+04 2.94676E-09 1.84918E-08
 -1       895-1.19877E+03-1.61487E+05-1.10625E+04 2.72834E+04 1.52011E-09-7.84621E-09
 -1       956-3.77195E+05-5.44928E+03-1.34515E+04 3.08765E+04 4.98767E-09-2.33103E-09
 -1       957-3.79835E+05-1.92240E+03-6.90447E+03 3.71054E+04 7.38055E-10-1.76285E-08
 -1       958-3.78404E+05-2.40976E+02-3.11137E+03 3.07088E+04-3.15595E-09-2.76486E-10
 -1       959-3.78601E+05-1.36332E+02-1.58872E+03 3.73011E+04 1.57206E-09 8.26094E-09
 -1       960-3.78522E+05-4.48709E+01-7.74734E+02 3.06915E+04 6.96036E-09-7.78095E-09
 -1       961-3.78520E+05-6.32986E+01-4.10757E+02 3.73215E+04 1.01502E-08-8.37235E-09
 -1       962-3.78550E+05-4.60936E+01-2.35171E+02 3.06886E+04 2.83626E-09 1.92172E-08
 -1       963-3.78521E+05-5.91090E+01-1.88792E+02 3.73251E+04 5.93309E-09 4.11887E-09
 -1       964-3.78555E+05-4.27450E+01-2.29597E+02 3.06879E+04 5.33508E-09 1.72247E-08
 -1       965-3.78533E+05-5.61596E+01-3.97118E+02 3.73244E+04 3.62479E-09 1.19860E-08
 -1       966-3.78539E+05-3.49193E+01-7.46181E+02 3.06894E+04 1.50885E-09-3.93220E-09
 -1       967-3.78622E+05-1.19724E+02-1.53040E+03 3.73100E+04-4.72755E-09-1.32968E-08
 -1       968-3.78435E+05-2.17438E+02-2.99599E+03 3.07021E+04-1.88675E-09 1.57991E-08
 -1       969-3.79823E+05-1.83464E+03-6.65100E+03 3.71614E+04 1.16415E-10 2.14451E-08
 -1       970-3.77279E+05-5.23058E+03-1.29566E+04 3.08294E+04-4.38104E-09 7.34508E-09
 -1       971-3.45322E+05-1.72670E+03-9.30542E+03 1.53697E+04 4.38104E-09 4.23898E-09
 -1       972-3.47562E+05-1.27125E+03-5.06764E+03 2.12559E+04 8.24866E-09 1.86683E-08
 -1       973-3.46358E+05-6.20713E+01-2.26985E+03 1.52487E+04 2.72848E-10 1.04735E-08
 -1       974-3.46493E+05-8.11439E+01-1.17662E+03 2.13929E+04-2.60388E-09-7.05154E-09
 -1       975-3.46440E+05-1.72247E+01-5.88621E+02 1.52364E+04-2.62526E-09-1.26499E-09
 -1       976-3.46432E+05-3.13304E+01-3.40451E+02 2.14087E+04 3.00497E-09-6.02552E-09
 -1       977-3.46457E+05-1.64830E+01-2.48628E+02 1.52330E+04-9.93100E-09-5.57009E-09
 -1       978-3.46437E+05-2.51113E+01-2.93040E+02 2.14135E+04-1.59986E-08-2.04636E-12
 -1       979-3.46456E+05-8.00812E+00-4.72622E+02 1.52315E+04-2.53226E-09 2.45814E-09
 -1       980-3.46473E+05-2.20513E+01-9.13701E+02 2.14145E+04-3.17900E-09 3.43869E-09
 -1       981-3.46427E+05 1.48315E+01-1.77022E+03 1.52321E+04 1.27443E-09-5.32924E-09
 -1       982-3.46716E+05-1.52848E+02-3.65933E+03 2.14079E+04 6.99401E-10-2.12230E-08
 -1       983-3.46204E+05-9.85157E+01-7.11027E+03 1.52381E+04-6.22185E-09-1.72695E-08
 -1       984-3.50135E+05-3.86633E+03-1.59233E+04 2.13223E+04-6.93944E-09-2.75008E-09
 -1       985-3.42985E+05-5.30137E+03-2.92400E+04 1.53094E+04-2.42153E-09 4.31100E-09
 -3
    1PSTEP                        25          13           1          
  100CL  113 6.62796E-01         409                     0   13           1
 -4  DISP        4    1
 -5  D1          1    2    1    0
 -5  D2          1    2    2    0
 -5  D3          1    2    3    0
 -5  ALL         1    2    0    0    1ALL
 -1         1 2.72934E-03 0.00000E+00 0.00000E+00
 -1         2 1.31557E-03-1.46106E-27 5.29396E-23
 -1         3 3.42685E-04-4.78811E-28 0.00000E+00
 -1         5 1.77108E-04-2.60135E-27 8.27181E-25
 -1         8 2.71874E-03-3.99086E-07 0.00000E+00
 -1         9 2.71190E-03-2.04771E-04 0.00000E+00
 -1        10 3.10737E-04-3.38880E-06 6.61744E-24
 -1        12 1.78957E-04 8.09274E-07 0.00000E+00
 -1        15 2.70668E-03-4.21892E-07 1.03398E-25
 -1        16 2.78360E-03-2.06672E-04 0.00000E+00
 -1        17 2.11478E-04-7.73164E-06 0.00000E+00
 -1        18 1.82911E-04 3.44438E-05 0.00000E+00
 -1        19 1.84504E-04 1.61213E-06 0.00000E+00
 -1        20 1.84643E-04-9.90790E-06 0.00000E+00
 -1        21 1.83750E-04-2.54749E-05 3.30872E-24
 -1        24 3.05947E-05-1.19514E-05 0.00000E+00
 -1        25 1.93707E-04 3.46697E-05 0.00000E+00
 -1        26 1.94384E-04 2.23230E-06 0.00000E+00
 -1        27 1.92184E-04-1.34666E-05 0.00000E+00
 -1        28 1.91869E-04-2.60969E-05 0.00000E+00
 -1        32 0.00000E+00 0.00000E+00 0.00000E+00
 -1        33 2.03264E-04 2.98616E-06 0.00000E+00
 -1        34 2.01145E-04-1.35229E-05 0.00000E+00
 -1        35 1.99213E-04-2.64393E-05 0.00000E+00
 -1        51 2.72863E-03-8.40925E-08-6.61744E-24
 -1        52 2.72732E-03-1.49685E-07-3.30872E-24
 -1        53 2.72556E-03-2.11760E-07 0.00000E+00
 -1        54 2.72345E-03-2.72554E-07 1.65436E-24
 -1        55 2.72114E-03-3.33840E-07-2.48154E-24
 -1        56 2.72106E-03 9.91820E-06 5.29396E-23
 -1        57 2.70430E-03 4.06761E-05 5.29396E-23
 -1        58 2.68156E-03 8.57709E-05 1.05879E-22
 -1        59 2.65601E-03 1.37346E-04 0.00000E+00
 -1        60 2.63152E-03 1.86431E-04 0.00000E+00
 -1        61 2.61182E-03 2.24260E-04 0.00000E+00
 -1        62 2.59945E-03 2.44069E-04-1.05879E-22
 -1        63 2.59602E-03 2.40700E-04 5.29396E-23
 -1        64 2.60126E-03 2.13259E-04 0.00000E+00
 -1        65 2.61409E-03 1.63146E-04 0.00000E+00
 -1        66 2.63228E-03 9.60957E-05 1.05879E-22
 -1        67 2.65334E-03 1.95236E-05 0.00000E+00
 -1        68 2.67447E-03-5.72877E-05 1.05879E-22
 -1        69 2.69290E-03-1.25026E-04 0.00000E+00
 -1        70 2.70608E-03-1.76159E-04 5.29396E-23
 -1        86 1.40340E-03-6.42367E-06 5.29396E-23
 -1        87 1.65717E-03-4.05897E-05 0.00000E+00
 -1        88 1.99842E-03-9.94091E-05-2.64698E-23
 -1        89 2.34446E-03-1.59920E-04 1.32349E-23
 -1        90 2.60977E-03-1.96963E-04 0.00000E+00
 -1       121 3.41788E-04-5.47070E-07 1.32349E-23
 -1       122 3.39100E-04-1.09723E-06 6.61744E-24
 -1       123 3.34632E-04-1.65351E-06 0.00000E+00
 -1       124 3.28399E-04-2.21896E-06 0.00000E+00
 -1       125 3.20423E-04-2.79622E-06 0.00000E+00
 -1       191 1.77159E-04 1.34943E-07 8.27181E-25
 -1       192 1.77313E-04 2.69874E-07-4.13590E-25
 -1       193 1.77570E-04 4.04786E-07 2.48154E-24
 -1       194 1.77929E-04 5.39665E-07 4.13590E-25
 -1       195 1.78392E-04 6.74499E-07-2.48154E-24
 -1       251 2.71844E-03 1.59208E-06 0.00000E+00
 -1       252 2.71814E-03 3.44659E-06 0.00000E+00
 -1       253 2.71784E-03 4.13458E-06-6.61744E-24
 -1       254 2.71753E-03 2.64065E-06 0.00000E+00
 -1       255 2.71722E-03-1.72084E-06 0.00000E+00
 -1       256 2.71688E-03-9.59978E-06 3.30872E-24
 -1       257 2.71651E-03-2.11148E-05 0.00000E+00
 -1       258 2.71610E-03-3.63391E-05-3.30872E-24
 -1       259 2.71563E-03-5.47862E-05 6.61744E-24
 -1       260 2.71511E-03-7.59292E-05 6.61744E-24
 -1       261 2.71455E-03-9.88337E-05 0.00000E+00
 -1       262 2.71398E-03-1.22544E-04-6.61744E-24
 -1       263 2.71341E-03-1.45983E-04 1.32349E-23
 -1       264 2.71286E-03-1.68076E-04 0.00000E+00
 -1       265 2.71237E-03-1.87953E-04 0.00000E+00
 -1       266 2.71673E-03-4.08458E-07 0.00000E+00
 -1       267 2.71472E-03-4.11578E-07 4.13590E-25
 -1       268 2.71271E-03-4.15099E-07 4.13590E-25
 -1       269 2.71070E-03-4.17443E-07 0.00000E+00
 -1       270 2.70869E-03-4.19761E-07 2.06795E-25
 -1       271 2.71796E-03-4.99903E-08 1.32349E-23
 -1       272 2.71819E-03-2.47987E-06-6.61744E-24
 -1       273 2.71940E-03-7.52016E-06-1.32349E-23
 -1       274 2.72150E-03-1.49891E-05 0.00000E+00
 -1       275 2.72441E-03-2.46833E-05 0.00000E+00
 -1       276 2.72805E-03-3.63839E-05 1.32349E-23
 -1       277 2.73233E-03-4.98552E-05 0.00000E+00
 -1       278 2.73715E-03-6.48479E-05 6.61744E-24
 -1       279 2.74243E-03-8.11009E-05 0.00000E+00
 -1       280 2.74806E-03-9.83429E-05 0.00000E+00
 -1       281 2.75395E-03-1.16295E-04-1.32349E-23
 -1       282 2.75999E-03-1.34672E-04 0.00000E+00
 -1       283 2.76607E-03-1.53187E-04 0.00000E+00
 -1       284 2.77210E-03-1.71550E-04 0.00000E+00
 -1       285 2.77798E-03-1.89474E-04-1.32349E-23
 -1       301 2.72492E-03-2.05124E-04-6.61744E-24
 -1       302 2.73626E-03-2.05429E-04 6.61744E-24
 -1       303 2.74686E-03-2.05722E-04-1.32349E-23
 -1       304 2.75765E-03-2.06016E-04 6.61744E-24
 -1       305 2.76958E-03-2.06324E-04 0.00000E+00
 -1       306 2.75008E-03-3.60658E-04 0.00000E+00
 -1       307 2.81394E-03-7.75967E-04 5.29396E-23
 -1       308 2.86050E-03-1.38199E-03-1.05879E-22
 -1       309 2.88441E-03-2.08235E-03 0.00000E+00
 -1       310 2.91601E-03-2.75118E-03 0.00000E+00
 -1       311 2.97572E-03-3.26538E-03 0.00000E+00
 -1       312 3.03324E-03-3.54454E-03-1.05879E-22
 -1       313 3.02733E-03-3.55135E-03 0.00000E+00
 -1       314 2.88406E-03-3.29834E-03 0.00000E+00
 -1       315 2.56285E-03-2.85044E-03 5.29396E-23
 -1       316 2.08263E-03-2.28441E-03 0.00000E+00
 -1       317 1.50988E-03-1.66940E-03 5.29396E-23
 -1       318 9.59239E-04-1.06579E-03 0.00000E+00
 -1       319 5.38812E-04-5.38462E-04 0.00000E+00
 -1       320 2.92237E-04-1.61627E-04-1.05879E-22
 -1       336 2.99152E-04-4.04405E-06 1.32349E-23
 -1       337 2.85490E-04-4.72499E-06 0.00000E+00
 -1       338 2.69815E-04-5.43384E-06-1.32349E-23
 -1       339 2.52198E-04-6.17144E-06 0.00000E+00
 -1       340 2.32722E-04-6.94226E-06-1.32349E-23
 -1       406 1.79624E-04 9.43973E-07 0.00000E+00
 -1       407 1.80395E-04 1.07856E-06-1.65436E-24
 -1       408 1.81268E-04 1.21298E-06-3.30872E-24
 -1       409 1.82245E-04 1.34706E-06 1.24077E-24
 -1       410 1.83324E-04 1.48052E-06 0.00000E+00
 -1       521 2.82236E-03-3.71878E-04-1.05879E-22
 -1       522 2.88439E-03-8.07818E-04 0.00000E+00
 -1       523 2.92433E-03-1.44230E-03 1.05879E-22
 -1       524 2.93877E-03-2.17208E-03 0.00000E+00
 -1       525 2.96226E-03-2.86829E-03 0.00000E+00
 -1       526 3.01838E-03-3.40509E-03-5.29396E-23
 -1       527 3.07550E-03-3.69505E-03 0.00000E+00
 -1       528 3.06721E-03-3.69991E-03 1.05879E-22
 -1       529 2.91149E-03-3.43230E-03 2.11758E-22
 -1       530 2.56548E-03-2.96533E-03-5.29396E-23
 -1       531 2.04896E-03-2.37961E-03 0.00000E+00
 -1       532 1.43504E-03-1.74695E-03 0.00000E+00
 -1       533 8.43989E-04-1.12500E-03 1.05879E-22
 -1       534 3.89304E-04-5.76287E-04-5.29396E-23
 -1       535 1.21007E-04-1.79480E-04 2.11758E-22
 -1       536 2.10723E-04 2.71965E-05 0.00000E+00
 -1       537 2.08804E-04 8.76441E-05 1.65436E-24
 -1       538 2.05840E-04 1.64343E-04 0.00000E+00
 -1       539 2.02343E-04 2.47942E-04 0.00000E+00
 -1       540 1.99196E-04 3.26937E-04-3.30872E-24
 -1       541 1.97151E-04 3.89845E-04 1.65436E-24
 -1       542 1.96207E-04 4.29914E-04 3.30872E-24
 -1       543 1.95982E-04 4.40537E-04-1.65436E-24
 -1       544 1.95660E-04 4.22490E-04 3.30872E-24
 -1       545 1.94487E-04 3.76765E-04-1.65436E-24
 -1       546 1.92301E-04 3.11491E-04 3.30872E-24
 -1       547 1.89343E-04 2.34916E-04 1.65436E-24
 -1       548 1.86411E-04 1.58717E-04 0.00000E+00
 -1       549 1.84296E-04 9.45722E-05-1.65436E-24
 -1       550 1.83197E-04 5.05125E-05 0.00000E+00
 -1       551 1.86275E-04-8.30008E-06 0.00000E+00
 -1       552 1.57827E-04-8.94900E-06 0.00000E+00
 -1       553 1.27076E-04-9.66018E-06 3.30872E-24
 -1       554 9.49821E-05-1.04126E-05-3.30872E-24
 -1       555 6.25034E-05-1.11787E-05 0.00000E+00
 -1       556 2.03829E-04 1.18262E-05-5.29396E-23
 -1       557 1.97649E-04 2.76880E-05 0.00000E+00
 -1       558 1.92804E-04 4.01417E-05 0.00000E+00
 -1       559 1.89161E-04 4.94978E-05-2.64698E-23
 -1       560 1.86590E-04 5.60670E-05 0.00000E+00
 -1       561 1.84964E-04 6.01629E-05 0.00000E+00
 -1       562 1.84155E-04 6.21000E-05 0.00000E+00
 -1       563 1.84042E-04 6.21940E-05 0.00000E+00
 -1       564 1.84501E-04 6.07614E-05 0.00000E+00
 -1       565 1.85412E-04 5.81192E-05 0.00000E+00
 -1       566 1.86655E-04 5.45852E-05 0.00000E+00
 -1       567 1.88111E-04 5.04774E-05 0.00000E+00
 -1       568 1.89662E-04 4.61142E-05 1.65436E-24
 -1       569 1.91190E-04 4.18137E-05 8.27181E-25
 -1       570 1.92577E-04 3.78943E-05 0.00000E+00
 -1       571 1.83008E-04 3.23134E-05-8.27181E-25
 -1       572 1.83106E-04 3.01174E-05 1.24077E-24
 -1       573 1.83205E-04 2.78713E-05-1.65436E-24
 -1       574 1.83305E-04 2.55916E-05 8.27181E-25
 -1       575 1.83404E-04 2.32947E-05 0.00000E+00
 -1       576 1.83504E-04 2.09971E-05 0.00000E+00
 -1       577 1.83603E-04 1.87152E-05 3.30872E-24
 -1       578 1.83703E-04 1.64657E-05 0.00000E+00
 -1       579 1.83802E-04 1.42651E-05 0.00000E+00
 -1       580 1.83902E-04 1.21298E-05 0.00000E+00
 -1       581 1.84002E-04 1.00765E-05 0.00000E+00
 -1       582 1.84102E-04 8.12152E-06 0.00000E+00
 -1       583 1.84203E-04 6.28149E-06-6.61744E-24
 -1       584 1.84303E-04 4.57270E-06 0.00000E+00
 -1       585 1.84404E-04 3.01131E-06 0.00000E+00
 -1       586 1.84669E-04 3.44836E-05-1.65436E-24
 -1       587 1.86386E-04 3.45228E-05-4.13590E-25
 -1       588 1.88105E-04 3.45616E-05 0.00000E+00
 -1       589 1.89870E-04 3.45998E-05 0.00000E+00
 -1       590 1.91723E-04 3.46367E-05 0.00000E+00
 -1       591 1.83641E-04 3.24072E-05 1.03398E-25
 -1       592 1.84374E-04 3.03509E-05-2.06795E-25
 -1       593 1.85113E-04 2.82806E-05 0.00000E+00
 -1       594 1.85854E-04 2.62010E-05-4.13590E-25
 -1       595 1.86596E-04 2.41169E-05 8.27181E-25
 -1       596 1.87339E-04 2.20330E-05 0.00000E+00
 -1       597 1.88080E-04 1.99539E-05 8.27181E-25
 -1       598 1.88817E-04 1.78843E-05 4.13590E-25
 -1       599 1.89549E-04 1.58289E-05 0.00000E+00
 -1       600 1.90273E-04 1.37924E-05-4.13590E-25
 -1       601 1.90990E-04 1.17794E-05 0.00000E+00
 -1       602 1.91695E-04 9.79458E-06-4.13590E-25
 -1       603 1.92389E-04 7.84264E-06-8.27181E-25
 -1       604 1.93069E-04 5.92835E-06-7.75482E-26
 -1       605 1.93733E-04 4.05629E-06 0.00000E+00
 -1       606 1.84517E-04 4.46252E-07 3.30872E-24
 -1       607 1.84527E-04-6.33938E-07 0.00000E+00
 -1       608 1.84536E-04-1.63347E-06-3.30872E-24
 -1       609 1.84544E-04-2.55802E-06 0.00000E+00
 -1       610 1.84553E-04-3.41332E-06 3.30872E-24
 -1       611 1.84561E-04-4.20514E-06 0.00000E+00
 -1       612 1.84569E-04-4.93928E-06 0.00000E+00
 -1       613 1.84577E-04-5.62154E-06 0.00000E+00
 -1       614 1.84586E-04-6.25772E-06-1.65436E-24
 -1       615 1.84594E-04-6.85361E-06 8.27181E-25
 -1       616 1.84603E-04-7.41502E-06 0.00000E+00
 -1       617 1.84611E-04-7.94776E-06 0.00000E+00
 -1       618 1.84619E-04-8.45761E-06 0.00000E+00
 -1       619 1.84628E-04-8.95039E-06 0.00000E+00
 -1       620 1.84636E-04-9.43189E-06 0.00000E+00
 -1       621 1.85865E-04 1.71606E-06 0.00000E+00
 -1       622 1.87384E-04 1.82023E-06 8.27181E-25
 -1       623 1.89029E-04 1.92419E-06 0.00000E+00
 -1       624 1.90767E-04 2.02782E-06-8.27181E-25
 -1       625 1.92563E-04 2.13116E-06-1.65436E-24
 -1       626 1.85053E-04 4.82376E-07-6.61744E-24
 -1       627 1.85580E-04-5.84478E-07-3.30872E-24
 -1       628 1.86086E-04-1.59628E-06 0.00000E+00
 -1       629 1.86575E-04-2.56118E-06 0.00000E+00
 -1       630 1.87049E-04-3.48738E-06 0.00000E+00
 -1       631 1.87512E-04-4.38307E-06-1.65436E-24
 -1       632 1.87967E-04-5.25644E-06 0.00000E+00
 -1       633 1.88416E-04-6.11571E-06-1.65436E-24
 -1       634 1.88863E-04-6.96907E-06 3.30872E-24
 -1       635 1.89311E-04-7.82473E-06 1.65436E-24
 -1       636 1.89763E-04-8.69089E-06 3.30872E-24
 -1       637 1.90222E-04-9.57575E-06 0.00000E+00
 -1       638 1.90691E-04-1.04875E-05 0.00000E+00
 -1       639 1.91173E-04-1.14344E-05 8.27181E-25
 -1       640 1.91670E-04-1.24247E-05 1.65436E-24
 -1       656 1.85352E-04-1.04863E-05 0.00000E+00
 -1       657 1.86480E-04-1.10882E-05-6.61744E-24
 -1       658 1.87888E-04-1.16888E-05 1.32349E-23
 -1       659 1.89431E-04-1.22889E-05 0.00000E+00
 -1       660 1.90924E-04-1.28909E-05 0.00000E+00
 -1       661 1.84909E-04-1.04290E-05 8.27181E-25
 -1       662 1.85211E-04-1.10421E-05 8.27181E-25
 -1       663 1.85547E-04-1.17418E-05 0.00000E+00
 -1       664 1.85912E-04-1.25218E-05 8.27181E-25
 -1       665 1.86306E-04-1.33760E-05-1.65436E-24
 -1       666 1.86725E-04-1.42987E-05 0.00000E+00
 -1       667 1.87168E-04-1.52841E-05 0.00000E+00
 -1       668 1.87632E-04-1.63267E-05 0.00000E+00
 -1       669 1.88115E-04-1.74210E-05 1.65436E-24
 -1       670 1.88616E-04-1.85616E-05-8.27181E-25
 -1       671 1.89132E-04-1.97435E-05 0.00000E+00
 -1       672 1.89661E-04-2.09615E-05 0.00000E+00
 -1       673 1.90202E-04-2.22105E-05 1.65436E-24
 -1       674 1.90752E-04-2.34859E-05 0.00000E+00
 -1       675 1.91310E-04-2.47824E-05 2.06795E-25
 -1       676 1.85108E-04-2.55792E-05 0.00000E+00
 -1       677 1.86465E-04-2.56834E-05 1.65436E-24
 -1       678 1.87821E-04-2.57876E-05 0.00000E+00
 -1       679 1.89174E-04-2.58914E-05 0.00000E+00
 -1       680 1.90524E-04-2.59953E-05 0.00000E+00
 -1       771 1.86381E-05 1.47889E-05 0.00000E+00
 -1       772 8.57937E-06 3.67505E-05 0.00000E+00
 -1       773 3.27740E-07 5.41636E-05-5.29396E-23
 -1       774-6.24121E-06 6.72864E-05 2.64698E-23
 -1       775-1.12492E-05 7.63873E-05 5.29396E-23
 -1       776-1.48229E-05 8.17517E-05 0.00000E+00
 -1       777-1.70887E-05 8.36750E-05-5.29396E-23
 -1       778-1.81757E-05 8.24664E-05-2.64698E-23
 -1       779-1.82121E-05 7.84436E-05 0.00000E+00
 -1       780-1.73284E-05 7.19359E-05-2.64698E-23
 -1       781-1.56540E-05 6.32792E-05 0.00000E+00
 -1       782-1.33200E-05 5.28184E-05 0.00000E+00
 -1       783-1.04565E-05 4.09029E-05 0.00000E+00
 -1       784-7.19474E-06 2.78885E-05 2.64698E-23
 -1       785-3.66521E-06 1.41338E-05-5.29396E-23
 -1       786 1.93745E-04 3.24143E-05 0.00000E+00
 -1       787 1.93786E-04 3.02091E-05 4.13590E-25
 -1       788 1.93828E-04 2.80458E-05 0.00000E+00
 -1       789 1.93870E-04 2.59161E-05 0.00000E+00
 -1       790 1.93912E-04 2.38153E-05-1.65436E-24
 -1       791 1.93955E-04 2.17386E-05-8.27181E-25
 -1       792 1.93998E-04 1.96840E-05 0.00000E+00
 -1       793 1.94040E-04 1.76490E-05 8.27181E-25
 -1       794 1.94083E-04 1.56336E-05 0.00000E+00
 -1       795 1.94126E-04 1.36375E-05 8.27181E-25
 -1       796 1.94169E-04 1.16627E-05 1.65436E-24
 -1       797 1.94212E-04 9.71095E-06-8.27181E-25
 -1       798 1.94255E-04 7.78645E-06-1.65436E-24
 -1       799 1.94298E-04 5.89352E-06 8.27181E-25
 -1       800 1.94341E-04 4.03961E-06 0.00000E+00
 -1       801 1.47895E-04 3.11685E-05 0.00000E+00
 -1       802 9.38278E-06 1.94450E-05 2.64698E-23
 -1       803-1.08922E-04 9.82280E-06 0.00000E+00
 -1       804-9.65362E-05 6.83750E-06 0.00000E+00
 -1       805-3.18943E-05 2.68625E-06 0.00000E+00
 -1       806 1.94437E-04 3.23456E-05 1.65436E-24
 -1       807 1.95153E-04 3.00477E-05 0.00000E+00
 -1       808 1.95857E-04 2.77813E-05 3.30872E-24
 -1       809 1.96548E-04 2.55505E-05-1.65436E-24
 -1       810 1.97223E-04 2.33592E-05 0.00000E+00
 -1       811 1.97882E-04 2.12114E-05 0.00000E+00
 -1       812 1.98524E-04 1.91111E-05 3.30872E-24
 -1       813 1.99146E-04 1.70621E-05-1.65436E-24
 -1       814 1.99747E-04 1.50684E-05 3.30872E-24
 -1       815 2.00327E-04 1.31338E-05-8.27181E-25
 -1       816 2.00883E-04 1.12623E-05-1.65436E-24
 -1       817 2.01414E-04 9.45772E-06 0.00000E+00
 -1       818 2.01919E-04 7.72398E-06-1.65436E-24
 -1       819 2.02396E-04 6.06493E-06 1.65436E-24
 -1       820 2.02844E-04 4.48440E-06-3.30872E-24
 -1       821 1.94255E-04-1.31462E-07 1.65436E-24
 -1       822 1.94115E-04-3.64925E-06 0.00000E+00
 -1       823 1.93973E-04-7.89297E-06 0.00000E+00
 -1       824 1.93828E-04-1.24300E-05 1.65436E-24
 -1       825 1.93683E-04-1.67484E-05 0.00000E+00
 -1       826 1.93542E-04-2.03375E-05 0.00000E+00
 -1       827 1.93403E-04-2.28853E-05 0.00000E+00
 -1       828 1.93266E-04-2.40861E-05 1.65436E-24
 -1       829 1.93131E-04-2.40010E-05 0.00000E+00
 -1       830 1.92994E-04-2.26988E-05 1.65436E-24
 -1       831 1.92857E-04-2.05797E-05 0.00000E+00
 -1       832 1.92718E-04-1.80487E-05 1.65436E-24
 -1       833 1.92580E-04-1.56234E-05 3.30872E-24
 -1       834 1.92445E-04-1.38204E-05 1.65436E-24
 -1       835 1.92310E-04-1.29876E-05-8.27181E-25
 -1       836 1.96077E-04 2.35731E-06 0.00000E+00
 -1       837 1.97642E-04 2.48547E-06-1.65436E-24
 -1       838 1.99112E-04 2.61356E-06 0.00000E+00
 -1       839 2.00518E-04 2.74096E-06 0.00000E+00
 -1       840 2.01891E-04 2.86820E-06 0.00000E+00
 -1       856 1.92168E-04-1.45310E-05-8.27181E-25
 -1       857 1.92149E-04-1.54597E-05 5.16988E-26
 -1       858 1.92130E-04-1.62737E-05-2.06795E-25
 -1       859 1.92110E-04-1.69944E-05 0.00000E+00
 -1       860 1.92090E-04-1.76428E-05 0.00000E+00
 -1       861 1.92071E-04-1.82402E-05 0.00000E+00
 -1       862 1.92051E-04-1.88079E-05-4.13590E-25
 -1       863 1.92031E-04-1.93673E-05 0.00000E+00
 -1       864 1.92012E-04-1.99397E-05 0.00000E+00
 -1       865 1.91992E-04-2.05465E-05 0.00000E+00
 -1       866 1.91972E-04-2.12088E-05-8.27181E-25
 -1       867 1.91952E-04-2.19481E-05-4.13590E-25
 -1       868 1.91932E-04-2.27854E-05-8.27181E-25
 -1       869 1.91912E-04-2.37420E-05 0.00000E+00
 -1       870 1.91891E-04-2.48388E-05-8.27181E-25
 -1       871 1.93536E-04-1.34716E-05 8.27181E-25
 -1       872 1.95036E-04-1.34799E-05 0.00000E+00
 -1       873 1.96615E-04-1.34889E-05 0.00000E+00
 -1       874 1.98205E-04-1.34987E-05 2.84343E-25
 -1       875 1.99737E-04-1.35091E-05 1.44757E-24
 -1       876 1.92710E-04-1.45164E-05 0.00000E+00
 -1       877 1.93214E-04-1.54994E-05 1.65436E-24
 -1       878 1.93697E-04-1.64236E-05-3.30872E-24
 -1       879 1.94160E-04-1.72964E-05 0.00000E+00
 -1       880 1.94607E-04-1.81251E-05-3.30872E-24
 -1       881 1.95041E-04-1.89171E-05 0.00000E+00
 -1       882 1.95463E-04-1.96799E-05 0.00000E+00
 -1       883 1.95877E-04-2.04207E-05 0.00000E+00
 -1       884 1.96286E-04-2.11468E-05 0.00000E+00
 -1       885 1.96692E-04-2.18656E-05-1.65436E-24
 -1       886 1.97098E-04-2.25845E-05 0.00000E+00
 -1       887 1.97506E-04-2.33108E-05 0.00000E+00
 -1       888 1.97920E-04-2.40518E-05 0.00000E+00
 -1       889 1.98342E-04-2.48150E-05 0.00000E+00
 -1       890 1.98774E-04-2.56078E-05 1.65436E-24
 -1       891 1.93236E-04-2.61544E-05-1.65436E-24
 -1       892 1.94578E-04-2.62121E-05-8.27181E-25
 -1       893 1.95872E-04-2.62697E-05-8.27181E-25
 -1       894 1.97093E-04-2.63270E-05 8.27181E-25
 -1       895 1.98215E-04-2.63841E-05 0.00000E+00
 -1       956 2.03133E-04 1.66258E-06-3.30872E-24
 -1       957 2.03001E-04 4.30582E-07 8.27181E-25
 -1       958 2.02868E-04-7.20594E-07 0.00000E+00
 -1       959 2.02735E-04-1.80228E-06 0.00000E+00
 -1       960 2.02603E-04-2.82589E-06 3.30872E-24
 -1       961 2.02470E-04-3.80282E-06 0.00000E+00
 -1       962 2.02337E-04-4.74452E-06-3.30872E-24
 -1       963 2.02204E-04-5.66244E-06 1.65436E-24
 -1       964 2.02071E-04-6.56804E-06 3.30872E-24
 -1       965 2.01939E-04-7.47275E-06-1.65436E-24
 -1       966 2.01806E-04-8.38805E-06 0.00000E+00
 -1       967 2.01673E-04-9.32538E-06-1.65436E-24
 -1       968 2.01540E-04-1.02962E-05 0.00000E+00
 -1       969 2.01408E-04-1.13118E-05 0.00000E+00
 -1       970 2.01276E-04-1.23838E-05 3.30872E-24
 -1       971 2.01025E-04-1.46617E-05 3.30872E-24
 -1       972 2.00904E-04-1.57059E-05 0.00000E+00
 -1       973 2.00783E-04-1.66661E-05 0.00000E+00
 -1       974 2.00661E-04-1.75529E-05 1.65436E-24
 -1       975 2.00540E-04-1.83774E-05-3.30872E-24
 -1       976 2.00419E-04-1.91502E-05 0.00000E+00
 -1       977 2.00297E-04-1.98824E-05 0.00000E+00
 -1       978 2.00176E-04-2.05849E-05 0.00000E+00
 -1       979 2.00054E-04-2.12684E-05 0.00000E+00
 -1       980 1.99933E-04-2.19439E-05-1.65436E-24
 -1       981 1.99812E-04-2.26223E-05-3.30872E-24
 -1       982 1.99691E-04-2.33146E-05 0.00000E+00
 -1       983 1.99569E-04-2.40316E-05 0.00000E+00
 -1       984 1.99449E-04-2.47841E-05 0.00000E+00
 -1       985 1.99329E-04-2.55832E-05-3.30872E-24
 -3
    1PSTEP                        26          13           1          
  100CL  113 6.62796E-01         409                     0   13           1
 -4  STRESS      6    1
 -5  SXX         1    4    1    1
 -5  SYY         1    4    2    2
 -5  SZZ         1    4    3    3
 -5  SXY         1    4    1    2
 -5  SYZ         1    4    2    3
 -5  SZX         1    4    3    1
 -1         1-5.34853E+06-1.55667E+06-1.13153E+06-1.30593E+06 9.16771E-10 8.92323E-08
 -1         2 1.57137E+06 2.29776E+07 5.32408E+06 6.97166E+06 2.84927E-08-5.09026E-08
 -1         3-1.48729E+03-1.55328E+06 4.04795E+02-2.20410E+03-6.42444E-10 3.29164E-08
 -1         5-7.54635E+01 3.86422E+05 9.98136E+00-1.34434E+00-3.72870E-10 1.82190E-08
 -1         8-5.49306E+05-1.99243E+05-6.16918E+04-2.40859E+05 1.69166E-10-1.68267E-07
 -1         9 1.18432E+07 4.03750E+06 2.84217E+06-2.74671E+05 6.08852E-09 8.98726E-09
 -1        10-2.30239E+03-1.61864E+06-3.93432E+03-1.49151E+04-1.37243E-08-3.82038E-08
 -1        12-7.15458E+01 3.86444E+05 3.28127E+02-9.16301E+00-6.33694E-10 1.89748E-08
 -1        15 9.43455E+02 5.14583E+02 2.99238E+03 8.28032E-01-5.29639E-11-3.72948E-07
 -1        16 2.29343E+07-3.40894E+05 3.11903E+06-2.31390E+06 2.79979E-08 6.35628E-08
 -1        17 8.40129E+06 6.29305E+06 2.26891E+06 6.01873E+06 2.42202E-08 2.40630E-08
 -1        18 1.42404E+05 3.35401E+04 4.16987E+03-1.19560E+05 1.34478E-08 1.21795E-08
 -1        19 1.22426E+05 1.41676E+05-9.44732E+02 2.19661E+04 1.64655E-09-4.61187E-09
 -1        20-8.20479E+04-5.73742E+05-1.28749E+05 2.50740E+04-2.98769E-09 3.47124E-09
 -1        21-4.55556E+01-2.95937E+05-9.23642E+02 2.75613E+02 1.28708E-08-2.00508E-08
 -1        24 1.41023E+07 1.21366E+07 3.90210E+06 1.12361E+07-1.63525E-07-5.34152E-08
 -1        25 1.25152E+05 2.68346E+05 1.00239E+05-6.46434E+05 7.87622E-10-1.84173E-09
 -1        26-5.55071E+04 9.22752E+04-2.46551E+04 1.34308E+03 2.29193E-11 7.34389E-09
 -1        27-7.55412E+04-3.09959E+05-1.13303E+05 6.89729E+04 3.62813E-09-7.07344E-09
 -1        28 2.22338E+04-8.53375E+04 1.68942E+04 2.05894E+04-2.92431E-09 2.87947E-10
 -1        32-1.68013E+06-3.18151E+06-1.97679E+05 4.59229E+05-4.32701E-08-1.01859E-08
 -1        33-1.78485E+05 9.30154E+04 3.23906E+04-3.84428E+04-2.93130E-09 1.92864E-08
 -1        34-2.23593E+05-2.50378E+04 6.90294E+02 7.56752E+04-6.08478E-09 1.03755E-08
 -1        35-2.29238E+04-3.38427E+04-1.34832E+03 5.14838E+04-3.00261E-09 9.73523E-09
 -1        51 6.09811E+04-1.69649E+05 1.28894E+05-4.30994E+05 1.45519E-11 1.35216E-07
 -1        52 2.06020E+04-1.47072E+05 6.75750E+04-5.02679E+05 1.22782E-10-2.28320E-08
 -1        53 4.14945E+03-1.62420E+05 3.51028E+04-4.29520E+05 2.03727E-10 5.29544E-08
 -1        54 7.25746E+03-1.58164E+05 2.86649E+04-5.04117E+05-6.91216E-11-1.56651E-07
 -1        55 1.58849E+04-1.65120E+05 3.46610E+04-4.29438E+05 4.03816E-10 1.80697E-07
 -1        56-9.82585E+06-1.41529E+06-9.33094E+05-4.12694E+06 2.51457E-08-7.80856E-08
 -1        57-1.11664E+07-7.20590E+05-5.42501E+05-2.62898E+06 4.67990E-08-1.25874E-07
 -1        58-9.57846E+06-1.89777E+06-2.02356E+05-4.34116E+06 1.64800E-08 2.10435E-07
 -1        59-1.14110E+07-1.56515E+05-1.06070E+05-2.55113E+06 5.38489E-08-7.29633E-08
 -1        60-9.68004E+06-1.90070E+06-5.98100E+04-4.29151E+06-3.65326E-08 2.04964E-08
 -1        61-1.06613E+07-5.36430E+05 2.52208E+04-2.80747E+06 4.22478E-08 3.42625E-08
 -1        62-1.01630E+07-1.62962E+06-9.10522E+04-3.95241E+06 3.76167E-08 5.38421E-10
 -1        63-9.63088E+06-1.33594E+06 6.92037E+04-3.57751E+06 4.68572E-09 1.54367E-07
 -1        64-1.05754E+07-1.19770E+06-8.39024E+04-3.43697E+06 1.54832E-08 7.62957E-08
 -1        65-9.24153E+06-2.00518E+06 2.12775E+04-4.60716E+06-5.91390E-08-4.65325E-08
 -1        66-1.07068E+07-8.53156E+05-4.83408E+04-3.03989E+06 5.16593E-10 1.23779E-07
 -1        67-9.28496E+06-2.27986E+06-9.53079E+04-5.10034E+06-6.83758E-08-2.91202E-08
 -1        68-1.06869E+07-8.13622E+05-1.88723E+05-3.03902E+06-5.13828E-08 7.20756E-08
 -1        69-9.43505E+06-2.34379E+06-4.80832E+05-4.57539E+06-4.47908E-08 1.26893E-08
 -1        70-1.04118E+07-9.03303E+05-8.59123E+05-3.47162E+06 3.46408E-08-1.17114E-07
 -1        86-1.60359E+06-1.61623E+07-2.91569E+06-3.27088E+06-2.74773E-07 2.35450E-08
 -1        87 2.53493E+06 6.67776E+06 2.42451E+06 5.98631E+06-4.75440E-07-2.32176E-08
 -1        88-4.84327E+05-1.88731E+06 2.30975E+05-2.63572E+06-4.23157E-07-1.19626E-07
 -1        89 3.39295E+06 6.35815E+06 2.48598E+06 6.19241E+06-6.05469E-07-1.81800E-07
 -1        90-2.36001E+06-1.59240E+07-3.14541E+06-3.50928E+06-1.38116E-07 3.64234E-08
 -1       121-2.03727E+03-1.55818E+06-5.48002E+02 1.09242E+03 1.45094E-09-8.36008E-09
 -1       122-1.30216E+03-1.55334E+06 7.67167E+02-4.41239E+03-5.41105E-09-2.47819E-08
 -1       123-2.05701E+03-1.55832E+06 2.57150E+02 3.26265E+03 4.46414E-09-3.66636E-08
 -1       124 3.28543E+02-1.55290E+06 2.93908E+03-9.23496E+03-1.00308E-08-4.48199E-08
 -1       125-2.86324E+03-1.55921E+06 3.44482E+03 5.86903E+03 6.71571E-09-9.80071E-09
 -1       191-7.95236E+01 3.86440E+05 8.47669E+00 7.01032E-01-5.96545E-10 1.03482E-08
 -1       192-7.64273E+01 3.86423E+05 2.13005E+01-4.31054E+00-8.42863E-10-2.25555E-10
 -1       193-8.20605E+01 3.86440E+05 3.62537E+01 3.78621E+00-1.07977E-09-1.69894E-08
 -1       194-7.95173E+01 3.86426E+05 8.09762E+01-9.78156E+00-6.51898E-10-1.54323E-08
 -1       195-8.69298E+01 3.86438E+05 1.55021E+02 6.36610E+00-1.56520E-09 1.26238E-09
 -1       251-8.62695E+05 1.61934E+04-3.77945E+04-1.47043E+04 3.93599E-09-3.07664E-08
 -1       252-8.76886E+05-1.87451E+04-2.62745E+04 5.22352E+04 1.73698E-08 1.53321E-07
 -1       253-8.71226E+05 2.48537E+03-1.02040E+04-1.03631E+04-1.39075E-08-1.08079E-07
 -1       254-8.63114E+05-3.02542E+03-4.46599E+03 3.72168E+04 2.09907E-08-1.87094E-07
 -1       255-8.75816E+05 3.77904E+01-3.60227E+03 3.10066E+02-3.33898E-09 1.19777E-07
 -1       256-8.57455E+05-2.70162E+02 1.32143E+03 1.29936E+04 9.72022E-10 1.48835E-07
 -1       257-8.76416E+05-6.17268E+02-1.47087E+03 1.38475E+04-3.19733E-09-2.80751E-08
 -1       258-8.60463E+05 9.58385E+02 2.82699E+03-1.24767E+04-7.65021E-09 3.02612E-08
 -1       259-8.73071E+05-9.88071E+02 1.33476E+03 2.57777E+04-1.20281E-09 9.40008E-09
 -1       260-8.67299E+05 3.03826E+03 5.63241E+03-3.08541E+04 9.31163E-09 3.87004E-08
 -1       261-8.70255E+05-2.17685E+03 8.68580E+03 3.22428E+04 2.86399E-08 5.80676E-08
 -1       262-8.66154E+05 1.19360E+04 2.15863E+04-3.62428E+04-1.79852E-09-7.89260E-08
 -1       263-8.74485E+05-9.64406E+03 3.41824E+04 3.11769E+04 3.62223E-09 8.43065E-08
 -1       264-8.35255E+05 6.73758E+04 9.47168E+04-2.67758E+04 4.46921E-08 1.25501E-07
 -1       265-9.00632E+05-5.77680E+04 1.31756E+05 2.27622E+04 3.77103E-08 1.78297E-07
 -1       266-1.68492E+04-7.83908E+03 3.92253E+04-1.73962E+01 5.82077E-11 6.15796E-08
 -1       267 1.95227E+04 9.14297E+03 2.77735E+04 2.00404E+01 4.18368E-11-2.46240E-07
 -1       268-2.63762E+03-1.30154E+03 1.03030E+04-2.57960E+00-5.95719E-11-1.28196E-08
 -1       269 3.11381E+03 1.55895E+03 6.71388E+03 3.00201E+00-1.66438E-10 3.52209E-09
 -1       270-4.71076E+02-2.57292E+02 3.23284E+03-4.12759E-01 1.30512E-10 6.55059E-08
 -1       271-1.45626E+06-1.86125E+05-1.09505E+05-5.67105E+05 1.21327E-09 5.34492E-08
 -1       272-1.44754E+06-3.00778E+05-6.86019E+04-6.08836E+05-2.48638E-08 1.48307E-07
 -1       273-1.47950E+06-2.09084E+05-2.66216E+04-5.59074E+05-2.37414E-08 3.18869E-08
 -1       274-1.42130E+06-2.73065E+05-1.37483E+04-6.24217E+05-4.20987E-08-3.82995E-07
 -1       275-1.48511E+06-2.08477E+05-6.67076E+03-5.55270E+05 3.04863E-08-4.29827E-08
 -1       276-1.41588E+06-2.74104E+05-2.75838E+03-6.33063E+05-2.07947E-08 9.35761E-08
 -1       277-1.48797E+06-2.05764E+05-1.85761E+03-5.52516E+05-3.88500E-08-1.95730E-07
 -1       278-1.41385E+06-2.77311E+05-6.75034E+02-6.39554E+05 1.82945E-08-1.69737E-07
 -1       279-1.48978E+06-2.03575E+05-8.37531E+02-5.50597E+05-2.68610E-08-1.49698E-08
 -1       280-1.41294E+06-2.79684E+05-9.21860E+02-6.43783E+05-2.76036E-08 1.47262E-07
 -1       281-1.49073E+06-2.02225E+05-1.70772E+03-5.49532E+05-1.51276E-08-6.30889E-08
 -1       282-1.41331E+06-2.81743E+05-3.96558E+03-6.45473E+05-6.43172E-08-1.98209E-07
 -1       283-1.49026E+06-2.01087E+05-7.06205E+03-5.49431E+05-1.80906E-08 6.40694E-09
 -1       284-1.41967E+06-2.90896E+05-1.92291E+04-6.43269E+05 4.22840E-08-1.19690E-07
 -1       285-1.48422E+06-1.94222E+05-3.00659E+04-5.51200E+05-3.43689E-08-1.95345E-07
 -1       301-9.14709E+03-6.51564E+05 1.66578E+05-1.14746E+06 2.12312E-08-1.30662E-07
 -1       302-1.14292E+04-6.04280E+05 1.00250E+05-1.67456E+06-9.02219E-09-1.04221E-07
 -1       303-2.33995E+04-6.44567E+05 5.65172E+04-1.14428E+06-3.61615E-09 5.16484E-08
 -1       304-2.71837E+04-6.11772E+05 5.66560E+04-1.67402E+06-5.48607E-09 1.87956E-07
 -1       305-2.78638E+04-6.33203E+05 6.93670E+04-1.14737E+06 1.18271E-08 5.04951E-09
 -1       306-3.01170E+07-6.21177E+06-8.60440E+06-4.77016E+05-9.06875E-08 8.25094E-08
 -1       307 2.52320E+07 3.29390E+06 5.50035E+06-1.52977E+07-9.01855E-07 1.22702E-07
 -1       308-6.89531E+06-1.00575E+06-4.28879E+05 5.20879E+06-2.15659E-07-1.61526E-09
 -1       309-3.16312E+06 8.73016E+06 2.29703E+06-2.07129E+07 4.50906E-07 1.51580E-07
 -1       310-1.26882E+07-1.95892E+06-2.07336E+06 5.21580E+06-5.56465E-08-1.29236E-07
 -1       311 3.87587E+07-1.14327E+04 7.32601E+06-8.67681E+06 4.61761E-07 8.26549E-09
 -1       312-3.19972E+07-6.83428E+06-8.57431E+06-5.13703E+06 2.25031E-07-1.37559E-07
 -1       313 4.53766E+07 1.52408E+07 1.06951E+07 2.39836E+07-2.57976E-07 1.61555E-07
 -1       314-1.71284E+07-1.78902E+07-7.52786E+06-1.25384E+07 4.52506E-07-1.60653E-07
 -1       315-1.97873E+06 2.98363E+07 5.66244E+06 1.04127E+07-4.50818E-07 1.65892E-07
 -1       316 1.44908E+06-9.81926E+06-4.22277E+05-2.47753E+06-1.32206E-06-7.04604E-08
 -1       317-1.70837E+07 2.24463E+07 2.24974E+06-8.90915E+06 6.09201E-07-8.75938E-07
 -1       318-1.09429E+06-1.28710E+07-2.07239E+06-4.24518E+06-9.29576E-07 1.48721E-07
 -1       319 7.32737E+06 3.21250E+07 7.08091E+06 1.67171E+07-6.55127E-08 2.81492E-07
 -1       320-2.26613E+07-1.77013E+07-9.89154E+06-1.28502E+07 1.81491E-07-4.98258E-08
 -1       336-7.51880E+02-1.68678E+06-1.38059E+04 8.87634E+03-2.65500E-08-1.98634E-08
 -1       337-5.39800E+03-1.68631E+06-1.80105E+04-2.15674E+04-4.94792E-08-2.73321E-08
 -1       338 2.66048E+02-1.68627E+06-2.83772E+04 1.24399E+04-3.46236E-08-2.89219E-09
 -1       339-3.01154E+04-1.70349E+06-6.41266E+04-2.85495E+04-6.26414E-08 3.61251E-08
 -1       340 1.98242E+04-1.67178E+06-1.01023E+05 1.57277E+04-4.10328E-08 3.66126E-08
 -1       406-4.98505E+01 3.86423E+05 6.44265E+02 3.35188E+00-1.86839E-09 4.24188E-09
 -1       407 1.54716E+02 3.86557E+05 1.37686E+03 2.34373E+01-4.57391E-10-1.27466E-08
 -1       408 6.34852E+02 3.86323E+05 2.74533E+03-2.71085E+01-2.39515E-09-1.97597E-08
 -1       409 2.90730E+03 3.87434E+05 6.18774E+03 2.89407E+02-3.38446E-10-3.65981E-09
 -1       410 8.48113E+03 3.85532E+05 1.26289E+04-2.79080E+02-2.94676E-09-9.18044E-09
 -1       521-3.17228E+07-7.68991E+06-1.00809E+07-7.91307E+04-7.53207E-08-1.19908E-08
 -1       522 2.61628E+07 4.35775E+06 5.62505E+06-1.88530E+07-6.19795E-07-2.13273E-07
 -1       523-7.46577E+06-1.32410E+06-4.20264E+05 5.66817E+06-3.94939E-08-2.53131E-07
 -1       524-6.66967E+06 1.18471E+07 2.49277E+06-2.38208E+07 7.91981E-07-4.81039E-07
 -1       525-1.34915E+07-2.61194E+06-2.28588E+06 5.68282E+06 5.76256E-07-2.34519E-07
 -1       526 4.24470E+07-1.13842E+05 7.70611E+06-1.13376E+07 4.45929E-07-2.58791E-07
 -1       527-3.39134E+07-8.55764E+06-9.90959E+06-5.00656E+06 3.86615E-07 4.83851E-08
 -1       528 4.96596E+07 1.70584E+07 1.11827E+07 2.73547E+07-4.52274E-08 1.74128E-07
 -1       529-1.80844E+07-2.01588E+07-8.65355E+06-1.25822E+07-4.31901E-08 2.50293E-08
 -1       530-4.47044E+06 3.47368E+07 6.00912E+06 9.83927E+06-7.62084E-08 4.31377E-07
 -1       531 1.46219E+06-1.09024E+07-3.93574E+05-2.40647E+06-9.26724E-07 4.11237E-07
 -1       532-1.95761E+07 2.44797E+07 2.46669E+06-1.32835E+07 3.40617E-07-6.10715E-07
 -1       533-1.13273E+06-1.40523E+07-2.21515E+06-4.03480E+06-2.79600E-07-1.03744E-06
 -1       534 5.34491E+06 3.73954E+07 7.38907E+06 1.73391E+07-9.58098E-08 7.01926E-07
 -1       535-2.38827E+07-2.01568E+07-1.13714E+07-1.29408E+07 6.82194E-08 4.69328E-07
 -1       536-7.06217E+05-4.66673E+04-4.84362E+04-5.47068E+04-3.53066E-09 4.47435E-08
 -1       537-5.48173E+04 4.45905E+04 8.37922E+04 1.23896E+05-1.08766E-07 9.62500E-08
 -1       538-3.94413E+05 3.36277E+03 3.49274E+03-7.22272E+04 2.94658E-08 9.46516E-08
 -1       539-2.69005E+05 2.83718E+03 2.48932E+04 1.38790E+05 1.51145E-07 1.08240E-07
 -1       540-4.97410E+05-4.26075E+02-2.13514E+04-7.01358E+04 7.19001E-09 1.08198E-07
 -1       541 1.46950E+05 1.69784E+04 1.06437E+05 9.79709E+04 2.43599E-08 7.86772E-08
 -1       542-7.99160E+05-2.01459E+04-8.42880E+04-3.05322E+04 3.67900E-08 3.74440E-08
 -1       543 4.05782E+05 2.73404E+04 1.58058E+05-1.33663E+04-1.60762E-08-1.76542E-08
 -1       544-7.49301E+05-1.65466E+04-7.48793E+04 4.05313E+04-1.28193E-09-4.58641E-08
 -1       545 2.91957E+04 9.48971E+03 7.98561E+04-1.13668E+05-3.61284E-08-9.16325E-08
 -1       546-4.32687E+05 6.09864E+03-1.22356E+04 6.94233E+04 2.49479E-08-1.03983E-07
 -1       547-2.87082E+05-4.65610E+03 1.05970E+04-1.41636E+05-1.28554E-07-1.11189E-07
 -1       548-4.41526E+05 4.72034E+03-2.38883E+04 6.91905E+04-1.07586E-07-9.49376E-08
 -1       549 4.83867E+04 1.60967E+04 6.05699E+04-1.11530E+05-6.55772E-08-7.53416E-08
 -1       550-7.59180E+05-2.21662E+04-1.29013E+05 3.86009E+04 4.69208E-09-4.01669E-08
 -1       551 4.07563E+04-7.48820E+05-1.59412E+04-1.24666E+06-1.02184E-07-5.41331E-09
 -1       552 9.32107E+04-7.93793E+05 9.87906E+03-1.77755E+06-7.23812E-08 2.33340E-08
 -1       553 7.17305E+04-7.90204E+05 3.19960E+04-1.24002E+06-1.23255E-07 2.19879E-08
 -1       554 1.31999E+05-8.09705E+05 8.09818E+04-1.77950E+06-7.89587E-08 2.74631E-08
 -1       555 1.01466E+05-8.13860E+05 1.47908E+05-1.23984E+06-1.24463E-07-1.27729E-08
 -1       556 2.23784E+05-3.83801E+05 2.54984E+04-4.07276E+05-2.68046E-08-2.31666E-08
 -1       557 3.54329E+05-4.88160E+05 1.60185E+04-5.27760E+05 3.62343E-09 6.20275E-09
 -1       558 2.05532E+05-3.76546E+05 2.26649E+03-4.11751E+05-1.85100E-08-1.38971E-09
 -1       559 3.29332E+05-4.88194E+05 2.41269E+03-5.48221E+05 2.26719E-08 1.04992E-08
 -1       560 1.90217E+05-3.66942E+05-1.51923E+03-4.22788E+05 9.95351E-09 1.28784E-08
 -1       561 3.10093E+05-4.80492E+05 1.23408E+02-5.61340E+05 8.06176E-09 1.95723E-09
 -1       562 1.78108E+05-3.59420E+05-1.33067E+03-4.31556E+05 3.36149E-09-1.60835E-08
 -1       563 2.95712E+05-4.74222E+05-3.85544E+01-5.70733E+05-2.80852E-09-6.14455E-09
 -1       564 1.69467E+05-3.54036E+05-6.02057E+02-4.37679E+05 5.57338E-09-5.56065E-09
 -1       565 2.86172E+05-4.70067E+05 2.33884E+01-5.76828E+05 1.61526E-08-4.78531E-09
 -1       566 1.64415E+05-3.50840E+05-2.60784E+02-4.41213E+05 5.28962E-09-5.11500E-09
 -1       567 2.81535E+05-4.68050E+05-3.63503E+02-5.79645E+05 2.00162E-08 8.33097E-09
 -1       568 1.63043E+05-3.50000E+05-1.12779E+03-4.42268E+05 5.18412E-11 5.75528E-09
 -1       569 2.80411E+05-4.67977E+05-2.84818E+03-5.78216E+05-7.44240E-09 1.53268E-08
 -1       570 1.66446E+05-3.53238E+05-6.22584E+03-4.41247E+05 1.04847E-08 1.50339E-08
 -1       571 2.90581E+05 1.05102E+04 1.49918E+04-9.52997E+04-1.64055E-08 1.26547E-08
 -1       572 2.92754E+05 3.96269E+03 7.34717E+03-1.04554E+05-3.93538E-08-1.92176E-09
 -1       573 2.91444E+05 1.24765E+03 3.26459E+03-9.51232E+04-1.50685E-08 4.94765E-09
 -1       574 2.91658E+05 7.29243E+02 1.63717E+03-1.04778E+05 2.82557E-09-1.22782E-09
 -1       575 2.91538E+05 4.49816E+02 7.72704E+02-9.50990E+04-2.62756E-09 7.59155E-09
 -1       576 2.91522E+05 4.61304E+02 3.95632E+02-1.04808E+05-1.12561E-08-2.60570E-09
 -1       577 2.91578E+05 3.91622E+02 1.97515E+02-9.50957E+04-9.82800E-09 1.06584E-08
 -1       578 2.91553E+05 4.23116E+02 1.14132E+02-1.04812E+05-1.08171E-08-4.38013E-09
 -1       579 2.91650E+05 3.54775E+02 7.84346E+01-9.50954E+04 6.20821E-09-8.97307E-09
 -1       580 2.91655E+05 3.71894E+02 9.11145E+01-1.04808E+05-1.15169E-08-7.97991E-09
 -1       581 2.91765E+05 2.95987E+02 1.37688E+02-9.51013E+04 4.70391E-09-6.09452E-09
 -1       582 2.91831E+05 3.34367E+02 2.80001E+02-1.04746E+05 3.56886E-09-8.11269E-10
 -1       583 2.91905E+05 3.38475E+02 5.37443E+02-9.51580E+04 1.47702E-09-1.43791E-09
 -1       584 2.92207E+05 7.77484E+02 1.21621E+03-1.04269E+05 1.01554E-08-1.26311E-08
 -1       585 2.91932E+05 1.80101E+03 2.46277E+03-9.55777E+04 2.74304E-09-5.53700E-09
 -1       586-3.42358E+03 1.17009E+05-2.91059E+03-2.50733E+05-5.50472E-09 1.05822E-08
 -1       587-1.34039E+03 1.16762E+05 7.76282E+02-2.75950E+05-6.13363E-09-2.16187E-09
 -1       588 3.97277E+02 1.16567E+05 4.76541E+03-2.50594E+05-3.99268E-09 5.42150E-09
 -1       589 5.08734E+03 1.19043E+05 1.23557E+04-2.75717E+05-9.96806E-09 8.03993E-10
 -1       590 1.66215E+04 1.15233E+05 2.59170E+04-2.51026E+05-5.58248E-09-2.77578E-09
 -1       591-7.50809E+04-1.59753E+04-2.25453E+04-3.19775E+04-7.44944E-09-5.79894E-09
 -1       592-7.91794E+04-1.95292E+04-1.22123E+04-3.55980E+04-2.02539E-09-1.17934E-08
 -1       593-7.73356E+04-1.43395E+04-5.08338E+03-3.36306E+04-1.25824E-09 1.15483E-09
 -1       594-7.60667E+04-1.62208E+04-2.53521E+03-3.57157E+04 4.63515E-09 2.19270E-08
 -1       595-7.75074E+04-1.43341E+04-1.16391E+03-3.37057E+04 1.71649E-09 4.65272E-09
 -1       596-7.58535E+04-1.60695E+04-5.91458E+02-3.56904E+04 2.44006E-09 1.67896E-08
 -1       597-7.75290E+04-1.43495E+04-3.21602E+02-3.37086E+04-1.04319E-09 1.55848E-08
 -1       598-7.58325E+04-1.60635E+04-2.57678E+02-3.56832E+04-5.08339E-09 1.47531E-08
 -1       599-7.75278E+04-1.43500E+04-3.28090E+02-3.37082E+04 1.83832E-10-5.54326E-09
 -1       600-7.58536E+04-1.60700E+04-6.08634E+02-3.56882E+04 7.29005E-09-2.92039E-09
 -1       601-7.75031E+04-1.43355E+04-1.20026E+03-3.37048E+04-1.80194E-09-2.47719E-08
 -1       602-7.60733E+04-1.62249E+04-2.61561E+03-3.57105E+04-8.08495E-09-1.94783E-08
 -1       603-7.73230E+04-1.43439E+04-5.24527E+03-3.36281E+04-1.14460E-08-1.46642E-08
 -1       604-7.93028E+04-1.96189E+04-1.26004E+04-3.55641E+04-1.20303E-09 3.31427E-08
 -1       605-7.49766E+04-1.60496E+04-2.32618E+04-3.19418E+04 1.36993E-09 1.35387E-08
 -1       606 2.66513E+04-1.43345E+04-2.56969E+04 2.39380E+04-4.07636E-09-9.09858E-09
 -1       607 2.22606E+04-4.68165E+03-1.27970E+04 2.69014E+04-1.77852E-08-1.48193E-08
 -1       608 2.47630E+04-8.44566E+02-5.72877E+03 2.37697E+04-1.37097E-08 1.92858E-09
 -1       609 2.42834E+04-2.89401E+02-2.89403E+03 2.71150E+04-2.51930E-10 8.40055E-09
 -1       610 2.45495E+04-4.10633E+01-1.38076E+03 2.37497E+04 2.81307E-09 3.25872E-09
 -1       611 2.44742E+04-4.13922E+01-6.96169E+02 2.71380E+04 6.00085E-09 9.00309E-09
 -1       612 2.45024E+04-2.74103E+01-3.30931E+02 2.37477E+04 2.86491E-09-1.63404E-08
 -1       613 2.44859E+04-3.73565E+01-1.48256E+02 2.71408E+04 6.70843E-09-2.93244E-09
 -1       614 2.44803E+04-3.38822E+01-3.46587E+01 2.37470E+04 1.39153E-09 1.91949E-08
 -1       615 2.44807E+04-3.59110E+01 6.23937E+01 2.71412E+04 2.94676E-10 1.47927E-08
 -1       616 2.44630E+04-3.07936E+01 1.86863E+02 2.37473E+04 4.82305E-09 3.27941E-09
 -1       617 2.45032E+04 3.86965E+00 4.26242E+02 2.71407E+04 1.74077E-09-5.47584E-09
 -1       618 2.44260E+04 9.20530E+01 8.59126E+02 2.37476E+04 1.11822E-09-3.98495E-09
 -1       619 2.48066E+04 6.68121E+02 1.92921E+03 2.71401E+04-3.45608E-11 2.23376E-08
 -1       620 2.41407E+04 2.12924E+03 3.87766E+03 2.37492E+04-1.48248E-09 1.74023E-08
 -1       621 5.11486E+02 3.01502E+05 3.88572E+03 4.11420E+04 1.03819E-09 2.70120E-09
 -1       622 6.78173E+02 3.02399E+05 3.44860E+03 5.97288E+04 1.12595E-09 9.56788E-09
 -1       623 1.43531E+02 3.01697E+05 4.14401E+03 4.09559E+04 1.16825E-09-6.65386E-09
 -1       624 2.12854E+03 3.03617E+05 8.03366E+03 5.99120E+04 1.41154E-09 2.82853E-10
 -1       625 2.07933E+03 3.00103E+05 1.40385E+04 4.09527E+04 1.51249E-09 5.97743E-09
 -1       626 2.60957E+05 6.13923E+04 5.12162E+03 1.26728E+05 7.91260E-11-2.00180E-09
 -1       627 2.58643E+05 6.27854E+04 2.46806E+03 1.30997E+05 2.08775E-09-1.88712E-08
 -1       628 2.61085E+05 5.90491E+04 1.04382E+03 1.27599E+05-6.14818E-09 1.95091E-08
 -1       629 2.58008E+05 6.21048E+04 5.10892E+02 1.31237E+05-1.99179E-08 1.54054E-08
 -1       630 2.61100E+05 5.89359E+04 2.37096E+02 1.27636E+05 8.24139E-09 6.07110E-09
 -1       631 2.57941E+05 6.20789E+04 1.27722E+02 1.31239E+05 1.94486E-08 4.25121E-09
 -1       632 2.61096E+05 5.89398E+04 8.42791E+01 1.27632E+05 2.27642E-08-4.83851E-09
 -1       633 2.57933E+05 6.20806E+04 9.42473E+01 1.31235E+05 1.32995E-08-1.34555E-08
 -1       634 2.61092E+05 5.89369E+04 1.52625E+02 1.27631E+05 6.45235E-09 3.18960E-09
 -1       635 2.57947E+05 6.20789E+04 3.09032E+02 1.31241E+05-8.78117E-09-1.14906E-08
 -1       636 2.61082E+05 5.89311E+04 6.24193E+02 1.27631E+05 7.91715E-10-4.82805E-09
 -1       637 2.58083E+05 6.21760E+04 1.37251E+03 1.31240E+05 1.30967E-09-4.48517E-09
 -1       638 2.61034E+05 5.92343E+04 2.82001E+03 1.27494E+05 6.43331E-09 1.00044E-08
 -1       639 2.59564E+05 6.42362E+04 6.67230E+03 1.30804E+05 7.16773E-09-5.60681E-09
 -1       640 2.60829E+05 6.53865E+04 1.38462E+04 1.24902E+05 8.64065E-09-3.01088E-09
 -1       656 6.65894E+04-1.70426E+06-1.60743E+05-2.56471E+03-2.47383E-10-2.11317E-08
 -1       657-8.80925E+04-1.77690E+06-1.33167E+05 5.14837E+03 5.82077E-11-2.55864E-08
 -1       658 2.12269E+04-1.72489E+06-8.20157E+04-4.64823E+03-2.32603E-10-9.07745E-09
 -1       659-9.52626E+04-1.78030E+06-1.42590E+05 6.88071E+03-2.02272E-09-1.61329E-08
 -1       660 7.37435E+04-1.70086E+06-1.76943E+05-4.29705E+03-2.60479E-09 9.66548E-09
 -1       661 1.58305E+05 1.65619E+04 1.66972E+04 6.18855E+04-1.17188E-09 6.76573E-09
 -1       662 1.67749E+05 2.89233E+04 1.12527E+04 5.81349E+04 5.79303E-09-4.21494E-09
 -1       663 1.61584E+05 2.19187E+04 3.93549E+03 6.09336E+04-1.29239E-09 4.65161E-09
 -1       664 1.63946E+05 2.26590E+04 2.35425E+03 5.92976E+04-5.22732E-10 1.05813E-08
 -1       665 1.62082E+05 2.26503E+04 9.28737E+02 6.07884E+04 7.93307E-10-2.88904E-09
 -1       666 1.63357E+05 2.18225E+04 5.43652E+02 5.94870E+04 1.01818E-08-1.29447E-10
 -1       667 1.62169E+05 2.27334E+04 2.88968E+02 6.07520E+04 4.44885E-10 1.23471E-08
 -1       668 1.63261E+05 2.17627E+04 2.94912E+02 5.95399E+04-2.95698E-09 2.81332E-09
 -1       669 1.62177E+05 2.27083E+04 3.99657E+02 6.07358E+04 1.25664E-09 1.58946E-08
 -1       670 1.63358E+05 2.19798E+04 8.70621E+02 5.95428E+04-8.79075E-09-1.06486E-09
 -1       671 1.62072E+05 2.25209E+04 1.54598E+03 6.07471E+04 6.56257E-11 6.43064E-09
 -1       672 1.64259E+05 2.34838E+04 3.95544E+03 5.93245E+04 1.31514E-08 2.48882E-08
 -1       673 1.61281E+05 2.12424E+04 6.62872E+03 6.09395E+04 2.55898E-09 1.41636E-08
 -1       674 1.70568E+05 3.41336E+04 1.89568E+04 5.74710E+04 6.95763E-11 1.79789E-08
 -1       675 1.55804E+05 1.21694E+04 2.81385E+04 6.24887E+04-5.24551E-09 7.65795E-10
 -1       676 2.41076E+01-2.95860E+05-1.11323E+03-1.37811E+02 1.11106E-09-2.20580E-09
 -1       677-2.94469E+02-2.96129E+05-2.03741E+03 2.75399E+02 8.41624E-09-8.08149E-09
 -1       678 1.97511E+02-2.95668E+05-3.60163E+03-1.37499E+02 1.10731E-09-1.14258E-08
 -1       679-3.60168E+03-2.98303E+05-8.55598E+03 2.74210E+02 7.96263E-09 2.46981E-08
 -1       680 2.15042E+03-2.93687E+05-1.37893E+04-1.35102E+02-8.58563E-10 1.57385E-08
 -1       771-3.06173E+06-7.47421E+05-1.66202E+05-1.46589E+06-2.89292E-08-2.58442E-08
 -1       772-2.98459E+06-8.36345E+05-8.56922E+04-1.56870E+06-2.25991E-08 6.29734E-09
 -1       773-3.09327E+06-7.22833E+05-4.36778E+04-1.48046E+06-8.90577E-09 1.37370E-08
 -1       774-2.97505E+06-8.17775E+05-1.94882E+04-1.59449E+06 2.46800E-08 4.71846E-09
 -1       775-3.10974E+06-7.11281E+05-1.45737E+04-1.48753E+06-1.39407E-08 4.33647E-09
 -1       776-2.98742E+06-8.14730E+05-5.45064E+03-1.61401E+06-1.30531E-08 3.66708E-09
 -1       777-3.12403E+06-7.00969E+05-6.43803E+03-1.49376E+06 2.73576E-09 1.85537E-09
 -1       778-3.00033E+06-8.11900E+05-1.82050E+03-1.63078E+06 8.03266E-09 7.71252E-09
 -1       779-3.13631E+06-6.91958E+05-3.21693E+03-1.49908E+06-1.32131E-08-8.73843E-09
 -1       780-3.01170E+06-8.09200E+05-5.33550E+02-1.64444E+06-8.09814E-09-5.94810E-10
 -1       781-3.14608E+06-6.84693E+05-1.24966E+03-1.50325E+06-3.09519E-08-1.27511E-09
 -1       782-3.02047E+06-8.06907E+05 4.50590E+02-1.65452E+06-3.91155E-08-2.81489E-09
 -1       783-3.15296E+06-6.79645E+05 7.01526E+02-1.50617E+06-6.99947E-09-2.06610E-08
 -1       784-3.02532E+06-8.04618E+05 2.90741E+03-1.66075E+06-1.56870E-08-3.85990E-09
 -1       785-3.15703E+06-6.76634E+05 5.13264E+03-1.50802E+06-3.39351E-08 6.75027E-09
 -1       786 1.23379E+05-9.75809E+03 2.25763E+04-3.22170E+02 3.85296E-09-2.47928E-09
 -1       787 1.33171E+05 1.12977E+04 1.59718E+04-1.35440E+02 6.83303E-09 1.06036E-08
 -1       788 1.27154E+05-1.52911E+03 5.84097E+03-2.87068E+02 2.42491E-09 7.59451E-09
 -1       789 1.28773E+05 1.76992E+03 3.66674E+03-1.89221E+02-1.71269E-09 2.97659E-08
 -1       790 1.27778E+05-2.38076E+02 1.48459E+03-2.68406E+02-5.90858E-09 1.02852E-08
 -1       791 1.28044E+05 2.75457E+02 8.57443E+02-2.21150E+02-7.33980E-09 9.33346E-09
 -1       792 1.27884E+05-3.57740E+01 3.63306E+02-2.55142E+02-4.69774E-09 1.58755E-09
 -1       793 1.27918E+05 3.77794E+01 1.81020E+02-2.46090E+02 3.15009E-09-1.06470E-08
 -1       794 1.27904E+05-5.48628E-01 4.68493E+01-2.43466E+02 4.08018E-09-4.79439E-10
 -1       795 1.27880E+05-2.76175E+01-5.83097E+01-2.70429E+02-4.00863E-09 6.96524E-09
 -1       796 1.27921E+05 2.95863E+01-1.63599E+02-2.30802E+02 3.14076E-09 1.66608E-09
 -1       797 1.27785E+05-2.20868E+02-4.48794E+02-2.99486E+02 4.91194E-09-9.06959E-09
 -1       798 1.27999E+05 1.92556E+02-7.28753E+02-2.14409E+02 1.66440E-09-7.23523E-09
 -1       799 1.27232E+05-1.41932E+03-2.00482E+03-3.40056E+02 5.66303E-09 9.63587E-09
 -1       800 1.28474E+05 1.22706E+03-2.83721E+03-1.90233E+02 9.34351E-10 1.16786E-08
 -1       801-1.71322E+05-9.99945E+06-1.39375E+06 1.41583E+06 9.21427E-08-5.79057E-08
 -1       802 7.38533E+05 5.95299E+06 2.18237E+06-1.74785E+06 2.59141E-07-2.40052E-08
 -1       803-5.36793E+05-1.42698E+07-1.89108E+06 8.98411E+05 7.55099E-08 1.54832E-08
 -1       804 2.87299E+05 2.39696E+06 1.53771E+06 6.77338E+05-1.21941E-07-9.25911E-08
 -1       805 1.89387E+05-6.45752E+06-2.86501E+05-1.00370E+06-5.04806E-08-6.47178E-08
 -1       806-3.08922E+05-5.97475E+04-2.28513E+04-1.22399E+05-1.56324E-08 1.71872E-08
 -1       807-3.10721E+05-5.60161E+04-1.12266E+04-1.27942E+05 6.36646E-12 2.39349E-08
 -1       808-3.09549E+05-5.15121E+04-4.76270E+03-1.26292E+05-1.23191E-08-6.50141E-09
 -1       809-3.08360E+05-5.28615E+04-2.32884E+03-1.28218E+05-1.17698E-08-2.06455E-08
 -1       810-3.09644E+05-5.12254E+04-1.06744E+03-1.26464E+05 3.16686E-09-1.18287E-08
 -1       811-3.08178E+05-5.27348E+04-5.30860E+02-1.28182E+05 2.48656E-09 4.12911E-10
 -1       812-3.09658E+05-5.12501E+04-2.68571E+02-1.26464E+05-2.12185E-09 7.98536E-10
 -1       813-3.08153E+05-5.27370E+04-1.74683E+02-1.28164E+05-4.43879E-09 2.10002E-09
 -1       814-3.09651E+05-5.12598E+04-1.73340E+02-1.26459E+05 8.31642E-09 1.75314E-08
 -1       815-3.08156E+05-5.27392E+04-2.79480E+02-1.28156E+05 1.71585E-08 1.70319E-08
 -1       816-3.09630E+05-5.12589E+04-5.29837E+02-1.26456E+05 9.31504E-09 1.55014E-08
 -1       817-3.08246E+05-5.27897E+04-1.13714E+03-1.28144E+05-2.19625E-08 2.25571E-08
 -1       818-3.09561E+05-5.14195E+04-2.31940E+03-1.26380E+05-5.50881E-09-1.88857E-09
 -1       819-3.09516E+05-5.41910E+04-5.45738E+03-1.27844E+05 7.56700E-10-7.38692E-09
 -1       820-3.09123E+05-5.55421E+04-1.11078E+04-1.24619E+05-4.02724E-09 7.86758E-09
 -1       821-3.79009E+05 2.08709E+04-4.85851E+04 2.13206E+03 1.41362E-08-3.04499E-09
 -1       822-3.98710E+05-2.41778E+04-3.41435E+04-4.46682E+03 5.33675E-09-8.68749E-09
 -1       823-3.86471E+05 3.29004E+03-1.25490E+04 3.44580E+03-1.20969E-08-7.75799E-09
 -1       824-3.89700E+05-3.79398E+03-7.85467E+03-5.38212E+03 2.65898E-09 1.79489E-09
 -1       825-3.88025E+05 5.11285E+02-3.28948E+03 3.04747E+03 1.98050E-08 7.58041E-09
 -1       826-3.87264E+05-5.67183E+02-1.74330E+03-3.10428E+03 2.68655E-08 5.18327E-09
 -1       827-3.88882E+05 4.66182E+01-1.19089E+03 1.16782E+03 1.13383E-08-1.63506E-08
 -1       828-3.86556E+05-1.31782E+02-5.84776E+02 1.09870E+03-3.69153E-09-1.17784E-08
 -1       829-3.88720E+05 6.57716E+01-1.17969E+03-1.15554E+03 4.91184E-10-1.57686E-08
 -1       830-3.87615E+05-6.22129E+02-1.88182E+03 4.89665E+03 8.71815E-10-1.81067E-08
 -1       831-3.87846E+05 5.54672E+02-3.37133E+03-2.63014E+03-7.62791E-09-1.77952E-08
 -1       832-3.89780E+05-3.96105E+03-8.15780E+03 6.18088E+03-4.14087E-09 2.52226E-09
 -1       833-3.86571E+05 3.41430E+03-1.30536E+04-2.43982E+03-3.56444E-09 7.01675E-09
 -1       834-3.98769E+05-2.50927E+04-3.53678E+04 4.20415E+03-2.16801E-10 8.96398E-09
 -1       835-3.78840E+05 2.16533E+04-5.04579E+04-6.53336E+02 4.68060E-09 9.17862E-09
 -1       836-1.41440E+03 3.70296E+05 2.29158E+04-1.60944E+04-7.24049E-09-9.19817E-09
 -1       837 4.88494E+03 3.77473E+05 1.93868E+04-3.28932E+04-7.72974E-09 2.32558E-09
 -1       838-5.58162E+02 3.72309E+05 1.97468E+04-1.60230E+04-6.25550E-09 2.06398E-08
 -1       839 1.24248E+04 3.83088E+05 3.73492E+04-3.29458E+04-7.01129E-09 2.68497E-08
 -1       840-3.84149E+03 3.64621E+05 5.95557E+04-1.60477E+04-5.93718E-09-4.86227E-09
 -1       856-5.19741E+04 8.01849E+03-2.11304E+04-3.97324E+02 1.04194E-09-1.74359E-08
 -1       857-6.06793E+04-9.42152E+03-1.45460E+04 5.63218E+03 3.98529E-09-6.33236E-09
 -1       858-5.54216E+04 1.12452E+03-5.48283E+03-4.21371E+02 3.24872E-09-8.76139E-09
 -1       859-5.67230E+04-1.32301E+03-3.30862E+03 5.66793E+03 1.03881E-11 2.30550E-08
 -1       860-5.59367E+04 1.57490E+02-1.38661E+03-4.32812E+02 2.80139E-09 3.21398E-09
 -1       861-5.61305E+04-1.88064E+02-7.62734E+02 5.68352E+03-9.92721E-10-3.10726E-08
 -1       862-5.60173E+04 2.13351E+01-3.16919E+02-4.36930E+02-1.48034E-09-6.23251E-09
 -1       863-5.60318E+04-2.18603E+01-1.15129E+02 5.68591E+03-2.58603E-09 1.81199E-08
 -1       864-5.60360E+04-4.93259E+00 4.78752E+01-4.35204E+02-1.32609E-09-3.37495E-08
 -1       865-5.59758E+04 5.98698E+01 2.56628E+02 5.67605E+03-7.78073E-10-2.01279E-08
 -1       866-5.60710E+04-6.04075E+01 5.16820E+02-4.27071E+02-1.41154E-09-6.21000E-09
 -1       867-5.57329E+04 4.98828E+02 1.27186E+03 5.65397E+03 1.48313E-09-4.78394E-09
 -1       868-5.62740E+04-4.35952E+02 2.11341E+03-4.13125E+02-2.03806E-09 6.32576E-09
 -1       869-5.41836E+04 3.62829E+03 5.62720E+03 5.61765E+03 5.63233E-09-4.50200E-09
 -1       870-5.76125E+04-3.10485E+03 8.16635E+03-3.90641E+02-2.63333E-09-4.34875E-09
 -1       871-5.51945E+03-2.13745E+04-1.94985E+04 1.30483E+05-5.26416E-09 5.50244E-10
 -1       872-1.98149E+03-2.59088E+04-8.16527E+03 1.69191E+05-1.14724E-08-2.87437E-08
 -1       873 4.06448E+02-2.37154E+04 5.88064E+02 1.30196E+05-6.20503E-09 4.21937E-09
 -1       874 3.30776E+03-2.13050E+04 9.77867E+03 1.69220E+05-1.15215E-08 1.56988E-08
 -1       875 6.84774E+03-2.60450E+04 2.20615E+04 1.30435E+05-5.40058E-09 3.51974E-10
 -1       876 2.93785E+05 4.95089E+04 1.50981E+04 1.17889E+05 6.16797E-09-2.54568E-09
 -1       877 2.94783E+05 5.26880E+04 8.06298E+03 1.22220E+05 1.08848E-08-1.05778E-08
 -1       878 2.95197E+05 4.78364E+04 3.37799E+03 1.19126E+05-5.97583E-09-3.29896E-09
 -1       879 2.92731E+05 5.06398E+04 1.68313E+03 1.22322E+05-4.76348E-10-1.08640E-08
 -1       880 2.95298E+05 4.78192E+04 7.83983E+02 1.19177E+05-3.56408E-09-1.27113E-08
 -1       881 2.92595E+05 5.05522E+04 4.18687E+02 1.22298E+05-9.48239E-09-6.35438E-09
 -1       882 2.95307E+05 4.78324E+04 2.67897E+02 1.19178E+05-2.91652E-09 1.62466E-10
 -1       883 2.92585E+05 5.05476E+04 2.88077E+02 1.22291E+05 1.06576E-09 1.19666E-08
 -1       884 2.95300E+05 4.78296E+04 4.58331E+02 1.19179E+05 4.05544E-09-4.53821E-09
 -1       885 2.92622E+05 5.05540E+04 9.21542E+02 1.22302E+05 1.80648E-09-1.36644E-08
 -1       886 2.95264E+05 4.78027E+04 1.85735E+03 1.19175E+05-1.35836E-09 1.79789E-08
 -1       887 2.92948E+05 5.07680E+04 4.05713E+03 1.22349E+05 7.38612E-09 2.96218E-08
 -1       888 2.95008E+05 4.78479E+04 8.17522E+03 1.19045E+05 4.08184E-09 2.75672E-08
 -1       889 2.97815E+05 5.58294E+04 1.95291E+04 1.22200E+05 2.91794E-09-7.36964E-09
 -1       890 2.91671E+05 5.18116E+04 3.65775E+04 1.15934E+05-8.82255E-09-1.72549E-08
 -1       891-8.91803E+01-1.62765E+05-1.99685E+03 2.71351E+04-2.69279E-09-7.63362E-09
 -1       892-1.75090E+02-1.63292E+05-2.14443E+03 4.12066E+04 2.02772E-09-1.28694E-09
 -1       893 4.39313E+01-1.62829E+05-3.03603E+03 2.71425E+04-1.77579E-10-1.20353E-08
 -1       894-1.50973E+03-1.64439E+05-6.28328E+03 4.10542E+04 5.62568E-09-1.22054E-09
 -1       895-1.19902E+03-1.61520E+05-1.10647E+04 2.72894E+04 1.46724E-09-1.03673E-08
 -1       956-3.77268E+05-5.45043E+03-1.34544E+04 3.08823E+04 5.14956E-09-1.15526E-08
 -1       957-3.79908E+05-1.92281E+03-6.90591E+03 3.71124E+04-4.83487E-09-7.47241E-09
 -1       958-3.78478E+05-2.41030E+02-3.11202E+03 3.07146E+04-5.39421E-09 1.14278E-09
 -1       959-3.78674E+05-1.36361E+02-1.58905E+03 3.73081E+04 4.74620E-09 2.70666E-09
 -1       960-3.78596E+05-4.48803E+01-7.74896E+02 3.06973E+04 4.64752E-09 5.77484E-09
 -1       961-3.78594E+05-6.33096E+01-4.10842E+02 3.73285E+04 1.35988E-08-9.81890E-09
 -1       962-3.78623E+05-4.61008E+01-2.35220E+02 3.06944E+04 8.20819E-09-8.02629E-10
 -1       963-3.78594E+05-5.91172E+01-1.88830E+02 3.73322E+04 6.44468E-09 8.32370E-09
 -1       964-3.78629E+05-4.27503E+01-2.29642E+02 3.06936E+04 1.58931E-09 6.38238E-10
 -1       965-3.78606E+05-5.61665E+01-3.97194E+02 3.73315E+04 3.59358E-09-6.05360E-09
 -1       966-3.78612E+05-3.49230E+01-7.46324E+02 3.06951E+04 9.56152E-09-2.21735E-09
 -1       967-3.78696E+05-1.19743E+02-1.53069E+03 3.73171E+04 4.48267E-09-5.49767E-09
 -1       968-3.78508E+05-2.17477E+02-2.99656E+03 3.07078E+04 2.02090E-09 3.58830E-09
 -1       969-3.79897E+05-1.83499E+03-6.65227E+03 3.71685E+04 3.94721E-10 8.32529E-09
 -1       970-3.77352E+05-5.23158E+03-1.29590E+04 3.08352E+04-2.17278E-09-2.98132E-09
 -1       971-3.45390E+05-1.72707E+03-9.30738E+03 1.53731E+04 5.57247E-09 1.16556E-09
 -1       972-3.47631E+05-1.27152E+03-5.06870E+03 2.12605E+04 6.70980E-09-1.64068E-08
 -1       973-3.46427E+05-6.20851E+01-2.27032E+03 1.52520E+04 3.00861E-09-1.16663E-08
 -1       974-3.46562E+05-8.11594E+01-1.17686E+03 2.13975E+04-1.14596E-10-2.10844E-09
 -1       975-3.46509E+05-1.72270E+01-5.88744E+02 1.52397E+04-1.24373E-09-3.37604E-09
 -1       976-3.46501E+05-3.13336E+01-3.40521E+02 2.14133E+04 5.35624E-09 2.56549E-08
 -1       977-3.46526E+05-1.64838E+01-2.48679E+02 1.52363E+04 1.01409E-09 2.20780E-10
 -1       978-3.46506E+05-2.51121E+01-2.93099E+02 2.14181E+04-1.73259E-09 7.82904E-09
 -1       979-3.46525E+05-8.00659E+00-4.72716E+02 1.52348E+04 5.30974E-10 1.08023E-08
 -1       980-3.46542E+05-2.20512E+01-9.13882E+02 2.14191E+04-8.73854E-10-1.36333E-08
 -1       981-3.46496E+05 1.48374E+01-1.77057E+03 1.52353E+04-9.76115E-10 8.25275E-09
 -1       982-3.46785E+05-1.52875E+02-3.66006E+03 2.14125E+04-8.82164E-09-4.33326E-09
 -1       983-3.46273E+05-9.85331E+01-7.11168E+03 1.52414E+04-8.62019E-09-7.88896E-09
 -1       984-3.50205E+05-3.86709E+03-1.59264E+04 2.13269E+04-3.18141E-09 1.58914E-08
 -1       985-3.43053E+05-5.30242E+03-2.92458E+04 1.53127E+04-2.33649E-09 1.97488E-08
 -3
    1PSTEP                        27          14           1          
  100CL  114 6.62933E-01         409                     0   14           1
 -4  DISP        4    1
 -5  D1          1    2    1    0
 -5  D2          1    2    2    0
 -5  D3          1    2    3    0
 -5  ALL         1    2    0    0    1ALL
 -1         1 2.72663E-03 0.00000E+00 0.00000E+00
 -1         2 1.32893E-03-1.04141E-27-5.29396E-23
 -1         3 3.42743E-04-5.83109E-28-1.32349E-23
 -1         5 1.77135E-04-1.62949E-27 2.48154E-24
 -1         8 2.71593E-03-4.01443E-07 0.00000E+00
 -1         9 2.70918E-03-2.00166E-04 0.00000E+00
 -1        10 3.10786E-04-3.39482E-06 0.00000E+00
 -1        12 1.78984E-04 8.09429E-07 1.65436E-24
 -1        15 2.70373E-03-4.24592E-07 0.00000E+00
 -1        16 2.77904E-03-2.02040E-04 0.00000E+00
 -1        17 2.11507E-04-7.74438E-06 0.00000E+00
 -1        18 1.82937E-04 3.44424E-05 0.00000E+00
 -1        19 1.84530E-04 1.61243E-06 0.00000E+00
 -1        20 1.84670E-04-9.90197E-06 0.00000E+00
 -1        21 1.83777E-04-2.54633E-05 3.30872E-24
 -1        24 3.06055E-05-1.19668E-05 0.00000E+00
 -1        25 1.93731E-04 3.46683E-05 0.00000E+00
 -1        26 1.94410E-04 2.23273E-06 0.00000E+00
 -1        27 1.92209E-04-1.34613E-05 0.00000E+00
 -1        28 1.91894E-04-2.60854E-05 0.00000E+00
 -1        32 0.00000E+00 0.00000E+00 0.00000E+00
 -1        33 2.03287E-04 2.98675E-06 0.00000E+00
 -1        34 2.01169E-04-1.35176E-05 0.00000E+00
 -1        35 1.99236E-04-2.64279E-05 0.00000E+00
 -1        51 2.72591E-03-8.44280E-08 1.65436E-24
 -1        52 2.72460E-03-1.50389E-07-3.30872E-24
 -1        53 2.72281E-03-2.12848E-07 0.00000E+00
 -1        54 2.72069E-03-2.74043E-07 0.00000E+00
 -1        55 2.71835E-03-3.35745E-07 1.65436E-24
 -1        56 2.71855E-03 9.43319E-06 0.00000E+00
 -1        57 2.70237E-03 3.88052E-05 5.29396E-23
 -1        58 2.68050E-03 8.18785E-05 0.00000E+00
 -1        59 2.65597E-03 1.31117E-04 0.00000E+00
 -1        60 2.63247E-03 1.77925E-04 1.05879E-22
 -1        61 2.61355E-03 2.13905E-04-5.29396E-23
 -1        62 2.60164E-03 2.32591E-04-1.05879E-22
 -1        63 2.59828E-03 2.29055E-04 0.00000E+00
 -1        64 2.60324E-03 2.02458E-04 0.00000E+00
 -1        65 2.61549E-03 1.54152E-04-5.29396E-23
 -1        66 2.63292E-03 8.96303E-05 0.00000E+00
 -1        67 2.65311E-03 1.59923E-05 0.00000E+00
 -1        68 2.67338E-03-5.78831E-05-1.05879E-22
 -1        69 2.69104E-03-1.23087E-04 5.29396E-23
 -1        70 2.70365E-03-1.72405E-04-1.05879E-22
 -1        86 1.41574E-03-6.29940E-06-5.29396E-23
 -1        87 1.66668E-03-3.97193E-05 2.64698E-23
 -1        88 2.00412E-03-9.72167E-05 0.00000E+00
 -1        89 2.34622E-03-1.56342E-04 0.00000E+00
 -1        90 2.60841E-03-1.92531E-04 5.29396E-23
 -1       121 3.41846E-04-5.48064E-07-1.32349E-23
 -1       122 3.39158E-04-1.09922E-06 6.61744E-24
 -1       123 3.34688E-04-1.65650E-06 0.00000E+00
 -1       124 3.28453E-04-2.22295E-06 0.00000E+00
 -1       125 3.20475E-04-2.80122E-06 0.00000E+00
 -1       191 1.77186E-04 1.34969E-07 2.48154E-24
 -1       192 1.77340E-04 2.69926E-07-1.65436E-24
 -1       193 1.77597E-04 4.04863E-07-2.48154E-24
 -1       194 1.77957E-04 5.39768E-07-1.65436E-24
 -1       195 1.78419E-04 6.74628E-07 3.30872E-24
 -1       251 2.71563E-03 1.60699E-06-6.61744E-24
 -1       252 2.71533E-03 3.46918E-06-3.30872E-24
 -1       253 2.71503E-03 4.17790E-06-6.61744E-24
 -1       254 2.71472E-03 2.74024E-06-3.30872E-24
 -1       255 2.71441E-03-1.51290E-06 0.00000E+00
 -1       256 2.71408E-03-9.21555E-06 3.30872E-24
 -1       257 2.71371E-03-2.04816E-05 6.61744E-24
 -1       258 2.71330E-03-3.53805E-05-3.30872E-24
 -1       259 2.71284E-03-5.34344E-05 6.61744E-24
 -1       260 2.71233E-03-7.41260E-05 0.00000E+00
 -1       261 2.71178E-03-9.65400E-05-1.32349E-23
 -1       262 2.71122E-03-1.19740E-04 0.00000E+00
 -1       263 2.71066E-03-1.42672E-04-1.32349E-23
 -1       264 2.71013E-03-1.64283E-04-6.61744E-24
 -1       265 2.70964E-03-1.83723E-04 0.00000E+00
 -1       266 2.71390E-03-4.10909E-07 0.00000E+00
 -1       267 2.71186E-03-4.14082E-07 0.00000E+00
 -1       268 2.70983E-03-4.17658E-07-8.27181E-25
 -1       269 2.70780E-03-4.20050E-07 0.00000E+00
 -1       270 2.70576E-03-4.22415E-07 0.00000E+00
 -1       271 2.71512E-03 1.08216E-10 0.00000E+00
 -1       272 2.71531E-03-2.31919E-06 6.61744E-24
 -1       273 2.71645E-03-7.19572E-06 1.32349E-23
 -1       274 2.71847E-03-1.44531E-05 0.00000E+00
 -1       275 2.72128E-03-2.38935E-05 2.64698E-23
 -1       276 2.72481E-03-3.53039E-05 0.00000E+00
 -1       277 2.72897E-03-4.84543E-05 0.00000E+00
 -1       278 2.73366E-03-6.31019E-05-1.32349E-23
 -1       279 2.73881E-03-7.89915E-05 0.00000E+00
 -1       280 2.74430E-03-9.58584E-05 0.00000E+00
 -1       281 2.75004E-03-1.13430E-04 1.32349E-23
 -1       282 2.75594E-03-1.31427E-04-6.61744E-24
 -1       283 2.76189E-03-1.49569E-04 0.00000E+00
 -1       284 2.76779E-03-1.67572E-04 6.61744E-24
 -1       285 2.77354E-03-1.85156E-04 0.00000E+00
 -1       301 2.72187E-03-2.00513E-04-6.61744E-24
 -1       302 2.73290E-03-2.00814E-04 3.30872E-24
 -1       303 2.74318E-03-2.01103E-04 1.32349E-23
 -1       304 2.75367E-03-2.01393E-04 0.00000E+00
 -1       305 2.76532E-03-2.01697E-04 0.00000E+00
 -1       306 2.74729E-03-3.55733E-04 0.00000E+00
 -1       307 2.81114E-03-7.70810E-04 0.00000E+00
 -1       308 2.85771E-03-1.37680E-03 1.05879E-22
 -1       309 2.88155E-03-2.07738E-03 0.00000E+00
 -1       310 2.91303E-03-2.74669E-03 1.05879E-22
 -1       311 2.97266E-03-3.26158E-03 0.00000E+00
 -1       312 3.03027E-03-3.54158E-03 1.05879E-22
 -1       313 3.02468E-03-3.54923E-03 0.00000E+00
 -1       314 2.88193E-03-3.29696E-03 1.05879E-22
 -1       315 2.56135E-03-2.84960E-03 0.00000E+00
 -1       316 2.08172E-03-2.28392E-03 0.00000E+00
 -1       317 1.50943E-03-1.66913E-03 0.00000E+00
 -1       318 9.59081E-04-1.06566E-03-1.05879E-22
 -1       319 5.38793E-04-5.38424E-04 0.00000E+00
 -1       320 2.92260E-04-1.61629E-04 1.05879E-22
 -1       336 2.99198E-04-4.05118E-06 0.00000E+00
 -1       337 2.85533E-04-4.73324E-06 0.00000E+00
 -1       338 2.69854E-04-5.44322E-06 0.00000E+00
 -1       339 2.52234E-04-6.18195E-06-6.61744E-24
 -1       340 2.32754E-04-6.95390E-06 0.00000E+00
 -1       406 1.79651E-04 9.44154E-07 2.48154E-24
 -1       407 1.80422E-04 1.07876E-06-4.13590E-25
 -1       408 1.81295E-04 1.21321E-06 2.48154E-24
 -1       409 1.82271E-04 1.34731E-06 0.00000E+00
 -1       410 1.83350E-04 1.48081E-06-2.06795E-24
 -1       521 2.81773E-03-3.66915E-04 1.05879E-22
 -1       522 2.87977E-03-8.02522E-04 5.29396E-23
 -1       523 2.91976E-03-1.43679E-03 1.05879E-22
 -1       524 2.93419E-03-2.16659E-03 0.00000E+00
 -1       525 2.95761E-03-2.86306E-03 0.00000E+00
 -1       526 3.01366E-03-3.40041E-03 5.29396E-23
 -1       527 3.07086E-03-3.69114E-03 2.11758E-22
 -1       528 3.06290E-03-3.69689E-03 1.05879E-22
 -1       529 2.90782E-03-3.43013E-03 2.11758E-22
 -1       530 2.56264E-03-2.96383E-03 0.00000E+00
 -1       531 2.04701E-03-2.37860E-03 1.05879E-22
 -1       532 1.43388E-03-1.74627E-03 5.29396E-23
 -1       533 8.43430E-04-1.12458E-03 0.00000E+00
 -1       534 3.89112E-04-5.76093E-04 0.00000E+00
 -1       535 1.20976E-04-1.79436E-04 0.00000E+00
 -1       536 2.10752E-04 2.71871E-05 0.00000E+00
 -1       537 2.08833E-04 8.76396E-05 0.00000E+00
 -1       538 2.05868E-04 1.64344E-04 0.00000E+00
 -1       539 2.02371E-04 2.47949E-04-1.65436E-24
 -1       540 1.99224E-04 3.26949E-04 0.00000E+00
 -1       541 1.97178E-04 3.89861E-04 0.00000E+00
 -1       542 1.96235E-04 4.29933E-04-3.30872E-24
 -1       543 1.96009E-04 4.40557E-04-1.65436E-24
 -1       544 1.95687E-04 4.22509E-04 3.30872E-24
 -1       545 1.94514E-04 3.76782E-04-1.65436E-24
 -1       546 1.92328E-04 3.11504E-04 0.00000E+00
 -1       547 1.89369E-04 2.34925E-04 1.65436E-24
 -1       548 1.86438E-04 1.58722E-04 0.00000E+00
 -1       549 1.84322E-04 9.45737E-05 0.00000E+00
 -1       550 1.83223E-04 5.05117E-05 1.65436E-24
 -1       551 1.86301E-04-8.31326E-06 0.00000E+00
 -1       552 1.57849E-04-8.96263E-06 0.00000E+00
 -1       553 1.27095E-04-9.67428E-06 3.30872E-24
 -1       554 9.49976E-05-1.04271E-05 6.61744E-24
 -1       555 6.25161E-05-1.11936E-05 0.00000E+00
 -1       556 2.03857E-04 1.18160E-05 5.29396E-23
 -1       557 1.97677E-04 2.76799E-05 2.64698E-23
 -1       558 1.92831E-04 4.01353E-05 0.00000E+00
 -1       559 1.89187E-04 4.94928E-05 2.64698E-23
 -1       560 1.86616E-04 5.60631E-05 0.00000E+00
 -1       561 1.84989E-04 6.01599E-05 0.00000E+00
 -1       562 1.84180E-04 6.20977E-05 0.00000E+00
 -1       563 1.84067E-04 6.21921E-05 0.00000E+00
 -1       564 1.84526E-04 6.07598E-05 0.00000E+00
 -1       565 1.85437E-04 5.81178E-05 0.00000E+00
 -1       566 1.86680E-04 5.45838E-05 0.00000E+00
 -1       567 1.88136E-04 5.04761E-05 0.00000E+00
 -1       568 1.89687E-04 4.61128E-05 0.00000E+00
 -1       569 1.91215E-04 4.18123E-05 8.27181E-25
 -1       570 1.92602E-04 3.78929E-05 0.00000E+00
 -1       571 1.83034E-04 3.23122E-05-2.48154E-24
 -1       572 1.83132E-04 3.01163E-05 4.13590E-25
 -1       573 1.83231E-04 2.78703E-05 1.65436E-24
 -1       574 1.83331E-04 2.55907E-05 8.27181E-25
 -1       575 1.83430E-04 2.32939E-05 0.00000E+00
 -1       576 1.83530E-04 2.09963E-05 0.00000E+00
 -1       577 1.83629E-04 1.87146E-05 0.00000E+00
 -1       578 1.83729E-04 1.64651E-05 0.00000E+00
 -1       579 1.83829E-04 1.42646E-05 0.00000E+00
 -1       580 1.83928E-04 1.21294E-05 0.00000E+00
 -1       581 1.84028E-04 1.00761E-05 0.00000E+00
 -1       582 1.84129E-04 8.12129E-06 0.00000E+00
 -1       583 1.84229E-04 6.28137E-06 6.61744E-24
 -1       584 1.84329E-04 4.57271E-06-3.30872E-24
 -1       585 1.84430E-04 3.01146E-06 0.00000E+00
 -1       586 1.84695E-04 3.44822E-05 1.65436E-24
 -1       587 1.86412E-04 3.45214E-05-8.27181E-25
 -1       588 1.88131E-04 3.45602E-05 8.27181E-25
 -1       589 1.89895E-04 3.45984E-05 0.00000E+00
 -1       590 1.91748E-04 3.46353E-05 0.00000E+00
 -1       591 1.83667E-04 3.24060E-05 1.03398E-25
 -1       592 1.84400E-04 3.03497E-05 2.06795E-25
 -1       593 1.85138E-04 2.82796E-05 8.27181E-25
 -1       594 1.85879E-04 2.62001E-05 4.13590E-25
 -1       595 1.86622E-04 2.41161E-05 0.00000E+00
 -1       596 1.87365E-04 2.20323E-05 4.13590E-25
 -1       597 1.88105E-04 1.99532E-05 0.00000E+00
 -1       598 1.88842E-04 1.78838E-05 0.00000E+00
 -1       599 1.89574E-04 1.58285E-05 0.00000E+00
 -1       600 1.90299E-04 1.37920E-05-4.13590E-25
 -1       601 1.91015E-04 1.17791E-05 0.00000E+00
 -1       602 1.91721E-04 9.79444E-06-2.06795E-25
 -1       603 1.92414E-04 7.84262E-06-4.13590E-25
 -1       604 1.93094E-04 5.92847E-06 1.80946E-25
 -1       605 1.93759E-04 4.05656E-06 0.00000E+00
 -1       606 1.84544E-04 4.46762E-07 0.00000E+00
 -1       607 1.84553E-04-6.33198E-07 1.65436E-24
 -1       608 1.84562E-04-1.63248E-06 0.00000E+00
 -1       609 1.84571E-04-2.55674E-06 0.00000E+00
 -1       610 1.84579E-04-3.41173E-06 0.00000E+00
 -1       611 1.84587E-04-4.20323E-06 0.00000E+00
 -1       612 1.84595E-04-4.93702E-06 0.00000E+00
 -1       613 1.84604E-04-5.61891E-06 0.00000E+00
 -1       614 1.84612E-04-6.25471E-06 1.65436E-24
 -1       615 1.84621E-04-6.85021E-06 0.00000E+00
 -1       616 1.84629E-04-7.41122E-06 0.00000E+00
 -1       617 1.84637E-04-7.94354E-06 0.00000E+00
 -1       618 1.84646E-04-8.45297E-06 0.00000E+00
 -1       619 1.84654E-04-8.94532E-06-2.06795E-25
 -1       620 1.84662E-04-9.42639E-06 0.00000E+00
 -1       621 1.85891E-04 1.71639E-06 0.00000E+00
 -1       622 1.87410E-04 1.82058E-06 1.65436E-24
 -1       623 1.89055E-04 1.92457E-06 0.00000E+00
 -1       624 1.90793E-04 2.02822E-06 1.65436E-24
 -1       625 1.92589E-04 2.13158E-06-1.65436E-24
 -1       626 1.85080E-04 4.82892E-07 0.00000E+00
 -1       627 1.85606E-04-5.83730E-07 0.00000E+00
 -1       628 1.86112E-04-1.59528E-06 0.00000E+00
 -1       629 1.86601E-04-2.55991E-06-1.65436E-24
 -1       630 1.87075E-04-3.48582E-06 0.00000E+00
 -1       631 1.87538E-04-4.38120E-06 1.65436E-24
 -1       632 1.87993E-04-5.25425E-06 0.00000E+00
 -1       633 1.88442E-04-6.11319E-06 1.65436E-24
 -1       634 1.88889E-04-6.96621E-06-3.30872E-24
 -1       635 1.89337E-04-7.82152E-06 0.00000E+00
 -1       636 1.89789E-04-8.68733E-06 0.00000E+00
 -1       637 1.90247E-04-9.57184E-06 1.65436E-24
 -1       638 1.90716E-04-1.04833E-05 1.65436E-24
 -1       639 1.91198E-04-1.14298E-05 0.00000E+00
 -1       640 1.91695E-04-1.24197E-05 3.30872E-24
 -1       656 1.85378E-04-1.04805E-05 0.00000E+00
 -1       657 1.86506E-04-1.10825E-05 6.61744E-24
 -1       658 1.87914E-04-1.16831E-05 0.00000E+00
 -1       659 1.89457E-04-1.22834E-05-6.61744E-24
 -1       660 1.90949E-04-1.28856E-05-6.61744E-24
 -1       661 1.84935E-04-1.04227E-05-8.27181E-25
 -1       662 1.85238E-04-1.10353E-05 0.00000E+00
 -1       663 1.85573E-04-1.17347E-05 0.00000E+00
 -1       664 1.85938E-04-1.25142E-05 8.27181E-25
 -1       665 1.86331E-04-1.33681E-05 0.00000E+00
 -1       666 1.86751E-04-1.42904E-05 0.00000E+00
 -1       667 1.87193E-04-1.52754E-05 0.00000E+00
 -1       668 1.87657E-04-1.63176E-05-8.27181E-25
 -1       669 1.88140E-04-1.74116E-05 0.00000E+00
 -1       670 1.88641E-04-1.85519E-05-8.27181E-25
 -1       671 1.89157E-04-1.97335E-05 0.00000E+00
 -1       672 1.89686E-04-2.09512E-05 0.00000E+00
 -1       673 1.90227E-04-2.21999E-05 0.00000E+00
 -1       674 1.90777E-04-2.34750E-05-4.13590E-25
 -1       675 1.91335E-04-2.47711E-05 0.00000E+00
 -1       676 1.85134E-04-2.55676E-05 0.00000E+00
 -1       677 1.86491E-04-2.56718E-05-1.65436E-24
 -1       678 1.87846E-04-2.57760E-05 3.30872E-24
 -1       679 1.89199E-04-2.58799E-05 1.65436E-24
 -1       680 1.90548E-04-2.59837E-05 1.65436E-24
 -1       771 1.86481E-05 1.47745E-05 0.00000E+00
 -1       772 8.58867E-06 3.67371E-05 0.00000E+00
 -1       773 3.36310E-07 5.41512E-05 0.00000E+00
 -1       774-6.23336E-06 6.72751E-05 0.00000E+00
 -1       775-1.12421E-05 7.63771E-05-5.29396E-23
 -1       776-1.48165E-05 8.17426E-05 0.00000E+00
 -1       777-1.70830E-05 8.36669E-05 0.00000E+00
 -1       778-1.81706E-05 8.24592E-05 0.00000E+00
 -1       779-1.82077E-05 7.84374E-05-5.29396E-23
 -1       780-1.73247E-05 7.19307E-05 0.00000E+00
 -1       781-1.56509E-05 6.32749E-05-5.29396E-23
 -1       782-1.33176E-05 5.28150E-05-2.64698E-23
 -1       783-1.04546E-05 4.09004E-05 0.00000E+00
 -1       784-7.19352E-06 2.78868E-05 0.00000E+00
 -1       785-3.66460E-06 1.41329E-05 0.00000E+00
 -1       786 1.93769E-04 3.24131E-05 0.00000E+00
 -1       787 1.93811E-04 3.02080E-05 0.00000E+00
 -1       788 1.93853E-04 2.80448E-05 0.00000E+00
 -1       789 1.93895E-04 2.59152E-05-8.27181E-25
 -1       790 1.93937E-04 2.38146E-05 0.00000E+00
 -1       791 1.93980E-04 2.17380E-05-8.27181E-25
 -1       792 1.94023E-04 1.96834E-05-1.65436E-24
 -1       793 1.94065E-04 1.76486E-05 0.00000E+00
 -1       794 1.94108E-04 1.56332E-05 1.65436E-24
 -1       795 1.94151E-04 1.36373E-05 8.27181E-25
 -1       796 1.94194E-04 1.16625E-05-1.65436E-24
 -1       797 1.94237E-04 9.71087E-06 8.27181E-25
 -1       798 1.94280E-04 7.78647E-06 0.00000E+00
 -1       799 1.94323E-04 5.89366E-06-8.27181E-25
 -1       800 1.94366E-04 4.03988E-06 1.65436E-24
 -1       801 1.47920E-04 3.11672E-05 0.00000E+00
 -1       802 9.40895E-06 1.94439E-05 0.00000E+00
 -1       803-1.08898E-04 9.82161E-06-5.29396E-23
 -1       804-9.65219E-05 6.83658E-06-2.64698E-23
 -1       805-3.18902E-05 2.68605E-06 0.00000E+00
 -1       806 1.94462E-04 3.23443E-05-1.65436E-24
 -1       807 1.95178E-04 3.00466E-05 0.00000E+00
 -1       808 1.95882E-04 2.77803E-05-3.30872E-24
 -1       809 1.96572E-04 2.55496E-05 0.00000E+00
 -1       810 1.97247E-04 2.33584E-05 3.30872E-24
 -1       811 1.97907E-04 2.12107E-05-1.65436E-24
 -1       812 1.98548E-04 1.91104E-05 0.00000E+00
 -1       813 1.99170E-04 1.70616E-05 0.00000E+00
 -1       814 1.99772E-04 1.50679E-05 0.00000E+00
 -1       815 2.00351E-04 1.31335E-05-1.65436E-24
 -1       816 2.00907E-04 1.12621E-05 1.65436E-24
 -1       817 2.01438E-04 9.45766E-06 8.27181E-25
 -1       818 2.01943E-04 7.72405E-06-1.65436E-24
 -1       819 2.02420E-04 6.06516E-06-8.27181E-25
 -1       820 2.02868E-04 4.48479E-06-1.65436E-24
 -1       821 1.94280E-04-1.32210E-07 0.00000E+00
 -1       822 1.94140E-04-3.65391E-06 0.00000E+00
 -1       823 1.93998E-04-7.90344E-06 0.00000E+00
 -1       824 1.93853E-04-1.24473E-05 0.00000E+00
 -1       825 1.93708E-04-1.67726E-05 0.00000E+00
 -1       826 1.93567E-04-2.03674E-05 0.00000E+00
 -1       827 1.93428E-04-2.29189E-05 3.30872E-24
 -1       828 1.93291E-04-2.41207E-05 0.00000E+00
 -1       829 1.93156E-04-2.40339E-05 0.00000E+00
 -1       830 1.93019E-04-2.27272E-05 0.00000E+00
 -1       831 1.92882E-04-2.06017E-05 0.00000E+00
 -1       832 1.92743E-04-1.80633E-05 0.00000E+00
 -1       833 1.92605E-04-1.56305E-05 0.00000E+00
 -1       834 1.92470E-04-1.38212E-05 0.00000E+00
 -1       835 1.92335E-04-1.29840E-05 0.00000E+00
 -1       836 1.96102E-04 2.35777E-06 3.30872E-24
 -1       837 1.97667E-04 2.48595E-06 0.00000E+00
 -1       838 1.99136E-04 2.61408E-06-3.30872E-24
 -1       839 2.00542E-04 2.74150E-06-8.27181E-25
 -1       840 2.01915E-04 2.86876E-06 0.00000E+00
 -1       856 1.92193E-04-1.45254E-05 8.27181E-25
 -1       857 1.92173E-04-1.54537E-05 0.00000E+00
 -1       858 1.92154E-04-1.62674E-05-2.06795E-25
 -1       859 1.92135E-04-1.69876E-05 0.00000E+00
 -1       860 1.92115E-04-1.76355E-05 4.13590E-25
 -1       861 1.92095E-04-1.82325E-05 0.00000E+00
 -1       862 1.92076E-04-1.87998E-05 0.00000E+00
 -1       863 1.92056E-04-1.93588E-05 0.00000E+00
 -1       864 1.92036E-04-1.99308E-05 8.27181E-25
 -1       865 1.92016E-04-2.05371E-05 4.13590E-25
 -1       866 1.91997E-04-2.11991E-05 0.00000E+00
 -1       867 1.91977E-04-2.19379E-05 4.13590E-25
 -1       868 1.91957E-04-2.27749E-05 0.00000E+00
 -1       869 1.91936E-04-2.37311E-05-4.13590E-25
 -1       870 1.91916E-04-2.48276E-05 0.00000E+00
 -1       871 1.93561E-04-1.34663E-05 0.00000E+00
 -1       872 1.95060E-04-1.34746E-05 0.00000E+00
 -1       873 1.96639E-04-1.34837E-05 0.00000E+00
 -1       874 1.98229E-04-1.34934E-05-3.61892E-25
 -1       875 1.99761E-04-1.35038E-05-6.20385E-25
 -1       876 1.92735E-04-1.45108E-05-3.30872E-24
 -1       877 1.93239E-04-1.54935E-05 0.00000E+00
 -1       878 1.93721E-04-1.64173E-05-3.30872E-24
 -1       879 1.94185E-04-1.72897E-05 1.65436E-24
 -1       880 1.94631E-04-1.81180E-05-3.30872E-24
 -1       881 1.95065E-04-1.89097E-05 1.65436E-24
 -1       882 1.95487E-04-1.96720E-05-3.30872E-24
 -1       883 1.95901E-04-2.04124E-05-1.65436E-24
 -1       884 1.96310E-04-2.11381E-05 3.30872E-24
 -1       885 1.96716E-04-2.18566E-05 0.00000E+00
 -1       886 1.97121E-04-2.25750E-05 0.00000E+00
 -1       887 1.97530E-04-2.33009E-05-1.65436E-24
 -1       888 1.97944E-04-2.40415E-05-3.30872E-24
 -1       889 1.98365E-04-2.48043E-05 1.65436E-24
 -1       890 1.98797E-04-2.55967E-05-1.65436E-24
 -1       891 1.93260E-04-2.61429E-05 1.65436E-24
 -1       892 1.94602E-04-2.62006E-05 0.00000E+00
 -1       893 1.95896E-04-2.62582E-05 0.00000E+00
 -1       894 1.97117E-04-2.63155E-05 8.27181E-25
 -1       895 1.98238E-04-2.63726E-05 0.00000E+00
 -1       956 2.03157E-04 1.66339E-06-1.65436E-24
 -1       957 2.03025E-04 4.31633E-07 8.27181E-25
 -1       958 2.02892E-04-7.19285E-07 3.30872E-24
 -1       959 2.02759E-04-1.80071E-06 0.00000E+00
 -1       960 2.02626E-04-2.82402E-06-3.30872E-24
 -1       961 2.02493E-04-3.80066E-06 0.00000E+00
 -1       962 2.02360E-04-4.74206E-06 0.00000E+00
 -1       963 2.02228E-04-5.65967E-06 0.00000E+00
 -1       964 2.02095E-04-6.56495E-06-3.30872E-24
 -1       965 2.01962E-04-7.46935E-06 1.65436E-24
 -1       966 2.01829E-04-8.38433E-06 0.00000E+00
 -1       967 2.01697E-04-9.32133E-06 1.65436E-24
 -1       968 2.01564E-04-1.02918E-05 0.00000E+00
 -1       969 2.01431E-04-1.13072E-05 0.00000E+00
 -1       970 2.01299E-04-1.23788E-05-3.30872E-24
 -1       971 2.01049E-04-1.46561E-05 3.30872E-24
 -1       972 2.00927E-04-1.57000E-05 0.00000E+00
 -1       973 2.00806E-04-1.66598E-05-3.30872E-24
 -1       974 2.00685E-04-1.75463E-05 0.00000E+00
 -1       975 2.00563E-04-1.83703E-05-3.30872E-24
 -1       976 2.00442E-04-1.91428E-05-1.65436E-24
 -1       977 2.00320E-04-1.98746E-05 0.00000E+00
 -1       978 2.00199E-04-2.05766E-05-1.65436E-24
 -1       979 2.00077E-04-2.12597E-05 0.00000E+00
 -1       980 1.99956E-04-2.19348E-05-1.65436E-24
 -1       981 1.99835E-04-2.26129E-05 0.00000E+00
 -1       982 1.99714E-04-2.33047E-05 1.65436E-24
 -1       983 1.99592E-04-2.40213E-05 0.00000E+00
 -1       984 1.99472E-04-2.47734E-05-1.65436E-24
 -1       985 1.99352E-04-2.55721E-05 0.00000E+00
 -3
    1PSTEP                        28          14           1          
  100CL  114 6.62933E-01         409                     0   14           1
 -4  STRESS      6    1
 -5  SXX         1    4    1    1
 -5  SYY         1    4    2    2
 -5  SZZ         1    4    3    3
 -5  SXY         1    4    1    2
 -5  SYZ         1    4    2    3
 -5  SZX         1    4    3    1
 -1         1-5.34727E+06-1.57240E+06-1.13261E+06-1.32650E+06-1.81899E-09 8.58563E-09
 -1         2 1.53065E+06 2.24152E+07 5.20742E+06 6.78771E+06 3.12866E-08 9.12260E-08
 -1         3-1.48818E+03-1.55611E+06 4.05388E+02-2.20875E+03-4.94072E-10-1.93540E-09
 -1         5-7.54419E+01 3.86496E+05 9.98353E+00-1.34463E+00-4.41044E-10-9.09495E-09
 -1         8-5.52225E+05-1.99848E+05-6.17905E+04-2.42602E+05 1.20963E-10 9.29285E-08
 -1         9 1.18122E+07 3.93526E+06 2.81727E+06-3.03342E+05-3.37604E-10 3.94648E-08
 -1        10-2.30400E+03-1.62159E+06-3.94121E+03-1.49461E+04-1.38789E-08-6.53796E-08
 -1        12-7.15234E+01 3.86518E+05 3.28196E+02-9.16461E+00-6.04206E-10-7.34581E-08
 -1        15 9.49689E+02 5.17984E+02 3.01216E+03 8.43073E-01 7.02443E-11-3.82264E-07
 -1        16 2.29277E+07-3.35567E+05 3.11953E+06-2.29818E+06 2.11876E-08 1.66629E-07
 -1        17 8.39606E+06 6.29112E+06 2.26786E+06 6.01776E+06 2.12807E-08 4.97326E-08
 -1        18 1.42434E+05 3.35465E+04 4.17212E+03-1.19578E+05 1.55821E-08 1.18143E-08
 -1        19 1.22448E+05 1.41703E+05-9.44757E+02 2.19702E+04 1.58361E-09-9.04292E-09
 -1        20-8.20544E+04-5.73843E+05-1.28771E+05 2.50823E+04-1.32316E-09-2.93464E-09
 -1        21-4.55659E+01-2.95998E+05-9.23842E+02 2.75617E+02 1.40393E-08 7.64795E-09
 -1        24 1.40821E+07 1.21239E+07 3.89744E+06 1.12249E+07-1.66920E-07-5.72181E-08
 -1        25 1.25174E+05 2.68372E+05 1.00252E+05-6.46411E+05-2.89438E-09 1.95494E-08
 -1        26-5.54983E+04 9.22977E+04-2.46554E+04 1.33719E+03-5.52973E-11 7.41577E-09
 -1        27-7.55526E+04-3.10014E+05-1.13323E+05 6.89863E+04 3.99329E-09 4.12213E-09
 -1        28 2.22386E+04-8.53542E+04 1.68976E+04 2.05953E+04-5.06952E-09 5.08541E-09
 -1        32-1.68039E+06-3.18160E+06-1.97601E+05 4.59014E+05-4.26444E-08-1.05689E-08
 -1        33-1.78516E+05 9.30328E+04 3.23966E+04-3.84557E+04-3.08110E-09 1.34135E-08
 -1        34-2.23635E+05-2.50419E+04 6.90369E+02 7.56877E+04-5.18907E-09-4.35648E-10
 -1        35-2.29287E+04-3.38493E+04-1.34859E+03 5.14945E+04-3.45709E-09-1.31089E-09
 -1        51 6.08766E+04-1.70591E+05 1.28705E+05-4.34145E+05-7.27596E-11-4.28190E-08
 -1        52 2.05817E+04-1.48066E+05 6.75001E+04-5.06348E+05 2.49202E-10-1.32713E-08
 -1        53 4.16414E+03-1.63426E+05 3.51036E+04-4.32657E+05 2.54659E-10 5.38857E-08
 -1        54 7.31940E+03-1.59172E+05 2.87455E+04-5.07802E+05-2.40107E-10-2.11438E-07
 -1        55 1.60132E+04-1.66171E+05 3.48530E+04-4.32571E+05 3.05590E-10 3.04433E-07
 -1        56-9.81075E+06-1.39630E+06-9.25595E+05-4.10896E+06-1.58907E-08-2.28611E-07
 -1        57-1.11263E+07-7.66563E+05-5.44938E+05-2.66787E+06 5.63014E-08-8.28441E-08
 -1        58-9.58799E+06-1.87127E+06-2.01915E+05-4.31276E+06 1.81899E-09-5.73782E-08
 -1        59-1.13406E+07-2.15528E+05-1.07077E+05-2.59205E+06 6.44877E-09-1.03195E-07
 -1        60-9.68629E+06-1.87468E+06-5.88054E+04-4.26380E+06-2.48328E-08 3.69982E-08
 -1        61-1.06334E+07-5.76678E+05 2.10907E+04-2.84625E+06 3.51429E-08-1.16190E-07
 -1        62-1.01429E+07-1.61309E+06-8.46704E+04-3.93709E+06 3.24508E-09-5.77711E-08
 -1        63-9.65841E+06-1.33954E+06 6.27052E+04-3.58800E+06-7.13771E-09-1.75116E-07
 -1        64-1.05379E+07-1.19988E+06-7.79529E+04-3.44445E+06-1.86119E-08-2.40914E-07
 -1        65-9.27327E+06-1.98248E+06 1.75629E+04-4.56611E+06-5.58211E-08-6.28324E-09
 -1        66-1.06700E+07-8.71591E+05-4.78101E+04-3.06641E+06 1.28057E-09 1.53304E-07
 -1        67-9.30294E+06-2.25027E+06-9.62935E+04-5.03271E+06-1.08397E-07 1.72515E-07
 -1        68-1.06503E+07-8.32091E+05-1.87905E+05-3.06566E+06-6.56128E-08-1.62865E-07
 -1        69-9.46652E+06-2.32158E+06-4.83745E+05-4.53379E+06-1.22987E-07-3.74042E-07
 -1        70-1.03742E+07-9.05195E+05-8.51204E+05-3.47933E+06 3.81078E-09 5.32018E-08
 -1        86-1.56184E+06-1.58788E+07-2.85112E+06-3.18647E+06-2.75697E-07-1.31142E-07
 -1        87 2.46168E+06 6.48341E+06 2.37112E+06 5.86332E+06-4.67640E-07-1.26616E-07
 -1        88-4.66700E+05-1.92102E+06 2.24987E+05-2.59907E+06-3.99999E-07-2.71521E-08
 -1        89 3.29565E+06 6.17565E+06 2.43061E+06 6.06249E+06-5.57338E-07-3.26607E-07
 -1        90-2.29811E+06-1.56497E+07-3.07707E+06-3.41628E+06-1.33492E-07-1.44937E-08
 -1       121-2.03854E+03-1.56102E+06-5.47923E+02 1.09474E+03 1.44587E-09-7.07951E-09
 -1       122-1.30266E+03-1.55618E+06 7.68430E+02-4.42165E+03-5.55318E-09-1.82481E-08
 -1       123-2.05828E+03-1.56115E+06 2.58734E+02 3.26954E+03 3.96130E-09-1.09285E-08
 -1       124 3.31157E+02-1.55573E+06 2.94436E+03-9.25328E+03-1.00249E-08 3.73620E-09
 -1       125-2.86592E+03-1.56204E+06 3.45234E+03 5.88040E+03 7.16682E-09-2.47419E-08
 -1       191-7.95011E+01 3.86514E+05 8.48044E+00 7.01163E-01-5.87419E-10-4.33647E-09
 -1       192-7.64060E+01 3.86497E+05 2.13050E+01-4.31090E+00-8.32285E-10-2.89492E-09
 -1       193-8.20385E+01 3.86514E+05 3.62632E+01 3.78636E+00-1.09835E-09-8.50014E-09
 -1       194-7.94966E+01 3.86500E+05 8.09932E+01-9.78209E+00-6.51355E-10-6.97855E-09
 -1       195-8.69088E+01 3.86511E+05 1.55055E+02 6.36634E+00-1.60229E-09-5.66633E-08
 -1       251-8.61291E+05 1.60236E+04-3.74053E+04-1.44351E+04-2.33808E-09 7.17828E-08
 -1       252-8.75380E+05-1.85460E+04-2.60109E+04 5.10521E+04 1.56226E-08-3.01543E-09
 -1       253-8.69685E+05 2.45779E+03-1.00888E+04-1.01495E+04-1.54369E-08-2.19433E-07
 -1       254-8.61930E+05-2.98629E+03-4.46037E+03 3.63025E+04 1.30083E-08 1.67982E-07
 -1       255-8.74115E+05 4.63930E+01-3.52886E+03 3.10693E+02 5.84555E-09 1.59882E-07
 -1       256-8.56486E+05-2.68662E+02 1.23846E+03 1.25879E+04-1.93522E-08 1.60544E-07
 -1       257-8.74682E+05-5.91154E+02-1.40751E+03 1.35533E+04 7.08087E-09 2.30696E-07
 -1       258-8.59382E+05 9.28069E+02 2.74870E+03-1.23173E+04-1.37707E-08 9.34324E-09
 -1       259-8.71473E+05-9.54132E+02 1.36637E+03 2.52135E+04-4.12729E-09 3.35729E-07
 -1       260-8.65909E+05 2.97688E+03 5.60308E+03-3.02735E+04 4.78349E-09 4.27333E-07
 -1       261-8.68802E+05-2.14066E+03 8.68525E+03 3.15262E+04 3.05025E-08-9.65229E-08
 -1       262-8.64628E+05 1.18592E+04 2.15759E+04-3.55245E+04-2.68850E-08 6.15751E-08
 -1       263-8.73012E+05-9.60431E+03 3.41801E+04 3.04743E+04 9.32926E-09 3.88192E-07
 -1       264-8.33938E+05 6.72877E+04 9.46511E+04-2.62502E+04 2.37358E-08 2.52345E-07
 -1       265-8.98987E+05-5.77069E+04 1.31766E+05 2.22393E+04 9.37439E-09-9.57734E-08
 -1       266-1.69606E+04-7.89086E+03 3.94845E+04-1.77122E+01 1.43700E-10-1.29991E-07
 -1       267 1.96517E+04 9.20338E+03 2.79570E+04 2.04044E+01-2.95586E-11 5.01054E-10
 -1       268-2.65504E+03-1.31014E+03 1.03711E+04-2.62646E+00 1.10049E-10 2.50774E-07
 -1       269 3.13438E+03 1.56925E+03 6.75824E+03 3.05653E+00-2.01567E-10 3.74180E-07
 -1       270-4.74188E+02-2.58992E+02 3.25420E+03-4.20255E-01 6.58247E-11-2.52989E-08
 -1       271-1.46816E+06-1.87284E+05-1.10345E+05-5.71492E+05 9.25866E-10 1.76362E-07
 -1       272-1.46166E+06-3.01212E+05-6.92214E+04-6.11540E+05-1.23109E-08-2.11881E-07
 -1       273-1.49153E+06-2.10573E+05-2.67909E+04-5.63474E+05-1.26493E-08-8.28277E-08
 -1       274-1.43517E+06-2.73140E+05-1.38896E+04-6.26785E+05-2.88728E-08 8.57553E-08
 -1       275-1.49712E+06-2.10058E+05-6.69341E+03-5.59695E+05 3.68236E-08-7.52352E-08
 -1       276-1.42965E+06-2.74120E+05-2.79785E+03-6.35496E+05-1.32713E-08 1.00797E-07
 -1       277-1.49995E+06-2.07395E+05-1.85879E+03-5.56959E+05 3.60869E-08 2.90957E-07
 -1       278-1.42754E+06-2.77317E+05-6.93375E+02-6.41892E+05-3.03771E-08 2.09669E-07
 -1       279-1.50176E+06-2.05233E+05-8.50497E+02-5.55046E+05-1.04974E-08 6.22977E-08
 -1       280-1.42658E+06-2.79701E+05-9.56346E+02-6.46075E+05-1.90448E-09 3.84951E-07
 -1       281-1.50270E+06-2.03885E+05-1.76938E+03-5.53979E+05 1.65419E-08 1.88418E-07
 -1       282-1.42695E+06-2.81819E+05-4.11217E+03-6.47766E+05-6.29859E-08 1.14180E-07
 -1       283-1.50222E+06-2.02701E+05-7.32109E+03-5.53867E+05 6.92097E-09-5.69594E-08
 -1       284-1.43353E+06-2.91356E+05-1.99386E+04-6.45569E+05-3.68433E-08-3.07849E-07
 -1       285-1.49601E+06-1.95514E+05-3.11551E+04-5.55647E+05-1.86683E-08-4.03015E-08
 -1       301-8.22660E+03-6.49693E+05 1.66746E+05-1.14297E+06 1.97906E-09 2.37676E-07
 -1       302-1.02690E+04-6.02639E+05 1.00350E+05-1.66813E+06-5.50790E-09-6.21367E-08
 -1       303-2.26531E+04-6.42473E+05 5.66259E+04-1.13981E+06 5.77711E-09 1.07935E-07
 -1       304-2.60700E+04-6.09938E+05 5.68583E+04-1.66757E+06 7.08678E-09 4.07712E-07
 -1       305-2.70615E+04-6.31157E+05 6.97383E+04-1.14290E+06 6.20821E-09-2.41998E-08
 -1       306-3.01349E+07-6.21745E+06-8.61086E+06-4.86880E+05-7.74162E-08 5.28817E-08
 -1       307 2.52825E+07 3.29152E+06 5.50767E+06-1.52842E+07-7.96077E-07 2.34344E-07
 -1       308-6.91312E+06-1.01274E+06-4.35158E+05 5.21176E+06-1.58849E-07 4.59113E-07
 -1       309-3.18644E+06 8.74542E+06 2.29608E+06-2.07118E+07 3.51127E-07 8.68386E-08
 -1       310-1.26607E+07-1.95747E+06-2.06537E+06 5.22038E+06 1.80386E-07-4.94911E-07
 -1       311 3.87017E+07-3.07828E+03 7.31873E+06-8.71663E+06 5.50266E-07-8.61764E-08
 -1       312-3.19970E+07-6.82219E+06-8.57058E+06-5.11352E+06 2.45753E-07-2.57423E-08
 -1       313 4.54214E+07 1.51965E+07 1.06953E+07 2.39545E+07 6.85686E-08-5.70435E-09
 -1       314-1.71587E+07-1.78767E+07-7.53210E+06-1.25436E+07 5.65196E-07-4.10364E-08
 -1       315-1.94085E+06 2.98331E+07 5.66789E+06 1.04514E+07-1.71669E-07 2.17871E-07
 -1       316 1.43925E+06-9.82873E+06-4.27029E+05-2.48833E+06-1.00298E-06-1.78406E-07
 -1       317-1.70936E+07 2.24517E+07 2.24933E+06-8.89799E+06 6.74008E-07-5.51496E-07
 -1       318-1.08774E+06-1.28576E+07-2.06677E+06-4.24294E+06-1.03269E-06 1.06578E-07
 -1       319 7.30625E+06 3.21101E+07 7.07554E+06 1.67030E+07-6.40430E-08 2.02679E-07
 -1       320-2.26551E+07-1.76979E+07-9.88855E+06-1.28479E+07 1.78698E-07-2.18861E-08
 -1       336-7.49617E+02-1.68985E+06-1.38285E+04 8.89587E+03-2.67901E-08-8.89850E-09
 -1       337-5.40442E+03-1.68939E+06-1.80419E+04-2.16123E+04-4.84897E-08-1.14323E-08
 -1       338 2.70035E+02-1.68934E+06-2.84239E+04 1.24653E+04-3.47773E-08-1.44100E-08
 -1       339-3.01637E+04-1.70660E+06-6.42360E+04-2.86053E+04-6.23631E-08 2.46146E-08
 -1       340 1.98618E+04-1.67482E+06-1.01193E+05 1.57579E+04-4.18841E-08 2.93767E-08
 -1       406-4.98217E+01 3.86497E+05 6.44401E+02 3.35302E+00-1.83601E-09-3.79441E-08
 -1       407 1.54786E+02 3.86631E+05 1.37714E+03 2.34300E+01-4.24421E-10-2.62771E-08
 -1       408 6.35022E+02 3.86396E+05 2.74590E+03-2.71026E+01-2.62571E-09 7.68523E-09
 -1       409 2.90794E+03 3.87508E+05 6.18903E+03 2.89360E+02-1.20508E-11 1.80089E-08
 -1       410 8.48293E+03 3.85606E+05 1.26316E+04-2.79040E+02-2.87764E-09-1.12377E-08
 -1       521-3.17254E+07-7.69152E+06-1.00814E+07-8.99823E+04-1.06404E-07 2.01166E-07
 -1       522 2.61968E+07 4.34724E+06 5.62822E+06-1.88295E+07-5.45988E-07-3.93804E-07
 -1       523-7.48413E+06-1.32984E+06-4.26540E+05 5.66831E+06 2.91620E-08-2.95695E-07
 -1       524-6.69382E+06 1.18506E+07 2.48969E+06-2.38085E+07 5.40284E-07-3.75057E-07
 -1       525-1.34619E+07-2.60649E+06-2.27541E+06 5.68350E+06 3.69910E-07-3.18134E-07
 -1       526 4.23507E+07-1.02961E+05 7.69396E+06-1.13756E+07 3.30852E-07 1.67347E-08
 -1       527-3.38961E+07-8.54028E+06-9.89875E+06-4.98077E+06 8.49832E-08 9.92732E-08
 -1       528 4.96802E+07 1.69906E+07 1.11760E+07 2.73012E+07 1.91678E-07-2.46015E-07
 -1       529-1.81108E+07-2.01315E+07-8.65276E+06-1.25830E+07 9.02219E-08-2.26311E-07
 -1       530-4.43144E+06 3.47101E+07 6.01071E+06 9.88413E+06-2.39233E-08 5.85511E-07
 -1       531 1.44918E+06-1.09089E+07-3.98619E+05-2.42111E+06-7.65751E-07 3.23053E-07
 -1       532-1.95906E+07 2.44777E+07 2.46415E+06-1.32563E+07 3.65937E-07-7.05564E-07
 -1       533-1.12733E+06-1.40311E+07-2.20700E+06-4.03589E+06-2.00467E-07-1.06741E-06
 -1       534 5.31618E+06 3.73490E+07 7.37845E+06 1.73130E+07-3.16359E-08 7.78586E-07
 -1       535-2.38662E+07-2.01393E+07-1.13604E+07-1.29323E+07 1.26660E-07 4.61529E-07
 -1       536-7.06271E+05-4.67186E+04-4.83345E+04-5.47129E+04-6.87260E-09 7.46122E-08
 -1       537-5.47595E+04 4.46490E+04 8.38762E+04 1.23906E+05-1.15075E-07 7.84057E-08
 -1       538-3.94416E+05 3.35591E+03 3.52095E+03-7.22318E+04 3.33559E-08 1.06147E-07
 -1       539-2.68986E+05 2.84633E+03 2.49138E+04 1.38799E+05 1.49293E-07 1.13869E-07
 -1       540-4.97427E+05-4.27682E+02-2.13475E+04-7.01412E+04 2.89297E-08 1.06787E-07
 -1       541 1.47017E+05 1.69820E+04 1.06454E+05 9.79786E+04 1.90851E-08 7.58210E-08
 -1       542-7.99209E+05-2.01485E+04-8.42962E+04-3.05352E+04 4.80345E-08 4.13742E-08
 -1       543 4.05875E+05 2.73437E+04 1.58077E+05-1.33676E+04-5.20247E-08-7.76618E-09
 -1       544-7.49342E+05-1.65484E+04-7.48875E+04 4.05347E+04-4.55557E-08-5.01782E-08
 -1       545 2.92443E+04 9.49086E+03 7.98657E+04-1.13677E+05 1.58861E-08-8.10605E-08
 -1       546-4.32693E+05 6.09927E+03-1.22368E+04 6.94279E+04 1.66413E-08-7.21056E-08
 -1       547-2.87070E+05-4.65627E+03 1.05989E+04-1.41646E+05-1.18267E-07-1.08024E-07
 -1       548-4.41532E+05 4.72063E+03-2.38903E+04 6.91951E+04-9.74183E-08-1.13215E-07
 -1       549 4.84378E+04 1.61002E+04 6.05792E+04-1.11539E+05-6.80014E-08-5.68443E-08
 -1       550-7.59223E+05-2.21701E+04-1.29025E+05 3.86043E+04 3.98722E-09-3.59396E-08
 -1       551 4.07829E+04-7.49845E+05-1.59180E+04-1.24701E+06-1.00947E-07 9.19681E-09
 -1       552 9.32569E+04-7.94832E+05 9.90039E+03-1.77806E+06-7.13626E-08 3.19924E-08
 -1       553 7.17622E+04-7.91239E+05 3.20198E+04-1.24036E+06-1.17332E-07 4.25789E-08
 -1       554 1.32054E+05-8.10741E+05 8.10254E+04-1.78001E+06-7.30652E-08 2.12385E-08
 -1       555 1.01504E+05-8.14895E+05 1.47981E+05-1.24019E+06-1.24041E-07-1.03137E-08
 -1       556 2.23804E+05-3.83824E+05 2.56098E+04-4.07327E+05-1.78406E-08-8.64384E-09
 -1       557 3.54385E+05-4.88198E+05 1.60768E+04-5.27809E+05-1.44064E-09-1.76369E-08
 -1       558 2.05555E+05-3.76587E+05 2.29019E+03-4.11791E+05-1.28348E-08-1.41445E-08
 -1       559 3.29370E+05-4.88245E+05 2.42463E+03-5.48273E+05 2.64845E-08-2.05546E-08
 -1       560 1.90237E+05-3.66982E+05-1.51432E+03-4.22829E+05 2.19734E-08-5.60249E-09
 -1       561 3.10127E+05-4.80542E+05 1.25983E+02-5.61395E+05 1.50903E-08 1.54614E-09
 -1       562 1.78127E+05-3.59458E+05-1.32976E+03-4.31599E+05 8.16362E-09-3.11775E-09
 -1       563 2.95742E+05-4.74270E+05-3.79875E+01-5.70791E+05-7.39237E-09-2.62844E-10
 -1       564 1.69483E+05-3.54073E+05-6.01914E+02-4.37724E+05 4.80213E-10-1.66642E-08
 -1       565 2.86200E+05-4.70115E+05 2.35346E+01-5.76887E+05 1.20053E-08-5.93900E-09
 -1       566 1.64430E+05-3.50876E+05-2.60753E+02-4.41258E+05-1.69530E-09 8.00901E-09
 -1       567 2.81562E+05-4.68098E+05-3.63485E+02-5.79704E+05 1.91158E-08 3.73257E-09
 -1       568 1.63059E+05-3.50036E+05-1.12788E+03-4.42313E+05 4.31100E-10 4.48199E-09
 -1       569 2.80438E+05-4.68025E+05-2.84845E+03-5.78275E+05-3.93084E-09 1.62545E-08
 -1       570 1.66461E+05-3.53274E+05-6.22652E+03-4.41292E+05 1.32131E-08 1.20581E-08
 -1       571 2.90630E+05 1.05120E+04 1.49943E+04-9.53133E+04 2.09457E-09 2.05391E-08
 -1       572 2.92803E+05 3.96332E+03 7.34843E+03-1.04569E+05 3.19778E-09-6.98492E-10
 -1       573 2.91493E+05 1.24783E+03 3.26515E+03-9.51367E+04 4.13365E-09 4.26826E-09
 -1       574 2.91707E+05 7.29333E+02 1.63745E+03-1.04793E+05 3.93607E-09 4.02633E-09
 -1       575 2.91587E+05 4.49865E+02 7.72836E+02-9.51126E+04-2.35394E-09 2.69665E-09
 -1       576 2.91571E+05 4.61354E+02 3.95699E+02-1.04823E+05-1.25419E-08-4.34011E-09
 -1       577 2.91627E+05 3.91664E+02 1.97547E+02-9.51092E+04-4.85670E-09-1.86628E-09
 -1       578 2.91602E+05 4.23161E+02 1.14149E+02-1.04827E+05-4.74392E-09 3.59887E-09
 -1       579 2.91699E+05 3.54811E+02 7.84425E+01-9.51089E+04 4.14548E-09 5.62068E-10
 -1       580 2.91704E+05 3.71929E+02 9.11184E+01-1.04822E+05-5.24597E-09 9.38417E-09
 -1       581 2.91814E+05 2.96008E+02 1.37688E+02-9.51148E+04 8.76025E-09 3.00952E-09
 -1       582 2.91880E+05 3.34382E+02 2.79999E+02-1.04761E+05 4.78121E-09 2.71393E-09
 -1       583 2.91954E+05 3.38473E+02 5.37434E+02-9.51715E+04 4.24552E-09 1.46417E-08
 -1       584 2.92256E+05 7.77467E+02 1.21619E+03-1.04283E+05 6.37192E-09 2.53144E-08
 -1       585 2.91981E+05 1.80096E+03 2.46273E+03-9.55913E+04 2.72848E-10 8.28368E-09
 -1       586-3.42411E+03 1.17027E+05-2.91120E+03-2.50773E+05-3.92447E-09 2.38379E-09
 -1       587-1.34053E+03 1.16780E+05 7.76282E+02-2.75994E+05-3.66344E-09 6.16751E-10
 -1       588 3.97400E+02 1.16586E+05 4.76600E+03-2.50635E+05-3.52156E-09 6.65204E-09
 -1       589 5.08810E+03 1.19062E+05 1.23573E+04-2.75761E+05-8.26549E-09-1.23837E-08
 -1       590 1.66238E+04 1.15251E+05 2.59205E+04-2.51067E+05-5.03042E-09-3.53430E-09
 -1       591-7.50942E+04-1.59794E+04-2.25492E+04-3.19848E+04-4.79599E-09-1.50249E-09
 -1       592-7.91929E+04-1.95344E+04-1.22145E+04-3.56066E+04-4.64740E-09-7.91374E-10
 -1       593-7.73493E+04-1.43432E+04-5.08427E+03-3.36382E+04-4.18942E-09 1.04601E-08
 -1       594-7.60796E+04-1.62254E+04-2.53565E+03-3.57243E+04-6.64350E-10-2.15171E-08
 -1       595-7.75212E+04-1.43378E+04-1.16412E+03-3.37133E+04-1.17634E-09-3.26179E-09
 -1       596-7.58665E+04-1.60741E+04-5.91562E+02-3.56990E+04 5.40003E-09 2.69438E-09
 -1       597-7.75428E+04-1.43533E+04-3.21659E+02-3.37162E+04-2.55187E-09 6.59435E-09
 -1       598-7.58454E+04-1.60681E+04-2.57726E+02-3.56918E+04-1.48125E-08 1.72136E-08
 -1       599-7.75415E+04-1.43538E+04-3.28154E+02-3.37159E+04 5.14524E-09 4.51450E-10
 -1       600-7.58665E+04-1.60746E+04-6.08755E+02-3.56968E+04 1.19026E-08 5.33709E-09
 -1       601-7.75169E+04-1.43392E+04-1.20050E+03-3.37124E+04 2.03886E-09 1.15924E-08
 -1       602-7.60863E+04-1.62296E+04-2.61614E+03-3.57191E+04-1.63845E-09 2.56451E-08
 -1       603-7.73368E+04-1.43477E+04-5.24631E+03-3.36357E+04-6.50152E-09-3.35694E-09
 -1       604-7.93164E+04-1.96242E+04-1.26029E+04-3.55727E+04 8.14225E-10 1.39673E-08
 -1       605-7.49899E+04-1.60537E+04-2.32664E+04-3.19491E+04 4.42981E-09 1.53350E-08
 -1       606 2.66594E+04-1.43370E+04-2.57013E+04 2.39460E+04 1.46883E-08 7.16864E-09
 -1       607 2.22680E+04-4.68246E+03-1.27992E+04 2.69104E+04 1.43336E-08-4.71482E-09
 -1       608 2.47709E+04-8.44720E+02-5.72975E+03 2.37777E+04 1.00899E-08-3.09319E-09
 -1       609 2.42912E+04-2.89455E+02-2.89452E+03 2.71241E+04 3.13776E-09 5.13865E-11
 -1       610 2.45573E+04-4.10733E+01-1.38100E+03 2.37577E+04 6.30189E-09 1.27784E-10
 -1       611 2.44820E+04-4.13969E+01-6.96288E+02 2.71472E+04 1.17216E-08-9.09517E-09
 -1       612 2.45102E+04-2.74116E+01-3.30988E+02 2.37557E+04 1.35697E-09-7.51106E-09
 -1       613 2.44937E+04-3.73546E+01-1.48282E+02 2.71499E+04 3.26327E-09-1.04092E-08
 -1       614 2.44881E+04-3.38795E+01-3.46671E+01 2.37550E+04 9.50422E-10 1.57859E-08
 -1       615 2.44885E+04-3.59042E+01 6.23998E+01 2.71503E+04 9.00400E-10-2.88469E-09
 -1       616 2.44708E+04-3.07865E+01 1.86886E+02 2.37553E+04 4.06862E-09-2.04341E-08
 -1       617 2.45110E+04 3.88489E+00 4.26296E+02 2.71498E+04 1.66301E-09-1.14426E-08
 -1       618 2.44338E+04 9.20785E+01 8.59236E+02 2.37555E+04 3.47882E-10 1.90844E-08
 -1       619 2.48144E+04 6.68224E+02 1.92946E+03 2.71492E+04-8.46967E-11 1.96903E-08
 -1       620 2.41485E+04 2.12953E+03 3.87815E+03 2.37571E+04 6.87351E-10 1.37552E-08
 -1       621 5.11619E+02 3.01562E+05 3.88690E+03 4.11428E+04 1.09321E-09-3.64162E-09
 -1       622 6.78315E+02 3.02459E+05 3.44950E+03 5.97298E+04 1.21099E-09 1.95869E-08
 -1       623 1.43526E+02 3.01757E+05 4.14491E+03 4.09566E+04 1.18689E-09 8.36098E-09
 -1       624 2.12890E+03 3.03677E+05 8.03525E+03 5.99130E+04 1.37561E-09 1.23782E-08
 -1       625 2.07969E+03 3.00163E+05 1.40412E+04 4.09534E+04 1.60571E-09 2.89144E-08
 -1       626 2.61000E+05 6.14049E+04 5.12222E+03 1.26752E+05 1.54523E-09-4.68299E-09
 -1       627 2.58685E+05 6.27987E+04 2.46836E+03 1.31023E+05 3.64889E-09-1.59617E-08
 -1       628 2.61128E+05 5.90615E+04 1.04394E+03 1.27624E+05-4.45198E-09-1.38380E-08
 -1       629 2.58050E+05 6.21180E+04 5.10953E+02 1.31263E+05-7.16318E-09-8.64843E-09
 -1       630 2.61143E+05 5.89482E+04 2.37124E+02 1.27660E+05-1.11868E-08-1.86336E-08
 -1       631 2.57984E+05 6.20921E+04 1.27738E+02 1.31265E+05 2.11480E-09-6.85731E-09
 -1       632 2.61139E+05 5.89521E+04 8.42907E+01 1.27656E+05 8.32824E-09-1.77490E-08
 -1       633 2.57975E+05 6.20939E+04 9.42619E+01 1.31261E+05 5.21118E-09 1.42370E-08
 -1       634 2.61135E+05 5.89493E+04 1.52650E+02 1.27656E+05 5.07043E-09 6.36601E-09
 -1       635 2.57990E+05 6.20921E+04 3.09084E+02 1.31267E+05-1.75064E-09 5.83123E-09
 -1       636 2.61126E+05 5.89435E+04 6.24297E+02 1.27655E+05-2.66618E-09-1.79984E-08
 -1       637 2.58125E+05 6.21892E+04 1.37274E+03 1.31266E+05-2.98951E-09 1.55251E-09
 -1       638 2.61077E+05 5.92467E+04 2.82048E+03 1.27518E+05 1.72804E-10-2.89356E-09
 -1       639 2.59606E+05 6.42498E+04 6.67342E+03 1.30830E+05 5.22436E-09-8.33506E-09
 -1       640 2.60872E+05 6.54000E+04 1.38485E+04 1.24926E+05 2.63799E-09-1.21229E-08
 -1       656 6.66016E+04-1.70457E+06-1.60772E+05-2.56455E+03 2.54659E-10-2.27592E-08
 -1       657-8.81087E+04-1.77722E+06-1.33191E+05 5.15005E+03-4.23825E-10-2.63842E-08
 -1       658 2.12307E+04-1.72520E+06-8.20306E+04-4.64894E+03 6.54381E-10 5.61798E-10
 -1       659-9.52799E+04-1.78062E+06-1.42616E+05 6.88303E+03-1.67347E-09 4.08987E-09
 -1       660 7.37568E+04-1.70117E+06-1.76975E+05-4.29752E+03-2.16096E-09 5.47334E-09
 -1       661 1.58355E+05 1.65674E+04 1.67019E+04 6.19051E+04 1.29603E-10 1.33596E-08
 -1       662 1.67801E+05 2.89325E+04 1.12559E+04 5.81537E+04 1.54836E-09 3.42334E-09
 -1       663 1.61636E+05 2.19257E+04 3.93660E+03 6.09530E+04-2.44029E-09 4.70754E-09
 -1       664 1.63998E+05 2.26665E+04 2.35491E+03 5.93167E+04-8.11951E-10-1.74857E-08
 -1       665 1.62134E+05 2.26575E+04 9.28998E+02 6.08077E+04-1.55404E-09 1.54137E-09
 -1       666 1.63409E+05 2.18297E+04 5.43804E+02 5.95062E+04 6.49516E-09 2.45526E-09
 -1       667 1.62221E+05 2.27407E+04 2.89048E+02 6.07713E+04-2.37321E-11 1.80179E-08
 -1       668 1.63312E+05 2.17699E+04 2.94991E+02 5.95592E+04-5.12701E-09-2.47863E-09
 -1       669 1.62229E+05 2.27155E+04 3.99763E+02 6.07550E+04-3.78841E-09-1.04521E-08
 -1       670 1.63410E+05 2.19871E+04 8.70851E+02 5.95621E+04-1.58250E-08-1.82711E-08
 -1       671 1.62123E+05 2.25281E+04 1.54638E+03 6.07664E+04-2.42613E-09-1.49765E-09
 -1       672 1.64311E+05 2.34915E+04 3.95648E+03 5.93437E+04 3.75309E-09 1.49626E-08
 -1       673 1.61332E+05 2.12492E+04 6.63047E+03 6.09589E+04 2.98621E-09 9.86211E-09
 -1       674 1.70621E+05 3.41441E+04 1.89618E+04 5.74897E+04-1.70223E-09 1.92833E-08
 -1       675 1.55853E+05 1.21738E+04 2.81459E+04 6.25084E+04-2.94995E-09 5.56611E-09
 -1       676 2.41127E+01-2.95921E+05-1.11347E+03-1.37813E+02 6.47105E-10-2.55517E-09
 -1       677-2.94533E+02-2.96191E+05-2.03785E+03 2.75403E+02 8.98905E-09-8.61283E-09
 -1       678 1.97554E+02-2.95729E+05-3.60241E+03-1.37500E+02 5.09999E-10-7.41955E-09
 -1       679-3.60246E+03-2.98365E+05-8.55784E+03 2.74213E+02 1.03555E-08-2.02077E-08
 -1       680 2.15089E+03-2.93748E+05-1.37923E+04-1.35104E+02 1.45519E-09 1.69197E-08
 -1       771-3.06241E+06-7.47512E+05-1.66111E+05-1.46615E+06-4.24625E-08-2.85800E-08
 -1       772-2.98525E+06-8.36422E+05-8.56428E+04-1.56894E+06-3.55067E-08 2.29193E-08
 -1       773-3.09394E+06-7.22930E+05-4.36572E+04-1.48071E+06-1.65601E-08 1.46392E-08
 -1       774-2.97572E+06-8.17867E+05-1.94780E+04-1.59474E+06 3.20579E-08-1.07684E-08
 -1       775-3.11040E+06-7.11377E+05-1.45692E+04-1.48778E+06-1.71713E-09-1.67347E-09
 -1       776-2.98809E+06-8.14824E+05-5.44843E+03-1.61426E+06-1.17434E-08 3.48882E-09
 -1       777-3.12469E+06-7.01064E+05-6.43708E+03-1.49401E+06-2.00816E-09 4.33647E-09
 -1       778-3.00100E+06-8.11995E+05-1.82004E+03-1.63103E+06 2.76486E-10 1.33805E-08
 -1       779-3.13698E+06-6.92053E+05-3.21680E+03-1.49934E+06-1.25001E-08-4.91127E-09
 -1       780-3.01237E+06-8.09295E+05-5.33526E+02-1.64469E+06-2.46582E-08 6.43195E-09
 -1       781-3.14675E+06-6.84788E+05-1.24979E+03-1.50350E+06-3.94502E-08 3.28509E-09
 -1       782-3.02114E+06-8.07004E+05 4.50295E+02-1.65477E+06-3.87372E-08-7.31325E-09
 -1       783-3.15363E+06-6.79740E+05 7.00892E+02-1.50642E+06-3.68891E-09-1.37165E-08
 -1       784-3.02599E+06-8.04715E+05 2.90590E+03-1.66100E+06-1.61781E-08-7.28960E-10
 -1       785-3.15770E+06-6.76728E+05 5.12984E+03-1.50827E+06-3.45863E-08 5.62977E-09
 -1       786 1.23459E+05-9.76175E+03 2.25847E+04-3.22338E+02 4.82547E-09 9.13769E-09
 -1       787 1.33254E+05 1.13019E+04 1.59778E+04-1.35573E+02 8.79742E-09 1.20801E-08
 -1       788 1.27235E+05-1.52969E+03 5.84316E+03-2.87221E+02 4.35811E-09 1.99930E-09
 -1       789 1.28854E+05 1.77058E+03 3.66812E+03-1.89376E+02 4.74722E-09-1.14776E-08
 -1       790 1.27859E+05-2.38166E+02 1.48515E+03-2.68553E+02-3.93541E-09 9.76610E-09
 -1       791 1.28125E+05 2.75562E+02 8.57776E+02-2.21315E+02-7.27435E-09 1.99790E-08
 -1       792 1.27965E+05-3.57887E+01 3.63464E+02-2.55284E+02-3.59856E-09 6.84987E-09
 -1       793 1.27999E+05 3.78038E+01 1.81137E+02-2.46264E+02 8.90587E-10 1.16500E-08
 -1       794 1.27985E+05-5.57522E-01 4.69556E+01-2.43604E+02 4.02243E-09 2.07409E-08
 -1       795 1.27962E+05-2.75624E+01-5.81273E+01-2.70617E+02-5.72207E-09 1.51831E-08
 -1       796 1.28002E+05 2.95410E+01-1.63308E+02-2.30931E+02 3.82608E-09-1.16361E-08
 -1       797 1.27867E+05-2.20532E+02-4.48095E+02-2.99698E+02 4.06445E-09-8.97501E-09
 -1       798 1.28081E+05 1.92267E+02-7.27645E+02-2.14522E+02 1.47477E-09-6.21611E-09
 -1       799 1.27315E+05-1.41718E+03-2.00180E+03-3.40310E+02 6.24931E-09 1.37374E-08
 -1       800 1.28554E+05 1.22522E+03-2.83293E+03-1.90320E+02 9.82148E-11-1.54807E-09
 -1       801-1.71337E+05-9.99921E+06-1.39372E+06 1.41574E+06 9.27830E-08-4.62242E-08
 -1       802 7.38500E+05 5.95230E+06 2.18220E+06-1.74774E+06 2.60821E-07-3.25390E-08
 -1       803-5.36752E+05-1.42687E+07-1.89087E+06 8.98447E+05 7.84275E-08 2.23881E-08
 -1       804 2.87274E+05 2.39614E+06 1.53756E+06 6.77238E+05-1.20606E-07-1.07781E-07
 -1       805 1.89366E+05-6.45716E+06-2.86381E+05-1.00358E+06-4.98112E-08-6.63140E-08
 -1       806-3.08973E+05-5.97608E+04-2.28561E+04-1.22423E+05-4.75438E-09-2.05664E-08
 -1       807-3.10772E+05-5.60291E+04-1.12290E+04-1.27968E+05 2.43849E-08 9.88479E-09
 -1       808-3.09600E+05-5.15237E+04-4.76369E+03-1.26317E+05-2.71984E-09 5.58543E-10
 -1       809-3.08411E+05-5.28739E+04-2.32932E+03-1.28244E+05-1.50044E-08-4.07908E-09
 -1       810-3.09695E+05-5.12369E+04-1.06767E+03-1.26489E+05 7.11270E-09 2.11953E-08
 -1       811-3.08228E+05-5.27471E+04-5.30970E+02-1.28208E+05 5.59385E-09 2.54886E-08
 -1       812-3.09709E+05-5.12616E+04-2.68625E+02-1.26489E+05-3.52065E-09 3.43789E-10
 -1       813-3.08203E+05-5.27493E+04-1.74717E+02-1.28190E+05-4.19959E-09 8.48559E-09
 -1       814-3.09702E+05-5.12713E+04-1.73372E+02-1.26484E+05-1.64255E-09-2.60557E-08
 -1       815-3.08207E+05-5.27516E+04-2.79529E+02-1.28182E+05 4.87307E-09-5.49358E-09
 -1       816-3.09681E+05-5.12705E+04-5.29931E+02-1.26481E+05 9.78525E-09 1.49294E-08
 -1       817-3.08297E+05-5.28021E+04-1.13734E+03-1.28170E+05-1.40208E-08-4.97494E-10
 -1       818-3.09612E+05-5.14310E+04-2.31981E+03-1.26405E+05-5.72982E-11-7.59337E-09
 -1       819-3.09566E+05-5.42035E+04-5.45833E+03-1.27870E+05 1.72076E-09 1.69214E-08
 -1       820-3.09174E+05-5.55544E+04-1.11097E+04-1.24644E+05 4.55657E-10 1.06324E-08
 -1       821-3.79054E+05 2.08734E+04-4.85925E+04 2.13473E+03 1.40185E-08-8.01811E-09
 -1       822-3.98751E+05-2.41808E+04-3.41475E+04-4.47605E+03 5.02985E-09-8.98217E-09
 -1       823-3.86515E+05 3.29053E+03-1.25508E+04 3.45212E+03-1.17224E-08 6.89215E-09
 -1       824-3.89743E+05-3.79451E+03-7.85561E+03-5.39486E+03 5.63396E-10 9.96260E-09
 -1       825-3.88069E+05 5.11376E+02-3.29008E+03 3.05366E+03 2.05394E-08-5.42400E-09
 -1       826-3.87304E+05-5.67131E+02-1.74272E+03-3.11314E+03 2.86213E-08 2.92755E-09
 -1       827-3.88929E+05 4.64506E+01-1.19175E+03 1.17025E+03 1.31510E-08-4.99679E-09
 -1       828-3.86593E+05-1.31563E+02-5.83541E+02 1.09880E+03-1.42764E-09 1.71634E-08
 -1       829-3.88767E+05 6.56421E+01-1.18047E+03-1.15831E+03 9.94334E-10 1.36282E-09
 -1       830-3.87655E+05-6.22148E+02-1.88141E+03 4.90556E+03-8.38725E-11-1.21878E-08
 -1       831-3.87890E+05 5.54814E+02-3.37183E+03-2.63653E+03-6.81982E-09 4.07658E-09
 -1       832-3.89823E+05-3.96162E+03-8.15874E+03 6.19335E+03-3.27140E-09 2.60593E-09
 -1       833-3.86615E+05 3.41477E+03-1.30555E+04-2.44615E+03-5.07485E-09-1.55624E-08
 -1       834-3.98810E+05-2.50957E+04-3.53717E+04 4.21285E+03-2.11620E-09 1.30676E-08
 -1       835-3.78886E+05 2.16558E+04-5.04654E+04-6.55939E+02 3.89829E-09 2.04091E-08
 -1       836-1.41468E+03 3.70367E+05 2.29201E+04-1.61043E+04-7.18683E-09 2.12503E-09
 -1       837 4.88582E+03 3.77546E+05 1.93904E+04-3.29131E+04-7.68983E-09-5.20140E-09
 -1       838-5.58275E+02 3.72381E+05 1.97505E+04-1.60328E+04-6.36282E-09-2.89378E-09
 -1       839 1.24271E+04 3.83163E+05 3.73562E+04-3.29657E+04-6.45059E-09 2.37407E-09
 -1       840-3.84221E+03 3.64691E+05 5.95668E+04-1.60576E+04-6.16637E-09-4.26800E-09
 -1       856-5.20020E+04 8.02056E+03-2.11359E+04-3.97412E+02 5.77984E-09 1.40972E-09
 -1       857-6.07095E+04-9.42395E+03-1.45498E+04 5.63338E+03 7.75876E-09-2.25259E-09
 -1       858-5.54504E+04 1.12481E+03-5.48425E+03-4.21471E+02 2.90220E-09-1.53602E-08
 -1       859-5.67521E+04-1.32335E+03-3.30947E+03 5.66916E+03-1.58707E-10 4.01610E-09
 -1       860-5.59656E+04 1.57530E+02-1.38697E+03-4.32920E+02-3.85882E-10 1.28085E-09
 -1       861-5.61595E+04-1.88108E+02-7.62935E+02 5.68475E+03 4.80347E-09 1.02618E-08
 -1       862-5.60462E+04 2.13406E+01-3.17010E+02-4.37040E+02-1.87829E-09 2.81261E-08
 -1       863-5.60607E+04-2.18635E+01-1.15177E+02 5.68715E+03-1.82967E-09-9.26235E-09
 -1       864-5.60649E+04-4.93209E+00 4.78529E+01-4.35314E+02 5.58202E-11-1.64076E-08
 -1       865-5.60048E+04 5.98720E+01 2.56618E+02 5.67728E+03-1.45531E-09-2.15163E-08
 -1       866-5.60999E+04-6.04080E+01 5.16815E+02-4.27174E+02 1.62083E-09-4.42964E-09
 -1       867-5.57618E+04 4.98831E+02 1.27187E+03 5.65519E+03 3.05548E-09 2.70541E-09
 -1       868-5.63029E+04-4.35954E+02 2.11341E+03-4.13219E+02-5.85374E-09-1.42157E-08
 -1       869-5.42125E+04 3.62830E+03 5.62721E+03 5.61883E+03 1.09327E-09-3.19044E-08
 -1       870-5.76414E+04-3.10486E+03 8.16637E+03-3.90719E+02-6.33202E-09-8.80027E-09
 -1       871-5.52047E+03-2.13765E+04-1.95017E+04 1.30504E+05-4.82578E-09 1.25419E-08
 -1       872-1.98191E+03-2.59116E+04-8.16659E+03 1.69218E+05-9.51968E-09-7.08224E-09
 -1       873 4.06456E+02-2.37179E+04 5.88283E+02 1.30217E+05-5.91808E-09-3.88400E-09
 -1       874 3.30830E+03-2.13070E+04 9.78060E+03 1.69247E+05-1.20617E-08 5.88807E-09
 -1       875 6.84898E+03-2.60479E+04 2.20657E+04 1.30456E+05-5.01495E-09 5.40422E-09
 -1       876 2.93840E+05 4.95186E+04 1.51011E+04 1.17912E+05 9.38439E-09 1.09494E-08
 -1       877 2.94839E+05 5.26983E+04 8.06461E+03 1.22243E+05 1.24494E-08 1.85813E-08
 -1       878 2.95252E+05 4.78457E+04 3.37867E+03 1.19149E+05-9.47512E-09 1.07480E-09
 -1       879 2.92786E+05 5.06497E+04 1.68347E+03 1.22345E+05 5.16593E-10 1.01676E-09
 -1       880 2.95353E+05 4.78285E+04 7.84141E+02 1.19200E+05-1.85992E-09-5.56810E-09
 -1       881 2.92650E+05 5.05621E+04 4.18771E+02 1.22322E+05-4.41150E-09 5.42273E-09
 -1       882 2.95362E+05 4.78417E+04 2.67951E+02 1.19201E+05 3.71165E-09-5.64481E-09
 -1       883 2.92640E+05 5.05575E+04 2.88133E+02 1.22314E+05 1.11340E-08-1.78689E-08
 -1       884 2.95356E+05 4.78389E+04 4.58419E+02 1.19201E+05 3.99223E-09-3.39793E-09
 -1       885 2.92677E+05 5.05639E+04 9.21719E+02 1.22325E+05-2.05927E-09 5.25495E-09
 -1       886 2.95320E+05 4.78120E+04 1.85770E+03 1.19198E+05 1.29880E-10-1.31331E-09
 -1       887 2.93003E+05 5.07779E+04 4.05790E+03 1.22372E+05 1.39867E-08-1.00665E-08
 -1       888 2.95064E+05 4.78572E+04 8.17679E+03 1.19068E+05 4.35350E-09 1.20617E-08
 -1       889 2.97871E+05 5.58403E+04 1.95328E+04 1.22223E+05 2.30347E-09-1.42418E-08
 -1       890 2.91726E+05 5.18217E+04 3.65845E+04 1.15956E+05-1.15551E-09-5.15138E-09
 -1       891-8.92064E+01-1.62796E+05-1.99722E+03 2.71414E+04-1.74509E-09 1.46888E-08
 -1       892-1.75139E+02-1.63324E+05-2.14483E+03 4.12162E+04 2.50111E-10-7.84439E-10
 -1       893 4.39251E+01-1.62861E+05-3.03661E+03 2.71488E+04-2.04659E-09 2.40107E-10
 -1       894-1.51004E+03-1.64471E+05-6.28448E+03 4.10637E+04 1.35651E-09 5.66070E-09
 -1       895-1.19927E+03-1.61551E+05-1.10668E+04 2.72958E+04 1.00965E-09 1.37243E-09
 -1       956-3.77337E+05-5.45149E+03-1.34570E+04 3.08870E+04 9.48785E-09-8.36803E-09
 -1       957-3.79978E+05-1.92317E+03-6.90727E+03 3.71180E+04 4.91491E-09-1.68257E-09
 -1       958-3.78547E+05-2.41063E+02-3.11264E+03 3.07192E+04-2.51111E-09-1.28825E-08
 -1       959-3.78743E+05-1.36367E+02-1.58936E+03 3.73137E+04-7.43512E-10 8.52287E-09
 -1       960-3.78665E+05-4.48716E+01-7.75049E+02 3.07019E+04 2.16187E-09 9.03265E-09
 -1       961-3.78663E+05-6.32989E+01-4.10923E+02 3.73341E+04 7.44149E-09 1.25617E-08
 -1       962-3.78692E+05-4.60903E+01-2.35265E+02 3.06990E+04 4.70618E-09 5.13364E-09
 -1       963-3.78663E+05-5.91040E+01-1.88865E+02 3.73378E+04 8.82176E-09 3.86422E-09
 -1       964-3.78698E+05-4.27379E+01-2.29684E+02 3.06982E+04 6.26632E-09 5.38421E-10
 -1       965-3.78675E+05-5.61517E+01-3.97266E+02 3.73371E+04 3.74257E-09-2.02317E-09
 -1       966-3.78682E+05-3.49086E+01-7.46458E+02 3.06997E+04 6.44513E-09-7.37145E-10
 -1       967-3.78765E+05-1.19740E+02-1.53097E+03 3.73227E+04 1.02318E-11-1.42829E-08
 -1       968-3.78578E+05-2.17496E+02-2.99710E+03 3.07124E+04-1.75987E-10 1.41426E-09
 -1       969-3.79966E+05-1.83529E+03-6.65347E+03 3.71740E+04 1.73532E-09 8.61019E-09
 -1       970-3.77421E+05-5.23250E+03-1.29614E+04 3.08398E+04-4.44561E-09 1.51867E-08
 -1       971-3.45457E+05-1.72743E+03-9.30938E+03 1.53764E+04 4.22915E-09-1.81735E-08
 -1       972-3.47698E+05-1.27179E+03-5.06979E+03 2.12652E+04 7.94398E-09-3.68800E-10
 -1       973-3.46494E+05-6.20911E+01-2.27081E+03 1.52553E+04 3.44335E-09-1.07711E-08
 -1       974-3.46629E+05-8.11637E+01-1.17712E+03 2.14023E+04 8.02174E-10-1.18498E-08
 -1       975-3.46576E+05-1.72211E+01-5.88871E+02 1.52430E+04 2.13731E-11 1.95212E-09
 -1       976-3.46568E+05-3.13251E+01-3.40593E+02 2.14180E+04 5.48152E-09-3.02498E-09
 -1       977-3.46592E+05-1.64763E+01-2.48730E+02 1.52396E+04-4.88535E-09 1.81733E-08
 -1       978-3.46573E+05-2.51011E+01-2.93157E+02 2.14229E+04-1.53814E-08 2.29051E-08
 -1       979-3.46592E+05-7.99678E+00-4.72807E+02 1.52381E+04-1.15975E-08 1.99984E-08
 -1       980-3.46608E+05-2.20394E+01-9.14057E+02 2.14239E+04-1.18144E-08 1.14472E-08
 -1       981-3.46563E+05 1.48514E+01-1.77091E+03 1.52387E+04-4.40536E-10 1.13408E-08
 -1       982-3.46851E+05-1.52888E+02-3.66076E+03 2.14173E+04 4.46346E-09 2.01837E-09
 -1       983-3.46340E+05-9.85417E+01-7.11304E+03 1.52447E+04-1.40471E-09 3.95835E-09
 -1       984-3.50273E+05-3.86782E+03-1.59294E+04 2.13316E+04 8.45830E-10-2.97348E-09
 -1       985-3.43119E+05-5.30342E+03-2.92514E+04 1.53161E+04-4.98994E-09-1.69020E-08
 -3
    1PSTEP                        29          15           1          
  100CL  115 6.62985E-01         409                     0   15           1
 -4  DISP        4    1
 -5  D1          1    2    1    0
 -5  D2          1    2    2    0
 -5  D3          1    2    3    0
 -5  ALL         1    2    0    0    1ALL
 -1         1 2.72525E-03 0.00000E+00 0.00000E+00
 -1         2 1.33464E-03 2.86097E-28 5.29396E-23
 -1         3 3.42758E-04-5.52218E-28-1.32349E-23
 -1         5 1.77143E-04-1.80845E-27 8.27181E-25
 -1         8 2.71450E-03-4.02505E-07 0.00000E+00
 -1         9 2.70779E-03-1.98149E-04 0.00000E+00
 -1        10 3.10798E-04-3.39743E-06 0.00000E+00
 -1        12 1.78991E-04 8.09481E-07-4.13590E-25
 -1        15 2.70224E-03-4.25811E-07-1.03398E-25
 -1        16 2.77685E-03-2.00012E-04 0.00000E+00
 -1        17 2.11514E-04-7.74984E-06 0.00000E+00
 -1        18 1.82944E-04 3.44398E-05 0.00000E+00
 -1        19 1.84537E-04 1.61254E-06 0.00000E+00
 -1        20 1.84677E-04-9.89790E-06 0.00000E+00
 -1        21 1.83784E-04-2.54551E-05 0.00000E+00
 -1        24 3.06096E-05-1.19733E-05 0.00000E+00
 -1        25 1.93737E-04 3.46658E-05 0.00000E+00
 -1        26 1.94416E-04 2.23288E-06 0.00000E+00
 -1        27 1.92215E-04-1.34575E-05 0.00000E+00
 -1        28 1.91900E-04-2.60772E-05 0.00000E+00
 -1        32 0.00000E+00 0.00000E+00 0.00000E+00
 -1        33 2.03292E-04 2.98695E-06 0.00000E+00
 -1        34 2.01173E-04-1.35137E-05 0.00000E+00
 -1        35 1.99240E-04-2.64197E-05 0.00000E+00
 -1        51 2.72453E-03-8.45778E-08-3.30872E-24
 -1        52 2.72321E-03-1.50704E-07-3.30872E-24
 -1        53 2.72142E-03-2.13337E-07 0.00000E+00
 -1        54 2.71928E-03-2.74713E-07-1.65436E-24
 -1        55 2.71694E-03-3.36603E-07-2.48154E-24
 -1        56 2.71726E-03 9.21809E-06 0.00000E+00
 -1        57 2.70133E-03 3.79752E-05 0.00000E+00
 -1        58 2.67985E-03 8.01512E-05-1.05879E-22
 -1        59 2.65577E-03 1.28352E-04 5.29396E-23
 -1        60 2.63271E-03 1.74149E-04-1.05879E-22
 -1        61 2.61413E-03 2.09308E-04 0.00000E+00
 -1        62 2.60243E-03 2.27494E-04 0.00000E+00
 -1        63 2.59910E-03 2.23882E-04 0.00000E+00
 -1        64 2.60393E-03 1.97658E-04 0.00000E+00
 -1        65 2.61593E-03 1.50152E-04 5.29396E-23
 -1        66 2.63301E-03 8.67502E-05 0.00000E+00
 -1        67 2.65282E-03 1.44108E-05 0.00000E+00
 -1        68 2.67270E-03-5.81654E-05 0.00000E+00
 -1        69 2.69002E-03-1.22248E-04-5.29396E-23
 -1        70 2.70238E-03-1.70764E-04-5.29396E-23
 -1        86 1.42100E-03-6.24498E-06-5.29396E-23
 -1        87 1.67069E-03-3.93378E-05 0.00000E+00
 -1        88 2.00644E-03-9.62561E-05 0.00000E+00
 -1        89 2.34679E-03-1.54774E-04 0.00000E+00
 -1        90 2.60761E-03-1.90590E-04 0.00000E+00
 -1       121 3.41861E-04-5.48495E-07 0.00000E+00
 -1       122 3.39172E-04-1.10008E-06-6.61744E-24
 -1       123 3.34702E-04-1.65779E-06 0.00000E+00
 -1       124 3.28466E-04-2.22468E-06 0.00000E+00
 -1       125 3.20488E-04-2.80339E-06-1.32349E-23
 -1       191 1.77194E-04 1.34978E-07-8.27181E-25
 -1       192 1.77348E-04 2.69943E-07 4.13590E-25
 -1       193 1.77605E-04 4.04889E-07-8.27181E-25
 -1       194 1.77964E-04 5.39803E-07 0.00000E+00
 -1       195 1.78427E-04 6.74671E-07-2.48154E-24
 -1       251 2.71421E-03 1.61661E-06 0.00000E+00
 -1       252 2.71390E-03 3.49059E-06-3.30872E-24
 -1       253 2.71360E-03 4.22010E-06 6.61744E-24
 -1       254 2.71329E-03 2.81997E-06-3.30872E-24
 -1       255 2.71298E-03-1.37358E-06 0.00000E+00
 -1       256 2.71265E-03-8.98957E-06 0.00000E+00
 -1       257 2.71228E-03-2.01409E-05 0.00000E+00
 -1       258 2.71188E-03-3.48962E-05 3.30872E-24
 -1       259 2.71142E-03-5.27815E-05 6.61744E-24
 -1       260 2.71091E-03-7.32830E-05 0.00000E+00
 -1       261 2.71037E-03-9.54927E-05 0.00000E+00
 -1       262 2.70981E-03-1.18482E-04 0.00000E+00
 -1       263 2.70926E-03-1.41203E-04-1.32349E-23
 -1       264 2.70873E-03-1.62613E-04-6.61744E-24
 -1       265 2.70824E-03-1.81868E-04 1.32349E-23
 -1       266 2.71246E-03-4.12014E-07 3.30872E-24
 -1       267 2.71042E-03-4.15211E-07 0.00000E+00
 -1       268 2.70837E-03-4.18813E-07 0.00000E+00
 -1       269 2.70633E-03-4.21226E-07 0.00000E+00
 -1       270 2.70428E-03-4.23613E-07 2.06795E-25
 -1       271 2.71368E-03 2.23858E-08 0.00000E+00
 -1       272 2.71385E-03-2.24813E-06-6.61744E-24
 -1       273 2.71496E-03-7.05263E-06-1.32349E-23
 -1       274 2.71694E-03-1.42170E-05 0.00000E+00
 -1       275 2.71971E-03-2.35461E-05 0.00000E+00
 -1       276 2.72319E-03-3.48291E-05 0.00000E+00
 -1       277 2.72730E-03-4.78390E-05-2.64698E-23
 -1       278 2.73194E-03-6.23353E-05-1.32349E-23
 -1       279 2.73702E-03-7.80659E-05 0.00000E+00
 -1       280 2.74245E-03-9.47685E-05 0.00000E+00
 -1       281 2.74813E-03-1.12173E-04-1.32349E-23
 -1       282 2.75397E-03-1.30004E-04-6.61744E-24
 -1       283 2.75986E-03-1.47984E-04-1.32349E-23
 -1       284 2.76570E-03-1.65830E-04 0.00000E+00
 -1       285 2.77139E-03-1.83265E-04 0.00000E+00
 -1       301 2.72033E-03-1.98495E-04-6.61744E-24
 -1       302 2.73122E-03-1.98793E-04-6.61744E-24
 -1       303 2.74137E-03-1.99081E-04 0.00000E+00
 -1       304 2.75173E-03-1.99369E-04-6.61744E-24
 -1       305 2.76325E-03-1.99671E-04 0.00000E+00
 -1       306 2.74586E-03-3.53570E-04 0.00000E+00
 -1       307 2.80972E-03-7.68530E-04 0.00000E+00
 -1       308 2.85629E-03-1.37448E-03 0.00000E+00
 -1       309 2.88011E-03-2.07513E-03-5.29396E-23
 -1       310 2.91154E-03-2.74462E-03 0.00000E+00
 -1       311 2.97115E-03-3.25980E-03-5.29396E-23
 -1       312 3.02879E-03-3.54016E-03 1.05879E-22
 -1       313 3.02333E-03-3.54819E-03 0.00000E+00
 -1       314 2.88083E-03-3.29624E-03 0.00000E+00
 -1       315 2.56054E-03-2.84915E-03-5.29396E-23
 -1       316 2.08121E-03-2.28364E-03 0.00000E+00
 -1       317 1.50915E-03-1.66896E-03 0.00000E+00
 -1       318 9.58963E-04-1.06557E-03 0.00000E+00
 -1       319 5.38761E-04-5.38388E-04 0.00000E+00
 -1       320 2.92259E-04-1.61624E-04 0.00000E+00
 -1       336 2.99209E-04-4.05426E-06 1.32349E-23
 -1       337 2.85543E-04-4.73680E-06-6.61744E-24
 -1       338 2.69863E-04-5.44726E-06-1.32349E-23
 -1       339 2.52242E-04-6.18647E-06 0.00000E+00
 -1       340 2.32762E-04-6.95890E-06 0.00000E+00
 -1       406 1.79659E-04 9.44214E-07 2.48154E-24
 -1       407 1.80429E-04 1.07883E-06-1.24077E-24
 -1       408 1.81303E-04 1.21329E-06-1.65436E-24
 -1       409 1.82279E-04 1.34740E-06-1.65436E-24
 -1       410 1.83357E-04 1.48090E-06 2.48154E-24
 -1       521 2.81551E-03-3.64736E-04-1.05879E-22
 -1       522 2.87755E-03-8.00183E-04-5.29396E-23
 -1       523 2.91756E-03-1.43434E-03 0.00000E+00
 -1       524 2.93200E-03-2.16411E-03 0.00000E+00
 -1       525 2.95539E-03-2.86068E-03 0.00000E+00
 -1       526 3.01141E-03-3.39825E-03 5.29396E-23
 -1       527 3.06865E-03-3.68932E-03 0.00000E+00
 -1       528 3.06084E-03-3.69546E-03 1.05879E-22
 -1       529 2.90604E-03-3.42907E-03 0.00000E+00
 -1       530 2.56125E-03-2.96309E-03 0.00000E+00
 -1       531 2.04604E-03-2.37809E-03 1.05879E-22
 -1       532 1.43329E-03-1.74592E-03 0.00000E+00
 -1       533 8.43142E-04-1.12436E-03 0.00000E+00
 -1       534 3.89009E-04-5.75989E-04 0.00000E+00
 -1       535 1.20957E-04-1.79410E-04 0.00000E+00
 -1       536 2.10759E-04 2.71820E-05 0.00000E+00
 -1       537 2.08840E-04 8.76347E-05 1.65436E-24
 -1       538 2.05875E-04 1.64340E-04 0.00000E+00
 -1       539 2.02378E-04 2.47944E-04 1.65436E-24
 -1       540 1.99231E-04 3.26944E-04 3.30872E-24
 -1       541 1.97185E-04 3.89857E-04-1.65436E-24
 -1       542 1.96241E-04 4.29928E-04-3.30872E-24
 -1       543 1.96016E-04 4.40552E-04 1.65436E-24
 -1       544 1.95694E-04 4.22504E-04 0.00000E+00
 -1       545 1.94521E-04 3.76777E-04 0.00000E+00
 -1       546 1.92335E-04 3.11500E-04 0.00000E+00
 -1       547 1.89376E-04 2.34921E-04-1.65436E-24
 -1       548 1.86444E-04 1.58719E-04 3.30872E-24
 -1       549 1.84329E-04 9.45706E-05 1.65436E-24
 -1       550 1.83230E-04 5.05090E-05 0.00000E+00
 -1       551 1.86307E-04-8.31890E-06 0.00000E+00
 -1       552 1.57855E-04-8.96844E-06 0.00000E+00
 -1       553 1.27100E-04-9.68026E-06 3.30872E-24
 -1       554 9.50018E-05-1.04333E-05 3.30872E-24
 -1       555 6.25201E-05-1.12000E-05 0.00000E+00
 -1       556 2.03864E-04 1.18109E-05 0.00000E+00
 -1       557 1.97683E-04 2.76752E-05 0.00000E+00
 -1       558 1.92837E-04 4.01309E-05 0.00000E+00
 -1       559 1.89194E-04 4.94886E-05-2.64698E-23
 -1       560 1.86622E-04 5.60592E-05 0.00000E+00
 -1       561 1.84995E-04 6.01561E-05 0.00000E+00
 -1       562 1.84187E-04 6.20941E-05 0.00000E+00
 -1       563 1.84073E-04 6.21887E-05 0.00000E+00
 -1       564 1.84532E-04 6.07564E-05 0.00000E+00
 -1       565 1.85442E-04 5.81145E-05 0.00000E+00
 -1       566 1.86686E-04 5.45807E-05 0.00000E+00
 -1       567 1.88142E-04 5.04730E-05 0.00000E+00
 -1       568 1.89693E-04 4.61098E-05 1.65436E-24
 -1       569 1.91221E-04 4.18094E-05 0.00000E+00
 -1       570 1.92608E-04 3.78902E-05 0.00000E+00
 -1       571 1.83040E-04 3.23098E-05 2.48154E-24
 -1       572 1.83139E-04 3.01141E-05 4.13590E-25
 -1       573 1.83238E-04 2.78683E-05 0.00000E+00
 -1       574 1.83338E-04 2.55888E-05 8.27181E-25
 -1       575 1.83437E-04 2.32922E-05 0.00000E+00
 -1       576 1.83537E-04 2.09948E-05 0.00000E+00
 -1       577 1.83636E-04 1.87132E-05 0.00000E+00
 -1       578 1.83736E-04 1.64640E-05 0.00000E+00
 -1       579 1.83835E-04 1.42636E-05 6.61744E-24
 -1       580 1.83935E-04 1.21285E-05 0.00000E+00
 -1       581 1.84035E-04 1.00754E-05 0.00000E+00
 -1       582 1.84135E-04 8.12074E-06 6.61744E-24
 -1       583 1.84236E-04 6.28099E-06-6.61744E-24
 -1       584 1.84336E-04 4.57249E-06 3.30872E-24
 -1       585 1.84437E-04 3.01140E-06 0.00000E+00
 -1       586 1.84702E-04 3.44796E-05 1.65436E-24
 -1       587 1.86418E-04 3.45188E-05 0.00000E+00
 -1       588 1.88137E-04 3.45577E-05 8.27181E-25
 -1       589 1.89901E-04 3.45959E-05 0.00000E+00
 -1       590 1.91753E-04 3.46328E-05 0.00000E+00
 -1       591 1.83674E-04 3.24036E-05 0.00000E+00
 -1       592 1.84407E-04 3.03475E-05 0.00000E+00
 -1       593 1.85145E-04 2.82775E-05 8.27181E-25
 -1       594 1.85886E-04 2.61982E-05 0.00000E+00
 -1       595 1.86629E-04 2.41144E-05-8.27181E-25
 -1       596 1.87371E-04 2.20307E-05 0.00000E+00
 -1       597 1.88112E-04 1.99519E-05 8.27181E-25
 -1       598 1.88849E-04 1.78826E-05 4.13590E-25
 -1       599 1.89581E-04 1.58274E-05 8.27181E-25
 -1       600 1.90305E-04 1.37911E-05-4.13590E-25
 -1       601 1.91021E-04 1.17784E-05 8.27181E-25
 -1       602 1.91727E-04 9.79387E-06 4.13590E-25
 -1       603 1.92420E-04 7.84222E-06 0.00000E+00
 -1       604 1.93100E-04 5.92824E-06-2.06795E-25
 -1       605 1.93765E-04 4.05651E-06 0.00000E+00
 -1       606 1.84551E-04 4.47046E-07 0.00000E+00
 -1       607 1.84560E-04-6.32721E-07 0.00000E+00
 -1       608 1.84569E-04-1.63179E-06 0.00000E+00
 -1       609 1.84577E-04-2.55584E-06 0.00000E+00
 -1       610 1.84586E-04-3.41061E-06 0.00000E+00
 -1       611 1.84594E-04-4.20187E-06 0.00000E+00
 -1       612 1.84602E-04-4.93541E-06 0.00000E+00
 -1       613 1.84611E-04-5.61705E-06 0.00000E+00
 -1       614 1.84619E-04-6.25259E-06 0.00000E+00
 -1       615 1.84627E-04-6.84782E-06 0.00000E+00
 -1       616 1.84636E-04-7.40857E-06 0.00000E+00
 -1       617 1.84644E-04-7.94061E-06 0.00000E+00
 -1       618 1.84653E-04-8.44976E-06 0.00000E+00
 -1       619 1.84661E-04-8.94183E-06-2.06795E-25
 -1       620 1.84669E-04-9.42261E-06 0.00000E+00
 -1       621 1.85897E-04 1.71650E-06 1.65436E-24
 -1       622 1.87416E-04 1.82070E-06 1.65436E-24
 -1       623 1.89061E-04 1.92469E-06 1.65436E-24
 -1       624 1.90799E-04 2.02835E-06-8.27181E-25
 -1       625 1.92595E-04 2.13172E-06-1.65436E-24
 -1       626 1.85086E-04 4.83178E-07 0.00000E+00
 -1       627 1.85613E-04-5.83252E-07 0.00000E+00
 -1       628 1.86119E-04-1.59460E-06-6.61744E-24
 -1       629 1.86608E-04-2.55901E-06 4.96308E-24
 -1       630 1.87082E-04-3.48470E-06 0.00000E+00
 -1       631 1.87545E-04-4.37985E-06 1.65436E-24
 -1       632 1.87999E-04-5.25267E-06-3.30872E-24
 -1       633 1.88448E-04-6.11136E-06 1.65436E-24
 -1       634 1.88895E-04-6.96414E-06 0.00000E+00
 -1       635 1.89343E-04-7.81920E-06 0.00000E+00
 -1       636 1.89795E-04-8.68475E-06-3.30872E-24
 -1       637 1.90253E-04-9.56901E-06-1.65436E-24
 -1       638 1.90722E-04-1.04802E-05 0.00000E+00
 -1       639 1.91203E-04-1.14265E-05-8.27181E-25
 -1       640 1.91701E-04-1.24161E-05-1.65436E-24
 -1       656 1.85385E-04-1.04764E-05 0.00000E+00
 -1       657 1.86512E-04-1.10785E-05-6.61744E-24
 -1       658 1.87920E-04-1.16792E-05 1.32349E-23
 -1       659 1.89463E-04-1.22795E-05-6.61744E-24
 -1       660 1.90955E-04-1.28817E-05 0.00000E+00
 -1       661 1.84942E-04-1.04183E-05 8.27181E-25
 -1       662 1.85244E-04-1.10307E-05 8.27181E-25
 -1       663 1.85579E-04-1.17298E-05 0.00000E+00
 -1       664 1.85945E-04-1.25090E-05 8.27181E-25
 -1       665 1.86338E-04-1.33626E-05 0.00000E+00
 -1       666 1.86757E-04-1.42847E-05 0.00000E+00
 -1       667 1.87199E-04-1.52694E-05 1.65436E-24
 -1       668 1.87663E-04-1.63114E-05 0.00000E+00
 -1       669 1.88146E-04-1.74051E-05 0.00000E+00
 -1       670 1.88647E-04-1.85452E-05 8.27181E-25
 -1       671 1.89163E-04-1.97265E-05 0.00000E+00
 -1       672 1.89692E-04-2.09439E-05-8.27181E-25
 -1       673 1.90233E-04-2.21924E-05 0.00000E+00
 -1       674 1.90783E-04-2.34673E-05 0.00000E+00
 -1       675 1.91340E-04-2.47632E-05 0.00000E+00
 -1       676 1.85141E-04-2.55594E-05 3.30872E-24
 -1       677 1.86498E-04-2.56636E-05 0.00000E+00
 -1       678 1.87852E-04-2.57678E-05 0.00000E+00
 -1       679 1.89205E-04-2.58717E-05 1.65436E-24
 -1       680 1.90554E-04-2.59756E-05 0.00000E+00
 -1       771 1.86523E-05 1.47676E-05 0.00000E+00
 -1       772 8.59287E-06 3.67299E-05-5.29396E-23
 -1       773 3.40443E-07 5.41439E-05-5.29396E-23
 -1       774-6.22936E-06 6.72678E-05-2.64698E-23
 -1       775-1.12382E-05 7.63700E-05 5.29396E-23
 -1       776-1.48129E-05 8.17357E-05 2.64698E-23
 -1       777-1.70796E-05 8.36604E-05 0.00000E+00
 -1       778-1.81676E-05 8.24533E-05 0.00000E+00
 -1       779-1.82050E-05 7.84321E-05-5.29396E-23
 -1       780-1.73223E-05 7.19259E-05 0.00000E+00
 -1       781-1.56489E-05 6.32708E-05 0.00000E+00
 -1       782-1.33159E-05 5.28117E-05 2.64698E-23
 -1       783-1.04534E-05 4.08979E-05-5.29396E-23
 -1       784-7.19269E-06 2.78851E-05-2.64698E-23
 -1       785-3.66418E-06 1.41321E-05-5.29396E-23
 -1       786 1.93775E-04 3.24108E-05 0.00000E+00
 -1       787 1.93817E-04 3.02059E-05-4.13590E-25
 -1       788 1.93858E-04 2.80428E-05 0.00000E+00
 -1       789 1.93901E-04 2.59134E-05 0.00000E+00
 -1       790 1.93943E-04 2.38129E-05 0.00000E+00
 -1       791 1.93986E-04 2.17365E-05 8.27181E-25
 -1       792 1.94028E-04 1.96821E-05 0.00000E+00
 -1       793 1.94071E-04 1.76474E-05 0.00000E+00
 -1       794 1.94114E-04 1.56322E-05 0.00000E+00
 -1       795 1.94157E-04 1.36364E-05-8.27181E-25
 -1       796 1.94200E-04 1.16618E-05 0.00000E+00
 -1       797 1.94243E-04 9.71032E-06-8.27181E-25
 -1       798 1.94285E-04 7.78609E-06 0.00000E+00
 -1       799 1.94329E-04 5.89344E-06-8.27181E-25
 -1       800 1.94372E-04 4.03984E-06 1.65436E-24
 -1       801 1.47928E-04 3.11649E-05 2.64698E-23
 -1       802 9.42157E-06 1.94424E-05-2.64698E-23
 -1       803-1.08883E-04 9.82061E-06-5.29396E-23
 -1       804-9.65115E-05 6.83583E-06 2.64698E-23
 -1       805-3.18871E-05 2.68585E-06 0.00000E+00
 -1       806 1.94467E-04 3.23420E-05 1.65436E-24
 -1       807 1.95183E-04 3.00444E-05-1.65436E-24
 -1       808 1.95887E-04 2.77783E-05 0.00000E+00
 -1       809 1.96577E-04 2.55477E-05 0.00000E+00
 -1       810 1.97253E-04 2.33567E-05 0.00000E+00
 -1       811 1.97912E-04 2.12092E-05-1.65436E-24
 -1       812 1.98553E-04 1.91091E-05 0.00000E+00
 -1       813 1.99175E-04 1.70604E-05 1.65436E-24
 -1       814 1.99777E-04 1.50669E-05-3.30872E-24
 -1       815 2.00356E-04 1.31326E-05 8.27181E-25
 -1       816 2.00912E-04 1.12614E-05-3.30872E-24
 -1       817 2.01443E-04 9.45713E-06-8.27181E-25
 -1       818 2.01948E-04 7.72370E-06 0.00000E+00
 -1       819 2.02425E-04 6.06498E-06 8.27181E-25
 -1       820 2.02873E-04 4.48480E-06 1.65436E-24
 -1       821 1.94286E-04-1.32338E-07-1.65436E-24
 -1       822 1.94146E-04-3.65525E-06 1.65436E-24
 -1       823 1.94004E-04-7.90667E-06 0.00000E+00
 -1       824 1.93858E-04-1.24528E-05-1.65436E-24
 -1       825 1.93714E-04-1.67803E-05-3.30872E-24
 -1       826 1.93572E-04-2.03770E-05-1.65436E-24
 -1       827 1.93434E-04-2.29296E-05-3.30872E-24
 -1       828 1.93297E-04-2.41317E-05 1.65436E-24
 -1       829 1.93161E-04-2.40441E-05-3.30872E-24
 -1       830 1.93025E-04-2.27358E-05 1.65436E-24
 -1       831 1.92887E-04-2.06080E-05-3.30872E-24
 -1       832 1.92749E-04-1.80668E-05 1.65436E-24
 -1       833 1.92611E-04-1.56314E-05 3.30872E-24
 -1       834 1.92476E-04-1.38197E-05 0.00000E+00
 -1       835 1.92341E-04-1.29808E-05 0.00000E+00
 -1       836 1.96108E-04 2.35793E-06 0.00000E+00
 -1       837 1.97672E-04 2.48612E-06 0.00000E+00
 -1       838 1.99142E-04 2.61425E-06 0.00000E+00
 -1       839 2.00547E-04 2.74168E-06 8.27181E-25
 -1       840 2.01920E-04 2.86895E-06 0.00000E+00
 -1       856 1.92198E-04-1.45213E-05 0.00000E+00
 -1       857 1.92179E-04-1.54493E-05 0.00000E+00
 -1       858 1.92160E-04-1.62627E-05-2.06795E-25
 -1       859 1.92140E-04-1.69827E-05 2.06795E-25
 -1       860 1.92121E-04-1.76304E-05-4.13590E-25
 -1       861 1.92101E-04-1.82270E-05 0.00000E+00
 -1       862 1.92081E-04-1.87941E-05 0.00000E+00
 -1       863 1.92062E-04-1.93527E-05 0.00000E+00
 -1       864 1.92042E-04-1.99244E-05 0.00000E+00
 -1       865 1.92022E-04-2.05305E-05-4.13590E-25
 -1       866 1.92002E-04-2.11921E-05 8.27181E-25
 -1       867 1.91982E-04-2.19307E-05-4.13590E-25
 -1       868 1.91962E-04-2.27674E-05-8.27181E-25
 -1       869 1.91942E-04-2.37234E-05-4.13590E-25
 -1       870 1.91921E-04-2.48197E-05 0.00000E+00
 -1       871 1.93566E-04-1.34624E-05-8.27181E-25
 -1       872 1.95065E-04-1.34708E-05 0.00000E+00
 -1       873 1.96644E-04-1.34798E-05-4.13590E-25
 -1       874 1.98233E-04-1.34896E-05 5.16988E-26
 -1       875 1.99766E-04-1.34999E-05 8.27181E-25
 -1       876 1.92741E-04-1.45067E-05 3.30872E-24
 -1       877 1.93244E-04-1.54891E-05 0.00000E+00
 -1       878 1.93727E-04-1.64127E-05 0.00000E+00
 -1       879 1.94190E-04-1.72848E-05 0.00000E+00
 -1       880 1.94637E-04-1.81128E-05-3.30872E-24
 -1       881 1.95070E-04-1.89042E-05 0.00000E+00
 -1       882 1.95492E-04-1.96663E-05 3.30872E-24
 -1       883 1.95906E-04-2.04064E-05 0.00000E+00
 -1       884 1.96315E-04-2.11319E-05 3.30872E-24
 -1       885 1.96720E-04-2.18500E-05-1.65436E-24
 -1       886 1.97126E-04-2.25682E-05 0.00000E+00
 -1       887 1.97534E-04-2.32938E-05 1.65436E-24
 -1       888 1.97948E-04-2.40341E-05 0.00000E+00
 -1       889 1.98369E-04-2.47967E-05 1.65436E-24
 -1       890 1.98801E-04-2.55888E-05 1.65436E-24
 -1       891 1.93265E-04-2.61347E-05 0.00000E+00
 -1       892 1.94608E-04-2.61924E-05 0.00000E+00
 -1       893 1.95901E-04-2.62500E-05 0.00000E+00
 -1       894 1.97121E-04-2.63074E-05 4.13590E-25
 -1       895 1.98242E-04-2.63645E-05 4.13590E-25
 -1       956 2.03161E-04 1.66380E-06-1.65436E-24
 -1       957 2.03029E-04 4.32245E-07 0.00000E+00
 -1       958 2.02896E-04-7.18459E-07 0.00000E+00
 -1       959 2.02763E-04-1.79966E-06-1.65436E-24
 -1       960 2.02631E-04-2.82276E-06 0.00000E+00
 -1       961 2.02498E-04-3.79917E-06 0.00000E+00
 -1       962 2.02365E-04-4.74033E-06 3.30872E-24
 -1       963 2.02232E-04-5.65772E-06 0.00000E+00
 -1       964 2.02099E-04-6.56277E-06 0.00000E+00
 -1       965 2.01966E-04-7.46693E-06 0.00000E+00
 -1       966 2.01834E-04-8.38167E-06 0.00000E+00
 -1       967 2.01701E-04-9.31844E-06 1.65436E-24
 -1       968 2.01568E-04-1.02887E-05 0.00000E+00
 -1       969 2.01436E-04-1.13038E-05-3.30872E-24
 -1       970 2.01303E-04-1.23752E-05 0.00000E+00
 -1       971 2.01053E-04-1.46520E-05 3.30872E-24
 -1       972 2.00932E-04-1.56957E-05 1.65436E-24
 -1       973 2.00810E-04-1.66552E-05 3.30872E-24
 -1       974 2.00689E-04-1.75414E-05 0.00000E+00
 -1       975 2.00567E-04-1.83652E-05-3.30872E-24
 -1       976 2.00446E-04-1.91374E-05-1.65436E-24
 -1       977 2.00325E-04-1.98690E-05-3.30872E-24
 -1       978 2.00203E-04-2.05707E-05 0.00000E+00
 -1       979 2.00082E-04-2.12535E-05 0.00000E+00
 -1       980 1.99960E-04-2.19283E-05 0.00000E+00
 -1       981 1.99839E-04-2.26061E-05-3.30872E-24
 -1       982 1.99718E-04-2.32976E-05 0.00000E+00
 -1       983 1.99597E-04-2.40139E-05 0.00000E+00
 -1       984 1.99476E-04-2.47658E-05 0.00000E+00
 -1       985 1.99356E-04-2.55642E-05 0.00000E+00
 -3
    1PSTEP                        30          15           1          
  100CL  115 6.62985E-01         409                     0   15           1
 -4  STRESS      6    1
 -5  SXX         1    4    1    1
 -5  SYY         1    4    2    2
 -5  SZZ         1    4    3    3
 -5  SXY         1    4    1    2
 -5  SYZ         1    4    2    3
 -5  SZX         1    4    3    1
 -1         1-5.34617E+06-1.57918E+06-1.13299E+06-1.33547E+06-1.35333E-09 2.20520E-07
 -1         2 1.51289E+06 2.21684E+07 5.15625E+06 6.70755E+06 3.19851E-08-5.37257E-08
 -1         3-1.48846E+03-1.55734E+06 4.05641E+02-2.21069E+03-5.33490E-10-9.88803E-09
 -1         5-7.54215E+01 3.86521E+05 9.98427E+00-1.34461E+00-5.41148E-10 3.34694E-08
 -1         8-5.53735E+05-2.00172E+05-6.18809E+04-2.43373E+05 4.57476E-10-1.27533E-07
 -1         9 1.17975E+07 3.89040E+06 2.80618E+06-3.15617E+05 5.04078E-09 6.65663E-08
 -1        10-2.30462E+03-1.62287E+06-3.94411E+03-1.49591E+04-1.35806E-08 9.92941E-10
 -1        12-7.15026E+01 3.86542E+05 3.28218E+02-9.16436E+00-7.02624E-10 3.06318E-08
 -1        15 9.52540E+02 5.19539E+02 3.02120E+03 8.49970E-01 1.84443E-10-2.68286E-07
 -1        16 2.29228E+07-3.33221E+05 3.11950E+06-2.29112E+06 1.39116E-08 1.03454E-07
 -1        17 8.39308E+06 6.28960E+06 2.26720E+06 6.01675E+06 2.36440E-08 2.21306E-08
 -1        18 1.42436E+05 3.35463E+04 4.17093E+03-1.19583E+05 1.62618E-08 1.12918E-08
 -1        19 1.22455E+05 1.41713E+05-9.44755E+02 2.19717E+04 1.54923E-09-5.72254E-09
 -1        20-8.20547E+04-5.73878E+05-1.28778E+05 2.50861E+04-2.87461E-09 1.17725E-08
 -1        21-4.55701E+01-2.96021E+05-9.23919E+02 2.75593E+02 1.53468E-08-1.67459E-08
 -1        24 1.40721E+07 1.21173E+07 3.89510E+06 1.12190E+07-1.68841E-07-5.46570E-08
 -1        25 1.25164E+05 2.68314E+05 1.00239E+05-6.46360E+05 4.29191E-10 8.48577E-09
 -1        26-5.54936E+04 9.23056E+04-2.46552E+04 1.33428E+03-8.11269E-11 1.07182E-08
 -1        27-7.55573E+04-3.10032E+05-1.13330E+05 6.89910E+04 3.62252E-09-6.60869E-09
 -1        28 2.22404E+04-8.53602E+04 1.68989E+04 2.05978E+04-4.87398E-09-6.66858E-09
 -1        32-1.68048E+06-3.18157E+06-1.97560E+05 4.58849E+05-4.26662E-08-1.03639E-08
 -1        33-1.78527E+05 9.30386E+04 3.23986E+04-3.84609E+04-3.09247E-09 2.53234E-09
 -1        34-2.23650E+05-2.50432E+04 6.90385E+02 7.56917E+04-5.94838E-09-3.94205E-09
 -1        35-2.29305E+04-3.38517E+04-1.34868E+03 5.14985E+04-2.32057E-09-2.91887E-09
 -1        51 6.08264E+04-1.71013E+05 1.28614E+05-4.35598E+05 2.91038E-11 2.08398E-07
 -1        52 2.05718E+04-1.48514E+05 6.74634E+04-5.08039E+05 1.22782E-10-1.56626E-07
 -1        53 4.17088E+03-1.63878E+05 3.51031E+04-4.34103E+05 2.74667E-10 1.07742E-07
 -1        54 7.34796E+03-1.59626E+05 2.87822E+04-5.09501E+05-2.54659E-11-3.94612E-08
 -1        55 1.60724E+04-1.66645E+05 3.49413E+04-4.34015E+05 2.07365E-10-1.03992E-08
 -1        56-9.80366E+06-1.38792E+06-9.22307E+05-4.10080E+06-1.10595E-09 5.32018E-08
 -1        57-1.11078E+07-7.86676E+05-5.45938E+05-2.68488E+06 6.36282E-08 3.81260E-08
 -1        58-9.59163E+06-1.85947E+06-2.01709E+05-4.29992E+06-1.23910E-08-3.35625E-07
 -1        59-1.13090E+07-2.41436E+05-1.07498E+05-2.61012E+06 1.36024E-08-1.04221E-07
 -1        60-9.68850E+06-1.86310E+06-5.83675E+04-4.25127E+06-6.25732E-09-2.60712E-07
 -1        61-1.06202E+07-5.94308E+05 1.93179E+04-2.86315E+06-2.27919E-08-9.47766E-08
 -1        62-1.01336E+07-1.60578E+06-8.19261E+04-3.93011E+06 1.26747E-08-1.21589E-07
 -1        63-9.66948E+06-1.34098E+06 5.99132E+04-3.59222E+06 1.68657E-08 9.36998E-08
 -1        64-1.05209E+07-1.20087E+06-7.53954E+04-3.44756E+06-1.67056E-08-5.65014E-08
 -1        65-9.28657E+06-1.97218E+06 1.59710E+04-4.54769E+06 1.83536E-08-1.92650E-07
 -1        66-1.06531E+07-8.79744E+05-4.75762E+04-3.07792E+06-2.51093E-08 3.69873E-08
 -1        67-9.31053E+06-2.23681E+06-9.67041E+04-5.00264E+06 1.38607E-08 6.29952E-08
 -1        68-1.06334E+07-8.40259E+05-1.87535E+05-3.07722E+06-9.37216E-08 1.80487E-07
 -1        69-9.47968E+06-2.31147E+06-4.84949E+05-4.51515E+06-3.62779E-08 1.49732E-07
 -1        70-1.03571E+07-9.06077E+05-8.47734E+05-3.48254E+06 4.49490E-08 7.67177E-08
 -1        86-1.54362E+06-1.57544E+07-2.82280E+06-3.14967E+06-2.81627E-07-1.46683E-07
 -1        87 2.42981E+06 6.39792E+06 2.34770E+06 5.80951E+06-4.52215E-07-1.08870E-07
 -1        88-4.59045E+05-1.93565E+06 2.22373E+05-2.58290E+06-4.06775E-07-1.33196E-07
 -1        89 3.25332E+06 6.09530E+06 2.40633E+06 6.00566E+06-5.97356E-07-1.26505E-07
 -1        90-2.27110E+06-1.55292E+07-3.04711E+06-3.37577E+06-1.46101E-07 1.30793E-07
 -1       121-2.03895E+03-1.56225E+06-5.47826E+02 1.09571E+03 1.52093E-09-2.21189E-09
 -1       122-1.30278E+03-1.55740E+06 7.68976E+02-4.42551E+03-5.50492E-09-1.23473E-08
 -1       123-2.05869E+03-1.56238E+06 2.59489E+02 3.27242E+03 4.39809E-09-1.18307E-08
 -1       124 3.32375E+02-1.55696E+06 2.94666E+03-9.26092E+03-1.02336E-08 1.96414E-08
 -1       125-2.86696E+03-1.56328E+06 3.45569E+03 5.88514E+03 6.46469E-09-3.95448E-09
 -1       191-7.94797E+01 3.86539E+05 8.48239E+00 7.01141E-01-5.74785E-10 2.00580E-08
 -1       192-7.63856E+01 3.86521E+05 2.13066E+01-4.31064E+00-7.98202E-10 8.90304E-09
 -1       193-8.20172E+01 3.86538E+05 3.62671E+01 3.78606E+00-1.06037E-09 7.29597E-09
 -1       194-7.94765E+01 3.86525E+05 8.09988E+01-9.78142E+00-6.02007E-10 2.40379E-08
 -1       195-8.68879E+01 3.86536E+05 1.55067E+02 6.36583E+00-1.58655E-09 2.53604E-08
 -1       251-8.61458E+05 1.59771E+04-3.73000E+04-1.43448E+04-5.67675E-09-2.15681E-07
 -1       252-8.75536E+05-1.84906E+04-2.59423E+04 5.06306E+04 8.72734E-09-3.98559E-07
 -1       253-8.69800E+05 2.45056E+03-1.00548E+04-1.00918E+04-2.17392E-09 2.40769E-07
 -1       254-8.62202E+05-2.97430E+03-4.46709E+03 3.59944E+04-2.46825E-09-9.88043E-08
 -1       255-8.74175E+05 5.05164E+01-3.50321E+03 2.87698E+02-1.31990E-09-1.70749E-07
 -1       256-8.56827E+05-2.68736E+02 1.20510E+03 1.24636E+04 5.17866E-09 1.85755E-07
 -1       257-8.74735E+05-5.80859E+02-1.38499E+03 1.34274E+04-3.03999E-10-7.52219E-08
 -1       258-8.59674E+05 9.15900E+02 2.71900E+03-1.22479E+04-1.19747E-08-1.19292E-08
 -1       259-8.71579E+05-9.40737E+02 1.37635E+03 2.49969E+04 1.32877E-09-1.68585E-08
 -1       260-8.66087E+05 2.95224E+03 5.58956E+03-3.00633E+04 3.44920E-09-1.80652E-07
 -1       261-8.68959E+05-2.12560E+03 8.67990E+03 3.12592E+04 1.55732E-08-2.36732E-08
 -1       262-8.64759E+05 1.18238E+04 2.15595E+04-3.52686E+04-2.86611E-09 9.91054E-08
 -1       263-8.73159E+05-9.58362E+03 3.41591E+04 3.02118E+04-3.32238E-09 1.33492E-07
 -1       264-8.34161E+05 6.72157E+04 9.45722E+04-2.60590E+04 2.58387E-08 2.93650E-07
 -1       265-8.99059E+05-5.76504E+04 1.31692E+05 2.20373E+04 1.27111E-08 2.16343E-07
 -1       266-1.70115E+04-7.91454E+03 3.96031E+04-1.78571E+01 8.91305E-11 7.45108E-09
 -1       267 1.97106E+04 9.23101E+03 2.80409E+04 2.05713E+01-1.85992E-10-9.62071E-08
 -1       268-2.66301E+03-1.31407E+03 1.04022E+04-2.64794E+00-1.39153E-10 5.57306E-09
 -1       269 3.14379E+03 1.57396E+03 6.77853E+03 3.08154E+00-1.28352E-10 9.77947E-08
 -1       270-4.75611E+02-2.59768E+02 3.26397E+03-4.23694E-01 9.43601E-11 1.14904E-07
 -1       271-1.47350E+06-1.87809E+05-1.10721E+05-5.73462E+05 5.79348E-08-6.98274E-08
 -1       272-1.46797E+06-3.01420E+05-6.94973E+04-6.12768E+05-3.92247E-08-1.14414E-07
 -1       273-1.49692E+06-2.11244E+05-2.68672E+04-5.65449E+05 1.24419E-09-6.14291E-08
 -1       274-1.44137E+06-2.73188E+05-1.39523E+04-6.27955E+05 2.21535E-08 9.87711E-08
 -1       275-1.50251E+06-2.10769E+05-6.70392E+03-5.61680E+05 3.34330E-09 1.00521E-07
 -1       276-1.43580E+06-2.74142E+05-2.81524E+03-6.36608E+05 2.51966E-08 2.73551E-07
 -1       277-1.50533E+06-2.08127E+05-1.85949E+03-5.58952E+05 3.00133E-09 3.20705E-07
 -1       278-1.43367E+06-2.77336E+05-7.01419E+02-6.42962E+05 6.97910E-08 1.09563E-07
 -1       279-1.50713E+06-2.05976E+05-8.56301E+02-5.57042E+05-6.23550E-08-1.88194E-07
 -1       280-1.43268E+06-2.79725E+05-9.71649E+02-6.47126E+05-4.09950E-08-8.03520E-08
 -1       281-1.50807E+06-2.04630E+05-1.79685E+03-5.55974E+05 1.98233E-08-1.70356E-07
 -1       282-1.43306E+06-2.81868E+05-4.17755E+03-6.48817E+05-9.89189E-09-9.88141E-08
 -1       283-1.50758E+06-2.03425E+05-7.43672E+03-5.55858E+05 8.33458E-09 2.48247E-08
 -1       284-1.43973E+06-2.91577E+05-2.02553E+04-6.46624E+05 3.73237E-08 2.45714E-08
 -1       285-1.50129E+06-1.96094E+05-3.16416E+04-5.57643E+05 6.78347E-09 2.80252E-07
 -1       301-7.82468E+03-6.48829E+05 1.66819E+05-1.14093E+06 2.14350E-08 9.04838E-08
 -1       302-9.76411E+03-6.01874E+05 1.00393E+05-1.66521E+06-4.95493E-09 2.14608E-07
 -1       303-2.23283E+04-6.41510E+05 5.66751E+04-1.13778E+06 9.91713E-09 2.57151E-08
 -1       304-2.55841E+04-6.09088E+05 5.69509E+04-1.66464E+06-2.61207E-08 8.32624E-08
 -1       305-2.67099E+04-6.30217E+05 6.99091E+04-1.14088E+06-8.51833E-09 5.46133E-08
 -1       306-3.01409E+07-6.21949E+06-8.61304E+06-4.91425E+05-8.74279E-08-1.95636E-07
 -1       307 2.53025E+07 3.28979E+06 5.51043E+06-1.52772E+07-7.88612E-07-5.61413E-08
 -1       308-6.92113E+06-1.01556E+06-4.37891E+05 5.21272E+06-1.83616E-07 1.26893E-08
 -1       309-3.19648E+06 8.75066E+06 2.29543E+06-2.07104E+07 2.00453E-07 1.71418E-07
 -1       310-1.26483E+07-1.95648E+06-2.06166E+06 5.22191E+06 3.78932E-08-3.43891E-07
 -1       311 3.86731E+07 3.74586E+02 7.31493E+06-8.73353E+06 7.97096E-07-1.02445E-08
 -1       312-3.19948E+07-6.81644E+06-8.56826E+06-5.10293E+06 2.44007E-07 4.51255E-08
 -1       313 4.54375E+07 1.51754E+07 1.06946E+07 2.39394E+07-1.94443E-07 8.10251E-08
 -1       314-1.71714E+07-1.78691E+07-7.53338E+06-1.25452E+07 3.04950E-07 7.59610E-08
 -1       315-1.92421E+06 2.98291E+07 5.66985E+06 1.04680E+07-4.72341E-07-2.48547E-08
 -1       316 1.43457E+06-9.83246E+06-4.29092E+05-2.49344E+06-1.19564E-06-3.88303E-07
 -1       317-1.70979E+07 2.24528E+07 2.24892E+06-8.89175E+06 6.16536E-07-7.37593E-07
 -1       318-1.08503E+06-1.28508E+07-2.06409E+06-4.24213E+06-1.05548E-06 1.06287E-07
 -1       319 7.29617E+06 3.21004E+07 7.07258E+06 1.66956E+07-4.37794E-08 2.11294E-07
 -1       320-2.26513E+07-1.76949E+07-9.88646E+06-1.28461E+07 1.88942E-07-3.46336E-08
 -1       336-7.48483E+02-1.69118E+06-1.38380E+04 8.90405E+03-2.63863E-08 1.09649E-08
 -1       337-5.40709E+03-1.69072E+06-1.80551E+04-2.16311E+04-4.88353E-08-1.20417E-08
 -1       338 2.71843E+02-1.69067E+06-2.84433E+04 1.24759E+04-3.51201E-08 2.05000E-08
 -1       339-3.01838E+04-1.70795E+06-6.42817E+04-2.86285E+04-6.22422E-08 7.21029E-08
 -1       340 1.98776E+04-1.67614E+06-1.01264E+05 1.57705E+04-4.15021E-08 3.58305E-08
 -1       406-4.97982E+01 3.86521E+05 6.44447E+02 3.35307E+00-2.02499E-09 3.68436E-08
 -1       407 1.54822E+02 3.86656E+05 1.37724E+03 2.34254E+01-5.19236E-10 2.35250E-08
 -1       408 6.35093E+02 3.86421E+05 2.74609E+03-2.70983E+01-2.46246E-09 1.39044E-08
 -1       409 2.90816E+03 3.87533E+05 6.18946E+03 2.89319E+02-2.33172E-10-7.66249E-09
 -1       410 8.48354E+03 3.85630E+05 1.26324E+04-2.79002E+02-2.71393E-09 5.50608E-09
 -1       521-3.17249E+07-7.69171E+06-1.00810E+07-9.49815E+04-2.47965E-08-8.48668E-08
 -1       522 2.62097E+07 4.34185E+06 5.62919E+06-1.88180E+07-3.94444E-07-5.99772E-07
 -1       523-7.49246E+06-1.33210E+06-4.29278E+05 5.66805E+06-3.41679E-08-1.90455E-07
 -1       524-6.70401E+06 1.18506E+07 2.48810E+06-2.38021E+07 9.50851E-07-4.94809E-07
 -1       525-1.34486E+07-2.60372E+06-2.27061E+06 5.68336E+06 7.48259E-07-4.06377E-07
 -1       526 4.23048E+07-9.84119E+04 7.68807E+06-1.13915E+07-9.91859E-08-1.84402E-07
 -1       527-3.38866E+07-8.53215E+06-9.89326E+06-4.96923E+06-5.66943E-08 6.84086E-08
 -1       528 4.96858E+07 1.69590E+07 1.11723E+07 2.72753E+07 3.34810E-07-3.50934E-07
 -1       529-1.81218E+07-2.01179E+07-8.65180E+06-1.25828E+07-1.20606E-07 1.05822E-07
 -1       530-4.41421E+06 3.46956E+07 6.01099E+06 9.90363E+06-6.14673E-07 6.35337E-07
 -1       531 1.44312E+06-1.09115E+07-4.00818E+05-2.42796E+06-9.79882E-07 2.19676E-07
 -1       532-1.95971E+07 2.44758E+07 2.46281E+06-1.32428E+07 5.27798E-07-6.44752E-07
 -1       533-1.12513E+06-1.40209E+07-2.20322E+06-4.03663E+06-2.32976E-07-1.02207E-06
 -1       534 5.30291E+06 3.73254E+07 7.37322E+06 1.73004E+07-1.11642E-07 7.78120E-07
 -1       535-2.38579E+07-2.01301E+07-1.13547E+07-1.29278E+07 7.56700E-08 4.54136E-07
 -1       536-7.06277E+05-4.67399E+04-4.82840E+04-5.47132E+04-3.55203E-09 5.48116E-08
 -1       537-5.47514E+04 4.46736E+04 8.39105E+04 1.23906E+05-1.17072E-07 7.88204E-08
 -1       538-3.94416E+05 3.35253E+03 3.53394E+03-7.22315E+04 2.75181E-08 1.04707E-07
 -1       539-2.68983E+05 2.85029E+03 2.49218E+04 1.38799E+05 1.60261E-07 1.02408E-07
 -1       540-4.97427E+05-4.28296E+02-2.13443E+04-7.01409E+04 1.16011E-08 1.01419E-07
 -1       541 1.47016E+05 1.69826E+04 1.06456E+05 9.79780E+04-4.76346E-08 9.41573E-08
 -1       542-7.99206E+05-2.01485E+04-8.42950E+04-3.05350E+04 5.69053E-08 5.63138E-08
 -1       543 4.05872E+05 2.73437E+04 1.58077E+05-1.33677E+04-3.77418E-09 1.70480E-08
 -1       544-7.49340E+05-1.65483E+04-7.48868E+04 4.05345E+04-2.89961E-08-3.16220E-08
 -1       545 2.92420E+04 9.49073E+03 7.98652E+04-1.13677E+05-2.94118E-08-9.58246E-08
 -1       546-4.32692E+05 6.09929E+03-1.22367E+04 6.94275E+04 2.09384E-08-8.53348E-08
 -1       547-2.87070E+05-4.65636E+03 1.05988E+04-1.41645E+05-1.35780E-07-9.46810E-08
 -1       548-4.41532E+05 4.72068E+03-2.38904E+04 6.91948E+04-1.15643E-07-9.27030E-08
 -1       549 4.84362E+04 1.60997E+04 6.05784E+04-1.11538E+05-6.64514E-08-5.24633E-08
 -1       550-7.59221E+05-2.21696E+04-1.29025E+05 3.86040E+04 7.57336E-09-2.82271E-08
 -1       551 4.07929E+04-7.50288E+05-1.59045E+04-1.24714E+06-1.02620E-07 2.76486E-09
 -1       552 9.32733E+04-7.95279E+05 9.91148E+03-1.77825E+06-7.30797E-08 4.47617E-08
 -1       553 7.17730E+04-7.91685E+05 3.20312E+04-1.24049E+06-1.19529E-07 4.89381E-08
 -1       554 1.32073E+05-8.11185E+05 8.10456E+04-1.78020E+06-7.32252E-08 2.03217E-08
 -1       555 1.01518E+05-8.15341E+05 1.48015E+05-1.24032E+06-1.23160E-07-1.40972E-08
 -1       556 2.23805E+05-3.83822E+05 2.56622E+04-4.07340E+05-1.01281E-08-7.71252E-09
 -1       557 3.54399E+05-4.88200E+05 1.61040E+04-5.27818E+05 1.95578E-08-1.08957E-08
 -1       558 2.05558E+05-3.76594E+05 2.30155E+03-4.11798E+05-1.69093E-08-3.36149E-09
 -1       559 3.29377E+05-4.88254E+05 2.43027E+03-5.48283E+05 2.32103E-08-1.89830E-08
 -1       560 1.90241E+05-3.66989E+05-1.51181E+03-4.22836E+05 2.15368E-08-1.20199E-08
 -1       561 3.10132E+05-4.80551E+05 1.27234E+02-5.61406E+05 5.93718E-09-2.74667E-08
 -1       562 1.78130E+05-3.59465E+05-1.32921E+03-4.31607E+05 8.87667E-09-1.41881E-10
 -1       563 2.95747E+05-4.74279E+05-3.77008E+01-5.70801E+05-1.68802E-09-2.30921E-08
 -1       564 1.69486E+05-3.54079E+05-6.01787E+02-4.37732E+05 5.63159E-09-7.49515E-09
 -1       565 2.86205E+05-4.70124E+05 2.36091E+01-5.76898E+05 5.64614E-09 2.51553E-08
 -1       566 1.64433E+05-3.50883E+05-2.60713E+02-4.41266E+05-5.25324E-09-8.29459E-09
 -1       567 2.81567E+05-4.68106E+05-3.63456E+02-5.79715E+05 1.82390E-08-1.27002E-08
 -1       568 1.63061E+05-3.50042E+05-1.12786E+03-4.42321E+05-2.88583E-09-1.34496E-08
 -1       569 2.80443E+05-4.68034E+05-2.84842E+03-5.78285E+05-7.87077E-09 3.04062E-08
 -1       570 1.66464E+05-3.53280E+05-6.22651E+03-4.41300E+05 1.00190E-08-1.19699E-08
 -1       571 2.90646E+05 1.05125E+04 1.49952E+04-9.53163E+04 2.25282E-09 4.30964E-09
 -1       572 2.92819E+05 3.96351E+03 7.34887E+03-1.04572E+05 2.28783E-09 2.26100E-09
 -1       573 2.91509E+05 1.24786E+03 3.26534E+03-9.51397E+04-2.59297E-09 1.04856E-08
 -1       574 2.91723E+05 7.29329E+02 1.63755E+03-1.04796E+05-1.33480E-08-3.54521E-09
 -1       575 2.91603E+05 4.49850E+02 7.72882E+02-9.51156E+04-1.39264E-09-2.41016E-10
 -1       576 2.91587E+05 4.61336E+02 3.95722E+02-1.04826E+05 1.01791E-08-1.39516E-09
 -1       577 2.91643E+05 3.91648E+02 1.97558E+02-9.51122E+04 3.89173E-09 5.50062E-09
 -1       578 2.91618E+05 4.23143E+02 1.14155E+02-1.04831E+05-7.00356E-09 8.41646E-09
 -1       579 2.91715E+05 3.54795E+02 7.84445E+01-9.51119E+04 7.19774E-09-1.06520E-08
 -1       580 2.91720E+05 3.71911E+02 9.11181E+01-1.04826E+05-7.33507E-09-7.64339E-09
 -1       581 2.91830E+05 2.95990E+02 1.37685E+02-9.51178E+04 6.89215E-09-1.29294E-08
 -1       582 2.91896E+05 3.34359E+02 2.79991E+02-1.04764E+05 4.20823E-09-6.89033E-09
 -1       583 2.91970E+05 3.38447E+02 5.37419E+02-9.51745E+04 3.23780E-10-3.30579E-09
 -1       584 2.92272E+05 7.77425E+02 1.21615E+03-1.04287E+05 2.77942E-09-1.55969E-08
 -1       585 2.91997E+05 1.80088E+03 2.46265E+03-9.55943E+04-4.04543E-09-1.02336E-08
 -1       586-3.42429E+03 1.17032E+05-2.91151E+03-2.50786E+05-5.93081E-09 8.00947E-09
 -1       587-1.34053E+03 1.16784E+05 7.76216E+02-2.76009E+05-5.48425E-09-1.71557E-08
 -1       588 3.97490E+02 1.16590E+05 4.76614E+03-2.50648E+05-4.42196E-09 3.73984E-09
 -1       589 5.08838E+03 1.19066E+05 1.23578E+04-2.75776E+05-1.02355E-08-1.56797E-08
 -1       590 1.66245E+04 1.15255E+05 2.59215E+04-2.51080E+05-3.87081E-09 2.86309E-09
 -1       591-7.50977E+04-1.59808E+04-2.25504E+04-3.19871E+04-1.25624E-09-1.22009E-08
 -1       592-7.91963E+04-1.95363E+04-1.22151E+04-3.56095E+04-1.68399E-11-1.12384E-08
 -1       593-7.73529E+04-1.43445E+04-5.08453E+03-3.36407E+04-3.26919E-09 7.80574E-10
 -1       594-7.60829E+04-1.62272E+04-2.53578E+03-3.57272E+04 2.97163E-09 2.21054E-08
 -1       595-7.75248E+04-1.43392E+04-1.16418E+03-3.37158E+04-6.46892E-10 1.78201E-08
 -1       596-7.58697E+04-1.60758E+04-5.91593E+02-3.57019E+04 1.21892E-08 1.09094E-08
 -1       597-7.75464E+04-1.43546E+04-3.21677E+02-3.37186E+04 4.15616E-09 1.45724E-08
 -1       598-7.58487E+04-1.60699E+04-2.57741E+02-3.56947E+04-1.26687E-09-1.97897E-08
 -1       599-7.75451E+04-1.43551E+04-3.28174E+02-3.37183E+04 5.51131E-09-1.79804E-08
 -1       600-7.58697E+04-1.60764E+04-6.08795E+02-3.56997E+04 6.15455E-09-7.48332E-09
 -1       601-7.75205E+04-1.43406E+04-1.20058E+03-3.37148E+04-8.68795E-10-4.63092E-09
 -1       602-7.60895E+04-1.62313E+04-2.61631E+03-3.57220E+04-1.30240E-08 5.24199E-09
 -1       603-7.73404E+04-1.43490E+04-5.24666E+03-3.36381E+04-5.46720E-09 1.11204E-08
 -1       604-7.93199E+04-1.96262E+04-1.26037E+04-3.55756E+04-1.27528E-09-1.70605E-08
 -1       605-7.49933E+04-1.60552E+04-2.32680E+04-3.19514E+04 5.40632E-09 2.26601E-08
 -1       606 2.66630E+04-1.43378E+04-2.57027E+04 2.39497E+04-6.55564E-09 2.86082E-09
 -1       607 2.22713E+04-4.68271E+03-1.27999E+04 2.69145E+04-1.49230E-08 3.86740E-09
 -1       608 2.47744E+04-8.44768E+02-5.73006E+03 2.37813E+04-1.05956E-08-7.78277E-09
 -1       609 2.42946E+04-2.89470E+02-2.89468E+03 2.71282E+04 2.11821E-09 7.07541E-09
 -1       610 2.45607E+04-4.10742E+01-1.38107E+03 2.37613E+04 3.47063E-09 9.50172E-09
 -1       611 2.44854E+04-4.13948E+01-6.96326E+02 2.71513E+04 6.60157E-09-2.53544E-09
 -1       612 2.45137E+04-2.74086E+01-3.31007E+02 2.37593E+04 9.42237E-10-1.22707E-08
 -1       613 2.44971E+04-3.73493E+01-1.48291E+02 2.71540E+04 4.21278E-09-1.33093E-08
 -1       614 2.44916E+04-3.38742E+01-3.46704E+01 2.37586E+04 3.02862E-10 2.47314E-09
 -1       615 2.44919E+04-3.58966E+01 6.24009E+01 2.71544E+04-2.80079E-09 1.48721E-08
 -1       616 2.44742E+04-3.07793E+01 1.86891E+02 2.37589E+04-1.02877E-08 1.77647E-09
 -1       617 2.45145E+04 3.89554E+00 4.26310E+02 2.71540E+04-1.64328E-08-1.24658E-08
 -1       618 2.44372E+04 9.20911E+01 8.59264E+02 2.37592E+04-9.19317E-09 2.40980E-08
 -1       619 2.48178E+04 6.68257E+02 1.92952E+03 2.71534E+04-2.63572E-09 1.31533E-08
 -1       620 2.41519E+04 2.12961E+03 3.87828E+03 2.37607E+04-1.30819E-09 9.80481E-09
 -1       621 5.11654E+02 3.01583E+05 3.88729E+03 4.11411E+04 7.53516E-10 3.49064E-09
 -1       622 6.78342E+02 3.02480E+05 3.44979E+03 5.97274E+04 1.23464E-09 1.76660E-08
 -1       623 1.43509E+02 3.01777E+05 4.14521E+03 4.09550E+04 1.25738E-09 1.95496E-08
 -1       624 2.12899E+03 3.03698E+05 8.03577E+03 5.99106E+04 1.46485E-09 7.59792E-09
 -1       625 2.07979E+03 3.00183E+05 1.40420E+04 4.09518E+04 1.42199E-09 3.72052E-09
 -1       626 2.61015E+05 6.14097E+04 5.12244E+03 1.26761E+05 1.05774E-09-9.03310E-09
 -1       627 2.58699E+05 6.28038E+04 2.46846E+03 1.31032E+05 1.34287E-09-1.32241E-09
 -1       628 2.61142E+05 5.90662E+04 1.04398E+03 1.27632E+05-7.97809E-09-3.17118E-09
 -1       629 2.58064E+05 6.21231E+04 5.10975E+02 1.31272E+05-2.87946E-09 5.25837E-09
 -1       630 2.61157E+05 5.89529E+04 2.37134E+02 1.27669E+05 7.74844E-09 9.77593E-10
 -1       631 2.57997E+05 6.20972E+04 1.27744E+02 1.31274E+05 7.29051E-09 1.15169E-08
 -1       632 2.61153E+05 5.89569E+04 8.42947E+01 1.27665E+05 8.31369E-09-1.74853E-08
 -1       633 2.57989E+05 6.20989E+04 9.42668E+01 1.31270E+05 7.44467E-09 2.19052E-09
 -1       634 2.61149E+05 5.89540E+04 1.52659E+02 1.27665E+05-7.64021E-09 4.48881E-09
 -1       635 2.58003E+05 6.20972E+04 3.09101E+02 1.31276E+05-1.15862E-08 2.58524E-09
 -1       636 2.61140E+05 5.89482E+04 6.24331E+02 1.27664E+05-9.25638E-10 6.60884E-09
 -1       637 2.58139E+05 6.21943E+04 1.37282E+03 1.31275E+05-6.26460E-09-6.96127E-09
 -1       638 2.61091E+05 5.92514E+04 2.82064E+03 1.27527E+05 7.23048E-09 1.83995E-08
 -1       639 2.59620E+05 6.42550E+04 6.67379E+03 1.30839E+05 9.14679E-09 3.16577E-08
 -1       640 2.60886E+05 6.54050E+04 1.38493E+04 1.24935E+05 5.56520E-09 6.52926E-09
 -1       656 6.66059E+04-1.70467E+06-1.60782E+05-2.56430E+03-7.56700E-10 6.42638E-09
 -1       657-8.81143E+04-1.77733E+06-1.33200E+05 5.15098E+03 1.67347E-10 1.13397E-08
 -1       658 2.12321E+04-1.72530E+06-8.20357E+04-4.64901E+03 5.39103E-10-1.13570E-08
 -1       659-9.52858E+04-1.78073E+06-1.42625E+05 6.88417E+03-2.18097E-09-2.59410E-09
 -1       660 7.37614E+04-1.70128E+06-1.76986E+05-4.29748E+03-1.84809E-09 2.20419E-08
 -1       661 1.58377E+05 1.65699E+04 1.67039E+04 6.19137E+04-2.24281E-09 3.35694E-09
 -1       662 1.67825E+05 2.89366E+04 1.12573E+04 5.81621E+04-1.42131E-09 1.36205E-08
 -1       663 1.61658E+05 2.19288E+04 3.93707E+03 6.09615E+04-1.08821E-09-2.74190E-09
 -1       664 1.64020E+05 2.26698E+04 2.35520E+03 5.93253E+04-1.36379E-09 1.56859E-10
 -1       665 1.62156E+05 2.26607E+04 9.29109E+02 6.08162E+04 4.10455E-09-6.20005E-09
 -1       666 1.63431E+05 2.18329E+04 5.43869E+02 5.95148E+04 6.36271E-09 5.42421E-09
 -1       667 1.62243E+05 2.27439E+04 2.89082E+02 6.07798E+04 3.93044E-09-4.74206E-09
 -1       668 1.63335E+05 2.17732E+04 2.95025E+02 5.95677E+04 1.22782E-10-1.91008E-08
 -1       669 1.62251E+05 2.27187E+04 3.99808E+02 6.07636E+04-2.81534E-09 1.03654E-08
 -1       670 1.63432E+05 2.19903E+04 8.70947E+02 5.95706E+04-9.94797E-09 5.92439E-09
 -1       671 1.62146E+05 2.25312E+04 1.54655E+03 6.07749E+04 1.03871E-09 1.73297E-08
 -1       672 1.64334E+05 2.34949E+04 3.95692E+03 5.93522E+04 5.21391E-09 1.05621E-08
 -1       673 1.61355E+05 2.12522E+04 6.63120E+03 6.09674E+04 5.05497E-09 7.59474E-09
 -1       674 1.70645E+05 3.41487E+04 1.89638E+04 5.74980E+04 2.98996E-09-3.38400E-09
 -1       675 1.55875E+05 1.21759E+04 2.81490E+04 6.25171E+04-4.70118E-09-9.05857E-10
 -1       676 2.41147E+01-2.95944E+05-1.11357E+03-1.37801E+02 3.08987E-09-1.77090E-08
 -1       677-2.94558E+02-2.96214E+05-2.03802E+03 2.75379E+02 1.24824E-08-5.86047E-09
 -1       678 1.97570E+02-2.95752E+05-3.60271E+03-1.37488E+02 5.79803E-10 1.94635E-08
 -1       679-3.60277E+03-2.98388E+05-8.55855E+03 2.74189E+02 6.50459E-09 1.42023E-08
 -1       680 2.15106E+03-2.93770E+05-1.37935E+04-1.35092E+02 1.56888E-09 1.31127E-08
 -1       771-3.06267E+06-7.47535E+05-1.66064E+05-1.46624E+06-3.38187E-08-3.08792E-08
 -1       772-2.98551E+06-8.36437E+05-8.56176E+04-1.56903E+06-2.60043E-08 1.46101E-08
 -1       773-3.09419E+06-7.22957E+05-4.36462E+04-1.48080E+06-1.32422E-08 8.86212E-09
 -1       774-2.97598E+06-8.17889E+05-1.94727E+04-1.59482E+06 3.32366E-08 4.80213E-10
 -1       775-3.11066E+06-7.11404E+05-1.45664E+04-1.48787E+06-4.54020E-09-3.49246E-10
 -1       776-2.98835E+06-8.14848E+05-5.44719E+03-1.61434E+06-9.70613E-09 3.60887E-09
 -1       777-3.12495E+06-7.01092E+05-6.43627E+03-1.49410E+06 3.87081E-09 5.92991E-09
 -1       778-3.00126E+06-8.12019E+05-1.81974E+03-1.63111E+06 4.72937E-09 4.18731E-09
 -1       779-3.13723E+06-6.92081E+05-3.21653E+03-1.49942E+06-1.66474E-08-5.38785E-09
 -1       780-3.01263E+06-8.09320E+05-5.33482E+02-1.64477E+06-5.67525E-09-1.65710E-09
 -1       781-3.14700E+06-6.84816E+05-1.24976E+03-1.50359E+06-2.96714E-08-4.62023E-10
 -1       782-3.02139E+06-8.07029E+05 4.50143E+02-1.65485E+06-4.32628E-08-6.49834E-09
 -1       783-3.15388E+06-6.79768E+05 7.00585E+02-1.50650E+06-1.18453E-08-2.38642E-08
 -1       784-3.02625E+06-8.04740E+05 2.90509E+03-1.66108E+06-1.17434E-08 1.10504E-09
 -1       785-3.15795E+06-6.76757E+05 5.12834E+03-1.50835E+06-3.42625E-08 2.42289E-09
 -1       786 1.23493E+05-9.76325E+03 2.25882E+04-3.22394E+02 1.59728E-09-7.28505E-10
 -1       787 1.33290E+05 1.13037E+04 1.59802E+04-1.35618E+02 4.86033E-09 8.24684E-09
 -1       788 1.27270E+05-1.52992E+03 5.84406E+03-2.87272E+02 3.96678E-09 8.81187E-09
 -1       789 1.28889E+05 1.77085E+03 3.66869E+03-1.89428E+02-5.99094E-11 1.61228E-08
 -1       790 1.27894E+05-2.38202E+02 1.48539E+03-2.68601E+02-1.67292E-09-6.63113E-09
 -1       791 1.28160E+05 2.75605E+02 8.57914E+02-2.21371E+02-6.40070E-09-6.96586E-09
 -1       792 1.28000E+05-3.57949E+01 3.63531E+02-2.55331E+02-4.44219E-09-1.12466E-08
 -1       793 1.28034E+05 3.78144E+01 1.81187E+02-2.46324E+02 7.42827E-10-1.50015E-08
 -1       794 1.28020E+05-5.61726E-01 4.70044E+01-2.43648E+02 4.04756E-09 1.77980E-09
 -1       795 1.27997E+05-2.75361E+01-5.80407E+01-2.70682E+02-4.49382E-09 6.49576E-09
 -1       796 1.28037E+05 2.95191E+01-1.63169E+02-2.30972E+02 3.83855E-09-2.50987E-08
 -1       797 1.27902E+05-2.20370E+02-4.47758E+02-2.99774E+02 3.75432E-09-6.84463E-09
 -1       798 1.28115E+05 1.92127E+02-7.27110E+02-2.14556E+02 2.02813E-09 1.21240E-08
 -1       799 1.27350E+05-1.41615E+03-2.00034E+03-3.40404E+02 6.27864E-09 1.62757E-08
 -1       800 1.28588E+05 1.22433E+03-2.83087E+03-1.90344E+02 8.28333E-10 3.48605E-08
 -1       801-1.71318E+05-9.99866E+06-1.39363E+06 1.41559E+06 9.41509E-08-5.31145E-08
 -1       802 7.38415E+05 5.95130E+06 2.18196E+06-1.74755E+06 2.61782E-07-3.68227E-08
 -1       803-5.36694E+05-1.42675E+07-1.89065E+06 8.98393E+05 7.69323E-08 1.75387E-08
 -1       804 2.87236E+05 2.39533E+06 1.53737E+06 6.77162E+05-1.20435E-07-1.08181E-07
 -1       805 1.89348E+05-6.45680E+06-2.86310E+05-1.00346E+06-4.94038E-08-7.34908E-08
 -1       806-3.08990E+05-5.97655E+04-2.28578E+04-1.22432E+05-1.56519E-08-8.47649E-10
 -1       807-3.10789E+05-5.60337E+04-1.12298E+04-1.27977E+05-7.93807E-09 2.35805E-08
 -1       808-3.09618E+05-5.15278E+04-4.76403E+03-1.26326E+05-1.83854E-08 7.52266E-10
 -1       809-3.08428E+05-5.28783E+04-2.32949E+03-1.28253E+05-1.59898E-08 3.51747E-09
 -1       810-3.09712E+05-5.12410E+04-1.06774E+03-1.26498E+05 8.78435E-09 1.80378E-08
 -1       811-3.08246E+05-5.27515E+04-5.31009E+02-1.28217E+05 1.64619E-09-1.24551E-08
 -1       812-3.09726E+05-5.12657E+04-2.68644E+02-1.26497E+05 3.96358E-09-9.09085E-09
 -1       813-3.08220E+05-5.27537E+04-1.74729E+02-1.28199E+05 1.16129E-08-8.95488E-09
 -1       814-3.09719E+05-5.12754E+04-1.73383E+02-1.26493E+05 2.00116E-08 2.52112E-09
 -1       815-3.08224E+05-5.27560E+04-2.79546E+02-1.28191E+05 2.73303E-08 1.35797E-08
 -1       816-3.09698E+05-5.12746E+04-5.29961E+02-1.26489E+05 1.32904E-08-9.31777E-09
 -1       817-3.08314E+05-5.28065E+04-1.13741E+03-1.28179E+05-1.45701E-08 1.33678E-08
 -1       818-3.09630E+05-5.14351E+04-2.31994E+03-1.26414E+05-9.63155E-10 2.04805E-08
 -1       819-3.09584E+05-5.42080E+04-5.45864E+03-1.27879E+05 3.46427E-09-2.40564E-08
 -1       820-3.09192E+05-5.55588E+04-1.11103E+04-1.24653E+05 1.50976E-09-1.76663E-08
 -1       821-3.79070E+05 2.08743E+04-4.85951E+04 2.13560E+03 1.44100E-08 1.99361E-09
 -1       822-3.98766E+05-2.41819E+04-3.41490E+04-4.47928E+03 4.82279E-09-2.12544E-08
 -1       823-3.86530E+05 3.29070E+03-1.25514E+04 3.45425E+03-1.30897E-08 1.24824E-08
 -1       824-3.89758E+05-3.79469E+03-7.85594E+03-5.39931E+03 4.27683E-10 1.95313E-08
 -1       825-3.88085E+05 5.11409E+02-3.29028E+03 3.05575E+03 2.21526E-08-1.03785E-09
 -1       826-3.87317E+05-5.67114E+02-1.74252E+03-3.11626E+03 2.84769E-08-6.65017E-09
 -1       827-3.88946E+05 4.63930E+01-1.19204E+03 1.17105E+03 1.25748E-08-1.90503E-08
 -1       828-3.86606E+05-1.31486E+02-5.83114E+02 1.09877E+03-2.01192E-09-2.10061E-09
 -1       829-3.88783E+05 6.55968E+01-1.18074E+03-1.15931E+03 3.52654E-09-6.34572E-10
 -1       830-3.87669E+05-6.22153E+02-1.88127E+03 4.90858E+03 1.37706E-09 8.74735E-10
 -1       831-3.87905E+05 5.54862E+02-3.37201E+03-2.63877E+03-5.62479E-09-9.80413E-09
 -1       832-3.89838E+05-3.96181E+03-8.15906E+03 6.19762E+03-3.74972E-09-6.62442E-09
 -1       833-3.86630E+05 3.41494E+03-1.30561E+04-2.44839E+03-2.66017E-09-2.02799E-08
 -1       834-3.98824E+05-2.50967E+04-3.53730E+04 4.21582E+03-3.52488E-09-1.16006E-09
 -1       835-3.78902E+05 2.16567E+04-5.04679E+04-6.56893E+02 4.19712E-09 1.00263E-08
 -1       836-1.41477E+03 3.70392E+05 2.29215E+04-1.61085E+04-6.96218E-09 1.10858E-08
 -1       837 4.88612E+03 3.77571E+05 1.93916E+04-3.29216E+04-7.67756E-09 1.82918E-08
 -1       838-5.58311E+02 3.72405E+05 1.97517E+04-1.60371E+04-6.29279E-09-2.86286E-09
 -1       839 1.24279E+04 3.83188E+05 3.73585E+04-3.29742E+04-6.89033E-09 2.61099E-08
 -1       840-3.84246E+03 3.64715E+05 5.95706E+04-1.60618E+04-6.25005E-09 8.25601E-09
 -1       856-5.20157E+04 8.02141E+03-2.11381E+04-3.97450E+02 4.19675E-09 9.83346E-09
 -1       857-6.07241E+04-9.42495E+03-1.45513E+04 5.63384E+03 6.72608E-09 6.07997E-10
 -1       858-5.54644E+04 1.12493E+03-5.48483E+03-4.21514E+02 4.53383E-09-4.96402E-09
 -1       859-5.67663E+04-1.32349E+03-3.30983E+03 5.66962E+03-8.15689E-10-1.44757E-08
 -1       860-5.59797E+04 1.57546E+02-1.38712E+03-4.32966E+02-2.59672E-09-2.26923E-08
 -1       861-5.61736E+04-1.88125E+02-7.63019E+02 5.68522E+03 3.91646E-09-2.34338E-08
 -1       862-5.60603E+04 2.13428E+01-3.17048E+02-4.37088E+02-6.31534E-10 1.11779E-08
 -1       863-5.60748E+04-2.18639E+01-1.15200E+02 5.68762E+03-8.19751E-09 2.54446E-08
 -1       864-5.60790E+04-4.93165E+00 4.78383E+01-4.35361E+02-4.25729E-10 7.58460E-09
 -1       865-5.60189E+04 5.98714E+01 2.56601E+02 5.67774E+03-4.18390E-09-1.20810E-08
 -1       866-5.61140E+04-6.04059E+01 5.16792E+02-4.27219E+02 1.06553E-09-1.62008E-08
 -1       867-5.57759E+04 4.98814E+02 1.27182E+03 5.65564E+03 2.07115E-09 8.99604E-10
 -1       868-5.63170E+04-4.35938E+02 2.11333E+03-4.13258E+02-4.13161E-09 7.23696E-09
 -1       869-5.42267E+04 3.62816E+03 5.62700E+03 5.61928E+03 5.68150E-09 3.23780E-10
 -1       870-5.76555E+04-3.10474E+03 8.16606E+03-3.90751E+02-4.72278E-09-3.27418E-10
 -1       871-5.52084E+03-2.13766E+04-1.95028E+04 1.30511E+05-4.38922E-09 1.38607E-08
 -1       872-1.98210E+03-2.59119E+04-8.16701E+03 1.69227E+05-1.06002E-08 1.10504E-09
 -1       873 4.06424E+02-2.37181E+04 5.88390E+02 1.30224E+05-6.27779E-09 1.00638E-08
 -1       874 3.30845E+03-2.13070E+04 9.78131E+03 1.69256E+05-1.07921E-08 6.72730E-09
 -1       875 6.84939E+03-2.60483E+04 2.20673E+04 1.30463E+05-4.64388E-09 1.20253E-08
 -1       876 2.93860E+05 4.95221E+04 1.51023E+04 1.17920E+05 9.22444E-09-1.40126E-08
 -1       877 2.94859E+05 5.27021E+04 8.06520E+03 1.22252E+05 1.97076E-08 3.31693E-08
 -1       878 2.95272E+05 4.78491E+04 3.37892E+03 1.19157E+05-1.47747E-09-1.53022E-10
 -1       879 2.92806E+05 5.06533E+04 1.68359E+03 1.22354E+05 9.77798E-09 1.50067E-09
 -1       880 2.95373E+05 4.78318E+04 7.84200E+02 1.19208E+05-1.31331E-09 3.78350E-09
 -1       881 2.92669E+05 5.05657E+04 4.18802E+02 1.22330E+05-7.29460E-09-7.04199E-09
 -1       882 2.95382E+05 4.78451E+04 2.67970E+02 1.19209E+05-7.57473E-09 2.24376E-09
 -1       883 2.92660E+05 5.05611E+04 2.88153E+02 1.22323E+05-5.55286E-09-3.02018E-09
 -1       884 2.95376E+05 4.78423E+04 4.58451E+02 1.19210E+05 5.34726E-09 1.32271E-08
 -1       885 2.92696E+05 5.05675E+04 9.21782E+02 1.22334E+05-5.41421E-09 1.24674E-08
 -1       886 2.95340E+05 4.78154E+04 1.85783E+03 1.19206E+05-2.15647E-09 3.86149E-09
 -1       887 2.93023E+05 5.07816E+04 4.05818E+03 1.22381E+05 4.20710E-09-1.47793E-11
 -1       888 2.95083E+05 4.78606E+04 8.17735E+03 1.19076E+05 3.29648E-09-2.17337E-08
 -1       889 2.97891E+05 5.58443E+04 1.95341E+04 1.22232E+05 1.13646E-09 4.58476E-09
 -1       890 2.91746E+05 5.18253E+04 3.65870E+04 1.15964E+05-1.78488E-09 8.86757E-09
 -1       891-8.92215E+01-1.62808E+05-1.99735E+03 2.71439E+04-1.62800E-09 1.95939E-08
 -1       892-1.75165E+02-1.63336E+05-2.14498E+03 4.12200E+04 2.41994E-09 1.91158E-08
 -1       893 4.39166E+01-1.62872E+05-3.03682E+03 2.71513E+04-9.94305E-10-5.07043E-09
 -1       894-1.51016E+03-1.64483E+05-6.28492E+03 4.10675E+04 3.78122E-10-2.15464E-08
 -1       895-1.19937E+03-1.61563E+05-1.10676E+04 2.72983E+04 1.82229E-09-3.53975E-09
 -1       956-3.77361E+05-5.45186E+03-1.34579E+04 3.08882E+04 1.41381E-08 8.78799E-10
 -1       957-3.80002E+05-1.92329E+03-6.90775E+03 3.71194E+04 7.91078E-09-1.24442E-08
 -1       958-3.78571E+05-2.41066E+02-3.11285E+03 3.07204E+04-5.46606E-10-3.53975E-09
 -1       959-3.78767E+05-1.36360E+02-1.58947E+03 3.73152E+04 9.41327E-11-5.11864E-09
 -1       960-3.78689E+05-4.48606E+01-7.75103E+02 3.07031E+04 5.94810E-09-1.90266E-09
 -1       961-3.78687E+05-6.32856E+01-4.10951E+02 3.73356E+04 1.45471E-08 4.05430E-09
 -1       962-3.78716E+05-4.60788E+01-2.35281E+02 3.07002E+04 3.86581E-09 9.34870E-09
 -1       963-3.78687E+05-5.90898E+01-1.88878E+02 3.73393E+04 3.64867E-09 4.44652E-09
 -1       964-3.78722E+05-4.27256E+01-2.29698E+02 3.06994E+04-4.14519E-09-5.27439E-09
 -1       965-3.78699E+05-5.61368E+01-3.97291E+02 3.73385E+04-1.60733E-08-1.30217E-08
 -1       966-3.78706E+05-3.48955E+01-7.46505E+02 3.07009E+04-2.76532E-09-4.78713E-09
 -1       967-3.78789E+05-1.19728E+02-1.53107E+03 3.73242E+04 1.11368E-09-8.14725E-09
 -1       968-3.78602E+05-2.17494E+02-2.99729E+03 3.07136E+04-6.07542E-10 3.79487E-10
 -1       969-3.79990E+05-1.83539E+03-6.65389E+03 3.71755E+04 1.97224E-09 7.59144E-11
 -1       970-3.77445E+05-5.23281E+03-1.29622E+04 3.08410E+04-1.30058E-10-3.58250E-09
 -1       971-3.45481E+05-1.72757E+03-9.31016E+03 1.53777E+04 5.20231E-09-3.19021E-09
 -1       972-3.47722E+05-1.27188E+03-5.07022E+03 2.12670E+04 1.38607E-09-2.07365E-10
 -1       973-3.46518E+05-6.20900E+01-2.27100E+03 1.52566E+04 2.60752E-09 3.25986E-09
 -1       974-3.46653E+05-8.11605E+01-1.17721E+03 2.14041E+04-1.61640E-09 3.48609E-09
 -1       975-3.46600E+05-1.72154E+01-5.88919E+02 1.52443E+04-3.29419E-09 5.28132E-09
 -1       976-3.46592E+05-3.13169E+01-3.40621E+02 2.14199E+04 8.99877E-09-1.73055E-08
 -1       977-3.46616E+05-1.64700E+01-2.48749E+02 1.52409E+04-2.70688E-09 2.93994E-10
 -1       978-3.46597E+05-2.50920E+01-2.93178E+02 2.14247E+04-1.48597E-08 2.05403E-08
 -1       979-3.46616E+05-7.98954E+00-4.72839E+02 1.52394E+04-9.70033E-09-4.23597E-09
 -1       980-3.46632E+05-2.20299E+01-9.14119E+02 2.14257E+04-4.24507E-10 2.09445E-09
 -1       981-3.46587E+05 1.48602E+01-1.77103E+03 1.52400E+04-1.97122E-09-4.65661E-10
 -1       982-3.46875E+05-1.52888E+02-3.66101E+03 2.14191E+04 6.84963E-10 8.83844E-09
 -1       983-3.46364E+05-9.85412E+01-7.11353E+03 1.52460E+04-3.25144E-10 5.94946E-09
 -1       984-3.50297E+05-3.86807E+03-1.59305E+04 2.13335E+04-4.22551E-09-4.97357E-09
 -1       985-3.43143E+05-5.30377E+03-2.92534E+04 1.53173E+04-1.96860E-09-2.42107E-09
 -3
    1PSTEP                        31          16           1          
  100CL  116 6.63036E-01         409                     0   16           1
 -4  DISP        4    1
 -5  D1          1    2    1    0
 -5  D2          1    2    2    0
 -5  D3          1    2    3    0
 -5  ALL         1    2    0    0    1ALL
 -1         1 2.72350E-03 0.00000E+00 0.00000E+00
 -1         2 1.34105E-03-2.58405E-28 0.00000E+00
 -1         3 3.42766E-04-5.81338E-28 0.00000E+00
 -1         5 1.77149E-04-1.84913E-27 0.00000E+00
 -1         8 2.71270E-03-4.03742E-07 0.00000E+00
 -1         9 2.70601E-03-1.95842E-04 0.00000E+00
 -1        10 3.10804E-04-3.40038E-06 6.61744E-24
 -1        12 1.78997E-04 8.09528E-07 8.27181E-25
 -1        15 2.70036E-03-4.27234E-07-1.03398E-25
 -1        16 2.77416E-03-1.97691E-04 0.00000E+00
 -1        17 2.11516E-04-7.75600E-06 0.00000E+00
 -1        18 1.82948E-04 3.44353E-05 0.00000E+00
 -1        19 1.84541E-04 1.61263E-06 0.00000E+00
 -1        20 1.84681E-04-9.89199E-06 0.00000E+00
 -1        21 1.83788E-04-2.54430E-05 0.00000E+00
 -1        24 3.06139E-05-1.19805E-05 0.00000E+00
 -1        25 1.93739E-04 3.46612E-05 0.00000E+00
 -1        26 1.94418E-04 2.23301E-06 0.00000E+00
 -1        27 1.92217E-04-1.34518E-05 0.00000E+00
 -1        28 1.91901E-04-2.60651E-05 0.00000E+00
 -1        32 0.00000E+00 0.00000E+00 0.00000E+00
 -1        33 2.03292E-04 2.98713E-06 0.00000E+00
 -1        34 2.01173E-04-1.35080E-05 0.00000E+00
 -1        35 1.99240E-04-2.64077E-05 0.00000E+00
 -1        51 2.72278E-03-8.47514E-08 1.65436E-24
 -1        52 2.72145E-03-1.51071E-07 0.00000E+00
 -1        53 2.71965E-03-2.13905E-07 0.00000E+00
 -1        54 2.71750E-03-2.75492E-07 0.00000E+00
 -1        55 2.71514E-03-3.37602E-07 0.00000E+00
 -1        56 2.71561E-03 8.97001E-06-5.29396E-23
 -1        57 2.69997E-03 3.70176E-05 0.00000E+00
 -1        58 2.67894E-03 7.81581E-05-1.05879E-22
 -1        59 2.65538E-03 1.25161E-04-5.29396E-23
 -1        60 2.63282E-03 1.69791E-04 0.00000E+00
 -1        61 2.61465E-03 2.04002E-04 0.00000E+00
 -1        62 2.60317E-03 2.21611E-04 1.05879E-22
 -1        63 2.59989E-03 2.17913E-04 0.00000E+00
 -1        64 2.60457E-03 1.92118E-04 1.05879E-22
 -1        65 2.61628E-03 1.45532E-04 0.00000E+00
 -1        66 2.63296E-03 8.34201E-05-1.05879E-22
 -1        67 2.65233E-03 1.25766E-05-5.29396E-23
 -1        68 2.67176E-03-5.85032E-05 0.00000E+00
 -1        69 2.68869E-03-1.21294E-04 0.00000E+00
 -1        70 2.70075E-03-1.68888E-04-5.29396E-23
 -1        86 1.42689E-03-6.18269E-06 0.00000E+00
 -1        87 1.67514E-03-3.89010E-05-2.64698E-23
 -1        88 2.00894E-03-9.51564E-05 2.64698E-23
 -1        89 2.34729E-03-1.52980E-04-1.32349E-23
 -1        90 2.60653E-03-1.88368E-04 5.29396E-23
 -1       121 3.41869E-04-5.48985E-07 0.00000E+00
 -1       122 3.39180E-04-1.10106E-06 0.00000E+00
 -1       123 3.34709E-04-1.65926E-06 0.00000E+00
 -1       124 3.28473E-04-2.22664E-06 0.00000E+00
 -1       125 3.20494E-04-2.80585E-06-1.32349E-23
 -1       191 1.77200E-04 1.34985E-07-2.48154E-24
 -1       192 1.77354E-04 2.69959E-07-4.13590E-25
 -1       193 1.77611E-04 4.04912E-07 8.27181E-25
 -1       194 1.77970E-04 5.39834E-07-8.27181E-25
 -1       195 1.78432E-04 6.74710E-07 1.65436E-24
 -1       251 2.71240E-03 1.63017E-06 0.00000E+00
 -1       252 2.71209E-03 3.52463E-06 0.00000E+00
 -1       253 2.71179E-03 4.28762E-06-6.61744E-24
 -1       254 2.71149E-03 2.94115E-06-3.30872E-24
 -1       255 2.71117E-03-1.17413E-06 0.00000E+00
 -1       256 2.71084E-03-8.68309E-06-3.30872E-24
 -1       257 2.71048E-03-1.96983E-05 0.00000E+00
 -1       258 2.71007E-03-3.42885E-05 3.30872E-24
 -1       259 2.70962E-03-5.19835E-05-6.61744E-24
 -1       260 2.70911E-03-7.22738E-05 6.61744E-24
 -1       261 2.70858E-03-9.42582E-05-1.32349E-23
 -1       262 2.70802E-03-1.17015E-04-6.61744E-24
 -1       263 2.70748E-03-1.39506E-04 0.00000E+00
 -1       264 2.70695E-03-1.60694E-04 0.00000E+00
 -1       265 2.70647E-03-1.79744E-04 0.00000E+00
 -1       266 2.71064E-03-4.13302E-07-3.30872E-24
 -1       267 2.70858E-03-4.16528E-07-8.27181E-25
 -1       268 2.70653E-03-4.20159E-07 8.27181E-25
 -1       269 2.70447E-03-4.22598E-07 0.00000E+00
 -1       270 2.70241E-03-4.25011E-07 0.00000E+00
 -1       271 2.71187E-03 4.81608E-08 0.00000E+00
 -1       272 2.71201E-03-2.16624E-06 6.61744E-24
 -1       273 2.71309E-03-6.88803E-06 0.00000E+00
 -1       274 2.71502E-03-1.39458E-05 0.00000E+00
 -1       275 2.71774E-03-2.31472E-05 0.00000E+00
 -1       276 2.72117E-03-3.42843E-05 0.00000E+00
 -1       277 2.72521E-03-4.71332E-05-2.64698E-23
 -1       278 2.72979E-03-6.14563E-05 1.32349E-23
 -1       279 2.73480E-03-7.70048E-05 2.64698E-23
 -1       280 2.74016E-03-9.35195E-05 0.00000E+00
 -1       281 2.74578E-03-1.10734E-04 0.00000E+00
 -1       282 2.75154E-03-1.28375E-04 0.00000E+00
 -1       283 2.75736E-03-1.46168E-04 1.32349E-23
 -1       284 2.76313E-03-1.63835E-04 0.00000E+00
 -1       285 2.76876E-03-1.81101E-04-1.32349E-23
 -1       301 2.71840E-03-1.96185E-04 1.32349E-23
 -1       302 2.72912E-03-1.96481E-04-6.61744E-24
 -1       303 2.73912E-03-1.96766E-04-1.32349E-23
 -1       304 2.74934E-03-1.97053E-04 0.00000E+00
 -1       305 2.76071E-03-1.97353E-04 0.00000E+00
 -1       306 2.74405E-03-3.51091E-04 0.00000E+00
 -1       307 2.80791E-03-7.65901E-04 0.00000E+00
 -1       308 2.85449E-03-1.37178E-03 1.05879E-22
 -1       309 2.87829E-03-2.07249E-03 5.29396E-23
 -1       310 2.90968E-03-2.74217E-03 0.00000E+00
 -1       311 2.96925E-03-3.25766E-03-5.29396E-23
 -1       312 3.02694E-03-3.53843E-03-1.05879E-22
 -1       313 3.02164E-03-3.54689E-03-5.29396E-23
 -1       314 2.87941E-03-3.29533E-03 1.05879E-22
 -1       315 2.55948E-03-2.84855E-03-5.29396E-23
 -1       316 2.08052E-03-2.28325E-03 0.00000E+00
 -1       317 1.50876E-03-1.66872E-03 0.00000E+00
 -1       318 9.58786E-04-1.06543E-03-1.05879E-22
 -1       319 5.38704E-04-5.38329E-04-5.29396E-23
 -1       320 2.92250E-04-1.61612E-04 1.05879E-22
 -1       336 2.99214E-04-4.05775E-06 0.00000E+00
 -1       337 2.85547E-04-4.74083E-06 0.00000E+00
 -1       338 2.69866E-04-5.45183E-06 0.00000E+00
 -1       339 2.52245E-04-6.19157E-06-6.61744E-24
 -1       340 2.32764E-04-6.96454E-06 1.32349E-23
 -1       406 1.79664E-04 9.44269E-07 8.27181E-25
 -1       407 1.80434E-04 1.07889E-06-8.27181E-25
 -1       408 1.81307E-04 1.21336E-06-8.27181E-25
 -1       409 1.82283E-04 1.34748E-06-2.06795E-25
 -1       410 1.83361E-04 1.48099E-06 0.00000E+00
 -1       521 2.81278E-03-3.62239E-04 1.05879E-22
 -1       522 2.87484E-03-7.97488E-04 0.00000E+00
 -1       523 2.91488E-03-1.43149E-03 0.00000E+00
 -1       524 2.92933E-03-2.16122E-03 0.00000E+00
 -1       525 2.95270E-03-2.85787E-03 0.00000E+00
 -1       526 3.00870E-03-3.39567E-03 0.00000E+00
 -1       527 3.06597E-03-3.68713E-03 2.11758E-22
 -1       528 3.05833E-03-3.69372E-03 0.00000E+00
 -1       529 2.90387E-03-3.42778E-03 0.00000E+00
 -1       530 2.55953E-03-2.96217E-03 0.00000E+00
 -1       531 2.04484E-03-2.37745E-03-1.05879E-22
 -1       532 1.43256E-03-1.74548E-03-5.29396E-23
 -1       533 8.42775E-04-1.12409E-03-1.05879E-22
 -1       534 3.88876E-04-5.75854E-04 0.00000E+00
 -1       535 1.20932E-04-1.79375E-04 0.00000E+00
 -1       536 2.10761E-04 2.71754E-05-6.61744E-24
 -1       537 2.08843E-04 8.76268E-05 0.00000E+00
 -1       538 2.05878E-04 1.64330E-04-3.30872E-24
 -1       539 2.02381E-04 2.47933E-04 0.00000E+00
 -1       540 1.99234E-04 3.26930E-04-3.30872E-24
 -1       541 1.97188E-04 3.89841E-04-1.65436E-24
 -1       542 1.96244E-04 4.29911E-04-3.30872E-24
 -1       543 1.96019E-04 4.40536E-04-1.65436E-24
 -1       544 1.95697E-04 4.22488E-04 0.00000E+00
 -1       545 1.94524E-04 3.76762E-04 0.00000E+00
 -1       546 1.92339E-04 3.11487E-04 0.00000E+00
 -1       547 1.89380E-04 2.34910E-04 1.65436E-24
 -1       548 1.86448E-04 1.58710E-04 3.30872E-24
 -1       549 1.84333E-04 9.45639E-05-1.65436E-24
 -1       550 1.83234E-04 5.05037E-05 0.00000E+00
 -1       551 1.86310E-04-8.32523E-06 0.00000E+00
 -1       552 1.57857E-04-8.97495E-06 0.00000E+00
 -1       553 1.27102E-04-9.68694E-06 0.00000E+00
 -1       554 9.50045E-05-1.04401E-05 3.30872E-24
 -1       555 6.25234E-05-1.12070E-05-1.32349E-23
 -1       556 2.03866E-04 1.18046E-05 5.29396E-23
 -1       557 1.97686E-04 2.76688E-05 0.00000E+00
 -1       558 1.92840E-04 4.01245E-05 0.00000E+00
 -1       559 1.89196E-04 4.94821E-05 0.00000E+00
 -1       560 1.86625E-04 5.60527E-05 0.00000E+00
 -1       561 1.84998E-04 6.01497E-05 0.00000E+00
 -1       562 1.84189E-04 6.20877E-05 0.00000E+00
 -1       563 1.84075E-04 6.21824E-05 0.00000E+00
 -1       564 1.84534E-04 6.07503E-05 0.00000E+00
 -1       565 1.85445E-04 5.81085E-05 0.00000E+00
 -1       566 1.86688E-04 5.45748E-05 0.00000E+00
 -1       567 1.88144E-04 5.04674E-05 0.00000E+00
 -1       568 1.89695E-04 4.61044E-05 0.00000E+00
 -1       569 1.91223E-04 4.18043E-05-8.27181E-25
 -1       570 1.92610E-04 3.78853E-05 0.00000E+00
 -1       571 1.83044E-04 3.23056E-05 2.48154E-24
 -1       572 1.83143E-04 3.01101E-05 1.24077E-24
 -1       573 1.83242E-04 2.78647E-05-1.65436E-24
 -1       574 1.83342E-04 2.55855E-05 0.00000E+00
 -1       575 1.83441E-04 2.32892E-05 3.30872E-24
 -1       576 1.83540E-04 2.09921E-05 1.65436E-24
 -1       577 1.83640E-04 1.87108E-05-3.30872E-24
 -1       578 1.83740E-04 1.64618E-05 0.00000E+00
 -1       579 1.83839E-04 1.42617E-05 0.00000E+00
 -1       580 1.83939E-04 1.21270E-05-6.61744E-24
 -1       581 1.84039E-04 1.00741E-05 6.61744E-24
 -1       582 1.84139E-04 8.11974E-06 0.00000E+00
 -1       583 1.84240E-04 6.28026E-06 0.00000E+00
 -1       584 1.84340E-04 4.57203E-06 3.30872E-24
 -1       585 1.84441E-04 3.01122E-06 0.00000E+00
 -1       586 1.84705E-04 3.44751E-05 0.00000E+00
 -1       587 1.86422E-04 3.45143E-05-8.27181E-25
 -1       588 1.88140E-04 3.45531E-05-8.27181E-25
 -1       589 1.89903E-04 3.45913E-05 0.00000E+00
 -1       590 1.91756E-04 3.46282E-05 0.00000E+00
 -1       591 1.83678E-04 3.23993E-05 2.06795E-25
 -1       592 1.84411E-04 3.03436E-05 2.06795E-25
 -1       593 1.85149E-04 2.82739E-05 0.00000E+00
 -1       594 1.85889E-04 2.61949E-05 0.00000E+00
 -1       595 1.86632E-04 2.41113E-05-8.27181E-25
 -1       596 1.87374E-04 2.20279E-05 0.00000E+00
 -1       597 1.88115E-04 1.99494E-05 0.00000E+00
 -1       598 1.88852E-04 1.78803E-05 4.13590E-25
 -1       599 1.89583E-04 1.58255E-05 8.27181E-25
 -1       600 1.90308E-04 1.37895E-05 0.00000E+00
 -1       601 1.91024E-04 1.17770E-05 0.00000E+00
 -1       602 1.91729E-04 9.79279E-06 0.00000E+00
 -1       603 1.92423E-04 7.84143E-06 4.13590E-25
 -1       604 1.93103E-04 5.92775E-06 2.58494E-26
 -1       605 1.93767E-04 4.05633E-06 0.00000E+00
 -1       606 1.84555E-04 4.47424E-07 0.00000E+00
 -1       607 1.84564E-04-6.32045E-07 0.00000E+00
 -1       608 1.84573E-04-1.63080E-06 3.30872E-24
 -1       609 1.84581E-04-2.55453E-06-1.65436E-24
 -1       610 1.84590E-04-3.40895E-06 0.00000E+00
 -1       611 1.84598E-04-4.19986E-06 0.00000E+00
 -1       612 1.84606E-04-4.93304E-06 0.00000E+00
 -1       613 1.84615E-04-5.61432E-06 0.00000E+00
 -1       614 1.84623E-04-6.24948E-06-1.65436E-24
 -1       615 1.84631E-04-6.84432E-06 0.00000E+00
 -1       616 1.84640E-04-7.40467E-06 0.00000E+00
 -1       617 1.84648E-04-7.93632E-06 4.13590E-25
 -1       618 1.84657E-04-8.44507E-06-8.27181E-25
 -1       619 1.84665E-04-8.93673E-06 0.00000E+00
 -1       620 1.84673E-04-9.41711E-06 0.00000E+00
 -1       621 1.85901E-04 1.71660E-06 1.65436E-24
 -1       622 1.87420E-04 1.82081E-06-8.27181E-25
 -1       623 1.89065E-04 1.92481E-06 1.65436E-24
 -1       624 1.90801E-04 2.02847E-06 8.27181E-25
 -1       625 1.92597E-04 2.13185E-06 3.30872E-24
 -1       626 1.85090E-04 4.83556E-07 3.30872E-24
 -1       627 1.85617E-04-5.82574E-07 0.00000E+00
 -1       628 1.86123E-04-1.59361E-06 0.00000E+00
 -1       629 1.86611E-04-2.55770E-06-1.65436E-24
 -1       630 1.87085E-04-3.48305E-06-3.30872E-24
 -1       631 1.87548E-04-4.37786E-06 0.00000E+00
 -1       632 1.88002E-04-5.25032E-06 0.00000E+00
 -1       633 1.88451E-04-6.10866E-06-1.65436E-24
 -1       634 1.88898E-04-6.96107E-06 0.00000E+00
 -1       635 1.89346E-04-7.81576E-06 0.00000E+00
 -1       636 1.89797E-04-8.68094E-06 0.00000E+00
 -1       637 1.90256E-04-9.56482E-06 0.00000E+00
 -1       638 1.90724E-04-1.04756E-05-3.30872E-24
 -1       639 1.91206E-04-1.14215E-05 0.00000E+00
 -1       640 1.91703E-04-1.24108E-05 1.65436E-24
 -1       656 1.85388E-04-1.04706E-05-6.61744E-24
 -1       657 1.86515E-04-1.10727E-05 0.00000E+00
 -1       658 1.87923E-04-1.16734E-05 0.00000E+00
 -1       659 1.89465E-04-1.22738E-05 0.00000E+00
 -1       660 1.90958E-04-1.28759E-05 0.00000E+00
 -1       661 1.84946E-04-1.04120E-05-8.27181E-25
 -1       662 1.85248E-04-1.10240E-05 0.00000E+00
 -1       663 1.85583E-04-1.17226E-05 0.00000E+00
 -1       664 1.85948E-04-1.25015E-05-8.27181E-25
 -1       665 1.86341E-04-1.33547E-05 0.00000E+00
 -1       666 1.86760E-04-1.42763E-05 0.00000E+00
 -1       667 1.87202E-04-1.52607E-05 1.65436E-24
 -1       668 1.87666E-04-1.63023E-05 8.27181E-25
 -1       669 1.88149E-04-1.73956E-05 1.65436E-24
 -1       670 1.88650E-04-1.85353E-05-8.27181E-25
 -1       671 1.89165E-04-1.97162E-05 1.65436E-24
 -1       672 1.89694E-04-2.09333E-05 8.27181E-25
 -1       673 1.90235E-04-2.21814E-05 1.65436E-24
 -1       674 1.90785E-04-2.34559E-05 4.13590E-25
 -1       675 1.91342E-04-2.47515E-05 2.06795E-25
 -1       676 1.85145E-04-2.55473E-05 0.00000E+00
 -1       677 1.86501E-04-2.56515E-05 0.00000E+00
 -1       678 1.87855E-04-2.57557E-05 3.30872E-24
 -1       679 1.89208E-04-2.58596E-05 0.00000E+00
 -1       680 1.90557E-04-2.59635E-05 0.00000E+00
 -1       771 1.86570E-05 1.47592E-05 0.00000E+00
 -1       772 8.59780E-06 3.67206E-05 0.00000E+00
 -1       773 3.45499E-07 5.41340E-05 0.00000E+00
 -1       774-6.22428E-06 6.72575E-05 2.64698E-23
 -1       775-1.12333E-05 7.63596E-05 0.00000E+00
 -1       776-1.48081E-05 8.17256E-05-2.64698E-23
 -1       777-1.70751E-05 8.36506E-05 0.00000E+00
 -1       778-1.81633E-05 8.24441E-05-2.64698E-23
 -1       779-1.82011E-05 7.84236E-05 0.00000E+00
 -1       780-1.73189E-05 7.19184E-05-2.64698E-23
 -1       781-1.56460E-05 6.32643E-05 0.00000E+00
 -1       782-1.33135E-05 5.28064E-05-5.29396E-23
 -1       783-1.04516E-05 4.08938E-05-5.29396E-23
 -1       784-7.19147E-06 2.78823E-05 0.00000E+00
 -1       785-3.66357E-06 1.41307E-05-5.29396E-23
 -1       786 1.93777E-04 3.24065E-05 0.00000E+00
 -1       787 1.93819E-04 3.02019E-05 4.13590E-25
 -1       788 1.93860E-04 2.80392E-05 8.27181E-25
 -1       789 1.93903E-04 2.59101E-05 0.00000E+00
 -1       790 1.93945E-04 2.38099E-05-1.65436E-24
 -1       791 1.93988E-04 2.17338E-05 0.00000E+00
 -1       792 1.94030E-04 1.96796E-05-1.65436E-24
 -1       793 1.94073E-04 1.76452E-05-8.27181E-25
 -1       794 1.94116E-04 1.56303E-05 1.65436E-24
 -1       795 1.94159E-04 1.36348E-05 8.27181E-25
 -1       796 1.94202E-04 1.16605E-05-1.65436E-24
 -1       797 1.94245E-04 9.70926E-06 0.00000E+00
 -1       798 1.94288E-04 7.78531E-06-1.65436E-24
 -1       799 1.94331E-04 5.89296E-06 0.00000E+00
 -1       800 1.94374E-04 4.03966E-06 1.65436E-24
 -1       801 1.47933E-04 3.11607E-05 2.64698E-23
 -1       802 9.43703E-06 1.94398E-05 2.64698E-23
 -1       803-1.08861E-04 9.81906E-06-5.29396E-23
 -1       804-9.64960E-05 6.83467E-06 0.00000E+00
 -1       805-3.18823E-05 2.68552E-06 5.29396E-23
 -1       806 1.94469E-04 3.23377E-05-3.30872E-24
 -1       807 1.95185E-04 3.00405E-05-1.65436E-24
 -1       808 1.95889E-04 2.77747E-05 0.00000E+00
 -1       809 1.96579E-04 2.55444E-05-1.65436E-24
 -1       810 1.97254E-04 2.33536E-05 3.30872E-24
 -1       811 1.97913E-04 2.12064E-05 0.00000E+00
 -1       812 1.98554E-04 1.91066E-05 3.30872E-24
 -1       813 1.99176E-04 1.70582E-05 0.00000E+00
 -1       814 1.99777E-04 1.50650E-05 3.30872E-24
 -1       815 2.00357E-04 1.31310E-05 8.27181E-25
 -1       816 2.00913E-04 1.12601E-05-1.65436E-24
 -1       817 2.01443E-04 9.45609E-06-8.27181E-25
 -1       818 2.01948E-04 7.72296E-06 1.65436E-24
 -1       819 2.02425E-04 6.06454E-06 0.00000E+00
 -1       820 2.02873E-04 4.48467E-06 0.00000E+00
 -1       821 1.94288E-04-1.32314E-07 1.65436E-24
 -1       822 1.94148E-04-3.65620E-06-1.65436E-24
 -1       823 1.94006E-04-7.90920E-06-3.30872E-24
 -1       824 1.93861E-04-1.24573E-05 1.65436E-24
 -1       825 1.93716E-04-1.67867E-05 3.30872E-24
 -1       826 1.93574E-04-2.03849E-05 0.00000E+00
 -1       827 1.93436E-04-2.29385E-05 3.30872E-24
 -1       828 1.93299E-04-2.41406E-05 0.00000E+00
 -1       829 1.93163E-04-2.40522E-05 3.30872E-24
 -1       830 1.93027E-04-2.27423E-05-1.65436E-24
 -1       831 1.92889E-04-2.06122E-05 0.00000E+00
 -1       832 1.92751E-04-1.80684E-05 1.65436E-24
 -1       833 1.92613E-04-1.56304E-05-3.30872E-24
 -1       834 1.92478E-04-1.38165E-05 0.00000E+00
 -1       835 1.92343E-04-1.29759E-05 8.27181E-25
 -1       836 1.96109E-04 2.35807E-06 3.30872E-24
 -1       837 1.97674E-04 2.48627E-06-1.65436E-24
 -1       838 1.99143E-04 2.61441E-06 0.00000E+00
 -1       839 2.00547E-04 2.74185E-06-8.27181E-25
 -1       840 2.01920E-04 2.86913E-06 0.00000E+00
 -1       856 1.92200E-04-1.45152E-05 8.27181E-25
 -1       857 1.92181E-04-1.54429E-05 0.00000E+00
 -1       858 1.92162E-04-1.62559E-05-2.06795E-25
 -1       859 1.92142E-04-1.69754E-05-2.06795E-25
 -1       860 1.92123E-04-1.76227E-05 4.13590E-25
 -1       861 1.92103E-04-1.82189E-05 2.06795E-25
 -1       862 1.92083E-04-1.87855E-05 0.00000E+00
 -1       863 1.92064E-04-1.93438E-05-4.13590E-25
 -1       864 1.92044E-04-1.99151E-05 0.00000E+00
 -1       865 1.92024E-04-2.05207E-05-4.13590E-25
 -1       866 1.92004E-04-2.11820E-05 0.00000E+00
 -1       867 1.91984E-04-2.19202E-05 0.00000E+00
 -1       868 1.91964E-04-2.27565E-05-8.27181E-25
 -1       869 1.91944E-04-2.37121E-05 4.13590E-25
 -1       870 1.91923E-04-2.48080E-05-8.27181E-25
 -1       871 1.93568E-04-1.34567E-05 8.27181E-25
 -1       872 1.95066E-04-1.34651E-05 0.00000E+00
 -1       873 1.96645E-04-1.34741E-05 0.00000E+00
 -1       874 1.98234E-04-1.34839E-05-2.58494E-26
 -1       875 1.99766E-04-1.34942E-05 1.03398E-24
 -1       876 1.92742E-04-1.45006E-05 0.00000E+00
 -1       877 1.93246E-04-1.54826E-05 0.00000E+00
 -1       878 1.93728E-04-1.64058E-05 0.00000E+00
 -1       879 1.94191E-04-1.72775E-05 0.00000E+00
 -1       880 1.94638E-04-1.81052E-05 0.00000E+00
 -1       881 1.95071E-04-1.88962E-05 1.65436E-24
 -1       882 1.95493E-04-1.96579E-05 0.00000E+00
 -1       883 1.95907E-04-2.03976E-05 1.65436E-24
 -1       884 1.96315E-04-2.11226E-05-3.30872E-24
 -1       885 1.96721E-04-2.18404E-05 0.00000E+00
 -1       886 1.97127E-04-2.25582E-05 0.00000E+00
 -1       887 1.97535E-04-2.32834E-05-1.65436E-24
 -1       888 1.97948E-04-2.40233E-05-3.30872E-24
 -1       889 1.98369E-04-2.47854E-05 0.00000E+00
 -1       890 1.98801E-04-2.55772E-05 0.00000E+00
 -1       891 1.93267E-04-2.61227E-05 0.00000E+00
 -1       892 1.94609E-04-2.61804E-05 8.27181E-25
 -1       893 1.95902E-04-2.62380E-05 0.00000E+00
 -1       894 1.97122E-04-2.62953E-05-4.13590E-25
 -1       895 1.98243E-04-2.63524E-05 8.27181E-25
 -1       956 2.03161E-04 1.66430E-06 0.00000E+00
 -1       957 2.03029E-04 4.33076E-07-8.27181E-25
 -1       958 2.02896E-04-7.17297E-07 3.30872E-24
 -1       959 2.02763E-04-1.79816E-06 0.00000E+00
 -1       960 2.02631E-04-2.82092E-06 0.00000E+00
 -1       961 2.02498E-04-3.79699E-06 0.00000E+00
 -1       962 2.02365E-04-4.73781E-06-3.30872E-24
 -1       963 2.02232E-04-5.65485E-06 1.65436E-24
 -1       964 2.02099E-04-6.55955E-06-3.30872E-24
 -1       965 2.01966E-04-7.46335E-06 1.65436E-24
 -1       966 2.01834E-04-8.37774E-06 3.30872E-24
 -1       967 2.01701E-04-9.31415E-06 1.65436E-24
 -1       968 2.01568E-04-1.02840E-05 0.00000E+00
 -1       969 2.01435E-04-1.12988E-05 0.00000E+00
 -1       970 2.01303E-04-1.23698E-05 0.00000E+00
 -1       971 2.01053E-04-1.46459E-05 0.00000E+00
 -1       972 2.00932E-04-1.56892E-05-1.65436E-24
 -1       973 2.00810E-04-1.66484E-05-3.30872E-24
 -1       974 2.00689E-04-1.75342E-05-1.65436E-24
 -1       975 2.00567E-04-1.83576E-05-3.30872E-24
 -1       976 2.00446E-04-1.91294E-05 1.65436E-24
 -1       977 2.00324E-04-1.98605E-05 0.00000E+00
 -1       978 2.00203E-04-2.05619E-05-1.65436E-24
 -1       979 2.00082E-04-2.12443E-05 0.00000E+00
 -1       980 1.99960E-04-2.19187E-05-1.65436E-24
 -1       981 1.99839E-04-2.25960E-05 0.00000E+00
 -1       982 1.99718E-04-2.32872E-05-1.65436E-24
 -1       983 1.99596E-04-2.40031E-05 0.00000E+00
 -1       984 1.99476E-04-2.47546E-05 0.00000E+00
 -1       985 1.99356E-04-2.55526E-05 0.00000E+00
 -3
    1PSTEP                        32          16           1          
  100CL  116 6.63036E-01         409                     0   16           1
 -4  STRESS      6    1
 -5  SXX         1    4    1    1
 -5  SYY         1    4    2    2
 -5  SZZ         1    4    3    3
 -5  SXY         1    4    1    2
 -5  SYZ         1    4    2    3
 -5  SZX         1    4    3    1
 -1         1-5.34447E+06-1.58685E+06-1.13333E+06-1.34568E+06-1.09139E-09 5.01459E-08
 -1         2 1.49260E+06 2.18855E+07 5.09761E+06 6.61608E+06 2.74158E-08 1.00481E-07
 -1         3-1.48869E+03-1.55874E+06 4.05924E+02-2.21284E+03-6.34540E-10 6.21367E-09
 -1         5-7.53887E+01 3.86543E+05 9.98496E+00-1.34445E+00-4.15730E-10 5.46061E-09
 -1         8-5.55659E+05-2.00592E+05-6.20245E+04-2.44262E+05 1.16415E-10-1.34751E-07
 -1         9 1.17798E+07 3.83896E+06 2.79332E+06-3.29444E+05-9.55770E-09 8.18400E-08
 -1        10-2.30526E+03-1.62432E+06-3.94733E+03-1.49733E+04-1.38189E-08-3.71076E-08
 -1        12-7.14694E+01 3.86564E+05 3.28238E+02-9.16327E+00-6.72788E-10-3.98213E-08
 -1        15 9.55896E+02 5.21369E+02 3.03184E+03 8.58112E-01-3.09370E-11 1.17791E-07
 -1        16 2.29156E+07-3.30525E+05 3.11926E+06-2.28288E+06 3.51186E-09 1.43657E-07
 -1        17 8.38909E+06 6.28730E+06 2.26628E+06 6.01507E+06 2.47441E-08 3.61702E-08
 -1        18 1.42429E+05 3.35434E+04 4.16771E+03-1.19586E+05 1.53386E-08 4.70209E-09
 -1        19 1.22461E+05 1.41721E+05-9.44743E+02 2.19731E+04 1.51249E-09 2.48801E-09
 -1        20-8.20529E+04-5.73908E+05-1.28785E+05 2.50906E+04-2.52809E-09 8.04721E-09
 -1        21-4.55747E+01-2.96044E+05-9.23998E+02 2.75544E+02 1.56391E-08 6.91248E-09
 -1        24 1.40597E+07 1.21086E+07 3.89215E+06 1.12113E+07-1.69006E-07-5.43854E-08
 -1        25 1.25137E+05 2.68186E+05 1.00210E+05-6.46266E+05-1.82572E-09 1.44993E-08
 -1        26-5.54876E+04 9.23130E+04-2.46547E+04 1.33067E+03-8.58563E-11 3.84357E-09
 -1        27-7.55623E+04-3.10049E+05-1.13336E+05 6.89953E+04 4.41893E-09-7.50333E-10
 -1        28 2.22422E+04-8.53661E+04 1.69001E+04 2.06006E+04-3.58270E-09 1.66114E-08
 -1        32-1.68057E+06-3.18147E+06-1.97506E+05 4.58598E+05-4.24770E-08-7.85531E-09
 -1        33-1.78536E+05 9.30437E+04 3.24005E+04-3.84664E+04-3.40882E-09 2.19219E-09
 -1        34-2.23664E+05-2.50442E+04 6.90389E+02 7.56951E+04-4.86677E-09 8.58108E-10
 -1        35-2.29324E+04-3.38541E+04-1.34877E+03 5.15025E+04-4.18745E-09 1.25971E-08
 -1        51 6.07653E+04-1.71504E+05 1.28502E+05-4.37318E+05 4.36557E-11 1.37508E-07
 -1        52 2.05595E+04-1.49036E+05 6.74183E+04-5.10043E+05 1.97360E-10 1.38789E-08
 -1        53 4.17883E+03-1.64405E+05 3.51017E+04-4.35816E+05 4.80213E-10 1.22280E-07
 -1        54 7.38181E+03-1.60154E+05 2.88253E+04-5.11513E+05-3.67436E-10-2.54804E-08
 -1        55 1.61425E+04-1.67196E+05 3.50459E+04-4.35726E+05 1.30967E-10-1.24503E-07
 -1        56-9.79514E+06-1.37830E+06-9.18542E+05-4.09122E+06-9.31323E-09 2.30095E-07
 -1        57-1.10858E+07-8.09667E+05-5.47029E+05-2.70429E+06-1.50176E-08 3.91003E-07
 -1        58-9.59537E+06-1.84583E+06-2.01468E+05-4.28490E+06-7.93079E-09 1.22571E-07
 -1        59-1.12721E+07-2.71128E+05-1.07970E+05-2.63089E+06 1.86742E-08 5.17903E-08
 -1        60-9.69060E+06-1.84971E+06-5.78724E+04-4.23662E+06-1.43991E-08-2.03436E-08
 -1        61-1.06044E+07-6.14475E+05 1.73157E+04-2.88240E+06-1.94996E-09-7.81583E-08
 -1        62-1.01225E+07-1.59736E+06-7.88271E+04-3.92189E+06-3.01225E-09-7.97445E-08
 -1        63-9.68134E+06-1.34253E+06 5.67619E+04-3.59676E+06 1.90921E-08-2.38917E-07
 -1        64-1.05009E+07-1.20203E+06-7.25094E+04-3.45098E+06-3.54776E-08-8.03557E-08
 -1        65-9.30131E+06-1.96013E+06 1.41721E+04-4.52625E+06-8.52742E-09-1.90048E-08
 -1        66-1.06331E+07-8.89145E+05-4.73149E+04-3.09100E+06 2.43235E-08-2.22995E-07
 -1        67-9.31896E+06-2.22104E+06-9.71666E+04-4.96787E+06-8.48850E-08 2.30968E-07
 -1        68-1.06135E+07-8.49676E+05-1.87110E+05-3.09034E+06-4.29518E-08 3.14176E-08
 -1        69-9.49424E+06-2.29962E+06-4.86275E+05-4.49348E+06-7.86813E-08-2.15558E-07
 -1        70-1.03371E+07-9.07128E+05-8.43761E+05-3.48605E+06-8.18545E-11-8.11415E-08
 -1        86-1.52283E+06-1.56118E+07-2.79037E+06-3.10767E+06-2.70040E-07-2.05386E-07
 -1        87 2.39345E+06 6.29976E+06 2.32086E+06 5.74794E+06-4.69692E-07-1.17067E-07
 -1        88-4.50378E+05-1.95235E+06 2.19369E+05-2.56431E+06-4.19472E-07 5.70481E-08
 -1        89 3.20502E+06 6.00294E+06 2.37849E+06 5.94068E+06-5.82637E-07-1.53386E-07
 -1        90-2.24027E+06-1.53911E+07-3.01280E+06-3.32956E+06-1.58721E-07-6.73754E-09
 -1       121-2.03931E+03-1.56364E+06-5.47660E+02 1.09678E+03 1.52262E-09 1.06884E-08
 -1       122-1.30284E+03-1.55880E+06 7.69595E+02-4.42977E+03-5.46656E-09-1.14960E-08
 -1       123-2.05906E+03-1.56378E+06 2.60407E+02 3.27559E+03 4.21153E-09-2.46728E-08
 -1       124 3.33833E+02-1.55835E+06 2.94929E+03-9.26932E+03-9.78935E-09 2.44581E-08
 -1       125-2.86803E+03-1.56467E+06 3.45959E+03 5.89035E+03 6.54472E-09-1.62581E-08
 -1       191-7.94452E+01 3.86561E+05 8.48490E+00 7.01045E-01-5.91944E-10 6.11180E-10
 -1       192-7.63528E+01 3.86543E+05 2.13079E+01-4.31000E+00-8.56923E-10-1.52177E-08
 -1       193-8.19829E+01 3.86560E+05 3.62713E+01 3.78540E+00-1.15659E-09 3.79259E-09
 -1       194-7.94438E+01 3.86546E+05 8.10038E+01-9.77988E+00-6.29086E-10 1.95541E-08
 -1       195-8.68538E+01 3.86558E+05 1.55078E+02 6.36472E+00-1.44759E-09-4.16003E-09
 -1       251-8.62317E+05 1.59478E+04-3.72358E+04-1.42642E+04 7.21480E-09 2.38888E-08
 -1       252-8.76411E+05-1.84548E+04-2.59042E+04 5.02279E+04-1.78325E-08-3.12740E-07
 -1       253-8.70610E+05 2.44634E+03-1.00299E+04-1.00555E+04 4.16571E-09-3.13193E-07
 -1       254-8.63190E+05-2.96513E+03-4.48286E+03 3.57181E+04 6.66773E-10 1.15240E-07
 -1       255-8.74932E+05 5.53767E+01-3.47936E+03 2.42007E+02 1.41995E-09 1.38795E-07
 -1       256-8.57875E+05-2.69697E+02 1.16899E+03 1.23657E+04 5.13865E-10 8.99537E-08
 -1       257-8.75491E+05-5.70265E+02-1.36356E+03 1.32858E+04 1.94677E-09 1.56620E-07
 -1       258-8.60666E+05 9.02485E+02 2.68844E+03-1.21686E+04-2.22763E-08 2.69662E-07
 -1       259-8.72388E+05-9.26924E+02 1.38447E+03 2.47739E+04 6.57224E-09 1.99566E-07
 -1       260-8.66964E+05 2.92534E+03 5.57323E+03-2.98590E+04-1.42550E-08-4.29170E-07
 -1       261-8.69819E+05-2.10931E+03 8.66927E+03 3.09921E+04 3.05902E-08-1.10153E-07
 -1       262-8.65593E+05 1.17811E+04 2.15307E+04-3.50244E+04-5.81510E-09-7.67507E-08
 -1       263-8.74007E+05-9.55742E+03 3.41179E+04 2.99487E+04-9.01991E-09 4.55348E-08
 -1       264-8.35101E+05 6.71043E+04 9.44391E+04-2.58725E+04 3.00063E-08 2.15776E-07
 -1       265-8.99819E+05-5.75608E+04 1.31540E+05 2.18281E+04 5.64023E-09 2.76734E-07
 -1       266-1.70714E+04-7.94243E+03 3.97426E+04-1.80281E+01-1.10958E-10-2.61405E-07
 -1       267 1.97801E+04 9.26354E+03 2.81397E+04 2.07683E+01 3.27418E-11 3.01416E-07
 -1       268-2.67240E+03-1.31870E+03 1.04388E+04-2.67331E+00-1.48248E-10 2.38734E-07
 -1       269 3.15487E+03 1.57951E+03 6.80242E+03 3.11106E+00-1.55524E-10 2.92566E-07
 -1       270-4.77288E+02-2.60684E+02 3.27547E+03-4.27753E-01 1.12777E-10 2.91317E-07
 -1       271-1.47970E+06-1.88422E+05-1.11158E+05-5.75751E+05-1.23327E-09 2.60654E-07
 -1       272-1.47529E+06-3.01672E+05-6.98165E+04-6.14206E+05-5.64069E-09 1.79203E-07
 -1       273-1.50318E+06-2.12025E+05-2.69560E+04-5.67744E+05-2.60516E-08-4.55984E-08
 -1       274-1.44856E+06-2.73255E+05-1.40247E+04-6.29327E+05 3.68600E-08 4.65025E-08
 -1       275-1.50876E+06-2.11596E+05-6.71645E+03-5.63989E+05-8.51287E-09 1.96454E-07
 -1       276-1.44294E+06-2.74179E+05-2.83532E+03-6.37913E+05-1.96342E-08-2.84340E-08
 -1       277-1.51157E+06-2.08978E+05-1.86055E+03-5.61269E+05-2.28974E-08 4.10172E-07
 -1       278-1.44077E+06-2.77368E+05-7.10769E+02-6.44221E+05 3.01552E-08 1.56989E-07
 -1       279-1.51337E+06-2.06841E+05-8.63183E+02-5.59363E+05-5.43696E-09-4.52810E-08
 -1       280-1.43976E+06-2.79763E+05-9.89463E+02-6.48363E+05-1.42154E-08-2.28887E-07
 -1       281-1.51431E+06-2.05496E+05-1.82878E+03-5.58292E+05-4.08327E-08 1.31744E-07
 -1       282-1.44014E+06-2.81937E+05-4.25337E+03-6.50055E+05 2.87573E-08 8.47979E-08
 -1       283-1.51381E+06-2.04267E+05-7.57076E+03-5.58171E+05 8.32998E-10 3.43066E-08
 -1       284-1.44692E+06-2.91844E+05-2.06222E+04-6.47865E+05 1.12124E-08-2.20763E-07
 -1       285-1.50744E+06-1.96769E+05-3.22052E+04-5.59962E+05 2.92630E-09 4.50073E-08
 -1       301-7.36605E+03-6.47804E+05 1.66901E+05-1.13854E+06 3.04135E-09 8.57835E-08
 -1       302-9.18910E+03-6.00962E+05 1.00443E+05-1.66178E+06 7.71979E-09 2.03650E-07
 -1       303-2.19586E+04-6.40372E+05 5.67324E+04-1.13541E+06 2.06055E-08 5.98629E-08
 -1       304-2.50298E+04-6.08078E+05 5.70601E+04-1.66121E+06 9.16771E-10-5.94446E-09
 -1       305-2.63075E+04-6.29108E+05 7.01110E+04-1.13850E+06-4.37467E-09 1.19617E-07
 -1       306-3.01462E+07-6.22143E+06-8.61497E+06-4.96820E+05-6.29807E-08 1.02678E-07
 -1       307 2.53236E+07 3.28723E+06 5.51321E+06-1.52682E+07-8.94259E-07 2.70957E-07
 -1       308-6.93048E+06-1.01858E+06-4.41002E+05 5.21350E+06-1.85362E-07 2.91184E-07
 -1       309-3.20783E+06 8.75543E+06 2.29448E+06-2.07078E+07 3.27404E-07-5.94264E-08
 -1       310-1.26336E+07-1.95504E+06-2.05722E+06 5.22325E+06-6.79865E-08-1.85551E-07
 -1       311 3.86373E+07 4.14477E+03 7.31007E+06-8.75239E+06 3.82308E-07 2.05240E-07
 -1       312-3.19906E+07-6.80947E+06-8.56500E+06-5.09054E+06 2.36090E-07-2.63652E-07
 -1       313 4.54530E+07 1.51497E+07 1.06931E+07 2.39202E+07-6.98492E-10-1.27271E-07
 -1       314-1.71855E+07-1.78591E+07-7.53432E+06-1.25464E+07 2.00351E-07-2.40980E-08
 -1       315-1.90512E+06 2.98220E+07 5.67172E+06 1.04867E+07-5.17350E-07-1.79163E-07
 -1       316 1.42890E+06-9.83637E+06-4.31436E+05-2.49962E+06-1.28555E-06-9.56643E-08
 -1       317-1.71028E+07 2.24529E+07 2.24824E+06-8.88345E+06 8.24759E-07-7.34028E-07
 -1       318-1.08207E+06-1.28423E+07-2.06084E+06-4.24133E+06-1.00103E-06 1.74681E-07
 -1       319 7.28393E+06 3.20866E+07 7.06865E+06 1.66860E+07-1.09292E-07 2.77505E-07
 -1       320-2.26458E+07-1.76902E+07-9.88341E+06-1.28433E+07 1.64146E-07-4.39759E-08
 -1       336-7.47064E+02-1.69270E+06-1.38486E+04 8.91309E+03-2.65645E-08-8.19273E-09
 -1       337-5.41002E+03-1.69224E+06-1.80698E+04-2.16518E+04-4.98501E-08-7.25413E-09
 -1       338 2.73966E+02-1.69218E+06-2.84648E+04 1.24875E+04-3.41552E-08 6.61385E-09
 -1       339-3.02061E+04-1.70948E+06-6.43322E+04-2.86540E+04-6.22867E-08 3.55212E-08
 -1       340 1.98952E+04-1.67764E+06-1.01342E+05 1.57843E+04-4.16039E-08 3.47027E-08
 -1       406-4.97618E+01 3.86543E+05 6.44488E+02 3.35275E+00-1.95092E-09-2.06273E-09
 -1       407 1.54869E+02 3.86678E+05 1.37732E+03 2.34190E+01-7.38282E-10 1.51522E-08
 -1       408 6.35170E+02 3.86443E+05 2.74626E+03-2.70919E+01-2.46087E-09-2.19188E-09
 -1       409 2.90837E+03 3.87555E+05 6.18984E+03 2.89253E+02-2.51475E-10-2.46291E-09
 -1       410 8.48409E+03 3.85652E+05 1.26332E+04-2.78941E+02-3.01952E-09-4.43652E-09
 -1       521-3.17229E+07-7.69148E+06-1.00798E+07-1.00916E+05-5.54137E-08 8.74279E-08
 -1       522 2.62228E+07 4.33500E+06 5.62995E+06-1.88038E+07-5.16069E-07-1.85566E-07
 -1       523-7.50224E+06-1.33448E+06-4.32403E+05 5.66748E+06 1.63913E-07-2.12967E-07
 -1       524-6.71534E+06 1.18491E+07 2.48610E+06-2.37940E+07 8.00894E-07-5.82182E-07
 -1       525-1.34331E+07-2.60022E+06-2.26493E+06 5.68282E+06 6.97502E-07-4.31290E-07
 -1       526 4.22492E+07-9.33953E+04 7.68083E+06-1.14092E+07 2.71189E-07-4.09520E-07
 -1       527-3.38741E+07-8.52239E+06-9.88635E+06-4.95581E+06 2.92435E-07 1.02344E-07
 -1       528 4.96891E+07 1.69214E+07 1.11674E+07 2.72435E+07-1.86148E-07-3.54281E-07
 -1       529-1.81341E+07-2.01010E+07-8.65016E+06-1.25821E+07 5.34928E-08-9.30158E-08
 -1       530-4.39438E+06 3.46765E+07 6.01096E+06 9.92580E+06-2.35508E-07 6.19795E-07
 -1       531 1.43587E+06-1.09141E+07-4.03327E+05-2.43618E+06-7.84203E-07 1.84169E-07
 -1       532-1.96047E+07 2.44726E+07 2.46107E+06-1.32259E+07 5.07847E-07-7.14484E-07
 -1       533-1.12275E+06-1.40086E+07-2.19870E+06-4.03769E+06-2.69822E-07-1.03220E-06
 -1       534 5.28713E+06 3.72955E+07 7.36672E+06 1.72850E+07-4.25498E-08 7.50704E-07
 -1       535-2.38474E+07-2.01184E+07-1.13475E+07-1.29221E+07 1.32248E-07 4.77536E-07
 -1       536-7.06269E+05-4.67631E+04-4.82211E+04-5.47114E+04-5.58157E-09 5.83041E-08
 -1       537-5.47570E+04 4.47010E+04 8.39478E+04 1.23902E+05-1.13039E-07 1.02995E-07
 -1       538-3.94416E+05 3.34832E+03 3.54936E+03-7.22293E+04 3.89110E-08 1.06158E-07
 -1       539-2.68986E+05 2.85478E+03 2.49302E+04 1.38794E+05 1.56116E-07 1.04694E-07
 -1       540-4.97421E+05-4.28926E+02-2.13394E+04-7.01385E+04 1.00376E-08 1.10110E-07
 -1       541 1.46990E+05 1.69825E+04 1.06453E+05 9.79740E+04-4.10091E-09 1.02819E-07
 -1       542-7.99184E+05-2.01476E+04-8.42896E+04-3.05336E+04 3.82533E-08 4.13754E-08
 -1       543 4.05830E+05 2.73423E+04 1.58069E+05-1.33675E+04-4.45834E-09-1.41849E-08
 -1       544-7.49319E+05-1.65474E+04-7.48825E+04 4.05328E+04-2.47137E-08-4.90551E-08
 -1       545 2.92192E+04 9.49006E+03 7.98607E+04-1.13673E+05-7.58064E-09-9.86856E-08
 -1       546-4.32688E+05 6.09910E+03-1.22360E+04 6.94252E+04 1.43293E-08-8.53084E-08
 -1       547-2.87075E+05-4.65649E+03 1.05976E+04-1.41641E+05-1.16651E-07-1.23164E-07
 -1       548-4.41528E+05 4.72065E+03-2.38899E+04 6.91924E+04-1.02146E-07-1.00780E-07
 -1       549 4.84138E+04 1.60973E+04 6.05731E+04-1.11534E+05-5.71464E-08-5.58809E-08
 -1       550-7.59199E+05-2.21672E+04-1.29021E+05 3.86021E+04 5.01677E-09-4.47126E-08
 -1       551 4.08029E+04-7.50791E+05-1.58863E+04-1.24728E+06-1.02940E-07-8.26549E-09
 -1       552 9.32888E+04-7.95784E+05 9.92568E+03-1.77845E+06-7.28469E-08 5.21541E-08
 -1       553 7.17826E+04-7.92189E+05 3.20453E+04-1.24063E+06-1.20679E-07 3.06172E-08
 -1       554 1.32090E+05-8.11686E+05 8.10696E+04-1.78040E+06-7.60920E-08 1.01991E-08
 -1       555 1.01531E+05-8.15845E+05 1.48055E+05-1.24046E+06-1.21319E-07-1.50285E-08
 -1       556 2.23798E+05-3.83810E+05 2.57251E+04-4.07348E+05-2.15950E-08-6.31553E-09
 -1       557 3.54405E+05-4.88191E+05 1.61367E+04-5.27818E+05 1.74623E-09 1.32750E-08
 -1       558 2.05556E+05-3.76593E+05 2.31541E+03-4.11799E+05-1.84227E-08 3.79805E-09
 -1       559 3.29376E+05-4.88253E+05 2.43708E+03-5.48283E+05 2.26573E-08 1.36570E-08
 -1       560 1.90239E+05-3.66988E+05-1.50863E+03-4.22836E+05 1.08848E-08 1.63491E-08
 -1       561 3.10131E+05-4.80551E+05 1.28772E+02-5.61405E+05 3.62343E-09 5.11136E-10
 -1       562 1.78129E+05-3.59464E+05-1.32845E+03-4.31606E+05-5.67525E-10 1.10667E-08
 -1       563 2.95746E+05-4.74279E+05-3.73398E+01-5.70801E+05-2.85945E-09-1.01263E-08
 -1       564 1.69485E+05-3.54079E+05-6.01588E+02-4.37732E+05 8.81846E-09 1.15215E-08
 -1       565 2.86204E+05-4.70123E+05 2.37032E+01-5.76897E+05 1.30094E-08 4.53338E-09
 -1       566 1.64432E+05-3.50882E+05-2.60646E+02-4.41266E+05-1.62981E-09-5.16593E-09
 -1       567 2.81566E+05-4.68106E+05-3.63405E+02-5.79714E+05 2.20080E-08 2.03472E-08
 -1       568 1.63060E+05-3.50042E+05-1.12779E+03-4.42321E+05-8.91305E-10 9.60063E-09
 -1       569 2.80442E+05-4.68033E+05-2.84827E+03-5.78284E+05-9.88894E-09-2.59861E-08
 -1       570 1.66464E+05-3.53280E+05-6.22623E+03-4.41299E+05 6.41739E-09 9.59790E-09
 -1       571 2.90660E+05 1.05130E+04 1.49960E+04-9.53172E+04 2.34104E-09 2.13972E-08
 -1       572 2.92833E+05 3.96364E+03 7.34927E+03-1.04573E+05-1.21508E-09 2.39975E-08
 -1       573 2.91523E+05 1.24785E+03 3.26552E+03-9.51406E+04 1.19853E-08 3.01225E-09
 -1       574 2.91737E+05 7.29287E+02 1.63764E+03-1.04797E+05 2.51021E-08-1.52913E-08
 -1       575 2.91617E+05 4.49801E+02 7.72924E+02-9.51165E+04 1.08133E-08-3.57522E-09
 -1       576 2.91601E+05 4.61282E+02 3.95743E+02-1.04827E+05-6.67387E-09-1.10867E-09
 -1       577 2.91657E+05 3.91600E+02 1.97568E+02-9.51132E+04-6.14364E-09 1.79580E-08
 -1       578 2.91632E+05 4.23091E+02 1.14159E+02-1.04832E+05-6.90488E-09 2.57805E-08
 -1       579 2.91729E+05 3.54749E+02 7.84457E+01-9.51128E+04 1.45083E-08 5.95628E-09
 -1       580 2.91734E+05 3.71861E+02 9.11161E+01-1.04827E+05 1.38716E-08 2.37833E-09
 -1       581 2.91843E+05 2.95945E+02 1.37679E+02-9.51188E+04 1.35115E-08 1.95359E-09
 -1       582 2.91910E+05 3.34309E+02 2.79978E+02-1.04765E+05 3.40515E-09-1.14851E-08
 -1       583 2.91984E+05 3.38397E+02 5.37391E+02-9.51754E+04 1.16415E-10-1.35817E-08
 -1       584 2.92286E+05 7.77347E+02 1.21609E+03-1.04288E+05 6.03904E-09-1.36315E-08
 -1       585 2.92010E+05 1.80075E+03 2.46253E+03-9.55952E+04 1.16233E-09-9.78616E-10
 -1       586-3.42444E+03 1.17034E+05-2.91189E+03-2.50799E+05-6.05223E-09 7.65544E-09
 -1       587-1.34048E+03 1.16787E+05 7.76083E+02-2.76022E+05-4.79304E-09-1.70174E-08
 -1       588 3.97623E+02 1.16592E+05 4.76618E+03-2.50660E+05-4.08363E-09 4.05180E-09
 -1       589 5.08865E+03 1.19069E+05 1.23580E+04-2.75789E+05-1.16888E-08-1.62690E-08
 -1       590 1.66250E+04 1.15257E+05 2.59221E+04-2.51092E+05-6.79393E-09-6.16092E-09
 -1       591-7.50997E+04-1.59821E+04-2.25512E+04-3.19891E+04 6.97355E-10 2.53658E-09
 -1       592-7.91981E+04-1.95381E+04-1.22156E+04-3.56120E+04-4.61385E-09 1.02752E-08
 -1       593-7.73550E+04-1.43458E+04-5.08472E+03-3.36427E+04 1.38017E-09 1.14485E-08
 -1       594-7.60845E+04-1.62289E+04-2.53588E+03-3.57298E+04 4.14310E-10-3.22987E-09
 -1       595-7.75269E+04-1.43404E+04-1.16422E+03-3.37179E+04 7.10045E-11 1.55015E-08
 -1       596-7.58713E+04-1.60775E+04-5.91617E+02-3.57044E+04 6.98921E-09 6.08998E-09
 -1       597-7.75484E+04-1.43558E+04-3.21690E+02-3.37207E+04-1.64192E-09 1.10120E-08
 -1       598-7.58503E+04-1.60716E+04-2.57753E+02-3.56973E+04-1.35735E-08-1.96940E-09
 -1       599-7.75472E+04-1.43564E+04-3.28192E+02-3.37204E+04-7.11566E-10-1.87413E-09
 -1       600-7.58713E+04-1.60781E+04-6.08828E+02-3.57023E+04 7.69745E-09-4.75035E-09
 -1       601-7.75225E+04-1.43418E+04-1.20065E+03-3.37169E+04 1.62845E-09-1.56629E-08
 -1       602-7.60911E+04-1.62330E+04-2.61645E+03-3.57246E+04-1.46836E-08-2.19144E-08
 -1       603-7.73424E+04-1.43503E+04-5.24695E+03-3.36402E+04-7.46309E-09-7.06905E-09
 -1       604-7.93216E+04-1.96281E+04-1.26044E+04-3.55782E+04 1.14153E-09-7.77209E-09
 -1       605-7.49952E+04-1.60565E+04-2.32693E+04-3.19534E+04 4.51018E-09 1.83036E-08
 -1       606 2.66671E+04-1.43384E+04-2.57038E+04 2.39539E+04-1.08284E-08-1.76540E-08
 -1       607 2.22752E+04-4.68292E+03-1.28004E+04 2.69193E+04-3.45462E-08-2.01453E-09
 -1       608 2.47784E+04-8.44807E+02-5.73031E+03 2.37856E+04-2.21989E-08 1.48661E-08
 -1       609 2.42986E+04-2.89480E+02-2.89480E+03 2.71331E+04-2.32467E-09 4.83624E-10
 -1       610 2.45647E+04-4.10723E+01-1.38114E+03 2.37656E+04 4.87489E-10-1.67079E-08
 -1       611 2.44894E+04-4.13887E+01-6.96357E+02 2.71561E+04 4.74711E-09-1.46142E-08
 -1       612 2.45177E+04-2.74022E+01-3.31022E+02 2.37635E+04 5.26597E-10 9.93100E-09
 -1       613 2.45011E+04-3.73394E+01-1.48298E+02 2.71588E+04 6.21003E-09-9.17180E-09
 -1       614 2.44955E+04-3.38648E+01-3.46736E+01 2.37628E+04-5.92081E-10-8.14680E-09
 -1       615 2.44959E+04-3.58838E+01 6.24006E+01 2.71593E+04-6.15728E-09 1.79666E-08
 -1       616 2.44782E+04-3.07674E+01 1.86894E+02 2.37631E+04-1.11318E-08-2.82148E-09
 -1       617 2.45184E+04 3.91114E+00 4.26317E+02 2.71588E+04-2.07845E-08-2.20352E-08
 -1       618 2.44412E+04 9.21067E+01 8.59278E+02 2.37634E+04-8.30096E-09 1.15597E-09
 -1       619 2.48218E+04 6.68285E+02 1.92955E+03 2.71582E+04-5.68434E-10-4.77462E-09
 -1       620 2.41558E+04 2.12966E+03 3.87834E+03 2.37650E+04-1.18177E-09-1.48475E-09
 -1       621 5.11672E+02 3.01601E+05 3.88763E+03 4.11375E+04 9.09040E-10-8.58563E-09
 -1       622 6.78341E+02 3.02498E+05 3.45004E+03 5.97222E+04 1.14687E-09 2.70647E-08
 -1       623 1.43478E+02 3.01795E+05 4.14545E+03 4.09514E+04 1.31809E-09 7.69433E-09
 -1       624 2.12903E+03 3.03716E+05 8.03619E+03 5.99054E+04 1.21599E-09-4.47874E-08
 -1       625 2.07985E+03 3.00201E+05 1.40428E+04 4.09482E+04 1.25419E-09-8.97376E-09
 -1       626 2.61027E+05 6.14146E+04 5.12264E+03 1.26770E+05 4.21187E-09 5.68070E-09
 -1       627 2.58711E+05 6.28090E+04 2.46856E+03 1.31041E+05 3.19233E-09 8.65839E-09
 -1       628 2.61154E+05 5.90710E+04 1.04403E+03 1.27641E+05-1.42791E-10 2.72023E-08
 -1       629 2.58076E+05 6.21283E+04 5.10995E+02 1.31281E+05-4.80532E-09 2.58272E-08
 -1       630 2.61169E+05 5.89577E+04 2.37143E+02 1.27678E+05-3.41197E-09-8.26958E-09
 -1       631 2.58009E+05 6.21024E+04 1.27749E+02 1.31283E+05 4.42765E-09-7.26322E-09
 -1       632 2.61165E+05 5.89617E+04 8.42983E+01 1.27674E+05 1.07511E-08 2.49086E-08
 -1       633 2.58001E+05 6.21042E+04 9.42712E+01 1.31279E+05 9.04674E-09 1.37129E-08
 -1       634 2.61161E+05 5.89588E+04 1.52666E+02 1.27673E+05 7.08326E-10-1.18500E-08
 -1       635 2.58015E+05 6.21024E+04 3.09116E+02 1.31285E+05 7.75344E-09-7.59246E-09
 -1       636 2.61152E+05 5.89530E+04 6.24362E+02 1.27673E+05 5.99653E-09 3.22871E-09
 -1       637 2.58150E+05 6.21995E+04 1.37288E+03 1.31284E+05-1.19185E-08-1.04883E-08
 -1       638 2.61103E+05 5.92562E+04 2.82078E+03 1.27536E+05 9.30868E-10 6.62703E-09
 -1       639 2.59632E+05 6.42604E+04 6.67411E+03 1.30848E+05 7.16841E-09 7.17546E-09
 -1       640 2.60898E+05 6.54101E+04 1.38499E+04 1.24943E+05-6.81212E-10-2.15866E-08
 -1       656 6.66098E+04-1.70477E+06-1.60792E+05-2.56387E+03-3.49246E-10-4.53127E-09
 -1       657-8.81194E+04-1.77743E+06-1.33208E+05 5.15221E+03 7.57609E-10 4.96573E-09
 -1       658 2.12333E+04-1.72540E+06-8.20404E+04-4.64889E+03 7.85121E-10 1.31229E-08
 -1       659-9.52912E+04-1.78083E+06-1.42633E+05 6.88559E+03-1.62072E-09 6.38029E-09
 -1       660 7.37656E+04-1.70137E+06-1.76996E+05-4.29724E+03-1.92813E-09 1.53920E-08
 -1       661 1.58403E+05 1.65727E+04 1.67061E+04 6.19237E+04-1.62390E-09 1.37443E-08
 -1       662 1.67851E+05 2.89413E+04 1.12588E+04 5.81718E+04 9.69976E-10-1.06265E-08
 -1       663 1.61684E+05 2.19324E+04 3.93760E+03 6.09714E+04-3.61979E-09 3.88036E-09
 -1       664 1.64047E+05 2.26737E+04 2.35551E+03 5.93351E+04-1.39687E-09 6.49848E-09
 -1       665 1.62182E+05 2.26643E+04 9.29233E+02 6.08261E+04-3.44130E-10 2.60704E-09
 -1       666 1.63457E+05 2.18367E+04 5.43941E+02 5.95246E+04 8.74201E-09-2.05367E-08
 -1       667 1.62270E+05 2.27476E+04 2.89119E+02 6.07896E+04 3.83017E-09-2.16314E-08
 -1       668 1.63361E+05 2.17769E+04 2.95062E+02 5.95776E+04-4.20610E-09-1.01532E-08
 -1       669 1.62278E+05 2.27224E+04 3.99857E+02 6.07734E+04-1.03631E-09 1.64017E-08
 -1       670 1.63458E+05 2.19941E+04 8.71053E+02 5.95805E+04-9.05569E-09 8.13662E-09
 -1       671 1.62172E+05 2.25349E+04 1.54674E+03 6.07847E+04-3.49131E-09-8.13645E-09
 -1       672 1.64360E+05 2.34989E+04 3.95740E+03 5.93621E+04-6.84537E-10-1.96900E-09
 -1       673 1.61381E+05 2.12558E+04 6.63200E+03 6.09772E+04 3.05704E-10 2.28738E-08
 -1       674 1.70672E+05 3.41539E+04 1.89661E+04 5.75077E+04-2.05921E-09 7.49060E-09
 -1       675 1.55901E+05 1.21783E+04 2.81524E+04 6.25271E+04-2.31830E-09-1.10522E-08
 -1       676 2.41167E+01-2.95967E+05-1.11366E+03-1.37776E+02-6.06320E-10-1.21448E-08
 -1       677-2.94584E+02-2.96237E+05-2.03819E+03 2.75330E+02 6.21915E-09-1.49050E-08
 -1       678 1.97587E+02-2.95775E+05-3.60302E+03-1.37464E+02 6.55518E-10-2.79453E-09
 -1       679-3.60307E+03-2.98412E+05-8.55928E+03 2.74140E+02 7.09679E-09-2.98365E-08
 -1       680 2.15125E+03-2.93793E+05-1.37946E+04-1.35068E+02 2.55932E-09-7.54538E-09
 -1       771-3.06294E+06-7.47547E+05-1.66004E+05-1.46633E+06-3.19851E-08-2.85800E-08
 -1       772-2.98578E+06-8.36437E+05-8.55858E+04-1.56910E+06-2.47965E-08 1.19508E-08
 -1       773-3.09446E+06-7.22974E+05-4.36320E+04-1.48088E+06 1.60071E-09 8.06176E-09
 -1       774-2.97625E+06-8.17899E+05-1.94659E+04-1.59489E+06 5.04660E-08-5.18776E-09
 -1       775-3.11092E+06-7.11423E+05-1.45626E+04-1.48795E+06 3.52156E-09-1.54250E-09
 -1       776-2.98862E+06-8.14859E+05-5.44555E+03-1.61441E+06-6.34464E-09 1.10049E-08
 -1       777-3.12521E+06-7.01112E+05-6.43502E+03-1.49417E+06 3.40515E-09 4.56203E-09
 -1       778-3.00153E+06-8.12031E+05-1.81931E+03-1.63118E+06 7.21775E-09 6.53745E-09
 -1       779-3.13749E+06-6.92101E+05-3.21605E+03-1.49950E+06-1.27766E-08-8.32370E-09
 -1       780-3.01290E+06-8.09333E+05-5.33402E+02-1.64484E+06-1.07029E-08-2.58115E-09
 -1       781-3.14726E+06-6.84837E+05-1.24965E+03-1.50366E+06-3.42407E-08-1.98816E-09
 -1       782-3.02166E+06-8.07043E+05 4.49951E+02-1.65492E+06-4.54820E-08-6.26369E-09
 -1       783-3.15414E+06-6.79789E+05 7.00208E+02-1.50658E+06-7.81438E-09-1.32386E-08
 -1       784-3.02651E+06-8.04755E+05 2.90402E+03-1.66114E+06-2.14641E-08-3.40196E-09
 -1       785-3.15820E+06-6.76779E+05 5.12640E+03-1.50843E+06-3.58668E-08 1.40244E-08
 -1       786 1.23532E+05-9.76489E+03 2.25920E+04-3.22443E+02 3.43254E-09-3.15140E-09
 -1       787 1.33330E+05 1.13056E+04 1.59829E+04-1.35656E+02 6.00630E-09 1.41999E-08
 -1       788 1.27309E+05-1.53018E+03 5.84504E+03-2.87316E+02 4.01464E-09 6.20912E-09
 -1       789 1.28929E+05 1.77115E+03 3.66930E+03-1.89474E+02-2.81376E-09-1.09530E-08
 -1       790 1.27933E+05-2.38243E+02 1.48564E+03-2.68642E+02-5.79622E-09-7.17245E-09
 -1       791 1.28199E+05 2.75652E+02 8.58065E+02-2.21422E+02-7.78092E-09 1.88281E-09
 -1       792 1.28039E+05-3.58017E+01 3.63604E+02-2.55370E+02-3.87156E-09 3.51968E-08
 -1       793 1.28073E+05 3.78264E+01 1.81245E+02-2.46379E+02-1.94289E-09 1.57100E-08
 -1       794 1.28060E+05-5.66814E-01 4.70621E+01-2.43686E+02 6.47744E-09 3.95489E-09
 -1       795 1.28036E+05-2.75042E+01-5.79358E+01-2.70743E+02-4.92295E-09 1.44416E-08
 -1       796 1.28076E+05 2.94923E+01-1.62999E+02-2.31005E+02 4.39552E-09 1.09897E-08
 -1       797 1.27941E+05-2.20172E+02-4.47346E+02-2.99846E+02 4.32517E-09 1.75423E-09
 -1       798 1.28155E+05 1.91956E+02-7.26457E+02-2.14583E+02 2.86927E-09 3.09075E-09
 -1       799 1.27390E+05-1.41489E+03-1.99855E+03-3.40495E+02 6.02676E-09 2.68733E-09
 -1       800 1.28627E+05 1.22324E+03-2.82835E+03-1.90357E+02 4.35248E-10 2.13221E-08
 -1       801-1.71274E+05-9.99765E+06-1.39346E+06 1.41533E+06 9.35397E-08-5.20195E-08
 -1       802 7.38259E+05 5.94958E+06 2.18153E+06-1.74720E+06 2.59017E-07-3.75394E-08
 -1       803-5.36594E+05-1.42654E+07-1.89028E+06 8.98270E+05 7.68850E-08 2.24209E-08
 -1       804 2.87171E+05 2.39401E+06 1.53705E+06 6.77048E+05-1.19817E-07-9.91049E-08
 -1       805 1.89320E+05-6.45620E+06-2.86214E+05-1.00326E+06-5.03424E-08-6.86923E-08
 -1       806-3.09006E+05-5.97700E+04-2.28593E+04-1.22439E+05-6.96582E-09 5.84168E-09
 -1       807-3.10805E+05-5.60381E+04-1.12305E+04-1.27986E+05 1.19617E-08-7.09406E-10
 -1       808-3.09633E+05-5.15317E+04-4.76436E+03-1.26334E+05 3.36149E-09 1.47588E-08
 -1       809-3.08444E+05-5.28824E+04-2.32965E+03-1.28261E+05-3.39696E-09 2.52285E-08
 -1       810-3.09728E+05-5.12449E+04-1.06782E+03-1.26506E+05 3.27555E-09-7.19501E-09
 -1       811-3.08261E+05-5.27557E+04-5.31044E+02-1.28226E+05-2.72121E-09-1.35333E-08
 -1       812-3.09742E+05-5.12696E+04-2.68662E+02-1.26505E+05-7.15045E-09-1.79334E-08
 -1       813-3.08236E+05-5.27578E+04-1.74740E+02-1.28207E+05-1.02432E-08-1.29917E-08
 -1       814-3.09735E+05-5.12793E+04-1.73392E+02-1.26501E+05-9.37962E-09 1.03241E-08
 -1       815-3.08239E+05-5.27601E+04-2.79560E+02-1.28200E+05 5.85806E-09 3.14019E-08
 -1       816-3.09714E+05-5.12784E+04-5.29988E+02-1.26498E+05 2.22644E-09 2.84672E-10
 -1       817-3.08329E+05-5.28106E+04-1.13746E+03-1.28188E+05-8.99445E-09 1.74500E-08
 -1       818-3.09645E+05-5.14390E+04-2.32006E+03-1.26422E+05-1.33241E-09-1.70935E-08
 -1       819-3.09599E+05-5.42122E+04-5.45892E+03-1.27887E+05 1.20299E-08-1.39175E-09
 -1       820-3.09207E+05-5.55629E+04-1.11109E+04-1.24661E+05 9.16953E-09 2.86520E-08
 -1       821-3.79084E+05 2.08751E+04-4.85974E+04 2.13634E+03 1.43811E-08-5.34783E-10
 -1       822-3.98779E+05-2.41829E+04-3.41502E+04-4.48227E+03 4.81766E-09 5.87397E-09
 -1       823-3.86543E+05 3.29086E+03-1.25520E+04 3.45615E+03-1.34461E-08-1.72258E-09
 -1       824-3.89771E+05-3.79486E+03-7.85624E+03-5.40343E+03 8.21139E-10 9.69476E-09
 -1       825-3.88098E+05 5.11440E+02-3.29047E+03 3.05761E+03 2.19108E-08 7.68557E-09
 -1       826-3.87329E+05-5.67099E+02-1.74234E+03-3.11917E+03 2.52290E-08 3.45921E-10
 -1       827-3.88960E+05 4.63407E+01-1.19232E+03 1.17174E+03 1.22343E-08 5.26896E-09
 -1       828-3.86617E+05-1.31416E+02-5.82723E+02 1.09868E+03-1.72497E-09 3.08873E-09
 -1       829-3.88797E+05 6.55550E+01-1.18099E+03-1.16026E+03 2.60985E-09 2.79692E-09
 -1       830-3.87681E+05-6.22156E+02-1.88113E+03 4.91128E+03 2.13902E-10 1.92487E-08
 -1       831-3.87919E+05 5.54905E+02-3.37217E+03-2.64088E+03-6.60429E-09 1.43064E-09
 -1       832-3.89851E+05-3.96199E+03-8.15936E+03 6.20146E+03-2.43527E-09-1.38280E-08
 -1       833-3.86644E+05 3.41508E+03-1.30567E+04-2.45049E+03-2.27917E-09 1.48430E-09
 -1       834-3.98837E+05-2.50976E+04-3.53743E+04 4.21849E+03-2.12231E-09 4.08227E-09
 -1       835-3.78916E+05 2.16575E+04-5.04703E+04-6.57826E+02 6.69164E-09-2.24827E-09
 -1       836-1.41485E+03 3.70413E+05 2.29227E+04-1.61133E+04-6.87123E-09-8.95398E-10
 -1       837 4.88637E+03 3.77593E+05 1.93927E+04-3.29311E+04-7.55017E-09 2.37414E-08
 -1       838-5.58341E+02 3.72427E+05 1.97528E+04-1.60418E+04-6.25732E-09 8.30278E-09
 -1       839 1.24286E+04 3.83210E+05 3.73606E+04-3.29836E+04-6.80120E-09 1.69513E-08
 -1       840-3.84268E+03 3.64736E+05 5.95740E+04-1.60666E+04-6.33372E-09 4.49131E-09
 -1       856-5.20326E+04 8.02234E+03-2.11406E+04-3.97492E+02 5.54621E-09 2.75122E-09
 -1       857-6.07420E+04-9.42604E+03-1.45530E+04 5.63430E+03 3.83534E-09-2.48476E-08
 -1       858-5.54817E+04 1.12506E+03-5.48547E+03-4.21562E+02 6.39312E-09-1.29485E-08
 -1       859-5.67837E+04-1.32364E+03-3.31021E+03 5.67009E+03-3.70147E-09-7.32143E-10
 -1       860-5.59970E+04 1.57564E+02-1.38728E+03-4.33018E+02 3.87786E-10-7.81779E-09
 -1       861-5.61910E+04-1.88143E+02-7.63111E+02 5.68569E+03-3.21764E-09-5.38625E-09
 -1       862-5.60776E+04 2.13451E+01-3.17092E+02-4.37141E+02-1.48110E-09-3.67410E-09
 -1       863-5.60922E+04-2.18636E+01-1.15228E+02 5.68809E+03-3.79951E-09-4.50601E-09
 -1       864-5.60964E+04-4.93096E+00 4.78177E+01-4.35413E+02-4.67760E-09-1.96471E-09
 -1       865-5.60362E+04 5.98693E+01 2.56573E+02 5.67821E+03-3.95966E-09 1.94831E-10
 -1       866-5.61314E+04-6.04016E+01 5.16748E+02-4.27268E+02-2.96905E-09 7.68475E-09
 -1       867-5.57933E+04 4.98778E+02 1.27172E+03 5.65611E+03 8.79481E-10 3.89440E-09
 -1       868-5.63344E+04-4.35905E+02 2.11317E+03-4.13302E+02-3.40248E-09-5.47584E-09
 -1       869-5.42442E+04 3.62789E+03 5.62657E+03 5.61973E+03 3.06579E-09-1.08325E-08
 -1       870-5.76727E+04-3.10451E+03 8.16543E+03-3.90786E+02-4.61864E-09 8.07267E-09
 -1       871-5.52120E+03-2.13760E+04-1.95037E+04 1.30516E+05-5.04224E-09 6.12727E-09
 -1       872-1.98231E+03-2.59115E+04-8.16735E+03 1.69234E+05-1.09221E-08-2.43881E-08
 -1       873 4.06357E+02-2.37176E+04 5.88522E+02 1.30229E+05-5.37420E-09 8.13054E-09
 -1       874 3.30855E+03-2.13063E+04 9.78202E+03 1.69263E+05-1.28266E-08 2.78549E-08
 -1       875 6.84976E+03-2.60480E+04 2.20688E+04 1.30468E+05-5.10408E-09 2.12276E-09
 -1       876 2.93878E+05 4.95255E+04 1.51034E+04 1.17928E+05 1.10460E-08-9.42418E-09
 -1       877 2.94877E+05 5.27058E+04 8.06579E+03 1.22260E+05 2.37603E-08 5.72982E-09
 -1       878 2.95291E+05 4.78524E+04 3.37917E+03 1.19165E+05-9.35870E-10 1.07170E-08
 -1       879 2.92824E+05 5.06568E+04 1.68371E+03 1.22362E+05 1.21440E-09 3.83731E-08
 -1       880 2.95392E+05 4.78351E+04 7.84256E+02 1.19216E+05 6.55291E-10 2.18679E-08
 -1       881 2.92688E+05 5.05692E+04 4.18832E+02 1.22338E+05-6.40421E-09-5.43790E-09
 -1       882 2.95401E+05 4.78484E+04 2.67989E+02 1.19217E+05-5.27507E-11-1.22340E-08
 -1       883 2.92678E+05 5.05646E+04 2.88173E+02 1.22331E+05-6.69320E-09 6.91139E-09
 -1       884 2.95394E+05 4.78456E+04 4.58481E+02 1.19218E+05-2.08922E-09-8.79237E-09
 -1       885 2.92715E+05 5.05710E+04 9.21842E+02 1.22342E+05-6.78637E-09-1.46372E-08
 -1       886 2.95358E+05 4.78187E+04 1.85795E+03 1.19214E+05-1.18891E-08-1.11809E-08
 -1       887 2.93041E+05 5.07851E+04 4.05844E+03 1.22389E+05-1.04274E-09-7.61509E-09
 -1       888 2.95102E+05 4.78639E+04 8.17788E+03 1.19084E+05-1.13687E-09-9.09495E-12
 -1       889 2.97910E+05 5.58481E+04 1.95354E+04 1.22240E+05-3.14298E-09-1.80025E-08
 -1       890 2.91764E+05 5.18289E+04 3.65894E+04 1.15972E+05-7.67977E-09-6.01358E-09
 -1       891-8.92420E+01-1.62819E+05-1.99747E+03 2.71466E+04-2.38992E-09-1.24335E-08
 -1       892-1.75200E+02-1.63347E+05-2.14511E+03 4.12240E+04 1.41472E-09-5.72727E-08
 -1       893 4.39019E+01-1.62883E+05-3.03702E+03 2.71540E+04-3.44994E-09-7.67386E-09
 -1       894-1.51029E+03-1.64494E+05-6.28533E+03 4.10715E+04 1.61890E-10-1.35551E-08
 -1       895-1.19947E+03-1.61574E+05-1.10683E+04 2.73010E+04-5.96287E-10-2.39743E-09
 -1       956-3.77383E+05-5.45219E+03-1.34588E+04 3.08889E+04 4.41105E-10-4.69026E-09
 -1       957-3.80024E+05-1.92339E+03-6.90820E+03 3.71203E+04-1.49066E-08-1.07711E-08
 -1       958-3.78593E+05-2.41061E+02-3.11306E+03 3.07211E+04-1.18844E-08-1.50567E-09
 -1       959-3.78790E+05-1.36342E+02-1.58957E+03 3.73160E+04 3.22325E-09 3.22029E-08
 -1       960-3.78711E+05-4.48418E+01-7.75153E+02 3.07038E+04 3.85990E-09 8.88099E-09
 -1       961-3.78709E+05-6.32629E+01-4.10977E+02 3.73364E+04 5.94082E-09-2.06501E-09
 -1       962-3.78739E+05-4.60596E+01-2.35296E+02 3.07009E+04 4.61296E-09-4.36535E-09
 -1       963-3.78710E+05-5.90663E+01-1.88889E+02 3.73401E+04 4.85340E-09 8.28823E-09
 -1       964-3.78744E+05-4.27057E+01-2.29712E+02 3.07001E+04-2.37317E-09-2.54317E-09
 -1       965-3.78722E+05-5.61126E+01-3.97314E+02 3.73394E+04-1.51003E-08-3.46540E-09
 -1       966-3.78728E+05-3.48745E+01-7.46548E+02 3.07016E+04-2.43881E-09-1.74739E-08
 -1       967-3.78811E+05-1.19707E+02-1.53115E+03 3.73250E+04 7.20320E-10-1.41176E-08
 -1       968-3.78624E+05-2.17483E+02-2.99746E+03 3.07143E+04 1.07548E-09-6.60771E-09
 -1       969-3.80013E+05-1.83547E+03-6.65427E+03 3.71764E+04 4.46789E-09-2.40674E-08
 -1       970-3.77467E+05-5.23309E+03-1.29629E+04 3.08417E+04-6.07542E-10 3.43425E-09
 -1       971-3.45504E+05-1.72771E+03-9.31095E+03 1.53790E+04 4.70027E-09 7.64722E-09
 -1       972-3.47745E+05-1.27198E+03-5.07065E+03 2.12689E+04 4.90490E-09 5.54292E-09
 -1       973-3.46541E+05-6.20856E+01-2.27120E+03 1.52579E+04 2.58296E-10 1.05904E-08
 -1       974-3.46676E+05-8.11525E+01-1.17732E+03 2.14060E+04 2.87127E-09 2.24072E-08
 -1       975-3.46623E+05-1.72061E+01-5.88969E+02 1.52456E+04-4.14730E-10-5.32623E-10
 -1       976-3.46615E+05-3.13038E+01-3.40649E+02 2.14218E+04 8.05721E-09-1.06397E-08
 -1       977-3.46640E+05-1.64600E+01-2.48768E+02 1.52422E+04-6.13568E-09-4.67810E-09
 -1       978-3.46620E+05-2.50778E+01-2.93198E+02 2.14266E+04-1.59299E-08 9.24149E-09
 -1       979-3.46639E+05-7.97874E+00-4.72871E+02 1.52407E+04-9.04186E-09-1.08779E-08
 -1       980-3.46655E+05-2.20154E+01-9.14179E+02 2.14276E+04-5.05960E-09 7.56404E-09
 -1       981-3.46610E+05 1.48724E+01-1.77114E+03 1.52413E+04 6.07884E-10-3.00304E-10
 -1       982-3.46899E+05-1.52882E+02-3.66124E+03 2.14210E+04-3.45153E-09-1.14312E-08
 -1       983-3.46387E+05-9.85368E+01-7.11399E+03 1.52473E+04 8.50378E-10-9.46784E-10
 -1       984-3.50320E+05-3.86831E+03-1.59316E+04 2.13354E+04 1.68984E-09 2.17105E-08
 -1       985-3.43166E+05-5.30411E+03-2.92553E+04 1.53187E+04-5.60976E-09 1.19744E-08
 -3
    1PSTEP                        33          17           1          
  100CL  117 6.63114E-01         409                     0   17           1
 -4  DISP        4    1
 -5  D1          1    2    1    0
 -5  D2          1    2    2    0
 -5  D3          1    2    3    0
 -5  ALL         1    2    0    0    1ALL
 -1         1 2.71943E-03 0.00000E+00 0.00000E+00
 -1         2 1.35338E-03-1.03109E-27-5.29396E-23
 -1         3 3.42751E-04-5.62835E-28 0.00000E+00
 -1         5 1.77148E-04-1.79877E-27-1.65436E-24
 -1         8 2.70851E-03-4.06288E-07 0.00000E+00
 -1         9 2.70187E-03-1.91238E-04 0.00000E+00
 -1        10 3.10787E-04-3.40618E-06-6.61744E-24
 -1        12 1.78995E-04 8.09574E-07 0.00000E+00
 -1        15 2.69601E-03-4.30170E-07 0.00000E+00
 -1        16 2.76821E-03-1.93061E-04 0.00000E+00
 -1        17 2.11503E-04-7.76793E-06 0.00000E+00
 -1        18 1.82942E-04 3.44205E-05 0.00000E+00
 -1        19 1.84536E-04 1.61273E-06 0.00000E+00
 -1        20 1.84675E-04-9.87587E-06 0.00000E+00
 -1        21 1.83782E-04-2.54096E-05 0.00000E+00
 -1        24 3.06208E-05-1.19939E-05 0.00000E+00
 -1        25 1.93727E-04 3.46464E-05 0.00000E+00
 -1        26 1.94406E-04 2.23316E-06 0.00000E+00
 -1        27 1.92205E-04-1.34359E-05 0.00000E+00
 -1        28 1.91890E-04-2.60318E-05 0.00000E+00
 -1        32 0.00000E+00 0.00000E+00 0.00000E+00
 -1        33 2.03274E-04 2.98733E-06 0.00000E+00
 -1        34 2.01155E-04-1.34921E-05 0.00000E+00
 -1        35 1.99222E-04-2.63744E-05 0.00000E+00
 -1        51 2.71869E-03-8.51052E-08 3.30872E-24
 -1        52 2.71735E-03-1.51821E-07 0.00000E+00
 -1        53 2.71554E-03-2.15070E-07 0.00000E+00
 -1        54 2.71337E-03-2.77092E-07 0.00000E+00
 -1        55 2.71098E-03-3.39654E-07 0.00000E+00
 -1        56 2.71174E-03 8.46942E-06 5.29396E-23
 -1        57 2.69670E-03 3.50844E-05 5.29396E-23
 -1        58 2.67656E-03 7.41336E-05 0.00000E+00
 -1        59 2.65404E-03 1.18718E-04 5.29396E-23
 -1        60 2.63250E-03 1.60989E-04 0.00000E+00
 -1        61 2.61513E-03 1.93285E-04 5.29396E-23
 -1        62 2.60413E-03 2.09728E-04 0.00000E+00
 -1        63 2.60092E-03 2.05851E-04-5.29396E-23
 -1        64 2.60532E-03 1.80920E-04 1.05879E-22
 -1        65 2.61643E-03 1.36189E-04-5.29396E-23
 -1        66 2.63231E-03 7.66759E-05 0.00000E+00
 -1        67 2.65077E-03 8.84568E-06 5.29396E-23
 -1        68 2.66930E-03-5.92202E-05 0.00000E+00
 -1        69 2.68543E-03-1.19411E-04 0.00000E+00
 -1        70 2.69690E-03-1.65149E-04 0.00000E+00
 -1        86 1.43817E-03-6.05838E-06-5.29396E-23
 -1        87 1.68352E-03-3.80287E-05 0.00000E+00
 -1        88 2.01341E-03-9.29608E-05 2.64698E-23
 -1        89 2.34772E-03-1.49400E-04 0.00000E+00
 -1        90 2.60376E-03-1.83936E-04 0.00000E+00
 -1       121 3.41853E-04-5.49949E-07-1.32349E-23
 -1       122 3.39164E-04-1.10299E-06 0.00000E+00
 -1       123 3.34693E-04-1.66216E-06 0.00000E+00
 -1       124 3.28457E-04-2.23050E-06 0.00000E+00
 -1       125 3.20478E-04-2.81067E-06 0.00000E+00
 -1       191 1.77199E-04 1.34993E-07 2.48154E-24
 -1       192 1.77353E-04 2.69974E-07 0.00000E+00
 -1       193 1.77610E-04 4.04935E-07-1.65436E-24
 -1       194 1.77969E-04 5.39864E-07-1.24077E-24
 -1       195 1.78430E-04 6.74748E-07 2.48154E-24
 -1       251 2.70821E-03 1.66583E-06 0.00000E+00
 -1       252 2.70790E-03 3.62450E-06 3.30872E-24
 -1       253 2.70760E-03 4.48673E-06 0.00000E+00
 -1       254 2.70729E-03 3.28313E-06 0.00000E+00
 -1       255 2.70698E-03-6.42240E-07-6.61744E-24
 -1       256 2.70665E-03-7.91129E-06 3.30872E-24
 -1       257 2.70628E-03-1.86389E-05 0.00000E+00
 -1       258 2.70588E-03-3.28967E-05-3.30872E-24
 -1       259 2.70543E-03-5.02215E-05 0.00000E+00
 -1       260 2.70493E-03-7.01113E-05 0.00000E+00
 -1       261 2.70441E-03-9.16754E-05-1.32349E-23
 -1       262 2.70386E-03-1.14002E-04 6.61744E-24
 -1       263 2.70332E-03-1.36065E-04 0.00000E+00
 -1       264 2.70280E-03-1.56839E-04 0.00000E+00
 -1       265 2.70232E-03-1.75497E-04 1.32349E-23
 -1       266 2.70643E-03-4.15954E-07-3.30872E-24
 -1       267 2.70434E-03-4.19240E-07 8.27181E-25
 -1       268 2.70226E-03-4.22935E-07 0.00000E+00
 -1       269 2.70018E-03-4.25427E-07 0.00000E+00
 -1       270 2.69809E-03-4.27894E-07 2.06795E-25
 -1       271 2.70765E-03 1.00546E-07 0.00000E+00
 -1       272 2.70775E-03-2.00090E-06 6.61744E-24
 -1       273 2.70876E-03-6.55672E-06 0.00000E+00
 -1       274 2.71061E-03-1.34009E-05 0.00000E+00
 -1       275 2.71323E-03-2.23468E-05 0.00000E+00
 -1       276 2.71654E-03-3.31923E-05 0.00000E+00
 -1       277 2.72046E-03-4.57194E-05-2.64698E-23
 -1       278 2.72491E-03-5.96969E-05 1.32349E-23
 -1       279 2.72979E-03-7.48819E-05 0.00000E+00
 -1       280 2.73501E-03-9.10219E-05 6.61744E-24
 -1       281 2.74048E-03-1.07856E-04-1.32349E-23
 -1       282 2.74610E-03-1.25119E-04-6.61744E-24
 -1       283 2.75178E-03-1.42542E-04 1.32349E-23
 -1       284 2.75743E-03-1.59852E-04-6.61744E-24
 -1       285 2.76293E-03-1.76781E-04 1.32349E-23
 -1       301 2.71393E-03-1.91576E-04 0.00000E+00
 -1       302 2.72435E-03-1.91868E-04 6.61744E-24
 -1       303 2.73405E-03-1.92150E-04 1.32349E-23
 -1       304 2.74397E-03-1.92432E-04 0.00000E+00
 -1       305 2.75505E-03-1.92728E-04 0.00000E+00
 -1       306 2.73983E-03-3.46127E-04 1.05879E-22
 -1       307 2.80369E-03-7.60593E-04-5.29396E-23
 -1       308 2.85031E-03-1.36627E-03 0.00000E+00
 -1       309 2.87410E-03-2.06701E-03 0.00000E+00
 -1       310 2.90542E-03-2.73698E-03-1.05879E-22
 -1       311 2.96493E-03-3.25305E-03 0.00000E+00
 -1       312 3.02270E-03-3.53461E-03-1.05879E-22
 -1       313 3.01773E-03-3.54393E-03 0.00000E+00
 -1       314 2.87609E-03-3.29321E-03-1.05879E-22
 -1       315 2.55693E-03-2.84709E-03-5.29396E-23
 -1       316 2.07878E-03-2.28228E-03 0.00000E+00
 -1       317 1.50774E-03-1.66808E-03 5.29396E-23
 -1       318 9.58289E-04-1.06505E-03 0.00000E+00
 -1       319 5.38520E-04-5.38154E-04 0.00000E+00
 -1       320 2.92201E-04-1.61571E-04 1.05879E-22
 -1       336 2.99196E-04-4.06460E-06 0.00000E+00
 -1       337 2.85530E-04-4.74871E-06 6.61744E-24
 -1       338 2.69849E-04-5.46075E-06 1.32349E-23
 -1       339 2.52229E-04-6.20152E-06 0.00000E+00
 -1       340 2.32749E-04-6.97550E-06 0.00000E+00
 -1       406 1.79662E-04 9.44323E-07-3.30872E-24
 -1       407 1.80431E-04 1.07896E-06 4.13590E-25
 -1       408 1.81304E-04 1.21343E-06-1.65436E-24
 -1       409 1.82279E-04 1.34756E-06-6.20385E-25
 -1       410 1.83357E-04 1.48107E-06 0.00000E+00
 -1       521 2.80676E-03-3.57240E-04 0.00000E+00
 -1       522 2.86883E-03-7.92049E-04 0.00000E+00
 -1       523 2.90895E-03-1.42569E-03 1.05879E-22
 -1       524 2.92345E-03-2.15524E-03 0.00000E+00
 -1       525 2.94681E-03-2.85199E-03 0.00000E+00
 -1       526 3.00275E-03-3.39022E-03 0.00000E+00
 -1       527 3.06010E-03-3.68241E-03 2.11758E-22
 -1       528 3.05281E-03-3.68991E-03 5.29396E-23
 -1       529 2.89904E-03-3.42492E-03 0.00000E+00
 -1       530 2.55569E-03-2.96010E-03-5.29396E-23
 -1       531 2.04210E-03-2.37598E-03 0.00000E+00
 -1       532 1.43086E-03-1.74445E-03-5.29396E-23
 -1       533 8.41915E-04-1.12343E-03 0.00000E+00
 -1       534 3.88556E-04-5.75526E-04 0.00000E+00
 -1       535 1.20868E-04-1.79286E-04-2.11758E-22
 -1       536 2.10749E-04 2.71591E-05-6.61744E-24
 -1       537 2.08830E-04 8.76026E-05-1.65436E-24
 -1       538 2.05866E-04 1.64295E-04 0.00000E+00
 -1       539 2.02370E-04 2.47887E-04-1.65436E-24
 -1       540 1.99224E-04 3.26873E-04 0.00000E+00
 -1       541 1.97179E-04 3.89776E-04 1.65436E-24
 -1       542 1.96235E-04 4.29840E-04 3.30872E-24
 -1       543 1.96010E-04 4.40463E-04-1.65436E-24
 -1       544 1.95688E-04 4.22417E-04-3.30872E-24
 -1       545 1.94515E-04 3.76698E-04 0.00000E+00
 -1       546 1.92330E-04 3.11432E-04-3.30872E-24
 -1       547 1.89372E-04 2.34866E-04-1.65436E-24
 -1       548 1.86441E-04 1.58677E-04 0.00000E+00
 -1       549 1.84327E-04 9.45396E-05 0.00000E+00
 -1       550 1.83228E-04 5.04860E-05 0.00000E+00
 -1       551 1.86299E-04-8.33746E-06 0.00000E+00
 -1       552 1.57849E-04-8.98745E-06 0.00000E+00
 -1       553 1.27097E-04-9.69970E-06-3.30872E-24
 -1       554 9.50024E-05-1.04531E-05 0.00000E+00
 -1       555 6.25253E-05-1.12202E-05 0.00000E+00
 -1       556 2.03854E-04 1.17904E-05 0.00000E+00
 -1       557 1.97674E-04 2.76527E-05 0.00000E+00
 -1       558 1.92829E-04 4.01069E-05 0.00000E+00
 -1       559 1.89186E-04 4.94635E-05-2.64698E-23
 -1       560 1.86615E-04 5.60332E-05 0.00000E+00
 -1       561 1.84988E-04 6.01297E-05 0.00000E+00
 -1       562 1.84179E-04 6.20674E-05 0.00000E+00
 -1       563 1.84066E-04 6.21621E-05 1.32349E-23
 -1       564 1.84524E-04 6.07301E-05 0.00000E+00
 -1       565 1.85435E-04 5.80887E-05 6.61744E-24
 -1       566 1.86678E-04 5.45556E-05 0.00000E+00
 -1       567 1.88134E-04 5.04489E-05 0.00000E+00
 -1       568 1.89685E-04 4.60867E-05-1.65436E-24
 -1       569 1.91212E-04 4.17875E-05 0.00000E+00
 -1       570 1.92598E-04 3.78695E-05 0.00000E+00
 -1       571 1.83039E-04 3.22917E-05-1.65436E-24
 -1       572 1.83137E-04 3.00973E-05 1.24077E-24
 -1       573 1.83237E-04 2.78528E-05-1.65436E-24
 -1       574 1.83336E-04 2.55747E-05-8.27181E-25
 -1       575 1.83435E-04 2.32793E-05-3.30872E-24
 -1       576 1.83535E-04 2.09832E-05-1.65436E-24
 -1       577 1.83634E-04 1.87028E-05 3.30872E-24
 -1       578 1.83734E-04 1.64548E-05-3.30872E-24
 -1       579 1.83834E-04 1.42556E-05 0.00000E+00
 -1       580 1.83934E-04 1.21218E-05 0.00000E+00
 -1       581 1.84034E-04 1.00699E-05 0.00000E+00
 -1       582 1.84134E-04 8.11641E-06 0.00000E+00
 -1       583 1.84234E-04 6.27781E-06-6.61744E-24
 -1       584 1.84335E-04 4.57045E-06-3.30872E-24
 -1       585 1.84435E-04 3.01049E-06 0.00000E+00
 -1       586 1.84698E-04 3.44602E-05 0.00000E+00
 -1       587 1.86414E-04 3.44994E-05 4.13590E-25
 -1       588 1.88131E-04 3.45383E-05 8.27181E-25
 -1       589 1.89894E-04 3.45765E-05 0.00000E+00
 -1       590 1.91745E-04 3.46134E-05 0.00000E+00
 -1       591 1.83672E-04 3.23855E-05 0.00000E+00
 -1       592 1.84404E-04 3.03307E-05-2.06795E-25
 -1       593 1.85142E-04 2.82620E-05 0.00000E+00
 -1       594 1.85882E-04 2.61839E-05 4.13590E-25
 -1       595 1.86625E-04 2.41013E-05-8.27181E-25
 -1       596 1.87367E-04 2.20188E-05 4.13590E-25
 -1       597 1.88107E-04 1.99411E-05-8.27181E-25
 -1       598 1.88843E-04 1.78730E-05-4.13590E-25
 -1       599 1.89575E-04 1.58191E-05 0.00000E+00
 -1       600 1.90299E-04 1.37840E-05 0.00000E+00
 -1       601 1.91014E-04 1.17724E-05 8.27181E-25
 -1       602 1.91720E-04 9.78911E-06 2.06795E-25
 -1       603 1.92413E-04 7.83869E-06 4.13590E-25
 -1       604 1.93092E-04 5.92596E-06 1.29247E-25
 -1       605 1.93756E-04 4.05549E-06 0.00000E+00
 -1       606 1.84549E-04 4.48354E-07 0.00000E+00
 -1       607 1.84559E-04-6.30246E-07 0.00000E+00
 -1       608 1.84567E-04-1.62811E-06 0.00000E+00
 -1       609 1.84576E-04-2.55091E-06 0.00000E+00
 -1       610 1.84584E-04-3.40438E-06-3.30872E-24
 -1       611 1.84593E-04-4.19431E-06 0.00000E+00
 -1       612 1.84601E-04-4.92650E-06 0.00000E+00
 -1       613 1.84609E-04-5.60676E-06 0.00000E+00
 -1       614 1.84618E-04-6.24089E-06 1.65436E-24
 -1       615 1.84626E-04-6.83468E-06-8.27181E-25
 -1       616 1.84634E-04-7.39397E-06 0.00000E+00
 -1       617 1.84643E-04-7.92455E-06 0.00000E+00
 -1       618 1.84651E-04-8.43222E-06-8.27181E-25
 -1       619 1.84659E-04-8.92280E-06 0.00000E+00
 -1       620 1.84668E-04-9.40208E-06 0.00000E+00
 -1       621 1.85895E-04 1.71670E-06 0.00000E+00
 -1       622 1.87413E-04 1.82092E-06 8.27181E-25
 -1       623 1.89056E-04 1.92492E-06 0.00000E+00
 -1       624 1.90792E-04 2.02860E-06-8.27181E-25
 -1       625 1.92587E-04 2.13198E-06 1.65436E-24
 -1       626 1.85084E-04 4.84488E-07 0.00000E+00
 -1       627 1.85610E-04-5.80775E-07 6.61744E-24
 -1       628 1.86116E-04-1.59091E-06 0.00000E+00
 -1       629 1.86604E-04-2.55409E-06 0.00000E+00
 -1       630 1.87078E-04-3.47849E-06 0.00000E+00
 -1       631 1.87540E-04-4.37234E-06 0.00000E+00
 -1       632 1.87994E-04-5.24381E-06-3.30872E-24
 -1       633 1.88443E-04-6.10115E-06 1.65436E-24
 -1       634 1.88889E-04-6.95254E-06 3.30872E-24
 -1       635 1.89337E-04-7.80620E-06-1.65436E-24
 -1       636 1.89788E-04-8.67033E-06 0.00000E+00
 -1       637 1.90246E-04-9.55316E-06-1.65436E-24
 -1       638 1.90714E-04-1.04629E-05 3.30872E-24
 -1       639 1.91195E-04-1.14077E-05-8.27181E-25
 -1       640 1.91692E-04-1.23960E-05 1.65436E-24
 -1       656 1.85382E-04-1.04545E-05 0.00000E+00
 -1       657 1.86508E-04-1.10566E-05 0.00000E+00
 -1       658 1.87915E-04-1.16574E-05 1.32349E-23
 -1       659 1.89456E-04-1.22578E-05 6.61744E-24
 -1       660 1.90947E-04-1.28600E-05 0.00000E+00
 -1       661 1.84940E-04-1.03948E-05 0.00000E+00
 -1       662 1.85242E-04-1.10057E-05 8.27181E-25
 -1       663 1.85576E-04-1.17032E-05-1.65436E-24
 -1       664 1.85941E-04-1.24810E-05 0.00000E+00
 -1       665 1.86334E-04-1.33331E-05-1.65436E-24
 -1       666 1.86752E-04-1.42536E-05 0.00000E+00
 -1       667 1.87194E-04-1.52369E-05 0.00000E+00
 -1       668 1.87658E-04-1.62774E-05 0.00000E+00
 -1       669 1.88140E-04-1.73696E-05 0.00000E+00
 -1       670 1.88640E-04-1.85083E-05 0.00000E+00
 -1       671 1.89156E-04-1.96881E-05 0.00000E+00
 -1       672 1.89684E-04-2.09041E-05-8.27181E-25
 -1       673 1.90225E-04-2.21512E-05 0.00000E+00
 -1       674 1.90774E-04-2.34246E-05 0.00000E+00
 -1       675 1.91331E-04-2.47192E-05 0.00000E+00
 -1       676 1.85138E-04-2.55139E-05 3.30872E-24
 -1       677 1.86493E-04-2.56181E-05 1.65436E-24
 -1       678 1.87847E-04-2.57223E-05 0.00000E+00
 -1       679 1.89198E-04-2.58262E-05-1.65436E-24
 -1       680 1.90546E-04-2.59301E-05 1.65436E-24
 -1       771 1.86658E-05 1.47407E-05 5.29396E-23
 -1       772 8.60801E-06 3.66981E-05-5.29396E-23
 -1       773 3.56709E-07 5.41086E-05 5.29396E-23
 -1       774-6.21247E-06 6.72302E-05 2.64698E-23
 -1       775-1.12212E-05 7.63313E-05 0.00000E+00
 -1       776-1.47961E-05 8.16970E-05-2.64698E-23
 -1       777-1.70635E-05 8.36227E-05-5.29396E-23
 -1       778-1.81524E-05 8.24174E-05 0.00000E+00
 -1       779-1.81910E-05 7.83989E-05 0.00000E+00
 -1       780-1.73099E-05 7.18961E-05 0.00000E+00
 -1       781-1.56382E-05 6.32450E-05 5.29396E-23
 -1       782-1.33072E-05 5.27904E-05-2.64698E-23
 -1       783-1.04467E-05 4.08815E-05 0.00000E+00
 -1       784-7.18817E-06 2.78740E-05-2.64698E-23
 -1       785-3.66190E-06 1.41265E-05 0.00000E+00
 -1       786 1.93765E-04 3.23927E-05 0.00000E+00
 -1       787 1.93807E-04 3.01891E-05 0.00000E+00
 -1       788 1.93849E-04 2.80273E-05-8.27181E-25
 -1       789 1.93891E-04 2.58991E-05-8.27181E-25
 -1       790 1.93933E-04 2.37998E-05 1.65436E-24
 -1       791 1.93976E-04 2.17247E-05 0.00000E+00
 -1       792 1.94019E-04 1.96715E-05 0.00000E+00
 -1       793 1.94062E-04 1.76380E-05 8.27181E-25
 -1       794 1.94104E-04 1.56240E-05-1.65436E-24
 -1       795 1.94147E-04 1.36294E-05 0.00000E+00
 -1       796 1.94190E-04 1.16560E-05 1.65436E-24
 -1       797 1.94233E-04 9.70563E-06 8.27181E-25
 -1       798 1.94276E-04 7.78260E-06 0.00000E+00
 -1       799 1.94319E-04 5.89118E-06 0.00000E+00
 -1       800 1.94363E-04 4.03883E-06 1.65436E-24
 -1       801 1.47933E-04 3.11471E-05 0.00000E+00
 -1       802 9.47132E-06 1.94315E-05-2.64698E-23
 -1       803-1.08802E-04 9.81455E-06 0.00000E+00
 -1       804-9.64528E-05 6.83134E-06 2.64698E-23
 -1       805-3.18689E-05 2.68456E-06 0.00000E+00
 -1       806 1.94457E-04 3.23239E-05 3.30872E-24
 -1       807 1.95173E-04 3.00276E-05 1.65436E-24
 -1       808 1.95876E-04 2.77627E-05-3.30872E-24
 -1       809 1.96566E-04 2.55334E-05 0.00000E+00
 -1       810 1.97240E-04 2.33436E-05 3.30872E-24
 -1       811 1.97899E-04 2.11973E-05-1.65436E-24
 -1       812 1.98540E-04 1.90984E-05 0.00000E+00
 -1       813 1.99161E-04 1.70509E-05 0.00000E+00
 -1       814 1.99763E-04 1.50587E-05 0.00000E+00
 -1       815 2.00341E-04 1.31256E-05 8.27181E-25
 -1       816 2.00897E-04 1.12556E-05 1.65436E-24
 -1       817 2.01427E-04 9.45254E-06 8.27181E-25
 -1       818 2.01932E-04 7.72033E-06 1.65436E-24
 -1       819 2.02408E-04 6.06285E-06-1.65436E-24
 -1       820 2.02856E-04 4.48392E-06 1.65436E-24
 -1       821 1.94277E-04-1.31675E-07-1.65436E-24
 -1       822 1.94137E-04-3.65604E-06-1.65436E-24
 -1       823 1.93994E-04-7.91021E-06 3.30872E-24
 -1       824 1.93849E-04-1.24599E-05 1.65436E-24
 -1       825 1.93705E-04-1.67909E-05 0.00000E+00
 -1       826 1.93563E-04-2.03902E-05 0.00000E+00
 -1       827 1.93424E-04-2.29443E-05 0.00000E+00
 -1       828 1.93288E-04-2.41459E-05-1.65436E-24
 -1       829 1.93152E-04-2.40561E-05 0.00000E+00
 -1       830 1.93016E-04-2.27437E-05-1.65436E-24
 -1       831 1.92878E-04-2.06105E-05 3.30872E-24
 -1       832 1.92740E-04-1.80633E-05 1.65436E-24
 -1       833 1.92601E-04-1.56217E-05 0.00000E+00
 -1       834 1.92466E-04-1.38046E-05 0.00000E+00
 -1       835 1.92332E-04-1.29615E-05 8.27181E-25
 -1       836 1.96097E-04 2.35822E-06 3.30872E-24
 -1       837 1.97660E-04 2.48643E-06 0.00000E+00
 -1       838 1.99128E-04 2.61458E-06 0.00000E+00
 -1       839 2.00532E-04 2.74203E-06 8.27181E-25
 -1       840 2.01904E-04 2.86931E-06 8.27181E-25
 -1       856 1.92189E-04-1.44982E-05 0.00000E+00
 -1       857 1.92170E-04-1.54248E-05 0.00000E+00
 -1       858 1.92151E-04-1.62367E-05-2.06795E-25
 -1       859 1.92131E-04-1.69552E-05 2.06795E-25
 -1       860 1.92111E-04-1.76013E-05-4.13590E-25
 -1       861 1.92092E-04-1.81965E-05 0.00000E+00
 -1       862 1.92072E-04-1.87619E-05 0.00000E+00
 -1       863 1.92052E-04-1.93191E-05 0.00000E+00
 -1       864 1.92032E-04-1.98892E-05-8.27181E-25
 -1       865 1.92012E-04-2.04938E-05 0.00000E+00
 -1       866 1.91993E-04-2.11539E-05 8.27181E-25
 -1       867 1.91973E-04-2.18910E-05 0.00000E+00
 -1       868 1.91953E-04-2.27262E-05-8.27181E-25
 -1       869 1.91932E-04-2.36808E-05 0.00000E+00
 -1       870 1.91912E-04-2.47756E-05 0.00000E+00
 -1       871 1.93555E-04-1.34408E-05-8.27181E-25
 -1       872 1.95053E-04-1.34492E-05 0.00000E+00
 -1       873 1.96630E-04-1.34582E-05 0.00000E+00
 -1       874 1.98218E-04-1.34680E-05 1.03398E-25
 -1       875 1.99749E-04-1.34783E-05 8.27181E-25
 -1       876 1.92731E-04-1.44837E-05 3.30872E-24
 -1       877 1.93234E-04-1.54646E-05-1.65436E-24
 -1       878 1.93716E-04-1.63867E-05 0.00000E+00
 -1       879 1.94178E-04-1.72573E-05 0.00000E+00
 -1       880 1.94625E-04-1.80839E-05 3.30872E-24
 -1       881 1.95057E-04-1.88738E-05 1.65436E-24
 -1       882 1.95479E-04-1.96344E-05-3.30872E-24
 -1       883 1.95892E-04-2.03730E-05 0.00000E+00
 -1       884 1.96300E-04-2.10970E-05-3.30872E-24
 -1       885 1.96706E-04-2.18136E-05 0.00000E+00
 -1       886 1.97111E-04-2.25303E-05 3.30872E-24
 -1       887 1.97519E-04-2.32544E-05-1.65436E-24
 -1       888 1.97932E-04-2.39932E-05-3.30872E-24
 -1       889 1.98352E-04-2.47543E-05 0.00000E+00
 -1       890 1.98784E-04-2.55449E-05 0.00000E+00
 -1       891 1.93254E-04-2.60894E-05 1.65436E-24
 -1       892 1.94595E-04-2.61471E-05 0.00000E+00
 -1       893 1.95887E-04-2.62047E-05-8.27181E-25
 -1       894 1.97106E-04-2.62620E-05 0.00000E+00
 -1       895 1.98226E-04-2.63191E-05-8.27181E-25
 -1       956 2.03144E-04 1.66545E-06-1.65436E-24
 -1       957 2.03011E-04 4.35183E-07 0.00000E+00
 -1       958 2.02879E-04-7.14230E-07-3.30872E-24
 -1       959 2.02746E-04-1.79413E-06 1.65436E-24
 -1       960 2.02613E-04-2.81592E-06-3.30872E-24
 -1       961 2.02480E-04-3.79103E-06-1.65436E-24
 -1       962 2.02347E-04-4.73087E-06 3.30872E-24
 -1       963 2.02214E-04-5.64693E-06-1.65436E-24
 -1       964 2.02082E-04-6.55065E-06 3.30872E-24
 -1       965 2.01949E-04-7.45347E-06 0.00000E+00
 -1       966 2.01816E-04-8.36686E-06 0.00000E+00
 -1       967 2.01683E-04-9.30228E-06 0.00000E+00
 -1       968 2.01550E-04-1.02712E-05 6.61744E-24
 -1       969 2.01418E-04-1.12849E-05 0.00000E+00
 -1       970 2.01286E-04-1.23549E-05 0.00000E+00
 -1       971 2.01035E-04-1.46289E-05 3.30872E-24
 -1       972 2.00914E-04-1.56712E-05-1.65436E-24
 -1       973 2.00793E-04-1.66293E-05-3.30872E-24
 -1       974 2.00671E-04-1.75141E-05 1.65436E-24
 -1       975 2.00550E-04-1.83364E-05-3.30872E-24
 -1       976 2.00428E-04-1.91071E-05-1.65436E-24
 -1       977 2.00307E-04-1.98371E-05 3.30872E-24
 -1       978 2.00185E-04-2.05373E-05-1.65436E-24
 -1       979 2.00064E-04-2.12186E-05 3.30872E-24
 -1       980 1.99942E-04-2.18920E-05-1.65436E-24
 -1       981 1.99821E-04-2.25682E-05 0.00000E+00
 -1       982 1.99700E-04-2.32582E-05 0.00000E+00
 -1       983 1.99579E-04-2.39730E-05 0.00000E+00
 -1       984 1.99458E-04-2.47234E-05 0.00000E+00
 -1       985 1.99338E-04-2.55203E-05 0.00000E+00
 -3
    1PSTEP                        34          17           1          
  100CL  117 6.63114E-01         409                     0   17           1
 -4  STRESS      6    1
 -5  SXX         1    4    1    1
 -5  SYY         1    4    2    2
 -5  SZZ         1    4    3    3
 -5  SXY         1    4    1    2
 -5  SYZ         1    4    2    3
 -5  SZX         1    4    3    1
 -1         1-5.33956E+06-1.60180E+06-1.13373E+06-1.36590E+06-3.11411E-09 1.42725E-07
 -1         2 1.45227E+06 2.13197E+07 4.98037E+06 6.43449E+06 3.03262E-08-2.29629E-08
 -1         3-1.48884E+03-1.56149E+06 4.06466E+02-2.21684E+03-5.64960E-10-3.11920E-08
 -1         5-7.52907E+01 3.86564E+05 9.98574E+00-1.34371E+00-4.35929E-10-7.51425E-09
 -1         8-5.60169E+05-2.01602E+05-6.24491E+04-2.46058E+05-1.66438E-10 1.45094E-07
 -1         9 1.17413E+07 3.73608E+06 2.76711E+06-3.56297E+05 8.53324E-09-9.24338E-08
 -1        10-2.30627E+03-1.62719E+06-3.95344E+03-1.49999E+04-1.35151E-08-3.69869E-08
 -1        12-7.13709E+01 3.86586E+05 3.28257E+02-9.15830E+00-6.99178E-10 8.97398E-09
 -1        15 9.62925E+02 5.25204E+02 3.05413E+03 8.75225E-01 2.57273E-10-2.51088E-07
 -1        16 2.28956E+07-3.25107E+05 3.11806E+06-2.26592E+06 9.29382E-09 6.55030E-08
 -1        17 8.37913E+06 6.28076E+06 2.26386E+06 6.00997E+06 2.58675E-08 2.41795E-08
 -1        18 1.42381E+05 3.35288E+04 4.15487E+03-1.19584E+05 1.41260E-08 4.30919E-09
 -1        19 1.22468E+05 1.41730E+05-9.44682E+02 2.19753E+04 1.66128E-09-1.18747E-08
 -1        20-8.20419E+04-5.73940E+05-1.28791E+05 2.51001E+04-2.17445E-09 3.20445E-09
 -1        21-4.55827E+01-2.96079E+05-9.24124E+02 2.75370E+02 1.30798E-08 4.57798E-09
 -1        24 1.40317E+07 1.20880E+07 3.88537E+06 1.11928E+07-1.65698E-07-4.93407E-08
 -1        25 1.25025E+05 2.67726E+05 1.00097E+05-6.45956E+05-1.14260E-09 6.40102E-10
 -1        26-5.54732E+04 9.23221E+04-2.46526E+04 1.32248E+03-2.59752E-10 9.01553E-09
 -1        27-7.55712E+04-3.10068E+05-1.13344E+05 6.90006E+04 3.59190E-09 1.53705E-10
 -1        28 2.22452E+04-8.53740E+04 1.69020E+04 2.06061E+04-1.39190E-09-6.03450E-09
 -1        32-1.68067E+06-3.18107E+06-1.97375E+05 4.57887E+05-4.19896E-08-1.18102E-08
 -1        33-1.78547E+05 9.30484E+04 3.24024E+04-3.84760E+04-2.81959E-09 3.63525E-08
 -1        34-2.23681E+05-2.50447E+04 6.90351E+02 7.56974E+04-6.51483E-09 8.61746E-10
 -1        35-2.29352E+04-3.38572E+04-1.34889E+03 5.15085E+04-2.14184E-09 5.16593E-10
 -1        51 6.06310E+04-1.72510E+05 1.28255E+05-4.40954E+05-8.73115E-11 1.19871E-07
 -1        52 2.05320E+04-1.50109E+05 6.73175E+04-5.14277E+05 2.18279E-11 1.09230E-07
 -1        53 4.19552E+03-1.65488E+05 3.50962E+04-4.39436E+05 2.91038E-10-6.85104E-08
 -1        54 7.45337E+03-1.61240E+05 2.89153E+04-5.15765E+05 2.91038E-10-2.93408E-07
 -1        55 1.62906E+04-1.68330E+05 3.52663E+04-4.39341E+05 3.27418E-10 3.00377E-07
 -1        56-9.77673E+06-1.35898E+06-9.11019E+05-4.07132E+06 1.02737E-08-1.68453E-07
 -1        57-1.10394E+07-8.55346E+05-5.49013E+05-2.74278E+06 1.80444E-09-7.81656E-08
 -1        58-9.60123E+06-1.81814E+06-2.00949E+05-4.25390E+06 3.75439E-09 2.18482E-07
 -1        59-1.11962E+07-3.30346E+05-1.08852E+05-2.67254E+06 1.88575E-08-3.29208E-07
 -1        60-9.69322E+06-1.82255E+06-5.68866E+04-4.20636E+06-1.20308E-08 6.06378E-08
 -1        61-1.05702E+07-6.54589E+05 1.34237E+04-2.92044E+06-6.40284E-10 1.07979E-07
 -1        62-1.00991E+07-1.58040E+06-7.27856E+04-3.90478E+06-3.39351E-08-6.61967E-08
 -1        63-9.70221E+06-1.34523E+06 5.06263E+04-3.60478E+06-1.01863E-09 1.76851E-07
 -1        64-1.04594E+07-1.20439E+06-6.68849E+04-3.45731E+06-2.56550E-08-1.03908E-07
 -1        65-9.32889E+06-1.93519E+06 1.06845E+04-4.48236E+06-4.95638E-08-3.29986E-07
 -1        66-1.05911E+07-9.08017E+05-4.67843E+04-3.11667E+06 4.71773E-08 1.81662E-08
 -1        67-9.33477E+06-2.18833E+06-9.80234E+04-4.89744E+06-9.05056E-08 4.25436E-07
 -1        68-1.05715E+07-8.68581E+05-1.86224E+05-3.11610E+06-2.89783E-08-9.89530E-09
 -1        69-9.52141E+06-2.27502E+06-4.88714E+05-4.44920E+06-4.76430E-08-2.64037E-07
 -1        70-1.02956E+07-9.09335E+05-8.35826E+05-3.49251E+06 1.15861E-08-4.42378E-09
 -1        86-1.48147E+06-1.53264E+07-2.72555E+06-3.02424E+06-2.70873E-07-1.52897E-07
 -1        87 2.32141E+06 6.10301E+06 2.26722E+06 5.62517E+06-4.42924E-07 2.14077E-08
 -1        88-4.33204E+05-1.98533E+06 2.13409E+05-2.52693E+06-4.18420E-07-1.36605E-07
 -1        89 3.10935E+06 5.81764E+06 2.32287E+06 5.81118E+06-5.59412E-07-1.93686E-07
 -1        90-2.17899E+06-1.51145E+07-2.94424E+06-3.23786E+06-1.48200E-07-1.27708E-07
 -1       121-2.03959E+03-1.56639E+06-5.47142E+02 1.09878E+03 1.39713E-09-1.55997E-08
 -1       122-1.30265E+03-1.56155E+06 7.70807E+02-4.43771E+03-5.38051E-09 4.50236E-08
 -1       123-2.05937E+03-1.56653E+06 2.62422E+02 3.28153E+03 4.47358E-09 3.56013E-08
 -1       124 3.36960E+02-1.56110E+06 2.95451E+03-9.28493E+03-1.03387E-08 2.42944E-08
 -1       125-2.86978E+03-1.56743E+06 3.46754E+03 5.90003E+03 6.64295E-09-7.02130E-10
 -1       191-7.93424E+01 3.86582E+05 8.49082E+00 7.00617E-01-5.17622E-10 1.83391E-08
 -1       192-7.62548E+01 3.86565E+05 2.13093E+01-4.30752E+00-8.02718E-10-9.91076E-09
 -1       193-8.18802E+01 3.86582E+05 3.62788E+01 3.78301E+00-1.08800E-09-3.12139E-09
 -1       194-7.93459E+01 3.86568E+05 8.10086E+01-9.77415E+00-5.74276E-10 2.74122E-09
 -1       195-8.67512E+01 3.86579E+05 1.55093E+02 6.36070E+00-1.58760E-09 1.32659E-08
 -1       251-8.66328E+05 1.59717E+04-3.73004E+04-1.41802E+04 2.49686E-09-5.62068E-09
 -1       252-8.80550E+05-1.84774E+04-2.59662E+04 4.96904E+04 7.45143E-09-3.63521E-07
 -1       253-8.74549E+05 2.45207E+03-1.00287E+04-1.00828E+04-2.67528E-09 8.14316E-08
 -1       254-8.67485E+05-2.96172E+03-4.54200E+03 3.54216E+04 6.94627E-10 1.37596E-07
 -1       255-8.78803E+05 6.63804E+01-3.45005E+03 8.52982E+01 1.59548E-09 2.64759E-07
 -1       256-8.62227E+05-2.73540E+02 1.10365E+03 1.23179E+04-7.42978E-09 3.14353E-07
 -1       257-8.79379E+05-5.51801E+02-1.33469E+03 1.30102E+04 1.25669E-09 8.10775E-08
 -1       258-8.64904E+05 8.78668E+02 2.63893E+03-1.20113E+04-1.93211E-09 5.24563E-08
 -1       259-8.76364E+05-9.02818E+02 1.39024E+03 2.44123E+04 9.55538E-09 4.93828E-08
 -1       260-8.71028E+05 2.87723E+03 5.53797E+03-2.95736E+04-1.75223E-08 9.24815E-08
 -1       261-8.73866E+05-2.07825E+03 8.63325E+03 3.05876E+04 1.84208E-08 2.85389E-07
 -1       262-8.69605E+05 1.16896E+04 2.14387E+04-3.47006E+04-3.10810E-08 9.08803E-08
 -1       263-8.78028E+05-9.49465E+03 3.39777E+04 2.95482E+04 1.46538E-08 1.55160E-08
 -1       264-8.39329E+05 6.67833E+04 9.40263E+04-2.56088E+04 2.20532E-08-9.82582E-08
 -1       265-9.03660E+05-5.72942E+04 1.31009E+05 2.14844E+04 2.42528E-09-6.63567E-08
 -1       266-1.71969E+04-8.00080E+03 4.00349E+04-1.83877E+01 6.91216E-11-2.20638E-07
 -1       267 1.99255E+04 9.33165E+03 2.83466E+04 2.11825E+01 1.31877E-11-1.64992E-07
 -1       268-2.69204E+03-1.32839E+03 1.05156E+04-2.72663E+00-1.10049E-10-2.79608E-08
 -1       269 3.17807E+03 1.59112E+03 6.85243E+03 3.17311E+00 7.27596E-11 1.86116E-07
 -1       270-4.80795E+02-2.62599E+02 3.29955E+03-4.36284E-01 2.28511E-11-1.22783E-07
 -1       271-1.49240E+06-1.89688E+05-1.12049E+05-5.80444E+05-9.06221E-09 3.93993E-08
 -1       272-1.49023E+06-3.02221E+05-7.04652E+04-6.17189E+05-1.48066E-08-6.53645E-07
 -1       273-1.51601E+06-2.13632E+05-2.71385E+04-5.72449E+05 1.46210E-08 2.54295E-09
 -1       274-1.46323E+06-2.73430E+05-1.41714E+04-6.32182E+05-4.87489E-08 7.82247E-08
 -1       275-1.52157E+06-2.13295E+05-6.74285E+03-5.68719E+05 1.08048E-08-1.37446E-07
 -1       276-1.45752E+06-2.74292E+05-2.87559E+03-6.40636E+05-2.13804E-08 1.86999E-07
 -1       277-1.52436E+06-2.10725E+05-1.86303E+03-5.66017E+05 4.11383E-08 5.83568E-08
 -1       278-1.45528E+06-2.77471E+05-7.29365E+02-6.46852E+05-1.95259E-08-2.54308E-08
 -1       279-1.52615E+06-2.08613E+05-8.77138E+02-5.64117E+05-1.92194E-08 8.78208E-08
 -1       280-1.45422E+06-2.79878E+05-1.02542E+03-6.50952E+05 5.09499E-09 3.56710E-07
 -1       281-1.52709E+06-2.07270E+05-1.89360E+03-5.63042E+05 5.55701E-10 1.89621E-07
 -1       282-1.45459E+06-2.82115E+05-4.40756E+03-6.52648E+05 3.03044E-08-3.16066E-07
 -1       283-1.52658E+06-2.05990E+05-7.84368E+03-5.62909E+05-3.15845E-08-2.87068E-07
 -1       284-1.46161E+06-2.92429E+05-2.13694E+04-6.50465E+05 4.81600E-08-1.32747E-07
 -1       285-1.52002E+06-1.98154E+05-3.33537E+04-5.64712E+05-5.01450E-08 1.43633E-07
 -1       301-6.45433E+03-6.45635E+05 1.67065E+05-1.13359E+06-4.94765E-10 6.17001E-08
 -1       302-8.05040E+03-5.99013E+05 1.00543E+05-1.65468E+06-8.57835E-09 1.33216E-07
 -1       303-2.12266E+04-6.37973E+05 5.68512E+04-1.13048E+06 7.27596E-11 2.17149E-07
 -1       304-2.39286E+04-6.05931E+05 5.72894E+04-1.65408E+06-2.09111E-08 8.25530E-08
 -1       305-2.55034E+04-6.26775E+05 7.05366E+04-1.13358E+06-6.43922E-10 1.47425E-07
 -1       306-3.01513E+07-6.22400E+06-8.61690E+06-5.08244E+05-8.71951E-08-1.28930E-08
 -1       307 2.53596E+07 3.28011E+06 5.51745E+06-1.52472E+07-8.34683E-07 1.10478E-07
 -1       308-6.94976E+06-1.02389E+06-4.47154E+05 5.21404E+06-7.56118E-08 2.69240E-07
 -1       309-3.22999E+06 8.76070E+06 2.29190E+06-2.06998E+07 3.58155E-07-1.04737E-08
 -1       310-1.26032E+07-1.95112E+06-2.04773E+06 5.22451E+06 6.44359E-08-2.67202E-07
 -1       311 3.85551E+07 1.10390E+04 7.29859E+06-8.78841E+06 1.40193E-07-1.58179E-07
 -1       312-3.19762E+07-6.79423E+06-8.55645E+06-5.06497E+06 4.59491E-07-2.19443E-08
 -1       313 4.54735E+07 1.50934E+07 1.06877E+07 2.38751E+07-8.11415E-08 1.14640E-07
 -1       314-1.72121E+07-1.78345E+07-7.53447E+06-1.25467E+07 4.42553E-07-2.22470E-07
 -1       315-1.86689E+06 2.98000E+07 5.67420E+06 1.05229E+07-3.80023E-07-2.21189E-08
 -1       316 1.41650E+06-9.84292E+06-4.36052E+05-2.51305E+06-1.08834E-06-9.87202E-08
 -1       317-1.71123E+07 2.24490E+07 2.24620E+06-8.86289E+06 9.60426E-07-7.22655E-07
 -1       318-1.07666E+06-1.28225E+07-2.05371E+06-4.24023E+06-9.41684E-07 1.53843E-07
 -1       319 7.25708E+06 3.20497E+07 7.05898E+06 1.66631E+07-1.08143E-07 2.64175E-07
 -1       320-2.26314E+07-1.76764E+07-9.87503E+06-1.28352E+07 1.97673E-07-5.20085E-08
 -1       336-7.43813E+02-1.69568E+06-1.38687E+04 8.93001E+03-2.67228E-08-8.09814E-09
 -1       337-5.41544E+03-1.69523E+06-1.80977E+04-2.16904E+04-4.99476E-08-6.38829E-09
 -1       338 2.78382E+02-1.69516E+06-2.85048E+04 1.25093E+04-3.46554E-08-6.18456E-10
 -1       339-3.02475E+04-1.71249E+06-6.44267E+04-2.87013E+04-6.14928E-08 2.61916E-08
 -1       340 1.99285E+04-1.68060E+06-1.01488E+05 1.58100E+04-4.05198E-08 5.51627E-08
 -1       406-4.96570E+01 3.86565E+05 6.44530E+02 3.35078E+00-1.95747E-09-5.11864E-09
 -1       407 1.54980E+02 3.86699E+05 1.37740E+03 2.34021E+01-3.95723E-10-1.46993E-08
 -1       408 6.35312E+02 3.86464E+05 2.74643E+03-2.70737E+01-2.33831E-09-1.52650E-08
 -1       409 2.90863E+03 3.87576E+05 6.19019E+03 2.89060E+02-1.49157E-10-5.29690E-09
 -1       410 8.48466E+03 3.85674E+05 1.26339E+04-2.78757E+02-2.85218E-09-8.42556E-09
 -1       521-3.17140E+07-7.68948E+06-1.00755E+07-1.13484E+05-6.89179E-08-4.69736E-08
 -1       522 2.62428E+07 4.31900E+06 5.63022E+06-1.87720E+07-5.08124E-07-5.45726E-07
 -1       523-7.52260E+06-1.33848E+06-4.38605E+05 5.66538E+06 1.01514E-07-2.09344E-07
 -1       524-6.73681E+06 1.18413E+07 2.48141E+06-2.37752E+07 7.76592E-07-2.68334E-07
 -1       525-1.34013E+07-2.59207E+06-2.25298E+06 5.68043E+06 5.09375E-07 1.20868E-07
 -1       526 4.21274E+07-8.40430E+04 7.66470E+06-1.14426E+07 2.08209E-07 1.16270E-07
 -1       527-3.38436E+07-8.50134E+06-9.87038E+06-4.92832E+06 5.89062E-08 6.02304E-08
 -1       528 4.96853E+07 1.68410E+07 1.11554E+07 2.71730E+07 4.49363E-07-1.48197E-07
 -1       529-1.81572E+07-2.00627E+07-8.64506E+06-1.25789E+07-1.56462E-07-1.93715E-07
 -1       530-4.35438E+06 3.46301E+07 6.00970E+06 9.96958E+06-5.15865E-07 6.35395E-07
 -1       531 1.42033E+06-1.09182E+07-4.08300E+05-2.45386E+06-9.75284E-07 4.56988E-07
 -1       532-1.96201E+07 2.44629E+07 2.45693E+06-1.31874E+07 6.88538E-07-5.81436E-07
 -1       533-1.11846E+06-1.39816E+07-2.18907E+06-4.04058E+06-1.61148E-07-1.03191E-06
 -1       534 5.25358E+06 3.72261E+07 7.35204E+06 1.72509E+07-5.54137E-08 7.86036E-07
 -1       535-2.38233E+07-2.00904E+07-1.13308E+07-1.29086E+07 9.17353E-08 4.55591E-07
 -1       536-7.06201E+05-4.68056E+04-4.80782E+04-5.47005E+04-5.20640E-09 5.33646E-08
 -1       537-5.48189E+04 4.47528E+04 8.40151E+04 1.23880E+05-1.06590E-07 6.64841E-08
 -1       538-3.94414E+05 3.33882E+03 3.58199E+03-7.22180E+04 2.33941E-08 1.17232E-07
 -1       539-2.69012E+05 2.86362E+03 2.49440E+04 1.38770E+05 1.37827E-07 1.16965E-07
 -1       540-4.97388E+05-4.29918E+02-2.13250E+04-7.01260E+04-2.97919E-08 1.09642E-07
 -1       541 1.46850E+05 1.69793E+04 1.06429E+05 9.79544E+04-3.78129E-08 8.96345E-08
 -1       542-7.99070E+05-2.01424E+04-8.42649E+04-3.05265E+04 4.53606E-08 4.95926E-08
 -1       543 4.05617E+05 2.73351E+04 1.58027E+05-1.33660E+04-4.22224E-08-7.87077E-09
 -1       544-7.49215E+05-1.65427E+04-7.48613E+04 4.05244E+04 2.95313E-09-3.98488E-08
 -1       545 2.91041E+04 9.48686E+03 7.98377E+04-1.13653E+05 2.12831E-08-9.07239E-08
 -1       546-4.32669E+05 6.09795E+03-1.22328E+04 6.94139E+04 1.99013E-08-9.41872E-08
 -1       547-2.87101E+05-4.65681E+03 1.05922E+04-1.41618E+05-7.85027E-08-1.04045E-07
 -1       548-4.41510E+05 4.72036E+03-2.38868E+04 6.91809E+04-9.82075E-08-1.16604E-07
 -1       549 4.82983E+04 1.60863E+04 6.05480E+04-1.11513E+05-6.88678E-08-1.08690E-07
 -1       550-7.59094E+05-2.21556E+04-1.28999E+05 3.85931E+04 6.37101E-09-4.55129E-08
 -1       551 4.08182E+04-7.51779E+05-1.58402E+04-1.24750E+06-1.01631E-07-8.49832E-09
 -1       552 9.33084E+04-7.96768E+05 9.95920E+03-1.77878E+06-7.27305E-08 2.17624E-08
 -1       553 7.17925E+04-7.93174E+05 3.20765E+04-1.24085E+06-1.19297E-07 1.54250E-08
 -1       554 1.32112E+05-8.12657E+05 8.11207E+04-1.78073E+06-7.82311E-08 1.45737E-08
 -1       555 1.01546E+05-8.16828E+05 1.48139E+05-1.24068E+06-1.23502E-07-1.10613E-08
 -1       556 2.23763E+05-3.83750E+05 2.58613E+04-4.07338E+05-2.83180E-08-8.14907E-10
 -1       557 3.54385E+05-4.88131E+05 1.62067E+04-5.27782E+05-6.28643E-09-1.53595E-08
 -1       558 2.05533E+05-3.76560E+05 2.34597E+03-4.11771E+05-1.90630E-08 1.04847E-08
 -1       559 3.29344E+05-4.88212E+05 2.45188E+03-5.48243E+05 2.10712E-08 1.89102E-08
 -1       560 1.90219E+05-3.66957E+05-1.50122E+03-4.22806E+05 2.08092E-08 1.37661E-08
 -1       561 3.10101E+05-4.80511E+05 1.32205E+02-5.61363E+05 6.33008E-09 1.04646E-08
 -1       562 1.78111E+05-3.59435E+05-1.32648E+03-4.31574E+05-5.82077E-10 2.94312E-09
 -1       563 2.95719E+05-4.74241E+05-3.65064E+01-5.70757E+05-7.02130E-09-2.26646E-09
 -1       564 1.69470E+05-3.54051E+05-6.01000E+02-4.37698E+05 1.80444E-09-1.80958E-08
 -1       565 2.86180E+05-4.70086E+05 2.39220E+01-5.76852E+05 1.78479E-08 1.08230E-10
 -1       566 1.64418E+05-3.50855E+05-2.60436E+02-4.41231E+05-3.28146E-09-1.84446E-09
 -1       567 2.81543E+05-4.68070E+05-3.63239E+02-5.79668E+05 9.43692E-09 1.13650E-08
 -1       568 1.63047E+05-3.50015E+05-1.12748E+03-4.42286E+05-3.85626E-09-8.30914E-09
 -1       569 2.80420E+05-4.67997E+05-2.84754E+03-5.78238E+05-1.74623E-10 1.87865E-08
 -1       570 1.66451E+05-3.53253E+05-6.22479E+03-4.41264E+05 7.07951E-09-2.68938E-08
 -1       571 2.90671E+05 1.05135E+04 1.49970E+04-9.53104E+04 7.13499E-09 1.06083E-08
 -1       572 2.92844E+05 3.96363E+03 7.34973E+03-1.04565E+05 2.86127E-09-1.31749E-08
 -1       573 2.91534E+05 1.24769E+03 3.26573E+03-9.51338E+04 1.45883E-09 1.48493E-08
 -1       574 2.91748E+05 7.29074E+02 1.63774E+03-1.04790E+05 6.39284E-09 1.47611E-08
 -1       575 2.91628E+05 4.49597E+02 7.72972E+02-9.51097E+04-2.04295E-10 2.47264E-08
 -1       576 2.91612E+05 4.61059E+02 3.95767E+02-1.04820E+05-5.32714E-09-6.99401E-09
 -1       577 2.91668E+05 3.91402E+02 1.97579E+02-9.51064E+04-8.76480E-09 1.16715E-08
 -1       578 2.91643E+05 4.22878E+02 1.14162E+02-1.04824E+05-1.19130E-08 1.43000E-08
 -1       579 2.91740E+05 3.54564E+02 7.84437E+01-9.51060E+04-2.05873E-08-3.66890E-09
 -1       580 2.91745E+05 3.71662E+02 9.11064E+01-1.04819E+05-6.45441E-08 1.66310E-08
 -1       581 2.91855E+05 2.95776E+02 1.37660E+02-9.51120E+04-1.12450E-08 3.51620E-08
 -1       582 2.91921E+05 3.34121E+02 2.79932E+02-1.04758E+05 2.09111E-08 1.99025E-08
 -1       583 2.91995E+05 3.38223E+02 5.37302E+02-9.51686E+04 7.91260E-09 1.02987E-08
 -1       584 2.92297E+05 7.77088E+02 1.21589E+03-1.04280E+05 2.84672E-09 1.72927E-08
 -1       585 2.92022E+05 1.80034E+03 2.46211E+03-9.55884E+04-1.73895E-09-1.66692E-08
 -1       586-3.42458E+03 1.17028E+05-2.91277E+03-2.50811E+05-5.66070E-09 4.40082E-09
 -1       587-1.34020E+03 1.16780E+05 7.75624E+02-2.76036E+05-6.14818E-09-6.99856E-10
 -1       588 3.97995E+02 1.16586E+05 4.76592E+03-2.50672E+05-4.32374E-09 1.90039E-08
 -1       589 5.08902E+03 1.19063E+05 1.23577E+04-2.75802E+05-3.11229E-09 7.69342E-09
 -1       590 1.66252E+04 1.15251E+05 2.59216E+04-2.51104E+05-5.83714E-09 1.65528E-08
 -1       591-7.50966E+04-1.59837E+04-2.25513E+04-3.19907E+04-3.55499E-09 7.41420E-09
 -1       592-7.91941E+04-1.95406E+04-1.22156E+04-3.56146E+04 3.41355E-09 1.24053E-08
 -1       593-7.73519E+04-1.43474E+04-5.08474E+03-3.36443E+04 1.54068E-09-3.39719E-09
 -1       594-7.60805E+04-1.62314E+04-2.53589E+03-3.57324E+04 4.66487E-09-3.03476E-09
 -1       595-7.75238E+04-1.43420E+04-1.16423E+03-3.37194E+04 7.48358E-10-5.82612E-09
 -1       596-7.58673E+04-1.60800E+04-5.91620E+02-3.57070E+04-5.71120E-10 8.99399E-09
 -1       597-7.75454E+04-1.43574E+04-3.21694E+02-3.37222E+04 9.43203E-10 8.82039E-09
 -1       598-7.58463E+04-1.60741E+04-2.57759E+02-3.56999E+04-1.44803E-08 2.03879E-08
 -1       599-7.75441E+04-1.43579E+04-3.28204E+02-3.37219E+04-4.43367E-09-7.49719E-09
 -1       600-7.58673E+04-1.60806E+04-6.08855E+02-3.57049E+04 4.64377E-09 9.04265E-10
 -1       601-7.75195E+04-1.43434E+04-1.20070E+03-3.37184E+04-1.78966E-09 1.50890E-08
 -1       602-7.60872E+04-1.62355E+04-2.61657E+03-3.57271E+04-8.77662E-09 8.46956E-09
 -1       603-7.73393E+04-1.43518E+04-5.24719E+03-3.36417E+04 6.13909E-10 1.67429E-08
 -1       604-7.93178E+04-1.96307E+04-1.26050E+04-3.55807E+04 4.23290E-09 1.15506E-09
 -1       605-7.49920E+04-1.60582E+04-2.32703E+04-3.19548E+04 5.02109E-09 2.60807E-08
 -1       606 2.66753E+04-1.43388E+04-2.57046E+04 2.39628E+04 5.25688E-09-1.05945E-08
 -1       607 2.22832E+04-4.68305E+03-1.28008E+04 2.69293E+04 1.37879E-09-5.17139E-09
 -1       608 2.47864E+04-8.44826E+02-5.73048E+03 2.37944E+04-1.98270E-10 4.94038E-09
 -1       609 2.43066E+04-2.89472E+02-2.89489E+03 2.71431E+04 5.17321E-09 1.66183E-08
 -1       610 2.45728E+04-4.10583E+01-1.38118E+03 2.37744E+04 7.67432E-09 1.08057E-08
 -1       611 2.44975E+04-4.13643E+01-6.96379E+02 2.71662E+04 1.03073E-08-1.29035E-09
 -1       612 2.45257E+04-2.73787E+01-3.31034E+02 2.37723E+04 1.97542E-09-2.52885E-09
 -1       613 2.45091E+04-3.73065E+01-1.48305E+02 2.71689E+04 1.19144E-10-1.57083E-08
 -1       614 2.45036E+04-3.38342E+01-3.46787E+01 2.37716E+04 2.02635E-09 2.86263E-09
 -1       615 2.45039E+04-3.58443E+01 6.23953E+01 2.71693E+04-3.63798E-09 1.50039E-08
 -1       616 2.44862E+04-3.07312E+01 1.86885E+02 2.37719E+04 5.98902E-10-3.72552E-09
 -1       617 2.45264E+04 3.95401E+00 4.26300E+02 2.71689E+04-2.37378E-10-1.57956E-09
 -1       618 2.44492E+04 9.21420E+01 8.59245E+02 2.37722E+04-5.95719E-10 1.45933E-08
 -1       619 2.48298E+04 6.68305E+02 1.92948E+03 2.71682E+04-3.07080E-09 2.97496E-09
 -1       620 2.41639E+04 2.12962E+03 3.87819E+03 2.37738E+04-3.15481E-10 8.17499E-09
 -1       621 5.11638E+02 3.01619E+05 3.88795E+03 4.11245E+04 9.84528E-10-4.44197E-09
 -1       622 6.78235E+02 3.02516E+05 3.45026E+03 5.97034E+04 1.31786E-09 2.60343E-09
 -1       623 1.43374E+02 3.01813E+05 4.14564E+03 4.09385E+04 1.27216E-09-4.82578E-09
 -1       624 2.12893E+03 3.03734E+05 8.03649E+03 5.98865E+04 1.37902E-09-9.57971E-09
 -1       625 2.07980E+03 3.00219E+05 1.40433E+04 4.09353E+04 1.48066E-09-9.51195E-09
 -1       626 2.61037E+05 6.14223E+04 5.12288E+03 1.26782E+05 6.45741E-10-4.68754E-09
 -1       627 2.58720E+05 6.28174E+04 2.46868E+03 1.31054E+05 5.56429E-09 1.84792E-08
 -1       628 2.61165E+05 5.90786E+04 1.04407E+03 1.27653E+05-6.82303E-09 2.50247E-09
 -1       629 2.58085E+05 6.21367E+04 5.11020E+02 1.31294E+05-6.17820E-09-2.62962E-08
 -1       630 2.61179E+05 5.89653E+04 2.37154E+02 1.27690E+05-4.48426E-09-5.10977E-09
 -1       631 2.58018E+05 6.21108E+04 1.27755E+02 1.31296E+05 6.18343E-09-2.31514E-08
 -1       632 2.61175E+05 5.89692E+04 8.43023E+01 1.27686E+05 9.99808E-09-8.29937E-09
 -1       633 2.58010E+05 6.21126E+04 9.42755E+01 1.31292E+05 5.55315E-09 1.28603E-08
 -1       634 2.61171E+05 5.89664E+04 1.52673E+02 1.27685E+05-1.54918E-08-1.39946E-08
 -1       635 2.58024E+05 6.21108E+04 3.09129E+02 1.31298E+05-2.56929E-08 1.40653E-08
 -1       636 2.61162E+05 5.89605E+04 6.24389E+02 1.27685E+05-6.60748E-10 8.77935E-09
 -1       637 2.58160E+05 6.22079E+04 1.37294E+03 1.31297E+05 2.03386E-08-2.75850E-09
 -1       638 2.61113E+05 5.92638E+04 2.82090E+03 1.27548E+05 8.48786E-09-1.12623E-08
 -1       639 2.59641E+05 6.42688E+04 6.67440E+03 1.30861E+05 1.00954E-09 1.89432E-08
 -1       640 2.60908E+05 6.54180E+04 1.38505E+04 1.24955E+05 9.64837E-09 5.93218E-09
 -1       656 6.66144E+04-1.70488E+06-1.60803E+05-2.56247E+03-9.96806E-10-1.39586E-08
 -1       657-8.81255E+04-1.77754E+06-1.33217E+05 5.15523E+03-1.58980E-09-2.04585E-08
 -1       658 2.12347E+04-1.72551E+06-8.20459E+04-4.64796E+03 2.58979E-10 7.38459E-09
 -1       659-9.52973E+04-1.78095E+06-1.42642E+05 6.88881E+03-1.28057E-09 6.86823E-09
 -1       660 7.37703E+04-1.70148E+06-1.77007E+05-4.29604E+03-2.04454E-09 2.18955E-08
 -1       661 1.58455E+05 1.65787E+04 1.67104E+04 6.19439E+04 1.05774E-09-1.18780E-09
 -1       662 1.67905E+05 2.89509E+04 1.12617E+04 5.81915E+04-2.64095E-10-3.20656E-08
 -1       663 1.61737E+05 2.19396E+04 3.93861E+03 6.09913E+04 2.38083E-09-9.36461E-09
 -1       664 1.64099E+05 2.26816E+04 2.35612E+03 5.93551E+04-2.87343E-11 1.20931E-08
 -1       665 1.62235E+05 2.26718E+04 9.29472E+02 6.08460E+04 7.17762E-10 1.14482E-08
 -1       666 1.63510E+05 2.18444E+04 5.44080E+02 5.95447E+04 1.07749E-08 5.92461E-10
 -1       667 1.62322E+05 2.27551E+04 2.89191E+02 6.08095E+04-1.11413E-10 7.26806E-09
 -1       668 1.63414E+05 2.17846E+04 2.95132E+02 5.95977E+04-3.03990E-09 1.75699E-08
 -1       669 1.62330E+05 2.27299E+04 3.99948E+02 6.07933E+04-1.52701E-09 2.96870E-08
 -1       670 1.63511E+05 2.20019E+04 8.71249E+02 5.96006E+04-7.80213E-09-8.01356E-09
 -1       671 1.62225E+05 2.25423E+04 1.54709E+03 6.08046E+04-2.82050E-10 9.66111E-10
 -1       672 1.64413E+05 2.35070E+04 3.95828E+03 5.93821E+04 1.14670E-08 4.50314E-09
 -1       673 1.61433E+05 2.12629E+04 6.63349E+03 6.09972E+04 3.62081E-09 7.72570E-09
 -1       674 1.70726E+05 3.41644E+04 1.89704E+04 5.75274E+04-5.23187E-09 4.28258E-09
 -1       675 1.55952E+05 1.21834E+04 2.81587E+04 6.25474E+04-3.61069E-09 8.58563E-09
 -1       676 2.41198E+01-2.96002E+05-1.11381E+03-1.37689E+02-3.50752E-10 1.06402E-09
 -1       677-2.94626E+02-2.96271E+05-2.03847E+03 2.75156E+02 9.86384E-09-6.72863E-09
 -1       678 1.97614E+02-2.95810E+05-3.60351E+03-1.37377E+02 1.70030E-09-9.63045E-09
 -1       679-3.60356E+03-2.98446E+05-8.56044E+03 2.73967E+02 7.43967E-09 9.64220E-09
 -1       680 2.15154E+03-2.93827E+05-1.37965E+04-1.34982E+02 1.48611E-09-2.44267E-08
 -1       771-3.06338E+06-7.47523E+05-1.65864E+05-1.46643E+06-3.44880E-08-3.42261E-08
 -1       772-2.98621E+06-8.36383E+05-8.55120E+04-1.56917E+06-2.28902E-08 8.03993E-09
 -1       773-3.09487E+06-7.22963E+05-4.35976E+04-1.48097E+06-8.03266E-09 1.31113E-08
 -1       774-2.97670E+06-8.17866E+05-1.94498E+04-1.59495E+06 2.44327E-08-1.71349E-09
 -1       775-3.11133E+06-7.11416E+05-1.45527E+04-1.48803E+06 2.21189E-09-2.05910E-09
 -1       776-2.98906E+06-8.14829E+05-5.44149E+03-1.61446E+06 3.92902E-10 3.65981E-09
 -1       777-3.12561E+06-7.01108E+05-6.43139E+03-1.49426E+06 6.66478E-09 3.60887E-09
 -1       778-3.00196E+06-8.12004E+05-1.81814E+03-1.63123E+06 8.26549E-09 5.96992E-09
 -1       779-3.13789E+06-6.92102E+05-3.21448E+03-1.49958E+06-7.81438E-09-9.40781E-09
 -1       780-3.01332E+06-8.09309E+05-5.33142E+02-1.64488E+06-9.19681E-09-9.11859E-09
 -1       781-3.14765E+06-6.84840E+05-1.24918E+03-1.50374E+06-2.28029E-08-7.38328E-09
 -1       782-3.02208E+06-8.07020E+05 4.49502E+02-1.65496E+06-3.69328E-08-9.42055E-09
 -1       783-3.15453E+06-6.79794E+05 6.99369E+02-1.50665E+06-6.76664E-09-1.83068E-08
 -1       784-3.02693E+06-8.04734E+05 2.90145E+03-1.66118E+06-1.71713E-08 2.53658E-09
 -1       785-3.15860E+06-6.76785E+05 5.12174E+03-1.50850E+06-3.90428E-08 4.60204E-09
 -1       786 1.23606E+05-9.76788E+03 2.25989E+04-3.22490E+02 2.79201E-09-7.50879E-09
 -1       787 1.33408E+05 1.13090E+04 1.59878E+04-1.35690E+02 7.33587E-09 1.28352E-09
 -1       788 1.27385E+05-1.53065E+03 5.84683E+03-2.87355E+02 3.14666E-09-5.62977E-09
 -1       789 1.29005E+05 1.77169E+03 3.67043E+03-1.89521E+02 7.77901E-10-1.01476E-08
 -1       790 1.28009E+05-2.38316E+02 1.48610E+03-2.68677E+02-5.51179E-09-2.04216E-09
 -1       791 1.28276E+05 2.75739E+02 8.58342E+02-2.21476E+02-7.94648E-09 8.17943E-09
 -1       792 1.28115E+05-3.58146E+01 3.63743E+02-2.55402E+02-6.06732E-09 8.58337E-09
 -1       793 1.28149E+05 3.78500E+01 1.81360E+02-2.46440E+02-3.61884E-11-1.93725E-08
 -1       794 1.28136E+05-5.77873E-01 4.71839E+01-2.43713E+02 4.38135E-09 6.21787E-09
 -1       795 1.28112E+05-2.74339E+01-5.77066E+01-2.70816E+02-5.84187E-09 2.30001E-08
 -1       796 1.28152E+05 2.94327E+01-1.62623E+02-2.31025E+02 4.98735E-09 2.15805E-09
 -1       797 1.28017E+05-2.19733E+02-4.46434E+02-2.99940E+02 3.50258E-09-2.15022E-08
 -1       798 1.28231E+05 1.91577E+02-7.25009E+02-2.14589E+02 1.57332E-09 1.73295E-08
 -1       799 1.27467E+05-1.41209E+03-1.99460E+03-3.40625E+02 5.95018E-09 1.75140E-08
 -1       800 1.28702E+05 1.22082E+03-2.82276E+03-1.90341E+02 2.23746E-10 1.12133E-08
 -1       801-1.71112E+05-9.99434E+06-1.39291E+06 1.41449E+06 9.01637E-08-5.62541E-08
 -1       802 7.37742E+05 5.94411E+06 2.18017E+06-1.74608E+06 2.62349E-07-1.94850E-08
 -1       803-5.36278E+05-1.42589E+07-1.88915E+06 8.97819E+05 7.74780E-08 1.31949E-08
 -1       804 2.86963E+05 2.39005E+06 1.53605E+06 6.76722E+05-1.20548E-07-1.00444E-07
 -1       805 1.89241E+05-6.45439E+06-2.85970E+05-1.00266E+06-4.98840E-08-7.07905E-08
 -1       806-3.09022E+05-5.97756E+04-2.28612E+04-1.22449E+05-3.66208E-09-1.05301E-08
 -1       807-3.10821E+05-5.60437E+04-1.12315E+04-1.27996E+05 2.16687E-08-5.81485E-09
 -1       808-3.09650E+05-5.15366E+04-4.76475E+03-1.26343E+05 2.93676E-09-1.86446E-11
 -1       809-3.08459E+05-5.28878E+04-2.32984E+03-1.28271E+05-9.99898E-09 2.15239E-08
 -1       810-3.09744E+05-5.12498E+04-1.06790E+03-1.26516E+05 5.03360E-09 5.60999E-09
 -1       811-3.08277E+05-5.27610E+04-5.31087E+02-1.28236E+05 3.90946E-09 1.49212E-08
 -1       812-3.09758E+05-5.12745E+04-2.68683E+02-1.26515E+05 3.62888E-10 5.88989E-09
 -1       813-3.08251E+05-5.27632E+04-1.74752E+02-1.28217E+05-2.54749E-09-1.22554E-10
 -1       814-3.09751E+05-5.12842E+04-1.73402E+02-1.26511E+05 1.99634E-09 5.30554E-09
 -1       815-3.08255E+05-5.27654E+04-2.79574E+02-1.28210E+05 1.39744E-09 3.30579E-08
 -1       816-3.09730E+05-5.12833E+04-5.30012E+02-1.26507E+05 4.92219E-09 2.79715E-08
 -1       817-3.08345E+05-5.28160E+04-1.13752E+03-1.28198E+05-1.17943E-08 7.35577E-09
 -1       818-3.09661E+05-5.14439E+04-2.32016E+03-1.26431E+05-1.49248E-09 7.07132E-09
 -1       819-3.09615E+05-5.42176E+04-5.45916E+03-1.27897E+05 6.86305E-09-1.37597E-08
 -1       820-3.09223E+05-5.55680E+04-1.11114E+04-1.24670E+05 2.98769E-09-1.53921E-08
 -1       821-3.79099E+05 2.08761E+04-4.86001E+04 2.13692E+03 1.44205E-08-3.61251E-09
 -1       822-3.98793E+05-2.41840E+04-3.41517E+04-4.48582E+03 5.51911E-09 1.44055E-08
 -1       823-3.86558E+05 3.29104E+03-1.25526E+04 3.45805E+03-1.17044E-08 1.34237E-08
 -1       824-3.89786E+05-3.79507E+03-7.85659E+03-5.40829E+03 2.50823E-09 1.11021E-08
 -1       825-3.88113E+05 5.11479E+02-3.29068E+03 3.05950E+03 1.97278E-08 7.27130E-09
 -1       826-3.87343E+05-5.67088E+02-1.74214E+03-3.12270E+03 2.58742E-08 1.17626E-09
 -1       827-3.88976E+05 4.62836E+01-1.19262E+03 1.17232E+03 1.20099E-08 2.14308E-09
 -1       828-3.86629E+05-1.31336E+02-5.82282E+02 1.09830E+03-5.55281E-09-1.12150E-08
 -1       829-3.88813E+05 6.55059E+01-1.18127E+03-1.16153E+03 1.12243E-09 8.44494E-09
 -1       830-3.87695E+05-6.22152E+02-1.88098E+03 4.91406E+03 1.12119E-09-5.25063E-09
 -1       831-3.87933E+05 5.54950E+02-3.37235E+03-2.64346E+03-7.73543E-09 4.94538E-09
 -1       832-3.89866E+05-3.96218E+03-8.15968E+03 6.20557E+03-5.43407E-09 3.88854E-09
 -1       833-3.86658E+05 3.41525E+03-1.30573E+04-2.45309E+03-1.89253E-09-8.93033E-09
 -1       834-3.98851E+05-2.50987E+04-3.53756E+04 4.22133E+03-3.52489E-09 2.79397E-09
 -1       835-3.78931E+05 2.16583E+04-5.04729E+04-6.59138E+02 4.84431E-09 8.22547E-09
 -1       836-1.41491E+03 3.70435E+05 2.29237E+04-1.61225E+04-7.09770E-09 3.43744E-09
 -1       837 4.88661E+03 3.77615E+05 1.93936E+04-3.29493E+04-7.73372E-09-8.82028E-09
 -1       838-5.58361E+02 3.72449E+05 1.97540E+04-1.60510E+04-6.32463E-09 1.49346E-08
 -1       839 1.24294E+04 3.83233E+05 3.73629E+04-3.30019E+04-7.03858E-09 1.08516E-08
 -1       840-3.84290E+03 3.64758E+05 5.95776E+04-1.60758E+04-6.41376E-09-4.24920E-09
 -1       856-5.20706E+04 8.02405E+03-2.11451E+04-3.97573E+02 3.99598E-09 4.94219E-09
 -1       857-6.07819E+04-9.42804E+03-1.45561E+04 5.63499E+03 2.21755E-09 1.01566E-08
 -1       858-5.55205E+04 1.12530E+03-5.48664E+03-4.21654E+02 4.00519E-09 8.18500E-09
 -1       859-5.68228E+04-1.32391E+03-3.31092E+03 5.67081E+03-6.63874E-10-7.47741E-09
 -1       860-5.60359E+04 1.57597E+02-1.38758E+03-4.33118E+02-1.29759E-09-5.36085E-09
 -1       861-5.62299E+04-1.88171E+02-7.63282E+02 5.68642E+03-4.63442E-09 5.93786E-10
 -1       862-5.61165E+04 2.13492E+01-3.17176E+02-4.37244E+02-1.00193E-09-1.66733E-08
 -1       863-5.61311E+04-2.18603E+01-1.15287E+02 5.68882E+03-6.33363E-09-2.23517E-08
 -1       864-5.61353E+04-4.92893E+00 4.77626E+01-4.35515E+02-1.47844E-09-2.16666E-08
 -1       865-5.60752E+04 5.98607E+01 2.56482E+02 5.67894E+03-5.29099E-09 7.52616E-09
 -1       866-5.61702E+04-6.03862E+01 5.16598E+02-4.27363E+02-2.32222E-09-1.88356E-09
 -1       867-5.58323E+04 4.98652E+02 1.27137E+03 5.65681E+03-2.49372E-09-5.55983E-09
 -1       868-5.63732E+04-4.35790E+02 2.11260E+03-4.13385E+02-2.74736E-09 7.78073E-10
 -1       869-5.42835E+04 3.62692E+03 5.62506E+03 5.62040E+03 3.66910E-09-7.69910E-09
 -1       870-5.77112E+04-3.10368E+03 8.16324E+03-3.90850E+02-4.63581E-09 1.55205E-09
 -1       871-5.52170E+03-2.13725E+04-1.95045E+04 1.30520E+05-4.51655E-09-4.12729E-09
 -1       872-1.98273E+03-2.59081E+04-8.16756E+03 1.69239E+05-1.09258E-08-1.62322E-08
 -1       873 4.06119E+02-2.37142E+04 5.88818E+02 1.30233E+05-5.88716E-09 1.42518E-09
 -1       874 3.30850E+03-2.13026E+04 9.78303E+03 1.69268E+05-1.06293E-08 9.00855E-09
 -1       875 6.85011E+03-2.60448E+04 2.20708E+04 1.30472E+05-6.02813E-09 1.27366E-08
 -1       876 2.93902E+05 4.95301E+04 1.51049E+04 1.17938E+05 6.98537E-09-8.13725E-09
 -1       877 2.94901E+05 5.27108E+04 8.06662E+03 1.22271E+05 8.80937E-09-3.95357E-09
 -1       878 2.95314E+05 4.78568E+04 3.37951E+03 1.19176E+05-7.83530E-09-4.93310E-09
 -1       879 2.92848E+05 5.06617E+04 1.68389E+03 1.22373E+05-7.06586E-09 1.43309E-08
 -1       880 2.95416E+05 4.78396E+04 7.84336E+02 1.19226E+05-1.92560E-08-2.05246E-08
 -1       881 2.92711E+05 5.05740E+04 4.18874E+02 1.22349E+05-6.37374E-09-1.44100E-08
 -1       882 2.95425E+05 4.78528E+04 2.68014E+02 1.19228E+05-4.57021E-11 1.66319E-08
 -1       883 2.92702E+05 5.05694E+04 2.88199E+02 1.22342E+05-1.00349E-08 3.62517E-08
 -1       884 2.95418E+05 4.78500E+04 4.58521E+02 1.19228E+05 8.07609E-09 2.54851E-08
 -1       885 2.92738E+05 5.05758E+04 9.21922E+02 1.22353E+05-1.03984E-09-1.49809E-08
 -1       886 2.95382E+05 4.78231E+04 1.85811E+03 1.19224E+05-4.32133E-09 1.30831E-08
 -1       887 2.93065E+05 5.07899E+04 4.05879E+03 1.22400E+05 7.56438E-09 3.30801E-08
 -1       888 2.95126E+05 4.78683E+04 8.17858E+03 1.19094E+05-2.34323E-10-1.65037E-08
 -1       889 2.97934E+05 5.58534E+04 1.95371E+04 1.22251E+05-3.51166E-09-1.51790E-08
 -1       890 2.91788E+05 5.18337E+04 3.65926E+04 1.15982E+05 1.01909E-09 1.06083E-08
 -1       891-8.92936E+01-1.62835E+05-1.99761E+03 2.71512E+04-1.55433E-09 1.06386E-08
 -1       892-1.75283E+02-1.63362E+05-2.14528E+03 4.12310E+04-2.22826E-11 1.04390E-08
 -1       893 4.38557E+01-1.62899E+05-3.03728E+03 2.71586E+04-1.18825E-09-1.28875E-09
 -1       894-1.51050E+03-1.64510E+05-6.28588E+03 4.10784E+04 1.86810E-09-3.96176E-09
 -1       895-1.19963E+03-1.61589E+05-1.10693E+04 2.73056E+04-2.58467E-09-1.55442E-08
 -1       956-3.77410E+05-5.45255E+03-1.34599E+04 3.08879E+04 6.49197E-09-1.25012E-08
 -1       957-3.80051E+05-1.92346E+03-6.90874E+03 3.71191E+04 1.03091E-09-1.58043E-08
 -1       958-3.78619E+05-2.41016E+02-3.11330E+03 3.07200E+04-5.08589E-09-6.73253E-09
 -1       959-3.78816E+05-1.36277E+02-1.58970E+03 3.73149E+04 5.63341E-09-1.41088E-08
 -1       960-3.78737E+05-4.47830E+01-7.75214E+02 3.07028E+04 7.27687E-09-1.12905E-08
 -1       961-3.78736E+05-6.31920E+01-4.11009E+02 3.73353E+04 1.73386E-08 1.27011E-09
 -1       962-3.78765E+05-4.60008E+01-2.35314E+02 3.06999E+04 7.86804E-09 2.42812E-09
 -1       963-3.78736E+05-5.89945E+01-1.88903E+02 3.73390E+04 1.44701E-09 7.71456E-09
 -1       964-3.78771E+05-4.26458E+01-2.29728E+02 3.06991E+04 6.83229E-10-1.06111E-08
 -1       965-3.78748E+05-5.60393E+01-3.97340E+02 3.73382E+04 1.65528E-09-2.07833E-08
 -1       966-3.78754E+05-3.48124E+01-7.46598E+02 3.07006E+04 8.27504E-09-1.37607E-09
 -1       967-3.78838E+05-1.19636E+02-1.53126E+03 3.73239E+04 7.72843E-10-1.02989E-08
 -1       968-3.78650E+05-2.17431E+02-2.99766E+03 3.07133E+04 2.79215E-09-1.42178E-08
 -1       969-3.80039E+05-1.83551E+03-6.65471E+03 3.71752E+04 5.69480E-09-1.32489E-08
 -1       970-3.77493E+05-5.23337E+03-1.29638E+04 3.08406E+04-1.24510E-09 1.74350E-08
 -1       971-3.45534E+05-1.72792E+03-9.31223E+03 1.53812E+04 1.00636E-08-3.40037E-10
 -1       972-3.47776E+05-1.27211E+03-5.07135E+03 2.12720E+04 1.55560E-08-6.93717E-09
 -1       973-3.46572E+05-6.20656E+01-2.27151E+03 1.52600E+04 8.94397E-09-3.82533E-09
 -1       974-3.46707E+05-8.11214E+01-1.17748E+03 2.14091E+04-6.17820E-09 4.82055E-09
 -1       975-3.46654E+05-1.71783E+01-5.89049E+02 1.52477E+04-7.60792E-10 1.14801E-09
 -1       976-3.46645E+05-3.12643E+01-3.40693E+02 2.14249E+04 1.16991E-08-6.26778E-09
 -1       977-3.46670E+05-1.64310E+01-2.48796E+02 1.52443E+04-1.59707E-09-3.30044E-09
 -1       978-3.46651E+05-2.50367E+01-2.93227E+02 2.14297E+04-3.79987E-09 2.51866E-08
 -1       979-3.46670E+05-7.94849E+00-4.72913E+02 1.52428E+04 3.51935E-09 8.14464E-09
 -1       980-3.46686E+05-2.19737E+01-9.14258E+02 2.14307E+04-8.29715E-10-1.31970E-08
 -1       981-3.46641E+05 1.49044E+01-1.77129E+03 1.52433E+04 6.04291E-09-9.05345E-09
 -1       982-3.46929E+05-1.52852E+02-3.66156E+03 2.14241E+04 1.38680E-08-8.84228E-09
 -1       983-3.46418E+05-9.85153E+01-7.11460E+03 1.52494E+04 6.00176E-09-5.02087E-09
 -1       984-3.50351E+05-3.86859E+03-1.59329E+04 2.13384E+04-4.20005E-09 1.62116E-08
 -1       985-3.43197E+05-5.30453E+03-2.92578E+04 1.53208E+04-6.00994E-09 4.91309E-09
 -3
    1PSTEP                        35          18           1          
  100CL  118 6.63143E-01         409                     0   18           1
 -4  DISP        4    1
 -5  D1          1    2    1    0
 -5  D2          1    2    2    0
 -5  D3          1    2    3    0
 -5  ALL         1    2    0    0    1ALL
 -1         1 2.71648E-03 0.00000E+00 0.00000E+00
 -1         2 1.36067E-03 4.01846E-29-5.29396E-23
 -1         3 3.42718E-04-5.72429E-28-1.32349E-23
 -1         5 1.77139E-04-1.66830E-27-1.65436E-24
 -1         8 2.70548E-03-4.07920E-07 0.00000E+00
 -1         9 2.69886E-03-1.88389E-04 0.00000E+00
 -1        10 3.10755E-04-3.40969E-06-6.61744E-24
 -1        12 1.78984E-04 8.09568E-07 4.13590E-25
 -1        15 2.69288E-03-4.32057E-07 0.00000E+00
 -1        16 2.76409E-03-1.90196E-04 0.00000E+00
 -1        17 2.11482E-04-7.77506E-06 0.00000E+00
 -1        18 1.82929E-04 3.44071E-05 0.00000E+00
 -1        19 1.84522E-04 1.61272E-06 0.00000E+00
 -1        20 1.84662E-04-9.86270E-06 0.00000E+00
 -1        21 1.83769E-04-2.53820E-05 0.00000E+00
 -1        24 3.06239E-05-1.20016E-05 0.00000E+00
 -1        25 1.93708E-04 3.46330E-05 0.00000E+00
 -1        26 1.94388E-04 2.23315E-06 0.00000E+00
 -1        27 1.92187E-04-1.34227E-05 0.00000E+00
 -1        28 1.91871E-04-2.60043E-05 0.00000E+00
 -1        32 0.00000E+00 0.00000E+00 0.00000E+00
 -1        33 2.03251E-04 2.98732E-06 0.00000E+00
 -1        34 2.01132E-04-1.34789E-05 0.00000E+00
 -1        35 1.99199E-04-2.63469E-05 0.00000E+00
 -1        51 2.71574E-03-8.53294E-08 0.00000E+00
 -1        52 2.71439E-03-1.52298E-07 0.00000E+00
 -1        53 2.71256E-03-2.15813E-07 0.00000E+00
 -1        54 2.71038E-03-2.78115E-07 0.00000E+00
 -1        55 2.70797E-03-3.40968E-07 2.48154E-24
 -1        56 2.70892E-03 8.15628E-06 5.29396E-23
 -1        57 2.69425E-03 3.38746E-05 0.00000E+00
 -1        58 2.67466E-03 7.16142E-05 1.05879E-22
 -1        59 2.65280E-03 1.14683E-04 5.29396E-23
 -1        60 2.63189E-03 1.55477E-04 0.00000E+00
 -1        61 2.61502E-03 1.86574E-04-5.29396E-23
 -1        62 2.60432E-03 2.02286E-04 1.05879E-22
 -1        63 2.60116E-03 1.98297E-04 0.00000E+00
 -1        64 2.60537E-03 1.73905E-04-1.05879E-22
 -1        65 2.61611E-03 1.30334E-04-5.29396E-23
 -1        66 2.63149E-03 7.24433E-05 0.00000E+00
 -1        67 2.64938E-03 6.49502E-06-5.29396E-23
 -1        68 2.66735E-03-5.96891E-05 0.00000E+00
 -1        69 2.68297E-03-1.18258E-04-5.29396E-23
 -1        70 2.69407E-03-1.62837E-04 5.29396E-23
 -1        86 1.44481E-03-5.98142E-06 0.00000E+00
 -1        87 1.68834E-03-3.74883E-05 0.00000E+00
 -1        88 2.01578E-03-9.16010E-05-2.64698E-23
 -1        89 2.34756E-03-1.47183E-04 0.00000E+00
 -1        90 2.60161E-03-1.81193E-04 0.00000E+00
 -1       121 3.41821E-04-5.50536E-07-1.32349E-23
 -1       122 3.39132E-04-1.10416E-06-6.61744E-24
 -1       123 3.34661E-04-1.66392E-06 0.00000E+00
 -1       124 3.28424E-04-2.23285E-06 0.00000E+00
 -1       125 3.20446E-04-2.81360E-06-1.32349E-23
 -1       191 1.77190E-04 1.34992E-07-2.48154E-24
 -1       192 1.77344E-04 2.69972E-07-1.24077E-24
 -1       193 1.77600E-04 4.04932E-07-1.65436E-24
 -1       194 1.77959E-04 5.39860E-07-1.24077E-24
 -1       195 1.78420E-04 6.74743E-07 8.27181E-25
 -1       251 2.70518E-03 1.69414E-06 6.61744E-24
 -1       252 2.70487E-03 3.70957E-06 0.00000E+00
 -1       253 2.70457E-03 4.65685E-06 0.00000E+00
 -1       254 2.70426E-03 3.56780E-06 3.30872E-24
 -1       255 2.70394E-03-2.15413E-07 0.00000E+00
 -1       256 2.70361E-03-7.31672E-06-3.30872E-24
 -1       257 2.70325E-03-1.78547E-05 0.00000E+00
 -1       258 2.70285E-03-3.19044E-05 0.00000E+00
 -1       259 2.70240E-03-4.90070E-05 0.00000E+00
 -1       260 2.70191E-03-6.86643E-05-6.61744E-24
 -1       261 2.70138E-03-8.99892E-05 1.32349E-23
 -1       262 2.70084E-03-1.12074E-04-6.61744E-24
 -1       263 2.70030E-03-1.33896E-04 1.32349E-23
 -1       264 2.69979E-03-1.54434E-04 0.00000E+00
 -1       265 2.69931E-03-1.72864E-04 1.32349E-23
 -1       266 2.70338E-03-4.17656E-07 0.00000E+00
 -1       267 2.70128E-03-4.20981E-07 0.00000E+00
 -1       268 2.69918E-03-4.24716E-07-8.27181E-25
 -1       269 2.69708E-03-4.27245E-07-2.06795E-25
 -1       270 2.69498E-03-4.29747E-07-2.06795E-25
 -1       271 2.70461E-03 1.33669E-07-1.32349E-23
 -1       272 2.70467E-03-1.89713E-06 0.00000E+00
 -1       273 2.70564E-03-6.34956E-06 0.00000E+00
 -1       274 2.70744E-03-1.30610E-05-1.32349E-23
 -1       275 2.71000E-03-2.18482E-05 0.00000E+00
 -1       276 2.71324E-03-3.25128E-05 1.32349E-23
 -1       277 2.71709E-03-4.48404E-05-2.64698E-23
 -1       278 2.72145E-03-5.86037E-05 0.00000E+00
 -1       279 2.72625E-03-7.35639E-05 0.00000E+00
 -1       280 2.73138E-03-8.94721E-05 0.00000E+00
 -1       281 2.73677E-03-1.06072E-04 0.00000E+00
 -1       282 2.74230E-03-1.23101E-04 6.61744E-24
 -1       283 2.74790E-03-1.40295E-04-1.32349E-23
 -1       284 2.75346E-03-1.57385E-04 6.61744E-24
 -1       285 2.75889E-03-1.74107E-04 0.00000E+00
 -1       301 2.71072E-03-1.88724E-04 0.00000E+00
 -1       302 2.72095E-03-1.89013E-04 0.00000E+00
 -1       303 2.73046E-03-1.89292E-04 1.32349E-23
 -1       304 2.74021E-03-1.89572E-04-6.61744E-24
 -1       305 2.75111E-03-1.89866E-04 0.00000E+00
 -1       306 2.73677E-03-3.43043E-04 0.00000E+00
 -1       307 2.80064E-03-7.57261E-04 5.29396E-23
 -1       308 2.84729E-03-1.36276E-03 0.00000E+00
 -1       309 2.87109E-03-2.06346E-03 0.00000E+00
 -1       310 2.90237E-03-2.73356E-03 0.00000E+00
 -1       311 2.96185E-03-3.24994E-03 0.00000E+00
 -1       312 3.01968E-03-3.53197E-03 2.11758E-22
 -1       313 3.01491E-03-3.54184E-03 5.29396E-23
 -1       314 2.87366E-03-3.29166E-03-1.05879E-22
 -1       315 2.55503E-03-2.84599E-03 0.00000E+00
 -1       316 2.07744E-03-2.28152E-03 1.05879E-22
 -1       317 1.50692E-03-1.66757E-03-5.29396E-23
 -1       318 9.57876E-04-1.06473E-03 1.05879E-22
 -1       319 5.38355E-04-5.38003E-04 0.00000E+00
 -1       320 2.92149E-04-1.61531E-04-1.05879E-22
 -1       336 2.99166E-04-4.06874E-06 1.32349E-23
 -1       337 2.85500E-04-4.75348E-06 6.61744E-24
 -1       338 2.69821E-04-5.46613E-06-1.32349E-23
 -1       339 2.52202E-04-6.20750E-06-6.61744E-24
 -1       340 2.32725E-04-6.98207E-06 0.00000E+00
 -1       406 1.79651E-04 9.44316E-07 2.48154E-24
 -1       407 1.80420E-04 1.07895E-06-1.24077E-24
 -1       408 1.81292E-04 1.21342E-06-8.27181E-25
 -1       409 1.82267E-04 1.34755E-06-4.13590E-25
 -1       410 1.83344E-04 1.48107E-06-2.89513E-24
 -1       521 2.80259E-03-3.54135E-04 0.00000E+00
 -1       522 2.86468E-03-7.88638E-04-5.29396E-23
 -1       523 2.90486E-03-1.42200E-03 0.00000E+00
 -1       524 2.91941E-03-2.15138E-03 0.00000E+00
 -1       525 2.94277E-03-2.84814E-03 0.00000E+00
 -1       526 2.99868E-03-3.38660E-03 0.00000E+00
 -1       527 3.05608E-03-3.67924E-03-2.11758E-22
 -1       528 3.04901E-03-3.68731E-03 5.29396E-23
 -1       529 2.89570E-03-3.42293E-03-2.11758E-22
 -1       530 2.55300E-03-2.95864E-03 5.29396E-23
 -1       531 2.04016E-03-2.37493E-03-1.05879E-22
 -1       532 1.42965E-03-1.74371E-03 0.00000E+00
 -1       533 8.41289E-04-1.12294E-03-1.05879E-22
 -1       534 3.88319E-04-5.75282E-04 5.29396E-23
 -1       535 1.20817E-04-1.79217E-04 2.11758E-22
 -1       536 2.10727E-04 2.71469E-05 0.00000E+00
 -1       537 2.08810E-04 8.75815E-05-1.65436E-24
 -1       538 2.05846E-04 1.64263E-04-3.30872E-24
 -1       539 2.02351E-04 2.47842E-04 0.00000E+00
 -1       540 1.99206E-04 3.26817E-04-3.30872E-24
 -1       541 1.97161E-04 3.89709E-04-1.65436E-24
 -1       542 1.96218E-04 4.29768E-04 0.00000E+00
 -1       543 1.95993E-04 4.40389E-04 0.00000E+00
 -1       544 1.95671E-04 4.22346E-04 0.00000E+00
 -1       545 1.94499E-04 3.76633E-04 0.00000E+00
 -1       546 1.92314E-04 3.11376E-04 0.00000E+00
 -1       547 1.89357E-04 2.34822E-04 0.00000E+00
 -1       548 1.86427E-04 1.58644E-04 3.30872E-24
 -1       549 1.84313E-04 9.45164E-05-1.65436E-24
 -1       550 1.83215E-04 5.04697E-05 0.00000E+00
 -1       551 1.86281E-04-8.34473E-06 0.00000E+00
 -1       552 1.57834E-04-8.99483E-06 0.00000E+00
 -1       553 1.27086E-04-9.70718E-06-9.92617E-24
 -1       554 9.49955E-05-1.04607E-05 0.00000E+00
 -1       555 6.25231E-05-1.12278E-05 0.00000E+00
 -1       556 2.03834E-04 1.17804E-05 0.00000E+00
 -1       557 1.97655E-04 2.76404E-05 0.00000E+00
 -1       558 1.92811E-04 4.00926E-05 0.00000E+00
 -1       559 1.89168E-04 4.94476E-05 0.00000E+00
 -1       560 1.86597E-04 5.60163E-05 0.00000E+00
 -1       561 1.84971E-04 6.01119E-05 0.00000E+00
 -1       562 1.84162E-04 6.20492E-05 0.00000E+00
 -1       563 1.84049E-04 6.21437E-05 0.00000E+00
 -1       564 1.84507E-04 6.07118E-05 0.00000E+00
 -1       565 1.85418E-04 5.80708E-05-6.61744E-24
 -1       566 1.86661E-04 5.45381E-05 0.00000E+00
 -1       567 1.88116E-04 5.04320E-05 0.00000E+00
 -1       568 1.89667E-04 4.60707E-05 0.00000E+00
 -1       569 1.91194E-04 4.17723E-05-8.27181E-25
 -1       570 1.92580E-04 3.78552E-05 0.00000E+00
 -1       571 1.83025E-04 3.22792E-05-2.48154E-24
 -1       572 1.83124E-04 3.00857E-05-1.24077E-24
 -1       573 1.83223E-04 2.78421E-05 0.00000E+00
 -1       574 1.83322E-04 2.55648E-05 8.27181E-25
 -1       575 1.83422E-04 2.32703E-05 0.00000E+00
 -1       576 1.83521E-04 2.09751E-05 1.65436E-24
 -1       577 1.83621E-04 1.86956E-05 0.00000E+00
 -1       578 1.83721E-04 1.64485E-05 0.00000E+00
 -1       579 1.83820E-04 1.42501E-05 0.00000E+00
 -1       580 1.83920E-04 1.21172E-05 0.00000E+00
 -1       581 1.84020E-04 1.00661E-05 0.00000E+00
 -1       582 1.84120E-04 8.11338E-06 0.00000E+00
 -1       583 1.84221E-04 6.27557E-06 0.00000E+00
 -1       584 1.84321E-04 4.56898E-06 0.00000E+00
 -1       585 1.84422E-04 3.00976E-06 0.00000E+00
 -1       586 1.84684E-04 3.44468E-05 0.00000E+00
 -1       587 1.86399E-04 3.44860E-05 0.00000E+00
 -1       588 1.88115E-04 3.45249E-05 8.27181E-25
 -1       589 1.89877E-04 3.45631E-05 0.00000E+00
 -1       590 1.91727E-04 3.46000E-05 0.00000E+00
 -1       591 1.83658E-04 3.23730E-05 1.03398E-25
 -1       592 1.84390E-04 3.03191E-05-2.06795E-25
 -1       593 1.85127E-04 2.82512E-05 8.27181E-25
 -1       594 1.85868E-04 2.61739E-05-4.13590E-25
 -1       595 1.86609E-04 2.40921E-05-8.27181E-25
 -1       596 1.87351E-04 2.20105E-05 0.00000E+00
 -1       597 1.88091E-04 1.99336E-05 0.00000E+00
 -1       598 1.88827E-04 1.78663E-05 0.00000E+00
 -1       599 1.89558E-04 1.58132E-05 0.00000E+00
 -1       600 1.90282E-04 1.37789E-05 0.00000E+00
 -1       601 1.90998E-04 1.17682E-05-8.27181E-25
 -1       602 1.91702E-04 9.78573E-06 2.06795E-25
 -1       603 1.92395E-04 7.83614E-06 0.00000E+00
 -1       604 1.93074E-04 5.92424E-06-1.03398E-25
 -1       605 1.93738E-04 4.05463E-06 0.00000E+00
 -1       606 1.84536E-04 4.49063E-07 0.00000E+00
 -1       607 1.84545E-04-6.28801E-07 0.00000E+00
 -1       608 1.84554E-04-1.62591E-06 0.00000E+00
 -1       609 1.84562E-04-2.54793E-06 0.00000E+00
 -1       610 1.84571E-04-3.40061E-06 0.00000E+00
 -1       611 1.84579E-04-4.18974E-06 0.00000E+00
 -1       612 1.84587E-04-4.92110E-06 0.00000E+00
 -1       613 1.84596E-04-5.60053E-06 0.00000E+00
 -1       614 1.84604E-04-6.23381E-06 0.00000E+00
 -1       615 1.84612E-04-6.82676E-06 0.00000E+00
 -1       616 1.84621E-04-7.38518E-06 0.00000E+00
 -1       617 1.84629E-04-7.91489E-06 0.00000E+00
 -1       618 1.84638E-04-8.42169E-06 0.00000E+00
 -1       619 1.84646E-04-8.91138E-06 0.00000E+00
 -1       620 1.84654E-04-9.38979E-06 2.06795E-25
 -1       621 1.85880E-04 1.71669E-06 0.00000E+00
 -1       622 1.87397E-04 1.82091E-06 0.00000E+00
 -1       623 1.89040E-04 1.92492E-06 3.30872E-24
 -1       624 1.90776E-04 2.02859E-06 0.00000E+00
 -1       625 1.92569E-04 2.13197E-06-1.65436E-24
 -1       626 1.85071E-04 4.85196E-07 0.00000E+00
 -1       627 1.85596E-04-5.79332E-07-3.30872E-24
 -1       628 1.86102E-04-1.58871E-06 0.00000E+00
 -1       629 1.86590E-04-2.55111E-06 0.00000E+00
 -1       630 1.87063E-04-3.47473E-06 0.00000E+00
 -1       631 1.87525E-04-4.36777E-06 0.00000E+00
 -1       632 1.87979E-04-5.23843E-06-3.30872E-24
 -1       633 1.88427E-04-6.09493E-06 0.00000E+00
 -1       634 1.88873E-04-6.94548E-06-3.30872E-24
 -1       635 1.89320E-04-7.79828E-06 1.65436E-24
 -1       636 1.89771E-04-8.66156E-06 0.00000E+00
 -1       637 1.90229E-04-9.54352E-06 0.00000E+00
 -1       638 1.90697E-04-1.04524E-05 0.00000E+00
 -1       639 1.91177E-04-1.13963E-05 1.65436E-24
 -1       640 1.91674E-04-1.23837E-05-1.65436E-24
 -1       656 1.85367E-04-1.04413E-05-6.61744E-24
 -1       657 1.86493E-04-1.10434E-05-6.61744E-24
 -1       658 1.87899E-04-1.16442E-05 1.32349E-23
 -1       659 1.89439E-04-1.22446E-05 6.61744E-24
 -1       660 1.90930E-04-1.28468E-05 0.00000E+00
 -1       661 1.84926E-04-1.03807E-05 0.00000E+00
 -1       662 1.85228E-04-1.09907E-05 0.00000E+00
 -1       663 1.85562E-04-1.16874E-05 0.00000E+00
 -1       664 1.85926E-04-1.24642E-05-8.27181E-25
 -1       665 1.86319E-04-1.33155E-05-1.65436E-24
 -1       666 1.86737E-04-1.42351E-05 8.27181E-25
 -1       667 1.87179E-04-1.52175E-05 0.00000E+00
 -1       668 1.87642E-04-1.62570E-05 8.27181E-25
 -1       669 1.88124E-04-1.73483E-05 1.65436E-24
 -1       670 1.88624E-04-1.84861E-05 0.00000E+00
 -1       671 1.89139E-04-1.96650E-05 1.65436E-24
 -1       672 1.89667E-04-2.08801E-05 8.27181E-25
 -1       673 1.90207E-04-2.21263E-05-1.65436E-24
 -1       674 1.90756E-04-2.33989E-05 0.00000E+00
 -1       675 1.91313E-04-2.46925E-05 0.00000E+00
 -1       676 1.85124E-04-2.54864E-05 0.00000E+00
 -1       677 1.86478E-04-2.55906E-05 1.65436E-24
 -1       678 1.87831E-04-2.56948E-05 0.00000E+00
 -1       679 1.89181E-04-2.57987E-05 0.00000E+00
 -1       680 1.90528E-04-2.59026E-05 0.00000E+00
 -1       771 1.86708E-05 1.47280E-05 0.00000E+00
 -1       772 8.61462E-06 3.66813E-05 0.00000E+00
 -1       773 3.64476E-07 5.40888E-05 0.00000E+00
 -1       774-6.20391E-06 6.72082E-05 0.00000E+00
 -1       775-1.12122E-05 7.63080E-05-5.29396E-23
 -1       776-1.47869E-05 8.16732E-05 0.00000E+00
 -1       777-1.70545E-05 8.35991E-05 5.29396E-23
 -1       778-1.81437E-05 8.23947E-05 2.64698E-23
 -1       779-1.81830E-05 7.83777E-05-5.29396E-23
 -1       780-1.73026E-05 7.18770E-05-2.64698E-23
 -1       781-1.56319E-05 6.32284E-05 0.00000E+00
 -1       782-1.33020E-05 5.27766E-05-7.94093E-23
 -1       783-1.04427E-05 4.08709E-05 0.00000E+00
 -1       784-7.18546E-06 2.78668E-05-2.64698E-23
 -1       785-3.66053E-06 1.41229E-05 5.29396E-23
 -1       786 1.93746E-04 3.23801E-05 0.00000E+00
 -1       787 1.93788E-04 3.01774E-05 0.00000E+00
 -1       788 1.93830E-04 2.80164E-05 0.00000E+00
 -1       789 1.93872E-04 2.58891E-05-8.27181E-25
 -1       790 1.93915E-04 2.37907E-05 0.00000E+00
 -1       791 1.93957E-04 2.17164E-05 0.00000E+00
 -1       792 1.94000E-04 1.96640E-05 0.00000E+00
 -1       793 1.94043E-04 1.76313E-05 0.00000E+00
 -1       794 1.94086E-04 1.56182E-05 0.00000E+00
 -1       795 1.94129E-04 1.36244E-05 0.00000E+00
 -1       796 1.94172E-04 1.16518E-05-1.65436E-24
 -1       797 1.94215E-04 9.70228E-06 0.00000E+00
 -1       798 1.94258E-04 7.78007E-06 0.00000E+00
 -1       799 1.94301E-04 5.88947E-06 8.27181E-25
 -1       800 1.94344E-04 4.03796E-06-1.65436E-24
 -1       801 1.47925E-04 3.11348E-05 2.64698E-23
 -1       802 9.49511E-06 1.94240E-05 0.00000E+00
 -1       803-1.08754E-04 9.81071E-06 0.00000E+00
 -1       804-9.64170E-05 6.82851E-06-2.64698E-23
 -1       805-3.18576E-05 2.68372E-06 0.00000E+00
 -1       806 1.94438E-04 3.23113E-05 0.00000E+00
 -1       807 1.95153E-04 3.00159E-05-1.65436E-24
 -1       808 1.95856E-04 2.77519E-05 3.30872E-24
 -1       809 1.96546E-04 2.55234E-05 0.00000E+00
 -1       810 1.97220E-04 2.33345E-05 0.00000E+00
 -1       811 1.97878E-04 2.11890E-05-1.65436E-24
 -1       812 1.98519E-04 1.90910E-05 0.00000E+00
 -1       813 1.99140E-04 1.70443E-05 1.65436E-24
 -1       814 1.99741E-04 1.50529E-05-3.30872E-24
 -1       815 2.00320E-04 1.31206E-05 8.27181E-25
 -1       816 2.00875E-04 1.12515E-05-1.65436E-24
 -1       817 2.01405E-04 9.44924E-06-8.27181E-25
 -1       818 2.01909E-04 7.71786E-06 0.00000E+00
 -1       819 2.02385E-04 6.06121E-06-1.65436E-24
 -1       820 2.02832E-04 4.48310E-06 1.65436E-24
 -1       821 1.94259E-04-1.30844E-07 1.65436E-24
 -1       822 1.94118E-04-3.65443E-06 0.00000E+00
 -1       823 1.93976E-04-7.90786E-06 0.00000E+00
 -1       824 1.93831E-04-1.24568E-05 0.00000E+00
 -1       825 1.93687E-04-1.67871E-05 3.30872E-24
 -1       826 1.93545E-04-2.03858E-05-1.65436E-24
 -1       827 1.93406E-04-2.29392E-05 0.00000E+00
 -1       828 1.93269E-04-2.41400E-05 1.65436E-24
 -1       829 1.93134E-04-2.40494E-05-3.30872E-24
 -1       830 1.92997E-04-2.27362E-05 0.00000E+00
 -1       831 1.92860E-04-2.06021E-05 0.00000E+00
 -1       832 1.92721E-04-1.80539E-05 1.65436E-24
 -1       833 1.92583E-04-1.56113E-05 0.00000E+00
 -1       834 1.92448E-04-1.37933E-05-1.65436E-24
 -1       835 1.92313E-04-1.29493E-05 0.00000E+00
 -1       836 1.96078E-04 2.35821E-06-6.61744E-24
 -1       837 1.97640E-04 2.48642E-06 1.65436E-24
 -1       838 1.99107E-04 2.61458E-06 0.00000E+00
 -1       839 2.00510E-04 2.74202E-06-8.27181E-25
 -1       840 2.01881E-04 2.86931E-06 0.00000E+00
 -1       856 1.92171E-04-1.44842E-05-8.27181E-25
 -1       857 1.92151E-04-1.54099E-05 0.00000E+00
 -1       858 1.92132E-04-1.62209E-05 0.00000E+00
 -1       859 1.92112E-04-1.69384E-05 2.06795E-25
 -1       860 1.92093E-04-1.75836E-05 4.13590E-25
 -1       861 1.92073E-04-1.81779E-05-2.06795E-25
 -1       862 1.92053E-04-1.87425E-05 4.13590E-25
 -1       863 1.92034E-04-1.92987E-05 4.13590E-25
 -1       864 1.92014E-04-1.98679E-05 0.00000E+00
 -1       865 1.91994E-04-2.04716E-05 4.13590E-25
 -1       866 1.91974E-04-2.11308E-05 0.00000E+00
 -1       867 1.91954E-04-2.18670E-05 4.13590E-25
 -1       868 1.91934E-04-2.27014E-05-8.27181E-25
 -1       869 1.91914E-04-2.36550E-05-4.13590E-25
 -1       870 1.91893E-04-2.47490E-05-8.27181E-25
 -1       871 1.93536E-04-1.34276E-05-8.27181E-25
 -1       872 1.95033E-04-1.34360E-05 0.00000E+00
 -1       873 1.96609E-04-1.34450E-05 0.00000E+00
 -1       874 1.98196E-04-1.34548E-05-2.32645E-25
 -1       875 1.99726E-04-1.34651E-05 0.00000E+00
 -1       876 1.92712E-04-1.44696E-05 0.00000E+00
 -1       877 1.93215E-04-1.54496E-05 1.65436E-24
 -1       878 1.93696E-04-1.63709E-05 0.00000E+00
 -1       879 1.94159E-04-1.72406E-05-1.65436E-24
 -1       880 1.94605E-04-1.80663E-05 0.00000E+00
 -1       881 1.95037E-04-1.88553E-05 0.00000E+00
 -1       882 1.95458E-04-1.96150E-05 0.00000E+00
 -1       883 1.95871E-04-2.03527E-05 0.00000E+00
 -1       884 1.96279E-04-2.10757E-05 0.00000E+00
 -1       885 1.96684E-04-2.17915E-05 0.00000E+00
 -1       886 1.97089E-04-2.25073E-05 0.00000E+00
 -1       887 1.97496E-04-2.32305E-05 1.65436E-24
 -1       888 1.97909E-04-2.39684E-05 0.00000E+00
 -1       889 1.98329E-04-2.47286E-05 0.00000E+00
 -1       890 1.98760E-04-2.55183E-05-1.65436E-24
 -1       891 1.93235E-04-2.60619E-05 0.00000E+00
 -1       892 1.94575E-04-2.61196E-05 0.00000E+00
 -1       893 1.95866E-04-2.61772E-05 8.27181E-25
 -1       894 1.97084E-04-2.62345E-05 0.00000E+00
 -1       895 1.98203E-04-2.62916E-05 8.27181E-25
 -1       956 2.03120E-04 1.66627E-06-1.65436E-24
 -1       957 2.02988E-04 4.36818E-07 1.65436E-24
 -1       958 2.02855E-04-7.11780E-07 0.00000E+00
 -1       959 2.02722E-04-1.79087E-06 1.65436E-24
 -1       960 2.02589E-04-2.81185E-06 0.00000E+00
 -1       961 2.02456E-04-3.78614E-06-1.65436E-24
 -1       962 2.02324E-04-4.72517E-06 0.00000E+00
 -1       963 2.02191E-04-5.64041E-06-1.65436E-24
 -1       964 2.02058E-04-6.54331E-06 0.00000E+00
 -1       965 2.01925E-04-7.44531E-06-1.65436E-24
 -1       966 2.01792E-04-8.35788E-06 0.00000E+00
 -1       967 2.01660E-04-9.29247E-06 0.00000E+00
 -1       968 2.01527E-04-1.02605E-05 0.00000E+00
 -1       969 2.01394E-04-1.12734E-05 0.00000E+00
 -1       970 2.01262E-04-1.23426E-05 0.00000E+00
 -1       971 2.01012E-04-1.46149E-05 0.00000E+00
 -1       972 2.00890E-04-1.56563E-05 0.00000E+00
 -1       973 2.00769E-04-1.66135E-05 0.00000E+00
 -1       974 2.00647E-04-1.74974E-05 0.00000E+00
 -1       975 2.00526E-04-1.83188E-05 0.00000E+00
 -1       976 2.00404E-04-1.90886E-05 1.65436E-24
 -1       977 2.00283E-04-1.98177E-05-3.30872E-24
 -1       978 2.00162E-04-2.05170E-05 0.00000E+00
 -1       979 2.00040E-04-2.11974E-05 0.00000E+00
 -1       980 1.99919E-04-2.18699E-05-1.65436E-24
 -1       981 1.99797E-04-2.25452E-05 3.30872E-24
 -1       982 1.99676E-04-2.32343E-05 0.00000E+00
 -1       983 1.99555E-04-2.39482E-05 0.00000E+00
 -1       984 1.99434E-04-2.46977E-05 1.65436E-24
 -1       985 1.99314E-04-2.54937E-05 0.00000E+00
 -3
    1PSTEP                        36          18           1          
  100CL  118 6.63143E-01         409                     0   18           1
 -4  STRESS      6    1
 -5  SXX         1    4    1    1
 -5  SYY         1    4    2    2
 -5  SZZ         1    4    3    3
 -5  SXY         1    4    1    2
 -5  SYZ         1    4    2    3
 -5  SZX         1    4    3    1
 -1         1-5.33544E+06-1.61079E+06-1.13378E+06-1.37826E+06 2.05182E-09 1.59751E-07
 -1         2 1.42740E+06 2.09686E+07 4.90765E+06 6.32271E+06 2.89583E-08-9.55188E-08
 -1         3-1.48871E+03-1.56317E+06 4.06786E+02-2.21910E+03-6.99796E-10 3.98068E-08
 -1         5-7.52061E+01 3.86561E+05 9.98580E+00-1.34293E+00-5.11139E-10-3.10138E-09
 -1         8-5.63456E+05-2.02352E+05-6.28137E+04-2.47187E+05 1.22782E-10 2.06419E-07
 -1         9 1.17151E+07 3.67222E+06 2.75048E+06-3.72399E+05-1.10595E-08 1.44960E-07
 -1        10-2.30670E+03-1.62894E+06-3.95697E+03-1.50149E+04-1.38589E-08-3.93395E-08
 -1        12-7.12861E+01 3.86582E+05 3.28253E+02-9.15316E+00-8.05404E-10 1.62208E-08
 -1        15 9.67513E+02 5.27706E+02 3.06869E+03 8.86454E-01-3.41061E-13-1.38163E-07
 -1        16 2.28789E+07-3.21727E+05 3.11678E+06-2.25504E+06 1.89951E-08 6.56582E-08
 -1        17 8.37147E+06 6.27527E+06 2.26194E+06 6.00552E+06 2.26952E-08 2.40630E-08
 -1        18 1.42327E+05 3.35131E+04 4.14217E+03-1.19576E+05 1.42213E-08 1.90630E-09
 -1        19 1.22467E+05 1.41730E+05-9.44619E+02 2.19760E+04 1.50649E-09-4.38959E-09
 -1        20-8.20297E+04-5.73938E+05-1.28790E+05 2.51064E+04-1.50188E-09-5.41089E-09
 -1        21-4.55869E+01-2.96092E+05-9.24178E+02 2.75206E+02 1.42906E-08 1.74154E-09
 -1        24 1.40120E+07 1.20728E+07 3.88051E+06 1.11792E+07-1.62331E-07-5.34928E-08
 -1        25 1.24914E+05 2.67288E+05 9.99879E+04-6.45675E+05-2.52639E-09 1.56529E-08
 -1        26-5.54626E+04 9.23235E+04-2.46506E+04 1.31669E+03-1.68802E-10 6.26818E-09
 -1        27-7.55760E+04-3.10068E+05-1.13345E+05 6.90013E+04 3.35892E-09-6.33493E-09
 -1        28 2.22465E+04-8.53762E+04 1.69027E+04 2.06094E+04-3.48186E-09 5.68040E-09
 -1        32-1.68069E+06-3.18067E+06-1.97277E+05 4.57292E+05-4.22733E-08-5.47129E-09
 -1        33-1.78548E+05 9.30474E+04 3.24024E+04-3.84809E+04-3.14003E-09-4.96038E-09
 -1        34-2.23684E+05-2.50438E+04 6.90291E+02 7.56956E+04-4.95318E-09-1.03967E-08
 -1        35-2.29364E+04-3.38581E+04-1.34892E+03 5.15108E+04-1.21742E-09 2.76850E-09
 -1        51 6.05388E+04-1.73151E+05 1.28084E+05-4.43352E+05-8.73115E-11 3.49093E-07
 -1        52 2.05127E+04-1.50796E+05 6.72470E+04-5.17069E+05 1.76442E-10-9.74978E-08
 -1        53 4.20647E+03-1.66180E+05 3.50909E+04-4.41824E+05 2.83762E-10-1.65543E-07
 -1        54 7.50062E+03-1.61935E+05 2.89738E+04-5.18570E+05-1.60071E-10-2.30830E-09
 -1        55 1.63884E+04-1.69057E+05 3.54113E+04-4.41726E+05 4.47471E-10 7.59483E-08
 -1        56-9.76429E+06-1.34696E+06-9.06357E+05-4.05845E+06-3.01516E-08 3.72529E-09
 -1        57-1.10089E+07-8.83448E+05-5.50108E+05-2.76636E+06 9.95351E-09-1.49215E-07
 -1        58-9.60368E+06-1.80073E+06-2.00613E+05-4.23398E+06 2.71903E-08-2.77374E-07
 -1        59-1.11478E+07-3.66949E+05-1.09370E+05-2.69838E+06-2.81034E-08 7.51752E-08
 -1        60-9.69366E+06-1.80547E+06-5.62902E+04-4.18694E+06 2.50657E-08-3.78350E-08
 -1        61-1.05472E+07-6.79293E+05 1.10830E+04-2.94365E+06 2.44763E-08-2.99959E-07
 -1        62-1.00835E+07-1.56980E+06-6.91515E+04-3.89367E+06 1.97906E-09-3.59651E-07
 -1        63-9.71308E+06-1.34663E+06 4.69401E+04-3.60899E+06 4.31028E-08 3.81333E-08
 -1        64-1.04325E+07-1.20589E+06-6.35066E+04-3.46085E+06-7.45058E-09-7.90824E-08
 -1        65-9.34461E+06-1.91919E+06 8.58623E+03-4.45443E+06-5.92991E-09-4.00909E-07
 -1        66-1.05636E+07-9.19793E+05-4.64690E+04-3.13223E+06-1.17434E-08-1.18649E-07
 -1        67-9.34378E+06-2.16731E+06-9.85312E+04-4.85315E+06-3.84298E-08 8.40009E-09
 -1        68-1.05441E+07-8.80377E+05-1.85668E+05-3.13169E+06-4.87162E-08 2.17653E-07
 -1        69-9.53683E+06-2.25918E+06-4.90087E+05-4.42107E+06-2.63935E-08-1.98525E-07
 -1        70-1.02688E+07-9.10776E+05-8.30912E+05-3.49609E+06 1.59571E-08 1.04657E-07
 -1        86-1.45599E+06-1.51493E+07-2.68538E+06-2.97287E+06-2.61902E-07-1.01034E-07
 -1        87 2.27708E+06 5.98054E+06 2.23392E+06 5.54924E+06-4.25032E-07-7.52007E-08
 -1        88-4.22770E+05-2.00562E+06 2.09696E+05-2.50360E+06-3.95552E-07-4.16658E-08
 -1        89 3.05047E+06 5.70212E+06 2.28834E+06 5.73113E+06-5.50601E-07-7.38928E-08
 -1        90-2.14125E+06-1.49427E+07-2.90175E+06-3.18144E+06-1.50139E-07 3.70812E-07
 -1       121-2.03946E+03-1.56807E+06-5.46684E+02 1.09991E+03 1.46375E-09 1.50831E-08
 -1       122-1.30232E+03-1.56323E+06 7.71541E+02-4.44221E+03-5.02187E-09-3.16868E-09
 -1       123-2.05927E+03-1.56821E+06 2.63804E+02 3.28490E+03 4.58385E-09 2.22644E-09
 -1       124 3.39055E+02-1.56278E+06 2.95773E+03-9.29373E+03-1.06247E-08 4.02360E-09
 -1       125-2.87057E+03-1.56910E+06 3.47260E+03 5.90548E+03 7.06677E-09 1.06556E-08
 -1       191-7.92536E+01 3.86579E+05 8.49517E+00 7.00177E-01-5.64712E-10-3.85826E-08
 -1       192-7.61702E+01 3.86561E+05 2.13092E+01-4.30509E+00-7.28500E-10-4.19432E-08
 -1       193-8.17913E+01 3.86579E+05 3.62828E+01 3.78073E+00-1.03512E-09-5.70799E-08
 -1       194-7.92610E+01 3.86565E+05 8.10077E+01-9.76863E+00-5.07216E-10-6.81766E-08
 -1       195-8.66621E+01 3.86576E+05 1.55095E+02 6.35687E+00-1.60907E-09-3.72347E-08
 -1       251-8.70508E+05 1.60472E+04-3.74831E+04-1.41839E+04 4.34220E-09 1.25328E-08
 -1       252-8.84878E+05-1.85610E+04-2.61067E+04 4.95499E+04 5.02217E-09 3.47600E-07
 -1       253-8.78704E+05 2.46578E+03-1.00639E+04-1.01731E+04-1.05900E-08 5.72436E-08
 -1       254-8.71862E+05-2.97091E+03-4.59939E+03 3.54233E+04 2.56065E-08-3.24078E-07
 -1       255-8.82944E+05 7.36656E+01-3.44543E+03-6.03875E+01-5.51040E-09 2.97481E-07
 -1       256-8.66595E+05-2.77951E+02 1.06741E+03 1.23961E+04 7.19911E-09 1.90236E-07
 -1       257-8.83544E+05-5.42972E+02-1.32709E+03 1.28438E+04-4.60000E-09 1.32112E-07
 -1       258-8.69200E+05 8.65176E+02 2.61600E+03-1.19149E+04 2.09548E-09 1.46998E-08
 -1       259-8.80570E+05-8.91137E+02 1.38593E+03 2.42482E+04 1.13960E-09-5.80013E-08
 -1       260-8.75254E+05 2.85040E+03 5.51368E+03-2.94868E+04 7.93392E-09-3.88987E-07
 -1       261-8.78096E+05-2.06078E+03 8.59966E+03 3.04305E+04 7.51390E-09 2.17679E-07
 -1       262-8.73824E+05 1.16269E+04 2.13560E+04-3.46203E+04 1.53900E-08 1.21312E-07
 -1       263-8.82239E+05-9.44872E+03 3.38476E+04 2.93905E+04-6.24686E-09 1.49261E-07
 -1       264-8.43686E+05 6.65105E+04 9.36616E+04-2.55256E+04 3.74409E-08 1.42290E-07
 -1       265-9.07754E+05-5.70649E+04 1.30511E+05 2.13245E+04 1.06627E-09 2.26013E-07
 -1       266-1.72789E+04-8.03893E+03 4.02257E+04-1.86237E+01 1.32786E-10 1.18741E-07
 -1       267 2.00205E+04 9.37612E+03 2.84817E+04 2.14543E+01 5.22959E-11-2.18383E-07
 -1       268-2.70488E+03-1.33473E+03 1.05657E+04-2.76161E+00 3.09228E-11 1.59499E-08
 -1       269 3.19321E+03 1.59871E+03 6.88509E+03 3.21382E+00-1.86446E-11 4.53980E-08
 -1       270-4.83088E+02-2.63853E+02 3.31528E+03-4.41881E-01-1.69280E-10-3.96343E-07
 -1       271-1.50050E+06-1.90502E+05-1.12615E+05-5.83439E+05-7.71070E-09 2.44036E-07
 -1       272-1.49972E+06-3.02595E+05-7.08752E+04-6.19118E+05 2.99333E-08-6.97764E-08
 -1       273-1.52418E+06-2.14661E+05-2.72552E+04-5.75451E+05 8.07267E-09 2.14002E-07
 -1       274-1.47256E+06-2.73567E+05-1.42638E+04-6.34032E+05-9.33323E-09 1.22956E-07
 -1       275-1.52974E+06-2.14380E+05-6.76038E+03-5.71737E+05 3.19451E-08-3.23662E-08
 -1       276-1.46679E+06-2.74391E+05-2.90092E+03-6.42406E+05 1.43355E-08-5.01750E-08
 -1       277-1.53252E+06-2.11840E+05-1.86512E+03-5.69045E+05-1.40062E-09 1.65572E-07
 -1       278-1.46450E+06-2.77564E+05-7.41174E+02-6.48567E+05 1.26820E-08 1.79505E-08
 -1       279-1.53429E+06-2.09744E+05-8.86296E+02-5.67148E+05 1.33641E-08-1.85814E-07
 -1       280-1.46341E+06-2.79980E+05-1.04834E+03-6.52641E+05-1.32013E-08-1.88796E-07
 -1       281-1.53524E+06-2.08401E+05-1.93488E+03-5.66071E+05 2.99588E-09 2.08554E-07
 -1       282-1.46379E+06-2.82257E+05-4.50544E+03-6.54340E+05-2.56734E-08 1.79272E-07
 -1       283-1.53472E+06-2.07090E+05-8.01684E+03-5.65931E+05 1.41051E-08 1.55478E-08
 -1       284-1.47094E+06-2.92828E+05-2.18430E+04-6.52161E+05 1.86728E-08-2.11058E-07
 -1       285-1.52805E+06-1.99039E+05-3.40819E+04-5.67740E+05 1.87310E-09-2.05400E-08
 -1       301-5.89321E+03-6.44203E+05 1.67166E+05-1.13039E+06 6.94126E-09 1.02606E-07
 -1       302-7.35240E+03-5.97714E+05 1.00606E+05-1.65008E+06 8.29459E-09-1.69148E-07
 -1       303-2.07781E+04-6.36396E+05 5.69277E+04-1.12730E+06 1.18162E-08-8.88467E-08
 -1       304-2.32507E+04-6.04508E+05 5.74395E+04-1.64947E+06-1.35478E-08 1.13960E-07
 -1       305-2.50051E+04-6.25244E+05 7.08165E+04-1.13040E+06-8.84575E-09 9.78907E-08
 -1       306-3.01505E+07-6.22460E+06-8.61666E+06-5.15799E+05-7.47386E-08-1.41183E-07
 -1       307 2.53772E+07 3.27422E+06 5.51911E+06-1.52319E+07-6.95887E-07 1.46567E-07
 -1       308-6.96215E+06-1.02665E+06-4.50916E+05 5.21360E+06-8.41392E-08 3.90777E-07
 -1       309-3.24333E+06 8.76083E+06 2.28978E+06-2.06926E+07 3.37226E-07-3.84389E-08
 -1       310-1.25834E+07-1.94793E+06-2.04139E+06 5.22425E+06-2.22935E-08 3.95521E-08
 -1       311 3.84963E+07 1.48326E+04 7.29018E+06-8.80949E+06 8.58330E-07 2.01660E-07
 -1       312-3.19628E+07-6.78381E+06-8.54965E+06-5.04850E+06 1.77301E-07-3.85189E-08
 -1       313 4.54785E+07 1.50548E+07 1.06826E+07 2.38422E+07-3.12662E-07 2.02126E-07
 -1       314-1.72273E+07-1.78158E+07-7.53327E+06-1.25452E+07 5.62868E-07-2.05473E-08
 -1       315-1.84314E+06 2.97805E+07 5.67480E+06 1.05445E+07-6.07848E-07 1.95199E-07
 -1       316 1.40801E+06-9.84604E+06-4.38866E+05-2.52218E+06-1.24163E-06-1.41968E-07
 -1       317-1.71180E+07 2.24437E+07 2.24442E+06-8.84723E+06 6.78381E-07-8.90526E-07
 -1       318-1.07367E+06-1.28082E+07-2.04882E+06-4.23991E+06-9.50589E-07-8.20728E-09
 -1       319 7.23866E+06 3.20199E+07 7.05165E+06 1.66461E+07-7.18137E-08 2.63477E-07
 -1       320-2.26199E+07-1.76646E+07-9.86817E+06-1.28283E+07 1.99070E-07-8.37608E-08
 -1       336-7.41492E+02-1.69749E+06-1.38804E+04 8.93965E+03-2.69720E-08-1.48502E-08
 -1       337-5.41848E+03-1.69705E+06-1.81139E+04-2.17122E+04-5.00979E-08 1.38007E-08
 -1       338 2.81248E+02-1.69698E+06-2.85275E+04 1.25216E+04-3.46199E-08 2.66737E-08
 -1       339-3.02709E+04-1.71433E+06-6.44804E+04-2.87280E+04-6.31289E-08 3.94011E-08
 -1       340 1.99477E+04-1.68240E+06-1.01570E+05 1.58244E+04-4.09964E-08 4.71337E-08
 -1       406-4.95683E+01 3.86562E+05 6.44526E+02 3.34858E+00-1.91412E-09 2.57023E-09
 -1       407 1.55061E+02 3.86696E+05 1.37738E+03 2.33886E+01-5.07981E-10-1.12414E-08
 -1       408 6.35391E+02 3.86461E+05 2.74640E+03-2.70587E+01-2.29329E-09-8.05994E-09
 -1       409 2.90867E+03 3.87573E+05 6.19012E+03 2.88896E+02-1.87242E-10-2.67755E-09
 -1       410 8.48462E+03 3.85671E+05 1.26338E+04-2.78598E+02-2.85399E-09-1.24928E-08
 -1       521-3.17048E+07-7.68711E+06-1.00713E+07-1.21800E+05-7.71834E-08-4.88362E-08
 -1       522 2.62508E+07 4.30738E+06 5.62949E+06-1.87498E+07-5.40400E-07-2.45869E-07
 -1       523-7.53583E+06-1.34042E+06-4.42418E+05 5.66338E+06 8.55653E-08-2.33587E-07
 -1       524-6.74926E+06 1.18329E+07 2.47801E+06-2.37615E+07 6.35511E-07-4.53685E-07
 -1       525-1.33809E+07-2.58619E+06-2.24511E+06 5.67799E+06 3.96511E-07-2.14321E-07
 -1       526 4.20440E+07-7.87484E+04 7.65346E+06-1.14619E+07 1.76951E-07-1.15018E-07
 -1       527-3.38206E+07-8.48717E+06-9.85889E+06-4.91078E+06 3.12342E-07-2.84344E-08
 -1       528 4.96752E+07 1.67874E+07 1.11463E+07 2.71240E+07-1.16415E-07-7.97736E-08
 -1       529-1.81705E+07-2.00355E+07-8.64055E+06-1.25756E+07-1.42667E-07-1.54949E-07
 -1       530-4.32933E+06 3.45952E+07 6.00802E+06 9.99631E+06-3.51516E-07 7.88888E-07
 -1       531 1.40992E+06-1.09200E+07-4.11357E+05-2.46575E+06-8.01258E-07 4.39875E-07
 -1       532-1.96300E+07 2.44545E+07 2.45385E+06-1.31601E+07 5.06319E-07-6.26082E-07
 -1       533-1.11617E+06-1.39631E+07-2.18264E+06-4.04292E+06-2.75817E-07-9.39937E-07
 -1       534 5.23129E+06 3.71758E+07 7.34169E+06 1.72273E+07 4.74392E-09 7.09842E-07
 -1       535-2.38060E+07-2.00698E+07-1.13186E+07-1.28987E+07 1.06869E-07 4.56173E-07
 -1       536-7.06120E+05-4.68292E+04-4.79768E+04-5.46885E+04-9.07266E-09 5.31127E-08
 -1       537-5.48950E+04 4.47828E+04 8.40516E+04 1.23856E+05-1.15837E-07 9.08572E-08
 -1       538-3.94411E+05 3.33210E+03 3.60357E+03-7.22060E+04 2.71000E-08 1.13208E-07
 -1       539-2.69041E+05 2.86899E+03 2.49504E+04 1.38746E+05 1.44701E-07 1.03991E-07
 -1       540-4.97352E+05-4.30342E+02-2.13128E+04-7.01126E+04 1.36893E-08 8.71346E-08
 -1       541 1.46699E+05 1.69752E+04 1.06401E+05 9.79337E+04 3.06713E-08 8.07232E-08
 -1       542-7.98948E+05-2.01369E+04-8.42392E+04-3.05189E+04 7.23767E-08 4.16621E-08
 -1       543 4.05389E+05 2.73274E+04 1.57981E+05-1.33641E+04-1.98470E-08-2.03349E-08
 -1       544-7.49104E+05-1.65377E+04-7.48390E+04 4.05155E+04-2.12535E-08-3.91792E-08
 -1       545 2.89814E+04 9.48351E+03 7.98131E+04-1.13631E+05 3.26836E-08-6.15657E-08
 -1       546-4.32650E+05 6.09668E+03-1.22294E+04 6.94018E+04 3.57979E-08-8.75061E-08
 -1       547-2.87130E+05-4.65707E+03 1.05866E+04-1.41593E+05-1.16927E-07-1.02669E-07
 -1       548-4.41492E+05 4.71999E+03-2.38834E+04 6.91687E+04-1.06622E-07-8.27449E-08
 -1       549 4.81745E+04 1.60750E+04 6.05217E+04-1.11491E+05-6.16442E-08-5.98538E-08
 -1       550-7.58982E+05-2.21436E+04-1.28975E+05 3.85837E+04 9.12951E-09-3.86499E-08
 -1       551 4.08240E+04-7.52378E+05-1.58046E+04-1.24759E+06-1.02387E-07 7.07223E-09
 -1       552 9.33121E+04-7.97359E+05 9.98376E+03-1.77893E+06-7.46950E-08 4.70245E-08
 -1       553 7.17918E+04-7.93768E+05 3.20981E+04-1.24095E+06-1.21567E-07 2.45345E-08
 -1       554 1.32115E+05-8.13238E+05 8.11547E+04-1.78087E+06-7.59173E-08 2.22844E-08
 -1       555 1.01548E+05-8.17419E+05 1.48195E+05-1.24078E+06-1.23619E-07-9.23683E-09
 -1       556 2.23724E+05-3.83688E+05 2.59533E+04-4.07314E+05-2.43017E-08-1.30385E-08
 -1       557 3.54348E+05-4.88064E+05 1.62537E+04-5.27734E+05 1.16415E-10 3.61615E-09
 -1       558 2.05504E+05-3.76516E+05 2.36703E+03-4.11732E+05-1.98779E-08 2.91038E-11
 -1       559 3.29302E+05-4.88157E+05 2.46193E+03-5.48190E+05 1.78989E-08-1.34678E-08
 -1       560 1.90194E+05-3.66916E+05-1.49586E+03-4.22764E+05 4.83124E-09-9.00764E-09
 -1       561 3.10063E+05-4.80459E+05 1.34598E+02-5.61307E+05 1.87720E-09-5.23869E-10
 -1       562 1.78089E+05-3.59395E+05-1.32492E+03-4.31530E+05 3.12866E-09-1.41372E-08
 -1       563 2.95685E+05-4.74190E+05-3.59071E+01-5.70698E+05 1.89902E-09-2.40634E-08
 -1       564 1.69450E+05-3.54013E+05-6.00498E+02-4.37652E+05 9.72068E-09 1.57511E-08
 -1       565 2.86148E+05-4.70037E+05 2.40802E+01-5.76791E+05 1.19107E-08 1.48120E-08
 -1       566 1.64400E+05-3.50818E+05-2.60249E+02-4.41184E+05-7.96717E-09-3.57977E-09
 -1       567 2.81513E+05-4.68021E+05-3.63089E+02-5.79606E+05 1.88320E-08 5.79166E-09
 -1       568 1.63030E+05-3.49979E+05-1.12716E+03-4.42238E+05 1.40972E-09 9.97534E-09
 -1       569 2.80391E+05-4.67948E+05-2.84678E+03-5.78176E+05-6.88124E-09 2.73503E-08
 -1       570 1.66433E+05-3.53216E+05-6.22324E+03-4.41217E+05 1.58761E-08 3.92629E-09
 -1       571 2.90666E+05 1.05133E+04 1.49971E+04-9.52999E+04 4.20278E-09-1.02332E-08
 -1       572 2.92840E+05 3.96342E+03 7.34976E+03-1.04554E+05 3.81078E-09-2.20734E-09
 -1       573 2.91529E+05 1.24749E+03 3.26574E+03-9.51232E+04-1.31149E-09-1.95450E-09
 -1       574 2.91743E+05 7.28846E+02 1.63775E+03-1.04778E+05 3.18323E-10-2.34731E-08
 -1       575 2.91623E+05 4.49391E+02 7.72975E+02-9.50991E+04 8.06996E-09 6.90852E-09
 -1       576 2.91607E+05 4.60835E+02 3.95767E+02-1.04808E+05 1.16379E-08-5.61704E-09
 -1       577 2.91663E+05 3.91203E+02 1.97578E+02-9.50958E+04 5.97629E-09 6.50380E-09
 -1       578 2.91638E+05 4.22665E+02 1.14160E+02-1.04812E+05-1.92722E-09-1.82617E-08
 -1       579 2.91736E+05 3.54380E+02 7.84394E+01-9.50954E+04-2.52658E-09-1.43464E-08
 -1       580 2.91740E+05 3.71466E+02 9.10962E+01-1.04808E+05-3.01170E-08 1.27693E-08
 -1       581 2.91850E+05 2.95611E+02 1.37641E+02-9.51014E+04 4.60204E-09 2.00707E-08
 -1       582 2.91916E+05 3.33941E+02 2.79890E+02-1.04746E+05 1.91767E-08 5.69617E-09
 -1       583 2.91991E+05 3.38063E+02 5.37222E+02-9.51580E+04 7.07951E-09-4.36989E-09
 -1       584 2.92292E+05 7.76852E+02 1.21570E+03-1.04269E+05 5.44242E-09-2.81561E-08
 -1       585 2.92017E+05 1.79996E+03 2.46174E+03-9.55777E+04-1.46247E-09-1.64800E-08
 -1       586-3.42454E+03 1.17017E+05-2.91339E+03-2.50809E+05-5.18958E-09-1.35310E-09
 -1       587-1.33989E+03 1.16769E+05 7.75195E+02-2.76034E+05-7.20502E-09-1.18018E-09
 -1       588 3.98303E+02 1.16575E+05 4.76548E+03-2.50671E+05-1.26056E-09 3.63070E-09
 -1       589 5.08913E+03 1.19051E+05 1.23570E+04-2.75801E+05-8.75116E-09-1.38862E-08
 -1       590 1.66246E+04 1.15240E+05 2.59202E+04-2.51103E+05-6.53381E-09-5.74801E-10
 -1       591-7.50895E+04-1.59839E+04-2.25502E+04-3.19898E+04-1.18682E-08-1.76060E-08
 -1       592-7.91862E+04-1.95413E+04-1.22150E+04-3.56143E+04-6.29286E-09-2.68155E-08
 -1       593-7.73447E+04-1.43477E+04-5.08448E+03-3.36433E+04-4.43142E-09-7.22457E-09
 -1       594-7.60727E+04-1.62322E+04-2.53576E+03-3.57321E+04-8.96921E-09 2.02379E-08
 -1       595-7.75166E+04-1.43423E+04-1.16417E+03-3.37184E+04-5.26143E-09 8.52845E-09
 -1       596-7.58595E+04-1.60809E+04-5.91590E+02-3.57067E+04 4.38604E-09 4.93009E-09
 -1       597-7.75382E+04-1.43577E+04-3.21679E+02-3.37212E+04-8.89884E-10 2.59865E-09
 -1       598-7.58385E+04-1.60749E+04-2.57750E+02-3.56996E+04-1.22276E-09-1.39583E-08
 -1       599-7.75370E+04-1.43582E+04-3.28196E+02-3.37209E+04 2.56671E-09-2.86046E-08
 -1       600-7.58596E+04-1.60814E+04-6.08842E+02-3.57046E+04 9.43913E-09-4.90602E-08
 -1       601-7.75123E+04-1.43437E+04-1.20068E+03-3.37174E+04 3.20097E-09-1.50469E-08
 -1       602-7.60794E+04-1.62364E+04-2.61652E+03-3.57268E+04-2.11662E-09-9.46329E-10
 -1       603-7.73321E+04-1.43521E+04-5.24709E+03-3.36407E+04 2.06956E-09-2.88765E-10
 -1       604-7.93100E+04-1.96315E+04-1.26047E+04-3.55804E+04 4.30356E-09 1.17432E-08
 -1       605-7.49849E+04-1.60585E+04-2.32699E+04-3.19539E+04 3.24906E-09 1.17907E-08
 -1       606 2.66803E+04-1.43384E+04-2.57039E+04 2.39686E+04 4.82305E-09-5.09453E-09
 -1       607 2.22884E+04-4.68292E+03-1.28005E+04 2.69357E+04 6.36646E-12-2.87946E-09
 -1       608 2.47915E+04-8.44796E+02-5.73034E+03 2.38001E+04-1.56069E-09-7.02880E-09
 -1       609 2.43117E+04-2.89449E+02-2.89481E+03 2.71496E+04 4.51564E-09-7.12066E-09
 -1       610 2.45778E+04-4.10420E+01-1.38114E+03 2.37801E+04 5.50153E-09-2.22121E-09
 -1       611 2.45025E+04-4.13400E+01-6.96361E+02 2.71727E+04 6.19866E-09-1.69416E-09
 -1       612 2.45308E+04-2.73563E+01-3.31027E+02 2.37780E+04 1.16597E-09-3.29464E-10
 -1       613 2.45142E+04-3.72764E+01-1.48302E+02 2.71754E+04 6.33190E-09-3.71779E-09
 -1       614 2.45086E+04-3.38065E+01-3.46807E+01 2.37773E+04-5.90262E-10 8.16772E-09
 -1       615 2.45090E+04-3.58096E+01 6.23885E+01 2.71759E+04-3.50610E-09 8.06108E-09
 -1       616 2.44912E+04-3.06998E+01 1.86870E+02 2.37776E+04 2.24964E-09-6.45014E-09
 -1       617 2.45315E+04 3.98924E+00 4.26267E+02 2.71754E+04 2.10412E-09-1.47279E-08
 -1       618 2.44542E+04 9.21669E+01 8.59180E+02 2.37779E+04 2.56432E-09 3.55158E-10
 -1       619 2.48348E+04 6.68293E+02 1.92933E+03 2.71748E+04-1.08230E-09-4.99472E-09
 -1       620 2.41689E+04 2.12949E+03 3.87790E+03 2.37795E+04 1.68507E-09-6.76664E-09
 -1       621 5.11563E+02 3.01617E+05 3.88788E+03 4.11121E+04 1.03137E-09 3.28509E-09
 -1       622 6.78092E+02 3.02514E+05 3.45018E+03 5.96855E+04 1.13050E-09 1.22418E-08
 -1       623 1.43278E+02 3.01811E+05 4.14553E+03 4.09261E+04 1.21599E-09-2.47746E-09
 -1       624 2.12872E+03 3.03732E+05 8.03627E+03 5.98685E+04 1.32923E-09 3.92902E-10
 -1       625 2.07963E+03 3.00217E+05 1.40429E+04 4.09229E+04 1.35151E-09-6.00676E-09
 -1       626 2.61033E+05 6.14256E+04 5.12292E+03 1.26785E+05-2.46928E-10 4.99767E-09
 -1       627 2.58716E+05 6.28210E+04 2.46870E+03 1.31058E+05 5.09863E-09 8.30380E-09
 -1       628 2.61160E+05 5.90817E+04 1.04408E+03 1.27656E+05-5.72982E-11 1.00440E-08
 -1       629 2.58080E+05 6.21404E+04 5.11024E+02 1.31298E+05-1.18084E-08-2.47987E-08
 -1       630 2.61175E+05 5.89685E+04 2.37155E+02 1.27693E+05-2.86718E-09 1.35037E-09
 -1       631 2.58014E+05 6.21145E+04 1.27755E+02 1.31300E+05 3.67481E-09 4.14519E-09
 -1       632 2.61171E+05 5.89724E+04 8.43023E+01 1.27689E+05 6.28324E-09-1.81651E-08
 -1       633 2.58005E+05 6.21162E+04 9.42749E+01 1.31296E+05 5.19049E-09 2.07574E-08
 -1       634 2.61167E+05 5.89695E+04 1.52671E+02 1.27689E+05 3.75127E-09 3.03803E-08
 -1       635 2.58020E+05 6.21145E+04 3.09126E+02 1.31302E+05-5.70526E-09 7.46104E-09
 -1       636 2.61158E+05 5.89637E+04 6.24382E+02 1.27688E+05 6.90443E-09 1.59876E-08
 -1       637 2.58155E+05 6.22116E+04 1.37293E+03 1.31301E+05 2.66846E-09-7.95353E-10
 -1       638 2.61109E+05 5.92670E+04 2.82087E+03 1.27551E+05 6.12954E-09-2.07501E-09
 -1       639 2.59637E+05 6.42725E+04 6.67432E+03 1.30865E+05 1.33305E-08 8.08018E-09
 -1       640 2.60904E+05 6.54211E+04 1.38504E+04 1.24958E+05 7.77572E-09-3.82170E-09
 -1       656 6.66148E+04-1.70488E+06-1.60804E+05-2.56122E+03-2.18279E-11 2.18500E-09
 -1       657-8.81260E+04-1.77754E+06-1.33217E+05 5.15752E+03 6.14818E-10-2.18259E-08
 -1       658 2.12348E+04-1.72552E+06-8.20462E+04-4.64687E+03 1.31354E-09 2.26921E-08
 -1       659-9.52976E+04-1.78095E+06-1.42642E+05 6.89108E+03-1.72440E-09-1.67196E-08
 -1       660 7.37705E+04-1.70148E+06-1.77007E+05-4.29477E+03-2.47383E-09-8.22004E-09
 -1       661 1.58487E+05 1.65824E+04 1.67129E+04 6.19566E+04 1.55205E-09 1.54614E-10
 -1       662 1.67939E+05 2.89569E+04 1.12634E+04 5.82040E+04-2.46700E-09 1.04683E-08
 -1       663 1.61770E+05 2.19442E+04 3.93921E+03 6.10038E+04-1.09480E-09-9.61450E-09
 -1       664 1.64132E+05 2.26867E+04 2.35647E+03 5.93678E+04-1.71326E-09-1.57821E-08
 -1       665 1.62268E+05 2.26765E+04 9.29612E+02 6.08585E+04 2.44091E-09-1.86305E-08
 -1       666 1.63543E+05 2.18493E+04 5.44161E+02 5.95575E+04 9.28256E-09 1.23737E-08
 -1       667 1.62355E+05 2.27598E+04 2.89233E+02 6.08220E+04 1.13221E-09-1.40934E-08
 -1       668 1.63447E+05 2.17895E+04 2.95172E+02 5.96104E+04-5.04259E-09-2.23697E-08
 -1       669 1.62363E+05 2.27346E+04 4.00000E+02 6.08058E+04-5.45384E-10 1.52011E-08
 -1       670 1.63544E+05 2.20068E+04 8.71359E+02 5.96134E+04-3.44576E-09 4.87087E-09
 -1       671 1.62258E+05 2.25470E+04 1.54728E+03 6.08171E+04 1.45237E-09 2.49690E-09
 -1       672 1.64446E+05 2.35121E+04 3.95878E+03 5.93948E+04 9.11491E-09-1.58311E-08
 -1       673 1.61466E+05 2.12674E+04 6.63433E+03 6.10097E+04 5.82850E-09-1.14269E-08
 -1       674 1.70760E+05 3.41709E+04 1.89728E+04 5.75398E+04-2.44427E-11-4.60386E-09
 -1       675 1.55984E+05 1.21868E+04 2.81623E+04 6.25601E+04 9.54969E-11 7.84712E-09
 -1       676 2.41210E+01-2.96014E+05-1.11388E+03-1.37607E+02 7.82052E-10-2.72824E-09
 -1       677-2.94644E+02-2.96284E+05-2.03859E+03 2.74992E+02 1.02701E-08-1.01445E-08
 -1       678 1.97625E+02-2.95823E+05-3.60372E+03-1.37295E+02 1.49680E-09-6.17122E-09
 -1       679-3.60378E+03-2.98460E+05-8.56094E+03 2.73804E+02 8.23945E-09-2.40701E-08
 -1       680 2.15167E+03-2.93840E+05-1.37973E+04-1.34902E+02 1.28603E-09-5.20886E-09
 -1       771-3.06357E+06-7.47471E+05-1.65762E+05-1.46645E+06-3.38478E-08-2.60188E-08
 -1       772-2.98642E+06-8.36308E+05-8.54585E+04-1.56916E+06-2.30939E-08 9.90258E-09
 -1       773-3.09505E+06-7.22922E+05-4.35720E+04-1.48098E+06-1.59780E-08 1.20490E-08
 -1       774-2.97691E+06-8.17806E+05-1.94380E+04-1.59493E+06 2.50293E-08 1.80808E-09
 -1       775-3.11150E+06-7.11379E+05-1.45449E+04-1.48803E+06-4.10364E-09 8.13452E-09
 -1       776-2.98926E+06-8.14772E+05-5.43840E+03-1.61444E+06-3.47791E-09 2.92493E-09
 -1       777-3.12578E+06-7.01075E+05-6.42831E+03-1.49425E+06 1.30094E-08 1.45810E-08
 -1       778-3.00215E+06-8.11949E+05-1.81720E+03-1.63120E+06 1.39262E-08 1.18052E-08
 -1       779-3.13805E+06-6.92072E+05-3.21305E+03-1.49957E+06-1.11322E-08-4.81305E-09
 -1       780-3.01351E+06-8.09256E+05-5.32907E+02-1.64485E+06-2.37997E-08 3.14139E-09
 -1       781-3.14781E+06-6.84813E+05-1.24870E+03-1.50373E+06-3.81260E-08 1.00590E-09
 -1       782-3.02226E+06-8.06969E+05 4.49175E+02-1.65492E+06-3.90355E-08-2.48292E-09
 -1       783-3.15468E+06-6.79769E+05 6.98785E+02-1.50664E+06-9.05129E-09-1.34628E-08
 -1       784-3.02711E+06-8.04685E+05 2.89952E+03-1.66114E+06-2.26428E-08-9.35870E-10
 -1       785-3.15875E+06-6.76761E+05 5.11827E+03-1.50849E+06-3.52338E-08 1.21981E-08
 -1       786 1.23651E+05-9.76952E+03 2.26027E+04-3.22482E+02 1.62586E-09 6.02085E-10
 -1       787 1.33454E+05 1.13109E+04 1.59905E+04-1.35680E+02 4.15376E-09 1.17307E-08
 -1       788 1.27431E+05-1.53091E+03 5.84782E+03-2.87344E+02 2.05034E-09 1.75930E-08
 -1       789 1.29051E+05 1.77199E+03 3.67105E+03-1.89516E+02 1.51274E-10 4.11734E-09
 -1       790 1.28055E+05-2.38357E+02 1.48635E+03-2.68663E+02-3.85336E-09 1.69354E-09
 -1       791 1.28321E+05 2.75786E+02 8.58496E+02-2.21475E+02-6.97092E-09 1.58739E-08
 -1       792 1.28161E+05-3.58221E+01 3.63822E+02-2.55386E+02-3.51405E-09 2.30364E-08
 -1       793 1.28195E+05 3.78644E+01 1.81430E+02-2.46443E+02-1.82747E-09 7.00808E-09
 -1       794 1.28182E+05-5.85414E-01 4.72641E+01-2.43695E+02 5.97456E-09 2.16070E-09
 -1       795 1.28158E+05-2.73856E+01-5.75499E+01-2.70825E+02-3.92202E-09 1.90333E-08
 -1       796 1.28198E+05 2.93914E+01-1.62364E+02-2.31004E+02 4.84265E-09-1.12297E-09
 -1       797 1.28063E+05-2.19430E+02-4.45803E+02-2.99961E+02 4.21493E-09-1.63314E-08
 -1       798 1.28276E+05 1.91314E+02-7.24005E+02-2.14560E+02 1.60949E-09-1.10462E-08
 -1       799 1.27514E+05-1.41015E+03-1.99185E+03-3.40667E+02 6.56202E-09 7.46923E-09
 -1       800 1.28747E+05 1.21914E+03-2.81889E+03-1.90299E+02 3.37803E-10 3.34592E-09
 -1       801-1.70955E+05-9.99132E+06-1.39241E+06 1.41373E+06 9.37143E-08-4.85234E-08
 -1       802 7.37270E+05 5.93923E+06 2.17895E+06-1.74507E+06 2.62553E-07-2.58324E-08
 -1       803-5.35996E+05-1.42532E+07-1.88817E+06 8.97387E+05 7.72488E-08 1.98525E-08
 -1       804 2.86776E+05 2.38661E+06 1.53518E+06 6.76449E+05-1.20643E-07-9.78353E-08
 -1       805 1.89173E+05-6.45282E+06-2.85780E+05-1.00213E+06-5.01168E-08-6.42212E-08
 -1       806-3.09021E+05-5.97766E+04-2.28614E+04-1.22450E+05-4.21414E-09 1.92858E-09
 -1       807-3.10820E+05-5.60448E+04-1.12316E+04-1.27997E+05 1.66606E-08 2.69841E-08
 -1       808-3.09648E+05-5.15375E+04-4.76480E+03-1.26344E+05-4.56203E-09-2.77748E-09
 -1       809-3.08458E+05-5.28889E+04-2.32987E+03-1.28272E+05-1.27686E-08-7.26186E-09
 -1       810-3.09743E+05-5.12507E+04-1.06791E+03-1.26517E+05 8.67203E-10 5.93218E-10
 -1       811-3.08275E+05-5.27621E+04-5.31092E+02-1.28237E+05-3.56977E-10-2.58333E-08
 -1       812-3.09757E+05-5.12754E+04-2.68685E+02-1.26516E+05-4.39104E-09-7.44694E-09
 -1       813-3.08250E+05-5.27643E+04-1.74752E+02-1.28218E+05-1.76624E-09 4.57294E-09
 -1       814-3.09750E+05-5.12851E+04-1.73401E+02-1.26512E+05-3.58159E-09-5.76483E-09
 -1       815-3.08254E+05-5.27665E+04-2.79571E+02-1.28211E+05-3.73802E-10 7.38510E-10
 -1       816-3.09729E+05-5.12843E+04-5.30006E+02-1.26508E+05 4.89126E-09 2.05487E-08
 -1       817-3.08344E+05-5.28171E+04-1.13750E+03-1.28199E+05-1.55196E-08-1.43498E-08
 -1       818-3.09660E+05-5.14449E+04-2.32013E+03-1.26432E+05-6.21912E-09 7.55745E-09
 -1       819-3.09614E+05-5.42187E+04-5.45909E+03-1.27898E+05 2.99633E-09 3.41061E-09
 -1       820-3.09222E+05-5.55688E+04-1.11113E+04-1.24671E+05 1.22418E-09 2.20007E-09
 -1       821-3.79099E+05 2.08761E+04-4.86003E+04 2.13662E+03 1.39537E-08 1.22054E-08
 -1       822-3.98793E+05-2.41841E+04-3.41518E+04-4.48623E+03 5.44141E-09 3.43425E-09
 -1       823-3.86558E+05 3.29106E+03-1.25527E+04 3.45783E+03-1.22909E-08 1.22177E-08
 -1       824-3.89786E+05-3.79509E+03-7.85661E+03-5.40881E+03 2.38681E-09 2.38188E-08
 -1       825-3.88113E+05 5.11487E+02-3.29069E+03 3.05932E+03 1.98200E-08-4.22460E-10
 -1       826-3.87343E+05-5.67093E+02-1.74214E+03-3.12322E+03 2.67353E-08-1.36276E-09
 -1       827-3.88976E+05 4.62831E+01-1.19264E+03 1.17209E+03 1.12763E-08-1.62996E-08
 -1       828-3.86629E+05-1.31330E+02-5.82261E+02 1.09792E+03-6.60151E-10-3.72099E-09
 -1       829-3.88813E+05 6.55009E+01-1.18128E+03-1.16185E+03 4.39408E-09-1.67839E-08
 -1       830-3.87695E+05-6.22143E+02-1.88097E+03 4.91385E+03 1.50970E-09 3.77915E-09
 -1       831-3.87934E+05 5.54947E+02-3.37235E+03-2.64385E+03-4.93273E-09 1.02264E-08
 -1       832-3.89866E+05-3.96217E+03-8.15969E+03 6.20548E+03-4.45196E-09 1.83054E-08
 -1       833-3.86659E+05 3.41525E+03-1.30574E+04-2.45352E+03-2.39781E-09 1.24319E-08
 -1       834-3.98851E+05-2.50987E+04-3.53756E+04 4.22125E+03-4.49796E-09 8.04584E-09
 -1       835-3.78932E+05 2.16584E+04-5.04729E+04-6.59543E+02 5.40234E-09 5.16593E-10
 -1       836-1.41488E+03 3.70433E+05 2.29233E+04-1.61280E+04-6.95218E-09-2.58979E-09
 -1       837 4.88656E+03 3.77613E+05 1.93934E+04-3.29601E+04-7.96308E-09-2.38947E-09
 -1       838-5.58344E+02 3.72447E+05 1.97539E+04-1.60565E+04-6.50925E-09 7.65590E-09
 -1       839 1.24294E+04 3.83231E+05 3.73628E+04-3.30126E+04-6.82849E-09-3.09717E-09
 -1       840-3.84288E+03 3.64756E+05 5.95776E+04-1.60813E+04-6.23550E-09-1.60010E-08
 -1       856-5.20974E+04 8.02500E+03-2.11476E+04-3.97621E+02 6.90136E-09-5.16775E-09
 -1       857-6.08096E+04-9.42914E+03-1.45578E+04 5.63527E+03 8.91174E-09-8.81482E-09
 -1       858-5.55476E+04 1.12543E+03-5.48729E+03-4.21708E+02 3.39259E-09 2.09366E-09
 -1       859-5.68501E+04-1.32405E+03-3.31131E+03 5.67109E+03-4.25564E-09-6.27381E-10
 -1       860-5.60631E+04 1.57615E+02-1.38775E+03-4.33177E+02-3.22871E-11 1.11777E-09
 -1       861-5.62572E+04-1.88183E+02-7.63379E+02 5.68671E+03 2.06381E-09-3.08688E-09
 -1       862-5.61438E+04 2.13514E+01-3.17226E+02-4.37306E+02-1.19324E-09-2.08128E-08
 -1       863-5.61583E+04-2.18562E+01-1.15328E+02 5.68911E+03-6.56082E-09 1.58593E-10
 -1       864-5.61625E+04-4.92720E+00 4.77181E+01-4.35575E+02-2.94608E-09-3.42982E-09
 -1       865-5.61024E+04 5.98519E+01 2.56401E+02 5.67922E+03-6.48583E-10-1.08551E-08
 -1       866-5.61975E+04-6.03717E+01 5.16460E+02-4.27419E+02-1.13573E-09-5.28198E-09
 -1       867-5.58596E+04 4.98534E+02 1.27105E+03 5.65708E+03-1.06377E-09-3.65640E-09
 -1       868-5.64004E+04-4.35682E+02 2.11206E+03-4.13433E+02-2.90720E-09 7.80369E-09
 -1       869-5.43112E+04 3.62602E+03 5.62365E+03 5.62065E+03 5.93593E-09-2.09418E-08
 -1       870-5.77380E+04-3.10290E+03 8.16119E+03-3.90885E+02-7.12600E-09-7.95580E-09
 -1       871-5.52184E+03-2.13685E+04-1.95042E+04 1.30517E+05-4.62569E-09 1.51340E-08
 -1       872-1.98299E+03-2.59040E+04-8.16733E+03 1.69235E+05-9.65520E-09 7.95035E-09
 -1       873 4.05894E+02-2.37102E+04 5.89024E+02 1.30230E+05-6.17001E-09 5.03053E-09
 -1       874 3.30827E+03-2.12985E+04 9.78337E+03 1.69264E+05-1.27475E-08 6.40466E-09
 -1       875 6.85005E+03-2.60409E+04 2.20714E+04 1.30469E+05-4.89308E-09-9.39144E-09
 -1       876 2.93907E+05 4.95314E+04 1.51054E+04 1.17941E+05 4.49609E-09 8.23184E-09
 -1       877 2.94906E+05 5.27122E+04 8.06688E+03 1.22273E+05 6.46423E-09-8.53527E-09
 -1       878 2.95319E+05 4.78581E+04 3.37962E+03 1.19178E+05 8.08541E-10-1.94170E-08
 -1       879 2.92852E+05 5.06630E+04 1.68394E+03 1.22376E+05 1.11436E-09-1.85496E-08
 -1       880 2.95420E+05 4.78408E+04 7.84361E+02 1.19229E+05-7.33235E-09-1.02749E-08
 -1       881 2.92716E+05 5.05754E+04 4.18887E+02 1.22352E+05-6.33315E-09 6.73677E-09
 -1       882 2.95430E+05 4.78541E+04 2.68022E+02 1.19230E+05-4.35489E-09 1.18826E-08
 -1       883 2.92706E+05 5.05708E+04 2.88206E+02 1.22344E+05-4.57186E-09 2.15792E-08
 -1       884 2.95423E+05 4.78513E+04 4.58531E+02 1.19230E+05 2.02840E-09 1.39125E-08
 -1       885 2.92743E+05 5.05772E+04 9.21941E+02 1.22355E+05-1.26607E-09 5.00086E-09
 -1       886 2.95387E+05 4.78244E+04 1.85815E+03 1.19227E+05-7.42352E-09 2.14723E-08
 -1       887 2.93069E+05 5.07913E+04 4.05888E+03 1.22403E+05 8.97535E-09 1.90367E-08
 -1       888 2.95131E+05 4.78696E+04 8.17875E+03 1.19097E+05-5.74136E-09-1.79762E-09
 -1       889 2.97938E+05 5.58549E+04 1.95375E+04 1.22253E+05-2.83460E-09-4.50200E-09
 -1       890 2.91792E+05 5.18350E+04 3.65933E+04 1.15984E+05-1.49157E-09-1.34642E-08
 -1       891-8.93337E+01-1.62839E+05-1.99764E+03 2.71536E+04-1.43632E-09 1.31345E-08
 -1       892-1.75346E+02-1.63367E+05-2.14532E+03 4.12344E+04 4.94424E-09 5.50858E-09
 -1       893 4.38145E+01-1.62903E+05-3.03734E+03 2.71609E+04-1.19394E-09-7.24503E-09
 -1       894-1.51060E+03-1.64514E+05-6.28602E+03 4.10818E+04 3.89173E-09 6.80302E-09
 -1       895-1.19970E+03-1.61594E+05-1.10696E+04 2.73080E+04-2.92175E-11 2.39743E-09
 -1       956-3.77412E+05-5.45255E+03-1.34600E+04 3.08855E+04 6.33463E-09-1.13064E-08
 -1       957-3.80053E+05-1.92341E+03-6.90881E+03 3.71163E+04-2.51475E-10-2.64045E-08
 -1       958-3.78622E+05-2.40965E+02-3.11333E+03 3.07177E+04-7.83530E-09 5.04224E-09
 -1       959-3.78819E+05-1.36214E+02-1.58972E+03 3.73120E+04-1.01877E-08 8.82665E-09
 -1       960-3.78740E+05-4.47309E+01-7.75222E+02 3.07004E+04 5.15683E-10 8.08632E-09
 -1       961-3.78738E+05-6.31292E+01-4.11014E+02 3.73325E+04 1.15315E-08-1.09626E-08
 -1       962-3.78768E+05-4.59493E+01-2.35317E+02 3.06975E+04 3.62843E-09 1.57697E-08
 -1       963-3.78739E+05-5.89318E+01-1.88905E+02 3.73361E+04 2.49759E-09-9.26821E-09
 -1       964-3.78774E+05-4.25939E+01-2.29730E+02 3.06967E+04-7.15232E-10-8.93124E-10
 -1       965-3.78751E+05-5.59756E+01-3.97343E+02 3.73354E+04-5.68275E-09 1.85878E-09
 -1       966-3.78757E+05-3.47590E+01-7.46602E+02 3.06982E+04 2.41107E-09 1.47502E-08
 -1       967-3.78841E+05-1.19571E+02-1.53127E+03 3.73210E+04 1.95359E-09 1.05631E-08
 -1       968-3.78653E+05-2.17376E+02-2.99768E+03 3.07109E+04-3.41061E-11 9.97625E-09
 -1       969-3.80042E+05-1.83545E+03-6.65475E+03 3.71724E+04 4.18368E-09 3.53066E-09
 -1       970-3.77496E+05-5.23334E+03-1.29639E+04 3.08382E+04 1.28148E-09 1.33696E-08
 -1       971-3.45542E+05-1.72800E+03-9.31280E+03 1.53821E+04 5.67798E-09-3.16670E-09
 -1       972-3.47784E+05-1.27216E+03-5.07165E+03 2.12733E+04 4.03907E-09-5.33328E-09
 -1       973-3.46580E+05-6.20451E+01-2.27165E+03 1.52609E+04 9.16225E-09 1.99930E-09
 -1       974-3.46715E+05-8.10911E+01-1.17755E+03 2.14105E+04 8.81573E-09-8.61928E-09
 -1       975-3.46662E+05-1.71542E+01-5.89083E+02 1.52486E+04 3.07182E-09 8.01572E-09
 -1       976-3.46653E+05-3.12301E+01-3.40711E+02 2.14262E+04 8.79186E-09 8.33279E-09
 -1       977-3.46678E+05-1.64063E+01-2.48807E+02 1.52452E+04-8.34621E-09 1.72846E-08
 -1       978-3.46658E+05-2.50018E+01-2.93235E+02 2.14311E+04-1.71938E-08 1.42039E-08
 -1       979-3.46678E+05-7.92335E+00-4.72924E+02 1.52437E+04-6.85463E-09 1.24451E-08
 -1       980-3.46694E+05-2.19386E+01-9.14276E+02 2.14321E+04-5.91808E-09 4.57590E-10
 -1       981-3.46649E+05 1.49299E+01-1.77133E+03 1.52442E+04-5.91285E-10-3.91265E-09
 -1       982-3.46937E+05-1.52820E+02-3.66163E+03 2.14255E+04 1.97019E-09-2.04125E-08
 -1       983-3.46425E+05-9.84926E+01-7.11473E+03 1.52503E+04-5.31509E-09 7.98536E-10
 -1       984-3.50359E+05-3.86864E+03-1.59332E+04 2.13398E+04-4.86057E-09 7.60986E-09
 -1       985-3.43204E+05-5.30461E+03-2.92583E+04 1.53217E+04-7.93443E-09-6.47560E-09
 -3
    1PSTEP                        37          19           1          
  100CL  119 6.63172E-01         409                     0   19           1
 -4  DISP        4    1
 -5  D1          1    2    1    0
 -5  D2          1    2    2    0
 -5  D3          1    2    3    0
 -5  ALL         1    2    0    0    1ALL
 -1         1 2.71333E-03 0.00000E+00 0.00000E+00
 -1         2 1.36840E-03 1.09985E-27 0.00000E+00
 -1         3 3.42681E-04-6.24566E-28 1.32349E-23
 -1         5 1.77128E-04-1.20652E-27-8.27181E-25
 -1         8 2.70225E-03-4.09673E-07 0.00000E+00
 -1         9 2.69565E-03-1.85379E-04 0.00000E+00
 -1        10 3.10720E-04-3.41340E-06-6.61744E-24
 -1        12 1.78973E-04 8.09559E-07 4.13590E-25
 -1        15 2.68955E-03-4.34088E-07-2.06795E-25
 -1        16 2.75971E-03-1.87170E-04 0.00000E+00
 -1        17 2.11458E-04-7.78257E-06 0.00000E+00
 -1        18 1.82913E-04 3.43925E-05 0.00000E+00
 -1        19 1.84507E-04 1.61270E-06 0.00000E+00
 -1        20 1.84647E-04-9.84847E-06 0.00000E+00
 -1        21 1.83754E-04-2.53523E-05-3.30872E-24
 -1        24 3.06270E-05-1.20096E-05 0.00000E+00
 -1        25 1.93688E-04 3.46184E-05 0.00000E+00
 -1        26 1.94367E-04 2.23314E-06 0.00000E+00
 -1        27 1.92166E-04-1.34085E-05 0.00000E+00
 -1        28 1.91851E-04-2.59746E-05 0.00000E+00
 -1        32 0.00000E+00 0.00000E+00 0.00000E+00
 -1        33 2.03224E-04 2.98731E-06 0.00000E+00
 -1        34 2.01105E-04-1.34647E-05 0.00000E+00
 -1        35 1.99172E-04-2.63172E-05 0.00000E+00
 -1        51 2.71259E-03-8.55696E-08 3.30872E-24
 -1        52 2.71123E-03-1.52810E-07 0.00000E+00
 -1        53 2.70938E-03-2.16611E-07 0.00000E+00
 -1        54 2.70718E-03-2.79213E-07-1.65436E-24
 -1        55 2.70476E-03-3.42380E-07 1.65436E-24
 -1        56 2.70591E-03 7.82239E-06-5.29396E-23
 -1        57 2.69164E-03 3.25842E-05-5.29396E-23
 -1        58 2.67264E-03 6.89268E-05 1.05879E-22
 -1        59 2.65147E-03 1.10379E-04-5.29396E-23
 -1        60 2.63123E-03 1.49596E-04 0.00000E+00
 -1        61 2.61490E-03 1.79413E-04-5.29396E-23
 -1        62 2.60451E-03 1.94345E-04 1.05879E-22
 -1        63 2.60141E-03 1.90234E-04-5.29396E-23
 -1        64 2.60543E-03 1.66416E-04 0.00000E+00
 -1        65 2.61577E-03 1.24078E-04 0.00000E+00
 -1        66 2.63062E-03 6.79158E-05 0.00000E+00
 -1        67 2.64790E-03 3.97159E-06 0.00000E+00
 -1        68 2.66525E-03-6.02088E-05 0.00000E+00
 -1        69 2.68034E-03-1.17050E-04 0.00000E+00
 -1        70 2.69104E-03-1.60398E-04 1.05879E-22
 -1        86 1.45184E-03-5.90021E-06 5.29396E-23
 -1        87 1.69344E-03-3.69173E-05 0.00000E+00
 -1        88 2.01827E-03-9.01640E-05 0.00000E+00
 -1        89 2.34737E-03-1.44841E-04 0.00000E+00
 -1        90 2.59931E-03-1.78294E-04 0.00000E+00
 -1       121 3.41784E-04-5.51155E-07 0.00000E+00
 -1       122 3.39095E-04-1.10540E-06 0.00000E+00
 -1       123 3.34624E-04-1.66578E-06 0.00000E+00
 -1       124 3.28388E-04-2.23532E-06 0.00000E+00
 -1       125 3.20410E-04-2.81670E-06 1.32349E-23
 -1       191 1.77179E-04 1.34990E-07-2.48154E-24
 -1       192 1.77333E-04 2.69969E-07 4.13590E-25
 -1       193 1.77589E-04 4.04928E-07-1.65436E-24
 -1       194 1.77948E-04 5.39854E-07-8.27181E-25
 -1       195 1.78409E-04 6.74736E-07 1.65436E-24
 -1       251 2.70195E-03 1.72707E-06 0.00000E+00
 -1       252 2.70164E-03 3.81067E-06-3.30872E-24
 -1       253 2.70133E-03 4.85920E-06-6.61744E-24
 -1       254 2.70102E-03 3.90375E-06 0.00000E+00
 -1       255 2.70071E-03 2.82610E-07 0.00000E+00
 -1       256 2.70037E-03-6.63218E-06 0.00000E+00
 -1       257 2.70001E-03-1.69640E-05 0.00000E+00
 -1       258 2.69961E-03-3.07930E-05 0.00000E+00
 -1       259 2.69916E-03-4.76640E-05-1.32349E-23
 -1       260 2.69867E-03-6.70830E-05-6.61744E-24
 -1       261 2.69815E-03-8.81656E-05-1.32349E-23
 -1       262 2.69761E-03-1.10007E-04-6.61744E-24
 -1       263 2.69708E-03-1.31586E-04-1.32349E-23
 -1       264 2.69657E-03-1.51883E-04 0.00000E+00
 -1       265 2.69609E-03-1.70080E-04 0.00000E+00
 -1       266 2.70013E-03-4.19485E-07-3.30872E-24
 -1       267 2.69802E-03-4.22853E-07 0.00000E+00
 -1       268 2.69590E-03-4.26633E-07 8.27181E-25
 -1       269 2.69378E-03-4.29200E-07 0.00000E+00
 -1       270 2.69166E-03-4.31741E-07-2.06795E-25
 -1       271 2.70136E-03 1.69025E-07 1.32349E-23
 -1       272 2.70139E-03-1.78676E-06-6.61744E-24
 -1       273 2.70232E-03-6.12958E-06 1.32349E-23
 -1       274 2.70406E-03-1.27004E-05 0.00000E+00
 -1       275 2.70655E-03-2.13196E-05-2.64698E-23
 -1       276 2.70972E-03-3.17928E-05 0.00000E+00
 -1       277 2.71349E-03-4.39095E-05 0.00000E+00
 -1       278 2.71777E-03-5.74465E-05 0.00000E+00
 -1       279 2.72247E-03-7.21689E-05 0.00000E+00
 -1       280 2.72752E-03-8.78323E-05 1.32349E-23
 -1       281 2.73281E-03-1.04184E-04-1.32349E-23
 -1       282 2.73825E-03-1.20967E-04 6.61744E-24
 -1       283 2.74376E-03-1.37919E-04 0.00000E+00
 -1       284 2.74923E-03-1.54778E-04 0.00000E+00
 -1       285 2.75458E-03-1.71282E-04 1.32349E-23
 -1       301 2.70729E-03-1.85711E-04-6.61744E-24
 -1       302 2.71732E-03-1.85997E-04 6.61744E-24
 -1       303 2.72664E-03-1.86274E-04 0.00000E+00
 -1       304 2.73619E-03-1.86551E-04 0.00000E+00
 -1       305 2.74691E-03-1.86842E-04-2.64698E-23
 -1       306 2.73350E-03-3.39784E-04 0.00000E+00
 -1       307 2.79737E-03-7.53736E-04-5.29396E-23
 -1       308 2.84406E-03-1.35905E-03 1.05879E-22
 -1       309 2.86787E-03-2.05970E-03 0.00000E+00
 -1       310 2.89913E-03-2.72992E-03-1.05879E-22
 -1       311 2.95857E-03-3.24663E-03 0.00000E+00
 -1       312 3.01645E-03-3.52915E-03-1.05879E-22
 -1       313 3.01190E-03-3.53961E-03 0.00000E+00
 -1       314 2.87106E-03-3.29000E-03 0.00000E+00
 -1       315 2.55298E-03-2.84481E-03 5.29396E-23
 -1       316 2.07601E-03-2.28070E-03 1.05879E-22
 -1       317 1.50605E-03-1.66701E-03 5.29396E-23
 -1       318 9.57429E-04-1.06439E-03 1.05879E-22
 -1       319 5.38176E-04-5.37839E-04-5.29396E-23
 -1       320 2.92091E-04-1.61488E-04 0.00000E+00
 -1       336 2.99131E-04-4.07310E-06-1.32349E-23
 -1       337 2.85467E-04-4.75850E-06 0.00000E+00
 -1       338 2.69790E-04-5.47179E-06 1.32349E-23
 -1       339 2.52173E-04-6.21380E-06-6.61744E-24
 -1       340 2.32698E-04-6.98899E-06 0.00000E+00
 -1       406 1.79639E-04 9.44306E-07-8.27181E-25
 -1       407 1.80408E-04 1.07894E-06 1.24077E-24
 -1       408 1.81279E-04 1.21341E-06-1.24077E-24
 -1       409 1.82253E-04 1.34754E-06 4.13590E-25
 -1       410 1.83329E-04 1.48105E-06-4.13590E-25
 -1       521 2.79816E-03-3.50855E-04 1.05879E-22
 -1       522 2.86026E-03-7.85031E-04 0.00000E+00
 -1       523 2.90050E-03-1.41810E-03-1.05879E-22
 -1       524 2.91511E-03-2.14730E-03 0.00000E+00
 -1       525 2.93847E-03-2.84407E-03 1.05879E-22
 -1       526 2.99436E-03-3.38276E-03 0.00000E+00
 -1       527 3.05181E-03-3.67586E-03-2.11758E-22
 -1       528 3.04497E-03-3.68454E-03 1.05879E-22
 -1       529 2.89214E-03-3.42080E-03-2.11758E-22
 -1       530 2.55013E-03-2.95708E-03 0.00000E+00
 -1       531 2.03809E-03-2.37380E-03 0.00000E+00
 -1       532 1.42835E-03-1.74291E-03 0.00000E+00
 -1       533 8.40620E-04-1.12243E-03 0.00000E+00
 -1       534 3.88064E-04-5.75020E-04 0.00000E+00
 -1       535 1.20763E-04-1.79143E-04 0.00000E+00
 -1       536 2.10704E-04 2.71338E-05 0.00000E+00
 -1       537 2.08787E-04 8.75585E-05 0.00000E+00
 -1       538 2.05824E-04 1.64228E-04 0.00000E+00
 -1       539 2.02330E-04 2.47793E-04 1.65436E-24
 -1       540 1.99186E-04 3.26755E-04 0.00000E+00
 -1       541 1.97142E-04 3.89637E-04 0.00000E+00
 -1       542 1.96199E-04 4.29689E-04 3.30872E-24
 -1       543 1.95974E-04 4.40308E-04 1.65436E-24
 -1       544 1.95652E-04 4.22267E-04 3.30872E-24
 -1       545 1.94480E-04 3.76561E-04 0.00000E+00
 -1       546 1.92296E-04 3.11315E-04 0.00000E+00
 -1       547 1.89340E-04 2.34773E-04 0.00000E+00
 -1       548 1.86411E-04 1.58608E-04 0.00000E+00
 -1       549 1.84298E-04 9.44912E-05 1.65436E-24
 -1       550 1.83200E-04 5.04520E-05 1.65436E-24
 -1       551 1.86260E-04-8.35238E-06 0.00000E+00
 -1       552 1.57818E-04-9.00260E-06 0.00000E+00
 -1       553 1.27074E-04-9.71504E-06 9.92617E-24
 -1       554 9.49878E-05-1.04686E-05-6.61744E-24
 -1       555 6.25205E-05-1.12358E-05 0.00000E+00
 -1       556 2.03811E-04 1.17698E-05 5.29396E-23
 -1       557 1.97633E-04 2.76270E-05 0.00000E+00
 -1       558 1.92790E-04 4.00771E-05-5.29396E-23
 -1       559 1.89148E-04 4.94305E-05 0.00000E+00
 -1       560 1.86578E-04 5.59979E-05 0.00000E+00
 -1       561 1.84951E-04 6.00927E-05 0.00000E+00
 -1       562 1.84143E-04 6.20294E-05 0.00000E+00
 -1       563 1.84030E-04 6.21237E-05 1.32349E-23
 -1       564 1.84488E-04 6.06920E-05 0.00000E+00
 -1       565 1.85399E-04 5.80512E-05 0.00000E+00
 -1       566 1.86641E-04 5.45191E-05 0.00000E+00
 -1       567 1.88097E-04 5.04137E-05 0.00000E+00
 -1       568 1.89647E-04 4.60532E-05 0.00000E+00
 -1       569 1.91174E-04 4.17557E-05-8.27181E-25
 -1       570 1.92559E-04 3.78396E-05 0.00000E+00
 -1       571 1.83010E-04 3.22657E-05-2.48154E-24
 -1       572 1.83109E-04 3.00731E-05 1.65436E-24
 -1       573 1.83208E-04 2.78304E-05-1.65436E-24
 -1       574 1.83307E-04 2.55541E-05 1.65436E-24
 -1       575 1.83407E-04 2.32606E-05 0.00000E+00
 -1       576 1.83506E-04 2.09663E-05-1.65436E-24
 -1       577 1.83606E-04 1.86878E-05 0.00000E+00
 -1       578 1.83705E-04 1.64416E-05 0.00000E+00
 -1       579 1.83805E-04 1.42442E-05 0.00000E+00
 -1       580 1.83905E-04 1.21121E-05 0.00000E+00
 -1       581 1.84005E-04 1.00619E-05 0.00000E+00
 -1       582 1.84105E-04 8.11009E-06 0.00000E+00
 -1       583 1.84205E-04 6.27313E-06-6.61744E-24
 -1       584 1.84306E-04 4.56737E-06 0.00000E+00
 -1       585 1.84407E-04 3.00896E-06 6.61744E-24
 -1       586 1.84668E-04 3.44323E-05 0.00000E+00
 -1       587 1.86382E-04 3.44715E-05 0.00000E+00
 -1       588 1.88097E-04 3.45104E-05 0.00000E+00
 -1       589 1.89858E-04 3.45485E-05 0.00000E+00
 -1       590 1.91707E-04 3.45854E-05 0.00000E+00
 -1       591 1.83642E-04 3.23594E-05-2.06795E-25
 -1       592 1.84374E-04 3.03064E-05-2.06795E-25
 -1       593 1.85111E-04 2.82394E-05 8.27181E-25
 -1       594 1.85851E-04 2.61631E-05 0.00000E+00
 -1       595 1.86593E-04 2.40822E-05 0.00000E+00
 -1       596 1.87334E-04 2.20014E-05 0.00000E+00
 -1       597 1.88073E-04 1.99255E-05 8.27181E-25
 -1       598 1.88809E-04 1.78591E-05-4.13590E-25
 -1       599 1.89540E-04 1.58069E-05-8.27181E-25
 -1       600 1.90264E-04 1.37735E-05 0.00000E+00
 -1       601 1.90979E-04 1.17637E-05 0.00000E+00
 -1       602 1.91683E-04 9.78206E-06-4.13590E-25
 -1       603 1.92376E-04 7.83337E-06-8.27181E-25
 -1       604 1.93054E-04 5.92238E-06 1.55096E-25
 -1       605 1.93718E-04 4.05369E-06 0.00000E+00
 -1       606 1.84520E-04 4.49824E-07 0.00000E+00
 -1       607 1.84530E-04-6.27242E-07 0.00000E+00
 -1       608 1.84539E-04-1.62353E-06 0.00000E+00
 -1       609 1.84547E-04-2.54471E-06 0.00000E+00
 -1       610 1.84556E-04-3.39654E-06 0.00000E+00
 -1       611 1.84564E-04-4.18480E-06 0.00000E+00
 -1       612 1.84572E-04-4.91528E-06 0.00000E+00
 -1       613 1.84581E-04-5.59380E-06 0.00000E+00
 -1       614 1.84589E-04-6.22617E-06-1.65436E-24
 -1       615 1.84597E-04-6.81820E-06-8.27181E-25
 -1       616 1.84606E-04-7.37569E-06 0.00000E+00
 -1       617 1.84614E-04-7.90446E-06 0.00000E+00
 -1       618 1.84622E-04-8.41031E-06 0.00000E+00
 -1       619 1.84631E-04-8.89906E-06 0.00000E+00
 -1       620 1.84639E-04-9.37651E-06 0.00000E+00
 -1       621 1.85864E-04 1.71668E-06 0.00000E+00
 -1       622 1.87381E-04 1.82090E-06 1.65436E-24
 -1       623 1.89023E-04 1.92490E-06 1.65436E-24
 -1       624 1.90757E-04 2.02858E-06-8.27181E-25
 -1       625 1.92550E-04 2.13196E-06 1.65436E-24
 -1       626 1.85055E-04 4.85956E-07-3.30872E-24
 -1       627 1.85581E-04-5.77775E-07 0.00000E+00
 -1       628 1.86086E-04-1.58634E-06 0.00000E+00
 -1       629 1.86573E-04-2.54790E-06 1.65436E-24
 -1       630 1.87046E-04-3.47067E-06-3.30872E-24
 -1       631 1.87508E-04-4.36283E-06 0.00000E+00
 -1       632 1.87961E-04-5.23261E-06-3.30872E-24
 -1       633 1.88409E-04-6.08821E-06 1.65436E-24
 -1       634 1.88855E-04-6.93785E-06 3.30872E-24
 -1       635 1.89302E-04-7.78973E-06-1.65436E-24
 -1       636 1.89752E-04-8.65208E-06-3.30872E-24
 -1       637 1.90210E-04-9.53309E-06 1.65436E-24
 -1       638 1.90677E-04-1.04410E-05 1.65436E-24
 -1       639 1.91157E-04-1.13840E-05 0.00000E+00
 -1       640 1.91653E-04-1.23704E-05 0.00000E+00
 -1       656 1.85351E-04-1.04271E-05 6.61744E-24
 -1       657 1.86476E-04-1.10292E-05 0.00000E+00
 -1       658 1.87881E-04-1.16300E-05-1.32349E-23
 -1       659 1.89421E-04-1.22304E-05 6.61744E-24
 -1       660 1.90910E-04-1.28326E-05 0.00000E+00
 -1       661 1.84910E-04-1.03655E-05 0.00000E+00
 -1       662 1.85212E-04-1.09746E-05 0.00000E+00
 -1       663 1.85546E-04-1.16703E-05-1.65436E-24
 -1       664 1.85910E-04-1.24462E-05 0.00000E+00
 -1       665 1.86302E-04-1.32964E-05-1.65436E-24
 -1       666 1.86720E-04-1.42150E-05-8.27181E-25
 -1       667 1.87161E-04-1.51965E-05 1.65436E-24
 -1       668 1.87624E-04-1.62350E-05-8.27181E-25
 -1       669 1.88106E-04-1.73254E-05 0.00000E+00
 -1       670 1.88605E-04-1.84621E-05 0.00000E+00
 -1       671 1.89120E-04-1.96401E-05-1.65436E-24
 -1       672 1.89648E-04-2.08542E-05-8.27181E-25
 -1       673 1.90187E-04-2.20995E-05 0.00000E+00
 -1       674 1.90736E-04-2.33711E-05-4.13590E-25
 -1       675 1.91293E-04-2.46638E-05 0.00000E+00
 -1       676 1.85108E-04-2.54566E-05 3.30872E-24
 -1       677 1.86461E-04-2.55609E-05 1.65436E-24
 -1       678 1.87813E-04-2.56651E-05 3.30872E-24
 -1       679 1.89162E-04-2.57690E-05 0.00000E+00
 -1       680 1.90509E-04-2.58729E-05 0.00000E+00
 -1       771 1.86761E-05 1.47144E-05 0.00000E+00
 -1       772 8.62163E-06 3.66634E-05 0.00000E+00
 -1       773 3.72761E-07 5.40675E-05 5.29396E-23
 -1       774-6.19475E-06 6.71846E-05 0.00000E+00
 -1       775-1.12025E-05 7.62829E-05 5.29396E-23
 -1       776-1.47771E-05 8.16476E-05 0.00000E+00
 -1       777-1.70448E-05 8.35737E-05 0.00000E+00
 -1       778-1.81344E-05 8.23703E-05-2.64698E-23
 -1       779-1.81744E-05 7.83548E-05-5.29396E-23
 -1       780-1.72948E-05 7.18563E-05-5.29396E-23
 -1       781-1.56252E-05 6.32104E-05 5.29396E-23
 -1       782-1.32964E-05 5.27617E-05 0.00000E+00
 -1       783-1.04384E-05 4.08594E-05 0.00000E+00
 -1       784-7.18254E-06 2.78590E-05 0.00000E+00
 -1       785-3.65906E-06 1.41189E-05-5.29396E-23
 -1       786 1.93726E-04 3.23665E-05 0.00000E+00
 -1       787 1.93767E-04 3.01647E-05-4.13590E-25
 -1       788 1.93809E-04 2.80047E-05-8.27181E-25
 -1       789 1.93852E-04 2.58783E-05 8.27181E-25
 -1       790 1.93894E-04 2.37808E-05 0.00000E+00
 -1       791 1.93937E-04 2.17074E-05 8.27181E-25
 -1       792 1.93980E-04 1.96559E-05 0.00000E+00
 -1       793 1.94022E-04 1.76241E-05-8.27181E-25
 -1       794 1.94065E-04 1.56118E-05 0.00000E+00
 -1       795 1.94108E-04 1.36189E-05 0.00000E+00
 -1       796 1.94151E-04 1.16472E-05-1.65436E-24
 -1       797 1.94194E-04 9.69863E-06 8.27181E-25
 -1       798 1.94237E-04 7.77731E-06-1.65436E-24
 -1       799 1.94280E-04 5.88762E-06 8.27181E-25
 -1       800 1.94324E-04 4.03702E-06-1.65436E-24
 -1       801 1.47916E-04 3.11215E-05-2.64698E-23
 -1       802 9.52051E-06 1.94160E-05 2.64698E-23
 -1       803-1.08703E-04 9.80656E-06 0.00000E+00
 -1       804-9.63783E-05 6.82546E-06 0.00000E+00
 -1       805-3.18454E-05 2.68282E-06 5.29396E-23
 -1       806 1.94417E-04 3.22977E-05 3.30872E-24
 -1       807 1.95132E-04 3.00032E-05-1.65436E-24
 -1       808 1.95834E-04 2.77402E-05 3.30872E-24
 -1       809 1.96523E-04 2.55126E-05-1.65436E-24
 -1       810 1.97198E-04 2.33246E-05 3.30872E-24
 -1       811 1.97855E-04 2.11800E-05 0.00000E+00
 -1       812 1.98496E-04 1.90829E-05 3.30872E-24
 -1       813 1.99117E-04 1.70371E-05 0.00000E+00
 -1       814 1.99717E-04 1.50466E-05 0.00000E+00
 -1       815 2.00295E-04 1.31153E-05-8.27181E-25
 -1       816 2.00850E-04 1.12470E-05 3.30872E-24
 -1       817 2.01380E-04 9.44566E-06 0.00000E+00
 -1       818 2.01884E-04 7.71517E-06 0.00000E+00
 -1       819 2.02359E-04 6.05941E-06 8.27181E-25
 -1       820 2.02806E-04 4.48219E-06 1.65436E-24
 -1       821 1.94238E-04-1.29925E-07 1.65436E-24
 -1       822 1.94098E-04-3.65259E-06-1.65436E-24
 -1       823 1.93955E-04-7.90511E-06 0.00000E+00
 -1       824 1.93810E-04-1.24532E-05-1.65436E-24
 -1       825 1.93666E-04-1.67826E-05-3.30872E-24
 -1       826 1.93524E-04-2.03804E-05-1.65436E-24
 -1       827 1.93385E-04-2.29329E-05 0.00000E+00
 -1       828 1.93249E-04-2.41330E-05 0.00000E+00
 -1       829 1.93113E-04-2.40415E-05 3.30872E-24
 -1       830 1.92977E-04-2.27274E-05 0.00000E+00
 -1       831 1.92839E-04-2.05924E-05 3.30872E-24
 -1       832 1.92701E-04-1.80433E-05-1.65436E-24
 -1       833 1.92563E-04-1.55999E-05-3.30872E-24
 -1       834 1.92427E-04-1.37809E-05 1.65436E-24
 -1       835 1.92293E-04-1.29360E-05 0.00000E+00
 -1       836 1.96056E-04 2.35820E-06 0.00000E+00
 -1       837 1.97618E-04 2.48641E-06-1.65436E-24
 -1       838 1.99084E-04 2.61456E-06-3.30872E-24
 -1       839 2.00486E-04 2.74201E-06 0.00000E+00
 -1       840 2.01855E-04 2.86930E-06 0.00000E+00
 -1       856 1.92150E-04-1.44690E-05 8.27181E-25
 -1       857 1.92131E-04-1.53937E-05 2.58494E-26
 -1       858 1.92112E-04-1.62037E-05 0.00000E+00
 -1       859 1.92092E-04-1.69203E-05 0.00000E+00
 -1       860 1.92072E-04-1.75646E-05-4.13590E-25
 -1       861 1.92052E-04-1.81578E-05 0.00000E+00
 -1       862 1.92033E-04-1.87214E-05-4.13590E-25
 -1       863 1.92013E-04-1.92767E-05 0.00000E+00
 -1       864 1.91993E-04-1.98449E-05 0.00000E+00
 -1       865 1.91973E-04-2.04476E-05 0.00000E+00
 -1       866 1.91953E-04-2.11059E-05 0.00000E+00
 -1       867 1.91933E-04-2.18411E-05 0.00000E+00
 -1       868 1.91913E-04-2.26745E-05 8.27181E-25
 -1       869 1.91893E-04-2.36272E-05 0.00000E+00
 -1       870 1.91873E-04-2.47202E-05 0.00000E+00
 -1       871 1.93515E-04-1.34134E-05 0.00000E+00
 -1       872 1.95010E-04-1.34217E-05 0.00000E+00
 -1       873 1.96586E-04-1.34308E-05 0.00000E+00
 -1       874 1.98172E-04-1.34405E-05-1.55096E-25
 -1       875 1.99701E-04-1.34509E-05-1.44757E-24
 -1       876 1.92691E-04-1.44544E-05 6.61744E-24
 -1       877 1.93194E-04-1.54335E-05-1.65436E-24
 -1       878 1.93675E-04-1.63537E-05-3.30872E-24
 -1       879 1.94137E-04-1.72225E-05 0.00000E+00
 -1       880 1.94582E-04-1.80472E-05 3.30872E-24
 -1       881 1.95014E-04-1.88353E-05 0.00000E+00
 -1       882 1.95435E-04-1.95940E-05 3.30872E-24
 -1       883 1.95848E-04-2.03307E-05-1.65436E-24
 -1       884 1.96255E-04-2.10528E-05 0.00000E+00
 -1       885 1.96660E-04-2.17676E-05 0.00000E+00
 -1       886 1.97064E-04-2.24824E-05-3.30872E-24
 -1       887 1.97471E-04-2.32046E-05 1.65436E-24
 -1       888 1.97884E-04-2.39416E-05 0.00000E+00
 -1       889 1.98304E-04-2.47008E-05 1.65436E-24
 -1       890 1.98734E-04-2.54896E-05-1.65436E-24
 -1       891 1.93213E-04-2.60322E-05 0.00000E+00
 -1       892 1.94552E-04-2.60899E-05-8.27181E-25
 -1       893 1.95843E-04-2.61475E-05 1.65436E-24
 -1       894 1.97060E-04-2.62048E-05-8.27181E-25
 -1       895 1.98178E-04-2.62619E-05-8.27181E-25
 -1       956 2.03094E-04 1.66715E-06 1.65436E-24
 -1       957 2.02962E-04 4.38578E-07-8.27181E-25
 -1       958 2.02829E-04-7.09138E-07 3.30872E-24
 -1       959 2.02696E-04-1.78735E-06 1.65436E-24
 -1       960 2.02563E-04-2.80745E-06-3.30872E-24
 -1       961 2.02430E-04-3.78086E-06-1.65436E-24
 -1       962 2.02297E-04-4.71901E-06 0.00000E+00
 -1       963 2.02165E-04-5.63337E-06 0.00000E+00
 -1       964 2.02032E-04-6.53539E-06 3.30872E-24
 -1       965 2.01899E-04-7.43650E-06 0.00000E+00
 -1       966 2.01766E-04-8.34818E-06 3.30872E-24
 -1       967 2.01633E-04-9.28187E-06 0.00000E+00
 -1       968 2.01501E-04-1.02490E-05 6.61744E-24
 -1       969 2.01368E-04-1.12610E-05 0.00000E+00
 -1       970 2.01236E-04-1.23293E-05 3.30872E-24
 -1       971 2.00985E-04-1.45997E-05 0.00000E+00
 -1       972 2.00864E-04-1.56401E-05-1.65436E-24
 -1       973 2.00743E-04-1.65964E-05-3.30872E-24
 -1       974 2.00621E-04-1.74793E-05 0.00000E+00
 -1       975 2.00500E-04-1.82998E-05 0.00000E+00
 -1       976 2.00378E-04-1.90686E-05 0.00000E+00
 -1       977 2.00257E-04-1.97968E-05 0.00000E+00
 -1       978 2.00135E-04-2.04951E-05 0.00000E+00
 -1       979 2.00014E-04-2.11745E-05 0.00000E+00
 -1       980 1.99892E-04-2.18460E-05 0.00000E+00
 -1       981 1.99771E-04-2.25203E-05-3.30872E-24
 -1       982 1.99650E-04-2.32085E-05 0.00000E+00
 -1       983 1.99529E-04-2.39214E-05 0.00000E+00
 -1       984 1.99408E-04-2.46699E-05 1.65436E-24
 -1       985 1.99288E-04-2.54650E-05-3.30872E-24
 -3
    1PSTEP                        38          19           1          
  100CL  119 6.63172E-01         409                     0   19           1
 -4  FORC        4    1
 -5  F1          1    2    1    0
 -5  F2          1    2    2    0
 -5  F3          1    2    3    0
 -5  ALL         1    2    0    0    1ALL
 -1         1 2.21499E-04 0.00000E+00 0.00000E+00
 -1         2 0.00000E+00 0.00000E+00 0.00000E+00
 -1         3 0.00000E+00 0.00000E+00 0.00000E+00
 -1         5 0.00000E+00 0.00000E+00 0.00000E+00
 -1         8 1.26293E-05-1.10904E-05 0.00000E+00
 -1         9-6.08398E-04 3.82705E-05 0.00000E+00
 -1        10-1.89238E-09 1.12340E-08 0.00000E+00
 -1        12 0.00000E+00 0.00000E+00 0.00000E+00
 -1        15 0.00000E+00 0.00000E+00 0.00000E+00
 -1        16-8.70178E-05-8.63360E-04 0.00000E+00
 -1        17-1.31613E-05 7.36148E-06 0.00000E+00
 -1        18 1.22941E-07 1.01535E-07 0.00000E+00
 -1        19 3.49212E-08-7.97135E-09 0.00000E+00
 -1        20-5.77984E-08 6.41847E-09 0.00000E+00
 -1        21 0.00000E+00 2.29907E-08 0.00000E+00
 -1        24-3.56433E-05 1.14600E-05 0.00000E+00
 -1        25 6.75927E-08-6.30344E-08 0.00000E+00
 -1        26-3.73917E-08-2.66768E-08 0.00000E+00
 -1        27-1.92347E-08 3.66879E-08 0.00000E+00
 -1        28-1.79222E-08 1.09370E-08 0.00000E+00
 -1        32 0.00000E+00 0.00000E+00 0.00000E+00
 -1        33-2.49594E-09-4.70065E-08 0.00000E+00
 -1        34-1.36802E-08-4.85011E-08 0.00000E+00
 -1        35-8.13435E-08-5.22915E-08 0.00000E+00
 -1        51 0.00000E+00 0.00000E+00 0.00000E+00
 -1        52 0.00000E+00 0.00000E+00 0.00000E+00
 -1        53 0.00000E+00 0.00000E+00 0.00000E+00
 -1        54 0.00000E+00 0.00000E+00 0.00000E+00
 -1        55 0.00000E+00 0.00000E+00 0.00000E+00
 -1        56 0.00000E+00 0.00000E+00 0.00000E+00
 -1        57 0.00000E+00 0.00000E+00 0.00000E+00
 -1        58 0.00000E+00 0.00000E+00 0.00000E+00
 -1        59 0.00000E+00 0.00000E+00 0.00000E+00
 -1        60 0.00000E+00 0.00000E+00 0.00000E+00
 -1        61 0.00000E+00 0.00000E+00 0.00000E+00
 -1        62 0.00000E+00 0.00000E+00 0.00000E+00
 -1        63 0.00000E+00 0.00000E+00 0.00000E+00
 -1        64 0.00000E+00 0.00000E+00 0.00000E+00
 -1        65 0.00000E+00 0.00000E+00 0.00000E+00
 -1        66 0.00000E+00 0.00000E+00 0.00000E+00
 -1        67 0.00000E+00 0.00000E+00 0.00000E+00
 -1        68 0.00000E+00 0.00000E+00 0.00000E+00
 -1        69 0.00000E+00 0.00000E+00 0.00000E+00
 -1        70 0.00000E+00 0.00000E+00 0.00000E+00
 -1        86 0.00000E+00 0.00000E+00 0.00000E+00
 -1        87 0.00000E+00 0.00000E+00 0.00000E+00
 -1        88 0.00000E+00 0.00000E+00 0.00000E+00
 -1        89 0.00000E+00 0.00000E+00 0.00000E+00
 -1        90 0.00000E+00 0.00000E+00 0.00000E+00
 -1       121 0.00000E+00 0.00000E+00 0.00000E+00
 -1       122 0.00000E+00 0.00000E+00 0.00000E+00
 -1       123 0.00000E+00 0.00000E+00 0.00000E+00
 -1       124 0.00000E+00 0.00000E+00 0.00000E+00
 -1       125 0.00000E+00 0.00000E+00 0.00000E+00
 -1       191 0.00000E+00 0.00000E+00 0.00000E+00
 -1       192 0.00000E+00 0.00000E+00 0.00000E+00
 -1       193 0.00000E+00 0.00000E+00 0.00000E+00
 -1       194 0.00000E+00 0.00000E+00 0.00000E+00
 -1       195 0.00000E+00 0.00000E+00 0.00000E+00
 -1       251 0.00000E+00 0.00000E+00 0.00000E+00
 -1       252 0.00000E+00 0.00000E+00 0.00000E+00
 -1       253 0.00000E+00 0.00000E+00 0.00000E+00
 -1       254 0.00000E+00 0.00000E+00 0.00000E+00
 -1       255 0.00000E+00 0.00000E+00 0.00000E+00
 -1       256 0.00000E+00 0.00000E+00 0.00000E+00
 -1       257 0.00000E+00 0.00000E+00 0.00000E+00
 -1       258 0.00000E+00 0.00000E+00 0.00000E+00
 -1       259 0.00000E+00 0.00000E+00 0.00000E+00
 -1       260 0.00000E+00 0.00000E+00 0.00000E+00
 -1       261 0.00000E+00 0.00000E+00 0.00000E+00
 -1       262 0.00000E+00 0.00000E+00 0.00000E+00
 -1       263 0.00000E+00 0.00000E+00 0.00000E+00
 -1       264 0.00000E+00 0.00000E+00 0.00000E+00
 -1       265 0.00000E+00 0.00000E+00 0.00000E+00
 -1       266 0.00000E+00 0.00000E+00 0.00000E+00
 -1       267 0.00000E+00 0.00000E+00 0.00000E+00
 -1       268 0.00000E+00 0.00000E+00 0.00000E+00
 -1       269 0.00000E+00 0.00000E+00 0.00000E+00
 -1       270 0.00000E+00 0.00000E+00 0.00000E+00
 -1       271 0.00000E+00 0.00000E+00 0.00000E+00
 -1       272 0.00000E+00 0.00000E+00 0.00000E+00
 -1       273 0.00000E+00 0.00000E+00 0.00000E+00
 -1       274 0.00000E+00 0.00000E+00 0.00000E+00
 -1       275 0.00000E+00 0.00000E+00 0.00000E+00
 -1       276 0.00000E+00 0.00000E+00 0.00000E+00
 -1       277 0.00000E+00 0.00000E+00 0.00000E+00
 -1       278 0.00000E+00 0.00000E+00 0.00000E+00
 -1       279 0.00000E+00 0.00000E+00 0.00000E+00
 -1       280 0.00000E+00 0.00000E+00 0.00000E+00
 -1       281 0.00000E+00 0.00000E+00 0.00000E+00
 -1       282 0.00000E+00 0.00000E+00 0.00000E+00
 -1       283 0.00000E+00 0.00000E+00 0.00000E+00
 -1       284 0.00000E+00 0.00000E+00 0.00000E+00
 -1       285 0.00000E+00 0.00000E+00 0.00000E+00
 -1       301 0.00000E+00 0.00000E+00 0.00000E+00
 -1       302 0.00000E+00 0.00000E+00 0.00000E+00
 -1       303 0.00000E+00 0.00000E+00 0.00000E+00
 -1       304 0.00000E+00 0.00000E+00 0.00000E+00
 -1       305 0.00000E+00 0.00000E+00 0.00000E+00
 -1       306 0.00000E+00 0.00000E+00 0.00000E+00
 -1       307 0.00000E+00 0.00000E+00 0.00000E+00
 -1       308 0.00000E+00 0.00000E+00 0.00000E+00
 -1       309 0.00000E+00 0.00000E+00 0.00000E+00
 -1       310 0.00000E+00 0.00000E+00 0.00000E+00
 -1       311 0.00000E+00 0.00000E+00 0.00000E+00
 -1       312 0.00000E+00 0.00000E+00 0.00000E+00
 -1       313 0.00000E+00 0.00000E+00 0.00000E+00
 -1       314 0.00000E+00 0.00000E+00 0.00000E+00
 -1       315 0.00000E+00 0.00000E+00 0.00000E+00
 -1       316 0.00000E+00 0.00000E+00 0.00000E+00
 -1       317 0.00000E+00 0.00000E+00 0.00000E+00
 -1       318 0.00000E+00 0.00000E+00 0.00000E+00
 -1       319 0.00000E+00 0.00000E+00 0.00000E+00
 -1       320 0.00000E+00 0.00000E+00 0.00000E+00
 -1       336 0.00000E+00 0.00000E+00 0.00000E+00
 -1       337 0.00000E+00 0.00000E+00 0.00000E+00
 -1       338 0.00000E+00 0.00000E+00 0.00000E+00
 -1       339 0.00000E+00 0.00000E+00 0.00000E+00
 -1       340 0.00000E+00 0.00000E+00 0.00000E+00
 -1       406 0.00000E+00 0.00000E+00 0.00000E+00
 -1       407 0.00000E+00 0.00000E+00 0.00000E+00
 -1       408 0.00000E+00 0.00000E+00 0.00000E+00
 -1       409 0.00000E+00 0.00000E+00 0.00000E+00
 -1       410 0.00000E+00 0.00000E+00 0.00000E+00
 -1       521 0.00000E+00 0.00000E+00 0.00000E+00
 -1       522 0.00000E+00 0.00000E+00 0.00000E+00
 -1       523 0.00000E+00 0.00000E+00 0.00000E+00
 -1       524 0.00000E+00 0.00000E+00 0.00000E+00
 -1       525 0.00000E+00 0.00000E+00 0.00000E+00
 -1       526 0.00000E+00 0.00000E+00 0.00000E+00
 -1       527 0.00000E+00 0.00000E+00 0.00000E+00
 -1       528 0.00000E+00 0.00000E+00 0.00000E+00
 -1       529 0.00000E+00 0.00000E+00 0.00000E+00
 -1       530 0.00000E+00 0.00000E+00 0.00000E+00
 -1       531 0.00000E+00 0.00000E+00 0.00000E+00
 -1       532 0.00000E+00 0.00000E+00 0.00000E+00
 -1       533 0.00000E+00 0.00000E+00 0.00000E+00
 -1       534 0.00000E+00 0.00000E+00 0.00000E+00
 -1       535 0.00000E+00 0.00000E+00 0.00000E+00
 -1       536 0.00000E+00 0.00000E+00 0.00000E+00
 -1       537 0.00000E+00 0.00000E+00 0.00000E+00
 -1       538 0.00000E+00 0.00000E+00 0.00000E+00
 -1       539 0.00000E+00 0.00000E+00 0.00000E+00
 -1       540 0.00000E+00 0.00000E+00 0.00000E+00
 -1       541 0.00000E+00 0.00000E+00 0.00000E+00
 -1       542 0.00000E+00 0.00000E+00 0.00000E+00
 -1       543 0.00000E+00 0.00000E+00 0.00000E+00
 -1       544 0.00000E+00 0.00000E+00 0.00000E+00
 -1       545 0.00000E+00 0.00000E+00 0.00000E+00
 -1       546 0.00000E+00 0.00000E+00 0.00000E+00
 -1       547 0.00000E+00 0.00000E+00 0.00000E+00
 -1       548 0.00000E+00 0.00000E+00 0.00000E+00
 -1       549 0.00000E+00 0.00000E+00 0.00000E+00
 -1       550 0.00000E+00 0.00000E+00 0.00000E+00
 -1       551 0.00000E+00 0.00000E+00 0.00000E+00
 -1       552 0.00000E+00 0.00000E+00 0.00000E+00
 -1       553 0.00000E+00 0.00000E+00 0.00000E+00
 -1       554 0.00000E+00 0.00000E+00 0.00000E+00
 -1       555 0.00000E+00 0.00000E+00 0.00000E+00
 -1       556 0.00000E+00 0.00000E+00 0.00000E+00
 -1       557 0.00000E+00 0.00000E+00 0.00000E+00
 -1       558 0.00000E+00 0.00000E+00 0.00000E+00
 -1       559 0.00000E+00 0.00000E+00 0.00000E+00
 -1       560 0.00000E+00 0.00000E+00 0.00000E+00
 -1       561 0.00000E+00 0.00000E+00 0.00000E+00
 -1       562 0.00000E+00 0.00000E+00 0.00000E+00
 -1       563 0.00000E+00 0.00000E+00 0.00000E+00
 -1       564 0.00000E+00 0.00000E+00 0.00000E+00
 -1       565 0.00000E+00 0.00000E+00 0.00000E+00
 -1       566 0.00000E+00 0.00000E+00 0.00000E+00
 -1       567 0.00000E+00 0.00000E+00 0.00000E+00
 -1       568 0.00000E+00 0.00000E+00 0.00000E+00
 -1       569 0.00000E+00 0.00000E+00 0.00000E+00
 -1       570 0.00000E+00 0.00000E+00 0.00000E+00
 -1       571 0.00000E+00 0.00000E+00 0.00000E+00
 -1       572 0.00000E+00 0.00000E+00 0.00000E+00
 -1       573 0.00000E+00 0.00000E+00 0.00000E+00
 -1       574 0.00000E+00 0.00000E+00 0.00000E+00
 -1       575 0.00000E+00 0.00000E+00 0.00000E+00
 -1       576 0.00000E+00 0.00000E+00 0.00000E+00
 -1       577 0.00000E+00 0.00000E+00 0.00000E+00
 -1       578 0.00000E+00 0.00000E+00 0.00000E+00
 -1       579 0.00000E+00 0.00000E+00 0.00000E+00
 -1       580 0.00000E+00 0.00000E+00 0.00000E+00
 -1       581 0.00000E+00 0.00000E+00 0.00000E+00
 -1       582 0.00000E+00 0.00000E+00 0.00000E+00
 -1       583 0.00000E+00 0.00000E+00 0.00000E+00
 -1       584 0.00000E+00 0.00000E+00 0.00000E+00
 -1       585 0.00000E+00 0.00000E+00 0.00000E+00
 -1       586 0.00000E+00 0.00000E+00 0.00000E+00
 -1       587 0.00000E+00 0.00000E+00 0.00000E+00
 -1       588 0.00000E+00 0.00000E+00 0.00000E+00
 -1       589 0.00000E+00 0.00000E+00 0.00000E+00
 -1       590 0.00000E+00 0.00000E+00 0.00000E+00
 -1       591 0.00000E+00 0.00000E+00 0.00000E+00
 -1       592 0.00000E+00 0.00000E+00 0.00000E+00
 -1       593 0.00000E+00 0.00000E+00 0.00000E+00
 -1       594 0.00000E+00 0.00000E+00 0.00000E+00
 -1       595 0.00000E+00 0.00000E+00 0.00000E+00
 -1       596 0.00000E+00 0.00000E+00 0.00000E+00
 -1       597 0.00000E+00 0.00000E+00 0.00000E+00
 -1       598 0.00000E+00 0.00000E+00 0.00000E+00
 -1       599 0.00000E+00 0.00000E+00 0.00000E+00
 -1       600 0.00000E+00 0.00000E+00 0.00000E+00
 -1       601 0.00000E+00 0.00000E+00 0.00000E+00
 -1       602 0.00000E+00 0.00000E+00 0.00000E+00
 -1       603 0.00000E+00 0.00000E+00 0.00000E+00
 -1       604 0.00000E+00 0.00000E+00 0.00000E+00
 -1       605 0.00000E+00 0.00000E+00 0.00000E+00
 -1       606 0.00000E+00 0.00000E+00 0.00000E+00
 -1       607 0.00000E+00 0.00000E+00 0.00000E+00
 -1       608 0.00000E+00 0.00000E+00 0.00000E+00
 -1       609 0.00000E+00 0.00000E+00 0.00000E+00
 -1       610 0.00000E+00 0.00000E+00 0.00000E+00
 -1       611 0.00000E+00 0.00000E+00 0.00000E+00
 -1       612 0.00000E+00 0.00000E+00 0.00000E+00
 -1       613 0.00000E+00 0.00000E+00 0.00000E+00
 -1       614 0.00000E+00 0.00000E+00 0.00000E+00
 -1       615 0.00000E+00 0.00000E+00 0.00000E+00
 -1       616 0.00000E+00 0.00000E+00 0.00000E+00
 -1       617 0.00000E+00 0.00000E+00 0.00000E+00
 -1       618 0.00000E+00 0.00000E+00 0.00000E+00
 -1       619 0.00000E+00 0.00000E+00 0.00000E+00
 -1       620 0.00000E+00 0.00000E+00 0.00000E+00
 -1       621 0.00000E+00 0.00000E+00 0.00000E+00
 -1       622 0.00000E+00 0.00000E+00 0.00000E+00
 -1       623 0.00000E+00 0.00000E+00 0.00000E+00
 -1       624 0.00000E+00 0.00000E+00 0.00000E+00
 -1       625 0.00000E+00 0.00000E+00 0.00000E+00
 -1       626 0.00000E+00 0.00000E+00 0.00000E+00
 -1       627 0.00000E+00 0.00000E+00 0.00000E+00
 -1       628 0.00000E+00 0.00000E+00 0.00000E+00
 -1       629 0.00000E+00 0.00000E+00 0.00000E+00
 -1       630 0.00000E+00 0.00000E+00 0.00000E+00
 -1       631 0.00000E+00 0.00000E+00 0.00000E+00
 -1       632 0.00000E+00 0.00000E+00 0.00000E+00
 -1       633 0.00000E+00 0.00000E+00 0.00000E+00
 -1       634 0.00000E+00 0.00000E+00 0.00000E+00
 -1       635 0.00000E+00 0.00000E+00 0.00000E+00
 -1       636 0.00000E+00 0.00000E+00 0.00000E+00
 -1       637 0.00000E+00 0.00000E+00 0.00000E+00
 -1       638 0.00000E+00 0.00000E+00 0.00000E+00
 -1       639 0.00000E+00 0.00000E+00 0.00000E+00
 -1       640 0.00000E+00 0.00000E+00 0.00000E+00
 -1       656 0.00000E+00 0.00000E+00 0.00000E+00
 -1       657 0.00000E+00 0.00000E+00 0.00000E+00
 -1       658 0.00000E+00 0.00000E+00 0.00000E+00
 -1       659 0.00000E+00 0.00000E+00 0.00000E+00
 -1       660 0.00000E+00 0.00000E+00 0.00000E+00
 -1       661 0.00000E+00 0.00000E+00 0.00000E+00
 -1       662 0.00000E+00 0.00000E+00 0.00000E+00
 -1       663 0.00000E+00 0.00000E+00 0.00000E+00
 -1       664 0.00000E+00 0.00000E+00 0.00000E+00
 -1       665 0.00000E+00 0.00000E+00 0.00000E+00
 -1       666 0.00000E+00 0.00000E+00 0.00000E+00
 -1       667 0.00000E+00 0.00000E+00 0.00000E+00
 -1       668 0.00000E+00 0.00000E+00 0.00000E+00
 -1       669 0.00000E+00 0.00000E+00 0.00000E+00
 -1       670 0.00000E+00 0.00000E+00 0.00000E+00
 -1       671 0.00000E+00 0.00000E+00 0.00000E+00
 -1       672 0.00000E+00 0.00000E+00 0.00000E+00
 -1       673 0.00000E+00 0.00000E+00 0.00000E+00
 -1       674 0.00000E+00 0.00000E+00 0.00000E+00
 -1       675 0.00000E+00 0.00000E+00 0.00000E+00
 -1       676 0.00000E+00 0.00000E+00 0.00000E+00
 -1       677 0.00000E+00 0.00000E+00 0.00000E+00
 -1       678 0.00000E+00 0.00000E+00 0.00000E+00
 -1       679 0.00000E+00 0.00000E+00 0.00000E+00
 -1       680 0.00000E+00 0.00000E+00 0.00000E+00
 -1       771 0.00000E+00 0.00000E+00 0.00000E+00
 -1       772 0.00000E+00 0.00000E+00 0.00000E+00
 -1       773 0.00000E+00 0.00000E+00 0.00000E+00
 -1       774 0.00000E+00 0.00000E+00 0.00000E+00
 -1       775 0.00000E+00 0.00000E+00 0.00000E+00
 -1       776 0.00000E+00 0.00000E+00 0.00000E+00
 -1       777 0.00000E+00 0.00000E+00 0.00000E+00
 -1       778 0.00000E+00 0.00000E+00 0.00000E+00
 -1       779 0.00000E+00 0.00000E+00 0.00000E+00
 -1       780 0.00000E+00 0.00000E+00 0.00000E+00
 -1       781 0.00000E+00 0.00000E+00 0.00000E+00
 -1       782 0.00000E+00 0.00000E+00 0.00000E+00
 -1       783 0.00000E+00 0.00000E+00 0.00000E+00
 -1       784 0.00000E+00 0.00000E+00 0.00000E+00
 -1       785 0.00000E+00 0.00000E+00 0.00000E+00
 -1       786 0.00000E+00 0.00000E+00 0.00000E+00
 -1       787 0.00000E+00 0.00000E+00 0.00000E+00
 -1       788 0.00000E+00 0.00000E+00 0.00000E+00
 -1       789 0.00000E+00 0.00000E+00 0.00000E+00
 -1       790 0.00000E+00 0.00000E+00 0.00000E+00
 -1       791 0.00000E+00 0.00000E+00 0.00000E+00
 -1       792 0.00000E+00 0.00000E+00 0.00000E+00
 -1       793 0.00000E+00 0.00000E+00 0.00000E+00
 -1       794 0.00000E+00 0.00000E+00 0.00000E+00
 -1       795 0.00000E+00 0.00000E+00 0.00000E+00
 -1       796 0.00000E+00 0.00000E+00 0.00000E+00
 -1       797 0.00000E+00 0.00000E+00 0.00000E+00
 -1       798 0.00000E+00 0.00000E+00 0.00000E+00
 -1       799 0.00000E+00 0.00000E+00 0.00000E+00
 -1       800 0.00000E+00 0.00000E+00 0.00000E+00
 -1       801 0.00000E+00 0.00000E+00 0.00000E+00
 -1       802 0.00000E+00 0.00000E+00 0.00000E+00
 -1       803 0.00000E+00 0.00000E+00 0.00000E+00
 -1       804 0.00000E+00 0.00000E+00 0.00000E+00
 -1       805 0.00000E+00 0.00000E+00 0.00000E+00
 -1       806 0.00000E+00 0.00000E+00 0.00000E+00
 -1       807 0.00000E+00 0.00000E+00 0.00000E+00
 -1       808 0.00000E+00 0.00000E+00 0.00000E+00
 -1       809 0.00000E+00 0.00000E+00 0.00000E+00
 -1       810 0.00000E+00 0.00000E+00 0.00000E+00
 -1       811 0.00000E+00 0.00000E+00 0.00000E+00
 -1       812 0.00000E+00 0.00000E+00 0.00000E+00
 -1       813 0.00000E+00 0.00000E+00 0.00000E+00
 -1       814 0.00000E+00 0.00000E+00 0.00000E+00
 -1       815 0.00000E+00 0.00000E+00 0.00000E+00
 -1       816 0.00000E+00 0.00000E+00 0.00000E+00
 -1       817 0.00000E+00 0.00000E+00 0.00000E+00
 -1       818 0.00000E+00 0.00000E+00 0.00000E+00
 -1       819 0.00000E+00 0.00000E+00 0.00000E+00
 -1       820 0.00000E+00 0.00000E+00 0.00000E+00
 -1       821 0.00000E+00 0.00000E+00 0.00000E+00
 -1       822 0.00000E+00 0.00000E+00 0.00000E+00
 -1       823 0.00000E+00 0.00000E+00 0.00000E+00
 -1       824 0.00000E+00 0.00000E+00 0.00000E+00
 -1       825 0.00000E+00 0.00000E+00 0.00000E+00
 -1       826 0.00000E+00 0.00000E+00 0.00000E+00
 -1       827 0.00000E+00 0.00000E+00 0.00000E+00
 -1       828 0.00000E+00 0.00000E+00 0.00000E+00
 -1       829 0.00000E+00 0.00000E+00 0.00000E+00
 -1       830 0.00000E+00 0.00000E+00 0.00000E+00
 -1       831 0.00000E+00 0.00000E+00 0.00000E+00
 -1       832 0.00000E+00 0.00000E+00 0.00000E+00
 -1       833 0.00000E+00 0.00000E+00 0.00000E+00
 -1       834 0.00000E+00 0.00000E+00 0.00000E+00
 -1       835 0.00000E+00 0.00000E+00 0.00000E+00
 -1       836 0.00000E+00 0.00000E+00 0.00000E+00
 -1       837 0.00000E+00 0.00000E+00 0.00000E+00
 -1       838 0.00000E+00 0.00000E+00 0.00000E+00
 -1       839 0.00000E+00 0.00000E+00 0.00000E+00
 -1       840 0.00000E+00 0.00000E+00 0.00000E+00
 -1       856 0.00000E+00 0.00000E+00 0.00000E+00
 -1       857 0.00000E+00 0.00000E+00 0.00000E+00
 -1       858 0.00000E+00 0.00000E+00 0.00000E+00
 -1       859 0.00000E+00 0.00000E+00 0.00000E+00
 -1       860 0.00000E+00 0.00000E+00 0.00000E+00
 -1       861 0.00000E+00 0.00000E+00 0.00000E+00
 -1       862 0.00000E+00 0.00000E+00 0.00000E+00
 -1       863 0.00000E+00 0.00000E+00 0.00000E+00
 -1       864 0.00000E+00 0.00000E+00 0.00000E+00
 -1       865 0.00000E+00 0.00000E+00 0.00000E+00
 -1       866 0.00000E+00 0.00000E+00 0.00000E+00
 -1       867 0.00000E+00 0.00000E+00 0.00000E+00
 -1       868 0.00000E+00 0.00000E+00 0.00000E+00
 -1       869 0.00000E+00 0.00000E+00 0.00000E+00
 -1       870 0.00000E+00 0.00000E+00 0.00000E+00
 -1       871 0.00000E+00 0.00000E+00 0.00000E+00
 -1       872 0.00000E+00 0.00000E+00 0.00000E+00
 -1       873 0.00000E+00 0.00000E+00 0.00000E+00
 -1       874 0.00000E+00 0.00000E+00 0.00000E+00
 -1       875 0.00000E+00 0.00000E+00 0.00000E+00
 -1       876 0.00000E+00 0.00000E+00 0.00000E+00
 -1       877 0.00000E+00 0.00000E+00 0.00000E+00
 -1       878 0.00000E+00 0.00000E+00 0.00000E+00
 -1       879 0.00000E+00 0.00000E+00 0.00000E+00
 -1       880 0.00000E+00 0.00000E+00 0.00000E+00
 -1       881 0.00000E+00 0.00000E+00 0.00000E+00
 -1       882 0.00000E+00 0.00000E+00 0.00000E+00
 -1       883 0.00000E+00 0.00000E+00 0.00000E+00
 -1       884 0.00000E+00 0.00000E+00 0.00000E+00
 -1       885 0.00000E+00 0.00000E+00 0.00000E+00
 -1       886 0.00000E+00 0.00000E+00 0.00000E+00
 -1       887 0.00000E+00 0.00000E+00 0.00000E+00
 -1       888 0.00000E+00 0.00000E+00 0.00000E+00
 -1       889 0.00000E+00 0.00000E+00 0.00000E+00
 -1       890 0.00000E+00 0.00000E+00 0.00000E+00
 -1       891 0.00000E+00 0.00000E+00 0.00000E+00
 -1       892 0.00000E+00 0.00000E+00 0.00000E+00
 -1       893 0.00000E+00 0.00000E+00 0.00000E+00
 -1       894 0.00000E+00 0.00000E+00 0.00000E+00
 -1       895 0.00000E+00 0.00000E+00 0.00000E+00
 -1       956 0.00000E+00 0.00000E+00 0.00000E+00
 -1       957 0.00000E+00 0.00000E+00 0.00000E+00
 -1       958 0.00000E+00 0.00000E+00 0.00000E+00
 -1       959 0.00000E+00 0.00000E+00 0.00000E+00
 -1       960 0.00000E+00 0.00000E+00 0.00000E+00
 -1       961 0.00000E+00 0.00000E+00 0.00000E+00
 -1       962 0.00000E+00 0.00000E+00 0.00000E+00
 -1       963 0.00000E+00 0.00000E+00 0.00000E+00
 -1       964 0.00000E+00 0.00000E+00 0.00000E+00
 -1       965 0.00000E+00 0.00000E+00 0.00000E+00
 -1       966 0.00000E+00 0.00000E+00 0.00000E+00
 -1       967 0.00000E+00 0.00000E+00 0.00000E+00
 -1       968 0.00000E+00 0.00000E+00 0.00000E+00
 -1       969 0.00000E+00 0.00000E+00 0.00000E+00
 -1       970 0.00000E+00 0.00000E+00 0.00000E+00
 -1       971 0.00000E+00 0.00000E+00 0.00000E+00
 -1       972 0.00000E+00 0.00000E+00 0.00000E+00
 -1       973 0.00000E+00 0.00000E+00 0.00000E+00
 -1       974 0.00000E+00 0.00000E+00 0.00000E+00
 -1       975 0.00000E+00 0.00000E+00 0.00000E+00
 -1       976 0.00000E+00 0.00000E+00 0.00000E+00
 -1       977 0.00000E+00 0.00000E+00 0.00000E+00
 -1       978 0.00000E+00 0.00000E+00 0.00000E+00
 -1       979 0.00000E+00 0.00000E+00 0.00000E+00
 -1       980 0.00000E+00 0.00000E+00 0.00000E+00
 -1       981 0.00000E+00 0.00000E+00 0.00000E+00
 -1       982 0.00000E+00 0.00000E+00 0.00000E+00
 -1       983 0.00000E+00 0.00000E+00 0.00000E+00
 -1       984 0.00000E+00 0.00000E+00 0.00000E+00
 -1       985 0.00000E+00 0.00000E+00 0.00000E+00
 -3
