
 stresses (elem, integ.pnt.,sxx,syy,szz,sxy,sxz,syz) for set ELALL and time  0.1000000E+01

         1   1 -3.517150E+06 -3.322164E+05 -4.207515E+05 -1.001326E+05 -2.870596E+05  4.654949E+01
         1   2 -3.458312E+06  5.024929E+04 -1.836257E+05 -2.867487E+04 -1.878852E+05  8.724489E+00
         1   3 -3.516573E+06  1.677106E+04 -1.152886E+05  4.279077E+04 -8.871203E+04 -6.147788E+00
         1   4 -3.517161E+06 -3.322354E+05 -4.207542E+05  1.693226E-08 -2.870596E+05 -3.142448E-10
         1   5 -3.458313E+06  5.024773E+04 -1.836260E+05 -1.435741E-08 -1.878852E+05 -9.892815E-10
         1   6 -3.516575E+06  1.676760E+04 -1.152891E+05  9.191913E-09 -8.871203E+04 -1.284994E-09
         1   7 -3.517150E+06 -3.322164E+05 -4.207515E+05  1.001326E+05 -2.870596E+05 -4.654949E+01
         1   8 -3.458312E+06  5.024929E+04 -1.836257E+05  2.867487E+04 -1.878852E+05 -8.724489E+00
         1   9 -3.516573E+06  1.677106E+04 -1.152886E+05 -4.279077E+04 -8.871203E+04  6.147788E+00
         1  10 -3.517239E+06 -3.322387E+05 -4.209072E+05 -1.001326E+05 -7.556166E-10 -5.250297E-10
         1  11 -3.458350E+06  5.023974E+04 -1.836924E+05 -2.867487E+04  1.414587E-10 -1.436254E-09
         1  12 -3.516581E+06  1.676893E+04 -1.153035E+05  4.279077E+04  1.380876E-09 -1.009080E-09
         1  13 -3.517250E+06 -3.322577E+05 -4.209099E+05  8.268640E-09  1.677940E-11 -1.789056E-10
         1  14 -3.458351E+06  5.023819E+04 -1.836927E+05  2.825733E-09  2.131191E-09 -6.113621E-10
         1  15 -3.516583E+06  1.676547E+04 -1.153040E+05 -9.087665E-09  2.369552E-09 -6.999101E-10
         1  16 -3.517239E+06 -3.322387E+05 -4.209072E+05  1.001326E+05  1.851132E-09  2.356685E-10
         1  17 -3.458350E+06  5.023974E+04 -1.836924E+05  2.867487E+04  9.172750E-10  8.407077E-11
         1  18 -3.516581E+06  1.676893E+04 -1.153035E+05 -4.279077E+04  8.873460E-10 -1.006617E-09
         1  19 -3.517150E+06 -3.322164E+05 -4.207515E+05 -1.001326E+05  2.870596E+05 -4.654949E+01
         1  20 -3.458312E+06  5.024929E+04 -1.836257E+05 -2.867487E+04  1.878852E+05 -8.724489E+00
         1  21 -3.516573E+06  1.677106E+04 -1.152886E+05  4.279077E+04  8.871203E+04  6.147788E+00
         1  22 -3.517161E+06 -3.322354E+05 -4.207542E+05  2.543631E-08  2.870596E+05 -7.159098E-11
         1  23 -3.458313E+06  5.024773E+04 -1.836260E+05  2.001945E-08  1.878852E+05 -4.062116E-10
         1  24 -3.516575E+06  1.676760E+04 -1.152891E+05  6.024028E-10  8.871203E+04 -2.222545E-10
         1  25 -3.517150E+06 -3.322164E+05 -4.207515E+05  1.001326E+05  2.870596E+05  4.654949E+01
         1  26 -3.458312E+06  5.024929E+04 -1.836257E+05  2.867487E+04  1.878852E+05  8.724489E+00
         1  27 -3.516573E+06  1.677106E+04 -1.152886E+05 -4.279077E+04  8.871203E+04 -6.147788E+00
         2   1 -3.493934E+06 -3.615734E+04 -9.418343E+04 -9.879993E+03 -7.076981E+04  1.132334E+00
         2   2 -3.486581E+06  5.620707E+03 -4.762618E+04 -2.471247E+03 -4.633879E+04  1.854507E-01
         2   3 -3.493839E+06  1.805630E+03 -2.843713E+04  4.937465E+03 -2.190728E+04 -1.751724E-01
         2   4 -3.493934E+06 -3.615753E+04 -9.418346E+04 -2.342054E-09 -7.076981E+04 -3.758481E-10
         2   5 -3.486581E+06  5.620696E+03 -4.762618E+04 -9.926702E-10 -4.633879E+04  1.150491E-09
         2   6 -3.493839E+06  1.805584E+03 -2.843714E+04  2.992782E-08 -2.190728E+04 -3.134898E-10
         2   7 -3.493934E+06 -3.615734E+04 -9.418343E+04  9.879993E+03 -7.076981E+04 -1.132334E+00
         2   8 -3.486581E+06  5.620707E+03 -4.762618E+04  2.471247E+03 -4.633879E+04 -1.854507E-01
         2   9 -3.493839E+06  1.805630E+03 -2.843713E+04 -4.937465E+03 -2.190728E+04  1.751724E-01
         2  10 -3.493940E+06 -3.615869E+04 -9.419290E+04 -9.879993E+03  3.266872E-10  1.305112E-10
         2  11 -3.486583E+06  5.620127E+03 -4.763023E+04 -2.471247E+03 -2.198378E-09  4.873161E-10
         2  12 -3.493840E+06  1.805501E+03 -2.843804E+04  4.937465E+03  1.523163E-10  6.774438E-10
         2  13 -3.493940E+06 -3.615888E+04 -9.419292E+04 -3.666048E-08  1.150265E-11 -2.571585E-10
         2  14 -3.486583E+06  5.620115E+03 -4.763024E+04  7.638520E-09 -1.954271E-09  6.321279E-10
         2  15 -3.493840E+06  1.805455E+03 -2.843805E+04  3.481958E-10 -1.585801E-09  6.283015E-10
         2  16 -3.493940E+06 -3.615869E+04 -9.419290E+04  9.879993E+03 -1.756701E-10 -1.409286E-10
         2  17 -3.486583E+06  5.620127E+03 -4.763023E+04  2.471247E+03 -7.625112E-10  1.021872E-09
         2  18 -3.493840E+06  1.805501E+03 -2.843804E+04 -4.937465E+03 -1.239344E-09  1.609947E-10
         2  19 -3.493934E+06 -3.615734E+04 -9.418343E+04 -9.879993E+03  7.076981E+04 -1.132334E+00
         2  20 -3.486581E+06  5.620707E+03 -4.762618E+04 -2.471247E+03  4.633879E+04 -1.854507E-01
         2  21 -3.493839E+06  1.805630E+03 -2.843713E+04  4.937465E+03  2.190728E+04  1.751724E-01
         2  22 -3.493934E+06 -3.615753E+04 -9.418346E+04 -3.662064E-08  7.076981E+04 -2.138797E-10
         2  23 -3.486581E+06  5.620696E+03 -4.762618E+04 -5.240025E-09  4.633879E+04  9.633909E-11
         2  24 -3.493839E+06  1.805584E+03 -2.843714E+04  1.534817E-08  2.190728E+04  1.441284E-09
         2  25 -3.493934E+06 -3.615734E+04 -9.418343E+04  9.879993E+03  7.076981E+04  1.132334E+00
         2  26 -3.486581E+06  5.620707E+03 -4.762618E+04  2.471247E+03  4.633879E+04  1.854507E-01
         2  27 -3.493839E+06  1.805630E+03 -2.843713E+04 -4.937465E+03  2.190728E+04 -1.751724E-01
         3   1 -3.491059E+06 -3.875284E+03 -2.231798E+04 -8.057723E+02 -1.742711E+04  2.274096E-02
         3   2 -3.490028E+06  6.418037E+02 -1.219257E+04 -1.056133E+02 -1.131080E+04  1.934562E-03
         3   3 -3.491042E+06  1.863691E+02 -7.308834E+03  5.945324E+02 -5.194535E+03 -5.001426E-03
         3   4 -3.491059E+06 -3.875285E+03 -2.231798E+04  1.584119E-08 -1.742711E+04 -4.687320E-10
         3   5 -3.490028E+06  6.418036E+02 -1.219257E+04  1.542565E-08 -1.131080E+04  6.672035E-10
         3   6 -3.491042E+06  1.863685E+02 -7.308834E+03  1.288012E-08 -5.194535E+03 -7.995718E-10
         3   7 -3.491059E+06 -3.875284E+03 -2.231798E+04  8.057723E+02 -1.742711E+04 -2.274096E-02
         3   8 -3.490028E+06  6.418037E+02 -1.219257E+04  1.056133E+02 -1.131080E+04 -1.934561E-03
         3   9 -3.491042E+06  1.863691E+02 -7.308834E+03 -5.945324E+02 -5.194535E+03  5.001425E-03
         3  10 -3.491060E+06 -3.875366E+03 -2.231856E+04 -8.057723E+02 -2.541569E-09  7.858681E-10
         3  11 -3.490028E+06  6.417691E+02 -1.219281E+04 -1.056133E+02 -4.506283E-10 -4.955203E-10
         3  12 -3.491042E+06  1.863619E+02 -7.308885E+03  5.945324E+02 -4.951151E-09 -2.211862E-10
         3  13 -3.491060E+06 -3.875367E+03 -2.231856E+04  2.889475E-09 -4.256476E-09  3.243804E-10
         3  14 -3.490028E+06  6.417691E+02 -1.219281E+04  6.803067E-09 -1.075447E-09  1.242852E-11
         3  15 -3.491042E+06  1.863612E+02 -7.308885E+03  2.792818E-08 -4.772408E-09 -3.239240E-10
         3  16 -3.491060E+06 -3.875366E+03 -2.231856E+04  8.057723E+02 -3.366686E-09  1.061446E-10
         3  17 -3.490028E+06  6.417691E+02 -1.219281E+04  1.056133E+02 -1.856485E-10  8.931389E-10
         3  18 -3.491042E+06  1.863619E+02 -7.308885E+03 -5.945324E+02 -1.520106E-09 -1.356023E-10
         3  19 -3.491059E+06 -3.875284E+03 -2.231798E+04 -8.057723E+02  1.742711E+04 -2.274096E-02
         3  20 -3.490028E+06  6.418037E+02 -1.219257E+04 -1.056133E+02  1.131080E+04 -1.934563E-03
         3  21 -3.491042E+06  1.863691E+02 -7.308834E+03  5.945324E+02  5.194535E+03  5.001426E-03
         3  22 -3.491059E+06 -3.875285E+03 -2.231798E+04 -1.464804E-09  1.742711E+04  1.052865E-09
         3  23 -3.490028E+06  6.418036E+02 -1.219257E+04  1.537950E-08  1.131080E+04 -6.411252E-10
         3  24 -3.491042E+06  1.863685E+02 -7.308834E+03  3.010637E-08  5.194535E+03  2.360760E-10
         3  25 -3.491059E+06 -3.875284E+03 -2.231798E+04  8.057723E+02  1.742711E+04  2.274096E-02
         3  26 -3.490028E+06  6.418037E+02 -1.219257E+04  1.056133E+02  1.131080E+04  1.934561E-03
         3  27 -3.491042E+06  1.863691E+02 -7.308834E+03 -5.945324E+02  5.194535E+03 -5.001428E-03
         4   1 -3.490674E+06 -3.990757E+02 -5.782550E+03 -2.947728E+01 -4.022758E+03  1.920370E-04
         4   2 -3.490479E+06  8.489642E+01 -3.698622E+03  1.808324E+01 -2.186389E+03 -6.402850E-05
         4   3 -3.490671E+06 -1.664673E+01 -2.961694E+03  6.564442E+01 -3.499886E+02 -3.720744E-05
         4   4 -3.490674E+06 -3.990757E+02 -5.782550E+03  3.699307E-08 -4.022758E+03 -8.414110E-10
         4   5 -3.490479E+06  8.489642E+01 -3.698622E+03 -1.582483E-08 -2.186389E+03  7.666283E-10
         4   6 -3.490671E+06 -1.664674E+01 -2.961694E+03 -1.983114E-09 -3.499886E+02  1.140531E-11
         4   7 -3.490674E+06 -3.990757E+02 -5.782550E+03  2.947728E+01 -4.022758E+03 -1.920383E-04
         4   8 -3.490479E+06  8.489642E+01 -3.698622E+03 -1.808324E+01 -2.186389E+03  6.402880E-05
         4   9 -3.490671E+06 -1.664673E+01 -2.961694E+03 -6.564442E+01 -3.499886E+02  3.720711E-05
         4  10 -3.490674E+06 -3.990801E+02 -5.782581E+03 -2.947728E+01 -2.643310E-09  3.260003E-10
         4  11 -3.490479E+06  8.489513E+01 -3.698631E+03  1.808324E+01 -2.297683E-09 -9.020662E-10
         4  12 -3.490671E+06 -1.664676E+01 -2.961694E+03  6.564442E+01  1.722021E-09 -7.392377E-10
         4  13 -3.490674E+06 -3.990801E+02 -5.782581E+03  4.564079E-08 -6.677615E-09 -2.098206E-10
         4  14 -3.490479E+06  8.489513E+01 -3.698631E+03  1.427964E-08 -1.993130E-09  1.134263E-11
         4  15 -3.490671E+06 -1.664677E+01 -2.961694E+03  1.342430E-10  2.446242E-10 -5.227344E-10
         4  16 -3.490674E+06 -3.990801E+02 -5.782581E+03  2.947728E+01 -1.379234E-09 -6.760002E-10
         4  17 -3.490479E+06  8.489513E+01 -3.698631E+03 -1.808324E+01 -7.518397E-10  6.572113E-10
         4  18 -3.490671E+06 -1.664676E+01 -2.961694E+03 -6.564442E+01 -1.436588E-09 -5.912651E-11
         4  19 -3.490674E+06 -3.990757E+02 -5.782550E+03 -2.947728E+01  4.022758E+03 -1.920358E-04
         4  20 -3.490479E+06  8.489642E+01 -3.698622E+03  1.808324E+01  2.186389E+03  6.402835E-05
         4  21 -3.490671E+06 -1.664673E+01 -2.961694E+03  6.564442E+01  3.499886E+02  3.720519E-05
         4  22 -3.490674E+06 -3.990757E+02 -5.782550E+03  4.567016E-08  4.022758E+03  4.777681E-10
         4  23 -3.490479E+06  8.489642E+01 -3.698622E+03 -1.584371E-08  2.186389E+03 -8.042728E-10
         4  24 -3.490671E+06 -1.664674E+01 -2.961694E+03  7.053408E-09  3.499886E+02 -1.016470E-09
         4  25 -3.490674E+06 -3.990757E+02 -5.782550E+03  2.947728E+01  4.022758E+03  1.920359E-04
         4  26 -3.490479E+06  8.489642E+01 -3.698622E+03 -1.808324E+01  2.186389E+03 -6.402992E-05
         4  27 -3.490671E+06 -1.664673E+01 -2.961694E+03 -6.564442E+01  3.499886E+02 -3.720725E-05
         5   1 -3.490667E+06 -2.055351E+01 -2.932782E+03 -5.896092E+01  1.805102E+02 -1.723545E-05
         5   2 -3.490484E+06  8.026290E+01 -3.540698E+03 -1.494499E+01  1.938318E+03 -4.691262E-05
         5   3 -3.490670E+06 -3.709582E+02 -5.435866E+03  2.907097E+01  3.696124E+03  1.740116E-04
         5   4 -3.490667E+06 -2.055352E+01 -2.932782E+03  1.586794E-08  1.805102E+02 -4.037221E-10
         5   5 -3.490484E+06  8.026290E+01 -3.540698E+03  3.515560E-08  1.938318E+03 -1.199363E-10
         5   6 -3.490670E+06 -3.709582E+02 -5.435866E+03  7.116748E-09  3.696124E+03 -1.885197E-10
         5   7 -3.490667E+06 -2.055351E+01 -2.932782E+03  5.896092E+01  1.805102E+02  1.723494E-05
         5   8 -3.490484E+06  8.026290E+01 -3.540698E+03  1.494499E+01  1.938318E+03  4.691180E-05
         5   9 -3.490670E+06 -3.709582E+02 -5.435866E+03 -2.907097E+01  3.696124E+03 -1.740121E-04
         5  10 -3.490667E+06 -2.055352E+01 -2.932782E+03 -5.896092E+01 -1.117448E-09 -2.888825E-10
         5  11 -3.490484E+06  8.026189E+01 -3.540705E+03 -1.494499E+01  1.116606E-09  5.572161E-10
         5  12 -3.490670E+06 -3.709619E+02 -5.435892E+03  2.907097E+01  2.066245E-10 -3.593691E-10
         5  13 -3.490667E+06 -2.055352E+01 -2.932782E+03  1.594555E-08  3.826829E-10 -2.745176E-10
         5  14 -3.490484E+06  8.026189E+01 -3.540705E+03  9.346675E-09 -6.294946E-09  4.290861E-10
         5  15 -3.490670E+06 -3.709619E+02 -5.435892E+03 -1.444278E-08  3.455076E-09 -4.175039E-10
         5  16 -3.490667E+06 -2.055352E+01 -2.932782E+03  5.896092E+01  1.072119E-09 -5.275665E-10
         5  17 -3.490484E+06  8.026189E+01 -3.540705E+03  1.494499E+01 -1.598108E-09  1.675266E-10
         5  18 -3.490670E+06 -3.709619E+02 -5.435892E+03 -2.907097E+01 -8.786881E-10 -6.192477E-10
         5  19 -3.490667E+06 -2.055351E+01 -2.932782E+03 -5.896092E+01 -1.805102E+02  1.723677E-05
         5  20 -3.490484E+06  8.026290E+01 -3.540698E+03 -1.494499E+01 -1.938318E+03  4.691478E-05
         5  21 -3.490670E+06 -3.709582E+02 -5.435866E+03  2.907097E+01 -3.696124E+03 -1.740113E-04
         5  22 -3.490667E+06 -2.055352E+01 -2.932782E+03  7.417396E-09 -1.805102E+02 -2.028309E-10
         5  23 -3.490484E+06  8.026290E+01 -3.540698E+03 -3.548349E-09 -1.938318E+03  7.678916E-10
         5  24 -3.490670E+06 -3.709582E+02 -5.435866E+03 -8.594875E-09 -3.696124E+03 -5.816578E-10
         5  25 -3.490667E+06 -2.055351E+01 -2.932782E+03  5.896092E+01 -1.805102E+02 -1.723743E-05
         5  26 -3.490484E+06  8.026290E+01 -3.540698E+03  1.494499E+01 -1.938318E+03 -4.691250E-05
         5  27 -3.490670E+06 -3.709582E+02 -5.435866E+03 -2.907097E+01 -3.696124E+03  1.740107E-04
         6   1 -3.491010E+06  1.729840E+02 -6.841322E+03 -5.521164E+02  4.795018E+03 -4.287385E-03
         6   2 -3.490066E+06  5.970898E+02 -1.136430E+04  9.877633E+01  1.049569E+04  1.678940E-03
         6   3 -3.491027E+06 -3.604065E+03 -2.077051E+04  7.496619E+02  1.619624E+04  1.966305E-02
         6   4 -3.491010E+06  1.729834E+02 -6.841322E+03  1.504339E-08  4.795018E+03 -2.837025E-10
         6   5 -3.490066E+06  5.970898E+02 -1.136430E+04 -1.585611E-08  1.049569E+04  1.010790E-09
         6   6 -3.491027E+06 -3.604066E+03 -2.077051E+04  6.454628E-09  1.619624E+04  2.141474E-09
         6   7 -3.491010E+06  1.729840E+02 -6.841322E+03  5.521164E+02  4.795018E+03  4.287385E-03
         6   8 -3.490066E+06  5.970898E+02 -1.136430E+04 -9.877633E+01  1.049569E+04 -1.678938E-03
         6   9 -3.491027E+06 -3.604065E+03 -2.077051E+04 -7.496619E+02  1.619624E+04 -1.966305E-02
         6  10 -3.491010E+06  1.729778E+02 -6.841365E+03 -5.521164E+02 -5.399505E-10  4.983993E-10
         6  11 -3.490066E+06  5.970600E+02 -1.136450E+04  9.877633E+01 -3.011178E-09  8.008729E-10
         6  12 -3.491027E+06 -3.604136E+03 -2.077100E+04  7.496619E+02 -2.223803E-09  2.678724E-10
         6  13 -3.491010E+06  1.729772E+02 -6.841365E+03 -6.342057E-09 -2.399174E-09 -3.706332E-10
         6  14 -3.490066E+06  5.970600E+02 -1.136450E+04 -1.582675E-08 -2.818283E-10  8.299468E-10
         6  15 -3.491027E+06 -3.604137E+03 -2.077100E+04 -1.670771E-08 -1.715081E-09  6.955763E-10
         6  16 -3.491010E+06  1.729778E+02 -6.841365E+03  5.521164E+02  2.647917E-10 -7.025353E-10
         6  17 -3.490066E+06  5.970600E+02 -1.136450E+04 -9.877633E+01  2.158066E-09  4.532928E-10
         6  18 -3.491027E+06 -3.604136E+03 -2.077100E+04 -7.496619E+02  1.878236E-09  1.089914E-09
         6  19 -3.491010E+06  1.729840E+02 -6.841322E+03 -5.521164E+02 -4.795018E+03  4.287387E-03
         6  20 -3.490066E+06  5.970898E+02 -1.136430E+04  9.877633E+01 -1.049569E+04 -1.678938E-03
         6  21 -3.491027E+06 -3.604065E+03 -2.077051E+04  7.496619E+02 -1.619624E+04 -1.966305E-02
         6  22 -3.491010E+06  1.729834E+02 -6.841322E+03  2.816707E-08 -4.795018E+03 -3.215772E-10
         6  23 -3.490066E+06  5.970898E+02 -1.136430E+04  1.431138E-08 -1.049569E+04  9.359702E-10
         6  24 -3.491027E+06 -3.604066E+03 -2.077051E+04  1.390315E-08 -1.619624E+04 -7.967038E-10
         6  25 -3.491010E+06  1.729840E+02 -6.841322E+03  5.521164E+02 -4.795018E+03 -4.287386E-03
         6  26 -3.490066E+06  5.970898E+02 -1.136430E+04 -9.877633E+01 -1.049569E+04  1.678940E-03
         6  27 -3.491027E+06 -3.604065E+03 -2.077051E+04 -7.496619E+02 -1.619624E+04  1.966305E-02
         7   1 -3.493612E+06  1.679321E+03 -2.645805E+04 -4.591687E+03  2.036546E+04 -1.514396E-01
         7   2 -3.486861E+06  5.227312E+03 -4.429977E+04  2.298497E+03  4.308991E+04  1.603938E-01
         7   3 -3.493700E+06 -3.362726E+04 -8.759625E+04  9.188814E+03  6.581428E+04  9.793767E-01
         7   4 -3.493612E+06  1.679281E+03 -2.645805E+04 -1.170700E-08  2.036546E+04  1.007777E-09
         7   5 -3.486861E+06  5.227302E+03 -4.429977E+04  5.900702E-09  4.308991E+04 -1.705766E-09
         7   6 -3.493700E+06 -3.362742E+04 -8.759627E+04  2.080078E-08  6.581428E+04  4.622442E-10
         7   7 -3.493612E+06  1.679321E+03 -2.645805E+04  4.591687E+03  2.036546E+04  1.514396E-01
         7   8 -3.486861E+06  5.227312E+03 -4.429977E+04 -2.298497E+03  4.308991E+04 -1.603938E-01
         7   9 -3.493700E+06 -3.362726E+04 -8.759625E+04 -9.188814E+03  6.581428E+04 -9.793767E-01
         7  10 -3.493612E+06  1.679208E+03 -2.645883E+04 -4.591687E+03 -1.934668E-09 -7.408793E-10
         7  11 -3.486863E+06  5.226811E+03 -4.430328E+04  2.298497E+03 -1.559631E-09 -5.445632E-10
         7  12 -3.493705E+06 -3.362843E+04 -8.760444E+04  9.188814E+03 -1.189687E-09  1.023812E-09
         7  13 -3.493612E+06  1.679169E+03 -2.645884E+04  1.095834E-09 -1.836287E-09 -3.180828E-10
         7  14 -3.486863E+06  5.226801E+03 -4.430328E+04 -6.979861E-09 -1.237280E-10 -9.497621E-10
         7  15 -3.493705E+06 -3.362859E+04 -8.760446E+04 -1.934040E-08  2.179228E-09  7.230809E-10
         7  16 -3.493612E+06  1.679208E+03 -2.645883E+04  4.591687E+03  2.711815E-10 -9.935497E-11
         7  17 -3.486863E+06  5.226811E+03 -4.430328E+04 -2.298497E+03 -9.877686E-10 -8.796363E-10
         7  18 -3.493705E+06 -3.362843E+04 -8.760444E+04 -9.188814E+03  1.293942E-09  3.741115E-10
         7  19 -3.493612E+06  1.679321E+03 -2.645805E+04 -4.591687E+03 -2.036546E+04  1.514396E-01
         7  20 -3.486861E+06  5.227312E+03 -4.429977E+04  2.298497E+03 -4.308991E+04 -1.603938E-01
         7  21 -3.493700E+06 -3.362726E+04 -8.759625E+04  9.188814E+03 -6.581428E+04 -9.793767E-01
         7  22 -3.493612E+06  1.679281E+03 -2.645805E+04  1.387773E-08 -2.036546E+04 -1.425773E-09
         7  23 -3.486861E+06  5.227302E+03 -4.429977E+04  5.951112E-09 -4.308991E+04 -2.311182E-10
         7  24 -3.493700E+06 -3.362742E+04 -8.759627E+04 -1.004586E-08 -6.581428E+04  8.280548E-10
         7  25 -3.493612E+06  1.679321E+03 -2.645805E+04  4.591687E+03 -2.036546E+04 -1.514396E-01
         7  26 -3.486861E+06  5.227312E+03 -4.429977E+04 -2.298497E+03 -4.308991E+04  1.603938E-01
         7  27 -3.493700E+06 -3.362726E+04 -8.759625E+04 -9.188814E+03 -6.581428E+04  9.793767E-01
         8   1 -3.514754E+06  1.559678E+04 -1.072242E+05 -3.979566E+04  8.250205E+04 -5.317233E+00
         8   2 -3.460571E+06  4.673223E+04 -1.707822E+05  2.666774E+04  1.747347E+05  7.545935E+00
         8   3 -3.515293E+06 -3.089694E+05 -3.913191E+05  9.312522E+04  2.669695E+05  4.026213E+01
         8   4 -3.514756E+06  1.559379E+04 -1.072246E+05 -1.122647E-08  8.250205E+04  1.321634E-09
         8   5 -3.460572E+06  4.673088E+04 -1.707824E+05 -7.299396E-09  1.747347E+05 -4.789760E-10
         8   6 -3.515303E+06 -3.089858E+05 -3.913215E+05  1.168186E-08  2.669695E+05 -5.455558E-10
         8   7 -3.514754E+06  1.559678E+04 -1.072242E+05  3.979566E+04  8.250205E+04  5.317233E+00
         8   8 -3.460571E+06  4.673223E+04 -1.707822E+05 -2.666774E+04  1.747347E+05 -7.545935E+00
         8   9 -3.515293E+06 -3.089694E+05 -3.913191E+05 -9.312522E+04  2.669695E+05 -4.026213E+01
         8  10 -3.514761E+06  1.559494E+04 -1.072371E+05 -3.979566E+04  3.311317E-09  8.457171E-10
         8  11 -3.460604E+06  4.672397E+04 -1.708399E+05  2.666774E+04  7.941997E-10 -1.216516E-09
         8  12 -3.515370E+06 -3.089886E+05 -3.914538E+05  9.312522E+04 -8.475936E-12 -8.592685E-10
         8  13 -3.514763E+06  1.559195E+04 -1.072375E+05 -1.566074E-08 -2.083578E-09  7.908454E-10
         8  14 -3.460605E+06  4.672263E+04 -1.708401E+05  7.723200E-09  2.339473E-09 -8.960938E-10
         8  15 -3.515380E+06 -3.090050E+05 -3.914562E+05  7.439320E-09 -1.551010E-09 -5.418979E-10
         8  16 -3.514761E+06  1.559494E+04 -1.072371E+05  3.979566E+04 -8.832499E-10  6.339566E-10
         8  17 -3.460604E+06  4.672397E+04 -1.708399E+05 -2.666774E+04  2.503416E-09 -6.079170E-10
         8  18 -3.515370E+06 -3.089886E+05 -3.914538E+05 -9.312522E+04  4.183913E-10 -1.997511E-10
         8  19 -3.514754E+06  1.559678E+04 -1.072242E+05 -3.979566E+04 -8.250205E+04  5.317233E+00
         8  20 -3.460571E+06  4.673223E+04 -1.707822E+05  2.666774E+04 -1.747347E+05 -7.545935E+00
         8  21 -3.515293E+06 -3.089694E+05 -3.913191E+05  9.312522E+04 -2.669695E+05 -4.026213E+01
         8  22 -3.514756E+06  1.559379E+04 -1.072246E+05 -1.579081E-08 -8.250205E+04  2.509345E-10
         8  23 -3.460572E+06  4.673088E+04 -1.707824E+05 -1.167280E-08 -1.747347E+05 -1.361378E-09
         8  24 -3.515303E+06 -3.089858E+05 -3.913215E+05  1.233723E-08 -2.669695E+05 -4.934260E-10
         8  25 -3.514754E+06  1.559678E+04 -1.072242E+05  3.979566E+04 -8.250205E+04 -5.317233E+00
         8  26 -3.460571E+06  4.673223E+04 -1.707822E+05 -2.666774E+04 -1.747347E+05  7.545935E+00
         8  27 -3.515293E+06 -3.089694E+05 -3.913191E+05 -9.312522E+04 -2.669695E+05  4.026213E+01
         9   1  2.171066E+06  7.563243E+06  2.086206E+06 -1.349377E+06  9.956790E+04  7.669878E+05
         9   2  1.697421E+06  6.438990E+06  1.418635E+06 -1.184944E+06  3.303428E+05  3.586110E+05
         9   3  1.389517E+06  5.413007E+06  1.057156E+06 -1.221020E+06  3.780953E+05 -4.885358E+04
         9   4  1.925364E+05 -4.848245E+05  2.089332E+05 -1.208137E+06  1.012569E+05  1.437046E+05
         9   5  5.118110E+04 -5.007064E+05  1.042749E+05 -1.108217E+06  3.315788E+05  9.128460E+04
         9   6  1.514852E+04 -4.800671E+05  6.069749E+04 -1.208750E+06  3.780214E+05  3.896938E+04
         9   7 -1.790294E+06 -8.472746E+06 -1.671281E+06 -1.068635E+06  1.026822E+05 -4.716346E+05
         9   8 -1.597813E+06 -7.394069E+06 -1.211964E+06 -1.032288E+06  3.327591E+05 -1.731526E+05
         9   9 -1.361044E+06 -6.339104E+06 -9.368529E+05 -1.196534E+06  3.779504E+05  1.259898E+05
         9  10  2.170899E+06  7.562615E+06  2.085094E+06 -1.349439E+06  5.452353E-10  3.719393E-09
         9  11  1.697270E+06  6.438824E+06  1.418190E+06 -1.185039E+06  7.475658E-10  1.169153E-09
         9  12  1.389363E+06  5.412966E+06  1.056883E+06 -1.221005E+06  1.899773E-09 -1.731161E-09
         9  13  1.925198E+05 -4.848494E+05  2.088750E+05 -1.208148E+06 -1.601144E-09  3.541281E-11
         9  14  5.106076E+04 -5.007450E+05  1.040524E+05 -1.108242E+06  5.469421E-11 -1.806644E-11
         9  15  1.499467E+04 -4.801071E+05  6.042602E+04 -1.208762E+06  1.738562E-09  1.208066E-10
         9  16 -1.790366E+06 -8.472990E+06 -1.671724E+06 -1.068596E+06 -5.291060E-10 -3.595776E-09
         9  17 -1.597940E+06 -7.394130E+06 -1.212229E+06 -1.032241E+06  7.162653E-11 -1.320521E-09
         9  18 -1.361202E+06 -6.339159E+06 -9.371518E+05 -1.196572E+06  4.929930E-09  1.901138E-09
         9  19  2.171066E+06  7.563243E+06  2.086206E+06 -1.349377E+06 -9.956790E+04 -7.669878E+05
         9  20  1.697421E+06  6.438990E+06  1.418635E+06 -1.184944E+06 -3.303428E+05 -3.586110E+05
         9  21  1.389517E+06  5.413007E+06  1.057156E+06 -1.221020E+06 -3.780953E+05  4.885358E+04
         9  22  1.925364E+05 -4.848245E+05  2.089332E+05 -1.208137E+06 -1.012569E+05 -1.437046E+05
         9  23  5.118110E+04 -5.007064E+05  1.042749E+05 -1.108217E+06 -3.315788E+05 -9.128460E+04
         9  24  1.514852E+04 -4.800671E+05  6.069749E+04 -1.208750E+06 -3.780214E+05 -3.896938E+04
         9  25 -1.790294E+06 -8.472746E+06 -1.671281E+06 -1.068635E+06 -1.026822E+05  4.716346E+05
         9  26 -1.597813E+06 -7.394069E+06 -1.211964E+06 -1.032288E+06 -3.327591E+05  1.731526E+05
         9  27 -1.361044E+06 -6.339104E+06 -9.368529E+05 -1.196534E+06 -3.779504E+05 -1.259898E+05
        10   1  1.226119E+06  4.712228E+06  9.122369E+05 -1.234523E+06  3.459905E+05 -4.830256E+04
        10   2  9.646236E+05  3.632101E+06  6.923621E+05 -1.121145E+06  2.958056E+05 -1.021829E+05
        10   3  7.213286E+05  2.564282E+06  5.118365E+05 -1.220875E+06  2.265022E+05 -1.562094E+05
        10   4  1.630368E+04 -4.856856E+05  4.830186E+04 -1.211551E+06  3.458558E+05  3.055021E+04
        10   5  1.065709E+04 -4.866269E+05  3.369129E+04 -1.104968E+06  2.953365E+05  1.365770E+04
        10   6  1.691564E+04 -4.827424E+05  3.291313E+04 -1.211574E+06  2.256332E+05 -3.469353E+03
        10   7 -1.194908E+06 -5.657022E+06 -8.164318E+05 -1.188722E+06  3.457261E+05  1.087678E+05
        10   8 -9.441519E+05 -4.588524E+06 -6.253762E+05 -1.088865E+06  2.948713E+05  1.287605E+05
        10   9 -6.879430E+05 -3.520485E+06 -4.461505E+05 -1.202298E+06  2.247659E+05  1.485512E+05
        10  10  1.225990E+06  4.712193E+06  9.120077E+05 -1.234509E+06  3.880871E-10 -2.011157E-09
        10  11  9.645270E+05  3.632067E+06  6.921784E+05 -1.121121E+06  2.510061E-09  2.298860E-08
        10  12  7.212671E+05  2.564242E+06  5.116948E+05 -1.220847E+06  2.046958E-09  4.597683E-08
        10  13  1.617498E+04 -4.857187E+05  4.807528E+04 -1.211560E+06  1.342549E-10  1.220813E-10
        10  14  1.056339E+04 -4.866505E+05  3.352704E+04 -1.104971E+06 -4.240673E-09  1.731358E-10
        10  15  1.686099E+04 -4.827561E+05  3.281747E+04 -1.211573E+06 -5.447935E-09 -1.381557E-10
        10  16 -1.195040E+06 -5.657067E+06 -8.166791E+05 -1.188752E+06  1.387110E-09  2.043004E-09
        10  17 -9.442498E+05 -4.588565E+06 -6.255712E+05 -1.088896E+06  4.196137E-09 -2.280878E-08
        10  18 -6.880033E+05 -3.520522E+06 -4.462874E+05 -1.202325E+06 -1.643957E-09 -4.602574E-08
        10  19  1.226119E+06  4.712228E+06  9.122369E+05 -1.234523E+06 -3.459905E+05  4.830256E+04
        10  20  9.646236E+05  3.632101E+06  6.923621E+05 -1.121145E+06 -2.958056E+05  1.021829E+05
        10  21  7.213286E+05  2.564282E+06  5.118365E+05 -1.220875E+06 -2.265022E+05  1.562094E+05
        10  22  1.630368E+04 -4.856856E+05  4.830186E+04 -1.211551E+06 -3.458558E+05 -3.055021E+04
        10  23  1.065709E+04 -4.866269E+05  3.369129E+04 -1.104968E+06 -2.953365E+05 -1.365770E+04
        10  24  1.691564E+04 -4.827424E+05  3.291313E+04 -1.211574E+06 -2.256332E+05  3.469353E+03
        10  25 -1.194908E+06 -5.657022E+06 -8.164318E+05 -1.188722E+06 -3.457261E+05 -1.087678E+05
        10  26 -9.441519E+05 -4.588524E+06 -6.253762E+05 -1.088865E+06 -2.948713E+05 -1.287605E+05
        10  27 -6.879430E+05 -3.520485E+06 -4.461505E+05 -1.202298E+06 -2.247659E+05 -1.485512E+05
        11   1  5.639854E+05  1.882484E+06  4.029110E+05 -1.224074E+06  1.796698E+05 -1.609932E+05
        11   2  3.341807E+05  8.030590E+05  2.504055E+05 -1.081278E+06  1.013471E+05 -1.868624E+05
        11   3  1.536565E+05 -2.616876E+05  1.264021E+05 -1.152781E+06  2.391901E+04 -2.127566E+05
        11   4  1.843276E+04 -4.800510E+05  3.600138E+04 -1.211856E+06  1.787262E+05 -9.114020E+03
        11   5  3.732323E+04 -4.864657E+05  5.323060E+04 -1.104481E+06  1.003613E+05 -3.679056E+04
        11   6  1.058722E+05 -4.790985E+05  1.001595E+05 -1.211370E+06  2.289427E+04 -6.453022E+04
        11   7 -5.273799E+05 -2.836973E+06 -3.309515E+05 -1.199673E+06  1.777862E+05  1.422104E+05
        11   8 -2.595996E+05 -1.774277E+06 -1.438952E+05 -1.127630E+06  9.936301E+04  1.129820E+05
        11   9  5.811100E+04 -6.964057E+05  7.400158E+04 -1.269937E+06  2.184130E+04  8.364686E+04
        11  10  5.639439E+05  1.882448E+06  4.028020E+05 -1.224051E+06 -3.907361E-10 -4.992764E-08
        11  11  3.341604E+05  8.030188E+05  2.503208E+05 -1.081263E+06 -2.778172E-09 -2.139380E-08
        11  12  1.536437E+05 -2.617364E+05  1.263159E+05 -1.152777E+06 -2.850725E-09  9.906747E-09
        11  13  1.839845E+04 -4.800597E+05  3.594123E+04 -1.211855E+06  7.214642E-10 -1.249561E-10
        11  14  3.731207E+04 -4.864698E+05  5.320916E+04 -1.104478E+06 -5.553674E-09 -8.001743E-11
        11  15  1.058705E+05 -4.791031E+05  1.001507E+05 -1.211369E+06  1.208185E-09 -3.600831E-11
        11  16 -5.274194E+05 -2.837003E+06 -3.310493E+05 -1.199693E+06 -3.038093E-09  4.981092E-08
        11  17 -2.596137E+05 -1.774293E+06 -1.439379E+05 -1.127640E+06 -7.552339E-10  2.073218E-08
        11  18  5.810860E+04 -6.964133E+05  7.398750E+04 -1.269939E+06  1.072608E-10 -9.975826E-09
        11  19  5.639854E+05  1.882484E+06  4.029110E+05 -1.224074E+06 -1.796698E+05  1.609932E+05
        11  20  3.341807E+05  8.030590E+05  2.504055E+05 -1.081278E+06 -1.013471E+05  1.868624E+05
        11  21  1.536565E+05 -2.616876E+05  1.264021E+05 -1.152781E+06 -2.391901E+04  2.127566E+05
        11  22  1.843276E+04 -4.800510E+05  3.600138E+04 -1.211856E+06 -1.787262E+05  9.114020E+03
        11  23  3.732323E+04 -4.864657E+05  5.323060E+04 -1.104481E+06 -1.003613E+05  3.679056E+04
        11  24  1.058722E+05 -4.790985E+05  1.001595E+05 -1.211370E+06 -2.289427E+04  6.453022E+04
        11  25 -5.273799E+05 -2.836973E+06 -3.309515E+05 -1.199673E+06 -1.777862E+05 -1.422104E+05
        11  26 -2.595996E+05 -1.774277E+06 -1.438952E+05 -1.127630E+06 -9.936301E+04 -1.129820E+05
        11  27  5.811100E+04 -6.964057E+05  7.400158E+04 -1.269937E+06 -2.184130E+04 -8.364686E+04
        12   1 -4.357206E+06 -1.259728E+06 -7.383147E+05 -1.580238E+06 -4.217007E+05 -1.546806E+05
        12   2 -4.238456E+06 -6.167560E+05 -3.395608E+05 -1.641201E+06 -2.707905E+05 -9.210111E+04
        12   3 -4.341490E+06 -6.066453E+05 -2.212238E+05 -1.575855E+06 -1.171818E+05 -3.668897E+04
        12   4 -4.162128E+06 -1.051803E+06 -6.582676E+05 -1.389240E+06 -4.178001E+05 -1.533338E+05
        12   5 -4.017325E+06 -4.956761E+05 -2.734427E+05 -1.542124E+06 -2.700765E+05 -9.185455E+04
        12   6 -4.093585E+06 -5.716814E+05 -1.664245E+05 -1.568735E+06 -1.196474E+05 -3.759868E+04
        12   7 -3.966967E+06 -8.437440E+05 -5.782167E+05 -1.198164E+06 -4.138981E+05 -1.519843E+05
        12   8 -3.796143E+06 -3.745742E+05 -2.073291E+05 -1.443010E+06 -2.693621E+05 -9.160777E+04
        12   9 -3.845613E+06 -5.367156E+05 -1.116265E+05 -1.561618E+06 -1.221141E+05 -3.850821E+04
        12  10 -4.357405E+06 -1.259802E+06 -7.386969E+05 -1.580290E+06 -7.049118E-10  3.260931E-10
        12  11 -4.238537E+06 -6.167851E+05 -3.397158E+05 -1.641221E+06 -1.499885E-09  1.498395E-09
        12  12 -4.341505E+06 -6.066505E+05 -2.212523E+05 -1.575859E+06 -3.595419E-09  5.906080E-10
        12  13 -4.162323E+06 -1.051876E+06 -6.586426E+05 -1.389292E+06  1.952032E-09  4.222691E-10
        12  14 -4.017406E+06 -4.957050E+05 -2.735968E+05 -1.542144E+06 -3.495530E-09  9.564278E-10
        12  15 -4.093601E+06 -5.716868E+05 -1.664543E+05 -1.568738E+06 -1.725180E-09  3.682400E-10
        12  16 -3.967158E+06 -8.438153E+05 -5.785846E+05 -1.198215E+06  1.410034E-09  3.520703E-10
        12  17 -3.796224E+06 -3.746029E+05 -2.074823E+05 -1.443030E+06 -1.433327E-09  9.154025E-10
        12  18 -3.845629E+06 -5.367213E+05 -1.116575E+05 -1.561622E+06 -1.235129E-09  2.509680E-10
        12  19 -4.357206E+06 -1.259728E+06 -7.383147E+05 -1.580238E+06  4.217007E+05  1.546806E+05
        12  20 -4.238456E+06 -6.167560E+05 -3.395608E+05 -1.641201E+06  2.707905E+05  9.210111E+04
        12  21 -4.341490E+06 -6.066453E+05 -2.212238E+05 -1.575855E+06  1.171818E+05  3.668897E+04
        12  22 -4.162128E+06 -1.051803E+06 -6.582676E+05 -1.389240E+06  4.178001E+05  1.533338E+05
        12  23 -4.017325E+06 -4.956761E+05 -2.734427E+05 -1.542124E+06  2.700765E+05  9.185455E+04
        12  24 -4.093585E+06 -5.716814E+05 -1.664245E+05 -1.568735E+06  1.196474E+05  3.759868E+04
        12  25 -3.966967E+06 -8.437440E+05 -5.782167E+05 -1.198164E+06  4.138981E+05  1.519843E+05
        12  26 -3.796143E+06 -3.745742E+05 -2.073291E+05 -1.443010E+06  2.693621E+05  9.160777E+04
        12  27 -3.845613E+06 -5.367156E+05 -1.116265E+05 -1.561618E+06  1.221141E+05  3.850821E+04
        13   1 -4.195458E+06 -7.027493E+05 -1.713503E+05 -1.577751E+06 -9.460358E+04 -3.069513E+04
        13   2 -4.150898E+06 -6.009105E+05 -8.749485E+04 -1.558230E+06 -6.019690E+04 -1.940850E+04
        13   3 -4.107930E+06 -5.973734E+05 -4.789689E+04 -1.554807E+06 -2.554600E+04 -8.763492E+03
        13   4 -4.071577E+06 -6.420802E+05 -1.356072E+05 -1.529642E+06 -9.509577E+04 -3.088214E+04
        13   5 -4.066897E+06 -5.657286E+05 -6.443484E+04 -1.531745E+06 -6.097001E+04 -1.969835E+04
        13   6 -4.063749E+06 -5.876158E+05 -3.728765E+04 -1.549946E+06 -2.660249E+04 -9.158489E+03
        13   7 -3.947680E+06 -5.814069E+05 -9.986555E+04 -1.481523E+06 -9.558807E+04 -3.106922E+04
        13   8 -3.982889E+06 -5.305460E+05 -4.137555E+04 -1.505256E+06 -6.174324E+04 -1.998826E+04
        13   9 -4.019566E+06 -5.778583E+05 -2.667857E+04 -1.545086E+06 -2.765905E+04 -9.553485E+03
        13  10 -4.195468E+06 -7.027527E+05 -1.713691E+05 -1.577753E+06 -2.987860E-09 -5.154791E-10
        13  11 -4.150902E+06 -6.009118E+05 -8.750243E+04 -1.558231E+06 -2.168296E-09  3.290886E-10
        13  12 -4.107931E+06 -5.973736E+05 -4.789827E+04 -1.554807E+06 -1.840062E-09 -6.027495E-10
        13  13 -4.071587E+06 -6.420837E+05 -1.356261E+05 -1.529644E+06 -2.501163E-09  2.002455E-10
        13  14 -4.066901E+06 -5.657300E+05 -6.444262E+04 -1.531746E+06  2.160428E-09  6.279069E-10
        13  15 -4.063750E+06 -5.876160E+05 -3.728915E+04 -1.549947E+06  3.670106E-09 -9.140972E-10
        13  16 -3.947690E+06 -5.814104E+05 -9.988467E+04 -1.481525E+06 -2.177989E-09  1.010006E-09
        13  17 -3.982894E+06 -5.305474E+05 -4.138352E+04 -1.505257E+06 -3.566654E-10  9.010799E-11
        13  18 -4.019567E+06 -5.778586E+05 -2.668019E+04 -1.545086E+06 -8.909662E-10 -1.930391E-09
        13  19 -4.195458E+06 -7.027493E+05 -1.713503E+05 -1.577751E+06  9.460358E+04  3.069513E+04
        13  20 -4.150898E+06 -6.009105E+05 -8.749485E+04 -1.558230E+06  6.019690E+04  1.940850E+04
        13  21 -4.107930E+06 -5.973734E+05 -4.789689E+04 -1.554807E+06  2.554600E+04  8.763492E+03
        13  22 -4.071577E+06 -6.420802E+05 -1.356072E+05 -1.529642E+06  9.509577E+04  3.088214E+04
        13  23 -4.066897E+06 -5.657286E+05 -6.443484E+04 -1.531745E+06  6.097001E+04  1.969835E+04
        13  24 -4.063749E+06 -5.876158E+05 -3.728765E+04 -1.549946E+06  2.660249E+04  9.158489E+03
        13  25 -3.947680E+06 -5.814069E+05 -9.986555E+04 -1.481523E+06  9.558807E+04  3.106922E+04
        13  26 -3.982889E+06 -5.305460E+05 -4.137555E+04 -1.505256E+06  6.174324E+04  1.998826E+04
        13  27 -4.019566E+06 -5.778583E+05 -2.667857E+04 -1.545086E+06  2.765905E+04  9.553485E+03
        14   1 -4.024455E+06 -5.829466E+05 -1.955921E+04 -1.536815E+06 -1.986272E+04 -8.109808E+03
        14   2 -3.989785E+06 -5.428955E+05  7.083444E+03 -1.508449E+06 -1.145655E+04 -7.237814E+03
        14   3 -3.930207E+06 -5.396534E+05  2.585631E+04 -1.511469E+06 -3.045976E+03 -6.374474E+03
        14   4 -4.060898E+06 -5.953765E+05 -2.918385E+04 -1.545339E+06 -2.075060E+04 -8.442123E+03
        14   5 -4.072922E+06 -5.739481E+05 -1.501978E+04 -1.530774E+06 -1.234883E+04 -7.571838E+03
        14   6 -4.060037E+06 -5.893286E+05 -8.721399E+03 -1.547597E+06 -3.943285E+03 -6.710470E+03
        14   7 -4.097339E+06 -6.078065E+05 -3.880866E+04 -1.553863E+06 -2.163843E+04 -8.774424E+03
        14   8 -4.156051E+06 -6.050006E+05 -3.712371E+04 -1.553097E+06 -1.324098E+04 -7.905815E+03
        14   9 -4.189852E+06 -6.390028E+05 -4.330069E+04 -1.583718E+06 -4.840389E+03 -7.046387E+03
        14  10 -4.024456E+06 -5.829468E+05 -1.956008E+04 -1.536815E+06 -3.150453E-09 -9.543234E-10
        14  11 -3.989785E+06 -5.428956E+05  7.083096E+03 -1.508449E+06  5.013048E-09  9.546233E-10
        14  12 -3.930207E+06 -5.396535E+05  2.585621E+04 -1.511469E+06  6.966115E-09  1.765345E-09
        14  13 -4.060898E+06 -5.953767E+05 -2.918480E+04 -1.545339E+06 -2.279956E-10 -1.156018E-09
        14  14 -4.072922E+06 -5.739482E+05 -1.502018E+04 -1.530774E+06  1.983411E-09 -9.035501E-11
        14  15 -4.060038E+06 -5.893287E+05 -8.721514E+03 -1.547597E+06  3.408187E-09 -2.860272E-10
        14  16 -4.097339E+06 -6.078067E+05 -3.880969E+04 -1.553863E+06  4.016380E-09 -6.989914E-10
        14  17 -4.156052E+06 -6.050007E+05 -3.712416E+04 -1.553097E+06  1.757447E-10 -5.052472E-10
        14  18 -4.189852E+06 -6.390029E+05 -4.330083E+04 -1.583718E+06 -3.382295E-09 -1.428757E-09
        14  19 -4.024455E+06 -5.829466E+05 -1.955921E+04 -1.536815E+06  1.986272E+04  8.109808E+03
        14  20 -3.989785E+06 -5.428955E+05  7.083444E+03 -1.508449E+06  1.145655E+04  7.237814E+03
        14  21 -3.930207E+06 -5.396534E+05  2.585631E+04 -1.511469E+06  3.045976E+03  6.374474E+03
        14  22 -4.060898E+06 -5.953765E+05 -2.918385E+04 -1.545339E+06  2.075060E+04  8.442123E+03
        14  23 -4.072922E+06 -5.739481E+05 -1.501978E+04 -1.530774E+06  1.234883E+04  7.571838E+03
        14  24 -4.060037E+06 -5.893286E+05 -8.721399E+03 -1.547597E+06  3.943285E+03  6.710470E+03
        14  25 -4.097339E+06 -6.078065E+05 -3.880866E+04 -1.553863E+06  2.163843E+04  8.774424E+03
        14  26 -4.156051E+06 -6.050006E+05 -3.712371E+04 -1.553097E+06  1.324098E+04  7.905815E+03
        14  27 -4.189852E+06 -6.390028E+05 -4.330069E+04 -1.583718E+06  4.840389E+03  7.046387E+03
        15   1 -3.858235E+06 -5.136819E+05  4.708048E+04 -1.491731E+06 -1.352628E+03 -7.064486E+03
        15   2 -3.827717E+06 -4.832140E+05  6.108024E+04 -1.464775E+06  1.475699E+03 -8.182038E+03
        15   3 -3.771269E+06 -4.802330E+05  7.325444E+04 -1.468005E+06  4.264208E+03 -9.189207E+03
        15   4 -4.060165E+06 -5.896242E+05 -6.876893E+03 -1.546454E+06 -2.229346E+03 -7.392931E+03
        15   5 -4.073104E+06 -5.756252E+05 -4.297845E+03 -1.531461E+06  6.474669E+02 -8.492609E+03
        15   6 -4.060124E+06 -5.891237E+05 -3.583309E+03 -1.546655E+06  3.484299E+03 -9.481939E+03
        15   7 -4.262054E+06 -6.655639E+05 -6.083758E+04 -1.601161E+06 -3.105745E+03 -7.721256E+03
        15   8 -4.318432E+06 -6.680326E+05 -6.968109E+04 -1.598123E+06 -1.804016E+02 -8.803045E+03
        15   9 -4.348899E+06 -6.980095E+05 -8.042848E+04 -1.625272E+06  2.704790E+03 -9.774521E+03
        15  10 -3.858235E+06 -5.136819E+05  4.708039E+04 -1.491731E+06  7.564863E-10 -2.246565E-09
        15  11 -3.827717E+06 -4.832141E+05  6.108011E+04 -1.464775E+06 -3.701576E-09 -2.509612E-09
        15  12 -3.771269E+06 -4.802331E+05  7.325425E+04 -1.468005E+06 -1.158672E-09 -2.031930E-10
        15  13 -4.060165E+06 -5.896243E+05 -6.877005E+03 -1.546454E+06 -1.270801E-10 -5.059114E-10
        15  14 -4.073104E+06 -5.756253E+05 -4.297981E+03 -1.531461E+06 -1.803140E-09 -6.176122E-10
        15  15 -4.060124E+06 -5.891238E+05 -3.583500E+03 -1.546655E+06 -2.069870E-09 -2.170476E-10
        15  16 -4.262054E+06 -6.655639E+05 -6.083771E+04 -1.601161E+06  5.770152E-09  8.270045E-10
        15  17 -4.318432E+06 -6.680327E+05 -6.968124E+04 -1.598123E+06  8.375625E-09  8.754302E-10
        15  18 -4.348899E+06 -6.980096E+05 -8.042867E+04 -1.625272E+06  3.590611E-10 -1.072425E-10
        15  19 -3.858235E+06 -5.136819E+05  4.708048E+04 -1.491731E+06  1.352628E+03  7.064486E+03
        15  20 -3.827717E+06 -4.832140E+05  6.108024E+04 -1.464775E+06 -1.475699E+03  8.182038E+03
        15  21 -3.771269E+06 -4.802330E+05  7.325444E+04 -1.468005E+06 -4.264208E+03  9.189207E+03
        15  22 -4.060165E+06 -5.896242E+05 -6.876893E+03 -1.546454E+06  2.229346E+03  7.392931E+03
        15  23 -4.073104E+06 -5.756252E+05 -4.297845E+03 -1.531461E+06 -6.474669E+02  8.492609E+03
        15  24 -4.060124E+06 -5.891237E+05 -3.583309E+03 -1.546655E+06 -3.484299E+03  9.481939E+03
        15  25 -4.262054E+06 -6.655639E+05 -6.083758E+04 -1.601161E+06  3.105745E+03  7.721256E+03
        15  26 -4.318432E+06 -6.680326E+05 -6.968109E+04 -1.598123E+06  1.804016E+02  8.803045E+03
        15  27 -4.348899E+06 -6.980095E+05 -8.042848E+04 -1.625272E+06 -2.704790E+03  9.774521E+03
        16   1 -3.709654E+06 -4.557451E+05  9.012673E+04 -1.450046E+06  5.226878E+03 -9.980897E+03
        16   2 -3.684553E+06 -4.309015E+05  9.838270E+04 -1.427491E+06  8.181284E+03 -1.072446E+04
        16   3 -3.638017E+06 -4.291078E+05  1.046370E+05 -1.429775E+06  1.106700E+04 -1.128002E+04
        16   4 -4.061134E+06 -5.880783E+05 -3.666281E+03 -1.545498E+06  4.459053E+03 -1.026935E+04
        16   5 -4.071898E+06 -5.769334E+05 -4.840056E+03 -1.532933E+06  7.495901E+03 -1.098237E+04
        16   6 -4.061245E+06 -5.888561E+05 -8.081974E+03 -1.545207E+06  1.046390E+04 -1.150738E+04
        16   7 -4.412494E+06 -7.204039E+05 -9.746987E+04 -1.640901E+06  3.691711E+03 -1.055762E+04
        16   8 -4.459098E+06 -7.229563E+05 -1.080759E+05 -1.638314E+06  6.810991E+03 -1.124010E+04
        16   9 -4.484300E+06 -7.485941E+05 -1.208169E+05 -1.660568E+06  9.861247E+03 -1.173457E+04
        16  10 -3.709654E+06 -4.557453E+05  9.012649E+04 -1.450046E+06 -1.797375E-09  7.860099E-11
        16  11 -3.684553E+06 -4.309017E+05  9.838236E+04 -1.427491E+06 -1.108916E-09  4.355830E-10
        16  12 -3.638017E+06 -4.291079E+05  1.046366E+05 -1.429775E+06 -4.055493E-11  4.609265E-10
        16  13 -4.061134E+06 -5.880785E+05 -3.666516E+03 -1.545498E+06 -1.872987E-09  7.480219E-10
        16  14 -4.071898E+06 -5.769336E+05 -4.840388E+03 -1.532933E+06 -4.365413E-09  2.254056E-10
        16  15 -4.061245E+06 -5.888563E+05 -8.082428E+03 -1.545207E+06 -5.126515E-10  3.510423E-11
        16  16 -4.412494E+06 -7.204040E+05 -9.747010E+04 -1.640901E+06 -1.230376E-09 -4.045481E-10
        16  17 -4.459098E+06 -7.229565E+05 -1.080763E+05 -1.638314E+06  5.325158E-10  6.598186E-10
        16  18 -4.484300E+06 -7.485943E+05 -1.208174E+05 -1.660568E+06 -1.142670E-09  1.210988E-10
        16  19 -3.709654E+06 -4.557451E+05  9.012673E+04 -1.450046E+06 -5.226878E+03  9.980897E+03
        16  20 -3.684553E+06 -4.309015E+05  9.838270E+04 -1.427491E+06 -8.181284E+03  1.072446E+04
        16  21 -3.638017E+06 -4.291078E+05  1.046370E+05 -1.429775E+06 -1.106700E+04  1.128002E+04
        16  22 -4.061134E+06 -5.880783E+05 -3.666281E+03 -1.545498E+06 -4.459053E+03  1.026935E+04
        16  23 -4.071898E+06 -5.769334E+05 -4.840056E+03 -1.532933E+06 -7.495901E+03  1.098237E+04
        16  24 -4.061245E+06 -5.888561E+05 -8.081974E+03 -1.545207E+06 -1.046390E+04  1.150738E+04
        16  25 -4.412494E+06 -7.204039E+05 -9.746987E+04 -1.640901E+06 -3.691711E+03  1.055762E+04
        16  26 -4.459098E+06 -7.229563E+05 -1.080759E+05 -1.638314E+06 -6.810991E+03  1.124010E+04
        16  27 -4.484300E+06 -7.485941E+05 -1.208169E+05 -1.660568E+06 -9.861247E+03  1.173457E+04
        17   1 -3.590855E+06 -4.091892E+05  1.154932E+05 -1.416531E+06  1.287531E+04 -1.150344E+04
        17   2 -3.572564E+06 -3.897279E+05  1.144772E+05 -1.399268E+06  2.233327E+04 -9.309533E+03
        17   3 -3.543077E+06 -3.951924E+05  1.042640E+05 -1.397498E+06  3.166985E+04 -6.788349E+03
        17   4 -4.063115E+06 -5.864042E+05 -1.032063E+04 -1.544211E+06  1.226485E+04 -1.173382E+04
        17   5 -4.069209E+06 -5.775662E+05 -1.797979E+04 -1.535091E+06  2.186187E+04 -9.488000E+03
        17   6 -4.064138E+06 -5.936881E+05 -3.495256E+04 -1.541465E+06  3.133706E+04 -6.914975E+03
        17   7 -4.535159E+06 -7.636064E+05 -1.361540E+05 -1.671803E+06  1.165491E+04 -1.196401E+04
        17   8 -4.565614E+06 -7.653891E+05 -1.504583E+05 -1.670815E+06  2.139089E+04 -9.666311E+03
        17   9 -4.584935E+06 -7.921656E+05 -1.741927E+05 -1.685321E+06  3.100458E+04 -7.041486E+03
        17  10 -3.590855E+06 -4.091894E+05  1.154927E+05 -1.416531E+06  1.749806E-09  6.941658E-11
        17  11 -3.572564E+06 -3.897282E+05  1.144761E+05 -1.399268E+06  2.417912E-09 -8.731027E-10
        17  12 -3.543078E+06 -3.951927E+05  1.042621E+05 -1.397498E+06  3.578034E-09 -1.309059E-09
        17  13 -4.063115E+06 -5.864044E+05 -1.032117E+04 -1.544211E+06  4.325952E-10 -1.789256E-10
        17  14 -4.069210E+06 -5.775665E+05 -1.798086E+04 -1.535091E+06  2.851305E-09 -5.204690E-10
        17  15 -4.064140E+06 -5.936884E+05 -3.495451E+04 -1.541465E+06 -7.293501E-10 -1.131656E-09
        17  16 -4.535159E+06 -7.636066E+05 -1.361545E+05 -1.671803E+06 -2.354004E-09 -1.485825E-10
        17  17 -4.565615E+06 -7.653894E+05 -1.504593E+05 -1.670815E+06 -4.988310E-09  1.126171E-09
        17  18 -4.584936E+06 -7.921659E+05 -1.741946E+05 -1.685321E+06 -9.142456E-10 -1.123152E-09
        17  19 -3.590855E+06 -4.091892E+05  1.154932E+05 -1.416531E+06 -1.287531E+04  1.150344E+04
        17  20 -3.572564E+06 -3.897279E+05  1.144772E+05 -1.399268E+06 -2.233327E+04  9.309533E+03
        17  21 -3.543077E+06 -3.951924E+05  1.042640E+05 -1.397498E+06 -3.166985E+04  6.788349E+03
        17  22 -4.063115E+06 -5.864042E+05 -1.032063E+04 -1.544211E+06 -1.226485E+04  1.173382E+04
        17  23 -4.069209E+06 -5.775662E+05 -1.797979E+04 -1.535091E+06 -2.186187E+04  9.488000E+03
        17  24 -4.064138E+06 -5.936881E+05 -3.495256E+04 -1.541465E+06 -3.133706E+04  6.914975E+03
        17  25 -4.535159E+06 -7.636064E+05 -1.361540E+05 -1.671803E+06 -1.165491E+04  1.196401E+04
        17  26 -4.565614E+06 -7.653891E+05 -1.504583E+05 -1.670815E+06 -2.139089E+04  9.666311E+03
        17  27 -4.584935E+06 -7.921656E+05 -1.741927E+05 -1.685321E+06 -3.100458E+04  7.041486E+03
        18   1 -3.510924E+06 -3.799138E+05  1.026717E+05 -1.400998E+06  3.861262E+04 -4.897946E+03
        18   2 -3.498138E+06 -3.529855E+05  7.335320E+04 -1.380587E+06  7.854499E+04  9.427942E+03
        18   3 -3.513471E+06 -4.166621E+05 -8.137960E+03 -1.348326E+06  1.179597E+05  2.512720E+04
        18   4 -4.069206E+06 -5.826555E+05 -4.466363E+04 -1.545057E+06  3.799788E+04 -5.130456E+03
        18   5 -4.059820E+06 -5.698353E+05 -7.728151E+04 -1.538724E+06  7.850813E+04  9.412042E+03
        18   6 -4.078701E+06 -6.477849E+05 -1.625691E+05 -1.520536E+06  1.185002E+05  2.532633E+04
        18   7 -4.627188E+06 -7.853849E+05 -1.920261E+05 -1.689001E+06  3.738373E+04 -5.362762E+03
        18   8 -4.621197E+06 -7.866624E+05 -2.279444E+05 -1.696730E+06  7.847128E+04  9.396143E+03
        18   9 -4.643619E+06 -8.788732E+05 -3.170294E+05 -1.692598E+06  1.190401E+05  2.552521E+04
        18  10 -3.510926E+06 -3.799142E+05  1.026689E+05 -1.400998E+06  2.407682E-09 -5.967131E-10
        18  11 -3.498145E+06 -3.529873E+05  7.334137E+04 -1.380588E+06  1.199186E-09  5.575523E-10
        18  12 -3.513486E+06 -4.166666E+05 -8.165467E+03 -1.348328E+06  2.918494E-10  1.409073E-09
        18  13 -4.069208E+06 -5.826560E+05 -4.466640E+04 -1.545057E+06 -1.220123E-09 -8.188293E-10
        18  14 -4.059827E+06 -5.698371E+05 -7.729334E+04 -1.538725E+06  3.461418E-09  5.408905E-10
        18  15 -4.078716E+06 -6.477894E+05 -1.625969E+05 -1.520539E+06 -7.682993E-10  1.115585E-09
        18  16 -4.627189E+06 -7.853853E+05 -1.920288E+05 -1.689000E+06  5.174716E-10 -9.722747E-10
        18  17 -4.621204E+06 -7.866642E+05 -2.279562E+05 -1.696731E+06  1.970021E-09  1.499527E-09
        18  18 -4.643634E+06 -8.788778E+05 -3.170575E+05 -1.692601E+06  4.786702E-10  3.223299E-09
        18  19 -3.510924E+06 -3.799138E+05  1.026717E+05 -1.400998E+06 -3.861262E+04  4.897946E+03
        18  20 -3.498138E+06 -3.529855E+05  7.335320E+04 -1.380587E+06 -7.854499E+04 -9.427942E+03
        18  21 -3.513471E+06 -4.166621E+05 -8.137960E+03 -1.348326E+06 -1.179597E+05 -2.512720E+04
        18  22 -4.069206E+06 -5.826555E+05 -4.466363E+04 -1.545057E+06 -3.799788E+04  5.130456E+03
        18  23 -4.059820E+06 -5.698353E+05 -7.728151E+04 -1.538724E+06 -7.850813E+04 -9.412042E+03
        18  24 -4.078701E+06 -6.477849E+05 -1.625691E+05 -1.520536E+06 -1.185002E+05 -2.532633E+04
        18  25 -4.627188E+06 -7.853849E+05 -1.920261E+05 -1.689001E+06 -3.738373E+04  5.362762E+03
        18  26 -4.621197E+06 -7.866624E+05 -2.279444E+05 -1.696730E+06 -7.847128E+04 -9.396143E+03
        18  27 -4.643619E+06 -8.788732E+05 -3.170294E+05 -1.692598E+06 -1.190401E+05 -2.552521E+04
        19   1 -3.467754E+06 -3.913458E+05 -4.311137E+04 -1.463491E+06  1.506455E+05  3.522432E+04
        19   2 -3.446628E+06 -2.322846E+05 -1.719242E+05 -1.354695E+06  3.242726E+05  1.010836E+05
        19   3 -3.722550E+06 -7.957096E+05 -6.289779E+05 -1.055688E+06  4.929247E+05  1.800852E+05
        19   4 -4.106029E+06 -5.624540E+05 -1.995302E+05 -1.566382E+06  1.476629E+05  3.411500E+04
        19   5 -3.998707E+06 -4.874520E+05 -3.278947E+05 -1.552998E+06  3.269891E+05  1.020817E+05
        19   6 -4.189869E+06 -1.136527E+06 -7.892699E+05 -1.349304E+06  5.013634E+05  1.831240E+05
        19   7 -4.743898E+06 -7.335728E+05 -3.559754E+05 -1.669199E+06  1.446835E+05  3.300610E+04
        19   8 -4.550482E+06 -7.425540E+05 -4.838938E+05 -1.751126E+06  3.297028E+05  1.030781E+05
        19   9 -4.656907E+06 -1.477087E+06 -9.495761E+05 -1.642662E+06  5.097950E+05  1.861544E+05
        19  10 -3.467779E+06 -3.913533E+05 -4.315663E+04 -1.463495E+06  1.635300E-09  1.679545E-09
        19  11 -3.446744E+06 -2.323241E+05 -1.721424E+05 -1.354721E+06  5.194041E-10  5.417364E-10
        19  12 -3.722821E+06 -7.958104E+05 -6.294988E+05 -1.055760E+06 -1.597332E-09  9.304732E-10
        19  13 -4.106052E+06 -5.624612E+05 -1.995736E+05 -1.566386E+06 -1.150159E-09  2.273405E-09
        19  14 -3.998825E+06 -4.874922E+05 -3.281168E+05 -1.553025E+06  9.490892E-10  2.705423E-10
        19  15 -4.190149E+06 -1.136631E+06 -7.898093E+05 -1.349379E+06 -1.098338E-09  8.990054E-10
        19  16 -4.743921E+06 -7.335797E+05 -3.560172E+05 -1.669203E+06  2.842792E-10  1.197271E-09
        19  17 -4.550602E+06 -7.425950E+05 -4.841199E+05 -1.751154E+06  2.424392E-09 -6.692903E-10
        19  18 -4.657197E+06 -1.477195E+06 -9.501344E+05 -1.642739E+06 -4.853064E-10 -4.480438E-10
        19  19 -3.467754E+06 -3.913458E+05 -4.311137E+04 -1.463491E+06 -1.506455E+05 -3.522432E+04
        19  20 -3.446628E+06 -2.322846E+05 -1.719242E+05 -1.354695E+06 -3.242726E+05 -1.010836E+05
        19  21 -3.722550E+06 -7.957096E+05 -6.289779E+05 -1.055688E+06 -4.929247E+05 -1.800852E+05
        19  22 -4.106029E+06 -5.624540E+05 -1.995302E+05 -1.566382E+06 -1.476629E+05 -3.411500E+04
        19  23 -3.998707E+06 -4.874520E+05 -3.278947E+05 -1.552998E+06 -3.269891E+05 -1.020817E+05
        19  24 -4.189869E+06 -1.136527E+06 -7.892699E+05 -1.349304E+06 -5.013634E+05 -1.831240E+05
        19  25 -4.743898E+06 -7.335728E+05 -3.559754E+05 -1.669199E+06 -1.446835E+05 -3.300610E+04
        19  26 -4.550482E+06 -7.425540E+05 -4.838938E+05 -1.751126E+06 -3.297028E+05 -1.030781E+05
        19  27 -4.656907E+06 -1.477087E+06 -9.495761E+05 -1.642662E+06 -5.097950E+05 -1.861544E+05
        20   1 -1.409971E+06  3.363855E+04  4.262128E+04  1.016194E+04  2.911689E+04  4.776340E-01
        20   2 -1.415905E+06 -5.082468E+03  1.861053E+04  2.910012E+03  1.906491E+04  8.955819E-02
        20   3 -1.409996E+06 -1.698318E+03  1.168173E+04 -4.341741E+03  9.013059E+03 -6.316954E-02
        20   4 -1.409971E+06  3.363835E+04  4.262126E+04  2.066812E-08  2.911689E+04  5.118128E-12
        20   5 -1.415905E+06 -5.082484E+03  1.861052E+04  1.577534E-08  1.906491E+04  3.868878E-10
        20   6 -1.409996E+06 -1.698354E+03  1.168173E+04  4.965276E-09  9.013059E+03  1.113429E-09
        20   7 -1.409971E+06  3.363855E+04  4.262128E+04 -1.016194E+04  2.911689E+04 -4.776340E-01
        20   8 -1.415905E+06 -5.082468E+03  1.861053E+04 -2.910012E+03  1.906491E+04 -8.955819E-02
        20   9 -1.409996E+06 -1.698318E+03  1.168173E+04  4.341741E+03  9.013059E+03  6.316954E-02
        20  10 -1.409971E+06  3.363832E+04  4.261969E+04  1.016194E+04  4.382625E-10 -2.351833E-10
        20  11 -1.415906E+06 -5.082566E+03  1.860984E+04  2.910012E+03  9.923863E-11 -6.400916E-10
        20  12 -1.409996E+06 -1.698340E+03  1.168158E+04 -4.341741E+03 -1.523843E-09 -2.197972E-10
        20  13 -1.409972E+06  3.363812E+04  4.261966E+04  1.637314E-08 -8.641225E-10  5.416508E-11
        20  14 -1.415906E+06 -5.082582E+03  1.860984E+04  2.008807E-08  3.229134E-09  1.223420E-10
        20  15 -1.409996E+06 -1.698376E+03  1.168157E+04  1.950237E-08 -1.869971E-09  2.902165E-10
        20  16 -1.409971E+06  3.363832E+04  4.261969E+04 -1.016194E+04 -1.190875E-09  3.076391E-10
        20  17 -1.415906E+06 -5.082566E+03  1.860984E+04 -2.910012E+03 -1.156227E-09  9.743162E-10
        20  18 -1.409996E+06 -1.698340E+03  1.168158E+04  4.341741E+03 -1.635349E-10  9.464123E-10
        20  19 -1.409971E+06  3.363855E+04  4.262128E+04  1.016194E+04 -2.911689E+04 -4.776340E-01
        20  20 -1.415905E+06 -5.082468E+03  1.861053E+04  2.910012E+03 -1.906491E+04 -8.955819E-02
        20  21 -1.409996E+06 -1.698318E+03  1.168173E+04 -4.341741E+03 -9.013059E+03  6.316954E-02
        20  22 -1.409971E+06  3.363835E+04  4.262126E+04  2.498517E-08 -2.911689E+04  7.073596E-11
        20  23 -1.415905E+06 -5.082484E+03  1.861052E+04  7.178212E-09 -1.906491E+04 -6.474071E-11
        20  24 -1.409996E+06 -1.698354E+03  1.168173E+04  2.220692E-08 -9.013059E+03 -5.809177E-10
        20  25 -1.409971E+06  3.363855E+04  4.262128E+04 -1.016194E+04 -2.911689E+04  4.776340E-01
        20  26 -1.415905E+06 -5.082468E+03  1.861053E+04 -2.910012E+03 -1.906491E+04  8.955819E-02
        20  27 -1.409996E+06 -1.698318E+03  1.168173E+04  4.341741E+03 -9.013059E+03 -6.316954E-02
        21   1 -1.412294E+06  3.658986E+03  9.540997E+03  1.001815E+03  7.191463E+03  1.162996E-02
        21   2 -1.413035E+06 -5.682559E+02  4.820115E+03  2.502719E+02  4.717335E+03  1.905821E-03
        21   3 -1.412298E+06 -1.827947E+02  2.865992E+03 -5.012830E+02  2.243175E+03 -1.815178E-03
        21   4 -1.412294E+06  3.658984E+03  9.540997E+03 -9.371448E-09  7.191463E+03  5.860991E-10
        21   5 -1.413035E+06 -5.682561E+02  4.820115E+03 -2.142807E-08  4.717335E+03 -1.105384E-09
        21   6 -1.412298E+06 -1.827952E+02  2.865992E+03 -9.276092E-09  2.243175E+03 -8.351517E-10
        21   7 -1.412294E+06  3.658986E+03  9.540997E+03 -1.001815E+03  7.191463E+03 -1.162996E-02
        21   8 -1.413035E+06 -5.682559E+02  4.820115E+03 -2.502719E+02  4.717335E+03 -1.905823E-03
        21   9 -1.412298E+06 -1.827947E+02  2.865992E+03  5.012830E+02  2.243175E+03  1.815176E-03
        21  10 -1.412294E+06  3.658972E+03  9.540900E+03  1.001815E+03 -2.952764E-09 -2.288529E-12
        21  11 -1.413035E+06 -5.682619E+02  4.820074E+03  2.502719E+02 -4.753434E-10  3.616213E-10
        21  12 -1.412298E+06 -1.827961E+02  2.865982E+03 -5.012830E+02 -1.683715E-09 -6.479918E-11
        21  13 -1.412294E+06  3.658970E+03  9.540899E+03  3.510204E-09 -5.193499E-09  1.157423E-10
        21  14 -1.413035E+06 -5.682621E+02  4.820074E+03  8.690004E-09 -3.723439E-09 -4.092981E-10
        21  15 -1.412298E+06 -1.827965E+02  2.865982E+03  9.572812E-09 -2.524417E-09 -5.580135E-10
        21  16 -1.412294E+06  3.658972E+03  9.540900E+03 -1.001815E+03  7.832200E-10 -6.845271E-11
        21  17 -1.413035E+06 -5.682619E+02  4.820074E+03 -2.502719E+02  1.122883E-09 -9.766228E-10
        21  18 -1.412298E+06 -1.827961E+02  2.865982E+03  5.012830E+02  5.308385E-10 -1.013998E-09
        21  19 -1.412294E+06  3.658986E+03  9.540997E+03  1.001815E+03 -7.191463E+03 -1.162996E-02
        21  20 -1.413035E+06 -5.682559E+02  4.820115E+03  2.502719E+02 -4.717335E+03 -1.905820E-03
        21  21 -1.412298E+06 -1.827947E+02  2.865992E+03 -5.012830E+02 -2.243175E+03  1.815178E-03
        21  22 -1.412294E+06  3.658984E+03  9.540997E+03  2.929243E-08 -7.191463E+03 -3.641596E-10
        21  23 -1.413035E+06 -5.682561E+02  4.820115E+03  8.671094E-09 -4.717335E+03  1.779672E-10
        21  24 -1.412298E+06 -1.827952E+02  2.865992E+03 -4.425118E-09 -2.243175E+03 -2.928524E-10
        21  25 -1.412294E+06  3.658986E+03  9.540997E+03 -1.001815E+03 -7.191463E+03  1.162996E-02
        21  26 -1.413035E+06 -5.682559E+02  4.820115E+03 -2.502719E+02 -4.717335E+03  1.905821E-03
        21  27 -1.412298E+06 -1.827947E+02  2.865992E+03  5.012830E+02 -2.243175E+03 -1.815178E-03
        22   1 -1.412581E+06  3.919594E+02  2.238956E+03  8.102234E+01  1.791833E+03  2.343560E-04
        22   2 -1.412683E+06 -6.454231E+01  1.193086E+03  9.619072E+00  1.192588E+03  1.851866E-05
        22   3 -1.412581E+06 -1.946571E+01  6.634136E+02 -6.178423E+01  5.933435E+02 -5.917695E-05
        22   4 -1.412581E+06  3.919594E+02  2.238956E+03  1.103062E-08  1.791833E+03 -1.228731E-11
        22   5 -1.412683E+06 -6.454231E+01  1.193086E+03  2.527587E-09  1.192588E+03  4.775348E-10
        22   6 -1.412581E+06 -1.946572E+01  6.634136E+02  1.017102E-08  5.933435E+02 -6.392068E-10
        22   7 -1.412581E+06  3.919594E+02  2.238956E+03 -8.102234E+01  1.791833E+03 -2.343561E-04
        22   8 -1.412683E+06 -6.454231E+01  1.193086E+03 -9.619072E+00  1.192588E+03 -1.851788E-05
        22   9 -1.412581E+06 -1.946571E+01  6.634136E+02  6.178423E+01  5.933435E+02  5.917626E-05
        22  10 -1.412581E+06  3.919585E+02  2.238950E+03  8.102234E+01 -8.654599E-10  1.779083E-10
        22  11 -1.412683E+06 -6.454270E+01  1.193083E+03  9.619072E+00  3.667392E-10  5.860709E-10
        22  12 -1.412581E+06 -1.946581E+01  6.634130E+02 -6.178423E+01  1.717347E-09  1.693397E-10
        22  13 -1.412581E+06  3.919585E+02  2.238950E+03 -6.107108E-09 -2.051874E-09 -8.130517E-11
        22  14 -1.412683E+06 -6.454270E+01  1.193083E+03  6.819371E-09 -7.100733E-10  5.288330E-10
        22  15 -1.412581E+06 -1.946581E+01  6.634130E+02 -1.254076E-08  1.960561E-09 -4.953687E-10
        22  16 -1.412581E+06  3.919585E+02  2.238950E+03 -8.102234E+01 -4.680512E-10 -2.744646E-10
        22  17 -1.412683E+06 -6.454270E+01  1.193083E+03 -9.619072E+00  4.405324E-10  2.762906E-10
        22  18 -1.412581E+06 -1.946581E+01  6.634130E+02  6.178423E+01 -6.501395E-10 -1.411266E-09
        22  19 -1.412581E+06  3.919594E+02  2.238956E+03  8.102234E+01 -1.791833E+03 -2.343554E-04
        22  20 -1.412683E+06 -6.454231E+01  1.193086E+03  9.619072E+00 -1.192588E+03 -1.851685E-05
        22  21 -1.412581E+06 -1.946571E+01  6.634136E+02 -6.178423E+01 -5.933435E+02  5.917859E-05
        22  22 -1.412581E+06  3.919594E+02  2.238956E+03  6.895362E-09 -1.791833E+03 -1.151241E-10
        22  23 -1.412683E+06 -6.454231E+01  1.193086E+03 -1.471834E-08 -1.192588E+03  6.619919E-10
        22  24 -1.412581E+06 -1.946572E+01  6.634136E+02  1.878750E-09 -5.933435E+02 -2.981043E-10
        22  25 -1.412581E+06  3.919594E+02  2.238956E+03 -8.102234E+01 -1.791833E+03  2.343555E-04
        22  26 -1.412683E+06 -6.454231E+01  1.193086E+03 -9.619072E+00 -1.192588E+03  1.851799E-05
        22  27 -1.412581E+06 -1.946571E+01  6.634136E+02  6.178423E+01 -5.933435E+02 -5.917921E-05
        23   1 -1.412621E+06  4.067558E+01  4.832903E+02 -3.785336E-02  4.906616E+02 -2.938866E-08
        23   2 -1.412633E+06 -6.244162E+00  1.946928E+02 -5.235175E+00  3.936168E+02 -3.326011E-06
        23   3 -1.412622E+06 -7.364599E+00 -1.916911E+01 -1.043242E+01  2.965735E+02 -4.995655E-06
        23   4 -1.412621E+06  4.067558E+01  4.832903E+02  1.141581E-09  4.906616E+02 -2.510293E-10
        23   5 -1.412633E+06 -6.244162E+00  1.946928E+02 -6.277298E-09  3.936168E+02  1.210113E-09
        23   6 -1.412622E+06 -7.364599E+00 -1.916911E+01  1.267467E-08  2.965735E+02 -1.041552E-09
        23   7 -1.412621E+06  4.067558E+01  4.832903E+02  3.785335E-02  4.906616E+02  2.912380E-08
        23   8 -1.412633E+06 -6.244162E+00  1.946928E+02  5.235175E+00  3.936168E+02  3.327878E-06
        23   9 -1.412622E+06 -7.364599E+00 -1.916911E+01  1.043242E+01  2.965735E+02  4.993451E-06
        23  10 -1.412621E+06  4.067551E+01  4.832898E+02 -3.785340E-02  1.493600E-09  4.739417E-11
        23  11 -1.412633E+06 -6.244203E+00  1.946925E+02 -5.235175E+00  2.352800E-10 -3.602710E-10
        23  12 -1.412622E+06 -7.364623E+00 -1.916928E+01 -1.043242E+01  3.200662E-10 -2.624889E-10
        23  13 -1.412621E+06  4.067551E+01  4.832898E+02 -1.166865E-08 -3.393998E-10 -4.962715E-10
        23  14 -1.412633E+06 -6.244203E+00  1.946925E+02 -1.958198E-09 -1.897367E-09  3.971093E-10
        23  15 -1.412622E+06 -7.364623E+00 -1.916928E+01  1.304591E-09 -1.293745E-10 -1.197247E-10
        23  16 -1.412621E+06  4.067551E+01  4.832898E+02  3.785338E-02  2.032863E-09 -1.106030E-09
        23  17 -1.412633E+06 -6.244203E+00  1.946925E+02  5.235175E+00  2.441888E-09  1.089314E-09
        23  18 -1.412622E+06 -7.364623E+00 -1.916928E+01  1.043242E+01 -1.881320E-09  1.401309E-11
        23  19 -1.412621E+06  4.067558E+01  4.832903E+02 -3.785346E-02 -4.906616E+02  2.967950E-08
        23  20 -1.412633E+06 -6.244162E+00  1.946928E+02 -5.235175E+00 -3.936168E+02  3.326202E-06
        23  21 -1.412622E+06 -7.364599E+00 -1.916911E+01 -1.043242E+01 -2.965735E+02  4.995187E-06
        23  22 -1.412621E+06  4.067558E+01  4.832903E+02  1.342233E-09 -4.906616E+02 -8.761682E-10
        23  23 -1.412633E+06 -6.244162E+00  1.946928E+02 -6.254187E-09 -3.936168E+02 -4.144315E-10
        23  24 -1.412622E+06 -7.364599E+00 -1.916911E+01  2.651608E-08 -2.965735E+02  8.383263E-10
        23  25 -1.412621E+06  4.067558E+01  4.832903E+02  3.785332E-02 -4.906616E+02 -3.143568E-08
        23  26 -1.412633E+06 -6.244162E+00  1.946928E+02  5.235175E+00 -3.936168E+02 -3.326418E-06
        23  27 -1.412622E+06 -7.364599E+00 -1.916911E+01  1.043242E+01 -2.965735E+02 -4.993861E-06
        24   1 -1.412636E+06  6.484488E+00 -1.222970E+02 -1.341204E+01  3.093295E+02 -6.697510E-06
        24   2 -1.412615E+06  1.018977E+01 -3.683888E+02 -6.035648E+00  4.926722E+02 -4.799108E-06
        24   3 -1.412637E+06 -5.903946E+01 -7.522799E+02  1.340853E+00  6.760175E+02  1.461577E-06
        24   4 -1.412636E+06  6.484488E+00 -1.222970E+02  1.641987E-08  3.093295E+02 -9.360957E-10
        24   5 -1.412615E+06  1.018977E+01 -3.683888E+02  1.304766E-09  4.926722E+02  1.336478E-09
        24   6 -1.412637E+06 -5.903946E+01 -7.522799E+02  6.108645E-09  6.760175E+02 -1.650850E-09
        24   7 -1.412636E+06  6.484488E+00 -1.222970E+02  1.341204E+01  3.093295E+02  6.695615E-06
        24   8 -1.412615E+06  1.018977E+01 -3.683888E+02  6.035648E+00  4.926722E+02  4.801291E-06
        24   9 -1.412637E+06 -5.903946E+01 -7.522799E+02 -1.340853E+00  6.760175E+02 -1.464480E-06
        24  10 -1.412636E+06  6.484463E+00 -1.222972E+02 -1.341204E+01 -6.871538E-10  3.099391E-10
        24  11 -1.412615E+06  1.018970E+01 -3.683893E+02 -6.035648E+00  2.100237E-09  6.343350E-10
        24  12 -1.412637E+06 -5.903958E+01 -7.522808E+02  1.340853E+00 -2.237821E-10 -1.065111E-09
        24  13 -1.412636E+06  6.484462E+00 -1.222972E+02  3.599135E-09 -2.236765E-09  3.407214E-11
        24  14 -1.412615E+06  1.018970E+01 -3.683893E+02  1.849923E-08  2.846084E-09  5.842364E-10
        24  15 -1.412637E+06 -5.903958E+01 -7.522808E+02 -1.054738E-09 -3.456324E-09 -9.817664E-10
        24  16 -1.412636E+06  6.484463E+00 -1.222972E+02  1.341204E+01  3.515726E-09 -1.762406E-10
        24  17 -1.412615E+06  1.018970E+01 -3.683893E+02  6.035648E+00 -3.190356E-09  6.562998E-10
        24  18 -1.412637E+06 -5.903958E+01 -7.522808E+02 -1.340853E+00  1.315349E-09 -5.674229E-10
        24  19 -1.412636E+06  6.484488E+00 -1.222970E+02 -1.341204E+01 -3.093295E+02  6.698245E-06
        24  20 -1.412615E+06  1.018977E+01 -3.683888E+02 -6.035648E+00 -4.926722E+02  4.800486E-06
        24  21 -1.412637E+06 -5.903946E+01 -7.522799E+02  1.340853E+00 -6.760175E+02 -1.463668E-06
        24  22 -1.412636E+06  6.484488E+00 -1.222970E+02  2.523981E-08 -3.093295E+02  1.012104E-09
        24  23 -1.412615E+06  1.018977E+01 -3.683888E+02  1.416437E-08 -4.926722E+02 -8.582134E-11
        24  24 -1.412637E+06 -5.903946E+01 -7.522799E+02  2.730285E-08 -6.760175E+02 -3.984132E-10
        24  25 -1.412636E+06  6.484488E+00 -1.222970E+02  1.341204E+01 -3.093295E+02 -6.697041E-06
        24  26 -1.412615E+06  1.018977E+01 -3.683888E+02  6.035648E+00 -4.926722E+02 -4.800609E-06
        24  27 -1.412637E+06 -5.903946E+01 -7.522799E+02 -1.340853E+00 -6.760175E+02  1.462988E-06
        25   1 -1.412693E+06  2.805491E+01 -1.002648E+03 -8.923597E+01  8.332375E+02 -1.200292E-04
        25   2 -1.412545E+06  9.410373E+01 -1.757582E+03  1.447148E+01  1.715848E+03  4.008476E-05
        25   3 -1.412694E+06 -5.704802E+02 -3.270769E+03  1.181790E+02  2.598457E+03  4.957129E-04
        25   4 -1.412693E+06  2.805489E+01 -1.002648E+03  1.556999E-08  8.332375E+02 -2.081294E-09
        25   5 -1.412545E+06  9.410373E+01 -1.757582E+03  1.085607E-08  1.715848E+03  9.950120E-10
        25   6 -1.412694E+06 -5.704802E+02 -3.270769E+03  7.211150E-09  2.598457E+03  1.585353E-09
        25   7 -1.412693E+06  2.805491E+01 -1.002648E+03  8.923597E+01  8.332375E+02  1.200260E-04
        25   8 -1.412545E+06  9.410373E+01 -1.757582E+03 -1.447148E+01  1.715848E+03 -4.008380E-05
        25   9 -1.412694E+06 -5.704802E+02 -3.270769E+03 -1.181790E+02  2.598457E+03 -4.957099E-04
        25  10 -1.412693E+06  2.805472E+01 -1.002649E+03 -8.923597E+01 -2.429188E-09 -1.015239E-09
        25  11 -1.412545E+06  9.410293E+01 -1.757587E+03  1.447148E+01  2.403570E-09  8.334062E-10
        25  12 -1.412694E+06 -5.704820E+02 -3.270782E+03  1.181790E+02  1.969235E-09 -4.530315E-10
        25  13 -1.412693E+06  2.805470E+01 -1.002649E+03  7.109326E-09 -8.547056E-10 -1.126149E-09
        25  14 -1.412545E+06  9.410293E+01 -1.757587E+03 -4.190939E-09 -1.348440E-09  3.125669E-10
        25  15 -1.412694E+06 -5.704820E+02 -3.270782E+03 -2.732488E-08 -4.636130E-09 -1.467347E-10
        25  16 -1.412693E+06  2.805472E+01 -1.002649E+03  8.923597E+01  2.319932E-09 -1.340410E-09
        25  17 -1.412545E+06  9.410293E+01 -1.757587E+03 -1.447148E+01 -8.082629E-10 -2.884968E-10
        25  18 -1.412694E+06 -5.704820E+02 -3.270782E+03 -1.181790E+02 -4.176261E-09  1.044785E-11
        25  19 -1.412693E+06  2.805491E+01 -1.002648E+03 -8.923597E+01 -8.332375E+02  1.200281E-04
        25  20 -1.412545E+06  9.410373E+01 -1.757582E+03  1.447148E+01 -1.715848E+03 -4.008252E-05
        25  21 -1.412694E+06 -5.704802E+02 -3.270769E+03  1.181790E+02 -2.598457E+03 -4.957130E-04
        25  22 -1.412693E+06  2.805489E+01 -1.002648E+03  2.877418E-08 -8.332375E+02 -1.591813E-10
        25  23 -1.412545E+06  9.410373E+01 -1.757582E+03 -1.062075E-08 -1.715848E+03 -4.824971E-10
        25  24 -1.412694E+06 -5.704802E+02 -3.270769E+03 -2.310768E-08 -2.598457E+03 -1.828323E-09
        25  25 -1.412693E+06  2.805491E+01 -1.002648E+03  8.923597E+01 -8.332375E+02 -1.200283E-04
        25  26 -1.412545E+06  9.410373E+01 -1.757582E+03 -1.447148E+01 -1.715848E+03  4.008249E-05
        25  27 -1.412694E+06 -5.704802E+02 -3.270769E+03 -1.181790E+02 -2.598457E+03  4.957098E-04
        26   1 -1.413105E+06  2.660777E+02 -4.180420E+03 -7.294041E+02  3.257277E+03 -3.835270E-03
        26   2 -1.412033E+06  8.271215E+02 -7.020460E+03  3.643939E+02  6.860882E+03  4.035744E-03
        26   3 -1.413111E+06 -5.325535E+03 -1.388898E+04  1.458176E+03  1.046442E+04  2.463191E-02
        26   4 -1.413105E+06  2.660767E+02 -4.180421E+03 -1.665800E-09  3.257277E+03  1.177146E-09
        26   5 -1.412033E+06  8.271212E+02 -7.020460E+03 -3.050556E-08  6.860882E+03  4.997331E-10
        26   6 -1.413111E+06 -5.325539E+03 -1.388898E+04 -1.145438E-08  1.046442E+04 -6.784837E-10
        26   7 -1.413105E+06  2.660777E+02 -4.180420E+03  7.294041E+02  3.257277E+03  3.835273E-03
        26   8 -1.412033E+06  8.271215E+02 -7.020460E+03 -3.643939E+02  6.860882E+03 -4.035743E-03
        26   9 -1.413111E+06 -5.325535E+03 -1.388898E+04 -1.458176E+03  1.046442E+04 -2.463191E-02
        26  10 -1.413105E+06  2.660748E+02 -4.180440E+03 -7.294041E+02 -7.329283E-10 -2.934842E-10
        26  11 -1.412033E+06  8.271088E+02 -7.020549E+03  3.643939E+02 -1.630315E-09  1.135399E-09
        26  12 -1.413111E+06 -5.325565E+03 -1.388918E+04  1.458176E+03  3.746082E-10 -6.813141E-10
        26  13 -1.413105E+06  2.660738E+02 -4.180441E+03 -1.877310E-08 -3.161837E-09  3.938218E-11
        26  14 -1.412033E+06  8.271085E+02 -7.020549E+03 -3.767937E-10  1.586383E-09  8.766949E-10
        26  15 -1.413111E+06 -5.325569E+03 -1.388918E+04 -9.965896E-09  1.448106E-09 -3.838959E-10
        26  16 -1.413105E+06  2.660748E+02 -4.180440E+03  7.294041E+02 -1.941155E-09  4.719519E-10
        26  17 -1.412033E+06  8.271088E+02 -7.020549E+03 -3.643939E+02  3.328347E-09  6.853842E-10
        26  18 -1.413111E+06 -5.325565E+03 -1.388918E+04 -1.458176E+03  6.278445E-10  2.211283E-12
        26  19 -1.413105E+06  2.660777E+02 -4.180420E+03 -7.294041E+02 -3.257277E+03  3.835271E-03
        26  20 -1.412033E+06  8.271215E+02 -7.020460E+03  3.643939E+02 -6.860882E+03 -4.035741E-03
        26  21 -1.413111E+06 -5.325535E+03 -1.388898E+04  1.458176E+03 -1.046442E+04 -2.463191E-02
        26  22 -1.413105E+06  2.660767E+02 -4.180421E+03 -1.003928E-08 -3.257277E+03 -1.041217E-09
        26  23 -1.412033E+06  8.271212E+02 -7.020460E+03  3.919205E-09 -6.860882E+03  1.219582E-09
        26  24 -1.413111E+06 -5.325539E+03 -1.388898E+04  1.195136E-09 -1.046442E+04 -8.110844E-11
        26  25 -1.413105E+06  2.660777E+02 -4.180420E+03  7.294041E+02 -3.257277E+03 -3.835273E-03
        26  26 -1.412033E+06  8.271215E+02 -7.020460E+03 -3.643939E+02 -6.860882E+03  4.035743E-03
        26  27 -1.413111E+06 -5.325535E+03 -1.388898E+04 -1.458176E+03 -1.046442E+04  2.463191E-02
        27   1 -1.416456E+06  2.472064E+03 -1.700357E+04 -6.319232E+03  1.311585E+04 -1.337938E-01
        27   2 -1.407855E+06  7.397496E+03 -2.708485E+04  4.235642E+03  2.774677E+04  1.897147E-01
        27   3 -1.416492E+06 -4.895880E+04 -6.202726E+04  1.479052E+04  4.237796E+04  1.011803E+00
        27   4 -1.416456E+06  2.471989E+03 -1.700358E+04 -2.448134E-10  1.311585E+04 -5.208102E-10
        27   5 -1.407855E+06  7.397463E+03 -2.708485E+04 -2.390184E-09  2.774677E+04  7.194942E-10
        27   6 -1.416492E+06 -4.895921E+04 -6.202731E+04  2.560663E-08  4.237796E+04  2.638312E-10
        27   7 -1.416456E+06  2.472064E+03 -1.700357E+04  6.319232E+03  1.311585E+04  1.337938E-01
        27   8 -1.407855E+06  7.397496E+03 -2.708485E+04 -4.235642E+03  2.774677E+04 -1.897147E-01
        27   9 -1.416492E+06 -4.895880E+04 -6.202726E+04 -1.479052E+04  4.237796E+04 -1.011803E+00
        27  10 -1.416456E+06  2.472018E+03 -1.700390E+04 -6.319232E+03 -2.041035E-09 -1.113677E-09
        27  11 -1.407855E+06  7.397289E+03 -2.708630E+04  4.235642E+03  7.266336E-10  2.944482E-10
        27  12 -1.416493E+06 -4.895928E+04 -6.203064E+04  1.479052E+04  1.540996E-09  1.975893E-10
        27  13 -1.416456E+06  2.471942E+03 -1.700391E+04 -2.167764E-08 -4.739130E-10 -5.963084E-10
        27  14 -1.407855E+06  7.397255E+03 -2.708630E+04 -4.518800E-09 -2.913968E-09  3.893976E-10
        27  15 -1.416494E+06 -4.895970E+04 -6.203070E+04  1.480116E-08  1.055652E-09  2.482608E-10
        27  16 -1.416456E+06  2.472018E+03 -1.700390E+04  6.319232E+03  2.066530E-11 -7.846526E-11
        27  17 -1.407855E+06  7.397289E+03 -2.708630E+04 -4.235642E+03 -2.519073E-10  4.830096E-10
        27  18 -1.416493E+06 -4.895928E+04 -6.203064E+04 -1.479052E+04  1.519347E-09  2.487499E-10
        27  19 -1.416456E+06  2.472064E+03 -1.700357E+04 -6.319232E+03 -1.311585E+04  1.337938E-01
        27  20 -1.407855E+06  7.397496E+03 -2.708485E+04  4.235642E+03 -2.774677E+04 -1.897147E-01
        27  21 -1.416492E+06 -4.895880E+04 -6.202726E+04  1.479052E+04 -4.237796E+04 -1.011803E+00
        27  22 -1.416456E+06  2.471989E+03 -1.700358E+04 -4.368532E-09 -1.311585E+04 -7.257415E-10
        27  23 -1.407855E+06  7.397463E+03 -2.708485E+04 -2.340826E-09 -2.774677E+04  5.080484E-11
        27  24 -1.416492E+06 -4.895921E+04 -6.202731E+04  2.605444E-08 -4.237796E+04  2.383582E-10
        27  25 -1.416456E+06  2.472064E+03 -1.700357E+04  6.319232E+03 -1.311585E+04 -1.337938E-01
        27  26 -1.407855E+06  7.397496E+03 -2.708485E+04 -4.235642E+03 -2.774677E+04  1.897147E-01
        27  27 -1.416492E+06 -4.895880E+04 -6.202726E+04 -1.479052E+04 -4.237796E+04  1.011803E+00
        28   1  5.206542E+05  1.301257E+06  6.238518E+05 -8.782446E+04  5.633658E+03  3.349341E+05
        28   2  9.080153E+04  1.288080E+06  3.646300E+05 -2.635280E+04  1.844872E+04  2.112875E+05
        28   3  1.465313E+05  1.412832E+06  3.073379E+05  7.905596E+04  2.082430E+04  8.762753E+04
        28   4  3.842988E+05  7.538451E+05  4.889557E+05  2.920438E+04  5.697440E+03  3.260921E+05
        28   5 -5.860076E+04  6.853271E+05  2.199141E+05  7.189205E+03  1.846291E+04  2.075399E+05
        28   6 -1.658460E+04  7.539432E+05  1.493792E+05  2.911467E+04  2.081757E+04  8.898383E+04
        28   7  2.479725E+05  2.067348E+05  3.540450E+05  1.461301E+05  5.757944E+03  3.172578E+05
        28   8 -2.080252E+05  8.290824E+04  7.517300E+04  4.069861E+04  1.847671E+04  2.037959E+05
        28   9 -1.797225E+05  9.545648E+04 -8.608906E+03 -2.077343E+04  2.081062E+04  9.033865E+04
        28  10  5.206241E+05  1.301137E+06  6.236414E+05 -8.782598E+04  1.701816E-09 -5.947373E-11
        28  11  9.078921E+04  1.288032E+06  3.645457E+05 -2.635594E+04  4.212771E-09 -2.074941E-10
        28  12  1.465288E+05  1.412824E+06  3.073227E+05  7.905449E+04 -2.166569E-09  1.597235E-09
        28  13  3.842703E+05  7.537311E+05  4.887560E+05  2.920289E+04 -2.045635E-09 -2.941665E-11
        28  14 -5.861267E+04  6.852808E+05  2.198326E+05  7.186121E+03  1.546438E-09 -2.397214E-11
        28  15 -1.658719E+04  7.539346E+05  1.493635E+05  2.911318E+04  2.998448E-09 -4.838232E-10
        28  16  2.479454E+05  2.066268E+05  3.538558E+05  1.461286E+05  6.475178E-10  8.487427E-11
        28  17 -2.080367E+05  8.286356E+04  7.509433E+04  4.069558E+04 -5.188031E-09  3.690897E-10
        28  18 -1.797252E+05  9.544761E+04 -8.625053E+03 -2.077494E+04  3.300293E-09 -1.521109E-09
        28  19  5.206542E+05  1.301257E+06  6.238518E+05 -8.782446E+04 -5.633658E+03 -3.349341E+05
        28  20  9.080153E+04  1.288080E+06  3.646300E+05 -2.635280E+04 -1.844872E+04 -2.112875E+05
        28  21  1.465313E+05  1.412832E+06  3.073379E+05  7.905596E+04 -2.082430E+04 -8.762753E+04
        28  22  3.842988E+05  7.538451E+05  4.889557E+05  2.920438E+04 -5.697440E+03 -3.260921E+05
        28  23 -5.860076E+04  6.853271E+05  2.199141E+05  7.189205E+03 -1.846291E+04 -2.075399E+05
        28  24 -1.658460E+04  7.539432E+05  1.493792E+05  2.911467E+04 -2.081757E+04 -8.898383E+04
        28  25  2.479725E+05  2.067348E+05  3.540450E+05  1.461301E+05 -5.757944E+03 -3.172578E+05
        28  26 -2.080252E+05  8.290824E+04  7.517300E+04  4.069861E+04 -1.847671E+04 -2.037959E+05
        28  27 -1.797225E+05  9.545648E+04 -8.608906E+03 -2.077343E+04 -2.081062E+04 -9.033865E+04
        29   1  2.237335E+05  1.469664E+06  3.080467E+05  1.364172E+04  2.090540E+04  6.701789E+04
        29   2  1.867506E+05  1.513265E+06  2.824959E+05  4.840052E+03  2.404302E+04  1.908706E+04
        29   3  2.377329E+05  1.586045E+06  3.102977E+05  4.161460E+04  2.465593E+04 -2.884837E+04
        29   4  4.028327E+04  7.298469E+05  1.298814E+05  2.954244E+04  2.091097E+04  6.487277E+04
        29   5 -1.097655E+04  7.153472E+05  9.080045E+04  6.752630E+03  2.404648E+04  1.820554E+04
        29   6  2.556996E+04  7.298372E+05  1.042387E+05  2.954139E+04  2.465797E+04 -2.846189E+04
        29   7 -1.432059E+05 -9.469716E+03 -4.832275E+04  4.542429E+04  2.091644E+04  6.273016E+04
        29   8 -2.087500E+05 -8.198887E+04 -1.009403E+05  8.662973E+03  2.404994E+04  1.732513E+04
        29   9 -1.866457E+05 -1.257013E+05 -1.018723E+05  1.748518E+04  2.466000E+04 -2.807593E+04
        29  10  2.237319E+05  1.469659E+06  3.080375E+05  1.364060E+04 -4.779240E-12  6.227587E-09
        29  11  1.867499E+05  1.513264E+06  2.824942E+05  4.839683E+03  8.589070E-10 -1.598456E-09
        29  12  2.377320E+05  1.586044E+06  3.102950E+05  4.161518E+04 -1.259887E-09 -7.881090E-09
        29  13  4.028167E+04  7.298422E+05  1.298727E+05  2.954134E+04 -9.673753E-10 -3.434394E-10
        29  14 -1.097726E+04  7.153467E+05  9.079874E+04  6.752278E+03 -1.764836E-09 -4.003640E-11
        29  15  2.556909E+04  7.298362E+05  1.042361E+05  2.954195E+04 -4.967686E-09 -1.108680E-09
        29  16 -1.432075E+05 -9.474059E+03 -4.833096E+04  4.542323E+04  1.064005E-09 -6.209368E-09
        29  17 -2.087507E+05 -8.198935E+04 -1.009419E+05  8.662637E+03  5.020221E-10  2.227589E-09
        29  18 -1.866466E+05 -1.257023E+05 -1.018749E+05  1.748573E+04 -2.365517E-09  7.806735E-09
        29  19  2.237335E+05  1.469664E+06  3.080467E+05  1.364172E+04 -2.090540E+04 -6.701789E+04
        29  20  1.867506E+05  1.513265E+06  2.824959E+05  4.840052E+03 -2.404302E+04 -1.908706E+04
        29  21  2.377329E+05  1.586045E+06  3.102977E+05  4.161460E+04 -2.465593E+04  2.884837E+04
        29  22  4.028327E+04  7.298469E+05  1.298814E+05  2.954244E+04 -2.091097E+04 -6.487277E+04
        29  23 -1.097655E+04  7.153472E+05  9.080045E+04  6.752630E+03 -2.404648E+04 -1.820554E+04
        29  24  2.556996E+04  7.298372E+05  1.042387E+05  2.954139E+04 -2.465797E+04  2.846189E+04
        29  25 -1.432059E+05 -9.469716E+03 -4.832275E+04  4.542429E+04 -2.091644E+04 -6.273016E+04
        29  26 -2.087500E+05 -8.198887E+04 -1.009403E+05  8.662973E+03 -2.404994E+04 -1.732513E+04
        29  27 -1.866457E+05 -1.257013E+05 -1.018723E+05  1.748518E+04 -2.466000E+04  2.807593E+04
        30   1  2.245071E+05  1.685088E+06  3.389197E+05 -6.008153E+03  2.920149E+04 -4.092164E+04
        30   2  2.081898E+05  1.698864E+06  3.930872E+05  2.615253E+04  3.146406E+04 -1.340924E+05
        30   3  5.207058E+05  1.808485E+06  5.903398E+05  1.065135E+05  1.111202E+04 -2.273504E+05
        30   4 -8.762558E+03  7.442776E+05  1.131084E+05  2.983677E+04  2.921741E+04 -4.728784E+04
        30   5 -3.978665E+04  6.971887E+05  1.527670E+05  6.197807E+03  3.145806E+04 -1.294699E+05
        30   6  2.563895E+05  7.441823E+05  3.280424E+05  3.075498E+04  1.108471E+04 -2.117286E+05
        30   7 -2.420918E+05 -1.957217E+05 -1.127648E+05  6.562774E+04  2.923261E+04 -5.364441E+04
        30   8 -2.878342E+05 -3.035686E+05 -8.762404E+04 -1.372397E+04  3.145176E+04 -1.248548E+05
        30   9 -7.988610E+03 -3.190795E+05  6.566555E+04 -4.487298E+04  1.105359E+04 -1.961333E+05
        30  10  2.245057E+05  1.685086E+06  3.389149E+05 -6.007191E+03 -1.500009E-09 -9.968309E-10
        30  11  2.081839E+05  1.698844E+06  3.930517E+05  2.615592E+04  4.797171E-11 -1.494464E-09
        30  12  5.206918E+05  1.808430E+06  5.902427E+05  1.065156E+05  1.474331E-09 -3.258846E-10
        30  13 -8.764075E+03  7.442750E+05  1.131026E+05  2.983788E+04 -2.141548E-09 -6.876917E-10
        30  14 -3.979220E+04  6.971704E+05  1.527336E+05  6.201086E+03  2.876420E-09 -5.248883E-11
        30  15  2.563774E+05  7.441342E+05  3.279580E+05  3.075687E+04 -7.082752E-11 -1.971202E-09
        30  16 -2.420935E+05 -1.957250E+05 -1.127718E+05  6.562901E+04 -2.798720E-09  8.318146E-10
        30  17 -2.878395E+05 -3.035856E+05 -8.765521E+04 -1.372081E+04  6.009360E-10  2.792803E-09
        30  18 -7.999074E+03 -3.191209E+05  6.559300E+04 -4.487123E+04  2.144670E-09  2.990811E-10
        30  19  2.245071E+05  1.685088E+06  3.389197E+05 -6.008153E+03 -2.920149E+04  4.092164E+04
        30  20  2.081898E+05  1.698864E+06  3.930872E+05  2.615253E+04 -3.146406E+04  1.340924E+05
        30  21  5.207058E+05  1.808485E+06  5.903398E+05  1.065135E+05 -1.111202E+04  2.273504E+05
        30  22 -8.762558E+03  7.442776E+05  1.131084E+05  2.983677E+04 -2.921741E+04  4.728784E+04
        30  23 -3.978665E+04  6.971887E+05  1.527670E+05  6.197807E+03 -3.145806E+04  1.294699E+05
        30  24  2.563895E+05  7.441823E+05  3.280424E+05  3.075498E+04 -1.108471E+04  2.117286E+05
        30  25 -2.420918E+05 -1.957217E+05 -1.127648E+05  6.562774E+04 -2.923261E+04  5.364441E+04
        30  26 -2.878342E+05 -3.035686E+05 -8.762404E+04 -1.372397E+04 -3.145176E+04  1.248548E+05
        30  27 -7.988610E+03 -3.190795E+05  6.566555E+04 -4.487298E+04 -1.105359E+04  1.961333E+05
        31   1 -2.091256E+06 -4.417549E+05 -1.651584E+05 -7.703982E+05 -8.448846E+04 -3.020021E+04
        31   2 -2.062887E+06 -3.101606E+05 -8.418031E+04 -7.779745E+05 -5.449185E+04 -1.616737E+04
        31   3 -2.073972E+06 -3.076050E+05 -5.899060E+04 -7.656180E+05 -2.332935E+04 -5.243110E+03
        31   4 -1.980522E+06 -3.734722E+05 -1.296939E+05 -7.130479E+05 -8.270647E+04 -2.953659E+04
        31   5 -1.954242E+06 -2.618381E+05 -5.391786E+04 -7.407093E+05 -5.409887E+04 -1.602092E+04
        31   6 -1.967131E+06 -2.789546E+05 -3.281918E+04 -7.484405E+05 -2.432550E+04 -5.615940E+03
        31   7 -1.869776E+06 -3.051818E+05 -9.423078E+04 -6.556870E+05 -8.092416E+04 -2.887265E+04
        31   8 -1.845586E+06 -2.135138E+05 -2.365667E+04 -7.034379E+05 -5.370582E+04 -1.587444E+04
        31   9 -1.860278E+06 -2.503046E+05 -6.648528E+03 -7.312609E+05 -2.532184E+04 -5.988793E+03
        31  10 -2.091264E+06 -4.417578E+05 -1.651736E+05 -7.704002E+05 -1.721561E-10 -9.789015E-12
        31  11 -2.062891E+06 -3.101617E+05 -8.418640E+04 -7.779752E+05 -1.489535E-09  3.684576E-10
        31  12 -2.073973E+06 -3.076051E+05 -5.899168E+04 -7.656181E+05  7.552745E-10  5.837738E-10
        31  13 -1.980530E+06 -3.734750E+05 -1.297084E+05 -7.130499E+05 -2.045803E-09  1.511142E-10
        31  14 -1.954246E+06 -2.618392E+05 -5.392387E+04 -7.407100E+05 -1.003752E-09  3.972146E-10
        31  15 -1.967132E+06 -2.789548E+05 -3.282036E+04 -7.484406E+05 -3.424124E-10  2.653980E-10
        31  16 -1.869784E+06 -3.051844E+05 -9.424470E+04 -6.556888E+05 -1.556350E-09  9.759193E-11
        31  17 -1.845589E+06 -2.135148E+05 -2.366258E+04 -7.034386E+05 -1.157494E-09  3.945753E-10
        31  18 -1.860279E+06 -2.503048E+05 -6.649804E+03 -7.312610E+05 -8.056652E-11  3.431353E-10
        31  19 -2.091256E+06 -4.417549E+05 -1.651584E+05 -7.703982E+05  8.448846E+04  3.020021E+04
        31  20 -2.062887E+06 -3.101606E+05 -8.418031E+04 -7.779745E+05  5.449185E+04  1.616737E+04
        31  21 -2.073972E+06 -3.076050E+05 -5.899060E+04 -7.656180E+05  2.332935E+04  5.243110E+03
        31  22 -1.980522E+06 -3.734722E+05 -1.296939E+05 -7.130479E+05  8.270647E+04  2.953659E+04
        31  23 -1.954242E+06 -2.618381E+05 -5.391786E+04 -7.407093E+05  5.409887E+04  1.602092E+04
        31  24 -1.967131E+06 -2.789546E+05 -3.281918E+04 -7.484405E+05  2.432550E+04  5.615940E+03
        31  25 -1.869776E+06 -3.051818E+05 -9.423078E+04 -6.556870E+05  8.092416E+04  2.887265E+04
        31  26 -1.845586E+06 -2.135138E+05 -2.365667E+04 -7.034379E+05  5.370582E+04  1.587444E+04
        31  27 -1.860278E+06 -2.503046E+05 -6.648528E+03 -7.312609E+05  2.532184E+04  5.988793E+03
        32   1 -2.033943E+06 -3.223836E+05 -4.622208E+04 -7.629862E+05 -1.917497E+04 -4.658388E+03
        32   2 -2.020061E+06 -2.973472E+05 -2.773470E+04 -7.545883E+05 -1.225077E+04 -2.566806E+03
        32   3 -2.002041E+06 -2.961209E+05 -1.801242E+04 -7.544615E+05 -5.223004E+03 -7.507222E+02
        32   4 -1.962754E+06 -2.928409E+05 -2.674403E+04 -7.407678E+05 -1.931232E+04 -4.709980E+03
        32   5 -1.964074E+06 -2.755932E+05 -1.272321E+04 -7.386349E+05 -1.251088E+04 -2.664290E+03
        32   6 -1.961232E+06 -2.821304E+05 -7.369169E+03 -7.447734E+05 -5.606092E+03 -8.942236E+02
        32   7 -1.891559E+06 -2.632975E+05 -7.266353E+03 -7.185468E+05 -1.944969E+04 -4.761580E+03
        32   8 -1.908084E+06 -2.538390E+05  2.287979E+03 -7.226802E+05 -1.277101E+04 -2.761785E+03
        32   9 -1.920422E+06 -2.681400E+05  3.273869E+03 -7.350848E+05 -5.989204E+03 -1.037732E+03
        32  10 -2.033944E+06 -3.223838E+05 -4.622281E+04 -7.629863E+05  4.641415E-10  5.528744E-10
        32  11 -2.020061E+06 -2.973472E+05 -2.773500E+04 -7.545883E+05  2.489444E-09  9.617508E-10
        32  12 -2.002041E+06 -2.961209E+05 -1.801248E+04 -7.544615E+05 -1.044150E-09 -5.920213E-10
        32  13 -1.962754E+06 -2.928411E+05 -2.674477E+04 -7.407678E+05  1.451849E-10  1.100864E-09
        32  14 -1.964074E+06 -2.755932E+05 -1.272352E+04 -7.386349E+05 -2.897000E-09  1.645696E-11
        32  15 -1.961232E+06 -2.821304E+05 -7.369229E+03 -7.447734E+05  3.085581E-10 -1.574940E-11
        32  16 -1.891559E+06 -2.632976E+05 -7.267110E+03 -7.185468E+05  1.344525E-09  2.609322E-10
        32  17 -1.908085E+06 -2.538390E+05  2.287657E+03 -7.226803E+05  1.767304E-09  1.539162E-10
        32  18 -1.920422E+06 -2.681400E+05  3.273799E+03 -7.350848E+05  2.202684E-09  4.178743E-10
        32  19 -2.033943E+06 -3.223836E+05 -4.622208E+04 -7.629862E+05  1.917497E+04  4.658388E+03
        32  20 -2.020061E+06 -2.973472E+05 -2.773470E+04 -7.545883E+05  1.225077E+04  2.566806E+03
        32  21 -2.002041E+06 -2.961209E+05 -1.801242E+04 -7.544615E+05  5.223004E+03  7.507222E+02
        32  22 -1.962754E+06 -2.928409E+05 -2.674403E+04 -7.407678E+05  1.931232E+04  4.709980E+03
        32  23 -1.964074E+06 -2.755932E+05 -1.272321E+04 -7.386349E+05  1.251088E+04  2.664290E+03
        32  24 -1.961232E+06 -2.821304E+05 -7.369169E+03 -7.447734E+05  5.606092E+03  8.942236E+02
        32  25 -1.891559E+06 -2.632975E+05 -7.266353E+03 -7.185468E+05  1.944969E+04  4.761580E+03
        32  26 -1.908084E+06 -2.538390E+05  2.287979E+03 -7.226802E+05  1.277101E+04  2.761785E+03
        32  27 -1.920422E+06 -2.681400E+05  3.273869E+03 -7.350848E+05  5.989204E+03  1.037732E+03
        33   1 -1.973981E+06 -2.889676E+05 -9.310999E+03 -7.478153E+05 -4.059928E+03 -8.406910E+02
        33   2 -1.961817E+06 -2.758889E+05 -2.056691E+03 -7.374825E+05 -2.270923E+03 -9.723080E+02
        33   3 -1.940109E+06 -2.747001E+05  3.637982E+03 -7.386519E+05 -4.742884E+02 -1.124130E+03
        33   4 -1.960630E+06 -2.836995E+05 -5.770722E+03 -7.439138E+05 -4.370567E+03 -9.570586E+02
        33   5 -1.965317E+06 -2.771579E+05 -2.978287E+03 -7.383859E+05 -2.590597E+03 -1.092062E+03
        33   6 -1.960459E+06 -2.825045E+05 -1.738196E+03 -7.443603E+05 -8.030393E+02 -1.247288E+03
        33   7 -1.947278E+06 -2.784313E+05 -2.230447E+03 -7.400123E+05 -4.681214E+03 -1.073430E+03
        33   8 -1.968817E+06 -2.784270E+05 -3.899889E+03 -7.392893E+05 -2.910272E+03 -1.211817E+03
        33   9 -1.980809E+06 -2.903090E+05 -7.114456E+03 -7.500686E+05 -1.131781E+03 -1.370443E+03
        33  10 -1.973981E+06 -2.889676E+05 -9.311031E+03 -7.478153E+05 -5.561830E-10 -9.997810E-10
        33  11 -1.961817E+06 -2.758889E+05 -2.056703E+03 -7.374825E+05  9.735463E-10 -1.038099E-09
        33  12 -1.940109E+06 -2.747001E+05  3.637979E+03 -7.386519E+05 -4.133265E-09 -2.872091E-10
        33  13 -1.960630E+06 -2.836995E+05 -5.770759E+03 -7.439138E+05 -1.584030E-09 -6.380409E-10
        33  14 -1.965317E+06 -2.771579E+05 -2.978302E+03 -7.383859E+05 -3.315077E-09 -8.847960E-10
        33  15 -1.960459E+06 -2.825045E+05 -1.738200E+03 -7.443603E+05 -2.504213E-09  3.727149E-10
        33  16 -1.947278E+06 -2.784314E+05 -2.230491E+03 -7.400123E+05 -1.371732E-09 -1.366505E-09
        33  17 -1.968817E+06 -2.784270E+05 -3.899908E+03 -7.392893E+05 -3.388167E-09 -2.170562E-09
        33  18 -1.980809E+06 -2.903090E+05 -7.114462E+03 -7.500686E+05  1.885876E-10  1.705249E-09
        33  19 -1.973981E+06 -2.889676E+05 -9.310999E+03 -7.478153E+05  4.059928E+03  8.406910E+02
        33  20 -1.961817E+06 -2.758889E+05 -2.056691E+03 -7.374825E+05  2.270923E+03  9.723080E+02
        33  21 -1.940109E+06 -2.747001E+05  3.637982E+03 -7.386519E+05  4.742884E+02  1.124130E+03
        33  22 -1.960630E+06 -2.836995E+05 -5.770722E+03 -7.439138E+05  4.370567E+03  9.570586E+02
        33  23 -1.965317E+06 -2.771579E+05 -2.978287E+03 -7.383859E+05  2.590597E+03  1.092062E+03
        33  24 -1.960459E+06 -2.825045E+05 -1.738196E+03 -7.443603E+05  8.030393E+02  1.247288E+03
        33  25 -1.947278E+06 -2.784313E+05 -2.230447E+03 -7.400123E+05  4.681214E+03  1.073430E+03
        33  26 -1.968817E+06 -2.784270E+05 -3.899889E+03 -7.392893E+05  2.910272E+03  1.211817E+03
        33  27 -1.980809E+06 -2.903090E+05 -7.114456E+03 -7.500686E+05  1.131781E+03  1.370443E+03
        34   1 -1.913848E+06 -2.651088E+05  1.106449E+04 -7.315519E+05 -6.672265E+01 -1.454744E+03
        34   2 -1.902225E+06 -2.536569E+05  1.591651E+04 -7.212610E+05  6.350102E+02 -2.004369E+03
        34   3 -1.880640E+06 -2.524984E+05  2.039131E+04 -7.225087E+05  1.332501E+03 -2.542336E+03
        34   4 -1.960433E+06 -2.826134E+05 -1.377083E+03 -7.441954E+05 -3.886566E+02 -1.575359E+03
        34   5 -1.965406E+06 -2.774129E+05 -8.753115E+02 -7.384463E+05  3.182558E+02 -2.123069E+03
        34   6 -1.960419E+06 -2.825067E+05 -7.548031E+02 -7.442358E+05  1.020915E+03 -2.659126E+03
        34   7 -2.007016E+06 -3.001177E+05 -1.381875E+04 -7.568380E+05 -7.105616E+02 -1.695964E+03
        34   8 -2.028584E+06 -3.011686E+05 -1.766740E+04 -7.556299E+05  1.538358E+00 -2.241756E+03
        34   9 -2.040192E+06 -3.125146E+05 -2.190144E+04 -7.659603E+05  7.093728E+02 -2.775899E+03
        34  10 -1.913848E+06 -2.651088E+05  1.106449E+04 -7.315519E+05 -2.796976E-09  3.261513E-10
        34  11 -1.902225E+06 -2.536570E+05  1.591650E+04 -7.212610E+05 -2.283435E-09 -1.048214E-09
        34  12 -1.880640E+06 -2.524985E+05  2.039130E+04 -7.225087E+05 -3.160897E-09 -8.414624E-10
        34  13 -1.960433E+06 -2.826134E+05 -1.377088E+03 -7.441954E+05 -4.627657E-09  1.233642E-10
        34  14 -1.965406E+06 -2.774129E+05 -8.753201E+02 -7.384463E+05 -7.076745E-09 -1.631973E-09
        34  15 -1.960419E+06 -2.825067E+05 -7.548183E+02 -7.442358E+05 -2.439233E-09 -8.592956E-10
        34  16 -2.007016E+06 -3.001177E+05 -1.381876E+04 -7.568380E+05 -1.147070E-09  6.891960E-10
        34  17 -2.028584E+06 -3.011686E+05 -1.766741E+04 -7.556299E+05  3.352531E-09 -1.983864E-09
        34  18 -2.040192E+06 -3.125146E+05 -2.190146E+04 -7.659603E+05  3.645476E-09 -3.950615E-10
        34  19 -1.913848E+06 -2.651088E+05  1.106449E+04 -7.315519E+05  6.672265E+01  1.454744E+03
        34  20 -1.902225E+06 -2.536569E+05  1.591651E+04 -7.212610E+05 -6.350102E+02  2.004369E+03
        34  21 -1.880640E+06 -2.524984E+05  2.039131E+04 -7.225087E+05 -1.332501E+03  2.542336E+03
        34  22 -1.960433E+06 -2.826134E+05 -1.377083E+03 -7.441954E+05  3.886566E+02  1.575359E+03
        34  23 -1.965406E+06 -2.774129E+05 -8.753115E+02 -7.384463E+05 -3.182558E+02  2.123069E+03
        34  24 -1.960419E+06 -2.825067E+05 -7.548031E+02 -7.442358E+05 -1.020915E+03  2.659126E+03
        34  25 -2.007016E+06 -3.001177E+05 -1.381875E+04 -7.568380E+05  7.105616E+02  1.695964E+03
        34  26 -2.028584E+06 -3.011686E+05 -1.766740E+04 -7.556299E+05 -1.538358E+00  2.241756E+03
        34  27 -2.040192E+06 -3.125146E+05 -2.190144E+04 -7.659603E+05 -7.093728E+02  2.775899E+03
        35   1 -1.855680E+06 -2.429335E+05  2.714737E+04 -7.155757E+05  1.609695E+03 -2.899637E+03
        35   2 -1.844810E+06 -2.322969E+05  3.094336E+04 -7.058822E+05  2.383296E+03 -3.381287E+03
        35   3 -1.824629E+06 -2.313673E+05  3.428875E+04 -7.069741E+05  3.145669E+03 -3.832305E+03
        35   4 -1.960563E+06 -2.823569E+05 -7.860062E+02 -7.440767E+05  1.299549E+03 -3.015917E+03
        35   5 -1.965230E+06 -2.775878E+05 -1.062107E+03 -7.386518E+05  2.086756E+03 -3.492517E+03
        35   6 -1.960588E+06 -2.825288E+05 -1.799737E+03 -7.440129E+05  2.862719E+03 -3.938488E+03
        35   7 -2.065435E+06 -3.217798E+05 -2.872042E+04 -7.725734E+05  9.894597E+02 -3.132174E+03
        35   8 -2.085635E+06 -3.228779E+05 -3.306888E+04 -7.714158E+05  1.790279E+03 -3.603724E+03
        35   9 -2.096529E+06 -3.336891E+05 -3.788983E+04 -7.810444E+05  2.579837E+03 -4.044646E+03
        35  10 -1.855680E+06 -2.429335E+05  2.714735E+04 -7.155757E+05  4.437121E-10  4.582206E-12
        35  11 -1.844810E+06 -2.322969E+05  3.094333E+04 -7.058822E+05  1.357308E-09 -9.461015E-10
        35  12 -1.824629E+06 -2.313674E+05  3.428870E+04 -7.069741E+05 -1.059846E-10 -1.163344E-09
        35  13 -1.960563E+06 -2.823569E+05 -7.860264E+02 -7.440767E+05  7.855552E-10 -8.400712E-10
        35  14 -1.965230E+06 -2.775878E+05 -1.062138E+03 -7.386518E+05  1.582807E-09 -1.604141E-09
        35  15 -1.960588E+06 -2.825288E+05 -1.799782E+03 -7.440129E+05  2.049359E-09 -7.970883E-10
        35  16 -2.065435E+06 -3.217798E+05 -2.872044E+04 -7.725734E+05 -1.688380E-09 -4.947922E-10
        35  17 -2.085635E+06 -3.228780E+05 -3.306891E+04 -7.714158E+05 -2.841148E-12 -1.516326E-09
        35  18 -2.096529E+06 -3.336891E+05 -3.788987E+04 -7.810444E+05  1.032695E-10 -6.020898E-10
        35  19 -1.855680E+06 -2.429335E+05  2.714737E+04 -7.155757E+05 -1.609695E+03  2.899637E+03
        35  20 -1.844810E+06 -2.322969E+05  3.094336E+04 -7.058822E+05 -2.383296E+03  3.381287E+03
        35  21 -1.824629E+06 -2.313673E+05  3.428875E+04 -7.069741E+05 -3.145669E+03  3.832305E+03
        35  22 -1.960563E+06 -2.823569E+05 -7.860062E+02 -7.440767E+05 -1.299549E+03  3.015917E+03
        35  23 -1.965230E+06 -2.775878E+05 -1.062107E+03 -7.386518E+05 -2.086756E+03  3.492517E+03
        35  24 -1.960588E+06 -2.825288E+05 -1.799737E+03 -7.440129E+05 -2.862719E+03  3.938488E+03
        35  25 -2.065435E+06 -3.217798E+05 -2.872042E+04 -7.725734E+05 -9.894597E+02  3.132174E+03
        35  26 -2.085635E+06 -3.228779E+05 -3.306888E+04 -7.714158E+05 -1.790279E+03  3.603724E+03
        35  27 -2.096529E+06 -3.336891E+05 -3.788983E+04 -7.810444E+05 -2.579837E+03  4.044646E+03
        36   1 -1.801862E+06 -2.224552E+05  3.998643E+04 -7.008309E+05  3.631886E+03 -4.077873E+03
        36   2 -1.792027E+06 -2.125552E+05  4.190585E+04 -6.918892E+05  5.870094E+03 -3.934610E+03
        36   3 -1.774751E+06 -2.132027E+05  4.176843E+04 -6.921365E+05  8.078041E+03 -3.709793E+03
        36   4 -1.960917E+06 -2.820796E+05 -2.305275E+03 -7.438978E+05  3.339710E+03 -4.187557E+03
        36   5 -1.964750E+06 -2.776182E+05 -4.018440E+03 -7.389976E+05  5.613890E+03 -4.030866E+03
        36   6 -1.961150E+06 -2.837118E+05 -7.817458E+03 -7.432865E+05  7.857763E+03 -3.792628E+03
        36   7 -2.119947E+06 -3.417025E+05 -4.459907E+04 -7.869546E+05  3.047616E+03 -4.297210E+03
        36   8 -2.137444E+06 -3.426793E+05 -4.994533E+04 -7.860942E+05  5.357765E+03 -4.127092E+03
        36   9 -2.147515E+06 -3.542190E+05 -5.740650E+04 -7.944228E+05  7.637556E+03 -3.875435E+03
        36  10 -1.801862E+06 -2.224552E+05  3.998637E+04 -7.008309E+05 -2.018129E-09 -3.715768E-13
        36  11 -1.792027E+06 -2.125552E+05  4.190576E+04 -6.918892E+05 -1.167382E-09  6.077743E-10
        36  12 -1.774751E+06 -2.132028E+05  4.176828E+04 -6.921365E+05  4.482551E-11 -2.766139E-10
        36  13 -1.960917E+06 -2.820797E+05 -2.305329E+03 -7.438978E+05  1.839079E-10  3.882239E-10
        36  14 -1.964750E+06 -2.776182E+05 -4.018530E+03 -7.389976E+05 -6.761369E-10  1.378206E-09
        36  15 -1.961150E+06 -2.837119E+05 -7.817602E+03 -7.432865E+05 -1.897873E-09  2.320591E-10
        36  16 -2.119947E+06 -3.417025E+05 -4.459912E+04 -7.869546E+05 -7.769700E-11  3.488249E-10
        36  17 -2.137444E+06 -3.426794E+05 -4.994541E+04 -7.860942E+05  1.089037E-10  6.861931E-10
        36  18 -2.147515E+06 -3.542190E+05 -5.740664E+04 -7.944227E+05  9.905569E-10 -2.648224E-10
        36  19 -1.801862E+06 -2.224552E+05  3.998643E+04 -7.008309E+05 -3.631886E+03  4.077873E+03
        36  20 -1.792027E+06 -2.125552E+05  4.190585E+04 -6.918892E+05 -5.870094E+03  3.934610E+03
        36  21 -1.774751E+06 -2.132027E+05  4.176843E+04 -6.921365E+05 -8.078041E+03  3.709793E+03
        36  22 -1.960917E+06 -2.820796E+05 -2.305275E+03 -7.438978E+05 -3.339710E+03  4.187557E+03
        36  23 -1.964750E+06 -2.776182E+05 -4.018440E+03 -7.389976E+05 -5.613890E+03  4.030866E+03
        36  24 -1.961150E+06 -2.837118E+05 -7.817458E+03 -7.432865E+05 -7.857763E+03  3.792628E+03
        36  25 -2.119947E+06 -3.417025E+05 -4.459907E+04 -7.869546E+05 -3.047616E+03  4.297210E+03
        36  26 -2.137444E+06 -3.426793E+05 -4.994533E+04 -7.860942E+05 -5.357765E+03  4.127092E+03
        36  27 -2.147515E+06 -3.542190E+05 -5.740650E+04 -7.944228E+05 -7.637556E+03  3.875435E+03
        37   1 -1.754344E+06 -2.049254E+05  4.495372E+04 -6.894366E+05  9.800722E+03 -3.510403E+03
        37   2 -1.745330E+06 -1.929658E+05  4.071216E+04 -6.794219E+05  1.875529E+04 -7.359509E+02
        37   3 -1.737239E+06 -2.065420E+05  2.491936E+04 -6.729222E+05  2.750312E+04  2.589575E+03
        37   4 -1.962209E+06 -2.813337E+05 -9.989581E+03 -7.441732E+05  9.444476E+03 -3.644303E+03
        37   5 -1.962759E+06 -2.758050E+05 -1.726985E+04 -7.396905E+05  1.864300E+04 -7.783605E+02
        37   6 -1.964283E+06 -2.958648E+05 -3.629830E+04 -7.387226E+05  2.763460E+04  2.638588E+03
        37   7 -2.170034E+06 -3.577399E+05 -6.493659E+04 -7.988934E+05  9.088362E+03 -3.778157E+03
        37   8 -2.180143E+06 -3.586409E+05 -7.525591E+04 -7.999399E+05  1.853076E+04 -8.207537E+02
        37   9 -2.191276E+06 -3.851832E+05 -9.752038E+04 -8.045006E+05  2.776603E+04  2.687578E+03
        37  10 -1.754344E+06 -2.049254E+05  4.495352E+04 -6.894366E+05 -2.289327E-10 -1.122171E-09
        37  11 -1.745331E+06 -1.929659E+05  4.071150E+04 -6.794219E+05  4.062765E-09  7.925019E-10
        37  12 -1.737240E+06 -2.065422E+05  2.491792E+04 -6.729222E+05  1.323006E-09 -3.596767E-10
        37  13 -1.962210E+06 -2.813337E+05 -9.989773E+03 -7.441732E+05 -1.955132E-09 -2.126797E-10
        37  14 -1.962760E+06 -2.758051E+05 -1.727050E+04 -7.396905E+05 -2.242383E-09  4.527855E-10
        37  15 -1.964284E+06 -2.958651E+05 -3.629975E+04 -7.387227E+05 -3.640107E-10  4.270192E-10
        37  16 -2.170034E+06 -3.577399E+05 -6.493678E+04 -7.988933E+05  1.779556E-09 -6.545081E-11
        37  17 -2.180143E+06 -3.586410E+05 -7.525656E+04 -7.999399E+05 -5.841416E-10 -5.268837E-10
        37  18 -2.191277E+06 -3.851834E+05 -9.752185E+04 -8.045007E+05 -2.239601E-09 -1.546287E-10
        37  19 -1.754344E+06 -2.049254E+05  4.495372E+04 -6.894366E+05 -9.800722E+03  3.510403E+03
        37  20 -1.745330E+06 -1.929658E+05  4.071216E+04 -6.794219E+05 -1.875529E+04  7.359509E+02
        37  21 -1.737239E+06 -2.065420E+05  2.491936E+04 -6.729222E+05 -2.750312E+04 -2.589575E+03
        37  22 -1.962209E+06 -2.813337E+05 -9.989581E+03 -7.441732E+05 -9.444476E+03  3.644303E+03
        37  23 -1.962759E+06 -2.758050E+05 -1.726985E+04 -7.396905E+05 -1.864300E+04  7.783605E+02
        37  24 -1.964283E+06 -2.958648E+05 -3.629830E+04 -7.387226E+05 -2.763460E+04 -2.638588E+03
        37  25 -2.170034E+06 -3.577399E+05 -6.493659E+04 -7.988934E+05 -9.088362E+03  3.778157E+03
        37  26 -2.180143E+06 -3.586409E+05 -7.525591E+04 -7.999399E+05 -1.853076E+04  8.207537E+02
        37  27 -2.191276E+06 -3.851832E+05 -9.752038E+04 -8.045006E+05 -2.776603E+04 -2.687578E+03
        38   1 -1.713142E+06 -1.956244E+05  2.074615E+04 -6.948756E+05  3.592206E+04  4.488947E+03
        38   2 -1.701985E+06 -1.540612E+05 -5.613084E+03 -6.648517E+05  7.347845E+04  1.819699E+04
        38   3 -1.751030E+06 -2.790256E+05 -1.040498E+05 -5.989615E+05  1.088011E+05  3.784610E+04
        38   4 -1.970396E+06 -2.768422E+05 -4.454552E+04 -7.489403E+05  3.441843E+04  3.924460E+03
        38   5 -1.949166E+06 -2.573840E+05 -7.319392E+04 -7.427903E+05  7.462213E+04  1.862547E+04
        38   6 -1.988690E+06 -4.050229E+05 -1.760455E+05 -7.007672E+05  1.125921E+05  3.926496E+04
        38   7 -2.227587E+06 -3.580605E+05 -1.098424E+05 -8.029869E+05  3.291547E+04  3.360133E+03
        38   8 -2.196287E+06 -3.606993E+05 -1.407804E+05 -8.206995E+05  7.576531E+04  1.905371E+04
        38   9 -2.226292E+06 -5.309982E+05 -2.480465E+05 -8.025322E+05  1.163815E+05  4.068266E+04
        38  10 -1.713144E+06 -1.956248E+05  2.074368E+04 -6.948757E+05  2.192457E-10 -5.751865E-10
        38  11 -1.701991E+06 -1.540630E+05 -5.623886E+03 -6.648528E+05  2.811743E-09  2.142482E-10
        38  12 -1.751043E+06 -2.790303E+05 -1.040748E+05 -5.989648E+05 -1.240303E-10  6.030450E-11
        38  13 -1.970398E+06 -2.768426E+05 -4.454778E+04 -7.489404E+05  1.508175E-09  4.582663E-10
        38  14 -1.949172E+06 -2.573859E+05 -7.320508E+04 -7.427914E+05 -2.525323E-09  6.458211E-10
        38  15 -1.988704E+06 -4.050279E+05 -1.760723E+05 -7.007708E+05 -7.554959E-10 -1.101102E-11
        38  16 -2.227588E+06 -3.580608E+05 -1.098445E+05 -8.029870E+05 -4.562414E-10 -4.606886E-10
        38  17 -2.196293E+06 -3.607013E+05 -1.407919E+05 -8.207007E+05  1.249839E-09 -6.254840E-10
        38  18 -2.226307E+06 -5.310036E+05 -2.480752E+05 -8.025360E+05  1.747043E-09 -1.878452E-10
        38  19 -1.713142E+06 -1.956244E+05  2.074615E+04 -6.948756E+05 -3.592206E+04 -4.488947E+03
        38  20 -1.701985E+06 -1.540612E+05 -5.613084E+03 -6.648517E+05 -7.347845E+04 -1.819699E+04
        38  21 -1.751030E+06 -2.790256E+05 -1.040498E+05 -5.989615E+05 -1.088011E+05 -3.784610E+04
        38  22 -1.970396E+06 -2.768422E+05 -4.454552E+04 -7.489403E+05 -3.441843E+04 -3.924460E+03
        38  23 -1.949166E+06 -2.573840E+05 -7.319392E+04 -7.427903E+05 -7.462213E+04 -1.862547E+04
        38  24 -1.988690E+06 -4.050229E+05 -1.760455E+05 -7.007672E+05 -1.125921E+05 -3.926496E+04
        38  25 -2.227587E+06 -3.580605E+05 -1.098424E+05 -8.029869E+05 -3.291547E+04 -3.360133E+03
        38  26 -2.196287E+06 -3.606993E+05 -1.407804E+05 -8.206995E+05 -7.576531E+04 -1.905371E+04
        38  27 -2.226292E+06 -5.309982E+05 -2.480465E+05 -8.025322E+05 -1.163815E+05 -4.068266E+04
        39   1 -4.198880E+05  1.129170E+05  1.430855E+05  3.414866E+04  9.781422E+04  5.383810E+00
        39   2 -4.397719E+05 -1.705322E+04  6.249867E+04  9.779552E+03  6.405121E+04  1.009642E+00
        39   3 -4.199177E+05 -5.701814E+03  3.923934E+04 -1.458877E+04  3.028789E+04 -7.121889E-01
        39   4 -4.198893E+05  1.129148E+05  1.430852E+05 -2.754031E-09  9.781422E+04  7.913681E-13
        39   5 -4.397720E+05 -1.705340E+04  6.249864E+04 -1.439298E-08  6.405121E+04  7.787979E-10
        39   6 -4.199179E+05 -5.702215E+03  3.923929E+04  5.189563E-09  3.028789E+04  8.536789E-10
        39   7 -4.198880E+05  1.129170E+05  1.430855E+05 -3.414866E+04  9.781422E+04 -5.383810E+00
        39   8 -4.397719E+05 -1.705322E+04  6.249867E+04 -9.779552E+03  6.405121E+04 -1.009642E+00
        39   9 -4.199177E+05 -5.701814E+03  3.923934E+04  1.458877E+04  3.028789E+04  7.121889E-01
        39  10 -4.198983E+05  1.129144E+05  1.430675E+05  3.414866E+04 -5.703718E-10  9.661300E-11
        39  11 -4.397763E+05 -1.705432E+04  6.249096E+04  9.779552E+03 -1.824543E-10  8.853449E-11
        39  12 -4.199187E+05 -5.702061E+03  3.923762E+04 -1.458877E+04 -4.849049E-12  2.183355E-11
        39  13 -4.198996E+05  1.129122E+05  1.430672E+05 -1.997381E-08  1.076867E-09  4.391357E-11
        39  14 -4.397764E+05 -1.705450E+04  6.249093E+04 -1.653179E-08 -1.927142E-09  2.242469E-10
        39  15 -4.199189E+05 -5.702461E+03  3.923756E+04 -8.785864E-09 -1.911413E-09  5.182708E-10
        39  16 -4.198983E+05  1.129144E+05  1.430675E+05 -3.414866E+04 -5.022847E-10 -8.950170E-11
        39  17 -4.397763E+05 -1.705432E+04  6.249096E+04 -9.779552E+03  9.156504E-11  1.266140E-10
        39  18 -4.199187E+05 -5.702061E+03  3.923762E+04  1.458877E+04  1.427684E-09  1.045342E-09
        39  19 -4.198880E+05  1.129170E+05  1.430855E+05  3.414866E+04 -9.781422E+04 -5.383810E+00
        39  20 -4.397719E+05 -1.705322E+04  6.249867E+04  9.779552E+03 -6.405121E+04 -1.009642E+00
        39  21 -4.199177E+05 -5.701814E+03  3.923934E+04 -1.458877E+04 -3.028789E+04  7.121889E-01
        39  22 -4.198893E+05  1.129148E+05  1.430852E+05  1.564840E-09 -9.781422E+04  7.670132E-11
        39  23 -4.397720E+05 -1.705340E+04  6.249864E+04 -1.436357E-08 -6.405121E+04 -3.104015E-10
        39  24 -4.199179E+05 -5.702215E+03  3.923929E+04  9.542877E-09 -3.028789E+04  1.925752E-10
        39  25 -4.198880E+05  1.129170E+05  1.430855E+05 -3.414866E+04 -9.781422E+04  5.383810E+00
        39  26 -4.397719E+05 -1.705322E+04  6.249867E+04 -9.779552E+03 -6.405121E+04  1.009642E+00
        39  27 -4.199177E+05 -5.701814E+03  3.923934E+04  1.458877E+04 -3.028789E+04 -7.121889E-01
        40   1 -4.276416E+05  1.227954E+04  3.205418E+04  3.365743E+03  2.416353E+04  1.310854E-01
        40   2 -4.301213E+05 -1.906379E+03  1.621369E+04  8.411503E+02  1.583910E+04  2.147424E-02
        40   3 -4.276459E+05 -6.136978E+02  9.665422E+03 -1.683409E+03  7.514848E+03 -2.039022E-02
        40   4 -4.276416E+05  1.227952E+04  3.205418E+04  4.661448E-09  2.416353E+04  1.152156E-09
        40   5 -4.301213E+05 -1.906380E+03  1.621369E+04 -9.477585E-09  1.583910E+04  1.050654E-09
        40   6 -4.276459E+05 -6.137032E+02  9.665421E+03 -2.619668E-09  7.514848E+03 -2.389525E-10
        40   7 -4.276416E+05  1.227954E+04  3.205418E+04 -3.365743E+03  2.416353E+04 -1.310854E-01
        40   8 -4.301213E+05 -1.906379E+03  1.621369E+04 -8.411503E+02  1.583910E+04 -2.147424E-02
        40   9 -4.276459E+05 -6.136978E+02  9.665422E+03  1.683409E+03  7.514848E+03  2.039022E-02
        40  10 -4.276422E+05  1.227939E+04  3.205309E+04  3.365743E+03 -4.158704E-10  1.189123E-10
        40  11 -4.301216E+05 -1.906446E+03  1.621321E+04  8.411503E+02  3.656051E-10  4.165511E-10
        40  12 -4.276460E+05 -6.137130E+02  9.665316E+03 -1.683409E+03  7.995921E-10 -6.006380E-10
        40  13 -4.276423E+05  1.227936E+04  3.205308E+04 -3.961532E-09 -8.411029E-12  5.842636E-10
        40  14 -4.301216E+05 -1.906448E+03  1.621321E+04 -1.165613E-08 -5.384012E-10  2.703946E-10
        40  15 -4.276460E+05 -6.137183E+02  9.665315E+03 -2.366111E-08 -2.891665E-10 -3.141598E-10
        40  16 -4.276422E+05  1.227939E+04  3.205309E+04 -3.365743E+03  9.193539E-10  9.887533E-10
        40  17 -4.301216E+05 -1.906446E+03  1.621321E+04 -8.411503E+02 -8.648814E-10 -4.070302E-12
        40  18 -4.276460E+05 -6.137130E+02  9.665316E+03  1.683409E+03  1.053346E-10 -1.116949E-10
        40  19 -4.276416E+05  1.227954E+04  3.205418E+04  3.365743E+03 -2.416353E+04 -1.310854E-01
        40  20 -4.301213E+05 -1.906379E+03  1.621369E+04  8.411503E+02 -1.583910E+04 -2.147424E-02
        40  21 -4.276459E+05 -6.136978E+02  9.665422E+03 -1.683409E+03 -7.514848E+03  2.039022E-02
        40  22 -4.276416E+05  1.227952E+04  3.205418E+04  8.950168E-09 -2.416353E+04  1.844773E-11
        40  23 -4.301213E+05 -1.906380E+03  1.621369E+04 -9.531474E-09 -1.583910E+04 -4.802486E-10
        40  24 -4.276459E+05 -6.137032E+02  9.665421E+03  1.596792E-09 -7.514848E+03 -3.973265E-10
        40  25 -4.276416E+05  1.227954E+04  3.205418E+04 -3.365743E+03 -2.416353E+04  1.310854E-01
        40  26 -4.301213E+05 -1.906379E+03  1.621369E+04 -8.411503E+02 -1.583910E+04  2.147424E-02
        40  27 -4.276459E+05 -6.136978E+02  9.665422E+03  1.683409E+03 -7.514848E+03 -2.039022E-02
        41   1 -4.285934E+05  1.315079E+03  7.570185E+03  2.729220E+02  5.989410E+03  2.634724E-03
        41   2 -4.289383E+05 -2.171182E+02  4.092091E+03  3.399833E+01  3.934122E+03  2.155852E-04
        41   3 -4.285941E+05 -6.424771E+01  2.374088E+03 -2.049292E+02  1.878808E+03 -6.205813E-04
        41   4 -4.285934E+05  1.315079E+03  7.570185E+03 -1.251880E-08  5.989410E+03 -2.013606E-10
        41   5 -4.289383E+05 -2.171182E+02  4.092091E+03 -2.475891E-08  3.934122E+03  7.086533E-10
        41   6 -4.285941E+05 -6.424779E+01  2.374088E+03 -7.922112E-09  1.878808E+03 -2.030394E-10
        41   7 -4.285934E+05  1.315079E+03  7.570185E+03 -2.729220E+02  5.989410E+03 -2.634724E-03
        41   8 -4.289383E+05 -2.171182E+02  4.092091E+03 -3.399833E+01  3.934122E+03 -2.155840E-04
        41   9 -4.285941E+05 -6.424771E+01  2.374088E+03  2.049292E+02  1.878808E+03  6.205807E-04
        41  10 -4.285934E+05  1.315070E+03  7.570117E+03  2.729220E+02 -1.908537E-09 -5.468995E-10
        41  11 -4.289383E+05 -2.171224E+02  4.092062E+03  3.399833E+01 -3.395738E-09  5.596652E-10
        41  12 -4.285941E+05 -6.424866E+01  2.374081E+03 -2.049292E+02 -3.882749E-10  7.118782E-11
        41  13 -4.285934E+05  1.315070E+03  7.570117E+03 -2.104189E-08  2.128356E-09  1.712258E-11
        41  14 -4.289383E+05 -2.171224E+02  4.092062E+03 -7.543471E-09 -1.692845E-09  7.243952E-10
        41  15 -4.285941E+05 -6.424874E+01  2.374081E+03 -1.587816E-09  2.379744E-09 -4.320925E-10
        41  16 -4.285934E+05  1.315070E+03  7.570117E+03 -2.729220E+02  1.300894E-09  5.811725E-10
        41  17 -4.289383E+05 -2.171224E+02  4.092062E+03 -3.399833E+01  2.818514E-09  7.963393E-10
        41  18 -4.285941E+05 -6.424866E+01  2.374081E+03  2.049292E+02  2.326861E-09 -9.162330E-10
        41  19 -4.285934E+05  1.315079E+03  7.570185E+03  2.729220E+02 -5.989410E+03 -2.634725E-03
        41  20 -4.289383E+05 -2.171182E+02  4.092091E+03  3.399833E+01 -3.934122E+03 -2.155839E-04
        41  21 -4.285941E+05 -6.424771E+01  2.374088E+03 -2.049292E+02 -1.878808E+03  6.205812E-04
        41  22 -4.285934E+05  1.315079E+03  7.570185E+03 -3.713429E-09 -5.989410E+03  2.114759E-10
        41  23 -4.289383E+05 -2.171182E+02  4.092091E+03  9.672751E-09 -3.934122E+03  7.155318E-10
        41  24 -4.285941E+05 -6.424779E+01  2.374088E+03  3.059752E-08 -1.878808E+03 -6.637600E-10
        41  25 -4.285934E+05  1.315079E+03  7.570185E+03 -2.729220E+02 -5.989410E+03  2.634725E-03
        41  26 -4.289383E+05 -2.171182E+02  4.092091E+03 -3.399833E+01 -3.934122E+03  2.155854E-04
        41  27 -4.285941E+05 -6.424771E+01  2.374088E+03  2.049292E+02 -1.878808E+03 -6.205827E-04
        42   1 -4.287232E+05  1.358151E+02  1.814333E+03  5.193632E+00  1.503153E+03  1.258273E-05
        42   2 -4.287774E+05 -2.519336E+01  9.844840E+02 -1.150428E+01  1.013361E+03 -1.879090E-05
        42   3 -4.287233E+05 -8.309540E+00  5.181504E+02 -2.820221E+01  5.235693E+02 -2.379921E-05
        42   4 -4.287232E+05  1.358151E+02  1.814333E+03  1.392610E-10  1.503153E+03 -6.876262E-10
        42   5 -4.287774E+05 -2.519336E+01  9.844840E+02 -1.113334E-08  1.013361E+03 -1.587804E-10
        42   6 -4.287233E+05 -8.309541E+00  5.181504E+02  5.591598E-09  5.235693E+02  3.906781E-10
        42   7 -4.287232E+05  1.358151E+02  1.814333E+03 -5.193632E+00  1.503153E+03 -1.258422E-05
        42   8 -4.287774E+05 -2.519336E+01  9.844840E+02  1.150428E+01  1.013361E+03  1.879041E-05
        42   9 -4.287233E+05 -8.309540E+00  5.181504E+02  2.820221E+01  5.235693E+02  2.380003E-05
        42  10 -4.287232E+05  1.358145E+02  1.814329E+03  5.193632E+00 -8.010732E-10 -6.274701E-10
        42  11 -4.287774E+05 -2.519364E+01  9.844821E+02 -1.150428E+01 -2.613048E-09 -6.474465E-10
        42  12 -4.287233E+05 -8.309613E+00  5.181499E+02 -2.820221E+01 -1.287277E-09  1.881422E-10
        42  13 -4.287232E+05  1.358145E+02  1.814329E+03 -4.127148E-09  1.550457E-10 -9.250918E-10
        42  14 -4.287774E+05 -2.519364E+01  9.844821E+02 -6.792805E-09  4.608717E-10 -3.406508E-10
        42  15 -4.287233E+05 -8.309615E+00  5.181499E+02  1.311519E-09 -3.021870E-09  1.976905E-10
        42  16 -4.287232E+05  1.358145E+02  1.814329E+03 -5.193632E+00  2.821546E-09 -1.214086E-09
        42  17 -4.287774E+05 -2.519364E+01  9.844821E+02  1.150428E+01  1.691305E-09  3.221210E-11
        42  18 -4.287233E+05 -8.309613E+00  5.181499E+02  2.820221E+01 -9.315852E-10  2.368785E-10
        42  19 -4.287232E+05  1.358151E+02  1.814333E+03  5.193632E+00 -1.503153E+03 -1.258409E-05
        42  20 -4.287774E+05 -2.519336E+01  9.844840E+02 -1.150428E+01 -1.013361E+03  1.878987E-05
        42  21 -4.287233E+05 -8.309540E+00  5.181504E+02 -2.820221E+01 -5.235693E+02  2.379948E-05
        42  22 -4.287232E+05  1.358151E+02  1.814333E+03  8.830839E-09 -1.503153E+03 -1.164010E-09
        42  23 -4.287774E+05 -2.519336E+01  9.844840E+02 -1.106684E-08 -1.013361E+03 -5.135490E-10
        42  24 -4.287233E+05 -8.309541E+00  5.181504E+02 -3.509583E-09 -5.235693E+02  5.641050E-12
        42  25 -4.287232E+05  1.358151E+02  1.814333E+03 -5.193632E+00 -1.503153E+03  1.258158E-05
        42  26 -4.287774E+05 -2.519336E+01  9.844840E+02  1.150428E+01 -1.013361E+03 -1.879064E-05
        42  27 -4.287233E+05 -8.309540E+00  5.181504E+02  2.820221E+01 -5.235693E+02 -2.379970E-05
        43   1 -4.287468E+05  1.373843E+01  3.534906E+02 -9.876300E+00  4.449140E+02 -7.082304E-06
        43   2 -4.287482E+05  9.796177E-01  8.560254E+01 -6.549269E+00  4.028755E+02 -4.253309E-06
        43   3 -4.287469E+05 -2.297052E+01 -1.577027E+02 -3.222287E+00  3.608376E+02 -1.873445E-06
        43   4 -4.287468E+05  1.373843E+01  3.534906E+02  1.325216E-08  4.449140E+02  2.009437E-10
        43   5 -4.287482E+05  9.796176E-01  8.560254E+01 -5.432971E-09  4.028755E+02 -2.218225E-10
        43   6 -4.287469E+05 -2.297052E+01 -1.577027E+02  1.195720E-08  3.608376E+02  4.723281E-10
        43   7 -4.287468E+05  1.373843E+01  3.534906E+02  9.876300E+00  4.449140E+02  7.082558E-06
        43   8 -4.287482E+05  9.796177E-01  8.560254E+01  6.549269E+00  4.028755E+02  4.252717E-06
        43   9 -4.287469E+05 -2.297052E+01 -1.577027E+02  3.222287E+00  3.608376E+02  1.874337E-06
        43  10 -4.287468E+05  1.373837E+01  3.534903E+02 -9.876300E+00 -7.107689E-10  1.657111E-10
        43  11 -4.287482E+05  9.795741E-01  8.560223E+01 -6.549269E+00  9.654385E-10 -5.752724E-10
        43  12 -4.287469E+05 -2.297056E+01 -1.577029E+02 -3.222287E+00 -1.397841E-09 -1.888520E-10
        43  13 -4.287468E+05  1.373837E+01  3.534903E+02 -4.013513E-09  2.316961E-09  1.490529E-10
        43  14 -4.287482E+05  9.795740E-01  8.560223E+01 -7.601529E-09 -1.460211E-09 -2.909899E-10
        43  15 -4.287469E+05 -2.297056E+01 -1.577029E+02  6.540734E-10  7.223501E-10 -3.510286E-10
        43  16 -4.287468E+05  1.373837E+01  3.534903E+02  9.876300E+00 -3.323758E-10  1.152357E-10
        43  17 -4.287482E+05  9.795741E-01  8.560223E+01  6.549269E+00 -3.495584E-10 -5.763481E-11
        43  18 -4.287469E+05 -2.297056E+01 -1.577029E+02  3.222287E+00  7.100101E-10 -5.338433E-10
        43  19 -4.287468E+05  1.373843E+01  3.534906E+02 -9.876300E+00 -4.449140E+02  7.082608E-06
        43  20 -4.287482E+05  9.796177E-01  8.560254E+01 -6.549269E+00 -4.028755E+02  4.252288E-06
        43  21 -4.287469E+05 -2.297052E+01 -1.577027E+02 -3.222287E+00 -3.608376E+02  1.873181E-06
        43  22 -4.287468E+05  1.373843E+01  3.534906E+02  1.317909E-08 -4.449140E+02  9.809541E-11
        43  23 -4.287482E+05  9.796176E-01  8.560254E+01  3.151896E-09 -4.028755E+02 -3.475289E-10
        43  24 -4.287469E+05 -2.297052E+01 -1.577027E+02  1.627407E-08 -3.608376E+02 -1.175349E-09
        43  25 -4.287468E+05  1.373843E+01  3.534906E+02  9.876300E+00 -4.449140E+02 -7.082386E-06
        43  26 -4.287482E+05  9.796177E-01  8.560254E+01  6.549269E+00 -4.028755E+02 -4.252887E-06
        43  27 -4.287469E+05 -2.297052E+01 -1.577027E+02  3.222287E+00 -3.608376E+02 -1.875431E-06
        44   1 -4.287719E+05  1.147452E+01 -2.849991E+02 -3.599061E+01  4.003478E+02 -2.322297E-05
        44   2 -4.287170E+05  3.553063E+01 -6.165214E+02  4.256234E+00  7.104907E+02  4.874528E-06
        44   3 -4.287720E+05 -2.179950E+02 -1.219456E+03  4.450369E+01  1.020638E+03  7.321154E-05
        44   4 -4.287719E+05  1.147452E+01 -2.849991E+02  2.602161E-08  4.003478E+02  7.829679E-10
        44   5 -4.287170E+05  3.553063E+01 -6.165214E+02 -7.319719E-09  7.104907E+02  4.391461E-10
        44   6 -4.287720E+05 -2.179950E+02 -1.219456E+03 -2.074310E-08  1.020638E+03  2.435590E-10
        44   7 -4.287719E+05  1.147452E+01 -2.849991E+02  3.599061E+01  4.003478E+02  2.322448E-05
        44   8 -4.287170E+05  3.553063E+01 -6.165214E+02 -4.256234E+00  7.104907E+02 -4.873701E-06
        44   9 -4.287720E+05 -2.179950E+02 -1.219456E+03 -4.450369E+01  1.020638E+03 -7.321109E-05
        44  10 -4.287719E+05  1.147448E+01 -2.849994E+02 -3.599061E+01  1.682436E-10  4.019350E-10
        44  11 -4.287170E+05  3.553049E+01 -6.165224E+02  4.256234E+00 -1.674314E-09  4.322029E-10
        44  12 -4.287720E+05 -2.179952E+02 -1.219458E+03  4.450369E+01  5.487007E-10 -5.281275E-10
        44  13 -4.287719E+05  1.147448E+01 -2.849994E+02  2.177386E-08  2.019692E-09  3.025136E-11
        44  14 -4.287170E+05  3.553049E+01 -6.165224E+02  5.600428E-09 -1.309156E-09  5.371818E-10
        44  15 -4.287720E+05 -2.179952E+02 -1.219458E+03 -3.038119E-09  1.799461E-09 -3.838930E-11
        44  16 -4.287719E+05  1.147448E+01 -2.849994E+02  3.599061E+01  5.364535E-10 -3.080365E-10
        44  17 -4.287170E+05  3.553049E+01 -6.165224E+02 -4.256234E+00  1.941611E-09  5.935337E-10
        44  18 -4.287720E+05 -2.179952E+02 -1.219458E+03 -4.450369E+01 -3.531472E-10  4.671290E-10
        44  19 -4.287719E+05  1.147452E+01 -2.849991E+02 -3.599061E+01 -4.003478E+02  2.322389E-05
        44  20 -4.287170E+05  3.553063E+01 -6.165214E+02  4.256234E+00 -7.104907E+02 -4.873449E-06
        44  21 -4.287720E+05 -2.179950E+02 -1.219456E+03  4.450369E+01 -1.020638E+03 -7.321250E-05
        44  22 -4.287719E+05  1.147452E+01 -2.849991E+02  3.475472E-08 -4.003478E+02 -6.939091E-10
        44  23 -4.287170E+05  3.553063E+01 -6.165214E+02  9.904953E-09 -7.104907E+02  5.979070E-10
        44  24 -4.287720E+05 -2.179950E+02 -1.219456E+03 -1.225574E-08 -1.020638E+03 -3.355678E-10
        44  25 -4.287719E+05  1.147452E+01 -2.849991E+02  3.599061E+01 -4.003478E+02 -2.322521E-05
        44  26 -4.287170E+05  3.553063E+01 -6.165214E+02 -4.256234E+00 -7.104907E+02  4.874635E-06
        44  27 -4.287720E+05 -2.179950E+02 -1.219456E+03 -4.450369E+01 -1.020638E+03  7.321173E-05
        45   1 -4.289298E+05  1.016902E+02 -1.575397E+03 -2.796387E+02  1.267849E+03 -5.714486E-04
        45   2 -4.285200E+05  3.159496E+02 -2.672421E+03  1.390614E+02  2.640276E+03  5.917908E-04
        45   3 -4.289305E+05 -2.035507E+03 -5.304835E+03  5.577615E+02  4.012701E+03  3.607428E-03
        45   4 -4.289298E+05  1.016900E+02 -1.575397E+03 -1.502056E-09  1.267849E+03  2.733411E-10
        45   5 -4.285200E+05  3.159495E+02 -2.672421E+03 -1.042237E-08  2.640276E+03  1.957705E-10
        45   6 -4.289305E+05 -2.035507E+03 -5.304835E+03 -1.718909E-08  4.012701E+03 -2.865906E-10
        45   7 -4.289298E+05  1.016902E+02 -1.575397E+03  2.796387E+02  1.267849E+03  5.714491E-04
        45   8 -4.285200E+05  3.159496E+02 -2.672421E+03 -1.390614E+02  2.640276E+03 -5.917906E-04
        45   9 -4.289305E+05 -2.035507E+03 -5.304835E+03 -5.577615E+02  4.012701E+03 -3.607429E-03
        45  10 -4.289298E+05  1.016898E+02 -1.575400E+03 -2.796387E+02 -2.499289E-10 -6.105984E-10
        45  11 -4.285200E+05  3.159477E+02 -2.672434E+03  1.390614E+02 -8.859841E-10  1.988054E-10
        45  12 -4.289305E+05 -2.035511E+03 -5.304865E+03  5.577615E+02 -2.580672E-09  1.339277E-10
        45  13 -4.289298E+05  1.016896E+02 -1.575400E+03  1.575101E-08  1.102020E-09 -2.956321E-10
        45  14 -4.285200E+05  3.159476E+02 -2.672434E+03 -1.040292E-08  9.994297E-10  5.100598E-11
        45  15 -4.289305E+05 -2.035512E+03 -5.304866E+03  8.669351E-09  1.656372E-09  3.588152E-10
        45  16 -4.289298E+05  1.016898E+02 -1.575400E+03  2.796387E+02 -4.368685E-10  6.935898E-11
        45  17 -4.285200E+05  3.159477E+02 -2.672434E+03 -1.390614E+02 -7.312973E-10 -9.661732E-11
        45  18 -4.289305E+05 -2.035511E+03 -5.304865E+03 -5.577615E+02  3.824440E-09  6.054707E-10
        45  19 -4.289298E+05  1.016902E+02 -1.575397E+03 -2.796387E+02 -1.267849E+03  5.714474E-04
        45  20 -4.285200E+05  3.159496E+02 -2.672421E+03  1.390614E+02 -2.640276E+03 -5.917905E-04
        45  21 -4.289305E+05 -2.035507E+03 -5.304835E+03  5.577615E+02 -4.012701E+03 -3.607428E-03
        45  22 -4.289298E+05  1.016900E+02 -1.575397E+03 -1.457635E-09 -1.267849E+03 -8.825893E-10
        45  23 -4.285200E+05  3.159495E+02 -2.672421E+03 -1.899884E-08 -2.640276E+03 -1.068657E-10
        45  24 -4.289305E+05 -2.035507E+03 -5.304835E+03  9.223512E-09 -4.012701E+03  1.015203E-09
        45  25 -4.289298E+05  1.016902E+02 -1.575397E+03  2.796387E+02 -1.267849E+03 -5.714494E-04
        45  26 -4.285200E+05  3.159496E+02 -2.672421E+03 -1.390614E+02 -2.640276E+03  5.917903E-04
        45  27 -4.289305E+05 -2.035507E+03 -5.304835E+03 -5.577615E+02 -4.012701E+03  3.607430E-03
        46   1 -4.302109E+05  9.452718E+02 -6.497930E+03 -2.418537E+03  5.026414E+03 -1.959406E-02
        46   2 -4.269197E+05  2.826941E+03 -1.035541E+04  1.621123E+03  1.062203E+04  2.775458E-02
        46   3 -4.302151E+05 -1.871724E+04 -2.371413E+04  5.660702E+03  1.621758E+04  1.479683E-01
        46   4 -4.302109E+05  9.452608E+02 -6.497931E+03 -2.464942E-08  5.026414E+03 -7.082577E-10
        46   5 -4.269197E+05  2.826936E+03 -1.035541E+04 -2.904755E-08  1.062203E+04 -8.824168E-10
        46   6 -4.302151E+05 -1.871730E+04 -2.371414E+04 -4.373620E-09  1.621758E+04 -3.261082E-10
        46   7 -4.302109E+05  9.452718E+02 -6.497930E+03  2.418537E+03  5.026414E+03  1.959406E-02
        46   8 -4.269197E+05  2.826941E+03 -1.035541E+04 -1.621123E+03  1.062203E+04 -2.775458E-02
        46   9 -4.302151E+05 -1.871724E+04 -2.371413E+04 -5.660702E+03  1.621758E+04 -1.479683E-01
        46  10 -4.302110E+05  9.452650E+02 -6.497977E+03 -2.418537E+03 -8.467113E-11 -1.080183E-10
        46  11 -4.269198E+05  2.826911E+03 -1.035562E+04  1.621123E+03  6.613881E-10 -1.731565E-10
        46  12 -4.302153E+05 -1.871731E+04 -2.371463E+04  5.660702E+03 -2.359420E-10 -7.072809E-11
        46  13 -4.302110E+05  9.452540E+02 -6.497979E+03  1.150200E-09  1.388507E-09  1.950124E-10
        46  14 -4.269198E+05  2.826906E+03 -1.035562E+04 -1.828957E-08  5.383894E-10 -2.682494E-10
        46  15 -4.302154E+05 -1.871737E+04 -2.371463E+04 -1.942043E-08  2.093434E-09 -1.491924E-10
        46  16 -4.302110E+05  9.452650E+02 -6.497977E+03  2.418537E+03  7.377923E-10  4.987672E-10
        46  17 -4.269198E+05  2.826911E+03 -1.035562E+04 -1.621123E+03  1.338294E-09 -4.175269E-10
        46  18 -4.302153E+05 -1.871731E+04 -2.371463E+04 -5.660702E+03  1.307982E-09 -2.225711E-10
        46  19 -4.302109E+05  9.452718E+02 -6.497930E+03 -2.418537E+03 -5.026414E+03  1.959406E-02
        46  20 -4.269197E+05  2.826941E+03 -1.035541E+04  1.621123E+03 -1.062203E+04 -2.775458E-02
        46  21 -4.302151E+05 -1.871724E+04 -2.371413E+04  5.660702E+03 -1.621758E+04 -1.479683E-01
        46  22 -4.302109E+05  9.452608E+02 -6.497931E+03  1.402701E-08 -5.026414E+03  1.108315E-09
        46  23 -4.269197E+05  2.826936E+03 -1.035541E+04 -7.532394E-09 -1.062203E+04  3.370798E-10
        46  24 -4.302151E+05 -1.871730E+04 -2.371414E+04 -9.709950E-09 -1.621758E+04  2.398848E-11
        46  25 -4.302109E+05  9.452718E+02 -6.497930E+03  2.418537E+03 -5.026414E+03 -1.959406E-02
        46  26 -4.269197E+05  2.826941E+03 -1.035541E+04 -1.621123E+03 -1.062203E+04  2.775458E-02
        46  27 -4.302151E+05 -1.871724E+04 -2.371413E+04 -5.660702E+03 -1.621758E+04  1.479683E-01
        47   1  3.397192E+04 -1.146348E+06  1.198206E+04  2.643268E+03  4.282645E+03 -5.996518E+04
        47   2  1.125057E+05 -1.173788E+06  5.378313E+04  1.578822E+03  1.266508E+04 -4.101902E+04
        47   3  9.434262E+04 -1.227702E+06  5.910050E+04 -3.108764E+04  1.123124E+04 -2.207621E+04
        47   4 -7.760604E+04 -1.593068E+06 -9.853070E+04 -2.083422E+04  4.285858E+03 -6.630395E+04
        47   5  1.175168E+04 -1.579379E+06 -4.381518E+04 -5.024463E+03  1.266667E+04 -4.266784E+04
        47   6  3.561617E+03 -1.593000E+06 -2.886476E+04 -2.081843E+04  1.122940E+04 -1.903356E+04
        47   7 -1.891968E+05 -2.039605E+06 -2.090579E+05 -4.429476E+04  4.289554E+03 -7.263814E+04
        47   8 -8.901416E+04 -1.984818E+06 -1.414252E+05 -1.162340E+04  1.266829E+04 -4.431558E+04
        47   9 -8.722875E+04 -1.958174E+06 -1.168395E+05 -1.055529E+04  1.122765E+04 -1.599270E+04
        47  10  3.397093E+04 -1.146352E+06  1.197525E+04  2.643475E+03 -6.911106E-10 -1.260666E-09
        47  11  1.125051E+05 -1.173790E+06  5.377966E+04  1.579241E+03 -1.009629E-09 -7.013447E-10
        47  12  9.434236E+04 -1.227703E+06  5.909935E+04 -3.108744E+04 -6.837830E-10  1.474939E-09
        47  13 -7.760724E+04 -1.593073E+06 -9.853902E+04 -2.083399E+04  2.432575E-09 -5.892307E-11
        47  14  1.175102E+04 -1.579381E+06 -4.381891E+04 -5.024028E+03  1.204808E-09 -4.076601E-10
        47  15  3.561384E+03 -1.593000E+06 -2.886568E+04 -2.081826E+04  3.221767E-09  2.945774E-11
        47  16 -1.891983E+05 -2.039611E+06 -2.090678E+05 -4.429451E+04  2.537246E-10  1.216052E-09
        47  17 -8.901487E+04 -1.984820E+06 -1.414292E+05 -1.162294E+04 -4.457103E-09  1.591684E-10
        47  18 -8.722895E+04 -1.958175E+06 -1.168402E+05 -1.055514E+04  2.741931E-10 -1.492187E-09
        47  19  3.397192E+04 -1.146348E+06  1.198206E+04  2.643268E+03 -4.282645E+03  5.996518E+04
        47  20  1.125057E+05 -1.173788E+06  5.378313E+04  1.578822E+03 -1.266508E+04  4.101902E+04
        47  21  9.434262E+04 -1.227702E+06  5.910050E+04 -3.108764E+04 -1.123124E+04  2.207621E+04
        47  22 -7.760604E+04 -1.593068E+06 -9.853070E+04 -2.083422E+04 -4.285858E+03  6.630395E+04
        47  23  1.175168E+04 -1.579379E+06 -4.381518E+04 -5.024463E+03 -1.266667E+04  4.266784E+04
        47  24  3.561617E+03 -1.593000E+06 -2.886476E+04 -2.081843E+04 -1.122940E+04  1.903356E+04
        47  25 -1.891968E+05 -2.039605E+06 -2.090579E+05 -4.429476E+04 -4.289554E+03  7.263814E+04
        47  26 -8.901416E+04 -1.984818E+06 -1.414252E+05 -1.162340E+04 -1.266829E+04  4.431558E+04
        47  27 -8.722875E+04 -1.958174E+06 -1.168395E+05 -1.055529E+04 -1.122765E+04  1.599270E+04
        48   1  6.763059E+04 -1.282672E+06  4.914531E+04 -1.868892E+04  8.864029E+03 -1.467972E+04
        48   2  6.700830E+04 -1.323377E+06  4.770035E+04 -4.262994E+03  7.944115E+03 -7.141051E+03
        48   3  5.151905E+04 -1.368772E+06  3.762579E+04 -2.359489E+04  6.160674E+03  3.954986E+02
        48   4 -8.262280E+03 -1.587992E+06 -2.453894E+04 -2.130777E+04  8.864204E+03 -1.444378E+04
        48   5  1.842765E+03 -1.585605E+06 -1.548175E+04 -4.426557E+03  7.943754E+03 -6.494677E+03
        48   6 -2.994044E+03 -1.587982E+06 -1.534253E+04 -2.130424E+04  6.159669E+03  1.452824E+03
        48   7 -8.416195E+04 -1.893227E+06 -9.822986E+04 -2.392530E+04  8.864377E+03 -1.420795E+04
        48   8 -6.332780E+04 -1.847769E+06 -7.866876E+04 -4.590036E+03  7.943393E+03 -5.848575E+03
        48   9 -5.751064E+04 -1.807148E+06 -6.831429E+04 -1.901438E+04  6.158672E+03  2.509776E+03
        48  10  6.763045E+04 -1.282672E+06  4.914476E+04 -1.868881E+04 -6.550739E-11 -2.147645E-10
        48  11  6.700822E+04 -1.323377E+06  4.770013E+04 -4.262948E+03  4.329436E-09  8.058600E-10
        48  12  5.151901E+04 -1.368772E+06  3.762572E+04 -2.359490E+04 -1.912050E-09  4.152772E-09
        48  13 -8.262421E+03 -1.587992E+06 -2.453948E+04 -2.130766E+04  2.762275E-09 -1.505414E-11
        48  14  1.842686E+03 -1.585605E+06 -1.548195E+04 -4.426515E+03 -1.081446E-09 -8.701876E-10
        48  15 -2.994085E+03 -1.587982E+06 -1.534260E+04 -2.130424E+04 -8.319789E-11 -4.808954E-11
        48  16 -8.416209E+04 -1.893228E+06 -9.823039E+04 -2.392520E+04  1.734952E-09  6.479191E-11
        48  17 -6.332787E+04 -1.847769E+06 -7.866894E+04 -4.589998E+03 -2.127318E-09 -2.254850E-09
        48  18 -5.751069E+04 -1.807148E+06 -6.831437E+04 -1.901439E+04 -2.047441E-09 -4.274502E-09
        48  19  6.763059E+04 -1.282672E+06  4.914531E+04 -1.868892E+04 -8.864029E+03  1.467972E+04
        48  20  6.700830E+04 -1.323377E+06  4.770035E+04 -4.262994E+03 -7.944115E+03  7.141051E+03
        48  21  5.151905E+04 -1.368772E+06  3.762579E+04 -2.359489E+04 -6.160674E+03 -3.954986E+02
        48  22 -8.262280E+03 -1.587992E+06 -2.453894E+04 -2.130777E+04 -8.864204E+03  1.444378E+04
        48  23  1.842765E+03 -1.585605E+06 -1.548175E+04 -4.426557E+03 -7.943754E+03  6.494677E+03
        48  24 -2.994044E+03 -1.587982E+06 -1.534253E+04 -2.130424E+04 -6.159669E+03 -1.452824E+03
        48  25 -8.416195E+04 -1.893227E+06 -9.822986E+04 -2.392530E+04 -8.864377E+03  1.420795E+04
        48  26 -6.332780E+04 -1.847769E+06 -7.866876E+04 -4.590036E+03 -7.943393E+03  5.848575E+03
        48  27 -5.751064E+04 -1.807148E+06 -6.831429E+04 -1.901438E+04 -6.158672E+03 -2.509776E+03
        49   1  3.961738E+04 -1.432940E+06  2.175036E+04 -1.739081E+04  5.129490E+03  3.525031E+03
        49   2  3.283528E+04 -1.471556E+06  7.260126E+03 -6.959559E+03  3.396933E+03  1.372967E+04
        49   3 -1.476942E+04 -1.521803E+06 -2.411005E+04 -3.142615E+04  8.553598E+02  2.393206E+04
        49   4  7.417119E+02 -1.589512E+06 -1.585195E+04 -2.154538E+04  5.128823E+03  4.155267E+03
        49   5  4.963545E+03 -1.583673E+06 -1.975166E+04 -4.116164E+03  3.395801E+03  1.474571E+04
        49   6 -3.170821E+04 -1.589534E+06 -4.080144E+04 -2.158588E+04  8.539217E+02  2.533459E+04
        49   7 -3.813568E+04 -1.746062E+06 -5.345599E+04 -2.569888E+04  5.128147E+03  4.785345E+03
        49   8 -2.290908E+04 -1.695778E+06 -4.676435E+04 -1.273282E+03  3.394679E+03  1.576156E+04
        49   9 -4.864697E+04 -1.657262E+06 -5.749312E+04 -1.174668E+04  8.525282E+02  2.673697E+04
        49  10  3.961735E+04 -1.432940E+06  2.175028E+04 -1.739083E+04 -9.290118E-10 -2.853943E-09
        49  11  3.283522E+04 -1.471557E+06  7.259750E+03 -6.959597E+03 -1.895320E-09 -4.412225E-09
        49  12 -1.476958E+04 -1.521803E+06 -2.411113E+04 -3.142617E+04  6.295939E-10  5.778125E-10
        49  13  7.416790E+02 -1.589512E+06 -1.585203E+04 -2.154539E+04 -4.230483E-09  2.268879E-11
        49  14  4.963474E+03 -1.583673E+06 -1.975210E+04 -4.116204E+03 -3.928983E-10 -1.407129E-09
        49  15 -3.170838E+04 -1.589535E+06 -4.080265E+04 -2.158589E+04  5.827383E-10  8.283775E-11
        49  16 -3.813572E+04 -1.746062E+06 -5.345608E+04 -2.569890E+04 -4.200399E-09  2.748914E-09
        49  17 -2.290916E+04 -1.695778E+06 -4.676484E+04 -1.273325E+03 -3.830351E-10  2.171953E-09
        49  18 -4.864716E+04 -1.657263E+06 -5.749447E+04 -1.174670E+04 -6.047054E-10 -8.362875E-10
        49  19  3.961738E+04 -1.432940E+06  2.175036E+04 -1.739081E+04 -5.129490E+03 -3.525031E+03
        49  20  3.283528E+04 -1.471556E+06  7.260126E+03 -6.959559E+03 -3.396933E+03 -1.372967E+04
        49  21 -1.476942E+04 -1.521803E+06 -2.411005E+04 -3.142615E+04 -8.553598E+02 -2.393206E+04
        49  22  7.417119E+02 -1.589512E+06 -1.585195E+04 -2.154538E+04 -5.128823E+03 -4.155267E+03
        49  23  4.963545E+03 -1.583673E+06 -1.975166E+04 -4.116164E+03 -3.395801E+03 -1.474571E+04
        49  24 -3.170821E+04 -1.589534E+06 -4.080144E+04 -2.158588E+04 -8.539217E+02 -2.533459E+04
        49  25 -3.813568E+04 -1.746062E+06 -5.345599E+04 -2.569888E+04 -5.128147E+03 -4.785345E+03
        49  26 -2.290908E+04 -1.695778E+06 -4.676435E+04 -1.273282E+03 -3.394679E+03 -1.576156E+04
        49  27 -4.864697E+04 -1.657262E+06 -5.749312E+04 -1.174668E+04 -8.525282E+02 -2.673697E+04
        50   1 -1.000204E+06 -1.546777E+05 -9.861080E+03 -3.733312E+05  8.507533E+03  4.262763E+03
        50   2 -9.937935E+05 -1.612504E+05 -1.527609E+04 -3.637692E+05  5.217876E+03  5.043397E+03
        50   3 -9.742922E+05 -1.605642E+05 -1.474574E+04 -3.663397E+05  2.779187E+03  3.554170E+03
        50   4 -9.028660E+05 -1.212502E+05  1.601610E+04 -3.502472E+05  9.810610E+03  4.751305E+03
        50   5 -9.103349E+05 -1.308131E+05  6.657904E+03 -3.419951E+05  5.501687E+03  5.149755E+03
        50   6 -9.045122E+05 -1.329165E+05  4.052740E+03 -3.458755E+05  2.043724E+03  3.278492E+03
        50   7 -8.055193E+05 -8.782271E+04  4.189228E+04 -3.271603E+05  1.111390E+04  5.239911E+03
        50   8 -8.268698E+05 -1.003756E+05  2.859126E+04 -3.202185E+05  5.785538E+03  5.256128E+03
        50   9 -8.347271E+05 -1.052682E+05  2.285086E+04 -3.254090E+05  1.308169E+03  3.002774E+03
        50  10 -1.000204E+06 -1.546778E+05 -9.861250E+03 -3.733312E+05 -3.469844E-10 -1.406467E-10
        50  11 -9.937935E+05 -1.612504E+05 -1.527619E+04 -3.637692E+05 -4.395537E-10 -3.304059E-10
        50  12 -9.742922E+05 -1.605643E+05 -1.474578E+04 -3.663397E+05 -6.133166E-10 -4.122639E-10
        50  13 -9.028661E+05 -1.212502E+05  1.601588E+04 -3.502472E+05 -6.996389E-11 -4.574675E-10
        50  14 -9.103350E+05 -1.308132E+05  6.657798E+03 -3.419952E+05 -1.522411E-09 -8.410376E-10
        50  15 -9.045122E+05 -1.329165E+05  4.052712E+03 -3.458755E+05  1.669683E-10  5.895910E-10
        50  16 -8.055195E+05 -8.782277E+04  4.189200E+04 -3.271603E+05 -3.118427E-09 -7.636225E-10
        50  17 -8.268698E+05 -1.003757E+05  2.859114E+04 -3.202185E+05 -8.812291E-11 -6.734178E-10
        50  18 -8.347271E+05 -1.052682E+05  2.285084E+04 -3.254090E+05 -6.131381E-10  1.766719E-09
        50  19 -1.000204E+06 -1.546777E+05 -9.861080E+03 -3.733312E+05 -8.507533E+03 -4.262763E+03
        50  20 -9.937935E+05 -1.612504E+05 -1.527609E+04 -3.637692E+05 -5.217876E+03 -5.043397E+03
        50  21 -9.742922E+05 -1.605642E+05 -1.474574E+04 -3.663397E+05 -2.779187E+03 -3.554170E+03
        50  22 -9.028660E+05 -1.212502E+05  1.601610E+04 -3.502472E+05 -9.810610E+03 -4.751305E+03
        50  23 -9.103349E+05 -1.308131E+05  6.657904E+03 -3.419951E+05 -5.501687E+03 -5.149755E+03
        50  24 -9.045122E+05 -1.329165E+05  4.052740E+03 -3.458755E+05 -2.043724E+03 -3.278492E+03
        50  25 -8.055193E+05 -8.782271E+04  4.189228E+04 -3.271603E+05 -1.111390E+04 -5.239911E+03
        50  26 -8.268698E+05 -1.003756E+05  2.859126E+04 -3.202185E+05 -5.785538E+03 -5.256128E+03
        50  27 -8.347271E+05 -1.052682E+05  2.285086E+04 -3.254090E+05 -1.308169E+03 -3.002774E+03
        51   1 -9.571387E+05 -1.505300E+05 -1.049187E+04 -3.607446E+05  1.804580E+03  2.467722E+03
        51   2 -9.487943E+05 -1.438163E+05 -8.925197E+03 -3.528381E+05  1.200517E+03  1.864054E+03
        51   3 -9.322289E+05 -1.429328E+05 -6.360756E+03 -3.539422E+05  6.702902E+02  1.063162E+03
        51   4 -9.049873E+05 -1.312724E+05  3.300298E+03 -3.469029E+05  1.700496E+03  2.428699E+03
        51   5 -9.091995E+05 -1.290257E+05  1.564910E+03 -3.421506E+05  1.007843E+03  1.791840E+03
        51   6 -9.051733E+05 -1.325917E+05  8.974837E+02 -3.464087E+05  3.890440E+02  9.577720E+02
        51   7 -8.528332E+05 -1.120145E+05  1.709225E+04 -3.330601E+05  1.596401E+03  2.389672E+03
        51   8 -8.696033E+05 -1.142351E+05  1.205484E+04 -3.314625E+05  8.151556E+02  1.719621E+03
        51   9 -8.781173E+05 -1.222507E+05  8.155583E+03 -3.388750E+05  1.077872E+02  8.523779E+02
        51  10 -9.571387E+05 -1.505301E+05 -1.049189E+04 -3.607446E+05 -2.079320E-10  5.760144E-10
        51  11 -9.487943E+05 -1.438163E+05 -8.925207E+03 -3.528381E+05  1.806231E-09  5.911801E-10
        51  12 -9.322289E+05 -1.429328E+05 -6.360759E+03 -3.539422E+05  1.577352E-09 -3.572173E-11
        51  13 -9.049873E+05 -1.312724E+05  3.300282E+03 -3.469029E+05 -4.059258E-10  1.157516E-09
        51  14 -9.091995E+05 -1.290257E+05  1.564902E+03 -3.421506E+05  1.032616E-09  6.742692E-10
        51  15 -9.051733E+05 -1.325917E+05  8.974817E+02 -3.464087E+05 -2.001554E-10 -2.521472E-10
        51  16 -8.528332E+05 -1.120145E+05  1.709224E+04 -3.330601E+05  2.008001E-10  1.703550E-09
        51  17 -8.696033E+05 -1.142351E+05  1.205483E+04 -3.314625E+05 -1.006398E-09  1.431129E-10
        51  18 -8.781173E+05 -1.222507E+05  8.155582E+03 -3.388750E+05 -7.397913E-10 -2.777556E-10
        51  19 -9.571387E+05 -1.505300E+05 -1.049187E+04 -3.607446E+05 -1.804580E+03 -2.467722E+03
        51  20 -9.487943E+05 -1.438163E+05 -8.925197E+03 -3.528381E+05 -1.200517E+03 -1.864054E+03
        51  21 -9.322289E+05 -1.429328E+05 -6.360756E+03 -3.539422E+05 -6.702902E+02 -1.063162E+03
        51  22 -9.049873E+05 -1.312724E+05  3.300298E+03 -3.469029E+05 -1.700496E+03 -2.428699E+03
        51  23 -9.091995E+05 -1.290257E+05  1.564910E+03 -3.421506E+05 -1.007843E+03 -1.791840E+03
        51  24 -9.051733E+05 -1.325917E+05  8.974837E+02 -3.464087E+05 -3.890440E+02 -9.577720E+02
        51  25 -8.528332E+05 -1.120145E+05  1.709225E+04 -3.330601E+05 -1.596401E+03 -2.389672E+03
        51  26 -8.696033E+05 -1.142351E+05  1.205484E+04 -3.314625E+05 -8.151556E+02 -1.719621E+03
        51  27 -8.781173E+05 -1.222507E+05  8.155583E+03 -3.388750E+05 -1.077872E+02 -8.523779E+02
        52   1 -9.131607E+05 -1.353578E+05 -1.361449E+03 -3.486655E+05  6.142911E+02  6.571364E+02
        52   2 -9.045229E+05 -1.270958E+05  1.541592E+03 -3.409123E+05  6.434742E+02  8.103398E+01
        52   3 -8.882367E+05 -1.262019E+05  4.617455E+03 -3.418681E+05  6.783718E+02 -5.102858E+02
        52   4 -9.052308E+05 -1.324169E+05  6.947820E+02 -3.465366E+05  3.866469E+02  5.718360E+02
        52   5 -9.090662E+05 -1.288080E+05  3.343116E+02 -3.421541E+05  4.089929E+02 -6.832400E+00
        52   6 -9.052519E+05 -1.325661E+05  1.520591E+02 -3.464807E+05  4.370569E+02 -6.007160E+02
        52   7 -8.973009E+05 -1.294759E+05  2.751027E+03 -3.444077E+05  1.589975E+02  4.865338E+02
        52   8 -9.136094E+05 -1.305203E+05 -8.729790E+02 -3.433959E+05  1.745118E+02 -9.469870E+01
        52   9 -9.222669E+05 -1.389303E+05 -4.313389E+03 -3.510932E+05  1.957478E+02 -6.911441E+02
        52  10 -9.131607E+05 -1.353578E+05 -1.361450E+03 -3.486655E+05 -1.087471E-09 -1.311982E-10
        52  11 -9.045229E+05 -1.270958E+05  1.541591E+03 -3.409123E+05  9.208783E-10  5.543613E-11
        52  12 -8.882367E+05 -1.262019E+05  4.617454E+03 -3.418681E+05  4.848010E-10  1.611851E-10
        52  13 -9.052308E+05 -1.324169E+05  6.947811E+02 -3.465366E+05 -2.104312E-09 -1.309187E-10
        52  14 -9.090662E+05 -1.288080E+05  3.343113E+02 -3.421541E+05 -2.152554E-09 -9.578469E-11
        52  15 -9.052519E+05 -1.325661E+05  1.520580E+02 -3.464807E+05 -8.562501E-10 -4.606201E-10
        52  16 -8.973009E+05 -1.294759E+05  2.751026E+03 -3.444077E+05 -1.407044E-09  1.266625E-11
        52  17 -9.136094E+05 -1.305203E+05 -8.729791E+02 -3.433959E+05 -1.345483E-10 -8.303866E-10
        52  18 -9.222669E+05 -1.389303E+05 -4.313390E+03 -3.510932E+05  1.276836E-09 -5.102719E-10
        52  19 -9.131607E+05 -1.353578E+05 -1.361449E+03 -3.486655E+05 -6.142911E+02 -6.571364E+02
        52  20 -9.045229E+05 -1.270958E+05  1.541592E+03 -3.409123E+05 -6.434742E+02 -8.103398E+01
        52  21 -8.882367E+05 -1.262019E+05  4.617455E+03 -3.418681E+05 -6.783718E+02  5.102858E+02
        52  22 -9.052308E+05 -1.324169E+05  6.947820E+02 -3.465366E+05 -3.866469E+02 -5.718360E+02
        52  23 -9.090662E+05 -1.288080E+05  3.343116E+02 -3.421541E+05 -4.089929E+02  6.832400E+00
        52  24 -9.052519E+05 -1.325661E+05  1.520591E+02 -3.464807E+05 -4.370569E+02  6.007160E+02
        52  25 -8.973009E+05 -1.294759E+05  2.751027E+03 -3.444077E+05 -1.589975E+02 -4.865338E+02
        52  26 -9.136094E+05 -1.305203E+05 -8.729790E+02 -3.433959E+05 -1.745118E+02  9.469870E+01
        52  27 -9.222669E+05 -1.389303E+05 -4.313389E+03 -3.510932E+05 -1.957478E+02  6.911441E+02
        53   1 -8.691143E+05 -1.189298E+05  9.734224E+03 -3.366351E+05  7.707063E+02 -8.299985E+02
        53   2 -8.605372E+05 -1.105890E+05  1.282602E+04 -3.289866E+05  9.876843E+02 -1.348070E+03
        53   3 -8.444828E+05 -1.097188E+05  1.590483E+04 -3.299117E+05  1.203387E+03 -1.862559E+03
        53   4 -9.052819E+05 -1.325261E+05  8.671481E+01 -3.464744E+05  5.339704E+02 -9.187187E+02
        53   5 -9.090225E+05 -1.288057E+05 -4.369510E+01 -3.421821E+05  7.525456E+02 -1.436205E+03
        53   6 -9.052863E+05 -1.325561E+05 -1.883324E+02 -3.464633E+05  9.698455E+02 -1.950111E+03
        53   7 -9.414479E+05 -1.461223E+05 -9.560808E+03 -3.563131E+05  2.972520E+02 -1.007432E+03
        53   8 -9.575054E+05 -1.470222E+05 -1.291357E+04 -3.553766E+05  5.174277E+02 -1.524333E+03
        53   9 -9.660866E+05 -1.553932E+05 -1.628189E+04 -3.630135E+05  7.363282E+02 -2.037655E+03
        53  10 -8.691143E+05 -1.189298E+05  9.734221E+03 -3.366351E+05  4.665188E-10 -2.625973E-10
        53  11 -8.605372E+05 -1.105890E+05  1.282601E+04 -3.289866E+05  2.029430E-09  1.815986E-10
        53  12 -8.444828E+05 -1.097188E+05  1.590483E+04 -3.299117E+05  3.106254E-10  3.294035E-10
        53  13 -9.052819E+05 -1.325261E+05  8.671269E+01 -3.464744E+05  1.200363E-09 -2.757723E-10
        53  14 -9.090225E+05 -1.288057E+05 -4.370004E+01 -3.421821E+05 -6.802514E-10 -1.837503E-10
        53  15 -9.052863E+05 -1.325561E+05 -1.883414E+02 -3.464633E+05 -2.180866E-10 -2.783527E-10
        53  16 -9.414479E+05 -1.461223E+05 -9.560810E+03 -3.563131E+05  1.513168E-09 -3.764301E-10
        53  17 -9.575054E+05 -1.470222E+05 -1.291358E+04 -3.553766E+05  1.548026E-09  1.768019E-10
        53  18 -9.660866E+05 -1.553932E+05 -1.628190E+04 -3.630135E+05 -5.124303E-10 -6.457129E-10
        53  19 -8.691143E+05 -1.189298E+05  9.734224E+03 -3.366351E+05 -7.707063E+02  8.299985E+02
        53  20 -8.605372E+05 -1.105890E+05  1.282602E+04 -3.289866E+05 -9.876843E+02  1.348070E+03
        53  21 -8.444828E+05 -1.097188E+05  1.590483E+04 -3.299117E+05 -1.203387E+03  1.862559E+03
        53  22 -9.052819E+05 -1.325261E+05  8.671481E+01 -3.464744E+05 -5.339704E+02  9.187187E+02
        53  23 -9.090225E+05 -1.288057E+05 -4.369510E+01 -3.421821E+05 -7.525456E+02  1.436205E+03
        53  24 -9.052863E+05 -1.325561E+05 -1.883324E+02 -3.464633E+05 -9.698455E+02  1.950111E+03
        53  25 -9.414479E+05 -1.461223E+05 -9.560808E+03 -3.563131E+05 -2.972520E+02  1.007432E+03
        53  26 -9.575054E+05 -1.470222E+05 -1.291357E+04 -3.553766E+05 -5.174277E+02  1.524333E+03
        53  27 -9.660866E+05 -1.553932E+05 -1.628189E+04 -3.630135E+05 -7.363282E+02  2.037655E+03
        54   1 -8.257352E+05 -1.025813E+05  2.090182E+04 -3.247656E+05  1.354809E+03 -2.151259E+03
        54   2 -8.174018E+05 -9.444582E+04  2.376051E+04 -3.173309E+05  1.812982E+03 -2.565012E+03
        54   3 -8.018947E+05 -9.370397E+04  2.638559E+04 -3.181783E+05  2.266707E+03 -2.966555E+03
        54   4 -9.053478E+05 -1.324892E+05 -2.746245E+02 -3.464177E+05  1.121593E+03 -2.238706E+03
        54   5 -9.089424E+05 -1.288490E+05 -5.388563E+02 -3.422552E+05  1.585198E+03 -2.650452E+03
        54   6 -9.053644E+05 -1.326036E+05 -1.040992E+03 -3.463751E+05  2.044348E+03 -3.049988E+03
        54   7 -9.849542E+05 -1.623968E+05 -2.145162E+04 -3.680672E+05  8.884092E+02 -2.326141E+03
        54   8 -1.000475E+06 -1.632517E+05 -2.483891E+04 -3.671762E+05  1.357450E+03 -2.735878E+03
        54   9 -1.008824E+06 -1.715025E+05 -2.846842E+04 -3.745676E+05  1.822030E+03 -3.133405E+03
        54  10 -8.257352E+05 -1.025813E+05  2.090181E+04 -3.247656E+05 -1.427985E-10 -1.789722E-10
        54  11 -8.174018E+05 -9.444583E+04  2.376049E+04 -3.173309E+05  5.810067E-10 -1.222070E-10
        54  12 -8.018947E+05 -9.370398E+04  2.638556E+04 -3.181782E+05  1.129489E-09  3.073737E-10
        54  13 -9.053478E+05 -1.324892E+05 -2.746363E+02 -3.464177E+05  2.894143E-09 -3.864255E-10
        54  14 -9.089424E+05 -1.288490E+05 -5.388743E+02 -3.422552E+05 -2.300098E-10 -7.779956E-11
        54  15 -9.053644E+05 -1.326036E+05 -1.041017E+03 -3.463751E+05  1.534279E-09 -6.127966E-11
        54  16 -9.849542E+05 -1.623968E+05 -2.145163E+04 -3.680672E+05  6.926755E-10  1.185522E-10
        54  17 -1.000475E+06 -1.632517E+05 -2.483893E+04 -3.671762E+05 -3.091742E-10  7.412556E-10
        54  18 -1.008824E+06 -1.715025E+05 -2.846845E+04 -3.745676E+05 -2.360260E-09 -1.095061E-09
        54  19 -8.257352E+05 -1.025813E+05  2.090182E+04 -3.247656E+05 -1.354809E+03  2.151259E+03
        54  20 -8.174018E+05 -9.444582E+04  2.376051E+04 -3.173309E+05 -1.812982E+03  2.565012E+03
        54  21 -8.018947E+05 -9.370397E+04  2.638559E+04 -3.181783E+05 -2.266707E+03  2.966555E+03
        54  22 -9.053478E+05 -1.324892E+05 -2.746245E+02 -3.464177E+05 -1.121593E+03  2.238706E+03
        54  23 -9.089424E+05 -1.288490E+05 -5.388563E+02 -3.422552E+05 -1.585198E+03  2.650452E+03
        54  24 -9.053644E+05 -1.326036E+05 -1.040992E+03 -3.463751E+05 -2.044348E+03  3.049988E+03
        54  25 -9.849542E+05 -1.623968E+05 -2.145162E+04 -3.680672E+05 -8.884092E+02  2.326141E+03
        54  26 -1.000475E+06 -1.632517E+05 -2.483891E+04 -3.671762E+05 -1.357450E+03  2.735878E+03
        54  27 -1.008824E+06 -1.715025E+05 -2.846842E+04 -3.745676E+05 -1.822030E+03  3.133405E+03
        55   1 -7.838681E+05 -8.678822E+04  3.094375E+04 -3.133834E+05  2.583761E+03 -3.184646E+03
        55   2 -7.758633E+05 -7.880231E+04  3.284050E+04 -3.061458E+05  3.986341E+03 -3.217648E+03
        55   3 -7.615781E+05 -7.899230E+04  3.348862E+04 -3.065066E+05  5.370615E+03 -3.201241E+03
        55   4 -9.055094E+05 -1.323854E+05 -1.365970E+03 -3.463710E+05  2.352509E+03 -3.271439E+03
        55   5 -9.087183E+05 -1.287946E+05 -2.436346E+03 -3.423845E+05  3.776988E+03 -3.296267E+03
        55   6 -9.056514E+05 -1.333845E+05 -4.772971E+03 -3.459967E+05  5.183133E+03 -3.271691E+03
        55   7 -1.027137E+06 -1.779818E+05 -3.367707E+04 -3.793529E+05  2.121307E+03 -3.358214E+03
        55   8 -1.041556E+06 -1.787859E+05 -3.771477E+04 -3.786162E+05  3.567684E+03 -3.374868E+03
        55   9 -1.049705E+06 -1.877754E+05 -4.303637E+04 -3.854785E+05  4.995700E+03 -3.342123E+03
        55  10 -7.838681E+05 -8.678823E+04  3.094372E+04 -3.133834E+05  9.524896E-10  3.329482E-10
        55  11 -7.758634E+05 -7.880233E+04  3.284045E+04 -3.061458E+05 -2.461169E-09 -1.113266E-10
        55  12 -7.615782E+05 -7.899232E+04  3.348855E+04 -3.065066E+05 -2.151858E-10 -2.427643E-10
        55  13 -9.055094E+05 -1.323854E+05 -1.366001E+03 -3.463710E+05  1.863849E-09 -2.273210E-10
        55  14 -9.087183E+05 -1.287946E+05 -2.436393E+03 -3.423844E+05  1.681553E-10  3.334158E-10
        55  15 -9.056515E+05 -1.333845E+05 -4.773042E+03 -3.459967E+05 -1.672971E-09 -8.199884E-10
        55  16 -1.027137E+06 -1.779818E+05 -3.367710E+04 -3.793529E+05 -1.405366E-09 -6.107095E-10
        55  17 -1.041556E+06 -1.787859E+05 -3.771482E+04 -3.786162E+05 -1.391008E-09  9.618674E-10
        55  18 -1.049705E+06 -1.877754E+05 -4.303644E+04 -3.854784E+05 -1.894938E-09 -1.008765E-09
        55  19 -7.838681E+05 -8.678822E+04  3.094375E+04 -3.133834E+05 -2.583761E+03  3.184646E+03
        55  20 -7.758633E+05 -7.880231E+04  3.284050E+04 -3.061458E+05 -3.986341E+03  3.217648E+03
        55  21 -7.615781E+05 -7.899230E+04  3.348862E+04 -3.065066E+05 -5.370615E+03  3.201241E+03
        55  22 -9.055094E+05 -1.323854E+05 -1.365970E+03 -3.463710E+05 -2.352509E+03  3.271439E+03
        55  23 -9.087183E+05 -1.287946E+05 -2.436346E+03 -3.423845E+05 -3.776988E+03  3.296267E+03
        55  24 -9.056514E+05 -1.333845E+05 -4.772971E+03 -3.459967E+05 -5.183133E+03  3.271691E+03
        55  25 -1.027137E+06 -1.779818E+05 -3.367707E+04 -3.793529E+05 -2.121307E+03  3.358214E+03
        55  26 -1.041556E+06 -1.787859E+05 -3.771477E+04 -3.786162E+05 -3.567684E+03  3.374868E+03
        55  27 -1.049705E+06 -1.877754E+05 -4.303637E+04 -3.854785E+05 -4.995700E+03  3.342123E+03
        56   1 -7.442048E+05 -7.219918E+04  3.672456E+04 -3.036333E+05  6.490799E+03 -3.160475E+03
        56   2 -7.363049E+05 -6.256362E+04  3.501843E+04 -2.953820E+05  1.197992E+04 -1.618603E+03
        56   3 -7.268789E+05 -7.060729E+04  2.628671E+04 -2.916582E+05  1.730636E+04  3.571812E+02
        56   4 -9.062234E+05 -1.320079E+05 -6.106318E+03 -3.466273E+05  6.188471E+03 -3.274054E+03
        56   5 -9.075966E+05 -1.275907E+05 -1.056684E+04 -3.426964E+05  1.187089E+04 -1.659681E+03
        56   6 -9.074834E+05 -1.408931E+05 -2.220779E+04 -3.432928E+05  1.739053E+04  3.885975E+02
        56   7 -1.068216E+06 -1.918152E+05 -4.893934E+04 -3.896112E+05  5.886230E+03 -3.387602E+03
        56   8 -1.078860E+06 -1.926159E+05 -5.615467E+04 -3.899990E+05  1.176189E+04 -1.700747E+03
        56   9 -1.088057E+06 -2.111765E+05 -7.070532E+04 -3.949138E+05  1.747467E+04  4.200027E+02
        56  10 -7.442048E+05 -7.219920E+04  3.672446E+04 -3.036333E+05 -1.113621E-09 -8.583213E-10
        56  11 -7.363051E+05 -6.256366E+04  3.501815E+04 -2.953820E+05 -1.470222E-09  2.149695E-10
        56  12 -7.268792E+05 -7.060737E+04  2.628615E+04 -2.916582E+05 -4.061498E-10  2.800431E-10
        56  13 -9.062234E+05 -1.320079E+05 -6.106410E+03 -3.466273E+05 -3.979091E-09 -9.171652E-10
        56  14 -9.075967E+05 -1.275907E+05 -1.056711E+04 -3.426964E+05 -3.977089E-09  2.159424E-10
        56  15 -9.074837E+05 -1.408931E+05 -2.220836E+04 -3.432928E+05 -2.943522E-10  8.704776E-11
        56  16 -1.068216E+06 -1.918152E+05 -4.893942E+04 -3.896112E+05 -2.404840E-09 -1.497958E-09
        56  17 -1.078860E+06 -1.926159E+05 -5.615494E+04 -3.899990E+05 -1.532491E-09  6.046165E-11
        56  18 -1.088057E+06 -2.111765E+05 -7.070589E+04 -3.949138E+05  6.993856E-10  3.701468E-12
        56  19 -7.442048E+05 -7.219918E+04  3.672456E+04 -3.036333E+05 -6.490799E+03  3.160475E+03
        56  20 -7.363049E+05 -6.256362E+04  3.501843E+04 -2.953820E+05 -1.197992E+04  1.618603E+03
        56  21 -7.268789E+05 -7.060729E+04  2.628671E+04 -2.916582E+05 -1.730636E+04 -3.571812E+02
        56  22 -9.062234E+05 -1.320079E+05 -6.106318E+03 -3.466273E+05 -6.188471E+03  3.274054E+03
        56  23 -9.075966E+05 -1.275907E+05 -1.056684E+04 -3.426964E+05 -1.187089E+04  1.659681E+03
        56  24 -9.074834E+05 -1.408931E+05 -2.220779E+04 -3.432928E+05 -1.739053E+04 -3.885975E+02
        56  25 -1.068216E+06 -1.918152E+05 -4.893934E+04 -3.896112E+05 -5.886230E+03  3.387602E+03
        56  26 -1.078860E+06 -1.926159E+05 -5.615467E+04 -3.899990E+05 -1.176189E+04  1.700747E+03
        56  27 -1.088057E+06 -2.111765E+05 -7.070532E+04 -3.949138E+05 -1.747467E+04 -4.200027E+02
        57   1 -7.063038E+05 -6.186447E+04  2.522442E+04 -3.036192E+05  2.292579E+04  1.377141E+03
        57   2 -6.966653E+05 -3.369706E+04  1.016203E+04 -2.827215E+05  4.539821E+04  9.386300E+03
        57   3 -7.212400E+05 -1.097054E+05 -4.851020E+04 -2.427133E+05  6.602920E+04  2.229350E+04
        57   4 -9.111475E+05 -1.293452E+05 -2.725377E+04 -3.496376E+05  2.164993E+04  8.979612E+02
        57   5 -8.993795E+05 -1.162234E+05 -4.477626E+04 -3.444645E+05  4.631366E+04  9.729718E+03
        57   6 -9.222726E+05 -2.077329E+05 -1.076580E+05 -3.201776E+05  6.913557E+04  2.345884E+04
        57   7 -1.115951E+06 -1.968256E+05 -7.973527E+04 -3.956434E+05  2.037453E+04  4.189057E+02
        57   8 -1.102054E+06 -1.987452E+05 -9.971816E+04 -4.061886E+05  4.722877E+04  1.007299E+04
        57   9 -1.123264E+06 -3.057492E+05 -1.668095E+05 -3.976165E+05  7.224083E+04  2.462347E+04
        57  10 -7.063044E+05 -6.186462E+04  2.522342E+04 -3.036192E+05  1.454255E-09  1.096228E-10
        57  11 -6.966675E+05 -3.369770E+04  1.015799E+04 -2.827218E+05  6.874593E-10  1.220050E-09
        57  12 -7.212448E+05 -1.097071E+05 -4.851934E+04 -2.427144E+05  1.037705E-09  3.413007E-11
        57  13 -9.111480E+05 -1.293453E+05 -2.725465E+04 -3.496376E+05  3.391255E-09 -9.294164E-11
        57  14 -8.993819E+05 -1.162241E+05 -4.478047E+04 -3.444649E+05  2.806697E-09  9.174474E-10
        57  15 -9.222779E+05 -2.077348E+05 -1.076680E+05 -3.201789E+05 -6.815170E-10  3.798552E-10
        57  16 -1.115951E+06 -1.968257E+05 -7.973605E+04 -3.956434E+05  4.382938E-09  3.285725E-10
        57  17 -1.102056E+06 -1.987459E+05 -9.972255E+04 -4.061890E+05  1.988573E-09 -2.124405E-10
        57  18 -1.123270E+06 -3.057512E+05 -1.668204E+05 -3.976179E+05  8.174318E-10  7.701686E-10
        57  19 -7.063038E+05 -6.186447E+04  2.522442E+04 -3.036192E+05 -2.292579E+04 -1.377141E+03
        57  20 -6.966653E+05 -3.369706E+04  1.016203E+04 -2.827215E+05 -4.539821E+04 -9.386300E+03
        57  21 -7.212400E+05 -1.097054E+05 -4.851020E+04 -2.427133E+05 -6.602920E+04 -2.229350E+04
        57  22 -9.111475E+05 -1.293452E+05 -2.725377E+04 -3.496376E+05 -2.164993E+04 -8.979612E+02
        57  23 -8.993795E+05 -1.162234E+05 -4.477626E+04 -3.444645E+05 -4.631366E+04 -9.729718E+03
        57  24 -9.222726E+05 -2.077329E+05 -1.076580E+05 -3.201776E+05 -6.913557E+04 -2.345884E+04
        57  25 -1.115951E+06 -1.968256E+05 -7.973527E+04 -3.956434E+05 -2.037453E+04 -4.189057E+02
        57  26 -1.102054E+06 -1.987452E+05 -9.971816E+04 -4.061886E+05 -4.722877E+04 -1.007299E+04
        57  27 -1.123264E+06 -3.057492E+05 -1.668095E+05 -3.976165E+05 -7.224083E+04 -2.462347E+04
        58   1 -2.463939E+04  4.710924E+04  5.969097E+04  1.425363E+04  4.082835E+04  9.374150E-01
        58   2 -3.292733E+04 -7.113670E+03  2.607092E+04  4.082085E+03  2.674082E+04  1.758346E-01
        58   3 -2.464080E+04 -2.379239E+03  1.636309E+04 -6.089472E+03  1.265301E+04 -1.241125E-01
        58   4 -2.463961E+04  4.710886E+04  5.969092E+04  8.405104E-09  4.082835E+04  1.627239E-10
        58   5 -3.292735E+04 -7.113702E+03  2.607091E+04 -1.716323E-08  2.674082E+04  4.689104E-10
        58   6 -2.464084E+04 -2.379308E+03  1.636308E+04 -1.807604E-09  1.265301E+04 -7.416536E-10
        58   7 -2.463939E+04  4.710924E+04  5.969097E+04 -1.425363E+04  4.082835E+04 -9.374150E-01
        58   8 -3.292733E+04 -7.113670E+03  2.607092E+04 -4.082085E+03  2.674082E+04 -1.758346E-01
        58   9 -2.464080E+04 -2.379239E+03  1.636309E+04  6.089472E+03  1.265301E+04  1.241125E-01
        58  10 -2.464118E+04  4.710879E+04  5.968784E+04  1.425363E+04 -5.291126E-10  4.223871E-10
        58  11 -3.292810E+04 -7.113862E+03  2.606958E+04  4.082085E+03 -6.976791E-11  8.117542E-10
        58  12 -2.464097E+04 -2.379282E+03  1.636278E+04 -6.089472E+03  6.888345E-10 -6.735864E-10
        58  13 -2.464140E+04  4.710841E+04  5.968779E+04  4.164231E-09 -1.327081E-11  3.913940E-10
        58  14 -3.292812E+04 -7.113894E+03  2.606957E+04 -8.575575E-09 -5.517636E-10  7.195790E-10
        58  15 -2.464101E+04 -2.379351E+03  1.636277E+04  2.378486E-09 -1.066256E-09 -5.467082E-10
        58  16 -2.464118E+04  4.710879E+04  5.968784E+04 -1.425363E+04  2.133764E-09  3.290645E-10
        58  17 -3.292810E+04 -7.113862E+03  2.606958E+04 -4.082085E+03  8.443309E-10  5.787645E-10
        58  18 -2.464097E+04 -2.379282E+03  1.636278E+04  6.089472E+03  6.870187E-10 -4.007086E-10
        58  19 -2.463939E+04  4.710924E+04  5.969097E+04  1.425363E+04 -4.082835E+04 -9.374150E-01
        58  20 -3.292733E+04 -7.113670E+03  2.607092E+04  4.082085E+03 -2.674082E+04 -1.758346E-01
        58  21 -2.464080E+04 -2.379239E+03  1.636309E+04 -6.089472E+03 -1.265301E+04  1.241125E-01
        58  22 -2.463961E+04  4.710886E+04  5.969092E+04  2.577030E-08 -4.082835E+04  6.343392E-10
        58  23 -3.292735E+04 -7.113702E+03  2.607091E+04  1.259963E-11 -2.674082E+04  9.591313E-10
        58  24 -2.464084E+04 -2.379308E+03  1.636308E+04  1.717752E-09 -1.265301E+04 -3.530832E-10
        58  25 -2.463939E+04  4.710924E+04  5.969097E+04 -1.425363E+04 -4.082835E+04  9.374150E-01
        58  26 -3.292733E+04 -7.113670E+03  2.607092E+04 -4.082085E+03 -2.674082E+04  1.758346E-01
        58  27 -2.464080E+04 -2.379239E+03  1.636309E+04  6.089472E+03 -1.265301E+04 -1.241125E-01
        59   1 -2.786497E+04  5.122606E+03  1.336158E+04  1.404378E+03  1.009899E+04  2.284579E-02
        59   2 -2.889757E+04 -7.950539E+02  6.741252E+03  3.504011E+02  6.636897E+03  3.746062E-03
        59   3 -2.786513E+04 -2.559741E+02  3.989225E+03 -7.035768E+02  3.174813E+03 -3.598101E-03
        59   4 -2.786497E+04  5.122602E+03  1.336158E+04 -6.759688E-09  1.009899E+04 -9.000316E-10
        59   5 -2.889757E+04 -7.950541E+02  6.741252E+03  2.817624E-09  6.636897E+03  1.837226E-10
        59   6 -2.786513E+04 -2.559750E+02  3.989225E+03  9.164012E-09  3.174813E+03  2.651786E-10
        59   7 -2.786497E+04  5.122606E+03  1.336158E+04 -1.404378E+03  1.009899E+04 -2.284579E-02
        59   8 -2.889757E+04 -7.950539E+02  6.741252E+03 -3.504011E+02  6.636897E+03 -3.746062E-03
        59   9 -2.786513E+04 -2.559741E+02  3.989225E+03  7.035768E+02  3.174813E+03  3.598101E-03
        59  10 -2.786508E+04  5.122578E+03  1.336139E+04  1.404378E+03 -6.745685E-10 -1.084482E-09
        59  11 -2.889762E+04 -7.950657E+02  6.741169E+03  3.504011E+02  5.264905E-10 -4.540432E-11
        59  12 -2.786514E+04 -2.559768E+02  3.989206E+03 -7.035768E+02 -2.894880E-09  5.126552E-10
        59  13 -2.786508E+04  5.122575E+03  1.336139E+04 -2.366420E-09 -2.167972E-09 -7.545502E-10
        59  14 -2.889762E+04 -7.950659E+02  6.741169E+03  1.362096E-08 -1.631762E-09  2.507040E-10
        59  15 -2.786514E+04 -2.559777E+02  3.989206E+03  3.761431E-09 -3.495575E-09  3.895882E-10
        59  16 -2.786508E+04  5.122578E+03  1.336139E+04 -1.404378E+03 -3.969669E-10 -4.305433E-10
        59  17 -2.889762E+04 -7.950657E+02  6.741169E+03 -3.504011E+02  2.649249E-10  5.301042E-10
        59  18 -2.786514E+04 -2.559768E+02  3.989206E+03  7.035768E+02 -2.692842E-09  2.660824E-10
        59  19 -2.786497E+04  5.122606E+03  1.336158E+04  1.404378E+03 -1.009899E+04 -2.284579E-02
        59  20 -2.889757E+04 -7.950539E+02  6.741252E+03  3.504011E+02 -6.636897E+03 -3.746062E-03
        59  21 -2.786513E+04 -2.559741E+02  3.989225E+03 -7.035768E+02 -3.174813E+03  3.598101E-03
        59  22 -2.786497E+04  5.122602E+03  1.336158E+04 -6.588807E-09 -1.009899E+04 -6.073899E-10
        59  23 -2.889757E+04 -7.950541E+02  6.741252E+03  2.885161E-09 -6.636897E+03  3.167768E-10
        59  24 -2.786513E+04 -2.559750E+02  3.989225E+03  5.359023E-09 -3.174813E+03  5.131479E-10
        59  25 -2.786497E+04  5.122606E+03  1.336158E+04 -1.404378E+03 -1.009899E+04  2.284579E-02
        59  26 -2.889757E+04 -7.950539E+02  6.741252E+03 -3.504011E+02 -6.636897E+03  3.746063E-03
        59  27 -2.786513E+04 -2.559741E+02  3.989225E+03  7.035768E+02 -3.174813E+03 -3.598100E-03
        60   1 -2.826178E+04  5.485604E+02  3.100315E+03  1.126255E+02  2.547398E+03  4.621450E-04
        60   2 -2.840181E+04 -8.978321E+01  1.604619E+03  1.185197E+01  1.740531E+03  3.322946E-05
        60   3 -2.826180E+04 -2.817865E+01  8.092210E+02 -8.892015E+01  9.336766E+02 -1.337354E-04
        60   4 -2.826178E+04  5.485603E+02  3.100315E+03 -4.992782E-09  2.547398E+03  4.134097E-10
        60   5 -2.840181E+04 -8.978321E+01  1.604619E+03 -1.663024E-08  1.740531E+03  2.646652E-10
        60   6 -2.826180E+04 -2.817867E+01  8.092210E+02 -9.421102E-09  9.336766E+02 -1.714062E-09
        60   7 -2.826178E+04  5.485604E+02  3.100315E+03 -1.126255E+02  2.547398E+03 -4.621441E-04
        60   8 -2.840181E+04 -8.978321E+01  1.604619E+03 -1.185197E+01  1.740531E+03 -3.322893E-05
        60   9 -2.826180E+04 -2.817865E+01  8.092210E+02  8.892015E+01  9.336766E+02  1.337320E-04
        60  10 -2.826179E+04  5.485586E+02  3.100303E+03  1.126255E+02  1.713448E-10  5.115469E-10
        60  11 -2.840182E+04 -8.978402E+01  1.604613E+03  1.185197E+01 -3.899787E-09  1.313963E-10
        60  12 -2.826180E+04 -2.817889E+01  8.092194E+02 -8.892015E+01 -1.067757E-09 -4.350262E-10
        60  13 -2.826179E+04  5.485586E+02  3.100303E+03 -2.655256E-08 -4.295906E-09  1.596908E-10
        60  14 -2.840182E+04 -8.978402E+01  1.604613E+03 -5.875793E-09 -1.615445E-09 -1.447017E-10
        60  15 -2.826180E+04 -2.817890E+01  8.092194E+02  8.003216E-10 -1.998557E-09 -3.509772E-10
        60  16 -2.826179E+04  5.485586E+02  3.100303E+03 -1.126255E+02 -1.233274E-09 -1.900681E-10
        60  17 -2.840182E+04 -8.978402E+01  1.604613E+03 -1.185197E+01  1.779576E-09 -4.209793E-10
        60  18 -2.826180E+04 -2.817889E+01  8.092194E+02  8.892015E+01 -1.281561E-09 -2.633366E-10
        60  19 -2.826178E+04  5.485604E+02  3.100315E+03  1.126255E+02 -2.547398E+03 -4.621439E-04
        60  20 -2.840181E+04 -8.978321E+01  1.604619E+03  1.185197E+01 -1.740531E+03 -3.322917E-05
        60  21 -2.826180E+04 -2.817865E+01  8.092210E+02 -8.892015E+01 -9.336766E+02  1.337346E-04
        60  22 -2.826178E+04  5.485603E+02  3.100315E+03 -9.341725E-09 -2.547398E+03 -9.294206E-11
        60  23 -2.840181E+04 -8.978321E+01  1.604619E+03  4.878717E-09 -1.740531E+03 -5.533801E-10
        60  24 -2.826180E+04 -2.817867E+01  8.092210E+02  2.944811E-09 -9.336766E+02  1.013832E-09
        60  25 -2.826178E+04  5.485604E+02  3.100315E+03 -1.126255E+02 -2.547398E+03  4.621438E-04
        60  26 -2.840181E+04 -8.978321E+01  1.604619E+03 -1.185197E+01 -1.740531E+03  3.322802E-05
        60  27 -2.826180E+04 -2.817865E+01  8.092210E+02  8.892015E+01 -9.336766E+02 -1.337325E-04
        61   1 -2.832167E+04  5.741332E+01  5.177314E+02 -4.688405E+00  8.149462E+02 -6.155850E-06
        61   2 -2.832699E+04 -5.154295E+00 -5.824479E+00 -1.259389E+01  8.169258E+02 -1.657088E-05
        61   3 -2.832168E+04 -2.414348E+01 -5.197700E+02 -2.049951E+01  8.189054E+02 -2.704056E-05
        61   4 -2.832167E+04  5.741332E+01  5.177314E+02  7.637029E-09  8.149462E+02 -1.379692E-09
        61   5 -2.832699E+04 -5.154295E+00 -5.824479E+00  5.848931E-09  8.169258E+02  1.111439E-09
        61   6 -2.832168E+04 -2.414348E+01 -5.197700E+02  1.913858E-08  8.189054E+02  7.733566E-10
        61   7 -2.832167E+04  5.741332E+01  5.177314E+02  4.688405E+00  8.149462E+02  6.153067E-06
        61   8 -2.832699E+04 -5.154295E+00 -5.824479E+00  1.259389E+01  8.169258E+02  1.657307E-05
        61   9 -2.832168E+04 -2.414348E+01 -5.197700E+02  2.049951E+01  8.189054E+02  2.704212E-05
        61  10 -2.832167E+04  5.741315E+01  5.177301E+02 -4.688405E+00 -2.924829E-10 -1.000769E-10
        61  11 -2.832700E+04 -5.154474E+00 -5.825733E+00 -1.259389E+01 -2.265330E-09  7.148567E-10
        61  12 -2.832168E+04 -2.414366E+01 -5.197713E+02 -2.049951E+01  1.879200E-09 -1.031239E-10
        61  13 -2.832167E+04  5.741315E+01  5.177301E+02  7.673166E-09  3.230887E-09 -1.982728E-10
        61  14 -2.832700E+04 -5.154474E+00 -5.825733E+00 -2.751877E-09 -5.328367E-10  2.362337E-10
        61  15 -2.832168E+04 -2.414366E+01 -5.197713E+02  1.159320E-08  2.816559E-09  3.059277E-10
        61  16 -2.832167E+04  5.741315E+01  5.177301E+02  4.688405E+00 -2.541402E-10 -2.943495E-10
        61  17 -2.832700E+04 -5.154474E+00 -5.825733E+00  1.259389E+01  6.599919E-10 -2.447807E-10
        61  18 -2.832168E+04 -2.414366E+01 -5.197713E+02  2.049951E+01  2.634433E-09  7.131752E-10
        61  19 -2.832167E+04  5.741332E+01  5.177314E+02 -4.688405E+00 -8.149462E+02  6.155651E-06
        61  20 -2.832699E+04 -5.154295E+00 -5.824479E+00 -1.259389E+01 -8.169258E+02  1.657233E-05
        61  21 -2.832168E+04 -2.414348E+01 -5.197700E+02 -2.049951E+01 -8.189054E+02  2.704035E-05
        61  22 -2.832167E+04  5.741332E+01  5.177314E+02  2.494094E-08 -8.149462E+02  9.841245E-10
        61  23 -2.832699E+04 -5.154295E+00 -5.824479E+00  1.018657E-08 -8.169258E+02 -6.423803E-10
        61  24 -2.832168E+04 -2.414348E+01 -5.197700E+02  3.635678E-08 -8.189054E+02 -1.620385E-10
        61  25 -2.832167E+04  5.741332E+01  5.177314E+02  4.688405E+00 -8.149462E+02 -6.153692E-06
        61  26 -2.832699E+04 -5.154295E+00 -5.824479E+00  1.259389E+01 -8.169258E+02 -1.657361E-05
        61  27 -2.832168E+04 -2.414348E+01 -5.197700E+02  2.049951E+01 -8.189054E+02 -2.704068E-05
        62   1 -2.836424E+04  1.582914E+01 -8.186349E+02 -4.862086E+01  9.397232E+02 -7.359861E-05
        62   2 -2.827380E+04  4.230325E+01 -1.637204E+03 -2.021573E+01  1.754445E+03 -5.713135E-05
        62   3 -2.836426E+04 -2.304847E+02 -3.061021E+03  8.189414E+00  2.569165E+03  3.389076E-05
        62   4 -2.836424E+04  1.582914E+01 -8.186350E+02 -8.308024E-09  9.397232E+02 -1.610736E-11
        62   5 -2.827380E+04  4.230325E+01 -1.637204E+03  1.601630E-09  1.754445E+03 -4.127634E-10
        62   6 -2.836426E+04 -2.304847E+02 -3.061021E+03  5.049316E-09  2.569165E+03 -6.001119E-10
        62   7 -2.836424E+04  1.582914E+01 -8.186349E+02  4.862086E+01  9.397232E+02  7.359859E-05
        62   8 -2.827380E+04  4.230325E+01 -1.637204E+03  2.021573E+01  1.754445E+03  5.713047E-05
        62   9 -2.836426E+04 -2.304847E+02 -3.061021E+03 -8.189414E+00  2.569165E+03 -3.389201E-05
        62  10 -2.836425E+04  1.582890E+01 -8.186366E+02 -4.862086E+01 -3.833380E-11 -1.745048E-10
        62  11 -2.827380E+04  4.230242E+01 -1.637210E+03 -2.021573E+01 -7.861179E-10  3.419480E-10
        62  12 -2.836427E+04 -2.304865E+02 -3.061034E+03  8.189414E+00 -1.003423E-10 -8.721982E-10
        62  13 -2.836425E+04  1.582890E+01 -8.186366E+02 -2.984155E-08  4.287376E-09  3.176209E-10
        62  14 -2.827380E+04  4.230242E+01 -1.637210E+03 -5.890064E-10 -5.589490E-10  5.927992E-11
        62  15 -2.836427E+04 -2.304865E+02 -3.061034E+03 -1.226110E-08  1.342673E-09 -9.233344E-10
        62  16 -2.836425E+04  1.582890E+01 -8.186366E+02  4.862086E+01  3.183626E-11  8.072617E-10
        62  17 -2.827380E+04  4.230242E+01 -1.637210E+03  2.021573E+01  7.810664E-10 -2.224965E-10
        62  18 -2.836427E+04 -2.304865E+02 -3.061034E+03 -8.189414E+00  9.129301E-10 -9.761139E-10
        62  19 -2.836424E+04  1.582914E+01 -8.186349E+02 -4.862086E+01 -9.397232E+02  7.359824E-05
        62  20 -2.827380E+04  4.230325E+01 -1.637204E+03 -2.021573E+01 -1.754445E+03  5.713206E-05
        62  21 -2.836426E+04 -2.304847E+02 -3.061021E+03  8.189414E+00 -2.569165E+03 -3.389252E-05
        62  22 -2.836424E+04  1.582914E+01 -8.186350E+02  8.934989E-09 -9.397232E+02  6.517888E-10
        62  23 -2.827380E+04  4.230325E+01 -1.637204E+03  1.875961E-08 -1.754445E+03  5.290849E-10
        62  24 -2.836426E+04 -2.304847E+02 -3.061021E+03  2.266124E-08 -2.569165E+03 -1.255449E-09
        62  25 -2.836424E+04  1.582914E+01 -8.186349E+02  4.862086E+01 -9.397232E+02 -7.359701E-05
        62  26 -2.827380E+04  4.230325E+01 -1.637204E+03  2.021573E+01 -1.754445E+03 -5.713098E-05
        62  27 -2.836426E+04 -2.304847E+02 -3.061021E+03 -8.189414E+00 -2.569165E+03  3.388994E-05
        63   1 -2.858376E+04  1.091555E+02 -4.016320E+03 -3.482151E+02  3.204117E+03 -1.797216E-03
        63   2 -2.799944E+04  3.683226E+02 -6.939632E+03  5.743359E+01  6.690270E+03  6.189466E-04
        63   3 -2.858380E+04 -2.231434E+03 -1.284732E+04  4.630773E+02  1.017636E+04  7.590833E-03
        63   4 -2.858376E+04  1.091552E+02 -4.016320E+03  2.675173E-09  3.204117E+03 -3.367235E-10
        63   5 -2.799944E+04  3.683226E+02 -6.939632E+03 -1.898322E-09  6.690270E+03  4.036050E-10
        63   6 -2.858381E+04 -2.231435E+03 -1.284732E+04  5.284837E-10  1.017636E+04  7.194211E-10
        63   7 -2.858376E+04  1.091555E+02 -4.016320E+03  3.482151E+02  3.204117E+03  1.797215E-03
        63   8 -2.799944E+04  3.683226E+02 -6.939632E+03 -5.743359E+01  6.690270E+03 -6.189459E-04
        63   9 -2.858380E+04 -2.231434E+03 -1.284732E+04 -4.630773E+02  1.017636E+04 -7.590832E-03
        63  10 -2.858377E+04  1.091527E+02 -4.016339E+03 -3.482151E+02 -4.556638E-11 -8.606037E-10
        63  11 -2.799949E+04  3.683106E+02 -6.939716E+03  5.743359E+01  1.620809E-09  2.410836E-10
        63  12 -2.858392E+04 -2.231462E+03 -1.284752E+04  4.630773E+02 -7.369834E-10 -6.065037E-10
        63  13 -2.858377E+04  1.091525E+02 -4.016339E+03 -1.441661E-08 -1.076958E-09 -5.580815E-10
        63  14 -2.799949E+04  3.683106E+02 -6.939716E+03 -1.481951E-08  2.702559E-09  6.453294E-10
        63  15 -2.858392E+04 -2.231463E+03 -1.284752E+04 -1.414529E-08 -4.033484E-09 -4.775649E-10
        63  16 -2.858377E+04  1.091527E+02 -4.016339E+03  3.482151E+02  5.891964E-10 -2.568144E-10
        63  17 -2.799949E+04  3.683106E+02 -6.939716E+03 -5.743359E+01 -2.399134E-09  1.043480E-09
        63  18 -2.858392E+04 -2.231462E+03 -1.284752E+04 -4.630773E+02 -1.960218E-09 -3.531627E-10
        63  19 -2.858376E+04  1.091555E+02 -4.016320E+03 -3.482151E+02 -3.204117E+03  1.797214E-03
        63  20 -2.799944E+04  3.683226E+02 -6.939632E+03  5.743359E+01 -6.690270E+03 -6.189459E-04
        63  21 -2.858380E+04 -2.231434E+03 -1.284732E+04  4.630773E+02 -1.017636E+04 -7.590835E-03
        63  22 -2.858376E+04  1.091552E+02 -4.016320E+03  1.157028E-08 -3.204117E+03 -7.792149E-10
        63  23 -2.799944E+04  3.683226E+02 -6.939632E+03 -2.989461E-08 -6.690270E+03  8.864301E-10
        63  24 -2.858381E+04 -2.231435E+03 -1.284732E+04 -5.126116E-09 -1.017636E+04 -1.641726E-09
        63  25 -2.858376E+04  1.091555E+02 -4.016320E+03  3.482151E+02 -3.204117E+03 -1.797216E-03
        63  26 -2.799944E+04  3.683226E+02 -6.939632E+03 -5.743359E+01 -6.690270E+03  6.189476E-04
        63  27 -2.858380E+04 -2.231434E+03 -1.284732E+04 -4.630773E+02 -1.017636E+04  7.590831E-03
        64   1 -3.019210E+04  1.041635E+03 -1.640526E+04 -2.858122E+03  1.276617E+04 -5.877410E-02
        64   2 -2.598884E+04  3.234724E+03 -2.752055E+04  1.427927E+03  2.689887E+04  6.187022E-02
        64   3 -3.019185E+04 -2.083795E+04 -5.440233E+04  5.714052E+03  4.103161E+04  3.776642E-01
        64   4 -3.019211E+04  1.041620E+03 -1.640527E+04  1.371317E-08  1.276617E+04  6.848844E-10
        64   5 -2.598884E+04  3.234720E+03 -2.752055E+04 -4.055547E-09  2.689887E+04 -1.065325E-10
        64   6 -3.019188E+04 -2.083801E+04 -5.440234E+04 -1.213159E-08  4.103161E+04 -2.086975E-09
        64   7 -3.019210E+04  1.041635E+03 -1.640526E+04  2.858122E+03  1.276617E+04  5.877410E-02
        64   8 -2.598884E+04  3.234724E+03 -2.752055E+04 -1.427927E+03  2.689887E+04 -6.187022E-02
        64   9 -3.019185E+04 -2.083795E+04 -5.440233E+04 -5.714052E+03  4.103161E+04 -3.776642E-01
        64  10 -3.019227E+04  1.041591E+03 -1.640557E+04 -2.858122E+03 -2.503332E-09 -4.645773E-10
        64  11 -2.598962E+04  3.234529E+03 -2.752191E+04  1.427927E+03 -2.050106E-09  8.100780E-10
        64  12 -3.019366E+04 -2.083840E+04 -5.440550E+04  5.714052E+03  1.977628E-09  5.299868E-11
        64  13 -3.019228E+04  1.041576E+03 -1.640557E+04  9.516898E-09 -2.161255E-09 -6.271169E-10
        64  14 -2.598962E+04  3.234525E+03 -2.752191E+04  2.723156E-10 -5.389947E-10  4.776775E-10
        64  15 -3.019369E+04 -2.083846E+04 -5.440550E+04 -1.328036E-08 -8.146657E-10  4.887155E-11
        64  16 -3.019227E+04  1.041591E+03 -1.640557E+04  2.858122E+03  8.998689E-10 -7.967075E-10
        64  17 -2.598962E+04  3.234529E+03 -2.752191E+04 -1.427927E+03  2.839243E-09  1.355466E-10
        64  18 -3.019366E+04 -2.083840E+04 -5.440550E+04 -5.714052E+03 -1.055549E-09  3.436602E-11
        64  19 -3.019210E+04  1.041635E+03 -1.640526E+04 -2.858122E+03 -1.276617E+04  5.877410E-02
        64  20 -2.598884E+04  3.234724E+03 -2.752055E+04  1.427927E+03 -2.689887E+04 -6.187022E-02
        64  21 -3.019185E+04 -2.083795E+04 -5.440233E+04  5.714052E+03 -4.103161E+04 -3.776642E-01
        64  22 -3.019211E+04  1.041620E+03 -1.640527E+04  1.393593E-08 -1.276617E+04 -1.942752E-09
        64  23 -2.598884E+04  3.234720E+03 -2.752055E+04 -4.015783E-09 -2.689887E+04  1.074997E-09
        64  24 -3.019188E+04 -2.083801E+04 -5.440234E+04 -1.281342E-08 -4.103161E+04  2.188200E-09
        64  25 -3.019210E+04  1.041635E+03 -1.640526E+04  2.858122E+03 -1.276617E+04 -5.877410E-02
        64  26 -2.598884E+04  3.234724E+03 -2.752055E+04 -1.427927E+03 -2.689887E+04  6.187022E-02
        64  27 -3.019185E+04 -2.083795E+04 -5.440233E+04 -5.714052E+03 -4.103161E+04  3.776642E-01
        65   1 -4.330339E+04  9.680570E+03 -6.659213E+04 -2.476962E+04  5.142637E+04 -2.051906E+00
        65   2 -9.593077E+03  2.893815E+04 -1.060347E+05  1.660772E+04  1.087451E+05  2.909034E+00
        65   3 -4.329456E+04 -1.916192E+05 -2.427368E+05  5.798278E+04  1.660647E+05  1.551021E+01
        65   4 -4.330405E+04  9.679417E+03 -6.659230E+04  1.004693E-08  5.142637E+04 -8.969696E-10
        65   5 -9.593373E+03  2.893763E+04 -1.060347E+05 -4.983595E-09  1.087451E+05  2.737952E-09
        65   6 -4.329817E+04 -1.916255E+05 -2.427377E+05  5.832218E-09  1.660647E+05  8.335205E-11
        65   7 -4.330339E+04  9.680570E+03 -6.659213E+04  2.476962E+04  5.142637E+04  2.051906E+00
        65   8 -9.593077E+03  2.893815E+04 -1.060347E+05 -1.660772E+04  1.087451E+05 -2.909034E+00
        65   9 -4.329456E+04 -1.916192E+05 -2.427368E+05 -5.798278E+04  1.660647E+05 -1.551021E+01
        65  10 -4.330623E+04  9.679860E+03 -6.659710E+04 -2.476962E+04  3.492568E-10 -4.328650E-10
        65  11 -9.605777E+03  2.893497E+04 -1.060569E+05  1.660772E+04  1.549669E-09 -8.557122E-11
        65  12 -4.332418E+04 -1.916266E+05 -2.427887E+05  5.798278E+04 -1.619870E-09 -4.983607E-11
        65  13 -4.330689E+04  9.678707E+03 -6.659727E+04 -7.159508E-09 -1.049550E-09 -2.360202E-10
        65  14 -9.606073E+03  2.893446E+04 -1.060570E+05 -7.128780E-09  6.309557E-12  3.180572E-11
        65  15 -4.332779E+04 -1.916329E+05 -2.427896E+05 -1.032900E-08 -1.315799E-09  5.134076E-11
        65  16 -4.330623E+04  9.679860E+03 -6.659710E+04  2.476962E+04  1.692161E-10 -3.695953E-11
        65  17 -9.605777E+03  2.893497E+04 -1.060569E+05 -1.660772E+04  6.051105E-10  1.382601E-10
        65  18 -4.332418E+04 -1.916266E+05 -2.427887E+05 -5.798278E+04 -9.909717E-10  1.416028E-10
        65  19 -4.330339E+04  9.680570E+03 -6.659213E+04 -2.476962E+04 -5.142637E+04  2.051906E+00
        65  20 -9.593077E+03  2.893815E+04 -1.060347E+05  1.660772E+04 -1.087451E+05 -2.909034E+00
        65  21 -4.329456E+04 -1.916192E+05 -2.427368E+05  5.798278E+04 -1.660647E+05 -1.551021E+01
        65  22 -4.330405E+04  9.679417E+03 -6.659230E+04  1.009799E-08 -5.142637E+04  4.152510E-10
        65  23 -9.593373E+03  2.893763E+04 -1.060347E+05 -2.812461E-09 -1.087451E+05 -2.662190E-09
        65  24 -4.329817E+04 -1.916255E+05 -2.427377E+05  1.227725E-08 -1.660647E+05 -5.386044E-10
        65  25 -4.330339E+04  9.680570E+03 -6.659213E+04  2.476962E+04 -5.142637E+04 -2.051906E+00
        65  26 -9.593077E+03  2.893815E+04 -1.060347E+05 -1.660772E+04 -1.087451E+05  2.909034E+00
        65  27 -4.329456E+04 -1.916192E+05 -2.427368E+05 -5.798278E+04 -1.660647E+05  1.551021E+01
        66   1  7.007774E+04 -5.627138E+04  6.666848E+04 -1.009438E+04  3.106589E+03 -5.108373E+03
        66   2  7.530051E+04 -8.016038E+04  6.630101E+04 -2.532736E+03  9.255427E+03 -5.659285E+03
        66   3  6.837848E+04 -1.069159E+05  6.327697E+04 -1.458771E+04  8.391574E+03 -6.211167E+03
        66   4 -1.049280E+04 -3.792582E+05 -1.312597E+04 -1.319448E+04  3.107093E+03 -9.739071E+03
        66   5  1.519396E+03 -3.775294E+05 -5.167273E+03 -3.385027E+03  9.256058E+03 -6.925190E+03
        66   6  7.993869E+02 -3.792534E+05 -2.203831E+03 -1.319280E+04  8.390845E+03 -4.112231E+03
        66   7 -9.107108E+04 -7.021502E+05 -9.292807E+04 -1.629296E+04  3.107644E+03 -1.436736E+04
        66   8 -7.226816E+04 -6.748175E+05 -7.664184E+04 -4.236902E+03  9.256693E+03 -8.190490E+03
        66   9 -6.678510E+04 -6.515230E+05 -6.768990E+04 -1.179850E+04  8.390126E+03 -2.014213E+03
        66  10  7.007772E+04 -5.627141E+04  6.666842E+04 -1.009436E+04 -2.314181E-10 -1.398334E-10
        66  11  7.530041E+04 -8.016043E+04  6.630079E+04 -2.532694E+03  1.692684E-09 -2.783093E-09
        66  12  6.837840E+04 -1.069159E+05  6.327677E+04 -1.458766E+04 -1.250684E-10 -4.810956E-09
        66  13 -1.049283E+04 -3.792583E+05 -1.312616E+04 -1.319445E+04 -7.534542E-10 -7.559048E-11
        66  14  1.519291E+03 -3.775295E+05 -5.167525E+03 -3.384975E+03  6.426298E-10  2.668775E-10
        66  15  7.993068E+02 -3.792534E+05 -2.203996E+03 -1.319277E+04 -1.847190E-10 -1.599590E-10
        66  16 -9.107114E+04 -7.021504E+05 -9.292848E+04 -1.629292E+04 -7.376785E-10  7.050086E-11
        66  17 -7.226827E+04 -6.748176E+05 -7.664213E+04 -4.236841E+03  1.224210E-09  3.340024E-09
        66  18 -6.678518E+04 -6.515230E+05 -6.769004E+04 -1.179849E+04 -1.780291E-09  4.394967E-09
        66  19  7.007774E+04 -5.627138E+04  6.666848E+04 -1.009438E+04 -3.106589E+03  5.108373E+03
        66  20  7.530051E+04 -8.016038E+04  6.630101E+04 -2.532736E+03 -9.255427E+03  5.659285E+03
        66  21  6.837848E+04 -1.069159E+05  6.327697E+04 -1.458771E+04 -8.391574E+03  6.211167E+03
        66  22 -1.049280E+04 -3.792582E+05 -1.312597E+04 -1.319448E+04 -3.107093E+03  9.739071E+03
        66  23  1.519396E+03 -3.775294E+05 -5.167273E+03 -3.385027E+03 -9.256058E+03  6.925190E+03
        66  24  7.993869E+02 -3.792534E+05 -2.203831E+03 -1.319280E+04 -8.390845E+03  4.112231E+03
        66  25 -9.107108E+04 -7.021502E+05 -9.292807E+04 -1.629296E+04 -3.107644E+03  1.436736E+04
        66  26 -7.226816E+04 -6.748175E+05 -7.664184E+04 -4.236902E+03 -9.256693E+03  8.190490E+03
        66  27 -6.678510E+04 -6.515230E+05 -6.768990E+04 -1.179850E+04 -8.390126E+03  2.014213E+03
        67   1  5.731610E+04 -1.424059E+05  5.578781E+04 -1.343382E+04  6.816394E+03 -3.896970E+03
        67   2  5.195974E+04 -1.684147E+05  5.233659E+04 -3.100990E+03  6.357889E+03 -5.125365E+03
        67   3  4.839123E+04 -1.937943E+05  5.013692E+04 -1.289517E+04  5.216177E+03 -6.354576E+03
        67   4 -1.261672E+03 -3.783544E+05 -1.086316E+03 -1.330799E+04  6.816533E+03 -3.839595E+03
        67   5 -2.142598E+02 -3.786388E+05  1.750976E+03 -3.242932E+03  6.357773E+03 -4.739873E+03
        67   6  2.564355E+03 -3.783515E+05  5.612081E+03 -1.330531E+04  5.215702E+03 -5.641016E+03
        67   7 -5.984351E+04 -6.142520E+05 -5.796442E+04 -1.318219E+04  6.816671E+03 -3.782243E+03
        67   8 -5.239148E+04 -5.888224E+05 -4.883779E+04 -3.384820E+03  6.357656E+03 -4.354511E+03
        67   9 -4.326501E+04 -5.628775E+05 -3.891519E+04 -1.371532E+04  5.215226E+03 -4.927667E+03
        67  10  5.731605E+04 -1.424059E+05  5.578769E+04 -1.343380E+04 -1.194352E-09  4.314690E-09
        67  11  5.195969E+04 -1.684147E+05  5.233646E+04 -3.100964E+03 -3.048026E-09  2.340321E-09
        67  12  4.839119E+04 -1.937944E+05  5.013679E+04 -1.289514E+04 -3.197042E-09 -4.121890E-09
        67  13 -1.261726E+03 -3.783545E+05 -1.086431E+03 -1.330796E+04 -9.218287E-11 -5.533858E-10
        67  14 -2.143093E+02 -3.786388E+05  1.750858E+03 -3.242908E+03 -1.672518E-09  7.445994E-10
        67  15  2.564317E+03 -3.783516E+05  5.611970E+03 -1.330528E+04  9.061524E-12 -3.276156E-10
        67  16 -5.984357E+04 -6.142521E+05 -5.796454E+04 -1.318217E+04 -6.172111E-10 -4.875679E-09
        67  17 -5.239153E+04 -5.888225E+05 -4.883790E+04 -3.384797E+03  3.437236E-09 -8.535549E-10
        67  18 -4.326504E+04 -5.628776E+05 -3.891529E+04 -1.371530E+04  5.649358E-10  3.409863E-09
        67  19  5.731610E+04 -1.424059E+05  5.578781E+04 -1.343382E+04 -6.816394E+03  3.896970E+03
        67  20  5.195974E+04 -1.684147E+05  5.233659E+04 -3.100990E+03 -6.357889E+03  5.125365E+03
        67  21  4.839123E+04 -1.937943E+05  5.013692E+04 -1.289517E+04 -5.216177E+03  6.354576E+03
        67  22 -1.261672E+03 -3.783544E+05 -1.086316E+03 -1.330799E+04 -6.816533E+03  3.839595E+03
        67  23 -2.142598E+02 -3.786388E+05  1.750976E+03 -3.242932E+03 -6.357773E+03  4.739873E+03
        67  24  2.564355E+03 -3.783515E+05  5.612081E+03 -1.330531E+04 -5.215702E+03  5.641016E+03
        67  25 -5.984351E+04 -6.142520E+05 -5.796442E+04 -1.318219E+04 -6.816671E+03  3.782243E+03
        67  26 -5.239148E+04 -5.888224E+05 -4.883779E+04 -3.384820E+03 -6.357656E+03  4.354511E+03
        67  27 -4.326501E+04 -5.628775E+05 -3.891519E+04 -1.371532E+04 -5.215226E+03  4.927667E+03
        68   1  3.538211E+04 -2.290166E+05  4.272721E+04 -1.639939E+04  4.763273E+03 -6.847431E+03
        68   2  2.675717E+04 -2.590213E+05  4.161901E+04 -1.270075E+03  3.745192E+03 -1.431873E+04
        68   3  4.678228E+04 -2.809174E+05  5.253302E+04 -6.523892E+03  1.100270E+03 -2.179151E+04
        68   4 -1.261208E+03 -3.767044E+05  7.278579E+03 -1.337105E+04  4.763226E+03 -6.745132E+03
        68   5 -3.432324E+03 -3.806878E+05  1.235894E+04 -3.167569E+03  3.744451E+03 -1.343471E+04
        68   6  2.291352E+04 -3.766985E+05  2.891966E+04 -1.334722E+04  1.098806E+03 -2.012607E+04
        68   7 -3.790608E+04 -5.243722E+05 -2.817160E+04 -1.034343E+04  4.763180E+03 -6.642857E+03
        68   8 -3.362288E+04 -5.023407E+05 -1.690217E+04 -5.064685E+03  3.743703E+03 -1.255086E+04
        68   9 -9.557471E+02 -4.724710E+05  5.305656E+03 -2.016948E+04  1.097306E+03 -1.846089E+04
        68  10  3.538207E+04 -2.290167E+05  4.272708E+04 -1.639936E+04 -2.935757E-09 -1.397153E-09
        68  11  2.675710E+04 -2.590215E+05  4.161859E+04 -1.270032E+03 -7.408881E-10  6.565350E-10
        68  12  4.678215E+04 -2.809179E+05  5.253213E+04 -6.523873E+03  2.099962E-09 -2.119504E-10
        68  13 -1.261245E+03 -3.767045E+05  7.278451E+03 -1.337102E+04 -8.019112E-10 -8.906975E-10
        68  14 -3.432388E+03 -3.806880E+05  1.235858E+04 -3.167528E+03  2.332570E-09  1.038935E-09
        68  15  2.291341E+04 -3.766989E+05  2.891890E+04 -1.334720E+04 -1.022653E-09 -4.069938E-10
        68  16 -3.790611E+04 -5.243722E+05 -2.817172E+04 -1.034341E+04 -1.381654E-09  5.151594E-10
        68  17 -3.362294E+04 -5.023409E+05 -1.690249E+04 -5.064647E+03  1.292726E-09  1.377471E-09
        68  18 -9.558400E+02 -4.724714E+05  5.305013E+03 -2.016947E+04 -7.596890E-10 -6.967840E-10
        68  19  3.538211E+04 -2.290166E+05  4.272721E+04 -1.639939E+04 -4.763273E+03  6.847431E+03
        68  20  2.675717E+04 -2.590213E+05  4.161901E+04 -1.270075E+03 -3.745192E+03  1.431873E+04
        68  21  4.678228E+04 -2.809174E+05  5.253302E+04 -6.523892E+03 -1.100270E+03  2.179151E+04
        68  22 -1.261208E+03 -3.767044E+05  7.278579E+03 -1.337105E+04 -4.763226E+03  6.745132E+03
        68  23 -3.432324E+03 -3.806878E+05  1.235894E+04 -3.167569E+03 -3.744451E+03  1.343471E+04
        68  24  2.291352E+04 -3.766985E+05  2.891966E+04 -1.334722E+04 -1.098806E+03  2.012607E+04
        68  25 -3.790608E+04 -5.243722E+05 -2.817160E+04 -1.034343E+04 -4.763180E+03  6.642857E+03
        68  26 -3.362288E+04 -5.023407E+05 -1.690217E+04 -5.064685E+03 -3.743703E+03  1.255086E+04
        68  27 -9.557471E+02 -4.724710E+05  5.305656E+03 -2.016948E+04 -1.097306E+03  1.846089E+04
        69   1 -4.174146E+05 -9.378254E+04 -3.610695E+04 -1.550305E+05 -1.463494E+04 -4.902259E+03
        69   2 -4.078472E+05 -6.710161E+04 -2.052504E+04 -1.520371E+05 -9.455687E+03 -1.915335E+03
        69   3 -4.007650E+05 -6.617750E+04 -1.453067E+04 -1.504873E+05 -3.783526E+03 -2.424700E+02
        69   4 -3.675297E+05 -7.055088E+04 -2.164212E+04 -1.369083E+05 -1.392907E+04 -4.637705E+03
        69   5 -3.652357E+05 -4.984736E+04 -9.004971E+03 -1.391419E+05 -9.339715E+03 -1.871883E+03
        69   6 -3.653094E+05 -5.478305E+04 -5.487315E+03 -1.428194E+05 -4.257535E+03 -4.201689E+02
        69   7 -3.176427E+05 -4.731877E+04 -7.177594E+03 -1.187847E+05 -1.322314E+04 -4.373117E+03
        69   8 -3.226225E+05 -3.259295E+04  2.514913E+03 -1.262459E+05 -9.223735E+03 -1.828428E+03
        69   9 -3.298526E+05 -4.338858E+04  3.555961E+03 -1.351511E+05 -4.731575E+03 -5.978756E+02
        69  10 -4.174148E+05 -9.378263E+04 -3.610740E+04 -1.550306E+05  1.049672E-09 -5.812550E-11
        69  11 -4.078473E+05 -6.710164E+04 -2.052521E+04 -1.520371E+05 -1.004071E-09  1.459507E-10
        69  12 -4.007650E+05 -6.617750E+04 -1.453070E+04 -1.504873E+05 -3.149989E-10  1.213517E-10
        69  13 -3.675300E+05 -7.055095E+04 -2.164252E+04 -1.369083E+05 -3.343264E-09 -1.004551E-10
        69  14 -3.652358E+05 -4.984739E+04 -9.005142E+03 -1.391419E+05  9.850241E-10  2.953083E-11
        69  15 -3.653094E+05 -5.478305E+04 -5.487349E+03 -1.428194E+05  5.160551E-10  6.355259E-10
        69  16 -3.176429E+05 -4.731884E+04 -7.177959E+03 -1.187847E+05 -2.152655E-09 -7.146510E-11
        69  17 -3.226226E+05 -3.259298E+04  2.514747E+03 -1.262459E+05 -4.756208E-10  1.571274E-10
        69  18 -3.298526E+05 -4.338858E+04  3.555918E+03 -1.351511E+05  7.774866E-10  8.945727E-10
        69  19 -4.174146E+05 -9.378254E+04 -3.610695E+04 -1.550305E+05  1.463494E+04  4.902259E+03
        69  20 -4.078472E+05 -6.710161E+04 -2.052504E+04 -1.520371E+05  9.455687E+03  1.915335E+03
        69  21 -4.007650E+05 -6.617750E+04 -1.453067E+04 -1.504873E+05  3.783526E+03  2.424700E+02
        69  22 -3.675297E+05 -7.055088E+04 -2.164212E+04 -1.369083E+05  1.392907E+04  4.637705E+03
        69  23 -3.652357E+05 -4.984736E+04 -9.004971E+03 -1.391419E+05  9.339715E+03  1.871883E+03
        69  24 -3.653094E+05 -5.478305E+04 -5.487315E+03 -1.428194E+05  4.257535E+03  4.201689E+02
        69  25 -3.176427E+05 -4.731877E+04 -7.177594E+03 -1.187847E+05  1.322314E+04  4.373117E+03
        69  26 -3.226225E+05 -3.259295E+04  2.514913E+03 -1.262459E+05  9.223735E+03  1.828428E+03
        69  27 -3.298526E+05 -4.338858E+04  3.555961E+03 -1.351511E+05  4.731575E+03  5.978756E+02
        70   1 -3.835582E+05 -6.467701E+04 -9.595944E+03 -1.471686E+05 -3.203631E+03 -5.123875E+02
        70   2 -3.765156E+05 -5.589858E+04 -4.723943E+03 -1.415637E+05 -1.924738E+03 -3.691790E+02
        70   3 -3.646783E+05 -5.520906E+04 -1.344154E+03 -1.420502E+05 -6.037364E+02 -3.382464E+02
        70   4 -3.645887E+05 -5.708777E+04 -4.475580E+03 -1.415251E+05 -3.310893E+03 -5.526036E+02
        70   5 -3.668652E+05 -5.215565E+04 -2.143255E+03 -1.388139E+05 -2.082401E+03 -4.282851E+02
        70   6 -3.643373E+05 -5.530243E+04 -1.263164E+03 -1.421942E+05 -8.118217E+02 -4.162504E+02
        70   7 -3.456188E+05 -4.949851E+04  6.447470E+02 -1.358814E+05 -3.418160E+03 -5.928213E+02
        70   8 -3.572148E+05 -4.841273E+04  4.374170E+02 -1.360640E+05 -2.240066E+03 -4.873922E+02
        70   9 -3.639962E+05 -5.539579E+04 -1.182173E+03 -1.423381E+05 -1.019906E+03 -4.942538E+02
        70  10 -3.835582E+05 -6.467701E+04 -9.595963E+03 -1.471686E+05  1.322799E-09  6.127306E-10
        70  11 -3.765156E+05 -5.589858E+04 -4.723950E+03 -1.415637E+05  1.373819E-09  7.487524E-10
        70  12 -3.646783E+05 -5.520906E+04 -1.344155E+03 -1.420502E+05  2.725702E-09 -4.443750E-10
        70  13 -3.645887E+05 -5.708777E+04 -4.475601E+03 -1.415251E+05  8.035720E-10  6.958071E-10
        70  14 -3.668652E+05 -5.215565E+04 -2.143264E+03 -1.388139E+05  2.779106E-09  1.012072E-09
        70  15 -3.643373E+05 -5.530243E+04 -1.263165E+03 -1.421942E+05 -8.956728E-10  1.395445E-10
        70  16 -3.456189E+05 -4.949851E+04  6.447244E+02 -1.358814E+05  1.864837E-09  7.494324E-10
        70  17 -3.572148E+05 -4.841273E+04  4.374071E+02 -1.360640E+05  1.476366E-09  2.539914E-10
        70  18 -3.639962E+05 -5.539579E+04 -1.182176E+03 -1.423381E+05  1.191042E-10  8.275826E-10
        70  19 -3.835582E+05 -6.467701E+04 -9.595944E+03 -1.471686E+05  3.203631E+03  5.123875E+02
        70  20 -3.765156E+05 -5.589858E+04 -4.723943E+03 -1.415637E+05  1.924738E+03  3.691790E+02
        70  21 -3.646783E+05 -5.520906E+04 -1.344154E+03 -1.420502E+05  6.037364E+02  3.382464E+02
        70  22 -3.645887E+05 -5.708777E+04 -4.475580E+03 -1.415251E+05  3.310893E+03  5.526036E+02
        70  23 -3.668652E+05 -5.215565E+04 -2.143255E+03 -1.388139E+05  2.082401E+03  4.282851E+02
        70  24 -3.643373E+05 -5.530243E+04 -1.263164E+03 -1.421942E+05  8.118217E+02  4.162504E+02
        70  25 -3.456188E+05 -4.949851E+04  6.447470E+02 -1.358814E+05  3.418160E+03  5.928213E+02
        70  26 -3.572148E+05 -4.841273E+04  4.374170E+02 -1.360640E+05  2.240066E+03  4.873922E+02
        70  27 -3.639962E+05 -5.539579E+04 -1.182173E+03 -1.423381E+05  1.019906E+03  4.942538E+02
        71   1 -3.496020E+05 -5.009207E+04  2.903809E+03 -1.381008E+05 -3.558749E+02 -5.347319E+02
        71   2 -3.428962E+05 -4.335828E+04  5.835285E+03 -1.322138E+05  8.845757E+01 -8.218531E+02
        71   3 -3.305328E+05 -4.268401E+04  8.475783E+03 -1.329103E+05  5.359281E+02 -1.117258E+03
        71   4 -3.642462E+05 -5.555475E+04 -1.006299E+03 -1.420406E+05 -5.326936E+02 -6.010168E+02
        71   5 -3.670616E+05 -5.242756E+04 -5.738781E+02 -1.387856E+05 -9.209168E+01 -8.895437E+02
        71   6 -3.642187E+05 -5.535917E+04 -4.294275E+02 -1.421139E+05  3.516430E+02 -1.186356E+03
        71   7 -3.788903E+05 -6.101745E+04 -4.916448E+03 -1.459804E+05 -7.095088E+02 -6.673003E+02
        71   8 -3.912266E+05 -6.149686E+04 -6.983122E+03 -1.453571E+05 -2.726340E+02 -9.572318E+02
        71   9 -3.979035E+05 -6.803430E+04 -9.334766E+03 -1.513172E+05  1.673682E+02 -1.255450E+03
        71  10 -3.496020E+05 -5.009207E+04  2.903808E+03 -1.381008E+05 -3.788898E-10 -1.082272E-09
        71  11 -3.428962E+05 -4.335828E+04  5.835284E+03 -1.322138E+05 -9.463804E-10 -4.437944E-10
        71  12 -3.305328E+05 -4.268402E+04  8.475780E+03 -1.329103E+05 -3.411718E-09  1.117160E-11
        71  13 -3.642462E+05 -5.555475E+04 -1.006300E+03 -1.420406E+05 -3.052750E-09 -4.749708E-10
        71  14 -3.670616E+05 -5.242756E+04 -5.738796E+02 -1.387856E+05 -2.788885E-09 -9.275493E-10
        71  15 -3.642187E+05 -5.535917E+04 -4.294304E+02 -1.421139E+05 -2.498606E-09 -2.141228E-10
        71  16 -3.788903E+05 -6.101745E+04 -4.916450E+03 -1.459804E+05 -3.095793E-09  4.437961E-11
        71  17 -3.912266E+05 -6.149686E+04 -6.983123E+03 -1.453571E+05 -2.312409E-09 -1.197586E-09
        71  18 -3.979035E+05 -6.803430E+04 -9.334769E+03 -1.513172E+05 -2.958302E-10 -2.349164E-10
        71  19 -3.496020E+05 -5.009207E+04  2.903809E+03 -1.381008E+05  3.558749E+02  5.347319E+02
        71  20 -3.428962E+05 -4.335828E+04  5.835285E+03 -1.322138E+05 -8.845757E+01  8.218531E+02
        71  21 -3.305328E+05 -4.268401E+04  8.475783E+03 -1.329103E+05 -5.359281E+02  1.117258E+03
        71  22 -3.642462E+05 -5.555475E+04 -1.006299E+03 -1.420406E+05  5.326936E+02  6.010168E+02
        71  23 -3.670616E+05 -5.242756E+04 -5.738781E+02 -1.387856E+05  9.209168E+01  8.895437E+02
        71  24 -3.642187E+05 -5.535917E+04 -4.294275E+02 -1.421139E+05 -3.516430E+02  1.186356E+03
        71  25 -3.788903E+05 -6.101745E+04 -4.916448E+03 -1.459804E+05  7.095088E+02  6.673003E+02
        71  26 -3.912266E+05 -6.149686E+04 -6.983122E+03 -1.453571E+05  2.726340E+02  9.572318E+02
        71  27 -3.979035E+05 -6.803430E+04 -9.334766E+03 -1.513172E+05 -1.673682E+02  1.255450E+03
        72   1 -3.158198E+05 -3.718987E+04  1.246040E+04 -1.289158E+05  6.918284E+02 -1.329611E+03
        72   2 -3.092095E+05 -3.073418E+04  1.486818E+04 -1.230442E+05  1.082644E+03 -1.643105E+03
        72   3 -2.969132E+05 -3.009627E+04  1.707872E+04 -1.237404E+05  1.472853E+03 -1.954788E+03
        72   4 -3.642223E+05 -5.537087E+04 -4.145634E+02 -1.420863E+05  5.102400E+02 -1.397705E+03
        72   5 -3.670660E+05 -5.246833E+04 -4.798229E+02 -1.387999E+05  9.018381E+02 -1.710919E+03
        72   6 -3.642242E+05 -5.538376E+04 -7.429973E+02 -1.420815E+05  1.292827E+03 -2.022324E+03
        72   7 -4.126222E+05 -7.355165E+04 -1.328967E+04 -1.552557E+05  3.286680E+02 -1.465793E+03
        72   8 -4.249192E+05 -7.420225E+04 -1.582810E+04 -1.545543E+05  7.210513E+02 -1.778726E+03
        72   9 -4.315310E+05 -8.067103E+04 -1.856513E+04 -1.604208E+05  1.112823E+03 -2.089853E+03
        72  10 -3.158198E+05 -3.718987E+04  1.246040E+04 -1.289158E+05  1.368976E-10  4.001742E-10
        72  11 -3.092095E+05 -3.073418E+04  1.486818E+04 -1.230442E+05 -2.544188E-09 -9.064405E-11
        72  12 -2.969132E+05 -3.009627E+04  1.707871E+04 -1.237404E+05  8.609003E-11  3.098892E-11
        72  13 -3.642223E+05 -5.537087E+04 -4.145676E+02 -1.420863E+05 -8.767744E-11  2.793941E-10
        72  14 -3.670660E+05 -5.246833E+04 -4.798299E+02 -1.387999E+05  1.753762E-09  1.218328E-11
        72  15 -3.642242E+05 -5.538377E+04 -7.430081E+02 -1.420815E+05 -1.424915E-09  2.359944E-10
        72  16 -4.126222E+05 -7.355165E+04 -1.328967E+04 -1.552557E+05  2.144039E-09  6.834194E-12
        72  17 -4.249192E+05 -7.420226E+04 -1.582810E+04 -1.545543E+05  9.582904E-10  4.391310E-11
        72  18 -4.315310E+05 -8.067104E+04 -1.856514E+04 -1.604208E+05  1.892532E-09  4.261380E-10
        72  19 -3.158198E+05 -3.718987E+04  1.246040E+04 -1.289158E+05 -6.918284E+02  1.329611E+03
        72  20 -3.092095E+05 -3.073418E+04  1.486818E+04 -1.230442E+05 -1.082644E+03  1.643105E+03
        72  21 -2.969132E+05 -3.009627E+04  1.707872E+04 -1.237404E+05 -1.472853E+03  1.954788E+03
        72  22 -3.642223E+05 -5.537087E+04 -4.145634E+02 -1.420863E+05 -5.102400E+02  1.397705E+03
        72  23 -3.670660E+05 -5.246833E+04 -4.798229E+02 -1.387999E+05 -9.018381E+02  1.710919E+03
        72  24 -3.642242E+05 -5.538376E+04 -7.429973E+02 -1.420815E+05 -1.292827E+03  2.022324E+03
        72  25 -4.126222E+05 -7.355165E+04 -1.328967E+04 -1.552557E+05 -3.286680E+02  1.465793E+03
        72  26 -4.249192E+05 -7.420225E+04 -1.582810E+04 -1.545543E+05 -7.210513E+02  1.778726E+03
        72  27 -4.315310E+05 -8.067103E+04 -1.856513E+04 -1.604208E+05 -1.112823E+03  2.089853E+03
        73   1 -2.824205E+05 -2.461147E+04  2.079485E+04 -1.198395E+05  1.700368E+03 -2.135839E+03
        73   2 -2.758742E+05 -1.820534E+04  2.253006E+04 -1.140060E+05  2.673702E+03 -2.224713E+03
        73   3 -2.639338E+05 -1.787406E+04  2.354149E+04 -1.145639E+05  3.644705E+03 -2.307065E+03
        73   4 -3.642736E+05 -5.532542E+04 -9.469202E+02 -1.420859E+05  1.520065E+03 -2.203492E+03
        73   5 -3.669926E+05 -5.244504E+04 -1.643108E+03 -1.388313E+05  2.496199E+03 -2.291339E+03
        73   6 -3.643183E+05 -5.564011E+04 -3.065378E+03 -1.419680E+05  3.469989E+03 -2.372667E+03
        73   7 -4.461201E+05 -8.603889E+04 -2.268922E+04 -1.643297E+05  1.339789E+03 -2.271135E+03
        73   8 -4.581031E+05 -8.668424E+04 -2.581700E+04 -1.636533E+05  2.318724E+03 -2.357953E+03
        73   9 -4.646933E+05 -9.340566E+04 -2.967319E+04 -1.693683E+05  3.295305E+03 -2.438257E+03
        73  10 -2.824205E+05 -2.461148E+04  2.079484E+04 -1.198395E+05 -1.143676E-09  1.152306E-10
        73  11 -2.758742E+05 -1.820535E+04  2.253004E+04 -1.140060E+05  1.043884E-10 -5.671491E-10
        73  12 -2.639338E+05 -1.787407E+04  2.354145E+04 -1.145638E+05 -1.463630E-09  2.671769E-11
        73  13 -3.642736E+05 -5.532542E+04 -9.469337E+02 -1.420859E+05 -1.252051E-09  8.053813E-11
        73  14 -3.669926E+05 -5.244505E+04 -1.643130E+03 -1.388313E+05  9.515810E-10 -5.682154E-10
        73  15 -3.643183E+05 -5.564012E+04 -3.065411E+03 -1.419680E+05  2.783480E-09  1.992583E-10
        73  16 -4.461201E+05 -8.603889E+04 -2.268923E+04 -1.643297E+05  4.731543E-10  3.995686E-11
        73  17 -4.581031E+05 -8.668425E+04 -2.581702E+04 -1.636533E+05  6.936490E-10 -2.897268E-10
        73  18 -4.646933E+05 -9.340567E+04 -2.967322E+04 -1.693683E+05  1.369506E-09  4.009574E-10
        73  19 -2.824205E+05 -2.461147E+04  2.079485E+04 -1.198395E+05 -1.700368E+03  2.135839E+03
        73  20 -2.758742E+05 -1.820534E+04  2.253006E+04 -1.140060E+05 -2.673702E+03  2.224713E+03
        73  21 -2.639338E+05 -1.787406E+04  2.354149E+04 -1.145639E+05 -3.644705E+03  2.307065E+03
        73  22 -3.642736E+05 -5.532542E+04 -9.469202E+02 -1.420859E+05 -1.520065E+03  2.203492E+03
        73  23 -3.669926E+05 -5.244504E+04 -1.643108E+03 -1.388313E+05 -2.496199E+03  2.291339E+03
        73  24 -3.643183E+05 -5.564011E+04 -3.065378E+03 -1.419680E+05 -3.469989E+03  2.372667E+03
        73  25 -4.461201E+05 -8.603889E+04 -2.268922E+04 -1.643297E+05 -1.339789E+03  2.271135E+03
        73  26 -4.581031E+05 -8.668424E+04 -2.581700E+04 -1.636533E+05 -2.318724E+03  2.357953E+03
        73  27 -4.646933E+05 -9.340566E+04 -2.967319E+04 -1.693683E+05 -3.295305E+03  2.438257E+03
        74   1 -2.496361E+05 -1.241375E+04  2.644441E+04 -1.112795E+05  4.320545E+03 -2.318908E+03
        74   2 -2.429826E+05 -5.445627E+03  2.573170E+04 -1.050952E+05  8.058295E+03 -1.359099E+03
        74   3 -2.326576E+05 -7.729620E+03  2.134132E+04 -1.043838E+05  1.178218E+04 -3.619644E+02
        74   4 -3.645431E+05 -5.521507E+04 -4.000432E+03 -1.421892E+05  4.137336E+03 -2.387713E+03
        74   5 -3.665810E+05 -5.202771E+04 -7.083630E+03 -1.389122E+05  7.891145E+03 -1.421911E+03
        74   6 -3.649509E+05 -5.809626E+04 -1.385778E+04 -1.411082E+05  1.163103E+04 -4.188077E+02
        74   7 -4.794372E+05 -9.801566E+04 -3.444641E+04 -1.730938E+05  3.954164E+03 -2.456505E+03
        74   8 -4.901645E+05 -9.860879E+04 -3.990024E+04 -1.727230E+05  7.724031E+03 -1.484708E+03
        74   9 -4.972269E+05 -1.084616E+05 -4.905831E+04 -1.778253E+05  1.147991E+04 -4.756374E+02
        74  10 -2.496362E+05 -1.241376E+04  2.644436E+04 -1.112795E+05 -1.983111E-09  5.280215E-10
        74  11 -2.429827E+05 -5.445647E+03  2.573157E+04 -1.050952E+05 -1.095117E-09 -5.358488E-11
        74  12 -2.326577E+05 -7.729658E+03  2.134105E+04 -1.043838E+05  1.687465E-10 -6.728463E-10
        74  13 -3.645431E+05 -5.521508E+04 -4.000475E+03 -1.421892E+05 -1.452012E-09  7.151197E-10
        74  14 -3.665811E+05 -5.202773E+04 -7.083751E+03 -1.389121E+05  1.601829E-09  3.013182E-12
        74  15 -3.649510E+05 -5.809630E+04 -1.385804E+04 -1.411082E+05  4.080165E-11 -1.102084E-09
        74  16 -4.794373E+05 -9.801567E+04 -3.444645E+04 -1.730938E+05 -1.015689E-09  3.286646E-10
        74  17 -4.901645E+05 -9.860881E+04 -3.990035E+04 -1.727230E+05 -2.905255E-09 -4.793599E-10
        74  18 -4.972271E+05 -1.084616E+05 -4.905856E+04 -1.778253E+05  2.731087E-10 -1.557917E-10
        74  19 -2.496361E+05 -1.241375E+04  2.644441E+04 -1.112795E+05 -4.320545E+03  2.318908E+03
        74  20 -2.429826E+05 -5.445627E+03  2.573170E+04 -1.050952E+05 -8.058295E+03  1.359099E+03
        74  21 -2.326576E+05 -7.729620E+03  2.134132E+04 -1.043838E+05 -1.178218E+04  3.619644E+02
        74  22 -3.645431E+05 -5.521507E+04 -4.000432E+03 -1.421892E+05 -4.137336E+03  2.387713E+03
        74  23 -3.665810E+05 -5.202771E+04 -7.083630E+03 -1.389122E+05 -7.891145E+03  1.421911E+03
        74  24 -3.649509E+05 -5.809626E+04 -1.385778E+04 -1.411082E+05 -1.163103E+04  4.188077E+02
        74  25 -4.794372E+05 -9.801566E+04 -3.444641E+04 -1.730938E+05 -3.954164E+03  2.456505E+03
        74  26 -4.901645E+05 -9.860879E+04 -3.990024E+04 -1.727230E+05 -7.724031E+03  1.484708E+03
        74  27 -4.972269E+05 -1.084616E+05 -4.905831E+04 -1.778253E+05 -1.147991E+04  4.756374E+02
        75   1 -2.174025E+05 -1.659542E+03  2.118697E+04 -1.060133E+05  1.454739E+04  3.625761E+02
        75   2 -2.095910E+05  1.146611E+04  1.055591E+04 -9.562858E+04  3.050878E+04  5.933184E+03
        75   3 -2.107598E+05 -1.350691E+04 -2.077335E+04 -8.324434E+04  4.632729E+04  1.188547E+04
        75   4 -3.663402E+05 -5.438660E+04 -1.772577E+04 -1.432524E+05  1.429242E+04  2.668183E+02
        75   5 -3.636523E+05 -4.818608E+04 -3.064699E+04 -1.394182E+05  3.042125E+04  5.900102E+03
        75   6 -3.699815E+05 -8.012314E+04 -6.440323E+04 -1.335841E+05  4.640704E+04  1.191474E+04
        75   7 -5.152568E+05 -1.071131E+05 -5.664047E+04 -1.804838E+05  1.403751E+04  1.710820E+02
        75   8 -5.176909E+05 -1.078366E+05 -7.185204E+04 -1.831979E+05  3.033375E+04  5.867030E+03
        75   9 -5.291787E+05 -1.467361E+05 -1.080354E+05 -1.839117E+05  4.648676E+04  1.194398E+04
        75  10 -2.174028E+05 -1.659599E+03  2.118657E+04 -1.060133E+05  5.910013E-10 -9.159839E-10
        75  11 -2.095920E+05  1.146583E+04  1.055410E+04 -9.562872E+04 -3.296843E-09 -1.595497E-09
        75  12 -2.107621E+05 -1.350764E+04 -2.077765E+04 -8.324478E+04 -1.538389E-09 -1.282956E-09
        75  13 -3.663404E+05 -5.438665E+04 -1.772616E+04 -1.432524E+05 -1.648103E-09 -1.595297E-09
        75  14 -3.636533E+05 -4.818636E+04 -3.064880E+04 -1.394183E+05  4.899412E-10 -1.806508E-09
        75  15 -3.699839E+05 -8.012387E+04 -6.440755E+04 -1.335846E+05  2.100035E-09 -6.631034E-10
        75  16 -5.152571E+05 -1.071131E+05 -5.664084E+04 -1.804838E+05 -2.031510E-09 -1.100557E-09
        75  17 -5.176919E+05 -1.078368E+05 -7.185383E+04 -1.831981E+05 -1.141672E-09 -6.880384E-10
        75  18 -5.291810E+05 -1.467369E+05 -1.080398E+05 -1.839122E+05  3.216560E-11  4.822130E-10
        75  19 -2.174025E+05 -1.659542E+03  2.118697E+04 -1.060133E+05 -1.454739E+04 -3.625761E+02
        75  20 -2.095910E+05  1.146611E+04  1.055591E+04 -9.562858E+04 -3.050878E+04 -5.933184E+03
        75  21 -2.107598E+05 -1.350691E+04 -2.077335E+04 -8.324434E+04 -4.632729E+04 -1.188547E+04
        75  22 -3.663402E+05 -5.438660E+04 -1.772577E+04 -1.432524E+05 -1.429242E+04 -2.668183E+02
        75  23 -3.636523E+05 -4.818608E+04 -3.064699E+04 -1.394182E+05 -3.042125E+04 -5.900102E+03
        75  24 -3.699815E+05 -8.012314E+04 -6.440323E+04 -1.335841E+05 -4.640704E+04 -1.191474E+04
        75  25 -5.152568E+05 -1.071131E+05 -5.664047E+04 -1.804838E+05 -1.403751E+04 -1.710820E+02
        75  26 -5.176909E+05 -1.078366E+05 -7.185204E+04 -1.831979E+05 -3.033375E+04 -5.867030E+03
        75  27 -5.291787E+05 -1.467361E+05 -1.080354E+05 -1.839117E+05 -4.648676E+04 -1.194398E+04
        76   1 -1.825868E+05 -5.355568E+02 -3.201095E+04 -1.271150E+05  5.918286E+04  1.575094E+04
        76   2 -1.677423E+05  6.824153E+04 -8.060943E+04 -7.829408E+04  1.284578E+05  4.143531E+04
        76   3 -2.646116E+05 -1.543391E+05 -2.591266E+05  3.910150E+04  1.960812E+05  7.151857E+04
        76   4 -3.802370E+05 -4.703479E+04 -7.903353E+04 -1.524244E+05  5.804002E+04  1.532443E+04
        76   5 -3.402611E+05 -1.474592E+04 -1.297949E+05 -1.439880E+05  1.292684E+05  4.173538E+04
        76   6 -4.124252E+05 -2.742605E+05 -3.120523E+05 -6.696602E+04  1.988477E+05  7.253395E+04
        76   7 -5.778481E+05 -9.353514E+04 -1.260583E+05 -1.777291E+05  5.689758E+04  1.489793E+04
        76   8 -5.127495E+05 -9.772521E+04 -1.789829E+05 -2.096634E+05  1.300787E+05  4.203529E+04
        76   9 -5.602060E+05 -3.941450E+05 -3.649783E+05 -1.730022E+05  2.016134E+05  7.354834E+04
        76  10 -1.825906E+05 -5.367642E+02 -3.201800E+04 -1.271158E+05  3.931496E-09  8.972147E-10
        76  11 -1.677605E+05  6.823526E+04 -8.064367E+04 -7.829837E+04  3.350840E-09 -1.728693E-09
        76  12 -2.646543E+05 -1.543550E+05 -2.592085E+05  3.909020E+04  1.094928E-09 -3.783027E-10
        76  13 -3.802407E+05 -4.703595E+04 -7.904030E+04 -1.524251E+05  7.207733E-10 -6.535414E-10
        76  14 -3.402796E+05 -1.475228E+04 -1.298296E+05 -1.439924E+05  1.630037E-09 -9.709894E-10
        76  15 -4.124691E+05 -2.742768E+05 -3.121366E+05 -6.697765E+04 -8.414646E-10  1.884453E-09
        76  16 -5.778517E+05 -9.353625E+04 -1.260648E+05 -1.777298E+05 -5.579711E-09 -1.953901E-10
        76  17 -5.127681E+05 -9.773166E+04 -1.790180E+05 -2.096678E+05  1.377669E-09  7.205152E-10
        76  18 -5.602511E+05 -3.941618E+05 -3.650649E+05 -1.730142E+05  5.095066E-09  8.459050E-10
        76  19 -1.825868E+05 -5.355568E+02 -3.201095E+04 -1.271150E+05 -5.918286E+04 -1.575094E+04
        76  20 -1.677423E+05  6.824153E+04 -8.060943E+04 -7.829408E+04 -1.284578E+05 -4.143531E+04
        76  21 -2.646116E+05 -1.543391E+05 -2.591266E+05  3.910150E+04 -1.960812E+05 -7.151857E+04
        76  22 -3.802370E+05 -4.703479E+04 -7.903353E+04 -1.524244E+05 -5.804002E+04 -1.532443E+04
        76  23 -3.402611E+05 -1.474592E+04 -1.297949E+05 -1.439880E+05 -1.292684E+05 -4.173538E+04
        76  24 -4.124252E+05 -2.742605E+05 -3.120523E+05 -6.696602E+04 -1.988477E+05 -7.253395E+04
        76  25 -5.778481E+05 -9.353514E+04 -1.260583E+05 -1.777291E+05 -5.689758E+04 -1.489793E+04
        76  26 -5.127495E+05 -9.772521E+04 -1.789829E+05 -2.096634E+05 -1.300787E+05 -4.203529E+04
        76  27 -5.602060E+05 -3.941450E+05 -3.649783E+05 -1.730022E+05 -2.016134E+05 -7.354834E+04
        77   1  2.729881E+05  2.299159E+06  2.634348E+05 -3.632295E+04  1.382222E+04  1.186294E+05
        77   2  2.293953E+05  2.285574E+06  1.944251E+05 -2.144180E+04  4.804966E+04  6.602963E+04
        77   3  2.158893E+05  2.286401E+06  1.671195E+05 -6.264266E+03  6.167381E+04  1.343561E+04
        77   4  4.468244E+04  1.370172E+06  4.894743E+04 -7.001195E+03  1.383383E+04  3.287726E+04
        77   5  1.209670E+04  1.366411E+06  2.519199E+04 -7.157236E+03  4.806645E+04  1.996915E+04
        77   6  2.744179E+03  1.370201E+06  1.565336E+04 -7.014803E+03  6.168434E+04  7.064120E+03
        77   7 -1.836764E+05  4.419972E+05 -1.655694E+05  2.227651E+04  1.383738E+04 -5.274794E+04
        77   8 -2.052480E+05  4.480693E+05 -1.440680E+05  7.105735E+03  4.808114E+04 -2.602514E+04
        77   9 -2.104441E+05  4.548283E+05 -1.358377E+05 -7.764126E+03  6.169490E+04  7.016781E+02
        77  10  2.729841E+05  2.299143E+06  2.634081E+05 -3.632427E+04 -8.704102E-10 -2.005181E-09
        77  11  2.293917E+05  2.285569E+06  1.944126E+05 -2.144435E+04 -7.249283E-10 -1.182776E-09
        77  12  2.158851E+05  2.286400E+06  1.671120E+05 -6.264933E+03  1.523884E-09 -9.886974E-10
        77  13  4.468195E+04  1.370170E+06  4.894505E+04 -7.001561E+03 -2.277740E-10 -5.680323E-11
        77  14  1.209411E+04  1.366410E+06  2.518690E+04 -7.158009E+03 -5.539726E-10 -4.420036E-10
        77  15  2.740077E+03  1.370200E+06  1.564612E+04 -7.015154E+03 -2.895496E-10 -1.893367E-10
        77  16 -1.836774E+05  4.419942E+05 -1.655750E+05  2.227710E+04  1.844925E-09  1.992728E-09
        77  17 -2.052507E+05  4.480679E+05 -1.440737E+05  7.106743E+03  2.127729E-10  8.242971E-10
        77  18 -2.104482E+05  4.548272E+05 -1.358448E+05 -7.764161E+03 -1.803171E-09  8.039259E-10
        77  19  2.729881E+05  2.299159E+06  2.634348E+05 -3.632295E+04 -1.382222E+04 -1.186294E+05
        77  20  2.293953E+05  2.285574E+06  1.944251E+05 -2.144180E+04 -4.804966E+04 -6.602963E+04
        77  21  2.158893E+05  2.286401E+06  1.671195E+05 -6.264266E+03 -6.167381E+04 -1.343561E+04
        77  22  4.468244E+04  1.370172E+06  4.894743E+04 -7.001195E+03 -1.383383E+04 -3.287726E+04
        77  23  1.209670E+04  1.366411E+06  2.519199E+04 -7.157236E+03 -4.806645E+04 -1.996915E+04
        77  24  2.744179E+03  1.370201E+06  1.565336E+04 -7.014803E+03 -6.168434E+04 -7.064120E+03
        77  25 -1.836764E+05  4.419972E+05 -1.655694E+05  2.227651E+04 -1.383738E+04  5.274794E+04
        77  26 -2.052480E+05  4.480693E+05 -1.440680E+05  7.105735E+03 -4.808114E+04  2.602514E+04
        77  27 -2.104441E+05  4.548283E+05 -1.358377E+05 -7.764126E+03 -6.169490E+04 -7.016781E+02
        78   1  2.140992E+05  2.280208E+06  1.618797E+05 -9.235462E+03  6.307169E+04  1.232921E+04
        78   2  2.106048E+05  2.272880E+06  1.564092E+05 -7.066547E+03  6.485844E+04 -1.649442E+03
        78   3  2.118946E+05  2.268627E+06  1.612309E+05 -6.047112E+03  6.243916E+04 -1.563056E+04
        78   4  2.519494E+03  1.368895E+06  1.337932E+04 -7.336306E+03  6.308352E+04  4.846585E+03
        78   5  1.090829E+03  1.368059E+06  1.175377E+04 -6.761752E+03  6.486693E+04 -1.023803E+03
        78   6  3.045716E+03  1.368898E+06  1.480843E+04 -7.336768E+03  6.244127E+04 -6.896775E+03
        78   7 -2.091024E+05  4.584017E+05 -1.351444E+05 -5.439937E+03  6.309532E+04 -2.625475E+03
        78   8 -2.084640E+05  4.640494E+05 -1.329232E+05 -6.457299E+03  6.487542E+04 -3.990394E+02
        78   9 -2.058443E+05  4.699682E+05 -1.316365E+05 -8.624352E+03  6.244334E+04  1.824837E+03
        78  10  2.140949E+05  2.280207E+06  1.618719E+05 -9.236087E+03  3.014734E-09 -6.025765E-08
        78  11  2.106002E+05  2.272879E+06  1.564013E+05 -7.066461E+03  2.330890E-09 -3.384849E-10
        78  12  2.118904E+05  2.268625E+06  1.612231E+05 -6.046326E+03 -6.193893E-10  6.017625E-08
        78  13  2.515211E+03  1.368894E+06  1.337179E+04 -7.336552E+03 -1.236660E-09 -4.274567E-10
        78  14  1.086307E+03  1.368058E+06  1.174585E+04 -6.761698E+03  4.412022E-09 -1.321316E-09
        78  15  3.041514E+03  1.368896E+06  1.480101E+04 -7.336421E+03 -1.009422E-09 -3.610116E-10
        78  16 -2.091067E+05  4.584006E+05 -1.351519E+05 -5.439803E+03 -7.861178E-10  6.029154E-08
        78  17 -2.084686E+05  4.640482E+05 -1.329311E+05 -6.457278E+03  3.709557E-09 -9.298421E-10
        78  18 -2.058485E+05  4.699671E+05 -1.316439E+05 -8.624444E+03  1.345521E-09 -6.051376E-08
        78  19  2.140992E+05  2.280208E+06  1.618797E+05 -9.235462E+03 -6.307169E+04 -1.232921E+04
        78  20  2.106048E+05  2.272880E+06  1.564092E+05 -7.066547E+03 -6.485844E+04  1.649442E+03
        78  21  2.118946E+05  2.268627E+06  1.612309E+05 -6.047112E+03 -6.243916E+04  1.563056E+04
        78  22  2.519494E+03  1.368895E+06  1.337932E+04 -7.336306E+03 -6.308352E+04 -4.846585E+03
        78  23  1.090829E+03  1.368059E+06  1.175377E+04 -6.761752E+03 -6.486693E+04  1.023803E+03
        78  24  3.045716E+03  1.368898E+06  1.480843E+04 -7.336768E+03 -6.244127E+04  6.896775E+03
        78  25 -2.091024E+05  4.584017E+05 -1.351444E+05 -5.439937E+03 -6.309532E+04  2.625475E+03
        78  26 -2.084640E+05  4.640494E+05 -1.329232E+05 -6.457299E+03 -6.487542E+04  3.990394E+02
        78  27 -2.058443E+05  4.699682E+05 -1.316365E+05 -8.624352E+03 -6.244334E+04 -1.824837E+03
        79   1  2.119917E+05  2.267716E+06  1.659798E+05 -9.449542E+03  6.061635E+04 -1.704281E+04
        79   2  2.246191E+05  2.254749E+06  1.931458E+05  9.989613E+03  4.687935E+04 -7.017996E+04
        79   3  2.717343E+05  2.257352E+06  2.634585E+05  2.691292E+04  1.353508E+04 -1.233440E+05
        79   4  3.316642E+03  1.370538E+06  1.791099E+04 -7.646234E+03  6.061816E+04 -9.375604E+03
        79   5  1.463866E+04  1.366003E+06  2.994373E+04 -6.366671E+03  4.684391E+04 -2.474268E+04
        79   6  5.392932E+04  1.370509E+06  5.896554E+04 -7.604788E+03  1.345263E+04 -4.013475E+04
        79   7 -2.053997E+05  4.741530E+05 -1.301814E+05 -5.845453E+03  6.062002E+04 -1.719059E+03
        79   8 -1.953844E+05  4.780254E+05 -1.332829E+05 -2.269882E+04  4.680606E+04  2.063149E+04
        79   9 -1.639224E+05  4.844091E+05 -1.455530E+05 -4.207278E+04  1.336089E+04  4.295690E+04
        79  10  2.119876E+05  2.267715E+06  1.659723E+05 -9.448711E+03  6.128398E-10  3.707229E-09
        79  11  2.246154E+05  2.254744E+06  1.931325E+05  9.992260E+03  1.705499E-10  5.867300E-10
        79  12  2.717301E+05  2.257335E+06  2.634296E+05  2.691426E+04 -4.767431E-10 -1.107010E-09
        79  13  3.312670E+03  1.370537E+06  1.790392E+04 -7.645777E+03 -2.910256E-09 -8.544560E-10
        79  14  1.463614E+04  1.366002E+06  2.993846E+04 -6.365738E+03 -1.157884E-10 -2.004288E-09
        79  15  5.392869E+04  1.370508E+06  5.896218E+04 -7.604354E+03 -3.969836E-10 -7.482766E-10
        79  16 -2.054037E+05  4.741520E+05 -1.301883E+05 -5.845369E+03 -8.893006E-10 -3.189468E-09
        79  17 -1.953869E+05  4.780243E+05 -1.332878E+05 -2.269960E+04 -4.325131E-10 -2.479285E-09
        79  18 -1.639231E+05  4.844071E+05 -1.455568E+05 -4.207325E+04  1.259842E-10  5.292837E-10
        79  19  2.119917E+05  2.267716E+06  1.659798E+05 -9.449542E+03 -6.061635E+04  1.704281E+04
        79  20  2.246191E+05  2.254749E+06  1.931458E+05  9.989613E+03 -4.687935E+04  7.017996E+04
        79  21  2.717343E+05  2.257352E+06  2.634585E+05  2.691292E+04 -1.353508E+04  1.233440E+05
        79  22  3.316642E+03  1.370538E+06  1.791099E+04 -7.646234E+03 -6.061816E+04  9.375604E+03
        79  23  1.463866E+04  1.366003E+06  2.994373E+04 -6.366671E+03 -4.684391E+04  2.474268E+04
        79  24  5.392932E+04  1.370509E+06  5.896554E+04 -7.604788E+03 -1.345263E+04  4.013475E+04
        79  25 -2.053997E+05  4.741530E+05 -1.301814E+05 -5.845453E+03 -6.062002E+04  1.719059E+03
        79  26 -1.953844E+05  4.780254E+05 -1.332829E+05 -2.269882E+04 -4.680606E+04 -2.063149E+04
        79  27 -1.639224E+05  4.844091E+05 -1.455530E+05 -4.207278E+04 -1.336089E+04 -4.295690E+04
        80   1 -2.462520E+06 -4.201405E+05 -3.955655E+05 -6.064513E+04  3.337077E+04  1.914132E+04
        80   2 -2.336160E+06 -4.649815E+05 -3.998591E+05 -1.966467E+04  3.235023E+04  5.692061E+04
        80   3 -2.182899E+06 -4.232727E+05 -3.808920E+05 -8.730610E+04  3.151178E+04  5.222718E+04
        80   4 -4.968928E+05  7.070935E+04  9.070762E+04 -7.548138E+04  6.174859E+04  1.926746E+04
        80   5 -5.120410E+05 -1.176937E+04  3.916868E+04 -2.102131E+04  4.035254E+04  5.693735E+04
        80   6 -4.968271E+05 -4.287877E+03  2.499848E+04 -7.516105E+04  1.913906E+04  5.218965E+04
        80   7  1.472258E+06  5.612715E+05  5.766967E+05 -9.036867E+04  9.021619E+04  1.939205E+04
        80   8  1.315132E+06  4.412000E+05  4.779595E+05 -2.238459E+04  4.837820E+04  5.695404E+04
        80   9  1.191854E+06  4.144900E+05  4.306869E+05 -6.298416E+04  6.732704E+03  5.215169E+04
        80  10 -2.462521E+06 -4.201412E+05 -3.955683E+05 -6.064565E+04 -7.149745E-10  1.643427E-10
        80  11 -2.336162E+06 -4.649852E+05 -3.998672E+05 -1.966616E+04 -1.282427E-09 -1.630595E-11
        80  12 -2.182901E+06 -4.232759E+05 -3.808990E+05 -8.730743E+04 -7.346346E-10 -5.212463E-10
        80  13 -4.968970E+05  7.070793E+04  9.069976E+04 -7.548234E+04 -9.268370E-12  1.123139E-10
        80  14 -5.120436E+05 -1.177329E+04  3.915952E+04 -2.102316E+04 -1.580044E-09  6.912877E-10
        80  15 -4.968282E+05 -4.290900E+03  2.499267E+04 -7.516186E+04  3.760010E-10  5.398253E-11
        80  16  1.472249E+06  5.612690E+05  5.766808E+05 -9.037007E+04  1.036055E-09  2.218765E-10
        80  17  1.315129E+06  4.411959E+05  4.779490E+05 -2.238680E+04 -5.190941E-10  8.580949E-10
        80  18  1.191853E+06  4.144871E+05  4.306817E+05 -6.298444E+04 -5.254070E-10  3.875177E-10
        80  19 -2.462520E+06 -4.201405E+05 -3.955655E+05 -6.064513E+04 -3.337077E+04 -1.914132E+04
        80  20 -2.336160E+06 -4.649815E+05 -3.998591E+05 -1.966467E+04 -3.235023E+04 -5.692061E+04
        80  21 -2.182899E+06 -4.232727E+05 -3.808920E+05 -8.730610E+04 -3.151178E+04 -5.222718E+04
        80  22 -4.968928E+05  7.070935E+04  9.070762E+04 -7.548138E+04 -6.174859E+04 -1.926746E+04
        80  23 -5.120410E+05 -1.176937E+04  3.916868E+04 -2.102131E+04 -4.035254E+04 -5.693735E+04
        80  24 -4.968271E+05 -4.287877E+03  2.499848E+04 -7.516105E+04 -1.913906E+04 -5.218965E+04
        80  25  1.472258E+06  5.612715E+05  5.766967E+05 -9.036867E+04 -9.021619E+04 -1.939205E+04
        80  26  1.315132E+06  4.412000E+05  4.779595E+05 -2.238459E+04 -4.837820E+04 -5.695404E+04
        80  27  1.191854E+06  4.144900E+05  4.306869E+05 -6.298416E+04 -6.732704E+03 -5.215169E+04
        81   1 -1.986658E+06 -3.619659E+05 -3.379629E+05 -7.595187E+04  1.547949E+04  4.283176E+04
        81   2 -1.846328E+06 -3.349135E+05 -3.130354E+05 -2.043284E+04  1.191181E+04  4.055550E+04
        81   3 -1.700620E+06 -2.983550E+05 -2.828763E+05 -7.708549E+04  8.332928E+03  3.488064E+04
        81   4 -5.021356E+05  7.024629E+03  2.032799E+04 -7.605190E+04  1.523070E+04  4.282454E+04
        81   5 -5.049237E+05 -1.635594E+03  1.010467E+04 -1.996776E+04  1.002465E+04  4.054796E+04
        81   6 -5.020733E+05 -5.133624E+02  6.244214E+03 -7.604012E+04  4.808224E+03  3.487610E+04
        81   7  9.844072E+05  3.758539E+05  3.784611E+05 -7.615293E+04  1.498127E+04  4.281733E+04
        81   8  8.381305E+05  3.315109E+05  3.331162E+05 -1.950203E+04  8.133397E+03  4.054042E+04
        81   9  6.977902E+05  2.972233E+05  2.952620E+05 -7.499266E+04  1.276717E+03  3.487155E+04
        81  10 -1.986659E+06 -3.619680E+05 -3.379668E+05 -7.595240E+04 -1.116624E-09 -1.154515E-10
        81  11 -1.846328E+06 -3.349153E+05 -3.130387E+05 -2.043323E+04  4.265752E-10  2.615911E-10
        81  12 -1.700621E+06 -2.983563E+05 -2.828787E+05 -7.708573E+04 -8.737095E-10  6.578474E-10
        81  13 -5.021364E+05  7.022597E+03  2.032411E+04 -7.605243E+04  2.729113E-12 -1.463281E-10
        81  14 -5.049243E+05 -1.637386E+03  1.010139E+04 -1.996809E+04 -1.187980E-09  6.196907E-10
        81  15 -5.020737E+05 -5.146745E+02  6.241885E+03 -7.604026E+04  9.451105E-10 -1.108299E-10
        81  16  9.844065E+05  3.758519E+05  3.784572E+05 -7.615345E+04 -9.462001E-11  4.946857E-10
        81  17  8.381300E+05  3.315092E+05  3.331130E+05 -1.950230E+04  8.238873E-10  2.896917E-10
        81  18  6.977899E+05  2.972219E+05  2.952597E+05 -7.499270E+04  1.033022E-09 -7.831096E-10
        81  19 -1.986658E+06 -3.619659E+05 -3.379629E+05 -7.595187E+04 -1.547949E+04 -4.283176E+04
        81  20 -1.846328E+06 -3.349135E+05 -3.130354E+05 -2.043284E+04 -1.191181E+04 -4.055550E+04
        81  21 -1.700620E+06 -2.983550E+05 -2.828763E+05 -7.708549E+04 -8.332928E+03 -3.488064E+04
        81  22 -5.021356E+05  7.024629E+03  2.032799E+04 -7.605190E+04 -1.523070E+04 -4.282454E+04
        81  23 -5.049237E+05 -1.635594E+03  1.010467E+04 -1.996776E+04 -1.002465E+04 -4.054796E+04
        81  24 -5.020733E+05 -5.133624E+02  6.244214E+03 -7.604012E+04 -4.808224E+03 -3.487610E+04
        81  25  9.844072E+05  3.758539E+05  3.784611E+05 -7.615293E+04 -1.498127E+04 -4.281733E+04
        81  26  8.381305E+05  3.315109E+05  3.331162E+05 -1.950203E+04 -8.133397E+03 -4.054042E+04
        81  27  6.977902E+05  2.972233E+05  2.952620E+05 -7.499266E+04 -1.276717E+03 -3.487155E+04
        82   1 -1.495538E+06 -2.459160E+05 -2.339128E+05 -7.611903E+04  6.387617E+03  3.103799E+04
        82   2 -1.350527E+06 -2.106401E+05 -2.014333E+05 -1.887271E+04  5.230444E+03  2.550954E+04
        82   3 -1.204377E+06 -1.741510E+05 -1.677576E+05 -7.583849E+04  4.062048E+03  1.968361E+04
        82   4 -5.029431E+05  5.808568E+02  4.823262E+03 -7.649771E+04  3.813731E+03  3.103566E+04
        82   5 -5.034952E+05 -2.491587E+02  2.578422E+03 -1.939652E+04  2.511871E+03  2.550958E+04
        82   6 -5.029010E+05  1.608385E+02  1.630975E+03 -7.649780E+04  1.199060E+03  1.968627E+04
        82   7  4.905555E+05  2.470059E+05  2.434892E+05 -7.687685E+04  1.235734E+03  3.103334E+04
        82   8  3.441941E+05  2.100895E+05  2.065390E+05 -1.992089E+04 -2.104062E+02  2.550962E+04
        82   9  1.990256E+05  1.744367E+05  1.709843E+05 -7.715767E+04 -1.667157E+03  1.968893E+04
        82  10 -1.495539E+06 -2.459170E+05 -2.339147E+05 -7.611919E+04 -1.768454E-09  1.491597E-10
        82  11 -1.350527E+06 -2.106408E+05 -2.014346E+05 -1.887282E+04 -1.009991E-10 -4.021169E-10
        82  12 -1.204377E+06 -1.741514E+05 -1.677583E+05 -7.583855E+04  1.397713E-09 -6.129426E-10
        82  13 -5.029434E+05  5.798188E+02  4.821425E+03 -7.649780E+04  2.906555E-12 -5.973195E-10
        82  14 -5.034954E+05 -2.498590E+02  2.577187E+03 -1.939657E+04  3.331013E-09 -3.399592E-10
        82  15 -5.029011E+05  1.604220E+02  1.630244E+03 -7.649782E+04  2.989822E-10 -5.816636E-11
        82  16  4.905553E+05  2.470048E+05  2.434873E+05 -7.687688E+04  7.874050E-10 -9.153353E-10
        82  17  3.441939E+05  2.100888E+05  2.065378E+05 -1.992089E+04  3.686206E-09  3.462195E-12
        82  18  1.990255E+05  1.744363E+05  1.709835E+05 -7.715764E+04 -1.092350E-10 -1.053470E-11
        82  19 -1.495538E+06 -2.459160E+05 -2.339128E+05 -7.611903E+04 -6.387617E+03 -3.103799E+04
        82  20 -1.350527E+06 -2.106401E+05 -2.014333E+05 -1.887271E+04 -5.230444E+03 -2.550954E+04
        82  21 -1.204377E+06 -1.741510E+05 -1.677576E+05 -7.583849E+04 -4.062048E+03 -1.968361E+04
        82  22 -5.029431E+05  5.808568E+02  4.823262E+03 -7.649771E+04 -3.813731E+03 -3.103566E+04
        82  23 -5.034952E+05 -2.491587E+02  2.578422E+03 -1.939652E+04 -2.511871E+03 -2.550958E+04
        82  24 -5.029010E+05  1.608385E+02  1.630975E+03 -7.649780E+04 -1.199060E+03 -1.968627E+04
        82  25  4.905555E+05  2.470059E+05  2.434892E+05 -7.687685E+04 -1.235734E+03 -3.103334E+04
        82  26  3.441941E+05  2.100895E+05  2.065390E+05 -1.992089E+04  2.104062E+02 -2.550962E+04
        82  27  1.990256E+05  1.744367E+05  1.709843E+05 -7.715767E+04  1.667157E+03 -1.968893E+04
        83   1 -9.957667E+05 -1.220401E+05 -1.169476E+05 -7.615927E+04  3.721746E+03  1.623883E+04
        83   2 -8.486709E+05 -8.578880E+04 -8.244102E+04 -1.863692E+04  3.339876E+03  1.039864E+04
        83   3 -7.017502E+05 -4.909353E+04 -4.765346E+04 -7.642600E+04  2.953370E+03  4.525324E+03
        83   4 -5.031279E+05  2.110302E+02  1.241287E+03 -7.674326E+04  9.298018E+02  1.624261E+04
        83   5 -5.030218E+05  4.057427E+01  7.863373E+02 -1.908942E+04  5.314542E+02  1.040340E+04
        83   6 -5.031100E+05  3.178554E+02  6.243452E+02 -7.674302E+04  1.285584E+02  4.531151E+03
        83   7 -1.026646E+04  1.224445E+05  1.194130E+05 -7.732761E+04 -1.864352E+03  1.624639E+04
        83   8 -1.572631E+05  8.586124E+04  8.400520E+04 -1.954213E+04 -2.278527E+03  1.040817E+04
        83   9 -3.044337E+05  4.972634E+04  4.889932E+04 -7.706012E+04 -2.697155E+03  4.536980E+03
        83  10 -9.957668E+05 -1.220404E+05 -1.169481E+05 -7.615932E+04 -2.436584E-09  1.146027E-10
        83  11 -8.486710E+05 -8.578892E+04 -8.244124E+04 -1.863694E+04 -2.191431E-09  7.679255E-10
        83  12 -7.017502E+05 -4.909355E+04 -4.765352E+04 -7.642601E+04  2.121028E-09 -1.233800E-09
        83  13 -5.031280E+05  2.107468E+02  1.240790E+03 -7.674327E+04 -2.167518E-09 -2.995613E-11
        83  14 -5.030218E+05  4.045800E+01  7.861334E+02 -1.908943E+04 -1.905603E-09  1.501490E-09
        83  15 -5.031100E+05  3.178333E+02  6.243066E+02 -7.674302E+04 -2.291662E-10 -6.668524E-10
        83  16 -1.026653E+04  1.224443E+05  1.194125E+05 -7.732758E+04  1.436111E-09  2.149370E-10
        83  17 -1.572632E+05  8.586112E+04  8.400498E+04 -1.954211E+04 -3.318059E-10  6.428802E-10
        83  18 -3.044337E+05  4.972631E+04  4.889927E+04 -7.706011E+04 -2.774446E-09 -6.034050E-10
        83  19 -9.957667E+05 -1.220401E+05 -1.169476E+05 -7.615927E+04 -3.721746E+03 -1.623883E+04
        83  20 -8.486709E+05 -8.578880E+04 -8.244102E+04 -1.863692E+04 -3.339876E+03 -1.039864E+04
        83  21 -7.017502E+05 -4.909353E+04 -4.765346E+04 -7.642600E+04 -2.953370E+03 -4.525324E+03
        83  22 -5.031279E+05  2.110302E+02  1.241287E+03 -7.674326E+04 -9.298018E+02 -1.624261E+04
        83  23 -5.030218E+05  4.057427E+01  7.863373E+02 -1.908942E+04 -5.314542E+02 -1.040340E+04
        83  24 -5.031100E+05  3.178554E+02  6.243452E+02 -7.674302E+04 -1.285584E+02 -4.531151E+03
        83  25 -1.026646E+04  1.224445E+05  1.194130E+05 -7.732761E+04  1.864352E+03 -1.624639E+04
        83  26 -1.572631E+05  8.586124E+04  8.400520E+04 -1.954213E+04  2.278527E+03 -1.040817E+04
        83  27 -3.044337E+05  4.972634E+04  4.889932E+04 -7.706012E+04  2.697155E+03 -4.536980E+03
        84   1 -4.917035E+05  3.236988E+03  3.799509E+03 -7.680787E+04  2.833655E+03  1.095265E+03
        84   2 -3.442518E+05  3.946759E+04  3.889068E+04 -1.926908E+04  2.470271E+03 -4.781355E+03
        84   3 -1.971398E+05  7.614934E+04  7.421572E+04 -7.720176E+04  2.108911E+03 -1.063432E+04
        84   4 -5.031359E+05  3.083983E+02  5.956622E+02 -7.677990E+04  8.298230E+00  1.101286E+03
        84   5 -5.029592E+05  7.034680E+01  6.879740E+02 -1.904330E+04 -3.439693E+02 -4.775852E+03
        84   6 -5.031442E+05  2.830296E+02  1.007763E+03 -7.677997E+04 -6.941303E+02 -1.062925E+04
        84   7 -5.145682E+05 -2.620198E+03 -2.608166E+03 -7.675192E+04 -2.817006E+03  1.107307E+03
        84   8 -6.616436E+05 -3.932873E+04 -3.751650E+04 -1.881757E+04 -3.157493E+03 -4.770351E+03
        84   9 -8.090627E+05 -7.559006E+04 -7.220678E+04 -7.635835E+04 -3.495795E+03 -1.062419E+04
        84  10 -4.917035E+05  3.236984E+03  3.799491E+03 -7.680788E+04  5.186870E-10 -1.127523E-09
        84  11 -3.442518E+05  3.946756E+04  3.889062E+04 -1.926907E+04 -1.363112E-09  1.034499E-09
        84  12 -1.971399E+05  7.614921E+04  7.421550E+04 -7.720174E+04 -1.709346E-10  4.755197E-10
        84  13 -5.031359E+05  3.083970E+02  5.956599E+02 -7.677990E+04  5.234534E-11 -5.031759E-10
        84  14 -5.029592E+05  7.032228E+01  6.879309E+02 -1.904330E+04  1.352854E-09  6.467054E-10
        84  15 -5.031442E+05  2.829082E+02  1.007550E+03 -7.677998E+04  6.115949E-10  5.647848E-10
        84  16 -5.145682E+05 -2.620201E+03 -2.608183E+03 -7.675192E+04  1.507291E-10 -1.161391E-09
        84  17 -6.616436E+05 -3.932876E+04 -3.751656E+04 -1.881758E+04 -5.292540E-10 -2.089351E-10
        84  18 -8.090627E+05 -7.559019E+04 -7.220701E+04 -7.635838E+04  5.308471E-10 -2.031056E-10
        84  19 -4.917035E+05  3.236988E+03  3.799509E+03 -7.680787E+04 -2.833655E+03 -1.095265E+03
        84  20 -3.442518E+05  3.946759E+04  3.889068E+04 -1.926908E+04 -2.470271E+03  4.781355E+03
        84  21 -1.971398E+05  7.614934E+04  7.421572E+04 -7.720176E+04 -2.108911E+03  1.063432E+04
        84  22 -5.031359E+05  3.083983E+02  5.956622E+02 -7.677990E+04 -8.298230E+00 -1.101286E+03
        84  23 -5.029592E+05  7.034680E+01  6.879740E+02 -1.904330E+04  3.439693E+02  4.775852E+03
        84  24 -5.031442E+05  2.830296E+02  1.007763E+03 -7.677997E+04  6.941303E+02  1.062925E+04
        84  25 -5.145682E+05 -2.620198E+03 -2.608166E+03 -7.675192E+04  2.817006E+03 -1.107307E+03
        84  26 -6.616436E+05 -3.932873E+04 -3.751650E+04 -1.881757E+04  3.157493E+03  4.770351E+03
        84  27 -8.090627E+05 -7.559006E+04 -7.220678E+04 -7.635835E+04  3.495795E+03  1.062419E+04
        85   1  1.267192E+04  1.283033E+05  1.258428E+05 -7.722752E+04  1.957898E+03 -1.408402E+04
        85   2  1.587408E+05  1.641508E+05  1.613509E+05 -1.988649E+04  7.874406E+02 -1.992726E+04
        85   3  3.054416E+05  2.010978E+05  1.979264E+05 -7.726877E+04 -3.745061E+02 -2.550291E+04
        85   4 -5.029813E+05  2.369981E+02  1.297632E+03 -7.661519E+04 -9.118704E+02 -1.407968E+04
        85   5 -5.032941E+05 -1.399145E+02  2.042702E+03 -1.924961E+04 -1.953120E+03 -1.992505E+04
        85   6 -5.030147E+05  5.625628E+02  3.768027E+03 -7.661493E+04 -2.985589E+03 -2.550264E+04
        85   7 -1.018391E+06 -1.278488E+05 -1.232666E+05 -7.600324E+04 -3.779263E+03 -1.407535E+04
        85   8 -1.164928E+06 -1.644626E+05 -1.572967E+05 -1.861327E+04 -4.690768E+03 -1.992285E+04
        85   9 -1.310873E+06 -2.000202E+05 -1.904368E+05 -7.596177E+04 -5.593284E+03 -2.550238E+04
        85  10  1.267186E+04  1.283031E+05  1.258424E+05 -7.722750E+04 -1.016481E-09 -2.170325E-10
        85  11  1.587407E+05  1.641504E+05  1.613502E+05 -1.988648E+04  8.828317E-11  7.061007E-10
        85  12  3.054414E+05  2.010971E+05  1.979252E+05 -7.726878E+04  1.265411E-09  2.744945E-10
        85  13 -5.029814E+05  2.367851E+02  1.297258E+03 -7.661520E+04 -6.234254E-11 -4.043859E-10
        85  14 -5.032942E+05 -1.403417E+02  2.041948E+03 -1.924964E+04  1.185563E-09  1.370746E-10
        85  15 -5.030149E+05  5.618622E+02  3.766789E+03 -7.661499E+04 -3.072233E-10 -4.919612E-10
        85  16 -1.018391E+06 -1.278490E+05 -1.232670E+05 -7.600329E+04  5.391567E-10  2.884124E-10
        85  17 -1.164928E+06 -1.644630E+05 -1.572975E+05 -1.861334E+04 -2.664408E-10  1.236817E-10
        85  18 -1.310873E+06 -2.000209E+05 -1.904381E+05 -7.596189E+04  7.834267E-10 -6.715888E-10
        85  19  1.267192E+04  1.283033E+05  1.258428E+05 -7.722752E+04 -1.957898E+03  1.408402E+04
        85  20  1.587408E+05  1.641508E+05  1.613509E+05 -1.988649E+04 -7.874406E+02  1.992726E+04
        85  21  3.054416E+05  2.010978E+05  1.979264E+05 -7.726877E+04  3.745061E+02  2.550291E+04
        85  22 -5.029813E+05  2.369981E+02  1.297632E+03 -7.661519E+04  9.118704E+02  1.407968E+04
        85  23 -5.032941E+05 -1.399145E+02  2.042702E+03 -1.924961E+04  1.953120E+03  1.992505E+04
        85  24 -5.030147E+05  5.625628E+02  3.768027E+03 -7.661493E+04  2.985589E+03  2.550264E+04
        85  25 -1.018391E+06 -1.278488E+05 -1.232666E+05 -7.600324E+04  3.779263E+03  1.407535E+04
        85  26 -1.164928E+06 -1.644626E+05 -1.572967E+05 -1.861327E+04  4.690768E+03  1.992285E+04
        85  27 -1.310873E+06 -2.000202E+05 -1.904368E+05 -7.596177E+04  5.593284E+03  2.550238E+04
        86   1  5.137049E+05  2.518747E+05  2.497085E+05 -7.589666E+04 -2.802393E+02 -2.932046E+04
        86   2  6.558337E+05  2.866014E+05  2.869755E+05 -1.994834E+04 -5.855290E+03 -3.502922E+04
        86   3  8.024388E+05  3.293092E+05  3.302195E+05 -7.697179E+04 -1.142024E+04 -3.763454E+04
        86   4 -5.023208E+05 -2.843057E+02  4.879597E+03 -7.622634E+04 -3.764823E+03 -2.932150E+04
        86   5 -5.044476E+05 -1.239030E+03  7.893262E+03 -1.973599E+04 -7.842035E+03 -3.503387E+04
        86   6 -5.023755E+05  5.535425E+03  1.585128E+04 -7.623042E+04 -1.190784E+04 -3.764018E+04
        86   7 -1.517402E+06 -2.525186E+05 -2.400230E+05 -7.655528E+04 -7.243724E+03 -2.932253E+04
        86   8 -1.663497E+06 -2.891775E+05 -2.712849E+05 -1.952406E+04 -9.825073E+03 -3.503853E+04
        86   9 -1.805633E+06 -3.183626E+05 -2.986385E+05 -7.549087E+04 -1.239439E+04 -3.764583E+04
        86  10  5.137046E+05  2.518737E+05  2.497069E+05 -7.589666E+04  3.274332E-11 -7.036280E-10
        86  11  6.558334E+05  2.866001E+05  2.869732E+05 -1.994850E+04 -1.897227E-09 -7.606735E-10
        86  12  8.024383E+05  3.293077E+05  3.302165E+05 -7.697213E+04  2.451659E-11  1.002275E-09
        86  13 -5.023210E+05 -2.852325E+02  4.877955E+03 -7.622643E+04  7.903353E-11 -6.530264E-10
        86  14 -5.044480E+05 -1.240364E+03  7.890840E+03 -1.973621E+04  2.631637E-09 -1.766491E-10
        86  15 -5.023760E+05  5.533865E+03  1.584836E+04 -7.623079E+04  4.309415E-09  6.492586E-10
        86  16 -1.517402E+06 -2.525196E+05 -2.400247E+05 -7.655545E+04  2.708713E-09 -9.373182E-10
        86  17 -1.663498E+06 -2.891789E+05 -2.712874E+05 -1.952434E+04  1.289487E-09 -6.941595E-11
        86  18 -1.805633E+06 -3.183642E+05 -2.986414E+05 -7.549124E+04 -4.029327E-10  6.869646E-10
        86  19  5.137049E+05  2.518747E+05  2.497085E+05 -7.589666E+04  2.802393E+02  2.932046E+04
        86  20  6.558337E+05  2.866014E+05  2.869755E+05 -1.994834E+04  5.855290E+03  3.502922E+04
        86  21  8.024388E+05  3.293092E+05  3.302195E+05 -7.697179E+04  1.142024E+04  3.763454E+04
        86  22 -5.023208E+05 -2.843057E+02  4.879597E+03 -7.622634E+04  3.764823E+03  2.932150E+04
        86  23 -5.044476E+05 -1.239030E+03  7.893262E+03 -1.973599E+04  7.842035E+03  3.503387E+04
        86  24 -5.023755E+05  5.535425E+03  1.585128E+04 -7.623042E+04  1.190784E+04  3.764018E+04
        86  25 -1.517402E+06 -2.525186E+05 -2.400230E+05 -7.655528E+04  7.243724E+03  2.932253E+04
        86  26 -1.663497E+06 -2.891775E+05 -2.712849E+05 -1.952406E+04  9.825073E+03  3.503853E+04
        86  27 -1.805633E+06 -3.183626E+05 -2.986385E+05 -7.549087E+04  1.239439E+04  3.764583E+04
        87   1  1.010577E+06  3.709059E+05  3.820406E+05 -6.668168E+04 -3.350988E+03 -4.648968E+04
        87   2  1.138682E+06  3.996015E+05  4.265247E+05 -2.245141E+04 -3.857817E+04 -5.136575E+04
        87   3  1.293779E+06  5.017047E+05  5.131011E+05 -8.791943E+04 -7.393615E+04 -1.746367E+04
        87   4 -4.981884E+05 -3.273773E+03  1.950826E+04 -7.544849E+04 -1.496268E+04 -4.651306E+04
        87   5 -5.101122E+05 -9.197210E+03  3.053383E+04 -2.068387E+04 -3.150415E+04 -5.135762E+04
        87   6 -4.982515E+05  5.514645E+04  7.074250E+04 -7.563261E+04 -4.816777E+04 -1.737974E+04
        87   7 -2.004871E+06 -3.776189E+05 -3.431855E+05 -8.419453E+04 -2.654626E+04 -4.653614E+04
        87   8 -2.156419E+06 -4.181936E+05 -3.656500E+05 -1.892251E+04 -2.444873E+04 -5.134944E+04
        87   9 -2.287363E+06 -3.916503E+05 -3.718515E+05 -6.338358E+04 -2.247341E+04 -1.729468E+04
        87  10  1.010576E+06  3.709036E+05  3.820366E+05 -6.668181E+04  2.356115E-09  1.572251E-09
        87  11  1.138680E+06  3.995983E+05  4.265169E+05 -2.245300E+04  4.430836E-10 -1.104267E-10
        87  12  1.293773E+06  5.017029E+05  5.130903E+05 -8.792047E+04  3.668475E-10 -7.662411E-10
        87  13 -4.981892E+05 -3.276156E+03  1.950378E+04 -7.544905E+04  1.134395E-09  8.708820E-10
        87  14 -5.101139E+05 -9.200309E+03  3.052701E+04 -2.068517E+04 -1.944721E-09 -6.221788E-10
        87  15 -4.982540E+05  5.514551E+04  7.073757E+04 -7.563328E+04  5.819033E-10 -9.079615E-11
        87  16 -2.004872E+06 -3.776214E+05 -3.431909E+05 -8.419552E+04 -1.987271E-09  3.957612E-10
        87  17 -2.156421E+06 -4.181966E+05 -3.656561E+05 -1.892353E+04  3.538473E-10  6.670422E-10
        87  18 -2.287363E+06 -3.916507E+05 -3.718530E+05 -6.338389E+04  1.494487E-09 -2.141430E-10
        87  19  1.010577E+06  3.709059E+05  3.820406E+05 -6.668168E+04  3.350988E+03  4.648968E+04
        87  20  1.138682E+06  3.996015E+05  4.265247E+05 -2.245141E+04  3.857817E+04  5.136575E+04
        87  21  1.293779E+06  5.017047E+05  5.131011E+05 -8.791943E+04  7.393615E+04  1.746367E+04
        87  22 -4.981884E+05 -3.273773E+03  1.950826E+04 -7.544849E+04  1.496268E+04  4.651306E+04
        87  23 -5.101122E+05 -9.197210E+03  3.053383E+04 -2.068387E+04  3.150415E+04  5.135762E+04
        87  24 -4.982515E+05  5.514645E+04  7.074250E+04 -7.563261E+04  4.816777E+04  1.737974E+04
        87  25 -2.004871E+06 -3.776189E+05 -3.431855E+05 -8.419453E+04  2.654626E+04  4.653614E+04
        87  26 -2.156419E+06 -4.181936E+05 -3.656500E+05 -1.892251E+04  2.444873E+04  5.134944E+04
        87  27 -2.287363E+06 -3.916503E+05 -3.718515E+05 -6.338358E+04  2.247341E+04  1.729468E+04
        88   1  4.410547E+05  1.041242E+06  4.631863E+05 -2.424276E+05  1.091306E+04  1.083153E+05
        88   2  2.193851E+05  6.288098E+05  2.833475E+05 -6.528817E+04  2.949097E+04  6.201036E+04
        88   3  1.340415E+05  2.531181E+05  1.670303E+05 -1.954484E+05  1.511406E+04  1.553113E+04
        88   4  1.062497E+05 -2.996243E+05  1.316553E+05 -2.052858E+05  1.101594E+04  9.148236E+04
        88   5 -1.520570E+04 -3.165371E+05  5.637008E+04 -5.194168E+04  2.950060E+04  6.107940E+04
        88   6 -2.963911E+03 -2.995186E+05  3.366993E+04 -2.059111E+05  1.501171E+04  3.047229E+04
        88   7 -2.286851E+05 -1.638856E+06 -2.000077E+05 -1.682217E+05  1.111692E+04  7.468547E+04
        88   8 -2.498610E+05 -1.261066E+06 -1.706708E+05 -3.861429E+04  2.951020E+04  6.014980E+04
        88   9 -1.399910E+05 -8.518751E+05 -9.971139E+04 -2.163639E+05  1.490882E+04  4.540020E+04
        88  10  4.410515E+05  1.041230E+06  4.631641E+05 -2.424285E+05 -6.639785E-11  1.182823E-09
        88  11  2.193832E+05  6.288054E+05  2.833387E+05 -6.528964E+04 -1.680024E-09 -6.408540E-10
        88  12  1.340412E+05  2.531178E+05  1.670294E+05 -1.954485E+05 -5.740505E-10 -2.109485E-09
        88  13  1.062473E+05 -2.996334E+05  1.316394E+05 -2.052866E+05  1.607034E-10  3.856688E-11
        88  14 -1.520764E+04 -3.165413E+05  5.636143E+04 -5.194313E+04  2.786554E-09  7.945121E-11
        88  15 -2.964403E+03 -2.995196E+05  3.366776E+04 -2.059114E+05  1.525258E-09 -4.053067E-11
        88  16 -2.286868E+05 -1.638862E+06 -2.000184E+05 -1.682223E+05  6.234170E-10 -1.254343E-09
        88  17 -2.498629E+05 -1.261070E+06 -1.706792E+05 -3.861572E+04  2.769443E-09  5.437287E-10
        88  18 -1.399918E+05 -8.518774E+05 -9.971569E+04 -2.163645E+05 -1.470280E-09  2.023155E-09
        88  19  4.410547E+05  1.041242E+06  4.631863E+05 -2.424276E+05 -1.091306E+04 -1.083153E+05
        88  20  2.193851E+05  6.288098E+05  2.833475E+05 -6.528817E+04 -2.949097E+04 -6.201036E+04
        88  21  1.340415E+05  2.531181E+05  1.670303E+05 -1.954484E+05 -1.511406E+04 -1.553113E+04
        88  22  1.062497E+05 -2.996243E+05  1.316553E+05 -2.052858E+05 -1.101594E+04 -9.148236E+04
        88  23 -1.520570E+04 -3.165371E+05  5.637008E+04 -5.194168E+04 -2.950060E+04 -6.107940E+04
        88  24 -2.963911E+03 -2.995186E+05  3.366993E+04 -2.059111E+05 -1.501171E+04 -3.047229E+04
        88  25 -2.286851E+05 -1.638856E+06 -2.000077E+05 -1.682217E+05 -1.111692E+04 -7.468547E+04
        88  26 -2.498610E+05 -1.261066E+06 -1.706708E+05 -3.861429E+04 -2.951020E+04 -6.014980E+04
        88  27 -1.399910E+05 -8.518751E+05 -9.971139E+04 -2.163639E+05 -1.490882E+04 -4.540020E+04
        89   1  1.184896E+04 -3.170370E+05  2.347278E+04 -2.082975E+05  6.128214E+02  1.869603E+04
        89   2 -1.005972E+05 -7.105246E+05 -8.818256E+04 -5.076816E+04 -1.230604E+04  1.460754E+04
        89   3 -2.009271E+05 -1.105058E+06 -1.951865E+05 -2.019900E+05 -2.392084E+04  1.054205E+04
        89   4  1.431325E+04 -3.072055E+05  2.615642E+04 -2.059606E+05  5.672728E+02  2.522522E+04
        89   5 -3.468741E+02 -3.066990E+05  9.017016E+03 -5.164886E+04 -1.234451E+04  2.051248E+04
        89   6 -2.770919E+03 -3.072657E+05 -3.021034E+03 -2.060741E+05 -2.395301E+04  1.582023E+04
        89   7  1.677757E+04 -2.973738E+05  2.884022E+04 -2.036236E+05  5.217738E+02  3.175452E+04
        89   8  9.989163E+04  9.727595E+04  1.062051E+05 -5.252989E+04 -1.238298E+04  2.642124E+04
        89   9  1.953388E+05  4.911097E+05  1.890991E+05 -2.101625E+05 -2.398523E+04  2.110517E+04
        89  10  1.184886E+04 -3.170374E+05  2.347212E+04 -2.082975E+05 -5.322960E-11  1.647147E-09
        89  11 -1.005975E+05 -7.105248E+05 -8.818325E+04 -5.076802E+04  9.342186E-10  3.020497E-10
        89  12 -2.009277E+05 -1.105058E+06 -1.951877E+05 -2.019898E+05  1.680408E-09 -3.634757E-10
        89  13  1.431308E+04 -3.072062E+05  2.615523E+04 -2.059606E+05  1.679056E-09  1.265206E-10
        89  14 -3.471507E+02 -3.066995E+05  9.015938E+03 -5.164866E+04  2.350660E-09  1.068809E-10
        89  15 -2.771602E+03 -3.072661E+05 -3.022582E+03 -2.060738E+05  9.482853E-10  8.069707E-11
        89  16  1.677730E+04 -2.973749E+05  2.883832E+04 -2.036237E+05 -2.660700E-09 -1.777679E-09
        89  17  9.989128E+04  9.727516E+04  1.062035E+05 -5.252962E+04  6.638998E-11 -8.816996E-11
        89  18  1.953381E+05  4.911090E+05  1.890971E+05 -2.101620E+05 -7.519299E-10  5.016976E-10
        89  19  1.184896E+04 -3.170370E+05  2.347278E+04 -2.082975E+05 -6.128214E+02 -1.869603E+04
        89  20 -1.005972E+05 -7.105246E+05 -8.818256E+04 -5.076816E+04  1.230604E+04 -1.460754E+04
        89  21 -2.009271E+05 -1.105058E+06 -1.951865E+05 -2.019900E+05  2.392084E+04 -1.054205E+04
        89  22  1.431325E+04 -3.072055E+05  2.615642E+04 -2.059606E+05 -5.672728E+02 -2.522522E+04
        89  23 -3.468741E+02 -3.066990E+05  9.017016E+03 -5.164886E+04  1.234451E+04 -2.051248E+04
        89  24 -2.770919E+03 -3.072657E+05 -3.021034E+03 -2.060741E+05  2.395301E+04 -1.582023E+04
        89  25  1.677757E+04 -2.973738E+05  2.884022E+04 -2.036236E+05 -5.217738E+02 -3.175452E+04
        89  26  9.989163E+04  9.727595E+04  1.062051E+05 -5.252989E+04  1.238298E+04 -2.642124E+04
        89  27  1.953388E+05  4.911097E+05  1.890991E+05 -2.101625E+05  2.398523E+04 -2.110517E+04
        90   1 -3.319653E+05 -1.668834E+06 -3.348853E+05 -1.942468E+05 -4.048499E+04 -2.254189E+03
        90   2 -4.287531E+05 -2.053216E+06 -4.408389E+05 -4.956385E+04 -5.501950E+04  3.231444E+04
        90   3 -5.752801E+05 -2.454205E+06 -5.818027E+05 -2.115676E+05 -1.984879E+04  6.708647E+04
        90   4  5.690174E+03 -3.101596E+05 -7.451295E+03 -2.054969E+05 -4.059340E+04  1.653987E+04
        90   5  5.725522E+03 -3.040020E+05 -2.006666E+04 -5.227228E+04 -5.498498E+04  2.734426E+04
        90   6 -3.975105E+04 -3.104043E+05 -5.110345E+04 -2.056868E+05 -1.973206E+04  3.837469E+04
        90   7  3.432113E+05  1.050208E+06  3.198522E+05 -2.167691E+05 -4.070237E+04  3.537496E+04
        90   8  4.399811E+05  1.448019E+06  4.004877E+05 -5.498489E+04 -5.495047E+04  2.236001E+04
        90   9  4.954345E+05  1.837586E+06  4.792569E+05 -1.997809E+05 -1.961609E+04  9.563386E+03
        90  10 -3.319671E+05 -1.668834E+06 -3.348884E+05 -1.942468E+05 -1.421082E-10  5.179026E-10
        90  11 -4.287567E+05 -2.053217E+06 -4.408465E+05 -4.956241E+04 -2.249958E-09  1.084139E-10
        90  12 -5.752817E+05 -2.454210E+06 -5.818119E+05 -2.115665E+05  5.342426E-10  1.179841E-10
        90  13  5.688332E+03 -3.101603E+05 -7.454904E+03 -2.054964E+05 -1.372481E-09 -1.041187E-12
        90  14  5.722076E+03 -3.040037E+05 -2.007375E+04 -5.227107E+04 -3.479005E-09  2.021301E-11
        90  15 -3.975187E+04 -3.104060E+05 -5.110695E+04 -2.056861E+05 -5.769094E-10 -1.843054E-11
        90  16  3.432092E+05  1.050206E+06  3.198467E+05 -2.167679E+05 -9.324197E-10 -4.071629E-10
        90  17  4.399777E+05  1.448017E+06  4.004811E+05 -5.498390E+04 -7.589631E-10 -4.466637E-11
        90  18  4.954340E+05  1.837585E+06  4.792560E+05 -1.997807E+05  1.303794E-09 -5.415438E-11
        90  19 -3.319653E+05 -1.668834E+06 -3.348853E+05 -1.942468E+05  4.048499E+04  2.254189E+03
        90  20 -4.287531E+05 -2.053216E+06 -4.408389E+05 -4.956385E+04  5.501950E+04 -3.231444E+04
        90  21 -5.752801E+05 -2.454205E+06 -5.818027E+05 -2.115676E+05  1.984879E+04 -6.708647E+04
        90  22  5.690174E+03 -3.101596E+05 -7.451295E+03 -2.054969E+05  4.059340E+04 -1.653987E+04
        90  23  5.725522E+03 -3.040020E+05 -2.006666E+04 -5.227228E+04  5.498498E+04 -2.734426E+04
        90  24 -3.975105E+04 -3.104043E+05 -5.110345E+04 -2.056868E+05  1.973206E+04 -3.837469E+04
        90  25  3.432113E+05  1.050208E+06  3.198522E+05 -2.167691E+05  4.070237E+04 -3.537496E+04
        90  26  4.399811E+05  1.448019E+06  4.004877E+05 -5.498489E+04  5.495047E+04 -2.236001E+04
        90  27  4.954345E+05  1.837586E+06  4.792569E+05 -1.997809E+05  1.961609E+04 -9.563386E+03
        91   1 -5.096420E+06 -1.674017E+06 -1.068648E+06 -1.773583E+06 -4.652907E+05 -1.608601E+05
        91   2 -4.960463E+06 -9.818818E+05 -6.345966E+05 -1.832279E+06 -3.040093E+05 -6.700883E+04
        91   3 -5.052485E+06 -9.687237E+05 -5.055038E+05 -1.763358E+06 -1.308656E+05 -4.294156E+03
        91   4 -3.847547E+06 -1.053227E+06 -6.974171E+05 -1.284237E+06 -4.462944E+05 -1.537698E+05
        91   5 -3.698010E+06 -4.620216E+05 -2.900312E+05 -1.444067E+06 -2.986229E+05 -6.499665E+04
        91   6 -3.773237E+06 -5.463148E+05 -1.762781E+05 -1.476427E+06 -1.391007E+05 -7.400695E+03
        91   7 -2.597107E+06 -4.319864E+05 -3.263408E+05 -7.938856E+05 -4.272549E+05 -1.466518E+05
        91   8 -2.433999E+06  5.801849E+04  5.438847E+04 -1.055105E+06 -2.932239E+05 -6.297872E+04
        91   9 -2.492394E+06 -1.238940E+05  1.528174E+05 -1.189001E+06 -1.473545E+05 -1.051219E+04
        91  10 -5.096661E+06 -1.674104E+06 -1.069108E+06 -1.773643E+06  2.815679E-10  1.386687E-10
        91  11 -4.960564E+06 -9.819117E+05 -6.347804E+05 -1.832296E+06 -1.987507E-09  1.065917E-11
        91  12 -5.052503E+06 -9.687283E+05 -5.055363E+05 -1.763358E+06  8.461232E-11 -2.332362E-10
        91  13 -3.847769E+06 -1.053306E+06 -6.978387E+05 -1.284293E+06 -3.815730E-09 -6.128654E-11
        91  14 -3.698107E+06 -4.620504E+05 -2.902079E+05 -1.444082E+06 -1.107215E-09 -5.496507E-10
        91  15 -3.773258E+06 -5.463201E+05 -1.763148E+05 -1.476428E+06  6.779717E-10 -9.863867E-11
        91  16 -2.597309E+06 -4.320589E+05 -3.267261E+05 -7.939362E+05 -1.281694E-09 -1.148954E-10
        91  17 -2.434093E+06  5.799100E+04  5.421866E+04 -1.055120E+06 -1.524657E-09  1.231455E-11
        91  18 -2.492418E+06 -1.239000E+05  1.527762E+05 -1.189002E+06 -3.501225E-09  7.437549E-11
        91  19 -5.096420E+06 -1.674017E+06 -1.068648E+06 -1.773583E+06  4.652907E+05  1.608601E+05
        91  20 -4.960463E+06 -9.818818E+05 -6.345966E+05 -1.832279E+06  3.040093E+05  6.700883E+04
        91  21 -5.052485E+06 -9.687237E+05 -5.055038E+05 -1.763358E+06  1.308656E+05  4.294156E+03
        91  22 -3.847547E+06 -1.053227E+06 -6.974171E+05 -1.284237E+06  4.462944E+05  1.537698E+05
        91  23 -3.698010E+06 -4.620216E+05 -2.900312E+05 -1.444067E+06  2.986229E+05  6.499665E+04
        91  24 -3.773237E+06 -5.463148E+05 -1.762781E+05 -1.476427E+06  1.391007E+05  7.400695E+03
        91  25 -2.597107E+06 -4.319864E+05 -3.263408E+05 -7.938856E+05  4.272549E+05  1.466518E+05
        91  26 -2.433999E+06  5.801849E+04  5.438847E+04 -1.055105E+06  2.932239E+05  6.297872E+04
        91  27 -2.492394E+06 -1.238940E+05  1.528174E+05 -1.189001E+06  1.473545E+05  1.051219E+04
        92   1 -4.856252E+06 -1.058721E+06 -4.431786E+05 -1.756955E+06 -1.118569E+05 -4.186103E+03
        92   2 -4.785701E+06 -9.259723E+05 -3.444106E+05 -1.714284E+06 -7.461174E+04  8.970948E+03
        92   3 -4.693702E+06 -9.189094E+05 -2.929957E+05 -1.712476E+06 -3.620767E+04  1.904945E+04
        92   4 -3.747349E+06 -6.237349E+05 -1.436854E+05 -1.438173E+06 -1.116531E+05 -4.117210E+03
        92   5 -3.754027E+06 -5.321369E+05 -6.845423E+04 -1.428616E+06 -7.571929E+04  8.548633E+03
        92   6 -3.738948E+06 -5.658781E+05 -3.946312E+04 -1.459930E+06 -3.863256E+04  1.813480E+04
        92   7 -2.637253E+06 -1.886504E+05  1.556968E+05 -1.118865E+06 -1.114487E+05 -4.048084E+03
        92   8 -2.721319E+06 -1.382309E+05  2.074084E+05 -1.142513E+06 -7.682881E+04  8.125572E+03
        92   9 -2.783308E+06 -2.128005E+05  2.139911E+05 -1.207034E+06 -4.106156E+04  1.721869E+04
        92  10 -4.856265E+06 -1.058724E+06 -4.432023E+05 -1.756956E+06  9.643724E-10  3.852552E-10
        92  11 -4.785707E+06 -9.259739E+05 -3.444213E+05 -1.714284E+06  1.423170E-09  9.237224E-10
        92  12 -4.693703E+06 -9.189101E+05 -2.929989E+05 -1.712475E+06  9.991239E-10  8.398923E-10
        92  13 -3.747363E+06 -6.237383E+05 -1.437090E+05 -1.438174E+06  5.798317E-10  1.607173E-10
        92  14 -3.754034E+06 -5.321385E+05 -6.846519E+04 -1.428615E+06 -2.951489E-09  4.034762E-10
        92  15 -3.738950E+06 -5.658788E+05 -3.946655E+04 -1.459929E+06 -2.942187E-09 -2.078688E-10
        92  16 -2.637266E+06 -1.886537E+05  1.556733E+05 -1.118865E+06 -9.337285E-10  6.079677E-10
        92  17 -2.721325E+06 -1.382326E+05  2.073971E+05 -1.142513E+06 -3.870262E-10  1.753804E-10
        92  18 -2.783310E+06 -2.128013E+05  2.139873E+05 -1.207033E+06 -2.130093E-09 -1.976053E-10
        92  19 -4.856252E+06 -1.058721E+06 -4.431786E+05 -1.756955E+06  1.118569E+05  4.186103E+03
        92  20 -4.785701E+06 -9.259723E+05 -3.444106E+05 -1.714284E+06  7.461174E+04 -8.970948E+03
        92  21 -4.693702E+06 -9.189094E+05 -2.929957E+05 -1.712476E+06  3.620767E+04 -1.904945E+04
        92  22 -3.747349E+06 -6.237349E+05 -1.436854E+05 -1.438173E+06  1.116531E+05  4.117210E+03
        92  23 -3.754027E+06 -5.321369E+05 -6.845423E+04 -1.428616E+06  7.571929E+04 -8.548633E+03
        92  24 -3.738948E+06 -5.658781E+05 -3.946312E+04 -1.459930E+06  3.863256E+04 -1.813480E+04
        92  25 -2.637253E+06 -1.886504E+05  1.556968E+05 -1.118865E+06  1.114487E+05  4.048084E+03
        92  26 -2.721319E+06 -1.382309E+05  2.074084E+05 -1.142513E+06  7.682881E+04 -8.125572E+03
        92  27 -2.783308E+06 -2.128005E+05  2.139911E+05 -1.207034E+06  4.106156E+04 -1.721869E+04
        93   1 -4.532759E+06 -8.795754E+05 -2.440170E+05 -1.677053E+06 -3.018754E+04  1.813752E+04
        93   2 -4.458689E+06 -7.996780E+05 -2.013895E+05 -1.613116E+06 -2.029764E+04  1.717724E+04
        93   3 -4.324297E+06 -7.918924E+05 -1.671056E+05 -1.620162E+06 -1.021734E+04  1.568965E+04
        93   4 -3.733557E+06 -5.767994E+05 -3.095117E+04 -1.458026E+06 -3.191927E+04  1.748459E+04
        93   5 -3.763238E+06 -5.374000E+05 -1.599537E+04 -1.423790E+06 -2.225403E+04  1.644186E+04
        93   6 -3.732560E+06 -5.700552E+05 -9.194440E+03 -1.460535E+06 -1.240006E+04  1.487154E+04
        93   7 -2.933733E+06 -2.739835E+05  1.820587E+05 -1.238743E+06 -3.365344E+04  1.683073E+04
        93   8 -3.067317E+06 -2.750932E+05  1.693561E+05 -1.234271E+06 -2.421283E+04  1.570558E+04
        93   9 -3.140485E+06 -3.481988E+05  1.486856E+05 -1.300771E+06 -1.458506E+04  1.405258E+04
        93  10 -4.532760E+06 -8.795760E+05 -2.440193E+05 -1.677052E+06  2.458640E-09  2.172224E-10
        93  11 -4.458690E+06 -7.996785E+05 -2.013908E+05 -1.613116E+06  2.792917E-09 -3.188821E-10
        93  12 -4.324298E+06 -7.918927E+05 -1.671062E+05 -1.620162E+06  5.345084E-10 -5.845342E-10
        93  13 -3.733558E+06 -5.768000E+05 -3.095366E+04 -1.458026E+06 -3.568092E-10  2.846313E-10
        93  14 -3.763238E+06 -5.374004E+05 -1.599681E+04 -1.423789E+06  1.744529E-09  3.133298E-10
        93  15 -3.732561E+06 -5.700555E+05 -9.195144E+03 -1.460535E+06  8.523296E-10  3.363029E-11
        93  16 -2.933735E+06 -2.739841E+05  1.820560E+05 -1.238743E+06  3.313318E-10 -9.309113E-11
        93  17 -3.067318E+06 -2.750936E+05  1.693546E+05 -1.234271E+06  2.428656E-09  9.379670E-11
        93  18 -3.140485E+06 -3.481991E+05  1.486848E+05 -1.300770E+06 -3.841104E-10  4.205047E-10
        93  19 -4.532759E+06 -8.795754E+05 -2.440170E+05 -1.677053E+06  3.018754E+04 -1.813752E+04
        93  20 -4.458689E+06 -7.996780E+05 -2.013895E+05 -1.613116E+06  2.029764E+04 -1.717724E+04
        93  21 -4.324297E+06 -7.918924E+05 -1.671056E+05 -1.620162E+06  1.021734E+04 -1.568965E+04
        93  22 -3.733557E+06 -5.767994E+05 -3.095117E+04 -1.458026E+06  3.191927E+04 -1.748459E+04
        93  23 -3.763238E+06 -5.374000E+05 -1.599537E+04 -1.423790E+06  2.225403E+04 -1.644186E+04
        93  24 -3.732560E+06 -5.700552E+05 -9.194440E+03 -1.460535E+06  1.240006E+04 -1.487154E+04
        93  25 -2.933733E+06 -2.739835E+05  1.820587E+05 -1.238743E+06  3.365344E+04 -1.683073E+04
        93  26 -3.067317E+06 -2.750932E+05  1.693561E+05 -1.234271E+06  2.421283E+04 -1.570558E+04
        93  27 -3.140485E+06 -3.481988E+05  1.486856E+05 -1.300771E+06  1.458506E+04 -1.405258E+04
        94   1 -4.148688E+06 -7.297290E+05 -1.182055E+05 -1.575221E+06 -7.859380E+03  1.334855E+04
        94   2 -4.067752E+06 -6.499810E+05 -8.496430E+04 -1.503432E+06 -3.714910E+03  9.360148E+03
        94   3 -3.917047E+06 -6.416947E+05 -5.373323E+04 -1.512329E+06  4.814059E+02  5.222870E+03
        94   4 -3.730775E+06 -5.724891E+05 -7.282296E+03 -1.461705E+06 -9.999468E+03  1.254748E+04
        94   5 -3.765583E+06 -5.363679E+05 -4.494544E+03 -1.421500E+06 -5.920002E+03  8.535647E+03
        94   6 -3.730627E+06 -5.716938E+05 -3.664039E+03 -1.461985E+06 -1.789221E+03  4.374862E+03
        94   7 -3.312691E+06 -4.152381E+05  1.036263E+05 -1.348119E+06 -1.214115E+04  1.174580E+04
        94   8 -3.463326E+06 -4.227496E+05  7.596712E+04 -1.339533E+06 -8.126277E+03  7.710704E+03
        94   9 -3.544175E+06 -5.016914E+05  4.640172E+04 -1.411628E+06 -4.060585E+03  3.526580E+03
        94  10 -4.148688E+06 -7.297292E+05 -1.182060E+05 -1.575221E+06 -2.286303E-10  1.360252E-10
        94  11 -4.067752E+06 -6.499811E+05 -8.496449E+04 -1.503432E+06 -1.653530E-10 -6.445245E-10
        94  12 -3.917047E+06 -6.416947E+05 -5.373329E+04 -1.512329E+06 -1.982081E-09 -5.576390E-11
        94  13 -3.730775E+06 -5.724893E+05 -7.282779E+03 -1.461705E+06 -1.304603E-09 -1.580456E-10
        94  14 -3.765583E+06 -5.363680E+05 -4.494746E+03 -1.421500E+06 -8.869414E-10  1.063510E-09
        94  15 -3.730627E+06 -5.716938E+05 -3.664081E+03 -1.461985E+06 -4.343115E-09 -5.304658E-10
        94  16 -3.312691E+06 -4.152383E+05  1.036257E+05 -1.348119E+06  2.346718E-10  1.429992E-10
        94  17 -3.463327E+06 -4.227497E+05  7.596689E+04 -1.339533E+06 -1.051911E-09  5.674269E-10
        94  18 -3.544176E+06 -5.016914E+05  4.640167E+04 -1.411628E+06 -2.112983E-09  9.936307E-10
        94  19 -4.148688E+06 -7.297290E+05 -1.182055E+05 -1.575221E+06  7.859380E+03 -1.334855E+04
        94  20 -4.067752E+06 -6.499810E+05 -8.496430E+04 -1.503432E+06  3.714910E+03 -9.360148E+03
        94  21 -3.917047E+06 -6.416947E+05 -5.373323E+04 -1.512329E+06 -4.814059E+02 -5.222870E+03
        94  22 -3.730775E+06 -5.724891E+05 -7.282296E+03 -1.461705E+06  9.999468E+03 -1.254748E+04
        94  23 -3.765583E+06 -5.363679E+05 -4.494544E+03 -1.421500E+06  5.920002E+03 -8.535647E+03
        94  24 -3.730627E+06 -5.716938E+05 -3.664039E+03 -1.461985E+06  1.789221E+03 -4.374862E+03
        94  25 -3.312691E+06 -4.152381E+05  1.036263E+05 -1.348119E+06  1.214115E+04 -1.174580E+04
        94  26 -3.463326E+06 -4.227496E+05  7.596712E+04 -1.339533E+06  8.126277E+03 -7.710704E+03
        94  27 -3.544175E+06 -5.016914E+05  4.640172E+04 -1.411628E+06  4.060585E+03 -3.526580E+03
        95   1 -3.733046E+06 -5.730344E+05 -4.017056E+03 -1.463218E+06  2.203320E+03  2.483985E+03
        95   2 -3.650606E+06 -4.926534E+05  2.584237E+04 -1.389856E+06  6.498705E+03 -1.670633E+03
        95   3 -3.497345E+06 -4.850858E+05  5.357277E+04 -1.398672E+06  1.077083E+04 -5.756805E+03
        95   4 -3.730378E+06 -5.719717E+05 -3.734796E+03 -1.462321E+06 -7.168028E+01  1.634568E+03
        95   5 -3.765841E+06 -5.359544E+05 -4.833374E+03 -1.421085E+06  4.253509E+03 -2.509326E+03
        95   6 -3.730501E+06 -5.727585E+05 -8.083792E+03 -1.462033E+06  8.554924E+03 -6.584902E+03
        95   7 -3.727710E+06 -5.709091E+05 -3.452510E+03 -1.461424E+06 -2.346698E+03  7.851424E+02
        95   8 -3.881064E+06 -5.792550E+05 -3.551044E+04 -1.452309E+06  2.008760E+03 -3.347851E+03
        95   9 -3.963606E+06 -6.604288E+05 -6.974558E+04 -1.525373E+06  6.339917E+03 -7.412663E+03
        95  10 -3.733046E+06 -5.730344E+05 -4.017076E+03 -1.463218E+06 -1.643655E-09 -7.145467E-10
        95  11 -3.650606E+06 -4.926534E+05  2.584228E+04 -1.389856E+06  5.761834E-10 -3.012491E-10
        95  12 -3.497346E+06 -4.850858E+05  5.357249E+04 -1.398672E+06 -1.135533E-10  1.224689E-10
        95  13 -3.730378E+06 -5.719717E+05 -3.734801E+03 -1.462321E+06  4.388213E-10 -2.794272E-10
        95  14 -3.765841E+06 -5.359545E+05 -4.833420E+03 -1.421085E+06  1.042129E-09 -1.190795E-10
        95  15 -3.730501E+06 -5.727586E+05 -8.084011E+03 -1.462033E+06  1.098011E-09  2.183952E-11
        95  16 -3.727711E+06 -5.709091E+05 -3.452522E+03 -1.461424E+06 -3.990254E-10 -7.558641E-10
        95  17 -3.881064E+06 -5.792550E+05 -3.551047E+04 -1.452309E+06  8.080675E-10 -5.498152E-11
        95  18 -3.963606E+06 -6.604288E+05 -6.974575E+04 -1.525373E+06 -6.172793E-10 -4.436372E-10
        95  19 -3.733046E+06 -5.730344E+05 -4.017056E+03 -1.463218E+06 -2.203320E+03 -2.483985E+03
        95  20 -3.650606E+06 -4.926534E+05  2.584237E+04 -1.389856E+06 -6.498705E+03  1.670633E+03
        95  21 -3.497345E+06 -4.850858E+05  5.357277E+04 -1.398672E+06 -1.077083E+04  5.756805E+03
        95  22 -3.730378E+06 -5.719717E+05 -3.734796E+03 -1.462321E+06  7.168028E+01 -1.634568E+03
        95  23 -3.765841E+06 -5.359544E+05 -4.833374E+03 -1.421085E+06 -4.253509E+03  2.509326E+03
        95  24 -3.730501E+06 -5.727585E+05 -8.083792E+03 -1.462033E+06 -8.554924E+03  6.584902E+03
        95  25 -3.727710E+06 -5.709091E+05 -3.452510E+03 -1.461424E+06  2.346698E+03 -7.851424E+02
        95  26 -3.881064E+06 -5.792550E+05 -3.551044E+04 -1.452309E+06 -2.008760E+03  3.347851E+03
        95  27 -3.963606E+06 -6.604288E+05 -6.974558E+04 -1.525373E+06 -6.339917E+03  7.412663E+03
        96   1 -3.318413E+06 -4.163173E+05  1.000095E+05 -1.350534E+06  1.341368E+04 -8.103128E+03
        96   2 -3.240620E+06 -3.389741E+05  1.214203E+05 -1.280196E+06  2.416934E+04 -9.588610E+03
        96   3 -3.099739E+06 -3.384138E+05  1.336860E+05 -1.285000E+06  3.477036E+04 -1.063738E+04
        96   4 -3.731865E+06 -5.707748E+05 -1.029887E+04 -1.461564E+06  1.115135E+04 -8.949282E+03
        96   5 -3.763947E+06 -5.361295E+05 -1.795605E+04 -1.422593E+06  2.209385E+04 -1.036649E+04
        96   6 -3.732991E+06 -5.783140E+05 -3.491237E+04 -1.458771E+06  3.287991E+04 -1.134747E+04
        96   7 -4.145147E+06 -7.252217E+05 -1.206213E+05 -1.572526E+06  8.890703E+03 -9.794819E+03
        96   8 -4.287006E+06 -7.332677E+05 -1.573557E+05 -1.564880E+06  2.002029E+04 -1.114365E+04
        96   9 -4.365853E+06 -8.181886E+05 -2.035456E+05 -1.632381E+06  3.099159E+04 -1.205675E+04
        96  10 -3.318414E+06 -4.163174E+05  1.000090E+05 -1.350534E+06 -1.036344E-09  3.420445E-10
        96  11 -3.240621E+06 -3.389744E+05  1.214190E+05 -1.280196E+06 -4.078735E-09  4.730659E-10
        96  12 -3.099741E+06 -3.384142E+05  1.336835E+05 -1.285000E+06 -2.288712E-09 -3.273385E-10
        96  13 -3.731865E+06 -5.707749E+05 -1.029925E+04 -1.461564E+06 -1.020070E-09  3.410075E-12
        96  14 -3.763948E+06 -5.361298E+05 -1.795717E+04 -1.422592E+06 -1.661613E-09  5.306214E-10
        96  15 -3.732992E+06 -5.783144E+05 -3.491465E+04 -1.458771E+06 -5.473506E-10  1.887097E-10
        96  16 -4.145147E+06 -7.252218E+05 -1.206216E+05 -1.572526E+06 -2.150269E-09 -1.784916E-10
        96  17 -4.287006E+06 -7.332679E+05 -1.573567E+05 -1.564880E+06 -1.040904E-09 -8.314027E-10
        96  18 -4.365854E+06 -8.181891E+05 -2.035477E+05 -1.632381E+06  2.315357E-09  3.968588E-10
        96  19 -3.318413E+06 -4.163173E+05  1.000095E+05 -1.350534E+06 -1.341368E+04  8.103128E+03
        96  20 -3.240620E+06 -3.389741E+05  1.214203E+05 -1.280196E+06 -2.416934E+04  9.588610E+03
        96  21 -3.099739E+06 -3.384138E+05  1.336860E+05 -1.285000E+06 -3.477036E+04  1.063738E+04
        96  22 -3.731865E+06 -5.707748E+05 -1.029887E+04 -1.461564E+06 -1.115135E+04  8.949282E+03
        96  23 -3.763947E+06 -5.361295E+05 -1.795605E+04 -1.422593E+06 -2.209385E+04  1.036649E+04
        96  24 -3.732991E+06 -5.783140E+05 -3.491237E+04 -1.458771E+06 -3.287991E+04  1.134747E+04
        96  25 -4.145147E+06 -7.252217E+05 -1.206213E+05 -1.572526E+06 -8.890703E+03  9.794819E+03
        96  26 -4.287006E+06 -7.332677E+05 -1.573557E+05 -1.564880E+06 -2.002029E+04  1.114365E+04
        96  27 -4.365853E+06 -8.181886E+05 -2.035456E+05 -1.632381E+06 -3.099159E+04  1.205675E+04
        97   1 -2.936138E+06 -2.729478E+05  1.678254E+05 -1.252186E+06  4.294102E+04 -1.094553E+04
        97   2 -2.866568E+06 -1.900148E+05  1.601038E+05 -1.180409E+06  8.350853E+04 -5.110096E+02
        97   3 -2.773843E+06 -2.473702E+05  1.010732E+05 -1.154068E+06  1.230150E+05  1.278794E+04
        97   4 -3.738340E+06 -5.668277E+05 -4.454889E+04 -1.461831E+06  4.039256E+04 -1.190316E+04
        97   5 -3.754493E+06 -5.291701E+05 -7.719024E+04 -1.426870E+06  8.218356E+04 -1.012937E+03
        97   6 -3.747794E+06 -6.321328E+05 -1.621753E+05 -1.437349E+06  1.229069E+05  1.273944E+04
        97   7 -4.539921E+06 -8.606790E+05 -2.569792E+05 -1.671235E+06  3.784771E+04 -1.285952E+04
        97   8 -4.641655E+06 -8.682731E+05 -3.145540E+05 -1.673010E+06  8.086061E+04 -1.514086E+03
        97   9 -4.720823E+06 -1.016814E+06 -4.255089E+05 -1.720218E+06  1.227987E+05  1.269096E+04
        97  10 -2.936140E+06 -2.729484E+05  1.678217E+05 -1.252186E+06 -3.088442E-10  5.454660E-12
        97  11 -2.866576E+06 -1.900167E+05  1.600907E+05 -1.180409E+06  3.698447E-10  1.991495E-11
        97  12 -2.773859E+06 -2.473744E+05  1.010443E+05 -1.154069E+06 -1.542666E-09  5.811656E-10
        97  13 -3.738342E+06 -5.668282E+05 -4.455223E+04 -1.461831E+06 -5.410537E-11 -1.128090E-10
        97  14 -3.754501E+06 -5.291720E+05 -7.720300E+04 -1.426870E+06 -5.801650E-10 -3.891686E-12
        97  15 -3.747810E+06 -6.321371E+05 -1.622041E+05 -1.437350E+06  6.340991E-10 -2.418401E-10
        97  16 -4.539922E+06 -8.606795E+05 -2.569822E+05 -1.671235E+06  9.117110E-10 -4.578545E-10
        97  17 -4.641662E+06 -8.682748E+05 -3.145664E+05 -1.673010E+06 -5.568297E-10 -1.697154E-10
        97  18 -4.720839E+06 -1.016818E+06 -4.255378E+05 -1.720219E+06 -3.750251E-10 -1.203177E-10
        97  19 -2.936138E+06 -2.729478E+05  1.678254E+05 -1.252186E+06 -4.294102E+04  1.094553E+04
        97  20 -2.866568E+06 -1.900148E+05  1.601038E+05 -1.180409E+06 -8.350853E+04  5.110096E+02
        97  21 -2.773843E+06 -2.473702E+05  1.010732E+05 -1.154068E+06 -1.230150E+05 -1.278794E+04
        97  22 -3.738340E+06 -5.668277E+05 -4.454889E+04 -1.461831E+06 -4.039256E+04  1.190316E+04
        97  23 -3.754493E+06 -5.291701E+05 -7.719024E+04 -1.426870E+06 -8.218356E+04  1.012937E+03
        97  24 -3.747794E+06 -6.321328E+05 -1.621753E+05 -1.437349E+06 -1.229069E+05 -1.273944E+04
        97  25 -4.539921E+06 -8.606790E+05 -2.569792E+05 -1.671235E+06 -3.784771E+04  1.285952E+04
        97  26 -4.641655E+06 -8.682731E+05 -3.145540E+05 -1.673010E+06 -8.086061E+04  1.514086E+03
        97  27 -4.720823E+06 -1.016814E+06 -4.255089E+05 -1.720218E+06 -1.227987E+05 -1.269096E+04
        98   1 -2.607291E+06 -1.741426E+05  9.872789E+04 -1.233775E+06  1.616726E+05  2.023088E+04
        98   2 -2.537079E+06  3.403149E+04 -1.093449E+04 -1.079668E+06  3.289819E+05  8.005405E+04
        98   3 -2.714983E+06 -5.201894E+05 -4.414748E+05 -7.859681E+05  4.851940E+05  1.692729E+05
        98   4 -3.776264E+06 -5.455275E+05 -1.989593E+05 -1.481381E+06  1.535978E+05  1.720200E+04
        98   5 -3.692308E+06 -4.488918E+05 -3.271941E+05 -1.443068E+06  3.337274E+05  8.181303E+04
        98   6 -3.859595E+06 -1.118113E+06 -7.869948E+05 -1.265017E+06  5.027493E+05  1.757682E+05
        98   7 -4.943905E+06 -9.169157E+05 -4.967514E+05 -1.728607E+06  1.455396E+05  1.417711E+04
        98   8 -4.846230E+06 -9.316479E+05 -6.435757E+05 -1.805823E+06  3.384627E+05  8.356718E+04
        98   9 -5.002866E+06 -1.715565E+06 -1.132643E+06 -1.743146E+06  5.202681E+05  1.822379E+05
        98  10 -2.607319E+06 -1.741501E+05  9.867777E+04 -1.233778E+06  2.446413E-10  6.895078E-10
        98  11 -2.537198E+06  3.399535E+04 -1.115096E+04 -1.079689E+06 -2.183450E-09 -5.233793E-10
        98  12 -2.715245E+06 -5.202838E+05 -4.419734E+05 -7.860344E+05 -5.193449E-10  2.398612E-10
        98  13 -3.776289E+06 -5.455342E+05 -1.990045E+05 -1.481384E+06 -1.213998E-09  5.770473E-10
        98  14 -3.692430E+06 -4.489292E+05 -3.274175E+05 -1.443090E+06 -3.625576E-09  2.298087E-11
        98  15 -3.859876E+06 -1.118215E+06 -7.875315E+05 -1.265088E+06  1.018991E-09 -7.711857E-10
        98  16 -4.943928E+06 -9.169216E+05 -4.967919E+05 -1.728609E+06 -3.408133E-10 -4.468871E-10
        98  17 -4.846356E+06 -9.316865E+05 -6.438061E+05 -1.805846E+06 -2.419221E-09 -1.131473E-10
        98  18 -5.003167E+06 -1.715674E+06 -1.133219E+06 -1.743223E+06 -1.600130E-09  1.736262E-11
        98  19 -2.607291E+06 -1.741426E+05  9.872789E+04 -1.233775E+06 -1.616726E+05 -2.023088E+04
        98  20 -2.537079E+06  3.403149E+04 -1.093449E+04 -1.079668E+06 -3.289819E+05 -8.005405E+04
        98  21 -2.714983E+06 -5.201894E+05 -4.414748E+05 -7.859681E+05 -4.851940E+05 -1.692729E+05
        98  22 -3.776264E+06 -5.455275E+05 -1.989593E+05 -1.481381E+06 -1.535978E+05 -1.720200E+04
        98  23 -3.692308E+06 -4.488918E+05 -3.271941E+05 -1.443068E+06 -3.337274E+05 -8.181303E+04
        98  24 -3.859595E+06 -1.118113E+06 -7.869948E+05 -1.265017E+06 -5.027493E+05 -1.757682E+05
        98  25 -4.943905E+06 -9.169157E+05 -4.967514E+05 -1.728607E+06 -1.455396E+05 -1.417711E+04
        98  26 -4.846230E+06 -9.316479E+05 -6.435757E+05 -1.805823E+06 -3.384627E+05 -8.356718E+04
        98  27 -5.002866E+06 -1.715565E+06 -1.132643E+06 -1.743146E+06 -5.202681E+05 -1.822379E+05
        99   1 -1.852079E+06 -2.897303E+05 -2.674267E+05 -3.252157E+04  3.907212E+04  1.405755E+04
        99   2 -1.772356E+06 -3.446314E+05 -2.850897E+05 -1.062717E+04  3.316364E+04  4.189570E+04
        99   3 -1.667984E+06 -3.150407E+05 -2.772630E+05 -6.009007E+04  2.735750E+04  3.886347E+04
        99   4 -4.153497E+05  6.887900E+04  8.784045E+04 -4.963972E+04  5.990130E+04  1.412843E+04
        99   5 -4.289228E+05 -1.098273E+04  3.812672E+04 -1.384666E+04  3.917094E+04  4.190589E+04
        99   6 -4.153251E+05 -3.873027E+03  2.416057E+04 -4.940009E+04  1.854451E+04  3.884224E+04
        99   7  1.023261E+06  4.273355E+05  4.429561E+05 -6.679922E+04  8.077861E+04  1.419808E+04
        99   8  9.161657E+05  3.225344E+05  3.612146E+05 -1.707427E+04  4.519115E+04  4.191601E+04
        99   9  8.387735E+05  3.071806E+05  3.254726E+05 -3.868902E+04  9.713733E+03  3.882073E+04
        99  10 -1.852080E+06 -2.897310E+05 -2.674299E+05 -3.252201E+04 -4.040849E-10  1.739519E-10
        99  11 -1.772357E+06 -3.446335E+05 -2.850950E+05 -1.062829E+04 -3.319493E-09 -1.164721E-09
        99  12 -1.667985E+06 -3.150426E+05 -2.772672E+05 -6.009093E+04 -2.279757E-09  2.635529E-10
        99  13 -4.153536E+05  6.887782E+04  8.783333E+04 -4.964040E+04  1.109278E-09 -1.154843E-09
        99  14 -4.289249E+05 -1.098503E+04  3.812053E+04 -1.384798E+04  1.605446E-10 -6.328136E-11
        99  15 -4.153259E+05 -3.874740E+03  2.415709E+04 -4.940067E+04 -8.203198E-10 -3.415833E-10
        99  16  1.023254E+06  4.273335E+05  4.429434E+05 -6.680014E+04  2.557021E-10  1.369928E-09
        99  17  9.161630E+05  3.225319E+05  3.612075E+05 -1.707579E+04  3.629276E-10 -1.047186E-09
        99  18  8.387730E+05  3.071790E+05  3.254696E+05 -3.868932E+04  7.271945E-10 -9.441069E-10
        99  19 -1.852079E+06 -2.897303E+05 -2.674267E+05 -3.252157E+04 -3.907212E+04 -1.405755E+04
        99  20 -1.772356E+06 -3.446314E+05 -2.850897E+05 -1.062717E+04 -3.316364E+04 -4.189570E+04
        99  21 -1.667984E+06 -3.150407E+05 -2.772630E+05 -6.009007E+04 -2.735750E+04 -3.886347E+04
        99  22 -4.153497E+05  6.887900E+04  8.784045E+04 -4.963972E+04 -5.990130E+04 -1.412843E+04
        99  23 -4.289228E+05 -1.098273E+04  3.812672E+04 -1.384666E+04 -3.917094E+04 -4.190589E+04
        99  24 -4.153251E+05 -3.873027E+03  2.416057E+04 -4.940009E+04 -1.854451E+04 -3.884224E+04
        99  25  1.023261E+06  4.273355E+05  4.429561E+05 -6.679922E+04 -8.077861E+04 -1.419808E+04
        99  26  9.161657E+05  3.225344E+05  3.612146E+05 -1.707427E+04 -4.519115E+04 -4.191601E+04
        99  27  8.387735E+05  3.071806E+05  3.254726E+05 -3.868902E+04 -9.713733E+03 -3.882073E+04
       100   1 -1.540434E+06 -2.712141E+05 -2.505853E+05 -4.918916E+04  1.475957E+04  3.226556E+04
       100   2 -1.448617E+06 -2.562905E+05 -2.372494E+05 -1.328975E+04  1.087078E+04  3.100923E+04
       100   3 -1.352492E+06 -2.320696E+05 -2.187454E+05 -5.108057E+04  6.976699E+03  2.728666E+04
       100   4 -4.202705E+05  7.126466E+03  1.969661E+04 -4.999520E+04  1.476910E+04  3.226170E+04
       100   5 -4.225058E+05 -1.420520E+03  9.869392E+03 -1.314913E+04  9.690649E+03  3.100489E+04
       100   6 -4.202406E+05 -4.711921E+02  6.030621E+03 -4.998558E+04  4.607488E+03  2.728366E+04
       100   7  7.010430E+05  2.853752E+05  2.898887E+05 -5.080307E+04  1.477862E+04  3.225784E+04
       100   8  6.045707E+05  2.533726E+05  2.569131E+05 -1.300846E+04  8.508562E+03  3.100054E+04
       100   9  5.128076E+05  2.310637E+05  2.307445E+05 -4.888893E+04  2.234721E+03  2.728065E+04
       100  10 -1.540435E+06 -2.712152E+05 -2.505877E+05 -4.918954E+04 -1.248151E-09  3.391097E-10
       100  11 -1.448617E+06 -2.562915E+05 -2.372515E+05 -1.329002E+04 -8.962548E-10 -5.997319E-10
       100  12 -1.352493E+06 -2.320704E+05 -2.187469E+05 -5.108073E+04  1.312466E-09 -1.640020E-09
       100  13 -4.202710E+05  7.125290E+03  1.969424E+04 -4.999558E+04 -2.077002E-09 -6.711895E-10
       100  14 -4.225062E+05 -1.421577E+03  9.867409E+03 -1.314937E+04 -1.887597E-09  1.006623E-09
       100  15 -4.202408E+05 -4.719970E+02  6.029182E+03 -4.998568E+04 -3.771285E-09 -9.116673E-10
       100  16  7.010425E+05  2.853741E+05  2.898864E+05 -5.080345E+04  3.922929E-11 -9.616648E-11
       100  17  6.045704E+05  2.533715E+05  2.569111E+05 -1.300868E+04  1.705482E-10  7.957218E-10
       100  18  5.128074E+05  2.310629E+05  2.307431E+05 -4.888898E+04 -1.478389E-09 -5.401823E-10
       100  19 -1.540434E+06 -2.712141E+05 -2.505853E+05 -4.918916E+04 -1.475957E+04 -3.226556E+04
       100  20 -1.448617E+06 -2.562905E+05 -2.372494E+05 -1.328975E+04 -1.087078E+04 -3.100923E+04
       100  21 -1.352492E+06 -2.320696E+05 -2.187454E+05 -5.108057E+04 -6.976699E+03 -2.728666E+04
       100  22 -4.202705E+05  7.126466E+03  1.969661E+04 -4.999520E+04 -1.476910E+04 -3.226170E+04
       100  23 -4.225058E+05 -1.420520E+03  9.869392E+03 -1.314913E+04 -9.690649E+03 -3.100489E+04
       100  24 -4.202406E+05 -4.711921E+02  6.030621E+03 -4.998558E+04 -4.607488E+03 -2.728366E+04
       100  25  7.010430E+05  2.853752E+05  2.898887E+05 -5.080307E+04 -1.477862E+04 -3.225784E+04
       100  26  6.045707E+05  2.533726E+05  2.569131E+05 -1.300846E+04 -8.508562E+03 -3.100054E+04
       100  27  5.128076E+05  2.310637E+05  2.307445E+05 -4.888893E+04 -2.234721E+03 -2.728065E+04
       101   1 -1.217912E+06 -1.972355E+05 -1.869916E+05 -5.004821E+04  5.325431E+03  2.472932E+04
       101   2 -1.122736E+06 -1.743843E+05 -1.663155E+05 -1.245844E+04  4.135933E+03  2.111702E+04
       101   3 -1.026610E+06 -1.504161E+05 -1.444784E+05 -4.990557E+04  2.940305E+03  1.728985E+04
       101   4 -4.209609E+05  6.461049E+02  4.706984E+03 -5.028782E+04  3.648558E+03  2.472753E+04
       101   5 -4.214293E+05 -2.207161E+02  2.567771E+03 -1.277203E+04  2.354461E+03  2.111651E+04
       101   6 -4.209382E+05  4.779469E+01  1.661809E+03 -5.028791E+04  1.054416E+03  1.729076E+04
       101   7  3.765728E+05  1.984814E+05  1.963603E+05 -5.052768E+04  1.969535E+03  2.472575E+04
       101   8  2.803284E+05  1.739070E+05  1.714160E+05 -1.308591E+04  5.709804E+02  2.111601E+04
       101   9  1.850699E+05  1.504849E+05  1.477758E+05 -5.067052E+04 -8.333092E+02  1.729167E+04
       101  10 -1.217912E+06 -1.972362E+05 -1.869928E+05 -5.004832E+04  4.511255E-12 -5.503370E-10
       101  11 -1.122736E+06 -1.743848E+05 -1.663164E+05 -1.245851E+04  6.723045E-10  1.212165E-09
       101  12 -1.026610E+06 -1.504164E+05 -1.444790E+05 -4.990561E+04  1.848310E-09 -3.171933E-10
       101  13 -4.209610E+05  6.454449E+02  4.705811E+03 -5.028789E+04 -1.064225E-09 -7.280213E-10
       101  14 -4.214294E+05 -2.211963E+02  2.566923E+03 -1.277207E+04  1.800813E-09  1.365095E-09
       101  15 -4.209382E+05  4.747341E+01  1.661245E+03 -5.028793E+04 -2.142683E-09  7.354368E-10
       101  16  3.765726E+05  1.984807E+05  1.963592E+05 -5.052772E+04 -4.408182E-11 -7.388739E-10
       101  17  2.803283E+05  1.739065E+05  1.714151E+05 -1.308592E+04 -1.139897E-09 -8.026009E-11
       101  18  1.850698E+05  1.504846E+05  1.477752E+05 -5.067051E+04 -1.946223E-09 -2.182065E-10
       101  19 -1.217912E+06 -1.972355E+05 -1.869916E+05 -5.004821E+04 -5.325431E+03 -2.472932E+04
       101  20 -1.122736E+06 -1.743843E+05 -1.663155E+05 -1.245844E+04 -4.135933E+03 -2.111702E+04
       101  21 -1.026610E+06 -1.504161E+05 -1.444784E+05 -4.990557E+04 -2.940305E+03 -1.728985E+04
       101  22 -4.209609E+05  6.461049E+02  4.706984E+03 -5.028782E+04 -3.648558E+03 -2.472753E+04
       101  23 -4.214293E+05 -2.207161E+02  2.567771E+03 -1.277203E+04 -2.354461E+03 -2.111651E+04
       101  24 -4.209382E+05  4.779469E+01  1.661809E+03 -5.028791E+04 -1.054416E+03 -1.729076E+04
       101  25  3.765728E+05  1.984814E+05  1.963603E+05 -5.052768E+04 -1.969535E+03 -2.472575E+04
       101  26  2.803284E+05  1.739070E+05  1.714160E+05 -1.308591E+04 -5.709804E+02 -2.111601E+04
       101  27  1.850699E+05  1.504849E+05  1.477758E+05 -5.067052E+04  8.333092E+02 -1.729167E+04
       102   1 -8.895077E+05 -1.161281E+05 -1.111557E+05 -5.003423E+04  2.612664E+03  1.502343E+04
       102   2 -7.928185E+05 -9.229826E+04 -8.850542E+04 -1.214727E+04  2.130100E+03  1.118464E+04
       102   3 -6.960767E+05 -6.814428E+04 -6.548227E+04 -5.010943E+04  1.644258E+03  7.319340E+03
       102   4 -4.210988E+05  1.235892E+02  1.338760E+03 -5.046884E+04  7.784102E+02  1.502501E+04
       102   5 -4.211161E+05 -6.801078E+00  9.884815E+02 -1.254560E+04  2.827086E+02  1.118692E+04
       102   6 -4.210859E+05  1.901708E+02  1.020985E+03 -5.046866E+04 -2.161955E+02  7.322362E+03
       102   7  4.751128E+04  1.163594E+05  1.138176E+05 -5.090370E+04 -1.057224E+03  1.502659E+04
       102   8 -4.928723E+04  9.227458E+04  9.047254E+04 -1.294412E+04 -1.565786E+03  1.118920E+04
       102   9 -1.460258E+05  6.851909E+04  6.751882E+04 -5.082801E+04 -2.077471E+03  7.325384E+03
       102  10 -8.895077E+05 -1.161284E+05 -1.111561E+05 -5.003427E+04 -1.437165E-10 -2.046461E-10
       102  11 -7.928185E+05 -9.229840E+04 -8.850566E+04 -1.214729E+04  3.203884E-10  4.584330E-10
       102  12 -6.960767E+05 -6.814434E+04 -6.548237E+04 -5.010944E+04 -1.611909E-10 -3.793110E-10
       102  13 -4.210988E+05  1.233467E+02  1.338334E+03 -5.046885E+04 -2.222474E-09 -1.053579E-09
       102  14 -4.211162E+05 -6.935459E+00  9.882462E+02 -1.254560E+04 -2.693919E-10  8.844068E-10
       102  15 -4.210859E+05  1.901132E+02  1.020884E+03 -5.046866E+04 -9.570258E-10 -8.324827E-10
       102  16  4.751122E+04  1.163591E+05  1.138172E+05 -5.090369E+04 -1.307255E-09 -2.368389E-10
       102  17 -4.928727E+04  9.227445E+04  9.047230E+04 -1.294410E+04  4.541462E-10 -1.707289E-10
       102  18 -1.460258E+05  6.851903E+04  6.751871E+04 -5.082800E+04 -1.195032E-09 -1.438687E-09
       102  19 -8.895077E+05 -1.161281E+05 -1.111557E+05 -5.003423E+04 -2.612664E+03 -1.502343E+04
       102  20 -7.928185E+05 -9.229826E+04 -8.850542E+04 -1.214727E+04 -2.130100E+03 -1.118464E+04
       102  21 -6.960767E+05 -6.814428E+04 -6.548227E+04 -5.010943E+04 -1.644258E+03 -7.319340E+03
       102  22 -4.210988E+05  1.235892E+02  1.338760E+03 -5.046884E+04 -7.784102E+02 -1.502501E+04
       102  23 -4.211161E+05 -6.801078E+00  9.884815E+02 -1.254560E+04 -2.827086E+02 -1.118692E+04
       102  24 -4.210859E+05  1.901708E+02  1.020985E+03 -5.046866E+04  2.161955E+02 -7.322362E+03
       102  25  4.751128E+04  1.163594E+05  1.138176E+05 -5.090370E+04  1.057224E+03 -1.502659E+04
       102  26 -4.928723E+04  9.227458E+04  9.047254E+04 -1.294412E+04  1.565786E+03 -1.118920E+04
       102  27 -1.460258E+05  6.851909E+04  6.751882E+04 -5.082801E+04  2.077471E+03 -7.325384E+03
       103   1 -5.577609E+05 -3.370978E+04 -3.147975E+04 -5.032827E+04  1.445451E+03  5.060619E+03
       103   2 -4.605792E+05 -9.798930E+03 -7.895032E+03 -1.239276E+04  6.300907E+02  1.187877E+03
       103   3 -3.634905E+05  1.460717E+04  1.627224E+04 -5.062130E+04 -1.857315E+02 -2.675992E+03
       103   4 -4.211032E+05  1.575347E+02  1.121310E+03 -5.053933E+04 -4.151323E+02  5.063920E+03
       103   5 -4.210505E+05  1.396088E+01  1.620463E+03 -1.245726E+04 -1.226427E+03  1.191230E+03
       103   6 -4.211016E+05  3.652325E+02  2.699563E+03 -5.053892E+04 -2.038058E+03 -2.672557E+03
       103   7 -2.844284E+05  3.402350E+04  3.372107E+04 -5.075043E+04 -2.276124E+03  5.067221E+03
       103   8 -3.815203E+05  9.826740E+03  1.113586E+04 -1.252176E+04 -3.083062E+03  1.194582E+03
       103   9 -4.787096E+05 -1.387694E+04 -1.087333E+04 -5.045654E+04 -3.890213E+03 -2.669121E+03
       103  10 -5.577609E+05 -3.370981E+04 -3.147980E+04 -5.032827E+04 -1.488311E-10  6.472841E-10
       103  11 -4.605792E+05 -9.798932E+03 -7.895036E+03 -1.239276E+04 -4.702247E-10  2.756334E-09
       103  12 -3.634905E+05  1.460716E+04  1.627222E+04 -5.062130E+04  1.215776E-09 -7.659038E-10
       103  13 -4.211032E+05  1.575071E+02  1.121262E+03 -5.053933E+04 -2.158228E-09 -2.586999E-10
       103  14 -4.210505E+05  1.395895E+01  1.620458E+03 -1.245726E+04 -9.575425E-10 -8.306005E-10
       103  15 -4.211016E+05  3.652237E+02  2.699541E+03 -5.053892E+04 -3.131904E-10  7.014099E-10
       103  16 -2.844284E+05  3.402347E+04  3.372101E+04 -5.075042E+04 -1.270803E-09 -2.623044E-10
       103  17 -3.815203E+05  9.826736E+03  1.113584E+04 -1.252176E+04 -2.160898E-09 -5.484548E-10
       103  18 -4.787096E+05 -1.387695E+04 -1.087337E+04 -5.045655E+04 -9.340290E-11  4.854020E-10
       103  19 -5.577609E+05 -3.370978E+04 -3.147975E+04 -5.032827E+04 -1.445451E+03 -5.060619E+03
       103  20 -4.605792E+05 -9.798930E+03 -7.895032E+03 -1.239276E+04 -6.300907E+02 -1.187877E+03
       103  21 -3.634905E+05  1.460717E+04  1.627224E+04 -5.062130E+04  1.857315E+02  2.675992E+03
       103  22 -4.211032E+05  1.575347E+02  1.121310E+03 -5.053933E+04  4.151323E+02 -5.063920E+03
       103  23 -4.210505E+05  1.396088E+01  1.620463E+03 -1.245726E+04  1.226427E+03 -1.191230E+03
       103  24 -4.211016E+05  3.652325E+02  2.699563E+03 -5.053892E+04  2.038058E+03  2.672557E+03
       103  25 -2.844284E+05  3.402350E+04  3.372107E+04 -5.075043E+04  2.276124E+03 -5.067221E+03
       103  26 -3.815203E+05  9.826740E+03  1.113586E+04 -1.252176E+04  3.083062E+03 -1.194582E+03
       103  27 -4.787096E+05 -1.387694E+04 -1.087333E+04 -5.045654E+04  3.890213E+03  2.669121E+03
       104   1 -2.248053E+05  4.882422E+04  5.096275E+04 -5.048377E+04 -7.050001E+02 -4.952303E+03
       104   2 -1.283229E+05  7.244238E+04  7.636427E+04 -1.290350E+04 -3.723364E+03 -8.815437E+03
       104   3 -3.097642E+04  9.866632E+04  1.043394E+05 -5.128754E+04 -6.739494E+03 -1.252706E+04
       104   4 -4.209012E+05  9.340447E+01  3.469878E+03 -5.049625E+04 -2.597115E+03 -4.948966E+03
       104   5 -4.213275E+05 -2.796341E+02  5.848518E+03 -1.251166E+04 -5.541621E+03 -8.812799E+03
       104   6 -4.209104E+05  1.941721E+03  1.075107E+04 -5.049354E+04 -8.483430E+03 -1.252506E+04
       104   7 -6.169619E+05 -4.864023E+04 -4.402575E+04 -5.050872E+04 -4.488633E+03 -4.945629E+03
       104   8 -7.142534E+05 -7.300790E+04 -6.467334E+04 -1.211997E+04 -7.359023E+03 -8.810163E+03
       104   9 -8.107050E+05 -9.479393E+04 -8.284801E+04 -4.969998E+04 -1.022627E+04 -1.252306E+04
       104  10 -2.248053E+05  4.882420E+04  5.096270E+04 -5.048377E+04 -2.604293E-11 -1.132813E-09
       104  11 -1.283230E+05  7.244229E+04  7.636410E+04 -1.290353E+04  1.800794E-09 -9.530878E-11
       104  12 -3.097651E+04  9.866614E+04  1.043390E+05 -5.128761E+04 -2.384719E-09 -2.134479E-10
       104  13 -4.209012E+05  9.337636E+01  3.469820E+03 -5.049626E+04 -2.064413E-09  6.944666E-10
       104  14 -4.213275E+05 -2.797257E+02  5.848314E+03 -1.251170E+04  2.282184E-09 -1.072612E-09
       104  15 -4.209105E+05  1.941533E+03  1.075064E+04 -5.049362E+04  9.744054E-10 -1.088234E-09
       104  16 -6.169619E+05 -4.864027E+04 -4.402583E+04 -5.050873E+04 -1.902505E-09  6.835571E-10
       104  17 -7.142535E+05 -7.300800E+04 -6.467359E+04 -1.212002E+04 -2.449129E-10  1.481859E-09
       104  18 -8.107052E+05 -9.479413E+04 -8.284850E+04 -4.970008E+04 -1.761410E-12 -2.188827E-10
       104  19 -2.248053E+05  4.882422E+04  5.096275E+04 -5.048377E+04  7.050001E+02  4.952303E+03
       104  20 -1.283229E+05  7.244238E+04  7.636427E+04 -1.290350E+04  3.723364E+03  8.815437E+03
       104  21 -3.097642E+04  9.866632E+04  1.043394E+05 -5.128754E+04  6.739494E+03  1.252706E+04
       104  22 -4.209012E+05  9.340447E+01  3.469878E+03 -5.049625E+04  2.597115E+03  4.948966E+03
       104  23 -4.213275E+05 -2.796341E+02  5.848518E+03 -1.251166E+04  5.541621E+03  8.812799E+03
       104  24 -4.209104E+05  1.941721E+03  1.075107E+04 -5.049354E+04  8.483430E+03  1.252506E+04
       104  25 -6.169619E+05 -4.864023E+04 -4.402575E+04 -5.050872E+04  4.488633E+03  4.945629E+03
       104  26 -7.142534E+05 -7.300790E+04 -6.467334E+04 -1.211997E+04  7.359023E+03  8.810163E+03
       104  27 -8.107050E+05 -9.479393E+04 -8.284801E+04 -4.969998E+04  1.022627E+04  1.252306E+04
       105   1  1.081712E+05  1.302346E+05  1.409722E+05 -4.847128E+04 -8.400103E+03 -1.502700E+04
       105   2  2.004637E+05  1.519943E+05  1.729784E+05 -1.428750E+04 -2.106958E+04 -1.881957E+04
       105   3  3.002921E+05  1.959637E+05  2.188478E+05 -5.533237E+04 -3.373500E+04 -2.079630E+04
       105   4 -4.194936E+05 -7.545607E+02  1.373799E+04 -5.033646E+04 -1.065749E+04 -1.502493E+04
       105   5 -4.231931E+05 -2.760187E+03  2.293746E+04 -1.271457E+04 -2.244451E+04 -1.881968E+04
       105   6 -4.195084E+05  1.730408E+04  4.539853E+04 -5.032556E+04 -3.422553E+04 -2.079790E+04
       105   7 -9.469036E+05 -1.317640E+05 -1.135161E+05 -5.219996E+04 -1.291296E+04 -1.502283E+04
       105   8 -1.046494E+06 -1.575431E+05 -1.271312E+05 -1.114315E+04 -2.381806E+04 -1.881980E+04
       105   9 -1.138835E+06 -1.613932E+05 -1.280877E+05 -4.532449E+04 -3.471549E+04 -2.079951E+04
       105  10  1.081710E+05  1.302343E+05  1.409717E+05 -4.847138E+04 -1.719904E-09  1.937656E-10
       105  11  2.004631E+05  1.519938E+05  1.729769E+05 -1.428782E+04 -1.315827E-09 -8.214070E-10
       105  12  3.002908E+05  1.959629E+05  2.188448E+05 -5.533294E+04 -2.620721E-09  1.421190E-10
       105  13 -4.194938E+05 -7.548336E+02  1.373735E+04 -5.033659E+04  1.060245E-09  2.269515E-10
       105  14 -4.231938E+05 -2.760703E+03  2.293584E+04 -1.271491E+04 -2.695973E-10  1.177853E-09
       105  15 -4.195098E+05  1.730330E+04  4.539551E+04 -5.032613E+04 -4.152494E-10  2.218927E-10
       105  16 -9.469039E+05 -1.317643E+05 -1.135169E+05 -5.220011E+04  3.280219E-09  1.953180E-10
       105  17 -1.046495E+06 -1.575436E+05 -1.271329E+05 -1.114351E+04 -2.021943E-10  6.942347E-10
       105  18 -1.138836E+06 -1.613940E+05 -1.280908E+05 -4.532507E+04  2.213630E-09  3.267951E-10
       105  19  1.081712E+05  1.302346E+05  1.409722E+05 -4.847128E+04  8.400103E+03  1.502700E+04
       105  20  2.004637E+05  1.519943E+05  1.729784E+05 -1.428750E+04  2.106958E+04  1.881957E+04
       105  21  3.002921E+05  1.959637E+05  2.188478E+05 -5.533237E+04  3.373500E+04  2.079630E+04
       105  22 -4.194936E+05 -7.545607E+02  1.373799E+04 -5.033646E+04  1.065749E+04  1.502493E+04
       105  23 -4.231931E+05 -2.760187E+03  2.293746E+04 -1.271457E+04  2.244451E+04  1.881968E+04
       105  24 -4.195084E+05  1.730408E+04  4.539853E+04 -5.032556E+04  3.422553E+04  2.079790E+04
       105  25 -9.469036E+05 -1.317640E+05 -1.135161E+05 -5.219996E+04  1.291296E+04  1.502283E+04
       105  26 -1.046494E+06 -1.575431E+05 -1.271312E+05 -1.114315E+04  2.381806E+04  1.881980E+04
       105  27 -1.138835E+06 -1.613932E+05 -1.280877E+05 -4.532449E+04  3.471549E+04  2.079951E+04
       106   1  4.474668E+05  2.041817E+05  2.613522E+05 -2.940827E+04 -3.588982E+04 -2.628131E+04
       106   2  5.126388E+05  2.111951E+05  3.165831E+05 -2.673106E+04 -9.466359E+04 -2.959737E+04
       106   3  6.371759E+05  4.203351E+05  4.608314E+05 -9.771267E+04 -1.534658E+05 -1.012946E+04
       106   4 -4.084324E+05 -8.128560E+03  5.561302E+04 -4.994882E+04 -4.291484E+04 -2.628109E+04
       106   5 -4.371935E+05 -2.438254E+04  8.839431E+04 -1.318799E+04 -9.068114E+04 -2.960075E+04
       106   6 -4.084210E+05  1.597415E+05  2.026403E+05 -5.008558E+04 -1.384657E+05 -1.012751E+04
       106   7 -1.263660E+06 -2.204905E+05 -1.501778E+05 -7.046090E+04 -4.993019E+04 -2.628041E+04
       106   8 -1.386200E+06 -2.600251E+05 -1.398585E+05  3.342174E+02 -8.670466E+04 -2.960397E+04
       106   9 -1.453019E+06 -1.009251E+05 -5.562978E+04 -2.538947E+03 -1.234906E+05 -1.012326E+04
       106  10  4.474652E+05  2.041806E+05  2.613485E+05 -2.940903E+04  1.875047E-11 -8.014060E-11
       106  11  5.126289E+05  2.111917E+05  3.165646E+05 -2.673332E+04 -8.110841E-12 -1.177801E-09
       106  12  6.371506E+05  4.203287E+05  4.607870E+05 -9.771392E+04  5.183495E-10 -6.730988E-10
       106  13 -4.084346E+05 -8.129797E+03  5.560826E+04 -4.994973E+04 -1.795999E-10 -2.359364E-10
       106  14 -4.372026E+05 -2.438569E+04  8.837720E+04 -1.319015E+04  2.275158E-10 -1.754911E-10
       106  15 -4.084416E+05  1.597362E+05  2.026041E+05 -5.008671E+04  6.921479E-10 -5.656995E-10
       106  16 -1.263663E+06 -2.204919E+05 -1.501838E+05 -7.046196E+04 -2.615773E-10 -3.204918E-10
       106  17 -1.386208E+06 -2.600281E+05 -1.398743E+05  3.321487E+02 -2.702289E-09 -3.844540E-10
       106  18 -1.453035E+06 -1.009293E+05 -5.565870E+04 -2.539955E+03  1.303130E-09 -6.535221E-10
       106  19  4.474668E+05  2.041817E+05  2.613522E+05 -2.940827E+04  3.588982E+04  2.628131E+04
       106  20  5.126388E+05  2.111951E+05  3.165831E+05 -2.673106E+04  9.466359E+04  2.959737E+04
       106  21  6.371759E+05  4.203351E+05  4.608314E+05 -9.771267E+04  1.534658E+05  1.012946E+04
       106  22 -4.084324E+05 -8.128560E+03  5.561302E+04 -4.994882E+04  4.291484E+04  2.628109E+04
       106  23 -4.371935E+05 -2.438254E+04  8.839431E+04 -1.318799E+04  9.068114E+04  2.960075E+04
       106  24 -4.084210E+05  1.597415E+05  2.026403E+05 -5.008558E+04  1.384657E+05  1.012751E+04
       106  25 -1.263660E+06 -2.204905E+05 -1.501778E+05 -7.046090E+04  4.993019E+04  2.628041E+04
       106  26 -1.386200E+06 -2.600251E+05 -1.398585E+05  3.342174E+02  8.670466E+04  2.960397E+04
       106  27 -1.453019E+06 -1.009251E+05 -5.562978E+04 -2.538947E+03  1.234906E+05  1.012326E+04
       107   1  2.854210E+05  5.200418E+05  2.974894E+05 -2.355270E+05  3.092340E+03  1.667031E+05
       107   2  1.185483E+05  4.064440E+05  1.594738E+05 -1.615331E+05  1.088464E+04  9.557828E+04
       107   3  5.421367E+04  3.275656E+05  9.336440E+04 -1.059823E+05  9.975901E+03  2.443120E+04
       107   4  1.933035E+05  1.528028E+05  2.102273E+05 -1.092656E+05  3.219408E+03  1.439465E+05
       107   5  5.337927E+04  1.369034E+05  1.061024E+05 -1.004186E+05  1.091929E+04  8.953925E+04
       107   6  1.310616E+04  1.528298E+05  6.230130E+04 -1.100028E+05  9.931297E+03  3.509760E+04
       107   7  1.012358E+05 -2.142777E+05  1.229661E+05  1.692081E+04  3.337270E+03  1.212033E+05
       107   8 -1.178029E+04 -1.325598E+05  5.272956E+04 -3.933104E+04  1.095276E+04  8.350278E+04
       107   9 -2.800291E+04 -2.187586E+04  3.123750E+04 -1.140221E+05  9.886547E+03  4.576109E+04
       107  10  2.854136E+05  5.200120E+05  2.974372E+05 -2.355274E+05 -9.008432E-10  6.902160E-10
       107  11  1.185457E+05  4.064342E+05  1.594564E+05 -1.615340E+05 -3.122417E-09 -2.755692E-09
       107  12  5.421340E+04  3.275649E+05  9.336310E+04 -1.059825E+05 -2.418722E-09  3.658579E-10
       107  13  1.932979E+05  1.527805E+05  2.101883E+05 -1.092659E+05 -6.415245E-10 -5.053254E-12
       107  14  5.337699E+04  1.368948E+05  1.060871E+05 -1.004194E+05 -3.884252E-10 -1.398608E-10
       107  15  1.310572E+04  1.528285E+05  6.229880E+04 -1.100031E+05  3.321568E-09 -8.499500E-10
       107  16  1.012319E+05 -2.142935E+05  1.229385E+05  1.692049E+04 -1.454580E-09 -6.667360E-11
       107  17 -1.178230E+04 -1.325673E+05  5.271623E+04 -3.933177E+04 -6.643251E-10  2.342650E-09
       107  18 -2.800357E+04 -2.187814E+04  3.123338E+04 -1.140224E+05  3.491018E-10  9.760971E-10
       107  19  2.854210E+05  5.200418E+05  2.974894E+05 -2.355270E+05 -3.092340E+03 -1.667031E+05
       107  20  1.185483E+05  4.064440E+05  1.594738E+05 -1.615331E+05 -1.088464E+04 -9.557828E+04
       107  21  5.421367E+04  3.275656E+05  9.336440E+04 -1.059823E+05 -9.975901E+03 -2.443120E+04
       107  22  1.933035E+05  1.528028E+05  2.102273E+05 -1.092656E+05 -3.219408E+03 -1.439465E+05
       107  23  5.337927E+04  1.369034E+05  1.061024E+05 -1.004186E+05 -1.091929E+04 -8.953925E+04
       107  24  1.310616E+04  1.528298E+05  6.230130E+04 -1.100028E+05 -9.931297E+03 -3.509760E+04
       107  25  1.012358E+05 -2.142777E+05  1.229661E+05  1.692081E+04 -3.337270E+03 -1.212033E+05
       107  26 -1.178029E+04 -1.325598E+05  5.272956E+04 -3.933104E+04 -1.095276E+04 -8.350278E+04
       107  27 -2.800291E+04 -2.187586E+04  3.123750E+04 -1.140221E+05 -9.886547E+03 -4.576109E+04
       108   1  3.875475E+04  2.594953E+05  7.064487E+04 -1.165668E+05  6.469608E+03  1.629102E+04
       108   2  8.532271E+03  1.603130E+05  4.059024E+04 -1.012156E+05  1.157989E+03 -2.883709E+03
       108   3 -1.064597E+04  6.620288E+04  2.572505E+04 -1.050783E+05 -4.228608E+03 -2.205592E+04
       108   4  1.217638E+04  1.468790E+05  5.065897E+04 -1.101017E+05  6.426670E+03  2.657287E+04
       108   5  4.824072E+03  1.443602E+05  3.803386E+04 -1.005030E+05  1.114232E+03  7.542937E+03
       108   6  8.491775E+03  1.468801E+05  4.049935E+04 -1.101172E+05 -4.272852E+03 -1.148726E+04
       108   7 -1.440247E+04  3.427530E+04  3.067302E+04 -1.036379E+05  6.383942E+03  3.685290E+04
       108   8  1.115920E+03  1.284078E+05  3.547787E+04 -9.979034E+04  1.070499E+03  1.796932E+04
       108   9  2.762931E+04  2.275639E+05  5.527380E+04 -1.151568E+05 -4.317264E+03 -9.172623E+02
       108  10  3.875463E+04  2.594950E+05  7.064429E+04 -1.165669E+05 -7.750442E-11  1.885722E-09
       108  11  8.532268E+03  1.603130E+05  4.059022E+04 -1.012156E+05  2.582876E-09 -2.131950E-09
       108  12 -1.064612E+04  6.620235E+04  2.572411E+04 -1.050783E+05 -9.670741E-10  1.056884E-09
       108  13  1.217615E+04  1.468782E+05  5.065757E+04 -1.101019E+05  2.655399E-09  2.300862E-11
       108  14  4.824056E+03  1.443601E+05  3.803375E+04 -1.005030E+05  1.777630E-09  2.288452E-10
       108  15  8.491720E+03  1.468799E+05  4.049906E+04 -1.101172E+05  3.946373E-10 -6.561622E-10
       108  16 -1.440288E+04  3.427384E+04  3.067039E+04 -1.036381E+05 -1.954714E-09 -1.534003E-09
       108  17  1.115832E+03  1.284074E+05  3.547727E+04 -9.979036E+04 -7.990094E-10  1.569118E-09
       108  18  2.762929E+04  2.275639E+05  5.527377E+04 -1.151568E+05 -8.077948E-10  9.841982E-10
       108  19  3.875475E+04  2.594953E+05  7.064487E+04 -1.165668E+05 -6.469608E+03 -1.629102E+04
       108  20  8.532271E+03  1.603130E+05  4.059024E+04 -1.012156E+05 -1.157989E+03  2.883709E+03
       108  21 -1.064597E+04  6.620288E+04  2.572505E+04 -1.050783E+05  4.228608E+03  2.205592E+04
       108  22  1.217638E+04  1.468790E+05  5.065897E+04 -1.101017E+05 -6.426670E+03 -2.657287E+04
       108  23  4.824072E+03  1.443602E+05  3.803386E+04 -1.005030E+05 -1.114232E+03 -7.542937E+03
       108  24  8.491775E+03  1.468801E+05  4.049935E+04 -1.101172E+05  4.272852E+03  1.148726E+04
       108  25 -1.440247E+04  3.427530E+04  3.067302E+04 -1.036379E+05 -6.383942E+03 -3.685290E+04
       108  26  1.115920E+03  1.284078E+05  3.547787E+04 -9.979034E+04 -1.070499E+03 -1.796932E+04
       108  27  2.762931E+04  2.275639E+05  5.527380E+04 -1.151568E+05  4.317264E+03  9.172623E+02
       109   1 -2.454212E+04  7.733945E+03  2.047674E+04 -1.122919E+05 -7.796692E+03 -2.908582E+04
       109   2 -2.202422E+04 -9.789466E+04  2.481154E+04 -5.974809E+04 -9.407246E+03 -5.082265E+04
       109   3  4.379072E+04 -1.850277E+05  5.908738E+04 -2.578259E+04 -3.039773E+03 -7.252400E+04
       109   4  9.129163E+03  1.504543E+05  4.624850E+04 -1.100210E+05 -7.842470E+03 -1.816955E+04
       109   5  3.542684E+04  1.398779E+05  7.231462E+04 -1.004920E+05 -9.385346E+03 -5.523925E+04
       109   6  1.276615E+05  1.504326E+05  1.389591E+05 -1.095353E+05 -2.948599E+03 -9.227721E+04
       109   7  4.279940E+04  2.931947E+05  7.201990E+04 -1.077496E+05 -7.888162E+03 -7.250849E+03
       109   8  9.288057E+04  3.777080E+05  1.198158E+05 -1.412519E+05 -9.362872E+03 -5.965750E+04
       109   9  2.115504E+05  4.860118E+05  2.188281E+05 -1.933334E+05 -2.852122E+03 -1.120410E+05
       109  10 -2.454242E+04  7.733021E+03  2.047504E+04 -1.122921E+05 -1.325403E-09  2.108309E-09
       109  11 -2.202501E+04 -9.789746E+04  2.480652E+04 -5.974848E+04  5.841114E-10 -1.341651E-09
       109  12  4.378930E+04 -1.850334E+05  5.907748E+04 -2.578277E+04  5.726090E-11  1.467497E-09
       109  13  9.129008E+03  1.504539E+05  4.624776E+04 -1.100212E+05 -1.603521E-09 -4.804557E-11
       109  14  3.542592E+04  1.398746E+05  7.230872E+04 -1.004925E+05 -2.930978E-09 -4.363110E-11
       109  15  1.276592E+05  1.504235E+05  1.389431E+05 -1.095355E+05 -1.398617E-09 -7.828402E-10
       109  16  4.279932E+04  2.931946E+05  7.201969E+04 -1.077497E+05 -5.123581E-10 -1.570340E-09
       109  17  9.287952E+04  3.777041E+05  1.198089E+05 -1.412523E+05 -7.720714E-10  9.324391E-10
       109  18  2.115471E+05  4.859984E+05  2.188046E+05 -1.933336E+05  7.582338E-10  1.276864E-10
       109  19 -2.454212E+04  7.733945E+03  2.047674E+04 -1.122919E+05  7.796692E+03  2.908582E+04
       109  20 -2.202422E+04 -9.789466E+04  2.481154E+04 -5.974809E+04  9.407246E+03  5.082265E+04
       109  21  4.379072E+04 -1.850277E+05  5.908738E+04 -2.578259E+04  3.039773E+03  7.252400E+04
       109  22  9.129163E+03  1.504543E+05  4.624850E+04 -1.100210E+05  7.842470E+03  1.816955E+04
       109  23  3.542684E+04  1.398779E+05  7.231462E+04 -1.004920E+05  9.385346E+03  5.523925E+04
       109  24  1.276615E+05  1.504326E+05  1.389591E+05 -1.095353E+05  2.948599E+03  9.227721E+04
       109  25  4.279940E+04  2.931947E+05  7.201990E+04 -1.077496E+05  7.888162E+03  7.250849E+03
       109  26  9.288057E+04  3.777080E+05  1.198158E+05 -1.412519E+05  9.362872E+03  5.965750E+04
       109  27  2.115504E+05  4.860118E+05  2.188281E+05 -1.933334E+05  2.852122E+03  1.120410E+05
       110   1 -4.814144E+06 -1.570284E+06 -1.009273E+06 -1.678648E+06 -4.689330E+05 -1.647343E+05
       110   2 -4.688361E+06 -8.784171E+05 -5.742954E+05 -1.749254E+06 -3.052887E+05 -7.638201E+04
       110   3 -4.805946E+06 -8.668189E+05 -4.477141E+05 -1.678015E+06 -1.321637E+05 -1.301174E+04
       110   4 -3.829461E+06 -1.048990E+06 -7.103110E+05 -1.259965E+06 -4.535775E+05 -1.590517E+05
       110   5 -3.671446E+06 -4.519131E+05 -2.952872E+05 -1.428462E+06 -3.008662E+05 -7.473846E+04
       110   6 -3.754216E+06 -5.323084E+05 -1.795690E+05 -1.455237E+06 -1.386753E+05 -1.545779E+04
       110   7 -2.843777E+06 -5.273267E+05 -4.114424E+05 -8.405840E+05 -4.381945E+05 -1.533495E+05
       110   8 -2.653517E+06 -2.527795E+04 -1.637417E+04 -1.107168E+06 -2.964353E+05 -7.309094E+04
       110   9 -2.701410E+06 -1.978022E+05  8.848947E+04 -1.232151E+06 -1.451990E+05 -1.790671E+04
       110  10 -4.814389E+06 -1.570373E+06 -1.009742E+06 -1.678710E+06  7.209708E-11  2.292828E-10
       110  11 -4.688464E+06 -8.784487E+05 -5.744831E+05 -1.749273E+06  1.164541E-09  7.369765E-10
       110  12 -4.805965E+06 -8.668238E+05 -4.477475E+05 -1.678016E+06 -1.698508E-09 -9.808988E-11
       110  13 -3.829690E+06 -1.049073E+06 -7.107481E+05 -1.260023E+06 -4.342238E-10 -8.910264E-10
       110  14 -3.671545E+06 -4.519437E+05 -2.954690E+05 -1.428481E+06 -6.092925E-10 -9.084334E-10
       110  15 -3.754237E+06 -5.323139E+05 -1.796059E+05 -1.455239E+06 -1.434849E-09  1.319674E-10
       110  16 -2.843991E+06 -5.274039E+05 -4.118495E+05 -8.406383E+05  2.519185E-10  2.275698E-10
       110  17 -2.653613E+06 -2.530746E+04 -1.655022E+04 -1.107186E+06  1.410507E-09 -1.511475E-09
       110  18 -2.701433E+06 -1.978083E+05  8.844906E+04 -1.232153E+06 -3.068740E-10 -3.073660E-10
       110  19 -4.814144E+06 -1.570284E+06 -1.009273E+06 -1.678648E+06  4.689330E+05  1.647343E+05
       110  20 -4.688361E+06 -8.784171E+05 -5.742954E+05 -1.749254E+06  3.052887E+05  7.638201E+04
       110  21 -4.805946E+06 -8.668189E+05 -4.477141E+05 -1.678015E+06  1.321637E+05  1.301174E+04
       110  22 -3.829461E+06 -1.048990E+06 -7.103110E+05 -1.259965E+06  4.535775E+05  1.590517E+05
       110  23 -3.671446E+06 -4.519131E+05 -2.952872E+05 -1.428462E+06  3.008662E+05  7.473846E+04
       110  24 -3.754216E+06 -5.323084E+05 -1.795690E+05 -1.455237E+06  1.386753E+05  1.545779E+04
       110  25 -2.843777E+06 -5.273267E+05 -4.114424E+05 -8.405840E+05  4.381945E+05  1.533495E+05
       110  26 -2.653517E+06 -2.527795E+04 -1.637417E+04 -1.107168E+06  2.964353E+05  7.309094E+04
       110  27 -2.701410E+06 -1.978022E+05  8.848947E+04 -1.232151E+06  1.451990E+05  1.790671E+04
       111   1 -4.639721E+06 -9.703241E+05 -3.929073E+05 -1.680016E+06 -1.115246E+05 -1.074212E+04
       111   2 -4.583931E+06 -8.515784E+05 -2.987219E+05 -1.651309E+06 -7.403259E+04  2.920822E+03
       111   3 -4.521327E+06 -8.463743E+05 -2.526600E+05 -1.647969E+06 -3.560608E+04  1.410378E+04
       111   4 -3.728454E+06 -6.104387E+05 -1.463456E+05 -1.415487E+06 -1.112614E+05 -1.064949E+04
       111   5 -3.727735E+06 -5.243996E+05 -6.966596E+04 -1.413840E+06 -7.482475E+04  2.619212E+03
       111   6 -3.719950E+06 -5.516218E+05 -4.021298E+04 -1.437567E+06 -3.745797E+04  1.340642E+04
       111   7 -2.816377E+06 -2.504812E+05  1.001420E+05 -1.150597E+06 -1.109977E+05 -1.055663E+04
       111   8 -2.870825E+06 -1.971712E+05  1.593257E+05 -1.176072E+06 -7.561807E+04  2.317161E+03
       111   9 -2.917950E+06 -2.568389E+05  1.721785E+05 -1.226921E+06 -3.931249E+04  1.270814E+04
       111  10 -4.639734E+06 -9.703276E+05 -3.929310E+05 -1.680017E+06 -3.896324E-09 -7.864251E-11
       111  11 -4.583937E+06 -8.515799E+05 -2.987323E+05 -1.651309E+06  1.869338E-10  6.025175E-10
       111  12 -4.521328E+06 -8.463748E+05 -2.526627E+05 -1.647968E+06 -3.275624E-09  8.596487E-10
       111  13 -3.728468E+06 -6.104422E+05 -1.463692E+05 -1.415488E+06 -8.879158E-10 -7.631987E-10
       111  14 -3.727741E+06 -5.244011E+05 -6.967656E+04 -1.413840E+06 -1.470658E-09  4.487287E-10
       111  15 -3.719952E+06 -5.516224E+05 -4.021596E+04 -1.437566E+06 -1.283413E-09  1.051038E-09
       111  16 -2.816390E+06 -2.504847E+05  1.001185E+05 -1.150598E+06  1.445912E-09  2.573711E-10
       111  17 -2.870831E+06 -1.971728E+05  1.593149E+05 -1.176071E+06 -7.981116E-10  8.142678E-10
       111  18 -2.917952E+06 -2.568395E+05  1.721753E+05 -1.226921E+06 -6.594650E-10  1.528040E-09
       111  19 -4.639721E+06 -9.703241E+05 -3.929073E+05 -1.680016E+06  1.115246E+05  1.074212E+04
       111  20 -4.583931E+06 -8.515784E+05 -2.987219E+05 -1.651309E+06  7.403259E+04 -2.920822E+03
       111  21 -4.521327E+06 -8.463743E+05 -2.526600E+05 -1.647969E+06  3.560608E+04 -1.410378E+04
       111  22 -3.728454E+06 -6.104387E+05 -1.463456E+05 -1.415487E+06  1.112614E+05  1.064949E+04
       111  23 -3.727735E+06 -5.243996E+05 -6.966596E+04 -1.413840E+06  7.482475E+04 -2.619212E+03
       111  24 -3.719950E+06 -5.516218E+05 -4.021298E+04 -1.437567E+06  3.745797E+04 -1.340642E+04
       111  25 -2.816377E+06 -2.504812E+05  1.001420E+05 -1.150597E+06  1.109977E+05  1.055663E+04
       111  26 -2.870825E+06 -1.971712E+05  1.593257E+05 -1.176072E+06  7.561807E+04 -2.317161E+03
       111  27 -2.917950E+06 -2.568389E+05  1.721785E+05 -1.226921E+06  3.931249E+04 -1.270814E+04
       112   1 -4.397657E+06 -8.209583E+05 -2.135722E+05 -1.622277E+06 -2.959013E+04  1.395764E+04
       112   2 -4.340935E+06 -7.582038E+05 -1.773006E+05 -1.574022E+06 -1.998022E+04  1.404335E+04
       112   3 -4.239530E+06 -7.523515E+05 -1.495293E+05 -1.579226E+06 -1.020981E+04  1.368854E+04
       112   4 -3.714844E+06 -5.622417E+05 -3.151239E+04 -1.435093E+06 -3.088726E+04  1.346911E+04
       112   5 -3.736714E+06 -5.304380E+05 -1.625969E+04 -1.409622E+06 -2.146487E+04  1.348576E+04
       112   6 -3.713865E+06 -5.554904E+05 -9.349905E+03 -1.437609E+06 -1.188322E+04  1.306165E+04
       112   7 -3.031580E+06 -3.034965E+05  1.505061E+05 -1.247721E+06 -3.218595E+04  1.297999E+04
       112   8 -3.132138E+06 -3.026503E+05  1.447493E+05 -1.245076E+06 -2.295111E+04  1.292758E+04
       112   9 -3.187931E+06 -3.586132E+05  1.308057E+05 -1.295883E+06 -1.355820E+04  1.243418E+04
       112  10 -4.397658E+06 -8.209587E+05 -2.135742E+05 -1.622276E+06 -4.431526E-10  6.016499E-10
       112  11 -4.340936E+06 -7.582042E+05 -1.773017E+05 -1.574022E+06  1.847374E-09 -1.954085E-10
       112  12 -4.239530E+06 -7.523517E+05 -1.495298E+05 -1.579226E+06  1.974273E-09  2.053193E-09
       112  13 -3.714845E+06 -5.622421E+05 -3.151453E+04 -1.435092E+06  4.780859E-10  7.101563E-10
       112  14 -3.736714E+06 -5.304383E+05 -1.626090E+04 -1.409621E+06  1.587093E-09  3.999534E-10
       112  15 -3.713865E+06 -5.554906E+05 -9.350490E+03 -1.437609E+06  2.715548E-09  8.050918E-10
       112  16 -3.031582E+06 -3.034970E+05  1.505038E+05 -1.247721E+06 -1.286346E-09  1.884343E-11
       112  17 -3.132138E+06 -3.026506E+05  1.447480E+05 -1.245075E+06  2.843130E-09 -3.661960E-10
       112  18 -3.187931E+06 -3.586134E+05  1.308050E+05 -1.295883E+06  2.053109E-09  1.617570E-09
       112  19 -4.397657E+06 -8.209583E+05 -2.135722E+05 -1.622277E+06  2.959013E+04 -1.395764E+04
       112  20 -4.340935E+06 -7.582038E+05 -1.773006E+05 -1.574022E+06  1.998022E+04 -1.404335E+04
       112  21 -4.239530E+06 -7.523515E+05 -1.495293E+05 -1.579226E+06  1.020981E+04 -1.368854E+04
       112  22 -3.714844E+06 -5.622417E+05 -3.151239E+04 -1.435093E+06  3.088726E+04 -1.346911E+04
       112  23 -3.736714E+06 -5.304380E+05 -1.625969E+04 -1.409622E+06  2.146487E+04 -1.348576E+04
       112  24 -3.713865E+06 -5.554904E+05 -9.349905E+03 -1.437609E+06  1.188322E+04 -1.306165E+04
       112  25 -3.031580E+06 -3.034965E+05  1.505061E+05 -1.247721E+06  3.218595E+04 -1.297999E+04
       112  26 -3.132138E+06 -3.026503E+05  1.447493E+05 -1.245076E+06  2.295111E+04 -1.292758E+04
       112  27 -3.187931E+06 -3.586132E+05  1.308057E+05 -1.295883E+06  1.355820E+04 -1.243418E+04
       113   1 -4.104516E+06 -7.053427E+05 -1.115680E+05 -1.545100E+06 -8.067824E+03  1.201956E+04
       113   2 -4.041902E+06 -6.435202E+05 -8.516458E+04 -1.489652E+06 -4.339147E+03  9.151470E+03
       113   3 -3.925528E+06 -6.371206E+05 -6.076533E+04 -1.496519E+06 -5.590881E+02  6.137693E+03
       113   4 -3.712183E+06 -5.577700E+05 -7.375924E+03 -1.438586E+06 -9.708453E+03  1.140568E+04
       113   5 -3.738996E+06 -5.296784E+05 -4.510111E+03 -1.407567E+06 -6.043377E+03  8.514515E+03
       113   6 -3.712045E+06 -5.569944E+05 -3.596221E+03 -1.438862E+06 -2.327329E+03  5.477596E+03
       113   7 -3.319700E+06 -4.101878E+05  9.680288E+04 -1.332012E+06 -1.135023E+04  1.079137E+04
       113   8 -3.436002E+06 -4.158318E+05  7.613599E+04 -1.325446E+06 -7.748518E+03  7.877219E+03
       113   9 -3.498520E+06 -4.768665E+05  5.356829E+04 -1.381189E+06 -4.096224E+03  4.817256E+03
       113  10 -4.104516E+06 -7.053429E+05 -1.115683E+05 -1.545099E+06  4.015145E-09  1.389764E-09
       113  11 -4.041902E+06 -6.435203E+05 -8.516477E+04 -1.489652E+06  1.253089E-09  1.351241E-10
       113  12 -3.925528E+06 -6.371206E+05 -6.076540E+04 -1.496519E+06 -5.729894E-10 -1.340017E-09
       113  13 -3.712183E+06 -5.577702E+05 -7.376345E+03 -1.438586E+06  1.075323E-09  2.889039E-10
       113  14 -3.738996E+06 -5.296785E+05 -4.510316E+03 -1.407567E+06  5.729024E-09  4.230172E-10
       113  15 -3.712045E+06 -5.569945E+05 -3.596287E+03 -1.438862E+06  2.953453E-09  1.348700E-09
       113  16 -3.319700E+06 -4.101880E+05  9.680242E+04 -1.332012E+06 -2.947235E-09  7.038453E-10
       113  17 -3.436002E+06 -4.158319E+05  7.613576E+04 -1.325446E+06  4.506820E-10 -8.213920E-11
       113  18 -3.498520E+06 -4.768665E+05  5.356821E+04 -1.381189E+06  8.738665E-10  7.301402E-10
       113  19 -4.104516E+06 -7.053427E+05 -1.115680E+05 -1.545100E+06  8.067824E+03 -1.201956E+04
       113  20 -4.041902E+06 -6.435202E+05 -8.516458E+04 -1.489652E+06  4.339147E+03 -9.151470E+03
       113  21 -3.925528E+06 -6.371206E+05 -6.076533E+04 -1.496519E+06  5.590881E+02 -6.137693E+03
       113  22 -3.712183E+06 -5.577700E+05 -7.375924E+03 -1.438586E+06  9.708453E+03 -1.140568E+04
       113  23 -3.738996E+06 -5.296784E+05 -4.510111E+03 -1.407567E+06  6.043377E+03 -8.514515E+03
       113  24 -3.712045E+06 -5.569944E+05 -3.596221E+03 -1.438862E+06  2.327329E+03 -5.477596E+03
       113  25 -3.319700E+06 -4.101878E+05  9.680288E+04 -1.332012E+06  1.135023E+04 -1.079137E+04
       113  26 -3.436002E+06 -4.158318E+05  7.613599E+04 -1.325446E+06  7.748518E+03 -7.877219E+03
       113  27 -3.498520E+06 -4.768665E+05  5.356829E+04 -1.381189E+06  4.096224E+03 -4.817256E+03
       114   1 -3.781907E+06 -5.838595E+05 -2.199244E+04 -1.458517E+06  9.040825E+02  4.048807E+03
       114   2 -3.717095E+06 -5.207176E+05  1.355868E+03 -1.400914E+06  4.680633E+03  9.525624E+02
       114   3 -3.596855E+06 -5.148817E+05  2.267746E+04 -1.407839E+06  8.448795E+03 -2.119109E+03
       114   4 -3.711661E+06 -5.574169E+05 -3.623079E+03 -1.439348E+06 -8.695886E+02  3.386940E+03
       114   5 -3.739416E+06 -5.290980E+05 -4.584526E+03 -1.406955E+06  2.917689E+03  2.946067E+02
       114   6 -3.711754E+06 -5.580888E+05 -7.581003E+03 -1.439097E+06  6.696186E+03 -2.773259E+03
       114   7 -3.641409E+06 -5.309737E+05  1.474605E+04 -1.420176E+06 -2.643496E+03  2.724985E+03
       114   8 -3.761736E+06 -5.374784E+05 -1.052499E+04 -1.412997E+06  1.154802E+03 -3.633276E+02
       114   9 -3.826640E+06 -6.012954E+05 -3.784078E+04 -1.470349E+06  4.943924E+03 -3.427278E+03
       114  10 -3.781907E+06 -5.838595E+05 -2.199248E+04 -1.458517E+06 -2.491983E-10 -4.561226E-10
       114  11 -3.717095E+06 -5.207176E+05  1.355824E+03 -1.400914E+06  2.858270E-09  1.199602E-09
       114  12 -3.596855E+06 -5.148817E+05  2.267732E+04 -1.407839E+06 -1.935546E-09 -3.493742E-10
       114  13 -3.711661E+06 -5.574169E+05 -3.623102E+03 -1.439348E+06 -3.632510E-10 -1.188050E-09
       114  14 -3.739416E+06 -5.290980E+05 -4.584542E+03 -1.406955E+06  2.520489E-09  1.908639E-10
       114  15 -3.711754E+06 -5.580889E+05 -7.581102E+03 -1.439097E+06  8.246587E-11  2.807994E-10
       114  16 -3.641409E+06 -5.309737E+05  1.474602E+04 -1.420176E+06 -9.771262E-10 -7.875075E-10
       114  17 -3.761736E+06 -5.374784E+05 -1.052500E+04 -1.412997E+06 -5.117460E-09 -3.879475E-09
       114  18 -3.826640E+06 -6.012954E+05 -3.784084E+04 -1.470349E+06  5.499589E-10  3.818407E-10
       114  19 -3.781907E+06 -5.838595E+05 -2.199244E+04 -1.458517E+06 -9.040825E+02 -4.048807E+03
       114  20 -3.717095E+06 -5.207176E+05  1.355868E+03 -1.400914E+06 -4.680633E+03 -9.525624E+02
       114  21 -3.596855E+06 -5.148817E+05  2.267746E+04 -1.407839E+06 -8.448795E+03  2.119109E+03
       114  22 -3.711661E+06 -5.574169E+05 -3.623079E+03 -1.439348E+06  8.695886E+02 -3.386940E+03
       114  23 -3.739416E+06 -5.290980E+05 -4.584526E+03 -1.406955E+06 -2.917689E+03 -2.946067E+02
       114  24 -3.711754E+06 -5.580888E+05 -7.581003E+03 -1.439097E+06 -6.696186E+03  2.773259E+03
       114  25 -3.641409E+06 -5.309737E+05  1.474605E+04 -1.420176E+06  2.643496E+03 -2.724985E+03
       114  26 -3.761736E+06 -5.374784E+05 -1.052499E+04 -1.412997E+06 -1.154802E+03  3.633276E+02
       114  27 -3.826640E+06 -6.012954E+05 -3.784078E+04 -1.470349E+06 -4.943924E+03  3.427278E+03
       115   1 -3.454970E+06 -4.606850E+05  5.911708E+04 -1.370253E+06  1.076237E+04 -3.893523E+03
       115   2 -3.392518E+06 -3.986756E+05  7.524474E+04 -1.313912E+06  2.059775E+04 -4.602827E+03
       115   3 -3.280515E+06 -3.992516E+05  8.275239E+04 -1.317439E+06  3.032365E+04 -5.005528E+03
       115   4 -3.712711E+06 -5.566055E+05 -9.652429E+03 -1.439064E+06  8.971755E+03 -4.562170E+03
       115   5 -3.737980E+06 -5.287653E+05 -1.675584E+04 -1.407843E+06  1.893896E+04 -5.223093E+03
       115   6 -3.713734E+06 -5.635423E+05 -3.258783E+04 -1.436495E+06  2.879541E+04 -5.577818E+03
       115   7 -3.970385E+06 -6.525215E+05 -7.842702E+04 -1.507848E+06  7.181980E+03 -5.230511E+03
       115   8 -4.083326E+06 -6.588476E+05 -1.087666E+05 -1.501726E+06  1.728119E+04 -5.842976E+03
       115   9 -4.146773E+06 -7.278217E+05 -1.479450E+05 -1.555476E+06  2.726833E+04 -6.149665E+03
       115  10 -3.454970E+06 -4.606850E+05  5.911683E+04 -1.370253E+06 -3.191171E-10  1.987450E-09
       115  11 -3.392518E+06 -3.986758E+05  7.524390E+04 -1.313912E+06 -3.037927E-10 -1.122635E-09
       115  12 -3.280516E+06 -3.992519E+05  8.275061E+04 -1.317439E+06 -1.940531E-09 -2.018490E-09
       115  13 -3.712711E+06 -5.566055E+05 -9.652619E+03 -1.439064E+06  1.882525E-09  1.254643E-09
       115  14 -3.737981E+06 -5.287655E+05 -1.675657E+04 -1.407843E+06 -1.068359E-09 -1.452878E-09
       115  15 -3.713735E+06 -5.635426E+05 -3.258945E+04 -1.436495E+06 -3.993698E-10 -1.483651E-09
       115  16 -3.970385E+06 -6.525215E+05 -7.842717E+04 -1.507848E+06  1.635055E-10  3.168571E-10
       115  17 -4.083326E+06 -6.588477E+05 -1.087672E+05 -1.501726E+06  3.415298E-09  1.196820E-09
       115  18 -4.146774E+06 -7.278219E+05 -1.479464E+05 -1.555476E+06 -1.418171E-09 -7.661054E-10
       115  19 -3.454970E+06 -4.606850E+05  5.911708E+04 -1.370253E+06 -1.076237E+04  3.893523E+03
       115  20 -3.392518E+06 -3.986756E+05  7.524474E+04 -1.313912E+06 -2.059775E+04  4.602827E+03
       115  21 -3.280515E+06 -3.992516E+05  8.275239E+04 -1.317439E+06 -3.032365E+04  5.005528E+03
       115  22 -3.712711E+06 -5.566055E+05 -9.652429E+03 -1.439064E+06 -8.971755E+03  4.562170E+03
       115  23 -3.737980E+06 -5.287653E+05 -1.675584E+04 -1.407843E+06 -1.893896E+04  5.223093E+03
       115  24 -3.713734E+06 -5.635423E+05 -3.258783E+04 -1.436495E+06 -2.879541E+04  5.577818E+03
       115  25 -3.970385E+06 -6.525215E+05 -7.842702E+04 -1.507848E+06 -7.181980E+03  5.230511E+03
       115  26 -4.083326E+06 -6.588476E+05 -1.087666E+05 -1.501726E+06 -1.728119E+04  5.842976E+03
       115  27 -4.146773E+06 -7.278217E+05 -1.479450E+05 -1.555476E+06 -2.726833E+04  6.149665E+03
       116   1 -3.147874E+06 -3.465165E+05  1.090455E+05 -1.293097E+06  3.769456E+04 -4.948516E+03
       116   2 -3.090191E+06 -2.768414E+05  9.900238E+04 -1.233118E+06  7.558151E+04  5.341171E+03
       116   3 -3.018317E+06 -3.314477E+05  4.075767E+04 -1.208121E+06  1.126731E+05  1.777814E+04
       116   4 -3.718291E+06 -5.533687E+05 -4.160568E+04 -1.439939E+06  3.566711E+04 -5.707823E+03
       116   5 -3.729655E+06 -5.215528E+05 -7.199636E+04 -1.411071E+06  7.447546E+04  4.924419E+03
       116   6 -3.727051E+06 -6.142598E+05 -1.513627E+05 -1.417186E+06  1.124835E+05  1.770157E+04
       116   7 -4.288394E+06 -7.602076E+05 -1.922848E+05 -1.586660E+06  3.364170E+04 -6.466430E+03
       116   8 -4.368722E+06 -7.662360E+05 -2.430309E+05 -1.588855E+06  7.337064E+04  4.508141E+03
       116   9 -4.435295E+06 -8.970244E+05 -3.435279E+05 -1.626027E+06  1.122941E+05  1.762506E+04
       116  10 -3.147875E+06 -3.465169E+05  1.090428E+05 -1.293097E+06 -2.201794E-09 -4.269944E-10
       116  11 -3.090197E+06 -2.768430E+05  9.899154E+04 -1.233119E+06 -8.812668E-10  1.954781E-10
       116  12 -3.018331E+06 -3.314515E+05  4.073309E+04 -1.208122E+06  1.476314E-09  2.363760E-10
       116  13 -3.718293E+06 -5.533691E+05 -4.160814E+04 -1.439938E+06 -1.626965E-09 -4.684957E-10
       116  14 -3.729661E+06 -5.215544E+05 -7.200690E+04 -1.411071E+06  1.625093E-09  9.458250E-10
       116  15 -3.727065E+06 -6.142636E+05 -1.513872E+05 -1.417187E+06 -1.509635E-09  6.641471E-10
       116  16 -4.288395E+06 -7.602080E+05 -1.922870E+05 -1.586660E+06  1.360174E-10 -4.266804E-10
       116  17 -4.368727E+06 -7.662375E+05 -2.430411E+05 -1.588856E+06  3.616425E-09  4.032582E-10
       116  18 -4.435308E+06 -8.970282E+05 -3.435523E+05 -1.626029E+06 -8.414403E-10  1.344359E-09
       116  19 -3.147874E+06 -3.465165E+05  1.090455E+05 -1.293097E+06 -3.769456E+04  4.948516E+03
       116  20 -3.090191E+06 -2.768414E+05  9.900238E+04 -1.233118E+06 -7.558151E+04 -5.341171E+03
       116  21 -3.018317E+06 -3.314477E+05  4.075767E+04 -1.208121E+06 -1.126731E+05 -1.777814E+04
       116  22 -3.718291E+06 -5.533687E+05 -4.160568E+04 -1.439939E+06 -3.566711E+04  5.707823E+03
       116  23 -3.729655E+06 -5.215528E+05 -7.199636E+04 -1.411071E+06 -7.447546E+04 -4.924419E+03
       116  24 -3.727051E+06 -6.142598E+05 -1.513627E+05 -1.417186E+06 -1.124835E+05 -1.770157E+04
       116  25 -4.288394E+06 -7.602076E+05 -1.922848E+05 -1.586660E+06 -3.364170E+04  6.466430E+03
       116  26 -4.368722E+06 -7.662360E+05 -2.430309E+05 -1.588855E+06 -7.337064E+04 -4.508141E+03
       116  27 -4.435295E+06 -8.970244E+05 -3.435279E+05 -1.626027E+06 -1.122941E+05 -1.762506E+04
       117   1 -2.876372E+06 -2.688887E+05  3.500923E+04 -1.287267E+06  1.470120E+05  2.510184E+04
       117   2 -2.814121E+06 -7.935838E+04 -6.884835E+04 -1.147342E+06  3.053535E+05  8.179964E+04
       117   3 -2.988250E+06 -5.988914E+05 -4.742861E+05 -8.737482E+05  4.553430E+05  1.607467E+05
       117   4 -3.753141E+06 -5.340106E+05 -1.857145E+05 -1.458903E+06  1.407915E+05  2.278059E+04
       117   5 -3.672326E+06 -4.456926E+05 -3.052817E+05 -1.425201E+06  3.088482E+05  8.308617E+04
       117   6 -3.830233E+06 -1.069018E+06 -7.344993E+05 -1.257731E+06  4.685486E+05  1.655876E+05
       117   7 -4.629163E+06 -7.991440E+05 -4.064962E+05 -1.630350E+06  1.345805E+05  2.046130E+04
       117   8 -4.529806E+06 -8.119216E+05 -5.417827E+05 -1.702690E+06  3.123374E+05  8.436995E+04
       117   9 -4.671462E+06 -1.538805E+06 -9.947780E+05 -1.641154E+06  4.817339E+05  1.704126E+05
       117  10 -2.876395E+06 -2.688952E+05  3.496721E+04 -1.287270E+06 -2.182759E-11 -3.070549E-10
       117  11 -2.814224E+06 -7.939080E+04 -6.903714E+04 -1.147363E+06 -1.352682E-10  1.252904E-10
       117  12 -2.988481E+06 -5.989753E+05 -4.747266E+05 -8.738073E+05 -4.534337E-10 -2.634008E-10
       117  13 -3.753162E+06 -5.340165E+05 -1.857530E+05 -1.458906E+06 -1.943696E-09 -6.812118E-11
       117  14 -3.672431E+06 -4.457259E+05 -3.054753E+05 -1.425222E+06  4.325747E-09 -9.936720E-10
       117  15 -3.830478E+06 -1.069107E+06 -7.349666E+05 -1.257793E+06 -9.882395E-10 -4.619710E-10
       117  16 -4.629182E+06 -7.991493E+05 -4.065313E+05 -1.630352E+06  1.117512E-09 -4.139964E-10
       117  17 -4.529914E+06 -8.119558E+05 -5.419810E+05 -1.702711E+06 -1.352691E-09 -9.487250E-10
       117  18 -4.671721E+06 -1.538900E+06 -9.952728E+05 -1.641221E+06  5.291146E-10 -6.623573E-10
       117  19 -2.876372E+06 -2.688887E+05  3.500923E+04 -1.287267E+06 -1.470120E+05 -2.510184E+04
       117  20 -2.814121E+06 -7.935838E+04 -6.884835E+04 -1.147342E+06 -3.053535E+05 -8.179964E+04
       117  21 -2.988250E+06 -5.988914E+05 -4.742861E+05 -8.737482E+05 -4.553430E+05 -1.607467E+05
       117  22 -3.753141E+06 -5.340106E+05 -1.857145E+05 -1.458903E+06 -1.407915E+05 -2.278059E+04
       117  23 -3.672326E+06 -4.456926E+05 -3.052817E+05 -1.425201E+06 -3.088482E+05 -8.308617E+04
       117  24 -3.830233E+06 -1.069018E+06 -7.344993E+05 -1.257731E+06 -4.685486E+05 -1.655876E+05
       117  25 -4.629163E+06 -7.991440E+05 -4.064962E+05 -1.630350E+06 -1.345805E+05 -2.046130E+04
       117  26 -4.529806E+06 -8.119216E+05 -5.417827E+05 -1.702690E+06 -3.123374E+05 -8.436995E+04
       117  27 -4.671462E+06 -1.538805E+06 -9.947780E+05 -1.641154E+06 -4.817339E+05 -1.704126E+05
       118   1 -6.382078E+05  8.342952E+04  1.367649E+05  4.116758E+04  1.630843E+05  4.549056E+03
       118   2 -6.394637E+05 -1.332059E+05  8.004974E+03  1.197120E+04  1.092244E+05  1.308727E+04
       118   3 -5.723083E+05 -1.055050E+05 -2.450739E+04 -4.290475E+04  5.537068E+04  1.192577E+04
       118   4 -1.873255E+05  1.957462E+05  2.481392E+05 -1.764885E+04  1.696258E+05  4.540881E+03
       118   5 -2.219255E+05 -2.961826E+04  1.083717E+05 -4.698926E+03  1.110723E+05  1.308538E+04
       118   6 -1.873514E+05 -9.926698E+03  6.806275E+04 -1.742768E+04  5.252852E+04  1.192574E+04
       118   7  2.637494E+05  3.080608E+05  3.595005E+05 -7.650812E+04  1.761719E+05  4.531473E+03
       118   8  1.957731E+05  7.395776E+04  2.087261E+05 -2.138035E+04  1.129215E+05  1.308340E+04
       118   9  1.977426E+05  8.564324E+04  1.606227E+05  8.065240E+03  4.968459E+04  1.192548E+04
       118  10 -6.382364E+05  8.342234E+04  1.367148E+05  4.116698E+04 -9.019943E-11  2.729437E-10
       118  11 -6.394766E+05 -1.332093E+05  7.982212E+03  1.197004E+04 -7.964178E-10 -4.714284E-10
       118  12 -5.723116E+05 -1.055060E+05 -2.451343E+04 -4.290528E+04  1.954818E-09  8.144931E-11
       118  13 -1.873564E+05  1.957384E+05  2.480851E+05 -1.764947E+04 -1.685921E-11 -3.854352E-11
       118  14 -2.219388E+05 -2.962176E+04  1.083482E+05 -4.700097E+03 -5.345059E-10 -1.313548E-09
       118  15 -1.873544E+05 -9.927591E+03  6.805729E+04 -1.742818E+04  2.271839E-09  9.300000E-11
       118  16  2.637161E+05  3.080524E+05  3.594422E+05 -7.650877E+04  1.516266E-09 -1.590471E-10
       118  17  1.957594E+05  7.395416E+04  2.087019E+05 -2.138154E+04 -3.075559E-09 -4.441041E-10
       118  18  1.977399E+05  8.564242E+04  1.606178E+05  8.064763E+03 -2.278057E-09 -2.576372E-10
       118  19 -6.382078E+05  8.342952E+04  1.367649E+05  4.116758E+04 -1.630843E+05 -4.549056E+03
       118  20 -6.394637E+05 -1.332059E+05  8.004974E+03  1.197120E+04 -1.092244E+05 -1.308727E+04
       118  21 -5.723083E+05 -1.055050E+05 -2.450739E+04 -4.290475E+04 -5.537068E+04 -1.192577E+04
       118  22 -1.873255E+05  1.957462E+05  2.481392E+05 -1.764885E+04 -1.696258E+05 -4.540881E+03
       118  23 -2.219255E+05 -2.961826E+04  1.083717E+05 -4.698926E+03 -1.110723E+05 -1.308538E+04
       118  24 -1.873514E+05 -9.926698E+03  6.806275E+04 -1.742768E+04 -5.252852E+04 -1.192574E+04
       118  25  2.637494E+05  3.080608E+05  3.595005E+05 -7.650812E+04 -1.761719E+05 -4.531473E+03
       118  26  1.957731E+05  7.395776E+04  2.087261E+05 -2.138035E+04 -1.129215E+05 -1.308340E+04
       118  27  1.977426E+05  8.564324E+04  1.606227E+05  8.065240E+03 -4.968459E+04 -1.192548E+04
       119   1 -5.387629E+05 -6.266937E+04 -2.589077E+04 -1.185775E+04  4.196083E+04  9.758891E+03
       119   2 -5.099665E+05 -7.899137E+04 -4.523876E+04 -3.195064E+03  2.789661E+04  9.213633E+03
       119   3 -4.725037E+05 -6.854100E+04 -4.870122E+04 -2.049073E+04  1.383154E+04  7.899461E+03
       119   4 -2.007704E+05  2.124824E+04  5.559703E+04 -1.756096E+04  4.190241E+04  9.758119E+03
       119   5 -2.051338E+05 -3.328123E+03  2.812315E+04 -4.577370E+03  2.746214E+04  9.213131E+03
       119   6 -2.007711E+05 -1.074251E+03  1.678981E+04 -1.755117E+04  1.302179E+04  7.899205E+03
       119   7  1.373268E+05  1.051576E+05  1.370767E+05 -2.326730E+04  4.184395E+04  9.757348E+03
       119   8  9.978387E+04  7.232836E+04  1.014784E+05 -5.960365E+03  2.702746E+04  9.212632E+03
       119   9  7.102904E+04  6.638713E+04  8.227558E+04 -1.461031E+04  1.221169E+04  7.898941E+03
       119  10 -5.387648E+05 -6.266994E+04 -2.589426E+04 -1.185808E+04  2.872687E-09 -3.226347E-10
       119  11 -5.099673E+05 -7.899167E+04 -4.524038E+04 -3.195271E+03 -2.183786E-09  1.235598E-10
       119  12 -4.725039E+05 -6.854111E+04 -4.870170E+04 -2.049082E+04 -1.705190E-09  5.608468E-10
       119  13 -2.007723E+05  2.124766E+04  5.559355E+04 -1.756129E+04  2.153897E-09 -1.675094E-11
       119  14 -2.051347E+05 -3.328416E+03  2.812157E+04 -4.577574E+03  3.722960E-09 -2.275091E-11
       119  15 -2.007713E+05 -1.074364E+03  1.678938E+04 -1.755125E+04 -1.982751E-09  5.491434E-10
       119  16  1.373248E+05  1.051571E+05  1.370732E+05 -2.326763E+04 -1.929120E-10  3.090276E-10
       119  17  9.978307E+04  7.232807E+04  1.014769E+05 -5.960566E+03  3.655374E-10 -4.227776E-10
       119  18  7.102886E+04  6.638703E+04  8.227518E+04 -1.461039E+04 -3.971155E-10  7.183534E-10
       119  19 -5.387629E+05 -6.266937E+04 -2.589077E+04 -1.185775E+04 -4.196083E+04 -9.758891E+03
       119  20 -5.099665E+05 -7.899137E+04 -4.523876E+04 -3.195064E+03 -2.789661E+04 -9.213633E+03
       119  21 -4.725037E+05 -6.854100E+04 -4.870122E+04 -2.049073E+04 -1.383154E+04 -7.899461E+03
       119  22 -2.007704E+05  2.124824E+04  5.559703E+04 -1.756096E+04 -4.190241E+04 -9.758119E+03
       119  23 -2.051338E+05 -3.328123E+03  2.812315E+04 -4.577370E+03 -2.746214E+04 -9.213131E+03
       119  24 -2.007711E+05 -1.074251E+03  1.678981E+04 -1.755117E+04 -1.302179E+04 -7.899205E+03
       119  25  1.373268E+05  1.051576E+05  1.370767E+05 -2.326730E+04 -4.184395E+04 -9.757348E+03
       119  26  9.978387E+04  7.232836E+04  1.014784E+05 -5.960365E+03 -2.702746E+04 -9.212632E+03
       119  27  7.102904E+04  6.638713E+04  8.227558E+04 -1.461031E+04 -1.221169E+04 -7.898941E+03
       120   1 -4.267585E+05 -5.340108E+04 -4.075289E+04 -1.713143E+04  1.096078E+04  7.015785E+03
       120   2 -3.940239E+05 -4.778464E+04 -3.882132E+04 -4.451047E+03  7.404706E+03  5.747630E+03
       120   3 -3.600530E+05 -3.924721E+04 -3.383435E+04 -1.792406E+04  3.847848E+03  4.416279E+03
       120   4 -2.024277E+05  2.263292E+03  1.315734E+04 -1.759732E+04  1.037000E+04  7.015595E+03
       120   5 -2.030468E+05 -3.833275E+02  7.142739E+03 -4.520902E+03  6.782409E+03  5.747566E+03
       120   6 -2.024262E+05 -1.041482E+02  4.204495E+03 -1.759735E+04  3.194219E+03  4.416349E+03
       120   7  2.194917E+04  5.792400E+04  6.706399E+04 -1.806338E+04  9.779016E+03  7.015406E+03
       120   8 -1.203632E+04  4.701532E+04  5.310420E+04 -4.590777E+03  6.159922E+03  5.747502E+03
       120   9 -4.477673E+04  3.903710E+04  4.224156E+04 -1.727056E+04  2.540424E+03  4.416418E+03
       120  10 -4.267587E+05 -5.340116E+04 -4.075321E+04 -1.713149E+04 -1.587735E-09  5.255486E-10
       120  11 -3.940239E+05 -4.778469E+04 -3.882149E+04 -4.451081E+03 -6.457496E-10 -2.434465E-10
       120  12 -3.600530E+05 -3.924723E+04 -3.383442E+04 -1.792408E+04 -2.238990E-09 -1.406353E-10
       120  13 -2.024278E+05  2.263210E+03  1.315704E+04 -1.759738E+04 -2.141210E-09  5.651707E-10
       120  14 -2.030468E+05 -3.833753E+02  7.142591E+03 -4.520933E+03  5.096014E-10 -3.157857E-10
       120  15 -2.024262E+05 -1.041719E+02  4.204439E+03 -1.759737E+04 -5.454868E-10 -2.286787E-10
       120  16  2.194906E+04  5.792392E+04  6.706372E+04 -1.806344E+04 -1.716312E-09  5.281833E-10
       120  17 -1.203637E+04  4.701528E+04  5.310407E+04 -4.590806E+03  1.997270E-09 -3.981783E-10
       120  18 -4.477674E+04  3.903707E+04  4.224152E+04 -1.727057E+04 -1.619637E-11 -4.034447E-12
       120  19 -4.267585E+05 -5.340108E+04 -4.075289E+04 -1.713143E+04 -1.096078E+04 -7.015785E+03
       120  20 -3.940239E+05 -4.778464E+04 -3.882132E+04 -4.451047E+03 -7.404706E+03 -5.747630E+03
       120  21 -3.600530E+05 -3.924721E+04 -3.383435E+04 -1.792406E+04 -3.847848E+03 -4.416279E+03
       120  22 -2.024277E+05  2.263292E+03  1.315734E+04 -1.759732E+04 -1.037000E+04 -7.015595E+03
       120  23 -2.030468E+05 -3.833275E+02  7.142739E+03 -4.520902E+03 -6.782409E+03 -5.747566E+03
       120  24 -2.024262E+05 -1.041482E+02  4.204495E+03 -1.759735E+04 -3.194219E+03 -4.416349E+03
       120  25  2.194917E+04  5.792400E+04  6.706399E+04 -1.806338E+04 -9.779016E+03 -7.015406E+03
       120  26 -1.203632E+04  4.701532E+04  5.310420E+04 -4.590777E+03 -6.159922E+03 -5.747502E+03
       120  27 -4.477673E+04  3.903710E+04  4.224156E+04 -1.727056E+04 -2.540424E+03 -4.416418E+03
       121   1 -3.126200E+05 -2.703457E+04 -2.310726E+04 -1.758659E+04  3.161023E+03  3.630800E+03
       121   2 -2.792363E+05 -1.902649E+04 -1.650795E+04 -4.493941E+03  2.219114E+03  2.300467E+03
       121   3 -2.456571E+05 -1.068577E+04 -9.214610E+03 -1.765108E+04  1.276928E+03  9.644958E+02
       121   4 -2.026547E+05  2.378007E+02  3.257156E+03 -1.761877E+04  2.524199E+03  3.630927E+03
       121   5 -2.027518E+05 -4.400378E+01  1.899242E+03 -4.494006E+03  1.579415E+03  2.300643E+03
       121   6 -2.026539E+05  7.368181E+00  1.237305E+03 -1.761883E+04  6.344052E+02  9.647241E+02
       121   7 -9.267837E+04  2.750930E+04  2.962071E+04 -1.765095E+04  1.887263E+03  3.631053E+03
       121   8 -1.262619E+05  1.893806E+04  2.030602E+04 -4.494072E+03  9.396380E+02  2.300818E+03
       121   9 -1.596491E+05  1.070037E+04  1.168909E+04 -1.758658E+04 -8.162337E+00  9.649523E+02
       121  10 -3.126200E+05 -2.703459E+04 -2.310730E+04 -1.758660E+04  7.314408E-12  1.304669E-10
       121  11 -2.792363E+05 -1.902650E+04 -1.650797E+04 -4.493945E+03  8.553397E-10  4.120116E-10
       121  12 -2.456571E+05 -1.068577E+04 -9.214615E+03 -1.765108E+04  1.500623E-09  5.992756E-11
       121  13 -2.026547E+05  2.377848E+02  3.257119E+03 -1.761877E+04  7.557906E-11  3.449805E-10
       121  14 -2.027518E+05 -4.401014E+01  1.899227E+03 -4.494009E+03 -2.153024E-09 -1.064082E-10
       121  15 -2.026539E+05  7.367073E+00  1.237302E+03 -1.761883E+04  3.810400E-10 -8.082451E-11
       121  16 -9.267838E+04  2.750928E+04  2.962068E+04 -1.765096E+04  5.437917E-10 -1.623712E-10
       121  17 -1.262619E+05  1.893805E+04  2.030600E+04 -4.494073E+03 -1.013671E-09  9.406504E-11
       121  18 -1.596491E+05  1.070037E+04  1.168909E+04 -1.758658E+04 -2.986720E-10  7.317742E-11
       121  19 -3.126200E+05 -2.703457E+04 -2.310726E+04 -1.758659E+04 -3.161023E+03 -3.630800E+03
       121  20 -2.792363E+05 -1.902649E+04 -1.650795E+04 -4.493941E+03 -2.219114E+03 -2.300467E+03
       121  21 -2.456571E+05 -1.068577E+04 -9.214610E+03 -1.765108E+04 -1.276928E+03 -9.644958E+02
       121  22 -2.026547E+05  2.378007E+02  3.257156E+03 -1.761877E+04 -2.524199E+03 -3.630927E+03
       121  23 -2.027518E+05 -4.400378E+01  1.899242E+03 -4.494006E+03 -1.579415E+03 -2.300643E+03
       121  24 -2.026539E+05  7.368181E+00  1.237305E+03 -1.761883E+04 -6.344052E+02 -9.647241E+02
       121  25 -9.267837E+04  2.750930E+04  2.962071E+04 -1.765095E+04 -1.887263E+03 -3.631053E+03
       121  26 -1.262619E+05  1.893806E+04  2.030602E+04 -4.494072E+03 -9.396380E+02 -2.300818E+03
       121  27 -1.596491E+05  1.070037E+04  1.168909E+04 -1.758658E+04  8.162337E+00 -9.649523E+02
       122   1 -1.979167E+05  1.233769E+03  2.305795E+03 -1.762109E+04  1.069442E+03  1.848690E+02
       122   2 -1.644512E+05  9.482307E+03  1.012427E+04 -4.502548E+03  6.122518E+02 -1.151485E+03
       122   3 -1.309128E+05  1.785852E+04  1.826799E+04 -1.764779E+04  1.551584E+02 -2.483206E+03
       122   4 -2.026807E+05  3.092246E+01  1.056631E+03 -1.762199E+04  4.269282E+02  1.851061E+02
       122   5 -2.027170E+05 -1.411022E+01  9.156842E+02 -4.490037E+03 -2.803655E+01 -1.151276E+03
       122   6 -2.026811E+05  6.835127E+01  1.098628E+03 -1.762198E+04 -4.828800E+02 -2.483021E+03
       122   7 -2.074447E+05 -1.171925E+03 -1.925337E+02 -1.762288E+04 -2.155808E+02  1.853433E+02
       122   8 -2.409814E+05 -9.510634E+03 -8.293007E+03 -4.477528E+03 -6.682856E+02 -1.151066E+03
       122   9 -2.744447E+05 -1.772219E+04 -1.607109E+04 -1.759616E+04 -1.120845E+03 -2.482835E+03
       122  10 -1.979167E+05  1.233768E+03  2.305793E+03 -1.762109E+04  9.311269E-10 -2.824930E-10
       122  11 -1.644512E+05  9.482305E+03  1.012427E+04 -4.502547E+03 -1.002881E-09  3.593358E-11
       122  12 -1.309128E+05  1.785851E+04  1.826798E+04 -1.764779E+04 -1.277206E-09  2.315116E-10
       122  13 -2.026807E+05  3.092238E+01  1.056630E+03 -1.762199E+04  1.143888E-09  1.298170E-10
       122  14 -2.027170E+05 -1.411164E+01  9.156817E+02 -4.490037E+03 -2.577335E-09 -3.607826E-11
       122  15 -2.026811E+05  6.834458E+01  1.098616E+03 -1.762198E+04  4.312407E-10  2.865925E-10
       122  16 -2.074447E+05 -1.171925E+03 -1.925338E+02 -1.762288E+04  6.844752E-10 -2.742066E-10
       122  17 -2.409814E+05 -9.510635E+03 -8.293011E+03 -4.477529E+03  1.618274E-09 -6.776402E-10
       122  18 -2.744448E+05 -1.772220E+04 -1.607111E+04 -1.759617E+04  5.945680E-10  9.170426E-10
       122  19 -1.979167E+05  1.233769E+03  2.305795E+03 -1.762109E+04 -1.069442E+03 -1.848690E+02
       122  20 -1.644512E+05  9.482307E+03  1.012427E+04 -4.502548E+03 -6.122518E+02  1.151485E+03
       122  21 -1.309128E+05  1.785852E+04  1.826799E+04 -1.764779E+04 -1.551584E+02  2.483206E+03
       122  22 -2.026807E+05  3.092246E+01  1.056631E+03 -1.762199E+04 -4.269282E+02 -1.851061E+02
       122  23 -2.027170E+05 -1.411022E+01  9.156842E+02 -4.490037E+03  2.803655E+01  1.151276E+03
       122  24 -2.026811E+05  6.835127E+01  1.098628E+03 -1.762198E+04  4.828800E+02  2.483021E+03
       122  25 -2.074447E+05 -1.171925E+03 -1.925337E+02 -1.762288E+04  2.155808E+02 -1.853433E+02
       122  26 -2.409814E+05 -9.510634E+03 -8.293007E+03 -4.477528E+03  6.682856E+02  1.151066E+03
       122  27 -2.744447E+05 -1.772219E+04 -1.607109E+04 -1.759616E+04  1.120845E+03  2.482835E+03
       123   1 -8.313336E+04  2.965454E+04  3.014863E+04 -1.754227E+04 -4.454372E+01 -3.268721E+03
       123   2 -4.989136E+04  3.784048E+04  3.878320E+04 -4.547323E+03 -1.072023E+03 -4.601629E+03
       123   3 -1.629902E+04  4.681316E+04  4.828697E+04 -1.774211E+04 -2.099118E+03 -5.876306E+03
       123   4 -2.026233E+05 -1.816072E+01  1.293084E+03 -1.760562E+04 -6.982900E+02 -3.268575E+03
       123   5 -2.027961E+05 -1.032005E+02  1.990024E+03 -4.510525E+03 -1.697619E+03 -4.601592E+03
       123   6 -2.026249E+05  5.936956E+02  3.536721E+03 -1.760555E+04 -2.696511E+03 -5.876367E+03
       123   7 -3.221002E+05 -2.969191E+04 -2.756349E+04 -1.766896E+04 -1.351911E+03 -3.268429E+03
       123   8 -3.556795E+05 -3.804858E+04 -3.480482E+04 -4.473735E+03 -2.323063E+03 -4.601555E+03
       123   9 -3.889191E+05 -4.562829E+04 -4.121599E+04 -1.746904E+04 -3.293724E+03 -5.876429E+03
       123  10 -8.313337E+04  2.965453E+04  3.014861E+04 -1.754227E+04  1.781310E-09  4.594965E-10
       123  11 -4.989137E+04  3.784045E+04  3.878316E+04 -4.547327E+03  1.566558E-09 -2.005634E-10
       123  12 -1.629904E+04  4.681312E+04  4.828690E+04 -1.774212E+04 -1.895886E-09 -5.283807E-11
       123  13 -2.026233E+05 -1.817232E+01  1.293063E+03 -1.760562E+04 -2.229142E-09  6.224795E-10
       123  14 -2.027961E+05 -1.032240E+02  1.989979E+03 -4.510531E+03  4.489139E-10 -4.617093E-10
       123  15 -2.026250E+05  5.936566E+02  3.536643E+03 -1.760556E+04  1.788955E-09 -3.281207E-10
       123  16 -3.221002E+05 -2.969192E+04 -2.756351E+04 -1.766897E+04 -3.302915E-09  1.457182E-09
       123  17 -3.556795E+05 -3.804861E+04 -3.480487E+04 -4.473743E+03 -9.040007E-10 -6.595891E-10
       123  18 -3.889191E+05 -4.562833E+04 -4.121608E+04 -1.746905E+04  6.686073E-10 -3.515473E-10
       123  19 -8.313336E+04  2.965454E+04  3.014863E+04 -1.754227E+04  4.454372E+01  3.268721E+03
       123  20 -4.989136E+04  3.784048E+04  3.878320E+04 -4.547323E+03  1.072023E+03  4.601629E+03
       123  21 -1.629902E+04  4.681316E+04  4.828697E+04 -1.774211E+04  2.099118E+03  5.876306E+03
       123  22 -2.026233E+05 -1.816072E+01  1.293084E+03 -1.760562E+04  6.982900E+02  3.268575E+03
       123  23 -2.027961E+05 -1.032005E+02  1.990024E+03 -4.510525E+03  1.697619E+03  4.601592E+03
       123  24 -2.026249E+05  5.936956E+02  3.536721E+03 -1.760555E+04  2.696511E+03  5.876367E+03
       123  25 -3.221002E+05 -2.969191E+04 -2.756349E+04 -1.766896E+04  1.351911E+03  3.268429E+03
       123  26 -3.556795E+05 -3.804858E+04 -3.480482E+04 -4.473735E+03  2.323063E+03  4.601555E+03
       123  27 -3.889191E+05 -4.562829E+04 -4.121599E+04 -1.746904E+04  3.293724E+03  5.876429E+03
       124   1  3.167070E+04  5.776082E+04  6.084302E+04 -1.680217E+04 -2.607616E+03 -6.751871E+03
       124   2  6.368595E+04  6.537278E+04  7.170187E+04 -4.907701E+03 -6.778696E+03 -8.064472E+03
       124   3  9.813251E+04  8.013465E+04  8.708402E+04 -1.903650E+04 -1.094949E+04 -8.665785E+03
       124   4 -2.021801E+05 -2.847487E+02  4.485537E+03 -1.756825E+04 -3.407475E+03 -6.752022E+03
       124   5 -2.033671E+05 -8.907116E+02  7.454350E+03 -4.557090E+03 -7.235632E+03 -8.064779E+03
       124   6 -2.021822E+05  5.595500E+03  1.470978E+04 -1.756984E+04 -1.106328E+04 -8.666124E+03
       124   7 -4.359808E+05 -5.833430E+04 -5.187585E+04 -1.833403E+04 -4.207034E+03 -6.752172E+03
       124   8 -4.703549E+05 -6.715940E+04 -5.679825E+04 -4.206632E+03 -7.692372E+03 -8.065087E+03
       124   9 -5.024144E+05 -6.895022E+04 -5.767090E+04 -1.610389E+04 -1.117701E+04 -8.666464E+03
       124  10  3.167068E+04  5.776077E+04  6.084292E+04 -1.680218E+04 -1.508705E-09 -2.856979E-10
       124  11  6.368589E+04  6.537270E+04  7.170166E+04 -4.907745E+03  4.135292E-10 -5.923474E-10
       124  12  9.813236E+04  8.013453E+04  8.708365E+04 -1.903658E+04 -1.647395E-10 -4.696897E-10
       124  13 -2.021801E+05 -2.848008E+02  4.485430E+03 -1.756826E+04  2.829623E-15 -1.043008E-10
       124  14 -2.033672E+05 -8.907955E+02  7.454130E+03 -4.557137E+03 -1.677637E-09 -1.411224E-10
       124  15 -2.021824E+05  5.595387E+03  1.470941E+04 -1.756991E+04 -6.510522E-10 -1.024703E-09
       124  16 -4.359809E+05 -5.833436E+04 -5.187597E+04 -1.833406E+04  3.657446E-10  1.194197E-10
       124  17 -4.703550E+05 -6.715949E+04 -5.679848E+04 -4.206682E+03 -2.554630E-10 -1.830717E-10
       124  18 -5.024146E+05 -6.895033E+04 -5.767127E+04 -1.610397E+04 -1.620248E-09 -9.982783E-10
       124  19  3.167070E+04  5.776082E+04  6.084302E+04 -1.680217E+04  2.607616E+03  6.751871E+03
       124  20  6.368595E+04  6.537278E+04  7.170187E+04 -4.907701E+03  6.778696E+03  8.064472E+03
       124  21  9.813251E+04  8.013465E+04  8.708402E+04 -1.903650E+04  1.094949E+04  8.665785E+03
       124  22 -2.021801E+05 -2.847487E+02  4.485537E+03 -1.756825E+04  3.407475E+03  6.752022E+03
       124  23 -2.033671E+05 -8.907116E+02  7.454350E+03 -4.557090E+03  7.235632E+03  8.064779E+03
       124  24 -2.021822E+05  5.595500E+03  1.470978E+04 -1.756984E+04  1.106328E+04  8.666124E+03
       124  25 -4.359808E+05 -5.833430E+04 -5.187585E+04 -1.833403E+04  4.207034E+03  6.752172E+03
       124  26 -4.703549E+05 -6.715940E+04 -5.679825E+04 -4.206632E+03  7.692372E+03  8.065087E+03
       124  27 -5.024144E+05 -6.895022E+04 -5.767090E+04 -1.610389E+04  1.117701E+04  8.666464E+03
       125   1  1.489004E+05  8.357702E+04  1.015393E+05 -1.066211E+04 -1.119026E+04 -1.071715E+04
       125   2  1.723489E+05  8.644281E+04  1.199822E+05 -8.964178E+03 -3.097489E+04 -1.184821E+04
       125   3  2.149740E+05  1.548260E+05  1.677284E+05 -3.289110E+04 -5.076797E+04 -4.016777E+03
       125   4 -1.986216E+05 -2.642613E+03  1.800461E+04 -1.746688E+04 -1.387474E+04 -1.071861E+04
       125   5 -2.078401E+05 -7.858123E+03  2.863333E+04 -4.677233E+03 -2.934797E+04 -1.184779E+04
       125   6 -1.986196E+05  5.171654E+04  6.558323E+04 -1.751280E+04 -4.482851E+04 -4.012757E+03
       125   7 -5.460329E+05 -8.887086E+04 -6.553862E+04 -2.426785E+04 -1.655772E+04 -1.072001E+04
       125   8 -5.878968E+05 -1.021695E+05 -6.272577E+04 -3.929462E+02 -2.772203E+04 -1.184734E+04
       125   9 -6.120571E+05 -5.140477E+04 -3.657433E+04 -2.144791E+03 -3.889300E+04 -4.008442E+03
       125  10  1.489002E+05  8.357686E+04  1.015389E+05 -1.066221E+04 -7.662409E-10  2.488992E-10
       125  11  1.723478E+05  8.644240E+04  1.199801E+05 -8.964474E+03  9.750645E-11  1.456413E-09
       125  12  2.149712E+05  1.548253E+05  1.677235E+05 -3.289127E+04  1.051434E-09  9.842178E-10
       125  13 -1.986218E+05 -2.642788E+03  1.800404E+04 -1.746700E+04 -1.979012E-09 -9.252078E-10
       125  14 -2.078411E+05 -7.858506E+03  2.863145E+04 -4.677513E+03 -1.174329E-09  1.555651E-09
       125  15 -1.986218E+05  5.171598E+04  6.557942E+04 -1.751295E+04  2.855240E-10  3.099099E-10
       125  16 -5.460333E+05 -8.887106E+04 -6.553935E+04 -2.426799E+04  1.654635E-10 -5.377980E-10
       125  17 -5.878977E+05 -1.021699E+05 -6.272748E+04 -3.932107E+02  1.776904E-09  1.169181E-09
       125  18 -6.120587E+05 -5.140519E+04 -3.657720E+04 -2.144916E+03 -1.567815E-09  1.592971E-09
       125  19  1.489004E+05  8.357702E+04  1.015393E+05 -1.066211E+04  1.119026E+04  1.071715E+04
       125  20  1.723489E+05  8.644281E+04  1.199822E+05 -8.964178E+03  3.097489E+04  1.184821E+04
       125  21  2.149740E+05  1.548260E+05  1.677284E+05 -3.289110E+04  5.076797E+04  4.016777E+03
       125  22 -1.986216E+05 -2.642613E+03  1.800461E+04 -1.746688E+04  1.387474E+04  1.071861E+04
       125  23 -2.078401E+05 -7.858123E+03  2.863333E+04 -4.677233E+03  2.934797E+04  1.184779E+04
       125  24 -1.986196E+05  5.171654E+04  6.558323E+04 -1.751280E+04  4.482851E+04  4.012757E+03
       125  25 -5.460329E+05 -8.887086E+04 -6.553862E+04 -2.426785E+04  1.655772E+04  1.072001E+04
       125  26 -5.878968E+05 -1.021695E+05 -6.272577E+04 -3.929462E+02  2.772203E+04  1.184734E+04
       125  27 -6.120571E+05 -5.140477E+04 -3.657433E+04 -2.144791E+03  3.889300E+04  4.008442E+03
       126   1  4.635550E+05  3.985003E+05  4.499733E+05 -2.012291E+05  1.780969E+04  4.986136E+03
       126   2  3.934050E+05 -9.709232E+02  3.565808E+05 -5.124168E+04  4.923808E+04 -6.389554E+03
       126   3  2.914360E+05 -4.057726E+05  2.628706E+05 -2.148649E+05  3.446117E+04 -1.788048E+04
       126   4 -2.848634E+04 -1.573151E+06 -3.764420E+04 -2.073607E+05  1.786504E+04 -2.114320E+04
       126   5  4.330230E+03 -1.568354E+06 -2.019845E+04 -5.049689E+04  4.925762E+04 -1.035078E+04
       126   6  1.438920E+03 -1.572913E+06 -1.848562E+04 -2.072972E+05  3.439311E+04  3.192776E+02
       126   7 -5.208181E+05 -3.541264E+06 -5.255484E+05 -2.134706E+05  1.792102E+04 -4.718957E+04
       126   8 -3.849237E+05 -3.133486E+06 -3.971526E+05 -4.975231E+04  4.927717E+04 -1.430202E+04
       126   9 -2.886575E+05 -2.738805E+06 -2.999381E+05 -1.997425E+05  3.432542E+04  1.848492E+04
       126  10  4.635546E+05  3.985002E+05  4.499727E+05 -2.012292E+05 -2.993753E-10  1.250220E-09
       126  11  3.934024E+05 -9.716171E+02  3.565761E+05 -5.124143E+04  8.154494E-10 -4.325316E-09
       126  12  2.914346E+05 -4.057732E+05  2.628678E+05 -2.148644E+05  3.764417E-10 -1.878231E-10
       126  13 -2.848680E+04 -1.573151E+06 -3.764564E+04 -2.073604E+05 -1.681260E-09  3.135669E-11
       126  14  4.327598E+03 -1.568355E+06 -2.020321E+04 -5.049648E+04  3.171235E-09 -3.072134E-09
       126  15  1.437651E+03 -1.572913E+06 -1.848784E+04 -2.072972E+05 -1.129578E-09  4.022690E-10
       126  16 -5.208191E+05 -3.541267E+06 -5.255532E+05 -2.134699E+05  3.408888E-11 -1.666794E-09
       126  17 -3.849263E+05 -3.133487E+06 -3.971575E+05 -4.975174E+04  3.385155E-10 -2.669155E-10
       126  18 -2.886588E+05 -2.738805E+06 -2.999409E+05 -1.997430E+05 -1.622316E-09  5.269624E-11
       126  19  4.635550E+05  3.985003E+05  4.499733E+05 -2.012291E+05 -1.780969E+04 -4.986136E+03
       126  20  3.934050E+05 -9.709232E+02  3.565808E+05 -5.124168E+04 -4.923808E+04  6.389554E+03
       126  21  2.914360E+05 -4.057726E+05  2.628706E+05 -2.148649E+05 -3.446117E+04  1.788048E+04
       126  22 -2.848634E+04 -1.573151E+06 -3.764420E+04 -2.073607E+05 -1.786504E+04  2.114320E+04
       126  23  4.330230E+03 -1.568354E+06 -2.019845E+04 -5.049689E+04 -4.925762E+04  1.035078E+04
       126  24  1.438920E+03 -1.572913E+06 -1.848562E+04 -2.072972E+05 -3.439311E+04 -3.192776E+02
       126  25 -5.208181E+05 -3.541264E+06 -5.255484E+05 -2.134706E+05 -1.792102E+04  4.718957E+04
       126  26 -3.849237E+05 -3.133486E+06 -3.971526E+05 -4.975231E+04 -4.927717E+04  1.430202E+04
       126  27 -2.886575E+05 -2.738805E+06 -2.999381E+05 -1.997425E+05 -3.432542E+04 -1.848492E+04
       127   1  1.449098E+05 -9.856340E+05  1.218361E+05 -2.074499E+05  1.788938E+04 -2.292429E+03
       127   2  4.792874E+04 -1.388378E+06  1.955758E+04 -5.020359E+04  5.389835E+03  9.544269E+03
       127   3 -6.987656E+04 -1.800933E+06 -9.635317E+04 -2.125980E+05 -7.706717E+03  2.136519E+04
       127   4 -9.400778E+02 -1.572774E+06 -1.956326E+04 -2.086355E+05  1.786550E+04  3.531618E+03
       127   5  3.336922E+03 -1.567763E+06 -2.366764E+04 -4.883827E+04  5.363836E+03  1.564891E+04
       127   6 -1.324937E+04 -1.572763E+06 -4.158840E+04 -2.086893E+05 -7.735268E+03  2.775812E+04
       127   7 -1.468151E+05 -2.159597E+06 -1.609871E+05 -2.098197E+05  1.784159E+04  9.350168E+03
       127   8 -4.125723E+04 -1.747119E+06 -6.689502E+04 -4.747331E+04  5.337859E+03  2.175179E+04
       127   9  4.337412E+04 -1.344545E+06  1.317284E+04 -2.047792E+05 -7.763733E+03  3.415339E+04
       127  10  1.449094E+05 -9.856341E+05  1.218355E+05 -2.074499E+05 -8.308696E-10  2.713425E-09
       127  11  4.792869E+04 -1.388378E+06  1.955735E+04 -5.020363E+04 -1.448703E-10 -6.128779E-09
       127  12 -6.987674E+04 -1.800933E+06 -9.635414E+04 -2.125978E+05 -1.613061E-09 -2.728207E-10
       127  13 -9.404237E+02 -1.572774E+06 -1.956389E+04 -2.086356E+05  4.203598E-10  3.257387E-10
       127  14  3.336825E+03 -1.567763E+06 -2.366816E+04 -4.883834E+04  3.030257E-09 -4.408022E-09
       127  15 -1.324964E+04 -1.572764E+06 -4.158996E+04 -2.086892E+05 -1.758437E-09  5.898641E-10
       127  16 -1.468154E+05 -2.159597E+06 -1.609879E+05 -2.098198E+05 -2.130148E-09 -3.795338E-09
       127  17 -4.125738E+04 -1.747120E+06 -6.689597E+04 -4.747341E+04  2.747362E-10 -4.451706E-10
       127  18  4.337374E+04 -1.344546E+06  1.317053E+04 -2.047790E+05 -2.247564E-09  1.814292E-10
       127  19  1.449098E+05 -9.856340E+05  1.218361E+05 -2.074499E+05 -1.788938E+04  2.292429E+03
       127  20  4.792874E+04 -1.388378E+06  1.955758E+04 -5.020359E+04 -5.389835E+03 -9.544269E+03
       127  21 -6.987656E+04 -1.800933E+06 -9.635317E+04 -2.125980E+05  7.706717E+03 -2.136519E+04
       127  22 -9.400778E+02 -1.572774E+06 -1.956326E+04 -2.086355E+05 -1.786550E+04 -3.531618E+03
       127  23  3.336922E+03 -1.567763E+06 -2.366764E+04 -4.883827E+04 -5.363836E+03 -1.564891E+04
       127  24 -1.324937E+04 -1.572763E+06 -4.158840E+04 -2.086893E+05  7.735268E+03 -2.775812E+04
       127  25 -1.468151E+05 -2.159597E+06 -1.609871E+05 -2.098197E+05 -1.784159E+04 -9.350168E+03
       127  26 -4.125723E+04 -1.747119E+06 -6.689502E+04 -4.747331E+04 -5.337859E+03 -2.175179E+04
       127  27  4.337412E+04 -1.344545E+06  1.317284E+04 -2.047792E+05  7.763733E+03 -3.415339E+04
       128   1 -1.930679E+05 -2.390774E+06 -2.453219E+05 -1.870711E+05 -2.329630E+04  1.895846E+04
       128   2 -2.800861E+05 -2.768644E+06 -3.694161E+05 -5.884175E+04 -3.852407E+04  7.946628E+04
       128   3 -5.422609E+05 -3.198882E+06 -5.770448E+05 -2.467444E+05 -1.469334E+04  1.400648E+05
       128   4  8.433715E+03 -1.581605E+06 -4.978435E+04 -2.077222E+05 -2.336649E+04  3.551126E+04
       128   5  2.104696E+04 -1.557172E+06 -7.776037E+04 -4.987611E+04 -3.851050E+04  7.740689E+04
       128   6 -1.380528E+05 -1.581886E+06 -1.761845E+05 -2.081446E+05 -1.462382E+04  1.194339E+05
       128   7  2.098889E+05 -7.718343E+05  1.457074E+05 -2.283997E+05 -2.343774E+04  5.208560E+04
       128   8  3.220731E+05 -3.443496E+05  2.137907E+05 -4.089164E+04 -3.849700E+04  7.534336E+04
       128   9  2.659651E+05  3.750009E+04  2.244831E+05 -1.694417E+05 -1.455697E+04  9.874887E+04
       128  10 -1.930686E+05 -2.390774E+06 -2.453236E+05 -1.870707E+05 -1.708815E-09  2.156718E-09
       128  11 -2.800894E+05 -2.768652E+06 -3.694308E+05 -5.883928E+04 -2.110191E-09 -5.120971E-09
       128  12 -5.422664E+05 -3.198903E+06 -5.770822E+05 -2.467428E+05  1.797226E-10 -4.608291E-10
       128  13  8.432790E+03 -1.581607E+06 -4.978775E+04 -2.077215E+05 -3.219833E-09  1.066873E-10
       128  14  2.104375E+04 -1.557178E+06 -7.777444E+04 -4.987371E+04 -2.547398E-09 -3.511306E-09
       128  15 -1.380569E+05 -1.581902E+06 -1.762118E+05 -2.081432E+05 -5.010695E-10  3.564002E-10
       128  16  2.098876E+05 -7.718373E+05  1.457013E+05 -2.283987E+05 -2.307941E-09 -3.304599E-09
       128  17  3.220700E+05 -3.443561E+05  2.137772E+05 -4.088930E+04 -8.891322E-10 -2.247166E-10
       128  18  2.659623E+05  3.748956E+04  2.244644E+05 -1.694406E+05  1.260294E-09  4.183606E-10
       128  19 -1.930679E+05 -2.390774E+06 -2.453219E+05 -1.870711E+05  2.329630E+04 -1.895846E+04
       128  20 -2.800861E+05 -2.768644E+06 -3.694161E+05 -5.884175E+04  3.852407E+04 -7.946628E+04
       128  21 -5.422609E+05 -3.198882E+06 -5.770448E+05 -2.467444E+05  1.469334E+04 -1.400648E+05
       128  22  8.433715E+03 -1.581605E+06 -4.978435E+04 -2.077222E+05  2.336649E+04 -3.551126E+04
       128  23  2.104696E+04 -1.557172E+06 -7.776037E+04 -4.987611E+04  3.851050E+04 -7.740689E+04
       128  24 -1.380528E+05 -1.581886E+06 -1.761845E+05 -2.081446E+05  1.462382E+04 -1.194339E+05
       128  25  2.098889E+05 -7.718343E+05  1.457074E+05 -2.283997E+05  2.343774E+04 -5.208560E+04
       128  26  3.220731E+05 -3.443496E+05  2.137907E+05 -4.089164E+04  3.849700E+04 -7.534336E+04
       128  27  2.659651E+05  3.750009E+04  2.244831E+05 -1.694417E+05  1.455697E+04 -9.874887E+04
       129   1 -2.339065E+06 -5.747353E+05 -2.764117E+05 -8.453997E+05 -1.301840E+05 -4.559842E+04
       129   2 -2.300506E+06 -3.791164E+05 -1.543890E+05 -8.613290E+05 -8.457511E+04 -2.167153E+04
       129   3 -2.326264E+06 -3.756530E+05 -1.178699E+05 -8.420212E+05 -3.646150E+04 -4.396257E+03
       129   4 -2.078255E+06 -4.356432E+05 -1.971978E+05 -7.328762E+05 -1.260761E+05 -4.406307E+04
       129   5 -2.036158E+06 -2.680857E+05 -8.199008E+04 -7.774702E+05 -8.343114E+04 -2.124345E+04
       129   6 -2.057758E+06 -2.920509E+05 -4.990314E+04 -7.868365E+05 -3.828180E+04 -5.079589E+03
       129   7 -1.817375E+06 -2.965242E+05 -1.179906E+05 -6.203033E+05 -1.219663E+05 -4.252633E+04
       129   8 -1.771741E+06 -1.570458E+05 -9.597534E+03 -6.935775E+05 -8.228663E+04 -2.081512E+04
       129   9 -1.789181E+06 -2.084491E+05  1.805834E+04 -7.316325E+05 -4.010297E+04 -5.763118E+03
       129  10 -2.339083E+06 -5.747421E+05 -2.764476E+05 -8.454045E+05  1.675311E-09  2.556999E-10
       129  11 -2.300514E+06 -3.791188E+05 -1.544034E+05 -8.613304E+05  1.191653E-09 -7.892960E-10
       129  12 -2.326266E+06 -3.756533E+05 -1.178725E+05 -8.420214E+05  5.930442E-10  2.491860E-10
       129  13 -2.078272E+06 -4.356495E+05 -1.972315E+05 -7.328806E+05 -1.493593E-09  4.006010E-11
       129  14 -2.036165E+06 -2.680880E+05 -8.200406E+04 -7.774717E+05 -6.213164E-10 -4.016899E-10
       129  15 -2.057760E+06 -2.920513E+05 -4.990595E+04 -7.868367E+05  1.781702E-09  2.176204E-10
       129  16 -1.817392E+06 -2.965302E+05 -1.180221E+05 -6.203075E+05  4.359939E-10 -6.795204E-10
       129  17 -1.771748E+06 -1.570481E+05 -9.611116E+03 -6.935788E+05  1.973794E-09 -1.396946E-09
       129  18 -1.789183E+06 -2.084496E+05  1.805525E+04 -7.316327E+05 -4.767714E-10  2.883089E-10
       129  19 -2.339065E+06 -5.747353E+05 -2.764117E+05 -8.453997E+05  1.301840E+05  4.559842E+04
       129  20 -2.300506E+06 -3.791164E+05 -1.543890E+05 -8.613290E+05  8.457511E+04  2.167153E+04
       129  21 -2.326264E+06 -3.756530E+05 -1.178699E+05 -8.420212E+05  3.646150E+04  4.396257E+03
       129  22 -2.078255E+06 -4.356432E+05 -1.971978E+05 -7.328762E+05  1.260761E+05  4.406307E+04
       129  23 -2.036158E+06 -2.680857E+05 -8.199008E+04 -7.774702E+05  8.343114E+04  2.124345E+04
       129  24 -2.057758E+06 -2.920509E+05 -4.990314E+04 -7.868365E+05  3.828180E+04  5.079589E+03
       129  25 -1.817375E+06 -2.965242E+05 -1.179906E+05 -6.203033E+05  1.219663E+05  4.252633E+04
       129  26 -1.771741E+06 -1.570458E+05 -9.597534E+03 -6.935775E+05  8.228663E+04  2.081512E+04
       129  27 -1.789181E+06 -2.084491E+05  1.805834E+04 -7.316325E+05  4.010297E+04  5.763118E+03
       130   1 -2.274685E+06 -4.018845E+05 -1.011087E+05 -8.407151E+05 -3.062883E+04 -3.820637E+03
       130   2 -2.257368E+06 -3.674211E+05 -7.435524E+04 -8.312944E+05 -2.016492E+04 -1.882229E+02
       130   3 -2.236968E+06 -3.659134E+05 -6.098817E+04 -8.306495E+05 -9.471346E+03  2.832786E+03
       130   4 -2.050938E+06 -3.133391E+05 -4.066997E+04 -7.753645E+05 -3.061683E+04 -3.816575E+03
       130   5 -2.051345E+06 -2.887483E+05 -1.936448E+04 -7.740299E+05 -2.042327E+04 -2.854822E+02
       130   6 -2.048613E+06 -2.970547E+05 -1.122667E+04 -7.814714E+05 -1.000043E+04  2.634048E+03
       130   7 -1.827143E+06 -2.247893E+05  1.976429E+04 -7.099920E+05 -3.060483E+04 -3.812511E+03
       130   8 -1.845282E+06 -2.100728E+05  3.562248E+04 -7.167482E+05 -2.068172E+04 -3.827776E+02
       130   9 -1.860225E+06 -2.281945E+05  3.853165E+04 -7.322801E+05 -1.052969E+04  2.435249E+03
       130  10 -2.274687E+06 -4.018848E+05 -1.011105E+05 -8.407152E+05  1.043659E-09  1.456894E-09
       130  11 -2.257368E+06 -3.674212E+05 -7.435601E+04 -8.312944E+05 -5.681857E-09 -8.340472E-11
       130  12 -2.236968E+06 -3.659135E+05 -6.098836E+04 -8.306495E+05 -2.832612E-09 -1.181317E-09
       130  13 -2.050939E+06 -3.133394E+05 -4.067177E+04 -7.753646E+05 -1.773784E-09  2.841937E-10
       130  14 -2.051346E+06 -2.887484E+05 -1.936527E+04 -7.740299E+05 -2.465454E-09 -7.719162E-10
       130  15 -2.048613E+06 -2.970547E+05 -1.122687E+04 -7.814713E+05 -1.412460E-09 -3.036139E-10
       130  16 -1.827144E+06 -2.247896E+05  1.976249E+04 -7.099921E+05 -5.158358E-09 -7.493966E-10
       130  17 -1.845282E+06 -2.100729E+05  3.562167E+04 -7.167482E+05  6.141319E-11 -1.023459E-09
       130  18 -1.860225E+06 -2.281945E+05  3.853143E+04 -7.322801E+05  5.205481E-09  7.622040E-10
       130  19 -2.274685E+06 -4.018845E+05 -1.011087E+05 -8.407151E+05  3.062883E+04  3.820637E+03
       130  20 -2.257368E+06 -3.674211E+05 -7.435524E+04 -8.312944E+05  2.016492E+04  1.882229E+02
       130  21 -2.236968E+06 -3.659134E+05 -6.098817E+04 -8.306495E+05  9.471346E+03 -2.832786E+03
       130  22 -2.050938E+06 -3.133391E+05 -4.066997E+04 -7.753645E+05  3.061683E+04  3.816575E+03
       130  23 -2.051345E+06 -2.887483E+05 -1.936448E+04 -7.740299E+05  2.042327E+04  2.854822E+02
       130  24 -2.048613E+06 -2.970547E+05 -1.122667E+04 -7.814714E+05  1.000043E+04 -2.634048E+03
       130  25 -1.827143E+06 -2.247893E+05  1.976429E+04 -7.099920E+05  3.060483E+04  3.812511E+03
       130  26 -1.845282E+06 -2.100728E+05  3.562248E+04 -7.167482E+05  2.068172E+04  3.827776E+02
       130  27 -1.860225E+06 -2.281945E+05  3.853165E+04 -7.322801E+05  1.052969E+04 -2.435249E+03
       131   1 -2.201311E+06 -3.579479E+05 -4.972242E+04 -8.227181E+05 -7.776781E+03  2.774924E+03
       131   2 -2.185511E+06 -3.406247E+05 -3.971070E+04 -8.093770E+05 -5.078013E+03  2.788917E+03
       131   3 -2.157481E+06 -3.390814E+05 -3.210338E+04 -8.108418E+05 -2.349968E+03  2.724349E+03
       131   4 -2.047496E+06 -2.996552E+05 -8.807654E+03 -7.804057E+05 -8.152604E+03  2.633756E+03
       131   5 -2.053484E+06 -2.908550E+05 -4.590988E+03 -7.733445E+05 -5.488463E+03  2.634828E+03
       131   6 -2.047234E+06 -2.978276E+05 -2.750785E+03 -7.810892E+05 -2.795143E+03  2.557312E+03
       131   7 -1.893658E+06 -2.413607E+05  3.210516E+04 -7.380836E+05 -8.528531E+03  2.492549E+03
       131   8 -1.921439E+06 -2.410843E+05  3.052726E+04 -7.373050E+05 -5.899010E+03  2.480703E+03
       131   9 -1.936975E+06 -2.565731E+05  2.660075E+04 -7.513320E+05 -3.240406E+03  2.390242E+03
       131  10 -2.201311E+06 -3.579480E+05 -4.972254E+04 -8.227181E+05  3.329389E-09 -4.800012E-10
       131  11 -2.185511E+06 -3.406247E+05 -3.971077E+04 -8.093770E+05  2.967670E-10 -1.814781E-09
       131  12 -2.157481E+06 -3.390814E+05 -3.210340E+04 -8.108418E+05 -1.823273E-09 -8.890455E-10
       131  13 -2.047496E+06 -2.996552E+05 -8.807792E+03 -7.804056E+05  1.177309E-09 -5.134085E-10
       131  14 -2.053484E+06 -2.908550E+05 -4.591057E+03 -7.733445E+05 -7.116714E-10 -1.521787E-09
       131  15 -2.047234E+06 -2.978276E+05 -2.750812E+03 -7.810892E+05 -3.580826E-09 -8.173601E-10
       131  16 -1.893658E+06 -2.413608E+05  3.210501E+04 -7.380836E+05  2.844958E-09 -4.294202E-10
       131  17 -1.921439E+06 -2.410843E+05  3.052718E+04 -7.373050E+05 -1.473412E-09 -1.552445E-09
       131  18 -1.936975E+06 -2.565731E+05  2.660072E+04 -7.513320E+05 -2.035994E-09 -8.854453E-10
       131  19 -2.201311E+06 -3.579479E+05 -4.972242E+04 -8.227181E+05  7.776781E+03 -2.774924E+03
       131  20 -2.185511E+06 -3.406247E+05 -3.971070E+04 -8.093770E+05  5.078013E+03 -2.788917E+03
       131  21 -2.157481E+06 -3.390814E+05 -3.210338E+04 -8.108418E+05  2.349968E+03 -2.724349E+03
       131  22 -2.047496E+06 -2.996552E+05 -8.807654E+03 -7.804057E+05  8.152604E+03 -2.633756E+03
       131  23 -2.053484E+06 -2.908550E+05 -4.590988E+03 -7.733445E+05  5.488463E+03 -2.634828E+03
       131  24 -2.047234E+06 -2.978276E+05 -2.750785E+03 -7.810892E+05  2.795143E+03 -2.557312E+03
       131  25 -1.893658E+06 -2.413607E+05  3.210516E+04 -7.380836E+05  8.528531E+03 -2.492549E+03
       131  26 -1.921439E+06 -2.410843E+05  3.052726E+04 -7.373050E+05  5.899010E+03 -2.480703E+03
       131  27 -1.936975E+06 -2.565731E+05  2.660075E+04 -7.513320E+05  3.240406E+03 -2.390242E+03
       132   1 -2.121852E+06 -3.264220E+05 -2.207023E+04 -8.015330E+05 -1.737104E+03  2.300354E+03
       132   2 -2.105646E+06 -3.104219E+05 -1.535577E+04 -7.871982E+05 -5.640206E+02  1.626960E+03
       132   3 -2.075601E+06 -3.088364E+05 -9.333329E+03 -7.889243E+05  6.151153E+02  9.371082E+02
       132   4 -2.046974E+06 -2.982241E+05 -2.240099E+03 -7.811052E+05 -2.170913E+03  2.137620E+03
       132   5 -2.053883E+06 -2.909410E+05 -1.593090E+03 -7.731032E+05 -1.005118E+03  1.461524E+03
       132   6 -2.046951E+06 -2.980710E+05 -1.632263E+03 -7.811622E+05  1.666940E+02  7.689605E+02
       132   7 -1.972090E+06 -2.700258E+05  1.758953E+04 -7.606752E+05 -2.604779E+03  1.974865E+03
       132   8 -2.002117E+06 -2.714600E+05  1.216931E+04 -7.590072E+05 -1.446254E+03  1.296073E+03
       132   9 -2.018302E+06 -2.873056E+05  6.068692E+03 -7.733999E+05 -2.817480E+02  6.008052E+02
       132  10 -2.121852E+06 -3.264220E+05 -2.207025E+04 -8.015330E+05 -1.633776E-09  3.605984E-10
       132  11 -2.105646E+06 -3.104219E+05 -1.535577E+04 -7.871982E+05  7.339324E-10  7.850354E-10
       132  12 -2.075601E+06 -3.088364E+05 -9.333332E+03 -7.889243E+05  3.776102E-09  4.701440E-10
       132  13 -2.046974E+06 -2.982241E+05 -2.240116E+03 -7.811052E+05  1.103574E-10 -4.568261E-11
       132  14 -2.053883E+06 -2.909410E+05 -1.593096E+03 -7.731032E+05  1.917206E-09  7.381796E-10
       132  15 -2.046951E+06 -2.980710E+05 -1.632265E+03 -7.811622E+05  4.672708E-09  6.488905E-10
       132  16 -1.972090E+06 -2.700258E+05  1.758951E+04 -7.606752E+05 -3.259048E-10 -3.424360E-11
       132  17 -2.002117E+06 -2.714600E+05  1.216931E+04 -7.590072E+05  1.771005E-09  9.511642E-10
       132  18 -2.018302E+06 -2.873056E+05  6.068691E+03 -7.733999E+05  1.230638E-09  1.474056E-09
       132  19 -2.121852E+06 -3.264220E+05 -2.207023E+04 -8.015330E+05  1.737104E+03 -2.300354E+03
       132  20 -2.105646E+06 -3.104219E+05 -1.535577E+04 -7.871982E+05  5.640206E+02 -1.626960E+03
       132  21 -2.075601E+06 -3.088364E+05 -9.333329E+03 -7.889243E+05 -6.151153E+02 -9.371082E+02
       132  22 -2.046974E+06 -2.982241E+05 -2.240099E+03 -7.811052E+05  2.170913E+03 -2.137620E+03
       132  23 -2.053883E+06 -2.909410E+05 -1.593090E+03 -7.731032E+05  1.005118E+03 -1.461524E+03
       132  24 -2.046951E+06 -2.980710E+05 -1.632263E+03 -7.811622E+05 -1.666940E+02 -7.689605E+02
       132  25 -1.972090E+06 -2.700258E+05  1.758953E+04 -7.606752E+05  2.604779E+03 -1.974865E+03
       132  26 -2.002117E+06 -2.714600E+05  1.216931E+04 -7.590072E+05  1.446254E+03 -1.296073E+03
       132  27 -2.018302E+06 -2.873056E+05  6.068692E+03 -7.733999E+05  2.817480E+02 -6.008052E+02
       133   1 -2.039355E+06 -2.952502E+05  2.592934E+02 -7.792251E+05  1.120476E+03  4.608975E+02
       133   2 -2.023036E+06 -2.792810E+05  5.424704E+03 -7.646998E+05  2.879241E+03 -1.453856E+01
       133   3 -1.993017E+06 -2.781514E+05  9.371437E+03 -7.662525E+05  4.633722E+03 -4.781905E+02
       133   4 -2.046966E+06 -2.980503E+05 -1.838775E+03 -7.812093E+05  6.718705E+02  2.926856E+02
       133   5 -2.053850E+06 -2.908683E+05 -2.765922E+03 -7.730813E+05  2.435833E+03 -1.808248E+02
       133   6 -2.047036E+06 -2.985272E+05 -4.915791E+03 -7.810314E+05  4.195450E+03 -6.425704E+02
       133   7 -2.054578E+06 -3.008503E+05 -3.936861E+03 -7.831935E+05  2.232683E+02  1.244748E+02
       133   8 -2.084664E+06 -3.024557E+05 -1.095667E+04 -7.814623E+05  1.992447E+03 -3.471028E+02
       133   9 -2.101052E+06 -3.189028E+05 -1.920332E+04 -7.958092E+05  3.757220E+03 -8.069348E+02
       133  10 -2.039355E+06 -2.952502E+05  2.592907E+02 -7.792251E+05  3.608600E-09  4.385674E-10
       133  11 -2.023036E+06 -2.792810E+05  5.424688E+03 -7.646998E+05  1.051863E-09  2.111030E-10
       133  12 -1.993017E+06 -2.781514E+05  9.371396E+03 -7.662525E+05  1.076832E-09 -1.933861E-10
       133  13 -2.046966E+06 -2.980503E+05 -1.838776E+03 -7.812093E+05  7.746616E-11  2.157016E-10
       133  14 -2.053850E+06 -2.908683E+05 -2.765933E+03 -7.730812E+05  6.699216E-10 -3.874469E-11
       133  15 -2.047036E+06 -2.985272E+05 -4.915825E+03 -7.810314E+05  3.397983E-10  2.676603E-10
       133  16 -2.054578E+06 -3.008503E+05 -3.936861E+03 -7.831935E+05  1.086145E-09  5.561646E-10
       133  17 -2.084664E+06 -3.024557E+05 -1.095668E+04 -7.814623E+05 -6.782289E-10  3.864293E-10
       133  18 -2.101052E+06 -3.189028E+05 -1.920335E+04 -7.958092E+05 -8.530692E-10  9.619361E-11
       133  19 -2.039355E+06 -2.952502E+05  2.592934E+02 -7.792251E+05 -1.120476E+03 -4.608975E+02
       133  20 -2.023036E+06 -2.792810E+05  5.424704E+03 -7.646998E+05 -2.879241E+03  1.453856E+01
       133  21 -1.993017E+06 -2.781514E+05  9.371437E+03 -7.662525E+05 -4.633722E+03  4.781905E+02
       133  22 -2.046966E+06 -2.980503E+05 -1.838775E+03 -7.812093E+05 -6.718705E+02 -2.926856E+02
       133  23 -2.053850E+06 -2.908683E+05 -2.765922E+03 -7.730813E+05 -2.435833E+03  1.808248E+02
       133  24 -2.047036E+06 -2.985272E+05 -4.915791E+03 -7.810314E+05 -4.195450E+03  6.425704E+02
       133  25 -2.054578E+06 -3.008503E+05 -3.936861E+03 -7.831935E+05 -2.232683E+02 -1.244748E+02
       133  26 -2.084664E+06 -3.024557E+05 -1.095667E+04 -7.814623E+05 -1.992447E+03  3.471028E+02
       133  27 -2.101052E+06 -3.189028E+05 -1.920332E+04 -7.958092E+05 -3.757220E+03  8.069348E+02
       134   1 -1.957411E+06 -2.645241E+05  1.754735E+04 -7.574397E+05  5.786215E+03 -7.059744E+02
       134   2 -1.941275E+06 -2.480292E+05  1.860759E+04 -7.426658E+05  1.179970E+04  4.472332E+02
       134   3 -1.914432E+06 -2.510554E+05  1.386599E+04 -7.421790E+05  1.778674E+04  1.672506E+03
       134   4 -2.047453E+06 -2.977915E+05 -6.357073E+03 -7.813007E+05  5.336416E+03 -8.747026E+02
       134   5 -2.053128E+06 -2.902992E+05 -1.116209E+04 -7.733071E+05  1.138110E+04  2.901332E+02
       134   6 -2.048105E+06 -3.023353E+05 -2.179469E+04 -7.796009E+05  1.739915E+04  1.526948E+03
       134   7 -2.137487E+06 -3.310582E+05 -3.026208E+04 -8.051584E+05  4.886691E+03 -1.043404E+03
       134   8 -2.164969E+06 -3.325684E+05 -4.093281E+04 -8.039433E+05  1.096259E+04  1.330648E+02
       134   9 -2.181760E+06 -3.536140E+05 -5.745701E+04 -8.170156E+05  1.701164E+04  1.381426E+03
       134  10 -1.957411E+06 -2.645241E+05  1.754728E+04 -7.574397E+05  1.024856E-09 -3.356695E-10
       134  11 -1.941275E+06 -2.480293E+05  1.860732E+04 -7.426658E+05  6.306974E-10  2.816347E-10
       134  12 -1.914433E+06 -2.510555E+05  1.386539E+04 -7.421790E+05  2.552649E-09  7.143965E-11
       134  13 -2.047453E+06 -2.977915E+05 -6.357128E+03 -7.813007E+05 -1.652276E-09 -4.242825E-10
       134  14 -2.053128E+06 -2.902993E+05 -1.116233E+04 -7.733071E+05 -2.371452E-09 -6.684057E-10
       134  15 -2.048105E+06 -3.023353E+05 -2.179527E+04 -7.796010E+05 -3.220979E-09 -6.611921E-10
       134  16 -2.137487E+06 -3.310582E+05 -3.026212E+04 -8.051584E+05  5.299661E-11 -1.631777E-10
       134  17 -2.164969E+06 -3.325684E+05 -4.093303E+04 -8.039433E+05 -2.248795E-09 -4.104665E-10
       134  18 -2.181760E+06 -3.536140E+05 -5.745755E+04 -8.170156E+05  1.603692E-09 -9.694356E-10
       134  19 -1.957411E+06 -2.645241E+05  1.754735E+04 -7.574397E+05 -5.786215E+03  7.059744E+02
       134  20 -1.941275E+06 -2.480292E+05  1.860759E+04 -7.426658E+05 -1.179970E+04 -4.472332E+02
       134  21 -1.914432E+06 -2.510554E+05  1.386599E+04 -7.421790E+05 -1.778674E+04 -1.672506E+03
       134  22 -2.047453E+06 -2.977915E+05 -6.357073E+03 -7.813007E+05 -5.336416E+03  8.747026E+02
       134  23 -2.053128E+06 -2.902992E+05 -1.116209E+04 -7.733071E+05 -1.138110E+04 -2.901332E+02
       134  24 -2.048105E+06 -3.023353E+05 -2.179469E+04 -7.796009E+05 -1.739915E+04 -1.526948E+03
       134  25 -2.137487E+06 -3.310582E+05 -3.026208E+04 -8.051584E+05 -4.886691E+03  1.043404E+03
       134  26 -2.164969E+06 -3.325684E+05 -4.093281E+04 -8.039433E+05 -1.096259E+04 -1.330648E+02
       134  27 -2.181760E+06 -3.536140E+05 -5.745701E+04 -8.170156E+05 -1.701164E+04 -1.381426E+03
       135   1 -1.878835E+06 -2.368643E+05  1.684029E+04 -7.413446E+05  2.217962E+04  2.618320E+03
       135   2 -1.861812E+06 -2.115777E+05  1.923079E+03 -7.207866E+05  4.738094E+04  1.106114E+04
       135   3 -1.854803E+06 -2.504577E+05 -4.559814E+04 -7.018340E+05  7.236363E+04  2.008866E+04
       135   4 -2.050464E+06 -2.963108E+05 -2.786540E+04 -7.827718E+05  2.164494E+04  2.417745E+03
       135   5 -2.048320E+06 -2.844733E+05 -4.817172E+04 -7.743674E+05  4.710056E+04  1.095547E+04
       135   6 -2.056249E+06 -3.368637E+05 -1.012921E+05 -7.675679E+05  7.233693E+04  2.007695E+04
       135   7 -2.222064E+06 -3.557564E+05 -7.257341E+04 -8.241890E+05  2.111044E+04  2.217219E+03
       135   8 -2.234794E+06 -3.573660E+05 -9.826960E+04 -8.279335E+05  4.682027E+04  1.084983E+04
       135   9 -2.257655E+06 -4.232640E+05 -1.569899E+05 -8.332813E+05  7.231023E+04  2.006525E+04
       135  10 -1.878836E+06 -2.368645E+05  1.683935E+04 -7.413447E+05  5.068921E-10 -1.500290E-10
       135  11 -1.861814E+06 -2.115785E+05  1.918615E+03 -7.207870E+05  8.090622E-10  3.114182E-10
       135  12 -1.854809E+06 -2.504595E+05 -4.560877E+04 -7.018352E+05  2.974183E-11  3.206772E-10
       135  13 -2.050465E+06 -2.963109E+05 -2.786630E+04 -7.827718E+05  5.539599E-11 -2.035101E-10
       135  14 -2.048322E+06 -2.844740E+05 -4.817613E+04 -7.743679E+05  7.938866E-10  3.840991E-10
       135  15 -2.056254E+06 -3.368655E+05 -1.013027E+05 -7.675690E+05 -8.801621E-10 -4.007599E-10
       135  16 -2.222064E+06 -3.557565E+05 -7.257426E+04 -8.241890E+05  4.054721E-10 -2.853024E-10
       135  17 -2.234797E+06 -3.573667E+05 -9.827396E+04 -8.279339E+05 -1.187159E-09  6.045013E-10
       135  18 -2.257661E+06 -4.232658E+05 -1.570005E+05 -8.332825E+05  5.110935E-10 -5.358775E-10
       135  19 -1.878835E+06 -2.368643E+05  1.684029E+04 -7.413446E+05 -2.217962E+04 -2.618320E+03
       135  20 -1.861812E+06 -2.115777E+05  1.923079E+03 -7.207866E+05 -4.738094E+04 -1.106114E+04
       135  21 -1.854803E+06 -2.504577E+05 -4.559814E+04 -7.018340E+05 -7.236363E+04 -2.008866E+04
       135  22 -2.050464E+06 -2.963108E+05 -2.786540E+04 -7.827718E+05 -2.164494E+04 -2.417745E+03
       135  23 -2.048320E+06 -2.844733E+05 -4.817172E+04 -7.743674E+05 -4.710056E+04 -1.095547E+04
       135  24 -2.056249E+06 -3.368637E+05 -1.012921E+05 -7.675679E+05 -7.233693E+04 -2.007695E+04
       135  25 -2.222064E+06 -3.557564E+05 -7.257341E+04 -8.241890E+05 -2.111044E+04 -2.217219E+03
       135  26 -2.234794E+06 -3.573660E+05 -9.826960E+04 -8.279335E+05 -4.682027E+04 -1.084983E+04
       135  27 -2.257655E+06 -4.232640E+05 -1.569899E+05 -8.332813E+05 -7.231023E+04 -2.006525E+04
       136   1 -1.801657E+06 -2.261871E+05 -6.076098E+04 -7.680012E+05  9.240108E+04  2.602500E+04
       136   2 -1.775021E+06 -1.147939E+05 -1.360069E+05 -6.883859E+05  2.016815E+05  6.628547E+04
       136   3 -1.921526E+06 -4.650927E+05 -4.160692E+05 -5.041194E+05  3.085646E+05  1.129390E+05
       136   4 -2.072624E+06 -2.844624E+05 -1.243041E+05 -7.968770E+05  9.062121E+04  2.536392E+04
       136   5 -2.011232E+06 -2.321656E+05 -2.041818E+05 -7.820140E+05  2.027166E+05  6.666291E+04
       136   6 -2.123630E+06 -6.422508E+05 -4.911763E+05 -6.624749E+05  3.124199E+05  1.143263E+05
       136   7 -2.343517E+06 -3.427396E+05 -1.878510E+05 -8.257469E+05  8.884219E+04  2.470284E+04
       136   8 -2.247385E+06 -3.495199E+05 -2.723616E+05 -8.756052E+05  2.037513E+05  6.704006E+04
       136   9 -2.325666E+06 -8.193230E+05 -5.662828E+05 -8.207646E+05  3.162737E+05  1.157115E+05
       136  10 -1.801666E+06 -2.261901E+05 -6.077836E+04 -7.680032E+05 -1.910283E-09 -1.356605E-11
       136  11 -1.775066E+06 -1.148096E+05 -1.360919E+05 -6.883967E+05 -1.145004E-09  9.781879E-10
       136  12 -1.921632E+06 -4.651321E+05 -4.162728E+05 -5.041475E+05  1.005044E-10 -1.427927E-11
       136  13 -2.072633E+06 -2.844653E+05 -1.243208E+05 -7.968789E+05  6.023145E-10 -4.224210E-10
       136  14 -2.011277E+06 -2.321815E+05 -2.042677E+05 -7.820249E+05 -1.027998E-09  5.680431E-10
       136  15 -2.123739E+06 -6.422912E+05 -4.913851E+05 -6.625038E+05 -1.027146E-09  3.722902E-10
       136  16 -2.343525E+06 -3.427424E+05 -1.878670E+05 -8.257487E+05  1.491684E-09 -1.777401E-10
       136  17 -2.247431E+06 -3.495359E+05 -2.724484E+05 -8.756162E+05 -1.026557E-09  1.142961E-12
       136  18 -2.325777E+06 -8.193644E+05 -5.664969E+05 -8.207941E+05 -1.455766E-09  7.777067E-10
       136  19 -1.801657E+06 -2.261871E+05 -6.076098E+04 -7.680012E+05 -9.240108E+04 -2.602500E+04
       136  20 -1.775021E+06 -1.147939E+05 -1.360069E+05 -6.883859E+05 -2.016815E+05 -6.628547E+04
       136  21 -1.921526E+06 -4.650927E+05 -4.160692E+05 -5.041194E+05 -3.085646E+05 -1.129390E+05
       136  22 -2.072624E+06 -2.844624E+05 -1.243041E+05 -7.968770E+05 -9.062121E+04 -2.536392E+04
       136  23 -2.011232E+06 -2.321656E+05 -2.041818E+05 -7.820140E+05 -2.027166E+05 -6.666291E+04
       136  24 -2.123630E+06 -6.422508E+05 -4.911763E+05 -6.624749E+05 -3.124199E+05 -1.143263E+05
       136  25 -2.343517E+06 -3.427396E+05 -1.878510E+05 -8.257469E+05 -8.884219E+04 -2.470284E+04
       136  26 -2.247385E+06 -3.495199E+05 -2.723616E+05 -8.756052E+05 -2.037513E+05 -6.704006E+04
       136  27 -2.325666E+06 -8.193230E+05 -5.662828E+05 -8.207646E+05 -3.162737E+05 -1.157115E+05
       137   1 -3.232870E+05 -1.666077E+02  2.489145E+04  1.202634E+04  7.326224E+04  3.567667E+03
       137   2 -3.102592E+05 -9.678767E+04 -3.035465E+04  3.744165E+03  4.996311E+04  1.045506E+04
       137   3 -2.658187E+05 -8.065873E+04 -4.219952E+04 -2.686398E+04  2.666901E+04  9.466767E+03
       137   4  4.066963E+04  9.055148E+04  1.147880E+05 -1.512230E+04  7.849902E+04  3.569189E+03
       137   5  2.464523E+04 -1.371186E+04  5.012602E+04 -3.918805E+03  5.140642E+04  1.045511E+04
       137   6  4.067245E+04 -4.600968E+03  3.148164E+04 -1.503989E+04  2.432008E+04  9.465763E+03
       137   7  4.047484E+05  1.812625E+05  2.046753E+05 -4.228691E+04  8.373886E+04  3.570254E+03
       137   8  3.596525E+05  6.935601E+04  1.305988E+05 -1.158595E+04  5.285051E+04  1.045513E+04
       137   9  3.472500E+05  7.145048E+04  1.051562E+05 -3.209938E+03  2.196999E+04  9.464669E+03
       137  10 -3.232928E+05 -1.680631E+02  2.488133E+04  1.202613E+04  1.681463E-10 -1.290761E-09
       137  11 -3.102619E+05 -9.678846E+04 -3.035955E+04  3.743744E+03 -1.057946E-09 -4.885036E-10
       137  12 -2.658195E+05 -8.065902E+04 -4.220102E+04 -2.686419E+04 -2.991122E-09 -2.174882E-11
       137  13  4.066301E+04  9.054982E+04  1.147764E+05 -1.512253E+04  2.160513E-09  5.568319E-10
       137  14  2.464236E+04 -1.371269E+04  5.012085E+04 -3.919238E+03 -1.029730E-10 -2.689546E-10
       137  15  4.067179E+04 -4.601223E+03  3.148036E+04 -1.504007E+04  3.206854E-09 -6.745241E-10
       137  16  4.047409E+05  1.812606E+05  2.046621E+05 -4.228715E+04 -5.957547E-10  8.439836E-10
       137  17  3.596495E+05  6.935514E+04  1.305933E+05 -1.158639E+04 -4.297657E-10  3.554370E-10
       137  18  3.472494E+05  7.145026E+04  1.051551E+05 -3.210105E+03 -6.295404E-10  4.356520E-10
       137  19 -3.232870E+05 -1.666077E+02  2.489145E+04  1.202634E+04 -7.326224E+04 -3.567667E+03
       137  20 -3.102592E+05 -9.678767E+04 -3.035465E+04  3.744165E+03 -4.996311E+04 -1.045506E+04
       137  21 -2.658187E+05 -8.065873E+04 -4.219952E+04 -2.686398E+04 -2.666901E+04 -9.466767E+03
       137  22  4.066963E+04  9.055148E+04  1.147880E+05 -1.512230E+04 -7.849902E+04 -3.569189E+03
       137  23  2.464523E+04 -1.371186E+04  5.012602E+04 -3.918805E+03 -5.140642E+04 -1.045511E+04
       137  24  4.067245E+04 -4.600968E+03  3.148164E+04 -1.503989E+04 -2.432008E+04 -9.465763E+03
       137  25  4.047484E+05  1.812625E+05  2.046753E+05 -4.228691E+04 -8.373886E+04 -3.570254E+03
       137  26  3.596525E+05  6.935601E+04  1.305988E+05 -1.158595E+04 -5.285051E+04 -1.045513E+04
       137  27  3.472500E+05  7.145048E+04  1.051562E+05 -3.209938E+03 -2.196999E+04 -9.464669E+03
       138   1 -2.312611E+05 -5.613464E+04 -3.833272E+04 -1.246598E+04  1.949326E+04  7.670272E+03
       138   2 -2.046773E+05 -6.037858E+04 -4.406078E+04 -3.258441E+03  1.312511E+04  7.162265E+03
       138   3 -1.740873E+05 -5.226341E+04 -4.253365E+04 -1.644492E+04  6.756385E+03  6.033435E+03
       138   4  3.445735E+04  9.821212E+03  2.570927E+04 -1.508182E+04  1.940521E+04  7.669936E+03
       138   5  3.243066E+04 -1.543050E+03  1.298501E+04 -3.883270E+03  1.273655E+04  7.161968E+03
       138   6  3.445977E+04 -4.987277E+02  7.722362E+03 -1.507812E+04  6.067599E+03  6.033243E+03
       138   7  3.002404E+05  7.577194E+04  8.974621E+04 -1.769878E+04  1.931712E+04  7.669601E+03
       138   8  2.695901E+05  5.728838E+04  7.002680E+04 -4.508343E+03  1.234783E+04  7.161672E+03
       138   9  2.430466E+05  5.126279E+04  5.797527E+04 -1.371086E+04  5.378582E+03  6.033048E+03
       138  10 -2.312615E+05 -5.613481E+04 -3.833354E+04 -1.246610E+04  6.950860E-10  5.529180E-10
       138  11 -2.046775E+05 -6.037868E+04 -4.406120E+04 -3.258517E+03 -7.547552E-10  2.000100E-10
       138  12 -1.740874E+05 -5.226346E+04 -4.253381E+04 -1.644495E+04 -5.086481E-10 -4.871896E-10
       138  13  3.445693E+04  9.821048E+03  2.570845E+04 -1.508194E+04 -2.144413E-09  8.991889E-10
       138  14  3.243047E+04 -1.543148E+03  1.298461E+04 -3.883344E+03 -1.637849E-09  5.957212E-10
       138  15  3.445972E+04 -4.987767E+02  7.722224E+03 -1.507815E+04  2.004114E-09 -1.408753E-10
       138  16  3.002400E+05  7.577178E+04  8.974540E+04 -1.769890E+04 -1.542711E-10  1.086568E-10
       138  17  2.695899E+05  5.728829E+04  7.002641E+04 -4.508414E+03 -6.525632E-10  5.971421E-10
       138  18  2.430466E+05  5.126274E+04  5.797515E+04 -1.371088E+04  7.119020E-10  3.449720E-10
       138  19 -2.312611E+05 -5.613464E+04 -3.833272E+04 -1.246598E+04 -1.949326E+04 -7.670272E+03
       138  20 -2.046773E+05 -6.037858E+04 -4.406078E+04 -3.258441E+03 -1.312511E+04 -7.162265E+03
       138  21 -1.740873E+05 -5.226341E+04 -4.253365E+04 -1.644492E+04 -6.756385E+03 -6.033435E+03
       138  22  3.445735E+04  9.821212E+03  2.570927E+04 -1.508182E+04 -1.940521E+04 -7.669936E+03
       138  23  3.243066E+04 -1.543050E+03  1.298501E+04 -3.883270E+03 -1.273655E+04 -7.161968E+03
       138  24  3.445977E+04 -4.987277E+02  7.722362E+03 -1.507812E+04 -6.067599E+03 -6.033243E+03
       138  25  3.002404E+05  7.577194E+04  8.974621E+04 -1.769878E+04 -1.931712E+04 -7.669601E+03
       138  26  2.695901E+05  5.728838E+04  7.002680E+04 -4.508343E+03 -1.234783E+04 -7.161672E+03
       138  27  2.430466E+05  5.126279E+04  5.797527E+04 -1.371086E+04 -5.378582E+03 -6.033048E+03
       139   1 -1.341488E+05 -4.058814E+04 -3.428698E+04 -1.486521E+04  5.360599E+03  5.280566E+03
       139   2 -1.058779E+05 -3.473744E+04 -3.031830E+04 -3.858267E+03  3.778946E+03  4.191099E+03
       139   3 -7.704179E+04 -2.754193E+04 -2.497890E+04 -1.523100E+04  2.196902E+03  3.052969E+03
       139   4  3.368920E+04  1.043969E+03  6.024956E+03 -1.507605E+04  4.850276E+03  5.280451E+03
       139   5  3.340550E+04 -1.769052E+02  3.194363E+03 -3.886364E+03  3.244862E+03  4.191059E+03
       139   6  3.369061E+04 -4.890040E+01  1.750836E+03 -1.507604E+04  1.639128E+03  3.053011E+03
       139   7  2.015530E+05  4.267403E+04  4.633489E+04 -1.528694E+04  4.339815E+03  5.280336E+03
       139   8  1.727066E+05  3.438222E+04  3.670564E+04 -3.914468E+03  2.710657E+03  4.191019E+03
       139   9  1.444342E+05  2.744324E+04  2.847969E+04 -1.492105E+04  1.081254E+03  3.053052E+03
       139  10 -1.341488E+05 -4.058818E+04 -3.428709E+04 -1.486523E+04  4.512483E-10 -1.619088E-10
       139  11 -1.058779E+05 -3.473746E+04 -3.031836E+04 -3.858280E+03 -1.573654E-10  4.747170E-10
       139  12 -7.704180E+04 -2.754195E+04 -2.497893E+04 -1.523101E+04  9.499607E-10 -3.966094E-10
       139  13  3.368917E+04  1.043933E+03  6.024859E+03 -1.507607E+04 -1.210518E-11 -7.416289E-11
       139  14  3.340548E+04 -1.769269E+02  3.194310E+03 -3.886375E+03  1.618402E-09 -2.884666E-11
       139  15  3.369061E+04 -4.891114E+01  1.750814E+03 -1.507604E+04  3.208856E-09  1.501933E-11
       139  16  2.015529E+05  4.267400E+04  4.633480E+04 -1.528696E+04  4.307204E-11 -6.529688E-12
       139  17  1.727066E+05  3.438219E+04  3.670560E+04 -3.914477E+03  1.479017E-09 -3.707938E-10
       139  18  1.444342E+05  2.744323E+04  2.847967E+04 -1.492105E+04 -7.613614E-10 -1.665042E-10
       139  19 -1.341488E+05 -4.058814E+04 -3.428698E+04 -1.486521E+04 -5.360599E+03 -5.280566E+03
       139  20 -1.058779E+05 -3.473744E+04 -3.031830E+04 -3.858267E+03 -3.778946E+03 -4.191099E+03
       139  21 -7.704179E+04 -2.754193E+04 -2.497890E+04 -1.523100E+04 -2.196902E+03 -3.052969E+03
       139  22  3.368920E+04  1.043969E+03  6.024956E+03 -1.507605E+04 -4.850276E+03 -5.280451E+03
       139  23  3.340550E+04 -1.769052E+02  3.194363E+03 -3.886364E+03 -3.244862E+03 -4.191059E+03
       139  24  3.369061E+04 -4.890040E+01  1.750836E+03 -1.507604E+04 -1.639128E+03 -3.053011E+03
       139  25  2.015530E+05  4.267403E+04  4.633489E+04 -1.528694E+04 -4.339815E+03 -5.280336E+03
       139  26  1.727066E+05  3.438222E+04  3.670564E+04 -3.914468E+03 -2.710657E+03 -4.191019E+03
       139  27  1.444342E+05  2.744324E+04  2.847969E+04 -1.492105E+04 -1.081254E+03 -3.053052E+03
       140   1 -3.647343E+04 -1.725274E+04 -1.551812E+04 -1.506824E+04  1.913629E+03  2.383049E+03
       140   2 -7.959035E+03 -1.031372E+04 -9.556271E+03 -3.898971E+03  1.699874E+03  1.248275E+03
       140   3  2.060692E+04 -3.254281E+03 -3.426783E+03 -1.510164E+04  1.486001E+03  1.100095E+02
       140   4  3.357756E+04  1.111285E+02  1.249900E+03 -1.507435E+04  1.369864E+03  2.383124E+03
       140   5  3.355245E+04 -1.401633E+01  4.312808E+02 -3.888441E+03  1.154384E+03  1.248372E+03
       140   6  3.357799E+04 -1.852029E+01 -2.185973E+02 -1.507438E+04  9.387954E+02  1.101318E+02
       140   7  1.036330E+05  1.747465E+04  1.801757E+04 -1.508046E+04  8.260379E+02  2.383199E+03
       140   8  7.506550E+04  1.028556E+04  1.041871E+04 -3.877910E+03  6.088572E+02  1.248470E+03
       140   9  4.654921E+04  3.217228E+03  2.989577E+03 -1.504711E+04  3.915781E+02  1.102541E+02
       140  10 -3.647343E+04 -1.725275E+04 -1.551813E+04 -1.506824E+04  1.079985E-10 -3.629595E-10
       140  11 -7.959038E+03 -1.031372E+04 -9.556279E+03 -3.898973E+03 -1.323424E-09  4.607218E-10
       140  12  2.060691E+04 -3.254282E+03 -3.426788E+03 -1.510164E+04 -5.255361E-10 -3.023578E-10
       140  13  3.357755E+04  1.111219E+02  1.249886E+03 -1.507435E+04  1.037090E-12 -1.087709E-10
       140  14  3.355244E+04 -1.401836E+01  4.312754E+02 -3.888442E+03  1.632010E-09  4.493101E-10
       140  15  3.357799E+04 -1.852054E+01 -2.185990E+02 -1.507438E+04 -9.247683E-10 -4.744602E-10
       140  16  1.036330E+05  1.747464E+04  1.801756E+04 -1.508046E+04  9.947294E-10  3.545698E-11
       140  17  7.506550E+04  1.028556E+04  1.041871E+04 -3.877910E+03 -8.133631E-10  4.058253E-10
       140  18  4.654921E+04  3.217228E+03  2.989577E+03 -1.504711E+04  6.989460E-10 -2.051067E-11
       140  19 -3.647343E+04 -1.725274E+04 -1.551812E+04 -1.506824E+04 -1.913629E+03 -2.383049E+03
       140  20 -7.959035E+03 -1.031372E+04 -9.556271E+03 -3.898971E+03 -1.699874E+03 -1.248275E+03
       140  21  2.060692E+04 -3.254281E+03 -3.426783E+03 -1.510164E+04 -1.486001E+03 -1.100095E+02
       140  22  3.357756E+04  1.111285E+02  1.249900E+03 -1.507435E+04 -1.369864E+03 -2.383124E+03
       140  23  3.355245E+04 -1.401633E+01  4.312808E+02 -3.888441E+03 -1.154384E+03 -1.248372E+03
       140  24  3.357799E+04 -1.852029E+01 -2.185973E+02 -1.507438E+04 -9.387954E+02 -1.101318E+02
       140  25  1.036330E+05  1.747465E+04  1.801757E+04 -1.508046E+04 -8.260379E+02 -2.383199E+03
       140  26  7.506550E+04  1.028556E+04  1.041871E+04 -3.877910E+03 -6.088572E+02 -1.248470E+03
       140  27  4.654921E+04  3.217228E+03  2.989577E+03 -1.504711E+04 -3.915781E+02 -1.102541E+02
       141   1  6.123581E+04  6.917120E+03  6.203536E+03 -1.512613E+04  1.555146E+03 -5.537796E+02
       141   2  8.985851E+04  1.399340E+04  1.215763E+04 -3.915529E+03  2.237662E+03 -1.692111E+03
       141   3  1.183233E+05  2.081073E+04  1.760140E+04 -1.507717E+04  2.920350E+03 -2.826882E+03
       141   4  3.353123E+04  2.591223E+01 -5.492954E+02 -1.507447E+04  1.007861E+03 -5.536602E+02
       141   5  3.361047E+04  3.811450E+01 -1.374732E+03 -3.888307E+03  1.692013E+03 -1.692025E+03
       141   6  3.353071E+04 -2.088874E+02 -2.711632E+03 -1.507451E+04  2.376305E+03 -2.826826E+03
       141   7  5.827352E+03 -6.865352E+03 -7.302181E+03 -1.502281E+04  4.606010E+02 -5.535408E+02
       141   8 -2.263467E+04 -1.391740E+04 -1.490731E+04 -3.861088E+03  1.146412E+03 -1.691939E+03
       141   9 -5.125528E+04 -2.122902E+04 -2.302517E+04 -1.507185E+04  1.832333E+03 -2.826770E+03
       141  10  6.123581E+04  6.917119E+03  6.203531E+03 -1.512612E+04 -2.643602E-09 -3.999924E-10
       141  11  8.985850E+04  1.399339E+04  1.215761E+04 -3.915526E+03 -1.880531E-09  1.792754E-10
       141  12  1.183233E+05  2.081072E+04  1.760137E+04 -1.507716E+04  7.735439E-10  2.480608E-10
       141  13  3.353123E+04  2.591163E+01 -5.492978E+02 -1.507447E+04  2.177872E-09 -6.184217E-10
       141  14  3.361047E+04  3.811065E+01 -1.374743E+03 -3.888305E+03 -1.031066E-09 -8.605052E-11
       141  15  3.353070E+04 -2.088975E+02 -2.711658E+03 -1.507451E+04 -1.473752E-09 -2.481179E-10
       141  16  5.827351E+03 -6.865353E+03 -7.302182E+03 -1.502281E+04  1.540492E-09 -1.329964E-10
       141  17 -2.263467E+04 -1.391740E+04 -1.490732E+04 -3.861086E+03 -5.156318E-10  2.589168E-10
       141  18 -5.125528E+04 -2.122903E+04 -2.302519E+04 -1.507185E+04  3.675134E-10 -5.457210E-10
       141  19  6.123581E+04  6.917120E+03  6.203536E+03 -1.512613E+04 -1.555146E+03  5.537796E+02
       141  20  8.985851E+04  1.399340E+04  1.215763E+04 -3.915529E+03 -2.237662E+03  1.692111E+03
       141  21  1.183233E+05  2.081073E+04  1.760140E+04 -1.507717E+04 -2.920350E+03  2.826882E+03
       141  22  3.353123E+04  2.591223E+01 -5.492954E+02 -1.507447E+04 -1.007861E+03  5.536602E+02
       141  23  3.361047E+04  3.811450E+01 -1.374732E+03 -3.888307E+03 -1.692013E+03  1.692025E+03
       141  24  3.353071E+04 -2.088874E+02 -2.711632E+03 -1.507451E+04 -2.376305E+03  2.826826E+03
       141  25  5.827352E+03 -6.865352E+03 -7.302181E+03 -1.502281E+04 -4.606010E+02  5.535408E+02
       141  26 -2.263467E+04 -1.391740E+04 -1.490731E+04 -3.861088E+03 -1.146412E+03  1.691939E+03
       141  27 -5.125528E+04 -2.122902E+04 -2.302517E+04 -1.507185E+04 -1.832333E+03  2.826770E+03
       142   1  1.588205E+05  3.125142E+04  2.668458E+04 -1.540547E+04  3.500146E+03 -3.497022E+03
       142   2  1.878937E+05  3.854555E+04  3.079402E+04 -3.832177E+03  6.622957E+03 -4.634707E+03
       142   3  2.159441E+05  4.325283E+04  3.223014E+04 -1.464405E+04  9.746233E+03 -5.721328E+03
       142   4  3.333526E+04  1.021096E+02 -3.590557E+03 -1.507743E+04  2.941357E+03 -3.497004E+03
       142   5  3.384836E+04  3.289232E+02 -6.264058E+03 -3.884619E+03  6.087972E+03 -4.634780E+03
       142   6  3.333387E+04 -2.035504E+03 -1.162779E+04 -1.507733E+04  9.234909E+03 -5.721488E+03
       142   7 -9.213557E+04 -3.104835E+04 -3.386682E+04 -1.474946E+04  2.382680E+03 -3.496987E+03
       142   8 -1.201753E+05 -3.788943E+04 -4.332383E+04 -3.937048E+03  5.553118E+03 -4.634853E+03
       142   9 -1.492459E+05 -4.732626E+04 -5.548810E+04 -1.551049E+04  8.723735E+03 -5.721648E+03
       142  10  1.588205E+05  3.125140E+04  2.668454E+04 -1.540546E+04 -1.337513E-09 -3.713553E-11
       142  11  1.878936E+05  3.854551E+04  3.079390E+04 -3.832152E+03 -1.258739E-09 -1.950222E-11
       142  12  2.159440E+05  4.325277E+04  3.222990E+04 -1.464401E+04 -9.892939E-11 -3.763801E-10
       142  13  3.333524E+04  1.020941E+02 -3.590596E+03 -1.507742E+04 -1.076483E-09 -3.000285E-10
       142  14  3.384831E+04  3.288902E+02 -6.264168E+03 -3.884596E+03  2.139147E-09  1.476338E-11
       142  15  3.333377E+04 -2.035562E+03 -1.162801E+04 -1.507729E+04 -1.221389E-09 -2.743364E-10
       142  16 -9.213558E+04 -3.104837E+04 -3.386685E+04 -1.474945E+04  1.948097E-09 -5.261362E-10
       142  17 -1.201753E+05 -3.788946E+04 -4.332393E+04 -3.937028E+03  1.656412E-09  7.881580E-11
       142  18 -1.492460E+05 -4.732632E+04 -5.548830E+04 -1.551045E+04 -1.149053E-09  6.407451E-12
       142  19  1.588205E+05  3.125142E+04  2.668458E+04 -1.540547E+04 -3.500146E+03  3.497022E+03
       142  20  1.878937E+05  3.854555E+04  3.079402E+04 -3.832177E+03 -6.622957E+03  4.634707E+03
       142  21  2.159441E+05  4.325283E+04  3.223014E+04 -1.464405E+04 -9.746233E+03  5.721328E+03
       142  22  3.333526E+04  1.021096E+02 -3.590557E+03 -1.507743E+04 -2.941357E+03  3.497004E+03
       142  23  3.384836E+04  3.289232E+02 -6.264058E+03 -3.884619E+03 -6.087972E+03  4.634780E+03
       142  24  3.333387E+04 -2.035504E+03 -1.162779E+04 -1.507733E+04 -9.234909E+03  5.721488E+03
       142  25 -9.213557E+04 -3.104835E+04 -3.386682E+04 -1.474946E+04 -2.382680E+03  3.496987E+03
       142  26 -1.201753E+05 -3.788943E+04 -4.332383E+04 -3.937048E+03 -5.553118E+03  4.634853E+03
       142  27 -1.492459E+05 -4.732626E+04 -5.548810E+04 -1.551049E+04 -8.723735E+03  5.721648E+03
       143   1  2.552323E+05  5.635645E+04  3.895040E+04 -1.764513E+04  1.227675E+04 -6.476237E+03
       143   2  2.875664E+05  6.540874E+04  3.565164E+04 -2.526019E+03  2.477692E+04 -7.596080E+03
       143   3  3.124365E+05  5.070905E+04  1.830125E+04 -9.786835E+03  3.727802E+04 -8.066114E+03
       143   4  3.188587E+04  9.352789E+02 -1.485245E+04 -1.507874E+04  1.157893E+04 -6.476449E+03
       143   5  3.564624E+04  2.915018E+03 -2.494097E+04 -3.884174E+03  2.438638E+04 -7.596461E+03
       143   6  3.188443E+04 -1.891618E+04 -4.929886E+04 -1.507034E+04  3.719420E+04 -8.066705E+03
       143   7 -1.914150E+05 -5.448950E+04 -6.865886E+04 -1.251329E+04  1.088136E+04 -6.476666E+03
       143   8 -2.162159E+05 -5.958332E+04 -8.553809E+04 -5.241781E+03  2.399600E+04 -7.596841E+03
       143   9 -2.485956E+05 -8.854704E+04 -1.169046E+05 -2.035147E+04  3.711041E+04 -8.067294E+03
       143  10  2.552322E+05  5.635636E+04  3.895004E+04 -1.764506E+04 -1.277913E-09 -2.906218E-10
       143  11  2.875658E+05  6.540851E+04  3.565038E+04 -2.525867E+03 -1.435750E-09 -3.337591E-11
       143  12  3.124350E+05  5.070861E+04  1.829852E+04 -9.786593E+03 -5.127650E-10 -6.625646E-10
       143  13  3.188571E+04  9.351979E+02 -1.485278E+04 -1.507868E+04  1.081220E-09 -2.031520E-10
       143  14  3.564559E+04  2.914796E+03 -2.494219E+04 -3.884025E+03 -1.122556E-09 -7.307396E-11
       143  15  3.188292E+04 -1.891662E+04 -4.930158E+04 -1.507010E+04 -3.995720E-10 -4.172292E-10
       143  16 -1.914151E+05 -5.448958E+04 -6.865916E+04 -1.251323E+04  7.722497E-10 -1.231347E-12
       143  17 -2.162165E+05 -5.958354E+04 -8.553928E+04 -5.241634E+03 -1.617549E-09  8.383144E-10
       143  18 -2.485971E+05 -8.854748E+04 -1.169073E+05 -2.035122E+04  9.867789E-11  1.186448E-10
       143  19  2.552323E+05  5.635645E+04  3.895040E+04 -1.764513E+04 -1.227675E+04  6.476237E+03
       143  20  2.875664E+05  6.540874E+04  3.565164E+04 -2.526019E+03 -2.477692E+04  7.596080E+03
       143  21  3.124365E+05  5.070905E+04  1.830125E+04 -9.786835E+03 -3.727802E+04  8.066114E+03
       143  22  3.188587E+04  9.352789E+02 -1.485245E+04 -1.507874E+04 -1.157893E+04  6.476449E+03
       143  23  3.564624E+04  2.915018E+03 -2.494097E+04 -3.884174E+03 -2.438638E+04  7.596461E+03
       143  24  3.188443E+04 -1.891618E+04 -4.929886E+04 -1.507034E+04 -3.719420E+04  8.066705E+03
       143  25 -1.914150E+05 -5.448950E+04 -6.865886E+04 -1.251329E+04 -1.088136E+04  6.476666E+03
       143  26 -2.162159E+05 -5.958332E+04 -8.553809E+04 -5.241781E+03 -2.399600E+04  7.596841E+03
       143  27 -2.485956E+05 -8.854704E+04 -1.169046E+05 -2.035147E+04 -3.711041E+04  8.067294E+03
       144   1  3.414623E+05  8.843396E+04  1.689672E+04 -3.736983E+04  4.905419E+04 -9.894261E+03
       144   2  4.002217E+05  1.129524E+05 -1.208588E+04  1.133254E+04  9.708641E+04 -1.079898E+04
       144   3  3.988068E+05 -7.910248E+04 -1.264129E+05  3.797338E+04  1.451141E+05 -3.482835E+03
       144   4  2.001677E+04  8.742549E+03 -6.034259E+04 -1.505648E+04  4.661390E+04 -9.894256E+03
       144   5  5.046697E+04  2.618676E+04 -9.611056E+04 -3.938254E+03  9.856570E+04 -1.080053E+04
       144   6  2.002343E+04 -1.736937E+05 -2.199796E+05 -1.488214E+04  1.505103E+05 -3.489714E+03
       144   7 -3.013332E+05 -7.095449E+04 -1.375890E+05  7.245273E+03  4.417486E+04 -9.894425E+03
       144   8 -2.991753E+05 -6.058695E+04 -1.801438E+05 -1.920044E+04  1.000442E+05 -1.080215E+04
       144   9 -3.586236E+05 -2.682852E+05 -3.135554E+05 -6.770542E+04  1.559033E+05 -3.497516E+03
       144  10  3.414597E+05  8.843321E+04  1.689202E+04 -3.736944E+04  5.221401E-10 -1.594157E-09
       144  11  4.002116E+05  1.129498E+05 -1.210380E+04  1.133339E+04 -1.153798E-09 -3.235287E-09
       144  12  3.987842E+05 -7.910814E+04 -1.264524E+05  3.797378E+04 -6.294382E-10 -1.097526E-09
       144  13  2.001441E+04  8.741861E+03 -6.034686E+04 -1.505611E+04  1.034242E-09 -3.300446E-09
       144  14  5.045650E+04  2.618403E+04 -9.612903E+04 -3.937396E+03 -4.241948E-11  1.046778E-09
       144  15  1.999909E+04 -1.736998E+05 -2.200222E+05 -1.488172E+04  4.121061E-10 -2.948239E-10
       144  16 -3.013353E+05 -7.095512E+04 -1.375928E+05  7.245625E+03 -1.176067E-09 -7.663850E-10
       144  17 -2.991861E+05 -6.058976E+04 -1.801628E+05 -1.919957E+04  2.016465E-09  5.754095E-10
       144  18 -3.586497E+05 -2.682918E+05 -3.136011E+05 -6.770498E+04  5.948293E-10 -1.231947E-09
       144  19  3.414623E+05  8.843396E+04  1.689672E+04 -3.736983E+04 -4.905419E+04  9.894261E+03
       144  20  4.002217E+05  1.129524E+05 -1.208588E+04  1.133254E+04 -9.708641E+04  1.079898E+04
       144  21  3.988068E+05 -7.910248E+04 -1.264129E+05  3.797338E+04 -1.451141E+05  3.482835E+03
       144  22  2.001677E+04  8.742549E+03 -6.034259E+04 -1.505648E+04 -4.661390E+04  9.894256E+03
       144  23  5.046697E+04  2.618676E+04 -9.611056E+04 -3.938254E+03 -9.856570E+04  1.080053E+04
       144  24  2.002343E+04 -1.736937E+05 -2.199796E+05 -1.488214E+04 -1.505103E+05  3.489714E+03
       144  25 -3.013332E+05 -7.095449E+04 -1.375890E+05  7.245273E+03 -4.417486E+04  9.894425E+03
       144  26 -2.991753E+05 -6.058695E+04 -1.801438E+05 -1.920044E+04 -1.000442E+05  1.080215E+04
       144  27 -3.586236E+05 -2.682852E+05 -3.135554E+05 -6.770542E+04 -1.559033E+05  3.497516E+03
       145   1  3.498329E+05  9.534293E+05  3.549805E+05 -1.590964E+05  1.129026E+04  4.656096E+04
       145   2  2.399981E+05  6.640877E+05  2.534289E+05 -4.219077E+04  3.096395E+04  2.326368E+04
       145   3  1.737643E+05  3.889062E+05  1.779682E+05 -1.453751E+05  2.062232E+04 -8.142963E+01
       145   4  3.287213E+04 -3.176459E+05  4.089064E+04 -1.479254E+05  1.131756E+04  2.987630E+04
       145   5 -4.897173E+03 -3.234067E+05  1.630304E+04 -3.789882E+04  3.097187E+04  2.102347E+04
       145   6 -1.526963E+03 -3.175563E+05  7.815121E+03 -1.479809E+05  2.059032E+04  1.211213E+04
       145   7 -2.842088E+05 -1.587253E+06 -2.733181E+05 -1.367765E+05  1.134430E+04  1.322567E+04
       145   8 -2.498633E+05 -1.310009E+06 -2.208921E+05 -3.361323E+04  3.097977E+04  1.878678E+04
       145   9 -1.768545E+05 -1.023562E+06 -1.623730E+05 -1.505834E+05  2.055820E+04  2.429187E+04
       145  10  3.498322E+05  9.534270E+05  3.549762E+05 -1.590968E+05  9.043317E-10 -4.461045E-09
       145  11  2.399969E+05  6.640868E+05  2.534261E+05 -4.219135E+04  1.291354E-09  7.423598E-10
       145  12  1.737639E+05  3.889061E+05  1.779674E+05 -1.453751E+05  1.047849E-10  9.030959E-10
       145  13  3.287175E+04 -3.176469E+05  4.088872E+04 -1.479257E+05 -6.955666E-11 -1.360029E-09
       145  14 -4.898321E+03 -3.234074E+05  1.630040E+04 -3.789934E+04  1.458038E-10  2.122225E-09
       145  15 -1.527458E+03 -3.175566E+05  7.814048E+03 -1.479811E+05 -1.237516E-09 -1.028272E-09
       145  16 -2.842090E+05 -1.587253E+06 -2.733187E+05 -1.367766E+05 -5.232372E-10  3.025886E-09
       145  17 -2.498644E+05 -1.310009E+06 -2.208945E+05 -3.361370E+04 -6.346562E-10  3.504028E-09
       145  18 -1.768551E+05 -1.023563E+06 -1.623749E+05 -1.505838E+05  1.409338E-09 -3.155046E-09
       145  19  3.498329E+05  9.534293E+05  3.549805E+05 -1.590964E+05 -1.129026E+04 -4.656096E+04
       145  20  2.399981E+05  6.640877E+05  2.534289E+05 -4.219077E+04 -3.096395E+04 -2.326368E+04
       145  21  1.737643E+05  3.889062E+05  1.779682E+05 -1.453751E+05 -2.062232E+04  8.142963E+01
       145  22  3.287213E+04 -3.176459E+05  4.089064E+04 -1.479254E+05 -1.131756E+04 -2.987630E+04
       145  23 -4.897173E+03 -3.234067E+05  1.630304E+04 -3.789882E+04 -3.097187E+04 -2.102347E+04
       145  24 -1.526963E+03 -3.175563E+05  7.815121E+03 -1.479809E+05 -2.059032E+04 -1.211213E+04
       145  25 -2.842088E+05 -1.587253E+06 -2.733181E+05 -1.367765E+05 -1.134430E+04 -1.322567E+04
       145  26 -2.498633E+05 -1.310009E+06 -2.208921E+05 -3.361323E+04 -3.097977E+04 -1.878678E+04
       145  27 -1.768545E+05 -1.023562E+06 -1.623730E+05 -1.505834E+05 -2.055820E+04 -2.429187E+04
       146   1  7.989773E+04 -1.699155E+04  7.748433E+04 -1.489508E+05  9.394065E+03  6.831006E+03
       146   2  5.867246E+03 -2.984264E+05  1.588790E+03 -3.826482E+04  6.088657E+02  8.552000E+03
       146   3 -7.055672E+04 -5.821140E+05 -7.635983E+04 -1.489518E+05 -8.247423E+03  1.027156E+04
       146   4  4.583886E+03 -3.205374E+05  4.526426E+03 -1.482294E+05  9.382048E+03  1.102599E+04
       146   5  6.634441E+02 -3.193732E+05 -3.452620E+03 -3.755723E+04  5.967748E+02  1.278166E+04
       146   6 -5.649635E+03 -3.205378E+05 -1.350076E+04 -1.482585E+05 -8.259812E+03  1.453667E+04
       146   7 -7.073665E+04 -6.239988E+05 -6.843797E+04 -1.475083E+05  9.370038E+03  1.521893E+04
       146   8 -4.540378E+03 -3.403196E+05 -8.493993E+03 -3.684966E+04  5.846933E+02  1.701117E+04
       146   9  5.925248E+04 -5.889894E+04  4.935351E+04 -1.475649E+05 -8.272190E+03  1.880358E+04
       146  10  7.989762E+04 -1.699163E+04  7.748408E+04 -1.489508E+05  1.483022E-09 -4.799948E-09
       146  11  5.867226E+03 -2.984265E+05  1.588651E+03 -3.826483E+04 -9.996102E-10 -2.820097E-10
       146  12 -7.055682E+04 -5.821141E+05 -7.636016E+04 -1.489517E+05  3.952402E-10 -4.234845E-09
       146  13  4.583759E+03 -3.205375E+05  4.526031E+03 -1.482294E+05  2.772959E-09 -2.942524E-09
       146  14  6.633998E+02 -3.193734E+05 -3.452928E+03 -3.755724E+04 -8.697563E-10  2.986439E-09
       146  15 -5.649765E+03 -3.205381E+05 -1.350129E+04 -1.482584E+05  4.558941E-10 -1.060477E-09
       146  16 -7.073681E+04 -6.239990E+05 -6.843857E+04 -1.475084E+05  2.097509E-10  1.852743E-09
       146  17 -4.540456E+03 -3.403200E+05 -8.494538E+03 -3.684967E+04 -5.820079E-10  6.371959E-09
       146  18  5.925231E+04 -5.889933E+04  4.935271E+04 -1.475648E+05 -8.807492E-10  1.912668E-09
       146  19  7.989773E+04 -1.699155E+04  7.748433E+04 -1.489508E+05 -9.394065E+03 -6.831006E+03
       146  20  5.867246E+03 -2.984264E+05  1.588790E+03 -3.826482E+04 -6.088657E+02 -8.552000E+03
       146  21 -7.055672E+04 -5.821140E+05 -7.635983E+04 -1.489518E+05  8.247423E+03 -1.027156E+04
       146  22  4.583886E+03 -3.205374E+05  4.526426E+03 -1.482294E+05 -9.382048E+03 -1.102599E+04
       146  23  6.634441E+02 -3.193732E+05 -3.452620E+03 -3.755723E+04 -5.967748E+02 -1.278166E+04
       146  24 -5.649635E+03 -3.205378E+05 -1.350076E+04 -1.482585E+05  8.259812E+03 -1.453667E+04
       146  25 -7.073665E+04 -6.239988E+05 -6.843797E+04 -1.475083E+05 -9.370038E+03 -1.521893E+04
       146  26 -4.540378E+03 -3.403196E+05 -8.493993E+03 -3.684966E+04 -5.846933E+02 -1.701117E+04
       146  27  5.925248E+04 -5.889894E+04  4.935351E+04 -1.475649E+05  8.272190E+03 -1.880358E+04
       147   1 -1.609445E+05 -9.886360E+05 -1.778713E+05 -1.392374E+05 -1.933216E+04  5.161768E+03
       147   2 -2.260360E+05 -1.259615E+06 -2.579991E+05 -4.138794E+04 -2.980380E+04  3.580225E+04
       147   3 -3.635633E+05 -1.552622E+06 -3.762396E+05 -1.638263E+05 -1.105560E+04  6.648728E+04
       147   4  4.066908E+03 -3.244862E+05 -1.773213E+04 -1.479626E+05 -1.936438E+04  1.716111E+04
       147   5  8.524116E+03 -3.147210E+05 -3.084911E+04 -3.787793E+04 -2.979635E+04  3.382146E+04
       147   6 -5.695768E+04 -3.245872E+05 -7.231870E+04 -1.480662E+05 -1.102686E+04  5.054084E+04
       147   7  1.690464E+05  3.400681E+05  1.423761E+05 -1.566969E+05 -1.939691E+04  2.917326E+04
       147   8  2.430193E+05  6.309919E+05  1.962373E+05 -3.436211E+04 -2.978892E+04  3.183762E+04
       147   9  2.495362E+05  9.048214E+05  2.314911E+05 -1.322742E+05 -1.099897E+04  3.456274E+04
       147  10 -1.609449E+05 -9.886361E+05 -1.778721E+05 -1.392373E+05  5.802707E-10 -4.909063E-09
       147  11 -2.260373E+05 -1.259617E+06 -2.580031E+05 -4.138708E+04  5.664105E-11 -1.938953E-10
       147  12 -3.635646E+05 -1.552627E+06 -3.762482E+05 -1.638257E+05 -8.321430E-10 -8.048744E-10
       147  13  4.066427E+03 -3.244866E+05 -1.773339E+04 -1.479624E+05 -9.317704E-10 -2.779597E-09
       147  14  8.522856E+03 -3.147224E+05 -3.085293E+04 -3.787712E+04 -6.160842E-10  2.185004E-09
       147  15 -5.695850E+04 -3.245899E+05 -7.232373E+04 -1.480658E+05 -3.250196E-10 -6.261620E-10
       147  16  1.690458E+05  3.400671E+05  1.423738E+05 -1.566965E+05  4.320913E-11  2.168689E-09
       147  17  2.430180E+05  6.309906E+05  1.962338E+05 -3.436134E+04 -2.079408E-10  4.676421E-09
       147  18  2.495358E+05  9.048201E+05  2.314886E+05 -1.322739E+05  9.390492E-10 -5.018055E-10
       147  19 -1.609445E+05 -9.886360E+05 -1.778713E+05 -1.392374E+05  1.933216E+04 -5.161768E+03
       147  20 -2.260360E+05 -1.259615E+06 -2.579991E+05 -4.138794E+04  2.980380E+04 -3.580225E+04
       147  21 -3.635633E+05 -1.552622E+06 -3.762396E+05 -1.638263E+05  1.105560E+04 -6.648728E+04
       147  22  4.066908E+03 -3.244862E+05 -1.773213E+04 -1.479626E+05  1.936438E+04 -1.716111E+04
       147  23  8.524116E+03 -3.147210E+05 -3.084911E+04 -3.787793E+04  2.979635E+04 -3.382146E+04
       147  24 -5.695768E+04 -3.245872E+05 -7.231870E+04 -1.480662E+05  1.102686E+04 -5.054084E+04
       147  25  1.690464E+05  3.400681E+05  1.423761E+05 -1.566969E+05  1.939691E+04 -2.917326E+04
       147  26  2.430193E+05  6.309919E+05  1.962373E+05 -3.436211E+04  2.978892E+04 -3.183762E+04
       147  27  2.495362E+05  9.048214E+05  2.314911E+05 -1.322742E+05  1.099897E+04 -3.456274E+04
       148   1 -1.316948E+06 -3.812052E+05 -2.159894E+05 -4.697937E+05 -9.395308E+04 -3.213127E+04
       148   2 -1.281711E+06 -2.342786E+05 -1.256499E+05 -4.741984E+05 -6.116913E+04 -1.355313E+04
       148   3 -1.285585E+06 -2.309905E+05 -9.674566E+04 -4.612596E+05 -2.595769E+04 -1.424630E+03
       148   4 -1.060423E+06 -2.555001E+05 -1.403449E+05 -3.703579E+05 -9.007524E+04 -3.067845E+04
       148   5 -1.033908E+06 -1.328803E+05 -5.837483E+04 -3.982281E+05 -6.017303E+04 -1.317996E+04
       148   6 -1.045912E+06 -1.532975E+05 -3.553385E+04 -4.087608E+05 -2.784458E+04 -2.133070E+03
       148   7 -8.038313E+05 -1.297763E+05 -6.470648E+04 -2.708802E+05 -8.619562E+04 -2.922449E+04
       148   8 -7.860451E+05 -3.147506E+04  8.894794E+03 -3.222292E+05 -5.917648E+04 -1.280660E+04
       148   9 -8.061840E+05 -7.560437E+04  2.567348E+04 -3.562454E+05 -2.973228E+04 -2.841714E+03
       148  10 -1.316958E+06 -3.812087E+05 -2.160079E+05 -4.697961E+05  5.866575E-10  4.780928E-10
       148  11 -1.281715E+06 -2.342798E+05 -1.256573E+05 -4.741991E+05 -4.008442E-10 -3.827608E-10
       148  12 -1.285586E+06 -2.309907E+05 -9.674693E+04 -4.612596E+05 -1.797536E-10  1.206512E-09
       148  13 -1.060432E+06 -2.555033E+05 -1.403619E+05 -3.703601E+05 -2.555690E-09  6.713548E-10
       148  14 -1.033912E+06 -1.328815E+05 -5.838198E+04 -3.982287E+05 -2.599252E-09  1.993990E-10
       148  15 -1.045913E+06 -1.532977E+05 -3.553531E+04 -4.087609E+05  1.441817E-09  2.690762E-10
       148  16 -8.038395E+05 -1.297793E+05 -6.472207E+04 -2.708822E+05 -2.113423E-10 -4.109173E-10
       148  17 -7.860489E+05 -3.147618E+04  8.887895E+03 -3.222298E+05 -3.671022E-09 -7.693637E-10
       148  18 -8.061849E+05 -7.560461E+04  2.567180E+04 -3.562454E+05 -7.160855E-10  3.275601E-10
       148  19 -1.316948E+06 -3.812052E+05 -2.159894E+05 -4.697937E+05  9.395308E+04  3.213127E+04
       148  20 -1.281711E+06 -2.342786E+05 -1.256499E+05 -4.741984E+05  6.116913E+04  1.355313E+04
       148  21 -1.285585E+06 -2.309905E+05 -9.674566E+04 -4.612596E+05  2.595769E+04  1.424630E+03
       148  22 -1.060423E+06 -2.555001E+05 -1.403449E+05 -3.703579E+05  9.007524E+04  3.067845E+04
       148  23 -1.033908E+06 -1.328803E+05 -5.837483E+04 -3.982281E+05  6.017303E+04  1.317996E+04
       148  24 -1.045912E+06 -1.532975E+05 -3.553385E+04 -4.087608E+05  2.784458E+04  2.133070E+03
       148  25 -8.038313E+05 -1.297763E+05 -6.470648E+04 -2.708802E+05  8.619562E+04  2.922449E+04
       148  26 -7.860451E+05 -3.147506E+04  8.894794E+03 -3.222292E+05  5.917648E+04  1.280660E+04
       148  27 -8.061840E+05 -7.560437E+04  2.567348E+04 -3.562454E+05  2.973228E+04  2.841714E+03
       149   1 -1.232309E+06 -2.433150E+05 -8.040150E+04 -4.557033E+05 -2.208942E+04 -1.714292E+03
       149   2 -1.212729E+06 -2.117131E+05 -5.858899E+04 -4.425387E+05 -1.445785E+04  5.929742E+02
       149   3 -1.184646E+06 -2.098927E+05 -4.635074E+04 -4.428596E+05 -6.613191E+03  2.332587E+03
       149   4 -1.041145E+06 -1.683551E+05 -2.896220E+04 -4.004907E+05 -2.218611E+04 -1.750874E+03
       149   5 -1.044600E+06 -1.476946E+05 -1.379652E+04 -3.959219E+05 -1.480707E+04  4.617400E+02
       149   6 -1.039501E+06 -1.567630E+05 -8.002336E+03 -4.048390E+05 -7.215238E+03  2.106602E+03
       149   7 -8.499472E+05 -9.339224E+04  2.247371E+04 -3.452627E+05 -2.228283E+04 -1.787468E+03
       149   8 -8.764439E+05 -8.367426E+04  3.099348E+04 -3.492936E+05 -1.515638E+04  3.304658E+02
       149   9 -8.943341E+05 -1.036321E+05  3.034436E+04 -3.668104E+05 -7.817440E+03  1.880561E+03
       149  10 -1.232309E+06 -2.433152E+05 -8.040242E+04 -4.557033E+05  1.006584E-09  1.087630E-09
       149  11 -1.212729E+06 -2.117131E+05 -5.858939E+04 -4.425387E+05 -7.484014E-10 -4.223138E-10
       149  12 -1.184646E+06 -2.098928E+05 -4.635083E+04 -4.428596E+05  6.071184E-10  3.579570E-10
       149  13 -1.041146E+06 -1.683552E+05 -2.896313E+04 -4.004908E+05 -1.364581E-09  3.848368E-10
       149  14 -1.044600E+06 -1.476947E+05 -1.379693E+04 -3.959219E+05 -1.337682E-09 -1.490284E-09
       149  15 -1.039501E+06 -1.567630E+05 -8.002443E+03 -4.048390E+05 -1.508115E-09 -3.135952E-11
       149  16 -8.499478E+05 -9.339238E+04  2.247277E+04 -3.452627E+05 -3.197426E-09 -9.972163E-11
       149  17 -8.764441E+05 -8.367432E+04  3.099305E+04 -3.492936E+05 -1.159899E-09 -1.037093E-09
       149  18 -8.943342E+05 -1.036322E+05  3.034424E+04 -3.668104E+05  1.603421E-10 -4.299606E-10
       149  19 -1.232309E+06 -2.433150E+05 -8.040150E+04 -4.557033E+05  2.208942E+04  1.714292E+03
       149  20 -1.212729E+06 -2.117131E+05 -5.858899E+04 -4.425387E+05  1.445785E+04 -5.929742E+02
       149  21 -1.184646E+06 -2.098927E+05 -4.635074E+04 -4.428596E+05  6.613191E+03 -2.332587E+03
       149  22 -1.041145E+06 -1.683551E+05 -2.896220E+04 -4.004907E+05  2.218611E+04  1.750874E+03
       149  23 -1.044600E+06 -1.476946E+05 -1.379652E+04 -3.959219E+05  1.480707E+04 -4.617400E+02
       149  24 -1.039501E+06 -1.567630E+05 -8.002336E+03 -4.048390E+05  7.215238E+03 -2.106602E+03
       149  25 -8.499472E+05 -9.339224E+04  2.247371E+04 -3.452627E+05  2.228283E+04  1.787468E+03
       149  26 -8.764439E+05 -8.367426E+04  3.099348E+04 -3.492936E+05  1.515638E+04 -3.304658E+02
       149  27 -8.943341E+05 -1.036321E+05  3.034436E+04 -3.668104E+05  7.817440E+03 -1.880561E+03
       150   1 -1.143865E+06 -1.983024E+05 -3.415582E+04 -4.328942E+05 -5.345101E+03  2.006246E+03
       150   2 -1.125839E+06 -1.793822E+05 -2.448891E+04 -4.173709E+05 -3.264419E+03  1.610976E+03
       150   3 -1.093222E+06 -1.775907E+05 -1.653909E+04 -4.191426E+05 -1.162816E+03  1.159419E+03
       150   4 -1.038799E+06 -1.585202E+05 -6.280219E+03 -4.039735E+05 -5.795546E+03  1.837190E+03
       150   5 -1.046004E+06 -1.493085E+05 -3.279175E+03 -3.955693E+05 -3.739830E+03  1.432607E+03
       150   6 -1.038613E+06 -1.572201E+05 -1.975071E+03 -4.044602E+05 -1.663271E+03  9.717120E+02
       150   7 -9.337213E+05 -1.187373E+05  2.159442E+04 -3.750483E+05 -6.246075E+03  1.668103E+03
       150   8 -9.661626E+05 -1.192344E+05  1.792997E+04 -3.737652E+05 -4.215307E+03  1.254212E+03
       150   9 -9.840023E+05 -1.368495E+05  1.258865E+04 -3.897767E+05 -2.163774E+03  7.839878E+02
       150  10 -1.143865E+06 -1.983024E+05 -3.415588E+04 -4.328942E+05 -1.434797E-09  8.387480E-11
       150  11 -1.125839E+06 -1.793822E+05 -2.448893E+04 -4.173709E+05  1.873846E-09 -3.042070E-11
       150  12 -1.093222E+06 -1.775907E+05 -1.653910E+04 -4.191426E+05 -9.025207E-10 -3.218458E-11
       150  13 -1.038799E+06 -1.585202E+05 -6.280289E+03 -4.039735E+05  7.444911E-10  6.442558E-10
       150  14 -1.046004E+06 -1.493085E+05 -3.279205E+03 -3.955693E+05 -2.141781E-09  4.099474E-10
       150  15 -1.038613E+06 -1.572201E+05 -1.975078E+03 -4.044602E+05  8.158068E-10 -3.308115E-10
       150  16 -9.337213E+05 -1.187373E+05  2.159434E+04 -3.750483E+05  2.051810E-09  1.309550E-09
       150  17 -9.661627E+05 -1.192344E+05  1.792994E+04 -3.737652E+05  2.497507E-09  8.479269E-10
       150  18 -9.840023E+05 -1.368495E+05  1.258864E+04 -3.897767E+05 -2.635313E-09 -9.543553E-10
       150  19 -1.143865E+06 -1.983024E+05 -3.415582E+04 -4.328942E+05  5.345101E+03 -2.006246E+03
       150  20 -1.125839E+06 -1.793822E+05 -2.448891E+04 -4.173709E+05  3.264419E+03 -1.610976E+03
       150  21 -1.093222E+06 -1.775907E+05 -1.653909E+04 -4.191426E+05  1.162816E+03 -1.159419E+03
       150  22 -1.038799E+06 -1.585202E+05 -6.280219E+03 -4.039735E+05  5.795546E+03 -1.837190E+03
       150  23 -1.046004E+06 -1.493085E+05 -3.279175E+03 -3.955693E+05  3.739830E+03 -1.432607E+03
       150  24 -1.038613E+06 -1.572201E+05 -1.975071E+03 -4.044602E+05  1.663271E+03 -9.717120E+02
       150  25 -9.337213E+05 -1.187373E+05  2.159442E+04 -3.750483E+05  6.246075E+03 -1.668103E+03
       150  26 -9.661626E+05 -1.192344E+05  1.792997E+04 -3.737652E+05  4.215307E+03 -1.254212E+03
       150  27 -9.840023E+05 -1.368495E+05  1.258865E+04 -3.897767E+05  2.163774E+03 -7.839878E+02
       151   1 -1.053395E+06 -1.630313E+05 -5.476698E+03 -4.084716E+05 -6.394564E+02  6.221850E+02
       151   2 -1.035487E+06 -1.454459E+05  1.673759E+03 -3.925975E+05  3.565352E+02 -2.455519E+02
       151   3 -1.002191E+06 -1.436707E+05  8.319979E+03 -3.945058E+05  1.353488E+03 -1.115665E+03
       151   4 -1.038506E+06 -1.574235E+05 -1.615161E+03 -4.043825E+05 -1.127296E+03  4.392261E+02
       151   5 -1.046193E+06 -1.494679E+05 -1.168395E+03 -3.955100E+05 -1.323827E+02 -4.289248E+02
       151   6 -1.038492E+06 -1.573226E+05 -1.225121E+03 -4.044204E+05  8.634598E+02 -1.299457E+03
       151   7 -1.023618E+06 -1.518156E+05  2.246375E+03 -4.002934E+05 -1.615150E+03  2.562616E+02
       151   8 -1.056899E+06 -1.534899E+05 -4.010553E+03 -3.984225E+05 -6.212905E+02 -6.122939E+02
       151   9 -1.074792E+06 -1.709743E+05 -1.077026E+04 -4.143344E+05  3.734662E+02 -1.483237E+03
       151  10 -1.053395E+06 -1.630313E+05 -5.476699E+03 -4.084716E+05 -1.764379E-09 -3.058550E-10
       151  11 -1.035487E+06 -1.454459E+05  1.673759E+03 -3.925975E+05 -4.536092E-10  1.276597E-10
       151  12 -1.002191E+06 -1.436707E+05  8.319973E+03 -3.945058E+05  1.521569E-09  5.683759E-10
       151  13 -1.038506E+06 -1.574235E+05 -1.615164E+03 -4.043825E+05 -1.983942E-09 -5.615916E-10
       151  14 -1.046193E+06 -1.494679E+05 -1.168395E+03 -3.955100E+05  3.029598E-11  1.068284E-10
       151  15 -1.038492E+06 -1.573226E+05 -1.225125E+03 -4.044204E+05 -6.832055E-10  7.495328E-10
       151  16 -1.023618E+06 -1.518156E+05  2.246370E+03 -4.002934E+05  1.271846E-09 -7.340604E-10
       151  17 -1.056899E+06 -1.534899E+05 -4.010555E+03 -3.984225E+05  2.174406E-10  1.886470E-10
       151  18 -1.074792E+06 -1.709743E+05 -1.077026E+04 -4.143344E+05  4.818225E-10  7.969827E-10
       151  19 -1.053395E+06 -1.630313E+05 -5.476698E+03 -4.084716E+05  6.394564E+02 -6.221850E+02
       151  20 -1.035487E+06 -1.454459E+05  1.673759E+03 -3.925975E+05 -3.565352E+02  2.455519E+02
       151  21 -1.002191E+06 -1.436707E+05  8.319979E+03 -3.945058E+05 -1.353488E+03  1.115665E+03
       151  22 -1.038506E+06 -1.574235E+05 -1.615161E+03 -4.043825E+05  1.127296E+03 -4.392261E+02
       151  23 -1.046193E+06 -1.494679E+05 -1.168395E+03 -3.955100E+05  1.323827E+02  4.289248E+02
       151  24 -1.038492E+06 -1.573226E+05 -1.225121E+03 -4.044204E+05 -8.634598E+02  1.299457E+03
       151  25 -1.023618E+06 -1.518156E+05  2.246375E+03 -4.002934E+05  1.615150E+03 -2.562616E+02
       151  26 -1.056899E+06 -1.534899E+05 -4.010553E+03 -3.984225E+05  6.212905E+02  6.122939E+02
       151  27 -1.074792E+06 -1.709743E+05 -1.077026E+04 -4.143344E+05 -3.734662E+02  1.483237E+03
       152   1 -9.627069E+05 -1.287718E+05  1.883631E+04 -3.838017E+05  1.807968E+03 -1.670913E+03
       152   2 -9.450233E+05 -1.114800E+05  2.472195E+04 -3.680420E+05  3.271015E+03 -2.357269E+03
       152   3 -9.122979E+05 -1.100801E+05  2.968300E+04 -3.697704E+05  4.727781E+03 -3.025878E+03
       152   4 -1.038557E+06 -1.572456E+05 -1.390107E+03 -4.043914E+05  1.317952E+03 -1.854727E+03
       152   5 -1.046104E+06 -1.494868E+05 -2.117001E+03 -3.955769E+05  2.788753E+03 -2.538246E+03
       152   6 -1.038612E+06 -1.576217E+05 -3.774646E+03 -4.042509E+05  4.253228E+03 -3.204032E+03
       152   7 -1.114403E+06 -1.857191E+05 -2.161710E+04 -4.249790E+05  8.279999E+02 -2.038517E+03
       152   8 -1.147176E+06 -1.874932E+05 -2.895700E+04 -4.231079E+05  2.306574E+03 -2.719192E+03
       152   9 -1.164911E+06 -2.051627E+05 -3.723397E+04 -4.387253E+05  3.778776E+03 -3.382147E+03
       152  10 -9.627069E+05 -1.287718E+05  1.883630E+04 -3.838017E+05  3.714875E-09  6.566567E-10
       152  11 -9.450233E+05 -1.114800E+05  2.472192E+04 -3.680420E+05  1.523551E-09  2.429678E-10
       152  12 -9.122980E+05 -1.100801E+05  2.968295E+04 -3.697704E+05  1.220673E-09 -4.699097E-10
       152  13 -1.038557E+06 -1.572456E+05 -1.390117E+03 -4.043914E+05  1.454997E-09  7.257266E-10
       152  14 -1.046105E+06 -1.494868E+05 -2.117027E+03 -3.955769E+05  3.014724E-10  2.858614E-10
       152  15 -1.038612E+06 -1.576217E+05 -3.774700E+03 -4.042509E+05  3.525255E-10 -5.607610E-10
       152  16 -1.114403E+06 -1.857191E+05 -2.161711E+04 -4.249790E+05 -7.080258E-10  6.485205E-10
       152  17 -1.147176E+06 -1.874932E+05 -2.895703E+04 -4.231079E+05 -7.480029E-10  3.938118E-12
       152  18 -1.164911E+06 -2.051627E+05 -3.723402E+04 -4.387253E+05 -6.191720E-10 -6.001592E-10
       152  19 -9.627069E+05 -1.287718E+05  1.883631E+04 -3.838017E+05 -1.807968E+03  1.670913E+03
       152  20 -9.450233E+05 -1.114800E+05  2.472195E+04 -3.680420E+05 -3.271015E+03  2.357269E+03
       152  21 -9.122979E+05 -1.100801E+05  2.968300E+04 -3.697704E+05 -4.727781E+03  3.025878E+03
       152  22 -1.038557E+06 -1.572456E+05 -1.390107E+03 -4.043914E+05 -1.317952E+03  1.854727E+03
       152  23 -1.046104E+06 -1.494868E+05 -2.117001E+03 -3.955769E+05 -2.788753E+03  2.538246E+03
       152  24 -1.038612E+06 -1.576217E+05 -3.774646E+03 -4.042509E+05 -4.253228E+03  3.204032E+03
       152  25 -1.114403E+06 -1.857191E+05 -2.161710E+04 -4.249790E+05 -8.279999E+02  2.038517E+03
       152  26 -1.147176E+06 -1.874932E+05 -2.895700E+04 -4.231079E+05 -2.306574E+03  2.719192E+03
       152  27 -1.164911E+06 -2.051627E+05 -3.723397E+04 -4.387253E+05 -3.778776E+03  3.382147E+03
       153   1 -8.737820E+05 -9.536065E+04  3.897986E+04 -3.599066E+05  5.689112E+03 -3.381054E+03
       153   2 -8.564217E+05 -7.781119E+04  4.165591E+04 -3.440940E+05  1.041725E+04 -2.802637E+03
       153   3 -8.264334E+05 -7.960850E+04  3.989463E+04 -3.442231E+05  1.511440E+04 -2.139871E+03
       153   4 -1.038960E+06 -1.570231E+05 -4.883390E+03 -4.044224E+05  5.198821E+03 -3.565181E+03
       153   5 -1.045520E+06 -1.490941E+05 -8.584959E+03 -3.957959E+05  9.963454E+03 -2.973190E+03
       153   6 -1.039459E+06 -1.605202E+05 -1.675380E+04 -4.031114E+05  1.469691E+04 -2.296912E+03
       153   7 -1.204111E+06 -2.186835E+05 -4.874866E+04 -4.489273E+05  4.708676E+03 -3.749253E+03
       153   8 -1.234582E+06 -2.203746E+05 -5.882871E+04 -4.474835E+05  9.509808E+03 -3.143684E+03
       153   9 -1.252441E+06 -2.414288E+05 -7.340612E+04 -4.619813E+05  1.427959E+04 -2.453892E+03
       153  10 -8.737820E+05 -9.536067E+04  3.897977E+04 -3.599066E+05  1.636302E-10 -2.861220E-10
       153  11 -8.564218E+05 -7.781123E+04  4.165570E+04 -3.440940E+05 -1.299175E-09  1.114909E-09
       153  12 -8.264336E+05 -7.960856E+04  3.989419E+04 -3.442230E+05  2.924075E-09 -2.240540E-10
       153  13 -1.038960E+06 -1.570231E+05 -4.883464E+03 -4.044224E+05 -1.261567E-09 -1.219496E-10
       153  14 -1.045520E+06 -1.490942E+05 -8.585162E+03 -3.957959E+05 -1.819878E-10  5.657540E-10
       153  15 -1.039459E+06 -1.605202E+05 -1.675422E+04 -4.031113E+05  1.346423E-10 -1.086086E-10
       153  16 -1.204111E+06 -2.186835E+05 -4.874872E+04 -4.489272E+05 -1.210375E-09 -1.378083E-10
       153  17 -1.234582E+06 -2.203746E+05 -5.882890E+04 -4.474835E+05 -1.540309E-09  6.942798E-10
       153  18 -1.252441E+06 -2.414289E+05 -7.340652E+04 -4.619813E+05  3.591228E-10 -1.316046E-10
       153  19 -8.737820E+05 -9.536065E+04  3.897986E+04 -3.599066E+05 -5.689112E+03  3.381054E+03
       153  20 -8.564217E+05 -7.781119E+04  4.165591E+04 -3.440940E+05 -1.041725E+04  2.802637E+03
       153  21 -8.264334E+05 -7.960850E+04  3.989463E+04 -3.442231E+05 -1.511440E+04  2.139871E+03
       153  22 -1.038960E+06 -1.570231E+05 -4.883390E+03 -4.044224E+05 -5.198821E+03  3.565181E+03
       153  23 -1.045520E+06 -1.490941E+05 -8.584959E+03 -3.957959E+05 -9.963454E+03  2.973190E+03
       153  24 -1.039459E+06 -1.605202E+05 -1.675380E+04 -4.031114E+05 -1.469691E+04  2.296912E+03
       153  25 -1.204111E+06 -2.186835E+05 -4.874866E+04 -4.489273E+05 -4.708676E+03  3.749253E+03
       153  26 -1.234582E+06 -2.203746E+05 -5.882871E+04 -4.474835E+05 -9.509808E+03  3.143684E+03
       153  27 -1.252441E+06 -2.414288E+05 -7.340612E+04 -4.619813E+05 -1.427959E+04  2.453892E+03
       154   1 -7.880668E+05 -6.454694E+04  4.513739E+04 -3.405515E+05  1.866339E+04 -1.598444E+03
       154   2 -7.700895E+05 -4.026063E+04  3.552547E+04 -3.203157E+05  3.801499E+04  4.550352E+03
       154   3 -7.553513E+05 -6.951577E+04  1.011998E+03 -3.062210E+05  5.708264E+04  1.145846E+04
       154   4 -1.041269E+06 -1.558868E+05 -2.141782E+04 -4.055390E+05  1.804635E+04 -1.830428E+03
       154   5 -1.041828E+06 -1.446407E+05 -3.703239E+04 -3.966198E+05  3.773023E+04  4.442826E+03
       154   6 -1.045700E+06 -1.870144E+05 -7.782102E+04 -3.938416E+05  5.712947E+04  1.147485E+04
       154   7 -1.294411E+06 -2.472243E+05 -8.797866E+04 -4.705033E+05  1.742959E+04 -2.062320E+03
       154   8 -1.313495E+06 -2.490156E+05 -1.095968E+05 -4.728936E+05  3.744561E+04  4.335351E+03
       154   9 -1.335966E+06 -3.045044E+05 -1.566616E+05 -4.814238E+05  5.717627E+04  1.149122E+04
       154  10 -7.880671E+05 -6.454704E+04  4.513673E+04 -3.405515E+05 -2.912896E-10 -8.274077E-10
       154  11 -7.700910E+05 -4.026104E+04  3.552271E+04 -3.203158E+05 -6.863595E-10  2.317774E-10
       154  12 -7.553548E+05 -6.951679E+04  1.005619E+03 -3.062215E+05 -1.204654E-09 -2.002588E-09
       154  13 -1.041270E+06 -1.558868E+05 -2.141844E+04 -4.055390E+05 -4.566775E-10 -1.189715E-09
       154  14 -1.041829E+06 -1.446411E+05 -3.703511E+04 -3.966199E+05  1.380715E-09 -2.549114E-10
       154  15 -1.045703E+06 -1.870154E+05 -7.782741E+04 -3.938421E+05  8.721507E-10 -9.267845E-10
       154  16 -1.294411E+06 -2.472244E+05 -8.797924E+04 -4.705033E+05  1.049508E-10 -7.180082E-11
       154  17 -1.313497E+06 -2.490160E+05 -1.095995E+05 -4.728937E+05  2.946882E-10  1.289745E-09
       154  18 -1.335970E+06 -3.045054E+05 -1.566681E+05 -4.814243E+05 -7.779757E-10  9.744703E-10
       154  19 -7.880668E+05 -6.454694E+04  4.513739E+04 -3.405515E+05 -1.866339E+04  1.598444E+03
       154  20 -7.700895E+05 -4.026063E+04  3.552547E+04 -3.203157E+05 -3.801499E+04 -4.550352E+03
       154  21 -7.553513E+05 -6.951577E+04  1.011998E+03 -3.062210E+05 -5.708264E+04 -1.145846E+04
       154  22 -1.041269E+06 -1.558868E+05 -2.141782E+04 -4.055390E+05 -1.804635E+04  1.830428E+03
       154  23 -1.041828E+06 -1.446407E+05 -3.703239E+04 -3.966198E+05 -3.773023E+04 -4.442826E+03
       154  24 -1.045700E+06 -1.870144E+05 -7.782102E+04 -3.938416E+05 -5.712947E+04 -1.147485E+04
       154  25 -1.294411E+06 -2.472243E+05 -8.797866E+04 -4.705033E+05 -1.742959E+04  2.062320E+03
       154  26 -1.313495E+06 -2.490156E+05 -1.095968E+05 -4.728936E+05 -3.744561E+04 -4.335351E+03
       154  27 -1.335966E+06 -3.045044E+05 -1.566616E+05 -4.814238E+05 -5.717627E+04 -1.149122E+04
       155   1 -7.033273E+05 -4.680286E+04 -7.802904E+03 -3.539996E+05  7.377143E+04  1.571430E+04
       155   2 -6.780433E+05  4.373156E+04 -6.373097E+04 -2.883407E+05  1.562063E+05  4.580531E+04
       155   3 -7.809153E+05 -2.240468E+05 -2.755399E+05 -1.471264E+05  2.354284E+05  8.443887E+04
       155   4 -1.058259E+06 -1.468165E+05 -9.549602E+04 -4.163881E+05  7.145430E+04  1.484647E+04
       155   5 -1.013337E+06 -1.044986E+05 -1.568626E+05 -4.024712E+05  1.576744E+05  4.635103E+04
       155   6 -1.097406E+06 -4.213751E+05 -3.771807E+05 -3.129772E+05  2.406827E+05  8.638268E+04
       155   7 -1.413067E+06 -2.468331E+05 -1.831978E+05 -4.787504E+05  6.913862E+04  1.397887E+04
       155   8 -1.348518E+06 -2.527087E+05 -2.500042E+05 -5.165412E+05  1.591415E+05  4.689628E+04
       155   9 -1.413781E+06 -6.186306E+05 -4.788294E+05 -4.787331E+05  2.459340E+05  8.832370E+04
       155  10 -7.033332E+05 -4.680459E+04 -7.813609E+03 -3.540006E+05  2.098037E-09 -2.250389E-09
       155  11 -6.780701E+05  4.372274E+04 -6.378083E+04 -2.883465E+05  2.246830E-09 -4.922148E-09
       155  12 -7.809768E+05 -2.240694E+05 -2.756576E+05 -1.471424E+05  4.760181E-10 -7.599264E-10
       155  13 -1.058264E+06 -1.468181E+05 -9.550605E+04 -4.163889E+05 -4.181077E-10 -2.872018E-09
       155  14 -1.013364E+06 -1.045076E+05 -1.569134E+05 -4.024771E+05  2.428157E-09 -3.912389E-09
       155  15 -1.097470E+06 -4.213987E+05 -3.773039E+05 -3.129939E+05 -4.362738E-10  1.934195E-09
       155  16 -1.413072E+06 -2.468345E+05 -1.832072E+05 -4.787512E+05 -7.425741E-11 -3.972870E-10
       155  17 -1.348546E+06 -2.527179E+05 -2.500560E+05 -5.165473E+05  1.261476E-09 -1.245450E-09
       155  18 -1.413849E+06 -6.186553E+05 -4.789580E+05 -4.787507E+05  2.528334E-10 -5.436619E-10
       155  19 -7.033273E+05 -4.680286E+04 -7.802904E+03 -3.539996E+05 -7.377143E+04 -1.571430E+04
       155  20 -6.780433E+05  4.373156E+04 -6.373097E+04 -2.883407E+05 -1.562063E+05 -4.580531E+04
       155  21 -7.809153E+05 -2.240468E+05 -2.755399E+05 -1.471264E+05 -2.354284E+05 -8.443887E+04
       155  22 -1.058259E+06 -1.468165E+05 -9.549602E+04 -4.163881E+05 -7.145430E+04 -1.484647E+04
       155  23 -1.013337E+06 -1.044986E+05 -1.568626E+05 -4.024712E+05 -1.576744E+05 -4.635103E+04
       155  24 -1.097406E+06 -4.213751E+05 -3.771807E+05 -3.129772E+05 -2.406827E+05 -8.638268E+04
       155  25 -1.413067E+06 -2.468331E+05 -1.831978E+05 -4.787504E+05 -6.913862E+04 -1.397887E+04
       155  26 -1.348518E+06 -2.527087E+05 -2.500042E+05 -5.165412E+05 -1.591415E+05 -4.689628E+04
       155  27 -1.413781E+06 -6.186306E+05 -4.788294E+05 -4.787331E+05 -2.459340E+05 -8.832370E+04
       156   1  2.670695E+05  2.226098E+06  2.595908E+05 -1.313711E+05  1.175559E+04  1.050875E+05
       156   2  2.038682E+05  2.131549E+06  1.791829E+05 -1.078331E+05  3.959661E+04  5.178465E+04
       156   3  1.716009E+05  2.051655E+06  1.411504E+05 -1.001636E+05  4.712669E+04 -1.530634E+03
       156   4  4.636129E+04  1.329945E+06  5.084963E+04 -1.000724E+05  1.185839E+04  3.205611E+04
       156   5  1.275433E+04  1.326036E+06  2.778360E+04 -9.217115E+04  3.965109E+04  1.787852E+04
       156   6  3.325755E+03  1.330016E+06  1.999988E+04 -1.001362E+05  4.712345E+04  3.679588E+03
       156   7 -1.743971E+05  4.345444E+05 -1.579254E+05 -6.881880E+04  1.195393E+04 -4.087094E+04
       156   8 -1.783956E+05  5.211507E+05 -1.236395E+05 -7.652967E+04  3.970390E+04 -1.598483E+04
       156   9 -1.649765E+05  6.088897E+05 -1.011669E+05 -1.001086E+05  4.712020E+04  8.883966E+03
       156  10  2.670664E+05  2.226086E+06  2.595699E+05 -1.313721E+05  1.324303E-10  2.117187E-09
       156  11  2.038658E+05  2.131545E+06  1.791749E+05 -1.078348E+05 -3.579397E-10 -6.100751E-10
       156  12  1.715985E+05  2.051654E+06  1.411462E+05 -1.001635E+05 -1.649230E-09 -3.401321E-09
       156  13  4.636086E+04  1.329944E+06  5.084744E+04 -1.000727E+05  1.676959E-10 -1.323479E-09
       156  14  1.275255E+04  1.326035E+06  2.778005E+04 -9.217172E+04  1.357842E-09 -3.034956E-09
       156  15  3.323366E+03  1.330016E+06  1.999568E+04 -1.001363E+05  1.681662E-10 -1.079050E-09
       156  16 -1.743977E+05  4.345426E+05 -1.579288E+05 -6.881841E+04 -3.425906E-10 -1.363173E-09
       156  17 -1.783974E+05  5.211500E+05 -1.236430E+05 -7.652916E+04  9.504983E-10 -1.583598E-09
       156  18 -1.649790E+05  6.088890E+05 -1.011712E+05 -1.001090E+05  7.108049E-10  2.449157E-09
       156  19  2.670695E+05  2.226098E+06  2.595908E+05 -1.313711E+05 -1.175559E+04 -1.050875E+05
       156  20  2.038682E+05  2.131549E+06  1.791829E+05 -1.078331E+05 -3.959661E+04 -5.178465E+04
       156  21  1.716009E+05  2.051655E+06  1.411504E+05 -1.001636E+05 -4.712669E+04  1.530634E+03
       156  22  4.636129E+04  1.329945E+06  5.084963E+04 -1.000724E+05 -1.185839E+04 -3.205611E+04
       156  23  1.275433E+04  1.326036E+06  2.778360E+04 -9.217115E+04 -3.965109E+04 -1.787852E+04
       156  24  3.325755E+03  1.330016E+06  1.999988E+04 -1.001362E+05 -4.712345E+04 -3.679588E+03
       156  25 -1.743971E+05  4.345444E+05 -1.579254E+05 -6.881880E+04 -1.195393E+04  4.087094E+04
       156  26 -1.783956E+05  5.211507E+05 -1.236395E+05 -7.652967E+04 -3.970390E+04  1.598483E+04
       156  27 -1.649765E+05  6.088897E+05 -1.011669E+05 -1.001086E+05 -4.712020E+04 -8.883966E+03
       157   1  1.578518E+05  1.994144E+06  1.288597E+05 -1.034524E+05  4.496301E+04 -3.583877E+03
       157   2  1.363831E+05  1.905438E+06  1.141421E+05 -9.164133E+04  4.147169E+04 -1.962654E+04
       157   3  1.220750E+05  1.820571E+06  1.116276E+05 -9.706980E+04  3.529344E+04 -3.567329E+04
       157   4  3.095510E+03  1.328929E+06  1.907049E+04 -1.004371E+05  4.496055E+04  6.006818E+02
       157   5  2.523275E+03  1.327473E+06  2.171926E+04 -9.181319E+04  4.145914E+04 -1.026124E+04
       157   6  8.217961E+03  1.328956E+06  3.298608E+04 -1.004294E+05  3.526969E+04 -2.112931E+04
       157   7 -1.516835E+05  6.641494E+05 -9.073179E+04 -9.742494E+04  4.495812E+04  4.780920E+03
       157   8 -1.313532E+05  7.498398E+05 -7.071202E+04 -9.198472E+04  4.144658E+04 -9.043122E+02
       157   9 -1.056510E+05  8.375797E+05 -4.566106E+04 -1.037861E+05  3.524577E+04 -6.596398E+03
       157  10  1.578496E+05  1.994144E+06  1.288559E+05 -1.034523E+05 -3.500078E-09  3.053949E-09
       157  11  1.363812E+05  1.905437E+06  1.141381E+05 -9.164067E+04 -4.341707E-09  2.094613E-10
       157  12  1.220733E+05  1.820570E+06  1.116229E+05 -9.706879E+04  5.324775E-10 -1.410192E-09
       157  13  3.093338E+03  1.328928E+06  1.906669E+04 -1.004372E+05 -2.381751E-09 -1.799235E-09
       157  14  2.521400E+03  1.327473E+06  2.171583E+04 -9.181284E+04 -9.816215E-10 -3.685907E-09
       157  15  8.216505E+03  1.328955E+06  3.298290E+04 -1.004288E+05 -2.192588E-09 -1.233265E-09
       157  16 -1.516857E+05  6.641489E+05 -9.073563E+04 -9.742512E+04 -1.960254E-09 -2.212977E-09
       157  17 -1.313551E+05  7.498393E+05 -7.071525E+04 -9.198469E+04  7.445906E-10 -3.167683E-09
       157  18 -1.056524E+05  8.375794E+05 -4.566348E+04 -1.037859E+05 -1.067732E-09  6.825956E-10
       157  19  1.578518E+05  1.994144E+06  1.288597E+05 -1.034524E+05 -4.496301E+04  3.583877E+03
       157  20  1.363831E+05  1.905438E+06  1.141421E+05 -9.164133E+04 -4.147169E+04  1.962654E+04
       157  21  1.220750E+05  1.820571E+06  1.116276E+05 -9.706980E+04 -3.529344E+04  3.567329E+04
       157  22  3.095510E+03  1.328929E+06  1.907049E+04 -1.004371E+05 -4.496055E+04 -6.006818E+02
       157  23  2.523275E+03  1.327473E+06  2.171926E+04 -9.181319E+04 -4.145914E+04  1.026124E+04
       157  24  8.217961E+03  1.328956E+06  3.298608E+04 -1.004294E+05 -3.526969E+04  2.112931E+04
       157  25 -1.516835E+05  6.641494E+05 -9.073179E+04 -9.742494E+04 -4.495812E+04 -4.780920E+03
       157  26 -1.313532E+05  7.498398E+05 -7.071202E+04 -9.198472E+04 -4.144658E+04  9.043122E+02
       157  27 -1.056510E+05  8.375797E+05 -4.566106E+04 -1.037861E+05 -3.524577E+04  6.596398E+03
       158   1  1.101325E+05  1.769978E+06  1.122083E+05 -1.044759E+05  3.107761E+04 -4.091804E+04
       158   2  1.192828E+05  1.671484E+06  1.350471E+05 -4.956524E+04  2.111029E+04 -8.932582E+04
       158   3  2.004819E+05  1.597228E+06  2.073417E+05 -1.227156E+04  5.758591E+03 -1.377394E+05
       158   4  8.892170E+03  1.333302E+06  4.198317E+04 -1.005371E+05  3.105288E+04 -2.673798E+04
       158   5  3.750926E+04  1.322054E+06  7.405462E+04 -9.161654E+04  2.107030E+04 -6.478465E+04
       158   6  1.363909E+05  1.333240E+06  1.484050E+05 -1.003080E+05  5.709101E+03 -1.028420E+05
       158   7 -9.235762E+04  8.968159E+05 -2.824637E+04 -9.660103E+04  3.102831E+04 -1.256752E+04
       158   8 -4.426388E+04  9.727491E+05  1.306107E+04 -1.336435E+05  2.102699E+04 -4.025685E+04
       158   9  7.232501E+04  1.069335E+06  8.947263E+04 -1.883067E+05  5.649728E+03 -6.795921E+04
       158  10  1.101310E+05  1.769976E+06  1.122034E+05 -1.044749E+05 -1.111522E-09  4.426474E-10
       158  11  1.192802E+05  1.671475E+06  1.350313E+05 -4.956372E+04 -1.383066E-09 -2.673579E-10
       158  12  2.004768E+05  1.597207E+06  2.073061E+05 -1.227092E+04  1.117545E-09  7.209349E-10
       158  13  8.890943E+03  1.333301E+06  4.198001E+04 -1.005364E+05 -1.372592E-09 -2.012758E-09
       158  14  3.750766E+04  1.322050E+06  7.404592E+04 -9.161544E+04 -2.416880E-09 -3.958579E-09
       158  15  1.363880E+05  1.333228E+06  1.483851E+05 -1.003075E+05  1.223387E-09 -1.004912E-09
       158  16 -9.235870E+04  8.968155E+05 -2.824848E+04 -9.660072E+04 -1.090125E-09  4.746336E-10
       158  17 -4.426479E+04  9.727473E+05  1.305720E+04 -1.336428E+05 -4.448131E-10 -3.084075E-09
       158  18  7.232374E+04  1.069330E+06  8.946391E+04 -1.883064E+05  6.122005E-11 -1.770879E-09
       158  19  1.101325E+05  1.769978E+06  1.122083E+05 -1.044759E+05 -3.107761E+04  4.091804E+04
       158  20  1.192828E+05  1.671484E+06  1.350471E+05 -4.956524E+04 -2.111029E+04  8.932582E+04
       158  21  2.004819E+05  1.597228E+06  2.073417E+05 -1.227156E+04 -5.758591E+03  1.377394E+05
       158  22  8.892170E+03  1.333302E+06  4.198317E+04 -1.005371E+05 -3.105288E+04  2.673798E+04
       158  23  3.750926E+04  1.322054E+06  7.405462E+04 -9.161654E+04 -2.107030E+04  6.478465E+04
       158  24  1.363909E+05  1.333240E+06  1.484050E+05 -1.003080E+05 -5.709101E+03  1.028420E+05
       158  25 -9.235762E+04  8.968159E+05 -2.824637E+04 -9.660103E+04 -3.102831E+04  1.256752E+04
       158  26 -4.426388E+04  9.727491E+05  1.306107E+04 -1.336435E+05 -2.102699E+04  4.025685E+04
       158  27  7.232501E+04  1.069335E+06  8.947263E+04 -1.883067E+05 -5.649728E+03  6.795921E+04
       159   1  7.994215E+04 -9.975330E+04 -2.954773E+04  1.119553E+04  1.964172E+05  1.396885E+04
       159   2  1.578281E+05 -3.553777E+05 -1.691552E+05  5.996334E+03  1.363643E+05  4.005812E+04
       159   3  3.237512E+05 -3.004070E+05 -1.914964E+05 -9.418868E+04  7.637156E+04  3.579526E+04
       159   4  1.483161E+06  2.493734E+05  3.166522E+05 -6.153837E+04  2.166428E+05  1.399899E+04
       159   5  1.438085E+06 -3.816292E+04  1.381758E+05 -1.372436E+04  1.418680E+05  4.005898E+04
       159   6  1.483391E+06 -1.290700E+04  8.698687E+04 -6.087703E+04  6.716683E+04  3.578420E+04
       159   7  2.888180E+06  5.983744E+05  6.627112E+05 -1.344379E+05  2.369137E+05  1.402438E+04
       159   8  2.719842E+06  2.789345E+05  4.453910E+05 -3.348659E+04  1.473828E+05  4.005951E+04
       159   9  2.644262E+06  2.744995E+05  3.653756E+05 -2.750326E+04  5.794489E+04  3.577216E+04
       159  10  7.990068E+04 -9.976387E+04 -2.962059E+04  1.119332E+04  6.931832E-11  2.645267E-11
       159  11  1.578077E+05 -3.553844E+05 -1.691932E+05  5.991934E+03 -6.431207E-10  3.927539E-11
       159  12  3.237445E+05 -3.004099E+05 -1.915098E+05 -9.419088E+04 -1.267120E-09 -3.630180E-10
       159  13  1.483110E+06  2.493607E+05  3.165639E+05 -6.154081E+04 -1.323406E-09 -7.917206E-11
       159  14  1.438063E+06 -3.817003E+04  1.381350E+05 -1.372893E+04 -8.267897E-10 -9.387020E-11
       159  15  1.483385E+06 -1.290958E+04  8.697600E+04 -6.087897E+04 -5.009539E-10 -2.536502E-10
       159  16  2.888120E+06  5.983592E+05  6.626059E+05 -1.344406E+05  3.264569E-10 -8.825319E-11
       159  17  2.719818E+06  2.789270E+05  4.453473E+05 -3.349134E+04 -1.858378E-10 -1.782231E-10
       159  18  2.644258E+06  2.744972E+05  3.653669E+05 -2.750493E+04  1.838654E-10  1.826133E-10
       159  19  7.994215E+04 -9.975330E+04 -2.954773E+04  1.119553E+04 -1.964172E+05 -1.396885E+04
       159  20  1.578281E+05 -3.553777E+05 -1.691552E+05  5.996334E+03 -1.363643E+05 -4.005812E+04
       159  21  3.237512E+05 -3.004070E+05 -1.914964E+05 -9.418868E+04 -7.637156E+04 -3.579526E+04
       159  22  1.483161E+06  2.493734E+05  3.166522E+05 -6.153837E+04 -2.166428E+05 -1.399899E+04
       159  23  1.438085E+06 -3.816292E+04  1.381758E+05 -1.372436E+04 -1.418680E+05 -4.005898E+04
       159  24  1.483391E+06 -1.290700E+04  8.698687E+04 -6.087703E+04 -6.716683E+04 -3.578420E+04
       159  25  2.888180E+06  5.983744E+05  6.627112E+05 -1.344379E+05 -2.369137E+05 -1.402438E+04
       159  26  2.719842E+06  2.789345E+05  4.453910E+05 -3.348659E+04 -1.473828E+05 -4.005951E+04
       159  27  2.644262E+06  2.744995E+05  3.653756E+05 -2.750326E+04 -5.794489E+04 -3.577216E+04
       160   1  4.731668E+05 -2.193324E+05 -1.679855E+05 -5.299512E+04  5.398318E+04  2.866603E+04
       160   2  5.813546E+05 -2.221680E+05 -1.752472E+05 -1.348747E+04  3.666221E+04  2.650523E+04
       160   3  7.013521E+05 -1.909386E+05 -1.625042E+05 -6.331621E+04  1.933173E+04  2.204471E+04
       160   4  1.466026E+06  2.682180E+04  7.101887E+04 -5.982477E+04  5.356063E+04  2.866207E+04
       160   5  1.460070E+06 -4.385279E+03  3.590836E+04 -1.515252E+04  3.510835E+04  2.650227E+04
       160   6  1.466090E+06 -1.357877E+03  2.156409E+04 -5.980788E+04  1.664972E+04  2.204396E+04
       160   7  2.459786E+06  2.729045E+05  3.099530E+05 -6.666549E+04  5.313736E+04  2.865812E+04
       160   8  2.339491E+06  2.133414E+05  2.470091E+05 -1.681998E+04  3.355227E+04  2.649933E+04
       160   9  2.231362E+06  1.881803E+05  2.055907E+05 -5.629515E+04  1.396442E+04  2.204317E+04
       160  10  4.731635E+05 -2.193341E+05 -1.679925E+05 -5.299637E+04 -1.442958E-09 -5.335456E-10
       160  11  5.813530E+05 -2.221691E+05 -1.752511E+05 -1.348825E+04 -1.105188E-09  2.910545E-10
       160  12  7.013516E+05 -1.909392E+05 -1.625058E+05 -6.331656E+04  1.141352E-09 -2.369877E-10
       160  13  1.466023E+06  2.682015E+04  7.101194E+04 -5.982600E+04  2.836950E-10 -1.108023E-10
       160  14  1.460069E+06 -4.386364E+03  3.590473E+04 -1.515327E+04 -9.804294E-10 -6.476062E-11
       160  15  1.466089E+06 -1.358473E+03  2.156265E+04 -5.980818E+04 -3.364810E-10 -2.130479E-12
       160  16  2.459783E+06  2.729028E+05  3.099462E+05 -6.666672E+04  1.618302E-10  3.365817E-10
       160  17  2.339490E+06  2.133403E+05  2.470057E+05 -1.682069E+04  1.032116E-10  1.884496E-10
       160  18  2.231361E+06  1.881798E+05  2.055895E+05 -5.629540E+04 -9.137607E-10 -4.669186E-11
       160  19  4.731668E+05 -2.193324E+05 -1.679855E+05 -5.299512E+04 -5.398318E+04 -2.866603E+04
       160  20  5.813546E+05 -2.221680E+05 -1.752472E+05 -1.348747E+04 -3.666221E+04 -2.650523E+04
       160  21  7.013521E+05 -1.909386E+05 -1.625042E+05 -6.331621E+04 -1.933173E+04 -2.204471E+04
       160  22  1.466026E+06  2.682180E+04  7.101887E+04 -5.982477E+04 -5.356063E+04 -2.866207E+04
       160  23  1.460070E+06 -4.385279E+03  3.590836E+04 -1.515252E+04 -3.510835E+04 -2.650227E+04
       160  24  1.466090E+06 -1.357877E+03  2.156409E+04 -5.980788E+04 -1.664972E+04 -2.204396E+04
       160  25  2.459786E+06  2.729045E+05  3.099530E+05 -6.666549E+04 -5.313736E+04 -2.865812E+04
       160  26  2.339491E+06  2.133414E+05  2.470091E+05 -1.681998E+04 -3.355227E+04 -2.649933E+04
       160  27  2.231362E+06  1.881803E+05  2.055907E+05 -5.629515E+04 -1.396442E+04 -2.204317E+04
       161   1  8.576203E+05 -1.473330E+05 -1.284909E+05 -5.817028E+04  1.521129E+04  1.911686E+04
       161   2  9.662444E+05 -1.235996E+05 -1.100960E+05 -1.576297E+04  1.061826E+04  1.491704E+04
       161   3  1.076565E+06 -9.603433E+04 -8.772967E+04 -5.909549E+04  6.019698E+03  1.058542E+04
       161   4  1.463864E+06  2.842610E+03  1.690136E+04 -5.901238E+04  1.323181E+04  1.911678E+04
       161   5  1.463027E+06 -5.005605E+02  9.270450E+03 -1.614564E+04  8.571144E+03  1.491803E+04
       161   6  1.463889E+06 -9.066824E-01  5.655924E+03 -5.901440E+04  3.905745E+03  1.058756E+04
       161   7  2.070443E+06  1.529915E+05  1.622676E+05 -5.985523E+04  1.125039E+04  1.911671E+04
       161   8  1.960036E+06  1.225806E+05  1.286194E+05 -1.652855E+04  6.522392E+03  1.491902E+04
       161   9  1.851349E+06  9.602159E+04  9.903082E+04 -5.893320E+04  1.790479E+03  1.058969E+04
       161  10  8.576200E+05 -1.473334E+05 -1.284920E+05 -5.817051E+04  1.815100E-10 -8.868653E-11
       161  11  9.662442E+05 -1.235999E+05 -1.100967E+05 -1.576310E+04  1.149825E-10 -3.770694E-10
       161  12  1.076565E+06 -9.603446E+04 -8.772994E+04 -5.909555E+04 -2.769165E-10 -7.750643E-11
       161  13  1.463863E+06  2.842171E+03  1.690034E+04 -5.901258E+04  5.821672E-10 -1.408511E-10
       161  14  1.463027E+06 -5.008193E+02  9.269894E+03 -1.614574E+04  4.806139E-10 -1.448998E-10
       161  15  1.463889E+06 -1.031226E+00  5.655685E+03 -5.901443E+04  5.382486E-10 -1.201966E-11
       161  16  2.070443E+06  1.529911E+05  1.622667E+05 -5.985541E+04 -2.311779E-11 -1.665772E-10
       161  17  1.960036E+06  1.225803E+05  1.286189E+05 -1.652863E+04  6.736930E-10 -2.491598E-12
       161  18  1.851349E+06  9.602147E+04  9.903060E+04 -5.893322E+04  1.196508E-09 -2.104247E-10
       161  19  8.576203E+05 -1.473330E+05 -1.284909E+05 -5.817028E+04 -1.521129E+04 -1.911686E+04
       161  20  9.662444E+05 -1.235996E+05 -1.100960E+05 -1.576297E+04 -1.061826E+04 -1.491704E+04
       161  21  1.076565E+06 -9.603433E+04 -8.772967E+04 -5.909549E+04 -6.019698E+03 -1.058542E+04
       161  22  1.463864E+06  2.842610E+03  1.690136E+04 -5.901238E+04 -1.323181E+04 -1.911678E+04
       161  23  1.463027E+06 -5.005605E+02  9.270450E+03 -1.614564E+04 -8.571144E+03 -1.491803E+04
       161  24  1.463889E+06 -9.066824E-01  5.655924E+03 -5.901440E+04 -3.905745E+03 -1.058756E+04
       161  25  2.070443E+06  1.529915E+05  1.622676E+05 -5.985523E+04 -1.125039E+04 -1.911671E+04
       161  26  1.960036E+06  1.225806E+05  1.286194E+05 -1.652855E+04 -6.522392E+03 -1.491902E+04
       161  27  1.851349E+06  9.602159E+04  9.903082E+04 -5.893320E+04 -1.790479E+03 -1.058969E+04
       162   1  1.230028E+06 -5.738698E+04 -5.126933E+04 -5.841041E+04  5.040964E+03  8.055689E+03
       162   2  1.337379E+06 -3.126754E+04 -2.727521E+04 -1.648249E+04  3.532618E+03  3.782769E+03
       162   3  1.444838E+06 -4.523366E+03 -2.200576E+03 -5.866640E+04  2.022802E+03 -4.894013E+02
       162   4  1.463560E+06  4.059105E+02  4.507504E+03 -5.865245E+04  2.986328E+03  8.058212E+03
       162   5  1.463515E+06 -1.883358E+01  3.026397E+03 -1.659726E+04  1.477693E+03  3.785535E+03
       162   6  1.463566E+06  1.814594E+02  2.625909E+03 -5.865281E+04 -3.215420E+01 -4.863512E+02
       162   7  1.697142E+06  5.819487E+04  6.028052E+04 -5.889457E+04  9.309225E+02  8.060736E+03
       162   8  1.589666E+06  3.122872E+04  3.332689E+04 -1.671205E+04 -5.776471E+02  3.788302E+03
       162   9  1.482294E+06  4.886259E+03  7.452382E+03 -5.863922E+04 -2.087172E+03 -4.833012E+02
       162  10  1.230028E+06 -5.738706E+04 -5.126950E+04 -5.841044E+04 -6.087063E-10  1.451288E-10
       162  11  1.337379E+06 -3.126756E+04 -2.727526E+04 -1.648250E+04 -2.019969E-10  1.193705E-10
       162  12  1.444838E+06 -4.523367E+03 -2.200584E+03 -5.866640E+04  9.296564E-10 -6.004774E-10
       162  13  1.463560E+06  4.058384E+02  4.507365E+03 -5.865247E+04  1.503931E-09  7.682671E-11
       162  14  1.463515E+06 -1.884957E+01  3.026366E+03 -1.659727E+04  8.215242E-10  9.201263E-10
       162  15  1.463566E+06  1.814592E+02  2.625908E+03 -5.865281E+04 -1.467527E-10  7.932204E-11
       162  16  1.697142E+06  5.819480E+04  6.028039E+04 -5.889458E+04  1.101585E-09  9.849811E-11
       162  17  1.589666E+06  3.122870E+04  3.332686E+04 -1.671205E+04  9.831971E-10  7.015529E-10
       162  18  1.482294E+06  4.886258E+03  7.452373E+03 -5.863923E+04 -1.090313E-09  3.528756E-11
       162  19  1.230028E+06 -5.738698E+04 -5.126933E+04 -5.841041E+04 -5.040964E+03 -8.055689E+03
       162  20  1.337379E+06 -3.126754E+04 -2.727521E+04 -1.648249E+04 -3.532618E+03 -3.782769E+03
       162  21  1.444838E+06 -4.523366E+03 -2.200576E+03 -5.866640E+04 -2.022802E+03  4.894013E+02
       162  22  1.463560E+06  4.059105E+02  4.507504E+03 -5.865245E+04 -2.986328E+03 -8.058212E+03
       162  23  1.463515E+06 -1.883358E+01  3.026397E+03 -1.659726E+04 -1.477693E+03 -3.785535E+03
       162  24  1.463566E+06  1.814594E+02  2.625909E+03 -5.865281E+04  3.215420E+01  4.863512E+02
       162  25  1.697142E+06  5.819487E+04  6.028052E+04 -5.889457E+04 -9.309225E+02 -8.060736E+03
       162  26  1.589666E+06  3.122872E+04  3.332689E+04 -1.671205E+04  5.776471E+02 -3.788302E+03
       162  27  1.482294E+06  4.886259E+03  7.452382E+03 -5.863922E+04  2.087172E+03  4.833012E+02
       163   1  1.597494E+06  3.340852E+04  3.521214E+04 -5.881118E+04  1.535900E+03 -2.976137E+03
       163   2  1.705200E+06  5.982584E+04  6.158280E+04 -1.671513E+04 -2.177575E+02 -7.256330E+03
       163   3  1.813137E+06  8.696009E+04  8.922928E+04 -5.903050E+04 -1.969439E+03 -1.154938E+04
       163   4  1.463589E+06  1.749851E+02  2.722168E+03 -5.872009E+04 -5.206744E+02 -2.973170E+03
       163   5  1.463472E+06 -4.592528E+01  3.525508E+03 -1.651315E+04 -2.280102E+03 -7.253881E+03
       163   6  1.463578E+06  4.520897E+02  5.609781E+03 -5.871965E+04 -4.037253E+03 -1.154741E+04
       163   7  1.329700E+06 -3.305986E+04 -2.976909E+04 -5.862900E+04 -2.576808E+03 -2.970203E+03
       163   8  1.221798E+06 -5.992192E+04 -5.453591E+04 -1.631123E+04 -4.341648E+03 -7.251433E+03
       163   9  1.114130E+06 -8.606474E+04 -7.801832E+04 -5.840895E+04 -6.103910E+03 -1.154544E+04
       163  10  1.597494E+06  3.340851E+04  3.521212E+04 -5.881118E+04 -1.288722E-09 -8.597485E-11
       163  11  1.705199E+06  5.982578E+04  6.158270E+04 -1.671513E+04  8.086523E-10  6.364231E-10
       163  12  1.813137E+06  8.695995E+04  8.922902E+04 -5.903052E+04 -3.110021E-10  1.855957E-10
       163  13  1.463589E+06  1.749755E+02  2.722151E+03 -5.872009E+04  2.311503E-10  2.538307E-11
       163  14  1.463472E+06 -4.598322E+01  3.525399E+03 -1.651316E+04  2.567143E-10  3.932829E-10
       163  15  1.463578E+06  4.519420E+02  5.609499E+03 -5.871969E+04  1.297904E-09 -2.927104E-10
       163  16  1.329700E+06 -3.305987E+04 -2.976911E+04 -5.862901E+04  8.225244E-10 -6.469014E-10
       163  17  1.221798E+06 -5.992199E+04 -5.453605E+04 -1.631125E+04 -9.569891E-11 -2.053575E-10
       163  18  1.114130E+06 -8.606489E+04 -7.801864E+04 -5.840900E+04 -4.496278E-10 -5.395405E-10
       163  19  1.597494E+06  3.340852E+04  3.521214E+04 -5.881118E+04 -1.535900E+03  2.976137E+03
       163  20  1.705200E+06  5.982584E+04  6.158280E+04 -1.671513E+04  2.177575E+02  7.256330E+03
       163  21  1.813137E+06  8.696009E+04  8.922928E+04 -5.903050E+04  1.969439E+03  1.154938E+04
       163  22  1.463589E+06  1.749851E+02  2.722168E+03 -5.872009E+04  5.206744E+02  2.973170E+03
       163  23  1.463472E+06 -4.592528E+01  3.525508E+03 -1.651315E+04  2.280102E+03  7.253881E+03
       163  24  1.463578E+06  4.520897E+02  5.609781E+03 -5.871965E+04  4.037253E+03  1.154741E+04
       163  25  1.329700E+06 -3.305986E+04 -2.976909E+04 -5.862900E+04  2.576808E+03  2.970203E+03
       163  26  1.221798E+06 -5.992192E+04 -5.453591E+04 -1.631123E+04  4.341648E+03  7.251433E+03
       163  27  1.114130E+06 -8.606474E+04 -7.801832E+04 -5.840895E+04  6.103910E+03  1.154544E+04
       164   1  1.968577E+06  1.249421E+05  1.286414E+05 -5.903673E+04 -3.055744E+03 -1.409887E+04
       164   2  2.078113E+06  1.516836E+05  1.596346E+05 -1.623151E+04 -9.109951E+03 -1.846867E+04
       164   3  2.190024E+06  1.833337E+05  1.958553E+05 -6.009010E+04 -1.515920E+04 -2.270418E+04
       164   4  1.464014E+06 -7.332120E+01  7.151140E+03 -5.922166E+04 -5.190288E+03 -1.409747E+04
       164   5  1.462821E+06 -6.786952E+02  1.189188E+04 -1.588647E+04 -1.117471E+04 -1.846867E+04
       164   6  1.463983E+06  3.616573E+03  2.181707E+04 -5.922033E+04 -1.715310E+04 -2.270548E+04
       164   7  9.596833E+05 -1.251073E+05 -1.143573E+05 -5.940637E+04 -7.323107E+03 -1.409607E+04
       164   8  8.478744E+05 -1.530685E+05 -1.358776E+05 -1.554173E+04 -1.323743E+04 -1.846867E+04
       164   9  7.384242E+05 -1.761387E+05 -1.522585E+05 -5.835153E+04 -1.914468E+04 -2.270679E+04
       164  10  1.968577E+06  1.249419E+05  1.286410E+05 -5.903676E+04 -5.911180E-10 -5.891009E-10
       164  11  2.078113E+06  1.516832E+05  1.596338E+05 -1.623165E+04 -7.507256E-10  5.206960E-11
       164  12  2.190023E+06  1.833331E+05  1.958539E+05 -6.009037E+04 -1.207730E-09  1.797167E-10
       164  13  1.464014E+06 -7.354198E+01  7.150716E+03 -5.922172E+04 -1.009285E-10 -6.806191E-10
       164  14  1.462821E+06 -6.790952E+02  1.189100E+04 -1.588664E+04 -1.619399E-09 -3.082843E-10
       164  15  1.463983E+06  3.615941E+03  2.181555E+04 -5.922064E+04 -3.366934E-10  1.458832E-10
       164  16  9.596832E+05 -1.251075E+05 -1.143577E+05 -5.940646E+04  4.940933E-10 -7.442291E-10
       164  17  8.478742E+05 -1.530689E+05 -1.358786E+05 -1.554192E+04  8.568056E-10 -5.727209E-10
       164  18  7.384237E+05 -1.761394E+05 -1.522601E+05 -5.835188E+04  1.256487E-10 -7.848349E-11
       164  19  1.968577E+06  1.249421E+05  1.286414E+05 -5.903673E+04  3.055744E+03  1.409887E+04
       164  20  2.078113E+06  1.516836E+05  1.596346E+05 -1.623151E+04  9.109951E+03  1.846867E+04
       164  21  2.190024E+06  1.833337E+05  1.958553E+05 -6.009010E+04  1.515920E+04  2.270418E+04
       164  22  1.464014E+06 -7.332120E+01  7.151140E+03 -5.922166E+04  5.190288E+03  1.409747E+04
       164  23  1.462821E+06 -6.786952E+02  1.189188E+04 -1.588647E+04  1.117471E+04  1.846867E+04
       164  24  1.463983E+06  3.616573E+03  2.181707E+04 -5.922033E+04  1.715310E+04  2.270548E+04
       164  25  9.596833E+05 -1.251073E+05 -1.143573E+05 -5.940637E+04  7.323107E+03  1.409607E+04
       164  26  8.478744E+05 -1.530685E+05 -1.358776E+05 -1.554173E+04  1.323743E+04  1.846867E+04
       164  27  7.384242E+05 -1.761387E+05 -1.522585E+05 -5.835153E+04  1.914468E+04  2.270679E+04
       165   1  2.353840E+06  2.178373E+05  2.410936E+05 -5.530637E+04 -1.880315E+04 -2.570134E+04
       165   2  2.462170E+06  2.426492E+05  2.872229E+05 -1.655021E+04 -4.390956E+04 -3.024151E+04
       165   3  2.586278E+06  3.118703E+05  3.610435E+05 -6.867249E+04 -6.901507E+04 -3.228497E+04
       165   4  1.466853E+06 -1.825559E+03  2.785938E+04 -6.014727E+04 -2.156577E+04 -2.570377E+04
       165   5  1.459027E+06 -5.688278E+03  4.644071E+04 -1.472468E+04 -4.543578E+04 -3.024598E+04
       165   6  1.466776E+06  3.468448E+04  9.188950E+04 -6.018834E+04 -6.930021E+04 -3.229020E+04
       165   7  5.805833E+05 -2.215455E+05 -1.854307E+05 -6.498124E+04 -2.432444E+04 -2.570615E+04
       165   8  4.568015E+05 -2.540987E+05 -1.944129E+05 -1.290227E+04 -4.695951E+04 -3.025047E+04
       165   9  3.484173E+05 -2.425921E+05 -1.773535E+05 -5.171982E+04 -6.958476E+04 -3.229545E+04
       165  10  2.353840E+06  2.178365E+05  2.410917E+05 -5.530676E+04 -1.089089E-10  1.264912E-11
       165  11  2.462168E+06  2.426477E+05  2.872176E+05 -1.655128E+04  6.339318E-10 -3.344599E-10
       165  12  2.586272E+06  3.118680E+05  3.610326E+05 -6.867428E+04 -1.633997E-09  1.985125E-10
       165  13  1.466852E+06 -1.826393E+03  2.785726E+04 -6.014772E+04 -1.972645E-10 -1.963252E-10
       165  14  1.459024E+06 -5.689813E+03  4.643512E+04 -1.472579E+04 -2.309049E-09  3.871828E-11
       165  15  1.466771E+06  3.468207E+04  9.187854E+04 -6.019014E+04 -8.815683E-10  3.535294E-11
       165  16  5.805825E+05 -2.215463E+05 -1.854331E+05 -6.498174E+04 -4.552295E-10 -3.107698E-10
       165  17  4.567989E+05 -2.541003E+05 -1.944187E+05 -1.290341E+04 -2.326080E-10 -6.020360E-10
       165  18  3.484118E+05 -2.425945E+05 -1.773646E+05 -5.172163E+04  1.439025E-10  2.130623E-10
       165  19  2.353840E+06  2.178373E+05  2.410936E+05 -5.530637E+04  1.880315E+04  2.570134E+04
       165  20  2.462170E+06  2.426492E+05  2.872229E+05 -1.655021E+04  4.390956E+04  3.024151E+04
       165  21  2.586278E+06  3.118703E+05  3.610435E+05 -6.867249E+04  6.901507E+04  3.228497E+04
       165  22  1.466853E+06 -1.825559E+03  2.785938E+04 -6.014727E+04  2.156577E+04  2.570377E+04
       165  23  1.459027E+06 -5.688278E+03  4.644071E+04 -1.472468E+04  4.543578E+04  3.024598E+04
       165  24  1.466776E+06  3.468448E+04  9.188950E+04 -6.018834E+04  6.930021E+04  3.229020E+04
       165  25  5.805833E+05 -2.215455E+05 -1.854307E+05 -6.498124E+04  2.432444E+04  2.570615E+04
       165  26  4.568015E+05 -2.540987E+05 -1.944129E+05 -1.290227E+04  4.695951E+04  3.025047E+04
       165  27  3.484173E+05 -2.425921E+05 -1.773535E+05 -5.171982E+04  6.958476E+04  3.229545E+04
       166   1  2.779120E+06  3.026718E+05  4.218457E+05 -1.772894E+04 -7.701650E+04 -3.987337E+04
       166   2  2.844442E+06  3.003207E+05  5.176501E+05 -3.831869E+04 -1.897932E+05 -4.434154E+04
       166   3  3.029118E+06  7.049475E+05  7.890198E+05 -1.564514E+05 -3.027015E+05 -1.574479E+04
       166   4  1.489212E+06 -1.673475E+04  1.125463E+05 -6.131697E+04 -8.690158E+04 -3.989100E+04
       166   5  1.430665E+06 -4.935144E+04  1.788274E+05 -1.310194E+04 -1.835641E+05 -4.433989E+04
       166   6  1.488930E+06  3.226989E+05  4.097807E+05 -6.242360E+04 -2.803324E+05 -1.571562E+04
       166   7  2.008249E+05 -3.362549E+05 -1.968696E+05 -1.048150E+05 -9.676613E+04 -3.990727E+04
       166   8  1.871300E+04 -3.991657E+05 -1.601361E+05  1.205619E+04 -1.773486E+05 -4.433775E+04
       166   9 -4.908870E+04 -5.969117E+04  3.037373E+04  3.136988E+04 -2.580179E+05 -1.567970E+04
       166  10  2.779114E+06  3.026685E+05  4.218316E+05 -1.773141E+04  1.020359E-10  1.262311E-09
       166  11  2.844403E+06  3.003090E+05  5.175790E+05 -3.832546E+04  3.700195E-10  3.412475E-10
       166  12  3.029020E+06  7.049228E+05  7.888480E+05 -1.564553E+05 -1.253458E-09 -4.472803E-10
       166  13  1.489203E+06 -1.673848E+04  1.125291E+05 -6.131976E+04 -1.587969E-09  6.041113E-10
       166  14  1.430629E+06 -4.936257E+04  1.787605E+05 -1.310849E+04 -2.428942E-09 -2.640791E-10
       166  15  1.488846E+06  3.226776E+05  4.096329E+05 -6.242715E+04 -8.043487E-10  1.564289E-10
       166  16  2.008144E+05 -3.362591E+05 -1.968902E+05 -1.048181E+05  2.631859E-10  5.039050E-10
       166  17  1.867870E+04 -3.991762E+05 -1.601989E+05  1.204985E+04 -1.275073E-09  1.059080E-09
       166  18 -4.916026E+04 -5.970931E+04  3.024816E+04  3.136662E+04  7.924222E-11 -3.222849E-11
       166  19  2.779120E+06  3.026718E+05  4.218457E+05 -1.772894E+04  7.701650E+04  3.987337E+04
       166  20  2.844442E+06  3.003207E+05  5.176501E+05 -3.831869E+04  1.897932E+05  4.434154E+04
       166  21  3.029118E+06  7.049475E+05  7.890198E+05 -1.564514E+05  3.027015E+05  1.574479E+04
       166  22  1.489212E+06 -1.673475E+04  1.125463E+05 -6.131697E+04  8.690158E+04  3.989100E+04
       166  23  1.430665E+06 -4.935144E+04  1.788274E+05 -1.310194E+04  1.835641E+05  4.433989E+04
       166  24  1.488930E+06  3.226989E+05  4.097807E+05 -6.242360E+04  2.803324E+05  1.571562E+04
       166  25  2.008249E+05 -3.362549E+05 -1.968696E+05 -1.048150E+05  9.676613E+04  3.990727E+04
       166  26  1.871300E+04 -3.991657E+05 -1.601361E+05  1.205619E+04  1.773486E+05  4.433775E+04
       166  27 -4.908870E+04 -5.969117E+04  3.037373E+04  3.136988E+04  2.580179E+05  1.567970E+04
       167   1  2.325623E+04  1.769352E+05  4.137898E+04 -4.111650E+04 -2.092767E+03  5.407485E+04
       167   2 -6.287158E+04  1.266564E+05 -1.385808E+04 -1.159192E+04 -6.647324E+03  3.536741E+04
       167   3 -6.555008E+04  9.950400E+04 -3.609759E+04 -1.239309E+04 -8.137020E+03  1.667083E+04
       167   4  6.660087E+04  3.514753E+05  8.436923E+04 -2.136364E+04 -2.100266E+03  5.703834E+04
       167   5 -1.005110E+04  3.397910E+05  3.735921E+04 -6.308187E+03 -6.651291E+03  3.685435E+04
       167   6 -3.012367E+03  3.514826E+05  2.436604E+04 -2.157687E+04 -8.137062E+03  1.668015E+04
       167   7  1.099447E+05  5.260439E+05  1.273575E+05 -1.605204E+03 -2.107576E+03  6.000267E+04
       167   8  4.276619E+04  5.529672E+05  8.857330E+04 -1.022604E+03 -6.655232E+03  3.834181E+04
       167   9  5.952103E+04  6.035195E+05  8.482520E+04 -3.076435E+04 -8.137105E+03  1.668947E+04
       167  10  2.325544E+04  1.769321E+05  4.137348E+04 -4.111641E+04  1.096452E-09  7.746032E-10
       167  11 -6.287197E+04  1.266550E+05 -1.386051E+04 -1.159173E+04 -2.458243E-11 -2.616084E-10
       167  12 -6.555022E+04  9.950368E+04 -3.609823E+04 -1.239298E+04  1.627424E-11 -1.324620E-09
       167  13  6.659999E+04  3.514718E+05  8.436311E+04 -2.136355E+04  2.438658E-09 -1.009557E-10
       167  14 -1.005151E+04  3.397895E+05  3.735658E+04 -6.307989E+03  1.254558E-09  8.357458E-11
       167  15 -3.012513E+03  3.514823E+05  2.436539E+04 -2.157676E+04 -2.827066E-10  7.632624E-11
       167  16  1.099438E+05  5.260400E+05  1.273507E+05 -1.605103E+03  2.936286E-10 -6.690735E-10
       167  17  4.276575E+04  5.529656E+05  8.857046E+04 -1.022399E+03  3.243589E-09  1.211014E-10
       167  18  5.952088E+04  6.035192E+05  8.482455E+04 -3.076424E+04  8.182779E-11  1.370507E-09
       167  19  2.325623E+04  1.769352E+05  4.137898E+04 -4.111650E+04  2.092767E+03 -5.407485E+04
       167  20 -6.287158E+04  1.266564E+05 -1.385808E+04 -1.159192E+04  6.647324E+03 -3.536741E+04
       167  21 -6.555008E+04  9.950400E+04 -3.609759E+04 -1.239309E+04  8.137020E+03 -1.667083E+04
       167  22  6.660087E+04  3.514753E+05  8.436923E+04 -2.136364E+04  2.100266E+03 -5.703834E+04
       167  23 -1.005110E+04  3.397910E+05  3.735921E+04 -6.308187E+03  6.651291E+03 -3.685435E+04
       167  24 -3.012367E+03  3.514826E+05  2.436604E+04 -2.157687E+04  8.137062E+03 -1.668015E+04
       167  25  1.099447E+05  5.260439E+05  1.273575E+05 -1.605204E+03  2.107576E+03 -6.000267E+04
       167  26  4.276619E+04  5.529672E+05  8.857330E+04 -1.022604E+03  6.655232E+03 -3.834181E+04
       167  27  5.952103E+04  6.035195E+05  8.482520E+04 -3.076435E+04  8.137105E+03 -1.668947E+04
       168   1 -6.911285E+04  3.948941E+04 -5.363624E+04 -2.324875E+04 -8.725730E+03  1.168121E+04
       168   2 -8.752001E+04 -1.655499E+03 -7.104041E+04 -5.905777E+03 -1.049378E+04  5.849683E+03
       168   3 -9.385371E+04 -3.906614E+04 -8.164082E+04 -1.931617E+04 -1.114293E+04  2.237997E+01
       168   4  7.223931E+03  3.471266E+05  2.053771E+04 -2.159445E+04 -8.728526E+03  1.281081E+04
       168   5 -1.473050E+03  3.452125E+05  1.238636E+04 -6.225645E+03 -1.049488E+04  6.439406E+03
       168   6  1.993752E+03  3.471232E+05  1.141144E+04 -2.160902E+04 -1.114259E+04  7.186284E+01
       168   7  8.355382E+04  6.548504E+05  9.470491E+04 -1.993926E+04 -8.731315E+03  1.394097E+04
       168   8  8.456515E+04  6.921906E+05  9.580457E+04 -6.545622E+03 -1.049599E+04  7.029456E+03
       168   9  9.783035E+04  7.334490E+05  1.044531E+05 -2.390322E+04 -1.114225E+04  1.213764E+02
       168  10 -6.911297E+04  3.948924E+04 -5.363664E+04 -2.324867E+04 -1.523198E-09  5.000111E-10
       168  11 -8.752014E+04 -1.655565E+03 -7.104068E+04 -5.905728E+03 -8.407260E-10  5.279942E-11
       168  12 -9.385384E+04 -3.906617E+04 -8.164105E+04 -1.931617E+04  2.177052E-11 -5.216852E-10
       168  13  7.223806E+03  3.471264E+05  2.053726E+04 -2.159436E+04 -3.773304E-10  6.061881E-11
       168  14 -1.473180E+03  3.452124E+05  1.238607E+04 -6.225590E+03  4.699644E-10  1.408910E-12
       168  15  1.993618E+03  3.471232E+05  1.141121E+04 -2.160902E+04 -7.812578E-10  1.084541E-10
       168  16  8.355369E+04  6.548502E+05  9.470440E+04 -1.993917E+04 -7.291930E-10 -4.677547E-10
       168  17  8.456502E+04  6.921905E+05  9.580427E+04 -6.545562E+03 -1.392597E-10  1.332640E-10
       168  18  9.783022E+04  7.334489E+05  1.044528E+05 -2.390322E+04 -5.054586E-11  5.425097E-10
       168  19 -6.911285E+04  3.948941E+04 -5.363624E+04 -2.324875E+04  8.725730E+03 -1.168121E+04
       168  20 -8.752001E+04 -1.655499E+03 -7.104041E+04 -5.905777E+03  1.049378E+04 -5.849683E+03
       168  21 -9.385371E+04 -3.906614E+04 -8.164082E+04 -1.931617E+04  1.114293E+04 -2.237997E+01
       168  22  7.223931E+03  3.471266E+05  2.053771E+04 -2.159445E+04  8.728526E+03 -1.281081E+04
       168  23 -1.473050E+03  3.452125E+05  1.238636E+04 -6.225645E+03  1.049488E+04 -6.439406E+03
       168  24  1.993752E+03  3.471232E+05  1.141144E+04 -2.160902E+04  1.114259E+04 -7.186284E+01
       168  25  8.355382E+04  6.548504E+05  9.470491E+04 -1.993926E+04  8.731315E+03 -1.394097E+04
       168  26  8.456515E+04  6.921906E+05  9.580457E+04 -6.545622E+03  1.049599E+04 -7.029456E+03
       168  27  9.783035E+04  7.334490E+05  1.044531E+05 -2.390322E+04  1.114225E+04 -1.213764E+02
       169   1 -1.100032E+05 -9.462297E+04 -9.492808E+04 -2.382436E+04 -1.363391E+04 -5.290716E+03
       169   2 -1.229571E+05 -1.381805E+05 -1.023840E+05 -3.666356E+03 -1.498437E+04 -7.077854E+03
       169   3 -1.093089E+05 -1.747060E+05 -1.019952E+05 -1.450661E+04 -5.014133E+03 -8.846056E+03
       169   4 -2.192755E+02  3.480313E+05  1.145480E+04 -2.167198E+04 -1.364061E+04 -1.925171E+03
       169   5 -3.339580E+03  3.440423E+05  1.347537E+04 -6.156197E+03 -1.497973E+04 -9.149569E+03
       169   6  2.107506E+04  3.480215E+05  2.711045E+04 -2.163690E+04 -5.002011E+03 -1.635513E+04
       169   7  1.095504E+05  7.908649E+05  1.178238E+05 -1.951797E+04 -1.364729E+04  1.442765E+03
       169   8  1.162611E+05  8.264781E+05  1.293182E+05 -8.647880E+03 -1.497508E+04 -1.122289E+04
       169   9  1.514388E+05  8.709976E+05  1.561960E+05 -2.877311E+04 -4.989721E+03 -2.387051E+04
       169  10 -1.100034E+05 -9.462305E+04 -9.492848E+04 -2.382441E+04 -3.958469E-10  1.378836E-10
       169  11 -1.229574E+05 -1.381806E+05 -1.023845E+05 -3.666441E+03  4.260434E-10  9.532465E-11
       169  12 -1.093089E+05 -1.747061E+05 -1.019954E+05 -1.450665E+04 -3.295923E-11 -1.910378E-10
       169  13 -2.194763E+02  3.480313E+05  1.145445E+04 -2.167200E+04  6.098019E-10  1.128787E-11
       169  14 -3.339844E+03  3.440422E+05  1.347479E+04 -6.156307E+03 -8.927228E-11  7.211131E-11
       169  15  2.107496E+04  3.480212E+05  2.710990E+04 -2.163697E+04  1.434718E-10  7.759544E-11
       169  16  1.095502E+05  7.908649E+05  1.178235E+05 -1.951796E+04 -8.940467E-10 -6.368868E-11
       169  17  1.162608E+05  8.264779E+05  1.293176E+05 -8.648015E+03  1.345722E-09 -1.203838E-10
       169  18  1.514386E+05  8.709970E+05  1.561949E+05 -2.877320E+04  9.767718E-10  1.383444E-10
       169  19 -1.100032E+05 -9.462297E+04 -9.492808E+04 -2.382436E+04  1.363391E+04  5.290716E+03
       169  20 -1.229571E+05 -1.381805E+05 -1.023840E+05 -3.666356E+03  1.498437E+04  7.077854E+03
       169  21 -1.093089E+05 -1.747060E+05 -1.019952E+05 -1.450661E+04  5.014133E+03  8.846056E+03
       169  22 -2.192755E+02  3.480313E+05  1.145480E+04 -2.167198E+04  1.364061E+04  1.925171E+03
       169  23 -3.339580E+03  3.440423E+05  1.347537E+04 -6.156197E+03  1.497973E+04  9.149569E+03
       169  24  2.107506E+04  3.480215E+05  2.711045E+04 -2.163690E+04  5.002011E+03  1.635513E+04
       169  25  1.095504E+05  7.908649E+05  1.178238E+05 -1.951797E+04  1.364729E+04 -1.442765E+03
       169  26  1.162611E+05  8.264781E+05  1.293182E+05 -8.647880E+03  1.497508E+04  1.122289E+04
       169  27  1.514388E+05  8.709976E+05  1.561960E+05 -2.877311E+04  4.989721E+03  2.387051E+04
       170   1 -2.164925E+06 -7.749446E+05 -5.275764E+05 -7.402852E+05 -2.276671E+05 -7.803220E+04
       170   2 -2.096352E+06 -4.356171E+05 -3.152025E+05 -7.662602E+05 -1.488362E+05 -3.188045E+04
       170   3 -2.136867E+06 -4.291338E+05 -2.514683E+05 -7.330703E+05 -6.407612E+04 -1.384889E+03
       170   4 -1.527560E+06 -4.630347E+05 -3.396113E+05 -4.943224E+05 -2.179142E+05 -7.437443E+04
       170   5 -1.456000E+06 -1.738948E+05 -1.412771E+05 -5.705494E+05 -1.460277E+05 -3.082684E+04
       170   6 -1.492025E+06 -2.160316E+05 -8.594856E+04 -5.876490E+05 -6.821546E+04 -2.944660E+03
       170   7 -8.897911E+05 -1.510148E+05 -1.516865E+05 -2.481048E+05 -2.081502E+05 -7.070968E+04
       170   8 -8.152504E+05  8.787210E+04  3.261091E+04 -3.746489E+05 -1.432160E+05 -2.977176E+04
       170   9 -8.467801E+05 -2.925903E+03  7.953840E+04 -4.421013E+05 -7.235952E+04 -4.505703E+03
       170  10 -2.164982E+06 -7.749651E+05 -5.276857E+05 -7.402995E+05 -3.350384E-10  2.300083E-10
       170  11 -2.096376E+06 -4.356241E+05 -3.152462E+05 -7.662640E+05 -8.613434E-10  7.913671E-10
       170  12 -2.136871E+06 -4.291349E+05 -2.514760E+05 -7.330704E+05 -6.732410E-11  2.779883E-10
       170  13 -1.527612E+06 -4.630534E+05 -3.397112E+05 -4.943355E+05  7.642112E-10  1.738501E-10
       170  14 -1.456024E+06 -1.739015E+05 -1.413191E+05 -5.705530E+05  4.157103E-10  4.407051E-10
       170  15 -1.492030E+06 -2.160329E+05 -8.595734E+04 -5.876492E+05  1.007279E-09  2.475458E-10
       170  16 -8.898390E+05 -1.510318E+05 -1.517774E+05 -2.481167E+05  2.338554E-11 -3.315642E-11
       170  17 -8.152727E+05  8.786563E+04  3.257064E+04 -3.746524E+05  2.112871E-09  2.214862E-10
       170  18 -8.467857E+05 -2.927333E+03  7.952851E+04 -4.421016E+05  8.394002E-11  7.328381E-10
       170  19 -2.164925E+06 -7.749446E+05 -5.275764E+05 -7.402852E+05  2.276671E+05  7.803220E+04
       170  20 -2.096352E+06 -4.356171E+05 -3.152025E+05 -7.662602E+05  1.488362E+05  3.188045E+04
       170  21 -2.136867E+06 -4.291338E+05 -2.514683E+05 -7.330703E+05  6.407612E+04  1.384889E+03
       170  22 -1.527560E+06 -4.630347E+05 -3.396113E+05 -4.943224E+05  2.179142E+05  7.437443E+04
       170  23 -1.456000E+06 -1.738948E+05 -1.412771E+05 -5.705494E+05  1.460277E+05  3.082684E+04
       170  24 -1.492025E+06 -2.160316E+05 -8.594856E+04 -5.876490E+05  6.821546E+04  2.944660E+03
       170  25 -8.897911E+05 -1.510148E+05 -1.516865E+05 -2.481048E+05  2.081502E+05  7.070968E+04
       170  26 -8.152504E+05  8.787210E+04  3.261091E+04 -3.746489E+05  1.432160E+05  2.977176E+04
       170  27 -8.467801E+05 -2.925903E+03  7.953840E+04 -4.421013E+05  7.235952E+04  4.505703E+03
       171   1 -2.043047E+06 -4.724720E+05 -2.214480E+05 -7.292981E+05 -5.494317E+04 -1.498192E+03
       171   2 -2.011150E+06 -4.107064E+05 -1.743793E+05 -7.109898E+05 -3.684708E+04  5.061487E+03
       171   3 -1.971595E+06 -4.077191E+05 -1.504103E+05 -7.099486E+05 -1.821608E+04  1.020007E+04
       171   4 -1.480296E+06 -2.527080E+05 -7.004868E+04 -5.678918E+05 -5.475942E+04 -1.430927E+03
       171   5 -1.482182E+06 -2.093539E+05 -3.336648E+04 -5.645384E+05 -3.728471E+04  4.895413E+03
       171   6 -1.476275E+06 -2.246342E+05 -1.927399E+04 -5.784545E+05 -1.927636E+04  9.800456E+03
       171   7 -9.172401E+05 -3.291924E+04  8.132205E+04 -4.063512E+05 -5.457547E+04 -1.363579E+03
       171   8 -9.529435E+05 -7.982964E+03  1.076218E+05 -4.179736E+05 -3.772274E+04  4.729186E+03
       171   9 -9.807161E+05 -4.153639E+04  1.118415E+05 -4.468663E+05 -2.033757E+04  9.400507E+03
       171  10 -2.043050E+06 -4.724728E+05 -2.214537E+05 -7.292982E+05 -2.443349E-10 -3.209904E-10
       171  11 -2.011152E+06 -4.107068E+05 -1.743819E+05 -7.109896E+05 -3.157786E-09 -3.556873E-10
       171  12 -1.971596E+06 -4.077193E+05 -1.504111E+05 -7.099484E+05  8.579000E-11 -2.469835E-10
       171  13 -1.480299E+06 -2.527088E+05 -7.005433E+04 -5.678918E+05 -1.194151E-09 -1.232325E-10
       171  14 -1.482184E+06 -2.093543E+05 -3.336914E+04 -5.645382E+05 -4.039001E-11 -7.877848E-10
       171  15 -1.476275E+06 -2.246344E+05 -1.927487E+04 -5.784543E+05 -3.731372E-10 -3.296568E-10
       171  16 -9.172433E+05 -3.292004E+04  8.131644E+04 -4.063513E+05 -7.517072E-10  8.501243E-11
       171  17 -9.529451E+05 -7.983371E+03  1.076191E+05 -4.179735E+05 -2.190507E-09 -6.908935E-10
       171  18 -9.807165E+05 -4.153659E+04  1.118406E+05 -4.468662E+05  6.636295E-11 -4.357597E-10
       171  19 -2.043047E+06 -4.724720E+05 -2.214480E+05 -7.292981E+05  5.494317E+04  1.498192E+03
       171  20 -2.011150E+06 -4.107064E+05 -1.743793E+05 -7.109898E+05  3.684708E+04 -5.061487E+03
       171  21 -1.971595E+06 -4.077191E+05 -1.504103E+05 -7.099486E+05  1.821608E+04 -1.020007E+04
       171  22 -1.480296E+06 -2.527080E+05 -7.004868E+04 -5.678918E+05  5.475942E+04  1.430927E+03
       171  23 -1.482182E+06 -2.093539E+05 -3.336648E+04 -5.645384E+05  3.728471E+04 -4.895413E+03
       171  24 -1.476275E+06 -2.246342E+05 -1.927399E+04 -5.784545E+05  1.927636E+04 -9.800456E+03
       171  25 -9.172401E+05 -3.291924E+04  8.132205E+04 -4.063512E+05  5.457547E+04  1.363579E+03
       171  26 -9.529435E+05 -7.982964E+03  1.076218E+05 -4.179736E+05  3.772274E+04 -4.729186E+03
       171  27 -9.807161E+05 -4.153639E+04  1.118415E+05 -4.468663E+05  2.033757E+04 -9.400507E+03
       172   1 -1.904778E+06 -3.920105E+05 -1.295526E+05 -6.948370E+05 -1.535749E+04  9.922973E+03
       172   2 -1.875058E+06 -3.595029E+05 -1.112437E+05 -6.694650E+05 -1.070708E+04  9.806367E+03
       172   3 -1.821728E+06 -3.564645E+05 -9.699009E+04 -6.721687E+05 -5.990586E+03  9.509245E+03
       172   4 -1.474311E+06 -2.291931E+05 -1.509494E+04 -5.766924E+05 -1.605468E+04  9.660144E+03
       172   5 -1.485893E+06 -2.128690E+05 -7.782080E+03 -5.632538E+05 -1.148236E+04  9.514611E+03
       172   6 -1.473851E+06 -2.259953E+05 -4.460121E+03 -5.778902E+05 -6.844268E+03  9.188503E+03
       172   7 -1.043664E+06 -6.636423E+04  9.934660E+04 -4.584737E+05 -1.675239E+04  9.397114E+03
       172   8 -1.096582E+06 -6.622610E+04  9.566620E+04 -4.569826E+05 -1.225816E+04  9.222655E+03
       172   9 -1.125859E+06 -9.551946E+04  8.805906E+04 -4.835643E+05 -7.698474E+03  8.867567E+03
       172  10 -1.904779E+06 -3.920106E+05 -1.295533E+05 -6.948369E+05  6.317008E-10 -2.895603E-10
       172  11 -1.875058E+06 -3.595030E+05 -1.112441E+05 -6.694649E+05  3.325895E-10 -3.526183E-10
       172  12 -1.821728E+06 -3.564646E+05 -9.699033E+04 -6.721686E+05  9.362861E-11  9.062846E-10
       172  13 -1.474311E+06 -2.291933E+05 -1.509560E+04 -5.766923E+05  5.655812E-11 -1.390205E-10
       172  14 -1.485893E+06 -2.128691E+05 -7.782497E+03 -5.632537E+05 -1.630979E-09 -9.125309E-11
       172  15 -1.473851E+06 -2.259954E+05 -4.460367E+03 -5.778901E+05  7.268253E-11  8.023764E-10
       172  16 -1.043665E+06 -6.636440E+04  9.934591E+04 -4.584736E+05 -1.865462E-10 -3.931367E-10
       172  17 -1.096582E+06 -6.622624E+04  9.566576E+04 -4.569825E+05 -2.871998E-10 -2.021480E-10
       172  18 -1.125859E+06 -9.551956E+04  8.805880E+04 -4.835643E+05  1.121533E-09  5.875197E-10
       172  19 -1.904778E+06 -3.920105E+05 -1.295526E+05 -6.948370E+05  1.535749E+04 -9.922973E+03
       172  20 -1.875058E+06 -3.595029E+05 -1.112437E+05 -6.694650E+05  1.070708E+04 -9.806367E+03
       172  21 -1.821728E+06 -3.564645E+05 -9.699009E+04 -6.721687E+05  5.990586E+03 -9.509245E+03
       172  22 -1.474311E+06 -2.291931E+05 -1.509494E+04 -5.766924E+05  1.605468E+04 -9.660144E+03
       172  23 -1.485893E+06 -2.128690E+05 -7.782080E+03 -5.632538E+05  1.148236E+04 -9.514611E+03
       172  24 -1.473851E+06 -2.259953E+05 -4.460121E+03 -5.778902E+05  6.844268E+03 -9.188503E+03
       172  25 -1.043664E+06 -6.636423E+04  9.934660E+04 -4.584737E+05  1.675239E+04 -9.397114E+03
       172  26 -1.096582E+06 -6.622610E+04  9.566620E+04 -4.569826E+05  1.225816E+04 -9.222655E+03
       172  27 -1.125859E+06 -9.551946E+04  8.805906E+04 -4.835643E+05  7.698474E+03 -8.867567E+03
       173   1 -1.753814E+06 -3.323376E+05 -7.788354E+04 -6.544744E+05 -4.955590E+03  8.648200E+03
       173   2 -1.722754E+06 -3.016286E+05 -6.481896E+04 -6.269155E+05 -3.180137E+03  7.184184E+03
       173   3 -1.664903E+06 -2.984522E+05 -5.267079E+04 -6.302267E+05 -1.387437E+03  5.670940E+03
       173   4 -1.473311E+06 -2.268086E+05 -3.499594E+03 -5.780405E+05 -5.782441E+03  8.337783E+03
       173   5 -1.486679E+06 -2.128655E+05 -2.097617E+03 -5.626714E+05 -4.028543E+03  6.865951E+03
       173   6 -1.473255E+06 -2.264503E+05 -1.594758E+03 -5.781726E+05 -2.257491E+03  5.344877E+03
       173   7 -1.192731E+06 -1.212745E+05  7.087774E+04 -5.015751E+05 -6.609707E+03  8.027211E+03
       173   8 -1.250550E+06 -1.240990E+05  6.061897E+04 -4.984052E+05 -4.877306E+03  6.547585E+03
       173   9 -1.281573E+06 -1.544463E+05  4.947807E+04 -5.261041E+05 -3.127841E+03  5.018704E+03
       173  10 -1.753814E+06 -3.323377E+05 -7.788373E+04 -6.544744E+05  7.845250E-10  8.816147E-10
       173  11 -1.722754E+06 -3.016287E+05 -6.481907E+04 -6.269154E+05  6.576043E-11 -6.950001E-10
       173  12 -1.664903E+06 -2.984522E+05 -5.267085E+04 -6.302267E+05 -4.207432E-10 -6.069400E-10
       173  13 -1.473311E+06 -2.268086E+05 -3.499788E+03 -5.780404E+05  8.866548E-10  6.349768E-10
       173  14 -1.486679E+06 -2.128656E+05 -2.097736E+03 -5.626714E+05 -8.563913E-10 -3.945531E-10
       173  15 -1.473255E+06 -2.264504E+05 -1.594821E+03 -5.781726E+05 -5.484478E-10 -4.293821E-10
       173  16 -1.192731E+06 -1.212746E+05  7.087754E+04 -5.015751E+05  4.568520E-10  1.837887E-10
       173  17 -1.250550E+06 -1.240990E+05  6.061885E+04 -4.984052E+05  8.027447E-10 -1.468344E-10
       173  18 -1.281573E+06 -1.544463E+05  4.947801E+04 -5.261041E+05  2.173422E-10  1.240525E-10
       173  19 -1.753814E+06 -3.323376E+05 -7.788354E+04 -6.544744E+05  4.955590E+03 -8.648200E+03
       173  20 -1.722754E+06 -3.016286E+05 -6.481896E+04 -6.269155E+05  3.180137E+03 -7.184184E+03
       173  21 -1.664903E+06 -2.984522E+05 -5.267079E+04 -6.302267E+05  1.387437E+03 -5.670940E+03
       173  22 -1.473311E+06 -2.268086E+05 -3.499594E+03 -5.780405E+05  5.782441E+03 -8.337783E+03
       173  23 -1.486679E+06 -2.128655E+05 -2.097617E+03 -5.626714E+05  4.028543E+03 -6.865951E+03
       173  24 -1.473255E+06 -2.264503E+05 -1.594758E+03 -5.781726E+05  2.257491E+03 -5.344877E+03
       173  25 -1.192731E+06 -1.212745E+05  7.087774E+04 -5.015751E+05  6.609707E+03 -8.027211E+03
       173  26 -1.250550E+06 -1.240990E+05  6.061897E+04 -4.984052E+05  4.877306E+03 -6.547585E+03
       173  27 -1.281573E+06 -1.544463E+05  4.947807E+04 -5.261041E+05  3.127841E+03 -5.018704E+03
       174   1 -1.594466E+06 -2.722797E+05 -3.364339E+04 -6.114481E+05 -7.016630E+02  4.636936E+03
       174   2 -1.562430E+06 -2.410157E+05 -2.195028E+04 -5.829467E+05  9.771584E+02  3.045160E+03
       174   3 -1.502842E+06 -2.380376E+05 -1.108272E+04 -5.863120E+05  2.658388E+03  1.445960E+03
       174   4 -1.473084E+06 -2.266493E+05 -1.564562E+03 -5.783795E+05 -1.573310E+03  4.310413E+03
       174   5 -1.486875E+06 -2.126250E+05 -1.881418E+03 -5.624012E+05  1.022980E+02  2.717521E+03
       174   6 -1.473115E+06 -2.268859E+05 -3.021121E+03 -5.782902E+05  1.780237E+03  1.117183E+03
       174   7 -1.351688E+06 -1.810182E+05  3.051291E+04 -5.453052E+05 -2.445143E+03  3.983821E+03
       174   8 -1.411314E+06 -1.842339E+05  1.818695E+04 -5.418534E+05 -7.726796E+02  2.389838E+03
       174   9 -1.443387E+06 -2.157342E+05  5.040425E+03 -5.702680E+05  9.020387E+02  7.883886E+02
       174  10 -1.594466E+06 -2.722797E+05 -3.364343E+04 -6.114481E+05  2.318232E-10  3.114736E-11
       174  11 -1.562430E+06 -2.410157E+05 -2.195030E+04 -5.829467E+05 -8.875953E-10  3.141139E-10
       174  12 -1.502842E+06 -2.380376E+05 -1.108274E+04 -5.863120E+05  7.351488E-10 -1.690443E-10
       174  13 -1.473084E+06 -2.266494E+05 -1.564602E+03 -5.783795E+05 -7.500734E-11 -9.641066E-11
       174  14 -1.486875E+06 -2.126250E+05 -1.881432E+03 -5.624012E+05  7.455185E-10 -3.864972E-10
       174  15 -1.473115E+06 -2.268859E+05 -3.021129E+03 -5.782902E+05  5.517820E-10 -2.573848E-10
       174  16 -1.351688E+06 -1.810182E+05  3.051287E+04 -5.453051E+05 -1.775878E-10  1.809184E-11
       174  17 -1.411314E+06 -1.842339E+05  1.818694E+04 -5.418534E+05  3.171575E-10 -1.230520E-10
       174  18 -1.443387E+06 -2.157342E+05  5.040422E+03 -5.702680E+05 -7.170448E-10 -2.027571E-10
       174  19 -1.594466E+06 -2.722797E+05 -3.364339E+04 -6.114481E+05  7.016630E+02 -4.636936E+03
       174  20 -1.562430E+06 -2.410157E+05 -2.195028E+04 -5.829467E+05 -9.771584E+02 -3.045160E+03
       174  21 -1.502842E+06 -2.380376E+05 -1.108272E+04 -5.863120E+05 -2.658388E+03 -1.445960E+03
       174  22 -1.473084E+06 -2.266493E+05 -1.564562E+03 -5.783795E+05  1.573310E+03 -4.310413E+03
       174  23 -1.486875E+06 -2.126250E+05 -1.881418E+03 -5.624012E+05 -1.022980E+02 -2.717521E+03
       174  24 -1.473115E+06 -2.268859E+05 -3.021121E+03 -5.782902E+05 -1.780237E+03 -1.117183E+03
       174  25 -1.351688E+06 -1.810182E+05  3.051291E+04 -5.453052E+05  2.445143E+03 -3.983821E+03
       174  26 -1.411314E+06 -1.842339E+05  1.818695E+04 -5.418534E+05  7.726796E+02 -2.389838E+03
       174  27 -1.443387E+06 -2.157342E+05  5.040425E+03 -5.702680E+05 -9.020387E+02 -7.883886E+02
       175   1 -1.431504E+06 -2.111555E+05  7.374770E+03 -5.675424E+05  3.674149E+03  5.072378E+02
       175   2 -1.399270E+06 -1.793301E+05  1.660084E+04 -5.386108E+05  7.725422E+03 -2.089590E+02
       175   3 -1.340949E+06 -1.787619E+05  2.242288E+04 -5.408155E+05  1.174393E+04 -8.357469E+02
       175   4 -1.473298E+06 -2.265190E+05 -3.829717E+03 -5.785132E+05  2.775414E+03  1.707508E+02
       175   5 -1.486527E+06 -2.122193E+05 -6.592167E+03 -5.624467E+05  6.866225E+03 -5.307548E+02
       175   6 -1.473678E+06 -2.291854E+05 -1.279030E+04 -5.775174E+05  1.092399E+04 -1.142943E+03
       175   7 -1.515090E+06 -2.418823E+05 -1.503435E+04 -5.894835E+05  1.876746E+03 -1.657125E+02
       175   8 -1.573776E+06 -2.451079E+05 -2.978580E+04 -5.862795E+05  6.007161E+03 -8.525000E+02
       175   9 -1.606390E+06 -2.796076E+05 -4.800490E+04 -6.142121E+05  1.010425E+04 -1.450064E+03
       175  10 -1.431505E+06 -2.111555E+05  7.374744E+03 -5.675424E+05  8.085858E-10 -1.986982E-10
       175  11 -1.399271E+06 -1.793302E+05  1.660073E+04 -5.386108E+05  4.733497E-10 -7.145233E-11
       175  12 -1.340949E+06 -1.787620E+05  2.242262E+04 -5.408154E+05  9.203401E-10  5.422833E-10
       175  13 -1.473298E+06 -2.265190E+05 -3.829732E+03 -5.785132E+05  3.760137E-10  2.626360E-10
       175  14 -1.486527E+06 -2.122193E+05 -6.592256E+03 -5.624467E+05  5.427681E-10  2.525230E-10
       175  15 -1.473679E+06 -2.291854E+05 -1.279052E+04 -5.775174E+05  4.288896E-10 -4.566237E-11
       175  16 -1.515090E+06 -2.418823E+05 -1.503436E+04 -5.894835E+05 -3.788006E-10  3.956430E-10
       175  17 -1.573776E+06 -2.451080E+05 -2.978587E+04 -5.862795E+05 -6.683012E-10 -1.248059E-10
       175  18 -1.606390E+06 -2.796076E+05 -4.800510E+04 -6.142121E+05  1.500809E-10  3.198982E-11
       175  19 -1.431504E+06 -2.111555E+05  7.374770E+03 -5.675424E+05 -3.674149E+03 -5.072378E+02
       175  20 -1.399270E+06 -1.793301E+05  1.660084E+04 -5.386108E+05 -7.725422E+03  2.089590E+02
       175  21 -1.340949E+06 -1.787619E+05  2.242288E+04 -5.408155E+05 -1.174393E+04  8.357469E+02
       175  22 -1.473298E+06 -2.265190E+05 -3.829717E+03 -5.785132E+05 -2.775414E+03 -1.707508E+02
       175  23 -1.486527E+06 -2.122193E+05 -6.592167E+03 -5.624467E+05 -6.866225E+03  5.307548E+02
       175  24 -1.473678E+06 -2.291854E+05 -1.279030E+04 -5.775174E+05 -1.092399E+04  1.142943E+03
       175  25 -1.515090E+06 -2.418823E+05 -1.503435E+04 -5.894835E+05 -1.876746E+03  1.657125E+02
       175  26 -1.573776E+06 -2.451079E+05 -2.978580E+04 -5.862795E+05 -6.007161E+03  8.525000E+02
       175  27 -1.606390E+06 -2.796076E+05 -4.800490E+04 -6.142121E+05 -1.010425E+04  1.450064E+03
       176   1 -1.269683E+06 -1.513957E+05  3.780041E+04 -5.265504E+05  1.481297E+04 -1.115821E+03
       176   2 -1.237278E+06 -1.147111E+05  3.751574E+04 -4.944748E+05  2.983464E+04  2.344136E+03
       176   3 -1.191020E+06 -1.350850E+05  1.837566E+04 -4.857936E+05  4.451280E+04  6.727200E+03
       176   4 -1.475105E+06 -2.255957E+05 -1.633070E+04 -5.793003E+05  1.374988E+04 -1.514167E+03
       176   5 -1.483674E+06 -2.089020E+05 -2.821342E+04 -5.631539E+05  2.917956E+04  2.098230E+03
       176   6 -1.478478E+06 -2.493575E+05 -5.928193E+04 -5.704035E+05  4.426462E+04  6.633263E+03
       176   7 -1.680487E+06 -2.997943E+05 -7.046556E+04 -6.320350E+05  1.268716E+04 -1.912382E+03
       176   8 -1.730011E+06 -3.030889E+05 -9.394798E+04 -6.318083E+05  2.852476E+04  1.852434E+03
       176   9 -1.765856E+06 -3.636225E+05 -1.369469E+05 -6.549770E+05  4.401656E+04  6.539377E+03
       176  10 -1.269683E+06 -1.513957E+05  3.780000E+04 -5.265504E+05 -2.484372E-10  5.002099E-11
       176  11 -1.237279E+06 -1.147113E+05  3.751405E+04 -4.944748E+05  3.309078E-10  3.385666E-10
       176  12 -1.191022E+06 -1.350855E+05  1.837184E+04 -4.857939E+05  3.778218E-10  2.180442E-10
       176  13 -1.475105E+06 -2.255958E+05 -1.633106E+04 -5.793003E+05  2.910263E-10  1.500498E-10
       176  14 -1.483675E+06 -2.089022E+05 -2.821503E+04 -5.631539E+05 -1.868967E-10  1.041942E-10
       176  15 -1.478480E+06 -2.493581E+05 -5.928570E+04 -5.704037E+05  4.087001E-10  6.322344E-11
       176  16 -1.680487E+06 -2.997944E+05 -7.046587E+04 -6.320349E+05 -4.285375E-10 -5.103498E-10
       176  17 -1.730012E+06 -3.030891E+05 -9.394952E+04 -6.318083E+05 -8.348276E-10  5.123018E-11
       176  18 -1.765858E+06 -3.636231E+05 -1.369506E+05 -6.549772E+05 -4.342497E-10 -2.346111E-10
       176  19 -1.269683E+06 -1.513957E+05  3.780041E+04 -5.265504E+05 -1.481297E+04  1.115821E+03
       176  20 -1.237278E+06 -1.147111E+05  3.751574E+04 -4.944748E+05 -2.983464E+04 -2.344136E+03
       176  21 -1.191020E+06 -1.350850E+05  1.837566E+04 -4.857936E+05 -4.451280E+04 -6.727200E+03
       176  22 -1.475105E+06 -2.255957E+05 -1.633070E+04 -5.793003E+05 -1.374988E+04  1.514167E+03
       176  23 -1.483674E+06 -2.089020E+05 -2.821342E+04 -5.631539E+05 -2.917956E+04 -2.098230E+03
       176  24 -1.478478E+06 -2.493575E+05 -5.928193E+04 -5.704035E+05 -4.426462E+04 -6.633263E+03
       176  25 -1.680487E+06 -2.997943E+05 -7.046556E+04 -6.320350E+05 -1.268716E+04  1.912382E+03
       176  26 -1.730011E+06 -3.030889E+05 -9.394798E+04 -6.318083E+05 -2.852476E+04 -1.852434E+03
       176  27 -1.765856E+06 -3.636225E+05 -1.369469E+05 -6.549770E+05 -4.401656E+04 -6.539377E+03
       177   1 -1.110918E+06 -1.021607E+05  2.250742E+04 -5.108737E+05  5.875168E+04  9.143788E+03
       177   2 -1.073988E+06 -1.606023E+04 -1.347921E+04 -4.450626E+05  1.202283E+05  3.026706E+04
       177   3 -1.118716E+06 -2.180915E+05 -1.668308E+05 -3.394765E+05  1.778066E+05  6.178381E+04
       177   4 -1.488250E+06 -2.184900E+05 -7.273757E+04 -5.873067E+05  5.562913E+04  7.974460E+03
       177   5 -1.461795E+06 -1.785849E+05 -1.195101E+05 -5.679022E+05  1.217270E+05  3.082533E+04
       177   6 -1.517988E+06 -4.278426E+05 -2.873753E+05 -5.087073E+05  1.839238E+05  6.406190E+04
       177   7 -1.865442E+06 -3.348204E+05 -1.679930E+05 -6.637026E+05  5.250867E+04  6.805593E+03
       177   8 -1.849455E+06 -3.410902E+05 -2.255546E+05 -6.906688E+05  1.232246E+05  3.138310E+04
       177   9 -1.917097E+06 -6.375343E+05 -4.079353E+05 -6.778251E+05  1.900366E+05  6.633688E+04
       177  10 -1.110922E+06 -1.021617E+05  2.250077E+04 -5.108742E+05  2.116972E-10  7.594103E-11
       177  11 -1.074004E+06 -1.606511E+04 -1.350815E+04 -4.450655E+05 -8.122267E-10  5.146207E-10
       177  12 -1.118751E+06 -2.181041E+05 -1.668975E+05 -3.394853E+05 -4.066406E-10  3.241095E-10
       177  13 -1.488253E+06 -2.184909E+05 -7.274352E+04 -5.873071E+05  8.861276E-10  3.898332E-13
       177  14 -1.461811E+06 -1.785900E+05 -1.195398E+05 -5.679052E+05  9.234709E-10  2.991637E-10
       177  15 -1.518025E+06 -4.278561E+05 -2.874468E+05 -5.087168E+05  2.182188E-10  3.409797E-10
       177  16 -1.865445E+06 -3.348212E+05 -1.679983E+05 -6.637029E+05  3.515430E-10 -8.190504E-11
       177  17 -1.849471E+06 -3.410954E+05 -2.255851E+05 -6.906719E+05  1.160282E-09 -6.110256E-11
       177  18 -1.917137E+06 -6.375488E+05 -4.080117E+05 -6.778353E+05  2.172548E-10  2.773600E-11
       177  19 -1.110918E+06 -1.021607E+05  2.250742E+04 -5.108737E+05 -5.875168E+04 -9.143788E+03
       177  20 -1.073988E+06 -1.606023E+04 -1.347921E+04 -4.450626E+05 -1.202283E+05 -3.026706E+04
       177  21 -1.118716E+06 -2.180915E+05 -1.668308E+05 -3.394765E+05 -1.778066E+05 -6.178381E+04
       177  22 -1.488250E+06 -2.184900E+05 -7.273757E+04 -5.873067E+05 -5.562913E+04 -7.974460E+03
       177  23 -1.461795E+06 -1.785849E+05 -1.195101E+05 -5.679022E+05 -1.217270E+05 -3.082533E+04
       177  24 -1.517988E+06 -4.278426E+05 -2.873753E+05 -5.087073E+05 -1.839238E+05 -6.406190E+04
       177  25 -1.865442E+06 -3.348204E+05 -1.679930E+05 -6.637026E+05 -5.250867E+04 -6.805593E+03
       177  26 -1.849455E+06 -3.410902E+05 -2.255546E+05 -6.906688E+05 -1.232246E+05 -3.138310E+04
       177  27 -1.917097E+06 -6.375343E+05 -4.079353E+05 -6.778251E+05 -1.900366E+05 -6.633688E+04
       178   1 -1.406367E+06 -2.929657E+05 -2.549511E+05 -2.962440E+04  8.468095E+04  1.646982E+04
       178   2 -1.307690E+06 -4.055291E+05 -3.044164E+05 -8.112680E+03  6.444221E+04  4.852588E+04
       178   3 -1.163951E+06 -3.630282E+05 -3.012205E+05 -8.077103E+04  4.431579E+04  4.443920E+04
       178   4  2.709237E+05  1.253056E+05  1.595346E+05 -6.327913E+04  1.089354E+05  1.654709E+04
       178   5  2.469788E+05 -1.968320E+04  6.937460E+04 -1.599136E+04  7.129341E+04  4.853438E+04
       178   6  2.709999E+05 -6.792736E+03  4.386023E+04 -6.285578E+04  3.376905E+04  4.441722E+04
       178   7  1.950779E+06  5.433718E+05  5.738145E+05 -9.702718E+04  1.332552E+05  1.662162E+04
       178   8  1.803863E+06  3.659871E+05  4.429939E+05 -2.389126E+04  7.816156E+04  4.854270E+04
       178   9  1.707838E+06  3.492939E+05  3.887949E+05 -4.489954E+04  2.319792E+04  4.439466E+04
       178  10 -1.406375E+06 -2.929679E+05 -2.549651E+05 -2.962552E+04  4.801205E-09  3.989493E-10
       178  11 -1.307695E+06 -4.055328E+05 -3.044286E+05 -8.115201E+03 -4.348814E-10 -1.216748E-09
       178  12 -1.163954E+06 -3.630308E+05 -3.012279E+05 -8.077262E+04 -7.594157E-09 -9.821126E-11
       178  13  2.709109E+05  1.253021E+05  1.595118E+05 -6.328059E+04 -4.506041E-10 -1.036709E-09
       178  14  2.469727E+05 -1.968709E+04  6.936062E+04 -1.599414E+04 -1.780513E-09 -1.406818E-10
       178  15  2.709982E+05 -6.795161E+03  4.385437E+04 -6.285699E+04 -1.230315E-09 -2.355777E-11
       178  16  1.950760E+06  5.433668E+05  5.737807E+05 -9.702897E+04 -3.872088E-09  1.238714E-09
       178  17  1.803856E+06  3.659829E+05  4.429780E+05 -2.389431E+04  9.644936E-10 -8.173102E-10
       178  18  1.707837E+06  3.492917E+05  3.887902E+05 -4.490037E+04  6.324548E-09  2.986016E-11
       178  19 -1.406367E+06 -2.929657E+05 -2.549511E+05 -2.962440E+04 -8.468095E+04 -1.646982E+04
       178  20 -1.307690E+06 -4.055291E+05 -3.044164E+05 -8.112680E+03 -6.444221E+04 -4.852588E+04
       178  21 -1.163951E+06 -3.630282E+05 -3.012205E+05 -8.077103E+04 -4.431579E+04 -4.443920E+04
       178  22  2.709237E+05  1.253056E+05  1.595346E+05 -6.327913E+04 -1.089354E+05 -1.654709E+04
       178  23  2.469788E+05 -1.968320E+04  6.937460E+04 -1.599136E+04 -7.129341E+04 -4.853438E+04
       178  24  2.709999E+05 -6.792736E+03  4.386023E+04 -6.285578E+04 -3.376905E+04 -4.441722E+04
       178  25  1.950779E+06  5.433718E+05  5.738145E+05 -9.702718E+04 -1.332552E+05 -1.662162E+04
       178  26  1.803863E+06  3.659871E+05  4.429939E+05 -2.389126E+04 -7.816156E+04 -4.854270E+04
       178  27  1.707838E+06  3.492939E+05  3.887949E+05 -4.489954E+04 -2.319792E+04 -4.439466E+04
       179   1 -1.002173E+06 -3.007330E+05 -2.690602E+05 -6.013657E+04  2.708397E+04  3.644226E+04
       179   2 -8.865949E+05 -2.866432E+05 -2.575970E+05 -1.555275E+04  1.920939E+04  3.458019E+04
       179   3 -7.639731E+05 -2.554658E+05 -2.363655E+05 -6.433564E+04  1.132474E+04  2.989033E+04
       179   4  2.620807E+05  1.319392E+04  3.576695E+04 -6.280826E+04  2.690973E+04  3.643704E+04
       179   5  2.584768E+05 -2.420588E+03  1.798021E+04 -1.612456E+04  1.766263E+04  3.457539E+04
       179   6  2.621301E+05 -7.255260E+02  1.090096E+04 -6.279646E+04  8.406951E+03  2.988825E+04
       179   7  1.527797E+06  3.270041E+05  3.404799E+05 -6.548574E+04  2.673510E+04  3.643184E+04
       179   8  1.404749E+06  2.817064E+05  2.934640E+05 -1.669752E+04  1.611301E+04  3.457059E+04
       179   9  1.289197E+06  2.539379E+05  2.580923E+05 -6.125459E+04  5.484347E+03  2.988615E+04
       179  10 -1.002174E+06 -3.007346E+05 -2.690641E+05 -6.013737E+04 -2.621184E-09 -6.963740E-11
       179  11 -8.865956E+05 -2.866446E+05 -2.576000E+05 -1.555328E+04 -3.180990E-10 -5.697052E-10
       179  12 -7.639735E+05 -2.554668E+05 -2.363674E+05 -6.433591E+04  3.691684E-10 -3.108129E-10
       179  13  2.620796E+05  1.319230E+04  3.576309E+04 -6.280905E+04 -3.065246E-09 -8.268043E-10
       179  14  2.584761E+05 -2.421956E+03  1.797737E+04 -1.612505E+04 -5.716557E-10 -2.297001E-10
       179  15  2.621298E+05 -7.265044E+02  1.089915E+04 -6.279667E+04  1.063212E-10 -8.537963E-10
       179  16  1.527796E+06  3.270025E+05  3.404761E+05 -6.548652E+04  1.963452E-09  3.351615E-10
       179  17  1.404749E+06  2.817051E+05  2.934613E+05 -1.669797E+04  1.006141E-09 -3.520565E-10
       179  18  1.289197E+06  2.539370E+05  2.580906E+05 -6.125472E+04  1.255631E-09 -7.621626E-10
       179  19 -1.002173E+06 -3.007330E+05 -2.690602E+05 -6.013657E+04 -2.708397E+04 -3.644226E+04
       179  20 -8.865949E+05 -2.866432E+05 -2.575970E+05 -1.555275E+04 -1.920939E+04 -3.458019E+04
       179  21 -7.639731E+05 -2.554658E+05 -2.363655E+05 -6.433564E+04 -1.132474E+04 -2.989033E+04
       179  22  2.620807E+05  1.319392E+04  3.576695E+04 -6.280826E+04 -2.690973E+04 -3.643704E+04
       179  23  2.584768E+05 -2.420588E+03  1.798021E+04 -1.612456E+04 -1.766263E+04 -3.457539E+04
       179  24  2.621301E+05 -7.255260E+02  1.090096E+04 -6.279646E+04 -8.406951E+03 -2.988825E+04
       179  25  1.527797E+06  3.270041E+05  3.404799E+05 -6.548574E+04 -2.673510E+04 -3.643184E+04
       179  26  1.404749E+06  2.817064E+05  2.934640E+05 -1.669752E+04 -1.611301E+04 -3.457059E+04
       179  27  1.289197E+06  2.539379E+05  2.580923E+05 -6.125459E+04 -5.484347E+03 -2.988615E+04
       180   1 -5.964439E+05 -2.113784E+05 -1.975173E+05 -6.188376E+04  8.772653E+03  2.672783E+04
       180   2 -4.790836E+05 -1.837956E+05 -1.732883E+05 -1.570381E+04  6.544441E+03  2.224058E+04
       180   3 -3.604803E+05 -1.541468E+05 -1.470033E+05 -6.203725E+04  4.308000E+03  1.754419E+04
       180   4  2.608845E+05  1.332449E+03  8.508526E+03 -6.260985E+04  6.675684E+03  2.672692E+04
       180   5  2.602761E+05 -3.160732E+02  4.627903E+03 -1.635707E+04  4.344055E+03  2.224140E+04
       180   6  2.609149E+05  1.191156E+02  2.873886E+03 -6.261084E+04  2.004618E+03  1.754688E+04
       180   7  1.118886E+06  2.139898E+05  2.144821E+05 -6.333679E+04  4.575824E+03  2.672603E+04
       180   8  1.000136E+06  1.831236E+05  1.825052E+05 -1.701096E+04  2.141055E+03  2.224221E+04
       180   9  8.826633E+05  1.543568E+05  1.527235E+05 -6.318485E+04 -3.010642E+02  1.754956E+04
       180  10 -5.964442E+05 -2.113792E+05 -1.975188E+05 -6.188395E+04 -3.135056E-10  2.177211E-10
       180  11 -4.790837E+05 -1.837961E+05 -1.732894E+05 -1.570392E+04 -2.549125E-10  6.514559E-10
       180  12 -3.604804E+05 -1.541471E+05 -1.470039E+05 -6.203731E+04  1.750640E-10 -8.822281E-10
       180  13  2.608843E+05  1.331670E+03  8.507099E+03 -6.260999E+04  1.244416E-09 -1.187480E-10
       180  14  2.602760E+05 -3.166095E+02  4.626937E+03 -1.635714E+04  1.296212E-09  5.091215E-10
       180  15  2.609149E+05  1.187838E+02  2.873300E+03 -6.261087E+04  1.927341E-09  9.196795E-10
       180  16  1.118886E+06  2.139891E+05  2.144808E+05 -6.333689E+04  1.014252E-09 -5.849296E-10
       180  17  1.000136E+06  1.831231E+05  1.825043E+05 -1.701100E+04  1.485918E-09 -3.462282E-10
       180  18  8.826633E+05  1.543565E+05  1.527229E+05 -6.318485E+04  6.881177E-10 -4.042044E-10
       180  19 -5.964439E+05 -2.113784E+05 -1.975173E+05 -6.188376E+04 -8.772653E+03 -2.672783E+04
       180  20 -4.790836E+05 -1.837956E+05 -1.732883E+05 -1.570381E+04 -6.544441E+03 -2.224058E+04
       180  21 -3.604803E+05 -1.541468E+05 -1.470033E+05 -6.203725E+04 -4.308000E+03 -1.754419E+04
       180  22  2.608845E+05  1.332449E+03  8.508526E+03 -6.260985E+04 -6.675684E+03 -2.672692E+04
       180  23  2.602761E+05 -3.160732E+02  4.627903E+03 -1.635707E+04 -4.344055E+03 -2.224140E+04
       180  24  2.609149E+05  1.191156E+02  2.873886E+03 -6.261084E+04 -2.004618E+03 -1.754688E+04
       180  25  1.118886E+06  2.139898E+05  2.144821E+05 -6.333679E+04 -4.575824E+03 -2.672603E+04
       180  26  1.000136E+06  1.831236E+05  1.825052E+05 -1.701096E+04 -2.141055E+03 -2.224221E+04
       180  27  8.826633E+05  1.543568E+05  1.527235E+05 -6.318485E+04  3.010642E+02 -1.754956E+04
       181   1 -1.931686E+05 -1.122522E+05 -1.065712E+05 -6.187633E+04  3.771470E+03  1.478104E+04
       181   2 -7.576269E+04 -8.346551E+04 -7.943410E+04 -1.600249E+04  3.015173E+03  1.011301E+04
       181   3  4.157351E+04 -5.413790E+04 -5.173857E+04 -6.213179E+04  2.255246E+03  5.435400E+03
       181   4  2.606712E+05  2.831155E+02  2.265861E+03 -6.249781E+04  1.533565E+03  1.478449E+04
       181   5  2.607179E+05  1.612655E+01  1.516719E+03 -1.649779E+04  7.720194E+02  1.011722E+04
       181   6  2.606848E+05  2.922885E+02  1.330635E+03 -6.249780E+04  6.983883E+00  5.440413E+03
       181   7  7.146996E+05  1.128035E+05  1.110883E+05 -6.311964E+04 -7.059700E+02  1.478795E+04
       181   8  5.973021E+05  8.348953E+04  8.245949E+04 -1.699330E+04 -1.472346E+03  1.012143E+04
       181   9  4.798400E+05  5.471897E+04  5.439640E+04 -6.286392E+04 -2.242069E+03  5.445428E+03
       181  10 -1.931686E+05 -1.122524E+05 -1.065716E+05 -6.187637E+04 -1.905967E-10 -2.964903E-10
       181  11 -7.576273E+04 -8.346563E+04 -7.943431E+04 -1.600251E+04 -4.877241E-10 -6.490435E-11
       181  12  4.157349E+04 -5.413794E+04 -5.173864E+04 -6.213180E+04  9.900902E-10 -5.762348E-10
       181  13  2.606711E+05  2.828801E+02  2.265446E+03 -6.249782E+04  1.046962E-09 -1.405851E-09
       181  14  2.607179E+05  1.601646E+01  1.516525E+03 -1.649779E+04 -1.138238E-09  3.938009E-10
       181  15  2.606848E+05  2.922567E+02  1.330579E+03 -6.249780E+04  6.443426E-10 -1.225924E-09
       181  16  7.146996E+05  1.128032E+05  1.110879E+05 -6.311963E+04  1.001909E-09  9.338043E-11
       181  17  5.973021E+05  8.348941E+04  8.245930E+04 -1.699329E+04  1.477262E-09 -3.748066E-10
       181  18  4.798400E+05  5.471893E+04  5.439634E+04 -6.286391E+04 -6.787188E-11 -2.078013E-09
       181  19 -1.931686E+05 -1.122522E+05 -1.065712E+05 -6.187633E+04 -3.771470E+03 -1.478104E+04
       181  20 -7.576269E+04 -8.346551E+04 -7.943410E+04 -1.600249E+04 -3.015173E+03 -1.011301E+04
       181  21  4.157351E+04 -5.413790E+04 -5.173857E+04 -6.213179E+04 -2.255246E+03 -5.435400E+03
       181  22  2.606712E+05  2.831155E+02  2.265861E+03 -6.249781E+04 -1.533565E+03 -1.478449E+04
       181  23  2.607179E+05  1.612655E+01  1.516719E+03 -1.649779E+04 -7.720194E+02 -1.011722E+04
       181  24  2.606848E+05  2.922885E+02  1.330635E+03 -6.249780E+04 -6.983883E+00 -5.440413E+03
       181  25  7.146996E+05  1.128035E+05  1.110883E+05 -6.311964E+04  7.059700E+02 -1.478795E+04
       181  26  5.973021E+05  8.348953E+04  8.245949E+04 -1.699330E+04  1.472346E+03 -1.012143E+04
       181  27  4.798400E+05  5.471897E+04  5.439640E+04 -6.286392E+04  2.242069E+03 -5.445428E+03
       182   1  2.085961E+05 -1.257285E+04 -1.079995E+04 -6.235894E+04  2.002507E+03  2.709986E+03
       182   2  3.259437E+05  1.620363E+04  1.744873E+04 -1.662998E+04  1.104913E+03 -1.962300E+03
       182   3  4.430787E+05  4.560525E+04  4.632889E+04 -6.277600E+04  2.078393E+02 -6.622301E+03
       182   4  2.606648E+05  2.716783E+02  1.365592E+03 -6.247026E+04 -2.447955E+02  2.715219E+03
       182   5  2.607773E+05  3.966020E+01  1.774913E+03 -1.653230E+04 -1.136629E+03 -1.957254E+03
       182   6  2.606621E+05  4.323431E+02  2.812181E+03 -6.246988E+04 -2.027776E+03 -6.617394E+03
       182   7  3.127360E+05  1.311602E+04  1.353097E+04 -6.258159E+04 -2.492285E+03  2.720451E+03
       182   8  1.956149E+05 -1.612462E+04 -1.389919E+04 -1.643463E+04 -3.377936E+03 -1.952209E+03
       182   9  7.827589E+04 -4.474297E+04 -4.070685E+04 -6.216382E+04 -4.262738E+03 -6.612488E+03
       182  10  2.085961E+05 -1.257286E+04 -1.079997E+04 -6.235894E+04 -1.877266E-09  1.243320E-09
       182  11  3.259437E+05  1.620363E+04  1.744872E+04 -1.662998E+04  1.050289E-10  3.392054E-09
       182  12  4.430787E+05  4.560521E+04  4.632881E+04 -6.277600E+04  3.377140E-09 -2.317579E-09
       182  13  2.606648E+05  2.716704E+02  1.365578E+03 -6.247026E+04 -9.994193E-10 -3.132033E-11
       182  14  2.607773E+05  3.965574E+01  1.774903E+03 -1.653230E+04  1.727492E-09 -1.000756E-09
       182  15  2.606620E+05  4.322949E+02  2.812091E+03 -6.246989E+04  9.292580E-10 -1.625583E-10
       182  16  3.127360E+05  1.311601E+04  1.353094E+04 -6.258159E+04  7.290078E-10 -1.218069E-10
       182  17  1.956149E+05 -1.612462E+04 -1.389922E+04 -1.643463E+04  2.695305E-10 -5.069956E-10
       182  18  7.827586E+04 -4.474302E+04 -4.070697E+04 -6.216385E+04 -1.875369E-09 -3.606569E-10
       182  19  2.085961E+05 -1.257285E+04 -1.079995E+04 -6.235894E+04 -2.002507E+03 -2.709986E+03
       182  20  3.259437E+05  1.620363E+04  1.744873E+04 -1.662998E+04 -1.104913E+03  1.962300E+03
       182  21  4.430787E+05  4.560525E+04  4.632889E+04 -6.277600E+04 -2.078393E+02  6.622301E+03
       182  22  2.606648E+05  2.716783E+02  1.365592E+03 -6.247026E+04  2.447955E+02 -2.715219E+03
       182  23  2.607773E+05  3.966020E+01  1.774913E+03 -1.653230E+04  1.136629E+03  1.957254E+03
       182  24  2.606621E+05  4.323431E+02  2.812181E+03 -6.246988E+04  2.027776E+03  6.617394E+03
       182  25  3.127360E+05  1.311602E+04  1.353097E+04 -6.258159E+04  2.492285E+03 -2.720451E+03
       182  26  1.956149E+05 -1.612462E+04 -1.389919E+04 -1.643463E+04  3.377936E+03  1.952209E+03
       182  27  7.827589E+04 -4.474297E+04 -4.070685E+04 -6.216382E+04  4.262738E+03  6.612488E+03
       183   1  6.105267E+05  8.695332E+04  8.802411E+04 -6.281435E+04 -3.205348E+02 -9.371158E+03
       183   2  7.276437E+05  1.155700E+05  1.183062E+05 -1.713485E+04 -3.413302E+03 -1.404561E+04
       183   3  8.457196E+05  1.469117E+05  1.512469E+05 -6.357309E+04 -6.501561E+03 -1.854089E+04
       183   4  2.608946E+05  1.747875E+02  3.588704E+03 -6.252589E+04 -2.611079E+03 -9.366565E+03
       183   5  2.604188E+05 -2.928705E+02  5.957907E+03 -1.646342E+04 -5.615909E+03 -1.404229E+04
       183   6  2.608751E+05  1.951405E+03  1.092722E+04 -6.252292E+04 -8.615655E+03 -1.853874E+04
       183   7 -8.862579E+04 -8.661268E+04 -8.085544E+04 -6.223753E+04 -4.900338E+03 -9.361974E+03
       183   8 -2.066064E+05 -1.161716E+05 -1.064059E+05 -1.579241E+04 -7.816866E+03 -1.403897E+04
       183   9 -3.236565E+05 -1.430338E+05 -1.294167E+05 -6.147361E+04 -1.072776E+04 -1.853658E+04
       183  10  6.105266E+05  8.695323E+04  8.802395E+04 -6.281435E+04  1.330284E-10 -2.625406E-09
       183  11  7.276436E+05  1.155698E+05  1.183058E+05 -1.713489E+04  1.658594E-09  6.063785E-11
       183  12  8.457195E+05  1.469114E+05  1.512462E+05 -6.357319E+04  5.085689E-10  8.896060E-10
       183  13  2.608946E+05  1.746914E+02  3.588526E+03 -6.252591E+04  2.130741E-09 -1.062628E-10
       183  14  2.604187E+05 -2.930908E+02  5.957477E+03 -1.646349E+04  1.048574E-09 -5.629136E-10
       183  15  2.608750E+05  1.951016E+03  1.092643E+04 -6.252305E+04  3.187356E-10 -5.568309E-10
       183  16 -8.862584E+04 -8.661278E+04 -8.085565E+04 -6.223757E+04  5.608540E-10  8.027904E-11
       183  17 -2.066065E+05 -1.161718E+05 -1.064064E+05 -1.579249E+04  1.062843E-09  2.508349E-09
       183  18 -3.236567E+05 -1.430342E+05 -1.294176E+05 -6.147377E+04  6.870787E-11  4.108691E-10
       183  19  6.105267E+05  8.695332E+04  8.802411E+04 -6.281435E+04  3.205348E+02  9.371158E+03
       183  20  7.276437E+05  1.155700E+05  1.183062E+05 -1.713485E+04  3.413302E+03  1.404561E+04
       183  21  8.457196E+05  1.469117E+05  1.512469E+05 -6.357309E+04  6.501561E+03  1.854089E+04
       183  22  2.608946E+05  1.747875E+02  3.588704E+03 -6.252589E+04  2.611079E+03  9.366565E+03
       183  23  2.604188E+05 -2.928705E+02  5.957907E+03 -1.646342E+04  5.615909E+03  1.404229E+04
       183  24  2.608751E+05  1.951405E+03  1.092722E+04 -6.252292E+04  8.615655E+03  1.853874E+04
       183  25 -8.862579E+04 -8.661268E+04 -8.085544E+04 -6.223753E+04  4.900338E+03  9.361974E+03
       183  26 -2.066064E+05 -1.161716E+05 -1.064059E+05 -1.579241E+04  7.816866E+03  1.403897E+04
       183  27 -3.236565E+05 -1.430338E+05 -1.294167E+05 -6.147361E+04  1.072776E+04  1.853658E+04
       184   1  1.015307E+06  1.859831E+05  1.953070E+05 -6.101011E+04 -8.026428E+03 -2.161954E+04
       184   2  1.129685E+06  2.131345E+05  2.326763E+05 -1.795808E+04 -2.113749E+04 -2.627153E+04
       184   3  1.252203E+06  2.628791E+05  2.843745E+05 -6.760708E+04 -3.424176E+04 -2.854730E+04
       184   4  2.623692E+05 -7.527086E+02  1.397474E+04 -6.265838E+04 -1.083164E+04 -2.161752E+04
       184   5  2.583799E+05 -2.874610E+03  2.324360E+04 -1.630061E+04 -2.278545E+04 -2.627278E+04
       184   6  2.623308E+05  1.741480E+04  4.605435E+04 -6.265137E+04 -3.473000E+04 -2.855044E+04
       184   7 -4.900507E+05 -1.875298E+05 -1.673980E+05 -6.430444E+04 -1.363347E+04 -2.161548E+04
       184   8 -6.122310E+05 -2.189389E+05 -1.862430E+05 -1.464533E+04 -2.443109E+04 -2.627404E+04
       184   9 -7.266460E+05 -2.281208E+05 -1.923357E+05 -5.770349E+04 -3.521743E+04 -2.855359E+04
       184  10  1.015307E+06  1.859825E+05  1.953060E+05 -6.101025E+04 -5.723615E-10  9.338327E-10
       184  11  1.129684E+06  2.131336E+05  2.326741E+05 -1.795853E+04  4.791393E-10 -7.091812E-10
       184  12  1.252201E+06  2.628779E+05  2.843708E+05 -6.760787E+04 -1.230765E-09  2.352654E-10
       184  13  2.623690E+05 -7.532420E+02  1.397364E+04 -6.265856E+04 -1.842078E-09  7.183959E-10
       184  14  2.583791E+05 -2.875491E+03  2.324133E+04 -1.630109E+04 -2.612441E-09  2.029426E-10
       184  15  2.623293E+05  1.741361E+04  4.605055E+04 -6.265217E+04 -2.264594E-09  5.747334E-10
       184  16 -4.900511E+05 -1.875303E+05 -1.673992E+05 -6.430468E+04 -1.074453E-09 -7.365319E-11
       184  17 -6.122319E+05 -2.189398E+05 -1.862455E+05 -1.464585E+04 -1.126048E-09 -6.046900E-10
       184  18 -7.266476E+05 -2.281220E+05 -1.923395E+05 -5.770430E+04  5.145998E-10  2.459992E-10
       184  19  1.015307E+06  1.859831E+05  1.953070E+05 -6.101011E+04  8.026428E+03  2.161954E+04
       184  20  1.129685E+06  2.131345E+05  2.326763E+05 -1.795808E+04  2.113749E+04  2.627153E+04
       184  21  1.252203E+06  2.628791E+05  2.843745E+05 -6.760708E+04  3.424176E+04  2.854730E+04
       184  22  2.623692E+05 -7.527086E+02  1.397474E+04 -6.265838E+04  1.083164E+04  2.161752E+04
       184  23  2.583799E+05 -2.874610E+03  2.324360E+04 -1.630061E+04  2.278545E+04  2.627278E+04
       184  24  2.623308E+05  1.741480E+04  4.605435E+04 -6.265137E+04  3.473000E+04  2.855044E+04
       184  25 -4.900507E+05 -1.875298E+05 -1.673980E+05 -6.430444E+04  1.363347E+04  2.161548E+04
       184  26 -6.122310E+05 -2.189389E+05 -1.862430E+05 -1.464533E+04  2.443109E+04  2.627404E+04
       184  27 -7.266460E+05 -2.281208E+05 -1.923357E+05 -5.770349E+04  3.521743E+04  2.855359E+04
       185   1  1.433232E+06  2.790314E+05  3.348898E+05 -4.158866E+04 -3.433003E+04 -3.567150E+04
       185   2  1.522484E+06  2.918748E+05  3.964244E+05 -2.928306E+04 -9.742372E+04 -3.983208E+04
       185   3  1.673567E+06  5.103290E+05  5.508259E+05 -1.102489E+05 -1.605777E+05 -1.365886E+04
       185   4  2.736664E+05 -8.351897E+03  5.643991E+04 -6.271188E+04 -4.355755E+04 -3.567629E+04
       185   5  2.439362E+05 -2.491469E+04  8.955594E+04 -1.620509E+04 -9.197437E+04 -3.983414E+04
       185   6  2.735982E+05  1.618106E+05  2.054825E+05 -6.297271E+04 -1.404376E+05 -1.363757E+04
       185   7 -8.846690E+05 -2.958312E+05 -2.221049E+05 -8.379556E+04 -5.276786E+04 -3.568046E+04
       185   8 -1.033117E+06 -3.418222E+05 -2.174283E+05 -3.154460E+03 -8.653602E+04 -3.983598E+04
       185   9 -1.124586E+06 -1.868450E+05 -1.400032E+05 -1.580375E+04 -1.203425E+05 -1.361320E+04
       185  10  1.433230E+06  2.790297E+05  3.348852E+05 -4.158964E+04 -3.069613E-10  4.748550E-10
       185  11  1.522474E+06  2.918706E+05  3.964037E+05 -2.928618E+04 -7.032565E-10 -1.376053E-10
       185  12  1.673540E+06  5.103219E+05  5.507772E+05 -1.102506E+05 -2.316470E-10 -5.853697E-10
       185  13  2.736641E+05 -8.353773E+03  5.643395E+04 -6.271313E+04 -5.543040E-10  8.333142E-10
       185  14  2.439267E+05 -2.491867E+04  8.953707E+04 -1.620804E+04  3.657641E-10  1.574170E-09
       185  15  2.735770E+05  1.618051E+05  2.054451E+05 -6.297425E+04 -2.485683E-09 -1.022810E-10
       185  16 -8.846724E+05 -2.958333E+05 -2.221126E+05 -8.379708E+04 -5.020970E-10  1.539693E-10
       185  17 -1.033126E+06 -3.418260E+05 -2.174454E+05 -3.157238E+03 -3.811673E-10 -5.434698E-10
       185  18 -1.124602E+06 -1.868491E+05 -1.400308E+05 -1.580507E+04 -6.215688E-11 -9.581249E-10
       185  19  1.433232E+06  2.790314E+05  3.348898E+05 -4.158866E+04  3.433003E+04  3.567150E+04
       185  20  1.522484E+06  2.918748E+05  3.964244E+05 -2.928306E+04  9.742372E+04  3.983208E+04
       185  21  1.673567E+06  5.103290E+05  5.508259E+05 -1.102489E+05  1.605777E+05  1.365886E+04
       185  22  2.736664E+05 -8.351897E+03  5.643991E+04 -6.271188E+04  4.355755E+04  3.567629E+04
       185  23  2.439362E+05 -2.491469E+04  8.955594E+04 -1.620509E+04  9.197437E+04  3.983414E+04
       185  24  2.735982E+05  1.618106E+05  2.054825E+05 -6.297271E+04  1.404376E+05  1.363757E+04
       185  25 -8.846690E+05 -2.958312E+05 -2.221049E+05 -8.379556E+04  5.276786E+04  3.568046E+04
       185  26 -1.033117E+06 -3.418222E+05 -2.174283E+05 -3.154460E+03  8.653602E+04  3.983598E+04
       185  27 -1.124586E+06 -1.868450E+05 -1.400032E+05 -1.580375E+04  1.203425E+05  1.361320E+04
       186   1  1.835429E+05  4.967828E+05  2.163402E+05 -1.399455E+05  9.172066E+02  1.082294E+05
       186   2 -9.895671E+03  2.846156E+05  8.087695E+04 -3.803196E+04  1.136153E+03  6.578055E+04
       186   3 -4.270159E+04  1.166603E+05  1.288386E+04 -8.453727E+04 -5.900218E+03  2.331461E+04
       186   4  1.266271E+05  2.702612E+05  1.600895E+05 -1.009562E+05  9.312536E+02  1.064532E+05
       186   5 -1.895361E+04  2.484707E+05  7.226154E+04 -2.701656E+04  1.130261E+03  6.750111E+04
       186   6 -4.495801E+03  2.702743E+05  4.949901E+04 -1.014873E+05 -5.922507E+03  2.851913E+04
       186   7  6.971298E+04  4.378938E+04  1.038356E+05 -6.198097E+04  9.450811E+02  1.046775E+05
       186   8 -2.801118E+04  2.123273E+05  6.364610E+04 -1.600181E+04  1.124429E+03  6.922157E+04
       186   9  3.370935E+04  4.239106E+05  8.611275E+04 -1.184416E+05 -5.945077E+03  3.372493E+04
       186  10  1.835398E+05  4.967703E+05  2.163182E+05 -1.399456E+05  1.087012E-09  3.672928E-10
       186  11 -9.896833E+03  2.846109E+05  8.086882E+04 -3.803202E+04  2.273949E-10 -2.923768E-09
       186  12 -4.270177E+04  1.166597E+05  1.288277E+04 -8.453716E+04 -1.614803E-09 -2.560835E-09
       186  13  1.266240E+05  2.702491E+05  1.600682E+05 -1.009562E+05  1.934832E-09 -1.042041E-09
       186  14 -1.895483E+04  2.484658E+05  7.225297E+04 -2.701663E+04  3.983594E-10 -7.691065E-11
       186  15 -4.496057E+03  2.702734E+05  4.949741E+04 -1.014872E+05  1.495522E-10 -2.194876E-09
       186  16  6.971004E+04  4.377762E+04  1.038150E+05 -6.198105E+04  2.942264E-10 -3.269708E-10
       186  17 -2.801247E+04  2.123221E+05  6.363710E+04 -1.600187E+04  4.227443E-09  4.622957E-09
       186  18  3.370900E+04  4.239093E+05  8.611055E+04 -1.184414E+05 -6.060680E-10  2.423630E-09
       186  19  1.835429E+05  4.967828E+05  2.163402E+05 -1.399455E+05 -9.172066E+02 -1.082294E+05
       186  20 -9.895671E+03  2.846156E+05  8.087695E+04 -3.803196E+04 -1.136153E+03 -6.578055E+04
       186  21 -4.270159E+04  1.166603E+05  1.288386E+04 -8.453727E+04  5.900218E+03 -2.331461E+04
       186  22  1.266271E+05  2.702612E+05  1.600895E+05 -1.009562E+05 -9.312536E+02 -1.064532E+05
       186  23 -1.895361E+04  2.484707E+05  7.226154E+04 -2.701656E+04 -1.130261E+03 -6.750111E+04
       186  24 -4.495801E+03  2.702743E+05  4.949901E+04 -1.014873E+05  5.922507E+03 -2.851913E+04
       186  25  6.971298E+04  4.378938E+04  1.038356E+05 -6.198097E+04 -9.450811E+02 -1.046775E+05
       186  26 -2.801118E+04  2.123273E+05  6.364610E+04 -1.600181E+04 -1.124429E+03 -6.922157E+04
       186  27  3.370935E+04  4.239106E+05  8.611275E+04 -1.184416E+05  5.945077E+03 -3.372493E+04
       187   1 -9.144179E+04 -1.623366E+05 -5.922460E+04 -1.052996E+05 -1.172337E+04  1.666387E+04
       187   2 -1.562569E+05 -3.572499E+05 -1.169282E+05 -2.548455E+04 -1.859691E+04  1.617444E+03
       187   3 -1.901094E+05 -5.432774E+05 -1.572833E+05 -9.486509E+04 -2.349151E+04 -1.340852E+04
       187   4  1.399971E+04  2.625418E+05  4.333851E+04 -1.014690E+05 -1.173826E+04  2.047758E+04
       187   5 -3.583979E+03  2.580158E+05  3.109054E+04 -2.688679E+04 -1.860604E+04  4.470056E+03
       187   6  9.948858E+03  2.625018E+05  3.685150E+04 -1.014895E+05 -2.349564E+04 -1.152154E+04
       187   7  1.194281E+05  6.875852E+05  1.458888E+05 -9.763555E+04 -1.175309E+04  2.429389E+04
       187   8  1.490614E+05  8.736281E+05  1.790824E+05 -2.829010E+04 -1.861519E+04  7.325484E+03
       187   9  2.099599E+05  1.068875E+06  2.309400E+05 -1.081219E+05 -2.349980E+04 -9.632115E+03
       187  10 -9.144201E+04 -1.623369E+05 -5.922538E+04 -1.052995E+05 -3.028611E-09  5.646284E-11
       187  11 -1.562573E+05 -3.572500E+05 -1.169289E+05 -2.548453E+04  1.625062E-10 -1.912241E-09
       187  12 -1.901101E+05 -5.432778E+05 -1.572847E+05 -9.486535E+04  1.651171E-10 -1.101238E-09
       187  13  1.399944E+04  2.625413E+05  4.333746E+04 -1.014688E+05 -2.004182E-09 -1.119294E-09
       187  14 -3.584356E+03  2.580157E+05  3.108986E+04 -2.688672E+04 -2.255399E-10 -9.627119E-11
       187  15  9.948229E+03  2.625015E+05  3.685021E+04 -1.014897E+05 -2.081017E-09 -1.745495E-09
       187  16  1.194278E+05  6.875846E+05  1.458874E+05 -9.763532E+04 -1.955884E-09 -3.550334E-11
       187  17  1.490610E+05  8.736280E+05  1.790816E+05 -2.828999E+04 -2.102545E-09  3.542413E-09
       187  18  2.099593E+05  1.068875E+06  2.309388E+05 -1.081221E+05 -1.303267E-09  1.115069E-09
       187  19 -9.144179E+04 -1.623366E+05 -5.922460E+04 -1.052996E+05  1.172337E+04 -1.666387E+04
       187  20 -1.562569E+05 -3.572499E+05 -1.169282E+05 -2.548455E+04  1.859691E+04 -1.617444E+03
       187  21 -1.901094E+05 -5.432774E+05 -1.572833E+05 -9.486509E+04  2.349151E+04  1.340852E+04
       187  22  1.399971E+04  2.625418E+05  4.333851E+04 -1.014690E+05  1.173826E+04 -2.047758E+04
       187  23 -3.583979E+03  2.580158E+05  3.109054E+04 -2.688679E+04  1.860604E+04 -4.470056E+03
       187  24  9.948858E+03  2.625018E+05  3.685150E+04 -1.014895E+05  2.349564E+04  1.152154E+04
       187  25  1.194281E+05  6.875852E+05  1.458888E+05 -9.763555E+04  1.175309E+04 -2.429389E+04
       187  26  1.490614E+05  8.736281E+05  1.790824E+05 -2.829010E+04  1.861519E+04 -7.325484E+03
       187  27  2.099599E+05  1.068875E+06  2.309400E+05 -1.081219E+05  2.349980E+04  9.632115E+03
       188   1 -2.702154E+05 -8.097648E+05 -2.188613E+05 -1.115978E+05 -3.265772E+04 -2.938088E+04
       188   2 -3.295151E+05 -1.017859E+06 -2.496695E+05 -1.677678E+04 -3.950339E+04 -4.340048E+04
       188   3 -2.709285E+05 -1.193339E+06 -2.416059E+05 -7.129770E+04 -1.361645E+04 -5.735784E+04
       188   4 -2.760480E+03  2.681875E+05  4.046787E+04 -1.015783E+05 -3.268743E+04 -1.825700E+04
       188   5 -1.469098E+04  2.505199E+05  5.520927E+04 -2.684479E+04 -3.948782E+04 -4.801861E+04
       188   6  9.387041E+04  2.680937E+05  1.196923E+05 -1.014288E+05 -1.358417E+04 -7.772282E+04
       188   7  2.646103E+05  1.347205E+06  2.997148E+05 -9.154053E+04 -3.271676E+04 -7.113843E+03
       188   8  3.000164E+05  1.520373E+06  3.599738E+05 -3.693268E+04 -3.947212E+04 -5.264608E+04
       188   9  4.585132E+05  1.731472E+06  4.808339E+05 -1.316303E+05 -1.354996E+04 -9.813558E+04
       188  10 -2.702167E+05 -8.097661E+05 -2.188649E+05 -1.115985E+05 -7.867522E-10  7.630587E-11
       188  11 -3.295173E+05 -1.017862E+06 -2.496760E+05 -1.677816E+04  2.464621E-09 -6.424668E-10
       188  12 -2.709295E+05 -1.193343E+06 -2.416124E+05 -7.129833E+04  9.296339E-12 -5.903340E-10
       188  13 -2.761717E+03  2.681869E+05  4.046524E+04 -1.015788E+05  5.293073E-11 -8.606124E-10
       188  14 -1.469328E+04  2.505170E+05  5.520200E+04 -2.684632E+04  1.237659E-09  3.012821E-12
       188  15  9.386859E+04  2.680872E+05  1.196806E+05 -1.014297E+05  7.727474E-10 -7.164498E-10
       188  16  2.646091E+05  1.347204E+06  2.997127E+05 -9.154071E+04 -1.215332E-09  1.101167E-12
       188  17  3.000140E+05  1.520370E+06  3.599656E+05 -3.693436E+04  1.598924E-09  1.378915E-09
       188  18  4.585104E+05  1.731462E+06  4.808155E+05 -1.316313E+05  8.892865E-10  4.149673E-10
       188  19 -2.702154E+05 -8.097648E+05 -2.188613E+05 -1.115978E+05  3.265772E+04  2.938088E+04
       188  20 -3.295151E+05 -1.017859E+06 -2.496695E+05 -1.677678E+04  3.950339E+04  4.340048E+04
       188  21 -2.709285E+05 -1.193339E+06 -2.416059E+05 -7.129770E+04  1.361645E+04  5.735784E+04
       188  22 -2.760480E+03  2.681875E+05  4.046787E+04 -1.015783E+05  3.268743E+04  1.825700E+04
       188  23 -1.469098E+04  2.505199E+05  5.520927E+04 -2.684479E+04  3.948782E+04  4.801861E+04
       188  24  9.387041E+04  2.680937E+05  1.196923E+05 -1.014288E+05  1.358417E+04  7.772282E+04
       188  25  2.646103E+05  1.347205E+06  2.997148E+05 -9.154053E+04  3.271676E+04  7.113843E+03
       188  26  3.000164E+05  1.520373E+06  3.599738E+05 -3.693268E+04  3.947212E+04  5.264608E+04
       188  27  4.585132E+05  1.731472E+06  4.808339E+05 -1.316303E+05  1.354996E+04  9.813558E+04
       189   1 -4.167288E+06 -1.418850E+06 -9.314489E+05 -1.438367E+06 -4.007828E+05 -1.375268E+05
       189   2 -4.046107E+06 -8.200211E+05 -5.567357E+05 -1.484087E+06 -2.619778E+05 -5.594326E+04
       189   3 -4.116448E+06 -8.083209E+05 -4.441603E+05 -1.425316E+06 -1.125825E+05 -2.264922E+03
       189   4 -3.041736E+06 -8.670812E+05 -5.987048E+05 -1.004244E+06 -3.837131E+05 -1.311563E+05
       189   5 -2.915777E+06 -3.573043E+05 -2.490365E+05 -1.138750E+06 -2.571550E+05 -5.414283E+04
       189   6 -2.978517E+06 -4.316257E+05 -1.513879E+05 -1.168876E+06 -1.200179E+05 -5.063541E+03
       189   7 -1.914913E+06 -3.149642E+05 -2.660842E+05 -5.693189E+05 -3.666086E+05 -1.247639E+05
       189   8 -1.784201E+06  1.055525E+05  5.854647E+04 -7.928185E+05 -2.523220E+05 -5.233787E+04
       189   9 -1.839331E+06 -5.492146E+04  1.412801E+05 -9.120418E+05 -1.274683E+05 -7.866173E+03
       189  10 -4.167467E+06 -1.418914E+06 -9.317889E+05 -1.438412E+06 -4.520592E-10  6.366008E-11
       189  11 -4.046182E+06 -8.200431E+05 -5.568716E+05 -1.484099E+06 -1.374130E-09  1.814564E-10
       189  12 -4.116461E+06 -8.083244E+05 -4.441842E+05 -1.425316E+06 -1.139259E-09  1.337112E-09
       189  13 -3.041900E+06 -8.671396E+05 -5.990155E+05 -1.004284E+06  1.011203E-10 -9.687713E-10
       189  14 -2.915849E+06 -3.573253E+05 -2.491670E+05 -1.138761E+06  4.449777E-10 -9.040975E-10
       189  15 -2.978532E+06 -4.316296E+05 -1.514152E+05 -1.168876E+06  1.433027E-09  5.277690E-10
       189  16 -1.915062E+06 -3.150172E+05 -2.663670E+05 -5.693558E+05 -3.285095E-10  3.038061E-10
       189  17 -1.784270E+06  1.055323E+05  5.842126E+04 -7.928292E+05  1.168716E-09 -9.974666E-10
       189  18 -1.839349E+06 -5.492591E+04  1.412493E+05 -9.120426E+05 -6.194570E-10  1.526978E-10
       189  19 -4.167288E+06 -1.418850E+06 -9.314489E+05 -1.438367E+06  4.007828E+05  1.375268E+05
       189  20 -4.046107E+06 -8.200211E+05 -5.567357E+05 -1.484087E+06  2.619778E+05  5.594326E+04
       189  21 -4.116448E+06 -8.083209E+05 -4.441603E+05 -1.425316E+06  1.125825E+05  2.264922E+03
       189  22 -3.041736E+06 -8.670812E+05 -5.987048E+05 -1.004244E+06  3.837131E+05  1.311563E+05
       189  23 -2.915777E+06 -3.573043E+05 -2.490365E+05 -1.138750E+06  2.571550E+05  5.414283E+04
       189  24 -2.978517E+06 -4.316257E+05 -1.513879E+05 -1.168876E+06  1.200179E+05  5.063541E+03
       189  25 -1.914913E+06 -3.149642E+05 -2.660842E+05 -5.693189E+05  3.666086E+05  1.247639E+05
       189  26 -1.784201E+06  1.055525E+05  5.854647E+04 -7.928185E+05  2.523220E+05  5.233787E+04
       189  27 -1.839331E+06 -5.492146E+04  1.412801E+05 -9.120418E+05  1.274683E+05  7.866173E+03
       190   1 -3.941482E+06 -8.824974E+05 -3.888529E+05 -1.417589E+06 -9.648527E+04 -2.614165E+03
       190   2 -3.878961E+06 -7.668841E+05 -3.033537E+05 -1.379301E+06 -6.444301E+04  8.627283E+03
       190   3 -3.796619E+06 -7.606929E+05 -2.585352E+05 -1.378039E+06 -3.139541E+04  1.719309E+04
       190   4 -2.956746E+06 -4.975863E+05 -1.233983E+05 -1.135497E+06 -9.630890E+04 -2.553933E+03
       190   5 -2.963210E+06 -4.181904E+05 -5.879088E+04 -1.126300E+06 -6.541469E+04  8.258146E+03
       190   6 -2.949592E+06 -4.479234E+05 -3.389925E+04 -1.154135E+06 -3.351982E+04  1.639375E+04
       190   7 -1.971065E+06 -1.125968E+05  1.419706E+05 -8.529911E+05 -9.613211E+04 -2.493529E+03
       190   8 -2.046644E+06 -6.944138E+04  1.856986E+05 -8.729583E+05 -6.638789E+04  7.888426E+03
       190   9 -2.101869E+06 -1.351184E+05  1.906746E+05 -9.299570E+05 -3.564741E+04  1.559328E+04
       190  10 -3.941492E+06 -8.824999E+05 -3.888706E+05 -1.417589E+06 -1.006644E-09  1.309498E-09
       190  11 -3.878965E+06 -7.668853E+05 -3.033617E+05 -1.379300E+06 -1.418215E-09 -8.974154E-10
       190  12 -3.796620E+06 -7.606935E+05 -2.585376E+05 -1.378039E+06 -2.142314E-09 -2.812104E-10
       190  13 -2.956756E+06 -4.975888E+05 -1.234158E+05 -1.135497E+06 -1.273877E-09 -3.528589E-10
       190  14 -2.963215E+06 -4.181916E+05 -5.879908E+04 -1.126299E+06 -2.251551E-09 -2.315717E-10
       190  15 -2.949593E+06 -4.479240E+05 -3.390187E+04 -1.154135E+06 -5.909444E-10 -8.737052E-11
       190  16 -1.971074E+06 -1.125993E+05  1.419531E+05 -8.529913E+05 -1.461570E-09 -6.874315E-10
       190  17 -2.046649E+06 -6.944264E+04  1.856902E+05 -8.729579E+05 -1.680682E-09 -6.363217E-10
       190  18 -2.101871E+06 -1.351190E+05  1.906718E+05 -9.299565E+05  9.435359E-10  3.780306E-10
       190  19 -3.941482E+06 -8.824974E+05 -3.888529E+05 -1.417589E+06  9.648527E+04  2.614165E+03
       190  20 -3.878961E+06 -7.668841E+05 -3.033537E+05 -1.379301E+06  6.444301E+04 -8.627283E+03
       190  21 -3.796619E+06 -7.606929E+05 -2.585352E+05 -1.378039E+06  3.139541E+04 -1.719309E+04
       190  22 -2.956746E+06 -4.975863E+05 -1.233983E+05 -1.135497E+06  9.630890E+04  2.553933E+03
       190  23 -2.963210E+06 -4.181904E+05 -5.879088E+04 -1.126300E+06  6.541469E+04 -8.258146E+03
       190  24 -2.949592E+06 -4.479234E+05 -3.389925E+04 -1.154135E+06  3.351982E+04 -1.639375E+04
       190  25 -1.971065E+06 -1.125968E+05  1.419706E+05 -8.529911E+05  9.613211E+04  2.493529E+03
       190  26 -2.046644E+06 -6.944138E+04  1.856986E+05 -8.729583E+05  6.638789E+04 -7.888426E+03
       190  27 -2.101869E+06 -1.351184E+05  1.906746E+05 -9.299570E+05  3.564741E+04 -1.559328E+04
       191   1 -3.657421E+06 -7.260805E+05 -2.161439E+05 -1.346863E+06 -2.624223E+04  1.636059E+04
       191   2 -3.593969E+06 -6.578599E+05 -1.796449E+05 -1.292199E+06 -1.777884E+04  1.552348E+04
       191   3 -3.479088E+06 -6.512270E+05 -1.502924E+05 -1.298278E+06 -9.165613E+03  1.427109E+04
       191   4 -2.945341E+06 -4.568838E+05 -2.657325E+04 -1.152046E+06 -2.773648E+04  1.579852E+04
       191   5 -2.970649E+06 -4.232303E+05 -1.370653E+04 -1.122746E+06 -1.945055E+04  1.489637E+04
       191   6 -2.944501E+06 -4.511209E+05 -7.837984E+03 -1.154190E+06 -1.101597E+04  1.357872E+04
       191   7 -2.232770E+06 -1.876564E+05  1.629527E+05 -9.570265E+05 -2.923261E+04  1.523573E+04
       191   8 -2.346953E+06 -1.885775E+05  1.521979E+05 -9.531393E+05 -2.112411E+04  1.426856E+04
       191   9 -2.409636E+06 -2.509983E+05  1.345918E+05 -1.009990E+06 -1.286808E+04  1.288570E+04
       191  10 -3.657422E+06 -7.260810E+05 -2.161457E+05 -1.346863E+06  5.478411E-10  8.036413E-10
       191  11 -3.593969E+06 -6.578602E+05 -1.796459E+05 -1.292198E+06 -2.172357E-10 -2.013370E-10
       191  12 -3.479088E+06 -6.512272E+05 -1.502929E+05 -1.298278E+06  8.061791E-10  1.791825E-09
       191  13 -2.945342E+06 -4.568843E+05 -2.657517E+04 -1.152046E+06  1.401149E-09  1.377303E-10
       191  14 -2.970650E+06 -4.232306E+05 -1.370765E+04 -1.122746E+06  2.813052E-09  9.553844E-10
       191  15 -2.944501E+06 -4.511212E+05 -7.838558E+03 -1.154190E+06 -6.817265E-10  7.978332E-11
       191  16 -2.232771E+06 -1.876568E+05  1.629506E+05 -9.570261E+05 -1.339392E-09 -3.367288E-10
       191  17 -2.346954E+06 -1.885779E+05  1.521967E+05 -9.531391E+05  9.008637E-10 -7.992749E-10
       191  18 -2.409636E+06 -2.509985E+05  1.345912E+05 -1.009990E+06 -3.786707E-10  5.158098E-11
       191  19 -3.657421E+06 -7.260805E+05 -2.161439E+05 -1.346863E+06  2.624223E+04 -1.636059E+04
       191  20 -3.593969E+06 -6.578599E+05 -1.796449E+05 -1.292199E+06  1.777884E+04 -1.552348E+04
       191  21 -3.479088E+06 -6.512270E+05 -1.502924E+05 -1.298278E+06  9.165613E+03 -1.427109E+04
       191  22 -2.945341E+06 -4.568838E+05 -2.657325E+04 -1.152046E+06  2.773648E+04 -1.579852E+04
       191  23 -2.970649E+06 -4.232303E+05 -1.370653E+04 -1.122746E+06  1.945055E+04 -1.489637E+04
       191  24 -2.944501E+06 -4.511209E+05 -7.837984E+03 -1.154190E+06  1.101597E+04 -1.357872E+04
       191  25 -2.232770E+06 -1.876564E+05  1.629527E+05 -9.570265E+05  2.923261E+04 -1.523573E+04
       191  26 -2.346953E+06 -1.885775E+05  1.521979E+05 -9.531393E+05  2.112411E+04 -1.426856E+04
       191  27 -2.409636E+06 -2.509983E+05  1.345918E+05 -1.009990E+06  1.286808E+04 -1.288570E+04
       192   1 -3.330780E+06 -5.985892E+05 -1.089474E+05 -1.260104E+06 -7.172302E+03  1.229240E+04
       192   2 -3.262543E+06 -5.315266E+05 -8.085794E+04 -1.199657E+06 -3.730662E+03  8.910166E+03
       192   3 -3.135632E+06 -5.245206E+05 -5.441572E+04 -1.207178E+06 -2.492337E+02  5.412607E+03
       192   4 -2.943164E+06 -4.529990E+05 -6.167284E+03 -1.154950E+06 -8.980802E+03  1.161651E+04
       192   5 -2.972442E+06 -4.226342E+05 -3.700116E+03 -1.121088E+06 -5.589514E+03  8.216187E+03
       192   6 -2.943045E+06 -4.523138E+05 -2.838533E+03 -1.155195E+06 -2.158793E+03  4.700492E+03
       192   7 -2.555403E+06 -3.073999E+05  9.659979E+04 -1.049736E+06 -1.079055E+04  1.094014E+04
       192   8 -2.682260E+06 -3.137370E+05  7.345028E+04 -1.042485E+06 -7.449320E+03  7.521852E+03
       192   9 -2.750423E+06 -3.801051E+05  4.873526E+04 -1.103198E+06 -4.069000E+03  3.988136E+03
       192  10 -3.330780E+06 -5.985894E+05 -1.089478E+05 -1.260104E+06  1.348773E-09  1.369619E-09
       192  11 -3.262543E+06 -5.315267E+05 -8.085811E+04 -1.199657E+06  1.043952E-09  1.612938E-09
       192  12 -3.135632E+06 -5.245207E+05 -5.441578E+04 -1.207178E+06 -5.744009E-10  9.790890E-10
       192  13 -2.943164E+06 -4.529992E+05 -6.167689E+03 -1.154950E+06 -1.445654E-09 -2.163064E-10
       192  14 -2.972442E+06 -4.226343E+05 -3.700301E+03 -1.121088E+06  2.314215E-09  1.831728E-09
       192  15 -2.943045E+06 -4.523138E+05 -2.838584E+03 -1.155195E+06 -1.625278E-09 -9.061259E-10
       192  16 -2.555403E+06 -3.074001E+05  9.659935E+04 -1.049736E+06 -6.408839E-10 -2.851862E-10
       192  17 -2.682260E+06 -3.137371E+05  7.345007E+04 -1.042485E+06  1.309681E-09  6.504589E-10
       192  18 -2.750423E+06 -3.801051E+05  4.873520E+04 -1.103198E+06  1.406319E-09 -5.701492E-10
       192  19 -3.330780E+06 -5.985892E+05 -1.089474E+05 -1.260104E+06  7.172302E+03 -1.229240E+04
       192  20 -3.262543E+06 -5.315266E+05 -8.085794E+04 -1.199657E+06  3.730662E+03 -8.910166E+03
       192  21 -3.135632E+06 -5.245206E+05 -5.441572E+04 -1.207178E+06  2.492337E+02 -5.412607E+03
       192  22 -2.943164E+06 -4.529990E+05 -6.167284E+03 -1.154950E+06  8.980802E+03 -1.161651E+04
       192  23 -2.972442E+06 -4.226342E+05 -3.700116E+03 -1.121088E+06  5.589514E+03 -8.216187E+03
       192  24 -2.943045E+06 -4.523138E+05 -2.838533E+03 -1.155195E+06  2.158793E+03 -4.700492E+03
       192  25 -2.555403E+06 -3.073999E+05  9.659979E+04 -1.049736E+06  1.079055E+04 -1.094014E+04
       192  26 -2.682260E+06 -3.137370E+05  7.345028E+04 -1.042485E+06  7.449320E+03 -7.521852E+03
       192  27 -2.750423E+06 -3.801051E+05  4.873526E+04 -1.103198E+06  4.069000E+03 -3.988136E+03
       193   1 -2.980974E+06 -4.669504E+05 -1.258675E+04 -1.165954E+06  1.147220E+03  3.095142E+03
       193   2 -2.911309E+06 -3.992331E+05  1.292008E+04 -1.104067E+06  4.435995E+03 -5.262419E+02
       193   3 -2.781873E+06 -3.926796E+05  3.692681E+04 -1.111619E+06  7.712758E+03 -4.112475E+03
       193   4 -2.942796E+06 -4.526037E+05 -2.799465E+03 -1.155501E+06 -7.655586E+02  2.382049E+03
       193   5 -2.972711E+06 -4.222675E+05 -3.405116E+03 -1.120688E+06  2.538568E+03 -1.233800E+03
       193   6 -2.942869E+06 -4.531001E+05 -5.523038E+03 -1.155318E+06  5.830364E+03 -4.814567E+03
       193   7 -2.904617E+06 -4.382568E+05  6.987747E+03 -1.145048E+06 -2.678471E+03  1.668905E+03
       193   8 -3.034110E+06 -4.453016E+05 -1.973064E+04 -1.137307E+06  6.413445E+02 -1.941282E+03
       193   9 -3.103841E+06 -5.135190E+05 -4.797510E+04 -1.199007E+06  3.948508E+03 -5.516458E+03
       193  10 -2.980974E+06 -4.669504E+05 -1.258677E+04 -1.165954E+06 -4.419083E-10 -6.073867E-10
       193  11 -2.911309E+06 -3.992331E+05  1.292004E+04 -1.104067E+06  8.852211E-10  2.110217E-09
       193  12 -2.781873E+06 -3.926797E+05  3.692666E+04 -1.111619E+06  4.205810E-10 -7.354437E-10
       193  13 -2.942796E+06 -4.526037E+05 -2.799476E+03 -1.155501E+06 -7.606640E-10 -1.288857E-09
       193  14 -2.972711E+06 -4.222675E+05 -3.405131E+03 -1.120688E+06 -1.756206E-09 -3.817191E-09
       193  15 -2.942869E+06 -4.531001E+05 -5.523146E+03 -1.155318E+06 -4.955743E-10 -3.987927E-11
       193  16 -2.904617E+06 -4.382568E+05  6.987728E+03 -1.145048E+06  5.343087E-10 -5.944623E-10
       193  17 -3.034110E+06 -4.453016E+05 -1.973065E+04 -1.137307E+06 -2.958912E-09 -2.161456E-09
       193  18 -3.103841E+06 -5.135191E+05 -4.797519E+04 -1.199007E+06  2.274605E-11  3.199482E-10
       193  19 -2.980974E+06 -4.669504E+05 -1.258675E+04 -1.165954E+06 -1.147220E+03 -3.095142E+03
       193  20 -2.911309E+06 -3.992331E+05  1.292008E+04 -1.104067E+06 -4.435995E+03  5.262419E+02
       193  21 -2.781873E+06 -3.926796E+05  3.692681E+04 -1.111619E+06 -7.712758E+03  4.112475E+03
       193  22 -2.942796E+06 -4.526037E+05 -2.799465E+03 -1.155501E+06  7.655586E+02 -2.382049E+03
       193  23 -2.972711E+06 -4.222675E+05 -3.405116E+03 -1.120688E+06 -2.538568E+03  1.233800E+03
       193  24 -2.942869E+06 -4.531001E+05 -5.523038E+03 -1.155318E+06 -5.830364E+03  4.814567E+03
       193  25 -2.904617E+06 -4.382568E+05  6.987747E+03 -1.145048E+06  2.678471E+03 -1.668905E+03
       193  26 -3.034110E+06 -4.453016E+05 -1.973064E+04 -1.137307E+06 -6.413445E+02  1.941282E+03
       193  27 -3.103841E+06 -5.135190E+05 -4.797510E+04 -1.199007E+06 -3.948508E+03  5.516458E+03
       194   1 -2.629517E+06 -3.346098E+05  7.677967E+04 -1.070769E+06  9.707878E+03 -6.199363E+03
       194   2 -2.562496E+06 -2.685031E+05  9.668332E+04 -1.010491E+06  1.727769E+04 -8.087523E+03
       194   3 -2.440485E+06 -2.666182E+05  1.104307E+05 -1.015404E+06  2.473369E+04 -9.655225E+03
       194   4 -2.943692E+06 -4.518601E+05 -6.992602E+03 -1.155104E+06  7.782118E+03 -6.918072E+03
       194   5 -2.971541E+06 -4.222637E+05 -1.210934E+04 -1.121568E+06  1.549078E+04 -8.755487E+03
       194   6 -2.944439E+06 -4.569230E+05 -2.349555E+04 -1.153230E+06  2.308458E+04 -1.027270E+04
       194   7 -3.257771E+06 -5.691047E+05 -9.077327E+04 -1.239400E+06  5.857437E+03 -7.636383E+03
       194   8 -3.380425E+06 -5.760145E+05 -1.209166E+05 -1.232579E+06  1.370516E+04 -9.422965E+03
       194   9 -3.448147E+06 -6.472127E+05 -1.574443E+05 -1.290955E+06  2.143694E+04 -1.088963E+04
       194  10 -2.629517E+06 -3.346099E+05  7.677942E+04 -1.070769E+06 -7.485783E-11  1.177979E-09
       194  11 -2.562496E+06 -2.685033E+05  9.668263E+04 -1.010491E+06 -6.685873E-10 -1.966055E-10
       194  12 -2.440486E+06 -2.666185E+05  1.104294E+05 -1.015404E+06  1.775687E-09 -1.099954E-09
       194  13 -2.943692E+06 -4.518602E+05 -6.992805E+03 -1.155104E+06  3.370262E-10  1.035150E-09
       194  14 -2.971542E+06 -4.222639E+05 -1.210993E+04 -1.121568E+06 -1.044100E-10 -4.873085E-10
       194  15 -2.944439E+06 -4.569233E+05 -2.349675E+04 -1.153230E+06  7.143854E-10 -1.044941E-09
       194  16 -3.257771E+06 -5.691048E+05 -9.077344E+04 -1.239400E+06  2.507493E-09  5.699568E-10
       194  17 -3.380425E+06 -5.760146E+05 -1.209171E+05 -1.232579E+06  1.286877E-09  1.026924E-09
       194  18 -3.448148E+06 -6.472129E+05 -1.574454E+05 -1.290955E+06 -9.537597E-10 -2.165460E-09
       194  19 -2.629517E+06 -3.346098E+05  7.677967E+04 -1.070769E+06 -9.707878E+03  6.199363E+03
       194  20 -2.562496E+06 -2.685031E+05  9.668332E+04 -1.010491E+06 -1.727769E+04  8.087523E+03
       194  21 -2.440485E+06 -2.666182E+05  1.104307E+05 -1.015404E+06 -2.473369E+04  9.655225E+03
       194  22 -2.943692E+06 -4.518601E+05 -6.992602E+03 -1.155104E+06 -7.782118E+03  6.918072E+03
       194  23 -2.971541E+06 -4.222637E+05 -1.210934E+04 -1.121568E+06 -1.549078E+04  8.755487E+03
       194  24 -2.944439E+06 -4.569230E+05 -2.349555E+04 -1.153230E+06 -2.308458E+04  1.027270E+04
       194  25 -3.257771E+06 -5.691047E+05 -9.077327E+04 -1.239400E+06 -5.857437E+03  7.636383E+03
       194  26 -3.380425E+06 -5.760145E+05 -1.209166E+05 -1.232579E+06 -1.370516E+04  9.422965E+03
       194  27 -3.448147E+06 -6.472127E+05 -1.574443E+05 -1.290955E+06 -2.143694E+04  1.088963E+04
       195   1 -2.297562E+06 -2.104023E+05  1.422269E+05 -9.845868E+05  3.058522E+04 -1.041069E+04
       195   2 -2.235709E+06 -1.401602E+05  1.426704E+05 -9.229656E+05  5.801301E+04 -4.406660E+03
       195   3 -2.145241E+06 -1.771581E+05  1.087941E+05 -9.069983E+05  8.456330E+04  3.965914E+03
       195   4 -2.947960E+06 -4.492826E+05 -2.997009E+04 -1.155367E+06  2.836490E+04 -1.124251E+04
       195   5 -2.965298E+06 -4.174952E+05 -5.190636E+04 -1.124328E+06  5.682153E+04 -4.855626E+03
       195   6 -2.954259E+06 -4.932012E+05 -1.090132E+05 -1.138947E+06  8.439643E+04  3.898883E+03
       195   7 -3.597948E+06 -6.881430E+05 -2.022035E+05 -1.325987E+06  2.614714E+04 -1.207343E+04
       195   8 -3.694370E+06 -6.947952E+05 -2.465295E+05 -1.325474E+06  5.563155E+04 -5.304013E+03
       195   9 -3.762640E+06 -8.091910E+05 -3.268782E+05 -1.370616E+06  8.422974E+04  3.831922E+03
       195  10 -2.297563E+06 -2.104026E+05  1.422249E+05 -9.845865E+05 -2.188369E-10 -1.204416E-09
       195  11 -2.235713E+06 -1.401612E+05  1.426640E+05 -9.229654E+05 -1.124706E-10 -1.704809E-10
       195  12 -2.145249E+06 -1.771600E+05  1.087805E+05 -9.069986E+05  1.077178E-09  1.620459E-10
       195  13 -2.947961E+06 -4.492830E+05 -2.997185E+04 -1.155366E+06  7.442547E-10 -1.205310E-09
       195  14 -2.965301E+06 -4.174961E+05 -5.191249E+04 -1.124328E+06  4.354505E-10  9.553336E-10
       195  15 -2.954266E+06 -4.932031E+05 -1.090267E+05 -1.138947E+06  2.047064E-10 -1.797621E-10
       195  16 -3.597949E+06 -6.881433E+05 -2.022051E+05 -1.325987E+06  1.116871E-09 -1.109103E-09
       195  17 -3.694373E+06 -6.947961E+05 -2.465354E+05 -1.325474E+06  7.558724E-11  4.152370E-10
       195  18 -3.762647E+06 -8.091930E+05 -3.268916E+05 -1.370616E+06 -4.150412E-10  1.531377E-10
       195  19 -2.297562E+06 -2.104023E+05  1.422269E+05 -9.845868E+05 -3.058522E+04  1.041069E+04
       195  20 -2.235709E+06 -1.401602E+05  1.426704E+05 -9.229656E+05 -5.801301E+04  4.406660E+03
       195  21 -2.145241E+06 -1.771581E+05  1.087941E+05 -9.069983E+05 -8.456330E+04 -3.965914E+03
       195  22 -2.947960E+06 -4.492826E+05 -2.997009E+04 -1.155367E+06 -2.836490E+04  1.124251E+04
       195  23 -2.965298E+06 -4.174952E+05 -5.190636E+04 -1.124328E+06 -5.682153E+04  4.855626E+03
       195  24 -2.954259E+06 -4.932012E+05 -1.090132E+05 -1.138947E+06 -8.439643E+04 -3.898883E+03
       195  25 -3.597948E+06 -6.881430E+05 -2.022035E+05 -1.325987E+06 -2.614714E+04  1.207343E+04
       195  26 -3.694370E+06 -6.947952E+05 -2.465295E+05 -1.325474E+06 -5.563155E+04  5.304013E+03
       195  27 -3.762640E+06 -8.091910E+05 -3.268782E+05 -1.370616E+06 -8.422974E+04 -3.831922E+03
       196   1 -1.999760E+06 -1.152354E+05  1.160573E+05 -9.514724E+05  1.125737E+05  8.188206E+03
       196   2 -1.937286E+06  3.916652E+04  4.802691E+04 -8.342532E+05  2.229890E+05  4.641345E+04
       196   3 -2.027381E+06 -3.315970E+05 -2.336110E+05 -6.387588E+05  3.239630E+05  1.097378E+05
       196   4 -2.973438E+06 -4.349733E+05 -1.337287E+05 -1.168457E+06  1.055484E+05  5.554721E+03
       196   5 -2.923602E+06 -3.635623E+05 -2.199405E+05 -1.135155E+06  2.270208E+05  4.791426E+04
       196   6 -3.028855E+06 -8.200341E+05 -5.288262E+05 -1.023507E+06  3.390388E+05  1.153559E+05
       196   7 -3.946200E+06 -7.547071E+05 -3.835910E+05 -1.385158E+06  9.853511E+04  2.924413E+03
       196   8 -3.908968E+06 -7.661847E+05 -4.879957E+05 -1.435606E+06  2.310453E+05  4.941179E+04
       196   9 -4.029320E+06 -1.308197E+06 -8.241372E+05 -1.407625E+06  3.540874E+05  1.209569E+05
       196  10 -1.999774E+06 -1.152389E+05  1.160333E+05 -9.514731E+05 -1.049186E-09 -6.034354E-11
       196  11 -1.937340E+06  3.915079E+04  4.792907E+04 -8.342615E+05 -2.145603E-09 -8.931028E-10
       196  12 -2.027497E+06 -3.316383E+05 -2.338317E+05 -6.387875E+05 -4.093597E-10 -6.167408E-10
       196  13 -2.973450E+06 -4.349763E+05 -1.337498E+05 -1.168457E+06  5.912496E-10  1.031468E-12
       196  14 -2.923658E+06 -3.635787E+05 -2.200422E+05 -1.135164E+06 -1.655781E-09 -8.400393E-10
       196  15 -3.028983E+06 -8.200795E+05 -5.290685E+05 -1.023539E+06  2.214638E-09 -3.366318E-10
       196  16 -3.946210E+06 -7.547097E+05 -3.836094E+05 -1.385158E+06  1.046945E-09 -1.467235E-10
       196  17 -3.909027E+06 -7.662018E+05 -4.881013E+05 -1.435615E+06  1.888168E-09 -1.618695E-09
       196  18 -4.029460E+06 -1.308247E+06 -8.244023E+05 -1.407659E+06  2.372642E-10 -7.157508E-10
       196  19 -1.999760E+06 -1.152354E+05  1.160573E+05 -9.514724E+05 -1.125737E+05 -8.188206E+03
       196  20 -1.937286E+06  3.916652E+04  4.802691E+04 -8.342532E+05 -2.229890E+05 -4.641345E+04
       196  21 -2.027381E+06 -3.315970E+05 -2.336110E+05 -6.387588E+05 -3.239630E+05 -1.097378E+05
       196  22 -2.973438E+06 -4.349733E+05 -1.337287E+05 -1.168457E+06 -1.055484E+05 -5.554721E+03
       196  23 -2.923602E+06 -3.635623E+05 -2.199405E+05 -1.135155E+06 -2.270208E+05 -4.791426E+04
       196  24 -3.028855E+06 -8.200341E+05 -5.288262E+05 -1.023507E+06 -3.390388E+05 -1.153559E+05
       196  25 -3.946200E+06 -7.547071E+05 -3.835910E+05 -1.385158E+06 -9.853511E+04 -2.924413E+03
       196  26 -3.908968E+06 -7.661847E+05 -4.879957E+05 -1.435606E+06 -2.310453E+05 -4.941179E+04
       196  27 -4.029320E+06 -1.308197E+06 -8.241372E+05 -1.407625E+06 -3.540874E+05 -1.209569E+05
       197   1  4.657797E+05  1.354113E+05  2.174976E+05  6.569774E+04  2.519653E+05  6.962541E+03
       197   2  4.626799E+05 -1.989372E+05  1.855102E+04  2.043908E+04  1.686181E+05  1.948987E+04
       197   3  5.652305E+05 -1.566644E+05 -3.184538E+04 -6.363945E+04  8.528748E+04  1.769968E+04
       197   4  1.134814E+06  3.016411E+05  3.824956E+05 -2.468435E+04  2.617057E+05  6.944295E+03
       197   5  1.081528E+06 -4.565581E+04  1.671002E+05 -4.981864E+03  1.713875E+05  1.948595E+04
       197   6  1.134979E+06 -1.534099E+04  1.049770E+05 -2.409739E+04  8.109393E+04  1.769895E+04
       197   7  1.804273E+06  4.678686E+05  5.474654E+05 -1.151640E+05  2.714564E+05  6.923241E+03
       197   8  1.700727E+06  1.076003E+05  3.156226E+05 -3.042837E+04  1.741597E+05  1.948181E+04
       197   9  1.705028E+06  1.259647E+05  2.417773E+05  1.548100E+04  7.689653E+04  1.769769E+04
       197  10  4.657115E+05  1.353942E+05  2.173783E+05  6.569633E+04 -8.370575E-10  1.009747E-09
       197  11  4.626493E+05 -1.989452E+05  1.849692E+04  2.043644E+04  7.989945E-10  7.589177E-11
       197  12  5.652226E+05 -1.566667E+05 -3.185963E+04 -6.364067E+04  1.633777E-09 -5.715512E-10
       197  13  1.134741E+06  3.016227E+05  3.823671E+05 -2.468581E+04 -1.625219E-09  4.180311E-10
       197  14  1.081496E+06 -4.566409E+04  1.670444E+05 -4.984552E+03 -1.030635E-09 -1.980214E-09
       197  15  1.134972E+06 -1.534308E+04  1.049641E+05 -2.409854E+04 -3.205854E-10 -5.570128E-10
       197  16  1.804194E+06  4.678488E+05  5.473272E+05 -1.151656E+05  8.400910E-10 -2.041977E-10
       197  17  1.700694E+06  1.075918E+05  3.155650E+05 -3.043110E+04  3.485810E-10 -4.815884E-10
       197  18  1.705021E+06  1.259627E+05  2.417656E+05  1.547990E+04 -1.185605E-09 -1.023493E-09
       197  19  4.657797E+05  1.354113E+05  2.174976E+05  6.569774E+04 -2.519653E+05 -6.962541E+03
       197  20  4.626799E+05 -1.989372E+05  1.855102E+04  2.043908E+04 -1.686181E+05 -1.948987E+04
       197  21  5.652305E+05 -1.566644E+05 -3.184538E+04 -6.363945E+04 -8.528748E+04 -1.769968E+04
       197  22  1.134814E+06  3.016411E+05  3.824956E+05 -2.468435E+04 -2.617057E+05 -6.944295E+03
       197  23  1.081528E+06 -4.565581E+04  1.671002E+05 -4.981864E+03 -1.713875E+05 -1.948595E+04
       197  24  1.134979E+06 -1.534099E+04  1.049770E+05 -2.409739E+04 -8.109393E+04 -1.769895E+04
       197  25  1.804273E+06  4.678686E+05  5.474654E+05 -1.151640E+05 -2.714564E+05 -6.923241E+03
       197  26  1.700727E+06  1.076003E+05  3.156226E+05 -3.042837E+04 -1.741597E+05 -1.948181E+04
       197  27  1.705028E+06  1.259647E+05  2.417773E+05  1.548100E+04 -7.689653E+04 -1.769769E+04
       198   1  6.123991E+05 -9.172054E+04 -3.507228E+04 -1.515609E+04  6.473424E+04  1.449825E+04
       198   2  6.522438E+05 -1.179857E+05 -6.601144E+04 -3.529043E+03  4.298130E+04  1.375620E+04
       198   3  7.055540E+05 -1.030172E+05 -7.241920E+04 -2.836557E+04  2.122679E+04  1.192328E+04
       198   4  1.114251E+06  3.269926E+04  8.575429E+04 -2.376839E+04  6.468544E+04  1.449650E+04
       198   5  1.107494E+06 -5.143164E+03  4.340055E+04 -5.522045E+03  4.239204E+04  1.375495E+04
       198   6  1.114284E+06 -1.675433E+03  2.593883E+04 -2.373718E+04  2.009869E+04  1.192243E+04
       198   7  1.616332E+06  1.571010E+05  2.065630E+05 -3.238774E+04  6.463659E+04  1.449475E+04
       198   8  1.562934E+06  1.076843E+05  1.527978E+05 -7.516546E+03  4.180234E+04  1.375371E+04
       198   9  1.523167E+06  9.965429E+04  1.242850E+05 -1.910574E+04  1.896985E+04  1.192157E+04
       198  10  6.123945E+05 -9.172189E+04 -3.508054E+04 -1.515684E+04  5.962941E-10 -1.379357E-09
       198  11  6.522418E+05 -1.179864E+05 -6.601527E+04 -3.529519E+03  1.498750E-10  6.801964E-10
       198  12  7.055535E+05 -1.030175E+05 -7.242032E+04 -2.836578E+04 -6.064590E-10 -2.499851E-10
       198  13  1.114246E+06  3.269791E+04  8.574604E+04 -2.376915E+04 -2.742265E-10 -7.520652E-10
       198  14  1.107492E+06 -5.143848E+03  4.339682E+04 -5.522514E+03  1.410016E-09  1.529962E-10
       198  15  1.114284E+06 -1.675694E+03  2.593780E+04 -2.373737E+04  1.026564E-09 -4.134182E-10
       198  16  1.616328E+06  1.570997E+05  2.065547E+05 -3.238849E+04  8.226588E-10  9.959662E-11
       198  17  1.562932E+06  1.076837E+05  1.527942E+05 -7.517009E+03 -5.764113E-10 -6.404570E-10
       198  18  1.523167E+06  9.965404E+04  1.242840E+05 -1.910592E+04 -1.833061E-10  1.500946E-10
       198  19  6.123991E+05 -9.172054E+04 -3.507228E+04 -1.515609E+04 -6.473424E+04 -1.449825E+04
       198  20  6.522438E+05 -1.179857E+05 -6.601144E+04 -3.529043E+03 -4.298130E+04 -1.375620E+04
       198  21  7.055540E+05 -1.030172E+05 -7.241920E+04 -2.836557E+04 -2.122679E+04 -1.192328E+04
       198  22  1.114251E+06  3.269926E+04  8.575429E+04 -2.376839E+04 -6.468544E+04 -1.449650E+04
       198  23  1.107494E+06 -5.143164E+03  4.340055E+04 -5.522045E+03 -4.239204E+04 -1.375495E+04
       198  24  1.114284E+06 -1.675433E+03  2.593883E+04 -2.373718E+04 -2.009869E+04 -1.192243E+04
       198  25  1.616332E+06  1.571010E+05  2.065630E+05 -3.238774E+04 -6.463659E+04 -1.449475E+04
       198  26  1.562934E+06  1.076843E+05  1.527978E+05 -7.516546E+03 -4.180234E+04 -1.375371E+04
       198  27  1.523167E+06  9.965429E+04  1.242850E+05 -1.910574E+04 -1.896985E+04 -1.192157E+04
       199   1  7.677075E+05 -8.178337E+04 -6.223264E+04 -2.276613E+04  1.679298E+04  1.070256E+04
       199   2  8.113465E+05 -7.480794E+04 -6.087687E+04 -5.871215E+03  1.125827E+04  8.998613E+03
       199   3  8.569535E+05 -6.334302E+04 -5.477237E+04 -2.393683E+04  5.721965E+03  7.232193E+03
       199   4  1.111722E+06  3.462718E+03  2.033877E+04 -2.341301E+04  1.599589E+04  1.070192E+04
       199   5  1.110742E+06 -6.002038E+02  1.108115E+04 -5.932893E+03  1.042833E+04  8.998229E+03
       199   6  1.111732E+06 -1.694187E+02  6.592952E+03 -2.341221E+04  4.859577E+03  7.232077E+03
       199   7  1.455844E+06  8.870022E+04  1.029018E+05 -2.406026E+04  1.519835E+04  1.070128E+04
       199   8  1.410219E+06  7.360102E+04  8.303280E+04 -5.994604E+03  9.597991E+03  8.997845E+03
       199   9  1.366569E+06  6.299946E+04  6.795365E+04 -2.288737E+04  3.996836E+03  7.231959E+03
       199  10  7.677072E+05 -8.178357E+04 -6.223338E+04 -2.276627E+04  2.245394E-10 -1.937615E-10
       199  11  8.113463E+05 -7.480806E+04 -6.087726E+04 -5.871296E+03  7.672620E-10 -1.309118E-10
       199  12  8.569535E+05 -6.334309E+04 -5.477253E+04 -2.393686E+04 -2.129049E-11  3.770200E-10
       199  13  1.111722E+06  3.462527E+03  2.033807E+04 -2.341315E+04  9.186178E-10 -3.390269E-10
       199  14  1.110742E+06 -6.003199E+02  1.108079E+04 -5.932969E+03  6.982568E-10 -3.499425E-11
       199  15  1.111732E+06 -1.694812E+02  6.592810E+03 -2.341224E+04  7.966789E-10  4.030475E-10
       199  16  1.455844E+06  8.870003E+04  1.029011E+05 -2.406040E+04  1.050578E-09 -3.173598E-10
       199  17  1.410219E+06  7.360091E+04  8.303248E+04 -5.994673E+03 -9.614747E-10 -2.019168E-10
       199  18  1.366569E+06  6.299940E+04  6.795352E+04 -2.288739E+04  5.911966E-10  4.502146E-10
       199  19  7.677075E+05 -8.178337E+04 -6.223264E+04 -2.276613E+04 -1.679298E+04 -1.070256E+04
       199  20  8.113465E+05 -7.480794E+04 -6.087687E+04 -5.871215E+03 -1.125827E+04 -8.998613E+03
       199  21  8.569535E+05 -6.334302E+04 -5.477237E+04 -2.393683E+04 -5.721965E+03 -7.232193E+03
       199  22  1.111722E+06  3.462718E+03  2.033877E+04 -2.341301E+04 -1.599589E+04 -1.070192E+04
       199  23  1.110742E+06 -6.002038E+02  1.108115E+04 -5.932893E+03 -1.042833E+04 -8.998229E+03
       199  24  1.111732E+06 -1.694187E+02  6.592952E+03 -2.341221E+04 -4.859577E+03 -7.232077E+03
       199  25  1.455844E+06  8.870022E+04  1.029018E+05 -2.406026E+04 -1.519835E+04 -1.070128E+04
       199  26  1.410219E+06  7.360102E+04  8.303280E+04 -5.994604E+03 -9.597991E+03 -8.997845E+03
       199  27  1.366569E+06  6.299946E+04  6.795365E+04 -2.288737E+04 -3.996836E+03 -7.231959E+03
       200   1  9.191529E+05 -4.726172E+04 -4.090521E+04 -2.317092E+04  4.636784E+03  6.200723E+03
       200   2  9.624641E+05 -3.693853E+04 -3.259038E+04 -6.178529E+03  3.063752E+03  4.467292E+03
       200   3  1.006121E+06 -2.609324E+04 -2.312050E+04 -2.324779E+04  1.490046E+03  2.740356E+03
       200   4  1.111378E+06  3.532224E+02  5.159234E+03 -2.321276E+04  3.802853E+03  6.200734E+03
       200   5  1.111208E+06 -7.430929E+01  3.156776E+03 -6.182230E+03  2.232484E+03  4.467426E+03
       200   6  1.111381E+06  1.981697E+01  2.307342E+03 -2.321284E+04  6.615482E+02  2.740618E+03
       200   7  1.303636E+06  4.796548E+04  5.122106E+04 -2.325462E+04  2.968666E+03  6.200746E+03
       200   8  1.259972E+06  3.678831E+04  3.890236E+04 -6.185931E+03  1.401017E+03  4.467560E+03
       200   9  1.216652E+06  2.613206E+04  2.773439E+04 -2.317789E+04 -1.670891E+02  2.740880E+03
       200  10  9.191528E+05 -4.726176E+04 -4.090532E+04 -2.317094E+04 -4.660183E-10  6.484464E-10
       200  11  9.624641E+05 -3.693856E+04 -3.259044E+04 -6.178540E+03 -2.098716E-09  5.409117E-10
       200  12  1.006121E+06 -2.609325E+04 -2.312052E+04 -2.324780E+04 -6.095821E-10 -2.438750E-10
       200  13  1.111378E+06  3.531772E+02  5.159134E+03 -2.321278E+04 -4.026935E-10  7.975612E-10
       200  14  1.111208E+06 -7.433207E+01  3.156729E+03 -6.182238E+03  1.352384E-09  1.353899E-10
       200  15  1.111381E+06  1.980878E+01  2.307327E+03 -2.321285E+04 -1.720219E-11 -5.773586E-10
       200  16  1.303636E+06  4.796544E+04  5.122098E+04 -2.325463E+04  1.102124E-09  5.362554E-10
       200  17  1.259972E+06  3.678829E+04  3.890232E+04 -6.185936E+03  3.236853E-09  4.989428E-11
       200  18  1.216652E+06  2.613206E+04  2.773438E+04 -2.317789E+04  1.597410E-09 -8.435299E-10
       200  19  9.191529E+05 -4.726172E+04 -4.090521E+04 -2.317092E+04 -4.636784E+03 -6.200723E+03
       200  20  9.624641E+05 -3.693853E+04 -3.259038E+04 -6.178529E+03 -3.063752E+03 -4.467292E+03
       200  21  1.006121E+06 -2.609324E+04 -2.312050E+04 -2.324779E+04 -1.490046E+03 -2.740356E+03
       200  22  1.111378E+06  3.532224E+02  5.159234E+03 -2.321276E+04 -3.802853E+03 -6.200734E+03
       200  23  1.111208E+06 -7.430929E+01  3.156776E+03 -6.182230E+03 -2.232484E+03 -4.467426E+03
       200  24  1.111381E+06  1.981697E+01  2.307342E+03 -2.321284E+04 -6.615482E+02 -2.740618E+03
       200  25  1.303636E+06  4.796548E+04  5.122106E+04 -2.325462E+04 -2.968666E+03 -6.200746E+03
       200  26  1.259972E+06  3.678831E+04  3.890236E+04 -6.185931E+03 -1.401017E+03 -4.467560E+03
       200  27  1.216652E+06  2.613206E+04  2.773439E+04 -2.317789E+04  1.670891E+02 -2.740880E+03
       201   1  1.067571E+06 -1.078631E+04 -8.239457E+03 -2.310724E+04  1.085248E+03  1.738084E+03
       201   2  1.110573E+06 -2.109968E+02  2.147810E+03 -6.260901E+03 -6.586311E+01  2.015039E+01
       201   3  1.153784E+06  1.071443E+04  1.336435E+04 -2.317687E+04 -1.217038E+03 -1.692851E+03
       201   4  1.111354E+06  3.759027E+01  2.149785E+03 -2.314644E+04  2.581763E+02  1.738390E+03
       201   5  1.111250E+06 -4.321189E+01  2.310561E+03 -6.265247E+03 -8.906043E+02  2.045288E+01
       201   6  1.111354E+06  2.259856E+02  3.299278E+03 -2.314636E+04 -2.039370E+03 -1.692546E+03
       201   7  1.155139E+06  1.086136E+04  1.253890E+04 -2.318564E+04 -5.689529E+02  1.738696E+03
       201   8  1.111927E+06  1.245734E+02  2.473315E+03 -6.269592E+03 -1.715346E+03  2.075539E+01
       201   9  1.068925E+06 -1.026259E+04 -6.765921E+03 -2.311585E+04 -2.861646E+03 -1.692241E+03
       201  10  1.067571E+06 -1.078632E+04 -8.239465E+03 -2.310724E+04 -2.602483E-10 -6.141884E-10
       201  11  1.110573E+06 -2.109968E+02  2.147810E+03 -6.260901E+03 -2.348717E-10 -3.426919E-10
       201  12  1.153784E+06  1.071442E+04  1.336435E+04 -2.317687E+04 -2.645441E-09  2.027682E-10
       201  13  1.111354E+06  3.758700E+01  2.149780E+03 -2.314644E+04 -3.451028E-10 -8.119753E-11
       201  14  1.111250E+06 -4.321210E+01  2.310560E+03 -6.265247E+03 -3.280726E-10  1.398335E-10
       201  15  1.111354E+06  2.259814E+02  3.299265E+03 -2.314637E+04 -4.191240E-10 -4.381315E-10
       201  16  1.155139E+06  1.086135E+04  1.253889E+04 -2.318563E+04  2.023922E-10 -3.618747E-10
       201  17  1.111927E+06  1.245726E+02  2.473310E+03 -6.269592E+03 -4.103091E-10  1.555297E-11
       201  18  1.068925E+06 -1.026259E+04 -6.765942E+03 -2.311586E+04  9.536016E-10 -8.157976E-11
       201  19  1.067571E+06 -1.078631E+04 -8.239457E+03 -2.310724E+04 -1.085248E+03 -1.738084E+03
       201  20  1.110573E+06 -2.109968E+02  2.147810E+03 -6.260901E+03  6.586311E+01 -2.015039E+01
       201  21  1.153784E+06  1.071443E+04  1.336435E+04 -2.317687E+04  1.217038E+03  1.692851E+03
       201  22  1.111354E+06  3.759027E+01  2.149785E+03 -2.314644E+04 -2.581763E+02 -1.738390E+03
       201  23  1.111250E+06 -4.321189E+01  2.310561E+03 -6.265247E+03  8.906043E+02 -2.045288E+01
       201  24  1.111354E+06  2.259856E+02  3.299278E+03 -2.314636E+04  2.039370E+03  1.692546E+03
       201  25  1.155139E+06  1.086136E+04  1.253890E+04 -2.318564E+04  5.689529E+02 -1.738696E+03
       201  26  1.111927E+06  1.245734E+02  2.473315E+03 -6.269592E+03  1.715346E+03 -2.075539E+01
       201  27  1.068925E+06 -1.026259E+04 -6.765921E+03 -2.311585E+04  2.861646E+03  1.692241E+03
       202   1  1.215463E+06  2.569299E+04  2.917988E+04 -2.292311E+04 -1.860678E+03 -2.702983E+03
       202   2  1.258391E+06  3.618051E+04  4.206253E+04 -6.267324E+03 -5.226887E+03 -4.428213E+03
       202   3  1.302434E+06  4.933919E+04  5.780227E+04 -2.366289E+04 -8.592822E+03 -6.098349E+03
       202   4  1.111551E+06 -8.219375E+01  4.080452E+03 -2.321089E+04 -2.703419E+03 -2.702714E+03
       202   5  1.110994E+06 -3.432538E+02  6.646310E+03 -6.184763E+03 -6.042461E+03 -4.428080E+03
       202   6  1.111546E+06  2.062543E+03  1.205095E+04 -2.321045E+04 -9.380996E+03 -6.098345E+03
       202   7  1.007649E+06 -2.585816E+04 -2.101975E+04 -2.349863E+04 -3.546020E+03 -2.702443E+03
       202   8  9.636173E+05 -3.686859E+04 -2.877146E+04 -6.102220E+03 -6.857842E+03 -4.427948E+03
       202   9  9.206907E+05 -4.521675E+04 -3.370295E+04 -2.275816E+04 -1.016893E+04 -6.098342E+03
       202  10  1.215463E+06  2.569298E+04  2.917986E+04 -2.292311E+04  2.273106E-10  4.454146E-10
       202  11  1.258391E+06  3.618048E+04  4.206245E+04 -6.267343E+03  1.167355E-09 -2.181139E-10
       202  12  1.302434E+06  4.933913E+04  5.780206E+04 -2.366293E+04  3.164145E-10  1.165309E-10
       202  13  1.111551E+06 -8.220356E+01  4.080424E+03 -2.321090E+04 -5.597943E-10 -1.671712E-10
       202  14  1.110994E+06 -3.432846E+02  6.646205E+03 -6.184784E+03 -1.495517E-09 -6.508461E-10
       202  15  1.111546E+06  2.062479E+03  1.205071E+04 -2.321050E+04  2.406479E-10  1.496344E-10
       202  16  1.007649E+06 -2.585817E+04 -2.101979E+04 -2.349864E+04  2.702657E-10  3.059130E-10
       202  17  9.636172E+05 -3.686863E+04 -2.877158E+04 -6.102244E+03 -1.790339E-09 -9.791081E-11
       202  18  9.206906E+05 -4.521681E+04 -3.370321E+04 -2.275820E+04  1.169748E-09  6.885524E-11
       202  19  1.215463E+06  2.569299E+04  2.917988E+04 -2.292311E+04  1.860678E+03  2.702983E+03
       202  20  1.258391E+06  3.618051E+04  4.206253E+04 -6.267324E+03  5.226887E+03  4.428213E+03
       202  21  1.302434E+06  4.933919E+04  5.780227E+04 -2.366289E+04  8.592822E+03  6.098349E+03
       202  22  1.111551E+06 -8.219375E+01  4.080452E+03 -2.321089E+04  2.703419E+03  2.702714E+03
       202  23  1.110994E+06 -3.432538E+02  6.646310E+03 -6.184763E+03  6.042461E+03  4.428080E+03
       202  24  1.111546E+06  2.062543E+03  1.205095E+04 -2.321045E+04  9.380996E+03  6.098345E+03
       202  25  1.007649E+06 -2.585816E+04 -2.101975E+04 -2.349863E+04  3.546020E+03  2.702443E+03
       202  26  9.636173E+05 -3.686859E+04 -2.877146E+04 -6.102220E+03  6.857842E+03  4.427948E+03
       202  27  9.206907E+05 -4.521675E+04 -3.370295E+04 -2.275816E+04  1.016893E+04  6.098342E+03
       203   1  1.366506E+06  6.185580E+04  7.634731E+04 -2.077009E+04 -1.077014E+04 -7.240410E+03
       203   2  1.407140E+06  7.082697E+04  9.721005E+04 -7.239811E+03 -2.433297E+04 -8.990312E+03
       203   3  1.455763E+06  1.042274E+05  1.330202E+05 -2.863886E+04 -3.789604E+04 -9.904636E+03
       203   4  1.113054E+06 -9.662319E+02  1.533564E+04 -2.340472E+04 -1.180919E+04 -7.240466E+03
       203   5  1.109083E+06 -3.020278E+03  2.561038E+04 -5.942004E+03 -2.496466E+04 -8.990719E+03
       203   6  1.113033E+06  1.929117E+04  5.055563E+04 -2.340939E+04 -3.811940E+04 -9.905381E+03
       203   7  8.596605E+05 -6.379291E+04 -4.568060E+04 -2.603827E+04 -1.284782E+04 -7.240513E+03
       203   8  8.111071E+05 -7.687397E+04 -4.599559E+04 -4.644824E+03 -2.559605E+04 -8.991128E+03
       203   9  7.704101E+05 -6.565352E+04 -3.191724E+04 -1.818281E+04 -3.834264E+04 -9.906129E+03
       203  10  1.366506E+06  6.185571E+04  7.634699E+04 -2.077016E+04 -2.212855E-10  9.716371E-11
       203  11  1.407140E+06  7.082672E+04  9.720878E+04 -7.239987E+03 -3.987564E-11 -5.357612E-11
       203  12  1.455762E+06  1.042269E+05  1.330173E+05 -2.863916E+04 -1.088953E-09  5.592384E-11
       203  13  1.113054E+06 -9.663256E+02  1.533528E+04 -2.340479E+04 -1.100155E-09  5.618921E-12
       203  14  1.109082E+06 -3.020532E+03  2.560906E+04 -5.942185E+03  1.599780E-10  1.384170E-10
       203  15  1.113032E+06  1.929068E+04  5.055272E+04 -2.340969E+04  1.393296E-09  1.208760E-10
       203  16  8.596603E+05 -6.379301E+04 -4.568101E+04 -2.603834E+04  2.486187E-10 -2.632280E-11
       203  17  8.111063E+05 -7.687423E+04 -4.599697E+04 -4.645009E+03 -1.174101E-09 -2.142418E-10
       203  18  7.704085E+05 -6.565402E+04 -3.192019E+04 -1.818312E+04 -1.940619E-10  5.144329E-10
       203  19  1.366506E+06  6.185580E+04  7.634731E+04 -2.077009E+04  1.077014E+04  7.240410E+03
       203  20  1.407140E+06  7.082697E+04  9.721005E+04 -7.239811E+03  2.433297E+04  8.990312E+03
       203  21  1.455763E+06  1.042274E+05  1.330202E+05 -2.863886E+04  3.789604E+04  9.904636E+03
       203  22  1.113054E+06 -9.662319E+02  1.533564E+04 -2.340472E+04  1.180919E+04  7.240466E+03
       203  23  1.109083E+06 -3.020278E+03  2.561038E+04 -5.942004E+03  2.496466E+04  8.990719E+03
       203  24  1.113033E+06  1.929117E+04  5.055563E+04 -2.340939E+04  3.811940E+04  9.905381E+03
       203  25  8.596605E+05 -6.379291E+04 -4.568060E+04 -2.603827E+04  1.284782E+04  7.240513E+03
       203  26  8.111071E+05 -7.687397E+04 -4.599559E+04 -4.644824E+03  2.559605E+04  8.991128E+03
       203  27  7.704101E+05 -6.565352E+04 -3.191724E+04 -1.818281E+04  3.834264E+04  9.906129E+03
       204   1  1.532725E+06  9.193750E+04  1.596886E+05 -5.205087E+02 -4.441968E+04 -1.253307E+04
       204   2  1.547537E+06  8.546285E+04  2.073377E+05 -2.077209E+04 -1.029165E+05 -1.417157E+04
       204   3  1.626082E+06  3.023993E+05  3.489229E+05 -7.737660E+04 -1.614264E+05 -4.914416E+03
       204   4  1.125253E+06 -9.022525E+03  6.188076E+04 -2.367313E+04 -4.779220E+04 -1.253339E+04
       204   5  1.093768E+06 -2.690325E+04  9.848031E+04 -5.582782E+03 -1.010177E+05 -1.417343E+04
       204   6  1.125149E+06  1.777963E+05  2.254085E+05 -2.384276E+04 -1.542514E+05 -4.921506E+03
       204   7  7.179331E+05 -1.099926E+05 -3.593850E+04 -4.681055E+04 -5.116250E+04 -1.253347E+04
       204   8  6.401881E+05 -1.392834E+05 -1.039153E+04  9.595367E+03 -9.912024E+04 -1.417519E+04
       204   9  6.244485E+05  5.318549E+04  1.018773E+05  2.964788E+04 -1.470821E+05 -4.927368E+03
       204  10  1.532723E+06  9.193681E+04  1.596846E+05 -5.209568E+02  1.058679E-09 -1.122208E-10
       204  11  1.547525E+06  8.545980E+04  2.073175E+05 -2.077326E+04  1.029143E-09 -6.020954E-10
       204  12  1.626055E+06  3.023923E+05  3.488740E+05 -7.737724E+04  5.869157E-10  2.417591E-10
       204  13  1.125250E+06 -9.023306E+03  6.187618E+04 -2.367361E+04 -1.992864E-09 -6.737629E-10
       204  14  1.093757E+06 -2.690620E+04  9.846079E+04 -5.583934E+03  3.345009E-10 -3.021074E-11
       204  15  1.125123E+06  1.777899E+05  2.253638E+05 -2.384337E+04  3.599830E-10 -4.558682E-10
       204  16  7.179302E+05 -1.099935E+05 -3.594371E+04 -4.681106E+04 -9.900795E-10  4.835881E-10
       204  17  6.401775E+05 -1.392863E+05 -1.041035E+04  9.594236E+03 -1.222919E-09 -1.956667E-10
       204  18  6.244253E+05  5.317966E+04  1.018366E+05  2.964730E+04 -2.909828E-10  8.957691E-10
       204  19  1.532725E+06  9.193750E+04  1.596886E+05 -5.205087E+02  4.441968E+04  1.253307E+04
       204  20  1.547537E+06  8.546285E+04  2.073377E+05 -2.077209E+04  1.029165E+05  1.417157E+04
       204  21  1.626082E+06  3.023993E+05  3.489229E+05 -7.737660E+04  1.614264E+05  4.914416E+03
       204  22  1.125253E+06 -9.022525E+03  6.188076E+04 -2.367313E+04  4.779220E+04  1.253339E+04
       204  23  1.093768E+06 -2.690325E+04  9.848031E+04 -5.582782E+03  1.010177E+05  1.417343E+04
       204  24  1.125149E+06  1.777963E+05  2.254085E+05 -2.384276E+04  1.542514E+05  4.921506E+03
       204  25  7.179331E+05 -1.099926E+05 -3.593850E+04 -4.681055E+04  5.116250E+04  1.253347E+04
       204  26  6.401881E+05 -1.392834E+05 -1.039153E+04  9.595367E+03  9.912024E+04  1.417519E+04
       204  27  6.244485E+05  5.318549E+04  1.018773E+05  2.964788E+04  1.470821E+05  4.927368E+03
       205   1  5.930875E+05  1.746587E+06  5.751392E+05 -6.259080E+05  2.149821E+04  1.898388E+05
       205   2  3.966329E+05  1.226478E+06  3.498090E+05 -5.499631E+05  6.643142E+04  7.371963E+04
       205   3  2.576566E+05  7.356887E+05  2.142750E+05 -5.713484E+05  6.273249E+04 -4.240023E+04
       205   4  8.097600E+04 -3.242764E+05  8.543101E+04 -5.701668E+05  2.193771E+04  5.725241E+04
       205   5  2.407547E+04 -3.304853E+05  4.410996E+04 -5.216201E+05  6.657905E+04  3.479545E+04
       205   6  8.513444E+03 -3.237734E+05  2.770553E+04 -5.703960E+05  6.254218E+04  1.223897E+04
       205   7 -4.314228E+05 -2.391160E+06 -4.045072E+05 -5.146074E+05  2.235435E+04 -7.489530E+04
       205   8 -3.486249E+05 -1.885123E+06 -2.617005E+05 -4.933469E+05  6.672337E+04 -4.033418E+03
       205   9 -2.406895E+05 -1.382132E+06 -1.588937E+05 -5.694438E+05  6.235183E+04  6.678775E+04
       205  10  5.930774E+05  1.746548E+06  5.750708E+05 -6.259113E+05  5.695953E-10  1.334913E-08
       205  11  3.966267E+05  1.226471E+06  3.497905E+05 -5.499671E+05  2.767577E-10 -2.108986E-08
       205  12  2.576519E+05  7.356857E+05  2.142643E+05 -5.713463E+05  1.763888E-09 -4.819549E-08
       205  13  8.097460E+04 -3.242800E+05  8.542393E+04 -5.701678E+05  3.218501E-10  3.800589E-11
       205  14  2.407039E+04 -3.304877E+05  4.409935E+04 -5.216220E+05  1.488807E-09 -2.665786E-09
       205  15  8.509204E+03 -3.237746E+05  2.769789E+04 -5.703966E+05  3.012209E-09 -3.348812E-09
       205  16 -4.314248E+05 -2.391167E+06 -4.045187E+05 -5.146061E+05 -6.805000E-10 -1.233942E-08
       205  17 -3.486297E+05 -1.885125E+06 -2.617089E+05 -4.933467E+05  3.263719E-09  1.828575E-08
       205  18 -2.406949E+05 -1.382138E+06 -1.589094E+05 -5.694472E+05  2.121161E-09  4.736494E-08
       205  19  5.930875E+05  1.746587E+06  5.751392E+05 -6.259080E+05 -2.149821E+04 -1.898388E+05
       205  20  3.966329E+05  1.226478E+06  3.498090E+05 -5.499631E+05 -6.643142E+04 -7.371963E+04
       205  21  2.576566E+05  7.356887E+05  2.142750E+05 -5.713484E+05 -6.273249E+04  4.240023E+04
       205  22  8.097600E+04 -3.242764E+05  8.543101E+04 -5.701668E+05 -2.193771E+04 -5.725241E+04
       205  23  2.407547E+04 -3.304853E+05  4.410996E+04 -5.216201E+05 -6.657905E+04 -3.479545E+04
       205  24  8.513444E+03 -3.237734E+05  2.770553E+04 -5.703960E+05 -6.254218E+04 -1.223897E+04
       205  25 -4.314228E+05 -2.391160E+06 -4.045072E+05 -5.146074E+05 -2.235435E+04  7.489530E+04
       205  26 -3.486249E+05 -1.885123E+06 -2.617005E+05 -4.933469E+05 -6.672337E+04  4.033418E+03
       205  27 -2.406895E+05 -1.382132E+06 -1.588937E+05 -5.694438E+05 -6.235183E+04 -6.678775E+04
       206   1  1.809848E+05  4.090659E+05  1.521800E+05 -5.757886E+05  4.450777E+04 -4.421579E+04
       206   2  5.897688E+04 -9.744105E+04  5.820168E+04 -5.211939E+05  1.671941E+04 -5.703417E+04
       206   3 -5.597621E+04 -6.009202E+05 -2.586492E+04 -5.670817E+05 -1.213996E+04 -6.985018E+04
       206   4  8.286291E+03 -3.259973E+05  2.384944E+04 -5.710791E+05  4.431600E+04  8.211346E+03
       206   5  5.657800E+03 -3.271690E+05  2.138430E+04 -5.208361E+05  1.651630E+04 -2.564073E+03
       206   6  9.741663E+03 -3.259192E+05  2.741091E+04 -5.710746E+05 -1.235485E+04 -1.334685E+04
       206   7 -1.644401E+05 -1.060525E+06 -1.044900E+05 -5.663748E+05  4.412488E+04  6.057830E+04
       206   8 -4.766234E+04 -5.568381E+05 -1.542331E+04 -5.204784E+05  1.631320E+04  5.188659E+04
       206   9  7.545678E+04 -5.083866E+04  8.069520E+04 -5.750692E+05 -1.257042E+04  4.318097E+04
       206  10  1.809822E+05  4.090633E+05  1.521726E+05 -5.757870E+05  5.596908E-10  1.116047E-07
       206  11  5.897571E+04 -9.744461E+04  5.819504E+04 -5.211932E+05  6.511698E-10  1.859794E-08
       206  12 -5.597768E+04 -6.009255E+05 -2.587438E+04 -5.670824E+05 -8.975750E-10 -7.007201E-08
       206  13  8.284164E+03 -3.259979E+05  2.384562E+04 -5.710794E+05  5.077673E-10 -1.504709E-10
       206  14  5.657506E+03 -3.271691E+05  2.138378E+04 -5.208361E+05 -2.150131E-09 -3.150979E-09
       206  15  9.741451E+03 -3.259195E+05  2.741028E+04 -5.710747E+05 -1.697538E-09 -3.354203E-09
       206  16 -1.644431E+05 -1.060530E+06 -1.045006E+05 -5.663769E+05  1.548436E-09 -1.109796E-07
       206  17 -4.766335E+04 -5.568411E+05 -1.542888E+04 -5.204790E+05 -2.306302E-09 -2.277736E-08
       206  18  7.545611E+04 -5.084071E+04  8.069140E+04 -5.750687E+05 -2.050446E-09  6.980066E-08
       206  19  1.809848E+05  4.090659E+05  1.521800E+05 -5.757886E+05 -4.450777E+04  4.421579E+04
       206  20  5.897688E+04 -9.744105E+04  5.820168E+04 -5.211939E+05 -1.671941E+04  5.703417E+04
       206  21 -5.597621E+04 -6.009202E+05 -2.586492E+04 -5.670817E+05  1.213996E+04  6.985018E+04
       206  22  8.286291E+03 -3.259973E+05  2.384944E+04 -5.710791E+05 -4.431600E+04 -8.211346E+03
       206  23  5.657800E+03 -3.271690E+05  2.138430E+04 -5.208361E+05 -1.651630E+04  2.564073E+03
       206  24  9.741663E+03 -3.259192E+05  2.741091E+04 -5.710746E+05  1.235485E+04  1.334685E+04
       206  25 -1.644401E+05 -1.060525E+06 -1.044900E+05 -5.663748E+05 -4.412488E+04 -6.057830E+04
       206  26 -4.766234E+04 -5.568381E+05 -1.542331E+04 -5.204784E+05 -1.631320E+04 -5.188659E+04
       206  27  7.545678E+04 -5.083866E+04  8.069520E+04 -5.750692E+05  1.257042E+04 -4.318097E+04
       207   1 -1.316936E+05 -9.213290E+05 -7.705416E+04 -5.713638E+05 -3.118361E+04 -7.615850E+04
       207   2 -2.333497E+05 -1.427871E+06 -1.653165E+05 -4.869714E+05 -4.245165E+04 -3.106952E+04
       207   3 -2.947464E+05 -1.930453E+06 -2.730432E+05 -5.006939E+05 -1.523730E+04  1.407283E+04
       207   4  1.015335E+04 -3.228447E+05  3.332259E+04 -5.705676E+05 -3.140085E+04 -1.802128E+04
       207   5  3.072060E+04 -3.312673E+05  5.595770E+04 -5.213754E+05 -4.238836E+04 -4.672012E+04
       207   6  1.043306E+05 -3.231928E+05  1.103951E+05 -5.702586E+05 -1.492988E+04 -7.532935E+04
       207   7  1.519817E+05  2.759947E+05  1.436972E+05 -5.697703E+05 -3.161781E+04  4.017058E+04
       207   8  2.947206E+05  7.664867E+05  2.771715E+05 -5.558400E+05 -4.232341E+04 -6.239782E+04
       207   9  5.032422E+05  1.286469E+06  4.936841E+05 -6.400017E+05 -1.460288E+04 -1.649623E+05
       207  10 -1.316962E+05 -9.213355E+05 -7.706691E+04 -5.713657E+05 -3.818892E-10  6.565451E-08
       207  11 -2.333519E+05 -1.427872E+06 -1.653217E+05 -4.869724E+05  2.386773E-09 -2.955248E-10
       207  12 -2.947467E+05 -1.930453E+06 -2.730440E+05 -5.006938E+05  9.133386E-10 -6.053294E-08
       207  13  1.015220E+04 -3.228453E+05  3.332013E+04 -5.705681E+05  9.378325E-10 -2.401804E-10
       207  14  3.071809E+04 -3.312701E+05  5.595021E+04 -5.213770E+05 -3.113011E-09 -2.981879E-09
       207  15  1.043289E+05 -3.231989E+05  1.103840E+05 -5.702595E+05  6.713523E-10 -2.785000E-09
       207  16  1.519802E+05  2.759927E+05  1.436923E+05 -5.697693E+05 -1.894079E-09 -6.504979E-08
       207  17  2.947176E+05  7.664820E+05  2.771608E+05 -5.558422E+05 -4.578493E-10 -3.730148E-09
       207  18  5.032347E+05  1.286440E+06  4.936327E+05 -6.400036E+05  6.187399E-10  6.032506E-08
       207  19 -1.316936E+05 -9.213290E+05 -7.705416E+04 -5.713638E+05  3.118361E+04  7.615850E+04
       207  20 -2.333497E+05 -1.427871E+06 -1.653165E+05 -4.869714E+05  4.245165E+04  3.106952E+04
       207  21 -2.947464E+05 -1.930453E+06 -2.730432E+05 -5.006939E+05  1.523730E+04 -1.407283E+04
       207  22  1.015335E+04 -3.228447E+05  3.332259E+04 -5.705676E+05  3.140085E+04  1.802128E+04
       207  23  3.072060E+04 -3.312673E+05  5.595770E+04 -5.213754E+05  4.238836E+04  4.672012E+04
       207  24  1.043306E+05 -3.231928E+05  1.103951E+05 -5.702586E+05  1.492988E+04  7.532935E+04
       207  25  1.519817E+05  2.759947E+05  1.436972E+05 -5.697703E+05  3.161781E+04 -4.017058E+04
       207  26  2.947206E+05  7.664867E+05  2.771715E+05 -5.558400E+05  4.232341E+04  6.239782E+04
       207  27  5.032422E+05  1.286469E+06  4.936841E+05 -6.400017E+05  1.460288E+04  1.649623E+05
       208   1 -2.471897E+06 -9.576638E+05 -5.033933E+05 -9.304868E+05 -1.811817E+05 -3.656369E+04
       208   2 -2.313501E+06 -8.523944E+05 -3.605193E+05 -8.766629E+05 -1.159870E+05  6.209089E+04
       208   3 -2.152899E+06 -7.946183E+05 -2.908436E+05 -8.463057E+05 -3.280691E+04  1.132149E+05
       208   4 -5.895025E+05 -2.406635E+05 -1.829316E+04 -4.045991E+05 -2.240862E+04  2.328077E+04
       208   5 -5.980001E+05 -2.184110E+05 -8.628489E+03 -3.954487E+05 -4.231702E+04  8.980825E+04
       208   6 -5.873583E+05 -2.267101E+05 -4.488402E+03 -4.097799E+05 -4.429565E+04  1.088600E+05
       208   7  1.296351E+06  4.765906E+05  4.666056E+05  1.227441E+05  1.368887E+05  8.332903E+04
       208   8  1.120532E+06  4.158361E+05  3.431303E+05  8.700133E+04  3.157207E+04  1.176096E+05
       208   9  9.807867E+05  3.414386E+05  2.817849E+05  2.778063E+04 -5.581562E+04  1.044935E+05
       208  10 -2.471932E+06 -9.576741E+05 -5.034578E+05 -9.304922E+05 -8.837162E-09 -2.336102E-09
       208  11 -2.313517E+06 -8.524022E+05 -3.605518E+05 -8.766571E+05  1.669911E-08  7.835160E-09
       208  12 -2.152903E+06 -7.946323E+05 -2.908697E+05 -8.463027E+05  4.809009E-08  1.810249E-08
       208  13 -5.895032E+05 -2.406642E+05 -1.829513E+04 -4.045987E+05 -1.191291E-09 -5.882993E-10
       208  14 -5.980042E+05 -2.184202E+05 -8.647003E+03 -3.954456E+05 -1.559143E-09 -3.701302E-09
       208  15 -5.873636E+05 -2.267233E+05 -4.514348E+03 -4.097760E+05  5.724169E-09  2.907124E-09
       208  16  1.296329E+06  4.765782E+05  4.665575E+05  1.227349E+05  5.804760E-09  1.559088E-09
       208  17  1.120528E+06  4.158210E+05  3.431024E+05  8.699834E+04 -1.615100E-08 -8.751667E-09
       208  18  9.807804E+05  3.414260E+05  2.817585E+05  2.778532E+04 -3.407021E-08 -1.294520E-08
       208  19 -2.471897E+06 -9.576638E+05 -5.033933E+05 -9.304868E+05  1.811817E+05  3.656369E+04
       208  20 -2.313501E+06 -8.523944E+05 -3.605193E+05 -8.766629E+05  1.159870E+05 -6.209089E+04
       208  21 -2.152899E+06 -7.946183E+05 -2.908436E+05 -8.463057E+05  3.280691E+04 -1.132149E+05
       208  22 -5.895025E+05 -2.406635E+05 -1.829316E+04 -4.045991E+05  2.240862E+04 -2.328077E+04
       208  23 -5.980001E+05 -2.184110E+05 -8.628489E+03 -3.954487E+05  4.231702E+04 -8.980825E+04
       208  24 -5.873583E+05 -2.267101E+05 -4.488402E+03 -4.097799E+05  4.429565E+04 -1.088600E+05
       208  25  1.296351E+06  4.765906E+05  4.666056E+05  1.227441E+05 -1.368887E+05 -8.332903E+04
       208  26  1.120532E+06  4.158361E+05  3.431303E+05  8.700133E+04 -3.157207E+04 -1.176096E+05
       208  27  9.807867E+05  3.414386E+05  2.817849E+05  2.778063E+04  5.581562E+04 -1.044935E+05
       209   1 -2.045251E+06 -7.565241E+05 -2.667538E+05 -8.180410E+05 -3.539074E+04  1.068020E+05
       209   2 -1.896147E+06 -6.831037E+05 -2.283242E+05 -7.591520E+05 -2.433276E+04  1.042237E+05
       209   3 -1.723815E+06 -6.365389E+05 -1.969287E+05 -7.284942E+05 -1.161986E+04  9.722369E+04
       209   4 -5.862668E+05 -2.271577E+05 -3.377706E+03 -4.101954E+05 -4.200093E+04  1.042872E+05
       209   5 -5.985022E+05 -2.139789E+05 -1.800827E+03 -3.962469E+05 -3.886264E+04  9.873875E+04
       209   6 -5.859656E+05 -2.260797E+05 -9.666442E+02 -4.105350E+05 -3.407383E+04  8.877304E+04
       209   7  8.749636E+05  3.024132E+05  2.599247E+05 -1.453200E+03 -4.862777E+04  1.017662E+05
       209   8  7.009229E+05  2.553085E+05  2.246703E+05 -3.263264E+04 -5.342489E+04  9.324168E+04
       209   9  5.532499E+05  1.845028E+05  1.949570E+05 -9.203249E+04 -5.657147E+04  8.030601E+04
       209  10 -2.045255E+06 -7.565366E+05 -2.667775E+05 -8.180379E+05 -3.630220E-08 -1.480717E-08
       209  11 -1.896151E+06 -6.831156E+05 -2.283457E+05 -7.591500E+05 -4.592096E-09 -3.493018E-09
       209  12 -1.723818E+06 -6.365491E+05 -1.969467E+05 -7.284933E+05  3.212494E-08  1.341489E-08
       209  13 -5.862716E+05 -2.271698E+05 -3.401449E+03 -4.101918E+05  3.800619E-09  2.078925E-09
       209  14 -5.985065E+05 -2.139898E+05 -1.821978E+03 -3.962438E+05 -1.637575E-09 -6.331382E-10
       209  15 -5.859689E+05 -2.260885E+05 -9.836287E+02 -4.105325E+05 -3.768555E-09 -5.764145E-10
       209  16  8.749582E+05  3.024014E+05  2.599008E+05 -1.449217E+03  5.177846E-08  2.096927E-08
       209  17  7.009175E+05  2.552984E+05  2.246486E+05 -3.262863E+04  5.376506E-09  3.737245E-09
       209  18  5.532447E+05  1.844950E+05  1.949389E+05 -9.202883E+04 -3.724384E-08 -1.422102E-08
       209  19 -2.045251E+06 -7.565241E+05 -2.667538E+05 -8.180410E+05  3.539074E+04 -1.068020E+05
       209  20 -1.896147E+06 -6.831037E+05 -2.283242E+05 -7.591520E+05  2.433276E+04 -1.042237E+05
       209  21 -1.723815E+06 -6.365389E+05 -1.969287E+05 -7.284942E+05  1.161986E+04 -9.722369E+04
       209  22 -5.862668E+05 -2.271577E+05 -3.377706E+03 -4.101954E+05  4.200093E+04 -1.042872E+05
       209  23 -5.985022E+05 -2.139789E+05 -1.800827E+03 -3.962469E+05  3.886264E+04 -9.873875E+04
       209  24 -5.859656E+05 -2.260797E+05 -9.666442E+02 -4.105350E+05  3.407383E+04 -8.877304E+04
       209  25  8.749636E+05  3.024132E+05  2.599247E+05 -1.453200E+03  4.862777E+04 -1.017662E+05
       209  26  7.009229E+05  2.553085E+05  2.246703E+05 -3.263264E+04  5.342489E+04 -9.324168E+04
       209  27  5.532499E+05  1.845028E+05  1.949570E+05 -9.203249E+04  5.657147E+04 -8.030601E+04
       210   1 -1.619803E+06 -5.988566E+05 -1.777987E+05 -6.995894E+05 -9.144495E+03  8.972263E+04
       210   2 -1.471125E+06 -5.278740E+05 -1.495203E+05 -6.401505E+05 -3.483825E+03  7.759807E+04
       210   3 -1.297387E+06 -4.821553E+05 -1.219721E+05 -6.094070E+05  2.325125E+03  6.505361E+04
       210   4 -5.858422E+05 -2.260803E+05 -7.381077E+02 -4.106079E+05 -3.116377E+04  8.144147E+04
       210   5 -5.983580E+05 -2.133835E+05 -4.301316E+02 -3.962850E+05 -2.625628E+04  6.904276E+04
       210   6 -5.857006E+05 -2.258038E+05 -2.595226E+02 -4.106668E+05 -2.120092E+04  5.622441E+04
       210   7  4.492690E+05  1.468064E+05  1.762978E+05 -1.211717E+05 -5.322237E+04  7.314555E+04
       210   8  2.752255E+05  1.011846E+05  1.486425E+05 -1.520965E+05 -4.906296E+04  6.047461E+04
       210   9  1.265266E+05  3.059836E+04  1.214414E+05 -2.117126E+05 -4.475569E+04  4.738444E+04
       210  10 -1.619805E+06 -5.988653E+05 -1.778140E+05 -6.995887E+05  2.770347E-08  1.288937E-08
       210  11 -1.471126E+06 -5.278805E+05 -1.495316E+05 -6.401502E+05  5.032534E-10  2.149596E-09
       210  12 -1.297388E+06 -4.821599E+05 -1.219801E+05 -6.094071E+05 -4.126300E-08 -1.539536E-08
       210  13 -5.858450E+05 -2.260877E+05 -7.523914E+02 -4.106059E+05  9.634369E-10  2.211084E-09
       210  14 -5.983600E+05 -2.133888E+05 -4.403811E+02 -3.962836E+05  8.699160E-09  6.240288E-09
       210  15 -5.857019E+05 -2.258073E+05 -2.663052E+02 -4.106658E+05  4.267157E-09  3.063311E-09
       210  16  4.492645E+05  1.467999E+05  1.762825E+05 -1.211686E+05 -2.310634E-08 -8.066955E-09
       210  17  2.752219E+05  1.011801E+05  1.486311E+05 -1.520941E+05  2.133690E-08  1.006946E-08
       210  18  1.265238E+05  3.059542E+04  1.214335E+05 -2.117109E+05  4.880859E-08  2.146786E-08
       210  19 -1.619803E+06 -5.988566E+05 -1.777987E+05 -6.995894E+05  9.144495E+03 -8.972263E+04
       210  20 -1.471125E+06 -5.278740E+05 -1.495203E+05 -6.401505E+05  3.483825E+03 -7.759807E+04
       210  21 -1.297387E+06 -4.821553E+05 -1.219721E+05 -6.094070E+05 -2.325125E+03 -6.505361E+04
       210  22 -5.858422E+05 -2.260803E+05 -7.381077E+02 -4.106079E+05  3.116377E+04 -8.144147E+04
       210  23 -5.983580E+05 -2.133835E+05 -4.301316E+02 -3.962850E+05  2.625628E+04 -6.904276E+04
       210  24 -5.857006E+05 -2.258038E+05 -2.595226E+02 -4.106668E+05  2.120092E+04 -5.622441E+04
       210  25  4.492690E+05  1.468064E+05  1.762978E+05 -1.211717E+05  5.322237E+04 -7.314555E+04
       210  26  2.752255E+05  1.011846E+05  1.486425E+05 -1.520965E+05  4.906296E+04 -6.047461E+04
       210  27  1.265266E+05  3.059836E+04  1.214414E+05 -2.117126E+05  4.475569E+04 -4.738444E+04
       211   1 -1.193446E+06 -4.445418E+05 -1.033922E+05 -5.804522E+05  5.203056E+03  5.741477E+04
       211   2 -1.044477E+06 -3.737822E+05 -7.619808E+04 -5.209249E+05  1.030430E+04  4.436892E+04
       211   3 -8.703253E+05 -3.281809E+05 -4.913167E+04 -4.901894E+05  1.541587E+04  3.128173E+04
       211   4 -5.856674E+05 -2.257748E+05 -2.263705E+02 -4.106890E+05 -1.829450E+04  4.860027E+04
       211   5 -5.982187E+05 -2.131346E+05 -2.130691E+02 -3.963028E+05 -1.326915E+04  3.553058E+04
       211   6 -5.856001E+05 -2.256401E+05 -2.700081E+02 -4.107184E+05 -8.233487E+03  2.241947E+04
       211   7  2.249938E+04 -6.973068E+03  1.029301E+05 -2.407713E+05 -4.181630E+04  3.977668E+04
       211   8 -1.517469E+05 -5.246681E+04  7.576890E+04 -2.715964E+05 -3.686062E+04  2.668547E+04
       211   9 -3.007844E+05 -1.230897E+05  4.859258E+04 -3.312120E+05 -3.189463E+04  1.355279E+04
       211  10 -1.193447E+06 -4.445454E+05 -1.033984E+05 -5.804525E+05 -1.847749E-09 -1.514721E-09
       211  11 -1.044478E+06 -3.737843E+05 -7.620199E+04 -5.209253E+05 -2.247128E-09 -1.783862E-09
       211  12 -8.703258E+05 -3.281820E+05 -4.913395E+04 -4.901898E+05 -1.489741E-09 -2.473689E-09
       211  13 -5.856684E+05 -2.257774E+05 -2.314361E+02 -4.106883E+05  9.341568E-11  3.832761E-10
       211  14 -5.982193E+05 -2.131360E+05 -2.157713E+02 -3.963024E+05 -1.439753E-09 -8.462412E-10
       211  15 -5.856003E+05 -2.256406E+05 -2.710796E+02 -4.107182E+05 -6.668758E-10 -1.234815E-09
       211  16  2.249708E+04 -6.975235E+03  1.029239E+05 -2.407700E+05  1.006017E-09  2.273001E-09
       211  17 -1.517485E+05 -5.246794E+04  7.576501E+04 -2.715957E+05  1.941354E-09  1.898474E-10
       211  18 -3.007856E+05 -1.230902E+05  4.859033E+04 -3.312117E+05  2.205300E-09  1.320876E-10
       211  19 -1.193446E+06 -4.445418E+05 -1.033922E+05 -5.804522E+05 -5.203056E+03 -5.741477E+04
       211  20 -1.044477E+06 -3.737822E+05 -7.619808E+04 -5.209249E+05 -1.030430E+04 -4.436892E+04
       211  21 -8.703253E+05 -3.281809E+05 -4.913167E+04 -4.901894E+05 -1.541587E+04 -3.128173E+04
       211  22 -5.856674E+05 -2.257748E+05 -2.263705E+02 -4.106890E+05  1.829450E+04 -4.860027E+04
       211  23 -5.982187E+05 -2.131346E+05 -2.130691E+02 -3.963028E+05  1.326915E+04 -3.553058E+04
       211  24 -5.856001E+05 -2.256401E+05 -2.700081E+02 -4.107184E+05  8.233487E+03 -2.241947E+04
       211  25  2.249938E+04 -6.973068E+03  1.029301E+05 -2.407713E+05  4.181630E+04 -3.977668E+04
       211  26 -1.517469E+05 -5.246681E+04  7.576890E+04 -2.715964E+05  3.686062E+04 -2.668547E+04
       211  27 -3.007844E+05 -1.230897E+05  4.859258E+04 -3.312120E+05  3.189463E+04 -1.355279E+04
       212   1 -7.662486E+05 -2.905882E+05 -3.066708E+04 -4.612179E+05  1.834515E+04  2.363257E+04
       212   2 -6.171037E+05 -2.198951E+05 -3.769922E+03 -4.016638E+05  2.352137E+04  1.056401E+04
       212   3 -4.427967E+05 -1.743597E+05  2.294915E+04 -3.709350E+05  2.868787E+04 -2.479765E+03
       212   4 -5.855961E+05 -2.256266E+05 -3.362818E+02 -4.107281E+05 -5.309415E+03  1.476974E+04
       212   5 -5.981565E+05 -2.130288E+05 -5.722990E+02 -3.963149E+05 -9.170698E+01  1.716954E+03
       212   6 -5.855912E+05 -2.255997E+05 -1.021169E+03 -4.107377E+05  5.116216E+03 -1.131105E+04
       212   7 -4.049076E+05 -1.606614E+05  2.999606E+04 -3.602241E+05 -2.897129E+04  5.904174E+03
       212   8 -5.792077E+05 -2.061620E+05  2.627678E+03 -3.909656E+05 -2.370542E+04 -7.130349E+03
       212   9 -7.283612E+05 -2.768367E+05 -2.498920E+04 -4.505311E+05 -1.844943E+04 -2.014010E+04
       212  10 -7.662491E+05 -2.905888E+05 -3.066876E+04 -4.612182E+05 -1.235014E-09 -2.230572E-09
       212  11 -6.171044E+05 -2.198953E+05 -3.771173E+03 -4.016640E+05 -1.006214E-09 -4.951896E-10
       212  12 -4.427975E+05 -1.743599E+05  2.294759E+04 -3.709350E+05  1.567999E-09 -6.519961E-10
       212  13 -5.855962E+05 -2.256269E+05 -3.367445E+02 -4.107280E+05 -2.850542E-10 -9.874237E-10
       212  14 -5.981565E+05 -2.130288E+05 -5.723045E+02 -3.963149E+05 -4.498723E-10 -4.909351E-10
       212  15 -5.855913E+05 -2.255999E+05 -1.021458E+03 -4.107377E+05 -3.421666E-12 -6.829242E-10
       212  16 -4.049085E+05 -1.606616E+05  2.999442E+04 -3.602240E+05  1.318741E-09  5.510976E-10
       212  17 -5.792083E+05 -2.061622E+05  2.626525E+03 -3.909657E+05 -5.379991E-10 -2.656891E-10
       212  18 -7.283617E+05 -2.768372E+05 -2.499060E+04 -4.505314E+05  5.245430E-10 -1.009356E-09
       212  19 -7.662486E+05 -2.905882E+05 -3.066708E+04 -4.612179E+05 -1.834515E+04 -2.363257E+04
       212  20 -6.171037E+05 -2.198951E+05 -3.769922E+03 -4.016638E+05 -2.352137E+04 -1.056401E+04
       212  21 -4.427967E+05 -1.743597E+05  2.294915E+04 -3.709350E+05 -2.868787E+04  2.479765E+03
       212  22 -5.855961E+05 -2.256266E+05 -3.362818E+02 -4.107281E+05  5.309415E+03 -1.476974E+04
       212  23 -5.981565E+05 -2.130288E+05 -5.722990E+02 -3.963149E+05  9.170698E+01 -1.716954E+03
       212  24 -5.855912E+05 -2.255997E+05 -1.021169E+03 -4.107377E+05 -5.116216E+03  1.131105E+04
       212  25 -4.049076E+05 -1.606614E+05  2.999606E+04 -3.602241E+05  2.897129E+04 -5.904174E+03
       212  26 -5.792077E+05 -2.061620E+05  2.627678E+03 -3.909656E+05  2.370542E+04  7.130349E+03
       212  27 -7.283612E+05 -2.768367E+05 -2.498920E+04 -4.505311E+05  1.844943E+04  2.014010E+04
       213   1 -3.386726E+05 -1.367881E+05  4.116699E+04 -3.419666E+05  3.178297E+04 -1.004772E+04
       213   2 -1.895333E+05 -6.613528E+04  6.739095E+04 -2.823824E+05  3.732110E+04 -2.277255E+04
       213   3 -1.531620E+04 -2.068410E+04  9.310567E+04 -2.515824E+05  4.274539E+04 -3.518165E+04
       213   4 -5.856357E+05 -2.255986E+05 -1.358561E+03 -4.107453E+05  8.180884E+03 -1.889158E+04
       213   5 -5.981451E+05 -2.130674E+05 -2.472588E+03 -3.963086E+05  1.428091E+04 -3.141005E+04
       213   6 -5.857190E+05 -2.258553E+05 -4.543917E+03 -4.106698E+05  2.026685E+04 -4.361269E+04
       213   7 -8.325356E+05 -3.144038E+05 -4.388422E+04 -4.794988E+05 -1.541146E+04 -2.773181E+04
       213   8 -1.006581E+06 -3.599837E+05 -7.233914E+04 -5.101650E+05 -8.743293E+03 -4.004156E+04
       213   9 -1.155775E+06 -4.309943E+05 -1.022005E+05 -5.696203E+05 -2.189745E+03 -5.203552E+04
       213  10 -3.386737E+05 -1.367884E+05  4.116490E+04 -3.419663E+05  6.128960E-10 -8.974140E-10
       213  11 -1.895350E+05 -6.613621E+04  6.738736E+04 -2.823817E+05  1.578124E-09 -6.538712E-10
       213  12 -1.531849E+04 -2.068592E+04  9.309991E+04 -2.515812E+05  1.582463E-09 -7.759482E-10
       213  13 -5.856359E+05 -2.255990E+05 -1.359357E+03 -4.107452E+05  1.339807E-09 -9.916488E-10
       213  14 -5.981456E+05 -2.130685E+05 -2.474824E+03 -3.963083E+05 -5.278934E-10 -1.509512E-09
       213  15 -5.857199E+05 -2.258574E+05 -4.548262E+03 -4.106691E+05 -6.953686E-10 -1.444856E-09
       213  16 -8.325360E+05 -3.144047E+05 -4.388611E+04 -4.794992E+05  3.548062E-11 -6.770600E-10
       213  17 -1.006581E+06 -3.599854E+05 -7.234230E+04 -5.101653E+05 -5.756881E-10 -1.437356E-09
       213  18 -1.155776E+06 -4.309972E+05 -1.022056E+05 -5.696204E+05 -1.265011E-10 -2.144897E-09
       213  19 -3.386726E+05 -1.367881E+05  4.116699E+04 -3.419666E+05 -3.178297E+04  1.004772E+04
       213  20 -1.895333E+05 -6.613528E+04  6.739095E+04 -2.823824E+05 -3.732110E+04  2.277255E+04
       213  21 -1.531620E+04 -2.068410E+04  9.310567E+04 -2.515824E+05 -4.274539E+04  3.518165E+04
       213  22 -5.856357E+05 -2.255986E+05 -1.358561E+03 -4.107453E+05 -8.180884E+03  1.889158E+04
       213  23 -5.981451E+05 -2.130674E+05 -2.472588E+03 -3.963086E+05 -1.428091E+04  3.141005E+04
       213  24 -5.857190E+05 -2.258553E+05 -4.543917E+03 -4.106698E+05 -2.026685E+04  4.361269E+04
       213  25 -8.325356E+05 -3.144038E+05 -4.388422E+04 -4.794988E+05  1.541146E+04  2.773181E+04
       213  26 -1.006581E+06 -3.599837E+05 -7.233914E+04 -5.101650E+05  8.743293E+03  4.004156E+04
       213  27 -1.155775E+06 -4.309943E+05 -1.022005E+05 -5.696203E+05  2.189745E+03  5.203552E+04
       214   1  8.889823E+04  1.674353E+04  1.104168E+05 -2.229428E+05  4.671779E+04 -4.220162E+04
       214   2  2.369212E+05  8.781252E+04  1.350923E+05 -1.619716E+05  5.044064E+04 -5.336367E+04
       214   3  4.093047E+05  1.319791E+05  1.595487E+05 -1.289518E+05  5.290882E+04 -6.116553E+04
       214   4 -5.860555E+05 -2.258245E+05 -6.061435E+03 -4.107411E+05  2.389970E+04 -5.076356E+04
       214   5 -5.980130E+05 -2.142017E+05 -1.115292E+04 -3.958681E+05  3.365453E+04 -5.967077E+04
       214   6 -5.868323E+05 -2.306834E+05 -2.124661E+04 -4.089596E+05  4.215385E+04 -6.521521E+04
       214   7 -1.260518E+06 -4.683455E+05 -1.225488E+05 -5.983465E+05  1.108215E+03 -5.931556E+04
       214   8 -1.432209E+06 -5.161473E+05 -1.574185E+05 -6.294704E+05  1.689245E+04 -6.596881E+04
       214   9 -1.581936E+06 -5.932528E+05 -2.020793E+05 -6.885504E+05  3.141716E+04 -6.925796E+04
       214  10  8.889541E+04  1.674103E+04  1.104094E+05 -2.229412E+05 -1.168348E-08 -4.791386E-09
       214  11  2.369177E+05  8.780878E+04  1.350822E+05 -1.619694E+05  1.614507E-08  8.508223E-09
       214  12  4.093007E+05  1.319743E+05  1.595364E+05 -1.289491E+05  4.559353E-08  2.051582E-08
       214  13 -5.860568E+05 -2.258274E+05 -6.067349E+03 -4.107401E+05  4.420103E-10 -9.997553E-10
       214  14 -5.980151E+05 -2.142059E+05 -1.116173E+04 -3.958665E+05 -1.565195E-09  1.025945E-09
       214  15 -5.868354E+05 -2.306884E+05 -2.125793E+04 -4.089574E+05  1.448082E-09  3.127167E-09
       214  16 -1.260519E+06 -4.683492E+05 -1.225554E+05 -5.983464E+05  1.152388E-08  2.575660E-09
       214  17 -1.432210E+06 -5.161520E+05 -1.574272E+05 -6.294695E+05 -1.746871E-08 -6.651134E-09
       214  18 -1.581938E+06 -5.932582E+05 -2.020902E+05 -6.885486E+05 -4.228444E-08 -1.370762E-08
       214  19  8.889823E+04  1.674353E+04  1.104168E+05 -2.229428E+05 -4.671779E+04  4.220162E+04
       214  20  2.369212E+05  8.781252E+04  1.350923E+05 -1.619716E+05 -5.044064E+04  5.336367E+04
       214  21  4.093047E+05  1.319791E+05  1.595487E+05 -1.289518E+05 -5.290882E+04  6.116553E+04
       214  22 -5.860555E+05 -2.258245E+05 -6.061435E+03 -4.107411E+05 -2.389970E+04  5.076356E+04
       214  23 -5.980130E+05 -2.142017E+05 -1.115292E+04 -3.958681E+05 -3.365453E+04  5.967077E+04
       214  24 -5.868323E+05 -2.306834E+05 -2.124661E+04 -4.089596E+05 -4.215385E+04  6.521521E+04
       214  25 -1.260518E+06 -4.683455E+05 -1.225488E+05 -5.983465E+05 -1.108215E+03  5.931556E+04
       214  26 -1.432209E+06 -5.161473E+05 -1.574185E+05 -6.294704E+05 -1.689245E+04  6.596881E+04
       214  27 -1.581936E+06 -5.932528E+05 -2.020793E+05 -6.885504E+05 -3.141716E+04  6.925796E+04
       215   1  5.160413E+05  1.667280E+05  1.744242E+05 -1.056007E+05  6.188771E+04 -6.403343E+04
       215   2  6.426914E+05  2.456880E+05  2.050515E+05 -1.377879E+04  2.124416E+04 -6.784076E+04
       215   3  7.818843E+05  2.610701E+05  2.517502E+05  6.473535E+04 -3.301460E+04 -3.551382E+04
       215   4 -5.905316E+05 -2.303143E+05 -2.831312E+04 -4.099081E+05  4.739560E+04 -6.948961E+04
       215   5 -5.966615E+05 -2.362600E+05 -5.406322E+04 -3.866812E+05  7.176709E+04 -4.887290E+04
       215   6 -6.031856E+05 -3.187325E+05 -1.152818E+05 -3.767694E+05  8.251657E+04  7.922803E+03
       215   7 -1.695820E+06 -6.272481E+05 -2.310945E+05 -7.137131E+05  3.293106E+04 -7.493570E+04
       215   8 -1.834419E+06 -7.180180E+05 -3.132470E+05 -7.588727E+05  1.221813E+05 -2.995172E+04
       215   9 -1.986327E+06 -8.982591E+05 -4.824179E+05 -8.173221E+05  1.977646E+05  5.122455E+04
       215  10  5.160361E+05  1.667225E+05  1.744093E+05 -1.055975E+05 -4.180627E-08 -1.307993E-08
       215  11  6.426897E+05  2.456830E+05  2.050420E+05 -1.377763E+04 -1.873359E-08 -6.423700E-09
       215  12  7.818828E+05  2.610685E+05  2.517458E+05  6.473441E+04  9.501775E-09  3.410865E-09
       215  13 -5.905354E+05 -2.303201E+05 -2.832641E+04 -4.099055E+05  2.851103E-09  2.627583E-09
       215  14 -5.966677E+05 -2.362639E+05 -5.407739E+04 -3.866784E+05 -1.170337E-09  1.729632E-10
       215  15 -6.031929E+05 -3.187344E+05 -1.152947E+05 -3.767699E+05 -7.965626E-11  1.495778E-10
       215  16 -1.695823E+06 -6.272544E+05 -2.311071E+05 -7.137111E+05  4.478995E-08  1.927034E-08
       215  17 -1.834435E+06 -7.180230E+05 -3.132768E+05 -7.588698E+05  1.807094E-08  7.985967E-09
       215  18 -1.986370E+06 -8.982724E+05 -4.824966E+05 -8.173303E+05 -9.453917E-09 -3.247446E-09
       215  19  5.160413E+05  1.667280E+05  1.744242E+05 -1.056007E+05 -6.188771E+04  6.403343E+04
       215  20  6.426914E+05  2.456880E+05  2.050515E+05 -1.377879E+04 -2.124416E+04  6.784076E+04
       215  21  7.818843E+05  2.610701E+05  2.517502E+05  6.473535E+04  3.301460E+04  3.551382E+04
       215  22 -5.905316E+05 -2.303143E+05 -2.831312E+04 -4.099081E+05 -4.739560E+04  6.948961E+04
       215  23 -5.966615E+05 -2.362600E+05 -5.406322E+04 -3.866812E+05 -7.176709E+04  4.887290E+04
       215  24 -6.031856E+05 -3.187325E+05 -1.152818E+05 -3.767694E+05 -8.251657E+04 -7.922803E+03
       215  25 -1.695820E+06 -6.272481E+05 -2.310945E+05 -7.137131E+05 -3.293106E+04  7.493570E+04
       215  26 -1.834419E+06 -7.180180E+05 -3.132470E+05 -7.588727E+05 -1.221813E+05  2.995172E+04
       215  27 -1.986327E+06 -8.982591E+05 -4.824179E+05 -8.173221E+05 -1.977646E+05 -5.122455E+04
       216   1 -6.012540E+05 -1.973063E+05 -1.653014E+05 -8.228763E+04  2.424027E+03  1.833553E+04
       216   2 -4.495470E+05 -2.548838E+05 -1.542901E+05 -1.178843E+05  2.256191E+04  6.066165E+04
       216   3 -2.835165E+05 -2.456008E+05 -1.396641E+05 -1.828765E+05  4.274206E+04  7.093626E+04
       216   4  8.057842E+05  1.496171E+05  1.634726E+05 -1.787422E+05  1.145093E+05  1.841896E+04
       216   5  7.934104E+05  4.056756E+04  8.057197E+04 -1.640111E+05  7.310836E+04  6.067941E+04
       216   6  8.059674E+05  8.974092E+03  4.397841E+04 -1.786646E+05  3.174687E+04  7.092109E+04
       216   7  2.214695E+06  4.964422E+05  4.921644E+05 -2.754171E+05  2.268468E+05  1.846749E+04
       216   8  2.037869E+06  3.359384E+05  3.153766E+05 -2.102324E+05  1.237535E+05  6.068966E+04
       216   9  1.896621E+06  2.634867E+05  2.275837E+05 -1.744450E+05  2.073296E+04  7.090577E+04
       216  10 -6.012541E+05 -1.973066E+05 -1.653020E+05 -8.228767E+04 -5.794375E-10 -2.705321E-10
       216  11 -4.495485E+05 -2.548879E+05 -1.542980E+05 -1.178854E+05  2.312609E-11  1.916662E-09
       216  12 -2.835198E+05 -2.456067E+05 -1.396770E+05 -1.828790E+05 -3.394160E-09  4.329480E-10
       216  13  8.057701E+05  1.496132E+05  1.634473E+05 -1.787439E+05 -1.860733E-09  9.461606E-10
       216  14  7.934037E+05  4.056217E+04  8.055501E+04 -1.640146E+05 -1.218163E-09  7.985888E-10
       216  15  8.059649E+05  8.968418E+03  4.396706E+04 -1.786664E+05  5.190157E-10  2.690889E-11
       216  16  2.214639E+06  4.964281E+05  4.920674E+05 -2.754204E+05  2.272603E-10  5.188263E-10
       216  17  2.037852E+06  3.359303E+05  3.153410E+05 -2.102385E+05  1.309761E-09 -2.326738E-12
       216  18  1.896619E+06  2.634812E+05  2.275734E+05 -1.744461E+05  3.152418E-09  1.337542E-09
       216  19 -6.012540E+05 -1.973063E+05 -1.653014E+05 -8.228763E+04 -2.424027E+03 -1.833553E+04
       216  20 -4.495470E+05 -2.548838E+05 -1.542901E+05 -1.178843E+05 -2.256191E+04 -6.066165E+04
       216  21 -2.835165E+05 -2.456008E+05 -1.396641E+05 -1.828765E+05 -4.274206E+04 -7.093626E+04
       216  22  8.057842E+05  1.496171E+05  1.634726E+05 -1.787422E+05 -1.145093E+05 -1.841896E+04
       216  23  7.934104E+05  4.056756E+04  8.057197E+04 -1.640111E+05 -7.310836E+04 -6.067941E+04
       216  24  8.059674E+05  8.974092E+03  4.397841E+04 -1.786646E+05 -3.174687E+04 -7.092109E+04
       216  25  2.214695E+06  4.964422E+05  4.921644E+05 -2.754171E+05 -2.268468E+05 -1.846749E+04
       216  26  2.037869E+06  3.359384E+05  3.153766E+05 -2.102324E+05 -1.237535E+05 -6.068966E+04
       216  27  1.896621E+06  2.634867E+05  2.275837E+05 -1.744450E+05 -2.073296E+04 -7.090577E+04
       217   1 -1.859710E+05 -2.217007E+05 -1.302188E+05 -1.753424E+05  3.547850E+04  6.661339E+04
       217   2 -2.839536E+04 -1.903337E+05 -1.138322E+05 -1.620398E+05  3.294105E+04  5.998662E+04
       217   3  1.306283E+05 -1.549942E+05 -9.477273E+04 -1.802003E+05  3.039974E+04  4.996755E+04
       217   4  8.010300E+05  8.317463E+03  3.319225E+04 -1.791394E+05  2.604470E+04  6.660081E+04
       217   5  7.998015E+05  1.634362E+03  1.815055E+04 -1.634092E+05  1.698160E+04  5.997649E+04
       217   6  8.011239E+05  5.288704E+01  1.030392E+04 -1.791387E+05  7.915290E+03  4.996220E+04
       217   7  1.788994E+06  2.382854E+05  1.965745E+05 -1.829426E+05  1.659639E+04  6.658834E+04
       217   8  1.628681E+06  1.935683E+05  1.501165E+05 -1.647804E+05  1.001609E+03  5.996645E+04
       217   9  1.472069E+06  1.550781E+05  1.153716E+05 -1.780759E+05 -1.459253E+04  4.995679E+04
       217  10 -1.859735E+05 -2.217059E+05 -1.302295E+05 -1.753443E+05  1.056969E-09 -5.634951E-10
       217  11 -2.839749E+04 -1.903379E+05 -1.138410E+05 -1.620414E+05  1.158103E-09 -1.105724E-09
       217  12  1.306266E+05 -1.549971E+05 -9.477916E+04 -1.802015E+05 -4.485482E-11 -4.095234E-10
       217  13  8.010281E+05  8.312516E+03  3.318263E+04 -1.791408E+05 -7.816535E-10  6.674493E-10
       217  14  7.998002E+05  1.630421E+03  1.814325E+04 -1.634100E+05 -4.745507E-11 -6.149577E-10
       217  15  8.011232E+05  5.018858E+01  1.029911E+04 -1.791390E+05  1.174020E-10 -9.160859E-10
       217  16  1.788992E+06  2.382806E+05  1.965657E+05 -1.829435E+05 -2.404980E-09  7.771297E-10
       217  17  1.628680E+06  1.935645E+05  1.501097E+05 -1.647804E+05  9.354537E-11 -6.401008E-10
       217  18  1.472068E+06  1.550754E+05  1.153665E+05 -1.780753E+05 -4.702306E-10 -1.140388E-09
       217  19 -1.859710E+05 -2.217007E+05 -1.302188E+05 -1.753424E+05 -3.547850E+04 -6.661339E+04
       217  20 -2.839536E+04 -1.903337E+05 -1.138322E+05 -1.620398E+05 -3.294105E+04 -5.998662E+04
       217  21  1.306283E+05 -1.549942E+05 -9.477273E+04 -1.802003E+05 -3.039974E+04 -4.996755E+04
       217  22  8.010300E+05  8.317463E+03  3.319225E+04 -1.791394E+05 -2.604470E+04 -6.660081E+04
       217  23  7.998015E+05  1.634362E+03  1.815055E+04 -1.634092E+05 -1.698160E+04 -5.997649E+04
       217  24  8.011239E+05  5.288704E+01  1.030392E+04 -1.791387E+05 -7.915290E+03 -4.996220E+04
       217  25  1.788994E+06  2.382854E+05  1.965745E+05 -1.829426E+05 -1.659639E+04 -6.658834E+04
       217  26  1.628681E+06  1.935683E+05  1.501165E+05 -1.647804E+05 -1.001609E+03 -5.996645E+04
       217  27  1.472069E+06  1.550781E+05  1.153716E+05 -1.780759E+05  1.459253E+04 -4.995679E+04
       218   1  2.309117E+05 -1.314789E+05 -8.073626E+04 -1.795545E+05  2.866571E+04  4.304852E+04
       218   2  3.888881E+05 -9.516825E+04 -5.933608E+04 -1.636595E+05  2.716310E+04  3.124951E+04
       218   3  5.471666E+05 -5.866467E+04 -3.689976E+04 -1.794179E+05  2.565708E+04  1.909383E+04
       218   4  8.006693E+05  1.169220E+02  7.807268E+03 -1.791819E+05  6.351187E+03  4.304580E+04
       218   5  8.004927E+05 -1.486982E+02  4.429606E+03 -1.633559E+05  4.159095E+03  3.124984E+04
       218   6  8.007142E+05 -1.007381E+02  2.564590E+03 -1.791821E+05  1.963975E+03  1.909733E+04
       218   7  1.370752E+06  1.316971E+05  9.634510E+04 -1.788090E+05 -1.598303E+04  4.304305E+04
       218   8  1.212268E+06  9.486289E+04  6.819339E+04 -1.630521E+05 -1.885957E+04  3.125014E+04
       218   9  1.054327E+06  5.846035E+04  4.202953E+04 -1.789462E+05 -2.173844E+04  1.910081E+04
       218  10  2.309103E+05 -1.314811E+05 -8.074129E+04 -1.795555E+05 -9.753251E-09  3.678928E-10
       218  11  3.888870E+05 -9.516950E+04 -5.933930E+04 -1.636602E+05  2.012798E-08  1.018558E-09
       218  12  5.471658E+05 -5.866524E+04 -3.690168E+04 -1.794183E+05  4.925397E-08  1.966818E-09
       218  13  8.006687E+05  1.149206E+02  7.803709E+03 -1.791821E+05 -2.221080E-10 -1.026955E-10
       218  14  8.004924E+05 -1.497519E+02  4.427737E+03 -1.633560E+05 -1.591443E-09  1.167614E-09
       218  15  8.007141E+05 -1.011309E+02  2.563897E+03 -1.791822E+05  5.607188E-12  2.250222E-09
       218  16  1.370751E+06  1.316951E+05  9.634114E+04 -1.788084E+05  8.998765E-09 -4.384506E-10
       218  17  1.212267E+06  9.486175E+04  6.819089E+04 -1.630517E+05 -2.325036E-08  1.197186E-09
       218  18  1.054327E+06  5.845983E+04  4.202796E+04 -1.789459E+05 -4.930292E-08  2.324530E-09
       218  19  2.309117E+05 -1.314789E+05 -8.073626E+04 -1.795545E+05 -2.866571E+04 -4.304852E+04
       218  20  3.888881E+05 -9.516825E+04 -5.933608E+04 -1.636595E+05 -2.716310E+04 -3.124951E+04
       218  21  5.471666E+05 -5.866467E+04 -3.689976E+04 -1.794179E+05 -2.565708E+04 -1.909383E+04
       218  22  8.006693E+05  1.169220E+02  7.807268E+03 -1.791819E+05 -6.351187E+03 -4.304580E+04
       218  23  8.004927E+05 -1.486982E+02  4.429606E+03 -1.633559E+05 -4.159095E+03 -3.124984E+04
       218  24  8.007142E+05 -1.007381E+02  2.564590E+03 -1.791821E+05 -1.963975E+03 -1.909733E+04
       218  25  1.370752E+06  1.316971E+05  9.634510E+04 -1.788090E+05  1.598303E+04 -4.304305E+04
       218  26  1.212268E+06  9.486289E+04  6.819339E+04 -1.630521E+05  1.885957E+04 -3.125014E+04
       218  27  1.054327E+06  5.846035E+04  4.202953E+04 -1.789462E+05  2.173844E+04 -1.910081E+04
       219   1  6.476365E+05 -3.531340E+04 -2.137257E+04 -1.793520E+05  2.523048E+04  1.190581E+04
       219   2  8.056889E+05  1.106871E+03  1.900135E+03 -1.634647E+05  2.472156E+04 -4.311245E+02
       219   3  9.638490E+05  3.752593E+04  2.550748E+04 -1.792435E+05  2.421256E+04 -1.280110E+04
       219   4  8.006538E+05 -6.835224E+01  1.960645E+03 -1.791852E+05  1.555220E+03  1.191021E+04
       219   5  8.006081E+05 -5.555101E+01  1.163339E+03 -1.633522E+05  9.795753E+02 -4.267470E+02
       219   6  8.006535E+05 -3.238563E+01  7.445751E+02 -1.791853E+05  4.039722E+02 -1.279675E+04
       219   7  9.536958E+05  3.517588E+04  2.529546E+04 -1.790184E+05 -2.212564E+04  1.191461E+04
       219   8  7.955286E+05 -1.217672E+03  4.286593E+02 -1.632398E+05 -2.276222E+04 -4.223780E+02
       219   9  6.374860E+05 -3.759167E+04 -2.401676E+04 -1.791271E+05 -2.339861E+04 -1.279241E+04
       219  10  6.476358E+05 -3.531373E+04 -2.137403E+04 -1.793522E+05 -4.859837E-08  1.887183E-09
       219  11  8.056883E+05  1.106707E+03  1.898987E+03 -1.634647E+05 -2.043123E-08  7.535253E-10
       219  12  9.638483E+05  3.752560E+04  2.550607E+04 -1.792432E+05  9.168620E-09  3.374240E-12
       219  13  8.006538E+05 -6.850528E+01  1.960374E+03 -1.791853E+05 -1.135040E-09  1.939574E-09
       219  14  8.006081E+05 -5.555147E+01  1.163337E+03 -1.633522E+05 -1.747269E-09  7.622777E-10
       219  15  8.006535E+05 -3.256158E+01  7.442670E+02 -1.791853E+05  1.050977E-09 -9.056177E-12
       219  16  9.536952E+05  3.517559E+04  2.529427E+04 -1.790182E+05  4.719459E-08  1.959270E-09
       219  17  7.955280E+05 -1.217811E+03  4.276865E+02 -1.632398E+05  2.064828E-08  7.457095E-10
       219  18  6.374854E+05 -3.759199E+04 -2.401809E+04 -1.791274E+05 -7.672147E-09  9.637573E-11
       219  19  6.476365E+05 -3.531340E+04 -2.137257E+04 -1.793520E+05 -2.523048E+04 -1.190581E+04
       219  20  8.056889E+05  1.106871E+03  1.900135E+03 -1.634647E+05 -2.472156E+04  4.311245E+02
       219  21  9.638490E+05  3.752593E+04  2.550748E+04 -1.792435E+05 -2.421256E+04  1.280110E+04
       219  22  8.006538E+05 -6.835224E+01  1.960645E+03 -1.791852E+05 -1.555220E+03 -1.191021E+04
       219  23  8.006081E+05 -5.555101E+01  1.163339E+03 -1.633522E+05 -9.795753E+02  4.267470E+02
       219  24  8.006535E+05 -3.238563E+01  7.445751E+02 -1.791853E+05 -4.039722E+02  1.279675E+04
       219  25  9.536958E+05  3.517588E+04  2.529546E+04 -1.790184E+05  2.212564E+04 -1.191461E+04
       219  26  7.955286E+05 -1.217672E+03  4.286593E+02 -1.632398E+05  2.276222E+04  4.223780E+02
       219  27  6.374860E+05 -3.759167E+04 -2.401676E+04 -1.791271E+05  2.339861E+04  1.279241E+04
       220   1  1.064389E+06  6.082459E+04  4.148352E+04 -1.792380E+05  2.409181E+04 -2.001269E+04
       220   2  1.222552E+06  9.718969E+04  6.542168E+04 -1.633421E+05  2.375665E+04 -3.237700E+04
       220   3  1.380821E+06  1.335629E+05  8.958832E+04 -1.791237E+05  2.342473E+04 -4.469955E+04
       220   4  8.006402E+05 -3.966446E+01  6.267457E+02 -1.791881E+05  2.780714E+02 -2.000931E+04
       220   5  8.005839E+05 -8.497205E+01  5.206625E+02 -1.633488E+05  2.042826E+01 -3.237684E+04
       220   6  8.005953E+05 -1.348950E+02  5.878873E+02 -1.791881E+05 -2.338960E+02 -4.470261E+04
       220   7  5.369615E+05 -6.090700E+04 -4.022951E+04 -1.791383E+05 -2.352595E+04 -2.000593E+04
       220   8  3.787946E+05 -9.736795E+04 -6.438220E+04 -1.633554E+05 -2.370030E+04 -3.237669E+04
       220   9  2.207065E+05 -1.338487E+05 -8.841786E+04 -1.792524E+05 -2.387130E+04 -4.470567E+04
       220  10  1.064389E+06  6.082401E+04  4.148168E+04 -1.792376E+05 -2.285775E-09 -4.501697E-10
       220  11  1.222551E+06  9.718842E+04  6.541865E+04 -1.633415E+05 -1.647848E-09 -1.021823E-09
       220  12  1.380820E+06  1.335606E+05  8.958354E+04 -1.791228E+05 -4.107140E-10 -9.417215E-10
       220  13  8.006401E+05 -4.009457E+01  6.259929E+02 -1.791881E+05  1.613754E-09 -3.545175E-10
       220  14  8.005836E+05 -8.609812E+01  5.186918E+02 -1.633488E+05  1.151149E-09 -6.952519E-10
       220  15  8.005948E+05 -1.370417E+02  5.841305E+02 -1.791881E+05  9.112589E-10 -7.213695E-10
       220  16  5.369608E+05 -6.090758E+04 -4.023130E+04 -1.791386E+05  1.565263E-09 -1.669053E-10
       220  17  3.787937E+05 -9.736922E+04 -6.438523E+04 -1.633560E+05  1.737300E-09 -5.044116E-10
       220  18  2.207054E+05 -1.338510E+05 -8.842269E+04 -1.792533E+05  2.679221E-09 -7.106619E-10
       220  19  1.064389E+06  6.082459E+04  4.148352E+04 -1.792380E+05 -2.409181E+04  2.001269E+04
       220  20  1.222552E+06  9.718969E+04  6.542168E+04 -1.633421E+05 -2.375665E+04  3.237700E+04
       220  21  1.380821E+06  1.335629E+05  8.958832E+04 -1.791237E+05 -2.342473E+04  4.469955E+04
       220  22  8.006402E+05 -3.966446E+01  6.267457E+02 -1.791881E+05 -2.780714E+02  2.000931E+04
       220  23  8.005839E+05 -8.497205E+01  5.206625E+02 -1.633488E+05 -2.042826E+01  3.237684E+04
       220  24  8.005953E+05 -1.348950E+02  5.878873E+02 -1.791881E+05  2.338960E+02  4.470261E+04
       220  25  5.369615E+05 -6.090700E+04 -4.022951E+04 -1.791383E+05  2.352595E+04  2.000593E+04
       220  26  3.787946E+05 -9.736795E+04 -6.438220E+04 -1.633554E+05  2.370030E+04  3.237669E+04
       220  27  2.207065E+05 -1.338487E+05 -8.841786E+04 -1.792524E+05  2.387130E+04  4.470567E+04
       221   1  1.481522E+06  1.568612E+05  1.058432E+05 -1.790762E+05  2.334353E+04 -5.188032E+04
       221   2  1.639798E+06  1.932754E+05  1.306166E+05 -1.630943E+05  2.195092E+04 -6.396552E+04
       221   3  1.798430E+06  2.298978E+05  1.563725E+05 -1.787986E+05  2.056421E+04 -7.559212E+04
       221   4  8.005962E+05 -1.738340E+02  6.875899E+02 -1.791903E+05 -3.476828E+02 -5.188621E+04
       221   5  8.004613E+05 -2.676805E+02  1.041397E+03 -1.633459E+05 -8.598382E+02 -6.397759E+04
       221   6  8.005067E+05 -3.043578E+02  1.767164E+03 -1.791903E+05 -1.365780E+03 -7.561006E+04
       221   7  1.201337E+05 -1.572311E+05 -1.044764E+05 -1.793043E+05 -2.401395E+04 -5.189210E+04
       221   8 -3.817243E+04 -1.938446E+05 -1.285478E+05 -1.635972E+05 -2.364100E+04 -6.398966E+04
       221   9 -1.964237E+05 -2.305547E+05 -1.528593E+05 -1.795812E+05 -2.326193E+04 -7.562799E+04
       221  10  1.481521E+06  1.568582E+05  1.058371E+05 -1.790752E+05 -1.701641E-10 -2.781070E-10
       221  11  1.639797E+06  1.932708E+05  1.306080E+05 -1.630931E+05 -1.839275E-10 -8.451960E-10
       221  12  1.798428E+06  2.298915E+05  1.563610E+05 -1.787974E+05  5.355572E-10 -1.135346E-09
       221  13  8.005955E+05 -1.767261E+02  6.825286E+02 -1.791904E+05  1.128030E-09 -4.726063E-10
       221  14  8.004602E+05 -2.720776E+02  1.033701E+03 -1.633460E+05  3.190211E-10 -7.687107E-10
       221  15  8.005052E+05 -3.104995E+02  1.756413E+03 -1.791904E+05  1.829832E-09 -1.439400E-09
       221  16  1.201323E+05 -1.572341E+05 -1.044826E+05 -1.793053E+05  1.547531E-10 -8.081922E-10
       221  17 -3.817413E+04 -1.938492E+05 -1.285566E+05 -1.635984E+05 -1.354369E-09 -1.045492E-09
       221  18 -1.964258E+05 -2.305610E+05 -1.528711E+05 -1.795827E+05 -1.157516E-09 -1.084936E-09
       221  19  1.481522E+06  1.568612E+05  1.058432E+05 -1.790762E+05 -2.334353E+04  5.188032E+04
       221  20  1.639798E+06  1.932754E+05  1.306166E+05 -1.630943E+05 -2.195092E+04  6.396552E+04
       221  21  1.798430E+06  2.298978E+05  1.563725E+05 -1.787986E+05 -2.056421E+04  7.559212E+04
       221  22  8.005962E+05 -1.738340E+02  6.875899E+02 -1.791903E+05  3.476828E+02  5.188621E+04
       221  23  8.004613E+05 -2.676805E+02  1.041397E+03 -1.633459E+05  8.598382E+02  6.397759E+04
       221  24  8.005067E+05 -3.043578E+02  1.767164E+03 -1.791903E+05  1.365780E+03  7.561006E+04
       221  25  1.201337E+05 -1.572311E+05 -1.044764E+05 -1.793043E+05  2.401395E+04  5.189210E+04
       221  26 -3.817243E+04 -1.938446E+05 -1.285478E+05 -1.635972E+05  2.364100E+04  6.398966E+04
       221  27 -1.964237E+05 -2.305547E+05 -1.528593E+05 -1.795812E+05  2.326193E+04  7.562799E+04
       222   1  1.899649E+06  2.533519E+05  1.736049E+05 -1.784898E+05  2.044644E+04 -8.242514E+04
       222   2  2.057377E+06  2.907069E+05  2.031075E+05 -1.630601E+05  1.000367E+04 -9.174962E+04
       222   3  2.217338E+06  3.306454E+05  2.400918E+05 -1.790675E+05 -4.388038E+02 -9.668879E+04
       222   4  8.005922E+05 -3.698250E+02  2.315039E+03 -1.791350E+05 -1.713297E+03 -8.244760E+04
       222   5  8.001523E+05 -1.335179E+02  4.021839E+03 -1.634149E+05 -3.710257E+03 -9.177538E+04
       222   6  8.004580E+05  1.225635E+03  7.359569E+03 -1.791358E+05 -5.704209E+03 -9.671328E+04
       222   7 -2.972612E+05 -2.541503E+05 -1.690015E+05 -1.797789E+05 -2.383538E+04 -8.247005E+04
       222   8 -4.555029E+05 -2.910523E+05 -1.951031E+05 -1.637690E+05 -1.739749E+04 -9.180115E+04
       222   9 -6.144408E+05 -3.282970E+05 -2.254311E+05 -1.792041E+05 -1.095803E+04 -9.673781E+04
       222  10  1.899647E+06  2.533445E+05  1.735913E+05 -1.784885E+05 -1.915389E-10 -1.016846E-09
       222  11  2.057374E+06  2.906979E+05  2.030915E+05 -1.630593E+05  2.582216E-09 -1.416061E-10
       222  12  2.217335E+06  3.306353E+05  2.400743E+05 -1.790675E+05  2.700929E-09 -1.021869E-09
       222  13  8.005903E+05 -3.771280E+02  2.302255E+03 -1.791351E+05  1.095049E-09 -1.246675E-09
       222  14  8.001500E+05 -1.425696E+02  4.005979E+03 -1.634152E+05  3.882199E-09 -6.463396E-10
       222  15  8.004555E+05  1.215579E+03  7.341924E+03 -1.791363E+05  3.146639E-09 -3.832687E-10
       222  16 -2.972636E+05 -2.541578E+05 -1.690154E+05 -1.797805E+05  1.617809E-09 -1.295494E-09
       222  17 -4.555055E+05 -2.910614E+05 -1.951196E+05 -1.637703E+05 -1.442423E-09  7.571828E-10
       222  18 -6.144435E+05 -3.283071E+05 -2.254489E+05 -1.792050E+05 -1.694091E-09  7.196970E-10
       222  19  1.899649E+06  2.533519E+05  1.736049E+05 -1.784898E+05 -2.044644E+04  8.242514E+04
       222  20  2.057377E+06  2.907069E+05  2.031075E+05 -1.630601E+05 -1.000367E+04  9.174962E+04
       222  21  2.217338E+06  3.306454E+05  2.400918E+05 -1.790675E+05  4.388038E+02  9.668879E+04
       222  22  8.005922E+05 -3.698250E+02  2.315039E+03 -1.791350E+05  1.713297E+03  8.244760E+04
       222  23  8.001523E+05 -1.335179E+02  4.021839E+03 -1.634149E+05  3.710257E+03  9.177538E+04
       222  24  8.004580E+05  1.225635E+03  7.359569E+03 -1.791358E+05  5.704209E+03  9.671328E+04
       222  25 -2.972612E+05 -2.541503E+05 -1.690015E+05 -1.797789E+05  2.383538E+04  8.247005E+04
       222  26 -4.555029E+05 -2.910523E+05 -1.951031E+05 -1.637690E+05  1.739749E+04  9.180115E+04
       222  27 -6.144408E+05 -3.282970E+05 -2.254311E+05 -1.792041E+05  1.095803E+04  9.673781E+04
       223   1  2.321954E+06  3.556759E+05  2.639596E+05 -1.764588E+05  3.430458E+02 -1.001613E+05
       223   2  2.471713E+06  4.049097E+05  3.312925E+05 -1.730327E+05 -8.863953E+04 -8.332744E+04
       223   3  2.641150E+06  4.852824E+05  4.642671E+05 -1.983078E+05 -1.777349E+05 -2.504976E+04
       223   4  8.015381E+05  1.305436E+03  9.753780E+03 -1.785207E+05 -6.967165E+03 -1.001905E+05
       223   5  7.985201E+05  8.248398E+03  1.781871E+04 -1.641897E+05 -1.608587E+04 -8.326014E+04
       223   6  8.013562E+05  3.253616E+04  3.620770E+04 -1.785557E+05 -2.528851E+04 -2.483795E+04
       223   7 -7.166040E+05 -3.531854E+05 -2.445235E+05 -1.805776E+05 -1.426010E+04 -1.002196E+05
       223   8 -8.719629E+05 -3.885714E+05 -2.957565E+05 -1.553714E+05  5.627778E+04 -8.319070E+04
       223   9 -1.035274E+06 -4.204346E+05 -3.919928E+05 -1.588630E+05  1.267108E+05 -2.461620E+04
       223  10  2.321952E+06  3.556651E+05  2.639408E+05 -1.764588E+05  1.981174E-09 -2.423495E-09
       223  11  2.471702E+06  4.049001E+05  3.312647E+05 -1.730386E+05 -4.628975E-10 -4.375143E-09
       223  12  2.641116E+06  4.852732E+05  4.642068E+05 -1.983114E+05 -4.587212E-09 -1.507143E-09
       223  13  8.015354E+05  1.294639E+03  9.734817E+03 -1.785212E+05 -8.375106E-10 -4.860345E-09
       223  14  7.985180E+05  8.240881E+03  1.780519E+04 -1.641907E+05  2.144890E-09  2.840725E-09
       223  15  8.013553E+05  3.253533E+04  3.620534E+04 -1.785562E+05  7.519026E-10 -6.013744E-11
       223  16 -7.166069E+05 -3.531962E+05 -2.445428E+05 -1.805787E+05 -1.573147E-09  2.815523E-10
       223  17 -8.719681E+05 -3.885797E+05 -2.957754E+05 -1.553677E+05  1.381662E-09  2.800784E-09
       223  18 -1.035291E+06 -4.204395E+05 -3.920242E+05 -1.588605E+05  2.133317E-09 -1.416665E-09
       223  19  2.321954E+06  3.556759E+05  2.639596E+05 -1.764588E+05 -3.430458E+02  1.001613E+05
       223  20  2.471713E+06  4.049097E+05  3.312925E+05 -1.730327E+05  8.863953E+04  8.332744E+04
       223  21  2.641150E+06  4.852824E+05  4.642671E+05 -1.983078E+05  1.777349E+05  2.504976E+04
       223  22  8.015381E+05  1.305436E+03  9.753780E+03 -1.785207E+05  6.967165E+03  1.001905E+05
       223  23  7.985201E+05  8.248398E+03  1.781871E+04 -1.641897E+05  1.608587E+04  8.326014E+04
       223  24  8.013562E+05  3.253616E+04  3.620770E+04 -1.785557E+05  2.528851E+04  2.483795E+04
       223  25 -7.166040E+05 -3.531854E+05 -2.445235E+05 -1.805776E+05  1.426010E+04  1.002196E+05
       223  26 -8.719629E+05 -3.885714E+05 -2.957565E+05 -1.553714E+05 -5.627778E+04  8.319070E+04
       223  27 -1.035274E+06 -4.204346E+05 -3.919928E+05 -1.588630E+05 -1.267108E+05  2.461620E+04
       224   1  5.583952E+05  2.306919E+06  5.366981E+05 -6.612520E+05  2.181897E+04  1.499167E+05
       224   2  3.853138E+05  1.729128E+06  3.261738E+05 -5.971423E+05  6.549614E+04  4.456055E+04
       224   3  2.431135E+05  1.172885E+06  1.917600E+05 -6.424832E+05  5.853977E+04 -6.074905E+04
       224   4  2.752536E+04  1.584736E+05  2.803834E+04 -6.410214E+05  2.212738E+04  1.754131E+04
       224   5  8.966062E+03  1.565665E+05  1.547671E+04 -5.863175E+05  6.559604E+04  9.734152E+03
       224   6  4.449687E+03  1.590583E+05  1.146474E+04 -6.410730E+05  5.837519E+04  1.875501E+03
       224   7 -5.036647E+05 -1.985703E+06 -4.808761E+05 -6.208567E+05  2.242791E+04 -1.143798E+05
       224   8 -3.675307E+05 -1.413630E+06 -2.953373E+05 -5.755183E+05  6.569490E+04 -2.500608E+04
       224   9 -2.342687E+05 -8.537574E+05 -1.688544E+05 -6.396639E+05  5.821071E+04  6.440088E+04
       224  10  5.583886E+05  2.306895E+06  5.366551E+05 -6.612547E+05  9.922854E-10  1.183541E-08
       224  11  3.853086E+05  1.729124E+06  3.261620E+05 -5.971447E+05  5.197548E-10 -1.978709E-08
       224  12  2.431088E+05  1.172880E+06  1.917467E+05 -6.424803E+05  1.735256E-09 -4.978336E-08
       224  13  2.752475E+04  1.584731E+05  2.803684E+04 -6.410218E+05  2.103285E-09 -1.360529E-09
       224  14  8.961415E+03  1.565653E+05  1.546844E+04 -5.863181E+05  3.355735E-10  1.588820E-09
       224  15  4.446026E+03  1.590574E+05  1.145833E+04 -6.410730E+05  2.267251E-09 -4.439575E-09
       224  16 -5.036688E+05 -1.985718E+06 -4.809017E+05 -6.208546E+05  2.392681E-10 -1.182333E-08
       224  17 -3.675355E+05 -1.413632E+06 -2.953466E+05 -5.755169E+05 -2.619790E-10  2.236966E-08
       224  18 -2.342735E+05 -8.537628E+05 -1.688686E+05 -6.396670E+05  8.673832E-10  5.183713E-08
       224  19  5.583952E+05  2.306919E+06  5.366981E+05 -6.612520E+05 -2.181897E+04 -1.499167E+05
       224  20  3.853138E+05  1.729128E+06  3.261738E+05 -5.971423E+05 -6.549614E+04 -4.456055E+04
       224  21  2.431135E+05  1.172885E+06  1.917600E+05 -6.424832E+05 -5.853977E+04  6.074905E+04
       224  22  2.752536E+04  1.584736E+05  2.803834E+04 -6.410214E+05 -2.212738E+04 -1.754131E+04
       224  23  8.966062E+03  1.565665E+05  1.547671E+04 -5.863175E+05 -6.559604E+04 -9.734152E+03
       224  24  4.449687E+03  1.590583E+05  1.146474E+04 -6.410730E+05 -5.837519E+04 -1.875501E+03
       224  25 -5.036647E+05 -1.985703E+06 -4.808761E+05 -6.208567E+05 -2.242791E+04  1.143798E+05
       224  26 -3.675307E+05 -1.413630E+06 -2.953373E+05 -5.755183E+05 -6.569490E+04  2.500608E+04
       224  27 -2.342687E+05 -8.537574E+05 -1.688544E+05 -6.396639E+05 -5.821071E+04 -6.440088E+04
       225   1  1.575747E+05  8.088592E+05  1.265387E+05 -6.442321E+05  3.779751E+04 -6.032311E+04
       225   2  2.350779E+04  2.417356E+05  2.635694E+04 -5.850336E+05  6.217824E+03 -6.757109E+04
       225   3 -1.063149E+05 -3.235016E+05 -6.818978E+04 -6.384679E+05 -2.575140E+04 -7.481540E+04
       225   4  4.476966E+03  1.585139E+05  1.107163E+04 -6.417746E+05  3.762942E+04  1.825284E+01
       225   5  4.041353E+03  1.578088E+05  1.290851E+04 -5.854547E+05  6.046391E+03 -6.505948E+03
       225   6  7.737029E+03  1.585452E+05  1.987066E+04 -6.417663E+05 -2.592664E+04 -1.303264E+04
       225   7 -1.486421E+05 -4.914109E+05 -1.043976E+05 -6.393193E+05  3.746168E+04  6.029830E+04
       225   8 -1.542343E+04  7.389712E+04 -5.260916E+02 -5.858758E+05  5.874859E+03  5.455124E+04
       225   9  1.217779E+05  6.408261E+05  1.079361E+05 -6.450670E+05 -2.610243E+04  4.879682E+04
       225  10  1.575722E+05  8.088549E+05  1.265292E+05 -6.442303E+05  1.171683E-09  4.938087E-08
       225  11  2.350652E+04  2.417307E+05  2.634829E+04 -5.850333E+05  1.970960E-09  2.037863E-08
       225  12 -1.063171E+05 -3.235078E+05 -6.820156E+04 -6.384695E+05 -9.841260E-10 -1.071126E-08
       225  13  4.475445E+03  1.585135E+05  1.106897E+04 -6.417746E+05 -8.803104E-10 -1.883627E-09
       225  14  4.041303E+03  1.578088E+05  1.290836E+04 -5.854547E+05 -8.371365E-10  1.994933E-09
       225  15  7.736261E+03  1.585449E+05  1.986907E+04 -6.417666E+05 -2.966719E-09 -4.653514E-09
       225  16 -1.486445E+05 -4.914152E+05 -1.044071E+05 -6.393212E+05  1.983718E-09 -4.919312E-08
       225  17 -1.542427E+04  7.389392E+04 -5.317494E+02 -5.858761E+05 -3.324641E-09 -1.782226E-08
       225  18  1.217765E+05  6.408234E+05  1.079303E+05 -6.450660E+05 -2.522379E-09  1.305127E-08
       225  19  1.575747E+05  8.088592E+05  1.265387E+05 -6.442321E+05 -3.779751E+04  6.032311E+04
       225  20  2.350779E+04  2.417356E+05  2.635694E+04 -5.850336E+05 -6.217824E+03  6.757109E+04
       225  21 -1.063149E+05 -3.235016E+05 -6.818978E+04 -6.384679E+05  2.575140E+04  7.481540E+04
       225  22  4.476966E+03  1.585139E+05  1.107163E+04 -6.417746E+05 -3.762942E+04 -1.825284E+01
       225  23  4.041353E+03  1.578088E+05  1.290851E+04 -5.854547E+05 -6.046391E+03  6.505948E+03
       225  24  7.737029E+03  1.585452E+05  1.987066E+04 -6.417663E+05  2.592664E+04  1.303264E+04
       225  25 -1.486421E+05 -4.914109E+05 -1.043976E+05 -6.393193E+05 -3.746168E+04 -6.029830E+04
       225  26 -1.542343E+04  7.389712E+04 -5.260916E+02 -5.858758E+05 -5.874859E+03 -5.455124E+04
       225  27  1.217779E+05  6.408261E+05  1.079361E+05 -6.450670E+05  2.610243E+04 -4.879682E+04
       226   1 -1.915111E+05 -6.836563E+05 -1.271211E+05 -6.415965E+05 -4.679320E+04 -8.030403E+04
       226   2 -3.122206E+05 -1.248687E+06 -2.351988E+05 -5.580860E+05 -5.677727E+04 -1.310964E+04
       226   3 -4.053632E+05 -1.815445E+06 -3.802470E+05 -5.843339E+05 -1.976241E+04  5.407580E+04
       226   4  7.997157E+03  1.611549E+05  2.536317E+04 -6.411329E+05 -4.696700E+04 -1.648567E+04
       226   5  2.466339E+04  1.540975E+05  4.473780E+04 -5.861880E+05 -5.669969E+04 -3.941215E+04
       226   6  8.452213E+04  1.606279E+05  8.974467E+04 -6.409605E+05 -1.948844E+04 -6.228588E+04
       226   7  2.074677E+05  1.006670E+06  1.778349E+05 -6.406678E+05 -4.714055E+04  4.741721E+04
       226   8  3.614298E+05  1.558767E+06  3.245786E+05 -6.143530E+05 -5.661984E+04 -6.577290E+04
       226   9  5.741444E+05  2.140327E+06  5.595158E+05 -6.977649E+05 -1.919379E+04 -1.790167E+05
       226  10 -1.915152E+05 -6.836639E+05 -1.271374E+05 -6.415996E+05 -6.368760E-10  3.499143E-09
       226  11 -3.122241E+05 -1.248688E+06 -2.352052E+05 -5.580866E+05  2.662287E-09  1.434108E-09
       226  12 -4.053644E+05 -1.815449E+06 -3.802532E+05 -5.843330E+05  1.630865E-10 -5.766166E-10
       226  13  7.994714E+03  1.611540E+05  2.535851E+04 -6.411335E+05  1.868334E-10 -1.983560E-09
       226  14  2.465952E+04  1.540950E+05  4.472883E+04 -5.861898E+05 -4.097966E-11  1.686961E-09
       226  15  8.452068E+04  1.606236E+05  8.973667E+04 -6.409615E+05  1.017677E-09 -3.383980E-09
       226  16  2.074647E+05  1.006667E+06  1.778265E+05 -6.406660E+05 -2.291760E-09 -3.240096E-09
       226  17  3.614252E+05  1.558761E+06  3.245644E+05 -6.143560E+05 -1.851363E-09  1.156873E-09
       226  18  5.741355E+05  2.140293E+06  5.594550E+05 -6.977677E+05 -4.108138E-10  2.351608E-09
       226  19 -1.915111E+05 -6.836563E+05 -1.271211E+05 -6.415965E+05  4.679320E+04  8.030403E+04
       226  20 -3.122206E+05 -1.248687E+06 -2.351988E+05 -5.580860E+05  5.677727E+04  1.310964E+04
       226  21 -4.053632E+05 -1.815445E+06 -3.802470E+05 -5.843339E+05  1.976241E+04 -5.407580E+04
       226  22  7.997157E+03  1.611549E+05  2.536317E+04 -6.411329E+05  4.696700E+04  1.648567E+04
       226  23  2.466339E+04  1.540975E+05  4.473780E+04 -5.861880E+05  5.669969E+04  3.941215E+04
       226  24  8.452213E+04  1.606279E+05  8.974467E+04 -6.409605E+05  1.948844E+04  6.228588E+04
       226  25  2.074677E+05  1.006670E+06  1.778349E+05 -6.406678E+05  4.714055E+04 -4.741721E+04
       226  26  3.614298E+05  1.558767E+06  3.245786E+05 -6.143530E+05  5.661984E+04  6.577290E+04
       226  27  5.741444E+05  2.140327E+06  5.595158E+05 -6.977649E+05  1.919379E+04  1.790167E+05
       227   1 -1.180080E+06 -5.726916E+05 -3.246161E+05 -4.875452E+05 -1.477559E+05 -4.255437E+04
       227   2 -1.105214E+06 -4.292936E+05 -2.018574E+05 -4.560140E+05 -9.219769E+04  8.230173E+03
       227   3 -1.050638E+06 -3.608854E+05 -1.448637E+05 -4.240777E+05 -2.908273E+04  3.897753E+04
       227   4 -4.330035E+05 -2.289258E+05 -1.208533E+05 -2.177250E+05 -8.280621E+04 -1.814894E+04
       227   5 -4.198639E+05 -1.486942E+05 -5.666748E+04 -2.353196E+05 -6.319010E+04  1.912528E+04
       227   6 -4.198559E+05 -1.362864E+05 -2.969861E+04 -2.525220E+05 -3.603158E+04  3.636143E+04
       227   7  3.146269E+05  1.149602E+05  8.287438E+04  5.241585E+04 -1.777220E+04  6.305001E+03
       227   8  2.659721E+05  1.319783E+05  8.849962E+04 -1.438853E+04 -3.414821E+04  3.003678E+04
       227   9  2.113482E+05  8.834794E+04  8.545343E+04 -8.080417E+04 -4.298803E+04  3.374261E+04
       227  10 -1.180104E+06 -5.726994E+05 -3.246607E+05 -4.875502E+05  1.087849E-11 -2.887539E-10
       227  11 -1.105223E+06 -4.292960E+05 -2.018736E+05 -4.560134E+05 -3.564168E-09  3.779153E-10
       227  12 -1.050639E+06 -3.608873E+05 -1.448682E+05 -4.240767E+05 -2.338230E-09  4.596128E-10
       227  13 -4.330110E+05 -2.289280E+05 -1.208668E+05 -2.177262E+05 -8.133688E-10  6.834139E-11
       227  14 -4.198683E+05 -1.486957E+05 -5.667567E+04 -2.353186E+05 -1.165440E-09  2.622536E-10
       227  15 -4.198576E+05 -1.362881E+05 -2.970353E+04 -2.525209E+05  7.069503E-10 -8.194684E-10
       227  16  3.146265E+05  1.149600E+05  8.287372E+04  5.241594E+04 -3.267444E-10  5.322882E-10
       227  17  2.659706E+05  1.319770E+05  8.849574E+04 -1.438770E+04  3.075768E-09  1.965751E-09
       227  18  2.113459E+05  8.834623E+04  8.544782E+04 -8.080300E+04  2.983299E-10  1.413395E-09
       227  19 -1.180080E+06 -5.726916E+05 -3.246161E+05 -4.875452E+05  1.477559E+05  4.255437E+04
       227  20 -1.105214E+06 -4.292936E+05 -2.018574E+05 -4.560140E+05  9.219769E+04 -8.230173E+03
       227  21 -1.050638E+06 -3.608854E+05 -1.448637E+05 -4.240777E+05  2.908273E+04 -3.897753E+04
       227  22 -4.330035E+05 -2.289258E+05 -1.208533E+05 -2.177250E+05  8.280621E+04  1.814894E+04
       227  23 -4.198639E+05 -1.486942E+05 -5.666748E+04 -2.353196E+05  6.319010E+04 -1.912528E+04
       227  24 -4.198559E+05 -1.362864E+05 -2.969861E+04 -2.525220E+05  3.603158E+04 -3.636143E+04
       227  25  3.146269E+05  1.149602E+05  8.287438E+04  5.241585E+04  1.777220E+04 -6.305001E+03
       227  26  2.659721E+05  1.319783E+05  8.849962E+04 -1.438853E+04  3.414821E+04 -3.003678E+04
       227  27  2.113482E+05  8.834794E+04  8.545343E+04 -8.080417E+04  4.298803E+04 -3.374261E+04
       228   1 -9.883688E+05 -3.460139E+05 -1.261304E+05 -4.132697E+05 -2.679521E+04  3.677430E+04
       228   2 -9.120113E+05 -3.040888E+05 -9.763044E+04 -3.832150E+05 -1.619381E+04  3.659800E+04
       228   3 -8.255765E+05 -2.788441E+05 -7.704195E+04 -3.670620E+05 -4.893774E+03  3.456042E+04
       228   4 -4.161994E+05 -1.365155E+05 -2.228473E+04 -2.512770E+05 -3.167636E+04  3.493606E+04
       228   5 -4.212054E+05 -1.260435E+05 -1.170130E+04 -2.452440E+05 -2.441102E+04  3.350825E+04
       228   6 -4.154765E+05 -1.315882E+05 -6.379065E+03 -2.531151E+05 -1.644855E+04  3.021947E+04
       228   7  1.563090E+05  7.301368E+04  8.154788E+04 -8.914597E+04 -3.656227E+04  3.309600E+04
       228   8  6.985596E+04  5.202600E+04  7.422073E+04 -1.071707E+05 -3.263515E+04  3.041587E+04
       228   9 -5.193464E+03  1.568552E+04  6.428073E+04 -1.390966E+05 -2.801157E+04  2.587546E+04
       228  10 -9.883699E+05 -3.460156E+05 -1.261343E+05 -4.132689E+05  5.789275E-10  7.170012E-10
       228  11 -9.120120E+05 -3.040903E+05 -9.763345E+04 -3.832145E+05 -2.904415E-09  3.887659E-10
       228  12 -8.255768E+05 -2.788454E+05 -7.704424E+04 -3.670619E+05 -1.481986E-10  3.719757E-10
       228  13 -4.162009E+05 -1.365171E+05 -2.228891E+04 -2.512761E+05 -9.515203E-10  2.135756E-10
       228  14 -4.212063E+05 -1.260448E+05 -1.170453E+04 -2.452434E+05  1.884575E-10  1.005307E-09
       228  15 -4.154771E+05 -1.315893E+05 -6.381289E+03 -2.531147E+05  4.874137E-09  1.390727E-09
       228  16  1.563073E+05  7.301215E+04  8.154331E+04 -8.914499E+04 -2.537945E-09  5.480049E-11
       228  17  6.985456E+04  5.202472E+04  7.421700E+04 -1.071699E+05  2.447878E-09 -8.162038E-10
       228  18 -5.194486E+03  1.568459E+04  6.427799E+04 -1.390960E+05  9.118119E-09  2.603061E-09
       228  19 -9.883688E+05 -3.460139E+05 -1.261304E+05 -4.132697E+05  2.679521E+04 -3.677430E+04
       228  20 -9.120113E+05 -3.040888E+05 -9.763044E+04 -3.832150E+05  1.619381E+04 -3.659800E+04
       228  21 -8.255765E+05 -2.788441E+05 -7.704195E+04 -3.670620E+05  4.893774E+03 -3.456042E+04
       228  22 -4.161994E+05 -1.365155E+05 -2.228473E+04 -2.512770E+05  3.167636E+04 -3.493606E+04
       228  23 -4.212054E+05 -1.260435E+05 -1.170130E+04 -2.452440E+05  2.441102E+04 -3.350825E+04
       228  24 -4.154765E+05 -1.315882E+05 -6.379065E+03 -2.531151E+05  1.644855E+04 -3.021947E+04
       228  25  1.563090E+05  7.301368E+04  8.154788E+04 -8.914597E+04  3.656227E+04 -3.309600E+04
       228  26  6.985596E+04  5.202600E+04  7.422073E+04 -1.071707E+05  3.263515E+04 -3.041587E+04
       228  27 -5.193464E+03  1.568552E+04  6.428073E+04 -1.390966E+05  2.801157E+04 -2.587546E+04
       229   1 -7.719849E+05 -2.600287E+05 -6.586639E+04 -3.525552E+05 -2.781800E+03  3.103379E+04
       229   2 -6.960426E+05 -2.238277E+05 -4.955132E+04 -3.223240E+05  1.254907E+03  2.522820E+04
       229   3 -6.075890E+05 -2.006748E+05 -3.450543E+04 -3.067315E+05  5.355654E+03  1.924830E+04
       229   4 -4.151605E+05 -1.316268E+05 -4.790621E+03 -2.530070E+05 -1.414887E+04  2.676444E+04
       229   5 -4.214219E+05 -1.250395E+05 -2.634092E+03 -2.457183E+05 -1.042476E+04  2.084289E+04
       229   6 -4.151174E+05 -1.314383E+05 -1.498936E+03 -2.530705E+05 -6.636874E+03  1.474701E+04
       229   7 -5.820068E+04 -3.212471E+03  5.628210E+04 -1.534052E+05 -2.552288E+04  2.249250E+04
       229   8 -1.467223E+05 -2.624440E+04  4.428120E+04 -1.690813E+05 -2.210987E+04  1.645555E+04
       229   9 -2.226082E+05 -6.219885E+04  3.150655E+04 -1.993943E+05 -1.863323E+04  1.024428E+04
       229  10 -7.719851E+05 -2.600297E+05 -6.586822E+04 -3.525552E+05  8.495941E-09  2.114089E-09
       229  11 -6.960427E+05 -2.238284E+05 -4.955252E+04 -3.223241E+05  2.312744E-09 -1.089017E-09
       229  12 -6.075892E+05 -2.006752E+05 -3.450618E+04 -3.067316E+05 -2.053347E-10 -7.917839E-10
       229  13 -4.151609E+05 -1.316277E+05 -4.792343E+03 -2.530067E+05  1.986282E-09  1.222283E-09
       229  14 -4.214221E+05 -1.250400E+05 -2.635113E+03 -2.457182E+05  7.182133E-11 -3.913976E-11
       229  15 -4.151175E+05 -1.314385E+05 -1.499428E+03 -2.530704E+05  1.351150E-09  9.520775E-10
       229  16 -5.820152E+04 -3.213189E+03  5.627993E+04 -1.534047E+05  1.105358E-09  2.274678E-10
       229  17 -1.467229E+05 -2.624482E+04  4.427978E+04 -1.690810E+05 -1.374522E-09 -3.079678E-10
       229  18 -2.226086E+05 -6.219905E+04  3.150570E+04 -1.993942E+05  8.565550E-09  2.622154E-09
       229  19 -7.719849E+05 -2.600287E+05 -6.586639E+04 -3.525552E+05  2.781800E+03 -3.103379E+04
       229  20 -6.960426E+05 -2.238277E+05 -4.955132E+04 -3.223240E+05 -1.254907E+03 -2.522820E+04
       229  21 -6.075890E+05 -2.006748E+05 -3.450543E+04 -3.067315E+05 -5.355654E+03 -1.924830E+04
       229  22 -4.151605E+05 -1.316268E+05 -4.790621E+03 -2.530070E+05  1.414887E+04 -2.676444E+04
       229  23 -4.214219E+05 -1.250395E+05 -2.634092E+03 -2.457183E+05  1.042476E+04 -2.084289E+04
       229  24 -4.151174E+05 -1.314383E+05 -1.498936E+03 -2.530705E+05  6.636874E+03 -1.474701E+04
       229  25 -5.820068E+04 -3.212471E+03  5.628210E+04 -1.534052E+05  2.552288E+04 -2.249250E+04
       229  26 -1.467223E+05 -2.624440E+04  4.428120E+04 -1.690813E+05  2.210987E+04 -1.645555E+04
       229  27 -2.226082E+05 -6.219885E+04  3.150655E+04 -1.993943E+05  1.863323E+04 -1.024428E+04
       230   1 -5.545976E+05 -1.815806E+05 -2.473839E+04 -2.919915E+05  7.020563E+03  1.543507E+04
       230   2 -4.787348E+05 -1.456277E+05 -1.052176E+04 -2.616969E+05  9.934059E+03  8.913308E+03
       230   3 -3.901142E+05 -1.224952E+05  3.390028E+03 -2.460625E+05  1.285276E+04  2.376835E+03
       230   4 -4.150791E+05 -1.314439E+05 -1.166581E+03 -2.530581E+05 -4.956507E+03  1.094009E+04
       230   5 -4.214543E+05 -1.250373E+05 -7.651004E+02 -2.457248E+05 -2.070222E+03  4.408385E+03
       230   6 -4.150756E+05 -1.314473E+05 -6.480285E+02 -2.530551E+05  8.212073E+02 -2.138037E+03
       230   7 -2.755381E+05 -8.130459E+04  2.240575E+04 -2.141161E+05 -1.693657E+04  6.443990E+03
       230   8 -3.641696E+05 -1.044464E+05  8.992176E+03 -2.297512E+05 -1.407575E+04 -9.700320E+01
       230   9 -4.400360E+05 -1.403993E+05 -4.685480E+03 -2.600473E+05 -1.120984E+04 -6.652718E+03
       230  10 -5.545977E+05 -1.815808E+05 -2.473893E+04 -2.919916E+05 -1.774873E-08 -8.284220E-09
       230  11 -4.787349E+05 -1.456278E+05 -1.052209E+04 -2.616969E+05 -3.212344E-09 -3.764742E-09
       230  12 -3.901144E+05 -1.224952E+05  3.389707E+03 -2.460625E+05  2.055103E-08  9.538859E-09
       230  13 -4.150792E+05 -1.314440E+05 -1.166852E+03 -2.530581E+05  2.464431E-10  5.361430E-11
       230  14 -4.214543E+05 -1.250373E+05 -7.651450E+02 -2.457248E+05 -6.319988E-09 -3.579588E-09
       230  15 -4.150756E+05 -1.314473E+05 -6.480384E+02 -2.530551E+05 -3.172922E-09  1.150537E-10
       230  16 -2.755384E+05 -8.130471E+04  2.240513E+04 -2.141160E+05  2.269608E-08  7.830738E-09
       230  17 -3.641698E+05 -1.044464E+05  8.991803E+03 -2.297512E+05 -8.032372E-09 -2.748119E-09
       230  18 -4.400361E+05 -1.403994E+05 -4.685799E+03 -2.600474E+05 -2.640148E-08 -9.207659E-09
       230  19 -5.545976E+05 -1.815806E+05 -2.473839E+04 -2.919915E+05 -7.020563E+03 -1.543507E+04
       230  20 -4.787348E+05 -1.456277E+05 -1.052176E+04 -2.616969E+05 -9.934059E+03 -8.913308E+03
       230  21 -3.901142E+05 -1.224952E+05  3.390028E+03 -2.460625E+05 -1.285276E+04 -2.376835E+03
       230  22 -4.150791E+05 -1.314439E+05 -1.166581E+03 -2.530581E+05  4.956507E+03 -1.094009E+04
       230  23 -4.214543E+05 -1.250373E+05 -7.651004E+02 -2.457248E+05  2.070222E+03 -4.408385E+03
       230  24 -4.150756E+05 -1.314473E+05 -6.480285E+02 -2.530551E+05 -8.212073E+02  2.138037E+03
       230  25 -2.755381E+05 -8.130459E+04  2.240575E+04 -2.141161E+05  1.693657E+04 -6.443990E+03
       230  26 -3.641696E+05 -1.044464E+05  8.992176E+03 -2.297512E+05  1.407575E+04  9.700320E+01
       230  27 -4.400360E+05 -1.403993E+05 -4.685480E+03 -2.600473E+05  1.120984E+04  6.652718E+03
       231   1 -3.371762E+05 -1.033796E+05  1.278320E+04 -2.313090E+05  1.442683E+04 -1.480136E+03
       231   2 -2.613086E+05 -6.743309E+04  2.633077E+04 -2.010156E+05  1.736487E+04 -8.006483E+03
       231   3 -1.726859E+05 -4.429870E+04  3.956027E+04 -1.853828E+05  2.029709E+04 -1.451496E+04
       231   4 -4.150799E+05 -1.314481E+05 -6.760995E+02 -2.530556E+05  2.395016E+03 -5.995251E+03
       231   5 -4.214552E+05 -1.250388E+05 -9.214831E+02 -2.457258E+05  5.363930E+03 -1.251082E+04
       231   6 -4.150884E+05 -1.314485E+05 -1.509633E+03 -2.530592E+05  8.326975E+03 -1.900858E+04
       231   7 -4.929759E+05 -1.595156E+05 -1.413473E+04 -2.747994E+05 -9.635072E+03 -1.050972E+04
       231   8 -5.815742E+05 -1.826419E+05 -2.817381E+04 -2.904250E+05 -6.633722E+03 -1.701393E+04
       231   9 -6.574306E+05 -2.185932E+05 -4.258120E+04 -3.207115E+05 -3.638292E+03 -2.350038E+04
       231  10 -3.371765E+05 -1.033796E+05  1.278280E+04 -2.313089E+05  5.535454E-08  2.562996E-08
       231  11 -2.613089E+05 -6.743324E+04  2.633008E+04 -2.010155E+05  1.237614E-09  4.822042E-09
       231  12 -1.726864E+05 -4.429904E+04  3.955910E+04 -1.853825E+05 -5.404646E-08 -1.909510E-08
       231  13 -4.150799E+05 -1.314482E+05 -6.761778E+02 -2.530556E+05  9.387801E-10  3.303730E-09
       231  14 -4.214552E+05 -1.250390E+05 -9.218312E+02 -2.457257E+05  2.115529E-09  4.595794E-09
       231  15 -4.150886E+05 -1.314489E+05 -1.510442E+03 -2.530591E+05  1.117317E-09  2.638122E-09
       231  16 -4.929760E+05 -1.595158E+05 -1.413511E+04 -2.747995E+05 -5.490200E-08 -1.840259E-08
       231  17 -5.815743E+05 -1.826422E+05 -2.817444E+04 -2.904251E+05  2.935916E-09  4.883849E-09
       231  18 -6.574308E+05 -2.185938E+05 -4.258226E+04 -3.207116E+05  5.563418E-08  2.449478E-08
       231  19 -3.371762E+05 -1.033796E+05  1.278320E+04 -2.313090E+05 -1.442683E+04  1.480136E+03
       231  20 -2.613086E+05 -6.743309E+04  2.633077E+04 -2.010156E+05 -1.736487E+04  8.006483E+03
       231  21 -1.726859E+05 -4.429870E+04  3.956027E+04 -1.853828E+05 -2.029709E+04  1.451496E+04
       231  22 -4.150799E+05 -1.314481E+05 -6.760995E+02 -2.530556E+05 -2.395016E+03  5.995251E+03
       231  23 -4.214552E+05 -1.250388E+05 -9.214831E+02 -2.457258E+05 -5.363930E+03  1.251082E+04
       231  24 -4.150884E+05 -1.314485E+05 -1.509633E+03 -2.530592E+05 -8.326975E+03  1.900858E+04
       231  25 -4.929759E+05 -1.595156E+05 -1.413473E+04 -2.747994E+05  9.635072E+03  1.050972E+04
       231  26 -5.815742E+05 -1.826419E+05 -2.817381E+04 -2.904250E+05  6.633722E+03  1.701393E+04
       231  27 -6.574306E+05 -2.185932E+05 -4.258120E+04 -3.207115E+05  3.638292E+03  2.350038E+04
       232   1 -1.197762E+05 -2.520405E+04  4.853022E+04 -1.706760E+05  2.206189E+04 -1.828651E+04
       232   2 -4.388755E+04  1.074286E+04  6.090592E+04 -1.403610E+05  2.593401E+04 -2.433001E+04
       232   3  4.455960E+04  3.370837E+04  7.219482E+04 -1.246795E+05  2.973446E+04 -3.017690E+04
       232   4 -4.151442E+05 -1.314432E+05 -1.971932E+03 -2.530775E+05  1.007415E+04 -2.278758E+04
       232   5 -4.214151E+05 -1.250436E+05 -3.516989E+03 -2.457168E+05  1.429724E+04 -2.870125E+04
       232   6 -4.152038E+05 -1.316963E+05 -6.427670E+03 -2.529931E+05  1.844842E+04 -3.441830E+04
       232   7 -7.104192E+05 -2.376737E+05 -5.247586E+04 -3.354422E+05 -1.907518E+03 -2.728639E+04
       232   8 -7.987888E+05 -2.608151E+05 -6.794267E+04 -3.510121E+05  2.668051E+03 -3.306965E+04
       232   9 -8.747374E+05 -2.970782E+05 -8.505413E+04 -3.812164E+05  7.171386E+03 -3.865633E+04
       232  10 -1.197768E+05 -2.520454E+04  4.852868E+04 -1.706757E+05 -2.623516E-08 -1.111818E-08
       232  11 -4.388843E+04  1.074204E+04  6.090355E+04 -1.403605E+05 -6.527109E-09 -3.910503E-09
       232  12  4.455841E+04  3.370715E+04  7.219145E+04 -1.246788E+05  1.919235E-08  7.284270E-09
       232  13 -4.151445E+05 -1.314438E+05 -1.973098E+03 -2.530773E+05 -1.135999E-09  1.198931E-10
       232  14 -4.214156E+05 -1.250445E+05 -3.518921E+03 -2.457165E+05 -3.070993E-09 -3.296987E-09
       232  15 -4.152045E+05 -1.316976E+05 -6.430535E+03 -2.529925E+05 -9.403600E-10 -2.241199E-09
       232  16 -7.104194E+05 -2.376745E+05 -5.247727E+04 -3.354423E+05  2.335055E-08  1.050128E-08
       232  17 -7.987891E+05 -2.608163E+05 -6.794474E+04 -3.510120E+05 -1.087121E-09 -3.445197E-09
       232  18 -8.747378E+05 -2.970798E+05 -8.505704E+04 -3.812162E+05 -2.353138E-08 -1.115552E-08
       232  19 -1.197762E+05 -2.520405E+04  4.853022E+04 -1.706760E+05 -2.206189E+04  1.828651E+04
       232  20 -4.388755E+04  1.074286E+04  6.090592E+04 -1.403610E+05 -2.593401E+04  2.433001E+04
       232  21  4.455960E+04  3.370837E+04  7.219482E+04 -1.246795E+05 -2.973446E+04  3.017690E+04
       232  22 -4.151442E+05 -1.314432E+05 -1.971932E+03 -2.530775E+05 -1.007415E+04  2.278758E+04
       232  23 -4.214151E+05 -1.250436E+05 -3.516989E+03 -2.457168E+05 -1.429724E+04  2.870125E+04
       232  24 -4.152038E+05 -1.316963E+05 -6.427670E+03 -2.529931E+05 -1.844842E+04  3.441830E+04
       232  25 -7.104192E+05 -2.376737E+05 -5.247586E+04 -3.354422E+05  1.907518E+03  2.728639E+04
       232  26 -7.987888E+05 -2.608151E+05 -6.794267E+04 -3.510121E+05 -2.668051E+03  3.306965E+04
       232  27 -8.747374E+05 -2.970782E+05 -8.505413E+04 -3.812164E+05 -7.171386E+03  3.865633E+04
       233   1  9.755466E+04  5.250932E+04  7.965975E+04 -1.105352E+05  3.254181E+04 -3.342122E+04
       233   2  1.723655E+05  8.895223E+04  8.794261E+04 -7.801214E+04  3.871733E+04 -3.720254E+04
       233   3  2.579665E+05  1.090056E+05  9.213652E+04 -5.915114E+04  4.410899E+04 -3.889006E+04
       233   4 -4.156197E+05 -1.316461E+05 -8.565022E+03 -2.531410E+05  2.104360E+04 -3.774371E+04
       233   5 -4.211232E+05 -1.263825E+05 -1.572267E+04 -2.450741E+05  3.097526E+04 -4.011666E+04
       233   6 -4.165914E+05 -1.382584E+05 -2.995097E+04 -2.506740E+05  4.012209E+04 -4.039490E+04
       233   7 -9.285200E+05 -3.157784E+05 -9.679830E+04 -3.956384E+05  9.555377E+03 -4.206250E+04
       233   8 -1.014242E+06 -3.416831E+05 -1.193993E+05 -4.119874E+05  2.324103E+04 -4.302781E+04
       233   9 -1.090670E+06 -3.854762E+05 -1.520543E+05 -4.420019E+05  3.613979E+04 -4.189795E+04
       233  10  9.755323E+04  5.250783E+04  7.965566E+04 -1.105343E+05 -1.264091E-09  8.874522E-11
       233  11  1.723635E+05  8.895034E+04  8.793719E+04 -7.801098E+04 -7.327747E-10 -6.333598E-10
       233  12  2.579640E+05  1.090035E+05  9.213002E+04 -5.914976E+04  1.685412E-09 -2.491303E-09
       233  13 -4.156206E+05 -1.316478E+05 -8.568530E+03 -2.531404E+05  2.175369E-10 -2.255450E-09
       233  14 -4.211247E+05 -1.263845E+05 -1.572750E+04 -2.450731E+05  9.058044E-10 -1.722777E-09
       233  15 -4.165936E+05 -1.382606E+05 -2.995706E+04 -2.506727E+05  1.606780E-09 -2.398198E-10
       233  16 -9.285206E+05 -3.157803E+05 -9.680180E+04 -3.956381E+05  1.270705E-09 -1.704047E-09
       233  17 -1.014243E+06 -3.416853E+05 -1.194038E+05 -4.119865E+05 -3.712856E-10 -4.134382E-10
       233  18 -1.090672E+06 -3.854784E+05 -1.520601E+05 -4.420007E+05 -6.077610E-10  7.138506E-10
       233  19  9.755466E+04  5.250932E+04  7.965975E+04 -1.105352E+05 -3.254181E+04  3.342122E+04
       233  20  1.723655E+05  8.895223E+04  8.794261E+04 -7.801214E+04 -3.871733E+04  3.720254E+04
       233  21  2.579665E+05  1.090056E+05  9.213652E+04 -5.915114E+04 -4.410899E+04  3.889006E+04
       233  22 -4.156197E+05 -1.316461E+05 -8.565022E+03 -2.531410E+05 -2.104360E+04  3.774371E+04
       233  23 -4.211232E+05 -1.263825E+05 -1.572267E+04 -2.450741E+05 -3.097526E+04  4.011666E+04
       233  24 -4.165914E+05 -1.382584E+05 -2.995097E+04 -2.506740E+05 -4.012209E+04  4.039490E+04
       233  25 -9.285200E+05 -3.157784E+05 -9.679830E+04 -3.956384E+05 -9.555377E+03  4.206250E+04
       233  26 -1.014242E+06 -3.416831E+05 -1.193993E+05 -4.119874E+05 -2.324103E+04  4.302781E+04
       233  27 -1.090670E+06 -3.854762E+05 -1.520543E+05 -4.420019E+05 -3.613979E+04  4.189795E+04
       234   1  3.135174E+05  1.228298E+05  9.372175E+04 -5.312272E+04  5.189086E+04 -3.884989E+04
       234   2  3.613115E+05  1.688452E+05  8.951692E+04  2.626747E+04  4.807195E+04 -3.141151E+04
       234   3  3.953349E+05  1.359621E+05  6.741698E+04  1.109595E+05  3.576820E+04 -1.435280E+03
       234   4 -4.214528E+05 -1.379946E+05 -3.991594E+04 -2.524038E+05  4.557122E+04 -4.123229E+04
       234   5 -4.193765E+05 -1.567432E+05 -7.616278E+04 -2.316668E+05  8.225912E+04 -1.856184E+04
       234   6 -4.391424E+05 -2.624861E+05 -1.624349E+05 -2.056253E+05  1.104542E+05  2.666021E+04
       234   7 -1.155855E+06 -3.987735E+05 -1.735725E+05 -4.514673E+05  3.925957E+04 -4.361184E+04
       234   8 -1.199415E+06 -4.822199E+05 -2.418666E+05 -4.892780E+05  1.163996E+05 -5.735270E+03
       234   9 -1.272880E+06 -6.607354E+05 -3.923170E+05 -5.217684E+05  1.850285E+05  5.468774E+04
       234  10  3.135141E+05  1.228275E+05  9.371386E+04 -5.312110E+04  2.286661E-09 -2.947389E-09
       234  11  3.613088E+05  1.688435E+05  8.951072E+04  2.626869E+04 -8.100949E-09 -5.750045E-09
       234  12  3.953335E+05  1.359618E+05  6.741457E+04  1.109595E+05 -8.482076E-09 -3.770413E-09
       234  13 -4.214555E+05 -1.379970E+05 -3.992304E+04 -2.524023E+05 -1.817618E-09 -3.194014E-09
       234  14 -4.193838E+05 -1.567454E+05 -7.617615E+04 -2.316655E+05 -7.913609E-09  6.412963E-11
       234  15 -4.391557E+05 -2.624902E+05 -1.624592E+05 -2.056277E+05 -2.962516E-09 -2.106154E-09
       234  16 -1.155857E+06 -3.987760E+05 -1.735790E+05 -4.514659E+05 -6.124510E-09 -1.784648E-09
       234  17 -1.199430E+06 -4.822235E+05 -2.418922E+05 -4.892775E+05 -6.466471E-09 -1.782500E-09
       234  18 -1.272918E+06 -6.607479E+05 -3.923871E+05 -5.217766E+05  2.190798E-09  1.376111E-09
       234  19  3.135174E+05  1.228298E+05  9.372175E+04 -5.312272E+04 -5.189086E+04  3.884989E+04
       234  20  3.613115E+05  1.688452E+05  8.951692E+04  2.626747E+04 -4.807195E+04  3.141151E+04
       234  21  3.953349E+05  1.359621E+05  6.741698E+04  1.109595E+05 -3.576820E+04  1.435280E+03
       234  22 -4.214528E+05 -1.379946E+05 -3.991594E+04 -2.524038E+05 -4.557122E+04  4.123229E+04
       234  23 -4.193765E+05 -1.567432E+05 -7.616278E+04 -2.316668E+05 -8.225912E+04  1.856184E+04
       234  24 -4.391424E+05 -2.624861E+05 -1.624349E+05 -2.056253E+05 -1.104542E+05 -2.666021E+04
       234  25 -1.155855E+06 -3.987735E+05 -1.735725E+05 -4.514673E+05 -3.925957E+04  4.361184E+04
       234  26 -1.199415E+06 -4.822199E+05 -2.418666E+05 -4.892780E+05 -1.163996E+05  5.735270E+03
       234  27 -1.272880E+06 -6.607354E+05 -3.923170E+05 -5.217684E+05 -1.850285E+05 -5.468774E+04
       235   1  1.182926E+06  1.597990E+05  1.382044E+05  1.772346E+03  2.221576E+04 -1.402230E+04
       235   2  1.137457E+06  1.995976E+05  1.292401E+05  2.613378E+04  3.048041E+03 -4.809672E+04
       235   3  1.085528E+06  2.033871E+05  1.237898E+05  5.852599E+04 -1.615670E+04 -6.003317E+04
       235   4  1.907375E+05 -8.428003E+04 -9.201352E+04  5.501694E+04 -6.445095E+04 -1.419273E+04
       235   5  1.976777E+05 -2.300378E+04 -4.536643E+04  5.091425E+04 -4.106553E+04 -4.819621E+04
       235   6  1.907583E+05 -5.152780E+03 -2.474425E+04  5.484232E+04 -1.771821E+04 -6.004459E+04
       235   7 -8.005212E+05 -3.284134E+05 -3.222677E+05  1.081755E+05 -1.509803E+05 -1.437816E+04
       235   8 -7.412424E+05 -2.456524E+05 -2.200027E+05  7.565585E+04 -8.511410E+04 -4.829931E+04
       235   9 -7.032217E+05 -2.137341E+05 -1.733025E+05  5.116367E+04 -1.927753E+04 -6.005601E+04
       235  10  1.182926E+06  1.597986E+05  1.382031E+05  1.772597E+03  4.062659E-09 -1.222763E-09
       235  11  1.137457E+06  1.995951E+05  1.292358E+05  2.613390E+04  2.750444E-09 -5.510959E-09
       235  12  1.085527E+06  2.033831E+05  1.237825E+05  5.852521E+04  5.321123E-10 -4.541665E-09
       235  13  1.907330E+05 -8.428137E+04 -9.202171E+04  5.501621E+04 -1.035177E-09  1.277735E-09
       235  14  1.976752E+05 -2.300673E+04 -4.537397E+04  5.091266E+04  8.168724E-10 -3.318830E-09
       235  15  1.907570E+05 -5.156736E+03 -2.475161E+04  5.484146E+04  3.354106E-09 -6.672717E-10
       235  16 -8.005457E+05 -3.284197E+05 -3.223110E+05  1.081738E+05 -5.761163E-09  5.737566E-10
       235  17 -7.412508E+05 -2.456568E+05 -2.200207E+05  7.565254E+04 -3.696850E-09 -6.460537E-09
       235  18 -7.032231E+05 -2.137381E+05 -1.733099E+05  5.116274E+04  6.286722E-10 -5.777266E-09
       235  19  1.182926E+06  1.597990E+05  1.382044E+05  1.772346E+03 -2.221576E+04  1.402230E+04
       235  20  1.137457E+06  1.995976E+05  1.292401E+05  2.613378E+04 -3.048041E+03  4.809672E+04
       235  21  1.085528E+06  2.033871E+05  1.237898E+05  5.852599E+04  1.615670E+04  6.003317E+04
       235  22  1.907375E+05 -8.428003E+04 -9.201352E+04  5.501694E+04  6.445095E+04  1.419273E+04
       235  23  1.976777E+05 -2.300378E+04 -4.536643E+04  5.091425E+04  4.106553E+04  4.819621E+04
       235  24  1.907583E+05 -5.152780E+03 -2.474425E+04  5.484232E+04  1.771821E+04  6.004459E+04
       235  25 -8.005212E+05 -3.284134E+05 -3.222677E+05  1.081755E+05  1.509803E+05  1.437816E+04
       235  26 -7.412424E+05 -2.456524E+05 -2.200027E+05  7.565585E+04  8.511410E+04  4.829931E+04
       235  27 -7.032217E+05 -2.137341E+05 -1.733025E+05  5.116367E+04  1.927753E+04  6.005601E+04
       236   1  1.056300E+06  1.958302E+05  1.221008E+05  5.442198E+04 -1.185577E+04 -5.982814E+04
       236   2  1.008242E+06  1.874188E+05  1.181158E+05  5.108720E+04 -1.124578E+04 -6.004381E+04
       236   3  9.595970E+05  1.769793E+05  1.132316E+05  5.725621E+04 -1.064251E+04 -5.791493E+04
       236   4  1.935440E+05 -4.739276E+03 -1.867858E+04  5.518689E+04 -1.451211E+04 -5.984214E+04
       236   5  1.942416E+05 -9.306145E+02 -1.022064E+04  5.042838E+04 -9.400129E+03 -6.004670E+04
       236   6  1.935691E+05  6.716510E+01 -5.788333E+03  5.517451E+04 -4.294734E+03 -5.790513E+04
       236   7 -6.684755E+05 -2.053468E+05 -1.594791E+05  5.595026E+04 -1.716487E+04 -5.985617E+04
       236   8 -6.190992E+05 -1.893129E+05 -1.385735E+05  4.977004E+04 -7.556801E+03 -6.004959E+04
       236   9 -5.718735E+05 -1.768736E+05 -1.248218E+05  5.309508E+04  2.045515E+03 -5.789537E+04
       236  10  1.056299E+06  1.958264E+05  1.220938E+05  5.442141E+04 -6.913552E-09 -5.243612E-09
       236  11  1.008240E+06  1.874149E+05  1.181088E+05  5.108665E+04  1.104729E-09  5.083123E-10
       236  12  9.595960E+05  1.769756E+05  1.132251E+05  5.725571E+04  1.964384E-09  1.414037E-09
       236  13  1.935429E+05 -4.743179E+03 -1.868571E+04  5.518619E+04  1.107518E-09 -2.901989E-09
       236  14  1.942405E+05 -9.345103E+02 -1.022759E+04  5.042793E+04  8.613679E-10 -1.797591E-10
       236  15  1.935682E+05  6.355929E+01 -5.794669E+03  5.517431E+04 -5.035773E-10 -4.116187E-09
       236  16 -6.684768E+05 -2.053507E+05 -1.594863E+05  5.594944E+04  7.089550E-09  8.142550E-10
       236  17 -6.191003E+05 -1.893167E+05 -1.385804E+05  4.976968E+04 -1.060099E-09  1.932759E-09
       236  18 -5.718744E+05 -1.768772E+05 -1.248281E+05  5.309517E+04 -2.344598E-09 -7.413503E-10
       236  19  1.056300E+06  1.958302E+05  1.221008E+05  5.442198E+04  1.185577E+04  5.982814E+04
       236  20  1.008242E+06  1.874188E+05  1.181158E+05  5.108720E+04  1.124578E+04  6.004381E+04
       236  21  9.595970E+05  1.769793E+05  1.132316E+05  5.725621E+04  1.064251E+04  5.791493E+04
       236  22  1.935440E+05 -4.739276E+03 -1.867858E+04  5.518689E+04  1.451211E+04  5.984214E+04
       236  23  1.942416E+05 -9.306145E+02 -1.022064E+04  5.042838E+04  9.400129E+03  6.004670E+04
       236  24  1.935691E+05  6.716510E+01 -5.788333E+03  5.517451E+04  4.294734E+03  5.790513E+04
       236  25 -6.684755E+05 -2.053468E+05 -1.594791E+05  5.595026E+04  1.716487E+04  5.985617E+04
       236  26 -6.190992E+05 -1.893129E+05 -1.385735E+05  4.977004E+04  7.556801E+03  6.004959E+04
       236  27 -5.718735E+05 -1.768736E+05 -1.248218E+05  5.309508E+04 -2.045515E+03  5.789537E+04
       237   1  9.290130E+05  1.697680E+05  1.094218E+05  5.689468E+04 -9.648792E+03 -5.592084E+04
       237   2  8.808111E+05  1.587158E+05  1.034597E+05  5.200416E+04 -8.898748E+03 -5.255643E+04
       237   3  8.324779E+05  1.476269E+05  9.699367E+04  5.676155E+04 -8.151004E+03 -4.894486E+04
       237   4  1.938343E+05  6.381665E+01 -4.384081E+03  5.520793E+04 -3.419743E+03 -5.591043E+04
       237   5  1.939534E+05  2.379812E+02 -2.482806E+03  5.038335E+04 -2.196067E+03 -5.254327E+04
       237   6  1.938564E+05  2.931470E+02 -1.414970E+03  5.520730E+04 -9.746366E+02 -4.892881E+04
       237   7 -5.408050E+05 -1.696667E+05 -1.182022E+05  5.352289E+04  2.802220E+03 -5.590005E+04
       237   8 -4.924332E+05 -1.582627E+05 -1.084358E+05  4.876406E+04  4.499491E+03 -5.253015E+04
       237   9 -4.443577E+05 -1.470603E+05 -9.983257E+04  5.365440E+04  6.194640E+03 -4.891279E+04
       237  10  9.290121E+05  1.697646E+05  1.094157E+05  5.689425E+04 -5.090437E-09  3.605251E-09
       237  11  8.808103E+05  1.587128E+05  1.034544E+05  5.200378E+04  3.204876E-09  2.686220E-09
       237  12  8.324772E+05  1.476243E+05  9.698905E+04  5.676123E+04  6.121511E-09  3.911322E-10
       237  13  1.938334E+05  6.045647E+01 -4.389978E+03  5.520778E+04 -1.436208E-10 -5.005476E-09
       237  14  1.939526E+05  2.350150E+02 -2.488003E+03  5.038325E+04 -7.214982E-10  2.951298E-09
       237  15  1.938558E+05  2.905758E+02 -1.419471E+03  5.520726E+04 -4.726080E-10  6.035729E-09
       237  16 -5.408059E+05 -1.696700E+05 -1.182080E+05  5.352301E+04  4.659642E-09  4.060159E-10
       237  17 -4.924339E+05 -1.582657E+05 -1.084410E+05  4.876426E+04 -2.796081E-09  4.285718E-09
       237  18 -4.443583E+05 -1.470629E+05 -9.983714E+04  5.365465E+04 -7.669488E-09  8.640291E-10
       237  19  9.290130E+05  1.697680E+05  1.094218E+05  5.689468E+04  9.648792E+03  5.592084E+04
       237  20  8.808111E+05  1.587158E+05  1.034597E+05  5.200416E+04  8.898748E+03  5.255643E+04
       237  21  8.324779E+05  1.476269E+05  9.699367E+04  5.676155E+04  8.151004E+03  4.894486E+04
       237  22  1.938343E+05  6.381665E+01 -4.384081E+03  5.520793E+04  3.419743E+03  5.591043E+04
       237  23  1.939534E+05  2.379812E+02 -2.482806E+03  5.038335E+04  2.196067E+03  5.254327E+04
       237  24  1.938564E+05  2.931470E+02 -1.414970E+03  5.520730E+04  9.746366E+02  4.892881E+04
       237  25 -5.408050E+05 -1.696667E+05 -1.182022E+05  5.352289E+04 -2.802220E+03  5.590005E+04
       237  26 -4.924332E+05 -1.582627E+05 -1.084358E+05  4.876406E+04 -4.499491E+03  5.253015E+04
       237  27 -4.443577E+05 -1.470603E+05 -9.983257E+04  5.365440E+04 -6.194640E+03  4.891279E+04
       238   1  8.018244E+05  1.405046E+05  9.239935E+04  5.667755E+04 -7.917921E+03 -4.676430E+04
       238   2  7.536389E+05  1.293746E+05  8.549508E+04  5.174826E+04 -7.678083E+03 -4.302512E+04
       238   3  7.053944E+05  1.183072E+05  7.843721E+04  5.647226E+04 -7.439687E+03 -3.926078E+04
       238   4  1.938960E+05  2.919370E+02 -1.068791E+03  5.520859E+04 -7.560862E+02 -4.674744E+04
       238   5  1.939404E+05  2.736714E+02 -6.005581E+02  5.038169E+04 -4.684756E+02 -4.300683E+04
       238   6  1.939142E+05  3.096090E+02 -3.195739E+02  5.520858E+04 -1.822891E+02 -3.924104E+04
       238   7 -4.136630E+05 -1.399386E+05 -9.454495E+04  5.374085E+04  6.399013E+03 -4.673062E+04
       238   8 -3.654451E+05 -1.288424E+05 -8.670297E+04  4.901617E+04  6.734888E+03 -4.298856E+04
       238   9 -3.173045E+05 -1.177006E+05 -7.908201E+04  5.394578E+04  7.069364E+03 -3.922132E+04
       238  10  8.018238E+05  1.405023E+05  9.239512E+04  5.667725E+04  3.074120E-09  4.475261E-10
       238  11  7.536384E+05  1.293726E+05  8.549149E+04  5.174799E+04  2.947961E-09  8.931475E-09
       238  12  7.053939E+05  1.183055E+05  7.843421E+04  5.647202E+04 -1.010169E-09  7.998839E-09
       238  13  1.938955E+05  2.895900E+02 -1.072900E+03  5.520856E+04 -1.074869E-09  1.259329E-09
       238  14  1.939399E+05  2.716850E+02 -6.040346E+02  5.038168E+04  3.220937E-09  7.466189E-09
       238  15  1.939138E+05  3.079553E+02 -3.224679E+02  5.520857E+04  3.086253E-09  2.469252E-09
       238  16 -4.136636E+05 -1.399410E+05 -9.454913E+04  5.374109E+04 -4.854793E-09 -2.254414E-10
       238  17 -3.654456E+05 -1.288444E+05 -8.670653E+04  4.901640E+04 -3.017545E-09  1.931513E-09
       238  18 -3.173050E+05 -1.177023E+05 -7.908500E+04  5.394600E+04  9.324345E-10  9.584329E-11
       238  19  8.018244E+05  1.405046E+05  9.239935E+04  5.667755E+04  7.917921E+03  4.676430E+04
       238  20  7.536389E+05  1.293746E+05  8.549508E+04  5.174826E+04  7.678083E+03  4.302512E+04
       238  21  7.053944E+05  1.183072E+05  7.843721E+04  5.647226E+04  7.439687E+03  3.926078E+04
       238  22  1.938960E+05  2.919370E+02 -1.068791E+03  5.520859E+04  7.560862E+02  4.674744E+04
       238  23  1.939404E+05  2.736714E+02 -6.005581E+02  5.038169E+04  4.684756E+02  4.300683E+04
       238  24  1.939142E+05  3.096090E+02 -3.195739E+02  5.520858E+04  1.822891E+02  3.924104E+04
       238  25 -4.136630E+05 -1.399386E+05 -9.454495E+04  5.374085E+04 -6.399013E+03  4.673062E+04
       238  26 -3.654451E+05 -1.288424E+05 -8.670297E+04  4.901617E+04 -6.734888E+03  4.298856E+04
       238  27 -3.173045E+05 -1.177006E+05 -7.908201E+04  5.394578E+04 -7.069364E+03  3.922132E+04
       239   1  6.747536E+05  1.112048E+05  7.362542E+04  5.640801E+04 -7.393268E+03 -3.706230E+04
       239   2  6.266036E+05  1.000890E+05  6.645761E+04  5.148070E+04 -7.369768E+03 -3.328647E+04
       239   3  5.784067E+05  8.903972E+04  5.927279E+04  5.620558E+04 -7.347320E+03 -2.950909E+04
       239   4  1.939248E+05  3.142500E+02 -2.230953E+02  5.520832E+04 -1.389562E+02 -3.704189E+04
       239   5  1.939563E+05  2.907925E+02 -7.505456E+01  5.038203E+04 -1.127093E+02 -3.326504E+04
       239   6  1.939388E+05  3.335203E+02  5.412805E+01  5.520830E+04 -8.751105E+01 -2.948664E+04
       239   7 -2.866729E+05 -1.105874E+05 -7.407652E+04  5.400941E+04  7.109958E+03 -3.702150E+04
       239   8 -2.385038E+05 -9.951648E+04 -6.661168E+04  4.928400E+04  7.139491E+03 -3.324363E+04
       239   9 -1.903813E+05 -8.837981E+04 -5.916764E+04  5.421154E+04  7.167977E+03 -2.946421E+04
       239  10  6.747532E+05  1.112033E+05  7.362274E+04  5.640779E+04  7.174239E-08  2.234293E-09
       239  11  6.266032E+05  1.000878E+05  6.645543E+04  5.148051E+04  4.372065E-09 -1.286182E-09
       239  12  5.784064E+05  8.903877E+04  5.927105E+04  5.620540E+04 -6.488622E-08 -3.000350E-09
       239  13  1.939244E+05  3.127765E+02 -2.256740E+02  5.520832E+04  2.311044E-09  9.066973E-09
       239  14  1.939560E+05  2.896041E+02 -7.713422E+01  5.038203E+04  1.649807E-09  2.306856E-09
       239  15  1.939386E+05  3.325866E+02  5.249400E+01  5.520830E+04  2.119098E-09 -2.286503E-09
       239  16 -2.866733E+05 -1.105889E+05 -7.407919E+04  5.400962E+04 -6.915037E-08  5.383916E-09
       239  17 -2.385042E+05 -9.951768E+04 -6.661385E+04  4.928419E+04 -4.824285E-09  1.359171E-09
       239  18 -1.903816E+05 -8.838076E+04 -5.916937E+04  5.421171E+04  6.661462E-08 -6.077859E-10
       239  19  6.747536E+05  1.112048E+05  7.362542E+04  5.640801E+04  7.393268E+03  3.706230E+04
       239  20  6.266036E+05  1.000890E+05  6.645761E+04  5.148070E+04  7.369768E+03  3.328647E+04
       239  21  5.784067E+05  8.903972E+04  5.927279E+04  5.620558E+04  7.347320E+03  2.950909E+04
       239  22  1.939248E+05  3.142500E+02 -2.230953E+02  5.520832E+04  1.389562E+02  3.704189E+04
       239  23  1.939563E+05  2.907925E+02 -7.505456E+01  5.038203E+04  1.127093E+02  3.326504E+04
       239  24  1.939388E+05  3.335203E+02  5.412805E+01  5.520830E+04  8.751105E+01  2.948664E+04
       239  25 -2.866729E+05 -1.105874E+05 -7.407652E+04  5.400941E+04 -7.109958E+03  3.702150E+04
       239  26 -2.385038E+05 -9.951648E+04 -6.661168E+04  4.928400E+04 -7.139491E+03  3.324363E+04
       239  27 -1.903813E+05 -8.837981E+04 -5.916764E+04  5.421154E+04 -7.167977E+03  2.946421E+04
       240   1  5.477900E+05  8.194208E+04  5.443717E+04  5.613884E+04 -7.368370E+03 -2.731024E+04
       240   2  4.996625E+05  7.083322E+04  4.729653E+04  5.120373E+04 -7.517209E+03 -2.353450E+04
       240   3  4.515054E+05  5.981328E+04  4.025334E+04  5.591359E+04 -7.666765E+03 -1.976195E+04
       240   4  1.939472E+05  3.374249E+02  1.207444E+02  5.520669E+04 -1.099096E+02 -2.728729E+04
       240   5  1.939676E+05  3.143042E+02  2.889906E+02  5.038401E+04 -2.650801E+02 -2.351086E+04
       240   6  1.939571E+05  3.812753E+02  5.589636E+02  5.520657E+04 -4.209777E+02 -1.973762E+04
       240   7 -1.597704E+05 -8.127325E+04 -5.419824E+04  5.427499E+04  7.144577E+03 -2.726435E+04
       240   8 -1.116339E+05 -7.020910E+04 -4.672042E+04  4.956464E+04  6.983618E+03 -2.348723E+04
       240   9 -6.352491E+04 -5.905392E+04 -3.913670E+04  5.449981E+04  6.821921E+03 -1.971330E+04
       240  10  5.477898E+05  8.194126E+04  5.443567E+04  5.613868E+04 -7.449435E-09  2.245766E-09
       240  11  4.996623E+05  7.083261E+04  4.729538E+04  5.120358E+04 -6.461854E-09  1.495732E-09
       240  12  4.515053E+05  5.981284E+04  4.025249E+04  5.591346E+04 -5.833368E-09  6.996922E-10
       240  13  1.939470E+05  3.366252E+02  1.193451E+02  5.520669E+04  1.626414E-12  2.330886E-09
       240  14  1.939674E+05  3.137105E+02  2.879516E+02  5.038401E+04 -6.313610E-10  1.946585E-09
       240  15  1.939570E+05  3.808569E+02  5.582311E+02  5.520657E+04  9.319301E-10  2.325910E-09
       240  16 -1.597707E+05 -8.127406E+04 -5.419973E+04  5.427515E+04  1.018677E-08  4.370547E-09
       240  17 -1.116341E+05 -7.020971E+04 -4.672155E+04  4.956477E+04  4.165409E-09 -6.767831E-09
       240  18 -6.352506E+04 -5.905435E+04 -3.913752E+04  5.449992E+04  4.245225E-09 -4.515922E-10
       240  19  5.477900E+05  8.194208E+04  5.443717E+04  5.613884E+04  7.368370E+03  2.731024E+04
       240  20  4.996625E+05  7.083322E+04  4.729653E+04  5.120373E+04  7.517209E+03  2.353450E+04
       240  21  4.515054E+05  5.981328E+04  4.025334E+04  5.591359E+04  7.666765E+03  1.976195E+04
       240  22  1.939472E+05  3.374249E+02  1.207444E+02  5.520669E+04  1.099096E+02  2.728729E+04
       240  23  1.939676E+05  3.143042E+02  2.889906E+02  5.038401E+04  2.650801E+02  2.351086E+04
       240  24  1.939571E+05  3.812753E+02  5.589636E+02  5.520657E+04  4.209777E+02  1.973762E+04
       240  25 -1.597704E+05 -8.127325E+04 -5.419824E+04  5.427499E+04 -7.144577E+03  2.726435E+04
       240  26 -1.116339E+05 -7.020910E+04 -4.672042E+04  4.956464E+04 -6.983618E+03  2.348723E+04
       240  27 -6.352491E+04 -5.905392E+04 -3.913670E+04  5.449981E+04 -6.821921E+03  1.971330E+04
       241   1  4.209338E+05  5.271621E+04  3.554183E+04  5.588366E+04 -7.787414E+03 -1.756626E+04
       241   2  3.727579E+05  4.172720E+04  2.880867E+04  5.074866E+04 -8.419242E+03 -1.380994E+04
       241   3  3.246959E+05  3.117668E+04  2.257261E+04  5.525175E+04 -9.051358E+03 -1.008063E+04
       241   4  1.939934E+05  3.830571E+02  7.501300E+02  5.520529E+04 -5.412401E+02 -1.754159E+04
       241   5  1.939363E+05  4.806099E+02  1.343090E+03  5.038508E+04 -1.225116E+03 -1.378504E+04
       241   6  1.939991E+05  1.025604E+03  2.468979E+03  5.520308E+04 -1.909320E+03 -1.005551E+04
       241   7 -3.289546E+04 -5.195255E+04 -3.404250E+04  5.452713E+04  6.702389E+03 -1.751693E+04
       241   8  1.514681E+04 -4.076750E+04 -2.612300E+04  5.002158E+04  5.967020E+03 -1.376015E+04
       241   9  6.331942E+04 -2.912627E+04 -1.763484E+04  5.515441E+04  5.231272E+03 -1.003038E+04
       241  10  4.209337E+05  5.271586E+04  3.554113E+04  5.588355E+04 -7.440157E-09  7.321874E-09
       241  11  3.727578E+05  4.172698E+04  2.880818E+04  5.074857E+04 -5.139034E-12 -1.852240E-09
       241  12  3.246958E+05  3.117655E+04  2.257227E+04  5.525167E+04  7.478556E-09  3.309902E-09
       241  13  1.939933E+05  3.827266E+02  7.495511E+02  5.520528E+04 -1.076783E-09  1.959681E-09
       241  14  1.939363E+05  4.804054E+02  1.342730E+03  5.038507E+04 -2.777874E-09  2.954582E-09
       241  15  1.939990E+05  1.025494E+03  2.468782E+03  5.520307E+04  2.685656E-09 -4.792627E-09
       241  16 -3.289559E+04 -5.195290E+04 -3.404316E+04  5.452723E+04  5.865529E-09  4.122364E-09
       241  17  1.514672E+04 -4.076771E+04 -2.612342E+04  5.002164E+04 -4.561194E-09  7.944519E-10
       241  18  6.331936E+04 -2.912639E+04 -1.763508E+04  5.515446E+04 -8.651274E-09 -7.929943E-09
       241  19  4.209338E+05  5.271621E+04  3.554183E+04  5.588366E+04  7.787414E+03  1.756626E+04
       241  20  3.727579E+05  4.172720E+04  2.880867E+04  5.074866E+04  8.419242E+03  1.380994E+04
       241  21  3.246959E+05  3.117668E+04  2.257261E+04  5.525175E+04  9.051358E+03  1.008063E+04
       241  22  1.939934E+05  3.830571E+02  7.501300E+02  5.520529E+04  5.412401E+02  1.754159E+04
       241  23  1.939363E+05  4.806099E+02  1.343090E+03  5.038508E+04  1.225116E+03  1.378504E+04
       241  24  1.939991E+05  1.025604E+03  2.468979E+03  5.520308E+04  1.909320E+03  1.005551E+04
       241  25 -3.289546E+04 -5.195255E+04 -3.404250E+04  5.452713E+04 -6.702389E+03  1.751693E+04
       241  26  1.514681E+04 -4.076750E+04 -2.612300E+04  5.002158E+04 -5.967020E+03  1.376015E+04
       241  27  6.331942E+04 -2.912627E+04 -1.763484E+04  5.515441E+04 -5.231272E+03  1.003038E+04
       242   1  2.944523E+05  2.412951E+04  1.844713E+04  5.575570E+04 -9.494668E+03 -7.906935E+03
       242   2  2.455215E+05  1.531763E+04  1.366417E+04  4.703596E+04 -1.210886E+04 -4.317336E+03
       242   3  1.982859E+05  1.225585E+04  1.199554E+04  4.792359E+04 -1.472219E+04 -9.793055E+02
       242   4  1.943688E+05  1.080307E+03  3.273907E+03  5.520020E+04 -2.340860E+03 -7.881602E+03
       242   5  1.934806E+05  3.409511E+03  6.005831E+03  5.037818E+04 -5.438329E+03 -4.293677E+03
       242   6  1.943697E+05  1.157307E+04  1.218766E+04  5.516333E+04 -8.535105E+03 -9.573621E+02
       242   7  9.429540E+04 -2.196934E+04 -1.189933E+04  5.464477E+04  4.811840E+03 -7.856279E+03
       242   8  1.414425E+05 -8.498662E+03 -1.652380E+03  5.372010E+04  1.231671E+03 -4.269945E+03
       242   9  1.904536E+05  1.089050E+04  1.237995E+04  6.240302E+04 -2.348054E+03 -9.352742E+02
       242  10  2.944522E+05  2.412942E+04  1.844684E+04  5.575564E+04 -4.691646E-09  3.123991E-09
       242  11  2.455214E+05  1.531757E+04  1.366386E+04  4.703592E+04  2.330163E-09 -5.748104E-09
       242  12  1.982857E+05  1.225579E+04  1.199513E+04  4.792358E+04 -1.555356E-09 -8.959241E-10
       242  13  1.943688E+05  1.080239E+03  3.273780E+03  5.520018E+04  1.212739E-09  6.395741E-09
       242  14  1.934806E+05  3.409484E+03  6.005741E+03  5.037816E+04 -1.270213E-09 -5.778002E-09
       242  15  1.943696E+05  1.157305E+04  1.218752E+04  5.516332E+04  2.003280E-09  6.521783E-09
       242  16  9.429536E+04 -2.196942E+04 -1.189949E+04  5.464480E+04  5.366643E-09  1.008583E-09
       242  17  1.414425E+05 -8.498682E+03 -1.652418E+03  5.372010E+04 -2.198239E-09  1.278604E-09
       242  18  1.904536E+05  1.089050E+04  1.237994E+04  6.240301E+04 -1.042626E-09 -9.985368E-10
       242  19  2.944523E+05  2.412951E+04  1.844713E+04  5.575570E+04  9.494668E+03  7.906935E+03
       242  20  2.455215E+05  1.531763E+04  1.366417E+04  4.703596E+04  1.210886E+04  4.317336E+03
       242  21  1.982859E+05  1.225585E+04  1.199554E+04  4.792359E+04  1.472219E+04  9.793055E+02
       242  22  1.943688E+05  1.080307E+03  3.273907E+03  5.520020E+04  2.340860E+03  7.881602E+03
       242  23  1.934806E+05  3.409511E+03  6.005831E+03  5.037818E+04  5.438329E+03  4.293677E+03
       242  24  1.943697E+05  1.157307E+04  1.218766E+04  5.516333E+04  8.535105E+03  9.573621E+02
       242  25  9.429540E+04 -2.196934E+04 -1.189933E+04  5.464477E+04 -4.811840E+03  7.856279E+03
       242  26  1.414425E+05 -8.498662E+03 -1.652380E+03  5.372010E+04 -1.231671E+03  4.269945E+03
       242  27  1.904536E+05  1.089050E+04  1.237995E+04  6.240302E+04  2.348054E+03  9.352742E+02
       243   1  3.319125E+04  7.899502E+05  3.743481E+04 -1.527541E+05 -1.873124E+03  6.514762E+03
       243   2 -1.498967E+04  6.703379E+05  3.205888E+03 -1.314039E+05 -8.865017E+03 -4.320315E+03
       243   3 -4.797229E+04  5.558404E+05 -2.020634E+04 -1.333839E+05 -1.682434E+04 -1.515481E+04
       243   4  2.877487E+04  7.745084E+05  3.123652E+04 -1.340923E+05 -1.898691E+03  1.906534E+04
       243   5  8.170842E+03  7.721181E+05  1.752924E+04 -1.224533E+05 -8.894136E+03  1.008773E+04
       243   6  2.442931E+03  7.745095E+05  1.335071E+04 -1.341424E+05 -1.685661E+04  1.108889E+03
       243   7  2.435986E+04  7.590678E+05  2.503898E+04 -1.154309E+05 -1.923505E+03  3.161559E+04
       243   8  3.133131E+04  8.739093E+05  3.185328E+04 -1.135011E+05 -8.922838E+03  2.449803E+04
       243   9  5.285599E+04  9.932270E+05  4.690769E+04 -1.349012E+05 -1.688891E+04  1.737809E+04
       243  10  3.319123E+04  7.899502E+05  3.743472E+04 -1.527541E+05 -9.706411E-10 -2.126006E-09
       243  11 -1.498976E+04  6.703379E+05  3.205705E+03 -1.314039E+05 -3.890030E-09 -2.367658E-09
       243  12 -4.797265E+04  5.558401E+05 -2.020731E+04 -1.333841E+05  8.365693E-11 -1.332414E-09
       243  13  2.877477E+04  7.745080E+05  3.123583E+04 -1.340922E+05  1.261722E-09 -2.069443E-09
       243  14  8.170730E+03  7.721179E+05  1.752890E+04 -1.224532E+05 -4.490652E-10 -3.881589E-09
       243  15  2.442625E+03  7.745094E+05  1.335017E+04 -1.341424E+05  1.350223E-09 -1.317292E-09
       243  16  2.435959E+04  7.590668E+05  2.503710E+04 -1.154308E+05  1.457561E-10  2.853754E-09
       243  17  3.133106E+04  8.739086E+05  3.185200E+04 -1.135009E+05  1.622236E-09 -1.284554E-09
       243  18  5.285560E+04  9.932266E+05  4.690659E+04 -1.349009E+05 -1.798441E-09  4.171128E-10
       243  19  3.319125E+04  7.899502E+05  3.743481E+04 -1.527541E+05  1.873124E+03 -6.514762E+03
       243  20 -1.498967E+04  6.703379E+05  3.205888E+03 -1.314039E+05  8.865017E+03  4.320315E+03
       243  21 -4.797229E+04  5.558404E+05 -2.020634E+04 -1.333839E+05  1.682434E+04  1.515481E+04
       243  22  2.877487E+04  7.745084E+05  3.123652E+04 -1.340923E+05  1.898691E+03 -1.906534E+04
       243  23  8.170842E+03  7.721181E+05  1.752924E+04 -1.224533E+05  8.894136E+03 -1.008773E+04
       243  24  2.442931E+03  7.745095E+05  1.335071E+04 -1.341424E+05  1.685661E+04 -1.108889E+03
       243  25  2.435986E+04  7.590678E+05  2.503898E+04 -1.154309E+05  1.923505E+03 -3.161559E+04
       243  26  3.133131E+04  8.739093E+05  3.185328E+04 -1.135011E+05  8.922838E+03 -2.449803E+04
       243  27  5.285599E+04  9.932270E+05  4.690769E+04 -1.349012E+05  1.688891E+04 -1.737809E+04
       244   1 -6.551650E+04  4.806101E+05 -3.269139E+04 -1.352119E+05 -2.187545E+04 -1.731564E+04
       244   2 -9.300964E+04  3.627106E+05 -4.960440E+04 -1.211126E+05 -2.940063E+04 -2.167743E+04
       244   3 -1.164673E+05  2.463173E+05 -6.269480E+04 -1.303137E+05 -3.501392E+04 -2.603344E+04
       244   4  2.273254E+03  7.739121E+05  1.319238E+04 -1.341318E+05 -2.190706E+04 -1.008536E+03
       244   5  2.099685E+03  7.728301E+05  1.605680E+04 -1.224780E+05 -2.942303E+04 -9.048374E+03
       244   6  6.598355E+03  7.738768E+05  2.529315E+04 -1.341232E+05 -3.502775E+04 -1.708321E+04
       244   7  7.005893E+04  1.067300E+06  5.907509E+04 -1.330512E+05 -2.193860E+04  1.530598E+04
       244   8  9.720066E+04  1.183117E+06  8.171416E+04 -1.238443E+05 -2.944548E+04  3.588725E+03
       244   9  1.296496E+05  1.301711E+06  1.132729E+05 -1.379358E+05 -3.504168E+04 -8.125624E+03
       244  10 -6.551710E+04  4.806097E+05 -3.269286E+04 -1.352122E+05 -1.805739E-09  3.442260E-09
       244  11 -9.301069E+04  3.627098E+05 -4.960691E+04 -1.211131E+05  2.514874E-10  8.921811E-10
       244  12 -1.164688E+05  2.463163E+05 -6.269838E+04 -1.303144E+05 -1.587735E-09  1.734164E-10
       244  13  2.272738E+03  7.739120E+05  1.319147E+04 -1.341319E+05 -3.368820E-10 -2.210349E-09
       244  14  2.098733E+03  7.728298E+05  1.605502E+04 -1.224782E+05  3.169026E-09 -3.989036E-09
       244  15  6.596958E+03  7.738762E+05  2.529030E+04 -1.341237E+05 -8.857817E-10 -1.224244E-09
       244  16  7.005836E+04  1.067300E+06  5.907374E+04 -1.330509E+05 -2.573763E-09 -2.872294E-09
       244  17  9.719973E+04  1.183117E+06  8.171251E+04 -1.238442E+05 -2.225556E-09 -4.450974E-09
       244  18  1.296482E+05  1.301711E+06  1.132705E+05 -1.379361E+05  1.048406E-10 -1.113658E-09
       244  19 -6.551650E+04  4.806101E+05 -3.269139E+04 -1.352119E+05  2.187545E+04  1.731564E+04
       244  20 -9.300964E+04  3.627106E+05 -4.960440E+04 -1.211126E+05  2.940063E+04  2.167743E+04
       244  21 -1.164673E+05  2.463173E+05 -6.269480E+04 -1.303137E+05  3.501392E+04  2.603344E+04
       244  22  2.273254E+03  7.739121E+05  1.319238E+04 -1.341318E+05  2.190706E+04  1.008536E+03
       244  23  2.099685E+03  7.728301E+05  1.605680E+04 -1.224780E+05  2.942303E+04  9.048374E+03
       244  24  6.598355E+03  7.738768E+05  2.529315E+04 -1.341232E+05  3.502775E+04  1.708321E+04
       244  25  7.005893E+04  1.067300E+06  5.907509E+04 -1.330512E+05  2.193860E+04 -1.530598E+04
       244  26  9.720066E+04  1.183117E+06  8.171416E+04 -1.238443E+05  2.944548E+04 -3.588725E+03
       244  27  1.296496E+05  1.301711E+06  1.132729E+05 -1.379358E+05  3.504168E+04  8.125624E+03
       245   1 -1.339586E+05  1.741158E+05 -6.992210E+04 -1.356808E+05 -3.859487E+04 -3.127838E+04
       245   2 -1.414075E+05  5.118960E+04 -7.875936E+04 -8.864443E+04 -3.415241E+04 -2.398175E+04
       245   3 -1.001716E+05 -6.052881E+04 -8.017481E+04 -6.358939E+04 -1.048052E+04 -1.666079E+04
       245   4  7.085335E+03  7.772968E+05  3.247458E+04 -1.338447E+05 -3.860951E+04 -2.139459E+04
       245   5  2.941976E+04  7.684604E+05  5.776443E+04 -1.227731E+05 -3.410219E+04 -5.103886E+04
       245   6  1.068119E+05  7.772043E+05  1.161002E+05 -1.336765E+05 -1.037648E+04 -8.065833E+04
       245   7  1.481101E+05  1.380836E+06  1.348598E+05 -1.320065E+05 -3.862407E+04 -1.150151E+04
       245   8  2.002216E+05  1.486231E+06  1.942684E+05 -1.569419E+05 -3.404903E+04 -7.812645E+04
       245   9  3.137659E+05  1.615603E+06  3.123453E+05 -2.038585E+05 -1.025807E+04 -1.447416E+05
       245  10 -1.339604E+05  1.741144E+05 -6.992674E+04 -1.356818E+05 -1.029650E-09  2.123072E-09
       245  11 -1.414090E+05  5.118867E+04 -7.876263E+04 -8.864509E+04  1.222702E-09 -4.028353E-11
       245  12 -1.001718E+05 -6.052914E+04 -8.017553E+04 -6.358953E+04  1.452746E-10 -1.724062E-09
       245  13  7.083611E+03  7.772959E+05  3.247092E+04 -1.338453E+05  1.815215E-09 -1.217764E-09
       245  14  2.941781E+04  7.684573E+05  5.775736E+04 -1.227745E+05 -3.790488E-11 -3.172857E-09
       245  15  1.068100E+05  7.771973E+05  1.160878E+05 -1.336772E+05  1.059137E-09 -8.751516E-10
       245  16  1.481084E+05  1.380835E+06  1.348567E+05 -1.320068E+05  9.453569E-10 -1.096906E-09
       245  17  2.002187E+05  1.486224E+06  1.942548E+05 -1.569441E+05 -1.478003E-09 -2.137506E-09
       245  18  3.137601E+05  1.615580E+06  3.123059E+05 -2.038597E+05 -1.585561E-09  1.068054E-09
       245  19 -1.339586E+05  1.741158E+05 -6.992210E+04 -1.356808E+05  3.859487E+04  3.127838E+04
       245  20 -1.414075E+05  5.118960E+04 -7.875936E+04 -8.864443E+04  3.415241E+04  2.398175E+04
       245  21 -1.001716E+05 -6.052881E+04 -8.017481E+04 -6.358939E+04  1.048052E+04  1.666079E+04
       245  22  7.085335E+03  7.772968E+05  3.247458E+04 -1.338447E+05  3.860951E+04  2.139459E+04
       245  23  2.941976E+04  7.684604E+05  5.776443E+04 -1.227731E+05  3.410219E+04  5.103886E+04
       245  24  1.068119E+05  7.772043E+05  1.161002E+05 -1.336765E+05  1.037648E+04  8.065833E+04
       245  25  1.481101E+05  1.380836E+06  1.348598E+05 -1.320065E+05  3.862407E+04  1.150151E+04
       245  26  2.002216E+05  1.486231E+06  1.942684E+05 -1.569419E+05  3.404903E+04  7.812645E+04
       245  27  3.137659E+05  1.615603E+06  3.123453E+05 -2.038585E+05  1.025807E+04  1.447416E+05
       246   1  1.284983E+06  4.168880E+05  2.024443E+05  4.595242E+05  5.877095E+04  5.761296E+03
       246   2  1.210661E+06  4.120850E+05  1.602129E+05  4.376139E+05  3.902986E+04 -4.028327E+04
       246   3  1.125942E+06  4.049989E+05  1.385868E+05  4.320195E+05  1.019798E+04 -6.219838E+04
       246   4  3.007813E+05  7.112427E+04 -4.489567E+04  2.133227E+05 -2.377315E+04 -2.538388E+04
       246   5  3.127573E+05  9.374009E+04 -2.106502E+04  1.986908E+05 -5.845840E+01 -5.504601E+04
       246   6  3.057219E+05  1.054601E+05 -1.103387E+04  2.003777E+05  1.455316E+04 -6.056233E+04
       246   7 -6.824261E+05 -2.745867E+05 -2.922721E+05 -3.252601E+04 -1.061708E+05 -5.648170E+04
       246   8 -5.842982E+05 -2.245406E+05 -2.023713E+05 -3.991373E+04 -3.908519E+04 -6.978727E+04
       246   9 -5.137898E+05 -1.940116E+05 -1.606781E+05 -3.097825E+04  1.890220E+04 -5.892862E+04
       246  10  1.284979E+06  4.168870E+05  2.024378E+05  4.595239E+05  6.394250E-09  2.370265E-09
       246  11  1.210659E+06  4.120828E+05  1.602070E+05  4.376152E+05  1.937214E-09 -7.894216E-09
       246  12  1.125941E+06  4.049947E+05  1.385793E+05  4.320200E+05 -7.451158E-10 -3.996673E-09
       246  13  3.007805E+05  7.112343E+04 -4.489794E+04  2.133222E+05 -2.402698E-10  8.011326E-10
       246  14  3.127565E+05  9.373684E+04 -2.107071E+04  1.986908E+05 -1.003933E-09 -5.502666E-09
       246  15  3.057206E+05  1.054561E+05 -1.104116E+04  2.003785E+05  3.851533E-09  1.725612E-09
       246  16 -6.824391E+05 -2.745932E+05 -2.922993E+05 -3.253084E+04 -6.099320E-09 -1.350337E-09
       246  17 -5.843012E+05 -2.245462E+05 -2.023834E+05 -3.991592E+04  3.820980E-10 -4.756361E-09
       246  18 -5.137912E+05 -1.940154E+05 -1.606853E+05 -3.097736E+04  3.602264E-09 -2.335978E-09
       246  19  1.284983E+06  4.168880E+05  2.024443E+05  4.595242E+05 -5.877095E+04 -5.761296E+03
       246  20  1.210661E+06  4.120850E+05  1.602129E+05  4.376139E+05 -3.902986E+04  4.028327E+04
       246  21  1.125942E+06  4.049989E+05  1.385868E+05  4.320195E+05 -1.019798E+04  6.219838E+04
       246  22  3.007813E+05  7.112427E+04 -4.489567E+04  2.133227E+05  2.377315E+04  2.538388E+04
       246  23  3.127573E+05  9.374009E+04 -2.106502E+04  1.986908E+05  5.845840E+01  5.504601E+04
       246  24  3.057219E+05  1.054601E+05 -1.103387E+04  2.003777E+05 -1.455316E+04  6.056233E+04
       246  25 -6.824261E+05 -2.745867E+05 -2.922721E+05 -3.252601E+04  1.061708E+05  5.648170E+04
       246  26 -5.842982E+05 -2.245406E+05 -2.023713E+05 -3.991373E+04  3.908519E+04  6.978727E+04
       246  27 -5.137898E+05 -1.940116E+05 -1.606781E+05 -3.097825E+04 -1.890220E+04  5.892862E+04
       247   1  1.081227E+06  3.860141E+05  1.308309E+05  4.177499E+05  1.321346E+04 -5.885675E+04
       247   2  1.014845E+06  3.556917E+05  1.177851E+05  3.916102E+05  1.057645E+04 -5.740443E+04
       247   3  9.375182E+05  3.360080E+05  1.059840E+05  3.782522E+05  7.093257E+03 -5.371828E+04
       247   4  3.067379E+05  1.057409E+05 -8.279454E+03  2.012324E+05  1.506897E+04 -5.816393E+04
       247   5  3.127607E+05  1.017614E+05 -4.348465E+03  1.944929E+05  1.645274E+04 -5.519081E+04
       247   6  3.070389E+05  1.076245E+05 -2.358061E+03  2.005343E+05  1.698964E+04 -4.998245E+04
       247   7 -4.671292E+05 -1.744784E+05 -1.474126E+05 -1.503645E+04  1.692205E+04 -5.747204E+04
       247   8 -3.888057E+05 -1.521217E+05 -1.264977E+05 -2.417661E+03  2.232199E+04 -5.297985E+04
       247   9 -3.230189E+05 -1.207190E+05 -1.107110E+05  2.298508E+04  2.687536E+04 -4.625068E+04
       247  10  1.081226E+06  3.860103E+05  1.308241E+05  4.177506E+05  3.489652E-10 -2.211581E-09
       247  11  1.014844E+06  3.556882E+05  1.177787E+05  3.916107E+05  1.356110E-09 -3.678253E-09
       247  12  9.375174E+05  3.360049E+05  1.059784E+05  3.782525E+05  3.021137E-09 -1.405448E-09
       247  13  3.067368E+05  1.057372E+05 -8.286239E+03  2.012331E+05  1.953507E-09 -5.688559E-09
       247  14  3.127596E+05  1.017581E+05 -4.354699E+03  1.944936E+05  3.266255E-10  1.144925E-08
       247  15  3.070379E+05  1.076217E+05 -2.363300E+03  2.005350E+05  1.607540E-09 -4.812321E-09
       247  16 -4.671304E+05 -1.744820E+05 -1.474194E+05 -1.503567E+04  1.639118E-09 -1.478896E-09
       247  17 -3.888070E+05 -1.521249E+05 -1.265040E+05 -2.416708E+03  9.513659E-10  3.180936E-09
       247  18 -3.230203E+05 -1.207215E+05 -1.107164E+05  2.298609E+04 -2.923965E-10 -2.849414E-09
       247  19  1.081227E+06  3.860141E+05  1.308309E+05  4.177499E+05 -1.321346E+04  5.885675E+04
       247  20  1.014845E+06  3.556917E+05  1.177851E+05  3.916102E+05 -1.057645E+04  5.740443E+04
       247  21  9.375182E+05  3.360080E+05  1.059840E+05  3.782522E+05 -7.093257E+03  5.371828E+04
       247  22  3.067379E+05  1.057409E+05 -8.279454E+03  2.012324E+05 -1.506897E+04  5.816393E+04
       247  23  3.127607E+05  1.017614E+05 -4.348465E+03  1.944929E+05 -1.645274E+04  5.519081E+04
       247  24  3.070389E+05  1.076245E+05 -2.358061E+03  2.005343E+05 -1.698964E+04  4.998245E+04
       247  25 -4.671292E+05 -1.744784E+05 -1.474126E+05 -1.503645E+04 -1.692205E+04  5.747204E+04
       247  26 -3.888057E+05 -1.521217E+05 -1.264977E+05 -2.417661E+03 -2.232199E+04  5.297985E+04
       247  27 -3.230189E+05 -1.207190E+05 -1.107110E+05  2.298508E+04 -2.687536E+04  4.625068E+04
       248   1  8.916444E+05  3.191882E+05  9.819333E+04  3.652721E+05  6.427636E+03 -5.026001E+04
       248   2  8.258842E+05  2.878652E+05  8.659721E+04  3.388658E+05  4.468083E+03 -4.475241E+04
       248   3  7.489850E+05  2.677082E+05  7.493182E+04  3.251080E+05  2.428964E+03 -3.904079E+04
       248   4  3.071298E+05  1.076515E+05 -1.764478E+03  2.006038E+05  1.608719E+04 -4.661221E+04
       248   5  3.127618E+05  1.021638E+05 -9.488520E+02  1.942641E+05  1.449461E+04 -4.096362E+04
       248   6  3.071751E+05  1.077695E+05 -4.945139E+02  2.005717E+05  1.282242E+04 -3.511088E+04
       248   7 -2.770159E+05 -1.038484E+05 -1.017297E+05  3.608220E+04  2.573698E+04 -4.296811E+04
       248   8 -2.000807E+05 -8.351079E+04 -8.850174E+04  4.977413E+04  2.451232E+04 -3.717816E+04
       248   9 -1.344319E+05 -5.215103E+04 -7.592706E+04  7.611703E+04  2.320813E+04 -3.118391E+04
       248  10  8.916437E+05  3.191855E+05  9.818850E+04  3.652723E+05  5.533833E-08  2.261605E-08
       248  11  8.258836E+05  2.878630E+05  8.659341E+04  3.388659E+05 -7.797846E-09  3.056321E-09
       248  12  7.489846E+05  2.677065E+05  7.492895E+04  3.251081E+05 -7.441320E-08 -2.470305E-08
       248  13  3.071289E+05  1.076491E+05 -1.769049E+03  2.006044E+05  1.230294E-09  7.877702E-11
       248  14  3.127611E+05  1.021620E+05 -9.524008E+02  1.942645E+05  2.959823E-09  4.414477E-09
       248  15  3.071746E+05  1.077682E+05 -4.971400E+02  2.005721E+05  1.445665E-09  3.009922E-09
       248  16 -2.770171E+05 -1.038505E+05 -1.017344E+05  3.608309E+04 -5.245099E-08 -2.244393E-08
       248  17 -2.000818E+05 -8.351243E+04 -8.850547E+04  4.977486E+04  1.481921E-08  9.065211E-09
       248  18 -1.344328E+05 -5.215222E+04 -7.592990E+04  7.611761E+04  7.802937E-08  3.074371E-08
       248  19  8.916444E+05  3.191882E+05  9.819333E+04  3.652721E+05 -6.427636E+03  5.026001E+04
       248  20  8.258842E+05  2.878652E+05  8.659721E+04  3.388658E+05 -4.468083E+03  4.475241E+04
       248  21  7.489850E+05  2.677082E+05  7.493182E+04  3.251080E+05 -2.428964E+03  3.904079E+04
       248  22  3.071298E+05  1.076515E+05 -1.764478E+03  2.006038E+05 -1.608719E+04  4.661221E+04
       248  23  3.127618E+05  1.021638E+05 -9.488520E+02  1.942641E+05 -1.449461E+04  4.096362E+04
       248  24  3.071751E+05  1.077695E+05 -4.945139E+02  2.005717E+05 -1.282242E+04  3.511088E+04
       248  25 -2.770159E+05 -1.038484E+05 -1.017297E+05  3.608220E+04 -2.573698E+04  4.296811E+04
       248  26 -2.000807E+05 -8.351079E+04 -8.850174E+04  4.977413E+04 -2.451232E+04  3.717816E+04
       248  27 -1.344319E+05 -5.215103E+04 -7.592706E+04  7.611703E+04 -2.320813E+04  3.118391E+04
       249   1  7.031311E+05  2.510570E+05  6.689709E+04  3.122085E+05  1.251396E+03 -3.564029E+04
       249   2  6.374863E+05  2.197492E+05  5.513657E+04  2.858075E+05 -8.933534E+02 -2.985679E+04
       249   3  5.606919E+05  1.996070E+05  4.335219E+04  2.720463E+05 -3.045720E+03 -2.405714E+04
       249   4  3.071931E+05  1.077771E+05 -3.508188E+02  2.005749E+05  1.161952E+04 -3.171884E+04
       249   5  3.127836E+05  1.022111E+05 -1.335941E+02  1.942544E+05  9.503536E+03 -2.592300E+04
       249   6  3.072127E+05  1.078043E+05  3.611159E+01  2.005716E+05  7.379941E+03 -2.011102E+04
       249   7 -8.857791E+04 -3.548659E+04 -6.760245E+04  8.900810E+04  2.198062E+04 -2.780005E+04
       249   8 -1.180501E+04 -1.531543E+04 -5.540566E+04  1.027467E+05  1.989459E+04 -2.199142E+04
       249   9  5.380478E+04  1.600930E+04 -4.328052E+04  1.291251E+05  1.780096E+04 -1.616665E+04
       249  10  7.031307E+05  2.510556E+05  6.689470E+04  3.122085E+05  2.014645E-08  9.360738E-09
       249  11  6.374861E+05  2.197482E+05  5.513489E+04  2.858075E+05  1.867554E-08  1.334593E-08
       249  12  5.606918E+05  1.996063E+05  4.335109E+04  2.720463E+05  1.498308E-08  8.243759E-10
       249  13  3.071927E+05  1.077760E+05 -3.529636E+02  2.005752E+05  7.623104E-10  1.250293E-09
       249  14  3.127833E+05  1.022104E+05 -1.350269E+02  1.942546E+05 -6.352414E-10  3.809498E-09
       249  15  3.072126E+05  1.078039E+05  3.524903E+01  2.005717E+05 -4.416627E-09  2.815007E-09
       249  16 -8.857863E+04 -3.548755E+04 -6.760481E+04  8.900859E+04 -1.892813E-08 -5.450554E-09
       249  17 -1.180557E+04 -1.531606E+04 -5.540731E+04  1.027470E+05 -2.016094E-08  9.059127E-10
       249  18  5.380437E+04  1.600894E+04 -4.328161E+04  1.291253E+05 -1.854945E-08 -5.050621E-09
       249  19  7.031311E+05  2.510570E+05  6.689709E+04  3.122085E+05 -1.251396E+03  3.564029E+04
       249  20  6.374863E+05  2.197492E+05  5.513657E+04  2.858075E+05  8.933534E+02  2.985679E+04
       249  21  5.606919E+05  1.996070E+05  4.335219E+04  2.720463E+05  3.045720E+03  2.405714E+04
       249  22  3.071931E+05  1.077771E+05 -3.508188E+02  2.005749E+05 -1.161952E+04  3.171884E+04
       249  23  3.127836E+05  1.022111E+05 -1.335941E+02  1.942544E+05 -9.503536E+03  2.592300E+04
       249  24  3.072127E+05  1.078043E+05  3.611159E+01  2.005716E+05 -7.379941E+03  2.011102E+04
       249  25 -8.857791E+04 -3.548659E+04 -6.760245E+04  8.900810E+04 -2.198062E+04  2.780005E+04
       249  26 -1.180501E+04 -1.531543E+04 -5.540566E+04  1.027467E+05 -1.989459E+04  2.199142E+04
       249  27  5.380478E+04  1.600930E+04 -4.328052E+04  1.291251E+05 -1.780096E+04  1.616665E+04
       250   1  5.148814E+05  1.829705E+05  3.527766E+04  2.591594E+05 -4.332118E+03 -2.068806E+04
       250   2  4.492751E+05  1.516706E+05  2.354635E+04  2.327819E+05 -6.668534E+03 -1.495474E+04
       250   3  3.725361E+05  1.315346E+05  1.192403E+04  2.190426E+05 -9.002002E+03 -9.230830E+03
       250   4  3.072249E+05  1.078082E+05  1.183621E+02  2.005731E+05  6.090090E+03 -1.674263E+04
       250   5  3.127944E+05  1.022240E+05  3.269486E+02  1.942562E+05  3.736388E+03 -1.101521E+04
       250   6  3.072307E+05  1.078071E+05  6.582340E+02  2.005761E+05  1.385625E+03 -5.297223E+03
       250   7  9.961219E+04  3.264964E+04 -3.504223E+04  1.420045E+05  1.650870E+04 -1.279857E+04
       250   8  1.763330E+05  5.277908E+04 -2.289271E+04  1.557384E+05  1.413894E+04 -7.076584E+03
       250   9  2.419301E+05  8.408018E+04 -1.060723E+04  1.821115E+05  1.177209E+04 -1.364058E+03
       250  10  5.148813E+05  1.829700E+05  3.527682E+04  2.591593E+05  6.074712E-09 -1.319527E-09
       250  11  4.492750E+05  1.516704E+05  2.354585E+04  2.327818E+05 -1.835706E-08 -1.119382E-09
       250  12  3.725360E+05  1.315345E+05  1.192372E+04  2.190426E+05 -4.248274E-08 -1.929370E-08
       250  13  3.072248E+05  1.078079E+05  1.177655E+02  2.005731E+05 -2.146455E-09  3.726465E-09
       250  14  3.127944E+05  1.022239E+05  3.266944E+02  1.942563E+05  2.378413E-09  2.886486E-09
       250  15  3.072307E+05  1.078071E+05  6.581776E+02  2.005761E+05  3.790476E-09  1.458178E-09
       250  16  9.961186E+04  3.264939E+04 -3.504306E+04  1.420047E+05 -6.405478E-09  7.465079E-09
       250  17  1.763328E+05  5.277897E+04 -2.289318E+04  1.557384E+05  2.608554E-08  1.182696E-08
       250  18  2.419299E+05  8.408014E+04 -1.060749E+04  1.821115E+05  4.920282E-08  2.037635E-08
       250  19  5.148814E+05  1.829705E+05  3.527766E+04  2.591594E+05  4.332118E+03  2.068806E+04
       250  20  4.492751E+05  1.516706E+05  2.354635E+04  2.327819E+05  6.668534E+03  1.495474E+04
       250  21  3.725361E+05  1.315346E+05  1.192403E+04  2.190426E+05  9.002002E+03  9.230830E+03
       250  22  3.072249E+05  1.078082E+05  1.183621E+02  2.005731E+05 -6.090090E+03  1.674263E+04
       250  23  3.127944E+05  1.022240E+05  3.269486E+02  1.942562E+05 -3.736388E+03  1.101521E+04
       250  24  3.072307E+05  1.078071E+05  6.582340E+02  2.005761E+05 -1.385625E+03  5.297223E+03
       250  25  9.961219E+04  3.264964E+04 -3.504223E+04  1.420045E+05 -1.650870E+04  1.279857E+04
       250  26  1.763330E+05  5.277908E+04 -2.289271E+04  1.557384E+05 -1.413894E+04  7.076584E+03
       250  27  2.419301E+05  8.408018E+04 -1.060723E+04  1.821115E+05 -1.177209E+04  1.364058E+03
       251   1  3.267513E+05  1.149083E+05  3.999061E+03  2.061892E+05 -1.041557E+04 -5.916494E+03
       251   2  2.611111E+05  8.359173E+04 -7.265532E+03  1.798157E+05 -1.320720E+04 -4.261800E+02
       251   3  1.844369E+05  6.351775E+04 -1.804455E+04  1.660755E+05 -1.595691E+04  4.954491E+03
       251   4  3.072568E+05  1.078019E+05  8.940336E+02  2.005868E+05 -1.751448E+01 -1.978836E+03
       251   5  3.127617E+05  1.022040E+05  1.647527E+03  1.942545E+05 -3.007174E+03  3.436243E+03
       251   6  3.072660E+05  1.078871E+05  3.043016E+03  2.005531E+05 -5.955010E+03  8.741682E+03
       251   7  2.877631E+05  1.006957E+05 -2.210480E+03  1.949847E+05  1.038009E+04  1.958648E+03
       251   8  3.644154E+05  1.208167E+05  1.056096E+04  2.086945E+05  7.193753E+03  7.299004E+03
       251   9  4.301126E+05  1.522585E+05  2.413094E+04  2.350375E+05  4.049097E+03  1.252970E+04
       251  10  3.267512E+05  1.149082E+05  3.998791E+03  2.061891E+05  2.879719E-08  5.246422E-09
       251  11  2.611109E+05  8.359168E+04 -7.265860E+03  1.798157E+05  1.576801E-08  7.178220E-09
       251  12  1.844366E+05  6.351765E+04 -1.804508E+04  1.660756E+05 -1.936727E-08 -1.542956E-08
       251  13  3.072568E+05  1.078019E+05  8.940262E+02  2.005868E+05  8.371753E-09  1.115033E-09
       251  14  3.127617E+05  1.022040E+05  1.647488E+03  1.942545E+05  1.884440E-08  6.328912E-09
       251  15  3.072659E+05  1.078870E+05  3.042806E+03  2.005532E+05  3.337586E-09 -5.058396E-09
       251  16  2.877630E+05  1.006956E+05 -2.210689E+03  1.949847E+05 -1.430829E-08 -2.705648E-09
       251  17  3.644153E+05  1.208166E+05  1.056076E+04  2.086945E+05  1.541159E-08  2.886930E-09
       251  18  4.301125E+05  1.522584E+05  2.413062E+04  2.350375E+05  2.448898E-08  1.482952E-08
       251  19  3.267513E+05  1.149083E+05  3.999061E+03  2.061892E+05  1.041557E+04  5.916494E+03
       251  20  2.611111E+05  8.359173E+04 -7.265532E+03  1.798157E+05  1.320720E+04  4.261800E+02
       251  21  1.844369E+05  6.351775E+04 -1.804455E+04  1.660755E+05  1.595691E+04 -4.954491E+03
       251  22  3.072568E+05  1.078019E+05  8.940336E+02  2.005868E+05  1.751448E+01  1.978836E+03
       251  23  3.127617E+05  1.022040E+05  1.647527E+03  1.942545E+05  3.007174E+03 -3.436243E+03
       251  24  3.072660E+05  1.078871E+05  3.043016E+03  2.005531E+05  5.955010E+03 -8.741682E+03
       251  25  2.877631E+05  1.006957E+05 -2.210480E+03  1.949847E+05 -1.038009E+04 -1.958648E+03
       251  26  3.644154E+05  1.208167E+05  1.056096E+04  2.086945E+05 -7.193753E+03 -7.299004E+03
       251  27  4.301126E+05  1.522585E+05  2.413094E+04  2.350375E+05 -4.049097E+03 -1.252970E+04
       252   1  1.385667E+05  4.701725E+04 -2.528950E+04  1.534973E+05 -1.788893E+04  7.999029E+03
       252   2  7.336432E+04  1.541845E+04 -3.479004E+04  1.261028E+05 -2.142000E+04  1.242279E+04
       252   3 -2.069778E+03 -3.370657E+03 -4.261684E+04  1.108942E+05 -2.450132E+04  1.566134E+04
       252   4  3.074600E+05  1.078538E+05  4.063969E+03  2.006291E+05 -7.764123E+03  1.183240E+04
       252   5  3.125814E+05  1.027728E+05  7.464338E+03  1.939539E+05 -1.342855E+04  1.544745E+04
       252   6  3.078878E+05  1.109226E+05  1.422855E+04  1.994619E+05 -1.864349E+04  1.787748E+04
       252   7  4.763837E+05  1.686932E+05  3.341700E+04  2.477729E+05  2.363611E+03  1.566687E+04
       252   8  5.518578E+05  1.901325E+05  4.971679E+04  2.618291E+05 -5.433860E+03  1.847335E+04
       252   9  6.179431E+05  2.252244E+05  7.106965E+04  2.880701E+05 -1.278259E+04  2.009480E+04
       252  10  1.385664E+05  4.701710E+04 -2.529022E+04  1.534974E+05  1.861364E-08 -5.291181E-09
       252  11  7.336378E+04  1.541816E+04 -3.479119E+04  1.261030E+05  6.252967E-09  1.471694E-09
       252  12 -2.070489E+03 -3.371082E+03 -4.261843E+04  1.108945E+05 -1.149180E-08 -9.193588E-09
       252  13  3.074599E+05  1.078536E+05  4.063593E+03  2.006292E+05 -3.865244E-09 -1.250994E-08
       252  14  3.125811E+05  1.027725E+05  7.463550E+03  1.939540E+05  1.274522E-09  4.033360E-09
       252  15  3.078874E+05  1.109221E+05  1.422730E+04  1.994622E+05  1.317162E-09 -1.345533E-09
       252  16  4.763836E+05  1.686929E+05  3.341653E+04  2.477729E+05 -2.515002E-08 -2.297631E-09
       252  17  5.518576E+05  1.901321E+05  4.971610E+04  2.618292E+05 -5.870680E-09 -1.308788E-08
       252  18  6.179428E+05  2.252240E+05  7.106858E+04  2.880703E+05  1.219622E-08  8.822536E-09
       252  19  1.385667E+05  4.701725E+04 -2.528950E+04  1.534973E+05  1.788893E+04 -7.999029E+03
       252  20  7.336432E+04  1.541845E+04 -3.479004E+04  1.261028E+05  2.142000E+04 -1.242279E+04
       252  21 -2.069778E+03 -3.370657E+03 -4.261684E+04  1.108942E+05  2.450132E+04 -1.566134E+04
       252  22  3.074600E+05  1.078538E+05  4.063969E+03  2.006291E+05  7.764123E+03 -1.183240E+04
       252  23  3.125814E+05  1.027728E+05  7.464338E+03  1.939539E+05  1.342855E+04 -1.544745E+04
       252  24  3.078878E+05  1.109226E+05  1.422855E+04  1.994619E+05  1.864349E+04 -1.787748E+04
       252  25  4.763837E+05  1.686932E+05  3.341700E+04  2.477729E+05 -2.363611E+03 -1.566687E+04
       252  26  5.518578E+05  1.901325E+05  4.971679E+04  2.618291E+05  5.433860E+03 -1.847335E+04
       252  27  6.179431E+05  2.252244E+05  7.106965E+04  2.880701E+05  1.278259E+04 -2.009480E+04
       253   1 -4.933323E+04 -1.758485E+04 -4.726810E+04  1.021315E+05 -2.894366E+04  1.695489E+04
       253   2 -1.015822E+05 -5.397586E+04 -5.243241E+04  5.272391E+04 -2.382378E+04  1.615047E+04
       253   3 -1.529039E+05 -4.858171E+04 -5.206148E+04  6.375366E+03 -1.386718E+04  2.554402E+03
       253   4  3.102026E+05  1.107664E+05  1.896550E+04  2.002720E+05 -2.176801E+04  1.966938E+04
       253   5  3.116762E+05  1.171037E+05  3.617327E+04  1.875732E+05 -3.964767E+04  1.016042E+04
       253   6  3.186223E+05  1.697678E+05  7.714434E+04  1.779338E+05 -5.269307E+04 -1.213549E+04
       253   7  6.698794E+05  2.391307E+05  8.519601E+04  2.984663E+05 -1.458780E+04  2.238552E+04
       253   8  7.251109E+05  2.882109E+05  1.247702E+05  3.225098E+05 -5.548284E+04  4.164878E+03
       253   9  7.903643E+05  3.881640E+05  2.063340E+05  3.496192E+05 -9.155040E+04 -2.684367E+04
       253  10 -4.933420E+04 -1.758539E+04 -4.727022E+04  1.021319E+05 -3.140998E-10 -2.236966E-09
       253  11 -1.015828E+05 -5.397629E+04 -5.243397E+04  5.272422E+04  3.452252E-10  2.849525E-09
       253  12 -1.529041E+05 -4.858177E+04 -5.206185E+04  6.375395E+03  1.973819E-09  3.176428E-09
       253  13  3.102020E+05  1.107658E+05  1.896389E+04  2.002724E+05 -1.343475E-09 -5.989527E-09
       253  14  3.116744E+05  1.171031E+05  3.617012E+04  1.875735E+05 -2.715677E-09  1.671955E-09
       253  15  3.186193E+05  1.697669E+05  7.713885E+04  1.779333E+05 -4.226553E-10 -2.346183E-09
       253  16  6.698790E+05  2.391301E+05  8.519467E+04  2.984666E+05 -1.564707E-09  8.489193E-09
       253  17  7.251076E+05  2.882101E+05  1.247644E+05  3.225099E+05 -2.735035E-09  2.148709E-09
       253  18  7.903551E+05  3.881609E+05  2.063169E+05  3.496172E+05 -2.291122E-09  4.860713E-09
       253  19 -4.933323E+04 -1.758485E+04 -4.726810E+04  1.021315E+05  2.894366E+04 -1.695489E+04
       253  20 -1.015822E+05 -5.397586E+04 -5.243241E+04  5.272391E+04  2.382378E+04 -1.615047E+04
       253  21 -1.529039E+05 -4.858171E+04 -5.206148E+04  6.375366E+03  1.386718E+04 -2.554402E+03
       253  22  3.102026E+05  1.107664E+05  1.896550E+04  2.002720E+05  2.176801E+04 -1.966938E+04
       253  23  3.116762E+05  1.171037E+05  3.617327E+04  1.875732E+05  3.964767E+04 -1.016042E+04
       253  24  3.186223E+05  1.697678E+05  7.714434E+04  1.779338E+05  5.269307E+04  1.213549E+04
       253  25  6.698794E+05  2.391307E+05  8.519601E+04  2.984663E+05  1.458780E+04 -2.238552E+04
       253  26  7.251109E+05  2.882109E+05  1.247702E+05  3.225098E+05  5.548284E+04 -4.164878E+03
       253  27  7.903643E+05  3.881640E+05  2.063340E+05  3.496192E+05  9.155040E+04  2.684367E+04
       254   1  2.668459E+05  4.341149E+04  3.732159E+04  4.543277E+03 -1.400486E+04 -2.512277E+03
       254   2  2.512711E+05  6.177358E+04  4.555739E+04  1.535319E+03 -1.053290E+04 -7.398452E+03
       254   3  2.289464E+05  5.519134E+04  4.529674E+04  1.322861E+04 -7.080936E+03 -6.758606E+03
       254   4  1.098719E+04 -2.033744E+04 -2.585300E+04  1.003646E+04 -1.767857E+04 -2.525523E+03
       254   5  1.459460E+04  3.087221E+03 -1.130006E+04  2.647035E+03 -1.155538E+04 -7.402443E+03
       254   6  1.098888E+04  1.102104E+03 -7.087153E+03  9.959310E+03 -5.452044E+03 -6.752463E+03
       254   7 -2.448119E+05 -8.409113E+04 -8.903236E+04  1.552732E+04 -2.135077E+04 -2.538836E+03
       254   8 -2.220306E+05 -5.560321E+04 -6.816148E+04  3.758279E+03 -1.257747E+04 -7.406439E+03
       254   9 -2.069252E+05 -5.299055E+04 -5.947441E+04  6.691121E+03 -3.823722E+03 -6.746335E+03
       254  10  2.668456E+05  4.341144E+04  3.732121E+04  4.543248E+03 -6.787345E-09  2.726834E-09
       254  11  2.512709E+05  6.177350E+04  4.555708E+04  1.535257E+03  5.450937E-10  1.742528E-08
       254  12  2.289464E+05  5.519127E+04  4.529656E+04  1.322857E+04  2.616930E-09  8.938105E-09
       254  13  1.098685E+04 -2.033753E+04 -2.585359E+04  1.003642E+04 -9.678571E-10 -1.237770E-09
       254  14  1.459444E+04  3.087126E+03 -1.130041E+04  2.646966E+03 -3.183482E-09 -6.280348E-09
       254  15  1.098883E+04  1.102047E+03 -7.087294E+03  9.959280E+03 -4.019399E-10  4.668500E-09
       254  16 -2.448124E+05 -8.409126E+04 -8.903323E+04  1.552727E+04  6.611777E-09  8.188851E-10
       254  17 -2.220308E+05 -5.560331E+04 -6.816188E+04  3.758204E+03 -7.850639E-10  1.158308E-08
       254  18 -2.069252E+05 -5.299060E+04 -5.947452E+04  6.691101E+03 -4.342778E-09  1.706693E-09
       254  19  2.668459E+05  4.341149E+04  3.732159E+04  4.543277E+03  1.400486E+04  2.512277E+03
       254  20  2.512711E+05  6.177358E+04  4.555739E+04  1.535319E+03  1.053290E+04  7.398452E+03
       254  21  2.289464E+05  5.519134E+04  4.529674E+04  1.322861E+04  7.080936E+03  6.758606E+03
       254  22  1.098719E+04 -2.033744E+04 -2.585300E+04  1.003646E+04  1.767857E+04  2.525523E+03
       254  23  1.459460E+04  3.087221E+03 -1.130006E+04  2.647035E+03  1.155538E+04  7.402443E+03
       254  24  1.098888E+04  1.102104E+03 -7.087153E+03  9.959310E+03  5.452044E+03  6.752463E+03
       254  25 -2.448119E+05 -8.409113E+04 -8.903236E+04  1.552732E+04  2.135077E+04  2.538836E+03
       254  26 -2.220306E+05 -5.560321E+04 -6.816148E+04  3.758279E+03  1.257747E+04  7.406439E+03
       254  27 -2.069252E+05 -5.299055E+04 -5.947441E+04  6.691121E+03  3.823722E+03  6.746335E+03
       255   1  2.034598E+05  4.526858E+04  4.025404E+04  9.957292E+03 -4.393723E+03 -5.520865E+03
       255   2  1.850744E+05  4.308235E+04  3.849548E+04  2.985721E+03 -3.101041E+03 -5.210358E+03
       255   3  1.657502E+05  3.825780E+04  3.521333E+04  1.077751E+04 -1.810401E+03 -4.463422E+03
       255   4  1.237796E+04 -2.148569E+03 -5.789861E+03  1.000380E+04 -4.350952E+03 -5.520813E+03
       255   5  1.286654E+04  3.592661E+02 -2.927338E+03  2.617351E+03 -2.849145E+03 -5.209440E+03
       255   6  1.237916E+04  1.919977E+02 -1.734035E+03  9.994532E+03 -1.349346E+03 -4.461585E+03
       255   7 -1.786705E+05 -4.956838E+04 -5.183637E+04  1.005027E+04 -4.308194E+03 -5.520760E+03
       255   8 -1.593142E+05 -4.236597E+04 -4.435227E+04  2.249057E+03 -2.597320E+03 -5.208521E+03
       255   9 -1.409703E+05 -3.787552E+04 -3.868307E+04  9.211728E+03 -8.884046E+02 -4.459748E+03
       255  10  2.034598E+05  4.526854E+04  4.025394E+04  9.957273E+03 -6.803455E-10 -3.519527E-09
       255  11  1.850744E+05  4.308231E+04  3.849541E+04  2.985708E+03  2.449521E-09  2.068666E-09
       255  12  1.657502E+05  3.825778E+04  3.521328E+04  1.077750E+04  2.219561E-09  1.083032E-08
       255  13  1.237793E+04 -2.148607E+03 -5.789954E+03  1.000378E+04  8.370911E-13  1.272713E-08
       255  14  1.286652E+04  3.592348E+02 -2.927404E+03  2.617339E+03 -3.217165E-09 -2.232740E-08
       255  15  1.237916E+04  1.919759E+02 -1.734076E+03  9.994527E+03 -3.666623E-09  1.125474E-08
       255  16 -1.786705E+05 -4.956842E+04 -5.183646E+04  1.005025E+04  1.216126E-09 -7.317265E-09
       255  17 -1.593142E+05 -4.236600E+04 -4.435233E+04  2.249047E+03 -3.481723E-09 -2.815124E-09
       255  18 -1.409703E+05 -3.787554E+04 -3.868311E+04  9.211725E+03 -3.034207E-09  2.010255E-09
       255  19  2.034598E+05  4.526858E+04  4.025404E+04  9.957292E+03  4.393723E+03  5.520865E+03
       255  20  1.850744E+05  4.308235E+04  3.849548E+04  2.985721E+03  3.101041E+03  5.210358E+03
       255  21  1.657502E+05  3.825780E+04  3.521333E+04  1.077751E+04  1.810401E+03  4.463422E+03
       255  22  1.237796E+04 -2.148569E+03 -5.789861E+03  1.000380E+04  4.350952E+03  5.520813E+03
       255  23  1.286654E+04  3.592661E+02 -2.927338E+03  2.617351E+03  2.849145E+03  5.209440E+03
       255  24  1.237916E+04  1.919977E+02 -1.734035E+03  9.994532E+03  1.349346E+03  4.461585E+03
       255  25 -1.786705E+05 -4.956838E+04 -5.183637E+04  1.005027E+04  4.308194E+03  5.520760E+03
       255  26 -1.593142E+05 -4.236597E+04 -4.435227E+04  2.249057E+03  2.597320E+03  5.208521E+03
       255  27 -1.409703E+05 -3.787552E+04 -3.868307E+04  9.211728E+03  8.884046E+02  4.459748E+03
       256   1  1.390646E+05  3.122244E+04  2.903765E+04  1.034704E+04 -1.414105E+03 -3.962043E+03
       256   2  1.203436E+05  2.677640E+04  2.519197E+04  2.953759E+03 -1.074790E+03 -3.244413E+03
       256   3  1.013917E+05  2.215458E+04  2.105110E+04  1.032476E+04 -7.358012E+02 -2.492409E+03
       256   4  1.254626E+04 -1.586101E+02 -1.353145E+03  9.998365E+03 -1.078383E+03 -3.960689E+03
       256   5  1.266347E+04  5.923641E+01 -7.138434E+02  2.615599E+03 -7.226340E+02 -3.242952E+03
       256   6  1.254702E+04  9.849864E+01 -3.810991E+02  9.997272E+03 -3.672016E+02 -2.490837E+03
       256   7 -1.139575E+05 -3.154082E+04 -3.174508E+04  9.649744E+03 -7.427293E+02 -3.959335E+03
       256   8 -9.500601E+04 -2.665878E+04 -2.662048E+04  2.277486E+03 -3.705392E+02 -3.241491E+03
       256   9 -7.629049E+04 -2.195816E+04 -2.181387E+04  9.669826E+03  1.345539E+00 -2.489265E+03
       256  10  1.390646E+05  3.122242E+04  2.903762E+04  1.034704E+04  5.654593E-09 -6.044918E-09
       256  11  1.203436E+05  2.677639E+04  2.519195E+04  2.953757E+03 -1.925346E-09 -1.268381E-08
       256  12  1.013917E+05  2.215457E+04  2.105109E+04  1.032476E+04 -6.381441E-09 -9.151571E-09
       256  13  1.254625E+04 -1.586273E+02 -1.353177E+03  9.998362E+03 -3.269687E-09  1.352627E-10
       256  14  1.266346E+04  5.922498E+01 -7.138642E+02  2.615597E+03 -2.735333E-09 -2.046229E-09
       256  15  1.254702E+04  9.849194E+01 -3.811110E+02  9.997271E+03 -6.661574E-11 -5.826595E-09
       256  16 -1.139575E+05 -3.154084E+04 -3.174511E+04  9.649741E+03 -5.064504E-09 -9.301908E-09
       256  17 -9.500601E+04 -2.665879E+04 -2.662050E+04  2.277485E+03  3.503993E-09  3.215029E-09
       256  18 -7.629049E+04 -2.195817E+04 -2.181388E+04  9.669826E+03  5.674390E-09  9.828614E-09
       256  19  1.390646E+05  3.122244E+04  2.903765E+04  1.034704E+04  1.414105E+03  3.962043E+03
       256  20  1.203436E+05  2.677640E+04  2.519197E+04  2.953759E+03  1.074790E+03  3.244413E+03
       256  21  1.013917E+05  2.215458E+04  2.105110E+04  1.032476E+04  7.358012E+02  2.492409E+03
       256  22  1.254626E+04 -1.586101E+02 -1.353145E+03  9.998365E+03  1.078383E+03  3.960689E+03
       256  23  1.266347E+04  5.923641E+01 -7.138434E+02  2.615599E+03  7.226340E+02  3.242952E+03
       256  24  1.254702E+04  9.849864E+01 -3.810991E+02  9.997272E+03  3.672016E+02  2.490837E+03
       256  25 -1.139575E+05 -3.154082E+04 -3.174508E+04  9.649744E+03  7.427293E+02  3.959335E+03
       256  26 -9.500601E+04 -2.665878E+04 -2.662048E+04  2.277486E+03  3.705392E+02  3.241491E+03
       256  27 -7.629049E+04 -2.195816E+04 -2.181387E+04  9.669826E+03 -1.345539E+00  2.489265E+03
       257   1  7.457173E+04  1.543347E+04  1.459449E+04  1.019999E+04 -6.699950E+02 -2.049915E+03
       257   2  5.580927E+04  1.073814E+04  1.031698E+04  2.762607E+03 -6.394414E+02 -1.301260E+03
       257   3  3.690981E+04  6.146349E+03  6.011540E+03  1.008480E+04 -6.089713E+02 -5.501364E+02
       257   4  1.256954E+04  6.054627E+01 -2.657988E+02  9.996635E+03 -3.112559E+02 -2.048366E+03
       257   5  1.263846E+04  2.619965E+01 -6.969344E+01  2.616730E+03 -2.795275E+02 -1.299691E+03
       257   6  1.256984E+04  9.521848E+01  9.769356E+01  9.996469E+03 -2.478815E+02 -5.485453E+02
       257   7 -4.942913E+04 -1.531266E+04 -1.512636E+04  9.793295E+03  4.744754E+01 -2.046817E+03
       257   8 -3.053064E+04 -1.068587E+04 -1.045649E+04  2.470862E+03  8.036155E+01 -1.298121E+03
       257   9 -1.176958E+04 -5.955956E+03 -5.816195E+03  9.908137E+03  1.131942E+02 -5.469542E+02
       257  10  7.457173E+04  1.543346E+04  1.459449E+04  1.019999E+04  4.516896E-09 -1.048435E-08
       257  11  5.580927E+04  1.073813E+04  1.031697E+04  2.762606E+03 -5.825327E-10  4.644745E-09
       257  12  3.690981E+04  6.146349E+03  6.011538E+03  1.008480E+04 -7.161838E-09 -1.243067E-09
       257  13  1.256954E+04  6.054174E+01 -2.658069E+02  9.996635E+03  2.028028E-09  1.753590E-09
       257  14  1.263846E+04  2.619782E+01 -6.969676E+01  2.616730E+03 -2.253040E-09 -6.474198E-09
       257  15  1.256984E+04  9.521814E+01  9.769288E+01  9.996469E+03 -4.606255E-11 -7.901638E-09
       257  16 -4.942914E+04 -1.531266E+04 -1.512637E+04  9.793295E+03 -2.377018E-09  5.651717E-09
       257  17 -3.053064E+04 -1.068587E+04 -1.045650E+04  2.470862E+03  1.249679E-09  1.915935E-08
       257  18 -1.176958E+04 -5.955956E+03 -5.816195E+03  9.908137E+03  5.298153E-09  1.762294E-09
       257  19  7.457173E+04  1.543347E+04  1.459449E+04  1.019999E+04  6.699950E+02  2.049915E+03
       257  20  5.580927E+04  1.073814E+04  1.031698E+04  2.762607E+03  6.394414E+02  1.301260E+03
       257  21  3.690981E+04  6.146349E+03  6.011540E+03  1.008480E+04  6.089713E+02  5.501364E+02
       257  22  1.256954E+04  6.054627E+01 -2.657988E+02  9.996635E+03  3.112559E+02  2.048366E+03
       257  23  1.263846E+04  2.619965E+01 -6.969344E+01  2.616730E+03  2.795275E+02  1.299691E+03
       257  24  1.256984E+04  9.521848E+01  9.769356E+01  9.996469E+03  2.478815E+02  5.485453E+02
       257  25 -4.942913E+04 -1.531266E+04 -1.512636E+04  9.793295E+03 -4.744754E+01  2.046817E+03
       257  26 -3.053064E+04 -1.068587E+04 -1.045649E+04  2.470862E+03 -8.036155E+01  1.298121E+03
       257  27 -1.176958E+04 -5.955956E+03 -5.816195E+03  9.908137E+03 -1.131942E+02  5.469542E+02
       258   1  1.008531E+04 -5.478996E+02 -4.713943E+02  1.000124E+04 -6.365691E+02 -1.122977E+02
       258   2 -8.702692E+03 -5.279349E+03 -4.712319E+03  2.552217E+03 -8.471557E+02  6.377730E+02
       258   3 -2.757277E+04 -9.804577E+03 -8.798988E+03  9.862243E+03 -1.057688E+03  1.385568E+03
       258   4  1.258224E+04  8.307093E+01  1.870257E+02  9.996480E+03 -2.755513E+02 -1.107040E+02
       258   5  1.262342E+04  1.240277E+01  4.188003E+02  2.616818E+03 -4.872454E+02  6.393533E+02
       258   6  1.258209E+04  1.480966E+02  8.055387E+02  9.996175E+03 -6.988910E+02  1.387137E+03
       258   7  1.507918E+04  7.140410E+02  8.454457E+02  9.991715E+03  8.546800E+01 -1.091103E+02
       258   8  3.394995E+04  5.304121E+03  5.549887E+03  2.681420E+03 -1.273227E+02  6.409337E+02
       258   9  5.273844E+04  1.010065E+04  1.040995E+04  1.013011E+04 -3.400712E+02  1.388705E+03
       258  10  1.008531E+04 -5.478997E+02 -4.713951E+02  1.000124E+04 -6.163793E-09 -1.479719E-09
       258  11 -8.702693E+03 -5.279349E+03 -4.712321E+03  2.552218E+03 -1.009926E-09 -9.726218E-09
       258  12 -2.757278E+04 -9.804580E+03 -8.798994E+03  9.862245E+03 -3.586731E-09 -8.026107E-09
       258  13  1.258224E+04  8.307090E+01  1.870256E+02  9.996480E+03 -1.174286E-09  1.120973E-08
       258  14  1.262342E+04  1.240227E+01  4.187991E+02  2.616818E+03 -3.307729E-09 -2.636069E-09
       258  15  1.258209E+04  1.480944E+02  8.055341E+02  9.996176E+03 -4.272657E-10 -1.026688E-08
       258  16  1.507918E+04  7.140410E+02  8.454457E+02  9.991715E+03  5.182177E-09  2.046159E-11
       258  17  3.394995E+04  5.304121E+03  5.549887E+03  2.681420E+03 -1.716141E-09 -1.619921E-08
       258  18  5.273844E+04  1.010065E+04  1.040995E+04  1.013011E+04  3.536425E-09 -1.134769E-08
       258  19  1.008531E+04 -5.478996E+02 -4.713943E+02  1.000124E+04  6.365691E+02  1.122977E+02
       258  20 -8.702692E+03 -5.279349E+03 -4.712319E+03  2.552217E+03  8.471557E+02 -6.377730E+02
       258  21 -2.757277E+04 -9.804577E+03 -8.798988E+03  9.862243E+03  1.057688E+03 -1.385568E+03
       258  22  1.258224E+04  8.307093E+01  1.870257E+02  9.996480E+03  2.755513E+02  1.107040E+02
       258  23  1.262342E+04  1.240277E+01  4.188003E+02  2.616818E+03  4.872454E+02 -6.393533E+02
       258  24  1.258209E+04  1.480966E+02  8.055387E+02  9.996175E+03  6.988910E+02 -1.387137E+03
       258  25  1.507918E+04  7.140410E+02  8.454457E+02  9.991715E+03 -8.546800E+01  1.091103E+02
       258  26  3.394995E+04  5.304121E+03  5.549887E+03  2.681420E+03  1.273227E+02 -6.409337E+02
       258  27  5.273844E+04  1.010065E+04  1.040995E+04  1.013011E+04  3.400712E+02 -1.388705E+03
       259   1 -5.435023E+04 -1.657592E+04 -1.511296E+04  9.869453E+03 -1.236357E+03  1.826619E+03
       259   2 -7.327672E+04 -2.137329E+04 -1.880534E+04  2.324221E+03 -2.150945E+03  2.573386E+03
       259   3 -9.201263E+04 -2.528561E+04 -2.171302E+04  9.536624E+03 -3.065244E+03  3.288643E+03
       259   4  1.264251E+04  5.840297E+01  1.063202E+03  9.996868E+03 -8.685463E+02  1.828212E+03
       259   5  1.254565E+04 -7.664612E+01  1.844312E+03  2.616784E+03 -1.798376E+03  2.574881E+03
       259   6  1.264192E+04  6.760361E+02  3.420706E+03  9.994206E+03 -2.727944E+03  3.290043E+03
       259   7  7.963936E+04  1.669239E+04  1.723904E+04  1.012429E+04 -5.006966E+02  1.829806E+03
       259   8  9.837477E+04  2.121947E+04  2.249344E+04  2.909381E+03 -1.445758E+03  2.576376E+03
       259   9  1.173065E+05  2.663689E+04  2.855365E+04  1.045186E+04 -2.390587E+03  3.291442E+03
       259  10 -5.435024E+04 -1.657592E+04 -1.511296E+04  9.869455E+03 -9.755868E-09 -6.134405E-09
       259  11 -7.327673E+04 -2.137330E+04 -1.880536E+04  2.324226E+03 -2.545146E-09 -9.640207E-09
       259  12 -9.201264E+04 -2.528563E+04 -2.171306E+04  9.536632E+03  1.655462E-09 -4.466773E-09
       259  13  1.264251E+04  5.839918E+01  1.063194E+03  9.996869E+03 -2.220883E-09 -6.117646E-09
       259  14  1.254565E+04 -7.665411E+01  1.844294E+03  2.616788E+03 -1.154906E-09  1.954477E-09
       259  15  1.264190E+04  6.760225E+02  3.420671E+03  9.994213E+03 -1.787082E-09  6.501583E-09
       259  16  7.963936E+04  1.669239E+04  1.723903E+04  1.012429E+04  1.097862E-08  2.102645E-09
       259  17  9.837477E+04  2.121946E+04  2.249342E+04  2.909384E+03  1.430010E-09 -1.390804E-09
       259  18  1.173065E+05  2.663687E+04  2.855362E+04  1.045186E+04 -2.333268E-09  1.308191E-08
       259  19 -5.435023E+04 -1.657592E+04 -1.511296E+04  9.869453E+03  1.236357E+03 -1.826619E+03
       259  20 -7.327672E+04 -2.137329E+04 -1.880534E+04  2.324221E+03  2.150945E+03 -2.573386E+03
       259  21 -9.201263E+04 -2.528561E+04 -2.171302E+04  9.536624E+03  3.065244E+03 -3.288643E+03
       259  22  1.264251E+04  5.840297E+01  1.063202E+03  9.996868E+03  8.685463E+02 -1.828212E+03
       259  23  1.254565E+04 -7.664612E+01  1.844312E+03  2.616784E+03  1.798376E+03 -2.574881E+03
       259  24  1.264192E+04  6.760361E+02  3.420706E+03  9.994206E+03  2.727944E+03 -3.290043E+03
       259  25  7.963936E+04  1.669239E+04  1.723904E+04  1.012429E+04  5.006966E+02 -1.829806E+03
       259  26  9.837477E+04  2.121947E+04  2.249344E+04  2.909381E+03  1.445758E+03 -2.576376E+03
       259  27  1.173065E+05  2.663689E+04  2.855365E+04  1.045186E+04  2.390587E+03 -3.291442E+03
       260   1 -1.184312E+05 -3.282956E+04 -2.732017E+04  1.034305E+04 -3.872184E+03  3.780040E+03
       260   2 -1.383206E+05 -3.815058E+04 -2.883593E+04  1.773894E+03 -7.446688E+03  4.508281E+03
       260   3 -1.560954E+05 -3.638316E+04 -2.627839E+04  7.942656E+03 -1.101925E+04  4.836361E+03
       260   4  1.307426E+04 -1.941474E+02  4.370743E+03  9.999068E+03 -3.419989E+03  3.781898E+03
       260   5  1.200028E+04 -8.448319E+02  7.329921E+03  2.618426E+03 -7.187361E+03  4.509271E+03
       260   6  1.307331E+04  5.625467E+03  1.449560E+04  9.975445E+03 -1.095289E+04  4.836514E+03
       260   7  1.445955E+05  3.244000E+04  3.606042E+04  9.654997E+03 -2.967699E+03  3.783756E+03
       260   8  1.623418E+05  3.645927E+04  4.349416E+04  3.463143E+03 -6.927972E+03  4.510262E+03
       260   9  1.822682E+05  4.763202E+04  5.526755E+04  1.200876E+04 -1.088653E+04  4.836668E+03
       260  10 -1.184312E+05 -3.282958E+04 -2.732023E+04  1.034306E+04  5.078009E-09 -1.030318E-09
       260  11 -1.383206E+05 -3.815062E+04 -2.883607E+04  1.773921E+03 -1.710082E-09  8.847127E-09
       260  12 -1.560956E+05 -3.638322E+04 -2.627867E+04  7.942699E+03 -2.431456E-09 -2.399033E-09
       260  13  1.307425E+04 -1.941659E+02  4.370694E+03  9.999079E+03 -2.192122E-11 -7.758565E-09
       260  14  1.200022E+04 -8.448676E+02  7.329786E+03  2.618452E+03  5.336589E-10  4.063558E-09
       260  15  1.307317E+04  5.625410E+03  1.449533E+04  9.975488E+03  6.805619E-10  3.379628E-09
       260  16  1.445955E+05  3.243999E+04  3.606038E+04  9.655006E+03 -7.204979E-09 -1.131863E-10
       260  17  1.623418E+05  3.645924E+04  4.349403E+04  3.463168E+03  9.757333E-10 -1.869117E-08
       260  18  1.822681E+05  4.763196E+04  5.526728E+04  1.200881E+04  5.030779E-09  2.117558E-09
       260  19 -1.184312E+05 -3.282956E+04 -2.732017E+04  1.034305E+04  3.872184E+03 -3.780040E+03
       260  20 -1.383206E+05 -3.815058E+04 -2.883593E+04  1.773894E+03  7.446688E+03 -4.508281E+03
       260  21 -1.560954E+05 -3.638316E+04 -2.627839E+04  7.942656E+03  1.101925E+04 -4.836361E+03
       260  22  1.307426E+04 -1.941474E+02  4.370743E+03  9.999068E+03  3.419989E+03 -3.781898E+03
       260  23  1.200028E+04 -8.448319E+02  7.329921E+03  2.618426E+03  7.187361E+03 -4.509271E+03
       260  24  1.307331E+04  5.625467E+03  1.449560E+04  9.975445E+03  1.095289E+04 -4.836514E+03
       260  25  1.445955E+05  3.244000E+04  3.606042E+04  9.654997E+03  2.967699E+03 -3.783756E+03
       260  26  1.623418E+05  3.645927E+04  4.349416E+04  3.463143E+03  6.927972E+03 -4.510262E+03
       260  27  1.822682E+05  4.763202E+04  5.526755E+04  1.200876E+04  1.088653E+04 -4.836668E+03
       261   1 -1.795362E+05 -5.109586E+04 -2.938431E+04  1.601219E+04 -1.525029E+04  5.983189E+03
       261   2 -2.071007E+05 -6.101410E+04 -2.335224E+04 -2.382336E+03 -2.808263E+04  6.574623E+03
       261   3 -2.171688E+05 -7.320821E+03  6.923537E+03 -6.295379E+03 -4.089534E+04  2.094783E+03
       261   4  1.657375E+04 -2.503585E+03  1.774654E+04  9.997774E+03 -1.372853E+04  5.989250E+03
       261   5  7.617282E+03 -7.700417E+03  2.825419E+04  2.657302E+03 -2.899925E+04  6.570771E+03
       261   6  1.657327E+04  5.112530E+04  6.469270E+04  9.797692E+03 -4.425077E+04  2.081335E+03
       261   7  2.127190E+05  4.608604E+04  6.487469E+04  3.981420E+03 -1.220630E+04  5.995281E+03
       261   8  2.223775E+05  4.561000E+04  7.985735E+04  7.698651E+03 -2.991619E+04  6.566905E+03
       261   9  2.503655E+05  1.095683E+05  1.224580E+05  2.589679E+04 -4.760746E+04  2.067717E+03
       261  10 -1.795365E+05 -5.109596E+04 -2.938482E+04  1.601226E+04  5.534680E-09 -5.791659E-09
       261  11 -2.071015E+05 -6.101436E+04 -2.335380E+04 -2.382187E+03  4.979606E-09  3.291612E-09
       261  12 -2.171706E+05 -7.321275E+03  6.920385E+03 -6.295310E+03  1.122263E-09  9.714922E-09
       261  13  1.657354E+04 -2.503674E+03  1.774612E+04  9.997840E+03  6.325799E-12  3.892969E-09
       261  14  7.616368E+03 -7.700689E+03  2.825253E+04  2.657456E+03 -2.642042E-09  2.762758E-09
       261  15  1.657117E+04  5.112477E+04  6.468901E+04  9.797766E+03 -1.699596E-09  1.151772E-09
       261  16  2.127189E+05  4.608596E+04  6.487434E+04  3.981479E+03 -4.543648E-09  7.321339E-09
       261  17  2.223765E+05  4.560971E+04  7.985559E+04  7.698809E+03 -5.170525E-09  4.264844E-09
       261  18  2.503631E+05  1.095677E+05  1.224537E+05  2.589687E+04 -1.208123E-09 -1.705504E-09
       261  19 -1.795362E+05 -5.109586E+04 -2.938431E+04  1.601219E+04  1.525029E+04 -5.983189E+03
       261  20 -2.071007E+05 -6.101410E+04 -2.335224E+04 -2.382336E+03  2.808263E+04 -6.574623E+03
       261  21 -2.171688E+05 -7.320821E+03  6.923537E+03 -6.295379E+03  4.089534E+04 -2.094783E+03
       261  22  1.657375E+04 -2.503585E+03  1.774654E+04  9.997774E+03  1.372853E+04 -5.989250E+03
       261  23  7.617282E+03 -7.700417E+03  2.825419E+04  2.657302E+03  2.899925E+04 -6.570771E+03
       261  24  1.657327E+04  5.112530E+04  6.469270E+04  9.797692E+03  4.425077E+04 -2.081335E+03
       261  25  2.127190E+05  4.608604E+04  6.487469E+04  3.981420E+03  1.220630E+04 -5.995281E+03
       261  26  2.223775E+05  4.561000E+04  7.985735E+04  7.698651E+03  2.991619E+04 -6.566905E+03
       261  27  2.503655E+05  1.095683E+05  1.224580E+05  2.589679E+04  4.760746E+04 -2.067717E+03
       262   1 -2.937649E+05 -1.334288E+06 -3.292406E+05  1.008084E+05 -5.326911E+03 -1.241969E+05
       262   2 -1.073585E+05 -1.203926E+06 -2.037135E+05  2.967752E+04 -1.595099E+04 -7.451379E+04
       262   3 -9.677581E+04 -1.123073E+06 -1.543726E+05  4.061022E+04 -1.224558E+04 -2.477732E+04
       262   4 -1.380285E+05 -7.120663E+05 -1.752134E+05  5.740887E+04 -5.345632E+03 -1.158195E+05
       262   5  2.087064E+04 -6.878915E+05 -7.959644E+04  1.660560E+04 -1.595330E+04 -7.296562E+04
       262   6  5.212186E+03 -7.120009E+05 -5.536593E+04  5.786864E+04 -1.223186E+04 -3.006743E+04
       262   7  1.768573E+04 -8.948862E+04 -2.121390E+04  1.396594E+04 -5.365520E+03 -1.074336E+05
       262   8  1.490810E+05 -1.716120E+05  4.450172E+04  3.522926E+03 -1.595566E+04 -7.141616E+04
       262   9  1.071890E+05 -3.007729E+05  4.362900E+04  7.513865E+04 -1.221844E+04 -3.536102E+04
       262  10 -2.937690E+05 -1.334304E+06 -3.292697E+05  1.008079E+05 -5.849633E-10  1.208393E-08
       262  11 -1.073603E+05 -1.203932E+06 -2.037244E+05  2.967657E+04 -9.186350E-10  1.066451E-08
       262  12 -9.677614E+04 -1.123074E+06 -1.543741E+05  4.060998E+04  1.929773E-09  3.500653E-09
       262  13 -1.380322E+05 -7.120807E+05 -1.752387E+05  5.740837E+04  1.592146E-09  4.668679E-11
       262  14  2.086893E+04 -6.878973E+05 -7.960693E+04  1.660466E+04 -2.081145E-10 -6.095419E-09
       262  15  5.211782E+03 -7.120019E+05 -5.536791E+04  5.786835E+04  2.922464E-09  8.444535E-10
       262  16  1.768259E+04 -8.950102E+04 -2.123565E+04  1.396548E+04  7.639475E-10 -1.023628E-09
       262  17  1.490793E+05 -1.716176E+05  4.449166E+04  3.522008E+03 -3.096998E-10 -9.987513E-09
       262  18  1.071885E+05 -3.007742E+05  4.362637E+04  7.513830E+04 -1.430040E-09 -5.464434E-09
       262  19 -2.937649E+05 -1.334288E+06 -3.292406E+05  1.008084E+05  5.326911E+03  1.241969E+05
       262  20 -1.073585E+05 -1.203926E+06 -2.037135E+05  2.967752E+04  1.595099E+04  7.451379E+04
       262  21 -9.677581E+04 -1.123073E+06 -1.543726E+05  4.061022E+04  1.224558E+04  2.477732E+04
       262  22 -1.380285E+05 -7.120663E+05 -1.752134E+05  5.740887E+04  5.345632E+03  1.158195E+05
       262  23  2.087064E+04 -6.878915E+05 -7.959644E+04  1.660560E+04  1.595330E+04  7.296562E+04
       262  24  5.212186E+03 -7.120009E+05 -5.536593E+04  5.786864E+04  1.223186E+04  3.006743E+04
       262  25  1.768573E+04 -8.948862E+04 -2.121390E+04  1.396594E+04  5.365520E+03  1.074336E+05
       262  26  1.490810E+05 -1.716120E+05  4.450172E+04  3.522926E+03  1.595566E+04  7.141616E+04
       262  27  1.071890E+05 -3.007729E+05  4.362900E+04  7.513865E+04  1.221844E+04  3.536102E+04
       263   1 -7.904314E+04 -9.628491E+05 -1.114657E+05  6.449772E+04 -7.646896E+03 -1.968887E+04
       263   2 -3.352853E+04 -8.506297E+05 -7.359196E+04  1.665046E+04 -4.609460E+03 -4.949022E+02
       263   3 -2.424864E+04 -7.494118E+05 -5.717209E+04  5.240589E+04 -1.071826E+03  1.870234E+04
       263   4 -1.463428E+04 -7.036907E+05 -4.901074E+04  5.805509E+04 -7.643079E+03 -2.105348E+04
       263   5  4.324450E+03 -6.982035E+05 -3.689218E+04  1.625684E+04 -4.605482E+03 -2.093786E+03
       263   6 -1.290496E+04 -7.036843E+05 -4.605907E+04  5.806104E+04 -1.067403E+03  1.686593E+04
       263   7  4.976982E+04 -4.444707E+05  1.343943E+04  5.160980E+04 -7.639233E+03 -2.241866E+04
       263   8  4.217574E+04 -5.457559E+05 -1.940539E+02  1.586314E+04 -4.601502E+03 -3.693062E+03
       263   9 -1.561300E+03 -6.579548E+05 -3.494618E+04  6.371662E+04 -1.063014E+03  1.502939E+04
       263  10 -7.904331E+04 -9.628495E+05 -1.114665E+05  6.449760E+04  9.733757E-10  5.794297E-09
       263  11 -3.352856E+04 -8.506297E+05 -7.359200E+04  1.665045E+04 -1.201208E-09  5.204039E-09
       263  12 -2.424874E+04 -7.494122E+05 -5.717275E+04  5.240590E+04  1.636503E-09  4.836077E-09
       263  13 -1.463446E+04 -7.036912E+05 -4.901169E+04  5.805496E+04  7.093532E-10  1.872734E-12
       263  14  4.324427E+03 -6.982035E+05 -3.689223E+04  1.625683E+04 -7.005935E-09 -6.191984E-09
       263  15 -1.290503E+04 -7.036846E+05 -4.605961E+04  5.806106E+04 -7.332600E-10  4.934707E-10
       263  16  4.976962E+04 -4.444713E+05  1.343838E+04  5.160966E+04  6.443579E-10  2.063140E-09
       263  17  4.217571E+04 -5.457560E+05 -1.941193E+02  1.586312E+04 -2.308703E-09 -3.385151E-09
       263  18 -1.561362E+03 -6.579551E+05 -3.494660E+04  6.371663E+04 -1.709372E-09 -3.480707E-09
       263  19 -7.904314E+04 -9.628491E+05 -1.114657E+05  6.449772E+04  7.646896E+03  1.968887E+04
       263  20 -3.352853E+04 -8.506297E+05 -7.359196E+04  1.665046E+04  4.609460E+03  4.949022E+02
       263  21 -2.424864E+04 -7.494118E+05 -5.717209E+04  5.240589E+04  1.071826E+03 -1.870234E+04
       263  22 -1.463428E+04 -7.036907E+05 -4.901074E+04  5.805509E+04  7.643079E+03  2.105348E+04
       263  23  4.324450E+03 -6.982035E+05 -3.689218E+04  1.625684E+04  4.605482E+03  2.093786E+03
       263  24 -1.290496E+04 -7.036843E+05 -4.605907E+04  5.806104E+04  1.067403E+03 -1.686593E+04
       263  25  4.976982E+04 -4.444707E+05  1.343943E+04  5.160980E+04  7.639233E+03  2.241866E+04
       263  26  4.217574E+04 -5.457559E+05 -1.940539E+02  1.586314E+04  4.601502E+03  3.693062E+03
       263  27 -1.561300E+03 -6.579548E+05 -3.494618E+04  6.371662E+04  1.063014E+03 -1.502939E+04
       264   1  3.080307E+04 -6.040577E+05 -2.535875E+04  7.409910E+04  2.715633E+03  2.912237E+04
       264   2  7.171468E+04 -4.760316E+05 -2.065066E+04  5.298322E+03  6.611397E+03  6.397308E+04
       264   3 -4.310067E+04 -3.908767E+05 -7.744539E+04  1.961278E+04  2.436876E+03  9.880980E+04
       264   4  4.335201E+03 -7.109233E+05 -5.120646E+04  5.806550E+04  2.723843E+03  2.527329E+04
       264   5  1.875427E+04 -6.891605E+05 -7.186603E+04  1.633980E+04  6.612625E+03  6.398212E+04
       264   6 -1.232565E+05 -7.109725E+05 -1.567281E+05  5.773434E+04  2.432928E+03  1.026708E+05
       264   7 -2.213252E+04 -8.177779E+05 -7.705480E+04  4.203467E+04  2.732253E+03  2.142487E+04
       264   8 -3.420900E+04 -9.022476E+05 -1.230846E+05  2.737749E+04  6.613854E+03  6.399116E+04
       264   9 -2.034146E+05 -1.030972E+06 -2.360176E+05  9.583627E+04  2.429456E+03  1.065298E+05
       264  10  3.080283E+04 -6.040587E+05 -2.536036E+04  7.409904E+04  1.654260E-09  6.681888E-09
       264  11  7.171353E+04 -4.760360E+05 -2.065844E+04  5.297982E+03  1.477216E-09  5.583802E-09
       264  12 -4.310330E+04 -3.908872E+05 -7.746376E+04  1.961259E+04 -2.222836E-10  3.262560E-09
       264  13  4.335021E+03 -7.109240E+05 -5.120768E+04  5.806544E+04 -9.267244E-10 -1.014462E-09
       264  14  1.875312E+04 -6.891649E+05 -7.187382E+04  1.633946E+04 -1.110175E-09 -6.605779E-09
       264  15 -1.232594E+05 -7.109838E+05 -1.567479E+05  5.773414E+04 -2.045858E-09  1.077836E-09
       264  16 -2.213265E+04 -8.177784E+05 -7.705568E+04  4.203462E+04 -2.595521E-09  2.135886E-09
       264  17 -3.421015E+04 -9.022520E+05 -1.230924E+05  2.737715E+04 -1.895373E-09 -8.680074E-09
       264  18 -2.034177E+05 -1.030984E+06 -2.360389E+05  9.583606E+04  2.290123E-12 -3.936473E-09
       264  19  3.080307E+04 -6.040577E+05 -2.535875E+04  7.409910E+04 -2.715633E+03 -2.912237E+04
       264  20  7.171468E+04 -4.760316E+05 -2.065066E+04  5.298322E+03 -6.611397E+03 -6.397308E+04
       264  21 -4.310067E+04 -3.908767E+05 -7.744539E+04  1.961278E+04 -2.436876E+03 -9.880980E+04
       264  22  4.335201E+03 -7.109233E+05 -5.120646E+04  5.806550E+04 -2.723843E+03 -2.527329E+04
       264  23  1.875427E+04 -6.891605E+05 -7.186603E+04  1.633980E+04 -6.612625E+03 -6.398212E+04
       264  24 -1.232565E+05 -7.109725E+05 -1.567281E+05  5.773434E+04 -2.432928E+03 -1.026708E+05
       264  25 -2.213252E+04 -8.177779E+05 -7.705480E+04  4.203467E+04 -2.732253E+03 -2.142487E+04
       264  26 -3.420900E+04 -9.022476E+05 -1.230846E+05  2.737749E+04 -6.613854E+03 -6.399116E+04
       264  27 -2.034146E+05 -1.030972E+06 -2.360176E+05  9.583627E+04 -2.429456E+03 -1.065298E+05
       265   1  8.821217E+05  2.963038E+05  1.891976E+05  3.133036E+05  8.772627E+04  3.085876E+04
       265   2  8.518602E+05  1.607701E+05  1.055609E+05  3.203113E+05  5.696837E+04  1.451719E+04
       265   3  8.610858E+05  1.579094E+05  7.939861E+04  3.078668E+05  2.438672E+04  2.989188E+03
       265   4  6.933419E+05  1.973173E+05  1.323661E+05  2.335387E+05  8.478388E+04  2.973857E+04
       265   5  6.669162E+05  8.311393E+04  5.507115E+04  2.614990E+05  5.619990E+04  1.422477E+04
       265   6  6.795611E+05  1.011738E+05  3.354153E+04  2.700035E+05  2.579142E+04  3.522507E+03
       265   7  5.046000E+05  9.834477E+04  7.553159E+04  1.537996E+05  8.184249E+04  2.861909E+04
       265   8  4.820060E+05  5.462387E+03  4.578388E+03  2.027035E+05  5.543168E+04  1.393248E+04
       265   9  4.980675E+05  4.443787E+04 -1.231821E+04  2.321488E+05  2.719567E+04  4.055724E+03
       265  10  8.821132E+05  2.963008E+05  1.891814E+05  3.133015E+05 -5.056144E-09  2.715000E-09
       265  11  8.518566E+05  1.607690E+05  1.055544E+05  3.203106E+05 -3.577285E-09  9.149495E-09
       265  12  8.610851E+05  1.579092E+05  7.939748E+04  3.078667E+05 -2.499459E-09  1.038068E-09
       265  13  6.933340E+05  1.973145E+05  1.323509E+05  2.335367E+05 -4.548874E-10 -3.861822E-09
       265  14  6.669128E+05  8.311287E+04  5.506485E+04  2.614984E+05 -9.278877E-09 -1.364447E-08
       265  15  6.795603E+05  1.011736E+05  3.354026E+04  2.700034E+05 -6.276725E-09 -2.435416E-09
       265  16  5.045926E+05  9.834209E+04  7.551748E+04  1.537977E+05  3.551945E-09  4.432850E-09
       265  17  4.820026E+05  5.461355E+03  4.572255E+03  2.027029E+05 -3.905388E-09  8.261623E-09
       265  18  4.980667E+05  4.443765E+04 -1.231963E+04  2.321487E+05 -7.721509E-09  9.624919E-09
       265  19  8.821217E+05  2.963038E+05  1.891976E+05  3.133036E+05 -8.772627E+04 -3.085876E+04
       265  20  8.518602E+05  1.607701E+05  1.055609E+05  3.203113E+05 -5.696837E+04 -1.451719E+04
       265  21  8.610858E+05  1.579094E+05  7.939861E+04  3.078668E+05 -2.438672E+04 -2.989188E+03
       265  22  6.933419E+05  1.973173E+05  1.323661E+05  2.335387E+05 -8.478388E+04 -2.973857E+04
       265  23  6.669162E+05  8.311393E+04  5.507115E+04  2.614990E+05 -5.619990E+04 -1.422477E+04
       265  24  6.795611E+05  1.011738E+05  3.354153E+04  2.700035E+05 -2.579142E+04 -3.522507E+03
       265  25  5.046000E+05  9.834477E+04  7.553159E+04  1.537996E+05 -8.184249E+04 -2.861909E+04
       265  26  4.820060E+05  5.462387E+03  4.578388E+03  2.027035E+05 -5.543168E+04 -1.393248E+04
       265  27  4.980675E+05  4.443787E+04 -1.231821E+04  2.321488E+05 -2.719567E+04 -4.055724E+03
       266   1  8.192083E+05  1.723594E+05  6.614343E+04  3.043998E+05  2.050434E+04  2.814591E+03
       266   2  8.049780E+05  1.466615E+05  4.719640E+04  2.957816E+05  1.341499E+04  4.940638E+02
       266   3  7.864005E+05  1.454079E+05  3.723756E+04  2.955831E+05  6.173637E+03 -1.425641E+03
       266   4  6.753409E+05  1.150511E+05  2.733263E+04  2.618440E+05  2.055643E+04  2.834163E+03
       266   5  6.767524E+05  9.741072E+04  1.301785E+04  2.596984E+05  1.364894E+04  5.827747E+02
       266   6  6.737817E+05  1.041805E+05  7.548793E+03  2.659721E+05  6.589246E+03 -1.267881E+03
       266   7  5.314935E+05  5.774465E+04 -1.148002E+04  2.192974E+05  2.060851E+04  2.853731E+03
       266   8  5.485429E+05  4.816118E+04 -2.116209E+04  2.236220E+05  1.388284E+04  6.714645E+02
       266   9  5.611754E+05  6.295378E+04 -2.214097E+04  2.363660E+05  7.004771E+03 -1.110150E+03
       266  10  8.192078E+05  1.723592E+05  6.614263E+04  3.043997E+05 -7.401869E-09 -9.238103E-10
       266  11  8.049778E+05  1.466614E+05  4.719606E+04  2.957816E+05 -5.260508E-09  7.033908E-09
       266  12  7.864005E+05  1.454079E+05  3.723748E+04  2.955831E+05 -2.780972E-09  9.011516E-09
       266  13  6.753404E+05  1.150509E+05  2.733182E+04  2.618440E+05 -7.317224E-09  5.042842E-09
       266  14  6.767522E+05  9.741067E+04  1.301750E+04  2.596984E+05 -4.215145E-09 -2.925047E-08
       266  15  6.737817E+05  1.041805E+05  7.548708E+03  2.659721E+05 -5.425500E-09  1.843817E-09
       266  16  5.314931E+05  5.774453E+04 -1.148083E+04  2.192974E+05 -1.532561E-10  1.315725E-08
       266  17  5.485427E+05  4.816113E+04 -2.116245E+04  2.236220E+05  1.047717E-09 -2.725404E-09
       266  18  5.611754E+05  6.295376E+04 -2.214107E+04  2.363660E+05  1.114461E-09  9.612716E-09
       266  19  8.192083E+05  1.723594E+05  6.614343E+04  3.043998E+05 -2.050434E+04 -2.814591E+03
       266  20  8.049780E+05  1.466615E+05  4.719640E+04  2.957816E+05 -1.341499E+04 -4.940638E+02
       266  21  7.864005E+05  1.454079E+05  3.723756E+04  2.955831E+05 -6.173637E+03  1.425641E+03
       266  22  6.753409E+05  1.150511E+05  2.733263E+04  2.618440E+05 -2.055643E+04 -2.834163E+03
       266  23  6.767524E+05  9.741072E+04  1.301785E+04  2.596984E+05 -1.364894E+04 -5.827747E+02
       266  24  6.737817E+05  1.041805E+05  7.548793E+03  2.659721E+05 -6.589246E+03  1.267881E+03
       266  25  5.314935E+05  5.774465E+04 -1.148002E+04  2.192974E+05 -2.060851E+04 -2.853731E+03
       266  26  5.485429E+05  4.816118E+04 -2.116209E+04  2.236220E+05 -1.388284E+04 -6.714645E+02
       266  27  5.611754E+05  6.295378E+04 -2.214097E+04  2.363660E+05 -7.004771E+03  1.110150E+03
       267   1  7.585297E+05  1.382086E+05  2.855129E+04  2.887625E+05  5.016844E+03 -1.316456E+03
       267   2  7.465730E+05  1.251679E+05  2.129927E+04  2.785645E+05  3.187911E+03 -1.230182E+03
       267   3  7.251288E+05  1.240099E+05  1.564600E+04  2.796121E+05  1.347657E+03 -1.114398E+03
       267   4  6.732638E+05  1.056741E+05  5.912139E+03  2.649768E+05  5.316807E+03 -1.202588E+03
       267   5  6.779223E+05  9.912971E+04  3.059860E+03  2.595838E+05  3.501371E+03 -1.111158E+03
       267   6  6.730908E+05  1.044656E+05  1.795940E+03  2.654363E+05  1.674570E+03 -9.902330E+02
       267   7  5.880047E+05  7.314000E+04 -1.672771E+04  2.411940E+05  5.616724E+03 -1.088738E+03
       267   8  6.092760E+05  7.309176E+04 -1.517998E+04  2.406049E+05  3.814793E+03 -9.921477E+02
       267   9  6.210554E+05  8.492148E+04 -1.205436E+04  2.512617E+05  2.001453E+03 -8.660787E+02
       267  10  7.585297E+05  1.382086E+05  2.855124E+04  2.887625E+05  4.039252E-09  3.530262E-09
       267  11  7.465730E+05  1.251679E+05  2.129925E+04  2.785645E+05 -5.279359E-10  3.444785E-10
       267  12  7.251288E+05  1.240099E+05  1.564599E+04  2.796121E+05 -7.342729E-09 -1.336503E-09
       267  13  6.732638E+05  1.056741E+05  5.912083E+03  2.649768E+05 -1.263483E-09  6.290557E-10
       267  14  6.779223E+05  9.912971E+04  3.059834E+03  2.595838E+05  3.646605E-09 -4.433926E-09
       267  15  6.730908E+05  1.044656E+05  1.795933E+03  2.654364E+05 -2.736665E-09  3.114054E-09
       267  16  5.880046E+05  7.313999E+04 -1.672777E+04  2.411940E+05 -6.381415E-09  5.532884E-09
       267  17  6.092760E+05  7.309176E+04 -1.518001E+04  2.406049E+05  3.483825E-10 -2.666931E-09
       267  18  6.210554E+05  8.492148E+04 -1.205437E+04  2.512617E+05  5.047172E-09  2.078537E-08
       267  19  7.585297E+05  1.382086E+05  2.855129E+04  2.887625E+05 -5.016844E+03  1.316456E+03
       267  20  7.465730E+05  1.251679E+05  2.129927E+04  2.785645E+05 -3.187911E+03  1.230182E+03
       267  21  7.251288E+05  1.240099E+05  1.564600E+04  2.796121E+05 -1.347657E+03  1.114398E+03
       267  22  6.732638E+05  1.056741E+05  5.912139E+03  2.649768E+05 -5.316807E+03  1.202588E+03
       267  23  6.779223E+05  9.912971E+04  3.059860E+03  2.595838E+05 -3.501371E+03  1.111158E+03
       267  24  6.730908E+05  1.044656E+05  1.795940E+03  2.654363E+05 -1.674570E+03  9.902330E+02
       267  25  5.880047E+05  7.314000E+04 -1.672771E+04  2.411940E+05 -5.616724E+03  1.088738E+03
       267  26  6.092760E+05  7.309176E+04 -1.517998E+04  2.406049E+05 -3.814793E+03  9.921477E+02
       267  27  6.210554E+05  8.492148E+04 -1.205436E+04  2.512617E+05 -2.001453E+03  8.660787E+02
       268   1  6.992270E+05  1.145368E+05  8.327112E+03  2.725564E+05  9.338930E+02 -7.935524E+02
       268   2  6.876472E+05  1.029799E+05  3.475130E+03  2.622444E+05  1.993833E+02 -2.650309E+02
       268   3  6.660046E+05  1.018333E+05 -9.747262E+02  2.633893E+05 -5.358568E+02  2.654268E+02
       268   4  6.730316E+05  1.046078E+05  1.429386E+03  2.653055E+05  1.250912E+03 -6.731331E+02
       268   5  6.780553E+05  9.934731E+04  9.276478E+02  2.595981E+05  5.172867E+02 -1.442728E+02
       268   6  6.730158E+05  1.044970E+05  8.273829E+02  2.653476E+05 -2.170850E+02  3.865201E+02
       268   7  6.468369E+05  9.467889E+04 -5.468380E+03  2.580548E+05  1.567916E+03 -5.527197E+02
       268   8  6.684634E+05  9.571476E+04 -1.619842E+03  2.569519E+05  8.351847E+02 -2.351671E+01
       268   9  6.800270E+05  1.071607E+05  2.629493E+03  2.673060E+05  1.016916E+02  5.076153E+02
       268  10  6.992270E+05  1.145368E+05  8.327109E+03  2.725564E+05  2.106446E-09  1.058710E-09
       268  11  6.876472E+05  1.029799E+05  3.475130E+03  2.622444E+05  2.537969E-09 -1.577257E-09
       268  12  6.660046E+05  1.018333E+05 -9.747269E+02  2.633893E+05 -2.479307E-09 -1.540237E-09
       268  13  6.730316E+05  1.046078E+05  1.429382E+03  2.653055E+05 -3.187110E-09  7.495342E-09
       268  14  6.780553E+05  9.934731E+04  9.276473E+02  2.595981E+05 -3.104991E-09 -7.215299E-09
       268  15  6.730158E+05  1.044970E+05  8.273825E+02  2.653476E+05 -3.081985E-09 -1.349337E-08
       268  16  6.468369E+05  9.467888E+04 -5.468385E+03  2.580548E+05 -6.781973E-09  1.476912E-08
       268  17  6.684634E+05  9.571476E+04 -1.619843E+03  2.569519E+05  2.940711E-10  1.081993E-08
       268  18  6.800270E+05  1.071607E+05  2.629493E+03  2.673060E+05  2.258687E-09  2.798317E-10
       268  19  6.992270E+05  1.145368E+05  8.327112E+03  2.725564E+05 -9.338930E+02  7.935524E+02
       268  20  6.876472E+05  1.029799E+05  3.475130E+03  2.622444E+05 -1.993833E+02  2.650309E+02
       268  21  6.660046E+05  1.018333E+05 -9.747262E+02  2.633893E+05  5.358568E+02 -2.654268E+02
       268  22  6.730316E+05  1.046078E+05  1.429386E+03  2.653055E+05 -1.250912E+03  6.731331E+02
       268  23  6.780553E+05  9.934731E+04  9.276478E+02  2.595981E+05 -5.172867E+02  1.442728E+02
       268  24  6.730158E+05  1.044970E+05  8.273829E+02  2.653476E+05  2.170850E+02 -3.865201E+02
       268  25  6.468369E+05  9.467889E+04 -5.468380E+03  2.580548E+05 -1.567916E+03  5.527197E+02
       268  26  6.684634E+05  9.571476E+04 -1.619842E+03  2.569519E+05 -8.351847E+02  2.351671E+01
       268  27  6.800270E+05  1.071607E+05  2.629493E+03  2.673060E+05 -1.016916E+02 -5.076153E+02
       269   1  6.403218E+05  9.214106E+04 -7.862138E+03  2.563861E+05 -8.338194E+02  6.244042E+02
       269   2  6.286897E+05  8.063245E+04 -1.189803E+04  2.459716E+05 -1.712251E+03  1.102548E+03
       269   3  6.070056E+05  7.966636E+04 -1.540148E+04  2.470530E+05 -2.590772E+03  1.581302E+03
       269   4  6.730139E+05  1.044992E+05  8.779052E+02  2.653664E+05 -5.148183E+02  7.455788E+02
       269   5  6.780533E+05  9.932080E+04  1.211700E+03  2.595832E+05 -1.393041E+03  1.223779E+03
       269   6  6.730403E+05  1.046847E+05  2.077723E+03  2.652957E+05 -2.271370E+03  1.702585E+03
       269   7  7.057071E+05  1.168575E+05  9.617854E+03  2.743472E+05 -1.957987E+02  8.667603E+02
       269   8  7.274192E+05  1.180093E+05  1.432120E+04  2.731958E+05 -1.073803E+03  1.345021E+03
       269   9  7.390790E+05  1.297033E+05  1.955650E+04  2.835401E+05 -1.951932E+03  1.823881E+03
       269  10  6.403218E+05  9.214106E+04 -7.862140E+03  2.563861E+05  4.749052E-09 -1.155783E-08
       269  11  6.286897E+05  8.063245E+04 -1.189804E+04  2.459716E+05  5.058926E-10 -2.706125E-08
       269  12  6.070056E+05  7.966636E+04 -1.540150E+04  2.470530E+05 -4.435161E-09 -1.915154E-08
       269  13  6.730139E+05  1.044992E+05  8.779037E+02  2.653664E+05  6.342497E-10  1.787536E-09
       269  14  6.780533E+05  9.932080E+04  1.211694E+03  2.595832E+05  3.130273E-09 -1.004123E-08
       269  15  6.730403E+05  1.046847E+05  2.077708E+03  2.652957E+05  4.719223E-09  7.267899E-09
       269  16  7.057071E+05  1.168575E+05  9.617853E+03  2.743472E+05  1.659698E-09  8.569808E-09
       269  17  7.274192E+05  1.180093E+05  1.432119E+04  2.731958E+05  6.742993E-09 -5.252269E-09
       269  18  7.390790E+05  1.297033E+05  1.955649E+04  2.835401E+05  9.565000E-09  4.714805E-09
       269  19  6.403218E+05  9.214106E+04 -7.862138E+03  2.563861E+05  8.338194E+02 -6.244042E+02
       269  20  6.286897E+05  8.063245E+04 -1.189803E+04  2.459716E+05  1.712251E+03 -1.102548E+03
       269  21  6.070056E+05  7.966636E+04 -1.540148E+04  2.470530E+05  2.590772E+03 -1.581302E+03
       269  22  6.730139E+05  1.044992E+05  8.779052E+02  2.653664E+05  5.148183E+02 -7.455788E+02
       269  23  6.780533E+05  9.932080E+04  1.211700E+03  2.595832E+05  1.393041E+03 -1.223779E+03
       269  24  6.730403E+05  1.046847E+05  2.077723E+03  2.652957E+05  2.271370E+03 -1.702585E+03
       269  25  7.057071E+05  1.168575E+05  9.617854E+03  2.743472E+05  1.957987E+02 -8.667603E+02
       269  26  7.274192E+05  1.180093E+05  1.432120E+04  2.731958E+05  1.073803E+03 -1.345021E+03
       269  27  7.390790E+05  1.297033E+05  1.955650E+04  2.835401E+05  1.951932E+03 -1.823881E+03
       270   1  5.809280E+05  6.982160E+04 -2.182852E+04  2.403589E+05 -3.153534E+03  1.851349E+03
       270   2  5.688920E+05  5.765078E+04 -2.430040E+04  2.294337E+05 -5.777847E+03  1.679653E+03
       270   3  5.476597E+05  5.834825E+04 -2.436077E+04  2.297326E+05 -8.389213E+03  1.474528E+03
       270   4  6.731253E+05  1.044757E+05  2.670338E+03  2.655106E+05 -2.821962E+03  1.977228E+03
       270   5  6.778548E+05  9.896879E+04  4.650355E+03  2.595455E+05 -5.461744E+03  1.799610E+03
       270   6  6.733909E+05  1.063330E+05  9.053908E+03  2.648045E+05 -8.088646E+03  1.588536E+03
       270   7  7.653310E+05  1.391304E+05  2.716853E+04  2.906656E+05 -2.490336E+03  2.103129E+03
       270   8  7.868291E+05  1.402876E+05  3.360012E+04  2.896621E+05 -5.145579E+03  1.919590E+03
       270   9  7.991373E+05  1.543187E+05  4.246721E+04  2.998829E+05 -7.788012E+03  1.702571E+03
       270  10  5.809280E+05  6.982159E+04 -2.182855E+04  2.403589E+05 -5.735549E-09 -7.404229E-09
       270  11  5.688920E+05  5.765077E+04 -2.430047E+04  2.294337E+05 -2.076387E-09  2.341618E-09
       270  12  5.476596E+05  5.834823E+04 -2.436091E+04  2.297326E+05  5.739157E-09 -3.097116E-09
       270  13  6.731253E+05  1.044757E+05  2.670316E+03  2.655106E+05 -2.866002E-09 -3.557930E-10
       270  14  6.778547E+05  9.896877E+04  4.650293E+03  2.595455E+05 -3.664038E-09 -3.967004E-09
       270  15  6.733908E+05  1.063329E+05  9.053780E+03  2.648046E+05  4.295005E-10  8.312920E-09
       270  16  7.653310E+05  1.391304E+05  2.716851E+04  2.906656E+05  3.458038E-09  5.896363E-09
       270  17  7.868291E+05  1.402876E+05  3.360007E+04  2.896621E+05 -3.633428E-09  1.789377E-08
       270  18  7.991372E+05  1.543187E+05  4.246710E+04  2.998829E+05 -6.843528E-09 -1.035461E-08
       270  19  5.809280E+05  6.982160E+04 -2.182852E+04  2.403589E+05  3.153534E+03 -1.851349E+03
       270  20  5.688920E+05  5.765078E+04 -2.430040E+04  2.294337E+05  5.777847E+03 -1.679653E+03
       270  21  5.476597E+05  5.834825E+04 -2.436077E+04  2.297326E+05  8.389213E+03 -1.474528E+03
       270  22  6.731253E+05  1.044757E+05  2.670338E+03  2.655106E+05  2.821962E+03 -1.977228E+03
       270  23  6.778548E+05  9.896879E+04  4.650355E+03  2.595455E+05  5.461744E+03 -1.799610E+03
       270  24  6.733909E+05  1.063330E+05  9.053908E+03  2.648045E+05  8.088646E+03 -1.588536E+03
       270  25  7.653310E+05  1.391304E+05  2.716853E+04  2.906656E+05  2.490336E+03 -2.103129E+03
       270  26  7.868291E+05  1.402876E+05  3.360012E+04  2.896621E+05  5.145579E+03 -1.919590E+03
       270  27  7.991373E+05  1.543187E+05  4.246721E+04  2.998829E+05  7.788012E+03 -1.702571E+03
       271   1  5.199871E+05  4.783197E+04 -2.901450E+04  2.260414E+05 -1.038859E+04  1.286806E+03
       271   2  5.066655E+05  3.113609E+04 -2.520262E+04  2.119321E+05 -2.086668E+04 -1.841368E+03
       271   3  4.919832E+05  4.650104E+04 -7.974464E+03  2.046874E+05 -3.116286E+04 -5.447654E+03
       271   4  6.741941E+05  1.040343E+05  1.157470E+04  2.663283E+05 -9.949271E+03  1.453468E+03
       271   5  6.760501E+05  9.633395E+04  1.998159E+04  2.597274E+05 -2.064526E+04 -1.757539E+03
       271   6  6.765861E+05  1.207334E+05  4.197449E+04  2.599909E+05 -3.115967E+04 -5.446840E+03
       271   7  8.284235E+05  1.602375E+05  5.216177E+04  3.066239E+05 -9.509832E+03  1.620171E+03
       271   8  8.454625E+05  1.615339E+05  6.516328E+04  3.075345E+05 -2.042377E+04 -1.673684E+03
       271   9  8.612225E+05  1.949693E+05  9.192053E+04  3.153098E+05 -3.115648E+04 -5.446025E+03
       271  10  5.199870E+05  4.783194E+04 -2.901471E+04  2.260414E+05 -2.420883E-09 -9.444989E-09
       271  11  5.066650E+05  3.113597E+04 -2.520345E+04  2.119321E+05 -6.151502E-09  1.337807E-08
       271  12  4.919821E+05  4.650074E+04 -7.976343E+03  2.046873E+05 -8.913194E-09 -5.498628E-10
       271  13  6.741940E+05  1.040342E+05  1.157451E+04  2.663283E+05 -1.502310E-09 -1.791576E-08
       271  14  6.760497E+05  9.633383E+04  1.998078E+04  2.597274E+05  1.841665E-09  1.331039E-08
       271  15  6.765851E+05  1.207331E+05  4.197262E+04  2.599908E+05 -4.242416E-09  4.950926E-09
       271  16  8.284234E+05  1.602374E+05  5.216160E+04  3.066239E+05  5.019816E-09 -1.000467E-09
       271  17  8.454620E+05  1.615338E+05  6.516250E+04  3.075345E+05 -1.086623E-09 -5.026923E-09
       271  18  8.612215E+05  1.949690E+05  9.191866E+04  3.153097E+05 -8.976851E-10  1.616662E-08
       271  19  5.199871E+05  4.783197E+04 -2.901450E+04  2.260414E+05  1.038859E+04 -1.286806E+03
       271  20  5.066655E+05  3.113609E+04 -2.520262E+04  2.119321E+05  2.086668E+04  1.841368E+03
       271  21  4.919832E+05  4.650104E+04 -7.974464E+03  2.046874E+05  3.116286E+04  5.447654E+03
       271  22  6.741941E+05  1.040343E+05  1.157470E+04  2.663283E+05  9.949271E+03 -1.453468E+03
       271  23  6.760501E+05  9.633395E+04  1.998159E+04  2.597274E+05  2.064526E+04  1.757539E+03
       271  24  6.765861E+05  1.207334E+05  4.197449E+04  2.599909E+05  3.115967E+04  5.446840E+03
       271  25  8.284235E+05  1.602375E+05  5.216177E+04  3.066239E+05  9.509832E+03 -1.620171E+03
       271  26  8.454625E+05  1.615339E+05  6.516328E+04  3.075345E+05  2.042377E+04  1.673684E+03
       271  27  8.612225E+05  1.949693E+05  9.192053E+04  3.153098E+05  3.115648E+04  5.446025E+03
       272   1  4.543669E+05  3.121196E+04 -5.634406E+03  2.281788E+05 -4.065054E+04 -7.574581E+03
       272   2  4.358556E+05 -2.252392E+04  2.265862E+04  1.884929E+05 -8.460925E+04 -2.337574E+04
       272   3  4.823247E+05  1.209649E+05  1.345627E+05  1.127905E+05 -1.263853E+05 -4.493282E+04
       272   4  6.830914E+05  9.939765E+04  5.151278E+04  2.724949E+05 -3.902744E+04 -6.958054E+03
       272   5  6.609257E+05  7.439892E+04  8.458421E+04  2.625173E+05 -8.559278E+04 -2.375058E+04
       272   6  7.042262E+05  2.470940E+05  2.033080E+05  2.165313E+05 -1.299755E+05 -4.630311E+04
       272   7  9.118670E+05  1.675827E+05  1.086563E+05  3.168235E+05 -3.740368E+04 -6.341397E+03
       272   8  8.860443E+05  1.713289E+05  1.465049E+05  3.365671E+05 -8.657668E+04 -2.412561E+04
       272   9  9.261777E+05  3.732468E+05  2.720480E+05  3.203107E+05 -1.335671E+05 -4.767453E+04
       272  10  4.543651E+05  3.121146E+04 -5.637616E+03  2.281786E+05 -6.048761E-09  1.935110E-09
       272  11  4.358478E+05 -2.252642E+04  2.264415E+04  1.884913E+05 -2.802905E-09  1.452421E-08
       272  12  4.823070E+05  1.209585E+05  1.345289E+05  1.127859E+05  3.405417E-09  8.964547E-09
       272  13  6.830897E+05  9.939719E+04  5.150983E+04  2.724946E+05 -4.191521E-09 -8.836730E-09
       272  14  6.609177E+05  7.439635E+04  8.456940E+04  2.625157E+05 -8.763799E-09  5.144976E-09
       272  15  7.042075E+05  2.470872E+05  2.032722E+05  2.165265E+05  1.959668E-09  4.706509E-09
       272  16  9.118655E+05  1.675823E+05  1.086536E+05  3.168233E+05 -6.118522E-09  1.058909E-08
       272  17  8.860361E+05  1.713263E+05  1.464897E+05  3.365654E+05 -7.351662E-09 -4.527166E-09
       272  18  9.261580E+05  3.732396E+05  2.720103E+05  3.203056E+05 -5.392001E-09 -1.039068E-08
       272  19  4.543669E+05  3.121196E+04 -5.634406E+03  2.281788E+05  4.065054E+04  7.574581E+03
       272  20  4.358556E+05 -2.252392E+04  2.265862E+04  1.884929E+05  8.460925E+04  2.337574E+04
       272  21  4.823247E+05  1.209649E+05  1.345627E+05  1.127905E+05  1.263853E+05  4.493282E+04
       272  22  6.830914E+05  9.939765E+04  5.151278E+04  2.724949E+05  3.902744E+04  6.958054E+03
       272  23  6.609257E+05  7.439892E+04  8.458421E+04  2.625173E+05  8.559278E+04  2.375058E+04
       272  24  7.042262E+05  2.470940E+05  2.033080E+05  2.165313E+05  1.299755E+05  4.630311E+04
       272  25  9.118670E+05  1.675827E+05  1.086563E+05  3.168235E+05  3.740368E+04  6.341397E+03
       272  26  8.860443E+05  1.713289E+05  1.465049E+05  3.365671E+05  8.657668E+04  2.412561E+04
       272  27  9.261777E+05  3.732468E+05  2.720480E+05  3.203107E+05  1.335671E+05  4.767453E+04
       273   1 -1.092846E+05 -8.485512E+05 -1.230258E+05  3.424373E+04 -1.956357E+03 -4.678395E+04
       273   2 -4.075600E+04 -8.093638E+05 -7.819344E+04  1.126959E+04 -6.039442E+03 -2.769533E+04
       273   3 -3.963733E+04 -7.892781E+05 -6.261360E+04  1.125188E+04 -5.039034E+03 -8.587720E+03
       273   4 -5.267822E+04 -6.223684E+05 -6.706594E+04  1.759624E+04 -1.966261E+03 -4.364959E+04
       273   5  8.026472E+03 -6.130223E+05 -3.097693E+04  6.213852E+03 -6.041531E+03 -2.699326E+04
       273   6  1.755041E+03 -6.223499E+05 -2.244285E+04  1.778837E+04 -5.033303E+03 -1.031895E+04
       273   7  3.925403E+03 -3.961384E+05 -1.110971E+04  9.426995E+02 -1.976331E+03 -4.051409E+04
       273   8  5.680622E+04 -4.166454E+05  1.623685E+04  1.156536E+03 -6.043631E+03 -2.629096E+04
       273   9  4.314555E+04 -4.553960E+05  1.772595E+04  2.432666E+04 -5.027611E+03 -1.205064E+04
       273  10 -1.092852E+05 -8.485536E+05 -1.230299E+05  3.424366E+04  2.584117E-10  4.896549E-09
       273  11 -4.075624E+04 -8.093647E+05 -7.819495E+04  1.126946E+04 -2.216121E-09  8.676208E-09
       273  12 -3.963738E+04 -7.892782E+05 -6.261378E+04  1.125184E+04 -2.165494E-10 -5.549752E-10
       273  13 -5.267873E+04 -6.223704E+05 -6.706953E+04  1.759617E+04  1.692030E-09  5.934266E-11
       273  14  8.026237E+03 -6.130231E+05 -3.097837E+04  6.213721E+03  2.092207E-09 -7.501552E-09
       273  15  1.754985E+03 -6.223500E+05 -2.244310E+04  1.778833E+04  1.851405E-12 -3.201964E-10
       273  16  3.924958E+03 -3.961402E+05 -1.111281E+04  9.426350E+02  7.874856E-10  2.805671E-09
       273  17  5.680599E+04 -4.166462E+05  1.623548E+04  1.156408E+03  5.349196E-09 -2.042135E-08
       273  18  4.314548E+04 -4.553962E+05  1.772563E+04  2.432661E+04 -1.189511E-09  6.554825E-09
       273  19 -1.092846E+05 -8.485512E+05 -1.230258E+05  3.424373E+04  1.956357E+03  4.678395E+04
       273  20 -4.075600E+04 -8.093638E+05 -7.819344E+04  1.126959E+04  6.039442E+03  2.769533E+04
       273  21 -3.963733E+04 -7.892781E+05 -6.261360E+04  1.125188E+04  5.039034E+03  8.587720E+03
       273  22 -5.267822E+04 -6.223684E+05 -6.706594E+04  1.759624E+04  1.966261E+03  4.364959E+04
       273  23  8.026472E+03 -6.130223E+05 -3.097693E+04  6.213852E+03  6.041531E+03  2.699326E+04
       273  24  1.755041E+03 -6.223499E+05 -2.244285E+04  1.778837E+04  5.033303E+03  1.031895E+04
       273  25  3.925403E+03 -3.961384E+05 -1.110971E+04  9.426995E+02  1.976331E+03  4.051409E+04
       273  26  5.680622E+04 -4.166454E+05  1.623685E+04  1.156536E+03  6.043631E+03  2.629096E+04
       273  27  4.314555E+04 -4.553960E+05  1.772595E+04  2.432666E+04  5.027611E+03  1.205064E+04
       274   1 -3.633303E+04 -7.435148E+05 -5.035660E+04  2.073875E+04 -3.611266E+03 -6.306207E+03
       274   2 -2.137115E+04 -7.108930E+05 -3.967813E+04  6.199314E+03 -2.854413E+03  2.586968E+03
       274   3 -2.307790E+04 -6.833967E+05 -3.891963E+04  1.519417E+04 -1.789848E+03  1.148134E+04
       274   4 -5.468655E+03 -6.193337E+05 -2.041777E+04  1.785251E+04 -3.610201E+03 -6.610132E+03
       274   5  1.995821E+03 -6.167835E+05 -1.702251E+04  6.082887E+03 -2.852939E+03  2.136780E+03
       274   6 -7.181510E+03 -6.193335E+05 -2.344442E+04  1.784748E+04 -1.787910E+03  1.088446E+04
       274   7  2.539463E+04 -4.951385E+05  9.519957E+03  1.496569E+04 -3.609134E+03 -6.914117E+03
       274   8  2.536214E+04 -5.226660E+05  5.632474E+03  5.966449E+03 -2.851465E+03  1.686523E+03
       274   9  8.714609E+03 -5.552666E+05 -7.969501E+03  2.050106E+04 -1.785977E+03  1.028752E+04
       274  10 -3.633306E+04 -7.435148E+05 -5.035670E+04  2.073873E+04  6.335891E-10  2.597961E-09
       274  11 -2.137116E+04 -7.108930E+05 -3.967816E+04  6.199320E+03  8.753788E-10  4.649356E-09
       274  12 -2.307794E+04 -6.833968E+05 -3.891988E+04  1.519419E+04 -7.294019E-10 -5.347539E-09
       274  13 -5.468680E+03 -6.193338E+05 -2.041788E+04  1.785249E+04 -1.969553E-09  1.386084E-11
       274  14  1.995811E+03 -6.167836E+05 -1.702254E+04  6.082892E+03 -3.250802E-09 -1.038834E-08
       274  15 -7.181545E+03 -6.193337E+05 -2.344465E+04  1.784749E+04 -1.906052E-09 -5.716965E-09
       274  16  2.539460E+04 -4.951385E+05  9.519842E+03  1.496567E+04 -2.849559E-09  2.343093E-09
       274  17  2.536213E+04 -5.226660E+05  5.632453E+03  5.966453E+03 -1.702254E-09 -1.299710E-08
       274  18  8.714577E+03 -5.552667E+05 -7.969706E+03  2.050108E+04 -1.455732E-09  5.199008E-09
       274  19 -3.633303E+04 -7.435148E+05 -5.035660E+04  2.073875E+04  3.611266E+03  6.306207E+03
       274  20 -2.137115E+04 -7.108930E+05 -3.967813E+04  6.199314E+03  2.854413E+03 -2.586968E+03
       274  21 -2.307790E+04 -6.833967E+05 -3.891963E+04  1.519417E+04  1.789848E+03 -1.148134E+04
       274  22 -5.468655E+03 -6.193337E+05 -2.041777E+04  1.785251E+04  3.610201E+03  6.610132E+03
       274  23  1.995821E+03 -6.167835E+05 -1.702251E+04  6.082887E+03  2.852939E+03 -2.136780E+03
       274  24 -7.181510E+03 -6.193335E+05 -2.344442E+04  1.784748E+04  1.787910E+03 -1.088446E+04
       274  25  2.539463E+04 -4.951385E+05  9.519957E+03  1.496569E+04  3.609134E+03  6.914117E+03
       274  26  2.536214E+04 -5.226660E+05  5.632474E+03  5.966449E+03  2.851465E+03 -1.686523E+03
       274  27  8.714609E+03 -5.552666E+05 -7.969501E+03  2.050106E+04  1.785977E+03 -1.028752E+04
       275   1 -2.560364E+03 -6.444629E+05 -3.173328E+04  2.682521E+04 -8.654939E+02  1.605661E+04
       275   2  1.259706E+04 -6.024288E+05 -3.670364E+04  1.959231E+02  2.145764E+02  3.643853E+04
       275   3 -5.778026E+04 -5.842514E+05 -7.629555E+04 -2.982458E+03  7.193416E+01  5.681740E+04
       275   4  2.697815E+03 -6.235189E+05 -2.673442E+04  1.790841E+04 -8.630904E+02  1.521465E+04
       275   5  1.028991E+04 -6.115491E+05 -3.889164E+04  6.071913E+03  2.157256E+02  3.618223E+04
       275   6 -6.775624E+04 -6.235402E+05 -8.607848E+04  1.768654E+04  7.278994E+01  5.714578E+04
       275   7  7.956260E+03 -6.025744E+05 -2.173554E+04  8.991318E+03 -8.606627E+02  1.437266E+04
       275   8  7.982884E+03 -6.206692E+05 -4.107962E+04  1.194782E+04  2.168699E+02  3.592594E+04
       275   9 -7.773073E+04 -6.628268E+05 -9.586129E+04  3.835423E+04  7.366768E+01  5.747414E+04
       275  10 -2.560434E+03 -6.444631E+05 -3.173377E+04  2.682522E+04  2.025366E-09  1.024663E-08
       275  11  1.259670E+04 -6.024302E+05 -3.670614E+04  1.959168E+02  4.331541E-09  9.166079E-09
       275  12 -5.778112E+04 -5.842548E+05 -7.630162E+04 -2.982461E+03  7.820520E-11 -7.105333E-09
       275  13  2.697752E+03 -6.235192E+05 -2.673485E+04  1.790843E+04  1.879207E-09  6.509398E-09
       275  14  1.028956E+04 -6.115505E+05 -3.889410E+04  6.071907E+03  2.371841E-09 -2.471515E-09
       275  15 -6.775711E+04 -6.235437E+05 -8.608462E+04  1.768654E+04  2.259460E-09 -5.588390E-10
       275  16  7.956203E+03 -6.025746E+05 -2.173593E+04  8.991328E+03  1.413268E-10  9.838785E-10
       275  17  7.982537E+03 -6.206706E+05 -4.108205E+04  1.194781E+04  3.868043E-09 -1.326892E-08
       275  18 -7.773162E+04 -6.628303E+05 -9.586750E+04  3.835423E+04 -7.082661E-11  1.163791E-08
       275  19 -2.560364E+03 -6.444629E+05 -3.173328E+04  2.682521E+04  8.654939E+02 -1.605661E+04
       275  20  1.259706E+04 -6.024288E+05 -3.670364E+04  1.959231E+02 -2.145764E+02 -3.643853E+04
       275  21 -5.778026E+04 -5.842514E+05 -7.629555E+04 -2.982458E+03 -7.193416E+01 -5.681740E+04
       275  22  2.697815E+03 -6.235189E+05 -2.673442E+04  1.790841E+04  8.630904E+02 -1.521465E+04
       275  23  1.028991E+04 -6.115491E+05 -3.889164E+04  6.071913E+03 -2.157256E+02 -3.618223E+04
       275  24 -6.775624E+04 -6.235402E+05 -8.607848E+04  1.768654E+04 -7.278994E+01 -5.714578E+04
       275  25  7.956260E+03 -6.025744E+05 -2.173554E+04  8.991318E+03  8.606627E+02 -1.437266E+04
       275  26  7.982884E+03 -6.206692E+05 -4.107962E+04  1.194782E+04 -2.168699E+02 -3.592594E+04
       275  27 -7.773073E+04 -6.628268E+05 -9.586129E+04  3.835423E+04 -7.366768E+01 -5.747414E+04
       276   1  9.088711E+04 -6.157640E+04 -4.553602E+04 -1.205856E+03  4.153926E+04  4.584400E+03
       276   2  1.159508E+05 -1.164774E+05 -7.378240E+04  3.209479E+02  2.973310E+04  1.357072E+04
       276   3  1.601010E+05 -1.024185E+05 -7.704431E+04 -2.498421E+04  1.793849E+04  1.241609E+04
       276   4  5.615016E+05  5.569624E+04  7.064911E+04 -1.761669E+04  4.831975E+04  4.591995E+03
       276   5  5.515533E+05 -8.472987E+03  3.084540E+04 -4.165562E+03  3.163449E+04  1.357187E+04
       276   6  5.615224E+05 -2.862365E+03  1.939889E+04 -1.754463E+04  1.496151E+04  1.241348E+04
       276   7  1.032318E+06  1.729534E+05  1.868182E+05 -3.404003E+04  5.510537E+04  4.599229E+03
       276   8  9.873294E+05  9.951769E+04  1.354597E+05 -8.655276E+03  3.353720E+04  1.357299E+04
       276   9  9.630912E+05  9.668227E+04  1.158307E+05 -1.010024E+04  1.198261E+04  1.241080E+04
       276  10  9.088525E+04 -6.157689E+04 -4.553930E+04 -1.206010E+03 -9.417524E-11 -2.128441E-10
       276  11  1.159498E+05 -1.164778E+05 -7.378440E+04  3.206229E+02  2.299492E-10 -4.244177E-10
       276  12  1.601006E+05 -1.024188E+05 -7.704520E+04 -2.498439E+04 -3.110068E-10  2.669526E-10
       276  13  5.614991E+05  5.569559E+04  7.064469E+04 -1.761687E+04  6.923768E-10 -1.325801E-10
       276  14  5.515521E+05 -8.473454E+03  3.084317E+04 -4.165907E+03 -7.154952E-10 -3.371544E-10
       276  15  5.615221E+05 -2.862591E+03  1.939818E+04 -1.754478E+04  5.222240E-10  1.836000E-10
       276  16  1.032315E+06  1.729526E+05  1.868124E+05 -3.404024E+04 -4.679599E-11 -5.998411E-11
       276  17  9.873282E+05  9.951719E+04  1.354573E+05 -8.655642E+03  1.054412E-10 -9.388381E-11
       276  18  9.630910E+05  9.668207E+04  1.158301E+05 -1.010036E+04  1.503844E-10 -8.218785E-12
       276  19  9.088711E+04 -6.157640E+04 -4.553602E+04 -1.205856E+03 -4.153926E+04 -4.584400E+03
       276  20  1.159508E+05 -1.164774E+05 -7.378240E+04  3.209479E+02 -2.973310E+04 -1.357072E+04
       276  21  1.601010E+05 -1.024185E+05 -7.704431E+04 -2.498421E+04 -1.793849E+04 -1.241609E+04
       276  22  5.615016E+05  5.569624E+04  7.064911E+04 -1.761669E+04 -4.831975E+04 -4.591995E+03
       276  23  5.515533E+05 -8.472987E+03  3.084540E+04 -4.165562E+03 -3.163449E+04 -1.357187E+04
       276  24  5.615224E+05 -2.862365E+03  1.939889E+04 -1.754463E+04 -1.496151E+04 -1.241348E+04
       276  25  1.032318E+06  1.729534E+05  1.868182E+05 -3.404003E+04 -5.510537E+04 -4.599229E+03
       276  26  9.873294E+05  9.951769E+04  1.354597E+05 -8.655276E+03 -3.353720E+04 -1.357299E+04
       276  27  9.630912E+05  9.668227E+04  1.158307E+05 -1.010024E+04 -1.198261E+04 -1.241080E+04
       277   1  2.046357E+05 -8.157606E+04 -6.920169E+04 -1.594758E+04  1.198910E+04  1.016950E+04
       277   2  2.368806E+05 -8.020593E+04 -6.880613E+04 -4.008978E+03  8.248197E+03  9.642887E+03
       277   3  2.716609E+05 -7.127259E+04 -6.405198E+04 -1.831073E+04  4.506698E+03  8.328744E+03
       277   4  5.576805E+05  6.011471E+03  1.584698E+04 -1.743701E+04  1.193099E+04  1.016905E+04
       277   5  5.563841E+05 -9.668000E+02  8.023181E+03 -4.315493E+03  7.809867E+03  9.642363E+03
       277   6  5.576867E+05 -3.180297E+02  4.820088E+03 -1.743343E+04  3.688354E+03  8.328311E+03
       277   7  9.108393E+05  9.358992E+04  1.008868E+05 -1.892731E+04  1.187284E+04  1.016860E+04
       277   8  8.759811E+05  7.826490E+04  8.484523E+04 -4.622177E+03  7.371310E+03  9.641838E+03
       277   9  8.437874E+05  7.063057E+04  7.368633E+04 -1.655572E+04  2.869634E+03  8.327875E+03
       277  10  2.046355E+05 -8.157621E+04 -6.920216E+04 -1.594768E+04  2.026696E-10  3.915765E-10
       277  11  2.368805E+05 -8.020605E+04 -6.880644E+04 -4.009042E+03  2.484324E-10 -1.109753E-10
       277  12  2.716608E+05 -7.127267E+04 -6.405215E+04 -1.831076E+04  3.418759E-10 -1.722715E-10
       277  13  5.576803E+05  6.011321E+03  1.584652E+04 -1.743711E+04  3.508423E-10  2.979692E-10
       277  14  5.563841E+05 -9.669162E+02  8.022892E+03 -4.315554E+03 -8.209545E-10 -1.489637E-10
       277  15  5.576867E+05 -3.181078E+02  4.819932E+03 -1.743345E+04 -5.905925E-11 -2.041119E-11
       277  16  9.108391E+05  9.358978E+04  1.008863E+05 -1.892740E+04 -1.809198E-10  1.907138E-10
       277  17  8.759810E+05  7.826479E+04  8.484496E+04 -4.622234E+03  1.897200E-10  8.043580E-11
       277  18  8.437874E+05  7.063050E+04  7.368618E+04 -1.655574E+04 -1.901315E-12  6.736431E-11
       277  19  2.046357E+05 -8.157606E+04 -6.920169E+04 -1.594758E+04 -1.198910E+04 -1.016950E+04
       277  20  2.368806E+05 -8.020593E+04 -6.880613E+04 -4.008978E+03 -8.248197E+03 -9.642887E+03
       277  21  2.716609E+05 -7.127259E+04 -6.405198E+04 -1.831073E+04 -4.506698E+03 -8.328744E+03
       277  22  5.576805E+05  6.011471E+03  1.584698E+04 -1.743701E+04 -1.193099E+04 -1.016905E+04
       277  23  5.563841E+05 -9.668000E+02  8.023181E+03 -4.315493E+03 -7.809867E+03 -9.642363E+03
       277  24  5.576867E+05 -3.180297E+02  4.820088E+03 -1.743343E+04 -3.688354E+03 -8.328311E+03
       277  25  9.108393E+05  9.358992E+04  1.008868E+05 -1.892731E+04 -1.187284E+04 -1.016860E+04
       277  26  8.759811E+05  7.826490E+04  8.484523E+04 -4.622177E+03 -7.371310E+03 -9.641838E+03
       277  27  8.437874E+05  7.063057E+04  7.368633E+04 -1.655572E+04 -2.869634E+03 -8.327875E+03
       278   1  3.183622E+05 -5.858997E+04 -5.356457E+04 -1.721221E+04  3.511184E+03  7.444949E+03
       278   2  3.509977E+05 -5.120595E+04 -4.743487E+04 -4.443782E+03  2.480068E+03  6.195011E+03
       278   3  3.840293E+05 -4.299422E+04 -4.041587E+04 -1.740036E+04  1.448329E+03  4.890919E+03
       278   4  5.572048E+05  6.269889E+02  3.791210E+03 -1.732006E+04  2.924776E+03  7.444682E+03
       278   5  5.570061E+05 -1.164696E+02  2.105812E+03 -4.457790E+03  1.867280E+03  6.194868E+03
       278   6  5.572076E+05 -2.763699E+01  1.327935E+03 -1.732000E+04  8.092140E+02  4.890910E+03
       278   7  7.960995E+05  5.983980E+04  6.114295E+04 -1.742794E+04  2.338144E+03  7.444415E+03
       278   8  7.630534E+05  5.096992E+04  5.164347E+04 -4.471803E+03  1.254289E+03  6.194724E+03
       278   9  7.304132E+05  4.293676E+04  4.306960E+04 -1.723961E+04  1.699218E+02  4.890902E+03
       278  10  3.183622E+05 -5.859003E+04 -5.356470E+04 -1.721223E+04  1.006234E-10 -8.744535E-11
       278  11  3.509976E+05 -5.120599E+04 -4.743495E+04 -4.443795E+03  4.349123E-10  6.251776E-11
       278  12  3.840293E+05 -4.299425E+04 -4.041592E+04 -1.740036E+04  3.542666E-10 -2.044249E-10
       278  13  5.572048E+05  6.269270E+02  3.791090E+03 -1.732007E+04 -1.828605E-10  9.299727E-11
       278  14  5.570061E+05 -1.165117E+02  2.105733E+03 -4.457800E+03 -1.097866E-09  1.882685E-11
       278  15  5.572076E+05 -2.766286E+01  1.327889E+03 -1.732000E+04 -3.169612E-10 -1.705580E-10
       278  16  7.960995E+05  5.983974E+04  6.114283E+04 -1.742796E+04 -1.563649E-10 -2.571144E-11
       278  17  7.630533E+05  5.096988E+04  5.164340E+04 -4.471809E+03 -2.882580E-10  1.033592E-10
       278  18  7.304132E+05  4.293674E+04  4.306956E+04 -1.723961E+04 -2.699582E-10 -7.414153E-11
       278  19  3.183622E+05 -5.858997E+04 -5.356457E+04 -1.721221E+04 -3.511184E+03 -7.444949E+03
       278  20  3.509977E+05 -5.120595E+04 -4.743487E+04 -4.443782E+03 -2.480068E+03 -6.195011E+03
       278  21  3.840293E+05 -4.299422E+04 -4.041587E+04 -1.740036E+04 -1.448329E+03 -4.890919E+03
       278  22  5.572048E+05  6.269889E+02  3.791210E+03 -1.732006E+04 -2.924776E+03 -7.444682E+03
       278  23  5.570061E+05 -1.164696E+02  2.105812E+03 -4.457790E+03 -1.867280E+03 -6.194868E+03
       278  24  5.572076E+05 -2.763699E+01  1.327935E+03 -1.732000E+04 -8.092140E+02 -4.890910E+03
       278  25  7.960995E+05  5.983980E+04  6.114295E+04 -1.742794E+04 -2.338144E+03 -7.444415E+03
       278  26  7.630534E+05  5.096992E+04  5.164347E+04 -4.471803E+03 -1.254289E+03 -6.194724E+03
       278  27  7.304132E+05  4.293676E+04  4.306960E+04 -1.723961E+04 -1.699218E+02 -4.890902E+03
       279   1  4.303969E+05 -3.134597E+04 -2.928360E+04 -1.723080E+04  1.210893E+03  4.125549E+03
       279   2  4.628048E+05 -2.339966E+04 -2.184282E+04 -4.524092E+03  7.976978E+02  2.834188E+03
       279   3  4.952953E+05 -1.533319E+04 -1.410373E+04 -1.724603E+04  3.842051E+02  1.542317E+03
       279   4  5.571406E+05  6.491570E+01  1.095822E+03 -1.725421E+04  5.908783E+02  4.125606E+03
       279   5  5.571005E+05 -1.610868E+01  8.321279E+02 -4.540009E+03  1.773502E+02  2.834303E+03
       279   6  5.571417E+05  2.302290E+01  8.668653E+02 -1.725422E+04 -2.364538E+02  1.542493E+03
       279   7  6.838990E+05  3.147464E+04  3.147411E+04 -1.727762E+04 -2.926261E+01  4.125663E+03
       279   8  6.514044E+05  2.336680E+04  2.350645E+04 -4.555928E+03 -4.430912E+02  2.834417E+03
       279   9  6.189916E+05  1.537896E+04  1.583719E+04 -1.726240E+04 -8.571744E+02  1.542669E+03
       279  10  4.303969E+05 -3.134599E+04 -2.928364E+04 -1.723080E+04  1.807158E-10 -2.003488E-10
       279  11  4.628048E+05 -2.339967E+04 -2.184284E+04 -4.524094E+03  3.923063E-10  1.275585E-10
       279  12  4.952953E+05 -1.533319E+04 -1.410374E+04 -1.724603E+04  6.932069E-11 -1.346860E-10
       279  13  5.571406E+05  6.489733E+01  1.095790E+03 -1.725421E+04 -7.067256E-11 -6.343221E-11
       279  14  5.571005E+05 -1.611732E+01  8.321128E+02 -4.540010E+03 -4.877175E-11  1.845062E-10
       279  15  5.571417E+05  2.302033E+01  8.668607E+02 -1.725421E+04 -6.563050E-10 -7.614912E-13
       279  16  6.838990E+05  3.147462E+04  3.147408E+04 -1.727762E+04  2.941998E-10 -7.259265E-11
       279  17  6.514044E+05  2.336679E+04  2.350643E+04 -4.555927E+03  1.923407E-11  2.681117E-10
       279  18  6.189916E+05  1.537895E+04  1.583719E+04 -1.726240E+04 -2.543980E-10 -8.772915E-11
       279  19  4.303969E+05 -3.134597E+04 -2.928360E+04 -1.723080E+04 -1.210893E+03 -4.125549E+03
       279  20  4.628048E+05 -2.339966E+04 -2.184282E+04 -4.524092E+03 -7.976978E+02 -2.834188E+03
       279  21  4.952953E+05 -1.533319E+04 -1.410373E+04 -1.724603E+04 -3.842051E+02 -1.542317E+03
       279  22  5.571406E+05  6.491570E+01  1.095822E+03 -1.725421E+04 -5.908783E+02 -4.125606E+03
       279  23  5.571005E+05 -1.610868E+01  8.321279E+02 -4.540009E+03 -1.773502E+02 -2.834303E+03
       279  24  5.571417E+05  2.302290E+01  8.668653E+02 -1.725422E+04  2.364538E+02 -1.542493E+03
       279  25  6.838990E+05  3.147464E+04  3.147411E+04 -1.727762E+04  2.926261E+01 -4.125663E+03
       279  26  6.514044E+05  2.336680E+04  2.350645E+04 -4.555928E+03  4.430912E+02 -2.834417E+03
       279  27  6.189916E+05  1.537896E+04  1.583719E+04 -1.726240E+04  8.571744E+02 -1.542669E+03
       280   1  5.414035E+05 -3.878781E+03 -2.713520E+03 -1.720208E+04  2.169834E+02  7.904621E+02
       280   2  5.736872E+05  4.085445E+03  5.418917E+03 -4.554180E+03 -4.947102E+02 -4.989461E+02
       280   3  6.061091E+05  1.229708E+04  1.407234E+04 -1.725560E+04 -1.206393E+03 -1.785291E+03
       280   4  5.571551E+05  7.327502E+00  9.749338E+02 -1.723666E+04 -4.031814E+02  7.906555E+02
       280   5  5.570864E+05 -3.095303E+01  1.427290E+03 -4.561956E+03 -1.113401E+03 -4.987654E+02
       280   6  5.571547E+05  1.780066E+02  2.399700E+03 -1.723661E+04 -1.823574E+03 -1.785119E+03
       280   7  5.729069E+05  3.893419E+03  4.663372E+03 -1.727125E+04 -1.023362E+03  7.908489E+02
       280   8  5.404858E+05 -4.147371E+03 -2.564354E+03 -4.569733E+03 -1.732076E+03 -4.985847E+02
       280   9  5.082025E+05 -1.194124E+04 -9.273107E+03 -1.721762E+04 -2.440706E+03 -1.784948E+03
       280  10  5.414035E+05 -3.878782E+03 -2.713521E+03 -1.720208E+04 -1.124822E-10 -1.767719E-10
       280  11  5.736872E+05  4.085444E+03  5.418916E+03 -4.554180E+03 -5.656129E-11  2.370762E-10
       280  12  6.061091E+05  1.229708E+04  1.407233E+04 -1.725560E+04 -5.548491E-11  1.582243E-10
       280  13  5.571551E+05  7.326787E+00  9.749323E+02 -1.723666E+04 -4.703130E-10  6.607881E-11
       280  14  5.570864E+05 -3.095363E+01  1.427288E+03 -4.561957E+03 -4.186570E-10  1.389708E-10
       280  15  5.571547E+05  1.780023E+02  2.399688E+03 -1.723661E+04 -3.698987E-10  1.587746E-10
       280  16  5.729069E+05  3.893418E+03  4.663369E+03 -1.727125E+04  3.346463E-10 -1.190172E-10
       280  17  5.404858E+05 -4.147372E+03 -2.564360E+03 -4.569733E+03  2.685617E-10  2.291347E-10
       280  18  5.082024E+05 -1.194125E+04 -9.273124E+03 -1.721762E+04 -4.428596E-11  5.727767E-11
       280  19  5.414035E+05 -3.878781E+03 -2.713520E+03 -1.720208E+04 -2.169834E+02 -7.904621E+02
       280  20  5.736872E+05  4.085445E+03  5.418917E+03 -4.554180E+03  4.947102E+02  4.989461E+02
       280  21  6.061091E+05  1.229708E+04  1.407234E+04 -1.725560E+04  1.206393E+03  1.785291E+03
       280  22  5.571551E+05  7.327502E+00  9.749338E+02 -1.723666E+04  4.031814E+02 -7.906555E+02
       280  23  5.570864E+05 -3.095303E+01  1.427290E+03 -4.561956E+03  1.113401E+03  4.987654E+02
       280  24  5.571547E+05  1.780066E+02  2.399700E+03 -1.723661E+04  1.823574E+03  1.785119E+03
       280  25  5.729069E+05  3.893419E+03  4.663372E+03 -1.727125E+04  1.023362E+03 -7.908489E+02
       280  26  5.404858E+05 -4.147371E+03 -2.564354E+03 -4.569733E+03  1.732076E+03  4.985847E+02
       280  27  5.082025E+05 -1.194124E+04 -9.273107E+03 -1.721762E+04  2.440706E+03  1.784948E+03
       281   1  6.524339E+05  2.353188E+04  2.605166E+04 -1.703137E+04 -1.683740E+03 -2.544346E+03
       281   2  6.845288E+05  3.137549E+04  3.591211E+04 -4.580854E+03 -4.329859E+03 -3.837793E+03
       281   3  7.175125E+05  4.135683E+04  4.802995E+04 -1.762437E+04 -6.975716E+03 -5.084334E+03
       281   4  5.573190E+05 -7.157013E+01  3.084308E+03 -1.726894E+04 -2.316398E+03 -2.544202E+03
       281   5  5.568753E+05 -2.758019E+02  5.220563E+03 -4.521653E+03 -4.939506E+03 -3.837738E+03
       281   6  5.573164E+05  1.654203E+03  9.598820E+03 -1.726871E+04 -7.562215E+03 -5.084362E+03
       281   7  4.622123E+05 -2.367568E+04 -1.988369E+04 -1.750648E+04 -2.948959E+03 -2.544057E+03
       281   8  4.292368E+05 -3.192828E+04 -2.547214E+04 -4.462465E+03 -5.549028E+03 -3.837682E+03
       281   9  3.971437E+05 -3.805028E+04 -2.883413E+04 -1.691314E+04 -8.148563E+03 -5.084391E+03
       281  10  6.524339E+05  2.353187E+04  2.605164E+04 -1.703137E+04 -2.083063E-10 -9.054587E-12
       281  11  6.845288E+05  3.137547E+04  3.591205E+04 -4.580867E+03  8.056630E-11  4.119801E-11
       281  12  7.175124E+05  4.135679E+04  4.802981E+04 -1.762440E+04 -5.256687E-10 -1.738215E-10
       281  13  5.573190E+05 -7.157852E+01  3.084286E+03 -1.726895E+04 -8.335368E-11 -1.783711E-11
       281  14  5.568753E+05 -2.758243E+02  5.220490E+03 -4.521669E+03  1.320461E-10 -4.662910E-11
       281  15  5.573163E+05  1.654160E+03  9.598664E+03 -1.726874E+04  2.576543E-10 -1.989822E-10
       281  16  4.622123E+05 -2.367569E+04 -1.988372E+04 -1.750649E+04  3.300610E-11  1.785367E-11
       281  17  4.292368E+05 -3.192830E+04 -2.547223E+04 -4.462482E+03 -2.530386E-11  5.072256E-11
       281  18  3.971436E+05 -3.805033E+04 -2.883430E+04 -1.691318E+04 -9.745070E-12 -1.243905E-10
       281  19  6.524339E+05  2.353188E+04  2.605166E+04 -1.703137E+04  1.683740E+03  2.544346E+03
       281  20  6.845288E+05  3.137549E+04  3.591211E+04 -4.580854E+03  4.329859E+03  3.837793E+03
       281  21  7.175125E+05  4.135683E+04  4.802995E+04 -1.762437E+04  6.975716E+03  5.084334E+03
       281  22  5.573190E+05 -7.157013E+01  3.084308E+03 -1.726894E+04  2.316398E+03  2.544202E+03
       281  23  5.568753E+05 -2.758019E+02  5.220563E+03 -4.521653E+03  4.939506E+03  3.837738E+03
       281  24  5.573164E+05  1.654203E+03  9.598820E+03 -1.726871E+04  7.562215E+03  5.084362E+03
       281  25  4.622123E+05 -2.367568E+04 -1.988369E+04 -1.750648E+04  2.948959E+03  2.544057E+03
       281  26  4.292368E+05 -3.192828E+04 -2.547214E+04 -4.462465E+03  5.549028E+03  3.837682E+03
       281  27  3.971437E+05 -3.805028E+04 -2.883413E+04 -1.691314E+04  8.148563E+03  5.084391E+03
       282   1  7.653526E+05  5.052060E+04  6.205775E+04 -1.522564E+04 -8.718705E+03 -5.939337E+03
       282   2  7.951773E+05  5.703810E+04  7.815412E+04 -5.463629E+03 -1.956844E+04 -7.238095E+03
       282   3  8.313913E+05  8.315146E+04  1.062229E+05 -2.154823E+04 -3.041850E+04 -7.881774E+03
       282   4  5.585237E+05 -7.767377E+02  1.224548E+04 -1.734632E+04 -9.497825E+03 -5.939407E+03
       282   5  5.553514E+05 -2.420228E+03  2.050510E+04 -4.424563E+03 -2.002921E+04 -7.238368E+03
       282   6  5.585147E+05  1.548117E+04  4.051968E+04 -1.734984E+04 -3.056036E+04 -7.882246E+03
       282   7  3.517339E+05 -5.207717E+04 -3.756984E+04 -1.946628E+04 -1.027669E+04 -5.939471E+03
       282   8  3.155781E+05 -6.188273E+04 -3.714801E+04 -3.385900E+03 -2.048981E+04 -7.238643E+03
       282   9  2.857061E+05 -5.219448E+04 -2.518885E+04 -1.315329E+04 -3.070215E+04 -7.882720E+03
       282  10  7.653525E+05  5.052054E+04  6.205754E+04 -1.522568E+04 -9.287001E-11 -2.460313E-10
       282  11  7.951769E+05  5.703794E+04  7.815330E+04 -5.463743E+03 -1.344615E-10 -2.115067E-11
       282  12  8.313903E+05  8.315114E+04  1.062211E+05 -2.154842E+04 -3.623843E-10  1.682806E-10
       282  13  5.585236E+05 -7.767998E+02  1.224524E+04 -1.734636E+04 -3.213292E-10 -1.829998E-10
       282  14  5.553510E+05 -2.420392E+03  2.050424E+04 -4.424679E+03 -8.538179E-10 -7.104579E-11
       282  15  5.585136E+05  1.548085E+04  4.051781E+04 -1.735003E+04  2.795912E-10  2.357600E-10
       282  16  3.517337E+05 -5.207724E+04 -3.757010E+04 -1.946633E+04  2.138420E-10 -2.067059E-10
       282  17  3.155777E+05 -6.188290E+04 -3.714890E+04 -3.386020E+03 -4.902890E-11 -5.957673E-11
       282  18  2.857051E+05 -5.219480E+04 -2.519074E+04 -1.315349E+04 -1.312799E-11  3.001412E-10
       282  19  7.653526E+05  5.052060E+04  6.205775E+04 -1.522564E+04  8.718705E+03  5.939337E+03
       282  20  7.951773E+05  5.703810E+04  7.815412E+04 -5.463629E+03  1.956844E+04  7.238095E+03
       282  21  8.313913E+05  8.315146E+04  1.062229E+05 -2.154823E+04  3.041850E+04  7.881774E+03
       282  22  5.585237E+05 -7.767377E+02  1.224548E+04 -1.734632E+04  9.497825E+03  5.939407E+03
       282  23  5.553514E+05 -2.420228E+03  2.050510E+04 -4.424563E+03  2.002921E+04  7.238368E+03
       282  24  5.585147E+05  1.548117E+04  4.051968E+04 -1.734984E+04  3.056036E+04  7.882246E+03
       282  25  3.517339E+05 -5.207717E+04 -3.756984E+04 -1.946628E+04  1.027669E+04  5.939471E+03
       282  26  3.155781E+05 -6.188273E+04 -3.714801E+04 -3.385900E+03  2.048981E+04  7.238643E+03
       282  27  2.857061E+05 -5.219448E+04 -2.518885E+04 -1.315329E+04  3.070215E+04  7.882720E+03
       283   1  8.886945E+05  7.220543E+04  1.265566E+05  1.113480E+03 -3.573966E+04 -9.870074E+03
       283   2  8.970609E+05  6.614331E+04  1.639388E+05 -1.651589E+04 -8.248135E+04 -1.105187E+04
       283   3  9.564748E+05  2.392529E+05  2.765551E+05 -6.050536E+04 -1.292317E+05 -3.805921E+03
       283   4  5.683014E+05 -7.229070E+03  4.960261E+04 -1.742868E+04 -3.830939E+04 -9.870302E+03
       283   5  5.430963E+05 -2.157023E+04  7.896504E+04 -4.305703E+03 -8.098169E+04 -1.105302E+04
       283   6  5.682602E+05  1.426060E+05  1.807674E+05 -1.754082E+04 -1.236598E+05 -3.810492E+03
       283   7  2.480029E+05 -8.666974E+04 -2.735845E+04 -3.596126E+04 -4.087780E+04 -9.870377E+03
       283   8  1.892466E+05 -1.092923E+05 -6.017536E+03  7.897490E+03 -7.948287E+04 -1.105411E+04
       283   9  1.801864E+05  4.595488E+04  8.496961E+04  2.539683E+04 -1.180913E+05 -3.814297E+03
       283  10  8.886931E+05  7.220498E+04  1.265540E+05  1.113196E+03  1.023005E-10  2.450536E-10
       283  11  8.970536E+05  6.614136E+04  1.639258E+05 -1.651663E+04 -5.578260E-10 -4.804465E-11
       283  12  9.564569E+05  2.392484E+05  2.765237E+05 -6.050575E+04  9.921645E-11 -2.057361E-10
       283  13  5.682998E+05 -7.229568E+03  4.959967E+04 -1.742899E+04 -4.586760E-11  2.397248E-10
       283  14  5.430892E+05 -2.157212E+04  7.895250E+04 -4.306424E+03 -7.632765E-10 -1.615297E-10
       283  15  5.682438E+05  1.426019E+05  1.807386E+05 -1.754120E+04 -8.117942E-11 -1.360576E-10
       283  16  2.480011E+05 -8.667029E+04 -2.736177E+04 -3.596158E+04 -1.662169E-10  3.052807E-10
       283  17  1.892398E+05 -1.092941E+05 -6.029633E+03  7.896782E+03  3.050115E-10  3.017220E-10
       283  18  1.801715E+05  4.595112E+04  8.494338E+04  2.539647E+04  2.021852E-10 -5.393403E-11
       283  19  8.886945E+05  7.220543E+04  1.265566E+05  1.113480E+03  3.573966E+04  9.870074E+03
       283  20  8.970609E+05  6.614331E+04  1.639388E+05 -1.651589E+04  8.248135E+04  1.105187E+04
       283  21  9.564748E+05  2.392529E+05  2.765551E+05 -6.050536E+04  1.292317E+05  3.805921E+03
       283  22  5.683014E+05 -7.229070E+03  4.960261E+04 -1.742868E+04  3.830939E+04  9.870302E+03
       283  23  5.430963E+05 -2.157023E+04  7.896504E+04 -4.305703E+03  8.098169E+04  1.105302E+04
       283  24  5.682602E+05  1.426060E+05  1.807674E+05 -1.754082E+04  1.236598E+05  3.810492E+03
       283  25  2.480029E+05 -8.666974E+04 -2.735845E+04 -3.596126E+04  4.087780E+04  9.870377E+03
       283  26  1.892466E+05 -1.092923E+05 -6.017536E+03  7.897490E+03  7.948287E+04  1.105411E+04
       283  27  1.801864E+05  4.595488E+04  8.496961E+04  2.539683E+04  1.180913E+05  3.814297E+03
       284   1  1.173287E+05  8.123530E+05  1.319818E+05 -5.241243E+04  1.980458E+03  5.407472E+04
       284   2  3.417155E+04  7.379553E+05  7.288392E+04 -1.492527E+04  5.390936E+03  3.431413E+04
       284   3  2.390088E+04  6.841828E+05  4.482974E+04 -2.741068E+04  3.050281E+03  1.454595E+04
       284   4  5.814125E+04  5.751674E+05  7.336512E+04 -3.462031E+04  1.986662E+03  5.105812E+04
       284   5 -8.690589E+03  5.651025E+05  3.140097E+04 -9.681589E+03  5.391715E+03  3.406665E+04
       284   6 -3.104414E+03  5.751880E+05  1.856796E+04 -3.471499E+04  3.045726E+03  1.706553E+04
       284   7 -1.049256E+03  3.380334E+05  1.474447E+04 -1.683496E+04  1.992695E+03  4.804267E+04
       284   8 -5.155480E+04  3.922772E+05 -1.008408E+04 -4.439359E+03  5.392490E+03  3.381924E+04
       284   9 -3.011036E+04  4.662042E+05 -7.694608E+03 -4.201801E+04  3.041111E+03  1.958467E+04
       284  10  1.173279E+05  8.123499E+05  1.319763E+05 -5.241252E+04 -1.276351E-10 -1.557350E-10
       284  11  3.417120E+04  7.379540E+05  7.288166E+04 -1.492542E+04 -6.045519E-10  4.419810E-11
       284  12  2.390081E+04  6.841825E+05  4.482932E+04 -2.741071E+04  8.333786E-10  2.659984E-10
       284  13  5.814055E+04  5.751646E+05  7.336022E+04 -3.462039E+04  7.637718E-10 -8.392996E-11
       284  14 -8.690931E+03  5.651013E+05  3.139874E+04 -9.681737E+03 -1.833106E-09  2.157652E-10
       284  15 -3.104502E+03  5.751877E+05  1.856740E+04 -3.471503E+04  5.472970E-10  3.018104E-11
       284  16 -1.049879E+03  3.380309E+05  1.474013E+04 -1.683504E+04 -9.435453E-11  2.142631E-10
       284  17 -5.155513E+04  3.922759E+05 -1.008628E+04 -4.439506E+03 -4.771413E-10  5.555100E-11
       284  18 -3.011048E+04  4.662038E+05 -7.695346E+03 -4.201806E+04  4.932144E-10 -2.657305E-10
       284  19  1.173287E+05  8.123530E+05  1.319818E+05 -5.241243E+04 -1.980458E+03 -5.407472E+04
       284  20  3.417155E+04  7.379553E+05  7.288392E+04 -1.492527E+04 -5.390936E+03 -3.431413E+04
       284  21  2.390088E+04  6.841828E+05  4.482974E+04 -2.741068E+04 -3.050281E+03 -1.454595E+04
       284  22  5.814125E+04  5.751674E+05  7.336512E+04 -3.462031E+04 -1.986662E+03 -5.105812E+04
       284  23 -8.690589E+03  5.651025E+05  3.140097E+04 -9.681589E+03 -5.391715E+03 -3.406665E+04
       284  24 -3.104414E+03  5.751880E+05  1.856796E+04 -3.471499E+04 -3.045726E+03 -1.706553E+04
       284  25 -1.049256E+03  3.380334E+05  1.474447E+04 -1.683496E+04 -1.992695E+03 -4.804267E+04
       284  26 -5.155480E+04  3.922772E+05 -1.008408E+04 -4.439359E+03 -5.392490E+03 -3.381924E+04
       284  27 -3.011036E+04  4.662042E+05 -7.694608E+03 -4.201801E+04 -3.041111E+03 -1.958467E+04
       285   1  1.100079E+04  5.889035E+05  1.862503E+04 -3.606385E+04  6.526867E+02  1.321216E+04
       285   2 -1.192383E+04  5.243697E+05 -6.382572E+03 -1.023687E+04 -1.407466E+03  1.087819E+04
       285   3 -3.018403E+04  4.610989E+05 -2.875112E+04 -3.444299E+04 -3.320006E+03  8.544953E+03
       285   4  6.562084E+03  5.709921E+05  1.436028E+04 -3.468876E+04  6.508924E+02  1.423936E+04
       285   5 -5.231664E+02  5.703574E+05  4.672958E+03 -9.680564E+03 -1.409101E+03  1.183480E+04
       285   6 -2.931342E+03  5.709950E+05 -2.325407E+03 -3.470516E+04 -3.321491E+03  9.430731E+03
       285   7  2.123364E+03  5.530810E+05  1.009550E+04 -3.331370E+04  6.491027E+02  1.526653E+04
       285   8  1.087735E+04  6.163471E+05  1.572834E+04 -9.124213E+03 -1.410734E+03  1.279148E+04
       285   9  2.432047E+04  6.809021E+05  2.409945E+04 -3.496737E+04 -3.322977E+03  1.031666E+04
       285  10  1.100074E+04  5.889033E+05  1.862470E+04 -3.606386E+04 -1.896171E-10 -5.146598E-10
       285  11 -1.192386E+04  5.243695E+05 -6.382798E+03 -1.023686E+04  3.292122E-10 -2.342094E-10
       285  12 -3.018406E+04  4.610988E+05 -2.875128E+04 -3.444297E+04 -8.534490E-10  2.515965E-10
       285  13  6.562030E+03  5.709919E+05  1.435989E+04 -3.468876E+04  1.671394E-10  6.785343E-11
       285  14 -5.232061E+02  5.703573E+05  4.672691E+03 -9.680550E+03  9.620985E-10 -1.285424E-10
       285  15 -2.931377E+03  5.709949E+05 -2.325594E+03 -3.470513E+04  1.337568E-09 -1.686015E-10
       285  16  2.123301E+03  5.530808E+05  1.009507E+04 -3.331371E+04  3.092119E-10  5.855475E-10
       285  17  1.087730E+04  6.163470E+05  1.572803E+04 -9.124198E+03 -1.151733E-09  2.160455E-10
       285  18  2.432043E+04  6.809020E+05  2.409923E+04 -3.496734E+04 -1.371607E-10 -1.758695E-10
       285  19  1.100079E+04  5.889035E+05  1.862503E+04 -3.606385E+04 -6.526867E+02 -1.321216E+04
       285  20 -1.192383E+04  5.243697E+05 -6.382572E+03 -1.023687E+04  1.407466E+03 -1.087819E+04
       285  21 -3.018403E+04  4.610989E+05 -2.875112E+04 -3.444299E+04  3.320006E+03 -8.544953E+03
       285  22  6.562084E+03  5.709921E+05  1.436028E+04 -3.468876E+04 -6.508924E+02 -1.423936E+04
       285  23 -5.231664E+02  5.703574E+05  4.672958E+03 -9.680564E+03  1.409101E+03 -1.183480E+04
       285  24 -2.931342E+03  5.709950E+05 -2.325407E+03 -3.470516E+04  3.321491E+03 -9.430731E+03
       285  25  2.123364E+03  5.530810E+05  1.009550E+04 -3.331370E+04 -6.491027E+02 -1.526653E+04
       285  26  1.087735E+04  6.163471E+05  1.572834E+04 -9.124213E+03  1.410734E+03 -1.279148E+04
       285  27  2.432047E+04  6.809021E+05  2.409945E+04 -3.496737E+04  3.322977E+03 -1.031666E+04
       286   1 -4.784037E+04  3.676926E+05 -5.346045E+04 -3.136946E+04 -5.970794E+03  7.068932E+03
       286   2 -6.205249E+04  3.078972E+05 -7.591421E+04 -1.152419E+04 -8.333537E+03  1.742327E+04
       286   3 -1.072359E+05  2.389214E+05 -1.128714E+05 -4.189641E+04 -3.025442E+03  2.778734E+04
       286   4  2.052665E+03  5.688040E+05 -5.067672E+03 -3.472681E+04 -5.975637E+03  1.003980E+04
       286   5  3.683866E+03  5.730763E+05 -1.224838E+04 -9.636835E+03 -8.332196E+03  1.671350E+04
       286   6 -2.501014E+04  5.688066E+05 -3.137344E+04 -3.476368E+04 -3.019182E+03  2.339811E+04
       286   7  5.194280E+04  7.699525E+05  4.332227E+04 -3.808524E+04 -5.980512E+03  1.301163E+04
       286   8  6.941513E+04  8.383197E+05  5.141247E+04 -7.748649E+03 -8.330860E+03  1.600342E+04
       286   9  5.720767E+04  8.987908E+05  5.011656E+04 -2.762712E+04 -3.013026E+03  1.900655E+04
       286  10 -4.784043E+04  3.676925E+05 -5.346062E+04 -3.136942E+04 -7.084492E-11 -3.272012E-10
       286  11 -6.205264E+04  3.078969E+05 -7.591491E+04 -1.152407E+04  2.317138E-10 -1.125934E-10
       286  12 -1.072361E+05  2.389206E+05 -1.128729E+05 -4.189634E+04 -1.480838E-10  2.379614E-10
       286  13  2.052600E+03  5.688039E+05 -5.067928E+03 -3.472676E+04 -1.113420E-09  1.366691E-10
       286  14  3.683716E+03  5.730760E+05 -1.224903E+04 -9.636723E+03  3.864424E-10 -8.287753E-11
       286  15 -2.501029E+04  5.688060E+05 -3.137449E+04 -3.476362E+04 -4.237350E-10  2.169705E-11
       286  16  5.194272E+04  7.699523E+05  4.332188E+04 -3.808518E+04  4.994232E-10  2.906006E-10
       286  17  6.941498E+04  8.383194E+05  5.141186E+04 -7.748542E+03 -2.827212E-10 -9.351652E-12
       286  18  5.720756E+04  8.987904E+05  5.011586E+04 -2.762707E+04 -5.936855E-10 -8.235665E-11
       286  19 -4.784037E+04  3.676926E+05 -5.346045E+04 -3.136946E+04  5.970794E+03 -7.068932E+03
       286  20 -6.205249E+04  3.078972E+05 -7.591421E+04 -1.152419E+04  8.333537E+03 -1.742327E+04
       286  21 -1.072359E+05  2.389214E+05 -1.128714E+05 -4.189641E+04  3.025442E+03 -2.778734E+04
       286  22  2.052665E+03  5.688040E+05 -5.067672E+03 -3.472681E+04  5.975637E+03 -1.003980E+04
       286  23  3.683866E+03  5.730763E+05 -1.224838E+04 -9.636835E+03  8.332196E+03 -1.671350E+04
       286  24 -2.501014E+04  5.688066E+05 -3.137344E+04 -3.476368E+04  3.019182E+03 -2.339811E+04
       286  25  5.194280E+04  7.699525E+05  4.332227E+04 -3.808524E+04  5.980512E+03 -1.301163E+04
       286  26  6.941513E+04  8.383197E+05  5.141247E+04 -7.748649E+03  8.330860E+03 -1.600342E+04
       286  27  5.720767E+04  8.987908E+05  5.011656E+04 -2.762712E+04  3.013026E+03 -1.900655E+04
       287   1 -8.051060E+05 -3.324172E+05 -2.470559E+05 -2.696631E+05 -1.110409E+05 -3.836087E+04
       287   2 -7.715432E+05 -1.660827E+05 -1.432412E+05 -2.822160E+05 -7.237861E+04 -1.688865E+04
       287   3 -7.914684E+05 -1.629934E+05 -1.119993E+05 -2.659790E+05 -3.118869E+04 -2.124608E+03
       287   4 -5.346702E+05 -1.959724E+05 -1.665871E+05 -1.607889E+05 -1.068481E+05 -3.678979E+04
       287   5 -4.996258E+05 -5.403307E+04 -6.930003E+04 -1.979996E+05 -7.118299E+04 -1.644040E+04
       287   6 -5.174494E+05 -7.470621E+04 -4.218491E+04 -2.064287E+05 -3.299081E+04 -2.801789E+03
       287   7 -2.641618E+05 -5.950521E+04 -8.612573E+04 -5.186680E+04 -1.026533E+05 -3.521738E+04
       287   8 -2.276370E+05  5.802496E+04  4.634333E+03 -1.137486E+05 -6.998678E+04 -1.599189E+04
       287   9 -2.433573E+05  1.358118E+04  2.762380E+04 -1.468567E+05 -3.479380E+04 -3.479191E+03
       287  10 -8.051197E+05 -3.324221E+05 -2.470819E+05 -2.696665E+05  4.122648E-10  2.688316E-11
       287  11 -7.715489E+05 -1.660844E+05 -1.432516E+05 -2.822170E+05  1.885776E-10  2.126937E-10
       287  12 -7.914695E+05 -1.629936E+05 -1.120012E+05 -2.659790E+05  1.230979E-09  4.675925E-10
       287  13 -5.346828E+05 -1.959770E+05 -1.666111E+05 -1.607921E+05 -3.047145E-10  1.054053E-10
       287  14 -4.996314E+05 -5.403472E+04 -6.931007E+04 -1.980006E+05  1.429240E-09  2.807046E-10
       287  15 -5.174506E+05 -7.470652E+04 -4.218697E+04 -2.064287E+05  7.678443E-10  2.855662E-10
       287  16 -2.641735E+05 -5.950938E+04 -8.614787E+04 -5.186971E+04 -3.527925E-10  1.708023E-10
       287  17 -2.276423E+05  5.802337E+04  4.624644E+03 -1.137495E+05 -2.361283E-10  2.936959E-10
       287  18 -2.433586E+05  1.358084E+04  2.762150E+04 -1.468568E+05  1.299490E-09  2.195323E-10
       287  19 -8.051060E+05 -3.324172E+05 -2.470559E+05 -2.696631E+05  1.110409E+05  3.836087E+04
       287  20 -7.715432E+05 -1.660827E+05 -1.432412E+05 -2.822160E+05  7.237861E+04  1.688865E+04
       287  21 -7.914684E+05 -1.629934E+05 -1.119993E+05 -2.659790E+05  3.118869E+04  2.124608E+03
       287  22 -5.346702E+05 -1.959724E+05 -1.665871E+05 -1.607889E+05  1.068481E+05  3.678979E+04
       287  23 -4.996258E+05 -5.403307E+04 -6.930003E+04 -1.979996E+05  7.118299E+04  1.644040E+04
       287  24 -5.174494E+05 -7.470621E+04 -4.218491E+04 -2.064287E+05  3.299081E+04  2.801789E+03
       287  25 -2.641618E+05 -5.950521E+04 -8.612573E+04 -5.186680E+04  1.026533E+05  3.521738E+04
       287  26 -2.276370E+05  5.802496E+04  4.634333E+03 -1.137486E+05  6.998678E+04  1.599189E+04
       287  27 -2.433573E+05  1.358118E+04  2.762380E+04 -1.468567E+05  3.479380E+04  3.479191E+03
       288   1 -7.472025E+05 -1.846348E+05 -9.766272E+04 -2.643823E+05 -2.650129E+04 -1.929209E+03
       288   2 -7.327168E+05 -1.556465E+05 -7.507793E+04 -2.565341E+05 -1.765451E+04  1.246502E+03
       288   3 -7.157209E+05 -1.543735E+05 -6.381269E+04 -2.559549E+05 -8.588136E+03  3.837913E+03
       288   4 -5.118961E+05 -9.246024E+04 -3.437892E+04 -1.964755E+05 -2.643576E+04 -1.904968E+03
       288   5 -5.122038E+05 -7.175572E+04 -1.637077E+04 -1.954235E+05 -1.784816E+04  1.173503E+03
       288   6 -5.099474E+05 -7.871111E+04 -9.473306E+03 -2.016410E+05 -9.041217E+03  3.667601E+03
       288   7 -2.765369E+05 -2.813405E+02  2.889979E+04 -1.285452E+05 -2.637020E+04 -1.880716E+03
       288   8 -2.916439E+05  1.213829E+04  4.233215E+04 -1.342932E+05 -1.804189E+04  1.100474E+03
       288   9 -3.041326E+05 -3.046440E+03  4.486259E+04 -1.473111E+05 -9.494465E+03  3.497229E+03
       288  10 -7.472032E+05 -1.846350E+05 -9.766405E+04 -2.643824E+05  1.052756E-09  2.057543E-10
       288  11 -7.327171E+05 -1.556466E+05 -7.507852E+04 -2.565341E+05 -3.193548E-10  3.565642E-10
       288  12 -7.157209E+05 -1.543736E+05 -6.381286E+04 -2.559548E+05 -3.839491E-10  4.003076E-10
       288  13 -5.118969E+05 -9.246043E+04 -3.438024E+04 -1.964756E+05  1.225210E-09  3.626965E-10
       288  14 -5.122042E+05 -7.175581E+04 -1.637137E+04 -1.954235E+05  4.001256E-10  2.760030E-10
       288  15 -5.099475E+05 -7.871115E+04 -9.473485E+03 -2.016410E+05  3.087036E-10  1.073837E-10
       288  16 -2.765376E+05 -2.815311E+02  2.889848E+04 -1.285453E+05  1.150945E-09  2.059796E-10
       288  17 -2.916443E+05  1.213820E+04  4.233154E+04 -1.342932E+05 -1.957516E-10  4.482179E-10
       288  18 -3.041327E+05 -3.046477E+03  4.486240E+04 -1.473110E+05  4.149581E-11 -2.828923E-11
       288  19 -7.472025E+05 -1.846348E+05 -9.766272E+04 -2.643823E+05  2.650129E+04  1.929209E+03
       288  20 -7.327168E+05 -1.556465E+05 -7.507793E+04 -2.565341E+05  1.765451E+04 -1.246502E+03
       288  21 -7.157209E+05 -1.543735E+05 -6.381269E+04 -2.559549E+05  8.588136E+03 -3.837913E+03
       288  22 -5.118961E+05 -9.246024E+04 -3.437892E+04 -1.964755E+05  2.643576E+04  1.904968E+03
       288  23 -5.122038E+05 -7.175572E+04 -1.637077E+04 -1.954235E+05  1.784816E+04 -1.173503E+03
       288  24 -5.099474E+05 -7.871111E+04 -9.473306E+03 -2.016410E+05  9.041217E+03 -3.667601E+03
       288  25 -2.765369E+05 -2.813405E+02  2.889979E+04 -1.285452E+05  2.637020E+04  1.880716E+03
       288  26 -2.916439E+05  1.213829E+04  4.233215E+04 -1.342932E+05  1.804189E+04 -1.100474E+03
       288  27 -3.041326E+05 -3.046440E+03  4.486259E+04 -1.473111E+05  9.494465E+03 -3.497229E+03
       289   1 -6.871066E+05 -1.480101E+05 -5.466753E+04 -2.494362E+05 -7.189675E+03  3.786820E+03
       289   2 -6.746915E+05 -1.342832E+05 -4.653182E+04 -2.389875E+05 -4.961591E+03  3.844057E+03
       289   3 -6.527293E+05 -1.330609E+05 -4.039425E+04 -2.401024E+05 -2.711907E+03  3.842957E+03
       289   4 -5.091560E+05 -8.075128E+04 -7.416836E+03 -2.005616E+05 -7.484377E+03  3.676026E+03
       289   5 -5.138221E+05 -7.372862E+04 -3.822682E+03 -1.950698E+05 -5.281915E+03  3.723716E+03
       289   6 -5.089362E+05 -7.920487E+04 -2.205849E+03 -2.011414E+05 -3.057916E+03  3.713052E+03
       289   7 -3.311747E+05 -1.349048E+04  3.983111E+04 -1.516743E+05 -7.779172E+03  3.565197E+03
       289   8 -3.529279E+05 -1.317257E+04  3.888415E+04 -1.511418E+05 -5.602329E+03  3.603340E+03
       289   9 -3.651235E+05 -2.534776E+04  3.598066E+04 -1.621723E+05 -3.404012E+03  3.583115E+03
       289  10 -6.871067E+05 -1.480101E+05 -5.466766E+04 -2.494362E+05 -7.697349E-12  2.972168E-10
       289  11 -6.746915E+05 -1.342832E+05 -4.653190E+04 -2.389875E+05  1.149125E-10  1.278096E-10
       289  12 -6.527293E+05 -1.330609E+05 -4.039429E+04 -2.401024E+05 -2.621177E-10 -2.386587E-11
       289  13 -5.091560E+05 -8.075131E+04 -7.416967E+03 -2.005616E+05  4.634955E-10  1.383662E-10
       289  14 -5.138221E+05 -7.372864E+04 -3.822761E+03 -1.950697E+05 -3.895361E-12  1.594103E-10
       289  15 -5.089362E+05 -7.920488E+04 -2.205892E+03 -2.011414E+05 -7.625372E-11  1.161919E-10
       289  16 -3.311748E+05 -1.349051E+04  3.983097E+04 -1.516743E+05  6.123855E-10  2.798638E-11
       289  17 -3.529280E+05 -1.317260E+04  3.888407E+04 -1.511418E+05  3.336170E-10  2.741541E-10
       289  18 -3.651235E+05 -2.534778E+04  3.598061E+04 -1.621723E+05  2.206319E-10  3.825431E-10
       289  19 -6.871066E+05 -1.480101E+05 -5.466753E+04 -2.494362E+05  7.189675E+03 -3.786820E+03
       289  20 -6.746915E+05 -1.342832E+05 -4.653182E+04 -2.389875E+05  4.961591E+03 -3.844057E+03
       289  21 -6.527293E+05 -1.330609E+05 -4.039425E+04 -2.401024E+05  2.711907E+03 -3.842957E+03
       289  22 -5.091560E+05 -8.075128E+04 -7.416836E+03 -2.005616E+05  7.484377E+03 -3.676026E+03
       289  23 -5.138221E+05 -7.372862E+04 -3.822682E+03 -1.950698E+05  5.281915E+03 -3.723716E+03
       289  24 -5.089362E+05 -7.920487E+04 -2.205849E+03 -2.011414E+05  3.057916E+03 -3.713052E+03
       289  25 -3.311747E+05 -1.349048E+04  3.983111E+04 -1.516743E+05  7.779172E+03 -3.565197E+03
       289  26 -3.529279E+05 -1.317257E+04  3.888415E+04 -1.511418E+05  5.602329E+03 -3.603340E+03
       289  27 -3.651235E+05 -2.534776E+04  3.598066E+04 -1.621723E+05  3.404012E+03 -3.583115E+03
       290   1 -6.253475E+05 -1.232986E+05 -3.260603E+04 -2.328581E+05 -2.235844E+03  3.517440E+03
       290   2 -6.129763E+05 -1.110697E+05 -2.730015E+04 -2.219152E+05 -1.422061E+03  2.971298E+03
       290   3 -5.900136E+05 -1.098287E+05 -2.245437E+04 -2.232243E+05 -6.048291E+02  2.415443E+03
       290   4 -5.087880E+05 -7.946975E+04 -1.733104E+03 -2.010680E+05 -2.568971E+03  3.392411E+03
       290   5 -5.140722E+05 -7.389707E+04 -1.053532E+03 -1.949715E+05 -1.759448E+03  2.844715E+03
       290   6 -5.087648E+05 -7.931139E+04 -8.306834E+02 -2.011271E+05 -9.464933E+02  2.287302E+03
       290   7 -3.922149E+05 -3.564000E+04  2.913873E+04 -1.692725E+05 -2.902168E+03  3.267356E+03
       290   8 -4.151585E+05 -3.672383E+04  2.519228E+04 -1.680240E+05 -2.096894E+03  2.718110E+03
       290   9 -4.275097E+05 -4.879372E+04  2.079243E+04 -1.790273E+05 -1.288207E+03  2.159143E+03
       290  10 -6.253476E+05 -1.232986E+05 -3.260606E+04 -2.328581E+05 -3.097028E-10  8.637072E-11
       290  11 -6.129763E+05 -1.110697E+05 -2.730017E+04 -2.219152E+05 -4.445003E-10 -2.523980E-10
       290  12 -5.900136E+05 -1.098287E+05 -2.245438E+04 -2.232243E+05 -1.615168E-10 -1.557997E-10
       290  13 -5.087880E+05 -7.946977E+04 -1.733138E+03 -2.010680E+05  7.585596E-11  1.403932E-10
       290  14 -5.140722E+05 -7.389708E+04 -1.053553E+03 -1.949715E+05  2.859327E-10 -1.069528E-10
       290  15 -5.087648E+05 -7.931139E+04 -8.306949E+02 -2.011271E+05  1.268038E-10 -5.228097E-11
       290  16 -3.922150E+05 -3.564001E+04  2.913869E+04 -1.692725E+05  2.133419E-10  2.988419E-10
       290  17 -4.151585E+05 -3.672384E+04  2.519226E+04 -1.680240E+05  1.483114E-10  1.063083E-10
       290  18 -4.275097E+05 -4.879373E+04  2.079241E+04 -1.790273E+05  5.238137E-11 -3.940611E-11
       290  19 -6.253475E+05 -1.232986E+05 -3.260603E+04 -2.328581E+05  2.235844E+03 -3.517440E+03
       290  20 -6.129763E+05 -1.110697E+05 -2.730015E+04 -2.219152E+05  1.422061E+03 -2.971298E+03
       290  21 -5.900136E+05 -1.098287E+05 -2.245437E+04 -2.232243E+05  6.048291E+02 -2.415443E+03
       290  22 -5.087880E+05 -7.946975E+04 -1.733104E+03 -2.010680E+05  2.568971E+03 -3.392411E+03
       290  23 -5.140722E+05 -7.389707E+04 -1.053532E+03 -1.949715E+05  1.759448E+03 -2.844715E+03
       290  24 -5.087648E+05 -7.931139E+04 -8.306834E+02 -2.011271E+05  9.464933E+02 -2.287302E+03
       290  25 -3.922149E+05 -3.564000E+04  2.913873E+04 -1.692725E+05  2.902168E+03 -3.267356E+03
       290  26 -4.151585E+05 -3.672383E+04  2.519228E+04 -1.680240E+05  2.096894E+03 -2.718110E+03
       290  27 -4.275097E+05 -4.879372E+04  2.079243E+04 -1.790273E+05  1.288207E+03 -2.159143E+03
       291   1 -5.624351E+05 -9.953133E+04 -1.501313E+04 -2.158126E+05 -3.017504E+02  2.023619E+03
       291   2 -5.499292E+05 -8.732360E+04 -1.053831E+04 -2.046889E+05  5.018698E+02  1.457337E+03
       291   3 -5.267219E+05 -8.621883E+04 -6.513748E+03 -2.059666E+05  1.305424E+03  8.910400E+02
       291   4 -5.087399E+05 -7.934118E+04 -8.281098E+02 -2.011583E+05 -6.433489E+02  1.895526E+03
       291   5 -5.141004E+05 -7.386050E+04 -1.031084E+03 -1.949310E+05  1.602948E+02  1.329269E+03
       291   6 -5.087598E+05 -7.948280E+04 -1.684308E+03 -2.011051E+05  9.638574E+02  7.629925E+02
       291   7 -4.550421E+05 -5.915091E+04  1.335663E+04 -1.865028E+05 -9.849791E+02  1.767421E+03
       291   8 -4.782702E+05 -6.039732E+04  8.476035E+03 -1.851725E+05 -1.813019E+02  1.201194E+03
       291   9 -4.907972E+05 -7.274674E+04  3.145118E+03 -1.962435E+05  6.222791E+02  6.349407E+02
       291  10 -5.624351E+05 -9.953133E+04 -1.501314E+04 -2.158126E+05  4.449184E-11  4.148745E-11
       291  11 -5.499292E+05 -8.732360E+04 -1.053832E+04 -2.046889E+05  2.308886E-10  1.057326E-10
       291  12 -5.267219E+05 -8.621883E+04 -6.513753E+03 -2.059666E+05  1.419936E-10 -1.204281E-10
       291  13 -5.087399E+05 -7.934118E+04 -8.281173E+02 -2.011582E+05  3.363492E-11  7.705629E-12
       291  14 -5.141004E+05 -7.386050E+04 -1.031087E+03 -1.949310E+05  3.846971E-11 -1.368693E-10
       291  15 -5.087598E+05 -7.948280E+04 -1.684310E+03 -2.011051E+05  3.693277E-10 -1.396202E-10
       291  16 -4.550421E+05 -5.915091E+04  1.335662E+04 -1.865028E+05  3.127307E-10  2.599420E-12
       291  17 -4.782702E+05 -6.039732E+04  8.476033E+03 -1.851725E+05 -1.819925E-10 -8.049057E-12
       291  18 -4.907972E+05 -7.274674E+04  3.145117E+03 -1.962435E+05  1.304515E-11 -6.360690E-11
       291  19 -5.624351E+05 -9.953133E+04 -1.501313E+04 -2.158126E+05  3.017504E+02 -2.023619E+03
       291  20 -5.499292E+05 -8.732360E+04 -1.053831E+04 -2.046889E+05 -5.018698E+02 -1.457337E+03
       291  21 -5.267219E+05 -8.621883E+04 -6.513748E+03 -2.059666E+05 -1.305424E+03 -8.910400E+02
       291  22 -5.087399E+05 -7.934118E+04 -8.281098E+02 -2.011583E+05  6.433489E+02 -1.895526E+03
       291  23 -5.141004E+05 -7.386050E+04 -1.031084E+03 -1.949310E+05 -1.602948E+02 -1.329269E+03
       291  24 -5.087598E+05 -7.948280E+04 -1.684308E+03 -2.011051E+05 -9.638574E+02 -7.629925E+02
       291  25 -4.550421E+05 -5.915091E+04  1.335663E+04 -1.865028E+05  9.849791E+02 -1.767421E+03
       291  26 -4.782702E+05 -6.039732E+04  8.476035E+03 -1.851725E+05  1.813019E+02 -1.201194E+03
       291  27 -4.907972E+05 -7.274674E+04  3.145118E+03 -1.962435E+05 -6.222791E+02 -6.349407E+02
       292   1 -4.989681E+05 -7.576130E+04  5.096795E+02 -1.987611E+05  1.796121E+03  5.627686E+02
       292   2 -4.863180E+05 -6.319984E+04  3.632050E+03 -1.873735E+05  3.952970E+03  5.010862E+02
       292   3 -4.637694E+05 -6.343884E+04  4.839431E+03 -1.880079E+05  6.098472E+03  4.699185E+02
       292   4 -5.088574E+05 -7.928291E+04 -2.142833E+03 -2.012373E+05  1.446536E+03  4.317172E+02
       292   5 -5.139102E+05 -7.362505E+04 -3.699779E+03 -1.949477E+05  3.616995E+03  3.751224E+02
       292   6 -5.090676E+05 -8.077042E+04 -7.182548E+03 -2.006801E+05  5.776046E+03  3.490200E+02
       292   7 -5.187466E+05 -8.280452E+04 -4.795354E+03 -2.037136E+05  1.096958E+03  3.006678E+02
       292   8 -5.415017E+05 -8.405020E+04 -1.103166E+04 -2.025215E+05  3.281037E+03  2.491650E+02
       292   9 -5.543636E+05 -9.810182E+04 -1.920467E+04 -2.133514E+05  5.453645E+03  2.281319E+02
       292  10 -4.989681E+05 -7.576130E+04  5.096729E+02 -1.987611E+05 -3.881325E-10 -4.023833E-10
       292  11 -4.863180E+05 -6.319985E+04  3.632021E+03 -1.873735E+05  9.332980E-10  3.021097E-10
       292  12 -4.637695E+05 -6.343885E+04  4.839361E+03 -1.880079E+05  2.534285E-09  1.248961E-09
       292  13 -5.088574E+05 -7.928291E+04 -2.142838E+03 -2.012373E+05  1.401989E-10 -1.528149E-10
       292  14 -5.139102E+05 -7.362506E+04 -3.699804E+03 -1.949477E+05  1.940471E-10 -2.117363E-10
       292  15 -5.090676E+05 -8.077043E+04 -7.182611E+03 -2.006801E+05  1.142260E-09  5.605262E-10
       292  16 -5.187466E+05 -8.280452E+04 -4.795356E+03 -2.037136E+05  4.080433E-10 -1.173809E-10
       292  17 -5.415017E+05 -8.405020E+04 -1.103168E+04 -2.025215E+05 -8.119238E-10 -5.571130E-10
       292  18 -5.543637E+05 -9.810183E+04 -1.920473E+04 -2.133514E+05 -7.170891E-10 -1.220794E-10
       292  19 -4.989681E+05 -7.576130E+04  5.096795E+02 -1.987611E+05 -1.796121E+03 -5.627686E+02
       292  20 -4.863180E+05 -6.319984E+04  3.632050E+03 -1.873735E+05 -3.952970E+03 -5.010862E+02
       292  21 -4.637694E+05 -6.343884E+04  4.839431E+03 -1.880079E+05 -6.098472E+03 -4.699185E+02
       292  22 -5.088574E+05 -7.928291E+04 -2.142833E+03 -2.012373E+05 -1.446536E+03 -4.317172E+02
       292  23 -5.139102E+05 -7.362505E+04 -3.699779E+03 -1.949477E+05 -3.616995E+03 -3.751224E+02
       292  24 -5.090676E+05 -8.077042E+04 -7.182548E+03 -2.006801E+05 -5.776046E+03 -3.490200E+02
       292  25 -5.187466E+05 -8.280452E+04 -4.795354E+03 -2.037136E+05 -1.096958E+03 -3.006678E+02
       292  26 -5.415017E+05 -8.405020E+04 -1.103166E+04 -2.025215E+05 -3.281037E+03 -2.491650E+02
       292  27 -5.543636E+05 -9.810182E+04 -1.920467E+04 -2.133514E+05 -5.453645E+03 -2.281319E+02
       293   1 -4.354576E+05 -5.260582E+04  1.028163E+04 -1.832921E+05  7.703011E+03  5.102363E+02
       293   2 -4.222305E+05 -3.688596E+04  8.243856E+03 -1.697479E+05  1.609815E+04  2.797419E+03
       293   3 -4.056356E+05 -4.884755E+04 -4.442314E+03 -1.643484E+05  2.436391E+04  5.431111E+03
       293   4 -5.097890E+05 -7.884828E+04 -9.175012E+03 -2.017822E+05  7.285619E+03  3.537381E+02
       293   5 -5.123959E+05 -7.164579E+04 -1.584311E+04 -1.952149E+05  1.583511E+04  2.698708E+03
       293   6 -5.116672E+05 -9.215745E+04 -3.328338E+04 -1.967925E+05  2.425498E+04  5.390042E+03
       293   7 -5.841153E+05 -1.050906E+05 -2.863217E+04 -2.202704E+05  6.868282E+03  1.972573E+02
       293   8 -6.025536E+05 -1.064051E+05 -3.993083E+04 -2.206785E+05  1.557212E+04  2.600014E+03
       293   9 -6.176879E+05 -1.354661E+05 -6.212547E+04 -2.292315E+05  2.414607E+04  5.348981E+03
       293  10 -4.354576E+05 -5.260583E+04  1.028152E+04 -1.832921E+05 -8.139992E-10 -6.849654E-11
       293  11 -4.222308E+05 -3.688603E+04  8.243354E+03 -1.697479E+05 -9.124364E-10 -4.148664E-10
       293  12 -4.056363E+05 -4.884774E+04 -4.443486E+03 -1.643485E+05  7.667328E-11 -7.417973E-12
       293  13 -5.097891E+05 -7.884830E+04 -9.175112E+03 -2.017822E+05  9.551418E-10  4.299194E-10
       293  14 -5.123962E+05 -7.164587E+04 -1.584360E+04 -1.952149E+05  6.244624E-11 -2.767213E-11
       293  15 -5.116679E+05 -9.215764E+04 -3.328455E+04 -1.967927E+05 -1.797194E-10 -8.900529E-11
       293  16 -5.841154E+05 -1.050907E+05 -2.863226E+04 -2.202704E+05  2.498900E-09  1.007196E-09
       293  17 -6.025538E+05 -1.064051E+05 -3.993129E+04 -2.206785E+05  7.851110E-10  3.815928E-10
       293  18 -6.176886E+05 -1.354663E+05 -6.212662E+04 -2.292316E+05 -3.899897E-10  5.821428E-11
       293  19 -4.354576E+05 -5.260582E+04  1.028163E+04 -1.832921E+05 -7.703011E+03 -5.102363E+02
       293  20 -4.222305E+05 -3.688596E+04  8.243856E+03 -1.697479E+05 -1.609815E+04 -2.797419E+03
       293  21 -4.056356E+05 -4.884755E+04 -4.442314E+03 -1.643484E+05 -2.436391E+04 -5.431111E+03
       293  22 -5.097890E+05 -7.884828E+04 -9.175012E+03 -2.017822E+05 -7.285619E+03 -3.537381E+02
       293  23 -5.123959E+05 -7.164579E+04 -1.584311E+04 -1.952149E+05 -1.583511E+04 -2.698708E+03
       293  24 -5.116672E+05 -9.215745E+04 -3.328338E+04 -1.967925E+05 -2.425498E+04 -5.390042E+03
       293  25 -5.841153E+05 -1.050906E+05 -2.863217E+04 -2.202704E+05 -6.868282E+03 -1.972573E+02
       293  26 -6.025536E+05 -1.064051E+05 -3.993083E+04 -2.206785E+05 -1.557212E+04 -2.600014E+03
       293  27 -6.176879E+05 -1.354661E+05 -6.212547E+04 -2.292315E+05 -2.414607E+04 -5.348981E+03
       294   1 -3.708607E+05 -3.445887E+04 -4.850887E+03 -1.814612E+05  3.171057E+04  7.028885E+03
       294   2 -3.541385E+05  9.842805E+03 -2.657919E+04 -1.481791E+05  6.693478E+04  1.943297E+04
       294   3 -3.870692E+05 -1.041817E+05 -1.148297E+05 -8.853212E+04  1.006553E+05  3.584843E+04
       294   4 -5.170046E+05 -7.501594E+04 -4.084183E+04 -2.064784E+05  3.048454E+04  6.569717E+03
       294   5 -5.002861E+05 -5.440428E+04 -6.707952E+04 -1.976188E+05  6.750124E+04  1.964424E+04
       294   6 -5.335919E+05 -1.924989E+05 -1.612732E+05 -1.623912E+05  1.030138E+05  3.672714E+04
       294   7 -6.631275E+05 -1.155735E+05 -7.683420E+04 -2.314913E+05  2.925883E+04  6.110596E+03
       294   8 -6.464122E+05 -1.186475E+05 -1.075817E+05 -2.470470E+05  6.806755E+04  1.985542E+04
       294   9 -6.800899E+05 -2.808017E+05 -2.077183E+05 -2.362307E+05  1.053718E+05  3.760530E+04
       294  10 -3.708618E+05 -3.445920E+04 -4.852871E+03 -1.814614E+05 -7.324182E-12 -5.700223E-11
       294  11 -3.541435E+05  9.841196E+03 -2.658832E+04 -1.481801E+05 -2.794297E-10  2.192525E-11
       294  12 -3.870804E+05 -1.041858E+05 -1.148512E+05 -8.853503E+04 -3.064119E-11  5.015781E-11
       294  13 -5.170056E+05 -7.501624E+04 -4.084366E+04 -2.064786E+05 -4.567835E-10  4.689995E-11
       294  14 -5.002911E+05 -5.440592E+04 -6.708882E+04 -1.976199E+05 -2.583450E-10  1.102087E-10
       294  15 -5.336037E+05 -1.925032E+05 -1.612957E+05 -1.623943E+05  1.050852E-11  5.718649E-11
       294  16 -6.631284E+05 -1.155738E+05 -7.683588E+04 -2.314915E+05 -8.544734E-11  9.560984E-11
       294  17 -6.464173E+05 -1.186492E+05 -1.075911E+05 -2.470481E+05  2.220026E-10 -1.653612E-11
       294  18 -6.801022E+05 -2.808062E+05 -2.077418E+05 -2.362339E+05 -3.978479E-11 -7.449023E-11
       294  19 -3.708607E+05 -3.445887E+04 -4.850887E+03 -1.814612E+05 -3.171057E+04 -7.028885E+03
       294  20 -3.541385E+05  9.842805E+03 -2.657919E+04 -1.481791E+05 -6.693478E+04 -1.943297E+04
       294  21 -3.870692E+05 -1.041817E+05 -1.148297E+05 -8.853212E+04 -1.006553E+05 -3.584843E+04
       294  22 -5.170046E+05 -7.501594E+04 -4.084183E+04 -2.064784E+05 -3.048454E+04 -6.569717E+03
       294  23 -5.002861E+05 -5.440428E+04 -6.707952E+04 -1.976188E+05 -6.750124E+04 -1.964424E+04
       294  24 -5.335919E+05 -1.924989E+05 -1.612732E+05 -1.623912E+05 -1.030138E+05 -3.672714E+04
       294  25 -6.631275E+05 -1.155735E+05 -7.683420E+04 -2.314913E+05 -2.925883E+04 -6.110596E+03
       294  26 -6.464122E+05 -1.186475E+05 -1.075817E+05 -2.470470E+05 -6.806755E+04 -1.985542E+04
       294  27 -6.800899E+05 -2.808017E+05 -2.077183E+05 -2.362307E+05 -1.053718E+05 -3.760530E+04
       295   1 -4.595756E+05 -9.899939E+04 -6.610953E+04 -5.719268E+03  8.755285E+04  8.273396E+03
       295   2 -4.030360E+05 -2.114334E+05 -1.240822E+05 -5.687560E+02  6.211256E+04  2.433732E+04
       295   3 -3.066340E+05 -1.809503E+05 -1.295835E+05 -5.480311E+04  3.667853E+04  2.170239E+04
       295   4  3.992154E+05  1.151287E+05  1.460177E+05 -4.013533E+04  9.984729E+04  8.276289E+03
       295   5  3.785516E+05 -1.755105E+04  6.371799E+04 -1.041324E+04  6.539446E+04  2.433504E+04
       295   6  3.992565E+05 -5.848115E+03  4.009503E+04 -4.006970E+04  3.095176E+04  2.170332E+04
       295   7  1.258680E+06  3.292064E+05  3.580914E+05 -7.459917E+04  1.121586E+05  8.277819E+03
       295   8  1.160699E+06  1.762873E+05  2.514748E+05 -2.027019E+04  6.868045E+04  2.433266E+04
       295   9  1.105604E+06  1.692187E+05  2.097384E+05 -2.531943E+04  2.521849E+04  2.170397E+04
       295  10 -4.595839E+05 -9.900153E+04 -6.612408E+04 -5.719852E+03 -2.005487E-10  1.006874E-10
       295  11 -4.030403E+05 -2.114351E+05 -1.240905E+05 -5.699739E+02  8.411420E-10 -2.124569E-10
       295  12 -3.066356E+05 -1.809512E+05 -1.295869E+05 -5.480375E+04 -2.347828E-10 -4.293952E-10
       295  13  3.992047E+05  1.151260E+05  1.459988E+05 -4.013599E+04  9.184361E-10 -1.462564E-10
       295  14  3.785468E+05 -1.755284E+04  6.370884E+04 -1.041452E+04 -4.253157E-10 -1.258943E-10
       295  15  3.992553E+05 -5.848878E+03  4.009235E+04 -4.007024E+04 -2.476908E-10 -3.344140E-10
       295  16  1.258666E+06  3.292030E+05  3.580677E+05 -7.459992E+04  2.634531E-10  2.728090E-10
       295  17  1.160693E+06  1.762854E+05  2.514648E+05 -2.027154E+04  1.598113E-10 -1.489434E-10
       295  18  1.105603E+06  1.692180E+05  2.097363E+05 -2.531987E+04 -3.895872E-10 -1.601209E-10
       295  19 -4.595756E+05 -9.899939E+04 -6.610953E+04 -5.719268E+03 -8.755285E+04 -8.273396E+03
       295  20 -4.030360E+05 -2.114334E+05 -1.240822E+05 -5.687560E+02 -6.211256E+04 -2.433732E+04
       295  21 -3.066340E+05 -1.809503E+05 -1.295835E+05 -5.480311E+04 -3.667853E+04 -2.170239E+04
       295  22  3.992154E+05  1.151287E+05  1.460177E+05 -4.013533E+04 -9.984729E+04 -8.276289E+03
       295  23  3.785516E+05 -1.755105E+04  6.371799E+04 -1.041324E+04 -6.539446E+04 -2.433504E+04
       295  24  3.992565E+05 -5.848115E+03  4.009503E+04 -4.006970E+04 -3.095176E+04 -2.170332E+04
       295  25  1.258680E+06  3.292064E+05  3.580914E+05 -7.459917E+04 -1.121586E+05 -8.277819E+03
       295  26  1.160699E+06  1.762873E+05  2.514748E+05 -2.027019E+04 -6.868045E+04 -2.433266E+04
       295  27  1.105604E+06  1.692187E+05  2.097384E+05 -2.531943E+04 -2.521849E+04 -2.170397E+04
       296   1 -2.068575E+05 -1.359667E+05 -1.113820E+05 -3.630153E+04  2.503345E+04  1.726694E+04
       296   2 -1.343618E+05 -1.317342E+05 -1.092370E+05 -9.373098E+03  1.723375E+04  1.577605E+04
       296   3 -5.667280E+04 -1.117105E+05 -9.801705E+04 -4.127300E+04  9.428971E+03  1.282441E+04
       296   4  3.912767E+05  1.247971E+04  3.273931E+04 -3.995659E+04  2.468215E+04  1.726590E+04
       296   5  3.886328E+05 -1.985417E+03  1.656135E+04 -1.054823E+04  1.617399E+04  1.577604E+04
       296   6  3.912937E+05 -5.438986E+02  9.943683E+03 -3.996479E+04  7.661681E+03  1.282593E+04
       296   7  9.897382E+05  1.609001E+05  1.768351E+05 -4.361513E+04  2.433050E+04  1.726486E+04
       296   8  9.118777E+05  1.277435E+05  1.423403E+05 -1.172430E+04  1.511334E+04  1.577603E+04
       296   9  8.394438E+05  1.106081E+05  1.178901E+05 -3.865557E+04  5.893118E+03  1.282744E+04
       296  10 -2.068583E+05 -1.359672E+05 -1.113838E+05 -3.630188E+04 -6.079528E-10 -1.384474E-10
       296  11 -1.343622E+05 -1.317346E+05 -1.092381E+05 -9.373317E+03  9.250088E-12  2.907428E-10
       296  12 -5.667294E+04 -1.117107E+05 -9.801752E+04 -4.127310E+04  2.563777E-10  1.822508E-10
       296  13  3.912760E+05  1.247922E+04  3.273760E+04 -3.995693E+04 -6.398867E-11  1.492210E-10
       296  14  3.886325E+05 -1.985755E+03  1.656039E+04 -1.054843E+04  2.902564E-10 -5.871802E-10
       296  15  3.912936E+05 -5.440911E+02  9.943264E+03 -3.996487E+04 -3.172216E-10  2.687835E-11
       296  16  9.897375E+05  1.608996E+05  1.768334E+05 -4.361547E+04  4.529681E-10 -1.998964E-10
       296  17  9.118774E+05  1.277432E+05  1.423394E+05 -1.172449E+04  1.459534E-10 -1.201743E-10
       296  18  8.394437E+05  1.106079E+05  1.178897E+05 -3.865563E+04 -6.626116E-10 -2.298423E-10
       296  19 -2.068575E+05 -1.359667E+05 -1.113820E+05 -3.630153E+04 -2.503345E+04 -1.726694E+04
       296  20 -1.343618E+05 -1.317342E+05 -1.092370E+05 -9.373098E+03 -1.723375E+04 -1.577605E+04
       296  21 -5.667280E+04 -1.117105E+05 -9.801705E+04 -4.127300E+04 -9.428971E+03 -1.282441E+04
       296  22  3.912767E+05  1.247971E+04  3.273931E+04 -3.995659E+04 -2.468215E+04 -1.726590E+04
       296  23  3.886328E+05 -1.985417E+03  1.656135E+04 -1.054823E+04 -1.617399E+04 -1.577604E+04
       296  24  3.912937E+05 -5.438986E+02  9.943683E+03 -3.996479E+04 -7.661681E+03 -1.282593E+04
       296  25  9.897382E+05  1.609001E+05  1.768351E+05 -4.361513E+04 -2.433050E+04 -1.726486E+04
       296  26  9.118777E+05  1.277435E+05  1.423403E+05 -1.172430E+04 -1.511334E+04 -1.577603E+04
       296  27  8.394438E+05  1.106081E+05  1.178901E+05 -3.865557E+04 -5.893118E+03 -1.282744E+04
       297   1  4.869527E+04 -8.329751E+04 -7.416961E+04 -3.923315E+04  7.426596E+03  1.088099E+04
       297   2  1.227713E+05 -6.648318E+04 -5.996555E+04 -1.036756E+04  5.315019E+03  8.030528E+03
       297   3  1.974722E+05 -4.780307E+04 -4.394688E+04 -3.980360E+04  3.201311E+03  5.071790E+03
       297   4  3.902779E+05  1.399459E+03  7.803197E+03 -3.984395E+04  6.084999E+03  1.088238E+04
       297   5  3.899674E+05 -2.040373E+02  4.303313E+03 -1.069487E+04  3.920279E+03  8.032364E+03
       297   6  3.902854E+05  6.731601E+01  2.654421E+03 -3.984582E+04  1.753679E+03  5.074107E+03
       297   7  7.319673E+05  8.608796E+04  8.976773E+04 -4.045506E+04  4.742665E+03  1.088378E+04
       297   8  6.572289E+05  6.606991E+04  6.856710E+04 -1.102230E+04  2.524942E+03  8.034200E+03
       297   9  5.831326E+05  4.793498E+04  4.925306E+04 -3.988804E+04  3.055995E+02  5.076424E+03
       297  10  4.869518E+04 -8.329765E+04 -7.416993E+04 -3.923321E+04  1.781902E-10 -2.653611E-10
       297  11  1.227712E+05 -6.648326E+04 -5.996573E+04 -1.036759E+04  1.303990E-09  5.496865E-10
       297  12  1.974722E+05 -4.780310E+04 -4.394694E+04 -3.980361E+04 -4.801427E-10 -1.087662E-09
       297  13  3.902778E+05  1.399322E+03  7.802905E+03 -3.984401E+04 -4.026907E-10 -6.681223E-11
       297  14  3.899674E+05 -2.041107E+02  4.303163E+03 -1.069489E+04  6.621032E-10  1.170669E-09
       297  15  3.902854E+05  6.728753E+01  2.654367E+03 -3.984583E+04 -8.313603E-10  1.098405E-09
       297  16  7.319673E+05  8.608782E+04  8.976747E+04 -4.045510E+04  2.294838E-11 -1.614482E-10
       297  17  6.572288E+05  6.606984E+04  6.856697E+04 -1.102231E+04  7.070312E-11 -6.333881E-10
       297  18  5.831326E+05  4.793496E+04  4.925301E+04 -3.988805E+04 -2.187594E-10 -4.489688E-10
       297  19  4.869527E+04 -8.329751E+04 -7.416961E+04 -3.923315E+04 -7.426596E+03 -1.088099E+04
       297  20  1.227713E+05 -6.648318E+04 -5.996555E+04 -1.036756E+04 -5.315019E+03 -8.030528E+03
       297  21  1.974722E+05 -4.780307E+04 -4.394688E+04 -3.980360E+04 -3.201311E+03 -5.071790E+03
       297  22  3.902779E+05  1.399459E+03  7.803197E+03 -3.984395E+04 -6.084999E+03 -1.088238E+04
       297  23  3.899674E+05 -2.040373E+02  4.303313E+03 -1.069487E+04 -3.920279E+03 -8.032364E+03
       297  24  3.902854E+05  6.731601E+01  2.654421E+03 -3.984582E+04 -1.753679E+03 -5.074107E+03
       297  25  7.319673E+05  8.608796E+04  8.976773E+04 -4.045506E+04 -4.742665E+03 -1.088378E+04
       297  26  6.572289E+05  6.606991E+04  6.856710E+04 -1.102230E+04 -2.524942E+03 -8.034200E+03
       297  27  5.831326E+05  4.793498E+04  4.925306E+04 -3.988804E+04 -3.055995E+02 -5.076424E+03
       298   1  3.030439E+05 -2.129878E+04 -1.857766E+04 -3.968163E+04  2.732509E+03  3.333698E+03
       298   2  3.772161E+05 -3.205584E+03 -1.599636E+03 -1.073513E+04  1.979270E+03  3.863261E+02
       298   3  4.513445E+05  1.527450E+04  1.591249E+04 -3.989479E+04  1.225856E+03 -2.569011E+03
       298   4  3.901437E+05  2.594788E+02  2.145745E+03 -3.980197E+04  1.318567E+03  3.336102E+03
       298   5  3.901674E+05  6.536910E+00  1.515032E+03 -1.074903E+04  5.613597E+02  3.887461E+02
       298   6  3.901441E+05  1.418086E+02  1.421710E+03 -3.980218E+04 -1.959338E+02 -2.566556E+03
       298   7  4.772504E+05  2.181719E+04  2.286863E+04 -3.992233E+04 -9.557202E+01  3.338507E+03
       298   8  4.031189E+05  3.218647E+03  4.629696E+03 -1.076294E+04 -8.565800E+02  3.911660E+02
       298   9  3.289471E+05 -1.499115E+04 -1.306932E+04 -3.970957E+04 -1.617585E+03 -2.564101E+03
       298  10  3.030439E+05 -2.129879E+04 -1.857770E+04 -3.968164E+04 -7.087075E-11 -3.482358E-10
       298  11  3.772161E+05 -3.205586E+03 -1.599644E+03 -1.073513E+04  4.948713E-10  5.154578E-10
       298  12  4.513445E+05  1.527449E+04  1.591248E+04 -3.989479E+04  6.348738E-10 -5.863929E-10
       298  13  3.901437E+05  2.594663E+02  2.145720E+03 -3.980198E+04 -7.826352E-10 -1.454835E-09
       298  14  3.901674E+05  6.536663E+00  1.515031E+03 -1.074903E+04  1.463966E-10  7.792217E-10
       298  15  3.901441E+05  1.418015E+02  1.421698E+03 -3.980218E+04 -3.613826E-10 -1.342664E-09
       298  16  4.772504E+05  2.181718E+04  2.286861E+04 -3.992233E+04  7.241272E-10  1.627501E-10
       298  17  4.031189E+05  3.218647E+03  4.629694E+03 -1.076294E+04  2.854150E-10 -4.412397E-10
       298  18  3.289471E+05 -1.499116E+04 -1.306934E+04 -3.970957E+04 -7.371312E-10 -1.911407E-09
       298  19  3.030439E+05 -2.129878E+04 -1.857766E+04 -3.968163E+04 -2.732509E+03 -3.333698E+03
       298  20  3.772161E+05 -3.205584E+03 -1.599636E+03 -1.073513E+04 -1.979270E+03 -3.863261E+02
       298  21  4.513445E+05  1.527450E+04  1.591249E+04 -3.989479E+04 -1.225856E+03  2.569011E+03
       298  22  3.901437E+05  2.594788E+02  2.145745E+03 -3.980197E+04 -1.318567E+03 -3.336102E+03
       298  23  3.901674E+05  6.536910E+00  1.515032E+03 -1.074903E+04 -5.613597E+02 -3.887461E+02
       298  24  3.901441E+05  1.418086E+02  1.421710E+03 -3.980218E+04  1.959338E+02  2.566556E+03
       298  25  4.772504E+05  2.181719E+04  2.286863E+04 -3.992233E+04  9.557202E+01 -3.338507E+03
       298  26  4.031189E+05  3.218647E+03  4.629696E+03 -1.076294E+04  8.565800E+02 -3.911660E+02
       298  27  3.289471E+05 -1.499115E+04 -1.306932E+04 -3.970957E+04  1.617585E+03  2.564101E+03
       299   1  5.570789E+05  4.157108E+04  4.189999E+04 -4.001164E+04  9.561918E+02 -4.292723E+03
       299   2  6.313874E+05  5.980385E+04  6.012555E+04 -1.096014E+04 -9.936760E+01 -7.252265E+03
       299   3  7.058195E+05  7.853499E+04  7.913008E+04 -4.017091E+04 -1.153482E+03 -1.020848E+04
       299   4  3.901737E+05  1.349723E+02  1.536913E+03 -3.983722E+04 -4.669439E+02 -4.290384E+03
       299   5  3.901119E+05 -2.727442E+01  2.107944E+03 -1.070525E+04 -1.520639E+03 -7.250288E+03
       299   6  3.901673E+05  3.087329E+02  3.456934E+03 -3.983695E+04 -2.572766E+03 -1.020685E+04
       299   7  2.232940E+05 -4.130317E+04 -3.882815E+04 -3.966283E+04 -1.889698E+03 -4.288044E+03
       299   8  1.488897E+05 -5.986263E+04 -5.591380E+04 -1.045044E+04 -2.941361E+03 -7.248312E+03
       299   9  7.460633E+04 -7.792475E+04 -7.222326E+04 -3.950312E+04 -3.991331E+03 -1.020522E+04
       299  10  5.570789E+05  4.157106E+04  4.189995E+04 -4.001164E+04 -5.996674E-10  3.718360E-10
       299  11  6.313874E+05  5.980379E+04  6.012545E+04 -1.096014E+04  6.237770E-10  2.872867E-09
       299  12  7.058195E+05  7.853488E+04  7.912988E+04 -4.017092E+04  1.599487E-09 -1.846717E-09
       299  13  3.901737E+05  1.349525E+02  1.536878E+03 -3.983722E+04 -8.507752E-10 -3.519215E-10
       299  14  3.901119E+05 -2.733150E+01  2.107841E+03 -1.070526E+04  1.030278E-09 -3.061794E-10
       299  15  3.901673E+05  3.086192E+02  3.456725E+03 -3.983697E+04 -4.028773E-10  2.311317E-10
       299  16  2.232940E+05 -4.130319E+04 -3.882819E+04 -3.966284E+04  1.374673E-09 -4.326245E-10
       299  17  1.488897E+05 -5.986269E+04 -5.591391E+04 -1.045045E+04 -4.406965E-10 -3.043416E-10
       299  18  7.460628E+04 -7.792487E+04 -7.222349E+04 -3.950315E+04 -1.470890E-09 -1.256364E-10
       299  19  5.570789E+05  4.157108E+04  4.189999E+04 -4.001164E+04 -9.561918E+02  4.292723E+03
       299  20  6.313874E+05  5.980385E+04  6.012555E+04 -1.096014E+04  9.936760E+01  7.252265E+03
       299  21  7.058195E+05  7.853499E+04  7.913008E+04 -4.017091E+04  1.153482E+03  1.020848E+04
       299  22  3.901737E+05  1.349723E+02  1.536913E+03 -3.983722E+04  4.669439E+02  4.290384E+03
       299  23  3.901119E+05 -2.727442E+01  2.107944E+03 -1.070525E+04  1.520639E+03  7.250288E+03
       299  24  3.901673E+05  3.087329E+02  3.456934E+03 -3.983695E+04  2.572766E+03  1.020685E+04
       299  25  2.232940E+05 -4.130317E+04 -3.882815E+04 -3.966283E+04  1.889698E+03  4.288044E+03
       299  26  1.488897E+05 -5.986263E+04 -5.591380E+04 -1.045044E+04  2.941361E+03  7.248312E+03
       299  27  7.460633E+04 -7.792475E+04 -7.222326E+04 -3.950312E+04  3.991331E+03  1.020522E+04
       300   1  8.124379E+05  1.046551E+05  1.061224E+05 -3.999597E+04 -1.822699E+03 -1.196011E+04
       300   2  8.867542E+05  1.228149E+05  1.269196E+05 -1.095424E+04 -5.622247E+03 -1.493832E+04
       300   3  9.625300E+05  1.441163E+05  1.510073E+05 -4.069228E+04 -9.418915E+03 -1.778605E+04
       300   4  3.904401E+05 -2.362607E+01  4.434086E+03 -3.995308E+04 -3.285643E+03 -1.195880E+04
       300   5  3.897109E+05 -4.214897E+02  7.419953E+03 -1.056090E+04 -7.019884E+03 -1.493782E+04
       300   6  3.904261E+05  2.312904E+03  1.365344E+04 -3.995136E+04 -1.075079E+04 -1.778629E+04
       300   7 -3.139510E+04 -1.047154E+05 -9.726694E+04 -3.991017E+04 -4.747597E+03 -1.195749E+04
       300   8 -1.071065E+05 -1.236758E+05 -1.120972E+05 -1.016782E+04 -8.416405E+03 -1.493732E+04
       300   9 -1.813785E+05 -1.395143E+05 -1.237237E+05 -3.921108E+04 -1.208144E+04 -1.778654E+04
       300  10  8.124379E+05  1.046550E+05  1.061221E+05 -3.999598E+04 -6.452326E-10 -1.821257E-09
       300  11  8.867541E+05  1.228146E+05  1.269191E+05 -1.095431E+04 -7.679993E-11  1.042725E-09
       300  12  9.625299E+05  1.441160E+05  1.510066E+05 -4.069242E+04 -6.546386E-10  5.374507E-10
       300  13  3.904400E+05 -2.378257E+01  4.433797E+03 -3.995311E+04 -1.505249E-09  4.424240E-11
       300  14  3.897108E+05 -4.217425E+02  7.419441E+03 -1.056098E+04  8.058547E-10  1.886840E-14
       300  15  3.904259E+05  2.312533E+03  1.365263E+04 -3.995152E+04 -8.450289E-11 -3.488560E-10
       300  16 -3.139516E+04 -1.047155E+05 -9.726725E+04 -3.991022E+04  1.380253E-09 -2.287694E-10
       300  17 -1.071066E+05 -1.236761E+05 -1.120978E+05 -1.016792E+04  8.046604E-10  9.986419E-10
       300  18 -1.813788E+05 -1.395147E+05 -1.237246E+05 -3.921125E+04 -1.374766E-10 -1.501214E-10
       300  19  8.124379E+05  1.046551E+05  1.061224E+05 -3.999597E+04  1.822699E+03  1.196011E+04
       300  20  8.867542E+05  1.228149E+05  1.269196E+05 -1.095424E+04  5.622247E+03  1.493832E+04
       300  21  9.625300E+05  1.441163E+05  1.510073E+05 -4.069228E+04  9.418915E+03  1.778605E+04
       300  22  3.904401E+05 -2.362607E+01  4.434086E+03 -3.995308E+04  3.285643E+03  1.195880E+04
       300  23  3.897109E+05 -4.214897E+02  7.419953E+03 -1.056090E+04  7.019884E+03  1.493782E+04
       300  24  3.904261E+05  2.312904E+03  1.365344E+04 -3.995136E+04  1.075079E+04  1.778629E+04
       300  25 -3.139510E+04 -1.047154E+05 -9.726694E+04 -3.991017E+04  4.747597E+03  1.195749E+04
       300  26 -1.071065E+05 -1.236758E+05 -1.120972E+05 -1.016782E+04  8.416405E+03  1.493732E+04
       300  27 -1.813785E+05 -1.395143E+05 -1.237237E+05 -3.921108E+04  1.208144E+04  1.778654E+04
       301   1  1.071964E+06  1.674444E+05  1.810385E+05 -3.733883E+04 -1.164041E+04 -1.980593E+04
       301   2  1.143273E+06  1.838344E+05  2.107746E+05 -1.176249E+04 -2.748854E+04 -2.279554E+04
       301   3  1.224358E+06  2.281871E+05  2.579543E+05 -4.582612E+04 -4.333473E+04 -2.395234E+04
       301   4  3.922074E+05 -1.110069E+03  1.743573E+04 -4.014200E+04 -1.350991E+04 -1.980655E+04
       301   5  3.873805E+05 -3.546625E+03  2.909431E+04 -1.032453E+04 -2.846077E+04 -2.279752E+04
       301   6  3.921818E+05  2.184348E+04  5.758968E+04 -4.015109E+04 -4.340775E+04 -2.395490E+04
       301   7 -2.871266E+05 -1.696982E+05 -1.461999E+05 -4.294204E+04 -1.537736E+04 -1.980714E+04
       301   8 -3.679898E+05 -1.909692E+05 -1.526266E+05 -8.888334E+03 -2.943179E+04 -2.279951E+04
       301   9 -4.393620E+05 -1.845505E+05 -1.428243E+05 -3.448375E+04 -4.348065E+04 -2.395746E+04
       301  10  1.071963E+06  1.674440E+05  1.810375E+05 -3.733902E+04 -6.776232E-10  3.015360E-11
       301  11  1.143272E+06  1.838337E+05  2.107722E+05 -1.176299E+04  3.391075E-09  4.836414E-10
       301  12  1.224356E+06  2.281860E+05  2.579497E+05 -4.582696E+04  3.421828E-09  4.588721E-10
       301  13  3.922071E+05 -1.110539E+03  1.743465E+04 -4.014222E+04 -4.551742E-10 -6.826046E-10
       301  14  3.873795E+05 -3.547400E+03  2.909181E+04 -1.032505E+04 -4.905791E-10 -1.063019E-09
       301  15  3.921796E+05  2.184236E+04  5.758506E+04 -4.015193E+04  2.913809E-10  4.141998E-10
       301  16 -2.871270E+05 -1.696987E+05 -1.462011E+05 -4.294229E+04  3.778354E-10 -8.150081E-10
       301  17 -3.679909E+05 -1.909700E+05 -1.526292E+05 -8.888875E+03 -2.854349E-09 -1.064249E-09
       301  18 -4.393642E+05 -1.845516E+05 -1.428289E+05 -3.448459E+04 -3.675891E-09  7.003322E-10
       301  19  1.071964E+06  1.674444E+05  1.810385E+05 -3.733883E+04  1.164041E+04  1.980593E+04
       301  20  1.143273E+06  1.838344E+05  2.107746E+05 -1.176249E+04  2.748854E+04  2.279554E+04
       301  21  1.224358E+06  2.281871E+05  2.579543E+05 -4.582612E+04  4.333473E+04  2.395234E+04
       301  22  3.922074E+05 -1.110069E+03  1.743573E+04 -4.014200E+04  1.350991E+04  1.980655E+04
       301  23  3.873805E+05 -3.546625E+03  2.909431E+04 -1.032453E+04  2.846077E+04  2.279752E+04
       301  24  3.921818E+05  2.184348E+04  5.758968E+04 -4.015109E+04  4.340775E+04  2.395490E+04
       301  25 -2.871266E+05 -1.696982E+05 -1.461999E+05 -4.294204E+04  1.537736E+04  1.980714E+04
       301  26 -3.679898E+05 -1.909692E+05 -1.526266E+05 -8.888334E+03  2.943179E+04  2.279951E+04
       301  27 -4.393620E+05 -1.845505E+05 -1.428243E+05 -3.448375E+04  4.348065E+04  2.395746E+04
       302   1  1.347949E+06  2.230288E+05  2.966403E+05 -1.342159E+04 -4.756960E+04 -2.913357E+04
       302   2  1.388766E+06  2.215671E+05  3.567048E+05 -2.651298E+04 -1.195667E+05 -3.182012E+04
       302   3  1.504318E+06  4.757320E+05  5.277857E+05 -1.003380E+05 -1.916212E+05 -1.096537E+04
       302   4  4.061896E+05 -1.041404E+04  7.052687E+04 -4.026802E+04 -5.442953E+04 -2.914046E+04
       302   5  3.697261E+05 -3.089220E+04  1.121176E+05 -1.011008E+04 -1.150216E+05 -3.181992E+04
       302   6  4.061313E+05  2.024959E+05  2.569338E+05 -4.068329E+04 -1.756605E+05 -1.095103E+04
       302   7 -5.347578E+05 -2.439187E+05 -1.556490E+05 -6.707379E+04 -6.127907E+04 -2.914677E+04
       302   8 -6.483635E+05 -2.834259E+05 -1.325430E+05  6.265473E+03 -1.104838E+05 -3.181947E+04
       302   9 -6.909522E+05 -7.081611E+04 -1.400438E+04  1.886539E+04 -1.597277E+05 -1.093362E+04
       302  10  1.347947E+06  2.230273E+05  2.966345E+05 -1.342271E+04 -4.184363E-09  1.040937E-09
       302  11  1.388750E+06  2.215622E+05  3.566761E+05 -2.651604E+04 -3.407676E-09 -5.049445E-10
       302  12  1.504278E+06  4.757220E+05  5.277166E+05 -1.003397E+05  1.406778E-10 -6.548739E-10
       302  13  4.061862E+05 -1.041575E+04  7.051971E+04 -4.026930E+04  3.631363E-10  2.163639E-09
       302  14  3.697116E+05 -3.089683E+04  1.120909E+05 -1.011303E+04  7.387011E-13  2.253364E-09
       302  15  4.060981E+05  2.024875E+05  2.568756E+05 -4.068484E+04  1.275898E-09 -4.678286E-10
       302  16 -5.347620E+05 -2.439206E+05 -1.556576E+05 -6.707523E+04  3.709608E-09  9.989009E-10
       302  17 -6.483769E+05 -2.834302E+05 -1.325679E+05  6.262641E+03  3.169394E-09  9.167680E-11
       302  18 -6.909796E+05 -7.082309E+04 -1.405260E+04  1.886398E+04 -3.563870E-10 -1.073657E-09
       302  19  1.347949E+06  2.230288E+05  2.966403E+05 -1.342159E+04  4.756960E+04  2.913357E+04
       302  20  1.388766E+06  2.215671E+05  3.567048E+05 -2.651298E+04  1.195667E+05  3.182012E+04
       302  21  1.504318E+06  4.757320E+05  5.277857E+05 -1.003380E+05  1.916212E+05  1.096537E+04
       302  22  4.061896E+05 -1.041404E+04  7.052687E+04 -4.026802E+04  5.442953E+04  2.914046E+04
       302  23  3.697261E+05 -3.089220E+04  1.121176E+05 -1.011008E+04  1.150216E+05  3.181992E+04
       302  24  4.061313E+05  2.024959E+05  2.569338E+05 -4.068329E+04  1.756605E+05  1.095103E+04
       302  25 -5.347578E+05 -2.439187E+05 -1.556490E+05 -6.707379E+04  6.127907E+04  2.914677E+04
       302  26 -6.483635E+05 -2.834259E+05 -1.325430E+05  6.265473E+03  1.104838E+05  3.181947E+04
       302  27 -6.909522E+05 -7.081611E+04 -1.400438E+04  1.886539E+04  1.597277E+05  1.093362E+04
       303   1  2.219082E+05  7.625907E+05  2.434417E+05 -1.035442E+05  4.658999E+03  8.123485E+04
       303   2  8.595130E+04  6.010142E+05  1.432257E+05 -2.804521E+04  1.249900E+04  4.921023E+04
       303   3  5.876365E+04  4.706323E+05  9.099802E+04 -6.643647E+04  7.134837E+03  1.717499E+04
       303   4  8.588466E+04  2.172763E+05  1.086677E+05 -7.710962E+04  4.670630E+03  7.427660E+04
       303   5 -1.293680E+04  2.022397E+05  4.750238E+04 -2.021708E+04  1.250093E+04  4.861656E+04
       303   6 -4.051695E+03  2.173039E+05  2.993883E+04 -7.721483E+04  7.125219E+03  2.293826E+04
       303   7 -5.015849E+04 -3.277666E+05 -2.612786E+04 -5.069814E+04  4.681676E+03  6.732442E+04
       303   8 -1.118362E+05 -1.963892E+05 -4.823220E+04 -1.239395E+04  1.250283E+04  4.802327E+04
       303   9 -6.687125E+04 -3.596539E+04 -3.112475E+04 -8.798874E+04  7.115399E+03  2.869920E+04
       303  10  2.219064E+05  7.625836E+05  2.434292E+05 -1.035445E+05  2.736515E-10 -2.240197E-10
       303  11  8.595048E+04  6.010115E+05  1.432209E+05 -2.804570E+04  6.414273E-10 -7.361975E-10
       303  12  5.876351E+04  4.706319E+05  9.099737E+04 -6.643657E+04  3.630881E-10 -1.702879E-10
       303  13  8.588316E+04  2.172703E+05  1.086573E+05 -7.710989E+04 -9.582902E-11 -2.976256E-10
       303  14 -1.293760E+04  2.022371E+05  4.749764E+04 -2.021757E+04 -9.240808E-10  1.706154E-10
       303  15 -4.051891E+03  2.173034E+05  2.993775E+04 -7.721496E+04  2.235785E-10 -7.967103E-10
       303  16 -5.015973E+04 -3.277715E+05 -2.613642E+04 -5.069840E+04 -1.425860E-10  2.259775E-10
       303  17 -1.118370E+05 -1.963917E+05 -4.823683E+04 -1.239443E+04 -9.446038E-10  1.374956E-09
       303  18 -6.687153E+04 -3.596629E+04 -3.112639E+04 -8.798891E+04  3.496879E-11  1.688563E-10
       303  19  2.219082E+05  7.625907E+05  2.434417E+05 -1.035442E+05 -4.658999E+03 -8.123485E+04
       303  20  8.595130E+04  6.010142E+05  1.432257E+05 -2.804521E+04 -1.249900E+04 -4.921023E+04
       303  21  5.876365E+04  4.706323E+05  9.099802E+04 -6.643647E+04 -7.134837E+03 -1.717499E+04
       303  22  8.588466E+04  2.172763E+05  1.086677E+05 -7.710962E+04 -4.670630E+03 -7.427660E+04
       303  23 -1.293680E+04  2.022397E+05  4.750238E+04 -2.021708E+04 -1.250093E+04 -4.861656E+04
       303  24 -4.051695E+03  2.173039E+05  2.993883E+04 -7.721483E+04 -7.125219E+03 -2.293826E+04
       303  25 -5.015849E+04 -3.277666E+05 -2.612786E+04 -5.069814E+04 -4.681676E+03 -6.732442E+04
       303  26 -1.118362E+05 -1.963892E+05 -4.823220E+04 -1.239395E+04 -1.250283E+04 -4.802327E+04
       303  27 -6.687125E+04 -3.596539E+04 -3.112475E+04 -8.798874E+04 -7.115399E+03 -2.869920E+04
       304   1  2.084178E+04  2.569824E+05  3.536894E+04 -7.986397E+04  1.651638E+03  1.591086E+04
       304   2 -2.626608E+04  1.095088E+05 -1.151009E+04 -2.066672E+04 -3.040496E+03  9.597683E+03
       304   3 -6.095152E+04 -3.444032E+04 -5.126881E+04 -7.558753E+04 -7.410775E+03  3.287595E+03
       304   4  9.547013E+03  2.114154E+05  2.450300E+04 -7.721984E+04  1.647733E+03  1.824644E+04
       304   5 -1.427089E+03  2.096471E+05  1.257430E+04 -2.016935E+04 -3.043933E+03  1.177921E+04
       304   6  4.916309E+01  2.114117E+05  7.875551E+03 -7.723529E+04 -7.413786E+03  5.313602E+03
       304   7 -1.747879E+03  1.658504E+05  1.363694E+04 -7.457590E+04  1.643848E+03  2.058186E+04
       304   8  2.341118E+04  3.097946E+05  3.665800E+04 -1.967190E+04 -3.047366E+03  1.396108E+04
       304   9  6.104545E+04  4.573191E+05  6.701562E+04 -7.888368E+04 -7.416806E+03  7.340408E+03
       304  10  2.084171E+04  2.569821E+05  3.536846E+04 -7.986399E+04 -4.023559E-10 -5.506574E-10
       304  11 -2.626611E+04  1.095087E+05 -1.151028E+04 -2.066669E+04  7.209946E-10 -9.975385E-10
       304  12 -6.095158E+04 -3.444034E+04 -5.126893E+04 -7.558751E+04 -7.106526E-10 -9.171311E-11
       304  13  9.546921E+03  2.114151E+05  2.450237E+04 -7.721986E+04 -1.187131E-10 -4.163108E-10
       304  14 -1.427136E+03  2.096469E+05  1.257403E+04 -2.016932E+04  5.252425E-10 -1.228886E-10
       304  15  4.909649E+01  2.114117E+05  7.875395E+03 -7.723526E+04  1.157685E-09 -8.617299E-10
       304  16 -1.747995E+03  1.658500E+05  1.363614E+04 -7.457593E+04 -5.885158E-11  5.901029E-10
       304  17  2.341111E+04  3.097944E+05  3.665762E+04 -1.967187E+04 -9.658586E-10  1.589874E-09
       304  18  6.104538E+04  4.573190E+05  6.701542E+04 -7.888364E+04 -1.293837E-10  1.310268E-10
       304  19  2.084178E+04  2.569824E+05  3.536894E+04 -7.986397E+04 -1.651638E+03 -1.591086E+04
       304  20 -2.626608E+04  1.095088E+05 -1.151009E+04 -2.066672E+04  3.040496E+03 -9.597683E+03
       304  21 -6.095152E+04 -3.444032E+04 -5.126881E+04 -7.558753E+04  7.410775E+03 -3.287595E+03
       304  22  9.547013E+03  2.114154E+05  2.450300E+04 -7.721984E+04 -1.647733E+03 -1.824644E+04
       304  23 -1.427089E+03  2.096471E+05  1.257430E+04 -2.016935E+04  3.043933E+03 -1.177921E+04
       304  24  4.916309E+01  2.114117E+05  7.875551E+03 -7.723529E+04  7.413786E+03 -5.313602E+03
       304  25 -1.747879E+03  1.658504E+05  1.363694E+04 -7.457590E+04 -1.643848E+03 -2.058186E+04
       304  26  2.341118E+04  3.097946E+05  3.665800E+04 -1.967190E+04  3.047366E+03 -1.396108E+04
       304  27  6.104545E+04  4.573191E+05  6.701562E+04 -7.888368E+04  7.416806E+03 -7.340408E+03
       305   1 -1.115176E+05 -2.426766E+05 -1.028179E+05 -7.729533E+04 -1.343283E+04 -2.691453E+03
       305   2 -1.492771E+05 -3.890166E+05 -1.399286E+05 -1.950631E+04 -1.878505E+04  3.555411E+03
       305   3 -1.831343E+05 -5.349996E+05 -1.801029E+05 -7.573772E+04 -6.766964E+03  9.816997E+03
       305   4  1.060332E+03  2.109813E+05  6.401549E+03 -7.720778E+04 -1.344195E+04  4.042068E+03
       305   5 -6.575337E+02  2.100752E+05  3.994334E+03 -2.020063E+04 -1.878222E+04  1.954385E+03
       305   6  2.973214E+03  2.109512E+05  4.312562E+03 -7.720693E+04 -6.759576E+03 -1.169673E+02
       305   7  1.136233E+05  6.648277E+05  1.156065E+05 -7.712009E+04 -1.345106E+04  1.078049E+04
       305   8  1.479359E+05  8.094956E+05  1.478918E+05 -2.089553E+04 -1.877938E+04  3.518180E+02
       305   9  1.890392E+05  9.574082E+05  1.886871E+05 -7.867779E+04 -6.752146E+03 -1.006286E+04
       305  10 -1.115178E+05 -2.426767E+05 -1.028183E+05 -7.729536E+04 -2.433837E-10 -3.871210E-10
       305  11 -1.492775E+05 -3.890167E+05 -1.399293E+05 -1.950626E+04  2.709881E-10 -4.801533E-10
       305  12 -1.831344E+05 -5.349997E+05 -1.801032E+05 -7.573767E+04 -8.761865E-11  9.990736E-11
       305  13  1.060134E+03  2.109813E+05  6.401179E+03 -7.720774E+04 -8.504849E-10 -2.945545E-10
       305  14 -6.579136E+02  2.100751E+05  3.993664E+03 -2.020060E+04  1.177656E-10  2.945298E-11
       305  15  2.973164E+03  2.109512E+05  4.312476E+03 -7.720693E+04 -8.365203E-11 -1.814147E-10
       305  16  1.136231E+05  6.648275E+05  1.156060E+05 -7.711997E+04  1.565247E-10  3.646757E-10
       305  17  1.479355E+05  8.094955E+05  1.478911E+05 -2.089552E+04 -4.750697E-10  7.973963E-10
       305  18  1.890392E+05  9.574080E+05  1.886868E+05 -7.867784E+04 -5.596767E-10 -1.089553E-10
       305  19 -1.115176E+05 -2.426766E+05 -1.028179E+05 -7.729533E+04  1.343283E+04  2.691453E+03
       305  20 -1.492771E+05 -3.890166E+05 -1.399286E+05 -1.950631E+04  1.878505E+04 -3.555411E+03
       305  21 -1.831343E+05 -5.349996E+05 -1.801029E+05 -7.573772E+04  6.766964E+03 -9.816997E+03
       305  22  1.060332E+03  2.109813E+05  6.401549E+03 -7.720778E+04  1.344195E+04 -4.042068E+03
       305  23 -6.575337E+02  2.100752E+05  3.994334E+03 -2.020063E+04  1.878222E+04 -1.954385E+03
       305  24  2.973214E+03  2.109512E+05  4.312562E+03 -7.720693E+04  6.759576E+03  1.169673E+02
       305  25  1.136233E+05  6.648277E+05  1.156065E+05 -7.712009E+04  1.345106E+04 -1.078049E+04
       305  26  1.479359E+05  8.094956E+05  1.478918E+05 -2.089553E+04  1.877938E+04 -3.518180E+02
       305  27  1.890392E+05  9.574082E+05  1.886871E+05 -7.867779E+04  6.752146E+03  1.006286E+04
       306   1 -1.689783E+06 -5.450703E+05 -3.488453E+05 -5.914893E+05 -1.670555E+05 -5.870194E+04
       306   2 -1.642405E+06 -2.956523E+05 -1.930020E+05 -6.136921E+05 -1.084852E+05 -2.849212E+04
       306   3 -1.679349E+06 -2.913908E+05 -1.468231E+05 -5.886072E+05 -4.691452E+04 -6.259931E+03
       306   4 -1.377745E+06 -3.752254E+05 -2.534577E+05 -4.531816E+05 -1.621031E+05 -5.685778E+04
       306   5 -1.322852E+06 -1.607304E+05 -1.054068E+05 -5.114818E+05 -1.070856E+05 -2.796992E+04
       306   6 -1.351531E+06 -1.906181E+05 -6.415761E+04 -5.225078E+05 -4.906806E+04 -7.066750E+03
       306   7 -1.065606E+06 -2.053382E+05 -1.580794E+05 -3.148006E+05 -1.571480E+05 -5.501153E+04
       306   8 -1.003200E+06 -2.579484E+04 -1.782100E+04 -4.092214E+05 -1.056852E+05 -2.744734E+04
       306   9 -1.023609E+06 -8.984678E+04  1.849956E+04 -4.563810E+05 -5.122283E+04 -7.873838E+03
       306  10 -1.689814E+06 -5.450815E+05 -3.489044E+05 -5.914972E+05 -5.792060E-10  1.525167E-11
       306  11 -1.642418E+06 -2.956564E+05 -1.930257E+05 -6.136946E+05 -7.383375E-10  7.755086E-11
       306  12 -1.679351E+06 -2.913914E+05 -1.468273E+05 -5.886074E+05  5.354099E-10  3.788262E-11
       306  13 -1.377775E+06 -3.752359E+05 -2.535133E+05 -4.531891E+05 -4.384946E-10 -1.162098E-10
       306  14 -1.322865E+06 -1.607343E+05 -1.054299E+05 -5.114843E+05  1.012767E-09  5.160719E-11
       306  15 -1.351533E+06 -1.906188E+05 -6.416224E+04 -5.225081E+05 -2.562234E-10 -7.570022E-11
       306  16 -1.065633E+06 -2.053481E+05 -1.581316E+05 -3.148075E+05  5.641723E-11  1.824830E-10
       306  17 -1.003212E+06 -2.579865E+04 -1.784345E+04 -4.092238E+05  2.170457E-10 -9.454990E-13
       306  18 -1.023612E+06 -8.984755E+04  1.849450E+04 -4.563813E+05  8.442341E-12 -4.113238E-10
       306  19 -1.689783E+06 -5.450703E+05 -3.488453E+05 -5.914893E+05  1.670555E+05  5.870194E+04
       306  20 -1.642405E+06 -2.956523E+05 -1.930020E+05 -6.136921E+05  1.084852E+05  2.849212E+04
       306  21 -1.679349E+06 -2.913908E+05 -1.468231E+05 -5.886072E+05  4.691452E+04  6.259931E+03
       306  22 -1.377745E+06 -3.752254E+05 -2.534577E+05 -4.531816E+05  1.621031E+05  5.685778E+04
       306  23 -1.322852E+06 -1.607304E+05 -1.054068E+05 -5.114818E+05  1.070856E+05  2.796992E+04
       306  24 -1.351531E+06 -1.906181E+05 -6.415761E+04 -5.225078E+05  4.906806E+04  7.066750E+03
       306  25 -1.065606E+06 -2.053382E+05 -1.580794E+05 -3.148006E+05  1.571480E+05  5.501153E+04
       306  26 -1.003200E+06 -2.579484E+04 -1.782100E+04 -4.092214E+05  1.056852E+05  2.744734E+04
       306  27 -1.023609E+06 -8.984678E+04  1.849956E+04 -4.563810E+05  5.122283E+04  7.873838E+03
       307   1 -1.618913E+06 -3.270852E+05 -1.267977E+05 -5.883233E+05 -3.932541E+04 -5.291669E+03
       307   2 -1.599669E+06 -2.857403E+05 -9.355174E+04 -5.788748E+05 -2.595145E+04 -5.146656E+02
       307   3 -1.579072E+06 -2.841054E+05 -7.747374E+04 -5.777212E+05 -1.230818E+04  3.545502E+03
       307   4 -1.342928E+06 -2.178056E+05 -5.228414E+04 -5.075637E+05 -3.927116E+04 -5.272023E+03
       307   5 -1.342153E+06 -1.875179E+05 -2.488528E+04 -5.073379E+05 -2.621310E+04 -6.131333E+02
       307   6 -1.339958E+06 -1.968704E+05 -1.439772E+04 -5.154077E+05 -1.288624E+04  3.328675E+03
       307   7 -1.066868E+06 -1.085190E+05  2.222282E+04 -4.267707E+05 -3.921688E+04 -5.252364E+03
       307   8 -1.084573E+06 -8.929103E+04  4.377547E+04 -4.357738E+05 -2.647487E+04 -7.116465E+02
       307   9 -1.100790E+06 -1.096328E+05  4.867342E+04 -4.530730E+05 -1.346454E+04  3.111764E+03
       307  10 -1.618915E+06 -3.270856E+05 -1.268007E+05 -5.883235E+05 -2.479372E-10 -1.298169E-10
       307  11 -1.599670E+06 -2.857404E+05 -9.355301E+04 -5.788749E+05  3.163740E-10  1.072141E-10
       307  12 -1.579072E+06 -2.841055E+05 -7.747404E+04 -5.777212E+05  3.730810E-11  1.991400E-10
       307  13 -1.342929E+06 -2.178061E+05 -5.228710E+04 -5.075639E+05  2.732448E-10 -2.459773E-10
       307  14 -1.342154E+06 -1.875181E+05 -2.488658E+04 -5.073379E+05 -4.824296E-10 -1.688700E-10
       307  15 -1.339958E+06 -1.968705E+05 -1.439805E+04 -5.154077E+05 -2.490642E-10 -4.596090E-11
       307  16 -1.066870E+06 -1.085195E+05  2.221987E+04 -4.267708E+05  2.810129E-11 -2.150331E-10
       307  17 -1.084574E+06 -8.929122E+04  4.377415E+04 -4.357739E+05  1.146134E-10  1.852420E-10
       307  18 -1.100790E+06 -1.096329E+05  4.867306E+04 -4.530729E+05 -3.945325E-10 -5.599170E-11
       307  19 -1.618913E+06 -3.270852E+05 -1.267977E+05 -5.883233E+05  3.932541E+04  5.291669E+03
       307  20 -1.599669E+06 -2.857403E+05 -9.355174E+04 -5.788748E+05  2.595145E+04  5.146656E+02
       307  21 -1.579072E+06 -2.841054E+05 -7.747374E+04 -5.777212E+05  1.230818E+04 -3.545502E+03
       307  22 -1.342928E+06 -2.178056E+05 -5.228414E+04 -5.075637E+05  3.927116E+04  5.272023E+03
       307  23 -1.342153E+06 -1.875179E+05 -2.488528E+04 -5.073379E+05  2.621310E+04  6.131333E+02
       307  24 -1.339958E+06 -1.968704E+05 -1.439772E+04 -5.154077E+05  1.288624E+04 -3.328675E+03
       307  25 -1.066868E+06 -1.085190E+05  2.222282E+04 -4.267707E+05  3.921688E+04  5.252364E+03
       307  26 -1.084573E+06 -8.929103E+04  4.377547E+04 -4.357738E+05  2.647487E+04  7.116465E+02
       307  27 -1.100790E+06 -1.096328E+05  4.867342E+04 -4.530730E+05  1.346454E+04 -3.111764E+03
       308   1 -1.540892E+06 -2.766053E+05 -6.502421E+04 -5.694512E+05 -1.017254E+04  3.600958E+03
       308   2 -1.524198E+06 -2.578972E+05 -5.347577E+04 -5.555298E+05 -6.839989E+03  3.807848E+03
       308   3 -1.494943E+06 -2.562697E+05 -4.496668E+04 -5.570221E+05 -3.475827E+03  3.929385E+03
       308   4 -1.338638E+06 -2.000923E+05 -1.127050E+04 -5.139000E+05 -1.056498E+04  3.453735E+03
       308   5 -1.344755E+06 -1.903784E+05 -5.800308E+03 -5.066333E+05 -7.269737E+03  3.646756E+03
       308   6 -1.338303E+06 -1.977371E+05 -3.339049E+03 -5.147803E+05 -3.943009E+03  3.754388E+03
       308   7 -1.136345E+06 -1.235769E+05  4.247951E+04 -4.583326E+05 -1.095755E+04  3.306460E+03
       308   8 -1.165280E+06 -1.228578E+05  4.187235E+04 -4.577240E+05 -7.699622E+03  3.485612E+03
       308   9 -1.181638E+06 -1.392030E+05  3.828657E+04 -4.725288E+05 -4.410322E+03  3.579343E+03
       308  10 -1.540892E+06 -2.766053E+05 -6.502443E+04 -5.694511E+05  1.667146E-10 -3.659634E-11
       308  11 -1.524198E+06 -2.578972E+05 -5.347588E+04 -5.555298E+05  3.165623E-10  1.434449E-10
       308  12 -1.494943E+06 -2.562697E+05 -4.496674E+04 -5.570221E+05  6.564401E-11  7.840218E-10
       308  13 -1.338638E+06 -2.000923E+05 -1.127073E+04 -5.139000E+05  2.094229E-10 -8.563826E-12
       308  14 -1.344755E+06 -1.903785E+05 -5.800432E+03 -5.066333E+05  3.744103E-10  4.470826E-10
       308  15 -1.338303E+06 -1.977371E+05 -3.339105E+03 -5.147803E+05 -2.889763E-10 -5.459768E-11
       308  16 -1.136345E+06 -1.235770E+05  4.247927E+04 -4.583326E+05 -6.110197E-10 -2.254891E-10
       308  17 -1.165280E+06 -1.228578E+05  4.187222E+04 -4.577240E+05 -3.679935E-10  5.487090E-11
       308  18 -1.181638E+06 -1.392030E+05  3.828651E+04 -4.725288E+05 -1.417024E-10  5.819526E-12
       308  19 -1.540892E+06 -2.766053E+05 -6.502421E+04 -5.694512E+05  1.017254E+04 -3.600958E+03
       308  20 -1.524198E+06 -2.578972E+05 -5.347577E+04 -5.555298E+05  6.839989E+03 -3.807848E+03
       308  21 -1.494943E+06 -2.562697E+05 -4.496668E+04 -5.570221E+05  3.475827E+03 -3.929385E+03
       308  22 -1.338638E+06 -2.000923E+05 -1.127050E+04 -5.139000E+05  1.056498E+04 -3.453735E+03
       308  23 -1.344755E+06 -1.903784E+05 -5.800308E+03 -5.066333E+05  7.269737E+03 -3.646756E+03
       308  24 -1.338303E+06 -1.977371E+05 -3.339049E+03 -5.147803E+05  3.943009E+03 -3.754388E+03
       308  25 -1.136345E+06 -1.235769E+05  4.247951E+04 -4.583326E+05  1.095755E+04 -3.306460E+03
       308  26 -1.165280E+06 -1.228578E+05  4.187235E+04 -4.577240E+05  7.699622E+03 -3.485612E+03
       308  27 -1.181638E+06 -1.392030E+05  3.828657E+04 -4.725288E+05  4.410322E+03 -3.579343E+03
       309   1 -1.457661E+06 -2.431662E+05 -3.430808E+04 -5.473078E+05 -2.777505E+03  3.507510E+03
       309   2 -1.440702E+06 -2.264153E+05 -2.692356E+04 -5.323411E+05 -1.598917E+03  2.787000E+03
       309   3 -1.409298E+06 -2.247170E+05 -2.022991E+04 -5.341612E+05 -4.133293E+02  2.047050E+03
       309   4 -1.338011E+06 -1.982038E+05 -2.616024E+03 -5.147411E+05 -3.230398E+03  3.337924E+03
       309   5 -1.345216E+06 -1.905572E+05 -1.568697E+03 -5.063928E+05 -2.060366E+03  2.614270E+03
       309   6 -1.337976E+06 -1.979611E+05 -1.205260E+03 -5.148312E+05 -8.833706E+02  1.871169E+03
       309   7 -1.218348E+06 -1.532405E+05  2.907479E+04 -4.821687E+05 -3.683386E+03  3.168301E+03
       309   8 -1.249722E+06 -1.546985E+05  2.378534E+04 -4.804409E+05 -2.521891E+03  2.441511E+03
       309   9 -1.266649E+06 -1.712050E+05  1.781889E+04 -4.954993E+05 -1.353470E+03  1.695265E+03
       309  10 -1.457661E+06 -2.431662E+05 -3.430811E+04 -5.473078E+05 -1.905119E-10  5.607643E-10
       309  11 -1.440702E+06 -2.264153E+05 -2.692358E+04 -5.323411E+05  6.856492E-10  5.781198E-10
       309  12 -1.409298E+06 -2.247170E+05 -2.022992E+04 -5.341612E+05  9.407118E-11  5.820128E-10
       309  13 -1.338011E+06 -1.982038E+05 -2.616065E+03 -5.147411E+05 -6.461895E-10 -2.832720E-10
       309  14 -1.345216E+06 -1.905572E+05 -1.568718E+03 -5.063928E+05  9.963259E-10  9.327935E-10
       309  15 -1.337976E+06 -1.979611E+05 -1.205268E+03 -5.148312E+05 -1.836902E-10 -1.936038E-10
       309  16 -1.218348E+06 -1.532405E+05  2.907474E+04 -4.821687E+05 -3.378565E-10 -9.619477E-11
       309  17 -1.249722E+06 -1.546986E+05  2.378531E+04 -4.804409E+05 -1.735971E-10  1.930856E-10
       309  18 -1.266649E+06 -1.712050E+05  1.781888E+04 -4.954993E+05 -1.643511E-10 -5.100877E-11
       309  19 -1.457661E+06 -2.431662E+05 -3.430808E+04 -5.473078E+05  2.777505E+03 -3.507510E+03
       309  20 -1.440702E+06 -2.264153E+05 -2.692356E+04 -5.323411E+05  1.598917E+03 -2.787000E+03
       309  21 -1.409298E+06 -2.247170E+05 -2.022991E+04 -5.341612E+05  4.133293E+02 -2.047050E+03
       309  22 -1.338011E+06 -1.982038E+05 -2.616024E+03 -5.147411E+05  3.230398E+03 -3.337924E+03
       309  23 -1.345216E+06 -1.905572E+05 -1.568697E+03 -5.063928E+05  2.060366E+03 -2.614270E+03
       309  24 -1.337976E+06 -1.979611E+05 -1.205260E+03 -5.148312E+05  8.833706E+02 -1.871169E+03
       309  25 -1.218348E+06 -1.532405E+05  2.907479E+04 -4.821687E+05  3.683386E+03 -3.168301E+03
       309  26 -1.249722E+06 -1.546985E+05  2.378534E+04 -4.804409E+05  2.521891E+03 -2.441511E+03
       309  27 -1.266649E+06 -1.712050E+05  1.781889E+04 -4.954993E+05  1.353470E+03 -1.695265E+03
       310   1 -1.371281E+06 -2.105659E+05 -9.953287E+03 -5.239970E+05  1.278309E+01  1.509932E+03
       310   2 -1.354062E+06 -1.937865E+05 -3.762548E+03 -5.086972E+05  1.123568E+03  7.312837E+02
       310   3 -1.322144E+06 -1.922647E+05  1.802833E+03 -5.104849E+05  2.233540E+03 -4.515496E+01
       310   4 -1.337921E+06 -1.980225E+05 -1.182821E+03 -5.148919E+05 -4.576486E+02  1.333929E+03
       310   5 -1.345283E+06 -1.904902E+05 -1.431608E+03 -5.063118E+05  6.541260E+02  5.556540E+02
       310   6 -1.337948E+06 -1.982158E+05 -2.306630E+03 -5.148196E+05  1.765055E+03 -2.204203E+02
       310   7 -1.304560E+06 -1.854790E+05  7.587575E+03 -5.057863E+05 -9.281092E+02  1.157915E+03
       310   8 -1.336504E+06 -1.871939E+05  8.993307E+02 -5.039264E+05  1.846763E+02  3.800213E+02
       310   9 -1.353752E+06 -2.041670E+05 -6.416114E+03 -5.191543E+05  1.296583E+03 -3.956806E+02
       310  10 -1.371281E+06 -2.105659E+05 -9.953291E+03 -5.239970E+05 -2.487923E-10  3.864771E-10
       310  11 -1.354062E+06 -1.937865E+05 -3.762552E+03 -5.086972E+05  5.033692E-10  7.547327E-10
       310  12 -1.322144E+06 -1.922647E+05  1.802823E+03 -5.104849E+05  1.078926E-10 -3.454514E-10
       310  13 -1.337921E+06 -1.980225E+05 -1.182825E+03 -5.148919E+05 -3.662638E-10 -3.646839E-10
       310  14 -1.345283E+06 -1.904902E+05 -1.431609E+03 -5.063118E+05 -1.142906E-09 -1.425502E-09
       310  15 -1.337948E+06 -1.982158E+05 -2.306636E+03 -5.148196E+05  7.079535E-11  1.807570E-10
       310  16 -1.304560E+06 -1.854790E+05  7.587571E+03 -5.057863E+05 -4.757677E-12 -3.343156E-11
       310  17 -1.336504E+06 -1.871939E+05  8.993304E+02 -5.039264E+05  1.503506E-10  1.175467E-09
       310  18 -1.353752E+06 -2.041670E+05 -6.416117E+03 -5.191543E+05  3.642244E-10  4.997470E-10
       310  19 -1.371281E+06 -2.105659E+05 -9.953287E+03 -5.239970E+05 -1.278309E+01 -1.509932E+03
       310  20 -1.354062E+06 -1.937865E+05 -3.762548E+03 -5.086972E+05 -1.123568E+03 -7.312837E+02
       310  21 -1.322144E+06 -1.922647E+05  1.802833E+03 -5.104849E+05 -2.233540E+03  4.515496E+01
       310  22 -1.337921E+06 -1.980225E+05 -1.182821E+03 -5.148919E+05  4.576486E+02 -1.333929E+03
       310  23 -1.345283E+06 -1.904902E+05 -1.431608E+03 -5.063118E+05 -6.541260E+02 -5.556540E+02
       310  24 -1.337948E+06 -1.982158E+05 -2.306630E+03 -5.148196E+05 -1.765055E+03  2.204203E+02
       310  25 -1.304560E+06 -1.854790E+05  7.587575E+03 -5.057863E+05  9.281092E+02 -1.157915E+03
       310  26 -1.336504E+06 -1.871939E+05  8.993307E+02 -5.039264E+05 -1.846763E+02 -3.800213E+02
       310  27 -1.353752E+06 -2.041670E+05 -6.416114E+03 -5.191543E+05 -1.296583E+03  3.956806E+02
       311   1 -1.284085E+06 -1.778818E+05  1.146058E+04 -5.005708E+05  2.906039E+03 -4.977636E+02
       311   2 -1.266875E+06 -1.608112E+05  1.571563E+04 -4.850820E+05  5.836386E+03 -5.898031E+02
       311   3 -1.236213E+06 -1.611365E+05  1.736852E+04 -4.859650E+05  8.745909E+03 -6.252888E+02
       311   4 -1.338116E+06 -1.979044E+05 -2.924733E+03 -5.149556E+05  2.425524E+03 -6.775439E+02
       311   5 -1.344984E+06 -1.902200E+05 -5.037152E+03 -5.063901E+05  5.380876E+03 -7.602803E+02
       311   6 -1.338405E+06 -1.999369E+05 -9.771848E+03 -5.141967E+05  8.315302E+03 -7.864997E+02
       311   7 -1.392145E+06 -2.179268E+05 -1.731026E+04 -5.293394E+05  1.945056E+03 -8.573071E+02
       311   8 -1.423087E+06 -2.196284E+05 -2.579047E+04 -5.276958E+05  4.925429E+03 -9.307338E+02
       311   9 -1.440587E+06 -2.387366E+05 -3.691320E+04 -5.424243E+05  7.884772E+03 -9.476812E+02
       311  10 -1.284085E+06 -1.778818E+05  1.146056E+04 -5.005708E+05 -6.531372E-10 -9.439473E-10
       311  11 -1.266875E+06 -1.608112E+05  1.571557E+04 -4.850820E+05  3.174417E-11 -7.787701E-11
       311  12 -1.236213E+06 -1.611366E+05  1.736838E+04 -4.859650E+05  7.610229E-10 -4.600198E-10
       311  13 -1.338116E+06 -1.979044E+05 -2.924745E+03 -5.149556E+05  4.900471E-10  6.723133E-10
       311  14 -1.344984E+06 -1.902200E+05 -5.037208E+03 -5.063901E+05 -6.543026E-10 -3.966547E-10
       311  15 -1.338405E+06 -1.999369E+05 -9.771979E+03 -5.141967E+05  2.801357E-13 -4.888917E-10
       311  16 -1.392145E+06 -2.179268E+05 -1.731027E+04 -5.293394E+05  9.293840E-10  7.868781E-10
       311  17 -1.423087E+06 -2.196284E+05 -2.579051E+04 -5.276958E+05  3.405045E-10  1.228232E-09
       311  18 -1.440587E+06 -2.387366E+05 -3.691331E+04 -5.424243E+05 -7.305409E-10 -1.268389E-09
       311  19 -1.284085E+06 -1.778818E+05  1.146058E+04 -5.005708E+05 -2.906039E+03  4.977636E+02
       311  20 -1.266875E+06 -1.608112E+05  1.571563E+04 -4.850820E+05 -5.836386E+03  5.898031E+02
       311  21 -1.236213E+06 -1.611365E+05  1.736852E+04 -4.859650E+05 -8.745909E+03  6.252888E+02
       311  22 -1.338116E+06 -1.979044E+05 -2.924733E+03 -5.149556E+05 -2.425524E+03  6.775439E+02
       311  23 -1.344984E+06 -1.902200E+05 -5.037152E+03 -5.063901E+05 -5.380876E+03  7.602803E+02
       311  24 -1.338405E+06 -1.999369E+05 -9.771848E+03 -5.141967E+05 -8.315302E+03  7.864997E+02
       311  25 -1.392145E+06 -2.179268E+05 -1.731026E+04 -5.293394E+05 -1.945056E+03  8.573071E+02
       311  26 -1.423087E+06 -2.196284E+05 -2.579047E+04 -5.276958E+05 -4.925429E+03  9.307338E+02
       311  27 -1.440587E+06 -2.387366E+05 -3.691320E+04 -5.424243E+05 -7.884772E+03  9.476812E+02
       312   1 -1.198235E+06 -1.464675E+05  2.465941E+04 -4.795785E+05  1.094247E+04 -5.685666E+02
       312   2 -1.180750E+06 -1.255774E+05  2.169921E+04 -4.615922E+05  2.232009E+04  2.546252E+03
       312   3 -1.159108E+06 -1.419174E+05  4.272067E+03 -4.542050E+05  3.349309E+04  6.209353E+03
       312   4 -1.339480E+06 -1.972208E+05 -1.247968E+04 -5.155853E+05  1.036755E+04 -7.838006E+02
       312   5 -1.342815E+06 -1.876475E+05 -2.155290E+04 -5.068936E+05  2.198819E+04  2.421808E+03
       312   6 -1.342045E+06 -2.153570E+05 -4.528898E+04 -5.088011E+05  3.340377E+04  6.175456E+03
       312   7 -1.480706E+06 -2.479733E+05 -4.962045E+04 -5.515850E+05  9.792773E+03 -9.989862E+02
       312   8 -1.504855E+06 -2.497158E+05 -6.480725E+04 -5.521842E+05  2.165639E+04  2.297400E+03
       312   9 -1.524948E+06 -2.887931E+05 -9.485289E+04 -5.633821E+05  3.331447E+04  6.141570E+03
       312  10 -1.198235E+06 -1.464675E+05  2.465918E+04 -4.795785E+05  8.623631E-11 -2.967629E-10
       312  11 -1.180751E+06 -1.255775E+05  2.169826E+04 -4.615922E+05  1.507405E-10 -5.522357E-10
       312  12 -1.159109E+06 -1.419177E+05  4.269882E+03 -4.542051E+05  2.130250E-10  2.010214E-11
       312  13 -1.339480E+06 -1.972208E+05 -1.247988E+04 -5.155853E+05  5.908108E-10 -5.477276E-10
       312  14 -1.342816E+06 -1.876477E+05 -2.155382E+04 -5.068936E+05  5.757568E-10  5.092229E-11
       312  15 -1.342046E+06 -2.153573E+05 -4.529115E+04 -5.088013E+05 -4.028860E-10 -7.640958E-10
       312  16 -1.480706E+06 -2.479734E+05 -4.962064E+04 -5.515850E+05 -2.888762E-11 -6.754055E-10
       312  17 -1.504855E+06 -2.497159E+05 -6.480814E+04 -5.521842E+05  1.290566E-09  4.604699E-10
       312  18 -1.524949E+06 -2.887935E+05 -9.485505E+04 -5.633823E+05  7.963907E-11 -2.453079E-10
       312  19 -1.198235E+06 -1.464675E+05  2.465941E+04 -4.795785E+05 -1.094247E+04  5.685666E+02
       312  20 -1.180750E+06 -1.255774E+05  2.169921E+04 -4.615922E+05 -2.232009E+04 -2.546252E+03
       312  21 -1.159108E+06 -1.419174E+05  4.272067E+03 -4.542050E+05 -3.349309E+04 -6.209353E+03
       312  22 -1.339480E+06 -1.972208E+05 -1.247968E+04 -5.155853E+05 -1.036755E+04  7.838006E+02
       312  23 -1.342815E+06 -1.876475E+05 -2.155290E+04 -5.068936E+05 -2.198819E+04 -2.421808E+03
       312  24 -1.342045E+06 -2.153570E+05 -4.528898E+04 -5.088011E+05 -3.340377E+04 -6.175456E+03
       312  25 -1.480706E+06 -2.479733E+05 -4.962045E+04 -5.515850E+05 -9.792773E+03  9.989862E+02
       312  26 -1.504855E+06 -2.497158E+05 -6.480725E+04 -5.521842E+05 -2.165639E+04 -2.297400E+03
       312  27 -1.524948E+06 -2.887931E+05 -9.485289E+04 -5.633821E+05 -3.331447E+04 -6.141570E+03
       313   1 -1.113776E+06 -1.228214E+05  3.201266E+03 -4.778110E+05  4.369799E+04  8.377144E+03
       313   2 -1.092312E+06 -6.381475E+04 -2.686464E+04 -4.336716E+05  9.129201E+04  2.519292E+04
       313   3 -1.139457E+06 -2.191678E+05 -1.472439E+05 -3.523900E+05  1.365741E+05  4.818449E+04
       313   4 -1.349455E+06 -1.918531E+05 -5.557349E+04 -5.217942E+05  4.189969E+04  7.704760E+03
       313   5 -1.326171E+06 -1.643654E+05 -9.129302E+04 -5.103939E+05  9.224484E+04  2.554762E+04
       313   6 -1.372077E+06 -3.518372E+05 -2.195365E+05 -4.618448E+05  1.402774E+05  4.956113E+04
       313   7 -1.585081E+06 -2.608860E+05 -1.143525E+05 -5.657648E+05  4.010214E+04  7.032512E+03
       313   8 -1.559978E+06 -2.649078E+05 -1.557264E+05 -5.870884E+05  9.319727E+04  2.590211E+04
       313   9 -1.604639E+06 -4.844777E+05 -2.918337E+05 -5.712549E+05  1.439791E+05  5.093651E+04
       313  10 -1.113778E+06 -1.228220E+05  3.197538E+03 -4.778113E+05 -1.082319E-09 -4.102820E-10
       313  11 -1.092321E+06 -6.381768E+04 -2.688153E+04 -4.336734E+05 -5.083692E-10  5.187762E-10
       313  12 -1.139477E+06 -2.191753E+05 -1.472834E+05 -3.523953E+05  5.055092E-11  3.035246E-10
       313  13 -1.349457E+06 -1.918536E+05 -5.557691E+04 -5.217944E+05  5.486060E-11  6.749769E-11
       313  14 -1.326181E+06 -1.643684E+05 -9.131028E+04 -5.103958E+05  1.463450E-11  9.790251E-10
       313  15 -1.372099E+06 -3.518451E+05 -2.195782E+05 -4.618504E+05  3.093481E-10  2.001512E-10
       313  16 -1.585083E+06 -2.608865E+05 -1.143556E+05 -5.657651E+05  7.494595E-10  5.561499E-10
       313  17 -1.559987E+06 -2.649108E+05 -1.557440E+05 -5.870903E+05  6.527408E-10  8.147624E-10
       313  18 -1.604662E+06 -4.844860E+05 -2.918777E+05 -5.712609E+05 -4.237762E-10  2.493807E-10
       313  19 -1.113776E+06 -1.228214E+05  3.201266E+03 -4.778110E+05 -4.369799E+04 -8.377144E+03
       313  20 -1.092312E+06 -6.381475E+04 -2.686464E+04 -4.336716E+05 -9.129201E+04 -2.519292E+04
       313  21 -1.139457E+06 -2.191678E+05 -1.472439E+05 -3.523900E+05 -1.365741E+05 -4.818449E+04
       313  22 -1.349455E+06 -1.918531E+05 -5.557349E+04 -5.217942E+05 -4.189969E+04 -7.704760E+03
       313  23 -1.326171E+06 -1.643654E+05 -9.129302E+04 -5.103939E+05 -9.224484E+04 -2.554762E+04
       313  24 -1.372077E+06 -3.518372E+05 -2.195365E+05 -4.618448E+05 -1.402774E+05 -4.956113E+04
       313  25 -1.585081E+06 -2.608860E+05 -1.143525E+05 -5.657648E+05 -4.010214E+04 -7.032512E+03
       313  26 -1.559978E+06 -2.649078E+05 -1.557264E+05 -5.870884E+05 -9.319727E+04 -2.590211E+04
       313  27 -1.604639E+06 -4.844777E+05 -2.918337E+05 -5.712549E+05 -1.439791E+05 -5.093651E+04
       314   1  1.526776E+06  3.190137E+05  4.561233E+05  1.240367E+05  4.291403E+05  8.322375E+03
       314   2  1.498567E+06 -2.492420E+05  1.137025E+05  3.898072E+04  2.852154E+05  2.217449E+04
       314   3  1.648258E+06 -1.839217E+05  2.347763E+04 -9.363851E+04  1.413019E+05  1.986639E+04
       314   4  2.285806E+06  5.069893E+05  6.430117E+05 -2.843738E+04  4.402526E+05  8.240622E+03
       314   5  2.196564E+06 -7.664238E+04  2.810300E+05 -4.095755E+03  2.883669E+05  2.215844E+04
       314   6  2.286360E+06 -2.574894E+04  1.765393E+05 -2.731944E+04  1.365088E+05  1.987346E+04
       314   7  3.045409E+06  6.950100E+05  8.298708E+05 -1.810979E+05  4.513783E+05  8.153524E+03
       314   8  2.895009E+06  9.592907E+04  4.483242E+05 -4.722094E+04  2.915217E+05  2.214197E+04
       314   9  2.924843E+06  1.324106E+05  3.295746E+05  3.906779E+04  1.317107E+05  1.987950E+04
       314  10  1.526579E+06  3.189643E+05  4.557779E+05  1.240338E+05 -4.793019E-10  5.835048E-10
       314  11  1.498480E+06 -2.492643E+05  1.135491E+05  3.897563E+04 -7.505378E-10 -1.179159E-09
       314  12  1.648237E+06 -1.839274E+05  2.343947E+04 -9.364077E+04  4.020630E-10  6.097166E-10
       314  13  2.285598E+06  5.069374E+05  6.426487E+05 -2.844030E+04  1.222852E-09  1.442396E-10
       314  14  2.196475E+06 -7.666512E+04  2.808734E+05 -4.100896E+03 -3.256165E-09 -2.767378E-09
       314  15  2.286340E+06 -2.575434E+04  1.765037E+05 -2.732162E+04  7.120459E-10  6.240074E-10
       314  16  3.045191E+06  6.949555E+05  8.294896E+05 -1.811009E+05 -3.013291E-10 -2.315955E-10
       314  17  2.894918E+06  9.590586E+04  4.481643E+05 -4.722613E+04  5.424754E-10 -2.513174E-10
       314  18  2.924825E+06  1.324056E+05  3.295414E+05  3.906569E+04 -2.561649E-10  5.810681E-11
       314  19  1.526776E+06  3.190137E+05  4.561233E+05  1.240367E+05 -4.291403E+05 -8.322375E+03
       314  20  1.498567E+06 -2.492420E+05  1.137025E+05  3.898072E+04 -2.852154E+05 -2.217449E+04
       314  21  1.648258E+06 -1.839217E+05  2.347763E+04 -9.363851E+04 -1.413019E+05 -1.986639E+04
       314  22  2.285806E+06  5.069893E+05  6.430117E+05 -2.843738E+04 -4.402526E+05 -8.240622E+03
       314  23  2.196564E+06 -7.664238E+04  2.810300E+05 -4.095755E+03 -2.883669E+05 -2.215844E+04
       314  24  2.286360E+06 -2.574894E+04  1.765393E+05 -2.731944E+04 -1.365088E+05 -1.987346E+04
       314  25  3.045409E+06  6.950100E+05  8.298708E+05 -1.810979E+05 -4.513783E+05 -8.153524E+03
       314  26  2.895009E+06  9.592907E+04  4.483242E+05 -4.722094E+04 -2.915217E+05 -2.214197E+04
       314  27  2.924843E+06  1.324106E+05  3.295746E+05  3.906779E+04 -1.317107E+05 -1.987950E+04
       315   1  1.693426E+06 -8.318330E+04  1.003579E+04 -1.182213E+04  1.089537E+05  1.616353E+04
       315   2  1.735947E+06 -1.334532E+05 -4.800633E+04 -1.949163E+03  7.202913E+04  1.524350E+04
       315   3  1.800999E+06 -1.143886E+05 -6.463036E+04 -3.414857E+04  3.510214E+04  1.313350E+04
       315   4  2.251491E+06  5.498333E+04  1.442223E+05 -2.646948E+04  1.088838E+05  1.615986E+04
       315   5  2.240234E+06 -8.612155E+03  7.304067E+04 -5.404756E+03  7.135578E+04  1.524168E+04
       315   6  2.251590E+06 -2.801084E+03  4.366805E+04 -2.640939E+04  3.382858E+04  1.313266E+04
       315   7  2.809840E+06  1.931282E+05  2.783869E+05 -4.113009E+04  1.088137E+05  1.615620E+04
       315   8  2.744753E+06  1.162105E+05  1.940697E+05 -8.863206E+03  7.068187E+04  1.523988E+04
       315   9  2.702366E+06  1.087719E+05  1.519521E+05 -1.866460E+04  3.255410E+04  1.313178E+04
       315  10  1.693413E+06 -8.318676E+04  1.001305E+04 -1.182355E+04 -6.431851E-11 -3.710278E-10
       315  11  1.735941E+06 -1.334549E+05 -4.801649E+04 -1.950047E+03  6.680255E-10 -1.975322E-10
       315  12  1.800998E+06 -1.143891E+05 -6.463300E+04 -3.414894E+04 -8.254604E-10 -3.280768E-11
       315  13  2.251478E+06  5.497988E+04  1.441996E+05 -2.647090E+04  1.169623E-09  3.531820E-11
       315  14  2.240229E+06 -8.613765E+03  7.303070E+04 -5.405631E+03 -1.284120E-09 -8.013474E-10
       315  15  2.251589E+06 -2.801575E+03  4.366558E+04 -2.640974E+04 -4.636367E-10 -5.836780E-11
       315  16  2.809827E+06  1.931247E+05  2.783642E+05 -4.113151E+04 -1.879061E-10  5.516724E-10
       315  17  2.744748E+06  1.162090E+05  1.940599E+05 -8.864073E+03 -1.453115E-10 -1.420739E-09
       315  18  2.702365E+06  1.087715E+05  1.519498E+05 -1.866495E+04  6.910279E-10  6.039277E-11
       315  19  1.693426E+06 -8.318330E+04  1.003579E+04 -1.182213E+04 -1.089537E+05 -1.616353E+04
       315  20  1.735947E+06 -1.334532E+05 -4.800633E+04 -1.949163E+03 -7.202913E+04 -1.524350E+04
       315  21  1.800999E+06 -1.143886E+05 -6.463036E+04 -3.414857E+04 -3.510214E+04 -1.313350E+04
       315  22  2.251491E+06  5.498333E+04  1.442223E+05 -2.646948E+04 -1.088838E+05 -1.615986E+04
       315  23  2.240234E+06 -8.612155E+03  7.304067E+04 -5.404756E+03 -7.135578E+04 -1.524168E+04
       315  24  2.251590E+06 -2.801084E+03  4.366805E+04 -2.640939E+04 -3.382858E+04 -1.313266E+04
       315  25  2.809840E+06  1.931282E+05  2.783869E+05 -4.113009E+04 -1.088137E+05 -1.615620E+04
       315  26  2.744753E+06  1.162105E+05  1.940697E+05 -8.863206E+03 -7.068187E+04 -1.523988E+04
       315  27  2.702366E+06  1.087719E+05  1.519521E+05 -1.866460E+04 -3.255410E+04 -1.313178E+04
       316   1  1.869637E+06 -8.762821E+04 -5.626870E+04 -2.456340E+04  2.780561E+04  1.175435E+04
       316   2  1.917448E+06 -8.225258E+04 -6.006948E+04 -6.218992E+03  1.842248E+04  9.853306E+03
       316   3  1.968519E+06 -6.932930E+04 -5.585537E+04 -2.657616E+04  9.037183E+03  7.910339E+03
       316   4  2.247294E+06  5.837028E+03  3.426007E+04 -2.567940E+04  2.691341E+04  1.175351E+04
       316   5  2.245676E+06 -9.992445E+02  1.872061E+04 -6.328415E+03  1.750488E+04  9.852805E+03
       316   6  2.247316E+06 -2.861589E+02  1.120979E+04 -2.567764E+04  8.094932E+03  7.910169E+03
       316   7  2.625081E+06  9.929195E+04  1.247788E+05 -2.679608E+04  2.602066E+04  1.175267E+04
       316   8  2.574002E+06  8.024629E+04  9.750307E+04 -6.437900E+03  1.658680E+04  9.852304E+03
       316   9  2.526185E+06  6.875134E+04  7.826942E+04 -2.477872E+04  7.152259E+03  7.909996E+03
       316  10  1.869636E+06 -8.762857E+04 -5.627041E+04 -2.456366E+04  1.510104E-09  7.152274E-10
       316  11  1.917448E+06 -8.225278E+04 -6.007029E+04 -6.219138E+03  8.944497E-10 -5.963705E-10
       316  12  1.968519E+06 -6.932939E+04 -5.585564E+04 -2.657622E+04 -6.334771E-10  5.599872E-11
       316  13  2.247293E+06  5.836685E+03  3.425846E+04 -2.567965E+04 -2.486953E-10  3.550857E-10
       316  14  2.245675E+06 -9.994308E+02  1.871986E+04 -6.328554E+03 -2.118997E-10 -3.878133E-10
       316  15  2.247316E+06 -2.862437E+02  1.120955E+04 -2.567770E+04  2.363229E-10  7.884511E-11
       316  16  2.625080E+06  9.929162E+04  1.247772E+05 -2.679633E+04 -1.001453E-09  7.211108E-11
       316  17  2.574001E+06  8.024611E+04  9.750237E+04 -6.438032E+03 -3.423575E-10 -6.610408E-10
       316  18  2.526185E+06  6.875126E+04  7.826921E+04 -2.477877E+04  5.089633E-10  3.457881E-12
       316  19  1.869637E+06 -8.762821E+04 -5.626870E+04 -2.456340E+04 -2.780561E+04 -1.175435E+04
       316  20  1.917448E+06 -8.225258E+04 -6.006948E+04 -6.218992E+03 -1.842248E+04 -9.853306E+03
       316  21  1.968519E+06 -6.932930E+04 -5.585537E+04 -2.657616E+04 -9.037183E+03 -7.910339E+03
       316  22  2.247294E+06  5.837028E+03  3.426007E+04 -2.567940E+04 -2.691341E+04 -1.175351E+04
       316  23  2.245676E+06 -9.992445E+02  1.872061E+04 -6.328415E+03 -1.750488E+04 -9.852805E+03
       316  24  2.247316E+06 -2.861589E+02  1.120979E+04 -2.567764E+04 -8.094932E+03 -7.910169E+03
       316  25  2.625081E+06  9.929195E+04  1.247788E+05 -2.679608E+04 -2.602066E+04 -1.175267E+04
       316  26  2.574002E+06  8.024629E+04  9.750307E+04 -6.437900E+03 -1.658680E+04 -9.852304E+03
       316  27  2.526185E+06  6.875134E+04  7.826942E+04 -2.477872E+04 -7.152259E+03 -7.909996E+03
       317   1  2.036079E+06 -5.152053E+04 -4.158246E+04 -2.517905E+04  7.197836E+03  6.787034E+03
       317   2  2.082690E+06 -4.066055E+04 -3.372914E+04 -6.885533E+03  4.414487E+03  4.910975E+03
       317   3  2.129901E+06 -2.891164E+04 -2.384313E+04 -2.530807E+04  1.630268E+03  3.056540E+03
       317   4  2.246734E+06  5.944723E+02  8.835315E+03 -2.523700E+04  6.291046E+03  6.787009E+03
       317   5  2.246439E+06 -1.280860E+02  5.575225E+03 -6.879329E+03  3.517245E+03  4.911094E+03
       317   6  2.246740E+06  3.655476E+01  4.340794E+03 -2.523712E+04  7.427810E+02  3.056809E+03
       317   7  2.457429E+06  5.270627E+04  5.924996E+04 -2.529497E+04  5.383950E+03  6.786984E+03
       317   8  2.410213E+06  4.040244E+04  4.487770E+04 -6.873122E+03  2.619768E+03  4.911214E+03
       317   9  2.363593E+06  2.898376E+04  3.252375E+04 -2.516614E+04 -1.448716E+02  3.057078E+03
       317  10  2.036079E+06 -5.152060E+04 -4.158264E+04 -2.517909E+04 -4.868718E-11 -1.987344E-11
       317  11  2.082690E+06 -4.066058E+04 -3.372923E+04 -6.885550E+03 -7.781012E-10 -8.376386E-11
       317  12  2.129901E+06 -2.891166E+04 -2.384315E+04 -2.530808E+04 -2.079494E-09  3.137911E-10
       317  13  2.246734E+06  5.944122E+02  8.835154E+03 -2.523703E+04 -7.581045E-10  3.656503E-10
       317  14  2.246439E+06 -1.281153E+02  5.575156E+03 -6.879343E+03 -2.992350E-10 -4.426045E-10
       317  15  2.246740E+06  3.654457E+01  4.340776E+03 -2.523712E+04 -1.041571E-09 -2.004784E-10
       317  16  2.457429E+06  5.270621E+04  5.924982E+04 -2.529500E+04  2.507491E-10 -1.102717E-10
       317  17  2.410213E+06  4.040241E+04  4.487764E+04 -6.873133E+03 -1.548232E-10 -4.645521E-10
       317  18  2.363593E+06  2.898375E+04  3.252373E+04 -2.516614E+04  4.954325E-10 -5.212948E-10
       317  19  2.036079E+06 -5.152053E+04 -4.158246E+04 -2.517905E+04 -7.197836E+03 -6.787034E+03
       317  20  2.082690E+06 -4.066055E+04 -3.372914E+04 -6.885533E+03 -4.414487E+03 -4.910975E+03
       317  21  2.129901E+06 -2.891164E+04 -2.384313E+04 -2.530807E+04 -1.630268E+03 -3.056540E+03
       317  22  2.246734E+06  5.944723E+02  8.835315E+03 -2.523700E+04 -6.291046E+03 -6.787009E+03
       317  23  2.246439E+06 -1.280860E+02  5.575225E+03 -6.879329E+03 -3.517245E+03 -4.911094E+03
       317  24  2.246740E+06  3.655476E+01  4.340794E+03 -2.523712E+04 -7.427810E+02 -3.056809E+03
       317  25  2.457429E+06  5.270627E+04  5.924996E+04 -2.529497E+04 -5.383950E+03 -6.786984E+03
       317  26  2.410213E+06  4.040244E+04  4.487770E+04 -6.873122E+03 -2.619768E+03 -4.911214E+03
       317  27  2.363593E+06  2.898376E+04  3.252375E+04 -2.516614E+04  1.448716E+02 -3.057078E+03
       318   1  2.195625E+06 -1.256859E+04 -7.902359E+03 -2.499838E+04  8.526452E+02  1.985844E+03
       318   2  2.241431E+06 -1.349757E+03  3.713413E+03 -7.048949E+03 -1.599859E+03  1.517365E+02
       318   3  2.287715E+06  1.062740E+04  1.710409E+04 -2.513504E+04 -4.052529E+03 -1.676080E+03
       318   4  2.246717E+06  4.900446E+01  4.218608E+03 -2.508603E+04 -3.201242E+01  1.986165E+03
       318   5  2.246478E+06 -1.005000E+02  4.924871E+03 -7.068197E+03 -2.481561E+03  1.520574E+02
       318   6  2.246716E+06  5.081441E+02  7.404320E+03 -2.508585E+04 -4.931096E+03 -1.675753E+03
       318   7  2.297812E+06  1.266641E+04  1.633940E+04 -2.517370E+04 -9.167423E+02  1.986486E+03
       318   8  2.251526E+06  1.148755E+03  6.136329E+03 -7.087445E+03 -3.363270E+03  1.523783E+02
       318   9  2.205718E+06 -9.611233E+03 -2.295567E+03 -2.503667E+04 -5.809605E+03 -1.675425E+03
       318  10  2.195625E+06 -1.256859E+04 -7.902368E+03 -2.499838E+04 -1.042227E-09 -1.953377E-10
       318  11  2.241431E+06 -1.349757E+03  3.713408E+03 -7.048949E+03  3.979410E-10 -1.425920E-10
       318  12  2.287715E+06  1.062739E+04  1.710406E+04 -2.513504E+04  2.790947E-10  1.380206E-10
       318  13  2.246717E+06  4.900022E+01  4.218601E+03 -2.508603E+04 -1.997506E-09  3.677048E-10
       318  14  2.246478E+06 -1.005017E+02  4.924859E+03 -7.068197E+03 -2.789262E-09  1.371611E-10
       318  15  2.246716E+06  5.081345E+02  7.404269E+03 -2.508586E+04  1.037155E-09 -7.568674E-10
       318  16  2.297812E+06  1.266641E+04  1.633939E+04 -2.517370E+04  4.743547E-10  1.059788E-10
       318  17  2.251526E+06  1.148752E+03  6.136308E+03 -7.087444E+03  2.721268E-11  4.827488E-11
       318  18  2.205718E+06 -9.611245E+03 -2.295635E+03 -2.503668E+04 -2.710527E-10 -6.404737E-10
       318  19  2.195625E+06 -1.256859E+04 -7.902359E+03 -2.499838E+04 -8.526452E+02 -1.985844E+03
       318  20  2.241431E+06 -1.349757E+03  3.713413E+03 -7.048949E+03  1.599859E+03 -1.517365E+02
       318  21  2.287715E+06  1.062740E+04  1.710409E+04 -2.513504E+04  4.052529E+03  1.676080E+03
       318  22  2.246717E+06  4.900446E+01  4.218608E+03 -2.508603E+04  3.201242E+01 -1.986165E+03
       318  23  2.246478E+06 -1.005000E+02  4.924871E+03 -7.068197E+03  2.481561E+03 -1.520574E+02
       318  24  2.246716E+06  5.081441E+02  7.404320E+03 -2.508585E+04  4.931096E+03  1.675753E+03
       318  25  2.297812E+06  1.266641E+04  1.633940E+04 -2.517370E+04  9.167423E+02 -1.986486E+03
       318  26  2.251526E+06  1.148755E+03  6.136329E+03 -7.087445E+03  3.363270E+03 -1.523783E+02
       318  27  2.205718E+06 -9.611233E+03 -2.295567E+03 -2.503667E+04  5.809605E+03  1.675425E+03
       319   1  2.353856E+06  2.621900E+04  3.501558E+04 -2.450971E+04 -5.530514E+03 -2.754137E+03
       319   2  2.399389E+06  3.719548E+04  5.214616E+04 -7.058826E+03 -1.324914E+04 -4.603227E+03
       319   3  2.447473E+06  5.433144E+04  7.582860E+04 -2.623658E+04 -2.096789E+04 -6.405339E+03
       319   4  2.247173E+06 -2.108332E+02  9.274385E+03 -2.521822E+04 -6.432210E+03 -2.753841E+03
       319   5  2.245892E+06 -7.920167E+02  1.531065E+04 -6.903157E+03 -1.412655E+04 -4.603090E+03
       319   6  2.247156E+06  4.783114E+03  2.788336E+04 -2.521723E+04 -2.182044E+04 -6.405370E+03
       319   7  2.140500E+06 -2.664150E+04 -1.646763E+04 -2.592660E+04 -7.333752E+03 -2.753543E+03
       319   8  2.092416E+06 -3.878122E+04 -2.152652E+04 -6.747526E+03 -1.500374E+04 -4.602953E+03
       319   9  2.046875E+06 -4.476810E+04 -2.006470E+04 -2.419820E+04 -2.267271E+04 -6.405403E+03
       319  10  2.353856E+06  2.621899E+04  3.501551E+04 -2.450973E+04 -9.502910E-10  7.103732E-10
       319  11  2.399389E+06  3.719541E+04  5.214579E+04 -7.058875E+03 -1.019372E-11  4.760689E-10
       319  12  2.447472E+06  5.433128E+04  7.582770E+04 -2.623669E+04  3.737434E-11  4.641540E-10
       319  13  2.247173E+06 -2.108524E+02  9.274293E+03 -2.521823E+04  6.454136E-10 -2.064331E-10
       319  14  2.245892E+06 -7.920928E+02  1.531024E+04 -6.903209E+03  1.597480E-09 -2.225878E-10
       319  15  2.247155E+06  4.782943E+03  2.788239E+04 -2.521734E+04 -9.143638E-10 -5.298574E-11
       319  16  2.140500E+06 -2.664152E+04 -1.646774E+04 -2.592662E+04 -1.609350E-10 -1.542195E-10
       319  17  2.092416E+06 -3.878130E+04 -2.152698E+04 -6.747581E+03  2.221448E-09 -3.414140E-10
       319  18  2.046875E+06 -4.476829E+04 -2.006574E+04 -2.419832E+04  5.792255E-10 -5.283749E-10
       319  19  2.353856E+06  2.621900E+04  3.501558E+04 -2.450971E+04  5.530514E+03  2.754137E+03
       319  20  2.399389E+06  3.719548E+04  5.214616E+04 -7.058826E+03  1.324914E+04  4.603227E+03
       319  21  2.447473E+06  5.433144E+04  7.582860E+04 -2.623658E+04  2.096789E+04  6.405339E+03
       319  22  2.247173E+06 -2.108332E+02  9.274385E+03 -2.521822E+04  6.432210E+03  2.753841E+03
       319  23  2.245892E+06 -7.920167E+02  1.531065E+04 -6.903157E+03  1.412655E+04  4.603090E+03
       319  24  2.247156E+06  4.783114E+03  2.788336E+04 -2.521723E+04  2.182044E+04  6.405370E+03
       319  25  2.140500E+06 -2.664150E+04 -1.646763E+04 -2.592660E+04  7.333752E+03  2.753543E+03
       319  26  2.092416E+06 -3.878122E+04 -2.152652E+04 -6.747526E+03  1.500374E+04  4.602953E+03
       319  27  2.046875E+06 -4.476810E+04 -2.006470E+04 -2.419820E+04  2.267271E+04  6.405403E+03
       320   1  2.518894E+06  6.416999E+04  1.000031E+05 -1.949948E+04 -2.631567E+04 -7.646438E+03
       320   2  2.558984E+06  7.159493E+04  1.355300E+05 -9.419374E+03 -5.725344E+04 -9.567674E+03
       320   3  2.617329E+06  1.354899E+05  2.052861E+05 -3.786023E+04 -8.819337E+04 -1.060602E+04
       320   4  2.250633E+06 -2.238522E+03  3.550696E+04 -2.563523E+04 -2.744512E+04 -7.646306E+03
       320   5  2.241498E+06 -6.966021E+03  5.936068E+04 -6.380608E+03 -5.794422E+04 -9.568370E+03
       320   6  2.250552E+06  4.471707E+04  1.171534E+05 -2.564750E+04 -8.844304E+04 -1.060825E+04
       320   7  1.982437E+06 -6.865211E+04 -2.899429E+04 -3.176833E+04 -2.857409E+04 -7.646151E+03
       320   8  1.924104E+06 -8.553424E+04 -1.681578E+04 -3.343400E+03 -5.863464E+04 -9.569073E+03
       320   9  1.883898E+06 -4.606499E+04  2.901129E+04 -1.344199E+04 -8.869256E+04 -1.061049E+04
       320  10  2.518894E+06  6.416974E+04  1.000017E+05 -1.949965E+04  8.756812E-10  5.314032E-11
       320  11  2.558980E+06  7.159396E+04  1.355237E+05 -9.419815E+03 -5.693079E-10 -6.961866E-10
       320  12  2.617321E+06  1.354877E+05  2.052713E+05 -3.786098E+04  5.523335E-10 -5.452781E-10
       320  13  2.250632E+06 -2.238786E+03  3.550544E+04 -2.563540E+04 -5.868831E-10 -2.886087E-10
       320  14  2.241495E+06 -6.967017E+03  5.935422E+04 -6.381054E+03  3.095929E-10 -7.053281E-10
       320  15  2.250544E+06  4.471486E+04  1.171386E+05 -2.564826E+04 -3.784544E-10 -4.433670E-10
       320  16  1.982436E+06 -6.865240E+04 -2.899593E+04 -3.176850E+04  6.389579E-11 -6.775236E-10
       320  17  1.924100E+06 -8.553526E+04 -1.682240E+04 -3.343851E+03  1.254312E-09 -1.089868E-09
       320  18  1.883890E+06 -4.606722E+04  2.899634E+04 -1.344275E+04 -5.280059E-10  1.775111E-10
       320  19  2.518894E+06  6.416999E+04  1.000031E+05 -1.949948E+04  2.631567E+04  7.646438E+03
       320  20  2.558984E+06  7.159493E+04  1.355300E+05 -9.419374E+03  5.725344E+04  9.567674E+03
       320  21  2.617329E+06  1.354899E+05  2.052861E+05 -3.786023E+04  8.819337E+04  1.060602E+04
       320  22  2.250633E+06 -2.238522E+03  3.550696E+04 -2.563523E+04  2.744512E+04  7.646306E+03
       320  23  2.241498E+06 -6.966021E+03  5.936068E+04 -6.380608E+03  5.794422E+04  9.568370E+03
       320  24  2.250552E+06  4.471707E+04  1.171534E+05 -2.564750E+04  8.844304E+04  1.060825E+04
       320  25  1.982437E+06 -6.865211E+04 -2.899429E+04 -3.176833E+04  2.857409E+04  7.646151E+03
       320  26  1.924104E+06 -8.553424E+04 -1.681578E+04 -3.343400E+03  5.863464E+04  9.569073E+03
       320  27  1.883898E+06 -4.606499E+04  2.901129E+04 -1.344199E+04  8.869256E+04  1.061049E+04
       321   1  2.718171E+06  8.788915E+04  2.487101E+05  2.726588E+04 -1.071823E+05 -1.353026E+04
       321   2  2.698627E+06  5.957486E+04  3.462689E+05 -4.102765E+04 -2.363337E+05 -1.545346E+04
       321   3  2.825129E+06  5.474914E+05  6.568120E+05 -1.512736E+05 -3.655028E+05 -5.502519E+03
       321   4  2.278859E+06 -2.085961E+04  1.433927E+05 -2.627498E+04 -1.108813E+05 -1.352343E+04
       321   5  2.206056E+06 -6.220991E+04  2.282637E+05 -5.520817E+03 -2.342449E+05 -1.546617E+04
       321   6  2.278401E+06  4.118604E+05  5.222276E+05 -2.670439E+04 -3.576139E+05 -5.567541E+03
       321   7  1.839730E+06 -1.296116E+05  3.806316E+04 -7.977798E+04 -1.145777E+05 -1.351595E+04
       321   8  1.713709E+06 -1.840075E+05  1.102421E+05  2.995780E+04 -2.321577E+05 -1.547865E+04
       321   9  1.731978E+06  2.762655E+05  3.876298E+05  9.775539E+04 -3.497318E+05 -5.629461E+03
       321  10  2.718159E+06  8.788588E+04  2.486882E+05  2.726472E+04  5.761755E-09 -5.444873E-10
       321  11  2.698567E+06  5.955969E+04  3.461640E+05 -4.103059E+04 -8.323189E-11  2.195212E-10
       321  12  2.824986E+06  5.474557E+05  6.565621E+05 -1.512752E+05 -4.557166E-09  6.644050E-10
       321  13  2.278846E+06 -2.086309E+04  1.433693E+05 -2.627619E+04 -1.303458E-09 -7.790818E-10
       321  14  2.205997E+06 -6.222483E+04  2.281605E+05 -5.523732E+03 -4.419724E-10  1.911136E-10
       321  15  2.278265E+06  4.118262E+05  5.219881E+05 -2.670599E+04  1.138325E-09 -2.703705E-10
       321  16  1.839716E+06 -1.296153E+05  3.803822E+04 -7.977922E+04 -7.167768E-09  3.349770E-10
       321  17  1.713651E+06 -1.840221E+05  1.101407E+05  2.995491E+04  2.996894E-10 -3.357291E-10
       321  18  1.731847E+06  2.762327E+05  3.874005E+05  9.775381E+04  4.180689E-09  1.010163E-09
       321  19  2.718171E+06  8.788915E+04  2.487101E+05  2.726588E+04  1.071823E+05  1.353026E+04
       321  20  2.698627E+06  5.957486E+04  3.462689E+05 -4.102765E+04  2.363337E+05  1.545346E+04
       321  21  2.825129E+06  5.474914E+05  6.568120E+05 -1.512736E+05  3.655028E+05  5.502519E+03
       321  22  2.278859E+06 -2.085961E+04  1.433927E+05 -2.627498E+04  1.108813E+05  1.352343E+04
       321  23  2.206056E+06 -6.220991E+04  2.282637E+05 -5.520817E+03  2.342449E+05  1.546617E+04
       321  24  2.278401E+06  4.118604E+05  5.222276E+05 -2.670439E+04  3.576139E+05  5.567541E+03
       321  25  1.839730E+06 -1.296116E+05  3.806316E+04 -7.977798E+04  1.145777E+05  1.351595E+04
       321  26  1.713709E+06 -1.840075E+05  1.102421E+05  2.995780E+04  2.321577E+05  1.547865E+04
       321  27  1.731978E+06  2.762655E+05  3.876298E+05  9.775539E+04  3.497318E+05  5.629461E+03
       322   1  1.395642E+05  2.116593E+05  2.028403E+05 -8.133153E+04 -4.210308E+03  1.891057E+05
       322   2 -1.307173E+05  1.500162E+05  3.940617E+04 -2.338215E+04 -1.217656E+04  1.213535E+05
       322   3 -1.107509E+05  1.698577E+05 -7.335640E+03  1.826067E+04 -1.295510E+04  5.361820E+04
       322   4  2.302045E+05  5.770298E+05  2.928867E+05 -1.193596E+04 -4.202446E+03  1.948254E+05
       322   5 -3.509622E+04  5.360339E+05  1.321268E+05 -4.058318E+03 -1.217692E+04  1.235807E+05
       322   6 -9.646375E+03  5.770797E+05  9.043636E+04 -1.248221E+04 -1.295475E+04  5.235121E+04
       322   7  3.208531E+05  9.425321E+05  3.829260E+05  5.750055E+04 -4.193313E+03  2.005484E+05
       322   8  6.051548E+04  9.221889E+05  2.248370E+05  1.527764E+04 -1.217714E+04  1.258093E+05
       322   9  9.144962E+04  9.844554E+05  1.881971E+05 -4.324525E+04 -1.295428E+04  5.108339E+04
       322  10  1.395545E+05  2.116210E+05  2.027731E+05 -8.133089E+04 -5.398038E-10  9.610274E-11
       322  11 -1.307214E+05  1.500003E+05  3.937822E+04 -2.338096E+04 -1.408254E-10 -3.371060E-09
       322  12 -1.107519E+05  1.698545E+05 -7.341357E+03  1.826122E+04  9.784783E-10  6.156317E-10
       322  13  2.301943E+05  5.769891E+05  2.928154E+05 -1.193530E+04  7.324744E-10  4.218297E-11
       322  14 -3.510048E+04  5.360175E+05  1.320978E+05 -4.057107E+03 -2.157299E-09 -2.101827E-09
       322  15 -9.647290E+03  5.770767E+05  9.043090E+04 -1.248166E+04  7.017080E-10  3.504830E-10
       322  16  3.208423E+05  9.424890E+05  3.828505E+05  5.750123E+04 -5.090252E-10 -7.400347E-10
       322  17  6.051108E+04  9.221719E+05  2.248071E+05  1.527887E+04 -9.251901E-10  1.057076E-10
       322  18  9.144874E+04  9.844526E+05  1.881919E+05 -4.324472E+04 -5.702778E-11 -6.768560E-10
       322  19  1.395642E+05  2.116593E+05  2.028403E+05 -8.133153E+04  4.210308E+03 -1.891057E+05
       322  20 -1.307173E+05  1.500162E+05  3.940617E+04 -2.338215E+04  1.217656E+04 -1.213535E+05
       322  21 -1.107509E+05  1.698577E+05 -7.335640E+03  1.826067E+04  1.295510E+04 -5.361820E+04
       322  22  2.302045E+05  5.770298E+05  2.928867E+05 -1.193596E+04  4.202446E+03 -1.948254E+05
       322  23 -3.509622E+04  5.360339E+05  1.321268E+05 -4.058318E+03  1.217692E+04 -1.235807E+05
       322  24 -9.646375E+03  5.770797E+05  9.043636E+04 -1.248221E+04  1.295475E+04 -5.235121E+04
       322  25  3.208531E+05  9.425321E+05  3.829260E+05  5.750055E+04  4.193313E+03 -2.005484E+05
       322  26  6.051548E+04  9.221889E+05  2.248370E+05  1.527764E+04  1.217714E+04 -1.258093E+05
       322  27  9.144962E+04  9.844554E+05  1.881971E+05 -4.324525E+04  1.295428E+04 -5.108339E+04
       323   1 -8.459031E+04  1.244303E+05 -2.657092E+04 -2.137212E+04 -1.253446E+04  3.665629E+04
       323   2 -1.210115E+05  9.335026E+04 -5.412550E+04 -3.797608E+03 -1.392097E+04  8.276920E+03
       323   3 -1.026629E+05  7.985987E+04 -4.946968E+04 -3.644235E+03 -1.383780E+04 -2.009846E+04
       323   4  2.413270E+04  5.627605E+05  7.906389E+04 -1.254576E+04 -1.253517E+04  3.771763E+04
       323   5 -6.780425E+03  5.539086E+05  5.662569E+04 -3.844768E+03 -1.392077E+04  8.613951E+03
       323   6  1.717961E+04  5.627593E+05  6.688502E+04 -1.256382E+04 -1.383637E+04 -2.048674E+04
       323   7  1.328420E+05  1.001266E+06  1.846850E+05 -3.713063E+03 -1.253585E+04  3.877971E+04
       323   8  1.074352E+05  1.014661E+06  1.673618E+05 -3.891892E+03 -1.392058E+04  8.951228E+03
       323   9  1.370054E+05  1.045872E+06  1.832231E+05 -2.149030E+04 -1.383493E+04 -2.087532E+04
       323  10 -8.459084E+04  1.244288E+05 -2.657374E+04 -2.137175E+04  2.240739E-11  2.688899E-10
       323  11 -1.210117E+05  9.335014E+04 -5.412600E+04 -3.797515E+03  3.046007E-10 -1.952730E-09
       323  12 -1.026632E+05  7.985938E+04 -4.947080E+04 -3.644459E+03 -2.049196E-10  2.544507E-10
       323  13  2.413215E+04  5.627589E+05  7.906092E+04 -1.254538E+04 -5.792479E-11  1.371281E-10
       323  14 -6.780653E+03  5.539084E+05  5.662519E+04 -3.844671E+03  4.655963E-10 -2.018284E-09
       323  15  1.717930E+04  5.627588E+05  6.688388E+04 -1.256404E+04  4.332275E-10  6.698178E-11
       323  16  1.328414E+05  1.001265E+06  1.846819E+05 -3.712671E+03  8.871057E-11 -7.118227E-10
       323  17  1.074350E+05  1.014661E+06  1.673613E+05 -3.891792E+03 -7.813951E-10 -3.833545E-10
       323  18  1.370051E+05  1.045872E+06  1.832219E+05 -2.149053E+04 -8.245089E-10 -2.764944E-10
       323  19 -8.459031E+04  1.244303E+05 -2.657092E+04 -2.137212E+04  1.253446E+04 -3.665629E+04
       323  20 -1.210115E+05  9.335026E+04 -5.412550E+04 -3.797608E+03  1.392097E+04 -8.276920E+03
       323  21 -1.026629E+05  7.985987E+04 -4.946968E+04 -3.644235E+03  1.383780E+04  2.009846E+04
       323  22  2.413270E+04  5.627605E+05  7.906389E+04 -1.254576E+04  1.253517E+04 -3.771763E+04
       323  23 -6.780425E+03  5.539086E+05  5.662569E+04 -3.844768E+03  1.392077E+04 -8.613951E+03
       323  24  1.717961E+04  5.627593E+05  6.688502E+04 -1.256382E+04  1.383637E+04  2.048674E+04
       323  25  1.328420E+05  1.001266E+06  1.846850E+05 -3.713063E+03  1.253585E+04 -3.877971E+04
       323  26  1.074352E+05  1.014661E+06  1.673618E+05 -3.891892E+03  1.392058E+04 -8.951228E+03
       323  27  1.370054E+05  1.045872E+06  1.832231E+05 -2.149030E+04  1.383493E+04  2.087532E+04
       324   1 -1.337131E+05  5.681141E+04 -5.065364E+04 -3.484816E+04 -1.597552E+04 -3.580358E+04
       324   2 -1.597571E+05  2.940301E+03 -2.919643E+04  1.128998E+04 -1.666726E+04 -8.400953E+04
       324   3  2.910929E+04  9.419971E+03  7.745638E+04  3.926213E+04 -5.475769E+03 -1.322074E+05
       324   4 -5.901436E+03  5.724468E+05  7.319459E+04 -1.276027E+04 -1.597905E+04 -3.261650E+04
       324   5 -2.610564E+04  5.417775E+05  1.002505E+05 -3.641797E+03 -1.666271E+04 -8.656940E+04
       324   6  1.694933E+05  5.724011E+05  2.164388E+05 -1.268848E+04 -5.461954E+03 -1.405165E+05
       324   7  1.218928E+05  1.088327E+06  1.970242E+05  9.346087E+03 -1.598235E+04 -2.942678E+04
       324   8  1.075256E+05  1.080881E+06  2.296770E+05 -1.858655E+04 -1.665804E+04 -8.913145E+04
       324   9  3.098638E+05  1.135676E+06  3.553995E+05 -6.468623E+04 -5.446760E+03 -1.488332E+05
       324  10 -1.337138E+05  5.680996E+04 -5.065653E+04 -3.484862E+04  4.377927E-10  4.182607E-10
       324  11 -1.597593E+05  2.932648E+03 -2.921022E+04  1.128886E+04 -3.257156E-11 -1.172382E-09
       324  12  2.910457E+04  9.401196E+03  7.742348E+04  3.926155E+04 -1.147414E-10 -1.806573E-10
       324  13 -5.901996E+03  5.724456E+05  7.319211E+04 -1.276069E+04 -8.799671E-10  8.656970E-11
       324  14 -2.610795E+04  5.417694E+05  1.002359E+05 -3.642959E+03  3.311573E-10 -8.837317E-10
       324  15  1.694879E+05  5.723800E+05  2.164017E+05 -1.268909E+04  3.111305E-10  1.822815E-10
       324  16  1.218923E+05  1.088326E+06  1.970221E+05  9.345709E+03 -4.270989E-10 -7.616070E-10
       324  17  1.075231E+05  1.080872E+06  2.296616E+05 -1.858774E+04  2.431942E-10 -2.187961E-10
       324  18  3.098578E+05  1.135652E+06  3.553579E+05 -6.468688E+04 -1.143924E-10  2.785312E-10
       324  19 -1.337131E+05  5.681141E+04 -5.065364E+04 -3.484816E+04  1.597552E+04  3.580358E+04
       324  20 -1.597571E+05  2.940301E+03 -2.919643E+04  1.128998E+04  1.666726E+04  8.400953E+04
       324  21  2.910929E+04  9.419971E+03  7.745638E+04  3.926213E+04  5.475769E+03  1.322074E+05
       324  22 -5.901436E+03  5.724468E+05  7.319459E+04 -1.276027E+04  1.597905E+04  3.261650E+04
       324  23 -2.610564E+04  5.417775E+05  1.002505E+05 -3.641797E+03  1.666271E+04  8.656940E+04
       324  24  1.694933E+05  5.724011E+05  2.164388E+05 -1.268848E+04  5.461954E+03  1.405165E+05
       324  25  1.218928E+05  1.088327E+06  1.970242E+05  9.346087E+03  1.598235E+04  2.942678E+04
       324  26  1.075256E+05  1.080881E+06  2.296770E+05 -1.858655E+04  1.665804E+04  8.913145E+04
       324  27  3.098638E+05  1.135676E+06  3.553995E+05 -6.468623E+04  5.446760E+03  1.488332E+05
       325   1 -2.977174E+06 -1.100996E+06 -5.877879E+05 -1.126319E+06 -2.807036E+05 -8.188651E+04
       325   2 -2.909176E+06 -8.603717E+05 -3.732871E+05 -1.095239E+06 -1.809150E+05  1.299954E+04
       325   3 -2.891718E+06 -7.512347E+05 -2.801587E+05 -1.048768E+06 -6.810416E+04  7.351583E+04
       325   4 -1.690576E+06 -4.931404E+05 -2.349647E+05 -6.463827E+05 -1.603965E+05 -3.654010E+04
       325   5 -1.658567E+06 -3.436220E+05 -1.101427E+05 -6.879358E+05 -1.220687E+05  3.516490E+04
       325   6 -1.664770E+06 -3.132384E+05 -5.770490E+04 -7.141316E+05 -7.074875E+04  7.249945E+04
       325   7 -4.023114E+05  1.151208E+05  1.177634E+05 -1.654481E+05 -3.981929E+04  8.968873E+03
       325   8 -4.063246E+05  1.733856E+05  1.529314E+05 -2.798276E+05 -6.309488E+04  5.739222E+04
       325   9 -4.362158E+05  1.248945E+05  1.647008E+05 -3.788763E+05 -7.339895E+04  7.148108E+04
       325  10 -2.977261E+06 -1.101024E+06 -5.879494E+05 -1.126338E+06  1.151858E-09  1.480252E-10
       325  11 -2.909212E+06 -8.603807E+05 -3.733492E+05 -1.095237E+06 -6.277437E-11 -1.003951E-09
       325  12 -2.891724E+06 -7.512417E+05 -2.801775E+05 -1.048764E+06  3.631651E-11 -1.005824E-09
       325  13 -1.690604E+06 -4.931488E+05 -2.350157E+05 -6.463874E+05  1.664278E-09  2.574974E-10
       325  14 -1.658584E+06 -3.436274E+05 -1.101731E+05 -6.879324E+05 -2.024261E-10 -4.446071E-09
       325  15 -1.664777E+06 -3.132454E+05 -5.772418E+04 -7.141275E+05  2.377761E-10 -6.502120E-10
       325  16 -4.023131E+05  1.151203E+05  1.177602E+05 -1.654478E+05 -6.942866E-10  2.000893E-10
       325  17 -4.063298E+05  1.733810E+05  1.529178E+05 -2.798246E+05 -8.791454E-10  8.782381E-10
       325  18 -4.362230E+05  1.248876E+05  1.646811E+05 -3.788720E+05 -2.353527E-10  3.671397E-10
       325  19 -2.977174E+06 -1.100996E+06 -5.877879E+05 -1.126319E+06  2.807036E+05  8.188651E+04
       325  20 -2.909176E+06 -8.603717E+05 -3.732871E+05 -1.095239E+06  1.809150E+05 -1.299954E+04
       325  21 -2.891718E+06 -7.512347E+05 -2.801587E+05 -1.048768E+06  6.810416E+04 -7.351583E+04
       325  22 -1.690576E+06 -4.931404E+05 -2.349647E+05 -6.463827E+05  1.603965E+05  3.654010E+04
       325  23 -1.658567E+06 -3.436220E+05 -1.101427E+05 -6.879358E+05  1.220687E+05 -3.516490E+04
       325  24 -1.664770E+06 -3.132384E+05 -5.770490E+04 -7.141316E+05  7.074875E+04 -7.249945E+04
       325  25 -4.023114E+05  1.151208E+05  1.177634E+05 -1.654481E+05  3.981929E+04 -8.968873E+03
       325  26 -4.063246E+05  1.733856E+05  1.529314E+05 -2.798276E+05  6.309488E+04 -5.739222E+04
       325  27 -4.362158E+05  1.248945E+05  1.647008E+05 -3.788763E+05  7.339895E+04 -7.148108E+04
       326   1 -2.824139E+06 -7.416173E+05 -2.536388E+05 -1.042501E+06 -6.454460E+04  7.304071E+04
       326   2 -2.751756E+06 -6.961451E+05 -2.129555E+05 -1.014261E+06 -4.695726E+04  7.842356E+04
       326   3 -2.672324E+06 -6.701651E+05 -1.870472E+05 -9.984016E+05 -2.816136E+04  8.059582E+04
       326   4 -1.657695E+06 -3.136724E+05 -4.329841E+04 -7.116704E+05 -6.365889E+04  7.335515E+04
       326   5 -1.661072E+06 -2.997142E+05 -2.273663E+04 -7.072639E+05 -5.179683E+04  7.658319E+04
       326   6 -1.656258E+06 -3.040989E+05 -1.238015E+04 -7.152388E+05 -3.872979E+04  7.660277E+04
       326   7 -4.898096E+05  1.144117E+05  1.669952E+05 -3.802545E+05 -6.277137E+04  7.367031E+04
       326   8 -5.691275E+05  9.683456E+04  1.674449E+05 -3.997612E+05 -5.664546E+04  7.473940E+04
       326   9 -6.391034E+05  6.206400E+04  1.622550E+05 -4.316441E+05 -4.931660E+04  7.260287E+04
       326  10 -2.824145E+06 -7.416242E+05 -2.536566E+05 -1.042497E+06  6.355623E-10 -5.428231E-10
       326  11 -2.751760E+06 -6.961522E+05 -2.129712E+05 -1.014258E+06  7.165120E-10 -1.018460E-09
       326  12 -2.672326E+06 -6.701723E+05 -1.870608E+05 -9.983998E+05 -3.358297E-10 -4.271521E-10
       326  13 -1.657700E+06 -3.136793E+05 -4.331613E+04 -7.116666E+05 -6.003173E-10 -2.024353E-09
       326  14 -1.661076E+06 -2.997212E+05 -2.275268E+04 -7.072607E+05 -7.201739E-10 -1.902450E-09
       326  15 -1.656262E+06 -3.041056E+05 -1.239398E+04 -7.152365E+05 -1.274147E-10 -1.618667E-09
       326  16 -4.898153E+05  1.144048E+05  1.669776E+05 -3.802507E+05 -1.456725E-09 -4.946034E-10
       326  17 -5.691324E+05  9.682770E+04  1.674284E+05 -3.997578E+05 -6.066526E-10 -2.715665E-10
       326  18 -6.391074E+05  6.205770E+04  1.622405E+05 -4.316412E+05  1.920226E-10 -3.739658E-11
       326  19 -2.824139E+06 -7.416173E+05 -2.536388E+05 -1.042501E+06  6.454460E+04 -7.304071E+04
       326  20 -2.751756E+06 -6.961451E+05 -2.129555E+05 -1.014261E+06  4.695726E+04 -7.842356E+04
       326  21 -2.672324E+06 -6.701651E+05 -1.870472E+05 -9.984016E+05  2.816136E+04 -8.059582E+04
       326  22 -1.657695E+06 -3.136724E+05 -4.329841E+04 -7.116704E+05  6.365889E+04 -7.335515E+04
       326  23 -1.661072E+06 -2.997142E+05 -2.273663E+04 -7.072639E+05  5.179683E+04 -7.658319E+04
       326  24 -1.656258E+06 -3.040989E+05 -1.238015E+04 -7.152388E+05  3.872979E+04 -7.660277E+04
       326  25 -4.898096E+05  1.144117E+05  1.669952E+05 -3.802545E+05  6.277137E+04 -7.367031E+04
       326  26 -5.691275E+05  9.683456E+04  1.674449E+05 -3.997612E+05  5.664546E+04 -7.473940E+04
       326  27 -6.391034E+05  6.206400E+04  1.622550E+05 -4.316441E+05  4.931660E+04 -7.260287E+04
       327   1 -2.620883E+06 -6.525742E+05 -1.747190E+05 -9.848669E+05 -2.543224E+04  7.761848E+04
       327   2 -2.548602E+06 -6.177494E+05 -1.567228E+05 -9.560957E+05 -2.010261E+04  7.289671E+04
       327   3 -2.464598E+06 -5.955935E+05 -1.411350E+05 -9.412464E+05 -1.465762E+04  6.785713E+04
       327   4 -1.655631E+06 -3.041904E+05 -9.294976E+03 -7.150563E+05 -3.570560E+04  7.373918E+04
       327   5 -1.661489E+06 -2.977071E+05 -5.102054E+03 -7.081597E+05 -3.094078E+04  6.880909E+04
       327   6 -1.655519E+06 -3.037799E+05 -2.867752E+03 -7.151864E+05 -2.606113E+04  6.356130E+04
       327   7 -6.893758E+05  4.428979E+04  1.561063E+05 -4.448485E+05 -4.599614E+04  6.985346E+04
       327   8 -7.735303E+05  2.241528E+04  1.464988E+05 -4.598893E+05 -4.179554E+04  6.471525E+04
       327   9 -8.457403E+05 -1.190124E+04  1.353821E+05 -4.888494E+05 -3.748051E+04  5.925952E+04
       327  10 -2.620885E+06 -6.525809E+05 -1.747315E+05 -9.848654E+05 -8.369559E-09 -4.516177E-09
       327  11 -2.548604E+06 -6.177552E+05 -1.567335E+05 -9.560945E+05  1.917730E-08  7.208613E-09
       327  12 -2.464600E+06 -5.955985E+05 -1.411441E+05 -9.412456E+05  4.317306E-08  1.716546E-08
       327  13 -1.655634E+06 -3.041966E+05 -9.307578E+03 -7.150542E+05  6.909389E-10 -1.437126E-10
       327  14 -1.661491E+06 -2.977124E+05 -5.112741E+03 -7.081580E+05  1.813892E-11  3.046507E-10
       327  15 -1.655520E+06 -3.037845E+05 -2.876612E+03 -7.151851E+05 -4.365206E-09  1.167385E-09
       327  16 -6.893794E+05  4.428399E+04  1.560932E+05 -4.448459E+05  1.006095E-08  3.865152E-09
       327  17 -7.735333E+05  2.241031E+04  1.464877E+05 -4.598872E+05 -2.102383E-08 -7.249090E-09
       327  18 -8.457427E+05 -1.190538E+04  1.353728E+05 -4.888476E+05 -4.964563E-08 -1.659405E-08
       327  19 -2.620883E+06 -6.525742E+05 -1.747190E+05 -9.848669E+05  2.543224E+04 -7.761848E+04
       327  20 -2.548602E+06 -6.177494E+05 -1.567228E+05 -9.560957E+05  2.010261E+04 -7.289671E+04
       327  21 -2.464598E+06 -5.955935E+05 -1.411350E+05 -9.412464E+05  1.465762E+04 -6.785713E+04
       327  22 -1.655631E+06 -3.041904E+05 -9.294976E+03 -7.150563E+05  3.570560E+04 -7.373918E+04
       327  23 -1.661489E+06 -2.977071E+05 -5.102054E+03 -7.081597E+05  3.094078E+04 -6.880909E+04
       327  24 -1.655519E+06 -3.037799E+05 -2.867752E+03 -7.151864E+05  2.606113E+04 -6.356130E+04
       327  25 -6.893758E+05  4.428979E+04  1.561063E+05 -4.448485E+05  4.599614E+04 -6.985346E+04
       327  26 -7.735303E+05  2.241528E+04  1.464988E+05 -4.598893E+05  4.179554E+04 -6.471525E+04
       327  27 -8.457403E+05 -1.190124E+04  1.353821E+05 -4.888494E+05  3.748051E+04 -5.925952E+04
       328   1 -2.413913E+06 -5.773159E+05 -1.314261E+05 -9.271685E+05 -1.284135E+04  6.429805E+04
       328   2 -2.341201E+06 -5.427103E+05 -1.172830E+05 -8.980958E+05 -9.672570E+03  5.819947E+04
       328   3 -2.256233E+06 -5.204301E+05 -1.036988E+05 -8.830957E+05 -6.490687E+03  5.205608E+04
       328   4 -1.655413E+06 -3.037956E+05 -2.206809E+03 -7.151857E+05 -2.424371E+04  6.000497E+04
       328   5 -1.661524E+06 -2.976077E+05 -1.381693E+03 -7.081531E+05 -2.115412E+04  5.388006E+04
       328   6 -1.655369E+06 -3.037298E+05 -1.053148E+03 -7.151952E+05 -1.805151E+04  4.771030E+04
       328   7 -8.963066E+05 -3.022096E+04  1.269951E+05 -5.029615E+05 -3.566082E+04  5.570636E+04
       328   8 -9.813536E+05 -5.245905E+04  1.145076E+05 -5.180149E+05 -3.264908E+04  4.955562E+04
       328   9 -1.054114E+06 -8.699119E+04  1.015849E+05 -5.471402E+05 -2.962439E+04  4.335999E+04
       328  10 -2.413915E+06 -5.773204E+05 -1.314341E+05 -9.271678E+05 -5.307047E-08 -1.787047E-08
       328  11 -2.341202E+06 -5.427140E+05 -1.172896E+05 -8.980954E+05 -2.102907E-08 -6.471681E-09
       328  12 -2.256234E+06 -5.204330E+05 -1.037040E+05 -8.830954E+05  1.056650E-08  3.696527E-09
       328  13 -1.655415E+06 -3.037996E+05 -2.214673E+03 -7.151845E+05 -3.506767E-09  7.192309E-10
       328  14 -1.661525E+06 -2.976109E+05 -1.387984E+03 -7.081522E+05 -1.333275E-11  9.658825E-10
       328  15 -1.655370E+06 -3.037323E+05 -1.058034E+03 -7.151945E+05  2.110462E-10 -4.504203E-10
       328  16 -8.963088E+05 -3.022463E+04  1.269869E+05 -5.029599E+05  4.662077E-08  1.909928E-08
       328  17 -9.813554E+05 -5.246197E+04  1.145010E+05 -5.180136E+05  2.028978E-08  8.662974E-09
       328  18 -1.054115E+06 -8.699344E+04  1.015797E+05 -5.471391E+05 -9.541921E-09 -4.546872E-09
       328  19 -2.413913E+06 -5.773159E+05 -1.314261E+05 -9.271685E+05  1.284135E+04 -6.429805E+04
       328  20 -2.341201E+06 -5.427103E+05 -1.172830E+05 -8.980958E+05  9.672570E+03 -5.819947E+04
       328  21 -2.256233E+06 -5.204301E+05 -1.036988E+05 -8.830957E+05  6.490687E+03 -5.205608E+04
       328  22 -1.655413E+06 -3.037956E+05 -2.206809E+03 -7.151857E+05  2.424371E+04 -6.000497E+04
       328  23 -1.661524E+06 -2.976077E+05 -1.381693E+03 -7.081531E+05  2.115412E+04 -5.388006E+04
       328  24 -1.655369E+06 -3.037298E+05 -1.053148E+03 -7.151952E+05  1.805151E+04 -4.771030E+04
       328  25 -8.963066E+05 -3.022096E+04  1.269951E+05 -5.029615E+05  3.566082E+04 -5.570636E+04
       328  26 -9.813536E+05 -5.245905E+04  1.145076E+05 -5.180149E+05  3.264908E+04 -4.955562E+04
       328  27 -1.054114E+06 -8.699119E+04  1.015849E+05 -5.471402E+05  2.962439E+04 -4.335999E+04
       329   1 -2.205275E+06 -5.019902E+05 -9.459492E+04 -8.689139E+05 -4.884328E+03  4.836926E+04
       329   2 -2.132059E+06 -4.672056E+05 -8.150340E+04 -8.396946E+05 -1.796107E+03  4.214986E+04
       329   3 -2.046526E+06 -4.448082E+05 -6.889592E+04 -8.246478E+05  1.293231E+03  3.592042E+04
       329   4 -1.655342E+06 -3.037288E+05 -1.038703E+03 -7.152177E+05 -1.646461E+04  4.401788E+04
       329   5 -1.661479E+06 -2.974908E+05 -1.290300E+03 -7.081422E+05 -1.339387E+04  3.779432E+04
       329   6 -1.655302E+06 -3.036365E+05 -2.012819E+03 -7.152407E+05 -1.032211E+04  3.156069E+04
       329   7 -1.105087E+06 -1.054372E+05  9.250985E+04 -5.613936E+05 -2.805582E+04  3.966240E+04
       329   8 -1.190665E+06 -1.277549E+05  7.891659E+04 -5.764967E+05 -2.500093E+04  3.343527E+04
       329   9 -1.263920E+06 -1.624510E+05  6.486545E+04 -6.057699E+05 -2.194512E+04  2.719807E+04
       329  10 -2.205275E+06 -5.019927E+05 -9.459936E+04 -8.689137E+05 -2.467439E-09 -1.956198E-09
       329  11 -2.132060E+06 -4.672075E+05 -8.150674E+04 -8.396946E+05 -1.178441E-09 -1.037312E-09
       329  12 -2.046526E+06 -4.448095E+05 -6.889835E+04 -8.246478E+05 -1.694600E-09 -5.489003E-10
       329  13 -1.655343E+06 -3.037309E+05 -1.042850E+03 -7.152171E+05  2.781752E-10 -1.084956E-09
       329  14 -1.661480E+06 -2.974924E+05 -1.293318E+03 -7.081418E+05  2.170712E-11 -5.444330E-10
       329  15 -1.655303E+06 -3.036376E+05 -2.014889E+03 -7.152404E+05 -3.293254E-10 -1.768693E-10
       329  16 -1.105088E+06 -1.054391E+05  9.250542E+04 -5.613927E+05  2.357588E-09 -2.063486E-10
       329  17 -1.190666E+06 -1.277563E+05  7.891332E+04 -5.764960E+05  1.964617E-09 -9.089669E-11
       329  18 -1.263921E+06 -1.624520E+05  6.486315E+04 -6.057694E+05  7.144612E-10  1.659942E-11
       329  19 -2.205275E+06 -5.019902E+05 -9.459492E+04 -8.689139E+05  4.884328E+03 -4.836926E+04
       329  20 -2.132059E+06 -4.672056E+05 -8.150340E+04 -8.396946E+05  1.796107E+03 -4.214986E+04
       329  21 -2.046526E+06 -4.448082E+05 -6.889592E+04 -8.246478E+05 -1.293231E+03 -3.592042E+04
       329  22 -1.655342E+06 -3.037288E+05 -1.038703E+03 -7.152177E+05  1.646461E+04 -4.401788E+04
       329  23 -1.661479E+06 -2.974908E+05 -1.290300E+03 -7.081422E+05  1.339387E+04 -3.779432E+04
       329  24 -1.655302E+06 -3.036365E+05 -2.012819E+03 -7.152407E+05  1.032211E+04 -3.156069E+04
       329  25 -1.105087E+06 -1.054372E+05  9.250985E+04 -5.613936E+05  2.805582E+04 -3.966240E+04
       329  26 -1.190665E+06 -1.277549E+05  7.891659E+04 -5.764967E+05  2.500093E+04 -3.343527E+04
       329  27 -1.263920E+06 -1.624510E+05  6.486545E+04 -6.057699E+05  2.194512E+04 -2.719807E+04
       330   1 -1.995300E+06 -4.263119E+05 -6.034671E+04 -8.104759E+05  3.111276E+03  3.229346E+04
       330   2 -1.921614E+06 -3.914039E+05 -4.891403E+04 -7.811082E+05  7.744126E+03  2.665509E+04
       330   3 -1.835893E+06 -3.692394E+05 -3.920050E+04 -7.659770E+05  1.235751E+04  2.106560E+04
       330   4 -1.655351E+06 -3.036237E+05 -2.605594E+03 -7.152892E+05 -8.523476E+03  2.792754E+04
       330   5 -1.661364E+06 -2.973531E+05 -4.600265E+03 -7.081253E+05 -3.802761E+03  2.232342E+04
       330   6 -1.655369E+06 -3.038448E+05 -8.384974E+03 -7.152006E+05  8.981829E+02  1.676806E+04
       330   7 -1.315276E+06 -1.809224E+05  5.513403E+04 -6.200523E+05 -2.016514E+04  2.355902E+04
       330   8 -1.401041E+06 -2.032949E+05  3.971264E+04 -6.351131E+05 -1.535487E+04  1.798978E+04
       330   9 -1.474810E+06 -2.384468E+05  2.243024E+04 -6.644102E+05 -1.056470E+04  1.246918E+04
       330  10 -1.995300E+06 -4.263131E+05 -6.034869E+04 -8.104760E+05 -2.836678E-10 -6.982091E-11
       330  11 -1.921614E+06 -3.914046E+05 -4.891548E+04 -7.811084E+05 -3.519913E-11  1.273358E-10
       330  12 -1.835893E+06 -3.692399E+05 -3.920162E+04 -7.659772E+05 -1.758498E-09 -2.096222E-10
       330  13 -1.655352E+06 -3.036246E+05 -2.607194E+03 -7.152890E+05  5.906953E-11 -1.686865E-10
       330  14 -1.661364E+06 -2.973537E+05 -4.601228E+03 -7.081252E+05  8.828499E-10  2.668431E-10
       330  15 -1.655369E+06 -3.038451E+05 -8.385504E+03 -7.152006E+05 -8.917568E-10  7.935093E-11
       330  16 -1.315276E+06 -1.809231E+05  5.513222E+04 -6.200519E+05  1.005017E-09 -1.036343E-10
       330  17 -1.401041E+06 -2.032953E+05  3.971159E+04 -6.351128E+05  2.721805E-10  3.647755E-11
       330  18 -1.474810E+06 -2.384470E+05  2.242974E+04 -6.644101E+05  1.520211E-09  8.464891E-10
       330  19 -1.995300E+06 -4.263119E+05 -6.034671E+04 -8.104759E+05 -3.111276E+03 -3.229346E+04
       330  20 -1.921614E+06 -3.914039E+05 -4.891403E+04 -7.811082E+05 -7.744126E+03 -2.665509E+04
       330  21 -1.835893E+06 -3.692394E+05 -3.920050E+04 -7.659770E+05 -1.235751E+04 -2.106560E+04
       330  22 -1.655351E+06 -3.036237E+05 -2.605594E+03 -7.152892E+05  8.523476E+03 -2.792754E+04
       330  23 -1.661364E+06 -2.973531E+05 -4.600265E+03 -7.081253E+05  3.802761E+03 -2.232342E+04
       330  24 -1.655369E+06 -3.038448E+05 -8.384974E+03 -7.152006E+05 -8.981829E+02 -1.676806E+04
       330  25 -1.315276E+06 -1.809224E+05  5.513403E+04 -6.200523E+05  2.016514E+04 -2.355902E+04
       330  26 -1.401041E+06 -2.032949E+05  3.971264E+04 -6.351131E+05  1.535487E+04 -1.798978E+04
       330  27 -1.474810E+06 -2.384468E+05  2.243024E+04 -6.644102E+05  1.056470E+04 -1.246918E+04
       331   1 -1.784417E+06 -3.511625E+05 -3.277132E+04 -7.525583E+05  1.537058E+04  1.791276E+04
       331   2 -1.711596E+06 -3.156563E+05 -2.820121E+04 -7.200113E+05  2.690632E+04  1.524990E+04
       331   3 -1.629636E+06 -2.981936E+05 -3.201300E+04 -7.006306E+05  3.821579E+04  1.319223E+04
       331   4 -1.655873E+06 -3.037883E+05 -1.117215E+04 -7.154408E+05  3.841881E+03  1.358972E+04
       331   5 -1.660937E+06 -2.989169E+05 -2.049619E+04 -7.072622E+05  1.646212E+04  1.133365E+04
       331   6 -1.657085E+06 -3.123052E+05 -3.906408E+04 -7.122531E+05  2.885502E+04  9.682204E+03
       331   7 -1.527312E+06 -2.564127E+05  1.042681E+04 -6.783163E+05 -7.689236E+03  9.265725E+03
       331   8 -1.610275E+06 -2.821771E+05 -1.279074E+04 -6.945122E+05  6.017020E+03  7.417114E+03
       331   9 -1.684533E+06 -3.264166E+05 -4.611493E+04 -7.238752E+05  1.949460E+04  6.172459E+03
       331  10 -1.784418E+06 -3.511629E+05 -3.277237E+04 -7.525585E+05 -4.279739E-10  1.415269E-10
       331  11 -1.711597E+06 -3.156568E+05 -2.820301E+04 -7.200116E+05 -1.763475E-10 -5.753028E-10
       331  12 -1.629638E+06 -2.981942E+05 -3.201608E+04 -7.006310E+05  1.937092E-10 -6.750710E-10
       331  13 -1.655873E+06 -3.037885E+05 -1.117252E+04 -7.154409E+05 -2.808829E-10  2.310440E-10
       331  14 -1.660937E+06 -2.989171E+05 -2.049694E+04 -7.072624E+05 -5.324819E-10 -6.359872E-10
       331  15 -1.657086E+06 -3.123056E+05 -3.906583E+04 -7.122534E+05  4.373640E-10 -6.208639E-10
       331  16 -1.527312E+06 -2.564128E+05  1.042654E+04 -6.783163E+05  8.094980E-10  4.088928E-10
       331  17 -1.610275E+06 -2.821772E+05 -1.279091E+04 -6.945122E+05  9.819600E-10 -1.134471E-11
       331  18 -1.684533E+06 -3.264168E+05 -4.611572E+04 -7.238753E+05  5.517255E-10 -8.772229E-10
       331  19 -1.784417E+06 -3.511625E+05 -3.277132E+04 -7.525583E+05 -1.537058E+04 -1.791276E+04
       331  20 -1.711596E+06 -3.156563E+05 -2.820121E+04 -7.200113E+05 -2.690632E+04 -1.524990E+04
       331  21 -1.629636E+06 -2.981936E+05 -3.201300E+04 -7.006306E+05 -3.821579E+04 -1.319223E+04
       331  22 -1.655873E+06 -3.037883E+05 -1.117215E+04 -7.154408E+05 -3.841881E+03 -1.358972E+04
       331  23 -1.660937E+06 -2.989169E+05 -2.049619E+04 -7.072622E+05 -1.646212E+04 -1.133365E+04
       331  24 -1.657085E+06 -3.123052E+05 -3.906408E+04 -7.122531E+05 -2.885502E+04 -9.682204E+03
       331  25 -1.527312E+06 -2.564127E+05  1.042681E+04 -6.783163E+05  7.689236E+03 -9.265725E+03
       331  26 -1.610275E+06 -2.821771E+05 -1.279074E+04 -6.945122E+05 -6.017020E+03 -7.417114E+03
       331  27 -1.684533E+06 -3.264166E+05 -4.611493E+04 -7.238752E+05 -1.949460E+04 -6.172459E+03
       332   1 -1.575646E+06 -2.875236E+05 -3.522608E+04 -6.982879E+05  4.603233E+04  1.224466E+04
       332   2 -1.535577E+06 -2.410142E+05 -6.380093E+04 -6.018605E+05  8.679163E+04  2.489829E+04
       332   3 -1.524739E+06 -3.029291E+05 -1.483969E+05 -4.952070E+05  1.250924E+05  4.412430E+04
       332   4 -1.663165E+06 -3.121736E+05 -5.206683E+04 -7.148137E+05  3.598906E+04  8.479557E+03
       332   5 -1.658890E+06 -3.381090E+05 -9.935758E+04 -6.894575E+05  8.851166E+04  2.553421E+04
       332   6 -1.686212E+06 -4.748416E+05 -2.120211E+05 -6.538822E+05  1.385712E+05  4.915072E+04
       332   7 -1.750677E+06 -3.368236E+05 -6.890759E+04 -7.313377E+05  2.594726E+04  4.714707E+03
       332   8 -1.782178E+06 -4.351772E+05 -1.349133E+05 -7.770316E+05  9.023131E+04  2.616960E+04
       332   9 -1.847621E+06 -6.466544E+05 -2.756387E+05 -8.124954E+05  1.520457E+05  5.416941E+04
       332  10 -1.575648E+06 -2.875243E+05 -3.523036E+04 -6.982884E+05  8.221602E-10 -3.487492E-10
       332  11 -1.535585E+06 -2.410169E+05 -6.381630E+04 -6.018623E+05  5.994525E-10 -3.993970E-10
       332  12 -1.524756E+06 -3.029354E+05 -1.484301E+05 -4.952115E+05 -4.195002E-10 -3.520689E-10
       332  13 -1.663167E+06 -3.121740E+05 -5.206940E+04 -7.148140E+05  1.270016E-09 -4.651283E-10
       332  14 -1.658899E+06 -3.381118E+05 -9.937357E+04 -6.894594E+05  5.093720E-10 -3.385301E-10
       332  15 -1.686234E+06 -4.748494E+05 -2.120619E+05 -6.538877E+05  9.697467E-11 -1.591454E-10
       332  16 -1.750678E+06 -3.368238E+05 -6.890890E+04 -7.313378E+05  9.704888E-11 -9.439259E-10
       332  17 -1.782187E+06 -4.351802E+05 -1.349299E+05 -7.770335E+05  3.768636E-10 -5.046114E-10
       332  18 -1.847647E+06 -6.466638E+05 -2.756878E+05 -8.125021E+05  1.645185E-10 -7.806509E-11
       332  19 -1.575646E+06 -2.875236E+05 -3.522608E+04 -6.982879E+05 -4.603233E+04 -1.224466E+04
       332  20 -1.535577E+06 -2.410142E+05 -6.380093E+04 -6.018605E+05 -8.679163E+04 -2.489829E+04
       332  21 -1.524739E+06 -3.029291E+05 -1.483969E+05 -4.952070E+05 -1.250924E+05 -4.412430E+04
       332  22 -1.663165E+06 -3.121736E+05 -5.206683E+04 -7.148137E+05 -3.598906E+04 -8.479557E+03
       332  23 -1.658890E+06 -3.381090E+05 -9.935758E+04 -6.894575E+05 -8.851166E+04 -2.553421E+04
       332  24 -1.686212E+06 -4.748416E+05 -2.120211E+05 -6.538822E+05 -1.385712E+05 -4.915072E+04
       332  25 -1.750677E+06 -3.368236E+05 -6.890759E+04 -7.313377E+05 -2.594726E+04 -4.714707E+03
       332  26 -1.782178E+06 -4.351772E+05 -1.349133E+05 -7.770316E+05 -9.023131E+04 -2.616960E+04
       332  27 -1.847621E+06 -6.466544E+05 -2.756387E+05 -8.124954E+05 -1.520457E+05 -5.416941E+04
       333   1  8.834761E+05  1.570305E+05  2.220067E+05  5.864494E+04  2.037376E+05  3.465977E+03
       333   2  8.697903E+05 -1.123616E+05  5.948913E+04  1.793447E+04  1.352779E+05  9.672396E+03
       333   3  9.402644E+05 -8.137780E+04  1.664738E+04 -4.490571E+04  6.681999E+04  8.643191E+03
       333   4  1.219166E+06  2.404308E+05  3.047808E+05 -1.390676E+04  2.085828E+05  3.447543E+03
       333   5  1.176878E+06 -3.632139E+04  1.331804E+05 -2.704965E+03  1.366060E+05  9.668823E+03
       333   6  1.219308E+06 -1.217847E+04  8.364859E+04 -1.363266E+04  6.463462E+04  8.644623E+03
       333   7  1.554970E+06  3.238424E+05  3.875494E+05 -8.649771E+04  2.134306E+05  3.427989E+03
       333   8  1.484053E+06  3.971364E+04  2.068652E+05 -2.335465E+04  1.379348E+05  9.665163E+03
       333   9  1.498425E+06  5.701887E+04  1.506448E+05  1.765447E+04  6.244827E+04  8.645834E+03
       333  10  8.834316E+05  1.570194E+05  2.219288E+05  5.864437E+04  1.717597E-10 -1.560960E-09
       333  11  8.697707E+05 -1.123667E+05  5.945462E+04  1.793341E+04  4.676173E-10 -5.837684E-10
       333  12  9.402596E+05 -8.137908E+04  1.663886E+04 -4.490617E+04 -1.775928E-09 -8.223696E-10
       333  13  1.219120E+06  2.404191E+05  3.046991E+05 -1.390734E+04 -2.565874E-11  4.361748E-10
       333  14  1.176858E+06 -3.632649E+04  1.331452E+05 -2.706028E+03 -6.398325E-10 -8.917595E-10
       333  15  1.219303E+06 -1.217967E+04  8.364062E+04 -1.363311E+04 -7.433804E-10 -7.842834E-10
       333  16  1.554921E+06  3.238302E+05  3.874640E+05 -8.649830E+04 -9.603561E-10  3.532919E-10
       333  17  1.484032E+06  3.970845E+04  2.068294E+05 -2.335572E+04  1.407269E-09 -5.425688E-10
       333  18  1.498421E+06  5.701775E+04  1.506374E+05  1.765403E+04  2.795336E-09  1.805194E-09
       333  19  8.834761E+05  1.570305E+05  2.220067E+05  5.864494E+04 -2.037376E+05 -3.465977E+03
       333  20  8.697903E+05 -1.123616E+05  5.948913E+04  1.793447E+04 -1.352779E+05 -9.672396E+03
       333  21  9.402644E+05 -8.137780E+04  1.664738E+04 -4.490571E+04 -6.681999E+04 -8.643191E+03
       333  22  1.219166E+06  2.404308E+05  3.047808E+05 -1.390676E+04 -2.085828E+05 -3.447543E+03
       333  23  1.176878E+06 -3.632139E+04  1.331804E+05 -2.704965E+03 -1.366060E+05 -9.668823E+03
       333  24  1.219308E+06 -1.217847E+04  8.364859E+04 -1.363266E+04 -6.463462E+04 -8.644623E+03
       333  25  1.554970E+06  3.238424E+05  3.875494E+05 -8.649771E+04 -2.134306E+05 -3.427989E+03
       333  26  1.484053E+06  3.971364E+04  2.068652E+05 -2.335465E+04 -1.379348E+05 -9.665163E+03
       333  27  1.498425E+06  5.701887E+04  1.506448E+05  1.765447E+04 -6.244827E+04 -8.645834E+03
       334   1  9.626557E+05 -3.341451E+04  1.053704E+04 -6.405836E+03  5.164903E+04  6.954442E+03
       334   2  9.841018E+05 -5.695402E+04 -1.667556E+04 -1.281561E+03  3.414763E+04  6.452743E+03
       334   3  1.016129E+06 -4.760746E+04 -2.426563E+04 -1.708474E+04  1.664562E+04  5.398696E+03
       334   4  1.202814E+06  2.610855E+04  6.833863E+04 -1.345876E+04  5.155966E+04  6.953611E+03
       334   5  1.197515E+06 -4.069239E+03  3.460161E+04 -2.986848E+03  3.378645E+04  6.452305E+03
       334   6  1.202839E+06 -1.320470E+03  2.066999E+04 -1.344170E+04  1.601338E+04  5.398435E+03
       334   7  1.443025E+06  8.562759E+04  1.261361E+05 -2.051443E+04  5.147026E+04  6.952783E+03
       334   8  1.410969E+06  4.881224E+04  8.587554E+04 -4.692729E+03  3.342515E+04  6.451869E+03
       334   9  1.389580E+06  4.496403E+04  6.560314E+04 -9.797553E+03  1.538095E+04  5.398168E+03
       334  10  9.626528E+05 -3.341527E+04  1.053194E+04 -6.406125E+03 -1.366284E-10 -9.987314E-11
       334  11  9.841005E+05 -5.695437E+04 -1.667783E+04 -1.281738E+03  1.179359E-10  4.421331E-10
       334  12  1.016129E+06 -4.760756E+04 -2.426620E+04 -1.708482E+04 -6.162913E-10 -1.143206E-10
       334  13  1.202811E+06  2.610778E+04  6.833355E+04 -1.345905E+04 -2.743970E-10  1.406435E-09
       334  14  1.197513E+06 -4.069589E+03  3.459939E+04 -2.987024E+03  2.516814E-09  4.619845E-10
       334  15  1.202838E+06 -1.320570E+03  2.066945E+04 -1.344177E+04 -1.659702E-09 -4.426634E-10
       334  16  1.443022E+06  8.562683E+04  1.261311E+05 -2.051472E+04  5.010655E-10  1.010134E-09
       334  17  1.410968E+06  4.881190E+04  8.587337E+04 -4.692902E+03  2.341521E-09 -3.398550E-10
       334  18  1.389580E+06  4.496394E+04  6.560264E+04 -9.797620E+03  9.687105E-10  1.927513E-11
       334  19  9.626557E+05 -3.341451E+04  1.053704E+04 -6.405836E+03 -5.164903E+04 -6.954442E+03
       334  20  9.841018E+05 -5.695402E+04 -1.667556E+04 -1.281561E+03 -3.414763E+04 -6.452743E+03
       334  21  1.016129E+06 -4.760746E+04 -2.426563E+04 -1.708474E+04 -1.664562E+04 -5.398696E+03
       334  22  1.202814E+06  2.610855E+04  6.833863E+04 -1.345876E+04 -5.155966E+04 -6.953611E+03
       334  23  1.197515E+06 -4.069239E+03  3.460161E+04 -2.986848E+03 -3.378645E+04 -6.452305E+03
       334  24  1.202839E+06 -1.320470E+03  2.066999E+04 -1.344170E+04 -1.601338E+04 -5.398435E+03
       334  25  1.443025E+06  8.562759E+04  1.261361E+05 -2.051443E+04 -5.147026E+04 -6.952783E+03
       334  26  1.410969E+06  4.881224E+04  8.587554E+04 -4.692729E+03 -3.342515E+04 -6.451869E+03
       334  27  1.389580E+06  4.496403E+04  6.560314E+04 -9.797553E+03 -1.538095E+04 -5.398168E+03
       335   1  1.051362E+06 -3.424008E+04 -1.963154E+04 -1.274197E+04  1.320910E+04  4.707812E+03
       335   2  1.076402E+06 -3.111169E+04 -2.086879E+04 -3.137985E+03  8.781715E+03  3.718171E+03
       335   3  1.102943E+06 -2.440988E+04 -1.832695E+04 -1.372982E+04  4.353967E+03  2.695130E+03
       335   4  1.200813E+06  2.781597E+03  1.621443E+04 -1.328491E+04  1.274416E+04  4.707569E+03
       335   5  1.200063E+06 -4.673868E+02  8.846444E+03 -3.186679E+03  8.299737E+03  3.717994E+03
       335   6  1.200818E+06 -1.403638E+02  5.268755E+03 -1.328401E+04  3.855132E+03  2.695016E+03
       335   7  1.350283E+06  3.980165E+04  5.205881E+04 -1.382798E+04  1.227911E+04  4.707328E+03
       335   8  1.323739E+06  3.017580E+04  3.856059E+04 -3.235383E+03  7.817663E+03  3.717817E+03
       335   9  1.298702E+06  2.412846E+04  2.886378E+04 -1.283812E+04  3.356219E+03  2.694901E+03
       335  10  1.051362E+06 -3.424015E+04 -1.963191E+04 -1.274202E+04 -7.700827E-10 -4.140028E-10
       335  11  1.076402E+06 -3.111172E+04 -2.086896E+04 -3.138012E+03 -1.617059E-09 -4.654976E-10
       335  12  1.102943E+06 -2.440989E+04 -1.832700E+04 -1.372983E+04  3.613477E-10 -4.514744E-10
       335  13  1.200813E+06  2.781530E+03  1.621408E+04 -1.328496E+04  1.950742E-09  7.862773E-11
       335  14  1.200063E+06 -4.674201E+02  8.846289E+03 -3.186704E+03  4.024995E-10 -1.141752E-10
       335  15  1.200818E+06 -1.403756E+02  5.268713E+03 -1.328401E+04 -7.626446E-10 -7.887471E-10
       335  16  1.350283E+06  3.980159E+04  5.205849E+04 -1.382803E+04  1.025698E-09  2.371525E-10
       335  17  1.323739E+06  3.017577E+04  3.856045E+04 -3.235406E+03  2.356165E-09 -2.891735E-10
       335  18  1.298702E+06  2.412845E+04  2.886375E+04 -1.283813E+04  2.957929E-10 -7.433747E-11
       335  19  1.051362E+06 -3.424008E+04 -1.963154E+04 -1.274197E+04 -1.320910E+04 -4.707812E+03
       335  20  1.076402E+06 -3.111169E+04 -2.086879E+04 -3.137985E+03 -8.781715E+03 -3.718171E+03
       335  21  1.102943E+06 -2.440988E+04 -1.832695E+04 -1.372982E+04 -4.353967E+03 -2.695130E+03
       335  22  1.200813E+06  2.781597E+03  1.621443E+04 -1.328491E+04 -1.274416E+04 -4.707569E+03
       335  23  1.200063E+06 -4.673868E+02  8.846444E+03 -3.186679E+03 -8.299737E+03 -3.717994E+03
       335  24  1.200818E+06 -1.403638E+02  5.268755E+03 -1.328401E+04 -3.855132E+03 -2.695016E+03
       335  25  1.350283E+06  3.980165E+04  5.205881E+04 -1.382798E+04 -1.227911E+04 -4.707328E+03
       335  26  1.323739E+06  3.017580E+04  3.856059E+04 -3.235383E+03 -7.817663E+03 -3.717817E+03
       335  27  1.298702E+06  2.412846E+04  2.886378E+04 -1.283812E+04 -3.356219E+03 -2.694901E+03
       336   1  1.138965E+06 -1.496315E+04 -1.058439E+04 -1.319778E+04  3.494776E+03  2.097663E+03
       336   2  1.164175E+06 -9.038969E+03 -6.148493E+03 -3.301959E+03  2.222681E+03  1.088613E+03
       336   3  1.189661E+06 -2.711699E+03 -7.828422E+02 -1.325904E+04  9.504361E+02  7.968784E+01
       336   4  1.200547E+06  2.811697E+02  4.135619E+03 -1.320814E+04  3.009995E+03  2.097577E+03
       336   5  1.200410E+06 -6.023729E+01  2.558142E+03 -3.281712E+03  1.737834E+03  1.088544E+03
       336   6  1.200548E+06  1.369891E+00  1.910316E+03 -1.320811E+04  4.655752E+02  7.963715E+01
       336   7  1.262131E+06  1.552522E+04  1.885536E+04 -1.321851E+04  2.525166E+03  2.097490E+03
       336   8  1.236645E+06  8.918399E+03  1.126469E+04 -3.261464E+03  1.252959E+03  1.088474E+03
       336   9  1.211434E+06  2.714430E+03  4.603465E+03 -1.315718E+04 -1.929421E+01  7.958638E+01
       336  10  1.138965E+06 -1.496316E+04 -1.058442E+04 -1.319779E+04  4.356584E-10 -4.823284E-10
       336  11  1.164175E+06 -9.038972E+03 -6.148505E+03 -3.301961E+03 -9.115073E-10  2.581056E-10
       336  12  1.189661E+06 -2.711699E+03 -7.828439E+02 -1.325904E+04 -3.859974E-10 -1.187560E-10
       336  13  1.200547E+06  2.811626E+02  4.135594E+03 -1.320815E+04 -9.989515E-10 -2.152642E-10
       336  14  1.200410E+06 -6.023937E+01  2.558134E+03 -3.281714E+03 -5.691924E-10  7.804059E-11
       336  15  1.200548E+06  1.369826E+00  1.910315E+03 -1.320811E+04  2.793679E-10  3.507338E-10
       336  16  1.262131E+06  1.552521E+04  1.885534E+04 -1.321851E+04  5.434008E-10 -3.020539E-10
       336  17  1.236645E+06  8.918398E+03  1.126468E+04 -3.261466E+03  1.273244E-09 -3.034047E-10
       336  18  1.211434E+06  2.714430E+03  4.603465E+03 -1.315718E+04 -4.556307E-10  3.577672E-10
       336  19  1.138965E+06 -1.496315E+04 -1.058439E+04 -1.319778E+04 -3.494776E+03 -2.097663E+03
       336  20  1.164175E+06 -9.038969E+03 -6.148493E+03 -3.301959E+03 -2.222681E+03 -1.088613E+03
       336  21  1.189661E+06 -2.711699E+03 -7.828422E+02 -1.325904E+04 -9.504361E+02 -7.968784E+01
       336  22  1.200547E+06  2.811697E+02  4.135619E+03 -1.320814E+04 -3.009995E+03 -2.097577E+03
       336  23  1.200410E+06 -6.023729E+01  2.558142E+03 -3.281712E+03 -1.737834E+03 -1.088544E+03
       336  24  1.200548E+06  1.369891E+00  1.910316E+03 -1.320811E+04 -4.655752E+02 -7.963715E+01
       336  25  1.262131E+06  1.552522E+04  1.885536E+04 -1.321851E+04 -2.525166E+03 -2.097490E+03
       336  26  1.236645E+06  8.918399E+03  1.126469E+04 -3.261464E+03 -1.252959E+03 -1.088474E+03
       336  27  1.211434E+06  2.714430E+03  4.603465E+03 -1.315718E+04  1.929421E+01 -7.958638E+01
       337   1  1.225659E+06  6.256243E+03  7.923817E+03 -1.318613E+04  6.144434E+02 -5.074133E+02
       337   2  1.250941E+06  1.247201E+04  1.414421E+04 -3.262099E+03 -3.825038E+02 -1.517157E+03
       337   3  1.276437E+06  1.897479E+04  2.108664E+04 -1.322127E+04 -1.379379E+03 -2.528240E+03
       337   4  1.200534E+06  1.499014E+01  1.809444E+03 -1.321488E+04  1.294171E+02 -5.074666E+02
       337   5  1.200427E+06 -4.460012E+01  2.006893E+03 -3.273247E+03 -8.681203E+02 -1.517237E+03
       337   6  1.200533E+06  1.829969E+02  2.926871E+03 -1.321492E+04 -1.865545E+03 -2.528343E+03
       337   7  1.175409E+06 -6.226309E+03 -4.304974E+03 -1.324363E+04 -3.555897E+02 -5.075199E+02
       337   8  1.149915E+06 -1.256139E+04 -1.013060E+04 -3.284393E+03 -1.353697E+03 -1.517316E+03
       337   9  1.124634E+06 -1.860921E+04 -1.523330E+04 -1.320856E+04 -2.351652E+03 -2.528447E+03
       337  10  1.225659E+06  6.256243E+03  7.923815E+03 -1.318613E+04 -1.048757E-09 -2.372875E-12
       337  11  1.250941E+06  1.247200E+04  1.414420E+04 -3.262100E+03  1.197519E-09  3.410718E-10
       337  12  1.276437E+06  1.897478E+04  2.108662E+04 -1.322127E+04  9.004027E-11 -3.114025E-10
       337  13  1.200534E+06  1.498986E+01  1.809443E+03 -1.321488E+04  8.887186E-10  5.966554E-10
       337  14  1.200427E+06 -4.460279E+01  2.006887E+03 -3.273248E+03  1.585927E-09  3.209969E-10
       337  15  1.200533E+06  1.829891E+02  2.926852E+03 -1.321492E+04 -4.022177E-11 -1.263911E-10
       337  16  1.175409E+06 -6.226310E+03 -4.304975E+03 -1.324363E+04 -1.754710E-10  4.558599E-10
       337  17  1.149915E+06 -1.256139E+04 -1.013061E+04 -3.284395E+03  8.560264E-11  7.920745E-12
       337  18  1.124634E+06 -1.860922E+04 -1.523333E+04 -1.320857E+04 -2.836231E-10 -8.041131E-12
       337  19  1.225659E+06  6.256243E+03  7.923817E+03 -1.318613E+04 -6.144434E+02  5.074133E+02
       337  20  1.250941E+06  1.247201E+04  1.414421E+04 -3.262099E+03  3.825038E+02  1.517157E+03
       337  21  1.276437E+06  1.897479E+04  2.108664E+04 -1.322127E+04  1.379379E+03  2.528240E+03
       337  22  1.200534E+06  1.499014E+01  1.809444E+03 -1.321488E+04 -1.294171E+02  5.074666E+02
       337  23  1.200427E+06 -4.460012E+01  2.006893E+03 -3.273247E+03  8.681203E+02  1.517237E+03
       337  24  1.200533E+06  1.829969E+02  2.926871E+03 -1.321492E+04  1.865545E+03  2.528343E+03
       337  25  1.175409E+06 -6.226309E+03 -4.304974E+03 -1.324363E+04  3.555897E+02  5.075199E+02
       337  26  1.149915E+06 -1.256139E+04 -1.013060E+04 -3.284393E+03  1.353697E+03  1.517316E+03
       337  27  1.124634E+06 -1.860921E+04 -1.523330E+04 -1.320856E+04  2.351652E+03  2.528447E+03
       338   1  1.313027E+06  2.774957E+04  3.070169E+04 -1.300310E+04 -1.954730E+03 -3.127715E+03
       338   2  1.338424E+06  3.393392E+04  3.917055E+04 -3.178686E+03 -4.966078E+03 -4.154242E+03
       338   3  1.364845E+06  4.249676E+04  5.019944E+04 -1.364579E+04 -7.977216E+03 -5.146554E+03
       338   4  1.200711E+06 -9.495627E+01  3.639155E+03 -1.330547E+04 -2.455823E+03 -3.127854E+03
       338   5  1.200198E+06 -3.141390E+02  5.960762E+03 -3.159910E+03 -5.450132E+03 -4.154448E+03
       338   6  1.200707E+06  1.842708E+03  1.083117E+04 -1.330615E+04 -8.444107E+03 -5.146825E+03
       338   7  1.088406E+06 -2.794040E+04 -2.342428E+04 -1.360778E+04 -2.956826E+03 -3.127992E+03
       338   8  1.061989E+06 -3.456359E+04 -2.725038E+04 -3.141140E+03 -5.934078E+03 -4.154654E+03
       338   9  1.036593E+06 -3.881330E+04 -2.853901E+04 -1.296660E+04 -8.910874E+03 -5.147096E+03
       338  10  1.313027E+06  2.774956E+04  3.070166E+04 -1.300311E+04 -2.627436E-12 -4.798106E-10
       338  11  1.338424E+06  3.393390E+04  3.917047E+04 -3.178703E+03 -1.125598E-09 -5.375578E-10
       338  12  1.364845E+06  4.249672E+04  5.019927E+04 -1.364583E+04  2.304674E-10  7.117186E-10
       338  13  1.200711E+06 -9.496840E+01  3.639126E+03 -1.330547E+04  1.185789E-09 -1.740414E-10
       338  14  1.200198E+06 -3.141655E+02  5.960674E+03 -3.159928E+03 -2.238322E-09 -9.628350E-11
       338  15  1.200707E+06  1.842661E+03  1.083099E+04 -1.330618E+04 -9.686048E-11  4.809029E-10
       338  16  1.088406E+06 -2.794042E+04 -2.342431E+04 -1.360779E+04 -1.269414E-09 -2.744059E-10
       338  17  1.061989E+06 -3.456361E+04 -2.725048E+04 -3.141160E+03 -4.204411E-10  2.860794E-10
       338  18  1.036593E+06 -3.881335E+04 -2.853921E+04 -1.296663E+04 -2.697543E-10  5.919237E-10
       338  19  1.313027E+06  2.774957E+04  3.070169E+04 -1.300310E+04  1.954730E+03  3.127715E+03
       338  20  1.338424E+06  3.393392E+04  3.917055E+04 -3.178686E+03  4.966078E+03  4.154242E+03
       338  21  1.364845E+06  4.249676E+04  5.019944E+04 -1.364579E+04  7.977216E+03  5.146554E+03
       338  22  1.200711E+06 -9.495627E+01  3.639155E+03 -1.330547E+04  2.455823E+03  3.127854E+03
       338  23  1.200198E+06 -3.141390E+02  5.960762E+03 -3.159910E+03  5.450132E+03  4.154448E+03
       338  24  1.200707E+06  1.842708E+03  1.083117E+04 -1.330615E+04  8.444107E+03  5.146825E+03
       338  25  1.088406E+06 -2.794040E+04 -2.342428E+04 -1.360778E+04  2.956826E+03  3.127992E+03
       338  26  1.061989E+06 -3.456359E+04 -2.725038E+04 -3.141140E+03  5.934078E+03  4.154654E+03
       338  27  1.036593E+06 -3.881330E+04 -2.853901E+04 -1.296660E+04  8.910874E+03  5.147096E+03
       339   1  1.403696E+06  4.908919E+04  6.229787E+04 -1.102237E+04 -9.983947E+03 -5.844314E+03
       339   2  1.427046E+06  5.390820E+04  7.793736E+04 -4.034107E+03 -2.209901E+04 -6.901779E+03
       339   3  1.457550E+06  8.067045E+04  1.069569E+05 -1.812109E+04 -3.421479E+04 -7.380310E+03
       339   4  1.202057E+06 -8.850404E+02  1.378610E+04 -1.347611E+04 -1.062637E+04 -5.844686E+03
       339   5  1.198495E+06 -2.713651E+03  2.303696E+04 -2.944611E+03 -2.245923E+04 -6.902203E+03
       339   6  1.202039E+06  1.735656E+04  4.547586E+04 -1.348864E+04 -3.429228E+04 -7.380827E+03
       339   7  1.000455E+06 -5.086221E+04 -3.472856E+04 -1.592905E+04 -1.126860E+04 -5.845053E+03
       339   8  9.699912E+05 -5.933929E+04 -3.186714E+04 -1.855523E+03 -2.281932E+04 -6.902628E+03
       339   9  9.465885E+05 -4.596199E+04 -1.600986E+04 -8.858115E+03 -3.436973E+04 -7.381345E+03
       339  10  1.403696E+06  4.908913E+04  6.229762E+04 -1.102242E+04 -5.808018E-10  3.469669E-10
       339  11  1.427046E+06  5.390802E+04  7.793635E+04 -4.034230E+03 -8.291542E-11 -9.996530E-10
       339  12  1.457549E+06  8.067007E+04  1.069546E+05 -1.812129E+04  5.502954E-11 -7.434739E-10
       339  13  1.202057E+06 -8.851073E+02  1.378583E+04 -1.347616E+04 -7.887996E-10  3.171147E-10
       339  14  1.198494E+06 -2.713837E+03  2.303593E+04 -2.944736E+03 -1.409747E-09 -6.146682E-10
       339  15  1.202038E+06  1.735619E+04  4.547355E+04 -1.348885E+04 -1.166300E-10 -3.187770E-10
       339  16  1.000455E+06 -5.086228E+04 -3.472886E+04 -1.592911E+04 -3.673303E-10  2.805752E-10
       339  17  9.699906E+05 -5.933948E+04 -3.186820E+04 -1.855650E+03  7.767486E-10  8.107372E-10
       339  18  9.465872E+05 -4.596237E+04 -1.601218E+04 -8.858319E+03  6.886829E-10  2.375002E-10
       339  19  1.403696E+06  4.908919E+04  6.229787E+04 -1.102237E+04  9.983947E+03  5.844314E+03
       339  20  1.427046E+06  5.390820E+04  7.793736E+04 -4.034107E+03  2.209901E+04  6.901779E+03
       339  21  1.457550E+06  8.067045E+04  1.069569E+05 -1.812109E+04  3.421479E+04  7.380310E+03
       339  22  1.202057E+06 -8.850404E+02  1.378610E+04 -1.347611E+04  1.062637E+04  5.844686E+03
       339  23  1.198495E+06 -2.713651E+03  2.303696E+04 -2.944611E+03  2.245923E+04  6.902203E+03
       339  24  1.202039E+06  1.735656E+04  4.547586E+04 -1.348864E+04  3.429228E+04  7.380827E+03
       339  25  1.000455E+06 -5.086221E+04 -3.472856E+04 -1.592905E+04  1.126860E+04  5.845053E+03
       339  26  9.699912E+05 -5.933929E+04 -3.186714E+04 -1.855523E+03  2.281932E+04  6.902628E+03
       339  27  9.465885E+05 -4.596199E+04 -1.600986E+04 -8.858115E+03  3.436973E+04  7.381345E+03
       340   1  1.507805E+06  6.494511E+04  1.264113E+05  7.208631E+03 -4.071863E+04 -9.121312E+03
       340   2  1.507838E+06  5.580994E+04  1.661012E+05 -1.628423E+04 -9.227434E+04 -1.012580E+04
       340   3  1.564917E+06  2.474465E+05  2.895313E+05 -6.204592E+04 -1.438411E+05 -3.535809E+03
       340   4  1.213018E+06 -8.116004E+03  5.565942E+04 -1.368573E+04 -4.299208E+04 -9.122134E+03
       340   5  1.184751E+06 -2.417824E+04  8.859598E+04 -2.651319E+03 -9.087623E+04 -1.012674E+04
       340   6  1.212920E+06  1.599467E+05  2.027569E+05 -1.388330E+04 -1.387687E+05 -3.540851E+03
       340   7  9.183114E+05 -8.118180E+04 -1.509841E+04 -3.457017E+04 -4.526446E+04 -9.122803E+03
       340   8  8.617589E+05 -1.041733E+05  1.108349E+04  1.097446E+04 -8.947882E+04 -1.012762E+04
       340   9  8.610402E+05  7.244635E+04  1.159747E+05  3.425201E+04 -1.336991E+05 -3.545113E+03
       340  10  1.507803E+06  6.494458E+04  1.264081E+05  7.208332E+03  2.948919E-10 -1.450523E-09
       340  11  1.507829E+06  5.580755E+04  1.660850E+05 -1.628498E+04 -1.005257E-09 -4.135432E-09
       340  12  1.564894E+06  2.474409E+05  2.894925E+05 -6.204633E+04 -8.380495E-10 -1.426757E-09
       340  13  1.213016E+06 -8.116588E+03  5.565579E+04 -1.368605E+04 -8.025560E-10 -4.025321E-09
       340  14  1.184742E+06 -2.418056E+04  8.858030E+04 -2.652060E+03  6.965929E-10  8.059061E-10
       340  15  1.212899E+06  1.599415E+05  2.027207E+05 -1.388369E+04  9.892008E-11 -5.012383E-10
       340  16  9.183092E+05 -8.118244E+04 -1.510241E+04 -3.457050E+04 -3.827904E-10 -7.625816E-10
       340  17  8.617503E+05 -1.041755E+05  1.106827E+04  1.097373E+04  4.220576E-09  6.413422E-10
       340  18  8.610210E+05  7.244155E+04  1.159411E+05  3.425163E+04  1.606186E-09 -1.659730E-09
       340  19  1.507805E+06  6.494511E+04  1.264113E+05  7.208631E+03  4.071863E+04  9.121312E+03
       340  20  1.507838E+06  5.580994E+04  1.661012E+05 -1.628423E+04  9.227434E+04  1.012580E+04
       340  21  1.564917E+06  2.474465E+05  2.895313E+05 -6.204592E+04  1.438411E+05  3.535809E+03
       340  22  1.213018E+06 -8.116004E+03  5.565942E+04 -1.368573E+04  4.299208E+04  9.122134E+03
       340  23  1.184751E+06 -2.417824E+04  8.859598E+04 -2.651319E+03  9.087623E+04  1.012674E+04
       340  24  1.212920E+06  1.599467E+05  2.027569E+05 -1.388330E+04  1.387687E+05  3.540851E+03
       340  25  9.183114E+05 -8.118180E+04 -1.509841E+04 -3.457017E+04  4.526446E+04  9.122803E+03
       340  26  8.617589E+05 -1.041733E+05  1.108349E+04  1.097446E+04  8.947882E+04  1.012762E+04
       340  27  8.610402E+05  7.244635E+04  1.159747E+05  3.425201E+04  1.336991E+05  3.545113E+03
       341   1  1.034233E+06  4.203326E+06  1.065821E+06 -5.047737E+05  3.105778E+04  1.654026E+05
       341   2  6.467834E+05  3.313240E+06  7.356133E+05 -1.398804E+05  8.462135E+04  7.758509E+04
       341   3  4.596160E+05  2.488139E+06  5.129242E+05 -4.425367E+05  5.351139E+04 -1.043976E+04
       341   4  1.462865E+05  6.345046E+05  1.860019E+05 -4.530424E+05  3.120355E+04  1.188514E+05
       341   5 -2.329123E+04  6.061598E+05  8.693770E+04 -1.194003E+05  8.466929E+04  7.214761E+04
       341   6  8.221741E+02  6.353385E+05  6.732515E+04 -4.534453E+05  5.330741E+04  2.511334E+04
       341   7 -7.425968E+05 -2.922782E+06 -6.947492E+05 -4.015956E+05  3.134213E+04  7.256447E+04
       341   8 -6.938957E+05 -2.094234E+06 -5.622562E+05 -9.900213E+04  8.471701E+04  6.673312E+04
       341   9 -4.582198E+05 -1.214327E+06 -3.785132E+05 -4.643157E+05  5.310185E+04  6.056097E+04
       341  10  1.034224E+06  4.203296E+06  1.065768E+06 -5.047779E+05 -1.344975E-09 -9.702550E-10
       341  11  6.467741E+05  3.313231E+06  7.355886E+05 -1.398857E+05 -5.417513E-09  2.151369E-09
       341  12  4.596129E+05  2.488138E+06  5.129186E+05 -4.425362E+05  2.304317E-09 -7.480077E-09
       341  13  1.462816E+05  6.344892E+05  1.859735E+05 -4.530454E+05 -5.607121E-10 -2.067200E-09
       341  14 -2.330033E+04  6.061522E+05  8.691445E+04 -1.194052E+05 -2.189998E-09  4.191056E-09
       341  15  8.189513E+02  6.353370E+05  6.731862E+04 -4.534464E+05  8.520878E-10 -2.129741E-09
       341  16 -7.425993E+05 -2.922788E+06 -6.947610E+05 -4.015975E+05 -2.753466E-10 -1.091975E-09
       341  17 -6.939046E+05 -2.094240E+06 -5.622781E+05 -9.900669E+04  1.385581E-09  6.543038E-09
       341  18 -4.582238E+05 -1.214332E+06 -3.785254E+05 -4.643183E+05  1.508131E-09  2.491126E-09
       341  19  1.034233E+06  4.203326E+06  1.065821E+06 -5.047737E+05 -3.105778E+04 -1.654026E+05
       341  20  6.467834E+05  3.313240E+06  7.356133E+05 -1.398804E+05 -8.462135E+04 -7.758509E+04
       341  21  4.596160E+05  2.488139E+06  5.129242E+05 -4.425367E+05 -5.351139E+04  1.043976E+04
       341  22  1.462865E+05  6.345046E+05  1.860019E+05 -4.530424E+05 -3.120355E+04 -1.188514E+05
       341  23 -2.329123E+04  6.061598E+05  8.693770E+04 -1.194003E+05 -8.466929E+04 -7.214761E+04
       341  24  8.221741E+02  6.353385E+05  6.732515E+04 -4.534453E+05 -5.330741E+04 -2.511334E+04
       341  25 -7.425968E+05 -2.922782E+06 -6.947492E+05 -4.015956E+05 -3.134213E+04 -7.256447E+04
       341  26 -6.938957E+05 -2.094234E+06 -5.622562E+05 -9.900213E+04 -8.471701E+04 -6.673312E+04
       341  27 -4.582198E+05 -1.214327E+06 -3.785132E+05 -4.643157E+05 -5.310185E+04 -6.056097E+04
       342   1  1.771645E+05  1.262529E+06  2.152762E+05 -4.638698E+05  2.037958E+04  4.482624E+02
       342   2 -5.841693E+04  4.058085E+05  5.966583E+03 -1.179369E+05 -6.311639E+03 -2.893241E+04
       342   3 -2.331094E+05 -4.405345E+05 -1.711147E+05 -4.386869E+05 -3.230447E+04 -5.825597E+04
       342   4  1.922506E+04  6.255716E+05  6.255630E+04 -4.530593E+05  2.029603E+04  1.352320E+04
       342   5 -5.120370E+03  6.206597E+05  5.762333E+04 -1.196973E+05 -6.389039E+03 -1.619743E+04
       342   6  3.152092E+04  6.255039E+05  8.519352E+04 -4.529881E+05 -3.237684E+04 -4.590044E+04
       342   7 -1.387433E+05 -1.101423E+04 -9.019170E+04 -4.422591E+05  2.021289E+04  2.658480E+04
       342   8  4.817293E+04  8.355534E+05  1.092774E+05 -1.214584E+05 -6.466498E+03 -3.458069E+03
       342   9  2.960692E+05  1.692583E+06  3.414216E+05 -4.673119E+05 -3.244971E+04 -3.352372E+04
       342  10  1.771640E+05  1.262529E+06  2.152755E+05 -4.638698E+05  2.034242E-09 -1.250022E-08
       342  11 -5.841720E+04  4.058076E+05  5.964936E+03 -1.179370E+05  1.677750E-09 -1.245614E-09
       342  12 -2.331115E+05 -4.405384E+05 -1.711231E+05 -4.386884E+05 -3.032231E-09 -8.719406E-09
       342  13  1.922457E+04  6.255713E+05  6.255518E+04 -4.530595E+05  2.185416E-09 -6.194932E-09
       342  14 -5.120485E+03  6.206594E+05  5.762276E+04 -1.196974E+05  2.418543E-09  6.151231E-09
       342  15  3.151922E+04  6.255014E+05  8.518759E+04 -4.529893E+05  4.406927E-09 -2.400077E-09
       342  16 -1.387440E+05 -1.101510E+04 -9.019380E+04 -4.422595E+05  1.344014E-09  6.408863E-09
       342  17  4.817288E+04  8.355534E+05  1.092773E+05 -1.214584E+05 -4.095196E-09  1.386787E-08
       342  18  2.960678E+05  1.692581E+06  3.414175E+05 -4.673128E+05 -1.255303E-09  3.838394E-09
       342  19  1.771645E+05  1.262529E+06  2.152762E+05 -4.638698E+05 -2.037958E+04 -4.482624E+02
       342  20 -5.841693E+04  4.058085E+05  5.966583E+03 -1.179369E+05  6.311639E+03  2.893241E+04
       342  21 -2.331094E+05 -4.405345E+05 -1.711147E+05 -4.386869E+05  3.230447E+04  5.825597E+04
       342  22  1.922506E+04  6.255716E+05  6.255630E+04 -4.530593E+05 -2.029603E+04 -1.352320E+04
       342  23 -5.120370E+03  6.206597E+05  5.762333E+04 -1.196973E+05  6.389039E+03  1.619743E+04
       342  24  3.152092E+04  6.255039E+05  8.519352E+04 -4.529881E+05  3.237684E+04  4.590044E+04
       342  25 -1.387433E+05 -1.101423E+04 -9.019170E+04 -4.422591E+05 -2.021289E+04 -2.658480E+04
       342  26  4.817293E+04  8.355534E+05  1.092774E+05 -1.214584E+05  6.466498E+03  3.458069E+03
       342  27  2.960692E+05  1.692583E+06  3.414216E+05 -4.673119E+05  3.244971E+04  3.352372E+04
       343   1 -5.722845E+05 -1.634887E+06 -4.495873E+05 -4.777212E+05 -6.636606E+04 -9.963254E+04
       343   2 -8.187340E+05 -2.537250E+06 -6.069062E+05 -8.938298E+04 -9.789261E+04 -1.335028E+05
       343   3 -7.385069E+05 -3.345286E+06 -6.589943E+05 -3.698589E+05 -3.558556E+04 -1.670369E+05
       343   4 -6.603710E+03  6.446390E+05  9.964939E+04 -4.536942E+05 -6.656549E+04 -6.218952E+04
       343   5 -4.096026E+04  5.936557E+05  1.460489E+05 -1.191684E+05 -9.782890E+04 -1.413055E+05
       343   6  2.583774E+05  6.436495E+05  3.286742E+05 -4.531802E+05 -3.546159E+04 -2.201365E+05
       343   7  5.587019E+05  2.928930E+06  6.485213E+05 -4.295703E+05 -6.676163E+04 -2.460892E+04
       343   8  7.361020E+05  3.733554E+06  8.983072E+05 -1.490967E+05 -9.776465E+04 -1.491460E+05
       343   9  1.254097E+06  4.647104E+06  1.315173E+06 -5.370287E+05 -3.532390E+04 -2.735746E+05
       343  10 -5.722919E+05 -1.634899E+06 -4.496144E+05 -4.777265E+05  9.884658E-11 -9.643475E-09
       343  11 -8.187491E+05 -2.537272E+06 -6.069579E+05 -8.939352E+04  2.692930E-09  5.372248E-11
       343  12 -7.385158E+05 -3.345316E+06 -6.590494E+05 -3.698637E+05  8.570001E-10  3.731181E-11
       343  13 -6.609511E+03  6.446337E+05  9.963378E+04 -4.536975E+05 -3.035933E-09 -5.123210E-09
       343  14 -4.097589E+04  5.936317E+05  1.459934E+05 -1.191795E+05  2.037254E-09  3.378768E-09
       343  15  2.583630E+05  6.435972E+05  3.285808E+05 -4.531865E+05 -1.039728E-10 -3.225558E-10
       343  16  5.586969E+05  2.928928E+06  6.485118E+05 -4.295716E+05  1.943179E-09  4.298566E-09
       343  17  7.360858E+05  3.733528E+06  8.982476E+05 -1.491085E+05 -4.443014E-10  6.481223E-09
       343  18  1.254075E+06  4.647024E+06  1.315031E+06 -5.370365E+05 -1.150628E-09 -7.661342E-10
       343  19 -5.722845E+05 -1.634887E+06 -4.495873E+05 -4.777212E+05  6.636606E+04  9.963254E+04
       343  20 -8.187340E+05 -2.537250E+06 -6.069062E+05 -8.938298E+04  9.789261E+04  1.335028E+05
       343  21 -7.385069E+05 -3.345286E+06 -6.589943E+05 -3.698589E+05  3.558556E+04  1.670369E+05
       343  22 -6.603710E+03  6.446390E+05  9.964939E+04 -4.536942E+05  6.656549E+04  6.218952E+04
       343  23 -4.096026E+04  5.936557E+05  1.460489E+05 -1.191684E+05  9.782890E+04  1.413055E+05
       343  24  2.583774E+05  6.436495E+05  3.286742E+05 -4.531802E+05  3.546159E+04  2.201365E+05
       343  25  5.587019E+05  2.928930E+06  6.485213E+05 -4.295703E+05  6.676163E+04  2.460892E+04
       343  26  7.361020E+05  3.733554E+06  8.983072E+05 -1.490967E+05  9.776465E+04  1.491460E+05
       343  27  1.254097E+06  4.647104E+06  1.315173E+06 -5.370287E+05  3.532390E+04  2.735746E+05
       344   1 -1.479095E+06 -6.309022E+05 -3.338219E+05 -6.172711E+05 -1.650892E+05 -5.179613E+04
       344   2 -1.415657E+06 -4.527065E+05 -1.951157E+05 -5.869884E+05 -1.024270E+05 -4.795365E+03
       344   3 -1.382473E+06 -3.698609E+05 -1.318160E+05 -5.493629E+05 -3.367007E+04  2.605978E+04
       344   4 -9.074611E+05 -3.269328E+05 -1.700281E+05 -3.688669E+05 -1.138108E+05 -3.253515E+04
       344   5 -8.859566E+05 -2.169787E+05 -7.970538E+04 -3.970182E+05 -8.010369E+04  3.589700E+03
       344   6 -8.889295E+05 -1.965954E+05 -4.177242E+04 -4.178403E+05 -4.031352E+04  2.355921E+04
       344   7 -3.354710E+05 -2.282316E+04 -6.249350E+03 -1.202171E+05 -6.248028E+04 -1.323587E+04
       344   8 -3.559553E+05  1.881609E+04  3.569274E+04 -2.068828E+05 -5.775974E+04  1.198631E+04
       344   9 -3.951300E+05 -2.331110E+04  4.826256E+04 -2.862217E+05 -4.696262E+04  2.105668E+04
       344  10 -1.479126E+06 -6.309124E+05 -3.338783E+05 -6.172781E+05  9.962074E-09  2.924175E-09
       344  11 -1.415669E+06 -4.527094E+05 -1.951355E+05 -5.869888E+05 -2.020404E-08 -9.513262E-09
       344  12 -1.382475E+06 -3.698620E+05 -1.318194E+05 -5.493622E+05 -4.715598E-08 -1.919834E-08
       344  13 -9.074753E+05 -3.269374E+05 -1.700545E+05 -3.688699E+05 -1.043363E-09 -2.971699E-10
       344  14 -8.859635E+05 -2.169805E+05 -7.971748E+04 -3.970180E+05 -8.633449E-10 -7.316825E-10
       344  15 -8.889314E+05 -1.965965E+05 -4.177652E+04 -4.178395E+05  2.096091E-09 -1.764241E-09
       344  16 -3.354752E+05 -2.282440E+04 -6.257020E+03 -1.202178E+05 -1.103026E-08 -3.429652E-09
       344  17 -3.559590E+05  1.881504E+04  3.568620E+04 -2.068823E+05  2.156104E-08  9.897603E-09
       344  18 -3.951325E+05 -2.331217E+04  4.825759E+04 -2.862209E+05  5.238477E-08  1.980530E-08
       344  19 -1.479095E+06 -6.309022E+05 -3.338219E+05 -6.172711E+05  1.650892E+05  5.179613E+04
       344  20 -1.415657E+06 -4.527065E+05 -1.951157E+05 -5.869884E+05  1.024270E+05  4.795365E+03
       344  21 -1.382473E+06 -3.698609E+05 -1.318160E+05 -5.493629E+05  3.367007E+04 -2.605978E+04
       344  22 -9.074611E+05 -3.269328E+05 -1.700281E+05 -3.688669E+05  1.138108E+05  3.253515E+04
       344  23 -8.859566E+05 -2.169787E+05 -7.970538E+04 -3.970182E+05  8.010369E+04 -3.589700E+03
       344  24 -8.889295E+05 -1.965954E+05 -4.177242E+04 -4.178403E+05  4.031352E+04 -2.355921E+04
       344  25 -3.354710E+05 -2.282316E+04 -6.249350E+03 -1.202171E+05  6.248028E+04  1.323587E+04
       344  26 -3.559553E+05  1.881609E+04  3.569274E+04 -2.068828E+05  5.775974E+04 -1.198631E+04
       344  27 -3.951300E+05 -2.331110E+04  4.826256E+04 -2.862217E+05  4.696262E+04 -2.105668E+04
       345   1 -1.322840E+06 -3.590919E+05 -1.114513E+05 -5.417216E+05 -2.969228E+04  2.470125E+04
       345   2 -1.254593E+06 -3.190846E+05 -8.092406E+04 -5.148776E+05 -1.739551E+04  2.530808E+04
       345   3 -1.178313E+06 -2.956449E+05 -5.994340E+04 -5.001469E+05 -4.534243E+03  2.441380E+04
       345   4 -8.839250E+05 -1.968045E+05 -3.134273E+04 -4.159323E+05 -3.466911E+04  2.282770E+04
       345   5 -8.877091E+05 -1.853483E+05 -1.645085E+04 -4.111622E+05 -2.506067E+04  2.242528E+04
       345   6 -8.829293E+05 -1.899243E+05 -8.967366E+03 -4.185073E+05 -1.488916E+04  2.052166E+04
       345   7 -4.448113E+05 -3.449838E+04  4.875779E+04 -2.900604E+05 -3.964964E+04  2.095270E+04
       345   8 -5.206825E+05 -5.159827E+04  4.801842E+04 -3.073891E+05 -3.273065E+04  1.954062E+04
       345   9 -5.874497E+05 -8.419421E+04  4.200744E+04 -3.368306E+05 -2.524943E+04  1.662755E+04
       345  10 -1.322841E+06 -3.590928E+05 -1.114541E+05 -5.417210E+05  5.101910E-08  1.769929E-08
       345  11 -1.254593E+06 -3.190853E+05 -8.092583E+04 -5.148772E+05  1.780386E-08  6.364915E-09
       345  12 -1.178313E+06 -2.956456E+05 -5.994456E+04 -5.001468E+05 -1.015171E-08 -2.693277E-09
       345  13 -8.839265E+05 -1.968054E+05 -3.134597E+04 -4.159317E+05  1.906770E-09 -5.514140E-10
       345  14 -8.877099E+05 -1.853490E+05 -1.645298E+04 -4.111617E+05 -2.253441E-09  6.589102E-10
       345  15 -8.829297E+05 -1.899248E+05 -8.968573E+03 -4.185071E+05  5.547098E-09  1.969314E-09
       345  16 -4.448131E+05 -3.449927E+04  4.875401E+04 -2.900598E+05 -4.780938E-08 -1.831009E-08
       345  17 -5.206837E+05 -5.159897E+04  4.801569E+04 -3.073886E+05 -1.913141E-08 -8.505803E-09
       345  18 -5.874505E+05 -8.419468E+04  4.200573E+04 -3.368303E+05  1.903688E-08  7.133502E-09
       345  19 -1.322840E+06 -3.590919E+05 -1.114513E+05 -5.417216E+05  2.969228E+04 -2.470125E+04
       345  20 -1.254593E+06 -3.190846E+05 -8.092406E+04 -5.148776E+05  1.739551E+04 -2.530808E+04
       345  21 -1.178313E+06 -2.956449E+05 -5.994340E+04 -5.001469E+05  4.534243E+03 -2.441380E+04
       345  22 -8.839250E+05 -1.968045E+05 -3.134273E+04 -4.159323E+05  3.466911E+04 -2.282770E+04
       345  23 -8.877091E+05 -1.853483E+05 -1.645085E+04 -4.111622E+05  2.506067E+04 -2.242528E+04
       345  24 -8.829293E+05 -1.899243E+05 -8.967366E+03 -4.185073E+05  1.488916E+04 -2.052166E+04
       345  25 -4.448113E+05 -3.449838E+04  4.875779E+04 -2.900604E+05  3.964964E+04 -2.095270E+04
       345  26 -5.206825E+05 -5.159827E+04  4.801842E+04 -3.073891E+05  3.273065E+04 -1.954062E+04
       345  27 -5.874497E+05 -8.419421E+04  4.200744E+04 -3.368306E+05  2.524943E+04 -1.662755E+04
       346   1 -1.130159E+06 -2.790289E+05 -4.915834E+04 -4.873146E+05 -2.176114E+03  2.143034E+04
       346   2 -1.062280E+06 -2.466207E+05 -3.350405E+04 -4.603380E+05  2.082036E+03  1.646190E+04
       346   3 -9.833401E+05 -2.259741E+05 -1.948702E+04 -4.464417E+05  6.392462E+03  1.135252E+04
       346   4 -8.825014E+05 -1.899762E+05 -6.731529E+03 -4.183389E+05 -1.238159E+04  1.759507E+04
       346   5 -8.880326E+05 -1.840052E+05 -3.693376E+03 -4.118390E+05 -8.376110E+03  1.253250E+04
       346   6 -8.824587E+05 -1.897457E+05 -2.091821E+03 -4.184209E+05 -4.318634E+03  7.328914E+03
       346   7 -6.347788E+05 -1.009176E+05  3.569398E+04 -3.493375E+05 -2.259139E+04  1.375819E+04
       346   8 -7.137540E+05 -1.213870E+05  2.611665E+04 -3.633274E+05 -1.883732E+04  8.601948E+03
       346   9 -7.815673E+05 -1.535166E+05  1.530327E+04 -3.903962E+05 -1.503147E+04  3.304666E+03
       346  10 -1.130159E+06 -2.790294E+05 -4.915922E+04 -4.873145E+05  9.588845E-09  3.920175E-09
       346  11 -1.062280E+06 -2.466210E+05 -3.350457E+04 -4.603381E+05  4.165947E-09  5.566501E-10
       346  12 -9.833402E+05 -2.259743E+05 -1.948734E+04 -4.464417E+05  8.858964E-10 -7.789470E-10
       346  13 -8.825016E+05 -1.899766E+05 -6.732398E+03 -4.183387E+05  5.111252E-09  2.716836E-09
       346  14 -8.880327E+05 -1.840054E+05 -3.693803E+03 -4.118389E+05 -1.403358E-09  9.539546E-10
       346  15 -8.824587E+05 -1.897458E+05 -2.091957E+03 -4.184209E+05 -5.525298E-09 -2.312670E-09
       346  16 -6.347794E+05 -1.009179E+05  3.569267E+04 -3.493372E+05  1.839707E-09  1.595211E-09
       346  17 -7.137544E+05 -1.213872E+05  2.611584E+04 -3.633272E+05 -5.089175E-09 -1.018295E-10
       346  18 -7.815675E+05 -1.535167E+05  1.530282E+04 -3.903961E+05 -1.103257E-08 -3.890543E-09
       346  19 -1.130159E+06 -2.790289E+05 -4.915834E+04 -4.873146E+05  2.176114E+03 -2.143034E+04
       346  20 -1.062280E+06 -2.466207E+05 -3.350405E+04 -4.603380E+05 -2.082036E+03 -1.646190E+04
       346  21 -9.833401E+05 -2.259741E+05 -1.948702E+04 -4.464417E+05 -6.392462E+03 -1.135252E+04
       346  22 -8.825014E+05 -1.899762E+05 -6.731529E+03 -4.183389E+05  1.238159E+04 -1.759507E+04
       346  23 -8.880326E+05 -1.840052E+05 -3.693376E+03 -4.118390E+05  8.376110E+03 -1.253250E+04
       346  24 -8.824587E+05 -1.897457E+05 -2.091821E+03 -4.184209E+05  4.318634E+03 -7.328914E+03
       346  25 -6.347788E+05 -1.009176E+05  3.569398E+04 -3.493375E+05  2.259139E+04 -1.375819E+04
       346  26 -7.137540E+05 -1.213870E+05  2.611665E+04 -3.633274E+05  1.883732E+04 -8.601948E+03
       346  27 -7.815673E+05 -1.535166E+05  1.530327E+04 -3.903962E+05  1.503147E+04 -3.304666E+03
       347   1 -9.359838E+05 -2.089303E+05 -1.058295E+04 -4.332783E+05  7.992371E+03  7.987131E+03
       347   2 -8.682369E+05 -1.768205E+05  2.339739E+03 -4.062261E+05  1.076839E+04  2.223746E+03
       347   3 -7.891118E+05 -1.561758E+05  1.486189E+04 -3.922694E+05  1.354860E+04 -3.550454E+03
       347   4 -8.824071E+05 -1.897567E+05 -1.618025E+03 -4.183992E+05 -2.706380E+03  3.968380E+03
       347   5 -8.880962E+05 -1.840365E+05 -1.034932E+03 -4.118459E+05  4.944176E+01 -1.802709E+03
       347   6 -8.824107E+05 -1.897789E+05 -8.372297E+02 -4.183910E+05  2.809391E+03 -7.584625E+03
       347   7 -8.288265E+05 -1.705824E+05  7.347477E+03 -4.035187E+05 -1.340623E+04 -5.077730E+01
       347   8 -9.079550E+05 -1.912524E+05 -4.409151E+03 -4.174656E+05 -1.066920E+04 -5.829046E+03
       347   9 -9.757000E+05 -2.233809E+05 -1.653609E+04 -4.445090E+05 -7.928108E+03 -1.161815E+04
       347  10 -9.359838E+05 -2.089304E+05 -1.058319E+04 -4.332784E+05 -7.648493E-09 -2.885461E-09
       347  11 -8.682370E+05 -1.768206E+05  2.339511E+03 -4.062261E+05 -6.477078E-10  3.221544E-10
       347  12 -7.891120E+05 -1.561759E+05  1.486152E+04 -3.922694E+05  1.934375E-09  1.020466E-09
       347  13 -8.824071E+05 -1.897567E+05 -1.618068E+03 -4.183992E+05 -4.716287E-09 -2.610594E-09
       347  14 -8.880962E+05 -1.840365E+05 -1.034938E+03 -4.118459E+05  1.255247E-09 -1.327986E-09
       347  15 -8.824107E+05 -1.897789E+05 -8.373526E+02 -4.183910E+05 -6.550344E-10  9.480220E-10
       347  16 -8.288267E+05 -1.705825E+05  7.347139E+03 -4.035187E+05 -1.117925E-09 -1.905214E-09
       347  17 -9.079551E+05 -1.912525E+05 -4.409429E+03 -4.174656E+05  9.273314E-10 -9.926307E-10
       347  18 -9.757001E+05 -2.233811E+05 -1.653646E+04 -4.445090E+05 -1.470290E-09  2.895537E-11
       347  19 -9.359838E+05 -2.089303E+05 -1.058295E+04 -4.332783E+05 -7.992371E+03 -7.987131E+03
       347  20 -8.682369E+05 -1.768205E+05  2.339739E+03 -4.062261E+05 -1.076839E+04 -2.223746E+03
       347  21 -7.891118E+05 -1.561758E+05  1.486189E+04 -3.922694E+05 -1.354860E+04  3.550454E+03
       347  22 -8.824071E+05 -1.897567E+05 -1.618025E+03 -4.183992E+05  2.706380E+03 -3.968380E+03
       347  23 -8.880962E+05 -1.840365E+05 -1.034932E+03 -4.118459E+05 -4.944176E+01  1.802709E+03
       347  24 -8.824107E+05 -1.897789E+05 -8.372297E+02 -4.183910E+05 -2.809391E+03  7.584625E+03
       347  25 -8.288265E+05 -1.705824E+05  7.347477E+03 -4.035187E+05  1.340623E+04  5.077730E+01
       347  26 -9.079550E+05 -1.912524E+05 -4.409151E+03 -4.174656E+05  1.066920E+04  5.829046E+03
       347  27 -9.757000E+05 -2.233809E+05 -1.653609E+04 -4.445090E+05  7.928108E+03  1.161815E+04
       348   1 -7.418520E+05 -1.390977E+05  2.326488E+04 -3.790895E+05  1.499636E+04 -6.979439E+03
       348   2 -6.741510E+05 -1.069984E+05  3.531710E+04 -3.520523E+05  1.776059E+04 -1.275304E+04
       348   3 -5.950727E+05 -8.634847E+04  4.698198E+04 -3.381006E+05  2.051859E+04 -1.850723E+04
       348   4 -8.824160E+05 -1.897803E+05 -8.513407E+02 -4.183889E+05  4.258545E+03 -1.101340E+04
       348   5 -8.881039E+05 -1.840535E+05 -1.114583E+03 -4.118467E+05  7.056460E+03 -1.677532E+04
       348   6 -8.824265E+05 -1.897832E+05 -1.792034E+03 -4.183923E+05  9.848103E+03 -2.251788E+04
       348   7 -1.022957E+06 -2.404603E+05 -2.496721E+04 -4.576795E+05 -6.476572E+03 -1.504634E+04
       348   8 -1.102008E+06 -2.611039E+05 -3.754703E+04 -4.716217E+05 -3.643743E+03 -2.079613E+04
       348   9 -1.169695E+06 -2.932107E+05 -5.056861E+04 -4.986499E+05 -8.172402E+02 -2.652660E+04
       348  10 -7.418522E+05 -1.390978E+05  2.326436E+04 -3.790894E+05 -9.736403E-09 -2.990943E-09
       348  11 -6.741514E+05 -1.069987E+05  3.531620E+04 -3.520521E+05  1.618711E-08  9.857806E-09
       348  12 -5.950733E+05 -8.634895E+04  4.698055E+04 -3.381003E+05  4.612833E-08  1.996300E-08
       348  13 -8.824161E+05 -1.897804E+05 -8.516026E+02 -4.183889E+05 -2.382653E-09  1.069228E-09
       348  14 -8.881041E+05 -1.840538E+05 -1.115205E+03 -4.118466E+05 -1.022024E-09  7.380961E-10
       348  15 -8.824268E+05 -1.897837E+05 -1.793168E+03 -4.183921E+05  6.877735E-10  2.738127E-09
       348  16 -1.022957E+06 -2.404606E+05 -2.496772E+04 -4.576796E+05  8.726171E-09  4.328279E-09
       348  17 -1.102008E+06 -2.611043E+05 -3.754786E+04 -4.716218E+05 -1.955809E-08 -4.989029E-09
       348  18 -1.169695E+06 -2.932115E+05 -5.056994E+04 -4.986499E+05 -4.330452E-08 -1.334234E-08
       348  19 -7.418520E+05 -1.390977E+05  2.326488E+04 -3.790895E+05 -1.499636E+04  6.979439E+03
       348  20 -6.741510E+05 -1.069984E+05  3.531710E+04 -3.520523E+05 -1.776059E+04  1.275304E+04
       348  21 -5.950727E+05 -8.634847E+04  4.698198E+04 -3.381006E+05 -2.051859E+04  1.850723E+04
       348  22 -8.824160E+05 -1.897803E+05 -8.513407E+02 -4.183889E+05 -4.258545E+03  1.101340E+04
       348  23 -8.881039E+05 -1.840535E+05 -1.114583E+03 -4.118467E+05 -7.056460E+03  1.677532E+04
       348  24 -8.824265E+05 -1.897832E+05 -1.792034E+03 -4.183923E+05 -9.848103E+03  2.251788E+04
       348  25 -1.022957E+06 -2.404603E+05 -2.496721E+04 -4.576795E+05  6.476572E+03  1.504634E+04
       348  26 -1.102008E+06 -2.611039E+05 -3.754703E+04 -4.716217E+05  3.643743E+03  2.079613E+04
       348  27 -1.169695E+06 -2.932107E+05 -5.056861E+04 -4.986499E+05  8.172402E+02  2.652660E+04
       349   1 -5.478901E+05 -6.930482E+04  5.486357E+04 -3.249874E+05  2.217613E+04 -2.184055E+04
       349   2 -4.802280E+05 -3.723382E+04  6.547817E+04 -2.979522E+05  2.609766E+04 -2.704402E+04
       349   3 -4.014420E+05 -1.681479E+04  7.475826E+04 -2.839609E+05  2.994866E+04 -3.205425E+04
       349   4 -8.824934E+05 -1.897739E+05 -2.331205E+03 -4.184117E+05  1.149218E+04 -2.585713E+04
       349   5 -8.880507E+05 -1.840561E+05 -4.141319E+03 -4.118398E+05  1.575827E+04 -3.093294E+04
       349   6 -8.825577E+05 -1.900600E+05 -7.559993E+03 -4.183147E+05  1.995358E+04 -3.581552E+04
       349   7 -1.216977E+06 -3.102318E+05 -5.952856E+04 -5.117887E+05  8.143643E+02 -2.987140E+04
       349   8 -1.295694E+06 -3.308611E+05 -7.376431E+04 -5.256567E+05  5.426163E+03 -3.481914E+04
       349   9 -1.363422E+06 -3.632804E+05 -8.988284E+04 -5.525697E+05  9.966846E+03 -3.957368E+04
       349  10 -5.478907E+05 -6.930547E+04  5.486175E+04 -3.249870E+05 -4.212569E-08 -1.465959E-08
       349  11 -4.802289E+05 -3.723478E+04  6.547552E+04 -2.979516E+05 -1.986836E-08 -7.252429E-09
       349  12 -4.014432E+05 -1.681613E+04  7.475465E+04 -2.839601E+05  7.147297E-09  2.814230E-09
       349  13 -8.824938E+05 -1.897746E+05 -2.332709E+03 -4.184115E+05  6.478303E-10  3.727151E-09
       349  14 -8.880513E+05 -1.840572E+05 -4.143582E+03 -4.118394E+05 -9.187890E-10  2.274529E-09
       349  15 -8.825585E+05 -1.900615E+05 -7.563150E+03 -4.183142E+05 -2.691824E-10 -1.306873E-10
       349  16 -1.216978E+06 -3.102327E+05 -5.953024E+04 -5.117887E+05  4.473482E-08  2.094879E-08
       349  17 -1.295694E+06 -3.308624E+05 -7.376664E+04 -5.256565E+05  1.816832E-08  7.754587E-09
       349  18 -1.363422E+06 -3.632821E+05 -8.988596E+04 -5.525693E+05 -7.666203E-09 -2.382657E-09
       349  19 -5.478901E+05 -6.930482E+04  5.486357E+04 -3.249874E+05 -2.217613E+04  2.184055E+04
       349  20 -4.802280E+05 -3.723382E+04  6.547817E+04 -2.979522E+05 -2.609766E+04  2.704402E+04
       349  21 -4.014420E+05 -1.681479E+04  7.475826E+04 -2.839609E+05 -2.994866E+04  3.205425E+04
       349  22 -8.824934E+05 -1.897739E+05 -2.331205E+03 -4.184117E+05 -1.149218E+04  2.585713E+04
       349  23 -8.880507E+05 -1.840561E+05 -4.141319E+03 -4.118398E+05 -1.575827E+04  3.093294E+04
       349  24 -8.825577E+05 -1.900600E+05 -7.559993E+03 -4.183147E+05 -1.995358E+04  3.581552E+04
       349  25 -1.216977E+06 -3.102318E+05 -5.952856E+04 -5.117887E+05 -8.143643E+02  2.987140E+04
       349  26 -1.295694E+06 -3.308611E+05 -7.376431E+04 -5.256567E+05 -5.426163E+03  3.481914E+04
       349  27 -1.363422E+06 -3.632804E+05 -8.988284E+04 -5.525697E+05 -9.966846E+03  3.957368E+04
       350   1 -3.542320E+05 -1.542650E+02  8.081963E+04 -2.715381E+05  3.279461E+04 -3.480409E+04
       350   2 -2.878827E+05  3.243016E+04  8.627987E+04 -2.419057E+05  4.021875E+04 -3.732754E+04
       350   3 -2.126318E+05  4.920703E+04  8.631381E+04 -2.241847E+05  4.688175E+04 -3.782021E+04
       350   4 -8.830442E+05 -1.899986E+05 -1.007218E+04 -4.184919E+05  2.259899E+04 -3.864207E+04
       350   5 -8.876975E+05 -1.856063E+05 -1.848561E+04 -4.110854E+05  3.366233E+04 -3.979921E+04
       350   6 -8.841804E+05 -1.977493E+05 -3.521750E+04 -4.155945E+05  4.396340E+04 -3.892475E+04
       350   7 -1.411565E+06 -3.798182E+05 -1.009731E+05 -5.653303E+05  1.241251E+04 -4.247665E+04
       350   8 -1.487134E+06 -4.036076E+05 -1.232628E+05 -5.801126E+05  2.711261E+04 -4.226833E+04
       350   9 -1.555254E+06 -4.446589E+05 -1.567645E+05 -6.068097E+05  4.104841E+04 -4.002799E+04
       350  10 -3.542335E+05 -1.558535E+02  8.081533E+04 -2.715372E+05 -2.911073E-08 -1.078088E-08
       350  11 -2.878848E+05  3.242823E+04  8.627421E+04 -2.419045E+05 -7.168559E-09 -2.814249E-09
       350  12 -2.126345E+05  4.920491E+04  8.630700E+04 -2.241833E+05  1.908324E-08  8.726560E-09
       350  13 -8.830452E+05 -1.900004E+05 -1.007594E+04 -4.184912E+05 -2.607868E-09 -3.200721E-09
       350  14 -8.876991E+05 -1.856083E+05 -1.849072E+04 -4.110843E+05 -4.461243E-09 -4.130035E-09
       350  15 -8.841829E+05 -1.977514E+05 -3.522398E+04 -4.155931E+05 -3.524406E-09  5.468211E-10
       350  16 -1.411566E+06 -3.798202E+05 -1.009768E+05 -5.653299E+05  2.506302E-08  8.881753E-09
       350  17 -1.487135E+06 -4.036097E+05 -1.232675E+05 -5.801117E+05 -3.898714E-09 -1.054219E-09
       350  18 -1.555256E+06 -4.446611E+05 -1.567707E+05 -6.068084E+05 -2.305540E-08 -9.351097E-09
       350  19 -3.542320E+05 -1.542650E+02  8.081963E+04 -2.715381E+05 -3.279461E+04  3.480409E+04
       350  20 -2.878827E+05  3.243016E+04  8.627987E+04 -2.419057E+05 -4.021875E+04  3.732754E+04
       350  21 -2.126318E+05  4.920703E+04  8.631381E+04 -2.241847E+05 -4.688175E+04  3.782021E+04
       350  22 -8.830442E+05 -1.899986E+05 -1.007218E+04 -4.184919E+05 -2.259899E+04  3.864207E+04
       350  23 -8.876975E+05 -1.856063E+05 -1.848561E+04 -4.110854E+05 -3.366233E+04  3.979921E+04
       350  24 -8.841804E+05 -1.977493E+05 -3.521750E+04 -4.155945E+05 -4.396340E+04  3.892475E+04
       350  25 -1.411565E+06 -3.798182E+05 -1.009731E+05 -5.653303E+05 -1.241251E+04  4.247665E+04
       350  26 -1.487134E+06 -4.036076E+05 -1.232628E+05 -5.801126E+05 -2.711261E+04  4.226833E+04
       350  27 -1.555254E+06 -4.446589E+05 -1.567645E+05 -6.068097E+05 -4.104841E+04  4.002799E+04
       351   1 -1.626789E+05  5.978104E+04  8.503646E+04 -2.214342E+05  5.522986E+04 -3.712401E+04
       351   2 -1.278039E+05  1.033173E+05  7.232668E+04 -1.362187E+05  5.955934E+04 -2.629268E+04
       351   3 -1.142592E+05  5.578145E+04  3.188475E+04 -4.083431E+04  5.566281E+04  6.370683E+03
       351   4 -8.898465E+05 -1.974765E+05 -4.693571E+04 -4.176887E+05  5.005543E+04 -3.907792E+04
       351   5 -8.857030E+05 -2.212056E+05 -8.956113E+04 -3.952466E+05  9.358536E+04 -1.349015E+04
       351   6 -9.107169E+05 -3.438623E+05 -1.910436E+05 -3.626304E+05  1.288803E+05  3.394037E+04
       351   7 -1.616458E+06 -4.546903E+05 -1.789263E+05 -6.137313E+05  4.488747E+04 -4.102955E+04
       351   8 -1.642986E+06 -5.456096E+05 -2.514712E+05 -6.539555E+05  1.275662E+05 -7.111248E+02
       351   9 -1.706488E+06 -7.432837E+05 -4.139976E+05 -6.839888E+05  2.019931E+05  6.144072E+04
       351  10 -1.626825E+05  5.977874E+04  8.502814E+04 -2.214325E+05 -1.436394E-09  6.069848E-10
       351  11 -1.278079E+05  1.033156E+05  7.231872E+04 -1.362175E+05 -1.309231E-09 -9.116862E-10
       351  12 -1.142625E+05  5.578057E+04  3.187885E+04 -4.083459E+04  1.783476E-09 -3.102504E-10
       351  13 -8.898496E+05 -1.974788E+05 -4.694329E+04 -4.176871E+05  4.049662E-10 -5.756049E-10
       351  14 -8.857125E+05 -2.212081E+05 -8.957795E+04 -3.952456E+05  2.877936E-09 -6.214688E-10
       351  15 -9.107351E+05 -3.438680E+05 -1.910771E+05 -3.626339E+05 -3.355989E-10  2.235658E-09
       351  16 -1.616460E+06 -4.546927E+05 -1.789332E+05 -6.137298E+05  1.749296E-09  5.961850E-11
       351  17 -1.643003E+06 -5.456140E+05 -2.515019E+05 -6.539555E+05 -2.030444E-09  1.230913E-09
       351  18 -1.706533E+06 -7.432988E+05 -4.140817E+05 -6.839989E+05 -1.842172E-09  4.243669E-10
       351  19 -1.626789E+05  5.978104E+04  8.503646E+04 -2.214342E+05 -5.522986E+04  3.712401E+04
       351  20 -1.278039E+05  1.033173E+05  7.232668E+04 -1.362187E+05 -5.955934E+04  2.629268E+04
       351  21 -1.142592E+05  5.578145E+04  3.188475E+04 -4.083431E+04 -5.566281E+04 -6.370683E+03
       351  22 -8.898465E+05 -1.974765E+05 -4.693571E+04 -4.176887E+05 -5.005543E+04  3.907792E+04
       351  23 -8.857030E+05 -2.212056E+05 -8.956113E+04 -3.952466E+05 -9.358536E+04  1.349015E+04
       351  24 -9.107169E+05 -3.438623E+05 -1.910436E+05 -3.626304E+05 -1.288803E+05 -3.394037E+04
       351  25 -1.616458E+06 -4.546903E+05 -1.789263E+05 -6.137313E+05 -4.488747E+04  4.102955E+04
       351  26 -1.642986E+06 -5.456096E+05 -2.514712E+05 -6.539555E+05 -1.275662E+05  7.111248E+02
       351  27 -1.706488E+06 -7.432837E+05 -4.139976E+05 -6.839888E+05 -2.019931E+05 -6.144072E+04
       352   1 -3.663170E+05 -5.861019E+04 -1.039057E+05 -3.895448E+04 -1.377705E+05 -4.390044E+03
       352   2 -3.604849E+05  1.264622E+05  6.227103E+03 -1.205145E+04 -9.243356E+04 -1.285969E+04
       352   3 -4.122108E+05  1.043666E+05  3.509106E+04  3.265520E+04 -4.711381E+04 -1.208329E+04
       352   4 -7.983719E+05 -1.662616E+05 -2.106440E+05  1.087052E+04 -1.440100E+05 -4.410304E+03
       352   5 -7.691561E+05  2.508651E+04 -9.202381E+04  1.835914E+03 -9.426995E+04 -1.286547E+04
       352   6 -7.983056E+05  8.423092E+03 -5.777272E+04  1.060580E+04 -4.454497E+04 -1.207716E+04
       352   7 -1.230251E+06 -2.739176E+05 -3.173947E+05  6.066073E+04 -1.502452E+05 -4.431577E+03
       352   8 -1.177674E+06 -7.630065E+04 -1.902865E+05  1.571404E+04 -9.610512E+04 -1.287133E+04
       352   9 -1.184263E+06 -8.752948E+04 -1.506468E+05 -1.142989E+04 -4.197771E+04 -1.207121E+04
       352  10 -3.663374E+05 -5.861531E+04 -1.039415E+05 -3.895496E+04  9.335811E-10  2.954114E-10
       352  11 -3.604942E+05  1.264598E+05  6.210727E+03 -1.205241E+04  1.830322E-09 -2.011389E-09
       352  12 -4.122132E+05  1.043658E+05  3.508661E+04  3.265474E+04 -2.177374E-10 -3.328284E-09
       352  13 -7.983942E+05 -1.662672E+05 -2.106831E+05  1.087001E+04 -5.893284E-10  1.640836E-09
       352  14 -7.691657E+05  2.508394E+04 -9.204085E+04  1.834937E+03 -3.580670E-09 -1.162800E-09
       352  15 -7.983078E+05  8.422402E+03 -5.777673E+04  1.060536E+04 -6.791396E-11  2.200247E-10
       352  16 -1.230276E+06 -2.739237E+05 -3.174372E+05  6.066019E+04 -7.005797E-10  6.849309E-10
       352  17 -1.177684E+06 -7.630331E+04 -1.903042E+05  1.571304E+04  7.642792E-10 -3.635614E-09
       352  18 -1.184265E+06 -8.753011E+04 -1.506504E+05 -1.143030E+04 -6.557324E-10 -4.973445E-09
       352  19 -3.663170E+05 -5.861019E+04 -1.039057E+05 -3.895448E+04  1.377705E+05  4.390044E+03
       352  20 -3.604849E+05  1.264622E+05  6.227103E+03 -1.205145E+04  9.243356E+04  1.285969E+04
       352  21 -4.122108E+05  1.043666E+05  3.509106E+04  3.265520E+04  4.711381E+04  1.208329E+04
       352  22 -7.983719E+05 -1.662616E+05 -2.106440E+05  1.087052E+04  1.440100E+05  4.410304E+03
       352  23 -7.691561E+05  2.508651E+04 -9.202381E+04  1.835914E+03  9.426995E+04  1.286547E+04
       352  24 -7.983056E+05  8.423092E+03 -5.777272E+04  1.060580E+04  4.454497E+04  1.207716E+04
       352  25 -1.230251E+06 -2.739176E+05 -3.173947E+05  6.066073E+04  1.502452E+05  4.431577E+03
       352  26 -1.177674E+06 -7.630065E+04 -1.902865E+05  1.571404E+04  9.610512E+04  1.287133E+04
       352  27 -1.184263E+06 -8.752948E+04 -1.506468E+05 -1.142989E+04  4.197771E+04  1.207121E+04
       353   1 -4.343222E+05  6.949866E+04  3.784442E+04  6.555506E+03 -3.546833E+04 -1.020236E+04
       353   2 -4.548443E+05  8.434562E+04  5.517321E+04  8.120332E+02 -2.355326E+04 -9.973014E+03
       353   3 -4.825500E+05  7.656137E+04  5.909024E+04  1.397750E+04 -1.164061E+04 -8.992791E+03
       353   4 -7.869553E+05 -1.806123E+04 -4.720382E+04  1.096612E+04 -3.553657E+04 -1.020317E+04
       353   5 -7.833239E+05  2.796030E+03 -2.390190E+04  1.490845E+03 -2.326759E+04 -9.972756E+03
       353   6 -7.869420E+05  9.537805E+02 -1.426314E+04  1.092524E+04 -1.100055E+04 -8.991436E+03
       353   7 -1.139474E+06 -1.056301E+05 -1.322609E+05  1.537416E+04 -3.560477E+04 -1.020397E+04
       353   8 -1.111705E+06 -7.876143E+04 -1.029847E+05  2.169241E+03 -2.298207E+04 -9.972497E+03
       353   9 -1.091249E+06 -7.466055E+04 -8.762314E+04  7.874425E+03 -1.036080E+04 -8.990088E+03
       353  10 -4.343236E+05  6.949821E+04  3.784186E+04  6.555214E+03 -1.915354E-09 -5.480599E-09
       353  11 -4.548450E+05  8.434536E+04  5.517198E+04  8.118440E+02 -3.360540E-09  5.542545E-10
       353  12 -4.825501E+05  7.656125E+04  5.908983E+04  1.397742E+04 -3.141063E-09  3.694890E-09
       353  13 -7.869566E+05 -1.806168E+04 -4.720639E+04  1.096583E+04  1.635536E-09 -4.321228E-09
       353  14 -7.833245E+05  2.795777E+03 -2.390311E+04  1.490658E+03 -1.298837E-10 -1.193952E-09
       353  15 -7.869422E+05  9.536612E+02 -1.426352E+04  1.092516E+04  1.662261E-09 -8.723119E-10
       353  16 -1.139476E+06 -1.056306E+05 -1.322635E+05  1.537386E+04  1.330667E-09 -1.069681E-09
       353  17 -1.111705E+06 -7.876168E+04 -1.029859E+05  2.169056E+03  3.561597E-09  1.773457E-10
       353  18 -1.091249E+06 -7.466066E+04 -8.762349E+04  7.874350E+03  3.589913E-09  2.236760E-09
       353  19 -4.343222E+05  6.949866E+04  3.784442E+04  6.555506E+03  3.546833E+04  1.020236E+04
       353  20 -4.548443E+05  8.434562E+04  5.517321E+04  8.120332E+02  2.355326E+04  9.973014E+03
       353  21 -4.825500E+05  7.656137E+04  5.909024E+04  1.397750E+04  1.164061E+04  8.992791E+03
       353  22 -7.869553E+05 -1.806123E+04 -4.720382E+04  1.096612E+04  3.553657E+04  1.020317E+04
       353  23 -7.833239E+05  2.796030E+03 -2.390190E+04  1.490845E+03  2.326759E+04  9.972756E+03
       353  24 -7.869420E+05  9.537805E+02 -1.426314E+04  1.092524E+04  1.100055E+04  8.991436E+03
       353  25 -1.139474E+06 -1.056301E+05 -1.322609E+05  1.537416E+04  3.560477E+04  1.020397E+04
       353  26 -1.111705E+06 -7.876143E+04 -1.029847E+05  2.169241E+03  2.298207E+04  9.972497E+03
       353  27 -1.091249E+06 -7.466055E+04 -8.762314E+04  7.874425E+03  1.036080E+04  8.990088E+03
       354   1 -5.163381E+05  6.494294E+04  5.356819E+04  1.123901E+04 -9.184491E+03 -8.310343E+03
       354   2 -5.409470E+05  6.092844E+04  5.264807E+04  1.712395E+03 -6.148080E+03 -7.366567E+03
       354   3 -5.666038E+05  5.454748E+04  4.914527E+04  1.189369E+04 -3.112512E+03 -6.349628E+03
       354   4 -7.855612E+05 -1.891908E+03 -1.119608E+04  1.111961E+04 -8.750576E+03 -8.309457E+03
       354   5 -7.850318E+05  3.209806E+02 -6.121067E+03  1.262663E+03 -5.680274E+03 -7.365473E+03
       354   6 -7.855572E+05  1.609270E+02 -3.653099E+03  1.111411E+04 -2.610694E+03 -6.348314E+03
       354   7 -1.054718E+06 -6.873204E+04 -7.596552E+04  1.100023E+04 -8.316847E+03 -8.308571E+03
       354   8 -1.029062E+06 -6.029082E+04 -6.489446E+04  8.130718E+02 -5.212652E+03 -7.364379E+03
       354   9 -1.004467E+06 -5.422913E+04 -5.645490E+04  1.033478E+04 -2.109052E+03 -6.347000E+03
       354  10 -5.163382E+05  6.494284E+04  5.356790E+04  1.123894E+04 -1.610411E-09  5.603748E-09
       354  11 -5.409471E+05  6.092837E+04  5.264790E+04  1.712359E+03 -8.370749E-10  2.903299E-09
       354  12 -5.666039E+05  5.454744E+04  4.914518E+04  1.189367E+04  3.000945E-11 -1.591089E-10
       354  13 -7.855613E+05 -1.892003E+03 -1.119636E+04  1.111956E+04  2.497068E-09 -2.351092E-09
       354  14 -7.850318E+05  3.209137E+02 -6.121230E+03  1.262630E+03 -2.563302E-09  2.266238E-09
       354  15 -7.855573E+05  1.608819E+02 -3.653188E+03  1.111410E+04  2.752162E-10  7.708313E-09
       354  16 -1.054718E+06 -6.873213E+04 -7.596578E+04  1.100018E+04 -8.268055E-10  4.377538E-09
       354  17 -1.029062E+06 -6.029089E+04 -6.489461E+04  8.130409E+02  2.597167E-09  4.814884E-09
       354  18 -1.004467E+06 -5.422918E+04 -5.645498E+04  1.033477E+04 -6.984862E-11  4.291942E-09
       354  19 -5.163381E+05  6.494294E+04  5.356819E+04  1.123901E+04  9.184491E+03  8.310343E+03
       354  20 -5.409470E+05  6.092844E+04  5.264807E+04  1.712395E+03  6.148080E+03  7.366567E+03
       354  21 -5.666038E+05  5.454748E+04  4.914527E+04  1.189369E+04  3.112512E+03  6.349628E+03
       354  22 -7.855612E+05 -1.891908E+03 -1.119608E+04  1.111961E+04  8.750576E+03  8.309457E+03
       354  23 -7.850318E+05  3.209806E+02 -6.121067E+03  1.262663E+03  5.680274E+03  7.365473E+03
       354  24 -7.855572E+05  1.609270E+02 -3.653099E+03  1.111411E+04  2.610694E+03  6.348314E+03
       354  25 -1.054718E+06 -6.873204E+04 -7.596552E+04  1.100023E+04  8.316847E+03  8.308571E+03
       354  26 -1.029062E+06 -6.029082E+04 -6.489446E+04  8.130718E+02  5.212652E+03  7.364379E+03
       354  27 -1.004467E+06 -5.422913E+04 -5.645490E+04  1.033478E+04  2.109052E+03  6.347000E+03
       355   1 -6.028571E+05  4.517318E+04  4.098895E+04  1.163493E+04 -2.513748E+03 -5.746007E+03
       355   2 -6.285714E+05  3.895540E+04  3.590088E+04  1.475539E+03 -1.617467E+03 -4.721181E+03
       355   3 -6.545677E+05  3.257324E+04  3.016117E+04  1.158848E+04 -7.216365E+02 -3.682183E+03
       355   4 -7.853819E+05 -1.356100E+02 -2.884157E+03  1.124165E+04 -2.026481E+03 -5.744664E+03
       355   5 -7.852389E+05  5.131205E+01 -1.823022E+03  1.104959E+03 -1.123649E+03 -4.719741E+03
       355   6 -7.853802E+05  7.261636E+01 -1.418293E+03  1.124092E+04 -2.212305E+02 -3.680641E+03
       355   7 -9.678763E+05 -4.544683E+04 -4.675963E+04  1.084846E+04 -1.539358E+03 -5.743322E+03
       355   8 -9.418840E+05 -3.885456E+04 -3.954868E+04  7.344563E+02 -6.299558E+02 -4.718301E+03
       355   9 -9.161770E+05 -3.242926E+04 -3.299898E+04  1.089342E+04  2.790704E+02 -3.679100E+03
       355  10 -6.028571E+05  4.517315E+04  4.098888E+04  1.163492E+04  3.971975E-09  6.991293E-10
       355  11 -6.285714E+05  3.895537E+04  3.590084E+04  1.475533E+03 -2.090761E-10  7.150620E-09
       355  12 -6.545677E+05  3.257323E+04  3.016115E+04  1.158848E+04 -3.311264E-09  7.700766E-09
       355  13 -7.853820E+05 -1.356466E+02 -2.884227E+03  1.124164E+04  9.372451E-10  1.764793E-09
       355  14 -7.852390E+05  5.128780E+01 -1.823067E+03  1.104955E+03 -2.210158E-09  5.073890E-09
       355  15 -7.853802E+05  7.260181E+01 -1.418319E+03  1.124092E+04  7.465516E-10  1.052270E-09
       355  16 -9.678763E+05 -4.544687E+04 -4.675970E+04  1.084846E+04 -5.204067E-09  2.588543E-09
       355  17 -9.418840E+05 -3.885459E+04 -3.954872E+04  7.344539E+02  9.897108E-10 -2.033932E-09
       355  18 -9.161770E+05 -3.242928E+04 -3.299901E+04  1.089342E+04  3.343124E-09 -1.232636E-09
       355  19 -6.028571E+05  4.517318E+04  4.098895E+04  1.163493E+04  2.513748E+03  5.746007E+03
       355  20 -6.285714E+05  3.895540E+04  3.590088E+04  1.475539E+03  1.617467E+03  4.721181E+03
       355  21 -6.545677E+05  3.257324E+04  3.016117E+04  1.158848E+04  7.216365E+02  3.682183E+03
       355  22 -7.853819E+05 -1.356100E+02 -2.884157E+03  1.124165E+04  2.026481E+03  5.744664E+03
       355  23 -7.852389E+05  5.131205E+01 -1.823022E+03  1.104959E+03  1.123649E+03  4.719741E+03
       355  24 -7.853802E+05  7.261636E+01 -1.418293E+03  1.124092E+04  2.212305E+02  3.680641E+03
       355  25 -9.678763E+05 -4.544683E+04 -4.675963E+04  1.084846E+04  1.539358E+03  5.743322E+03
       355  26 -9.418840E+05 -3.885456E+04 -3.954868E+04  7.344563E+02  6.299558E+02  4.718301E+03
       355  27 -9.161770E+05 -3.242926E+04 -3.299898E+04  1.089342E+04 -2.790704E+02  3.679100E+03
       356   1 -6.918026E+05  2.328783E+04  2.107018E+04  1.151245E+04 -4.714702E+02 -3.073396E+03
       356   2 -7.179124E+05  1.676862E+04  1.458981E+04  1.174046E+03  3.297425E+02 -2.025397E+03
       356   3 -7.443173E+05  1.013317E+04  7.523704E+03  1.142858E+04  1.130770E+03 -9.752643E+02
       356   4 -7.853803E+05  6.558855E+01 -1.383557E+03  1.131214E+04  2.939158E+01 -3.071812E+03
       356   5 -7.852323E+05  5.066443E+01 -1.621046E+03  1.015811E+03  8.315393E+02 -2.023777E+03
       356   6 -7.853798E+05 -8.052244E+01 -2.444811E+03  1.131255E+04  1.633535E+03 -9.736051E+02
       356   7 -8.789499E+05 -2.315729E+04 -2.383791E+04  1.111186E+04  5.301781E+02 -3.070229E+03
       356   8 -8.525481E+05 -1.666762E+04 -1.783222E+04  8.575891E+02  1.333282E+03 -2.022157E+03
       356   9 -8.264408E+05 -1.029433E+04 -1.241345E+04  1.119653E+04  2.136268E+03 -9.719460E+02
       356  10 -6.918026E+05  2.328782E+04  2.107016E+04  1.151245E+04  3.917197E-09  2.789603E-09
       356  11 -7.179124E+05  1.676861E+04  1.458980E+04  1.174046E+03  3.555273E-09 -2.566196E-09
       356  12 -7.443173E+05  1.013316E+04  7.523700E+03  1.142858E+04 -1.836660E-09 -3.349415E-09
       356  13 -7.853803E+05  6.557843E+01 -1.383575E+03  1.131214E+04  1.669804E-09  9.080491E-09
       356  14 -7.852323E+05  5.065984E+01 -1.621055E+03  1.015812E+03 -4.180429E-09  2.643361E-09
       356  15 -7.853798E+05 -8.052417E+01 -2.444818E+03  1.131255E+04 -8.464649E-11 -2.775042E-09
       356  16 -8.789499E+05 -2.315730E+04 -2.383793E+04  1.111186E+04 -5.744266E-09  5.051343E-09
       356  17 -8.525481E+05 -1.666762E+04 -1.783223E+04  8.575913E+02 -2.835563E-10  6.505123E-10
       356  18 -8.264408E+05 -1.029434E+04 -1.241346E+04  1.119653E+04  1.911148E-09 -4.347389E-09
       356  19 -6.918026E+05  2.328783E+04  2.107018E+04  1.151245E+04  4.714702E+02  3.073396E+03
       356  20 -7.179124E+05  1.676862E+04  1.458981E+04  1.174046E+03 -3.297425E+02  2.025397E+03
       356  21 -7.443173E+05  1.013317E+04  7.523704E+03  1.142858E+04 -1.130770E+03  9.752643E+02
       356  22 -7.853803E+05  6.558855E+01 -1.383557E+03  1.131214E+04 -2.939158E+01  3.071812E+03
       356  23 -7.852323E+05  5.066443E+01 -1.621046E+03  1.015811E+03 -8.315393E+02  2.023777E+03
       356  24 -7.853798E+05 -8.052244E+01 -2.444811E+03  1.131255E+04 -1.633535E+03  9.736051E+02
       356  25 -8.789499E+05 -2.315729E+04 -2.383791E+04  1.111186E+04 -5.301781E+02  3.070229E+03
       356  26 -8.525481E+05 -1.666762E+04 -1.783222E+04  8.575891E+02 -1.333282E+03  2.022157E+03
       356  27 -8.264408E+05 -1.029433E+04 -1.241345E+04  1.119653E+04 -2.136268E+03  9.719460E+02
       357   1 -7.820459E+05  1.007081E+03 -2.305933E+03  1.108795E+04  1.613834E+03 -3.564463E+02
       357   2 -8.078942E+05 -5.394862E+03 -1.056998E+04  9.858630E+02  4.170127E+03  7.030664E+02
       357   3 -8.347241E+05 -1.371459E+04 -2.101552E+04  1.154197E+04  6.726465E+03  1.729869E+03
       357   4 -7.855312E+05  1.595917E+02 -3.064572E+03  1.132490E+04  2.125727E+03 -3.547479E+02
       357   5 -7.850425E+05  2.799239E+02 -5.067401E+03  9.985702E+02  4.666416E+03  7.046992E+02
       357   6 -7.855331E+05 -1.514691E+03 -9.240716E+03  1.133040E+04  7.207257E+03  1.731437E+03
       357   7 -7.890165E+05 -6.878975E+02 -3.823210E+03  1.156184E+04  2.637617E+03 -3.530492E+02
       357   8 -7.621903E+05  5.954672E+03  4.351408E+02  1.011277E+03  5.162723E+03  7.063321E+02
       357   9 -7.363399E+05  1.068503E+04  2.533920E+03  1.111881E+04  7.688087E+03  1.733005E+03
       357  10 -7.820459E+05  1.007080E+03 -2.305938E+03  1.108795E+04 -4.767927E-09  2.307906E-09
       357  11 -8.078942E+05 -5.394868E+03 -1.057001E+04  9.858607E+02  8.011313E-11  2.124143E-09
       357  12 -8.347241E+05 -1.371460E+04 -2.101561E+04  1.154196E+04  2.332866E-09  3.020043E-09
       357  13 -7.855312E+05  1.595904E+02 -3.064580E+03  1.132490E+04  6.956854E-10 -1.648521E-09
       357  14 -7.850425E+05  2.799175E+02 -5.067443E+03  9.985676E+02 -2.845573E-09  2.983639E-09
       357  15 -7.855331E+05 -1.514708E+03 -9.240819E+03  1.133039E+04  4.470505E-10  2.721468E-09
       357  16 -7.890166E+05 -6.878995E+02 -3.823223E+03  1.156184E+04  2.694900E-09  8.533486E-10
       357  17 -7.621903E+05  5.954664E+03  4.350897E+02  1.011275E+03  1.485561E-09 -6.098080E-09
       357  18 -7.363400E+05  1.068501E+04  2.533803E+03  1.111880E+04 -2.108041E-09  1.185349E-09
       357  19 -7.820459E+05  1.007081E+03 -2.305933E+03  1.108795E+04 -1.613834E+03  3.564463E+02
       357  20 -8.078942E+05 -5.394862E+03 -1.056998E+04  9.858630E+02 -4.170127E+03 -7.030664E+02
       357  21 -8.347241E+05 -1.371459E+04 -2.101552E+04  1.154197E+04 -6.726465E+03 -1.729869E+03
       357  22 -7.855312E+05  1.595917E+02 -3.064572E+03  1.132490E+04 -2.125727E+03  3.547479E+02
       357  23 -7.850425E+05  2.799239E+02 -5.067401E+03  9.985702E+02 -4.666416E+03 -7.046992E+02
       357  24 -7.855331E+05 -1.514691E+03 -9.240716E+03  1.133040E+04 -7.207257E+03 -1.731437E+03
       357  25 -7.890165E+05 -6.878975E+02 -3.823210E+03  1.156184E+04 -2.637617E+03  3.530492E+02
       357  26 -7.621903E+05  5.954672E+03  4.351408E+02  1.011277E+03 -5.162723E+03 -7.063321E+02
       357  27 -7.363399E+05  1.068503E+04  2.533920E+03  1.111881E+04 -7.688087E+03 -1.733005E+03
       358   1 -8.733140E+05 -2.072163E+04 -3.270611E+04  9.021045E+03  8.469269E+03  2.402957E+03
       358   2 -8.963497E+05 -2.566318E+04 -4.683093E+04  1.804450E+03  1.876623E+04  3.471195E+03
       358   3 -9.255475E+05 -4.929092E+04 -7.236954E+04  1.508110E+04  2.906403E+04  4.134298E+03
       358   4 -7.866775E+05  8.266035E+02 -1.176558E+04  1.127448E+04  9.063571E+03  2.404902E+03
       358   5 -7.836183E+05  2.325842E+03 -1.968881E+04  1.052474E+03  1.916789E+04  3.472402E+03
       358   6 -7.866875E+05 -1.482569E+04 -3.889028E+04  1.132364E+04  2.927349E+04  4.134700E+03
       358   7 -7.000341E+05  2.237431E+04  9.174413E+03  1.352823E+04  9.657955E+03  2.406851E+03
       358   8 -6.708754E+05  3.031394E+04  7.452394E+03  3.003520E+02  1.956962E+04  3.473608E+03
       358   9 -6.478097E+05  1.963818E+04 -5.412398E+03  7.565327E+03  2.948299E+04  4.135100E+03
       358  10 -8.733141E+05 -2.072166E+04 -3.270626E+04  9.021029E+03 -8.246331E-09  9.385135E-09
       358  11 -8.963500E+05 -2.566329E+04 -4.683161E+04  1.804397E+03 -3.126404E-09  1.149550E-09
       358  12 -9.255484E+05 -4.929117E+04 -7.237116E+04  1.508100E+04  1.843080E-09  3.812701E-09
       358  13 -7.866776E+05  8.265752E+02 -1.176575E+04  1.127447E+04  1.746487E-09  4.936957E-09
       358  14 -7.836187E+05  2.325731E+03 -1.968953E+04  1.052421E+03 -6.370009E-10  3.288354E-09
       358  15 -7.866884E+05 -1.482594E+04 -3.889193E+04  1.132354E+04  2.383881E-09 -2.052715E-09
       358  16 -7.000342E+05  2.237427E+04  9.174227E+03  1.352821E+04  7.215611E-09  2.029464E-09
       358  17 -6.708758E+05  3.031382E+04  7.451651E+03  3.002973E+02  4.410474E-09 -3.463292E-09
       358  18 -6.478106E+05  1.963793E+04 -5.414066E+03  7.565228E+03 -2.532136E-09 -1.059018E-08
       358  19 -8.733140E+05 -2.072163E+04 -3.270611E+04  9.021045E+03 -8.469269E+03 -2.402957E+03
       358  20 -8.963497E+05 -2.566318E+04 -4.683093E+04  1.804450E+03 -1.876623E+04 -3.471195E+03
       358  21 -9.255475E+05 -4.929092E+04 -7.236954E+04  1.508110E+04 -2.906403E+04 -4.134298E+03
       358  22 -7.866775E+05  8.266035E+02 -1.176558E+04  1.127448E+04 -9.063571E+03 -2.404902E+03
       358  23 -7.836183E+05  2.325842E+03 -1.968881E+04  1.052474E+03 -1.916789E+04 -3.472402E+03
       358  24 -7.866875E+05 -1.482569E+04 -3.889028E+04  1.132364E+04 -2.927349E+04 -4.134700E+03
       358  25 -7.000341E+05  2.237431E+04  9.174413E+03  1.352823E+04 -9.657955E+03 -2.406851E+03
       358  26 -6.708754E+05  3.031394E+04  7.452394E+03  3.003520E+02 -1.956962E+04 -3.473608E+03
       358  27 -6.478097E+05  1.963818E+04 -5.412398E+03  7.565327E+03 -2.948299E+04 -4.135100E+03
       359   1 -9.716844E+05 -3.676386E+04 -8.990285E+04 -6.992508E+03  3.504367E+04  5.470661E+03
       359   2 -9.731017E+05 -2.916762E+04 -1.241609E+05  1.260987E+04  7.840858E+04  6.508465E+03
       359   3 -1.023228E+06 -1.933317E+05 -2.296417E+05  5.243565E+04  1.217871E+05  2.498345E+03
       359   4 -7.960434E+05  6.990843E+03 -4.759707E+04  1.110088E+04  3.669545E+04  5.476619E+03
       359   5 -7.719336E+05  2.069560E+04 -7.579675E+04  1.193051E+03  7.765017E+04  6.504610E+03
       359   6 -7.960989E+05 -1.369139E+05 -1.735274E+05  1.151013E+04  1.186204E+05  2.481267E+03
       359   7 -6.203735E+05  5.074450E+04 -5.293306E+03  2.919939E+04  3.834770E+04  5.482673E+03
       359   8 -5.707280E+05  7.055638E+04 -2.743540E+04 -1.022751E+04  7.689152E+04  6.500784E+03
       359   9 -5.689188E+05 -8.049364E+04 -1.174160E+05 -2.943042E+04  1.154526E+05  2.464612E+03
       359  10 -9.716857E+05 -3.676422E+04 -8.990522E+04 -6.992662E+03 -1.052232E-09  3.199470E-09
       359  11 -9.731084E+05 -2.916932E+04 -1.241726E+05  1.260946E+04  6.448288E-10 -4.909953E-09
       359  12 -1.023244E+06 -1.933357E+05 -2.296696E+05  5.243541E+04  3.910788E-10 -2.928753E-10
       359  13 -7.960449E+05  6.990448E+03 -4.759966E+04  1.110072E+04  1.607687E-09  5.239455E-09
       359  14 -7.719401E+05  2.069393E+04 -7.580818E+04  1.192644E+03 -2.071494E-09 -1.050241E-08
       359  15 -7.961140E+05 -1.369177E+05 -1.735539E+05  1.150989E+04  1.739215E-09  3.231375E-09
       359  16 -6.203751E+05  5.074407E+04 -5.296129E+03  2.919922E+04 -1.116646E-09 -6.021142E-10
       359  17 -5.707344E+05  7.055474E+04 -2.744660E+04 -1.022791E+04 -2.312695E-10  1.422689E-09
       359  18 -5.689332E+05 -8.049723E+04 -1.174411E+05 -2.943065E+04  1.019379E-09 -1.344953E-10
       359  19 -9.716844E+05 -3.676386E+04 -8.990285E+04 -6.992508E+03 -3.504367E+04 -5.470661E+03
       359  20 -9.731017E+05 -2.916762E+04 -1.241609E+05  1.260987E+04 -7.840858E+04 -6.508465E+03
       359  21 -1.023228E+06 -1.933317E+05 -2.296417E+05  5.243565E+04 -1.217871E+05 -2.498345E+03
       359  22 -7.960434E+05  6.990843E+03 -4.759707E+04  1.110088E+04 -3.669545E+04 -5.476619E+03
       359  23 -7.719336E+05  2.069560E+04 -7.579675E+04  1.193051E+03 -7.765017E+04 -6.504610E+03
       359  24 -7.960989E+05 -1.369139E+05 -1.735274E+05  1.151013E+04 -1.186204E+05 -2.481267E+03
       359  25 -6.203735E+05  5.074450E+04 -5.293306E+03  2.919939E+04 -3.834770E+04 -5.482673E+03
       359  26 -5.707280E+05  7.055638E+04 -2.743540E+04 -1.022751E+04 -7.689152E+04 -6.500784E+03
       359  27 -5.689188E+05 -8.049364E+04 -1.174160E+05 -2.943042E+04 -1.154526E+05 -2.464612E+03
       360   1  6.764983E+05  3.599073E+06  7.560415E+05 -2.707344E+05  1.282294E+04  2.727849E+05
       360   2  2.435164E+05  3.218044E+06  4.587328E+05 -7.807736E+04  3.625525E+04  1.598689E+05
       360   3  1.996741E+05  2.949032E+06  3.319501E+05 -1.383662E+05  2.468014E+04  4.692568E+04
       360   4  3.034474E+05  2.100294E+06  3.867003E+05 -1.757528E+05  1.290327E+04  2.527984E+05
       360   5 -4.653773E+04  2.045892E+06  1.780113E+05 -4.959776E+04  3.627383E+04  1.569625E+05
       360   6 -9.930772E+03  2.100721E+06  1.283091E+05 -1.763782E+05  2.463192E+04  6.103879E+04
       360   7 -6.973689E+04  6.035653E+05  1.719934E+04 -8.099832E+04  1.297766E+04  2.328591E+05
       360   8 -3.366884E+05  8.749927E+05 -1.028068E+05 -2.117108E+04  3.629218E+04  1.540614E+05
       360   9 -2.195820E+05  1.253069E+06 -7.538138E+04 -2.143377E+05  2.458195E+04  7.513271E+04
       360  10  6.764782E+05  3.598993E+06  7.559022E+05 -2.707373E+05 -3.549039E-10 -1.021304E-09
       360  11  2.435082E+05  3.218017E+06  4.586826E+05 -7.808202E+04 -2.619811E-09 -4.487386E-09
       360  12  1.996729E+05  2.949030E+06  3.319449E+05 -1.383671E+05  6.397914E-11 -6.791012E-10
       360  13  3.034302E+05  2.100225E+06  3.865802E+05 -1.757554E+05  1.133751E-10 -3.053587E-10
       360  14 -4.654573E+04  2.045865E+06  1.779627E+05 -4.960234E+04 -2.433930E-09 -4.988578E-09
       360  15 -9.932421E+03  2.100717E+06  1.283009E+05 -1.763794E+05  6.411367E-10 -4.925884E-09
       360  16 -6.975161E+04  6.035071E+05  1.709723E+04 -8.100076E+04 -8.738632E-11  1.102223E-09
       360  17 -3.366962E+05  8.749669E+05 -1.028539E+05 -2.117558E+04 -4.739864E-10 -4.295546E-09
       360  18 -2.195842E+05  1.253063E+06 -7.539311E+04 -2.143392E+05 -2.602634E-10 -2.676893E-09
       360  19  6.764983E+05  3.599073E+06  7.560415E+05 -2.707344E+05 -1.282294E+04 -2.727849E+05
       360  20  2.435164E+05  3.218044E+06  4.587328E+05 -7.807736E+04 -3.625525E+04 -1.598689E+05
       360  21  1.996741E+05  2.949032E+06  3.319501E+05 -1.383662E+05 -2.468014E+04 -4.692568E+04
       360  22  3.034474E+05  2.100294E+06  3.867003E+05 -1.757528E+05 -1.290327E+04 -2.527984E+05
       360  23 -4.653773E+04  2.045892E+06  1.780113E+05 -4.959776E+04 -3.627383E+04 -1.569625E+05
       360  24 -9.930772E+03  2.100721E+06  1.283091E+05 -1.763782E+05 -2.463192E+04 -6.103879E+04
       360  25 -6.973689E+04  6.035653E+05  1.719934E+04 -8.099832E+04 -1.297766E+04 -2.328591E+05
       360  26 -3.366884E+05  8.749927E+05 -1.028068E+05 -2.117108E+04 -3.629218E+04 -1.540614E+05
       360  27 -2.195820E+05  1.253069E+06 -7.538138E+04 -2.143377E+05 -2.458195E+04 -7.513271E+04
       361   1  1.291463E+05  2.474729E+06  2.100955E+05 -1.908661E+05  1.186458E+04  3.516417E+04
       361   2  7.169518E+03  2.142020E+06  1.127275E+05 -5.038585E+04  2.252918E+03 -1.391413E+04
       361   3 -2.154578E+04  1.836982E+06  7.009038E+04 -1.591633E+05 -7.587056E+03 -6.297042E+04
       361   4  3.199754E+04  2.082666E+06  1.160568E+05 -1.753145E+05  1.184926E+04  3.980717E+04
       361   5 -1.093041E+04  2.068885E+06  9.517648E+04 -5.067472E+04  2.236121E+03 -9.147557E+03
       361   6  3.939492E+04  2.082664E+06  1.289578E+05 -1.752864E+05 -7.603178E+03 -5.810500E+04
       361   7 -6.516148E+04  1.690744E+06  2.200743E+04 -1.597725E+05  1.183415E+04  4.444725E+04
       361   8 -2.903071E+04  1.995755E+06  7.762515E+04 -5.096356E+04  2.219319E+03 -4.381541E+03
       361   9  1.003322E+05  2.328401E+06  1.878212E+05 -1.914159E+05 -7.619548E+03 -5.323766E+04
       361  10  1.291458E+05  2.474728E+06  2.100930E+05 -1.908665E+05 -1.037850E-09 -2.696495E-09
       361  11  7.169461E+03  2.142019E+06  1.127271E+05 -5.038582E+04 -1.189815E-09 -7.066956E-09
       361  12 -2.154690E+04  1.836978E+06  7.008284E+04 -1.591637E+05 -2.517721E-09 -2.946789E-10
       361  13  3.199697E+04  2.082664E+06  1.160536E+05 -1.753149E+05  6.175972E-10 -5.388051E-10
       361  14 -1.093044E+04  2.068885E+06  9.517631E+04 -5.067471E+04  1.903581E-09 -8.326787E-09
       361  15  3.939396E+04  2.082660E+06  1.289514E+05 -1.752868E+05  1.946476E-09 -5.847254E-09
       361  16 -6.516216E+04  1.690741E+06  2.200347E+04 -1.597730E+05  4.915551E-10  2.705560E-09
       361  17 -2.903072E+04  1.995755E+06  7.762511E+04 -5.096355E+04 -2.079688E-09 -5.002452E-09
       361  18  1.003314E+05  2.328398E+06  1.878158E+05 -1.914162E+05 -1.071598E-10 -2.928152E-09
       361  19  1.291463E+05  2.474729E+06  2.100955E+05 -1.908661E+05 -1.186458E+04 -3.516417E+04
       361  20  7.169518E+03  2.142020E+06  1.127275E+05 -5.038585E+04 -2.252918E+03  1.391413E+04
       361  21 -2.154578E+04  1.836982E+06  7.009038E+04 -1.591633E+05  7.587056E+03  6.297042E+04
       361  22  3.199754E+04  2.082666E+06  1.160568E+05 -1.753145E+05 -1.184926E+04 -3.980717E+04
       361  23 -1.093041E+04  2.068885E+06  9.517648E+04 -5.067472E+04 -2.236121E+03  9.147557E+03
       361  24  3.939492E+04  2.082664E+06  1.289578E+05 -1.752864E+05  7.603178E+03  5.810500E+04
       361  25 -6.516148E+04  1.690744E+06  2.200743E+04 -1.597725E+05 -1.183415E+04 -4.444725E+04
       361  26 -2.903071E+04  1.995755E+06  7.762515E+04 -5.096356E+04 -2.219319E+03  4.381541E+03
       361  27  1.003322E+05  2.328401E+06  1.878212E+05 -1.914159E+05  7.619548E+03  5.323766E+04
       362   1 -1.869883E+05  1.405060E+06 -2.182298E+04 -2.225969E+05 -1.989587E+04 -9.534131E+04
       362   2 -3.093957E+05  1.017501E+06 -3.338618E+04 -1.597842E+04 -3.155216E+04 -1.940575E+05
       362   3  3.183538E+04  7.585183E+05  1.351442E+05 -6.113076E+04 -1.129859E+04 -2.926292E+05
       362   4 -1.386790E+04  2.105583E+06  1.465575E+05 -1.761856E+05 -1.994855E+04 -8.199344E+04
       362   5 -5.598920E+04  2.039911E+06  2.117925E+05 -4.989115E+04 -3.153280E+04 -1.962238E+05
       362   6  3.677717E+05  2.105110E+06  4.676278E+05 -1.753083E+05 -1.120493E+04 -3.103629E+05
       362   7  1.592253E+05  2.806559E+06  3.149052E+05 -1.297214E+05 -1.999921E+04 -6.863055E+04
       362   8  1.973457E+05  3.063278E+06  4.568978E+05 -8.385918E+04 -3.151323E+04 -1.983935E+05
       362   9  7.036213E+05  3.453375E+06  7.999850E+05 -2.897323E+05 -1.110490E+04 -3.281343E+05
       362  10 -1.869912E+05  1.405050E+06 -2.184077E+04 -2.225984E+05 -1.540035E-09 -2.533811E-09
       362  11 -3.094069E+05  1.017461E+06 -3.345870E+04 -1.598335E+04 -4.889429E-10 -5.779628E-09
       362  12  3.181229E+04  7.584264E+05  1.349833E+05 -6.113342E+04 -5.245968E-10  8.540136E-10
       362  13 -1.387013E+04  2.105576E+06  1.465442E+05 -1.761869E+05 -3.067464E-09 -2.148022E-10
       362  14 -5.600056E+04  2.039870E+06  2.117185E+05 -4.989613E+04  1.473811E-09 -6.220453E-09
       362  15  3.677458E+05  2.105007E+06  4.674471E+05 -1.753111E+05 -3.410774E-10 -2.664449E-09
       362  16  1.592237E+05  2.806554E+06  3.148956E+05 -1.297225E+05  1.034904E-09  2.133986E-09
       362  17  1.973341E+05  3.063235E+06  4.568224E+05 -8.386421E+04 -9.827384E-10 -3.774608E-09
       362  18  7.035925E+05  3.453259E+06  7.997835E+05 -2.897352E+05 -1.246059E-09 -2.059435E-09
       362  19 -1.869883E+05  1.405060E+06 -2.182298E+04 -2.225969E+05  1.989587E+04  9.534131E+04
       362  20 -3.093957E+05  1.017501E+06 -3.338618E+04 -1.597842E+04  3.155216E+04  1.940575E+05
       362  21  3.183538E+04  7.585183E+05  1.351442E+05 -6.113076E+04  1.129859E+04  2.926292E+05
       362  22 -1.386790E+04  2.105583E+06  1.465575E+05 -1.761856E+05  1.994855E+04  8.199344E+04
       362  23 -5.598920E+04  2.039911E+06  2.117925E+05 -4.989115E+04  3.153280E+04  1.962238E+05
       362  24  3.677717E+05  2.105110E+06  4.676278E+05 -1.753083E+05  1.120493E+04  3.103629E+05
       362  25  1.592253E+05  2.806559E+06  3.149052E+05 -1.297214E+05  1.999921E+04  6.863055E+04
       362  26  1.973457E+05  3.063278E+06  4.568978E+05 -8.385918E+04  3.151323E+04  1.983935E+05
       362  27  7.036213E+05  3.453375E+06  7.999850E+05 -2.897323E+05  1.110490E+04  3.281343E+05
       363   1  8.978126E+04  1.702912E+04 -8.754528E+03  1.390792E+04 -6.776237E+04 -3.019661E+04
       363   2  8.873607E+04  1.107818E+05  5.106666E+04 -1.593373E+04 -4.183146E+04 -2.980141E+04
       363   3  3.058707E+04  1.106567E+05  6.440973E+04 -1.904864E+03 -1.934224E+04 -2.027541E+04
       363   4 -3.296209E+05 -1.171751E+05 -1.181766E+05 -7.570620E+04 -7.346503E+04 -3.234814E+04
       363   5 -2.945376E+05 -2.680819E+04 -4.917890E+04 -1.138431E+05 -4.344748E+04 -3.041184E+04
       363   6 -3.173963E+05 -3.116908E+04 -2.992309E+04 -1.081015E+05 -1.687084E+04 -1.934304E+04
       363   7 -7.488502E+05 -2.513787E+05 -2.276116E+05 -1.652705E+05 -7.916337E+04 -3.449861E+04
       363   8 -6.776677E+05 -1.643918E+05 -1.494362E+05 -2.116989E+05 -4.506239E+04 -3.102190E+04
       363   9 -6.652620E+05 -1.729817E+05 -1.242667E+05 -2.142423E+05 -1.440096E+04 -1.841134E+04
       363  10  8.977608E+04  1.702691E+04 -8.764869E+03  1.390627E+04 -7.461347E-10  7.063595E-10
       363  11  8.873396E+04  1.107804E+05  5.106170E+04 -1.593474E+04 -1.524108E-09 -1.009316E-09
       363  12  3.058656E+04  1.106562E+05  6.440825E+04 -1.905180E+03 -9.531215E-10 -4.630977E-10
       363  13 -3.296270E+05 -1.171776E+05 -1.181887E+05 -7.570812E+04 -1.729314E-09  3.204940E-09
       363  14 -2.945398E+05 -2.680969E+04 -4.918418E+04 -1.138441E+05 -2.772430E-09  1.968136E-09
       363  15 -3.173967E+05 -3.116956E+04 -2.992432E+04 -1.081018E+05 -1.301463E-09 -1.048158E-09
       363  16 -7.488573E+05 -2.513816E+05 -2.276256E+05 -1.652727E+05 -5.918347E-10 -3.958240E-10
       363  17 -6.776701E+05 -1.643934E+05 -1.494419E+05 -2.117000E+05 -2.405549E-09  1.993395E-09
       363  18 -6.652623E+05 -1.729821E+05 -1.242677E+05 -2.142425E+05 -1.139846E-09  1.788416E-09
       363  19  8.978126E+04  1.702912E+04 -8.754528E+03  1.390792E+04  6.776237E+04  3.019661E+04
       363  20  8.873607E+04  1.107818E+05  5.106666E+04 -1.593373E+04  4.183146E+04  2.980141E+04
       363  21  3.058707E+04  1.106567E+05  6.440973E+04 -1.904864E+03  1.934224E+04  2.027541E+04
       363  22 -3.296209E+05 -1.171751E+05 -1.181766E+05 -7.570620E+04  7.346503E+04  3.234814E+04
       363  23 -2.945376E+05 -2.680819E+04 -4.917890E+04 -1.138431E+05  4.344748E+04  3.041184E+04
       363  24 -3.173963E+05 -3.116908E+04 -2.992309E+04 -1.081015E+05  1.687084E+04  1.934304E+04
       363  25 -7.488502E+05 -2.513787E+05 -2.276116E+05 -1.652705E+05  7.916337E+04  3.449861E+04
       363  26 -6.776677E+05 -1.643918E+05 -1.494362E+05 -2.116989E+05  4.506239E+04  3.102190E+04
       363  27 -6.652620E+05 -1.729817E+05 -1.242667E+05 -2.142423E+05  1.440096E+04  1.841134E+04
       364   1  7.984812E+03  7.529875E+04  6.069413E+04 -1.524567E+04 -1.322826E+04 -1.580435E+04
       364   2 -6.401773E+03  7.174799E+04  6.705891E+04 -3.157521E+04 -7.603732E+03 -1.344005E+04
       364   3 -4.033741E+04  7.018354E+04  6.584292E+04 -2.856200E+04 -2.277383E+03 -1.028828E+04
       364   4 -3.136869E+05 -4.354268E+04 -2.438699E+04 -1.007916E+05 -1.330372E+04 -1.583332E+04
       364   5 -3.031785E+05 -3.962044E+04 -1.161673E+04 -1.123044E+05 -7.328265E+03 -1.333639E+04
       364   6 -3.122920E+05 -3.378484E+04 -6.708540E+03 -1.044736E+05 -1.650814E+03 -1.005175E+04
       364   7 -6.352597E+05 -1.623792E+05 -1.094772E+05 -1.862982E+05 -1.337912E+04 -1.586227E+04
       364   8 -5.998707E+05 -1.509839E+05 -9.030010E+04 -1.929990E+05 -7.052940E+03 -1.323278E+04
       364   9 -5.841753E+05 -1.377482E+05 -7.926648E+04 -1.803551E+05 -1.024547E+03 -9.815343E+03
       364  10  7.984557E+03  7.529843E+04  6.069333E+04 -1.524584E+04 -3.801425E-10  1.293250E-09
       364  11 -6.401884E+03  7.174778E+04  6.705847E+04 -3.157530E+04 -1.234350E-09  2.799652E-09
       364  12 -4.033745E+04  7.018343E+04  6.584271E+04 -2.856202E+04 -2.466241E-09  5.197064E-09
       364  13 -3.136871E+05 -4.354300E+04 -2.438780E+04 -1.007917E+05 -1.373065E-10  3.468676E-09
       364  14 -3.031786E+05 -3.962065E+04 -1.161716E+04 -1.123045E+05  3.129622E-09  9.491556E-10
       364  15 -3.122920E+05 -3.378495E+04 -6.708735E+03 -1.044736E+05  2.303194E-09  1.738973E-09
       364  16 -6.352600E+05 -1.623795E+05 -1.094781E+05 -1.862984E+05 -6.306103E-10  1.007969E-09
       364  17 -5.998708E+05 -1.509841E+05 -9.030052E+04 -1.929991E+05  1.092218E-09  1.867473E-09
       364  18 -5.841753E+05 -1.377483E+05 -7.926667E+04 -1.803551E+05  2.796188E-09 -1.119132E-09
       364  19  7.984812E+03  7.529875E+04  6.069413E+04 -1.524567E+04  1.322826E+04  1.580435E+04
       364  20 -6.401773E+03  7.174799E+04  6.705891E+04 -3.157521E+04  7.603732E+03  1.344005E+04
       364  21 -4.033741E+04  7.018354E+04  6.584292E+04 -2.856200E+04  2.277383E+03  1.028828E+04
       364  22 -3.136869E+05 -4.354268E+04 -2.438699E+04 -1.007916E+05  1.330372E+04  1.583332E+04
       364  23 -3.031785E+05 -3.962044E+04 -1.161673E+04 -1.123044E+05  7.328265E+03  1.333639E+04
       364  24 -3.122920E+05 -3.378484E+04 -6.708540E+03 -1.044736E+05  1.650814E+03  1.005175E+04
       364  25 -6.352597E+05 -1.623792E+05 -1.094772E+05 -1.862982E+05  1.337912E+04  1.586227E+04
       364  26 -5.998707E+05 -1.509839E+05 -9.030010E+04 -1.929990E+05  7.052940E+03  1.323278E+04
       364  27 -5.841753E+05 -1.377482E+05 -7.926648E+04 -1.803551E+05  1.024547E+03  9.815343E+03
       365   1 -7.541107E+04  5.394540E+04  5.744353E+04 -3.890309E+04 -1.358611E+03 -9.141442E+03
       365   2 -9.174336E+04  3.905713E+04  5.372900E+04 -5.392856E+04 -3.802437E+02 -7.689265E+03
       365   3 -1.233116E+05  3.736794E+04  4.865389E+04 -5.207821E+04  5.697230E+02 -6.163761E+03
       365   4 -3.118612E+05 -3.511475E+04 -5.249437E+03 -1.035706E+05 -9.484625E+02 -8.986614E+03
       365   5 -3.041590E+05 -4.115678E+04 -2.691116E+03 -1.122179E+05  6.239127E+01 -7.522027E+03
       365   6 -3.117004E+05 -3.400606E+04 -1.519548E+03 -1.039889E+05  1.044899E+03 -5.984075E+03
       365   7 -5.482569E+05 -1.241713E+05 -6.794708E+04 -1.682158E+05 -5.384867E+02 -8.831851E+03
       365   8 -5.165311E+05 -1.213679E+05 -5.911515E+04 -1.704892E+05  5.048598E+02 -7.354851E+03
       365   9 -5.000555E+05 -1.053780E+05 -5.169622E+04 -1.558855E+05  1.519917E+03 -5.804448E+03
       365  10 -7.541110E+04  5.394531E+04  5.744337E+04 -3.890310E+04 -3.310375E-09  6.360621E-09
       365  11 -9.174338E+04  3.905707E+04  5.372889E+04 -5.392857E+04 -3.601607E-09  3.582898E-09
       365  12 -1.233116E+05  3.736790E+04  4.865382E+04 -5.207821E+04 -2.952888E-09  2.593365E-09
       365  13 -3.118613E+05 -3.511483E+04 -5.249591E+03 -1.035706E+05  1.258864E-09  1.746085E-09
       365  14 -3.041590E+05 -4.115684E+04 -2.691222E+03 -1.122179E+05  1.110652E-09  1.406185E-09
       365  15 -3.117004E+05 -3.400610E+04 -1.519617E+03 -1.039889E+05 -1.638361E-09  9.809139E-09
       365  16 -5.482569E+05 -1.241714E+05 -6.794723E+04 -1.682158E+05  2.660494E-09 -6.373138E-10
       365  17 -5.165311E+05 -1.213680E+05 -5.911525E+04 -1.704892E+05  3.800603E-09 -3.968567E-10
       365  18 -5.000555E+05 -1.053780E+05 -5.169628E+04 -1.558855E+05 -4.784235E-11  3.591508E-09
       365  19 -7.541107E+04  5.394540E+04  5.744353E+04 -3.890309E+04  1.358611E+03  9.141442E+03
       365  20 -9.174336E+04  3.905713E+04  5.372900E+04 -5.392856E+04  3.802437E+02  7.689265E+03
       365  21 -1.233116E+05  3.736794E+04  4.865389E+04 -5.207821E+04 -5.697230E+02  6.163761E+03
       365  22 -3.118612E+05 -3.511475E+04 -5.249437E+03 -1.035706E+05  9.484625E+02  8.986614E+03
       365  23 -3.041590E+05 -4.115678E+04 -2.691116E+03 -1.122179E+05 -6.239127E+01  7.522027E+03
       365  24 -3.117004E+05 -3.400606E+04 -1.519548E+03 -1.039889E+05 -1.044899E+03  5.984075E+03
       365  25 -5.482569E+05 -1.241713E+05 -6.794708E+04 -1.682158E+05  5.384867E+02  8.831851E+03
       365  26 -5.165311E+05 -1.213679E+05 -5.911515E+04 -1.704892E+05 -5.048598E+02  7.354851E+03
       365  27 -5.000555E+05 -1.053780E+05 -5.169622E+04 -1.558855E+05 -1.519917E+03  5.804448E+03
       366   1 -1.603050E+05  2.307200E+04  3.895516E+04 -6.225938E+04  5.785170E+02 -5.467422E+03
       366   2 -1.770390E+05  6.721542E+03  3.315468E+04 -7.729562E+04  5.101939E+02 -4.324835E+03
       366   3 -2.086485E+05  5.001515E+03  2.707782E+04 -7.555946E+04  4.378778E+02 -3.172708E+03
       366   4 -3.116772E+05 -3.411914E+04 -1.171547E+03 -1.038468E+05  1.035759E+03 -5.294444E+03
       366   5 -3.042288E+05 -4.136935E+04 -6.422907E+02 -1.122572E+05  9.716647E+02 -4.150178E+03
       366   6 -3.116576E+05 -3.398997E+04 -3.928541E+02 -1.038953E+05  9.035898E+02 -2.996364E+03
       366   7 -4.630273E+05 -9.130884E+04 -4.130023E+04 -1.454252E+05  1.492878E+03 -5.121513E+03
       366   8 -4.314028E+05 -8.945916E+04 -3.444062E+04 -1.472124E+05  1.433031E+03 -3.975560E+03
       366   9 -4.146563E+05 -7.298069E+04 -2.786438E+04 -1.322269E+05  1.369216E+03 -2.820052E+03
       366  10 -1.603050E+05  2.307196E+04  3.895511E+04 -6.225937E+04  3.153856E-09 -7.659433E-10
       366  11 -1.770390E+05  6.721521E+03  3.315465E+04 -7.729562E+04  1.125551E-09  1.010715E-09
       366  12 -2.086485E+05  5.001504E+03  2.707780E+04 -7.555946E+04 -1.953405E-09 -4.707296E-09
       366  13 -3.116772E+05 -3.411917E+04 -1.171601E+03 -1.038468E+05 -2.172861E-10  2.236975E-10
       366  14 -3.042288E+05 -4.136937E+04 -6.423248E+02 -1.122572E+05  2.487667E-09  4.997298E-09
       366  15 -3.116576E+05 -3.398998E+04 -3.928725E+02 -1.038953E+05 -7.145831E-10  2.993251E-09
       366  16 -4.630273E+05 -9.130887E+04 -4.130029E+04 -1.454252E+05 -4.425774E-09  2.145497E-09
       366  17 -4.314028E+05 -8.945918E+04 -3.444065E+04 -1.472123E+05 -2.780951E-10  2.411412E-09
       366  18 -4.146563E+05 -7.298070E+04 -2.786440E+04 -1.322269E+05  4.617637E-10 -6.215211E-10
       366  19 -1.603050E+05  2.307200E+04  3.895516E+04 -6.225938E+04 -5.785170E+02  5.467422E+03
       366  20 -1.770390E+05  6.721542E+03  3.315468E+04 -7.729562E+04 -5.101939E+02  4.324835E+03
       366  21 -2.086485E+05  5.001515E+03  2.707782E+04 -7.555946E+04 -4.378778E+02  3.172708E+03
       366  22 -3.116772E+05 -3.411914E+04 -1.171547E+03 -1.038468E+05 -1.035759E+03  5.294444E+03
       366  23 -3.042288E+05 -4.136935E+04 -6.422907E+02 -1.122572E+05 -9.716647E+02  4.150178E+03
       366  24 -3.116576E+05 -3.398997E+04 -3.928541E+02 -1.038953E+05 -9.035898E+02  2.996364E+03
       366  25 -4.630273E+05 -9.130884E+04 -4.130023E+04 -1.454252E+05 -1.492878E+03  5.121513E+03
       366  26 -4.314028E+05 -8.945916E+04 -3.444062E+04 -1.472124E+05 -1.433031E+03  3.975560E+03
       366  27 -4.146563E+05 -7.298069E+04 -2.786438E+04 -1.322269E+05 -1.369216E+03  2.820052E+03
       367   1 -2.461139E+05 -9.208274E+03  1.700008E+04 -8.583368E+04  2.691409E+02 -2.546645E+03
       367   2 -2.629597E+05 -2.580294E+04  1.069675E+04 -1.009395E+05  1.129207E+01 -1.460983E+03
       367   3 -2.947318E+05 -2.756188E+04  4.279289E+03 -9.920143E+04 -2.460811E+02 -3.768927E+02
       367   4 -3.116722E+05 -3.398393E+04 -3.285940E+02 -1.038635E+05  7.344432E+02 -2.370417E+03
       367   5 -3.042095E+05 -4.140600E+04 -2.660024E+02 -1.122838E+05  4.758810E+02 -1.284999E+03
       367   6 -3.116731E+05 -3.399199E+04 -3.168028E+02 -1.038603E+05  2.177995E+02 -2.011491E+02
       367   7 -3.772266E+05 -5.875939E+04 -1.765769E+04 -1.218916E+05  1.199693E+03 -2.194209E+03
       367   8 -3.454577E+05 -5.700897E+04 -1.122891E+04 -1.236275E+05  9.404366E+02 -1.109028E+03
       367   9 -3.286141E+05 -4.042208E+04 -4.912920E+03 -1.085191E+05  6.816661E+02 -2.541078E+01
       367  10 -2.461139E+05 -9.208281E+03  1.700007E+04 -8.583368E+04  1.696874E-09  4.350668E-09
       367  11 -2.629597E+05 -2.580294E+04  1.069674E+04 -1.009395E+05 -8.462849E-10  5.795987E-09
       367  12 -2.947318E+05 -2.756188E+04  4.279289E+03 -9.920143E+04  2.521838E-09 -3.308525E-09
       367  13 -3.116722E+05 -3.398394E+04 -3.286056E+02 -1.038635E+05 -9.465047E-11  1.907921E-09
       367  14 -3.042095E+05 -4.140600E+04 -2.660059E+02 -1.122838E+05  1.174656E-09  2.755285E-09
       367  15 -3.116731E+05 -3.399199E+04 -3.168029E+02 -1.038603E+05  1.669736E-09  1.401605E-09
       367  16 -3.772266E+05 -5.875940E+04 -1.765770E+04 -1.218916E+05 -7.712423E-10 -4.203413E-09
       367  17 -3.454577E+05 -5.700897E+04 -1.122892E+04 -1.236275E+05  2.963052E-09 -7.344055E-09
       367  18 -3.286141E+05 -4.042208E+04 -4.912921E+03 -1.085191E+05 -8.493189E-10 -6.420015E-09
       367  19 -2.461139E+05 -9.208274E+03  1.700008E+04 -8.583368E+04 -2.691409E+02  2.546645E+03
       367  20 -2.629597E+05 -2.580294E+04  1.069675E+04 -1.009395E+05 -1.129207E+01  1.460983E+03
       367  21 -2.947318E+05 -2.756188E+04  4.279289E+03 -9.920143E+04  2.460811E+02  3.768927E+02
       367  22 -3.116722E+05 -3.398393E+04 -3.285940E+02 -1.038635E+05 -7.344432E+02  2.370417E+03
       367  23 -3.042095E+05 -4.140600E+04 -2.660024E+02 -1.122838E+05 -4.758810E+02  1.284999E+03
       367  24 -3.116731E+05 -3.399199E+04 -3.168028E+02 -1.038603E+05 -2.177995E+02  2.011491E+02
       367  25 -3.772266E+05 -5.875939E+04 -1.765769E+04 -1.218916E+05 -1.199693E+03  2.194209E+03
       367  26 -3.454577E+05 -5.700897E+04 -1.122891E+04 -1.236275E+05 -9.404366E+02  1.109028E+03
       367  27 -3.286141E+05 -4.042208E+04 -4.912920E+03 -1.085191E+05 -6.816661E+02  2.541078E+01
       368   1 -3.322926E+05 -4.180546E+04 -5.947303E+03 -1.095731E+05 -4.318963E+02  2.501699E+02
       368   2 -3.491202E+05 -5.835808E+04 -1.252863E+04 -1.246323E+05 -5.063540E+02  1.407134E+03
       368   3 -3.809842E+05 -6.032713E+04 -1.942800E+04 -1.227929E+05 -5.647001E+02  2.521920E+03
       368   4 -3.116847E+05 -3.396304E+04 -3.715141E+02 -1.038801E+05  4.318437E+01  4.301553E+02
       368   5 -3.041849E+05 -4.137159E+04 -5.887359E+02 -1.122859E+05 -5.021697E+01  1.579912E+03
       368   6 -3.117182E+05 -3.419291E+04 -1.108888E+03 -1.037933E+05 -1.274943E+02  2.687502E+03
       368   7 -2.910764E+05 -2.612060E+04  5.204223E+03 -9.818707E+04  5.182812E+02  6.101469E+02
       368   8 -2.592477E+05 -2.438497E+04  1.135098E+04 -9.993867E+04  4.059564E+02  1.752704E+03
       368   9 -2.424473E+05 -8.058323E+03  1.720986E+04 -8.479176E+04  3.097662E+02  2.853104E+03
       368  10 -3.322926E+05 -4.180546E+04 -5.947304E+03 -1.095731E+05  6.083055E-10 -1.964311E-09
       368  11 -3.491202E+05 -5.835809E+04 -1.252863E+04 -1.246323E+05 -1.933343E-09  1.115514E-10
       368  12 -3.809842E+05 -6.032714E+04 -1.942801E+04 -1.227929E+05 -2.727624E-09  3.057149E-09
       368  13 -3.116847E+05 -3.396304E+04 -3.715144E+02 -1.038801E+05  5.317541E-10  5.716575E-09
       368  14 -3.041849E+05 -4.137159E+04 -5.887406E+02 -1.122859E+05 -5.186321E-10  8.248329E-10
       368  15 -3.117182E+05 -3.419292E+04 -1.108902E+03 -1.037933E+05  7.724772E-10 -6.821717E-09
       368  16 -2.910764E+05 -2.612061E+04  5.204222E+03 -9.818707E+04  6.237711E-11  3.197295E-09
       368  17 -2.592477E+05 -2.438497E+04  1.135097E+04 -9.993867E+04 -5.533450E-10  8.325804E-09
       368  18 -2.424473E+05 -8.058331E+03  1.720985E+04 -8.479176E+04 -5.694352E-10  1.127337E-08
       368  19 -3.322926E+05 -4.180546E+04 -5.947303E+03 -1.095731E+05  4.318963E+02 -2.501699E+02
       368  20 -3.491202E+05 -5.835808E+04 -1.252863E+04 -1.246323E+05  5.063540E+02 -1.407134E+03
       368  21 -3.809842E+05 -6.032713E+04 -1.942800E+04 -1.227929E+05  5.647001E+02 -2.521920E+03
       368  22 -3.116847E+05 -3.396304E+04 -3.715141E+02 -1.038801E+05 -4.318437E+01 -4.301553E+02
       368  23 -3.041849E+05 -4.137159E+04 -5.887359E+02 -1.122859E+05  5.021697E+01 -1.579912E+03
       368  24 -3.117182E+05 -3.419291E+04 -1.108888E+03 -1.037933E+05  1.274943E+02 -2.687502E+03
       368  25 -2.910764E+05 -2.612060E+04  5.204223E+03 -9.818707E+04 -5.182812E+02 -6.101469E+02
       368  26 -2.592477E+05 -2.438497E+04  1.135098E+04 -9.993867E+04 -4.059564E+02 -1.752704E+03
       368  27 -2.424473E+05 -8.058323E+03  1.720986E+04 -8.479176E+04 -3.097662E+02 -2.853104E+03
       369   1 -4.182912E+05 -7.447758E+04 -2.984500E+04 -1.335315E+05 -7.490364E+02  3.219825E+03
       369   2 -4.349213E+05 -9.041139E+04 -3.718228E+04 -1.481376E+05  3.404373E+02  4.808613E+03
       369   3 -4.674794E+05 -9.418552E+04 -4.632954E+04 -1.453710E+05  1.612950E+03  5.914644E+03
       369   4 -3.117950E+05 -3.392410E+04 -1.407223E+03 -1.039912E+05 -1.783988E+02  3.435903E+03
       369   5 -3.039989E+05 -4.104352E+04 -2.423522E+03 -1.122922E+05  6.944889E+02  4.942589E+03
       369   6 -3.120881E+05 -3.596019E+04 -5.077620E+03 -1.032210E+05  1.750459E+03  5.966593E+03
       369   7 -2.052878E+05  6.630122E+03  2.702955E+04 -7.444637E+04  3.923465E+02  3.652021E+03
       369   8 -1.730601E+05  8.325324E+03  3.233370E+04 -7.644012E+04  1.048622E+03  5.076596E+03
       369   9 -1.566739E+05  2.226637E+04  3.617209E+04 -6.106174E+04  1.888006E+03  6.018556E+03
       369  10 -4.182912E+05 -7.447759E+04 -2.984502E+04 -1.335315E+05  1.938505E-10 -3.275228E-09
       369  11 -4.349213E+05 -9.041141E+04 -3.718232E+04 -1.481376E+05  2.142536E-09 -2.500664E-09
       369  12 -4.674794E+05 -9.418556E+04 -4.632961E+04 -1.453710E+05  5.708256E-09 -4.543720E-09
       369  13 -3.117950E+05 -3.392411E+04 -1.407245E+03 -1.039912E+05 -1.108757E-09  7.842086E-09
       369  14 -3.039989E+05 -4.104354E+04 -2.423569E+03 -1.122922E+05  8.447320E-10  1.157994E-08
       369  15 -3.120881E+05 -3.596023E+04 -5.077692E+03 -1.032211E+05  3.946647E-09 -1.516163E-09
       369  16 -2.052878E+05  6.630107E+03  2.702953E+04 -7.444637E+04  1.032762E-09  4.157623E-09
       369  17 -1.730601E+05  8.325296E+03  3.233365E+04 -7.644013E+04 -2.355449E-09  3.958325E-09
       369  18 -1.566740E+05  2.226633E+04  3.617201E+04 -6.106175E+04  1.097691E-10 -4.096592E-09
       369  19 -4.182912E+05 -7.447758E+04 -2.984500E+04 -1.335315E+05  7.490364E+02 -3.219825E+03
       369  20 -4.349213E+05 -9.041139E+04 -3.718228E+04 -1.481376E+05 -3.404373E+02 -4.808613E+03
       369  21 -4.674794E+05 -9.418552E+04 -4.632954E+04 -1.453710E+05 -1.612950E+03 -5.914644E+03
       369  22 -3.117950E+05 -3.392410E+04 -1.407223E+03 -1.039912E+05  1.783988E+02 -3.435903E+03
       369  23 -3.039989E+05 -4.104352E+04 -2.423522E+03 -1.122922E+05 -6.944889E+02 -4.942589E+03
       369  24 -3.120881E+05 -3.596019E+04 -5.077620E+03 -1.032210E+05 -1.750459E+03 -5.966593E+03
       369  25 -2.052878E+05  6.630122E+03  2.702955E+04 -7.444637E+04 -3.923465E+02 -3.652021E+03
       369  26 -1.730601E+05  8.325324E+03  3.233370E+04 -7.644012E+04 -1.048622E+03 -5.076596E+03
       369  27 -1.566739E+05  2.226637E+04  3.617209E+04 -6.106174E+04 -1.888006E+03 -6.018556E+03
       370   1 -5.033370E+05 -1.076499E+05 -5.725751E+04 -1.593854E+05  4.010516E+02  7.068919E+03
       370   2 -5.191273E+05 -1.188396E+05 -6.747787E+04 -1.706548E+05  8.151727E+03  1.112788E+04
       370   3 -5.590790E+05 -1.385913E+05 -9.004382E+04 -1.596154E+05  1.802846E+04  9.563736E+03
       370   4 -3.128120E+05 -3.342397E+04 -6.226176E+03 -1.047878E+05  2.107171E+03  7.714411E+03
       370   5 -3.022637E+05 -3.833884E+04 -1.023697E+04 -1.125613E+05  7.334677E+03  1.081861E+04
       370   6 -3.153731E+05 -5.130999E+04 -2.458818E+04 -9.802685E+04  1.468821E+04  8.300672E+03
       370   7 -1.222511E+05  4.080515E+04  4.480217E+04 -5.017473E+04  3.813873E+03  8.360139E+03
       370   8 -8.535492E+04  4.216440E+04  4.699985E+04 -5.444982E+04  6.517314E+03  1.050923E+04
       370   9 -7.161167E+04  3.597276E+04  4.086197E+04 -3.641757E+04  1.134654E+04  7.037136E+03
       370  10 -5.033370E+05 -1.076500E+05 -5.725761E+04 -1.593854E+05  3.567701E-09 -6.725468E-09
       370  11 -5.191274E+05 -1.188398E+05 -6.747822E+04 -1.706548E+05  1.994757E-09 -7.349586E-10
       370  12 -5.590794E+05 -1.385914E+05 -9.004460E+04 -1.596155E+05 -6.334294E-10 -5.160871E-09
       370  13 -3.128120E+05 -3.342403E+04 -6.226296E+03 -1.047878E+05  1.459832E-10 -1.453984E-09
       370  14 -3.022638E+05 -3.833898E+04 -1.023729E+04 -1.125614E+05  3.421968E-09  1.676744E-09
       370  15 -3.153734E+05 -5.131012E+04 -2.458871E+04 -9.802695E+04 -2.253949E-10 -2.991231E-10
       370  16 -1.222511E+05  4.080507E+04  4.480201E+04 -5.017476E+04 -4.439302E-10 -2.517913E-09
       370  17 -8.535499E+04  4.216427E+04  4.699956E+04 -5.444988E+04 -3.155721E-10  3.775065E-09
       370  18 -7.161182E+04  3.597267E+04  4.086163E+04 -3.641764E+04 -1.436506E-09  3.483135E-10
       370  19 -5.033370E+05 -1.076499E+05 -5.725751E+04 -1.593854E+05 -4.010516E+02 -7.068919E+03
       370  20 -5.191273E+05 -1.188396E+05 -6.747787E+04 -1.706548E+05 -8.151727E+03 -1.112788E+04
       370  21 -5.590790E+05 -1.385913E+05 -9.004382E+04 -1.596154E+05 -1.802846E+04 -9.563736E+03
       370  22 -3.128120E+05 -3.342397E+04 -6.226176E+03 -1.047878E+05 -2.107171E+03 -7.714411E+03
       370  23 -3.022637E+05 -3.833884E+04 -1.023697E+04 -1.125613E+05 -7.334677E+03 -1.081861E+04
       370  24 -3.153731E+05 -5.130999E+04 -2.458818E+04 -9.802685E+04 -1.468821E+04 -8.300672E+03
       370  25 -1.222511E+05  4.080515E+04  4.480217E+04 -5.017473E+04 -3.813873E+03 -8.360139E+03
       370  26 -8.535492E+04  4.216440E+04  4.699985E+04 -5.444982E+04 -6.517314E+03 -1.050923E+04
       370  27 -7.161167E+04  3.597276E+04  4.086197E+04 -3.641757E+04 -1.134654E+04 -7.037136E+03
       371   1 -1.560527E+05  1.355230E+04 -1.969491E+04 -1.761174E+04 -9.637743E+04 -5.452063E+03
       371   2 -1.726571E+05  1.418322E+05  5.338201E+04 -6.301665E+03 -6.593808E+04 -1.572860E+04
       371   3 -2.304077E+05  1.210121E+05  6.941113E+04  3.394602E+04 -3.553559E+04 -1.441658E+04
       371   4 -6.925929E+05 -1.200706E+05 -1.522254E+05  1.757515E+04 -1.040688E+05 -5.480101E+03
       371   5 -6.714966E+05  1.811549E+04 -6.652105E+04  2.917432E+03 -6.809634E+04 -1.573739E+04
       371   6 -6.925453E+05  6.172924E+03 -4.174454E+04  1.719943E+04 -3.215856E+04 -1.440456E+04
       371   7 -1.228868E+06 -2.537102E+05 -2.847763E+05  5.273139E+04 -1.117534E+05 -5.509026E+03
       371   8 -1.170108E+06 -1.056190E+05 -1.864417E+05  1.212891E+04 -7.025286E+04 -1.574625E+04
       371   9 -1.154487E+06 -1.086808E+05 -1.529153E+05  4.651997E+02 -2.878403E+04 -1.439271E+04
       371  10 -1.560626E+05  1.354978E+04 -1.971242E+04 -1.761216E+04 -3.781826E-09  1.915044E-09
       371  11 -1.726618E+05  1.418308E+05  5.337337E+04 -6.302501E+03 -1.184469E-09  1.344142E-08
       371  12 -2.304091E+05  1.210115E+05  6.940837E+04  3.394560E+04  1.599649E-10  5.388838E-09
       371  13 -6.926046E+05 -1.200735E+05 -1.522458E+05  1.757469E+04  1.487190E-09 -4.186928E-09
       371  14 -6.715017E+05  1.811397E+04 -6.653024E+04  2.916569E+03 -1.307723E-09 -9.098860E-09
       371  15 -6.925465E+05  6.172423E+03 -4.174687E+04  1.719906E+04  1.054069E-10  2.415749E-09
       371  16 -1.228882E+06 -2.537136E+05 -2.847999E+05  5.273089E+04  3.627213E-09 -1.106691E-09
       371  17 -1.170113E+06 -1.056206E+05 -1.864515E+05  1.212802E+04 -2.128777E-10  9.727728E-09
       371  18 -1.154488E+06 -1.086813E+05 -1.529172E+05  4.648659E+02 -4.829835E-10 -1.414015E-09
       371  19 -1.560527E+05  1.355230E+04 -1.969491E+04 -1.761174E+04  9.637743E+04  5.452063E+03
       371  20 -1.726571E+05  1.418322E+05  5.338201E+04 -6.301665E+03  6.593808E+04  1.572860E+04
       371  21 -2.304077E+05  1.210121E+05  6.941113E+04  3.394602E+04  3.553559E+04  1.441658E+04
       371  22 -6.925929E+05 -1.200706E+05 -1.522254E+05  1.757515E+04  1.040688E+05  5.480101E+03
       371  23 -6.714966E+05  1.811549E+04 -6.652105E+04  2.917432E+03  6.809634E+04  1.573739E+04
       371  24 -6.925453E+05  6.172924E+03 -4.174454E+04  1.719943E+04  3.215856E+04  1.440456E+04
       371  25 -1.228868E+06 -2.537102E+05 -2.847763E+05  5.273139E+04  1.117534E+05  5.509026E+03
       371  26 -1.170108E+06 -1.056190E+05 -1.864417E+05  1.212891E+04  7.025286E+04  1.574625E+04
       371  27 -1.154487E+06 -1.086808E+05 -1.529153E+05  4.651997E+02  2.878403E+04  1.439271E+04
       372   1 -2.758912E+05  8.844000E+04  6.437797E+04  1.513147E+04 -2.572261E+04 -1.185892E+04
       372   2 -3.115740E+05  9.390609E+04  7.180794E+04  2.740593E+03 -1.729980E+04 -1.124620E+04
       372   3 -3.525080E+05  8.322799E+04  6.969365E+04  2.037044E+04 -8.882207E+03 -9.698642E+03
       372   4 -6.843621E+05 -1.296774E+04 -3.411170E+04  1.759613E+04 -2.565638E+04 -1.185933E+04
       372   5 -6.816892E+05  2.030104E+03 -1.727692E+04  2.559334E+03 -1.679029E+04 -1.124469E+04
       372   6 -6.843503E+05  8.009956E+02 -1.029921E+04  1.754459E+04 -7.928888E+03 -9.695016E+03
       372   7 -1.092680E+06 -1.143876E+05 -1.326133E+05  2.005903E+04 -2.559020E+04 -1.185975E+04
       372   8 -1.051679E+06 -8.985587E+04 -1.063716E+05  2.378062E+03 -1.628107E+04 -1.124317E+04
       372   9 -1.016092E+06 -8.163402E+04 -9.029993E+04  1.472015E+04 -6.976076E+03 -9.691398E+03
       372  10 -2.758920E+05  8.843967E+04  6.437646E+04  1.513122E+04 -1.754739E-09 -2.592262E-09
       372  11 -3.115744E+05  9.390587E+04  7.180714E+04  2.740436E+03 -4.154523E-09  4.935669E-09
       372  12 -3.525082E+05  8.322786E+04  6.969332E+04  2.037037E+04 -1.057307E-09  1.195632E-08
       372  13 -6.843628E+05 -1.296807E+04 -3.411321E+04  1.759589E+04  1.429156E-09  1.035150E-08
       372  14 -6.816895E+05  2.029893E+03 -1.727769E+04  2.559181E+03 -8.262575E-10 -2.503213E-08
       372  15 -6.843504E+05  8.008778E+02 -1.029950E+04  1.754453E+04  4.269112E-10  1.022256E-08
       372  16 -1.092681E+06 -1.143880E+05 -1.326148E+05  2.005879E+04  1.657964E-09 -1.063768E-08
       372  17 -1.051679E+06 -8.985608E+04 -1.063723E+05  2.377914E+03  3.863579E-09 -7.218633E-09
       372  18 -1.016092E+06 -8.163413E+04 -9.030020E+04  1.472009E+04  1.117178E-09 -1.287717E-09
       372  19 -2.758912E+05  8.844000E+04  6.437797E+04  1.513147E+04  2.572261E+04  1.185892E+04
       372  20 -3.115740E+05  9.390609E+04  7.180794E+04  2.740593E+03  1.729980E+04  1.124620E+04
       372  21 -3.525080E+05  8.322799E+04  6.969365E+04  2.037044E+04  8.882207E+03  9.698642E+03
       372  22 -6.843621E+05 -1.296774E+04 -3.411170E+04  1.759613E+04  2.565638E+04  1.185933E+04
       372  23 -6.816892E+05  2.030104E+03 -1.727692E+04  2.559334E+03  1.679029E+04  1.124469E+04
       372  24 -6.843503E+05  8.009956E+02 -1.029921E+04  1.754459E+04  7.928888E+03  9.695016E+03
       372  25 -1.092680E+06 -1.143876E+05 -1.326133E+05  2.005903E+04  2.559020E+04  1.185975E+04
       372  26 -1.051679E+06 -8.985587E+04 -1.063716E+05  2.378062E+03  1.628107E+04  1.124317E+04
       372  27 -1.016092E+06 -8.163402E+04 -9.029993E+04  1.472015E+04  6.976076E+03  9.691398E+03
       373   1 -4.068773E+05  6.736514E+04  5.838158E+04  1.831634E+04 -7.001185E+03 -8.658917E+03
       373   2 -4.456446E+05  5.916055E+04  5.270467E+04  3.085429E+03 -4.832134E+03 -7.164935E+03
       373   3 -4.853399E+05  4.943638E+04  4.517825E+04  1.861868E+04 -2.664362E+03 -5.585753E+03
       373   4 -6.833644E+05 -1.259869E+03 -8.085140E+03  1.773041E+04 -6.307467E+03 -8.656229E+03
       373   5 -6.828939E+05  2.543265E+02 -4.412694E+03  2.344650E+03 -4.098450E+03 -7.161900E+03
       373   6 -6.833597E+05  2.417715E+02 -2.617964E+03  1.772380E+04 -1.890576E+03 -5.582352E+03
       373   7 -9.597815E+05 -6.989045E+04 -7.455730E+04  1.714466E+04 -5.614056E+03 -8.653542E+03
       373   8 -9.200917E+05 -5.865601E+04 -6.153408E+04  1.604099E+03 -3.365045E+03 -7.158866E+03
       373   9 -8.813437E+05 -4.895570E+04 -5.041699E+04  1.682915E+04 -1.117036E+03 -5.578953E+03
       373  10 -4.068773E+05  6.736505E+04  5.838135E+04  1.831629E+04  7.238435E-09 -4.455717E-09
       373  11 -4.456446E+05  5.916049E+04  5.270453E+04  3.085402E+03  1.468333E-09 -8.703460E-09
       373  12 -4.853399E+05  4.943634E+04  4.517818E+04  1.861867E+04 -1.676826E-09 -4.660094E-09
       373  13 -6.833645E+05 -1.259960E+03 -8.085356E+03  1.773036E+04  1.710524E-09 -4.193760E-09
       373  14 -6.828940E+05  2.542669E+02 -4.412821E+03  2.344627E+03 -3.680063E-09 -7.767499E-09
       373  15 -6.833598E+05  2.417371E+02 -2.618030E+03  1.772379E+04  6.183776E-10 -5.647569E-09
       373  16 -9.597815E+05 -6.989054E+04 -7.455750E+04  1.714462E+04 -9.282417E-09 -1.056996E-08
       373  17 -9.200918E+05 -5.865606E+04 -6.153419E+04  1.604080E+03 -1.995552E-09  9.839356E-09
       373  18 -8.813437E+05 -4.895574E+04 -5.041705E+04  1.682915E+04  1.234199E-09  1.233396E-08
       373  19 -4.068773E+05  6.736514E+04  5.838158E+04  1.831634E+04  7.001185E+03  8.658917E+03
       373  20 -4.456446E+05  5.916055E+04  5.270467E+04  3.085429E+03  4.832134E+03  7.164935E+03
       373  21 -4.853399E+05  4.943638E+04  4.517825E+04  1.861868E+04  2.664362E+03  5.585753E+03
       373  22 -6.833644E+05 -1.259869E+03 -8.085140E+03  1.773041E+04  6.307467E+03  8.656229E+03
       373  23 -6.828939E+05  2.543265E+02 -4.412694E+03  2.344650E+03  4.098450E+03  7.161900E+03
       373  24 -6.833597E+05  2.417715E+02 -2.617964E+03  1.772380E+04  1.890576E+03  5.582352E+03
       373  25 -9.597815E+05 -6.989045E+04 -7.455730E+04  1.714466E+04  5.614056E+03  8.653542E+03
       373  26 -9.200917E+05 -5.865601E+04 -6.153408E+04  1.604099E+03  3.365045E+03  7.158866E+03
       373  27 -8.813437E+05 -4.895570E+04 -5.041699E+04  1.682915E+04  1.117036E+03  5.578953E+03
       374   1 -5.416379E+05  3.516129E+04  3.191559E+04  1.829641E+04 -2.230413E+03 -4.653933E+03
       374   2 -5.811922E+05  2.535274E+04  2.325078E+04  2.592169E+03 -1.611628E+03 -3.073049E+03
       374   3 -6.211557E+05  1.562276E+04  1.412793E+04  1.806464E+04 -9.932902E+02 -1.481385E+03
       374   4 -6.832377E+05  2.500660E+01 -2.057675E+03  1.781786E+04 -1.475858E+03 -4.650526E+03
       374   5 -6.830311E+05  6.469753E+01 -1.269181E+03  2.228915E+03 -8.520516E+02 -3.069543E+03
       374   6 -6.832359E+05  1.821649E+02 -9.422060E+02  1.781700E+04 -2.286521E+02 -1.477773E+03
       374   7 -8.248191E+05 -3.511273E+04 -3.603236E+04  1.733939E+04 -7.214745E+02 -4.647121E+03
       374   8 -7.848604E+05 -2.522410E+04 -2.578988E+04  1.865711E+03 -9.259909E+01 -3.066037E+03
       374   9 -7.453127E+05 -1.525872E+04 -1.601262E+04  1.756938E+04  5.359098E+02 -1.474161E+03
       374  10 -5.416379E+05  3.516126E+04  3.191554E+04  1.829641E+04 -1.979456E-10 -9.183811E-09
       374  11 -5.811923E+05  2.535273E+04  2.325075E+04  2.592165E+03 -4.718293E-09  4.695579E-09
       374  12 -6.211557E+05  1.562276E+04  1.412793E+04  1.806464E+04 -7.377577E-09 -5.777429E-09
       374  13 -6.832377E+05  2.498280E+01 -2.057720E+03  1.781785E+04  1.364605E-09  1.774015E-09
       374  14 -6.830311E+05  6.468722E+01 -1.269200E+03  2.228913E+03 -1.708325E-09 -1.714279E-08
       374  15 -6.832359E+05  1.821625E+02 -9.422102E+02  1.781700E+04  1.925867E-09 -6.078557E-09
       374  16 -8.248191E+05 -3.511275E+04 -3.603240E+04  1.733939E+04 -1.602417E-09  4.806368E-09
       374  17 -7.848604E+05 -2.522411E+04 -2.578989E+04  1.865711E+03  4.703612E-09  1.822431E-08
       374  18 -7.453127E+05 -1.525872E+04 -1.601263E+04  1.756938E+04  6.763021E-09  2.881742E-11
       374  19 -5.416379E+05  3.516129E+04  3.191559E+04  1.829641E+04  2.230413E+03  4.653933E+03
       374  20 -5.811922E+05  2.535274E+04  2.325078E+04  2.592169E+03  1.611628E+03  3.073049E+03
       374  21 -6.211557E+05  1.562276E+04  1.412793E+04  1.806464E+04  9.932902E+02  1.481385E+03
       374  22 -6.832377E+05  2.500660E+01 -2.057675E+03  1.781786E+04  1.475858E+03  4.650526E+03
       374  23 -6.830311E+05  6.469753E+01 -1.269181E+03  2.228915E+03  8.520516E+02  3.069543E+03
       374  24 -6.832359E+05  1.821649E+02 -9.422060E+02  1.781700E+04  2.286521E+02  1.477773E+03
       374  25 -8.248191E+05 -3.511273E+04 -3.603236E+04  1.733939E+04  7.214745E+02  4.647121E+03
       374  26 -7.848604E+05 -2.522410E+04 -2.578988E+04  1.865711E+03  9.259909E+01  3.066037E+03
       374  27 -7.453127E+05 -1.525872E+04 -1.601262E+04  1.756938E+04 -5.359098E+02  1.474161E+03
       375   1 -6.780191E+05  1.443795E+03  2.418064E+02  1.783940E+04 -8.325954E+02 -5.520119E+02
       375   2 -7.176830E+05 -8.545624E+03 -9.326291E+03  2.081206E+03 -3.483493E+02  1.041546E+03
       375   3 -7.577391E+05 -1.839460E+04 -1.925295E+04  1.758280E+04  1.360105E+02  2.628609E+03
       375   4 -6.832309E+05  1.741694E+02 -8.908589E+02  1.783545E+04 -6.788263E+01 -5.483808E+02
       375   5 -6.830343E+05  5.884334E+01 -9.832103E+02  2.205830E+03  4.132383E+02  1.045132E+03
       375   6 -6.832315E+05  8.447398E+01 -1.431996E+03  1.783588E+04  8.945041E+02  2.632157E+03
       375   7 -6.884426E+05 -1.095457E+03 -2.023524E+03  1.783150E+04  6.968238E+02 -5.447497E+02
       375   8 -6.483846E+05  8.663223E+03  7.359787E+03  2.330459E+03  1.174868E+03  1.048719E+03
       375   9 -6.087189E+05  1.856314E+04  1.638857E+04  1.808899E+04  1.653089E+03  2.635705E+03
       375  10 -6.780191E+05  1.443794E+03  2.418046E+02  1.783940E+04 -4.479992E-09 -2.703677E-09
       375  11 -7.176830E+05 -8.545625E+03 -9.326293E+03  2.081206E+03 -3.821963E-09 -4.703023E-09
       375  12 -7.577391E+05 -1.839460E+04 -1.925297E+04  1.758280E+04 -7.344059E-09  2.415559E-09
       375  13 -6.832309E+05  1.741690E+02 -8.908595E+02  1.783545E+04  2.574881E-09  5.832847E-09
       375  14 -6.830343E+05  5.884212E+01 -9.832127E+02  2.205829E+03 -2.765162E-09 -8.368125E-09
       375  15 -6.832315E+05  8.446633E+01 -1.432011E+03  1.783588E+04  1.678654E-09 -2.606135E-09
       375  16 -6.884426E+05 -1.095458E+03 -2.023525E+03  1.783150E+04  3.018543E-09 -1.306551E-09
       375  17 -6.483846E+05  8.663221E+03  7.359782E+03  2.330458E+03  5.155601E-09 -2.038487E-08
       375  18 -6.087189E+05  1.856313E+04  1.638855E+04  1.808898E+04  7.985178E-09 -1.172693E-08
       375  19 -6.780191E+05  1.443795E+03  2.418064E+02  1.783940E+04  8.325954E+02  5.520119E+02
       375  20 -7.176830E+05 -8.545624E+03 -9.326291E+03  2.081206E+03  3.483493E+02 -1.041546E+03
       375  21 -7.577391E+05 -1.839460E+04 -1.925295E+04  1.758280E+04 -1.360105E+02 -2.628609E+03
       375  22 -6.832309E+05  1.741694E+02 -8.908589E+02  1.783545E+04  6.788263E+01  5.483808E+02
       375  23 -6.830343E+05  5.884334E+01 -9.832103E+02  2.205830E+03 -4.132383E+02 -1.045132E+03
       375  24 -6.832315E+05  8.447398E+01 -1.431996E+03  1.783588E+04 -8.945041E+02 -2.632157E+03
       375  25 -6.884426E+05 -1.095457E+03 -2.023524E+03  1.783150E+04 -6.968238E+02  5.447497E+02
       375  26 -6.483846E+05  8.663223E+03  7.359787E+03  2.330459E+03 -1.174868E+03 -1.048719E+03
       375  27 -6.087189E+05  1.856314E+04  1.638857E+04  1.808899E+04 -1.653089E+03 -2.635705E+03
       376   1 -8.145226E+05 -3.238771E+04 -3.349476E+04  1.717611E+04  4.018551E+02  3.563675E+03
       376   2 -8.536922E+05 -4.222348E+04 -4.403341E+04  1.721539E+03  1.893276E+03  5.151610E+03
       376   3 -8.935964E+05 -5.296058E+04 -5.583725E+04  1.727277E+04  3.385542E+03  6.666066E+03
       376   4 -6.833094E+05  2.248351E+02 -1.776096E+03  1.777768E+04  1.177766E+03  3.567247E+03
       376   5 -6.829464E+05  1.813603E+02 -2.916652E+03  2.277302E+03  2.634300E+03  5.154885E+03
       376   6 -6.833127E+05 -7.569096E+02 -5.297614E+03  1.778220E+04  4.091775E+03  6.669060E+03
       376   7 -5.520804E+05  3.283612E+04  2.994133E+04  1.837936E+04  1.953841E+03  3.570820E+03
       376   8 -5.121740E+05  4.258407E+04  3.819803E+04  2.833189E+03  3.375528E+03  5.158162E+03
       376   9 -4.729884E+05  5.144354E+04  4.523888E+04  1.829176E+04  4.798245E+03  6.672054E+03
       376  10 -8.145226E+05 -3.238772E+04 -3.349478E+04  1.717611E+04 -4.699132E-09  6.008910E-09
       376  11 -8.536922E+05 -4.222351E+04 -4.403347E+04  1.721531E+03 -1.889078E-09 -7.885829E-09
       376  12 -8.935965E+05 -5.296063E+04 -5.583736E+04  1.727275E+04 -3.337348E-09 -1.229204E-09
       376  13 -6.833094E+05  2.248211E+02 -1.776123E+03  1.777768E+04  8.907911E-10 -1.652234E-09
       376  14 -6.829464E+05  1.813299E+02 -2.916715E+03  2.277291E+03 -3.490336E-09  6.489040E-09
       376  15 -6.833127E+05 -7.569618E+02 -5.297729E+03  1.778218E+04  4.108230E-10  5.634725E-09
       376  16 -5.520804E+05  3.283610E+04  2.994130E+04  1.837935E+04  1.975739E-09  1.145931E-08
       376  17 -5.121740E+05  4.258404E+04  3.819796E+04  2.833175E+03  3.735126E-09 -1.758788E-09
       376  18 -4.729885E+05  5.144348E+04  4.523875E+04  1.829174E+04  2.394350E-09  1.411546E-08
       376  19 -8.145226E+05 -3.238771E+04 -3.349476E+04  1.717611E+04 -4.018551E+02 -3.563675E+03
       376  20 -8.536922E+05 -4.222348E+04 -4.403341E+04  1.721539E+03 -1.893276E+03 -5.151610E+03
       376  21 -8.935964E+05 -5.296058E+04 -5.583725E+04  1.727277E+04 -3.385542E+03 -6.666066E+03
       376  22 -6.833094E+05  2.248351E+02 -1.776096E+03  1.777768E+04 -1.177766E+03 -3.567247E+03
       376  23 -6.829464E+05  1.813603E+02 -2.916652E+03  2.277302E+03 -2.634300E+03 -5.154885E+03
       376  24 -6.833127E+05 -7.569096E+02 -5.297614E+03  1.778220E+04 -4.091775E+03 -6.669060E+03
       376  25 -5.520804E+05  3.283612E+04  2.994133E+04  1.837936E+04 -1.953841E+03 -3.570820E+03
       376  26 -5.121740E+05  4.258407E+04  3.819803E+04  2.833189E+03 -3.375528E+03 -5.158162E+03
       376  27 -4.729884E+05  5.144354E+04  4.523888E+04  1.829176E+04 -4.798245E+03 -6.672054E+03
       377   1 -9.501639E+05 -6.556297E+04 -7.095390E+04  1.559605E+04  4.214158E+03  7.697632E+03
       377   2 -9.871482E+05 -7.440297E+04 -8.471866E+04  2.078685E+03  1.039330E+04  9.260885E+03
       377   3 -1.027779E+06 -9.380269E+04 -1.051947E+05  1.898972E+04  1.657635E+04  9.994187E+03
       377   4 -6.839525E+05  5.887620E+02 -6.735754E+03  1.763937E+04  5.151347E+03  7.701513E+03
       377   5 -6.821685E+05  1.336598E+03 -1.128212E+04  2.443779E+03  1.093514E+04  9.262830E+03
       377   6 -6.839613E+05 -8.403427E+03 -2.226239E+04  1.767576E+04  1.672322E+04  9.994347E+03
       377   7 -4.176761E+05  6.673533E+04  5.747732E+04  1.968350E+04  6.088937E+03  7.705399E+03
       377   8 -3.771035E+05  7.706938E+04  6.214778E+04  2.808965E+03  1.147725E+04  9.264775E+03
       377   9 -3.400354E+05  7.698721E+04  6.066147E+04  1.636096E+04  1.687017E+04  9.994506E+03
       377  10 -9.501639E+05 -6.556304E+04 -7.095404E+04  1.559602E+04  9.964237E-10  3.204033E-10
       377  11 -9.871484E+05 -7.440309E+04 -8.471903E+04  2.078607E+03 -4.994485E-09  1.102116E-08
       377  12 -1.027779E+06 -9.380287E+04 -1.051954E+05  1.898959E+04 -8.506495E-10 -1.050506E-08
       377  13 -6.839525E+05  5.886912E+02 -6.735915E+03  1.763934E+04  2.291724E-09 -9.762595E-09
       377  14 -6.821686E+05  1.336474E+03 -1.128251E+04  2.443697E+03 -4.342441E-09  8.946375E-09
       377  15 -6.839616E+05 -8.403610E+03 -2.226310E+04  1.767563E+04  1.122631E-09 -8.738685E-10
       377  16 -4.176762E+05  6.673525E+04  5.747714E+04  1.968346E+04 -2.552951E-09  1.222816E-10
       377  17 -3.771036E+05  7.706925E+04  6.214737E+04  2.808880E+03  3.257543E-09 -1.291848E-08
       377  18 -3.400358E+05  7.698702E+04  6.066074E+04  1.636083E+04  1.369263E-09  5.331163E-09
       377  19 -9.501639E+05 -6.556297E+04 -7.095390E+04  1.559605E+04 -4.214158E+03 -7.697632E+03
       377  20 -9.871482E+05 -7.440297E+04 -8.471866E+04  2.078685E+03 -1.039330E+04 -9.260885E+03
       377  21 -1.027779E+06 -9.380269E+04 -1.051947E+05  1.898972E+04 -1.657635E+04 -9.994187E+03
       377  22 -6.839525E+05  5.887620E+02 -6.735754E+03  1.763937E+04 -5.151347E+03 -7.701513E+03
       377  23 -6.821685E+05  1.336598E+03 -1.128212E+04  2.443779E+03 -1.093514E+04 -9.262830E+03
       377  24 -6.839613E+05 -8.403427E+03 -2.226239E+04  1.767576E+04 -1.672322E+04 -9.994347E+03
       377  25 -4.176761E+05  6.673533E+04  5.747732E+04  1.968350E+04 -6.088937E+03 -7.705399E+03
       377  26 -3.771035E+05  7.706938E+04  6.214778E+04  2.808965E+03 -1.147725E+04 -9.264775E+03
       377  27 -3.400354E+05  7.698721E+04  6.066147E+04  1.636096E+04 -1.687017E+04 -9.994506E+03
       378   1 -1.087651E+06 -9.493808E+04 -1.231110E+05  6.074968E+03  1.787162E+04  1.235621E+04
       378   2 -1.111290E+06 -9.632106E+04 -1.482085E+05  8.376982E+03  4.624804E+04  1.373700E+04
       378   3 -1.163354E+06 -1.964491E+05 -2.164981E+05  4.015074E+04  7.465700E+04  4.805730E+03
       378   4 -6.892935E+05  4.085999E+03 -2.723934E+04  1.734971E+04  2.096292E+04  1.236786E+04
       378   5 -6.755351E+05  1.182428E+04 -4.340965E+04  2.752718E+03  4.441058E+04  1.372933E+04
       378   6 -6.893271E+05 -7.828952E+04 -9.932537E+04  1.762783E+04  6.789283E+04  4.780399E+03
       378   7 -2.907901E+05  1.030989E+05  6.862110E+04  2.863159E+04  2.405619E+04  1.237961E+04
       378   8 -2.396061E+05  1.199559E+05  6.137574E+04 -2.875668E+03  4.257182E+04  1.372170E+04
       378   9 -2.150943E+05  3.985531E+04  1.783114E+04 -4.912501E+03  6.112347E+04  4.755570E+03
       378  10 -1.087652E+06 -9.493833E+04 -1.231119E+05  6.074790E+03  1.138493E-08 -1.076878E-08
       378  11 -1.111292E+06 -9.632184E+04 -1.482129E+05  8.376470E+03  6.619286E-09 -5.545609E-09
       378  12 -1.163360E+06 -1.964506E+05 -2.165086E+05  4.015046E+04 -2.174872E-10  7.059889E-09
       378  13 -6.892940E+05  4.085717E+03 -2.724045E+04  1.734950E+04  2.030223E-09  2.120982E-09
       378  14 -6.755373E+05  1.182355E+04 -4.341372E+04  2.752227E+03 -1.362755E-09  4.120516E-09
       378  15 -6.893321E+05 -7.829078E+04 -9.933408E+04  1.762757E+04 -1.484111E-10  5.140208E-09
       378  16 -2.907907E+05  1.030986E+05  6.861972E+04  2.863135E+04 -1.264385E-08  7.920103E-09
       378  17 -2.396081E+05  1.199552E+05  6.137197E+04 -2.876139E+03 -6.381233E-09  1.193047E-08
       378  18 -2.150983E+05  3.985428E+04  1.782407E+04 -4.912735E+03 -4.448541E-10  1.420396E-10
       378  19 -1.087651E+06 -9.493808E+04 -1.231110E+05  6.074968E+03 -1.787162E+04 -1.235621E+04
       378  20 -1.111290E+06 -9.632106E+04 -1.482085E+05  8.376982E+03 -4.624804E+04 -1.373700E+04
       378  21 -1.163354E+06 -1.964491E+05 -2.164981E+05  4.015074E+04 -7.465700E+04 -4.805730E+03
       378  22 -6.892935E+05  4.085999E+03 -2.723934E+04  1.734971E+04 -2.096292E+04 -1.236786E+04
       378  23 -6.755351E+05  1.182428E+04 -4.340965E+04  2.752718E+03 -4.441058E+04 -1.372933E+04
       378  24 -6.893271E+05 -7.828952E+04 -9.932537E+04  1.762783E+04 -6.789283E+04 -4.780399E+03
       378  25 -2.907901E+05  1.030989E+05  6.862110E+04  2.863159E+04 -2.405619E+04 -1.237961E+04
       378  26 -2.396061E+05  1.199559E+05  6.137574E+04 -2.875668E+03 -4.257182E+04 -1.372170E+04
       378  27 -2.150943E+05  3.985531E+04  1.783114E+04 -4.912501E+03 -6.112347E+04 -4.755570E+03
       379   1 -1.628693E+05 -6.244689E+05 -1.567346E+05  1.595688E+05 -6.426434E+03 -5.234172E+04
       379   2 -1.145108E+05 -4.899073E+05 -9.695244E+04  1.414332E+05 -2.009684E+04 -2.187244E+04
       379   3 -7.895360E+04 -3.623187E+05 -6.020929E+04  1.484620E+05 -1.992463E+04  8.642627E+03
       379   4 -1.660809E+04 -3.337539E+04 -1.708552E+04  1.483190E+05 -6.522657E+03 -1.298437E+04
       379   5 -5.045165E+03 -3.216862E+04 -7.662033E+03  1.357551E+05 -2.012638E+04 -9.066137E+03
       379   6 -1.665500E+03 -3.333582E+04 -2.824792E+03  1.483558E+05 -1.989162E+04 -5.109456E+03
       379   7  1.296293E+05  5.580432E+05  1.225453E+05  1.370587E+05 -6.620264E+03  2.641029E+04
       379   8  1.044081E+05  4.257716E+05  8.161901E+04  1.300728E+05 -2.015613E+04  3.749409E+03
       379   9  7.561683E+04  2.957535E+05  5.455658E+04  1.482495E+05 -1.985862E+04 -1.886861E+04
       379  10 -1.628701E+05 -6.244719E+05 -1.567398E+05  1.595685E+05  4.631402E-10  7.845632E-09
       379  11 -1.145114E+05 -4.899079E+05 -9.695409E+04  1.414328E+05  6.035065E-10  4.139316E-09
       379  12 -7.895404E+04 -3.623189E+05 -6.021018E+04  1.484621E+05  1.680015E-09 -3.572640E-09
       379  13 -1.660818E+04 -3.337558E+04 -1.708592E+04  1.483190E+05  1.561348E-09 -1.069519E-09
       379  14 -5.045622E+03 -3.216882E+04 -7.662948E+03  1.357550E+05 -2.004874E-09 -6.797508E-09
       379  15 -1.665931E+03 -3.333595E+04 -2.825585E+03  1.483557E+05  4.521587E-10  3.219540E-09
       379  16  1.296291E+05  5.580424E+05  1.225439E+05  1.370588E+05  4.665862E-10 -1.048418E-09
       379  17  1.044077E+05  4.257714E+05  8.161822E+04  1.300729E+05 -1.244571E-09 -1.460070E-08
       379  18  7.561631E+04  2.957531E+05  5.455518E+04  1.482492E+05 -2.687765E-09 -6.025616E-11
       379  19 -1.628693E+05 -6.244689E+05 -1.567346E+05  1.595688E+05  6.426434E+03  5.234172E+04
       379  20 -1.145108E+05 -4.899073E+05 -9.695244E+04  1.414332E+05  2.009684E+04  2.187244E+04
       379  21 -7.895360E+04 -3.623187E+05 -6.020929E+04  1.484620E+05  1.992463E+04 -8.642627E+03
       379  22 -1.660809E+04 -3.337539E+04 -1.708552E+04  1.483190E+05  6.522657E+03  1.298437E+04
       379  23 -5.045165E+03 -3.216862E+04 -7.662033E+03  1.357551E+05  2.012638E+04  9.066137E+03
       379  24 -1.665500E+03 -3.333582E+04 -2.824792E+03  1.483558E+05  1.989162E+04  5.109456E+03
       379  25  1.296293E+05  5.580432E+05  1.225453E+05  1.370587E+05  6.620264E+03 -2.641029E+04
       379  26  1.044081E+05  4.257716E+05  8.161901E+04  1.300728E+05  2.015613E+04 -3.749409E+03
       379  27  7.561683E+04  2.957535E+05  5.455658E+04  1.482495E+05  1.985862E+04  1.886861E+04
       380   1 -5.899270E+04 -2.775209E+05 -4.315643E+04  1.491711E+05 -1.528699E+04  8.246071E+03
       380   2 -2.677746E+04 -1.466478E+05 -1.562452E+04  1.362670E+05 -8.188944E+03  7.986186E+03
       380   3  5.871743E+03 -1.544343E+04  1.222921E+04  1.494389E+05 -5.603542E+02  7.727038E+03
       380   4 -1.588166E+03 -3.268997E+04 -1.021811E+03  1.485533E+05 -1.525623E+04 -4.868565E+03
       380   5 -3.840463E+02 -3.293086E+04  2.595226E+03  1.355190E+05 -8.156355E+03 -6.148063E+03
       380   6  1.431980E+03 -3.267988E+04  7.242549E+03  1.485604E+05 -5.260067E+02 -7.426778E+03
       380   7  5.581324E+04  2.122002E+05  4.111141E+04  1.479353E+05 -1.522546E+04 -1.798821E+04
       380   8  2.600883E+04  8.079933E+04  2.081538E+04  1.347709E+05 -8.123736E+03 -2.028481E+04
       380   9 -3.007682E+03 -4.991558E+04  2.256728E+03  1.476819E+05 -4.916158E+02 -2.258017E+04
       380  10 -5.899296E+04 -2.775211E+05 -4.315699E+04  1.491712E+05  2.832815E-09 -6.267325E-08
       380  11 -2.677755E+04 -1.466478E+05 -1.562476E+04  1.362670E+05  2.467265E-09  2.480751E-08
       380  12  5.871727E+03 -1.544349E+04  1.222909E+04  1.494389E+05  2.786216E-10  1.069317E-07
       380  13 -1.588422E+03 -3.269006E+04 -1.022293E+03  1.485533E+05  2.204135E-09 -1.104593E-09
       380  14 -3.841278E+02 -3.293092E+04  2.595030E+03  1.355190E+05  4.587323E-09 -5.502106E-09
       380  15  1.431965E+03 -3.267994E+04  7.242444E+03  1.485604E+05  2.589120E-09  2.612551E-09
       380  16  5.581291E+04  2.121998E+05  4.111037E+04  1.479351E+05 -9.788804E-11  6.895490E-08
       380  17  2.600864E+04  8.079887E+04  2.081448E+04  1.347708E+05  4.436165E-09 -3.311008E-08
       380  18 -3.007819E+03 -4.991613E+04  2.255769E+03  1.476819E+05 -6.448325E-10 -1.050028E-07
       380  19 -5.899270E+04 -2.775209E+05 -4.315643E+04  1.491711E+05  1.528699E+04 -8.246071E+03
       380  20 -2.677746E+04 -1.466478E+05 -1.562452E+04  1.362670E+05  8.188944E+03 -7.986186E+03
       380  21  5.871743E+03 -1.544343E+04  1.222921E+04  1.494389E+05  5.603542E+02 -7.727038E+03
       380  22 -1.588166E+03 -3.268997E+04 -1.021811E+03  1.485533E+05  1.525623E+04  4.868565E+03
       380  23 -3.840463E+02 -3.293086E+04  2.595226E+03  1.355190E+05  8.156355E+03  6.148063E+03
       380  24  1.431980E+03 -3.267988E+04  7.242549E+03  1.485604E+05  5.260067E+02  7.426778E+03
       380  25  5.581324E+04  2.122002E+05  4.111141E+04  1.479353E+05  1.522546E+04  1.798821E+04
       380  26  2.600883E+04  8.079933E+04  2.081538E+04  1.347709E+05  8.123736E+03  2.028481E+04
       380  27 -3.007682E+03 -4.991558E+04  2.256728E+03  1.476819E+05  4.916158E+02  2.258017E+04
       381   1  2.576991E+04  6.975708E+04  2.989399E+04  1.472618E+05  4.484321E+03  6.836513E+03
       381   2  6.520295E+04  1.963153E+05  6.726886E+04  1.469266E+05  8.243793E+03 -2.018223E+04
       381   3  1.267820E+05  3.321116E+05  1.278058E+05  1.721898E+05  3.232903E+03 -4.722962E+04
       381   4  1.602413E+03 -3.138998E+04  1.023149E+04  1.484440E+05  4.519669E+03 -8.683036E+03
       381   5  9.608880E+03 -3.455189E+04  1.981944E+04  1.356880E+05  8.241336E+03 -1.885771E+04
       381   6  3.684348E+04 -3.140903E+04  4.087752E+04  1.485287E+05  3.192224E+03 -2.905536E+04
       381   7 -2.256556E+04 -1.325267E+05 -9.430581E+03  1.496260E+05  4.554961E+03 -2.420011E+04
       381   8 -4.598806E+04 -2.653682E+05 -2.763275E+04  1.244538E+05  8.238831E+03 -1.753366E+04
       381   9 -5.310229E+04 -3.948066E+05 -4.605856E+04  1.248816E+05  3.150150E+03 -1.089169E+04
       381  10  2.576987E+04  6.975702E+04  2.989386E+04  1.472618E+05  1.308707E-09 -3.600709E-08
       381  11  6.520277E+04  1.963148E+05  6.726796E+04  1.469267E+05  1.812479E-09 -1.207016E-08
       381  12  1.267814E+05  3.321092E+05  1.278016E+05  1.721899E+05  5.493538E-10  1.175794E-08
       381  13  1.602370E+03 -3.139007E+04  1.023131E+04  1.484440E+05 -2.230147E-09  1.106825E-09
       381  14  9.608712E+03 -3.455229E+04  1.981865E+04  1.356882E+05  3.691472E-09 -4.956625E-09
       381  15  3.684325E+04 -3.140994E+04  4.087592E+04  1.485288E+05  5.385210E-10  4.728586E-09
       381  16 -2.256574E+04 -1.325273E+05 -9.431720E+03  1.496261E+05 -1.975737E-09  4.396104E-08
       381  17 -4.598822E+04 -2.653685E+05 -2.763345E+04  1.244539E+05  2.788642E-09  3.842865E-09
       381  18 -5.310233E+04 -3.948068E+05 -4.605881E+04  1.248816E+05  7.785010E-10 -1.292249E-08
       381  19  2.576991E+04  6.975708E+04  2.989399E+04  1.472618E+05 -4.484321E+03 -6.836513E+03
       381  20  6.520295E+04  1.963153E+05  6.726886E+04  1.469266E+05 -8.243793E+03  2.018223E+04
       381  21  1.267820E+05  3.321116E+05  1.278058E+05  1.721898E+05 -3.232903E+03  4.722962E+04
       381  22  1.602413E+03 -3.138998E+04  1.023149E+04  1.484440E+05 -4.519669E+03  8.683036E+03
       381  23  9.608880E+03 -3.455189E+04  1.981944E+04  1.356880E+05 -8.241336E+03  1.885771E+04
       381  24  3.684348E+04 -3.140903E+04  4.087752E+04  1.485287E+05 -3.192224E+03  2.905536E+04
       381  25 -2.256556E+04 -1.325267E+05 -9.430581E+03  1.496260E+05 -4.554961E+03  2.420011E+04
       381  26 -4.598806E+04 -2.653682E+05 -2.763275E+04  1.244538E+05 -8.238831E+03  1.753366E+04
       381  27 -5.310229E+04 -3.948066E+05 -4.605856E+04  1.248816E+05 -3.150150E+03  1.089169E+04
       382   1  1.136575E+06  4.105178E+05  2.750371E+05  3.935022E+05  1.141712E+05  3.868411E+04
       382   2  1.094033E+06  2.338749E+05  1.660153E+05  3.991047E+05  7.465476E+04  1.483503E+04
       382   3  1.098964E+06  2.299209E+05  1.312921E+05  3.836529E+05  3.177143E+04 -1.085736E+02
       382   4  7.715402E+05  2.374237E+05  1.687876E+05  2.577969E+05  1.086180E+05  3.657542E+04
       382   5  7.394341E+05  9.012702E+04  7.021085E+04  2.915429E+05  7.313100E+04  1.425625E+04
       382   6  7.540364E+05  1.147740E+05  4.277443E+04  3.042258E+05  3.427486E+04  8.402868E+02
       382   7  4.066393E+05  6.436266E+04  6.252610E+04  1.221721E+05  1.030684E+05  3.446888E+04
       382   8  3.849573E+05 -5.360739E+04 -2.560465E+04  1.840386E+05  7.160819E+04  1.367788E+04
       382   9  4.092225E+05 -3.719121E+02 -4.575304E+04  2.248352E+05  3.677676E+04  1.788723E+03
       382  10  1.136561E+06  4.105127E+05  2.750098E+05  3.934986E+05 -1.292458E-09  2.338512E-09
       382  11  1.094027E+06  2.338732E+05  1.660045E+05  3.991038E+05 -2.109182E-09  5.520012E-09
       382  12  1.098963E+06  2.299207E+05  1.312902E+05  3.836529E+05 -1.601369E-09 -1.595450E-09
       382  13  7.715272E+05  2.374191E+05  1.687629E+05  2.577937E+05 -1.616650E-10 -6.238427E-09
       382  14  7.394283E+05  9.012536E+04  7.020043E+04  2.915421E+05 -1.154249E-09 -1.073654E-08
       382  15  7.540352E+05  1.147737E+05  4.277222E+04  3.042257E+05 -2.943186E-09  7.408515E-10
       382  16  4.066276E+05  6.435853E+04  6.250392E+04  1.221692E+05  5.804579E-10  4.412320E-09
       382  17  3.849518E+05 -5.360897E+04 -2.561463E+04  1.840378E+05 -7.311755E-10  1.059773E-08
       382  18  4.092210E+05 -3.722784E+02 -4.575559E+04  2.248351E+05  3.831276E-10  1.178988E-08
       382  19  1.136575E+06  4.105178E+05  2.750371E+05  3.935022E+05 -1.141712E+05 -3.868411E+04
       382  20  1.094033E+06  2.338749E+05  1.660153E+05  3.991047E+05 -7.465476E+04 -1.483503E+04
       382  21  1.098964E+06  2.299209E+05  1.312921E+05  3.836529E+05 -3.177143E+04  1.085736E+02
       382  22  7.715402E+05  2.374237E+05  1.687876E+05  2.577969E+05 -1.086180E+05 -3.657542E+04
       382  23  7.394341E+05  9.012702E+04  7.021085E+04  2.915429E+05 -7.313100E+04 -1.425625E+04
       382  24  7.540364E+05  1.147740E+05  4.277443E+04  3.042258E+05 -3.427486E+04 -8.402868E+02
       382  25  4.066393E+05  6.436266E+04  6.252610E+04  1.221721E+05 -1.030684E+05 -3.446888E+04
       382  26  3.849573E+05 -5.360739E+04 -2.560465E+04  1.840386E+05 -7.160819E+04 -1.367788E+04
       382  27  4.092225E+05 -3.719121E+02 -4.575304E+04  2.248352E+05 -3.677676E+04 -1.788723E+03
       383   1  1.037861E+06  2.453861E+05  1.124311E+05  3.770607E+05  2.739824E+04  4.957675E+02
       383   2  1.016344E+06  2.093859E+05  8.694116E+04  3.631281E+05  1.826853E+04 -2.528213E+03
       383   3  9.864772E+05  2.074859E+05  7.300743E+04  3.632451E+05  8.859326E+03 -4.815357E+03
       383   4  7.487012E+05  1.324052E+05  3.485258E+04  2.937504E+05  2.739612E+04  4.944513E+02
       383   5  7.519183E+05  1.084619E+05  1.659069E+04  2.893530E+05  1.860200E+04 -2.402065E+03
       383   6  7.467211E+05  1.185573E+05  9.623333E+03  2.990045E+05  9.527955E+03 -4.561833E+03
       383   7  4.596217E+05  1.943108E+04 -4.273329E+04  2.104755E+05  2.739400E+04  4.931344E+02
       383   8  4.875599E+05  7.542720E+03 -5.376576E+04  2.156063E+05  1.893532E+04 -2.275979E+03
       383   9  5.070209E+05  2.963193E+04 -5.376553E+04  2.347862E+05  1.019630E+04 -4.308412E+03
       383  10  1.037861E+06  2.453859E+05  1.124297E+05  3.770607E+05  2.349941E-09  3.566134E-09
       383  11  1.016344E+06  2.093858E+05  8.694052E+04  3.631281E+05  3.092252E-10  1.054045E-08
       383  12  9.864772E+05  2.074858E+05  7.300724E+04  3.632451E+05 -2.271442E-09  1.236827E-08
       383  13  7.487004E+05  1.324050E+05  3.485117E+04  2.937504E+05  4.910767E-10  3.708280E-09
       383  14  7.519179E+05  1.084618E+05  1.659003E+04  2.893530E+05 -2.309247E-09 -2.245938E-08
       383  15  7.467210E+05  1.185572E+05  9.623123E+03  2.990046E+05 -2.103733E-09  6.104011E-09
       383  16  4.596209E+05  1.943088E+04 -4.273470E+04  2.104755E+05 -2.893181E-09  8.818749E-09
       383  17  4.875595E+05  7.542618E+03 -5.376644E+04  2.156064E+05 -3.639335E-10  3.046851E-10
       383  18  5.070208E+05  2.963188E+04 -5.376576E+04  2.347862E+05 -3.120104E-09  1.518828E-08
       383  19  1.037861E+06  2.453861E+05  1.124311E+05  3.770607E+05 -2.739824E+04 -4.957675E+02
       383  20  1.016344E+06  2.093859E+05  8.694116E+04  3.631281E+05 -1.826853E+04  2.528213E+03
       383  21  9.864772E+05  2.074859E+05  7.300743E+04  3.632451E+05 -8.859326E+03  4.815357E+03
       383  22  7.487012E+05  1.324052E+05  3.485258E+04  2.937504E+05 -2.739612E+04 -4.944513E+02
       383  23  7.519183E+05  1.084619E+05  1.659069E+04  2.893530E+05 -1.860200E+04  2.402065E+03
       383  24  7.467211E+05  1.185573E+05  9.623333E+03  2.990045E+05 -9.527955E+03  4.561833E+03
       383  25  4.596217E+05  1.943108E+04 -4.273329E+04  2.104755E+05 -2.739400E+04 -4.931344E+02
       383  26  4.875599E+05  7.542720E+03 -5.376576E+04  2.156063E+05 -1.893532E+04  2.275979E+03
       383  27  5.070209E+05  2.963193E+04 -5.376553E+04  2.347862E+05 -1.019630E+04  4.308412E+03
       384   1  9.440418E+05  1.956187E+05  6.006236E+04  3.525748E+05  7.396135E+03 -4.504449E+03
       384   2  9.257966E+05  1.760737E+05  4.967960E+04  3.369110E+05  5.003800E+03 -4.226756E+03
       384   3  8.928622E+05  1.743120E+05  4.134133E+04  3.385617E+05  2.592191E+03 -3.899541E+03
       384   4  7.461141E+05  1.203953E+05  7.530909E+03  2.976649E+05  7.850200E+03 -4.332266E+03
       384   5  7.533521E+05  1.107413E+05  3.883575E+03  2.892983E+05  5.480808E+03 -4.045750E+03
       384   6  7.458963E+05  1.188669E+05  2.263245E+03  2.982464E+05  3.092051E+03 -3.709737E+03
       384   7  5.482236E+05  4.517424E+04 -4.500408E+04  2.427706E+05  8.304107E+03 -4.160144E+03
       384   8  5.809360E+05  4.541068E+04 -4.191510E+04  2.416975E+05  5.957670E+03 -3.864798E+03
       384   9  5.989512E+05  6.342311E+04 -3.681672E+04  2.579397E+05  3.591781E+03 -3.519981E+03
       384  10  9.440417E+05  1.956187E+05  6.006222E+04  3.525748E+05  2.387695E-09  4.434330E-09
       384  11  9.257965E+05  1.760737E+05  4.967952E+04  3.369110E+05 -1.110141E-10 -8.387613E-09
       384  12  8.928622E+05  1.743120E+05  4.134129E+04  3.385617E+05 -6.948536E-09 -1.169774E-08
       384  13  7.461140E+05  1.203953E+05  7.530758E+03  2.976649E+05 -1.188898E-09  7.588152E-09
       384  14  7.533520E+05  1.107413E+05  3.883487E+03  2.892984E+05  6.602582E-09 -5.990374E-09
       384  15  7.458963E+05  1.188669E+05  2.263201E+03  2.982464E+05  8.381399E-10 -2.146670E-09
       384  16  5.482235E+05  4.517421E+04 -4.500424E+04  2.427706E+05 -3.172631E-09  1.056894E-08
       384  17  5.809359E+05  4.541066E+04 -4.191519E+04  2.416975E+05  6.832598E-09  1.149805E-09
       384  18  5.989512E+05  6.342309E+04 -3.681677E+04  2.579397E+05  5.757367E-09  2.040848E-08
       384  19  9.440418E+05  1.956187E+05  6.006236E+04  3.525748E+05 -7.396135E+03  4.504449E+03
       384  20  9.257966E+05  1.760737E+05  4.967960E+04  3.369110E+05 -5.003800E+03  4.226756E+03
       384  21  8.928622E+05  1.743120E+05  4.134133E+04  3.385617E+05 -2.592191E+03  3.899541E+03
       384  22  7.461141E+05  1.203953E+05  7.530909E+03  2.976649E+05 -7.850200E+03  4.332266E+03
       384  23  7.533521E+05  1.107413E+05  3.883575E+03  2.892983E+05 -5.480808E+03  4.045750E+03
       384  24  7.458963E+05  1.188669E+05  2.263245E+03  2.982464E+05 -3.092051E+03  3.709737E+03
       384  25  5.482236E+05  4.517424E+04 -4.500408E+04  2.427706E+05 -8.304107E+03  4.160144E+03
       384  26  5.809360E+05  4.541068E+04 -4.191510E+04  2.416975E+05 -5.957670E+03  3.864798E+03
       384  27  5.989512E+05  6.342311E+04 -3.681672E+04  2.579397E+05 -3.591781E+03  3.519981E+03
       385   1  8.535686E+05  1.597885E+05  3.029338E+04  3.277690E+05  2.036433E+03 -3.382063E+03
       385   2  8.360843E+05  1.423732E+05  2.305004E+04  3.121831E+05  1.072920E+03 -2.525680E+03
       385   3  8.033589E+05  1.406326E+05  1.629099E+04  3.139164E+05  1.099554E+02 -1.671315E+03
       385   4  7.458634E+05  1.189957E+05  1.783821E+03  2.980222E+05  2.517430E+03 -3.199364E+03
       385   5  7.534747E+05  1.110888E+05  1.112385E+03  2.893894E+05  1.553109E+03 -2.343236E+03
       385   6  7.458442E+05  1.188569E+05  9.259927E+02  2.980756E+05  5.893096E+02 -1.489132E+03
       385   7  6.381696E+05  7.820383E+04 -2.672666E+04  2.682802E+05  2.998334E+03 -3.016700E+03
       385   8  6.708716E+05  7.980478E+04 -2.082586E+04  2.665983E+05  2.033228E+03 -2.160819E+03
       385   9  6.883326E+05  9.708131E+04 -1.443933E+04  2.822361E+05  1.068616E+03 -1.306967E+03
       385  10  8.535686E+05  1.597885E+05  3.029335E+04  3.277690E+05  1.792295E-09 -2.500343E-09
       385  11  8.360843E+05  1.423732E+05  2.305003E+04  3.121831E+05  4.493039E-09  1.295572E-09
       385  12  8.033589E+05  1.406326E+05  1.629098E+04  3.139164E+05  1.438057E-09 -1.700934E-09
       385  13  7.458634E+05  1.189957E+05  1.783790E+03  2.980223E+05  6.801831E-10  3.966918E-09
       385  14  7.534747E+05  1.110888E+05  1.112370E+03  2.893894E+05 -3.619076E-10 -6.417575E-09
       385  15  7.458442E+05  1.188569E+05  9.259879E+02  2.980756E+05 -3.570846E-10 -1.305464E-08
       385  16  6.381696E+05  7.820382E+04 -2.672669E+04  2.682802E+05 -7.392564E-09  1.526122E-08
       385  17  6.708716E+05  7.980478E+04 -2.082588E+04  2.665983E+05 -2.896619E-09  1.462194E-08
       385  18  6.883326E+05  9.708131E+04 -1.443933E+04  2.822361E+05  2.720497E-09  2.311419E-10
       385  19  8.535686E+05  1.597885E+05  3.029338E+04  3.277690E+05 -2.036433E+03  3.382063E+03
       385  20  8.360843E+05  1.423732E+05  2.305004E+04  3.121831E+05 -1.072920E+03  2.525680E+03
       385  21  8.033589E+05  1.406326E+05  1.629099E+04  3.139164E+05 -1.099554E+02  1.671315E+03
       385  22  7.458634E+05  1.189957E+05  1.783821E+03  2.980222E+05 -2.517430E+03  3.199364E+03
       385  23  7.534747E+05  1.110888E+05  1.112385E+03  2.893894E+05 -1.553109E+03  2.343236E+03
       385  24  7.458442E+05  1.188569E+05  9.259927E+02  2.980756E+05 -5.893096E+02  1.489132E+03
       385  25  6.381696E+05  7.820383E+04 -2.672666E+04  2.682802E+05 -2.998334E+03  3.016700E+03
       385  26  6.708716E+05  7.980478E+04 -2.082586E+04  2.665983E+05 -2.033228E+03  2.160819E+03
       385  27  6.883326E+05  9.708131E+04 -1.443933E+04  2.822361E+05 -1.068616E+03  1.306967E+03
       386   1  7.648252E+05  1.260236E+05  5.891702E+03  3.033220E+05 -2.798186E+02 -1.110278E+03
       386   2  7.474853E+05  1.088593E+05 -3.452266E+02  2.877800E+05 -1.303284E+03 -2.835270E+02
       386   3  7.150206E+05  1.073031E+05 -6.043699E+03  2.894271E+05 -2.325424E+03  5.399360E+02
       386   4  7.458690E+05  1.188287E+05  9.471004E+02  2.980521E+05  1.988660E+02 -9.283308E+02
       386   5  7.534446E+05  1.111152E+05  1.237152E+03  2.894233E+05 -8.261030E+02 -1.021571E+02
       386   6  7.458949E+05  1.190099E+05  2.066836E+03  2.979832E+05 -1.849773E+03  7.207203E+02
       386   7  7.269132E+05  1.116338E+05 -3.997531E+03  2.927824E+05  6.775346E+02 -7.463897E+02
       386   8  7.594040E+05  1.133710E+05  2.819526E+03  2.910665E+05 -3.489176E+02  7.921443E+01
       386   9  7.767701E+05  1.307167E+05  1.017727E+04  3.065396E+05 -1.374098E+03  9.015140E+02
       386  10  7.648252E+05  1.260236E+05  5.891700E+03  3.033220E+05  1.369362E-09 -1.063810E-08
       386  11  7.474853E+05  1.088593E+05 -3.452300E+02  2.877800E+05 -1.315711E-09 -2.805524E-08
       386  12  7.150206E+05  1.073031E+05 -6.043710E+03  2.894271E+05 -3.136977E-09 -1.296185E-08
       386  13  7.458690E+05  1.188287E+05  9.470987E+02  2.980521E+05  1.300160E-09 -4.732771E-09
       386  14  7.534446E+05  1.111152E+05  1.237151E+03  2.894233E+05  2.375363E-09 -6.273578E-09
       386  15  7.458949E+05  1.190099E+05  2.066829E+03  2.979832E+05  1.706503E-09  4.327904E-09
       386  16  7.269132E+05  1.116338E+05 -3.997532E+03  2.927824E+05  2.716765E-09  4.370210E-09
       386  17  7.594040E+05  1.133710E+05  2.819526E+03  2.910665E+05  6.165168E-09 -3.922423E-09
       386  18  7.767701E+05  1.307167E+05  1.017726E+04  3.065396E+05  6.204594E-09 -7.929048E-10
       386  19  7.648252E+05  1.260236E+05  5.891702E+03  3.033220E+05  2.798186E+02  1.110278E+03
       386  20  7.474853E+05  1.088593E+05 -3.452266E+02  2.877800E+05  1.303284E+03  2.835270E+02
       386  21  7.150206E+05  1.073031E+05 -6.043699E+03  2.894271E+05  2.325424E+03 -5.399360E+02
       386  22  7.458690E+05  1.188287E+05  9.471004E+02  2.980521E+05 -1.988660E+02  9.283308E+02
       386  23  7.534446E+05  1.111152E+05  1.237152E+03  2.894233E+05  8.261030E+02  1.021571E+02
       386  24  7.458949E+05  1.190099E+05  2.066836E+03  2.979832E+05  1.849773E+03 -7.207203E+02
       386  25  7.269132E+05  1.116338E+05 -3.997531E+03  2.927824E+05 -6.775346E+02  7.463897E+02
       386  26  7.594040E+05  1.133710E+05  2.819526E+03  2.910665E+05  3.489176E+02 -7.921443E+01
       386  27  7.767701E+05  1.307167E+05  1.017727E+04  3.065396E+05  1.374098E+03 -9.015140E+02
       387   1  6.763432E+05  9.265363E+04 -1.590003E+04  2.792285E+05 -2.965018E+03  1.013929E+03
       387   2  6.586693E+05  7.489886E+04 -2.054855E+04  2.632386E+05 -5.681154E+03  1.204482E+03
       387   3  6.267595E+05  7.497872E+04 -2.282932E+04  2.641121E+05 -8.380561E+03  1.351957E+03
       387   4  7.459895E+05  1.187934E+05  2.642810E+03  2.981808E+05 -2.474819E+03  1.200221E+03
       387   5  7.532358E+05  1.107848E+05  4.579997E+03  2.894027E+05 -5.210724E+03  1.383197E+03
       387   6  7.462500E+05  1.206145E+05  8.900462E+03  2.974877E+05 -7.929999E+03  1.523059E+03
       387   7  8.156407E+05  1.449336E+05  2.118527E+04  3.171351E+05 -1.984558E+03  1.386535E+03
       387   8  8.478111E+05  1.466714E+05  2.970780E+04  3.155705E+05 -4.740214E+03  1.561941E+03
       387   9  8.657542E+05  1.662513E+05  4.062901E+04  3.308692E+05 -7.479342E+03  1.694199E+03
       387  10  6.763432E+05  9.265363E+04 -1.590004E+04  2.792285E+05 -2.786049E-09 -3.196283E-09
       387  11  6.586692E+05  7.489885E+04 -2.054861E+04  2.632386E+05  5.113914E-09  1.805464E-09
       387  12  6.267595E+05  7.497870E+04 -2.282945E+04  2.641121E+05  3.468086E-09 -2.807509E-09
       387  13  7.459895E+05  1.187934E+05  2.642796E+03  2.981808E+05 -1.408749E-09 -1.194863E-09
       387  14  7.532358E+05  1.107848E+05  4.579942E+03  2.894027E+05  4.024983E-09  7.390752E-09
       387  15  7.462499E+05  1.206145E+05  8.900339E+03  2.974877E+05  2.069325E-09  1.563192E-08
       387  16  8.156407E+05  1.449336E+05  2.118526E+04  3.171351E+05  4.919514E-09  5.652777E-09
       387  17  8.478111E+05  1.466714E+05  2.970775E+04  3.155705E+05 -3.325909E-09  1.961751E-08
       387  18  8.657541E+05  1.662513E+05  4.062890E+04  3.308692E+05 -1.406550E-09 -5.001274E-09
       387  19  6.763432E+05  9.265363E+04 -1.590003E+04  2.792285E+05  2.965018E+03 -1.013929E+03
       387  20  6.586693E+05  7.489886E+04 -2.054855E+04  2.632386E+05  5.681154E+03 -1.204482E+03
       387  21  6.267595E+05  7.497872E+04 -2.282932E+04  2.641121E+05  8.380561E+03 -1.351957E+03
       387  22  7.459895E+05  1.187934E+05  2.642810E+03  2.981808E+05  2.474819E+03 -1.200221E+03
       387  23  7.532358E+05  1.107848E+05  4.579997E+03  2.894027E+05  5.210724E+03 -1.383197E+03
       387  24  7.462500E+05  1.206145E+05  8.900462E+03  2.974877E+05  7.929999E+03 -1.523059E+03
       387  25  8.156407E+05  1.449336E+05  2.118527E+04  3.171351E+05  1.984558E+03 -1.386535E+03
       387  26  8.478111E+05  1.466714E+05  2.970780E+04  3.155705E+05  4.740214E+03 -1.561941E+03
       387  27  8.657542E+05  1.662513E+05  4.062901E+04  3.308692E+05  7.479342E+03 -1.694199E+03
       388   1  5.865090E+05  5.970081E+04 -3.092910E+04  2.568926E+05 -1.046510E+04  1.380694E+03
       388   2  5.675135E+05  3.745430E+04 -2.941871E+04  2.377361E+05 -2.084468E+04 -1.314836E+03
       388   3  5.419470E+05  5.192650E+04 -1.476722E+04  2.312117E+05 -3.100142E+04 -4.594962E+03
       388   4  7.470317E+05  1.183684E+05  1.137665E+04  2.989964E+05 -9.845147E+03  1.616112E+03
       388   5  7.514677E+05  1.081815E+05  1.963218E+04  2.895669E+05 -2.049078E+04 -1.180655E+03
       388   6  7.493823E+05  1.347613E+05  4.123647E+04  2.927692E+05 -3.091404E+04 -4.562225E+03
       388   7  9.075786E+05  1.770370E+05  5.368010E+04  3.411097E+05 -9.225023E+03  1.851591E+03
       388   8  9.354544E+05  1.789111E+05  6.868011E+04  3.414117E+05 -2.013677E+04 -1.046428E+03
       388   9  9.568598E+05  2.176004E+05  9.723646E+04  3.543458E+05 -3.082663E+04 -4.529472E+03
       388  10  5.865089E+05  5.970078E+04 -3.092931E+04  2.568927E+05 -5.846742E-09 -6.017148E-09
       388  11  5.675131E+05  3.745418E+04 -2.941953E+04  2.377360E+05 -1.058257E-10  1.759387E-08
       388  12  5.419459E+05  5.192622E+04 -1.476907E+04  2.312116E+05  6.401595E-10  1.254273E-08
       388  13  7.470315E+05  1.183684E+05  1.137647E+04  2.989964E+05 -6.341230E-11 -9.119794E-09
       388  14  7.514672E+05  1.081814E+05  1.963139E+04  2.895669E+05  7.797118E-10  1.906955E-08
       388  15  7.493813E+05  1.347611E+05  4.123463E+04  2.927690E+05 -2.793529E-09  8.350640E-09
       388  16  9.075786E+05  1.770370E+05  5.367993E+04  3.411097E+05  6.781998E-09 -1.590617E-09
       388  17  9.354540E+05  1.789110E+05  6.867935E+04  3.414117E+05 -4.113269E-09 -4.407660E-09
       388  18  9.568587E+05  2.176001E+05  9.723464E+04  3.543457E+05 -6.070508E-09  1.285944E-08
       388  19  5.865090E+05  5.970081E+04 -3.092910E+04  2.568926E+05  1.046510E+04 -1.380694E+03
       388  20  5.675135E+05  3.745430E+04 -2.941871E+04  2.377361E+05  2.084468E+04  1.314836E+03
       388  21  5.419470E+05  5.192650E+04 -1.476722E+04  2.312117E+05  3.100142E+04  4.594962E+03
       388  22  7.470317E+05  1.183684E+05  1.137665E+04  2.989964E+05  9.845147E+03 -1.616112E+03
       388  23  7.514677E+05  1.081815E+05  1.963218E+04  2.895669E+05  2.049078E+04  1.180655E+03
       388  24  7.493823E+05  1.347613E+05  4.123647E+04  2.927692E+05  3.091404E+04  4.562225E+03
       388  25  9.075786E+05  1.770370E+05  5.368010E+04  3.411097E+05  9.225023E+03 -1.851591E+03
       388  26  9.354544E+05  1.789111E+05  6.868011E+04  3.414117E+05  2.013677E+04  1.046428E+03
       388  27  9.568598E+05  2.176004E+05  9.723646E+04  3.543458E+05  3.082663E+04  4.529472E+03
       389   1  4.916643E+05  3.192137E+04 -1.599626E+04  2.506541E+05 -4.086793E+04 -6.419742E+03
       389   2  4.674182E+05 -2.685396E+04  9.505019E+03  2.062605E+05 -8.356303E+04 -2.135327E+04
       389   3  5.015958E+05  1.133438E+05  1.166612E+05  1.325035E+05 -1.235896E+05 -4.331900E+04
       389   4  7.557471E+05  1.138383E+05  5.060847E+04  3.050915E+05 -3.880153E+04 -5.634618E+03
       389   5  7.366261E+05  8.659351E+04  8.308961E+04  2.922677E+05 -8.468009E+04 -2.177903E+04
       389   6  7.765240E+05  2.588973E+05  1.997197E+05  2.500888E+05 -1.278910E+05 -4.495926E+04
       389   7  1.019898E+06  1.957549E+05  1.172081E+05  3.595473E+05 -3.673415E+04 -4.849275E+03
       389   8  1.005903E+06  2.000501E+05  1.566673E+05  3.783100E+05 -8.579766E+04 -2.220504E+04
       389   9  1.051527E+06  4.044785E+05  2.827702E+05  3.677272E+05 -1.321946E+05 -4.660100E+04
       389  10  4.916625E+05  3.192088E+04 -1.599947E+04  2.506539E+05 -1.087186E-08  8.856590E-09
       389  11  4.674106E+05 -2.685632E+04  9.491053E+03  2.062591E+05 -5.245505E-09  1.137179E-08
       389  12  5.015789E+05  1.133377E+05  1.166290E+05  1.324992E+05  1.247517E-09  7.620025E-09
       389  13  7.557454E+05  1.138379E+05  5.060559E+04  3.050913E+05 -7.141955E-09  2.417368E-09
       389  14  7.366182E+05  8.659108E+04  8.307526E+04  2.922662E+05 -9.151715E-10  8.104355E-09
       389  15  7.765059E+05  2.588908E+05  1.996852E+05  2.500842E+05 -5.248872E-10  1.080596E-08
       389  16  1.019896E+06  1.957545E+05  1.172055E+05  3.595471E+05  1.450400E-09  1.447634E-08
       389  17  1.005895E+06  2.000476E+05  1.566526E+05  3.783084E+05 -2.691852E-09 -5.519095E-09
       389  18  1.051508E+06  4.044715E+05  2.827333E+05  3.677222E+05 -5.844673E-09 -5.714075E-09
       389  19  4.916643E+05  3.192137E+04 -1.599626E+04  2.506541E+05  4.086793E+04  6.419742E+03
       389  20  4.674182E+05 -2.685396E+04  9.505019E+03  2.062605E+05  8.356303E+04  2.135327E+04
       389  21  5.015958E+05  1.133438E+05  1.166612E+05  1.325035E+05  1.235896E+05  4.331900E+04
       389  22  7.557471E+05  1.138383E+05  5.060847E+04  3.050915E+05  3.880153E+04  5.634618E+03
       389  23  7.366261E+05  8.659351E+04  8.308961E+04  2.922677E+05  8.468009E+04  2.177903E+04
       389  24  7.765240E+05  2.588973E+05  1.997197E+05  2.500888E+05  1.278910E+05  4.495926E+04
       389  25  1.019898E+06  1.957549E+05  1.172081E+05  3.595473E+05  3.673415E+04  4.849275E+03
       389  26  1.005903E+06  2.000501E+05  1.566673E+05  3.783100E+05  8.579766E+04  2.220504E+04
       389  27  1.051527E+06  4.044785E+05  2.827702E+05  3.677272E+05  1.321946E+05  4.660100E+04
       390   1 -1.766599E+05 -9.538271E+05 -1.802058E+05  8.734970E+04 -5.489905E+03 -2.404554E+04
       390   2 -1.153802E+05 -7.999918E+05 -1.263590E+05  2.405895E+04 -1.496616E+04 -1.051224E+04
       390   3 -8.096534E+04 -6.535353E+05 -8.785286E+04  7.798400E+04 -9.450286E+03  3.065113E+03
       390   4 -2.006954E+04 -3.267429E+05 -2.504467E+04  7.997456E+04 -5.513027E+03 -1.593656E+04
       390   5  2.858162E+03 -3.236562E+05 -1.188000E+04  2.139806E+04 -1.496785E+04 -9.584659E+03
       390   6  1.816180E+02 -3.267151E+05 -9.055488E+03  8.003300E+04 -9.435414E+03 -3.192164E+03
       390   7  1.364916E+05  3.006993E+05  1.300875E+05  7.259220E+04 -5.536330E+03 -7.819368E+03
       390   8  1.210801E+05  1.528874E+05  1.025828E+05  1.873525E+04 -1.496954E+04 -8.656363E+03
       390   9  8.132081E+04  2.030266E+02  6.973440E+04  8.208314E+04 -9.420587E+03 -9.452727E+03
       390  10 -1.766601E+05 -9.538277E+05 -1.802070E+05  8.734959E+04 -6.309418E-10  3.152771E-09
       390  11 -1.153805E+05 -7.999920E+05 -1.263596E+05  2.405882E+04 -2.064515E-09  4.385279E-09
       390  12 -8.096544E+04 -6.535353E+05 -8.785304E+04  7.798402E+04  1.066424E-09 -5.801437E-09
       390  13 -2.006964E+04 -3.267432E+05 -2.504520E+04  7.997449E+04  1.350138E-09  2.215663E-09
       390  14  2.857897E+03 -3.236564E+05 -1.188059E+04  2.139794E+04 -3.635918E-09 -6.109547E-09
       390  15  1.815197E+02 -3.267151E+05 -9.055674E+03  8.003298E+04 -1.036181E-09  1.499440E-09
       390  16  1.364916E+05  3.006992E+05  1.300873E+05  7.259217E+04  1.759234E-10  3.475947E-09
       390  17  1.210798E+05  1.528872E+05  1.025823E+05  1.873515E+04  2.047616E-09 -1.237018E-08
       390  18  8.132069E+04  2.029069E+02  6.973406E+04  8.208306E+04 -2.851177E-09  5.942074E-09
       390  19 -1.766599E+05 -9.538271E+05 -1.802058E+05  8.734970E+04  5.489905E+03  2.404554E+04
       390  20 -1.153802E+05 -7.999918E+05 -1.263590E+05  2.405895E+04  1.496616E+04  1.051224E+04
       390  21 -8.096534E+04 -6.535353E+05 -8.785286E+04  7.798400E+04  9.450286E+03 -3.065113E+03
       390  22 -2.006954E+04 -3.267429E+05 -2.504467E+04  7.997456E+04  5.513027E+03  1.593656E+04
       390  23  2.858162E+03 -3.236562E+05 -1.188000E+04  2.139806E+04  1.496785E+04  9.584659E+03
       390  24  1.816180E+02 -3.267151E+05 -9.055488E+03  8.003300E+04  9.435414E+03  3.192164E+03
       390  25  1.364916E+05  3.006993E+05  1.300875E+05  7.259220E+04  5.536330E+03  7.819368E+03
       390  26  1.210801E+05  1.528874E+05  1.025828E+05  1.873525E+04  1.496954E+04  8.656363E+03
       390  27  8.132081E+04  2.030266E+02  6.973440E+04  8.208314E+04  9.420587E+03  9.452727E+03
       391   1 -3.021520E+04 -4.381519E+05 -3.553413E+04  8.149358E+04 -3.607710E+03  6.532729E+02
       391   2  1.029431E+04 -2.867951E+05  1.178311E+03  2.103924E+04  1.137794E+03  4.699205E+03
       391   3  4.246505E+04 -1.373203E+05  3.331527E+04  7.841727E+04  5.759947E+03  8.746235E+03
       391   4 -2.320602E+03 -3.257486E+05 -8.546591E+03  8.015334E+04 -3.602488E+03 -1.657696E+03
       391   5  8.624559E+02 -3.247931E+05 -7.965693E+03  2.123440E+04  1.143009E+03  2.447244E+03
       391   6 -4.302237E+03 -3.257510E+05 -1.200005E+04  8.014865E+04  5.765106E+03  6.552320E+03
       391   7  2.557308E+04 -2.133337E+05  1.844007E+04  7.881287E+04 -3.597257E+03 -3.969083E+03
       391   8 -8.569503E+03 -3.627898E+05 -1.710978E+04  2.142955E+04  1.148222E+03  1.954202E+02
       391   9 -5.107209E+04 -5.141492E+05 -5.731788E+04  8.187951E+04  5.770253E+03  4.359067E+03
       391  10 -3.021521E+04 -4.381519E+05 -3.553416E+04  8.149358E+04  9.978927E-10 -1.781989E-09
       391  11  1.029431E+04 -2.867951E+05  1.178267E+03  2.103924E+04  1.017349E-09  3.029508E-09
       391  12  4.246499E+04 -1.373204E+05  3.331507E+04  7.841723E+04  6.303308E-10 -3.764867E-09
       391  13 -2.320617E+03 -3.257486E+05 -8.546621E+03  8.015333E+04 -7.316943E-10  4.306800E-09
       391  14  8.624529E+02 -3.247931E+05 -7.965707E+03  2.123440E+04  3.132426E-09 -2.977615E-09
       391  15 -4.302284E+03 -3.257511E+05 -1.200019E+04  8.014862E+04  1.491638E-09 -3.252324E-09
       391  16  2.557307E+04 -2.133338E+05  1.844002E+04  7.881285E+04 -1.662309E-09  2.630739E-09
       391  17 -8.569504E+03 -3.627898E+05 -1.710978E+04  2.142955E+04 -4.011062E-10 -4.399370E-09
       391  18 -5.107214E+04 -5.141492E+05 -5.731798E+04  8.187949E+04 -2.913475E-09  5.913862E-09
       391  19 -3.021520E+04 -4.381519E+05 -3.553413E+04  8.149358E+04  3.607710E+03 -6.532729E+02
       391  20  1.029431E+04 -2.867951E+05  1.178311E+03  2.103924E+04 -1.137794E+03 -4.699205E+03
       391  21  4.246505E+04 -1.373203E+05  3.331527E+04  7.841727E+04 -5.759947E+03 -8.746235E+03
       391  22 -2.320602E+03 -3.257486E+05 -8.546591E+03  8.015334E+04  3.602488E+03  1.657696E+03
       391  23  8.624559E+02 -3.247931E+05 -7.965693E+03  2.123440E+04 -1.143009E+03 -2.447244E+03
       391  24 -4.302237E+03 -3.257510E+05 -1.200005E+04  8.014865E+04 -5.765106E+03 -6.552320E+03
       391  25  2.557308E+04 -2.133337E+05  1.844007E+04  7.881287E+04  3.597257E+03  3.969083E+03
       391  26 -8.569503E+03 -3.627898E+05 -1.710978E+04  2.142955E+04 -1.148222E+03 -1.954202E+02
       391  27 -5.107209E+04 -5.141492E+05 -5.731788E+04  8.187951E+04 -5.770253E+03 -4.359067E+03
       392   1  1.012074E+05  7.487401E+04  8.309703E+04  8.408619E+04  1.178264E+04  1.542171E+04
       392   2  1.424279E+05  2.302870E+05  1.117586E+05  1.707729E+04  1.728884E+04  1.877727E+04
       392   3  1.381872E+05  3.751439E+05  1.271249E+05  6.708945E+04  6.247259E+03  2.208647E+04
       392   4  1.237459E+03 -3.280195E+05 -1.394026E+04  8.001044E+04  1.179892E+04  8.796994E+03
       392   5  5.397023E+03 -3.220535E+05 -2.091725E+04  2.143732E+04  1.728629E+04  2.008927E+04
       392   6 -3.730314E+04 -3.280542E+05 -4.671197E+04  7.989350E+04  6.219482E+03  3.133413E+04
       392   7 -9.874424E+04 -7.307644E+05 -1.109889E+05  7.593743E+04  1.181528E+04  2.176558E+03
       392   8 -1.316560E+05 -8.741147E+05 -1.536148E+05  2.579364E+04  1.728376E+04  2.140010E+04
       392   9 -2.128299E+05 -1.030803E+06 -2.205852E+05  9.268335E+04  6.192072E+03  4.057132E+04
       392  10  1.012072E+05  7.487371E+04  8.309632E+04  8.408605E+04  1.256783E-09  6.241046E-10
       392  11  1.424274E+05  2.302866E+05  1.117574E+05  1.707703E+04  5.501732E-10  7.725014E-09
       392  12  1.381871E+05  3.751433E+05  1.271239E+05  6.708934E+04 -1.223860E-09 -4.211449E-10
       392  13  1.237288E+03 -3.280196E+05 -1.394066E+04  8.001036E+04 -1.802863E-09  6.398917E-09
       392  14  5.396594E+03 -3.220540E+05 -2.091857E+04  2.143704E+04  2.266642E-09 -2.966347E-09
       392  15 -3.730345E+04 -3.280553E+05 -4.671388E+04  7.989334E+04 -3.890727E-11 -2.239061E-09
       392  16 -9.874439E+04 -7.307644E+05 -1.109892E+05  7.593741E+04 -1.667621E-09  2.786634E-09
       392  17 -1.316564E+05 -8.741153E+05 -1.536162E+05  2.579334E+04  2.383733E-09 -1.376886E-08
       392  18 -2.128304E+05 -1.030804E+06 -2.205884E+05  9.268315E+04  3.963078E-10  6.586317E-09
       392  19  1.012074E+05  7.487401E+04  8.309703E+04  8.408619E+04 -1.178264E+04 -1.542171E+04
       392  20  1.424279E+05  2.302870E+05  1.117586E+05  1.707729E+04 -1.728884E+04 -1.877727E+04
       392  21  1.381872E+05  3.751439E+05  1.271249E+05  6.708945E+04 -6.247259E+03 -2.208647E+04
       392  22  1.237459E+03 -3.280195E+05 -1.394026E+04  8.001044E+04 -1.179892E+04 -8.796994E+03
       392  23  5.397023E+03 -3.220535E+05 -2.091725E+04  2.143732E+04 -1.728629E+04 -2.008927E+04
       392  24 -3.730314E+04 -3.280542E+05 -4.671197E+04  7.989350E+04 -6.219482E+03 -3.133413E+04
       392  25 -9.874424E+04 -7.307644E+05 -1.109889E+05  7.593743E+04 -1.181528E+04 -2.176558E+03
       392  26 -1.316560E+05 -8.741147E+05 -1.536148E+05  2.579364E+04 -1.728376E+04 -2.140010E+04
       392  27 -2.128299E+05 -1.030803E+06 -2.205852E+05  9.268335E+04 -6.192072E+03 -4.057132E+04
       393   1  5.277186E+05 -6.283723E+04 -5.491197E+04 -4.490999E+03  1.770106E+04  3.469631E+03
       393   2  5.480540E+05 -8.652306E+04 -6.533421E+04 -5.322742E+02  1.349939E+04  1.035276E+04
       393   3  5.772122E+05 -7.782885E+04 -6.489412E+04 -1.572312E+04  9.305654E+03  9.548887E+03
       393   4  8.856746E+05  2.634463E+04  3.342529E+04 -1.217804E+04  2.286432E+04  3.475075E+03
       393   5  8.809534E+05 -4.014042E+03  1.459314E+04 -2.589092E+03  1.496682E+04  1.035370E+04
       393   6  8.856898E+05 -1.361095E+03  9.182730E+03 -1.214884E+04  7.077404E+03  9.547058E+03
       393   7  1.243747E+06  1.155172E+05  1.217532E+05 -1.986955E+04  2.803054E+04  3.480389E+03
       393   8  1.213954E+06  7.848695E+04  9.451264E+04 -4.647039E+03  1.643502E+04  1.035463E+04
       393   9  1.194255E+06  7.509980E+04  8.325285E+04 -8.572786E+03  4.848051E+03  9.545204E+03
       393  10  5.277182E+05 -6.283732E+04 -5.491258E+04 -4.491049E+03  5.039089E-10 -4.803938E-11
       393  11  5.480538E+05 -8.652323E+04 -6.533475E+04 -5.323867E+02  5.296730E-10  6.582675E-11
       393  12  5.772120E+05 -7.782897E+04 -6.489445E+04 -1.572319E+04  3.612721E-10  3.390237E-11
       393  13  8.856741E+05  2.634448E+04  3.342429E+04 -1.217811E+04 -2.308804E-14  1.999673E-11
       393  14  8.809531E+05 -4.014218E+03  1.459252E+04 -2.589217E+03 -5.262838E-10  7.301855E-11
       393  15  8.856897E+05 -1.361206E+03  9.182465E+03 -1.214889E+04  6.359778E-11  7.151137E-11
       393  16  1.243746E+06  1.155170E+05  1.217517E+05 -1.986963E+04 -5.376103E-10  1.574641E-11
       393  17  1.213954E+06  7.848676E+04  9.451194E+04 -4.647176E+03 -1.031696E-09 -9.723514E-11
       393  18  1.194254E+06  7.509969E+04  8.325263E+04 -8.572824E+03 -2.414333E-11 -3.370599E-11
       393  19  5.277186E+05 -6.283723E+04 -5.491197E+04 -4.490999E+03 -1.770106E+04 -3.469631E+03
       393  20  5.480540E+05 -8.652306E+04 -6.533421E+04 -5.322742E+02 -1.349939E+04 -1.035276E+04
       393  21  5.772122E+05 -7.782885E+04 -6.489412E+04 -1.572312E+04 -9.305654E+03 -9.548887E+03
       393  22  8.856746E+05  2.634463E+04  3.342529E+04 -1.217804E+04 -2.286432E+04 -3.475075E+03
       393  23  8.809534E+05 -4.014042E+03  1.459314E+04 -2.589092E+03 -1.496682E+04 -1.035370E+04
       393  24  8.856898E+05 -1.361095E+03  9.182730E+03 -1.214884E+04 -7.077404E+03 -9.547058E+03
       393  25  1.243747E+06  1.155172E+05  1.217532E+05 -1.986955E+04 -2.803054E+04 -3.480389E+03
       393  26  1.213954E+06  7.848695E+04  9.451264E+04 -4.647039E+03 -1.643502E+04 -1.035463E+04
       393  27  1.194255E+06  7.509980E+04  8.325285E+04 -8.572786E+03 -4.848051E+03 -9.545204E+03
       394   1  6.096122E+05 -6.517733E+04 -5.854177E+04 -1.132542E+04  5.653963E+03  7.886749E+03
       394   2  6.324833E+05 -6.262658E+04 -5.647331E+04 -2.688444E+03  3.985494E+03  7.562960E+03
       394   3  6.565598E+05 -5.652000E+04 -5.240978E+04 -1.242365E+04  2.316823E+03  6.648219E+03
       394   4  8.838696E+05  2.837229E+03  7.502680E+03 -1.198595E+04  5.642512E+03  7.886507E+03
       394   5  8.832447E+05 -4.609508E+02  3.802040E+03 -2.799288E+03  3.689413E+03  7.562626E+03
       394   6  8.838734E+05 -1.547061E+02  2.293322E+03 -1.198433E+04  1.736175E+03  6.647897E+03
       394   7  1.158196E+06  7.084632E+04  7.354177E+04 -1.264678E+04  5.631056E+03  7.886265E+03
       394   8  1.134064E+06  6.170011E+04  6.407292E+04 -2.910184E+03  3.393212E+03  7.562292E+03
       394   9  1.111234E+06  5.620683E+04  5.699275E+04 -1.154485E+04  1.155315E+03  6.647575E+03
       394  10  6.096122E+05 -6.517741E+04 -5.854194E+04 -1.132546E+04  1.427576E-10  5.760609E-11
       394  11  6.324833E+05 -6.262665E+04 -5.647345E+04 -2.688468E+03  2.418962E-10  1.198892E-10
       394  12  6.565597E+05 -5.652005E+04 -5.240987E+04 -1.242366E+04  2.362646E-10  9.883296E-12
       394  13  8.838696E+05  2.837154E+03  7.502503E+03 -1.198598E+04 -7.885269E-11 -2.791660E-11
       394  14  8.832447E+05 -4.610159E+02  3.801907E+03 -2.799310E+03 -3.168112E-10  5.865045E-11
       394  15  8.838734E+05 -1.547544E+02  2.293233E+03 -1.198433E+04  6.454325E-11  1.373454E-10
       394  16  1.158196E+06  7.084624E+04  7.354159E+04 -1.264682E+04 -1.596315E-10 -7.569221E-12
       394  17  1.134064E+06  6.170005E+04  6.407280E+04 -2.910204E+03 -5.827612E-10 -1.107445E-10
       394  18  1.111234E+06  5.620678E+04  5.699266E+04 -1.154485E+04 -1.090107E-10  7.123835E-11
       394  19  6.096122E+05 -6.517733E+04 -5.854177E+04 -1.132542E+04 -5.653963E+03 -7.886749E+03
       394  20  6.324833E+05 -6.262658E+04 -5.647331E+04 -2.688444E+03 -3.985494E+03 -7.562960E+03
       394  21  6.565598E+05 -5.652000E+04 -5.240978E+04 -1.242365E+04 -2.316823E+03 -6.648219E+03
       394  22  8.838696E+05  2.837229E+03  7.502680E+03 -1.198595E+04 -5.642512E+03 -7.886507E+03
       394  23  8.832447E+05 -4.609508E+02  3.802040E+03 -2.799288E+03 -3.689413E+03 -7.562626E+03
       394  24  8.838734E+05 -1.547061E+02  2.293322E+03 -1.198433E+04 -1.736175E+03 -6.647897E+03
       394  25  1.158196E+06  7.084632E+04  7.354177E+04 -1.264678E+04 -5.631056E+03 -7.886265E+03
       394  26  1.134064E+06  6.170011E+04  6.407292E+04 -2.910184E+03 -3.393212E+03 -7.562292E+03
       394  27  1.111234E+06  5.620683E+04  5.699275E+04 -1.154485E+04 -1.155315E+03 -6.647575E+03
       395   1  6.890693E+05 -4.793326E+04 -4.490855E+04 -1.180557E+04  1.775832E+03  6.027883E+03
       395   2  7.115783E+05 -4.268786E+04 -4.031592E+04 -2.988202E+03  1.280217E+03  5.168967E+03
       395   3  7.342908E+05 -3.705354E+04 -3.529497E+04 -1.188107E+04  7.842595E+02  4.274030E+03
       395   4  8.836443E+05  2.917481E+02  1.809556E+03 -1.183778E+04  1.372190E+03  6.027676E+03
       395   5  8.835419E+05 -5.770998E+01  1.021998E+03 -2.982783E+03  8.591235E+02  5.168830E+03
       395   6  8.836458E+05 -1.517060E+01  6.748777E+02 -1.183772E+04  3.457319E+02  4.273968E+03
       395   7  1.078254E+06  4.851400E+04  4.852498E+04 -1.186999E+04  9.684216E+02  6.027470E+03
       395   8  1.055532E+06  4.257029E+04  4.235781E+04 -2.977363E+03  4.379134E+02  5.168692E+03
       395   9  1.033021E+06  3.702157E+04  3.664314E+04 -1.179436E+04 -9.290061E+01  4.273906E+03
       395  10  6.890693E+05 -4.793330E+04 -4.490863E+04 -1.180558E+04  1.081067E-10 -7.021447E-11
       395  11  7.115783E+05 -4.268789E+04 -4.031597E+04 -2.988208E+03  1.255725E-10 -1.460446E-10
       395  12  7.342908E+05 -3.705356E+04 -3.529501E+04 -1.188107E+04 -1.970284E-10 -1.411262E-11
       395  13  8.836443E+05  2.917086E+02  1.809484E+03 -1.183778E+04  2.215842E-11 -3.889262E-11
       395  14  8.835419E+05 -5.773888E+01  1.021947E+03 -2.982787E+03 -1.153379E-10 -1.294960E-10
       395  15  8.836458E+05 -1.519026E+01  6.748431E+02 -1.183772E+04 -4.967867E-11 -7.951028E-11
       395  16  1.078254E+06  4.851396E+04  4.852491E+04 -1.187000E+04 -1.950602E-10  3.954523E-11
       395  17  1.055532E+06  4.257026E+04  4.235776E+04 -2.977365E+03 -1.831993E-10 -1.124629E-10
       395  18  1.033021E+06  3.702155E+04  3.664310E+04 -1.179436E+04  2.662827E-10  1.863384E-11
       395  19  6.890693E+05 -4.793326E+04 -4.490855E+04 -1.180557E+04 -1.775832E+03 -6.027883E+03
       395  20  7.115783E+05 -4.268786E+04 -4.031592E+04 -2.988202E+03 -1.280217E+03 -5.168967E+03
       395  21  7.342908E+05 -3.705354E+04 -3.529497E+04 -1.188107E+04 -7.842595E+02 -4.274030E+03
       395  22  8.836443E+05  2.917481E+02  1.809556E+03 -1.183778E+04 -1.372190E+03 -6.027676E+03
       395  23  8.835419E+05 -5.770998E+01  1.021998E+03 -2.982783E+03 -8.591235E+02 -5.168830E+03
       395  24  8.836458E+05 -1.517060E+01  6.748777E+02 -1.183772E+04 -3.457319E+02 -4.273968E+03
       395  25  1.078254E+06  4.851400E+04  4.852498E+04 -1.186999E+04 -9.684216E+02 -6.027470E+03
       395  26  1.055532E+06  4.257029E+04  4.235781E+04 -2.977363E+03 -4.379134E+02 -5.168692E+03
       395  27  1.033021E+06  3.702157E+04  3.664314E+04 -1.179436E+04  9.290061E+01 -4.273906E+03
       396   1  7.660036E+05 -2.911414E+04 -2.762488E+04 -1.173456E+04  6.559872E+02  3.750295E+03
       396   2  7.880427E+05 -2.369498E+04 -2.246873E+04 -3.089966E+03  4.070709E+02  2.870674E+03
       396   3  8.101377E+05 -1.821211E+04 -1.713329E+04 -1.173467E+04  1.579567E+02  1.994122E+03
       396   4  8.836145E+05  2.742508E+01  5.790955E+02 -1.174422E+04  2.326646E+02  3.750273E+03
       396   5  8.835874E+05 -1.027844E+01  4.982905E+02 -3.099653E+03 -1.482500E+01  2.870693E+03
       396   6  8.836151E+05  1.543067E+01  5.957049E+02 -1.174422E+04 -2.625038E+02  1.994183E+03
       396   7  1.001238E+06  2.916799E+04  2.878209E+04 -1.175389E+04 -1.907377E+02  3.750252E+03
       396   8  9.791404E+05  2.367376E+04  2.346466E+04 -3.109342E+03 -4.367855E+02  2.870712E+03
       396   9  9.570975E+05  1.824258E+04  1.832432E+04 -1.175376E+04 -6.830137E+02  1.994243E+03
       396  10  7.660036E+05 -2.911415E+04 -2.762490E+04 -1.173456E+04 -1.491626E-10 -8.056106E-11
       396  11  7.880427E+05 -2.369499E+04 -2.246874E+04 -3.089967E+03  3.986498E-11 -1.237914E-10
       396  12  8.101377E+05 -1.821212E+04 -1.713330E+04 -1.173467E+04 -3.264309E-10  1.245164E-10
       396  13  8.836145E+05  2.740996E+01  5.790689E+02 -1.174422E+04 -9.476839E-11 -2.261139E-10
       396  14  8.835874E+05 -1.028729E+01  4.982750E+02 -3.099653E+03  4.058354E-12 -8.775277E-11
       396  15  8.836151E+05  1.542638E+01  5.956973E+02 -1.174422E+04 -2.603626E-11 -6.486238E-12
       396  16  1.001238E+06  2.916797E+04  2.878206E+04 -1.175389E+04  1.512071E-10 -2.807000E-10
       396  17  9.791404E+05  2.367375E+04  2.346464E+04 -3.109341E+03  1.103215E-10 -1.818799E-10
       396  18  9.570975E+05  1.824258E+04  1.832431E+04 -1.175376E+04  3.181869E-10 -2.381048E-10
       396  19  7.660036E+05 -2.911414E+04 -2.762488E+04 -1.173456E+04 -6.559872E+02 -3.750295E+03
       396  20  7.880427E+05 -2.369498E+04 -2.246873E+04 -3.089966E+03 -4.070709E+02 -2.870674E+03
       396  21  8.101377E+05 -1.821211E+04 -1.713329E+04 -1.173467E+04 -1.579567E+02 -1.994122E+03
       396  22  8.836145E+05  2.742508E+01  5.790955E+02 -1.174422E+04 -2.326646E+02 -3.750273E+03
       396  23  8.835874E+05 -1.027844E+01  4.982905E+02 -3.099653E+03  1.482500E+01 -2.870693E+03
       396  24  8.836151E+05  1.543067E+01  5.957049E+02 -1.174422E+04  2.625038E+02 -1.994183E+03
       396  25  1.001238E+06  2.916799E+04  2.878209E+04 -1.175389E+04  1.907377E+02 -3.750252E+03
       396  26  9.791404E+05  2.367376E+04  2.346466E+04 -3.109342E+03  4.367855E+02 -2.870712E+03
       396  27  9.570975E+05  1.824258E+04  1.832432E+04 -1.175376E+04  6.830137E+02 -1.994243E+03
       397   1  8.413444E+05 -1.046846E+04 -9.392513E+03 -1.167091E+04  3.932848E+01  1.485454E+03
       397   2  8.631219E+05 -5.094661E+03 -3.819954E+03 -3.138433E+03 -5.077758E+02  6.144245E+02
       397   3  8.850108E+05  4.703602E+02  2.154459E+03 -1.170954E+04 -1.054938E+03 -2.529517E+02
       397   4  8.836286E+05 -3.404133E-01  7.042255E+02 -1.170299E+04 -3.801331E+02  1.485532E+03
       397   5  8.835731E+05 -2.518291E+01  1.095937E+03 -3.151194E+03 -9.255035E+02  6.145100E+02
       397   6  8.836284E+05  1.409296E+02  1.888331E+03 -1.170295E+04 -1.470913E+03 -2.528571E+02
       397   7  9.259144E+05  1.046765E+04  1.080084E+04 -1.173507E+04 -7.996231E+02  1.485610E+03
       397   8  9.040248E+05  5.044265E+03  6.011800E+03 -3.163956E+03 -1.343245E+03  6.145955E+02
       397   9  8.822460E+05 -1.885010E+02  1.622204E+03 -1.169636E+04 -1.886887E+03 -2.527625E+02
       397  10  8.413444E+05 -1.046846E+04 -9.392517E+03 -1.167091E+04 -3.308831E-10  1.341625E-10
       397  11  8.631219E+05 -5.094661E+03 -3.819956E+03 -3.138433E+03 -2.181369E-11  1.513902E-10
       397  12  8.850108E+05  4.703598E+02  2.154457E+03 -1.170954E+04 -2.031306E-10 -3.874222E-11
       397  13  8.836286E+05 -3.428227E-01  7.042210E+02 -1.170299E+04  5.489202E-11  5.575813E-11
       397  14  8.835731E+05 -2.518355E+01  1.095935E+03 -3.151194E+03  1.643352E-10 -7.157591E-11
       397  15  8.836284E+05  1.409290E+02  1.888327E+03 -1.170295E+04  4.611384E-11  7.290156E-12
       397  16  9.259144E+05  1.046765E+04  1.080083E+04 -1.173507E+04  3.428740E-10 -2.817045E-10
       397  17  9.040248E+05  5.044264E+03  6.011796E+03 -3.163955E+03  1.190909E-10 -2.100692E-10
       397  18  8.822460E+05 -1.885020E+02  1.622198E+03 -1.169636E+04  2.174894E-10 -1.021832E-10
       397  19  8.413444E+05 -1.046846E+04 -9.392513E+03 -1.167091E+04 -3.932848E+01 -1.485454E+03
       397  20  8.631219E+05 -5.094661E+03 -3.819954E+03 -3.138433E+03  5.077758E+02 -6.144245E+02
       397  21  8.850108E+05  4.703602E+02  2.154459E+03 -1.170954E+04  1.054938E+03  2.529517E+02
       397  22  8.836286E+05 -3.404133E-01  7.042255E+02 -1.170299E+04  3.801331E+02 -1.485532E+03
       397  23  8.835731E+05 -2.518291E+01  1.095937E+03 -3.151194E+03  9.255035E+02 -6.145100E+02
       397  24  8.836284E+05  1.409296E+02  1.888331E+03 -1.170295E+04  1.470913E+03  2.528571E+02
       397  25  9.259144E+05  1.046765E+04  1.080084E+04 -1.173507E+04  7.996231E+02 -1.485610E+03
       397  26  9.040248E+05  5.044265E+03  6.011800E+03 -3.163956E+03  1.343245E+03 -6.145955E+02
       397  27  8.822460E+05 -1.885010E+02  1.622204E+03 -1.169636E+04  1.886887E+03  2.527625E+02
       398   1  9.162167E+05  7.999570E+03  1.030649E+04 -1.151520E+04 -1.434556E+03 -7.632821E+02
       398   2  9.377720E+05  1.325683E+04  1.721521E+04 -3.177812E+03 -3.533025E+03 -1.633841E+03
       398   3  9.600216E+05  2.021485E+04  2.591279E+04 -1.199753E+04 -5.631433E+03 -2.476658E+03
       398   4  8.837574E+05 -5.931661E+01  2.438425E+03 -1.171497E+04 -1.859680E+03 -7.631901E+02
       398   5  8.834104E+05 -2.176619E+02  4.149377E+03 -3.136253E+03 -3.944655E+03 -1.633776E+03
       398   6  8.837554E+05  1.322629E+03  7.640097E+03 -1.171474E+04 -6.029496E+03 -2.476620E+03
       398   7  8.512990E+05 -8.118280E+03 -5.429715E+03 -1.191472E+04 -2.284783E+03 -7.630978E+02
       398   8  8.290515E+05 -1.369237E+04 -8.916664E+03 -3.094698E+03 -4.356249E+03 -1.633711E+03
       398   9  8.074945E+05 -1.757001E+04 -1.063301E+04 -1.143198E+04 -6.427509E+03 -2.476582E+03
       398  10  9.162167E+05  7.999568E+03  1.030649E+04 -1.151520E+04 -3.480110E-10  2.240217E-11
       398  11  9.377720E+05  1.325683E+04  1.721518E+04 -3.177817E+03 -2.440923E-10  5.688423E-11
       398  12  9.600216E+05  2.021483E+04  2.591272E+04 -1.199755E+04 -3.197717E-10 -8.535338E-11
       398  13  8.837574E+05 -5.931816E+01  2.438418E+03 -1.171497E+04  2.921913E-11 -2.481980E-10
       398  14  8.834104E+05 -2.176689E+02  4.149343E+03 -3.136258E+03  2.269958E-10 -1.118953E-10
       398  15  8.837554E+05  1.322613E+03  7.640018E+03 -1.171475E+04 -1.629576E-11 -1.354357E-11
       398  16  8.512990E+05 -8.118282E+03 -5.429726E+03 -1.191472E+04  2.363556E-10 -6.002061E-11
       398  17  8.290514E+05 -1.369238E+04 -8.916704E+03 -3.094704E+03  3.341886E-10 -2.260789E-10
       398  18  8.074945E+05 -1.757003E+04 -1.063310E+04 -1.143199E+04  3.958186E-12 -7.485305E-11
       398  19  9.162167E+05  7.999570E+03  1.030649E+04 -1.151520E+04  1.434556E+03  7.632821E+02
       398  20  9.377720E+05  1.325683E+04  1.721521E+04 -3.177812E+03  3.533025E+03  1.633841E+03
       398  21  9.600216E+05  2.021485E+04  2.591279E+04 -1.199753E+04  5.631433E+03  2.476658E+03
       398  22  8.837574E+05 -5.931661E+01  2.438425E+03 -1.171497E+04  1.859680E+03  7.631901E+02
       398  23  8.834104E+05 -2.176619E+02  4.149377E+03 -3.136253E+03  3.944655E+03  1.633776E+03
       398  24  8.837554E+05  1.322629E+03  7.640097E+03 -1.171474E+04  6.029496E+03  2.476620E+03
       398  25  8.512990E+05 -8.118280E+03 -5.429715E+03 -1.191472E+04  2.284783E+03  7.630978E+02
       398  26  8.290515E+05 -1.369237E+04 -8.916664E+03 -3.094698E+03  4.356249E+03  1.633711E+03
       398  27  8.074945E+05 -1.757001E+04 -1.063301E+04 -1.143198E+04  6.427509E+03  2.476582E+03
       399   1  9.923739E+05  2.608124E+04  3.568309E+04 -1.009251E+04 -7.056702E+03 -3.044824E+03
       399   2  1.012137E+06  3.028352E+04  4.755500E+04 -3.907193E+03 -1.563460E+04 -3.919959E+03
       399   3  1.036932E+06  5.008168E+04  6.890784E+04 -1.516117E+04 -2.421275E+04 -4.405080E+03
       399   4  8.847123E+05 -6.151475E+02  9.747848E+03 -1.177760E+04 -7.570436E+03 -3.044778E+03
       399   5  8.822074E+05 -1.919497E+03  1.633243E+04 -3.058031E+03 -1.595935E+04 -3.920024E+03
       399   6  8.847032E+05  1.234108E+04  3.226833E+04 -1.177786E+04 -2.434822E+04 -4.405289E+03
       399   7  7.770614E+05 -2.731237E+04 -1.618822E+04 -1.346239E+04 -8.084081E+03 -3.044729E+03
       399   8  7.522936E+05 -3.412374E+04 -1.489134E+04 -2.209047E+03 -1.628403E+04 -3.920090E+03
       399   9  7.324953E+05 -2.540116E+04 -4.372812E+03 -8.395386E+03 -2.448365E+04 -4.405499E+03
       399  10  9.923738E+05  2.608122E+04  3.568298E+04 -1.009253E+04 -1.336750E-10 -1.211921E-10
       399  11  1.012136E+06  3.028344E+04  4.755452E+04 -3.907242E+03  1.128300E-10  9.413014E-11
       399  12  1.036932E+06  5.008150E+04  6.890670E+04 -1.516125E+04 -1.713705E-10  1.708772E-10
       399  13  8.847123E+05 -6.151728E+02  9.747723E+03 -1.177761E+04  1.315779E-11  1.357199E-11
       399  14  8.822071E+05 -1.919581E+03  1.633192E+04 -3.058081E+03 -1.159791E-11 -6.094626E-11
       399  15  8.847025E+05  1.234090E+04  3.226719E+04 -1.177795E+04  5.427215E-12  9.388705E-11
       399  16  7.770613E+05 -2.731240E+04 -1.618836E+04 -1.346241E+04  1.631228E-10  4.901507E-11
       399  17  7.522933E+05 -3.412382E+04 -1.489187E+04 -2.209099E+03 -3.646352E-10 -8.589349E-11
       399  18  7.324946E+05 -2.540134E+04 -4.373973E+03 -8.395473E+03  4.519427E-11  1.164116E-10
       399  19  9.923739E+05  2.608124E+04  3.568309E+04 -1.009251E+04  7.056702E+03  3.044824E+03
       399  20  1.012137E+06  3.028352E+04  4.755500E+04 -3.907193E+03  1.563460E+04  3.919959E+03
       399  21  1.036932E+06  5.008168E+04  6.890784E+04 -1.516117E+04  2.421275E+04  4.405080E+03
       399  22  8.847123E+05 -6.151475E+02  9.747848E+03 -1.177760E+04  7.570436E+03  3.044778E+03
       399  23  8.822074E+05 -1.919497E+03  1.633243E+04 -3.058031E+03  1.595935E+04  3.920024E+03
       399  24  8.847032E+05  1.234108E+04  3.226833E+04 -1.177786E+04  2.434822E+04  4.405289E+03
       399  25  7.770614E+05 -2.731237E+04 -1.618822E+04 -1.346239E+04  8.084081E+03  3.044729E+03
       399  26  7.522936E+05 -3.412374E+04 -1.489134E+04 -2.209047E+03  1.628403E+04  3.920090E+03
       399  27  7.324953E+05 -2.540116E+04 -4.372812E+03 -8.395386E+03  2.448365E+04  4.405499E+03
       400   1  1.076881E+06  3.995411E+04  8.377985E+04  2.842738E+03 -2.892962E+04 -5.654871E+03
       400   2  1.079680E+06  3.418281E+04  1.126200E+05 -1.275515E+04 -6.535247E+04 -6.459905E+03
       400   3  1.122896E+06  1.709509E+05  2.007924E+05 -4.625403E+04 -1.017781E+05 -2.219614E+03
       400   4  8.924914E+05 -5.743745E+03  3.949930E+04 -1.186902E+04 -3.052039E+04 -5.654465E+03
       400   5  8.724616E+05 -1.715673E+04  6.288870E+04 -2.938727E+03 -6.450953E+04 -6.460877E+03
       400   6  8.924398E+05  1.135711E+05  1.439360E+05 -1.190809E+04 -9.849994E+04 -2.224096E+03
       400   7  7.081335E+05 -5.144325E+04 -4.783547E+03 -2.657639E+04 -3.211069E+04 -5.653984E+03
       400   8  6.652831E+05 -6.849902E+04  1.315444E+04  6.874410E+03 -6.366686E+04 -6.461823E+03
       400   9  6.620348E+05  5.619187E+04  8.707636E+04  2.242509E+04 -9.522298E+04 -2.228217E+03
       400  10  1.076880E+06  3.995385E+04  8.377822E+04  2.842606E+03  1.358961E-10  2.878794E-10
       400  11  1.079675E+06  3.418163E+04  1.126119E+05 -1.275549E+04 -4.983284E-12 -1.671548E-11
       400  12  1.122884E+06  1.709481E+05  2.007729E+05 -4.625421E+04  6.778553E-13 -1.397713E-10
       400  13  8.924904E+05 -5.744029E+03  3.949749E+04 -1.186916E+04  7.574154E-11  1.181005E-10
       400  14  8.724571E+05 -1.715789E+04  6.288081E+04 -2.939062E+03 -3.138117E-10 -8.644944E-11
       400  15  8.924294E+05  1.135685E+05  1.439178E+05 -1.190827E+04  2.765231E-11 -1.141925E-10
       400  16  7.081324E+05 -5.144356E+04 -4.785542E+03 -2.657654E+04 -6.211638E-11  6.080120E-11
       400  17  6.652788E+05 -6.850015E+04  1.314675E+04  6.874079E+03 -1.066933E-10 -5.226629E-11
       400  18  6.620251E+05  5.618943E+04  8.705933E+04  2.242492E+04 -2.661058E-11 -4.542944E-11
       400  19  1.076881E+06  3.995411E+04  8.377985E+04  2.842738E+03  2.892962E+04  5.654871E+03
       400  20  1.079680E+06  3.418281E+04  1.126200E+05 -1.275515E+04  6.535247E+04  6.459905E+03
       400  21  1.122896E+06  1.709509E+05  2.007924E+05 -4.625403E+04  1.017781E+05  2.219614E+03
       400  22  8.924914E+05 -5.743745E+03  3.949930E+04 -1.186902E+04  3.052039E+04  5.654465E+03
       400  23  8.724616E+05 -1.715673E+04  6.288870E+04 -2.938727E+03  6.450953E+04  6.460877E+03
       400  24  8.924398E+05  1.135711E+05  1.439360E+05 -1.190809E+04  9.849994E+04  2.224096E+03
       400  25  7.081335E+05 -5.144325E+04 -4.783547E+03 -2.657639E+04  3.211069E+04  5.653984E+03
       400  26  6.652831E+05 -6.849902E+04  1.315444E+04  6.874410E+03  6.366686E+04  6.461823E+03
       400  27  6.620348E+05  5.619187E+04  8.707636E+04  2.242509E+04  9.522298E+04  2.228217E+03
       401   1 -9.601096E+04 -7.989840E+04 -7.495830E+04 -1.040711E+04  7.533816E+03  3.664427E+03
       401   2 -7.001711E+04 -8.956349E+04 -7.623206E+04 -2.604244E+03  6.991206E+03  1.094127E+04
       401   3 -3.925434E+04 -8.108141E+04 -7.258347E+04 -1.676544E+04  6.450781E+03  9.999694E+03
       401   4  2.845383E+05  1.499750E+04  1.902520E+04 -1.485642E+04  1.300403E+04  3.666057E+03
       401   5  2.818157E+05 -2.298212E+03  8.298054E+03 -3.872730E+03  8.514918E+03  1.094103E+04
       401   6  2.845439E+05 -7.671098E+02  5.230899E+03 -1.485227E+04  4.028110E+03  9.999636E+03
       401   7  6.652193E+05  1.098827E+05  1.129981E+05 -1.930847E+04  1.847758E+04  3.667609E+03
       401   8  6.337619E+05  8.495807E+04  9.281938E+04 -5.141941E+03  1.003949E+04  1.094079E+04
       401   9  6.084382E+05  7.953958E+04  8.303784E+04 -1.293810E+04  1.604180E+03  9.999563E+03
       401  10 -9.601102E+04 -7.989843E+04 -7.495843E+04 -1.040713E+04  1.728058E-10  1.176455E-10
       401  11 -7.001720E+04 -8.956363E+04 -7.623238E+04 -2.604305E+03  4.903930E-11 -1.445513E-10
       401  12 -3.925441E+04 -8.108153E+04 -7.258374E+04 -1.676549E+04 -2.753495E-10  2.576867E-11
       401  13  2.845381E+05  1.499744E+04  1.902486E+04 -1.485646E+04 -1.903584E-11 -3.945179E-11
       401  14  2.818156E+05 -2.298360E+03  8.297693E+03 -3.872805E+03 -1.439358E-10 -6.173853E-11
       401  15  2.845439E+05 -7.672216E+02  5.230680E+03 -1.485230E+04  1.352679E-11  9.633546E-11
       401  16  6.652189E+05  1.098826E+05  1.129974E+05 -1.930852E+04 -4.506973E-11  4.229053E-11
       401  17  6.337618E+05  8.495791E+04  9.281897E+04 -5.142029E+03 -2.776020E-10 -1.356064E-10
       401  18  6.084382E+05  7.953947E+04  8.303765E+04 -1.293811E+04  3.218111E-10  1.250074E-10
       401  19 -9.601096E+04 -7.989840E+04 -7.495830E+04 -1.040711E+04 -7.533816E+03 -3.664427E+03
       401  20 -7.001711E+04 -8.956349E+04 -7.623206E+04 -2.604244E+03 -6.991206E+03 -1.094127E+04
       401  21 -3.925434E+04 -8.108141E+04 -7.258347E+04 -1.676544E+04 -6.450781E+03 -9.999694E+03
       401  22  2.845383E+05  1.499750E+04  1.902520E+04 -1.485642E+04 -1.300403E+04 -3.666057E+03
       401  23  2.818157E+05 -2.298212E+03  8.298054E+03 -3.872730E+03 -8.514918E+03 -1.094103E+04
       401  24  2.845439E+05 -7.671098E+02  5.230899E+03 -1.485227E+04 -4.028110E+03 -9.999636E+03
       401  25  6.652193E+05  1.098827E+05  1.129981E+05 -1.930847E+04 -1.847758E+04 -3.667609E+03
       401  26  6.337619E+05  8.495807E+04  9.281938E+04 -5.141941E+03 -1.003949E+04 -1.094079E+04
       401  27  6.084382E+05  7.953958E+04  8.303784E+04 -1.293810E+04 -1.604180E+03 -9.999563E+03
       402   1 -2.596196E+02 -6.879856E+04 -6.410220E+04 -1.433642E+04  3.270930E+03  8.172021E+03
       402   2  2.730070E+04 -6.373153E+04 -5.936810E+04 -3.721435E+03  2.466353E+03  7.720339E+03
       402   3  5.553517E+04 -5.663744E+04 -5.359035E+04 -1.495633E+04  1.660985E+03  6.624898E+03
       402   4  2.835005E+05  1.620696E+03  4.273576E+03 -1.482764E+04  3.209519E+03  8.171787E+03
       402   5  2.831387E+05 -2.647164E+02  2.168217E+03 -3.903216E+03  2.095490E+03  7.720268E+03
       402   6  2.835033E+05 -6.985923E+01  1.320927E+03 -1.482810E+04  9.807003E+02  6.625108E+03
       402   7  5.673342E+05  7.203408E+04  7.264361E+04 -1.531908E+04  3.148081E+03  8.171554E+03
       402   8  5.390365E+05  6.319734E+04  6.369988E+04 -4.085068E+03  1.724474E+03  7.720197E+03
       402   9  5.115189E+05  5.649393E+04  5.622850E+04 -1.469981E+04  3.001667E+02  6.625318E+03
       402  10 -2.596490E+02 -6.879863E+04 -6.410235E+04 -1.433644E+04 -1.564834E-10 -7.651121E-11
       402  11  2.730068E+04 -6.373160E+04 -5.936823E+04 -3.721450E+03 -1.015503E-10 -2.817699E-10
       402  12  5.553515E+04 -5.663749E+04 -5.359044E+04 -1.495634E+04 -5.559064E-10  3.005791E-10
       402  13  2.835005E+05  1.620622E+03  4.273431E+03 -1.482766E+04 -1.772743E-10  1.515271E-10
       402  14  2.831386E+05 -2.647816E+02  2.168097E+03 -3.903230E+03  5.612031E-10 -5.654513E-10
       402  15  2.835033E+05 -6.990663E+01  1.320843E+03 -1.482810E+04  1.316154E-10  2.591850E-10
       402  16  5.673342E+05  7.203401E+04  7.264346E+04 -1.531910E+04  2.206814E-10  3.130198E-11
       402  17  5.390365E+05  6.319727E+04  6.369976E+04 -4.085079E+03  1.150506E-10 -1.324499E-10
       402  18  5.115189E+05  5.649388E+04  5.622842E+04 -1.469981E+04  3.086811E-10  2.815267E-11
       402  19 -2.596196E+02 -6.879856E+04 -6.410220E+04 -1.433642E+04 -3.270930E+03 -8.172021E+03
       402  20  2.730070E+04 -6.373153E+04 -5.936810E+04 -3.721435E+03 -2.466353E+03 -7.720339E+03
       402  21  5.553517E+04 -5.663744E+04 -5.359035E+04 -1.495633E+04 -1.660985E+03 -6.624898E+03
       402  22  2.835005E+05  1.620696E+03  4.273576E+03 -1.482764E+04 -3.209519E+03 -8.171787E+03
       402  23  2.831387E+05 -2.647164E+02  2.168217E+03 -3.903216E+03 -2.095490E+03 -7.720268E+03
       402  24  2.835033E+05 -6.985923E+01  1.320927E+03 -1.482810E+04 -9.807003E+02 -6.625108E+03
       402  25  5.673342E+05  7.203408E+04  7.264361E+04 -1.531908E+04 -3.148081E+03 -8.171554E+03
       402  26  5.390365E+05  6.319734E+04  6.369988E+04 -4.085068E+03 -1.724474E+03 -7.720197E+03
       402  27  5.115189E+05  5.649393E+04  5.622850E+04 -1.469981E+04 -3.001667E+02 -6.625318E+03
       403   1  9.492776E+04 -4.655091E+04 -4.421176E+04 -1.466088E+04  1.262981E+03  5.888260E+03
       403   2  1.225031E+05 -3.992227E+04 -3.806923E+04 -3.868365E+03  9.769690E+02  4.836901E+03
       403   3  1.501736E+05 -3.304185E+04 -3.167891E+04 -1.472488E+04  6.905254E+02  3.737911E+03
       403   4  2.833683E+05  1.818075E+02  1.048581E+03 -1.478327E+04  7.697707E+02  5.888448E+03
       403   5  2.833199E+05 -2.907980E+01  6.144804E+02 -3.958985E+03  4.608005E+02  4.837186E+03
       403   6  2.833699E+05  1.580360E+01  4.440914E+02 -1.478338E+04  1.514108E+02  3.738302E+03
       403   7  4.718414E+05  4.691194E+04  4.630640E+04 -1.490569E+04  2.764117E+02  5.888636E+03
       403   8  4.441604E+05  3.986222E+04  3.929635E+04 -4.049625E+03 -5.550124E+01  4.837472E+03
       403   9  4.165824E+05  3.307216E+04  3.256582E+04 -1.484189E+04 -3.878190E+02  3.738693E+03
       403  10  9.492775E+04 -4.655095E+04 -4.421183E+04 -1.466088E+04 -1.255679E-10  2.937280E-11
       403  11  1.225031E+05 -3.992229E+04 -3.806927E+04 -3.868369E+03 -2.980452E-10  2.028335E-11
       403  12  1.501736E+05 -3.304187E+04 -3.167894E+04 -1.472488E+04 -8.603897E-10 -3.102507E-10
       403  13  2.833683E+05  1.817701E+02  1.048515E+03 -1.478327E+04 -1.219439E-10  1.535109E-10
       403  14  2.833199E+05 -2.910498E+01  6.144361E+02 -3.958987E+03  2.656163E-11  3.256057E-10
       403  15  2.833699E+05  1.578858E+01  4.440651E+02 -1.478338E+04 -4.288593E-10  6.872017E-10
       403  16  4.718413E+05  4.691191E+04  4.630634E+04 -1.490569E+04  1.718694E-10  1.316959E-10
       403  17  4.441604E+05  3.986220E+04  3.929630E+04 -4.049624E+03  6.356562E-10 -4.695687E-10
       403  18  4.165824E+05  3.307215E+04  3.256580E+04 -1.484188E+04  2.381730E-10 -9.522854E-11
       403  19  9.492776E+04 -4.655091E+04 -4.421176E+04 -1.466088E+04 -1.262981E+03 -5.888260E+03
       403  20  1.225031E+05 -3.992227E+04 -3.806923E+04 -3.868365E+03 -9.769690E+02 -4.836901E+03
       403  21  1.501736E+05 -3.304185E+04 -3.167891E+04 -1.472488E+04 -6.905254E+02 -3.737911E+03
       403  22  2.833683E+05  1.818075E+02  1.048581E+03 -1.478327E+04 -7.697707E+02 -5.888448E+03
       403  23  2.833199E+05 -2.907980E+01  6.144804E+02 -3.958985E+03 -4.608005E+02 -4.837186E+03
       403  24  2.833699E+05  1.580360E+01  4.440914E+02 -1.478338E+04 -1.514108E+02 -3.738302E+03
       403  25  4.718414E+05  4.691194E+04  4.630640E+04 -1.490569E+04 -2.764117E+02 -5.888636E+03
       403  26  4.441604E+05  3.986222E+04  3.929635E+04 -4.049625E+03  5.550124E+01 -4.837472E+03
       403  27  4.165824E+05  3.307216E+04  3.256582E+04 -1.484189E+04  3.878190E+02 -3.738693E+03
       404   1  1.893824E+05 -2.325500E+04 -2.211241E+04 -1.469240E+04  5.980917E+02  3.091599E+03
       404   2  2.168563E+05 -1.649447E+04 -1.557401E+04 -3.943162E+03  3.899925E+02  1.998994E+03
       404   3  2.443353E+05 -9.654312E+03 -8.889409E+03 -1.472682E+04  1.817241E+02  9.041270E+02
       404   4  2.833517E+05  3.808261E+01  4.075834E+02 -1.475758E+04  7.397793E+01  3.092021E+03
       404   5  2.833495E+05 -6.413697E-01  4.199411E+02 -3.991198E+03 -1.352364E+02  1.999451E+03
       404   6  2.833523E+05  4.061514E+01  5.794089E+02 -1.475758E+04 -3.446107E+02  9.046222E+02
       404   7  3.773291E+05  2.333053E+04  2.292695E+04 -1.482276E+04 -4.502148E+02  3.092443E+03
       404   8  3.498467E+05  1.649287E+04  1.641357E+04 -4.039238E+03 -6.605213E+02  1.999909E+03
       404   9  3.223707E+05  9.735430E+03  1.004812E+04 -1.478833E+04 -8.709786E+02  9.051174E+02
       404  10  1.893824E+05 -2.325501E+04 -2.211243E+04 -1.469240E+04 -2.144524E-10  4.218019E-11
       404  11  2.168563E+05 -1.649448E+04 -1.557401E+04 -3.943162E+03 -3.469685E-10 -9.437160E-11
       404  12  2.443353E+05 -9.654313E+03 -8.889411E+03 -1.472682E+04 -6.552506E-10  6.643771E-12
       404  13  2.833517E+05  3.807234E+01  4.075655E+02 -1.475758E+04 -8.371605E-11 -5.295248E-10
       404  14  2.833495E+05 -6.456681E-01  4.199335E+02 -3.991197E+03  2.862847E-10  8.389371E-11
       404  15  2.833523E+05  4.061423E+01  5.794072E+02 -1.475758E+04 -1.396921E-10 -4.438407E-10
       404  16  3.773291E+05  2.333052E+04  2.292693E+04 -1.482276E+04  1.507223E-10  2.256490E-10
       404  17  3.498467E+05  1.649286E+04  1.641357E+04 -4.039237E+03  5.602222E-10 -2.026090E-10
       404  18  3.223707E+05  9.735429E+03  1.004812E+04 -1.478833E+04  2.235760E-10 -8.706288E-10
       404  19  1.893824E+05 -2.325500E+04 -2.211241E+04 -1.469240E+04 -5.980917E+02 -3.091599E+03
       404  20  2.168563E+05 -1.649447E+04 -1.557401E+04 -3.943162E+03 -3.899925E+02 -1.998994E+03
       404  21  2.443353E+05 -9.654312E+03 -8.889409E+03 -1.472682E+04 -1.817241E+02 -9.041270E+02
       404  22  2.833517E+05  3.808261E+01  4.075834E+02 -1.475758E+04 -7.397793E+01 -3.092021E+03
       404  23  2.833495E+05 -6.413697E-01  4.199411E+02 -3.991198E+03  1.352364E+02 -1.999451E+03
       404  24  2.833523E+05  4.061514E+01  5.794089E+02 -1.475758E+04  3.446107E+02 -9.046222E+02
       404  25  3.773291E+05  2.333053E+04  2.292695E+04 -1.482276E+04  4.502148E+02 -3.092443E+03
       404  26  3.498467E+05  1.649287E+04  1.641357E+04 -4.039238E+03  6.605213E+02 -1.999909E+03
       404  27  3.223707E+05  9.735430E+03  1.004812E+04 -1.478833E+04  8.709786E+02 -9.051174E+02
       405   1  2.834612E+05  6.089120E+01  8.221284E+02 -1.472459E+04  6.382251E+01  2.661731E+02
       405   2  3.108697E+05  6.810173E+03  7.794426E+03 -4.004298E+03 -5.204648E+02 -8.277077E+02
       405   3  3.383666E+05  1.379808E+04  1.519624E+04 -1.479727E+04 -1.104718E+03 -1.918869E+03
       405   4  2.833710E+05  2.177214E+01  7.163963E+02 -1.475331E+04 -4.623332E+02  2.666756E+02
       405   5  2.833272E+05 -2.139088E+01  1.169911E+03 -3.996577E+03 -1.045305E+03 -8.272225E+02
       405   6  2.833706E+05  1.738061E+02  2.051999E+03 -1.475316E+04 -1.628216E+03 -1.918399E+03
       405   7  2.832807E+05 -1.734676E+01  6.106652E+02 -1.478203E+04 -9.884888E+02  2.671781E+02
       405   8  2.557855E+05 -6.853010E+03 -5.454657E+03 -3.988855E+03 -1.570121E+03 -8.267374E+02
       405   9  2.283774E+05 -1.345069E+04 -1.109246E+04 -1.470906E+04 -2.151668E+03 -1.917928E+03
       405  10  2.834612E+05  6.089112E+01  8.221283E+02 -1.472459E+04 -7.074308E-10  7.069708E-10
       405  11  3.108697E+05  6.810172E+03  7.794424E+03 -4.004299E+03 -3.086566E-10  1.098345E-09
       405  12  3.383666E+05  1.379808E+04  1.519623E+04 -1.479727E+04  4.434022E-10 -8.907117E-10
       405  13  2.833710E+05  2.177201E+01  7.163958E+02 -1.475331E+04 -2.565858E-10  1.388064E-10
       405  14  2.833272E+05 -2.139191E+01  1.169908E+03 -3.996577E+03  8.350983E-10 -6.519820E-10
       405  15  2.833706E+05  1.738015E+02  2.051987E+03 -1.475317E+04 -4.076994E-10  9.814538E-11
       405  16  2.832807E+05 -1.734710E+01  6.106632E+02 -1.478202E+04  7.092594E-10 -2.746449E-11
       405  17  2.557855E+05 -6.853011E+03 -5.454663E+03 -3.988856E+03  7.012614E-10 -1.974753E-10
       405  18  2.283774E+05 -1.345069E+04 -1.109247E+04 -1.470907E+04 -7.023599E-10 -7.107938E-11
       405  19  2.834612E+05  6.089120E+01  8.221284E+02 -1.472459E+04 -6.382251E+01 -2.661731E+02
       405  20  3.108697E+05  6.810173E+03  7.794426E+03 -4.004298E+03  5.204648E+02  8.277077E+02
       405  21  3.383666E+05  1.379808E+04  1.519624E+04 -1.479727E+04  1.104718E+03  1.918869E+03
       405  22  2.833710E+05  2.177214E+01  7.163963E+02 -1.475331E+04  4.623332E+02 -2.666756E+02
       405  23  2.833272E+05 -2.139088E+01  1.169911E+03 -3.996577E+03  1.045305E+03  8.272225E+02
       405  24  2.833706E+05  1.738061E+02  2.051999E+03 -1.475316E+04  1.628216E+03  1.918399E+03
       405  25  2.832807E+05 -1.734676E+01  6.106652E+02 -1.478203E+04  9.884888E+02 -2.671781E+02
       405  26  2.557855E+05 -6.853010E+03 -5.454657E+03 -3.988855E+03  1.570121E+03  8.267374E+02
       405  27  2.283774E+05 -1.345069E+04 -1.109246E+04 -1.470906E+04  2.151668E+03  1.917928E+03
       406   1  3.776731E+05  2.332530E+04  2.538990E+04 -1.460856E+04 -1.515105E+03 -2.562948E+03
       406   2  4.048498E+05  2.995031E+04  3.381242E+04 -4.086131E+03 -3.818648E+03 -3.657769E+03
       406   3  4.327763E+05  3.847142E+04  4.420240E+04 -1.515178E+04 -6.121973E+03 -4.709412E+03
       406   4  2.835153E+05 -4.469883E+01  2.660660E+03 -1.477030E+04 -2.051959E+03 -2.562494E+03
       406   5  2.831416E+05 -2.362774E+02  4.541233E+03 -3.975558E+03 -4.334373E+03 -3.657400E+03
       406   6  2.835136E+05  1.464875E+03  8.374969E+03 -1.476914E+04 -6.616468E+03 -4.709124E+03
       406   7  1.893656E+05 -2.341534E+04 -2.006921E+04 -1.493201E+04 -2.588731E+03 -2.562039E+03
       406   8  1.614470E+05 -3.042394E+04 -2.473100E+04 -3.865004E+03 -4.849997E+03 -3.657031E+03
       406   9  1.342713E+05 -3.554328E+04 -2.745404E+04 -1.438660E+04 -7.110844E+03 -4.708836E+03
       406  10  3.776731E+05  2.332529E+04  2.538988E+04 -1.460857E+04 -2.095557E-10 -8.119446E-10
       406  11  4.048498E+05  2.995029E+04  3.381236E+04 -4.086142E+03 -5.481453E-10  6.072132E-11
       406  12  4.327762E+05  3.847138E+04  4.420229E+04 -1.515180E+04 -9.176481E-10  5.996991E-10
       406  13  2.835153E+05 -4.470701E+01  2.660640E+03 -1.477031E+04 -1.858916E-10  1.541774E-11
       406  14  2.831416E+05 -2.362968E+02  4.541173E+03 -3.975571E+03 -5.965179E-11 -4.305852E-10
       406  15  2.835135E+05  1.464840E+03  8.374845E+03 -1.476917E+04 -1.710392E-10 -8.911256E-11
       406  16  1.893656E+05 -2.341535E+04 -2.006924E+04 -1.493202E+04  5.176248E-10 -5.738435E-11
       406  17  1.614470E+05 -3.042396E+04 -2.473107E+04 -3.865018E+03  8.861713E-10  9.815172E-10
       406  18  1.342712E+05 -3.554332E+04 -2.745418E+04 -1.438663E+04  5.403033E-10  2.286885E-11
       406  19  3.776731E+05  2.332530E+04  2.538990E+04 -1.460856E+04  1.515105E+03  2.562948E+03
       406  20  4.048498E+05  2.995031E+04  3.381242E+04 -4.086131E+03  3.818648E+03  3.657769E+03
       406  21  4.327763E+05  3.847142E+04  4.420240E+04 -1.515178E+04  6.121973E+03  4.709412E+03
       406  22  2.835153E+05 -4.469883E+01  2.660660E+03 -1.477030E+04  2.051959E+03  2.562494E+03
       406  23  2.831416E+05 -2.362774E+02  4.541233E+03 -3.975558E+03  4.334373E+03  3.657400E+03
       406  24  2.835136E+05  1.464875E+03  8.374969E+03 -1.476914E+04  6.616468E+03  4.709124E+03
       406  25  1.893656E+05 -2.341534E+04 -2.006921E+04 -1.493201E+04  2.588731E+03  2.562039E+03
       406  26  1.614470E+05 -3.042394E+04 -2.473100E+04 -3.865004E+03  4.849997E+03  3.657031E+03
       406  27  1.342713E+05 -3.554328E+04 -2.745404E+04 -1.438660E+04  7.110844E+03  4.708836E+03
       407   1  4.732272E+05  4.614158E+04  5.613367E+04 -1.304508E+04 -7.643226E+03 -5.433707E+03
       407   2  4.982264E+05  5.156283E+04  6.994854E+04 -4.944686E+03 -1.712231E+04 -6.521762E+03
       407   3  5.287765E+05  7.413945E+04  9.422577E+04 -1.859070E+04 -2.660100E+04 -7.032414E+03
       407   4  2.845677E+05 -6.600669E+02  1.068954E+04 -1.480729E+04 -8.305621E+03 -5.433344E+03
       407   5  2.818132E+05 -2.109623E+03  1.791034E+04 -3.930713E+03 -1.750454E+04 -6.521733E+03
       407   6  2.845629E+05  1.355110E+04  3.540190E+04 -1.480093E+04 -2.670264E+04 -7.032714E+03
       407   7  9.594073E+04 -4.746429E+04 -3.475712E+04 -1.656897E+04 -8.967815E+03 -5.432977E+03
       407   8  6.544282E+04 -5.578548E+04 -3.413120E+04 -2.917089E+03 -1.788663E+04 -6.521706E+03
       407   9  4.040393E+04 -4.704154E+04 -2.342621E+04 -1.101264E+04 -2.680424E+04 -7.033015E+03
       407  10  4.732271E+05  4.614153E+04  5.613350E+04 -1.304511E+04 -1.996041E-10  5.362137E-10
       407  11  4.982261E+05  5.156271E+04  6.994791E+04 -4.944776E+03 -1.246474E-10 -8.134955E-10
       407  12  5.287757E+05  7.413921E+04  9.422435E+04 -1.859085E+04 -7.558819E-10  1.039433E-10
       407  13  2.845676E+05 -6.601171E+02  1.068935E+04 -1.480733E+04 -1.428527E-10  3.958175E-11
       407  14  2.818129E+05 -2.109751E+03  1.790968E+04 -3.930805E+03 -2.489314E-11  1.593003E-11
       407  15  2.845622E+05  1.355086E+04  3.540047E+04 -1.480108E+04 -1.899907E-11 -6.277767E-11
       407  16  9.594063E+04 -4.746435E+04 -3.475733E+04 -1.656901E+04 -4.244796E-11 -1.117184E-10
       407  17  6.544247E+04 -5.578562E+04 -3.413188E+04 -2.917183E+03  4.973524E-10  7.291220E-11
       407  18  4.040314E+04 -4.704179E+04 -2.342765E+04 -1.101279E+04  5.060018E-10 -6.224726E-11
       407  19  4.732272E+05  4.614158E+04  5.613367E+04 -1.304508E+04  7.643226E+03  5.433707E+03
       407  20  4.982264E+05  5.156283E+04  6.994854E+04 -4.944686E+03  1.712231E+04  6.521762E+03
       407  21  5.287765E+05  7.413945E+04  9.422577E+04 -1.859070E+04  2.660100E+04  7.032414E+03
       407  22  2.845677E+05 -6.600669E+02  1.068954E+04 -1.480729E+04  8.305621E+03  5.433344E+03
       407  23  2.818132E+05 -2.109623E+03  1.791034E+04 -3.930713E+03  1.750454E+04  6.521733E+03
       407  24  2.845629E+05  1.355110E+04  3.540190E+04 -1.480093E+04  2.670264E+04  7.032714E+03
       407  25  9.594073E+04 -4.746429E+04 -3.475712E+04 -1.656897E+04  8.967815E+03  5.432977E+03
       407  26  6.544282E+04 -5.578548E+04 -3.413120E+04 -2.917089E+03  1.788663E+04  6.521706E+03
       407  27  4.040393E+04 -4.704154E+04 -2.342621E+04 -1.101264E+04  2.680424E+04  7.033015E+03
       408   1  5.771556E+05  6.412193E+04  1.115772E+05  1.223449E+03 -3.124938E+04 -8.739246E+03
       408   2  5.830617E+05  5.850286E+04  1.439161E+05 -1.473551E+04 -7.209306E+04 -9.690553E+03
       408   3  6.335386E+05  2.094967E+05  2.420062E+05 -5.255346E+04 -1.129393E+05 -3.264536E+03
       408   4  2.931101E+05 -6.295823E+03  4.333877E+04 -1.483099E+04 -3.347288E+04 -8.738014E+03
       408   5  2.711142E+05 -1.884318E+04  6.900000E+04 -3.903965E+03 -7.075777E+04 -9.692265E+03
       408   6  2.930921E+05  1.246445E+05  1.579647E+05 -1.483403E+04 -1.080430E+05 -3.271091E+03
       408   7  9.138890E+03 -7.671847E+04 -2.490526E+04 -3.087806E+04 -3.569536E+04 -8.736667E+03
       408   8 -4.074411E+04 -9.619585E+04 -5.922981E+03  6.922123E+03 -6.942315E+04 -9.693930E+03
       408   9 -4.724605E+04  3.978896E+04  7.391546E+04  2.286472E+04 -1.031494E+05 -3.277055E+03
       408  10  5.771546E+05  6.412158E+04  1.115753E+05  1.223229E+03 -2.326846E-10  1.946457E-10
       408  11  5.830561E+05  5.850136E+04  1.439062E+05 -1.473607E+04  7.204983E-12 -4.373131E-10
       408  12  6.335249E+05  2.094933E+05  2.419822E+05 -5.255376E+04 -3.391819E-10 -1.929118E-10
       408  13  2.931089E+05 -6.296205E+03  4.333652E+04 -1.483123E+04  9.328723E-11 -2.855076E-10
       408  14  2.711088E+05 -1.884462E+04  6.899042E+04 -3.904517E+03 -2.700163E-11 -2.994985E-10
       408  15  2.930796E+05  1.246413E+05  1.579427E+05 -1.483431E+04 -7.135730E-11 -8.775985E-11
       408  16  9.137502E+03 -7.671889E+04 -2.490780E+04 -3.087831E+04  1.538716E-10 -2.928966E-10
       408  17 -4.074931E+04 -9.619725E+04 -5.932215E+03  6.921581E+03  1.493784E-11 -4.775372E-10
       408  18 -4.725748E+04  3.978609E+04  7.389545E+04  2.286445E+04  2.709156E-10 -1.960668E-10
       408  19  5.771556E+05  6.412193E+04  1.115772E+05  1.223449E+03  3.124938E+04  8.739246E+03
       408  20  5.830617E+05  5.850286E+04  1.439161E+05 -1.473551E+04  7.209306E+04  9.690553E+03
       408  21  6.335386E+05  2.094967E+05  2.420062E+05 -5.255346E+04  1.129393E+05  3.264536E+03
       408  22  2.931101E+05 -6.295823E+03  4.333877E+04 -1.483099E+04  3.347288E+04  8.738014E+03
       408  23  2.711142E+05 -1.884318E+04  6.900000E+04 -3.903965E+03  7.075777E+04  9.692265E+03
       408  24  2.930921E+05  1.246445E+05  1.579647E+05 -1.483403E+04  1.080430E+05  3.271091E+03
       408  25  9.138890E+03 -7.671847E+04 -2.490526E+04 -3.087806E+04  3.569536E+04  8.736667E+03
       408  26 -4.074411E+04 -9.619585E+04 -5.922981E+03  6.922123E+03  6.942315E+04  9.693930E+03
       408  27 -4.724605E+04  3.978896E+04  7.391546E+04  2.286472E+04  1.031494E+05  3.277055E+03
       409   1 -1.083419E+06 -9.129759E+04 -1.215944E+05 -3.111638E+04 -9.642405E+04 -8.456219E+02
       409   2 -1.069763E+06  3.689043E+04 -4.317488E+04 -9.184120E+03 -6.359628E+04 -2.504128E+03
       409   3 -1.095650E+06  2.405778E+04 -2.140415E+04  1.751699E+04 -3.076959E+04 -2.292963E+03
       409   4 -1.169592E+06 -1.128021E+05 -1.429020E+05  2.961036E+03 -9.765851E+04 -8.511714E+02
       409   5 -1.149706E+06  1.704137E+04 -6.240670E+04  5.644403E+02 -6.393991E+04 -2.505234E+03
       409   6 -1.169526E+06  5.697237E+03 -3.918539E+04  2.936177E+03 -3.022200E+04 -2.292096E+03
       409   7 -1.255756E+06 -1.343028E+05 -1.642096E+05  3.703371E+04 -9.889279E+04 -8.568572E+02
       409   8 -1.229644E+06 -2.807807E+03 -8.163893E+04  1.031174E+04 -6.428349E+04 -2.506351E+03
       409   9 -1.243397E+06 -1.266291E+04 -5.696691E+04 -1.164289E+04 -2.967448E+04 -2.291256E+03
       409  10 -1.083429E+06 -9.130009E+04 -1.216119E+05 -3.111645E+04  6.791294E-11  3.862832E-11
       409  11 -1.069767E+06  3.688933E+04 -4.318251E+04 -9.184248E+03  4.290262E-10 -5.852065E-10
       409  12 -1.095651E+06  2.405752E+04 -2.140594E+04  1.751693E+04  7.404525E-11  1.065671E-10
       409  13 -1.169603E+06 -1.128047E+05 -1.429200E+05  2.960969E+03 -1.345343E-10 -2.151541E-10
       409  14 -1.149711E+06  1.704026E+04 -6.241441E+04  5.643112E+02  5.580344E-10 -7.304776E-10
       409  15 -1.169527E+06  5.696986E+03 -3.918712E+04  2.936121E+03  2.722111E-11 -1.421100E-10
       409  16 -1.255767E+06 -1.343055E+05 -1.642280E+05  3.703364E+04 -1.246418E-10  2.467020E-11
       409  17 -1.229649E+06 -2.808926E+03 -8.164672E+04  1.031161E+04 -2.359066E-11 -3.098348E-10
       409  18 -1.243398E+06 -1.266315E+04 -5.696858E+04 -1.164295E+04  8.260078E-11 -4.866936E-11
       409  19 -1.083419E+06 -9.129759E+04 -1.215944E+05 -3.111638E+04  9.642405E+04  8.456219E+02
       409  20 -1.069763E+06  3.689043E+04 -4.317488E+04 -9.184120E+03  6.359628E+04  2.504128E+03
       409  21 -1.095650E+06  2.405778E+04 -2.140415E+04  1.751699E+04  3.076959E+04  2.292963E+03
       409  22 -1.169592E+06 -1.128021E+05 -1.429020E+05  2.961036E+03  9.765851E+04  8.511714E+02
       409  23 -1.149706E+06  1.704137E+04 -6.240670E+04  5.644403E+02  6.393991E+04  2.505234E+03
       409  24 -1.169526E+06  5.697237E+03 -3.918539E+04  2.936177E+03  3.022200E+04  2.292096E+03
       409  25 -1.255756E+06 -1.343028E+05 -1.642096E+05  3.703371E+04  9.889279E+04  8.568572E+02
       409  26 -1.229644E+06 -2.807807E+03 -8.163893E+04  1.031174E+04  6.428349E+04  2.506351E+03
       409  27 -1.243397E+06 -1.266291E+04 -5.696691E+04 -1.164289E+04  2.967448E+04  2.291256E+03
       410   1 -1.096963E+06  3.846109E+03 -1.636288E+04 -3.270818E+02 -2.412671E+04 -1.878087E+03
       410   2 -1.100979E+06  1.640201E+04 -2.137724E+03 -3.523195E+02 -1.588620E+04 -1.769710E+03
       410   3 -1.109934E+06  1.350777E+04  2.853423E+03  4.709940E+03 -7.645916E+03 -1.508731E+03
       410   4 -1.161818E+06 -1.226857E+04 -3.201220E+04  3.018336E+03 -2.411086E+04 -1.878226E+03
       410   5 -1.159337E+06  1.905286E+03 -1.619413E+04  4.723986E+02 -1.579801E+04 -1.769711E+03
       410   6 -1.161807E+06  6.155407E+02 -9.661107E+03  3.014056E+03 -7.485318E+03 -1.508656E+03
       410   7 -1.226670E+06 -2.838351E+04 -4.766182E+04  6.363402E+03 -2.409501E+04 -1.878365E+03
       410   8 -1.217691E+06 -1.259168E+04 -3.025078E+04  1.297038E+03 -1.570984E+04 -1.769712E+03
       410   9 -1.213678E+06 -1.227687E+04 -2.217583E+04  1.318315E+03 -7.324733E+03 -1.508581E+03
       410  10 -1.096963E+06  3.845948E+03 -1.636398E+04 -3.271183E+02  5.134453E-10  9.903225E-11
       410  11 -1.100979E+06  1.640193E+04 -2.138205E+03 -3.523421E+02  1.268073E-10  2.543910E-10
       410  12 -1.109934E+06  1.350775E+04  2.853308E+03  4.709931E+03  6.494711E-10 -4.844257E-10
       410  13 -1.161819E+06 -1.226873E+04 -3.201330E+04  3.018300E+03  1.177166E-10  8.805684E-11
       410  14 -1.159337E+06  1.905215E+03 -1.619461E+04  4.723761E+02 -1.884617E-10 -3.884318E-10
       410  15 -1.161807E+06  6.155231E+02 -9.661217E+03  3.014047E+03  1.361015E-10 -5.919311E-10
       410  16 -1.226670E+06 -2.838367E+04 -4.766292E+04  6.363366E+03 -6.617210E-10  1.562089E-10
       410  17 -1.217691E+06 -1.259175E+04 -3.025125E+04  1.297016E+03 -1.731231E-10 -4.064075E-10
       410  18 -1.213678E+06 -1.227689E+04 -2.217593E+04  1.318306E+03 -5.022773E-10 -2.089848E-10
       410  19 -1.096963E+06  3.846109E+03 -1.636288E+04 -3.270818E+02  2.412671E+04  1.878087E+03
       410  20 -1.100979E+06  1.640201E+04 -2.137724E+03 -3.523195E+02  1.588620E+04  1.769710E+03
       410  21 -1.109934E+06  1.350777E+04  2.853423E+03  4.709940E+03  7.645916E+03  1.508731E+03
       410  22 -1.161818E+06 -1.226857E+04 -3.201220E+04  3.018336E+03  2.411086E+04  1.878226E+03
       410  23 -1.159337E+06  1.905286E+03 -1.619413E+04  4.723986E+02  1.579801E+04  1.769711E+03
       410  24 -1.161807E+06  6.155407E+02 -9.661107E+03  3.014056E+03  7.485318E+03  1.508656E+03
       410  25 -1.226670E+06 -2.838351E+04 -4.766182E+04  6.363402E+03  2.409501E+04  1.878365E+03
       410  26 -1.217691E+06 -1.259168E+04 -3.025078E+04  1.297038E+03  1.570984E+04  1.769712E+03
       410  27 -1.213678E+06 -1.227687E+04 -2.217583E+04  1.318315E+03  7.324733E+03  1.508581E+03
       411   1 -1.118451E+06  9.220809E+03  2.626728E+03  2.800100E+03 -6.080099E+03 -1.332888E+03
       411   2 -1.124843E+06  9.079692E+03  4.479588E+03  3.930872E+02 -4.021750E+03 -1.076594E+03
       411   3 -1.131927E+06  7.259356E+03  4.569872E+03  3.273178E+03 -1.963414E+03 -8.053813E+02
       411   4 -1.160862E+06 -1.312039E+03 -7.573773E+03  3.060170E+03 -5.960964E+03 -1.332847E+03
       411   5 -1.160514E+06  2.176979E+02 -4.113735E+03  4.163188E+02 -3.895593E+03 -1.076544E+03
       411   6 -1.160860E+06  6.695461E+01 -2.421227E+03  3.059589E+03 -1.830213E+03 -8.053223E+02
       411   7 -1.203272E+06 -1.184502E+04 -1.777440E+04  3.320222E+03 -5.841836E+03 -1.332807E+03
       411   8 -1.196184E+06 -8.644389E+03 -1.270715E+04  4.395490E+02 -3.769442E+03 -1.076493E+03
       411   9 -1.189792E+06 -7.125508E+03 -9.412385E+03  2.846011E+03 -1.697017E+03 -8.052634E+02
       411  10 -1.118451E+06  9.220797E+03  2.626655E+03  2.800093E+03  3.806095E-10  2.448526E-11
       411  11 -1.124843E+06  9.079687E+03  4.479556E+03  3.930837E+02  2.276316E-10 -1.612563E-10
       411  12 -1.131927E+06  7.259354E+03  4.569863E+03  3.273177E+03  6.281150E-10 -3.084639E-10
       411  13 -1.160862E+06 -1.312051E+03 -7.573844E+03  3.060164E+03  3.375304E-11 -4.560772E-10
       411  14 -1.160514E+06  2.176925E+02 -4.113766E+03  4.163154E+02 -4.897829E-10  2.061379E-10
       411  15 -1.160860E+06  6.695301E+01 -2.421234E+03  3.059588E+03  1.105379E-10 -1.401823E-10
       411  16 -1.203272E+06 -1.184503E+04 -1.777447E+04  3.320216E+03 -3.992154E-10 -2.667628E-10
       411  17 -1.196184E+06 -8.644395E+03 -1.270718E+04  4.395457E+02 -5.101943E-10 -3.062533E-10
       411  18 -1.189792E+06 -7.125510E+03 -9.412392E+03  2.846009E+03  8.383594E-11 -7.802163E-10
       411  19 -1.118451E+06  9.220809E+03  2.626728E+03  2.800100E+03  6.080099E+03  1.332888E+03
       411  20 -1.124843E+06  9.079692E+03  4.479588E+03  3.930872E+02  4.021750E+03  1.076594E+03
       411  21 -1.131927E+06  7.259356E+03  4.569872E+03  3.273178E+03  1.963414E+03  8.053813E+02
       411  22 -1.160862E+06 -1.312039E+03 -7.573773E+03  3.060170E+03  5.960964E+03  1.332847E+03
       411  23 -1.160514E+06  2.176979E+02 -4.113735E+03  4.163188E+02  3.895593E+03  1.076544E+03
       411  24 -1.160860E+06  6.695461E+01 -2.421227E+03  3.059589E+03  1.830213E+03  8.053223E+02
       411  25 -1.203272E+06 -1.184502E+04 -1.777440E+04  3.320222E+03  5.841836E+03  1.332807E+03
       411  26 -1.196184E+06 -8.644389E+03 -1.270715E+04  4.395490E+02  3.769442E+03  1.076493E+03
       411  27 -1.189792E+06 -7.125508E+03 -9.412385E+03  2.846011E+03  1.697017E+03  8.052634E+02
       412   1 -1.141534E+06  4.633051E+03  2.725162E+03  3.081544E+03 -1.574952E+03 -6.447880E+02
       412   2 -1.148340E+06  3.091020E+03  1.868482E+03  4.018892E+02 -1.028035E+03 -3.719045E+02
       412   3 -1.155269E+06  1.367323E+03  6.085226E+02  3.109706E+03 -4.811330E+02 -9.704660E+01
       412   4 -1.160733E+06 -1.324874E+02 -1.879371E+03  3.082120E+03 -1.444718E+03 -6.447288E+02
       412   5 -1.160671E+06  2.752577E+01 -1.102148E+03  3.883478E+02 -8.968720E+02 -3.718432E+02
       412   6 -1.160733E+06  5.710738E+00 -7.288608E+02  3.082054E+03 -3.490336E+02 -9.698308E+01
       412   7 -1.179931E+06 -4.898053E+03 -6.483930E+03  3.082696E+03 -1.314489E+03 -6.446695E+02
       412   8 -1.173002E+06 -3.035979E+03 -4.072789E+03  3.748066E+02 -7.657111E+02 -3.717818E+02
       412   9 -1.166196E+06 -1.355904E+03 -2.066246E+03  3.054402E+03 -2.169352E+02 -9.691958E+01
       412  10 -1.141534E+06  4.633050E+03  2.725156E+03  3.081543E+03  3.363158E-10 -2.499154E-10
       412  11 -1.148340E+06  3.091019E+03  1.868480E+03  4.018889E+02  8.590055E-10 -2.798656E-10
       412  12 -1.155269E+06  1.367323E+03  6.085222E+02  3.109706E+03  1.159943E-09 -3.818250E-10
       412  13 -1.160733E+06 -1.324885E+02 -1.879376E+03  3.082119E+03  4.700967E-10 -4.571950E-10
       412  14 -1.160671E+06  2.752540E+01 -1.102150E+03  3.883475E+02 -3.935209E-10  7.064163E-10
       412  15 -1.160733E+06  5.710695E+00 -7.288610E+02  3.082054E+03 -2.451837E-10  2.635496E-10
       412  16 -1.179931E+06 -4.898054E+03 -6.483934E+03  3.082695E+03 -4.920780E-10  4.929841E-10
       412  17 -1.173002E+06 -3.035979E+03 -4.072790E+03  3.748063E+02 -6.905079E-10  7.722290E-10
       412  18 -1.166196E+06 -1.355904E+03 -2.066246E+03  3.054402E+03 -1.121389E-09  5.056160E-10
       412  19 -1.141534E+06  4.633051E+03  2.725162E+03  3.081544E+03  1.574952E+03  6.447880E+02
       412  20 -1.148340E+06  3.091020E+03  1.868482E+03  4.018892E+02  1.028035E+03  3.719045E+02
       412  21 -1.155269E+06  1.367323E+03  6.085226E+02  3.109706E+03  4.811330E+02  9.704660E+01
       412  22 -1.160733E+06 -1.324874E+02 -1.879371E+03  3.082120E+03  1.444718E+03  6.447288E+02
       412  23 -1.160671E+06  2.752577E+01 -1.102148E+03  3.883478E+02  8.968720E+02  3.718432E+02
       412  24 -1.160733E+06  5.710738E+00 -7.288608E+02  3.082054E+03  3.490336E+02  9.698308E+01
       412  25 -1.179931E+06 -4.898053E+03 -6.483930E+03  3.082696E+03  1.314489E+03  6.446695E+02
       412  26 -1.173002E+06 -3.035979E+03 -4.072789E+03  3.748066E+02  7.657111E+02  3.717818E+02
       412  27 -1.166196E+06 -1.355904E+03 -2.066246E+03  3.054402E+03  2.169352E+02  9.691958E+01
       413   1 -1.165083E+06 -1.096030E+03 -1.703590E+03  3.077993E+03 -3.585794E+02  6.356873E+01
       413   2 -1.171924E+06 -2.779294E+03 -3.274093E+03  3.852251E+02 -7.611603E+01  3.383762E+02
       413   3 -1.178824E+06 -4.531833E+03 -5.047372E+03  3.082333E+03  2.063477E+02  6.113149E+02
       413   4 -1.160719E+06 -7.435731E+00 -6.309348E+02  3.082603E+03 -2.264757E+02  6.363228E+01
       413   5 -1.160689E+06  1.192768E+01 -5.674739E+02  3.876764E+02  5.509346E+01  3.384377E+02
       413   6 -1.160719E+06 -3.784996E+01 -7.061897E+02  3.082619E+03  3.366661E+02  6.113746E+02
       413   7 -1.156354E+06  1.081157E+03  4.417195E+02  3.087214E+03 -9.437105E+01  6.369583E+01
       413   8 -1.149454E+06  2.803140E+03  2.139136E+03  3.901277E+02  1.863053E+02  3.384992E+02
       413   9 -1.142613E+06  4.456109E+03  3.634969E+03  3.082905E+03  4.669883E+02  6.114343E+02
       413  10 -1.165083E+06 -1.096030E+03 -1.703591E+03  3.077993E+03  2.473675E-10 -1.851543E-10
       413  11 -1.171924E+06 -2.779294E+03 -3.274093E+03  3.852251E+02  1.877707E-11  4.697251E-11
       413  12 -1.178824E+06 -4.531833E+03 -5.047373E+03  3.082333E+03  5.642898E-10 -6.940820E-11
       413  13 -1.160719E+06 -7.435749E+00 -6.309349E+02  3.082603E+03  3.524950E-10 -5.279445E-10
       413  14 -1.160689E+06  1.192756E+01 -5.674741E+02  3.876763E+02 -1.007622E-10 -3.927466E-10
       413  15 -1.160719E+06 -3.785039E+01 -7.061906E+02  3.082619E+03 -6.153377E-10  6.612374E-10
       413  16 -1.156354E+06  1.081157E+03  4.417195E+02  3.087214E+03 -3.084488E-10 -5.763071E-11
       413  17 -1.149454E+06  2.803140E+03  2.139136E+03  3.901276E+02 -6.016306E-11 -3.487695E-10
       413  18 -1.142613E+06  4.456108E+03  3.634968E+03  3.082904E+03 -5.632524E-10  2.707480E-10
       413  19 -1.165083E+06 -1.096030E+03 -1.703590E+03  3.077993E+03  3.585794E+02 -6.356873E+01
       413  20 -1.171924E+06 -2.779294E+03 -3.274093E+03  3.852251E+02  7.611603E+01 -3.383762E+02
       413  21 -1.178824E+06 -4.531833E+03 -5.047372E+03  3.082333E+03 -2.063477E+02 -6.113149E+02
       413  22 -1.160719E+06 -7.435731E+00 -6.309348E+02  3.082603E+03  2.264757E+02 -6.363228E+01
       413  23 -1.160689E+06  1.192768E+01 -5.674739E+02  3.876764E+02 -5.509346E+01 -3.384377E+02
       413  24 -1.160719E+06 -3.784996E+01 -7.061897E+02  3.082619E+03 -3.366661E+02 -6.113746E+02
       413  25 -1.156354E+06  1.081157E+03  4.417195E+02  3.087214E+03  9.437105E+01 -6.369583E+01
       413  26 -1.149454E+06  2.803140E+03  2.139136E+03  3.901277E+02 -1.863053E+02 -3.384992E+02
       413  27 -1.142613E+06  4.456109E+03  3.634969E+03  3.082905E+03 -4.669883E+02 -6.114343E+02
       414   1 -1.188601E+06 -6.900945E+03 -7.569106E+03  2.991112E+03  3.420843E+02  7.719258E+02
       414   2 -1.195240E+06 -8.527684E+03 -9.646437E+03  4.153328E+02  1.007350E+03  1.042888E+03
       414   3 -1.202098E+06 -1.066672E+04 -1.228652E+04  3.132369E+03  1.672644E+03  1.299193E+03
       414   4 -1.160754E+06  2.185184E+01 -8.393080E+02  3.060980E+03  4.753419E+02  7.719846E+02
       414   5 -1.160645E+06  6.713773E+01 -1.312216E+03  4.146714E+02  1.133615E+03  1.042939E+03
       414   6 -1.160755E+06 -3.986126E+02 -2.342962E+03  3.061160E+03  1.791925E+03  1.299237E+03
       414   7 -1.132906E+06  6.944592E+03  5.890434E+03  3.130850E+03  6.086055E+02  7.720435E+02
       414   8 -1.126050E+06  8.661872E+03  7.021919E+03  4.140098E+02  1.259888E+03  1.042990E+03
       414   9 -1.119410E+06  9.869373E+03  7.600476E+03  2.989946E+03  1.911213E+03  1.299280E+03
       414  10 -1.188601E+06 -6.900946E+03 -7.569107E+03  2.991112E+03  9.316822E-10 -6.019825E-10
       414  11 -1.195240E+06 -8.527686E+03 -9.646441E+03  4.153319E+02  5.282156E-11  2.804545E-10
       414  12 -1.202098E+06 -1.066673E+04 -1.228653E+04  3.132367E+03  7.829449E-10 -2.830997E-10
       414  13 -1.160754E+06  2.185114E+01 -8.393095E+02  3.060979E+03 -6.213966E-10  3.882183E-10
       414  14 -1.160645E+06  6.713622E+01 -1.312221E+03  4.146704E+02 -1.028850E-09  8.301654E-10
       414  15 -1.160755E+06 -3.986153E+02 -2.342971E+03  3.061158E+03  2.016559E-10 -2.894157E-10
       414  16 -1.132906E+06  6.944591E+03  5.890432E+03  3.130849E+03 -4.338372E-10 -8.955726E-11
       414  17 -1.126050E+06  8.661871E+03  7.021914E+03  4.140087E+02 -1.262275E-09  8.327231E-10
       414  18 -1.119410E+06  9.869370E+03  7.600466E+03  2.989944E+03 -8.369313E-10  2.042237E-10
       414  19 -1.188601E+06 -6.900945E+03 -7.569106E+03  2.991112E+03 -3.420843E+02 -7.719258E+02
       414  20 -1.195240E+06 -8.527684E+03 -9.646437E+03  4.153328E+02 -1.007350E+03 -1.042888E+03
       414  21 -1.202098E+06 -1.066672E+04 -1.228652E+04  3.132369E+03 -1.672644E+03 -1.299193E+03
       414  22 -1.160754E+06  2.185184E+01 -8.393080E+02  3.060980E+03 -4.753419E+02 -7.719846E+02
       414  23 -1.160645E+06  6.713773E+01 -1.312216E+03  4.146714E+02 -1.133615E+03 -1.042939E+03
       414  24 -1.160755E+06 -3.986126E+02 -2.342962E+03  3.061160E+03 -1.791925E+03 -1.299237E+03
       414  25 -1.132906E+06  6.944592E+03  5.890434E+03  3.130850E+03 -6.086055E+02 -7.720435E+02
       414  26 -1.126050E+06  8.661872E+03  7.021919E+03  4.140098E+02 -1.259888E+03 -1.042990E+03
       414  27 -1.119410E+06  9.869373E+03  7.600476E+03  2.989946E+03 -1.911213E+03 -1.299280E+03
       415   1 -1.211863E+06 -1.244102E+04 -1.523310E+04  2.489992E+03  2.101760E+03  1.474686E+03
       415   2 -1.217606E+06 -1.365891E+04 -1.876072E+04  7.103206E+02  4.716115E+03  1.734471E+03
       415   3 -1.224873E+06 -1.960336E+04 -2.517466E+04  4.028230E+03  7.330519E+03  1.843709E+03
       415   4 -1.161042E+06  1.894770E+02 -2.971462E+03  3.017227E+03  2.261992E+03  1.474744E+03
       415   5 -1.160288E+06  5.810633E+02 -4.953722E+03  4.691107E+02  4.804400E+03  1.734490E+03
       415   6 -1.161045E+06 -3.741138E+03 -9.772066E+03  3.018553E+03  7.346884E+03  1.843690E+03
       415   7 -1.110218E+06  1.281978E+04  9.289989E+03  3.544505E+03  2.422237E+03  1.474801E+03
       415   8 -1.102967E+06  1.482080E+04  8.853042E+03  2.278781E+02  4.892694E+03  1.734509E+03
       415   9 -1.097214E+06  1.212079E+04  5.630240E+03  2.008772E+03  7.363251E+03  1.843671E+03
       415  10 -1.211863E+06 -1.244102E+04 -1.523311E+04  2.489989E+03  2.140773E-10  3.395895E-11
       415  11 -1.217606E+06 -1.365892E+04 -1.876077E+04  7.103140E+02  4.647889E-11 -6.863809E-11
       415  12 -1.224873E+06 -1.960338E+04 -2.517477E+04  4.028219E+03  1.590715E-10  1.253395E-10
       415  13 -1.161042E+06  1.894733E+02 -2.971476E+03  3.017224E+03  1.691259E-11 -2.310079E-10
       415  14 -1.160288E+06  5.810539E+02 -4.953771E+03  4.691040E+02 -4.508483E-10  4.805315E-11
       415  15 -1.161045E+06 -3.741157E+03 -9.772174E+03  3.018542E+03  2.079745E-10  6.443693E-11
       415  16 -1.110218E+06  1.281978E+04  9.289974E+03  3.544502E+03 -6.036782E-10 -1.601358E-10
       415  17 -1.102967E+06  1.482079E+04  8.852991E+03  2.278713E+02 -2.689364E-10 -3.055614E-10
       415  18 -1.097214E+06  1.212077E+04  5.630132E+03  2.008761E+03  3.703658E-11  3.232103E-10
       415  19 -1.211863E+06 -1.244102E+04 -1.523310E+04  2.489992E+03 -2.101760E+03 -1.474686E+03
       415  20 -1.217606E+06 -1.365891E+04 -1.876072E+04  7.103206E+02 -4.716115E+03 -1.734471E+03
       415  21 -1.224873E+06 -1.960336E+04 -2.517466E+04  4.028230E+03 -7.330519E+03 -1.843709E+03
       415  22 -1.161042E+06  1.894770E+02 -2.971462E+03  3.017227E+03 -2.261992E+03 -1.474744E+03
       415  23 -1.160288E+06  5.810633E+02 -4.953722E+03  4.691107E+02 -4.804400E+03 -1.734490E+03
       415  24 -1.161045E+06 -3.741138E+03 -9.772066E+03  3.018553E+03 -7.346884E+03 -1.843690E+03
       415  25 -1.110218E+06  1.281978E+04  9.289989E+03  3.544505E+03 -2.422237E+03 -1.474801E+03
       415  26 -1.102967E+06  1.482080E+04  8.853042E+03  2.278781E+02 -4.892694E+03 -1.734509E+03
       415  27 -1.097214E+06  1.212079E+04  5.630240E+03  2.008772E+03 -7.363251E+03 -1.843671E+03
       416   1 -1.236272E+06 -1.636744E+04 -2.949858E+04 -1.515050E+03  8.670064E+03  2.254019E+03
       416   2 -1.236310E+06 -1.441322E+04 -3.803672E+04  3.522980E+03  1.983876E+04  2.464127E+03
       416   3 -1.248610E+06 -5.567533E+04 -6.465995E+04  1.333411E+04  3.100758E+04  8.292980E+02
       416   4 -1.163396E+06  1.738607E+03 -1.195792E+04  2.942997E+03  9.212076E+03  2.254226E+03
       416   5 -1.157353E+06  5.196901E+03 -1.903969E+04  5.602470E+02  1.949757E+04  2.463927E+03
       416   6 -1.163417E+06 -3.440484E+04 -4.359082E+04  2.950811E+03  2.978333E+04  8.285257E+02
       416   7 -1.090514E+06  1.984434E+04  5.582384E+03  7.401569E+03  9.754151E+03  2.254441E+03
       416   8 -1.078390E+06  2.480660E+04 -4.311293E+01 -2.402866E+03  1.915633E+04  2.463729E+03
       416   9 -1.078216E+06 -1.313449E+04 -2.252217E+04 -7.433912E+03  2.855891E+04  8.277946E+02
       416  10 -1.236272E+06 -1.636747E+04 -2.949874E+04 -1.515066E+03  3.358441E-10  2.037552E-10
       416  11 -1.236310E+06 -1.441333E+04 -3.803747E+04  3.522941E+03  7.462369E-11  2.563346E-10
       416  12 -1.248611E+06 -5.567559E+04 -6.466177E+04  1.333408E+04  1.648151E-11  2.000410E-10
       416  13 -1.163396E+06  1.738578E+03 -1.195809E+04  2.942980E+03  8.178955E-10 -2.584493E-10
       416  14 -1.157353E+06  5.196792E+03 -1.904042E+04  5.602083E+02 -1.395293E-10  3.917427E-10
       416  15 -1.163418E+06 -3.440508E+04 -4.359249E+04  2.950792E+03  1.211989E-10  6.872481E-12
       416  16 -1.090514E+06  1.984431E+04  5.582196E+03  7.401551E+03 -8.928259E-11  4.672005E-10
       416  17 -1.078390E+06  2.480650E+04 -4.381513E+01 -2.402904E+03  9.657257E-11  2.568691E-10
       416  18 -1.078217E+06 -1.313471E+04 -2.252370E+04 -7.433931E+03 -3.751981E-10  2.496093E-10
       416  19 -1.236272E+06 -1.636744E+04 -2.949858E+04 -1.515050E+03 -8.670064E+03 -2.254019E+03
       416  20 -1.236310E+06 -1.441322E+04 -3.803672E+04  3.522980E+03 -1.983876E+04 -2.464127E+03
       416  21 -1.248610E+06 -5.567533E+04 -6.465995E+04  1.333411E+04 -3.100758E+04 -8.292980E+02
       416  22 -1.163396E+06  1.738607E+03 -1.195792E+04  2.942997E+03 -9.212076E+03 -2.254226E+03
       416  23 -1.157353E+06  5.196901E+03 -1.903969E+04  5.602470E+02 -1.949757E+04 -2.463927E+03
       416  24 -1.163417E+06 -3.440484E+04 -4.359082E+04  2.950811E+03 -2.978333E+04 -8.285257E+02
       416  25 -1.090514E+06  1.984434E+04  5.582384E+03  7.401569E+03 -9.754151E+03 -2.254441E+03
       416  26 -1.078390E+06  2.480660E+04 -4.311293E+01 -2.402866E+03 -1.915633E+04 -2.463729E+03
       416  27 -1.078216E+06 -1.313449E+04 -2.252217E+04 -7.433912E+03 -2.855891E+04 -8.277946E+02
       417   1  2.991214E+06  6.412221E+05  8.111577E+05  1.905800E+05  5.516821E+05 -1.044354E+01
       417   2  2.885006E+06 -8.802769E+04  3.592672E+05  5.511797E+04  3.613442E+05 -8.407558E+02
       417   3  3.001809E+06 -2.326293E+04  2.295056E+05 -8.420788E+04  1.709916E+05 -1.137002E+03
       417   4  2.965152E+06  6.346008E+05  8.047349E+05 -2.066605E+03  5.512396E+05 -1.809392E+02
       417   5  2.854124E+06 -9.569736E+04  3.518621E+05 -6.050272E+01  3.611253E+05 -8.727739E+02
       417   6  2.966036E+06 -3.207048E+04  2.209619E+05 -1.939979E+03  1.709976E+05 -1.114449E+03
       417   7  2.939170E+06  6.281183E+05  7.983318E+05 -1.947052E+05  5.507972E+05 -3.511677E+02
       417   8  2.823250E+06 -1.033557E+05  3.444586E+05 -5.523623E+04  3.609064E+05 -9.047546E+02
       417   9  2.930279E+06 -4.085281E+04  2.124217E+05  8.032318E+04  1.710036E+05 -1.091893E+03
       417  10  2.990888E+06  6.411408E+05  8.105885E+05  1.905801E+05  1.829937E-10 -3.869867E-10
       417  11  2.884866E+06 -8.806253E+04  3.590230E+05  5.511822E+04  1.567294E-09 -1.642318E-10
       417  12  3.001778E+06 -2.327073E+04  2.294509E+05 -8.420772E+04 -1.570510E-09 -3.056261E-10
       417  13  2.964827E+06  6.345197E+05  8.041665E+05 -2.066525E+03  1.000159E-09 -9.350668E-11
       417  14  2.853985E+06 -9.573216E+04  3.516182E+05 -6.024923E+01  9.026596E-10 -5.728064E-10
       417  15  2.966005E+06 -3.207829E+04  2.209072E+05 -1.939826E+03 -1.212493E-09 -3.298119E-10
       417  16  2.938845E+06  6.280373E+05  7.977643E+05 -1.947050E+05  2.978728E-10 -3.839557E-10
       417  17  2.823111E+06 -1.033905E+05  3.442149E+05 -5.523597E+04  8.573904E-10 -7.277227E-10
       417  18  2.930248E+06 -4.086061E+04  2.123670E+05  8.032333E+04  2.604311E-09  8.198301E-10
       417  19  2.991214E+06  6.412221E+05  8.111577E+05  1.905800E+05 -5.516821E+05  1.044354E+01
       417  20  2.885006E+06 -8.802769E+04  3.592672E+05  5.511797E+04 -3.613442E+05  8.407558E+02
       417  21  3.001809E+06 -2.326293E+04  2.295056E+05 -8.420788E+04 -1.709916E+05  1.137002E+03
       417  22  2.965152E+06  6.346008E+05  8.047349E+05 -2.066605E+03 -5.512396E+05  1.809392E+02
       417  23  2.854124E+06 -9.569736E+04  3.518621E+05 -6.050272E+01 -3.611253E+05  8.727739E+02
       417  24  2.966036E+06 -3.207048E+04  2.209619E+05 -1.939979E+03 -1.709976E+05  1.114449E+03
       417  25  2.939170E+06  6.281183E+05  7.983318E+05 -1.947052E+05 -5.507972E+05  3.511677E+02
       417  26  2.823250E+06 -1.033557E+05  3.444586E+05 -5.523623E+04 -3.609064E+05  9.047546E+02
       417  27  2.930279E+06 -4.085281E+04  2.124217E+05  8.032318E+04 -1.710036E+05  1.091893E+03
       418   1  2.965358E+06  7.958453E+04  1.908505E+05  1.691058E+04  1.365271E+05 -1.166264E+03
       418   2  2.956891E+06  1.249397E+03  1.030556E+05  4.795477E+03  8.950575E+04 -1.423298E+03
       418   3  2.976223E+06  9.801191E+03  6.749929E+04 -1.151994E+04  4.248573E+04 -1.655593E+03
       418   4  2.922450E+06  6.895633E+04  1.805327E+05 -2.062896E+03  1.363980E+05 -1.170452E+03
       418   5  2.908625E+06 -1.069059E+04  9.148055E+04  4.608588E+01  8.939022E+04 -1.424016E+03
       418   6  2.922598E+06 -3.450220E+03  5.465964E+04 -2.045010E+03  4.238426E+04 -1.654986E+03
       418   7  2.879545E+06  5.832934E+04  1.702150E+05 -2.103506E+04  1.362688E+05 -1.174631E+03
       418   8  2.860362E+06 -2.263066E+04  7.990537E+04 -4.702937E+03  8.927471E+04 -1.424733E+03
       418   9  2.868976E+06 -1.670150E+04  4.181983E+04  7.429105E+03  4.228279E+04 -1.654382E+03
       418  10  2.965338E+06  7.957956E+04  1.908157E+05  1.691071E+04 -1.058658E-09 -1.920378E-10
       418  11  2.956882E+06  1.247257E+03  1.030406E+05  4.795580E+03  9.394332E-10  6.341378E-10
       418  12  2.976221E+06  9.800707E+03  6.749591E+04 -1.151989E+04 -3.274776E-10 -5.620309E-10
       418  13  2.922430E+06  6.895136E+04  1.804979E+05 -2.062767E+03  8.424118E-10  3.207669E-10
       418  14  2.908617E+06 -1.069272E+04  9.146560E+04  4.618829E+01  1.220212E-09  8.494058E-11
       418  15  2.922597E+06 -3.450703E+03  5.465627E+04 -2.044953E+03 -1.214093E-09 -6.219207E-10
       418  16  2.879525E+06  5.832439E+04  1.701802E+05 -2.103493E+04  5.452090E-10  4.583785E-10
       418  17  2.860353E+06 -2.263279E+04  7.989046E+04 -4.702834E+03  2.382195E-10 -9.904785E-10
       418  18  2.868975E+06 -1.670198E+04  4.181648E+04  7.429161E+03 -5.143399E-12 -2.965489E-11
       418  19  2.965358E+06  7.958453E+04  1.908505E+05  1.691058E+04 -1.365271E+05  1.166264E+03
       418  20  2.956891E+06  1.249397E+03  1.030556E+05  4.795477E+03 -8.950575E+04  1.423298E+03
       418  21  2.976223E+06  9.801191E+03  6.749929E+04 -1.151994E+04 -4.248573E+04  1.655593E+03
       418  22  2.922450E+06  6.895633E+04  1.805327E+05 -2.062896E+03 -1.363980E+05  1.170452E+03
       418  23  2.908625E+06 -1.069059E+04  9.148055E+04  4.608588E+01 -8.939022E+04  1.424016E+03
       418  24  2.922598E+06 -3.450220E+03  5.465964E+04 -2.045010E+03 -4.238426E+04  1.654986E+03
       418  25  2.879545E+06  5.832934E+04  1.702150E+05 -2.103506E+04 -1.362688E+05  1.174631E+03
       418  26  2.860362E+06 -2.263066E+04  7.990537E+04 -4.702937E+03 -8.927471E+04  1.424733E+03
       418  27  2.868976E+06 -1.670150E+04  4.181983E+04  7.429105E+03 -4.228279E+04  1.654382E+03
       419   1  2.978987E+06  2.264722E+04  5.771575E+04 -6.326722E+02  3.383874E+04 -1.783105E+03
       419   2  2.983178E+06  1.555992E+04  3.972266E+04  4.288942E+02  2.205587E+04 -2.025260E+03
       419   3  2.991268E+06  1.792976E+04  3.174028E+04 -3.303684E+03  1.027328E+04 -2.281035E+03
       419   4  2.917267E+06  7.378547E+03  4.289673E+04 -2.184612E+03  3.372479E+04 -1.783235E+03
       419   5  2.915331E+06 -1.219612E+03  2.345174E+04  2.137474E+02  2.193634E+04 -2.025324E+03
       419   6  2.917295E+06 -3.590823E+02  1.402192E+04 -2.182066E+03  1.014828E+04 -2.281084E+03
       419   7  2.855551E+06 -7.890395E+03  2.807743E+04 -3.736399E+03  3.361084E+04 -1.783366E+03
       419   8  2.847488E+06 -1.799947E+04  7.180502E+03 -1.376311E+00  2.181682E+04 -2.025388E+03
       419   9  2.843326E+06 -1.864832E+04 -3.696822E+03 -1.060581E+03  1.002329E+04 -2.281133E+03
       419  10  2.978986E+06  2.264691E+04  5.771360E+04 -6.326236E+02 -1.132127E-09 -3.550042E-10
       419  11  2.983178E+06  1.555978E+04  3.972174E+04  4.289301E+02 -2.223000E-09 -6.297285E-10
       419  12  2.991268E+06  1.792973E+04  3.174007E+04 -3.303665E+03 -1.535835E-10  1.603217E-10
       419  13  2.917266E+06  7.378240E+03  4.289459E+04 -2.184564E+03 -1.455569E-09 -4.493229E-10
       419  14  2.915331E+06 -1.219745E+03  2.345084E+04  2.137831E+02 -5.325373E-10  1.918671E-10
       419  15  2.917294E+06 -3.591154E+02  1.402172E+04 -2.182047E+03 -2.074971E-09 -8.245808E-10
       419  16  2.855550E+06 -7.890700E+03  2.807531E+04 -3.736351E+03 -4.843228E-10  1.623129E-10
       419  17  2.847487E+06 -1.799961E+04  7.179604E+03 -1.340758E+00 -1.579982E-09 -4.738700E-10
       419  18  2.843326E+06 -1.864835E+04 -3.697020E+03 -1.060563E+03  2.636973E-10  1.172846E-10
       419  19  2.978987E+06  2.264722E+04  5.771575E+04 -6.326722E+02 -3.383874E+04  1.783105E+03
       419  20  2.983178E+06  1.555992E+04  3.972266E+04  4.288942E+02 -2.205587E+04  2.025260E+03
       419  21  2.991268E+06  1.792976E+04  3.174028E+04 -3.303684E+03 -1.027328E+04  2.281035E+03
       419  22  2.917267E+06  7.378547E+03  4.289673E+04 -2.184612E+03 -3.372479E+04  1.783235E+03
       419  23  2.915331E+06 -1.219612E+03  2.345174E+04  2.137474E+02 -2.193634E+04  2.025324E+03
       419  24  2.917295E+06 -3.590823E+02  1.402192E+04 -2.182066E+03 -1.014828E+04  2.281084E+03
       419  25  2.855551E+06 -7.890395E+03  2.807743E+04 -3.736399E+03 -3.361084E+04  1.783366E+03
       419  26  2.847488E+06 -1.799947E+04  7.180502E+03 -1.376311E+00 -2.181682E+04  2.025388E+03
       419  27  2.843326E+06 -1.864832E+04 -3.696822E+03 -1.060581E+03 -1.002329E+04  2.281133E+03
       420   1  2.999955E+06  2.137674E+04  3.106572E+04 -2.288915E+03  8.020103E+03 -2.433898E+03
       420   2  3.006771E+06  2.223253E+04  2.867643E+04  4.363162E+02  4.565450E+03 -2.711187E+03
       420   3  3.014325E+06  2.418024E+04  2.880483E+04 -2.455229E+03  1.110786E+03 -3.009148E+03
       420   4  2.916590E+06  7.560923E+02  1.105455E+04 -2.365966E+03  7.891458E+03 -2.433975E+03
       420   5  2.916223E+06 -1.607608E+02  6.961534E+03  4.425923E+02  4.427250E+03 -2.711280E+03
       420   6  2.916594E+06  1.602798E+01  5.392995E+03 -2.365674E+03  9.630699E+02 -3.009259E+03
       420   7  2.833232E+06 -1.986505E+04 -8.957107E+03 -2.443007E+03  7.762830E+03 -2.434052E+03
       420   8  2.825681E+06 -2.255464E+04 -1.475394E+04  4.488666E+02  4.289070E+03 -2.711372E+03
       420   9  2.818872E+06 -2.414887E+04 -1.801951E+04 -2.276134E+03  8.153766E+02 -3.009369E+03
       420  10  2.999955E+06  2.137671E+04  3.106559E+04 -2.288899E+03 -7.865277E-11 -5.094851E-10
       420  11  3.006771E+06  2.223252E+04  2.867637E+04  4.363262E+02 -4.682166E-10 -5.364216E-10
       420  12  3.014325E+06  2.418023E+04  2.880481E+04 -2.455226E+03 -1.023293E-09 -7.716395E-10
       420  13  2.916590E+06  7.560693E+02  1.105443E+04 -2.365950E+03 -3.362862E-11 -2.765740E-10
       420  14  2.916223E+06 -1.607739E+02  6.961483E+03  4.426020E+02 -1.060375E-09 -8.803157E-10
       420  15  2.916594E+06  1.601800E+01  5.392976E+03 -2.365672E+03  8.674507E-10  4.178775E-11
       420  16  2.833232E+06 -1.986508E+04 -8.957231E+03 -2.442992E+03  3.546497E-10  1.176022E-10
       420  17  2.825681E+06 -2.255466E+04 -1.475399E+04  4.488759E+02 -1.385618E-09 -1.203479E-09
       420  18  2.818872E+06 -2.414888E+04 -1.801953E+04 -2.276133E+03  7.139855E-10 -5.201934E-11
       420  19  2.999955E+06  2.137674E+04  3.106572E+04 -2.288915E+03 -8.020103E+03  2.433898E+03
       420  20  3.006771E+06  2.223253E+04  2.867643E+04  4.363162E+02 -4.565450E+03  2.711187E+03
       420  21  3.014325E+06  2.418024E+04  2.880483E+04 -2.455229E+03 -1.110786E+03  3.009148E+03
       420  22  2.916590E+06  7.560923E+02  1.105455E+04 -2.365966E+03 -7.891458E+03  2.433975E+03
       420  23  2.916223E+06 -1.607608E+02  6.961534E+03  4.425923E+02 -4.427250E+03  2.711280E+03
       420  24  2.916594E+06  1.602798E+01  5.392995E+03 -2.365674E+03 -9.630699E+02  3.009259E+03
       420  25  2.833232E+06 -1.986505E+04 -8.957107E+03 -2.443007E+03 -7.762830E+03  2.434052E+03
       420  26  2.825681E+06 -2.255464E+04 -1.475394E+04  4.488666E+02 -4.289070E+03  2.711372E+03
       420  27  2.818872E+06 -2.414887E+04 -1.801951E+04 -2.276134E+03 -8.153766E+02  3.009369E+03
       421   1  3.025420E+06  2.696106E+04  3.135569E+04 -2.468055E+03  1.538153E+02 -3.190590E+03
       421   2  3.033666E+06  2.890153E+04  3.423023E+04  8.239646E+02 -2.855593E+03 -3.520488E+03
       421   3  3.042556E+06  3.174523E+04  3.928862E+04 -2.586843E+03 -5.864944E+03 -3.874970E+03
       421   4  2.916573E+06  3.810896E+01  5.230603E+03 -2.607027E+03  1.650231E+00 -3.190714E+03
       421   5  2.916248E+06 -1.363028E+02  6.072200E+03  7.442157E+02 -3.019110E+03 -3.520638E+03
       421   6  2.916570E+06  5.946072E+02  9.105777E+03 -2.607447E+03 -6.039773E+03 -3.875148E+03
       421   7  2.807736E+06 -2.688570E+04 -2.089532E+04 -2.745976E+03 -1.504883E+02 -3.190839E+03
       421   8  2.798843E+06 -2.917513E+04 -2.208680E+04  6.644798E+02 -3.182597E+03 -3.520789E+03
       421   9  2.790598E+06 -3.055716E+04 -2.107818E+04 -2.628049E+03 -6.214567E+03 -3.875326E+03
       421  10  3.025420E+06  2.696105E+04  3.135567E+04 -2.468055E+03 -1.794945E-09 -1.151599E-10
       421  11  3.033666E+06  2.890151E+04  3.423019E+04  8.239565E+02  1.770404E-09  1.351782E-09
       421  12  3.042556E+06  3.174520E+04  3.928852E+04 -2.586861E+03  3.935813E-10 -4.738255E-11
       421  13  2.916573E+06  3.809801E+01  5.230584E+03 -2.607027E+03  2.037539E-09  1.258336E-09
       421  14  2.916248E+06 -1.363186E+02  6.072160E+03  7.442071E+02  1.715243E-09  1.662971E-09
       421  15  2.916570E+06  5.945813E+02  9.105681E+03 -2.607465E+03 -4.427980E-11 -2.084052E-10
       421  16  2.807736E+06 -2.688571E+04 -2.089534E+04 -2.745976E+03  1.533944E-09  9.207450E-10
       421  17  2.798843E+06 -2.917515E+04 -2.208685E+04  6.644708E+02 -1.465787E-09  3.554364E-10
       421  18  2.790598E+06 -3.055718E+04 -2.107828E+04 -2.628068E+03 -1.068484E-09 -2.422922E-10
       421  19  3.025420E+06  2.696106E+04  3.135569E+04 -2.468055E+03 -1.538153E+02  3.190590E+03
       421  20  3.033666E+06  2.890153E+04  3.423023E+04  8.239646E+02  2.855593E+03  3.520488E+03
       421  21  3.042556E+06  3.174523E+04  3.928862E+04 -2.586843E+03  5.864944E+03  3.874970E+03
       421  22  2.916573E+06  3.810896E+01  5.230603E+03 -2.607027E+03 -1.650231E+00  3.190714E+03
       421  23  2.916248E+06 -1.363028E+02  6.072200E+03  7.442157E+02  3.019110E+03  3.520638E+03
       421  24  2.916570E+06  5.946072E+02  9.105777E+03 -2.607447E+03  6.039773E+03  3.875148E+03
       421  25  2.807736E+06 -2.688570E+04 -2.089532E+04 -2.745976E+03  1.504883E+02  3.190839E+03
       421  26  2.798843E+06 -2.917513E+04 -2.208680E+04  6.644798E+02  3.182597E+03  3.520789E+03
       421  27  2.790598E+06 -3.055716E+04 -2.107818E+04 -2.628049E+03  6.214567E+03  3.875326E+03
       422   1  3.056465E+06  3.417604E+04  4.483611E+04 -1.929499E+03 -7.696061E+03 -4.098369E+03
       422   2  3.065232E+06  3.604282E+04  5.469594E+04  1.070570E+03 -1.714602E+04 -4.501698E+03
       422   3  3.077148E+06  4.543218E+04  7.257607E+04 -4.030641E+03 -2.659597E+04 -4.907001E+03
       422   4  2.917127E+06 -2.893119E+02  1.139550E+04 -2.916184E+03 -7.885099E+03 -4.098563E+03
       422   5  2.915541E+06 -9.751649E+02  1.879979E+04  1.131671E+03 -1.733402E+04 -4.501937E+03
       422   6  2.917105E+06  5.862538E+03  3.422508E+04 -2.921879E+03 -2.678277E+04 -4.907315E+03
       422   7  2.777806E+06 -3.475606E+04 -2.204647E+04 -3.902651E+03 -8.074095E+03 -4.098757E+03
       422   8  2.765871E+06 -3.799477E+04 -1.709793E+04  1.192753E+03 -1.752196E+04 -4.502175E+03
       422   9  2.757086E+06 -3.370894E+04 -4.127710E+03 -1.813408E+03 -2.696951E+04 -4.907629E+03
       422  10  3.056465E+06  3.417600E+04  4.483596E+04 -1.929524E+03 -6.201699E-10  4.007161E-10
       422  11  3.065232E+06  3.604272E+04  5.469535E+04  1.070508E+03 -1.587362E-09 -1.420797E-10
       422  12  3.077147E+06  4.543196E+04  7.257470E+04 -4.030746E+03  1.562513E-09  7.003731E-10
       422  13  2.917126E+06 -2.893466E+02  1.139536E+04 -2.916210E+03 -3.371989E-11 -1.875086E-11
       422  14  2.915541E+06 -9.752669E+02  1.879919E+04  1.131609E+03 -1.390289E-09  1.966684E-10
       422  15  2.917104E+06  5.862321E+03  3.422370E+04 -2.921985E+03 -2.917422E-10 -2.926173E-10
       422  16  2.777806E+06 -3.475610E+04 -2.204663E+04 -3.902677E+03  1.562013E-11 -8.399370E-10
       422  17  2.765871E+06 -3.799487E+04 -1.709855E+04  1.192690E+03 -1.801549E-09 -3.901785E-10
       422  18  2.757085E+06 -3.370916E+04 -4.129116E+03 -1.813515E+03 -3.544623E-10  6.555457E-11
       422  19  3.056465E+06  3.417604E+04  4.483611E+04 -1.929499E+03  7.696061E+03  4.098369E+03
       422  20  3.065232E+06  3.604282E+04  5.469594E+04  1.070570E+03  1.714602E+04  4.501698E+03
       422  21  3.077148E+06  4.543218E+04  7.257607E+04 -4.030641E+03  2.659597E+04  4.907001E+03
       422  22  2.917127E+06 -2.893119E+02  1.139550E+04 -2.916184E+03  7.885099E+03  4.098563E+03
       422  23  2.915541E+06 -9.751649E+02  1.879979E+04  1.131671E+03  1.733402E+04  4.501937E+03
       422  24  2.917105E+06  5.862538E+03  3.422508E+04 -2.921879E+03  2.678277E+04  4.907315E+03
       422  25  2.777806E+06 -3.475606E+04 -2.204647E+04 -3.902651E+03  8.074095E+03  4.098757E+03
       422  26  2.765871E+06 -3.799477E+04 -1.709793E+04  1.192753E+03  1.752196E+04  4.502175E+03
       422  27  2.757086E+06 -3.370894E+04 -4.127710E+03 -1.813408E+03  2.696951E+04  4.907629E+03
       423   1  3.097578E+06  4.084663E+04  8.585770E+04  4.387751E+03 -3.337437E+04 -5.239988E+03
       423   2  3.099047E+06  3.817405E+04  1.181304E+05 -1.990073E+03 -7.099998E+04 -5.756683E+03
       423   3  3.122736E+06  1.046762E+05  1.921233E+05 -1.827735E+04 -1.086283E+05 -5.896116E+03
       423   4  2.921352E+06 -2.756962E+03  4.357205E+04 -3.298268E+03 -3.368887E+04 -5.240001E+03
       423   5  2.910195E+06 -8.516376E+03  7.285224E+04  1.621333E+03 -7.112325E+04 -5.757366E+03
       423   6  2.921232E+06  5.487706E+04  1.437294E+05 -3.368396E+03 -1.085596E+05 -5.898781E+03
       423   7  2.745155E+06 -4.636258E+04  1.284223E+03 -1.098211E+04 -3.400327E+04 -5.240007E+03
       423   8  2.721376E+06 -5.520932E+04  2.757158E+04  5.231632E+03 -7.124648E+04 -5.758051E+03
       423   9  2.719766E+06  5.075874E+03  9.533266E+04  1.153571E+04 -1.084909E+05 -5.901443E+03
       423  10  3.097577E+06  4.084630E+04  8.585557E+04  4.387611E+03  7.087190E-10 -2.459302E-10
       423  11  3.099042E+06  3.817266E+04  1.181209E+05 -1.990402E+03  1.229753E-09 -1.103849E-09
       423  12  3.122724E+06  1.046730E+05  1.921012E+05 -1.827787E+04 -2.099087E-11 -1.866530E-09
       423  13  2.921351E+06 -2.757294E+03  4.356987E+04 -3.298410E+03 -4.372637E-10 -6.467865E-10
       423  14  2.910190E+06 -8.517762E+03  7.284271E+04  1.621003E+03 -6.196707E-10 -1.420436E-09
       423  15  2.921220E+06  5.487388E+04  1.437073E+05 -3.368911E+03  4.419620E-10 -6.981005E-10
       423  16  2.745154E+06 -4.636292E+04  1.282008E+03 -1.098226E+04 -2.210037E-10 -5.615517E-10
       423  17  2.721371E+06 -5.521072E+04  2.756202E+04  5.231302E+03  3.680112E-10  1.479988E-09
       423  18  2.719753E+06  5.072694E+03  9.531057E+04  1.153520E+04  1.204597E-09  8.109011E-11
       423  19  3.097578E+06  4.084663E+04  8.585770E+04  4.387751E+03  3.337437E+04  5.239988E+03
       423  20  3.099047E+06  3.817405E+04  1.181304E+05 -1.990073E+03  7.099998E+04  5.756683E+03
       423  21  3.122736E+06  1.046762E+05  1.921233E+05 -1.827735E+04  1.086283E+05  5.896116E+03
       423  22  2.921352E+06 -2.756962E+03  4.357205E+04 -3.298268E+03  3.368887E+04  5.240001E+03
       423  23  2.910195E+06 -8.516376E+03  7.285224E+04  1.621333E+03  7.112325E+04  5.757366E+03
       423  24  2.921232E+06  5.487706E+04  1.437294E+05 -3.368396E+03  1.085596E+05  5.898781E+03
       423  25  2.745155E+06 -4.636258E+04  1.284223E+03 -1.098211E+04  3.400327E+04  5.240007E+03
       423  26  2.721376E+06 -5.520932E+04  2.757158E+04  5.231632E+03  7.124648E+04  5.758051E+03
       423  27  2.719766E+06  5.075874E+03  9.533266E+04  1.153571E+04  1.084909E+05  5.901443E+03
       424   1  3.177001E+06  2.932627E+04  2.288804E+05  6.204097E+04 -1.346133E+05 -7.048150E+03
       424   2  3.103496E+06 -1.782947E+04  3.367159E+05 -4.142050E+04 -2.885827E+05 -7.726143E+03
       424   3  3.207975E+06  5.673902E+05  7.026079E+05 -1.576069E+05 -4.425586E+05 -3.041723E+03
       424   4  2.955934E+06 -2.555029E+04  1.759048E+05 -3.686197E+03 -1.361014E+05 -7.036157E+03
       424   5  2.866785E+06 -7.619581E+04  2.800601E+05  2.247480E+03 -2.874622E+05 -7.744985E+03
       424   6  2.955213E+06  5.051669E+05  6.405288E+05 -4.525660E+03 -4.388249E+05 -3.144519E+03
       424   7  2.734921E+06 -8.041429E+04  1.229280E+05 -6.938998E+04 -1.375888E+05 -7.023847E+03
       424   8  2.630130E+06 -1.345590E+05  2.234013E+05  4.589880E+04 -2.863421E+05 -7.763678E+03
       424   9  2.702559E+06  4.430267E+05  5.784576E+05  1.484935E+05 -4.350926E+05 -3.245519E+03
       424  10  3.176982E+06  2.932139E+04  2.288464E+05  6.204021E+04  9.660084E-10 -2.094282E-09
       424  11  3.103407E+06 -1.785174E+04  3.365601E+05 -4.142230E+04 -2.459937E-10 -4.457856E-09
       424  12  3.207766E+06  5.673380E+05  7.022417E+05 -1.576080E+05 -4.877032E-10 -9.466278E-10
       424  13  2.955914E+06 -2.555529E+04  1.758700E+05 -3.686968E+03 -2.786640E-09 -6.421916E-09
       424  14  2.866697E+06 -7.621793E+04  2.799054E+05  2.245689E+03  1.176891E-09  2.575527E-09
       424  15  2.955007E+06  5.051155E+05  6.401686E+05 -4.526770E+03  4.609074E-10 -3.137862E-10
       424  16  2.734901E+06 -8.041940E+04  1.228925E+05 -6.939076E+04 -6.154259E-10 -1.764782E-09
       424  17  2.630042E+06 -1.345810E+05  2.232478E+05  4.589702E+04  5.241476E-10  1.511563E-09
       424  18  2.702357E+06  4.429761E+05  5.781033E+05  1.484924E+05 -1.130988E-11 -2.065145E-09
       424  19  3.177001E+06  2.932627E+04  2.288804E+05  6.204097E+04  1.346133E+05  7.048150E+03
       424  20  3.103496E+06 -1.782947E+04  3.367159E+05 -4.142050E+04  2.885827E+05  7.726143E+03
       424  21  3.207975E+06  5.673902E+05  7.026079E+05 -1.576069E+05  4.425586E+05  3.041723E+03
       424  22  2.955934E+06 -2.555029E+04  1.759048E+05 -3.686197E+03  1.361014E+05  7.036157E+03
       424  23  2.866785E+06 -7.619581E+04  2.800601E+05  2.247480E+03  2.874622E+05  7.744985E+03
       424  24  2.955213E+06  5.051669E+05  6.405288E+05 -4.525660E+03  4.388249E+05  3.144519E+03
       424  25  2.734921E+06 -8.041429E+04  1.229280E+05 -6.938998E+04  1.375888E+05  7.023847E+03
       424  26  2.630130E+06 -1.345590E+05  2.234013E+05  4.589880E+04  2.863421E+05  7.763678E+03
       424  27  2.702559E+06  4.430267E+05  5.784576E+05  1.484935E+05  4.350926E+05  3.245519E+03
       425   1  6.069718E+05  1.962396E+05  1.818858E+05  5.347319E+04  5.869338E+04 -1.214200E+04
       425   2  5.459933E+05  1.890207E+05  1.416372E+05  5.557867E+04  2.661725E+04 -4.146876E+04
       425   3  4.880830E+05  1.773069E+05  1.211737E+05  6.803487E+04 -5.486304E+03 -5.094430E+04
       425   4 -2.769239E+05 -2.156340E+04 -2.372316E+04  6.631484E+04 -1.660132E+04 -1.228024E+04
       425   5 -2.751280E+05 -5.811801E+03 -1.170075E+04  6.111892E+04 -1.052863E+04 -4.154611E+04
       425   6 -2.768903E+05 -1.180814E+03 -6.377731E+03  6.627357E+04 -4.487550E+03 -5.094795E+04
       425   7 -1.160086E+06 -2.394179E+05 -2.293634E+05  7.913774E+04 -9.178962E+04 -1.242170E+04
       425   8 -1.095594E+06 -2.006823E+05 -1.650624E+05  6.665132E+04 -4.762664E+04 -4.162418E+04
       425   9 -1.041286E+06 -1.796990E+05 -1.339471E+05  6.451419E+04 -3.489981E+03 -5.095161E+04
       425  10  6.069681E+05  1.962386E+05  1.818791E+05  5.347376E+04  3.930117E-09 -7.568156E-10
       425  11  5.459921E+05  1.890186E+05  1.416326E+05  5.557956E+04 -4.014582E-11 -5.095830E-09
       425  12  4.880823E+05  1.773041E+05  1.211687E+05  6.803465E+04 -3.104682E-09 -4.111765E-09
       425  13 -2.769242E+05 -2.156363E+04 -2.372397E+04  6.631467E+04 -3.489692E-10  1.038831E-09
       425  14 -2.751286E+05 -5.813684E+03 -1.170421E+04  6.111857E+04 -2.077418E-09 -2.997383E-09
       425  15 -2.768911E+05 -1.183606E+03 -6.382646E+03  6.627339E+04 -7.010651E-10 -2.263873E-10
       425  16 -1.160095E+06 -2.394203E+05 -2.293796E+05  7.913682E+04 -4.447050E-09  2.736222E-10
       425  17 -1.095597E+06 -2.006848E+05 -1.650699E+05  6.664973E+04 -1.568982E-10 -6.147344E-09
       425  18 -1.041287E+06 -1.797018E+05 -1.339520E+05  6.451405E+04  1.214978E-09 -5.688928E-09
       425  19  6.069718E+05  1.962396E+05  1.818858E+05  5.347319E+04 -5.869338E+04  1.214200E+04
       425  20  5.459933E+05  1.890207E+05  1.416372E+05  5.557867E+04 -2.661725E+04  4.146876E+04
       425  21  4.880830E+05  1.773069E+05  1.211737E+05  6.803487E+04  5.486304E+03  5.094430E+04
       425  22 -2.769239E+05 -2.156340E+04 -2.372316E+04  6.631484E+04  1.660132E+04  1.228024E+04
       425  23 -2.751280E+05 -5.811801E+03 -1.170075E+04  6.111892E+04  1.052863E+04  4.154611E+04
       425  24 -2.768903E+05 -1.180814E+03 -6.377731E+03  6.627357E+04  4.487550E+03  5.094795E+04
       425  25 -1.160086E+06 -2.394179E+05 -2.293634E+05  7.913774E+04  9.178962E+04  1.242170E+04
       425  26 -1.095594E+06 -2.006823E+05 -1.650624E+05  6.665132E+04  4.762664E+04  4.162418E+04
       425  27 -1.041286E+06 -1.796990E+05 -1.339471E+05  6.451419E+04  3.489981E+03  5.095161E+04
       426   1  4.499470E+05  1.679373E+05  1.141583E+05  6.717852E+04 -3.687408E+03 -5.003506E+04
       426   2  3.904284E+05  1.542626E+05  1.027442E+05  6.163401E+04 -6.410868E+03 -4.897799E+04
       426   3  3.312464E+05  1.406120E+05  9.310448E+04  6.781902E+04 -9.139954E+03 -4.581628E+04
       426   4 -2.761710E+05 -1.062561E+03 -4.815658E+03  6.658420E+04 -3.663338E+03 -5.004044E+04
       426   5 -2.759738E+05 -8.405570E+01 -2.638521E+03  6.071757E+04 -2.344352E+03 -4.897372E+04
       426   6 -2.761443E+05  2.169908E+02 -1.493624E+03  6.658125E+04 -1.031181E+03 -4.580121E+04
       426   7 -1.001767E+06 -1.700895E+05 -1.238048E+05  6.599030E+04 -3.639293E+03 -5.004581E+04
       426   8 -9.419338E+05 -1.544528E+05 -1.080323E+05  5.980189E+04  1.717962E+03 -4.896946E+04
       426   9 -8.831667E+05 -1.401960E+05 -9.610016E+04  6.534451E+04  7.069962E+03 -4.578617E+04
       426  10  4.499463E+05  1.679346E+05  1.141535E+05  6.717837E+04 -6.436990E-09 -4.283783E-09
       426  11  3.904277E+05  1.542600E+05  1.027396E+05  6.163376E+04 -4.319611E-09  1.601737E-09
       426  12  3.312457E+05  1.406097E+05  9.310038E+04  6.781868E+04 -2.050527E-09  2.789620E-09
       426  13 -2.761716E+05 -1.065253E+03 -4.820389E+03  6.658405E+04 -2.573554E-10 -1.991738E-09
       426  14 -2.759744E+05 -8.663232E+01 -2.643038E+03  6.071748E+04 -1.975531E-09  1.507871E-09
       426  15 -2.761449E+05  2.147382E+02 -1.497568E+03  6.658121E+04 -4.113802E-10 -1.690407E-09
       426  16 -1.001768E+06 -1.700922E+05 -1.238095E+05  6.599016E+04  5.361017E-09  5.538839E-10
       426  17 -9.419344E+05 -1.544553E+05 -1.080368E+05  5.980196E+04  2.467379E-09  3.390262E-09
       426  18 -8.831673E+05 -1.401983E+05 -9.610419E+04  6.534477E+04  9.402085E-10  4.148634E-10
       426  19  4.499470E+05  1.679373E+05  1.141583E+05  6.717852E+04  3.687408E+03  5.003506E+04
       426  20  3.904284E+05  1.542626E+05  1.027442E+05  6.163401E+04  6.410868E+03  4.897799E+04
       426  21  3.312464E+05  1.406120E+05  9.310448E+04  6.781902E+04  9.139954E+03  4.581628E+04
       426  22 -2.761710E+05 -1.062561E+03 -4.815658E+03  6.658420E+04  3.663338E+03  5.004044E+04
       426  23 -2.759738E+05 -8.405570E+01 -2.638521E+03  6.071757E+04  2.344352E+03  4.897372E+04
       426  24 -2.761443E+05  2.169908E+02 -1.493624E+03  6.658125E+04  1.031181E+03  4.580121E+04
       426  25 -1.001767E+06 -1.700895E+05 -1.238048E+05  6.599030E+04  3.639293E+03  5.004581E+04
       426  26 -9.419338E+05 -1.544528E+05 -1.080323E+05  5.980189E+04 -1.717962E+03  4.896946E+04
       426  27 -8.831667E+05 -1.401960E+05 -9.610016E+04  6.534451E+04 -7.069962E+03  4.578617E+04
       427   1  2.934387E+05  1.317843E+05  8.715044E+04  6.771220E+04 -8.816863E+03 -4.329470E+04
       427   2  2.340529E+05  1.180382E+05  7.813353E+04  6.168390E+04 -8.935113E+03 -3.901440E+04
       427   3  1.746581E+05  1.043827E+05  6.920204E+04  6.753916E+04 -9.055351E+03 -3.450995E+04
       427   4 -2.760735E+05  2.254401E+02 -1.133222E+03  6.661576E+04 -8.093953E+02 -4.327895E+04
       427   5 -2.760196E+05  2.640374E+02 -6.467326E+02  6.067360E+04 -4.977070E+02 -3.899622E+04
       427   6 -2.760530E+05  3.187567E+02 -3.736593E+02  6.661556E+04 -1.880174E+02 -3.448925E+04
       427   7 -8.452616E+05 -1.313492E+05 -8.942411E+04  6.552016E+04  7.191008E+03 -4.326323E+04
       427   8 -7.858320E+05 -1.175227E+05 -7.943262E+04  5.966399E+04  7.933033E+03 -3.897806E+04
       427   9 -7.265610E+05 -1.037551E+05 -6.995365E+04  6.569251E+04  8.673126E+03 -3.446856E+04
       427  10  2.934381E+05  1.317822E+05  8.714678E+04  6.771189E+04  5.776543E-09  4.518803E-09
       427  11  2.340524E+05  1.180365E+05  7.813052E+04  6.168362E+04 -2.084748E-08  2.956502E-09
       427  12  1.746577E+05  1.043814E+05  6.919965E+04  6.753891E+04 -4.593648E-08 -1.262968E-09
       427  13 -2.760740E+05  2.234288E+02 -1.136743E+03  6.661573E+04 -8.703909E-10 -1.888183E-09
       427  14 -2.760201E+05  2.624046E+02 -6.495904E+02  6.067358E+04 -2.111391E-09  3.281012E-09
       427  15 -2.760534E+05  3.174795E+02 -3.758944E+02  6.661555E+04 -9.173287E-12  3.797802E-09
       427  16 -8.452622E+05 -1.313512E+05 -8.942773E+04  6.552041E+04 -7.039088E-09  1.256613E-09
       427  17 -7.858325E+05 -1.175244E+05 -7.943559E+04  5.966423E+04  2.028033E-08  2.519134E-09
       427  18 -7.265614E+05 -1.037564E+05 -6.995602E+04  6.569275E+04  4.399177E-08 -1.697370E-09
       427  19  2.934387E+05  1.317843E+05  8.715044E+04  6.771220E+04  8.816863E+03  4.329470E+04
       427  20  2.340529E+05  1.180382E+05  7.813353E+04  6.168390E+04  8.935113E+03  3.901440E+04
       427  21  1.746581E+05  1.043827E+05  6.920204E+04  6.753916E+04  9.055351E+03  3.450995E+04
       427  22 -2.760735E+05  2.254401E+02 -1.133222E+03  6.661576E+04  8.093953E+02  4.327895E+04
       427  23 -2.760196E+05  2.640374E+02 -6.467326E+02  6.067360E+04  4.977070E+02  3.899622E+04
       427  24 -2.760530E+05  3.187567E+02 -3.736593E+02  6.661556E+04  1.880174E+02  3.448925E+04
       427  25 -8.452616E+05 -1.313492E+05 -8.942411E+04  6.552016E+04 -7.191008E+03  4.326323E+04
       427  26 -7.858320E+05 -1.175227E+05 -7.943262E+04  5.966399E+04 -7.933033E+03  3.897806E+04
       427  27 -7.265610E+05 -1.037551E+05 -6.995365E+04  6.569251E+04 -8.673126E+03  3.446856E+04
       428   1  1.368711E+05  9.561474E+04  6.320805E+04  6.746997E+04 -8.992937E+03 -3.181560E+04
       428   2  7.746814E+04  8.189570E+04  5.424180E+04  6.140220E+04 -8.961526E+03 -2.719109E+04
       428   3  1.801547E+04  6.824651E+04  4.525304E+04  6.724086E+04 -8.931230E+03 -2.254289E+04
       428   4 -2.760412E+05  3.250615E+02 -2.880220E+02  6.662062E+04 -1.348498E+02 -3.179419E+04
       428   5 -2.760031E+05  3.082000E+02 -1.771950E+02  6.066719E+04 -5.846030E+01 -2.716855E+04
       428   6 -2.760270E+05  3.532249E+02 -1.206322E+02  6.662058E+04  1.681777E+01 -2.251921E+04
       428   7 -6.887829E+05 -9.497283E+04 -6.378758E+04  6.577175E+04  8.717573E+03 -3.177280E+04
       428   8 -6.293493E+05 -8.128532E+04 -5.459868E+04  5.993253E+04  8.839731E+03 -2.714603E+04
       428   9 -5.699829E+05 -6.754421E+04 -4.549595E+04  6.600054E+04  8.960789E+03 -2.249554E+04
       428  10  1.368708E+05  9.561363E+04  6.320600E+04  6.746974E+04  6.033343E-08 -9.736417E-10
       428  11  7.746786E+04  8.189489E+04  5.424026E+04  6.140200E+04 -1.330509E-10  4.395825E-09
       428  12  1.801525E+04  6.824594E+04  4.525194E+04  6.724070E+04 -6.041760E-08  2.403753E-09
       428  13 -2.760415E+05  3.239762E+02 -2.899214E+02  6.662062E+04  2.308954E-10  2.338170E-11
       428  14 -2.760033E+05  3.074075E+02 -1.785820E+02  6.066719E+04 -2.408250E-09  6.827974E-09
       428  15 -2.760272E+05  3.526804E+02 -1.215851E+02  6.662058E+04 -9.417710E-10 -2.616697E-09
       428  16 -6.887832E+05 -9.497393E+04 -6.378962E+04  6.577197E+04 -6.053020E-08 -1.477130E-09
       428  17 -6.293495E+05 -8.128613E+04 -5.460022E+04  5.993272E+04 -1.663279E-09  1.547482E-09
       428  18 -5.699832E+05 -6.754478E+04 -4.549706E+04  6.600070E+04  5.781905E-08 -1.521057E-09
       428  19  1.368711E+05  9.561474E+04  6.320805E+04  6.746997E+04  8.992937E+03  3.181560E+04
       428  20  7.746814E+04  8.189570E+04  5.424180E+04  6.140220E+04  8.961526E+03  2.719109E+04
       428  21  1.801547E+04  6.824651E+04  4.525304E+04  6.724086E+04  8.931230E+03  2.254289E+04
       428  22 -2.760412E+05  3.250615E+02 -2.880220E+02  6.662062E+04  1.348498E+02  3.179419E+04
       428  23 -2.760031E+05  3.082000E+02 -1.771950E+02  6.066719E+04  5.846030E+01  2.716855E+04
       428  24 -2.760270E+05  3.532249E+02 -1.206322E+02  6.662058E+04 -1.681777E+01  2.251921E+04
       428  25 -6.887829E+05 -9.497283E+04 -6.378758E+04  6.577175E+04 -8.717573E+03  3.177280E+04
       428  26 -6.293493E+05 -8.128532E+04 -5.459868E+04  5.993253E+04 -8.839731E+03  2.714603E+04
       428  27 -5.699829E+05 -6.754421E+04 -4.549595E+04  6.600054E+04 -8.960789E+03  2.249554E+04
       429   1 -1.978879E+04  5.947852E+04  3.920563E+04  6.716528E+04 -8.917851E+03 -1.982933E+04
       429   2 -7.920556E+04  4.575531E+04  3.016342E+04  6.107986E+04 -8.864350E+03 -1.517157E+04
       429   3 -1.386893E+05  3.209401E+04  2.107855E+04  6.691025E+04 -8.811425E+03 -1.051997E+04
       429   4 -2.760243E+05  3.586274E+02 -1.085687E+02  6.662262E+04  3.044453E+01 -1.980519E+04
       429   5 -2.759866E+05  3.356232E+02 -1.087315E+02  6.066459E+04  7.176151E+01 -1.514689E+04
       429   6 -2.760164E+05  3.769830E+02 -1.430327E+02  6.662258E+04  1.125093E+02 -1.049476E+04
       429   7 -5.321939E+05 -5.876439E+04 -3.942391E+04  6.608014E+04  8.975189E+03 -1.978105E+04
       429   8 -4.727287E+05 -4.508590E+04 -3.038144E+04  6.024943E+04  9.005149E+03 -1.512222E+04
       429   9 -4.133245E+05 -3.134092E+04 -2.136475E+04  6.633497E+04  9.034544E+03 -1.046956E+04
       429  10 -1.978898E+04  5.947807E+04  3.920475E+04  6.716514E+04  6.043010E-08 -1.982895E-09
       429  11 -7.920571E+04  4.575504E+04  3.016284E+04  6.107975E+04  2.220556E-08 -3.432621E-09
       429  12 -1.386894E+05  3.209387E+04  2.107820E+04  6.691017E+04 -1.865088E-08 -3.137687E-09
       429  13 -2.760244E+05  3.582062E+02 -1.093057E+02  6.662262E+04 -5.236772E-10  3.151985E-09
       429  14 -2.759866E+05  3.353768E+02 -1.091626E+02  6.066459E+04 -1.545542E-09 -3.061110E-09
       429  15 -2.760164E+05  3.768648E+02 -1.432397E+02  6.662258E+04 -8.456247E-10 -2.310316E-09
       429  16 -5.321941E+05 -5.876484E+04 -3.942480E+04  6.608029E+04 -6.161098E-08 -1.058301E-09
       429  17 -4.727288E+05 -4.508616E+04 -3.038203E+04  6.024954E+04 -2.244108E-08 -3.791601E-09
       429  18 -4.133246E+05 -3.134106E+04 -2.136511E+04  6.633505E+04  1.782921E-08 -4.412194E-09
       429  19 -1.978879E+04  5.947852E+04  3.920563E+04  6.716528E+04  8.917851E+03  1.982933E+04
       429  20 -7.920556E+04  4.575531E+04  3.016342E+04  6.107986E+04  8.864350E+03  1.517157E+04
       429  21 -1.386893E+05  3.209401E+04  2.107855E+04  6.691025E+04  8.811425E+03  1.051997E+04
       429  22 -2.760243E+05  3.586274E+02 -1.085687E+02  6.662262E+04 -3.044453E+01  1.980519E+04
       429  23 -2.759866E+05  3.356232E+02 -1.087315E+02  6.066459E+04 -7.176151E+01  1.514689E+04
       429  24 -2.760164E+05  3.769830E+02 -1.430327E+02  6.662258E+04 -1.125093E+02  1.049476E+04
       429  25 -5.321939E+05 -5.876439E+04 -3.942391E+04  6.608014E+04 -8.975189E+03  1.978105E+04
       429  26 -4.727287E+05 -4.508590E+04 -3.038144E+04  6.024943E+04 -9.005149E+03  1.512222E+04
       429  27 -4.133245E+05 -3.134092E+04 -2.136475E+04  6.633497E+04 -9.034544E+03  1.046956E+04
       430   1 -1.765086E+05  2.331904E+04  1.497643E+04  6.682257E+04 -8.794705E+03 -7.810360E+03
       430   2 -2.359092E+05  9.574446E+03  5.759456E+03  6.073495E+04 -8.498060E+03 -3.201507E+03
       430   3 -2.954236E+05 -4.153641E+03 -3.671082E+03  6.655925E+04 -8.201328E+03  1.320734E+03
       430   4 -2.760193E+05  3.806278E+02 -1.764289E+02  6.662166E+04  1.336403E+02 -7.784937E+03
       430   5 -2.759744E+05  3.493527E+02 -2.884473E+02  6.066571E+04  2.636193E+02 -3.176446E+03
       430   6 -2.760177E+05  3.636277E+02 -4.984536E+02  6.662171E+04  3.937126E+02  1.345431E+03
       430   7 -3.755200E+05 -2.255822E+04 -1.532920E+04  6.642078E+04  9.060610E+03 -7.759518E+03
       430   8 -3.160377E+05 -8.875776E+03 -6.336094E+03  6.059648E+04  9.024756E+03 -3.151386E+03
       430   9 -2.566113E+05  4.880917E+03  2.674442E+03  6.668418E+04  8.989013E+03  1.370129E+03
       430  10 -1.765087E+05  2.331895E+04  1.497617E+04  6.682251E+04 -1.462651E-08  2.050461E-09
       430  11 -2.359093E+05  9.574416E+03  5.759301E+03  6.073493E+04  1.666942E-08  1.377769E-09
       430  12 -2.954237E+05 -4.153661E+03 -3.671212E+03  6.655926E+04  4.679860E-08  3.890474E-09
       430  13 -2.760193E+05  3.805627E+02 -1.765428E+02  6.662166E+04  8.666632E-13 -4.989839E-10
       430  14 -2.759744E+05  3.493419E+02 -2.884664E+02  6.066572E+04 -2.162877E-09  2.261684E-09
       430  15 -2.760177E+05  3.636257E+02 -4.984573E+02  6.662171E+04 -7.509423E-10  3.802457E-09
       430  16 -3.755201E+05 -2.255830E+04 -1.532947E+04  6.642084E+04  1.383307E-08  2.303568E-09
       430  17 -3.160378E+05 -8.875809E+03 -6.336266E+03  6.059651E+04 -1.810015E-08 -4.604910E-09
       430  18 -2.566114E+05  4.880893E+03  2.674287E+03  6.668417E+04 -4.766849E-08  2.275550E-09
       430  19 -1.765086E+05  2.331904E+04  1.497643E+04  6.682257E+04  8.794705E+03  7.810360E+03
       430  20 -2.359092E+05  9.574446E+03  5.759456E+03  6.073495E+04  8.498060E+03  3.201507E+03
       430  21 -2.954236E+05 -4.153641E+03 -3.671082E+03  6.655925E+04  8.201328E+03 -1.320734E+03
       430  22 -2.760193E+05  3.806278E+02 -1.764289E+02  6.662166E+04 -1.336403E+02  7.784937E+03
       430  23 -2.759744E+05  3.493527E+02 -2.884473E+02  6.066571E+04 -2.636193E+02  3.176446E+03
       430  24 -2.760177E+05  3.636277E+02 -4.984536E+02  6.662171E+04 -3.937126E+02 -1.345431E+03
       430  25 -3.755200E+05 -2.255822E+04 -1.532920E+04  6.642078E+04 -9.060610E+03  7.759518E+03
       430  26 -3.160377E+05 -8.875776E+03 -6.336094E+03  6.059648E+04 -9.024756E+03  3.151386E+03
       430  27 -2.566113E+05  4.880917E+03  2.674442E+03  6.668418E+04 -8.989013E+03 -1.370129E+03
       431   1 -3.333080E+05 -1.295958E+04 -9.990863E+03  6.642175E+04 -8.149278E+03  3.964405E+03
       431   2 -3.925179E+05 -2.691612E+04 -2.021317E+04  6.052992E+04 -6.007504E+03  8.059056E+03
       431   3 -4.522163E+05 -4.140457E+04 -3.198662E+04  6.649365E+04 -3.863456E+03  1.133195E+04
       431   4 -2.760473E+05  3.645543E+02 -6.553202E+02  6.660896E+04  4.857518E+02  3.989155E+03
       431   5 -2.759403E+05  2.206864E+02 -1.152682E+03  6.068202E+04  1.050212E+03  8.079007E+03
       431   6 -2.760521E+05 -1.811863E+02 -2.105656E+03  6.661049E+04  1.617164E+03  1.134718E+04
       431   7 -2.187831E+05  1.368856E+04  8.680410E+03  6.679619E+04  9.121550E+03  4.013908E+03
       431   8 -1.593490E+05  2.735682E+04  1.790761E+04  6.083415E+04  8.109208E+03  8.098960E+03
       431   9 -9.985725E+04  4.104058E+04  2.777442E+04  6.672735E+04  7.099290E+03  1.136241E+04
       431  10 -3.333081E+05 -1.295962E+04 -9.991017E+03  6.642177E+04 -5.248215E-08  6.641384E-09
       431  11 -3.925180E+05 -2.691620E+04 -2.021336E+04  6.052996E+04 -1.983691E-08 -7.916365E-11
       431  12 -4.522163E+05 -4.140472E+04 -3.198689E+04  6.649369E+04  1.727835E-08  2.019587E-09
       431  13 -2.760473E+05  3.645371E+02 -6.553505E+02  6.660896E+04  2.302622E-11  2.856189E-09
       431  14 -2.759403E+05  2.206161E+02 -1.152807E+03  6.068202E+04 -1.482431E-09  3.244502E-09
       431  15 -2.760521E+05 -1.813252E+02 -2.105902E+03  6.661048E+04 -3.308432E-10 -2.211558E-10
       431  16 -2.187832E+05  1.368852E+04  8.680224E+03  6.679616E+04  5.189479E-08  5.159009E-09
       431  17 -1.593491E+05  2.735674E+04  1.790736E+04  6.083409E+04  1.822005E-08  2.169706E-09
       431  18 -9.985734E+04  4.104042E+04  2.777408E+04  6.672729E+04 -1.922609E-08 -8.303478E-09
       431  19 -3.333080E+05 -1.295958E+04 -9.990863E+03  6.642175E+04  8.149278E+03 -3.964405E+03
       431  20 -3.925179E+05 -2.691612E+04 -2.021317E+04  6.052992E+04  6.007504E+03 -8.059056E+03
       431  21 -4.522163E+05 -4.140457E+04 -3.198662E+04  6.649365E+04  3.863456E+03 -1.133195E+04
       431  22 -2.760473E+05  3.645543E+02 -6.553202E+02  6.660896E+04 -4.857518E+02 -3.989155E+03
       431  23 -2.759403E+05  2.206864E+02 -1.152682E+03  6.068202E+04 -1.050212E+03 -8.079007E+03
       431  24 -2.760521E+05 -1.811863E+02 -2.105656E+03  6.661049E+04 -1.617164E+03 -1.134718E+04
       431  25 -2.187831E+05  1.368856E+04  8.680410E+03  6.679619E+04 -9.121550E+03 -4.013908E+03
       431  26 -1.593490E+05  2.735682E+04  1.790761E+04  6.083415E+04 -8.109208E+03 -8.098960E+03
       431  27 -9.985725E+04  4.104058E+04  2.777442E+04  6.672735E+04 -7.099290E+03 -1.136241E+04
       432   1 -4.907682E+05 -5.051902E+04 -3.971870E+04  6.579263E+04 -3.888424E+03  1.334531E+04
       432   2 -5.481686E+05 -6.731194E+04 -5.762918E+04  6.323362E+04  1.362371E+04  1.257030E+04
       432   3 -6.097746E+05 -9.153245E+04 -8.881680E+04  7.199781E+04  3.115430E+04  4.038526E+03
       432   4 -2.763664E+05 -2.305311E+02 -2.789007E+03  6.648964E+04  1.972432E+03  1.336139E+04
       432   5 -2.755618E+05 -2.279218E+03 -5.114307E+03  6.084031E+04  4.603088E+03  1.254482E+04
       432   6 -2.763783E+05 -9.168415E+03 -1.037562E+04  6.651421E+04  7.253829E+03  3.972893E+03
       432   7 -6.191948E+04  5.005551E+04  3.413925E+04  6.718688E+04  7.835250E+03  1.337748E+04
       432   8 -2.883151E+03  6.274916E+04  4.739744E+04  5.844587E+04 -4.421407E+03  1.251943E+04
       432   9  5.712168E+04  7.318812E+04  6.806009E+04  6.102758E+04 -1.665941E+04  3.907702E+03
       432  10 -4.907682E+05 -5.051921E+04 -3.971906E+04  6.579267E+04  5.748750E-08  4.956568E-09
       432  11 -5.481689E+05 -6.731216E+04 -5.762982E+04  6.323348E+04 -5.312586E-10  1.617804E-10
       432  12 -6.097756E+05 -9.153273E+04 -8.881865E+04  7.199771E+04 -5.920795E-08 -7.291368E-10
       432  13 -2.763665E+05 -2.307239E+02 -2.789349E+03  6.648962E+04 -1.797775E-10  5.565946E-09
       432  14 -2.755618E+05 -2.279393E+03 -5.114642E+03  6.084026E+04 -1.292812E-09 -6.097814E-09
       432  15 -2.763783E+05 -9.168447E+03 -1.037574E+04  6.651419E+04 -4.210184E-10  3.096528E-09
       432  16 -6.191959E+04  5.005530E+04  3.413880E+04  6.718679E+04 -5.906578E-08 -2.101062E-10
       432  17 -2.883214E+03  6.274899E+04  4.739710E+04  5.844591E+04 -7.423139E-10  2.024094E-09
       432  18  5.712138E+04  7.318803E+04  6.805954E+04  6.102763E+04  5.760749E-08 -1.092177E-09
       432  19 -4.907682E+05 -5.051902E+04 -3.971870E+04  6.579263E+04  3.888424E+03 -1.334531E+04
       432  20 -5.481686E+05 -6.731194E+04 -5.762918E+04  6.323362E+04 -1.362371E+04 -1.257030E+04
       432  21 -6.097746E+05 -9.153245E+04 -8.881680E+04  7.199781E+04 -3.115430E+04 -4.038526E+03
       432  22 -2.763664E+05 -2.305311E+02 -2.789007E+03  6.648964E+04 -1.972432E+03 -1.336139E+04
       432  23 -2.755618E+05 -2.279218E+03 -5.114307E+03  6.084031E+04 -4.603088E+03 -1.254482E+04
       432  24 -2.763783E+05 -9.168415E+03 -1.037562E+04  6.651421E+04 -7.253829E+03 -3.972893E+03
       432  25 -6.191948E+04  5.005551E+04  3.413925E+04  6.718688E+04 -7.835250E+03 -1.337748E+04
       432  26 -2.883151E+03  6.274916E+04  4.739744E+04  5.844587E+04  4.421407E+03 -1.251943E+04
       432  27  5.712168E+04  7.318812E+04  6.806009E+04  6.102758E+04  1.665941E+04 -3.907702E+03
       433   1 -3.334888E+05  2.905788E+04  1.211209E+02 -1.471187E+04 -8.232196E+04 -5.384473E+03
       433   2 -3.501495E+05  1.393350E+05  6.231223E+04 -5.756725E+03 -5.669411E+04 -1.568023E+04
       433   3 -4.022401E+05  1.207849E+05  7.565555E+04  2.991709E+04 -3.110053E+04 -1.448973E+04
       433   4 -8.668972E+05 -1.038535E+05 -1.316657E+05  1.562345E+04 -8.999698E+04 -5.409881E+03
       433   5 -8.486636E+05  1.566028E+04 -5.753987E+04  2.108544E+03 -5.888205E+04 -1.568852E+04
       433   6 -8.668456E+05  5.335590E+03 -3.610556E+04  1.531420E+04 -2.779965E+04 -1.447867E+04
       433   7 -1.400044E+06 -2.367825E+05 -2.634729E+05  4.593250E+04 -9.766538E+04 -5.436052E+03
       433   8 -1.346950E+06 -1.080323E+05 -1.774096E+05  9.967297E+03 -6.106823E+04 -1.569686E+04
       433   9 -1.331253E+06 -1.101287E+05 -1.478819E+05  7.221206E+02 -2.450122E+04 -1.446777E+04
       433  10 -3.334961E+05  2.905603E+04  1.083243E+02 -1.471223E+04 -2.889112E-09  3.826912E-09
       433  11 -3.501530E+05  1.393338E+05  6.230572E+04 -5.757441E+03  8.956651E-10  1.252254E-08
       433  12 -4.022412E+05  1.207844E+05  7.565333E+04  2.991673E+04  2.162630E-09  3.270295E-09
       433  13 -8.669059E+05 -1.038557E+05 -1.316810E+05  1.562306E+04  6.167316E-10 -4.299400E-09
       433  14 -8.486674E+05  1.565908E+04 -5.754686E+04  2.107800E+03  1.484249E-10 -6.203606E-09
       433  15 -8.668465E+05  5.335157E+03 -3.610741E+04  1.531387E+04  7.516520E-11  1.205588E-09
       433  16 -1.400055E+06 -2.367851E+05 -2.634909E+05  4.593207E+04  2.883775E-09  1.160444E-09
       433  17 -1.346954E+06 -1.080335E+05 -1.774171E+05  9.966524E+03 -3.634751E-09  1.230310E-08
       433  18 -1.331254E+06 -1.101291E+05 -1.478834E+05  7.218350E+02 -7.072692E-10  1.200982E-09
       433  19 -3.334888E+05  2.905788E+04  1.211209E+02 -1.471187E+04  8.232196E+04  5.384473E+03
       433  20 -3.501495E+05  1.393350E+05  6.231223E+04 -5.756725E+03  5.669411E+04  1.568023E+04
       433  21 -4.022401E+05  1.207849E+05  7.565555E+04  2.991709E+04  3.110053E+04  1.448973E+04
       433  22 -8.668972E+05 -1.038535E+05 -1.316657E+05  1.562345E+04  8.999698E+04  5.409881E+03
       433  23 -8.486636E+05  1.566028E+04 -5.753987E+04  2.108544E+03  5.888205E+04  1.568852E+04
       433  24 -8.668456E+05  5.335590E+03 -3.610556E+04  1.531420E+04  2.779965E+04  1.447867E+04
       433  25 -1.400044E+06 -2.367825E+05 -2.634729E+05  4.593250E+04  9.766538E+04  5.436052E+03
       433  26 -1.346950E+06 -1.080323E+05 -1.774096E+05  9.967297E+03  6.106823E+04  1.569686E+04
       433  27 -1.331253E+06 -1.101287E+05 -1.478819E+05  7.221206E+02  2.450122E+04  1.446777E+04
       434   1 -4.451877E+05  9.173210E+04  7.048145E+04  1.374995E+04 -2.219981E+04 -1.201107E+04
       434   2 -4.788365E+05  9.575892E+04  7.620153E+04  1.956547E+03 -1.497038E+04 -1.149348E+04
       434   3 -5.169956E+05  8.584439E+04  7.371156E+04  1.829860E+04 -7.745865E+03 -1.004394E+04
       434   4 -8.597722E+05 -1.121932E+04 -2.950557E+04  1.575799E+04 -2.217730E+04 -1.201162E+04
       434   5 -8.574700E+05  1.749134E+03 -1.495149E+04  1.668174E+03 -1.450540E+04 -1.149221E+04
       434   6 -8.597600E+05  6.942821E+02 -8.919152E+03  1.571506E+04 -6.838002E+03 -1.004065E+04
       434   7 -1.274199E+06 -1.141833E+05 -1.295049E+05  1.776453E+04 -2.215481E+04 -1.201218E+04
       434   8 -1.235972E+06 -9.227111E+04 -1.061147E+05  1.379855E+03 -1.404070E+04 -1.149095E+04
       434   9 -1.202417E+06 -8.446439E+04 -9.155827E+04  1.313286E+04 -5.930639E+03 -1.003737E+04
       434  10 -4.451882E+05  9.173182E+04  7.048025E+04  1.374974E+04 -5.262755E-09 -4.256054E-09
       434  11 -4.788368E+05  9.575872E+04  7.620086E+04  1.956408E+03  2.309678E-09  2.114553E-09
       434  12 -5.169957E+05  8.584426E+04  7.371126E+04  1.829853E+04  1.158349E-08  8.601313E-09
       434  13 -8.597728E+05 -1.121961E+04 -2.950677E+04  1.575777E+04 -3.506876E-10  1.180095E-08
       434  14 -8.574703E+05  1.748936E+03 -1.495214E+04  1.668039E+03 -5.413980E-10 -1.936475E-08
       434  15 -8.597601E+05  6.941613E+02 -8.919430E+03  1.571501E+04 -5.470481E-10  9.899127E-09
       434  16 -1.274200E+06 -1.141836E+05 -1.295061E+05  1.776432E+04  6.594732E-09 -7.436522E-09
       434  17 -1.235972E+06 -9.227131E+04 -1.061154E+05  1.379725E+03 -4.206363E-09 -5.099702E-09
       434  18 -1.202417E+06 -8.446451E+04 -9.155852E+04  1.313281E+04 -1.064149E-08  2.334196E-09
       434  19 -4.451877E+05  9.173210E+04  7.048145E+04  1.374995E+04  2.219981E+04  1.201107E+04
       434  20 -4.788365E+05  9.575892E+04  7.620153E+04  1.956547E+03  1.497038E+04  1.149348E+04
       434  21 -5.169956E+05  8.584439E+04  7.371156E+04  1.829860E+04  7.745865E+03  1.004394E+04
       434  22 -8.597722E+05 -1.121932E+04 -2.950557E+04  1.575799E+04  2.217730E+04  1.201162E+04
       434  23 -8.574700E+05  1.749134E+03 -1.495149E+04  1.668174E+03  1.450540E+04  1.149221E+04
       434  24 -8.597600E+05  6.942821E+02 -8.919152E+03  1.571506E+04  6.838002E+03  1.004065E+04
       434  25 -1.274199E+06 -1.141833E+05 -1.295049E+05  1.776453E+04  2.215481E+04  1.201218E+04
       434  26 -1.235972E+06 -9.227111E+04 -1.061147E+05  1.379855E+03  1.404070E+04  1.149095E+04
       434  27 -1.202417E+06 -8.446439E+04 -9.155827E+04  1.313286E+04  5.930639E+03  1.003737E+04
       435   1 -5.683165E+05  7.105377E+04  6.287322E+04  1.659231E+04 -6.085266E+03 -9.058276E+03
       435   2 -6.050429E+05  6.315830E+04  5.718267E+04  2.165165E+03 -4.201048E+03 -7.651156E+03
       435   3 -6.425686E+05  5.396554E+04  4.989118E+04  1.685469E+04 -2.318106E+03 -6.155101E+03
       435   4 -8.589107E+05 -1.088852E+03 -7.009734E+03  1.595032E+04 -5.433705E+03 -9.055875E+03
       435   5 -8.585044E+05  2.152460E+02 -3.849056E+03  1.388795E+03 -3.507657E+03 -7.648403E+03
       435   6 -8.589059E+05  2.145801E+02 -2.318779E+03  1.594468E+04 -1.582772E+03 -6.151977E+03
       435   7 -1.149427E+06 -7.323763E+04 -7.689870E+04  1.530856E+04 -4.782448E+03 -9.053474E+03
       435   8 -1.111907E+06 -6.273250E+04 -6.488537E+04  6.126807E+02 -2.814548E+03 -7.645652E+03
       435   9 -1.075200E+06 -5.353980E+04 -5.453209E+04  1.503495E+04 -8.476933E+02 -6.148854E+03
       435  10 -5.683166E+05  7.105367E+04  6.287299E+04  1.659226E+04  7.360183E-09 -4.733658E-09
       435  11 -6.050429E+05  6.315823E+04  5.718253E+04  2.165139E+03  2.239287E-09 -5.111508E-09
       435  12 -6.425686E+05  5.396550E+04  4.989110E+04  1.685468E+04  1.929436E-09 -4.782529E-09
       435  13 -8.589107E+05 -1.088947E+03 -7.009943E+03  1.595028E+04 -5.311951E-10  2.578344E-09
       435  14 -8.585045E+05  2.151799E+02 -3.849189E+03  1.388773E+03 -1.946532E-09 -8.435225E-09
       435  15 -8.589060E+05  2.145388E+02 -2.318855E+03  1.594468E+04  1.111528E-09 -4.674547E-10
       435  16 -1.149427E+06 -7.323772E+04 -7.689889E+04  1.530852E+04 -7.103686E-09 -4.173465E-09
       435  17 -1.111907E+06 -6.273256E+04 -6.488549E+04  6.126633E+02 -4.956015E-09  6.804661E-09
       435  18 -1.075200E+06 -5.353984E+04 -5.453216E+04  1.503494E+04 -6.595259E-10  1.266628E-08
       435  19 -5.683165E+05  7.105377E+04  6.287322E+04  1.659231E+04  6.085266E+03  9.058276E+03
       435  20 -6.050429E+05  6.315830E+04  5.718267E+04  2.165165E+03  4.201048E+03  7.651156E+03
       435  21 -6.425686E+05  5.396554E+04  4.989118E+04  1.685469E+04  2.318106E+03  6.155101E+03
       435  22 -8.589107E+05 -1.088852E+03 -7.009734E+03  1.595032E+04  5.433705E+03  9.055875E+03
       435  23 -8.585044E+05  2.152460E+02 -3.849056E+03  1.388795E+03  3.507657E+03  7.648403E+03
       435  24 -8.589059E+05  2.145801E+02 -2.318779E+03  1.594468E+04  1.582772E+03  6.151977E+03
       435  25 -1.149427E+06 -7.323763E+04 -7.689870E+04  1.530856E+04  4.782448E+03  9.053474E+03
       435  26 -1.111907E+06 -6.273250E+04 -6.488537E+04  6.126807E+02  2.814548E+03  7.645652E+03
       435  27 -1.075200E+06 -5.353980E+04 -5.453209E+04  1.503495E+04  8.476933E+02  6.148854E+03
       436   1 -6.960666E+05  4.042066E+04  3.722319E+04  1.661448E+04 -1.929847E+03 -5.269484E+03
       436   2 -7.337477E+05  3.106635E+04  2.884372E+04  1.658513E+03 -1.333726E+03 -3.765529E+03
       436   3 -7.718051E+05  2.179180E+04  2.002758E+04  1.640068E+04 -7.381201E+02 -2.247815E+03
       436   4 -8.588049E+05  2.704563E+01 -1.852907E+03  1.607587E+04 -1.212965E+03 -5.266343E+03
       436   5 -8.586145E+05  5.467652E+01 -1.226137E+03  1.226224E+03 -6.104016E+02 -3.762270E+03
       436   6 -8.588028E+05  1.610030E+02 -1.040531E+03  1.607507E+04 -8.317473E+00 -2.244430E+03
       436   7 -1.021519E+06 -4.036849E+04 -4.093088E+04  1.553738E+04 -4.962705E+02 -5.263203E+03
       436   8 -9.834670E+05 -3.095814E+04 -3.129711E+04  7.940069E+02  1.127776E+02 -3.759010E+03
       436   9 -9.457936E+05 -2.147035E+04 -2.210918E+04  1.574950E+04  7.213831E+02 -2.241045E+03
       436  10 -6.960666E+05  4.042063E+04  3.722313E+04  1.661447E+04  3.210111E-09 -7.967275E-09
       436  11 -7.337477E+05  3.106634E+04  2.884369E+04  1.658509E+03 -1.383649E-09  5.248407E-09
       436  12 -7.718051E+05  2.179180E+04  2.002757E+04  1.640068E+04 -1.509155E-09 -3.067843E-09
       436  13 -8.588049E+05  2.701547E+01 -1.852962E+03  1.607587E+04 -2.680142E-10  3.515297E-09
       436  14 -8.586145E+05  5.466123E+01 -1.226164E+03  1.226222E+03 -1.552141E-09 -1.056842E-08
       436  15 -8.588028E+05  1.609975E+02 -1.040540E+03  1.607507E+04  6.889498E-10 -1.036627E-08
       436  16 -1.021519E+06 -4.036852E+04 -4.093093E+04  1.553738E+04 -2.530562E-09  8.837409E-09
       436  17 -9.834670E+05 -3.095815E+04 -3.129713E+04  7.940072E+02 -2.460350E-09  1.091739E-08
       436  18 -9.457936E+05 -2.147036E+04 -2.210919E+04  1.574950E+04  2.515831E-09 -2.929039E-09
       436  19 -6.960666E+05  4.042066E+04  3.722319E+04  1.661448E+04  1.929847E+03  5.269484E+03
       436  20 -7.337477E+05  3.106635E+04  2.884372E+04  1.658513E+03  1.333726E+03  3.765529E+03
       436  21 -7.718051E+05  2.179180E+04  2.002758E+04  1.640068E+04  7.381201E+02  2.247815E+03
       436  22 -8.588049E+05  2.704563E+01 -1.852907E+03  1.607587E+04  1.212965E+03  5.266343E+03
       436  23 -8.586145E+05  5.467652E+01 -1.226137E+03  1.226224E+03  6.104016E+02  3.762270E+03
       436  24 -8.588028E+05  1.610030E+02 -1.040531E+03  1.607507E+04  8.317473E+00  2.244430E+03
       436  25 -1.021519E+06 -4.036849E+04 -4.093088E+04  1.553738E+04  4.962705E+02  5.263203E+03
       436  26 -9.834670E+05 -3.095814E+04 -3.129711E+04  7.940069E+02 -1.127776E+02  3.759010E+03
       436  27 -9.457936E+05 -2.147035E+04 -2.210918E+04  1.574950E+04 -7.213831E+02  2.241045E+03
       437   1 -8.261073E+05  8.261853E+03  6.691648E+03  1.620470E+04 -5.526090E+02 -1.360260E+03
       437   2 -8.639982E+05 -1.278128E+03 -2.664775E+03  1.148494E+03  1.208824E+02  1.632839E+02
       437   3 -9.023100E+05 -1.076351E+04 -1.252079E+04  1.597545E+04  7.943607E+02  1.682372E+03
       437   4 -8.588106E+05  1.628501E+02 -1.067655E+03  1.611603E+04  1.774984E+02 -1.356842E+03
       437   5 -8.585996E+05  6.284545E+01 -1.364636E+03  1.174782E+03  8.488290E+02  1.666857E+02
       437   6 -8.588110E+05  1.778103E+01 -2.159754E+03  1.611667E+04  1.520188E+03  1.685763E+03
       437   7 -8.915130E+05 -7.936229E+03 -8.827030E+03  1.602736E+04  9.075676E+02 -1.353424E+03
       437   8 -8.532010E+05  1.403817E+03 -6.449679E+01  1.201069E+03  1.576782E+03  1.700876E+02
       437   9 -8.153102E+05  1.079894E+04  8.201155E+03  1.625791E+04  2.246066E+03  1.689153E+03
       437  10 -8.261073E+05  8.261851E+03  6.691644E+03  1.620470E+04 -1.547686E-09 -1.988918E-09
       437  11 -8.639982E+05 -1.278128E+03 -2.664775E+03  1.148494E+03 -1.141216E-09 -6.499345E-09
       437  12 -9.023100E+05 -1.076351E+04 -1.252080E+04  1.597544E+04 -6.351517E-09 -7.059769E-09
       437  13 -8.588106E+05  1.628481E+02 -1.067658E+03  1.611603E+04 -6.786016E-11  5.908842E-09
       437  14 -8.585996E+05  6.284523E+01 -1.364637E+03  1.174782E+03 -2.465577E-09 -1.177061E-08
       437  15 -8.588110E+05  1.777736E+01 -2.159763E+03  1.611667E+04  2.995291E-10 -1.062324E-08
       437  16 -8.915130E+05 -7.936232E+03 -8.827035E+03  1.602736E+04  1.075725E-09 -3.418104E-09
       437  17 -8.532010E+05  1.403817E+03 -6.450153E+01  1.201069E+03 -4.580880E-10 -1.976396E-08
       437  18 -8.153102E+05  1.079893E+04  8.201140E+03  1.625790E+04  8.816924E-09 -1.678873E-08
       437  19 -8.261073E+05  8.261853E+03  6.691648E+03  1.620470E+04  5.526090E+02  1.360260E+03
       437  20 -8.639982E+05 -1.278128E+03 -2.664775E+03  1.148494E+03 -1.208824E+02 -1.632839E+02
       437  21 -9.023100E+05 -1.076351E+04 -1.252079E+04  1.597545E+04 -7.943607E+02 -1.682372E+03
       437  22 -8.588106E+05  1.628501E+02 -1.067655E+03  1.611603E+04 -1.774984E+02  1.356842E+03
       437  23 -8.585996E+05  6.284545E+01 -1.364636E+03  1.174782E+03 -8.488290E+02 -1.666857E+02
       437  24 -8.588110E+05  1.778103E+01 -2.159754E+03  1.611667E+04 -1.520188E+03 -1.685763E+03
       437  25 -8.915130E+05 -7.936229E+03 -8.827030E+03  1.602736E+04 -9.075676E+02  1.353424E+03
       437  26 -8.532010E+05  1.403817E+03 -6.449679E+01  1.201069E+03 -1.576782E+03 -1.700876E+02
       437  27 -8.153102E+05  1.079894E+04  8.201155E+03  1.625791E+04 -2.246066E+03 -1.689153E+03
       438   1 -9.566992E+05 -2.406871E+04 -2.639641E+04  1.549897E+04  1.213425E+03  2.577393E+03
       438   2 -9.940141E+05 -3.340903E+04 -3.723104E+04  8.127906E+02  3.536562E+03  4.100839E+03
       438   3 -1.032346E+06 -4.434970E+04 -5.004759E+04  1.579293E+04  5.860338E+03  5.557284E+03
       438   4 -8.589442E+05  2.387240E+02 -2.735565E+03  1.606574E+04  1.954951E+03  2.580820E+03
       438   5 -8.584399E+05  2.665671E+02 -4.578271E+03  1.236311E+03  4.246408E+03  4.104015E+03
       438   6 -8.589478E+05 -1.299909E+03 -8.380275E+03  1.607281E+04  6.538643E+03  5.560221E+03
       438   7 -7.611803E+05  2.454545E+04  2.092460E+04  1.663259E+04  2.696594E+03  2.584247E+03
       438   8 -7.228488E+05  3.394082E+04  2.807318E+04  1.659904E+03  4.956408E+03  4.107193E+03
       438   9 -6.855217E+05  4.174769E+04  3.328490E+04  1.635273E+04  7.217136E+03  5.563158E+03
       438  10 -9.566993E+05 -2.406871E+04 -2.639643E+04  1.549897E+04 -2.574694E-09 -3.760951E-09
       438  11 -9.940141E+05 -3.340905E+04 -3.723109E+04  8.127790E+02  2.344978E-09 -9.472991E-09
       438  12 -1.032346E+06 -4.434975E+04 -5.004771E+04  1.579290E+04  4.085307E-09  2.841956E-09
       438  13 -8.589442E+05  2.387158E+02 -2.735585E+03  1.606574E+04  1.395149E-11 -1.538972E-09
       438  14 -8.584399E+05  2.665442E+02 -4.578337E+03  1.236297E+03 -2.588027E-09  6.525454E-09
       438  15 -8.589478E+05 -1.299954E+03 -8.380414E+03  1.607278E+04 -1.559582E-10  1.154887E-08
       438  16 -7.611803E+05  2.454545E+04  2.092457E+04  1.663258E+04  2.255304E-09 -1.391884E-09
       438  17 -7.228488E+05  3.394080E+04  2.807311E+04  1.659888E+03 -3.477154E-09 -9.706898E-09
       438  18 -6.855218E+05  4.174765E+04  3.328475E+04  1.635270E+04 -2.744847E-09  1.125428E-08
       438  19 -9.566992E+05 -2.406871E+04 -2.639641E+04  1.549897E+04 -1.213425E+03 -2.577393E+03
       438  20 -9.940141E+05 -3.340903E+04 -3.723104E+04  8.127906E+02 -3.536562E+03 -4.100839E+03
       438  21 -1.032346E+06 -4.434970E+04 -5.004759E+04  1.579293E+04 -5.860338E+03 -5.557284E+03
       438  22 -8.589442E+05  2.387240E+02 -2.735565E+03  1.606574E+04 -1.954951E+03 -2.580820E+03
       438  23 -8.584399E+05  2.665671E+02 -4.578271E+03  1.236311E+03 -4.246408E+03 -4.104015E+03
       438  24 -8.589478E+05 -1.299909E+03 -8.380275E+03  1.607281E+04 -6.538643E+03 -5.560221E+03
       438  25 -7.611803E+05  2.454545E+04  2.092460E+04  1.663259E+04 -2.696594E+03 -2.584247E+03
       438  26 -7.228488E+05  3.394082E+04  2.807318E+04  1.659904E+03 -4.956408E+03 -4.107193E+03
       438  27 -6.855217E+05  4.174769E+04  3.328490E+04  1.635273E+04 -7.217136E+03 -5.563158E+03
       439   1 -1.086849E+06 -5.556684E+04 -6.542589E+04  1.330988E+04  7.333748E+03  6.540087E+03
       439   2 -1.121069E+06 -6.342839E+04 -8.144096E+04  1.501672E+03  1.686501E+04  8.050157E+03
       439   3 -1.160973E+06 -8.816924E+04 -1.079372E+05  1.876702E+04  2.639953E+04  8.810256E+03
       439   4 -8.599769E+05  8.310926E+02 -1.067427E+04  1.591773E+04  8.219531E+03  6.543860E+03
       439   5 -8.571725E+05  2.114974E+03 -1.788734E+04  1.410725E+03  1.739478E+04  8.052150E+03
       439   6 -8.599894E+05 -1.341429E+04 -3.533057E+04  1.597665E+04  2.657385E+04  8.810531E+03
       439   7 -6.330575E+05  5.722528E+04  4.407368E+04  1.852649E+04  9.105637E+03  6.547639E+03
       439   8 -5.932125E+05  6.765326E+04  4.566131E+04  1.319672E+03  1.792477E+04  8.054142E+03
       439   9 -5.589228E+05  6.133407E+04  3.726956E+04  1.318484E+04  2.674825E+04  8.810804E+03
       439  10 -1.086849E+06 -5.556690E+04 -6.542607E+04  1.330984E+04  1.379041E-08  3.675602E-09
       439  11 -1.121069E+06 -6.342854E+04 -8.144162E+04  1.501563E+03  3.544431E-09  1.130176E-08
       439  12 -1.160974E+06 -8.816951E+04 -1.079386E+05  1.876683E+04  4.059582E-10 -5.989234E-09
       439  13 -8.599770E+05  8.310285E+02 -1.067447E+04  1.591769E+04 -2.125397E-10 -5.354619E-09
       439  14 -8.571728E+05  2.114823E+03 -1.788803E+04  1.410612E+03 -3.730690E-09  8.651956E-09
       439  15 -8.599902E+05 -1.341456E+04 -3.533205E+04  1.597646E+04 -1.928817E-11 -8.430532E-10
       439  16 -6.330576E+05  5.722521E+04  4.407344E+04  1.852644E+04 -1.429703E-08  1.296293E-09
       439  17 -5.932129E+05  6.765310E+04  4.566058E+04  1.319556E+03 -6.592184E-09 -2.451222E-08
       439  18 -5.589236E+05  6.133380E+04  3.726807E+04  1.318465E+04  7.037893E-10 -6.903641E-10
       439  19 -1.086849E+06 -5.556684E+04 -6.542589E+04  1.330988E+04 -7.333748E+03 -6.540087E+03
       439  20 -1.121069E+06 -6.342839E+04 -8.144096E+04  1.501672E+03 -1.686501E+04 -8.050157E+03
       439  21 -1.160973E+06 -8.816924E+04 -1.079372E+05  1.876702E+04 -2.639953E+04 -8.810256E+03
       439  22 -8.599769E+05  8.310926E+02 -1.067427E+04  1.591773E+04 -8.219531E+03 -6.543860E+03
       439  23 -8.571725E+05  2.114974E+03 -1.788734E+04  1.410725E+03 -1.739478E+04 -8.052150E+03
       439  24 -8.599894E+05 -1.341429E+04 -3.533057E+04  1.597665E+04 -2.657385E+04 -8.810531E+03
       439  25 -6.330575E+05  5.722528E+04  4.407368E+04  1.852649E+04 -9.105637E+03 -6.547639E+03
       439  26 -5.932125E+05  6.765326E+04  4.566131E+04  1.319672E+03 -1.792477E+04 -8.054142E+03
       439  27 -5.589228E+05  6.133407E+04  3.726956E+04  1.318484E+04 -2.674825E+04 -8.810804E+03
       440   1 -1.221370E+06 -8.140255E+04 -1.282033E+05 -1.528845E+03  3.048756E+04  1.099214E+04
       440   2 -1.235115E+06 -7.760311E+04 -1.623258E+05  1.142574E+04  7.212854E+04  1.237471E+04
       440   3 -1.293471E+06 -2.301400E+05 -2.626977E+05  5.255630E+04  1.137994E+05  4.477413E+03
       440   4 -8.684730E+05  6.409597E+03 -4.323790E+04  1.558999E+04  3.330920E+04  1.100368E+04
       440   5 -8.465956E+05  1.878898E+04 -6.888113E+04  1.732595E+03  7.052185E+04  1.236701E+04
       440   6 -8.685324E+05 -1.243480E+05 -1.576664E+05  1.605294E+04  1.077672E+05  4.449427E+03
       440   7 -5.154610E+05  9.421370E+04  4.171879E+04  3.271850E+04  3.613243E+04  1.101538E+04
       440   8 -4.579371E+05  1.151705E+05  2.455289E+04 -7.966771E+03  6.891415E+04  1.235936E+04
       440   9 -4.434267E+05 -1.856430E+04 -5.264758E+04 -2.047562E+04  1.017309E+05  4.422163E+03
       440  10 -1.221371E+06 -8.140293E+04 -1.282053E+05 -1.529115E+03  9.009499E-09 -5.036268E-09
       440  11 -1.235121E+06 -7.760467E+04 -1.623359E+05  1.142502E+04  6.697866E-09 -9.016123E-11
       440  12 -1.293485E+06 -2.301435E+05 -2.627221E+05  5.255589E+04  2.605418E-09  9.757817E-09
       440  13 -8.684742E+05  6.409169E+03 -4.324022E+04  1.558970E+04 -8.209553E-10  3.462283E-09
       440  14 -8.466010E+05  1.878748E+04 -6.889078E+04  1.731893E+03 -2.650896E-09  4.770444E-09
       440  15 -8.685449E+05 -1.243511E+05 -1.576883E+05  1.605255E+04 -9.168322E-11  5.972256E-09
       440  16 -5.154625E+05  9.421322E+04  4.171611E+04  3.271818E+04 -9.126630E-09  8.182800E-09
       440  17 -4.579423E+05  1.151690E+05  2.454367E+04 -7.967457E+03 -9.667631E-09  6.211871E-09
       440  18 -4.434378E+05 -1.856711E+04 -5.266708E+04 -2.047598E+04 -2.183948E-09 -3.242874E-09
       440  19 -1.221370E+06 -8.140255E+04 -1.282033E+05 -1.528845E+03 -3.048756E+04 -1.099214E+04
       440  20 -1.235115E+06 -7.760311E+04 -1.623258E+05  1.142574E+04 -7.212854E+04 -1.237471E+04
       440  21 -1.293471E+06 -2.301400E+05 -2.626977E+05  5.255630E+04 -1.137994E+05 -4.477413E+03
       440  22 -8.684730E+05  6.409597E+03 -4.323790E+04  1.558999E+04 -3.330920E+04 -1.100368E+04
       440  23 -8.465956E+05  1.878898E+04 -6.888113E+04  1.732595E+03 -7.052185E+04 -1.236701E+04
       440  24 -8.685324E+05 -1.243480E+05 -1.576664E+05  1.605294E+04 -1.077672E+05 -4.449427E+03
       440  25 -5.154610E+05  9.421370E+04  4.171879E+04  3.271850E+04 -3.613243E+04 -1.101538E+04
       440  26 -4.579371E+05  1.151705E+05  2.455289E+04 -7.966771E+03 -6.891415E+04 -1.235936E+04
       440  27 -4.434267E+05 -1.856430E+04 -5.264758E+04 -2.047562E+04 -1.017309E+05 -4.422163E+03
