    1C
    1UUSER                                                              
    1UDATE              11.october.2022                                 
    1UTIME              17:34:24                                        
    1UHOST                                                              
    1UPGM               CalculiX                                        
    1UVERSION           Version 2.20                             
    1UCOMPILETIME       Sun Jul 31 18:08:37 CEST 2022                    
    1UDIR                                                               
    1UDBN                                                               
    1UMAT    1MESH_MATERIAL                                             
    2C                           841                                     1
 -1         1 0.00000E+00 0.00000E+00 0.00000E+00
 -1         2 1.66667E-02 0.00000E+00 0.00000E+00
 -1         3 3.33333E-02 0.00000E+00 0.00000E+00
 -1         4 5.00000E-02 0.00000E+00 0.00000E+00
 -1         5 6.66667E-02 0.00000E+00 0.00000E+00
 -1         8 0.00000E+00 6.25000E-03 0.00000E+00
 -1         9 1.66667E-02 6.25000E-03 0.00000E+00
 -1        10 3.33333E-02 6.25000E-03 0.00000E+00
 -1        11 5.00000E-02 6.25000E-03 0.00000E+00
 -1        12 6.66667E-02 6.25000E-03 0.00000E+00
 -1        15 0.00000E+00 1.25000E-02 0.00000E+00
 -1        16 1.66667E-02 1.25000E-02 0.00000E+00
 -1        17 3.33333E-02 1.25000E-02 0.00000E+00
 -1        18 5.00000E-02 1.25000E-02 0.00000E+00
 -1        19 6.66667E-02 1.25000E-02 0.00000E+00
 -1        20 8.33333E-02 1.25000E-02 0.00000E+00
 -1        21 1.00000E-01 1.25000E-02 0.00000E+00
 -1        22 0.00000E+00 1.87500E-02 0.00000E+00
 -1        23 1.66667E-02 1.87500E-02 0.00000E+00
 -1        24 3.33333E-02 1.87500E-02 0.00000E+00
 -1        25 5.00000E-02 1.87500E-02 0.00000E+00
 -1        26 6.66667E-02 1.87500E-02 0.00000E+00
 -1        27 8.33333E-02 1.87500E-02 0.00000E+00
 -1        28 1.00000E-01 1.87500E-02 0.00000E+00
 -1        29 0.00000E+00 2.50000E-02 0.00000E+00
 -1        30 1.66667E-02 2.50000E-02 0.00000E+00
 -1        31 3.33333E-02 2.50000E-02 0.00000E+00
 -1        32 5.00000E-02 2.50000E-02 0.00000E+00
 -1        33 6.66667E-02 2.50000E-02 0.00000E+00
 -1        34 8.33333E-02 2.50000E-02 0.00000E+00
 -1        35 1.00000E-01 2.50000E-02 0.00000E+00
 -1        36 1.04167E-03 0.00000E+00 0.00000E+00
 -1        37 2.08333E-03 0.00000E+00 0.00000E+00
 -1        38 3.12500E-03 0.00000E+00 0.00000E+00
 -1        39 4.16667E-03 0.00000E+00 0.00000E+00
 -1        40 5.20833E-03 0.00000E+00 0.00000E+00
 -1        41 6.25000E-03 0.00000E+00 0.00000E+00
 -1        42 7.29167E-03 0.00000E+00 0.00000E+00
 -1        43 8.33333E-03 0.00000E+00 0.00000E+00
 -1        44 9.37500E-03 0.00000E+00 0.00000E+00
 -1        45 1.04167E-02 0.00000E+00 0.00000E+00
 -1        46 1.14583E-02 0.00000E+00 0.00000E+00
 -1        47 1.25000E-02 0.00000E+00 0.00000E+00
 -1        48 1.35417E-02 0.00000E+00 0.00000E+00
 -1        49 1.45833E-02 0.00000E+00 0.00000E+00
 -1        50 1.56250E-02 0.00000E+00 0.00000E+00
 -1        51 0.00000E+00 1.04167E-03 0.00000E+00
 -1        52 0.00000E+00 2.08333E-03 0.00000E+00
 -1        53 0.00000E+00 3.12500E-03 0.00000E+00
 -1        54 0.00000E+00 4.16667E-03 0.00000E+00
 -1        55 0.00000E+00 5.20833E-03 0.00000E+00
 -1        56 1.04167E-03 3.90630E-04 0.00000E+00
 -1        57 2.08333E-03 7.81250E-04 0.00000E+00
 -1        58 3.12500E-03 1.17188E-03 0.00000E+00
 -1        59 4.16667E-03 1.56250E-03 0.00000E+00
 -1        60 5.20833E-03 1.95312E-03 0.00000E+00
 -1        61 6.25000E-03 2.34375E-03 0.00000E+00
 -1        62 7.29167E-03 2.73438E-03 0.00000E+00
 -1        63 8.33333E-03 3.12500E-03 0.00000E+00
 -1        64 9.37500E-03 3.51563E-03 0.00000E+00
 -1        65 1.04167E-02 3.90625E-03 0.00000E+00
 -1        66 1.14583E-02 4.29688E-03 0.00000E+00
 -1        67 1.25000E-02 4.68750E-03 0.00000E+00
 -1        68 1.35417E-02 5.07813E-03 0.00000E+00
 -1        69 1.45833E-02 5.46875E-03 0.00000E+00
 -1        70 1.56250E-02 5.85938E-03 0.00000E+00
 -1        71 1.77083E-02 0.00000E+00 0.00000E+00
 -1        72 1.87500E-02 0.00000E+00 0.00000E+00
 -1        73 1.97917E-02 0.00000E+00 0.00000E+00
 -1        74 2.08333E-02 0.00000E+00 0.00000E+00
 -1        75 2.18750E-02 0.00000E+00 0.00000E+00
 -1        76 2.29167E-02 0.00000E+00 0.00000E+00
 -1        77 2.39583E-02 0.00000E+00 0.00000E+00
 -1        78 2.50000E-02 0.00000E+00 0.00000E+00
 -1        79 2.60417E-02 0.00000E+00 0.00000E+00
 -1        80 2.70833E-02 0.00000E+00 0.00000E+00
 -1        81 2.81250E-02 0.00000E+00 0.00000E+00
 -1        82 2.91667E-02 0.00000E+00 0.00000E+00
 -1        83 3.02083E-02 0.00000E+00 0.00000E+00
 -1        84 3.12500E-02 0.00000E+00 0.00000E+00
 -1        85 3.22917E-02 0.00000E+00 0.00000E+00
 -1        86 1.66667E-02 1.04167E-03 0.00000E+00
 -1        87 1.66667E-02 2.08333E-03 0.00000E+00
 -1        88 1.66667E-02 3.12500E-03 0.00000E+00
 -1        89 1.66667E-02 4.16667E-03 0.00000E+00
 -1        90 1.66667E-02 5.20833E-03 0.00000E+00
 -1        91 1.77083E-02 3.90630E-04 0.00000E+00
 -1        92 1.87500E-02 7.81250E-04 0.00000E+00
 -1        93 1.97917E-02 1.17188E-03 0.00000E+00
 -1        94 2.08333E-02 1.56250E-03 0.00000E+00
 -1        95 2.18750E-02 1.95312E-03 0.00000E+00
 -1        96 2.29167E-02 2.34375E-03 0.00000E+00
 -1        97 2.39583E-02 2.73438E-03 0.00000E+00
 -1        98 2.50000E-02 3.12500E-03 0.00000E+00
 -1        99 2.60417E-02 3.51563E-03 0.00000E+00
 -1       100 2.70833E-02 3.90625E-03 0.00000E+00
 -1       101 2.81250E-02 4.29688E-03 0.00000E+00
 -1       102 2.91667E-02 4.68750E-03 0.00000E+00
 -1       103 3.02083E-02 5.07813E-03 0.00000E+00
 -1       104 3.12500E-02 5.46875E-03 0.00000E+00
 -1       105 3.22917E-02 5.85938E-03 0.00000E+00
 -1       106 3.43750E-02 0.00000E+00 0.00000E+00
 -1       107 3.54167E-02 0.00000E+00 0.00000E+00
 -1       108 3.64583E-02 0.00000E+00 0.00000E+00
 -1       109 3.75000E-02 0.00000E+00 0.00000E+00
 -1       110 3.85417E-02 0.00000E+00 0.00000E+00
 -1       111 3.95833E-02 0.00000E+00 0.00000E+00
 -1       112 4.06250E-02 0.00000E+00 0.00000E+00
 -1       113 4.16667E-02 0.00000E+00 0.00000E+00
 -1       114 4.27083E-02 0.00000E+00 0.00000E+00
 -1       115 4.37500E-02 0.00000E+00 0.00000E+00
 -1       116 4.47917E-02 0.00000E+00 0.00000E+00
 -1       117 4.58333E-02 0.00000E+00 0.00000E+00
 -1       118 4.68750E-02 0.00000E+00 0.00000E+00
 -1       119 4.79167E-02 0.00000E+00 0.00000E+00
 -1       120 4.89583E-02 0.00000E+00 0.00000E+00
 -1       121 3.33333E-02 1.04167E-03 0.00000E+00
 -1       122 3.33333E-02 2.08333E-03 0.00000E+00
 -1       123 3.33333E-02 3.12500E-03 0.00000E+00
 -1       124 3.33333E-02 4.16667E-03 0.00000E+00
 -1       125 3.33333E-02 5.20833E-03 0.00000E+00
 -1       126 3.43750E-02 3.90630E-04 0.00000E+00
 -1       127 3.54167E-02 7.81250E-04 0.00000E+00
 -1       128 3.64583E-02 1.17188E-03 0.00000E+00
 -1       129 3.75000E-02 1.56250E-03 0.00000E+00
 -1       130 3.85417E-02 1.95312E-03 0.00000E+00
 -1       131 3.95833E-02 2.34375E-03 0.00000E+00
 -1       132 4.06250E-02 2.73438E-03 0.00000E+00
 -1       133 4.16667E-02 3.12500E-03 0.00000E+00
 -1       134 4.27083E-02 3.51563E-03 0.00000E+00
 -1       135 4.37500E-02 3.90625E-03 0.00000E+00
 -1       136 4.47917E-02 4.29688E-03 0.00000E+00
 -1       137 4.58333E-02 4.68750E-03 0.00000E+00
 -1       138 4.68750E-02 5.07813E-03 0.00000E+00
 -1       139 4.79167E-02 5.46875E-03 0.00000E+00
 -1       140 4.89583E-02 5.85938E-03 0.00000E+00
 -1       141 5.10417E-02 0.00000E+00 0.00000E+00
 -1       142 5.20833E-02 0.00000E+00 0.00000E+00
 -1       143 5.31250E-02 0.00000E+00 0.00000E+00
 -1       144 5.41667E-02 0.00000E+00 0.00000E+00
 -1       145 5.52083E-02 0.00000E+00 0.00000E+00
 -1       146 5.62500E-02 0.00000E+00 0.00000E+00
 -1       147 5.72917E-02 0.00000E+00 0.00000E+00
 -1       148 5.83333E-02 0.00000E+00 0.00000E+00
 -1       149 5.93750E-02 0.00000E+00 0.00000E+00
 -1       150 6.04167E-02 0.00000E+00 0.00000E+00
 -1       151 6.14583E-02 0.00000E+00 0.00000E+00
 -1       152 6.25000E-02 0.00000E+00 0.00000E+00
 -1       153 6.35417E-02 0.00000E+00 0.00000E+00
 -1       154 6.45833E-02 0.00000E+00 0.00000E+00
 -1       155 6.56250E-02 0.00000E+00 0.00000E+00
 -1       156 5.00000E-02 1.04167E-03 0.00000E+00
 -1       157 5.00000E-02 2.08333E-03 0.00000E+00
 -1       158 5.00000E-02 3.12500E-03 0.00000E+00
 -1       159 5.00000E-02 4.16667E-03 0.00000E+00
 -1       160 5.00000E-02 5.20833E-03 0.00000E+00
 -1       161 5.10417E-02 3.90630E-04 0.00000E+00
 -1       162 5.20833E-02 7.81250E-04 0.00000E+00
 -1       163 5.31250E-02 1.17188E-03 0.00000E+00
 -1       164 5.41667E-02 1.56250E-03 0.00000E+00
 -1       165 5.52083E-02 1.95312E-03 0.00000E+00
 -1       166 5.62500E-02 2.34375E-03 0.00000E+00
 -1       167 5.72917E-02 2.73438E-03 0.00000E+00
 -1       168 5.83333E-02 3.12500E-03 0.00000E+00
 -1       169 5.93750E-02 3.51563E-03 0.00000E+00
 -1       170 6.04167E-02 3.90625E-03 0.00000E+00
 -1       171 6.14583E-02 4.29688E-03 0.00000E+00
 -1       172 6.25000E-02 4.68750E-03 0.00000E+00
 -1       173 6.35417E-02 5.07813E-03 0.00000E+00
 -1       174 6.45833E-02 5.46875E-03 0.00000E+00
 -1       175 6.56250E-02 5.85938E-03 0.00000E+00
 -1       191 6.66667E-02 1.04167E-03 0.00000E+00
 -1       192 6.66667E-02 2.08333E-03 0.00000E+00
 -1       193 6.66667E-02 3.12500E-03 0.00000E+00
 -1       194 6.66667E-02 4.16667E-03 0.00000E+00
 -1       195 6.66667E-02 5.20833E-03 0.00000E+00
 -1       251 1.04167E-03 6.25000E-03 0.00000E+00
 -1       252 2.08333E-03 6.25000E-03 0.00000E+00
 -1       253 3.12500E-03 6.25000E-03 0.00000E+00
 -1       254 4.16667E-03 6.25000E-03 0.00000E+00
 -1       255 5.20833E-03 6.25000E-03 0.00000E+00
 -1       256 6.25000E-03 6.25000E-03 0.00000E+00
 -1       257 7.29167E-03 6.25000E-03 0.00000E+00
 -1       258 8.33333E-03 6.25000E-03 0.00000E+00
 -1       259 9.37500E-03 6.25000E-03 0.00000E+00
 -1       260 1.04167E-02 6.25000E-03 0.00000E+00
 -1       261 1.14583E-02 6.25000E-03 0.00000E+00
 -1       262 1.25000E-02 6.25000E-03 0.00000E+00
 -1       263 1.35417E-02 6.25000E-03 0.00000E+00
 -1       264 1.45833E-02 6.25000E-03 0.00000E+00
 -1       265 1.56250E-02 6.25000E-03 0.00000E+00
 -1       266 0.00000E+00 7.29167E-03 0.00000E+00
 -1       267 0.00000E+00 8.33333E-03 0.00000E+00
 -1       268 0.00000E+00 9.37500E-03 0.00000E+00
 -1       269 0.00000E+00 1.04167E-02 0.00000E+00
 -1       270 0.00000E+00 1.14583E-02 0.00000E+00
 -1       271 1.04167E-03 6.64063E-03 0.00000E+00
 -1       272 2.08333E-03 7.03125E-03 0.00000E+00
 -1       273 3.12500E-03 7.42188E-03 0.00000E+00
 -1       274 4.16667E-03 7.81250E-03 0.00000E+00
 -1       275 5.20833E-03 8.20313E-03 0.00000E+00
 -1       276 6.25000E-03 8.59375E-03 0.00000E+00
 -1       277 7.29167E-03 8.98438E-03 0.00000E+00
 -1       278 8.33333E-03 9.37500E-03 0.00000E+00
 -1       279 9.37500E-03 9.76562E-03 0.00000E+00
 -1       280 1.04167E-02 1.01562E-02 0.00000E+00
 -1       281 1.14583E-02 1.05469E-02 0.00000E+00
 -1       282 1.25000E-02 1.09375E-02 0.00000E+00
 -1       283 1.35417E-02 1.13281E-02 0.00000E+00
 -1       284 1.45833E-02 1.17188E-02 0.00000E+00
 -1       285 1.56250E-02 1.21094E-02 0.00000E+00
 -1       286 1.77083E-02 6.25000E-03 0.00000E+00
 -1       287 1.87500E-02 6.25000E-03 0.00000E+00
 -1       288 1.97917E-02 6.25000E-03 0.00000E+00
 -1       289 2.08333E-02 6.25000E-03 0.00000E+00
 -1       290 2.18750E-02 6.25000E-03 0.00000E+00
 -1       291 2.29167E-02 6.25000E-03 0.00000E+00
 -1       292 2.39583E-02 6.25000E-03 0.00000E+00
 -1       293 2.50000E-02 6.25000E-03 0.00000E+00
 -1       294 2.60417E-02 6.25000E-03 0.00000E+00
 -1       295 2.70833E-02 6.25000E-03 0.00000E+00
 -1       296 2.81250E-02 6.25000E-03 0.00000E+00
 -1       297 2.91667E-02 6.25000E-03 0.00000E+00
 -1       298 3.02083E-02 6.25000E-03 0.00000E+00
 -1       299 3.12500E-02 6.25000E-03 0.00000E+00
 -1       300 3.22917E-02 6.25000E-03 0.00000E+00
 -1       301 1.66667E-02 7.29167E-03 0.00000E+00
 -1       302 1.66667E-02 8.33333E-03 0.00000E+00
 -1       303 1.66667E-02 9.37500E-03 0.00000E+00
 -1       304 1.66667E-02 1.04167E-02 0.00000E+00
 -1       305 1.66667E-02 1.14583E-02 0.00000E+00
 -1       306 1.77083E-02 6.64063E-03 0.00000E+00
 -1       307 1.87500E-02 7.03125E-03 0.00000E+00
 -1       308 1.97917E-02 7.42188E-03 0.00000E+00
 -1       309 2.08333E-02 7.81250E-03 0.00000E+00
 -1       310 2.18750E-02 8.20313E-03 0.00000E+00
 -1       311 2.29167E-02 8.59375E-03 0.00000E+00
 -1       312 2.39583E-02 8.98438E-03 0.00000E+00
 -1       313 2.50000E-02 9.37500E-03 0.00000E+00
 -1       314 2.60417E-02 9.76562E-03 0.00000E+00
 -1       315 2.70833E-02 1.01562E-02 0.00000E+00
 -1       316 2.81250E-02 1.05469E-02 0.00000E+00
 -1       317 2.91667E-02 1.09375E-02 0.00000E+00
 -1       318 3.02083E-02 1.13281E-02 0.00000E+00
 -1       319 3.12500E-02 1.17188E-02 0.00000E+00
 -1       320 3.22917E-02 1.21094E-02 0.00000E+00
 -1       321 3.43750E-02 6.25000E-03 0.00000E+00
 -1       322 3.54167E-02 6.25000E-03 0.00000E+00
 -1       323 3.64583E-02 6.25000E-03 0.00000E+00
 -1       324 3.75000E-02 6.25000E-03 0.00000E+00
 -1       325 3.85417E-02 6.25000E-03 0.00000E+00
 -1       326 3.95833E-02 6.25000E-03 0.00000E+00
 -1       327 4.06250E-02 6.25000E-03 0.00000E+00
 -1       328 4.16667E-02 6.25000E-03 0.00000E+00
 -1       329 4.27083E-02 6.25000E-03 0.00000E+00
 -1       330 4.37500E-02 6.25000E-03 0.00000E+00
 -1       331 4.47917E-02 6.25000E-03 0.00000E+00
 -1       332 4.58333E-02 6.25000E-03 0.00000E+00
 -1       333 4.68750E-02 6.25000E-03 0.00000E+00
 -1       334 4.79167E-02 6.25000E-03 0.00000E+00
 -1       335 4.89583E-02 6.25000E-03 0.00000E+00
 -1       336 3.33333E-02 7.29167E-03 0.00000E+00
 -1       337 3.33333E-02 8.33333E-03 0.00000E+00
 -1       338 3.33333E-02 9.37500E-03 0.00000E+00
 -1       339 3.33333E-02 1.04167E-02 0.00000E+00
 -1       340 3.33333E-02 1.14583E-02 0.00000E+00
 -1       341 3.43750E-02 6.64063E-03 0.00000E+00
 -1       342 3.54167E-02 7.03125E-03 0.00000E+00
 -1       343 3.64583E-02 7.42188E-03 0.00000E+00
 -1       344 3.75000E-02 7.81250E-03 0.00000E+00
 -1       345 3.85417E-02 8.20313E-03 0.00000E+00
 -1       346 3.95833E-02 8.59375E-03 0.00000E+00
 -1       347 4.06250E-02 8.98438E-03 0.00000E+00
 -1       348 4.16667E-02 9.37500E-03 0.00000E+00
 -1       349 4.27083E-02 9.76562E-03 0.00000E+00
 -1       350 4.37500E-02 1.01562E-02 0.00000E+00
 -1       351 4.47917E-02 1.05469E-02 0.00000E+00
 -1       352 4.58333E-02 1.09375E-02 0.00000E+00
 -1       353 4.68750E-02 1.13281E-02 0.00000E+00
 -1       354 4.79167E-02 1.17188E-02 0.00000E+00
 -1       355 4.89583E-02 1.21094E-02 0.00000E+00
 -1       356 5.10417E-02 6.25000E-03 0.00000E+00
 -1       357 5.20833E-02 6.25000E-03 0.00000E+00
 -1       358 5.31250E-02 6.25000E-03 0.00000E+00
 -1       359 5.41667E-02 6.25000E-03 0.00000E+00
 -1       360 5.52083E-02 6.25000E-03 0.00000E+00
 -1       361 5.62500E-02 6.25000E-03 0.00000E+00
 -1       362 5.72917E-02 6.25000E-03 0.00000E+00
 -1       363 5.83333E-02 6.25000E-03 0.00000E+00
 -1       364 5.93750E-02 6.25000E-03 0.00000E+00
 -1       365 6.04167E-02 6.25000E-03 0.00000E+00
 -1       366 6.14583E-02 6.25000E-03 0.00000E+00
 -1       367 6.25000E-02 6.25000E-03 0.00000E+00
 -1       368 6.35417E-02 6.25000E-03 0.00000E+00
 -1       369 6.45833E-02 6.25000E-03 0.00000E+00
 -1       370 6.56250E-02 6.25000E-03 0.00000E+00
 -1       371 5.00000E-02 7.29167E-03 0.00000E+00
 -1       372 5.00000E-02 8.33333E-03 0.00000E+00
 -1       373 5.00000E-02 9.37500E-03 0.00000E+00
 -1       374 5.00000E-02 1.04167E-02 0.00000E+00
 -1       375 5.00000E-02 1.14583E-02 0.00000E+00
 -1       376 5.10417E-02 6.64063E-03 0.00000E+00
 -1       377 5.20833E-02 7.03125E-03 0.00000E+00
 -1       378 5.31250E-02 7.42188E-03 0.00000E+00
 -1       379 5.41667E-02 7.81250E-03 0.00000E+00
 -1       380 5.52083E-02 8.20313E-03 0.00000E+00
 -1       381 5.62500E-02 8.59375E-03 0.00000E+00
 -1       382 5.72917E-02 8.98438E-03 0.00000E+00
 -1       383 5.83333E-02 9.37500E-03 0.00000E+00
 -1       384 5.93750E-02 9.76562E-03 0.00000E+00
 -1       385 6.04167E-02 1.01562E-02 0.00000E+00
 -1       386 6.14583E-02 1.05469E-02 0.00000E+00
 -1       387 6.25000E-02 1.09375E-02 0.00000E+00
 -1       388 6.35417E-02 1.13281E-02 0.00000E+00
 -1       389 6.45833E-02 1.17188E-02 0.00000E+00
 -1       390 6.56250E-02 1.21094E-02 0.00000E+00
 -1       406 6.66667E-02 7.29167E-03 0.00000E+00
 -1       407 6.66667E-02 8.33333E-03 0.00000E+00
 -1       408 6.66667E-02 9.37500E-03 0.00000E+00
 -1       409 6.66667E-02 1.04167E-02 0.00000E+00
 -1       410 6.66667E-02 1.14583E-02 0.00000E+00
 -1       466 1.04167E-03 1.25000E-02 0.00000E+00
 -1       467 2.08333E-03 1.25000E-02 0.00000E+00
 -1       468 3.12500E-03 1.25000E-02 0.00000E+00
 -1       469 4.16667E-03 1.25000E-02 0.00000E+00
 -1       470 5.20833E-03 1.25000E-02 0.00000E+00
 -1       471 6.25000E-03 1.25000E-02 0.00000E+00
 -1       472 7.29167E-03 1.25000E-02 0.00000E+00
 -1       473 8.33333E-03 1.25000E-02 0.00000E+00
 -1       474 9.37500E-03 1.25000E-02 0.00000E+00
 -1       475 1.04167E-02 1.25000E-02 0.00000E+00
 -1       476 1.14583E-02 1.25000E-02 0.00000E+00
 -1       477 1.25000E-02 1.25000E-02 0.00000E+00
 -1       478 1.35417E-02 1.25000E-02 0.00000E+00
 -1       479 1.45833E-02 1.25000E-02 0.00000E+00
 -1       480 1.56250E-02 1.25000E-02 0.00000E+00
 -1       481 0.00000E+00 1.35417E-02 0.00000E+00
 -1       482 0.00000E+00 1.45833E-02 0.00000E+00
 -1       483 0.00000E+00 1.56250E-02 0.00000E+00
 -1       484 0.00000E+00 1.66667E-02 0.00000E+00
 -1       485 0.00000E+00 1.77083E-02 0.00000E+00
 -1       486 1.04167E-03 1.28906E-02 0.00000E+00
 -1       487 2.08333E-03 1.32813E-02 0.00000E+00
 -1       488 3.12500E-03 1.36719E-02 0.00000E+00
 -1       489 4.16667E-03 1.40625E-02 0.00000E+00
 -1       490 5.20833E-03 1.44531E-02 0.00000E+00
 -1       491 6.25000E-03 1.48437E-02 0.00000E+00
 -1       492 7.29167E-03 1.52344E-02 0.00000E+00
 -1       493 8.33333E-03 1.56250E-02 0.00000E+00
 -1       494 9.37500E-03 1.60156E-02 0.00000E+00
 -1       495 1.04167E-02 1.64062E-02 0.00000E+00
 -1       496 1.14583E-02 1.67969E-02 0.00000E+00
 -1       497 1.25000E-02 1.71875E-02 0.00000E+00
 -1       498 1.35417E-02 1.75781E-02 0.00000E+00
 -1       499 1.45833E-02 1.79687E-02 0.00000E+00
 -1       500 1.56250E-02 1.83594E-02 0.00000E+00
 -1       501 1.77083E-02 1.25000E-02 0.00000E+00
 -1       502 1.87500E-02 1.25000E-02 0.00000E+00
 -1       503 1.97917E-02 1.25000E-02 0.00000E+00
 -1       504 2.08333E-02 1.25000E-02 0.00000E+00
 -1       505 2.18750E-02 1.25000E-02 0.00000E+00
 -1       506 2.29167E-02 1.25000E-02 0.00000E+00
 -1       507 2.39583E-02 1.25000E-02 0.00000E+00
 -1       508 2.50000E-02 1.25000E-02 0.00000E+00
 -1       509 2.60417E-02 1.25000E-02 0.00000E+00
 -1       510 2.70833E-02 1.25000E-02 0.00000E+00
 -1       511 2.81250E-02 1.25000E-02 0.00000E+00
 -1       512 2.91667E-02 1.25000E-02 0.00000E+00
 -1       513 3.02083E-02 1.25000E-02 0.00000E+00
 -1       514 3.12500E-02 1.25000E-02 0.00000E+00
 -1       515 3.22917E-02 1.25000E-02 0.00000E+00
 -1       516 1.66667E-02 1.35417E-02 0.00000E+00
 -1       517 1.66667E-02 1.45833E-02 0.00000E+00
 -1       518 1.66667E-02 1.56250E-02 0.00000E+00
 -1       519 1.66667E-02 1.66667E-02 0.00000E+00
 -1       520 1.66667E-02 1.77083E-02 0.00000E+00
 -1       521 1.77083E-02 1.28906E-02 0.00000E+00
 -1       522 1.87500E-02 1.32813E-02 0.00000E+00
 -1       523 1.97917E-02 1.36719E-02 0.00000E+00
 -1       524 2.08333E-02 1.40625E-02 0.00000E+00
 -1       525 2.18750E-02 1.44531E-02 0.00000E+00
 -1       526 2.29167E-02 1.48437E-02 0.00000E+00
 -1       527 2.39583E-02 1.52344E-02 0.00000E+00
 -1       528 2.50000E-02 1.56250E-02 0.00000E+00
 -1       529 2.60417E-02 1.60156E-02 0.00000E+00
 -1       530 2.70833E-02 1.64062E-02 0.00000E+00
 -1       531 2.81250E-02 1.67969E-02 0.00000E+00
 -1       532 2.91667E-02 1.71875E-02 0.00000E+00
 -1       533 3.02083E-02 1.75781E-02 0.00000E+00
 -1       534 3.12500E-02 1.79687E-02 0.00000E+00
 -1       535 3.22917E-02 1.83594E-02 0.00000E+00
 -1       536 3.43750E-02 1.25000E-02 0.00000E+00
 -1       537 3.54167E-02 1.25000E-02 0.00000E+00
 -1       538 3.64583E-02 1.25000E-02 0.00000E+00
 -1       539 3.75000E-02 1.25000E-02 0.00000E+00
 -1       540 3.85417E-02 1.25000E-02 0.00000E+00
 -1       541 3.95833E-02 1.25000E-02 0.00000E+00
 -1       542 4.06250E-02 1.25000E-02 0.00000E+00
 -1       543 4.16667E-02 1.25000E-02 0.00000E+00
 -1       544 4.27083E-02 1.25000E-02 0.00000E+00
 -1       545 4.37500E-02 1.25000E-02 0.00000E+00
 -1       546 4.47917E-02 1.25000E-02 0.00000E+00
 -1       547 4.58333E-02 1.25000E-02 0.00000E+00
 -1       548 4.68750E-02 1.25000E-02 0.00000E+00
 -1       549 4.79167E-02 1.25000E-02 0.00000E+00
 -1       550 4.89583E-02 1.25000E-02 0.00000E+00
 -1       551 3.33333E-02 1.35417E-02 0.00000E+00
 -1       552 3.33333E-02 1.45833E-02 0.00000E+00
 -1       553 3.33333E-02 1.56250E-02 0.00000E+00
 -1       554 3.33333E-02 1.66667E-02 0.00000E+00
 -1       555 3.33333E-02 1.77083E-02 0.00000E+00
 -1       556 3.43750E-02 1.28906E-02 0.00000E+00
 -1       557 3.54167E-02 1.32813E-02 0.00000E+00
 -1       558 3.64583E-02 1.36719E-02 0.00000E+00
 -1       559 3.75000E-02 1.40625E-02 0.00000E+00
 -1       560 3.85417E-02 1.44531E-02 0.00000E+00
 -1       561 3.95833E-02 1.48437E-02 0.00000E+00
 -1       562 4.06250E-02 1.52344E-02 0.00000E+00
 -1       563 4.16667E-02 1.56250E-02 0.00000E+00
 -1       564 4.27083E-02 1.60156E-02 0.00000E+00
 -1       565 4.37500E-02 1.64062E-02 0.00000E+00
 -1       566 4.47917E-02 1.67969E-02 0.00000E+00
 -1       567 4.58333E-02 1.71875E-02 0.00000E+00
 -1       568 4.68750E-02 1.75781E-02 0.00000E+00
 -1       569 4.79167E-02 1.79687E-02 0.00000E+00
 -1       570 4.89583E-02 1.83594E-02 0.00000E+00
 -1       571 5.10417E-02 1.25000E-02 0.00000E+00
 -1       572 5.20833E-02 1.25000E-02 0.00000E+00
 -1       573 5.31250E-02 1.25000E-02 0.00000E+00
 -1       574 5.41667E-02 1.25000E-02 0.00000E+00
 -1       575 5.52083E-02 1.25000E-02 0.00000E+00
 -1       576 5.62500E-02 1.25000E-02 0.00000E+00
 -1       577 5.72917E-02 1.25000E-02 0.00000E+00
 -1       578 5.83333E-02 1.25000E-02 0.00000E+00
 -1       579 5.93750E-02 1.25000E-02 0.00000E+00
 -1       580 6.04167E-02 1.25000E-02 0.00000E+00
 -1       581 6.14583E-02 1.25000E-02 0.00000E+00
 -1       582 6.25000E-02 1.25000E-02 0.00000E+00
 -1       583 6.35417E-02 1.25000E-02 0.00000E+00
 -1       584 6.45833E-02 1.25000E-02 0.00000E+00
 -1       585 6.56250E-02 1.25000E-02 0.00000E+00
 -1       586 5.00000E-02 1.35417E-02 0.00000E+00
 -1       587 5.00000E-02 1.45833E-02 0.00000E+00
 -1       588 5.00000E-02 1.56250E-02 0.00000E+00
 -1       589 5.00000E-02 1.66667E-02 0.00000E+00
 -1       590 5.00000E-02 1.77083E-02 0.00000E+00
 -1       591 5.10417E-02 1.28906E-02 0.00000E+00
 -1       592 5.20833E-02 1.32813E-02 0.00000E+00
 -1       593 5.31250E-02 1.36719E-02 0.00000E+00
 -1       594 5.41667E-02 1.40625E-02 0.00000E+00
 -1       595 5.52083E-02 1.44531E-02 0.00000E+00
 -1       596 5.62500E-02 1.48437E-02 0.00000E+00
 -1       597 5.72917E-02 1.52344E-02 0.00000E+00
 -1       598 5.83333E-02 1.56250E-02 0.00000E+00
 -1       599 5.93750E-02 1.60156E-02 0.00000E+00
 -1       600 6.04167E-02 1.64062E-02 0.00000E+00
 -1       601 6.14583E-02 1.67969E-02 0.00000E+00
 -1       602 6.25000E-02 1.71875E-02 0.00000E+00
 -1       603 6.35417E-02 1.75781E-02 0.00000E+00
 -1       604 6.45833E-02 1.79687E-02 0.00000E+00
 -1       605 6.56250E-02 1.83594E-02 0.00000E+00
 -1       606 6.77083E-02 1.25000E-02 0.00000E+00
 -1       607 6.87500E-02 1.25000E-02 0.00000E+00
 -1       608 6.97917E-02 1.25000E-02 0.00000E+00
 -1       609 7.08333E-02 1.25000E-02 0.00000E+00
 -1       610 7.18750E-02 1.25000E-02 0.00000E+00
 -1       611 7.29167E-02 1.25000E-02 0.00000E+00
 -1       612 7.39583E-02 1.25000E-02 0.00000E+00
 -1       613 7.50000E-02 1.25000E-02 0.00000E+00
 -1       614 7.60417E-02 1.25000E-02 0.00000E+00
 -1       615 7.70833E-02 1.25000E-02 0.00000E+00
 -1       616 7.81250E-02 1.25000E-02 0.00000E+00
 -1       617 7.91667E-02 1.25000E-02 0.00000E+00
 -1       618 8.02083E-02 1.25000E-02 0.00000E+00
 -1       619 8.12500E-02 1.25000E-02 0.00000E+00
 -1       620 8.22917E-02 1.25000E-02 0.00000E+00
 -1       621 6.66667E-02 1.35417E-02 0.00000E+00
 -1       622 6.66667E-02 1.45833E-02 0.00000E+00
 -1       623 6.66667E-02 1.56250E-02 0.00000E+00
 -1       624 6.66667E-02 1.66667E-02 0.00000E+00
 -1       625 6.66667E-02 1.77083E-02 0.00000E+00
 -1       626 6.77083E-02 1.28906E-02 0.00000E+00
 -1       627 6.87500E-02 1.32813E-02 0.00000E+00
 -1       628 6.97917E-02 1.36719E-02 0.00000E+00
 -1       629 7.08333E-02 1.40625E-02 0.00000E+00
 -1       630 7.18750E-02 1.44531E-02 0.00000E+00
 -1       631 7.29167E-02 1.48437E-02 0.00000E+00
 -1       632 7.39583E-02 1.52344E-02 0.00000E+00
 -1       633 7.50000E-02 1.56250E-02 0.00000E+00
 -1       634 7.60417E-02 1.60156E-02 0.00000E+00
 -1       635 7.70833E-02 1.64062E-02 0.00000E+00
 -1       636 7.81250E-02 1.67969E-02 0.00000E+00
 -1       637 7.91667E-02 1.71875E-02 0.00000E+00
 -1       638 8.02083E-02 1.75781E-02 0.00000E+00
 -1       639 8.12500E-02 1.79687E-02 0.00000E+00
 -1       640 8.22917E-02 1.83594E-02 0.00000E+00
 -1       641 8.43750E-02 1.25000E-02 0.00000E+00
 -1       642 8.54167E-02 1.25000E-02 0.00000E+00
 -1       643 8.64583E-02 1.25000E-02 0.00000E+00
 -1       644 8.75000E-02 1.25000E-02 0.00000E+00
 -1       645 8.85417E-02 1.25000E-02 0.00000E+00
 -1       646 8.95833E-02 1.25000E-02 0.00000E+00
 -1       647 9.06250E-02 1.25000E-02 0.00000E+00
 -1       648 9.16667E-02 1.25000E-02 0.00000E+00
 -1       649 9.27083E-02 1.25000E-02 0.00000E+00
 -1       650 9.37500E-02 1.25000E-02 0.00000E+00
 -1       651 9.47917E-02 1.25000E-02 0.00000E+00
 -1       652 9.58333E-02 1.25000E-02 0.00000E+00
 -1       653 9.68750E-02 1.25000E-02 0.00000E+00
 -1       654 9.79167E-02 1.25000E-02 0.00000E+00
 -1       655 9.89583E-02 1.25000E-02 0.00000E+00
 -1       656 8.33333E-02 1.35417E-02 0.00000E+00
 -1       657 8.33333E-02 1.45833E-02 0.00000E+00
 -1       658 8.33333E-02 1.56250E-02 0.00000E+00
 -1       659 8.33333E-02 1.66667E-02 0.00000E+00
 -1       660 8.33333E-02 1.77083E-02 0.00000E+00
 -1       661 8.43750E-02 1.28906E-02 0.00000E+00
 -1       662 8.54167E-02 1.32813E-02 0.00000E+00
 -1       663 8.64583E-02 1.36719E-02 0.00000E+00
 -1       664 8.75000E-02 1.40625E-02 0.00000E+00
 -1       665 8.85417E-02 1.44531E-02 0.00000E+00
 -1       666 8.95833E-02 1.48437E-02 0.00000E+00
 -1       667 9.06250E-02 1.52344E-02 0.00000E+00
 -1       668 9.16667E-02 1.56250E-02 0.00000E+00
 -1       669 9.27083E-02 1.60156E-02 0.00000E+00
 -1       670 9.37500E-02 1.64062E-02 0.00000E+00
 -1       671 9.47917E-02 1.67969E-02 0.00000E+00
 -1       672 9.58333E-02 1.71875E-02 0.00000E+00
 -1       673 9.68750E-02 1.75781E-02 0.00000E+00
 -1       674 9.79167E-02 1.79687E-02 0.00000E+00
 -1       675 9.89583E-02 1.83594E-02 0.00000E+00
 -1       676 1.00000E-01 1.35417E-02 0.00000E+00
 -1       677 1.00000E-01 1.45833E-02 0.00000E+00
 -1       678 1.00000E-01 1.56250E-02 0.00000E+00
 -1       679 1.00000E-01 1.66667E-02 0.00000E+00
 -1       680 1.00000E-01 1.77083E-02 0.00000E+00
 -1       681 1.04167E-03 1.87500E-02 0.00000E+00
 -1       682 2.08333E-03 1.87500E-02 0.00000E+00
 -1       683 3.12500E-03 1.87500E-02 0.00000E+00
 -1       684 4.16667E-03 1.87500E-02 0.00000E+00
 -1       685 5.20833E-03 1.87500E-02 0.00000E+00
 -1       686 6.25000E-03 1.87500E-02 0.00000E+00
 -1       687 7.29167E-03 1.87500E-02 0.00000E+00
 -1       688 8.33333E-03 1.87500E-02 0.00000E+00
 -1       689 9.37500E-03 1.87500E-02 0.00000E+00
 -1       690 1.04167E-02 1.87500E-02 0.00000E+00
 -1       691 1.14583E-02 1.87500E-02 0.00000E+00
 -1       692 1.25000E-02 1.87500E-02 0.00000E+00
 -1       693 1.35417E-02 1.87500E-02 0.00000E+00
 -1       694 1.45833E-02 1.87500E-02 0.00000E+00
 -1       695 1.56250E-02 1.87500E-02 0.00000E+00
 -1       696 0.00000E+00 1.97917E-02 0.00000E+00
 -1       697 0.00000E+00 2.08333E-02 0.00000E+00
 -1       698 0.00000E+00 2.18750E-02 0.00000E+00
 -1       699 0.00000E+00 2.29167E-02 0.00000E+00
 -1       700 0.00000E+00 2.39583E-02 0.00000E+00
 -1       701 1.04167E-03 1.91406E-02 0.00000E+00
 -1       702 2.08333E-03 1.95312E-02 0.00000E+00
 -1       703 3.12500E-03 1.99219E-02 0.00000E+00
 -1       704 4.16667E-03 2.03125E-02 0.00000E+00
 -1       705 5.20833E-03 2.07031E-02 0.00000E+00
 -1       706 6.25000E-03 2.10938E-02 0.00000E+00
 -1       707 7.29167E-03 2.14844E-02 0.00000E+00
 -1       708 8.33333E-03 2.18750E-02 0.00000E+00
 -1       709 9.37500E-03 2.22656E-02 0.00000E+00
 -1       710 1.04167E-02 2.26563E-02 0.00000E+00
 -1       711 1.14583E-02 2.30469E-02 0.00000E+00
 -1       712 1.25000E-02 2.34375E-02 0.00000E+00
 -1       713 1.35417E-02 2.38281E-02 0.00000E+00
 -1       714 1.45833E-02 2.42187E-02 0.00000E+00
 -1       715 1.56250E-02 2.46094E-02 0.00000E+00
 -1       716 1.77083E-02 1.87500E-02 0.00000E+00
 -1       717 1.87500E-02 1.87500E-02 0.00000E+00
 -1       718 1.97917E-02 1.87500E-02 0.00000E+00
 -1       719 2.08333E-02 1.87500E-02 0.00000E+00
 -1       720 2.18750E-02 1.87500E-02 0.00000E+00
 -1       721 2.29167E-02 1.87500E-02 0.00000E+00
 -1       722 2.39583E-02 1.87500E-02 0.00000E+00
 -1       723 2.50000E-02 1.87500E-02 0.00000E+00
 -1       724 2.60417E-02 1.87500E-02 0.00000E+00
 -1       725 2.70833E-02 1.87500E-02 0.00000E+00
 -1       726 2.81250E-02 1.87500E-02 0.00000E+00
 -1       727 2.91667E-02 1.87500E-02 0.00000E+00
 -1       728 3.02083E-02 1.87500E-02 0.00000E+00
 -1       729 3.12500E-02 1.87500E-02 0.00000E+00
 -1       730 3.22917E-02 1.87500E-02 0.00000E+00
 -1       731 1.66667E-02 1.97917E-02 0.00000E+00
 -1       732 1.66667E-02 2.08333E-02 0.00000E+00
 -1       733 1.66667E-02 2.18750E-02 0.00000E+00
 -1       734 1.66667E-02 2.29167E-02 0.00000E+00
 -1       735 1.66667E-02 2.39583E-02 0.00000E+00
 -1       736 1.77083E-02 1.91406E-02 0.00000E+00
 -1       737 1.87500E-02 1.95312E-02 0.00000E+00
 -1       738 1.97917E-02 1.99219E-02 0.00000E+00
 -1       739 2.08333E-02 2.03125E-02 0.00000E+00
 -1       740 2.18750E-02 2.07031E-02 0.00000E+00
 -1       741 2.29167E-02 2.10938E-02 0.00000E+00
 -1       742 2.39583E-02 2.14844E-02 0.00000E+00
 -1       743 2.50000E-02 2.18750E-02 0.00000E+00
 -1       744 2.60417E-02 2.22656E-02 0.00000E+00
 -1       745 2.70833E-02 2.26563E-02 0.00000E+00
 -1       746 2.81250E-02 2.30469E-02 0.00000E+00
 -1       747 2.91667E-02 2.34375E-02 0.00000E+00
 -1       748 3.02083E-02 2.38281E-02 0.00000E+00
 -1       749 3.12500E-02 2.42187E-02 0.00000E+00
 -1       750 3.22917E-02 2.46094E-02 0.00000E+00
 -1       751 3.43750E-02 1.87500E-02 0.00000E+00
 -1       752 3.54167E-02 1.87500E-02 0.00000E+00
 -1       753 3.64583E-02 1.87500E-02 0.00000E+00
 -1       754 3.75000E-02 1.87500E-02 0.00000E+00
 -1       755 3.85417E-02 1.87500E-02 0.00000E+00
 -1       756 3.95833E-02 1.87500E-02 0.00000E+00
 -1       757 4.06250E-02 1.87500E-02 0.00000E+00
 -1       758 4.16667E-02 1.87500E-02 0.00000E+00
 -1       759 4.27083E-02 1.87500E-02 0.00000E+00
 -1       760 4.37500E-02 1.87500E-02 0.00000E+00
 -1       761 4.47917E-02 1.87500E-02 0.00000E+00
 -1       762 4.58333E-02 1.87500E-02 0.00000E+00
 -1       763 4.68750E-02 1.87500E-02 0.00000E+00
 -1       764 4.79167E-02 1.87500E-02 0.00000E+00
 -1       765 4.89583E-02 1.87500E-02 0.00000E+00
 -1       766 3.33333E-02 1.97917E-02 0.00000E+00
 -1       767 3.33333E-02 2.08333E-02 0.00000E+00
 -1       768 3.33333E-02 2.18750E-02 0.00000E+00
 -1       769 3.33333E-02 2.29167E-02 0.00000E+00
 -1       770 3.33333E-02 2.39583E-02 0.00000E+00
 -1       771 3.43750E-02 1.91406E-02 0.00000E+00
 -1       772 3.54167E-02 1.95312E-02 0.00000E+00
 -1       773 3.64583E-02 1.99219E-02 0.00000E+00
 -1       774 3.75000E-02 2.03125E-02 0.00000E+00
 -1       775 3.85417E-02 2.07031E-02 0.00000E+00
 -1       776 3.95833E-02 2.10938E-02 0.00000E+00
 -1       777 4.06250E-02 2.14844E-02 0.00000E+00
 -1       778 4.16667E-02 2.18750E-02 0.00000E+00
 -1       779 4.27083E-02 2.22656E-02 0.00000E+00
 -1       780 4.37500E-02 2.26563E-02 0.00000E+00
 -1       781 4.47917E-02 2.30469E-02 0.00000E+00
 -1       782 4.58333E-02 2.34375E-02 0.00000E+00
 -1       783 4.68750E-02 2.38281E-02 0.00000E+00
 -1       784 4.79167E-02 2.42187E-02 0.00000E+00
 -1       785 4.89583E-02 2.46094E-02 0.00000E+00
 -1       786 5.10417E-02 1.87500E-02 0.00000E+00
 -1       787 5.20833E-02 1.87500E-02 0.00000E+00
 -1       788 5.31250E-02 1.87500E-02 0.00000E+00
 -1       789 5.41667E-02 1.87500E-02 0.00000E+00
 -1       790 5.52083E-02 1.87500E-02 0.00000E+00
 -1       791 5.62500E-02 1.87500E-02 0.00000E+00
 -1       792 5.72917E-02 1.87500E-02 0.00000E+00
 -1       793 5.83333E-02 1.87500E-02 0.00000E+00
 -1       794 5.93750E-02 1.87500E-02 0.00000E+00
 -1       795 6.04167E-02 1.87500E-02 0.00000E+00
 -1       796 6.14583E-02 1.87500E-02 0.00000E+00
 -1       797 6.25000E-02 1.87500E-02 0.00000E+00
 -1       798 6.35417E-02 1.87500E-02 0.00000E+00
 -1       799 6.45833E-02 1.87500E-02 0.00000E+00
 -1       800 6.56250E-02 1.87500E-02 0.00000E+00
 -1       801 5.00000E-02 1.97917E-02 0.00000E+00
 -1       802 5.00000E-02 2.08333E-02 0.00000E+00
 -1       803 5.00000E-02 2.18750E-02 0.00000E+00
 -1       804 5.00000E-02 2.29167E-02 0.00000E+00
 -1       805 5.00000E-02 2.39583E-02 0.00000E+00
 -1       806 5.10417E-02 1.91406E-02 0.00000E+00
 -1       807 5.20833E-02 1.95312E-02 0.00000E+00
 -1       808 5.31250E-02 1.99219E-02 0.00000E+00
 -1       809 5.41667E-02 2.03125E-02 0.00000E+00
 -1       810 5.52083E-02 2.07031E-02 0.00000E+00
 -1       811 5.62500E-02 2.10938E-02 0.00000E+00
 -1       812 5.72917E-02 2.14844E-02 0.00000E+00
 -1       813 5.83333E-02 2.18750E-02 0.00000E+00
 -1       814 5.93750E-02 2.22656E-02 0.00000E+00
 -1       815 6.04167E-02 2.26563E-02 0.00000E+00
 -1       816 6.14583E-02 2.30469E-02 0.00000E+00
 -1       817 6.25000E-02 2.34375E-02 0.00000E+00
 -1       818 6.35417E-02 2.38281E-02 0.00000E+00
 -1       819 6.45833E-02 2.42187E-02 0.00000E+00
 -1       820 6.56250E-02 2.46094E-02 0.00000E+00
 -1       821 6.77083E-02 1.87500E-02 0.00000E+00
 -1       822 6.87500E-02 1.87500E-02 0.00000E+00
 -1       823 6.97917E-02 1.87500E-02 0.00000E+00
 -1       824 7.08333E-02 1.87500E-02 0.00000E+00
 -1       825 7.18750E-02 1.87500E-02 0.00000E+00
 -1       826 7.29167E-02 1.87500E-02 0.00000E+00
 -1       827 7.39583E-02 1.87500E-02 0.00000E+00
 -1       828 7.50000E-02 1.87500E-02 0.00000E+00
 -1       829 7.60417E-02 1.87500E-02 0.00000E+00
 -1       830 7.70833E-02 1.87500E-02 0.00000E+00
 -1       831 7.81250E-02 1.87500E-02 0.00000E+00
 -1       832 7.91667E-02 1.87500E-02 0.00000E+00
 -1       833 8.02083E-02 1.87500E-02 0.00000E+00
 -1       834 8.12500E-02 1.87500E-02 0.00000E+00
 -1       835 8.22917E-02 1.87500E-02 0.00000E+00
 -1       836 6.66667E-02 1.97917E-02 0.00000E+00
 -1       837 6.66667E-02 2.08333E-02 0.00000E+00
 -1       838 6.66667E-02 2.18750E-02 0.00000E+00
 -1       839 6.66667E-02 2.29167E-02 0.00000E+00
 -1       840 6.66667E-02 2.39583E-02 0.00000E+00
 -1       841 6.77083E-02 1.91406E-02 0.00000E+00
 -1       842 6.87500E-02 1.95312E-02 0.00000E+00
 -1       843 6.97917E-02 1.99219E-02 0.00000E+00
 -1       844 7.08333E-02 2.03125E-02 0.00000E+00
 -1       845 7.18750E-02 2.07031E-02 0.00000E+00
 -1       846 7.29167E-02 2.10938E-02 0.00000E+00
 -1       847 7.39583E-02 2.14844E-02 0.00000E+00
 -1       848 7.50000E-02 2.18750E-02 0.00000E+00
 -1       849 7.60417E-02 2.22656E-02 0.00000E+00
 -1       850 7.70833E-02 2.26563E-02 0.00000E+00
 -1       851 7.81250E-02 2.30469E-02 0.00000E+00
 -1       852 7.91667E-02 2.34375E-02 0.00000E+00
 -1       853 8.02083E-02 2.38281E-02 0.00000E+00
 -1       854 8.12500E-02 2.42187E-02 0.00000E+00
 -1       855 8.22917E-02 2.46094E-02 0.00000E+00
 -1       856 8.43750E-02 1.87500E-02 0.00000E+00
 -1       857 8.54167E-02 1.87500E-02 0.00000E+00
 -1       858 8.64583E-02 1.87500E-02 0.00000E+00
 -1       859 8.75000E-02 1.87500E-02 0.00000E+00
 -1       860 8.85417E-02 1.87500E-02 0.00000E+00
 -1       861 8.95833E-02 1.87500E-02 0.00000E+00
 -1       862 9.06250E-02 1.87500E-02 0.00000E+00
 -1       863 9.16667E-02 1.87500E-02 0.00000E+00
 -1       864 9.27083E-02 1.87500E-02 0.00000E+00
 -1       865 9.37500E-02 1.87500E-02 0.00000E+00
 -1       866 9.47917E-02 1.87500E-02 0.00000E+00
 -1       867 9.58333E-02 1.87500E-02 0.00000E+00
 -1       868 9.68750E-02 1.87500E-02 0.00000E+00
 -1       869 9.79167E-02 1.87500E-02 0.00000E+00
 -1       870 9.89583E-02 1.87500E-02 0.00000E+00
 -1       871 8.33333E-02 1.97917E-02 0.00000E+00
 -1       872 8.33333E-02 2.08333E-02 0.00000E+00
 -1       873 8.33333E-02 2.18750E-02 0.00000E+00
 -1       874 8.33333E-02 2.29167E-02 0.00000E+00
 -1       875 8.33333E-02 2.39583E-02 0.00000E+00
 -1       876 8.43750E-02 1.91406E-02 0.00000E+00
 -1       877 8.54167E-02 1.95312E-02 0.00000E+00
 -1       878 8.64583E-02 1.99219E-02 0.00000E+00
 -1       879 8.75000E-02 2.03125E-02 0.00000E+00
 -1       880 8.85417E-02 2.07031E-02 0.00000E+00
 -1       881 8.95833E-02 2.10938E-02 0.00000E+00
 -1       882 9.06250E-02 2.14844E-02 0.00000E+00
 -1       883 9.16667E-02 2.18750E-02 0.00000E+00
 -1       884 9.27083E-02 2.22656E-02 0.00000E+00
 -1       885 9.37500E-02 2.26563E-02 0.00000E+00
 -1       886 9.47917E-02 2.30469E-02 0.00000E+00
 -1       887 9.58333E-02 2.34375E-02 0.00000E+00
 -1       888 9.68750E-02 2.38281E-02 0.00000E+00
 -1       889 9.79167E-02 2.42187E-02 0.00000E+00
 -1       890 9.89583E-02 2.46094E-02 0.00000E+00
 -1       891 1.00000E-01 1.97917E-02 0.00000E+00
 -1       892 1.00000E-01 2.08333E-02 0.00000E+00
 -1       893 1.00000E-01 2.18750E-02 0.00000E+00
 -1       894 1.00000E-01 2.29167E-02 0.00000E+00
 -1       895 1.00000E-01 2.39583E-02 0.00000E+00
 -1       896 1.04167E-03 2.50000E-02 0.00000E+00
 -1       897 2.08333E-03 2.50000E-02 0.00000E+00
 -1       898 3.12500E-03 2.50000E-02 0.00000E+00
 -1       899 4.16667E-03 2.50000E-02 0.00000E+00
 -1       900 5.20833E-03 2.50000E-02 0.00000E+00
 -1       901 6.25000E-03 2.50000E-02 0.00000E+00
 -1       902 7.29167E-03 2.50000E-02 0.00000E+00
 -1       903 8.33333E-03 2.50000E-02 0.00000E+00
 -1       904 9.37500E-03 2.50000E-02 0.00000E+00
 -1       905 1.04167E-02 2.50000E-02 0.00000E+00
 -1       906 1.14583E-02 2.50000E-02 0.00000E+00
 -1       907 1.25000E-02 2.50000E-02 0.00000E+00
 -1       908 1.35417E-02 2.50000E-02 0.00000E+00
 -1       909 1.45833E-02 2.50000E-02 0.00000E+00
 -1       910 1.56250E-02 2.50000E-02 0.00000E+00
 -1       911 1.77083E-02 2.50000E-02 0.00000E+00
 -1       912 1.87500E-02 2.50000E-02 0.00000E+00
 -1       913 1.97917E-02 2.50000E-02 0.00000E+00
 -1       914 2.08333E-02 2.50000E-02 0.00000E+00
 -1       915 2.18750E-02 2.50000E-02 0.00000E+00
 -1       916 2.29167E-02 2.50000E-02 0.00000E+00
 -1       917 2.39583E-02 2.50000E-02 0.00000E+00
 -1       918 2.50000E-02 2.50000E-02 0.00000E+00
 -1       919 2.60417E-02 2.50000E-02 0.00000E+00
 -1       920 2.70833E-02 2.50000E-02 0.00000E+00
 -1       921 2.81250E-02 2.50000E-02 0.00000E+00
 -1       922 2.91667E-02 2.50000E-02 0.00000E+00
 -1       923 3.02083E-02 2.50000E-02 0.00000E+00
 -1       924 3.12500E-02 2.50000E-02 0.00000E+00
 -1       925 3.22917E-02 2.50000E-02 0.00000E+00
 -1       926 3.43750E-02 2.50000E-02 0.00000E+00
 -1       927 3.54167E-02 2.50000E-02 0.00000E+00
 -1       928 3.64583E-02 2.50000E-02 0.00000E+00
 -1       929 3.75000E-02 2.50000E-02 0.00000E+00
 -1       930 3.85417E-02 2.50000E-02 0.00000E+00
 -1       931 3.95833E-02 2.50000E-02 0.00000E+00
 -1       932 4.06250E-02 2.50000E-02 0.00000E+00
 -1       933 4.16667E-02 2.50000E-02 0.00000E+00
 -1       934 4.27083E-02 2.50000E-02 0.00000E+00
 -1       935 4.37500E-02 2.50000E-02 0.00000E+00
 -1       936 4.47917E-02 2.50000E-02 0.00000E+00
 -1       937 4.58333E-02 2.50000E-02 0.00000E+00
 -1       938 4.68750E-02 2.50000E-02 0.00000E+00
 -1       939 4.79167E-02 2.50000E-02 0.00000E+00
 -1       940 4.89583E-02 2.50000E-02 0.00000E+00
 -1       941 5.10417E-02 2.50000E-02 0.00000E+00
 -1       942 5.20833E-02 2.50000E-02 0.00000E+00
 -1       943 5.31250E-02 2.50000E-02 0.00000E+00
 -1       944 5.41667E-02 2.50000E-02 0.00000E+00
 -1       945 5.52083E-02 2.50000E-02 0.00000E+00
 -1       946 5.62500E-02 2.50000E-02 0.00000E+00
 -1       947 5.72917E-02 2.50000E-02 0.00000E+00
 -1       948 5.83333E-02 2.50000E-02 0.00000E+00
 -1       949 5.93750E-02 2.50000E-02 0.00000E+00
 -1       950 6.04167E-02 2.50000E-02 0.00000E+00
 -1       951 6.14583E-02 2.50000E-02 0.00000E+00
 -1       952 6.25000E-02 2.50000E-02 0.00000E+00
 -1       953 6.35417E-02 2.50000E-02 0.00000E+00
 -1       954 6.45833E-02 2.50000E-02 0.00000E+00
 -1       955 6.56250E-02 2.50000E-02 0.00000E+00
 -1       956 6.77083E-02 2.50000E-02 0.00000E+00
 -1       957 6.87500E-02 2.50000E-02 0.00000E+00
 -1       958 6.97917E-02 2.50000E-02 0.00000E+00
 -1       959 7.08333E-02 2.50000E-02 0.00000E+00
 -1       960 7.18750E-02 2.50000E-02 0.00000E+00
 -1       961 7.29167E-02 2.50000E-02 0.00000E+00
 -1       962 7.39583E-02 2.50000E-02 0.00000E+00
 -1       963 7.50000E-02 2.50000E-02 0.00000E+00
 -1       964 7.60417E-02 2.50000E-02 0.00000E+00
 -1       965 7.70833E-02 2.50000E-02 0.00000E+00
 -1       966 7.81250E-02 2.50000E-02 0.00000E+00
 -1       967 7.91667E-02 2.50000E-02 0.00000E+00
 -1       968 8.02083E-02 2.50000E-02 0.00000E+00
 -1       969 8.12500E-02 2.50000E-02 0.00000E+00
 -1       970 8.22917E-02 2.50000E-02 0.00000E+00
 -1       971 8.43750E-02 2.50000E-02 0.00000E+00
 -1       972 8.54167E-02 2.50000E-02 0.00000E+00
 -1       973 8.64583E-02 2.50000E-02 0.00000E+00
 -1       974 8.75000E-02 2.50000E-02 0.00000E+00
 -1       975 8.85417E-02 2.50000E-02 0.00000E+00
 -1       976 8.95833E-02 2.50000E-02 0.00000E+00
 -1       977 9.06250E-02 2.50000E-02 0.00000E+00
 -1       978 9.16667E-02 2.50000E-02 0.00000E+00
 -1       979 9.27083E-02 2.50000E-02 0.00000E+00
 -1       980 9.37500E-02 2.50000E-02 0.00000E+00
 -1       981 9.47917E-02 2.50000E-02 0.00000E+00
 -1       982 9.58333E-02 2.50000E-02 0.00000E+00
 -1       983 9.68750E-02 2.50000E-02 0.00000E+00
 -1       984 9.79167E-02 2.50000E-02 0.00000E+00
 -1       985 9.89583E-02 2.50000E-02 0.00000E+00
 -3
    3C                           440                                     1
 -1         1   12    0    1
 -2         1        37        36
 -1         2   12    0    1
 -2        37        39        38
 -1         3   12    0    1
 -2        39        41        40
 -1         4   12    0    1
 -2        41        43        42
 -1         5   12    0    1
 -2        43        45        44
 -1         6   12    0    1
 -2        45        47        46
 -1         7   12    0    1
 -2        47        49        48
 -1         8   12    0    1
 -2        49         2        50
 -1         9   12    0    1
 -2         1        52        51
 -1        10   12    0    1
 -2        52        54        53
 -1        11   12    0    1
 -2        54         8        55
 -1        12   12    0    1
 -2         1        57        56
 -1        13   12    0    1
 -2        57        59        58
 -1        14   12    0    1
 -2        59        61        60
 -1        15   12    0    1
 -2        61        63        62
 -1        16   12    0    1
 -2        63        65        64
 -1        17   12    0    1
 -2        65        67        66
 -1        18   12    0    1
 -2        67        69        68
 -1        19   12    0    1
 -2        69         9        70
 -1        20   12    0    1
 -2         2        72        71
 -1        21   12    0    1
 -2        72        74        73
 -1        22   12    0    1
 -2        74        76        75
 -1        23   12    0    1
 -2        76        78        77
 -1        24   12    0    1
 -2        78        80        79
 -1        25   12    0    1
 -2        80        82        81
 -1        26   12    0    1
 -2        82        84        83
 -1        27   12    0    1
 -2        84         3        85
 -1        28   12    0    1
 -2         2        87        86
 -1        29   12    0    1
 -2        87        89        88
 -1        30   12    0    1
 -2        89         9        90
 -1        31   12    0    1
 -2         2        92        91
 -1        32   12    0    1
 -2        92        94        93
 -1        33   12    0    1
 -2        94        96        95
 -1        34   12    0    1
 -2        96        98        97
 -1        35   12    0    1
 -2        98       100        99
 -1        36   12    0    1
 -2       100       102       101
 -1        37   12    0    1
 -2       102       104       103
 -1        38   12    0    1
 -2       104        10       105
 -1        39   12    0    1
 -2         3       107       106
 -1        40   12    0    1
 -2       107       109       108
 -1        41   12    0    1
 -2       109       111       110
 -1        42   12    0    1
 -2       111       113       112
 -1        43   12    0    1
 -2       113       115       114
 -1        44   12    0    1
 -2       115       117       116
 -1        45   12    0    1
 -2       117       119       118
 -1        46   12    0    1
 -2       119         4       120
 -1        47   12    0    1
 -2         3       122       121
 -1        48   12    0    1
 -2       122       124       123
 -1        49   12    0    1
 -2       124        10       125
 -1        50   12    0    1
 -2         3       127       126
 -1        51   12    0    1
 -2       127       129       128
 -1        52   12    0    1
 -2       129       131       130
 -1        53   12    0    1
 -2       131       133       132
 -1        54   12    0    1
 -2       133       135       134
 -1        55   12    0    1
 -2       135       137       136
 -1        56   12    0    1
 -2       137       139       138
 -1        57   12    0    1
 -2       139        11       140
 -1        58   12    0    1
 -2         4       142       141
 -1        59   12    0    1
 -2       142       144       143
 -1        60   12    0    1
 -2       144       146       145
 -1        61   12    0    1
 -2       146       148       147
 -1        62   12    0    1
 -2       148       150       149
 -1        63   12    0    1
 -2       150       152       151
 -1        64   12    0    1
 -2       152       154       153
 -1        65   12    0    1
 -2       154         5       155
 -1        66   12    0    1
 -2         4       157       156
 -1        67   12    0    1
 -2       157       159       158
 -1        68   12    0    1
 -2       159        11       160
 -1        69   12    0    1
 -2         4       162       161
 -1        70   12    0    1
 -2       162       164       163
 -1        71   12    0    1
 -2       164       166       165
 -1        72   12    0    1
 -2       166       168       167
 -1        73   12    0    1
 -2       168       170       169
 -1        74   12    0    1
 -2       170       172       171
 -1        75   12    0    1
 -2       172       174       173
 -1        76   12    0    1
 -2       174        12       175
 -1        77   12    0    1
 -2         5       192       191
 -1        78   12    0    1
 -2       192       194       193
 -1        79   12    0    1
 -2       194        12       195
 -1        80   12    0    1
 -2         8       252       251
 -1        81   12    0    1
 -2       252       254       253
 -1        82   12    0    1
 -2       254       256       255
 -1        83   12    0    1
 -2       256       258       257
 -1        84   12    0    1
 -2       258       260       259
 -1        85   12    0    1
 -2       260       262       261
 -1        86   12    0    1
 -2       262       264       263
 -1        87   12    0    1
 -2       264         9       265
 -1        88   12    0    1
 -2         8       267       266
 -1        89   12    0    1
 -2       267       269       268
 -1        90   12    0    1
 -2       269        15       270
 -1        91   12    0    1
 -2         8       272       271
 -1        92   12    0    1
 -2       272       274       273
 -1        93   12    0    1
 -2       274       276       275
 -1        94   12    0    1
 -2       276       278       277
 -1        95   12    0    1
 -2       278       280       279
 -1        96   12    0    1
 -2       280       282       281
 -1        97   12    0    1
 -2       282       284       283
 -1        98   12    0    1
 -2       284        16       285
 -1        99   12    0    1
 -2         9       287       286
 -1       100   12    0    1
 -2       287       289       288
 -1       101   12    0    1
 -2       289       291       290
 -1       102   12    0    1
 -2       291       293       292
 -1       103   12    0    1
 -2       293       295       294
 -1       104   12    0    1
 -2       295       297       296
 -1       105   12    0    1
 -2       297       299       298
 -1       106   12    0    1
 -2       299        10       300
 -1       107   12    0    1
 -2         9       302       301
 -1       108   12    0    1
 -2       302       304       303
 -1       109   12    0    1
 -2       304        16       305
 -1       110   12    0    1
 -2         9       307       306
 -1       111   12    0    1
 -2       307       309       308
 -1       112   12    0    1
 -2       309       311       310
 -1       113   12    0    1
 -2       311       313       312
 -1       114   12    0    1
 -2       313       315       314
 -1       115   12    0    1
 -2       315       317       316
 -1       116   12    0    1
 -2       317       319       318
 -1       117   12    0    1
 -2       319        17       320
 -1       118   12    0    1
 -2        10       322       321
 -1       119   12    0    1
 -2       322       324       323
 -1       120   12    0    1
 -2       324       326       325
 -1       121   12    0    1
 -2       326       328       327
 -1       122   12    0    1
 -2       328       330       329
 -1       123   12    0    1
 -2       330       332       331
 -1       124   12    0    1
 -2       332       334       333
 -1       125   12    0    1
 -2       334        11       335
 -1       126   12    0    1
 -2        10       337       336
 -1       127   12    0    1
 -2       337       339       338
 -1       128   12    0    1
 -2       339        17       340
 -1       129   12    0    1
 -2        10       342       341
 -1       130   12    0    1
 -2       342       344       343
 -1       131   12    0    1
 -2       344       346       345
 -1       132   12    0    1
 -2       346       348       347
 -1       133   12    0    1
 -2       348       350       349
 -1       134   12    0    1
 -2       350       352       351
 -1       135   12    0    1
 -2       352       354       353
 -1       136   12    0    1
 -2       354        18       355
 -1       137   12    0    1
 -2        11       357       356
 -1       138   12    0    1
 -2       357       359       358
 -1       139   12    0    1
 -2       359       361       360
 -1       140   12    0    1
 -2       361       363       362
 -1       141   12    0    1
 -2       363       365       364
 -1       142   12    0    1
 -2       365       367       366
 -1       143   12    0    1
 -2       367       369       368
 -1       144   12    0    1
 -2       369        12       370
 -1       145   12    0    1
 -2        11       372       371
 -1       146   12    0    1
 -2       372       374       373
 -1       147   12    0    1
 -2       374        18       375
 -1       148   12    0    1
 -2        11       377       376
 -1       149   12    0    1
 -2       377       379       378
 -1       150   12    0    1
 -2       379       381       380
 -1       151   12    0    1
 -2       381       383       382
 -1       152   12    0    1
 -2       383       385       384
 -1       153   12    0    1
 -2       385       387       386
 -1       154   12    0    1
 -2       387       389       388
 -1       155   12    0    1
 -2       389        19       390
 -1       156   12    0    1
 -2        12       407       406
 -1       157   12    0    1
 -2       407       409       408
 -1       158   12    0    1
 -2       409        19       410
 -1       159   12    0    1
 -2        15       467       466
 -1       160   12    0    1
 -2       467       469       468
 -1       161   12    0    1
 -2       469       471       470
 -1       162   12    0    1
 -2       471       473       472
 -1       163   12    0    1
 -2       473       475       474
 -1       164   12    0    1
 -2       475       477       476
 -1       165   12    0    1
 -2       477       479       478
 -1       166   12    0    1
 -2       479        16       480
 -1       167   12    0    1
 -2        15       482       481
 -1       168   12    0    1
 -2       482       484       483
 -1       169   12    0    1
 -2       484        22       485
 -1       170   12    0    1
 -2        15       487       486
 -1       171   12    0    1
 -2       487       489       488
 -1       172   12    0    1
 -2       489       491       490
 -1       173   12    0    1
 -2       491       493       492
 -1       174   12    0    1
 -2       493       495       494
 -1       175   12    0    1
 -2       495       497       496
 -1       176   12    0    1
 -2       497       499       498
 -1       177   12    0    1
 -2       499        23       500
 -1       178   12    0    1
 -2        16       502       501
 -1       179   12    0    1
 -2       502       504       503
 -1       180   12    0    1
 -2       504       506       505
 -1       181   12    0    1
 -2       506       508       507
 -1       182   12    0    1
 -2       508       510       509
 -1       183   12    0    1
 -2       510       512       511
 -1       184   12    0    1
 -2       512       514       513
 -1       185   12    0    1
 -2       514        17       515
 -1       186   12    0    1
 -2        16       517       516
 -1       187   12    0    1
 -2       517       519       518
 -1       188   12    0    1
 -2       519        23       520
 -1       189   12    0    1
 -2        16       522       521
 -1       190   12    0    1
 -2       522       524       523
 -1       191   12    0    1
 -2       524       526       525
 -1       192   12    0    1
 -2       526       528       527
 -1       193   12    0    1
 -2       528       530       529
 -1       194   12    0    1
 -2       530       532       531
 -1       195   12    0    1
 -2       532       534       533
 -1       196   12    0    1
 -2       534        24       535
 -1       197   12    0    1
 -2        17       537       536
 -1       198   12    0    1
 -2       537       539       538
 -1       199   12    0    1
 -2       539       541       540
 -1       200   12    0    1
 -2       541       543       542
 -1       201   12    0    1
 -2       543       545       544
 -1       202   12    0    1
 -2       545       547       546
 -1       203   12    0    1
 -2       547       549       548
 -1       204   12    0    1
 -2       549        18       550
 -1       205   12    0    1
 -2        17       552       551
 -1       206   12    0    1
 -2       552       554       553
 -1       207   12    0    1
 -2       554        24       555
 -1       208   12    0    1
 -2        17       557       556
 -1       209   12    0    1
 -2       557       559       558
 -1       210   12    0    1
 -2       559       561       560
 -1       211   12    0    1
 -2       561       563       562
 -1       212   12    0    1
 -2       563       565       564
 -1       213   12    0    1
 -2       565       567       566
 -1       214   12    0    1
 -2       567       569       568
 -1       215   12    0    1
 -2       569        25       570
 -1       216   12    0    1
 -2        18       572       571
 -1       217   12    0    1
 -2       572       574       573
 -1       218   12    0    1
 -2       574       576       575
 -1       219   12    0    1
 -2       576       578       577
 -1       220   12    0    1
 -2       578       580       579
 -1       221   12    0    1
 -2       580       582       581
 -1       222   12    0    1
 -2       582       584       583
 -1       223   12    0    1
 -2       584        19       585
 -1       224   12    0    1
 -2        18       587       586
 -1       225   12    0    1
 -2       587       589       588
 -1       226   12    0    1
 -2       589        25       590
 -1       227   12    0    1
 -2        18       592       591
 -1       228   12    0    1
 -2       592       594       593
 -1       229   12    0    1
 -2       594       596       595
 -1       230   12    0    1
 -2       596       598       597
 -1       231   12    0    1
 -2       598       600       599
 -1       232   12    0    1
 -2       600       602       601
 -1       233   12    0    1
 -2       602       604       603
 -1       234   12    0    1
 -2       604        26       605
 -1       235   12    0    1
 -2        19       607       606
 -1       236   12    0    1
 -2       607       609       608
 -1       237   12    0    1
 -2       609       611       610
 -1       238   12    0    1
 -2       611       613       612
 -1       239   12    0    1
 -2       613       615       614
 -1       240   12    0    1
 -2       615       617       616
 -1       241   12    0    1
 -2       617       619       618
 -1       242   12    0    1
 -2       619        20       620
 -1       243   12    0    1
 -2        19       622       621
 -1       244   12    0    1
 -2       622       624       623
 -1       245   12    0    1
 -2       624        26       625
 -1       246   12    0    1
 -2        19       627       626
 -1       247   12    0    1
 -2       627       629       628
 -1       248   12    0    1
 -2       629       631       630
 -1       249   12    0    1
 -2       631       633       632
 -1       250   12    0    1
 -2       633       635       634
 -1       251   12    0    1
 -2       635       637       636
 -1       252   12    0    1
 -2       637       639       638
 -1       253   12    0    1
 -2       639        27       640
 -1       254   12    0    1
 -2        20       642       641
 -1       255   12    0    1
 -2       642       644       643
 -1       256   12    0    1
 -2       644       646       645
 -1       257   12    0    1
 -2       646       648       647
 -1       258   12    0    1
 -2       648       650       649
 -1       259   12    0    1
 -2       650       652       651
 -1       260   12    0    1
 -2       652       654       653
 -1       261   12    0    1
 -2       654        21       655
 -1       262   12    0    1
 -2        20       657       656
 -1       263   12    0    1
 -2       657       659       658
 -1       264   12    0    1
 -2       659        27       660
 -1       265   12    0    1
 -2        20       662       661
 -1       266   12    0    1
 -2       662       664       663
 -1       267   12    0    1
 -2       664       666       665
 -1       268   12    0    1
 -2       666       668       667
 -1       269   12    0    1
 -2       668       670       669
 -1       270   12    0    1
 -2       670       672       671
 -1       271   12    0    1
 -2       672       674       673
 -1       272   12    0    1
 -2       674        28       675
 -1       273   12    0    1
 -2        21       677       676
 -1       274   12    0    1
 -2       677       679       678
 -1       275   12    0    1
 -2       679        28       680
 -1       276   12    0    1
 -2        22       682       681
 -1       277   12    0    1
 -2       682       684       683
 -1       278   12    0    1
 -2       684       686       685
 -1       279   12    0    1
 -2       686       688       687
 -1       280   12    0    1
 -2       688       690       689
 -1       281   12    0    1
 -2       690       692       691
 -1       282   12    0    1
 -2       692       694       693
 -1       283   12    0    1
 -2       694        23       695
 -1       284   12    0    1
 -2        22       697       696
 -1       285   12    0    1
 -2       697       699       698
 -1       286   12    0    1
 -2       699        29       700
 -1       287   12    0    1
 -2        22       702       701
 -1       288   12    0    1
 -2       702       704       703
 -1       289   12    0    1
 -2       704       706       705
 -1       290   12    0    1
 -2       706       708       707
 -1       291   12    0    1
 -2       708       710       709
 -1       292   12    0    1
 -2       710       712       711
 -1       293   12    0    1
 -2       712       714       713
 -1       294   12    0    1
 -2       714        30       715
 -1       295   12    0    1
 -2        23       717       716
 -1       296   12    0    1
 -2       717       719       718
 -1       297   12    0    1
 -2       719       721       720
 -1       298   12    0    1
 -2       721       723       722
 -1       299   12    0    1
 -2       723       725       724
 -1       300   12    0    1
 -2       725       727       726
 -1       301   12    0    1
 -2       727       729       728
 -1       302   12    0    1
 -2       729        24       730
 -1       303   12    0    1
 -2        23       732       731
 -1       304   12    0    1
 -2       732       734       733
 -1       305   12    0    1
 -2       734        30       735
 -1       306   12    0    1
 -2        23       737       736
 -1       307   12    0    1
 -2       737       739       738
 -1       308   12    0    1
 -2       739       741       740
 -1       309   12    0    1
 -2       741       743       742
 -1       310   12    0    1
 -2       743       745       744
 -1       311   12    0    1
 -2       745       747       746
 -1       312   12    0    1
 -2       747       749       748
 -1       313   12    0    1
 -2       749        31       750
 -1       314   12    0    1
 -2        24       752       751
 -1       315   12    0    1
 -2       752       754       753
 -1       316   12    0    1
 -2       754       756       755
 -1       317   12    0    1
 -2       756       758       757
 -1       318   12    0    1
 -2       758       760       759
 -1       319   12    0    1
 -2       760       762       761
 -1       320   12    0    1
 -2       762       764       763
 -1       321   12    0    1
 -2       764        25       765
 -1       322   12    0    1
 -2        24       767       766
 -1       323   12    0    1
 -2       767       769       768
 -1       324   12    0    1
 -2       769        31       770
 -1       325   12    0    1
 -2        24       772       771
 -1       326   12    0    1
 -2       772       774       773
 -1       327   12    0    1
 -2       774       776       775
 -1       328   12    0    1
 -2       776       778       777
 -1       329   12    0    1
 -2       778       780       779
 -1       330   12    0    1
 -2       780       782       781
 -1       331   12    0    1
 -2       782       784       783
 -1       332   12    0    1
 -2       784        32       785
 -1       333   12    0    1
 -2        25       787       786
 -1       334   12    0    1
 -2       787       789       788
 -1       335   12    0    1
 -2       789       791       790
 -1       336   12    0    1
 -2       791       793       792
 -1       337   12    0    1
 -2       793       795       794
 -1       338   12    0    1
 -2       795       797       796
 -1       339   12    0    1
 -2       797       799       798
 -1       340   12    0    1
 -2       799        26       800
 -1       341   12    0    1
 -2        25       802       801
 -1       342   12    0    1
 -2       802       804       803
 -1       343   12    0    1
 -2       804        32       805
 -1       344   12    0    1
 -2        25       807       806
 -1       345   12    0    1
 -2       807       809       808
 -1       346   12    0    1
 -2       809       811       810
 -1       347   12    0    1
 -2       811       813       812
 -1       348   12    0    1
 -2       813       815       814
 -1       349   12    0    1
 -2       815       817       816
 -1       350   12    0    1
 -2       817       819       818
 -1       351   12    0    1
 -2       819        33       820
 -1       352   12    0    1
 -2        26       822       821
 -1       353   12    0    1
 -2       822       824       823
 -1       354   12    0    1
 -2       824       826       825
 -1       355   12    0    1
 -2       826       828       827
 -1       356   12    0    1
 -2       828       830       829
 -1       357   12    0    1
 -2       830       832       831
 -1       358   12    0    1
 -2       832       834       833
 -1       359   12    0    1
 -2       834        27       835
 -1       360   12    0    1
 -2        26       837       836
 -1       361   12    0    1
 -2       837       839       838
 -1       362   12    0    1
 -2       839        33       840
 -1       363   12    0    1
 -2        26       842       841
 -1       364   12    0    1
 -2       842       844       843
 -1       365   12    0    1
 -2       844       846       845
 -1       366   12    0    1
 -2       846       848       847
 -1       367   12    0    1
 -2       848       850       849
 -1       368   12    0    1
 -2       850       852       851
 -1       369   12    0    1
 -2       852       854       853
 -1       370   12    0    1
 -2       854        34       855
 -1       371   12    0    1
 -2        27       857       856
 -1       372   12    0    1
 -2       857       859       858
 -1       373   12    0    1
 -2       859       861       860
 -1       374   12    0    1
 -2       861       863       862
 -1       375   12    0    1
 -2       863       865       864
 -1       376   12    0    1
 -2       865       867       866
 -1       377   12    0    1
 -2       867       869       868
 -1       378   12    0    1
 -2       869        28       870
 -1       379   12    0    1
 -2        27       872       871
 -1       380   12    0    1
 -2       872       874       873
 -1       381   12    0    1
 -2       874        34       875
 -1       382   12    0    1
 -2        27       877       876
 -1       383   12    0    1
 -2       877       879       878
 -1       384   12    0    1
 -2       879       881       880
 -1       385   12    0    1
 -2       881       883       882
 -1       386   12    0    1
 -2       883       885       884
 -1       387   12    0    1
 -2       885       887       886
 -1       388   12    0    1
 -2       887       889       888
 -1       389   12    0    1
 -2       889        35       890
 -1       390   12    0    1
 -2        28       892       891
 -1       391   12    0    1
 -2       892       894       893
 -1       392   12    0    1
 -2       894        35       895
 -1       393   12    0    1
 -2        29       897       896
 -1       394   12    0    1
 -2       897       899       898
 -1       395   12    0    1
 -2       899       901       900
 -1       396   12    0    1
 -2       901       903       902
 -1       397   12    0    1
 -2       903       905       904
 -1       398   12    0    1
 -2       905       907       906
 -1       399   12    0    1
 -2       907       909       908
 -1       400   12    0    1
 -2       909        30       910
 -1       401   12    0    1
 -2        30       912       911
 -1       402   12    0    1
 -2       912       914       913
 -1       403   12    0    1
 -2       914       916       915
 -1       404   12    0    1
 -2       916       918       917
 -1       405   12    0    1
 -2       918       920       919
 -1       406   12    0    1
 -2       920       922       921
 -1       407   12    0    1
 -2       922       924       923
 -1       408   12    0    1
 -2       924        31       925
 -1       409   12    0    1
 -2        31       927       926
 -1       410   12    0    1
 -2       927       929       928
 -1       411   12    0    1
 -2       929       931       930
 -1       412   12    0    1
 -2       931       933       932
 -1       413   12    0    1
 -2       933       935       934
 -1       414   12    0    1
 -2       935       937       936
 -1       415   12    0    1
 -2       937       939       938
 -1       416   12    0    1
 -2       939        32       940
 -1       417   12    0    1
 -2        32       942       941
 -1       418   12    0    1
 -2       942       944       943
 -1       419   12    0    1
 -2       944       946       945
 -1       420   12    0    1
 -2       946       948       947
 -1       421   12    0    1
 -2       948       950       949
 -1       422   12    0    1
 -2       950       952       951
 -1       423   12    0    1
 -2       952       954       953
 -1       424   12    0    1
 -2       954        33       955
 -1       425   12    0    1
 -2        33       957       956
 -1       426   12    0    1
 -2       957       959       958
 -1       427   12    0    1
 -2       959       961       960
 -1       428   12    0    1
 -2       961       963       962
 -1       429   12    0    1
 -2       963       965       964
 -1       430   12    0    1
 -2       965       967       966
 -1       431   12    0    1
 -2       967       969       968
 -1       432   12    0    1
 -2       969        34       970
 -1       433   12    0    1
 -2        34       972       971
 -1       434   12    0    1
 -2       972       974       973
 -1       435   12    0    1
 -2       974       976       975
 -1       436   12    0    1
 -2       976       978       977
 -1       437   12    0    1
 -2       978       980       979
 -1       438   12    0    1
 -2       980       982       981
 -1       439   12    0    1
 -2       982       984       983
 -1       440   12    0    1
 -2       984        35       985
 -3
    1PSTEP                         1           1           1          
  100CL  101 1.000000000         841                     0    1           1
 -4  DISP        4    1
 -5  D1          1    2    1    0
 -5  D2          1    2    2    0
 -5  D3          1    2    3    0
 -5  ALL         1    2    0    0    1ALL
 -1         1 8.90276E-05 0.00000E+00 0.00000E+00
 -1         2 6.95635E-05 0.00000E+00 0.00000E+00
 -1         3 6.16582E-05 0.00000E+00 0.00000E+00
 -1         4 5.92447E-05 0.00000E+00 0.00000E+00
 -1         5 5.91092E-05 0.00000E+00 0.00000E+00
 -1         8 6.17985E-05-1.11675E-06 0.00000E+00
 -1         9 5.89301E-05 1.40385E-06 0.00000E+00
 -1        10 5.65185E-05-3.31717E-06 0.00000E+00
 -1        11 5.53434E-05-7.97382E-07 0.00000E+00
 -1        12 5.55427E-05 2.84966E-06 0.00000E+00
 -1        15 2.53547E-05-1.87654E-06 0.00000E+00
 -1        16 3.34222E-05 1.60487E-06 0.00000E+00
 -1        17 3.48093E-05-6.62641E-06 0.00000E+00
 -1        18 4.09396E-05-1.48159E-06 0.00000E+00
 -1        19 4.53783E-05 5.59438E-06 0.00000E+00
 -1        20 4.64010E-05 5.53378E-05 0.00000E+00
 -1        21 4.63248E-05 1.24026E-04 0.00000E+00
 -1        22 1.00090E-05-1.18348E-06 0.00000E+00
 -1        23 1.30901E-05 2.08212E-06 0.00000E+00
 -1        24 1.52086E-05-7.36686E-06 0.00000E+00
 -1        25 2.76040E-05-1.17876E-06 0.00000E+00
 -1        26 3.42463E-05 7.18367E-06 0.00000E+00
 -1        27 2.98324E-05 5.38842E-05 0.00000E+00
 -1        28 2.58975E-05 1.22714E-04 0.00000E+00
 -1        29 0.00000E+00 0.00000E+00 0.00000E+00
 -1        30 4.91549E-06 2.50464E-06 0.00000E+00
 -1        31 6.47432E-06-6.26465E-06 0.00000E+00
 -1        32 0.00000E+00 0.00000E+00 0.00000E+00
 -1        33 1.60944E-05 1.14028E-05 0.00000E+00
 -1        34 1.45029E-05 5.37913E-05 0.00000E+00
 -1        35 9.59214E-06 1.22018E-04 0.00000E+00
 -1        36 8.78403E-05 5.35351E-21 0.00000E+00
 -1        37 8.66233E-05 4.78441E-21-1.32349E-23
 -1        38 8.54071E-05-8.64900E-21 2.64698E-23
 -1        39 8.41863E-05-1.13324E-20 0.00000E+00
 -1        40 8.29649E-05-2.47790E-20-2.64698E-23
 -1        41 8.17426E-05-4.33112E-20 1.32349E-23
 -1        42 8.05201E-05-3.55291E-20-2.64698E-23
 -1        43 7.92974E-05-3.37688E-20 0.00000E+00
 -1        44 7.80748E-05-2.23273E-20-2.64698E-23
 -1        45 7.68522E-05-1.80425E-20 0.00000E+00
 -1        46 7.56299E-05-9.16847E-21 0.00000E+00
 -1        47 7.44084E-05-1.24408E-21 0.00000E+00
 -1        48 7.31874E-05 1.17393E-20 0.00000E+00
 -1        49 7.19708E-05 1.59580E-20 0.00000E+00
 -1        50 7.07534E-05 4.62559E-21 0.00000E+00
 -1        51 8.72137E-05-1.94289E-07 1.32349E-23
 -1        52 8.39119E-05-3.74987E-07 0.00000E+00
 -1        53 7.94147E-05-5.55233E-07 0.00000E+00
 -1        54 7.40265E-05-7.37509E-07 0.00000E+00
 -1        55 6.80524E-05-9.23125E-07 8.27181E-25
 -1        56 8.75114E-05-7.47073E-07 0.00000E+00
 -1        57 8.60420E-05-1.76172E-06-2.64698E-23
 -1        58 8.46380E-05-2.94612E-06 0.00000E+00
 -1        59 8.32593E-05-4.22029E-06 0.00000E+00
 -1        60 8.18808E-05-5.49653E-06 0.00000E+00
 -1        61 8.04697E-05-6.68985E-06 2.64698E-23
 -1        62 7.89960E-05-7.71651E-06 0.00000E+00
 -1        63 7.74297E-05-8.49657E-06 0.00000E+00
 -1        64 7.57428E-05-8.95534E-06-5.29396E-23
 -1        65 7.39101E-05-9.02463E-06 0.00000E+00
 -1        66 7.19089E-05-8.64477E-06 5.29396E-23
 -1        67 6.97211E-05-7.76484E-06-2.64698E-23
 -1        68 6.73309E-05-6.34539E-06 0.00000E+00
 -1        69 6.47349E-05-4.35478E-06 0.00000E+00
 -1        70 6.19159E-05-1.78045E-06 0.00000E+00
 -1        71 6.90657E-05-2.16887E-21-1.32349E-23
 -1        72 6.85709E-05-9.64327E-21 0.00000E+00
 -1        73 6.80760E-05-2.21866E-20 0.00000E+00
 -1        74 6.75815E-05-3.84457E-20 0.00000E+00
 -1        75 6.70871E-05-4.95200E-20 1.32349E-23
 -1        76 6.65929E-05-5.59108E-20-6.61744E-24
 -1        77 6.60986E-05-6.74979E-20 0.00000E+00
 -1        78 6.56044E-05-5.92129E-20 6.61744E-24
 -1        79 6.51101E-05-5.68819E-20-1.32349E-23
 -1        80 6.46160E-05-5.70738E-20-6.61744E-24
 -1        81 6.41218E-05-4.46678E-20 0.00000E+00
 -1        82 6.36278E-05-3.51750E-20 6.61744E-24
 -1        83 6.31338E-05-2.88934E-20 0.00000E+00
 -1        84 6.26406E-05-2.13446E-20 0.00000E+00
 -1        85 6.21472E-05-1.06392E-20-1.32349E-23
 -1        86 6.93449E-05 2.11490E-07 6.61744E-24
 -1        87 6.86157E-05 4.56141E-07 0.00000E+00
 -1        88 6.72939E-05 6.98812E-07-3.30872E-24
 -1        89 6.52962E-05 9.42207E-07 0.00000E+00
 -1        90 6.25373E-05 1.18517E-06-4.13590E-25
 -1        91 6.88150E-05-3.59002E-07-2.64698E-23
 -1        92 6.81000E-05-8.35769E-07 0.00000E+00
 -1        93 6.74176E-05-1.39832E-06 2.64698E-23
 -1        94 6.67550E-05-2.01801E-06 1.32349E-23
 -1        95 6.61022E-05-2.66444E-06-2.64698E-23
 -1        96 6.54479E-05-3.30750E-06 1.32349E-23
 -1        97 6.47810E-05-3.91702E-06 2.64698E-23
 -1        98 6.40903E-05-4.46327E-06 1.32349E-23
 -1        99 6.33650E-05-4.91709E-06 2.64698E-23
 -1       100 6.25945E-05-5.25027E-06 0.00000E+00
 -1       101 6.17688E-05-5.43586E-06-2.64698E-23
 -1       102 6.08784E-05-5.44824E-06 0.00000E+00
 -1       103 5.99144E-05-5.26379E-06 0.00000E+00
 -1       104 5.88702E-05-4.86009E-06 1.32349E-23
 -1       105 5.77360E-05-4.21852E-06 0.00000E+00
 -1       106 6.14963E-05-1.44562E-20 6.61744E-24
 -1       107 6.13443E-05-2.05174E-20 3.30872E-24
 -1       108 6.11922E-05-2.48514E-20-6.61744E-24
 -1       109 6.10416E-05-3.28577E-20-3.30872E-24
 -1       110 6.08912E-05-3.46030E-20-6.61744E-24
 -1       111 6.07411E-05-3.10590E-20 0.00000E+00
 -1       112 6.05910E-05-3.27539E-20 3.30872E-24
 -1       113 6.04411E-05-2.80021E-20 0.00000E+00
 -1       114 6.02912E-05-2.39266E-20 0.00000E+00
 -1       115 6.01413E-05-1.90731E-20 0.00000E+00
 -1       116 5.99914E-05-4.33112E-21-3.30872E-24
 -1       117 5.98415E-05-2.44680E-21 0.00000E+00
 -1       118 5.96917E-05 2.16804E-21-3.30872E-24
 -1       119 5.95422E-05 1.78051E-21 0.00000E+00
 -1       120 5.93926E-05 2.08780E-21 0.00000E+00
 -1       121 6.14595E-05-5.46989E-07 1.32349E-23
 -1       122 6.09159E-05-1.10090E-06 0.00000E+00
 -1       123 6.00874E-05-1.65475E-06 0.00000E+00
 -1       124 5.90360E-05-2.20946E-06 6.61744E-24
 -1       125 5.78249E-05-2.76455E-06-1.32349E-23
 -1       126 6.13127E-05-1.86932E-07 0.00000E+00
 -1       127 6.09994E-05-4.56241E-07 0.00000E+00
 -1       128 6.07091E-05-7.86895E-07-1.32349E-23
 -1       129 6.04337E-05-1.15702E-06 0.00000E+00
 -1       130 6.01649E-05-1.54467E-06 0.00000E+00
 -1       131 5.98945E-05-1.92776E-06 6.61744E-24
 -1       132 5.96141E-05-2.28428E-06 0.00000E+00
 -1       133 5.93155E-05-2.59231E-06-6.61744E-24
 -1       134 5.89907E-05-2.83016E-06 0.00000E+00
 -1       135 5.86315E-05-2.97646E-06 6.61744E-24
 -1       136 5.82303E-05-3.01028E-06 0.00000E+00
 -1       137 5.77793E-05-2.91114E-06-6.61744E-24
 -1       138 5.72712E-05-2.65931E-06 0.00000E+00
 -1       139 5.66998E-05-2.23531E-06 0.00000E+00
 -1       140 5.60567E-05-1.62143E-06-6.61744E-24
 -1       141 5.92298E-05 2.26684E-21-1.65436E-24
 -1       142 5.92190E-05 6.74669E-23 0.00000E+00
 -1       143 5.92082E-05-6.95356E-21 8.27181E-25
 -1       144 5.91980E-05-5.99039E-21 2.06795E-25
 -1       145 5.91879E-05-1.74512E-20 0.00000E+00
 -1       146 5.91779E-05-1.58491E-20 2.06795E-25
 -1       147 5.91680E-05-1.44043E-21 0.00000E+00
 -1       148 5.91581E-05 1.56741E-20-1.03398E-25
 -1       149 5.91483E-05 1.46170E-20 0.00000E+00
 -1       150 5.91386E-05 2.19139E-20 0.00000E+00
 -1       151 5.91290E-05 1.69275E-20 0.00000E+00
 -1       152 5.91199E-05 1.15046E-20 0.00000E+00
 -1       153 5.91112E-05 1.54582E-20 1.65436E-24
 -1       154 5.91052E-05 4.73375E-21-1.65436E-24
 -1       155 5.90987E-05 1.77844E-23-6.61744E-24
 -1       156 5.91020E-05-1.31245E-07 0.00000E+00
 -1       157 5.87068E-05-2.63553E-07 0.00000E+00
 -1       158 5.80961E-05-3.95985E-07 3.30872E-24
 -1       159 5.73069E-05-5.29008E-07 0.00000E+00
 -1       160 5.63768E-05-6.62113E-07 6.61744E-24
 -1       161 5.91106E-05-8.31473E-08 0.00000E+00
 -1       162 5.89913E-05-2.10359E-07-1.65436E-24
 -1       163 5.88820E-05-3.64200E-07 3.30872E-24
 -1       164 5.87762E-05-5.27858E-07 1.65436E-24
 -1       165 5.86676E-05-6.84311E-07 3.30872E-24
 -1       166 5.85499E-05-8.16642E-07 0.00000E+00
 -1       167 5.84169E-05-9.07967E-07 0.00000E+00
 -1       168 5.82622E-05-9.41486E-07 0.00000E+00
 -1       169 5.80795E-05-9.00508E-07 3.30872E-24
 -1       170 5.78629E-05-7.68457E-07-1.65436E-24
 -1       171 5.76061E-05-5.28962E-07 0.00000E+00
 -1       172 5.73034E-05-1.65672E-07 0.00000E+00
 -1       173 5.69487E-05 3.37231E-07 0.00000E+00
 -1       174 5.65392E-05 9.96580E-07 4.13590E-25
 -1       175 5.60647E-05 1.82619E-06 0.00000E+00
 -1       191 5.90048E-05 4.72921E-07-1.32349E-23
 -1       192 5.87030E-05 9.49194E-07 2.64698E-23
 -1       193 5.82041E-05 1.42602E-06 0.00000E+00
 -1       194 5.75098E-05 1.90265E-06-6.61744E-24
 -1       195 5.66216E-05 2.37831E-06-1.32349E-23
 -1       251 6.16050E-05 3.33179E-06-6.61744E-24
 -1       252 6.14235E-05 6.23041E-06 3.30872E-24
 -1       253 6.12448E-05 7.78259E-06 6.61744E-24
 -1       254 6.10682E-05 8.19534E-06 0.00000E+00
 -1       255 6.08918E-05 7.67774E-06 0.00000E+00
 -1       256 6.07151E-05 6.44081E-06 0.00000E+00
 -1       257 6.05377E-05 4.69698E-06 6.61744E-24
 -1       258 6.03598E-05 2.65970E-06 3.30872E-24
 -1       259 6.01818E-05 5.42940E-07 0.00000E+00
 -1       260 6.00040E-05-1.43910E-06 3.30872E-24
 -1       261 5.98268E-05-3.07250E-06 0.00000E+00
 -1       262 5.96501E-05-4.14408E-06 0.00000E+00
 -1       263 5.94737E-05-4.44171E-06 6.61744E-24
 -1       264 5.92963E-05-3.75489E-06 0.00000E+00
 -1       265 5.91175E-05-1.87488E-06 0.00000E+00
 -1       266 5.58223E-05-1.25185E-06-6.61744E-24
 -1       267 4.90440E-05-1.38235E-06 3.30872E-24
 -1       268 4.20354E-05-1.51447E-06 0.00000E+00
 -1       269 3.53697E-05-1.64233E-06-1.65436E-24
 -1       270 2.96193E-05-1.76486E-06 0.00000E+00
 -1       271 5.86068E-05 2.95294E-06 0.00000E+00
 -1       272 5.58586E-05 5.70391E-06-2.64698E-23
 -1       273 5.35589E-05 7.27381E-06 5.29396E-23
 -1       274 5.16436E-05 7.80054E-06 0.00000E+00
 -1       275 5.00576E-05 7.44889E-06 0.00000E+00
 -1       276 4.87324E-05 6.39749E-06 0.00000E+00
 -1       277 4.75965E-05 4.83973E-06-5.29396E-23
 -1       278 4.65738E-05 2.97829E-06 0.00000E+00
 -1       279 4.55866E-05 1.02199E-06 5.29396E-23
 -1       280 4.45564E-05-8.18461E-07 0.00000E+00
 -1       281 4.34054E-05-2.33487E-06 5.29396E-23
 -1       282 4.20590E-05-3.32483E-06 0.00000E+00
 -1       283 4.04444E-05-3.59716E-06 0.00000E+00
 -1       284 3.85020E-05-2.97113E-06-1.32349E-23
 -1       285 3.61598E-05-1.29077E-06 0.00000E+00
 -1       286 5.87696E-05 4.84381E-06 6.61744E-24
 -1       287 5.86184E-05 7.14273E-06-3.30872E-24
 -1       288 5.84689E-05 8.43426E-06-1.32349E-23
 -1       289 5.83210E-05 8.85440E-06 0.00000E+00
 -1       290 5.81734E-05 8.54049E-06 0.00000E+00
 -1       291 5.80257E-05 7.63112E-06 0.00000E+00
 -1       292 5.78775E-05 6.26587E-06 0.00000E+00
 -1       293 5.77289E-05 4.58506E-06-1.65436E-24
 -1       294 5.75799E-05 2.72955E-06 0.00000E+00
 -1       295 5.74309E-05 8.40500E-07 0.00000E+00
 -1       296 5.72819E-05-9.40915E-07-3.30872E-24
 -1       297 5.71328E-05-2.47366E-06 0.00000E+00
 -1       298 5.69840E-05-3.61711E-06 0.00000E+00
 -1       299 5.68334E-05-4.23134E-06 0.00000E+00
 -1       300 5.66832E-05-4.17722E-06-1.32349E-23
 -1       301 5.47329E-05 1.42503E-06 0.00000E+00
 -1       302 5.04778E-05 1.46078E-06 4.13590E-25
 -1       303 4.61917E-05 1.49945E-06 4.13590E-25
 -1       304 4.19021E-05 1.53874E-06 4.13590E-25
 -1       305 3.76366E-05 1.57647E-06 0.00000E+00
 -1       306 5.61707E-05 4.37309E-06-2.64698E-23
 -1       307 5.37590E-05 6.27029E-06 0.00000E+00
 -1       308 5.17142E-05 7.20039E-06 5.29396E-23
 -1       309 4.99865E-05 7.26389E-06 2.64698E-23
 -1       310 4.85368E-05 6.58455E-06 5.29396E-23
 -1       311 4.73133E-05 5.29724E-06 0.00000E+00
 -1       312 4.62617E-05 3.54962E-06 5.29396E-23
 -1       313 4.53236E-05 1.49755E-06 0.00000E+00
 -1       314 4.44386E-05-6.96814E-07 0.00000E+00
 -1       315 4.35455E-05-2.86866E-06-2.64698E-23
 -1       316 4.25830E-05-4.85386E-06-5.29396E-23
 -1       317 4.14921E-05-6.49135E-06-2.64698E-23
 -1       318 4.02145E-05-7.62759E-06-5.29396E-23
 -1       319 3.87031E-05-8.11559E-06 0.00000E+00
 -1       320 3.68981E-05-7.82742E-06 0.00000E+00
 -1       321 5.64261E-05-2.19076E-06-6.61744E-24
 -1       322 5.63514E-05-1.41870E-06 0.00000E+00
 -1       323 5.62765E-05-9.53395E-07 3.30872E-24
 -1       324 5.62044E-05-7.46781E-07 0.00000E+00
 -1       325 5.61327E-05-7.50638E-07 0.00000E+00
 -1       326 5.60615E-05-9.16554E-07 0.00000E+00
 -1       327 5.59904E-05-1.19600E-06 0.00000E+00
 -1       328 5.59194E-05-1.54035E-06 0.00000E+00
 -1       329 5.58484E-05-1.90091E-06-1.65436E-24
 -1       330 5.57774E-05-2.22901E-06-8.27181E-25
 -1       331 5.57064E-05-2.47598E-06 0.00000E+00
 -1       332 5.56353E-05-2.59321E-06 1.65436E-24
 -1       333 5.55641E-05-2.53221E-06 3.30872E-24
 -1       334 5.54921E-05-2.24464E-06 1.65436E-24
 -1       335 5.54202E-05-1.68229E-06 0.00000E+00
 -1       336 5.42643E-05-3.86596E-06 0.00000E+00
 -1       337 5.06784E-05-4.42043E-06 0.00000E+00
 -1       338 4.63474E-05-4.97718E-06-1.32349E-23
 -1       339 4.18639E-05-5.53300E-06 0.00000E+00
 -1       340 3.78213E-05-6.08750E-06 0.00000E+00
 -1       341 5.52726E-05-2.44377E-06 0.00000E+00
 -1       342 5.41155E-05-1.84893E-06-1.32349E-23
 -1       343 5.30497E-05-1.49548E-06-2.64698E-23
 -1       344 5.20596E-05-1.35009E-06 0.00000E+00
 -1       345 5.11334E-05-1.37546E-06 0.00000E+00
 -1       346 5.02565E-05-1.53332E-06 0.00000E+00
 -1       347 4.94142E-05-1.78380E-06 0.00000E+00
 -1       348 4.85914E-05-2.08616E-06-1.32349E-23
 -1       349 4.77725E-05-2.39905E-06 2.64698E-23
 -1       350 4.69423E-05-2.68102E-06 0.00000E+00
 -1       351 4.60852E-05-2.89101E-06 0.00000E+00
 -1       352 4.51870E-05-2.98845E-06 0.00000E+00
 -1       353 4.42325E-05-2.93443E-06-2.64698E-23
 -1       354 4.32125E-05-2.68957E-06-1.32349E-23
 -1       355 4.21069E-05-2.22083E-06 0.00000E+00
 -1       356 5.53451E-05 1.09594E-07-3.30872E-24
 -1       357 5.53550E-05 7.32439E-07 0.00000E+00
 -1       358 5.53648E-05 1.11259E-06-8.27181E-25
 -1       359 5.53760E-05 1.29159E-06 0.00000E+00
 -1       360 5.53873E-05 1.31095E-06 2.06795E-25
 -1       361 5.53989E-05 1.21217E-06-1.03398E-25
 -1       362 5.54106E-05 1.03671E-06 4.13590E-25
 -1       363 5.54223E-05 8.26036E-07 0.00000E+00
 -1       364 5.54340E-05 6.21611E-07-4.13590E-25
 -1       365 5.54459E-05 4.64896E-07 0.00000E+00
 -1       366 5.54579E-05 3.97357E-07 0.00000E+00
 -1       367 5.54704E-05 4.60471E-07 0.00000E+00
 -1       368 5.54832E-05 6.95738E-07 0.00000E+00
 -1       369 5.54983E-05 1.14466E-06 0.00000E+00
 -1       370 5.55129E-05 1.84883E-06 0.00000E+00
 -1       371 5.36707E-05-9.14030E-07-3.30872E-24
 -1       372 5.11603E-05-1.02919E-06 0.00000E+00
 -1       373 4.82215E-05-1.14535E-06 0.00000E+00
 -1       374 4.52649E-05-1.26029E-06 1.65436E-24
 -1       375 4.27011E-05-1.37432E-06 1.65436E-24
 -1       376 5.45901E-05-2.66217E-08-1.32349E-23
 -1       377 5.39223E-05 4.86524E-07 6.61744E-24
 -1       378 5.33345E-05 7.87862E-07 0.00000E+00
 -1       379 5.28084E-05 9.19867E-07 0.00000E+00
 -1       380 5.23290E-05 9.27163E-07 1.32349E-23
 -1       381 5.18793E-05 8.54461E-07 0.00000E+00
 -1       382 5.14426E-05 7.47055E-07 1.32349E-23
 -1       383 5.10019E-05 6.50348E-07 0.00000E+00
 -1       384 5.05401E-05 6.09698E-07 1.32349E-23
 -1       385 5.00405E-05 6.70200E-07 6.61744E-24
 -1       386 4.94865E-05 8.76312E-07-1.32349E-23
 -1       387 4.88621E-05 1.27194E-06-6.61744E-24
 -1       388 4.81509E-05 1.89959E-06-1.32349E-23
 -1       389 4.73411E-05 2.80211E-06 0.00000E+00
 -1       390 4.64125E-05 4.01753E-06 0.00000E+00
 -1       406 5.42006E-05 3.30753E-06 1.32349E-23
 -1       407 5.26858E-05 3.76851E-06-6.61744E-24
 -1       408 5.10216E-05 4.22966E-06 1.32349E-23
 -1       409 4.92324E-05 4.68977E-06-6.61744E-24
 -1       410 4.73429E-05 5.14741E-06 1.32349E-23
 -1       466 2.58356E-05 7.64727E-07 0.00000E+00
 -1       467 2.63409E-05 2.32174E-06 0.00000E+00
 -1       468 2.68467E-05 2.96697E-06 0.00000E+00
 -1       469 2.73562E-05 2.86816E-06 6.61744E-24
 -1       470 2.78660E-05 2.18871E-06-1.32349E-23
 -1       471 2.83761E-05 1.08869E-06 6.61744E-24
 -1       472 2.88861E-05-2.74231E-07 0.00000E+00
 -1       473 2.93960E-05-1.74391E-06 0.00000E+00
 -1       474 2.99060E-05-3.16483E-06 1.32349E-23
 -1       475 3.04161E-05-4.38119E-06-6.61744E-24
 -1       476 3.09262E-05-5.23598E-06-1.32349E-23
 -1       477 3.14359E-05-5.57016E-06 6.61744E-24
 -1       478 3.19449E-05-5.22164E-06-1.32349E-23
 -1       479 3.24487E-05-4.02447E-06 0.00000E+00
 -1       480 3.29514E-05-1.80769E-06 0.00000E+00
 -1       481 2.21559E-05-1.76751E-06 0.00000E+00
 -1       482 1.91379E-05-1.65210E-06 0.00000E+00
 -1       483 1.63571E-05-1.53623E-06 0.00000E+00
 -1       484 1.38704E-05-1.41898E-06 0.00000E+00
 -1       485 1.17352E-05-1.30077E-06 0.00000E+00
 -1       486 2.36930E-05 8.19207E-07 0.00000E+00
 -1       487 2.22550E-05 2.84995E-06 0.00000E+00
 -1       488 2.10426E-05 4.28510E-06 0.00000E+00
 -1       489 2.00265E-05 5.18774E-06 0.00000E+00
 -1       490 1.91838E-05 5.62807E-06 0.00000E+00
 -1       491 1.84869E-05 5.67842E-06-6.61744E-24
 -1       492 1.79077E-05 5.41450E-06 1.32349E-23
 -1       493 1.74170E-05 4.91421E-06 0.00000E+00
 -1       494 1.69850E-05 4.25734E-06 0.00000E+00
 -1       495 1.65813E-05 3.52488E-06 0.00000E+00
 -1       496 1.61756E-05 2.79837E-06-1.32349E-23
 -1       497 1.57376E-05 2.15948E-06 0.00000E+00
 -1       498 1.52369E-05 1.68890E-06-1.32349E-23
 -1       499 1.46465E-05 1.46727E-06-6.61744E-24
 -1       500 1.39332E-05 1.57072E-06 0.00000E+00
 -1       501 3.34942E-05 4.95747E-06 0.00000E+00
 -1       502 3.35809E-05 6.99085E-06 5.16988E-26
 -1       503 3.36689E-05 7.87911E-06 0.00000E+00
 -1       504 3.37592E-05 7.79592E-06 0.00000E+00
 -1       505 3.38494E-05 6.91382E-06 1.65436E-24
 -1       506 3.39392E-05 5.40458E-06-8.27181E-25
 -1       507 3.40283E-05 3.43935E-06 0.00000E+00
 -1       508 3.41170E-05 1.18875E-06 0.00000E+00
 -1       509 3.42054E-05-1.17684E-06 0.00000E+00
 -1       510 3.42938E-05-3.48716E-06 0.00000E+00
 -1       511 3.43826E-05-5.57194E-06 3.30872E-24
 -1       512 3.44717E-05-7.26063E-06-1.65436E-24
 -1       513 3.45612E-05-8.38228E-06-1.65436E-24
 -1       514 3.46489E-05-8.76542E-06 0.00000E+00
 -1       515 3.47369E-05-8.23769E-06 3.30872E-24
 -1       516 2.91890E-05 1.67402E-06 1.65436E-24
 -1       517 2.49250E-05 1.75395E-06-2.06795E-25
 -1       518 2.09063E-05 1.83435E-06-8.27181E-25
 -1       519 1.74095E-05 1.91706E-06-2.06795E-25
 -1       520 1.47117E-05 2.00250E-06 0.00000E+00
 -1       521 3.09770E-05 4.64147E-06 0.00000E+00
 -1       522 2.89283E-05 6.50114E-06 1.32349E-23
 -1       523 2.72767E-05 7.31172E-06-2.64698E-23
 -1       524 2.59652E-05 7.19794E-06 0.00000E+00
 -1       525 2.49454E-05 6.30422E-06 0.00000E+00
 -1       526 2.41588E-05 4.78428E-06 0.00000E+00
 -1       527 2.35444E-05 2.80237E-06 0.00000E+00
 -1       528 2.30386E-05 5.29296E-07 0.00000E+00
 -1       529 2.25758E-05-1.85939E-06-2.64698E-23
 -1       530 2.20903E-05-4.18641E-06-1.32349E-23
 -1       531 2.15162E-05-6.27556E-06 0.00000E+00
 -1       532 2.07897E-05-7.95389E-06 0.00000E+00
 -1       533 1.98482E-05-9.05545E-06 0.00000E+00
 -1       534 1.86374E-05-9.42088E-06 0.00000E+00
 -1       535 1.70947E-05-8.90690E-06 0.00000E+00
 -1       536 3.51634E-05-4.68869E-06 1.65436E-24
 -1       537 3.55452E-05-3.27513E-06-3.30872E-24
 -1       538 3.59268E-05-2.31561E-06-6.61744E-24
 -1       539 3.63130E-05-1.74169E-06 0.00000E+00
 -1       540 3.66998E-05-1.48666E-06 0.00000E+00
 -1       541 3.70875E-05-1.48521E-06 0.00000E+00
 -1       542 3.74753E-05-1.67311E-06 1.32349E-23
 -1       543 3.78633E-05-1.98698E-06 6.61744E-24
 -1       544 3.82513E-05-2.36398E-06 0.00000E+00
 -1       545 3.86392E-05-2.74156E-06 0.00000E+00
 -1       546 3.90270E-05-3.05715E-06-1.32349E-23
 -1       547 3.94144E-05-3.24793E-06 6.61744E-24
 -1       548 3.98015E-05-3.25053E-06-1.32349E-23
 -1       549 4.01860E-05-3.00074E-06 3.30872E-24
 -1       550 4.05709E-05-2.43327E-06 6.61744E-24
 -1       551 3.19042E-05-6.75270E-06-4.85969E-24
 -1       552 2.86650E-05-6.87383E-06 2.48154E-24
 -1       553 2.52325E-05-6.99437E-06 0.00000E+00
 -1       554 2.17502E-05-7.11526E-06 0.00000E+00
 -1       555 1.83618E-05-7.23747E-06 0.00000E+00
 -1       556 3.38334E-05-4.88793E-06 0.00000E+00
 -1       557 3.30210E-05-3.58696E-06-1.32349E-23
 -1       558 3.23539E-05-2.67259E-06 1.32349E-23
 -1       559 3.18117E-05-2.09076E-06 0.00000E+00
 -1       560 3.13741E-05-1.78728E-06 0.00000E+00
 -1       561 3.10205E-05-1.70756E-06 0.00000E+00
 -1       562 3.07304E-05-1.79695E-06 0.00000E+00
 -1       563 3.04831E-05-2.00074E-06 0.00000E+00
 -1       564 3.02583E-05-2.26416E-06 0.00000E+00
 -1       565 3.00353E-05-2.53244E-06 0.00000E+00
 -1       566 2.97937E-05-2.75080E-06 0.00000E+00
 -1       567 2.95130E-05-2.86445E-06 3.30872E-24
 -1       568 2.91727E-05-2.81866E-06 0.00000E+00
 -1       569 2.87531E-05-2.55876E-06-2.06795E-24
 -1       570 2.82344E-05-2.03019E-06-5.48007E-24
 -1       571 4.12020E-05-5.99128E-07-2.06795E-24
 -1       572 4.14763E-05 1.62770E-08-8.27181E-25
 -1       573 4.17535E-05 4.07532E-07 0.00000E+00
 -1       574 4.20322E-05 6.19510E-07 0.00000E+00
 -1       575 4.23114E-05 6.97168E-07 0.00000E+00
 -1       576 4.25909E-05 6.85646E-07 0.00000E+00
 -1       577 4.28705E-05 6.30079E-07 6.61744E-24
 -1       578 4.31502E-05 5.75616E-07-6.61744E-24
 -1       579 4.34298E-05 5.67405E-07 0.00000E+00
 -1       580 4.37095E-05 6.50608E-07 6.61744E-24
 -1       581 4.39891E-05 8.70393E-07 0.00000E+00
 -1       582 4.42685E-05 1.27194E-06 0.00000E+00
 -1       583 4.45477E-05 1.90045E-06 0.00000E+00
 -1       584 4.48263E-05 2.80086E-06 0.00000E+00
 -1       585 4.51039E-05 4.01808E-06 0.00000E+00
 -1       586 3.90285E-05-1.43057E-06 0.00000E+00
 -1       587 3.67805E-05-1.37814E-06 0.00000E+00
 -1       588 3.43534E-05-1.32577E-06 0.00000E+00
 -1       589 3.19082E-05-1.27398E-06 0.00000E+00
 -1       590 2.96056E-05-1.22336E-06 0.00000E+00
 -1       591 4.03857E-05-5.50430E-07 0.00000E+00
 -1       592 3.98905E-05 1.97873E-07 0.00000E+00
 -1       593 3.94511E-05 7.92142E-07 0.00000E+00
 -1       594 3.90580E-05 1.26027E-06 0.00000E+00
 -1       595 3.87015E-05 1.63015E-06 0.00000E+00
 -1       596 3.83713E-05 1.92965E-06 0.00000E+00
 -1       597 3.80569E-05 2.18663E-06 6.61744E-24
 -1       598 3.77481E-05 2.42893E-06 0.00000E+00
 -1       599 3.74343E-05 2.68440E-06 0.00000E+00
 -1       600 3.71051E-05 2.98090E-06 0.00000E+00
 -1       601 3.67502E-05 3.34628E-06-3.30872E-24
 -1       602 3.63591E-05 3.80838E-06-8.27181E-25
 -1       603 3.59217E-05 4.39507E-06-4.96308E-24
 -1       604 3.54285E-05 5.13429E-06 1.44757E-24
 -1       605 3.48701E-05 6.05399E-06 1.65436E-24
 -1       606 4.54535E-05 7.65770E-06 0.00000E+00
 -1       607 4.55217E-05 9.92302E-06 0.00000E+00
 -1       608 4.55880E-05 1.23782E-05 0.00000E+00
 -1       609 4.56531E-05 1.50096E-05 0.00000E+00
 -1       610 4.57175E-05 1.78038E-05 0.00000E+00
 -1       611 4.57813E-05 2.07468E-05 6.61744E-24
 -1       612 4.58447E-05 2.38250E-05 0.00000E+00
 -1       613 4.59077E-05 2.70245E-05 0.00000E+00
 -1       614 4.59704E-05 3.03316E-05 0.00000E+00
 -1       615 4.60327E-05 3.37325E-05 0.00000E+00
 -1       616 4.60948E-05 3.72135E-05 0.00000E+00
 -1       617 4.61566E-05 4.07608E-05 0.00000E+00
 -1       618 4.62183E-05 4.43606E-05 0.00000E+00
 -1       619 4.62797E-05 4.79992E-05 1.65436E-24
 -1       620 4.63408E-05 5.16629E-05 0.00000E+00
 -1       621 4.33569E-05 5.85959E-06-6.61744E-24
 -1       622 4.13575E-05 6.12682E-06-3.30872E-24
 -1       623 3.94136E-05 6.39431E-06 0.00000E+00
 -1       624 3.75585E-05 6.66120E-06-1.65436E-24
 -1       625 3.58254E-05 6.92646E-06-3.30872E-24
 -1       626 4.47373E-05 7.75197E-06 0.00000E+00
 -1       627 4.40078E-05 1.01340E-05 0.00000E+00
 -1       628 4.32009E-05 1.27191E-05-6.61744E-24
 -1       629 4.23259E-05 1.54834E-05-6.61744E-24
 -1       630 4.13920E-05 1.84031E-05-6.61744E-24
 -1       631 4.04084E-05 2.14541E-05-3.30872E-24
 -1       632 3.93842E-05 2.46123E-05 6.61744E-24
 -1       633 3.83286E-05 2.78536E-05 0.00000E+00
 -1       634 3.72506E-05 3.11539E-05 6.61744E-24
 -1       635 3.61594E-05 3.44892E-05-1.65436E-24
 -1       636 3.50640E-05 3.78353E-05-3.30872E-24
 -1       637 3.39736E-05 4.11681E-05-1.65436E-24
 -1       638 3.28970E-05 4.44637E-05 0.00000E+00
 -1       639 3.18430E-05 4.76977E-05 8.27181E-25
 -1       640 3.08200E-05 5.08462E-05-8.27181E-25
 -1       641 4.64008E-05 5.90825E-05 0.00000E+00
 -1       642 4.63981E-05 6.30280E-05 2.06795E-25
 -1       643 4.63948E-05 6.71469E-05-4.13590E-25
 -1       644 4.63906E-05 7.14119E-05 2.06795E-25
 -1       645 4.63859E-05 7.57956E-05-2.06795E-25
 -1       646 4.63808E-05 8.02706E-05 0.00000E+00
 -1       647 4.63753E-05 8.48096E-05 0.00000E+00
 -1       648 4.63697E-05 8.93852E-05-5.16988E-26
 -1       649 4.63640E-05 9.39701E-05 0.00000E+00
 -1       650 4.63584E-05 9.85369E-05 2.58494E-26
 -1       651 4.63529E-05 1.03058E-04-2.58494E-26
 -1       652 4.63476E-05 1.07507E-04 0.00000E+00
 -1       653 4.63426E-05 1.11855E-04 0.00000E+00
 -1       654 4.63375E-05 1.16076E-04-4.13590E-25
 -1       655 4.63331E-05 1.20142E-04 0.00000E+00
 -1       656 4.30586E-05 5.51019E-05 0.00000E+00
 -1       657 4.01547E-05 5.48554E-05-3.30872E-24
 -1       658 3.75353E-05 5.46103E-05 0.00000E+00
 -1       659 3.50453E-05 5.43653E-05 0.00000E+00
 -1       660 3.25294E-05 5.41197E-05-3.30872E-24
 -1       661 4.52518E-05 5.91744E-05-6.61744E-24
 -1       662 4.40399E-05 6.32047E-05 0.00000E+00
 -1       663 4.27673E-05 6.73941E-05 0.00000E+00
 -1       664 4.14474E-05 7.17124E-05 0.00000E+00
 -1       665 4.00903E-05 7.61293E-05 0.00000E+00
 -1       666 3.87074E-05 8.06147E-05 0.00000E+00
 -1       667 3.73097E-05 8.51391E-05 0.00000E+00
 -1       668 3.59085E-05 8.96732E-05 3.30872E-24
 -1       669 3.45147E-05 9.41874E-05-6.61744E-24
 -1       670 3.31396E-05 9.86523E-05-3.30872E-24
 -1       671 3.17944E-05 1.03038E-04-6.61744E-24
 -1       672 3.04901E-05 1.07315E-04 0.00000E+00
 -1       673 2.92384E-05 1.11453E-04-6.61744E-24
 -1       674 2.80489E-05 1.15420E-04 0.00000E+00
 -1       675 2.69362E-05 1.19186E-04 0.00000E+00
 -1       676 4.26482E-05 1.23809E-04 0.00000E+00
 -1       677 3.91384E-05 1.23588E-04 0.00000E+00
 -1       678 3.57522E-05 1.23368E-04 0.00000E+00
 -1       679 3.24458E-05 1.23148E-04 0.00000E+00
 -1       680 2.91756E-05 1.22928E-04-3.30872E-24
 -1       681 1.01969E-05 1.04458E-07 0.00000E+00
 -1       682 1.03901E-05 1.02311E-06 0.00000E+00
 -1       683 1.05835E-05 1.62195E-06 0.00000E+00
 -1       684 1.07778E-05 1.94995E-06-3.30872E-24
 -1       685 1.09722E-05 2.05547E-06 0.00000E+00
 -1       686 1.11668E-05 1.98637E-06 3.30872E-24
 -1       687 1.13614E-05 1.79013E-06 6.61744E-24
 -1       688 1.15559E-05 1.51398E-06-3.30872E-24
 -1       689 1.17505E-05 1.20494E-06 0.00000E+00
 -1       690 1.19450E-05 9.09965E-07 0.00000E+00
 -1       691 1.21394E-05 6.76053E-07 0.00000E+00
 -1       692 1.23334E-05 5.50325E-07-3.30872E-24
 -1       693 1.25272E-05 5.80146E-07 0.00000E+00
 -1       694 1.27190E-05 8.13207E-07 0.00000E+00
 -1       695 1.29110E-05 1.29768E-06 1.65436E-24
 -1       696 8.39788E-06-9.91459E-07 0.00000E+00
 -1       697 6.64026E-06-7.94432E-07 3.30872E-24
 -1       698 4.82886E-06-5.97575E-07 6.61744E-24
 -1       699 3.05643E-06-3.99471E-07 0.00000E+00
 -1       700 1.41583E-06-2.01101E-07 0.00000E+00
 -1       701 9.31251E-06 8.79792E-08 0.00000E+00
 -1       702 8.70913E-06 1.07610E-06 1.65436E-24
 -1       703 8.20032E-06 1.81401E-06 0.00000E+00
 -1       704 7.77277E-06 2.33015E-06 3.30872E-24
 -1       705 7.41686E-06 2.65501E-06 0.00000E+00
 -1       706 7.12101E-06 2.81892E-06-3.30872E-24
 -1       707 6.87387E-06 2.85281E-06-6.61744E-24
 -1       708 6.66377E-06 2.78783E-06 0.00000E+00
 -1       709 6.47894E-06 2.65543E-06 6.61744E-24
 -1       710 6.30758E-06 2.48724E-06 3.30872E-24
 -1       711 6.13782E-06 2.31498E-06 6.61744E-24
 -1       712 5.95801E-06 2.17045E-06-3.30872E-24
 -1       713 5.75613E-06 2.08523E-06 6.61744E-24
 -1       714 5.52200E-06 2.09143E-06 0.00000E+00
 -1       715 5.24168E-06 2.21946E-06 0.00000E+00
 -1       716 1.32140E-05 2.65696E-06-1.55096E-25
 -1       717 1.33482E-05 2.56890E-06-8.27181E-25
 -1       718 1.34820E-05 1.92789E-06-3.30872E-24
 -1       719 1.36171E-05 8.43406E-07 0.00000E+00
 -1       720 1.37520E-05-5.75862E-07 3.30872E-24
 -1       721 1.38869E-05-2.22168E-06-1.65436E-24
 -1       722 1.40216E-05-3.98614E-06 3.30872E-24
 -1       723 1.41564E-05-5.76161E-06 0.00000E+00
 -1       724 1.42913E-05-7.44038E-06 0.00000E+00
 -1       725 1.44264E-05-8.91462E-06 0.00000E+00
 -1       726 1.45617E-05-1.00762E-05 0.00000E+00
 -1       727 1.46969E-05-1.08165E-05 0.00000E+00
 -1       728 1.48320E-05-1.10263E-05 0.00000E+00
 -1       729 1.49641E-05-1.05955E-05-8.27181E-25
 -1       730 1.50961E-05-9.41291E-06 0.00000E+00
 -1       731 1.18679E-05 2.14589E-06 0.00000E+00
 -1       732 1.03076E-05 2.21685E-06-4.13590E-25
 -1       733 8.62049E-06 2.28742E-06-1.65436E-24
 -1       734 7.01833E-06 2.35929E-06 8.27181E-25
 -1       735 5.71281E-06 2.43173E-06 0.00000E+00
 -1       736 1.22822E-05 2.66550E-06-1.32349E-23
 -1       737 1.15804E-05 2.91154E-06 0.00000E+00
 -1       738 1.09903E-05 2.86206E-06-1.32349E-23
 -1       739 1.04944E-05 2.55279E-06-6.61744E-24
 -1       740 1.00807E-05 2.02348E-06 1.32349E-23
 -1       741 9.73378E-06 1.31433E-06 6.61744E-24
 -1       742 9.43849E-06 4.67089E-07 0.00000E+00
 -1       743 9.17888E-06-4.75738E-07 0.00000E+00
 -1       744 8.93885E-06-1.47091E-06-1.32349E-23
 -1       745 8.70217E-06-2.47484E-06 6.61744E-24
 -1       746 8.45254E-06-3.44391E-06 0.00000E+00
 -1       747 8.17405E-06-4.33461E-06 6.61744E-24
 -1       748 7.85047E-06-5.10419E-06 0.00000E+00
 -1       749 7.46824E-06-5.70984E-06 0.00000E+00
 -1       750 7.00906E-06-6.11180E-06 0.00000E+00
 -1       751 1.59363E-05-5.17165E-06 0.00000E+00
 -1       752 1.67101E-05-3.56660E-06-6.61744E-24
 -1       753 1.74835E-05-2.46774E-06 2.64698E-23
 -1       754 1.82643E-05-1.79528E-06 1.32349E-23
 -1       755 1.90463E-05-1.47325E-06-2.64698E-23
 -1       756 1.98295E-05-1.42873E-06-1.32349E-23
 -1       757 2.06132E-05-1.59128E-06-2.64698E-23
 -1       758 2.13970E-05-1.89226E-06 0.00000E+00
 -1       759 2.21808E-05-2.26429E-06 2.64698E-23
 -1       760 2.29645E-05-2.64058E-06 0.00000E+00
 -1       761 2.37479E-05-2.95440E-06 2.64698E-23
 -1       762 2.45303E-05-3.13847E-06 0.00000E+00
 -1       763 2.53119E-05-3.12435E-06 0.00000E+00
 -1       764 2.60878E-05-2.84187E-06 0.00000E+00
 -1       765 2.68644E-05-2.21847E-06-1.32349E-23
 -1       766 1.28288E-05-7.19900E-06 0.00000E+00
 -1       767 1.07762E-05-7.01050E-06-8.27181E-25
 -1       768 9.08204E-06-6.82222E-06 0.00000E+00
 -1       769 7.77831E-06-6.63251E-06 1.65436E-24
 -1       770 6.89789E-06-6.44153E-06 0.00000E+00
 -1       771 1.36877E-05-5.33258E-06 0.00000E+00
 -1       772 1.22738E-05-3.63409E-06 0.00000E+00
 -1       773 1.09719E-05-2.24302E-06-2.64698E-23
 -1       774 9.77368E-06-1.13293E-06 0.00000E+00
 -1       775 8.67060E-06-2.77309E-07 0.00000E+00
 -1       776 7.65295E-06 3.50373E-07 0.00000E+00
 -1       777 6.71084E-06 7.76742E-07-2.64698E-23
 -1       778 5.83429E-06 1.02853E-06 0.00000E+00
 -1       779 5.01323E-06 1.13255E-06 2.64698E-23
 -1       780 4.23760E-06 1.11571E-06 0.00000E+00
 -1       781 3.49731E-06 1.00501E-06 2.64698E-23
 -1       782 2.78241E-06 8.27524E-07 0.00000E+00
 -1       783 2.08296E-06 6.10397E-07 0.00000E+00
 -1       784 1.39001E-06 3.81112E-07 6.61744E-24
 -1       785 6.94860E-07 1.67239E-07 0.00000E+00
 -1       786 2.79970E-05-4.42324E-08 6.61744E-24
 -1       787 2.84117E-05 8.30256E-07 0.00000E+00
 -1       788 2.88259E-05 1.48482E-06 0.00000E+00
 -1       789 2.92437E-05 1.95867E-06 6.61744E-24
 -1       790 2.96619E-05 2.29013E-06 0.00000E+00
 -1       791 3.00807E-05 2.51689E-06 6.61744E-24
 -1       792 3.04998E-05 2.67610E-06 0.00000E+00
 -1       793 3.09189E-05 2.80464E-06 0.00000E+00
 -1       794 3.13381E-05 2.93921E-06-1.32349E-23
 -1       795 3.17572E-05 3.11654E-06 0.00000E+00
 -1       796 3.21762E-05 3.37359E-06 0.00000E+00
 -1       797 3.25948E-05 3.74767E-06-6.61744E-24
 -1       798 3.30130E-05 4.27665E-06 0.00000E+00
 -1       799 3.34288E-05 4.99913E-06-6.61744E-24
 -1       800 3.38448E-05 5.95464E-06 6.61744E-24
 -1       801 2.46090E-05-9.81155E-07 0.00000E+00
 -1       802 1.93223E-05-7.79731E-07 1.65436E-24
 -1       803 1.29812E-05-5.84409E-07 3.30872E-24
 -1       804 6.82225E-06-3.89651E-07-4.13590E-25
 -1       805 2.08228E-06-1.87445E-07 0.00000E+00
 -1       806 2.68200E-05-1.78591E-07-1.32349E-23
 -1       807 2.60770E-05 6.74577E-07 0.00000E+00
 -1       808 2.53762E-05 1.40797E-06 0.00000E+00
 -1       809 2.47095E-05 2.04667E-06-6.61744E-24
 -1       810 2.40685E-05 2.61573E-06-1.32349E-23
 -1       811 2.34440E-05 3.14009E-06 6.61744E-24
 -1       812 2.28269E-05 3.64464E-06 1.32349E-23
 -1       813 2.22078E-05 4.15429E-06 0.00000E+00
 -1       814 2.15775E-05 4.69391E-06 0.00000E+00
 -1       815 2.09265E-05 5.28839E-06 0.00000E+00
 -1       816 2.02457E-05 5.96260E-06 1.32349E-23
 -1       817 1.95259E-05 6.74139E-06 3.30872E-24
 -1       818 1.87579E-05 7.64962E-06 1.32349E-23
 -1       819 1.79336E-05 8.71225E-06 0.00000E+00
 -1       820 1.70449E-05 9.95429E-06 6.61744E-24
 -1       821 3.39882E-05 8.75580E-06 0.00000E+00
 -1       822 3.37147E-05 1.06749E-05 0.00000E+00
 -1       823 3.34411E-05 1.29076E-05-6.61744E-24
 -1       824 3.31644E-05 1.54191E-05 0.00000E+00
 -1       825 3.28868E-05 1.81742E-05 0.00000E+00
 -1       826 3.26083E-05 2.11365E-05-3.30872E-24
 -1       827 3.23291E-05 2.42692E-05 0.00000E+00
 -1       828 3.20495E-05 2.75350E-05 3.30872E-24
 -1       829 3.17695E-05 3.08960E-05 6.61744E-24
 -1       830 3.14894E-05 3.43142E-05-3.30872E-24
 -1       831 3.12094E-05 3.77513E-05-6.61744E-24
 -1       832 3.09297E-05 4.11691E-05 3.30872E-24
 -1       833 3.06505E-05 4.45291E-05 0.00000E+00
 -1       834 3.03735E-05 4.77934E-05 0.00000E+00
 -1       835 3.00967E-05 5.09242E-05 0.00000E+00
 -1       836 3.21497E-05 7.87386E-06 0.00000E+00
 -1       837 2.90622E-05 8.58752E-06 6.61744E-24
 -1       838 2.54501E-05 9.29822E-06 0.00000E+00
 -1       839 2.17762E-05 1.00078E-05 0.00000E+00
 -1       840 1.85027E-05 1.07200E-05-1.32349E-23
 -1       841 3.35378E-05 8.73166E-06 4.13590E-25
 -1       842 3.26784E-05 1.06545E-05 0.00000E+00
 -1       843 3.16920E-05 1.29149E-05 3.30872E-24
 -1       844 3.05925E-05 1.54708E-05 0.00000E+00
 -1       845 2.93967E-05 1.82811E-05 3.30872E-24
 -1       846 2.81204E-05 2.13035E-05-1.65436E-24
 -1       847 2.67798E-05 2.44958E-05-3.30872E-24
 -1       848 2.53911E-05 2.78151E-05 0.00000E+00
 -1       849 2.39704E-05 3.12187E-05-3.30872E-24
 -1       850 2.25341E-05 3.46635E-05 1.65436E-24
 -1       851 2.10985E-05 3.81065E-05 3.30872E-24
 -1       852 1.96799E-05 4.15046E-05 1.65436E-24
 -1       853 1.82947E-05 4.48148E-05 0.00000E+00
 -1       854 1.69593E-05 4.79943E-05 0.00000E+00
 -1       855 1.56894E-05 5.10004E-05 0.00000E+00
 -1       856 2.96018E-05 5.69779E-05 3.30872E-24
 -1       857 2.93591E-05 6.04951E-05 0.00000E+00
 -1       858 2.91154E-05 6.43817E-05-6.61744E-24
 -1       859 2.88688E-05 6.85825E-05 3.30872E-24
 -1       860 2.86209E-05 7.30416E-05-6.61744E-24
 -1       861 2.83718E-05 7.77020E-05 0.00000E+00
 -1       862 2.81220E-05 8.25067E-05-6.61744E-24
 -1       863 2.78717E-05 8.73978E-05 0.00000E+00
 -1       864 2.76213E-05 9.23174E-05-6.61744E-24
 -1       865 2.73710E-05 9.72076E-05 3.30872E-24
 -1       866 2.71212E-05 1.02011E-04 6.61744E-24
 -1       867 2.68723E-05 1.06668E-04 3.30872E-24
 -1       868 2.66244E-05 1.11124E-04-6.61744E-24
 -1       869 2.63786E-05 1.15321E-04-3.30872E-24
 -1       870 2.61339E-05 1.19202E-04 0.00000E+00
 -1       871 2.71545E-05 5.38707E-05 0.00000E+00
 -1       872 2.45748E-05 5.38562E-05-8.27181E-25
 -1       873 2.20570E-05 5.38415E-05 8.27181E-25
 -1       874 1.95639E-05 5.38263E-05-4.13590E-25
 -1       875 1.70581E-05 5.38103E-05-8.27181E-25
 -1       876 2.89680E-05 5.70515E-05-6.61744E-24
 -1       877 2.79789E-05 6.05844E-05 0.00000E+00
 -1       878 2.68711E-05 6.44293E-05-6.61744E-24
 -1       879 2.56649E-05 6.85394E-05 0.00000E+00
 -1       880 2.43761E-05 7.28674E-05 6.61744E-24
 -1       881 2.30223E-05 7.73677E-05 3.30872E-24
 -1       882 2.16203E-05 8.19951E-05 0.00000E+00
 -1       883 2.01870E-05 8.67049E-05 0.00000E+00
 -1       884 1.87392E-05 9.14528E-05 0.00000E+00
 -1       885 1.72936E-05 9.61949E-05 3.30872E-24
 -1       886 1.58670E-05 1.00887E-04 6.61744E-24
 -1       887 1.44759E-05 1.05484E-04-3.30872E-24
 -1       888 1.31374E-05 1.09942E-04 6.61744E-24
 -1       889 1.18667E-05 1.14215E-04 3.30872E-24
 -1       890 1.06840E-05 1.18258E-04 3.30872E-24
 -1       891 2.28965E-05 1.22598E-04 3.30872E-24
 -1       892 2.03000E-05 1.22481E-04 1.65436E-24
 -1       893 1.78898E-05 1.22365E-04 0.00000E+00
 -1       894 1.54474E-05 1.22249E-04 0.00000E+00
 -1       895 1.27541E-05 1.22133E-04 1.65436E-24
 -1       896 3.05278E-07 1.10353E-06 6.61744E-24
 -1       897 6.13162E-07 1.92498E-06-3.30872E-24
 -1       898 9.21156E-07 2.49952E-06-6.61744E-24
 -1       899 1.22962E-06 2.86161E-06-3.30872E-24
 -1       900 1.53817E-06 3.04494E-06-6.61744E-24
 -1       901 1.84681E-06 3.08259E-06 3.30872E-24
 -1       902 2.15546E-06 3.00712E-06 6.61744E-24
 -1       903 2.46410E-06 2.85071E-06 0.00000E+00
 -1       904 2.77272E-06 2.64525E-06-6.61744E-24
 -1       905 3.08127E-06 2.42246E-06 0.00000E+00
 -1       906 3.38975E-06 2.21402E-06 0.00000E+00
 -1       907 3.69794E-06 2.05162E-06-3.30872E-24
 -1       908 4.00594E-06 1.96714E-06-6.61744E-24
 -1       909 4.31234E-06 1.99273E-06 3.30872E-24
 -1       910 4.61898E-06 2.16092E-06-6.61744E-24
 -1       911 5.01287E-06 2.78341E-06 3.30872E-24
 -1       912 5.11162E-06 2.76379E-06-1.65436E-24
 -1       913 5.21030E-06 2.48655E-06 3.30872E-24
 -1       914 5.30912E-06 1.99237E-06 0.00000E+00
 -1       915 5.40787E-06 1.32161E-06 0.00000E+00
 -1       916 5.50655E-06 5.14494E-07 0.00000E+00
 -1       917 5.60517E-06-3.88935E-07-3.30872E-24
 -1       918 5.70372E-06-1.34875E-06-1.65436E-24
 -1       919 5.80224E-06-2.32508E-06 3.30872E-24
 -1       920 5.90072E-06-3.27804E-06 0.00000E+00
 -1       921 5.99916E-06-4.16777E-06 3.30872E-24
 -1       922 6.09736E-06-4.95432E-06 1.65436E-24
 -1       923 6.19543E-06-5.59760E-06 0.00000E+00
 -1       924 6.29184E-06-6.05740E-06 0.00000E+00
 -1       925 6.38861E-06-6.29327E-06 0.00000E+00
 -1       926 6.08031E-06-6.04735E-06-6.61744E-24
 -1       927 5.67626E-06-5.76213E-06-6.61744E-24
 -1       928 5.27245E-06-5.41799E-06-1.32349E-23
 -1       929 4.86703E-06-5.02427E-06 6.61744E-24
 -1       930 4.46140E-06-4.59050E-06 1.32349E-23
 -1       931 4.05546E-06-4.12642E-06 0.00000E+00
 -1       932 3.64944E-06-3.64190E-06-1.32349E-23
 -1       933 3.24335E-06-3.14690E-06-6.61744E-24
 -1       934 2.83725E-06-2.65143E-06 0.00000E+00
 -1       935 2.43115E-06-2.16551E-06 6.61744E-24
 -1       936 2.02508E-06-1.69911E-06-1.32349E-23
 -1       937 1.61912E-06-1.26211E-06 0.00000E+00
 -1       938 1.21322E-06-8.64246E-07 1.32349E-23
 -1       939 8.07832E-07-5.15091E-07 0.00000E+00
 -1       940 4.02380E-07-2.23997E-07 0.00000E+00
 -1       941 9.49802E-07 1.96624E-07 1.32349E-23
 -1       942 1.95597E-06 4.19358E-07-1.32349E-23
 -1       943 2.96069E-06 6.75334E-07 0.00000E+00
 -1       944 3.97434E-06 9.72078E-07 0.00000E+00
 -1       945 4.98908E-06 1.31757E-06 0.00000E+00
 -1       946 6.00545E-06 1.72036E-06 0.00000E+00
 -1       947 7.02222E-06 2.18965E-06-2.64698E-23
 -1       948 8.03922E-06 2.73540E-06 1.32349E-23
 -1       949 9.05621E-06 3.36847E-06 2.64698E-23
 -1       950 1.00729E-05 4.10069E-06 0.00000E+00
 -1       951 1.10893E-05 4.94504E-06-2.64698E-23
 -1       952 1.21042E-05 5.91581E-06 0.00000E+00
 -1       953 1.31180E-05 7.02870E-06 2.64698E-23
 -1       954 1.41246E-05 8.30105E-06 0.00000E+00
 -1       955 1.51321E-05 9.75205E-06-1.32349E-23
 -1       956 1.59987E-05 1.33095E-05 3.30872E-24
 -1       957 1.59009E-05 1.53927E-05-8.27181E-25
 -1       958 1.58024E-05 1.76372E-05 1.65436E-24
 -1       959 1.57034E-05 2.00261E-05-1.65436E-24
 -1       960 1.56040E-05 2.25426E-05 8.27181E-25
 -1       961 1.55043E-05 2.51697E-05 1.34417E-24
 -1       962 1.54044E-05 2.78906E-05-8.27181E-25
 -1       963 1.53043E-05 3.06882E-05 1.65436E-24
 -1       964 1.52040E-05 3.35455E-05 1.65436E-24
 -1       965 1.51036E-05 3.64454E-05 8.27181E-25
 -1       966 1.50031E-05 3.93711E-05-3.30872E-24
 -1       967 1.49026E-05 4.23055E-05 0.00000E+00
 -1       968 1.48022E-05 4.52316E-05 0.00000E+00
 -1       969 1.47020E-05 4.81325E-05 0.00000E+00
 -1       970 1.46020E-05 5.09912E-05 0.00000E+00
 -1       971 1.42095E-05 5.67359E-05 0.00000E+00
 -1       972 1.39056E-05 6.01038E-05 0.00000E+00
 -1       973 1.36007E-05 6.38449E-05 0.00000E+00
 -1       974 1.32931E-05 6.79075E-05 0.00000E+00
 -1       975 1.29842E-05 7.22390E-05 6.61744E-24
 -1       976 1.26742E-05 7.67857E-05-3.30872E-24
 -1       977 1.23633E-05 8.14933E-05 6.61744E-24
 -1       978 1.20520E-05 8.63070E-05 3.30872E-24
 -1       979 1.17404E-05 9.11715E-05 6.61744E-24
 -1       980 1.14289E-05 9.60315E-05 3.30872E-24
 -1       981 1.11178E-05 1.00831E-04 0.00000E+00
 -1       982 1.08075E-05 1.05516E-04 3.30872E-24
 -1       983 1.04981E-05 1.10031E-04 6.61744E-24
 -1       984 1.01915E-05 1.14322E-04-3.30872E-24
 -1       985 9.88569E-06 1.18335E-04 0.00000E+00
 -3
    1PSTEP                         2           1           1          
  100CL  101 1.000000000         841                     0    1           1
 -4  STRESS      6    1
 -5  SXX         1    4    1    1
 -5  SYY         1    4    2    2
 -5  SZZ         1    4    3    3
 -5  SXY         1    4    1    2
 -5  SYZ         1    4    2    3
 -5  SZX         1    4    3    1
 -1         1-2.51730E+06-7.57912E+05-3.65081E+05-8.65775E+05 1.50370E-10-7.27596E-09
 -1         2-1.58714E+06-1.56473E+04 2.64577E+03-1.64363E+05 9.27685E-11 6.33008E-10
 -1         3-7.12223E+05-4.04650E+05-3.66994E+02-9.65662E+04-1.95257E-10-2.34638E-09
 -1         4-2.09129E+05-1.04281E+05 2.90751E+02-3.90636E+04 7.43512E-11-5.09544E-10
 -1         5-3.62893E+03 5.36235E+05-1.21119E+05-3.47058E+03 1.12414E-09-8.45603E-10
 -1         8-1.02840E+06-5.00479E+05-1.18916E+05-7.28731E+05-4.00178E-11-3.26690E-09
 -1         9-1.40936E+06-2.79240E+05-1.69962E+05-4.48596E+05 2.98314E-09 3.09956E-09
 -1        10-7.93543E+05-6.01298E+05-6.06481E+02-3.06846E+05-6.23459E-10 2.72106E-09
 -1        11-3.44015E+05-1.72512E+05 1.01005E+02-1.59754E+05 1.77351E-10 2.35210E-09
 -1        12-8.08356E+04 5.07509E+05-1.32822E+05-4.18970E+04 3.08057E-09 1.13553E-09
 -1        15-2.64389E+03-4.22774E+04 2.20589E+03-2.23389E+05-7.00311E-11-2.71029E-09
 -1        16-8.13625E+05-2.39107E+05-1.10167E+05-4.31155E+05 2.32285E-09-3.92902E-10
 -1        17-5.24425E+05-4.70138E+05-5.45342E+04-4.40310E+05-4.17276E-09 1.20538E-09
 -1        18-1.19932E+05-1.34045E+05-5.68622E+04-3.23989E+05 5.23263E-10-9.22834E-10
 -1        19 5.95853E+04 2.55119E+05-6.29377E+04-7.16980E+04 9.54363E-10-3.13897E-09
 -1        20 1.73724E+05-1.22323E+05-1.71276E+04 9.49299E+04-7.95853E-09-5.90262E-10
 -1        21-3.01683E+04-2.74131E+05-1.28903E+03 1.99076E+04 4.25753E-08-1.81315E-09
 -1        22 3.45266E+04 1.88114E+05 9.42539E+02-6.35806E+04 1.16870E-10-6.85759E-10
 -1        23-2.79559E+05-2.07118E+04 1.96187E+03-2.10633E+05 6.44074E-10-1.61890E-10
 -1        24-2.53035E+05-3.45337E+04 1.10687E+05-3.88700E+05-1.12414E-09-1.94026E-10
 -1        25 3.99002E+05 1.87402E+05 1.69209E+05-3.58376E+05 5.61461E-10-1.02712E-09
 -1        26 3.87853E+04 4.06927E+05 4.36998E+04-1.09795E+05 4.15336E-10 1.68620E-09
 -1        27-1.03732E+05-1.09375E+05-5.22397E+04 1.17916E+05-5.26506E-09-5.93476E-09
 -1        28-2.68208E+04-1.87088E+05-1.58365E+03 9.20964E+04 2.51860E-08-3.44726E-09
 -1        29 4.24914E+05 3.03700E+05 1.11505E+03-3.50362E+04 8.02061E-11-6.18456E-11
 -1        30 1.61152E+05 3.78477E+04 1.34573E+03-7.56107E+04 6.21377E-10-1.35515E-10
 -1        31-5.01577E+05 4.12375E+04 2.86718E+03-1.19261E+05-2.98634E-10 2.00089E-10
 -1        32 1.44817E+05 2.74394E+05 2.73180E+05-3.29200E+05 9.75433E-11 2.22644E-09
 -1        33 5.98161E+05 6.29292E+05 2.77888E+05-1.37333E+05 1.28573E-09-7.44876E-10
 -1        34-3.57698E+05-6.52269E+04-3.92896E+04 4.05829E+04-9.14469E-11-1.88993E-09
 -1        35-4.74182E+04-6.00976E+04-1.22056E+03 1.25566E+05 4.34304E-08-4.75363E-10
 -1        36-3.45845E+06 5.02632E+04-1.83579E+05-4.23097E-08-9.42200E-10-4.99131E-09
 -1        37-3.52703E+06-6.39898E+04-1.19988E+05-1.28784E-09-5.32121E-10-2.98132E-09
 -1        38-3.48675E+06 5.62110E+03-4.76254E+04-2.79526E-08 9.41265E-10 3.27782E-09
 -1        39-3.49508E+06-6.99595E+03-2.71202E+04 1.27493E-08 8.13557E-10 6.53563E-09
 -1        40-3.49020E+06 6.41816E+02-1.21930E+04-2.29420E-08-4.28197E-10 3.45835E-09
 -1        41-3.49112E+06-7.65009E+02-6.75676E+03-8.69101E-08-8.22950E-10 7.03380E-09
 -1        42-3.49065E+06 8.48963E+01-3.69881E+03 1.06141E-08-3.81998E-10 2.93778E-09
 -1        43-3.49065E+06-1.54875E+02-2.99881E+03 8.27572E-08-8.92348E-10 3.01050E-09
 -1        44-3.49066E+06 8.02626E+01-3.54088E+03-5.38503E-09 4.27511E-10-1.89902E-09
 -1        45-3.49108E+06-7.12563E+02-6.33544E+03 7.13815E-09-4.90660E-10-1.07684E-09
 -1        46-3.49024E+06 5.97100E+02-1.13647E+04 1.09237E-08 9.76112E-10 4.22824E-09
 -1        47-3.49476E+06-6.50642E+03-2.52350E+04-2.73927E-08-2.35925E-10 1.44155E-09
 -1        48-3.48703E+06 5.22764E+03-4.42992E+04-1.17412E-08-1.56481E-09-1.42973E-09
 -1        49-3.52447E+06-5.95121E+04-1.11594E+05-1.98415E-08 1.13141E-09-2.59024E-09
 -1        50-3.46071E+06 4.67442E+04-1.70742E+05-4.47162E-08-1.82328E-09-1.60071E-09
 -1        51 4.88534E+04-4.61806E+05 1.02846E+05-1.10896E+06-2.03727E-10 3.56522E-09
 -1        52 2.11621E+04-4.51053E+05 5.67605E+04-1.27907E+06 5.82077E-11-1.09430E-08
 -1        53 9.99102E+03-4.72241E+05 3.34490E+04-1.10509E+06 1.74623E-10-1.42609E-09
 -1        54 2.13865E+04-4.72568E+05 3.59265E+04-1.28297E+06 3.49246E-10 2.96859E-09
 -1        55 3.72661E+04-4.84673E+05 5.32926E+04-1.10451E+06-2.32831E-10-9.45874E-11
 -1        56-4.01741E+06-4.95648E+05-2.73326E+05-1.54215E+06 8.54925E-10-6.62112E-09
 -1        57-4.11507E+06-6.97624E+05-1.76032E+05-1.54235E+06-2.45564E-11-1.65164E-09
 -1        58-4.06709E+06-5.65756E+05-6.44323E+04-1.53182E+06 7.51243E-10-1.73532E-09
 -1        59-4.05776E+06-6.10459E+05-3.62189E+04-1.55681E+06-2.02112E-09-3.50929E-09
 -1        60-4.07312E+06-5.73977E+05-1.50209E+04-1.53085E+06 7.00311E-11 2.63481E-09
 -1        61-4.05139E+06-5.99766E+05-8.17326E+03-1.55737E+06 1.25738E-10 4.57527E-09
 -1        62-4.07326E+06-5.75651E+05-4.30234E+03-1.53152E+06-5.20686E-10 3.21097E-09
 -1        63-4.05248E+06-5.96907E+05-3.72648E+03-1.55519E+06-2.46246E-10 2.48133E-09
 -1        64-4.07198E+06-5.76955E+05-4.85108E+03-1.53296E+06-1.00135E-09 7.11816E-09
 -1        65-4.05636E+06-5.95128E+05-9.64164E+03-1.55148E+06 1.27329E-10-8.29868E-09
 -1        66-4.06921E+06-5.77582E+05-1.79978E+04-1.53509E+06 1.56388E-09-5.70162E-09
 -1        67-4.06851E+06-6.03216E+05-4.33725E+04-1.54530E+06-1.04615E-09-2.13549E-09
 -1        68-4.05976E+06-5.69844E+05-7.72992E+04-1.53869E+06 1.19553E-09 7.02130E-10
 -1        69-4.14095E+06-7.03883E+05-2.11036E+05-1.52363E+06 1.95905E-09 4.86398E-09
 -1        70-3.99854E+06-4.87373E+05-3.27741E+05-1.55290E+06-1.07320E-09 2.76486E-10
 -1        71-1.41598E+06-5.08214E+03 1.86122E+04-2.63716E-08 7.31268E-11-5.89444E-09
 -1        72-1.40887E+06 6.47515E+03 1.21536E+04-5.31372E-08 3.21408E-10 3.32284E-09
 -1        73-1.41311E+06-5.68232E+02 4.82042E+03-5.16195E-08-4.52314E-10 3.08933E-09
 -1        74-1.41210E+06 7.07382E+02 2.72850E+03-1.59914E-08-5.05999E-10 7.77510E-09
 -1        75-1.41275E+06-6.45402E+01 1.19315E+03-4.07485E-08 5.85856E-10 3.49587E-11
 -1        76-1.41251E+06 7.53960E+01 5.93742E+02-5.96398E-08-8.85338E-10-1.89726E-09
 -1        77-1.41270E+06-6.24399E+00 1.94704E+02-1.01589E-09 3.69012E-10 6.68965E-09
 -1        78-1.41258E+06-3.69054E+00-7.19624E+01 2.27028E-08-8.54022E-10 3.83499E-09
 -1        79-1.41269E+06 1.01896E+01-3.68408E+02-2.18915E-09 4.62661E-10 1.69905E-10
 -1        80-1.41266E+06-1.10640E+02-9.07583E+02 6.58771E-09-1.50399E-09 5.98280E-09
 -1        81-1.41262E+06 9.41018E+01-1.75767E+03 2.45157E-08 4.08542E-10 3.86103E-09
 -1        82-1.41325E+06-1.02965E+03-3.98189E+03-2.32814E-08-5.07241E-10-6.26915E-09
 -1        83-1.41210E+06 8.27108E+02-7.02078E+03-1.96389E-08 8.38686E-10-9.14042E-10
 -1        84-1.41796E+06-9.42427E+03-1.76912E+04 4.86921E-09-1.31839E-09-2.11503E-09
 -1        85-1.40792E+06 7.39759E+03-2.70852E+04-2.16003E-08 1.43995E-10 1.17143E-09
 -1        86-5.85984E+04 6.85688E+05 2.19979E+05 7.16637E+03 9.45874E-10-1.62254E-09
 -1        87 7.91788E+04 7.69928E+05 1.58584E+05 4.42644E+04 3.20142E-10-1.02318E-10
 -1        88-1.10138E+04 7.15871E+05 9.07715E+04 6.75217E+03 2.97769E-09 8.54016E-10
 -1        89 5.71620E+04 7.58156E+05 1.22469E+05 4.52251E+04 9.39508E-10 3.52520E-09
 -1        90-3.98366E+04 6.98009E+05 1.52747E+05 6.22684E+03 5.41331E-09 4.89308E-09
 -1        91-1.95433E+06-2.61849E+05-5.39169E+04-7.40740E+05 4.21096E-10-2.01544E-09
 -1        92-1.96983E+06-3.05212E+05-3.47000E+04-7.44914E+05-2.98201E-10-6.80666E-09
 -1        93-1.96417E+06-2.75607E+05-1.27239E+04-7.38671E+05 3.03544E-10 1.76260E-09
 -1        94-1.95847E+06-2.88157E+05-7.15670E+03-7.47868E+05-1.31121E-09 5.01598E-09
 -1        95-1.96542E+06-2.77172E+05-2.97845E+03-7.38423E+05-1.53460E-09 4.24859E-09
 -1        96-1.95710E+06-2.86166E+05-1.63178E+03-7.48118E+05 2.20109E-09-4.55526E-09
 -1        97-1.96550E+06-2.77427E+05-8.75591E+02-7.38482E+05-1.62800E-09-2.28690E-09
 -1        98-1.95719E+06-2.85734E+05-7.92440E+02-7.47852E+05 3.66128E-10 5.42968E-10
 -1        99-1.96532E+06-2.77601E+05-1.06324E+03-7.38684E+05-6.10726E-10 6.42558E-10
 -1       100-1.95785E+06-2.85563E+05-2.15117E+03-7.47287E+05 4.97039E-10-6.57110E-10
 -1       101-1.96482E+06-2.77631E+05-4.02077E+03-7.39025E+05 1.01022E-09 2.29829E-09
 -1       102-1.96036E+06-2.87595E+05-9.69860E+03-7.46157E+05-8.79595E-10 5.86283E-09
 -1       103-1.96282E+06-2.75816E+05-1.72737E+04-7.39711E+05-6.17206E-10 1.87447E-09
 -1       104-1.97632E+06-3.10188E+05-4.70970E+04-7.41502E+05-1.78051E-09 1.15961E-09
 -1       105-1.94921E+06-2.57389E+05-7.31932E+04-7.42801E+05-1.48248E-10 1.52795E-09
 -1       106-4.39789E+05-1.70509E+04 6.25091E+04-2.02785E-08-5.79259E-10-5.27871E-09
 -1       107-4.16316E+05 2.17297E+04 4.08215E+04 1.57061E-08 6.10592E-10 2.27692E-09
 -1       108-4.30142E+05-1.90625E+03 1.62150E+04 2.32112E-08 1.71336E-10 3.95357E-09
 -1       109-4.27162E+05 2.37359E+03 9.20859E+03-2.19071E-08-5.30113E-10-5.51120E-09
 -1       110-4.28960E+05-2.17109E+02 4.09234E+03-3.58386E-08 6.37049E-10 2.11094E-09
 -1       111-4.28509E+05 2.56408E+02 2.16431E+03-6.59865E-09-1.23909E-09 4.89266E-09
 -1       112-4.28799E+05-2.51926E+01 9.84538E+02-1.83682E-08-3.73695E-10 7.09804E-10
 -1       113-4.28699E+05 2.26828E+01 4.43372E+02-3.69073E-08 2.79267E-10 5.11484E-09
 -1       114-4.28770E+05 9.79584E-01 8.56073E+01 2.26682E-08-3.05415E-10-1.91929E-09
 -1       115-4.28760E+05-3.98523E+01-2.31684E+02 6.24616E-08-2.66057E-10 4.30686E-09
 -1       116-4.28738E+05 3.55297E+01-6.16554E+02-1.64743E-08 4.86099E-10 9.96010E-10
 -1       117-4.28989E+05-3.93236E+02-1.49515E+03-4.45358E-08-5.34921E-10 4.38177E-10
 -1       118-4.28541E+05 3.15942E+02-2.67256E+03-1.86893E-08-5.73217E-11 1.90039E-09
 -1       119-4.30788E+05-3.60198E+03-6.75934E+03 1.64964E-08 3.98992E-10 2.24873E-09
 -1       120-4.26941E+05 2.82690E+03-1.03558E+04-2.27249E-09-2.60748E-10 1.99907E-09
 -1       121 1.17422E+04-1.57933E+06-4.38245E+04-5.02117E+03-6.80302E-10-9.15179E-09
 -1       122-1.55831E+04-1.59569E+06-3.04218E+04-3.19587E+04-1.87174E-09-5.86715E-09
 -1       123 1.83854E+03-1.58563E+06-1.54865E+04-4.42702E+03-1.53796E-09 3.27009E-09
 -1       124-7.68992E+03-1.59140E+06-1.74591E+04-3.28638E+04-2.36861E-09 4.36080E-09
 -1       125 4.96273E+03-1.58374E+06-1.97532E+04-4.11697E+03-2.28920E-09 2.28465E-09
 -1       126-9.10375E+05-1.30819E+05 6.65784E+03-3.42010E+05-9.83391E-10-3.50224E-09
 -1       127-9.01228E+05-1.32567E+05 4.28407E+03-3.49616E+05 1.24646E-09 2.13754E-09
 -1       128-9.09244E+05-1.29032E+05 1.56486E+03-3.42167E+05 4.65434E-10 2.16875E-09
 -1       129-9.02530E+05-1.34781E+05 8.68417E+02-3.49380E+05-3.90628E-10-6.12954E-09
 -1       130-9.09112E+05-1.28815E+05 3.34319E+02-3.42171E+05-2.12076E-10 5.71902E-10
 -1       131-9.02710E+05-1.35022E+05 1.27229E+02-3.49341E+05-7.55492E-10 3.29592E-09
 -1       132-9.09066E+05-1.28812E+05-4.38431E+01-3.42198E+05 1.21020E-10-1.49288E-09
 -1       133-9.02835E+05-1.34989E+05-2.38134E+02-3.49237E+05-6.29768E-10-5.37602E-09
 -1       134-9.08981E+05-1.28855E+05-5.39453E+02-3.42270E+05 3.17073E-10-2.49463E-09
 -1       135-9.03140E+05-1.35020E+05-1.26290E+03-3.49026E+05-1.05075E-09-5.23528E-11
 -1       136-9.08750E+05-1.28800E+05-2.43777E+03-3.42396E+05 4.25644E-10 2.04636E-11
 -1       137-9.04507E+05-1.36433E+05-5.92519E+03-3.48527E+05-1.47577E-09 8.16442E-09
 -1       138-9.07618E+05-1.27596E+05-1.05694E+04-3.42704E+05-2.07365E-10-2.39652E-09
 -1       139-9.14060E+05-1.50448E+05-2.88109E+04-3.45911E+05 4.19988E-10 1.05138E-09
 -1       140-8.99389E+05-1.16225E+05-4.47783E+04-3.44465E+05-1.44610E-09 5.25324E-09
 -1       141-3.29281E+04-7.11312E+03 2.60736E+04-2.39038E-09 8.92667E-10 3.60524E-09
 -1       142-2.31453E+04 9.06470E+03 1.70212E+04-3.40412E-08-1.04208E-09 2.60570E-10
 -1       143-2.88990E+04-7.95018E+02 6.74170E+03-2.55994E-08 2.99098E-10 3.27964E-09
 -1       144-2.76715E+04 9.89709E+02 3.79084E+03-8.77222E-09 2.63904E-10 1.82752E-09
 -1       145-2.84032E+04-8.97800E+01 1.60471E+03-6.86408E-09-1.34073E-10 7.61759E-09
 -1       146-2.82422E+04 1.02511E+02 6.90559E+02 2.15265E-09-3.99296E-10 1.96739E-09
 -1       147-2.83284E+04-5.15400E+00-5.82384E+00 1.45997E-08 2.27037E-10-2.23889E-09
 -1       148-2.83702E+04-3.47840E+01-6.80783E+02-1.86593E-08 2.52143E-10-6.72210E-09
 -1       149-2.82752E+04 4.23030E+01-1.63729E+03 4.04774E-09 3.03036E-11-5.55474E-10
 -1       150-2.86978E+04-4.34658E+02-3.65743E+03 2.43107E-09-1.37828E-09-4.27065E-10
 -1       151-2.80008E+04 3.68323E+02-6.93994E+03 7.49589E-09 6.18954E-10 3.39560E-09
 -1       152-3.09827E+04-4.02745E+03-1.56289E+04-1.57731E-08-1.25446E-09 2.44381E-09
 -1       153-2.59895E+04 3.23481E+03-2.75209E+04-1.72417E-08 9.35974E-10 2.23736E-10
 -1       154-4.93845E+04-3.68724E+04-6.92826E+04 5.06043E-09-3.38993E-10-3.73166E-09
 -1       155-9.58199E+03 2.89424E+04-1.06022E+05-8.01992E-09 1.08971E-09-2.29193E-09
 -1       156 1.51398E+03-3.77481E+05-5.17275E+03-3.38503E+03 6.32781E-10-1.14687E-09
 -1       157-1.52527E+03-3.79220E+05-2.00330E+03-1.98746E+04 1.70303E-09-2.85536E-09
 -1       158-2.16926E+02-3.78624E+05 1.74851E+03-3.24327E+03 1.60185E-09-1.42654E-09
 -1       159 4.21080E+03-3.76068E+05 7.44032E+03-2.00915E+04 2.95859E-09-1.96894E-09
 -1       160-3.43304E+03-3.80695E+05 1.23591E+04-3.16770E+03 2.18643E-09-5.29735E-09
 -1       161-3.65252E+05-4.98499E+04-9.00552E+03-1.39148E+05 1.46201E-10-6.31644E-10
 -1       162-3.64384E+05-6.05356E+04-5.80160E+03-1.43804E+05-2.19984E-11-2.83433E-09
 -1       163-3.66883E+05-5.21583E+04-2.14338E+03-1.38821E+05 6.12559E-10 2.36980E-09
 -1       164-3.62517E+05-5.76670E+04-1.23297E+03-1.44268E+05-2.94321E-10-1.28501E-09
 -1       165-3.67080E+05-5.24302E+04-5.73977E+02-1.38792E+05-7.50276E-10 9.08514E-10
 -1       166-3.62312E+05-5.73270E+04-4.37189E+02-1.44291E+05 3.92077E-10-6.02324E-09
 -1       167-3.67082E+05-5.24708E+04-4.80070E+02-1.38806E+05-2.08502E-10-4.38837E-09
 -1       168-3.62380E+05-5.73124E+04-8.69065E+02-1.44244E+05 3.98245E-10 4.02179E-09
 -1       169-3.67004E+05-5.24473E+04-1.64379E+03-1.38836E+05-6.14477E-10 2.74929E-09
 -1       170-3.62870E+05-5.77934E+04-3.70674E+03-1.44117E+05 6.84736E-10 1.83320E-09
 -1       171-3.66587E+05-5.20296E+04-7.08499E+03-1.38914E+05-2.51930E-10-4.42378E-09
 -1       172-3.66271E+05-6.24747E+04-1.72014E+04-1.43372E+05-2.56819E-10-4.87194E-09
 -1       173-3.63651E+05-4.81871E+04-3.06490E+04-1.39417E+05 2.08274E-10-7.48696E-09
 -1       174-3.93185E+05-1.03909E+05-8.35513E+04-1.36744E+05 1.77806E-10-1.34060E-09
 -1       175-3.40236E+05-1.47337E+04-1.29774E+05-1.43975E+05 4.18186E-09 1.65892E-09
 -1       191 1.20601E+04 1.36716E+06 2.51752E+04-7.17529E+03 5.45697E-11-1.03428E-08
 -1       192 3.94616E+03 1.37172E+06 1.51239E+04-7.31594E+03-1.03159E-09-6.39011E-09
 -1       193 1.05940E+03 1.36880E+06 1.17410E+04-6.76243E+03-2.23508E-10 4.87853E-09
 -1       194 4.73117E+03 1.37212E+06 1.70731E+04-8.10898E+03-1.61322E-09-2.44472E-09
 -1       195 1.46054E+04 1.36671E+06 2.99294E+04-6.34738E+03-4.69299E-10-1.54250E-09
 -1       251-5.09515E+05-1.19714E+04 3.89762E+04-2.10294E+04 3.12866E-10-5.16593E-10
 -1       252-4.91544E+05 1.29343E+04 2.60500E+04-1.12356E+05-3.81988E-10 5.42059E-10
 -1       253-5.03567E+05-1.74454E+03 9.99965E+03-1.99692E+04 4.65661E-10-8.62201E-10
 -1       254-5.00445E+05 1.28122E+03 5.94828E+03-1.13991E+05-1.10322E-09-4.87807E-09
 -1       255-5.02966E+05-2.92834E+02 2.53626E+03-1.93990E+04-3.54703E-10-3.21279E-09
 -1       256-5.02568E+05 4.07928E+02 1.49342E+03-1.14870E+05-6.45741E-11-2.44586E-09
 -1       257-5.02949E+05 3.29016E+01 7.78976E+02-1.90917E+04 9.73159E-11-1.68529E-09
 -1       258-5.03194E+05 4.72457E+02 6.21811E+02-1.15223E+05-1.45337E-09-1.20031E-09
 -1       259-5.02958E+05 6.83474E+01 6.86106E+02-1.90455E+04-2.50793E-10 7.37828E-10
 -1       260-5.02880E+05 4.79847E+02 1.19482E+03-1.15063E+05 1.76442E-10-1.75066E-09
 -1       261-5.02978E+05-1.66748E+02 2.01684E+03-1.92521E+04 2.11548E-09 8.56744E-10
 -1       262-5.01219E+05 1.15801E+03 4.64461E+03-1.14370E+05-2.00089E-10 4.84536E-09
 -1       263-5.03440E+05-1.32049E+03 7.81474E+03-1.97383E+04-4.87489E-10-4.99040E-09
 -1       264-4.94093E+05 1.01857E+04 2.03241E+04-1.12929E+05-6.30280E-10-2.04091E-09
 -1       265-5.08059E+05-9.36200E+03 3.03763E+04-2.06915E+04-2.65936E-09 3.59796E-09
 -1       266-1.52616E+04-3.15821E+05 5.63224E+04-5.19678E+04 7.63976E-11 2.37560E-09
 -1       267 2.32937E+04-2.97854E+05 3.45205E+04-3.08632E+05 2.02363E-10-2.31114E-09
 -1       268-3.60149E+02-3.06542E+05 9.00516E+03-5.16555E+04 1.36424E-10-1.86083E-09
 -1       269-2.08801E+03-3.10119E+05-6.46447E+03-3.08351E+05 5.69344E-10-2.16460E-09
 -1       270 5.53509E+03-3.01632E+05-2.02524E+04-5.22799E+04-1.30967E-10 4.22006E-09
 -1       271-3.69681E+06-4.61856E+05-2.90016E+05-1.44349E+06-1.09139E-11-8.83301E-09
 -1       272-3.78800E+06-6.85784E+05-1.86401E+05-1.45481E+06-2.63071E-10-6.92671E-09
 -1       273-3.75335E+06-5.32104E+05-6.85276E+04-1.42832E+06 3.61069E-10 3.13958E-09
 -1       274-3.72125E+06-6.00462E+05-3.83268E+04-1.47871E+06-3.09228E-11 1.79807E-09
 -1       275-3.76303E+06-5.37403E+05-1.60310E+04-1.42370E+06-1.96451E-10 2.55659E-09
 -1       276-3.70956E+06-5.94722E+05-8.62170E+03-1.48642E+06 1.65983E-10 1.53614E-09
 -1       277-3.76569E+06-5.36391E+05-4.50167E+03-1.42154E+06 4.17913E-10-9.69749E-10
 -1       278-3.70690E+06-5.95740E+05-3.80497E+03-1.48928E+06 7.88987E-10-4.04918E-09
 -1       279-3.76601E+06-5.35981E+05-4.83509E+03-1.42115E+06 2.04068E-11-3.22234E-09
 -1       280-3.70857E+06-5.96190E+05-9.63217E+03-1.48811E+06-8.53561E-10-4.60750E-09
 -1       281-3.76391E+06-5.36142E+05-1.79760E+04-1.42257E+06-1.73713E-10-2.63844E-09
 -1       282-3.72018E+06-6.04567E+05-4.32731E+04-1.48176E+06 1.08230E-10-3.68800E-09
 -1       283-3.75404E+06-5.29152E+05-7.72423E+04-1.42667E+06 5.51324E-10-8.58563E-10
 -1       284-3.79362E+06-7.02976E+05-2.10416E+05-1.45725E+06 6.98947E-10 8.51287E-10
 -1       285-3.69129E+06-4.48724E+05-3.27120E+05-1.44258E+06 4.58385E-10 5.67525E-10
 -1       286-4.27561E+05-1.10917E+04 3.80246E+04-1.38551E+04 3.81806E-09-5.33328E-09
 -1       287-4.11429E+05 1.28804E+04 2.51636E+04-7.38388E+04 1.56615E-09 1.10958E-09
 -1       288-4.21720E+05-1.48414E+03 9.80832E+03-1.31504E+04-1.25510E-10-2.09002E-09
 -1       289-4.19105E+05 1.30540E+03 5.75609E+03-7.49193E+04-2.51111E-09 2.38674E-09
 -1       290-4.21072E+05-2.50522E+02 2.53904E+03-1.27736E+04 1.50794E-09 5.19844E-09
 -1       291-4.20616E+05 2.63956E+02 1.55450E+03-7.55234E+04 1.60344E-09 3.29010E-09
 -1       292-4.21029E+05-1.53216E+01 9.80289E+02-1.25471E+04 1.98315E-09 2.48156E-09
 -1       293-4.21057E+05 2.98285E+02 1.09134E+03-7.58376E+04 1.32559E-09-1.24658E-09
 -1       294-4.21067E+05 1.36586E+01 1.62027E+03-1.24586E+04 1.73054E-09 3.73655E-09
 -1       295-4.20851E+05 6.24073E+02 3.18624E+03-7.58712E+04 3.81715E-09 8.18750E-09
 -1       296-4.21280E+05-2.84991E+02 5.84369E+03-1.25132E+04 1.19962E-09 6.93035E-10
 -1       297-4.18656E+05 3.51247E+03 1.30891E+04-7.56130E+04 2.32012E-09-2.04864E-10
 -1       298-4.22914E+05-2.78360E+03 2.29166E+04-1.27172E+04 1.18598E-09-2.54022E-09
 -1       299-4.02665E+05 3.07262E+04 5.78615E+04-7.49239E+04-1.10504E-10-6.31917E-09
 -1       300-4.36516E+05-2.44328E+04 8.83595E+04-1.32078E+04-9.62245E-10-8.51287E-10
 -1       301 5.33977E+04 1.36989E+05 1.06122E+05-1.00449E+05-1.60071E-10-1.82490E-09
 -1       302 1.82394E+04 1.56004E+05 5.90207E+04-1.16370E+05 5.61363E-09 4.69208E-09
 -1       303 4.82443E+03 1.44371E+05 3.80367E+04-1.00508E+05-2.37378E-10-1.79023E-09
 -1       304 1.27423E+04 1.53029E+05 4.51644E+04-1.16396E+05 6.67751E-09-1.34730E-09
 -1       305 3.54343E+04 1.39940E+05 7.23229E+04-1.00513E+05 4.91127E-11 2.63299E-09
 -1       306-3.67070E+06-4.51786E+05-2.95225E+05-1.42809E+06 2.24463E-09-7.27596E-11
 -1       307-3.77449E+06-6.69823E+05-1.89895E+05-1.42826E+06-2.76032E-10 1.22600E-09
 -1       308-3.72732E+06-5.24384E+05-6.97148E+04-1.41366E+06-7.53744E-11 4.52201E-09
 -1       309-3.70762E+06-5.81452E+05-3.90537E+04-1.45066E+06 1.09594E-09 1.14596E-09
 -1       310-3.73660E+06-5.30446E+05-1.62865E+04-1.40957E+06-1.44973E-09-6.61203E-10
 -1       311-3.69623E+06-5.74874E+05-8.75558E+03-1.45743E+06-1.83718E-10-5.22118E-09
 -1       312-3.73911E+06-5.29701E+05-4.51734E+03-1.40761E+06-6.28916E-10-3.34694E-09
 -1       313-3.69348E+06-5.75864E+05-3.71250E+03-1.46022E+06-3.61649E-09 2.83393E-10
 -1       314-3.73960E+06-5.29125E+05-4.58503E+03-1.40702E+06-4.47392E-09-6.88260E-10
 -1       315-3.69450E+06-5.76856E+05-9.03163E+03-1.45992E+06-2.14470E-09-4.71164E-09
 -1       316-3.73807E+06-5.28786E+05-1.67649E+04-1.40787E+06 6.11635E-10-1.22327E-09
 -1       317-3.70452E+06-5.85690E+05-4.04146E+04-1.45536E+06 1.38948E-09-9.31323E-10
 -1       318-3.72950E+06-5.21554E+05-7.20215E+04-1.41100E+06 1.85810E-09 3.48882E-09
 -1       319-3.77191E+06-6.78987E+05-1.96420E+05-1.43435E+06 4.80213E-10 1.57161E-09
 -1       320-3.67181E+06-4.45583E+05-3.05186E+05-1.42494E+06-2.75395E-09 1.44064E-09
 -1       321-2.21789E+05-2.96220E+04 1.08388E+05-4.70919E+03-7.00311E-10 5.02769E-09
 -1       322-1.80972E+05 3.76279E+04 7.08069E+04-2.60754E+04-1.26238E-09-7.92716E-09
 -1       323-2.05072E+05-3.33344E+03 2.81205E+04-4.57837E+03-2.78305E-10-6.74299E-09
 -1       324-1.99884E+05 4.09833E+03 1.60000E+04-2.62573E+04 1.28944E-09-1.09094E-09
 -1       325-2.03029E+05-3.85525E+02 7.14105E+03-4.52139E+03-2.31921E-10 4.20050E-09
 -1       326-2.02280E+05 4.53458E+02 3.85394E+03-2.63412E+04-3.95630E-11-4.65570E-09
 -1       327-2.02757E+05-4.43791E+01 1.89898E+03-4.49449E+03-1.63254E-10-2.06569E-09
 -1       328-2.02615E+05 7.64390E+01 1.16689E+03-2.63721E+04-3.02578E-10 8.61166E-09
 -1       329-2.02726E+05-1.42231E+01 9.15626E+02-4.49052E+03-4.67367E-10 8.28271E-09
 -1       330-2.02568E+05 1.34350E+02 1.23072E+03-2.63556E+04 6.71434E-10 3.26906E-09
 -1       331-2.02788E+05-1.04628E+02 1.98875E+03-4.51102E+03-1.57343E-10 1.44240E-09
 -1       332-2.01908E+05 1.08089E+03 4.28383E+03-2.62884E+04 7.38851E-10-5.35516E-09
 -1       333-2.03322E+05-8.94988E+02 7.45066E+03-4.55769E+03 7.73070E-11 2.90584E-10
 -1       334-1.96846E+05 9.92349E+03 1.87339E+04-2.61206E+04-4.52019E-10 5.33782E-09
 -1       335-2.07739E+05-7.86626E+03 2.86279E+04-4.68004E+03 3.86535E-10 1.75351E-09
 -1       336 4.17616E+03-1.56651E+06-2.03495E+04-5.05013E+04-5.21550E-09 2.86855E-09
 -1       337-6.14766E+03-1.57545E+06-2.09914E+04-3.13510E+05-9.82982E-09-2.16323E-09
 -1       338 3.33111E+03-1.56777E+06-2.36740E+04-4.88436E+04-7.98173E-09-1.70758E-09
 -1       339-2.47529E+04-1.58681E+06-5.21457E+04-3.14151E+05-1.08387E-08 3.20892E-09
 -1       340 2.09551E+04-1.55607E+06-7.78467E+04-4.98602E+04-5.26052E-09 3.17414E-09
 -1       341-2.03620E+06-2.68090E+05-8.19880E+04-7.77479E+05 3.75621E-10-3.33603E-09
 -1       342-2.06299E+06-3.30824E+05-5.27635E+04-7.80127E+05 5.81110E-10-5.40695E-09
 -1       343-2.05141E+06-2.88761E+05-1.93681E+04-7.74054E+05-7.08084E-10-2.30102E-10
 -1       344-2.04524E+06-3.05402E+05-1.09080E+04-7.85223E+05 3.99950E-10 8.17272E-09
 -1       345-2.05357E+06-2.90869E+05-4.59242E+03-7.73377E+05-1.90755E-09 2.58274E-09
 -1       346-2.04265E+06-3.02923E+05-2.60994E+03-7.86253E+05 2.87059E-11-2.95114E-09
 -1       347-2.05398E+06-2.90956E+05-1.59341E+03-7.73141E+05 4.97266E-10-2.91521E-09
 -1       348-2.04228E+06-3.02879E+05-1.78552E+03-7.86528E+05-5.18298E-10 1.27338E-09
 -1       349-2.05395E+06-2.90883E+05-2.76617E+03-7.73120E+05-7.15531E-10-1.17348E-09
 -1       350-2.04305E+06-3.03580E+05-5.91226E+03-7.86305E+05-1.50271E-09 9.02560E-10
 -1       351-2.05322E+06-2.90313E+05-1.11634E+04-7.73342E+05-1.23919E-10 5.22959E-10
 -1       352-2.04871E+06-3.10650E+05-2.70521E+04-7.84780E+05-3.31283E-10 9.66611E-09
 -1       353-2.04839E+06-2.84485E+05-4.81732E+04-7.74393E+05-2.22826E-11 1.83718E-09
 -1       354-2.09166E+06-3.75343E+05-1.31443E+05-7.73679E+05-1.86355E-09 5.43514E-09
 -1       355-2.01124E+06-2.32145E+05-2.04122E+05-7.82011E+05-1.03319E-09 1.86265E-09
 -1       356 2.47354E+04-1.37170E+04 5.01267E+04-3.92286E+03 5.12046E-10 2.63753E-10
 -1       357 4.36436E+04 1.73971E+04 3.27501E+04-2.25043E+04-6.42103E-10 5.86306E-09
 -1       358 3.24756E+04-1.54636E+03 1.29827E+04-3.88387E+03 4.82032E-11 1.12777E-09
 -1       359 3.48707E+04 1.89210E+03 7.34839E+03-2.25382E+04 5.45697E-12-1.19041E-09
 -1       360 3.34222E+04-1.78082E+02 3.19341E+03-3.88678E+03-1.38016E-10 2.98314E-10
 -1       361 3.37420E+04 2.05482E+02 1.55502E+03-2.25333E+04-8.58790E-10 4.49745E-10
 -1       362 3.35557E+04-1.41376E+01 4.31189E+02-3.88886E+03-2.65175E-10 1.19599E-10
 -1       363 3.35351E+04-1.17320E+01-3.90553E+02-2.25313E+04-1.06225E-09 8.26731E-10
 -1       364 3.36148E+04 3.79059E+01-1.37500E+03-3.88873E+03 1.03978E-09 1.67802E-09
 -1       365 3.32421E+04-3.90667E+02-3.25777E+03-2.25352E+04-8.83745E-10 1.03068E-09
 -1       366 3.38684E+04 3.27478E+02-6.26574E+03-3.88504E+03-1.35969E-10 3.36513E-10
 -1       367 3.12147E+04-3.66413E+03-1.41472E+04-2.25398E+04-3.57204E-10-3.20574E-09
 -1       368 3.56971E+04 2.91125E+03-2.49451E+04-3.88418E+03 3.46063E-10-2.26100E-09
 -1       369 1.46146E+04-3.34521E+04-6.27779E+04-2.24888E+04-2.89947E-09 9.31323E-10
 -1       370 5.05727E+04 2.61832E+04-9.61076E+04-3.93119E+03 1.55296E-09 2.45200E-09
 -1       371-4.95821E+03-3.22655E+05 1.62448E+04-3.79091E+04 4.53019E-09 3.12502E-09
 -1       372 6.21514E+03-3.17311E+05 7.40206E+03-2.21680E+05 9.69442E-09 5.55201E-09
 -1       373 6.61585E+02-3.19364E+05-3.45437E+03-3.75613E+04 6.25278E-09 1.88945E-09
 -1       374-9.16173E+03-3.26013E+05-1.80359E+04-2.21715E+05 1.00789E-08 2.76691E-09
 -1       375 8.46786E+03-3.14030E+05-3.09042E+04-3.78755E+04 4.62387E-09 2.48292E-09
 -1       376-1.03391E+06-1.32881E+05-5.83767E+04-3.98223E+05 2.05546E-10-2.35013E-09
 -1       377-1.04751E+06-1.83022E+05-3.75665E+04-4.06433E+05 3.57932E-09 1.29148E-10
 -1       378-1.04463E+06-1.47701E+05-1.37990E+04-3.95932E+05-5.07498E-10-1.79534E-09
 -1       379-1.03513E+06-1.64695E+05-7.77503E+03-4.09796E+05 5.80940E-11 3.17959E-09
 -1       380-1.04605E+06-1.49316E+05-3.27983E+03-3.95587E+05 2.95813E-10 3.51088E-09
 -1       381-1.03351E+06-1.62717E+05-1.87701E+03-4.10284E+05-6.74049E-10 1.18085E-09
 -1       382-1.04624E+06-1.49475E+05-1.16846E+03-3.95530E+05 1.41917E-10 1.28094E-09
 -1       383-1.03340E+06-1.62527E+05-1.34492E+03-4.10280E+05 1.27784E-09 2.27442E-09
 -1       384-1.04615E+06-1.49494E+05-2.11799E+03-3.95594E+05 3.77327E-10-1.22486E-09
 -1       385-1.03408E+06-1.62963E+05-4.53982E+03-4.09971E+05-6.39830E-10-1.10856E-09
 -1       386-1.04554E+06-1.49100E+05-8.58770E+03-3.95804E+05-5.78893E-10 1.84582E-09
 -1       387-1.03844E+06-1.68348E+05-2.07893E+04-4.08728E+05-1.18183E-09 3.18869E-09
 -1       388-1.04182E+06-1.44644E+05-3.70377E+04-3.96614E+05 2.68551E-09 8.62201E-10
 -1       389-1.07138E+06-2.18003E+05-1.00963E+05-4.00176E+05-1.19439E-09-5.69162E-09
 -1       390-1.01327E+06-1.04477E+05-1.56835E+05-4.02434E+05 3.49610E-09-2.10275E-09
 -1       406 1.27253E+04 1.32663E+06 2.77679E+04-9.21935E+04-1.81899E-11-4.01815E-09
 -1       407 4.76240E+03 1.33162E+06 2.02515E+04-1.05804E+05-3.06818E-09 3.26054E-09
 -1       408 2.51057E+03 1.32782E+06 2.17155E+04-9.18180E+04-3.10138E-10 1.79716E-09
 -1       409 1.23966E+04 1.33548E+06 3.92316E+04-1.06307E+05-4.31646E-09 7.30506E-09
 -1       410 3.75160E+04 1.32223E+06 7.40660E+04-9.16037E+04-1.16415E-09 8.88576E-10
 -1       466 1.43943E+06-3.82518E+04 1.38120E+05-1.37626E+04-2.29193E-10-2.48838E-09
 -1       467 1.49260E+06 4.76953E+04 9.04959E+04-9.09824E+04-3.76531E-10 1.25146E-09
 -1       468 1.46074E+06-4.43144E+03 3.58671E+04-1.51560E+04 0.00000E+00-1.22964E-09
 -1       469 1.46755E+06 5.21747E+03 2.05554E+04-8.85816E+04-1.39607E-10 7.68523E-11
 -1       470 1.46329E+06-5.15579E+02 9.25650E+03-1.61475E+04-4.82032E-11-6.85304E-10
 -1       471 1.46404E+06 7.51108E+02 5.24439E+03-8.71394E+04 4.64752E-10 1.40130E-09
 -1       472 1.46360E+06-2.00404E+01 3.02541E+03-1.65989E+04 3.15822E-10 2.08365E-09
 -1       473 1.46357E+06 3.65792E+02 2.72058E+03-8.67721E+04-3.81249E-10-1.06388E-09
 -1       474 1.46359E+06-4.96772E+01 3.52209E+03-1.65149E+04-3.26509E-10-7.21684E-10
 -1       475 1.46430E+06 8.67067E+02 6.59050E+03-8.74826E+04-1.83263E-10-3.38514E-09
 -1       476 1.46319E+06-7.01573E+02 1.18705E+04-1.58883E+04 1.08230E-10-1.52977E-09
 -1       477 1.46884E+06 6.65853E+03 2.65501E+04-8.92675E+04 5.12955E-10-7.63976E-11
 -1       478 1.45987E+06-5.74814E+03 4.63878E+04-1.47286E+04-1.02773E-09-1.60435E-09
 -1       479 1.50111E+06 6.16681E+04 1.17084E+05-9.20258E+04-2.79397E-09-1.46247E-09
 -1       480 1.43230E+06-4.94550E+04 1.78775E+05-1.31548E+04-2.20825E-09-2.16824E-09
 -1       481-1.00529E+04 3.39845E+05 3.73610E+04-6.30763E+03 2.16460E-10 1.37652E-09
 -1       482 1.33927E+04 3.53884E+05 2.56101E+04-3.17806E+04-3.25144E-10 5.16820E-09
 -1       483-1.48025E+03 3.45322E+05 1.23801E+04-6.22643E+03-5.02496E-11 2.82353E-09
 -1       484 5.56367E+03 3.49660E+05 1.27515E+04-3.19344E+04 2.42721E-10-5.44333E-10
 -1       485-3.35355E+03 3.44238E+05 1.34626E+04-6.15842E+03 1.85082E-10-2.29284E-09
 -1       486-1.45572E+06-1.73859E+05-1.41280E+05-5.70415E+05 6.62112E-10 1.27329E-09
 -1       487-1.50014E+06-2.83412E+05-9.08617E+04-5.76691E+05 4.09727E-10-9.11314E-10
 -1       488-1.48203E+06-2.09349E+05-3.33867E+04-5.64472E+05-8.08768E-10-3.20688E-09
 -1       489-1.46956E+06-2.39766E+05-1.87085E+04-5.85720E+05 1.83036E-10 1.81899E-11
 -1       490-1.48584E+06-2.12872E+05-7.79336E+03-5.63232E+05 5.72982E-10-8.24457E-10
 -1       491-1.46501E+06-2.35678E+05-4.16654E+03-5.87812E+05 9.80435E-10 3.96153E-09
 -1       492-1.48671E+06-2.12873E+05-2.10165E+03-5.62681E+05-2.26009E-10 2.19188E-09
 -1       493-1.46403E+06-2.35799E+05-1.62378E+03-5.88718E+05 7.07132E-11 1.23445E-09
 -1       494-1.48694E+06-2.12636E+05-1.88198E+03-5.62427E+05 1.78488E-11 9.93623E-10
 -1       495-1.46418E+06-2.36442E+05-3.58901E+03-5.88946E+05 4.54747E-12-3.73348E-10
 -1       496-1.48659E+06-2.12230E+05-6.59303E+03-5.62472E+05-1.22093E-10-7.41238E-11
 -1       497-1.46745E+06-2.40582E+05-1.58592E+04-5.88041E+05 2.00089E-10-1.03455E-10
 -1       498-1.48370E+06-2.08909E+05-2.82182E+04-5.63161E+05 2.91152E-10-4.42014E-10
 -1       499-1.49278E+06-2.78132E+05-7.69052E+04-5.81144E+05 2.13731E-10 3.93811E-10
 -1       500-1.46173E+06-1.78573E+05-1.19503E+05-5.67865E+05-4.62023E-10 5.89353E-10
 -1       501 2.48846E+05-1.98274E+04 6.92439E+04-1.60115E+04 3.00679E-09-5.78439E-10
 -1       502 2.77122E+05 2.36924E+04 4.56589E+04-9.40283E+04 1.25146E-09 1.27966E-09
 -1       503 2.59495E+05-2.49969E+03 1.79048E+04-1.61271E+04 2.31012E-10-3.97449E-10
 -1       504 2.63588E+05 2.55836E+03 1.03929E+04-9.36760E+04-6.18456E-10 2.70279E-09
 -1       505 2.60710E+05-3.49221E+02 4.59606E+03-1.63593E+04 2.11094E-09-1.12777E-10
 -1       506 2.61194E+05 5.32952E+02 2.65961E+03-9.33039E+04 2.51430E-09-1.15369E-09
 -1       507 2.60822E+05 9.02251E+00 1.50993E+03-1.64997E+04 1.95769E-09 1.61640E-09
 -1       508 2.60624E+05 4.64813E+02 1.37250E+03-9.31281E+04 1.40335E-09 1.20735E-09
 -1       509 2.60798E+05 3.91023E+01 1.77449E+03-1.65341E+04 2.25248E-09-1.12561E-09
 -1       510 2.60936E+05 7.38171E+02 3.30582E+03-9.31625E+04 3.48905E-09-2.36835E-09
 -1       511 2.60602E+05-3.06265E+02 5.94530E+03-1.64655E+04 2.13731E-09-1.10708E-09
 -1       512 2.63428E+05 3.56755E+03 1.33150E+04-9.33930E+04 4.02497E-09 6.75755E-10
 -1       513 2.58976E+05-2.92032E+03 2.32012E+04-1.63041E+04 8.24002E-10 3.11957E-10
 -1       514 2.80088E+05 3.10214E+04 5.87272E+04-9.36350E+04-3.80169E-10 6.59384E-10
 -1       515 2.45207E+05-2.50093E+04 8.94784E+04-1.62309E+04-6.00267E-10 2.72848E-10
 -1       516-1.89515E+04 2.48501E+05 7.22727E+04-2.70228E+04 6.79938E-09 4.28372E-10
 -1       517 2.73618E+04 2.75221E+05 5.26834E+04-1.51111E+05 2.94676E-09 6.29188E-09
 -1       518-3.60739E+03 2.58329E+05 3.10697E+04-2.68910E+04 5.61670E-09 3.11957E-09
 -1       519 2.14852E+04 2.73379E+05 4.36632E+04-1.51284E+05 2.93949E-09-1.56251E-09
 -1       520-1.47879E+04 2.51774E+05 5.51205E+04-2.68658E+04 3.11775E-09-5.96629E-10
 -1       521-2.91482E+06-3.57178E+05-2.49035E+05-1.13830E+06-7.02130E-10-1.71713E-09
 -1       522-2.99061E+06-5.52041E+05-1.60065E+05-1.15122E+06 2.88651E-09 2.18279E-11
 -1       523-2.96267E+06-4.18165E+05-5.88488E+04-1.12607E+06-1.09685E-09-2.15005E-09
 -1       524-2.93447E+06-4.77611E+05-3.29161E+04-1.17035E+06-7.62157E-10-1.82990E-09
 -1       525-2.97048E+06-4.23232E+05-1.37350E+04-1.12267E+06-1.84173E-09-1.80262E-09
 -1       526-2.92514E+06-4.71927E+05-7.33020E+03-1.17605E+06-9.58607E-10-2.57728E-09
 -1       527-2.97252E+06-4.22652E+05-3.70662E+03-1.12112E+06-1.97451E-09-1.30035E-09
 -1       528-2.92304E+06-4.72557E+05-2.89897E+03-1.17823E+06-2.04329E-09-3.33591E-09
 -1       529-2.97285E+06-4.22289E+05-3.40581E+03-1.12074E+06 4.03020E-10 2.23031E-09
 -1       530-2.92395E+06-4.73032E+05-6.55569E+03-1.17771E+06-1.45519E-11-2.93767E-10
 -1       531-2.97155E+06-4.22277E+05-1.21220E+04-1.12157E+06 1.86583E-09 1.54341E-09
 -1       532-2.93152E+06-4.78870E+05-2.91123E+04-1.17368E+06 6.48470E-10 4.44925E-09
 -1       533-2.96501E+06-4.17487E+05-5.19431E+04-1.12420E+06 2.05455E-09 1.15688E-09
 -1       534-2.98062E+06-5.45137E+05-1.41408E+05-1.15734E+06 1.90539E-10-1.89175E-10
 -1       535-2.92291E+06-3.63470E+05-2.19938E+05-1.13482E+06-1.37516E-09-9.02219E-10
 -1       536 1.08191E+06-4.56635E+04 1.67135E+05-5.00462E+03-2.80124E-10 7.71252E-10
 -1       537 1.14484E+06 5.79220E+04 1.09197E+05-3.64177E+04-3.33193E-09-2.33013E-09
 -1       538 1.10771E+06-5.15501E+03 4.33937E+04-5.52378E+03-8.09450E-11-3.84534E-09
 -1       539 1.11565E+06 6.28249E+03 2.47212E+04-3.54739E+04 6.55746E-10 3.57977E-09
 -1       540 1.11087E+06-6.05580E+02 1.10767E+04-5.93352E+03-1.50976E-10 8.87667E-10
 -1       541 1.11193E+06 6.84850E+02 6.06744E+03-3.48150E+04 5.59794E-10-5.80849E-09
 -1       542 1.11128E+06-7.56745E+01 3.15563E+03-6.18287E+03-8.45830E-11-1.49657E-09
 -1       543 1.11142E+06 1.35727E+02 2.26722E+03-3.44829E+04-8.73172E-10-2.60059E-11
 -1       544 1.11131E+06-4.32522E+01 2.31065E+03-6.26590E+03-9.18519E-11-1.64185E-09
 -1       545 1.11163E+06 4.32092E+02 3.80428E+03-3.44803E+04-1.46940E-10-2.68668E-09
 -1       546 1.11107E+06-3.44580E+02 6.64543E+03-6.18542E+03 7.23048E-11-1.91130E-09
 -1       547 1.11380E+06 3.73284E+03 1.46255E+04-3.48029E+04 6.41876E-10 5.05111E-09
 -1       548 1.10921E+06-3.02539E+03 2.56076E+04-5.94314E+03 5.12500E-10 3.62888E-10
 -1       549 1.13101E+06 3.41656E+04 6.43715E+04-3.53998E+04 1.06252E-09 1.52704E-09
 -1       550 1.09399E+06-2.69100E+04 9.84906E+04-5.59330E+03-1.58798E-09-1.91358E-09
 -1       551 2.39502E+04-3.28488E+05 4.40223E+04-5.21712E+05-6.26824E-09 1.90630E-09
 -1       552 1.10069E+04-3.21736E+05 2.68823E+04-6.03691E+05-4.81668E-09 1.36788E-09
 -1       553 5.65340E+03-3.27053E+05 2.13924E+04-5.20864E+05-7.08314E-09-6.03904E-10
 -1       554 1.31608E+04-3.21143E+05 3.17441E+04-6.03904E+05-5.58066E-09-1.79216E-09
 -1       555 3.06581E+04-3.30245E+05 5.59122E+04-5.21462E+05-6.81757E-09-3.12684E-09
 -1       556-5.95499E+05-2.18202E+05-8.72810E+03-3.94436E+05-9.09495E-10-2.39379E-09
 -1       557-5.77310E+05-2.35095E+05-4.19150E+03-4.18146E+05 4.49654E-09 1.45192E-08
 -1       558-5.97037E+05-2.13847E+05-1.83206E+03-3.95674E+05 2.27737E-09 1.21508E-09
 -1       559-5.76509E+05-2.34311E+05-8.72761E+02-4.19658E+05 1.45701E-09-4.56583E-09
 -1       560-5.97696E+05-2.13325E+05-4.37805E+02-3.96033E+05 6.47560E-09 8.56608E-09
 -1       561-5.76894E+05-2.34112E+05-2.44422E+02-4.20102E+05 6.05723E-10-2.79897E-09
 -1       562-5.98062E+05-2.13127E+05-2.13824E+02-3.96249E+05-6.54836E-10-1.56797E-09
 -1       563-5.77150E+05-2.33998E+05-3.01837E+02-4.20300E+05-9.24047E-10 2.21098E-09
 -1       564-5.98175E+05-2.13038E+05-5.70129E+02-3.96331E+05-1.04774E-09-2.28283E-09
 -1       565-5.77220E+05-2.33982E+05-1.20145E+03-4.20329E+05-1.99907E-09 1.98997E-09
 -1       566-5.98018E+05-2.13063E+05-2.47357E+03-3.96267E+05-1.15870E-09-3.18323E-10
 -1       567-5.77465E+05-2.34366E+05-5.42471E+03-4.20143E+05-1.46974E-09 2.15368E-09
 -1       568-5.97418E+05-2.14152E+05-1.11656E+04-3.95640E+05 3.45608E-10-1.60799E-09
 -1       569-5.83042E+05-2.41768E+05-2.63260E+04-4.18211E+05 4.54929E-09 4.92582E-09
 -1       570-5.95353E+05-2.36110E+05-5.41141E+04-3.86103E+05 3.09228E-10 8.09905E-10
 -1       571 7.94715E+05 4.05068E+04 8.05421E+04-1.64101E+05 1.49885E-09-1.25692E-09
 -1       572 8.08931E+05 1.27308E+04 4.04509E+04-1.89015E+05-5.38421E-10-2.30739E-09
 -1       573 8.00419E+05 1.60798E+03 1.81417E+04-1.63419E+05-1.38607E-09-9.85892E-10
 -1       574 8.01668E+05 3.88770E+02 9.22004E+03-1.89671E+05-4.51109E-10-3.66890E-09
 -1       575 8.00683E+05-1.54942E+02 4.42957E+03-1.63364E+05 1.13869E-09 3.51065E-10
 -1       576 8.00760E+05-4.97832E+01 2.28617E+03-1.89730E+05 2.39015E-09 8.23820E-09
 -1       577 8.00658E+05-5.55754E+01 1.16530E+03-1.63361E+05 6.35936E-10-3.23053E-09
 -1       578 8.00671E+05-2.64570E+01 6.93322E+02-1.89737E+05-2.44199E-10-1.39880E-09
 -1       579 8.00782E+05-9.14250E+01 5.20587E+02-1.63357E+05-7.47605E-10-3.50883E-09
 -1       580 8.00928E+05-1.56651E+02 6.44666E+02-1.89743E+05 8.45830E-11 1.54068E-09
 -1       581 8.01097E+05-2.93346E+02 1.03489E+03-1.63354E+05-1.68075E-09-2.26464E-09
 -1       582 8.01578E+05-3.04999E+02 2.07553E+03-1.89676E+05-2.25191E-09-1.41881E-09
 -1       583 8.01509E+05-1.93831E+02 3.99844E+03-1.63423E+05-6.36646E-10-2.32831E-10
 -1       584 8.03837E+05 2.10525E+03 8.95142E+03-1.88835E+05-4.16730E-09 1.52431E-09
 -1       585 8.00824E+05 8.11665E+03 1.77444E+04-1.64219E+05 2.27010E-09 5.39876E-09
 -1       586 8.83165E+03 1.58639E+05 1.53795E+04-5.86372E+05 5.91172E-09-7.85803E-10
 -1       587 5.56041E+03 1.60219E+05 1.17048E+04-6.78416E+05 2.28829E-09 5.84714E-09
 -1       588 4.03790E+03 1.57934E+05 1.29188E+04-5.85486E+05 7.05040E-09 4.65457E-09
 -1       589 1.04171E+04 1.62608E+05 2.37079E+04-6.78484E+05 3.19051E-09-1.07593E-09
 -1       590 2.45579E+04 1.55773E+05 4.46613E+04-5.86279E+05 6.18184E-09-6.36646E-10
 -1       591-4.19476E+05-1.48638E+05-5.66832E+04-2.35132E+05 2.00498E-09 2.35741E-09
 -1       592-4.17187E+05-1.43963E+05-2.76036E+04-2.56421E+05 3.20142E-10-8.32188E-10
 -1       593-4.21011E+05-1.26029E+05-1.17060E+04-2.45171E+05-6.54836E-10 6.43922E-10
 -1       594-4.11239E+05-1.36078E+05-5.71476E+03-2.57887E+05 2.17824E-09 5.79490E-09
 -1       595-4.21374E+05-1.25040E+05-2.63511E+03-2.45704E+05 3.07409E-10 3.28964E-09
 -1       596-4.10838E+05-1.35720E+05-1.34846E+03-2.57935E+05 2.92630E-09 9.70431E-09
 -1       597-4.21469E+05-1.25043E+05-7.64517E+02-2.45735E+05-4.01133E-09-6.18093E-09
 -1       598-4.10811E+05-1.35715E+05-6.67564E+02-2.57933E+05 2.54840E-09-4.17276E-09
 -1       599-4.21451E+05-1.25043E+05-9.21408E+02-2.45728E+05 4.92764E-09 2.93858E-09
 -1       600-4.10833E+05-1.35729E+05-1.76276E+03-2.57925E+05 1.95905E-09 2.16460E-10
 -1       601-4.21305E+05-1.25037E+05-3.51815E+03-2.45678E+05-4.15275E-09-5.59885E-09
 -1       602-4.11369E+05-1.36216E+05-7.67310E+03-2.57867E+05-1.10776E-09 1.41699E-09
 -1       603-4.20833E+05-1.26359E+05-1.57301E+04-2.44962E+05 2.61934E-09-5.72982E-10
 -1       604-4.19318E+05-1.46868E+05-3.71016E+04-2.55985E+05-1.75351E-09-6.20275E-10
 -1       605-4.18849E+05-1.56653E+05-7.61758E+04-2.31406E+05 5.80258E-10-5.29690E-09
 -1       606 1.98407E+05-2.30430E+04-4.53876E+04 5.08845E+04-1.35969E-08-4.32556E-09
 -1       607 1.90242E+05-7.27453E+03-2.27768E+04 5.79307E+04-2.42653E-09-2.59888E-09
 -1       608 1.94802E+05-9.55678E+02-1.02307E+04 5.04317E+04 9.26593E-09 4.15184E-10
 -1       609 1.93898E+05-1.10149E+02-5.18033E+03 5.83824E+04-6.71207E-09 2.95586E-09
 -1       610 1.94357E+05 2.20866E+02-2.48823E+03 5.03873E+04-1.66183E-08-5.68025E-09
 -1       611 1.94144E+05 2.83173E+02-1.25459E+03 5.84239E+04-2.91475E-08-3.21961E-10
 -1       612 1.94212E+05 2.62370E+02-6.03912E+02 5.03852E+04-1.34714E-08 4.17822E-09
 -1       613 1.94096E+05 3.23047E+02-2.73895E+02 5.84247E+04-1.56506E-08 5.29235E-09
 -1       614 1.94123E+05 2.84049E+02-7.69613E+01 5.03852E+04-2.10639E-09 2.93767E-10
 -1       615 1.94035E+05 3.54864E+02 8.81903E+01 5.84221E+04 1.08848E-08 3.16368E-09
 -1       616 1.94056E+05 3.10946E+02 2.88146E+02 5.03869E+04-1.12286E-08-9.73159E-10
 -1       617 1.94030E+05 4.26128E+02 6.66642E+02 5.84181E+04 4.48699E-09 4.06089E-09
 -1       618 1.93974E+05 4.79485E+02 1.34299E+03 5.03878E+04-1.22327E-09-1.61708E-09
 -1       619 1.94503E+05 1.38278E+03 3.01167E+03 5.84096E+04 1.99907E-09 3.21324E-09
 -1       620 1.93493E+05 3.40970E+03 6.00635E+03 5.03807E+04 2.71143E-09-1.53705E-10
 -1       621 8.17138E+03 7.72171E+05 1.75311E+04-1.22459E+05-4.31100E-10-3.27236E-09
 -1       622 3.38352E+03 7.75383E+05 1.37396E+04-1.41907E+05-4.46016E-09-2.23736E-09
 -1       623 2.09323E+03 7.73013E+05 1.60555E+04-1.22485E+05-1.18780E-09-7.63976E-11
 -1       624 9.84244E+03 7.79102E+05 3.02419E+04-1.41530E+05-4.05271E-09-1.69348E-09
 -1       625 2.94022E+04 7.68922E+05 5.77569E+04-1.22815E+05-4.29281E-10-8.16726E-10
 -1       626 3.13482E+05 9.37986E+04-2.10859E+04 1.98967E+05-1.20726E-08 1.82445E-09
 -1       627 3.01979E+05 1.07837E+05-1.02614E+04 2.04979E+05-1.84082E-09 2.91209E-09
 -1       628 3.13210E+05 1.01808E+05-4.35818E+03 1.94675E+05 1.84446E-08 6.90943E-09
 -1       629 3.03592E+05 1.11286E+05-2.11009E+03 2.04881E+05 1.52158E-08 1.26965E-09
 -1       630 3.13013E+05 1.02193E+05-9.52165E+02 1.94368E+05 2.04527E-08 6.82462E-10
 -1       631 3.03594E+05 1.11499E+05-4.29249E+02 2.04838E+05-1.79261E-08 1.49981E-10
 -1       632 3.12896E+05 1.02227E+05-1.34238E+02 1.94303E+05-1.77606E-08 2.78669E-09
 -1       633 3.03537E+05 1.11530E+05 7.83786E+01 2.04794E+05 4.09045E-09 5.74573E-10
 -1       634 3.12828E+05 1.02231E+05 3.26921E+02 1.94273E+05 6.09816E-09 3.01316E-09
 -1       635 3.03541E+05 1.11535E+05 7.86904E+02 2.04787E+05-7.07769E-09 5.33601E-09
 -1       636 3.12782E+05 1.02210E+05 1.64804E+03 1.94266E+05-5.27422E-09 1.72577E-08
 -1       637 3.03868E+05 1.11736E+05 3.63813E+03 2.04808E+05 6.39045E-09-6.53472E-10
 -1       638 3.12648E+05 1.02783E+05 7.46356E+03 1.93984E+05 1.26215E-08-5.57520E-10
 -1       639 3.07827E+05 1.16705E+05 1.76221E+04 2.03976E+05-1.55119E-08-7.43330E-09
 -1       640 3.11841E+05 1.17134E+05 3.61704E+04 1.87656E+05-1.43154E-09-5.19231E-09
 -1       641 1.46382E+04 3.08378E+03-1.13038E+04 2.64690E+03-1.45478E-08-1.29558E-09
 -1       642 1.03499E+04-3.81696E+03-7.37194E+03 1.48879E+04-1.84483E-08-4.87319E-09
 -1       643 1.28899E+04 3.57468E+02-2.92923E+03 2.61770E+03-2.07904E-08-2.97723E-09
 -1       644 1.22755E+04-3.08505E+02-1.64959E+03 1.49170E+04 1.02823E-08 4.04236E-09
 -1       645 1.26731E+04 5.85333E+01-7.14564E+02 2.61592E+03-3.43380E-09 2.09184E-11
 -1       646 1.25002E+04 8.28338E+01-3.35361E+02 1.49173E+04-2.48797E-08 1.50129E-09
 -1       647 1.26406E+04 2.60821E+01-6.98128E+01 2.61702E+03 2.05372E-08-2.08885E-09
 -1       648 1.25389E+04 1.38556E+02 1.44841E+02 1.49160E+04 4.85426E-08 3.99018E-09
 -1       649 1.26245E+04 1.23701E+01 4.18790E+02 2.61710E+03 3.04707E-08-3.95352E-09
 -1       650 1.26323E+04 2.45226E+02 9.66022E+02 1.49158E+04 3.00435E-08 3.61655E-09
 -1       651 1.25520E+04-7.70908E+01 1.84398E+03 2.61709E+03-1.60423E-09-3.27429E-09
 -1       652 1.32582E+04 1.19642E+03 4.16326E+03 1.49137E+04-1.14101E-08 2.97018E-09
 -1       653 1.20183E+04-8.46156E+02 7.32908E+03 2.61885E+03 4.01565E-09-4.01042E-09
 -1       654 1.81915E+04 9.93781E+03 1.84623E+04 1.48678E+04-3.05735E-08-3.27896E-09
 -1       655 7.65400E+03-7.70255E+03 2.82545E+04 2.65907E+03 6.28688E-09-4.25644E-09
 -1       656 2.08563E+04-6.87714E+05-7.96080E+04 1.65968E+04-1.52722E-08-3.98450E-09
 -1       657-2.95458E+04-7.17607E+05-5.91340E+04 8.56115E+04-2.82471E-08 8.27822E-09
 -1       658 4.32275E+03-6.98217E+05-3.68954E+04 1.62581E+04-1.18591E-08 5.59567E-09
 -1       659-2.69786E+04-7.16366E+05-5.49876E+04 8.58759E+04-2.50880E-08-3.19923E-09
 -1       660 1.87529E+04-6.89153E+05-7.18661E+04 1.63368E+04-6.77755E-09-4.25598E-09
 -1       661 6.66981E+05 8.31250E+04 5.50775E+04 2.61527E+05-1.21099E-08-1.04264E-08
 -1       662 6.82337E+05 1.28016E+05 3.54512E+04 2.66433E+05 2.85416E-09-9.14224E-09
 -1       663 6.76800E+05 9.74169E+04 1.30177E+04 2.59717E+05 2.32788E-09 5.14592E-09
 -1       664 6.71091E+05 1.10269E+05 7.32857E+03 2.69011E+05-3.15545E-08 1.01409E-10
 -1       665 6.77960E+05 9.91350E+04 3.05968E+03 2.59598E+05 1.75632E-08 2.13493E-09
 -1       666 6.69765E+05 1.08168E+05 1.68846E+03 2.69175E+05 1.43559E-08 9.79611E-10
 -1       667 6.78089E+05 9.93524E+04 9.27689E+02 2.59611E+05-9.79918E-09 4.81079E-09
 -1       668 6.69632E+05 1.07965E+05 8.77111E+02 2.69180E+05-9.74251E-09 2.82907E-09
 -1       669 6.78089E+05 9.93260E+04 1.21157E+03 2.59597E+05 1.15360E-08 7.43842E-09
 -1       670 6.69836E+05 1.08357E+05 2.48897E+03 2.69227E+05 1.26324E-08 1.83041E-09
 -1       671 6.77898E+05 9.89746E+04 4.64983E+03 2.59563E+05-4.03804E-09-2.60138E-09
 -1       672 6.71874E+05 1.11596E+05 1.12333E+04 2.68986E+05-5.00432E-09-2.88765E-11
 -1       673 6.76107E+05 9.63410E+04 1.99813E+04 2.59750E+05 5.34328E-09-2.17005E-09
 -1       674 6.89175E+05 1.38829E+05 5.44452E+04 2.64996E+05 1.56751E-09-3.74803E-09
 -1       675 6.61007E+05 7.44145E+04 8.45982E+04 2.62553E+05-3.93538E-09-7.56336E-09
 -1       676 8.02425E+03-6.13023E+05-3.09798E+04 6.21293E+03-1.15961E-08-3.04385E-09
 -1       677-1.17094E+04-6.24762E+05-2.41927E+04 2.55837E+04 1.56069E-08 4.84761E-09
 -1       678 1.99522E+03-6.16807E+05-1.70239E+04 6.08337E+03-1.49194E-08 5.01041E-09
 -1       679-1.42872E+04-6.26242E+05-2.84658E+04 2.57241E+04 1.58886E-08-4.49432E-10
 -1       680 1.02902E+04-6.11578E+05-3.88917E+04 6.07214E+03-8.74206E-09 1.78417E-10
 -1       681 5.51727E+05-8.48377E+03 3.08376E+04-4.16882E+03-3.04681E-10 2.78305E-10
 -1       682 5.63441E+05 1.06673E+04 2.01838E+04-2.63275E+04 2.58296E-10 4.72937E-11
 -1       683 5.56490E+05-9.72915E+02 8.01775E+03-4.31609E+03-2.15550E-10-3.02407E-10
 -1       684 5.57976E+05 1.14739E+03 4.59980E+03-2.60364E+04-1.68939E-10-7.91260E-11
 -1       685 5.57067E+05-1.19037E+02 2.10344E+03-4.45827E+03 1.39835E-10 4.41219E-10
 -1       686 5.57249E+05 1.31478E+02 1.24897E+03-2.58120E+04-1.25056E-10 7.23844E-10
 -1       687 5.57136E+05-1.66655E+01 8.31635E+02-4.54049E+03 2.55227E-10 1.45405E-09
 -1       688 5.57163E+05 6.08760E+01 9.36890E+02-2.57079E+04-3.48308E-10 2.27686E-09
 -1       689 5.57115E+05-3.09920E+01 1.42733E+03-4.56244E+03 2.09639E-10 4.54833E-10
 -1       690 5.57389E+05 3.36702E+02 2.83164E+03-2.57262E+04 7.02585E-11-7.28022E-10
 -1       691 5.56916E+05-2.76790E+02 5.21992E+03-4.52214E+03 2.65800E-10 6.45514E-10
 -1       692 5.59127E+05 2.99263E+03 1.16694E+04-2.58632E+04-2.16801E-10 2.28965E-10
 -1       693 5.55424E+05-2.42353E+03 2.05035E+04-4.42535E+03-2.29193E-10-4.09273E-11
 -1       694 5.72905E+05 2.74129E+04 5.16001E+04-2.60762E+04-4.73165E-10 4.14730E-10
 -1       695 5.43227E+05-2.15740E+04 7.89730E+04-4.31234E+03-4.51564E-10-4.51109E-10
 -1       696-8.69168E+03 5.65156E+05 3.14028E+04-9.68417E+03 2.36469E-11-7.24640E-10
 -1       697 1.08126E+04 5.76641E+05 1.89938E+04-5.13730E+04 8.91305E-11-8.84029E-10
 -1       698-5.23341E+02 5.70389E+05 4.67319E+03-9.68155E+03-2.21917E-10 1.82229E-09
 -1       699-3.43705E+03 5.68682E+05-4.54024E+03-5.14225E+04-2.45677E-10 2.51657E-09
 -1       700 3.67947E+03 5.73160E+05-1.22530E+04-9.63698E+03-2.60115E-10 1.67756E-09
 -1       701-4.99587E+05-5.40278E+04-6.93011E+04-1.97979E+05 1.85537E-10-2.23008E-09
 -1       702-5.21872E+05-1.07469E+05-4.45936E+04-2.00786E+05 1.48390E-10 6.08907E-10
 -1       703-5.12190E+05-7.17568E+04-1.63747E+04-1.95417E+05 4.03986E-10 3.71983E-10
 -1       704-5.07356E+05-8.55317E+04-9.19568E+03-2.04554E+05 5.07384E-10-3.48336E-10
 -1       705-5.13827E+05-7.37312E+04-3.82476E+03-1.95071E+05 4.09045E-10 6.16183E-11
 -1       706-5.05457E+05-8.31467E+04-2.06279E+03-2.05098E+05-1.06411E-10 3.70335E-10
 -1       707-5.14090E+05-7.39003E+04-1.05426E+03-1.94978E+05 7.59428E-11 9.68043E-11
 -1       708-5.05177E+05-8.29828E+04-8.52911E+02-2.05250E+05 2.73076E-10 1.38002E-10
 -1       709-5.14125E+05-7.38642E+04-1.03124E+03-1.94940E+05-7.66818E-11 3.16390E-10
 -1       710-5.05342E+05-8.32662E+04-2.00511E+03-2.05271E+05-2.07805E-10-4.41361E-10
 -1       711-5.13935E+05-7.36288E+04-3.70001E+03-1.94957E+05-2.28425E-10 6.04587E-10
 -1       712-5.07079E+05-8.56990E+04-8.90768E+03-2.04906E+05 6.00636E-10 1.12595E-09
 -1       713-5.12415E+05-7.16491E+04-1.58442E+04-1.95222E+05 1.17211E-10 6.68479E-10
 -1       714-5.21014E+05-1.07075E+05-4.31761E+04-2.01432E+05 1.39835E-11 3.27873E-10
 -1       715-5.00289E+05-5.44028E+04-6.70768E+04-1.97618E+05-9.00400E-11 7.74889E-10
 -1       716 3.79043E+05-1.75857E+04 6.36925E+04-1.04253E+04 2.33740E-10 2.18279E-11
 -1       717 4.03354E+05 2.21514E+04 4.17158E+04-5.96975E+04-3.06045E-10-4.94765E-10
 -1       718 3.88863E+05-2.00187E+03 1.65466E+04-1.05501E+04-5.91172E-11 2.02454E-09
 -1       719 3.91877E+05 2.53153E+03 9.48208E+03-5.94239E+04-1.20122E-09-3.52429E-11
 -1       720 3.90043E+05-2.08437E+02 4.29930E+03-1.06961E+04 1.99634E-09 3.22643E-10
 -1       721 3.90310E+05 4.51165E+02 2.47510E+03-5.92238E+04 1.93279E-09 1.54523E-09
 -1       722 3.90189E+05 6.40659E+00 1.51499E+03-1.07502E+04 2.15174E-09 2.08433E-09
 -1       723 3.90164E+05 2.64276E+02 1.50546E+03-5.92135E+04 4.27917E-10 1.32388E-09
 -1       724 3.90178E+05-3.08879E+01 2.10456E+03-1.07064E+04 1.68211E-09 1.91335E-09
 -1       725 3.90651E+05 5.82257E+02 4.07741E+03-5.94016E+04 1.92654E-09 1.74320E-09
 -1       726 3.89920E+05-4.36416E+02 7.40595E+03-1.05622E+04 1.82081E-09-1.16415E-09
 -1       727 3.93444E+05 4.23790E+03 1.66180E+04-5.97807E+04 1.87674E-09 4.55429E-10
 -1       728 3.87838E+05-3.58075E+03 2.90638E+04-1.03269E+04 4.82942E-10-6.20275E-10
 -1       729 4.13519E+05 3.87968E+04 7.33788E+04-6.02184E+04 9.83619E-10 3.52884E-10
 -1       730 3.70552E+05-3.09479E+04 1.12085E+05-1.01348E+04 1.45519E-11-1.49885E-09
 -1       731-1.29454E+04 2.02380E+05 4.74991E+04-2.02247E+04 2.34832E-09-1.92085E-09
 -1       732 1.69207E+04 2.19969E+05 3.11726E+04-1.15219E+05 1.02273E-09-2.49730E-09
 -1       733-1.42810E+03 2.09672E+05 1.25742E+04-2.01716E+04 2.84444E-09 1.30990E-09
 -1       734 2.68437E+03 2.12162E+05 7.73337E+03-1.15242E+05 1.22100E-09 1.73873E-09
 -1       735-6.79895E+02 2.10366E+05 3.97275E+03-2.02033E+04 1.23623E-09 1.42245E-09
 -1       736-1.32282E+06-1.60724E+05-1.05401E+05-5.11462E+05 7.98536E-10-1.42609E-09
 -1       737-1.35910E+06-2.39633E+05-6.78290E+04-5.12969E+05-3.47427E-10-1.00408E-09
 -1       738-1.34217E+06-1.87524E+05-2.48904E+04-5.07341E+05 2.44711E-10 4.00178E-10
 -1       739-1.33668E+06-2.06572E+05-1.39778E+04-5.19076E+05-3.26509E-10-1.18143E-09
 -1       740-1.34480E+06-1.90386E+05-5.80288E+03-5.06648E+05-6.17774E-10-2.52385E-10
 -1       741-1.33356E+06-2.03162E+05-3.11974E+03-5.20158E+05-8.25708E-10-3.49814E-10
 -1       742-1.34528E+06-1.90566E+05-1.56947E+03-5.06415E+05-8.74479E-10-8.07063E-10
 -1       743-1.33303E+06-2.03004E+05-1.22813E+03-5.20498E+05-9.14952E-10-1.10252E-09
 -1       744-1.34535E+06-1.90500E+05-1.43170E+03-5.06337E+05 1.38783E-10 1.18007E-10
 -1       745-1.33327E+06-2.03362E+05-2.74064E+03-5.20493E+05-1.13913E-09 9.17680E-10
 -1       746-1.34505E+06-1.90229E+05-5.03785E+03-5.06413E+05-6.07088E-11 1.44178E-09
 -1       747-1.33579E+06-2.06513E+05-1.21184E+04-5.19800E+05 9.31038E-10 8.18318E-10
 -1       748-1.34286E+06-1.87656E+05-2.15552E+04-5.06910E+05 1.06377E-09 4.12001E-10
 -1       749-1.35505E+06-2.35318E+05-5.87557E+04-5.14711E+05 4.22006E-10 3.21052E-10
 -1       750-1.32618E+06-1.64364E+05-9.12874E+04-5.10394E+05-1.84627E-09-4.72937E-10
 -1       751 2.19713E+06-7.66295E+04 2.81154E+05-4.13880E+03-1.71804E-09-1.99361E-09
 -1       752 2.30274E+06 9.73651E+04 1.83606E+05-4.17170E+04-2.41926E-09-2.67755E-09
 -1       753 2.24055E+06-8.62581E+03 7.30381E+04-5.40756E+03-6.03904E-10 5.49335E-10
 -1       754 2.25380E+06 1.05751E+04 4.16194E+04-3.94977E+04 2.02681E-09 2.73758E-10
 -1       755 2.24587E+06-1.00564E+03 1.87158E+04-6.32909E+03-3.41970E-10-9.92259E-10
 -1       756 2.24762E+06 1.15183E+03 1.03443E+04-3.80255E+04 5.98902E-10 9.95897E-11
 -1       757 2.24657E+06-1.29731E+02 5.57395E+03-6.88003E+03 5.59339E-11 3.22871E-11
 -1       758 2.24682E+06 2.42636E+02 4.35350E+03-3.72860E+04 2.59945E-10 3.46120E-10
 -1       759 2.24659E+06-1.00545E+02 4.92511E+03-7.06891E+03 9.92557E-11-1.12288E-09
 -1       760 2.24736E+06 9.70853E+02 8.60149E+03-3.72620E+04-5.63205E-10 1.07013E-09
 -1       761 2.24602E+06-7.93404E+02 1.53104E+04-6.90388E+03 6.03450E-10 2.86491E-10
 -1       762 2.25231E+06 8.64393E+03 3.38499E+04-3.79480E+04 2.72166E-10 3.70210E-09
 -1       763 2.24169E+06-6.97099E+03 5.93635E+04-6.38254E+03 2.88310E-10-2.79397E-09
 -1       764 2.29199E+06 7.91595E+04 1.49136E+05-3.93180E+04 5.73209E-10-2.82489E-09
 -1       765 2.20641E+06-6.21962E+04 2.28352E+05-5.54661E+03-1.51795E-09-2.76486E-10
 -1       766-3.50961E+04 5.36192E+05 1.32152E+05-4.04956E+03-4.32919E-09-1.08594E-09
 -1       767 4.78921E+04 5.86660E+05 9.61838E+04-1.81815E+04-4.66116E-09-5.26143E-10
 -1       768-6.79271E+03 5.54099E+05 5.66176E+04-3.84526E+03-2.67482E-09 1.89175E-09
 -1       769 3.74701E+04 5.80938E+05 7.90167E+04-1.85907E+04-2.68847E-09 7.60338E-10
 -1       770-2.61181E+04 5.42036E+05 1.00253E+05-3.65308E+03-1.67347E-09 1.82627E-09
 -1       771-1.65728E+06-3.43415E+05-1.10182E+05-6.87297E+05 2.06455E-10 5.67525E-10
 -1       772-1.66311E+06-3.23858E+05-5.36462E+04-7.16562E+05-1.12959E-09-1.26602E-09
 -1       773-1.66010E+06-2.99627E+05-2.27591E+04-7.06879E+05 2.79033E-09-2.77214E-09
 -1       774-1.65157E+06-3.08532E+05-1.10959E+04-7.19411E+05 3.59069E-09-5.10317E-09
 -1       775-1.66086E+06-2.97652E+05-5.11176E+03-7.07917E+05 6.00267E-10-1.42973E-09
 -1       776-1.65084E+06-3.07843E+05-2.57191E+03-7.19619E+05-1.09139E-10-3.12457E-09
 -1       777-1.66119E+06-2.97582E+05-1.38768E+03-7.08026E+05 6.83940E-10 8.34007E-10
 -1       778-1.65090E+06-3.07805E+05-1.05535E+03-7.19769E+05-1.03319E-09 1.70769E-09
 -1       779-1.66136E+06-2.97487E+05-1.29345E+03-7.08100E+05-7.23958E-10 1.08889E-09
 -1       780-1.65109E+06-3.07775E+05-2.33770E+03-7.19934E+05-6.11180E-10-3.33534E-09
 -1       781-1.66138E+06-2.97361E+05-4.60050E+03-7.08136E+05 9.82254E-11 9.50422E-11
 -1       782-1.65196E+06-3.08370E+05-1.00084E+04-7.20079E+05 6.75300E-10 2.70120E-10
 -1       783-1.66102E+06-2.98931E+05-2.04964E+04-7.07296E+05-4.62933E-10 1.27329E-10
 -1       784-1.66225E+06-3.22527E+05-4.83934E+04-7.18201E+05-7.13953E-10 4.47471E-10
 -1       785-1.65894E+06-3.38094E+05-9.93471E+04-6.89468E+05-2.47383E-10 2.27737E-09
 -1       786 1.17703E+06-3.63169E+04 1.33213E+05-2.71430E+03 6.32554E-10 6.47560E-10
 -1       787 1.22696E+06 4.62154E+04 8.70098E+04-2.06946E+04-2.14186E-10-4.44561E-09
 -1       788 1.19761E+06-4.07156E+03 3.46027E+04-2.98766E+03-9.86802E-11 6.29370E-10
 -1       789 1.20382E+06 5.02961E+03 1.97005E+04-2.02148E+04 1.78488E-11-4.81577E-10
 -1       790 1.20014E+06-4.68289E+02 8.84613E+03-3.18704E+03 4.24279E-10 8.90850E-10
 -1       791 1.20094E+06 5.40974E+02 4.85382E+03-1.99203E+04 1.50294E-10 6.18093E-09
 -1       792 1.20047E+06-6.03286E+01 2.55820E+03-3.28207E+03 5.18980E-10 3.91083E-09
 -1       793 1.20057E+06 9.06448E+01 1.89197E+03-1.98338E+04 1.42109E-10-2.75151E-09
 -1       794 1.20049E+06-4.47665E+01 2.00684E+03-3.27361E+03-5.74516E-10-2.48826E-09
 -1       795 1.20079E+06 3.58622E+02 3.38562E+03-1.99556E+04 4.17003E-10 5.32697E-09
 -1       796 1.20027E+06-3.15283E+02 5.96001E+03-3.16027E+03-8.44693E-10-2.06910E-09
 -1       797 1.20272E+06 3.33645E+03 1.31466E+04-2.02840E+04 7.35554E-11-3.28941E-09
 -1       798 1.19860E+06-2.71658E+03 2.30360E+04-2.94528E+03-1.01863E-09 1.68620E-09
 -1       799 1.21813E+06 3.07300E+04 5.78991E+04-2.07913E+04-2.97291E-09-9.09495E-11
 -1       800 1.18490E+06-2.41798E+04 8.86086E+04-2.65790E+03-4.20641E-10 1.55342E-09
 -1       801-2.37502E+04 6.11985E+05 8.65008E+04-1.19494E+05 8.38554E-09-4.93310E-09
 -1       802 4.09203E+04 6.42656E+05 7.32479E+04-6.75632E+05 2.11389E-08-1.24055E-09
 -1       803-5.13943E+03 6.20948E+05 5.76095E+04-1.19715E+05 1.28421E-08 6.38897E-09
 -1       804 5.97086E+04 6.55472E+05 1.05383E+05-6.75823E+05 2.02708E-08 7.14408E-09
 -1       805-4.15646E+04 6.01416E+05 1.45491E+05-1.19321E+05 6.27188E-09 7.73070E-09
 -1       806-8.85743E+05-2.16928E+05-7.97092E+04-3.96898E+05 4.99313E-10-3.39060E-09
 -1       807-8.87578E+05-2.05301E+05-3.88255E+04-4.20976E+05-6.48470E-10 6.77392E-09
 -1       808-8.87632E+05-1.85346E+05-1.64538E+04-4.11134E+05-1.66619E-09 1.49976E-09
 -1       809-8.79268E+05-1.94076E+05-8.03301E+03-4.22763E+05 3.92765E-09 1.00830E-08
 -1       810-8.88048E+05-1.84012E+05-3.69377E+03-4.11849E+05 1.33696E-10-9.59290E-10
 -1       811-8.78645E+05-1.93587E+05-1.87745E+03-4.22762E+05-9.50422E-11-9.93668E-09
 -1       812-8.88138E+05-1.84045E+05-1.03454E+03-4.11866E+05-2.85127E-10-8.18545E-10
 -1       813-8.78577E+05-1.93592E+05-8.51792E+02-4.22733E+05 1.54523E-09-1.57934E-09
 -1       814-8.88106E+05-1.84059E+05-1.11490E+03-4.11851E+05 4.17458E-10-1.77351E-10
 -1       815-8.78603E+05-1.93606E+05-2.08805E+03-4.22716E+05 8.14907E-10 2.32831E-09
 -1       816-8.87943E+05-1.84050E+05-4.14291E+03-4.11801E+05-2.27192E-09 3.18323E-10
 -1       817-8.79260E+05-1.94167E+05-9.02434E+03-4.22663E+05-1.86265E-09-9.53150E-10
 -1       818-8.87424E+05-1.85585E+05-1.84932E+04-4.10979E+05-3.73075E-09-6.06451E-09
 -1       819-8.88606E+05-2.06733E+05-4.36276E+04-4.20552E+05 1.08867E-09-2.40107E-10
 -1       820-8.85225E+05-2.21111E+05-8.95700E+04-3.94998E+05 5.01313E-09 3.49246E-10
 -1       821-7.69058E+05 2.50798E+04-9.20246E+04 1.82836E+03-9.18135E-09 1.88447E-09
 -1       822-8.03427E+05-3.19528E+04-6.01078E+04 1.68961E+04-4.07999E-09-4.92037E-10
 -1       823-7.83280E+05 2.78957E+03-2.39087E+04 1.49084E+03 8.25366E-09-1.31149E-09
 -1       824-7.87541E+05-3.41864E+03-1.35978E+04 1.74568E+04-6.44150E-10 3.09319E-09
 -1       825-7.85025E+05 3.17381E+02-6.12484E+03 1.26306E+03-1.45974E-08 2.70325E-09
 -1       826-7.85631E+05-2.78642E+02-3.37259E+03 1.78409E+04-2.53784E-08 1.74805E-09
 -1       827-7.85259E+05 4.98212E+01-1.82456E+03 1.10528E+03-1.45719E-08-5.66240E-09
 -1       828-7.85436E+05 4.71576E+01-1.42484E+03 1.80871E+04-1.80679E-08-1.46241E-09
 -1       829-7.85268E+05 5.03776E+01-1.62141E+03 1.01608E+03-3.38991E-09-4.51615E-09
 -1       830-7.85636E+05-1.87833E+02-2.84191E+03 1.81932E+04 1.22674E-08-7.43577E-09
 -1       831-7.85081E+05 2.79877E+02-5.06769E+03 9.98827E+02-7.19504E-09-1.73441E-09
 -1       832-7.87255E+05-2.75494E+03-1.12203E+04 1.81577E+04 3.75843E-09-3.28623E-09
 -1       833-7.83647E+05 2.32509E+03-1.96901E+04 1.05261E+03-1.37629E-09-3.49883E-09
 -1       834-8.00379E+05-2.62483E+04-4.95233E+04 1.79751E+04-2.08729E-09-4.26189E-09
 -1       835-7.71935E+05 2.06953E+04-7.57938E+04 1.18992E+03 3.52293E-09-5.02769E-09
 -1       836-4.66081E+04 2.04710E+06 1.77981E+05-4.96571E+04-5.47152E-09-1.66074E-09
 -1       837 6.76498E+04 2.11470E+06 1.38021E+05-2.59552E+05-8.35553E-09-2.72712E-09
 -1       838-1.09320E+04 2.06903E+06 9.51824E+04-5.06822E+04-8.39827E-09 3.00918E-09
 -1       839 7.87148E+04 2.12061E+06 1.56189E+05-2.59249E+05-1.00990E-08 3.93470E-09
 -1       840-5.60328E+04 2.04088E+06 2.11807E+05-4.99547E+04-7.36327E-09 2.50475E-09
 -1       841-2.94430E+05-2.68040E+04-4.91873E+04-1.13803E+05-3.05772E-09-3.06318E-09
 -1       842-3.27580E+05-4.72675E+04-3.16283E+04-9.59538E+04-4.25644E-09-3.04681E-09
 -1       843-3.03123E+05-3.96181E+04-1.16235E+04-1.12281E+05-5.73800E-09 4.50973E-09
 -1       844-3.17733E+05-3.12976E+04-6.50986E+03-9.81968E+04-5.28144E-09 3.84944E-10
 -1       845-3.04138E+05-4.11563E+04-2.69447E+03-1.12208E+05-1.08089E-08 7.90777E-10
 -1       846-3.16664E+05-2.93514E+04-1.41065E+03-9.83229E+04-1.70435E-08-4.51199E-09
 -1       847-3.04231E+05-4.13704E+04-6.43451E+02-1.12257E+05-1.03933E-08 6.67498E-09
 -1       848-3.16613E+05-2.90642E+04-3.70926E+02-9.82739E+04-2.74707E-09 1.32806E-08
 -1       849-3.04223E+05-4.14078E+04-2.66168E+02-1.12289E+05 3.61007E-09 4.61399E-09
 -1       850-3.16658E+05-2.90561E+04-3.59018E+02-9.82484E+04-4.41662E-09-6.42541E-09
 -1       851-3.04198E+05-4.13734E+04-5.88920E+02-1.12291E+05-2.08337E-09-8.31048E-09
 -1       852-3.16872E+05-2.94602E+04-1.36857E+03-9.82234E+04-1.71673E-09-4.67253E-10
 -1       853-3.04000E+05-4.10446E+04-2.42493E+03-1.12292E+05-3.45835E-10 1.02781E-08
 -1       854-3.18839E+05-3.28444E+04-6.58117E+03-9.78123E+04 9.74751E-09 4.37723E-10
 -1       855-3.02241E+05-3.83388E+04-1.02408E+04-1.12552E+05 7.75526E-09-7.18956E-10
 -1       856-6.71335E+05 1.81019E+04-6.65321E+04 2.91129E+03-1.06238E-08-4.01997E-09
 -1       857-6.96193E+05-2.29512E+04-4.34297E+04 2.72078E+04-8.23502E-09-2.61934E-09
 -1       858-6.81618E+05 2.02183E+03-1.72855E+04 2.55980E+03-1.40058E-08-2.22008E-09
 -1       859-6.84804E+05-2.30141E+03-9.81822E+03 2.77658E+04-3.70369E-09-3.32102E-09
 -1       860-6.82885E+05 2.50907E+02-4.41622E+03 2.34528E+03 5.71345E-09-1.80580E-09
 -1       861-6.83474E+05-1.19914E+01-2.41263E+03 2.80937E+04-1.79629E-08-2.55039E-09
 -1       862-6.83057E+05 6.40420E+01-1.26988E+03 2.22938E+03 9.67043E-09-4.50666E-09
 -1       863-6.83340E+05 2.32546E+02-9.32321E+02 2.82317E+04 4.55751E-08-9.35955E-09
 -1       864-6.83067E+05 5.87394E+01-9.83365E+02 2.20626E+03 2.38069E-08-4.98378E-09
 -1       865-6.83422E+05 9.33114E+01-1.65386E+03 2.81835E+04 3.00436E-08-1.10764E-08
 -1       866-6.82958E+05 1.79572E+02-2.91853E+03 2.27784E+03-3.61229E-09-9.49058E-10
 -1       867-6.84280E+05-1.40175E+03-6.42531E+03 2.79473E+04-1.32022E-08-3.42794E-09
 -1       868-6.82131E+05 1.33095E+03-1.12880E+04 2.44430E+03 7.93079E-09-4.77257E-09
 -1       869-6.91681E+05-1.48844E+04-2.83394E+04 2.74821E+04-4.21460E-09-5.23050E-09
 -1       870-6.75422E+05 1.18132E+04-4.34202E+04 2.74953E+03 7.32780E-09-5.82622E-09
 -1       871-5.05639E+03-3.19973E+04-7.66999E+03 1.35758E+05-2.32612E-08-3.21506E-09
 -1       872-2.02383E+03-3.32629E+04-2.08038E+03 1.56992E+05-3.07555E-08-6.98856E-09
 -1       873-3.84736E+02-3.29158E+04 2.59572E+03 1.35526E+05-2.00848E-08 2.41516E-09
 -1       874 2.47986E+03-3.09036E+04 9.19267E+03 1.57102E+05-2.28883E-08 3.37479E-10
 -1       875 9.60694E+03-3.45055E+04 1.98187E+04 1.35699E+05-2.32230E-08 2.75031E-09
 -1       876 7.39579E+05 9.01473E+04 7.02149E+04 2.91607E+05-1.03037E-08-3.48155E-09
 -1       877 7.56673E+05 1.50001E+05 4.52104E+04 3.00831E+05 4.38206E-10-2.78033E-09
 -1       878 7.52013E+05 1.08472E+05 1.65872E+04 2.89391E+05 4.30225E-09-3.06773E-09
 -1       879 7.42446E+05 1.27214E+05 9.34129E+03 3.03905E+05-2.31939E-08-9.61904E-09
 -1       880 7.53414E+05 1.10749E+05 3.88163E+03 2.89323E+05 1.92299E-08 4.49245E-09
 -1       881 7.40859E+05 1.24402E+05 2.12019E+03 3.03939E+05 1.65599E-08-1.09783E-08
 -1       882 7.53518E+05 1.11095E+05 1.11195E+03 2.89406E+05-2.17005E-09 1.38670E-09
 -1       883 7.40763E+05 1.24029E+05 9.63292E+02 3.03813E+05-1.66687E-08 6.65413E-09
 -1       884 7.53482E+05 1.11121E+05 1.23720E+03 2.89438E+05 2.18759E-08 9.24439E-09
 -1       885 7.41004E+05 1.24352E+05 2.46790E+03 3.03792E+05 2.07158E-08-2.42767E-09
 -1       886 7.53281E+05 1.10791E+05 4.57966E+03 2.89420E+05-1.55144E-08-3.14776E-09
 -1       887 7.43015E+05 1.27528E+05 1.10414E+04 3.03555E+05-2.70478E-09-5.47448E-09
 -1       888 7.51533E+05 1.08189E+05 1.96315E+04 2.89593E+05 5.80025E-09-4.01178E-09
 -1       889 7.59990E+05 1.54320E+05 5.34891E+04 2.99694E+05-3.33955E-09-6.42467E-09
 -1       890 7.36728E+05 8.66113E+04 8.31014E+04 2.92313E+05-3.29146E-09-3.30328E-09
 -1       891 2.84370E+03-3.23492E+05-1.18946E+04 2.13984E+04-9.78707E-09 2.18006E-09
 -1       892-5.11281E+03-3.27530E+05-9.88076E+03 1.19270E+05 1.96869E-08 2.08513E-09
 -1       893 8.61804E+02-3.24801E+05-7.96669E+03 2.12365E+04 2.28442E-09 3.19403E-09
 -1       894-8.07829E+03-3.29124E+05-1.47464E+04 1.19231E+05 2.67464E-08-3.83443E-09
 -1       895 5.37790E+03-3.21830E+05-2.09365E+04 2.14359E+04 1.85901E-09 1.84173E-09
 -1       896 8.81082E+05-4.02053E+03 1.45878E+04-2.59039E+03-8.59472E-11-3.83807E-10
 -1       897 8.86595E+05 5.03763E+03 9.55497E+03-1.83174E+04 9.09495E-13-3.61979E-10
 -1       898 8.83337E+05-4.64721E+02 3.79860E+03-2.79965E+03 1.25510E-10-1.79170E-10
 -1       899 8.84001E+05 5.36591E+02 2.19105E+03-1.79241E+04 3.62888E-10-5.39444E-11
 -1       900 8.83609E+05-5.94931E+01 1.02033E+03-2.98311E+03 8.64020E-11 2.44427E-12
 -1       901 8.83652E+05 5.95167E+01 6.45282E+02-1.76238E+04-5.24551E-10-2.05830E-10
 -1       902 8.83639E+05-1.08364E+01 4.97777E+02-3.09998E+03-3.42538E-10-2.39623E-10
 -1       903 8.83617E+05 3.85994E+01 6.61294E+02-1.74554E+04-2.26805E-10-1.44951E-10
 -1       904 8.83618E+05-2.52179E+01 1.09596E+03-3.15152E+03-1.40574E-10 5.50386E-11
 -1       905 8.83792E+05 2.65465E+02 2.23438E+03-1.74187E+04-1.82922E-10-1.22952E-10
 -1       906 8.83457E+05-2.17840E+02 4.14945E+03-3.13658E+03 1.68257E-10-3.88809E-11
 -1       907 8.85154E+05 2.38841E+03 9.28822E+03-1.75117E+04-1.29603E-10 6.12545E-10
 -1       908 8.82265E+05-1.92039E+03 1.63328E+04-3.05850E+03-1.63936E-10 5.45697E-11
 -1       909 8.96088E+05 2.18432E+04 4.10886E+04-1.77076E+04 1.55751E-10-4.28827E-10
 -1       910 8.72543E+05-1.71568E+04 6.28967E+04-2.94199E+03-6.86668E-11 4.36557E-11
 -1       911 2.81925E+05-2.30563E+03 8.29134E+03-3.87377E+03 4.15639E-10 7.76254E-10
 -1       912 2.85111E+05 2.88185E+03 5.44429E+03-2.21407E+04 2.35104E-10 8.53561E-10
 -1       913 2.83203E+05-2.68661E+02 2.16451E+03-3.90368E+03-4.37012E-10-4.09273E-12
 -1       914 2.83595E+05 3.31813E+02 1.26499E+03-2.20549E+04-1.47338E-10 5.62068E-10
 -1       915 2.83354E+05-3.06488E+01 6.12993E+02-3.95942E+03 8.26731E-10 5.67013E-10
 -1       916 2.83376E+05 6.98827E+01 4.37074E+02-2.19669E+04 1.55501E-09 6.55263E-10
 -1       917 2.83367E+05-9.23106E-01 4.19691E+02-3.99162E+03 9.33824E-10 3.89292E-10
 -1       918 2.83366E+05 7.33673E+01 6.59144E+02-2.19294E+04 9.04492E-10 3.47228E-10
 -1       919 2.83342E+05-2.14519E+01 1.16992E+03-3.99699E+03 7.59428E-10 4.36074E-10
 -1       920 2.83574E+05 3.20649E+02 2.43430E+03-2.19450E+04 1.69325E-09 4.87489E-10
 -1       921 2.83167E+05-2.37172E+02 4.54063E+03-3.97598E+03 7.83302E-10 3.50155E-10
 -1       922 2.85093E+05 2.64376E+03 1.01853E+04-2.20104E+04 1.65585E-09 7.48514E-10
 -1       923 2.81864E+05-2.11231E+03 1.79091E+04-3.93140E+03 4.76575E-10-2.00089E-11
 -1       924 2.97125E+05 2.39884E+04 4.50848E+04-2.20779E+04 5.57520E-10-1.04137E-10
 -1       925 2.71208E+05-1.88461E+04 6.90065E+04-3.90915E+03 2.63299E-10-2.65572E-10
 -1       926-1.14976E+06 1.70424E+04-6.24041E+04 5.63426E+02 7.33962E-10-5.38421E-10
 -1       927-1.17306E+06-2.17102E+04-4.07713E+04 4.61931E+03-4.14047E-10 5.52973E-10
 -1       928-1.15939E+06 1.90509E+03-1.61948E+04 4.72414E+02 1.02432E-10 1.46429E-10
 -1       929-1.16223E+06-2.36866E+03-9.20802E+03 4.76596E+03 1.24533E-09-1.11311E-09
 -1       930-1.16057E+06 2.17618E+02-4.11401E+03 4.16393E+02 8.92442E-11-2.06910E-11
 -1       931-1.16089E+06-2.52910E+02-2.22098E+03 4.84984E+03-5.94852E-10-1.85537E-10
 -1       932-1.16073E+06 2.75153E+01-1.10222E+03 3.88421E+02 6.51681E-10-3.75849E-10
 -1       933-1.16071E+06-3.04222E+01-6.91704E+02 4.87846E+03 1.24959E-10-5.02212E-10
 -1       934-1.16075E+06 1.19189E+01-5.67513E+02 3.87750E+02-2.93497E-10 4.26610E-11
 -1       935-1.16074E+06-7.63476E+01-7.95489E+02 4.85215E+03 5.20686E-10-6.07166E-10
 -1       936-1.16070E+06 6.70631E+01-1.31236E+03 4.14745E+02 2.87628E-11 4.92264E-11
 -1       937-1.16114E+06-7.20113E+02-2.83749E+03 4.77077E+03 5.91683E-10-1.03114E-09
 -1       938-1.16034E+06 5.80852E+02-4.95415E+03 4.69168E+02 5.47516E-10-9.56334E-10
 -1       939-1.16444E+06-6.62015E+03-1.24424E+04 4.62566E+03 5.41888E-10-3.51065E-10
 -1       940-1.15741E+06 5.19653E+03-1.90406E+04 5.59995E+02 3.68345E-11 2.44654E-10
 -1       941 2.85441E+06-9.56316E+04 3.52095E+05-5.86953E+01 2.33723E-09 3.12866E-09
 -1       942 2.98597E+06 1.22013E+05 2.29778E+05-3.34333E+03 1.94399E-09-2.96859E-09
 -1       943 2.90878E+06-1.06883E+04 9.14983E+04 4.62511E+01 5.48766E-10-1.92813E-10
 -1       944 2.92511E+06 1.33165E+04 5.20922E+04-3.61311E+03-9.42237E-10-1.60162E-09
 -1       945 2.91548E+06-1.21974E+03 2.34535E+04 2.13703E+02 1.23998E-09 2.05910E-09
 -1       946 2.91761E+06 1.44774E+03 1.29383E+04-4.00904E+03 1.50794E-09 3.77645E-09
 -1       947 2.91637E+06-1.61242E+02 6.96147E+03 4.42551E+02 7.70569E-10 2.49520E-09
 -1       948 2.91671E+06 2.65262E+02 5.40315E+03-4.53953E+03 6.25732E-10 1.85319E-09
 -1       949 2.91640E+06-1.37121E+02 6.07175E+03 7.44203E+02-1.79807E-09-4.57521E-09
 -1       950 2.91738E+06 1.14932E+03 1.05722E+04-5.22862E+03 2.43199E-09 2.91857E-09
 -1       951 2.91570E+06-9.76406E+02 1.88000E+04 1.13167E+03-1.63118E-09-4.16549E-09
 -1       952 2.92336E+06 1.05849E+04 4.15383E+04-6.10587E+03-1.16324E-09-2.34195E-09
 -1       953 2.91037E+06-8.51689E+03 7.28623E+04 1.62053E+03-1.43814E-09 1.07320E-09
 -1       954 2.97184E+06 9.71039E+04 1.82934E+05-7.22755E+03-5.79507E-09-3.31784E-09
 -1       955 2.86706E+06-7.61570E+04 2.80208E+05 2.23331E+03-1.61253E-09-1.00408E-09
 -1       956-2.74595E+05-5.84373E+03-1.17187E+04 6.11155E+04-1.28894E-08 2.11003E-09
 -1       957-2.76715E+05-1.71937E+03-5.87497E+03 7.01060E+04-2.73303E-09 3.13321E-09
 -1       958-2.75618E+05-1.00951E+02-2.64523E+03 6.07214E+04 1.02918E-08 2.07001E-09
 -1       959-2.75886E+05 1.84827E+02-1.33828E+03 7.05323E+04-6.98856E-09 3.76531E-09
 -1       960-2.75815E+05 2.54573E+02-6.49565E+02 6.06773E+04-1.66892E-08 1.66438E-09
 -1       961-2.75907E+05 3.32995E+02-3.34175E+02 7.05811E+04-2.66555E-08 4.18913E-09
 -1       962-2.75911E+05 3.03691E+02-1.78338E+02 6.06706E+04-1.28148E-08 4.37058E-09
 -1       963-2.75974E+05 3.75030E+02-1.15221E+02 7.05897E+04-1.96596E-08 5.64796E-09
 -1       964-2.75967E+05 3.34238E+02-1.08898E+02 6.06678E+04-2.52021E-09 3.25872E-09
 -1       965-2.76022E+05 3.99276E+02-1.60712E+02 7.05909E+04 1.09101E-08 2.02817E-09
 -1       966-2.75985E+05 3.49309E+02-2.88220E+02 6.06689E+04-6.67364E-09 3.42789E-09
 -1       967-2.76073E+05 3.67192E+02-5.86781E+02 7.05739E+04 4.63672E-10 4.82851E-09
 -1       968-2.75942E+05 2.20122E+02-1.15286E+03 6.06852E+04 5.32054E-10 3.61706E-09
 -1       969-2.76474E+05-4.46381E+02-2.56666E+03 7.04092E+04 2.97177E-10 5.07998E-09
 -1       970-2.75515E+05-2.28312E+03-5.11704E+03 6.08424E+04 4.70618E-09 2.35468E-09
 -1       971-8.48513E+05 1.56463E+04-5.75523E+04 2.10332E+03-5.25688E-09 7.13044E-10
 -1       972-8.69959E+05-1.98528E+04-3.75631E+04 2.46654E+04-1.26552E-08-3.37423E-10
 -1       973-8.57403E+05 1.74047E+03-1.49604E+04 1.66863E+03-2.25064E-08-1.29603E-09
 -1       974-8.60124E+05-1.98601E+03-8.50547E+03 2.53727E+04-6.34145E-09-1.91039E-09
 -1       975-8.58498E+05 2.11349E+02-3.85302E+03 1.38938E+03-3.52293E-09-2.76327E-09
 -1       976-8.58992E+05-5.80742E-01-2.15089E+03 2.58123E+04-1.88198E-08-2.32944E-09
 -1       977-8.58645E+05 5.37093E+01-1.22714E+03 1.22665E+03 2.25700E-08-2.66692E-09
 -1       978-8.58903E+05 2.04313E+02-1.07221E+03 2.60253E+04 4.45685E-08-5.89233E-09
 -1       979-8.58642E+05 6.28146E+01-1.36474E+03 1.17514E+03 2.46904E-08-4.40156E-09
 -1       980-8.59079E+05-2.71922E+01-2.52616E+03 2.60152E+04 2.67032E-08-3.71608E-09
 -1       981-8.58468E+05 2.65430E+02-4.57959E+03 1.23674E+03-1.37190E-08-7.65567E-10
 -1       982-8.60503E+05-2.38020E+03-1.01776E+04 2.57814E+04-1.17486E-08-2.40425E-09
 -1       983-8.57162E+05 2.11076E+03-1.78920E+04 1.41102E+03 8.26549E-09-3.15595E-09
 -1       984-8.72351E+05-2.37531E+04-4.49864E+04 2.53009E+04-6.67910E-09-2.40198E-09
 -1       985-8.46517E+05 1.87815E+04-6.88860E+04 1.72749E+03 6.88715E-09-2.47383E-09
 -3
 9999
