    1C
    1UUSER                                                              
    1UDATE              11.october.2022                                 
    1UTIME              17:50:16                                        
    1UHOST                                                              
    1UPGM               CalculiX                                        
    1UVERSION           Version 2.20                             
    1UCOMPILETIME       Sun Jul 31 18:08:37 CEST 2022                    
    1UDIR                                                               
    1UDBN                                                               
    1UMAT    1MESH_MATERIAL                                             
    2C                           382                                     1
 -1         1 0.00000E+00 0.00000E+00 0.00000E+00
 -1         3 3.33333E-02 0.00000E+00 0.00000E+00
 -1         5 6.66667E-02 0.00000E+00 0.00000E+00
 -1         8 0.00000E+00 6.25000E-03 0.00000E+00
 -1         9 1.66667E-02 6.25000E-03 0.00000E+00
 -1        10 3.33333E-02 6.25000E-03 0.00000E+00
 -1        12 6.66667E-02 6.25000E-03 0.00000E+00
 -1        16 1.66667E-02 1.25000E-02 0.00000E+00
 -1        17 3.33333E-02 1.25000E-02 0.00000E+00
 -1        18 5.00000E-02 1.25000E-02 0.00000E+00
 -1        19 6.66667E-02 1.25000E-02 0.00000E+00
 -1        20 8.33333E-02 1.25000E-02 0.00000E+00
 -1        21 1.00000E-01 1.25000E-02 0.00000E+00
 -1        24 3.33333E-02 1.87500E-02 0.00000E+00
 -1        25 5.00000E-02 1.87500E-02 0.00000E+00
 -1        26 6.66667E-02 1.87500E-02 0.00000E+00
 -1        27 8.33333E-02 1.87500E-02 0.00000E+00
 -1        28 1.00000E-01 1.87500E-02 0.00000E+00
 -1        32 5.00000E-02 2.50000E-02 0.00000E+00
 -1        33 6.66667E-02 2.50000E-02 0.00000E+00
 -1        34 8.33333E-02 2.50000E-02 0.00000E+00
 -1        35 1.00000E-01 2.50000E-02 0.00000E+00
 -1        51 0.00000E+00 1.04167E-03 0.00000E+00
 -1        52 0.00000E+00 2.08333E-03 0.00000E+00
 -1        53 0.00000E+00 3.12500E-03 0.00000E+00
 -1        54 0.00000E+00 4.16667E-03 0.00000E+00
 -1        55 0.00000E+00 5.20833E-03 0.00000E+00
 -1        56 1.04167E-03 3.90630E-04 0.00000E+00
 -1        57 2.08333E-03 7.81250E-04 0.00000E+00
 -1        58 3.12500E-03 1.17188E-03 0.00000E+00
 -1        59 4.16667E-03 1.56250E-03 0.00000E+00
 -1        60 5.20833E-03 1.95312E-03 0.00000E+00
 -1        61 6.25000E-03 2.34375E-03 0.00000E+00
 -1        62 7.29167E-03 2.73438E-03 0.00000E+00
 -1        63 8.33333E-03 3.12500E-03 0.00000E+00
 -1        64 9.37500E-03 3.51563E-03 0.00000E+00
 -1        65 1.04167E-02 3.90625E-03 0.00000E+00
 -1        66 1.14583E-02 4.29688E-03 0.00000E+00
 -1        67 1.25000E-02 4.68750E-03 0.00000E+00
 -1        68 1.35417E-02 5.07813E-03 0.00000E+00
 -1        69 1.45833E-02 5.46875E-03 0.00000E+00
 -1        70 1.56250E-02 5.85938E-03 0.00000E+00
 -1       121 3.33333E-02 1.04167E-03 0.00000E+00
 -1       122 3.33333E-02 2.08333E-03 0.00000E+00
 -1       123 3.33333E-02 3.12500E-03 0.00000E+00
 -1       124 3.33333E-02 4.16667E-03 0.00000E+00
 -1       125 3.33333E-02 5.20833E-03 0.00000E+00
 -1       191 6.66667E-02 1.04167E-03 0.00000E+00
 -1       192 6.66667E-02 2.08333E-03 0.00000E+00
 -1       193 6.66667E-02 3.12500E-03 0.00000E+00
 -1       194 6.66667E-02 4.16667E-03 0.00000E+00
 -1       195 6.66667E-02 5.20833E-03 0.00000E+00
 -1       271 1.04167E-03 6.64063E-03 0.00000E+00
 -1       272 2.08333E-03 7.03125E-03 0.00000E+00
 -1       273 3.12500E-03 7.42188E-03 0.00000E+00
 -1       274 4.16667E-03 7.81250E-03 0.00000E+00
 -1       275 5.20833E-03 8.20313E-03 0.00000E+00
 -1       276 6.25000E-03 8.59375E-03 0.00000E+00
 -1       277 7.29167E-03 8.98438E-03 0.00000E+00
 -1       278 8.33333E-03 9.37500E-03 0.00000E+00
 -1       279 9.37500E-03 9.76562E-03 0.00000E+00
 -1       280 1.04167E-02 1.01562E-02 0.00000E+00
 -1       281 1.14583E-02 1.05469E-02 0.00000E+00
 -1       282 1.25000E-02 1.09375E-02 0.00000E+00
 -1       283 1.35417E-02 1.13281E-02 0.00000E+00
 -1       284 1.45833E-02 1.17188E-02 0.00000E+00
 -1       285 1.56250E-02 1.21094E-02 0.00000E+00
 -1       301 1.66667E-02 7.29167E-03 0.00000E+00
 -1       302 1.66667E-02 8.33333E-03 0.00000E+00
 -1       303 1.66667E-02 9.37500E-03 0.00000E+00
 -1       304 1.66667E-02 1.04167E-02 0.00000E+00
 -1       305 1.66667E-02 1.14583E-02 0.00000E+00
 -1       306 1.77083E-02 6.64063E-03 0.00000E+00
 -1       307 1.87500E-02 7.03125E-03 0.00000E+00
 -1       308 1.97917E-02 7.42188E-03 0.00000E+00
 -1       309 2.08333E-02 7.81250E-03 0.00000E+00
 -1       310 2.18750E-02 8.20313E-03 0.00000E+00
 -1       311 2.29167E-02 8.59375E-03 0.00000E+00
 -1       312 2.39583E-02 8.98438E-03 0.00000E+00
 -1       313 2.50000E-02 9.37500E-03 0.00000E+00
 -1       314 2.60417E-02 9.76562E-03 0.00000E+00
 -1       315 2.70833E-02 1.01562E-02 0.00000E+00
 -1       316 2.81250E-02 1.05469E-02 0.00000E+00
 -1       317 2.91667E-02 1.09375E-02 0.00000E+00
 -1       318 3.02083E-02 1.13281E-02 0.00000E+00
 -1       319 3.12500E-02 1.17188E-02 0.00000E+00
 -1       320 3.22917E-02 1.21094E-02 0.00000E+00
 -1       336 3.33333E-02 7.29167E-03 0.00000E+00
 -1       337 3.33333E-02 8.33333E-03 0.00000E+00
 -1       338 3.33333E-02 9.37500E-03 0.00000E+00
 -1       339 3.33333E-02 1.04167E-02 0.00000E+00
 -1       340 3.33333E-02 1.14583E-02 0.00000E+00
 -1       406 6.66667E-02 7.29167E-03 0.00000E+00
 -1       407 6.66667E-02 8.33333E-03 0.00000E+00
 -1       408 6.66667E-02 9.37500E-03 0.00000E+00
 -1       409 6.66667E-02 1.04167E-02 0.00000E+00
 -1       410 6.66667E-02 1.14583E-02 0.00000E+00
 -1       521 1.77083E-02 1.28906E-02 0.00000E+00
 -1       522 1.87500E-02 1.32813E-02 0.00000E+00
 -1       523 1.97917E-02 1.36719E-02 0.00000E+00
 -1       524 2.08333E-02 1.40625E-02 0.00000E+00
 -1       525 2.18750E-02 1.44531E-02 0.00000E+00
 -1       526 2.29167E-02 1.48437E-02 0.00000E+00
 -1       527 2.39583E-02 1.52344E-02 0.00000E+00
 -1       528 2.50000E-02 1.56250E-02 0.00000E+00
 -1       529 2.60417E-02 1.60156E-02 0.00000E+00
 -1       530 2.70833E-02 1.64062E-02 0.00000E+00
 -1       531 2.81250E-02 1.67969E-02 0.00000E+00
 -1       532 2.91667E-02 1.71875E-02 0.00000E+00
 -1       533 3.02083E-02 1.75781E-02 0.00000E+00
 -1       534 3.12500E-02 1.79687E-02 0.00000E+00
 -1       535 3.22917E-02 1.83594E-02 0.00000E+00
 -1       536 3.43750E-02 1.25000E-02 0.00000E+00
 -1       537 3.54167E-02 1.25000E-02 0.00000E+00
 -1       538 3.64583E-02 1.25000E-02 0.00000E+00
 -1       539 3.75000E-02 1.25000E-02 0.00000E+00
 -1       540 3.85417E-02 1.25000E-02 0.00000E+00
 -1       541 3.95833E-02 1.25000E-02 0.00000E+00
 -1       542 4.06250E-02 1.25000E-02 0.00000E+00
 -1       543 4.16667E-02 1.25000E-02 0.00000E+00
 -1       544 4.27083E-02 1.25000E-02 0.00000E+00
 -1       545 4.37500E-02 1.25000E-02 0.00000E+00
 -1       546 4.47917E-02 1.25000E-02 0.00000E+00
 -1       547 4.58333E-02 1.25000E-02 0.00000E+00
 -1       548 4.68750E-02 1.25000E-02 0.00000E+00
 -1       549 4.79167E-02 1.25000E-02 0.00000E+00
 -1       550 4.89583E-02 1.25000E-02 0.00000E+00
 -1       551 3.33333E-02 1.35417E-02 0.00000E+00
 -1       552 3.33333E-02 1.45833E-02 0.00000E+00
 -1       553 3.33333E-02 1.56250E-02 0.00000E+00
 -1       554 3.33333E-02 1.66667E-02 0.00000E+00
 -1       555 3.33333E-02 1.77083E-02 0.00000E+00
 -1       556 3.43750E-02 1.28906E-02 0.00000E+00
 -1       557 3.54167E-02 1.32813E-02 0.00000E+00
 -1       558 3.64583E-02 1.36719E-02 0.00000E+00
 -1       559 3.75000E-02 1.40625E-02 0.00000E+00
 -1       560 3.85417E-02 1.44531E-02 0.00000E+00
 -1       561 3.95833E-02 1.48437E-02 0.00000E+00
 -1       562 4.06250E-02 1.52344E-02 0.00000E+00
 -1       563 4.16667E-02 1.56250E-02 0.00000E+00
 -1       564 4.27083E-02 1.60156E-02 0.00000E+00
 -1       565 4.37500E-02 1.64062E-02 0.00000E+00
 -1       566 4.47917E-02 1.67969E-02 0.00000E+00
 -1       567 4.58333E-02 1.71875E-02 0.00000E+00
 -1       568 4.68750E-02 1.75781E-02 0.00000E+00
 -1       569 4.79167E-02 1.79687E-02 0.00000E+00
 -1       570 4.89583E-02 1.83594E-02 0.00000E+00
 -1       571 5.10417E-02 1.25000E-02 0.00000E+00
 -1       572 5.20833E-02 1.25000E-02 0.00000E+00
 -1       573 5.31250E-02 1.25000E-02 0.00000E+00
 -1       574 5.41667E-02 1.25000E-02 0.00000E+00
 -1       575 5.52083E-02 1.25000E-02 0.00000E+00
 -1       576 5.62500E-02 1.25000E-02 0.00000E+00
 -1       577 5.72917E-02 1.25000E-02 0.00000E+00
 -1       578 5.83333E-02 1.25000E-02 0.00000E+00
 -1       579 5.93750E-02 1.25000E-02 0.00000E+00
 -1       580 6.04167E-02 1.25000E-02 0.00000E+00
 -1       581 6.14583E-02 1.25000E-02 0.00000E+00
 -1       582 6.25000E-02 1.25000E-02 0.00000E+00
 -1       583 6.35417E-02 1.25000E-02 0.00000E+00
 -1       584 6.45833E-02 1.25000E-02 0.00000E+00
 -1       585 6.56250E-02 1.25000E-02 0.00000E+00
 -1       586 5.00000E-02 1.35417E-02 0.00000E+00
 -1       587 5.00000E-02 1.45833E-02 0.00000E+00
 -1       588 5.00000E-02 1.56250E-02 0.00000E+00
 -1       589 5.00000E-02 1.66667E-02 0.00000E+00
 -1       590 5.00000E-02 1.77083E-02 0.00000E+00
 -1       591 5.10417E-02 1.28906E-02 0.00000E+00
 -1       592 5.20833E-02 1.32813E-02 0.00000E+00
 -1       593 5.31250E-02 1.36719E-02 0.00000E+00
 -1       594 5.41667E-02 1.40625E-02 0.00000E+00
 -1       595 5.52083E-02 1.44531E-02 0.00000E+00
 -1       596 5.62500E-02 1.48437E-02 0.00000E+00
 -1       597 5.72917E-02 1.52344E-02 0.00000E+00
 -1       598 5.83333E-02 1.56250E-02 0.00000E+00
 -1       599 5.93750E-02 1.60156E-02 0.00000E+00
 -1       600 6.04167E-02 1.64062E-02 0.00000E+00
 -1       601 6.14583E-02 1.67969E-02 0.00000E+00
 -1       602 6.25000E-02 1.71875E-02 0.00000E+00
 -1       603 6.35417E-02 1.75781E-02 0.00000E+00
 -1       604 6.45833E-02 1.79687E-02 0.00000E+00
 -1       605 6.56250E-02 1.83594E-02 0.00000E+00
 -1       606 6.77083E-02 1.25000E-02 0.00000E+00
 -1       607 6.87500E-02 1.25000E-02 0.00000E+00
 -1       608 6.97917E-02 1.25000E-02 0.00000E+00
 -1       609 7.08333E-02 1.25000E-02 0.00000E+00
 -1       610 7.18750E-02 1.25000E-02 0.00000E+00
 -1       611 7.29167E-02 1.25000E-02 0.00000E+00
 -1       612 7.39583E-02 1.25000E-02 0.00000E+00
 -1       613 7.50000E-02 1.25000E-02 0.00000E+00
 -1       614 7.60417E-02 1.25000E-02 0.00000E+00
 -1       615 7.70833E-02 1.25000E-02 0.00000E+00
 -1       616 7.81250E-02 1.25000E-02 0.00000E+00
 -1       617 7.91667E-02 1.25000E-02 0.00000E+00
 -1       618 8.02083E-02 1.25000E-02 0.00000E+00
 -1       619 8.12500E-02 1.25000E-02 0.00000E+00
 -1       620 8.22917E-02 1.25000E-02 0.00000E+00
 -1       621 6.66667E-02 1.35417E-02 0.00000E+00
 -1       622 6.66667E-02 1.45833E-02 0.00000E+00
 -1       623 6.66667E-02 1.56250E-02 0.00000E+00
 -1       624 6.66667E-02 1.66667E-02 0.00000E+00
 -1       625 6.66667E-02 1.77083E-02 0.00000E+00
 -1       626 6.77083E-02 1.28906E-02 0.00000E+00
 -1       627 6.87500E-02 1.32813E-02 0.00000E+00
 -1       628 6.97917E-02 1.36719E-02 0.00000E+00
 -1       629 7.08333E-02 1.40625E-02 0.00000E+00
 -1       630 7.18750E-02 1.44531E-02 0.00000E+00
 -1       631 7.29167E-02 1.48437E-02 0.00000E+00
 -1       632 7.39583E-02 1.52344E-02 0.00000E+00
 -1       633 7.50000E-02 1.56250E-02 0.00000E+00
 -1       634 7.60417E-02 1.60156E-02 0.00000E+00
 -1       635 7.70833E-02 1.64062E-02 0.00000E+00
 -1       636 7.81250E-02 1.67969E-02 0.00000E+00
 -1       637 7.91667E-02 1.71875E-02 0.00000E+00
 -1       638 8.02083E-02 1.75781E-02 0.00000E+00
 -1       639 8.12500E-02 1.79687E-02 0.00000E+00
 -1       640 8.22917E-02 1.83594E-02 0.00000E+00
 -1       656 8.33333E-02 1.35417E-02 0.00000E+00
 -1       657 8.33333E-02 1.45833E-02 0.00000E+00
 -1       658 8.33333E-02 1.56250E-02 0.00000E+00
 -1       659 8.33333E-02 1.66667E-02 0.00000E+00
 -1       660 8.33333E-02 1.77083E-02 0.00000E+00
 -1       661 8.43750E-02 1.28906E-02 0.00000E+00
 -1       662 8.54167E-02 1.32813E-02 0.00000E+00
 -1       663 8.64583E-02 1.36719E-02 0.00000E+00
 -1       664 8.75000E-02 1.40625E-02 0.00000E+00
 -1       665 8.85417E-02 1.44531E-02 0.00000E+00
 -1       666 8.95833E-02 1.48437E-02 0.00000E+00
 -1       667 9.06250E-02 1.52344E-02 0.00000E+00
 -1       668 9.16667E-02 1.56250E-02 0.00000E+00
 -1       669 9.27083E-02 1.60156E-02 0.00000E+00
 -1       670 9.37500E-02 1.64062E-02 0.00000E+00
 -1       671 9.47917E-02 1.67969E-02 0.00000E+00
 -1       672 9.58333E-02 1.71875E-02 0.00000E+00
 -1       673 9.68750E-02 1.75781E-02 0.00000E+00
 -1       674 9.79167E-02 1.79687E-02 0.00000E+00
 -1       675 9.89583E-02 1.83594E-02 0.00000E+00
 -1       676 1.00000E-01 1.35417E-02 0.00000E+00
 -1       677 1.00000E-01 1.45833E-02 0.00000E+00
 -1       678 1.00000E-01 1.56250E-02 0.00000E+00
 -1       679 1.00000E-01 1.66667E-02 0.00000E+00
 -1       680 1.00000E-01 1.77083E-02 0.00000E+00
 -1       771 3.43750E-02 1.91406E-02 0.00000E+00
 -1       772 3.54167E-02 1.95312E-02 0.00000E+00
 -1       773 3.64583E-02 1.99219E-02 0.00000E+00
 -1       774 3.75000E-02 2.03125E-02 0.00000E+00
 -1       775 3.85417E-02 2.07031E-02 0.00000E+00
 -1       776 3.95833E-02 2.10938E-02 0.00000E+00
 -1       777 4.06250E-02 2.14844E-02 0.00000E+00
 -1       778 4.16667E-02 2.18750E-02 0.00000E+00
 -1       779 4.27083E-02 2.22656E-02 0.00000E+00
 -1       780 4.37500E-02 2.26563E-02 0.00000E+00
 -1       781 4.47917E-02 2.30469E-02 0.00000E+00
 -1       782 4.58333E-02 2.34375E-02 0.00000E+00
 -1       783 4.68750E-02 2.38281E-02 0.00000E+00
 -1       784 4.79167E-02 2.42187E-02 0.00000E+00
 -1       785 4.89583E-02 2.46094E-02 0.00000E+00
 -1       786 5.10417E-02 1.87500E-02 0.00000E+00
 -1       787 5.20833E-02 1.87500E-02 0.00000E+00
 -1       788 5.31250E-02 1.87500E-02 0.00000E+00
 -1       789 5.41667E-02 1.87500E-02 0.00000E+00
 -1       790 5.52083E-02 1.87500E-02 0.00000E+00
 -1       791 5.62500E-02 1.87500E-02 0.00000E+00
 -1       792 5.72917E-02 1.87500E-02 0.00000E+00
 -1       793 5.83333E-02 1.87500E-02 0.00000E+00
 -1       794 5.93750E-02 1.87500E-02 0.00000E+00
 -1       795 6.04167E-02 1.87500E-02 0.00000E+00
 -1       796 6.14583E-02 1.87500E-02 0.00000E+00
 -1       797 6.25000E-02 1.87500E-02 0.00000E+00
 -1       798 6.35417E-02 1.87500E-02 0.00000E+00
 -1       799 6.45833E-02 1.87500E-02 0.00000E+00
 -1       800 6.56250E-02 1.87500E-02 0.00000E+00
 -1       801 5.00000E-02 1.97917E-02 0.00000E+00
 -1       802 5.00000E-02 2.08333E-02 0.00000E+00
 -1       803 5.00000E-02 2.18750E-02 0.00000E+00
 -1       804 5.00000E-02 2.29167E-02 0.00000E+00
 -1       805 5.00000E-02 2.39583E-02 0.00000E+00
 -1       806 5.10417E-02 1.91406E-02 0.00000E+00
 -1       807 5.20833E-02 1.95312E-02 0.00000E+00
 -1       808 5.31250E-02 1.99219E-02 0.00000E+00
 -1       809 5.41667E-02 2.03125E-02 0.00000E+00
 -1       810 5.52083E-02 2.07031E-02 0.00000E+00
 -1       811 5.62500E-02 2.10938E-02 0.00000E+00
 -1       812 5.72917E-02 2.14844E-02 0.00000E+00
 -1       813 5.83333E-02 2.18750E-02 0.00000E+00
 -1       814 5.93750E-02 2.22656E-02 0.00000E+00
 -1       815 6.04167E-02 2.26563E-02 0.00000E+00
 -1       816 6.14583E-02 2.30469E-02 0.00000E+00
 -1       817 6.25000E-02 2.34375E-02 0.00000E+00
 -1       818 6.35417E-02 2.38281E-02 0.00000E+00
 -1       819 6.45833E-02 2.42187E-02 0.00000E+00
 -1       820 6.56250E-02 2.46094E-02 0.00000E+00
 -1       821 6.77083E-02 1.87500E-02 0.00000E+00
 -1       822 6.87500E-02 1.87500E-02 0.00000E+00
 -1       823 6.97917E-02 1.87500E-02 0.00000E+00
 -1       824 7.08333E-02 1.87500E-02 0.00000E+00
 -1       825 7.18750E-02 1.87500E-02 0.00000E+00
 -1       826 7.29167E-02 1.87500E-02 0.00000E+00
 -1       827 7.39583E-02 1.87500E-02 0.00000E+00
 -1       828 7.50000E-02 1.87500E-02 0.00000E+00
 -1       829 7.60417E-02 1.87500E-02 0.00000E+00
 -1       830 7.70833E-02 1.87500E-02 0.00000E+00
 -1       831 7.81250E-02 1.87500E-02 0.00000E+00
 -1       832 7.91667E-02 1.87500E-02 0.00000E+00
 -1       833 8.02083E-02 1.87500E-02 0.00000E+00
 -1       834 8.12500E-02 1.87500E-02 0.00000E+00
 -1       835 8.22917E-02 1.87500E-02 0.00000E+00
 -1       836 6.66667E-02 1.97917E-02 0.00000E+00
 -1       837 6.66667E-02 2.08333E-02 0.00000E+00
 -1       838 6.66667E-02 2.18750E-02 0.00000E+00
 -1       839 6.66667E-02 2.29167E-02 0.00000E+00
 -1       840 6.66667E-02 2.39583E-02 0.00000E+00
 -1       856 8.43750E-02 1.87500E-02 0.00000E+00
 -1       857 8.54167E-02 1.87500E-02 0.00000E+00
 -1       858 8.64583E-02 1.87500E-02 0.00000E+00
 -1       859 8.75000E-02 1.87500E-02 0.00000E+00
 -1       860 8.85417E-02 1.87500E-02 0.00000E+00
 -1       861 8.95833E-02 1.87500E-02 0.00000E+00
 -1       862 9.06250E-02 1.87500E-02 0.00000E+00
 -1       863 9.16667E-02 1.87500E-02 0.00000E+00
 -1       864 9.27083E-02 1.87500E-02 0.00000E+00
 -1       865 9.37500E-02 1.87500E-02 0.00000E+00
 -1       866 9.47917E-02 1.87500E-02 0.00000E+00
 -1       867 9.58333E-02 1.87500E-02 0.00000E+00
 -1       868 9.68750E-02 1.87500E-02 0.00000E+00
 -1       869 9.79167E-02 1.87500E-02 0.00000E+00
 -1       870 9.89583E-02 1.87500E-02 0.00000E+00
 -1       871 8.33333E-02 1.97917E-02 0.00000E+00
 -1       872 8.33333E-02 2.08333E-02 0.00000E+00
 -1       873 8.33333E-02 2.18750E-02 0.00000E+00
 -1       874 8.33333E-02 2.29167E-02 0.00000E+00
 -1       875 8.33333E-02 2.39583E-02 0.00000E+00
 -1       876 8.43750E-02 1.91406E-02 0.00000E+00
 -1       877 8.54167E-02 1.95312E-02 0.00000E+00
 -1       878 8.64583E-02 1.99219E-02 0.00000E+00
 -1       879 8.75000E-02 2.03125E-02 0.00000E+00
 -1       880 8.85417E-02 2.07031E-02 0.00000E+00
 -1       881 8.95833E-02 2.10938E-02 0.00000E+00
 -1       882 9.06250E-02 2.14844E-02 0.00000E+00
 -1       883 9.16667E-02 2.18750E-02 0.00000E+00
 -1       884 9.27083E-02 2.22656E-02 0.00000E+00
 -1       885 9.37500E-02 2.26563E-02 0.00000E+00
 -1       886 9.47917E-02 2.30469E-02 0.00000E+00
 -1       887 9.58333E-02 2.34375E-02 0.00000E+00
 -1       888 9.68750E-02 2.38281E-02 0.00000E+00
 -1       889 9.79167E-02 2.42187E-02 0.00000E+00
 -1       890 9.89583E-02 2.46094E-02 0.00000E+00
 -1       891 1.00000E-01 1.97917E-02 0.00000E+00
 -1       892 1.00000E-01 2.08333E-02 0.00000E+00
 -1       893 1.00000E-01 2.18750E-02 0.00000E+00
 -1       894 1.00000E-01 2.29167E-02 0.00000E+00
 -1       895 1.00000E-01 2.39583E-02 0.00000E+00
 -1       956 6.77083E-02 2.50000E-02 0.00000E+00
 -1       957 6.87500E-02 2.50000E-02 0.00000E+00
 -1       958 6.97917E-02 2.50000E-02 0.00000E+00
 -1       959 7.08333E-02 2.50000E-02 0.00000E+00
 -1       960 7.18750E-02 2.50000E-02 0.00000E+00
 -1       961 7.29167E-02 2.50000E-02 0.00000E+00
 -1       962 7.39583E-02 2.50000E-02 0.00000E+00
 -1       963 7.50000E-02 2.50000E-02 0.00000E+00
 -1       964 7.60417E-02 2.50000E-02 0.00000E+00
 -1       965 7.70833E-02 2.50000E-02 0.00000E+00
 -1       966 7.81250E-02 2.50000E-02 0.00000E+00
 -1       967 7.91667E-02 2.50000E-02 0.00000E+00
 -1       968 8.02083E-02 2.50000E-02 0.00000E+00
 -1       969 8.12500E-02 2.50000E-02 0.00000E+00
 -1       970 8.22917E-02 2.50000E-02 0.00000E+00
 -1       971 8.43750E-02 2.50000E-02 0.00000E+00
 -1       972 8.54167E-02 2.50000E-02 0.00000E+00
 -1       973 8.64583E-02 2.50000E-02 0.00000E+00
 -1       974 8.75000E-02 2.50000E-02 0.00000E+00
 -1       975 8.85417E-02 2.50000E-02 0.00000E+00
 -1       976 8.95833E-02 2.50000E-02 0.00000E+00
 -1       977 9.06250E-02 2.50000E-02 0.00000E+00
 -1       978 9.16667E-02 2.50000E-02 0.00000E+00
 -1       979 9.27083E-02 2.50000E-02 0.00000E+00
 -1       980 9.37500E-02 2.50000E-02 0.00000E+00
 -1       981 9.47917E-02 2.50000E-02 0.00000E+00
 -1       982 9.58333E-02 2.50000E-02 0.00000E+00
 -1       983 9.68750E-02 2.50000E-02 0.00000E+00
 -1       984 9.79167E-02 2.50000E-02 0.00000E+00
 -1       985 9.89583E-02 2.50000E-02 0.00000E+00
 -3
    3C                           197                                     1
 -1         1   12    0    1
 -2         1        52        51
 -1         2   12    0    1
 -2        52        54        53
 -1         3   12    0    1
 -2        54         8        55
 -1         4   12    0    1
 -2         1        57        56
 -1         5   12    0    1
 -2        57        59        58
 -1         6   12    0    1
 -2        59        61        60
 -1         7   12    0    1
 -2        61        63        62
 -1         8   12    0    1
 -2        63        65        64
 -1         9   12    0    1
 -2        65        67        66
 -1        10   12    0    1
 -2        67        69        68
 -1        11   12    0    1
 -2        69         9        70
 -1        12   12    0    1
 -2         3       122       121
 -1        13   12    0    1
 -2       122       124       123
 -1        14   12    0    1
 -2       124        10       125
 -1        15   12    0    1
 -2         5       192       191
 -1        16   12    0    1
 -2       192       194       193
 -1        17   12    0    1
 -2       194        12       195
 -1        18   12    0    1
 -2         8       272       271
 -1        19   12    0    1
 -2       272       274       273
 -1        20   12    0    1
 -2       274       276       275
 -1        21   12    0    1
 -2       276       278       277
 -1        22   12    0    1
 -2       278       280       279
 -1        23   12    0    1
 -2       280       282       281
 -1        24   12    0    1
 -2       282       284       283
 -1        25   12    0    1
 -2       284        16       285
 -1        26   12    0    1
 -2         9       302       301
 -1        27   12    0    1
 -2       302       304       303
 -1        28   12    0    1
 -2       304        16       305
 -1        29   12    0    1
 -2         9       307       306
 -1        30   12    0    1
 -2       307       309       308
 -1        31   12    0    1
 -2       309       311       310
 -1        32   12    0    1
 -2       311       313       312
 -1        33   12    0    1
 -2       313       315       314
 -1        34   12    0    1
 -2       315       317       316
 -1        35   12    0    1
 -2       317       319       318
 -1        36   12    0    1
 -2       319        17       320
 -1        37   12    0    1
 -2        10       337       336
 -1        38   12    0    1
 -2       337       339       338
 -1        39   12    0    1
 -2       339        17       340
 -1        40   12    0    1
 -2        12       407       406
 -1        41   12    0    1
 -2       407       409       408
 -1        42   12    0    1
 -2       409        19       410
 -1        43   12    0    1
 -2        16       522       521
 -1        44   12    0    1
 -2       522       524       523
 -1        45   12    0    1
 -2       524       526       525
 -1        46   12    0    1
 -2       526       528       527
 -1        47   12    0    1
 -2       528       530       529
 -1        48   12    0    1
 -2       530       532       531
 -1        49   12    0    1
 -2       532       534       533
 -1        50   12    0    1
 -2       534        24       535
 -1        51   12    0    1
 -2        17       537       536
 -1        52   12    0    1
 -2       537       539       538
 -1        53   12    0    1
 -2       539       541       540
 -1        54   12    0    1
 -2       541       543       542
 -1        55   12    0    1
 -2       543       545       544
 -1        56   12    0    1
 -2       545       547       546
 -1        57   12    0    1
 -2       547       549       548
 -1        58   12    0    1
 -2       549        18       550
 -1        59   12    0    1
 -2        17       552       551
 -1        60   12    0    1
 -2       552       554       553
 -1        61   12    0    1
 -2       554        24       555
 -1        62   12    0    1
 -2        17       557       556
 -1        63   12    0    1
 -2       557       559       558
 -1        64   12    0    1
 -2       559       561       560
 -1        65   12    0    1
 -2       561       563       562
 -1        66   12    0    1
 -2       563       565       564
 -1        67   12    0    1
 -2       565       567       566
 -1        68   12    0    1
 -2       567       569       568
 -1        69   12    0    1
 -2       569        25       570
 -1        70   12    0    1
 -2        18       572       571
 -1        71   12    0    1
 -2       572       574       573
 -1        72   12    0    1
 -2       574       576       575
 -1        73   12    0    1
 -2       576       578       577
 -1        74   12    0    1
 -2       578       580       579
 -1        75   12    0    1
 -2       580       582       581
 -1        76   12    0    1
 -2       582       584       583
 -1        77   12    0    1
 -2       584        19       585
 -1        78   12    0    1
 -2        18       587       586
 -1        79   12    0    1
 -2       587       589       588
 -1        80   12    0    1
 -2       589        25       590
 -1        81   12    0    1
 -2        18       592       591
 -1        82   12    0    1
 -2       592       594       593
 -1        83   12    0    1
 -2       594       596       595
 -1        84   12    0    1
 -2       596       598       597
 -1        85   12    0    1
 -2       598       600       599
 -1        86   12    0    1
 -2       600       602       601
 -1        87   12    0    1
 -2       602       604       603
 -1        88   12    0    1
 -2       604        26       605
 -1        89   12    0    1
 -2        19       607       606
 -1        90   12    0    1
 -2       607       609       608
 -1        91   12    0    1
 -2       609       611       610
 -1        92   12    0    1
 -2       611       613       612
 -1        93   12    0    1
 -2       613       615       614
 -1        94   12    0    1
 -2       615       617       616
 -1        95   12    0    1
 -2       617       619       618
 -1        96   12    0    1
 -2       619        20       620
 -1        97   12    0    1
 -2        19       622       621
 -1        98   12    0    1
 -2       622       624       623
 -1        99   12    0    1
 -2       624        26       625
 -1       100   12    0    1
 -2        19       627       626
 -1       101   12    0    1
 -2       627       629       628
 -1       102   12    0    1
 -2       629       631       630
 -1       103   12    0    1
 -2       631       633       632
 -1       104   12    0    1
 -2       633       635       634
 -1       105   12    0    1
 -2       635       637       636
 -1       106   12    0    1
 -2       637       639       638
 -1       107   12    0    1
 -2       639        27       640
 -1       108   12    0    1
 -2        20       657       656
 -1       109   12    0    1
 -2       657       659       658
 -1       110   12    0    1
 -2       659        27       660
 -1       111   12    0    1
 -2        20       662       661
 -1       112   12    0    1
 -2       662       664       663
 -1       113   12    0    1
 -2       664       666       665
 -1       114   12    0    1
 -2       666       668       667
 -1       115   12    0    1
 -2       668       670       669
 -1       116   12    0    1
 -2       670       672       671
 -1       117   12    0    1
 -2       672       674       673
 -1       118   12    0    1
 -2       674        28       675
 -1       119   12    0    1
 -2        21       677       676
 -1       120   12    0    1
 -2       677       679       678
 -1       121   12    0    1
 -2       679        28       680
 -1       122   12    0    1
 -2        24       772       771
 -1       123   12    0    1
 -2       772       774       773
 -1       124   12    0    1
 -2       774       776       775
 -1       125   12    0    1
 -2       776       778       777
 -1       126   12    0    1
 -2       778       780       779
 -1       127   12    0    1
 -2       780       782       781
 -1       128   12    0    1
 -2       782       784       783
 -1       129   12    0    1
 -2       784        32       785
 -1       130   12    0    1
 -2        25       787       786
 -1       131   12    0    1
 -2       787       789       788
 -1       132   12    0    1
 -2       789       791       790
 -1       133   12    0    1
 -2       791       793       792
 -1       134   12    0    1
 -2       793       795       794
 -1       135   12    0    1
 -2       795       797       796
 -1       136   12    0    1
 -2       797       799       798
 -1       137   12    0    1
 -2       799        26       800
 -1       138   12    0    1
 -2        25       802       801
 -1       139   12    0    1
 -2       802       804       803
 -1       140   12    0    1
 -2       804        32       805
 -1       141   12    0    1
 -2        25       807       806
 -1       142   12    0    1
 -2       807       809       808
 -1       143   12    0    1
 -2       809       811       810
 -1       144   12    0    1
 -2       811       813       812
 -1       145   12    0    1
 -2       813       815       814
 -1       146   12    0    1
 -2       815       817       816
 -1       147   12    0    1
 -2       817       819       818
 -1       148   12    0    1
 -2       819        33       820
 -1       149   12    0    1
 -2        26       822       821
 -1       150   12    0    1
 -2       822       824       823
 -1       151   12    0    1
 -2       824       826       825
 -1       152   12    0    1
 -2       826       828       827
 -1       153   12    0    1
 -2       828       830       829
 -1       154   12    0    1
 -2       830       832       831
 -1       155   12    0    1
 -2       832       834       833
 -1       156   12    0    1
 -2       834        27       835
 -1       157   12    0    1
 -2        26       837       836
 -1       158   12    0    1
 -2       837       839       838
 -1       159   12    0    1
 -2       839        33       840
 -1       160   12    0    1
 -2        27       857       856
 -1       161   12    0    1
 -2       857       859       858
 -1       162   12    0    1
 -2       859       861       860
 -1       163   12    0    1
 -2       861       863       862
 -1       164   12    0    1
 -2       863       865       864
 -1       165   12    0    1
 -2       865       867       866
 -1       166   12    0    1
 -2       867       869       868
 -1       167   12    0    1
 -2       869        28       870
 -1       168   12    0    1
 -2        27       872       871
 -1       169   12    0    1
 -2       872       874       873
 -1       170   12    0    1
 -2       874        34       875
 -1       171   12    0    1
 -2        27       877       876
 -1       172   12    0    1
 -2       877       879       878
 -1       173   12    0    1
 -2       879       881       880
 -1       174   12    0    1
 -2       881       883       882
 -1       175   12    0    1
 -2       883       885       884
 -1       176   12    0    1
 -2       885       887       886
 -1       177   12    0    1
 -2       887       889       888
 -1       178   12    0    1
 -2       889        35       890
 -1       179   12    0    1
 -2        28       892       891
 -1       180   12    0    1
 -2       892       894       893
 -1       181   12    0    1
 -2       894        35       895
 -1       182   12    0    1
 -2        33       957       956
 -1       183   12    0    1
 -2       957       959       958
 -1       184   12    0    1
 -2       959       961       960
 -1       185   12    0    1
 -2       961       963       962
 -1       186   12    0    1
 -2       963       965       964
 -1       187   12    0    1
 -2       965       967       966
 -1       188   12    0    1
 -2       967       969       968
 -1       189   12    0    1
 -2       969        34       970
 -1       190   12    0    1
 -2        34       972       971
 -1       191   12    0    1
 -2       972       974       973
 -1       192   12    0    1
 -2       974       976       975
 -1       193   12    0    1
 -2       976       978       977
 -1       194   12    0    1
 -2       978       980       979
 -1       195   12    0    1
 -2       980       982       981
 -1       196   12    0    1
 -2       982       984       983
 -1       197   12    0    1
 -2       984        35       985
 -3
    1PSTEP                         1           1           1          
  100CL  101 1.000000000         382                     0    1           1
 -4  DISP        4    1
 -5  D1          1    2    1    0
 -5  D2          1    2    2    0
 -5  D3          1    2    3    0
 -5  ALL         1    2    0    0    1ALL
 -1         1 1.27140E-04 0.00000E+00 0.00000E+00
 -1         3 8.02113E-05-1.53868E-26 0.00000E+00
 -1         5 6.35181E-05 3.62010E-25 0.00000E+00
 -1         8 1.01150E-04-1.37734E-06 0.00000E+00
 -1         9 8.69391E-05-2.50123E-05 0.00000E+00
 -1        10 7.41498E-05-2.46613E-06 0.00000E+00
 -1        12 6.22101E-05 1.24736E-06 0.00000E+00
 -1        16 7.08468E-05-2.51773E-05 0.00000E+00
 -1        17 5.65169E-05-4.94575E-06 0.00000E+00
 -1        18 5.62563E-05-5.14908E-07 0.00000E+00
 -1        19 5.82837E-05 2.48497E-06 0.00000E+00
 -1        20 5.90748E-05 2.69644E-05 0.00000E+00
 -1        21 5.90805E-05 6.38571E-05 6.61744E-24
 -1        24 2.35053E-05-6.20615E-06 0.00000E+00
 -1        25 5.16412E-05-1.66749E-07 0.00000E+00
 -1        26 5.33043E-05 3.29697E-06 0.00000E+00
 -1        27 5.13172E-05 2.59623E-05 0.00000E+00
 -1        28 4.89136E-05 6.28860E-05 0.00000E+00
 -1        32 0.00000E+00 0.00000E+00 0.00000E+00
 -1        33 4.77105E-05 4.80832E-06 0.00000E+00
 -1        34 4.54211E-05 2.58514E-05 0.00000E+00
 -1        35 4.16863E-05 6.23578E-05 0.00000E+00
 -1        51 1.25126E-04-2.30500E-07 0.00000E+00
 -1        52 1.21846E-04-4.53346E-07 0.00000E+00
 -1        53 1.17548E-04-6.76049E-07 0.00000E+00
 -1        54 1.12491E-04-9.01491E-07 0.00000E+00
 -1        55 1.06938E-04-1.13214E-06 9.51258E-24
 -1        56 1.24655E-04-1.34918E-06 0.00000E+00
 -1        57 1.22338E-04-3.44201E-06 0.00000E+00
 -1        58 1.20252E-04-6.13950E-06 0.00000E+00
 -1        59 1.18326E-04-9.31253E-06-5.29396E-23
 -1        60 1.16504E-04-1.27686E-05 1.05879E-22
 -1        61 1.14709E-04-1.63055E-05 0.00000E+00
 -1        62 1.12865E-04-1.97109E-05 0.00000E+00
 -1        63 1.10895E-04-2.27815E-05 5.29396E-23
 -1        64 1.08738E-04-2.53488E-05 0.00000E+00
 -1        65 1.06341E-04-2.72739E-05 0.00000E+00
 -1        66 1.03677E-04-2.84855E-05 0.00000E+00
 -1        67 1.00738E-04-2.89536E-05 5.29396E-23
 -1        68 9.75381E-05-2.87276E-05-1.05879E-22
 -1        69 9.41260E-05-2.78913E-05 0.00000E+00
 -1        70 9.05385E-05-2.66051E-05 0.00000E+00
 -1       121 8.00416E-05-4.10404E-07-1.32349E-23
 -1       122 7.95332E-05-8.20913E-07 0.00000E+00
 -1       123 7.86872E-05-1.23164E-06 1.32349E-23
 -1       124 7.75058E-05-1.64269E-06 0.00000E+00
 -1       125 7.59920E-05-2.05416E-06 1.32349E-23
 -1       191 6.34818E-05 2.07932E-07-1.32349E-23
 -1       192 6.33728E-05 4.15857E-07 0.00000E+00
 -1       193 6.31912E-05 6.23771E-07 0.00000E+00
 -1       194 6.29369E-05 8.31667E-07 0.00000E+00
 -1       195 6.26098E-05 1.03953E-06-1.32349E-23
 -1       271 9.76650E-05 1.57245E-06-5.29396E-23
 -1       272 9.46459E-05 3.08171E-06 0.00000E+00
 -1       273 9.21111E-05 3.30875E-06 5.29396E-23
 -1       274 8.99898E-05 2.40525E-06-2.64698E-23
 -1       275 8.82253E-05 5.45156E-07 5.29396E-23
 -1       276 8.67463E-05-2.08437E-06-2.64698E-23
 -1       277 8.54796E-05-5.28487E-06 0.00000E+00
 -1       278 8.43479E-05-8.84848E-06 2.64698E-23
 -1       279 8.32720E-05-1.25623E-05 0.00000E+00
 -1       280 8.21721E-05-1.62108E-05 0.00000E+00
 -1       281 8.09684E-05-1.95794E-05 0.00000E+00
 -1       282 7.95836E-05-2.24581E-05 0.00000E+00
 -1       283 7.79416E-05-2.46442E-05 5.29396E-23
 -1       284 7.59771E-05-2.59441E-05 0.00000E+00
 -1       285 7.36134E-05-2.61821E-05-5.29396E-23
 -1       301 8.42115E-05-2.50522E-05 0.00000E+00
 -1       302 8.14784E-05-2.50694E-05 0.00000E+00
 -1       303 7.87576E-05-2.50832E-05 0.00000E+00
 -1       304 7.60668E-05-2.50984E-05 0.00000E+00
 -1       305 7.34241E-05-2.51200E-05 0.00000E+00
 -1       306 8.48045E-05-2.30522E-05 2.64698E-23
 -1       307 8.27987E-05-2.15259E-05 1.32349E-23
 -1       308 8.09279E-05-2.03571E-05 2.64698E-23
 -1       309 7.91618E-05-1.94787E-05 0.00000E+00
 -1       310 7.74771E-05-1.88184E-05-5.29396E-23
 -1       311 7.58461E-05-1.83032E-05 0.00000E+00
 -1       312 7.42414E-05-1.78584E-05 0.00000E+00
 -1       313 7.26349E-05-1.74091E-05 0.00000E+00
 -1       314 7.09985E-05-1.68803E-05 0.00000E+00
 -1       315 6.93044E-05-1.61976E-05 1.32349E-23
 -1       316 6.75252E-05-1.52881E-05-2.64698E-23
 -1       317 6.56350E-05-1.40810E-05 0.00000E+00
 -1       318 6.36077E-05-1.25079E-05 2.64698E-23
 -1       319 6.14237E-05-1.05023E-05 0.00000E+00
 -1       320 5.90533E-05-8.00544E-06 0.00000E+00
 -1       336 7.19837E-05-2.87868E-06 0.00000E+00
 -1       337 6.94993E-05-3.29181E-06-6.61744E-24
 -1       338 6.67028E-05-3.70562E-06-1.32349E-23
 -1       339 6.36016E-05-4.11962E-06 0.00000E+00
 -1       340 6.02033E-05-4.53454E-06 1.32349E-23
 -1       406 6.17376E-05 1.45512E-06 0.00000E+00
 -1       407 6.11922E-05 1.66275E-06 0.00000E+00
 -1       408 6.05741E-05 1.87018E-06 0.00000E+00
 -1       409 5.98831E-05 2.07705E-06 3.30872E-24
 -1       410 5.91194E-05 2.28283E-06 0.00000E+00
 -1       521 6.78415E-05-2.36931E-05 0.00000E+00
 -1       522 6.49024E-05-2.25630E-05-2.64698E-23
 -1       523 6.20677E-05-2.17080E-05 0.00000E+00
 -1       524 5.93053E-05-2.10695E-05-2.64698E-23
 -1       525 5.65978E-05-2.05803E-05 5.29396E-23
 -1       526 5.39196E-05-2.01730E-05 0.00000E+00
 -1       527 5.12459E-05-1.97788E-05 0.00000E+00
 -1       528 4.85510E-05-1.93290E-05 0.00000E+00
 -1       529 4.58096E-05-1.87555E-05-5.29396E-23
 -1       530 4.29970E-05-1.79925E-05 0.00000E+00
 -1       531 4.00896E-05-1.69769E-05 5.29396E-23
 -1       532 3.70661E-05-1.56497E-05 0.00000E+00
 -1       533 3.39058E-05-1.39565E-05 5.29396E-23
 -1       534 3.05971E-05-1.18469E-05 2.64698E-23
 -1       535 2.71152E-05-9.28200E-06 0.00000E+00
 -1       536 5.64822E-05-1.57785E-06 6.61744E-24
 -1       537 5.64619E-05 9.84193E-07-1.65436E-24
 -1       538 5.64432E-05 2.82386E-06 3.30872E-24
 -1       539 5.64272E-05 4.02575E-06 0.00000E+00
 -1       540 5.64121E-05 4.67428E-06-1.65436E-24
 -1       541 5.63974E-05 4.85400E-06 0.00000E+00
 -1       542 5.63829E-05 4.64949E-06 8.27181E-25
 -1       543 5.63684E-05 4.14536E-06 0.00000E+00
 -1       544 5.63538E-05 3.42627E-06-8.27181E-25
 -1       545 5.63391E-05 2.57686E-06 0.00000E+00
 -1       546 5.63244E-05 1.68182E-06 4.13590E-25
 -1       547 5.63098E-05 8.25817E-07-1.03398E-25
 -1       548 5.62954E-05 9.35261E-08 0.00000E+00
 -1       549 5.62815E-05-4.30410E-07 0.00000E+00
 -1       550 5.62676E-05-6.61275E-07 8.27181E-25
 -1       551 5.15959E-05-5.14846E-06-2.48154E-24
 -1       552 4.60881E-05-5.34915E-06-8.27181E-25
 -1       553 4.02571E-05-5.55143E-06 0.00000E+00
 -1       554 3.43713E-05-5.75689E-06 0.00000E+00
 -1       555 2.86992E-05-5.96738E-06 0.00000E+00
 -1       556 5.51162E-05-1.76363E-06 0.00000E+00
 -1       557 5.40020E-05 6.78838E-07 0.00000E+00
 -1       558 5.31420E-05 2.45158E-06-1.32349E-23
 -1       559 5.25062E-05 3.63145E-06-6.61744E-24
 -1       560 5.20648E-05 4.29544E-06 0.00000E+00
 -1       561 5.17881E-05 4.52123E-06 6.61744E-24
 -1       562 5.16469E-05 4.38664E-06 0.00000E+00
 -1       563 5.16116E-05 3.96961E-06 0.00000E+00
 -1       564 5.16529E-05 3.34818E-06-6.61744E-24
 -1       565 5.17416E-05 2.60042E-06 0.00000E+00
 -1       566 5.18483E-05 1.80444E-06 0.00000E+00
 -1       567 5.19440E-05 1.03839E-06 0.00000E+00
 -1       568 5.19994E-05 3.80368E-07-1.65436E-24
 -1       569 5.19858E-05-9.16014E-08-8.27181E-25
 -1       570 5.18743E-05-2.99589E-07 3.30872E-24
 -1       571 5.63782E-05-2.57995E-07 8.27181E-25
 -1       572 5.65036E-05-8.84727E-08-1.24077E-24
 -1       573 5.66301E-05 9.63487E-09 3.30872E-24
 -1       574 5.67572E-05 5.31224E-08-8.27181E-25
 -1       575 5.68843E-05 5.88549E-08 0.00000E+00
 -1       576 5.70116E-05 4.38067E-08 1.65436E-24
 -1       577 5.71389E-05 2.49604E-08 3.30872E-24
 -1       578 5.72662E-05 1.93133E-08 0.00000E+00
 -1       579 5.73936E-05 4.38642E-08 0.00000E+00
 -1       580 5.75209E-05 1.15613E-07 0.00000E+00
 -1       581 5.76482E-05 2.51559E-07 0.00000E+00
 -1       582 5.77755E-05 4.68686E-07 0.00000E+00
 -1       583 5.79027E-05 7.83962E-07 0.00000E+00
 -1       584 5.80299E-05 1.21418E-06 0.00000E+00
 -1       585 5.81569E-05 1.77605E-06 0.00000E+00
 -1       586 5.56218E-05-4.55840E-07 0.00000E+00
 -1       587 5.48857E-05-3.96279E-07 1.65436E-24
 -1       588 5.40832E-05-3.36773E-07-3.30872E-24
 -1       589 5.32508E-05-2.77818E-07-4.13590E-25
 -1       590 5.24249E-05-2.20107E-07 0.00000E+00
 -1       591 5.60540E-05-2.10008E-07-1.65436E-24
 -1       592 5.58674E-05 3.56620E-08 0.00000E+00
 -1       593 5.56974E-05 2.33910E-07 0.00000E+00
 -1       594 5.55405E-05 3.95338E-07-1.65436E-24
 -1       595 5.53933E-05 5.30560E-07 0.00000E+00
 -1       596 5.52519E-05 6.50104E-07 1.65436E-24
 -1       597 5.51123E-05 7.64488E-07-3.30872E-24
 -1       598 5.49707E-05 8.84220E-07-8.27181E-25
 -1       599 5.48232E-05 1.01981E-06 1.65436E-24
 -1       600 5.46658E-05 1.18175E-06 0.00000E+00
 -1       601 5.44946E-05 1.38055E-06-1.65436E-24
 -1       602 5.43057E-05 1.62673E-06 4.13590E-25
 -1       603 5.40953E-05 1.93079E-06-1.65436E-24
 -1       604 5.38599E-05 2.30331E-06-2.06795E-25
 -1       605 5.35959E-05 2.75486E-06-4.13590E-25
 -1       606 5.83382E-05 3.45147E-06 0.00000E+00
 -1       607 5.83895E-05 4.52749E-06 0.00000E+00
 -1       608 5.84397E-05 5.70653E-06 0.00000E+00
 -1       609 5.84894E-05 6.98116E-06-3.30872E-24
 -1       610 5.85388E-05 8.34390E-06 0.00000E+00
 -1       611 5.85881E-05 9.78713E-06 0.00000E+00
 -1       612 5.86372E-05 1.13032E-05 0.00000E+00
 -1       613 5.86862E-05 1.28845E-05 0.00000E+00
 -1       614 5.87351E-05 1.45233E-05 0.00000E+00
 -1       615 5.87840E-05 1.62120E-05 0.00000E+00
 -1       616 5.88327E-05 1.79430E-05 0.00000E+00
 -1       617 5.88814E-05 1.97086E-05-3.30872E-24
 -1       618 5.89301E-05 2.15012E-05 0.00000E+00
 -1       619 5.89786E-05 2.33131E-05-8.27181E-25
 -1       620 5.90270E-05 2.51367E-05-1.65436E-24
 -1       621 5.73796E-05 2.62105E-06 3.30872E-24
 -1       622 5.64880E-05 2.75763E-06 0.00000E+00
 -1       623 5.56220E-05 2.89418E-06 3.30872E-24
 -1       624 5.47942E-05 3.03034E-06 0.00000E+00
 -1       625 5.40175E-05 3.16571E-06 3.30872E-24
 -1       626 5.80168E-05 3.50963E-06 0.00000E+00
 -1       627 5.77059E-05 4.64881E-06 0.00000E+00
 -1       628 5.73556E-05 5.89177E-06 0.00000E+00
 -1       629 5.69706E-05 7.22650E-06 0.00000E+00
 -1       630 5.65556E-05 8.64095E-06 0.00000E+00
 -1       631 5.61151E-05 1.01229E-05 6.61744E-24
 -1       632 5.56539E-05 1.16601E-05 0.00000E+00
 -1       633 5.51764E-05 1.32404E-05 0.00000E+00
 -1       634 5.46873E-05 1.48514E-05-3.30872E-24
 -1       635 5.41912E-05 1.64810E-05-1.65436E-24
 -1       636 5.36927E-05 1.81170E-05 0.00000E+00
 -1       637 5.31963E-05 1.97470E-05 8.27181E-25
 -1       638 5.27066E-05 2.13588E-05-3.30872E-24
 -1       639 5.22279E-05 2.29403E-05 8.27181E-25
 -1       640 5.17642E-05 2.44789E-05-1.24077E-24
 -1       656 5.74620E-05 2.68028E-05-1.65436E-24
 -1       657 5.60908E-05 2.66330E-05 0.00000E+00
 -1       658 5.48762E-05 2.64635E-05-3.30872E-24
 -1       659 5.37326E-05 2.62940E-05 0.00000E+00
 -1       660 5.25748E-05 2.61243E-05 1.65436E-24
 -1       661 5.85495E-05 2.89013E-05 0.00000E+00
 -1       662 5.79788E-05 3.09776E-05 0.00000E+00
 -1       663 5.73641E-05 3.31702E-05 0.00000E+00
 -1       664 5.67143E-05 3.54587E-05 0.00000E+00
 -1       665 5.60363E-05 3.78220E-05 0.00000E+00
 -1       666 5.53380E-05 4.02396E-05 0.00000E+00
 -1       667 5.46270E-05 4.26909E-05 6.61744E-24
 -1       668 5.39110E-05 4.51557E-05 3.30872E-24
 -1       669 5.31977E-05 4.76132E-05 0.00000E+00
 -1       670 5.24947E-05 5.00433E-05 0.00000E+00
 -1       671 5.18098E-05 5.24252E-05 0.00000E+00
 -1       672 5.11506E-05 5.47385E-05 3.30872E-24
 -1       673 5.05247E-05 5.69626E-05 6.61744E-24
 -1       674 4.99390E-05 5.90761E-05 1.65436E-24
 -1       675 4.94028E-05 6.10589E-05 0.00000E+00
 -1       676 5.73760E-05 6.36940E-05-6.61744E-24
 -1       677 5.56733E-05 6.35310E-05 0.00000E+00
 -1       678 5.39740E-05 6.33681E-05 0.00000E+00
 -1       679 5.22798E-05 6.32058E-05-1.65436E-24
 -1       680 5.05924E-05 6.30436E-05 0.00000E+00
 -1       771 2.09977E-05-3.02485E-06 5.29396E-23
 -1       772 1.87442E-05-5.52304E-07 0.00000E+00
 -1       773 1.67300E-05 1.28050E-06-5.29396E-23
 -1       774 1.49288E-05 2.54482E-06 0.00000E+00
 -1       775 1.33144E-05 3.31244E-06 0.00000E+00
 -1       776 1.18593E-05 3.65605E-06 2.64698E-23
 -1       777 1.05361E-05 3.64872E-06 0.00000E+00
 -1       778 9.31694E-06 3.36403E-06 2.64698E-23
 -1       779 8.17421E-06 2.87584E-06 0.00000E+00
 -1       780 7.08004E-06 2.25831E-06 1.32349E-23
 -1       781 6.00661E-06 1.58572E-06 0.00000E+00
 -1       782 4.92620E-06 9.32469E-07 0.00000E+00
 -1       783 3.81110E-06 3.72931E-07 0.00000E+00
 -1       784 2.63447E-06-1.85614E-08 0.00000E+00
 -1       785 1.36950E-06-1.67867E-07-2.64698E-23
 -1       786 5.17385E-05 3.29489E-07 0.00000E+00
 -1       787 5.18420E-05 7.04455E-07 8.27181E-25
 -1       788 5.19456E-05 9.76170E-07-3.30872E-24
 -1       789 5.20502E-05 1.16272E-06 1.65436E-24
 -1       790 5.21549E-05 1.28212E-06 0.00000E+00
 -1       791 5.22597E-05 1.35235E-06 0.00000E+00
 -1       792 5.23647E-05 1.39135E-06 0.00000E+00
 -1       793 5.24696E-05 1.41704E-06-1.65436E-24
 -1       794 5.25746E-05 1.44735E-06 3.30872E-24
 -1       795 5.26795E-05 1.50019E-06-1.65436E-24
 -1       796 5.27845E-05 1.59349E-06 3.30872E-24
 -1       797 5.28893E-05 1.74521E-06 0.00000E+00
 -1       798 5.29941E-05 1.97335E-06-3.30872E-24
 -1       799 5.30984E-05 2.29595E-06-1.65436E-24
 -1       800 5.32028E-05 2.73115E-06 0.00000E+00
 -1       801 4.71314E-05-1.07632E-07 0.00000E+00
 -1       802 3.78326E-05-7.04838E-08 0.00000E+00
 -1       803 2.61045E-05-5.49556E-08-1.65436E-24
 -1       804 1.43134E-05-4.51289E-08 0.00000E+00
 -1       805 4.82498E-06-1.55400E-08-2.64698E-23
 -1       806 5.13468E-05 2.85882E-07-3.30872E-24
 -1       807 5.10726E-05 6.75228E-07-3.30872E-24
 -1       808 5.08177E-05 1.01091E-06 0.00000E+00
 -1       809 5.05788E-05 1.30242E-06-3.30872E-24
 -1       810 5.03529E-05 1.55927E-06 0.00000E+00
 -1       811 5.01364E-05 1.79094E-06 1.65436E-24
 -1       812 4.99257E-05 2.00692E-06 3.30872E-24
 -1       813 4.97173E-05 2.21669E-06-1.65436E-24
 -1       814 4.95077E-05 2.42975E-06 0.00000E+00
 -1       815 4.92933E-05 2.65556E-06 0.00000E+00
 -1       816 4.90705E-05 2.90363E-06-1.65436E-24
 -1       817 4.88359E-05 3.18341E-06 8.27181E-25
 -1       818 4.85859E-05 3.50440E-06 1.65436E-24
 -1       819 4.83170E-05 3.87600E-06 8.27181E-25
 -1       820 4.80260E-05 4.30763E-06 1.65436E-24
 -1       821 5.31880E-05 4.04084E-06 8.27181E-25
 -1       822 5.30644E-05 4.96272E-06 8.27181E-25
 -1       823 5.29407E-05 6.04412E-06-3.30872E-24
 -1       824 5.28158E-05 7.26621E-06 0.00000E+00
 -1       825 5.26906E-05 8.61013E-06 3.30872E-24
 -1       826 5.25650E-05 1.00569E-05 0.00000E+00
 -1       827 5.24393E-05 1.15873E-05 3.30872E-24
 -1       828 5.23135E-05 1.31824E-05 0.00000E+00
 -1       829 5.21875E-05 1.48229E-05-3.30872E-24
 -1       830 5.20616E-05 1.64895E-05 0.00000E+00
 -1       831 5.19357E-05 1.81631E-05-3.30872E-24
 -1       832 5.18100E-05 1.98245E-05 0.00000E+00
 -1       833 5.16844E-05 2.14542E-05-3.30872E-24
 -1       834 5.15599E-05 2.30332E-05 0.00000E+00
 -1       835 5.14354E-05 2.45422E-05 0.00000E+00
 -1       836 5.25135E-05 3.54462E-06 0.00000E+00
 -1       837 5.15456E-05 3.80091E-06-3.30872E-24
 -1       838 5.04909E-05 4.05673E-06 6.61744E-24
 -1       839 4.94400E-05 4.31178E-06 3.30872E-24
 -1       840 4.84831E-05 4.56715E-06-1.65436E-24
 -1       856 5.11759E-05 2.74855E-05 0.00000E+00
 -1       857 5.10270E-05 2.92826E-05 0.00000E+00
 -1       858 5.08777E-05 3.13180E-05-3.30872E-24
 -1       859 5.07269E-05 3.35556E-05 0.00000E+00
 -1       860 5.05756E-05 3.59590E-05 0.00000E+00
 -1       861 5.04238E-05 3.84920E-05 0.00000E+00
 -1       862 5.02717E-05 4.11179E-05 0.00000E+00
 -1       863 5.01194E-05 4.38000E-05 0.00000E+00
 -1       864 4.99671E-05 4.65018E-05 0.00000E+00
 -1       865 4.98148E-05 4.91865E-05-1.65436E-24
 -1       866 4.96627E-05 5.18173E-05 3.30872E-24
 -1       867 4.95109E-05 5.43577E-05 0.00000E+00
 -1       868 4.93595E-05 5.67712E-05 0.00000E+00
 -1       869 4.92091E-05 5.90212E-05-1.65436E-24
 -1       870 4.90590E-05 6.10714E-05 0.00000E+00
 -1       871 5.01724E-05 2.59465E-05 0.00000E+00
 -1       872 4.91595E-05 2.59292E-05 0.00000E+00
 -1       873 4.82288E-05 2.59116E-05 1.65436E-24
 -1       874 4.73294E-05 2.58933E-05-4.13590E-25
 -1       875 4.64102E-05 2.58742E-05-8.27181E-25
 -1       876 5.09686E-05 2.75401E-05 3.30872E-24
 -1       877 5.05416E-05 2.93525E-05 0.00000E+00
 -1       878 5.00386E-05 3.13661E-05 6.61744E-24
 -1       879 4.94724E-05 3.35511E-05-3.30872E-24
 -1       880 4.88531E-05 3.58773E-05 6.61744E-24
 -1       881 4.81919E-05 3.83149E-05 0.00000E+00
 -1       882 4.74999E-05 4.08346E-05 6.61744E-24
 -1       883 4.67880E-05 4.34068E-05 0.00000E+00
 -1       884 4.60673E-05 4.60024E-05 6.61744E-24
 -1       885 4.53487E-05 4.85922E-05-3.30872E-24
 -1       886 4.46433E-05 5.11468E-05 0.00000E+00
 -1       887 4.39620E-05 5.36370E-05 3.30872E-24
 -1       888 4.33159E-05 5.60334E-05 0.00000E+00
 -1       889 4.27148E-05 5.83059E-05 3.30872E-24
 -1       890 4.21715E-05 6.04253E-05 0.00000E+00
 -1       891 4.74850E-05 6.27984E-05 0.00000E+00
 -1       892 4.63485E-05 6.27097E-05-1.65436E-24
 -1       893 4.53525E-05 6.26213E-05-1.65436E-24
 -1       894 4.43448E-05 6.25330E-05-8.27181E-25
 -1       895 4.31732E-05 6.24444E-05 0.00000E+00
 -1       956 4.75709E-05 5.55833E-06-1.65436E-24
 -1       957 4.74287E-05 6.46384E-06-8.27181E-25
 -1       958 4.72858E-05 7.50863E-06-1.65436E-24
 -1       959 4.71425E-05 8.67543E-06-8.27181E-25
 -1       960 4.69990E-05 9.94692E-06 0.00000E+00
 -1       961 4.68554E-05 1.13057E-05-1.65436E-24
 -1       962 4.67116E-05 1.27342E-05-3.30872E-24
 -1       963 4.65677E-05 1.42151E-05 1.65436E-24
 -1       964 4.64238E-05 1.57309E-05 0.00000E+00
 -1       965 4.62799E-05 1.72641E-05 0.00000E+00
 -1       966 4.61360E-05 1.87972E-05-3.30872E-24
 -1       967 4.59922E-05 2.03128E-05-3.30872E-24
 -1       968 4.58485E-05 2.17933E-05 0.00000E+00
 -1       969 4.57050E-05 2.32214E-05-3.30872E-24
 -1       970 4.55621E-05 2.45797E-05 0.00000E+00
 -1       971 4.51946E-05 2.72014E-05 6.61744E-24
 -1       972 4.49621E-05 2.88510E-05-3.30872E-24
 -1       973 4.47290E-05 3.07638E-05 6.61744E-24
 -1       974 4.44948E-05 3.29025E-05 3.30872E-24
 -1       975 4.42600E-05 3.52295E-05-6.61744E-24
 -1       976 4.40247E-05 3.77070E-05 0.00000E+00
 -1       977 4.37892E-05 4.02970E-05 0.00000E+00
 -1       978 4.35534E-05 4.29614E-05-3.30872E-24
 -1       979 4.33175E-05 4.56617E-05 0.00000E+00
 -1       980 4.30816E-05 4.83597E-05-3.30872E-24
 -1       981 4.28460E-05 5.10170E-05-6.61744E-24
 -1       982 4.26107E-05 5.35952E-05 3.30872E-24
 -1       983 4.23760E-05 5.60563E-05 6.61744E-24
 -1       984 4.21428E-05 5.83622E-05 0.00000E+00
 -1       985 4.19101E-05 6.04751E-05 3.30872E-24
 -3
    1PSTEP                         2           1           1          
  100CL  101 1.000000000         382                     0    1           1
 -4  STRESS      6    1
 -5  SXX         1    4    1    1
 -5  SYY         1    4    2    2
 -5  SZZ         1    4    3    3
 -5  SXY         1    4    1    2
 -5  SYZ         1    4    2    3
 -5  SZX         1    4    3    1
 -1         1-3.54268E+06-1.52561E+06-7.85183E+05-1.86436E+06-1.74623E-10-4.97676E-09
 -1         3-5.86778E+01-1.17279E+06-2.67067E+01-2.94113E+02 8.51308E-10-5.63978E-09
 -1         5-3.94039E+01 5.95206E+05 2.06707E+01 1.91767E+00 1.48993E-10 1.04264E-08
 -1         8-2.67331E+06-1.24444E+06-4.80160E+05-1.70246E+06 6.54836E-10 7.72707E-09
 -1         9-3.36452E+06-1.10225E+06-5.84212E+05-1.06550E+06-3.44395E-09-2.98799E-09
 -1        10-9.84263E+01-1.17289E+06-9.80786E+02-1.71754E+03 1.04643E-09-6.03632E-09
 -1        12-3.10865E+01 5.95249E+05 6.71241E+02 1.23056E+01 4.71289E-10-3.16249E-08
 -1        16-3.55658E+06-1.12813E+06-4.61293E+05-1.23539E+06 6.08755E-10 1.65407E-09
 -1        17-7.04796E+05-5.46358E+05-7.98485E+04-4.81070E+05-1.35915E-09-3.20142E-09
 -1        18 3.12268E+04 1.35518E+04-1.67788E+04-1.19769E+05 6.29370E-10-1.97633E-09
 -1        19 1.57056E+05 2.01618E+05 7.83720E+02 9.40659E+03-2.32831E-10 2.15005E-09
 -1        20 1.56102E+05-1.08940E+05-1.28129E+04 9.00157E+04 3.37059E-09-2.58418E-09
 -1        21-1.07774E+02-4.63069E+05-1.95219E+03-5.75742E+02 1.86330E-08 1.90485E-09
 -1        24-2.67045E+06-9.72491E+05-2.29941E+05-1.32352E+06-3.12866E-10-6.37374E-09
 -1        25-1.15008E+04 3.67588E+04 2.46183E+04-5.06923E+05 3.65617E-10 1.21654E-09
 -1        26-8.78901E+03 1.89867E+05 1.21473E+04-3.86790E+04 5.92263E-10-9.25473E-10
 -1        27-2.87284E+04-7.06610E+04-3.11373E+04 1.00617E+05 3.03680E-09 3.34997E-09
 -1        28-1.16977E+04-1.41670E+05-6.94624E+02 7.01280E+04 1.67208E-08 1.55817E-09
 -1        32-1.04654E+06-1.81238E+05 2.41887E+05-1.52297E+06-1.12486E-08 1.74805E-09
 -1        33-1.37402E+05 2.12065E+05 6.32704E+04-4.99663E+04 6.50364E-10 7.05768E-10
 -1        34-3.42346E+05-5.78077E+04-2.30147E+04 9.02879E+04 4.71191E-09-1.21448E-09
 -1        35-4.43690E+04-4.79181E+04-8.41810E+02 1.06651E+05 2.05246E-08 1.19326E-09
 -1        51 4.08050E+04-5.78170E+05 6.39196E+04-1.50429E+06-1.16415E-10 2.72121E-09
 -1        52 2.26428E+04-5.77796E+05 4.06497E+04-1.64966E+06 6.33008E-10 4.67844E-09
 -1        53 1.83569E+04-5.96097E+05 3.48053E+04-1.50035E+06 2.54659E-10 1.12923E-08
 -1        54 4.02522E+04-5.93825E+05 5.59401E+04-1.65362E+06-9.16771E-10 1.04410E-08
 -1        55 8.37880E+04-6.12812E+05 1.03044E+05-1.49945E+06-2.91038E-10 5.56611E-09
 -1        56-6.70317E+06-7.49622E+05-5.59846E+05-2.58945E+06-9.96806E-10-1.01863E-09
 -1        57-6.95507E+06-1.21833E+06-3.75891E+05-2.53625E+06 8.11269E-10-7.38146E-09
 -1        58-6.81831E+06-9.20462E+05-1.31632E+05-2.55115E+06 3.81988E-11 2.96859E-09
 -1        59-6.81953E+06-1.01919E+06-7.80170E+04-2.58445E+06 2.52294E-09-8.28823E-09
 -1        60-6.83685E+06-9.41622E+05-3.06726E+04-2.54355E+06-1.42018E-09-4.24188E-09
 -1        61-6.79985E+06-9.92301E+05-1.73416E+04-2.59103E+06-3.23234E-09 4.52815E-09
 -1        62-6.83759E+06-9.46420E+05-8.42705E+03-2.54480E+06 2.55113E-10-3.67356E-09
 -1        63-6.80448E+06-9.81734E+05-6.98072E+03-2.58311E+06 1.10663E-09 1.47414E-08
 -1        64-6.83200E+06-9.52194E+05-8.17954E+03-2.55138E+06 3.38332E-10 5.51154E-09
 -1        65-6.82013E+06-9.71123E+05-1.64108E+04-2.56663E+06 3.18323E-09-4.90604E-09
 -1        66-6.82184E+06-9.57235E+05-2.91057E+04-2.56115E+06-1.81478E-09 5.16593E-10
 -1        67-6.85326E+06-9.82067E+05-7.36869E+04-2.54393E+06-2.37571E-09-2.92493E-09
 -1        68-6.79929E+06-9.42095E+05-1.24412E+05-2.57390E+06-2.26464E-09 5.31145E-10
 -1        69-6.98567E+06-1.16646E+06-3.55198E+05-2.49457E+06 3.39787E-09 1.96451E-09
 -1        70-6.69159E+06-7.79350E+05-5.28993E+05-2.60859E+06-1.48430E-09 1.74623E-10
 -1       121-7.75783E+01-1.17306E+06-6.98744E+01 1.46989E+02-4.72701E-10-2.06455E-09
 -1       122-5.70961E+01-1.17279E+06-6.04281E+01-5.81967E+02 8.30766E-10-4.27872E-09
 -1       123-7.49178E+01-1.17306E+06-1.51912E+02 4.34571E+02-6.56273E-10 3.66344E-09
 -1       124-5.57272E+01-1.17281E+06-2.39179E+02-1.15313E+03 1.23307E-09 2.65754E-09
 -1       125-6.59910E+01-1.17305E+06-5.03742E+02 7.17802E+02-1.13721E-09 4.06635E-09
 -1       191-4.20446E+01 5.95250E+05 2.34678E+01-9.70274E-01 3.64319E-10 1.59471E-08
 -1       192-4.13305E+01 5.95207E+05 4.38168E+01 5.00085E+00 6.20718E-10-2.00907E-09
 -1       193-4.71483E+01 5.95249E+05 8.02729E+01-4.10372E+00 6.94392E-10 4.49290E-09
 -1       194-4.75217E+01 5.95214E+05 1.65844E+02 1.08181E+01 4.97190E-10-2.90947E-09
 -1       195-5.69492E+01 5.95244E+05 3.23160E+02-6.88554E+00 1.02453E-09-2.08820E-08
 -1       271-5.29350E+06-7.06746E+05-4.06369E+05-2.06244E+06-1.09139E-10 4.01633E-09
 -1       272-5.40547E+06-9.52524E+05-2.49503E+05-2.09277E+06 3.11047E-10 2.11730E-09
 -1       273-5.36377E+06-7.77226E+05-9.56446E+04-2.05330E+06 2.76486E-10-3.19415E-09
 -1       274-5.32291E+06-8.51867E+05-5.09867E+04-2.11631E+06 1.79443E-09 1.18962E-09
 -1       275-5.37401E+06-7.80916E+05-2.21649E+04-2.04977E+06-1.23509E-09 1.26583E-08
 -1       276-5.31116E+06-8.46571E+05-1.13989E+04-2.12369E+06 6.91216E-11 5.40945E-09
 -1       277-5.37688E+06-7.79486E+05-5.87193E+03-2.04783E+06 3.33785E-10-1.77852E-09
 -1       278-5.30860E+06-8.47888E+05-4.38459E+03-2.12681E+06-9.99307E-10-1.90903E-09
 -1       279-5.37746E+06-7.78928E+05-5.12467E+03-2.04732E+06 9.13474E-11-7.13408E-09
 -1       280-5.30955E+06-8.48169E+05-9.46898E+03-2.12624E+06 8.46285E-10 1.76988E-09
 -1       281-5.37579E+06-7.79393E+05-1.80590E+04-2.04826E+06 2.62753E-09-3.77258E-09
 -1       282-5.31840E+06-8.53322E+05-4.15721E+04-2.12134E+06-8.40373E-10-5.40876E-09
 -1       283-5.36775E+06-7.76105E+05-7.78380E+04-2.05084E+06-2.55568E-10 2.32103E-09
 -1       284-5.38527E+06-9.35584E+05-2.03210E+05-2.10236E+06 2.67391E-10 1.47338E-09
 -1       285-5.31042E+06-7.18859E+05-3.31007E+05-2.05833E+06-7.29415E-10-1.22236E-09
 -1       301 7.03978E+04-2.37166E+04 1.70073E+05-5.33774E+04-1.32422E-09-1.22156E-08
 -1       302 2.44464E+04 9.26692E+03 1.07889E+05-6.38987E+04-1.28057E-09-1.46857E-08
 -1       303 6.54167E+03-1.21789E+04 9.14274E+04-5.35435E+04-2.06273E-09-5.37148E-09
 -1       304 3.64080E+04 1.71130E+04 1.42177E+05-6.37642E+04-7.80346E-10-4.26689E-09
 -1       305 1.08428E+05-3.14323E+04 2.52706E+05-5.34218E+04 1.12050E-09-3.69255E-10
 -1       306-3.10752E+06-4.21383E+05-1.79068E+05-1.20124E+06 3.96358E-09-4.32919E-09
 -1       307-3.15581E+06-5.31543E+05-1.10029E+05-1.21679E+06 1.45315E-09-9.69158E-09
 -1       308-3.13722E+06-4.53702E+05-4.21073E+04-1.19850E+06-3.75337E-09 5.06952E-09
 -1       309-3.12113E+06-4.85210E+05-2.25602E+04-1.22438E+06 4.32010E-10-3.07818E-09
 -1       310-3.14067E+06-4.56437E+05-9.79604E+03-1.19795E+06-1.54046E-09-6.92853E-09
 -1       311-3.11716E+06-4.81372E+05-5.18282E+03-1.22546E+06 2.29875E-09-1.37368E-09
 -1       312-3.14116E+06-4.56613E+05-2.85208E+03-1.19782E+06-9.05715E-10-7.02738E-09
 -1       313-3.11684E+06-4.80997E+05-2.51941E+03-1.22544E+06 3.50610E-09-8.46023E-09
 -1       314-3.14098E+06-4.56771E+05-3.43719E+03-1.19798E+06-2.08820E-09 9.75888E-10
 -1       315-3.11784E+06-4.80943E+05-6.75674E+03-1.22471E+06-1.18621E-09 5.62864E-09
 -1       316-3.14004E+06-4.56807E+05-1.30620E+04-1.19843E+06-8.21728E-10-2.10093E-10
 -1       317-3.12352E+06-4.85712E+05-3.02082E+04-1.22278E+06-1.99225E-09-4.96766E-09
 -1       318-3.13526E+06-4.53289E+05-5.64566E+04-1.19933E+06-1.26965E-09 7.16682E-10
 -1       319-3.17019E+06-5.47668E+05-1.47524E+05-1.21242E+06 5.98789E-10 6.31553E-09
 -1       320-3.09539E+06-4.09947E+05-2.40054E+05-1.20300E+06-6.83940E-10 3.21597E-09
 -1       336-1.81720E+01-1.17300E+06-1.92225E+03 9.98719E+02-1.54353E-09-1.78989E-09
 -1       337-7.03522E+02-1.17340E+06-4.10180E+03-2.26982E+03 8.75218E-10-6.74709E-09
 -1       338 4.05376E+02-1.17258E+06-7.55620E+03 1.26954E+03-1.59253E-09-3.69255E-10
 -1       339-7.94505E+03-1.17811E+06-1.82030E+04-2.89355E+03 1.46065E-09 3.67618E-09
 -1       340 4.94959E+03-1.16835E+06-2.92404E+04 1.61372E+03-1.74350E-09 7.45240E-09
 -1       406 1.89761E+01 5.95214E+05 1.32382E+03-5.67484E+00 1.36049E-09-1.58234E-08
 -1       407 4.31018E+02 5.95481E+05 2.81604E+03-8.85502E+00 1.79398E-10 1.57343E-09
 -1       408 1.41771E+03 5.95010E+05 5.62225E+03 1.57194E+01 1.54296E-09 4.49836E-09
 -1       409 6.05152E+03 5.97276E+05 1.26584E+04-1.94219E+02 5.45697E-11-5.44242E-09
 -1       410 1.74431E+04 5.93406E+05 2.58403E+04 2.03660E+02 1.68438E-09-1.81262E-09
 -1       521-5.45288E+06-7.23629E+05-3.43884E+05-2.09705E+06 2.42289E-09-4.19095E-09
 -1       522-5.56818E+06-9.13758E+05-2.11459E+05-2.10163E+06 3.25872E-09-5.81349E-09
 -1       523-5.50936E+06-7.86543E+05-8.07520E+04-2.09220E+06-7.28505E-10-1.22236E-09
 -1       524-5.50199E+06-8.23751E+05-4.32543E+04-2.11517E+06-1.09222E-09 2.31739E-09
 -1       525-5.51560E+06-7.92181E+05-1.86842E+04-2.09143E+06-8.53333E-10 3.22416E-09
 -1       526-5.49473E+06-8.15856E+05-9.75962E+03-2.11657E+06 2.61184E-09-4.19141E-09
 -1       527-5.51630E+06-7.92765E+05-5.10829E+03-2.09140E+06-6.72799E-10 2.77109E-09
 -1       528-5.49438E+06-8.14773E+05-4.05962E+03-2.11613E+06 9.83732E-10-1.73350E-09
 -1       529-5.51587E+06-7.93209E+05-5.02196E+03-2.09186E+06-5.13865E-10 1.33332E-09
 -1       530-5.49622E+06-8.14218E+05-9.49750E+03-2.11461E+06-1.78716E-09 3.48064E-09
 -1       531-5.51435E+06-7.93493E+05-1.81704E+04-2.09279E+06-3.23143E-09-6.91216E-11
 -1       532-5.50474E+06-8.20342E+05-4.19836E+04-2.11141E+06 1.02295E-09 2.10093E-09
 -1       533-5.50751E+06-7.88799E+05-7.84084E+04-2.09437E+06-4.18595E-10 2.89583E-09
 -1       534-5.57039E+06-9.06244E+05-2.05221E+05-2.09660E+06-3.13594E-09 2.06637E-09
 -1       535-5.45202E+06-7.28431E+05-3.33794E+05-2.09984E+06-5.92991E-10-6.27188E-09
 -1       536-5.27810E+04-1.35464E+04 7.54860E+04-2.35837E+04 4.45471E-09-3.01952E-09
 -1       537-2.60473E+04 2.00385E+04 4.71871E+04-6.55912E+04 9.46784E-10-6.65750E-10
 -1       538-4.19801E+04-1.55115E+03 1.93922E+04-2.32558E+04 2.61571E-09 3.28328E-10
 -1       539-3.87918E+04 1.47153E+03 1.06445E+04-6.59388E+04 3.05135E-09 8.47649E-09
 -1       540-4.10231E+04-2.93703E+02 4.83278E+03-2.32180E+04 7.62157E-10-9.44965E-10
 -1       541-4.04974E+04 7.01857E+01 2.52826E+03-6.59886E+04-8.76753E-10-4.77485E-12
 -1       542-4.09952E+04-6.01322E+01 1.14028E+03-2.32080E+04-1.20326E-09 6.61657E-09
 -1       543-4.09505E+04 6.20996E+01 5.03554E+02-6.60047E+04-7.41693E-10-7.48059E-11
 -1       544-4.10306E+04 2.52446E+01 5.10388E+01-2.32023E+04 1.05319E-09 2.91129E-09
 -1       545-4.11356E+04 7.95599E+01-3.67694E+02-6.60117E+04-1.18303E-09 5.22823E-09
 -1       546-4.10106E+04 6.49592E+01-9.37761E+02-2.32010E+04 1.89289E-10-1.02000E-09
 -1       547-4.13639E+04-2.68057E+02-2.16182E+03-6.60013E+04-1.39153E-10 1.21804E-09
 -1       548-4.07423E+04 2.49149E+02-4.03807E+03-2.32129E+04-1.65892E-09-5.32964E-10
 -1       549-4.36723E+04-4.24287E+03-9.76389E+03-6.58302E+04-7.36236E-10 5.24506E-09
 -1       550-3.83822E+04 2.58373E+03-1.57399E+04-2.33716E+04-2.22826E-10 4.01178E-09
 -1       551 2.17699E+04-5.29972E+05 4.25974E+04-8.03155E+05 1.30240E-09-3.60887E-09
 -1       552 1.62378E+04-5.25072E+05 4.00371E+04-9.56104E+05-1.05501E-09-7.27596E-11
 -1       553 1.26082E+04-5.32109E+05 5.40239E+04-8.01709E+05 1.01136E-09 2.96041E-09
 -1       554 4.03065E+04-5.10391E+05 1.07806E+05-9.56237E+05-1.59707E-09 1.46965E-08
 -1       555 9.76446E+04-5.46535E+05 2.05906E+05-8.02626E+05-1.45519E-11 3.29965E-09
 -1       556-2.84365E+05-1.82774E+05 3.60666E+04-3.15172E+05-4.40923E-09-1.78261E-09
 -1       557-2.51204E+05-2.17105E+05 1.79793E+04-3.40716E+05-5.52973E-10 1.43841E-08
 -1       558-2.85601E+05-1.93250E+05 7.45673E+03-3.08974E+05-2.64845E-09 3.55431E-09
 -1       559-2.55745E+05-2.22409E+05 3.70855E+03-3.42672E+05-3.58705E-09 6.72344E-09
 -1       560-2.86714E+05-1.92851E+05 1.59923E+03-3.09425E+05-4.26371E-09-6.10544E-09
 -1       561-2.57188E+05-2.22156E+05 7.88992E+02-3.43674E+05-1.53523E-09-1.01149E-08
 -1       562-2.87550E+05-1.92322E+05 2.73613E+02-3.09983E+05-5.83168E-09-1.21950E-08
 -1       563-2.58014E+05-2.21800E+05 2.57390E+01-3.44248E+05 7.34872E-10 2.49929E-09
 -1       564-2.88026E+05-1.92016E+05-2.76126E+02-3.10308E+05 2.94312E-09-1.34878E-09
 -1       565-2.58421E+05-2.21635E+05-7.31039E+02-3.44511E+05 1.63891E-09 2.75941E-09
 -1       566-2.88101E+05-1.91916E+05-1.60203E+03-3.10387E+05 1.94109E-09 4.64388E-09
 -1       567-2.58654E+05-2.21799E+05-3.55506E+03-3.44448E+05 5.33373E-09-7.01220E-09
 -1       568-2.87634E+05-1.92474E+05-7.33788E+03-3.10033E+05 4.54747E-09-2.87400E-09
 -1       569-2.62394E+05-2.26099E+05-1.72864E+04-3.43087E+05 2.18643E-09-3.27054E-09
 -1       570-2.85337E+05-2.04968E+05-3.50334E+04-3.04578E+05 2.98314E-09 3.68800E-09
 -1       571 3.62761E+05 1.70558E+04 2.53397E+04-9.74646E+04 1.54614E-11-7.63976E-10
 -1       572 3.66525E+05 5.91212E+03 1.24166E+04-1.06845E+05-1.25146E-09-2.31012E-10
 -1       573 3.64233E+05 1.39266E+03 5.51604E+03-9.72073E+04-4.13820E-10 1.03228E-09
 -1       574 3.64677E+05 4.45210E+02 2.76455E+03-1.07123E+05-1.66256E-09-2.20007E-09
 -1       575 3.64378E+05 5.29163E+01 1.30243E+03-9.71745E+04-1.15051E-08-9.65883E-10
 -1       576 3.64415E+05 9.95056E+00 6.62242E+02-1.07160E+05-2.01310E-08-5.34965E-09
 -1       577 3.64402E+05-1.86491E+01 3.23482E+02-9.71702E+04-7.86895E-09 7.40329E-10
 -1       578 3.64402E+05-1.82848E+01 1.71210E+02-1.07165E+05 4.74756E-10-3.91992E-10
 -1       579 3.64451E+05-3.58578E+01 9.35318E+01-9.71697E+04-1.65710E-09 1.28694E-09
 -1       580 3.64473E+05-5.33130E+01 7.02248E+01-1.07160E+05-4.81123E-10-3.91083E-10
 -1       581 3.64545E+05-8.32372E+01 7.29044E+01-9.71748E+04-1.20781E-09-3.56522E-10
 -1       582 3.64612E+05-1.02694E+02 1.26725E+02-1.07103E+05-1.03319E-09-2.21735E-09
 -1       583 3.64678E+05-1.07272E+02 2.26844E+02-9.72261E+04 8.11269E-10-3.54430E-09
 -1       584 3.64866E+05 3.70784E+01 5.10326E+02-1.06666E+05-3.08137E-09-3.01725E-09
 -1       585 3.64783E+05 4.61060E+02 1.02175E+03-9.76123E+04 1.60071E-10 2.33194E-09
 -1       586 3.52859E+03 1.72292E+05 5.96516E+03-2.10383E+05 1.40062E-09-2.49838E-09
 -1       587 2.03135E+03 1.73223E+05 5.57667E+03-2.31129E+05 2.17369E-09-1.55342E-09
 -1       588 2.38103E+03 1.72139E+05 7.81599E+03-2.10079E+05 1.48430E-09 1.77738E-08
 -1       589 7.92222E+03 1.74997E+05 1.59561E+04-2.31284E+05 2.54386E-09 2.13013E-08
 -1       590 2.17341E+04 1.70237E+05 3.18212E+04-2.10212E+05 1.76078E-09 6.46287E-09
 -1       591-1.93113E+05-6.03695E+04-3.60993E+04-9.42907E+04 1.29830E-10 4.16730E-09
 -1       592-1.94913E+05-5.66986E+04-1.78623E+04-1.04388E+05 4.57317E-09 5.91626E-09
 -1       593-1.94450E+05-4.81846E+04-7.58353E+03-1.00038E+05 1.10776E-09 1.27648E-09
 -1       594-1.90988E+05-5.20002E+04-3.71546E+03-1.04905E+05-1.61390E-09 2.47256E-09
 -1       595-1.94638E+05-4.77875E+04-1.71244E+03-1.00279E+05-1.83968E-09 1.72992E-09
 -1       596-1.90707E+05-5.18250E+04-8.66811E+02-1.04874E+05 1.24282E-09 1.35117E-08
 -1       597-1.94672E+05-4.78156E+04-4.69002E+02-1.00280E+05-6.69161E-10-7.40556E-10
 -1       598-1.90677E+05-5.18282E+04-3.69685E+02-1.04860E+05 1.95530E-09-1.42791E-10
 -1       599-1.94667E+05-4.78190E+04-4.62874E+02-1.00277E+05 8.05358E-10 1.01318E-09
 -1       600-1.90696E+05-5.18299E+04-8.50487E+02-1.04865E+05 1.76215E-10-1.12186E-09
 -1       601-1.94622E+05-4.77975E+04-1.67670E+03-1.00269E+05 1.92904E-09 5.39330E-10
 -1       602-1.90965E+05-5.20018E+04-3.63604E+03-1.04881E+05 1.13860E-08 1.59389E-09
 -1       603-1.94425E+05-4.81971E+04-7.42062E+03-1.00032E+05 4.25734E-09-3.52793E-09
 -1       604-1.94835E+05-5.65581E+04-1.74746E+04-1.04317E+05 1.51158E-09-5.09317E-11
 -1       605-1.93067E+05-6.01537E+04-3.53154E+04-9.44451E+04 3.24417E-09 7.31961E-09
 -1       606 1.45393E+05-1.52944E+04-2.26565E+04 4.42510E+04-6.51744E-09 6.23913E-10
 -1       607 1.41939E+05-5.29610E+03-1.10952E+04 4.80645E+04 3.80169E-10 3.11411E-09
 -1       608 1.43938E+05-1.23859E+03-4.93107E+03 4.39666E+04 7.17591E-09 3.75849E-10
 -1       609 1.43445E+05-3.41876E+02-2.46481E+03 4.83749E+04-1.50885E-09-4.02497E-09
 -1       610 1.43704E+05 1.85952E+01-1.16040E+03 4.39291E+04 6.47560E-10-1.18371E-09
 -1       611 1.43591E+05 9.38937E+01-5.81588E+02 4.84147E+04 3.69801E-09 3.61342E-09
 -1       612 1.43629E+05 1.12856E+02-2.74632E+02 4.39248E+04 3.17959E-09 9.75433E-10
 -1       613 1.43575E+05 1.33523E+02-1.21822E+02 4.84194E+04-9.93896E-09 4.29918E-09
 -1       614 1.43586E+05 1.25582E+02-2.74533E+01 4.39239E+04 6.44104E-09-3.55158E-10
 -1       615 1.43550E+05 1.50209E+02 5.52312E+01 4.84194E+04 2.62689E-08-1.97269E-09
 -1       616 1.43553E+05 1.47691E+02 1.61677E+02 4.39246E+04 2.86491E-09-4.93901E-09
 -1       617 1.43557E+05 2.24279E+02 3.72873E+02 4.84171E+04 1.67915E-09 3.14731E-09
 -1       618 1.43507E+05 3.46213E+02 7.57731E+02 4.39256E+04-6.10135E-09 7.85803E-10
 -1       619 1.43787E+05 9.92464E+02 1.71356E+03 4.84063E+04-1.87358E-08-5.16138E-10
 -1       620 1.43283E+05 2.52088E+03 3.50113E+03 4.39298E+04-6.98367E-09-1.13823E-09
 -1       621 1.79333E+03 3.92555E+05 5.16310E+03-3.88249E+04-7.20775E-11 3.88809E-09
 -1       622 7.80433E+02 3.93560E+05 5.09733E+03-4.63033E+04-1.38743E-09 4.40536E-09
 -1       623 5.53284E+02 3.92698E+05 7.24134E+03-3.88371E+04-4.10637E-10 6.02267E-09
 -1       624 4.12702E+03 3.95777E+05 1.47099E+04-4.61565E+04-1.02682E-09 1.44814E-08
 -1       625 1.24275E+04 3.90401E+05 2.82999E+04-3.89650E+04 1.79170E-10 4.28827E-09
 -1       626 2.15410E+05 7.31538E+04-6.34303E+03 1.44144E+05 4.28372E-10-5.92991E-10
 -1       627 2.10494E+05 7.96904E+04-2.99689E+03 1.47704E+05-1.40426E-09 1.39835E-09
 -1       628 2.15614E+05 7.62881E+04-1.25819E+03 1.42449E+05-9.31504E-09 1.18780E-08
 -1       629 2.10799E+05 8.11527E+04-5.98080E+02 1.47657E+05-2.14495E-08-3.60086E-09
 -1       630 2.15571E+05 7.65373E+04-2.59650E+02 1.42275E+05-8.04539E-09-2.36213E-09
 -1       631 2.10777E+05 8.12851E+04-1.05843E+02 1.47640E+05-8.38099E-09 9.63496E-11
 -1       632 2.15527E+05 7.65610E+04-7.99727E+00 1.42241E+05-9.27685E-11 3.17095E-09
 -1       633 2.10753E+05 8.13023E+04 8.31098E+01 1.47625E+05 1.88629E-09 9.56334E-10
 -1       634 2.15496E+05 7.65601E+04 2.15920E+02 1.42228E+05 3.93220E-09 2.14413E-09
 -1       635 2.10768E+05 8.13162E+04 4.91808E+02 1.47622E+05 3.20779E-09 2.68801E-09
 -1       636 2.15472E+05 7.65956E+04 1.02125E+03 1.42206E+05-1.20558E-08-2.64445E-08
 -1       637 2.11023E+05 8.16273E+04 2.28744E+03 1.47569E+05-4.32658E-09-8.55107E-09
 -1       638 2.15436E+05 7.75217E+04 4.74861E+03 1.41808E+05 2.44199E-10 4.31373E-09
 -1       639 2.13449E+05 8.60464E+04 1.13158E+04 1.46453E+05 2.78851E-09 2.49793E-09
 -1       640 2.15661E+05 9.01601E+04 2.39269E+04 1.36583E+05-2.83762E-10 3.52247E-09
 -1       656 9.49328E+03-4.80372E+05-5.80926E+04 2.41607E+04-7.45422E-09-2.54204E-09
 -1       657-1.64373E+04-5.00248E+05-4.12654E+04 6.70100E+04-1.43109E-09 4.05589E-09
 -1       658 1.63389E+03-4.87746E+05-2.69608E+04 2.40043E+04-4.55066E-09 3.42880E-09
 -1       659-1.51425E+04-4.99499E+05-3.87715E+04 6.71102E+04-5.42059E-09-5.00359E-09
 -1       660 8.67544E+03-4.81231E+05-5.32270E+04 2.40634E+04-5.78075E-09-3.18141E-09
 -1       661 4.54682E+05 6.16925E+04 3.66868E+04 1.79114E+05 9.44056E-10-1.58252E-10
 -1       662 4.62197E+05 8.66545E+04 2.25428E+04 1.85104E+05-3.10456E-09 4.25257E-09
 -1       663 4.60609E+05 6.84630E+04 8.64009E+03 1.78742E+05 4.05180E-10 6.25414E-09
 -1       664 4.55331E+05 7.69369E+04 4.63744E+03 1.86320E+05 6.96423E-09 5.39512E-09
 -1       665 4.61204E+05 6.91391E+04 2.02117E+03 1.78744E+05 4.73767E-09 5.60249E-10
 -1       666 4.54639E+05 7.60203E+04 1.08268E+03 1.86361E+05 3.21734E-10 2.66391E-09
 -1       667 4.61263E+05 6.92163E+04 6.18304E+02 1.78756E+05-3.59279E-09 4.73506E-10
 -1       668 4.54579E+05 7.59433E+04 5.84129E+02 1.86354E+05-9.29990E-09-1.33741E-09
 -1       669 4.61258E+05 6.92090E+04 8.35634E+02 1.78753E+05-1.32314E-09-7.38964E-09
 -1       670 4.54695E+05 7.60836E+04 1.67558E+03 1.86373E+05 1.69936E-08 2.61502E-09
 -1       671 4.61156E+05 6.90844E+04 3.24227E+03 1.78736E+05 1.79125E-09 8.01060E-09
 -1       672 4.55829E+05 7.75648E+04 7.50868E+03 1.86295E+05-2.31887E-09 7.68910E-09
 -1       673 4.60180E+05 6.79949E+04 1.40147E+04 1.78738E+05-3.60575E-09-5.29781E-09
 -1       674 4.66975E+05 9.33342E+04 3.65848E+04 1.84311E+05 1.15452E-08 6.68570E-09
 -1       675 4.50559E+05 5.70090E+04 5.95480E+04 1.79339E+05 7.84758E-09 2.09548E-09
 -1       676 5.55229E+01-4.62882E+05-2.34725E+03 2.87879E+02 2.01007E-08 1.86397E-09
 -1       677-6.68775E+02-4.63488E+05-4.31249E+03-5.74889E+02 2.06387E-08 2.12658E-10
 -1       678 4.63737E+02-4.62464E+05-7.58755E+03 2.86776E+02 1.37311E-08-6.37139E-09
 -1       679-7.86561E+03-4.68119E+05-1.81206E+04-5.72351E+02 1.55057E-08 2.53191E-09
 -1       680 4.96314E+03-4.58255E+05-2.90080E+04 2.81677E+02 1.64055E-08 3.78446E-09
 -1       771-2.77525E+06-5.65671E+05-8.00563E+04-1.22102E+06-2.61571E-09-3.17232E-09
 -1       772-2.76218E+06-5.73753E+05-3.94819E+04-1.26223E+06-2.69210E-09 7.09406E-10
 -1       773-2.78012E+06-5.37446E+05-1.68965E+04-1.23354E+06 1.01136E-09-2.34286E-09
 -1       774-2.75389E+06-5.63942E+05-8.21355E+03-1.26558E+06 1.68802E-09-3.20233E-09
 -1       775-2.78176E+06-5.35768E+05-3.85715E+03-1.23455E+06-4.36557E-10-2.51930E-10
 -1       776-2.75409E+06-5.63366E+05-1.91569E+03-1.26659E+06-5.09317E-10 1.10856E-09
 -1       777-2.78272E+06-5.35294E+05-1.06691E+03-1.23496E+06-1.96451E-10 2.00907E-09
 -1       778-2.75462E+06-5.63188E+05-8.10557E+02-1.26723E+06-1.08594E-09-5.60840E-09
 -1       779-2.78323E+06-5.34980E+05-1.03872E+03-1.23520E+06 1.08957E-09 8.17636E-10
 -1       780-2.75497E+06-5.63097E+05-1.90534E+03-1.26757E+06 2.45564E-10 1.81353E-09
 -1       781-2.78329E+06-5.34830E+05-3.79291E+03-1.23527E+06-1.94677E-09-2.18279E-09
 -1       782-2.75560E+06-5.63471E+05-8.25030E+03-1.26757E+06-2.72166E-10-1.28784E-09
 -1       783-2.78264E+06-5.35868E+05-1.68935E+04-1.23466E+06 8.49468E-10 1.44064E-09
 -1       784-2.76434E+06-5.73745E+05-3.98307E+04-1.26572E+06 3.31966E-10-2.46655E-09
 -1       785-2.77892E+06-5.63563E+05-8.05923E+04-1.22194E+06 9.45874E-10 7.20320E-10
 -1       786 2.94093E+05-6.70571E+03 3.91363E+04-4.91491E+03-2.33649E-09-2.57205E-09
 -1       787 3.07451E+05 1.06031E+04 2.43915E+04-1.39871E+04-4.27599E-09-3.21961E-09
 -1       788 2.99775E+05-6.30521E+02 1.00947E+04-4.89055E+03-2.65800E-09 5.34783E-10
 -1       789 3.01170E+05 8.94043E+02 5.51132E+03-1.39972E+04-1.55012E-09 5.72982E-11
 -1       790 3.00348E+05-6.84100E+01 2.55506E+03-4.90297E+03 1.86446E-10-1.67142E-09
 -1       791 3.00513E+05 7.29191E+01 1.35368E+03-1.39784E+04-4.24279E-10-3.19108E-09
 -1       792 3.00417E+05-9.72000E+00 7.00812E+02-4.90939E+03 6.51255E-10-8.37417E-10
 -1       793 3.00433E+05 7.48673E+00 4.61981E+02-1.39730E+04-1.84919E-10-3.38838E-09
 -1       794 3.00424E+05-5.90388E+00 4.27881E+02-4.90842E+03-2.50338E-10 6.78085E-10
 -1       795 3.00459E+05 2.94174E+01 6.43158E+02-1.39829E+04 1.84559E-09 7.32882E-09
 -1       796 3.00398E+05-3.18088E+01 1.12145E+03-4.89943E+03-6.84850E-10-3.06335E-09
 -1       797 3.00745E+05 3.76094E+02 2.36764E+03-1.40052E+04-8.42874E-10-7.14320E-09
 -1       798 3.00157E+05-2.74700E+02 4.31262E+03-4.88613E+03-4.19504E-10-1.52954E-09
 -1       799 3.03436E+05 4.51362E+03 1.04099E+04-1.39945E+04-1.53227E-09 1.25510E-10
 -1       800 2.97737E+05-2.87184E+03 1.66925E+04-4.91097E+03 5.19321E-10-2.42835E-09
 -1       801-1.38364E+04 2.45583E+05 3.60946E+04-6.54197E+05-1.36315E-08-2.56114E-09
 -1       802 5.16740E+04 2.39919E+05 5.69253E+04-1.84565E+06-2.17769E-08-3.52156E-09
 -1       803 1.08196E+04 2.28160E+05 7.40633E+04-6.52118E+05-1.71567E-08 1.27488E-08
 -1       804 1.07013E+05 2.73499E+05 1.64534E+05-1.84536E+06-2.86964E-08-7.65431E-09
 -1       805-4.99206E+04 2.09368E+05 2.46004E+05-6.54491E+05-6.63567E-09 6.60657E-09
 -1       806-2.53991E+05-8.30152E+04-2.06168E+04-1.37694E+05 1.16324E-09-5.95537E-09
 -1       807-2.52578E+05-7.89725E+04-9.74715E+03-1.45673E+05 1.03682E-09-1.77101E-09
 -1       808-2.53873E+05-7.20800E+04-4.09167E+03-1.42194E+05 2.10084E-08-3.87445E-10
 -1       809-2.50510E+05-7.51714E+04-1.97062E+03-1.46694E+05 3.16468E-08-2.70441E-08
 -1       810-2.53938E+05-7.12627E+04-8.85502E+02-1.42551E+05 1.82986E-08-8.24298E-09
 -1       811-2.50310E+05-7.48987E+04-4.36475E+02-1.46758E+05 4.80895E-10-4.46335E-10
 -1       812-2.53963E+05-7.12269E+04-2.15201E+02-1.42574E+05 1.14931E-08-8.22138E-09
 -1       813-2.50290E+05-7.48893E+04-1.35016E+02-1.46757E+05 2.28382E-08 5.13955E-09
 -1       814-2.53964E+05-7.12326E+04-1.25293E+02-1.42572E+05 7.27232E-09-1.81444E-10
 -1       815-2.50291E+05-7.48980E+04-1.96985E+02-1.46749E+05-1.80853E-09 6.53381E-09
 -1       816-2.53943E+05-7.12549E+04-3.70789E+02-1.42557E+05-7.18592E-09-9.64246E-09
 -1       817-2.50371E+05-7.50052E+04-8.11233E+02-1.46701E+05-4.62933E-10 1.63709E-11
 -1       818-2.53893E+05-7.16089E+04-1.67851E+03-1.42413E+05-3.22689E-09 1.51376E-08
 -1       819-2.51286E+05-7.64802E+04-3.99342E+03-1.46168E+05-1.79953E-08 1.69966E-08
 -1       820-2.53837E+05-7.61705E+04-8.44583E+03-1.40647E+05-9.65974E-09 3.32921E-09
 -1       821-3.49442E+05 7.54747E+03-4.41853E+04 4.88451E+03-3.64707E-09-3.77077E-09
 -1       822-3.64483E+05-1.19735E+04-2.75346E+04 1.41938E+04-2.58206E-09-3.77213E-09
 -1       823-3.55870E+05 7.02133E+02-1.14042E+04 4.77879E+03 4.35557E-09-8.56744E-10
 -1       824-3.57442E+05-9.88821E+02-6.22795E+03 1.43322E+04-2.43790E-09-1.24815E-08
 -1       825-3.56529E+05 8.08776E+01-2.90520E+03 4.74412E+03-6.73845E-09-6.85827E-09
 -1       826-3.56733E+05-4.65771E+01-1.56568E+03 1.43882E+04-1.39471E-08-3.96199E-09
 -1       827-3.56613E+05 2.35074E+01-8.69016E+02 4.72238E+03-8.55221E-09-6.20241E-09
 -1       828-3.56667E+05 3.23319E+01-6.80352E+02 1.44221E+04-1.18521E-08-4.38922E-09
 -1       829-3.56617E+05 2.56616E+01-7.95801E+02 4.71009E+03-1.37777E-09-4.92145E-09
 -1       830-3.56738E+05-2.63596E+01-1.37780E+03 1.44360E+04 4.54089E-09-3.31269E-09
 -1       831-3.56550E+05 8.06433E+01-2.52278E+03 4.70852E+03-4.88808E-09-3.63957E-09
 -1       832-3.57367E+05-8.34416E+02-5.39602E+03 1.44279E+04-1.89175E-09-1.00175E-09
 -1       833-3.55985E+05 6.23515E+02-9.86852E+03 4.71853E+03-2.72075E-09-1.53159E-09
 -1       834-3.63477E+05-1.03360E+04-2.38327E+04 1.43685E+04-4.66230E-10-8.31324E-09
 -1       835-3.50426E+05 6.55329E+03-3.82366E+04 4.77176E+03 4.05907E-09 3.20324E-09
 -1       836-9.95551E+03 7.32701E+05 6.20053E+04-2.56176E+04-1.34605E-09 4.97903E-09
 -1       837 1.78426E+04 7.54090E+05 4.78662E+04-7.12196E+04 1.73895E-09 3.58659E-09
 -1       838-2.31083E+03 7.39680E+05 3.77889E+04-2.55775E+04-1.70348E-09-2.16880E-09
 -1       839 2.61749E+04 7.59475E+05 6.42741E+04-7.12176E+04 2.36560E-09 4.54747E-10
 -1       840-1.56407E+04 7.27320E+05 9.39227E+04-2.56184E+04-1.40062E-09 1.70030E-09
 -1       856-4.18536E+05 7.62050E+03-4.46721E+04 9.23086E+03-8.29004E-09 1.24237E-09
 -1       857-4.33740E+05-1.20417E+04-2.78260E+04 2.71641E+04-9.02082E-09-2.16642E-09
 -1       858-4.25050E+05 7.23343E+02-1.15286E+04 9.05924E+03-9.55060E-09-2.14141E-09
 -1       859-4.26677E+05-9.17770E+02-6.28664E+03 2.73901E+04-2.57387E-10 3.84523E-09
 -1       860-4.25728E+05 1.09226E+02-2.92415E+03 9.00028E+03 2.40152E-09-5.91785E-09
 -1       861-4.25991E+05 4.85765E+01-1.55467E+03 2.74769E+04-1.07156E-08-5.91427E-09
 -1       862-4.25819E+05 5.74868E+01-8.24543E+02 8.97151E+03 9.66065E-09-3.72506E-09
 -1       863-4.25928E+05 1.34310E+02-5.78540E+02 2.75116E+04 2.62009E-08-1.00304E-08
 -1       864-4.25827E+05 5.66491E+01-5.91657E+02 8.96536E+03 1.26293E-08-6.45565E-09
 -1       865-4.25960E+05 9.22831E+01-9.50388E+02 2.75002E+04 9.57743E-09-1.40801E-09
 -1       866-4.25777E+05 8.52407E+01-1.70232E+03 8.98296E+03-2.30375E-09-3.61889E-09
 -1       867-4.26343E+05-4.63398E+02-3.61174E+03 2.74392E+04-7.41602E-09-8.07293E-09
 -1       868-4.25385E+05 4.31979E+02-6.60461E+03 9.02703E+03 1.24855E-08-8.25935E-09
 -1       869-4.30363E+05-6.83633E+03-1.59244E+04 2.72495E+04 5.59339E-09-4.37717E-09
 -1       870-4.21652E+05 4.36887E+03-2.55679E+04 9.17604E+03 1.23136E-08-3.15413E-09
 -1       871-5.19863E+03-4.80092E+04-9.89268E+03 1.53108E+05 1.24055E-09 3.40697E-09
 -1       872-1.80608E+03-4.98853E+04-2.86031E+03 1.82072E+05 1.96906E-09-1.97133E-09
 -1       873-6.86217E+01-4.92673E+04 3.03490E+03 1.52810E+05 5.37511E-10-1.72486E-09
 -1       874 3.13806E+03-4.67713E+04 1.11649E+04 1.82194E+05 1.01500E-09-2.08126E-09
 -1       875 1.04258E+04-5.13376E+04 2.38739E+04 1.53011E+05 1.43882E-09-7.29869E-10
 -1       876 5.49001E+05 7.39721E+04 5.13093E+04 2.17829E+05-1.57343E-09-1.11322E-09
 -1       877 5.59188E+05 1.09256E+05 3.15316E+04 2.26632E+05 1.30376E-09-1.46110E-09
 -1       878 5.57272E+05 8.34628E+04 1.20791E+04 2.17319E+05 4.51473E-09 4.64206E-09
 -1       879 5.49597E+05 9.56357E+04 6.48171E+03 2.28284E+05 1.05720E-08 8.23275E-09
 -1       880 5.58082E+05 8.44317E+04 2.81317E+03 2.17339E+05 3.58955E-09-5.39558E-10
 -1       881 5.48647E+05 9.43247E+04 1.48863E+03 2.28295E+05-6.80848E-09-3.88783E-09
 -1       882 5.58149E+05 8.45590E+04 8.10578E+02 2.17370E+05-1.62652E-09 2.44464E-09
 -1       883 5.48573E+05 9.41898E+04 6.99992E+02 2.28248E+05-1.14184E-08 4.24259E-09
 -1       884 5.58135E+05 8.45663E+04 9.31583E+02 2.17378E+05-2.99920E-10 1.03250E-09
 -1       885 5.48703E+05 9.43262E+04 1.81651E+03 2.28252E+05 1.92427E-08-6.16916E-09
 -1       886 5.58023E+05 8.44354E+04 3.49119E+03 2.17362E+05 2.07694E-09-5.07521E-09
 -1       887 5.49921E+05 9.59182E+04 8.07010E+03 2.28172E+05-9.59756E-09-4.62546E-09
 -1       888 5.56980E+05 8.32585E+04 1.50563E+04 2.17360E+05-1.15623E-08-7.16682E-10
 -1       889 5.61893E+05 1.12864E+05 3.92999E+04 2.26059E+05 4.05390E-09 8.25457E-09
 -1       890 5.46654E+05 7.14479E+04 6.39631E+04 2.18001E+05 7.46604E-09-3.56522E-09
 -1       891 1.49036E+03-2.51327E+05-1.03107E+04 4.21472E+04 1.26324E-08-4.12911E-10
 -1       892-3.18038E+03-2.54715E+05-7.93445E+03 1.18658E+05 3.88081E-09 2.82148E-09
 -1       893 3.16602E+02-2.52553E+05-6.28948E+03 4.19845E+04 1.20972E-08 1.45133E-09
 -1       894-4.60898E+03-2.55612E+05-1.07296E+04 1.18645E+05 2.03945E-08 6.01131E-09
 -1       895 2.44632E+03-2.50399E+05-1.57501E+04 4.21590E+04 1.52104E-08 5.11045E-09
 -1       956-4.06777E+05-7.57066E+03-1.72218E+04 5.19277E+04-1.70912E-08 6.01540E-09
 -1       957-4.10065E+05-2.42428E+03-8.75557E+03 6.13286E+04-2.48765E-08-1.79170E-09
 -1       958-4.08305E+05-2.14558E+02-3.94566E+03 5.16089E+04-1.64200E-08-3.08773E-09
 -1       959-4.08621E+05 2.74515E+01-2.00807E+03 6.16775E+04-2.12540E-08-1.58343E-09
 -1       960-4.08503E+05 1.25695E+02-9.77138E+02 5.15748E+04-2.63135E-08 5.36602E-10
 -1       961-4.08563E+05 1.60217E+02-5.11768E+02 6.17165E+04-3.53048E-08 1.48566E-09
 -1       962-4.08572E+05 1.47034E+02-2.84068E+02 5.15689E+04-1.81262E-08 9.54515E-10
 -1       963-4.08594E+05 1.82433E+02-2.10435E+02 6.17243E+04-1.29269E-08 4.11183E-09
 -1       964-4.08600E+05 1.61982E+02-2.35623E+02 5.15667E+04-8.09359E-09-1.18234E-09
 -1       965-4.08620E+05 1.93087E+02-3.90522E+02 6.17247E+04-1.08126E-09-2.20189E-09
 -1       966-4.08588E+05 1.70489E+02-7.25131E+02 5.15684E+04-8.89349E-09 9.95897E-10
 -1       967-4.08705E+05 1.18322E+02-1.48503E+03 6.17041E+04-3.16140E-09 4.95038E-09
 -1       968-4.08473E+05-6.06820E+01-2.91160E+03 5.15879E+04-2.99588E-09-1.27875E-09
 -1       969-4.09806E+05-1.67656E+03-6.46746E+03 6.14964E+04-2.96131E-09-1.13118E-10
 -1       970-4.07366E+05-5.48626E+03-1.27179E+04 5.17839E+04 5.52063E-10 2.89401E-09
 -1       971-6.58985E+05 5.98413E+03-3.51907E+04 9.20101E+03-5.91899E-09-1.12414E-09
 -1       972-6.70904E+05-9.47776E+03-2.19144E+04 2.76075E+04-4.06862E-09 5.31691E-09
 -1       973-6.64120E+05 5.63733E+02-9.09093E+03 8.96636E+03-7.86895E-09-1.47611E-09
 -1       974-6.65373E+05-7.04716E+02-4.96586E+03 2.79386E+04-1.00295E-09 2.00316E-10
 -1       975-6.64661E+05 8.89044E+01-2.33780E+03 8.86684E+03-7.24867E-10-3.00543E-09
 -1       976-6.64858E+05 6.63203E+01-1.29130E+03 2.80917E+04-1.11536E-08 5.52848E-09
 -1       977-6.64736E+05 5.50748E+01-7.83400E+02 8.81242E+03 1.28803E-08-2.86798E-09
 -1       978-6.64835E+05 1.35522E+02-7.29812E+02 2.81633E+04 3.37013E-08-1.76641E-09
 -1       979-6.64736E+05 6.35403E+01-1.00336E+03 8.79496E+03 1.45985E-08-3.57187E-09
 -1       980-6.64935E+05 4.57382E+01-1.86874E+03 2.81603E+04 1.73893E-08 7.21471E-10
 -1       981-6.64635E+05 1.34700E+02-3.49740E+03 8.81549E+03 6.18456E-09 1.72918E-10
 -1       982-6.65785E+05-1.09725E+03-7.52135E+03 2.80793E+04-3.56295E-10 3.31386E-09
 -1       983-6.63834E+05 8.80011E+02-1.37816E+04 8.87695E+03 4.67617E-09-1.18098E-09
 -1       984-6.74269E+05-1.43928E+04-3.32847E+04 2.78480E+04-6.18138E-09 1.35424E-09
 -1       985-6.56054E+05 9.14553E+03-5.34195E+04 9.05380E+03 1.11195E-08 8.29459E-10
 -3
 9999
