
 stresses (elem, integ.pnt.,sxx,syy,szz,sxy,sxz,syz) for set ELALL and time  0.1000000E+01

         1   1  2.217034E+06  7.940950E+06  2.097662E+06 -1.688383E+06  9.681517E+04  8.461208E+05
         1   2  1.774706E+06  6.739960E+06  1.385527E+06 -1.564875E+06  3.271936E+05  3.941808E+05
         1   3  1.456790E+06  5.631911E+06  9.970193E+05 -1.611979E+06  3.847821E+05 -5.661578E+04
         1   4  1.181040E+05 -6.152674E+05  1.223259E+05 -1.588760E+06  9.921591E+04  8.150255E+04
         1   5  4.330743E+04 -6.224506E+05  6.513021E+04 -1.503663E+06  3.288480E+05  4.966659E+04
         1   6  2.123624E+04 -6.097662E+05  4.218913E+04 -1.589141E+06  3.847974E+05  1.801173E+04
         1   7 -1.985605E+06 -9.103075E+06 -1.855716E+06 -1.490382E+06  1.014006E+05 -6.727637E+05
         1   8 -1.691027E+06 -7.932116E+06 -1.256917E+06 -1.443089E+06  3.304498E+05 -2.909122E+05
         1   9 -1.416189E+06 -6.812658E+06 -9.134713E+05 -1.566452E+06  3.848181E+05  9.192243E+04
         1  10  2.216834E+06  7.940187E+06  2.096315E+06 -1.688449E+06  3.666954E-09  3.473941E-09
         1  11  1.774550E+06  6.739766E+06  1.385035E+06 -1.564978E+06  1.594642E-09 -6.501912E-10
         1  12  1.456631E+06  5.631868E+06  9.967353E+05 -1.611962E+06 -1.400615E-09 -4.212557E-09
         1  13  1.180916E+05 -6.152772E+05  1.222948E+05 -1.588766E+06  2.602722E-09  1.364207E-11
         1  14  4.319062E+04 -6.224823E+05  6.492224E+04 -1.503676E+06  4.644049E-09  7.533166E-11
         1  15  2.107718E+04 -6.098063E+05  4.191027E+04 -1.589146E+06 -1.317628E-09 -1.356846E-11
         1  16 -1.985740E+06 -9.103569E+06 -1.856598E+06 -1.490327E+06 -3.869939E-09 -3.370342E-09
         1  17 -1.691167E+06 -7.932237E+06 -1.257282E+06 -1.443011E+06  4.650259E-09  4.867764E-10
         1  18 -1.416350E+06 -6.812707E+06 -9.137658E+05 -1.566480E+06 -5.589746E-09  4.349131E-09
         1  19  2.217034E+06  7.940950E+06  2.097662E+06 -1.688383E+06 -9.681517E+04 -8.461208E+05
         1  20  1.774706E+06  6.739960E+06  1.385527E+06 -1.564875E+06 -3.271936E+05 -3.941808E+05
         1  21  1.456790E+06  5.631911E+06  9.970193E+05 -1.611979E+06 -3.847821E+05  5.661578E+04
         1  22  1.181040E+05 -6.152674E+05  1.223259E+05 -1.588760E+06 -9.921591E+04 -8.150255E+04
         1  23  4.330743E+04 -6.224506E+05  6.513021E+04 -1.503663E+06 -3.288480E+05 -4.966659E+04
         1  24  2.123624E+04 -6.097662E+05  4.218913E+04 -1.589141E+06 -3.847974E+05 -1.801173E+04
         1  25 -1.985605E+06 -9.103075E+06 -1.855716E+06 -1.490382E+06 -1.014006E+05  6.727637E+05
         1  26 -1.691027E+06 -7.932116E+06 -1.256917E+06 -1.443089E+06 -3.304498E+05  2.909122E+05
         1  27 -1.416189E+06 -6.812658E+06 -9.134713E+05 -1.566452E+06 -3.848181E+05 -9.192243E+04
         2   1  1.283417E+06  4.904727E+06  8.519952E+05 -1.616738E+06  3.588711E+05 -7.679467E+04
         2   2  1.008928E+06  3.743306E+06  6.368874E+05 -1.513979E+06  3.111468E+05 -1.496587E+05
         2   3  7.582830E+05  2.598477E+06  4.749066E+05 -1.594770E+06  2.405207E+05 -2.225999E+05
         2   4  1.991460E+04 -6.113776E+05  3.669287E+04 -1.592046E+06  3.587213E+05  1.169664E+04
         2   5  1.900568E+04 -6.125457E+05  3.483040E+04 -1.500224E+06  3.105488E+05 -5.813224E+03
         2   6  3.248189E+04 -6.079738E+05  4.784869E+04 -1.592021E+06  2.393910E+05 -2.352654E+04
         2   7 -1.245003E+06 -6.097004E+06 -7.791383E+05 -1.567508E+06  3.585774E+05  9.943808E+04
         2   8 -9.717408E+05 -4.949156E+06 -5.673710E+05 -1.486522E+06  3.099539E+05  1.370726E+05
         2   9 -6.937361E+05 -3.803873E+06 -3.791439E+05 -1.589261E+06  2.382587E+05  1.745700E+05
         2  10  1.283277E+06  4.904686E+06  8.517426E+05 -1.616716E+06 -1.623989E-09  4.292498E-08
         2  11  1.008819E+06  3.743256E+06  6.366641E+05 -1.513942E+06  1.089576E-08  1.594784E-09
         2  12  7.582079E+05  2.598408E+06  4.747059E+05 -1.594727E+06  1.292367E-08 -4.000505E-08
         2  13  1.977642E+04 -6.114123E+05  3.645083E+04 -1.592049E+06 -4.339666E-09 -8.781572E-12
         2  14  1.890215E+04 -6.125716E+05  3.464919E+04 -1.500222E+06 -6.687594E-09  2.452955E-10
         2  15  3.242025E+04 -6.079898E+05  4.774006E+04 -1.592017E+06 -6.032644E-09  6.641562E-12
         2  16 -1.245144E+06 -6.097049E+06 -7.793990E+05 -1.567537E+06 -1.320890E-10 -4.235972E-08
         2  17 -9.718492E+05 -4.949202E+06 -5.675875E+05 -1.486557E+06  2.182176E-09 -9.975866E-10
         2  18 -6.938054E+05 -3.803921E+06 -3.793086E+05 -1.589294E+06  1.379161E-09  4.027144E-08
         2  19  1.283417E+06  4.904727E+06  8.519952E+05 -1.616738E+06 -3.588711E+05  7.679467E+04
         2  20  1.008928E+06  3.743306E+06  6.368874E+05 -1.513979E+06 -3.111468E+05  1.496587E+05
         2  21  7.582830E+05  2.598477E+06  4.749066E+05 -1.594770E+06 -2.405207E+05  2.225999E+05
         2  22  1.991460E+04 -6.113776E+05  3.669287E+04 -1.592046E+06 -3.587213E+05 -1.169664E+04
         2  23  1.900568E+04 -6.125457E+05  3.483040E+04 -1.500224E+06 -3.105488E+05  5.813224E+03
         2  24  3.248189E+04 -6.079738E+05  4.784869E+04 -1.592021E+06 -2.393910E+05  2.352654E+04
         2  25 -1.245003E+06 -6.097004E+06 -7.791383E+05 -1.567508E+06 -3.585774E+05 -9.943808E+04
         2  26 -9.717408E+05 -4.949156E+06 -5.673710E+05 -1.486522E+06 -3.099539E+05 -1.370726E+05
         2  27 -6.937361E+05 -3.803873E+06 -3.791439E+05 -1.589261E+06 -2.382587E+05 -1.745700E+05
         3   1  6.032826E+05  1.890158E+06  3.859493E+05 -1.595584E+06  1.913169E+05 -2.325049E+05
         3   2  3.847621E+05  7.264595E+05  2.714891E+05 -1.437167E+06  1.085154E+05 -2.839312E+05
         3   3  2.442633E+05 -4.110566E+05  2.096074E+05 -1.463817E+06  2.622229E+04 -3.353359E+05
         3   4  3.988537E+04 -6.029524E+05  5.967168E+04 -1.592364E+06  1.900851E+05 -3.193727E+04
         3   5  8.381084E+04 -6.148671E+05  1.028761E+05 -1.499454E+06  1.072457E+05 -8.471806E+04
         3   6  2.060546E+05 -6.018404E+05  1.994738E+05 -1.591511E+06  2.492712E+04 -1.375578E+05
         3   7 -5.237512E+05 -3.089630E+06 -2.664949E+05 -1.589142E+06  1.888518E+05  1.678652E+05
         3   8 -2.171759E+05 -1.954250E+06 -6.559011E+04 -1.561595E+06  1.059340E+05  1.140865E+05
         3   9  1.679281E+05 -7.924646E+05  1.894983E+05 -1.719163E+06  2.355023E+04  6.016419E+04
         3  10  6.032290E+05  1.890091E+06  3.857798E+05 -1.595548E+06  8.423698E-09  1.134688E-07
         3  11  3.847280E+05  7.263700E+05  2.713159E+05 -1.437142E+06  1.931947E-09  8.426444E-09
         3  12  2.442323E+05 -4.111776E+05  2.093947E+05 -1.463810E+06  1.610271E-09 -9.517972E-08
         3  13  3.984633E+04 -6.029631E+05  5.960196E+04 -1.592359E+06 -1.149663E-08  1.694859E-10
         3  14  8.379661E+04 -6.148779E+05  1.028411E+05 -1.499446E+06 -5.824549E-09  4.195698E-10
         3  15  2.060489E+05 -6.018609E+05  1.994371E+05 -1.591508E+06 -4.365831E-09  1.953450E-11
         3  16 -5.237972E+05 -3.089670E+06 -2.666155E+05 -1.589168E+06  4.113510E-09 -1.128862E-07
         3  17 -2.171915E+05 -1.954267E+06 -6.563587E+04 -1.561605E+06  2.660374E-09 -8.102910E-09
         3  18  1.679265E+05 -7.924686E+05  1.894904E+05 -1.719164E+06 -2.064414E-09  9.558526E-08
         3  19  6.032826E+05  1.890158E+06  3.859493E+05 -1.595584E+06 -1.913169E+05  2.325049E+05
         3  20  3.847621E+05  7.264595E+05  2.714891E+05 -1.437167E+06 -1.085154E+05  2.839312E+05
         3  21  2.442633E+05 -4.110566E+05  2.096074E+05 -1.463817E+06 -2.622229E+04  3.353359E+05
         3  22  3.988537E+04 -6.029524E+05  5.967168E+04 -1.592364E+06 -1.900851E+05  3.193727E+04
         3  23  8.381084E+04 -6.148671E+05  1.028761E+05 -1.499454E+06 -1.072457E+05  8.471806E+04
         3  24  2.060546E+05 -6.018404E+05  1.994738E+05 -1.591511E+06 -2.492712E+04  1.375578E+05
         3  25 -5.237512E+05 -3.089630E+06 -2.664949E+05 -1.589142E+06 -1.888518E+05 -1.678652E+05
         3  26 -2.171759E+05 -1.954250E+06 -6.559011E+04 -1.561595E+06 -1.059340E+05 -1.140865E+05
         3  27  1.679281E+05 -7.924646E+05  1.894983E+05 -1.719163E+06 -2.355023E+04 -6.016419E+04
         4   1 -7.374146E+06 -2.226948E+06 -1.498508E+06 -2.528320E+06 -8.673954E+05 -3.206578E+05
         4   2 -7.123372E+06 -9.580472E+05 -6.847913E+05 -2.754185E+06 -5.588292E+05 -1.970579E+05
         4   3 -7.398853E+06 -1.038976E+06 -4.696945E+05 -2.653223E+06 -2.470043E+05 -8.216519E+04
         4   4 -7.036225E+06 -1.911565E+06 -1.367578E+06 -2.244305E+06 -8.644169E+05 -3.198747E+05
         4   5 -6.703302E+06 -7.497562E+05 -5.603841E+05 -2.589498E+06 -5.582702E+05 -1.969058E+05
         4   6 -6.895818E+06 -9.368215E+05 -3.496068E+05 -2.607992E+06 -2.488188E+05 -8.279953E+04
         4   7 -6.698102E+06 -1.595901E+06 -1.236646E+06 -1.960092E+06 -8.614366E+05 -3.190884E+05
         4   8 -6.283052E+06 -5.414134E+05 -4.359944E+05 -2.424697E+06 -5.577106E+05 -1.967533E+05
         4   9 -6.392522E+06 -8.346723E+05 -2.295314E+05 -2.562747E+06 -2.506349E+05 -8.343384E+04
         4  10 -7.374991E+06 -2.227265E+06 -1.500137E+06 -2.528546E+06 -1.299269E-09 -9.298707E-11
         4  11 -7.123722E+06 -9.581746E+05 -6.854600E+05 -2.754274E+06  2.009307E-09 -8.918307E-10
         4  12 -7.398921E+06 -1.039000E+06 -4.698235E+05 -2.653240E+06 -1.181113E-09  5.813686E-10
         4  13 -7.037063E+06 -1.911880E+06 -1.369195E+06 -2.244529E+06  2.500225E-09 -7.919993E-10
         4  14 -6.703650E+06 -7.498833E+05 -5.610511E+05 -2.589587E+06 -1.507465E-09 -1.640514E-09
         4  15 -6.895887E+06 -9.368458E+05 -3.497377E+05 -2.608009E+06  2.802747E-09 -2.185854E-11
         4  16 -6.698934E+06 -1.596214E+06 -1.238251E+06 -1.960315E+06 -1.588909E-09 -8.955932E-10
         4  17 -6.283400E+06 -5.415401E+05 -4.366595E+05 -2.424786E+06 -1.067535E-12 -1.795125E-09
         4  18 -6.392592E+06 -8.346970E+05 -2.296641E+05 -2.562764E+06  5.331168E-09 -7.851753E-11
         4  19 -7.374146E+06 -2.226948E+06 -1.498508E+06 -2.528320E+06  8.673954E+05  3.206578E+05
         4  20 -7.123372E+06 -9.580472E+05 -6.847913E+05 -2.754185E+06  5.588292E+05  1.970579E+05
         4  21 -7.398853E+06 -1.038976E+06 -4.696945E+05 -2.653223E+06  2.470043E+05  8.216519E+04
         4  22 -7.036225E+06 -1.911565E+06 -1.367578E+06 -2.244305E+06  8.644169E+05  3.198747E+05
         4  23 -6.703302E+06 -7.497562E+05 -5.603841E+05 -2.589498E+06  5.582702E+05  1.969058E+05
         4  24 -6.895818E+06 -9.368215E+05 -3.496068E+05 -2.607992E+06  2.488188E+05  8.279953E+04
         4  25 -6.698102E+06 -1.595901E+06 -1.236646E+06 -1.960092E+06  8.614366E+05  3.190884E+05
         4  26 -6.283052E+06 -5.414134E+05 -4.359944E+05 -2.424697E+06  5.577106E+05  1.967533E+05
         4  27 -6.392522E+06 -8.346723E+05 -2.295314E+05 -2.562747E+06  2.506349E+05  8.343384E+04
         5   1 -7.174782E+06 -1.246756E+06 -3.817985E+05 -2.641053E+06 -1.965154E+05 -6.539634E+04
         5   2 -7.116364E+06 -1.038902E+06 -2.142547E+05 -2.637661E+06 -1.264262E+05 -3.976612E+04
         5   3 -7.094096E+06 -1.054426E+06 -1.488658E+05 -2.635989E+06 -5.575203E+04 -1.568197E+04
         5   4 -6.845623E+06 -1.098373E+06 -2.870460E+05 -2.527303E+06 -1.964992E+05 -6.540022E+04
         5   5 -6.818056E+06 -9.204265E+05 -1.316467E+05 -2.551058E+06 -1.268227E+05 -3.991577E+04
         5   6 -6.826518E+06 -9.657181E+05 -7.802767E+04 -2.576540E+06 -5.656539E+04 -1.598371E+04
         5   7 -6.516358E+06 -9.499702E+05 -1.923042E+05 -2.413493E+06 -1.964829E+05 -6.540408E+04
         5   8 -6.519662E+06 -8.019439E+05 -4.904713E+04 -2.464416E+06 -1.272195E+05 -4.006551E+04
         5   9 -6.558871E+06 -8.770102E+05 -7.195763E+03 -2.517070E+06 -5.737913E+04 -1.628555E+04
         5  10 -7.174825E+06 -1.246771E+06 -3.818802E+05 -2.641063E+06 -1.333019E-09  7.170873E-10
         5  11 -7.116382E+06 -1.038908E+06 -2.142881E+05 -2.637665E+06  2.005705E-09 -1.675104E-10
         5  12 -7.094099E+06 -1.054427E+06 -1.488722E+05 -2.635990E+06 -1.909656E-09  2.985867E-11
         5  13 -6.845666E+06 -1.098388E+06 -2.871276E+05 -2.527313E+06  6.818578E-10  6.009523E-10
         5  14 -6.818074E+06 -9.204326E+05 -1.316803E+05 -2.551062E+06 -3.688544E-09 -1.493458E-10
         5  15 -6.826521E+06 -9.657193E+05 -7.803424E+04 -2.576541E+06  6.469216E-10 -1.946817E-10
         5  16 -6.516401E+06 -9.499854E+05 -1.923857E+05 -2.413503E+06  4.457339E-09  1.211931E-10
         5  17 -6.519680E+06 -8.019500E+05 -4.908096E+04 -2.464420E+06 -1.662679E-09 -9.948829E-10
         5  18 -6.558875E+06 -8.770114E+05 -7.202530E+03 -2.517071E+06 -2.054832E-09  2.288324E-10
         5  19 -7.174782E+06 -1.246756E+06 -3.817985E+05 -2.641053E+06  1.965154E+05  6.539634E+04
         5  20 -7.116364E+06 -1.038902E+06 -2.142547E+05 -2.637661E+06  1.264262E+05  3.976612E+04
         5  21 -7.094096E+06 -1.054426E+06 -1.488658E+05 -2.635989E+06  5.575203E+04  1.568197E+04
         5  22 -6.845623E+06 -1.098373E+06 -2.870460E+05 -2.527303E+06  1.964992E+05  6.540022E+04
         5  23 -6.818056E+06 -9.204265E+05 -1.316467E+05 -2.551058E+06  1.268227E+05  3.991577E+04
         5  24 -6.826518E+06 -9.657181E+05 -7.802767E+04 -2.576540E+06  5.656539E+04  1.598371E+04
         5  25 -6.516358E+06 -9.499702E+05 -1.923042E+05 -2.413493E+06  1.964829E+05  6.540408E+04
         5  26 -6.519662E+06 -8.019439E+05 -4.904713E+04 -2.464416E+06  1.272195E+05  4.006551E+04
         5  27 -6.558871E+06 -8.770102E+05 -7.195763E+03 -2.517070E+06  5.737913E+04  1.628555E+04
         6   1 -6.922841E+06 -1.031961E+06 -9.114202E+04 -2.599064E+06 -4.406595E+04 -1.291938E+04
         6   2 -6.887415E+06 -9.613840E+05 -4.468612E+04 -2.557782E+06 -2.747892E+04 -8.986254E+03
         6   3 -6.810880E+06 -9.682438E+05 -1.689178E+04 -2.571330E+06 -1.081381E+04 -5.259125E+03
         6   4 -6.817249E+06 -9.892250E+05 -6.190392E+04 -2.567534E+06 -4.461024E+04 -1.312233E+04
         6   5 -6.836514E+06 -9.415749E+05 -3.067207E+04 -2.543422E+06 -2.808016E+04 -9.210133E+03
         6   6 -6.814657E+06 -9.713479E+05 -1.805222E+04 -2.574141E+06 -1.147355E+04 -5.504637E+03
         6   7 -6.711647E+06 -9.464876E+05 -3.266674E+04 -2.535999E+06 -4.515463E+04 -1.332533E+04
         6   8 -6.785610E+06 -9.217656E+05 -1.665822E+04 -2.529061E+06 -2.868145E+04 -9.434034E+03
         6   9 -6.818434E+06 -9.744519E+05 -1.921266E+04 -2.576951E+06 -1.213329E+04 -5.750143E+03
         6  10 -6.922843E+06 -1.031962E+06 -9.114604E+04 -2.599064E+06  1.324196E-09  1.134193E-09
         6  11 -6.887416E+06 -9.613843E+05 -4.468771E+04 -2.557783E+06  4.217645E-10 -1.808430E-09
         6  12 -6.810880E+06 -9.682438E+05 -1.689205E+04 -2.571330E+06  4.914031E-09  9.620946E-10
         6  13 -6.817252E+06 -9.892257E+05 -6.190803E+04 -2.567534E+06  3.979700E-09  1.266853E-10
         6  14 -6.836515E+06 -9.415752E+05 -3.067374E+04 -2.543423E+06  2.805108E-09 -3.276209E-10
         6  15 -6.814657E+06 -9.713479E+05 -1.805253E+04 -2.574141E+06 -1.422793E-09 -9.804992E-11
         6  16 -6.711649E+06 -9.464883E+05 -3.267096E+04 -2.535999E+06  7.935491E-10  4.870393E-10
         6  17 -6.785611E+06 -9.217659E+05 -1.665996E+04 -2.529061E+06  1.044571E-10 -2.006017E-09
         6  18 -6.818434E+06 -9.744520E+05 -1.921300E+04 -2.576951E+06 -1.335910E-09  7.532207E-10
         6  19 -6.922841E+06 -1.031961E+06 -9.114202E+04 -2.599064E+06  4.406595E+04  1.291938E+04
         6  20 -6.887415E+06 -9.613840E+05 -4.468612E+04 -2.557782E+06  2.747892E+04  8.986254E+03
         6  21 -6.810880E+06 -9.682438E+05 -1.689178E+04 -2.571330E+06  1.081381E+04  5.259125E+03
         6  22 -6.817249E+06 -9.892250E+05 -6.190392E+04 -2.567534E+06  4.461024E+04  1.312233E+04
         6  23 -6.836514E+06 -9.415749E+05 -3.067207E+04 -2.543422E+06  2.808016E+04  9.210133E+03
         6  24 -6.814657E+06 -9.713479E+05 -1.805222E+04 -2.574141E+06  1.147355E+04  5.504637E+03
         6  25 -6.711647E+06 -9.464876E+05 -3.266674E+04 -2.535999E+06  4.515463E+04  1.332533E+04
         6  26 -6.785610E+06 -9.217656E+05 -1.665822E+04 -2.529061E+06  2.868145E+04  9.434034E+03
         6  27 -6.818434E+06 -9.744519E+05 -1.921266E+04 -2.576951E+06  1.213329E+04  5.750143E+03
         7   1 -6.649077E+06 -9.107553E+05  3.105463E+04 -2.526909E+06 -7.649451E+03 -5.626873E+03
         7   2 -6.621234E+06 -8.649680E+05  5.053274E+04 -2.486498E+06 -2.716614E+03 -6.179557E+03
         7   3 -6.548027E+06 -8.701000E+05  6.591591E+04 -2.499712E+06  2.069282E+03 -6.332099E+03
         7   4 -6.814767E+06 -9.728512E+05 -1.430845E+04 -2.571133E+06 -8.312463E+03 -5.873747E+03
         7   5 -6.837287E+06 -9.463740E+05 -8.423106E+03 -2.544689E+06 -3.265052E+03 -6.384022E+03
         7   6 -6.814468E+06 -9.708411E+05 -6.724829E+03 -2.571873E+06  1.635029E+03 -6.494222E+03
         7   7 -6.980430E+06 -1.034946E+06 -5.967390E+04 -2.615346E+06 -8.975276E+03 -6.120547E+03
         7   8 -7.053294E+06 -1.027777E+06 -6.738314E+04 -2.602862E+06 -3.813278E+03 -6.588408E+03
         7   9 -7.080841E+06 -1.071578E+06 -7.937211E+04 -2.644005E+06  1.200982E+03 -6.656267E+03
         7  10 -6.649077E+06 -9.107554E+05  3.105446E+04 -2.526909E+06  4.089298E-09  1.852331E-09
         7  11 -6.621234E+06 -8.649681E+05  5.053266E+04 -2.486498E+06  2.287274E-10  1.626796E-09
         7  12 -6.548027E+06 -8.701001E+05  6.591583E+04 -2.499712E+06  2.462217E-09 -1.045115E-10
         7  13 -6.814767E+06 -9.728513E+05 -1.430865E+04 -2.571133E+06  4.544685E-09  6.575321E-10
         7  14 -6.837287E+06 -9.463741E+05 -8.423203E+03 -2.544689E+06 -4.952731E-09 -1.340116E-10
         7  15 -6.814468E+06 -9.708411E+05 -6.724913E+03 -2.571873E+06  4.435861E-10 -1.738513E-09
         7  16 -6.980430E+06 -1.034946E+06 -5.967412E+04 -2.615346E+06 -3.094462E-09 -2.088360E-10
         7  17 -7.053294E+06 -1.027777E+06 -6.738325E+04 -2.602862E+06 -5.656530E-09  9.993282E-10
         7  18 -7.080841E+06 -1.071578E+06 -7.937219E+04 -2.644005E+06 -3.606960E-09 -5.344126E-10
         7  19 -6.649077E+06 -9.107553E+05  3.105463E+04 -2.526909E+06  7.649451E+03  5.626873E+03
         7  20 -6.621234E+06 -8.649680E+05  5.053274E+04 -2.486498E+06  2.716614E+03  6.179557E+03
         7  21 -6.548027E+06 -8.701000E+05  6.591591E+04 -2.499712E+06 -2.069282E+03  6.332099E+03
         7  22 -6.814767E+06 -9.728512E+05 -1.430845E+04 -2.571133E+06  8.312463E+03  5.873747E+03
         7  23 -6.837287E+06 -9.463740E+05 -8.423106E+03 -2.544689E+06  3.265052E+03  6.384022E+03
         7  24 -6.814468E+06 -9.708411E+05 -6.724829E+03 -2.571873E+06 -1.635029E+03  6.494222E+03
         7  25 -6.980430E+06 -1.034946E+06 -5.967390E+04 -2.615346E+06  8.975276E+03  6.120547E+03
         7  26 -7.053294E+06 -1.027777E+06 -6.738314E+04 -2.602862E+06  3.813278E+03  6.588408E+03
         7  27 -7.080841E+06 -1.071578E+06 -7.937211E+04 -2.644005E+06 -1.200982E+03  6.656267E+03
         8   1 -6.433215E+06 -8.209664E+05  9.877073E+04 -2.462780E+06  3.640932E+03 -6.880036E+03
         8   2 -6.417816E+06 -7.957620E+05  1.048674E+05 -2.439362E+06  8.086762E+03 -6.892962E+03
         8   3 -6.376900E+06 -8.007261E+05  1.072357E+05 -2.445756E+06  1.223844E+04 -6.113323E+03
         8   4 -6.818910E+06 -9.662486E+05 -6.638471E+03 -2.566587E+06  3.101285E+03 -7.081742E+03
         8   5 -6.831793E+06 -9.521537E+05 -8.166205E+03 -2.551305E+06  7.773905E+03 -7.010341E+03
         8   6 -6.819208E+06 -9.682756E+05 -1.360542E+04 -2.565835E+06  1.215208E+04 -6.146192E+03
         8   7 -7.204460E+06 -1.111522E+06 -1.120611E+05 -2.670336E+06  2.562012E+03 -7.283310E+03
         8   8 -7.245605E+06 -1.108536E+06 -1.212154E+05 -2.663179E+06  7.461279E+03 -7.127634E+03
         8   9 -7.261326E+06 -1.135814E+06 -1.344646E+05 -2.685836E+06  1.206579E+04 -6.179037E+03
         8  10 -6.433215E+06 -8.209665E+05  9.877062E+04 -2.462780E+06 -1.399791E-09 -3.841911E-09
         8  11 -6.417816E+06 -7.957620E+05  1.048672E+05 -2.439362E+06 -4.350381E-09  1.025200E-09
         8  12 -6.376900E+06 -8.007261E+05  1.072354E+05 -2.445755E+06  4.340916E-09  4.622318E-10
         8  13 -6.818910E+06 -9.662486E+05 -6.638583E+03 -2.566587E+06 -3.602729E-09 -3.360428E-09
         8  14 -6.831793E+06 -9.521538E+05 -8.166411E+03 -2.551305E+06  2.512969E-10 -2.141844E-09
         8  15 -6.819208E+06 -9.682757E+05 -1.360577E+04 -2.565835E+06 -1.564218E-09 -1.516531E-09
         8  16 -7.204460E+06 -1.111522E+06 -1.120612E+05 -2.670336E+06 -3.776274E-10 -1.650914E-09
         8  17 -7.245605E+06 -1.108536E+06 -1.212156E+05 -2.663179E+06 -3.869421E-09 -1.101227E-09
         8  18 -7.261326E+06 -1.135814E+06 -1.344650E+05 -2.685836E+06 -1.542834E-09 -3.135097E-10
         8  19 -6.433215E+06 -8.209664E+05  9.877073E+04 -2.462780E+06 -3.640932E+03  6.880036E+03
         8  20 -6.417816E+06 -7.957620E+05  1.048674E+05 -2.439362E+06 -8.086762E+03  6.892962E+03
         8  21 -6.376900E+06 -8.007261E+05  1.072357E+05 -2.445756E+06 -1.223844E+04  6.113323E+03
         8  22 -6.818910E+06 -9.662486E+05 -6.638471E+03 -2.566587E+06 -3.101285E+03  7.081742E+03
         8  23 -6.831793E+06 -9.521537E+05 -8.166205E+03 -2.551305E+06 -7.773905E+03  7.010341E+03
         8  24 -6.819208E+06 -9.682756E+05 -1.360542E+04 -2.565835E+06 -1.215208E+04  6.146192E+03
         8  25 -7.204460E+06 -1.111522E+06 -1.120611E+05 -2.670336E+06 -2.562012E+03  7.283310E+03
         8  26 -7.245605E+06 -1.108536E+06 -1.212154E+05 -2.663179E+06 -7.461279E+03  7.127634E+03
         8  27 -7.261326E+06 -1.135814E+06 -1.344646E+05 -2.685836E+06 -1.206579E+04  6.179037E+03
         9   1 -6.343957E+06 -7.782581E+05  1.145033E+05 -2.430846E+06  1.502628E+04 -5.439478E+03
         9   2 -6.343422E+06 -7.755037E+05  1.016961E+05 -2.430716E+06  2.984741E+04 -2.807252E+02
         9   3 -6.355197E+06 -7.935170E+05  7.171968E+04 -2.421945E+06  4.431613E+04  5.815609E+03
         9   4 -6.826631E+06 -9.592030E+05 -1.709200E+04 -2.559911E+06  1.478432E+04 -5.530685E+03
         9   5 -6.821687E+06 -9.571982E+05 -2.908821E+04 -2.561095E+06  2.986584E+04 -2.744787E+02
         9   6 -6.829114E+06 -9.760252E+05 -5.847189E+04 -2.553638E+06  4.459491E+04  5.919551E+03
         9   7 -7.309079E+06 -1.140136E+06 -1.487084E+05 -2.688884E+06  1.454258E+04 -5.621818E+03
         9   8 -7.299730E+06 -1.138879E+06 -1.598933E+05 -2.691382E+06  2.988426E+04 -2.682414E+02
         9   9 -7.302812E+06 -1.158518E+06 -1.886839E+05 -2.685237E+06  4.487344E+04  6.023395E+03
         9  10 -6.343957E+06 -7.782582E+05  1.145028E+05 -2.430846E+06  4.063361E-09 -3.672876E-10
         9  11 -6.343423E+06 -7.755039E+05  1.016944E+05 -2.430716E+06 -9.023905E-10  6.538536E-10
         9  12 -6.355199E+06 -7.935176E+05  7.171588E+04 -2.421946E+06 -3.675009E-09  4.009733E-09
         9  13 -6.826631E+06 -9.592031E+05 -1.709247E+04 -2.559911E+06  2.356012E-09 -5.624977E-10
         9  14 -6.821688E+06 -9.571985E+05 -2.908991E+04 -2.561095E+06 -7.858580E-10 -8.971797E-12
         9  15 -6.829116E+06 -9.760257E+05 -5.847573E+04 -2.553638E+06  2.424764E-09  2.347953E-09
         9  16 -7.309079E+06 -1.140136E+06 -1.487089E+05 -2.688884E+06 -5.082638E-09  9.292910E-10
         9  17 -7.299731E+06 -1.138879E+06 -1.598950E+05 -2.691382E+06  5.315859E-09  1.451083E-10
         9  18 -7.302814E+06 -1.158519E+06 -1.886878E+05 -2.685237E+06  4.086926E-09  2.306751E-09
         9  19 -6.343957E+06 -7.782581E+05  1.145033E+05 -2.430846E+06 -1.502628E+04  5.439478E+03
         9  20 -6.343422E+06 -7.755037E+05  1.016961E+05 -2.430716E+06 -2.984741E+04  2.807252E+02
         9  21 -6.355197E+06 -7.935170E+05  7.171968E+04 -2.421945E+06 -4.431613E+04 -5.815609E+03
         9  22 -6.826631E+06 -9.592030E+05 -1.709200E+04 -2.559911E+06 -1.478432E+04  5.530685E+03
         9  23 -6.821687E+06 -9.571982E+05 -2.908821E+04 -2.561095E+06 -2.986584E+04  2.744787E+02
         9  24 -6.829114E+06 -9.760252E+05 -5.847189E+04 -2.553638E+06 -4.459491E+04 -5.919551E+03
         9  25 -7.309079E+06 -1.140136E+06 -1.487084E+05 -2.688884E+06 -1.454258E+04  5.621818E+03
         9  26 -7.299730E+06 -1.138879E+06 -1.598933E+05 -2.691382E+06 -2.988426E+04  2.682414E+02
         9  27 -7.302812E+06 -1.158518E+06 -1.886839E+05 -2.685237E+06 -4.487344E+04 -6.023395E+03
        10   1 -6.410694E+06 -7.981411E+05  4.176658E+04 -2.452465E+06  5.510534E+04  1.038036E+04
        10   2 -6.413573E+06 -7.900448E+05 -1.789117E+04 -2.463049E+06  1.201646E+05  3.589898E+04
        10   3 -6.520251E+06 -9.226407E+05 -1.734481E+05 -2.394808E+06  1.848797E+05  6.231053E+04
        10   4 -6.841853E+06 -9.500401E+05 -7.374814E+04 -2.557813E+06  5.521477E+04  1.042226E+04
        10   5 -6.799087E+06 -9.420610E+05 -1.244193E+05 -2.573824E+06  1.204929E+05  3.602086E+04
        10   6 -6.860205E+06 -1.074882E+06 -2.712069E+05 -2.510996E+06  1.854320E+05  6.251001E+04
        10   7 -7.272832E+06 -1.101935E+06 -1.892793E+05 -2.663097E+06  5.532411E+04  1.046412E+04
        10   8 -7.184456E+06 -1.094065E+06 -2.309613E+05 -2.684535E+06  1.208209E+05  3.614264E+04
        10   9 -7.200045E+06 -1.227104E+06 -3.689770E+05 -2.627121E+06  1.859839E+05  6.270928E+04
        10  10 -6.410697E+06 -7.981420E+05  4.176060E+04 -2.452466E+06  4.830108E-09  1.753092E-09
        10  11 -6.413589E+06 -7.900501E+05 -1.792108E+04 -2.463053E+06  9.930794E-10  2.978577E-10
        10  12 -6.520289E+06 -9.226543E+05 -1.735205E+05 -2.394817E+06 -1.776855E-09  4.480581E-10
        10  13 -6.841856E+06 -9.500411E+05 -7.375414E+04 -2.557814E+06  1.557225E-09  2.819321E-09
        10  14 -6.799103E+06 -9.420664E+05 -1.244494E+05 -2.573828E+06  6.072097E-09  8.135300E-10
        10  15 -6.860243E+06 -1.074896E+06 -2.712797E+05 -2.511005E+06  2.699594E-09 -2.981049E-10
        10  16 -7.272835E+06 -1.101936E+06 -1.892853E+05 -2.663098E+06 -1.130119E-09 -1.666168E-10
        10  17 -7.184473E+06 -1.094071E+06 -2.309916E+05 -2.684539E+06  1.068531E-09  9.291723E-10
        10  18 -7.200083E+06 -1.227117E+06 -3.690503E+05 -2.627130E+06  2.920328E-09  1.525537E-10
        10  19 -6.410694E+06 -7.981411E+05  4.176658E+04 -2.452465E+06 -5.510534E+04 -1.038036E+04
        10  20 -6.413573E+06 -7.900448E+05 -1.789117E+04 -2.463049E+06 -1.201646E+05 -3.589898E+04
        10  21 -6.520251E+06 -9.226407E+05 -1.734481E+05 -2.394808E+06 -1.848797E+05 -6.231053E+04
        10  22 -6.841853E+06 -9.500401E+05 -7.374814E+04 -2.557813E+06 -5.521477E+04 -1.042226E+04
        10  23 -6.799087E+06 -9.420610E+05 -1.244193E+05 -2.573824E+06 -1.204929E+05 -3.602086E+04
        10  24 -6.860205E+06 -1.074882E+06 -2.712069E+05 -2.510996E+06 -1.854320E+05 -6.251001E+04
        10  25 -7.272832E+06 -1.101935E+06 -1.892793E+05 -2.663097E+06 -5.532411E+04 -1.046412E+04
        10  26 -7.184456E+06 -1.094065E+06 -2.309613E+05 -2.684535E+06 -1.208209E+05 -3.614264E+04
        10  27 -7.200045E+06 -1.227104E+06 -3.689770E+05 -2.627121E+06 -1.859839E+05 -6.270928E+04
        11   1 -6.617057E+06 -8.979818E+05 -2.680740E+05 -2.595983E+06  2.334664E+05  8.175310E+04
        11   2 -6.550238E+06 -6.785066E+05 -4.814811E+05 -2.521826E+06  5.240104E+05  1.936399E+05
        11   3 -7.046957E+06 -1.666909E+06 -1.258312E+06 -2.063422E+06  8.140545E+05  3.068211E+05
        11   4 -6.906156E+06 -9.240116E+05 -3.303886E+05 -2.589261E+06  2.337700E+05  8.190716E+04
        11   5 -6.691562E+06 -7.794413E+05 -5.294837E+05 -2.608545E+06  5.246022E+05  1.938130E+05
        11   6 -7.040734E+06 -1.843036E+06 -1.292317E+06 -2.243487E+06  8.150120E+05  3.068868E+05
        11   7 -7.195159E+06 -9.500328E+05 -3.927034E+05 -2.582551E+06  2.340734E+05  8.206128E+04
        11   8 -6.832860E+06 -8.803536E+05 -5.774874E+05 -2.695242E+06  5.251938E+05  1.939859E+05
        11   9 -7.034435E+06 -2.018996E+06 -1.326303E+06 -2.423533E+06  8.159696E+05  3.069519E+05
        11  10 -6.617118E+06 -8.980039E+05 -2.681904E+05 -2.595998E+06 -1.162209E-09  1.334974E-09
        11  11 -6.550545E+06 -6.786221E+05 -4.820748E+05 -2.521908E+06 -3.829451E-10  4.296898E-09
        11  12 -7.047701E+06 -1.667191E+06 -1.259752E+06 -2.063625E+06  3.534778E-10  1.075961E-09
        11  13 -6.906217E+06 -9.240338E+05 -3.305054E+05 -2.589277E+06 -5.855924E-10  1.651418E-09
        11  14 -6.691870E+06 -7.795571E+05 -5.300789E+05 -2.608628E+06  1.126398E-09  2.660892E-09
        11  15 -7.041480E+06 -1.843319E+06 -1.293760E+06 -2.243690E+06 -3.253986E-09 -4.594333E-10
        11  16 -7.195220E+06 -9.500550E+05 -3.928205E+05 -2.582567E+06 -8.295203E-10  3.023327E-09
        11  17 -6.833170E+06 -8.804697E+05 -5.780842E+05 -2.695324E+06  3.966046E-09  7.748621E-12
        11  18 -7.035183E+06 -2.019279E+06 -1.327749E+06 -2.423736E+06  5.096543E-10 -8.084119E-10
        11  19 -6.617057E+06 -8.979818E+05 -2.680740E+05 -2.595983E+06 -2.334664E+05 -8.175310E+04
        11  20 -6.550238E+06 -6.785066E+05 -4.814811E+05 -2.521826E+06 -5.240104E+05 -1.936399E+05
        11  21 -7.046957E+06 -1.666909E+06 -1.258312E+06 -2.063422E+06 -8.140545E+05 -3.068211E+05
        11  22 -6.906156E+06 -9.240116E+05 -3.303886E+05 -2.589261E+06 -2.337700E+05 -8.190716E+04
        11  23 -6.691562E+06 -7.794413E+05 -5.294837E+05 -2.608545E+06 -5.246022E+05 -1.938130E+05
        11  24 -7.040734E+06 -1.843036E+06 -1.292317E+06 -2.243487E+06 -8.150120E+05 -3.068868E+05
        11  25 -7.195159E+06 -9.500328E+05 -3.927034E+05 -2.582551E+06 -2.340734E+05 -8.206128E+04
        11  26 -6.832860E+06 -8.803536E+05 -5.774874E+05 -2.695242E+06 -5.251938E+05 -1.939859E+05
        11  27 -7.034435E+06 -2.018996E+06 -1.326303E+06 -2.423533E+06 -8.159696E+05 -3.069519E+05
        12   1  1.328552E+05 -6.348743E+05  1.257214E+05 -1.405534E+02  2.120940E+04 -5.814681E+00
        12   2  1.326213E+05 -6.358734E+05  1.254790E+05  1.610756E+01  2.118250E+04  6.175240E-01
        12   3  1.324147E+05 -6.366696E+05  1.252819E+05 -3.566156E+02  2.112587E+04  7.001089E+00
        12   4 -4.958663E+01 -1.173123E+06 -2.524085E+01 -1.176481E+02  2.121066E+04  1.976447E+00
        12   5 -6.081081E+01 -1.173222E+06 -5.407145E+01  1.470642E+02  2.118375E+04  2.764742E+01
        12   6 -4.820311E+01 -1.173122E+06 -5.090589E+01 -1.176322E+02  2.112710E+04  5.327005E+01
        12   7 -1.329750E+05 -1.711103E+06 -1.257916E+05 -9.475786E+01  2.121192E+04  9.760858E+00
        12   8 -1.327635E+05 -1.710305E+06 -1.256067E+05  2.779280E+02  2.118500E+04  5.465406E+01
        12   9 -1.325315E+05 -1.709310E+06 -1.254032E+05  1.211811E+02  2.112832E+04  9.949924E+01
        12  10  1.328548E+05 -6.348745E+05  1.257206E+05 -1.405533E+02  3.130287E-09  5.085460E-09
        12  11  1.326209E+05 -6.358736E+05  1.254781E+05  1.610755E+01  7.163037E-09  4.944290E-10
        12  12  1.324142E+05 -6.366697E+05  1.252810E+05 -3.566157E+02 -1.684555E-09 -3.427559E-09
        12  13 -5.006947E+01 -1.173123E+06 -2.608582E+01 -1.176481E+02  6.876923E-09 -8.369421E-12
        12  14 -6.129243E+01 -1.173222E+06 -5.491428E+01  1.470637E+02  2.439064E-09  1.603723E-10
        12  15 -4.868215E+01 -1.173123E+06 -5.174422E+01 -1.176331E+02 -3.759489E-09 -3.178769E-11
        12  16 -1.329755E+05 -1.711104E+06 -1.257924E+05 -9.475802E+01  3.681191E-10 -5.066743E-09
        12  17 -1.327639E+05 -1.710305E+06 -1.256076E+05  2.779271E+02 -4.170840E-09 -1.016491E-09
        12  18 -1.325320E+05 -1.709310E+06 -1.254041E+05  1.211794E+02 -3.049355E-09  3.224147E-09
        12  19  1.328552E+05 -6.348743E+05  1.257214E+05 -1.405534E+02 -2.120940E+04  5.814681E+00
        12  20  1.326213E+05 -6.358734E+05  1.254790E+05  1.610756E+01 -2.118250E+04 -6.175240E-01
        12  21  1.324147E+05 -6.366696E+05  1.252819E+05 -3.566156E+02 -2.112587E+04 -7.001089E+00
        12  22 -4.958663E+01 -1.173123E+06 -2.524085E+01 -1.176481E+02 -2.121066E+04 -1.976447E+00
        12  23 -6.081081E+01 -1.173222E+06 -5.407145E+01  1.470642E+02 -2.118375E+04 -2.764742E+01
        12  24 -4.820311E+01 -1.173122E+06 -5.090589E+01 -1.176322E+02 -2.112710E+04 -5.327005E+01
        12  25 -1.329750E+05 -1.711103E+06 -1.257916E+05 -9.475786E+01 -2.121192E+04 -9.760858E+00
        12  26 -1.327635E+05 -1.710305E+06 -1.256067E+05  2.779280E+02 -2.118500E+04 -5.465406E+01
        12  27 -1.325315E+05 -1.709310E+06 -1.254032E+05  1.211811E+02 -2.112832E+04 -9.949924E+01
        13   1  1.319478E+05 -6.385550E+05  1.248157E+05 -6.308573E+02  2.107725E+04  1.396038E+00
        13   2  1.312738E+05 -6.413392E+05  1.241192E+05  4.865388E+01  2.096691E+04  4.869558E+01
        13   3  1.306263E+05 -6.439333E+05  1.234396E+05 -8.369234E+02  2.082708E+04  9.585119E+01
        13   4 -4.817175E+01 -1.173125E+06 -6.652076E+01 -3.478051E+02  2.107845E+04  6.325543E+01
        13   5 -5.848991E+01 -1.173218E+06 -1.364242E+02  4.347891E+02  2.096806E+04  1.295999E+02
        13   6 -4.559121E+01 -1.173124E+06 -2.025854E+02 -3.477885E+02  2.082817E+04  1.958006E+02
        13   7 -1.320645E+05 -1.707431E+06 -1.249682E+05 -6.495112E+01  2.107965E+04  1.250619E+02
        13   8 -1.314109E+05 -1.704835E+06 -1.244112E+05  8.206538E+02  2.096921E+04  2.104353E+02
        13   9 -1.307374E+05 -1.702056E+06 -1.238638E+05  1.410047E+02  2.082927E+04  2.956653E+02
        13  10  1.319473E+05 -6.385551E+05  1.248149E+05 -6.308573E+02 -1.275185E-09  9.433795E-09
        13  11  1.312733E+05 -6.413393E+05  1.241183E+05  4.865305E+01  5.200345E-09 -6.034290E-10
        13  12  1.306259E+05 -6.439335E+05  1.234388E+05 -8.369250E+02  3.421205E-09 -7.956494E-09
        13  13 -4.864859E+01 -1.173125E+06 -6.735524E+01 -3.478062E+02 -7.163731E-09 -4.282376E-11
        13  14 -5.896177E+01 -1.173218E+06 -1.372500E+02  4.347869E+02 -4.890410E-09  7.442907E-10
        13  15 -4.605680E+01 -1.173124E+06 -2.034003E+02 -3.477918E+02 -1.016000E-09  8.619700E-11
        13  16 -1.320649E+05 -1.707431E+06 -1.249690E+05 -6.495324E+01  9.580941E-10 -9.020586E-09
        13  17 -1.314113E+05 -1.704835E+06 -1.244121E+05  8.206503E+02 -2.369042E-09 -7.934764E-10
        13  18 -1.307379E+05 -1.702056E+06 -1.238646E+05  1.409998E+02  7.541297E-10  7.742539E-09
        13  19  1.319478E+05 -6.385550E+05  1.248157E+05 -6.308573E+02 -2.107725E+04 -1.396038E+00
        13  20  1.312738E+05 -6.413392E+05  1.241192E+05  4.865388E+01 -2.096691E+04 -4.869558E+01
        13  21  1.306263E+05 -6.439333E+05  1.234396E+05 -8.369234E+02 -2.082708E+04 -9.585119E+01
        13  22 -4.817175E+01 -1.173125E+06 -6.652076E+01 -3.478051E+02 -2.107845E+04 -6.325543E+01
        13  23 -5.848991E+01 -1.173218E+06 -1.364242E+02  4.347891E+02 -2.096806E+04 -1.295999E+02
        13  24 -4.559121E+01 -1.173124E+06 -2.025854E+02 -3.477885E+02 -2.082817E+04 -1.958006E+02
        13  25 -1.320645E+05 -1.707431E+06 -1.249682E+05 -6.495112E+01 -2.107965E+04 -1.250619E+02
        13  26 -1.314109E+05 -1.704835E+06 -1.244112E+05  8.206538E+02 -2.096921E+04 -2.104353E+02
        13  27 -1.307374E+05 -1.702056E+06 -1.238638E+05  1.410047E+02 -2.082927E+04 -2.956653E+02
        14   1  1.297016E+05 -6.476837E+05  1.224787E+05 -1.098610E+03  2.073050E+04  1.228347E+02
        14   2  1.285960E+05 -6.522098E+05  1.212248E+05  9.772608E+01  2.053742E+04  3.440577E+02
        14   3  1.274873E+05 -6.565902E+05  1.198642E+05 -1.291011E+03  2.031367E+04  5.650394E+02
        14   4 -4.263207E+01 -1.173133E+06 -2.683082E+02 -5.744526E+02  2.073154E+04  2.376138E+02
        14   5 -5.022849E+01 -1.173204E+06 -4.888626E+02  7.181400E+02  2.053838E+04  4.785220E+02
        14   6 -6.444148E+01 -1.173132E+06 -8.300742E+02 -5.744784E+02  2.031454E+04  7.191902E+02
        14   7 -1.298065E+05 -1.698327E+06 -1.230340E+05 -5.065562E+01  2.073259E+04  3.522963E+02
        14   8 -1.287157E+05 -1.693947E+06 -1.222210E+05  1.338129E+03  2.053935E+04  6.128739E+02
        14   9 -1.276351E+05 -1.689428E+06 -1.215425E+05  1.415663E+02  2.031542E+04  8.732132E+02
        14  10  1.297011E+05 -6.476838E+05  1.224778E+05 -1.098612E+03  2.658948E-09  2.916548E-09
        14  11  1.285955E+05 -6.522099E+05  1.212240E+05  9.772039E+01  3.744545E-09  2.008314E-10
        14  12  1.274868E+05 -6.565904E+05  1.198634E+05 -1.291020E+03 -1.763014E-09 -1.251198E-09
        14  13 -4.309335E+01 -1.173133E+06 -2.691155E+02 -5.744566E+02  4.098821E-10  7.453071E-11
        14  14 -5.068127E+01 -1.173204E+06 -4.896553E+02  7.181321E+02  2.476211E-10  8.193410E-10
        14  15 -6.488453E+01 -1.173132E+06 -8.308503E+02 -5.744902E+02 -2.201242E-09  8.162972E-11
        14  16 -1.298069E+05 -1.698328E+06 -1.230349E+05 -5.066150E+01  4.726371E-10 -2.053592E-09
        14  17 -1.287162E+05 -1.693947E+06 -1.222218E+05  1.338119E+03 -1.580604E-09 -2.690341E-09
        14  18 -1.276355E+05 -1.689428E+06 -1.215432E+05  1.415520E+02 -2.576856E-09  9.377602E-10
        14  19  1.297016E+05 -6.476837E+05  1.224787E+05 -1.098610E+03 -2.073050E+04 -1.228347E+02
        14  20  1.285960E+05 -6.522098E+05  1.212248E+05  9.772608E+01 -2.053742E+04 -3.440577E+02
        14  21  1.274873E+05 -6.565902E+05  1.198642E+05 -1.291011E+03 -2.031367E+04 -5.650394E+02
        14  22 -4.263207E+01 -1.173133E+06 -2.683082E+02 -5.744526E+02 -2.073154E+04 -2.376138E+02
        14  23 -5.022849E+01 -1.173204E+06 -4.888626E+02  7.181400E+02 -2.053838E+04 -4.785220E+02
        14  24 -6.444148E+01 -1.173132E+06 -8.300742E+02 -5.744784E+02 -2.031454E+04 -7.191902E+02
        14  25 -1.298065E+05 -1.698327E+06 -1.230340E+05 -5.065562E+01 -2.073259E+04 -3.522963E+02
        14  26 -1.287157E+05 -1.693947E+06 -1.222210E+05  1.338129E+03 -2.053935E+04 -6.128739E+02
        14  27 -1.276351E+05 -1.689428E+06 -1.215425E+05  1.415663E+02 -2.031542E+04 -8.732132E+02
        15   1  9.361576E+04  1.011151E+06  5.259228E+04 -4.462830E+00  3.286231E+04  9.511291E-02
        15   2  9.362134E+04  1.011177E+06  5.260163E+04 -2.605600E+01  3.286365E+04 -7.303991E+00
        15   3  9.362821E+04  1.011213E+06  5.261907E+04 -4.419868E+01  3.286636E+04 -1.470271E+01
        15   4 -3.517442E+01  5.950778E+05  1.889579E+01  7.671153E-01  3.286464E+04 -1.495148E+00
        15   5 -3.694735E+01  5.950722E+05  2.257019E+01 -9.577821E-01  3.286598E+04 -1.216715E+01
        15   6 -3.687184E+01  5.950778E+05  3.661839E+01  7.686269E-01  3.286869E+04 -2.283882E+01
        15   7 -9.369315E+04  1.791818E+05 -5.255503E+04  5.994044E+00  3.286696E+04 -3.084397E+00
        15   8 -9.370228E+04  1.791451E+05 -5.255703E+04  2.412572E+01  3.286831E+04 -1.702722E+01
        15   9 -9.370900E+04  1.791201E+05 -5.254639E+04  4.570952E+01  3.287102E+04 -3.096975E+01
        15  10  9.361460E+04  1.011151E+06  5.259025E+04 -4.462832E+00 -8.383271E-09 -1.450087E-07
        15  11  9.362018E+04  1.011177E+06  5.259959E+04 -2.605581E+01 -7.690765E-10 -5.721920E-08
        15  12  9.362705E+04  1.011213E+06  5.261704E+04 -4.419829E+01  6.871521E-10  3.533938E-08
        15  13 -3.633456E+01  5.950775E+05  1.686553E+01  7.671551E-01 -4.292322E-08 -1.647236E-11
        15  14 -3.810759E+01  5.950719E+05  2.053976E+01 -9.574600E-01 -2.310973E-08 -1.583381E-10
        15  15 -3.803227E+01  5.950775E+05  3.458763E+01  7.692314E-01 -1.662882E-09  1.526960E-10
        15  16 -9.369431E+04  1.791815E+05 -5.255706E+04  5.994126E+00 -9.487708E-09  1.449429E-07
        15  17 -9.370344E+04  1.791448E+05 -5.255906E+04  2.412617E+01  1.531901E-09  5.710644E-08
        15  18 -9.371016E+04  1.791198E+05 -5.254842E+04  4.571034E+01  1.980483E-09 -3.525760E-08
        15  19  9.361576E+04  1.011151E+06  5.259228E+04 -4.462830E+00 -3.286231E+04 -9.511320E-02
        15  20  9.362134E+04  1.011177E+06  5.260163E+04 -2.605600E+01 -3.286365E+04  7.303991E+00
        15  21  9.362821E+04  1.011213E+06  5.261907E+04 -4.419868E+01 -3.286636E+04  1.470271E+01
        15  22 -3.517442E+01  5.950778E+05  1.889579E+01  7.671157E-01 -3.286464E+04  1.495148E+00
        15  23 -3.694735E+01  5.950722E+05  2.257019E+01 -9.577819E-01 -3.286598E+04  1.216715E+01
        15  24 -3.687184E+01  5.950778E+05  3.661839E+01  7.686268E-01 -3.286869E+04  2.283882E+01
        15  25 -9.369315E+04  1.791818E+05 -5.255503E+04  5.994044E+00 -3.286696E+04  3.084397E+00
        15  26 -9.370228E+04  1.791451E+05 -5.255703E+04  2.412572E+01 -3.286831E+04  1.702722E+01
        15  27 -9.370900E+04  1.791201E+05 -5.254639E+04  4.570952E+01 -3.287102E+04  3.096975E+01
        16   1  9.363609E+04  1.011252E+06  5.263528E+04 -5.297525E+01  3.286880E+04 -1.888272E+01
        16   2  9.365345E+04  1.011336E+06  5.268399E+04 -8.388134E+01  3.287297E+04 -5.996505E+01
        16   3  9.367383E+04  1.011436E+06  5.276314E+04 -1.001534E+02  3.287617E+04 -1.010464E+02
        16   4 -3.771935E+01  5.950786E+05  4.715081E+01  3.254012E+00  3.287113E+04 -3.001560E+01
        16   5 -4.204601E+01  5.950711E+05  7.937347E+01 -4.062999E+00  3.287529E+04 -6.876172E+01
        16   6 -4.375756E+01  5.950786E+05  1.404296E+02  3.254594E+00  3.287850E+04 -1.075069E+02
        16   7 -9.371857E+04  1.790830E+05 -5.254153E+04  5.945026E+01  3.287346E+04 -4.114139E+01
        16   8 -9.374459E+04  1.789835E+05 -5.252579E+04  7.570801E+01  3.287762E+04 -7.755278E+01
        16   9 -9.376840E+04  1.788987E+05 -5.248283E+04  1.066009E+02  3.288083E+04 -1.139632E+02
        16  10  9.363493E+04  1.011252E+06  5.263325E+04 -5.297475E+01  2.048964E-09 -8.322469E-08
        16  11  9.365229E+04  1.011336E+06  5.268196E+04 -8.387975E+01  4.239172E-09 -1.255057E-08
        16  12  9.367267E+04  1.011436E+06  5.276111E+04 -1.001507E+02  4.338512E-09  5.712525E-08
        16  13 -3.887995E+01  5.950783E+05  4.511975E+01  3.254806E+00  3.588470E-09  1.188585E-10
        16  14 -4.320691E+01  5.950708E+05  7.734189E+01 -4.061179E+00  1.559449E-09 -4.763679E-10
        16  15 -4.491868E+01  5.950783E+05  1.383976E+02  3.257440E+00  4.664750E-09  3.248162E-10
        16  16 -9.371973E+04  1.790827E+05 -5.254356E+04  5.945135E+01  3.929088E-10  8.292386E-08
        16  17 -9.374575E+04  1.789833E+05 -5.252783E+04  7.571006E+01 -4.422597E-10  1.228455E-08
        16  18 -9.376956E+04  1.788984E+05 -5.248486E+04  1.066039E+02  1.993481E-09 -5.700829E-08
        16  19  9.363609E+04  1.011252E+06  5.263528E+04 -5.297525E+01 -3.286880E+04  1.888272E+01
        16  20  9.365345E+04  1.011336E+06  5.268399E+04 -8.388134E+01 -3.287297E+04  5.996505E+01
        16  21  9.367383E+04  1.011436E+06  5.276314E+04 -1.001534E+02 -3.287617E+04  1.010464E+02
        16  22 -3.771935E+01  5.950786E+05  4.715081E+01  3.254012E+00 -3.287113E+04  3.001560E+01
        16  23 -4.204601E+01  5.950711E+05  7.937347E+01 -4.062999E+00 -3.287529E+04  6.876172E+01
        16  24 -4.375756E+01  5.950786E+05  1.404296E+02  3.254594E+00 -3.287850E+04  1.075069E+02
        16  25 -9.371857E+04  1.790830E+05 -5.254153E+04  5.945026E+01 -3.287346E+04  4.114139E+01
        16  26 -9.374459E+04  1.789835E+05 -5.252579E+04  7.570801E+01 -3.287762E+04  7.755278E+01
        16  27 -9.376840E+04  1.788987E+05 -5.248283E+04  1.066009E+02 -3.288083E+04  1.139632E+02
        17   1  9.369010E+04  1.011518E+06  5.282344E+04 -1.136040E+02  3.287869E+04 -1.284532E+02
        17   2  9.372360E+04  1.011651E+06  5.300698E+04 -1.549115E+02  3.287288E+04 -3.320278E+02
        17   3  9.378227E+04  1.011825E+06  5.333216E+04 -1.717096E+02  3.284858E+04 -5.356063E+02
        17   4 -4.604177E+01  5.950829E+05  1.853355E+02  5.447676E+00  3.288102E+04 -1.365009E+02
        17   5 -5.183281E+01  5.950656E+05  3.222600E+02 -6.805615E+00  3.287520E+04 -2.955303E+02
        17   6 -4.015920E+01  5.950828E+05  5.699870E+02  5.450535E+00  3.285087E+04 -4.545642E+02
        17   7 -9.378924E+04  1.788257E+05 -5.245333E+04  1.244280E+02  3.288335E+04 -1.445435E+02
        17   8 -9.383433E+04  1.786587E+05 -5.236302E+04  1.412107E+02  3.287751E+04 -2.590560E+02
        17   9 -9.386966E+04  1.785184E+05 -5.219277E+04  1.825029E+02  3.285316E+04 -3.735737E+02
        17  10  9.368894E+04  1.011518E+06  5.282141E+04 -1.136006E+02  3.976766E-09 -1.527858E-08
        17  11  9.372243E+04  1.011650E+06  5.300495E+04 -1.549027E+02 -1.015684E-09 -8.335055E-08
        17  12  9.378111E+04  1.011825E+06  5.333013E+04 -1.716954E+02 -6.001472E-09 -1.426168E-07
        17  13 -4.720307E+01  5.950826E+05  1.833032E+02  5.451290E+00  9.320834E-09  3.306031E-10
        17  14 -5.299372E+01  5.950653E+05  3.202283E+02 -6.797792E+00  1.566957E-08 -6.968408E-10
        17  15 -4.131843E+01  5.950825E+05  5.679581E+02  5.462560E+00  2.842684E-08  5.755839E-10
        17  16 -9.379040E+04  1.788254E+05 -5.245536E+04  1.244319E+02  2.258373E-10  1.475684E-08
        17  17 -9.383549E+04  1.786584E+05 -5.236505E+04  1.412176E+02 -1.203488E-09  8.307650E-08
        17  18 -9.387082E+04  1.785181E+05 -5.219480E+04  1.825128E+02 -8.309684E-09  1.427630E-07
        17  19  9.369010E+04  1.011518E+06  5.282344E+04 -1.136040E+02 -3.287869E+04  1.284532E+02
        17  20  9.372360E+04  1.011651E+06  5.300698E+04 -1.549115E+02 -3.287288E+04  3.320278E+02
        17  21  9.378227E+04  1.011825E+06  5.333216E+04 -1.717096E+02 -3.284858E+04  5.356063E+02
        17  22 -4.604177E+01  5.950829E+05  1.853355E+02  5.447676E+00 -3.288102E+04  1.365009E+02
        17  23 -5.183281E+01  5.950656E+05  3.222600E+02 -6.805615E+00 -3.287520E+04  2.955303E+02
        17  24 -4.015920E+01  5.950828E+05  5.699870E+02  5.450536E+00 -3.285087E+04  4.545642E+02
        17  25 -9.378924E+04  1.788257E+05 -5.245333E+04  1.244280E+02 -3.288335E+04  1.445435E+02
        17  26 -9.383433E+04  1.786587E+05 -5.236302E+04  1.412107E+02 -3.287751E+04  2.590560E+02
        17  27 -9.386966E+04  1.785184E+05 -5.219277E+04  1.825029E+02 -3.285316E+04  3.735737E+02
        18   1 -7.308005E+06 -2.448813E+06 -1.508303E+06 -2.604511E+06 -6.645496E+05 -2.234507E+05
        18   2 -7.128515E+06 -1.477702E+06 -8.973879E+05 -2.645477E+06 -4.325697E+05 -7.632125E+04
        18   3 -7.246971E+06 -1.385233E+06 -7.028519E+05 -2.524583E+06 -1.804657E+05  1.795251E+04
        18   4 -5.494164E+06 -1.501516E+06 -9.630488E+05 -1.847493E+06 -6.188100E+05 -2.064413E+05
        18   5 -5.296183E+06 -7.071808E+05 -4.063957E+05 -2.063756E+06 -4.180340E+05 -7.090659E+04
        18   6 -5.388967E+06 -7.838613E+05 -2.402805E+05 -2.118453E+06 -1.971691E+05  1.166652E+04
        18   7 -3.676933E+06 -5.530330E+05 -4.181097E+05 -1.088157E+06 -5.729199E+05 -1.893261E+05
        18   8 -3.460521E+06  6.378971E+04  8.429981E+04 -1.480378E+06 -4.034492E+05 -6.546855E+04
        18   9 -3.527557E+06 -1.824722E+05  2.220328E+05 -1.711306E+06 -2.139273E+05  5.366643E+03
        18  10 -7.308498E+06 -2.448987E+06 -1.509239E+06 -2.604632E+06  4.215724E-10 -3.186376E-11
        18  11 -7.128719E+06 -1.477759E+06 -8.977551E+05 -2.645503E+06 -1.006097E-09 -4.286316E-10
        18  12 -7.247006E+06 -1.385242E+06 -7.029143E+05 -2.524581E+06  1.137819E-10  3.748929E-10
        18  13 -5.494590E+06 -1.501667E+06 -9.638564E+05 -1.847597E+06 -2.556922E-09 -1.436642E-10
        18  14 -5.296374E+06 -7.072337E+05 -4.067367E+05 -2.063781E+06  1.067696E-09 -1.939542E-10
        18  15 -5.389009E+06 -7.838720E+05 -2.403544E+05 -2.118451E+06  2.362796E-09 -3.404043E-10
        18  16 -3.677297E+06 -5.531605E+05 -4.187983E+05 -1.088245E+06  7.208742E-10  7.484579E-11
        18  17 -3.460697E+06  6.374102E+04  8.398388E+04 -1.480400E+06 -1.181695E-09 -2.706102E-11
        18  18 -3.527606E+06 -1.824846E+05  2.219463E+05 -1.711305E+06  9.848857E-10 -8.847821E-10
        18  19 -7.308005E+06 -2.448813E+06 -1.508303E+06 -2.604511E+06  6.645496E+05  2.234507E+05
        18  20 -7.128515E+06 -1.477702E+06 -8.973879E+05 -2.645477E+06  4.325697E+05  7.632125E+04
        18  21 -7.246971E+06 -1.385233E+06 -7.028519E+05 -2.524583E+06  1.804657E+05 -1.795251E+04
        18  22 -5.494164E+06 -1.501516E+06 -9.630488E+05 -1.847493E+06  6.188100E+05  2.064413E+05
        18  23 -5.296183E+06 -7.071808E+05 -4.063957E+05 -2.063756E+06  4.180340E+05  7.090659E+04
        18  24 -5.388967E+06 -7.838613E+05 -2.402805E+05 -2.118453E+06  1.971691E+05 -1.166652E+04
        18  25 -3.676933E+06 -5.530330E+05 -4.181097E+05 -1.088157E+06  5.729199E+05  1.893261E+05
        18  26 -3.460521E+06  6.378971E+04  8.429981E+04 -1.480378E+06  4.034492E+05  6.546855E+04
        18  27 -3.527557E+06 -1.824722E+05  2.220328E+05 -1.711306E+06  2.139273E+05 -5.366643E+03
        19   1 -6.985699E+06 -1.514940E+06 -6.221032E+05 -2.535081E+06 -1.594993E+05  1.403685E+04
        19   2 -6.866977E+06 -1.347852E+06 -4.859295E+05 -2.468699E+06 -1.070752E+05  3.008871E+04
        19   3 -6.717903E+06 -1.320371E+06 -4.084247E+05 -2.456459E+06 -5.325679E+04  4.242037E+04
        19   4 -5.354767E+06 -8.795355E+05 -1.939531E+05 -2.068845E+06 -1.605774E+05  1.361043E+04
        19   5 -5.365370E+06 -7.773191E+05 -9.549966E+04 -2.053969E+06 -1.102609E+05  2.887853E+04
        19   6 -5.345129E+06 -8.141562E+05 -5.390753E+04 -2.093249E+06 -5.856350E+04  4.042329E+04
        19   7 -3.721221E+06 -2.439150E+05  2.339673E+05 -1.601470E+06 -1.616581E+05  1.318295E+04
        19   8 -3.861545E+06 -2.066321E+05  2.947402E+05 -1.638316E+06 -1.134549E+05  2.766520E+04
        19   9 -3.970501E+06 -3.078399E+05  3.004545E+05 -1.729309E+06 -6.388313E+04  3.842160E+04
        19  10 -6.985727E+06 -1.514947E+06 -6.221518E+05 -2.535079E+06 -4.865409E-10  1.018301E-10
        19  11 -6.866989E+06 -1.347856E+06 -4.859529E+05 -2.468696E+06 -3.486393E-09 -1.205522E-09
        19  12 -6.717906E+06 -1.320374E+06 -4.084335E+05 -2.456457E+06  2.600118E-09 -4.969865E-10
        19  13 -5.354795E+06 -8.795427E+05 -1.940023E+05 -2.068843E+06 -1.240819E-09 -4.143109E-10
        19  14 -5.365383E+06 -7.773233E+05 -9.552421E+04 -2.053967E+06 -8.896318E-10 -4.065374E-10
        19  15 -5.345133E+06 -8.141588E+05 -5.391706E+04 -2.093247E+06  5.683212E-10 -2.729546E-11
        19  16 -3.721250E+06 -2.439222E+05  2.339176E+05 -1.601468E+06  2.557109E-09 -1.276580E-09
        19  17 -3.861559E+06 -2.066364E+05  2.947145E+05 -1.638314E+06  1.892271E-09 -2.826068E-10
        19  18 -3.970505E+06 -3.078426E+05  3.004441E+05 -1.729307E+06 -5.960123E-10  4.026443E-10
        19  19 -6.985699E+06 -1.514940E+06 -6.221032E+05 -2.535081E+06  1.594993E+05 -1.403685E+04
        19  20 -6.866977E+06 -1.347852E+06 -4.859295E+05 -2.468699E+06  1.070752E+05 -3.008871E+04
        19  21 -6.717903E+06 -1.320371E+06 -4.084247E+05 -2.456459E+06  5.325679E+04 -4.242037E+04
        19  22 -5.354767E+06 -8.795355E+05 -1.939531E+05 -2.068845E+06  1.605774E+05 -1.361043E+04
        19  23 -5.365370E+06 -7.773191E+05 -9.549966E+04 -2.053969E+06  1.102609E+05 -2.887853E+04
        19  24 -5.345129E+06 -8.141562E+05 -5.390753E+04 -2.093249E+06  5.856350E+04 -4.042329E+04
        19  25 -3.721221E+06 -2.439150E+05  2.339673E+05 -1.601470E+06  1.616581E+05 -1.318295E+04
        19  26 -3.861545E+06 -2.066321E+05  2.947402E+05 -1.638316E+06  1.134549E+05 -2.766520E+04
        19  27 -3.970501E+06 -3.078399E+05  3.004545E+05 -1.729309E+06  6.388313E+04 -3.842160E+04
        20   1 -6.531507E+06 -1.273580E+06 -3.503821E+05 -2.416256E+06 -4.458346E+04  4.013515E+04
        20   2 -6.402116E+06 -1.166361E+06 -2.882217E+05 -2.328800E+06 -3.023030E+04  3.663611E+04
        20   3 -6.201056E+06 -1.140846E+06 -2.362852E+05 -2.325884E+06 -1.568087E+04  3.257035E+04
        20   4 -5.339266E+06 -8.248479E+05 -4.169844E+04 -2.091158E+06 -4.913115E+04  3.842590E+04
        20   5 -5.374619E+06 -7.809319E+05 -2.209230E+04 -2.050018E+06 -3.509647E+04  3.481306E+04
        20   6 -5.338263E+06 -8.186378E+05 -1.243770E+04 -2.093419E+06 -2.086907E+04  3.063276E+04
        20   7 -4.145627E+06 -3.760253E+05  2.668664E+05 -1.765488E+06 -5.368846E+04  3.671304E+04
        20   8 -4.346086E+06 -3.954379E+05  2.439484E+05 -1.770815E+06 -3.997151E+04  3.298670E+04
        20   9 -4.474743E+06 -4.963864E+05  2.113466E+05 -1.860660E+06 -2.606521E+04  2.869224E+04
        20  10 -6.531510E+06 -1.273582E+06 -3.503889E+05 -2.416254E+06  2.527136E-09 -3.480652E-11
        20  11 -6.402117E+06 -1.166363E+06 -2.882259E+05 -2.328799E+06  3.227327E-09 -1.350178E-09
        20  12 -6.201057E+06 -1.140847E+06 -2.362876E+05 -2.325883E+06 -5.016718E-09 -1.051451E-09
        20  13 -5.339269E+06 -8.248501E+05 -4.170575E+04 -2.091156E+06  1.797075E-10 -4.186667E-10
        20  14 -5.374620E+06 -7.809335E+05 -2.209689E+04 -2.050017E+06 -1.472148E-09 -1.601380E-09
        20  15 -5.338264E+06 -8.186389E+05 -1.244027E+04 -2.093418E+06 -1.431572E-09 -2.010334E-10
        20  16 -4.145630E+06 -3.760275E+05  2.668584E+05 -1.765486E+06 -5.301939E-09 -5.346508E-10
        20  17 -4.346088E+06 -3.954395E+05  2.439433E+05 -1.770814E+06  1.840322E-09 -1.647982E-09
        20  18 -4.474744E+06 -4.963875E+05  2.113438E+05 -1.860659E+06 -1.765887E-09  1.078556E-09
        20  19 -6.531507E+06 -1.273580E+06 -3.503821E+05 -2.416256E+06  4.458346E+04 -4.013515E+04
        20  20 -6.402116E+06 -1.166361E+06 -2.882217E+05 -2.328800E+06  3.023030E+04 -3.663611E+04
        20  21 -6.201056E+06 -1.140846E+06 -2.362852E+05 -2.325884E+06  1.568087E+04 -3.257035E+04
        20  22 -5.339266E+06 -8.248479E+05 -4.169844E+04 -2.091158E+06  4.913115E+04 -3.842590E+04
        20  23 -5.374619E+06 -7.809319E+05 -2.209230E+04 -2.050018E+06  3.509647E+04 -3.481306E+04
        20  24 -5.338263E+06 -8.186378E+05 -1.243770E+04 -2.093419E+06  2.086907E+04 -3.063276E+04
        20  25 -4.145627E+06 -3.760253E+05  2.668664E+05 -1.765488E+06  5.368846E+04 -3.671304E+04
        20  26 -4.346086E+06 -3.954379E+05  2.439484E+05 -1.770815E+06  3.997151E+04 -3.298670E+04
        20  27 -4.474743E+06 -4.963864E+05  2.113466E+05 -1.860660E+06  2.606521E+04 -2.869224E+04
        21   1 -6.002830E+06 -1.070185E+06 -1.815125E+05 -2.275045E+06 -1.193289E+04  2.820422E+04
        21   2 -5.862305E+06 -9.610412E+05 -1.314611E+05 -2.179043E+06 -5.614386E+03  2.052164E+04
        21   3 -5.640830E+06 -9.340106E+05 -8.383056E+04 -2.177051E+06  7.651193E+02  1.265152E+04
        21   4 -5.336430E+06 -8.208576E+05 -9.675321E+03 -2.094701E+06 -1.718426E+04  2.624597E+04
        21   5 -5.376820E+06 -7.794594E+05 -5.855024E+03 -2.047812E+06 -1.097548E+04  1.852522E+04
        21   6 -5.336278E+06 -8.201504E+05 -4.365662E+03 -2.094941E+06 -4.706780E+03  1.061679E+04
        21   7 -4.669589E+06 -5.715013E+05  1.621262E+05 -1.914179E+06 -2.244187E+04  2.428539E+04
        21   8 -4.891103E+06 -5.978637E+05  1.197312E+05 -1.916487E+06 -1.634119E+04  1.652707E+04
        21   9 -5.031639E+06 -7.062859E+05  7.509067E+04 -2.012795E+06 -1.018159E+04  8.580976E+03
        21  10 -6.002831E+06 -1.070186E+06 -1.815143E+05 -2.275045E+06 -9.769829E-10  5.621635E-10
        21  11 -5.862305E+06 -9.610417E+05 -1.314620E+05 -2.179043E+06 -1.180625E-09 -1.589532E-09
        21  12 -5.640830E+06 -9.340107E+05 -8.383086E+04 -2.177051E+06 -1.058034E-09 -1.500454E-09
        21  13 -5.336430E+06 -8.208584E+05 -9.677166E+03 -2.094701E+06 -3.179432E-09  1.807923E-10
        21  14 -5.376820E+06 -7.794598E+05 -5.855893E+03 -2.047811E+06 -6.609158E-09  7.049362E-10
        21  15 -5.336278E+06 -8.201506E+05 -4.365915E+03 -2.094941E+06  8.515141E-10 -2.605647E-10
        21  16 -4.669590E+06 -5.715021E+05  1.621241E+05 -1.914179E+06 -1.641869E-09  8.966150E-10
        21  17 -4.891104E+06 -5.978641E+05  1.197302E+05 -1.916487E+06 -2.298505E-09  7.609899E-10
        21  18 -5.031639E+06 -7.062860E+05  7.509034E+04 -2.012795E+06  1.455997E-09 -6.736604E-10
        21  19 -6.002830E+06 -1.070185E+06 -1.815125E+05 -2.275045E+06  1.193289E+04 -2.820422E+04
        21  20 -5.862305E+06 -9.610412E+05 -1.314611E+05 -2.179043E+06  5.614386E+03 -2.052164E+04
        21  21 -5.640830E+06 -9.340106E+05 -8.383056E+04 -2.177051E+06 -7.651193E+02 -1.265152E+04
        21  22 -5.336430E+06 -8.208576E+05 -9.675321E+03 -2.094701E+06  1.718426E+04 -2.624597E+04
        21  23 -5.376820E+06 -7.794594E+05 -5.855024E+03 -2.047812E+06  1.097548E+04 -1.852522E+04
        21  24 -5.336278E+06 -8.201504E+05 -4.365662E+03 -2.094941E+06  4.706780E+03 -1.061679E+04
        21  25 -4.669589E+06 -5.715013E+05  1.621262E+05 -1.914179E+06  2.244187E+04 -2.428539E+04
        21  26 -4.891103E+06 -5.978637E+05  1.197312E+05 -1.916487E+06  1.634119E+04 -1.652707E+04
        21  27 -5.031639E+06 -7.062859E+05  7.509067E+04 -2.012795E+06  1.018159E+04 -8.580976E+03
        22   1 -5.433652E+06 -8.570679E+05 -2.885731E+04 -2.121937E+06  3.480951E+03  7.611154E+03
        22   2 -5.289865E+06 -7.462764E+05  1.745734E+04 -2.023664E+06  9.407719E+03 -5.662714E+02
        22   3 -5.063506E+06 -7.192376E+05  6.170230E+04 -2.021576E+06  1.532102E+04 -8.699784E+03
        22   4 -5.335907E+06 -8.205689E+05 -4.255882E+03 -2.095399E+06 -2.024489E+03  5.564764E+03
        22   5 -5.377208E+06 -7.788888E+05 -5.122981E+03 -2.047227E+06  3.927344E+03 -2.603969E+03
        22   6 -5.335974E+06 -8.209698E+05 -8.077467E+03 -2.095255E+06  9.864845E+03 -1.072896E+04
        22   7 -5.238152E+06 -7.840690E+05  2.034504E+04 -2.068856E+06 -7.530908E+03  3.518009E+03
        22   8 -5.464544E+06 -8.115009E+05 -2.770400E+04 -2.070787E+06 -1.552224E+03 -4.641367E+03
        22   9 -5.608372E+06 -9.226985E+05 -7.786406E+04 -2.168905E+06  4.411245E+03 -1.275718E+04
        22  10 -5.433652E+06 -8.570680E+05 -2.885745E+04 -2.121937E+06 -1.765790E-09 -2.594696E-10
        22  11 -5.289865E+06 -7.462764E+05  1.745717E+04 -2.023664E+06 -2.314666E-09 -1.190630E-10
        22  12 -5.063507E+06 -7.192378E+05  6.170171E+04 -2.021576E+06  1.124762E-09  1.651175E-09
        22  13 -5.335907E+06 -8.205689E+05 -4.255947E+03 -2.095399E+06  5.970284E-10 -8.815576E-10
        22  14 -5.377208E+06 -7.788888E+05 -5.123023E+03 -2.047227E+06 -1.505529E-09  4.810985E-10
        22  15 -5.335974E+06 -8.209699E+05 -8.077865E+03 -2.095255E+06 -5.364437E-10  7.913533E-10
        22  16 -5.238152E+06 -7.840690E+05  2.034491E+04 -2.068856E+06 -7.597642E-10 -1.365122E-09
        22  17 -5.464544E+06 -8.115010E+05 -2.770404E+04 -2.070787E+06  3.849476E-10  3.189828E-10
        22  18 -5.608372E+06 -9.226987E+05 -7.786440E+04 -2.168905E+06 -2.877956E-09 -2.792152E-11
        22  19 -5.433652E+06 -8.570679E+05 -2.885731E+04 -2.121937E+06 -3.480951E+03 -7.611154E+03
        22  20 -5.289865E+06 -7.462764E+05  1.745734E+04 -2.023664E+06 -9.407719E+03  5.662714E+02
        22  21 -5.063506E+06 -7.192376E+05  6.170230E+04 -2.021576E+06 -1.532102E+04  8.699784E+03
        22  22 -5.335907E+06 -8.205689E+05 -4.255882E+03 -2.095399E+06  2.024489E+03 -5.564764E+03
        22  23 -5.377208E+06 -7.788888E+05 -5.122981E+03 -2.047227E+06 -3.927344E+03  2.603969E+03
        22  24 -5.335974E+06 -8.209698E+05 -8.077467E+03 -2.095255E+06 -9.864845E+03  1.072896E+04
        22  25 -5.238152E+06 -7.840690E+05  2.034504E+04 -2.068856E+06  7.530908E+03 -3.518009E+03
        22  26 -5.464544E+06 -8.115009E+05 -2.770400E+04 -2.070787E+06  1.552224E+03  4.641367E+03
        22  27 -5.608372E+06 -9.226985E+05 -7.786406E+04 -2.168905E+06 -4.411245E+03  1.275718E+04
        23   1 -4.859357E+06 -6.418145E+05  1.137558E+05 -1.966571E+06  1.877555E+04 -1.342422E+04
        23   2 -4.721229E+06 -5.343688E+05  1.512717E+05 -1.871020E+06  3.091614E+04 -1.896404E+04
        23   3 -4.506094E+06 -5.124382E+05  1.807327E+05 -1.866587E+06  4.292147E+04 -2.409846E+04
        23   4 -5.337026E+06 -8.196685E+05 -1.029535E+04 -2.094783E+06  1.332606E+04 -1.545237E+04
        23   5 -5.375887E+06 -7.793775E+05 -1.802980E+04 -2.048307E+06  2.569889E+04 -2.090952E+04
        23   6 -5.337818E+06 -8.246592E+05 -3.400891E+04 -2.092966E+06  3.793362E+04 -2.596201E+04
        23   7 -5.814467E+06 -9.975075E+05 -1.343642E+05 -2.222904E+06  7.881252E+03 -1.747879E+04
        23   8 -6.030121E+06 -1.024358E+06 -1.873658E+05 -2.225422E+06  2.048773E+04 -2.285274E+04
        23   9 -6.168861E+06 -1.136836E+06 -2.488077E+05 -2.319068E+06  3.295313E+04 -2.782281E+04
        23  10 -4.859358E+06 -6.418147E+05  1.137548E+05 -1.966570E+06  2.625709E-09  7.178218E-10
        23  11 -4.721230E+06 -5.343695E+05  1.512692E+05 -1.871019E+06  2.643960E-09 -1.181184E-09
        23  12 -4.506096E+06 -5.124393E+05  1.807282E+05 -1.866586E+06 -2.291660E-09  1.024258E-09
        23  13 -5.337026E+06 -8.196688E+05 -1.029613E+04 -2.094783E+06  9.797405E-11  1.442233E-09
        23  14 -5.375888E+06 -7.793781E+05 -1.803186E+04 -2.048306E+06 -2.894648E-09 -1.766133E-09
        23  15 -5.337819E+06 -8.246603E+05 -3.401288E+04 -2.092966E+06 -3.278492E-09 -1.532297E-09
        23  16 -5.814467E+06 -9.975079E+05 -1.343649E+05 -2.222904E+06  1.446060E-09  8.698180E-10
        23  17 -6.030121E+06 -1.024359E+06 -1.873676E+05 -2.225421E+06  8.418572E-10 -3.962750E-10
        23  18 -6.168862E+06 -1.136837E+06 -2.488112E+05 -2.319067E+06 -3.479756E-09 -1.161015E-09
        23  19 -4.859357E+06 -6.418145E+05  1.137558E+05 -1.966571E+06 -1.877555E+04  1.342422E+04
        23  20 -4.721229E+06 -5.343688E+05  1.512717E+05 -1.871020E+06 -3.091614E+04  1.896404E+04
        23  21 -4.506094E+06 -5.124382E+05  1.807327E+05 -1.866587E+06 -4.292147E+04  2.409846E+04
        23  22 -5.337026E+06 -8.196685E+05 -1.029535E+04 -2.094783E+06 -1.332606E+04  1.545237E+04
        23  23 -5.375887E+06 -7.793775E+05 -1.802980E+04 -2.048307E+06 -2.569889E+04  2.090952E+04
        23  24 -5.337818E+06 -8.246592E+05 -3.400891E+04 -2.092966E+06 -3.793362E+04  2.596201E+04
        23  25 -5.814467E+06 -9.975075E+05 -1.343642E+05 -2.222904E+06 -7.881252E+03  1.747879E+04
        23  26 -6.030121E+06 -1.024358E+06 -1.873658E+05 -2.225422E+06 -2.048773E+04  2.285274E+04
        23  27 -6.168861E+06 -1.136836E+06 -2.488077E+05 -2.319068E+06 -3.295313E+04  2.782281E+04
        24   1 -4.313937E+06 -4.387894E+05  2.211432E+05 -1.824251E+06  5.180705E+04 -2.676059E+04
        24   2 -4.190041E+06 -3.298685E+05  2.279640E+05 -1.726536E+06  9.284247E+04 -2.028757E+04
        24   3 -4.020998E+06 -3.538705E+05  1.899284E+05 -1.696378E+06  1.326921E+05 -1.056448E+04
        24   4 -5.342375E+06 -8.161711E+05 -4.394178E+04 -2.094907E+06  4.610754E+04 -2.889245E+04
        24   5 -5.368627E+06 -7.761461E+05 -7.774794E+04 -2.051209E+06  8.902299E+04 -2.172448E+04
        24   6 -5.350185E+06 -8.695161E+05 -1.579806E+05 -2.075087E+06  1.307413E+05 -1.130906E+04
        24   7 -6.369782E+06 -1.193500E+06 -3.091152E+05 -2.365160E+06  4.041838E+04 -3.102063E+04
        24   8 -6.545853E+06 -1.222331E+06 -3.835771E+05 -2.375317E+06  8.521137E+04 -2.315840E+04
        24   9 -6.677639E+06 -1.385020E+06 -5.060405E+05 -2.453043E+06  1.287949E+05 -1.205189E+04
        24  10 -4.313940E+06 -4.387909E+05  2.211368E+05 -1.824250E+06 -1.254040E-09  1.536413E-09
        24  11 -4.190050E+06 -3.298713E+05  2.279470E+05 -1.726534E+06 -1.378970E-09 -9.880209E-10
        24  12 -4.021017E+06 -3.538753E+05  1.898950E+05 -1.696377E+06 -3.434240E-11 -2.178543E-09
        24  13 -5.342378E+06 -8.161725E+05 -4.394735E+04 -2.094906E+06 -5.718085E-09  2.151023E-10
        24  14 -5.368635E+06 -7.761488E+05 -7.776381E+04 -2.051207E+06  2.748426E-10 -2.697644E-09
        24  15 -5.350204E+06 -8.695209E+05 -1.580132E+05 -2.075086E+06  2.346288E-09 -3.919896E-11
        24  16 -6.369784E+06 -1.193502E+06 -3.091201E+05 -2.365159E+06 -3.692166E-09 -4.051923E-09
        24  17 -6.545861E+06 -1.222334E+06 -3.835918E+05 -2.375316E+06  2.307522E-09 -2.082847E-09
        24  18 -6.677657E+06 -1.385024E+06 -5.060722E+05 -2.453042E+06 -1.351255E-09 -3.338877E-10
        24  19 -4.313937E+06 -4.387894E+05  2.211432E+05 -1.824251E+06 -5.180705E+04  2.676059E+04
        24  20 -4.190041E+06 -3.298685E+05  2.279640E+05 -1.726536E+06 -9.284247E+04  2.028757E+04
        24  21 -4.020998E+06 -3.538705E+05  1.899284E+05 -1.696378E+06 -1.326921E+05  1.056448E+04
        24  22 -5.342375E+06 -8.161711E+05 -4.394178E+04 -2.094907E+06 -4.610754E+04  2.889245E+04
        24  23 -5.368627E+06 -7.761461E+05 -7.774794E+04 -2.051209E+06 -8.902299E+04  2.172448E+04
        24  24 -5.350185E+06 -8.695161E+05 -1.579806E+05 -2.075087E+06 -1.307413E+05  1.130906E+04
        24  25 -6.369782E+06 -1.193500E+06 -3.091152E+05 -2.365160E+06 -4.041838E+04  3.102063E+04
        24  26 -6.545853E+06 -1.222331E+06 -3.835771E+05 -2.375317E+06 -8.521137E+04  2.315840E+04
        24  27 -6.677639E+06 -1.385020E+06 -5.060405E+05 -2.453043E+06 -1.287949E+05  1.205189E+04
        25   1 -3.813428E+06 -2.846731E+05  1.932853E+05 -1.772329E+06  1.771883E+05 -5.628620E+03
        25   2 -3.723812E+06 -5.830194E+04  9.252038E+04 -1.560637E+06  3.298270E+05  4.897891E+04
        25   3 -3.844462E+06 -5.550672E+05 -3.034390E+05 -1.241263E+06  4.647209E+05  1.508006E+05
        25   4 -5.378196E+06 -7.914039E+05 -1.957003E+05 -2.115246E+06  1.612401E+05 -1.160000E+04
        25   5 -5.312352E+06 -7.191559E+05 -3.310001E+05 -2.059275E+06  3.419038E+05  5.346877E+04
        25   6 -5.463121E+06 -1.376829E+06 -7.844528E+05 -1.895457E+06  5.047826E+05  1.657167E+05
        25   7 -6.940555E+06 -1.298120E+06 -5.848681E+05 -2.457440E+06  1.453359E+05 -1.756013E+04
        25   8 -6.898398E+06 -1.379688E+06 -7.547413E+05 -2.556689E+06  3.539457E+05  5.794223E+04
        25   9 -7.079110E+06 -2.197744E+06 -1.265716E+06 -2.547887E+06  5.447276E+05  1.805543E+05
        25  10 -3.813462E+06 -2.846816E+05  1.932259E+05 -1.772328E+06  1.018568E-09 -1.229287E-10
        25  11 -3.723930E+06 -5.833399E+04  9.231004E+04 -1.560650E+06 -1.332153E-09 -1.059855E-09
        25  12 -3.844701E+06 -5.551502E+05 -3.038907E+05 -1.241320E+06 -1.058478E-10  5.054933E-11
        25  13 -5.378224E+06 -7.914110E+05 -1.957498E+05 -2.115244E+06  4.159426E-10  3.303618E-10
        25  14 -5.312480E+06 -7.191908E+05 -3.312273E+05 -2.059289E+06  2.353083E-09 -7.909546E-10
        25  15 -5.463404E+06 -1.376928E+06 -7.849885E+05 -1.895525E+06 -6.074598E-10 -9.089259E-10
        25  16 -6.940578E+06 -1.298126E+06 -5.849087E+05 -2.457438E+06 -2.964899E-09 -2.718798E-11
        25  17 -6.898534E+06 -1.379726E+06 -7.549859E+05 -2.556706E+06 -2.274684E-09 -1.239330E-09
        25  18 -7.079440E+06 -2.197860E+06 -1.266343E+06 -2.547967E+06 -1.122427E-09  3.686724E-10
        25  19 -3.813428E+06 -2.846731E+05  1.932853E+05 -1.772329E+06 -1.771883E+05  5.628620E+03
        25  20 -3.723812E+06 -5.830194E+04  9.252038E+04 -1.560637E+06 -3.298270E+05 -4.897891E+04
        25  21 -3.844462E+06 -5.550672E+05 -3.034390E+05 -1.241263E+06 -4.647209E+05 -1.508006E+05
        25  22 -5.378196E+06 -7.914039E+05 -1.957003E+05 -2.115246E+06 -1.612401E+05  1.160000E+04
        25  23 -5.312352E+06 -7.191559E+05 -3.310001E+05 -2.059275E+06 -3.419038E+05 -5.346877E+04
        25  24 -5.463121E+06 -1.376829E+06 -7.844528E+05 -1.895457E+06 -5.047826E+05 -1.657167E+05
        25  25 -6.940555E+06 -1.298120E+06 -5.848681E+05 -2.457440E+06 -1.453359E+05  1.756013E+04
        25  26 -6.898398E+06 -1.379688E+06 -7.547413E+05 -2.556689E+06 -3.539457E+05 -5.794223E+04
        25  27 -7.079110E+06 -2.197744E+06 -1.265716E+06 -2.547887E+06 -5.447276E+05 -1.805543E+05
        26   1  3.184034E+05  8.349890E+04  3.495406E+05 -2.478948E+05 -3.978331E+02  2.185670E+05
        26   2  7.688260E+04 -2.971333E+02  1.763683E+05 -1.412326E+05 -6.763952E+02  1.272484E+05
        26   3  4.882560E+03 -2.988554E+04  1.050310E+05 -4.664541E+04 -3.205205E+03  3.593066E+04
        26   4  2.970342E+05  3.003811E+03  3.294639E+05 -5.902491E+04 -3.288432E+02  2.176074E+05
        26   5  7.035139E+04 -2.375609E+04  1.700276E+05 -5.336865E+04 -6.662336E+02  1.301900E+05
        26   6  1.248189E+04  3.002602E+03  1.097231E+05 -5.977065E+04 -3.224217E+03  4.276545E+04
        26   7  2.757985E+05 -7.740892E+04  3.094058E+05  1.298203E+05 -2.604296E+02  2.166479E+05
        26   8  6.384914E+04 -4.719797E+04  1.636911E+05  3.449200E+04 -6.552388E+02  1.331316E+05
        26   9  2.008183E+04  3.589231E+04  1.144154E+05 -7.289661E+04 -3.243517E+03  4.960060E+04
        26  10  3.183906E+05  8.344762E+04  3.494509E+05 -2.478947E+05 -9.569361E-10 -6.717031E-09
        26  11  7.687825E+04 -3.145181E+02  1.763379E+05 -1.412326E+05 -1.254320E-09  1.683372E-09
        26  12  4.882202E+03 -2.988693E+04  1.050286E+05 -4.664532E+04 -3.393341E-09  1.478762E-08
        26  13  2.970215E+05  2.952974E+03  3.293749E+05 -5.902485E+04  4.274045E-10  2.641240E-11
        26  14  7.034684E+04 -2.377429E+04  1.699958E+05 -5.336858E+04  5.593374E-09  8.053355E-10
        26  15  1.248138E+04  3.000636E+03  1.097196E+05 -5.977054E+04  3.849256E-09 -6.554911E-10
        26  16  2.757859E+05 -7.745932E+04  3.093176E+05  1.298204E+05 -2.666703E-09  7.016699E-09
        26  17  6.384438E+04 -4.721700E+04  1.636578E+05  3.449207E+04 -3.659034E-09 -9.155476E-10
        26  18  2.008116E+04  3.588966E+04  1.144108E+05 -7.289648E+04 -3.792654E-09 -1.401302E-08
        26  19  3.184034E+05  8.349890E+04  3.495406E+05 -2.478948E+05  3.978331E+02 -2.185670E+05
        26  20  7.688260E+04 -2.971333E+02  1.763683E+05 -1.412326E+05  6.763952E+02 -1.272484E+05
        26  21  4.882560E+03 -2.988554E+04  1.050310E+05 -4.664541E+04  3.205205E+03 -3.593066E+04
        26  22  2.970342E+05  3.003811E+03  3.294639E+05 -5.902491E+04  3.288432E+02 -2.176074E+05
        26  23  7.035139E+04 -2.375609E+04  1.700276E+05 -5.336865E+04  6.662336E+02 -1.301900E+05
        26  24  1.248189E+04  3.002602E+03  1.097231E+05 -5.977065E+04  3.224217E+03 -4.276545E+04
        26  25  2.757985E+05 -7.740892E+04  3.094058E+05  1.298203E+05  2.604296E+02 -2.166479E+05
        26  26  6.384914E+04 -4.719797E+04  1.636911E+05  3.449200E+04  6.552388E+02 -1.331316E+05
        26  27  2.008183E+04  3.589231E+04  1.144154E+05 -7.289661E+04  3.243517E+03 -4.960060E+04
        27   1 -1.542426E+03 -7.638636E+04  8.547421E+04 -6.915539E+04 -5.527484E+03  2.014190E+04
        27   2 -2.320662E+04 -1.393728E+05  6.990816E+04 -5.228001E+04 -8.952358E+03 -2.454101E+04
        27   3 -2.099941E+04 -1.906419E+05  8.939261E+04 -4.782874E+04 -1.183121E+04 -6.921894E+04
        27   4  1.468015E+04 -6.253648E+03  9.675242E+04 -5.976234E+04 -5.544969E+03  2.683268E+04
        27   5  6.541224E+03 -1.219464E+04  9.141965E+04 -5.354036E+04 -8.967268E+03 -1.881669E+04
        27   6  2.243820E+04 -6.256745E+03  1.218043E+05 -5.974126E+04 -1.184208E+04 -6.446496E+04
        27   7  3.090284E+04  6.388424E+04  1.080307E+05 -5.036819E+04 -5.562250E+03  3.352419E+04
        27   8  3.628824E+04  1.149995E+05  1.129307E+05 -5.480097E+04 -8.982198E+03 -1.309124E+04
        27   9  6.587449E+04  1.781620E+05  1.542150E+05 -7.165740E+04 -1.185313E+04 -5.970960E+04
        27  10 -1.542568E+03 -7.638681E+04  8.547339E+04 -6.915530E+04 -2.088000E-09  4.093255E-09
        27  11 -2.320687E+04 -1.393735E+05  6.990688E+04 -5.228019E+04 -4.936520E-09 -3.475225E-09
        27  12 -2.100085E+04 -1.906471E+05  8.938334E+04 -4.782940E+04 -7.836101E-09 -6.978207E-09
        27  13  1.467992E+04 -6.254429E+03  9.675101E+04 -5.976222E+04  6.689972E-09  5.237033E-10
        27  14  6.541042E+03 -1.219504E+04  9.141884E+04 -5.354050E+04  7.257126E-09 -2.500545E-10
        27  15  2.243694E+04 -6.261245E+03  1.217963E+05 -5.974188E+04  3.492375E-09 -5.257638E-10
        27  16  3.090250E+04  6.388303E+04  1.080285E+05 -5.036804E+04 -3.865026E-09 -4.079810E-09
        27  17  3.628811E+04  1.149993E+05  1.129303E+05 -5.480107E+04 -3.796863E-09  3.481904E-09
        27  18  6.587338E+04  1.781582E+05  1.542080E+05 -7.165797E+04 -3.503704E-09  7.106536E-09
        27  19 -1.542426E+03 -7.638636E+04  8.547421E+04 -6.915539E+04  5.527484E+03 -2.014190E+04
        27  20 -2.320662E+04 -1.393728E+05  6.990816E+04 -5.228001E+04  8.952358E+03  2.454101E+04
        27  21 -2.099941E+04 -1.906419E+05  8.939261E+04 -4.782874E+04  1.183121E+04  6.921894E+04
        27  22  1.468015E+04 -6.253648E+03  9.675242E+04 -5.976234E+04  5.544969E+03 -2.683268E+04
        27  23  6.541224E+03 -1.219464E+04  9.141965E+04 -5.354036E+04  8.967268E+03  1.881669E+04
        27  24  2.243820E+04 -6.256745E+03  1.218043E+05 -5.974126E+04  1.184208E+04  6.446496E+04
        27  25  3.090284E+04  6.388424E+04  1.080307E+05 -5.036819E+04  5.562250E+03 -3.352419E+04
        27  26  3.628824E+04  1.149995E+05  1.129307E+05 -5.480097E+04  8.982198E+03  1.309124E+04
        27  27  6.587449E+04  1.781620E+05  1.542150E+05 -7.165740E+04  1.185313E+04  5.970960E+04
        28   1 -3.347138E+04 -2.126816E+05  1.096381E+05 -8.059665E+04 -1.379831E+04 -9.040054E+04
        28   2  4.120408E+04 -3.087315E+05  1.981219E+05  8.115763E+04 -1.265384E+04 -2.062096E+05
        28   3  3.727820E+05 -3.254590E+05  4.262966E+05  2.314016E+05 -3.483225E+03 -3.219844E+05
        28   4  1.868129E+04  9.259492E+03  1.490867E+05 -5.967767E+04 -1.381527E+04 -8.491102E+04
        28   5  1.083262E+05 -3.158855E+04  2.526028E+05 -5.336399E+04 -1.258664E+04 -2.149242E+05
        28   6  4.571826E+05  9.253629E+03  5.056261E+05 -5.856458E+04 -3.275490E+03 -3.449165E+05
        28   7  7.083293E+04  2.312498E+05  1.885339E+05 -3.875096E+04 -1.383185E+04 -7.941958E+04
        28   8  1.755115E+05  2.456669E+05  3.070899E+05 -1.879470E+05 -1.251567E+04 -2.236425E+05
        28   9  5.418911E+05  3.442505E+05  5.849947E+05 -3.486883E+05 -3.046412E+03 -3.678610E+05
        28  10 -3.347378E+04 -2.126905E+05  1.096223E+05 -8.059766E+04 -5.704007E-09 -1.365796E-08
        28  11  4.119249E+04 -3.087772E+05  1.980416E+05  8.115553E+04 -6.425662E-10 -4.556279E-09
        28  12  3.727542E+05 -3.255704E+05  4.261016E+05  2.314007E+05  9.404105E-10  8.219108E-09
        28  13  1.867915E+04  9.251699E+03  1.490728E+05 -5.967861E+04  7.447103E-10 -5.716145E-11
        28  14  1.083136E+05 -3.163818E+04  2.525157E+05 -5.336617E+04  2.613510E-09  2.595701E-10
        28  15  4.571507E+05  9.125923E+03  5.054025E+05 -5.856549E+04 -1.061798E-09 -7.815131E-10
        28  16  7.083103E+04  2.312429E+05  1.885216E+05 -3.875184E+04 -2.035115E-09  1.427102E-08
        28  17  1.754979E+05  2.456132E+05  3.069956E+05 -1.879493E+05 -1.718395E-10  3.823212E-09
        28  18  5.418547E+05  3.441053E+05  5.847405E+05 -3.486892E+05 -3.371961E-10 -7.847013E-09
        28  19 -3.347138E+04 -2.126816E+05  1.096381E+05 -8.059665E+04  1.379831E+04  9.040054E+04
        28  20  4.120408E+04 -3.087315E+05  1.981219E+05  8.115763E+04  1.265384E+04  2.062096E+05
        28  21  3.727820E+05 -3.254590E+05  4.262966E+05  2.314016E+05  3.483225E+03  3.219844E+05
        28  22  1.868129E+04  9.259492E+03  1.490867E+05 -5.967767E+04  1.381527E+04  8.491102E+04
        28  23  1.083262E+05 -3.158855E+04  2.526028E+05 -5.336399E+04  1.258664E+04  2.149242E+05
        28  24  4.571826E+05  9.253629E+03  5.056261E+05 -5.856458E+04  3.275490E+03  3.449165E+05
        28  25  7.083293E+04  2.312498E+05  1.885339E+05 -3.875096E+04  1.383185E+04  7.941958E+04
        28  26  1.755115E+05  2.456669E+05  3.070899E+05 -1.879470E+05  1.251567E+04  2.236425E+05
        28  27  5.418911E+05  3.442505E+05  5.849947E+05 -3.486883E+05  3.046412E+03  3.678610E+05
        29   1 -3.733800E+06 -1.091180E+06 -5.934384E+05 -1.371319E+06 -2.859636E+05 -9.935657E+04
        29   2 -3.649188E+06 -6.596256E+05 -3.257495E+05 -1.384714E+06 -1.845766E+05 -4.364544E+04
        29   3 -3.691889E+06 -6.180911E+05 -2.382997E+05 -1.331669E+06 -7.692618E+04 -4.487905E+03
        29   4 -3.193071E+06 -7.735289E+05 -4.243926E+05 -1.108509E+06 -2.719100E+05 -9.411296E+04
        29   5 -3.107635E+06 -4.214199E+05 -1.790921E+05 -1.201315E+06 -1.804514E+05 -4.210253E+04
        29   6 -3.147409E+06 -4.571794E+05 -1.060076E+05 -1.227721E+06 -8.273292E+04 -6.672577E+03
        29   7 -2.652029E+06 -4.557132E+05 -2.553748E+05 -8.454526E+05 -2.578429E+05 -8.885780E+04
        29   8 -2.565794E+06 -1.831649E+05 -3.246178E+04 -1.017760E+06 -1.763221E+05 -4.055753E+04
        29   9 -2.602637E+06 -2.962719E+05  2.626397E+04 -1.123702E+06 -8.854526E+04 -8.858320E+03
        29  10 -3.733891E+06 -1.091213E+06 -5.936118E+05 -1.371342E+06  1.951756E-09  2.055208E-10
        29  11 -3.649226E+06 -6.596369E+05 -3.258175E+05 -1.384721E+06  1.179386E-09  2.170562E-10
        29  12 -3.691896E+06 -6.180927E+05 -2.383110E+05 -1.331670E+06 -2.304124E-09 -6.739081E-10
        29  13 -3.193153E+06 -7.735584E+05 -4.245491E+05 -1.108530E+06  2.237299E-09 -1.334179E-09
        29  14 -3.107671E+06 -4.214306E+05 -1.791570E+05 -1.201321E+06  4.353528E-09 -5.202365E-10
        29  15 -3.147416E+06 -4.571813E+05 -1.060206E+05 -1.227721E+06 -1.511871E-09  3.310982E-11
        29  16 -2.652103E+06 -4.557396E+05 -2.555153E+05 -8.454711E+05 -1.439052E-10  7.650934E-10
        29  17 -2.565828E+06 -1.831750E+05 -3.252358E+04 -1.017765E+06  4.758903E-10  6.153117E-10
        29  18 -2.602646E+06 -2.962741E+05  2.624902E+04 -1.123702E+06 -1.153990E-09  8.368176E-10
        29  19 -3.733800E+06 -1.091180E+06 -5.934384E+05 -1.371319E+06  2.859636E+05  9.935657E+04
        29  20 -3.649188E+06 -6.596256E+05 -3.257495E+05 -1.384714E+06  1.845766E+05  4.364544E+04
        29  21 -3.691889E+06 -6.180911E+05 -2.382997E+05 -1.331669E+06  7.692618E+04  4.487905E+03
        29  22 -3.193071E+06 -7.735289E+05 -4.243926E+05 -1.108509E+06  2.719100E+05  9.411296E+04
        29  23 -3.107635E+06 -4.214199E+05 -1.790921E+05 -1.201315E+06  1.804514E+05  4.210253E+04
        29  24 -3.147409E+06 -4.571794E+05 -1.060076E+05 -1.227721E+06  8.273292E+04  6.672577E+03
        29  25 -2.652029E+06 -4.557132E+05 -2.553748E+05 -8.454526E+05  2.578429E+05  8.885780E+04
        29  26 -2.565794E+06 -1.831649E+05 -3.246178E+04 -1.017760E+06  1.763221E+05  4.055753E+04
        29  27 -2.602637E+06 -2.962719E+05  2.626397E+04 -1.123702E+06  8.854526E+04  8.858320E+03
        30   1 -3.574496E+06 -6.734169E+05 -2.016311E+05 -1.334675E+06 -6.600364E+04 -4.716713E+03
        30   2 -3.522976E+06 -6.011961E+05 -1.422878E+05 -1.306461E+06 -4.301392E+04  1.838605E+03
        30   3 -3.459475E+06 -5.897862E+05 -1.086858E+05 -1.301378E+06 -1.961989E+04  7.324207E+03
        30   4 -3.133207E+06 -4.983012E+05 -8.555628E+04 -1.204702E+06 -6.682533E+04 -5.028547E+03
        30   5 -3.137193E+06 -4.536885E+05 -4.209774E+04 -1.198495E+06 -4.446667E+04  1.290429E+03
        30   6 -3.129066E+06 -4.697465E+05 -2.386319E+04 -1.215421E+06 -2.170606E+04  6.538594E+03
        30   7 -2.691726E+06 -3.231665E+05  3.050231E+04 -1.074643E+06 -6.764764E+04 -5.340648E+03
        30   8 -2.751264E+06 -3.061698E+05  5.807997E+04 -1.090468E+06 -4.592042E+04  7.418665E+02
        30   9 -2.798550E+06 -3.497017E+05  6.095051E+04 -1.129424E+06 -2.379345E+04  5.752556E+03
        30  10 -3.574500E+06 -6.734181E+05 -2.016394E+05 -1.334676E+06 -2.292378E-09 -1.435275E-09
        30  11 -3.522978E+06 -6.011966E+05 -1.422913E+05 -1.306461E+06  3.087015E-10 -1.397243E-09
        30  12 -3.459476E+06 -5.897863E+05 -1.086866E+05 -1.301378E+06 -2.704903E-09 -1.276518E-09
        30  13 -3.133212E+06 -4.983025E+05 -8.556476E+04 -1.204703E+06 -4.386981E-09  9.735337E-11
        30  14 -3.137195E+06 -4.536890E+05 -4.210148E+04 -1.198495E+06  4.505480E-10  2.680736E-10
        30  15 -3.129066E+06 -4.697466E+05 -2.386416E+04 -1.215421E+06  3.324663E-09  1.381200E-09
        30  16 -2.691731E+06 -3.231678E+05  3.049362E+04 -1.074643E+06  3.942038E-09 -7.666985E-10
        30  17 -2.751266E+06 -3.061704E+05  5.807599E+04 -1.090468E+06  1.538615E-09 -1.733928E-09
        30  18 -2.798551E+06 -3.497018E+05  6.094939E+04 -1.129424E+06  4.303154E-09  2.438014E-09
        30  19 -3.574496E+06 -6.734169E+05 -2.016311E+05 -1.334675E+06  6.600364E+04  4.716713E+03
        30  20 -3.522976E+06 -6.011961E+05 -1.422878E+05 -1.306461E+06  4.301392E+04 -1.838605E+03
        30  21 -3.459475E+06 -5.897862E+05 -1.086858E+05 -1.301378E+06  1.961989E+04 -7.324207E+03
        30  22 -3.133207E+06 -4.983012E+05 -8.555628E+04 -1.204702E+06  6.682533E+04  5.028547E+03
        30  23 -3.137193E+06 -4.536885E+05 -4.209774E+04 -1.198495E+06  4.446667E+04 -1.290429E+03
        30  24 -3.129066E+06 -4.697465E+05 -2.386319E+04 -1.215421E+06  2.170606E+04 -6.538594E+03
        30  25 -2.691726E+06 -3.231665E+05  3.050231E+04 -1.074643E+06  6.764764E+04  5.340648E+03
        30  26 -2.751264E+06 -3.061698E+05  5.807997E+04 -1.090468E+06  4.592042E+04 -7.418665E+02
        30  27 -2.798550E+06 -3.497017E+05  6.095051E+04 -1.129424E+06  2.379345E+04 -5.752556E+03
        31   1 -3.384672E+06 -5.709589E+05 -8.490354E+04 -1.284539E+06 -1.579276E+04  6.579731E+03
        31   2 -3.334729E+06 -5.294685E+05 -5.998838E+04 -1.251031E+06 -9.656125E+03  5.415150E+03
        31   3 -3.257710E+06 -5.199030E+05 -3.962000E+04 -1.249829E+06 -3.482703E+03  4.150780E+03
        31   4 -3.127195E+06 -4.736413E+05 -1.845143E+04 -1.213585E+06 -1.760389E+04  5.897882E+03
        31   5 -3.140549E+06 -4.564164E+05 -9.793013E+03 -1.197905E+06 -1.152551E+04  4.711772E+03
        31   6 -3.126818E+06 -4.711036E+05 -5.633041E+03 -1.214532E+06 -5.410892E+03  3.425687E+03
        31   7 -2.869655E+06 -3.763197E+05  4.799494E+04 -1.142605E+06 -1.941583E+04  5.215721E+03
        31   8 -2.946332E+06 -3.833618E+05  4.039923E+04 -1.144763E+06 -1.339554E+04  4.008151E+03
        31   9 -2.995908E+06 -4.223031E+05  2.835262E+04 -1.179227E+06 -7.339535E+03  2.700427E+03
        31  10 -3.384672E+06 -5.709590E+05 -8.490409E+04 -1.284539E+06 -5.712369E-10  1.039622E-09
        31  11 -3.334729E+06 -5.294685E+05 -5.998861E+04 -1.251031E+06 -5.763813E-10 -2.559595E-10
        31  12 -3.257710E+06 -5.199030E+05 -3.962005E+04 -1.249829E+06 -5.520802E-09  1.236383E-09
        31  13 -3.127196E+06 -4.736415E+05 -1.845208E+04 -1.213585E+06  1.393267E-09  1.248985E-09
        31  14 -3.140549E+06 -4.564164E+05 -9.793305E+03 -1.197905E+06  1.742351E-09  5.095826E-10
        31  15 -3.126818E+06 -4.711037E+05 -5.633118E+03 -1.214532E+06 -2.522652E-09  8.554380E-10
        31  16 -2.869655E+06 -3.763199E+05  4.799418E+04 -1.142605E+06  2.999182E-10  1.311836E-09
        31  17 -2.946332E+06 -3.833619E+05  4.039886E+04 -1.144763E+06  1.331122E-10 -2.466896E-09
        31  18 -2.995908E+06 -4.223031E+05  2.835251E+04 -1.179227E+06  1.933878E-09  7.818634E-10
        31  19 -3.384672E+06 -5.709589E+05 -8.490354E+04 -1.284539E+06  1.579276E+04 -6.579731E+03
        31  20 -3.334729E+06 -5.294685E+05 -5.998838E+04 -1.251031E+06  9.656125E+03 -5.415150E+03
        31  21 -3.257710E+06 -5.199030E+05 -3.962000E+04 -1.249829E+06  3.482703E+03 -4.150780E+03
        31  22 -3.127195E+06 -4.736413E+05 -1.845143E+04 -1.213585E+06  1.760389E+04 -5.897882E+03
        31  23 -3.140549E+06 -4.564164E+05 -9.793013E+03 -1.197905E+06  1.152551E+04 -4.711772E+03
        31  24 -3.126818E+06 -4.711036E+05 -5.633041E+03 -1.214532E+06  5.410892E+03 -3.425687E+03
        31  25 -2.869655E+06 -3.763197E+05  4.799494E+04 -1.142605E+06  1.941583E+04 -5.215721E+03
        31  26 -2.946332E+06 -3.833618E+05  4.039923E+04 -1.144763E+06  1.339554E+04 -4.008151E+03
        31  27 -2.995908E+06 -4.223031E+05  2.835262E+04 -1.179227E+06  7.339535E+03 -2.700427E+03
        32   1 -3.185139E+06 -4.934892E+05 -1.933288E+04 -1.230472E+06 -1.971829E+03  2.599549E+03
        32   2 -3.134899E+06 -4.542739E+05 -1.270307E+03 -1.196065E+06  6.485912E+02 -4.135775E+01
        32   3 -3.055651E+06 -4.446982E+05  1.564296E+04 -1.195100E+06  3.270347E+03 -2.685371E+03
        32   4 -3.126515E+06 -4.715028E+05 -4.424753E+03 -1.214442E+06 -3.890160E+03  1.878287E+03
        32   5 -3.141004E+06 -4.565901E+05 -2.851904E+03 -1.197756E+06 -1.271608E+03 -7.633410E+02
        32   6 -3.126488E+06 -4.713167E+05 -2.426460E+03 -1.214512E+06  1.348095E+03 -3.408111E+03
        32   7 -3.067889E+06 -4.495161E+05  1.048315E+04 -1.198412E+06 -5.808694E+03  1.156949E+03
        32   8 -3.147109E+06 -4.589063E+05 -4.433478E+03 -1.199446E+06 -3.191774E+03 -1.485312E+03
        32   9 -3.197320E+06 -4.979345E+05 -2.049600E+04 -1.233921E+06 -5.738889E+02 -4.130750E+03
        32  10 -3.185139E+06 -4.934892E+05 -1.933290E+04 -1.230472E+06 -1.910114E-10  1.714068E-09
        32  11 -3.134899E+06 -4.542739E+05 -1.270308E+03 -1.196065E+06  9.780454E-10 -2.181580E-09
        32  12 -3.055651E+06 -4.446982E+05  1.564292E+04 -1.195100E+06 -1.569872E-09  3.726024E-10
        32  13 -3.126515E+06 -4.715028E+05 -4.424788E+03 -1.214442E+06 -2.049426E-09  7.154244E-10
        32  14 -3.141004E+06 -4.565901E+05 -2.851908E+03 -1.197756E+06 -1.945233E-09 -3.270577E-10
        32  15 -3.126488E+06 -4.713168E+05 -2.426485E+03 -1.214512E+06  1.775114E-09  4.547912E-10
        32  16 -3.067889E+06 -4.495161E+05  1.048308E+04 -1.198412E+06 -2.355764E-09 -2.279317E-10
        32  17 -3.147109E+06 -4.589063E+05 -4.433501E+03 -1.199446E+06 -2.836303E-09 -2.025653E-09
        32  18 -3.197320E+06 -4.979346E+05 -2.049603E+04 -1.233921E+06  1.333700E-09  2.007480E-11
        32  19 -3.185139E+06 -4.934892E+05 -1.933288E+04 -1.230472E+06  1.971829E+03 -2.599549E+03
        32  20 -3.134899E+06 -4.542739E+05 -1.270307E+03 -1.196065E+06 -6.485912E+02  4.135775E+01
        32  21 -3.055651E+06 -4.446982E+05  1.564296E+04 -1.195100E+06 -3.270347E+03  2.685371E+03
        32  22 -3.126515E+06 -4.715028E+05 -4.424753E+03 -1.214442E+06  3.890160E+03 -1.878287E+03
        32  23 -3.141004E+06 -4.565901E+05 -2.851904E+03 -1.197756E+06  1.271608E+03  7.633410E+02
        32  24 -3.126488E+06 -4.713167E+05 -2.426460E+03 -1.214512E+06 -1.348095E+03  3.408111E+03
        32  25 -3.067889E+06 -4.495161E+05  1.048315E+04 -1.198412E+06  5.808694E+03 -1.156949E+03
        32  26 -3.147109E+06 -4.589063E+05 -4.433478E+03 -1.199446E+06  3.191774E+03  1.485312E+03
        32  27 -3.197320E+06 -4.979345E+05 -2.049600E+04 -1.233921E+06  5.738889E+02  4.130750E+03
        33   1 -2.983723E+06 -4.174906E+05  3.463100E+04 -1.175398E+06  4.364678E+03 -4.384693E+03
        33   2 -2.934476E+06 -3.791907E+05  4.988771E+04 -1.141536E+06  7.231061E+03 -6.892287E+03
        33   3 -2.856786E+06 -3.700536E+05  6.379282E+04 -1.140449E+06  1.008052E+04 -9.350173E+03
        33   4 -3.126615E+06 -4.711836E+05 -2.525536E+03 -1.214377E+06  2.451623E+03 -5.104120E+03
        33   5 -3.140857E+06 -4.567492E+05 -3.433621E+03 -1.197933E+06  5.347190E+03 -7.601182E+03
        33   6 -3.126666E+06 -4.714850E+05 -5.716736E+03 -1.214267E+06  8.225632E+03 -1.004858E+04
        33   7 -3.269488E+06 -5.248760E+05 -3.968423E+04 -1.253348E+06  5.390317E+02 -5.823373E+03
        33   8 -3.347198E+06 -5.343057E+05 -5.675904E+04 -1.254313E+06  3.463990E+03 -8.309826E+03
        33   9 -3.396477E+06 -5.729126E+05 -7.523292E+04 -1.288056E+06  6.371615E+03 -1.074666E+04
        33  10 -2.983723E+06 -4.174906E+05  3.463093E+04 -1.175398E+06  7.164076E-10  2.152192E-09
        33  11 -2.934476E+06 -3.791908E+05  4.988752E+04 -1.141536E+06 -6.972100E-11  1.157641E-09
        33  12 -2.856786E+06 -3.700537E+05  6.379247E+04 -1.140449E+06  2.393507E-09 -9.763033E-10
        33  13 -3.126615E+06 -4.711836E+05 -2.525596E+03 -1.214377E+06 -4.766904E-10  4.452635E-10
        33  14 -3.140857E+06 -4.567493E+05 -3.433783E+03 -1.197933E+06  7.510475E-09  6.025672E-11
        33  15 -3.126666E+06 -4.714851E+05 -5.717053E+03 -1.214267E+06  1.727821E-09 -3.265408E-10
        33  16 -3.269488E+06 -5.248760E+05 -3.968430E+04 -1.253348E+06 -2.829802E-10  5.229873E-10
        33  17 -3.347198E+06 -5.343058E+05 -5.675919E+04 -1.254313E+06  1.263633E-09 -1.407651E-09
        33  18 -3.396477E+06 -5.729127E+05 -7.523321E+04 -1.288056E+06  2.648151E-10  1.326766E-09
        33  19 -2.983723E+06 -4.174906E+05  3.463100E+04 -1.175398E+06 -4.364678E+03  4.384693E+03
        33  20 -2.934476E+06 -3.791907E+05  4.988771E+04 -1.141536E+06 -7.231061E+03  6.892287E+03
        33  21 -2.856786E+06 -3.700536E+05  6.379282E+04 -1.140449E+06 -1.008052E+04  9.350173E+03
        33  22 -3.126615E+06 -4.711836E+05 -2.525536E+03 -1.214377E+06 -2.451623E+03  5.104120E+03
        33  23 -3.140857E+06 -4.567492E+05 -3.433621E+03 -1.197933E+06 -5.347190E+03  7.601182E+03
        33  24 -3.126666E+06 -4.714850E+05 -5.716736E+03 -1.214267E+06 -8.225632E+03  1.004858E+04
        33  25 -3.269488E+06 -5.248760E+05 -3.968423E+04 -1.253348E+06 -5.390317E+02  5.823373E+03
        33  26 -3.347198E+06 -5.343057E+05 -5.675904E+04 -1.254313E+06 -3.463990E+03  8.309826E+03
        33  27 -3.396477E+06 -5.729126E+05 -7.523292E+04 -1.288056E+06 -6.371615E+03  1.074666E+04
        34   1 -2.787805E+06 -3.436282E+05  8.045759E+04 -1.121912E+06  1.181982E+04 -1.073565E+04
        34   2 -2.741028E+06 -3.066174E+05  9.006695E+04 -1.089138E+06  1.942471E+04 -1.127468E+04
        34   3 -2.669266E+06 -3.009052E+05  9.377320E+04 -1.086542E+06  2.697352E+04 -1.165602E+04
        34   4 -3.127277E+06 -4.707409E+05 -7.388353E+03 -1.214155E+06  9.969528E+03 -1.143272E+04
        34   5 -3.140014E+06 -4.567932E+05 -1.305112E+04 -1.198427E+06  1.766505E+04 -1.193839E+04
        34   6 -3.127791E+06 -4.741646E+05 -2.469190E+04 -1.212877E+06  2.530385E+04 -1.228658E+04
        34   7 -3.466632E+06 -5.978448E+05 -9.524262E+04 -1.306352E+06  8.120376E+03 -1.212936E+04
        34   8 -3.538844E+06 -6.069581E+05 -1.161820E+05 -1.307652E+06  1.590663E+04 -1.260164E+04
        34   9 -3.586112E+06 -6.474109E+05 -1.431752E+05 -1.339129E+06  2.363552E+04 -1.291662E+04
        34  10 -2.787805E+06 -3.436283E+05  8.045711E+04 -1.121911E+06  8.267422E-10  1.602667E-10
        34  11 -2.741028E+06 -3.066177E+05  9.006600E+04 -1.089138E+06  1.212681E-09 -1.265415E-09
        34  12 -2.669267E+06 -3.009055E+05  9.377158E+04 -1.086541E+06  1.523192E-09 -1.981239E-09
        34  13 -3.127277E+06 -4.707410E+05 -7.388785E+03 -1.214155E+06 -1.596460E-10 -3.365765E-10
        34  14 -3.140015E+06 -4.567934E+05 -1.305198E+04 -1.198427E+06 -2.403196E-09 -1.273522E-09
        34  15 -3.127791E+06 -4.741649E+05 -2.469339E+04 -1.212877E+06 -9.930423E-10 -2.644819E-10
        34  16 -3.466632E+06 -5.978449E+05 -9.524302E+04 -1.306352E+06 -1.735593E-09 -1.080097E-09
        34  17 -3.538844E+06 -6.069583E+05 -1.161828E+05 -1.307651E+06 -5.828223E-09 -1.771671E-10
        34  18 -3.586113E+06 -6.474113E+05 -1.431766E+05 -1.339128E+06 -3.741191E-09 -4.938533E-10
        34  19 -2.787805E+06 -3.436282E+05  8.045759E+04 -1.121912E+06 -1.181982E+04  1.073565E+04
        34  20 -2.741028E+06 -3.066174E+05  9.006695E+04 -1.089138E+06 -1.942471E+04  1.127468E+04
        34  21 -2.669266E+06 -3.009052E+05  9.377320E+04 -1.086542E+06 -2.697352E+04  1.165602E+04
        34  22 -3.127277E+06 -4.707409E+05 -7.388353E+03 -1.214155E+06 -9.969528E+03  1.143272E+04
        34  23 -3.140014E+06 -4.567932E+05 -1.305112E+04 -1.198427E+06 -1.766505E+04  1.193839E+04
        34  24 -3.127791E+06 -4.741646E+05 -2.469190E+04 -1.212877E+06 -2.530385E+04  1.228658E+04
        34  25 -3.466632E+06 -5.978448E+05 -9.524262E+04 -1.306352E+06 -8.120376E+03  1.212936E+04
        34  26 -3.538844E+06 -6.069581E+05 -1.161820E+05 -1.307652E+06 -1.590663E+04  1.260164E+04
        34  27 -3.586112E+06 -6.474109E+05 -1.431752E+05 -1.339129E+06 -2.363552E+04  1.291662E+04
        35   1 -2.603082E+06 -2.760129E+05  1.034437E+05 -1.076613E+06  3.251131E+04 -1.163004E+04
        35   2 -2.560271E+06 -2.334931E+05  9.282330E+04 -1.038419E+06  6.174293E+04 -3.583648E+03
        35   3 -2.512915E+06 -2.601359E+05  4.906835E+04 -1.017496E+06  9.046797E+04  5.817678E+03
        35   4 -3.130409E+06 -4.688307E+05 -3.195940E+04 -1.215215E+06  3.051129E+04 -1.238545E+04
        35   5 -3.135380E+06 -4.532870E+05 -5.643625E+04 -1.199380E+06  6.053443E+04 -4.042058E+03
        35   6 -3.135984E+06 -5.070940E+05 -1.147023E+05 -1.200817E+06  9.004830E+04  5.654955E+03
        35   7 -3.657464E+06 -6.616347E+05 -1.673853E+05 -1.353711E+06  2.851314E+04 -1.314022E+04
        35   8 -3.710164E+06 -6.730566E+05 -2.057233E+05 -1.360204E+06  5.932714E+04 -4.499996E+03
        35   9 -3.758670E+06 -7.540149E+05 -2.785056E+05 -1.383966E+06  8.962906E+04  5.492410E+03
        35  10 -2.603083E+06 -2.760133E+05  1.034415E+05 -1.076612E+06  1.604390E-09 -2.541977E-10
        35  11 -2.560276E+06 -2.334941E+05  9.281609E+04 -1.038419E+06  6.531455E-10  1.594984E-09
        35  12 -2.512924E+06 -2.601382E+05  4.905284E+04 -1.017497E+06 -6.887212E-10  6.656080E-10
        35  13 -3.130410E+06 -4.688311E+05 -3.196145E+04 -1.215215E+06  2.339789E-09 -1.831436E-09
        35  14 -3.135384E+06 -4.532880E+05 -5.644320E+04 -1.199380E+06 -5.055776E-09 -8.796734E-10
        35  15 -3.135992E+06 -5.070962E+05 -1.147176E+05 -1.200817E+06  1.520803E-10 -9.928934E-10
        35  16 -3.657465E+06 -6.616351E+05 -1.673872E+05 -1.353711E+06 -1.689421E-09 -8.602109E-10
        35  17 -3.710167E+06 -6.730576E+05 -2.057299E+05 -1.360204E+06  3.411572E-09 -1.793916E-09
        35  18 -3.758678E+06 -7.540171E+05 -2.785208E+05 -1.383966E+06  1.417778E-09 -1.403531E-10
        35  19 -2.603082E+06 -2.760129E+05  1.034437E+05 -1.076613E+06 -3.251131E+04  1.163004E+04
        35  20 -2.560271E+06 -2.334931E+05  9.282330E+04 -1.038419E+06 -6.174293E+04  3.583648E+03
        35  21 -2.512915E+06 -2.601359E+05  4.906835E+04 -1.017496E+06 -9.046797E+04 -5.817678E+03
        35  22 -3.130409E+06 -4.688307E+05 -3.195940E+04 -1.215215E+06 -3.051129E+04  1.238545E+04
        35  23 -3.135380E+06 -4.532870E+05 -5.643625E+04 -1.199380E+06 -6.053443E+04  4.042058E+03
        35  24 -3.135984E+06 -5.070940E+05 -1.147023E+05 -1.200817E+06 -9.004830E+04 -5.654955E+03
        35  25 -3.657464E+06 -6.616347E+05 -1.673853E+05 -1.353711E+06 -2.851314E+04  1.314022E+04
        35  26 -3.710164E+06 -6.730566E+05 -2.057233E+05 -1.360204E+06 -5.932714E+04  4.499996E+03
        35  27 -3.758670E+06 -7.540149E+05 -2.785056E+05 -1.383966E+06 -8.962906E+04 -5.492410E+03
        36   1 -2.423121E+06 -2.354034E+05  3.558952E+04 -1.091332E+06  1.176010E+05  1.134999E+04
        36   2 -2.394581E+06 -9.950254E+04 -4.997874E+04 -9.634948E+05  2.358436E+05  5.553875E+04
        36   3 -2.543437E+06 -4.685014E+05 -3.564334E+05 -7.326163E+05  3.462971E+05  1.203398E+05
        36   4 -3.154988E+06 -4.520023E+05 -1.421263E+05 -1.231731E+06  1.109985E+05  8.863838E+03
        36   5 -3.095707E+06 -4.100324E+05 -2.401068E+05 -1.203180E+06  2.415418E+05  5.767185E+04
        36   6 -3.216527E+06 -8.758107E+05 -5.689643E+05 -1.071527E+06  3.642939E+05  1.270545E+05
        36   7 -3.886330E+06 -6.686096E+05 -3.198801E+05 -1.372001E+06  1.044044E+05  6.379319E+03
        36   8 -3.796344E+06 -7.204736E+05 -4.302782E+05 -1.442600E+06  2.472327E+05  5.980113E+04
        36   9 -3.889111E+06 -1.282828E+06 -7.815327E+05 -1.410030E+06  3.822690E+05  1.337498E+05
        36  10 -2.423136E+06 -2.354072E+05  3.556318E+04 -1.091334E+06  1.752224E-09  1.022095E-09
        36  11 -2.394642E+06 -9.952088E+04 -5.008956E+04 -9.635054E+05  4.823621E-10  3.321719E-09
        36  12 -2.543570E+06 -4.685493E+05 -3.566871E+05 -7.326500E+05  1.686934E-09  1.800643E-09
        36  13 -3.155001E+06 -4.520057E+05 -1.421497E+05 -1.231731E+06  1.752138E-09  6.982645E-10
        36  14 -3.095771E+06 -4.100517E+05 -2.402233E+05 -1.203192E+06  3.949502E-09  1.868409E-09
        36  15 -3.216675E+06 -8.758640E+05 -5.692457E+05 -1.071564E+06 -1.221858E-09 -1.835017E-10
        36  16 -3.886342E+06 -6.686125E+05 -3.199008E+05 -1.372002E+06  3.074100E-09  3.615526E-10
        36  17 -3.796411E+06 -7.204940E+05 -4.304006E+05 -1.442612E+06  2.067648E-10  4.591646E-09
        36  18 -3.889273E+06 -1.282887E+06 -7.818431E+05 -1.410072E+06  1.115590E-10  5.299884E-10
        36  19 -2.423121E+06 -2.354034E+05  3.558952E+04 -1.091332E+06 -1.176010E+05 -1.134999E+04
        36  20 -2.394581E+06 -9.950254E+04 -4.997874E+04 -9.634948E+05 -2.358436E+05 -5.553875E+04
        36  21 -2.543437E+06 -4.685014E+05 -3.564334E+05 -7.326163E+05 -3.462971E+05 -1.203398E+05
        36  22 -3.154988E+06 -4.520023E+05 -1.421263E+05 -1.231731E+06 -1.109985E+05 -8.863838E+03
        36  23 -3.095707E+06 -4.100324E+05 -2.401068E+05 -1.203180E+06 -2.415418E+05 -5.767185E+04
        36  24 -3.216527E+06 -8.758107E+05 -5.689643E+05 -1.071527E+06 -3.642939E+05 -1.270545E+05
        36  25 -3.886330E+06 -6.686096E+05 -3.198801E+05 -1.372001E+06 -1.044044E+05 -6.379319E+03
        36  26 -3.796344E+06 -7.204736E+05 -4.302782E+05 -1.442600E+06 -2.472327E+05 -5.980113E+04
        36  27 -3.889111E+06 -1.282828E+06 -7.815327E+05 -1.410030E+06 -3.822690E+05 -1.337498E+05
        37   1  1.261540E+05 -6.622024E+05  1.182708E+05 -1.483756E+03  2.017337E+04  7.314087E+02
        37   2  1.246478E+05 -6.683375E+05  1.160255E+05  1.617059E+02  1.989494E+04  1.642860E+03
        37   3  1.227457E+05 -6.745363E+05  1.131208E+05 -1.790049E+03  1.955649E+04  2.553920E+03
        37   4 -1.680507E+01 -1.173178E+06 -1.089938E+03 -7.991152E+02  2.017419E+04  8.906091E+02
        37   5 -3.371734E+00 -1.173142E+06 -1.908208E+03  9.991483E+02  1.989561E+04  1.840251E+03
        37   6 -3.926938E+02 -1.173177E+06 -3.412807E+03 -7.999822E+02  1.955698E+04  2.789512E+03
        37   7 -1.262062E+05 -1.683912E+06 -1.204684E+05 -1.149231E+02  2.017501E+04  1.049679E+03
        37   8 -1.246726E+05 -1.677712E+06 -1.198592E+05  1.836035E+03  1.989628E+04  2.037482E+03
        37   9 -1.235488E+05 -1.671588E+06 -1.199633E+05  1.894234E+02  1.955748E+04  3.024915E+03
        37  10  1.261536E+05 -6.622025E+05  1.182700E+05 -1.483768E+03 -1.768128E-09 -2.991912E-09
        37  11  1.246474E+05 -6.683376E+05  1.160247E+05  1.616796E+02  5.557624E-10 -5.211401E-09
        37  12  1.227453E+05 -6.745364E+05  1.131200E+05 -1.790089E+03  1.188213E-09 -1.071349E-09
        37  13 -1.724209E+01 -1.173178E+06 -1.090704E+03 -7.991297E+02 -1.435423E-09  3.432202E-12
        37  14 -3.797470E+00 -1.173142E+06 -1.908958E+03  9.991188E+02 -2.219164E-09  1.238032E-09
        37  15 -3.931064E+02 -1.173177E+06 -3.413540E+03 -8.000262E+02 -4.275710E-10  1.049508E-10
        37  16 -1.262066E+05 -1.683912E+06 -1.204691E+05 -1.149401E+02 -1.303961E-09  3.941733E-09
        37  17 -1.246731E+05 -1.677712E+06 -1.198600E+05  1.836002E+03 -2.605893E-09  1.573028E-09
        37  18 -1.235492E+05 -1.671589E+06 -1.199640E+05  1.893757E+02 -3.073446E-09  4.011318E-10
        37  19  1.261540E+05 -6.622024E+05  1.182708E+05 -1.483756E+03 -2.017337E+04 -7.314087E+02
        37  20  1.246478E+05 -6.683375E+05  1.160255E+05  1.617059E+02 -1.989494E+04 -1.642860E+03
        37  21  1.227457E+05 -6.745363E+05  1.131208E+05 -1.790049E+03 -1.955649E+04 -2.553920E+03
        37  22 -1.680507E+01 -1.173178E+06 -1.089938E+03 -7.991152E+02 -2.017419E+04 -8.906091E+02
        37  23 -3.371734E+00 -1.173142E+06 -1.908208E+03  9.991483E+02 -1.989561E+04 -1.840251E+03
        37  24 -3.926938E+02 -1.173177E+06 -3.412807E+03 -7.999822E+02 -1.955698E+04 -2.789512E+03
        37  25 -1.262062E+05 -1.683912E+06 -1.204684E+05 -1.149231E+02 -2.017501E+04 -1.049679E+03
        37  26 -1.246726E+05 -1.677712E+06 -1.198592E+05  1.836035E+03 -1.989628E+04 -2.037482E+03
        37  27 -1.235488E+05 -1.671588E+06 -1.199633E+05  1.894234E+02 -1.955748E+04 -3.024915E+03
        38   1  1.215308E+05 -6.822087E+05  1.103427E+05 -1.250347E+03  1.943705E+04  3.403270E+03
        38   2  1.198071E+05 -6.892432E+05  1.054177E+05 -1.258294E+02  1.901128E+04  6.843749E+03
        38   3  1.130490E+05 -6.978576E+05  9.701983E+04 -3.584100E+03  1.798311E+04  1.028201E+04
        38   4  2.196816E+02 -1.173526E+06 -4.406992E+03 -1.014406E+03  1.943791E+04  3.476290E+03
        38   5  4.189786E+02 -1.172703E+06 -7.543052E+03  1.270234E+03  1.901099E+04  7.304203E+03
        38   6 -4.485643E+03 -1.173528E+06 -1.442318E+04 -1.028152E+03  1.798148E+04  1.112994E+04
        38   7 -1.211086E+05 -1.664619E+06 -1.191731E+05 -7.785081E+02  1.943877E+04  3.549251E+03
        38   8 -1.189857E+05 -1.655946E+06 -1.205197E+05  2.665353E+03  1.901071E+04  7.764298E+03
        38   9 -1.220364E+05 -1.648990E+06 -1.258816E+05  1.525982E+03  1.797986E+04  1.197721E+04
        38  10  1.215304E+05 -6.822088E+05  1.103420E+05 -1.250401E+03 -7.725985E-10  8.051947E-09
        38  11  1.198067E+05 -6.892434E+05  1.054169E+05 -1.259342E+02 -2.705875E-09 -3.611725E-09
        38  12  1.130487E+05 -6.978578E+05  9.701902E+04 -3.584249E+03  9.009022E-10 -8.619635E-09
        38  13  2.192728E+02 -1.173526E+06 -4.407724E+03 -1.014460E+03 -3.355753E-09 -7.511768E-12
        38  14  4.185764E+02 -1.172703E+06 -7.543831E+03  1.270122E+03  1.088640E-09  1.525152E-09
        38  15 -4.486024E+03 -1.173529E+06 -1.442402E+04 -1.028313E+03 -1.005510E-10  1.286878E-10
        38  16 -1.211090E+05 -1.664620E+06 -1.191739E+05 -7.785637E+02 -3.154396E-09 -6.785581E-09
        38  17 -1.189861E+05 -1.655946E+06 -1.205205E+05  2.665234E+03  9.857752E-10 -1.120636E-09
        38  18 -1.220368E+05 -1.648990E+06 -1.258825E+05  1.525809E+03 -1.879233E-09  7.800824E-09
        38  19  1.215308E+05 -6.822087E+05  1.103427E+05 -1.250347E+03 -1.943705E+04 -3.403270E+03
        38  20  1.198071E+05 -6.892432E+05  1.054177E+05 -1.258294E+02 -1.901128E+04 -6.843749E+03
        38  21  1.130490E+05 -6.978576E+05  9.701983E+04 -3.584100E+03 -1.798311E+04 -1.028201E+04
        38  22  2.196816E+02 -1.173526E+06 -4.406992E+03 -1.014406E+03 -1.943791E+04 -3.476290E+03
        38  23  4.189786E+02 -1.172703E+06 -7.543052E+03  1.270234E+03 -1.901099E+04 -7.304203E+03
        38  24 -4.485643E+03 -1.173528E+06 -1.442318E+04 -1.028152E+03 -1.798148E+04 -1.112994E+04
        38  25 -1.211086E+05 -1.664619E+06 -1.191731E+05 -7.785081E+02 -1.943877E+04 -3.549251E+03
        38  26 -1.189857E+05 -1.655946E+06 -1.205197E+05  2.665353E+03 -1.901071E+04 -7.764298E+03
        38  27 -1.220364E+05 -1.648990E+06 -1.258816E+05  1.525982E+03 -1.797986E+04 -1.197721E+04
        39   1  1.180523E+05 -7.100839E+05  9.092785E+04  5.295909E+03  1.904646E+04  1.614920E+04
        39   2  1.178773E+05 -7.115884E+05  7.773828E+04 -5.799435E+03  1.740696E+04  2.506677E+04
        39   3  5.884085E+04 -7.288813E+05  4.404139E+04 -2.286800E+04  5.335718E+03  3.394591E+04
        39   4  2.890101E+03 -1.176925E+06 -1.783554E+04 -1.271671E+03  1.905472E+04  1.380799E+04
        39   5  4.961669E+03 -1.168454E+06 -2.922851E+04  1.617936E+03  1.739310E+04  2.947024E+04
        39   6 -5.302424E+04 -1.176955E+06 -6.582902E+04 -1.466764E+03  5.296713E+03  4.509382E+04
        39   7 -1.122874E+05 -1.643564E+06 -1.266136E+05 -7.834115E+03  1.906304E+04  1.146852E+04
        39   8 -1.079686E+05 -1.625126E+06 -1.362094E+05  9.029970E+03  1.737935E+04  3.387048E+04
        39   9 -1.649025E+05 -1.624845E+06 -1.757135E+05  1.991914E+04  5.258463E+03  5.623369E+04
        39  10  1.180519E+05 -7.100843E+05  9.092668E+04  5.295661E+03 -2.884652E-10 -1.391356E-10
        39  11  1.178768E+05 -7.115892E+05  7.773653E+04 -5.799787E+03  2.363821E-10 -4.366343E-09
        39  12  5.884051E+04 -7.288825E+05  4.403916E+04 -2.286815E+04 -9.163474E-10 -1.702808E-09
        39  13  2.889660E+03 -1.176925E+06 -1.783658E+04 -1.271883E+03 -4.767895E-09 -7.779069E-12
        39  14  4.961111E+03 -1.168455E+06 -2.923071E+04  1.617523E+03  2.610888E-09  2.075367E-09
        39  15 -5.302482E+04 -1.176957E+06 -6.583290E+04 -1.466956E+03  1.255322E-09  1.467223E-10
        39  16 -1.122878E+05 -1.643564E+06 -1.266146E+05 -7.834291E+03  1.889655E-10  1.710180E-09
        39  17 -1.079693E+05 -1.625127E+06 -1.362122E+05  9.029496E+03 -1.212211E-09 -1.241680E-09
        39  18 -1.649034E+05 -1.624848E+06 -1.757195E+05  1.991890E+04  1.093408E-09  6.716090E-10
        39  19  1.180523E+05 -7.100839E+05  9.092785E+04  5.295909E+03 -1.904646E+04 -1.614920E+04
        39  20  1.178773E+05 -7.115884E+05  7.773828E+04 -5.799435E+03 -1.740696E+04 -2.506677E+04
        39  21  5.884085E+04 -7.288813E+05  4.404139E+04 -2.286800E+04 -5.335718E+03 -3.394591E+04
        39  22  2.890101E+03 -1.176925E+06 -1.783554E+04 -1.271671E+03 -1.905472E+04 -1.380799E+04
        39  23  4.961669E+03 -1.168454E+06 -2.922851E+04  1.617936E+03 -1.739310E+04 -2.947024E+04
        39  24 -5.302424E+04 -1.176955E+06 -6.582902E+04 -1.466764E+03 -5.296713E+03 -4.509382E+04
        39  25 -1.122874E+05 -1.643564E+06 -1.266136E+05 -7.834115E+03 -1.906304E+04 -1.146852E+04
        39  26 -1.079686E+05 -1.625126E+06 -1.362094E+05  9.029970E+03 -1.737935E+04 -3.387048E+04
        39  27 -1.649025E+05 -1.624845E+06 -1.757135E+05  1.991914E+04 -5.258463E+03 -5.623369E+04
        40   1  9.382160E+04  1.011974E+06  5.357069E+04 -2.082053E+02  3.283349E+04 -6.610352E+02
        40   2  9.396355E+04  1.012088E+06  5.436033E+04 -1.684940E+02  3.272257E+04 -1.674448E+03
        40   3  9.435859E+04  1.012406E+06  5.587517E+04 -1.085292E+02  3.246350E+04 -2.687969E+03
        40   4 -3.669080E+01  5.951068E+05  7.537470E+02  4.486673E+00  3.283577E+04 -5.711799E+02
        40   5  2.414284E+01  5.950353E+05  1.322971E+03 -5.574838E+00  3.272467E+04 -1.228110E+03
        40   6  2.763531E+02  5.951064E+05  2.370350E+03  4.617291E+00  3.246535E+04 -1.885143E+03
        40   7 -9.390207E+04  1.784180E+05 -5.206379E+04  2.170473E+02  3.283806E+04 -4.813819E+02
        40   8 -9.392237E+04  1.781612E+05 -5.171504E+04  1.572501E+02  3.272676E+04 -7.820573E+02
        40   9 -9.381305E+04  1.779852E+05 -5.113525E+04  1.177070E+02  3.246720E+04 -1.082829E+03
        40  10  9.382045E+04  1.011973E+06  5.356866E+04 -2.081879E+02 -6.417050E-09  1.426094E-07
        40  11  9.396239E+04  1.012087E+06  5.435831E+04 -1.684499E+02 -4.610286E-10  7.950701E-08
        40  12  9.435745E+04  1.012406E+06  5.587318E+04 -1.084590E+02  2.518810E-09  1.064935E-08
        40  13 -3.784900E+01  5.951065E+05  7.517197E+02  4.501774E+00  2.744780E-08  5.298008E-10
        40  14  2.299215E+01  5.950350E+05  1.320955E+03 -5.542478E+00  1.697703E-08 -1.018389E-09
        40  15  2.752200E+02  5.951062E+05  2.368362E+03  4.666571E+00  7.256766E-09  5.780256E-10
        40  16 -9.390323E+04  1.784177E+05 -5.206582E+04  2.170600E+02 -1.008635E-08 -1.431336E-07
        40  17 -9.392352E+04  1.781609E+05 -5.171706E+04  1.572708E+02 -7.471232E-09 -7.980305E-08
        40  18 -9.381419E+04  1.779849E+05 -5.113724E+04  1.177353E+02 -1.165606E-09 -1.048895E-08
        40  19  9.382160E+04  1.011974E+06  5.357069E+04 -2.082053E+02 -3.283349E+04  6.610352E+02
        40  20  9.396355E+04  1.012088E+06  5.436033E+04 -1.684940E+02 -3.272257E+04  1.674448E+03
        40  21  9.435859E+04  1.012406E+06  5.587517E+04 -1.085292E+02 -3.246350E+04  2.687969E+03
        40  22 -3.669080E+01  5.951068E+05  7.537470E+02  4.486672E+00 -3.283577E+04  5.711799E+02
        40  23  2.414284E+01  5.950353E+05  1.322971E+03 -5.574838E+00 -3.272467E+04  1.228110E+03
        40  24  2.763531E+02  5.951064E+05  2.370350E+03  4.617291E+00 -3.246535E+04  1.885143E+03
        40  25 -9.390207E+04  1.784180E+05 -5.206379E+04  2.170473E+02 -3.283806E+04  4.813819E+02
        40  26 -9.392237E+04  1.781612E+05 -5.171504E+04  1.572501E+02 -3.272676E+04  7.820573E+02
        40  27 -9.381305E+04  1.779852E+05 -5.113525E+04  1.177070E+02 -3.246720E+04  1.082829E+03
        41   1  9.460119E+04  1.012799E+06  5.696695E+04 -2.611757E+02  3.229985E+04 -3.236287E+03
        41   2  9.591469E+04  1.012417E+06  6.089640E+04  1.088987E+03  3.138027E+04 -8.715686E+03
        41   3  9.966883E+04  1.013367E+06  6.900173E+04  2.388335E+03  2.935378E+04 -1.419598E+04
        41   4  4.098183E+02  5.952682E+05  3.148144E+03 -1.137372E+01  3.230161E+04 -2.347788E+03
        41   5  1.423110E+03  5.948320E+05  5.621826E+03  1.515165E+01  3.138024E+04 -5.165222E+03
        41   6  4.416264E+03  5.952665E+05  1.042594E+04 -9.146906E+00  2.935159E+04 -7.983522E+03
        41   7 -9.378877E+04  1.779160E+05 -5.067154E+04  2.382765E+02  3.230338E+04 -1.459858E+03
        41   8 -9.307584E+04  1.774247E+05 -4.965400E+04 -1.057902E+03  3.138020E+04 -1.617028E+03
        41   9 -9.084405E+04  1.773428E+05 -4.815197E+04 -2.404917E+03  2.934936E+04 -1.775054E+03
        41  10  9.460007E+04  1.012798E+06  5.696497E+04 -2.610916E+02  2.549899E-09  9.793599E-09
        41  11  9.591361E+04  1.012417E+06  6.089440E+04  1.089207E+03  2.620168E-09  3.299604E-09
        41  12  9.966786E+04  1.013367E+06  6.899973E+04  2.388670E+03 -6.867108E-10  6.827084E-10
        41  13  4.086961E+02  5.952679E+05  3.146172E+03 -1.131265E+01  2.552785E-09  5.316502E-10
        41  14  1.422045E+03  5.948317E+05  5.619925E+03  1.528216E+01 -7.870556E-10 -1.498625E-09
        41  15  4.415321E+03  5.952662E+05  1.042420E+04 -8.958224E+00  1.591804E-10  6.837215E-10
        41  16 -9.378989E+04  1.779157E+05 -5.067350E+04  2.383145E+02 -2.442565E-09 -1.076768E-08
        41  17 -9.307690E+04  1.774244E+05 -4.965586E+04 -1.057861E+03 -9.861153E-10 -3.888761E-09
        41  18 -9.084497E+04  1.773426E+05 -4.815360E+04 -2.404875E+03 -9.293315E-10 -5.313626E-10
        41  19  9.460119E+04  1.012799E+06  5.696695E+04 -2.611757E+02 -3.229985E+04  3.236287E+03
        41  20  9.591469E+04  1.012417E+06  6.089640E+04  1.088987E+03 -3.138027E+04  8.715686E+03
        41  21  9.966883E+04  1.013367E+06  6.900173E+04  2.388335E+03 -2.935378E+04  1.419598E+04
        41  22  4.098183E+02  5.952682E+05  3.148144E+03 -1.137372E+01 -3.230161E+04  2.347788E+03
        41  23  1.423110E+03  5.948320E+05  5.621826E+03  1.515165E+01 -3.138024E+04  5.165222E+03
        41  24  4.416264E+03  5.952665E+05  1.042594E+04 -9.146906E+00 -2.935159E+04  7.983522E+03
        41  25 -9.378877E+04  1.779160E+05 -5.067154E+04  2.382765E+02 -3.230338E+04  1.459858E+03
        41  26 -9.307584E+04  1.774247E+05 -4.965400E+04 -1.057902E+03 -3.138020E+04  1.617028E+03
        41  27 -9.084405E+04  1.773428E+05 -4.815197E+04 -2.404917E+03 -2.934936E+04  1.775054E+03
        42   1  1.019364E+05  1.015420E+06  7.475624E+04  1.503575E+03  2.807309E+04 -1.666960E+04
        42   2  1.151180E+05  1.010814E+06  9.715614E+04  1.739171E+04  2.114243E+04 -4.954149E+04
        42   3  1.512751E+05  1.016232E+06  1.466798E+05  3.263558E+04  6.013886E+03 -8.242158E+04
        42   4  6.087843E+03  5.965423E+05  1.398181E+04 -1.431795E+02  2.807012E+04 -9.803907E+03
        42   5  1.744793E+04  5.932308E+05  2.583958E+04  1.938947E+02  2.112472E+04 -2.297174E+04
        42   6  4.837305E+04  5.965299E+05  5.115504E+04 -1.136010E+02  5.980558E+03 -3.614693E+04
        42   7 -8.976875E+04  1.778415E+05 -4.679532E+04 -1.788748E+03  2.806710E+04 -2.942640E+03
        42   8 -8.022995E+04  1.758210E+05 -4.547997E+04 -1.699198E+04  2.110553E+04  3.580721E+03
        42   9 -5.453597E+04  1.769978E+05 -4.437250E+04 -3.284045E+04  5.942343E+03  1.009677E+04
        42  10  1.019355E+05  1.015419E+06  7.475424E+04  1.503951E+03 -3.518038E-10  9.174775E-09
        42  11  1.151169E+05  1.010811E+06  9.715070E+04  1.739256E+04  1.347637E-09  1.523852E-09
        42  12  1.512732E+05  1.016225E+06  1.466669E+05  3.263598E+04 -5.510403E-10 -2.108919E-09
        42  13  6.086971E+03  5.965420E+05  1.398015E+04 -1.429579E+02 -2.206788E-09  8.465157E-10
        42  14  1.744731E+04  5.932301E+05  2.583775E+04  1.942854E+02  6.492328E-10 -1.566832E-09
        42  15  4.837266E+04  5.965285E+05  5.115252E+04 -1.134269E+02  1.626385E-09  9.720750E-10
        42  16 -8.976960E+04  1.778412E+05 -4.679682E+04 -1.788681E+03 -9.031368E-10 -1.027914E-08
        42  17 -8.023043E+04  1.758209E+05 -4.548083E+04 -1.699204E+04  5.149599E-11 -2.148344E-09
        42  18 -5.453603E+04  1.769977E+05 -4.437276E+04 -3.284050E+04  5.739608E-10  2.410356E-09
        42  19  1.019364E+05  1.015420E+06  7.475624E+04  1.503575E+03 -2.807309E+04  1.666960E+04
        42  20  1.151180E+05  1.010814E+06  9.715614E+04  1.739171E+04 -2.114243E+04  4.954149E+04
        42  21  1.512751E+05  1.016232E+06  1.466798E+05  3.263558E+04 -6.013886E+03  8.242158E+04
        42  22  6.087843E+03  5.965423E+05  1.398181E+04 -1.431795E+02 -2.807012E+04  9.803907E+03
        42  23  1.744793E+04  5.932308E+05  2.583958E+04  1.938947E+02 -2.112472E+04  2.297174E+04
        42  24  4.837305E+04  5.965299E+05  5.115504E+04 -1.136010E+02 -5.980558E+03  3.614693E+04
        42  25 -8.976875E+04  1.778415E+05 -4.679532E+04 -1.788748E+03 -2.806710E+04  2.942640E+03
        42  26 -8.022995E+04  1.758210E+05 -4.547997E+04 -1.699198E+04 -2.110553E+04 -3.580721E+03
        42  27 -5.453597E+04  1.769978E+05 -4.437250E+04 -3.284045E+04 -5.942343E+03 -1.009677E+04
        43   1 -5.965878E+06 -1.731597E+06 -9.500283E+05 -2.215921E+06 -5.297294E+05 -1.929975E+05
        43   2 -5.848769E+06 -9.385459E+05 -4.592050E+05 -2.272415E+06 -3.396226E+05 -1.076744E+05
        43   3 -6.001020E+06 -8.680176E+05 -3.064977E+05 -2.171703E+06 -1.445307E+05 -3.551476E+04
        43   4 -5.630964E+06 -1.388470E+06 -8.161469E+05 -1.904012E+06 -5.187311E+05 -1.890773E+05
        43   5 -5.452871E+06 -7.237183E+05 -3.440645E+05 -2.097070E+06 -3.365215E+05 -1.065498E+05
        43   6 -5.542399E+06 -7.797299E+05 -2.036517E+05 -2.132988E+06 -1.493092E+05 -3.729332E+04
        43   7 -5.295821E+06 -1.044989E+06 -6.822564E+05 -1.591880E+06 -5.077262E+05 -1.851449E+05
        43   8 -5.056806E+06 -5.088218E+05 -2.289380E+05 -1.921606E+06 -3.334182E+05 -1.054236E+05
        43   9 -5.083561E+06 -6.914453E+05 -1.008146E+05 -2.094264E+06 -1.540915E+05 -3.907170E+04
        43  10 -5.966192E+06 -1.731714E+06 -9.506323E+05 -2.216004E+06 -9.973856E-10  6.349741E-11
        43  11 -5.848897E+06 -9.385898E+05 -4.594461E+05 -2.272445E+06 -4.623478E-09  4.382031E-10
        43  12 -6.001043E+06 -8.680247E+05 -3.065397E+05 -2.171707E+06 -1.094429E-09  1.739086E-10
        43  13 -5.631265E+06 -1.388582E+06 -8.167256E+05 -1.904091E+06  1.675922E-09 -2.302438E-09
        43  14 -5.452997E+06 -7.237614E+05 -3.443011E+05 -2.097099E+06  3.053170E-09 -1.121015E-09
        43  15 -5.542424E+06 -7.797375E+05 -2.036967E+05 -2.132992E+06  3.143779E-09  1.841519E-10
        43  16 -5.296109E+06 -1.045096E+06 -6.828104E+05 -1.591956E+06  1.756138E-10 -2.975408E-10
        43  17 -5.056929E+06 -5.088640E+05 -2.291700E+05 -1.921635E+06  3.736782E-09 -1.690667E-09
        43  18 -5.083587E+06 -6.914534E+05 -1.008625E+05 -2.094269E+06 -1.152151E-09  5.146296E-10
        43  19 -5.965878E+06 -1.731597E+06 -9.500283E+05 -2.215921E+06  5.297294E+05  1.929975E+05
        43  20 -5.848769E+06 -9.385459E+05 -4.592050E+05 -2.272415E+06  3.396226E+05  1.076744E+05
        43  21 -6.001020E+06 -8.680176E+05 -3.064977E+05 -2.171703E+06  1.445307E+05  3.551476E+04
        43  22 -5.630964E+06 -1.388470E+06 -8.161469E+05 -1.904012E+06  5.187311E+05  1.890773E+05
        43  23 -5.452871E+06 -7.237183E+05 -3.440645E+05 -2.097070E+06  3.365215E+05  1.065498E+05
        43  24 -5.542399E+06 -7.797299E+05 -2.036517E+05 -2.132988E+06  1.493092E+05  3.729332E+04
        43  25 -5.295821E+06 -1.044989E+06 -6.822564E+05 -1.591880E+06  5.077262E+05  1.851449E+05
        43  26 -5.056806E+06 -5.088218E+05 -2.289380E+05 -1.921606E+06  3.334182E+05  1.054236E+05
        43  27 -5.083561E+06 -6.914453E+05 -1.008146E+05 -2.094264E+06  1.540915E+05  3.907170E+04
        44   1 -5.842827E+06 -9.990791E+05 -2.526490E+05 -2.195312E+06 -1.195529E+05 -2.970141E+04
        44   2 -5.791174E+06 -8.973002E+05 -1.547283E+05 -2.173802E+06 -7.684567E+04 -1.562978E+04
        44   3 -5.744420E+06 -8.846567E+05 -1.058268E+05 -2.165112E+06 -3.379716E+04 -2.448198E+03
        44   4 -5.515575E+06 -8.584773E+05 -1.643398E+05 -2.088247E+06 -1.203926E+05 -3.002251E+04
        44   5 -5.509153E+06 -7.865113E+05 -8.075239E+04 -2.092124E+06 -7.820136E+04 -1.614162E+04
        44   6 -5.507512E+06 -8.035577E+05 -4.575007E+04 -2.108824E+06 -3.567235E+04 -3.154023E+03
        44   7 -5.188216E+06 -7.178586E+05 -7.603989E+04 -1.981127E+06 -1.212327E+05 -3.034385E+04
        44   8 -5.227052E+06 -6.757151E+05 -6.783161E+03 -2.010412E+06 -7.955772E+04 -1.665374E+04
        44   9 -5.270550E+06 -7.224575E+05  1.432225E+04 -2.052518E+06 -3.754834E+04 -3.860082E+03
        44  10 -5.842843E+06 -9.990839E+05 -2.526778E+05 -2.195315E+06  3.256384E-09  8.583452E-10
        44  11 -5.791181E+06 -8.973021E+05 -1.547399E+05 -2.173803E+06  9.820676E-10 -5.597912E-11
        44  12 -5.744421E+06 -8.846570E+05 -1.058290E+05 -2.165112E+06 -1.058458E-10 -2.676961E-10
        44  13 -5.515591E+06 -8.584822E+05 -1.643691E+05 -2.088250E+06 -1.759837E-09  6.490913E-10
        44  14 -5.509160E+06 -7.865132E+05 -8.076449E+04 -2.092126E+06 -3.166681E-09  5.378637E-10
        44  15 -5.507514E+06 -8.035580E+05 -4.575250E+04 -2.108824E+06 -2.509777E-09  3.998628E-10
        44  16 -5.188232E+06 -7.178636E+05 -7.606952E+04 -1.981130E+06 -1.454827E-10  7.403139E-10
        44  17 -5.227059E+06 -6.757172E+05 -6.795694E+03 -2.010413E+06 -1.407045E-09  8.620771E-10
        44  18 -5.270551E+06 -7.224579E+05  1.431955E+04 -2.052518E+06 -6.238857E-10 -1.245951E-09
        44  19 -5.842827E+06 -9.990791E+05 -2.526490E+05 -2.195312E+06  1.195529E+05  2.970141E+04
        44  20 -5.791174E+06 -8.973002E+05 -1.547283E+05 -2.173802E+06  7.684567E+04  1.562978E+04
        44  21 -5.744420E+06 -8.846567E+05 -1.058268E+05 -2.165112E+06  3.379716E+04  2.448198E+03
        44  22 -5.515575E+06 -8.584773E+05 -1.643398E+05 -2.088247E+06  1.203926E+05  3.002251E+04
        44  23 -5.509153E+06 -7.865113E+05 -8.075239E+04 -2.092124E+06  7.820136E+04  1.614162E+04
        44  24 -5.507512E+06 -8.035577E+05 -4.575007E+04 -2.108824E+06  3.567235E+04  3.154023E+03
        44  25 -5.188216E+06 -7.178586E+05 -7.603989E+04 -1.981127E+06  1.212327E+05  3.034385E+04
        44  26 -5.227052E+06 -6.757151E+05 -6.783161E+03 -2.010412E+06  7.955772E+04  1.665374E+04
        44  27 -5.270550E+06 -7.224575E+05  1.432225E+04 -2.052518E+06  3.754834E+04  3.860082E+03
        45   1 -5.670706E+06 -8.745310E+05 -7.852896E+04 -2.151543E+06 -2.688630E+04 -1.831615E+03
        45   2 -5.624134E+06 -8.332079E+05 -4.689982E+04 -2.121130E+06 -1.637678E+04 -1.078442E+03
        45   3 -5.554454E+06 -8.243704E+05 -2.394136E+04 -2.119847E+06 -5.834217E+03 -4.116602E+02
        45   4 -5.504147E+06 -8.107996E+05 -3.534584E+04 -2.104997E+06 -2.855351E+04 -2.459442E+03
        45   5 -5.515339E+06 -7.921420E+05 -1.868278E+04 -2.091333E+06 -1.809364E+04 -1.724720E+03
        45   6 -5.503415E+06 -8.059588E+05 -1.064809E+04 -2.106799E+06 -7.601673E+03 -1.076758E+03
        45   7 -5.337561E+06 -7.470665E+05  7.834790E+03 -2.058441E+06 -3.022121E+04 -3.087459E+03
        45   8 -5.406532E+06 -7.510753E+05  9.533282E+03 -2.061531E+06 -1.981084E+04 -2.371123E+03
        45   9 -5.452373E+06 -7.875470E+05  2.645031E+03 -2.093750E+06 -9.369295E+03 -1.741913E+03
        45  10 -5.670707E+06 -8.745312E+05 -7.853033E+04 -2.151543E+06 -1.621150E-10 -1.604368E-09
        45  11 -5.624135E+06 -8.332080E+05 -4.690033E+04 -2.121130E+06 -3.521072E-10  2.380805E-10
        45  12 -5.554454E+06 -8.243704E+05 -2.394142E+04 -2.119847E+06 -1.927291E-09 -1.074631E-09
        45  13 -5.504148E+06 -8.107999E+05 -3.534740E+04 -2.104997E+06 -3.038337E-09 -1.159688E-09
        45  14 -5.515339E+06 -7.921421E+05 -1.868340E+04 -2.091333E+06 -2.631352E-09 -4.285766E-10
        45  15 -5.503415E+06 -8.059588E+05 -1.064820E+04 -2.106799E+06 -8.720824E-10  5.441743E-10
        45  16 -5.337562E+06 -7.470667E+05  7.833040E+03 -2.058441E+06 -7.648315E-10 -7.943600E-10
        45  17 -5.406532E+06 -7.510754E+05  9.532527E+03 -2.061531E+06  1.733905E-09  3.943466E-10
        45  18 -5.452373E+06 -7.875471E+05  2.644859E+03 -2.093750E+06  3.793702E-10  1.529411E-09
        45  19 -5.670706E+06 -8.745310E+05 -7.852896E+04 -2.151543E+06  2.688630E+04  1.831615E+03
        45  20 -5.624134E+06 -8.332079E+05 -4.689982E+04 -2.121130E+06  1.637678E+04  1.078442E+03
        45  21 -5.554454E+06 -8.243704E+05 -2.394136E+04 -2.119847E+06  5.834217E+03  4.116602E+02
        45  22 -5.504147E+06 -8.107996E+05 -3.534584E+04 -2.104997E+06  2.855351E+04  2.459442E+03
        45  23 -5.515339E+06 -7.921420E+05 -1.868278E+04 -2.091333E+06  1.809364E+04  1.724720E+03
        45  24 -5.503415E+06 -8.059588E+05 -1.064809E+04 -2.106799E+06  7.601673E+03  1.076758E+03
        45  25 -5.337561E+06 -7.470665E+05  7.834790E+03 -2.058441E+06  3.022121E+04  3.087459E+03
        45  26 -5.406532E+06 -7.510753E+05  9.533282E+03 -2.061531E+06  1.981084E+04  2.371123E+03
        45  27 -5.452373E+06 -7.875470E+05  2.645031E+03 -2.093750E+06  9.369295E+03  1.741913E+03
        46   1 -5.487313E+06 -8.005774E+05 -3.987429E+03 -2.102129E+06 -3.660051E+03 -1.542290E+03
        46   2 -5.441603E+06 -7.646297E+05  1.419377E+04 -2.070906E+06 -3.408684E+01 -3.492385E+03
        46   3 -5.369757E+06 -7.559667E+05  3.032333E+04 -2.070068E+06  3.583401E+03 -5.418028E+03
        46   4 -5.502993E+06 -8.065479E+05 -8.279341E+03 -2.106423E+06 -5.415368E+03 -2.202809E+03
        46   5 -5.516030E+06 -7.927254E+05 -5.107632E+03 -2.091296E+06 -1.774916E+03 -4.147598E+03
        46   6 -5.502938E+06 -8.061905E+05 -3.998658E+03 -2.106555E+06  1.856786E+03 -6.068017E+03
        46   7 -5.518672E+06 -8.125184E+05 -1.257126E+04 -2.110717E+06 -7.170635E+03 -2.863309E+03
        46   8 -5.590452E+06 -8.208206E+05 -2.440945E+04 -2.111684E+06 -3.515510E+03 -4.802722E+03
        46   9 -5.636100E+06 -8.564131E+05 -3.832197E+04 -2.143035E+06  1.305865E+02 -6.717850E+03
        46  10 -5.487313E+06 -8.005774E+05 -3.987459E+03 -2.102129E+06  1.776929E-10 -2.513253E-10
        46  11 -5.441603E+06 -7.646297E+05  1.419375E+04 -2.070906E+06  2.319392E-09  5.031593E-10
        46  12 -5.369757E+06 -7.559667E+05  3.032325E+04 -2.070068E+06  8.314233E-10  1.435487E-09
        46  13 -5.502993E+06 -8.065479E+05 -8.279406E+03 -2.106423E+06  1.198076E-09 -4.429584E-10
        46  14 -5.516030E+06 -7.927254E+05 -5.107670E+03 -2.091296E+06  7.620442E-10 -7.469717E-10
        46  15 -5.502938E+06 -8.061906E+05 -3.998734E+03 -2.106555E+06 -8.322359E-10  2.073069E-09
        46  16 -5.518672E+06 -8.125184E+05 -1.257137E+04 -2.110717E+06 -1.522550E-09  1.145656E-09
        46  17 -5.590452E+06 -8.208206E+05 -2.440951E+04 -2.111684E+06  3.803521E-10 -1.455444E-11
        46  18 -5.636100E+06 -8.564131E+05 -3.832206E+04 -2.143035E+06 -1.616743E-09  3.400577E-09
        46  19 -5.487313E+06 -8.005774E+05 -3.987429E+03 -2.102129E+06  3.660051E+03  1.542290E+03
        46  20 -5.441603E+06 -7.646297E+05  1.419377E+04 -2.070906E+06  3.408684E+01  3.492385E+03
        46  21 -5.369757E+06 -7.559667E+05  3.032333E+04 -2.070068E+06 -3.583401E+03  5.418028E+03
        46  22 -5.502993E+06 -8.065479E+05 -8.279341E+03 -2.106423E+06  5.415367E+03  2.202809E+03
        46  23 -5.516030E+06 -7.927254E+05 -5.107632E+03 -2.091296E+06  1.774916E+03  4.147598E+03
        46  24 -5.502938E+06 -8.061905E+05 -3.998658E+03 -2.106555E+06 -1.856786E+03  6.068017E+03
        46  25 -5.518672E+06 -8.125184E+05 -1.257126E+04 -2.110717E+06  7.170635E+03  2.863309E+03
        46  26 -5.590452E+06 -8.208206E+05 -2.440945E+04 -2.111684E+06  3.515510E+03  4.802722E+03
        46  27 -5.636100E+06 -8.564131E+05 -3.832197E+04 -2.143035E+06 -1.305865E+02  6.717850E+03
        47   1 -5.305485E+06 -7.313502E+05  4.749894E+04 -2.052198E+06  4.837550E+03 -6.839863E+03
        47   2 -5.262466E+06 -6.977765E+05  6.060055E+04 -2.022590E+06  8.326475E+03 -8.693955E+03
        47   3 -5.194740E+06 -6.899476E+05  7.173816E+04 -2.021614E+06  1.178053E+04 -1.045044E+04
        47   4 -5.503263E+06 -8.058512E+05 -3.977591E+03 -2.106168E+06  3.137295E+03 -7.480135E+03
        47   5 -5.515644E+06 -7.931722E+05 -5.017221E+03 -2.091779E+06  6.683741E+03 -9.313032E+03
        47   6 -5.503333E+06 -8.062511E+05 -8.067462E+03 -2.106023E+06  1.019506E+04 -1.104838E+04
        47   7 -5.701003E+06 -8.803500E+05 -5.545760E+04 -2.160123E+06  1.437633E+03 -8.120184E+03
        47   8 -5.768759E+06 -8.885638E+05 -7.064049E+04 -2.160942E+06  5.041743E+03 -9.931833E+03
        47   9 -5.811833E+06 -9.225484E+05 -8.788104E+04 -2.190395E+06  8.610456E+03 -1.164599E+04
        47  10 -5.305485E+06 -7.313503E+05  4.749881E+04 -2.052198E+06  3.461273E-09  2.875054E-09
        47  11 -5.262466E+06 -6.977766E+05  6.060028E+04 -2.022590E+06  7.209442E-10 -1.522624E-10
        47  12 -5.194740E+06 -6.899478E+05  7.173769E+04 -2.021614E+06  1.659733E-09  8.977647E-11
        47  13 -5.503263E+06 -8.058513E+05 -3.977714E+03 -2.106168E+06 -1.629649E-09  1.065994E-09
        47  14 -5.515644E+06 -7.931723E+05 -5.017468E+03 -2.091779E+06  1.421033E-09 -8.281730E-10
        47  15 -5.503333E+06 -8.062512E+05 -8.067886E+03 -2.106023E+06  1.817804E-09  1.054649E-10
        47  16 -5.701003E+06 -8.803501E+05 -5.545773E+04 -2.160123E+06 -3.172624E-09  1.284684E-09
        47  17 -5.768759E+06 -8.885639E+05 -7.064072E+04 -2.160942E+06  3.037188E-09 -1.118611E-09
        47  18 -5.811833E+06 -9.225486E+05 -8.788143E+04 -2.190395E+06  1.700547E-09  1.805184E-09
        47  19 -5.305485E+06 -7.313502E+05  4.749894E+04 -2.052198E+06 -4.837550E+03  6.839863E+03
        47  20 -5.262466E+06 -6.977765E+05  6.060055E+04 -2.022590E+06 -8.326475E+03  8.693955E+03
        47  21 -5.194740E+06 -6.899476E+05  7.173816E+04 -2.021614E+06 -1.178053E+04  1.045044E+04
        47  22 -5.503263E+06 -8.058512E+05 -3.977591E+03 -2.106168E+06 -3.137295E+03  7.480135E+03
        47  23 -5.515644E+06 -7.931722E+05 -5.017221E+03 -2.091779E+06 -6.683741E+03  9.313032E+03
        47  24 -5.503333E+06 -8.062511E+05 -8.067462E+03 -2.106023E+06 -1.019506E+04  1.104838E+04
        47  25 -5.701003E+06 -8.803500E+05 -5.545760E+04 -2.160123E+06 -1.437633E+03  8.120184E+03
        47  26 -5.768759E+06 -8.885638E+05 -7.064049E+04 -2.160942E+06 -5.041743E+03  9.931833E+03
        47  27 -5.811833E+06 -9.225484E+05 -8.788104E+04 -2.190395E+06 -8.610456E+03  1.164599E+04
        48   1 -5.136491E+06 -6.670810E+05  8.506858E+04 -2.005844E+06  1.382038E+04 -1.141513E+04
        48   2 -5.098380E+06 -6.365006E+05  8.965992E+04 -1.978807E+06  2.375947E+04 -1.047922E+04
        48   3 -5.041300E+06 -6.337455E+05  8.600949E+04 -1.975795E+06  3.361907E+04 -9.324587E+03
        48   4 -5.504380E+06 -8.050213E+05 -1.035215E+04 -2.105644E+06  1.226921E+04 -1.200051E+04
        48   5 -5.514213E+06 -7.934628E+05 -1.815811E+04 -2.092748E+06  2.233356E+04 -1.101805E+04
        48   6 -5.505106E+06 -8.097586E+05 -3.431019E+04 -2.103879E+06  3.231766E+04 -9.817106E+03
        48   7 -5.872134E+06 -9.429528E+05 -1.057839E+05 -2.205390E+06  1.071906E+04 -1.258551E+04
        48   8 -5.929875E+06 -9.504137E+05 -1.259906E+05 -2.206619E+06  2.090871E+04 -1.155649E+04
        48   9 -5.968702E+06 -9.857578E+05 -1.546484E+05 -2.231875E+06  3.101731E+04 -1.030922E+04
        48  10 -5.136491E+06 -6.670812E+05  8.506798E+04 -2.005844E+06  4.788470E-09  3.403453E-12
        48  11 -5.098381E+06 -6.365008E+05  8.965865E+04 -1.978807E+06 -2.753509E-09 -1.579551E-09
        48  12 -5.041301E+06 -6.337459E+05  8.600719E+04 -1.975795E+06 -3.770849E-09 -1.082103E-09
        48  13 -5.504380E+06 -8.050215E+05 -1.035270E+04 -2.105644E+06  5.764166E-10  1.180584E-09
        48  14 -5.514213E+06 -7.934630E+05 -1.815928E+04 -2.092748E+06  4.386307E-09 -8.825546E-10
        48  15 -5.505107E+06 -8.097590E+05 -3.431234E+04 -2.103879E+06 -4.171254E-10 -6.444597E-10
        48  16 -5.872134E+06 -9.429530E+05 -1.057844E+05 -2.205389E+06 -2.723138E-09  8.019017E-11
        48  17 -5.929876E+06 -9.504140E+05 -1.259917E+05 -2.206619E+06  2.789289E-09 -7.535848E-10
        48  18 -5.968703E+06 -9.857582E+05 -1.546504E+05 -2.231875E+06  9.951147E-10  9.754596E-10
        48  19 -5.136491E+06 -6.670810E+05  8.506858E+04 -2.005844E+06 -1.382038E+04  1.141513E+04
        48  20 -5.098380E+06 -6.365006E+05  8.965992E+04 -1.978807E+06 -2.375947E+04  1.047922E+04
        48  21 -5.041300E+06 -6.337455E+05  8.600949E+04 -1.975795E+06 -3.361907E+04  9.324587E+03
        48  22 -5.504380E+06 -8.050213E+05 -1.035215E+04 -2.105644E+06 -1.226921E+04  1.200051E+04
        48  23 -5.514213E+06 -7.934628E+05 -1.815811E+04 -2.092748E+06 -2.233356E+04  1.101805E+04
        48  24 -5.505106E+06 -8.097586E+05 -3.431019E+04 -2.103879E+06 -3.231766E+04  9.817106E+03
        48  25 -5.872134E+06 -9.429528E+05 -1.057839E+05 -2.205390E+06 -1.071906E+04  1.258551E+04
        48  26 -5.929875E+06 -9.504137E+05 -1.259906E+05 -2.206619E+06 -2.090871E+04  1.155649E+04
        48  27 -5.968702E+06 -9.857578E+05 -1.546484E+05 -2.231875E+06 -3.101731E+04  1.030922E+04
        49   1 -4.989324E+06 -6.139274E+05  8.898346E+04 -1.972684E+06  4.066599E+04 -8.267883E+03
        49   2 -4.958184E+06 -5.769228E+05  6.488181E+04 -1.939232E+06  8.095081E+04  4.779633E+03
        49   3 -4.937695E+06 -6.196986E+05 -5.710121E+03 -1.910831E+06  1.207563E+05  1.910298E+04
        49   4 -5.508960E+06 -8.021301E+05 -4.440197E+04 -2.106915E+06  3.911927E+04 -8.852927E+03
        49   5 -5.507487E+06 -7.887807E+05 -7.839329E+04 -2.094376E+06  8.013634E+04  4.469369E+03
        49   6 -5.516838E+06 -8.553973E+05 -1.594924E+05 -2.086887E+06  1.206717E+05  1.906524E+04
        49   7 -6.028331E+06 -9.903207E+05 -1.778095E+05 -2.241045E+06  3.757396E+04 -9.437485E+03
        49   8 -6.056492E+06 -1.000615E+06 -2.216937E+05 -2.249393E+06  7.932264E+04  4.159409E+03
        49   9 -6.095648E+06 -1.091058E+06 -3.133034E+05 -2.262786E+06  1.205872E+05  1.902751E+04
        49  10 -4.989326E+06 -6.139279E+05  8.898021E+04 -1.972684E+06 -2.644788E-09  1.059126E-09
        49  11 -4.958191E+06 -5.769246E+05  6.486935E+04 -1.939232E+06  3.363228E-10  2.028720E-09
        49  12 -4.937711E+06 -6.197030E+05 -5.738454E+03 -1.910833E+06  3.238276E-09  1.382178E-09
        49  13 -5.508962E+06 -8.021306E+05 -4.440501E+04 -2.106915E+06 -2.034486E-11 -4.564263E-10
        49  14 -5.507494E+06 -7.887825E+05 -7.840550E+04 -2.094376E+06  5.665615E-09  5.283553E-10
        49  15 -5.516854E+06 -8.554016E+05 -1.595207E+05 -2.086889E+06  7.218129E-11  1.761626E-09
        49  16 -6.028333E+06 -9.903212E+05 -1.778124E+05 -2.241045E+06  4.062123E-09  1.825950E-09
        49  17 -6.056499E+06 -1.000617E+06 -2.217057E+05 -2.249393E+06  4.397054E-09  2.631791E-09
        49  18 -6.095664E+06 -1.091062E+06 -3.133317E+05 -2.262788E+06 -7.545845E-10  9.720499E-10
        49  19 -4.989324E+06 -6.139274E+05  8.898346E+04 -1.972684E+06 -4.066599E+04  8.267883E+03
        49  20 -4.958184E+06 -5.769228E+05  6.488181E+04 -1.939232E+06 -8.095081E+04 -4.779633E+03
        49  21 -4.937695E+06 -6.196986E+05 -5.710121E+03 -1.910831E+06 -1.207563E+05 -1.910298E+04
        49  22 -5.508960E+06 -8.021301E+05 -4.440197E+04 -2.106915E+06 -3.911927E+04  8.852927E+03
        49  23 -5.507487E+06 -7.887807E+05 -7.839329E+04 -2.094376E+06 -8.013634E+04 -4.469369E+03
        49  24 -5.516838E+06 -8.553973E+05 -1.594924E+05 -2.086887E+06 -1.206717E+05 -1.906524E+04
        49  25 -6.028331E+06 -9.903207E+05 -1.778095E+05 -2.241045E+06 -3.757396E+04  9.437485E+03
        49  26 -6.056492E+06 -1.000615E+06 -2.216937E+05 -2.249393E+06 -7.932264E+04 -4.159409E+03
        49  27 -6.095648E+06 -1.091058E+06 -3.133034E+05 -2.262786E+06 -1.205872E+05 -1.902751E+04
        50   1 -4.854977E+06 -6.008851E+05 -3.498410E+04 -2.024949E+06  1.541505E+05  2.801132E+04
        50   2 -4.844562E+06 -4.348171E+05 -1.641390E+05 -1.867855E+06  3.246310E+05  9.288248E+04
        50   3 -5.100531E+06 -9.561953E+05 -6.064059E+05 -1.547637E+06  4.883195E+05  1.757223E+05
        50   4 -5.543297E+06 -7.785495E+05 -1.976454E+05 -2.129823E+06  1.487852E+05  2.600207E+04
        50   5 -5.452183E+06 -7.285408E+05 -3.339473E+05 -2.099953E+06  3.298770E+05  9.482742E+04
        50   6 -5.629916E+06 -1.368614E+06 -7.920815E+05 -1.906861E+06  5.041930E+05  1.815365E+05
        50   7 -6.231146E+06 -9.562273E+05 -3.603362E+05 -2.234619E+06  1.434263E+05  2.399349E+04
        50   8 -6.059428E+06 -1.022164E+06 -5.037886E+05 -2.331819E+06  3.351171E+05  9.676875E+04
        50   9 -6.158907E+06 -1.780624E+06 -9.777681E+05 -2.265714E+06  5.200513E+05  1.873313E+05
        50  10 -4.855003E+06 -6.008924E+05 -3.503064E+04 -2.024952E+06 -1.947010E-09 -4.666825E-10
        50  11 -4.844678E+06 -4.348551E+05 -1.643552E+05 -1.867879E+06 -7.533850E-09  1.061036E-10
        50  12 -5.100797E+06 -9.562934E+05 -6.069166E+05 -1.547706E+06 -3.683268E-09 -2.665499E-10
        50  13 -5.543322E+06 -7.785562E+05 -1.976887E+05 -2.129826E+06 -7.795205E-10  1.219267E-09
        50  14 -5.452304E+06 -7.285801E+05 -3.341709E+05 -2.099979E+06 -5.421465E-09 -1.773369E-09
        50  15 -5.630200E+06 -1.368719E+06 -7.926267E+05 -1.906935E+06 -1.025006E-09 -1.369525E-09
        50  16 -6.231168E+06 -9.562335E+05 -3.603763E+05 -2.234622E+06 -2.251544E-09 -1.477116E-09
        50  17 -6.059552E+06 -1.022205E+06 -5.040198E+05 -2.331845E+06 -5.130247E-09  1.865231E-09
        50  18 -6.159210E+06 -1.780736E+06 -9.783488E+05 -2.265793E+06 -1.236896E-09  4.619678E-10
        50  19 -4.854977E+06 -6.008851E+05 -3.498410E+04 -2.024949E+06 -1.541505E+05 -2.801132E+04
        50  20 -4.844562E+06 -4.348171E+05 -1.641390E+05 -1.867855E+06 -3.246310E+05 -9.288248E+04
        50  21 -5.100531E+06 -9.561953E+05 -6.064059E+05 -1.547637E+06 -4.883195E+05 -1.757223E+05
        50  22 -5.543297E+06 -7.785495E+05 -1.976454E+05 -2.129823E+06 -1.487852E+05 -2.600207E+04
        50  23 -5.452183E+06 -7.285408E+05 -3.339473E+05 -2.099953E+06 -3.298770E+05 -9.482742E+04
        50  24 -5.629916E+06 -1.368614E+06 -7.920815E+05 -1.906861E+06 -5.041930E+05 -1.815365E+05
        50  25 -6.231146E+06 -9.562273E+05 -3.603362E+05 -2.234619E+06 -1.434263E+05 -2.399349E+04
        50  26 -6.059428E+06 -1.022164E+06 -5.037886E+05 -2.331819E+06 -3.351171E+05 -9.676875E+04
        50  27 -6.158907E+06 -1.780624E+06 -9.777681E+05 -2.265714E+06 -5.200513E+05 -1.873313E+05
        51   1 -1.400946E+06 -2.039758E+05 -1.654041E+05 -1.764363E+02  8.454362E+04  1.611829E+04
        51   2 -1.333564E+06 -3.293838E+05 -2.239893E+05 -1.009088E+04  6.546709E+04  4.892889E+04
        51   3 -1.224094E+06 -3.024631E+05 -2.317958E+05 -7.046196E+04  4.649843E+04  4.853878E+04
        51   4 -3.120176E+04  1.369650E+05  1.705510E+05 -4.900603E+04  1.167274E+05  1.621854E+04
        51   5 -5.404602E+04 -1.345380E+04  7.556387E+04 -2.355723E+04  7.609991E+04  4.895039E+04
        51   6 -3.115484E+04 -7.972942E+03  4.624605E+04 -4.855587E+04  3.558471E+04  4.850980E+04
        51   7  1.340262E+06  4.777767E+05  5.063739E+05 -9.794513E+04  1.489819E+05  1.631362E+04
        51   8  1.226983E+06  3.023607E+05  3.750060E+05 -3.705259E+04  8.675443E+04  4.897141E+04
        51   9  1.163100E+06  2.864182E+05  3.241922E+05 -2.660800E+04  2.465007E+04  4.848008E+04
        51  10 -1.400954E+06 -2.039780E+05 -1.654181E+05 -1.775346E+02 -3.017072E-09  1.629840E-09
        51  11 -1.333569E+06 -3.293875E+05 -2.240019E+05 -1.009347E+04  1.764793E-09  3.412184E-10
        51  12 -1.224097E+06 -3.024662E+05 -2.318043E+05 -7.046378E+04  6.654928E-09  1.770657E-09
        51  13 -3.121646E+04  1.369610E+05  1.705249E+05 -4.900755E+04  2.020956E-09  2.278695E-10
        51  14 -5.405288E+04 -1.345793E+04  7.554849E+04 -2.356023E+04  9.689264E-10 -4.919849E-09
        51  15 -3.115683E+04 -7.975809E+03  4.623925E+04 -4.855726E+04  9.801690E-11 -2.488935E-09
        51  16  1.340238E+06  4.777704E+05  5.063318E+05 -9.794709E+04  4.012500E-09  3.128746E-10
        51  17  1.226975E+06  3.023561E+05  3.749874E+05 -3.705601E+04 -3.501611E-09  9.171978E-10
        51  18  1.163099E+06  2.864156E+05  3.241867E+05 -2.660896E+04 -4.422764E-09  9.524769E-10
        51  19 -1.400946E+06 -2.039758E+05 -1.654041E+05 -1.764363E+02 -8.454362E+04 -1.611829E+04
        51  20 -1.333564E+06 -3.293838E+05 -2.239893E+05 -1.009088E+04 -6.546709E+04 -4.892889E+04
        51  21 -1.224094E+06 -3.024631E+05 -2.317958E+05 -7.046196E+04 -4.649843E+04 -4.853878E+04
        51  22 -3.120176E+04  1.369650E+05  1.705510E+05 -4.900603E+04 -1.167274E+05 -1.621854E+04
        51  23 -5.404602E+04 -1.345380E+04  7.556387E+04 -2.355723E+04 -7.609991E+04 -4.895039E+04
        51  24 -3.115484E+04 -7.972942E+03  4.624605E+04 -4.855587E+04 -3.558471E+04 -4.850980E+04
        51  25  1.340262E+06  4.777767E+05  5.063739E+05 -9.794513E+04 -1.489819E+05 -1.631362E+04
        51  26  1.226983E+06  3.023607E+05  3.750060E+05 -3.705259E+04 -8.675443E+04 -4.897141E+04
        51  27  1.163100E+06  2.864182E+05  3.241922E+05 -2.660800E+04 -2.465007E+04 -4.848008E+04
        52   1 -1.140767E+06 -2.606793E+05 -2.203263E+05 -4.670514E+04  2.935084E+04  4.191390E+04
        52   2 -1.055354E+06 -2.514447E+05 -2.170690E+05 -2.343469E+04  2.067393E+04  3.983916E+04
        52   3 -9.646361E+05 -2.291296E+05 -2.046910E+05 -5.136537E+04  1.199276E+04  3.593573E+04
        52   4 -4.004142E+04  1.115059E+04  3.738426E+04 -4.886219E+04  2.864501E+04  4.190732E+04
        52   5 -4.276964E+04 -1.491574E+03  1.944696E+04 -2.325441E+04  1.876905E+04  3.983194E+04
        52   6 -3.999816E+04 -8.563154E+02  1.145224E+04 -4.884229E+04  8.890062E+03  3.592918E+04
        52   7  1.061802E+06  2.828944E+05  2.950122E+05 -5.102359E+04  2.793790E+04  4.190076E+04
        52   8  9.707613E+05  2.483889E+05  2.558933E+05 -2.307416E+04  1.686106E+04  3.982473E+04
        52   9  8.854287E+05  2.273563E+05  2.275373E+05 -4.631557E+04  5.782763E+03  3.592261E+04
        52  10 -1.140768E+06 -2.606814E+05 -2.203312E+05 -4.670613E+04 -4.169213E-09  5.865288E-10
        52  11 -1.055355E+06 -2.514465E+05 -2.170728E+05 -2.343535E+04 -3.364647E-10  2.203398E-09
        52  12 -9.646366E+05 -2.291310E+05 -2.046937E+05 -5.136572E+04  3.264638E-09 -5.137062E-10
        52  13 -4.004277E+04  1.114849E+04  3.737941E+04 -4.886316E+04 -5.344086E-10 -3.290536E-09
        52  14 -4.277044E+04 -1.493372E+03  1.944332E+04 -2.325502E+04 -8.806825E-10 -1.677313E-09
        52  15 -3.999859E+04 -8.577229E+02  1.144966E+04 -4.884254E+04  5.187383E-10 -1.069981E-09
        52  16  1.061801E+06  2.828923E+05  2.950075E+05 -5.102453E+04  3.619865E-09  2.092300E-09
        52  17  9.707606E+05  2.483871E+05  2.558898E+05 -2.307470E+04 -3.177968E-09 -1.523791E-09
        52  18  8.854283E+05  2.273549E+05  2.275349E+05 -4.631573E+04 -4.294940E-09  5.592999E-10
        52  19 -1.140767E+06 -2.606793E+05 -2.203263E+05 -4.670514E+04 -2.935084E+04 -4.191390E+04
        52  20 -1.055354E+06 -2.514447E+05 -2.170690E+05 -2.343469E+04 -2.067393E+04 -3.983916E+04
        52  21 -9.646361E+05 -2.291296E+05 -2.046910E+05 -5.136537E+04 -1.199276E+04 -3.593573E+04
        52  22 -4.004142E+04  1.115059E+04  3.738426E+04 -4.886219E+04 -2.864501E+04 -4.190732E+04
        52  23 -4.276964E+04 -1.491574E+03  1.944696E+04 -2.325441E+04 -1.876905E+04 -3.983194E+04
        52  24 -3.999816E+04 -8.563154E+02  1.145224E+04 -4.884229E+04 -8.890062E+03 -3.592918E+04
        52  25  1.061802E+06  2.828944E+05  2.950122E+05 -5.102359E+04 -2.793790E+04 -4.190076E+04
        52  26  9.707613E+05  2.483889E+05  2.558933E+05 -2.307416E+04 -1.686106E+04 -3.982473E+04
        52  27  8.854287E+05  2.273563E+05  2.275373E+05 -4.631557E+04 -5.782763E+03 -3.592261E+04
        53   1 -8.734686E+05 -2.047197E+05 -1.853385E+05 -4.920590E+04  9.643565E+03  3.331564E+04
        53   2 -7.858279E+05 -1.839742E+05 -1.689523E+05 -2.348117E+04  7.289967E+03  2.932733E+04
        53   3 -6.971567E+05 -1.621136E+05 -1.506578E+05 -4.907675E+04  4.930825E+03  2.523754E+04
        53   4 -4.094929E+04  7.141282E+02  8.852578E+03 -4.887510E+04  7.102191E+03  3.331078E+04
        53   5 -4.144973E+04 -2.614220E+02  4.862886E+03 -2.321660E+04  4.679773E+03  2.932394E+04
        53   6 -4.091696E+04 -1.104461E+02  2.827341E+03 -4.887464E+04  2.252141E+03  2.523569E+04
        53   7  7.922098E+05  2.060989E+05  2.029967E+05 -4.854393E+04  4.557423E+03  3.330593E+04
        53   8  7.034398E+05  1.834121E+05  1.786404E+05 -2.295176E+04  2.066465E+03  2.932055E+04
        53   9  6.157200E+05  1.618621E+05  1.562832E+05 -4.867231E+04 -4.293594E+02  2.523385E+04
        53  10 -8.734690E+05 -2.047209E+05 -1.853407E+05 -4.920616E+04  1.453534E-09  2.875972E-10
        53  11 -7.858282E+05 -1.839752E+05 -1.689540E+05 -2.348134E+04  9.822632E-10  4.508979E-10
        53  12 -6.971569E+05 -1.621142E+05 -1.506591E+05 -4.907685E+04  4.181106E-11  5.222821E-11
        53  13 -4.094965E+04  7.129231E+02  8.850398E+03 -4.887529E+04  1.292061E-09  6.279615E-11
        53  14 -4.144998E+04 -2.623512E+02  4.861229E+03 -2.321672E+04  5.913663E-10  3.946734E-10
        53  15 -4.091714E+04 -1.111313E+02  2.826134E+03 -4.887469E+04 -1.281470E-10 -1.620290E-10
        53  16  7.922095E+05  2.060977E+05  2.029946E+05 -4.854405E+04  1.452545E-10  3.643581E-10
        53  17  7.034396E+05  1.834112E+05  1.786388E+05 -2.295181E+04 -2.424612E-09 -9.241600E-11
        53  18  6.157198E+05  1.618614E+05  1.562820E+05 -4.867230E+04 -2.272966E-10 -4.218641E-10
        53  19 -8.734686E+05 -2.047197E+05 -1.853385E+05 -4.920590E+04 -9.643565E+03 -3.331564E+04
        53  20 -7.858279E+05 -1.839742E+05 -1.689523E+05 -2.348117E+04 -7.289967E+03 -2.932733E+04
        53  21 -6.971567E+05 -1.621136E+05 -1.506578E+05 -4.907675E+04 -4.930825E+03 -2.523754E+04
        53  22 -4.094929E+04  7.141282E+02  8.852578E+03 -4.887510E+04 -7.102191E+03 -3.331078E+04
        53  23 -4.144973E+04 -2.614220E+02  4.862886E+03 -2.321660E+04 -4.679773E+03 -2.932394E+04
        53  24 -4.091696E+04 -1.104461E+02  2.827341E+03 -4.887464E+04 -2.252141E+03 -2.523569E+04
        53  25  7.922098E+05  2.060989E+05  2.029967E+05 -4.854393E+04 -4.557423E+03 -3.330593E+04
        53  26  7.034398E+05  1.834121E+05  1.786404E+05 -2.295176E+04 -2.066465E+03 -2.932055E+04
        53  27  6.157200E+05  1.618621E+05  1.562832E+05 -4.867231E+04  4.293594E+02 -2.523385E+04
        54   1 -6.050884E+05 -1.391328E+05 -1.292946E+05 -4.886923E+04  4.454118E+03  2.283775E+04
        54   2 -5.169579E+05 -1.174521E+05 -1.099264E+05 -2.312440E+04  3.887417E+03  1.874248E+04
        54   3 -4.285969E+05 -9.564216E+04 -9.013152E+04 -4.873511E+04  3.317260E+03  1.464102E+04
        54   4 -4.106802E+04 -1.394121E-01  2.129848E+03 -4.888290E+04  1.805346E+03  2.283674E+04
        54   5 -4.116967E+04 -4.684866E+01  1.152704E+03 -2.320634E+04  1.233982E+03  1.874245E+04
        54   6 -4.104730E+04  3.694144E+01  6.054463E+02 -4.888290E+04  6.592411E+02  1.464200E+04
        54   7  5.232461E+05  1.391100E+05  1.335328E+05 -4.889656E+04 -8.458179E+02  2.283573E+04
        54   8  4.348275E+05  1.173424E+05  1.122164E+05 -2.328832E+04 -1.421475E+03  1.874243E+04
        54   9  3.466408E+05  9.570538E+04  9.133219E+04 -4.903076E+04 -2.000428E+03  1.464298E+04
        54  10 -6.050886E+05 -1.391333E+05 -1.292957E+05 -4.886931E+04 -8.641664E-10 -2.755623E-10
        54  11 -5.169580E+05 -1.174525E+05 -1.099271E+05 -2.312446E+04  1.185122E-09 -9.517132E-11
        54  12 -4.285969E+05 -9.564239E+04 -9.013194E+04 -4.873515E+04  4.818014E-10 -6.508229E-10
        54  13 -4.106816E+04 -7.002982E-01  2.128861E+03 -4.888293E+04  2.152151E-09 -1.358627E-10
        54  14 -4.116977E+04 -4.722628E+01  1.152042E+03 -2.320636E+04  4.916437E-10 -7.505775E-10
        54  15 -4.104735E+04  3.671111E+01  6.050426E+02 -4.888291E+04 -3.425802E-09 -1.037433E-09
        54  16  5.232459E+05  1.391094E+05  1.335319E+05 -4.889655E+04  5.035898E-10 -7.330892E-10
        54  17  4.348274E+05  1.173420E+05  1.122158E+05 -2.328830E+04 -1.613030E-09 -7.052255E-10
        54  18  3.466407E+05  9.570515E+04  9.133178E+04 -4.903074E+04  1.368716E-10 -7.553441E-10
        54  19 -6.050884E+05 -1.391328E+05 -1.292946E+05 -4.886923E+04 -4.454118E+03 -2.283775E+04
        54  20 -5.169579E+05 -1.174521E+05 -1.099264E+05 -2.312440E+04 -3.887417E+03 -1.874248E+04
        54  21 -4.285969E+05 -9.564216E+04 -9.013152E+04 -4.873511E+04 -3.317260E+03 -1.464102E+04
        54  22 -4.106802E+04 -1.394122E-01  2.129848E+03 -4.888290E+04 -1.805346E+03 -2.283674E+04
        54  23 -4.116967E+04 -4.684866E+01  1.152704E+03 -2.320634E+04 -1.233982E+03 -1.874245E+04
        54  24 -4.104730E+04  3.694144E+01  6.054463E+02 -4.888290E+04 -6.592411E+02 -1.464200E+04
        54  25  5.232461E+05  1.391100E+05  1.335328E+05 -4.889656E+04  8.458179E+02 -2.283573E+04
        54  26  4.348275E+05  1.173424E+05  1.122164E+05 -2.328832E+04  1.421475E+03 -1.874243E+04
        54  27  3.466408E+05  9.570538E+04  9.133219E+04 -4.903076E+04  2.000428E+03 -1.464298E+04
        55   1 -3.363446E+05 -7.275744E+04 -6.826904E+04 -4.876282E+04  3.224508E+03  1.225211E+04
        55   2 -2.480229E+05 -5.103291E+04 -4.825583E+04 -2.310239E+04  3.195016E+03  8.149813E+03
        55   3 -1.597402E+05 -2.925754E+04 -2.822545E+04 -4.881666E+04  3.164053E+03  4.049622E+03
        55   4 -4.109102E+04  3.861446E+01  3.910693E+02 -4.888746E+04  5.666727E+02  1.225356E+04
        55   5 -4.106392E+04  2.789022E+01  5.350191E+01 -2.320063E+04  5.383640E+02  8.151678E+03
        55   6 -4.108200E+04  6.864958E+01 -2.670299E+02 -4.888745E+04  5.085878E+02  4.051931E+03
        55   7  2.542430E+05  7.282852E+04  6.904533E+04 -4.901214E+04 -2.092419E+03  1.225501E+04
        55   8  1.659346E+05  5.108566E+04  4.835995E+04 -2.329890E+04 -2.119168E+03  8.153543E+03
        55   9  7.758921E+04  2.939383E+04  2.769045E+04 -4.895826E+04 -2.147382E+03  4.054240E+03
        55  10 -3.363446E+05 -7.275760E+04 -6.826934E+04 -4.876286E+04 -2.928631E-10 -6.231833E-10
        55  11 -2.480229E+05 -5.103299E+04 -4.825597E+04 -2.310241E+04 -5.413790E-10  5.128047E-10
        55  12 -1.597403E+05 -2.925756E+04 -2.822550E+04 -4.881667E+04  1.813568E-09  7.288420E-11
        55  13 -4.109106E+04  3.845314E+01  3.907865E+02 -4.888747E+04  9.291169E-10  4.576422E-10
        55  14 -4.106394E+04  2.781879E+01  5.337649E+01 -2.320064E+04  9.982436E-10  1.105184E-09
        55  15 -4.108201E+04  6.863188E+01 -2.670612E+02 -4.888746E+04 -3.715997E-10 -1.134819E-09
        55  16  2.542430E+05  7.282836E+04  6.904504E+04 -4.901212E+04 -2.917465E-10  4.772982E-11
        55  17  1.659345E+05  5.108559E+04  4.835982E+04 -2.329889E+04 -8.308363E-10  8.341393E-10
        55  18  7.758920E+04  2.939381E+04  2.769041E+04 -4.895825E+04  3.431249E-10 -2.276144E-10
        55  19 -3.363446E+05 -7.275744E+04 -6.826904E+04 -4.876282E+04 -3.224508E+03 -1.225211E+04
        55  20 -2.480229E+05 -5.103291E+04 -4.825583E+04 -2.310239E+04 -3.195016E+03 -8.149813E+03
        55  21 -1.597402E+05 -2.925754E+04 -2.822545E+04 -4.881666E+04 -3.164053E+03 -4.049622E+03
        55  22 -4.109102E+04  3.861446E+01  3.910693E+02 -4.888746E+04 -5.666727E+02 -1.225356E+04
        55  23 -4.106392E+04  2.789022E+01  5.350191E+01 -2.320063E+04 -5.383640E+02 -8.151678E+03
        55  24 -4.108200E+04  6.864958E+01 -2.670299E+02 -4.888745E+04 -5.085878E+02 -4.051931E+03
        55  25  2.542430E+05  7.282852E+04  6.904533E+04 -4.901214E+04  2.092419E+03 -1.225501E+04
        55  26  1.659346E+05  5.108566E+04  4.835995E+04 -2.329890E+04  2.119168E+03 -8.153543E+03
        55  27  7.758921E+04  2.939383E+04  2.769045E+04 -4.895826E+04  2.147382E+03 -4.054240E+03
        56   1 -6.742497E+04 -6.346055E+03 -6.329821E+03 -4.892074E+04  3.241802E+03  1.654711E+03
        56   2  2.099538E+04  1.536201E+04  1.353592E+04 -2.324595E+04  3.672478E+03 -2.442716E+03
        56   3  1.092286E+05  3.691044E+04  3.305828E+04 -4.894940E+04  4.103698E+03 -6.487636E+03
        56   4 -4.111334E+04  9.230152E+01 -4.508632E+02 -4.888849E+04  5.699895E+02  1.657135E+03
        56   5 -4.101390E+04  6.534719E+01 -9.373728E+02 -2.319931E+04  1.034445E+03 -2.440466E+03
        56   6 -4.111607E+04 -1.269657E+02 -1.790757E+03 -4.888868E+04  1.499386E+03 -6.485529E+03
        56   7 -1.480106E+04  6.530615E+03  5.428078E+03 -4.885624E+04 -2.101936E+03  1.659558E+03
        56   8 -1.030196E+05 -1.523159E+04 -1.541090E+04 -2.315267E+04 -1.603325E+03 -2.438216E+03
        56   9 -1.914399E+05 -3.716596E+04 -3.664129E+04 -4.882797E+04 -1.104300E+03 -6.483422E+03
        56  10 -6.742498E+04 -6.346061E+03 -6.329846E+03 -4.892074E+04 -1.448602E-09  3.644218E-10
        56  11  2.099536E+04  1.536200E+04  1.353588E+04 -2.324594E+04 -2.853313E-09 -9.080070E-10
        56  12  1.092286E+05  3.691039E+04  3.305817E+04 -4.894938E+04 -2.847132E-09  6.014068E-10
        56  13 -4.111335E+04  9.229848E+01 -4.508689E+02 -4.888849E+04  8.403676E-10 -1.070009E-09
        56  14 -4.101390E+04  6.534050E+01 -9.373860E+02 -2.319930E+04 -6.672641E-10 -1.495344E-09
        56  15 -4.111608E+04 -1.270115E+02 -1.790840E+03 -4.888867E+04 -2.090220E-09  1.020441E-09
        56  16 -1.480106E+04  6.530611E+03  5.428064E+03 -4.885623E+04  1.352534E-09  4.374911E-10
        56  17 -1.030196E+05 -1.523159E+04 -1.541092E+04 -2.315267E+04  6.536411E-10 -1.014490E-09
        56  18 -1.914399E+05 -3.716601E+04 -3.664137E+04 -4.882797E+04  4.939274E-10  5.477479E-10
        56  19 -6.742497E+04 -6.346055E+03 -6.329821E+03 -4.892074E+04 -3.241802E+03 -1.654711E+03
        56  20  2.099538E+04  1.536201E+04  1.353592E+04 -2.324595E+04 -3.672478E+03  2.442716E+03
        56  21  1.092286E+05  3.691044E+04  3.305828E+04 -4.894940E+04 -4.103698E+03  6.487636E+03
        56  22 -4.111334E+04  9.230152E+01 -4.508632E+02 -4.888849E+04 -5.699895E+02 -1.657135E+03
        56  23 -4.101390E+04  6.534719E+01 -9.373728E+02 -2.319931E+04 -1.034445E+03  2.440466E+03
        56  24 -4.111607E+04 -1.269657E+02 -1.790757E+03 -4.888868E+04 -1.499386E+03  6.485529E+03
        56  25 -1.480106E+04  6.530615E+03  5.428078E+03 -4.885624E+04  2.101936E+03 -1.659558E+03
        56  26 -1.030196E+05 -1.523159E+04 -1.541090E+04 -2.315267E+04  1.603325E+03  2.438216E+03
        56  27 -1.914399E+05 -3.716596E+04 -3.664129E+04 -4.882797E+04  1.104300E+03  6.483422E+03
        57   1  2.014269E+05  6.011962E+04  5.454952E+04 -4.941540E+04  4.756485E+03 -8.995984E+03
        57   2  2.901693E+05  8.189605E+04  7.322615E+04 -2.316084E+04  6.184980E+03 -1.299008E+04
        57   3  3.780876E+05  1.010764E+05  9.032265E+04 -4.824100E+04  7.616334E+03 -1.603228E+04
        57   4 -4.128922E+04  2.045205E+02 -2.330084E+03 -4.887879E+04  1.859086E+03 -8.993910E+03
        57   5 -4.082690E+04  2.556936E+02 -4.031718E+03 -2.321125E+04  3.903492E+03 -1.298913E+04
        57   6 -4.130372E+04 -2.396546E+03 -7.741625E+03 -4.888022E+04  5.950557E+03 -1.603221E+04
        57   7 -2.839510E+05 -5.971476E+04 -5.921368E+04 -4.834238E+04 -1.037187E+03 -8.991840E+03
        57   8 -3.717221E+05 -8.139242E+04 -8.129700E+04 -2.326162E+04  1.623212E+03 -1.298819E+04
        57   9 -4.605329E+05 -1.058819E+05 -1.058179E+05 -4.951899E+04  4.285896E+03 -1.603214E+04
        57  10  2.014268E+05  6.011953E+04  5.454932E+04 -4.941536E+04 -4.907154E-10 -8.035642E-11
        57  11  2.901692E+05  8.189586E+04  7.322576E+04 -2.316077E+04 -8.674525E-10  1.083543E-10
        57  12  3.780874E+05  1.010761E+05  9.032206E+04 -4.824090E+04  6.154317E-10 -3.159705E-10
        57  13 -4.128925E+04  2.044327E+02 -2.330242E+03 -4.887878E+04 -1.266694E-09  8.039995E-10
        57  14 -4.082696E+04  2.555083E+02 -4.032064E+03 -2.321121E+04  4.571405E-10 -3.187253E-10
        57  15 -4.130383E+04 -2.396831E+03 -7.742174E+03 -4.888015E+04  1.580395E-09 -1.832554E-10
        57  16 -2.839511E+05 -5.971485E+04 -5.921383E+04 -4.834239E+04 -6.938997E-10  8.653205E-10
        57  17 -3.717222E+05 -8.139260E+04 -8.129732E+04 -2.326161E+04 -1.209383E-09 -7.718339E-11
        57  18 -4.605330E+05 -1.058822E+05 -1.058184E+05 -4.951893E+04  2.961222E-12 -4.446074E-10
        57  19  2.014269E+05  6.011962E+04  5.454952E+04 -4.941540E+04 -4.756485E+03  8.995984E+03
        57  20  2.901693E+05  8.189605E+04  7.322615E+04 -2.316084E+04 -6.184980E+03  1.299008E+04
        57  21  3.780876E+05  1.010764E+05  9.032265E+04 -4.824100E+04 -7.616334E+03  1.603228E+04
        57  22 -4.128922E+04  2.045205E+02 -2.330084E+03 -4.887879E+04 -1.859086E+03  8.993910E+03
        57  23 -4.082690E+04  2.556936E+02 -4.031718E+03 -2.321125E+04 -3.903492E+03  1.298913E+04
        57  24 -4.130372E+04 -2.396546E+03 -7.741625E+03 -4.888022E+04 -5.950557E+03  1.603221E+04
        57  25 -2.839510E+05 -5.971476E+04 -5.921368E+04 -4.834238E+04  1.037187E+03  8.991840E+03
        57  26 -3.717221E+05 -8.139242E+04 -8.129700E+04 -2.326162E+04 -1.623212E+03  1.298819E+04
        57  27 -4.605329E+05 -1.058819E+05 -1.058179E+05 -4.951899E+04 -4.285896E+03  1.603214E+04
        58   1  4.688604E+05  1.277839E+05  1.097018E+05 -5.301348E+04  1.436132E+04 -2.060120E+04
        58   2  5.607926E+05  1.505014E+05  1.245057E+05 -2.003024E+04  1.161568E+04 -2.273521E+04
        58   3  6.457807E+05  1.429889E+05  1.335907E+05 -3.779369E+04  8.867407E+03 -7.630694E+03
        58   4 -4.309415E+04  1.562908E+03 -9.565921E+03 -4.874932E+04  7.383241E+03 -2.059975E+04
        58   5 -3.865838E+04  2.605248E+03 -1.571895E+04 -2.337286E+04  1.581018E+04 -2.273702E+04
        58   6 -4.312059E+04 -2.853700E+04 -3.535431E+04 -4.874687E+04  2.423457E+04 -7.628308E+03
        58   7 -5.548069E+05 -1.246765E+05 -1.288512E+05 -4.448868E+04  4.108680E+02 -2.059840E+04
        58   8 -6.377784E+05 -1.453163E+05 -1.559680E+05 -2.671222E+04  2.000065E+04 -2.273887E+04
        58   9 -7.315892E+05 -2.000976E+05 -2.043332E+05 -5.968789E+04  3.958472E+04 -7.626463E+03
        58  10  4.688601E+05  1.277834E+05  1.097006E+05 -5.301324E+04  6.724723E-10 -3.819219E-10
        58  11  5.607924E+05  1.505008E+05  1.245045E+05 -2.003002E+04  1.209208E-09 -1.781448E-10
        58  12  6.457806E+05  1.429889E+05  1.335905E+05 -3.779364E+04  9.831610E-10  9.598595E-11
        58  13 -4.309432E+04  1.562437E+03 -9.566821E+03 -4.874920E+04 -3.276747E-09  4.780637E-10
        58  14 -3.865879E+04  2.604626E+03 -1.572040E+04 -2.337257E+04 -5.380937E-10  4.716462E-11
        58  15 -4.312124E+04 -2.853722E+04 -3.535553E+04 -4.874672E+04  1.917196E-09 -5.972659E-11
        58  16 -5.548070E+05 -1.246770E+05 -1.288520E+05 -4.448867E+04 -2.628370E-10  7.100568E-11
        58  17 -6.377789E+05 -1.453170E+05 -1.559698E+05 -2.671186E+04  1.914517E-10  2.994598E-10
        58  18 -7.315909E+05 -2.000980E+05 -2.043363E+05 -5.968764E+04  2.051162E-10  3.060456E-10
        58  19  4.688604E+05  1.277839E+05  1.097018E+05 -5.301348E+04 -1.436132E+04  2.060120E+04
        58  20  5.607926E+05  1.505014E+05  1.245057E+05 -2.003024E+04 -1.161568E+04  2.273521E+04
        58  21  6.457807E+05  1.429889E+05  1.335907E+05 -3.779369E+04 -8.867407E+03  7.630694E+03
        58  22 -4.309415E+04  1.562908E+03 -9.565921E+03 -4.874932E+04 -7.383241E+03  2.059975E+04
        58  23 -3.865838E+04  2.605248E+03 -1.571895E+04 -2.337286E+04 -1.581018E+04  2.273702E+04
        58  24 -4.312059E+04 -2.853700E+04 -3.535431E+04 -4.874687E+04 -2.423457E+04  7.628308E+03
        58  25 -5.548069E+05 -1.246765E+05 -1.288512E+05 -4.448868E+04 -4.108680E+02  2.059840E+04
        58  26 -6.377784E+05 -1.453163E+05 -1.559680E+05 -2.671222E+04 -2.000065E+04  2.273887E+04
        58  27 -7.315892E+05 -2.000976E+05 -2.043332E+05 -5.968789E+04 -3.958472E+04  7.626463E+03
        59   1  9.055003E+05  2.842016E+06  8.721499E+05 -9.482453E+05  3.523260E+04  2.393680E+05
        59   2  6.217732E+05  1.963526E+06  5.432113E+05 -8.328182E+05  1.081130E+05  7.228500E+04
        59   3  4.024842E+05  1.122316E+06  3.387025E+05 -8.992045E+05  9.828510E+04 -9.486075E+04
        59   4  7.145211E+04 -5.300625E+05  7.184176E+04 -8.937639E+05  3.631609E+04  4.007001E+04
        59   5  2.210918E+04 -5.351250E+05  4.285079E+04 -8.030110E+05  1.084538E+05  1.857281E+04
        59   6  1.217190E+04 -5.286815E+05  3.754822E+04 -8.940819E+05  9.774291E+04 -3.225150E+03
        59   7 -7.633838E+05 -3.891636E+06 -7.291099E+05 -8.395585E+05  3.736831E+04 -1.581550E+05
        59   8 -5.779349E+05 -3.027820E+06 -4.578150E+05 -7.733143E+05  1.087903E+05 -3.492811E+04
        59   9 -3.782899E+05 -2.177014E+06 -2.636845E+05 -8.889677E+05  9.720132E+04  8.817367E+04
        59  10  9.054837E+05  2.841954E+06  8.720403E+05 -9.482521E+05  4.095662E-10 -6.381452E-10
        59  11  6.217593E+05  1.963518E+06  5.431795E+05 -8.328245E+05 -4.085012E-09 -5.835542E-09
        59  12  4.024715E+05  1.122304E+06  3.386676E+05 -8.991970E+05 -1.487516E-09  5.451831E-10
        59  13  7.145026E+04 -5.300646E+05  7.183625E+04 -8.937650E+05  1.067819E-10 -6.636014E-11
        59  14  2.209646E+04 -5.351285E+05  4.282803E+04 -8.030127E+05 -2.039521E-10 -1.779012E-09
        59  15  1.216164E+04 -5.286841E+05  3.753025E+04 -8.940817E+05  1.585642E-09 -2.864436E-10
        59  16 -7.633920E+05 -3.891663E+06 -7.291598E+05 -8.395537E+05  3.543650E-10 -5.568125E-10
        59  17 -5.779479E+05 -3.027825E+06 -4.578395E+05 -7.733113E+05  3.740162E-09  2.909072E-09
        59  18 -3.783021E+05 -2.177025E+06 -2.637169E+05 -8.889746E+05 -9.895365E-10 -4.141693E-09
        59  19  9.055003E+05  2.842016E+06  8.721499E+05 -9.482453E+05 -3.523260E+04 -2.393680E+05
        59  20  6.217732E+05  1.963526E+06  5.432113E+05 -8.328182E+05 -1.081130E+05 -7.228500E+04
        59  21  4.024842E+05  1.122316E+06  3.387025E+05 -8.992045E+05 -9.828510E+04  9.486075E+04
        59  22  7.145211E+04 -5.300625E+05  7.184176E+04 -8.937639E+05 -3.631609E+04 -4.007001E+04
        59  23  2.210918E+04 -5.351250E+05  4.285079E+04 -8.030110E+05 -1.084538E+05 -1.857281E+04
        59  24  1.217190E+04 -5.286815E+05  3.754822E+04 -8.940819E+05 -9.774291E+04  3.225150E+03
        59  25 -7.633838E+05 -3.891636E+06 -7.291099E+05 -8.395585E+05 -3.736831E+04  1.581550E+05
        59  26 -5.779349E+05 -3.027820E+06 -4.578150E+05 -7.733143E+05 -1.087903E+05  3.492811E+04
        59  27 -3.782899E+05 -2.177014E+06 -2.636845E+05 -8.889677E+05 -9.720132E+04 -8.817367E+04
        60   1  2.706779E+05  5.607122E+05  2.382470E+05 -9.041453E+05  6.562483E+04 -9.411406E+04
        60   2  6.669434E+04 -3.011143E+05  9.314328E+04 -8.006737E+05  1.718236E+04 -1.230118E+05
        60   3 -1.209783E+05 -1.156479E+06 -2.967083E+04 -8.842014E+05 -3.224341E+04 -1.518858E+05
        60   4  1.282247E+04 -5.297405E+05  3.980180E+04 -8.952064E+05  6.510205E+04 -9.759757E+03
        60   5  1.261792E+04 -5.323810E+05  5.400197E+04 -8.016640E+05  1.664362E+04 -3.698153E+04
        60   6  2.846103E+04 -5.295973E+05  8.930595E+04 -8.951126E+05 -3.279889E+04 -6.421706E+04
        60   7 -2.450960E+05 -1.619022E+06 -1.586643E+05 -8.862812E+05  6.458112E+04  7.445051E+04
        60   8 -4.145735E+04 -7.635790E+05  1.488676E+04 -8.026539E+05  1.610448E+04  4.901768E+04
        60   9  1.778818E+05  9.768128E+04  2.082942E+05 -9.060344E+05 -3.335711E+04  2.353825E+04
        60  10  2.706709E+05  5.607015E+05  2.382224E+05 -9.041403E+05 -5.781184E-10  3.987438E-08
        60  11  6.668997E+04 -3.011307E+05  9.311429E+04 -8.006720E+05  5.461562E-10 -9.989963E-09
        60  12 -1.209857E+05 -1.156505E+06 -2.971624E+04 -8.842054E+05  3.370500E-09 -4.631983E-08
        60  13  1.281789E+04 -5.297417E+05  3.979366E+04 -8.952059E+05 -1.079239E-09  1.751804E-10
        60  14  1.261726E+04 -5.323825E+05  5.399888E+04 -8.016635E+05 -9.947002E-09 -2.775831E-09
        60  15  2.845876E+04 -5.296020E+05  8.929615E+04 -8.951143E+05 -4.450242E-09 -1.559054E-10
        60  16 -2.451020E+05 -1.619029E+06 -1.586826E+05 -8.862851E+05 -5.454577E-10 -4.083959E-08
        60  17 -4.145827E+04 -7.635816E+05  1.488175E+04 -8.026545E+05 -2.091185E-09  5.137411E-09
        60  18  1.778805E+05  9.768039E+04  2.082910E+05 -9.060338E+05  2.903343E-09  4.274924E-08
        60  19  2.706779E+05  5.607122E+05  2.382470E+05 -9.041453E+05 -6.562483E+04  9.411406E+04
        60  20  6.669434E+04 -3.011143E+05  9.314328E+04 -8.006737E+05 -1.718236E+04  1.230118E+05
        60  21 -1.209783E+05 -1.156479E+06 -2.967083E+04 -8.842014E+05  3.224341E+04  1.518858E+05
        60  22  1.282247E+04 -5.297405E+05  3.980180E+04 -8.952064E+05 -6.510205E+04  9.759757E+03
        60  23  1.261792E+04 -5.323810E+05  5.400197E+04 -8.016640E+05 -1.664362E+04  3.698153E+04
        60  24  2.846103E+04 -5.295973E+05  8.930595E+04 -8.951126E+05  3.279889E+04  6.421706E+04
        60  25 -2.450960E+05 -1.619022E+06 -1.586643E+05 -8.862812E+05 -6.458112E+04 -7.445051E+04
        60  26 -4.145735E+04 -7.635790E+05  1.488676E+04 -8.026539E+05 -1.610448E+04 -4.901768E+04
        60  27  1.778818E+05  9.768128E+04  2.082942E+05 -9.060344E+05  3.335711E+04 -2.353825E+04
        61   1 -2.565757E+05 -1.702041E+06 -1.056052E+05 -9.073893E+05 -6.540183E+04 -1.733579E+05
        61   2 -3.933196E+05 -2.581218E+06 -2.070666E+05 -6.829594E+05 -8.318737E+04 -1.530636E+05
        61   3 -3.337341E+05 -3.414496E+06 -2.730291E+05 -6.408825E+05 -2.876764E+04 -1.325000E+05
        61   4  2.487184E+04 -5.161490E+05  1.153080E+05 -8.942670E+05 -6.598620E+04 -7.966563E+04
        61   5  9.780411E+04 -5.500775E+05  2.060122E+05 -8.022019E+05 -8.294680E+04 -1.857378E+05
        61   6  3.886126E+05 -5.171826E+05  4.198882E+05 -8.922837E+05 -2.781938E+04 -2.915254E+05
        61   7  3.062440E+05  6.711268E+05  3.361946E+05 -8.811161E+05 -6.656590E+04  1.420157E+04
        61   8  5.887205E+05  1.485030E+06  6.188858E+05 -9.218355E+05 -8.269415E+04 -2.185165E+05
        61   9  1.110591E+06  2.388040E+06  1.112339E+06 -1.144854E+06 -2.674464E+04 -4.512904E+05
        61  10 -2.565884E+05 -1.702074E+06 -1.056699E+05 -9.073985E+05  6.789890E-09  1.901271E-08
        61  11 -3.933334E+05 -2.581245E+06 -2.071239E+05 -6.829697E+05  5.450684E-09 -4.886265E-09
        61  12 -3.337397E+05 -3.414515E+06 -2.730638E+05 -6.408856E+05  1.179830E-09 -1.626848E-08
        61  13  2.486545E+04 -5.161570E+05  1.152878E+05 -8.942713E+05 -2.608931E-09  2.244250E-10
        61  14  9.778743E+04 -5.501165E+05  2.059343E+05 -8.022144E+05 -5.543567E-09 -2.359199E-09
        61  15  3.885889E+05 -5.172741E+05  4.197269E+05 -8.922903E+05  6.899058E-10 -8.365931E-11
        61  16  3.062392E+05  6.711254E+05  3.361859E+05 -8.811153E+05  3.378612E-09 -1.972046E-08
        61  17  5.887003E+05  1.484977E+06  6.187833E+05 -9.218500E+05  4.964526E-09  7.637135E-10
        61  18  1.110536E+06  2.387822E+06  1.111956E+06 -1.144864E+06  1.619524E-09  1.302505E-08
        61  19 -2.565757E+05 -1.702041E+06 -1.056052E+05 -9.073893E+05  6.540183E+04  1.733579E+05
        61  20 -3.933196E+05 -2.581218E+06 -2.070666E+05 -6.829594E+05  8.318737E+04  1.530636E+05
        61  21 -3.337341E+05 -3.414496E+06 -2.730291E+05 -6.408825E+05  2.876764E+04  1.325000E+05
        61  22  2.487184E+04 -5.161490E+05  1.153080E+05 -8.942670E+05  6.598620E+04  7.966563E+04
        61  23  9.780411E+04 -5.500775E+05  2.060122E+05 -8.022019E+05  8.294680E+04  1.857378E+05
        61  24  3.886126E+05 -5.171826E+05  4.198882E+05 -8.922837E+05  2.781938E+04  2.915254E+05
        61  25  3.062440E+05  6.711268E+05  3.361946E+05 -8.811161E+05  6.656590E+04 -1.420157E+04
        61  26  5.887205E+05  1.485030E+06  6.188858E+05 -9.218355E+05  8.269415E+04  2.185165E+05
        61  27  1.110591E+06  2.388040E+06  1.112339E+06 -1.144854E+06  2.674464E+04  4.512904E+05
        62   1 -3.178119E+06 -1.208204E+06 -6.668522E+05 -1.113524E+06 -1.945721E+05 -2.351992E+04
        62   2 -2.968916E+06 -1.153132E+06 -5.235452E+05 -1.044697E+06 -1.294449E+05  1.181657E+05
        62   3 -2.733731E+06 -1.113682E+06 -4.525738E+05 -1.021615E+06 -3.575522E+04  1.847159E+05
        62   4 -2.611284E+05 -1.483535E+05  7.864741E+04 -3.520264E+05  3.413301E+04  6.306113E+04
        62   5 -2.904916E+05 -1.832202E+05  3.632463E+04 -3.175564E+05 -2.340790E+04  1.581804E+05
        62   6 -2.695198E+05 -2.093770E+05  1.925640E+04 -3.288319E+05 -5.249456E+04  1.783219E+05
        62   7  2.664193E+06  9.119134E+05  8.236591E+05  4.126648E+05  2.640155E+05  1.500506E+05
        62   8  2.395290E+06  7.872362E+05  5.958493E+05  4.124615E+05  8.312353E+04  1.983746E+05
        62   9  2.201075E+06  6.955185E+05  4.908410E+05  3.665310E+05 -6.930587E+04  1.719006E+05
        62  10 -3.178160E+06 -1.208215E+06 -6.669248E+05 -1.113528E+06  8.895369E-10  9.236776E-10
        62  11 -2.968938E+06 -1.153151E+06 -5.236030E+05 -1.044684E+06 -3.047678E-09  3.719769E-10
        62  12 -2.733742E+06 -1.113719E+06 -4.526403E+05 -1.021610E+06 -6.402290E-10 -1.831148E-10
        62  13 -2.611307E+05 -1.483581E+05  7.863774E+04 -3.520281E+05 -1.051205E-09 -4.928683E-10
        62  14 -2.904989E+05 -1.832472E+05  3.627659E+04 -3.175534E+05 -1.686164E-09  2.520475E-09
        62  15 -2.695313E+05 -2.094119E+05  1.919147E+04 -3.288243E+05  5.212085E-09 -4.297572E-10
        62  16  2.664112E+06  9.118706E+05  8.234864E+05  4.126329E+05 -1.236652E-09 -3.870382E-09
        62  17  2.395272E+06  7.871921E+05  5.957625E+05  4.124483E+05 -1.940073E-10 -3.872390E-09
        62  18  2.201062E+06  6.954855E+05  4.907764E+05  3.665406E+05  9.837280E-09  3.993049E-09
        62  19 -3.178119E+06 -1.208204E+06 -6.668522E+05 -1.113524E+06  1.945721E+05  2.351992E+04
        62  20 -2.968916E+06 -1.153132E+06 -5.235452E+05 -1.044697E+06  1.294449E+05 -1.181657E+05
        62  21 -2.733731E+06 -1.113682E+06 -4.525738E+05 -1.021615E+06  3.575522E+04 -1.847159E+05
        62  22 -2.611284E+05 -1.483535E+05  7.864741E+04 -3.520264E+05 -3.413301E+04 -6.306113E+04
        62  23 -2.904916E+05 -1.832202E+05  3.632463E+04 -3.175564E+05  2.340790E+04 -1.581804E+05
        62  24 -2.695198E+05 -2.093770E+05  1.925640E+04 -3.288319E+05  5.249456E+04 -1.783219E+05
        62  25  2.664193E+06  9.119134E+05  8.236591E+05  4.126648E+05 -2.640155E+05 -1.500506E+05
        62  26  2.395290E+06  7.872362E+05  5.958493E+05  4.124615E+05 -8.312353E+04 -1.983746E+05
        62  27  2.201075E+06  6.955185E+05  4.908410E+05  3.665310E+05  6.930587E+04 -1.719006E+05
        63   1 -2.599008E+06 -1.057328E+06 -4.269543E+05 -9.802386E+05 -4.589068E+04  1.728788E+05
        63   2 -2.407798E+06 -9.636800E+05 -3.842226E+05 -9.018630E+05 -3.690982E+04  1.683841E+05
        63   3 -2.181312E+06 -9.051235E+05 -3.459798E+05 -8.639146E+05 -2.561008E+04  1.576782E+05
        63   4 -2.709224E+05 -2.091392E+05  1.451945E+04 -3.311895E+05 -5.203767E+04  1.704903E+05
        63   5 -2.895290E+05 -1.936075E+05  7.566296E+03 -3.105269E+05 -5.321098E+04  1.621836E+05
        63   6 -2.708982E+05 -2.111485E+05  4.184755E+03 -3.302981E+05 -5.207207E+04  1.476767E+05
        63   7  2.062834E+06  6.395495E+05  4.557708E+05  3.201281E+05 -5.820966E+04  1.680925E+05
        63   8  1.833445E+06  5.768837E+05  3.991839E+05  2.826904E+05 -6.957186E+04  1.559607E+05
        63   9  1.643339E+06  4.831667E+05  3.542135E+05  2.048480E+05 -7.862113E+04  1.376426E+05
        63  10 -2.599019E+06 -1.057361E+06 -4.270144E+05 -9.802322E+05  1.336050E-08  5.320176E-09
        63  11 -2.407807E+06 -9.637108E+05 -3.842785E+05 -9.018580E+05  1.600147E-08  7.655706E-09
        63  12 -2.181319E+06 -9.051504E+05 -3.460277E+05 -8.639114E+05  2.672165E-08  1.090876E-08
        63  13 -2.709331E+05 -2.091711E+05  1.445975E+04 -3.311823E+05  4.872788E-09  1.431661E-09
        63  14 -2.895391E+05 -1.936365E+05  7.511556E+03 -3.105200E+05 -1.220293E-09  4.848845E-09
        63  15 -2.709069E+05 -2.111726E+05  4.138687E+03 -3.302919E+05  6.454390E-09  9.779797E-09
        63  16  2.062823E+06  6.395183E+05  4.557114E+05  3.201360E+05 -4.621244E-09  5.716385E-10
        63  17  1.833433E+06  5.768563E+05  3.991291E+05  2.826991E+05 -1.447782E-08 -7.095332E-09
        63  18  1.643327E+06  4.831447E+05  3.541663E+05  2.048567E+05 -1.690530E-08 -8.140506E-09
        63  19 -2.599008E+06 -1.057328E+06 -4.269543E+05 -9.802386E+05  4.589068E+04 -1.728788E+05
        63  20 -2.407798E+06 -9.636800E+05 -3.842226E+05 -9.018630E+05  3.690982E+04 -1.683841E+05
        63  21 -2.181312E+06 -9.051235E+05 -3.459798E+05 -8.639146E+05  2.561008E+04 -1.576782E+05
        63  22 -2.709224E+05 -2.091392E+05  1.451945E+04 -3.311895E+05  5.203767E+04 -1.704903E+05
        63  23 -2.895290E+05 -1.936075E+05  7.566296E+03 -3.105269E+05  5.321098E+04 -1.621836E+05
        63  24 -2.708982E+05 -2.111485E+05  4.184755E+03 -3.302981E+05  5.207207E+04 -1.476767E+05
        63  25  2.062834E+06  6.395495E+05  4.557708E+05  3.201281E+05  5.820966E+04 -1.680925E+05
        63  26  1.833445E+06  5.768837E+05  3.991839E+05  2.826904E+05  6.957186E+04 -1.559607E+05
        63  27  1.643339E+06  4.831667E+05  3.542135E+05  2.048480E+05  7.862113E+04 -1.376426E+05
        64   1 -2.044435E+06 -8.544870E+05 -3.205904E+05 -8.254534E+05 -2.345327E+04  1.476267E+05
        64   2 -1.853378E+06 -7.602071E+05 -2.835091E+05 -7.465242E+05 -1.740771E+04  1.317133E+05
        64   3 -1.626289E+06 -7.015425E+05 -2.463616E+05 -7.082253E+05 -1.118772E+04  1.152716E+05
        64   4 -2.709568E+05 -2.110412E+05  3.116485E+03 -3.305424E+05 -4.906587E+04  1.379580E+05
        64   5 -2.888749E+05 -1.930500E+05  1.647156E+03 -3.102707E+05 -4.388480E+04  1.217390E+05
        64   6 -2.706479E+05 -2.105045E+05  9.201982E+02 -3.306420E+05 -3.852963E+04  1.049924E+05
        64   7  1.505852E+06  4.327102E+05  3.267175E+05  1.656947E+05 -7.475712E+04  1.282597E+05
        64   8  1.278215E+06  3.743424E+05  2.867207E+05  1.270121E+05 -7.043348E+04  1.117378E+05
        64   9  1.086929E+06  2.807073E+05  2.481391E+05  4.771142E+04 -6.593544E+04  9.468928E+04
        64  10 -2.044441E+06 -8.545105E+05 -3.206323E+05 -8.254506E+05 -1.823340E-08 -7.865429E-09
        64  11 -1.853383E+06 -7.602258E+05 -2.835422E+05 -7.465223E+05 -1.329141E-08 -7.394743E-09
        64  12 -1.626293E+06 -7.015568E+05 -2.463868E+05 -7.082242E+05 -4.878078E-10 -3.997168E-09
        64  13 -2.709645E+05 -2.110623E+05  3.076203E+03 -3.305369E+05  5.886286E-09  9.378081E-09
        64  14 -2.888810E+05 -1.930664E+05  1.615693E+03 -3.102664E+05  1.404524E-09  3.859229E-09
        64  15 -2.706525E+05 -2.105168E+05  8.966985E+02 -3.306387E+05  4.748729E-10  1.566942E-10
        64  16  1.505842E+06  4.326910E+05  3.266761E+05  1.657024E+05  3.219443E-08  1.034607E-08
        64  17  1.278206E+06  3.743277E+05  2.866879E+05  1.270185E+05  1.761141E-08  7.488675E-09
        64  18  1.086922E+06  2.806965E+05  2.481141E+05  4.771645E+04  6.744062E-10  2.032670E-09
        64  19 -2.044435E+06 -8.544870E+05 -3.205904E+05 -8.254534E+05  2.345327E+04 -1.476267E+05
        64  20 -1.853378E+06 -7.602071E+05 -2.835091E+05 -7.465242E+05  1.740771E+04 -1.317133E+05
        64  21 -1.626289E+06 -7.015425E+05 -2.463616E+05 -7.082253E+05  1.118772E+04 -1.152716E+05
        64  22 -2.709568E+05 -2.110412E+05  3.116485E+03 -3.305424E+05  4.906587E+04 -1.379580E+05
        64  23 -2.888749E+05 -1.930500E+05  1.647156E+03 -3.102707E+05  4.388480E+04 -1.217390E+05
        64  24 -2.706479E+05 -2.105045E+05  9.201982E+02 -3.306420E+05  3.852963E+04 -1.049924E+05
        64  25  1.505852E+06  4.327102E+05  3.267175E+05  1.656947E+05  7.475712E+04 -1.282597E+05
        64  26  1.278215E+06  3.743424E+05  2.867207E+05  1.270121E+05  7.043348E+04 -1.117378E+05
        64  27  1.086929E+06  2.807073E+05  2.481391E+05  4.771142E+04  6.593544E+04 -9.468928E+04
        65   1 -1.488929E+06 -6.513699E+05 -2.204525E+05 -6.699813E+05 -7.716660E+03  1.054651E+05
        65   2 -1.297154E+06 -5.573830E+05 -1.831378E+05 -5.910717E+05 -1.507466E+03  8.874398E+04
        65   3 -1.069493E+06 -4.990402E+05 -1.457317E+05 -5.529852E+05  4.705353E+03  7.197028E+04
        65   4 -2.706194E+05 -2.104161E+05  6.612243E+02 -3.307010E+05 -3.500587E+04  9.521547E+04
        65   5 -2.884466E+05 -1.923980E+05  2.925079E+02 -3.103271E+05 -2.888353E+04  7.847463E+04
        65   6 -2.704199E+05 -2.100096E+05  7.840878E+01 -3.307913E+05 -2.275754E+04  6.168124E+04
        65   7  9.492428E+05  2.306740E+05  2.217224E+05  9.197994E+03 -6.235209E+04  8.494444E+04
        65   8  7.213332E+05  1.726832E+05  1.836898E+05 -2.915662E+04 -5.630714E+04  6.818746E+04
        65   9  5.293334E+05  7.908417E+04  1.458708E+05 -1.083283E+05 -5.025846E+04  5.137796E+04
        65  10 -1.488932E+06 -6.513819E+05 -2.204735E+05 -6.699807E+05 -2.429410E-08 -1.301784E-08
        65  11 -1.297156E+06 -5.573914E+05 -1.831526E+05 -5.910716E+05 -1.396725E-08 -7.830037E-09
        65  12 -1.069494E+06 -4.990457E+05 -1.457415E+05 -5.529855E+05  1.092168E-08  5.040847E-09
        65  13 -2.706232E+05 -2.104262E+05  6.418890E+02 -3.306984E+05 -3.118474E-09 -3.387252E-09
        65  14 -2.884492E+05 -1.924049E+05  2.793705E+02 -3.103253E+05 -9.481715E-09 -6.699200E-09
        65  15 -2.704215E+05 -2.100138E+05  7.028779E+01 -3.307902E+05 -5.540639E-09 -2.213251E-09
        65  16  9.492367E+05  2.306652E+05  2.217015E+05  9.202257E+03  1.574442E-08  6.043886E-09
        65  17  7.213286E+05  1.726773E+05  1.836751E+05 -2.915353E+04 -7.390065E-09 -5.493674E-09
        65  18  5.293299E+05  7.908066E+04  1.458611E+05 -1.083262E+05 -1.777230E-08 -9.823130E-09
        65  19 -1.488929E+06 -6.513699E+05 -2.204525E+05 -6.699813E+05  7.716660E+03 -1.054651E+05
        65  20 -1.297154E+06 -5.573830E+05 -1.831378E+05 -5.910717E+05  1.507466E+03 -8.874398E+04
        65  21 -1.069493E+06 -4.990402E+05 -1.457317E+05 -5.529852E+05 -4.705353E+03 -7.197028E+04
        65  22 -2.706194E+05 -2.104161E+05  6.612243E+02 -3.307010E+05  3.500587E+04 -9.521547E+04
        65  23 -2.884466E+05 -1.923980E+05  2.925079E+02 -3.103271E+05  2.888353E+04 -7.847463E+04
        65  24 -2.704199E+05 -2.100096E+05  7.840878E+01 -3.307913E+05  2.275754E+04 -6.168124E+04
        65  25  9.492428E+05  2.306740E+05  2.217224E+05  9.197994E+03  6.235209E+04 -8.494444E+04
        65  26  7.213332E+05  1.726832E+05  1.836898E+05 -2.915662E+04  5.630714E+04 -6.818746E+04
        65  27  5.293334E+05  7.908417E+04  1.458708E+05 -1.083283E+05  5.025846E+04 -5.137796E+04
        66   1 -9.317893E+05 -4.489790E+05 -1.196720E+05 -5.147850E+05  8.365511E+03  6.220729E+04
        66   2 -7.395423E+05 -3.551797E+05 -8.226871E+04 -4.358868E+05  1.476287E+04  4.548839E+04
        66   3 -5.115389E+05 -2.970487E+05 -4.494019E+04 -3.979158E+05  2.114835E+04  2.878151E+04
        66   4 -2.704007E+05 -2.099580E+05 -3.265322E+01 -3.308186E+05 -1.910672E+04  5.192026E+04
        66   5 -2.882060E+05 -1.920243E+05 -2.741683E+02 -3.103687E+05 -1.269230E+04  3.521351E+04
        66   6 -2.703077E+05 -2.097654E+05 -6.076619E+02 -3.308620E+05 -6.289840E+03  1.851883E+04
        66   7  3.914499E+05  2.910475E+04  1.195945E+05 -1.466690E+05 -4.661018E+04  4.162154E+04
        66   8  1.633438E+05 -2.884999E+04  8.171573E+04 -1.847657E+05 -4.016865E+04  2.493070E+04
        66   9 -2.901613E+04 -1.224770E+05  4.372528E+04 -2.637841E+05 -3.373915E+04  8.251978E+03
        66  10 -9.317905E+05 -4.489832E+05 -1.196794E+05 -5.147854E+05 -2.719092E-09  1.514856E-09
        66  11 -7.395431E+05 -3.551820E+05 -8.227302E+04 -4.358873E+05 -9.975865E-10  1.855325E-09
        66  12 -5.115396E+05 -2.970497E+05 -4.494259E+04 -3.979163E+05 -1.040642E-09  3.130546E-10
        66  13 -2.704018E+05 -2.099610E+05 -3.840376E+01 -3.308178E+05  7.937390E-10  1.886880E-09
        66  14 -2.882065E+05 -1.920256E+05 -2.768006E+02 -3.103683E+05 -4.783520E-11  2.487290E-09
        66  15 -2.703078E+05 -2.097658E+05 -6.083806E+02 -3.308619E+05 -1.396693E-10  1.755023E-10
        66  16  3.914471E+05  2.910230E+04  1.195872E+05 -1.466674E+05  3.582555E-09  3.363799E-10
        66  17  1.633419E+05 -2.885109E+04  8.171153E+04 -1.847649E+05  3.527734E-10  2.622874E-09
        66  18 -2.901737E+04 -1.224774E+05  4.372301E+04 -2.637839E+05  1.742283E-10  7.500545E-10
        66  19 -9.317893E+05 -4.489790E+05 -1.196720E+05 -5.147850E+05 -8.365511E+03 -6.220729E+04
        66  20 -7.395423E+05 -3.551797E+05 -8.226871E+04 -4.358868E+05 -1.476287E+04 -4.548839E+04
        66  21 -5.115389E+05 -2.970487E+05 -4.494019E+04 -3.979158E+05 -2.114835E+04 -2.878151E+04
        66  22 -2.704007E+05 -2.099580E+05 -3.265322E+01 -3.308186E+05  1.910672E+04 -5.192026E+04
        66  23 -2.882060E+05 -1.920243E+05 -2.741683E+02 -3.103687E+05  1.269230E+04 -3.521351E+04
        66  24 -2.703077E+05 -2.097654E+05 -6.076619E+02 -3.308620E+05  6.289840E+03 -1.851883E+04
        66  25  3.914499E+05  2.910475E+04  1.195945E+05 -1.466690E+05  4.661018E+04 -4.162154E+04
        66  26  1.633438E+05 -2.884999E+04  8.171573E+04 -1.847657E+05  4.016865E+04 -2.493070E+04
        66  27 -2.901613E+04 -1.224770E+05  4.372528E+04 -2.637841E+05  3.373915E+04 -8.251978E+03
        67   1 -3.736353E+05 -2.470431E+05 -1.898465E+04 -3.597211E+05  2.496003E+04  1.908143E+04
        67   2 -1.811846E+05 -1.533479E+05  1.805812E+04 -2.807933E+05  3.156417E+04  2.593302E+03
        67   3  4.694289E+04 -9.533515E+04  5.481802E+04 -2.428070E+05  3.807273E+04 -1.363531E+04
        67   4 -2.703293E+05 -2.097473E+05 -8.483476E+02 -3.308773E+05 -2.519495E+03  8.804593E+03
        67   5 -2.881143E+05 -1.919090E+05 -1.604309E+03 -3.103815E+05  4.504546E+03 -7.527919E+03
        67   6 -2.703577E+05 -2.098441E+05 -2.979707E+03 -3.308477E+05  1.143285E+04 -2.360087E+04
        67   7 -1.670092E+05 -1.724495E+05  1.729114E+04 -3.020283E+05 -3.000415E+04 -1.474171E+03
        67   8 -3.950310E+05 -2.304687E+05 -2.126417E+04 -3.399646E+05 -2.255023E+04 -1.764734E+04
        67   9 -5.875511E+05 -3.243431E+05 -6.077805E+04 -4.188462E+05 -1.519252E+04 -3.356100E+04
        67  10 -3.736361E+05 -2.470436E+05 -1.898650E+04 -3.597215E+05 -2.055542E-09 -1.850435E-10
        67  11 -1.811857E+05 -1.533482E+05  1.805623E+04 -2.807933E+05 -1.605983E-08 -6.328885E-09
        67  12  4.694128E+04 -9.533574E+04  5.481495E+04 -2.428066E+05 -3.290585E-08 -1.009696E-08
        67  13 -2.703293E+05 -2.097474E+05 -8.485052E+02 -3.308773E+05 -1.143821E-09 -2.536655E-10
        67  14 -2.881144E+05 -1.919091E+05 -1.604453E+03 -3.103814E+05 -2.850678E-09 -5.616644E-09
        67  15 -2.703580E+05 -2.098447E+05 -2.980999E+03 -3.308475E+05 -5.629589E-09 -8.706483E-09
        67  16 -1.670102E+05 -1.724497E+05  1.728944E+04 -3.020284E+05  2.438492E-09  2.142188E-09
        67  17 -3.950316E+05 -2.304692E+05 -2.126572E+04 -3.399649E+05  1.366372E-08  6.990087E-09
        67  18 -5.875516E+05 -3.243444E+05 -6.078060E+04 -4.188466E+05  1.968146E-08  9.198586E-09
        67  19 -3.736353E+05 -2.470431E+05 -1.898465E+04 -3.597211E+05 -2.496003E+04 -1.908143E+04
        67  20 -1.811846E+05 -1.533479E+05  1.805812E+04 -2.807933E+05 -3.156417E+04 -2.593302E+03
        67  21  4.694289E+04 -9.533515E+04  5.481802E+04 -2.428070E+05 -3.807273E+04  1.363531E+04
        67  22 -2.703293E+05 -2.097473E+05 -8.483476E+02 -3.308773E+05  2.519495E+03 -8.804593E+03
        67  23 -2.881143E+05 -1.919090E+05 -1.604309E+03 -3.103815E+05 -4.504546E+03  7.527919E+03
        67  24 -2.703577E+05 -2.098441E+05 -2.979707E+03 -3.308477E+05 -1.143285E+04  2.360087E+04
        67  25 -1.670092E+05 -1.724495E+05  1.729114E+04 -3.020283E+05  3.000415E+04  1.474171E+03
        67  26 -3.950310E+05 -2.304687E+05 -2.126417E+04 -3.399646E+05  2.255023E+04  1.764734E+04
        67  27 -5.875511E+05 -3.243431E+05 -6.077805E+04 -4.188462E+05  1.519252E+04  3.356100E+04
        68   1  1.850394E+05 -4.539948E+04  8.017196E+04 -2.047952E+05  4.268211E+04 -2.291380E+04
        68   2  3.768694E+05  4.856991E+04  1.165433E+05 -1.251333E+05  4.680865E+04 -3.839321E+04
        68   3  6.041582E+05  1.061184E+05  1.537562E+05 -8.584993E+04  4.976346E+04 -5.072479E+04
        68   4 -2.705767E+05 -2.097891E+05 -3.980362E+03 -3.308931E+05  1.559642E+04 -3.304893E+04
        68   5 -2.880217E+05 -1.925009E+05 -7.327409E+03 -3.101764E+05  2.488010E+04 -4.660629E+04
        68   6 -2.710738E+05 -2.126625E+05 -1.391897E+04 -3.298591E+05  3.299185E+04 -5.701376E+04
        68   7 -7.259695E+05 -3.741576E+05 -8.813619E+04 -4.569036E+05 -1.146780E+04 -4.317607E+04
        68   8 -9.524496E+05 -4.335305E+05 -1.312132E+05 -4.950351E+05  2.976613E+03 -5.480996E+04
        68   9 -1.145517E+06 -5.313764E+05 -1.816278E+05 -5.735511E+05  1.624536E+04 -6.329324E+04
        68  10  1.850373E+05 -4.540053E+04  8.016756E+04 -2.047944E+05  1.739315E-08  9.986160E-09
        68  11  3.768667E+05  4.856774E+04  1.165364E+05 -1.251318E+05  1.170090E-08  8.213966E-09
        68  12  6.041548E+05  1.061150E+05  1.537467E+05 -8.584790E+04  8.687468E-10  3.398971E-09
        68  13 -2.705772E+05 -2.097903E+05 -3.982871E+03 -3.308927E+05 -7.239658E-09 -9.228735E-09
        68  14 -2.880229E+05 -1.925034E+05 -7.332652E+03 -3.101755E+05 -2.307636E-09 -4.460579E-09
        68  15 -2.710759E+05 -2.126663E+05 -1.392712E+04 -3.298576E+05 -1.716389E-09  4.544879E-10
        68  16 -7.259701E+05 -3.741596E+05 -8.813994E+04 -4.569040E+05 -3.140755E-08 -1.052889E-08
        68  17 -9.524504E+05 -4.335337E+05 -1.312189E+05 -4.950350E+05 -1.920405E-08 -7.668384E-09
        68  18 -1.145518E+06 -5.313808E+05 -1.816358E+05 -5.735502E+05  1.630371E-10 -5.144616E-10
        68  19  1.850394E+05 -4.539948E+04  8.017196E+04 -2.047952E+05 -4.268211E+04  2.291380E+04
        68  20  3.768694E+05  4.856991E+04  1.165433E+05 -1.251333E+05 -4.680865E+04  3.839321E+04
        68  21  6.041582E+05  1.061184E+05  1.537562E+05 -8.584993E+04 -4.976346E+04  5.072479E+04
        68  22 -2.705767E+05 -2.097891E+05 -3.980362E+03 -3.308931E+05 -1.559642E+04  3.304893E+04
        68  23 -2.880217E+05 -1.925009E+05 -7.327409E+03 -3.101764E+05 -2.488010E+04  4.660629E+04
        68  24 -2.710738E+05 -2.126625E+05 -1.391897E+04 -3.298591E+05 -3.299185E+04  5.701376E+04
        68  25 -7.259695E+05 -3.741576E+05 -8.813619E+04 -4.569036E+05  1.146780E+04  4.317607E+04
        68  26 -9.524496E+05 -4.335305E+05 -1.312132E+05 -4.950351E+05 -2.976613E+03  5.480996E+04
        68  27 -1.145517E+06 -5.313764E+05 -1.816278E+05 -5.735511E+05 -1.624536E+04  6.329324E+04
        69   1  7.449992E+05  1.547213E+05  1.776025E+05 -5.203689E+04  6.041619E+04 -5.629796E+04
        69   2  9.221967E+05  2.550880E+05  2.243307E+05  4.644557E+04  1.398495E+04 -6.733844E+04
        69   3  1.129286E+06  2.966278E+05  2.968491E+05  1.156552E+05 -4.678887E+04 -4.024936E+04
        69   4 -2.736749E+05 -2.115151E+05 -1.842245E+04 -3.306642E+05  3.821997E+04 -6.462353E+04
        69   5 -2.865975E+05 -2.050925E+05 -3.497761E+04 -3.051093E+05  5.442914E+04 -5.219101E+04
        69   6 -2.820884E+05 -2.699482E+05 -7.535611E+04 -3.088497E+05  5.629721E+04 -1.582059E+03
        69   7 -1.291277E+06 -5.776667E+05 -2.144917E+05 -6.088716E+05  1.606260E+04 -7.293490E+04
        69   8 -1.493878E+06 -6.651145E+05 -2.943572E+05 -6.560168E+05  9.478791E+04 -3.707845E+04
        69   9 -1.691445E+06 -8.362880E+05 -4.476724E+05 -7.324317E+05  1.591232E+05  3.697173E+04
        69  10  7.449944E+05  1.547170E+05  1.775897E+05 -5.203416E+04 -4.104898E-10  3.027992E-09
        69  11  9.221953E+05  2.550831E+05  2.243218E+05  4.644633E+04  1.924466E-09  2.673431E-09
        69  12  1.129283E+06  2.966254E+05  2.968420E+05  1.156537E+05  3.362173E-09  2.072137E-09
        69  13 -2.736775E+05 -2.115200E+05 -1.843304E+04 -3.306622E+05 -1.550931E-09  2.346578E-09
        69  14 -2.866014E+05 -2.050963E+05 -3.498829E+04 -3.051070E+05  1.789090E-09  2.234366E-09
        69  15 -2.820918E+05 -2.699490E+05 -7.536207E+04 -3.088497E+05 -1.809309E-09  8.719747E-10
        69  16 -1.291279E+06 -5.776725E+05 -2.145022E+05 -6.088707E+05 -1.615245E-09  1.281159E-09
        69  17 -1.493888E+06 -6.651184E+05 -2.943767E+05 -6.560140E+05 -2.686507E-09  1.792776E-09
        69  18 -1.691473E+06 -8.362963E+05 -4.477227E+05 -7.324364E+05 -3.014449E-09 -2.027230E-10
        69  19  7.449992E+05  1.547213E+05  1.776025E+05 -5.203689E+04 -6.041619E+04  5.629796E+04
        69  20  9.221967E+05  2.550880E+05  2.243307E+05  4.644557E+04 -1.398495E+04  6.733844E+04
        69  21  1.129286E+06  2.966278E+05  2.968491E+05  1.156552E+05  4.678887E+04  4.024936E+04
        69  22 -2.736749E+05 -2.115151E+05 -1.842245E+04 -3.306642E+05 -3.821997E+04  6.462353E+04
        69  23 -2.865975E+05 -2.050925E+05 -3.497761E+04 -3.051093E+05 -5.442914E+04  5.219101E+04
        69  24 -2.820884E+05 -2.699482E+05 -7.535611E+04 -3.088497E+05 -5.629721E+04  1.582059E+03
        69  25 -1.291277E+06 -5.776667E+05 -2.144917E+05 -6.088716E+05 -1.606260E+04  7.293490E+04
        69  26 -1.493878E+06 -6.651145E+05 -2.943572E+05 -6.560168E+05 -9.478791E+04  3.707845E+04
        69  27 -1.691445E+06 -8.362880E+05 -4.476724E+05 -7.324317E+05 -1.591232E+05 -3.697173E+04
        70   1 -2.182024E+05 -9.642362E+04 -8.504122E+04 -7.069632E+04 -1.722150E+04  6.883831E+03
        70   2 -1.444771E+05 -1.025102E+05 -6.561608E+04 -8.042239E+04 -1.648714E+03  2.289676E+04
        70   3 -6.918512E+04 -9.433698E+04 -5.276516E+04 -1.011437E+05  1.393127E+04  2.703906E+04
        70   4  3.657644E+05  4.738560E+04  5.017315E+04 -1.029466E+05  3.545149E+04  6.894115E+03
        70   5  3.625303E+05  1.706538E+04  2.534294E+04 -9.744726E+04  2.253989E+04  2.289823E+04
        70   6  3.657968E+05  5.941724E+03  1.371495E+04 -1.029414E+05  9.633434E+03  2.703694E+04
        70   7  9.500546E+05  1.911763E+05  1.853757E+05 -1.352274E+05  8.817365E+04  6.898925E+03
        70   8  8.697902E+05  1.366280E+05  1.162944E+05 -1.144864E+05  4.674768E+04  2.289837E+04
        70   9  8.009682E+05  1.062113E+05  8.019106E+04 -1.047405E+05  5.332705E+03  2.703486E+04
        70  10 -2.182028E+05 -9.642375E+04 -8.504187E+04 -7.069623E+04  9.555728E-10 -1.480569E-10
        70  11 -1.444772E+05 -1.025107E+05 -6.561707E+04 -8.042236E+04 -1.944925E-09 -5.734696E-10
        70  12 -6.918553E+04 -9.433782E+04 -5.276690E+04 -1.011440E+05  1.260273E-09 -9.015588E-10
        70  13  3.657631E+05  4.738521E+04  5.017070E+04 -1.029468E+05  1.202949E-09  2.265647E-10
        70  14  3.625297E+05  1.706468E+04  2.534100E+04 -9.744768E+04 -9.142578E-10 -9.679444E-11
        70  15  3.657965E+05  5.940914E+03  1.371340E+04 -1.029416E+05  1.289625E-10 -8.540294E-10
        70  16  9.500462E+05  1.911741E+05  1.853610E+05 -1.352279E+05  2.047933E-11  4.459911E-10
        70  17  8.697877E+05  1.366269E+05  1.162893E+05 -1.144873E+05 -2.080097E-10  4.554465E-10
        70  18  8.009680E+05  1.062105E+05  8.018963E+04 -1.047406E+05 -4.182433E-10 -3.178478E-10
        70  19 -2.182024E+05 -9.642362E+04 -8.504122E+04 -7.069632E+04  1.722150E+04 -6.883831E+03
        70  20 -1.444771E+05 -1.025102E+05 -6.561608E+04 -8.042239E+04  1.648714E+03 -2.289676E+04
        70  21 -6.918512E+04 -9.433698E+04 -5.276516E+04 -1.011437E+05 -1.393127E+04 -2.703906E+04
        70  22  3.657644E+05  4.738560E+04  5.017315E+04 -1.029466E+05 -3.545149E+04 -6.894115E+03
        70  23  3.625303E+05  1.706538E+04  2.534294E+04 -9.744726E+04 -2.253989E+04 -2.289823E+04
        70  24  3.657968E+05  5.941724E+03  1.371495E+04 -1.029414E+05 -9.633434E+03 -2.703694E+04
        70  25  9.500546E+05  1.911763E+05  1.853757E+05 -1.352274E+05 -8.817365E+04 -6.898925E+03
        70  26  8.697902E+05  1.366280E+05  1.162944E+05 -1.144864E+05 -4.674768E+04 -2.289837E+04
        70  27  8.009682E+05  1.062113E+05  8.019106E+04 -1.047405E+05 -5.332705E+03 -2.703486E+04
        71   1 -2.370605E+04 -8.478038E+04 -4.705869E+04 -1.006004E+05  1.309215E+04  2.544636E+04
        71   2  5.059815E+04 -6.995099E+04 -3.775807E+04 -9.596575E+04  1.418092E+04  2.245766E+04
        71   3  1.250954E+05 -5.385114E+04 -2.884540E+04 -1.032031E+05  1.526944E+04  1.786462E+04
        71   4  3.645491E+05  4.313414E+03  1.022696E+04 -1.031375E+05  7.848311E+03  2.544461E+04
        71   5  3.641298E+05  1.395910E+03  5.515887E+03 -9.720179E+04  5.084949E+03  2.245658E+04
        71   6  3.645660E+05  4.171322E+02  3.090445E+03 -1.031375E+05  2.321232E+03  1.786463E+04
        71   7  7.529560E+05  9.340021E+04  6.751000E+04 -1.056762E+05  2.601322E+03  2.544290E+04
        71   8  6.777615E+05  7.273854E+04  4.878903E+04 -9.843846E+04 -4.015407E+03  2.245553E+04
        71   9  6.040955E+05  5.468305E+04  3.502646E+04 -1.030719E+05 -1.063174E+04  1.786464E+04
        71  10 -2.370640E+04 -8.478112E+04 -4.706023E+04 -1.006007E+05 -2.980717E-09 -2.515421E-10
        71  11  5.059779E+04 -6.995159E+04 -3.775940E+04 -9.596601E+04  5.637705E-10  2.987793E-10
        71  12  1.250950E+05 -5.385155E+04 -2.884644E+04 -1.032033E+05  3.541319E-09 -1.680510E-09
        71  13  3.645489E+05  4.312702E+03  1.022563E+04 -1.031376E+05 -9.291271E-10 -4.051912E-10
        71  14  3.641297E+05  1.395362E+03  5.514891E+03 -9.720188E+04 -8.639280E-10 -1.687496E-10
        71  15  3.645659E+05  4.167880E+02  3.089835E+03 -1.031375E+05  2.894900E-10 -1.179718E-09
        71  16  7.529558E+05  9.339951E+04  6.750877E+04 -1.056763E+05  3.399663E-10 -8.442018E-10
        71  17  6.777614E+05  7.273800E+04  4.878806E+04 -9.843839E+04 -1.891016E-09 -7.597376E-10
        71  18  6.040953E+05  5.468268E+04  3.502564E+04 -1.030717E+05 -2.031886E-09 -6.236466E-10
        71  19 -2.370605E+04 -8.478038E+04 -4.705869E+04 -1.006004E+05 -1.309215E+04 -2.544636E+04
        71  20  5.059815E+04 -6.995099E+04 -3.775807E+04 -9.596575E+04 -1.418092E+04 -2.245766E+04
        71  21  1.250954E+05 -5.385114E+04 -2.884540E+04 -1.032031E+05 -1.526944E+04 -1.786462E+04
        71  22  3.645491E+05  4.313414E+03  1.022696E+04 -1.031375E+05 -7.848311E+03 -2.544461E+04
        71  23  3.641298E+05  1.395910E+03  5.515887E+03 -9.720179E+04 -5.084949E+03 -2.245658E+04
        71  24  3.645660E+05  4.171322E+02  3.090445E+03 -1.031375E+05 -2.321232E+03 -1.786463E+04
        71  25  7.529560E+05  9.340021E+04  6.751000E+04 -1.056762E+05 -2.601322E+03 -2.544290E+04
        71  26  6.777615E+05  7.273854E+04  4.878903E+04 -9.843846E+04  4.015407E+03 -2.245553E+04
        71  27  6.040955E+05  5.468305E+04  3.502646E+04 -1.030719E+05  1.063174E+04 -1.786464E+04
        72   1  1.709207E+05 -4.348652E+04 -2.313589E+04 -1.031028E+05  1.494246E+04  1.465081E+04
        72   2  2.452763E+05 -2.686080E+04 -1.424094E+04 -9.717379E+04  1.481518E+04  9.095650E+03
        72   3  3.196813E+05 -1.014132E+04 -5.238360E+03 -1.032329E+05  1.468756E+04  3.324530E+03
        72   4  3.644096E+05  2.923585E+02  2.327614E+03 -1.031635E+05  1.866645E+03  1.465128E+04
        72   5  3.643453E+05  5.331677E+01  1.301685E+03 -9.716951E+04  1.220063E+03  9.096592E+03
        72   6  3.644159E+05 -1.472798E+00  7.435857E+02 -1.031635E+05  5.731747E+02  3.325960E+03
        72   7  5.579371E+05  4.406975E+04  2.779150E+04 -1.032241E+05 -1.121305E+04  1.465175E+04
        72   8  4.834292E+05  2.696694E+04  1.684491E+04 -9.716522E+04 -1.237753E+04  9.097535E+03
        72   9  4.091529E+05  1.013839E+04  6.726262E+03 -1.030941E+05 -1.354218E+04  3.327387E+03
        72  10  1.709204E+05 -4.348681E+04 -2.313672E+04 -1.031030E+05 -4.076914E-08 -3.101487E-09
        72  11  2.452760E+05 -2.686095E+04 -1.424150E+04 -9.717390E+04 -5.724922E-09 -4.640686E-09
        72  12  3.196811E+05 -1.014138E+04 -5.238786E+03 -1.032329E+05  2.612030E-08 -6.270829E-09
        72  13  3.644095E+05  2.921270E+02  2.327204E+03 -1.031635E+05 -1.225935E-09 -2.563107E-10
        72  14  3.643453E+05  5.322749E+01  1.301527E+03 -9.716952E+04  5.480618E-10  4.941294E-09
        72  15  3.644159E+05 -1.484767E+00  7.435643E+02 -1.031635E+05 -8.011518E-10  1.092395E-08
        72  16  5.579369E+05  4.406948E+04  2.779086E+04 -1.032240E+05  4.110791E-08 -1.830041E-09
        72  17  4.834290E+05  2.696681E+04  1.684447E+04 -9.716513E+04  6.854764E-09 -5.197650E-09
        72  18  4.091527E+05  1.013833E+04  6.725897E+03 -1.030941E+05 -2.631915E-08 -6.959422E-09
        72  19  1.709207E+05 -4.348652E+04 -2.313589E+04 -1.031028E+05 -1.494246E+04 -1.465081E+04
        72  20  2.452763E+05 -2.686080E+04 -1.424094E+04 -9.717379E+04 -1.481518E+04 -9.095650E+03
        72  21  3.196813E+05 -1.014132E+04 -5.238360E+03 -1.032329E+05 -1.468756E+04 -3.324530E+03
        72  22  3.644096E+05  2.923585E+02  2.327614E+03 -1.031635E+05 -1.866645E+03 -1.465128E+04
        72  23  3.643453E+05  5.331677E+01  1.301685E+03 -9.716951E+04 -1.220063E+03 -9.096592E+03
        72  24  3.644159E+05 -1.472798E+00  7.435857E+02 -1.031635E+05 -5.731747E+02 -3.325960E+03
        72  25  5.579371E+05  4.406975E+04  2.779150E+04 -1.032241E+05  1.121305E+04 -1.465175E+04
        72  26  4.834292E+05  2.696694E+04  1.684491E+04 -9.716522E+04  1.237753E+04 -9.097535E+03
        72  27  4.091529E+05  1.013839E+04  6.726262E+03 -1.030941E+05  1.354218E+04 -3.327387E+03
        73   1  3.655446E+05  2.506251E+02  6.872234E+02 -1.032132E+05  1.458893E+04 -1.070026E+02
        73   2  4.399188E+05  1.698238E+04  9.820647E+03 -9.720025E+04  1.448588E+04 -6.003960E+03
        73   3  5.143183E+05  3.371820E+04  1.902367E+04 -1.031908E+05  1.438306E+04 -1.192419E+04
        73   4  3.643925E+05 -4.315313E+00  5.637946E+02 -1.031670E+05  4.573056E+02 -1.055232E+02
        73   5  3.643765E+05 -1.852787E+01  3.227204E+02 -9.716518E+04  2.974194E+02 -6.002761E+03
        73   6  3.643887E+05 -1.904164E+01  1.897777E+02 -1.031670E+05  1.377664E+02 -1.192329E+04
        73   7  3.632409E+05 -2.591486E+02  4.411160E+02 -1.031207E+05 -1.367430E+04 -1.040458E+02
        73   8  2.888406E+05 -1.701956E+04 -9.174466E+03 -9.713012E+04 -1.388941E+04 -6.001562E+03
        73   9  2.144826E+05 -3.375708E+04 -1.864341E+04 -1.031432E+05 -1.410426E+04 -1.192238E+04
        73  10  3.655444E+05  2.505680E+02  6.868236E+02 -1.032132E+05  4.094476E-08 -5.251477E-09
        73  11  4.399186E+05  1.698229E+04  9.820186E+03 -9.720018E+04  5.092479E-09 -1.396803E-09
        73  12  5.143181E+05  3.371799E+04  1.902302E+04 -1.031906E+05 -2.763458E-08  4.897767E-10
        73  13  3.643925E+05 -4.315381E+00  5.637942E+02 -1.031670E+05 -1.091012E-09  1.213898E-08
        73  14  3.643765E+05 -1.856660E+01  3.226525E+02 -9.716518E+04 -5.187380E-11  8.567042E-09
        73  15  3.643887E+05 -1.919433E+01  1.895105E+02 -1.031670E+05  4.202336E-10  2.668698E-09
        73  16  3.632407E+05 -2.591988E+02  4.407648E+02 -1.031207E+05 -3.975633E-08 -5.450155E-09
        73  17  2.888404E+05 -1.701965E+04 -9.174896E+03 -9.713019E+04 -7.988063E-09 -1.211936E-09
        73  18  2.144824E+05 -3.375729E+04 -1.864406E+04 -1.031433E+05  2.725579E-08  4.132003E-10
        73  19  3.655446E+05  2.506251E+02  6.872234E+02 -1.032132E+05 -1.458893E+04  1.070026E+02
        73  20  4.399188E+05  1.698238E+04  9.820647E+03 -9.720025E+04 -1.448588E+04  6.003960E+03
        73  21  5.143183E+05  3.371820E+04  1.902367E+04 -1.031908E+05 -1.438306E+04  1.192419E+04
        73  22  3.643925E+05 -4.315313E+00  5.637946E+02 -1.031670E+05 -4.573056E+02  1.055232E+02
        73  23  3.643765E+05 -1.852787E+01  3.227204E+02 -9.716518E+04 -2.974194E+02  6.002761E+03
        73  24  3.643887E+05 -1.904164E+01  1.897777E+02 -1.031670E+05 -1.377664E+02  1.192329E+04
        73  25  3.632409E+05 -2.591486E+02  4.411160E+02 -1.031207E+05  1.367430E+04  1.040458E+02
        73  26  2.888406E+05 -1.701956E+04 -9.174466E+03 -9.713012E+04  1.388941E+04  6.001562E+03
        73  27  2.144826E+05 -3.375708E+04 -1.864341E+04 -1.031432E+05  1.410426E+04  1.192238E+04
        74   1  5.602002E+05  4.410041E+04  2.504777E+04 -1.031848E+05  1.435245E+04 -1.537896E+04
        74   2  6.345940E+05  6.083030E+04  3.434600E+04 -9.716609E+04  1.420811E+04 -2.128923E+04
        74   3  7.090258E+05  7.757650E+04  4.374497E+04 -1.031524E+05  1.406458E+04 -2.715806E+04
        74   4  3.643828E+05 -2.185558E+01  1.475130E+02 -1.031674E+05  1.072015E+02 -1.537845E+04
        74   5  3.643684E+05 -3.374101E+01  9.246496E+01 -9.716473E+04  6.157379E+01 -2.128975E+04
        74   6  3.643690E+05 -4.636679E+01  6.911023E+01 -1.031674E+05  1.676268E+01 -2.715963E+04
        74   7  1.686052E+05 -4.414558E+04 -2.475212E+04 -1.031499E+05 -1.413378E+04 -1.537793E+04
        74   8  9.421811E+04 -6.090066E+04 -3.416057E+04 -9.716336E+04 -1.407912E+04 -2.129028E+04
        74   9  1.983448E+04 -7.767397E+04 -4.360642E+04 -1.031823E+05 -1.402364E+04 -2.716119E+04
        74  10  5.601999E+05  4.410010E+04  2.504694E+04 -1.031846E+05  8.613655E-10  2.715357E-11
        74  11  6.345937E+05  6.082976E+04  3.434477E+04 -9.716585E+04  2.903856E-09 -1.455736E-09
        74  12  7.090254E+05  7.757565E+04  4.374322E+04 -1.031521E+05 -2.189633E-09 -1.965689E-09
        74  13  3.643828E+05 -2.210958E+01  1.470685E+02 -1.031674E+05  1.332054E-09 -1.534038E-10
        74  14  3.643683E+05 -3.422781E+01  9.161305E+01 -9.716473E+04 -2.613660E-10 -1.436248E-09
        74  15  3.643688E+05 -4.715903E+01  6.772381E+01 -1.031674E+05 -1.833919E-09 -1.255184E-09
        74  16  1.686049E+05 -4.414589E+04 -2.475294E+04 -1.031501E+05  6.227264E-10 -3.673040E-10
        74  17  9.421777E+04 -6.090120E+04 -3.416180E+04 -9.716361E+04 -1.330321E-09 -1.636701E-09
        74  18  1.983407E+04 -7.767482E+04 -4.360817E+04 -1.031826E+05  7.936230E-11 -6.669422E-10
        74  19  5.602002E+05  4.410041E+04  2.504777E+04 -1.031848E+05 -1.435245E+04  1.537896E+04
        74  20  6.345940E+05  6.083030E+04  3.434600E+04 -9.716609E+04 -1.420811E+04  2.128923E+04
        74  21  7.090258E+05  7.757650E+04  4.374497E+04 -1.031524E+05 -1.406458E+04  2.715806E+04
        74  22  3.643828E+05 -2.185558E+01  1.475130E+02 -1.031674E+05 -1.072015E+02  1.537845E+04
        74  23  3.643684E+05 -3.374101E+01  9.246496E+01 -9.716473E+04 -6.157379E+01  2.128975E+04
        74  24  3.643690E+05 -4.636679E+01  6.911023E+01 -1.031674E+05 -1.676268E+01  2.715963E+04
        74  25  1.686052E+05 -4.414558E+04 -2.475212E+04 -1.031499E+05  1.413378E+04  1.537793E+04
        74  26  9.421811E+04 -6.090066E+04 -3.416057E+04 -9.716336E+04  1.407912E+04  2.129028E+04
        74  27  1.983448E+04 -7.767397E+04 -4.360642E+04 -1.031823E+05  1.402364E+04  2.716119E+04
        75   1  7.549535E+05  8.797329E+04  4.988141E+04 -1.031363E+05  1.402831E+04 -3.057093E+04
        75   2  8.293247E+05  1.047626E+05  5.961222E+04 -9.711288E+04  1.317958E+04 -3.623825E+04
        75   3  9.038681E+05  1.216977E+05  6.993729E+04 -1.030758E+05  1.233203E+04 -4.156641E+04
        75   4  3.643652E+05 -5.583280E+01  6.580268E+01 -1.031633E+05  5.122815E+00 -3.057332E+04
        75   5  3.643401E+05 -7.676054E+01  7.148430E+01 -9.716985E+04 -2.935345E+01 -3.624230E+04
        75   6  3.643415E+05 -9.269646E+01  1.063982E+02 -1.031633E+05 -6.257907E+01 -4.157201E+04
        75   7 -2.606630E+04 -8.809111E+04 -4.974968E+04 -1.031902E+05 -1.400968E+04 -3.057570E+04
        75   8 -1.004226E+05 -1.049249E+05 -5.946954E+04 -9.722675E+04 -1.322889E+04 -3.624636E+04
        75   9 -1.748871E+05 -1.218951E+05 -6.972548E+04 -1.032506E+05 -1.244695E+04 -4.157760E+04
        75  10  7.549531E+05  8.797224E+04  4.987929E+04 -1.031359E+05  3.650698E-11 -1.336015E-09
        75  11  8.293242E+05  1.047611E+05  5.960942E+04 -9.711250E+04  1.848798E-09 -1.085584E-09
        75  12  9.038675E+05  1.216958E+05  6.993376E+04 -1.030754E+05  1.893388E-09 -1.067602E-09
        75  13  3.643650E+05 -5.683670E+01  6.404585E+01 -1.031633E+05  1.064680E-09 -7.729645E-10
        75  14  3.643398E+05 -7.817126E+01  6.901554E+01 -9.716985E+04  2.600002E-09 -7.069830E-10
        75  15  3.643410E+05 -9.455260E+01  1.031499E+02 -1.031633E+05 -1.136307E-09 -7.539402E-10
        75  16 -2.606676E+04 -8.809217E+04 -4.975181E+04 -1.031906E+05  7.808933E-10 -2.614958E-10
        75  17 -1.004232E+05 -1.049264E+05 -5.947234E+04 -9.722714E+04  4.694770E-10 -5.793573E-10
        75  18 -1.748877E+05 -1.218970E+05 -6.972902E+04 -1.032510E+05  1.811004E-09 -7.071555E-11
        75  19  7.549535E+05  8.797329E+04  4.988141E+04 -1.031363E+05 -1.402831E+04  3.057093E+04
        75  20  8.293247E+05  1.047626E+05  5.961222E+04 -9.711288E+04 -1.317958E+04  3.623825E+04
        75  21  9.038681E+05  1.216977E+05  6.993729E+04 -1.030758E+05 -1.233203E+04  4.156641E+04
        75  22  3.643652E+05 -5.583280E+01  6.580268E+01 -1.031633E+05 -5.122815E+00  3.057332E+04
        75  23  3.643401E+05 -7.676054E+01  7.148430E+01 -9.716985E+04  2.935345E+01  3.624230E+04
        75  24  3.643415E+05 -9.269646E+01  1.063982E+02 -1.031633E+05  6.257907E+01  4.157201E+04
        75  25 -2.606630E+04 -8.809111E+04 -4.974968E+04 -1.031902E+05  1.400968E+04  3.057570E+04
        75  26 -1.004226E+05 -1.049249E+05 -5.946954E+04 -9.722675E+04  1.322889E+04  3.624636E+04
        75  27 -1.748871E+05 -1.218951E+05 -6.972548E+04 -1.032506E+05  1.244695E+04  4.157760E+04
        76   1  9.499931E+05  1.322466E+05  7.668689E+04 -1.030037E+05  1.211475E+04 -4.463673E+04
        76   2  1.023961E+06  1.495471E+05  8.929941E+04 -9.709750E+04  5.949339E+03 -4.845358E+04
        76   3  1.099057E+06  1.679777E+05  1.062142E+05 -1.029922E+05 -2.168399E+02 -4.975129E+04
        76   4  3.643420E+05 -1.026244E+02  1.356705E+02 -1.031221E+05 -8.175660E+01 -4.464342E+04
        76   5  3.642893E+05 -9.301061E+01  2.276508E+02 -9.722128E+04 -1.927444E+02 -4.846058E+04
        76   6  3.643088E+05 -3.011970E+00  4.217198E+02 -1.031221E+05 -3.036964E+02 -4.975717E+04
        76   7 -2.209583E+05 -1.324661E+05 -7.641715E+04 -1.032404E+05 -1.226732E+04 -4.465011E+04
        76   8 -2.949397E+05 -1.497518E+05 -8.884805E+04 -9.734492E+04 -6.328610E+03 -4.846758E+04
        76   9 -3.698951E+05 -1.680084E+05 -1.053792E+05 -1.032520E+05 -3.904544E+02 -4.976306E+04
        76  10  9.499924E+05  1.322444E+05  7.668287E+04 -1.030033E+05 -1.662658E-09 -4.211831E-10
        76  11  1.023960E+06  1.495445E+05  8.929493E+04 -9.709727E+04  3.108758E-09  8.750010E-10
        76  12  1.099056E+06  1.679751E+05  1.062095E+05 -1.029922E+05  3.671416E-09 -5.382218E-10
        76  13  3.643415E+05 -1.047650E+02  1.319246E+02 -1.031221E+05  2.154278E-09 -2.967231E-11
        76  14  3.642886E+05 -9.553285E+01  2.232368E+02 -9.722129E+04  1.136594E-09  8.959072E-10
        76  15  3.643081E+05 -5.671004E+00  4.170664E+02 -1.031222E+05 -1.918981E-09 -2.213263E-10
        76  16 -2.209590E+05 -1.324683E+05 -7.642118E+04 -1.032408E+05  3.037300E-09  4.930020E-10
        76  17 -2.949403E+05 -1.497544E+05 -8.885254E+04 -9.734517E+04 -3.971653E-10  1.770648E-09
        76  18 -3.698958E+05 -1.680111E+05 -1.053838E+05 -1.032520E+05 -2.868102E-09  1.541800E-10
        76  19  9.499931E+05  1.322466E+05  7.668689E+04 -1.030037E+05 -1.211475E+04  4.463673E+04
        76  20  1.023961E+06  1.495471E+05  8.929941E+04 -9.709750E+04 -5.949339E+03  4.845358E+04
        76  21  1.099057E+06  1.679777E+05  1.062142E+05 -1.029922E+05  2.168399E+02  4.975129E+04
        76  22  3.643420E+05 -1.026244E+02  1.356705E+02 -1.031221E+05  8.175660E+01  4.464342E+04
        76  23  3.642893E+05 -9.301061E+01  2.276508E+02 -9.722128E+04  1.927444E+02  4.846058E+04
        76  24  3.643088E+05 -3.011970E+00  4.217198E+02 -1.031221E+05  3.036964E+02  4.975717E+04
        76  25 -2.209583E+05 -1.324661E+05 -7.641715E+04 -1.032404E+05  1.226732E+04  4.465011E+04
        76  26 -2.949397E+05 -1.497518E+05 -8.884805E+04 -9.734492E+04  6.328610E+03  4.846758E+04
        76  27 -3.698951E+05 -1.680084E+05 -1.053792E+05 -1.032520E+05  3.904544E+02  4.976306E+04
        77   1  1.146428E+06  1.796814E+05  1.173558E+05 -1.026057E+05 -1.775393E+03 -5.027589E+04
        77   2  1.217090E+06  2.009094E+05  1.509939E+05 -9.796779E+04 -4.710671E+04 -4.039381E+04
        77   3  1.295853E+06  2.307347E+05  2.162698E+05 -1.037457E+05 -9.246312E+04 -1.187159E+04
        77   4  3.643535E+05  4.827954E+01  5.659798E+02 -1.028139E+05 -3.776744E+02 -5.028149E+04
        77   5  3.641676E+05  4.933209E+02  1.034297E+03 -9.760687E+04 -8.946253E+02 -4.037421E+04
        77   6  3.643125E+05  1.768565E+03  2.054579E+03 -1.028147E+05 -1.429578E+03 -1.181510E+04
        77   7 -4.171079E+05 -1.796137E+05 -1.162356E+05 -1.030218E+05  1.018357E+03 -5.028709E+04
        77   8 -4.880394E+05 -1.999613E+05 -1.489437E+05 -9.724650E+04  4.525595E+04 -4.035454E+04
        77   9 -5.664089E+05 -2.272537E+05 -2.121870E+05 -1.018852E+05  8.946869E+04 -1.175830E+04
        77  10  1.146428E+06  1.796787E+05  1.173511E+05 -1.026058E+05  2.480393E-10 -1.900903E-09
        77  11  1.217087E+06  2.009070E+05  1.509867E+05 -9.796932E+04 -6.121349E-10 -2.887700E-09
        77  12  1.295844E+06  2.307323E+05  2.162535E+05 -1.037466E+05 -2.381770E-09 -8.804857E-10
        77  13  3.643529E+05  4.556416E+01  5.612277E+02 -1.028139E+05  1.736210E-09 -3.088396E-09
        77  14  3.641672E+05  4.915699E+02  1.031232E+03 -9.760690E+04 -2.204793E-09  5.214225E-10
        77  15  3.643125E+05  1.768415E+03  2.054313E+03 -1.028147E+05  7.238006E-11 -1.641539E-10
        77  16 -4.171086E+05 -1.796164E+05 -1.162404E+05 -1.030217E+05 -7.447000E-11 -7.960201E-10
        77  17 -4.880420E+05 -1.999636E+05 -1.489507E+05 -9.724503E+04 -8.069059E-10  5.390306E-10
        77  18 -5.664176E+05 -2.272560E+05 -2.122023E+05 -1.018843E+05  2.099182E-09 -6.751304E-10
        77  19  1.146428E+06  1.796814E+05  1.173558E+05 -1.026057E+05  1.775393E+03  5.027589E+04
        77  20  1.217090E+06  2.009094E+05  1.509939E+05 -9.796779E+04  4.710671E+04  4.039381E+04
        77  21  1.295853E+06  2.307347E+05  2.162698E+05 -1.037457E+05  9.246312E+04  1.187159E+04
        77  22  3.643535E+05  4.827954E+01  5.659798E+02 -1.028139E+05  3.776744E+02  5.028149E+04
        77  23  3.641676E+05  4.933209E+02  1.034297E+03 -9.760687E+04  8.946253E+02  4.037421E+04
        77  24  3.643125E+05  1.768565E+03  2.054579E+03 -1.028147E+05  1.429578E+03  1.181510E+04
        77  25 -4.171079E+05 -1.796137E+05 -1.162356E+05 -1.030218E+05 -1.018357E+03  5.028709E+04
        77  26 -4.880394E+05 -1.999613E+05 -1.489437E+05 -9.724650E+04 -4.525595E+04  4.035454E+04
        77  27 -5.664089E+05 -2.272537E+05 -2.121870E+05 -1.018852E+05 -8.946869E+04  1.175830E+04
        78   1  1.953661E+05  9.276049E+05  1.862142E+05 -2.292725E+05  7.657603E+03  6.353889E+04
        78   2  1.436430E+05  7.628476E+05  1.159038E+05 -2.139620E+05  2.411181E+04  2.308582E+04
        78   3  1.022815E+05  6.059572E+05  7.449494E+04 -2.232082E+05  2.498801E+04 -1.736099E+04
        78   4  9.145121E+03  1.726405E+05  9.629945E+03 -2.226446E+05  7.703166E+03  5.365436E+03
        78   5  3.545876E+03  1.719941E+05  5.975303E+03 -2.103687E+05  2.413102E+04  2.350981E+03
        78   6  1.821038E+03  1.727039E+05  5.250036E+03 -2.226501E+05  2.497440E+04 -6.678358E+02
        78   7 -1.771143E+05 -5.817918E+05 -1.669804E+05 -2.160245E+05  7.747526E+03 -5.273782E+04
        78   8 -1.365711E+05 -4.185208E+05 -1.039664E+05 -2.067788E+05  2.415001E+04 -1.836465E+04
        78   9 -9.864865E+04 -2.603624E+05 -6.399874E+04 -2.220922E+05  2.496082E+04  1.601410E+04
        78  10  1.953649E+05  9.276005E+05  1.862065E+05 -2.292729E+05 -1.118822E-10  3.418966E-09
        78  11  1.436423E+05  7.628469E+05  1.159017E+05 -2.139624E+05  3.345261E-09  1.570999E-09
        78  12  1.022807E+05  6.059567E+05  7.449320E+04 -2.232079E+05 -1.913178E-10 -4.260627E-10
        78  13  9.145050E+03  1.726405E+05  9.629780E+03 -2.226446E+05  6.038532E-10  7.871660E-12
        78  14  3.545249E+03  1.719939E+05  5.974198E+03 -2.103687E+05 -2.123760E-10  5.060676E-10
        78  15  1.820368E+03  1.727037E+05  5.248863E+03 -2.226501E+05  1.117374E-09  8.186098E-11
        78  16 -1.771151E+05 -5.817948E+05 -1.669858E+05 -2.160242E+05 -1.181378E-09 -3.593701E-09
        78  17 -1.365718E+05 -4.185213E+05 -1.039682E+05 -2.067784E+05 -1.193951E-09 -1.202558E-09
        78  18 -9.864939E+04 -2.603629E+05 -6.400039E+04 -2.220926E+05 -2.749655E-09  1.053688E-09
        78  19  1.953661E+05  9.276049E+05  1.862142E+05 -2.292725E+05 -7.657603E+03 -6.353889E+04
        78  20  1.436430E+05  7.628476E+05  1.159038E+05 -2.139620E+05 -2.411181E+04 -2.308582E+04
        78  21  1.022815E+05  6.059572E+05  7.449494E+04 -2.232082E+05 -2.498801E+04  1.736099E+04
        78  22  9.145121E+03  1.726405E+05  9.629945E+03 -2.226446E+05 -7.703166E+03 -5.365436E+03
        78  23  3.545876E+03  1.719941E+05  5.975303E+03 -2.103687E+05 -2.413102E+04 -2.350981E+03
        78  24  1.821038E+03  1.727039E+05  5.250036E+03 -2.226501E+05 -2.497440E+04  6.678358E+02
        78  25 -1.771143E+05 -5.817918E+05 -1.669804E+05 -2.160245E+05 -7.747526E+03  5.273782E+04
        78  26 -1.365711E+05 -4.185208E+05 -1.039664E+05 -2.067788E+05 -2.415001E+04  1.836465E+04
        78  27 -9.864865E+04 -2.603624E+05 -6.399874E+04 -2.220922E+05 -2.496082E+04 -1.601410E+04
        79   1  7.859150E+04  5.056012E+05  5.728943E+04 -2.236788E+05  2.018378E+04 -1.938811E+04
        79   2  4.153561E+04  3.441218E+05  3.162352E+04 -2.088622E+05  1.230247E+04 -2.549214E+04
        79   3  7.679355E+03  1.842320E+05  1.072026E+04 -2.196891E+05  3.512151E+03 -3.159598E+04
        79   4  1.694744E+03  1.726797E+05  5.600335E+03 -2.228916E+05  2.016799E+04 -1.539552E+03
        79   5  2.382080E+03  1.720964E+05  7.814489E+03 -2.100681E+05  1.228377E+04 -5.462221E+03
        79   6  5.891677E+03  1.726980E+05  1.327630E+04 -2.228883E+05  3.490423E+03 -9.386168E+03
        79   7 -7.520725E+04 -1.601304E+05 -4.609014E+04 -2.221047E+05  2.015224E+04  1.629981E+04
        79   8 -3.677253E+04  1.019423E+02 -1.599338E+04 -2.112738E+05  1.226499E+04  1.456239E+04
        79   9  4.104310E+03  1.611652E+05  1.583424E+04 -2.260874E+05  3.468466E+03  1.282331E+04
        79  10  7.859096E+04  5.056007E+05  5.728796E+04 -2.236785E+05  1.761513E-09  2.256743E-08
        79  11  4.153527E+04  3.441210E+05  3.162202E+04 -2.088619E+05  3.811489E-09  1.698915E-08
        79  12  7.679074E+03  1.842310E+05  1.071837E+04 -2.196890E+05  7.549942E-09  9.542887E-09
        79  13  1.694306E+03  1.726796E+05  5.599567E+03 -2.228915E+05 -2.710785E-10 -5.164858E-12
        79  14  2.381910E+03  1.720963E+05  7.814149E+03 -2.100681E+05 -4.852904E-09  6.050380E-10
        79  15  5.891641E+03  1.726979E+05  1.327611E+04 -2.228882E+05 -1.336886E-08  6.547586E-11
        79  16 -7.520776E+04 -1.601308E+05 -4.609140E+04 -2.221050E+05  2.336297E-09 -2.289640E-08
        79  17 -3.677275E+04  1.016741E+02 -1.599406E+04 -2.112739E+05  4.283812E-09 -1.681881E-08
        79  18  4.104253E+03  1.611651E+05  1.583391E+04 -2.260874E+05  6.397100E-09 -8.936771E-09
        79  19  7.859150E+04  5.056012E+05  5.728943E+04 -2.236788E+05 -2.018378E+04  1.938811E+04
        79  20  4.153561E+04  3.441218E+05  3.162352E+04 -2.088622E+05 -1.230247E+04  2.549214E+04
        79  21  7.679355E+03  1.842320E+05  1.072026E+04 -2.196891E+05 -3.512151E+03  3.159598E+04
        79  22  1.694744E+03  1.726797E+05  5.600335E+03 -2.228916E+05 -2.016799E+04  1.539552E+03
        79  23  2.382080E+03  1.720964E+05  7.814489E+03 -2.100681E+05 -1.228377E+04  5.462221E+03
        79  24  5.891677E+03  1.726980E+05  1.327630E+04 -2.228883E+05 -3.490423E+03  9.386168E+03
        79  25 -7.520725E+04 -1.601304E+05 -4.609014E+04 -2.221047E+05 -2.015224E+04 -1.629981E+04
        79  26 -3.677253E+04  1.019423E+02 -1.599338E+04 -2.112738E+05 -1.226499E+04 -1.456239E+04
        79  27  4.104310E+03  1.611652E+05  1.583424E+04 -2.260874E+05 -3.468466E+03 -1.282331E+04
        80   1 -1.347397E+04  8.589749E+04 -1.076657E+03 -2.204355E+05 -2.212425E+03 -3.335090E+04
        80   2 -3.794526E+04 -7.700464E+04 -1.919112E+04 -1.886968E+05 -6.876342E+03 -2.859484E+04
        80   3 -4.201480E+04 -2.354211E+05 -3.530812E+04 -1.820844E+05 -2.806186E+03 -2.383594E+04
        80   4  7.909960E+03  1.742314E+05  1.749468E+04 -2.227736E+05 -2.233576E+03 -1.169314E+04
        80   5  2.173460E+04  1.701706E+05  3.182087E+04 -2.101926E+05 -6.875799E+03 -2.790273E+04
        80   6  5.959374E+04  1.742004E+05  6.269734E+04 -2.227319E+05 -2.785855E+03 -4.410822E+04
        80   7  2.929366E+04  2.625737E+05  3.606735E+04 -2.251121E+05 -2.254887E+03  9.967655E+03
        80   8  8.141233E+04  4.174048E+05  8.282981E+04 -2.316970E+05 -6.875304E+03 -2.721034E+04
        80   9  1.611965E+05  5.839801E+05  1.606934E+05 -2.634063E+05 -2.762878E+03 -6.439382E+04
        80  10 -1.347427E+04  8.589629E+04 -1.078756E+03 -2.204356E+05  6.953324E-09 -1.075926E-08
        80  11 -3.794553E+04 -7.700553E+04 -1.919274E+04 -1.886970E+05  5.866779E-09 -1.473365E-08
        80  12 -4.201497E+04 -2.354217E+05 -3.530920E+04 -1.820845E+05  5.566739E-10 -1.600729E-08
        80  13  7.909918E+03  1.742312E+05  1.749442E+04 -2.227737E+05 -9.844895E-09 -2.787972E-11
        80  14  2.173434E+04  1.701698E+05  3.181932E+04 -2.101927E+05 -8.401572E-09  6.757086E-10
        80  15  5.959321E+04  1.741983E+05  6.269367E+04 -2.227320E+05  1.205686E-10  8.122325E-11
        80  16  2.929363E+04  2.625736E+05  3.606716E+04 -2.251121E+05  5.237479E-09  1.043248E-08
        80  17  8.141208E+04  4.174040E+05  8.282833E+04 -2.316972E+05  1.989357E-09  1.506457E-08
        80  18  1.611954E+05  5.839756E+05  1.606856E+05 -2.634064E+05  1.392975E-09  1.666540E-08
        80  19 -1.347397E+04  8.589749E+04 -1.076657E+03 -2.204355E+05  2.212425E+03  3.335090E+04
        80  20 -3.794526E+04 -7.700464E+04 -1.919112E+04 -1.886968E+05  6.876342E+03  2.859484E+04
        80  21 -4.201480E+04 -2.354211E+05 -3.530812E+04 -1.820844E+05  2.806186E+03  2.383594E+04
        80  22  7.909960E+03  1.742314E+05  1.749468E+04 -2.227736E+05  2.233576E+03  1.169314E+04
        80  23  2.173460E+04  1.701706E+05  3.182087E+04 -2.101926E+05  6.875799E+03  2.790273E+04
        80  24  5.959374E+04  1.742004E+05  6.269734E+04 -2.227319E+05  2.785855E+03  4.410822E+04
        80  25  2.929366E+04  2.625737E+05  3.606735E+04 -2.251121E+05  2.254887E+03 -9.967655E+03
        80  26  8.141233E+04  4.174048E+05  8.282981E+04 -2.316970E+05  6.875304E+03  2.721034E+04
        80  27  1.611965E+05  5.839801E+05  1.606934E+05 -2.634063E+05  2.762878E+03  6.439382E+04
        81   1 -4.101703E+05 -2.288667E+05 -1.385240E+05 -1.776372E+05 -6.912792E+04 -2.210839E+04
        81   2 -3.859021E+05 -1.485901E+05 -7.954594E+04 -1.657955E+05 -4.297604E+04 -3.674847E+03
        81   3 -3.762309E+05 -1.138563E+05 -5.327244E+04 -1.494734E+05 -1.449863E+04  8.571280E+03
        81   4 -2.036719E+05 -1.122338E+05 -7.780667E+04 -8.077293E+04 -5.167615E+04 -1.556323E+04
        81   5 -1.931369E+05 -6.037479E+04 -3.609753E+04 -9.430487E+04 -3.566686E+04 -9.334085E+02
        81   6 -1.951840E+05 -5.204334E+04 -1.904928E+04 -1.033591E+05 -1.733343E+04  7.507185E+03
        81   7  2.869656E+03  4.419394E+03 -1.709272E+04  1.612446E+04 -3.421836E+04 -9.013020E+03
        81   8 -3.334325E+02  2.784959E+04  7.348646E+03 -2.279202E+04 -2.835529E+04  1.809454E+03
        81   9 -1.410183E+04  9.772029E+03  1.517288E+04 -5.723250E+04 -2.016913E+04  6.442797E+03
        81  10 -4.101756E+05 -2.288685E+05 -1.385339E+05 -1.776384E+05  8.652848E-10  6.735972E-10
        81  11 -3.859041E+05 -1.485906E+05 -7.954944E+04 -1.657956E+05 -4.653790E-10  1.167245E-09
        81  12 -3.762312E+05 -1.138565E+05 -5.327297E+04 -1.494733E+05  1.648889E-09  2.024625E-09
        81  13 -2.036748E+05 -1.122348E+05 -7.781214E+04 -8.077358E+04  1.791371E-10 -2.427466E-10
        81  14 -1.931383E+05 -6.037513E+04 -3.609992E+04 -9.430490E+04  5.574044E-09  6.911251E-10
        81  15 -1.951843E+05 -5.204348E+04 -1.904995E+04 -1.033590E+05  1.177791E-08  2.990690E-09
        81  16  2.868377E+03  4.418993E+03 -1.709507E+04  1.612421E+04 -6.630558E-11 -9.808763E-10
        81  17 -3.342968E+02  2.784938E+04  7.347129E+03 -2.279198E+04  3.873870E-09 -6.411358E-10
        81  18 -1.410228E+04  9.771876E+03  1.517204E+04 -5.723240E+04  1.258936E-08  4.952761E-09
        81  19 -4.101703E+05 -2.288667E+05 -1.385240E+05 -1.776372E+05  6.912792E+04  2.210839E+04
        81  20 -3.859021E+05 -1.485901E+05 -7.954594E+04 -1.657955E+05  4.297604E+04  3.674847E+03
        81  21 -3.762309E+05 -1.138563E+05 -5.327244E+04 -1.494734E+05  1.449863E+04 -8.571280E+03
        81  22 -2.036719E+05 -1.122338E+05 -7.780667E+04 -8.077293E+04  5.167615E+04  1.556323E+04
        81  23 -1.931369E+05 -6.037479E+04 -3.609753E+04 -9.430487E+04  3.566686E+04  9.334085E+02
        81  24 -1.951840E+05 -5.204334E+04 -1.904928E+04 -1.033591E+05  1.733343E+04 -7.507185E+03
        81  25  2.869656E+03  4.419394E+03 -1.709272E+04  1.612446E+04  3.421836E+04  9.013020E+03
        81  26 -3.334325E+02  2.784959E+04  7.348646E+03 -2.279202E+04  2.835529E+04 -1.809454E+03
        81  27 -1.410183E+04  9.772029E+03  1.517288E+04 -5.723250E+04  2.016913E+04 -6.442797E+03
        82   1 -3.513310E+05 -1.116222E+05 -4.473994E+04 -1.472868E+05 -1.280579E+04  7.963173E+03
        82   2 -3.251300E+05 -9.588188E+04 -3.187041E+04 -1.367557E+05 -7.609914E+03  8.262041E+03
        82   3 -2.955472E+05 -8.710429E+04 -2.303587E+04 -1.313483E+05 -2.222635E+03  8.050873E+03
        82   4 -1.928757E+05 -5.294642E+04 -1.438992E+04 -1.020895E+05 -1.476201E+04  7.228787E+03
        82   5 -1.944559E+05 -4.818359E+04 -7.582773E+03 -1.000388E+05 -1.040154E+04  7.214369E+03
        82   6 -1.924890E+05 -5.021765E+04 -4.147809E+03 -1.031122E+05 -5.849861E+03  6.689888E+03
        82   7 -3.439573E+04  5.731316E+03  1.595864E+04 -5.688176E+04 -1.671875E+04  6.494198E+03
        82   8 -6.376385E+04 -4.836401E+02  1.670424E+04 -6.331462E+04 -1.319379E+04  6.166459E+03
        82   9 -8.941861E+04 -1.332971E+04  1.474019E+04 -7.487139E+04 -9.477765E+03  5.328655E+03
        82  10 -3.513312E+05 -1.116223E+05 -4.474037E+04 -1.472868E+05  1.185190E-08  4.804648E-09
        82  11 -3.251300E+05 -9.588197E+04 -3.187064E+04 -1.367556E+05  5.407336E-09  9.492288E-11
        82  12 -2.955472E+05 -8.710436E+04 -2.303600E+04 -1.313483E+05  2.050307E-09 -2.328212E-09
        82  13 -1.928760E+05 -5.294654E+04 -1.439043E+04 -1.020894E+05  9.425774E-09  3.926291E-09
        82  14 -1.944560E+05 -4.818367E+04 -7.583074E+03 -1.000387E+05  4.737362E-09  4.076194E-10
        82  15 -1.924890E+05 -5.021771E+04 -4.147957E+03 -1.031121E+05  6.851768E-11 -5.448755E-10
        82  16 -3.439604E+04  5.731196E+03  1.595803E+04 -5.688167E+04  2.417879E-09  2.700949E-09
        82  17 -6.376405E+04 -4.837277E+02  1.670384E+04 -6.331456E+04 -2.418023E-09  2.430483E-09
        82  18 -8.941871E+04 -1.332977E+04  1.473997E+04 -7.487135E+04 -3.454216E-09  9.335713E-10
        82  19 -3.513310E+05 -1.116222E+05 -4.473994E+04 -1.472868E+05  1.280579E+04 -7.963173E+03
        82  20 -3.251300E+05 -9.588188E+04 -3.187041E+04 -1.367557E+05  7.609914E+03 -8.262041E+03
        82  21 -2.955472E+05 -8.710429E+04 -2.303587E+04 -1.313483E+05  2.222635E+03 -8.050873E+03
        82  22 -1.928757E+05 -5.294642E+04 -1.438992E+04 -1.020895E+05  1.476201E+04 -7.228787E+03
        82  23 -1.944559E+05 -4.818359E+04 -7.582773E+03 -1.000388E+05  1.040154E+04 -7.214369E+03
        82  24 -1.924890E+05 -5.021765E+04 -4.147809E+03 -1.031122E+05  5.849861E+03 -6.689888E+03
        82  25 -3.439573E+04  5.731316E+03  1.595864E+04 -5.688176E+04  1.671875E+04 -6.494198E+03
        82  26 -6.376385E+04 -4.836401E+02  1.670424E+04 -6.331462E+04  1.319379E+04 -6.166459E+03
        82  27 -8.941861E+04 -1.332971E+04  1.474019E+04 -7.487139E+04  9.477765E+03 -5.328655E+03
        83   1 -2.765935E+05 -8.063461E+04 -1.845753E+04 -1.263498E+05 -1.232103E+03  6.945953E+03
        83   2 -2.506261E+05 -6.794371E+04 -1.191190E+04 -1.157589E+05  5.123732E+02  5.103206E+03
        83   3 -2.200147E+05 -6.017851E+04 -6.081132E+03 -1.106824E+05  2.272552E+03  3.218307E+03
        83   4 -1.923081E+05 -5.027325E+04 -3.116993E+03 -1.030204E+05 -4.787429E+03  5.612031E+03
        83   5 -1.946314E+05 -4.778526E+04 -1.712275E+03 -1.002749E+05 -3.111993E+03  3.743480E+03
        83   6 -1.922979E+05 -5.020926E+04 -9.676284E+02 -1.030439E+05 -1.420904E+03  1.832767E+03
        83   7 -1.080152E+05 -1.991123E+04  1.222334E+04 -7.968812E+04 -8.343270E+03  4.277919E+03
        83   8 -1.386337E+05 -2.762663E+04  8.487216E+03 -8.478959E+04 -6.736690E+03  2.383632E+03
        83   9 -1.645805E+05 -4.024003E+04  4.145829E+03 -9.540518E+04 -5.114500E+03  4.471761E+02
        83  10 -2.765935E+05 -8.063466E+04 -1.845762E+04 -1.263498E+05  2.677096E-09 -2.462060E-09
        83  11 -2.506261E+05 -6.794374E+04 -1.191195E+04 -1.157589E+05 -7.775351E-10 -2.459872E-09
        83  12 -2.200147E+05 -6.017853E+04 -6.081161E+03 -1.106824E+05  7.624531E-10 -5.405625E-10
        83  13 -1.923081E+05 -5.027329E+04 -3.117095E+03 -1.030204E+05  1.508781E-09 -1.408216E-09
        83  14 -1.946315E+05 -4.778528E+04 -1.712320E+03 -1.002748E+05 -5.033959E-09 -1.042037E-09
        83  15 -1.922979E+05 -5.020926E+04 -9.676385E+02 -1.030439E+05 -3.786937E-09  4.035398E-10
        83  16 -1.080153E+05 -1.991127E+04  1.222317E+04 -7.968809E+04 -2.919965E-09 -1.149532E-10
        83  17 -1.386338E+05 -2.762665E+04  8.487120E+03 -8.478958E+04 -2.916467E-09 -2.028506E-10
        83  18 -1.645805E+05 -4.024004E+04  4.145779E+03 -9.540518E+04  6.461705E-09  1.428789E-09
        83  19 -2.765935E+05 -8.063461E+04 -1.845753E+04 -1.263498E+05  1.232103E+03 -6.945953E+03
        83  20 -2.506261E+05 -6.794371E+04 -1.191190E+04 -1.157589E+05 -5.123732E+02 -5.103206E+03
        83  21 -2.200147E+05 -6.017851E+04 -6.081132E+03 -1.106824E+05 -2.272552E+03 -3.218307E+03
        83  22 -1.923081E+05 -5.027325E+04 -3.116993E+03 -1.030204E+05  4.787429E+03 -5.612031E+03
        83  23 -1.946314E+05 -4.778526E+04 -1.712275E+03 -1.002749E+05  3.111993E+03 -3.743480E+03
        83  24 -1.922979E+05 -5.020926E+04 -9.676284E+02 -1.030439E+05  1.420904E+03 -1.832767E+03
        83  25 -1.080152E+05 -1.991123E+04  1.222334E+04 -7.968812E+04  8.343270E+03 -4.277919E+03
        83  26 -1.386337E+05 -2.762663E+04  8.487216E+03 -8.478959E+04  6.736690E+03 -2.383632E+03
        83  27 -1.645805E+05 -4.024003E+04  4.145829E+03 -9.540518E+04  5.114500E+03 -4.471761E+02
        84   1 -2.014363E+05 -5.346757E+04 -2.337162E+03 -1.055382E+05  2.900825E+03  1.958052E+03
        84   2 -1.755456E+05 -4.086961E+04  3.004674E+03 -9.492014E+04  3.983350E+03 -2.025962E+02
        84   3 -1.448812E+05 -3.308482E+04  8.168441E+03 -8.981361E+04  5.067014E+03 -2.366175E+03
        84   4 -1.922758E+05 -5.021399E+04 -7.456072E+02 -1.030333E+05 -7.868380E+02  5.747039E+02
        84   5 -1.946633E+05 -4.781326E+04 -4.690097E+02 -1.002752E+05  2.907539E+02 -1.587837E+03
        84   6 -1.922776E+05 -5.022510E+04 -3.668079E+02 -1.030292E+05  1.369470E+03 -3.753308E+03
        84   7 -1.831150E+05 -4.696036E+04  8.460286E+02 -1.005282E+05 -4.474594E+03 -8.086782E+02
        84   8 -2.137806E+05 -5.475690E+04 -3.942675E+03 -1.056301E+05 -3.401740E+03 -2.973039E+03
        84   9 -2.396716E+05 -6.736516E+04 -8.902080E+03 -1.162438E+05 -2.327775E+03 -5.140329E+03
        84  10 -2.014363E+05 -5.346758E+04 -2.337185E+03 -1.055382E+05  6.101597E-09  2.492864E-09
        84  11 -1.755456E+05 -4.086961E+04  3.004644E+03 -9.492014E+04 -2.710881E-09  5.334939E-10
        84  12 -1.448812E+05 -3.308483E+04  8.168382E+03 -8.981360E+04 -6.913472E-09  9.366824E-10
        84  13 -1.922758E+05 -5.021400E+04 -7.456090E+02 -1.030333E+05 -1.085141E-09  3.422369E-10
        84  14 -1.946633E+05 -4.781326E+04 -4.690146E+02 -1.002752E+05 -7.785046E-09 -8.753306E-10
        84  15 -1.922776E+05 -5.022512E+04 -3.668379E+02 -1.030292E+05 -2.098355E-09  9.511614E-10
        84  16 -1.831150E+05 -4.696037E+04  8.459897E+02 -1.005282E+05  1.236531E-09 -1.770827E-09
        84  17 -2.137807E+05 -5.475691E+04 -3.942713E+03 -1.056301E+05  1.456716E-09 -1.995774E-09
        84  18 -2.396716E+05 -6.736519E+04 -8.902140E+03 -1.162438E+05  4.778598E-09  1.066213E-09
        84  19 -2.014363E+05 -5.346757E+04 -2.337162E+03 -1.055382E+05 -2.900825E+03 -1.958052E+03
        84  20 -1.755456E+05 -4.086961E+04  3.004674E+03 -9.492014E+04 -3.983350E+03  2.025962E+02
        84  21 -1.448812E+05 -3.308482E+04  8.168441E+03 -8.981361E+04 -5.067014E+03  2.366175E+03
        84  22 -1.922758E+05 -5.021399E+04 -7.456072E+02 -1.030333E+05  7.868380E+02 -5.747039E+02
        84  23 -1.946633E+05 -4.781326E+04 -4.690097E+02 -1.002752E+05 -2.907539E+02  1.587837E+03
        84  24 -1.922776E+05 -5.022510E+04 -3.668079E+02 -1.030292E+05 -1.369470E+03  3.753308E+03
        84  25 -1.831150E+05 -4.696036E+04  8.460286E+02 -1.005282E+05  4.474594E+03  8.086782E+02
        84  26 -2.137806E+05 -5.475690E+04 -3.942675E+03 -1.056301E+05  3.401740E+03  2.973039E+03
        84  27 -2.396716E+05 -6.736516E+04 -8.902080E+03 -1.162438E+05  2.327775E+03  5.140329E+03
        85   1 -1.263423E+05 -2.635798E+04  1.168888E+04 -8.466489E+04  5.620698E+03 -3.655574E+03
        85   2 -1.004584E+05 -1.375396E+04  1.665259E+04 -7.405015E+04  6.687615E+03 -5.824088E+03
        85   3 -6.979902E+04 -5.959809E+03  2.145093E+04 -6.894526E+04  7.752767E+03 -7.987426E+03
        85   4 -1.922784E+05 -5.022554E+04 -3.656859E+02 -1.030288E+05  1.923133E+03 -5.042768E+03
        85   5 -1.946653E+05 -4.781734E+04 -4.626875E+02 -1.002750E+05  2.998365E+03 -7.208318E+03
        85   6 -1.922791E+05 -5.022067E+04 -7.316392E+02 -1.030312E+05  4.071826E+03 -9.368705E+03
        85   7 -2.582093E+05 -7.409245E+04 -1.242017E+04 -1.213907E+05 -1.773978E+03 -6.429792E+03
        85   8 -2.888629E+05 -8.187988E+04 -1.757822E+04 -1.264961E+05 -6.902880E+02 -8.592325E+03
        85   9 -3.147446E+05 -9.448055E+04 -2.291500E+04 -1.371113E+05  3.916252E+02 -1.074971E+04
        85  10 -1.263423E+05 -2.635800E+04  1.168879E+04 -8.466487E+04 -2.019038E-09  3.055389E-09
        85  11 -1.004585E+05 -1.375400E+04  1.665244E+04 -7.405011E+04 -2.554846E-09  1.359201E-09
        85  12 -6.979911E+04 -5.959894E+03  2.145069E+04 -6.894521E+04 -1.925215E-09 -8.416386E-10
        85  13 -1.922784E+05 -5.022557E+04 -3.657407E+02 -1.030288E+05 -2.956547E-09  2.171949E-09
        85  14 -1.946653E+05 -4.781740E+04 -4.628020E+02 -1.002749E+05 -2.467191E-09  1.392636E-09
        85  15 -1.922792E+05 -5.022077E+04 -7.318353E+02 -1.030312E+05  5.947133E-10  4.464911E-10
        85  16 -2.582093E+05 -7.409250E+04 -1.242026E+04 -1.213907E+05  1.938786E-09  7.473708E-10
        85  17 -2.888629E+05 -8.187996E+04 -1.757836E+04 -1.264961E+05  2.739881E-09  1.515129E-09
        85  18 -3.147446E+05 -9.448067E+04 -2.291522E+04 -1.371113E+05  2.478807E-09  1.813269E-09
        85  19 -1.263423E+05 -2.635798E+04  1.168888E+04 -8.466489E+04 -5.620698E+03  3.655574E+03
        85  20 -1.004584E+05 -1.375396E+04  1.665259E+04 -7.405015E+04 -6.687615E+03  5.824088E+03
        85  21 -6.979902E+04 -5.959809E+03  2.145093E+04 -6.894526E+04 -7.752767E+03  7.987426E+03
        85  22 -1.922784E+05 -5.022554E+04 -3.656859E+02 -1.030288E+05 -1.923133E+03  5.042768E+03
        85  23 -1.946653E+05 -4.781734E+04 -4.626875E+02 -1.002750E+05 -2.998365E+03  7.208318E+03
        85  24 -1.922791E+05 -5.022067E+04 -7.316392E+02 -1.030312E+05 -4.071826E+03  9.368705E+03
        85  25 -2.582093E+05 -7.409245E+04 -1.242017E+04 -1.213907E+05  1.773978E+03  6.429792E+03
        85  26 -2.888629E+05 -8.187988E+04 -1.757822E+04 -1.264961E+05  6.902880E+02  8.592325E+03
        85  27 -3.147446E+05 -9.448055E+04 -2.291500E+04 -1.371113E+05 -3.916252E+02  1.074971E+04
        86   1 -5.127451E+04  7.588714E+02  2.475517E+04 -6.382037E+04  8.391821E+03 -9.241904E+03
        86   2 -2.535450E+04  1.336629E+04  2.912237E+04 -5.320820E+04  9.958939E+03 -1.118406E+04
        86   3  5.243780E+03  2.108749E+04  3.292405E+04 -4.810389E+04  1.150310E+04 -1.306413E+04
        86   4 -1.923025E+05 -5.021675E+04 -9.483451E+02 -1.030408E+05  4.702785E+03 -1.062636E+04
        86   5 -1.946381E+05 -4.779776E+04 -1.676259E+03 -1.002746E+05  6.371363E+03 -1.253072E+04
        86   6 -1.923162E+05 -5.028529E+04 -3.050183E+03 -1.030168E+05  8.016937E+03 -1.437300E+04
        86   7 -3.333095E+05 -1.011905E+05 -2.665250E+04 -1.422529E+05  1.014644E+03 -1.201048E+04
        86   8 -3.638907E+05 -1.089588E+05 -3.247562E+04 -1.473289E+05  2.784850E+03 -1.387699E+04
        86   9 -3.898331E+05 -1.216537E+05 -3.902523E+04 -1.579130E+05  4.531995E+03 -1.568142E+04
        86  10 -5.127461E+04  7.587608E+02  2.475487E+04 -6.382031E+04 -8.957227E-09 -4.638152E-09
        86  11 -2.535464E+04  1.336613E+04  2.912195E+04 -5.320811E+04  1.605083E-09 -8.216863E-10
        86  12  5.243592E+03  2.108727E+04  3.292348E+04 -4.810377E+04  1.136238E-08  7.009525E-09
        86  13 -1.923026E+05 -5.021688E+04 -9.485988E+02 -1.030407E+05 -4.084874E-10 -1.958624E-09
        86  14 -1.946382E+05 -4.779794E+04 -1.676631E+03 -1.002746E+05  1.335988E-10 -5.935412E-09
        86  15 -1.923163E+05 -5.028553E+04 -3.050692E+03 -1.030167E+05  3.165068E-10 -6.164402E-09
        86  16 -3.333096E+05 -1.011907E+05 -2.665277E+04 -1.422529E+05  5.964833E-09  3.005772E-09
        86  17 -3.638907E+05 -1.089590E+05 -3.247600E+04 -1.473289E+05 -4.103822E-09 -1.482651E-09
        86  18 -3.898332E+05 -1.216540E+05 -3.902573E+04 -1.579129E+05 -8.985592E-09 -8.866809E-10
        86  19 -5.127451E+04  7.588714E+02  2.475517E+04 -6.382037E+04 -8.391821E+03  9.241904E+03
        86  20 -2.535450E+04  1.336629E+04  2.912237E+04 -5.320820E+04 -9.958939E+03  1.118406E+04
        86  21  5.243780E+03  2.108749E+04  3.292405E+04 -4.810389E+04 -1.150310E+04  1.306413E+04
        86  22 -1.923025E+05 -5.021675E+04 -9.483451E+02 -1.030408E+05 -4.702785E+03  1.062636E+04
        86  23 -1.946381E+05 -4.779776E+04 -1.676259E+03 -1.002746E+05 -6.371363E+03  1.253072E+04
        86  24 -1.923162E+05 -5.028529E+04 -3.050183E+03 -1.030168E+05 -8.016937E+03  1.437300E+04
        86  25 -3.333095E+05 -1.011905E+05 -2.665250E+04 -1.422529E+05 -1.014644E+03  1.201048E+04
        86  26 -3.638907E+05 -1.089588E+05 -3.247562E+04 -1.473289E+05 -2.784850E+03  1.387699E+04
        86  27 -3.898331E+05 -1.216537E+05 -3.902523E+04 -1.579130E+05 -4.531995E+03  1.568142E+04
        87   1  2.382813E+04  2.767795E+04  3.547360E+04 -4.327259E+04  1.265494E+04 -1.409698E+04
        87   2  4.942318E+04  4.051877E+04  3.766476E+04 -3.176977E+04  1.584740E+04 -1.496973E+04
        87   3  7.882174E+04  4.687037E+04  3.752891E+04 -2.537301E+04  1.875995E+04 -1.509542E+04
        87   4 -1.924955E+05 -5.022836E+04 -4.057936E+03 -1.031016E+05  9.063670E+03 -1.544550E+04
        87   5 -1.944665E+05 -4.819914E+04 -7.418594E+03 -1.000475E+05  1.348006E+04 -1.585922E+04
        87   6 -1.928781E+05 -5.290277E+04 -1.407706E+04 -1.021003E+05  1.761636E+04 -1.552576E+04
        87   7 -4.087721E+05 -1.281312E+05 -4.359171E+04 -1.629118E+05  5.473704E+03 -1.679354E+04
        87   8 -4.382950E+05 -1.369119E+05 -5.250451E+04 -1.683006E+05  1.111370E+04 -1.674834E+04
        87   9 -4.645011E+05 -1.526688E+05 -6.568609E+04 -1.787963E+05  1.647331E+04 -1.595589E+04
        87  10  2.382791E+04  2.767769E+04  3.547293E+04 -4.327244E+04 -1.388726E-08 -6.954634E-10
        87  11  4.942285E+04  4.051846E+04  3.766386E+04 -3.176958E+04 -6.020060E-09  2.223919E-09
        87  12  7.882130E+04  4.687003E+04  3.752782E+04 -2.537278E+04  7.149264E-09  6.599611E-09
        87  13 -1.924956E+05 -5.022864E+04 -4.058538E+03 -1.031015E+05  4.602679E-10 -5.126261E-09
        87  14 -1.944667E+05 -4.819946E+04 -7.419409E+03 -1.000473E+05 -1.877554E-09 -3.204559E-09
        87  15 -1.928785E+05 -5.290311E+04 -1.407809E+04 -1.021001E+05 -1.144554E-09  2.904718E-10
        87  16 -4.087722E+05 -1.281315E+05 -4.359230E+04 -1.629117E+05  1.369974E-08  8.560425E-09
        87  17 -4.382952E+05 -1.369122E+05 -5.250527E+04 -1.683004E+05  1.068440E-09  1.768765E-09
        87  18 -4.645015E+05 -1.526691E+05 -6.568708E+04 -1.787961E+05 -1.010121E-08 -3.351011E-09
        87  19  2.382813E+04  2.767795E+04  3.547360E+04 -4.327259E+04 -1.265494E+04  1.409698E+04
        87  20  4.942318E+04  4.051877E+04  3.766476E+04 -3.176977E+04 -1.584740E+04  1.496973E+04
        87  21  7.882174E+04  4.687037E+04  3.752891E+04 -2.537301E+04 -1.875995E+04  1.509542E+04
        87  22 -1.924955E+05 -5.022836E+04 -4.057936E+03 -1.031016E+05 -9.063670E+03  1.544550E+04
        87  23 -1.944665E+05 -4.819914E+04 -7.418594E+03 -1.000475E+05 -1.348006E+04  1.585922E+04
        87  24 -1.928781E+05 -5.290277E+04 -1.407706E+04 -1.021003E+05 -1.761636E+04  1.552576E+04
        87  25 -4.087721E+05 -1.281312E+05 -4.359171E+04 -1.629118E+05 -5.473704E+03  1.679354E+04
        87  26 -4.382950E+05 -1.369119E+05 -5.250451E+04 -1.683006E+05 -1.111370E+04  1.674834E+04
        87  27 -4.645011E+05 -1.526688E+05 -6.568609E+04 -1.787963E+05 -1.647331E+04  1.595589E+04
        88   1  9.917017E+04  5.107435E+04  3.700476E+04 -2.553382E+04  2.253220E+04 -1.480274E+04
        88   2  1.128529E+05  6.916898E+04  3.147961E+04  8.029674E+03  2.496344E+04 -1.040669E+04
        88   3  1.171232E+05  4.771051E+04  1.361113E+04  4.604852E+04  2.399120E+04  3.050146E+03
        88   4 -1.951680E+05 -5.198863E+04 -1.863463E+04 -1.033053E+05  2.010150E+04 -1.571636E+04
        88   5 -1.931439E+05 -6.016733E+04 -3.531280E+04 -9.448362E+04  3.739195E+04 -5.740730E+03
        88   6 -2.034844E+05 -1.108565E+05 -7.611340E+04 -8.120602E+04  5.127750E+04  1.329735E+04
        88   7 -4.894155E+05 -1.550452E+05 -7.427742E+04 -1.810432E+05  1.767204E+04 -1.662956E+04
        88   8 -4.990388E+05 -1.894847E+05 -1.021087E+05 -1.969457E+05  4.981371E+04 -1.078183E+03
        88   9 -5.239772E+05 -2.693873E+05 -1.658413E+05 -2.083896E+05  7.854772E+04  2.353425E+04
        88  10  9.916957E+04  5.107398E+04  3.700340E+04 -2.553355E+04 -9.776479E-10  2.679927E-09
        88  11  1.128522E+05  6.916869E+04  3.147823E+04  8.029883E+03  6.984365E-09  2.669622E-09
        88  12  1.171225E+05  4.771034E+04  1.361003E+04  4.604846E+04  8.597607E-09  2.688992E-09
        88  13 -1.951685E+05 -5.198900E+04 -1.863586E+04 -1.033051E+05  5.073936E-09  1.509257E-09
        88  14 -1.931454E+05 -6.016774E+04 -3.531549E+04 -9.448345E+04  6.419788E-09  3.499517E-09
        88  15 -2.034873E+05 -1.108574E+05 -7.611867E+04 -8.120657E+04  1.358639E-09  1.480040E-09
        88  16 -4.894159E+05 -1.550456E+05 -7.427852E+04 -1.810429E+05  5.995027E-09  2.131569E-09
        88  17 -4.990415E+05 -1.894854E+05 -1.021133E+05 -1.969456E+05  4.553643E-09  3.575878E-09
        88  18 -5.239840E+05 -2.693896E+05 -1.658540E+05 -2.083911E+05 -2.134634E-09 -6.073990E-10
        88  19  9.917017E+04  5.107435E+04  3.700476E+04 -2.553382E+04 -2.253220E+04  1.480274E+04
        88  20  1.128529E+05  6.916898E+04  3.147961E+04  8.029674E+03 -2.496344E+04  1.040669E+04
        88  21  1.171232E+05  4.771051E+04  1.361113E+04  4.604852E+04 -2.399120E+04 -3.050146E+03
        88  22 -1.951680E+05 -5.198863E+04 -1.863463E+04 -1.033053E+05 -2.010150E+04  1.571636E+04
        88  23 -1.931439E+05 -6.016733E+04 -3.531280E+04 -9.448362E+04 -3.739195E+04  5.740730E+03
        88  24 -2.034844E+05 -1.108565E+05 -7.611340E+04 -8.120602E+04 -5.127750E+04 -1.329735E+04
        88  25 -4.894155E+05 -1.550452E+05 -7.427742E+04 -1.810432E+05 -1.767204E+04  1.662956E+04
        88  26 -4.990388E+05 -1.894847E+05 -1.021087E+05 -1.969457E+05 -4.981371E+04  1.078183E+03
        88  27 -5.239772E+05 -2.693873E+05 -1.658413E+05 -2.083896E+05 -7.854772E+04 -2.353425E+04
        89   1  8.132464E+05  1.224959E+05  1.089313E+05  1.801036E+04  3.707256E+04 -8.862519E+03
        89   2  7.797035E+05  1.336158E+05  8.768973E+04  2.949145E+04  1.664956E+04 -3.085063E+04
        89   3  7.459477E+05  1.331909E+05  7.686305E+04  4.523262E+04 -3.781813E+03 -3.952280E+04
        89   4  1.421641E+05 -4.233823E+04 -4.483662E+04  4.641169E+04 -3.168363E+04 -8.925834E+03
        89   5  1.450532E+05 -1.527704E+04 -2.265016E+04  4.426174E+04 -2.011674E+04 -3.089038E+04
        89   6  1.421747E+05 -5.319021E+03 -1.225284E+04  4.637161E+04 -8.559787E+03 -3.953183E+04
        89   7 -5.284895E+05 -2.071981E+05 -1.986159E+05  7.478200E+04 -1.003662E+05 -8.995472E+03
        89   8 -4.891993E+05 -1.641900E+05 -1.329990E+05  5.901639E+04 -5.684663E+04 -3.093190E+04
        89   9 -4.612318E+05 -1.438459E+05 -1.013752E+05  4.750935E+04 -1.333331E+04 -3.954089E+04
        89  10  8.132449E+05  1.224955E+05  1.089285E+05  1.801063E+04  5.286457E-09 -3.865898E-10
        89  11  7.797030E+05  1.336147E+05  8.768743E+04  2.949187E+04  2.578951E-09 -1.911451E-09
        89  12  7.459473E+05  1.331892E+05  7.686008E+04  4.523250E+04 -1.294748E-09  1.011035E-10
        89  13  1.421630E+05 -4.233858E+04 -4.483865E+04  4.641147E+04  1.119383E-09  3.760078E-10
        89  14  1.450525E+05 -1.527817E+04 -2.265272E+04  4.426124E+04  1.204678E-09 -1.408238E-09
        89  15  1.421742E+05 -5.320719E+03 -1.225591E+04  4.637134E+04  8.013411E-10  1.018843E-09
        89  16 -5.285003E+05 -2.072009E+05 -1.986350E+05  7.478128E+04 -2.894247E-09 -1.130945E-12
        89  17 -4.892031E+05 -1.641919E+05 -1.330069E+05  5.901497E+04 -8.421312E-10 -3.501236E-09
        89  18 -4.612324E+05 -1.438477E+05 -1.013785E+05  4.750893E+04  2.472581E-09 -2.891427E-09
        89  19  8.132464E+05  1.224959E+05  1.089313E+05  1.801036E+04 -3.707256E+04  8.862519E+03
        89  20  7.797035E+05  1.336158E+05  8.768973E+04  2.949145E+04 -1.664956E+04  3.085063E+04
        89  21  7.459477E+05  1.331909E+05  7.686305E+04  4.523262E+04  3.781813E+03  3.952280E+04
        89  22  1.421641E+05 -4.233823E+04 -4.483662E+04  4.641169E+04  3.168363E+04  8.925834E+03
        89  23  1.450532E+05 -1.527704E+04 -2.265016E+04  4.426174E+04  2.011674E+04  3.089038E+04
        89  24  1.421747E+05 -5.319021E+03 -1.225284E+04  4.637161E+04  8.559787E+03  3.953183E+04
        89  25 -5.284895E+05 -2.071981E+05 -1.986159E+05  7.478200E+04  1.003662E+05  8.995472E+03
        89  26 -4.891993E+05 -1.641900E+05 -1.329990E+05  5.901639E+04  5.684663E+04  3.093190E+04
        89  27 -4.612318E+05 -1.438459E+05 -1.013752E+05  4.750935E+04  1.333331E+04  3.954089E+04
        90   1  7.254368E+05  1.290846E+05  7.372634E+04  4.480700E+04 -3.245227E+03 -4.006517E+04
        90   2  6.919168E+05  1.230381E+05  6.844980E+04  4.335031E+04 -5.094163E+03 -4.071791E+04
        90   3  6.583987E+05  1.160284E+05  6.413751E+04  4.714688E+04 -6.945400E+03 -3.957085E+04
        90   4  1.432944E+05 -3.850538E+03 -9.137695E+03  4.659384E+04 -6.964924E+03 -4.007319E+04
        90   5  1.436748E+05 -1.228826E+03 -4.930508E+03  4.396479E+04 -4.491806E+03 -4.072090E+04
        90   6  1.433063E+05 -3.206863E+02 -2.759295E+03  4.658933E+04 -2.021012E+03 -3.956795E+04
        90   7 -4.385056E+05 -1.368010E+05 -9.200658E+04  4.837883E+04 -1.068128E+04 -4.008125E+04
        90   8 -4.042610E+05 -1.255086E+05 -7.831338E+04  4.457861E+04 -3.889955E+03 -4.072388E+04
        90   9 -3.715147E+05 -1.166809E+05 -6.965751E+04  4.603218E+04  2.899490E+03 -3.956505E+04
        90  10  7.254364E+05  1.290829E+05  7.372330E+04  4.480690E+04 -5.649004E-09  6.098852E-10
        90  11  6.919163E+05  1.230363E+05  6.844664E+04  4.335014E+04 -6.071137E-10  3.840011E-09
        90  12  6.583983E+05  1.160267E+05  6.413448E+04  4.714666E+04 -2.820155E-09  3.280350E-09
        90  13  1.432939E+05 -3.852276E+03 -9.140804E+03  4.659362E+04  3.237014E-09  3.757006E-10
        90  14  1.436743E+05 -1.230613E+03 -4.933662E+03  4.396465E+04  2.313687E-09  2.683126E-09
        90  15  1.433059E+05 -3.223687E+02 -2.762245E+03  4.658927E+04  2.520970E-09  4.627322E-10
        90  16 -4.385061E+05 -1.368027E+05 -9.200981E+04  4.837849E+04  6.917119E-09  9.226067E-10
        90  17 -4.042615E+05 -1.255104E+05 -7.831652E+04  4.457849E+04  3.831642E-09  2.998789E-09
        90  18 -3.715151E+05 -1.166825E+05 -6.966047E+04  4.603227E+04  2.323395E-09  1.928889E-09
        90  19  7.254368E+05  1.290846E+05  7.372634E+04  4.480700E+04  3.245227E+03  4.006517E+04
        90  20  6.919168E+05  1.230381E+05  6.844980E+04  4.335031E+04  5.094163E+03  4.071791E+04
        90  21  6.583987E+05  1.160284E+05  6.413751E+04  4.714688E+04  6.945400E+03  3.957085E+04
        90  22  1.432944E+05 -3.850538E+03 -9.137695E+03  4.659384E+04  6.964924E+03  4.007319E+04
        90  23  1.436748E+05 -1.228826E+03 -4.930508E+03  4.396479E+04  4.491806E+03  4.072090E+04
        90  24  1.433063E+05 -3.206863E+02 -2.759295E+03  4.658933E+04  2.021012E+03  3.956795E+04
        90  25 -4.385056E+05 -1.368010E+05 -9.200658E+04  4.837883E+04  1.068128E+04  4.008125E+04
        90  26 -4.042610E+05 -1.255086E+05 -7.831338E+04  4.457861E+04  3.889955E+03  4.072388E+04
        90  27 -3.715147E+05 -1.166809E+05 -6.965751E+04  4.603218E+04 -2.899490E+03  3.956505E+04
        91   1  6.377542E+05  1.113568E+05  6.161972E+04  4.705868E+04 -6.682764E+03 -3.829458E+04
        91   2  6.042764E+05  1.038974E+05  5.764225E+04  4.441273E+04 -6.690771E+03 -3.606434E+04
        91   3  5.707828E+05  9.639072E+04  5.365662E+04  4.714967E+04 -6.699681E+03 -3.359121E+04
        91   4  1.434503E+05 -1.976593E+02 -2.077855E+03  4.661835E+04 -1.616370E+03 -3.829106E+04
        91   5  1.435147E+05  2.494208E+01 -1.161333E+03  4.392657E+04 -1.041454E+03 -3.605935E+04
        91   6  1.434608E+05  9.903457E+01 -6.578320E+02  4.661792E+04 -4.674404E+02 -3.358464E+04
        91   7 -3.506033E+05 -1.117622E+05 -6.577655E+04  4.617829E+04  3.446188E+03 -3.828755E+04
        91   8 -3.170293E+05 -1.038562E+05 -5.996565E+04  4.344071E+04  4.603879E+03 -3.605436E+04
        91   9 -2.836738E+05 -9.620010E+04 -5.497281E+04  4.608649E+04  5.760724E+03 -3.357809E+04
        91  10  6.377538E+05  1.113552E+05  6.161688E+04  4.705847E+04 -7.025143E-09  4.036362E-09
        91  11  6.042761E+05  1.038960E+05  5.763972E+04  4.441254E+04 -4.318430E-08  5.033594E-09
        91  12  5.707825E+05  9.638949E+04  5.365442E+04  4.714949E+04 -6.826974E-08  5.327585E-09
        91  13  1.434499E+05 -1.992345E+02 -2.080616E+03  4.661830E+04 -1.180502E-09 -1.952311E-09
        91  14  1.435144E+05  2.354543E+01 -1.163778E+03  4.392654E+04 -1.452262E-09 -5.178041E-09
        91  15  1.434605E+05  9.782323E+01 -6.599521E+02  4.661791E+04  4.090127E-09 -1.049236E-08
        91  16 -3.506037E+05 -1.117638E+05 -6.577932E+04  4.617840E+04  6.558116E-09  2.361512E-09
        91  17 -3.170297E+05 -1.038576E+05 -5.996814E+04  4.344085E+04  4.159104E-08  4.683428E-09
        91  18 -2.836741E+05 -9.620132E+04 -5.497499E+04  4.608664E+04  7.166120E-08  4.011856E-09
        91  19  6.377542E+05  1.113568E+05  6.161972E+04  4.705868E+04  6.682764E+03  3.829458E+04
        91  20  6.042764E+05  1.038974E+05  5.764225E+04  4.441273E+04  6.690771E+03  3.606434E+04
        91  21  5.707828E+05  9.639072E+04  5.365662E+04  4.714967E+04  6.699681E+03  3.359121E+04
        91  22  1.434503E+05 -1.976593E+02 -2.077855E+03  4.661835E+04  1.616370E+03  3.829106E+04
        91  23  1.435147E+05  2.494208E+01 -1.161333E+03  4.392657E+04  1.041454E+03  3.605935E+04
        91  24  1.434608E+05  9.903457E+01 -6.578320E+02  4.661792E+04  4.674404E+02  3.358464E+04
        91  25 -3.506033E+05 -1.117622E+05 -6.577655E+04  4.617829E+04 -3.446188E+03  3.828755E+04
        91  26 -3.170293E+05 -1.038562E+05 -5.996565E+04  4.344071E+04 -4.603879E+03  3.605436E+04
        91  27 -2.836738E+05 -9.620010E+04 -5.497281E+04  4.608649E+04 -5.760724E+03  3.357809E+04
        92   1  5.501415E+05  9.171173E+04  5.103349E+04  4.711742E+04 -6.617893E+03 -3.206987E+04
        92   2  5.166812E+05  8.417540E+04  4.698122E+04  4.438515E+04 -6.562347E+03 -2.945113E+04
        92   3  4.832074E+05  7.665683E+04  4.289365E+04  4.705024E+04 -6.507361E+03 -2.680000E+04
        92   4  1.434840E+05  1.073163E+02 -4.954962E+02  4.662116E+04 -3.672197E+02 -3.206286E+04
        92   5  1.435025E+05  1.169559E+02 -2.754557E+02  4.392238E+04 -2.341531E+02 -2.944337E+04
        92   6  1.434926E+05  1.307816E+02 -1.448285E+02  4.662114E+04 -1.016458E+02 -2.679148E+04
        92   7 -2.630038E+05 -9.150383E+04 -5.202490E+04  4.612519E+04  5.879564E+03 -3.205586E+04
        92   8 -2.295331E+05 -8.394714E+04 -4.753244E+04  4.345984E+04  6.090427E+03 -2.943561E+04
        92   9 -1.961038E+05 -7.639995E+04 -4.318354E+04  4.619223E+04  6.300739E+03 -2.678296E+04
        92  10  5.501412E+05  9.171061E+04  5.103148E+04  4.711724E+04  6.623894E-08  5.559916E-09
        92  11  5.166809E+05  8.417445E+04  4.697951E+04  4.438499E+04  3.589512E-08  6.812528E-09
        92  12  4.832072E+05  7.665604E+04  4.289222E+04  4.705010E+04  1.321705E-09  3.835456E-09
        92  13  1.434837E+05  1.062122E+02 -4.974284E+02  4.662115E+04  2.101289E-09 -1.231699E-08
        92  14  1.435023E+05  1.160250E+02 -2.770850E+02  4.392237E+04  1.903117E-09 -3.208279E-09
        92  15  1.434924E+05  1.300107E+02 -1.461775E+02  4.662113E+04 -6.409785E-10 -5.204991E-10
        92  16 -2.630041E+05 -9.150494E+04 -5.202689E+04  4.612534E+04 -6.635675E-08  3.801443E-09
        92  17 -2.295333E+05 -8.394808E+04 -4.753414E+04  4.345999E+04 -3.395703E-08  3.482652E-09
        92  18 -1.961040E+05 -7.640073E+04 -4.318497E+04  4.619236E+04  7.163867E-10  9.200184E-10
        92  19  5.501415E+05  9.171173E+04  5.103349E+04  4.711742E+04  6.617893E+03  3.206987E+04
        92  20  5.166812E+05  8.417540E+04  4.698122E+04  4.438515E+04  6.562347E+03  2.945113E+04
        92  21  4.832074E+05  7.665683E+04  4.289365E+04  4.705024E+04  6.507361E+03  2.680000E+04
        92  22  1.434840E+05  1.073163E+02 -4.954962E+02  4.662116E+04  3.672197E+02  3.206286E+04
        92  23  1.435025E+05  1.169559E+02 -2.754557E+02  4.392238E+04  2.341531E+02  2.944337E+04
        92  24  1.434926E+05  1.307816E+02 -1.448285E+02  4.662114E+04  1.016458E+02  2.679148E+04
        92  25 -2.630038E+05 -9.150383E+04 -5.202490E+04  4.612519E+04 -5.879564E+03  3.205586E+04
        92  26 -2.295331E+05 -8.394714E+04 -4.753244E+04  4.345984E+04 -6.090427E+03  2.943561E+04
        92  27 -1.961038E+05 -7.639995E+04 -4.318354E+04  4.619223E+04 -6.300739E+03  2.678296E+04
        93   1  4.625732E+05  7.198724E+04  4.021008E+04  4.702770E+04 -6.489211E+03 -2.524616E+04
        93   2  4.291260E+05  6.445699E+04  3.609339E+04  4.429088E+04 -6.486654E+03 -2.257640E+04
        93   3  3.956674E+05  5.694748E+04  3.197481E+04  4.695430E+04 -6.484497E+03 -1.990350E+04
        93   4  1.434985E+05  1.327267E+02 -9.934515E+01  4.662177E+04 -8.169753E+01 -2.523729E+04
        93   5  1.435084E+05  1.279710E+02 -2.801791E+01  4.392158E+04 -7.173970E+01 -2.256702E+04
        93   6  1.435051E+05  1.428276E+02  3.632269E+01  4.662176E+04 -6.218108E+01 -1.989362E+04
        93   7 -1.754716E+05 -7.172591E+04 -4.040893E+04  4.621602E+04  6.322688E+03 -2.522843E+04
        93   8 -1.420253E+05 -6.420435E+04 -3.614953E+04  4.355242E+04  6.340371E+03 -2.255765E+04
        93   9 -1.085919E+05 -5.666440E+04 -3.190222E+04  4.628934E+04  6.357656E+03 -1.988374E+04
        93  10  4.625730E+05  7.198654E+04  4.020880E+04  4.702756E+04  7.431124E-09  6.649446E-10
        93  11  4.291258E+05  6.445643E+04  3.609235E+04  4.429076E+04 -3.175919E-08  1.086727E-09
        93  12  3.956673E+05  5.694705E+04  3.197399E+04  4.695420E+04 -6.825346E-08  1.231835E-09
        93  13  1.434983E+05  1.320427E+02 -1.005421E+02  4.662177E+04 -9.757212E-10  1.989395E-09
        93  14  1.435083E+05  1.274241E+02 -2.897500E+01  4.392158E+04  2.404636E-09 -8.916104E-09
        93  15  1.435050E+05  1.424026E+02  3.557893E+01  4.662176E+04 -1.401181E-10 -1.667826E-08
        93  16 -1.754718E+05 -7.172660E+04 -4.041020E+04  4.621615E+04 -6.942192E-09  2.138791E-09
        93  17 -1.420255E+05 -6.420491E+04 -3.615056E+04  4.355254E+04  3.529495E-08 -3.213031E-10
        93  18 -1.085921E+05 -5.666484E+04 -3.190304E+04  4.628944E+04  7.023217E-08  8.032045E-10
        93  19  4.625732E+05  7.198724E+04  4.021008E+04  4.702770E+04  6.489211E+03  2.524616E+04
        93  20  4.291260E+05  6.445699E+04  3.609339E+04  4.429088E+04  6.486654E+03  2.257640E+04
        93  21  3.956674E+05  5.694748E+04  3.197481E+04  4.695430E+04  6.484497E+03  1.990350E+04
        93  22  1.434985E+05  1.327267E+02 -9.934515E+01  4.662177E+04  8.169753E+01  2.523729E+04
        93  23  1.435084E+05  1.279710E+02 -2.801791E+01  4.392158E+04  7.173970E+01  2.256702E+04
        93  24  1.435051E+05  1.428276E+02  3.632269E+01  4.662176E+04  6.218108E+01  1.989362E+04
        93  25 -1.754716E+05 -7.172591E+04 -4.040893E+04  4.621602E+04 -6.322688E+03  2.522843E+04
        93  26 -1.420253E+05 -6.420435E+04 -3.614953E+04  4.355242E+04 -6.340371E+03  2.255765E+04
        93  27 -1.085919E+05 -5.666440E+04 -3.190222E+04  4.628934E+04 -6.357656E+03  1.988374E+04
        94   1  3.750428E+05  5.228173E+04  2.928721E+04  4.693277E+04 -6.495408E+03 -1.834662E+04
        94   2  3.416004E+05  4.476213E+04  2.519355E+04  4.418369E+04 -6.562900E+03 -1.567588E+04
        94   3  3.081579E+05  3.728367E+04  2.114769E+04  4.683231E+04 -6.630650E+03 -1.301214E+04
        94   4  1.435103E+05  1.456243E+02  7.099262E+01  4.662120E+04 -7.388825E+01 -1.833649E+04
        94   5  1.435117E+05  1.488294E+02  1.613170E+02  4.392226E+04 -1.583341E+02 -1.566543E+04
        94   6  1.435148E+05  1.961308E+02  3.111024E+02  4.662112E+04 -2.430424E+02 -1.300138E+04
        94   7 -8.796711E+04 -5.199264E+04 -2.914523E+04  4.630972E+04  6.345357E+03 -1.832636E+04
        94   8 -5.453660E+04 -4.446605E+04 -2.487089E+04  4.366090E+04  6.244290E+03 -1.565499E+04
        94   9 -2.110031E+04 -3.689249E+04 -2.052542E+04  4.640997E+04  6.142956E+03 -1.299062E+04
        94  10  3.750427E+05  5.228136E+04  2.928650E+04  4.693267E+04  7.310264E-08  4.936423E-09
        94  11  3.416002E+05  4.476186E+04  2.519301E+04  4.418361E+04  4.374793E-08  3.425492E-09
        94  12  3.081578E+05  3.728347E+04  2.114729E+04  4.683224E+04  7.854511E-09  1.948653E-09
        94  13  1.435102E+05  1.452632E+02  7.036073E+01  4.662119E+04  1.035054E-09 -1.505832E-08
        94  14  1.435116E+05  1.485658E+02  1.608557E+02  4.392226E+04  2.363126E-09 -7.049558E-09
        94  15  1.435148E+05  1.959492E+02  3.107846E+02  4.662112E+04  8.551851E-10  3.962235E-10
        94  16 -8.796725E+04 -5.199302E+04 -2.914594E+04  4.630981E+04 -7.032367E-08  3.872254E-09
        94  17 -5.453671E+04 -4.446632E+04 -2.487142E+04  4.366098E+04 -4.378656E-08 -1.816967E-09
        94  18 -2.110039E+04 -3.689268E+04 -2.052581E+04  4.641004E+04 -7.060126E-09  2.033056E-09
        94  19  3.750428E+05  5.228173E+04  2.928721E+04  4.693277E+04  6.495408E+03  1.834662E+04
        94  20  3.416004E+05  4.476213E+04  2.519355E+04  4.418369E+04  6.562900E+03  1.567588E+04
        94  21  3.081579E+05  3.728367E+04  2.114769E+04  4.683231E+04  6.630650E+03  1.301214E+04
        94  22  1.435103E+05  1.456243E+02  7.099262E+01  4.662120E+04  7.388825E+01  1.833649E+04
        94  23  1.435117E+05  1.488294E+02  1.613170E+02  4.392226E+04  1.583341E+02  1.566543E+04
        94  24  1.435148E+05  1.961308E+02  3.111024E+02  4.662112E+04  2.430424E+02  1.300138E+04
        94  25 -8.796711E+04 -5.199264E+04 -2.914523E+04  4.630972E+04 -6.345357E+03  1.832636E+04
        94  26 -5.453660E+04 -4.446605E+04 -2.487089E+04  4.366090E+04 -6.244290E+03  1.565499E+04
        94  27 -2.110031E+04 -3.689249E+04 -2.052542E+04  4.640997E+04 -6.142956E+03  1.299062E+04
        95   1  2.875540E+05  3.263299E+04  1.852230E+04  4.682176E+04 -6.689671E+03 -1.146244E+04
        95   2  2.540804E+05  2.523135E+04  1.461847E+04  4.389982E+04 -6.942247E+03 -8.831668E+03
        95   3  2.206848E+05  1.809338E+04  1.093799E+04  4.636998E+04 -7.194868E+03 -6.255598E+03
        95   4  1.435377E+05  2.159434E+02  4.188973E+02  4.661992E+04 -3.067415E+02 -1.145154E+04
        95   5  1.434893E+05  3.465401E+02  7.574766E+02  4.392338E+04 -6.908169E+02 -8.820801E+03
        95   6  1.435402E+05  7.635353E+02  1.410448E+03  4.661899E+04 -1.074948E+03 -6.244780E+03
        95   7 -4.572928E+02 -3.220192E+04 -1.768441E+04  4.641812E+04  6.074782E+03 -1.144063E+04
        95   8  3.291091E+04 -2.453874E+04 -1.310340E+04  4.394694E+04  5.559555E+03 -8.809933E+03
        95   9  6.640169E+04 -1.656653E+04 -8.116959E+03  4.686796E+04  5.044251E+03 -6.233957E+03
        95  10  2.875539E+05  3.263283E+04  1.852197E+04  4.682170E+04  8.056088E-09  3.619987E-09
        95  11  2.540803E+05  2.523125E+04  1.461823E+04  4.389977E+04  4.522068E-08 -1.837490E-09
        95  12  2.206848E+05  1.809333E+04  1.093782E+04  4.636995E+04  8.132512E-08 -1.844611E-09
        95  13  1.435376E+05  2.158026E+02  4.186507E+02  4.661992E+04 -5.456377E-12  4.977359E-09
        95  14  1.434893E+05  3.464564E+02  7.573294E+02  4.392338E+04  2.352264E-10  1.086107E-08
        95  15  1.435401E+05  7.634931E+02  1.410372E+03  4.661898E+04  3.042544E-09  1.142389E-08
        95  16 -4.573676E+02 -3.220207E+04 -1.768473E+04  4.641818E+04 -6.259437E-09  3.771151E-09
        95  17  3.291086E+04 -2.453883E+04 -1.310360E+04  4.394698E+04 -4.774348E-08 -6.364580E-10
        95  18  6.640165E+04 -1.656658E+04 -8.117080E+03  4.686798E+04 -8.236731E-08 -9.551707E-09
        95  19  2.875540E+05  3.263299E+04  1.852230E+04  4.682176E+04  6.689671E+03  1.146244E+04
        95  20  2.540804E+05  2.523135E+04  1.461847E+04  4.389982E+04  6.942247E+03  8.831668E+03
        95  21  2.206848E+05  1.809338E+04  1.093799E+04  4.636998E+04  7.194868E+03  6.255598E+03
        95  22  1.435377E+05  2.159434E+02  4.188973E+02  4.661992E+04  3.067415E+02  1.145154E+04
        95  23  1.434893E+05  3.465401E+02  7.574766E+02  4.392338E+04  6.908169E+02  8.820801E+03
        95  24  1.435402E+05  7.635353E+02  1.410448E+03  4.661899E+04  1.074948E+03  6.244780E+03
        95  25 -4.572928E+02 -3.220192E+04 -1.768441E+04  4.641812E+04 -6.074782E+03  1.144063E+04
        95  26  3.291091E+04 -2.453874E+04 -1.310340E+04  4.394694E+04 -5.559555E+03  8.809933E+03
        95  27  6.640169E+04 -1.656653E+04 -8.116959E+03  4.686796E+04 -5.044251E+03  6.233957E+03
        96   1  2.002096E+05  1.362698E+04  8.594865E+03  4.643568E+04 -7.411187E+03 -4.761463E+03
        96   2  1.664290E+05  7.543168E+03  5.513489E+03  4.159887E+04 -8.227747E+03 -2.429275E+03
        96   3  1.333574E+05  3.959559E+03  3.581504E+03  4.212126E+04 -9.043638E+03 -5.015626E+02
        96   4  1.437135E+05  9.905582E+02  1.892865E+03  4.661218E+04 -1.323702E+03 -4.750635E+03
        96   5  1.432752E+05  2.520708E+03  3.500807E+03  4.392761E+04 -3.111301E+03 -2.420170E+03
        96   6  1.437136E+05  6.719769E+03  6.932375E+03  4.660217E+04 -4.898283E+03 -4.941951E+02
        96   7  8.722069E+04 -1.164596E+04 -4.808988E+03  4.678866E+04  4.763259E+03 -4.739804E+03
        96   8  1.201220E+05 -2.501732E+03  1.488241E+03  4.625626E+04  2.004966E+03 -2.411027E+03
        96   9  1.540700E+05  9.480053E+03  1.028331E+04  5.108314E+04 -7.528567E+02 -4.867679E+02
        96  10  2.002096E+05  1.362694E+04  8.594719E+03  4.643565E+04 -7.320195E-08 -3.223454E-09
        96  11  1.664290E+05  7.543143E+03  5.513350E+03  4.159885E+04 -3.760139E-08 -2.633912E-09
        96  12  1.333573E+05  3.959537E+03  3.581350E+03  4.212126E+04  2.191917E-09 -9.859359E-10
        96  13  1.437135E+05  9.905335E+02  1.892819E+03  4.661217E+04  1.491861E-10  1.548701E-08
        96  14  1.432752E+05  2.520699E+03  3.500778E+03  4.392761E+04 -3.965353E-10  3.488347E-09
        96  15  1.437136E+05  6.719762E+03  6.932329E+03  4.660216E+04  3.858516E-10  4.688038E-09
        96  16  8.722066E+04 -1.164599E+04 -4.809073E+03  4.678868E+04  7.030603E-08 -4.843628E-09
        96  17  1.201220E+05 -2.501739E+03  1.488223E+03  4.625627E+04  3.218971E-08 -1.836285E-09
        96  18  1.540700E+05  9.480053E+03  1.028331E+04  5.108314E+04 -7.274926E-10 -1.672978E-10
        96  19  2.002096E+05  1.362698E+04  8.594865E+03  4.643568E+04  7.411187E+03  4.761463E+03
        96  20  1.664290E+05  7.543168E+03  5.513489E+03  4.159887E+04  8.227747E+03  2.429275E+03
        96  21  1.333574E+05  3.959559E+03  3.581504E+03  4.212126E+04  9.043638E+03  5.015626E+02
        96  22  1.437135E+05  9.905582E+02  1.892865E+03  4.661218E+04  1.323702E+03  4.750635E+03
        96  23  1.432752E+05  2.520708E+03  3.500807E+03  4.392761E+04  3.111301E+03  2.420170E+03
        96  24  1.437136E+05  6.719769E+03  6.932375E+03  4.660217E+04  4.898283E+03  4.941951E+02
        96  25  8.722069E+04 -1.164596E+04 -4.808988E+03  4.678866E+04 -4.763259E+03  4.739804E+03
        96  26  1.201220E+05 -2.501732E+03  1.488241E+03  4.625626E+04 -2.004966E+03  2.411027E+03
        96  27  1.540700E+05  9.480053E+03  1.028331E+04  5.108314E+04  7.528567E+02  4.867679E+02
        97   1  4.673473E+03  3.812099E+05  6.397234E+03 -4.811942E+04 -8.944427E+02 -9.587368E+02
        97   2 -1.056879E+04  3.394352E+05 -3.596872E+03 -4.109545E+04 -3.949145E+03 -3.545636E+03
        97   3 -2.153422E+04  2.990490E+05 -1.084382E+04 -4.305873E+04 -6.973325E+03 -6.132287E+03
        97   4  7.462367E+03  3.932308E+05  8.377929E+03 -4.331347E+04 -8.993260E+02  4.426389E+03
        97   5  1.793286E+03  3.925323E+05  5.162756E+03 -3.882294E+04 -3.953887E+03  1.785758E+03
        97   6  4.104126E+02  3.932305E+05  4.732150E+03 -4.331946E+04 -6.977907E+03 -8.547754E+02
        97   7  1.025136E+04  4.052520E+05  1.035874E+04 -3.850743E+04 -9.041260E+02  9.811615E+03
        97   8  1.415525E+04  4.456322E+05  1.392241E+04 -3.655022E+04 -3.958590E+03  7.117593E+03
        97   9  2.235460E+04  4.874209E+05  2.030796E+04 -4.358024E+04 -6.982493E+03  4.423510E+03
        97  10  4.673472E+03  3.812099E+05  6.397231E+03 -4.811942E+04  1.005573E-09  4.826567E-09
        97  11 -1.056881E+04  3.394352E+05 -3.596925E+03 -4.109546E+04  2.386389E-09  4.671204E-10
        97  12 -2.153428E+04  2.990489E+05 -1.084398E+04 -4.305876E+04  2.257873E-09 -4.442089E-09
        97  13  7.462361E+03  3.932308E+05  8.377891E+03 -4.331347E+04  3.378117E-09 -3.873893E-11
        97  14  1.793268E+03  3.925323E+05  5.162721E+03 -3.882293E+04 -1.910111E-09  1.207527E-10
        97  15  4.103601E+02  3.932305E+05  4.732057E+03 -4.331947E+04  1.616854E-09  2.178418E-09
        97  16  1.025133E+04  4.052519E+05  1.035856E+04 -3.850742E+04  1.531853E-09 -5.272213E-09
        97  17  1.415522E+04  4.456322E+05  1.392229E+04 -3.655020E+04  3.205175E-09 -3.745785E-10
        97  18  2.235455E+04  4.874208E+05  2.030783E+04 -4.358021E+04  4.890195E-12  4.068341E-09
        97  19  4.673473E+03  3.812099E+05  6.397234E+03 -4.811942E+04  8.944427E+02  9.587368E+02
        97  20 -1.056879E+04  3.394352E+05 -3.596872E+03 -4.109545E+04  3.949145E+03  3.545636E+03
        97  21 -2.153422E+04  2.990490E+05 -1.084382E+04 -4.305873E+04  6.973325E+03  6.132287E+03
        97  22  7.462367E+03  3.932308E+05  8.377929E+03 -4.331347E+04  8.993260E+02 -4.426389E+03
        97  23  1.793286E+03  3.925323E+05  5.162756E+03 -3.882294E+04  3.953887E+03 -1.785758E+03
        97  24  4.104126E+02  3.932305E+05  4.732150E+03 -4.331946E+04  6.977907E+03  8.547754E+02
        97  25  1.025136E+04  4.052520E+05  1.035874E+04 -3.850743E+04  9.041260E+02 -9.811615E+03
        97  26  1.415525E+04  4.456322E+05  1.392241E+04 -3.655022E+04  3.958590E+03 -7.117593E+03
        97  27  2.235460E+04  4.874209E+05  2.030796E+04 -4.358024E+04  6.982493E+03 -4.423510E+03
        98   1 -2.775632E+04  2.723428E+05 -1.503639E+04 -4.378468E+04 -8.763916E+03 -7.005227E+03
        98   2 -3.726132E+04  2.308752E+05 -2.010810E+04 -3.845145E+04 -1.146085E+04 -9.399816E+03
        98   3 -4.506482E+04  1.901316E+05 -2.320004E+04 -4.206766E+04 -1.346022E+04 -1.179345E+04
        98   4  4.265208E+02  3.931266E+05  5.144489E+03 -4.331058E+04 -8.768445E+03 -1.664279E+03
        98   5  5.543156E+02  3.926567E+05  7.241413E+03 -3.883501E+04 -1.146405E+04 -5.282290E+03
        98   6  2.595668E+03  3.931212E+05  1.216683E+04 -4.330869E+04 -1.346218E+04 -8.899496E+03
        98   7  2.860861E+04  5.139248E+05  2.532502E+04 -4.283637E+04 -8.772965E+03  3.677673E+03
        98   8  3.836858E+04  5.544640E+05  3.459015E+04 -3.921868E+04 -1.146725E+04 -1.163726E+03
        98   9  5.025394E+04  5.961512E+05  4.753227E+04 -4.455013E+04 -1.346415E+04 -6.004627E+03
        98  10 -2.775641E+04  2.723427E+05 -1.503662E+04 -4.378473E+04  2.686279E-09  1.261444E-08
        98  11 -3.726149E+04  2.308750E+05 -2.010851E+04 -3.845153E+04  4.471981E-09 -3.428104E-09
        98  12 -4.506506E+04  1.901314E+05 -2.320064E+04 -4.206778E+04  3.281438E-09 -1.974004E-08
        98  13  4.264375E+02  3.931265E+05  5.144339E+03 -4.331059E+04  2.582895E-09  5.669147E-11
        98  14  5.541670E+02  3.926566E+05  7.241114E+03 -3.883506E+04 -3.396846E-09 -9.315143E-12
        98  15  2.595452E+03  3.931211E+05  1.216634E+04 -4.330879E+04 -5.209914E-09  1.978894E-09
        98  16  2.860853E+04  5.139247E+05  2.532485E+04 -4.283634E+04  1.801723E-11 -1.298652E-08
        98  17  3.836844E+04  5.544640E+05  3.458990E+04 -3.921869E+04  4.329268E-09  3.529856E-09
        98  18  5.025373E+04  5.961511E+05  4.753186E+04 -4.455020E+04  4.361905E-09  1.934531E-08
        98  19 -2.775632E+04  2.723428E+05 -1.503639E+04 -4.378468E+04  8.763916E+03  7.005227E+03
        98  20 -3.726132E+04  2.308752E+05 -2.010810E+04 -3.845145E+04  1.146085E+04  9.399816E+03
        98  21 -4.506482E+04  1.901316E+05 -2.320004E+04 -4.206766E+04  1.346022E+04  1.179345E+04
        98  22  4.265208E+02  3.931266E+05  5.144489E+03 -4.331058E+04  8.768445E+03  1.664279E+03
        98  23  5.543156E+02  3.926567E+05  7.241413E+03 -3.883501E+04  1.146405E+04  5.282290E+03
        98  24  2.595668E+03  3.931212E+05  1.216683E+04 -4.330869E+04  1.346218E+04  8.899496E+03
        98  25  2.860861E+04  5.139248E+05  2.532502E+04 -4.283637E+04  8.772965E+03 -3.677673E+03
        98  26  3.836858E+04  5.544640E+05  3.459015E+04 -3.921868E+04  1.146725E+04  1.163726E+03
        98  27  5.025394E+04  5.961512E+05  4.753227E+04 -4.455013E+04  1.346415E+04  6.004627E+03
        99   1 -5.194424E+04  1.650168E+05 -2.478485E+04 -4.559384E+04 -1.482241E+04 -1.457152E+04
        99   2 -5.207599E+04  1.203234E+05 -2.416932E+04 -2.353907E+04 -1.315387E+04 -1.610436E+04
        99   3 -2.483853E+04  8.266858E+04 -1.571353E+04 -9.941027E+03 -4.039600E+03 -1.763230E+04
        99   4  2.139411E+03  3.949780E+05  1.576593E+04 -4.320353E+04 -1.482485E+04 -1.097396E+04
        99   5  1.242891E+04  3.903213E+05  2.829951E+04 -3.895699E+04 -1.314595E+04 -2.555792E+04
        99   6  5.234463E+04  3.949612E+05  5.773015E+04 -4.316598E+04 -4.022717E+03 -4.013718E+04
        99   7  5.622019E+04  6.249910E+05  5.631483E+04 -4.081230E+04 -1.482726E+04 -7.375114E+03
        99   8  7.693038E+04  6.603898E+05  8.076536E+04 -5.438175E+04 -1.313756E+04 -3.501549E+04
        99   9  1.295252E+05  7.073470E+05  1.311696E+05 -7.640774E+04 -4.003430E+03 -6.265332E+04
        99  10 -5.194453E+04  1.650165E+05 -2.478566E+04 -4.559402E+04  1.977352E-09  1.586930E-08
        99  11 -5.207624E+04  1.203231E+05 -2.417013E+04 -2.353924E+04  6.390007E-09  2.294048E-09
        99  12 -2.483863E+04  8.266824E+04 -1.571415E+04 -9.941084E+03  2.114915E-09 -1.122984E-08
        99  13  2.139143E+03  3.949778E+05  1.576529E+04 -4.320366E+04 -6.724408E-09  1.035068E-10
        99  14  1.242855E+04  3.903205E+05  2.829796E+04 -3.895726E+04 -2.736981E-09  3.001721E-12
        99  15  5.234418E+04  3.949595E+05  5.772709E+04 -4.316611E+04  1.512499E-09  1.665561E-09
        99  16  5.621994E+04  6.249908E+05  5.631432E+04 -4.081239E+04  3.575685E-09 -1.624989E-08
        99  17  7.692987E+04  6.603885E+05  8.076273E+04 -5.438212E+04 -3.656436E-10 -2.216500E-09
        99  18  1.295242E+05  7.073428E+05  1.311622E+05 -7.640794E+04 -1.665288E-09  1.087473E-08
        99  19 -5.194424E+04  1.650168E+05 -2.478485E+04 -4.559384E+04  1.482241E+04  1.457152E+04
        99  20 -5.207599E+04  1.203234E+05 -2.416932E+04 -2.353907E+04  1.315387E+04  1.610436E+04
        99  21 -2.483853E+04  8.266858E+04 -1.571353E+04 -9.941027E+03  4.039600E+03  1.763230E+04
        99  22  2.139411E+03  3.949780E+05  1.576593E+04 -4.320353E+04  1.482485E+04  1.097396E+04
        99  23  1.242891E+04  3.903213E+05  2.829951E+04 -3.895699E+04  1.314595E+04  2.555792E+04
        99  24  5.234463E+04  3.949612E+05  5.773015E+04 -4.316598E+04  4.022717E+03  4.013718E+04
        99  25  5.622019E+04  6.249910E+05  5.631483E+04 -4.081230E+04  1.482726E+04  7.375114E+03
        99  26  7.693038E+04  6.603898E+05  8.076536E+04 -5.438175E+04  1.313756E+04  3.501549E+04
        99  27  1.295252E+05  7.073470E+05  1.311696E+05 -7.640774E+04  4.003430E+03  6.265332E+04
       100   1  8.297633E+05  2.921847E+05  1.416358E+05  3.111750E+05  5.604066E+04  1.133703E+04
       100   2  7.821029E+05  2.755139E+05  1.009303E+05  2.981081E+05  3.625938E+04 -1.949517E+04
       100   3  7.334061E+05  2.648121E+05  8.079387E+04  2.917721E+05  1.134287E+04 -3.665435E+04
       100   4  2.108411E+05  6.819256E+04 -1.317919E+04  1.492178E+05 -5.439933E+03 -1.178670E+04
       100   5  2.151062E+05  7.312293E+04 -6.340036E+03  1.440248E+05  5.542460E+03 -3.105366E+04
       100   6  2.122440E+05  7.793356E+04 -3.284930E+03  1.455629E+05  1.138362E+04 -3.664277E+04
       100   7 -4.076691E+05 -1.557665E+05 -1.679998E+05 -1.258601E+04 -6.685057E+04 -3.488600E+04
       100   8 -3.515394E+05 -1.292356E+05 -1.136154E+05 -9.924830E+03 -2.514367E+04 -4.260106E+04
       100   9 -3.086257E+05 -1.089166E+05 -8.736893E+04 -5.309232E+02  1.142433E+04 -3.663120E+04
       100  10  8.297599E+05  2.921837E+05  1.416297E+05  3.111745E+05  2.489165E-09  5.693069E-10
       100  11  7.821014E+05  2.755132E+05  1.009271E+05  2.981087E+05 -2.366456E-09  9.950294E-11
       100  12  7.334056E+05  2.648106E+05  8.079111E+04  2.917725E+05 -1.915142E-09  2.603483E-09
       100  13  2.108411E+05  6.819240E+04 -1.317950E+04  1.492178E+05 -7.201284E-10 -5.084296E-10
       100  14  2.151059E+05  7.312189E+04 -6.341906E+03  1.440250E+05 -2.321558E-09 -3.580881E-09
       100  15  2.122435E+05  7.793208E+04 -3.287697E+03  1.455632E+05 -1.094701E-09 -1.715220E-09
       100  16 -4.076742E+05 -1.557691E+05 -1.680104E+05 -1.258788E+04 -1.695550E-09 -1.663872E-09
       100  17 -3.515405E+05 -1.292377E+05 -1.136200E+05 -9.925693E+03  2.690522E-09 -5.919638E-09
       100  18 -3.086262E+05 -1.089180E+05 -8.737170E+04 -5.305861E+02  1.837860E-09 -5.288651E-09
       100  19  8.297633E+05  2.921847E+05  1.416358E+05  3.111750E+05 -5.604066E+04 -1.133703E+04
       100  20  7.821029E+05  2.755139E+05  1.009303E+05  2.981081E+05 -3.625938E+04  1.949517E+04
       100  21  7.334061E+05  2.648121E+05  8.079387E+04  2.917721E+05 -1.134287E+04  3.665435E+04
       100  22  2.108411E+05  6.819256E+04 -1.317919E+04  1.492178E+05  5.439933E+03  1.178670E+04
       100  23  2.151062E+05  7.312293E+04 -6.340036E+03  1.440248E+05 -5.542460E+03  3.105366E+04
       100  24  2.122440E+05  7.793356E+04 -3.284930E+03  1.455629E+05 -1.138362E+04  3.664277E+04
       100  25 -4.076691E+05 -1.557665E+05 -1.679998E+05 -1.258601E+04  6.685057E+04  3.488600E+04
       100  26 -3.515394E+05 -1.292356E+05 -1.136154E+05 -9.924830E+03  2.514367E+04  4.260106E+04
       100  27 -3.086257E+05 -1.089166E+05 -8.736893E+04 -5.309232E+02 -1.142433E+04  3.663120E+04
       101   1  7.045764E+05  2.542061E+05  7.448108E+04  2.837060E+05  1.142018E+04 -3.601818E+04
       101   2  6.615642E+05  2.351881E+05  6.449244E+04  2.679668E+05  8.066177E+03 -3.628471E+04
       101   3  6.134467E+05  2.220539E+05  5.681644E+04  2.587033E+05  4.099017E+03 -3.492319E+04
       101   4  2.124441E+05  7.843207E+04 -2.429622E+03  1.457630E+05  1.155355E+04 -3.597154E+04
       101   5  2.154245E+05  7.626651E+04 -1.257220E+03  1.423721E+05  1.186188E+04 -3.485913E+04
       101   6  2.125737E+05  7.926020E+04 -6.719577E+02  1.454566E+05  1.155665E+04 -3.211804E+04
       101   7 -2.794344E+05 -9.731942E+04 -7.934627E+04  7.920707E+03  1.168681E+04 -3.592493E+04
       101   8 -2.305021E+05 -8.263468E+04 -6.700967E+04  1.686158E+04  1.565474E+04 -3.343462E+04
       101   9 -1.881242E+05 -6.351573E+04 -5.816126E+04  3.227894E+04  1.900923E+04 -2.931480E+04
       101  10  7.045759E+05  2.542047E+05  7.447839E+04  2.837064E+05  2.409469E-08  1.170965E-08
       101  11  6.615638E+05  2.351866E+05  6.448984E+04  2.679671E+05  5.551314E-09 -1.161651E-09
       101  12  6.134464E+05  2.220526E+05  5.681412E+04  2.587034E+05 -2.995805E-08 -1.898620E-08
       101  13  2.124436E+05  7.843064E+04 -2.432305E+03  1.457633E+05  3.789644E-09  5.429669E-09
       101  14  2.154241E+05  7.626517E+04 -1.259769E+03  1.423725E+05  9.730199E-09  1.582944E-08
       101  15  2.125733E+05  7.925906E+04 -6.741475E+02  1.454569E+05  1.729128E-09  1.367515E-08
       101  16 -2.794348E+05 -9.732084E+04 -7.934895E+04  7.921045E+03 -1.303339E-08 -1.106195E-08
       101  17 -2.305027E+05 -8.263594E+04 -6.701223E+04  1.686200E+04  1.600952E-08  9.141709E-10
       101  18 -1.881248E+05 -6.351675E+04 -5.816355E+04  3.227939E+04  3.147184E-08  3.553844E-09
       101  19  7.045764E+05  2.542061E+05  7.448108E+04  2.837060E+05 -1.142018E+04  3.601818E+04
       101  20  6.615642E+05  2.351881E+05  6.449244E+04  2.679668E+05 -8.066177E+03  3.628471E+04
       101  21  6.134467E+05  2.220539E+05  5.681644E+04  2.587033E+05 -4.099017E+03  3.492319E+04
       101  22  2.124441E+05  7.843207E+04 -2.429622E+03  1.457630E+05 -1.155355E+04  3.597154E+04
       101  23  2.154245E+05  7.626651E+04 -1.257220E+03  1.423721E+05 -1.186188E+04  3.485913E+04
       101  24  2.125737E+05  7.926020E+04 -6.719577E+02  1.454566E+05 -1.155665E+04  3.211804E+04
       101  25 -2.794344E+05 -9.731942E+04 -7.934627E+04  7.920707E+03 -1.168681E+04  3.592493E+04
       101  26 -2.305021E+05 -8.263468E+04 -6.700967E+04  1.686158E+04 -1.565474E+04  3.343462E+04
       101  27 -1.881242E+05 -6.351573E+04 -5.816126E+04  3.227894E+04 -1.900923E+04  2.931480E+04
       102   1  5.852044E+05  2.119389E+05  5.250132E+04  2.507501E+05  3.429042E+03 -3.290190E+04
       102   2  5.427145E+05  1.929696E+05  4.591559E+04  2.347323E+05  1.839735E+03 -2.960008E+04
       102   3  4.946061E+05  1.797337E+05  3.956956E+04  2.251983E+05  1.770572E+02 -2.610532E+04
       102   4  2.125958E+05  7.930834E+04 -4.988714E+02  1.454825E+05  1.089594E+04 -3.009264E+04
       102   5  2.154615E+05  7.652274E+04 -2.604901E+02  1.422293E+05  9.740483E+03 -2.662652E+04
       102   6  2.126195E+05  7.938467E+04 -1.266062E+02  1.454594E+05  8.511603E+03 -2.296739E+04
       102   7 -1.598562E+05 -5.330486E+04 -5.349827E+04  4.027597E+04  1.835803E+04 -2.728519E+04
       102   8 -1.116744E+05 -3.991206E+04 -4.643682E+04  4.977238E+04  1.763685E+04 -2.365461E+04
       102   9 -6.928364E+04 -2.095679E+04 -3.982387E+04  6.575376E+04  1.684228E+04 -1.983092E+04
       102  10  5.852041E+05  2.119377E+05  5.249926E+04  2.507501E+05  3.376695E-08  5.794116E-09
       102  11  5.427143E+05  1.929686E+05  4.591393E+04  2.347323E+05  9.809523E-09 -1.725242E-09
       102  12  4.946059E+05  1.797330E+05  3.956828E+04  2.251983E+05 -1.867571E-08 -1.051178E-08
       102  13  2.125954E+05  7.930734E+04 -5.007965E+02  1.454827E+05  7.526072E-10  6.722580E-09
       102  14  2.154612E+05  7.652195E+04 -2.620009E+02  1.422295E+05  4.877895E-09  1.312296E-08
       102  15  2.126193E+05  7.938409E+04 -1.277337E+02  1.454596E+05  4.451329E-10  3.692739E-09
       102  16 -1.598568E+05 -5.330575E+04 -5.350030E+04  4.027638E+04 -3.544390E-08 -2.060395E-08
       102  17 -1.116749E+05 -3.991274E+04 -4.643846E+04  4.977272E+04 -2.675059E-09 -3.181709E-09
       102  18 -6.928405E+04 -2.095728E+04 -3.982514E+04  6.575403E+04  2.181842E-08  1.038309E-08
       102  19  5.852044E+05  2.119389E+05  5.250132E+04  2.507501E+05 -3.429042E+03  3.290190E+04
       102  20  5.427145E+05  1.929696E+05  4.591559E+04  2.347323E+05 -1.839735E+03  2.960008E+04
       102  21  4.946061E+05  1.797337E+05  3.956956E+04  2.251983E+05 -1.770572E+02  2.610532E+04
       102  22  2.125958E+05  7.930834E+04 -4.988714E+02  1.454825E+05 -1.089594E+04  3.009264E+04
       102  23  2.154615E+05  7.652274E+04 -2.604901E+02  1.422293E+05 -9.740483E+03  2.662652E+04
       102  24  2.126195E+05  7.938467E+04 -1.266062E+02  1.454594E+05 -8.511603E+03  2.296739E+04
       102  25 -1.598562E+05 -5.330486E+04 -5.349827E+04  4.027597E+04 -1.835803E+04  2.728519E+04
       102  26 -1.116744E+05 -3.991206E+04 -4.643682E+04  4.977238E+04 -1.763685E+04  2.365461E+04
       102  27 -6.928364E+04 -2.095679E+04 -3.982387E+04  6.575376E+04 -1.684228E+04  1.983092E+04
       103   1  4.664580E+05  1.696895E+05  3.544619E+04  2.172557E+05 -6.209047E+02 -2.393486E+04
       103   2  4.240470E+05  1.507635E+05  2.921437E+04  2.012160E+05 -2.063359E+03 -2.023429E+04
       103   3  3.759564E+05  1.375369E+05  2.301697E+04  1.916632E+05 -3.514210E+03 -1.651266E+04
       103   4  2.126245E+05  7.939109E+04 -8.253849E+01  1.454619E+05  7.713502E+03 -2.079649E+04
       103   5  2.154742E+05  7.655226E+04 -8.862395E+00  1.422180E+05  6.318198E+03 -1.707753E+04
       103   6  2.126326E+05  7.940313E+04  6.143694E+01  1.454601E+05  4.914498E+03 -1.333752E+04
       103   7 -4.113826E+04 -1.089997E+04 -3.561119E+04  7.369589E+04  1.604432E+04 -1.765948E+04
       103   8  6.950705E+03  2.346519E+03 -2.923156E+04  8.323921E+04  1.469674E+04 -1.392191E+04
       103   9  4.934037E+04  2.127322E+04 -2.289329E+04  9.926926E+04  1.334076E+04 -1.016330E+04
       103  10  4.664578E+05  1.696889E+05  3.544511E+04  2.172557E+05 -4.206434E-09 -2.504082E-09
       103  11  4.240469E+05  1.507631E+05  2.921359E+04  2.012159E+05  7.024665E-09  9.280929E-09
       103  12  3.759563E+05  1.375366E+05  2.301643E+04  1.916631E+05  1.132190E-08  4.650280E-09
       103  13  2.126243E+05  7.939061E+04 -8.346317E+01  1.454620E+05 -2.611275E-10  2.424304E-09
       103  14  2.154741E+05  7.655194E+04 -9.485548E+00  1.422181E+05  6.338560E-09  6.209878E-09
       103  15  2.126325E+05  7.940293E+04  6.105722E+01  1.454602E+05  1.178142E-09 -2.468240E-11
       103  16 -4.113862E+04 -1.090037E+04 -3.561226E+04  7.369611E+04  9.724393E-09  6.826744E-09
       103  17  6.950421E+03  2.346252E+03 -2.923233E+04  8.323937E+04  6.441181E-09 -1.161320E-09
       103  18  4.934015E+04  2.127306E+04 -2.289382E+04  9.926937E+04 -7.197180E-09 -2.144524E-09
       103  19  4.664580E+05  1.696895E+05  3.544619E+04  2.172557E+05  6.209047E+02  2.393486E+04
       103  20  4.240470E+05  1.507635E+05  2.921437E+04  2.012160E+05  2.063359E+03  2.023429E+04
       103  21  3.759564E+05  1.375369E+05  2.301697E+04  1.916632E+05  3.514210E+03  1.651266E+04
       103  22  2.126245E+05  7.939109E+04 -8.253849E+01  1.454619E+05 -7.713502E+03  2.079649E+04
       103  23  2.154742E+05  7.655226E+04 -8.862395E+00  1.422180E+05 -6.318198E+03  1.707753E+04
       103  24  2.126326E+05  7.940313E+04  6.143694E+01  1.454601E+05 -4.914498E+03  1.333752E+04
       103  25 -4.113826E+04 -1.089997E+04 -3.561119E+04  7.369589E+04 -1.604432E+04  1.765948E+04
       103  26  6.950705E+03  2.346519E+03 -2.923156E+04  8.323921E+04 -1.469674E+04  1.392191E+04
       103  27  4.934037E+04  2.127322E+04 -2.289329E+04  9.926926E+04 -1.334076E+04  1.016330E+04
       104   1  3.478291E+05  1.275015E+05  1.892553E+04  1.837257E+05 -4.349232E+03 -1.433464E+04
       104   2  3.054323E+05  1.085818E+05  1.278404E+04  1.676915E+05 -5.845205E+03 -1.062331E+04
       104   3  2.573584E+05  9.536098E+04  6.707741E+03  1.581447E+05 -7.337754E+03 -6.921593E+03
       104   4  2.126390E+05  7.940472E+04  1.017723E+02  1.454621E+05  4.078496E+03 -1.115959E+04
       104   5  2.154775E+05  7.655556E+04  2.157427E+02  1.422182E+05  2.560712E+03 -7.456182E+03
       104   6  2.126420E+05  7.940989E+04  4.122483E+02  1.454611E+05  1.046354E+03 -3.762403E+03
       104   7  7.746720E+04  3.130933E+04 -1.872225E+04  1.072059E+05  1.250441E+04 -7.985238E+03
       104   8  1.255311E+05  4.453009E+04 -1.235246E+04  1.167482E+05  1.096541E+04 -4.289517E+03
       104   9  1.679279E+05  6.345907E+04 -5.882958E+03  1.327785E+05  9.429831E+03 -6.034516E+02
       104  10  3.478290E+05  1.275013E+05  1.892511E+04  1.837257E+05 -7.120751E-09 -5.625847E-09
       104  11  3.054322E+05  1.085816E+05  1.278376E+04  1.676914E+05 -4.569523E-09  7.696090E-10
       104  12  2.573583E+05  9.536092E+04  6.707550E+03  1.581446E+05  6.066303E-09  9.193740E-10
       104  13  2.126389E+05  7.940458E+04  1.015070E+02  1.454621E+05  1.339585E-09 -6.888881E-11
       104  14  2.154775E+05  7.655550E+04  2.156259E+02  1.422182E+05  6.297039E-09 -2.544618E-09
       104  15  2.126420E+05  7.940987E+04  4.122196E+02  1.454612E+05  5.970499E-09  3.405783E-09
       104  16  7.746701E+04  3.130922E+04 -1.872266E+04  1.072060E+05  1.049680E-08  5.537351E-09
       104  17  1.255309E+05  4.453003E+04 -1.235272E+04  1.167482E+05  5.555656E-09  1.598872E-09
       104  18  1.679278E+05  6.345904E+04 -5.883126E+03  1.327785E+05 -2.073059E-09  3.487388E-09
       104  19  3.478291E+05  1.275015E+05  1.892553E+04  1.837257E+05  4.349232E+03  1.433464E+04
       104  20  3.054323E+05  1.085818E+05  1.278404E+04  1.676915E+05  5.845205E+03  1.062331E+04
       104  21  2.573584E+05  9.536098E+04  6.707741E+03  1.581447E+05  7.337754E+03  6.921593E+03
       104  22  2.126390E+05  7.940472E+04  1.017723E+02  1.454621E+05 -4.078496E+03  1.115959E+04
       104  23  2.154775E+05  7.655556E+04  2.157427E+02  1.422182E+05 -2.560712E+03  7.456182E+03
       104  24  2.126420E+05  7.940989E+04  4.122483E+02  1.454611E+05 -1.046354E+03  3.762403E+03
       104  25  7.746720E+04  3.130933E+04 -1.872225E+04  1.072059E+05 -1.250441E+04  7.985238E+03
       104  26  1.255311E+05  4.453009E+04 -1.235246E+04  1.167482E+05 -1.096541E+04  4.289517E+03
       104  27  1.679279E+05  6.345907E+04 -5.882958E+03  1.327785E+05 -9.429831E+03  6.034516E+02
       105   1  2.292401E+05  8.533562E+04  2.705401E+03  1.502275E+05 -8.234347E+03 -4.776516E+03
       105   2  1.868579E+05  6.640012E+04 -3.187956E+03  1.341437E+05 -9.904296E+03 -1.204630E+03
       105   3  1.388655E+05  5.325170E+04 -8.843736E+03  1.245263E+05 -1.153613E+04  2.266470E+03
       105   4  2.126621E+05  7.941083E+04  5.553003E+02  1.454669E+05  1.487670E+02 -1.617653E+03
       105   5  2.154592E+05  7.659139E+04  1.020867E+03  1.421977E+05 -1.748142E+03  1.868617E+03
       105   6  2.126883E+05  7.960350E+04  1.903441E+03  1.453938E+05 -3.606975E+03  5.254111E+03
       105   7  1.960848E+05  7.348622E+04 -1.594436E+03  1.407066E+05  8.531540E+03  1.541079E+03
       105   8  2.440615E+05  8.678281E+04  5.229968E+03  1.502520E+05  6.408408E+03  4.942011E+03
       105   9  2.865181E+05  1.059563E+05  1.265111E+04  1.662639E+05  4.323279E+03  8.242165E+03
       105  10  2.292401E+05  8.533558E+04  2.705230E+03  1.502275E+05 -4.809075E-08 -2.216825E-08
       105  11  1.868578E+05  6.640009E+04 -3.188143E+03  1.341437E+05 -2.214266E-08 -1.042370E-08
       105  12  1.388653E+05  5.325166E+04 -8.843995E+03  1.245263E+05  3.169784E-08  1.650164E-08
       105  13  2.126621E+05  7.941083E+04  5.552954E+02  1.454669E+05 -1.511099E-09 -4.136408E-09
       105  14  2.154592E+05  7.659139E+04  1.020855E+03  1.421977E+05 -2.245684E-08 -8.560420E-09
       105  15  2.126882E+05  7.960347E+04  1.903364E+03  1.453938E+05 -1.323067E-08 -6.906164E-09
       105  16  1.960848E+05  7.348620E+04 -1.594578E+03  1.407066E+05  3.631760E-08  1.651808E-08
       105  17  2.440614E+05  8.678278E+04  5.229845E+03  1.502520E+05 -2.417148E-08 -8.789569E-09
       105  18  2.865181E+05  1.059562E+05  1.265095E+04  1.662639E+05 -6.241249E-08 -2.359094E-08
       105  19  2.292401E+05  8.533562E+04  2.705401E+03  1.502275E+05  8.234347E+03  4.776516E+03
       105  20  1.868579E+05  6.640012E+04 -3.187956E+03  1.341437E+05  9.904296E+03  1.204630E+03
       105  21  1.388655E+05  5.325170E+04 -8.843736E+03  1.245263E+05  1.153613E+04 -2.266470E+03
       105  22  2.126621E+05  7.941083E+04  5.553003E+02  1.454669E+05 -1.487670E+02  1.617653E+03
       105  23  2.154592E+05  7.659139E+04  1.020867E+03  1.421977E+05  1.748142E+03 -1.868617E+03
       105  24  2.126883E+05  7.960350E+04  1.903441E+03  1.453938E+05  3.606975E+03 -5.254111E+03
       105  25  1.960848E+05  7.348622E+04 -1.594436E+03  1.407066E+05 -8.531540E+03 -1.541079E+03
       105  26  2.440615E+05  8.678281E+04  5.229968E+03  1.502520E+05 -6.408408E+03 -4.942011E+03
       105  27  2.865181E+05  1.059563E+05  1.265111E+04  1.662639E+05 -4.323279E+03 -8.242165E+03
       106   1  1.107408E+05  4.333884E+04 -1.250431E+04  1.167126E+05 -1.265391E+04  4.225215E+03
       106   2  6.895838E+04  2.423049E+04 -1.759597E+04  9.957307E+04 -1.431351E+04  7.141355E+03
       106   3  2.209670E+04  1.207496E+04 -2.196268E+04  8.853101E+04 -1.565319E+04  9.209020E+03
       106   4  2.128427E+05  7.967783E+04  2.554212E+03  1.454088E+05 -4.730494E+03  7.210554E+03
       106   5  2.154057E+05  7.751585E+04  4.748558E+03  1.417933E+05 -8.297957E+03  9.407451E+03
       106   6  2.132648E+05  8.268389E+04  9.179064E+03  1.442743E+05 -1.154555E+04  1.075598E+04
       106   7  3.149560E+05  1.160180E+05  1.761289E+04  1.741095E+05  3.194293E+03  1.019641E+04
       106   8  3.618752E+05  1.308034E+05  2.709267E+04  1.840228E+05 -2.280943E+03  1.167412E+04
       106   9  4.044696E+05  1.532962E+05  4.031938E+04  2.000332E+05 -7.436634E+03  1.230345E+04
       106  10  1.107407E+05  4.333878E+04 -1.250465E+04  1.167127E+05  5.856285E-08  2.290075E-08
       106  11  6.895814E+04  2.423038E+04 -1.759645E+04  9.957315E+04  3.098405E-09  5.123640E-09
       106  12  2.209642E+04  1.207481E+04 -2.196330E+04  8.853113E+04 -6.248504E-08 -2.332532E-08
       106  13  2.128427E+05  7.967777E+04  2.554072E+03  1.454088E+05 -4.565360E-09  3.455283E-09
       106  14  2.154056E+05  7.751574E+04  4.748263E+03  1.417934E+05  5.993131E-09  6.754663E-09
       106  15  2.132647E+05  8.268373E+04  9.178596E+03  1.442744E+05 -3.377896E-10  4.121068E-09
       106  16  3.149559E+05  1.160179E+05  1.761267E+04  1.741095E+05 -6.654377E-08 -2.718771E-08
       106  17  3.618752E+05  1.308032E+05  2.709240E+04  1.840228E+05  5.327099E-09  2.965390E-09
       106  18  4.044695E+05  1.532960E+05  4.031900E+04  2.000332E+05  6.673458E-08  2.945912E-08
       106  19  1.107408E+05  4.333884E+04 -1.250431E+04  1.167126E+05  1.265391E+04 -4.225215E+03
       106  20  6.895838E+04  2.423049E+04 -1.759597E+04  9.957307E+04  1.431351E+04 -7.141355E+03
       106  21  2.209670E+04  1.207496E+04 -2.196268E+04  8.853101E+04  1.565319E+04 -9.209020E+03
       106  22  2.128427E+05  7.967783E+04  2.554212E+03  1.454088E+05  4.730494E+03 -7.210554E+03
       106  23  2.154057E+05  7.751585E+04  4.748558E+03  1.417933E+05  8.297957E+03 -9.407451E+03
       106  24  2.132648E+05  8.268389E+04  9.179064E+03  1.442743E+05  1.154555E+04 -1.075598E+04
       106  25  3.149560E+05  1.160180E+05  1.761289E+04  1.741095E+05 -3.194293E+03 -1.019641E+04
       106  26  3.618752E+05  1.308034E+05  2.709267E+04  1.840228E+05  2.280943E+03 -1.167412E+04
       106  27  4.044696E+05  1.532962E+05  4.031938E+04  2.000332E+05  7.436634E+03 -1.230345E+04
       107   1 -5.939382E+03  3.555021E+03 -2.443733E+04  8.143448E+04 -1.750178E+04  1.002378E+04
       107   2 -3.904165E+04 -1.738232E+04 -2.798308E+04  5.044825E+04 -1.315800E+04  9.657278E+03
       107   3 -7.189076E+04 -1.732286E+04 -2.990651E+04  2.096220E+04 -6.132676E+03  2.167735E+03
       107   4  2.146980E+05  8.382751E+04  1.240951E+04  1.442290E+05 -1.344409E+04  1.155173E+04
       107   5  2.155930E+05  9.014487E+04  2.392680E+04  1.365463E+05 -2.510845E+04  5.155022E+03
       107   6  2.199082E+05  1.206251E+05  4.974944E+04  1.303645E+05 -3.409229E+04 -8.363029E+03
       107   7  4.353918E+05  1.641069E+05  4.925642E+04  2.070456E+05 -9.384788E+03  1.308031E+04
       107   8  4.702955E+05  1.976842E+05  7.583397E+04  2.226792E+05 -3.706409E+04  6.500968E+02
       107   9  5.117872E+05  2.585914E+05  1.293991E+05  2.398160E+05 -6.206552E+04 -1.890215E+04
       107  10 -5.939738E+03  3.554831E+03 -2.443810E+04  8.143463E+04  3.078122E-09  2.744977E-09
       107  11 -3.904186E+04 -1.738247E+04 -2.798358E+04  5.044835E+04  1.415000E-09  1.042371E-09
       107  12 -7.189080E+04 -1.732288E+04 -2.990659E+04  2.096221E+04 -7.848934E-10  1.846770E-09
       107  13  2.146978E+05  8.382732E+04  1.240892E+04  1.442291E+05 -1.690156E-09  3.265333E-09
       107  14  2.155924E+05  9.014467E+04  2.392557E+04  1.365464E+05 -1.032901E-09  2.373674E-09
       107  15  2.199070E+05  1.206247E+05  4.974713E+04  1.303642E+05 -1.801383E-09  4.600722E-10
       107  16  4.353916E+05  1.641067E+05  4.925593E+04  2.070457E+05 -4.079058E-09  5.564763E-09
       107  17  4.702940E+05  1.976838E+05  7.583139E+04  2.226792E+05 -5.837089E-11  2.684767E-09
       107  18  5.117829E+05  2.585900E+05  1.293912E+05  2.398151E+05  2.990555E-10  1.296105E-10
       107  19 -5.939382E+03  3.555021E+03 -2.443733E+04  8.143448E+04  1.750178E+04 -1.002378E+04
       107  20 -3.904165E+04 -1.738232E+04 -2.798308E+04  5.044825E+04  1.315800E+04 -9.657278E+03
       107  21 -7.189076E+04 -1.732286E+04 -2.990651E+04  2.096220E+04  6.132676E+03 -2.167735E+03
       107  22  2.146980E+05  8.382751E+04  1.240951E+04  1.442290E+05  1.344409E+04 -1.155173E+04
       107  23  2.155930E+05  9.014487E+04  2.392680E+04  1.365463E+05  2.510845E+04 -5.155022E+03
       107  24  2.199082E+05  1.206251E+05  4.974944E+04  1.303645E+05  3.409229E+04  8.363029E+03
       107  25  4.353918E+05  1.641069E+05  4.925642E+04  2.070456E+05  9.384788E+03 -1.308031E+04
       107  26  4.702955E+05  1.976842E+05  7.583397E+04  2.226792E+05  3.706409E+04 -6.500968E+02
       107  27  5.117872E+05  2.585914E+05  1.293991E+05  2.398160E+05  6.206552E+04  1.890215E+04
       108   1 -2.191739E+05 -9.696026E+05 -2.420541E+05  8.880776E+04 -4.899437E+03 -9.333203E+04
       108   2 -8.523049E+04 -8.638214E+05 -1.478911E+05  3.652855E+04 -1.442548E+04 -5.442075E+04
       108   3 -6.805213E+04 -7.920261E+05 -1.082345E+05  3.534149E+04 -1.176189E+04 -1.548473E+04
       108   4 -1.011396E+05 -4.967876E+05 -1.258425E+05  4.963392E+04 -4.909159E+03 -8.329689E+04
       108   5  9.500890E+03 -4.804663E+05 -5.808552E+04  2.416646E+04 -1.442689E+04 -5.225490E+04
       108   6  4.782294E+03 -4.967472E+05 -3.933858E+04  4.979430E+04 -1.175494E+04 -2.119428E+04
       108   7  1.688377E+04 -2.376533E+04 -9.646229E+03  1.043023E+04 -4.920147E+03 -7.325408E+04
       108   8  1.042224E+05 -9.697532E+04  3.171018E+04  1.179673E+04 -1.442837E+04 -5.008772E+04
       108   9  7.761136E+04 -2.013873E+05  2.955167E+04  6.425407E+04 -1.174827E+04 -2.690652E+04
       108  10 -2.191763E+05 -9.696120E+05 -2.420706E+05  8.880739E+04 -1.104112E-09  2.343409E-09
       108  11 -8.523151E+04 -8.638247E+05 -1.478971E+05  3.652792E+04 -9.434858E-10  3.874288E-09
       108  12 -6.805235E+04 -7.920264E+05 -1.082352E+05  3.534134E+04  3.267059E-09  2.092423E-09
       108  13 -1.011415E+05 -4.967950E+05 -1.258556E+05  4.963359E+04  4.117957E-09  3.628018E-09
       108  14  9.499933E+03 -4.804693E+05 -5.809104E+04  2.416586E+04 -1.282759E-09 -2.960389E-09
       108  15  4.782025E+03 -4.967477E+05 -3.933969E+04  4.979410E+04 -6.279173E-09  9.064300E-10
       108  16  1.688231E+04 -2.377110E+04 -9.656359E+03  1.042994E+04  2.120011E-09 -1.723075E-09
       108  17  1.042215E+05 -9.697807E+04  3.170507E+04  1.179615E+04  3.317463E-09 -5.305680E-09
       108  18  7.761102E+04 -2.013881E+05  2.955005E+04  6.425382E+04 -3.660366E-09 -2.855028E-09
       108  19 -2.191739E+05 -9.696026E+05 -2.420541E+05  8.880776E+04  4.899437E+03  9.333203E+04
       108  20 -8.523049E+04 -8.638214E+05 -1.478911E+05  3.652855E+04  1.442548E+04  5.442075E+04
       108  21 -6.805213E+04 -7.920261E+05 -1.082345E+05  3.534149E+04  1.176189E+04  1.548473E+04
       108  22 -1.011396E+05 -4.967876E+05 -1.258425E+05  4.963392E+04  4.909159E+03  8.329689E+04
       108  23  9.500890E+03 -4.804663E+05 -5.808552E+04  2.416646E+04  1.442689E+04  5.225490E+04
       108  24  4.782294E+03 -4.967472E+05 -3.933858E+04  4.979430E+04  1.175494E+04  2.119428E+04
       108  25  1.688377E+04 -2.376533E+04 -9.646229E+03  1.043023E+04  4.920147E+03  7.325408E+04
       108  26  1.042224E+05 -9.697532E+04  3.171018E+04  1.179673E+04  1.442837E+04  5.008772E+04
       108  27  7.761136E+04 -2.013873E+05  2.955167E+04  6.425407E+04  1.174827E+04  2.690652E+04
       109   1 -5.809990E+04 -6.929143E+05 -8.190363E+04  5.410905E+04 -7.767736E+03 -1.291601E+04
       109   2 -2.623664E+04 -6.006463E+05 -5.333342E+04  2.416394E+04 -4.436330E+03  9.733833E+02
       109   3 -1.324636E+04 -5.147384E+05 -3.849668E+04  4.601448E+04 -8.097236E+02  1.486436E+04
       109   4 -8.207817E+03 -4.909031E+05 -3.464683E+04  4.989989E+04 -7.765103E+03 -1.499059E+04
       109   5  1.634856E+03 -4.877337E+05 -2.695869E+04  2.400273E+04 -4.433756E+03 -1.289343E+03
       109   6 -7.360160E+03 -4.908978E+05 -3.287043E+04  4.990120E+04 -8.070785E+02  1.241153E+04
       109   7  4.168143E+04 -2.888541E+05  1.260722E+04  4.568936E+04 -7.762443E+03 -1.706583E+04
       109   8  2.950545E+04 -3.748093E+05 -5.848138E+02  2.384148E+04 -4.431182E+03 -3.552479E+03
       109   9 -1.473937E+03 -4.670566E+05 -2.724418E+04  5.378808E+04 -8.044642E+02  9.958598E+03
       109  10 -5.810001E+04 -6.929145E+05 -8.190405E+04  5.410897E+04  2.040457E-09 -5.689901E-09
       109  11 -2.623667E+04 -6.006463E+05 -5.333346E+04  2.416395E+04 -1.589511E-09 -6.554946E-09
       109  12 -1.324642E+04 -5.147386E+05 -3.849710E+04  4.601449E+04  6.504932E-10 -6.441075E-09
       109  13 -8.207942E+03 -4.909033E+05 -3.464736E+04  4.989980E+04 -5.268316E-09  1.057244E-09
       109  14  1.634834E+03 -4.877337E+05 -2.695873E+04  2.400272E+04 -1.558816E-09 -1.695467E-09
       109  15 -7.360202E+03 -4.908979E+05 -3.287072E+04  4.990121E+04 -2.876595E-09 -1.109922E-10
       109  16  4.168129E+04 -2.888544E+05  1.260656E+04  4.568925E+04 -2.258555E-09  4.987046E-09
       109  17  2.950543E+04 -3.748093E+05 -5.848744E+02  2.384147E+04  2.086274E-10  5.715724E-09
       109  18 -1.473964E+03 -4.670567E+05 -2.724437E+04  5.378808E+04 -7.257192E-10  5.949166E-09
       109  19 -5.809990E+04 -6.929143E+05 -8.190363E+04  5.410905E+04  7.767736E+03  1.291601E+04
       109  20 -2.623664E+04 -6.006463E+05 -5.333342E+04  2.416394E+04  4.436330E+03 -9.733833E+02
       109  21 -1.324636E+04 -5.147384E+05 -3.849668E+04  4.601448E+04  8.097236E+02 -1.486436E+04
       109  22 -8.207817E+03 -4.909031E+05 -3.464683E+04  4.989989E+04  7.765103E+03  1.499059E+04
       109  23  1.634856E+03 -4.877337E+05 -2.695869E+04  2.400273E+04  4.433756E+03  1.289343E+03
       109  24 -7.360160E+03 -4.908978E+05 -3.287043E+04  4.990120E+04  8.070785E+02 -1.241153E+04
       109  25  4.168143E+04 -2.888541E+05  1.260722E+04  4.568936E+04  7.762443E+03  1.706583E+04
       109  26  2.950545E+04 -3.748093E+05 -5.848138E+02  2.384148E+04  4.431182E+03  3.552479E+03
       109  27 -1.473937E+03 -4.670566E+05 -2.724418E+04  5.378808E+04  8.044642E+02 -9.958598E+03
       110   1  2.137400E+04 -4.265661E+05 -2.048512E+04  6.321318E+04  2.553549E+03  2.263608E+04
       110   2  4.778620E+04 -3.229975E+05 -1.612826E+04  1.306164E+04  5.836972E+03  4.663316E+04
       110   3 -2.995266E+04 -2.484100E+05 -5.339786E+04  1.440406E+04  2.239835E+03  7.062560E+04
       110   4  4.233486E+03 -4.961032E+05 -3.678427E+04  4.987125E+04  2.557654E+03  1.826151E+04
       110   5  8.676107E+03 -4.812306E+05 -5.322613E+04  2.406515E+04  5.837806E+03  4.670770E+04
       110   6 -9.182226E+04 -4.961315E+05 -1.143951E+05  4.975627E+04  2.238496E+03  7.514562E+04
       110   7 -1.290669E+04 -5.656354E+05 -5.308358E+04  3.653082E+04  2.561948E+03  1.388744E+04
       110   8 -3.043532E+04 -6.394404E+05 -9.032565E+04  3.506585E+04  5.838643E+03  4.678221E+04
       110   9 -1.536917E+05 -7.437944E+05 -1.753961E+05  8.509436E+04  2.237672E+03  7.966383E+04
       110  10  2.137385E+04 -4.265667E+05 -2.048609E+04  6.321314E+04 -3.459780E-10 -1.013262E-09
       110  11  4.778558E+04 -3.229998E+05 -1.613242E+04  1.306142E+04  7.397186E-10 -3.244657E-10
       110  12 -2.995401E+04 -2.484154E+05 -5.340725E+04  1.440393E+04  3.198979E-10 -1.543780E-09
       110  13  4.233390E+03 -4.961035E+05 -3.678491E+04  4.987121E+04  1.159038E-09  2.491324E-09
       110  14  8.675484E+03 -4.812329E+05 -5.323030E+04  2.406493E+04  1.768518E-09 -6.684452E-10
       110  15 -9.182378E+04 -4.961376E+05 -1.144057E+05  4.975613E+04  1.772210E-09  2.009776E-09
       110  16 -1.290674E+04 -5.656356E+05 -5.308396E+04  3.653079E+04 -7.255576E-10  1.326297E-09
       110  17 -3.043594E+04 -6.394427E+05 -9.032983E+04  3.506563E+04  3.349983E-09  2.844269E-10
       110  18 -1.536935E+05 -7.438012E+05 -1.754080E+05  8.509421E+04  1.972881E-09  1.152794E-09
       110  19  2.137400E+04 -4.265661E+05 -2.048512E+04  6.321318E+04 -2.553549E+03 -2.263608E+04
       110  20  4.778620E+04 -3.229975E+05 -1.612826E+04  1.306164E+04 -5.836972E+03 -4.663316E+04
       110  21 -2.995266E+04 -2.484100E+05 -5.339786E+04  1.440406E+04 -2.239835E+03 -7.062560E+04
       110  22  4.233486E+03 -4.961032E+05 -3.678427E+04  4.987125E+04 -2.557654E+03 -1.826151E+04
       110  23  8.676107E+03 -4.812306E+05 -5.322613E+04  2.406515E+04 -5.837806E+03 -4.670770E+04
       110  24 -9.182226E+04 -4.961315E+05 -1.143951E+05  4.975627E+04 -2.238496E+03 -7.514562E+04
       110  25 -1.290669E+04 -5.656354E+05 -5.308358E+04  3.653082E+04 -2.561948E+03 -1.388744E+04
       110  26 -3.043532E+04 -6.394404E+05 -9.032565E+04  3.506585E+04 -5.838643E+03 -4.678221E+04
       110  27 -1.536917E+05 -7.437944E+05 -1.753961E+05  8.509436E+04 -2.237672E+03 -7.966383E+04
       111   1  6.574651E+05  2.289687E+05  1.418913E+05  2.367023E+05  6.079391E+04  2.012946E+04
       111   2  6.346289E+05  1.362898E+05  8.437515E+04  2.356841E+05  3.946623E+04  6.439071E+03
       111   3  6.349219E+05  1.267182E+05  6.463879E+04  2.247040E+05  1.612050E+04 -1.896274E+03
       111   4  4.704676E+05  1.352716E+05  8.684505E+04  1.619072E+05  5.615335E+04  1.837701E+04
       111   5  4.546309E+05  6.168406E+04  3.668435E+04  1.790918E+05  3.808290E+04  5.916670E+03
       111   6  4.612867E+05  7.057118E+04  2.173193E+04  1.863123E+05  1.799353E+04 -1.189585E+03
       111   7  2.835074E+05  4.158635E+04  3.179614E+04  8.713593E+04  5.151438E+04  1.662558E+04
       111   8  2.746652E+05 -1.291740E+04 -1.100910E+04  1.225151E+05  3.670001E+04  5.394474E+03
       111   9  2.876801E+05  1.442407E+04 -2.117739E+04  1.479292E+05  1.986600E+04 -4.830395E+02
       111  10  6.574610E+05  2.289673E+05  1.418836E+05  2.367013E+05 -1.170429E-09 -1.881885E-10
       111  11  6.346272E+05  1.362894E+05  8.437215E+04  2.356839E+05 -5.500625E-10  3.854131E-09
       111  12  6.349216E+05  1.267181E+05  6.463830E+04  2.247040E+05 -3.041441E-09  3.559872E-09
       111  13  4.704641E+05  1.352704E+05  8.683849E+04  1.619064E+05 -9.827475E-10 -4.376295E-09
       111  14  4.546294E+05  6.168363E+04  3.668156E+04  1.790916E+05 -4.863629E-09  5.248170E-09
       111  15  4.612864E+05  7.057109E+04  2.173132E+04  1.863123E+05 -3.599700E-10 -8.010113E-10
       111  16  2.835044E+05  4.158534E+04  3.179063E+04  8.713524E+04 -1.950222E-10  3.332283E-09
       111  17  2.746637E+05 -1.291779E+04 -1.101168E+04  1.225150E+05 -2.440103E-09 -3.610304E-11
       111  18  2.876796E+05  1.442397E+04 -2.117813E+04  1.479292E+05 -3.104334E-09 -1.740707E-09
       111  19  6.574651E+05  2.289687E+05  1.418913E+05  2.367023E+05 -6.079391E+04 -2.012946E+04
       111  20  6.346289E+05  1.362898E+05  8.437515E+04  2.356841E+05 -3.946623E+04 -6.439071E+03
       111  21  6.349219E+05  1.267182E+05  6.463879E+04  2.247040E+05 -1.612050E+04  1.896274E+03
       111  22  4.704676E+05  1.352716E+05  8.684505E+04  1.619072E+05 -5.615335E+04 -1.837701E+04
       111  23  4.546309E+05  6.168406E+04  3.668435E+04  1.790918E+05 -3.808290E+04 -5.916670E+03
       111  24  4.612867E+05  7.057118E+04  2.173193E+04  1.863123E+05 -1.799353E+04  1.189585E+03
       111  25  2.835074E+05  4.158635E+04  3.179614E+04  8.713593E+04 -5.151438E+04 -1.662558E+04
       111  26  2.746652E+05 -1.291740E+04 -1.100910E+04  1.225151E+05 -3.670001E+04 -5.394474E+03
       111  27  2.876801E+05  1.442407E+04 -2.117739E+04  1.479292E+05 -1.986600E+04  4.830395E+02
       112   1  6.040523E+05  1.353667E+05  5.544024E+04  2.232917E+05  1.432720E+04 -1.177293E+03
       112   2  5.891117E+05  1.172286E+05  4.181910E+04  2.145224E+05  9.481677E+03 -2.396745E+03
       112   3  5.692136E+05  1.140791E+05  3.351519E+04  2.133793E+05  4.516605E+03 -3.299381E+03
       112   4  4.584862E+05  7.883782E+04  1.753841E+04  1.814435E+05  1.455260E+04 -1.092409E+03
       112   5  4.605722E+05  6.845840E+04  8.640554E+03  1.787270E+05  9.900471E+03 -2.238799E+03
       112   6  4.576626E+05  7.303033E+04  4.907714E+03  1.836364E+05  5.128649E+03 -3.068416E+03
       112   7  3.129408E+05  2.231071E+04 -2.036520E+04  1.396043E+05  1.477794E+04 -1.007549E+03
       112   8  3.320490E+05  1.968948E+04 -2.453929E+04  1.429383E+05  1.031917E+04 -2.080890E+03
       112   9  3.461241E+05  3.198232E+04 -2.370066E+04  1.538984E+05  5.740570E+03 -2.837494E+03
       112  10  6.040521E+05  1.353666E+05  5.543986E+04  2.232917E+05 -2.094901E-09  1.482652E-09
       112  11  5.891116E+05  1.172285E+05  4.181892E+04  2.145224E+05  3.141829E-10 -1.123108E-09
       112  12  5.692136E+05  1.140791E+05  3.351513E+04  2.133793E+05  1.616890E-09 -6.370394E-09
       112  13  4.584860E+05  7.883777E+04  1.753801E+04  1.814435E+05  7.022866E-10  1.000732E-09
       112  14  4.605721E+05  6.845837E+04  8.640360E+03  1.787270E+05  3.372620E-10 -9.083080E-09
       112  15  4.576626E+05  7.303031E+04  4.907647E+03  1.836364E+05  1.475460E-09 -6.991992E-10
       112  16  3.129405E+05  2.231065E+04 -2.036561E+04  1.396043E+05 -9.436529E-10 -3.232090E-09
       112  17  3.320488E+05  1.968945E+04 -2.453950E+04  1.429383E+05  1.883043E-12  7.061133E-09
       112  18  3.461241E+05  3.198230E+04 -2.370074E+04  1.538984E+05  9.508185E-11  5.200789E-09
       112  19  6.040523E+05  1.353667E+05  5.544024E+04  2.232917E+05 -1.432720E+04  1.177293E+03
       112  20  5.891117E+05  1.172286E+05  4.181910E+04  2.145224E+05 -9.481677E+03  2.396745E+03
       112  21  5.692136E+05  1.140791E+05  3.351519E+04  2.133793E+05 -4.516605E+03  3.299381E+03
       112  22  4.584862E+05  7.883782E+04  1.753841E+04  1.814435E+05 -1.455260E+04  1.092409E+03
       112  23  4.605722E+05  6.845840E+04  8.640554E+03  1.787270E+05 -9.900471E+03  2.238799E+03
       112  24  4.576626E+05  7.303033E+04  4.907714E+03  1.836364E+05 -5.128649E+03  3.068416E+03
       112  25  3.129408E+05  2.231071E+04 -2.036520E+04  1.396043E+05 -1.477794E+04  1.007549E+03
       112  26  3.320490E+05  1.968948E+04 -2.453929E+04  1.429383E+05 -1.031917E+04  2.080890E+03
       112  27  3.461241E+05  3.198232E+04 -2.370066E+04  1.538984E+05 -5.740570E+03  2.837494E+03
       113   1  5.483296E+05  1.080188E+05  2.717484E+04  2.082695E+05  3.709528E+03 -2.973565E+03
       113   2  5.344045E+05  9.666460E+04  2.087434E+04  1.988640E+05  2.358162E+03 -2.509795E+03
       113   3  5.127794E+05  9.401005E+04  1.550777E+04  1.985066E+05  1.000305E+03 -2.029159E+03
       113   4  4.573607E+05  7.373670E+04  3.795056E+03  1.831618E+05  4.221728E+03 -2.780256E+03
       113   5  4.611762E+05  6.913528E+04  2.021448E+03  1.787333E+05  2.880761E+03 -2.312518E+03
       113   6  4.572897E+05  7.323169E+04  1.173769E+03  1.833529E+05  1.533273E+03 -1.827925E+03
       113   7  3.663995E+05  3.945501E+04 -1.958550E+04  1.580574E+05  4.733848E+03 -2.586977E+03
       113   8  3.879530E+05  4.160626E+04 -1.683192E+04  1.586047E+05  3.403294E+03 -2.115266E+03
       113   9  4.018029E+05  5.245352E+04 -1.316049E+04  1.682004E+05  2.066190E+03 -1.626711E+03
       113  10  5.483296E+05  1.080188E+05  2.717479E+04  2.082695E+05 -3.247598E-09 -3.411601E-09
       113  11  5.344045E+05  9.666459E+04  2.087431E+04  1.988640E+05  8.951836E-10  3.674535E-09
       113  12  5.127794E+05  9.401004E+04  1.550776E+04  1.985066E+05  2.918000E-09 -3.402508E-09
       113  13  4.573607E+05  7.373669E+04  3.795008E+03  1.831618E+05  1.348097E-09 -3.838288E-09
       113  14  4.611762E+05  6.913527E+04  2.021423E+03  1.787333E+05  1.840751E-09  2.979937E-09
       113  15  4.572897E+05  7.323169E+04  1.173758E+03  1.833529E+05 -7.738276E-10 -1.490117E-09
       113  16  3.663995E+05  3.945500E+04 -1.958555E+04  1.580574E+05  4.090091E-09  5.274527E-10
       113  17  3.879529E+05  4.160625E+04 -1.683195E+04  1.586047E+05 -2.820401E-09  5.202515E-09
       113  18  4.018029E+05  5.245352E+04 -1.316050E+04  1.682004E+05 -2.855231E-09 -5.714965E-09
       113  19  5.483296E+05  1.080188E+05  2.717484E+04  2.082695E+05 -3.709528E+03  2.973565E+03
       113  20  5.344045E+05  9.666460E+04  2.087434E+04  1.988640E+05 -2.358162E+03  2.509795E+03
       113  21  5.127794E+05  9.401005E+04  1.550777E+04  1.985066E+05 -1.000305E+03  2.029159E+03
       113  22  4.573607E+05  7.373670E+04  3.795056E+03  1.831618E+05 -4.221728E+03  2.780256E+03
       113  23  4.611762E+05  6.913528E+04  2.021448E+03  1.787333E+05 -2.880761E+03  2.312518E+03
       113  24  4.572897E+05  7.323169E+04  1.173769E+03  1.833529E+05 -1.533273E+03  1.827925E+03
       113  25  3.663995E+05  3.945501E+04 -1.958550E+04  1.580574E+05 -4.733848E+03  2.586977E+03
       113  26  3.879530E+05  4.160626E+04 -1.683192E+04  1.586047E+05 -3.403294E+03  2.115266E+03
       113  27  4.018029E+05  5.245352E+04 -1.316049E+04  1.682004E+05 -2.066190E+03  1.626711E+03
       114   1  4.929640E+05  8.669157E+04  1.005504E+04  1.931174E+05  6.419918E+02 -1.583452E+03
       114   2  4.792164E+05  7.596646E+04  5.245693E+03  1.836836E+05  5.233342E+00 -8.327000E+02
       114   3  4.574964E+05  7.334426E+04  6.827744E+02  1.833718E+05 -6.317346E+02 -8.142611E+01
       114   4  4.572560E+05  7.328229E+04  9.282402E+02  1.833005E+05  1.168519E+03 -1.384634E+03
       114   5  4.612399E+05  6.921272E+04  6.182924E+02  1.787464E+05  5.320877E+02 -6.337503E+02
       114   6  4.572511E+05  7.324601E+04  5.545527E+02  1.833143E+05 -1.045650E+02  1.176541E+02
       114   7  4.215494E+05  5.987315E+04 -8.198629E+03  1.734841E+05  1.695012E+03 -1.185830E+03
       114   8  4.432638E+05  6.245900E+04 -4.009134E+03  1.738094E+05  1.058925E+03 -4.348070E+02
       114   9  4.570058E+05  7.314777E+04  4.263320E+02  1.832568E+05  4.226061E+02  3.167350E+02
       114  10  4.929640E+05  8.669156E+04  1.005504E+04  1.931174E+05  3.636737E-10 -1.188284E-09
       114  11  4.792164E+05  7.596646E+04  5.245692E+03  1.836836E+05  1.978476E-10  4.222803E-09
       114  12  4.574964E+05  7.334426E+04  6.827737E+02  1.833718E+05  1.865359E-09 -3.511722E-09
       114  13  4.572560E+05  7.328229E+04  9.282340E+02  1.833005E+05 -5.138332E-10 -2.817481E-09
       114  14  4.612399E+05  6.921272E+04  6.182911E+02  1.787464E+05  8.536940E-10 -1.010207E-08
       114  15  4.572511E+05  7.324601E+04  5.545527E+02  1.833143E+05 -2.465128E-10 -4.174093E-09
       114  16  4.215494E+05  5.987315E+04 -8.198637E+03  1.734841E+05  4.284094E-10 -1.256055E-09
       114  17  4.432638E+05  6.245900E+04 -4.009136E+03  1.738094E+05 -2.389254E-09 -1.015133E-08
       114  18  4.570058E+05  7.314777E+04  4.263315E+02  1.832568E+05 -2.624034E-09  2.618273E-09
       114  19  4.929640E+05  8.669157E+04  1.005504E+04  1.931174E+05 -6.419918E+02  1.583452E+03
       114  20  4.792164E+05  7.596646E+04  5.245693E+03  1.836836E+05 -5.233342E+00  8.327000E+02
       114  21  4.574964E+05  7.334426E+04  6.827744E+02  1.833718E+05  6.317346E+02  8.142611E+01
       114  22  4.572560E+05  7.328229E+04  9.282402E+02  1.833005E+05 -1.168519E+03  1.384634E+03
       114  23  4.612399E+05  6.921272E+04  6.182924E+02  1.787464E+05 -5.320877E+02  6.337503E+02
       114  24  4.572511E+05  7.324601E+04  5.545527E+02  1.833143E+05  1.045650E+02 -1.176541E+02
       114  25  4.215494E+05  5.987315E+04 -8.198629E+03  1.734841E+05 -1.695012E+03  1.185830E+03
       114  26  4.432638E+05  6.245900E+04 -4.009134E+03  1.738094E+05 -1.058925E+03  4.348070E+02
       114  27  4.570058E+05  7.314777E+04  4.263320E+02  1.832568E+05 -4.226061E+02 -3.167350E+02
       115   1  4.378038E+05  6.593666E+04 -4.477668E+03  1.779919E+05 -9.178349E+02  3.880324E+02
       115   2  4.240400E+05  5.523438E+04 -8.738359E+03  1.685316E+05 -1.663498E+03  1.098811E+03
       115   3  4.023258E+05  5.267488E+04 -1.266286E+04  1.681986E+05 -2.409060E+03  1.809616E+03
       115   4  4.572545E+05  7.324548E+04  5.934204E+02  1.833190E+05 -3.905569E+02  5.871506E+02
       115   5  4.612342E+05  6.920538E+04  8.357051E+02  1.787435E+05 -1.136253E+03  1.297895E+03
       115   6  4.572630E+05  7.330796E+04  1.414181E+03  1.832952E+05 -1.881861E+03  2.008661E+03
       115   7  4.767056E+05  8.055433E+04  5.664477E+03  1.886462E+05  1.367392E+02  7.862757E+02
       115   8  4.984297E+05  8.317645E+04  1.040964E+04  1.889559E+05 -6.089750E+02  1.496992E+03
       115   9  5.122030E+05  9.394116E+04  1.549092E+04  1.983930E+05 -1.354614E+03  2.207725E+03
       115  10  4.378038E+05  6.593666E+04 -4.477670E+03  1.779919E+05  5.419705E-10 -1.602563E-09
       115  11  4.240400E+05  5.523438E+04 -8.738367E+03  1.685316E+05 -3.546493E-09  4.133735E-09
       115  12  4.023258E+05  5.267487E+04 -1.266288E+04  1.681986E+05  1.410280E-09 -8.626792E-09
       115  13  4.572545E+05  7.324548E+04  5.934195E+02  1.833190E+05 -3.533041E-10  1.017687E-08
       115  14  4.612342E+05  6.920538E+04  8.356995E+02  1.787435E+05 -4.376958E-09 -6.529850E-09
       115  15  4.572630E+05  7.330796E+04  1.414167E+03  1.832952E+05 -1.471686E-09 -4.631854E-09
       115  16  4.767056E+05  8.055433E+04  5.664476E+03  1.886462E+05  2.572605E-10  1.684816E-09
       115  17  4.984297E+05  8.317644E+04  1.040963E+04  1.889559E+05  2.651810E-09 -3.275494E-09
       115  18  5.122030E+05  9.394116E+04  1.549091E+04  1.983930E+05  1.549744E-09 -2.893715E-10
       115  19  4.378038E+05  6.593666E+04 -4.477668E+03  1.779919E+05  9.178349E+02 -3.880324E+02
       115  20  4.240400E+05  5.523438E+04 -8.738359E+03  1.685316E+05  1.663498E+03 -1.098811E+03
       115  21  4.023258E+05  5.267488E+04 -1.266286E+04  1.681986E+05  2.409060E+03 -1.809616E+03
       115  22  4.572545E+05  7.324548E+04  5.934204E+02  1.833190E+05  3.905569E+02 -5.871506E+02
       115  23  4.612342E+05  6.920538E+04  8.357051E+02  1.787435E+05  1.136253E+03 -1.297895E+03
       115  24  4.572630E+05  7.330796E+04  1.414181E+03  1.832952E+05  1.881861E+03 -2.008661E+03
       115  25  4.767056E+05  8.055433E+04  5.664477E+03  1.886462E+05 -1.367392E+02 -7.862757E+02
       115  26  4.984297E+05  8.317645E+04  1.040964E+04  1.889559E+05  6.089750E+02 -1.496992E+03
       115  27  5.122030E+05  9.394116E+04  1.549092E+04  1.983930E+05  1.354614E+03 -2.207725E+03
       116   1  3.825243E+05  4.524713E+04 -1.745912E+04  1.629810E+05 -2.875778E+03  2.215837E+03
       116   2  3.685867E+05  3.429072E+04 -2.058410E+04  1.532873E+05 -4.828743E+03  2.474281E+03
       116   3  3.471538E+05  3.244108E+04 -2.222871E+04  1.525937E+05 -6.774648E+03  2.714577E+03
       116   4  4.573215E+05  7.322437E+04  1.835853E+03  1.833792E+05 -2.341289E+03  2.417612E+03
       116   5  4.611258E+05  6.908036E+04  3.242620E+03  1.787239E+05 -4.305539E+03  2.671743E+03
       116   6  4.574370E+05  7.404533E+04  6.138629E+03  1.830687E+05 -6.262777E+03  2.907710E+03
       116   7  5.321243E+05  1.012021E+05  2.113044E+04  2.037797E+05 -1.806727E+03  2.619413E+03
       116   8  5.536734E+05  1.038706E+05  2.706868E+04  2.041640E+05 -3.782248E+03  2.869238E+03
       116   9  5.677322E+05  1.156504E+05  3.450497E+04  2.135486E+05 -5.750807E+03  3.100881E+03
       116  10  3.825243E+05  4.524713E+04 -1.745915E+04  1.629810E+05  1.212416E-09 -7.187425E-09
       116  11  3.685867E+05  3.429070E+04 -2.058415E+04  1.532873E+05  1.673806E-09  2.463166E-09
       116  12  3.471537E+05  3.244106E+04 -2.222881E+04  1.525937E+05  3.812338E-09  2.715592E-09
       116  13  4.573215E+05  7.322436E+04  1.835832E+03  1.833792E+05  2.660851E-10 -2.469582E-09
       116  14  4.611258E+05  6.908035E+04  3.242572E+03  1.787239E+05  5.999791E-10 -5.209172E-09
       116  15  4.574370E+05  7.404531E+04  6.138540E+03  1.830687E+05  1.961189E-10 -7.199625E-09
       116  16  5.321243E+05  1.012020E+05  2.113042E+04  2.037797E+05  3.835670E-09  4.154472E-09
       116  17  5.536734E+05  1.038706E+05  2.706863E+04  2.041640E+05  1.888756E-09  4.401961E-09
       116  18  5.677321E+05  1.156504E+05  3.450489E+04  2.135486E+05 -6.874754E-10 -4.627483E-09
       116  19  3.825243E+05  4.524713E+04 -1.745912E+04  1.629810E+05  2.875778E+03 -2.215837E+03
       116  20  3.685867E+05  3.429072E+04 -2.058410E+04  1.532873E+05  4.828743E+03 -2.474281E+03
       116  21  3.471538E+05  3.244108E+04 -2.222871E+04  1.525937E+05  6.774648E+03 -2.714577E+03
       116  22  4.573215E+05  7.322437E+04  1.835853E+03  1.833792E+05  2.341289E+03 -2.417612E+03
       116  23  4.611258E+05  6.908036E+04  3.242620E+03  1.787239E+05  4.305539E+03 -2.671743E+03
       116  24  4.574370E+05  7.404533E+04  6.138629E+03  1.830687E+05  6.262777E+03 -2.907710E+03
       116  25  5.321243E+05  1.012021E+05  2.113044E+04  2.037797E+05  1.806727E+03 -2.619413E+03
       116  26  5.536734E+05  1.038706E+05  2.706868E+04  2.041640E+05  3.782248E+03 -2.869238E+03
       116  27  5.677322E+05  1.156504E+05  3.450497E+04  2.135486E+05  5.750807E+03 -3.100881E+03
       117   1  3.265604E+05  2.494485E+04 -2.566113E+04  1.492140E+05 -8.225290E+03  2.804264E+03
       117   2  3.123090E+05  1.167911E+04 -2.418960E+04  1.373357E+05 -1.555482E+04  1.011442E+03
       117   3  2.949451E+05  1.760900E+04 -1.450306E+04  1.321213E+05 -2.275345E+04 -1.127120E+03
       117   4  4.579344E+05  7.289334E+04  7.949890E+03  1.838329E+05 -7.604123E+03  3.038621E+03
       117   5  4.601388E+05  6.798992E+04  1.401503E+04  1.787214E+05 -1.514529E+04  1.165813E+03
       117   6  4.592711E+05  8.232194E+04  2.846126E+04  1.802735E+05 -2.255581E+04 -1.052838E+03
       117   7  5.893248E+05  1.208425E+05  4.155939E+04  2.184582E+05 -6.982813E+03  3.273028E+03
       117   8  6.079898E+05  1.243023E+05  5.221785E+04  2.201161E+05 -1.473566E+04  1.320227E+03
       117   9  6.236241E+05  1.470376E+05  7.142345E+04  2.284377E+05 -2.235811E+04 -9.785306E+02
       117  10  3.265603E+05  2.494482E+04 -2.566127E+04  1.492140E+05  5.186355E-09  5.039472E-09
       117  11  3.123087E+05  1.167905E+04 -2.419005E+04  1.373358E+05  4.633772E-10  6.319000E-09
       117  12  2.949445E+05  1.760886E+04 -1.450403E+04  1.321213E+05 -4.150797E-09 -2.870646E-09
       117  13  4.579344E+05  7.289331E+04  7.949764E+03  1.838329E+05 -7.251594E-10 -6.428409E-09
       117  14  4.601385E+05  6.798986E+04  1.401460E+04  1.787215E+05  2.323036E-09  1.103826E-08
       117  15  4.592706E+05  8.232181E+04  2.846030E+04  1.802735E+05  2.451604E-09  6.813442E-10
       117  16  5.893247E+05  1.208425E+05  4.155927E+04  2.184582E+05 -1.165219E-09 -7.226313E-10
       117  17  6.079895E+05  1.243022E+05  5.221743E+04  2.201161E+05  4.577943E-10 -6.195391E-10
       117  18  6.236235E+05  1.470374E+05  7.142251E+04  2.284377E+05  4.819653E-09  6.363261E-09
       117  19  3.265604E+05  2.494485E+04 -2.566113E+04  1.492140E+05  8.225290E+03 -2.804264E+03
       117  20  3.123090E+05  1.167911E+04 -2.418960E+04  1.373357E+05  1.555482E+04 -1.011442E+03
       117  21  2.949451E+05  1.760900E+04 -1.450306E+04  1.321213E+05  2.275345E+04  1.127120E+03
       117  22  4.579344E+05  7.289334E+04  7.949890E+03  1.838329E+05  7.604123E+03 -3.038621E+03
       117  23  4.601388E+05  6.798992E+04  1.401503E+04  1.787214E+05  1.514529E+04 -1.165813E+03
       117  24  4.592711E+05  8.232194E+04  2.846126E+04  1.802735E+05  2.255581E+04  1.052838E+03
       117  25  5.893248E+05  1.208425E+05  4.155939E+04  2.184582E+05  6.982813E+03 -3.273028E+03
       117  26  6.079898E+05  1.243023E+05  5.221785E+04  2.201161E+05  1.473566E+04 -1.320227E+03
       117  27  6.236241E+05  1.470376E+05  7.142345E+04  2.284377E+05  2.235811E+04  9.785306E+02
       118   1  2.663919E+05  9.464717E+03 -1.270035E+04  1.490524E+05 -2.987767E+04 -2.340795E+03
       118   2  2.538827E+05 -2.819931E+04  6.742904E+03  1.137098E+05 -5.881022E+04 -1.282053E+04
       118   3  2.822113E+05  6.229252E+04  8.052192E+04  5.648573E+04 -8.553656E+04 -2.914960E+04
       118   4  4.638164E+05  6.890551E+04  3.526880E+04  1.881737E+05 -2.787934E+04 -1.586516E+03
       118   5  4.505015E+05  5.699779E+04  5.954121E+04  1.793135E+05 -6.037354E+04 -1.341145E+04
       118   6  4.787119E+05  1.739234E+05  1.409572E+05  1.485765E+05 -9.066184E+04 -3.108773E+04
       118   7  6.612794E+05  1.283460E+05  8.323535E+04  2.273049E+05 -2.588031E+04 -8.320900E+02
       118   8  6.471574E+05  1.422007E+05  1.123358E+05  2.449369E+05 -6.193739E+04 -1.400263E+04
       118   9  6.752509E+05  2.855726E+05  2.013882E+05  2.406971E+05 -9.578883E+04 -3.302728E+04
       118  10  2.663910E+05  9.464472E+03 -1.270204E+04  1.490523E+05 -4.489066E-09 -2.246597E-09
       118  11  2.538789E+05 -2.820041E+04  6.736099E+03  1.137091E+05 -1.395954E-09 -4.573299E-09
       118  12  2.822032E+05  6.228965E+04  8.050659E+04  5.648372E+04 -9.966270E-10  5.604103E-10
       118  13  4.638156E+05  6.890530E+04  3.526734E+04  1.881737E+05  1.772728E-09 -7.536760E-10
       118  14  4.504976E+05  5.699662E+04  5.953403E+04  1.793128E+05  1.715621E-09 -2.418046E-09
       118  15  4.787028E+05  1.739202E+05  1.409400E+05  1.485742E+05  1.452919E-09  5.288983E-09
       118  16  6.612787E+05  1.283459E+05  8.323409E+04  2.273048E+05  5.639827E-09  1.107224E-08
       118  17  6.471532E+05  1.421994E+05  1.123282E+05  2.449362E+05  4.081896E-09  2.065941E-09
       118  18  6.752408E+05  2.855690E+05  2.013689E+05  2.406946E+05 -1.231954E-09  3.543258E-09
       118  19  2.663919E+05  9.464717E+03 -1.270035E+04  1.490524E+05  2.987767E+04  2.340795E+03
       118  20  2.538827E+05 -2.819931E+04  6.742904E+03  1.137098E+05  5.881022E+04  1.282053E+04
       118  21  2.822113E+05  6.229252E+04  8.052192E+04  5.648573E+04  8.553656E+04  2.914960E+04
       118  22  4.638164E+05  6.890551E+04  3.526880E+04  1.881737E+05  2.787934E+04  1.586516E+03
       118  23  4.505015E+05  5.699779E+04  5.954121E+04  1.793135E+05  6.037354E+04  1.341145E+04
       118  24  4.787119E+05  1.739234E+05  1.409572E+05  1.485765E+05  9.066184E+04  3.108773E+04
       118  25  6.612794E+05  1.283460E+05  8.323535E+04  2.273049E+05  2.588031E+04  8.320900E+02
       118  26  6.471574E+05  1.422007E+05  1.123358E+05  2.449369E+05  6.193739E+04  1.400263E+04
       118  27  6.752509E+05  2.855726E+05  2.013882E+05  2.406971E+05  9.578883E+04  3.302728E+04
       119   1 -2.312078E+02 -4.639277E+05 -2.122587E+03 -1.640220E+02 -5.682130E+01  1.467316E+02
       119   2 -6.148614E+02 -4.655757E+05 -2.980934E+03  2.906899E+02 -1.105106E+02  1.298142E+03
       119   3 -1.465220E+03 -4.674947E+05 -4.706894E+03 -2.913895E+02 -1.907683E+02  2.449522E+03
       119   4 -2.631433E+00 -4.629959E+05 -1.913321E+03 -2.302315E+02 -5.686217E+01  1.716788E+02
       119   5  5.552474E+01 -4.628590E+05 -2.347131E+03  2.878748E+02 -1.105795E+02  1.340300E+03
       119   6 -3.560047E+02 -4.629962E+05 -3.660502E+03 -2.308092E+02 -1.908651E+02  2.508894E+03
       119   7  2.259449E+02 -4.620640E+05 -1.704055E+03 -2.964411E+02 -5.690304E+01  1.966261E+02
       119   8  7.259103E+02 -4.601423E+05 -1.713329E+03  2.850596E+02 -1.106484E+02  1.382458E+03
       119   9  7.532087E+02 -4.584975E+05 -2.614111E+03 -1.702284E+02 -1.909618E+02  2.568267E+03
       119  10 -2.312078E+02 -4.639277E+05 -2.122587E+03 -1.640219E+02  3.717713E-10 -4.498033E-09
       119  11 -6.148618E+02 -4.655757E+05 -2.980937E+03  2.906900E+02 -6.876105E-10 -6.427525E-09
       119  12 -1.465221E+03 -4.674948E+05 -4.706905E+03 -2.913891E+02  2.694214E-09  3.258689E-09
       119  13 -2.631444E+00 -4.629959E+05 -1.913321E+03 -2.302315E+02 -7.979467E-10  5.424657E-09
       119  14  5.552424E+01 -4.628590E+05 -2.347134E+03  2.878749E+02  1.464200E-09 -3.945195E-09
       119  15 -3.560065E+02 -4.629962E+05 -3.660514E+03 -2.308088E+02  3.652033E-09 -7.586759E-09
       119  16  2.259449E+02 -4.620640E+05 -1.704055E+03 -2.964411E+02 -7.494948E-10  5.584650E-09
       119  17  7.259098E+02 -4.601423E+05 -1.713332E+03  2.850598E+02  1.689834E-09  7.123044E-09
       119  18  7.532069E+02 -4.584975E+05 -2.614124E+03 -1.702280E+02 -2.207098E-09 -7.121528E-10
       119  19 -2.312078E+02 -4.639277E+05 -2.122587E+03 -1.640220E+02  5.682130E+01 -1.467316E+02
       119  20 -6.148614E+02 -4.655757E+05 -2.980934E+03  2.906899E+02  1.105106E+02 -1.298142E+03
       119  21 -1.465220E+03 -4.674947E+05 -4.706894E+03 -2.913895E+02  1.907683E+02 -2.449522E+03
       119  22 -2.631433E+00 -4.629959E+05 -1.913321E+03 -2.302315E+02  5.686217E+01 -1.716788E+02
       119  23  5.552474E+01 -4.628590E+05 -2.347131E+03  2.878748E+02  1.105795E+02 -1.340300E+03
       119  24 -3.560047E+02 -4.629962E+05 -3.660502E+03 -2.308092E+02  1.908651E+02 -2.508894E+03
       119  25  2.259449E+02 -4.620640E+05 -1.704055E+03 -2.964411E+02  5.690304E+01 -1.966261E+02
       119  26  7.259103E+02 -4.601423E+05 -1.713329E+03  2.850596E+02  1.106484E+02 -1.382458E+03
       119  27  7.532087E+02 -4.584975E+05 -2.614111E+03 -1.702284E+02  1.909618E+02 -2.568267E+03
       120   1 -1.324591E+03 -4.696904E+05 -6.070447E+03  4.916486E+02 -2.462867E+02  3.177900E+03
       120   2 -1.543179E+03 -4.705779E+05 -9.487466E+03 -7.000236E+01 -3.310963E+02  7.042182E+03
       120   3 -6.872497E+03 -4.732510E+05 -1.670026E+04 -1.669613E+03 -3.962515E+02  1.090647E+04
       120   4  2.485516E+02 -4.633314E+05 -4.581010E+03 -2.284050E+02 -2.463837E+02  3.235128E+03
       120   5  4.637556E+02 -4.624406E+05 -7.587215E+03  2.867689E+02 -3.311644E+02  7.086718E+03
       120   6 -4.429529E+03 -4.633332E+05 -1.438033E+04 -2.360172E+02 -3.962775E+02  1.093833E+04
       120   7  1.821693E+03 -4.569724E+05 -3.091576E+03 -9.484659E+02 -2.464808E+02  3.292357E+03
       120   8  2.470686E+03 -4.543033E+05 -5.686968E+03  6.435450E+02 -3.312325E+02  7.131255E+03
       120   9 -1.986561E+03 -4.534153E+05 -1.206041E+04  1.197601E+03 -3.963033E+02  1.097018E+04
       120  10 -1.324594E+03 -4.696904E+05 -6.070466E+03  4.916492E+02 -8.694172E-10 -2.875025E-09
       120  11 -1.543192E+03 -4.705779E+05 -9.487560E+03 -7.000048E+01 -3.968247E-09 -7.455221E-09
       120  12 -6.872529E+03 -4.732511E+05 -1.670048E+04 -1.669609E+03  3.099508E-10  5.854638E-10
       120  13  2.485487E+02 -4.633314E+05 -4.581030E+03 -2.284043E+02  1.996271E-09 -3.240734E-09
       120  14  4.637420E+02 -4.624407E+05 -7.587310E+03  2.867708E+02 -2.713915E-09 -2.816919E-09
       120  15 -4.429561E+03 -4.633333E+05 -1.438056E+04 -2.360137E+02 -3.064394E-09 -9.470466E-09
       120  16  1.821690E+03 -4.569725E+05 -3.091596E+03 -9.484653E+02 -1.999973E-09  1.497565E-10
       120  17  2.470672E+03 -4.543033E+05 -5.687064E+03  6.435469E+02 -2.419597E-09  6.841229E-10
       120  18 -1.986593E+03 -4.534154E+05 -1.206064E+04  1.197605E+03  1.665626E-09  1.961568E-09
       120  19 -1.324591E+03 -4.696904E+05 -6.070447E+03  4.916486E+02  2.462867E+02 -3.177900E+03
       120  20 -1.543179E+03 -4.705779E+05 -9.487466E+03 -7.000236E+01  3.310963E+02 -7.042182E+03
       120  21 -6.872497E+03 -4.732510E+05 -1.670026E+04 -1.669613E+03  3.962515E+02 -1.090647E+04
       120  22  2.485516E+02 -4.633314E+05 -4.581010E+03 -2.284050E+02  2.463837E+02 -3.235128E+03
       120  23  4.637556E+02 -4.624406E+05 -7.587215E+03  2.867689E+02  3.311644E+02 -7.086718E+03
       120  24 -4.429529E+03 -4.633332E+05 -1.438033E+04 -2.360172E+02  3.962775E+02 -1.093833E+04
       120  25  1.821693E+03 -4.569724E+05 -3.091576E+03 -9.484659E+02  2.464808E+02 -3.292357E+03
       120  26  2.470686E+03 -4.543033E+05 -5.686968E+03  6.435450E+02  3.312325E+02 -7.131255E+03
       120  27 -1.986561E+03 -4.534153E+05 -1.206041E+04  1.197601E+03  3.963033E+02 -1.097018E+04
       121   1 -3.841427E+01 -4.784448E+05 -2.049058E+04  7.427377E+03 -4.964032E+02  1.345699E+04
       121   2  1.646380E+03 -4.717657E+05 -3.217115E+04 -5.908437E+03 -5.609508E+02  2.925588E+04
       121   3 -5.636945E+04 -4.820771E+05 -6.906864E+04 -2.032471E+04 -2.451387E+02  4.505515E+04
       121   4  2.890064E+03 -4.667004E+05 -1.774698E+04 -2.141366E+02 -4.968091E+02  1.360549E+04
       121   5  4.962943E+03 -4.582327E+05 -2.900771E+04  2.815522E+02 -5.604990E+02  2.915788E+04
       121   6 -5.262200E+04 -4.667128E+05 -6.531381E+04 -3.036731E+02 -2.431283E+02  4.471072E+04
       121   7  5.818751E+03 -4.549557E+05 -1.500336E+04 -7.855796E+03 -4.972186E+02  1.375399E+04
       121   8  8.279636E+03 -4.446995E+05 -2.584425E+04  6.471678E+03 -5.600491E+02  2.905989E+04
       121   9 -4.887306E+04 -4.513474E+05 -6.155878E+04  1.971786E+04 -2.411402E+02  4.436629E+04
       121  10 -3.846320E+01 -4.784450E+05 -2.049092E+04  7.427382E+03 -1.662957E-10 -3.110445E-09
       121  11  1.646150E+03 -4.717666E+05 -3.217276E+04 -5.908424E+03 -2.459572E-09 -7.746295E-09
       121  12 -5.636999E+04 -4.820793E+05 -6.907246E+04 -2.032470E+04 -1.916393E-09  1.496984E-09
       121  13  2.890014E+03 -4.667006E+05 -1.774733E+04 -2.141312E+02  1.210282E-09 -3.183481E-09
       121  14  4.962714E+03 -4.582336E+05 -2.900931E+04  2.815653E+02 -3.238173E-10 -4.970568E-09
       121  15 -5.262254E+04 -4.667149E+05 -6.531757E+04 -3.036643E+02  6.432351E-10 -6.808213E-09
       121  16  5.818700E+03 -4.549559E+05 -1.500371E+04 -7.855790E+03  4.442660E-10  2.124214E-09
       121  17  8.279409E+03 -4.447004E+05 -2.584584E+04  6.471691E+03  2.016951E-09  4.752056E-09
       121  18 -4.887359E+04 -4.513496E+05 -6.156248E+04  1.971787E+04 -5.271425E-10  3.945448E-09
       121  19 -3.841427E+01 -4.784448E+05 -2.049058E+04  7.427377E+03  4.964032E+02 -1.345699E+04
       121  20  1.646380E+03 -4.717657E+05 -3.217115E+04 -5.908437E+03  5.609508E+02 -2.925588E+04
       121  21 -5.636945E+04 -4.820771E+05 -6.906864E+04 -2.032471E+04  2.451387E+02 -4.505515E+04
       121  22  2.890064E+03 -4.667004E+05 -1.774698E+04 -2.141366E+02  4.968091E+02 -1.360549E+04
       121  23  4.962943E+03 -4.582327E+05 -2.900771E+04  2.815522E+02  5.604990E+02 -2.915788E+04
       121  24 -5.262200E+04 -4.667128E+05 -6.531381E+04 -3.036731E+02  2.431283E+02 -4.471072E+04
       121  25  5.818751E+03 -4.549557E+05 -1.500336E+04 -7.855796E+03  4.972186E+02 -1.375399E+04
       121  26  8.279636E+03 -4.446995E+05 -2.584425E+04  6.471678E+03  5.600491E+02 -2.905989E+04
       121  27 -4.887306E+04 -4.513474E+05 -6.155878E+04  1.971786E+04  2.411402E+02 -4.436629E+04
       122   1 -5.452019E+06 -1.781125E+06 -8.762754E+05 -2.023439E+06 -3.429747E+05 -8.231708E+04
       122   2 -5.270960E+06 -1.525687E+06 -6.102074E+05 -1.956350E+06 -2.226020E+05  7.459072E+04
       122   3 -5.121385E+06 -1.407472E+06 -4.908601E+05 -1.900139E+06 -7.513827E+04  1.604011E+05
       122   4 -2.794305E+06 -6.894375E+05 -1.719232E+05 -1.203810E+06 -1.268973E+05 -4.982987E+02
       122   5 -2.780465E+06 -5.662178E+05 -7.982722E+04 -1.223293E+06 -1.220722E+05  1.125583E+05
       122   6 -2.774851E+06 -5.569181E+05 -4.202161E+04 -1.253713E+06 -9.027585E+04  1.546113E+05
       122   7 -1.295911E+05  4.030893E+05  5.319966E+05 -3.808334E+05  9.019693E+04  8.178234E+04
       122   8 -2.835546E+05  3.939336E+05  4.502439E+05 -4.874389E+05 -2.110454E+04  1.507077E+05
       122   9 -4.225055E+05  2.941310E+05  4.065949E+05 -6.049979E+05 -1.054754E+05  1.487988E+05
       122  10 -5.452148E+06 -1.781164E+06 -8.765114E+05 -2.023462E+06 -1.251573E-09 -1.478234E-11
       122  11 -5.271015E+06 -1.525706E+06 -6.103115E+05 -1.956337E+06 -1.581793E-09  1.211884E-09
       122  12 -5.121398E+06 -1.407501E+06 -4.909189E+05 -1.900129E+06 -1.238047E-09  1.245573E-09
       122  13 -2.794322E+06 -6.894418E+05 -1.719536E+05 -1.203810E+06  1.668080E-09  4.268494E-10
       122  14 -2.780485E+06 -5.662354E+05 -7.987901E+04 -1.223282E+06 -1.572033E-09  4.059525E-09
       122  15 -2.774867E+06 -5.569460E+05 -4.208175E+04 -1.253701E+06 -1.460302E-09 -1.112635E-09
       122  16 -1.296017E+05  4.030800E+05  5.319687E+05 -3.808393E+05  1.461388E-09 -1.710677E-09
       122  17 -2.835611E+05  3.939091E+05  4.502004E+05 -4.874364E+05  1.165997E-09 -2.095213E-09
       122  18 -4.225234E+05  2.941043E+05  4.065325E+05 -6.049852E+05 -3.727276E-10  1.594627E-09
       122  19 -5.452019E+06 -1.781125E+06 -8.762754E+05 -2.023439E+06  3.429747E+05  8.231708E+04
       122  20 -5.270960E+06 -1.525687E+06 -6.102074E+05 -1.956350E+06  2.226020E+05 -7.459072E+04
       122  21 -5.121385E+06 -1.407472E+06 -4.908601E+05 -1.900139E+06  7.513827E+04 -1.604011E+05
       122  22 -2.794305E+06 -6.894375E+05 -1.719232E+05 -1.203810E+06  1.268973E+05  4.982987E+02
       122  23 -2.780465E+06 -5.662178E+05 -7.982722E+04 -1.223293E+06  1.220722E+05 -1.125583E+05
       122  24 -2.774851E+06 -5.569181E+05 -4.202161E+04 -1.253713E+06  9.027585E+04 -1.546113E+05
       122  25 -1.295911E+05  4.030893E+05  5.319966E+05 -3.808334E+05 -9.019693E+04 -8.178234E+04
       122  26 -2.835546E+05  3.939336E+05  4.502439E+05 -4.874389E+05  2.110454E+04 -1.507077E+05
       122  27 -4.225055E+05  2.941310E+05  4.065949E+05 -6.049979E+05  1.054754E+05 -1.487988E+05
       123   1 -4.979283E+06 -1.370445E+06 -4.526950E+05 -1.871668E+06 -7.794021E+04  1.520601E+05
       123   2 -4.802632E+06 -1.274821E+06 -3.915882E+05 -1.799699E+06 -5.751956E+04  1.527660E+05
       123   3 -4.597420E+06 -1.217982E+06 -3.454932E+05 -1.763871E+06 -3.487178E+04  1.475315E+05
       123   4 -2.768975E+06 -5.595066E+05 -3.176158E+04 -1.251801E+06 -8.312508E+04  1.500378E+05
       123   5 -2.783582E+06 -5.377566E+05 -1.679504E+04 -1.234916E+06 -7.234257E+04  1.471197E+05
       123   6 -2.767734E+06 -5.528513E+05 -9.130542E+03 -1.254177E+06 -5.934309E+04  1.382695E+05
       123   7 -5.535292E+05  2.518965E+05  3.889696E+05 -6.298596E+05 -8.832987E+04  1.480081E+05
       123   8 -7.602361E+05  1.996938E+05  3.578411E+05 -6.684085E+05 -8.721747E+04  1.414538E+05
       123   9 -9.345248E+05  1.125896E+05  3.271064E+05 -7.430773E+05 -8.389180E+04  1.289785E+05
       123  10 -4.979295E+06 -1.370471E+06 -4.527498E+05 -1.871658E+06  4.416622E-10  3.487447E-09
       123  11 -4.802642E+06 -1.274847E+06 -3.916382E+05 -1.799692E+06 -1.956469E-09  1.447253E-09
       123  12 -4.597427E+06 -1.218006E+06 -3.455363E+05 -1.763867E+06 -3.146811E-09  9.215745E-10
       123  13 -2.768988E+06 -5.595325E+05 -3.181679E+04 -1.251790E+06  4.613290E-10 -5.824512E-10
       123  14 -2.783593E+06 -5.377812E+05 -1.684547E+04 -1.234907E+06 -1.032462E-09  6.096343E-10
       123  15 -2.767743E+06 -5.528728E+05 -9.173020E+03 -1.254171E+06  2.053930E-10  9.153956E-10
       123  16 -5.535434E+05  2.518710E+05  3.889138E+05 -6.298490E+05 -2.192813E-09  7.369422E-10
       123  17 -7.602496E+05  1.996703E+05  3.577893E+05 -6.683985E+05 -1.172138E-09  4.346452E-10
       123  18 -9.345368E+05  1.125699E+05  3.270619E+05 -7.430686E+05  5.571246E-10  1.693832E-09
       123  19 -4.979283E+06 -1.370445E+06 -4.526950E+05 -1.871668E+06  7.794021E+04 -1.520601E+05
       123  20 -4.802632E+06 -1.274821E+06 -3.915882E+05 -1.799699E+06  5.751956E+04 -1.527660E+05
       123  21 -4.597420E+06 -1.217982E+06 -3.454932E+05 -1.763871E+06  3.487178E+04 -1.475315E+05
       123  22 -2.768975E+06 -5.595066E+05 -3.176158E+04 -1.251801E+06  8.312508E+04 -1.500378E+05
       123  23 -2.783582E+06 -5.377566E+05 -1.679504E+04 -1.234916E+06  7.234257E+04 -1.471197E+05
       123  24 -2.767734E+06 -5.528513E+05 -9.130542E+03 -1.254177E+06  5.934309E+04 -1.382695E+05
       123  25 -5.535292E+05  2.518965E+05  3.889696E+05 -6.298596E+05  8.832987E+04 -1.480081E+05
       123  26 -7.602361E+05  1.996938E+05  3.578411E+05 -6.684085E+05  8.721747E+04 -1.414538E+05
       123  27 -9.345248E+05  1.125896E+05  3.271064E+05 -7.430773E+05  8.389180E+04 -1.289785E+05
       124   1 -4.469154E+06 -1.171846E+06 -3.186116E+05 -1.728785E+06 -3.097722E+04  1.389021E+05
       124   2 -4.290780E+06 -1.083518E+06 -2.794370E+05 -1.655273E+06 -2.256871E+04  1.251034E+05
       124   3 -4.079198E+06 -1.028862E+06 -2.423542E+05 -1.619739E+06 -1.397035E+04  1.107454E+05
       124   4 -2.767139E+06 -5.530177E+05 -6.877770E+03 -1.254206E+06 -5.474009E+04  1.299188E+05
       124   5 -2.783654E+06 -5.359345E+05 -3.811896E+03 -1.235291E+06 -4.723669E+04  1.157970E+05
       124   6 -2.766829E+06 -5.523439E+05 -2.120517E+03 -1.254365E+06 -3.954469E+04  1.011162E+05
       124   7 -1.062042E+06  6.609357E+04  3.047578E+05 -7.783999E+05 -7.857328E+04  1.209092E+05
       124   8 -1.274115E+06  1.186828E+04  2.717358E+05 -8.143493E+05 -7.196918E+04  1.064663E+05
       124   9 -1.452638E+06 -7.566181E+04  2.380536E+05 -8.882652E+05 -6.517714E+04  9.146527E+04
       124  10 -4.469160E+06 -1.171867E+06 -3.186496E+05 -1.728782E+06 -1.462003E-09  1.369303E-09
       124  11 -4.290785E+06 -1.083535E+06 -2.794674E+05 -1.655271E+06 -3.374386E-10  7.278911E-10
       124  12 -4.079202E+06 -1.028876E+06 -2.423776E+05 -1.619738E+06  4.468256E-10 -3.684319E-10
       124  13 -2.767147E+06 -5.530366E+05 -6.915061E+03 -1.254201E+06  7.634855E-10 -1.014731E-11
       124  14 -2.783660E+06 -5.359494E+05 -3.841240E+03 -1.235287E+06  2.438518E-09 -6.940550E-10
       124  15 -2.766834E+06 -5.523553E+05 -2.142634E+03 -1.254362E+06 -3.817084E-10 -1.077766E-10
       124  16 -1.062053E+06  6.607625E+04  3.047188E+05 -7.783923E+05 -5.144546E-10  6.749949E-11
       124  17 -1.274124E+06  1.185475E+04  2.717048E+05 -8.143431E+05 -5.986038E-10  2.501602E-10
       124  18 -1.452644E+06 -7.567191E+04  2.380299E+05 -8.882604E+05 -6.948792E-10 -3.727807E-10
       124  19 -4.469154E+06 -1.171846E+06 -3.186116E+05 -1.728785E+06  3.097722E+04 -1.389021E+05
       124  20 -4.290780E+06 -1.083518E+06 -2.794370E+05 -1.655273E+06  2.256871E+04 -1.251034E+05
       124  21 -4.079198E+06 -1.028862E+06 -2.423542E+05 -1.619739E+06  1.397035E+04 -1.107454E+05
       124  22 -2.767139E+06 -5.530177E+05 -6.877770E+03 -1.254206E+06  5.474009E+04 -1.299188E+05
       124  23 -2.783654E+06 -5.359345E+05 -3.811896E+03 -1.235291E+06  4.723669E+04 -1.157970E+05
       124  24 -2.766829E+06 -5.523439E+05 -2.120517E+03 -1.254365E+06  3.954469E+04 -1.011162E+05
       124  25 -1.062042E+06  6.609357E+04  3.047578E+05 -7.783999E+05  7.857328E+04 -1.209092E+05
       124  26 -1.274115E+06  1.186828E+04  2.717358E+05 -8.143493E+05  7.196918E+04 -1.064663E+05
       124  27 -1.452638E+06 -7.566181E+04  2.380536E+05 -8.882652E+05  6.517714E+04 -9.146527E+04
       125   1 -3.950178E+06 -9.818089E+05 -2.172387E+05 -1.583967E+06 -1.019831E+04  1.017187E+05
       125   2 -3.769687E+06 -8.931546E+05 -1.810288E+05 -1.509702E+06 -3.614869E+03  8.623436E+04
       125   3 -3.555420E+06 -8.381876E+05 -1.452789E+05 -1.473934E+06  2.988019E+03  7.065942E+04
       125   4 -2.766662E+06 -5.523475E+05 -1.642371E+03 -1.254463E+06 -3.579349E+04  9.209065E+04
       125   5 -2.783453E+06 -5.353493E+05 -1.048393E+03 -1.235242E+06 -2.935741E+04  7.656296E+04
       125   6 -2.766482E+06 -5.520113E+05 -8.013615E+02 -1.254532E+06 -2.290211E+04  6.094460E+04
       125   7 -1.581674E+06 -1.227569E+05  2.139037E+05 -9.243731E+05 -6.144083E+04  8.244307E+04
       125   8 -1.796188E+06 -1.774516E+05  1.788999E+05 -9.603734E+05 -5.514385E+04  6.687510E+04
       125   9 -1.976878E+06 -2.657731E+05  1.436585E+05 -1.034865E+06 -4.882778E+04  5.121643E+04
       125  10 -3.950181E+06 -9.818201E+05 -2.172584E+05 -1.583966E+06 -6.916695E-10 -1.182426E-09
       125  11 -3.769689E+06 -8.931626E+05 -1.810428E+05 -1.509701E+06  1.495035E-09 -6.503018E-10
       125  12 -3.555421E+06 -8.381929E+05 -1.452883E+05 -1.473934E+06 -2.013041E-09 -9.771409E-10
       125  13 -2.766665E+06 -5.523569E+05 -1.660687E+03 -1.254461E+06  7.541175E-10 -4.412570E-10
       125  14 -2.783455E+06 -5.353559E+05 -1.061008E+03 -1.235241E+06  3.839254E-10 -3.548586E-10
       125  15 -2.766484E+06 -5.520154E+05 -8.093145E+02 -1.254531E+06 -5.344498E-09 -1.071578E-09
       125  16 -1.581680E+06 -1.227651E+05  2.138839E+05 -9.243691E+05  1.506000E-09  2.258637E-10
       125  17 -1.796193E+06 -1.774572E+05  1.788858E+05 -9.603704E+05 -7.875305E-11  2.896424E-11
       125  18 -1.976881E+06 -2.657765E+05  1.436491E+05 -1.034863E+06 -8.128308E-09 -1.320288E-09
       125  19 -3.950178E+06 -9.818089E+05 -2.172387E+05 -1.583967E+06  1.019831E+04 -1.017187E+05
       125  20 -3.769687E+06 -8.931546E+05 -1.810288E+05 -1.509702E+06  3.614869E+03 -8.623436E+04
       125  21 -3.555420E+06 -8.381876E+05 -1.452789E+05 -1.473934E+06 -2.988019E+03 -7.065942E+04
       125  22 -2.766662E+06 -5.523475E+05 -1.642371E+03 -1.254463E+06  3.579349E+04 -9.209065E+04
       125  23 -2.783453E+06 -5.353493E+05 -1.048393E+03 -1.235242E+06  2.935741E+04 -7.656296E+04
       125  24 -2.766482E+06 -5.520113E+05 -8.013615E+02 -1.254532E+06  2.290211E+04 -6.094460E+04
       125  25 -1.581674E+06 -1.227569E+05  2.139037E+05 -9.243731E+05  6.144083E+04 -8.244307E+04
       125  26 -1.796188E+06 -1.774516E+05  1.788999E+05 -9.603734E+05  5.514385E+04 -6.687510E+04
       125  27 -1.976878E+06 -2.657731E+05  1.436585E+05 -1.034865E+06  4.882778E+04 -5.121643E+04
       126   1 -3.425255E+06 -7.907965E+05 -1.204610E+05 -1.437883E+06  6.637856E+03  6.148286E+04
       126   2 -3.243379E+06 -7.018006E+05 -8.493051E+04 -1.363221E+06  1.313038E+04  4.578868E+04
       126   3 -3.027620E+06 -6.466797E+05 -4.978518E+04 -1.327352E+06  1.961922E+04  3.008571E+04
       126   4 -2.766415E+06 -5.520045E+05 -8.079519E+02 -1.254600E+06 -1.930218E+04  5.175453E+04
       126   5 -2.783291E+06 -5.349720E+05 -1.036208E+03 -1.235218E+06 -1.282602E+04  3.605983E+04
       126   6 -2.766325E+06 -5.518140E+05 -1.639879E+03 -1.254644E+06 -6.353751E+03  2.035633E+04
       126   7 -2.107115E+06 -3.131709E+05  1.188326E+05 -1.071134E+06 -4.527172E+04  4.201513E+04
       126   8 -2.322980E+06 -3.681237E+05  8.285275E+04 -1.107126E+06 -3.880292E+04  2.632328E+04
       126   9 -2.504959E+06 -4.569423E+05  4.650507E+04 -1.181907E+06 -3.233819E+04  1.062263E+04
       126  10 -3.425256E+06 -7.908006E+05 -1.204682E+05 -1.437884E+06 -8.639472E-09 -2.490330E-09
       126  11 -3.243379E+06 -7.018029E+05 -8.493478E+04 -1.363222E+06 -1.601070E-09  7.950100E-10
       126  12 -3.027620E+06 -6.466808E+05 -4.978761E+04 -1.327353E+06  4.561666E-10  2.894267E-10
       126  13 -2.766416E+06 -5.520075E+05 -8.136766E+02 -1.254599E+06 -4.216095E-09 -2.905857E-10
       126  14 -2.783291E+06 -5.349734E+05 -1.038956E+03 -1.235218E+06 -3.598304E-10  8.867100E-10
       126  15 -2.766325E+06 -5.518145E+05 -1.640732E+03 -1.254644E+06 -1.477599E-10 -8.556456E-10
       126  16 -2.107118E+06 -3.131733E+05  1.188254E+05 -1.071132E+06 -2.504923E-09  6.783411E-10
       126  17 -2.322982E+06 -3.681249E+05  8.284862E+04 -1.107125E+06  2.240823E-09  8.484866E-10
       126  18 -2.504960E+06 -4.569427E+05  4.650289E+04 -1.181906E+06 -1.857471E-10 -5.903202E-10
       126  19 -3.425255E+06 -7.907965E+05 -1.204610E+05 -1.437883E+06 -6.637856E+03 -6.148286E+04
       126  20 -3.243379E+06 -7.018006E+05 -8.493051E+04 -1.363221E+06 -1.313038E+04 -4.578868E+04
       126  21 -3.027620E+06 -6.466797E+05 -4.978518E+04 -1.327352E+06 -1.961922E+04 -3.008571E+04
       126  22 -2.766415E+06 -5.520045E+05 -8.079519E+02 -1.254600E+06  1.930218E+04 -5.175453E+04
       126  23 -2.783291E+06 -5.349720E+05 -1.036208E+03 -1.235218E+06  1.282602E+04 -3.605983E+04
       126  24 -2.766325E+06 -5.518140E+05 -1.639879E+03 -1.254644E+06  6.353751E+03 -2.035633E+04
       126  25 -2.107115E+06 -3.131709E+05  1.188326E+05 -1.071134E+06  4.527172E+04 -4.201513E+04
       126  26 -2.322980E+06 -3.681237E+05  8.285275E+04 -1.107126E+06  3.880292E+04 -2.632328E+04
       126  27 -2.504959E+06 -4.569423E+05  4.650507E+04 -1.181907E+06  3.233819E+04 -1.062263E+04
       127   1 -2.896855E+06 -5.991503E+05 -2.534346E+04 -1.291182E+06  2.345426E+04  2.094708E+04
       127   2 -2.714441E+06 -5.101075E+05  8.936613E+03 -1.216377E+06  3.088001E+04  5.703164E+03
       127   3 -2.498311E+06 -4.551327E+05  4.206262E+04 -1.180444E+06  3.821662E+04 -9.299277E+03
       127   4 -2.766360E+06 -5.518011E+05 -2.135606E+03 -1.254686E+06 -2.568455E+03  1.120050E+04
       127   5 -2.783173E+06 -5.348052E+05 -3.795018E+03 -1.235213E+06  5.246555E+03 -3.898524E+03
       127   6 -2.766395E+06 -5.519617E+05 -6.922072E+03 -1.254632E+06  1.297190E+04 -1.875617E+04
       127   7 -2.635845E+06 -5.044491E+05  2.107497E+04 -1.218182E+06 -2.859727E+04  1.451600E+03
       127   8 -2.851900E+06 -5.595020E+05 -1.652410E+04 -1.254048E+06 -2.038398E+04 -1.349915E+04
       127   9 -3.034402E+06 -6.487836E+05 -5.590665E+04 -1.328789E+06 -1.226116E+04 -2.820872E+04
       127  10 -2.896856E+06 -5.991509E+05 -2.534533E+04 -1.291183E+06  6.588448E-10 -1.178729E-10
       127  11 -2.714442E+06 -5.101078E+05  8.934751E+03 -1.216377E+06  1.278801E-10  3.937301E-11
       127  12 -2.498313E+06 -4.551332E+05  4.205971E+04 -1.180443E+06 -2.294139E-10 -1.624446E-11
       127  13 -2.766360E+06 -5.518012E+05 -2.135854E+03 -1.254686E+06 -3.878494E-11 -6.469046E-10
       127  14 -2.783174E+06 -5.348052E+05 -3.795098E+03 -1.235213E+06 -2.411661E-09 -1.519391E-09
       127  15 -2.766395E+06 -5.519621E+05 -6.923048E+03 -1.254631E+06  3.312096E-10  3.434174E-10
       127  16 -2.635846E+06 -5.044493E+05  2.107343E+04 -1.218182E+06  8.350924E-10 -6.224066E-10
       127  17 -2.851900E+06 -5.595023E+05 -1.652522E+04 -1.254048E+06 -1.792905E-10 -1.106816E-09
       127  18 -3.034402E+06 -6.487845E+05 -5.590843E+04 -1.328789E+06  2.133948E-10 -1.686254E-10
       127  19 -2.896855E+06 -5.991503E+05 -2.534346E+04 -1.291182E+06 -2.345426E+04 -2.094708E+04
       127  20 -2.714441E+06 -5.101075E+05  8.936613E+03 -1.216377E+06 -3.088001E+04 -5.703164E+03
       127  21 -2.498311E+06 -4.551327E+05  4.206262E+04 -1.180444E+06 -3.821662E+04  9.299277E+03
       127  22 -2.766360E+06 -5.518011E+05 -2.135606E+03 -1.254686E+06  2.568455E+03 -1.120050E+04
       127  23 -2.783173E+06 -5.348052E+05 -3.795018E+03 -1.235213E+06 -5.246555E+03  3.898524E+03
       127  24 -2.766395E+06 -5.519617E+05 -6.922072E+03 -1.254632E+06 -1.297190E+04  1.875617E+04
       127  25 -2.635845E+06 -5.044491E+05  2.107497E+04 -1.218182E+06  2.859727E+04 -1.451600E+03
       127  26 -2.851900E+06 -5.595020E+05 -1.652410E+04 -1.254048E+06  2.038398E+04  1.349915E+04
       127  27 -3.034402E+06 -6.487836E+05 -5.590665E+04 -1.328789E+06  1.226116E+04  2.820872E+04
       128   1 -2.367406E+06 -4.078724E+05  6.483651E+04 -1.144858E+06  4.332517E+04 -1.784360E+04
       128   2 -2.186314E+06 -3.185151E+05  9.477574E+04 -1.068241E+06  5.236905E+04 -3.066440E+04
       128   3 -1.973244E+06 -2.663738E+05  1.210036E+05 -1.029403E+06  6.032139E+04 -4.055350E+04
       128   4 -2.766848E+06 -5.518209E+05 -9.215780E+03 -1.254786E+06  1.768531E+04 -2.745080E+04
       128   5 -2.782832E+06 -5.358712E+05 -1.688487E+04 -1.234732E+06  3.150968E+04 -3.848699E+04
       128   6 -2.767832E+06 -5.580974E+05 -3.207122E+04 -1.252478E+06  4.424073E+04 -4.659037E+04
       128   7 -3.166118E+06 -6.957533E+05 -8.327028E+04 -1.364646E+06 -7.936629E+03 -3.705139E+04
       128   8 -3.378976E+06 -7.531936E+05 -1.285576E+05 -1.401074E+06  1.067181E+04 -4.630145E+04
       128   9 -3.561767E+06 -8.497638E+05 -1.851742E+05 -1.475288E+06  2.818201E+04 -5.261886E+04
       128  10 -2.367408E+06 -4.078732E+05  6.483238E+04 -1.144857E+06  4.053972E-10  2.354015E-10
       128  11 -2.186317E+06 -3.185168E+05  9.476882E+04 -1.068239E+06  7.805102E-12  2.055139E-10
       128  12 -1.973248E+06 -2.663765E+05  1.209937E+05 -1.029401E+06 -1.803336E-11  2.818181E-10
       128  13 -2.766849E+06 -5.518218E+05 -9.217781E+03 -1.254785E+06 -6.781829E-10  1.694316E-10
       128  14 -2.782834E+06 -5.358731E+05 -1.688951E+04 -1.234731E+06  3.381726E-10  9.500081E-11
       128  15 -2.767834E+06 -5.581002E+05 -3.207897E+04 -1.252476E+06  3.994741E-10  4.588024E-10
       128  16 -3.166118E+06 -6.957548E+05 -8.327298E+04 -1.364646E+06  1.702594E-10  2.660811E-10
       128  17 -3.378977E+06 -7.531959E+05 -1.285618E+05 -1.401074E+06 -1.142055E-09 -1.945902E-10
       128  18 -3.561768E+06 -8.497670E+05 -1.851808E+05 -1.475287E+06  1.946486E-10  3.307694E-10
       128  19 -2.367406E+06 -4.078724E+05  6.483651E+04 -1.144858E+06 -4.332517E+04  1.784360E+04
       128  20 -2.186314E+06 -3.185151E+05  9.477574E+04 -1.068241E+06 -5.236905E+04  3.066440E+04
       128  21 -1.973244E+06 -2.663738E+05  1.210036E+05 -1.029403E+06 -6.032139E+04  4.055350E+04
       128  22 -2.766848E+06 -5.518209E+05 -9.215780E+03 -1.254786E+06 -1.768531E+04  2.745080E+04
       128  23 -2.782832E+06 -5.358712E+05 -1.688487E+04 -1.234732E+06 -3.150968E+04  3.848699E+04
       128  24 -2.767832E+06 -5.580974E+05 -3.207122E+04 -1.252478E+06 -4.424073E+04  4.659037E+04
       128  25 -3.166118E+06 -6.957533E+05 -8.327028E+04 -1.364646E+06  7.936629E+03  3.705139E+04
       128  26 -3.378976E+06 -7.531936E+05 -1.285576E+05 -1.401074E+06 -1.067181E+04  4.630145E+04
       128  27 -3.561767E+06 -8.497638E+05 -1.851742E+05 -1.475288E+06 -2.818201E+04  5.261886E+04
       129   1 -1.838414E+06 -2.241929E+05  1.374074E+05 -1.004933E+06  7.310523E+04 -4.485647E+04
       129   2 -1.687131E+06 -1.228772E+05  1.584447E+05 -8.800182E+05  5.551391E+04 -4.594238E+04
       129   3 -1.530472E+06 -1.288312E+05  1.703802E+05 -7.699348E+05  2.462423E+04 -1.167319E+04
       129   4 -2.773278E+06 -5.558354E+05 -4.245517E+04 -1.254976E+06  5.202876E+04 -5.277037E+04
       129   5 -2.779838E+06 -5.636897E+05 -8.055139E+04 -1.222376E+06  9.226503E+04 -3.216314E+04
       129   6 -2.792619E+06 -6.904248E+05 -1.737546E+05 -1.204630E+06  1.191919E+05  2.383449E+04
       129   7 -3.707235E+06 -8.874131E+05 -2.223551E+05 -1.504674E+06  3.098628E+04 -6.067230E+04
       129   8 -3.871293E+06 -1.004326E+06 -3.196070E+05 -1.564145E+06  1.289456E+05 -1.841628E+04
       129   9 -4.053116E+06 -1.251695E+06 -5.179795E+05 -1.638435E+06  2.135450E+05  5.922782E+04
       129  10 -1.838421E+06 -2.241965E+05  1.373936E+05 -1.004931E+06  5.762120E-10  3.610456E-10
       129  11 -1.687135E+06 -1.228803E+05  1.584349E+05 -8.800162E+05  4.903717E-11  1.465851E-10
       129  12 -1.530472E+06 -1.288315E+05  1.703788E+05 -7.699345E+05  3.246573E-10  4.990654E-10
       129  13 -2.773281E+06 -5.558391E+05 -4.246549E+04 -1.254974E+06  5.214833E-10  7.401715E-10
       129  14 -2.779848E+06 -5.636931E+05 -8.056937E+04 -1.222374E+06  9.485369E-10  3.809238E-10
       129  15 -2.792634E+06 -6.904292E+05 -1.737825E+05 -1.204632E+06 -2.628856E-10  2.238878E-10
       129  16 -3.707237E+06 -8.874173E+05 -2.223638E+05 -1.504673E+06 -3.176403E-10  7.058433E-10
       129  17 -3.871311E+06 -1.004331E+06 -3.196390E+05 -1.564143E+06 -5.555636E-10  6.571666E-10
       129  18 -4.053166E+06 -1.251711E+06 -5.180725E+05 -1.638445E+06 -2.513768E-09  1.133764E-10
       129  19 -1.838414E+06 -2.241929E+05  1.374074E+05 -1.004933E+06 -7.310523E+04  4.485647E+04
       129  20 -1.687131E+06 -1.228772E+05  1.584447E+05 -8.800182E+05 -5.551391E+04  4.594238E+04
       129  21 -1.530472E+06 -1.288312E+05  1.703802E+05 -7.699348E+05 -2.462423E+04  1.167319E+04
       129  22 -2.773278E+06 -5.558354E+05 -4.245517E+04 -1.254976E+06 -5.202876E+04  5.277037E+04
       129  23 -2.779838E+06 -5.636897E+05 -8.055139E+04 -1.222376E+06 -9.226503E+04  3.216314E+04
       129  24 -2.792619E+06 -6.904248E+05 -1.737546E+05 -1.204630E+06 -1.191919E+05 -2.383449E+04
       129  25 -3.707235E+06 -8.874131E+05 -2.223551E+05 -1.504674E+06 -3.098628E+04  6.067230E+04
       129  26 -3.871293E+06 -1.004326E+06 -3.196070E+05 -1.564145E+06 -1.289456E+05  1.841628E+04
       129  27 -4.053116E+06 -1.251695E+06 -5.179795E+05 -1.638435E+06 -2.135450E+05 -5.922782E+04
       130   1  9.342584E+04  1.824663E+04  3.617886E+04  1.660985E+04  5.552741E+04  2.438652E+03
       130   2  1.013114E+05 -5.425225E+04 -5.947652E+03  3.408387E+03  3.791829E+04  7.341527E+03
       130   3  1.315141E+05 -4.680987E+04 -1.661680E+04 -2.068517E+04  2.031067E+04  7.044635E+03
       130   4  3.054892E+05  7.101143E+04  8.815953E+04 -1.037512E+04  6.041071E+04  2.438620E+03
       130   5  2.940480E+05 -6.704991E+03  3.913351E+04 -4.912271E+03  3.942481E+04  7.341485E+03
       130   6  3.055012E+05 -3.908968E+03  2.390151E+04 -1.034087E+04  1.844104E+04  7.044240E+03
       130   7  5.175952E+05  1.237757E+05  1.401374E+05 -3.736934E+04  6.529567E+04  2.438164E+03
       130   8  4.868190E+05  4.083989E+04  8.421219E+04 -1.323553E+04  4.093179E+04  7.341401E+03
       130   9  4.795165E+05  3.899020E+04  6.441785E+04  6.344343E+00  1.657090E+04  7.043782E+03
       130  10  9.342253E+04  1.824580E+04  3.617306E+04  1.660975E+04  3.106758E-09 -7.791718E-10
       130  11  1.013099E+05 -5.425269E+04 -5.950455E+03  3.408163E+03  5.324932E-09 -7.565575E-10
       130  12  1.315137E+05 -4.681004E+04 -1.661767E+04 -2.068528E+04  4.462727E-09 -1.255383E-09
       130  13  3.054853E+05  7.101045E+04  8.815266E+04 -1.037524E+04 -6.954061E-10  4.790489E-10
       130  14  2.940464E+05 -6.705466E+03  3.913049E+04 -4.912504E+03 -1.624103E-09  1.324688E-09
       130  15  3.055009E+05 -3.909113E+03  2.390078E+04 -1.034097E+04  1.837602E-09  3.247426E-09
       130  16  5.175906E+05  1.237745E+05  1.401294E+05 -3.736946E+04 -3.025082E-09 -2.385929E-10
       130  17  4.868172E+05  4.083939E+04  8.420895E+04 -1.323577E+04 -5.190781E-09 -1.288105E-09
       130  18  4.795162E+05  3.899007E+04  6.441724E+04  6.250362E+00 -5.306006E-09  1.369080E-10
       130  19  9.342584E+04  1.824663E+04  3.617886E+04  1.660985E+04 -5.552741E+04 -2.438652E+03
       130  20  1.013114E+05 -5.425225E+04 -5.947652E+03  3.408387E+03 -3.791829E+04 -7.341527E+03
       130  21  1.315141E+05 -4.680987E+04 -1.661680E+04 -2.068517E+04 -2.031067E+04 -7.044635E+03
       130  22  3.054892E+05  7.101143E+04  8.815953E+04 -1.037512E+04 -6.041071E+04 -2.438620E+03
       130  23  2.940480E+05 -6.704991E+03  3.913351E+04 -4.912271E+03 -3.942481E+04 -7.341485E+03
       130  24  3.055012E+05 -3.908968E+03  2.390151E+04 -1.034087E+04 -1.844104E+04 -7.044240E+03
       130  25  5.175952E+05  1.237757E+05  1.401374E+05 -3.736934E+04 -6.529567E+04 -2.438164E+03
       130  26  4.868190E+05  4.083989E+04  8.421219E+04 -1.323553E+04 -4.093179E+04 -7.341401E+03
       130  27  4.795165E+05  3.899020E+04  6.441785E+04  6.344343E+00 -1.657090E+04 -7.043782E+03
       131   1  1.467638E+05 -3.207150E+04 -1.672719E+04 -8.447260E+03  1.511586E+04  5.873792E+03
       131   2  1.644111E+05 -3.400593E+04 -2.148800E+04 -4.422673E+03  1.017390E+04  5.316230E+03
       131   3  1.844353E+05 -2.908297E+04 -2.131332E+04 -1.134351E+04  5.231706E+03  4.473833E+03
       131   4  3.009481E+05  5.968553E+03  1.933270E+04 -1.036350E+04  1.485014E+04  5.873572E+03
       131   5  2.997454E+05 -6.295137E+02  1.009496E+04 -4.890121E+03  9.722398E+03  5.316046E+03
       131   6  3.009508E+05 -3.388405E+02  5.920764E+03 -1.036197E+04  4.594566E+03  4.473689E+03
       131   7  4.551542E+05  4.400694E+04  5.539097E+04 -1.228022E+04  1.458435E+04  5.873354E+03
       131   8  4.350965E+05  3.274561E+04  4.167668E+04 -5.357671E+03  9.270795E+03  5.315862E+03
       131   9  4.174789E+05  2.840433E+04  3.315393E+04 -9.380241E+03  3.957306E+03  4.473544E+03
       131  10  1.467636E+05 -3.207160E+04 -1.672768E+04 -8.447332E+03 -8.121182E-09 -6.434435E-10
       131  11  1.644110E+05 -3.400599E+04 -2.148825E+04 -4.422717E+03 -4.309489E-09 -4.610436E-11
       131  12  1.844353E+05 -2.908300E+04 -2.131341E+04 -1.134352E+04 -2.374142E-09 -1.558240E-09
       131  13  3.009478E+05  5.968457E+03  1.933222E+04 -1.036357E+04 -7.852049E-10  4.316826E-09
       131  14  2.997453E+05 -6.295694E+02  1.009473E+04 -4.890162E+03  6.382608E-10  1.854934E-09
       131  15  3.009508E+05 -3.388677E+02  5.920686E+03 -1.036198E+04 -1.152737E-09 -9.267462E-10
       131  16  4.551540E+05  4.400684E+04  5.539051E+04 -1.228029E+04  8.592063E-09 -1.929821E-10
       131  17  4.350964E+05  3.274555E+04  4.167646E+04 -5.357711E+03  6.430294E-09 -1.540130E-09
       131  18  4.174788E+05  2.840430E+04  3.315386E+04 -9.380255E+03  7.559158E-10 -1.164170E-09
       131  19  1.467638E+05 -3.207150E+04 -1.672719E+04 -8.447260E+03 -1.511586E+04 -5.873792E+03
       131  20  1.644111E+05 -3.400593E+04 -2.148800E+04 -4.422673E+03 -1.017390E+04 -5.316230E+03
       131  21  1.844353E+05 -2.908297E+04 -2.131332E+04 -1.134351E+04 -5.231706E+03 -4.473833E+03
       131  22  3.009481E+05  5.968553E+03  1.933270E+04 -1.036350E+04 -1.485014E+04 -5.873572E+03
       131  23  2.997454E+05 -6.295137E+02  1.009496E+04 -4.890121E+03 -9.722398E+03 -5.316046E+03
       131  24  3.009508E+05 -3.388405E+02  5.920764E+03 -1.036197E+04 -4.594566E+03 -4.473689E+03
       131  25  4.551542E+05  4.400694E+04  5.539097E+04 -1.228022E+04 -1.458435E+04 -5.873354E+03
       131  26  4.350965E+05  3.274561E+04  4.167668E+04 -5.357671E+03 -9.270795E+03 -5.315862E+03
       131  27  4.174789E+05  2.840433E+04  3.315393E+04 -9.380241E+03 -3.957306E+03 -4.473544E+03
       132   1  2.036034E+05 -2.340265E+04 -1.796540E+04 -1.028650E+04  4.216955E+03  3.929703E+03
       132   2  2.221862E+05 -1.933849E+04 -1.567704E+04 -4.922451E+03  2.952593E+03  3.076133E+03
       132   3  2.410866E+05 -1.468986E+04 -1.241818E+04 -1.045757E+04  1.688099E+03  2.207863E+03
       132   4  3.004876E+05  4.801442E+02  4.591261E+03 -1.035219E+04  3.668923E+03  3.929595E+03
       132   5  3.003284E+05 -6.805285E+01  2.555253E+03 -4.902623E+03  2.394847E+03  3.076058E+03
       132   6  3.004886E+05 -3.007988E+01  1.496452E+03 -1.035214E+04  1.120677E+03  2.207823E+03
       132   7  3.973804E+05  2.436228E+04  2.714729E+04 -1.041788E+04  3.120807E+03  3.929487E+03
       132   8  3.784763E+05  1.920195E+04  2.078714E+04 -4.882793E+03  1.837031E+03  3.075983E+03
       132   9  3.598938E+05  1.462945E+04  1.541085E+04 -1.024670E+04  5.532003E+02  2.207783E+03
       132  10  2.036034E+05 -2.340268E+04 -1.796546E+04 -1.028651E+04 -3.631273E-09 -1.704769E-09
       132  11  2.221861E+05 -1.933850E+04 -1.567708E+04 -4.922459E+03 -3.099244E-10 -3.470794E-10
       132  12  2.410866E+05 -1.468987E+04 -1.241820E+04 -1.045757E+04  1.132938E-10 -4.726704E-10
       132  13  3.004875E+05  4.801240E+02  4.591207E+03 -1.035220E+04 -1.114743E-09 -1.011457E-09
       132  14  3.003284E+05 -6.806456E+01  2.555225E+03 -4.902629E+03 -1.647405E-09 -7.758680E-11
       132  15  3.004886E+05 -3.008545E+01  1.496440E+03 -1.035214E+04 -7.335249E-10 -5.155273E-10
       132  16  3.973804E+05  2.436226E+04  2.714724E+04 -1.041789E+04  1.839051E-09 -3.988924E-10
       132  17  3.784763E+05  1.920194E+04  2.078711E+04 -4.882797E+03  2.737714E-10 -5.361219E-11
       132  18  3.598938E+05  1.462945E+04  1.541084E+04 -1.024670E+04 -1.385040E-09 -4.748656E-10
       132  19  2.036034E+05 -2.340265E+04 -1.796540E+04 -1.028650E+04 -4.216955E+03 -3.929703E+03
       132  20  2.221862E+05 -1.933849E+04 -1.567704E+04 -4.922451E+03 -2.952593E+03 -3.076133E+03
       132  21  2.410866E+05 -1.468986E+04 -1.241818E+04 -1.045757E+04 -1.688099E+03 -2.207863E+03
       132  22  3.004876E+05  4.801442E+02  4.591261E+03 -1.035219E+04 -3.668923E+03 -3.929595E+03
       132  23  3.003284E+05 -6.805285E+01  2.555253E+03 -4.902623E+03 -2.394847E+03 -3.076058E+03
       132  24  3.004886E+05 -3.007988E+01  1.496452E+03 -1.035214E+04 -1.120677E+03 -2.207823E+03
       132  25  3.973804E+05  2.436228E+04  2.714729E+04 -1.041788E+04 -3.120807E+03 -3.929487E+03
       132  26  3.784763E+05  1.920195E+04  2.078714E+04 -4.882793E+03 -1.837031E+03 -3.075983E+03
       132  27  3.598938E+05  1.462945E+04  1.541085E+04 -1.024670E+04 -5.532003E+02 -2.207783E+03
       133   1  2.605895E+05 -9.780738E+03 -8.082145E+03 -1.036377E+04  1.444350E+03  1.700068E+03
       133   2  2.792590E+05 -5.223451E+03 -4.232027E+03 -4.922919E+03  1.097581E+03  8.324107E+02
       133   3  2.979882E+05 -6.160645E+02 -1.433667E+02 -1.035805E+04  7.507650E+02 -3.577413E+01
       133   4  3.004313E+05  3.315550E+01  1.157983E+03 -1.034702E+04  8.821391E+02  1.700042E+03
       133   5  3.004018E+05 -9.686761E+00  7.008043E+02 -4.909038E+03  5.349961E+02  8.323936E+02
       133   6  3.004315E+05 -2.417895E+00  4.823556E+02 -1.034702E+04  1.878165E+02 -3.578133E+01
       133   7  3.402744E+05  9.846937E+03  1.039801E+04 -1.033026E+04  3.198929E+02  1.700016E+03
       133   8  3.215450E+05  5.204046E+03  5.633607E+03 -4.895157E+03 -2.760752E+01  8.323764E+02
       133   9  3.028748E+05  6.112284E+02  1.108079E+03 -1.033599E+04 -3.751343E+02 -3.578855E+01
       133  10  2.605895E+05 -9.780742E+03 -8.082155E+03 -1.036377E+04 -4.184552E-10 -8.126549E-11
       133  11  2.792590E+05 -5.223452E+03 -4.232031E+03 -4.922920E+03 -7.614460E-10  9.753567E-10
       133  12  2.979882E+05 -6.160646E+02 -1.433678E+02 -1.035805E+04 -1.805525E-09 -1.961778E-10
       133  13  3.004312E+05  3.315218E+01  1.157976E+03 -1.034702E+04  1.096818E-09 -2.034690E-10
       133  14  3.004018E+05 -9.687582E+00  7.008024E+02 -4.909039E+03 -3.292777E-09  6.054118E-10
       133  15  3.004315E+05 -2.417906E+00  4.823556E+02 -1.034702E+04 -6.792178E-10  1.525707E-10
       133  16  3.402744E+05  9.846934E+03  1.039800E+04 -1.033026E+04  2.069112E-09 -4.259880E-10
       133  17  3.215450E+05  5.204045E+03  5.633605E+03 -4.895157E+03 -1.211502E-09  2.178405E-10
       133  18  3.028748E+05  6.112284E+02  1.108078E+03 -1.033599E+04 -9.928127E-10  5.191566E-10
       133  19  2.605895E+05 -9.780738E+03 -8.082145E+03 -1.036377E+04 -1.444350E+03 -1.700068E+03
       133  20  2.792590E+05 -5.223451E+03 -4.232027E+03 -4.922919E+03 -1.097581E+03 -8.324107E+02
       133  21  2.979882E+05 -6.160645E+02 -1.433667E+02 -1.035805E+04 -7.507650E+02  3.577413E+01
       133  22  3.004313E+05  3.315550E+01  1.157983E+03 -1.034702E+04 -8.821391E+02 -1.700042E+03
       133  23  3.004018E+05 -9.686761E+00  7.008043E+02 -4.909038E+03 -5.349961E+02 -8.323936E+02
       133  24  3.004315E+05 -2.417895E+00  4.823556E+02 -1.034702E+04 -1.878165E+02  3.578133E+01
       133  25  3.402744E+05  9.846937E+03  1.039801E+04 -1.033026E+04 -3.198929E+02 -1.700016E+03
       133  26  3.215450E+05  5.204046E+03  5.633607E+03 -4.895157E+03  2.760752E+01 -8.323764E+02
       133  27  3.028748E+05  6.112284E+02  1.108079E+03 -1.033599E+04  3.751343E+02  3.578855E+01
       134   1  3.175250E+05  4.227293E+03  4.476927E+03 -1.034879E+04  6.681102E+02 -5.412594E+02
       134   2  3.362133E+05  8.823332E+03  8.781341E+03 -4.905123E+03  4.560000E+02 -1.409601E+03
       134   3  3.549378E+05  1.344319E+04  1.323016E+04 -1.034087E+04  2.439372E+02 -2.277571E+03
       134   4  3.004262E+05 -2.438219E-01  4.320695E+02 -1.034779E+04  1.050837E+02 -5.412688E+02
       134   5  3.004082E+05 -5.822190E+00  4.279341E+02 -4.908067E+03 -1.067850E+02 -1.409626E+03
       134   6  3.004259E+05  1.239669E+01  5.680577E+02 -1.034780E+04 -3.186000E+02 -2.277612E+03
       134   7  2.833278E+05 -4.227801E+03 -3.612808E+03 -1.034680E+04 -4.579273E+02 -5.412781E+02
       134   8  2.646043E+05 -8.835067E+03 -7.925558E+03 -4.911011E+03 -6.695378E+02 -1.409652E+03
       134   9  2.459168E+05 -1.341860E+04 -1.209424E+04 -1.035472E+04 -8.810881E+02 -2.277653E+03
       134  10  3.175250E+05  4.227292E+03  4.476926E+03 -1.034879E+04 -4.180801E-10 -5.800553E-10
       134  11  3.362133E+05  8.823330E+03  8.781337E+03 -4.905122E+03 -6.385804E-10  3.697752E-10
       134  12  3.549378E+05  1.344318E+04  1.323015E+04 -1.034087E+04 -1.093659E-09  7.748910E-10
       134  13  3.004262E+05 -2.441395E-01  4.320689E+02 -1.034779E+04  2.394018E-09 -2.558143E-10
       134  14  3.004082E+05 -5.824327E+00  4.279304E+02 -4.908067E+03 -3.352666E-10 -1.306952E-10
       134  15  3.004259E+05  1.239109E+01  5.680478E+02 -1.034780E+04 -3.185384E-09  9.223633E-10
       134  16  2.833278E+05 -4.227801E+03 -3.612809E+03 -1.034680E+04 -9.374307E-11 -2.648961E-11
       134  17  2.646043E+05 -8.835069E+03 -7.925563E+03 -4.911012E+03  2.596291E-09 -6.063561E-10
       134  18  2.459168E+05 -1.341861E+04 -1.209425E+04 -1.035472E+04  2.087089E-09  1.100978E-09
       134  19  3.175250E+05  4.227293E+03  4.476927E+03 -1.034879E+04 -6.681102E+02  5.412594E+02
       134  20  3.362133E+05  8.823332E+03  8.781341E+03 -4.905123E+03 -4.560000E+02  1.409601E+03
       134  21  3.549378E+05  1.344319E+04  1.323016E+04 -1.034087E+04 -2.439372E+02  2.277571E+03
       134  22  3.004262E+05 -2.438219E-01  4.320695E+02 -1.034779E+04 -1.050837E+02  5.412688E+02
       134  23  3.004082E+05 -5.822190E+00  4.279341E+02 -4.908067E+03  1.067850E+02  1.409626E+03
       134  24  3.004259E+05  1.239669E+01  5.680577E+02 -1.034780E+04  3.186000E+02  2.277612E+03
       134  25  2.833278E+05 -4.227801E+03 -3.612808E+03 -1.034680E+04  4.579273E+02  5.412781E+02
       134  26  2.646043E+05 -8.835067E+03 -7.925558E+03 -4.911011E+03  6.695378E+02  1.409652E+03
       134  27  2.459168E+05 -1.341860E+04 -1.209424E+04 -1.035472E+04  8.810881E+02  2.277653E+03
       135   1  3.745367E+05  1.826529E+04  1.803431E+04 -1.030892E+04  1.360274E+02 -2.785795E+03
       135   2  3.932255E+05  2.286348E+04  2.278323E+04 -4.885508E+03 -4.334113E+02 -3.654559E+03
       135   3  4.120604E+05  2.771199E+04  2.796717E+04 -1.037384E+04 -1.002722E+03 -4.507749E+03
       135   4  3.004494E+05 -1.447945E+01  6.947621E+02 -1.035498E+04 -4.321819E+02 -2.785855E+03
       135   5  3.003767E+05 -3.130355E+01  1.121864E+03 -4.899075E+03 -9.914528E+02 -3.654660E+03
       135   6  3.004484E+05  2.005487E+02  1.977065E+03 -1.035501E+04 -1.550579E+03 -4.507889E+03
       135   7  2.263671E+05 -1.829464E+04 -1.664516E+04 -1.040104E+04 -1.000324E+03 -2.785915E+03
       135   8  2.075359E+05 -2.292670E+04 -2.054009E+04 -4.912640E+03 -1.549411E+03 -3.654760E+03
       135   9  1.888479E+05 -2.731177E+04 -2.401388E+04 -1.033618E+04 -2.098338E+03 -4.508028E+03
       135  10  3.745367E+05  1.826528E+04  1.803429E+04 -1.030892E+04  5.754078E-10  8.999805E-10
       135  11  3.932255E+05  2.286346E+04  2.278321E+04 -4.885510E+03  2.556427E-09 -1.249657E-11
       135  12  4.120604E+05  2.771197E+04  2.796713E+04 -1.037384E+04  3.603617E-10 -7.996354E-10
       135  13  3.004494E+05 -1.448784E+01  6.947472E+02 -1.035498E+04  1.123036E-09  8.783868E-10
       135  14  3.003767E+05 -3.131815E+01  1.121837E+03 -4.899078E+03 -6.774834E-10 -4.233082E-10
       135  15  3.004484E+05  2.005262E+02  1.977023E+03 -1.035502E+04  5.192255E-10 -6.773297E-10
       135  16  2.263671E+05 -1.829465E+04 -1.664517E+04 -1.040104E+04 -6.062515E-10  9.709350E-10
       135  17  2.075359E+05 -2.292671E+04 -2.054012E+04 -4.912645E+03 -3.159333E-09 -8.700203E-10
       135  18  1.888479E+05 -2.731179E+04 -2.401393E+04 -1.033619E+04 -1.135032E-09 -2.603170E-10
       135  19  3.745367E+05  1.826529E+04  1.803431E+04 -1.030892E+04 -1.360274E+02  2.785795E+03
       135  20  3.932255E+05  2.286348E+04  2.278323E+04 -4.885508E+03  4.334113E+02  3.654559E+03
       135  21  4.120604E+05  2.771199E+04  2.796717E+04 -1.037384E+04  1.002722E+03  4.507749E+03
       135  22  3.004494E+05 -1.447945E+01  6.947621E+02 -1.035498E+04  4.321819E+02  2.785855E+03
       135  23  3.003767E+05 -3.130355E+01  1.121864E+03 -4.899075E+03  9.914528E+02  3.654660E+03
       135  24  3.004484E+05  2.005487E+02  1.977065E+03 -1.035501E+04  1.550579E+03  4.507889E+03
       135  25  2.263671E+05 -1.829464E+04 -1.664516E+04 -1.040104E+04  1.000324E+03  2.785915E+03
       135  26  2.075359E+05 -2.292670E+04 -2.054009E+04 -4.912640E+03  1.549411E+03  3.654760E+03
       135  27  1.888479E+05 -2.731177E+04 -2.401388E+04 -1.033618E+04  2.098338E+03  4.508028E+03
       136   1  4.319215E+05  3.223016E+04  3.321291E+04 -9.934426E+03 -1.305259E+03 -5.054822E+03
       136   2  4.502534E+05  3.674533E+04  3.934289E+04 -5.064883E+03 -3.693991E+03 -5.895663E+03
       136   3  4.696619E+05  4.423083E+04  4.777466E+04 -1.115560E+04 -6.082720E+03 -6.432260E+03
       136   4  3.006467E+05 -1.486740E+02  2.540203E+03 -1.036556E+04 -1.948442E+03 -5.055013E+03
       136   5  3.001247E+05 -2.734057E+02  4.313598E+03 -4.885748E+03 -4.139445E+03 -5.895878E+03
       136   6  3.006447E+05  2.538246E+03  8.251880E+03 -1.036634E+04 -6.330371E+03 -6.432468E+03
       136   7  1.693878E+05 -3.252873E+04 -2.813368E+04 -1.079660E+04 -2.591490E+03 -5.055204E+03
       136   8  1.500168E+05 -3.729374E+04 -3.071722E+04 -4.706657E+03 -4.584793E+03 -5.896092E+03
       136   9  1.316538E+05 -3.915636E+04 -3.127284E+04 -9.577291E+03 -6.577955E+03 -6.432676E+03
       136  10  4.319215E+05  3.223013E+04  3.321286E+04 -9.934432E+03  5.870649E-10 -1.002749E-09
       136  11  4.502533E+05  3.674529E+04  3.934280E+04 -5.064901E+03  2.542710E-09 -4.463917E-10
       136  12  4.696618E+05  4.423078E+04  4.777451E+04 -1.115564E+04 -2.611169E-10 -1.884581E-10
       136  13  3.006467E+05 -1.487025E+02  2.540148E+03 -1.036557E+04  9.810485E-11 -5.047584E-10
       136  14  3.001247E+05 -2.734477E+02  4.313501E+03 -4.885767E+03  1.002985E-09 -3.790957E-10
       136  15  3.006446E+05  2.538191E+03  8.251727E+03 -1.036637E+04 -2.160568E-09 -2.493958E-10
       136  16  1.693878E+05 -3.252875E+04 -2.813374E+04 -1.079661E+04 -1.071254E-09  1.761166E-10
       136  17  1.500167E+05 -3.729378E+04 -3.071733E+04 -4.706679E+03  1.562195E-09  4.524757E-10
       136  18  1.316537E+05 -3.915642E+04 -3.127300E+04 -9.577325E+03  6.352255E-10 -3.388515E-10
       136  19  4.319215E+05  3.223016E+04  3.321291E+04 -9.934426E+03  1.305259E+03  5.054822E+03
       136  20  4.502534E+05  3.674533E+04  3.934289E+04 -5.064883E+03  3.693991E+03  5.895663E+03
       136  21  4.696619E+05  4.423083E+04  4.777466E+04 -1.115560E+04  6.082720E+03  6.432260E+03
       136  22  3.006467E+05 -1.486740E+02  2.540203E+03 -1.036556E+04  1.948442E+03  5.055013E+03
       136  23  3.001247E+05 -2.734057E+02  4.313598E+03 -4.885748E+03  4.139445E+03  5.895878E+03
       136  24  3.006447E+05  2.538246E+03  8.251880E+03 -1.036634E+04  6.330371E+03  6.432468E+03
       136  25  1.693878E+05 -3.252873E+04 -2.813368E+04 -1.079660E+04  2.591490E+03  5.055204E+03
       136  26  1.500168E+05 -3.729374E+04 -3.071722E+04 -4.706657E+03  4.584793E+03  5.896092E+03
       136  27  1.316538E+05 -3.915636E+04 -3.127284E+04 -9.577291E+03  6.577955E+03  6.432676E+03
       137   1  4.914639E+05  4.488070E+04  5.417322E+04 -5.894719E+03 -5.901895E+03 -7.647004E+03
       137   2  5.053390E+05  4.834909E+04  6.525114E+04 -8.411644E+03 -1.845682E+04 -7.902340E+03
       137   3  5.296303E+05  8.678572E+04  9.324895E+04 -2.181587E+04 -3.101530E+04 -2.604658E+03
       137   4  3.025888E+05 -1.676019E+03  1.020025E+04 -1.034483E+04 -7.862844E+03 -7.647857E+03
       137   5  2.976884E+05 -2.869667E+03  1.669351E+04 -4.909584E+03 -1.681460E+04 -7.901844E+03
       137   6  3.025822E+05  3.028578E+04  3.760913E+04 -1.036153E+04 -2.576945E+04 -2.602310E+03
       137   7  1.137465E+05 -4.823519E+04 -3.377511E+04 -1.479359E+04 -9.823201E+03 -7.648681E+03
       137   8  9.007760E+04 -5.409143E+04 -3.186703E+04 -1.408708E+03 -1.517292E+04 -7.901329E+03
       137   9  7.558141E+04 -2.621747E+04 -1.803429E+04  1.088603E+03 -2.052551E+04 -2.599768E+03
       137  10  4.914639E+05  4.488063E+04  5.417304E+04 -5.894756E+03  3.340121E-10 -5.868570E-10
       137  11  5.053386E+05  4.834893E+04  6.525038E+04 -8.411761E+03  1.817781E-09 -1.528103E-09
       137  12  5.296293E+05  8.678546E+04  9.324713E+04 -2.181593E+04 -2.920303E-10 -4.737441E-10
       137  13  3.025887E+05 -1.676098E+03  1.020002E+04 -1.034488E+04 -1.166844E-09 -1.829979E-09
       137  14  2.976881E+05 -2.869810E+03  1.669286E+04 -4.909691E+03  1.802966E-09  9.031426E-10
       137  15  3.025815E+05  3.028559E+04  3.760787E+04 -1.036159E+04 -2.117250E-09 -1.598650E-10
       137  16  1.137464E+05 -4.823528E+04 -3.377540E+04 -1.479365E+04  1.251442E-09 -5.361788E-10
       137  17  9.007734E+04 -5.409156E+04 -3.186758E+04 -1.408804E+03  4.050864E-10  6.534063E-10
       137  18  7.558096E+04 -2.621759E+04 -1.803509E+04  1.088560E+03 -6.729271E-10 -6.407892E-10
       137  19  4.914639E+05  4.488070E+04  5.417322E+04 -5.894719E+03  5.901895E+03  7.647004E+03
       137  20  5.053390E+05  4.834909E+04  6.525114E+04 -8.411644E+03  1.845682E+04  7.902340E+03
       137  21  5.296303E+05  8.678572E+04  9.324895E+04 -2.181587E+04  3.101530E+04  2.604658E+03
       137  22  3.025888E+05 -1.676019E+03  1.020025E+04 -1.034483E+04  7.862844E+03  7.647857E+03
       137  23  2.976884E+05 -2.869667E+03  1.669351E+04 -4.909584E+03  1.681460E+04  7.901844E+03
       137  24  3.025822E+05  3.028578E+04  3.760913E+04 -1.036153E+04  2.576945E+04  2.602310E+03
       137  25  1.137465E+05 -4.823519E+04 -3.377511E+04 -1.479359E+04  9.823201E+03  7.648681E+03
       137  26  9.007760E+04 -5.409143E+04 -3.186703E+04 -1.408708E+03  1.517292E+04  7.901329E+03
       137  27  7.558141E+04 -2.621747E+04 -1.803429E+04  1.088603E+03  2.052551E+04  2.599768E+03
       138   1  2.569550E+06  1.036528E+07  2.549092E+06 -1.422005E+06  1.021501E+05  2.427789E+05
       138   2  1.866342E+06  7.837124E+06  1.819197E+06 -6.984195E+05  2.856497E+05  4.820645E+04
       138   3  1.296088E+06  5.393398E+06  1.251507E+06 -1.401863E+06  2.043892E+05 -1.470624E+05
       138   4  5.746688E+04  2.192682E+05  7.207152E+04 -1.367786E+06  1.031260E+05  3.591869E+04
       138   5 -1.023391E+04  1.993095E+05  3.952944E+04 -6.537916E+05  2.861202E+05  1.565944E+04
       138   6  2.600576E+04  2.285327E+05  5.010274E+04 -1.367889E+06  2.029152E+05 -6.082214E+03
       138   7 -2.462161E+06 -9.833843E+06 -2.412290E+06 -1.314252E+06  1.040775E+05 -1.676140E+05
       138   8 -1.890919E+06 -7.385144E+06 -1.744082E+06 -6.095908E+05  2.865899E+05 -1.649440E+04
       138   9 -1.245944E+06 -4.911818E+06 -1.153027E+06 -1.334105E+06  2.014495E+05  1.337410E+05
       138  10  2.569523E+06  1.036522E+07  2.548963E+06 -1.422025E+06  5.852670E-10  1.405433E-09
       138  11  1.866254E+06  7.837100E+06  1.819039E+06 -6.984305E+05 -1.650749E-09  9.570820E-09
       138  12  1.296038E+06  5.393364E+06  1.251388E+06 -1.401839E+06  3.846771E-09 -9.270933E-10
       138  13  5.745510E+04  2.192639E+05  7.204907E+04 -1.367789E+06  1.475432E-09 -2.235616E-09
       138  14 -1.032190E+04  1.992872E+05  3.937510E+04 -6.537952E+05 -8.233559E-09  3.436513E-09
       138  15  2.596154E+04  2.285216E+05  5.002531E+04 -1.367888E+06 -6.098175E-10 -3.665474E-09
       138  16 -2.462180E+06 -9.833876E+06 -2.412364E+06 -1.314238E+06  5.950625E-11 -1.482943E-09
       138  17 -1.891008E+06 -7.385166E+06 -1.744237E+06 -6.095870E+05  3.469392E-09  5.094695E-09
       138  18 -1.245993E+06 -4.911848E+06 -1.153137E+06 -1.334127E+06 -4.331836E-09  1.273245E-08
       138  19  2.569550E+06  1.036528E+07  2.549092E+06 -1.422005E+06 -1.021501E+05 -2.427789E+05
       138  20  1.866342E+06  7.837124E+06  1.819197E+06 -6.984195E+05 -2.856497E+05 -4.820645E+04
       138  21  1.296088E+06  5.393398E+06  1.251507E+06 -1.401863E+06 -2.043892E+05  1.470624E+05
       138  22  5.746688E+04  2.192682E+05  7.207152E+04 -1.367786E+06 -1.031260E+05 -3.591869E+04
       138  23 -1.023391E+04  1.993095E+05  3.952944E+04 -6.537916E+05 -2.861202E+05 -1.565944E+04
       138  24  2.600576E+04  2.285327E+05  5.010274E+04 -1.367889E+06 -2.029152E+05  6.082214E+03
       138  25 -2.462161E+06 -9.833843E+06 -2.412290E+06 -1.314252E+06 -1.040775E+05  1.676140E+05
       138  26 -1.890919E+06 -7.385144E+06 -1.744082E+06 -6.095908E+05 -2.865899E+05  1.649440E+04
       138  27 -1.245944E+06 -4.911818E+06 -1.153027E+06 -1.334105E+06 -2.014495E+05 -1.337410E+05
       139   1  6.631464E+05  2.791344E+06  6.526288E+05 -1.397584E+06  1.014480E+05 -7.958152E+04
       139   2  3.564658E+04  3.266681E+05  9.760374E+04 -6.501243E+05  5.334046E+03 -1.181066E+05
       139   3 -5.191785E+05 -2.144909E+06 -4.229603E+05 -1.336696E+06 -9.092403E+04 -1.565053E+05
       139   4  2.943045E+04  2.198735E+05  5.322593E+04 -1.369223E+06  1.007024E+05 -1.691170E+04
       139   5  1.095285E+04  2.262575E+05  7.416706E+04 -6.520405E+05  4.594502E+03 -5.544766E+04
       139   6  6.552781E+04  2.199969E+05  1.298329E+05 -1.368805E+06 -9.167485E+04 -9.400445E+04
       139   7 -6.047492E+05 -2.345508E+06 -5.466098E+05 -1.340956E+06  9.996068E+04  4.550127E+04
       139   8 -1.373947E+04  1.258648E+05  5.074444E+04 -6.539565E+05  3.854505E+03  7.201239E+03
       139   9  6.498412E+05  2.590078E+06  6.822608E+05 -1.401016E+06 -9.243052E+04 -3.126591E+04
       139  10  6.631336E+05  2.791335E+06  6.525977E+05 -1.397578E+06  2.292302E-09  4.132973E-10
       139  11  3.564281E+04  3.266531E+05  9.757750E+04 -6.501238E+05  5.024586E-09  1.542653E-08
       139  12 -5.191940E+05 -2.144938E+06 -4.230222E+05 -1.336708E+06 -3.705935E-09 -3.556318E-09
       139  13  2.941949E+04  2.198705E+05  5.320635E+04 -1.369222E+06  9.351645E-10 -1.092490E-08
       139  14  1.095200E+04  2.262542E+05  7.416124E+04 -6.520403E+05  9.594416E-09  5.822704E-09
       139  15  6.551638E+04  2.199852E+05  1.298004E+05 -1.368812E+06  8.945896E-09 -4.176003E-09
       139  16 -6.047606E+05 -2.345513E+06 -5.466325E+05 -1.340959E+06 -3.442732E-09 -3.261801E-10
       139  17 -1.373950E+04  1.258647E+05  5.074431E+04 -6.539565E+05 -4.556615E-09  7.792057E-09
       139  18  6.498318E+05  2.590075E+06  6.822429E+05 -1.401018E+06 -2.952173E-09  1.799549E-08
       139  19  6.631464E+05  2.791344E+06  6.526288E+05 -1.397584E+06 -1.014480E+05  7.958152E+04
       139  20  3.564658E+04  3.266681E+05  9.760374E+04 -6.501243E+05 -5.334046E+03  1.181066E+05
       139  21 -5.191785E+05 -2.144909E+06 -4.229603E+05 -1.336696E+06  9.092403E+04  1.565053E+05
       139  22  2.943045E+04  2.198735E+05  5.322593E+04 -1.369223E+06 -1.007024E+05  1.691170E+04
       139  23  1.095285E+04  2.262575E+05  7.416706E+04 -6.520405E+05 -4.594502E+03  5.544766E+04
       139  24  6.552781E+04  2.199969E+05  1.298329E+05 -1.368805E+06  9.167485E+04  9.400445E+04
       139  25 -6.047492E+05 -2.345508E+06 -5.466098E+05 -1.340956E+06 -9.996068E+04 -4.550127E+04
       139  26 -1.373947E+04  1.258648E+05  5.074444E+04 -6.539565E+05 -3.854505E+03 -7.201239E+03
       139  27  6.498412E+05  2.590078E+06  6.822608E+05 -1.401016E+06  9.243052E+04  3.126591E+04
       140   1 -1.218878E+06 -4.684099E+06 -9.955867E+05 -1.393081E+06 -1.916608E+05 -2.581025E+05
       140   2 -1.878378E+06 -7.219007E+06 -1.487382E+06 -5.622718E+05 -2.769608E+05 -2.228457E+05
       140   3 -2.011067E+06 -9.602600E+06 -1.867668E+06 -1.160475E+06 -1.001439E+05 -1.861623E+05
       140   4  1.925467E+03  2.565126E+05  1.603992E+05 -1.368459E+06 -1.931620E+05 -1.200825E+05
       140   5 -4.654639E+04  1.653417E+05  2.491486E+05 -6.534973E+05 -2.764819E+05 -2.545353E+05
       140   6  4.584650E+05  2.474965E+05  5.662167E+05 -1.366090E+06 -9.908275E+04 -3.874539E+05
       140   7  1.221012E+06  5.219778E+06  1.314799E+06 -1.343551E+06 -1.946452E+05  1.903812E+04
       140   8  1.781406E+06  7.600275E+06  1.981943E+06 -7.457067E+05 -2.759974E+05 -2.865887E+05
       140   9  2.920886E+06  1.018686E+07  2.993072E+06 -1.574819E+06 -9.789914E+04 -5.919331E+05
       140  10 -1.218935E+06 -4.684181E+06 -9.957824E+05 -1.393121E+06  8.809106E-10 -1.746885E-09
       140  11 -1.878474E+06 -7.219081E+06 -1.487621E+06 -5.623218E+05  4.159422E-09  1.054601E-08
       140  12 -2.011087E+06 -9.602640E+06 -1.867753E+06 -1.160490E+06  9.933334E-10  2.055032E-10
       140  13  1.881452E+03  2.564870E+05  1.603018E+05 -1.368478E+06 -6.305056E-09 -1.003278E-08
       140  14 -4.664597E+04  1.652515E+05  2.488829E+05 -6.535540E+05  5.472392E-09  3.433883E-09
       140  15  4.584140E+05  2.473326E+05  5.659158E+05 -1.366121E+06  1.585269E-10 -9.421520E-10
       140  16  1.220971E+06  5.219767E+06  1.314727E+06 -1.343548E+06  2.777930E-09  1.751489E-09
       140  17  1.781303E+06  7.600167E+06  1.981646E+06 -7.457701E+05  3.100120E-09  2.470505E-09
       140  18  2.920783E+06  1.018648E+07  2.992405E+06 -1.574866E+06 -3.043567E-10  2.912427E-09
       140  19 -1.218878E+06 -4.684099E+06 -9.955867E+05 -1.393081E+06  1.916608E+05  2.581025E+05
       140  20 -1.878378E+06 -7.219007E+06 -1.487382E+06 -5.622718E+05  2.769608E+05  2.228457E+05
       140  21 -2.011067E+06 -9.602600E+06 -1.867668E+06 -1.160475E+06  1.001439E+05  1.861623E+05
       140  22  1.925467E+03  2.565126E+05  1.603992E+05 -1.368459E+06  1.931620E+05  1.200825E+05
       140  23 -4.654639E+04  1.653417E+05  2.491486E+05 -6.534973E+05  2.764819E+05  2.545353E+05
       140  24  4.584650E+05  2.474965E+05  5.662167E+05 -1.366090E+06  9.908275E+04  3.874539E+05
       140  25  1.221012E+06  5.219778E+06  1.314799E+06 -1.343551E+06  1.946452E+05 -1.903812E+04
       140  26  1.781406E+06  7.600275E+06  1.981943E+06 -7.457067E+05  2.759974E+05  2.865887E+05
       140  27  2.920886E+06  1.018686E+07  2.993072E+06 -1.574819E+06  9.789914E+04  5.919331E+05
       141   1 -5.823006E+05 -2.548121E+05 -1.295842E+05 -2.460715E+05 -6.261606E+04 -1.828843E+04
       141   2 -5.498049E+05 -2.031443E+05 -7.926025E+04 -2.329953E+05 -3.873543E+04  2.950903E+03
       141   3 -5.242754E+05 -1.751143E+05 -5.497809E+04 -2.205399E+05 -1.195778E+04  1.648645E+04
       141   4 -2.580633E+05 -1.089959E+05 -4.286482E+04 -1.320785E+05 -2.982157E+04 -5.976773E+03
       141   5 -2.540540E+05 -8.302235E+04 -2.061367E+04 -1.377238E+05 -2.323617E+04  8.768619E+03
       141   6 -2.535792E+05 -7.725402E+04 -1.068895E+04 -1.439921E+05 -1.375636E+04  1.581024E+04
       141   7  6.627374E+04  3.683875E+04  4.384791E+04 -1.802876E+04  2.990836E+03  6.344881E+03
       141   8  4.178713E+04  3.711299E+04  3.802938E+04 -4.240857E+04 -7.729135E+03  1.459005E+04
       141   9  1.719798E+04  2.061497E+04  3.359924E+04 -6.741227E+04 -1.555579E+04  1.513371E+04
       141  10 -5.823049E+05 -2.548135E+05 -1.295922E+05 -2.460725E+05 -3.239658E-09  2.845033E-10
       141  11 -5.498065E+05 -2.031447E+05 -7.926309E+04 -2.329952E+05 -1.224772E-08 -1.138712E-09
       141  12 -5.242757E+05 -1.751147E+05 -5.497887E+04 -2.205397E+05 -1.162571E-08 -1.700039E-09
       141  13 -2.580642E+05 -1.089962E+05 -4.286656E+04 -1.320786E+05 -4.218547E-09 -2.857820E-10
       141  14 -2.540546E+05 -8.302257E+04 -2.061483E+04 -1.377237E+05 -8.449387E-09 -6.705989E-10
       141  15 -2.535794E+05 -7.725434E+04 -1.068978E+04 -1.439919E+05 -4.456149E-09 -1.198206E-10
       141  16  6.627372E+04  3.683870E+04  4.384782E+04 -1.802878E+04 -3.800972E-09 -3.556420E-10
       141  17  4.178701E+04  3.711275E+04  3.802886E+04 -4.240848E+04 -1.920616E-09  9.157081E-10
       141  18  1.719766E+04  2.061465E+04  3.359835E+04 -6.741208E+04  6.197961E-09  3.129886E-09
       141  19 -5.823006E+05 -2.548121E+05 -1.295842E+05 -2.460715E+05  6.261606E+04  1.828843E+04
       141  20 -5.498049E+05 -2.031443E+05 -7.926025E+04 -2.329953E+05  3.873543E+04 -2.950903E+03
       141  21 -5.242754E+05 -1.751143E+05 -5.497809E+04 -2.205399E+05  1.195778E+04 -1.648645E+04
       141  22 -2.580633E+05 -1.089959E+05 -4.286482E+04 -1.320785E+05  2.982157E+04  5.976773E+03
       141  23 -2.540540E+05 -8.302235E+04 -2.061367E+04 -1.377238E+05  2.323617E+04 -8.768619E+03
       141  24 -2.535792E+05 -7.725402E+04 -1.068895E+04 -1.439921E+05  1.375636E+04 -1.581024E+04
       141  25  6.627374E+04  3.683875E+04  4.384791E+04 -1.802876E+04 -2.990836E+03 -6.344881E+03
       141  26  4.178713E+04  3.711299E+04  3.802938E+04 -4.240857E+04  7.729135E+03 -1.459005E+04
       141  27  1.719798E+04  2.061497E+04  3.359924E+04 -6.741227E+04  1.555579E+04 -1.513371E+04
       142   1 -4.999830E+05 -1.666101E+05 -4.729643E+04 -2.152325E+05 -1.041578E+04  1.619843E+04
       142   2 -4.669450E+05 -1.488014E+05 -3.588542E+04 -2.029053E+05 -5.804787E+03  1.646584E+04
       142   3 -4.307751E+05 -1.371921E+05 -2.803397E+04 -1.952567E+05 -8.490871E+02  1.581492E+04
       142   4 -2.523184E+05 -7.628197E+04 -7.906232E+03 -1.440538E+05 -1.226632E+04  1.550286E+04
       142   5 -2.539022E+05 -7.208078E+04 -4.091383E+03 -1.422035E+05 -9.716716E+03  1.499678E+04
       142   6 -2.519460E+05 -7.367005E+04 -2.201367E+03 -1.450322E+05 -6.822664E+03  1.357246E+04
       142   7 -4.590949E+03  1.405186E+04  3.148195E+04 -7.284903E+04 -1.411763E+04  1.480700E+04
       142   8 -4.081004E+04  4.645023E+03  2.770222E+04 -8.148182E+04 -1.363006E+04  1.352718E+04
       142   9 -7.307955E+04 -1.014362E+04  2.363180E+04 -9.479329E+04 -1.279813E+04  1.132929E+04
       142  10 -4.999832E+05 -1.666104E+05 -4.729713E+04 -2.152323E+05 -2.078913E-08 -5.688995E-09
       142  11 -4.669451E+05 -1.488017E+05 -3.588600E+04 -2.029053E+05 -3.926336E-08 -1.265047E-08
       142  12 -4.307751E+05 -1.371923E+05 -2.803445E+04 -1.952567E+05 -7.467110E-08 -2.074131E-08
       142  13 -2.523186E+05 -7.628227E+04 -7.906966E+03 -1.440536E+05  3.695378E-09 -1.477609E-09
       142  14 -2.539024E+05 -7.208104E+04 -4.091983E+03 -1.422034E+05  1.022064E-08 -1.290245E-08
       142  15 -2.519461E+05 -7.367026E+04 -2.201801E+03 -1.450321E+05 -9.434152E-10 -2.886674E-08
       142  16 -4.591222E+03  1.405157E+04  3.148116E+04 -7.284886E+04  2.752919E-08  1.237387E-08
       142  17 -4.081029E+04  4.644777E+03  2.770153E+04 -8.148167E+04  5.320029E-08  2.747949E-08
       142  18 -7.307976E+04 -1.014381E+04  2.363125E+04 -9.479317E+04  5.467620E-08  3.348450E-08
       142  19 -4.999830E+05 -1.666101E+05 -4.729643E+04 -2.152325E+05  1.041578E+04 -1.619843E+04
       142  20 -4.669450E+05 -1.488014E+05 -3.588542E+04 -2.029053E+05  5.804787E+03 -1.646584E+04
       142  21 -4.307751E+05 -1.371921E+05 -2.803397E+04 -1.952567E+05  8.490871E+02 -1.581492E+04
       142  22 -2.523184E+05 -7.628197E+04 -7.906232E+03 -1.440538E+05  1.226632E+04 -1.550286E+04
       142  23 -2.539022E+05 -7.208078E+04 -4.091383E+03 -1.422035E+05  9.716716E+03 -1.499678E+04
       142  24 -2.519460E+05 -7.367005E+04 -2.201367E+03 -1.450322E+05  6.822664E+03 -1.357246E+04
       142  25 -4.590949E+03  1.405186E+04  3.148195E+04 -7.284903E+04  1.411763E+04 -1.480700E+04
       142  26 -4.081004E+04  4.645023E+03  2.770222E+04 -8.148182E+04  1.363006E+04 -1.352718E+04
       142  27 -7.307955E+04 -1.014362E+04  2.363180E+04 -9.479329E+04  1.279813E+04 -1.132929E+04
       143   1 -4.087131E+05 -1.294018E+05 -2.407831E+04 -1.892165E+05  4.375882E+01  1.434382E+04
       143   2 -3.758162E+05 -1.145475E+05 -1.816386E+04 -1.768575E+05  1.752963E+03  1.188481E+04
       143   3 -3.386762E+05 -1.042548E+05 -1.280473E+04 -1.695108E+05  3.503035E+03  9.316276E+03
       143   4 -2.518078E+05 -7.360484E+04 -1.641991E+03 -1.450232E+05 -5.936846E+03  1.209893E+04
       143   5 -2.539389E+05 -7.126036E+04 -8.855003E+02 -1.425492E+05 -4.473589E+03  9.547909E+03
       143   6 -2.517797E+05 -7.342874E+04 -4.894759E+02 -1.450878E+05 -2.969514E+03  6.887358E+03
       143   7 -9.487567E+04 -1.780520E+04  2.079430E+04 -1.008193E+05 -1.191904E+04  9.853450E+03
       143   8 -1.320462E+05 -2.797189E+04  1.639271E+04 -1.082347E+05 -1.070139E+04  7.210539E+03
       143   9 -1.648760E+05 -4.260225E+04  1.182559E+04 -1.206619E+05 -9.442931E+03  4.458115E+03
       143  10 -4.087131E+05 -1.294020E+05 -2.407870E+04 -1.892165E+05  5.446612E-08  3.049441E-08
       143  11 -3.758162E+05 -1.145476E+05 -1.816413E+04 -1.768575E+05  4.189960E-08  2.479547E-08
       143  12 -3.386763E+05 -1.042549E+05 -1.280491E+04 -1.695108E+05  1.758917E-08  9.832733E-09
       143  13 -2.518079E+05 -7.360501E+04 -1.642332E+03 -1.450231E+05 -6.501116E-09 -2.966356E-08
       143  14 -2.539390E+05 -7.126047E+04 -8.857092E+02 -1.425492E+05 -1.568882E-09 -1.383637E-08
       143  15 -2.517797E+05 -7.342879E+04 -4.895815E+02 -1.450878E+05  4.223825E-11 -2.432192E-09
       143  16 -9.487585E+04 -1.780534E+04  2.079386E+04 -1.008192E+05 -8.241811E-08 -1.940078E-08
       143  17 -1.320464E+05 -2.797198E+04  1.639239E+04 -1.082347E+05 -5.052263E-08 -1.430089E-08
       143  18 -1.648761E+05 -4.260230E+04  1.182538E+04 -1.206619E+05 -1.903645E-08 -5.484236E-09
       143  19 -4.087131E+05 -1.294018E+05 -2.407831E+04 -1.892165E+05 -4.375882E+01 -1.434382E+04
       143  20 -3.758162E+05 -1.145475E+05 -1.816386E+04 -1.768575E+05 -1.752963E+03 -1.188481E+04
       143  21 -3.386762E+05 -1.042548E+05 -1.280473E+04 -1.695108E+05 -3.503035E+03 -9.316276E+03
       143  22 -2.518078E+05 -7.360484E+04 -1.641991E+03 -1.450232E+05  5.936846E+03 -1.209893E+04
       143  23 -2.539389E+05 -7.126036E+04 -8.855003E+02 -1.425492E+05  4.473589E+03 -9.547909E+03
       143  24 -2.517797E+05 -7.342874E+04 -4.894759E+02 -1.450878E+05  2.969514E+03 -6.887358E+03
       143  25 -9.487567E+04 -1.780520E+04  2.079430E+04 -1.008193E+05  1.191904E+04 -9.853450E+03
       143  26 -1.320462E+05 -2.797189E+04  1.639271E+04 -1.082347E+05  1.070139E+04 -7.210539E+03
       143  27 -1.648760E+05 -4.260225E+04  1.182559E+04 -1.206619E+05  9.442931E+03 -4.458115E+03
       144   1 -3.168553E+05 -9.650323E+04 -9.466641E+03 -1.633948E+05  4.204934E+03  7.661437E+03
       144   2 -2.840026E+05 -8.187538E+04 -4.441483E+03 -1.510125E+05  5.421868E+03  4.823594E+03
       144   3 -2.467729E+05 -7.165771E+04  4.819465E+02 -1.436639E+05  6.643009E+03  1.974342E+03
       144   4 -2.517629E+05 -7.342779E+04 -3.707962E+02 -1.450840E+05 -2.268744E+03  5.232201E+03
       144   5 -2.539521E+05 -7.122357E+04 -2.154370E+02 -1.425671E+05 -1.077648E+03  2.384719E+03
       144   6 -2.517614E+05 -7.342494E+04 -1.417856E+02 -1.450846E+05  1.176446E+02 -4.741683E+02
       144   7 -1.866649E+05 -5.035150E+04  8.725459E+03 -1.267712E+05 -8.743223E+03  2.802665E+03
       144   8 -2.239002E+05 -6.057154E+04  4.010845E+03 -1.341212E+05 -7.577539E+03 -5.429610E+01
       144   9 -2.567498E+05 -7.519214E+04 -7.653354E+02 -1.465052E+05 -6.407668E+03 -2.922659E+03
       144  10 -3.168554E+05 -9.650330E+04 -9.466785E+03 -1.633948E+05 -2.191518E-08 -7.343879E-09
       144  11 -2.840026E+05 -8.187541E+04 -4.441582E+03 -1.510126E+05  4.311713E-09  6.983568E-09
       144  12 -2.467729E+05 -7.165772E+04  4.818562E+02 -1.436639E+05  3.711801E-08  2.220225E-08
       144  13 -2.517629E+05 -7.342782E+04 -3.708573E+02 -1.450840E+05 -2.793834E-09 -9.120911E-10
       144  14 -2.539521E+05 -7.122357E+04 -2.154498E+02 -1.425671E+05 -2.382641E-09 -5.480260E-09
       144  15 -2.517614E+05 -7.342494E+04 -1.417860E+02 -1.450846E+05  7.194076E-10 -8.001785E-09
       144  16 -1.866650E+05 -5.035153E+04  8.725300E+03 -1.267711E+05  1.931723E-08  1.010492E-08
       144  17 -2.239003E+05 -6.057156E+04  4.010737E+03 -1.341212E+05 -1.223616E-08  2.854305E-09
       144  18 -2.567498E+05 -7.519216E+04 -7.654287E+02 -1.465052E+05 -3.924904E-08 -4.047043E-09
       144  19 -3.168553E+05 -9.650323E+04 -9.466641E+03 -1.633948E+05 -4.204934E+03 -7.661437E+03
       144  20 -2.840026E+05 -8.187538E+04 -4.441483E+03 -1.510125E+05 -5.421868E+03 -4.823594E+03
       144  21 -2.467729E+05 -7.165771E+04  4.819465E+02 -1.436639E+05 -6.643009E+03 -1.974342E+03
       144  22 -2.517629E+05 -7.342779E+04 -3.707962E+02 -1.450840E+05  2.268744E+03 -5.232201E+03
       144  23 -2.539521E+05 -7.122357E+04 -2.154370E+02 -1.425671E+05  1.077648E+03 -2.384719E+03
       144  24 -2.517614E+05 -7.342494E+04 -1.417856E+02 -1.450846E+05 -1.176446E+02  4.741683E+02
       144  25 -1.866649E+05 -5.035150E+04  8.725459E+03 -1.267712E+05  8.743223E+03 -2.802665E+03
       144  26 -2.239002E+05 -6.057154E+04  4.010845E+03 -1.341212E+05  7.577539E+03  5.429610E+01
       144  27 -2.567498E+05 -7.519214E+04 -7.653354E+02 -1.465052E+05  6.407668E+03  2.922659E+03
       145   1 -2.249820E+05 -6.390394E+04  3.698414E+03 -1.375399E+05  7.300104E+03  2.911007E+02
       145   2 -1.921395E+05 -4.928605E+04  8.549230E+03 -1.251529E+05  8.421675E+03 -2.594504E+03
       145   3 -1.549035E+05 -3.906260E+04  1.337551E+04 -1.177985E+05  9.538499E+03 -5.467242E+03
       145   4 -2.517605E+05 -7.342588E+04 -1.257687E+02 -1.450837E+05  7.746635E+02 -2.157453E+03
       145   5 -2.539550E+05 -7.122942E+04 -1.254375E+02 -1.425660E+05  1.924904E+03 -5.032435E+03
       145   6 -2.517627E+05 -7.343310E+04 -1.723785E+02 -1.450814E+05  3.070405E+03 -7.894571E+03
       145   7 -2.785378E+05 -8.294758E+04 -3.949676E+03 -1.526270E+05 -5.750397E+03 -4.605865E+03
       145   8 -3.157662E+05 -9.317233E+04 -8.799940E+03 -1.599775E+05 -4.571186E+03 -7.470111E+03
       145   9 -3.486128E+05 -1.078030E+05 -1.372048E+04 -1.723607E+05 -3.396711E+03 -1.032153E+04
       145  10 -2.249821E+05 -6.390395E+04  3.698314E+03 -1.375399E+05 -9.284205E-08 -2.767609E-08
       145  11 -1.921396E+05 -4.928608E+04  8.549084E+03 -1.251529E+05 -1.002265E-08  5.587313E-10
       145  12 -1.549036E+05 -3.906265E+04  1.337528E+04 -1.177985E+05  8.444439E-08  3.129461E-08
       145  13 -2.517605E+05 -7.342589E+04 -1.257786E+02 -1.450837E+05  1.443815E-09 -9.798234E-09
       145  14 -2.539550E+05 -7.122945E+04 -1.254920E+02 -1.425660E+05 -4.042119E-09 -9.493495E-09
       145  15 -2.517627E+05 -7.343317E+04 -1.725133E+02 -1.450814E+05 -4.101206E-09 -4.924831E-09
       145  16 -2.785378E+05 -8.294762E+04 -3.949778E+03 -1.526270E+05  9.121593E-08  4.273017E-08
       145  17 -3.157662E+05 -9.317240E+04 -8.800084E+03 -1.599775E+05 -1.233659E-09  1.396655E-09
       145  18 -3.486128E+05 -1.078031E+05 -1.372070E+04 -1.723607E+05 -9.000083E-08 -3.632824E-08
       145  19 -2.249820E+05 -6.390394E+04  3.698414E+03 -1.375399E+05 -7.300104E+03 -2.911007E+02
       145  20 -1.921395E+05 -4.928605E+04  8.549230E+03 -1.251529E+05 -8.421675E+03  2.594504E+03
       145  21 -1.549035E+05 -3.906260E+04  1.337551E+04 -1.177985E+05 -9.538499E+03  5.467242E+03
       145  22 -2.517605E+05 -7.342588E+04 -1.257687E+02 -1.450837E+05 -7.746635E+02  2.157453E+03
       145  23 -2.539550E+05 -7.122942E+04 -1.254375E+02 -1.425660E+05 -1.924904E+03  5.032435E+03
       145  24 -2.517627E+05 -7.343310E+04 -1.723785E+02 -1.450814E+05 -3.070405E+03  7.894571E+03
       145  25 -2.785378E+05 -8.294758E+04 -3.949676E+03 -1.526270E+05  5.750397E+03  4.605865E+03
       145  26 -3.157662E+05 -9.317233E+04 -8.799940E+03 -1.599775E+05  4.571186E+03  7.470111E+03
       145  27 -3.486128E+05 -1.078030E+05 -1.372048E+04 -1.723607E+05  3.396711E+03  1.032153E+04
       146   1 -1.331144E+05 -3.130556E+04  1.655273E+04 -1.116768E+05  1.019941E+04 -7.135668E+03
       146   2 -1.002987E+05 -1.667585E+04  2.137220E+04 -9.928173E+04  1.117512E+04 -9.985070E+03
       146   3 -6.308112E+04 -6.432535E+03  2.625323E+04 -9.190411E+04  1.210623E+04 -1.271504E+04
       146   4 -2.517714E+05 -7.343413E+04 -2.159459E+02 -1.450815E+05  3.732513E+03 -9.562703E+03
       146   5 -2.539531E+05 -7.125404E+04 -3.713081E+02 -1.425586E+05  4.976318E+03 -1.231184E+04
       146   6 -2.517874E+05 -7.351368E+04 -6.775964E+02 -1.450537E+05  6.175517E+03 -1.494153E+04
       146   7 -3.704129E+05 -1.155611E+05 -1.698450E+04 -1.784802E+05 -2.733077E+03 -1.198925E+04
       146   8 -4.075806E+05 -1.258292E+05 -2.211447E+04 -1.858250E+05 -1.220826E+03 -1.463800E+04
       146   9 -4.404520E+05 -1.405899E+05 -2.760778E+04 -1.981873E+05  2.467804E+02 -1.716727E+04
       146  10 -1.331146E+05 -3.130564E+04  1.655244E+04 -1.116767E+05 -5.636843E-08 -2.337433E-08
       146  11 -1.002988E+05 -1.667599E+04  2.137178E+04 -9.928164E+04 -4.789078E-09 -3.978588E-09
       146  12 -6.308133E+04 -6.432747E+03  2.625265E+04 -9.190398E+04  5.907583E-08  2.253418E-08
       146  13 -2.517715E+05 -7.343423E+04 -2.161439E+02 -1.450815E+05 -3.842488E-09 -4.277299E-09
       146  14 -2.539532E+05 -7.125421E+04 -3.716395E+02 -1.425585E+05 -9.783450E-09 -6.579023E-09
       146  15 -2.517875E+05 -7.351393E+04 -6.780875E+02 -1.450536E+05 -4.518823E-09 -3.089452E-09
       146  16 -3.704129E+05 -1.155612E+05 -1.698478E+04 -1.784802E+05  4.676002E-08  1.453726E-08
       146  17 -4.075807E+05 -1.258294E+05 -2.211488E+04 -1.858250E+05 -1.516761E-08 -9.508547E-09
       146  18 -4.404521E+05 -1.405902E+05 -2.760833E+04 -1.981873E+05 -6.537661E-08 -2.780399E-08
       146  19 -1.331144E+05 -3.130556E+04  1.655273E+04 -1.116768E+05 -1.019941E+04  7.135668E+03
       146  20 -1.002987E+05 -1.667585E+04  2.137220E+04 -9.928173E+04 -1.117512E+04  9.985070E+03
       146  21 -6.308112E+04 -6.432535E+03  2.625323E+04 -9.190411E+04 -1.210623E+04  1.271504E+04
       146  22 -2.517714E+05 -7.343413E+04 -2.159459E+02 -1.450815E+05 -3.732513E+03  9.562703E+03
       146  23 -2.539531E+05 -7.125404E+04 -3.713081E+02 -1.425586E+05 -4.976318E+03  1.231184E+04
       146  24 -2.517874E+05 -7.351368E+04 -6.775964E+02 -1.450537E+05 -6.175517E+03  1.494153E+04
       146  25 -3.704129E+05 -1.155611E+05 -1.698450E+04 -1.784802E+05  2.733077E+03  1.198925E+04
       146  26 -4.075806E+05 -1.258292E+05 -2.211447E+04 -1.858250E+05  1.220826E+03  1.463800E+04
       146  27 -4.404520E+05 -1.405899E+05 -2.760778E+04 -1.981873E+05 -2.467804E+02  1.716727E+04
       147   1 -4.126159E+04  1.329054E+03  2.943988E+04 -8.580378E+04  1.280920E+04 -1.424515E+04
       147   2 -8.762161E+03  1.608694E+04  3.472897E+04 -7.314301E+04  1.221068E+04 -1.690613E+04
       147   3  2.819176E+04  2.636607E+04  4.101169E+04 -6.532004E+04  1.123656E+04 -1.856629E+04
       147   4 -2.518509E+05 -7.353382E+04 -9.049412E+02 -1.450470E+05  6.886165E+03 -1.646902E+04
       147   5 -2.539339E+05 -7.161052E+04 -1.677985E+03 -1.424266E+05  8.536330E+03 -1.828639E+04
       147   6 -2.520098E+05 -7.461225E+04 -3.239495E+03 -1.446452E+05  9.810924E+03 -1.910265E+04
       147   7 -4.623947E+05 -1.483929E+05 -3.125073E+04 -2.042719E+05  9.651636E+02 -1.869212E+04
       147   8 -4.990421E+05 -1.593020E+05 -3.808600E+04 -2.116849E+05  4.863480E+03 -1.966608E+04
       147   9 -5.321270E+05 -1.755821E+05 -4.749212E+04 -2.239366E+05  8.385972E+03 -1.963875E+04
       147  10 -4.126182E+04  1.328792E+03  2.943919E+04 -8.580363E+04  2.935476E-09  2.963912E-09
       147  11 -8.762397E+03  1.608659E+04  3.472815E+04 -7.314285E+04  5.187821E-08  1.822324E-08
       147  12  2.819153E+04  2.636567E+04  4.101080E+04 -6.531988E+04  8.417714E-08  2.618453E-08
       147  13 -2.518510E+05 -7.353412E+04 -9.055399E+02 -1.450469E+05  5.233924E-09  3.017630E-09
       147  14 -2.539341E+05 -7.161090E+04 -1.678750E+03 -1.424265E+05  6.664119E-09  1.272540E-08
       147  15 -2.520100E+05 -7.461266E+04 -3.240362E+03 -1.446450E+05  1.238727E-09  1.656102E-08
       147  16 -4.623948E+05 -1.483933E+05 -3.125139E+04 -2.042719E+05  7.687498E-09 -2.271901E-10
       147  17 -4.990422E+05 -1.593024E+05 -3.808677E+04 -2.116848E+05 -2.608358E-08 -1.105708E-08
       147  18 -5.321272E+05 -1.755826E+05 -4.749297E+04 -2.239365E+05 -6.892913E-08 -2.649477E-08
       147  19 -4.126159E+04  1.329054E+03  2.943988E+04 -8.580378E+04 -1.280920E+04  1.424515E+04
       147  20 -8.762161E+03  1.608694E+04  3.472897E+04 -7.314301E+04 -1.221068E+04  1.690613E+04
       147  21  2.819176E+04  2.636607E+04  4.101169E+04 -6.532004E+04 -1.123656E+04  1.856629E+04
       147  22 -2.518509E+05 -7.353382E+04 -9.049412E+02 -1.450470E+05 -6.886165E+03  1.646902E+04
       147  23 -2.539339E+05 -7.161052E+04 -1.677985E+03 -1.424266E+05 -8.536330E+03  1.828639E+04
       147  24 -2.520098E+05 -7.461225E+04 -3.239495E+03 -1.446452E+05 -9.810924E+03  1.910265E+04
       147  25 -4.623947E+05 -1.483929E+05 -3.125073E+04 -2.042719E+05 -9.651636E+02  1.869212E+04
       147  26 -4.990421E+05 -1.593020E+05 -3.808600E+04 -2.116849E+05 -4.863480E+03  1.966608E+04
       147  27 -5.321270E+05 -1.755821E+05 -4.749212E+04 -2.239366E+05 -8.385972E+03  1.963875E+04
       148   1  5.029131E+04  3.401879E+04  4.492515E+04 -5.937073E+04  1.192622E+04 -1.907728E+04
       148   2  7.902145E+04  5.003903E+04  5.607492E+04 -4.272583E+04 -3.937223E+03 -2.093751E+04
       148   3  1.123191E+05  5.925901E+04  7.712804E+04 -2.893139E+04 -2.295645E+04 -1.440241E+04
       148   4 -2.525905E+05 -7.494892E+04 -4.378573E+03 -1.445470E+05  1.055780E+04 -1.959231E+04
       148   5 -2.539274E+05 -7.617956E+04 -8.444570E+03 -1.406833E+05  1.356417E+04 -1.436646E+04
       148   6 -2.544372E+05 -8.795055E+04 -1.755934E+04 -1.396712E+05  1.341518E+04 -7.424119E+02
       148   7 -5.553733E+05 -1.839068E+05 -5.368407E+04 -2.296839E+05  9.190090E+03 -2.010707E+04
       148   8 -5.867535E+05 -2.023827E+05 -7.296577E+04 -2.385891E+05  3.105519E+04 -7.799674E+03
       148   9 -6.210455E+05 -2.351393E+05 -1.122486E+05 -2.503449E+05  4.976206E+04  1.290680E+04
       148  10  5.029106E+04  3.401836E+04  4.492420E+04 -5.937054E+04 -5.387815E-08 -2.641255E-08
       148  11  7.902132E+04  5.003855E+04  5.607407E+04 -4.272590E+04 -3.174688E-08 -1.594090E-08
       148  12  1.123185E+05  5.925864E+04  7.712666E+04 -2.893165E+04 -2.306740E-09 -1.203756E-09
       148  13 -2.525907E+05 -7.494936E+04 -4.379504E+03 -1.445468E+05 -5.637113E-09  1.377014E-08
       148  14 -2.539277E+05 -7.617983E+04 -8.445303E+03 -1.406832E+05 -4.810093E-09  6.368571E-09
       148  15 -2.544373E+05 -8.795060E+04 -1.755968E+04 -1.396711E+05 -2.755938E-09  1.388953E-09
       148  16 -5.553735E+05 -1.839073E+05 -5.368499E+04 -2.296838E+05  5.967890E-08  2.091544E-08
       148  17 -5.867545E+05 -2.023830E+05 -7.296770E+04 -2.385889E+05  3.046132E-08  9.518725E-09
       148  18 -6.210482E+05 -2.351402E+05 -1.122535E+05 -2.503454E+05  2.515072E-09 -3.669107E-10
       148  19  5.029131E+04  3.401879E+04  4.492515E+04 -5.937073E+04 -1.192622E+04  1.907728E+04
       148  20  7.902145E+04  5.003903E+04  5.607492E+04 -4.272583E+04  3.937223E+03  2.093751E+04
       148  21  1.123191E+05  5.925901E+04  7.712804E+04 -2.893139E+04  2.295645E+04  1.440241E+04
       148  22 -2.525905E+05 -7.494892E+04 -4.378573E+03 -1.445470E+05 -1.055780E+04  1.959231E+04
       148  23 -2.539274E+05 -7.617956E+04 -8.444570E+03 -1.406833E+05 -1.356417E+04  1.436646E+04
       148  24 -2.544372E+05 -8.795055E+04 -1.755934E+04 -1.396712E+05 -1.341518E+04  7.424119E+02
       148  25 -5.553733E+05 -1.839068E+05 -5.368407E+04 -2.296839E+05 -9.190090E+03  2.010707E+04
       148  26 -5.867535E+05 -2.023827E+05 -7.296577E+04 -2.385891E+05 -3.105519E+04  7.799674E+03
       148  27 -6.210455E+05 -2.351393E+05 -1.122486E+05 -2.503449E+05 -4.976206E+04 -1.290680E+04
       149   1 -5.976681E+04 -4.857087E+03 -2.533698E+04 -1.993770E+04 -6.110350E+04 -3.533265E+03
       149   2 -6.680219E+04  7.731101E+04  2.196032E+04 -4.401232E+03 -4.215836E+04 -1.080079E+04
       149   3 -9.877477E+04  6.944961E+04  3.442962E+04  2.220842E+04 -2.321946E+04 -1.072018E+04
       149   4 -3.623842E+05 -8.018582E+04 -9.952498E+04  1.045618E+04 -6.817719E+04 -3.541162E+03
       149   5 -3.494882E+05  7.551447E+03 -4.418148E+04  4.887800E+03 -4.448158E+04 -1.080363E+04
       149   6 -3.623678E+05  4.410316E+03 -2.697799E+04  1.039334E+04 -2.079143E+04 -1.071777E+04
       149   7 -6.649161E+05 -1.555178E+05 -1.737190E+05  4.083520E+04 -7.524744E+04 -3.549755E+03
       149   8 -6.321003E+05 -6.221345E+04 -1.103287E+05  1.417256E+04 -4.680374E+04 -1.080655E+04
       149   9 -6.258963E+05 -6.063337E+04 -8.839021E+04 -1.416705E+03 -1.836443E+04 -1.071546E+04
       149  10 -5.977083E+04 -4.858103E+03 -2.534402E+04 -1.993787E+04  1.178719E-11  6.292757E-10
       149  11 -6.680413E+04  7.731040E+04  2.195676E+04 -4.401599E+03  2.280904E-09  1.987314E-10
       149  12 -9.877538E+04  6.944934E+04  3.442839E+04  2.220822E+04  1.846923E-09 -1.963881E-09
       149  13 -3.623892E+05 -8.018708E+04 -9.953374E+04  1.045599E+04  1.311883E-09  1.221455E-09
       149  14 -3.494904E+05  7.550790E+03 -4.418542E+04  4.887413E+03 -1.829684E-09  4.328111E-10
       149  15 -3.623683E+05  4.410076E+03 -2.697902E+04  1.039316E+04 -1.896452E-09  3.530477E-10
       149  16 -6.649222E+05 -1.555194E+05 -1.737297E+05  4.083499E+04 -7.528452E-10  5.158558E-10
       149  17 -6.321027E+05 -6.221417E+04 -1.103330E+05  1.417215E+04 -2.123319E-10 -1.275629E-09
       149  18 -6.258967E+05 -6.063359E+04 -8.839106E+04 -1.416863E+03 -2.414221E-09 -2.259074E-09
       149  19 -5.976681E+04 -4.857087E+03 -2.533698E+04 -1.993770E+04  6.110350E+04  3.533265E+03
       149  20 -6.680219E+04  7.731101E+04  2.196032E+04 -4.401232E+03  4.215836E+04  1.080079E+04
       149  21 -9.877477E+04  6.944961E+04  3.442962E+04  2.220842E+04  2.321946E+04  1.072018E+04
       149  22 -3.623842E+05 -8.018582E+04 -9.952498E+04  1.045618E+04  6.817719E+04  3.541162E+03
       149  23 -3.494882E+05  7.551447E+03 -4.418148E+04  4.887800E+03  4.448158E+04  1.080363E+04
       149  24 -3.623678E+05  4.410316E+03 -2.697799E+04  1.039334E+04  2.079143E+04  1.071777E+04
       149  25 -6.649161E+05 -1.555178E+05 -1.737190E+05  4.083520E+04  7.524744E+04  3.549755E+03
       149  26 -6.321003E+05 -6.221345E+04 -1.103287E+05  1.417256E+04  4.680374E+04  1.080655E+04
       149  27 -6.258963E+05 -6.063337E+04 -8.839021E+04 -1.416705E+03  1.836443E+04  1.071546E+04
       150   1 -1.141510E+05  5.325922E+04  3.506434E+04  8.478347E+03 -1.691160E+04 -9.258101E+03
       150   2 -1.324894E+05  5.582786E+04  4.075972E+04  4.410075E+03 -1.138528E+04 -8.793111E+03
       150   3 -1.534715E+05  5.068848E+04  4.093069E+04  1.176939E+04 -5.859761E+03 -7.918562E+03
       150   4 -3.572383E+05 -6.742988E+03 -2.182369E+04  1.049627E+04 -1.674218E+04 -9.258236E+03
       150   5 -3.558908E+05  7.050499E+02 -1.140104E+04  4.778527E+03 -1.095256E+04 -8.792857E+03
       150   6 -3.572341E+05  3.977679E+02 -6.687207E+03  1.048866E+04 -5.163564E+03 -7.917880E+03
       150   7 -6.002710E+05 -6.674938E+04 -7.871575E+04  1.251338E+04 -1.657282E+04 -9.258371E+03
       150   8 -5.792462E+05 -5.442130E+04 -6.356518E+04  5.146833E+03 -1.051999E+04 -8.792603E+03
       150   9 -5.609583E+05 -4.989588E+04 -5.430792E+04  9.208342E+03 -4.467595E+03 -7.917201E+03
       150  10 -1.141513E+05  5.325905E+04  3.506364E+04  8.478221E+03 -1.715328E-09 -3.141545E-09
       150  11 -1.324896E+05  5.582775E+04  4.075933E+04  4.409994E+03  1.037685E-10  9.912462E-10
       150  12 -1.534716E+05  5.068840E+04  4.093051E+04  1.176935E+04 -1.750116E-09  1.722821E-09
       150  13 -3.572386E+05 -6.743155E+03 -2.182438E+04  1.049614E+04 -5.296014E-10 -1.938123E-09
       150  14 -3.558910E+05  7.049346E+02 -1.140141E+04  4.778450E+03  2.397703E-09 -9.648092E-11
       150  15 -3.572341E+05  3.976934E+02 -6.687375E+03  1.048863E+04 -1.089969E-10 -1.006683E-09
       150  16 -6.002713E+05 -6.674954E+04 -7.871643E+04  1.251326E+04 -1.897082E-10 -2.495181E-10
       150  17 -5.792463E+05 -5.442141E+04 -6.356554E+04  5.146759E+03  1.541692E-09  1.652607E-10
       150  18 -5.609583E+05 -4.989596E+04 -5.430808E+04  9.208313E+03  2.591231E-09  3.013338E-10
       150  19 -1.141510E+05  5.325922E+04  3.506434E+04  8.478347E+03  1.691160E+04  9.258101E+03
       150  20 -1.324894E+05  5.582786E+04  4.075972E+04  4.410075E+03  1.138528E+04  8.793111E+03
       150  21 -1.534715E+05  5.068848E+04  4.093069E+04  1.176939E+04  5.859761E+03  7.918562E+03
       150  22 -3.572383E+05 -6.742988E+03 -2.182369E+04  1.049627E+04  1.674218E+04  9.258236E+03
       150  23 -3.558908E+05  7.050499E+02 -1.140104E+04  4.778527E+03  1.095256E+04  8.792857E+03
       150  24 -3.572341E+05  3.977679E+02 -6.687207E+03  1.048866E+04  5.163564E+03  7.917880E+03
       150  25 -6.002710E+05 -6.674938E+04 -7.871575E+04  1.251338E+04  1.657282E+04  9.258371E+03
       150  26 -5.792462E+05 -5.442130E+04 -6.356518E+04  5.146833E+03  1.051999E+04  8.792603E+03
       150  27 -5.609583E+05 -4.989588E+04 -5.430792E+04  9.208342E+03  4.467595E+03  7.917201E+03
       151   1 -1.736258E+05  4.463909E+04  3.750379E+04  1.060688E+04 -4.692010E+03 -7.331710E+03
       151   2 -1.932937E+05  4.036186E+04  3.520563E+04  4.923093E+03 -3.261601E+03 -6.434060E+03
       151   3 -2.133253E+05  3.545491E+04  3.181412E+04  1.078732E+04 -1.831526E+03 -5.511194E+03
       151   4 -3.567158E+05 -5.284618E+02 -5.191433E+03  1.051821E+04 -4.118999E+03 -7.331129E+03
       151   5 -3.565314E+05  8.243105E+01 -2.903590E+03  4.743722E+03 -2.672646E+03 -6.433384E+03
       151   6 -3.567139E+05  6.072620E+01 -1.720403E+03  1.051744E+04 -1.226583E+03 -5.510418E+03
       151   7 -5.397750E+05 -4.569838E+04 -4.788892E+04  1.042956E+04 -3.546155E+03 -7.330549E+03
       151   8 -5.197445E+05 -4.019889E+04 -4.101462E+04  4.564389E+03 -2.083846E+03 -6.432708E+03
       151   9 -5.000835E+05 -3.533492E+04 -3.525633E+04  1.024760E+04 -6.217790E+02 -5.509643E+03
       151  10 -1.736258E+05  4.463902E+04  3.750364E+04  1.060685E+04 -1.964221E-09  2.529188E-09
       151  11 -1.932937E+05  4.036181E+04  3.520553E+04  4.923077E+03 -1.441834E-09  2.252312E-09
       151  12 -2.133253E+05  3.545488E+04  3.181406E+04  1.078732E+04  8.562301E-10 -7.430203E-10
       151  13 -3.567159E+05 -5.285240E+02 -5.191566E+03  1.051819E+04 -1.417747E-10 -9.534010E-10
       151  14 -3.565314E+05  8.238470E+01 -2.903681E+03  4.743708E+03 -8.991910E-10  2.116757E-09
       151  15 -3.567139E+05  6.069320E+01 -1.720463E+03  1.051743E+04  1.215444E-09  3.255820E-09
       151  16 -5.397750E+05 -4.569845E+04 -4.788905E+04  1.042954E+04  1.202059E-09  1.685163E-09
       151  17 -5.197445E+05 -4.019893E+04 -4.101470E+04  4.564379E+03 -2.014856E-10  3.035392E-09
       151  18 -5.000835E+05 -3.533495E+04 -3.525638E+04  1.024760E+04 -3.192720E-09  2.260177E-09
       151  19 -1.736258E+05  4.463909E+04  3.750379E+04  1.060688E+04  4.692010E+03  7.331710E+03
       151  20 -1.932937E+05  4.036186E+04  3.520563E+04  4.923093E+03  3.261601E+03  6.434060E+03
       151  21 -2.133253E+05  3.545491E+04  3.181412E+04  1.078732E+04  1.831526E+03  5.511194E+03
       151  22 -3.567158E+05 -5.284618E+02 -5.191433E+03  1.051821E+04  4.118999E+03  7.331129E+03
       151  23 -3.565314E+05  8.243105E+01 -2.903590E+03  4.743722E+03  2.672646E+03  6.433384E+03
       151  24 -3.567139E+05  6.072620E+01 -1.720403E+03  1.051744E+04  1.226583E+03  5.510418E+03
       151  25 -5.397750E+05 -4.569838E+04 -4.788892E+04  1.042956E+04  3.546155E+03  7.330549E+03
       151  26 -5.197445E+05 -4.019889E+04 -4.101462E+04  4.564389E+03  2.083846E+03  6.432708E+03
       151  27 -5.000835E+05 -3.533492E+04 -3.525633E+04  1.024760E+04  6.217790E+02  5.509643E+03
       152   1 -2.341051E+05  3.021649E+04  2.720095E+04  1.068501E+04 -1.550810E+03 -4.969121E+03
       152   2 -2.540401E+05  2.533278E+04  2.307638E+04  4.850133E+03 -1.123900E+03 -4.042247E+03
       152   3 -2.740727E+05  2.042405E+04  1.865959E+04  1.064098E+04 -6.971796E+02 -3.112425E+03
       152   4 -3.566528E+05 -1.156360E+01 -1.350569E+03  1.053497E+04 -9.515978E+02 -4.968313E+03
       152   5 -3.566030E+05  2.412456E+01 -8.683894E+02  4.722016E+03 -5.228664E+02 -4.041388E+03
       152   6 -3.566517E+05  3.441371E+01 -6.797974E+02  1.053490E+04 -9.431033E+01 -3.111514E+03
       152   7 -4.791866E+05 -3.024068E+04 -2.990310E+04  1.038495E+04 -3.525036E+02 -4.967504E+03
       152   8 -4.591561E+05 -2.528528E+04 -2.481387E+04  4.593917E+03  7.806865E+01 -4.040530E+03
       152   9 -4.392245E+05 -2.035571E+04 -2.001965E+04  1.042883E+04  5.084792E+02 -3.110604E+03
       152  10 -2.341051E+05  3.021646E+04  2.720090E+04  1.068500E+04  1.723331E-09 -3.311920E-10
       152  11 -2.540402E+05  2.533276E+04  2.307635E+04  4.850129E+03 -9.786684E-10  4.449657E-09
       152  12 -2.740727E+05  2.042404E+04  1.865958E+04  1.064097E+04 -2.910317E-09  2.640153E-09
       152  13 -3.566528E+05 -1.159034E+01 -1.350617E+03  1.053496E+04  1.863983E-09  9.408596E-10
       152  14 -3.566030E+05  2.410695E+01 -8.684206E+02  4.722014E+03 -1.217048E-10  2.680508E-09
       152  15 -3.566517E+05  3.440331E+01 -6.798156E+02  1.053490E+04 -2.329564E-09  9.605790E-10
       152  16 -4.791866E+05 -3.024070E+04 -2.990315E+04  1.038495E+04 -1.857963E-09  1.222329E-09
       152  17 -4.591561E+05 -2.528529E+04 -2.481390E+04  4.593917E+03  7.582572E-10 -9.031579E-10
       152  18 -4.392245E+05 -2.035572E+04 -2.001967E+04  1.042884E+04  1.729939E-10 -4.707514E-10
       152  19 -2.341051E+05  3.021649E+04  2.720095E+04  1.068501E+04  1.550810E+03  4.969121E+03
       152  20 -2.540401E+05  2.533278E+04  2.307638E+04  4.850133E+03  1.123900E+03  4.042247E+03
       152  21 -2.740727E+05  2.042405E+04  1.865959E+04  1.064098E+04  6.971796E+02  3.112425E+03
       152  22 -3.566528E+05 -1.156360E+01 -1.350569E+03  1.053497E+04  9.515978E+02  4.968313E+03
       152  23 -3.566030E+05  2.412456E+01 -8.683894E+02  4.722016E+03  5.228664E+02  4.041388E+03
       152  24 -3.566517E+05  3.441371E+01 -6.797974E+02  1.053490E+04  9.431033E+01  3.111514E+03
       152  25 -4.791866E+05 -3.024068E+04 -2.990310E+04  1.038495E+04  3.525036E+02  4.967504E+03
       152  26 -4.591561E+05 -2.528528E+04 -2.481387E+04  4.593917E+03 -7.806865E+01  4.040530E+03
       152  27 -4.392245E+05 -2.035571E+04 -2.001965E+04  1.042883E+04 -5.084792E+02  3.110604E+03
       153   1 -2.950216E+05  1.522987E+04  1.366214E+04  1.061157E+04 -5.767583E+02 -2.570284E+03
       153   2 -3.150271E+05  1.028497E+04  8.910690E+03  4.749739E+03 -1.842375E+02 -1.638239E+03
       153   3 -3.351330E+05  5.322964E+03  3.889310E+03  1.055788E+04  2.082093E+02 -7.060857E+02
       153   4 -3.566514E+05  3.354044E+01 -6.669371E+02  1.054472E+04  2.654860E+01 -2.569350E+03
       153   5 -3.566010E+05  2.576922E+01 -7.956579E+02  4.709739E+03  4.191097E+02 -1.637286E+03
       153   6 -3.566510E+05  9.901756E-01 -1.194249E+03  1.054478E+04  8.116093E+02 -7.051122E+02
       153   7 -4.182776E+05 -1.516306E+04 -1.499627E+04  1.047788E+04  6.297960E+02 -2.568416E+03
       153   8 -3.981733E+05 -1.023355E+04 -1.050212E+04  4.669741E+03  1.022417E+03 -1.636333E+03
       153   9 -3.781686E+05 -5.321017E+03 -6.277838E+03  1.053167E+04  1.414989E+03 -7.041387E+02
       153  10 -2.950216E+05  1.522986E+04  1.366213E+04  1.061157E+04 -2.082772E-10  1.115237E-09
       153  11 -3.150271E+05  1.028496E+04  8.910685E+03  4.749738E+03  1.766469E-09  1.268676E-10
       153  12 -3.351330E+05  5.322964E+03  3.889309E+03  1.055788E+04 -2.361223E-09 -3.108240E-09
       153  13 -3.566514E+05  3.353335E+01 -6.669495E+02  1.054472E+04 -2.646306E-09  4.537384E-09
       153  14 -3.566010E+05  2.576630E+01 -7.956632E+02  4.709739E+03 -1.093557E-11  1.359439E-09
       153  15 -3.566510E+05  9.894648E-01 -1.194251E+03  1.054478E+04  7.144795E-11 -2.960289E-09
       153  16 -4.182776E+05 -1.516306E+04 -1.499628E+04  1.047789E+04 -2.756911E-09  2.322432E-09
       153  17 -3.981733E+05 -1.023355E+04 -1.050213E+04  4.669742E+03 -3.908442E-10 -3.600256E-10
       153  18 -3.781686E+05 -5.321018E+03 -6.277843E+03  1.053167E+04  3.211437E-09 -2.618027E-09
       153  19 -2.950216E+05  1.522987E+04  1.366214E+04  1.061157E+04  5.767583E+02  2.570284E+03
       153  20 -3.150271E+05  1.028497E+04  8.910690E+03  4.749739E+03  1.842375E+02  1.638239E+03
       153  21 -3.351330E+05  5.322964E+03  3.889310E+03  1.055788E+04 -2.082093E+02  7.060857E+02
       153  22 -3.566514E+05  3.354044E+01 -6.669371E+02  1.054472E+04 -2.654860E+01  2.569350E+03
       153  23 -3.566010E+05  2.576922E+01 -7.956579E+02  4.709739E+03 -4.191097E+02  1.637286E+03
       153  24 -3.566510E+05  9.901756E-01 -1.194249E+03  1.054478E+04 -8.116093E+02  7.051122E+02
       153  25 -4.182776E+05 -1.516306E+04 -1.499627E+04  1.047788E+04 -6.297960E+02  2.568416E+03
       153  26 -3.981733E+05 -1.023355E+04 -1.050212E+04  4.669741E+03 -1.022417E+03  1.636333E+03
       153  27 -3.781686E+05 -5.321017E+03 -6.277838E+03  1.053167E+04 -1.414989E+03  7.041387E+02
       154   1 -3.561791E+05  1.805558E+02 -1.445769E+03  1.044671E+04  4.462820E+02 -1.612672E+02
       154   2 -3.760730E+05 -4.741508E+03 -7.085120E+03  4.671817E+03  1.710455E+03  7.719935E+02
       154   3 -3.963128E+05 -1.020404E+04 -1.369328E+04  1.057317E+04  2.974638E+03  1.692670E+03
       154   4 -3.567052E+05  6.305462E+01 -1.508920E+03  1.054587E+04  1.053533E+03 -1.602840E+02
       154   5 -3.565331E+05  8.067421E+01 -2.522628E+03  4.708164E+03  2.309586E+03  7.729536E+02
       154   6 -3.567057E+05 -4.407170E+02 -4.499435E+03  1.054668E+04  3.565687E+03  1.693608E+03
       154   7 -3.572312E+05 -5.444636E+01 -1.572069E+03  1.064503E+04  1.660784E+03 -1.593005E+02
       154   8 -3.369927E+05  4.902829E+03  2.039839E+03  4.744513E+03  2.908735E+03  7.739138E+02
       154   9 -3.170972E+05  9.322498E+03  4.694304E+03  1.052019E+04  4.156774E+03  1.694547E+03
       154  10 -3.561791E+05  1.805558E+02 -1.445770E+03  1.044671E+04 -3.601520E-09  2.857750E-10
       154  11 -3.760730E+05 -4.741509E+03 -7.085127E+03  4.671816E+03  5.411472E-10  1.844149E-09
       154  12 -3.963128E+05 -1.020405E+04 -1.369330E+04  1.057316E+04  6.311919E-10 -9.340717E-11
       154  13 -3.567052E+05  6.305430E+01 -1.508922E+03  1.054587E+04  3.006949E-09 -1.654082E-09
       154  14 -3.565331E+05  8.067213E+01 -2.522639E+03  4.708163E+03 -4.304708E-10  1.722294E-09
       154  15 -3.567057E+05 -4.407235E+02 -4.499465E+03  1.054668E+04  1.793593E-09  3.807204E-10
       154  16 -3.572313E+05 -5.444713E+01 -1.572074E+03  1.064503E+04  3.718795E-09  8.861875E-11
       154  17 -3.369928E+05  4.902826E+03  2.039822E+03  4.744511E+03  2.898440E-09 -3.459038E-09
       154  18 -3.170972E+05  9.322490E+03  4.694266E+03  1.052019E+04 -9.704235E-10  7.438572E-10
       154  19 -3.561791E+05  1.805558E+02 -1.445769E+03  1.044671E+04 -4.462820E+02  1.612672E+02
       154  20 -3.760730E+05 -4.741508E+03 -7.085120E+03  4.671817E+03 -1.710455E+03 -7.719935E+02
       154  21 -3.963128E+05 -1.020404E+04 -1.369328E+04  1.057317E+04 -2.974638E+03 -1.692670E+03
       154  22 -3.567052E+05  6.305462E+01 -1.508920E+03  1.054587E+04 -1.053533E+03  1.602840E+02
       154  23 -3.565331E+05  8.067421E+01 -2.522628E+03  4.708164E+03 -2.309586E+03 -7.729536E+02
       154  24 -3.567057E+05 -4.407170E+02 -4.499435E+03  1.054668E+04 -3.565687E+03 -1.693608E+03
       154  25 -3.572312E+05 -5.444636E+01 -1.572069E+03  1.064503E+04 -1.660784E+03  1.593005E+02
       154  26 -3.369927E+05  4.902829E+03  2.039839E+03  4.744513E+03 -2.908735E+03 -7.739138E+02
       154  27 -3.170972E+05  9.322498E+03  4.694304E+03  1.052019E+04 -4.156774E+03 -1.694547E+03
       155   1 -4.177329E+05 -1.460364E+04 -1.999207E+04  9.518451E+03  3.811409E+03  2.264458E+03
       155   2 -4.365581E+05 -1.926278E+04 -2.868806E+04  5.104303E+03  8.966052E+03  3.177805E+03
       155   3 -4.577770E+05 -3.064953E+04 -4.243248E+04  1.233661E+04  1.412089E+04  3.867063E+03
       155   4 -3.571558E+05  3.605511E+02 -5.793162E+03  1.053671E+04  4.470603E+03  2.265495E+03
       155   5 -3.559728E+05  6.239130E+02 -9.867755E+03  4.718217E+03  9.480683E+03  3.178565E+03
       155   6 -3.571584E+05 -5.814738E+03 -1.888985E+04  1.054614E+04  1.449112E+04  3.867536E+03
       155   7 -2.965754E+05  1.532448E+04  8.405500E+03  1.155508E+04  5.129860E+03  2.266534E+03
       155   8 -2.753814E+05  2.051014E+04  8.952113E+03  4.332078E+03  9.995380E+03  3.179324E+03
       155   9 -2.565305E+05  1.901934E+04  4.652099E+03  8.755383E+03  1.486142E+04  3.868008E+03
       155  10 -4.177330E+05 -1.460365E+04 -1.999211E+04  9.518444E+03 -1.284649E-09  2.519573E-09
       155  11 -4.365582E+05 -1.926281E+04 -2.868823E+04  5.104280E+03  7.493445E-10  2.672131E-09
       155  12 -4.577772E+05 -3.064960E+04 -4.243289E+04  1.233656E+04  2.367491E-09  1.427250E-09
       155  13 -3.571559E+05  3.605402E+02 -5.793209E+03  1.053671E+04  1.914030E-09  4.414622E-11
       155  14 -3.559729E+05  6.238780E+02 -9.867943E+03  4.718192E+03 -2.029349E-09  1.224538E-09
       155  15 -3.571586E+05 -5.814810E+03 -1.889027E+04  1.054610E+04  5.054498E-10 -8.052849E-10
       155  16 -2.965754E+05  1.532447E+04  8.405440E+03  1.155507E+04  2.607912E-09  1.719874E-10
       155  17 -2.753815E+05  2.051010E+04  8.951907E+03  4.332052E+03  3.080112E-09 -1.797842E-09
       155  18 -2.565307E+05  1.901927E+04  4.651655E+03  8.755337E+03 -1.589417E-09 -4.897575E-09
       155  19 -4.177329E+05 -1.460364E+04 -1.999207E+04  9.518451E+03 -3.811409E+03 -2.264458E+03
       155  20 -4.365581E+05 -1.926278E+04 -2.868806E+04  5.104303E+03 -8.966052E+03 -3.177805E+03
       155  21 -4.577770E+05 -3.064953E+04 -4.243248E+04  1.233661E+04 -1.412089E+04 -3.867063E+03
       155  22 -3.571558E+05  3.605511E+02 -5.793162E+03  1.053671E+04 -4.470603E+03 -2.265495E+03
       155  23 -3.559728E+05  6.239130E+02 -9.867755E+03  4.718217E+03 -9.480683E+03 -3.178565E+03
       155  24 -3.571584E+05 -5.814738E+03 -1.888985E+04  1.054614E+04 -1.449112E+04 -3.867536E+03
       155  25 -2.965754E+05  1.532448E+04  8.405500E+03  1.155508E+04 -5.129860E+03 -2.266534E+03
       155  26 -2.753814E+05  2.051014E+04  8.952113E+03  4.332078E+03 -9.995380E+03 -3.179324E+03
       155  27 -2.565305E+05  1.901934E+04  4.652099E+03  8.755383E+03 -1.486142E+04 -3.868008E+03
       156   1 -4.831200E+05 -2.617964E+04 -5.168775E+04  2.842928E+02  1.638450E+04  4.920163E+03
       156   2 -4.917115E+05 -2.830298E+04 -7.130590E+04  1.280830E+04  3.949663E+04  5.420062E+03
       156   3 -5.231236E+05 -1.095390E+05 -1.257628E+05  3.684879E+04  6.261384E+04  1.883150E+03
       156   4 -3.615998E+05  3.838976E+03 -2.335096E+04  1.048119E+04  1.799594E+04  4.922750E+03
       156   5 -3.504256E+05  6.553974E+03 -3.823566E+04  4.773090E+03  3.849712E+04  5.418048E+03
       156   6 -3.616134E+05 -6.938145E+04 -8.613968E+04  1.058200E+04  5.900421E+04  1.875584E+03
       156   7 -2.400658E+05  3.385693E+04  4.984895E+03  2.068009E+04  1.960769E+04  4.925389E+03
       156   8 -2.091211E+05  4.140976E+04 -5.166736E+03 -3.263964E+03  3.749739E+04  5.416060E+03
       156   9 -2.000779E+05 -2.922326E+04 -4.651804E+04 -1.569164E+04  5.539363E+04  1.868324E+03
       156  10 -4.831203E+05 -2.617973E+04 -5.168830E+04  2.842278E+02 -5.146625E-10  5.648660E-10
       156  11 -4.917132E+05 -2.830343E+04 -7.130889E+04  1.280812E+04  3.868692E-10  8.703982E-10
       156  12 -5.231278E+05 -1.095400E+05 -1.257702E+05  3.684869E+04  6.856906E-10  2.638796E-10
       156  13 -3.616002E+05  3.838863E+03 -2.335161E+04  1.048112E+04 -5.395624E-10  1.797625E-09
       156  14 -3.504272E+05  6.553545E+03 -3.823850E+04  4.772922E+03 -2.278648E-09 -1.531427E-09
       156  15 -3.616172E+05 -6.938239E+04 -8.614624E+04  1.058191E+04 -2.177223E-09  2.439649E-09
       156  16 -2.400663E+05  3.385680E+04  4.984127E+03  2.068001E+04  1.690489E-09  2.937653E-10
       156  17 -2.091226E+05  4.140935E+04 -5.169435E+03 -3.264127E+03  1.838544E-09  1.027976E-09
       156  18 -2.000812E+05 -2.922409E+04 -4.652382E+04 -1.569172E+04 -8.812040E-10 -2.214485E-10
       156  19 -4.831200E+05 -2.617964E+04 -5.168775E+04  2.842928E+02 -1.638450E+04 -4.920163E+03
       156  20 -4.917115E+05 -2.830298E+04 -7.130590E+04  1.280830E+04 -3.949663E+04 -5.420062E+03
       156  21 -5.231236E+05 -1.095390E+05 -1.257628E+05  3.684879E+04 -6.261384E+04 -1.883150E+03
       156  22 -3.615998E+05  3.838976E+03 -2.335096E+04  1.048119E+04 -1.799594E+04 -4.922750E+03
       156  23 -3.504256E+05  6.553974E+03 -3.823566E+04  4.773090E+03 -3.849712E+04 -5.418048E+03
       156  24 -3.616134E+05 -6.938145E+04 -8.613968E+04  1.058200E+04 -5.900421E+04 -1.875584E+03
       156  25 -2.400658E+05  3.385693E+04  4.984895E+03  2.068009E+04 -1.960769E+04 -4.925389E+03
       156  26 -2.091211E+05  4.140976E+04 -5.166736E+03 -3.263964E+03 -3.749739E+04 -5.416060E+03
       156  27 -2.000779E+05 -2.922326E+04 -4.651804E+04 -1.569164E+04 -5.539363E+04 -1.868324E+03
       157   1  1.983063E+05  1.126498E+06  2.230586E+05 -9.324998E+04  3.756881E+03  9.183123E+04
       157   2  5.949750E+04  1.014137E+06  1.278601E+05 -3.820239E+04  1.052665E+04  5.227413E+04
       157   3  4.163745E+04  9.370901E+05  8.860885E+04 -3.779676E+04  7.345596E+03  1.271438E+04
       157   4  1.044505E+05  7.496747E+05  1.305584E+05 -5.288654E+04  3.768713E+03  8.420266E+04
       157   5 -9.953383E+03  7.325968E+05  6.200152E+04 -2.560973E+04  1.052902E+04  5.111882E+04
       157   6 -4.501039E+03  7.497245E+05  4.492443E+04 -5.297165E+04  7.340029E+03  1.802616E+04
       157   7  1.059036E+04  3.729841E+05  3.804888E+04 -1.254757E+04  3.779561E+03  7.657868E+04
       157   8 -7.940929E+04  4.511301E+05 -3.862340E+03 -1.302278E+04  1.053134E+04  4.996403E+04
       157   9 -5.064113E+04  5.623919E+05  1.237869E+03 -6.814192E+04  7.334201E+03  2.333635E+04
       157  10  1.983040E+05  1.126489E+06  2.230428E+05 -9.325026E+04 -3.208466E-10  9.831280E-10
       157  11  5.949664E+04  1.014134E+06  1.278547E+05 -3.820284E+04  2.840327E-09 -2.823607E-09
       157  12  4.163735E+04  9.370899E+05  8.860845E+04 -3.779683E+04  1.262476E-09 -2.774202E-10
       157  13  1.044486E+05  7.496671E+05  1.305451E+05 -5.288679E+04  1.533775E-10 -8.949633E-10
       157  14 -9.954202E+03  7.325940E+05  6.199641E+04 -2.561016E+04  7.327179E-10 -5.520369E-10
       157  15 -4.501184E+03  7.497242E+05  4.492372E+04 -5.297175E+04  1.850168E-09 -5.114803E-10
       157  16  1.058877E+04  3.729778E+05  3.803784E+04 -1.254780E+04  1.841916E-09 -1.310788E-09
       157  17 -7.941008E+04  4.511274E+05 -3.867236E+03 -1.302321E+04  8.691920E-10 -3.609392E-11
       157  18 -5.064133E+04  5.623913E+05  1.236746E+03 -6.814206E+04  2.840282E-09  1.506491E-09
       157  19  1.983063E+05  1.126498E+06  2.230586E+05 -9.324998E+04 -3.756881E+03 -9.183123E+04
       157  20  5.949750E+04  1.014137E+06  1.278601E+05 -3.820239E+04 -1.052665E+04 -5.227413E+04
       157  21  4.163745E+04  9.370901E+05  8.860885E+04 -3.779676E+04 -7.345596E+03 -1.271438E+04
       157  22  1.044505E+05  7.496747E+05  1.305584E+05 -5.288654E+04 -3.768713E+03 -8.420266E+04
       157  23 -9.953383E+03  7.325968E+05  6.200152E+04 -2.560973E+04 -1.052902E+04 -5.111882E+04
       157  24 -4.501039E+03  7.497245E+05  4.492443E+04 -5.297165E+04 -7.340029E+03 -1.802616E+04
       157  25  1.059036E+04  3.729841E+05  3.804888E+04 -1.254757E+04 -3.779561E+03 -7.657868E+04
       157  26 -7.940929E+04  4.511301E+05 -3.862340E+03 -1.302278E+04 -1.053134E+04 -4.996403E+04
       157  27 -5.064113E+04  5.623919E+05  1.237869E+03 -6.814192E+04 -7.334201E+03 -2.333635E+04
       158   1  2.995524E+04  8.326477E+05  6.212162E+04 -5.818812E+04  3.464048E+03  8.327980E+03
       158   2 -3.747236E+03  7.338167E+05  3.642818E+04 -2.515493E+04 -2.171821E+02 -1.087110E+04
       158   3 -1.117903E+04  6.439259E+05  2.976191E+04 -4.693077E+04 -3.883309E+03 -3.006736E+04
       158   4  8.119397E+03  7.441078E+05  4.146925E+04 -5.298221E+04  3.461613E+03  1.073291E+04
       158   5 -2.310897E+03  7.396396E+05  3.778648E+04 -2.557539E+04 -2.196432E+02 -8.475502E+03
       158   6  1.353141E+04  7.441044E+05  5.313795E+04 -5.297670E+04 -3.885480E+03 -2.768394E+04
       158   7 -1.371690E+04  6.555751E+05  2.081639E+04 -4.777705E+04  3.459218E+03  1.313749E+04
       158   8 -8.745566E+02  7.454626E+05  3.914479E+04 -2.599586E+04 -2.221074E+02 -6.079882E+03
       158   9  3.824129E+04  8.442923E+05  7.651335E+04 -5.902361E+04 -3.887696E+03 -2.530014E+04
       158  10  2.995521E+04  8.326476E+05  6.212147E+04 -5.818814E+04  1.595932E-09 -8.076497E-10
       158  11 -3.747268E+03  7.338166E+05  3.642795E+04 -2.515493E+04  1.992512E-09 -4.114198E-09
       158  12 -1.117929E+04  6.439249E+05  2.976018E+04 -4.693086E+04 -4.913132E-10 -4.126306E-10
       158  13  8.119353E+03  7.441077E+05  4.146902E+04 -5.298224E+04  1.774270E-09 -9.455708E-10
       158  14 -2.310916E+03  7.396396E+05  3.778634E+04 -2.557540E+04  1.638012E-09 -1.335248E-09
       158  15  1.353119E+04  7.441036E+05  5.313648E+04 -5.297678E+04  1.015981E-09 -9.558674E-10
       158  16 -1.371696E+04  6.555749E+05  2.081604E+04 -4.777709E+04  6.791169E-10  6.882614E-10
       158  17 -8.745665E+02  7.454626E+05  3.914472E+04 -2.599586E+04 -1.618025E-09  9.810493E-10
       158  18  3.824110E+04  8.442916E+05  7.651212E+04 -5.902369E+04 -1.070624E-09  1.551348E-09
       158  19  2.995524E+04  8.326477E+05  6.212162E+04 -5.818812E+04 -3.464048E+03 -8.327980E+03
       158  20 -3.747236E+03  7.338167E+05  3.642818E+04 -2.515493E+04  2.171821E+02  1.087110E+04
       158  21 -1.117903E+04  6.439259E+05  2.976191E+04 -4.693077E+04  3.883309E+03  3.006736E+04
       158  22  8.119397E+03  7.441078E+05  4.146925E+04 -5.298221E+04 -3.461613E+03 -1.073291E+04
       158  23 -2.310897E+03  7.396396E+05  3.778648E+04 -2.557539E+04  2.196432E+02  8.475502E+03
       158  24  1.353141E+04  7.441044E+05  5.313795E+04 -5.297670E+04  3.885480E+03  2.768394E+04
       158  25 -1.371690E+04  6.555751E+05  2.081639E+04 -4.777705E+04 -3.459218E+03 -1.313749E+04
       158  26 -8.745566E+02  7.454626E+05  3.914479E+04 -2.599586E+04  2.221074E+02  6.079882E+03
       158  27  3.824129E+04  8.442923E+05  7.651335E+04 -5.902361E+04  3.887696E+03  2.530014E+04
       159   1 -5.725653E+04  5.550260E+05  1.535160E+04 -7.692938E+04 -7.788033E+03 -4.267972E+04
       159   2 -8.798938E+04  4.340759E+05  2.531619E+04 -5.854431E+03 -1.094720E+04 -8.629047E+04
       159   3  6.860262E+04  3.656026E+05  1.104916E+05  1.059929E+04 -3.890487E+03 -1.298848E+05
       159   4 -8.262076E+03  7.540319E+05  6.174962E+04 -5.298059E+04 -7.794942E+03 -3.730339E+04
       159   5 -1.564192E+04  7.272047E+05  9.390899E+04 -2.560677E+04 -1.094305E+04 -8.756256E+04
       159   6  1.653994E+05  7.539603E+05  2.058627E+05 -5.284756E+04 -3.871280E+03 -1.378123E+05
       159   7  4.073176E+04  9.530755E+05  1.081454E+05 -2.902406E+04 -7.801435E+03 -3.192534E+04
       159   8  5.670090E+04  1.020413E+06  1.624962E+05 -4.536848E+04 -1.093882E+04 -8.883524E+04
       159   9  2.622002E+05  1.142464E+06  3.012251E+05 -1.163341E+05 -3.850464E+03 -1.457447E+05
       159  10 -5.725709E+04  5.550240E+05  1.534806E+04 -7.692965E+04 -4.682611E-10 -8.198029E-09
       159  11 -8.799151E+04  4.340679E+05  2.530198E+04 -5.855191E+03 -1.597627E-09 -3.462125E-09
       159  12  6.859807E+04  3.655844E+05  1.104599E+05  1.059888E+04 -1.356727E-09  6.707535E-09
       159  13 -8.262514E+03  7.540303E+05  6.174689E+04 -5.298082E+04  5.012306E-10 -7.249363E-10
       159  14 -1.564410E+04  7.271964E+05  9.389438E+04 -2.560755E+04  6.130244E-10 -8.166744E-10
       159  15  1.653943E+05  7.539399E+05  2.058270E+05 -5.284799E+04  3.460149E-10 -1.508693E-10
       159  16  4.073143E+04  9.530744E+05  1.081434E+05 -2.902426E+04  8.669459E-11  7.573333E-09
       159  17  5.669866E+04  1.020405E+06  1.624811E+05 -4.536926E+04  1.856338E-09  6.105636E-10
       159  18  2.621944E+05  1.142441E+06  3.011852E+05 -1.163346E+05  1.964628E-09 -5.748470E-09
       159  19 -5.725653E+04  5.550260E+05  1.535160E+04 -7.692938E+04  7.788033E+03  4.267972E+04
       159  20 -8.798938E+04  4.340759E+05  2.531619E+04 -5.854431E+03  1.094720E+04  8.629047E+04
       159  21  6.860262E+04  3.656026E+05  1.104916E+05  1.059929E+04  3.890487E+03  1.298848E+05
       159  22 -8.262076E+03  7.540319E+05  6.174962E+04 -5.298059E+04  7.794942E+03  3.730339E+04
       159  23 -1.564192E+04  7.272047E+05  9.390899E+04 -2.560677E+04  1.094305E+04  8.756256E+04
       159  24  1.653994E+05  7.539603E+05  2.058627E+05 -5.284756E+04  3.871280E+03  1.378123E+05
       159  25  4.073176E+04  9.530755E+05  1.081454E+05 -2.902406E+04  7.801435E+03  3.192534E+04
       159  26  5.670090E+04  1.020413E+06  1.624962E+05 -4.536848E+04  1.093882E+04  8.883524E+04
       159  27  2.622002E+05  1.142464E+06  3.012251E+05 -1.163341E+05  3.850464E+03  1.457447E+05
       160   1  4.139404E+04  3.672451E+04  1.539962E+04 -1.038219E+04 -5.796336E+04 -5.491802E+03
       160   2  1.628303E+04  1.149556E+05  5.710741E+04  1.978693E+02 -4.148199E+04 -1.661936E+04
       160   3 -3.352950E+04  1.027485E+05  6.550142E+04  3.215845E+04 -2.501857E+04 -1.617638E+04
       160   4 -4.316865E+05 -8.100986E+04 -1.005912E+05  1.999123E+04 -6.890142E+04 -5.510338E+03
       160   5 -4.186631E+05  7.630962E+03 -4.466216E+04  9.235778E+03 -4.493823E+04 -1.662632E+04
       160   6 -4.316615E+05  4.498153E+03 -2.726276E+04  1.986245E+04 -2.099162E+04 -1.616931E+04
       160   7 -9.045608E+05 -1.987572E+05 -2.165974E+05  5.034138E+04 -7.983115E+04 -5.529951E+03
       160   8 -8.534346E+05 -9.970674E+04 -1.464445E+05  1.826724E+04 -4.839205E+04 -1.663339E+04
       160   9 -8.296469E+05 -9.376281E+04 -1.200375E+05  7.574332E+03 -1.696723E+04 -1.616240E+04
       160  10  4.139042E+04  3.672357E+04  1.539325E+04 -1.038244E+04  4.696743E-09  2.426955E-09
       160  11  1.628111E+04  1.149548E+05  5.710366E+04  1.973142E+02  1.067308E-09  7.095154E-09
       160  12 -3.353024E+04  1.027480E+05  6.549975E+04  3.215812E+04 -6.170690E-09  2.793229E-09
       160  13 -4.316916E+05 -8.101116E+04 -1.006001E+05  1.999092E+04  1.038039E-09 -1.726332E-09
       160  14 -4.186653E+05  7.630122E+03 -4.466647E+04  9.235176E+03  3.021891E-09 -2.746055E-09
       160  15 -4.316620E+05  4.497754E+03 -2.726408E+04  1.986218E+04 -1.669973E-10  2.124318E-09
       160  16 -9.045677E+05 -1.987590E+05 -2.166095E+05  5.034102E+04 -3.786809E-09  1.434360E-09
       160  17 -8.534371E+05 -9.970767E+04 -1.464494E+05  1.826659E+04 -1.804381E-09  4.831455E-09
       160  18 -8.296472E+05 -9.376317E+04 -1.200386E+05  7.574111E+03  7.693447E-09  2.774417E-10
       160  19  4.139404E+04  3.672451E+04  1.539962E+04 -1.038219E+04  5.796336E+04  5.491802E+03
       160  20  1.628303E+04  1.149556E+05  5.710741E+04  1.978693E+02  4.148199E+04  1.661936E+04
       160  21 -3.352950E+04  1.027485E+05  6.550142E+04  3.215845E+04  2.501857E+04  1.617638E+04
       160  22 -4.316865E+05 -8.100986E+04 -1.005912E+05  1.999123E+04  6.890142E+04  5.510338E+03
       160  23 -4.186631E+05  7.630962E+03 -4.466216E+04  9.235778E+03  4.493823E+04  1.662632E+04
       160  24 -4.316615E+05  4.498153E+03 -2.726276E+04  1.986245E+04  2.099162E+04  1.616931E+04
       160  25 -9.045608E+05 -1.987572E+05 -2.165974E+05  5.034138E+04  7.983115E+04  5.529951E+03
       160  26 -8.534346E+05 -9.970674E+04 -1.464445E+05  1.826724E+04  4.839205E+04  1.663339E+04
       160  27 -8.296469E+05 -9.376281E+04 -1.200375E+05  7.574332E+03  1.696723E+04  1.616240E+04
       161   1 -6.771311E+04  8.178145E+04  6.189999E+04  1.832306E+04 -1.737424E+04 -1.368670E+04
       161   2 -1.041259E+05  7.993147E+04  6.342441E+04  8.992883E+03 -1.193953E+04 -1.263779E+04
       161   3 -1.432092E+05  7.038575E+04  5.947859E+04  2.159889E+04 -6.507360E+03 -1.094363E+04
       161   4 -4.264854E+05 -6.773603E+03 -2.205525E+04  2.003431E+04 -1.690385E+04 -1.368639E+04
       161   5 -4.251080E+05  7.293668E+02 -1.152253E+04  9.058591E+03 -1.105414E+04 -1.263643E+04
       161   6 -4.264769E+05  4.620156E+02 -6.750854E+03  2.001989E+04 -5.206644E+03 -1.094107E+04
       161   7 -7.851390E+05 -9.533778E+04 -1.060192E+05  2.174451E+04 -1.643374E+04 -1.368609E+04
       161   8 -7.459951E+05 -7.848004E+04 -8.647645E+04  9.124216E+03 -1.016921E+04 -1.263506E+04
       161   9 -7.096706E+05 -6.946740E+04 -7.298575E+04  1.844157E+04 -3.906517E+03 -1.093852E+04
       161  10 -6.771348E+04  8.178117E+04  6.189907E+04  1.832287E+04 -1.265535E-09 -1.930567E-09
       161  11 -1.041261E+05  7.993126E+04  6.342384E+04  8.992762E+03  1.202943E-10  7.104606E-10
       161  12 -1.432092E+05  7.038561E+04  5.947828E+04  2.159883E+04 -4.432583E-10  5.651297E-09
       161  13 -4.264857E+05 -6.773880E+03 -2.205613E+04  2.003412E+04  2.856727E-09  6.634885E-09
       161  14 -4.251082E+05  7.291625E+02 -1.152306E+04  9.058479E+03 -1.767406E-09 -1.406209E-08
       161  15 -4.264770E+05  4.618798E+02 -6.751130E+03  2.001984E+04 -2.739666E-09  5.326699E-09
       161  16 -7.851393E+05 -9.533806E+04 -1.060201E+05  2.174432E+04 -4.008009E-10 -5.441407E-09
       161  17 -7.459953E+05 -7.848024E+04 -8.647695E+04  9.124112E+03  3.384417E-09 -3.993643E-09
       161  18 -7.096707E+05 -6.946753E+04 -7.298600E+04  1.844153E+04 -7.126598E-10  8.517065E-10
       161  19 -6.771311E+04  8.178145E+04  6.189999E+04  1.832306E+04  1.737424E+04  1.368670E+04
       161  20 -1.041259E+05  7.993147E+04  6.342441E+04  8.992883E+03  1.193953E+04  1.263779E+04
       161  21 -1.432092E+05  7.038575E+04  5.947859E+04  2.159889E+04  6.507360E+03  1.094363E+04
       161  22 -4.264854E+05 -6.773603E+03 -2.205525E+04  2.003431E+04  1.690385E+04  1.368639E+04
       161  23 -4.251080E+05  7.293668E+02 -1.152253E+04  9.058591E+03  1.105414E+04  1.263643E+04
       161  24 -4.264769E+05  4.620156E+02 -6.750854E+03  2.001989E+04  5.206644E+03  1.094107E+04
       161  25 -7.851390E+05 -9.533778E+04 -1.060192E+05  2.174451E+04  1.643374E+04  1.368609E+04
       161  26 -7.459951E+05 -7.848004E+04 -8.647645E+04  9.124216E+03  1.016921E+04  1.263506E+04
       161  27 -7.096706E+05 -6.946740E+04 -7.298575E+04  1.844157E+04  3.906517E+03  1.093852E+04
       162   1 -1.823531E+05  5.961781E+04  5.153817E+04  2.040104E+04 -5.260984E+03 -9.835164E+03
       162   2 -2.201897E+05  5.083511E+04  4.506837E+04  9.380761E+03 -3.833345E+03 -8.105459E+03
       162   3 -2.584537E+05  4.149012E+04  3.750581E+04  2.050016E+04 -2.406485E+03 -6.336300E+03
       162   4 -4.259577E+05 -4.751616E+02 -5.239111E+03  2.007028E+04 -4.154235E+03 -9.832894E+03
       162   5 -4.257392E+05  1.117046E+02 -2.921675E+03  8.999506E+03 -2.701579E+03 -8.102951E+03
       162   6 -4.259534E+05  1.319999E+02 -1.714508E+03  2.006886E+04 -1.249614E+03 -6.333543E+03
       162   7 -6.695075E+05 -6.057234E+04 -6.202040E+04  1.973963E+04 -3.047918E+03 -9.830625E+03
       162   8 -6.312497E+05 -5.061469E+04 -5.091458E+04  8.618355E+03 -1.570184E+03 -8.100444E+03
       162   9 -5.934271E+05 -4.122811E+04 -4.093674E+04  1.963767E+04 -9.305354E+01 -6.330787E+03
       162  10 -1.823531E+05  5.961770E+04  5.153794E+04  2.040100E+04  2.674657E-09 -3.292196E-09
       162  11 -2.201898E+05  5.083503E+04  4.506821E+04  9.380736E+03  2.001866E-09 -3.825396E-09
       162  12 -2.584537E+05  4.149008E+04  3.750573E+04  2.050015E+04 -3.183578E-10 -3.494362E-09
       162  13 -4.259577E+05 -4.752700E+02 -5.239325E+03  2.007025E+04  1.558900E-10  1.123465E-09
       162  14 -4.257392E+05  1.116322E+02 -2.921812E+03  8.999488E+03 -1.011736E-09 -6.008942E-09
       162  15 -4.259534E+05  1.319564E+02 -1.714587E+03  2.006886E+04  3.253904E-09 -2.936864E-09
       162  16 -6.695075E+05 -6.057244E+04 -6.202060E+04  1.973960E+04 -1.013113E-09 -3.017634E-09
       162  17 -6.312497E+05 -5.061476E+04 -5.091471E+04  8.618344E+03  1.213590E-09  4.125334E-09
       162  18 -5.934271E+05 -4.122816E+04 -4.093681E+04  1.963767E+04  9.089119E-10  6.338845E-09
       162  19 -1.823531E+05  5.961781E+04  5.153817E+04  2.040104E+04  5.260984E+03  9.835164E+03
       162  20 -2.201897E+05  5.083511E+04  4.506837E+04  9.380761E+03  3.833345E+03  8.105459E+03
       162  21 -2.584537E+05  4.149012E+04  3.750581E+04  2.050016E+04  2.406485E+03  6.336300E+03
       162  22 -4.259577E+05 -4.751616E+02 -5.239111E+03  2.007028E+04  4.154235E+03  9.832894E+03
       162  23 -4.257392E+05  1.117046E+02 -2.921675E+03  8.999506E+03  2.701579E+03  8.102951E+03
       162  24 -4.259534E+05  1.319999E+02 -1.714508E+03  2.006886E+04  1.249614E+03  6.333543E+03
       162  25 -6.695075E+05 -6.057234E+04 -6.202040E+04  1.973963E+04  3.047918E+03  9.830625E+03
       162  26 -6.312497E+05 -5.061469E+04 -5.091458E+04  8.618355E+03  1.570184E+03  8.100444E+03
       162  27 -5.934271E+05 -4.122811E+04 -4.093674E+04  1.963767E+04  9.305354E+01  6.330787E+03
       163   1 -2.983098E+05  3.152110E+04  2.834111E+04  2.034981E+04 -2.126122E+03 -5.299104E+03
       163   2 -3.364491E+05  2.210983E+04  2.003915E+04  9.155999E+03 -1.724580E+03 -3.524907E+03
       163   3 -3.747621E+05  1.275012E+04  1.145857E+04  2.020444E+04 -1.323347E+03 -1.747074E+03
       163   4 -4.258932E+05  5.836491E+01 -1.334328E+03  2.009211E+04 -9.785899E+02 -5.296283E+03
       163   5 -4.258046E+05  5.797730E+01 -8.240392E+02  8.970819E+03 -5.747998E+02 -3.522003E+03
       163   6 -4.258914E+05  1.088453E+02 -5.939181E+02  2.009198E+04 -1.712933E+02 -1.744080E+03
       163   7 -5.534616E+05 -3.140552E+04 -3.101086E+04  1.983445E+04  1.687077E+02 -5.293463E+03
       163   8 -5.151526E+05 -2.199444E+04 -2.168777E+04  8.785662E+03  5.748162E+02 -3.519098E+03
       163   9 -4.770183E+05 -1.253262E+04 -1.264658E+04  1.997953E+04  9.806660E+02 -1.741086E+03
       163  10 -2.983098E+05  3.152107E+04  2.834105E+04  2.034980E+04  2.936750E-09 -5.558638E-09
       163  11 -3.364491E+05  2.210981E+04  2.003912E+04  9.155994E+03 -3.445854E-09  2.001570E-10
       163  12 -3.747621E+05  1.275012E+04  1.145856E+04  2.020444E+04 -4.812464E-09 -9.019114E-10
       163  13 -4.258932E+05  5.833454E+01 -1.334382E+03  2.009210E+04  3.475629E-09  9.531212E-10
       163  14 -4.258046E+05  5.796389E+01 -8.240631E+02  8.970818E+03  2.868057E-09 -4.960694E-09
       163  15 -4.258914E+05  1.088420E+02 -5.939239E+02  2.009198E+04  5.797825E-10 -3.507111E-09
       163  16 -5.534616E+05 -3.140555E+04 -3.101091E+04  1.983445E+04 -3.006517E-10  3.117828E-09
       163  17 -5.151527E+05 -2.199445E+04 -2.168779E+04  8.785664E+03  4.259811E-09  9.361187E-09
       163  18 -4.770183E+05 -1.253262E+04 -1.264659E+04  1.997953E+04  3.997972E-09  3.251913E-09
       163  19 -2.983098E+05  3.152110E+04  2.834111E+04  2.034981E+04  2.126122E+03  5.299104E+03
       163  20 -3.364491E+05  2.210983E+04  2.003915E+04  9.155999E+03  1.724580E+03  3.524907E+03
       163  21 -3.747621E+05  1.275012E+04  1.145857E+04  2.020444E+04  1.323347E+03  1.747074E+03
       163  22 -4.258932E+05  5.836491E+01 -1.334328E+03  2.009211E+04  9.785899E+02  5.296283E+03
       163  23 -4.258046E+05  5.797730E+01 -8.240392E+02  8.970819E+03  5.747998E+02  3.522003E+03
       163  24 -4.258914E+05  1.088453E+02 -5.939181E+02  2.009198E+04  1.712933E+02  1.744080E+03
       163  25 -5.534616E+05 -3.140552E+04 -3.101086E+04  1.983445E+04 -1.687077E+02  5.293463E+03
       163  26 -5.151526E+05 -2.199444E+04 -2.168777E+04  8.785662E+03 -5.748162E+02  3.519098E+03
       163  27 -4.770183E+05 -1.253262E+04 -1.264658E+04  1.997953E+04 -9.806660E+02  1.741086E+03
       164   1 -4.147831E+05  2.824550E+03  1.927266E+03  2.011679E+04 -1.222859E+03 -7.112850E+02
       164   2 -4.529637E+05 -6.645681E+03 -6.932697E+03  8.907476E+03 -9.331342E+02  1.067528E+03
       164   3 -4.913044E+05 -1.604135E+04 -1.599433E+04  1.996273E+04 -6.433431E+02  2.844199E+03
       164   4 -4.258877E+05  1.067677E+02 -5.514945E+02  2.009690E+04 -7.058190E+01 -7.082719E+02
       164   5 -4.258071E+05  5.671957E+01 -5.915610E+02  8.964683E+03  2.177213E+02  1.070510E+03
       164   6 -4.258883E+05  8.143848E+01 -8.323792E+02  2.009697E+04  5.061091E+02  2.847155E+03
       164   7 -4.369923E+05 -2.611023E+03 -3.030258E+03  2.007701E+04  1.081674E+03 -7.052589E+02
       164   8 -3.986499E+05  6.759069E+03  5.749530E+03  9.021892E+03  1.368627E+03  1.073492E+03
       164   9 -3.604682E+05  1.620392E+04  1.432929E+04  2.023122E+04  1.655682E+03  2.850112E+03
       164  10 -4.147831E+05  2.824550E+03  1.927263E+03  2.011679E+04 -1.664331E-09 -7.088250E-10
       164  11 -4.529637E+05 -6.645683E+03 -6.932701E+03  8.907477E+03 -2.358394E-10 -5.397002E-09
       164  12 -4.913044E+05 -1.604136E+04 -1.599435E+04  1.996273E+04 -4.145187E-09 -2.122795E-09
       164  13 -4.258877E+05  1.067671E+02 -5.514955E+02  2.009690E+04  2.151324E-09  4.525271E-09
       164  14 -4.258071E+05  5.671833E+01 -5.915633E+02  8.964683E+03 -2.840424E-09 -3.905778E-09
       164  15 -4.258883E+05  8.142970E+01 -8.323949E+02  2.009696E+04  8.825779E-10 -3.794568E-09
       164  16 -4.369923E+05 -2.611024E+03 -3.030261E+03  2.007701E+04 -4.282667E-10 -1.493540E-09
       164  17 -3.986499E+05  6.759067E+03  5.749524E+03  9.021891E+03  2.026729E-09 -9.968584E-09
       164  18 -3.604682E+05  1.620391E+04  1.432927E+04  2.023121E+04  3.990576E-09 -3.530920E-09
       164  19 -4.147831E+05  2.824550E+03  1.927266E+03  2.011679E+04  1.222859E+03  7.112850E+02
       164  20 -4.529637E+05 -6.645681E+03 -6.932697E+03  8.907476E+03  9.331342E+02 -1.067528E+03
       164  21 -4.913044E+05 -1.604135E+04 -1.599433E+04  1.996273E+04  6.433431E+02 -2.844199E+03
       164  22 -4.258877E+05  1.067677E+02 -5.514945E+02  2.009690E+04  7.058190E+01  7.082719E+02
       164  23 -4.258071E+05  5.671957E+01 -5.915610E+02  8.964683E+03 -2.177213E+02 -1.070510E+03
       164  24 -4.258883E+05  8.143848E+01 -8.323792E+02  2.009697E+04 -5.061091E+02 -2.847155E+03
       164  25 -4.369923E+05 -2.611023E+03 -3.030258E+03  2.007701E+04 -1.081674E+03  7.052589E+02
       164  26 -3.986499E+05  6.759069E+03  5.749530E+03  9.021892E+03 -1.368627E+03 -1.073492E+03
       164  27 -3.604682E+05  1.620392E+04  1.432929E+04  2.023122E+04 -1.655682E+03 -2.850112E+03
       165   1 -5.313238E+05 -2.591457E+04 -2.575961E+04  1.981288E+04 -4.870909E+02  3.882760E+03
       165   2 -5.693268E+05 -3.534619E+04 -3.522441E+04  8.706783E+03  3.779065E+02  5.656211E+03
       165   3 -6.076349E+05 -4.505773E+04 -4.535036E+04  1.980289E+04  1.243384E+03  7.395861E+03
       165   4 -4.259212E+05  1.236444E+02 -1.033099E+03  2.008275E+04  6.709274E+02  3.885687E+03
       165   5 -4.257717E+05  8.646484E+01 -1.701077E+03  8.982236E+03  1.514191E+03  5.658952E+03
       165   6 -4.259242E+05 -2.265486E+02 -3.014750E+03  2.008361E+04  2.357987E+03  7.398424E+03
       165   7 -3.205083E+05  2.616106E+04  2.369266E+04  2.035265E+04  1.829141E+03  3.888616E+03
       165   8 -2.821975E+05  3.551765E+04  3.182086E+04  9.257742E+03  2.650737E+03  5.661693E+03
       165   9 -2.441829E+05  4.460229E+04  3.931863E+04  2.036440E+04  3.472914E+03  7.400987E+03
       165  10 -5.313239E+05 -2.591458E+04 -2.575964E+04  1.981288E+04  1.683219E-09  5.368547E-10
       165  11 -5.693268E+05 -3.534622E+04 -3.522447E+04  8.706781E+03  1.771066E-11 -5.671951E-09
       165  12 -6.076349E+05 -4.505779E+04 -4.535047E+04  1.980288E+04 -5.467103E-09  6.685876E-11
       165  13 -4.259212E+05  1.236280E+02 -1.033128E+03  2.008275E+04  2.752005E-10  1.591932E-09
       165  14 -4.257717E+05  8.642984E+01 -1.701141E+03  8.982229E+03 -1.154772E-10  3.680219E-09
       165  15 -4.259242E+05 -2.266088E+02 -3.014863E+03  2.008360E+04 -3.305235E-10  2.356284E-09
       165  16 -3.205083E+05  2.616105E+04  2.369262E+04  2.035265E+04 -2.788827E-09  5.324149E-09
       165  17 -2.821975E+05  3.551762E+04  3.182079E+04  9.257730E+03  3.068345E-09  2.373320E-09
       165  18 -2.441830E+05  4.460223E+04  3.931851E+04  2.036438E+04  4.961302E-09  7.855139E-09
       165  19 -5.313238E+05 -2.591457E+04 -2.575961E+04  1.981288E+04  4.870909E+02 -3.882760E+03
       165  20 -5.693268E+05 -3.534619E+04 -3.522441E+04  8.706783E+03 -3.779065E+02 -5.656211E+03
       165  21 -6.076349E+05 -4.505773E+04 -4.535036E+04  1.980289E+04 -1.243384E+03 -7.395861E+03
       165  22 -4.259212E+05  1.236444E+02 -1.033099E+03  2.008275E+04 -6.709274E+02 -3.885687E+03
       165  23 -4.257717E+05  8.646484E+01 -1.701077E+03  8.982236E+03 -1.514191E+03 -5.658952E+03
       165  24 -4.259242E+05 -2.265486E+02 -3.014750E+03  2.008361E+04 -2.357987E+03 -7.398424E+03
       165  25 -3.205083E+05  2.616106E+04  2.369266E+04  2.035265E+04 -1.829141E+03 -3.888616E+03
       165  26 -2.821975E+05  3.551765E+04  3.182086E+04  9.257742E+03 -2.650737E+03 -5.661693E+03
       165  27 -2.441829E+05  4.460229E+04  3.931863E+04  2.036440E+04 -3.472914E+03 -7.400987E+03
       166   1 -6.477334E+05 -5.439044E+04 -5.570521E+04  1.901792E+04  1.676777E+03  8.497136E+03
       166   2 -6.848138E+05 -6.359368E+04 -6.719034E+04  8.910895E+03  5.389061E+03  1.020636E+04
       166   3 -7.235700E+05 -7.726021E+04 -8.222765E+04  2.085366E+04  9.103062E+03  1.135047E+04
       166   4 -4.262194E+05  3.100777E+02 -3.874952E+03  2.004642E+04  2.961498E+03  8.499985E+03
       166   5 -4.254161E+05  4.359336E+02 -6.600588E+03  9.026326E+03  6.309145E+03  1.020813E+04
       166   6 -4.262257E+05 -3.836924E+03 -1.262384E+04  2.005551E+04  9.658734E+03  1.135126E+04
       166   7 -2.046602E+05  5.500711E+04  4.795197E+04  2.107526E+04  4.246675E+03  8.502838E+03
       166   8 -1.659564E+05  6.446077E+04  5.398460E+04  9.141771E+03  7.229612E+03  1.020991E+04
       166   9 -1.287999E+05  6.958008E+04  5.697395E+04  1.925693E+04  1.021467E+04  1.135206E+04
       166  10 -6.477334E+05 -5.439052E+04 -5.570535E+04  1.901791E+04 -1.436509E-09 -2.596175E-10
       166  11 -6.848139E+05 -6.359380E+04 -6.719059E+04  8.910850E+03 -4.844926E-09  3.557552E-09
       166  12 -7.235701E+05 -7.726037E+04 -8.222805E+04  2.085358E+04 -1.531928E-09 -3.918905E-09
       166  13 -4.262195E+05  3.099978E+02 -3.875104E+03  2.004640E+04 -5.846643E-10 -3.472489E-09
       166  14 -4.254162E+05  4.358110E+02 -6.600859E+03  9.026274E+03 -1.070987E-09  2.610619E-09
       166  15 -4.262259E+05 -3.837087E+03 -1.262426E+04  2.005542E+04 -5.345512E-10 -6.261005E-09
       166  16 -2.046603E+05  5.500703E+04  4.795180E+04  2.107523E+04  1.726627E-09  1.105376E-09
       166  17 -1.659565E+05  6.446065E+04  5.398430E+04  9.141712E+03  5.304347E-09 -4.192882E-09
       166  18 -1.288001E+05  6.957991E+04  5.697351E+04  1.925683E+04  1.023814E-09  3.779091E-09
       166  19 -6.477334E+05 -5.439044E+04 -5.570521E+04  1.901792E+04 -1.676777E+03 -8.497136E+03
       166  20 -6.848138E+05 -6.359368E+04 -6.719034E+04  8.910895E+03 -5.389061E+03 -1.020636E+04
       166  21 -7.235700E+05 -7.726021E+04 -8.222765E+04  2.085366E+04 -9.103062E+03 -1.135047E+04
       166  22 -4.262194E+05  3.100777E+02 -3.874952E+03  2.004642E+04 -2.961498E+03 -8.499985E+03
       166  23 -4.254161E+05  4.359336E+02 -6.600588E+03  9.026326E+03 -6.309145E+03 -1.020813E+04
       166  24 -4.262257E+05 -3.836924E+03 -1.262384E+04  2.005551E+04 -9.658734E+03 -1.135126E+04
       166  25 -2.046602E+05  5.500711E+04  4.795197E+04  2.107526E+04 -4.246675E+03 -8.502838E+03
       166  26 -1.659564E+05  6.446077E+04  5.398460E+04  9.141771E+03 -7.229612E+03 -1.020991E+04
       166  27 -1.287999E+05  6.958008E+04  5.697395E+04  1.925693E+04 -1.021467E+04 -1.135206E+04
       167   1 -7.660953E+05 -8.055825E+04 -9.414251E+04  1.267590E+04  8.323293E+03  1.365145E+04
       167   2 -7.957452E+05 -8.796434E+04 -1.131188E+05  1.412186E+04  2.858869E+04  1.428381E+04
       167   3 -8.414492E+05 -1.489877E+05 -1.587061E+05  3.712782E+04  4.886982E+04  4.767384E+03
       167   4 -4.291840E+05  2.612089E+03 -1.560148E+04  1.991470E+04  1.199594E+04  1.365856E+04
       167   5 -4.217395E+05  4.377078E+03 -2.555963E+04  9.178065E+03  2.569864E+04  1.427759E+04
       167   6 -4.292010E+05 -4.631809E+04 -5.755832E+04  2.000175E+04  3.941859E+04  4.749755E+03
       167   7 -9.216772E+04  8.577459E+04  6.293194E+04  2.715740E+04  1.567057E+04  1.366574E+04
       167   8 -4.760463E+04  9.670866E+04  6.199007E+04  4.231207E+03  2.280685E+04  1.427141E+04
       167   9 -1.679700E+04  5.634008E+04  4.357743E+04  2.864207E+03  2.996109E+04  4.732655E+03
       167  10 -7.660954E+05 -8.055847E+04 -9.414299E+04  1.267581E+04  3.282391E-09 -1.589620E-09
       167  11 -7.957461E+05 -8.796478E+04 -1.131207E+05  1.412153E+04  8.474078E-09  4.215814E-09
       167  12 -8.414518E+05 -1.489884E+05 -1.587106E+05  3.712763E+04  7.834663E-09  5.327987E-09
       167  13 -4.291842E+05  2.611850E+03 -1.560210E+04  1.991456E+04  1.060433E-09 -4.835285E-09
       167  14 -4.217402E+05  4.376682E+03 -2.556125E+04  9.177769E+03 -2.665159E-09  1.249408E-09
       167  15 -4.292027E+05 -4.631853E+04 -5.756129E+04  2.000160E+04  5.465873E-10  2.676984E-09
       167  16 -9.216803E+04  8.577432E+04  6.293112E+04  2.715722E+04 -3.572522E-09  7.743254E-09
       167  17 -4.760525E+04  9.670830E+04  6.198871E+04  4.230945E+03 -6.714251E-09  1.032972E-08
       167  18 -1.679797E+04  5.633982E+04  4.357570E+04  2.864093E+03 -1.005329E-08  1.005617E-09
       167  19 -7.660953E+05 -8.055825E+04 -9.414251E+04  1.267590E+04 -8.323293E+03 -1.365145E+04
       167  20 -7.957452E+05 -8.796434E+04 -1.131188E+05  1.412186E+04 -2.858869E+04 -1.428381E+04
       167  21 -8.414492E+05 -1.489877E+05 -1.587061E+05  3.712782E+04 -4.886982E+04 -4.767384E+03
       167  22 -4.291840E+05  2.612089E+03 -1.560148E+04  1.991470E+04 -1.199594E+04 -1.365856E+04
       167  23 -4.217395E+05  4.377078E+03 -2.555963E+04  9.178065E+03 -2.569864E+04 -1.427759E+04
       167  24 -4.292010E+05 -4.631809E+04 -5.755832E+04  2.000175E+04 -3.941859E+04 -4.749755E+03
       167  25 -9.216772E+04  8.577459E+04  6.293194E+04  2.715740E+04 -1.567057E+04 -1.366574E+04
       167  26 -4.760463E+04  9.670866E+04  6.199007E+04  4.231207E+03 -2.280685E+04 -1.427141E+04
       167  27 -1.679700E+04  5.634008E+04  4.357743E+04  2.864207E+03 -2.996109E+04 -4.732655E+03
       168   1 -2.007580E+05 -7.773604E+05 -1.946694E+05  1.835124E+05 -8.217504E+03 -6.199863E+04
       168   2 -1.398985E+05 -6.099043E+05 -1.215353E+05  1.592934E+05 -2.523725E+04 -2.580944E+04
       168   3 -9.587446E+04 -4.512164E+05 -7.618020E+04  1.694576E+05 -2.448920E+04  1.041395E+04
       168   4 -2.067838E+04 -4.998947E+04 -2.217462E+04  1.702872E+05 -8.260706E+03 -1.672806E+04
       168   5 -5.181544E+03 -4.826639E+04 -9.880011E+03  1.531048E+05 -2.524811E+04 -1.162871E+04
       168   6 -1.109344E+03 -4.992943E+04 -3.752303E+03  1.703061E+05 -2.447426E+04 -6.505819E+03
       168   7  1.593650E+05  6.778726E+05  1.502911E+05  1.570464E+05 -8.305819E+03  2.859534E+04
       168   8  1.295164E+05  5.136738E+05  1.017603E+05  1.469106E+05 -2.525924E+04  2.564600E+03
       168   9  9.364691E+04  3.515150E+05  6.867037E+04  1.711551E+05 -2.445938E+04 -2.343623E+04
       168  10 -2.007591E+05 -7.773646E+05 -1.946768E+05  1.835120E+05  3.612162E-10 -2.370149E-08
       168  11 -1.398993E+05 -6.099052E+05 -1.215377E+05  1.592928E+05 -1.838102E-10 -2.872281E-10
       168  12 -9.587513E+04 -4.512166E+05 -7.618153E+04  1.694578E+05 -1.236783E-09  2.239973E-08
       168  13 -2.067852E+04 -4.998979E+04 -2.217527E+04  1.702871E+05  1.424070E-09  2.763116E-09
       168  14 -5.182264E+03 -4.826671E+04 -9.881462E+03  1.531046E+05 -1.090589E-09 -3.005834E-10
       168  15 -1.109999E+03 -4.992964E+04 -3.753508E+03  1.703059E+05 -8.375786E-10  1.890605E-10
       168  16  1.593647E+05  6.778717E+05  1.502895E+05  1.570466E+05 -7.678804E-10  2.589223E-08
       168  17  1.295157E+05  5.136736E+05  1.017591E+05  1.469107E+05  2.311036E-09  1.652572E-09
       168  18  9.364613E+04  3.515143E+05  6.866821E+04  1.711546E+05  1.590617E-09 -2.197981E-08
       168  19 -2.007580E+05 -7.773604E+05 -1.946694E+05  1.835124E+05  8.217504E+03  6.199863E+04
       168  20 -1.398985E+05 -6.099043E+05 -1.215353E+05  1.592934E+05  2.523725E+04  2.580944E+04
       168  21 -9.587446E+04 -4.512164E+05 -7.618020E+04  1.694576E+05  2.448920E+04 -1.041395E+04
       168  22 -2.067838E+04 -4.998947E+04 -2.217462E+04  1.702872E+05  8.260706E+03  1.672806E+04
       168  23 -5.181544E+03 -4.826639E+04 -9.880011E+03  1.531048E+05  2.524811E+04  1.162871E+04
       168  24 -1.109344E+03 -4.992943E+04 -3.752303E+03  1.703061E+05  2.447426E+04  6.505819E+03
       168  25  1.593650E+05  6.778726E+05  1.502911E+05  1.570464E+05  8.305819E+03 -2.859534E+04
       168  26  1.295164E+05  5.136738E+05  1.017603E+05  1.469106E+05  2.525924E+04 -2.564600E+03
       168  27  9.364691E+04  3.515150E+05  6.867037E+04  1.711551E+05  2.445938E+04  2.343623E+04
       169   1 -7.086759E+04 -3.440036E+05 -5.426882E+04  1.708129E+05 -1.840072E+04  9.151816E+03
       169   2 -3.090759E+04 -1.811617E+05 -1.926960E+04  1.533024E+05 -9.360148E+03  8.643185E+03
       169   3  9.603668E+03 -1.799060E+04  1.622170E+04  1.712940E+05  2.491134E+02  8.134115E+03
       169   4 -1.309284E+03 -4.905690E+04 -1.495157E+03  1.705513E+05 -1.838823E+04 -6.184107E+03
       169   5 -6.761078E+01 -4.928830E+04  3.034394E+03  1.528018E+05 -9.347634E+03 -7.690488E+03
       169   6  1.900037E+03 -4.904245E+04  8.749683E+03  1.705538E+05  2.615470E+02 -9.197190E+03
       169   7  6.824432E+04  2.459752E+05  5.127607E+04  1.702896E+05 -1.837574E+04 -2.152711E+04
       169   8  3.077159E+04  8.260278E+04  2.533883E+04  1.523011E+05 -9.335095E+03 -2.402752E+04
       169   9 -5.803500E+03 -8.009278E+04  1.278726E+03  1.698137E+05  2.740221E+02 -2.652763E+04
       169  10 -7.086797E+04 -3.440038E+05 -5.426961E+04  1.708130E+05 -4.090693E-10 -1.660231E-09
       169  11 -3.090770E+04 -1.811618E+05 -1.926991E+04  1.533025E+05 -3.571548E-09 -9.264763E-10
       169  12  9.603650E+03 -1.799067E+04  1.622158E+04  1.712940E+05 -1.531814E-09 -6.338235E-10
       169  13 -1.309658E+03 -4.905703E+04 -1.495864E+03  1.705512E+05 -2.835761E-10  2.797181E-09
       169  14 -6.772046E+01 -4.928838E+04  3.034119E+03  1.528017E+05  3.664585E-10  5.520955E-10
       169  15  1.900015E+03 -4.904254E+04  8.749524E+03  1.705538E+05 -3.338476E-09 -8.613503E-10
       169  16  6.824383E+04  2.459746E+05  5.127456E+04  1.702892E+05 -8.283324E-10  3.328740E-09
       169  17  3.077134E+04  8.260214E+04  2.533759E+04  1.523009E+05 -1.419125E-09  2.566036E-09
       169  18 -5.803689E+03 -8.009353E+04  1.277403E+03  1.698137E+05 -6.005762E-10  1.278829E-09
       169  19 -7.086759E+04 -3.440036E+05 -5.426882E+04  1.708129E+05  1.840072E+04 -9.151816E+03
       169  20 -3.090759E+04 -1.811617E+05 -1.926960E+04  1.533024E+05  9.360148E+03 -8.643185E+03
       169  21  9.603668E+03 -1.799060E+04  1.622170E+04  1.712940E+05 -2.491134E+02 -8.134115E+03
       169  22 -1.309284E+03 -4.905690E+04 -1.495157E+03  1.705513E+05  1.838823E+04  6.184107E+03
       169  23 -6.761078E+01 -4.928830E+04  3.034394E+03  1.528018E+05  9.347634E+03  7.690488E+03
       169  24  1.900037E+03 -4.904245E+04  8.749683E+03  1.705538E+05 -2.615470E+02  9.197190E+03
       169  25  6.824432E+04  2.459752E+05  5.127607E+04  1.702896E+05  1.837574E+04  2.152711E+04
       169  26  3.077159E+04  8.260278E+04  2.533883E+04  1.523011E+05  9.335095E+03  2.402752E+04
       169  27 -5.803500E+03 -8.009278E+04  1.278726E+03  1.698137E+05 -2.740221E+02  2.652763E+04
       170   1  3.424162E+04  8.978959E+04  3.899711E+04  1.680499E+05  6.683831E+03  7.570456E+03
       170   2  8.244743E+04  2.471120E+05  8.560477E+04  1.659302E+05  1.131701E+04 -2.517781E+04
       170   3  1.597109E+05  4.160874E+05  1.608136E+05  1.986656E+05  4.288961E+03 -5.794789E+04
       170   4  1.478213E+03 -4.735403E+04  1.234142E+04  1.704036E+05  6.697273E+03 -1.071984E+04
       170   5  1.042960E+04 -5.141452E+04  2.387596E+04  1.529967E+05  1.131626E+04 -2.302940E+04
       170   6  4.490074E+04 -4.738464E+04  4.982661E+04  1.704421E+05  4.273055E+03 -3.535217E+04
       170   7 -3.128612E+04 -1.844789E+05 -1.431390E+04  1.727569E+05  6.710576E+03 -2.900618E+04
       170   8 -6.159323E+04 -3.498562E+05 -3.785757E+04  1.400696E+05  1.131542E+04 -2.088200E+04
       170   9 -6.992169E+04 -5.106571E+05 -6.117319E+04  1.422397E+05  4.255091E+03 -1.277323E+04
       170  10  3.424156E+04  8.978951E+04  3.899691E+04  1.680498E+05  3.704700E-10  2.366351E-09
       170  11  8.244712E+04  2.471113E+05  8.560334E+04  1.659305E+05  2.260801E-09 -3.062371E-10
       170  12  1.597100E+05  4.160838E+05  1.608072E+05  1.986658E+05  1.130657E-10 -3.066737E-09
       170  13  1.478134E+03 -4.735417E+04  1.234112E+04  1.704037E+05  1.263205E-09  2.164444E-09
       170  14  1.042932E+04 -5.141513E+04  2.387472E+04  1.529969E+05  3.429073E-09  1.205918E-11
       170  15  4.490039E+04 -4.738598E+04  4.982423E+04  1.704422E+05  7.587859E-10 -1.412844E-10
       170  16 -3.128639E+04 -1.844798E+05 -1.431557E+04  1.727570E+05 -2.844240E-09 -1.003910E-09
       170  17 -6.159349E+04 -3.498567E+05 -3.785863E+04  1.400697E+05  1.700579E-09  1.218755E-09
       170  18 -6.992175E+04 -5.106573E+05 -6.117353E+04  1.422398E+05 -3.881282E-10  2.977162E-09
       170  19  3.424162E+04  8.978959E+04  3.899711E+04  1.680499E+05 -6.683831E+03 -7.570456E+03
       170  20  8.244743E+04  2.471120E+05  8.560477E+04  1.659302E+05 -1.131701E+04  2.517781E+04
       170  21  1.597109E+05  4.160874E+05  1.608136E+05  1.986656E+05 -4.288961E+03  5.794789E+04
       170  22  1.478213E+03 -4.735403E+04  1.234142E+04  1.704036E+05 -6.697273E+03  1.071984E+04
       170  23  1.042960E+04 -5.141452E+04  2.387596E+04  1.529967E+05 -1.131626E+04  2.302940E+04
       170  24  4.490074E+04 -4.738464E+04  4.982661E+04  1.704421E+05 -4.273055E+03  3.535217E+04
       170  25 -3.128612E+04 -1.844789E+05 -1.431390E+04  1.727569E+05 -6.710576E+03  2.900618E+04
       170  26 -6.159323E+04 -3.498562E+05 -3.785757E+04  1.400696E+05 -1.131542E+04  2.088200E+04
       170  27 -6.992169E+04 -5.106571E+05 -6.117319E+04  1.422397E+05 -4.255091E+03  1.277323E+04
       171   1  8.872008E+05  3.287598E+05  2.132249E+05  3.135799E+05  8.662159E+04  2.793800E+04
       171   2  8.542788E+05  1.983558E+05  1.317973E+05  3.115933E+05  5.648720E+04  7.028227E+03
       171   3  8.534449E+05  1.848322E+05  1.038831E+05  2.962325E+05  2.301424E+04 -5.011105E+03
       171   4  5.708184E+05  1.771362E+05  1.214739E+05  1.940359E+05  7.881440E+04  2.499215E+04
       171   5  5.488937E+05  7.395628E+04  5.130792E+04  2.177811E+05  5.408129E+04  6.120182E+03
       171   6  5.580075E+05  8.661750E+04  3.039844E+04  2.281467E+05  2.600763E+04 -3.882660E+03
       171   7  2.545390E+05  2.553973E+04  2.971461E+04  7.455419E+04  7.101163E+04  2.204899E+04
       171   8  2.436005E+05 -5.043223E+04 -2.918921E+04  1.240124E+05  5.167668E+04  5.212721E+03
       171   9  2.626534E+05 -1.159645E+04 -4.309321E+04  1.600878E+05  2.899948E+04 -2.754645E+03
       171  10  8.871925E+05  3.287569E+05  2.132094E+05  3.135780E+05  2.424331E-10 -2.925448E-10
       171  11  8.542754E+05  1.983549E+05  1.317912E+05  3.115930E+05 -1.190571E-09  1.988646E-09
       171  12  8.534443E+05  1.848320E+05  1.038821E+05  2.962326E+05 -4.283779E-10  1.108763E-09
       171  13  5.708116E+05  1.771339E+05  1.214611E+05  1.940343E+05 -1.569260E-09 -2.129689E-09
       171  14  5.488905E+05  7.395546E+04  5.130236E+04  2.177808E+05 -3.337127E-09  4.018668E-09
       171  15  5.580068E+05  8.661730E+04  3.039714E+04  2.281468E+05  9.357353E-10 -1.962298E-09
       171  16  2.545334E+05  2.553785E+04  2.970423E+04  7.455293E+04 -1.800364E-09  9.490116E-10
       171  17  2.435977E+05 -5.043298E+04 -2.919427E+04  1.240122E+05 -3.317370E-09 -1.728769E-09
       171  18  2.626525E+05 -1.159668E+04 -4.309480E+04  1.600878E+05 -1.883858E-09 -3.199185E-09
       171  19  8.872008E+05  3.287598E+05  2.132249E+05  3.135799E+05 -8.662159E+04 -2.793800E+04
       171  20  8.542788E+05  1.983558E+05  1.317973E+05  3.115933E+05 -5.648720E+04 -7.028227E+03
       171  21  8.534449E+05  1.848322E+05  1.038831E+05  2.962325E+05 -2.301424E+04  5.011105E+03
       171  22  5.708184E+05  1.771362E+05  1.214739E+05  1.940359E+05 -7.881440E+04 -2.499215E+04
       171  23  5.488937E+05  7.395628E+04  5.130792E+04  2.177811E+05 -5.408129E+04 -6.120182E+03
       171  24  5.580075E+05  8.661750E+04  3.039844E+04  2.281467E+05 -2.600763E+04  3.882660E+03
       171  25  2.545390E+05  2.553973E+04  2.971461E+04  7.455419E+04 -7.101163E+04 -2.204899E+04
       171  26  2.436005E+05 -5.043223E+04 -2.918921E+04  1.240124E+05 -5.167668E+04 -5.212721E+03
       171  27  2.626534E+05 -1.159645E+04 -4.309321E+04  1.600878E+05 -2.899948E+04  2.754645E+03
       172   1  8.091708E+05  1.965286E+05  9.080995E+04  2.939574E+05  2.085271E+04 -3.633797E+03
       172   2  7.875514E+05  1.706313E+05  7.148813E+04  2.812241E+05  1.404420E+04 -5.401184E+03
       172   3  7.586344E+05  1.661099E+05  5.964630E+04  2.796250E+05  7.038476E+03 -6.646063E+03
       172   4  5.540948E+05  9.817069E+04  2.453104E+04  2.213251E+05  2.111439E+04 -3.535566E+03
       172   5  5.572009E+05  8.345516E+04  1.208162E+04  2.172901E+05  1.462578E+04 -5.182116E+03
       172   6  5.529470E+05  9.005471E+04  6.861243E+03  2.243889E+05  7.939643E+03 -6.306214E+03
       172   7  2.990820E+05 -1.820995E+02 -4.175332E+04  1.487201E+05  2.137596E+04 -3.437383E+03
       172   8  3.269024E+05 -3.717147E+03 -4.732917E+04  1.533778E+05  1.520712E+04 -4.963139E+03
       172   9  3.473014E+05  1.400215E+04 -4.592707E+04  1.691694E+05  8.840479E+03 -5.966485E+03
       172  10  8.091703E+05  1.965285E+05  9.080911E+04  2.939575E+05 -1.483599E-09  5.712088E-10
       172  11  7.875512E+05  1.706312E+05  7.148771E+04  2.812242E+05  5.053988E-10  6.689063E-10
       172  12  7.586343E+05  1.661099E+05  5.964612E+04  2.796250E+05  9.239501E-10 -5.369928E-09
       172  13  5.540943E+05  9.817056E+04  2.453018E+04  2.213252E+05  1.067522E-09  6.678531E-10
       172  14  5.572007E+05  8.345507E+04  1.208117E+04  2.172902E+05 -2.834689E-09 -7.963389E-09
       172  15  5.529469E+05  9.005465E+04  6.861050E+03  2.243890E+05 -3.921003E-10  8.290090E-10
       172  16  2.990815E+05 -1.822348E+02 -4.175421E+04  1.487201E+05  1.733454E-09 -4.330439E-09
       172  17  3.269022E+05 -3.717236E+03 -4.732965E+04  1.533778E+05 -1.857983E-09  6.969560E-09
       172  18  3.473013E+05  1.400210E+04 -4.592728E+04  1.691695E+05  1.543364E-09  5.933525E-09
       172  19  8.091708E+05  1.965286E+05  9.080995E+04  2.939574E+05 -2.085271E+04  3.633797E+03
       172  20  7.875514E+05  1.706313E+05  7.148813E+04  2.812241E+05 -1.404420E+04  5.401184E+03
       172  21  7.586344E+05  1.661099E+05  5.964630E+04  2.796250E+05 -7.038476E+03  6.646063E+03
       172  22  5.540948E+05  9.817069E+04  2.453104E+04  2.213251E+05 -2.111439E+04  3.535566E+03
       172  23  5.572009E+05  8.345516E+04  1.208162E+04  2.172901E+05 -1.462578E+04  5.182116E+03
       172  24  5.529470E+05  9.005471E+04  6.861243E+03  2.243889E+05 -7.939643E+03  6.306214E+03
       172  25  2.990820E+05 -1.820995E+02 -4.175332E+04  1.487201E+05 -2.137596E+04  3.437383E+03
       172  26  3.269024E+05 -3.717147E+03 -4.732917E+04  1.533778E+05 -1.520712E+04  4.963139E+03
       172  27  3.473014E+05  1.400215E+04 -4.592707E+04  1.691694E+05 -8.840479E+03  5.966485E+03
       173   1  7.285336E+05  1.572853E+05  5.054460E+04  2.722183E+05  5.924019E+03 -6.146081E+03
       173   2  7.084725E+05  1.409675E+05  4.153692E+04  2.586714E+05  4.026473E+03 -5.463674E+03
       173   3  6.773195E+05  1.371541E+05  3.383507E+04  2.581643E+05  2.118731E+03 -4.755257E+03
       173   4  5.525369E+05  9.102704E+04  5.302120E+03  2.237082E+05  6.658884E+03 -5.868896E+03
       173   5  5.580358E+05  8.442616E+04  2.814588E+03  2.173209E+05  4.777565E+03 -5.180245E+03
       173   6  5.524395E+05  9.032693E+04  1.620499E+03  2.239735E+05  2.885987E+03 -4.465603E+03
       173   7  3.765697E+05  2.477054E+04 -3.994308E+04  1.752103E+05  7.393524E+03 -5.591798E+03
       173   8  4.076208E+05  2.788615E+04 -3.590969E+04  1.759794E+05  5.528459E+03 -4.896891E+03
       173   9  4.275747E+05  4.350073E+04 -3.059537E+04  1.897890E+05  3.653074E+03 -4.176012E+03
       173  10  7.285336E+05  1.572853E+05  5.054446E+04  2.722184E+05 -1.797799E-09 -3.710044E-09
       173  11  7.084724E+05  1.409675E+05  4.153684E+04  2.586714E+05  2.070478E-09  2.136232E-09
       173  12  6.773195E+05  1.371541E+05  3.383502E+04  2.581643E+05 -3.256695E-10 -4.561259E-09
       173  13  5.525369E+05  9.102699E+04  5.301972E+03  2.237082E+05  8.193499E-10 -3.522083E-09
       173  14  5.580358E+05  8.442613E+04  2.814495E+03  2.173209E+05  1.755269E-10  4.688763E-09
       173  15  5.524395E+05  9.032691E+04  1.620446E+03  2.239735E+05 -4.373152E-09 -2.574382E-09
       173  16  3.765697E+05  2.477049E+04 -3.994324E+04  1.752104E+05  2.351994E-09  1.780989E-09
       173  17  4.076208E+05  2.788612E+04 -3.590979E+04  1.759794E+05 -1.003637E-09  3.820438E-09
       173  18  4.275746E+05  4.350071E+04 -3.059543E+04  1.897890E+05 -3.167043E-09 -7.393006E-09
       173  19  7.285336E+05  1.572853E+05  5.054460E+04  2.722183E+05 -5.924019E+03  6.146081E+03
       173  20  7.084725E+05  1.409675E+05  4.153692E+04  2.586714E+05 -4.026473E+03  5.463674E+03
       173  21  6.773195E+05  1.371541E+05  3.383507E+04  2.581643E+05 -2.118731E+03  4.755257E+03
       173  22  5.525369E+05  9.102704E+04  5.302120E+03  2.237082E+05 -6.658884E+03  5.868896E+03
       173  23  5.580358E+05  8.442616E+04  2.814588E+03  2.173209E+05 -4.777565E+03  5.180245E+03
       173  24  5.524395E+05  9.032693E+04  1.620499E+03  2.239735E+05 -2.885987E+03  4.465603E+03
       173  25  3.765697E+05  2.477054E+04 -3.994308E+04  1.752103E+05 -7.393524E+03  5.591798E+03
       173  26  4.076208E+05  2.788615E+04 -3.590969E+04  1.759794E+05 -5.528459E+03  4.896891E+03
       173  27  4.275747E+05  4.350073E+04 -3.059537E+04  1.897890E+05 -3.653074E+03  4.176012E+03
       174   1  6.488642E+05  1.266243E+05  2.600409E+04  2.504063E+05  1.616686E+03 -4.109600E+03
       174   2  6.291560E+05  1.112529E+05  1.909673E+04  2.368810E+05  7.421606E+02 -3.018214E+03
       174   3  5.980133E+05  1.074941E+05  1.251330E+04  2.364317E+05 -1.322037E+02 -1.927693E+03
       174   4  5.524020E+05  9.038480E+04  1.268762E+03  2.238859E+05  2.372448E+03 -3.824228E+03
       174   5  5.581167E+05  8.455437E+04  8.108735E+02  2.173571E+05  1.497459E+03 -2.732963E+03
       174   6  5.523962E+05  9.033679E+04  6.773465E+02  2.239045E+05  6.226105E+02 -1.642566E+03
       174   7  4.559492E+05  5.414608E+04 -2.346723E+04  1.973692E+05  3.128079E+03 -3.538906E+03
       174   8  4.870823E+05  5.785618E+04 -1.747540E+04  1.978353E+05  2.252663E+03 -2.447748E+03
       174   9  5.067811E+05  7.317952E+04 -1.115882E+04  2.113780E+05  1.377367E+03 -1.357462E+03
       174  10  6.488641E+05  1.266242E+05  2.600405E+04  2.504063E+05 -2.763679E-09 -5.487629E-10
       174  11  6.291560E+05  1.112529E+05  1.909672E+04  2.368810E+05 -2.917758E-09  7.493010E-09
       174  12  5.980133E+05  1.074941E+05  1.251329E+04  2.364317E+05  4.921327E-09 -3.806940E-09
       174  13  5.524020E+05  9.038478E+04  1.268724E+03  2.238859E+05 -2.115515E-09 -2.714631E-09
       174  14  5.581167E+05  8.455436E+04  8.108553E+02  2.173571E+05 -1.203110E-09 -7.095759E-09
       174  15  5.523962E+05  9.033679E+04  6.773407E+02  2.239045E+05 -6.244857E-10 -2.211480E-09
       174  16  4.559492E+05  5.414606E+04 -2.346727E+04  1.973692E+05 -2.118489E-10 -1.196914E-09
       174  17  4.870823E+05  5.785618E+04 -1.747542E+04  1.978353E+05  1.230669E-09 -1.071897E-08
       174  18  5.067811E+05  7.317952E+04 -1.115882E+04  2.113780E+05  1.529041E-09  4.361737E-09
       174  19  6.488642E+05  1.266243E+05  2.600409E+04  2.504063E+05 -1.616686E+03  4.109600E+03
       174  20  6.291560E+05  1.112529E+05  1.909673E+04  2.368810E+05 -7.421606E+02  3.018214E+03
       174  21  5.980133E+05  1.074941E+05  1.251330E+04  2.364317E+05  1.322037E+02  1.927693E+03
       174  22  5.524020E+05  9.038480E+04  1.268762E+03  2.238859E+05 -2.372448E+03  3.824228E+03
       174  23  5.581167E+05  8.455437E+04  8.108735E+02  2.173571E+05 -1.497459E+03  2.732963E+03
       174  24  5.523962E+05  9.033679E+04  6.773465E+02  2.239045E+05 -6.226105E+02  1.642566E+03
       174  25  4.559492E+05  5.414608E+04 -2.346723E+04  1.973692E+05 -3.128079E+03  3.538906E+03
       174  26  4.870823E+05  5.785618E+04 -1.747540E+04  1.978353E+05 -2.252663E+03  2.447748E+03
       174  27  5.067811E+05  7.317952E+04 -1.115882E+04  2.113780E+05 -1.377367E+03  1.357462E+03
       175   1  5.698439E+05  9.688341E+04  5.096080E+03  2.287147E+05 -5.187037E+02 -1.247410E+03
       175   2  5.501948E+05  8.159763E+04 -1.103399E+03  2.152016E+05 -1.452482E+03 -1.816352E+02
       175   3  5.191522E+05  7.791300E+04 -6.930206E+03  2.147268E+05 -2.385781E+03  8.830693E+02
       175   4  5.524049E+05  9.032864E+04  6.985039E+02  2.238983E+05  2.354137E+02 -9.625291E+02
       175   5  5.581068E+05  8.456195E+04  9.315560E+02  2.173665E+05 -6.990492E+02  1.029786E+02
       175   6  5.524145E+05  9.039640E+04  1.537807E+03  2.238726E+05 -1.633054E+03  1.167410E+03
       175   7  5.349663E+05  8.377389E+04 -3.699093E+03  2.190820E+05  9.895079E+02 -6.776569E+02
       175   8  5.660189E+05  8.752626E+04  2.966505E+03  2.195314E+05  5.439245E+01  3.875958E+02
       175   9  5.856777E+05  1.028798E+05  1.000570E+04  2.330188E+05 -8.802849E+02  1.451766E+03
       175  10  5.698439E+05  9.688341E+04  5.096076E+03  2.287147E+05  4.715023E-09 -1.429005E-09
       175  11  5.501948E+05  8.159763E+04 -1.103403E+03  2.152016E+05  1.340545E-09  7.724125E-09
       175  12  5.191522E+05  7.791300E+04 -6.930218E+03  2.147268E+05  1.055947E-09 -9.288043E-09
       175  13  5.524049E+05  9.032864E+04  6.985020E+02  2.238983E+05  4.546945E-09  1.227013E-08
       175  14  5.581068E+05  8.456195E+04  9.315551E+02  2.173665E+05  2.767937E-09 -1.154102E-09
       175  15  5.524145E+05  9.039640E+04  1.537799E+03  2.238726E+05 -1.326039E-09 -4.694509E-09
       175  16  5.349663E+05  8.377388E+04 -3.699096E+03  2.190820E+05  1.878538E-09  3.702354E-09
       175  17  5.660189E+05  8.752626E+04  2.966504E+03  2.195314E+05  1.743239E-09 -3.842410E-09
       175  18  5.856777E+05  1.028798E+05  1.000569E+04  2.330188E+05 -1.149731E-09  1.690522E-09
       175  19  5.698439E+05  9.688341E+04  5.096080E+03  2.287147E+05  5.187037E+02  1.247410E+03
       175  20  5.501948E+05  8.159763E+04 -1.103399E+03  2.152016E+05  1.452482E+03  1.816352E+02
       175  21  5.191522E+05  7.791300E+04 -6.930206E+03  2.147268E+05  2.385781E+03 -8.830693E+02
       175  22  5.524049E+05  9.032864E+04  6.985039E+02  2.238983E+05 -2.354137E+02  9.625291E+02
       175  23  5.581068E+05  8.456195E+04  9.315560E+02  2.173665E+05  6.990492E+02 -1.029786E+02
       175  24  5.524145E+05  9.039640E+04  1.537807E+03  2.238726E+05  1.633054E+03 -1.167410E+03
       175  25  5.349663E+05  8.377389E+04 -3.699093E+03  2.190820E+05 -9.895079E+02  6.776569E+02
       175  26  5.660189E+05  8.752626E+04  2.966505E+03  2.195314E+05 -5.439245E+01 -3.875958E+02
       175  27  5.856777E+05  1.028798E+05  1.000570E+04  2.330188E+05  8.802849E+02 -1.451766E+03
       176   1  4.909220E+05  6.730486E+04 -1.392535E+04  2.072056E+05 -2.958450E+03  1.497081E+03
       176   2  4.711041E+05  5.175794E+04 -1.887866E+04  1.934534E+05 -5.174434E+03  2.080242E+03
       176   3  4.403886E+05  4.883669E+04 -2.224110E+04  1.925920E+05 -7.381563E+03  2.640761E+03
       176   4  5.524790E+05  9.030463E+04  1.986241E+03  2.239604E+05 -2.197066E+03  1.784668E+03
       176   5  5.579883E+05  8.443059E+04  3.491464E+03  2.173484E+05 -4.427089E+03  2.362457E+03
       176   6  5.526026E+05  9.118495E+04  6.598666E+03  2.236271E+05 -6.648333E+03  2.917577E+03
       176   7  6.140398E+05  1.133047E+05  1.789758E+04  2.407168E+05 -1.435597E+03  2.072286E+03
       176   8  6.448800E+05  1.171038E+05  2.586101E+04  2.412466E+05 -3.679628E+03  2.644715E+03
       176   9  6.648289E+05  1.335341E+05  3.543740E+04  2.546674E+05 -5.914957E+03  3.194449E+03
       176  10  4.909220E+05  6.730486E+04 -1.392537E+04  2.072056E+05 -2.418796E-09 -9.645853E-09
       176  11  4.711040E+05  5.175792E+04 -1.887872E+04  1.934534E+05 -3.316638E-09  3.106030E-09
       176  12  4.403886E+05  4.883666E+04 -2.224121E+04  1.925920E+05  2.245838E-11  4.447139E-09
       176  13  5.524790E+05  9.030463E+04  1.986226E+03  2.239604E+05  6.687657E-10 -2.941305E-09
       176  14  5.579883E+05  8.443058E+04  3.491417E+03  2.173484E+05 -4.764717E-10 -6.527975E-09
       176  15  5.526026E+05  9.118493E+04  6.598567E+03  2.236271E+05 -3.156173E-09 -3.964833E-09
       176  16  6.140398E+05  1.133047E+05  1.789757E+04  2.407168E+05  8.515146E-10  7.913089E-09
       176  17  6.448800E+05  1.171038E+05  2.586097E+04  2.412466E+05  2.518577E-09  8.123760E-09
       176  18  6.648289E+05  1.335341E+05  3.543731E+04  2.546674E+05  7.900219E-10 -6.285572E-09
       176  19  4.909220E+05  6.730486E+04 -1.392535E+04  2.072056E+05  2.958450E+03 -1.497081E+03
       176  20  4.711041E+05  5.175794E+04 -1.887866E+04  1.934534E+05  5.174434E+03 -2.080242E+03
       176  21  4.403886E+05  4.883669E+04 -2.224110E+04  1.925920E+05  7.381563E+03 -2.640761E+03
       176  22  5.524790E+05  9.030463E+04  1.986241E+03  2.239604E+05  2.197066E+03 -1.784668E+03
       176  23  5.579883E+05  8.443059E+04  3.491464E+03  2.173484E+05  4.427089E+03 -2.362457E+03
       176  24  5.526026E+05  9.118495E+04  6.598666E+03  2.236271E+05  6.648333E+03 -2.917577E+03
       176  25  6.140398E+05  1.133047E+05  1.789758E+04  2.407168E+05  1.435597E+03 -2.072286E+03
       176  26  6.448800E+05  1.171038E+05  2.586101E+04  2.412466E+05  3.679628E+03 -2.644715E+03
       176  27  6.648289E+05  1.335341E+05  3.543740E+04  2.546674E+05  5.914957E+03 -3.194449E+03
       177   1  4.112924E+05  3.815919E+04 -2.776703E+04  1.870498E+05 -9.028331E+03  2.916227E+03
       177   2  3.911028E+05  2.010862E+04 -2.779104E+04  1.709331E+05 -1.698432E+04  1.304774E+03
       177   3  3.647069E+05  2.553064E+04 -1.901575E+04  1.652193E+05 -2.477905E+04 -7.319459E+02
       177   4  5.531338E+05  8.995210E+04  8.543776E+03  2.244527E+05 -8.160430E+03  3.243849E+03
       177   5  5.569295E+05  8.325236E+04  1.505695E+04  2.173398E+05 -1.637677E+04  1.533929E+03
       177   6  5.545685E+05  1.000741E+05  3.057373E+04  2.206293E+05 -2.443221E+04 -6.013968E+02
       177   7  6.949942E+05  1.417458E+05  4.485281E+04  2.618632E+05 -7.292315E+03  3.571546E+03
       177   8  7.227829E+05  1.463981E+05  5.790265E+04  2.637579E+05 -1.576904E+04  1.763154E+03
       177   9  7.444658E+05  1.746211E+05  8.016034E+04  2.760552E+05 -2.408525E+04 -4.707984E+02
       177  10  4.112923E+05  3.815915E+04 -2.776720E+04  1.870498E+05 -5.079270E-09  1.603479E-09
       177  11  3.911025E+05  2.010854E+04 -2.779158E+04  1.709331E+05 -2.269066E-09  4.233414E-09
       177  12  3.647063E+05  2.553048E+04 -1.901690E+04  1.652193E+05  4.207287E-09  5.037790E-10
       177  13  5.531337E+05  8.995207E+04  8.543631E+03  2.244528E+05 -3.860967E-09 -4.628240E-09
       177  14  5.569292E+05  8.325228E+04  1.505644E+04  2.173399E+05 -4.339133E-09  8.791888E-09
       177  15  5.545678E+05  1.000740E+05  3.057261E+04  2.206293E+05 -2.388257E-10  7.594787E-10
       177  16  6.949942E+05  1.417458E+05  4.485268E+04  2.618632E+05  9.928643E-10 -3.028539E-10
       177  17  7.227826E+05  1.463980E+05  5.790218E+04  2.637579E+05 -1.335676E-09 -2.302675E-10
       177  18  7.444652E+05  1.746209E+05  8.015925E+04  2.760551E+05  1.385604E-09  2.215547E-09
       177  19  4.112924E+05  3.815919E+04 -2.776703E+04  1.870498E+05  9.028331E+03 -2.916227E+03
       177  20  3.911028E+05  2.010862E+04 -2.779104E+04  1.709331E+05  1.698432E+04 -1.304774E+03
       177  21  3.647069E+05  2.553064E+04 -1.901575E+04  1.652193E+05  2.477905E+04  7.319459E+02
       177  22  5.531338E+05  8.995210E+04  8.543776E+03  2.244527E+05  8.160430E+03 -3.243849E+03
       177  23  5.569295E+05  8.325236E+04  1.505695E+04  2.173398E+05  1.637677E+04 -1.533929E+03
       177  24  5.545685E+05  1.000741E+05  3.057373E+04  2.206293E+05  2.443221E+04  6.013968E+02
       177  25  6.949942E+05  1.417458E+05  4.485281E+04  2.618632E+05  7.292315E+03 -3.571546E+03
       177  26  7.227829E+05  1.463981E+05  5.790265E+04  2.637579E+05  1.576904E+04 -1.763154E+03
       177  27  7.444658E+05  1.746211E+05  8.016034E+04  2.760552E+05  2.408525E+04  4.707984E+02
       178   1  3.269671E+05  1.414481E+04 -1.888876E+04  1.814727E+05 -3.283082E+04 -1.841692E+03
       178   2  3.085897E+05 -3.016035E+04  3.390690E+02  1.401251E+05 -6.343432E+04 -1.265958E+04
       178   3  3.311047E+05  6.596922E+04  7.749172E+04  7.854735E+04 -9.131993E+04 -3.068063E+04
       178   4  5.594458E+05  8.567194E+04  3.788677E+04  2.291250E+05 -3.026573E+04 -8.732225E+02
       178   5  5.465767E+05  7.143373E+04  6.395638E+04  2.179660E+05 -6.525607E+04 -1.334844E+04
       178   6  5.754456E+05  1.984630E+05  1.514079E+05  1.865821E+05 -9.752939E+04 -3.302892E+04
       178   7  7.919778E+05  1.571989E+05  9.465860E+04  2.767917E+05 -2.769959E+04  9.548310E+01
       178   8  7.846181E+05  1.730357E+05  1.275684E+05  2.958351E+05 -6.707856E+04 -1.403767E+04
       178   9  8.198452E+05  3.309806E+05  2.253177E+05  2.946600E+05 -1.037414E+05 -3.537920E+04
       178  10  3.269660E+05  1.414452E+04 -1.889079E+04  1.814726E+05 -1.152120E-09 -3.927848E-10
       178  11  3.085853E+05 -3.016160E+04  3.312108E+02  1.401244E+05 -1.311184E-09 -2.472562E-09
       178  12  3.310955E+05  6.596598E+04  7.747429E+04  7.854510E+04  2.165798E-09  1.132475E-09
       178  13  5.594448E+05  8.567169E+04  3.788505E+04  2.291250E+05  7.195655E-10 -4.470570E-09
       178  14  5.465721E+05  7.143240E+04  6.394805E+04  2.179653E+05 -8.321137E-10 -2.775819E-09
       178  15  5.754351E+05  1.984593E+05  1.513880E+05  1.865795E+05 -7.540886E-10  1.667235E-09
       178  16  7.919769E+05  1.571987E+05  9.465716E+04  2.767917E+05  5.430570E-09  8.946091E-09
       178  17  7.846132E+05  1.730343E+05  1.275596E+05  2.958343E+05 -2.385100E-09  2.440317E-09
       178  18  8.198334E+05  3.309763E+05  2.252951E+05  2.946571E+05 -2.922473E-09  5.514376E-09
       178  19  3.269671E+05  1.414481E+04 -1.888876E+04  1.814727E+05  3.283082E+04  1.841692E+03
       178  20  3.085897E+05 -3.016035E+04  3.390690E+02  1.401251E+05  6.343432E+04  1.265958E+04
       178  21  3.311047E+05  6.596922E+04  7.749172E+04  7.854735E+04  9.131993E+04  3.068063E+04
       178  22  5.594458E+05  8.567194E+04  3.788677E+04  2.291250E+05  3.026573E+04  8.732225E+02
       178  23  5.465767E+05  7.143373E+04  6.395638E+04  2.179660E+05  6.525607E+04  1.334844E+04
       178  24  5.754456E+05  1.984630E+05  1.514079E+05  1.865821E+05  9.752939E+04  3.302892E+04
       178  25  7.919778E+05  1.571989E+05  9.465860E+04  2.767917E+05  2.769959E+04 -9.548310E+01
       178  26  7.846181E+05  1.730357E+05  1.275684E+05  2.958351E+05  6.707856E+04  1.403767E+04
       178  27  8.198452E+05  3.309806E+05  2.253177E+05  2.946600E+05  1.037414E+05  3.537920E+04
       179   1 -1.729656E+05 -8.772771E+05 -1.748657E+05  9.522491E+04 -6.299438E+03 -2.648113E+04
       179   2 -1.130175E+05 -7.151722E+05 -1.189276E+05  4.463256E+04 -1.742849E+04 -1.030767E+04
       179   3 -7.495857E+04 -5.601808E+05 -7.892669E+04  8.564414E+04 -1.202549E+04  5.891599E+03
       179   4 -1.758860E+04 -2.541434E+05 -2.164664E+04  8.793447E+04 -6.316015E+03 -1.394845E+04
       179   5  1.503893E+03 -2.514875E+05 -1.029738E+04  4.214604E+04 -1.742976E+04 -8.470360E+03
       179   6  5.761023E+02 -2.541050E+05 -7.443908E+03  8.795867E+04 -1.201670E+04 -2.970858E+03
       179   7  1.377598E+05  3.693444E+05  1.315444E+05  8.063679E+04 -6.332880E+03 -1.403186E+03
       179   8  1.160100E+05  2.123954E+05  9.831822E+04  3.965771E+04 -1.743106E+04 -6.631687E+03
       179   9  7.610419E+04  5.205731E+04  6.403281E+04  9.027435E+04 -1.200797E+04 -1.183766E+04
       179  10 -1.729658E+05 -8.772778E+05 -1.748671E+05  9.522478E+04 -1.244918E-09  6.585736E-09
       179  11 -1.130179E+05 -7.151724E+05 -1.189284E+05  4.463241E+04 -1.297969E-09 -2.556263E-09
       179  12 -7.495873E+04 -5.601808E+05 -7.892703E+04  8.564420E+04  2.093061E-10 -3.473913E-09
       179  13 -1.758870E+04 -2.541437E+05 -2.164708E+04  8.793440E+04 -5.726371E-11 -1.014866E-09
       179  14  1.503548E+03 -2.514877E+05 -1.029809E+04  4.214592E+04 -1.834865E-09 -5.818841E-09
       179  15  5.759449E+02 -2.541051E+05 -7.444196E+03  8.795864E+04  2.315315E-10 -5.358214E-09
       179  16  1.377597E+05  3.693444E+05  1.315443E+05  8.063678E+04  3.549414E-10 -6.582032E-09
       179  17  1.160097E+05  2.123953E+05  9.831757E+04  3.965762E+04 -1.345079E-09  2.962752E-09
       179  18  7.610400E+04  5.205712E+04  6.403228E+04  9.027424E+04 -4.129265E-11  6.659653E-09
       179  19 -1.729656E+05 -8.772771E+05 -1.748657E+05  9.522491E+04  6.299438E+03  2.648113E+04
       179  20 -1.130175E+05 -7.151722E+05 -1.189276E+05  4.463256E+04  1.742849E+04  1.030767E+04
       179  21 -7.495857E+04 -5.601808E+05 -7.892669E+04  8.564414E+04  1.202549E+04 -5.891599E+03
       179  22 -1.758860E+04 -2.541434E+05 -2.164664E+04  8.793447E+04  6.316015E+03  1.394845E+04
       179  23  1.503893E+03 -2.514875E+05 -1.029738E+04  4.214604E+04  1.742976E+04  8.470360E+03
       179  24  5.761023E+02 -2.541050E+05 -7.443908E+03  8.795867E+04  1.201670E+04  2.970858E+03
       179  25  1.377598E+05  3.693444E+05  1.315444E+05  8.063679E+04  6.332880E+03  1.403186E+03
       179  26  1.160100E+05  2.123954E+05  9.831822E+04  3.965771E+04  1.743106E+04  6.631687E+03
       179  27  7.610419E+04  5.205731E+04  6.403281E+04  9.027435E+04  1.200797E+04  1.183766E+04
       180   1 -3.607170E+04 -3.932560E+05 -3.958517E+04  8.904853E+04 -5.515030E+03  2.298560E+03
       180   2  4.895545E+03 -2.339951E+05 -1.956277E+03  4.189677E+04  7.234237E+02  5.469851E+03
       180   3  4.128224E+04 -7.602651E+04  3.251023E+04  8.695390E+04  6.913864E+03  8.642093E+03
       180   4 -1.509991E+03 -2.532083E+05 -6.885628E+03  8.808671E+04 -5.511367E+03 -1.759959E+03
       180   5  3.172072E+02 -2.525486E+05 -6.288660E+03  4.198161E+04  7.271646E+02  1.442162E+03
       180   6 -2.439896E+03 -2.532100E+05 -8.874142E+03  8.808582E+04  6.917610E+03  4.644445E+03
       180   7  3.305034E+04 -1.131425E+05  2.581265E+04  8.712468E+04 -5.507692E+03 -5.819389E+03
       180   8 -4.261146E+03 -2.711017E+05 -1.062100E+04  4.206644E+04  7.309045E+02 -2.585406E+03
       180   9 -4.616424E+04 -4.303644E+05 -5.026058E+04  8.921743E+04  6.921342E+03  6.479302E+02
       180  10 -3.607173E+04 -3.932560E+05 -3.958524E+04  8.904854E+04  3.480677E-10 -1.080066E-09
       180  11  4.895536E+03 -2.339951E+05 -1.956335E+03  4.189677E+04 -5.792062E-11 -4.579650E-09
       180  12  4.128217E+04 -7.602660E+04  3.251000E+04  8.695385E+04  7.219144E-10 -1.344838E-09
       180  13 -1.510025E+03 -2.532083E+05 -6.885691E+03  8.808670E+04  4.667023E-10 -3.226860E-09
       180  14  3.172060E+02 -2.525486E+05 -6.288664E+03  4.198160E+04  3.682623E-09  7.095452E-12
       180  15 -2.439953E+03 -2.532100E+05 -8.874272E+03  8.808580E+04  1.628521E-09 -5.792487E-09
       180  16  3.305030E+04 -1.131426E+05  2.581252E+04  8.712465E+04  1.555566E-09 -1.624812E-09
       180  17 -4.261149E+03 -2.711017E+05 -1.062102E+04  4.206644E+04  7.842608E-10  1.830396E-09
       180  18 -4.616430E+04 -4.303645E+05 -5.026067E+04  8.921743E+04  5.839109E-10  2.285232E-09
       180  19 -3.607170E+04 -3.932560E+05 -3.958517E+04  8.904853E+04  5.515030E+03 -2.298560E+03
       180  20  4.895545E+03 -2.339951E+05 -1.956277E+03  4.189677E+04 -7.234237E+02 -5.469851E+03
       180  21  4.128224E+04 -7.602651E+04  3.251023E+04  8.695390E+04 -6.913864E+03 -8.642093E+03
       180  22 -1.509991E+03 -2.532083E+05 -6.885628E+03  8.808671E+04  5.511367E+03  1.759959E+03
       180  23  3.172072E+02 -2.525486E+05 -6.288660E+03  4.198161E+04 -7.271646E+02 -1.442162E+03
       180  24 -2.439896E+03 -2.532100E+05 -8.874142E+03  8.808582E+04 -6.917610E+03 -4.644445E+03
       180  25  3.305034E+04 -1.131425E+05  2.581265E+04  8.712468E+04  5.507692E+03  5.819389E+03
       180  26 -4.261146E+03 -2.711017E+05 -1.062100E+04  4.206644E+04 -7.309045E+02  2.585406E+03
       180  27 -4.616424E+04 -4.303644E+05 -5.026058E+04  8.921743E+04 -6.921342E+03 -6.479302E+02
       181   1  8.588705E+04  8.845179E+04  6.980951E+04  9.172769E+04  1.351678E+04  1.533934E+04
       181   2  1.261136E+05  2.503516E+05  1.015457E+05  3.839932E+04  1.883904E+04  1.249488E+04
       181   3  1.366049E+05  4.056965E+05  1.277989E+05  7.660669E+04  6.766774E+03  9.626404E+03
       181   4  1.210107E+03 -2.548357E+05 -1.030886E+04  8.795021E+04  1.352602E+04  6.251202E+03
       181   5  2.461946E+03 -2.505864E+05 -1.573469E+04  4.215901E+04  1.883744E+04  1.467645E+04
       181   6 -2.798969E+04 -2.548783E+05 -3.447517E+04  8.790982E+04  6.748028E+03  2.307813E+04
       181   7 -8.347508E+04 -5.980143E+05 -9.043491E+04  8.417485E+04  1.353537E+04 -2.831943E+03
       181   8 -1.212075E+05 -7.512933E+05 -1.330322E+05  4.591572E+04  1.883585E+04  1.685627E+04
       181   9 -1.926161E+05 -9.150554E+05 -1.967806E+05  9.920103E+04  6.729762E+03  3.651556E+04
       181  10  8.588679E+04  8.845148E+04  6.980873E+04  9.172752E+04  4.531934E-10 -2.150726E-09
       181  11  1.261132E+05  2.503514E+05  1.015448E+05  3.839913E+04 -2.533028E-09 -9.069215E-09
       181  12  1.366048E+05  4.056964E+05  1.277987E+05  7.660663E+04 -8.929362E-10  7.008527E-10
       181  13  1.209900E+03 -2.548358E+05 -1.030928E+04  8.795014E+04  1.031553E-09  2.096611E-09
       181  14  2.461507E+03 -2.505868E+05 -1.573576E+04  4.215879E+04 -3.945843E-10 -3.587972E-09
       181  15 -2.798988E+04 -2.548789E+05 -3.447625E+04  8.790970E+04 -6.063387E-11 -3.748711E-09
       181  16 -8.347528E+04 -5.980143E+05 -9.043527E+04  8.417488E+04  2.589227E-09  3.270153E-09
       181  17 -1.212080E+05 -7.512937E+05 -1.330334E+05  4.591546E+04  1.867106E-09  5.519855E-09
       181  18 -1.926165E+05 -9.150568E+05 -1.967832E+05  9.920084E+04  3.725200E-10  3.822488E-09
       181  19  8.588705E+04  8.845179E+04  6.980951E+04  9.172769E+04 -1.351678E+04 -1.533934E+04
       181  20  1.261136E+05  2.503516E+05  1.015457E+05  3.839932E+04 -1.883904E+04 -1.249488E+04
       181  21  1.366049E+05  4.056965E+05  1.277989E+05  7.660669E+04 -6.766774E+03 -9.626404E+03
       181  22  1.210107E+03 -2.548357E+05 -1.030886E+04  8.795021E+04 -1.352602E+04 -6.251202E+03
       181  23  2.461946E+03 -2.505864E+05 -1.573469E+04  4.215901E+04 -1.883744E+04 -1.467645E+04
       181  24 -2.798969E+04 -2.548783E+05 -3.447517E+04  8.790982E+04 -6.748028E+03 -2.307813E+04
       181  25 -8.347508E+04 -5.980143E+05 -9.043491E+04  8.417485E+04 -1.353537E+04  2.831943E+03
       181  26 -1.212075E+05 -7.512933E+05 -1.330322E+05  4.591572E+04 -1.883585E+04 -1.685627E+04
       181  27 -1.926161E+05 -9.150554E+05 -1.967806E+05  9.920103E+04 -6.729762E+03 -3.651556E+04
       182   1  3.086246E+05  1.454302E+05  1.329629E+05  3.763221E+04  3.134767E+04 -9.986717E+03
       182   2  2.533008E+05  1.498974E+05  1.096649E+05  4.303987E+04  1.070904E+04 -3.351433E+04
       182   3  1.974704E+05  1.414754E+05  9.659423E+04  5.935856E+04 -9.936376E+03 -4.019241E+04
       182   4 -4.099443E+05 -3.190041E+04 -3.526420E+04  5.740254E+04 -2.461152E+04 -1.002709E+04
       182   5 -4.071089E+05 -7.549353E+03 -1.720805E+04  5.193327E+04 -1.571864E+04 -3.353924E+04
       182   6 -4.099149E+05 -1.223250E+03 -9.435347E+03  5.737567E+04 -6.834822E+03 -4.019291E+04
       182   7 -1.128030E+06 -2.092645E+05 -2.035145E+05  7.714975E+04 -8.050635E+04 -1.007105E+04
       182   8 -1.067097E+06 -1.650212E+05 -1.440984E+05  6.081689E+04 -4.211886E+04 -3.356492E+04
       182   9 -1.016939E+06 -1.439419E+05 -1.154780E+05  5.539468E+04 -3.736209E+03 -4.019344E+04
       182  10  3.086235E+05  1.454298E+05  1.329609E+05  3.763246E+04  2.541746E-08 -1.697026E-09
       182  11  2.533003E+05  1.498962E+05  1.096626E+05  4.304016E+04 -5.611540E-09 -6.973730E-09
       182  12  1.974699E+05  1.414736E+05  9.659101E+04  5.935824E+04 -3.325957E-08 -1.073917E-08
       182  13 -4.099450E+05 -3.190068E+04 -3.526552E+04  5.740234E+04 -1.256570E-10  1.167057E-09
       182  14 -4.071095E+05 -7.550627E+03 -1.721063E+04  5.193285E+04  8.391738E-12  3.017581E-09
       182  15 -4.099154E+05 -1.224997E+03 -9.438470E+03  5.737545E+04  9.256356E-10  7.917470E-09
       182  16 -1.128037E+06 -2.092664E+05 -2.035269E+05  7.714910E+04 -2.377359E-08 -1.395096E-09
       182  17 -1.067099E+06 -1.650229E+05 -1.441038E+05  6.081575E+04  6.065099E-09 -8.572471E-09
       182  18 -1.016939E+06 -1.439436E+05 -1.154811E+05  5.539456E+04  3.161390E-08 -1.247009E-08
       182  19  3.086246E+05  1.454302E+05  1.329629E+05  3.763221E+04 -3.134767E+04  9.986717E+03
       182  20  2.533008E+05  1.498974E+05  1.096649E+05  4.303987E+04 -1.070904E+04  3.351433E+04
       182  21  1.974704E+05  1.414754E+05  9.659423E+04  5.935856E+04  9.936376E+03  4.019241E+04
       182  22 -4.099443E+05 -3.190041E+04 -3.526420E+04  5.740254E+04  2.461152E+04  1.002709E+04
       182  23 -4.071089E+05 -7.549353E+03 -1.720805E+04  5.193327E+04  1.571864E+04  3.353924E+04
       182  24 -4.099149E+05 -1.223250E+03 -9.435347E+03  5.737567E+04  6.834822E+03  4.019291E+04
       182  25 -1.128030E+06 -2.092645E+05 -2.035145E+05  7.714975E+04  8.050635E+04  1.007105E+04
       182  26 -1.067097E+06 -1.650212E+05 -1.440984E+05  6.081689E+04  4.211886E+04  3.356492E+04
       182  27 -1.016939E+06 -1.439419E+05 -1.154780E+05  5.539468E+04  3.736209E+03  4.019344E+04
       183   1  1.618639E+05  1.323354E+05  9.128487E+04  5.740923E+04 -7.118649E+03 -3.877933E+04
       183   2  1.063363E+05  1.200581E+05  8.245163E+04  5.181777E+04 -7.934522E+03 -3.712743E+04
       183   3  5.078814E+04  1.072802E+05  7.402441E+04  5.827471E+04 -8.753040E+03 -3.388673E+04
       183   4 -4.087662E+05 -1.493129E+03 -7.165892E+03  5.763147E+04 -5.610661E+03 -3.878100E+04
       183   5 -4.085032E+05 -2.038157E+02 -3.940134E+03  5.160603E+04 -3.643777E+03 -3.712551E+04
       183   6 -4.087466E+05  1.017323E+02 -2.241452E+03  5.762964E+04 -1.679563E+03 -3.388055E+04
       183   7 -9.790766E+05 -1.353392E+05 -1.056278E+05  5.785341E+04 -4.104014E+03 -3.878267E+04
       183   8 -9.230813E+05 -1.204796E+05 -9.034012E+04  5.139440E+04  6.435276E+02 -3.712359E+04
       183   9 -8.680725E+05 -1.070876E+05 -7.851348E+04  5.698499E+04  5.388856E+03 -3.387439E+04
       183  10  1.618635E+05  1.323338E+05  9.128195E+04  5.740901E+04  4.584109E-08 -1.104759E-08
       183  11  1.063359E+05  1.200566E+05  8.244892E+04  5.181754E+04  2.105803E-08 -6.595990E-09
       183  12  5.078775E+04  1.072789E+05  7.402211E+04  5.827447E+04 -7.517870E-09 -4.894217E-09
       183  13 -4.087666E+05 -1.494752E+03 -7.168777E+03  5.763130E+04  1.082558E-09  8.995392E-09
       183  14 -4.085036E+05 -2.052991E+02 -3.942748E+03  5.160593E+04 -5.204420E-10  1.273044E-08
       183  15 -4.087469E+05  1.004992E+02 -2.243614E+03  5.762959E+04  4.329780E-10  1.237008E-08
       183  16 -9.790770E+05 -1.353408E+05 -1.056307E+05  5.785328E+04 -4.320272E-08 -1.003972E-08
       183  17 -9.230816E+05 -1.204811E+05 -9.034271E+04  5.139442E+04 -1.872471E-08 -6.517256E-09
       183  18 -8.680728E+05 -1.070889E+05 -7.851570E+04  5.698514E+04  7.974824E-09 -5.927881E-09
       183  19  1.618639E+05  1.323354E+05  9.128487E+04  5.740923E+04  7.118649E+03  3.877933E+04
       183  20  1.063363E+05  1.200581E+05  8.245163E+04  5.181777E+04  7.934522E+03  3.712743E+04
       183  21  5.078814E+04  1.072802E+05  7.402441E+04  5.827471E+04  8.753040E+03  3.388673E+04
       183  22 -4.087662E+05 -1.493129E+03 -7.165892E+03  5.763147E+04  5.610661E+03  3.878100E+04
       183  23 -4.085032E+05 -2.038157E+02 -3.940134E+03  5.160603E+04  3.643777E+03  3.712551E+04
       183  24 -4.087466E+05  1.017323E+02 -2.241452E+03  5.762964E+04  1.679563E+03  3.388055E+04
       183  25 -9.790766E+05 -1.353392E+05 -1.056278E+05  5.785341E+04  4.104014E+03  3.878267E+04
       183  26 -9.230813E+05 -1.204796E+05 -9.034012E+04  5.139440E+04 -6.435276E+02  3.712359E+04
       183  27 -8.680725E+05 -1.070876E+05 -7.851348E+04  5.698499E+04 -5.388856E+03  3.387439E+04
       184   1  1.486814E+04  9.880076E+04  6.827999E+04  5.813300E+04 -8.264350E+03 -3.150060E+04
       184   2 -4.071310E+04  8.586004E+04  5.969510E+04  5.199479E+04 -8.049918E+03 -2.747218E+04
       184   3 -9.633679E+04  7.294248E+04  5.096998E+04  5.802529E+04 -7.836752E+03 -2.329263E+04
       184   4 -4.086483E+05  8.240541E+01 -1.703189E+03  5.765657E+04 -1.338415E+03 -3.149396E+04
       184   5 -4.085956E+05  1.309897E+02 -9.748611E+02  5.157196E+04 -8.597671E+02 -2.746430E+04
       184   6 -4.086345E+05  1.569175E+02 -5.705625E+02  5.765647E+04 -3.823659E+02 -2.328346E+04
       184   7 -8.319872E+05 -9.864520E+04 -7.169151E+04  5.718041E+04  5.582955E+03 -3.148733E+04
       184   8 -7.763441E+05 -8.560501E+04 -6.164861E+04  5.114933E+04  6.326268E+03 -2.745643E+04
       184   9 -7.208356E+05 -7.263365E+04 -5.211378E+04  5.728781E+04  7.068397E+03 -2.327430E+04
       184  10  1.486780E+04  9.879968E+04  6.827800E+04  5.813279E+04 -1.936597E-09 -3.644900E-09
       184  11 -4.071337E+04  8.585921E+04  5.969356E+04  5.199462E+04  1.631405E-09 -4.426147E-09
       184  12 -9.633701E+04  7.294188E+04  5.096885E+04  5.802514E+04  1.343004E-09 -6.900206E-09
       184  13 -4.086485E+05  8.134005E+01 -1.705056E+03  5.765653E+04 -2.911760E-09  1.267703E-08
       184  14 -4.085958E+05  1.301796E+02 -9.762797E+02  5.157194E+04  2.175813E-09  1.607932E-08
       184  15 -4.086347E+05  1.563355E+02 -5.715813E+02  5.765646E+04 -1.168778E-09  1.583441E-08
       184  16 -8.319875E+05 -9.864627E+04 -7.169343E+04  5.718055E+04  1.717918E-09 -4.940706E-09
       184  17 -7.763444E+05 -8.560583E+04 -6.165010E+04  5.114947E+04  6.648129E-10 -3.145441E-09
       184  18 -7.208358E+05 -7.263424E+04 -5.211489E+04  5.728794E+04  9.702149E-10 -5.951859E-09
       184  19  1.486814E+04  9.880076E+04  6.827999E+04  5.813300E+04  8.264350E+03  3.150060E+04
       184  20 -4.071310E+04  8.586004E+04  5.969510E+04  5.199479E+04  8.049918E+03  2.747218E+04
       184  21 -9.633679E+04  7.294248E+04  5.096998E+04  5.802529E+04  7.836752E+03  2.329263E+04
       184  22 -4.086483E+05  8.240541E+01 -1.703189E+03  5.765657E+04  1.338415E+03  3.149396E+04
       184  23 -4.085956E+05  1.309897E+02 -9.748611E+02  5.157196E+04  8.597671E+02  2.746430E+04
       184  24 -4.086345E+05  1.569175E+02 -5.705625E+02  5.765647E+04  3.823659E+02  2.328346E+04
       184  25 -8.319872E+05 -9.864520E+04 -7.169151E+04  5.718041E+04 -5.582955E+03  3.148733E+04
       184  26 -7.763441E+05 -8.560501E+04 -6.164861E+04  5.114933E+04 -6.326268E+03  2.745643E+04
       184  27 -7.208356E+05 -7.263365E+04 -5.211378E+04  5.728781E+04 -7.068397E+03  2.327430E+04
       185   1 -1.323050E+05  6.451295E+04  4.492952E+04  5.798324E+04 -7.736126E+03 -2.081232E+04
       185   2 -1.879368E+05  5.155739E+04  3.602698E+04  5.182136E+04 -7.626322E+03 -1.655659E+04
       185   3 -2.436063E+05  3.863761E+04  2.705175E+04  5.784902E+04 -7.517205E+03 -1.228644E+04
       185   4 -4.086203E+05  1.582087E+02 -4.436227E+02  5.766108E+04 -2.939144E+02 -2.080272E+04
       185   5 -4.085932E+05  1.489325E+02 -2.833904E+02  5.156618E+04 -1.592938E+02 -1.654639E+04
       185   6 -4.086121E+05  1.710135E+02 -2.134979E+02  5.766107E+04 -2.535059E+01 -1.227563E+04
       185   7 -6.848599E+05 -6.420043E+04 -4.581877E+04  5.733904E+04  7.145098E+03 -2.079313E+04
       185   8 -6.292013E+05 -5.126200E+04 -3.659497E+04  5.131108E+04  7.305171E+03 -1.653619E+04
       185   9 -5.735908E+05 -3.829696E+04 -2.747934E+04  5.747316E+04  7.464579E+03 -1.226483E+04
       185  10 -1.323051E+05  6.451247E+04  4.492859E+04  5.798311E+04 -1.560999E-08 -6.344454E-09
       185  11 -1.879369E+05  5.155708E+04  3.602635E+04  5.182126E+04 -1.604876E-08  1.106054E-11
       185  12 -2.436064E+05  3.863744E+04  2.705136E+04  5.784895E+04 -1.422374E-08 -8.583373E-11
       185  13 -4.086204E+05  1.577440E+02 -4.444359E+02  5.766108E+04  2.181348E-09  1.205650E-08
       185  14 -4.085933E+05  1.486386E+02 -2.839048E+02  5.156618E+04  2.572264E-10  9.426091E-09
       185  15 -4.086121E+05  1.708517E+02 -2.137811E+02  5.766107E+04 -1.006921E-09 -1.090815E-10
       185  16 -6.848601E+05 -6.420091E+04 -4.581968E+04  5.733916E+04  1.442428E-08 -5.848158E-09
       185  17 -6.292014E+05 -5.126231E+04 -3.659558E+04  5.131117E+04  1.513004E-08 -3.716341E-09
       185  18 -5.735909E+05 -3.829714E+04 -2.747973E+04  5.747323E+04  1.319810E-08 -3.914331E-09
       185  19 -1.323050E+05  6.451295E+04  4.492952E+04  5.798324E+04  7.736126E+03  2.081232E+04
       185  20 -1.879368E+05  5.155739E+04  3.602698E+04  5.182136E+04  7.626322E+03  1.655659E+04
       185  21 -2.436063E+05  3.863761E+04  2.705175E+04  5.784902E+04  7.517205E+03  1.228644E+04
       185  22 -4.086203E+05  1.582087E+02 -4.436227E+02  5.766108E+04  2.939144E+02  2.080272E+04
       185  23 -4.085932E+05  1.489325E+02 -2.833904E+02  5.156618E+04  1.592938E+02  1.654639E+04
       185  24 -4.086121E+05  1.710135E+02 -2.134979E+02  5.766107E+04  2.535059E+01  1.227563E+04
       185  25 -6.848599E+05 -6.420043E+04 -4.581877E+04  5.733904E+04 -7.145098E+03  2.079313E+04
       185  26 -6.292013E+05 -5.126200E+04 -3.659497E+04  5.131108E+04 -7.305171E+03  1.653619E+04
       185  27 -5.735908E+05 -3.829696E+04 -2.747934E+04  5.747316E+04 -7.464579E+03  1.226483E+04
       186   1 -2.796032E+05  3.020608E+04  2.089872E+04  5.780739E+04 -7.483057E+03 -9.796019E+03
       186   2 -3.352514E+05  1.724639E+04  1.182039E+04  5.163491E+04 -7.360585E+03 -5.521351E+03
       186   3 -3.909482E+05  4.316994E+03  2.657376E+03  5.765990E+04 -7.238332E+03 -1.253465E+03
       186   4 -4.086107E+05  1.735929E+02 -2.050354E+02  5.766280E+04  9.105340E+00 -9.784987E+03
       186   5 -4.085849E+05  1.621949E+02 -2.356989E+02  5.156401E+04  1.194203E+02 -5.510149E+03
       186   6 -4.086080E+05  1.835258E+02 -3.424957E+02  5.766279E+04  2.295275E+02 -1.242091E+03
       186   7 -5.376015E+05 -2.985972E+04 -2.130906E+04  5.751822E+04  7.499764E+03 -9.773957E+03
       186   8 -4.819130E+05 -1.692225E+04 -1.229174E+04  5.149313E+04  7.598572E+03 -5.498947E+03
       186   9 -4.262673E+05 -3.949929E+03 -3.342168E+03  5.766568E+04  7.697181E+03 -1.230716E+03
       186  10 -2.796033E+05  3.020596E+04  2.089844E+04  5.780734E+04  2.711429E-09 -2.405875E-09
       186  11 -3.352514E+05  1.724634E+04  1.182023E+04  5.163487E+04  1.419707E-08 -3.794667E-09
       186  12 -3.909483E+05  4.316979E+03  2.657275E+03  5.765989E+04  2.289877E-08 -4.316967E-09
       186  13 -4.086107E+05  1.734901E+02 -2.052153E+02  5.766280E+04 -2.436143E-09  1.526309E-09
       186  14 -4.085849E+05  1.621623E+02 -2.357560E+02  5.156401E+04 -2.297221E-09  2.205809E-09
       186  15 -4.086080E+05  1.835241E+02 -3.424987E+02  5.766279E+04 -2.057636E-09  4.408124E-09
       186  16 -5.376016E+05 -2.985984E+04 -2.130934E+04  5.751828E+04 -2.438283E-09 -1.818324E-09
       186  17 -4.819130E+05 -1.692230E+04 -1.229190E+04  5.149316E+04 -1.431043E-08 -4.079399E-09
       186  18 -4.262674E+05 -3.949947E+03 -3.342282E+03  5.766568E+04 -2.286510E-08 -4.252014E-09
       186  19 -2.796032E+05  3.020608E+04  2.089872E+04  5.780739E+04  7.483057E+03  9.796019E+03
       186  20 -3.352514E+05  1.724639E+04  1.182039E+04  5.163491E+04  7.360585E+03  5.521351E+03
       186  21 -3.909482E+05  4.316994E+03  2.657376E+03  5.765990E+04  7.238332E+03  1.253465E+03
       186  22 -4.086107E+05  1.735929E+02 -2.050354E+02  5.766280E+04 -9.105340E+00  9.784987E+03
       186  23 -4.085849E+05  1.621949E+02 -2.356989E+02  5.156401E+04 -1.194203E+02  5.510149E+03
       186  24 -4.086080E+05  1.835258E+02 -3.424957E+02  5.766279E+04 -2.295275E+02  1.242091E+03
       186  25 -5.376015E+05 -2.985972E+04 -2.130906E+04  5.751822E+04 -7.499764E+03  9.773957E+03
       186  26 -4.819130E+05 -1.692225E+04 -1.229174E+04  5.149313E+04 -7.598572E+03  5.498947E+03
       186  27 -4.262673E+05 -3.949929E+03 -3.342168E+03  5.766568E+04 -7.697181E+03  1.230716E+03
       187   1 -4.269618E+05 -4.117991E+03 -3.601795E+03  5.760544E+04 -7.180254E+03  1.233445E+03
       187   2 -4.825726E+05 -1.709131E+04 -1.299665E+04  5.143390E+04 -6.669543E+03  5.458682E+03
       187   3 -5.382980E+05 -3.009839E+04 -2.274504E+04  5.745391E+04 -6.158535E+03  9.593820E+03
       187   4 -4.086172E+05  1.866547E+02 -4.328691E+02  5.766142E+04  2.957698E+02  1.244832E+03
       187   5 -4.085735E+05  1.707118E+02 -7.251626E+02  5.156572E+04  6.484477E+02  5.469639E+03
       187   6 -4.086200E+05  1.485834E+02 -1.261278E+03  5.766148E+04  1.001465E+03  9.604356E+03
       187   7 -3.902721E+05  4.491312E+03  2.736256E+03  5.771740E+04  7.772008E+03  1.256219E+03
       187   8 -3.345688E+05  1.743248E+04  1.154636E+04  5.169755E+04  7.967281E+03  5.480599E+03
       187   9 -2.789253E+05  3.039471E+04  2.022217E+04  5.786909E+04  8.162911E+03  9.614896E+03
       187  10 -4.269619E+05 -4.118006E+03 -3.601895E+03  5.760544E+04 -3.293391E-08 -2.210691E-10
       187  11 -4.825727E+05 -1.709136E+04 -1.299679E+04  5.143392E+04 -1.813285E-08  2.778841E-10
       187  12 -5.382980E+05 -3.009850E+04 -2.274528E+04  5.745395E+04 -3.093662E-09 -3.228744E-10
       187  13 -4.086172E+05  1.866530E+02 -4.328722E+02  5.766142E+04  1.103653E-09  6.442669E-09
       187  14 -4.085735E+05  1.706795E+02 -7.252196E+02  5.156572E+04 -2.148445E-09  4.313362E-09
       187  15 -4.086200E+05  1.484841E+02 -1.261453E+03  5.766147E+04 -2.360136E-09 -5.516849E-10
       187  16 -3.902721E+05  4.491294E+03  2.736139E+03  5.771739E+04  3.099068E-08 -6.958794E-10
       187  17 -3.345689E+05  1.743243E+04  1.154618E+04  5.169752E+04  1.958594E-08 -6.029410E-09
       187  18 -2.789254E+05  3.039460E+04  2.022188E+04  5.786903E+04  2.327224E-09 -5.014756E-09
       187  19 -4.269618E+05 -4.117991E+03 -3.601795E+03  5.760544E+04  7.180254E+03 -1.233445E+03
       187  20 -4.825726E+05 -1.709131E+04 -1.299665E+04  5.143390E+04  6.669543E+03 -5.458682E+03
       187  21 -5.382980E+05 -3.009839E+04 -2.274504E+04  5.745391E+04  6.158535E+03 -9.593820E+03
       187  22 -4.086172E+05  1.866547E+02 -4.328691E+02  5.766142E+04 -2.957698E+02 -1.244832E+03
       187  23 -4.085735E+05  1.707118E+02 -7.251626E+02  5.156572E+04 -6.484477E+02 -5.469639E+03
       187  24 -4.086200E+05  1.485834E+02 -1.261278E+03  5.766148E+04 -1.001465E+03 -9.604356E+03
       187  25 -3.902721E+05  4.491312E+03  2.736256E+03  5.771740E+04 -7.772008E+03 -1.256219E+03
       187  26 -3.345688E+05  1.743248E+04  1.154636E+04  5.169755E+04 -7.967281E+03 -5.480599E+03
       187  27 -2.789253E+05  3.039471E+04  2.022217E+04  5.786909E+04 -8.162911E+03 -9.614896E+03
       188   1 -5.744048E+05 -3.854107E+04 -2.938353E+04  5.728874E+04 -5.997078E+03  1.202557E+04
       188   2 -6.297030E+05 -5.181302E+04 -4.034149E+04  5.150199E+04 -2.876575E+03  1.569292E+04
       188   3 -6.856921E+05 -6.609218E+04 -5.359449E+04  5.783930E+04  2.454109E+02  1.840456E+04
       188   4 -4.086917E+05  1.662879E+02 -1.658414E+03  5.764620E+04  1.252102E+03  1.203602E+04
       188   5 -4.084942E+05 -5.863712E+01 -2.910481E+03  5.158514E+04  2.699737E+03  1.570043E+04
       188   6 -4.087004E+05 -1.000006E+03 -5.295027E+03  5.764789E+04  4.149146E+03  1.840931E+04
       188   7 -2.429515E+05  3.887224E+04  2.606605E+04  5.800375E+04  8.503155E+03  1.204648E+04
       188   8 -1.872371E+05  5.169318E+04  3.451907E+04  5.166830E+04  8.277972E+03  1.570795E+04
       188   9 -1.316335E+05  6.408801E+04  4.300178E+04  5.745637E+04  8.054572E+03  1.841406E+04
       188  10 -5.744049E+05 -3.854124E+04 -2.938387E+04  5.728880E+04 -3.375199E-08  4.497217E-10
       188  11 -6.297031E+05 -5.181329E+04 -4.034196E+04  5.150203E+04  2.948988E-10 -2.380224E-09
       188  12 -6.856922E+05 -6.609254E+04 -5.359512E+04  5.783929E+04  3.115192E-08  1.476172E-09
       188  13 -4.086918E+05  1.661319E+02 -1.658689E+03  5.764619E+04 -2.171160E-09 -1.880436E-09
       188  14 -4.084943E+05 -5.890373E+01 -2.910958E+03  5.158511E+04 -5.544026E-10 -1.138906E-09
       188  15 -4.087005E+05 -1.000374E+03 -5.295696E+03  5.764783E+04  2.547089E-09 -1.617700E-09
       188  16 -2.429516E+05  3.887207E+04  2.606564E+04  5.800367E+04  3.348220E-08 -3.328659E-09
       188  17 -1.872372E+05  5.169290E+04  3.451847E+04  5.166820E+04  9.660260E-10 -2.801698E-09
       188  18 -1.316337E+05  6.408763E+04  4.300102E+04  5.745625E+04 -3.054932E-08 -5.464180E-09
       188  19 -5.744048E+05 -3.854107E+04 -2.938353E+04  5.728874E+04  5.997078E+03 -1.202557E+04
       188  20 -6.297030E+05 -5.181302E+04 -4.034149E+04  5.150199E+04  2.876575E+03 -1.569292E+04
       188  21 -6.856921E+05 -6.609218E+04 -5.359449E+04  5.783930E+04 -2.454109E+02 -1.840456E+04
       188  22 -4.086917E+05  1.662879E+02 -1.658414E+03  5.764620E+04 -1.252102E+03 -1.203602E+04
       188  23 -4.084942E+05 -5.863712E+01 -2.910481E+03  5.158514E+04 -2.699737E+03 -1.570043E+04
       188  24 -4.087004E+05 -1.000006E+03 -5.295027E+03  5.764789E+04 -4.149146E+03 -1.840931E+04
       188  25 -2.429515E+05  3.887224E+04  2.606605E+04  5.800375E+04 -8.503155E+03 -1.204648E+04
       188  26 -1.872371E+05  5.169318E+04  3.451907E+04  5.166830E+04 -8.277972E+03 -1.570795E+04
       188  27 -1.316335E+05  6.408801E+04  4.300178E+04  5.745637E+04 -8.054572E+03 -1.841406E+04
       189   1 -7.230201E+05 -7.460191E+04 -6.229508E+04  5.602481E+04  1.903563E+02  2.025006E+04
       189   2 -7.750607E+05 -9.332584E+04 -8.419158E+04  5.830258E+04  2.449754E+04  1.798840E+04
       189   3 -8.343934E+05 -1.284623E+05 -1.260312E+05  7.202840E+04  4.881372E+04  5.584531E+03
       189   4 -4.095492E+05 -7.978115E+02 -6.972204E+03  5.749413E+04  5.051986E+03  2.025583E+04
       189   5 -4.074548E+05 -5.479318E+03 -1.271289E+04  5.178470E+04  1.161056E+04  1.797044E+04
       189   6 -4.095670E+05 -2.348427E+04 -2.605872E+04  5.752376E+04  1.818046E+04  5.544964E+03
       189   7 -9.598217E+04  7.300091E+04  4.834716E+04  5.896417E+04  9.916001E+03  2.026163E+04
       189   8 -3.971868E+04  8.235936E+04  5.876005E+04  4.526283E+04 -1.283896E+03  1.795275E+04
       189   9  1.542817E+04  8.148218E+04  7.390495E+04  4.300906E+04 -1.247366E+04  5.506844E+03
       189  10 -7.230202E+05 -7.460235E+04 -6.229585E+04  5.602480E+04  2.818783E-08  1.241726E-09
       189  11 -7.750614E+05 -9.332635E+04 -8.419332E+04  5.830223E+04  2.761694E-09 -2.036150E-10
       189  12 -8.343960E+05 -1.284630E+05 -1.260357E+05  7.202818E+04 -2.801459E-08 -1.206732E-10
       189  13 -4.095494E+05 -7.982589E+02 -6.973023E+03  5.749404E+04 -1.365939E-09  1.465903E-09
       189  14 -4.074551E+05 -5.479701E+03 -1.271375E+04  5.178453E+04 -1.843492E-09 -2.384397E-09
       189  15 -4.095674E+05 -2.348439E+04 -2.605940E+04  5.752367E+04 -1.478518E-09  2.108501E-09
       189  16 -9.598239E+04  7.300045E+04  4.834620E+04  5.896401E+04 -2.652897E-08 -1.010559E-09
       189  17 -3.971877E+04  8.235902E+04  5.875944E+04  4.526284E+04 -6.104195E-10  2.167923E-10
       189  18  1.542800E+04  8.148211E+04  7.390461E+04  4.300911E+04  2.738760E-08 -8.853380E-10
       189  19 -7.230201E+05 -7.460191E+04 -6.229508E+04  5.602481E+04 -1.903563E+02 -2.025006E+04
       189  20 -7.750607E+05 -9.332584E+04 -8.419158E+04  5.830258E+04 -2.449754E+04 -1.798840E+04
       189  21 -8.343934E+05 -1.284623E+05 -1.260312E+05  7.202840E+04 -4.881372E+04 -5.584531E+03
       189  22 -4.095492E+05 -7.978115E+02 -6.972204E+03  5.749413E+04 -5.051986E+03 -2.025583E+04
       189  23 -4.074548E+05 -5.479318E+03 -1.271289E+04  5.178470E+04 -1.161056E+04 -1.797044E+04
       189  24 -4.095670E+05 -2.348427E+04 -2.605872E+04  5.752376E+04 -1.818046E+04 -5.544964E+03
       189  25 -9.598217E+04  7.300091E+04  4.834716E+04  5.896417E+04 -9.916001E+03 -2.026163E+04
       189  26 -3.971868E+04  8.235936E+04  5.876005E+04  4.526283E+04  1.283896E+03 -1.795275E+04
       189  27  1.542817E+04  8.148218E+04  7.390495E+04  4.300906E+04  1.247366E+04 -5.506844E+03
       190   1 -1.545786E+05  6.439015E+04  4.702954E+04 -3.651824E+03 -4.229730E+04 -5.960501E+03
       190   2 -1.834257E+05  1.234209E+05  7.615515E+04  2.195207E+03 -3.154968E+04 -1.815925E+04
       190   3 -2.312900E+05  1.116491E+05  8.061214E+04  2.989152E+04 -2.081879E+04 -1.779307E+04
       190   4 -6.693661E+05 -6.379399E+04 -7.921742E+04  2.017579E+04 -5.424820E+04 -5.977221E+03
       190   5 -6.591273E+05  5.997180E+03 -3.517796E+04  9.205076E+03 -3.537335E+04 -1.816612E+04
       190   6 -6.693356E+05  3.543434E+03 -2.146963E+04  2.008529E+04 -1.651427E+04 -1.778639E+04
       190   7 -1.183910E+06 -1.919956E+05 -2.054830E+05  4.398352E+04 -6.618919E+04 -5.994867E+03
       190   8 -1.134620E+06 -1.114424E+05 -1.465264E+05  1.620946E+04 -3.919410E+04 -1.817308E+04
       190   9 -1.107204E+06 -1.045754E+05 -1.235643E+05  1.028595E+04 -1.221276E+04 -1.777984E+04
       190  10 -1.545805E+05  6.438963E+04  4.702611E+04 -3.652027E+03 -4.135993E-09  5.697462E-10
       190  11 -1.834269E+05  1.234203E+05  7.615266E+04  2.194745E+03 -2.752189E-09  4.827062E-09
       190  12 -2.312906E+05  1.116486E+05  8.061073E+04  2.989123E+04 -9.526721E-10  1.685388E-09
       190  13 -6.693692E+05 -6.379482E+04 -7.922302E+04  2.017553E+04  4.977418E-10 -1.501203E-09
       190  14 -6.591288E+05  5.996490E+03 -3.518093E+04  9.204559E+03 -8.164307E-10 -3.767684E-09
       190  15 -6.693359E+05  3.543021E+03 -2.147074E+04  2.008505E+04 -1.401694E-09  9.061712E-10
       190  16 -1.183915E+06 -1.919968E+05 -2.054913E+05  4.398320E+04  2.633149E-09  1.314343E-09
       190  17 -1.134622E+06 -1.114432E+05 -1.465299E+05  1.620889E+04 -8.927472E-10  5.125875E-09
       190  18 -1.107204E+06 -1.045758E+05 -1.235652E+05  1.028578E+04 -3.446241E-09 -1.027486E-09
       190  19 -1.545786E+05  6.439015E+04  4.702954E+04 -3.651824E+03  4.229730E+04  5.960501E+03
       190  20 -1.834257E+05  1.234209E+05  7.615515E+04  2.195207E+03  3.154968E+04  1.815925E+04
       190  21 -2.312900E+05  1.116491E+05  8.061214E+04  2.989152E+04  2.081879E+04  1.779307E+04
       190  22 -6.693661E+05 -6.379399E+04 -7.921742E+04  2.017579E+04  5.424820E+04  5.977221E+03
       190  23 -6.591273E+05  5.997180E+03 -3.517796E+04  9.205076E+03  3.537335E+04  1.816612E+04
       190  24 -6.693356E+05  3.543434E+03 -2.146963E+04  2.008529E+04  1.651427E+04  1.778639E+04
       190  25 -1.183910E+06 -1.919956E+05 -2.054830E+05  4.398352E+04  6.618919E+04  5.994867E+03
       190  26 -1.134620E+06 -1.114424E+05 -1.465264E+05  1.620946E+04  3.919410E+04  1.817308E+04
       190  27 -1.107204E+06 -1.045754E+05 -1.235643E+05  1.028595E+04  1.221276E+04  1.777984E+04
       191   1 -2.677475E+05  9.281407E+04  7.567621E+04  1.907849E+04 -1.374350E+04 -1.515042E+04
       191   2 -3.056992E+05  8.905011E+04  7.464076E+04  9.047571E+03 -9.586694E+03 -1.410991E+04
       191   3 -3.457159E+05  7.926882E+04  6.939028E+04  2.167124E+04 -5.432517E+03 -1.236478E+04
       191   4 -6.652649E+05 -5.332415E+03 -1.737124E+04  2.029877E+04 -1.329679E+04 -1.515032E+04
       191   5 -6.641863E+05  5.712465E+02 -9.083472E+03  8.965656E+03 -8.686220E+03 -1.410871E+04
       191   6 -6.652549E+05  3.765728E+02 -5.328206E+03  2.028804E+04 -4.078023E+03 -1.236232E+04
       191   7 -1.062637E+06 -1.034901E+05 -1.104295E+05  2.151821E+04 -1.285037E+04 -1.515021E+04
       191   8 -1.022555E+06 -8.791673E+04 -9.281643E+04  8.883731E+03 -7.786262E+03 -1.410752E+04
       191   9 -9.846998E+05 -7.852292E+04 -8.005363E+04  1.890551E+04 -2.724221E+03 -1.235987E+04
       191  10 -2.677477E+05  9.281378E+04  7.567543E+04  1.907832E+04 -3.625862E-09 -1.436206E-09
       191  11 -3.056993E+05  8.904987E+04  7.464021E+04  9.047462E+03 -2.535082E-09  1.861026E-09
       191  12 -3.457159E+05  7.926865E+04  6.938993E+04  2.167119E+04 -1.870061E-11  3.711730E-09
       191  13 -6.652652E+05 -5.332708E+03 -1.737200E+04  2.029861E+04 -1.561979E-09  5.033831E-09
       191  14 -6.641864E+05  5.710125E+02 -9.083988E+03  8.965557E+03  1.475609E-09 -1.362179E-08
       191  15 -6.652550E+05  3.764043E+02 -5.328524E+03  2.028800E+04  2.758691E-11  3.440035E-09
       191  16 -1.062637E+06 -1.034904E+05 -1.104302E+05  2.151805E+04  1.564254E-09 -5.714033E-09
       191  17 -1.022555E+06 -8.791696E+04 -9.281692E+04  8.883642E+03  2.056844E-09 -2.750990E-09
       191  18 -9.846998E+05 -7.852309E+04 -8.005393E+04  1.890548E+04 -2.169535E-09 -9.522121E-10
       191  19 -2.677475E+05  9.281407E+04  7.567621E+04  1.907849E+04  1.374350E+04  1.515042E+04
       191  20 -3.056992E+05  8.905011E+04  7.464076E+04  9.047571E+03  9.586694E+03  1.410991E+04
       191  21 -3.457159E+05  7.926882E+04  6.939028E+04  2.167124E+04  5.432517E+03  1.236478E+04
       191  22 -6.652649E+05 -5.332415E+03 -1.737124E+04  2.029877E+04  1.329679E+04  1.515032E+04
       191  23 -6.641863E+05  5.712465E+02 -9.083472E+03  8.965656E+03  8.686220E+03  1.410871E+04
       191  24 -6.652549E+05  3.765728E+02 -5.328206E+03  2.028804E+04  4.078023E+03  1.236232E+04
       191  25 -1.062637E+06 -1.034901E+05 -1.104295E+05  2.151821E+04  1.285037E+04  1.515021E+04
       191  26 -1.022555E+06 -8.791673E+04 -9.281643E+04  8.883731E+03  7.786262E+03  1.410752E+04
       191  27 -9.846998E+05 -7.852292E+04 -8.005363E+04  1.890551E+04  2.724221E+03  1.235987E+04
       192   1 -3.864221E+05  6.834021E+04  6.077716E+04  2.076152E+04 -4.393247E+03 -1.121249E+04
       192   2 -4.257843E+05  5.905694E+04  5.345276E+04  9.290613E+03 -3.262760E+03 -9.419360E+03
       192   3 -4.654900E+05  4.935675E+04  4.526716E+04  2.082617E+04 -2.133184E+03 -7.580399E+03
       192   4 -6.648495E+05 -3.621873E+02 -4.143736E+03  2.037010E+04 -3.247362E+03 -1.121030E+04
       192   5 -6.646720E+05  9.224650E+01 -2.334537E+03  8.866043E+03 -2.087684E+03 -9.416887E+03
       192   6 -6.648442E+05  1.247612E+02 -1.406905E+03  2.036899E+04 -9.288455E+02 -7.577630E+03
       192   7 -9.432053E+05 -6.907007E+04 -6.906988E+04  1.997882E+04 -2.101989E+03 -1.120811E+04
       192   8 -9.035071E+05 -5.887650E+04 -5.812570E+04  8.441608E+03 -9.130578E+02 -9.414416E+03
       192   9 -8.641618E+05 -4.911005E+04 -4.808368E+04  1.991195E+04  2.751087E+02 -7.574863E+03
       192  10 -3.864221E+05  6.834007E+04  6.077689E+04  2.076148E+04  7.663053E-10 -3.542914E-09
       192  11 -4.257843E+05  5.905684E+04  5.345257E+04  9.290588E+03 -1.254236E-09 -2.311504E-09
       192  12 -4.654901E+05  4.935668E+04  4.526705E+04  2.082615E+04 -3.401359E-09 -2.787714E-09
       192  13 -6.648495E+05 -3.623250E+02 -4.143992E+03  2.037007E+04  1.063341E-09 -2.695596E-09
       192  14 -6.646721E+05  9.215014E+01 -2.334712E+03  8.866028E+03  7.071829E-10 -3.387988E-09
       192  15 -6.648443E+05  1.246994E+02 -1.407014E+03  2.036899E+04  1.647472E-09 -2.813503E-10
       192  16 -9.432053E+05 -6.907021E+04 -6.907013E+04  1.997880E+04  1.896525E-09 -6.572859E-09
       192  17 -9.035071E+05 -5.887659E+04 -5.812587E+04  8.441601E+03  3.551496E-09  2.180723E-09
       192  18 -8.641618E+05 -4.911011E+04 -4.808378E+04  1.991195E+04  3.908576E-09  7.739357E-09
       192  19 -3.864221E+05  6.834021E+04  6.077716E+04  2.076152E+04  4.393247E+03  1.121249E+04
       192  20 -4.257843E+05  5.905694E+04  5.345276E+04  9.290613E+03  3.262760E+03  9.419360E+03
       192  21 -4.654900E+05  4.935675E+04  4.526716E+04  2.082617E+04  2.133184E+03  7.580399E+03
       192  22 -6.648495E+05 -3.621873E+02 -4.143736E+03  2.037010E+04  3.247362E+03  1.121030E+04
       192  23 -6.646720E+05  9.224650E+01 -2.334537E+03  8.866043E+03  2.087684E+03  9.416887E+03
       192  24 -6.648442E+05  1.247612E+02 -1.406905E+03  2.036899E+04  9.288455E+02  7.577630E+03
       192  25 -9.432053E+05 -6.907007E+04 -6.906988E+04  1.997882E+04  2.101989E+03  1.120811E+04
       192  26 -9.035071E+05 -5.887650E+04 -5.812570E+04  8.441608E+03  9.130578E+02  9.414416E+03
       192  27 -8.641618E+05 -4.911005E+04 -4.808368E+04  1.991195E+04 -2.751087E+02  7.574863E+03
       193   1 -5.070217E+05  3.898933E+04  3.560317E+04  2.071690E+04 -1.899550E+03 -6.500013E+03
       193   2 -5.468067E+05  2.916127E+04  2.675400E+04  9.042009E+03 -1.520151E+03 -4.650382E+03
       193   3 -5.867596E+05  1.939804E+04  1.764376E+04  2.056867E+04 -1.141168E+03 -2.795033E+03
       193   4 -6.648005E+05  6.620171E+01 -1.127050E+03  2.041268E+04 -7.040912E+02 -6.497156E+03
       193   5 -6.647143E+05  5.591167E+01 -7.825728E+02  8.811718E+03 -3.211073E+02 -4.647407E+03
       193   6 -6.647981E+05  1.099298E+02 -7.016246E+02  2.041258E+04  6.148447E+01 -2.791935E+03
       193   7 -8.225564E+05 -3.885869E+04 -3.785895E+04  2.010852E+04  4.910655E+02 -6.494299E+03
       193   8 -7.826091E+05 -2.905043E+04 -2.832008E+04  8.581463E+03  8.777096E+02 -4.644433E+03
       193   9 -7.428311E+05 -1.917862E+04 -1.904742E+04  2.025650E+04  1.263986E+03 -2.788838E+03
       193  10 -5.070217E+05  3.898929E+04  3.560309E+04  2.071689E+04 -4.255666E-09 -6.760832E-09
       193  11 -5.468067E+05  2.916124E+04  2.675395E+04  9.042004E+03 -1.096810E-08  1.424430E-09
       193  12 -5.867596E+05  1.939803E+04  1.764374E+04  2.056867E+04 -9.776379E-09  1.098545E-09
       193  13 -6.648005E+05  6.615626E+01 -1.127130E+03  2.041268E+04  1.806241E-11  7.774781E-10
       193  14 -6.647143E+05  5.588846E+01 -7.826136E+02  8.811717E+03 -7.363246E-10 -7.961956E-09
       193  15 -6.647981E+05  1.099214E+02 -7.016392E+02  2.041258E+04  6.172606E-10 -1.006624E-08
       193  16 -8.225564E+05 -3.885873E+04 -3.785903E+04  2.010853E+04  4.723345E-09  4.826070E-09
       193  17 -7.826091E+05 -2.905045E+04 -2.832013E+04  8.581466E+03  1.148473E-08  9.404683E-09
       193  18 -7.428311E+05 -1.917862E+04 -1.904744E+04  2.025650E+04  9.350295E-09  4.483678E-09
       193  19 -5.070217E+05  3.898933E+04  3.560317E+04  2.071690E+04  1.899550E+03  6.500013E+03
       193  20 -5.468067E+05  2.916127E+04  2.675400E+04  9.042009E+03  1.520151E+03  4.650382E+03
       193  21 -5.867596E+05  1.939804E+04  1.764376E+04  2.056867E+04  1.141168E+03  2.795033E+03
       193  22 -6.648005E+05  6.620171E+01 -1.127050E+03  2.041268E+04  7.040912E+02  6.497156E+03
       193  23 -6.647143E+05  5.591167E+01 -7.825728E+02  8.811718E+03  3.211073E+02  4.647407E+03
       193  24 -6.647981E+05  1.099298E+02 -7.016246E+02  2.041258E+04 -6.148447E+01  2.791935E+03
       193  25 -8.225564E+05 -3.885869E+04 -3.785895E+04  2.010852E+04 -4.910655E+02  6.494299E+03
       193  26 -7.826091E+05 -2.905043E+04 -2.832008E+04  8.581463E+03 -8.777096E+02  4.644433E+03
       193  27 -7.428311E+05 -1.917862E+04 -1.904742E+04  2.025650E+04 -1.263986E+03  2.788838E+03
       194   1 -6.285689E+05  9.032401E+03  7.600583E+03  2.048369E+04 -1.014323E+03 -1.713110E+03
       194   2 -6.684421E+05 -8.596317E+02 -1.876665E+03  8.770426E+03 -5.211040E+02  1.459327E+02
       194   3 -7.085164E+05 -1.070646E+04 -1.169716E+04  2.032177E+04 -2.790827E+01  2.003316E+03
       194   4 -6.648042E+05  1.112210E+02 -7.432104E+02  2.042651E+04  1.891069E+02 -1.709974E+03
       194   5 -6.647029E+05  6.357149E+01 -1.003276E+03  8.794282E+03  6.812087E+02  1.490589E+02
       194   6 -6.648045E+05  6.128145E+01 -1.605871E+03  2.042665E+04  1.173319E+03  2.006439E+03
       194   7 -7.010383E+05 -8.810050E+03 -9.087086E+03  2.036934E+04  1.392467E+03 -1.706839E+03
       194   8 -6.609636E+05  9.867745E+02 -1.298818E+02  8.818139E+03  1.883528E+03  1.521852E+02
       194   9 -6.210908E+05  1.082889E+04  8.485293E+03  2.053153E+04  2.374630E+03  2.009562E+03
       194  10 -6.285689E+05  9.032397E+03  7.600576E+03  2.048369E+04  3.913277E-10  2.880435E-09
       194  11 -6.684421E+05 -8.596318E+02 -1.876666E+03  8.770426E+03  2.223460E-09 -1.328183E-09
       194  12 -7.085164E+05 -1.070646E+04 -1.169716E+04  2.032177E+04 -2.185156E-09 -1.541332E-09
       194  13 -6.648042E+05  1.112179E+02 -7.432160E+02  2.042651E+04 -5.537252E-10 -2.341370E-09
       194  14 -6.647029E+05  6.357134E+01 -1.003277E+03  8.794282E+03 -1.770934E-09 -5.276812E-09
       194  15 -6.648045E+05  6.127676E+01 -1.605881E+03  2.042665E+04  7.004567E-10 -1.428698E-09
       194  16 -7.010383E+05 -8.810053E+03 -9.087095E+03  2.036934E+04 -8.473008E-11  2.418531E-09
       194  17 -6.609636E+05  9.867735E+02 -1.298885E+02  8.818139E+03 -1.803125E-09 -1.280775E-08
       194  18 -6.210908E+05  1.082888E+04  8.485275E+03  2.053153E+04 -1.071393E-09 -5.375396E-09
       194  19 -6.285689E+05  9.032401E+03  7.600583E+03  2.048369E+04  1.014323E+03  1.713110E+03
       194  20 -6.684421E+05 -8.596317E+02 -1.876665E+03  8.770426E+03  5.211040E+02 -1.459327E+02
       194  21 -7.085164E+05 -1.070646E+04 -1.169716E+04  2.032177E+04  2.790827E+01 -2.003316E+03
       194  22 -6.648042E+05  1.112210E+02 -7.432104E+02  2.042651E+04 -1.891069E+02  1.709974E+03
       194  23 -6.647029E+05  6.357149E+01 -1.003276E+03  8.794282E+03 -6.812087E+02 -1.490589E+02
       194  24 -6.648045E+05  6.128145E+01 -1.605871E+03  2.042665E+04 -1.173319E+03 -2.006439E+03
       194  25 -7.010383E+05 -8.810050E+03 -9.087086E+03  2.036934E+04 -1.392467E+03  1.706839E+03
       194  26 -6.609636E+05  9.867745E+02 -1.298818E+02  8.818139E+03 -1.883528E+03 -1.521852E+02
       194  27 -6.210908E+05  1.082889E+04  8.485293E+03  2.053153E+04 -2.374630E+03 -2.009562E+03
       195   1 -7.503827E+05 -2.098519E+04 -2.214951E+04  2.010223E+04  2.899580E+02  3.088989E+03
       195   2 -7.899645E+05 -3.081164E+04 -3.277604E+04  8.559673E+03  2.049959E+03  4.944324E+03
       195   3 -8.300828E+05 -4.133178E+04 -4.475304E+04  2.020942E+04  3.810356E+03  6.765246E+03
       195   4 -6.648793E+05  1.484979E+02 -2.059240E+03  2.040988E+04  1.499460E+03  3.092093E+03
       195   5 -6.646142E+05  1.356436E+02 -3.496344E+03  8.814774E+03  3.237478E+03  4.947251E+03
       195   6 -6.648826E+05 -5.666955E+02 -6.268151E+03  2.041168E+04  4.976003E+03  6.768004E+03
       195   7 -5.793691E+05  2.128167E+04  1.803054E+04  2.071758E+04  2.709128E+03  3.095198E+03
       195   8 -5.392495E+05  3.108181E+04  2.578229E+04  9.069917E+03  4.425236E+03  4.950178E+03
       195   9 -4.996572E+05  4.019646E+04  3.221490E+04  2.061397E+04  6.141959E+03  6.770762E+03
       195  10 -7.503827E+05 -2.098520E+04 -2.214953E+04  2.010223E+04 -5.320072E-09  8.292689E-10
       195  11 -7.899645E+05 -3.081167E+04 -3.277610E+04  8.559665E+03 -5.977058E-09 -2.838847E-09
       195  12 -8.300828E+05 -4.133184E+04 -4.475315E+04  2.020940E+04 -5.907810E-09 -8.952895E-10
       195  13 -6.648793E+05  1.484871E+02 -2.059262E+03  2.040988E+04 -1.617853E-11 -2.523780E-10
       195  14 -6.646143E+05  1.356146E+02 -3.496410E+03  8.814761E+03 -2.831429E-09  3.717330E-09
       195  15 -6.648826E+05 -5.667514E+02 -6.268284E+03  2.041165E+04 -4.459760E-10  4.513622E-09
       195  16 -5.793691E+05  2.128165E+04  1.803051E+04  2.071757E+04  3.234683E-09  4.669587E-09
       195  17 -5.392495E+05  3.108178E+04  2.578221E+04  9.069899E+03  7.541002E-09 -2.133297E-09
       195  18 -4.996573E+05  4.019640E+04  3.221474E+04  2.061394E+04  3.037416E-09  5.326435E-09
       195  19 -7.503827E+05 -2.098519E+04 -2.214951E+04  2.010223E+04 -2.899580E+02 -3.088989E+03
       195  20 -7.899645E+05 -3.081164E+04 -3.277604E+04  8.559673E+03 -2.049959E+03 -4.944324E+03
       195  21 -8.300828E+05 -4.133178E+04 -4.475304E+04  2.020942E+04 -3.810356E+03 -6.765246E+03
       195  22 -6.648793E+05  1.484979E+02 -2.059240E+03  2.040988E+04 -1.499460E+03 -3.092093E+03
       195  23 -6.646142E+05  1.356436E+02 -3.496344E+03  8.814774E+03 -3.237478E+03 -4.947251E+03
       195  24 -6.648826E+05 -5.666955E+02 -6.268151E+03  2.041168E+04 -4.976003E+03 -6.768004E+03
       195  25 -5.793691E+05  2.128167E+04  1.803054E+04  2.071758E+04 -2.709128E+03 -3.095198E+03
       195  26 -5.392495E+05  3.108181E+04  2.578229E+04  9.069917E+03 -4.425236E+03 -4.950178E+03
       195  27 -4.996572E+05  4.019646E+04  3.221490E+04  2.061397E+04 -6.141959E+03 -6.770762E+03
       196   1 -8.722458E+05 -5.051835E+04 -5.647551E+04  1.865994E+04  4.902686E+03  7.912036E+03
       196   2 -9.100616E+05 -5.990537E+04 -7.130304E+04  9.122786E+03  1.225468E+04  9.705834E+03
       196   3 -9.512680E+05 -7.866221E+04 -9.328494E+04  2.256942E+04  1.960812E+04  1.093979E+04
       196   4 -6.655070E+05  5.536732E+02 -8.076867E+03  2.035832E+04  6.235103E+03  7.915093E+03
       196   5 -6.638480E+05  8.835736E+02 -1.377774E+04  8.876355E+03  1.322719E+04  9.707792E+03
       196   6 -6.655165E+05 -8.091459E+03 -2.638055E+04  2.037773E+04  2.022120E+04  1.094070E+04
       196   7 -4.587289E+05  5.162267E+04  4.031887E+04  2.205725E+04  7.567961E+03  7.918158E+03
       196   8 -4.175783E+05  6.166822E+04  4.374345E+04  8.629793E+03  1.420009E+04  9.709749E+03
       196   9 -3.796897E+05  6.247351E+04  4.051828E+04  1.818498E+04  2.083455E+04  1.094162E+04
       196  10 -8.722458E+05 -5.051843E+04 -5.647567E+04  1.865991E+04  8.687552E-09  2.132006E-09
       196  11 -9.100618E+05 -5.990551E+04 -7.130350E+04  9.122691E+03  1.248245E-09  5.673910E-09
       196  12 -9.512684E+05 -7.866245E+04 -9.328589E+04  2.256925E+04 -3.573028E-09 -1.609493E-09
       196  13 -6.655071E+05  5.535955E+02 -8.077057E+03  2.035828E+04 -1.676787E-09 -4.938526E-09
       196  14 -6.638482E+05  8.834254E+02 -1.377824E+04  8.876252E+03 -4.561476E-09  7.440876E-09
       196  15 -6.655170E+05 -8.091697E+03 -2.638154E+04  2.037755E+04 -1.655936E-10  2.529469E-09
       196  16 -4.587289E+05  5.162259E+04  4.031864E+04  2.205720E+04 -1.047773E-08 -8.771918E-10
       196  17 -4.175786E+05  6.166806E+04  4.374289E+04  8.629682E+03 -1.272201E-09 -8.298245E-09
       196  18 -3.796902E+05  6.247327E+04  4.051724E+04  1.818480E+04  1.520844E-09 -5.330009E-10
       196  19 -8.722458E+05 -5.051835E+04 -5.647551E+04  1.865994E+04 -4.902686E+03 -7.912036E+03
       196  20 -9.100616E+05 -5.990537E+04 -7.130304E+04  9.122786E+03 -1.225468E+04 -9.705834E+03
       196  21 -9.512680E+05 -7.866221E+04 -9.328494E+04  2.256942E+04 -1.960812E+04 -1.093979E+04
       196  22 -6.655070E+05  5.536732E+02 -8.076867E+03  2.035832E+04 -6.235103E+03 -7.915093E+03
       196  23 -6.638480E+05  8.835736E+02 -1.377774E+04  8.876355E+03 -1.322719E+04 -9.707792E+03
       196  24 -6.655165E+05 -8.091459E+03 -2.638055E+04  2.037773E+04 -2.022120E+04 -1.094070E+04
       196  25 -4.587289E+05  5.162267E+04  4.031887E+04  2.205725E+04 -7.567961E+03 -7.918158E+03
       196  26 -4.175783E+05  6.166822E+04  4.374345E+04  8.629793E+03 -1.420009E+04 -9.709749E+03
       196  27 -3.796897E+05  6.247351E+04  4.051828E+04  1.818498E+04 -2.083455E+04 -1.094162E+04
       197   1 -9.985746E+05 -7.535845E+04 -1.088418E+05  5.623733E+03  2.142805E+04  1.326721E+04
       197   2 -1.021532E+06 -8.105862E+04 -1.389775E+05  1.995769E+04  5.652672E+04  1.401324E+04
       197   3 -1.076836E+06 -1.977214E+05 -2.197346E+05  5.674040E+04  9.164032E+04  4.754883E+03
       197   4 -6.717111E+05  5.393784E+03 -3.261041E+04  2.018994E+04  2.511059E+04  1.327497E+04
       197   5 -6.561277E+05  9.152263E+03 -5.341365E+04  9.058887E+03  5.374803E+04  1.400629E+04
       197   6 -6.717505E+05 -9.689597E+04 -1.203278E+05  2.037850E+04  8.240311E+04  4.732938E+03
       197   7 -3.447485E+05  8.613923E+04  4.361388E+04  3.476382E+04  2.879506E+04  1.328291E+04
       197   8 -2.905994E+05  9.935412E+04  3.214122E+04 -1.846436E+03  5.096771E+04  1.399943E+04
       197   9 -2.665120E+05  3.922340E+03 -2.093187E+04 -1.600727E+04  7.315986E+04  4.712084E+03
       197  10 -9.985751E+05 -7.535876E+04 -1.088430E+05  5.623504E+03  9.726076E-10 -1.517200E-09
       197  11 -1.021536E+06 -8.105969E+04 -1.389839E+05  1.995705E+04  2.629301E-09  5.006207E-09
       197  12 -1.076845E+06 -1.977237E+05 -2.197505E+05  5.674005E+04  2.445419E-09  5.759828E-09
       197  13 -6.717119E+05  5.393425E+03 -3.261192E+04  2.018967E+04  3.787582E-12  3.335003E-09
       197  14 -6.561308E+05  9.151275E+03 -5.341946E+04  9.058281E+03  1.099473E-09  2.854617E-09
       197  15 -6.717578E+05 -9.689782E+04 -1.203406E+05  2.037819E+04  2.315934E-10  3.711231E-09
       197  16 -3.447495E+05  8.613881E+04  4.361199E+04  3.476351E+04 -3.416832E-10  5.587730E-09
       197  17 -2.906023E+05  9.935321E+04  3.213597E+04 -1.847010E+03 -1.934070E-09  3.013902E-09
       197  18 -2.665178E+05  3.920879E+03 -2.094197E+04 -1.600755E+04 -3.240764E-09 -6.369085E-10
       197  19 -9.985746E+05 -7.535845E+04 -1.088418E+05  5.623733E+03 -2.142805E+04 -1.326721E+04
       197  20 -1.021532E+06 -8.105862E+04 -1.389775E+05  1.995769E+04 -5.652672E+04 -1.401324E+04
       197  21 -1.076836E+06 -1.977214E+05 -2.197346E+05  5.674040E+04 -9.164032E+04 -4.754883E+03
       197  22 -6.717111E+05  5.393784E+03 -3.261041E+04  2.018994E+04 -2.511059E+04 -1.327497E+04
       197  23 -6.561277E+05  9.152263E+03 -5.341365E+04  9.058887E+03 -5.374803E+04 -1.400629E+04
       197  24 -6.717505E+05 -9.689597E+04 -1.203278E+05  2.037850E+04 -8.240311E+04 -4.732938E+03
       197  25 -3.447485E+05  8.613923E+04  4.361388E+04  3.476382E+04 -2.879506E+04 -1.328291E+04
       197  26 -2.905994E+05  9.935412E+04  3.214122E+04 -1.846436E+03 -5.096771E+04 -1.399943E+04
       197  27 -2.665120E+05  3.922340E+03 -2.093187E+04 -1.600727E+04 -7.315986E+04 -4.712084E+03
